##TITLE=Quinuclidine
##JCAMP-DX=4.24
##DATA TYPE=MASS SPECTRUM
##ORIGIN=Japan AIST/NIMC Database- Spectrum MS-NW-7215
##OWNER=NIST Mass Spectrometry Data Center
Collection (C) 2014 copyright by the U.S. Secretary of Commerce
on behalf of the United States of America. All rights reserved.
##CAS REGISTRY NO=100-76-5
##$NIST MASS SPEC NO=236162
##MOLFORM=C7 H13 N
##MW=111
##$NIST SOURCE=MSDC
##XUNITS=M/Z
##YUNITS=RELATIVE INTENSITY
##XFACTOR=1
##YFACTOR=1
##FIRSTX=15
##LASTX=113
##FIRSTY=219
##MAXX=113
##MINX=15
##MAXY=9999
##MINY=10
##NPOINTS=54
##PEAK TABLE=(XY..XY)
15,219 26,99 27,759 28,539
29,479 30,199 37,20 38,50
39,659 40,129 41,1079 42,9999
43,519 44,119 46,10 47,20
48,60 50,70 51,109 52,90
53,379 54,589 55,1969 56,609
57,879 58,90 63,10 65,50
66,30 67,199 68,549 69,1259
70,249 71,30 77,30 78,10
79,90 80,99 81,239 82,3129
83,1339 84,159 93,10 94,40
95,40 96,1969 97,159 98,10
108,50 109,20 110,1779 111,3259
112,269 113,10
##END=
