##TITLE=4-Pyridinecarbonitrile
##JCAMP-DX=4.24
##DATA TYPE=MASS SPECTRUM
##ORIGIN=Japan AIST/NIMC Database- Spectrum MS-NW-1377
##OWNER=NIST Mass Spectrometry Data Center
Collection (C) 2014 copyright by the U.S. Secretary of Commerce
on behalf of the United States of America. All rights reserved.
##CAS REGISTRY NO=100-48-1
##$NIST MASS SPEC NO=233456
##MOLFORM=C6 H4 N2
##MW=104
##$NIST SOURCE=MSDC
##XUNITS=M/Z
##YUNITS=RELATIVE INTENSITY
##XFACTOR=1
##YFACTOR=1
##FIRSTX=12
##LASTX=106
##FIRSTY=20
##MAXX=106
##MINX=12
##MAXY=9999
##MINY=10
##NPOINTS=42
##PEAK TABLE=(XY..XY)
12,20 13,10 14,10 24,20
25,80 26,1009 27,119 28,289
36,60 37,339 38,289 39,119
40,60 41,20 44,10 48,70
49,329 50,2129 51,1189 52,589
53,529 54,20 57,20 60,20
61,50 62,99 63,119 64,1379
65,60 74,80 75,609 76,1529
77,5449 78,569 79,20 100,20
101,20 102,10 103,449 104,9999
105,729 106,20
##END=
