##TITLE=1,4-Benzenediamine, N,N,N',N'-tetramethyl-
##JCAMP-DX=4.24
##DATA TYPE=MASS SPECTRUM
##ORIGIN=NIST Mass Spectrometry Data Center, 1998.
##OWNER=NIST Mass Spectrometry Data Center
Collection (C) 2014 copyright by the U.S. Secretary of Commerce
on behalf of the United States of America. All rights reserved.
##CAS REGISTRY NO=100-22-1
##$NIST MASS SPEC NO=290505
##MOLFORM=C10 H16 N2
##MW=164
##$NIST SOURCE=MSDC
##XUNITS=M/Z
##YUNITS=RELATIVE INTENSITY
##XFACTOR=1
##YFACTOR=1
##FIRSTX=15
##LASTX=166
##FIRSTY=90
##MAXX=166
##MINX=15
##MAXY=9999
##MINY=10
##NPOINTS=93
##PEAK TABLE=(XY..XY)
15,90 26,10 27,40 28,10
29,10 30,10 37,10 38,40
39,160 40,30 41,80 42,530
43,50 44,110 46,10 50,170
51,300 52,140 53,60 54,30
55,30 56,10 58,110 59,110
61,20 62,60 63,290 64,130
65,440 66,300 67,90 68,80
69,20 70,10 72,30 73,820
74,240 75,100 76,180 77,850
78,410 79,330 80,140 81,1510
82,870 87,10 88,20 89,60
90,180 91,300 92,230 93,190
94,50 95,10 102,100 103,80
104,750 105,630 106,400 107,1680
108,170 109,10 116,30 117,130
118,510 119,330 120,1840 121,1340
122,1850 123,160 124,10 129,30
130,20 131,460 132,620 133,1020
134,350 135,70 136,10 143,10
145,100 146,60 147,1750 148,2190
149,7699 150,860 151,40 161,170
162,50 163,1260 164,9999 165,1260
166,70
##END=
