##TITLE=2H-Pyran-2-methanol, tetrahydro-
##JCAMP-DX=4.24
##DATA TYPE=MASS SPECTRUM
##ORIGIN=Japan AIST/NIMC Database- Spectrum MS-NW-1261
##OWNER=NIST Mass Spectrometry Data Center
Collection (C) 2014 copyright by the U.S. Secretary of Commerce
on behalf of the United States of America. All rights reserved.
##CAS REGISTRY NO=100-72-1
##$NIST MASS SPEC NO=233699
##MOLFORM=C6 H12 O2
##MW=116
##$NIST SOURCE=MSDC
##XUNITS=M/Z
##YUNITS=RELATIVE INTENSITY
##XFACTOR=1
##YFACTOR=1
##FIRSTX=14
##LASTX=116
##FIRSTY=20
##MAXX=116
##MINX=14
##MAXY=9999
##MINY=10
##NPOINTS=56
##PEAK TABLE=(XY..XY)
14,20 15,159 17,20 18,70
19,10 26,119 27,1029 28,589
29,2599 30,99 31,1549 32,269
33,10 37,20 38,50 39,679
40,159 41,3849 42,229 43,2519
44,219 45,139 50,30 51,50
52,10 53,169 54,80 55,1179
56,429 57,2279 58,119 59,20
60,90 61,90 65,40 66,10
67,1949 68,129 69,60 70,30
71,20 75,10 77,10 79,30
81,10 82,10 83,60 84,339
85,9999 86,559 87,30 97,30
98,20 99,10 115,10 116,10
##END=
