##TITLE=Cyclohexanamine, N-methyl-
##JCAMP-DX=4.24
##DATA TYPE=MASS SPECTRUM
##ORIGIN=NIST Mass Spectrometry Data Center, 2009
##OWNER=NIST Mass Spectrometry Data Center
Collection (C) 2014 copyright by the U.S. Secretary of Commerce
on behalf of the United States of America. All rights reserved.
##CAS REGISTRY NO=100-60-7
##$NIST MASS SPEC NO=373150
##MOLFORM=C7 H15 N
##MW=113
##$NIST SOURCE=MSDC
##XUNITS=M/Z
##YUNITS=RELATIVE INTENSITY
##XFACTOR=1
##YFACTOR=1
##FIRSTX=15
##LASTX=115
##FIRSTY=40
##MAXX=115
##MINX=15
##MAXY=9999
##MINY=10
##NPOINTS=49
##PEAK TABLE=(XY..XY)
15,40 26,30 27,230 28,370
29,230 30,310 31,20 32,60
37,10 38,30 39,410 40,70
41,601 42,711 43,170 44,631
45,20 46,10 50,30 51,70
52,50 53,170 54,190 55,420
56,621 57,2292 58,140 59,10
63,10 65,30 66,20 67,130
68,210 70,9999 71,651 72,30
81,70 82,110 83,70 84,490
85,40 94,20 96,10 97,10
98,30 112,200 113,2162 114,180
115,10
##END=
