##TITLE=1,2-Ethanediamine, N,N-diethyl-
##JCAMP-DX=4.24
##DATA TYPE=MASS SPECTRUM
##ORIGIN=RADIAN CORP
##OWNER=NIST Mass Spectrometry Data Center
Collection (C) 2014 copyright by the U.S. Secretary of Commerce
on behalf of the United States of America. All rights reserved.
##CAS REGISTRY NO=100-36-7
##$NIST MASS SPEC NO=69539
##MOLFORM=C6 H16 N2
##MW=116
##$NIST SOURCE=MSDC
##XUNITS=M/Z
##YUNITS=RELATIVE INTENSITY
##XFACTOR=1
##YFACTOR=1
##FIRSTX=18
##LASTX=117
##FIRSTY=20
##MAXX=117
##MINX=18
##MAXY=9999
##MINY=10
##NPOINTS=37
##PEAK TABLE=(XY..XY)
18,20 26,40 27,190 28,100
29,250 30,800 39,10 40,30
41,150 42,470 43,170 54,80
55,60 56,360 57,170 58,1980
59,80 68,30 69,60 70,110
71,130 72,340 73,70 82,10
83,20 84,80 86,9999 87,700
88,20 97,30 98,30 99,100
100,20 101,20 113,50 116,260
117,30
##END=
