##TITLE=Benzene, (methylthio)-
##JCAMP-DX=4.24
##DATA TYPE=MASS SPECTRUM
##ORIGIN=Japan AIST/NIMC Database- Spectrum MS-NW-3098
##OWNER=NIST Mass Spectrometry Data Center
Collection (C) 2014 copyright by the U.S. Secretary of Commerce
on behalf of the United States of America. All rights reserved.
##CAS REGISTRY NO=100-68-5
##$NIST MASS SPEC NO=227860
##MOLFORM=C7 H8 S
##MW=124
##$NIST SOURCE=MSDC
##XUNITS=M/Z
##YUNITS=RELATIVE INTENSITY
##XFACTOR=1
##YFACTOR=1
##FIRSTX=14
##LASTX=127
##FIRSTY=10
##MAXX=127
##MINX=14
##MAXY=9999
##MINY=10
##NPOINTS=73
##PEAK TABLE=(XY..XY)
14,10 15,90 26,30 27,129
28,279 31,10 32,80 34,10
37,80 38,129 39,699 40,20
41,10 44,50 45,1209 46,289
47,209 48,20 49,60 50,569
51,1169 52,159 53,20 54,10
57,80 58,109 59,50 60,20
61,50 62,249 63,219 64,40
65,1229 66,70 68,10 69,609
70,60 71,60 72,20 73,50
74,199 75,129 76,99 77,719
78,3179 79,429 80,30 81,80
82,199 83,80 84,30 89,50
90,50 91,2599 92,199 93,30
97,50 98,10 105,10 106,10
107,20 108,309 109,3429 110,289
111,149 112,10 121,70 122,20
123,779 124,9999 125,869 126,469
127,30
##END=
