##TITLE=Benzeneethanol, .alpha.,.alpha.-dimethyl-
##JCAMP-DX=4.24
##DATA TYPE=MASS SPECTRUM
##ORIGIN=Japan AIST/NIMC Database- Spectrum MS-NW-3646
##OWNER=NIST Mass Spectrometry Data Center
Collection (C) 2014 copyright by the U.S. Secretary of Commerce
on behalf of the United States of America. All rights reserved.
##CAS REGISTRY NO=100-86-7
##$NIST MASS SPEC NO=232311
##MOLFORM=C10 H14 O
##MW=150
##$NIST SOURCE=MSDC
##XUNITS=M/Z
##YUNITS=RELATIVE INTENSITY
##XFACTOR=1
##YFACTOR=1
##FIRSTX=14
##LASTX=150
##FIRSTY=10
##MAXX=150
##MINX=14
##MAXY=9999
##MINY=10
##NPOINTS=77
##PEAK TABLE=(XY..XY)
14,10 15,159 18,10 26,30
27,209 28,30 29,239 31,1169
37,20 38,90 39,689 40,70
41,669 42,40 43,1749 44,50
45,30 49,10 50,159 51,409
52,129 53,80 54,10 55,70
56,10 57,469 58,149 59,7909
60,289 61,30 62,99 63,309
64,99 65,999 66,90 67,109
68,10 73,10 74,40 75,40
76,30 77,259 78,109 79,119
80,10 85,10 86,20 87,20
89,199 90,129 91,4079 92,9999
93,899 94,40 101,10 102,30
103,50 104,20 105,80 106,10
107,40 108,40 115,229 116,99
117,679 118,70 119,10 127,10
128,20 129,20 131,60 132,169
133,90 134,30 135,1129 136,119
150,30
##END=
