##TITLE=Benzenemethanethiol
##JCAMP-DX=4.24
##DATA TYPE=MASS SPECTRUM
##ORIGIN=Japan AIST/NIMC Database- Spectrum MS-NW-3729
##OWNER=NIST Mass Spectrometry Data Center
Collection (C) 2014 copyright by the U.S. Secretary of Commerce
on behalf of the United States of America. All rights reserved.
##CAS REGISTRY NO=100-53-8
##$NIST MASS SPEC NO=233945
##MOLFORM=C7 H8 S
##MW=124
##$NIST SOURCE=MSDC
##XUNITS=M/Z
##YUNITS=RELATIVE INTENSITY
##XFACTOR=1
##YFACTOR=1
##FIRSTX=18
##LASTX=126
##FIRSTY=20
##MAXX=126
##MINX=18
##MAXY=9999
##MINY=10
##NPOINTS=62
##PEAK TABLE=(XY..XY)
18,20 26,30 27,70 28,30
32,20 33,40 34,30 37,60
38,129 39,609 40,40 41,119
43,10 44,30 45,829 46,40
47,60 49,20 50,209 51,459
52,109 53,40 58,20 59,10
60,50 61,109 62,229 63,409
64,109 65,1159 66,70 69,90
70,10 71,20 73,10 74,50
75,40 76,20 77,319 78,139
79,109 80,10 81,10 82,10
84,10 85,20 86,30 87,20
88,10 89,329 90,159 91,9999
92,829 93,30 95,10 97,30
121,159 122,30 123,99 124,3199
125,289 126,159
##END=
