##TITLE=Benzaldehyde, 4-(dimethylamino)-
##JCAMP-DX=4.24
##DATA TYPE=MASS SPECTRUM
##ORIGIN=NIST Mass Spectrometry Data Center, 1990.
##OWNER=NIST Mass Spectrometry Data Center
Collection (C) 2014 copyright by the U.S. Secretary of Commerce
on behalf of the United States of America. All rights reserved.
##CAS REGISTRY NO=100-10-7
##$NIST MASS SPEC NO=118780
##MOLFORM=C9 H11 N O
##MW=149
##$NIST SOURCE=MSDC
##XUNITS=M/Z
##YUNITS=RELATIVE INTENSITY
##XFACTOR=1
##YFACTOR=1
##FIRSTX=15
##LASTX=151
##FIRSTY=441
##MAXX=151
##MINX=15
##MAXY=9999
##MINY=16
##NPOINTS=71
##PEAK TABLE=(XY..XY)
15,441 16,29 17,16 18,50
26,61 27,173 28,162 29,311
30,52 37,81 38,225 39,522
40,97 41,177 42,1557 43,118
44,232 46,28 50,673 51,1083
52,248 53,124 54,64 55,37
58,178 59,224 60,431 62,150
63,525 64,254 65,295 66,113
67,48 68,83 69,39 74,463
75,245 76,413 77,1828 78,655
79,651 80,90 81,35 86,36
87,19 88,41 89,66 90,165
91,581 92,297 93,225 94,116
102,54 103,339 104,748 105,752
106,112 117,107 118,554 119,305
120,562 121,103 132,937 133,412
134,92 135,28 146,129 148,9999
149,7585 150,651 151,47
##END=
