##TITLE=Benzene, (bromomethyl)-
##JCAMP-DX=4.24
##DATA TYPE=MASS SPECTRUM
##ORIGIN=NIST Mass Spectrometry Data Center, 1998.
##OWNER=NIST Mass Spectrometry Data Center
Collection (C) 2014 copyright by the U.S. Secretary of Commerce
on behalf of the United States of America. All rights reserved.
##CAS REGISTRY NO=100-39-0
##$NIST MASS SPEC NO=291329
##MOLFORM=C7 H7 Br
##MW=170
##$NIST SOURCE=MSDC
##XUNITS=M/Z
##YUNITS=RELATIVE INTENSITY
##XFACTOR=1
##YFACTOR=1
##FIRSTX=26
##LASTX=173
##FIRSTY=40
##MAXX=173
##MINX=26
##MAXY=9999
##MINY=10
##NPOINTS=54
##PEAK TABLE=(XY..XY)
26,40 27,60 36,10 37,80
38,210 39,670 40,60 41,110
43,40 44,30 45,90 48,10
49,60 50,420 51,500 52,200
53,30 60,20 61,160 62,400
63,950 64,260 65,1690 66,100
73,20 74,70 75,50 76,40
77,10 79,90 80,20 81,90
82,20 83,10 84,20 85,100
86,130 87,60 88,20 89,750
90,330 91,9999 92,860 93,40
95,10 117,10 119,10 143,10
145,10 169,20 170,590 171,60
172,570 173,40
##END=
