##TITLE=Methenamine
##JCAMP-DX=4.24
##DATA TYPE=MASS SPECTRUM
##ORIGIN=Japan AIST/NIMC Database- Spectrum MS-NW-1244
##OWNER=NIST Mass Spectrometry Data Center
Collection (C) 2014 copyright by the U.S. Secretary of Commerce
on behalf of the United States of America. All rights reserved.
##CAS REGISTRY NO=100-97-0
##$NIST MASS SPEC NO=228325
##MOLFORM=C6 H12 N4
##MW=140
##$NIST SOURCE=MSDC
##XUNITS=M/Z
##YUNITS=RELATIVE INTENSITY
##XFACTOR=1
##YFACTOR=1
##FIRSTX=15
##LASTX=141
##FIRSTY=739
##MAXX=141
##MINX=15
##MAXY=9999
##MINY=10
##NPOINTS=37
##PEAK TABLE=(XY..XY)
15,739 18,20 26,10 27,60
28,189 29,20 30,119 32,10
39,10 40,80 41,369 42,9999
43,369 44,149 54,20 55,30
56,90 57,40 58,10 69,309
70,50 71,389 72,10 81,10
83,289 84,129 85,549 86,30
96,99 97,60 98,50 110,10
111,199 112,769 113,50 140,3859
141,319
##END=
