##TITLE=Benzenemethanamine, 3-fluoro-
##JCAMP-DX=4.24
##DATA TYPE=MASS SPECTRUM
##ORIGIN=Chuck Anderson, Aldrich Chemical Co.
##OWNER=NIST Mass Spectrometry Data Center
Collection (C) 2014 copyright by the U.S. Secretary of Commerce
on behalf of the United States of America. All rights reserved.
##CAS REGISTRY NO=100-82-3
##$NIST MASS SPEC NO=107797
##MOLFORM=C7 H8 F N
##MW=125
##$NIST SOURCE=MSDC
##XUNITS=M/Z
##YUNITS=RELATIVE INTENSITY
##XFACTOR=1
##YFACTOR=1
##FIRSTX=18
##LASTX=126
##FIRSTY=10
##MAXX=126
##MINX=18
##MAXY=9999
##MINY=10
##NPOINTS=70
##PEAK TABLE=(XY..XY)
18,10 26,45 27,141 28,2999
29,939 30,3879 31,167 37,100
38,169 39,387 40,35 41,50
44,41 45,42 48,45 49,74
50,594 51,719 52,354 53,131
54,54 56,55 57,492 59,60
61,177 62,419 63,402 64,50
65,43 68,222 69,352 70,417
71,61 73,70 74,359 75,1039
76,204 77,1119 78,349 79,133
80,18 81,222 82,56 83,759
84,51 85,46 86,41 87,19
89,115 92,46 93,66 94,197
95,1289 96,1229 97,3239 98,239
102,71 104,829 105,4999 106,629
107,609 108,141 109,1459 110,102
121,45 122,739 123,155 124,9999
125,2759 126,192
##END=
