##TITLE=Benzene, 1-ethyl-4-nitro-
##JCAMP-DX=4.24
##DATA TYPE=MASS SPECTRUM
##ORIGIN=Japan AIST/NIMC Database- Spectrum MS-NW- 973
##OWNER=NIST Mass Spectrometry Data Center
Collection (C) 2014 copyright by the U.S. Secretary of Commerce
on behalf of the United States of America. All rights reserved.
##CAS REGISTRY NO=100-12-9
##$NIST MASS SPEC NO=230237
##MOLFORM=C8 H9 N O2
##MW=151
##$NIST SOURCE=MSDC
##XUNITS=M/Z
##YUNITS=RELATIVE INTENSITY
##XFACTOR=1
##YFACTOR=1
##FIRSTX=15
##LASTX=153
##FIRSTY=60
##MAXX=153
##MINX=15
##MAXY=9999
##MINY=10
##NPOINTS=79
##PEAK TABLE=(XY..XY)
15,60 17,20 18,80 26,129
27,1969 28,389 29,309 30,1899
32,10 37,159 38,449 39,2309
40,219 41,329 42,20 43,60
46,129 49,90 50,1709 51,2999
52,759 53,879 54,60 55,90
56,20 60,10 61,179 62,579
63,1769 64,519 65,1149 66,169
67,30 73,80 74,569 75,519
76,509 77,8199 78,3259 79,6049
80,409 81,10 86,10 87,99
88,50 89,1539 90,1039 91,1029
92,189 93,1109 94,90 98,30
99,10 101,60 102,369 103,3419
104,1859 105,8459 106,2089 107,199
108,10 116,20 117,20 118,30
119,60 120,60 121,1259 122,109
123,20 133,10 134,1139 135,489
136,2629 137,199 138,20 150,70
151,9999 152,959 153,80
##END=
