##TITLE=4-Cyanocyclohexene
##JCAMP-DX=4.24
##DATA TYPE=MASS SPECTRUM
##ORIGIN=NIST Mass Spectrometry Data Center, 1994
##OWNER=NIST Mass Spectrometry Data Center
Collection (C) 2014 copyright by the U.S. Secretary of Commerce
on behalf of the United States of America. All rights reserved.
##CAS REGISTRY NO=100-45-8
##$NIST MASS SPEC NO=135213
##MOLFORM=C7 H9 N
##MW=107
##$NIST SOURCE=MSDC
##XUNITS=M/Z
##YUNITS=RELATIVE INTENSITY
##XFACTOR=1
##YFACTOR=1
##FIRSTX=5
##LASTX=108
##FIRSTY=43
##MAXX=108
##MINX=5
##MAXY=9999
##MINY=1
##NPOINTS=75
##PEAK TABLE=(XY..XY)
5,43 6,23 7,15 9,46
10,6 11,28 12,23 13,16
14,152 15,422 16,1 17,23
18,42 19,26 24,21 26,1771
27,4438 28,1527 29,223 30,36
31,16 32,10 34,18 37,685
38,1441 39,8173 40,1075 41,5448
42,325 43,67 45,19 46,47
48,38 49,239 50,1708 51,2833
52,2752 53,2208 54,9999 55,623
56,17 61,149 62,283 63,528
64,561 65,1130 66,2008 67,2697
68,174 72,17 73,78 74,192
75,338 76,335 77,1623 78,861
79,4638 80,4361 81,750 82,33
87,25 88,35 89,34 90,59
91,25 92,1990 93,152 99,35
102,49 103,36 104,156 105,34
106,2100 107,3706 108,316
##END=
