##TITLE=2-Pyridinecarbonitrile
##JCAMP-DX=4.24
##DATA TYPE=MASS SPECTRUM
##ORIGIN=NIST Mass Spectrometry Data Center, 1994
##OWNER=NIST Mass Spectrometry Data Center
Collection (C) 2014 copyright by the U.S. Secretary of Commerce
on behalf of the United States of America. All rights reserved.
##CAS REGISTRY NO=100-70-9
##$NIST MASS SPEC NO=135665
##MOLFORM=C6 H4 N2
##MW=104
##$NIST SOURCE=MSDC
##XUNITS=M/Z
##YUNITS=RELATIVE INTENSITY
##XFACTOR=1
##YFACTOR=1
##FIRSTX=12
##LASTX=106
##FIRSTY=152
##MAXX=106
##MINX=12
##MAXY=9999
##MINY=11
##NPOINTS=39
##PEAK TABLE=(XY..XY)
12,152 13,68 14,89 24,120
25,295 26,1859 27,488 28,544
36,184 37,845 38,1090 39,558
40,97 48,187 49,937 50,3702
51,3286 52,1710 53,859 54,38
60,52 61,102 62,145 63,170
64,561 65,84 66,12 74,140
75,1326 76,1911 77,5527 78,953
79,44 86,11 100,29 101,28
104,9999 105,724 106,24
##END=
