##TITLE=Benzene, 1,4-dinitro-
##JCAMP-DX=4.24
##DATA TYPE=MASS SPECTRUM
##ORIGIN=Japan AIST/NIMC Database- Spectrum MS-NW-3757
##OWNER=NIST Mass Spectrometry Data Center
Collection (C) 2014 copyright by the U.S. Secretary of Commerce
on behalf of the United States of America. All rights reserved.
##CAS REGISTRY NO=100-25-4
##$NIST MASS SPEC NO=229145
##MOLFORM=C6 H4 N2 O4
##MW=168
##$NIST SOURCE=MSDC
##XUNITS=M/Z
##YUNITS=RELATIVE INTENSITY
##XFACTOR=1
##YFACTOR=1
##FIRSTX=12
##LASTX=170
##FIRSTY=10
##MAXX=170
##MINX=12
##MAXY=9999
##MINY=10
##NPOINTS=75
##PEAK TABLE=(XY..XY)
12,10 14,10 16,20 17,10
18,30 25,40 26,159 27,99
28,489 29,30 30,9999 31,50
32,20 36,50 37,499 38,769
39,549 40,50 41,10 42,20
43,10 44,40 45,40 46,179
48,20 49,199 50,5389 51,689
52,249 53,369 54,129 55,10
60,50 61,279 62,459 63,1499
64,2279 65,169 66,60 67,20
68,60 72,20 73,299 74,1959
75,8099 76,5879 77,549 78,30
79,40 80,40 82,50 86,20
87,40 88,40 89,20 90,50
91,60 92,2809 93,219 94,20
96,10 105,40 106,70 107,10
108,40 121,20 122,3059 123,229
124,20 138,50 152,259 153,20
168,9209 169,679 170,99
##END=
