##TITLE=Benzeneethanamine, N,.alpha.,.alpha.-trimethyl-
##JCAMP-DX=4.24
##DATA TYPE=MASS SPECTRUM
##ORIGIN=NIST Mass Spectrometry Data Center, 1990.
##OWNER=NIST Mass Spectrometry Data Center
Collection (C) 2014 copyright by the U.S. Secretary of Commerce
on behalf of the United States of America. All rights reserved.
##CAS REGISTRY NO=100-92-5
##$NIST MASS SPEC NO=113865
##MOLFORM=C11 H17 N
##MW=163
##$NIST SOURCE=MSDC
##XUNITS=M/Z
##YUNITS=RELATIVE INTENSITY
##XFACTOR=1
##YFACTOR=1
##FIRSTX=14
##LASTX=149
##FIRSTY=25
##MAXX=149
##MINX=14
##MAXY=9999
##MINY=13
##NPOINTS=61
##PEAK TABLE=(XY..XY)
14,25 15,39 26,13 27,97
28,35 29,113 30,385 31,19
32,20 38,39 39,337 40,58
41,319 42,402 43,97 44,72
50,85 51,206 52,61 53,49
54,58 55,107 56,592 57,287
58,29 62,44 63,153 64,56
65,527 66,47 68,14 70,415
72,9999 73,479 74,51 75,23
76,25 77,143 78,65 79,42
89,123 91,1005 92,81 102,22
103,41 104,28 105,42 115,202
116,68 117,210 118,38 128,20
129,17 130,28 131,31 132,72
133,118 134,16 146,42 148,372
149,40
##END=
