##TITLE=Phosphonic acid, methyl-, dipentyl ester
##JCAMP-DX=4.24
##DATA TYPE=MASS SPECTRUM
##ORIGIN=A.A.Kutin, Moscow, Russia
##OWNER=NIST Mass Spectrometry Data Center
Collection (C) 2014 copyright by the U.S. Secretary of Commerce
on behalf of the United States of America. All rights reserved.
##CAS REGISTRY NO=1000-36-8
##$NIST MASS SPEC NO=273174
##MOLFORM=C11 H25 O3 P
##MW=236
##$NIST SOURCE=MSDC
##XUNITS=M/Z
##YUNITS=RELATIVE INTENSITY
##XFACTOR=1
##YFACTOR=1
##FIRSTX=41
##LASTX=237
##FIRSTY=1131
##MAXX=237
##MINX=41
##MAXY=9999
##MINY=0
##NPOINTS=123
##PEAK TABLE=(XY..XY)
41,1131 42,540 43,1498 44,75
45,127 47,86 48,10 49,21
50,6 51,17 52,7 53,85
54,48 55,496 56,36 57,67
58,15 59,12 60,2 61,8
62,25 63,36 64,7 65,95
66,9 67,77 68,38 69,221
70,133 71,752 72,40 73,5
74,2 75,1 77,28 79,868
80,253 81,128 82,9 83,11
84,3 85,6 86,2 87,5
89,3 90,4 91,20 92,21
93,18 94,14 95,31 97,9999
98,160 99,71 100,2 101,2
103,5 104,3 105,13 106,4
107,5 108,6 109,64 110,69
111,239 112,7 113,2 115,3
117,2 119,12 120,5 121,17
123,548 124,52 125,315 126,12
127,3 131,6 133,6 135,11
136,11 137,89 138,10 139,24
140,2 143,3 145,2 149,54
151,70 152,20 153,4 154,0
158,2 163,3 165,50 167,1980
168,137 169,17 170,2 171,2
173,3 175,2 179,26 180,3
181,3 186,2 188,3 190,3
191,0 192,2 193,29 194,8
195,0 197,1 207,5 208,2
211,1 212,0 221,3 226,0
227,2 235,8 237,67
##END=
