##TITLE=Silane, butyltrimethyl-
##JCAMP-DX=4.24
##DATA TYPE=MASS SPECTRUM
##ORIGIN=D.HENNEBERG, MAX-PLANCK INSTITUTE, MULHEIM, WEST GERMANY
##OWNER=NIST Mass Spectrometry Data Center
Collection (C) 2014 copyright by the U.S. Secretary of Commerce
on behalf of the United States of America. All rights reserved.
##CAS REGISTRY NO=1000-49-3
##$NIST MASS SPEC NO=61884
##MOLFORM=C7 H18 Si
##MW=130
##$NIST SOURCE=MSDC
##XUNITS=M/Z
##YUNITS=RELATIVE INTENSITY
##XFACTOR=1
##YFACTOR=1
##FIRSTX=25
##LASTX=131
##FIRSTY=10
##MAXX=131
##MINX=25
##MAXY=9999
##MINY=3
##NPOINTS=59
##PEAK TABLE=(XY..XY)
25,10 26,11 27,96 29,163
31,225 33,7 39,52 41,57
42,60 43,644 44,234 45,780
46,66 47,33 48,5 49,6
50,3 51,5 53,45 54,14
55,111 56,33 57,116 58,239
59,4451 60,298 61,142 62,3
65,3 66,11 67,15 68,4
69,14 70,27 71,63 72,138
73,9999 74,791 75,309 76,9
81,3 83,10 85,42 86,35
87,110 88,10 89,3 97,5
99,8 101,81 102,13 103,3
113,16 114,6 115,1522 116,167
117,52 130,55 131,5
##END=
