##TITLE=Dibenzofuran, 2,8-dibromo-
##JCAMP-DX=4.24
##DATA TYPE=MASS SPECTRUM
##ORIGIN=Div. of Experiment Therapeutics WRAIR, WRAMC, Washington DC 20307
##OWNER=NIST Mass Spectrometry Data Center
Collection (C) 2014 copyright by the U.S. Secretary of Commerce
on behalf of the United States of America. All rights reserved.
##CAS REGISTRY NO=10016-52-1
##$NIST MASS SPEC NO=213096
##MOLFORM=C12 H6 Br2 O
##MW=324
##$NIST SOURCE=MSDC
##XUNITS=M/Z
##YUNITS=RELATIVE INTENSITY
##XFACTOR=1
##YFACTOR=1
##FIRSTX=41
##LASTX=331
##FIRSTY=109
##MAXX=331
##MINX=41
##MAXY=9999
##MINY=3
##NPOINTS=166
##PEAK TABLE=(XY..XY)
41,109 42,38 43,161 44,76
45,45 46,8 47,17 49,51
50,1722 51,696 52,7 53,343
55,866 56,543 57,11 58,4
59,5 61,785 62,1942 63,2239
64,334 65,86 67,1003 68,26
69,7047 71,47 73,10 74,3196
75,899 76,72 77,267 79,495
80,96 81,196 82,109 83,1101
85,436 86,1501 87,1213 88,741
89,93 90,5 91,17 92,34
93,12 94,23 95,34 96,39
97,4 98,1729 99,873 100,382
101,59 102,12 104,99 105,52
106,125 108,305 109,3263 110,4585
111,1772 112,1054 113,254 114,29
116,72 117,215 119,208 120,27
122,576 123,729 124,306 125,39
126,13 127,23 128,26 129,22
130,26 131,24 132,64 133,76
134,161 135,144 137,4100 138,5563
139,1221 140,132 141,69 142,9
143,100 145,19 147,49 148,7
149,84 150,61 152,120 153,11
154,20 155,21 156,4 162,995
163,2013 164,1101 166,606 167,291
168,94 169,87 170,7 178,19
179,22 180,6 181,23 183,16
184,156 185,19 188,9 189,22
190,122 191,457 193,515 194,45
195,14 198,3 201,6 202,24
203,32 204,7 205,18 206,4
207,12 209,10 215,68 217,5547
219,5630 220,496 221,24 227,7
228,5 229,15 230,4 244,20
245,65 246,103 247,88 248,86
249,10 262,8 264,7 271,4
279,4 283,15 284,7 285,16
295,79 297,162 298,16 299,64
300,9 323,27 324,5100 325,731
326,9999 327,1357 328,4919 329,655
330,44 331,5
##END=
