##TITLE=Heptane, 2-chloro-
##JCAMP-DX=4.24
##DATA TYPE=MASS SPECTRUM
##ORIGIN=Japan AIST/NIMC Database- Spectrum MS-NW-3117
##OWNER=NIST Mass Spectrometry Data Center
Collection (C) 2014 copyright by the U.S. Secretary of Commerce
on behalf of the United States of America. All rights reserved.
##CAS REGISTRY NO=1001-89-4
##$NIST MASS SPEC NO=231731
##MOLFORM=C7 H15 Cl
##MW=134
##$NIST SOURCE=MSDC
##XUNITS=M/Z
##YUNITS=RELATIVE INTENSITY
##XFACTOR=1
##YFACTOR=1
##FIRSTX=14
##LASTX=135
##FIRSTY=10
##MAXX=135
##MINX=14
##MAXY=9999
##MINY=10
##NPOINTS=67
##PEAK TABLE=(XY..XY)
14,10 15,90 26,109 27,1749
28,149 29,1969 30,40 35,20
36,149 37,20 38,80 39,1279
40,249 41,5159 42,1839 43,5539
44,189 45,40 49,60 50,60
51,109 52,40 53,329 54,519
55,3739 56,9999 57,3469 58,149
59,10 61,30 62,70 63,509
64,30 65,159 66,20 67,159
68,379 69,5119 70,4009 71,879
72,40 75,40 76,70 77,139
78,30 79,50 81,90 82,50
83,809 84,149 85,239 86,20
89,20 90,20 91,40 93,10
95,60 96,50 97,179 98,2189
99,259 100,10 105,299 106,20
107,99 133,10 135,10
##END=
