##TITLE=Decane, 3-chloro-
##JCAMP-DX=4.24
##DATA TYPE=MASS SPECTRUM
##ORIGIN=DM6-171-F29
##OWNER=NIST Mass Spectrometry Data Center
Collection (C) 2014 copyright by the U.S. Secretary of Commerce
on behalf of the United States of America. All rights reserved.
##CAS REGISTRY NO=1002-11-5
##$NIST MASS SPEC NO=31278
##MOLFORM=C10 H21 Cl
##MW=176
##$NIST SOURCE=MSDC
##XUNITS=M/Z
##YUNITS=RELATIVE INTENSITY
##XFACTOR=1
##YFACTOR=1
##FIRSTX=41
##LASTX=141
##FIRSTY=8289
##MAXX=141
##MINX=41
##MAXY=9999
##MINY=104
##NPOINTS=34
##PEAK TABLE=(XY..XY)
41,8289 42,4196 43,9999 44,311
53,622 54,829 55,9585 56,8626
57,5051 58,207 69,6113 70,6528
71,1813 72,130 76,130 77,311
79,130 82,984 83,3238 84,4015
85,1217 86,130 96,492 97,3834
98,2254 99,130 105,466 107,207
111,2746 112,1425 113,104 119,104
140,518 141,622
##END=
