##TITLE=Undecane, 3-methyl-
##JCAMP-DX=4.24
##DATA TYPE=MASS SPECTRUM
##ORIGIN=Japan AIST/NIMC Database- Spectrum MS-NW-3636
##OWNER=NIST Mass Spectrometry Data Center
Collection (C) 2014 copyright by the U.S. Secretary of Commerce
on behalf of the United States of America. All rights reserved.
##CAS REGISTRY NO=1002-43-3
##$NIST MASS SPEC NO=232058
##MOLFORM=C12 H26
##MW=170
##$NIST SOURCE=MSDC
##XUNITS=M/Z
##YUNITS=RELATIVE INTENSITY
##XFACTOR=1
##YFACTOR=1
##FIRSTX=15
##LASTX=170
##FIRSTY=20
##MAXX=170
##MINX=15
##MAXY=9999
##MINY=10
##NPOINTS=60
##PEAK TABLE=(XY..XY)
15,20 26,30 27,869 28,30
29,2119 30,50 38,10 39,569
40,109 41,3109 42,659 43,6029
44,209 50,10 51,30 52,10
53,159 54,90 55,1189 56,3109
57,9999 58,489 59,10 65,20
66,10 67,80 68,70 69,389
70,589 71,4699 72,259 77,10
79,10 81,20 82,80 83,259
84,279 85,3829 86,269 87,10
96,40 97,209 98,159 99,849
100,80 110,20 111,129 112,239
113,139 114,10 126,40 127,30
135,10 137,10 140,869 141,1179
142,139 154,20 155,60 170,50
##END=
