##TITLE=Sulfur monochloride
##JCAMP-DX=4.24
##DATA TYPE=MASS SPECTRUM
##ORIGIN=J.C.BLAIS THE CURIE LAB. INST. OF RADIUM, PARIS, FRANCE
##OWNER=NIST Mass Spectrometry Data Center
Collection (C) 2014 copyright by the U.S. Secretary of Commerce
on behalf of the United States of America. All rights reserved.
##CAS REGISTRY NO=10025-67-9
##$NIST MASS SPEC NO=37527
##MOLFORM=Cl2 S2
##MW=134
##$NIST SOURCE=MSDC
##XUNITS=M/Z
##YUNITS=RELATIVE INTENSITY
##XFACTOR=1
##YFACTOR=1
##FIRSTX=32
##LASTX=139
##FIRSTY=2350
##MAXX=139
##MINX=32
##MAXY=9999
##MINY=15
##NPOINTS=25
##PEAK TABLE=(XY..XY)
32,2350 33,20 34,105 35,1250
37,400 64,4330 65,70 66,410
67,1540 68,20 69,580 71,23
99,9999 100,180 101,4220 102,180
103,330 104,83 106,16 134,6940
135,100 136,5080 137,80 138,1150
139,15
##END=
