##TITLE=Decane, 1-chloro-
##JCAMP-DX=4.24
##DATA TYPE=MASS SPECTRUM
##ORIGIN=Japan AIST/NIMC Database- Spectrum MS-NW-8305
##OWNER=NIST Mass Spectrometry Data Center
Collection (C) 2014 copyright by the U.S. Secretary of Commerce
on behalf of the United States of America. All rights reserved.
##CAS REGISTRY NO=1002-69-3
##$NIST MASS SPEC NO=232398
##MOLFORM=C10 H21 Cl
##MW=176
##$NIST SOURCE=MSDC
##XUNITS=M/Z
##YUNITS=RELATIVE INTENSITY
##XFACTOR=1
##YFACTOR=1
##FIRSTX=15
##LASTX=176
##FIRSTY=30
##MAXX=176
##MINX=15
##MAXY=9999
##MINY=10
##NPOINTS=78
##PEAK TABLE=(XY..XY)
15,30 26,50 27,1359 28,299
29,2429 30,60 35,10 36,70
38,30 39,859 40,169 41,5099
42,1579 43,9999 44,349 49,109
50,10 51,70 52,20 53,289
54,269 55,5709 56,2049 57,5919
58,259 61,10 62,30 63,239
64,10 65,90 66,20 67,289
68,279 69,3989 70,1359 71,1699
72,90 75,40 76,20 77,189
78,20 79,70 81,80 82,159
83,1439 84,549 85,1019 86,60
89,10 90,40 91,8329 92,389
93,2629 94,119 95,20 96,40
97,839 98,259 99,40 104,80
105,1539 106,109 107,489 108,20
110,10 111,239 112,109 113,10
118,20 119,129 120,10 121,40
132,10 133,30 135,10 140,10
147,20 176,10
##END=
