##TITLE=trans-1,4-Bis(aminomethyl)cyclohexane
##JCAMP-DX=4.24
##DATA TYPE=MASS SPECTRUM
##ORIGIN=H. SUESS, CIBA-GEIGY AG, MUNCHWILEN
##OWNER=NIST Mass Spectrometry Data Center
Collection (C) 2014 copyright by the U.S. Secretary of Commerce
on behalf of the United States of America. All rights reserved.
##CAS REGISTRY NO=10029-07-9
##$NIST MASS SPEC NO=74173
##MOLFORM=C8 H18 N2
##MW=142
##$NIST SOURCE=MSDC
##XUNITS=M/Z
##YUNITS=RELATIVE INTENSITY
##XFACTOR=1
##YFACTOR=1
##FIRSTX=30
##LASTX=142
##FIRSTY=9999
##MAXX=142
##MINX=30
##MAXY=9999
##MINY=400
##NPOINTS=20
##PEAK TABLE=(XY..XY)
30,9999 41,700 54,1200 55,1200
56,1500 67,2000 68,1200 70,600
79,1300 81,2000 82,1000 93,500
94,600 95,2000 96,2000 108,1400
112,6000 113,4600 125,7500 142,400
##END=
