##TITLE=3-Hexyn-1-ol
##JCAMP-DX=4.24
##DATA TYPE=MASS SPECTRUM
##ORIGIN=Japan AIST/NIMC Database- Spectrum MS-NW-3225
##OWNER=NIST Mass Spectrometry Data Center
Collection (C) 2014 copyright by the U.S. Secretary of Commerce
on behalf of the United States of America. All rights reserved.
##CAS REGISTRY NO=1002-28-4
##$NIST MASS SPEC NO=233619
##MOLFORM=C6 H10 O
##MW=98
##$NIST SOURCE=MSDC
##XUNITS=M/Z
##YUNITS=RELATIVE INTENSITY
##XFACTOR=1
##YFACTOR=1
##FIRSTX=14
##LASTX=99
##FIRSTY=30
##MAXX=99
##MINX=14
##MAXY=9999
##MINY=10
##NPOINTS=67
##PEAK TABLE=(XY..XY)
14,30 15,139 17,30 18,129
19,10 25,10 26,209 27,1269
28,219 29,679 30,60 31,2759
32,20 33,10 36,20 37,199
38,379 39,2999 40,1729 41,5029
42,1199 43,799 44,179 45,70
46,10 47,10 48,10 49,90
50,519 51,899 52,679 53,4529
54,349 55,779 56,219 57,259
58,50 59,20 60,20 61,129
62,239 63,399 64,90 65,1399
66,629 67,6309 68,9999 69,869
70,179 71,50 73,20 74,60
75,30 77,549 78,90 79,1359
80,599 81,119 82,70 83,859
84,50 94,10 95,20 96,30
97,109 98,1319 99,99
##END=
