##TITLE=cis-1,4-Bis(aminomethyl)cyclohexane
##JCAMP-DX=4.24
##DATA TYPE=MASS SPECTRUM
##ORIGIN=H. SUESS, CIBA-GEIGY AG, MUNCHWILEN, SWITZER
##OWNER=NIST Mass Spectrometry Data Center
Collection (C) 2014 copyright by the U.S. Secretary of Commerce
on behalf of the United States of America. All rights reserved.
##CAS REGISTRY NO=10029-09-1
##$NIST MASS SPEC NO=74172
##MOLFORM=C8 H18 N2
##MW=142
##$NIST SOURCE=MSDC
##XUNITS=M/Z
##YUNITS=RELATIVE INTENSITY
##XFACTOR=1
##YFACTOR=1
##FIRSTX=30
##LASTX=142
##FIRSTY=5500
##MAXX=142
##MINX=30
##MAXY=9999
##MINY=300
##NPOINTS=17
##PEAK TABLE=(XY..XY)
30,5500 41,700 54,1100 55,1000
56,1500 67,1800 68,1000 79,900
81,1500 82,1000 95,1500 96,1700
112,2000 113,9999 114,700 125,3200
142,300
##END=
