##TITLE=Pentadecanoic acid
##JCAMP-DX=4.24
##DATA TYPE=MASS SPECTRUM
##ORIGIN=NIST Mass Spectrometry Data Center
##OWNER=NIST Mass Spectrometry Data Center
Collection (C) 2014 copyright by the U.S. Secretary of Commerce
on behalf of the United States of America. All rights reserved.
##CAS REGISTRY NO=1002-84-2
##$NIST MASS SPEC NO=352553
##MOLFORM=C15 H30 O2
##MW=242
##$NIST SOURCE=MSDC
##XUNITS=M/Z
##YUNITS=RELATIVE INTENSITY
##XFACTOR=1
##YFACTOR=1
##FIRSTX=15
##LASTX=244
##FIRSTY=20
##MAXX=244
##MINX=15
##MAXY=9999
##MINY=10
##NPOINTS=163
##PEAK TABLE=(XY..XY)
15,20 19,10 26,40 27,1071
28,290 29,2592 30,70 31,120
36,10 37,10 38,30 39,1171
40,270 41,7907 42,1752 43,9499
44,340 45,1161 46,30 47,30
50,30 51,80 52,40 53,581
54,611 55,7697 56,1862 57,7517
58,380 59,510 60,9318 61,2282
62,90 63,20 64,10 65,110
66,60 67,721 68,510 69,3633
70,1011 71,3503 72,250 73,9999
74,951 75,100 76,20 77,90
78,40 79,240 80,90 81,540
82,540 83,2542 84,1121 85,2412
86,250 87,2182 88,280 89,40
91,70 92,20 93,160 94,60
95,360 96,490 97,1902 98,1171
99,841 100,120 101,971 102,300
103,60 104,10 105,20 106,10
107,120 108,50 109,160 110,230
111,791 112,350 113,500 114,70
115,1451 116,480 117,60 118,10
119,10 120,10 121,140 122,30
123,80 124,130 125,350 126,150
127,320 129,4414 130,510 131,50
132,10 133,10 135,70 136,20
137,30 138,90 139,130 140,80
141,100 142,10 143,1641 144,210
145,20 147,60 148,40 149,50
150,10 151,30 152,80 153,70
154,110 155,20 157,921 158,110
159,10 163,20 165,10 166,10
167,20 168,10 169,10 171,811
172,120 173,10 177,10 178,10
180,200 181,50 182,80 183,40
184,10 185,1221 186,170 187,20
191,10 195,10 196,10 199,1862
200,260 201,20 205,10 206,30
208,10 213,370 214,60 215,10
223,10 225,60 226,10 227,10
242,1591 243,260 244,20
##END=
