##TITLE=2(1H)-Pyridinone, 3-methyl-
##JCAMP-DX=4.24
##DATA TYPE=MASS SPECTRUM
##ORIGIN=James Little,Eastman Chem.Co.,Kingsport,TN
##OWNER=NIST Mass Spectrometry Data Center
Collection (C) 2014 copyright by the U.S. Secretary of Commerce
on behalf of the United States of America. All rights reserved.
##CAS REGISTRY NO=1003-56-1
##$NIST MASS SPEC NO=288492
##MOLFORM=C6 H7 N O
##MW=109
##$NIST SOURCE=MSDC
##XUNITS=M/Z
##YUNITS=RELATIVE INTENSITY
##XFACTOR=1
##YFACTOR=1
##FIRSTX=27
##LASTX=110
##FIRSTY=1742
##MAXX=110
##MINX=27
##MAXY=9999
##MINY=70
##NPOINTS=28
##PEAK TABLE=(XY..XY)
27,1742 29,270 37,310 38,611
39,1762 40,340 41,440 50,721
51,991 52,971 53,2662 54,861
63,360 64,290 65,290 66,170
67,80 75,70 78,170 79,230
80,9579 81,1621 82,180 91,901
92,210 108,591 109,9999 110,741
##END=
