##TITLE=2-Thiophenecarbonitrile
##JCAMP-DX=4.24
##DATA TYPE=MASS SPECTRUM
##ORIGIN=NIST Mass Spectrometry Data Center
##OWNER=NIST Mass Spectrometry Data Center
Collection (C) 2014 copyright by the U.S. Secretary of Commerce
on behalf of the United States of America. All rights reserved.
##CAS REGISTRY NO=1003-31-2
##$NIST MASS SPEC NO=343545
##MOLFORM=C5 H3 N S
##MW=109
##$NIST SOURCE=MSDC
##XUNITS=M/Z
##YUNITS=RELATIVE INTENSITY
##XFACTOR=1
##YFACTOR=1
##FIRSTX=12
##LASTX=112
##FIRSTY=80
##MAXX=112
##MINX=12
##MAXY=9999
##MINY=10
##NPOINTS=63
##PEAK TABLE=(XY..XY)
12,80 13,40 18,20 24,60
25,160 26,280 27,100 28,130
32,270 33,50 34,50 36,210
37,981 38,891 39,941 40,50
41,30 44,290 45,3833 46,100
47,190 48,130 49,340 50,360
51,380 52,90 53,20 54,130
56,240 57,1081 58,4404 59,170
60,210 61,40 62,170 63,240
64,951 65,561 66,10 68,150
69,761 70,1051 71,70 72,40
74,120 75,360 76,180 77,10
80,110 81,310 82,1071 83,530
84,50 85,20 92,20 93,20
94,60 106,100 107,110 109,9999
110,691 111,460 112,30
##END=
