##TITLE=Methyl hexadec-9-enoate
##JCAMP-DX=4.24
##DATA TYPE=MASS SPECTRUM
##ORIGIN=NIST Mass Spectrometry Data Center
##OWNER=NIST Mass Spectrometry Data Center
Collection (C) 2014 copyright by the U.S. Secretary of Commerce
on behalf of the United States of America. All rights reserved.
##CAS REGISTRY NO=10030-74-7
##$NIST MASS SPEC NO=333999
##MOLFORM=C17 H32 O2
##MW=268
##$NIST SOURCE=MSDC
##XUNITS=M/Z
##YUNITS=RELATIVE INTENSITY
##XFACTOR=1
##YFACTOR=1
##FIRSTX=15
##LASTX=270
##FIRSTY=120
##MAXX=270
##MINX=15
##MAXY=9999
##MINY=10
##NPOINTS=190
##PEAK TABLE=(XY..XY)
15,120 26,20 27,571 28,170
29,1251 30,40 31,60 33,20
39,1121 40,250 41,5595 42,1171
43,4014 44,160 45,240 46,10
50,20 51,90 52,90 53,1051
54,2412 55,9999 56,2062 57,1661
58,110 59,2692 60,80 61,30
62,10 63,20 65,410 66,280
67,4164 68,2402 69,7457 70,1631
71,881 72,140 73,671 74,6796
75,851 76,60 77,400 78,150
79,1291 80,621 81,4194 82,2642
83,6126 84,4874 85,1011 87,5445
88,490 89,50 91,450 92,110
93,691 94,681 95,3123 96,5525
97,5525 98,4664 99,631 100,160
101,1091 102,120 103,30 104,10
105,290 106,110 107,530 108,500
109,1962 110,3223 111,2863 112,1101
113,611 114,691 115,1071 116,170
117,40 118,40 119,581 120,210
121,731 122,360 123,2642 124,1732
125,1491 126,320 127,641 128,751
129,681 130,160 131,30 132,20
133,500 134,460 135,671 136,300
137,1571 138,1581 139,871 140,160
141,1341 142,240 143,520 144,70
145,30 146,10 147,450 148,360
149,370 150,150 151,971 152,2722
153,761 154,110 155,380 156,70
157,140 158,50 159,10 161,240
162,90 163,140 164,60 165,581
166,500 167,180 168,40 169,110
170,20 171,170 172,100 173,20
175,150 176,50 177,50 178,40
179,340 180,170 181,100 182,40
183,60 184,10 185,170 186,100
187,20 189,80 190,30 191,10
192,741 193,561 194,2512 195,510
196,50 197,30 198,10 199,50
200,60 201,10 203,10 205,10
207,320 208,240 209,40 211,20
213,30 214,10 217,30 218,230
219,190 220,30 221,70 222,10
225,130 226,20 227,10 236,2803
237,1832 238,280 239,60 240,10
250,50 251,10 266,10 268,831
269,190 270,20
##END=
