##TITLE=2-Acetamido-2-deoxy-.alpha.-D-glucopyranose
##JCAMP-DX=4.24
##DATA TYPE=MASS SPECTRUM
##ORIGIN=Japan AIST/NIMC Database- Spectrum MS-IW-6592
##OWNER=NIST Mass Spectrometry Data Center
Collection (C) 2014 copyright by the U.S. Secretary of Commerce
on behalf of the United States of America. All rights reserved.
##CAS REGISTRY NO=10036-64-3
##$NIST MASS SPEC NO=241901
##MOLFORM=C8 H15 N O6
##MW=221
##$NIST SOURCE=MSDC
##XUNITS=M/Z
##YUNITS=RELATIVE INTENSITY
##XFACTOR=1
##YFACTOR=1
##FIRSTX=12
##LASTX=221
##FIRSTY=20
##MAXX=221
##MINX=12
##MAXY=9999
##MINY=10
##NPOINTS=168
##PEAK TABLE=(XY..XY)
12,20 13,50 14,309 15,1579
16,40 17,50 18,250 19,10
24,10 25,50 26,349 27,869
28,2689 29,2019 30,5389 31,2579
32,739 33,30 34,10 36,10
37,60 38,149 39,539 40,379
41,1029 42,2389 43,9999 44,1619
45,919 46,109 47,319 48,10
49,30 50,70 51,149 52,309
53,289 54,759 55,1599 56,2129
57,779 58,1049 59,4859 60,6069
61,2229 62,90 63,40 64,40
65,99 66,159 67,129 68,469
69,419 70,499 71,979 72,8819
73,3049 74,709 75,60 76,60
77,40 78,90 79,149 80,329
81,229 82,309 83,2879 84,1959
85,809 86,429 87,119 88,1219
89,189 90,50 91,359 92,40
93,109 94,139 95,219 96,1229
97,589 98,499 99,159 100,3189
101,3789 102,999 103,509 104,50
105,20 106,30 107,99 108,129
109,399 110,149 111,109 112,1019
113,459 114,4519 115,579 116,70
117,30 118,249 119,30 120,30
121,30 122,40 123,99 124,189
125,1499 126,709 127,119 128,40
129,20 130,1309 131,139 132,159
133,99 134,80 135,70 136,70
137,50 138,279 139,139 140,50
141,80 142,1449 143,1789 144,239
145,30 146,10 147,10 148,289
149,90 150,30 151,189 152,40
153,20 154,859 155,289 156,179
157,99 158,20 159,10 160,309
161,50 162,20 165,10 166,20
167,229 168,70 169,20 170,10
172,269 173,30 174,159 175,20
178,10 184,10 185,199 186,119
187,10 190,109 191,10 192,50
203,20 204,229 205,20 221,60
##END=
