##TITLE=Acetic acid, 2-ethylbutyl ester
##JCAMP-DX=4.24
##DATA TYPE=MASS SPECTRUM
##ORIGIN=Chuck Anderson, Aldrich Chemical Co.
##OWNER=NIST Mass Spectrometry Data Center
Collection (C) 2014 copyright by the U.S. Secretary of Commerce
on behalf of the United States of America. All rights reserved.
##CAS REGISTRY NO=10031-87-5
##$NIST MASS SPEC NO=107612
##MOLFORM=C8 H16 O2
##MW=144
##$NIST SOURCE=MSDC
##XUNITS=M/Z
##YUNITS=RELATIVE INTENSITY
##XFACTOR=1
##YFACTOR=1
##FIRSTX=13
##LASTX=145
##FIRSTY=1
##MAXX=145
##MINX=13
##MAXY=9999
##MINY=1
##NPOINTS=75
##PEAK TABLE=(XY..XY)
13,1 14,13 15,189 16,3
19,4 25,1 26,30 27,501
28,100 29,628 30,22 31,103
32,1 36,1 37,6 38,24
39,594 40,89 41,1604 42,1126
43,9999 44,262 45,76 46,2
49,1 50,15 51,30 52,13
53,109 54,79 55,1280 56,887
57,116 58,17 59,63 60,5
61,183 62,5 63,3 65,9
66,3 67,42 68,18 69,1897
70,420 71,435 72,135 73,987
74,979 75,129 76,7 77,3
79,2 81,2 82,3 83,51
84,1882 85,184 86,266 87,16
88,1 93,1 97,4 99,51
100,5 101,13 103,1 108,3
111,6 114,2 115,79 116,4
129,10 144,2 145,6
##END=
