##TITLE=Cyclopropane, 1,1-diethyl-
##JCAMP-DX=4.24
##DATA TYPE=MASS SPECTRUM
##ORIGIN=NIST Mass Spectrometry Data Center, 1990.
##OWNER=NIST Mass Spectrometry Data Center
Collection (C) 2014 copyright by the U.S. Secretary of Commerce
on behalf of the United States of America. All rights reserved.
##CAS REGISTRY NO=1003-19-6
##$NIST MASS SPEC NO=113635
##MOLFORM=C7 H14
##MW=98
##$NIST SOURCE=MSDC
##XUNITS=M/Z
##YUNITS=RELATIVE INTENSITY
##XFACTOR=1
##YFACTOR=1
##FIRSTX=15
##LASTX=98
##FIRSTY=407
##MAXX=98
##MINX=15
##MAXY=9999
##MINY=316
##NPOINTS=22
##PEAK TABLE=(XY..XY)
15,407 26,316 27,2481 28,990
29,1489 38,404 39,3350 41,9625
42,1825 43,567 51,612 53,1269
54,730 55,7640 56,2782 57,398
65,430 67,1262 69,9999 70,3757
83,1252 98,2671
##END=
