##TITLE=Furan, tetrahydro-2,5-dimethyl-
##JCAMP-DX=4.24
##DATA TYPE=MASS SPECTRUM
##ORIGIN=Japan AIST/NIMC Database- Spectrum MS-NW-8894
##OWNER=NIST Mass Spectrometry Data Center
Collection (C) 2014 copyright by the U.S. Secretary of Commerce
on behalf of the United States of America. All rights reserved.
##CAS REGISTRY NO=1003-38-9
##$NIST MASS SPEC NO=235180
##MOLFORM=C6 H12 O
##MW=100
##$NIST SOURCE=MSDC
##XUNITS=M/Z
##YUNITS=RELATIVE INTENSITY
##XFACTOR=1
##YFACTOR=1
##FIRSTX=14
##LASTX=101
##FIRSTY=30
##MAXX=101
##MINX=14
##MAXY=9999
##MINY=10
##NPOINTS=54
##PEAK TABLE=(XY..XY)
14,30 15,339 16,10 18,20
26,129 27,1149 28,1099 29,2169
30,70 31,119 32,10 37,10
38,60 39,1049 40,359 41,7739
42,499 43,6109 44,249 45,2529
46,50 50,50 51,80 52,30
53,239 54,219 55,1549 56,9999
57,2229 58,149 59,80 61,20
65,40 66,10 67,1559 68,90
69,30 70,10 71,20 72,30
73,10 79,20 81,20 82,10
83,129 84,40 85,7219 86,409
87,60 97,20 98,60 99,279
100,569 101,90
##END=
