##TITLE=Benzaldehyde, 4-ethoxy-
##JCAMP-DX=4.24
##DATA TYPE=MASS SPECTRUM
##ORIGIN=Japan AIST/NIMC Database- Spectrum MS-IW-1903
##OWNER=NIST Mass Spectrometry Data Center
Collection (C) 2014 copyright by the U.S. Secretary of Commerce
on behalf of the United States of America. All rights reserved.
##CAS REGISTRY NO=10031-82-0
##$NIST MASS SPEC NO=227691
##MOLFORM=C9 H10 O2
##MW=150
##$NIST SOURCE=MSDC
##XUNITS=M/Z
##YUNITS=RELATIVE INTENSITY
##XFACTOR=1
##YFACTOR=1
##FIRSTX=15
##LASTX=152
##FIRSTY=10
##MAXX=152
##MINX=15
##MAXY=9999
##MINY=10
##NPOINTS=60
##PEAK TABLE=(XY..XY)
15,10 18,10 26,40 27,279
28,50 29,439 30,10 37,40
38,139 39,589 40,60 41,10
42,10 43,30 45,10 49,10
50,229 51,379 52,30 53,80
55,40 60,10 61,40 62,109
63,299 64,159 65,1049 66,169
67,40 73,10 74,109 75,80
76,149 77,339 78,40 79,40
81,10 91,50 92,99 93,1059
94,269 95,20 103,10 104,40
105,139 106,10 107,10 109,10
110,60 119,10 121,9999 122,2189
123,179 124,10 135,40 147,10
149,499 150,4639 151,459 152,30
##END=
