##TITLE=Butanoic acid, 2-methyl-, hexyl ester
##JCAMP-DX=4.24
##DATA TYPE=MASS SPECTRUM
##ORIGIN=NIST Mass Spectrometry Data Center, 2010
##OWNER=NIST Mass Spectrometry Data Center
Collection (C) 2014 copyright by the U.S. Secretary of Commerce
on behalf of the United States of America. All rights reserved.
##CAS REGISTRY NO=10032-15-2
##$NIST MASS SPEC NO=372716
##MOLFORM=C11 H22 O2
##MW=186
##$NIST SOURCE=MSDC
##XUNITS=M/Z
##YUNITS=RELATIVE INTENSITY
##XFACTOR=1
##YFACTOR=1
##FIRSTX=15
##LASTX=186
##FIRSTY=20
##MAXX=186
##MINX=15
##MAXY=9999
##MINY=10
##NPOINTS=66
##PEAK TABLE=(XY..XY)
15,20 26,50 27,661 28,310
29,1431 30,40 31,50 39,601
41,2662 42,891 43,3523 44,150
45,90 47,40 51,40 52,10
53,150 54,140 55,1491 56,2953
57,5835 58,270 59,50 60,10
61,40 65,10 67,80 68,40
69,1391 70,110 71,60 72,30
73,170 74,1541 75,340 76,20
77,10 81,10 82,30 83,260
84,3043 85,5025 86,280 87,711
88,30 99,120 100,30 101,100
102,440 103,9999 104,581 105,60
111,10 115,120 116,10 128,10
129,400 130,30 142,10 143,30
144,10 156,10 158,350 159,40
171,10 186,10
##END=
