##TITLE=Cyclopentanamine
##JCAMP-DX=4.24
##DATA TYPE=MASS SPECTRUM
##ORIGIN=Japan AIST/NIMC Database- Spectrum MS-NW-4935
##OWNER=NIST Mass Spectrometry Data Center
Collection (C) 2014 copyright by the U.S. Secretary of Commerce
on behalf of the United States of America. All rights reserved.
##CAS REGISTRY NO=1003-03-8
##$NIST MASS SPEC NO=230802
##MOLFORM=C5 H11 N
##MW=85
##$NIST SOURCE=MSDC
##XUNITS=M/Z
##YUNITS=RELATIVE INTENSITY
##XFACTOR=1
##YFACTOR=1
##FIRSTX=14
##LASTX=86
##FIRSTY=10
##MAXX=86
##MINX=14
##MAXY=9999
##MINY=10
##NPOINTS=39
##PEAK TABLE=(XY..XY)
14,10 15,149 26,70 27,289
28,909 29,319 30,1549 31,20
32,10 36,10 37,20 38,50
39,389 40,70 41,539 42,619
43,1099 44,70 50,20 51,30
52,30 53,50 54,119 55,70
56,9999 57,1739 58,60 65,40
66,20 67,249 68,109 69,40
70,109 80,20 82,60 83,20
84,199 85,929 86,60
##END=
