##TITLE=Cyclohexanone, 2-(1-methylethyl)-
##JCAMP-DX=4.24
##DATA TYPE=MASS SPECTRUM
##ORIGIN=CARL DJERASSI DEPT OF CHEM STANFORD UNIV STANFORD CALIF 94305
##OWNER=NIST Mass Spectrometry Data Center
Collection (C) 2014 copyright by the U.S. Secretary of Commerce
on behalf of the United States of America. All rights reserved.
##CAS REGISTRY NO=1004-77-9
##$NIST MASS SPEC NO=46575
##MOLFORM=C9 H16 O
##MW=140
##$NIST SOURCE=MSDC
##XUNITS=M/Z
##YUNITS=RELATIVE INTENSITY
##XFACTOR=1
##YFACTOR=1
##FIRSTX=41
##LASTX=141
##FIRSTY=3900
##MAXX=141
##MINX=41
##MAXY=9999
##MINY=100
##NPOINTS=43
##PEAK TABLE=(XY..XY)
41,3900 42,1000 43,1900 44,100
47,200 50,100 51,200 52,100
53,600 54,300 55,3600 56,2000
57,400 59,100 65,200 66,100
67,700 68,300 69,3500 70,2000
71,300 72,100 77,200 78,100
79,400 80,200 81,1200 82,300
83,2600 84,700 85,300 91,100
93,200 95,200 96,800 97,2800
98,9999 99,800 100,100 125,3600
126,400 140,3000 141,400
##END=
