##TITLE=Furan, 2-butyltetrahydro-
##JCAMP-DX=4.24
##DATA TYPE=MASS SPECTRUM
##OWNER=NIST Mass Spectrometry Data Center
Collection (C) 2014 copyright by the U.S. Secretary of Commerce
on behalf of the United States of America. All rights reserved.
##CAS REGISTRY NO=1004-29-1
##$NIST MASS SPEC NO=20672
##MOLFORM=C8 H16 O
##MW=128
##$NIST SOURCE=MSDC
##XUNITS=M/Z
##YUNITS=RELATIVE INTENSITY
##XFACTOR=1
##YFACTOR=1
##FIRSTX=2
##LASTX=129
##FIRSTY=60
##MAXX=129
##MINX=2
##MAXY=9999
##MINY=10
##NPOINTS=66
##PEAK TABLE=(XY..XY)
2,60 13,20 14,70 15,340
16,30 17,20 18,50 19,10
24,10 25,10 26,180 27,1882
28,450 29,1591 30,60 31,170
32,10 33,10 36,10 37,30
38,80 39,1091 40,220 41,2082
42,941 43,3463 44,390 45,70
46,10 49,10 50,30 51,60
52,30 53,170 54,110 55,510
56,240 57,480 58,60 65,30
66,20 67,160 68,150 69,250
70,470 71,9999 72,460 73,30
81,60 82,40 83,40 84,40
85,50 86,10 95,20 96,10
97,30 98,10 99,10 111,10
112,10 113,10 126,10 127,40
128,70 129,10
##END=
