##TITLE=2(1H)-Pyrimidinethione, 4,6-diamino-
##JCAMP-DX=4.24
##DATA TYPE=MASS SPECTRUM
##ORIGIN=Japan AIST/NIMC Database- Spectrum MS-NW-7180
##OWNER=NIST Mass Spectrometry Data Center
Collection (C) 2014 copyright by the U.S. Secretary of Commerce
on behalf of the United States of America. All rights reserved.
##CAS REGISTRY NO=1004-39-3
##$NIST MASS SPEC NO=235911
##MOLFORM=C4 H6 N4 S
##MW=142
##$NIST SOURCE=MSDC
##XUNITS=M/Z
##YUNITS=RELATIVE INTENSITY
##XFACTOR=1
##YFACTOR=1
##FIRSTX=12
##LASTX=145
##FIRSTY=10
##MAXX=145
##MINX=12
##MAXY=9999
##MINY=10
##NPOINTS=87
##PEAK TABLE=(XY..XY)
12,10 13,20 14,10 15,139
16,40 25,20 26,20 27,119
28,1259 29,90 30,129 31,10
32,129 33,80 34,50 35,20
36,179 38,159 39,259 40,889
41,1069 42,719 43,2039 44,109
45,329 46,60 47,30 48,10
50,10 51,30 52,60 53,199
54,80 55,1409 56,119 57,80
58,99 59,189 60,549 61,20
62,20 64,30 65,119 66,589
67,3599 68,579 69,40 70,70
71,119 72,139 73,60 74,30
75,20 76,20 77,20 80,10
81,10 82,489 83,569 84,4609
85,209 86,60 87,80 88,10
91,20 92,99 93,10 97,30
98,20 99,80 100,20 101,10
108,20 109,40 110,20 114,199
115,80 116,10 124,10 125,60
126,40 127,10 141,90 142,9999
143,669 144,479 145,30
##END=
