##TITLE=2-Propanone, 1-(5-methyl-3H-1,2-dithiol-3-ylidene)-
##JCAMP-DX=4.24
##DATA TYPE=MASS SPECTRUM
##OWNER=NIST Mass Spectrometry Data Center
Collection (C) 2014 copyright by the U.S. Secretary of Commerce
on behalf of the United States of America. All rights reserved.
##CAS REGISTRY NO=1005-55-6
##$NIST MASS SPEC NO=34023
##MOLFORM=C7 H8 O S2
##MW=172
##$NIST SOURCE=MSDC
##XUNITS=M/Z
##YUNITS=RELATIVE INTENSITY
##XFACTOR=1
##YFACTOR=1
##FIRSTX=43
##LASTX=174
##FIRSTY=2753
##MAXX=174
##MINX=43
##MAXY=9999
##MINY=225
##NPOINTS=20
##PEAK TABLE=(XY..XY)
43,2753 44,674 45,899 58,281
59,1292 69,449 71,337 72,449
76,1011 78,281 85,899 97,337
129,393 140,225 157,9999 158,786
159,899 172,7752 173,674 174,674
##END=
