##TITLE=Cyclopentane, (3-methylbutyl)-
##JCAMP-DX=4.24
##DATA TYPE=MASS SPECTRUM
##ORIGIN=D.HENNEBERG, MAX-PLANCK INSTITUTE, MULHEIM, WEST GERMANY
##OWNER=NIST Mass Spectrometry Data Center
Collection (C) 2014 copyright by the U.S. Secretary of Commerce
on behalf of the United States of America. All rights reserved.
##CAS REGISTRY NO=1005-68-1
##$NIST MASS SPEC NO=61038
##MOLFORM=C10 H20
##MW=140
##$NIST SOURCE=MSDC
##XUNITS=M/Z
##YUNITS=RELATIVE INTENSITY
##XFACTOR=1
##YFACTOR=1
##FIRSTX=27
##LASTX=140
##FIRSTY=2030
##MAXX=140
##MINX=27
##MAXY=9999
##MINY=100
##NPOINTS=48
##PEAK TABLE=(XY..XY)
27,2030 28,2900 29,2400 36,500
38,200 39,2100 40,400 41,7400
42,1510 43,4700 44,1510 45,100
50,100 51,350 52,100 53,700
54,600 55,7180 56,8490 57,4890
58,310 65,200 66,200 67,1900
68,5600 69,9999 70,3000 71,600
77,300 78,500 79,200 80,100
81,410 82,1300 83,2900 84,2000
85,300 91,200 92,100 95,100
96,300 97,1300 98,500 110,100
111,900 112,700 125,400 140,400
##END=
