##TITLE=4-Pyrimidinamine, 6-chloro-2-(methylthio)-
##JCAMP-DX=4.24
##DATA TYPE=MASS SPECTRUM
##ORIGIN=Japan AIST/NIMC Database- Spectrum MS-NW-6270
##OWNER=NIST Mass Spectrometry Data Center
Collection (C) 2014 copyright by the U.S. Secretary of Commerce
on behalf of the United States of America. All rights reserved.
##CAS REGISTRY NO=1005-38-5
##$NIST MASS SPEC NO=234700
##MOLFORM=C5 H6 Cl N3 S
##MW=175
##$NIST SOURCE=MSDC
##XUNITS=M/Z
##YUNITS=RELATIVE INTENSITY
##XFACTOR=1
##YFACTOR=1
##FIRSTX=12
##LASTX=181
##FIRSTY=10
##MAXX=181
##MINX=12
##MAXY=9999
##MINY=10
##NPOINTS=138
##PEAK TABLE=(XY..XY)
12,10 13,20 14,80 15,279
16,10 25,20 26,40 27,149
28,129 29,99 30,70 32,10
33,20 34,10 35,40 36,90
37,30 38,229 39,479 40,1089
41,489 42,309 43,849 44,259
45,739 46,509 47,589 48,90
49,90 50,169 51,289 52,279
53,189 54,60 55,90 56,40
57,109 58,149 59,219 60,299
61,70 62,309 63,99 64,119
65,439 66,1009 67,3539 68,419
69,229 70,139 71,50 72,189
73,269 74,1269 75,159 76,259
77,189 78,40 79,129 80,20
81,50 82,60 83,189 84,80
85,129 86,279 87,219 88,159
89,119 90,60 91,719 92,859
93,119 94,6029 95,369 96,40
97,50 98,129 99,60 100,30
101,90 102,539 103,529 104,359
105,229 106,159 107,30 108,60
109,109 110,20 111,60 112,30
113,309 114,50 115,199 116,40
117,60 118,40 119,99 120,50
121,159 122,60 123,40 124,20
125,179 126,189 127,40 128,209
129,6639 130,709 131,2149 132,249
133,109 134,30 135,40 136,10
137,20 138,60 139,139 140,289
141,30 146,20 147,619 148,80
149,459 150,50 151,10 171,30
172,50 173,80 174,2279 175,9999
176,1559 177,4569 178,429 179,179
180,10 181,10
##END=
