##TITLE=1H-Indole, 5-methoxy-
##JCAMP-DX=4.24
##DATA TYPE=MASS SPECTRUM
##ORIGIN=Japan AIST/NIMC Database- Spectrum MS-NW-2599
##OWNER=NIST Mass Spectrometry Data Center
Collection (C) 2014 copyright by the U.S. Secretary of Commerce
on behalf of the United States of America. All rights reserved.
##CAS REGISTRY NO=1006-94-6
##$NIST MASS SPEC NO=234265
##MOLFORM=C9 H9 N O
##MW=147
##$NIST SOURCE=MSDC
##XUNITS=M/Z
##YUNITS=RELATIVE INTENSITY
##XFACTOR=1
##YFACTOR=1
##FIRSTX=14
##LASTX=149
##FIRSTY=10
##MAXX=149
##MINX=14
##MAXY=9999
##MINY=10
##NPOINTS=68
##PEAK TABLE=(XY..XY)
14,10 15,109 26,40 27,60
28,70 29,30 37,70 38,129
39,189 40,20 41,30 43,20
49,40 50,449 51,809 52,329
53,99 54,20 57,20 58,50
59,10 60,10 61,80 62,229
63,379 64,90 65,99 66,20
73,169 74,149 75,169 76,619
77,1239 78,489 79,30 80,40
81,10 85,40 86,60 87,80
88,109 89,529 90,179 91,109
92,10 102,139 103,549 104,5459
105,459 106,10 114,40 115,90
116,479 117,309 118,199 119,119
120,10 130,20 131,239 132,7859
133,739 134,50 144,30 145,10
146,619 147,9999 148,1069 149,70
##END=
