##TITLE=6H-Purine-6-thione, 1,9-dihydro-9-methyl-
##JCAMP-DX=4.24
##DATA TYPE=MASS SPECTRUM
##ORIGIN=F. BERGMANN
##OWNER=NIST Mass Spectrometry Data Center
Collection (C) 2014 copyright by the U.S. Secretary of Commerce
on behalf of the United States of America. All rights reserved.
##CAS REGISTRY NO=1006-20-8
##$NIST MASS SPEC NO=39453
##MOLFORM=C6 H6 N4 S
##MW=166
##$NIST SOURCE=MSDC
##XUNITS=M/Z
##YUNITS=RELATIVE INTENSITY
##XFACTOR=1
##YFACTOR=1
##FIRSTX=40
##LASTX=168
##FIRSTY=1000
##MAXX=168
##MINX=40
##MAXY=9999
##MINY=1000
##NPOINTS=24
##PEAK TABLE=(XY..XY)
40,1000 41,1000 42,5700 45,1900
52,1400 53,1400 67,1400 70,1900
77,1000 79,1400 82,1000 83,1000
98,1000 106,1000 111,1400 112,1000
133,1000 137,1400 138,1400 139,1400
165,1400 166,9999 167,1400 168,1000
##END=
