##TITLE=3-Pyridinol, 4-methyl-, acetate (ester)
##JCAMP-DX=4.24
##DATA TYPE=MASS SPECTRUM
##ORIGIN=L.BAUER UNIV. OF ILLINOIS, CHICAGO, ILLINOIS, USA
##OWNER=NIST Mass Spectrometry Data Center
Collection (C) 2014 copyright by the U.S. Secretary of Commerce
on behalf of the United States of America. All rights reserved.
##CAS REGISTRY NO=1006-96-8
##$NIST MASS SPEC NO=4761
##MOLFORM=C8 H9 N O2
##MW=151
##$NIST SOURCE=MSDC
##XUNITS=M/Z
##YUNITS=RELATIVE INTENSITY
##XFACTOR=1
##YFACTOR=1
##FIRSTX=39
##LASTX=152
##FIRSTY=900
##MAXX=152
##MINX=39
##MAXY=9999
##MINY=100
##NPOINTS=15
##PEAK TABLE=(XY..XY)
39,900 43,8100 50,700 51,900
52,900 53,1800 80,2800 81,500
91,600 108,400 109,9999 110,800
123,500 151,1500 152,100
##END=
