##TITLE=1-Propene, 1,3-dichloro-, (E)-
##JCAMP-DX=4.24
##DATA TYPE=MASS SPECTRUM
##ORIGIN=NIST Mass Spectrometry Data Center, 1998.
##OWNER=NIST Mass Spectrometry Data Center
Collection (C) 2014 copyright by the U.S. Secretary of Commerce
on behalf of the United States of America. All rights reserved.
##CAS REGISTRY NO=10061-02-6
##$NIST MASS SPEC NO=290863
##MOLFORM=C3 H4 Cl2
##MW=110
##$NIST SOURCE=MSDC
##XUNITS=M/Z
##YUNITS=RELATIVE INTENSITY
##XFACTOR=1
##YFACTOR=1
##FIRSTX=12
##LASTX=115
##FIRSTY=10
##MAXX=115
##MINX=12
##MAXY=9999
##MINY=10
##NPOINTS=50
##PEAK TABLE=(XY..XY)
12,10 13,10 14,10 15,10
24,20 25,70 26,230 27,150
35,270 36,290 37,1040 38,1290
39,5129 40,300 41,10 47,350
48,350 49,2430 50,140 51,760
52,10 53,10 54,20 55,10
59,20 60,110 61,170 62,50
63,60 71,50 72,140 73,670
74,140 75,9999 76,360 77,3280
78,110 82,10 83,210 84,10
85,130 87,20 107,10 109,150
110,2690 111,180 112,1720 113,70
114,280 115,10
##END=
