##TITLE=Isoxazole, 3-phenyl-
##JCAMP-DX=4.24
##DATA TYPE=MASS SPECTRUM
##OWNER=NIST Mass Spectrometry Data Center
Collection (C) 2014 copyright by the U.S. Secretary of Commerce
on behalf of the United States of America. All rights reserved.
##CAS REGISTRY NO=1006-65-1
##$NIST MASS SPEC NO=4205
##MOLFORM=C9 H7 N O
##MW=145
##$NIST SOURCE=MSDC
##XUNITS=M/Z
##YUNITS=RELATIVE INTENSITY
##XFACTOR=1
##YFACTOR=1
##FIRSTX=25
##LASTX=146
##FIRSTY=521
##MAXX=146
##MINX=25
##MAXY=9999
##MINY=95
##NPOINTS=34
##PEAK TABLE=(XY..XY)
25,521 26,237 27,426 37,142
38,332 39,1066 50,1351 51,4099
52,237 61,261 62,616 63,1185
64,261 65,190 74,640 75,521
76,829 77,7890 78,782 86,118
87,118 88,95 89,2346 90,1540
91,213 103,403 104,166 105,166
116,2654 117,1445 118,118 144,9999
145,9738 146,853
##END=
