##TITLE=Benzothiazole, 5-chloro-2-methyl-
##JCAMP-DX=4.24
##DATA TYPE=MASS SPECTRUM
##ORIGIN=NIST Mass Spectrometry Data Center, 2011
##OWNER=NIST Mass Spectrometry Data Center
Collection (C) 2014 copyright by the U.S. Secretary of Commerce
on behalf of the United States of America. All rights reserved.
##CAS REGISTRY NO=1006-99-1
##$NIST MASS SPEC NO=385671
##MOLFORM=C8 H6 Cl N S
##MW=183
##$NIST SOURCE=MSDC
##XUNITS=M/Z
##YUNITS=RELATIVE INTENSITY
##XFACTOR=1
##YFACTOR=1
##FIRSTX=15
##LASTX=188
##FIRSTY=40
##MAXX=188
##MINX=15
##MAXY=9999
##MINY=10
##NPOINTS=135
##PEAK TABLE=(XY..XY)
15,40 25,10 26,80 27,100
28,10 32,20 33,10 35,20
36,20 37,200 38,230 39,180
40,100 41,60 42,170 43,10
44,40 45,871 46,60 47,100
48,20 49,140 50,380 51,220
52,120 53,230 56,20 57,270
58,230 59,260 60,170 61,480
62,971 63,2362 64,190 65,30
66,20 68,70 69,1722 70,170
71,540 72,250 73,430 74,581
75,420 76,160 77,60 78,40
79,110 80,50 81,550 82,510
83,70 84,80 85,50 86,60
87,70 88,80 89,40 91,651
93,320 94,140 95,170 96,50
97,350 98,60 99,220 100,80
101,40 102,80 103,120 104,340
105,310 106,661 107,2382 108,561
109,170 110,70 111,70 112,110
113,30 114,50 115,60 116,100
117,30 118,70 119,40 120,130
121,270 122,50 123,40 124,60
125,20 126,20 127,10 129,40
130,60 131,20 132,40 133,130
134,10 135,10 136,10 137,50
138,140 139,40 140,60 142,2302
143,260 144,861 145,90 146,110
148,3863 149,380 150,300 151,190
152,50 153,60 154,20 155,270
156,150 157,110 158,50 159,10
167,20 168,10 169,10 180,20
182,1161 183,9999 184,1391 185,3663
186,370 187,160 188,10
##END=
