##TITLE=1-Phenyl-2-butanone
##JCAMP-DX=4.24
##DATA TYPE=MASS SPECTRUM
##ORIGIN=Japan AIST/NIMC Database- Spectrum MS-NW-5674
##OWNER=NIST Mass Spectrometry Data Center
Collection (C) 2014 copyright by the U.S. Secretary of Commerce
on behalf of the United States of America. All rights reserved.
##CAS REGISTRY NO=1007-32-5
##$NIST MASS SPEC NO=235519
##MOLFORM=C10 H12 O
##MW=148
##$NIST SOURCE=MSDC
##XUNITS=M/Z
##YUNITS=RELATIVE INTENSITY
##XFACTOR=1
##YFACTOR=1
##FIRSTX=14
##LASTX=150
##FIRSTY=10
##MAXX=150
##MINX=14
##MAXY=9999
##MINY=10
##NPOINTS=66
##PEAK TABLE=(XY..XY)
14,10 15,20 18,10 26,50
27,349 28,80 29,3329 30,80
32,20 37,20 38,70 39,549
40,40 41,159 42,20 43,40
44,20 45,99 46,20 49,10
50,119 51,299 52,80 53,30
55,50 56,90 57,9999 58,349
59,30 61,30 62,99 63,299
64,99 65,1019 66,70 70,10
73,10 74,40 75,30 76,20
77,99 78,40 79,20 85,10
86,20 87,20 89,249 90,159
91,3719 92,859 93,70 102,10
103,30 104,20 105,60 106,10
115,40 116,10 117,20 118,30
119,30 131,10 133,10 148,1169
149,159 150,10
##END=
