##TITLE=2-Norbornaneacetic acid
##JCAMP-DX=4.24
##DATA TYPE=MASS SPECTRUM
##ORIGIN=Japan AIST/NIMC Database- Spectrum MS-NW-5583
##OWNER=NIST Mass Spectrometry Data Center
Collection (C) 2014 copyright by the U.S. Secretary of Commerce
on behalf of the United States of America. All rights reserved.
##CAS REGISTRY NO=1007-01-8
##$NIST MASS SPEC NO=235492
##MOLFORM=C9 H14 O2
##MW=154
##$NIST SOURCE=MSDC
##XUNITS=M/Z
##YUNITS=RELATIVE INTENSITY
##XFACTOR=1
##YFACTOR=1
##FIRSTX=14
##LASTX=156
##FIRSTY=30
##MAXX=156
##MINX=14
##MAXY=9999
##MINY=10
##NPOINTS=117
##PEAK TABLE=(XY..XY)
14,30 15,109 16,10 17,20
18,70 26,139 27,1559 28,419
29,889 30,30 31,119 32,50
37,50 38,159 39,2479 40,609
41,3469 42,359 43,1119 44,109
45,539 46,40 47,20 49,20
50,169 51,439 52,269 53,1359
54,1999 55,1909 56,239 57,339
58,109 59,30 60,739 61,169
62,60 63,129 64,30 65,639
66,2969 67,9999 68,5249 69,679
70,479 71,1309 72,149 73,199
74,60 75,20 76,10 77,849
78,279 79,3469 80,1259 81,1189
82,679 83,589 84,399 85,4689
86,559 87,2049 88,139 89,30
90,10 91,509 92,689 93,999
94,8769 95,6269 96,499 97,309
98,70 99,99 100,129 101,20
102,10 103,30 104,10 105,60
106,50 107,379 108,1639 109,649
110,80 111,169 112,509 113,379
114,20 115,10 117,30 118,99
119,30 120,10 121,179 122,30
123,90 124,99 125,1079 126,729
127,70 128,10 129,10 133,10
134,30 135,80 136,1979 137,279
138,20 139,149 140,20 141,10
152,40 153,40 154,629 155,70
156,10
##END=
