##TITLE=Pyrazole-3,5-dicarboxylic acid, 1-methyl-, diethyl ester-
##JCAMP-DX=4.24
##DATA TYPE=MASS SPECTRUM
##ORIGIN=A.A.Kutin, Moscow, Russia
##OWNER=NIST Mass Spectrometry Data Center
Collection (C) 2014 copyright by the U.S. Secretary of Commerce
on behalf of the United States of America. All rights reserved.
##CAS REGISTRY NO=100852-80-0
##$NIST MASS SPEC NO=297670
##MOLFORM=C10 H14 N2 O4
##MW=226
##$NIST SOURCE=MSDC
##XUNITS=M/Z
##YUNITS=RELATIVE INTENSITY
##XFACTOR=1
##YFACTOR=1
##FIRSTX=37
##LASTX=228
##FIRSTY=52
##MAXX=228
##MINX=37
##MAXY=9999
##MINY=4
##NPOINTS=78
##PEAK TABLE=(XY..XY)
37,52 38,47 39,98 40,168
41,96 42,292 43,635 45,392
51,182 52,558 53,747 54,548
55,107 56,70 65,179 66,291
67,135 68,229 69,42 70,4
77,54 78,57 79,518 80,2322
81,4330 82,447 83,16 91,9
93,47 94,4 95,50 96,124
97,23 98,26 106,4 107,79
108,387 109,714 110,64 111,5
115,7 121,280 123,422 124,108
125,141 126,418 127,39 128,5
135,16 136,21 137,46 139,159
140,23 149,66 151,52 153,7408
154,5660 155,461 156,29 167,143
168,180 169,524 170,639 171,43
181,9999 182,2996 183,370 184,42
197,186 198,852 199,77 211,1315
212,119 213,7 225,765 226,2678
227,284 228,14
##END=
