##TITLE=Pyridine, 3-phenyl-
##JCAMP-DX=4.24
##DATA TYPE=MASS SPECTRUM
##ORIGIN=Japan AIST/NIMC Database- Spectrum MS-NW-8385
##OWNER=NIST Mass Spectrometry Data Center
Collection (C) 2014 copyright by the U.S. Secretary of Commerce
on behalf of the United States of America. All rights reserved.
##CAS REGISTRY NO=1008-88-4
##$NIST MASS SPEC NO=229240
##MOLFORM=C11 H9 N
##MW=155
##$NIST SOURCE=MSDC
##XUNITS=M/Z
##YUNITS=RELATIVE INTENSITY
##XFACTOR=1
##YFACTOR=1
##FIRSTX=17
##LASTX=157
##FIRSTY=20
##MAXX=157
##MINX=17
##MAXY=9999
##MINY=10
##NPOINTS=64
##PEAK TABLE=(XY..XY)
17,20 18,20 26,60 27,90
28,30 37,30 38,70 39,269
40,20 41,10 43,10 44,10
49,30 50,469 51,929 52,259
53,40 61,60 62,169 63,489
64,499 65,50 73,30 74,319
75,349 76,509 77,559 78,229
79,20 85,20 86,60 87,109
88,40 89,109 90,20 91,30
97,10 98,80 99,50 100,60
101,219 102,999 103,139 104,30
105,10 113,30 114,20 115,289
116,60 117,10 125,40 126,369
127,1129 128,959 129,289 130,30
140,129 141,20 152,70 153,219
154,3889 155,9999 156,1219 157,70
##END=
