##TITLE=Pyridine, 2-phenyl-
##JCAMP-DX=4.24
##DATA TYPE=MASS SPECTRUM
##ORIGIN=Japan AIST/NIMC Database- Spectrum MS-NW-8399
##OWNER=NIST Mass Spectrometry Data Center
Collection (C) 2014 copyright by the U.S. Secretary of Commerce
on behalf of the United States of America. All rights reserved.
##CAS REGISTRY NO=1008-89-5
##$NIST MASS SPEC NO=229244
##MOLFORM=C11 H9 N
##MW=155
##$NIST SOURCE=MSDC
##XUNITS=M/Z
##YUNITS=RELATIVE INTENSITY
##XFACTOR=1
##YFACTOR=1
##FIRSTX=17
##LASTX=157
##FIRSTY=10
##MAXX=157
##MINX=17
##MAXY=9999
##MINY=10
##NPOINTS=64
##PEAK TABLE=(XY..XY)
17,10 18,60 26,80 27,149
28,80 37,40 38,90 39,299
40,20 41,10 49,40 50,659
51,1269 52,579 53,60 61,70
62,169 63,419 64,149 65,60
73,30 74,309 75,349 76,549
77,1159 78,479 79,109 80,10
85,20 86,60 87,90 88,50
89,129 90,30 91,20 98,70
99,60 100,50 101,219 102,499
103,269 104,129 105,30 113,20
114,20 115,189 116,30 117,10
122,10 125,50 126,319 127,1109
128,949 129,229 130,30 140,90
141,10 151,10 152,109 153,329
154,6169 155,9999 156,1189 157,70
##END=
