##TITLE=Isoxazole, 3-methyl-5-phenyl-
##JCAMP-DX=4.24
##DATA TYPE=MASS SPECTRUM
##OWNER=NIST Mass Spectrometry Data Center
Collection (C) 2014 copyright by the U.S. Secretary of Commerce
on behalf of the United States of America. All rights reserved.
##CAS REGISTRY NO=1008-75-9
##$NIST MASS SPEC NO=5631
##MOLFORM=C10 H9 N O
##MW=159
##$NIST SOURCE=MSDC
##XUNITS=M/Z
##YUNITS=RELATIVE INTENSITY
##XFACTOR=1
##YFACTOR=1
##FIRSTX=37
##LASTX=161
##FIRSTY=141
##MAXX=161
##MINX=37
##MAXY=9999
##MINY=71
##NPOINTS=40
##PEAK TABLE=(XY..XY)
37,141 38,329 39,941 40,188
41,165 50,1929 51,4517 52,682
53,353 54,1129 55,282 61,1388
62,612 63,1176 64,635 65,188
74,894 75,753 76,965 77,8870
78,1223 82,3011 83,259 89,2212
90,1929 91,518 92,118 102,635
103,894 104,3882 105,9999 106,753
127,94 128,141 130,1953 131,282
158,235 159,8987 160,1059 161,71
##END=
