##TITLE=Butanoic acid, 1,1-dimethyl-2-phenylethyl ester
##JCAMP-DX=4.24
##DATA TYPE=MASS SPECTRUM
##ORIGIN=RADIAN CORP
##OWNER=NIST Mass Spectrometry Data Center
Collection (C) 2014 copyright by the U.S. Secretary of Commerce
on behalf of the United States of America. All rights reserved.
##CAS REGISTRY NO=10094-34-5
##$NIST MASS SPEC NO=75306
##MOLFORM=C14 H20 O2
##MW=220
##$NIST SOURCE=MSDC
##XUNITS=M/Z
##YUNITS=RELATIVE INTENSITY
##XFACTOR=1
##YFACTOR=1
##FIRSTX=27
##LASTX=205
##FIRSTY=90
##MAXX=205
##MINX=27
##MAXY=9999
##MINY=10
##NPOINTS=63
##PEAK TABLE=(XY..XY)
27,90 31,30 38,20 39,260
40,30 41,440 42,220 43,2270
45,50 50,60 51,140 52,50
53,40 54,30 55,210 56,40
57,10 58,50 59,240 60,180
61,20 62,40 63,140 64,60
65,530 66,30 71,9999 72,540
73,90 74,30 75,30 76,30
77,120 78,110 79,50 87,20
88,10 89,190 90,70 91,3010
92,310 93,20 102,40 103,90
104,60 105,170 115,520 116,210
117,1540 118,120 127,20 128,50
129,560 130,70 131,160 132,3480
133,1030 134,100 135,40 162,240
163,30 182,10 205,20
##END=
