##TITLE=2,2,4,4,6,6-Hexamethylcyclotrisilazane
##JCAMP-DX=4.24
##DATA TYPE=MASS SPECTRUM
##ORIGIN=NIST Mass Spectrometry Data Center, 1994
##OWNER=NIST Mass Spectrometry Data Center
Collection (C) 2014 copyright by the U.S. Secretary of Commerce
on behalf of the United States of America. All rights reserved.
##CAS REGISTRY NO=1009-93-4
##$NIST MASS SPEC NO=133423
##MOLFORM=C6 H21 N3 Si3
##MW=219
##$NIST SOURCE=MSDC
##XUNITS=M/Z
##YUNITS=RELATIVE INTENSITY
##XFACTOR=1
##YFACTOR=1
##FIRSTX=4
##LASTX=219
##FIRSTY=15
##MAXX=219
##MINX=4
##MAXY=9999
##MINY=2
##NPOINTS=79
##PEAK TABLE=(XY..XY)
4,15 14,8 15,100 18,25
27,29 28,44 29,35 30,42
31,21 32,2 43,82 44,90
45,80 46,39 56,30 57,15
58,37 59,128 60,63 70,130
72,134 73,267 74,296 75,38
79,52 85,57 86,436 89,19
95,1181 98,16 100,345 101,352
102,169 103,50 112,25 113,69
114,314 115,363 116,263 117,163
118,58 119,21 127,89 128,161
129,83 130,251 131,328 132,93
133,33 141,88 142,58 143,90
144,62 145,65 146,39 157,108
158,150 159,65 160,27 170,75
171,611 172,201 173,218 174,101
175,50 176,17 187,1169 188,1184
189,437 190,202 191,51 201,16
202,23 204,9999 205,2114 206,1108
207,174 208,49 219,21
##END=
