##TITLE=1-Butanone, 1-(4-hydroxyphenyl)-
##JCAMP-DX=4.24
##DATA TYPE=MASS SPECTRUM
##ORIGIN=RADIAN CORP
##OWNER=NIST Mass Spectrometry Data Center
Collection (C) 2014 copyright by the U.S. Secretary of Commerce
on behalf of the United States of America. All rights reserved.
##CAS REGISTRY NO=1009-11-6
##$NIST MASS SPEC NO=70826
##MOLFORM=C10 H12 O2
##MW=164
##$NIST SOURCE=MSDC
##XUNITS=M/Z
##YUNITS=RELATIVE INTENSITY
##XFACTOR=1
##YFACTOR=1
##FIRSTX=26
##LASTX=165
##FIRSTY=20
##MAXX=165
##MINX=26
##MAXY=9999
##MINY=10
##NPOINTS=55
##PEAK TABLE=(XY..XY)
26,20 27,150 37,20 38,110
39,730 41,200 42,50 43,140
50,90 51,60 52,30 53,200
54,20 55,140 61,40 62,130
63,370 64,240 65,1670 66,180
67,30 69,20 71,20 72,10
74,90 75,60 76,30 77,170
78,30 79,30 89,20 91,50
92,210 93,1750 94,180 95,20
103,20 105,10 107,90 115,10
119,20 120,80 121,9999 122,770
123,70 131,20 135,10 136,780
137,70 146,70 147,30 149,80
163,130 164,990 165,110
##END=
