##TITLE=Benzeneacetic acid, ethyl ester
##JCAMP-DX=4.24
##DATA TYPE=MASS SPECTRUM
##ORIGIN=V.Zaikin,Topchiev Inst.Petrochem.Synth.,Moscow
##OWNER=NIST Mass Spectrometry Data Center
Collection (C) 2014 copyright by the U.S. Secretary of Commerce
on behalf of the United States of America. All rights reserved.
##CAS REGISTRY NO=101-97-3
##$NIST MASS SPEC NO=281797
##MOLFORM=C10 H12 O2
##MW=164
##$NIST SOURCE=MSDC
##XUNITS=M/Z
##YUNITS=RELATIVE INTENSITY
##XFACTOR=1
##YFACTOR=1
##FIRSTX=27
##LASTX=165
##FIRSTY=480
##MAXX=165
##MINX=27
##MAXY=9999
##MINY=20
##NPOINTS=53
##PEAK TABLE=(XY..XY)
27,480 28,100 29,1141 30,90
36,40 37,60 38,170 39,781
40,110 41,220 42,60 43,70
44,100 45,70 46,20 50,280
51,410 52,140 53,60 55,50
57,30 61,60 62,230 63,701
64,260 65,1421 66,70 74,50
75,40 76,30 77,170 78,50
79,50 81,20 83,40 85,30
86,90 87,40 88,50 89,540
90,500 91,9999 92,1241 93,50
105,130 106,30 107,20 118,90
119,170 136,40 163,30 164,1301
165,190
##END=
