##TITLE=Octanal, 2-(phenylmethylene)-
##JCAMP-DX=4.24
##DATA TYPE=MASS SPECTRUM
##ORIGIN=Japan AIST/NIMC Database- Spectrum MS-IW-6337
##OWNER=NIST Mass Spectrometry Data Center
Collection (C) 2014 copyright by the U.S. Secretary of Commerce
on behalf of the United States of America. All rights reserved.
##CAS REGISTRY NO=101-86-0
##$NIST MASS SPEC NO=236288
##MOLFORM=C15 H20 O
##MW=216
##$NIST SOURCE=MSDC
##XUNITS=M/Z
##YUNITS=RELATIVE INTENSITY
##XFACTOR=1
##YFACTOR=1
##FIRSTX=15
##LASTX=218
##FIRSTY=10
##MAXX=218
##MINX=15
##MAXY=9999
##MINY=10
##NPOINTS=169
##PEAK TABLE=(XY..XY)
15,10 26,30 27,569 28,70
29,759 30,10 31,20 38,20
39,779 40,90 41,1199 42,119
43,1109 44,40 45,10 50,119
51,489 52,129 53,319 54,119
55,839 56,70 57,289 58,20
59,20 60,10 62,60 63,319
64,80 65,569 66,90 67,509
68,149 69,299 70,90 71,139
72,20 73,10 74,60 75,119
76,169 77,899 78,679 79,329
80,40 81,339 82,1129 83,1039
84,129 85,50 86,20 87,50
88,40 89,379 90,70 91,5369
92,809 93,119 94,40 95,629
96,229 97,159 98,50 99,159
100,10 101,70 102,339 103,489
104,949 105,809 106,80 107,269
108,30 109,169 110,50 111,60
112,40 113,80 114,70 115,4109
116,2269 117,6349 118,1279 119,169
120,189 121,50 122,10 123,40
124,20 125,499 126,99 127,719
128,1499 129,9999 130,2219 131,3339
132,809 133,339 134,80 135,20
137,10 138,40 139,129 140,30
141,1329 142,499 143,639 144,319
145,4379 146,1049 147,229 148,30
149,20 150,10 151,30 152,90
153,159 154,99 155,699 156,179
157,139 158,459 159,1469 160,329
161,50 162,10 163,10 164,10
165,199 166,60 167,149 168,80
169,559 170,99 171,60 172,50
173,1519 174,1119 175,139 176,20
177,10 178,40 179,60 180,10
181,40 182,10 183,60 184,10
185,309 186,50 187,199 188,90
189,20 191,10 192,10 193,10
194,80 195,30 196,40 197,30
198,259 199,50 200,489 201,109
202,30 215,2289 216,4489 217,789
218,80
##END=
