##TITLE=Oxirane, 2,2'-[1,3-phenylenebis(oxymethylene)]bis-
##JCAMP-DX=4.24
##DATA TYPE=MASS SPECTRUM
##ORIGIN=RADIAN CORP
##OWNER=NIST Mass Spectrometry Data Center
Collection (C) 2014 copyright by the U.S. Secretary of Commerce
on behalf of the United States of America. All rights reserved.
##CAS REGISTRY NO=101-90-6
##$NIST MASS SPEC NO=75996
##MOLFORM=C12 H14 O4
##MW=222
##$NIST SOURCE=MSDC
##XUNITS=M/Z
##YUNITS=RELATIVE INTENSITY
##XFACTOR=1
##YFACTOR=1
##FIRSTX=15
##LASTX=224
##FIRSTY=190
##MAXX=224
##MINX=15
##MAXY=9999
##MINY=10
##NPOINTS=80
##PEAK TABLE=(XY..XY)
15,190 18,10 26,280 27,3520
28,520 29,9999 30,270 31,6330
32,140 38,400 39,1500 40,190
41,1060 42,270 43,860 50,420
51,640 52,590 53,900 54,170
55,820 56,130 57,7690 58,330
62,190 63,1380 64,1480 65,1400
66,330 67,380 68,350 69,830
71,60 75,150 76,280 77,1720
78,340 79,790 80,310 81,860
82,1100 83,160 91,1010 92,840
93,870 94,330 95,590 96,80
97,40 103,500 105,390 106,160
107,1080 108,350 109,210 110,3580
111,310 118,60 119,410 120,20
121,350 122,30 123,1400 124,230
125,180 133,190 134,350 135,870
136,760 137,350 138,100 147,190
149,420 161,30 166,1670 167,180
192,160 222,5060 223,680 224,10
##END=
