##TITLE=p-Benzylphenol
##JCAMP-DX=4.24
##DATA TYPE=MASS SPECTRUM
##ORIGIN=Japan AIST/NIMC Database- Spectrum MS-NW-8825
##OWNER=NIST Mass Spectrometry Data Center
Collection (C) 2014 copyright by the U.S. Secretary of Commerce
on behalf of the United States of America. All rights reserved.
##CAS REGISTRY NO=101-53-1
##$NIST MASS SPEC NO=232691
##MOLFORM=C13 H12 O
##MW=184
##$NIST SOURCE=MSDC
##XUNITS=M/Z
##YUNITS=RELATIVE INTENSITY
##XFACTOR=1
##YFACTOR=1
##FIRSTX=26
##LASTX=187
##FIRSTY=10
##MAXX=187
##MINX=26
##MAXY=9999
##MINY=10
##NPOINTS=120
##PEAK TABLE=(XY..XY)
26,10 27,159 28,20 29,70
31,10 38,30 39,379 40,40
41,159 42,40 43,119 44,10
50,109 51,479 52,129 53,189
54,20 55,619 56,60 57,129
58,10 59,10 60,10 61,10
62,60 63,299 64,149 65,449
66,60 67,40 68,10 69,70
70,70 71,20 73,10 74,50
75,99 76,289 77,1039 78,769
79,429 80,159 81,559 82,369
83,189 84,50 85,10 86,20
87,40 88,20 89,289 90,169
91,1849 92,829 93,60 94,20
95,10 96,10 97,30 98,10
99,30 100,10 101,40 102,109
103,70 104,119 105,199 106,2489
107,2599 108,259 109,20 112,10
113,30 114,20 115,529 116,129
117,80 118,40 125,10 126,70
127,299 128,519 129,719 130,109
131,50 132,10 139,139 140,60
141,389 142,129 143,90 144,80
145,20 149,10 150,30 151,149
152,709 153,789 154,269 155,779
156,169 157,60 158,10 159,10
162,20 163,60 164,109 165,2099
166,559 167,979 168,269 169,319
170,40 181,629 182,259 183,5089
184,9999 185,1379 186,109 187,10
##END=
