##TITLE=Benzenamine, 4,4'-methylenebis[2-chloro-
##JCAMP-DX=4.24
##DATA TYPE=MASS SPECTRUM
##ORIGIN=NIST Mass Spectrometry Data Center, 1998.
##OWNER=NIST Mass Spectrometry Data Center
Collection (C) 2014 copyright by the U.S. Secretary of Commerce
on behalf of the United States of America. All rights reserved.
##CAS REGISTRY NO=101-14-4
##$NIST MASS SPEC NO=290697
##MOLFORM=C13 H12 Cl2 N2
##MW=266
##$NIST SOURCE=MSDC
##XUNITS=M/Z
##YUNITS=RELATIVE INTENSITY
##XFACTOR=1
##YFACTOR=1
##FIRSTX=26
##LASTX=271
##FIRSTY=10
##MAXX=271
##MINX=26
##MAXY=9999
##MINY=10
##NPOINTS=172
##PEAK TABLE=(XY..XY)
26,10 27,50 28,30 29,10
30,30 35,10 37,20 38,80
39,200 40,30 41,120 42,40
49,30 50,140 51,580 52,560
53,130 54,130 56,10 57,30
58,10 60,10 61,60 62,230
63,590 64,220 65,300 66,80
67,20 69,110 70,150 71,50
73,140 74,120 75,300 76,260
77,1420 78,420 79,50 80,50
82,120 83,870 86,90 87,150
88,150 89,280 90,500 91,160
92,80 93,40 94,10 95,10
98,1710 99,280 100,110 101,220
102,280 103,100 104,1400 105,300
106,40 107,30 108,20 109,10
110,20 111,70 112,80 113,230
114,310 115,1850 116,580 118,20
119,10 121,10 122,10 123,50
124,30 125,90 126,100 127,450
128,160 129,140 130,100 131,10
133,220 134,140 135,30 136,10
137,50 138,400 139,650 140,3520
141,510 142,1080 143,200 144,30
147,10 149,60 150,110 151,380
152,290 153,150 154,140 155,100
156,20 157,10 162,20 163,30
164,240 165,110 166,430 167,1190
168,800 169,170 170,10 173,30
174,10 175,70 176,80 177,210
178,300 179,220 180,560 181,120
182,20 186,40 187,10 188,50
189,20 190,50 191,30 192,240
193,380 194,760 195,3810 196,1420
197,180 198,20 200,10 201,110
202,100 203,140 204,50 205,40
212,50 213,50 214,660 215,160
216,260 217,50 218,10 228,60
229,2590 230,1000 231,9999 232,1720
233,3210 234,460 235,10 248,40
250,310 251,50 252,190 253,10
254,30 265,2320 266,6549 267,2400
268,4280 269,840 270,720 271,100
##END=
