##TITLE=Triallyl cyanurate
##JCAMP-DX=4.24
##DATA TYPE=MASS SPECTRUM
##ORIGIN=Japan AIST/NIMC Database- Spectrum MS-NW-1460
##OWNER=NIST Mass Spectrometry Data Center
Collection (C) 2014 copyright by the U.S. Secretary of Commerce
on behalf of the United States of America. All rights reserved.
##CAS REGISTRY NO=101-37-1
##$NIST MASS SPEC NO=229577
##MOLFORM=C12 H15 N3 O3
##MW=249
##$NIST SOURCE=MSDC
##XUNITS=M/Z
##YUNITS=RELATIVE INTENSITY
##XFACTOR=1
##YFACTOR=1
##FIRSTX=14
##LASTX=251
##FIRSTY=10
##MAXX=251
##MINX=14
##MAXY=9999
##MINY=10
##NPOINTS=120
##PEAK TABLE=(XY..XY)
14,10 15,159 26,60 27,299
28,90 29,129 30,50 31,40
37,30 38,109 39,2459 40,339
41,9999 42,489 43,109 44,109
51,10 52,10 53,60 54,539
55,499 56,679 57,449 58,50
65,20 66,50 67,329 68,179
69,629 70,1369 71,70 77,30
78,10 79,429 80,929 81,489
82,3489 83,2089 84,819 85,80
87,169 91,50 92,50 93,10
94,129 95,119 96,189 97,119
98,40 99,129 100,10 107,20
108,50 109,339 110,139 111,219
112,239 113,99 114,10 120,20
121,20 122,60 123,109 124,179
125,1079 126,159 127,219 128,20
130,40 135,10 136,10 137,109
138,109 139,119 140,50 141,10
142,20 149,20 150,40 151,159
152,139 153,99 154,60 155,10
164,20 165,119 166,109 167,129
168,80 169,40 170,109 171,10
178,10 179,60 180,60 181,10
182,40 183,10 191,10 192,149
193,309 194,90 195,169 196,20
206,30 207,99 208,689 209,119
210,50 219,20 220,70 221,30
222,10 232,10 234,99 235,10
248,30 249,129 250,20 251,10
##END=
