##TITLE=N,N'-di-sec-Butyl-p-phenylenediamine
##JCAMP-DX=4.24
##DATA TYPE=MASS SPECTRUM
##ORIGIN=NIST Mass Spectrometry Data Center, 1994
##OWNER=NIST Mass Spectrometry Data Center
Collection (C) 2014 copyright by the U.S. Secretary of Commerce
on behalf of the United States of America. All rights reserved.
##CAS REGISTRY NO=101-96-2
##$NIST MASS SPEC NO=133272
##MOLFORM=C14 H24 N2
##MW=220
##$NIST SOURCE=MSDC
##XUNITS=M/Z
##YUNITS=RELATIVE INTENSITY
##XFACTOR=1
##YFACTOR=1
##FIRSTX=14
##LASTX=222
##FIRSTY=12
##MAXX=222
##MINX=14
##MAXY=9999
##MINY=6
##NPOINTS=109
##PEAK TABLE=(XY..XY)
14,12 15,47 16,7 27,396
28,169 29,673 30,51 39,218
41,513 42,196 43,41 44,48
46,6 50,45 51,95 52,108
53,144 54,62 55,81 56,45
57,175 59,31 62,16 63,87
64,104 65,230 66,82 67,50
68,23 70,11 71,11 73,122
74,288 76,67 77,151 78,80
79,200 80,534 81,969 86,10
87,42 88,145 89,38 90,88
91,255 92,171 93,203 94,103
95,42 101,9 102,26 103,44
104,91 105,98 106,326 107,1384
108,202 109,19 115,15 117,180
118,615 119,543 120,1061 121,115
122,16 128,11 129,16 130,65
131,85 132,190 133,337 134,318
135,268 136,31 142,8 143,23
144,25 145,86 146,71 147,197
148,59 149,70 157,8 159,56
161,650 162,164 163,643 164,117
165,8 172,10 173,33 175,241
176,44 177,22 187,57 189,559
191,9999 192,1329 193,95 201,14
203,88 205,1304 206,194 207,13
216,23 218,193 220,3657 221,574
222,44
##END=
