##TITLE=1,4-Benzenediamine, N-(1-methylethyl)-N'-phenyl-
##JCAMP-DX=4.24
##DATA TYPE=MASS SPECTRUM
##ORIGIN=Japan AIST/NIMC Database- Spectrum MS-IW-6346
##OWNER=NIST Mass Spectrometry Data Center
Collection (C) 2014 copyright by the U.S. Secretary of Commerce
on behalf of the United States of America. All rights reserved.
##CAS REGISTRY NO=101-72-4
##$NIST MASS SPEC NO=236283
##MOLFORM=C15 H18 N2
##MW=226
##$NIST SOURCE=MSDC
##XUNITS=M/Z
##YUNITS=RELATIVE INTENSITY
##XFACTOR=1
##YFACTOR=1
##FIRSTX=27
##LASTX=228
##FIRSTY=50
##MAXX=228
##MINX=27
##MAXY=9999
##MINY=10
##NPOINTS=111
##PEAK TABLE=(XY..XY)
27,50 28,40 38,10 39,90
40,10 41,70 42,50 43,50
50,30 51,159 52,70 53,50
54,20 62,10 63,70 64,60
65,149 66,50 67,10 69,10
70,10 74,10 75,20 76,50
77,349 78,90 79,50 80,99
81,10 83,90 84,10 89,30
90,60 91,169 92,159 93,109
94,30 97,30 98,40 101,10
102,30 103,60 104,99 105,909
106,199 107,119 108,10 112,40
113,99 114,10 115,80 116,40
117,129 118,469 119,389 120,40
126,10 127,70 128,159 129,139
130,80 131,30 132,70 133,60
134,20 139,99 140,80 141,50
142,20 143,50 144,10 145,10
152,10 153,20 154,149 155,70
156,109 157,20 165,20 166,329
167,849 168,529 169,879 170,119
179,10 180,20 181,179 182,359
183,2659 184,649 185,60 192,10
193,20 194,90 195,139 196,70
197,10 206,10 207,10 208,10
209,289 210,289 211,9999 212,1589
213,129 223,10 224,269 225,619
226,8599 227,1499 228,119
##END=
