##TITLE=3-Methoxydiphenylamine
##JCAMP-DX=4.24
##DATA TYPE=MASS SPECTRUM
##ORIGIN=Japan AIST/NIMC Database- Spectrum MS-IW-6667
##OWNER=NIST Mass Spectrometry Data Center
Collection (C) 2014 copyright by the U.S. Secretary of Commerce
on behalf of the United States of America. All rights reserved.
##CAS REGISTRY NO=101-16-6
##$NIST MASS SPEC NO=237515
##MOLFORM=C13 H13 N O
##MW=199
##$NIST SOURCE=MSDC
##XUNITS=M/Z
##YUNITS=RELATIVE INTENSITY
##XFACTOR=1
##YFACTOR=1
##FIRSTX=15
##LASTX=202
##FIRSTY=20
##MAXX=202
##MINX=15
##MAXY=9999
##MINY=10
##NPOINTS=95
##PEAK TABLE=(XY..XY)
15,20 27,20 28,60 38,40
39,119 40,10 41,30 50,80
51,289 52,109 53,50 54,10
62,30 63,179 64,189 65,169
66,99 67,10 68,10 69,30
70,30 71,10 74,20 75,40
76,50 77,479 78,109 79,30
80,10 81,20 82,20 83,189
84,40 88,10 89,50 90,40
91,40 92,549 93,99 94,10
95,10 96,70 98,20 99,319
100,40 101,20 102,40 103,60
104,40 106,10 107,10 113,10
114,20 115,99 116,50 117,90
118,10 126,20 127,199 128,399
129,479 130,119 131,10 139,80
140,70 141,70 142,30 143,30
144,20 152,10 153,40 154,639
155,389 156,449 157,109 158,10
165,10 166,309 167,749 168,779
169,369 170,749 171,99 172,20
180,20 181,10 182,90 183,629
184,309 185,40 198,949 199,9999
200,1469 201,119 202,10
##END=
