##TITLE=Triclocarban
##JCAMP-DX=4.24
##DATA TYPE=MASS SPECTRUM
##ORIGIN=Japan AIST/NIMC Database- Spectrum MS-NW-8284
##OWNER=NIST Mass Spectrometry Data Center
Collection (C) 2014 copyright by the U.S. Secretary of Commerce
on behalf of the United States of America. All rights reserved.
##CAS REGISTRY NO=101-20-2
##$NIST MASS SPEC NO=237804
##MOLFORM=C13 H9 Cl3 N2 O
##MW=314
##$NIST SOURCE=MSDC
##XUNITS=M/Z
##YUNITS=RELATIVE INTENSITY
##XFACTOR=1
##YFACTOR=1
##FIRSTX=18
##LASTX=320
##FIRSTY=20
##MAXX=320
##MINX=18
##MAXY=9999
##MINY=10
##NPOINTS=140
##PEAK TABLE=(XY..XY)
18,20 26,20 27,30 28,199
35,20 36,129 37,159 38,269
39,419 40,60 41,159 42,30
44,109 45,99 46,10 47,50
48,20 49,129 50,249 51,169
52,179 53,20 54,30 60,40
61,209 62,459 63,1049 64,509
65,909 66,119 67,30 71,20
72,109 73,609 74,269 75,699
76,139 77,30 78,20 79,30
80,70 81,30 83,40 84,70
85,99 86,60 87,70 88,189
89,229 90,1279 91,509 92,769
93,60 94,30 96,20 97,209
98,189 99,1379 100,559 101,459
102,169 103,20 104,10 107,50
108,30 109,239 110,80 111,449
112,60 113,119 114,10 119,10
121,10 122,10 123,20 124,829
125,1129 126,1519 127,9999 128,1069
129,3109 130,219 131,20 132,20
133,349 134,189 135,229 136,119
137,40 138,20 139,10 140,10
145,159 146,20 147,99 148,10
149,10 152,10 153,1369 154,229
155,449 156,70 157,60 158,60
159,399 160,389 161,8589 162,839
163,5389 164,429 165,869 166,70
168,10 187,1239 188,149 189,789
190,90 191,129 192,10 195,30
197,30 201,10 208,10 215,10
244,10 253,30 255,20 278,90
279,30 280,90 281,20 282,30
313,10 314,2009 315,319 316,1929
317,289 318,629 319,90 320,70
##END=
