##TITLE=Barban
##JCAMP-DX=4.24
##DATA TYPE=MASS SPECTRUM
##ORIGIN=CATALOGUE OF MASS SPECTRA OF PESTICIDES, APRIL, 1975; J. FREUDENTHAL & L. G. GRAMBERG, NAT'L INST. OF PUBLIC HEALTH, THE NETHERLANDS
##OWNER=NIST Mass Spectrometry Data Center
Collection (C) 2014 copyright by the U.S. Secretary of Commerce
on behalf of the United States of America. All rights reserved.
##CAS REGISTRY NO=101-27-9
##$NIST MASS SPEC NO=53655
##MOLFORM=C11 H9 Cl2 N O2
##MW=257
##$NIST SOURCE=MSDC
##XUNITS=M/Z
##YUNITS=RELATIVE INTENSITY
##XFACTOR=1
##YFACTOR=1
##FIRSTX=26
##LASTX=261
##FIRSTY=286
##MAXX=261
##MINX=26
##MAXY=9999
##MINY=100
##NPOINTS=112
##PEAK TABLE=(XY..XY)
26,286 27,336 28,100 29,208
36,171 37,162 38,354 39,1024
40,242 41,1223 42,218 43,1020
44,260 45,141 49,290 50,740
51,7416 52,2117 53,253 55,278
56,117 57,204 58,177 61,577
62,449 63,1391 64,812 65,584
66,165 67,143 68,472 69,2913
70,285 71,177 73,624 74,216
75,1040 76,286 77,304 81,122
83,122 85,165 86,278 87,6670
88,502 89,2505 90,1678 91,1028
92,550 93,185 97,266 98,216
99,2308 100,481 101,791 102,268
103,385 104,3873 105,430 106,1369
109,113 110,762 111,1078 112,163
113,355 115,388 116,146 117,208
118,100 120,170 121,136 125,1163
126,2101 127,2635 128,958 129,873
137,144 140,125 141,140 142,931
143,3965 144,484 149,272 151,101
152,267 153,3922 154,1300 155,1378
156,459 164,342 166,156 170,175
171,202 172,104 176,368 177,630
178,536 179,254 180,210 204,103
212,285 214,156 222,9999 223,1388
224,3436 225,369 227,221 257,2306
258,344 259,1480 260,253 261,248
##END=
