##TITLE=Benzeneacetic acid, 4-methylphenyl ester
##JCAMP-DX=4.24
##DATA TYPE=MASS SPECTRUM
##ORIGIN=RADIAN CORP
##OWNER=NIST Mass Spectrometry Data Center
Collection (C) 2014 copyright by the U.S. Secretary of Commerce
on behalf of the United States of America. All rights reserved.
##CAS REGISTRY NO=101-94-0
##$NIST MASS SPEC NO=70746
##MOLFORM=C15 H14 O2
##MW=226
##$NIST SOURCE=MSDC
##XUNITS=M/Z
##YUNITS=RELATIVE INTENSITY
##XFACTOR=1
##YFACTOR=1
##FIRSTX=26
##LASTX=228
##FIRSTY=10
##MAXX=228
##MINX=26
##MAXY=9999
##MINY=5
##NPOINTS=63
##PEAK TABLE=(XY..XY)
26,10 27,100 28,80 29,10
38,30 39,290 40,70 41,90
42,10 43,10 44,5 49,50
50,80 51,290 52,160 53,110
54,10 55,20 62,50 63,220
64,70 65,1190 66,70 74,20
75,20 76,10 77,500 78,100
79,150 80,40 84,60 85,10
86,50 87,10 88,10 89,420
90,1070 91,6870 92,600 93,20
105,10 106,20 107,860 108,3930
109,310 110,20 115,10 118,9999
119,1220 120,80 121,10 127,10
152,10 153,10 154,10 165,20
167,10 181,20 195,10 196,10
226,460 227,80 228,5
##END=
