##TITLE=4,4'-Dimethoxydiphenylamine
##JCAMP-DX=4.24
##DATA TYPE=MASS SPECTRUM
##ORIGIN=NIST Mass Spectrometry Data Center, 1998.
##OWNER=NIST Mass Spectrometry Data Center
Collection (C) 2014 copyright by the U.S. Secretary of Commerce
on behalf of the United States of America. All rights reserved.
##CAS REGISTRY NO=101-70-2
##$NIST MASS SPEC NO=291187
##MOLFORM=C14 H15 N O2
##MW=229
##$NIST SOURCE=MSDC
##XUNITS=M/Z
##YUNITS=RELATIVE INTENSITY
##XFACTOR=1
##YFACTOR=1
##FIRSTX=15
##LASTX=232
##FIRSTY=160
##MAXX=232
##MINX=15
##MAXY=9999
##MINY=10
##NPOINTS=135
##PEAK TABLE=(XY..XY)
15,160 26,10 27,30 29,30
31,10 37,10 38,80 39,160
40,10 41,70 42,10 43,10
45,10 50,180 51,250 52,280
53,180 54,30 55,30 57,20
58,30 61,20 62,90 63,540
64,500 65,210 66,40 67,20
68,10 69,10 70,30 71,20
74,60 75,90 76,160 77,430
78,180 79,90 80,110 81,30
82,10 83,20 85,40 87,20
88,30 89,170 90,250 91,100
92,360 93,70 94,10 95,60
96,20 99,60 101,50 102,100
103,100 104,50 105,10 107,270
108,200 109,20 113,30 115,720
116,380 117,440 118,80 119,20
120,20 121,10 122,80 123,10
125,10 126,60 127,240 128,220
129,100 130,60 131,40 132,30
133,50 134,20 139,30 140,100
141,210 142,910 143,1130 144,260
145,80 146,20 147,20 152,40
153,80 154,740 155,430 156,90
157,30 158,40 159,30 160,30
161,10 165,10 166,30 167,100
168,30 169,70 170,390 171,450
172,60 173,10 181,20 182,200
183,130 184,110 185,80 186,70
187,20 196,20 197,120 198,470
199,1130 200,170 201,20 212,80
213,110 214,9999 215,1500 216,140
217,10 227,20 228,110 229,6359
230,1020 231,100 232,10
##END=
