##TITLE=Benzenamine, 4,4'-methylenebis-
##JCAMP-DX=4.24
##DATA TYPE=MASS SPECTRUM
##ORIGIN=Japan AIST/NIMC Database- Spectrum MS-NW- 390
##OWNER=NIST Mass Spectrometry Data Center
Collection (C) 2014 copyright by the U.S. Secretary of Commerce
on behalf of the United States of America. All rights reserved.
##CAS REGISTRY NO=101-77-9
##$NIST MASS SPEC NO=228923
##MOLFORM=C13 H14 N2
##MW=198
##$NIST SOURCE=MSDC
##XUNITS=M/Z
##YUNITS=RELATIVE INTENSITY
##XFACTOR=1
##YFACTOR=1
##FIRSTX=27
##LASTX=200
##FIRSTY=60
##MAXX=200
##MINX=27
##MAXY=9999
##MINY=10
##NPOINTS=115
##PEAK TABLE=(XY..XY)
27,60 28,109 30,80 38,40
39,219 40,20 41,70 42,50
50,50 51,189 52,159 53,129
54,139 55,10 57,20 58,30
62,40 63,149 64,70 65,279
66,119 67,40 69,10 70,50
71,109 72,20 74,30 75,40
76,99 77,589 78,269 79,189
80,129 81,20 83,159 84,70
85,50 86,20 87,20 88,20
89,119 90,179 91,139 92,90
93,659 94,99 97,229 98,439
99,809 100,10 101,30 102,40
103,40 104,649 105,309 106,3029
107,259 113,20 114,30 115,149
116,50 117,70 118,30 119,30
120,20 121,60 126,30 127,119
128,99 129,40 130,179 131,60
132,20 139,60 140,60 141,90
142,40 143,109 144,70 145,20
150,20 151,109 152,279 153,209
154,139 155,60 156,139 157,60
158,20 163,30 164,30 165,169
166,80 167,199 168,259 169,149
170,159 171,40 177,30 178,80
179,70 180,1289 181,609 182,1909
183,419 184,40 192,10 193,20
194,30 195,449 196,299 197,5899
198,9999 199,1409 200,99
##END=
