##TITLE=Benzene, 1,1'-methylenebis[4-isocyanato-
##JCAMP-DX=4.24
##DATA TYPE=MASS SPECTRUM
##ORIGIN=NIST Mass Spectrometry Data Center, 1994
##OWNER=NIST Mass Spectrometry Data Center
Collection (C) 2014 copyright by the U.S. Secretary of Commerce
on behalf of the United States of America. All rights reserved.
##CAS REGISTRY NO=101-68-8
##$NIST MASS SPEC NO=134320
##MOLFORM=C15 H10 N2 O2
##MW=250
##$NIST SOURCE=MSDC
##XUNITS=M/Z
##YUNITS=RELATIVE INTENSITY
##XFACTOR=1
##YFACTOR=1
##FIRSTX=14
##LASTX=253
##FIRSTY=7
##MAXX=253
##MINX=14
##MAXY=9999
##MINY=2
##NPOINTS=127
##PEAK TABLE=(XY..XY)
14,7 16,2 18,22 26,81
27,195 28,220 29,25 37,94
38,181 39,450 40,89 41,33
44,5 50,285 51,673 52,229
53,52 54,32 55,12 56,44
57,22 61,77 62,224 63,665
64,344 65,86 66,23 70,149
74,113 75,234 76,660 77,1008
78,366 79,29 80,24 83,137
84,201 86,53 87,103 88,151
89,229 90,410 91,116 92,19
97,129 99,47 100,58 101,102
102,212 103,367 104,289 105,16
106,56 111,116 112,32 113,128
114,153 115,163 116,147 117,21
119,100 124,46 125,166 126,55
127,157 128,89 129,18 130,21
131,18 132,1630 133,169 134,12
137,28 138,72 139,229 140,355
141,114 142,31 143,38 144,17
149,16 150,72 151,325 152,382
153,289 154,100 156,138 157,21
164,233 165,1430 166,672 167,165
168,91 169,76 170,25 176,58
177,209 178,170 179,25 180,1460
181,273 182,86 183,11 190,480
191,139 192,141 193,382 194,378
195,164 196,48 203,57 204,18
206,802 208,5638 209,915 210,86
218,11 219,31 221,3415 222,687
223,86 247,76 249,1433 250,9999
251,1705 252,139 253,6
##END=
