##TITLE=Chlorpropham
##JCAMP-DX=4.24
##DATA TYPE=MASS SPECTRUM
##ORIGIN=ACCUSTANDARD Chemicals / NIST MS Data Center.
##OWNER=NIST Mass Spectrometry Data Center
Collection (C) 2014 copyright by the U.S. Secretary of Commerce
on behalf of the United States of America. All rights reserved.
##CAS REGISTRY NO=101-21-3
##$NIST MASS SPEC NO=125548
##MOLFORM=C10 H12 Cl N O2
##MW=213
##$NIST SOURCE=MSDC
##XUNITS=M/Z
##YUNITS=RELATIVE INTENSITY
##XFACTOR=1
##YFACTOR=1
##FIRSTX=12
##LASTX=217
##FIRSTY=14
##MAXX=217
##MINX=12
##MAXY=9999
##MINY=1
##NPOINTS=113
##PEAK TABLE=(XY..XY)
12,14 15,354 16,1 17,6
18,34 19,84 20,9 25,27
26,170 27,1530 28,260 29,237
30,23 31,280 34,7 35,18
36,44 37,247 38,488 39,1192
40,243 41,2987 42,7 43,9999
44,552 45,1465 47,33 48,18
49,102 50,266 51,209 52,199
53,25 54,17 57,14 58,42
59,415 60,66 61,177 62,428
63,1151 64,612 65,527 66,65
67,17 71,9 72,67 73,401
74,191 75,613 76,140 77,46
78,32 79,8 80,30 84,24
85,63 86,42 87,54 88,84
89,175 90,970 91,471 92,378
93,59 96,11 97,36 98,139
99,981 100,335 101,339 102,88
104,9 105,10 106,12 108,24
111,414 112,44 113,137 114,22
117,16 118,84 119,136 120,12
125,756 127,7108 128,734 129,2170
130,166 134,8 135,23 136,90
137,15 138,15 140,49 142,27
153,580 154,2033 155,644 156,655
157,55 168,16 171,2170 172,238
173,699 174,61 178,11 198,17
213,3094 214,431 215,991 216,107
217,15
##END=
