##TITLE=Bis(p-nitrophenyl) ether
##JCAMP-DX=4.24
##DATA TYPE=MASS SPECTRUM
##ORIGIN=NIST Mass Spectrometry Data Center, 2011
##OWNER=NIST Mass Spectrometry Data Center
Collection (C) 2014 copyright by the U.S. Secretary of Commerce
on behalf of the United States of America. All rights reserved.
##CAS REGISTRY NO=101-63-3
##$NIST MASS SPEC NO=385675
##MOLFORM=C12 H8 N2 O5
##MW=260
##$NIST SOURCE=MSDC
##XUNITS=M/Z
##YUNITS=RELATIVE INTENSITY
##XFACTOR=1
##YFACTOR=1
##FIRSTX=26
##LASTX=263
##FIRSTY=30
##MAXX=263
##MINX=26
##MAXY=9999
##MINY=10
##NPOINTS=151
##PEAK TABLE=(XY..XY)
26,30 27,30 28,30 30,500
37,60 38,370 39,300 40,20
41,10 42,10 43,10 46,120
50,2492 51,530 52,200 53,200
54,120 55,40 56,10 57,40
60,10 61,100 62,500 63,2322
64,2412 65,320 66,70 67,20
68,30 69,220 71,20 73,60
74,841 75,1892 76,2923 77,420
78,100 79,160 80,140 81,40
82,60 83,10 84,20 85,10
86,80 87,170 88,170 89,310
90,140 91,50 92,1982 93,180
94,20 95,10 96,40 98,30
99,40 100,20 101,100 102,390
103,180 104,70 105,20 106,20
107,30 108,170 109,80 110,20
111,30 112,30 113,410 114,591
115,250 116,200 117,60 118,80
119,10 120,40 121,70 122,240
123,30 125,10 126,110 127,550
128,2793 129,370 130,110 131,40
132,30 133,10 134,10 137,130
138,250 139,7367 140,1882 141,180
142,70 143,60 144,200 145,20
146,30 147,10 148,10 150,10
152,10 153,20 154,40 155,480
156,821 157,150 158,20 160,110
161,10 167,1191 168,3974 169,571
170,50 171,50 172,40 174,10
176,10 181,40 182,70 183,290
184,571 185,140 186,130 187,10
196,10 197,60 198,30 199,10
202,10 212,10 213,70 214,170
215,30 228,20 230,3363 231,450
232,50 242,20 244,370 245,50
246,10 257,10 258,10 260,9999
261,1371 262,200 263,20
##END=
