##TITLE=Benzenamine, 4-octyl-N-(4-octylphenyl)-
##JCAMP-DX=4.24
##DATA TYPE=MASS SPECTRUM
##ORIGIN=NIST Mass Spectrometry Data Center, 1998.
##OWNER=NIST Mass Spectrometry Data Center
Collection (C) 2014 copyright by the U.S. Secretary of Commerce
on behalf of the United States of America. All rights reserved.
##CAS REGISTRY NO=101-67-7
##$NIST MASS SPEC NO=291182
##MOLFORM=C28 H43 N
##MW=393
##$NIST SOURCE=MSDC
##XUNITS=M/Z
##YUNITS=RELATIVE INTENSITY
##XFACTOR=1
##YFACTOR=1
##FIRSTX=27
##LASTX=395
##FIRSTY=40
##MAXX=395
##MINX=27
##MAXY=9999
##MINY=10
##NPOINTS=158
##PEAK TABLE=(XY..XY)
27,40 29,190 39,60 41,480
42,20 43,430 44,10 51,10
53,20 54,10 55,110 56,50
57,980 58,40 64,10 65,30
66,10 67,10 69,30 71,70
72,10 76,10 77,60 78,30
79,50 83,10 89,30 90,30
91,160 92,80 93,20 94,10
97,480 101,10 102,30 103,70
104,60 105,140 106,50 107,10
108,10 109,10 111,150 115,120
116,90 117,170 118,120 119,30
125,230 127,10 128,30 129,30
130,70 131,60 132,280 133,70
134,110 135,10 139,10 140,10
141,20 142,10 143,30 144,20
145,10 146,20 147,10 148,10
152,10 153,10 154,10 155,10
156,10 157,10 158,10 165,20
166,20 167,90 168,80 169,30
170,20 178,10 179,10 180,120
181,40 182,60 183,10 190,10
191,30 192,50 193,70 194,130
195,60 196,10 204,30 205,20
206,60 207,30 208,100 209,230
210,180 211,30 217,10 218,30
219,30 220,150 221,60 222,160
223,70 224,50 225,10 230,10
232,20 233,20 234,130 235,250
236,550 237,110 238,10 246,10
247,10 248,40 249,90 250,2190
251,1150 252,200 253,20 260,10
262,20 263,10 264,210 265,60
266,20 276,10 278,10 280,10
282,10 290,10 292,10 294,20
306,50 307,10 308,30 309,10
320,40 322,9999 323,2620 324,320
325,20 336,180 337,60 338,10
378,140 379,40 392,20 393,1190
394,370 395,50
##END=
