##TITLE=4-Benzylphenylacetonitrile
##JCAMP-DX=4.24
##DATA TYPE=MASS SPECTRUM
##ORIGIN=NIST Mass Spectrometry Data Center, 1994
##OWNER=NIST Mass Spectrometry Data Center
Collection (C) 2014 copyright by the U.S. Secretary of Commerce
on behalf of the United States of America. All rights reserved.
##CAS REGISTRY NO=101096-72-4
##$NIST MASS SPEC NO=133938
##MOLFORM=C15 H13 N
##MW=207
##$NIST SOURCE=MSDC
##XUNITS=M/Z
##YUNITS=RELATIVE INTENSITY
##XFACTOR=1
##YFACTOR=1
##FIRSTX=4
##LASTX=209
##FIRSTY=25
##MAXX=209
##MINX=4
##MAXY=9999
##MINY=25
##NPOINTS=90
##PEAK TABLE=(XY..XY)
4,25 15,99 18,40 26,140
27,671 28,214 37,86 38,356
39,1670 40,328 41,311 50,1068
51,1955 52,455 53,133 58,34
61,101 62,456 63,1523 64,410
65,1367 66,106 70,109 71,42
73,32 74,353 75,517 76,1000
77,1214 78,285 83,319 85,32
86,159 87,276 88,435 89,1908
90,599 91,1561 92,131 98,65
99,80 100,60 101,166 102,470
103,521 104,117 111,43 113,138
114,117 115,497 116,355 117,41
125,52 126,179 127,187 128,347
129,231 130,339 131,38 137,37
139,323 140,118 141,127 149,35
150,110 152,1693 153,279 154,40
162,38 163,204 165,4066 166,2549
167,9999 168,1419 169,103 175,50
176,190 177,166 178,456 179,535
180,386 181,80 190,89 191,43
202,31 203,125 204,83 207,3556
208,579 209,56
##END=
