##TITLE=Cyclohexanamine, N-butyl-
##JCAMP-DX=4.24
##DATA TYPE=MASS SPECTRUM
##OWNER=NIST Mass Spectrometry Data Center
Collection (C) 2014 copyright by the U.S. Secretary of Commerce
on behalf of the United States of America. All rights reserved.
##CAS REGISTRY NO=10108-56-2
##$NIST MASS SPEC NO=5210
##MOLFORM=C10 H21 N
##MW=155
##$NIST SOURCE=MSDC
##XUNITS=M/Z
##YUNITS=RELATIVE INTENSITY
##XFACTOR=1
##YFACTOR=1
##FIRSTX=14
##LASTX=156
##FIRSTY=150
##MAXX=156
##MINX=14
##MAXY=9999
##MINY=10
##NPOINTS=104
##PEAK TABLE=(XY..XY)
14,150 15,691 16,40 17,50
18,280 24,10 25,20 26,290
27,2772 28,3333 29,3043 30,4894
31,100 32,50 33,10 36,10
37,40 38,90 39,1491 40,240
41,3293 42,961 43,761 44,871
45,10 46,20 47,10 48,10
49,10 50,50 51,130 52,90
53,430 54,561 55,1772 56,3103
57,1181 58,260 59,20 61,10
62,10 63,20 64,10 65,60
66,50 67,260 68,350 69,200
70,791 71,520 72,180 73,20
74,30 75,10 76,10 77,100
78,40 79,120 80,80 81,240
82,380 83,611 84,3633 85,230
86,120 87,10 91,30 92,30
93,20 94,30 95,20 96,90
97,50 98,410 99,110 100,240
101,40 102,10 104,10 105,10
106,30 108,20 109,20 110,190
111,60 112,9999 113,550 114,20
123,20 124,50 125,50 126,290
127,390 128,70 129,10 136,20
138,30 140,651 141,110 152,10
153,10 154,110 155,711 156,70
##END=
