##TITLE=(E)-3-(2-Methoxyphenyl)-2-propenoic acid
##JCAMP-DX=4.24
##DATA TYPE=MASS SPECTRUM
##ORIGIN=Japan AIST/NIMC Database- Spectrum MS-NW-3688
##OWNER=NIST Mass Spectrometry Data Center
Collection (C) 2014 copyright by the U.S. Secretary of Commerce
on behalf of the United States of America. All rights reserved.
##CAS REGISTRY NO=1011-54-7
##$NIST MASS SPEC NO=232253
##MOLFORM=C10 H10 O3
##MW=178
##$NIST SOURCE=MSDC
##XUNITS=M/Z
##YUNITS=RELATIVE INTENSITY
##XFACTOR=1
##YFACTOR=1
##FIRSTX=14
##LASTX=181
##FIRSTY=40
##MAXX=181
##MINX=14
##MAXY=9999
##MINY=10
##NPOINTS=122
##PEAK TABLE=(XY..XY)
14,40 15,449 16,10 17,70
18,249 25,10 26,109 27,499
28,359 29,239 30,20 31,80
32,10 36,10 37,189 38,459
39,1529 40,179 41,189 42,40
43,229 44,109 45,599 46,20
49,70 50,739 51,1659 52,359
53,319 54,30 55,399 56,20
57,40 58,20 59,50 60,50
61,179 62,639 63,1819 64,619
65,1519 66,169 67,40 68,40
69,99 71,20 72,10 73,70
74,439 75,639 76,419 77,2749
78,1059 79,1249 80,109 81,70
82,10 84,30 85,269 86,109
87,149 88,99 89,2079 90,1509
91,7559 92,709 93,80 94,919
95,119 96,20 97,20 98,80
99,30 100,10 101,289 102,569
103,2259 104,539 105,1879 106,239
107,519 108,99 109,50 110,10
114,10 115,249 116,99 117,119
118,4629 119,3189 120,539 121,249
122,40 123,50 124,30 129,30
130,40 131,2669 132,1319 133,609
134,139 135,229 136,30 137,50
144,20 145,99 146,1229 147,9999
148,999 149,129 150,40 159,40
160,149 161,919 162,139 163,259
164,30 177,279 178,9389 179,1029
180,99 181,10
##END=
