##TITLE=1H-Imidazole-2-carboxaldehyde
##JCAMP-DX=4.24
##DATA TYPE=MASS SPECTRUM
##OWNER=NIST Mass Spectrometry Data Center
Collection (C) 2014 copyright by the U.S. Secretary of Commerce
on behalf of the United States of America. All rights reserved.
##CAS REGISTRY NO=10111-08-7
##$NIST MASS SPEC NO=884
##MOLFORM=C4 H4 N2 O
##MW=96
##$NIST SOURCE=MSDC
##XUNITS=M/Z
##YUNITS=RELATIVE INTENSITY
##XFACTOR=1
##YFACTOR=1
##FIRSTX=39
##LASTX=97
##FIRSTY=601
##MAXX=97
##MINX=39
##MAXY=9999
##MINY=500
##NPOINTS=10
##PEAK TABLE=(XY..XY)
39,601 40,2702 41,4504 42,1001
67,1501 68,5805 69,500 95,601
96,9999 97,701
##END=
