##TITLE=2H-Pyran, tetrahydro-2-methyl-
##JCAMP-DX=4.24
##DATA TYPE=MASS SPECTRUM
##ORIGIN=NIST Mass Spectrometry Data Center, 1990.
##OWNER=NIST Mass Spectrometry Data Center
Collection (C) 2014 copyright by the U.S. Secretary of Commerce
on behalf of the United States of America. All rights reserved.
##CAS REGISTRY NO=10141-72-7
##$NIST MASS SPEC NO=114575
##MOLFORM=C6 H12 O
##MW=100
##$NIST SOURCE=MSDC
##XUNITS=M/Z
##YUNITS=RELATIVE INTENSITY
##XFACTOR=1
##YFACTOR=1
##FIRSTX=15
##LASTX=101
##FIRSTY=192
##MAXX=101
##MINX=15
##MAXY=9999
##MINY=71
##NPOINTS=37
##PEAK TABLE=(XY..XY)
15,192 26,300 27,1502 28,416
29,1369 30,93 31,237 38,248
39,1918 40,762 41,5334 42,1697
43,5177 44,661 45,1373 50,142
51,175 52,109 53,421 54,304
55,2191 56,2913 57,1560 58,122
59,448 67,1607 68,117 70,218
71,71 72,148 81,144 83,74
85,9999 86,551 99,340 100,1939
101,154
##END=
