##TITLE=Simetryn
##JCAMP-DX=4.24
##DATA TYPE=MASS SPECTRUM
##ORIGIN=ACCUSTANDARD Chemicals / NIST MS Data Center.
##OWNER=NIST Mass Spectrometry Data Center
Collection (C) 2014 copyright by the U.S. Secretary of Commerce
on behalf of the United States of America. All rights reserved.
##CAS REGISTRY NO=1014-70-6
##$NIST MASS SPEC NO=125496
##MOLFORM=C8 H15 N5 S
##MW=213
##$NIST SOURCE=MSDC
##XUNITS=M/Z
##YUNITS=RELATIVE INTENSITY
##XFACTOR=1
##YFACTOR=1
##FIRSTX=13
##LASTX=216
##FIRSTY=14
##MAXX=216
##MINX=13
##MAXY=9999
##MINY=12
##NPOINTS=144
##PEAK TABLE=(XY..XY)
13,14 14,30 15,306 16,16
18,125 27,969 28,1100 29,1311
30,398 32,123 39,25 40,91
41,237 42,771 43,2054 44,1224
45,329 46,234 47,323 48,56
49,28 53,200 54,151 55,973
56,142 57,62 58,71 59,96
60,75 61,160 62,20 63,16
66,28 68,2527 69,954 70,429
71,1671 72,182 73,115 74,863
75,70 76,53 77,36 78,28
80,153 81,119 82,92 83,117
84,108 85,617 86,101 87,40
88,30 89,34 90,32 92,798
93,404 94,243 95,176 96,1615
97,359 98,279 99,623 100,284
101,106 102,75 103,414 104,33
105,30 106,17 107,27 108,23
109,79 110,251 111,513 112,166
113,208 114,96 115,91 116,105
117,66 119,18 120,23 121,82
122,312 123,626 124,187 125,144
126,111 127,111 128,309 129,63
130,93 135,29 136,73 137,350
138,1266 139,431 140,273 141,153
142,413 143,80 144,92 145,18
148,12 149,77 150,85 151,94
152,620 153,131 154,12 155,2838
156,402 157,585 158,56 159,25
164,65 165,61 166,257 167,1032
168,164 169,25 170,3407 171,399
172,168 173,18 180,227 181,37
182,76 183,83 184,686 185,1140
186,134 187,58 195,24 196,117
198,1789 199,205 200,77 210,74
213,9999 214,1136 215,483 216,45
##END=
