##TITLE=Sulfide, allyl methyl
##JCAMP-DX=4.24
##DATA TYPE=MASS SPECTRUM
##ORIGIN=Japan AIST/NIMC Database- Spectrum MS-IW- 596
##OWNER=NIST Mass Spectrometry Data Center
Collection (C) 2014 copyright by the U.S. Secretary of Commerce
on behalf of the United States of America. All rights reserved.
##CAS REGISTRY NO=10152-76-8
##$NIST MASS SPEC NO=238777
##MOLFORM=C4 H8 S
##MW=88
##$NIST SOURCE=MSDC
##XUNITS=M/Z
##YUNITS=RELATIVE INTENSITY
##XFACTOR=1
##YFACTOR=1
##FIRSTX=14
##LASTX=91
##FIRSTY=20
##MAXX=91
##MINX=14
##MAXY=9999
##MINY=10
##NPOINTS=57
##PEAK TABLE=(XY..XY)
14,20 15,129 26,70 27,409
28,50 29,119 32,30 33,10
34,30 35,389 36,10 37,129
38,269 39,2419 40,239 41,4019
42,299 43,629 44,169 45,3859
46,1499 47,1469 48,449 49,179
50,30 51,20 53,289 54,269
55,379 56,40 57,169 58,329
59,249 60,459 61,1539 62,90
63,70 64,10 67,10 68,20
69,139 70,30 71,369 72,719
73,7629 74,349 75,349 76,40
81,10 83,20 85,209 86,10
87,429 88,9999 89,629 90,469
91,30
##END=
