##TITLE=Ether, methyl diphenylmethyl
##JCAMP-DX=4.24
##DATA TYPE=MASS SPECTRUM
##ORIGIN=Tox21 Consortium/NIST Mass Spectrometry Data Center, 2012
##OWNER=NIST Mass Spectrometry Data Center
Collection (C) 2014 copyright by the U.S. Secretary of Commerce
on behalf of the United States of America. All rights reserved.
##CAS REGISTRY NO=1016-09-7
##$NIST MASS SPEC NO=408449
##MOLFORM=C14 H14 O
##MW=198
##$NIST SOURCE=MSDC
##XUNITS=M/Z
##YUNITS=RELATIVE INTENSITY
##XFACTOR=1
##YFACTOR=1
##FIRSTX=15
##LASTX=200
##FIRSTY=40
##MAXX=200
##MINX=15
##MAXY=9999
##MINY=10
##NPOINTS=110
##PEAK TABLE=(XY..XY)
15,40 26,20 27,90 29,90
30,10 31,20 37,10 38,60
39,500 40,30 41,50 43,10
49,10 50,490 51,1541 52,250
53,80 55,20 56,10 57,80
61,30 62,190 63,581 64,110
65,370 66,20 67,10 68,10
69,200 70,110 73,10 74,210
75,220 76,360 77,4614 78,601
79,30 82,761 85,20 86,100
87,160 88,70 89,410 90,90
91,1561 92,130 93,60 98,60
99,170 100,30 101,50 102,160
103,40 104,20 105,5155 106,390
107,30 109,10 110,20 111,30
112,10 113,130 114,50 115,591
116,70 119,40 120,250 121,9999
122,881 123,60 124,10 125,20
126,150 127,150 128,320 129,70
130,10 137,40 138,50 139,520
140,70 141,120 142,20 150,70
151,290 152,2112 153,480 154,100
155,210 156,30 161,10 162,40
163,380 164,520 165,4464 166,1732
167,8698 168,1401 169,110 170,10
180,10 181,70 182,30 183,90
184,10 195,10 197,1321 198,5375
199,801 200,70
##END=
