##TITLE=Dibenzothiophene sulfone
##JCAMP-DX=4.24
##DATA TYPE=MASS SPECTRUM
##ORIGIN=NIST Mass Spectrometry Data Center, 1994
##OWNER=NIST Mass Spectrometry Data Center
Collection (C) 2014 copyright by the U.S. Secretary of Commerce
on behalf of the United States of America. All rights reserved.
##CAS REGISTRY NO=1016-05-3
##$NIST MASS SPEC NO=133767
##MOLFORM=C12 H8 O2 S
##MW=216
##$NIST SOURCE=MSDC
##XUNITS=M/Z
##YUNITS=RELATIVE INTENSITY
##XFACTOR=1
##YFACTOR=1
##FIRSTX=27
##LASTX=218
##FIRSTY=154
##MAXX=218
##MINX=27
##MAXY=9999
##MINY=7
##NPOINTS=98
##PEAK TABLE=(XY..XY)
27,154 32,7 38,157 39,660
45,186 48,124 50,597 51,554
52,198 58,109 61,142 62,455
63,1147 64,131 65,77 67,206
69,436 70,127 73,105 74,816
75,964 76,754 77,359 78,77
79,898 80,145 81,62 82,139
84,146 85,213 86,420 87,502
88,193 89,451 90,88 91,107
92,86 93,163 94,80 95,89
98,409 99,301 100,178 101,161
102,323 103,81 104,977 105,138
108,421 109,125 110,191 111,404
112,57 113,333 114,313 115,1419
116,593 121,166 122,110 125,166
126,516 127,481 128,627 129,75
133,94 134,690 136,2075 137,335
138,264 139,2042 140,301 144,1419
145,291 146,70 147,515 149,176
150,1078 151,644 152,287 158,137
159,367 160,2167 161,398 162,161
168,2357 169,371 170,114 171,1113
172,411 173,120 184,261 187,3446
188,930 189,277 190,82 216,9999
217,1392 218,556
##END=
