##TITLE=Methanone, (3-chlorophenyl)phenyl-
##JCAMP-DX=4.24
##DATA TYPE=MASS SPECTRUM
##OWNER=NIST Mass Spectrometry Data Center
Collection (C) 2014 copyright by the U.S. Secretary of Commerce
on behalf of the United States of America. All rights reserved.
##CAS REGISTRY NO=1016-78-0
##$NIST MASS SPEC NO=10091
##MOLFORM=C13 H9 Cl O
##MW=216
##$NIST SOURCE=MSDC
##XUNITS=M/Z
##YUNITS=RELATIVE INTENSITY
##XFACTOR=1
##YFACTOR=1
##FIRSTX=35
##LASTX=220
##FIRSTY=50
##MAXX=220
##MINX=35
##MAXY=9999
##MINY=50
##NPOINTS=70
##PEAK TABLE=(XY..XY)
35,50 36,100 37,100 38,100
39,200 49,100 50,1301 51,2302
52,200 53,100 61,100 62,100
63,200 73,100 74,601 75,1702
76,1301 77,6005 78,500 84,100
85,300 86,200 87,200 88,50
89,50 90,200 93,50 94,300
95,100 97,50 98,100 99,100
101,50 102,50 104,100 105,9999
106,1501 107,200 108,100 109,100
110,100 111,2702 112,300 113,901
114,100 125,50 126,100 127,50
128,50 139,4304 140,400 141,1401
142,200 149,100 150,200 151,200
152,500 153,200 180,50 181,1001
182,200 186,50 188,100 190,50
215,100 216,6606 217,1101 218,2102
219,400 220,100
##END=
