##TITLE=3,3-Diethoxy-1-propyne
##JCAMP-DX=4.24
##DATA TYPE=MASS SPECTRUM
##ORIGIN=NIST Mass Spectrometry Data Center
##OWNER=NIST Mass Spectrometry Data Center
Collection (C) 2014 copyright by the U.S. Secretary of Commerce
on behalf of the United States of America. All rights reserved.
##CAS REGISTRY NO=10160-87-9
##$NIST MASS SPEC NO=343668
##MOLFORM=C7 H12 O2
##MW=128
##$NIST SOURCE=MSDC
##XUNITS=M/Z
##YUNITS=RELATIVE INTENSITY
##XFACTOR=1
##YFACTOR=1
##FIRSTX=13
##LASTX=128
##FIRSTY=10
##MAXX=128
##MINX=13
##MAXY=9999
##MINY=10
##NPOINTS=47
##PEAK TABLE=(XY..XY)
13,10 14,20 15,370 18,10
19,60 25,50 26,410 27,1641
28,320 29,2702 30,180 31,380
37,70 38,420 39,370 40,70
41,60 42,90 43,490 44,80
45,540 46,20 47,120 50,20
51,30 52,30 53,701 55,8898
56,410 57,40 58,10 59,10
68,20 69,30 71,370 72,30
73,20 75,10 81,40 83,9999
84,530 85,40 99,220 100,30
113,10 127,410 128,30
##END=
