##TITLE=1H-Indole-3-ethanamine, 5-methoxy-N,N-dimethyl-
##JCAMP-DX=4.24
##DATA TYPE=MASS SPECTRUM
##ORIGIN=Patti Price, Georgia Bureau of Investigation, Decatur, Georgia
##OWNER=NIST Mass Spectrometry Data Center
Collection (C) 2014 copyright by the U.S. Secretary of Commerce
on behalf of the United States of America. All rights reserved.
##CAS REGISTRY NO=1019-45-0
##$NIST MASS SPEC NO=248434
##MOLFORM=C13 H18 N2 O
##MW=218
##$NIST SOURCE=MSDC
##XUNITS=M/Z
##YUNITS=RELATIVE INTENSITY
##XFACTOR=1
##YFACTOR=1
##FIRSTX=42
##LASTX=220
##FIRSTY=430
##MAXX=220
##MINX=42
##MAXY=9999
##MINY=10
##NPOINTS=104
##PEAK TABLE=(XY..XY)
42,430 43,80 50,30 51,90
52,60 53,20 54,10 55,10
56,50 57,100 58,9999 59,380
62,40 63,170 64,50 65,50
66,10 67,10 70,10 72,10
73,10 74,30 75,80 76,100
77,220 78,60 79,20 80,20
81,10 82,10 83,10 84,10
85,10 86,10 87,30 88,30
89,290 90,230 91,60 92,10
93,10 94,10 95,10 99,10
100,10 101,50 102,130 103,140
105,10 106,10 107,10 108,10
109,10 113,10 114,20 115,80
116,100 117,500 118,60 119,10
121,10 126,10 127,10 128,70
129,60 130,290 131,110 132,30
133,10 140,10 141,10 142,40
143,80 144,90 145,400 146,80
147,10 154,10 155,10 156,10
157,10 158,130 159,130 160,600
161,80 162,10 164,10 170,10
171,10 172,30 173,120 174,180
175,20 184,10 187,20 199,10
201,10 202,10 215,10 216,40
217,10 218,1461 219,210 220,20
##END=
