##TITLE=N-Cyano-S,S'-dimethyldithioimido carbonate
##JCAMP-DX=4.24
##DATA TYPE=MASS SPECTRUM
##ORIGIN=NIST Mass Spectrometry Data Center
##OWNER=NIST Mass Spectrometry Data Center
Collection (C) 2014 copyright by the U.S. Secretary of Commerce
on behalf of the United States of America. All rights reserved.
##CAS REGISTRY NO=10191-60-3
##$NIST MASS SPEC NO=341157
##MOLFORM=C4 H6 N2 S2
##MW=146
##$NIST SOURCE=MSDC
##XUNITS=M/Z
##YUNITS=RELATIVE INTENSITY
##XFACTOR=1
##YFACTOR=1
##FIRSTX=15
##LASTX=149
##FIRSTY=90
##MAXX=149
##MINX=15
##MAXY=9999
##MINY=10
##NPOINTS=66
##PEAK TABLE=(XY..XY)
15,90 26,10 27,10 32,130
33,20 34,10 38,10 41,260
42,20 44,180 45,2272 46,1091
47,1651 48,901 49,100 50,40
52,40 53,60 55,10 56,20
57,50 58,550 59,490 60,50
61,120 62,10 64,170 66,10
67,300 68,10 70,190 71,10
72,821 73,230 74,2612 75,100
76,370 77,20 78,40 79,360
80,10 81,30 84,360 85,500
86,30 87,30 88,10 90,30
91,310 92,20 93,30 94,100
96,10 99,9999 100,510 101,510
102,20 105,10 106,60 113,10
119,20 131,20 146,1952 147,150
148,170 149,10
##END=
