##TITLE=Benzenemethanamine, 3,4-dimethyl-
##JCAMP-DX=4.24
##DATA TYPE=MASS SPECTRUM
##ORIGIN=NIST Mass Spectrometry Data Center, 1994
##OWNER=NIST Mass Spectrometry Data Center
Collection (C) 2014 copyright by the U.S. Secretary of Commerce
on behalf of the United States of America. All rights reserved.
##CAS REGISTRY NO=102-48-7
##$NIST MASS SPEC NO=133237
##MOLFORM=C9 H13 N
##MW=135
##$NIST SOURCE=MSDC
##XUNITS=M/Z
##YUNITS=RELATIVE INTENSITY
##XFACTOR=1
##YFACTOR=1
##FIRSTX=14
##LASTX=137
##FIRSTY=46
##MAXX=137
##MINX=14
##MAXY=9999
##MINY=7
##NPOINTS=90
##PEAK TABLE=(XY..XY)
14,46 15,281 16,7 17,52
18,45 27,1784 28,2508 29,785
30,3574 31,119 36,20 37,118
38,430 39,2031 40,292 41,881
42,247 43,68 44,72 46,41
47,122 50,901 51,1739 52,704
53,811 54,308 55,86 56,45
58,63 59,298 60,561 61,147
62,430 63,1072 64,45 65,1746
66,45 67,600 68,39 73,72
74,286 75,297 76,39 77,2878
78,1149 79,1705 80,266 81,30
82,12 85,34 86,97 87,80
88,89 89,483 90,12 91,6642
92,969 93,3629 94,339 95,21
98,53 99,20 100,17 101,17
102,407 103,1270 104,619 105,1599
106,17 107,5409 108,541 109,31
113,16 115,610 116,470 117,1751
118,8261 119,3451 120,9999 121,978
122,45 128,12 130,121 131,120
132,593 133,12 134,7183 135,4756
136,498 137,23
##END=
