##TITLE=Benzene, 4-(chloromethyl)-1,2-dimethyl-
##JCAMP-DX=4.24
##DATA TYPE=MASS SPECTRUM
##ORIGIN=RADIAN CORP
##OWNER=NIST Mass Spectrometry Data Center
Collection (C) 2014 copyright by the U.S. Secretary of Commerce
on behalf of the United States of America. All rights reserved.
##CAS REGISTRY NO=102-46-5
##$NIST MASS SPEC NO=69639
##MOLFORM=C9 H11 Cl
##MW=154
##$NIST SOURCE=MSDC
##XUNITS=M/Z
##YUNITS=RELATIVE INTENSITY
##XFACTOR=1
##YFACTOR=1
##FIRSTX=38
##LASTX=157
##FIRSTY=30
##MAXX=157
##MINX=38
##MAXY=9999
##MINY=20
##NPOINTS=45
##PEAK TABLE=(XY..XY)
38,30 39,430 41,350 50,190
51,510 52,180 53,170 58,40
62,100 63,400 64,70 65,450
66,40 73,20 74,80 75,150
76,300 77,980 78,410 79,300
87,30 89,200 90,30 91,1890
92,160 93,130 101,20 102,190
103,830 104,540 105,320 115,820
116,160 117,870 118,340 119,9999
120,1020 121,40 125,20 139,240
141,70 154,2410 155,260 156,790
157,70
##END=
