##TITLE=Triacetin
##JCAMP-DX=4.24
##DATA TYPE=MASS SPECTRUM
##ORIGIN=Japan AIST/NIMC Database- Spectrum MS-NW- 537
##OWNER=NIST Mass Spectrometry Data Center
Collection (C) 2014 copyright by the U.S. Secretary of Commerce
on behalf of the United States of America. All rights reserved.
##CAS REGISTRY NO=102-76-1
##$NIST MASS SPEC NO=229309
##MOLFORM=C9 H14 O6
##MW=218
##$NIST SOURCE=MSDC
##XUNITS=M/Z
##YUNITS=RELATIVE INTENSITY
##XFACTOR=1
##YFACTOR=1
##FIRSTX=14
##LASTX=159
##FIRSTY=70
##MAXX=159
##MINX=14
##MAXY=9999
##MINY=10
##NPOINTS=41
##PEAK TABLE=(XY..XY)
14,70 15,419 17,10 18,90
26,20 27,60 28,80 29,70
31,30 32,10 39,30 41,20
42,229 43,9999 44,239 45,50
55,20 56,70 57,90 60,40
61,129 73,189 74,159 75,20
85,20 86,259 87,10 88,10
98,30 99,20 103,1319 104,60
105,10 115,359 116,559 117,40
145,1099 146,80 147,10 158,50
159,10
##END=
