##TITLE=Cyclopentaneethanamine, N,.alpha.-dimethyl-
##JCAMP-DX=4.24
##DATA TYPE=MASS SPECTRUM
##ORIGIN=NIST Mass Spectrometry Data Center, 1990.
##OWNER=NIST Mass Spectrometry Data Center
Collection (C) 2014 copyright by the U.S. Secretary of Commerce
on behalf of the United States of America. All rights reserved.
##CAS REGISTRY NO=102-45-4
##$NIST MASS SPEC NO=113819
##MOLFORM=C9 H19 N
##MW=141
##$NIST SOURCE=MSDC
##XUNITS=M/Z
##YUNITS=RELATIVE INTENSITY
##XFACTOR=1
##YFACTOR=1
##FIRSTX=15
##LASTX=141
##FIRSTY=44
##MAXX=141
##MINX=15
##MAXY=9999
##MINY=35
##NPOINTS=37
##PEAK TABLE=(XY..XY)
15,44 27,245 28,398 29,278
30,605 31,49 32,78 39,448
40,114 41,865 42,548 43,191
44,420 51,55 52,35 53,140
54,100 55,223 56,511 57,35
58,9999 59,358 65,68 66,39
67,230 68,97 69,206 70,98
71,153 72,106 77,42 81,46
82,53 84,44 126,385 127,35
141,113
##END=
