##TITLE=(Z)-3-Phenyl-2-propenoic acid
##JCAMP-DX=4.24
##DATA TYPE=MASS SPECTRUM
##ORIGIN=Japan AIST/NIMC Database- Spectrum MS-IW-6816
##OWNER=NIST Mass Spectrometry Data Center
Collection (C) 2014 copyright by the U.S. Secretary of Commerce
on behalf of the United States of America. All rights reserved.
##CAS REGISTRY NO=102-94-3
##$NIST MASS SPEC NO=242129
##MOLFORM=C9 H8 O2
##MW=148
##$NIST SOURCE=MSDC
##XUNITS=M/Z
##YUNITS=RELATIVE INTENSITY
##XFACTOR=1
##YFACTOR=1
##FIRSTX=26
##LASTX=150
##FIRSTY=30
##MAXX=150
##MINX=26
##MAXY=9999
##MINY=10
##NPOINTS=75
##PEAK TABLE=(XY..XY)
26,30 27,169 28,90 29,20
37,50 38,119 39,279 40,30
41,30 42,10 43,20 44,40
45,169 46,139 49,70 50,559
51,1599 52,279 53,99 54,30
55,60 59,90 60,149 61,60
62,159 63,349 64,60 65,249
66,60 68,10 69,90 70,20
71,70 73,149 74,589 75,339
76,419 77,2259 78,419 79,209
80,10 85,10 86,20 87,40
89,60 90,30 91,1329 92,249
93,20 94,109 95,10 97,60
98,60 99,10 101,149 102,1409
103,4019 104,389 105,169 106,40
107,179 108,10 118,10 119,309
120,569 121,60 129,50 130,459
131,1999 132,209 133,10 147,9999
148,8909 149,879 150,80
##END=
