##TITLE=4-Methoxy-o-phenylenediamine
##JCAMP-DX=4.24
##DATA TYPE=MASS SPECTRUM
##ORIGIN=NIST Mass Spectrometry Data Center, 1994
##OWNER=NIST Mass Spectrometry Data Center
Collection (C) 2014 copyright by the U.S. Secretary of Commerce
on behalf of the United States of America. All rights reserved.
##CAS REGISTRY NO=102-51-2
##$NIST MASS SPEC NO=136059
##MOLFORM=C7 H10 N2 O
##MW=138
##$NIST SOURCE=MSDC
##XUNITS=M/Z
##YUNITS=RELATIVE INTENSITY
##XFACTOR=1
##YFACTOR=1
##FIRSTX=12
##LASTX=140
##FIRSTY=23
##MAXX=140
##MINX=12
##MAXY=9999
##MINY=16
##NPOINTS=79
##PEAK TABLE=(XY..XY)
12,23 13,37 14,166 15,1921
16,34 17,99 18,364 25,24
26,216 27,379 28,1818 29,441
30,191 33,16 34,20 37,173
38,395 39,887 40,674 41,1718
42,656 43,191 44,153 46,21
48,63 49,74 50,503 51,1231
52,2016 53,1453 54,954 55,183
56,80 61,83 62,160 63,377
64,178 65,295 66,415 67,1350
68,1628 69,395 70,52 75,108
76,328 77,228 78,2135 79,512
80,897 81,210 82,123 83,28
89,31 90,148 91,43 92,137
93,236 94,747 95,9168 96,1157
97,63 104,35 105,142 106,247
107,197 108,67 109,35 110,1369
111,108 120,24 121,87 123,9999
124,682 125,44 134,32 135,27
138,8272 139,737 140,46
##END=
