##TITLE=Tridodecylamine
##JCAMP-DX=4.24
##DATA TYPE=MASS SPECTRUM
##ORIGIN=NIST Mass Spectrometry Data Center
##OWNER=NIST Mass Spectrometry Data Center
Collection (C) 2014 copyright by the U.S. Secretary of Commerce
on behalf of the United States of America. All rights reserved.
##CAS REGISTRY NO=102-87-4
##$NIST MASS SPEC NO=342373
##MOLFORM=C36 H75 N
##MW=521
##$NIST SOURCE=MSDC
##XUNITS=M/Z
##YUNITS=RELATIVE INTENSITY
##XFACTOR=1
##YFACTOR=1
##FIRSTX=12
##LASTX=523
##FIRSTY=10
##MAXX=523
##MINX=12
##MAXY=9999
##MINY=10
##NPOINTS=97
##PEAK TABLE=(XY..XY)
12,10 17,10 18,10 27,40
28,10 29,140 30,80 39,30
40,10 41,280 42,100 43,761
44,380 53,10 54,20 55,250
56,90 57,360 58,510 67,30
68,10 69,130 70,90 71,100
72,20 81,30 82,30 83,50
84,100 85,30 95,10 96,20
97,20 98,90 110,10 112,80
124,10 126,90 138,10 140,80
154,110 155,10 168,120 169,10
182,20 196,40 197,10 198,160
199,20 207,10 210,170 211,20
212,280 213,50 221,10 224,20
238,20 252,20 266,20 280,40
281,10 282,10 294,60 295,10
308,30 322,40 324,10 336,10
350,10 352,110 353,40 354,10
362,10 364,500 366,9999 367,2572
368,370 369,20 381,10 392,160
393,40 394,10 409,10 423,10
437,10 451,30 465,40 466,10
477,10 479,50 480,20 493,10
507,10 519,20 521,250 522,120
523,30
##END=
