##TITLE=2-Propanone, 1,3-diphenyl-
##JCAMP-DX=4.24
##DATA TYPE=MASS SPECTRUM
##ORIGIN=Japan AIST/NIMC Database- Spectrum MS-NW-4989
##OWNER=NIST Mass Spectrometry Data Center
Collection (C) 2014 copyright by the U.S. Secretary of Commerce
on behalf of the United States of America. All rights reserved.
##CAS REGISTRY NO=102-04-5
##$NIST MASS SPEC NO=232867
##MOLFORM=C15 H14 O
##MW=210
##$NIST SOURCE=MSDC
##XUNITS=M/Z
##YUNITS=RELATIVE INTENSITY
##XFACTOR=1
##YFACTOR=1
##FIRSTX=26
##LASTX=212
##FIRSTY=10
##MAXX=212
##MINX=26
##MAXY=9999
##MINY=10
##NPOINTS=70
##PEAK TABLE=(XY..XY)
26,10 27,40 28,10 37,10
38,40 39,429 40,30 41,149
43,20 44,10 50,70 51,199
52,40 53,10 55,20 57,10
61,10 62,50 63,229 64,80
65,1079 66,60 67,10 69,10
71,10 74,20 75,20 76,20
77,90 78,20 79,10 82,10
83,10 86,10 87,10 88,10
89,239 90,219 91,9999 92,809
93,30 97,10 102,10 103,20
104,10 105,80 106,30 107,10
115,20 116,10 118,939 119,2069
120,189 121,20 122,20 131,30
136,20 141,10 152,10 159,40
165,20 166,10 178,20 179,20
180,10 181,10 191,10 210,569
211,99 212,10
##END=
