##TITLE=Resorcinol monoacetate
##JCAMP-DX=4.24
##DATA TYPE=MASS SPECTRUM
##ORIGIN=NIST Mass Spectrometry Data Center
##OWNER=NIST Mass Spectrometry Data Center
Collection (C) 2014 copyright by the U.S. Secretary of Commerce
on behalf of the United States of America. All rights reserved.
##CAS REGISTRY NO=102-29-4
##$NIST MASS SPEC NO=352782
##MOLFORM=C8 H8 O3
##MW=152
##$NIST SOURCE=MSDC
##XUNITS=M/Z
##YUNITS=RELATIVE INTENSITY
##XFACTOR=1
##YFACTOR=1
##FIRSTX=14
##LASTX=154
##FIRSTY=30
##MAXX=154
##MINX=14
##MAXY=9999
##MINY=10
##NPOINTS=61
##PEAK TABLE=(XY..XY)
14,30 15,140 25,10 26,60
27,280 28,50 29,70 31,10
37,50 38,150 39,450 40,70
41,100 42,210 43,1992 44,50
45,30 46,10 49,20 50,150
51,240 52,180 53,571 54,200
55,180 56,10 60,10 61,50
62,100 63,240 64,150 65,160
66,60 67,20 68,140 69,400
70,20 71,40 73,10 74,20
75,10 77,20 79,30 80,20
81,801 82,881 83,50 84,10
92,40 93,70 94,10 95,70
108,10 109,110 110,9999 111,671
112,70 123,10 152,1421 153,130
154,20
##END=
