##TITLE=Benzeneacetic acid, 2-methylpropyl ester
##JCAMP-DX=4.24
##DATA TYPE=MASS SPECTRUM
##ORIGIN=V.Zaikin,Topchiev Inst.Petrochem.Synth.,Moscow
##OWNER=NIST Mass Spectrometry Data Center
Collection (C) 2014 copyright by the U.S. Secretary of Commerce
on behalf of the United States of America. All rights reserved.
##CAS REGISTRY NO=102-13-6
##$NIST MASS SPEC NO=282379
##MOLFORM=C12 H16 O2
##MW=192
##$NIST SOURCE=MSDC
##XUNITS=M/Z
##YUNITS=RELATIVE INTENSITY
##XFACTOR=1
##YFACTOR=1
##FIRSTX=26
##LASTX=193
##FIRSTY=40
##MAXX=193
##MINX=26
##MAXY=9999
##MINY=10
##NPOINTS=62
##PEAK TABLE=(XY..XY)
26,40 27,140 28,10 29,731
30,20 31,10 36,50 37,10
38,40 39,380 40,50 41,1121
42,70 43,130 44,10 45,30
50,80 51,170 52,70 53,30
55,90 56,260 57,2732 58,130
61,10 62,60 63,260 64,90
65,821 66,60 71,90 74,20
75,20 76,10 77,80 78,40
79,80 86,10 87,20 89,470
90,390 91,9999 92,2462 93,180
99,20 104,10 105,40 107,30
118,180 119,861 120,80 131,10
135,10 136,4564 137,1481 138,140
139,10 149,60 164,20 177,20
192,320 193,50
##END=
