##TITLE=Phosphorous acid, tributyl ester
##JCAMP-DX=4.24
##DATA TYPE=MASS SPECTRUM
##ORIGIN=Japan AIST/NIMC Database- Spectrum MS-IW-5633
##OWNER=NIST Mass Spectrometry Data Center
Collection (C) 2014 copyright by the U.S. Secretary of Commerce
on behalf of the United States of America. All rights reserved.
##CAS REGISTRY NO=102-85-2
##$NIST MASS SPEC NO=229564
##MOLFORM=C12 H27 O3 P
##MW=250
##$NIST SOURCE=MSDC
##XUNITS=M/Z
##YUNITS=RELATIVE INTENSITY
##XFACTOR=1
##YFACTOR=1
##FIRSTX=15
##LASTX=251
##FIRSTY=10
##MAXX=251
##MINX=15
##MAXY=9999
##MINY=10
##NPOINTS=85
##PEAK TABLE=(XY..XY)
15,10 18,10 26,20 27,249
28,99 29,1179 30,20 31,70
39,199 40,30 41,1409 42,80
43,119 44,20 45,20 47,60
50,10 51,10 53,40 54,30
55,359 56,889 57,3079 58,139
65,419 66,20 67,20 70,10
71,10 72,10 73,20 77,20
78,50 79,70 80,10 81,20
82,449 83,9999 84,20 85,70
91,20 92,20 93,10 94,10
95,10 96,119 97,379 99,99
101,10 103,10 104,10 105,10
107,10 109,179 110,70 111,149
113,10 115,20 119,10 120,30
121,529 122,30 123,359 124,10
125,10 135,20 136,10 137,119
138,249 139,3129 140,139 141,20
153,50 155,20 165,40 167,20
177,679 178,60 179,30 194,10
195,1169 196,99 197,10 250,70
251,50
##END=
