##TITLE=Ethanol, 2,2'-(butylimino)bis-
##JCAMP-DX=4.24
##DATA TYPE=MASS SPECTRUM
##ORIGIN=RADIAN CORP
##OWNER=NIST Mass Spectrometry Data Center
Collection (C) 2014 copyright by the U.S. Secretary of Commerce
on behalf of the United States of America. All rights reserved.
##CAS REGISTRY NO=102-79-4
##$NIST MASS SPEC NO=69611
##MOLFORM=C8 H19 N O2
##MW=161
##$NIST SOURCE=MSDC
##XUNITS=M/Z
##YUNITS=RELATIVE INTENSITY
##XFACTOR=1
##YFACTOR=1
##FIRSTX=15
##LASTX=162
##FIRSTY=170
##MAXX=162
##MINX=15
##MAXY=9999
##MINY=10
##NPOINTS=63
##PEAK TABLE=(XY..XY)
15,170 17,20 18,120 19,70
26,20 27,900 29,1880 30,1450
31,350 36,160 38,40 39,430
41,1850 42,2340 43,1020 44,1710
45,1730 53,80 54,190 55,470
56,5270 57,1790 58,520 60,80
68,40 69,40 70,450 71,80
72,500 73,110 74,4500 75,200
77,140 82,60 86,2110 87,190
88,7600 89,400 91,150 92,20
94,20 98,680 99,40 100,560
103,140 104,40 105,50 106,40
107,170 114,300 116,750 117,50
118,2980 119,300 128,560 129,140
130,9999 131,820 132,30 148,20
160,50 161,120 162,10
##END=
