##TITLE=Guanidine, N,N'-diphenyl-
##JCAMP-DX=4.24
##DATA TYPE=MASS SPECTRUM
##ORIGIN=NIST Mass Spectrometry Data Center, 1994
##OWNER=NIST Mass Spectrometry Data Center
Collection (C) 2014 copyright by the U.S. Secretary of Commerce
on behalf of the United States of America. All rights reserved.
##CAS REGISTRY NO=102-06-7
##$NIST MASS SPEC NO=133561
##MOLFORM=C13 H13 N3
##MW=211
##$NIST SOURCE=MSDC
##XUNITS=M/Z
##YUNITS=RELATIVE INTENSITY
##XFACTOR=1
##YFACTOR=1
##FIRSTX=16
##LASTX=213
##FIRSTY=59
##MAXX=213
##MINX=16
##MAXY=9999
##MINY=33
##NPOINTS=49
##PEAK TABLE=(XY..XY)
16,59 27,88 28,33 38,145
39,566 40,118 43,176 50,225
51,1339 52,222 54,78 62,87
63,316 64,427 65,893 66,878
67,94 74,61 75,89 77,3089
78,347 80,87 90,74 91,584
93,9999 94,803 103,53 104,105
105,52 106,51 107,70 117,46
118,576 119,1666 120,165 133,98
134,178 166,81 167,189 168,194
169,351 192,56 193,82 194,263
195,86 210,1746 211,4357 212,675
213,52
##END=
