##TITLE=1,2-Benzenediol, 3,5-bis(1,1-dimethylethyl)-
##JCAMP-DX=4.24
##DATA TYPE=MASS SPECTRUM
##ORIGIN=RADIAN CORP
##OWNER=NIST Mass Spectrometry Data Center
Collection (C) 2014 copyright by the U.S. Secretary of Commerce
on behalf of the United States of America. All rights reserved.
##CAS REGISTRY NO=1020-31-1
##$NIST MASS SPEC NO=70359
##MOLFORM=C14 H22 O2
##MW=222
##$NIST SOURCE=MSDC
##XUNITS=M/Z
##YUNITS=RELATIVE INTENSITY
##XFACTOR=1
##YFACTOR=1
##FIRSTX=15
##LASTX=224
##FIRSTY=130
##MAXX=224
##MINX=15
##MAXY=9999
##MINY=10
##NPOINTS=120
##PEAK TABLE=(XY..XY)
15,130 27,250 29,500 32,20
39,330 40,60 41,860 42,80
43,200 44,10 45,40 50,30
51,150 52,50 53,170 54,20
55,190 57,1850 58,110 59,20
62,20 63,100 64,40 65,180
66,50 67,100 68,100 69,50
72,10 73,90 74,50 75,100
76,30 77,440 78,120 79,220
80,30 81,160 82,290 83,10
87,20 89,110 90,20 91,460
92,50 93,110 94,50 95,60
96,220 101,20 102,70 103,200
104,50 105,230 106,20 107,110
108,50 109,60 110,60 111,30
115,300 116,90 117,130 118,20
119,100 120,10 121,80 122,30
123,310 124,40 127,60 128,140
129,110 130,50 131,160 132,40
133,120 134,30 135,130 136,60
137,160 138,10 141,30 143,40
144,40 145,90 146,30 147,90
148,20 149,210 150,60 151,240
152,30 157,20 158,20 159,50
160,10 161,50 162,30 163,180
164,60 165,110 166,10 173,30
175,50 177,150 178,20 179,540
180,60 189,10 191,370 192,70
193,20 205,50 207,9999 208,1460
209,140 222,1950 223,310 224,30
##END=
