##TITLE=4-Dodecanol
##JCAMP-DX=4.24
##DATA TYPE=MASS SPECTRUM
##ORIGIN=NIST Mass Spectrometry Data Center, 1990.
##OWNER=NIST Mass Spectrometry Data Center
Collection (C) 2014 copyright by the U.S. Secretary of Commerce
on behalf of the United States of America. All rights reserved.
##CAS REGISTRY NO=10203-32-4
##$NIST MASS SPEC NO=114294
##MOLFORM=C12 H26 O
##MW=186
##$NIST SOURCE=MSDC
##XUNITS=M/Z
##YUNITS=RELATIVE INTENSITY
##XFACTOR=1
##YFACTOR=1
##FIRSTX=27
##LASTX=169
##FIRSTY=2010
##MAXX=169
##MINX=27
##MAXY=9999
##MINY=60
##NPOINTS=53
##PEAK TABLE=(XY..XY)
27,2010 28,276 29,2828 30,94
31,804 39,1284 41,5434 42,1196
43,4259 44,747 45,326 51,79
52,64 53,470 54,64 55,9999
56,1774 57,3187 58,347 59,91
65,111 67,698 69,7281 70,1416
71,692 72,931 73,6714 74,284
77,73 79,112 81,292 82,379
83,3620 84,643 85,197 86,122
95,105 96,166 97,766 98,243
99,89 110,60 111,269 112,121
124,77 125,274 126,60 140,65
141,108 143,1451 144,141 168,526
169,73
##END=
