##TITLE=2,6-Difluorocinnamic acid
##JCAMP-DX=4.24
##DATA TYPE=MASS SPECTRUM
##ORIGIN=NIST Mass Spectrometry Data Center, 1994
##OWNER=NIST Mass Spectrometry Data Center
Collection (C) 2014 copyright by the U.S. Secretary of Commerce
on behalf of the United States of America. All rights reserved.
##CAS REGISTRY NO=102082-89-3
##$NIST MASS SPEC NO=136650
##MOLFORM=C9 H6 F2 O2
##MW=184
##$NIST SOURCE=MSDC
##XUNITS=M/Z
##YUNITS=RELATIVE INTENSITY
##XFACTOR=1
##YFACTOR=1
##FIRSTX=17
##LASTX=185
##FIRSTY=98
##MAXX=185
##MINX=17
##MAXY=9999
##MINY=50
##NPOINTS=97
##PEAK TABLE=(XY..XY)
17,98 18,50 26,221 27,254
29,160 31,623 33,135 37,308
38,392 39,608 40,55 42,141
43,167 44,457 45,1561 50,1018
51,786 52,74 53,201 54,302
55,83 56,261 57,1026 58,64
59,64 60,573 61,579 62,1069
63,2042 64,222 68,806 69,1872
71,188 73,218 74,1249 75,1002
76,171 77,207 78,567 79,108
80,256 81,967 82,179 83,351
85,179 86,436 87,1075 88,705
89,253 92,629 93,1249 94,637
95,241 96,77 97,77 98,497
99,3428 100,481 101,422 104,72
105,277 107,1075 108,1527 109,584
110,91 111,102 112,490 113,376
114,511 115,100 116,111 117,154
118,632 119,6915 120,938 121,291
123,161 125,113 127,2025 128,178
136,9999 137,1126 138,2364 139,4352
140,401 141,263 142,113 143,486
156,162 162,112 164,3419 165,2551
166,345 167,2469 168,297 184,5691
185,586
##END=
