##TITLE=4-Allyl-1,6-heptadiene-4-ol
##JCAMP-DX=4.24
##DATA TYPE=MASS SPECTRUM
##ORIGIN=NIST Mass Spectrometry Data Center, 1990.
##OWNER=NIST Mass Spectrometry Data Center
Collection (C) 2014 copyright by the U.S. Secretary of Commerce
on behalf of the United States of America. All rights reserved.
##CAS REGISTRY NO=10202-75-2
##$NIST MASS SPEC NO=113168
##MOLFORM=C10 H16 O
##MW=152
##$NIST SOURCE=MSDC
##XUNITS=M/Z
##YUNITS=RELATIVE INTENSITY
##XFACTOR=1
##YFACTOR=1
##FIRSTX=14
##LASTX=134
##FIRSTY=91
##MAXX=134
##MINX=14
##MAXY=9999
##MINY=16
##NPOINTS=35
##PEAK TABLE=(XY..XY)
14,91 26,67 27,442 28,16
29,232 31,85 32,43 39,2628
41,7856 42,599 43,347 50,134
51,287 52,101 53,382 54,106
55,666 57,181 62,65 63,163
65,445 66,153 67,251 68,65
69,9999 70,499 91,964 92,190
93,394 95,87 111,1626 112,128
115,92 117,100 134,80
##END=
