##TITLE=Propanedioic acid, ethyl(1-ethylpropyl)-, diethyl ester
##JCAMP-DX=4.24
##DATA TYPE=MASS SPECTRUM
##OWNER=NIST Mass Spectrometry Data Center
Collection (C) 2014 copyright by the U.S. Secretary of Commerce
on behalf of the United States of America. All rights reserved.
##CAS REGISTRY NO=10203-59-5
##$NIST MASS SPEC NO=33019
##MOLFORM=C14 H26 O4
##MW=258
##$NIST SOURCE=MSDC
##XUNITS=M/Z
##YUNITS=RELATIVE INTENSITY
##XFACTOR=1
##YFACTOR=1
##FIRSTX=39
##LASTX=231
##FIRSTY=473
##MAXX=231
##MINX=39
##MAXY=9999
##MINY=128
##NPOINTS=68
##PEAK TABLE=(XY..XY)
39,473 41,1252 42,365 43,1479
44,572 45,809 53,473 55,2288
56,296 57,355 59,335 67,473
68,217 69,1943 70,414 71,493
73,493 81,562 83,789 86,1302
87,769 88,473 96,237 97,375
99,3333 100,316 101,473 109,335
110,256 111,1913 112,256 113,483
114,1726 115,1065 116,286 127,2288
128,247 129,947 138,325 139,503
141,759 142,6853 143,1104 144,217
145,266 155,1242 156,365 157,1035
158,237 160,2209 161,375 173,6577
174,818 183,848 184,552 185,2958
186,473 187,197 188,9999 189,1242
190,296 201,957 202,177 212,316
213,2091 214,266 230,227 231,128
##END=
