##TITLE=Diethyl isobutylmalonate
##JCAMP-DX=4.24
##DATA TYPE=MASS SPECTRUM
##ORIGIN=Japan AIST/NIMC Database- Spectrum MS-NW-5147
##OWNER=NIST Mass Spectrometry Data Center
Collection (C) 2014 copyright by the U.S. Secretary of Commerce
on behalf of the United States of America. All rights reserved.
##CAS REGISTRY NO=10203-58-4
##$NIST MASS SPEC NO=232517
##MOLFORM=C11 H20 O4
##MW=216
##$NIST SOURCE=MSDC
##XUNITS=M/Z
##YUNITS=RELATIVE INTENSITY
##XFACTOR=1
##YFACTOR=1
##FIRSTX=14
##LASTX=217
##FIRSTY=30
##MAXX=217
##MINX=14
##MAXY=9999
##MINY=10
##NPOINTS=136
##PEAK TABLE=(XY..XY)
14,30 15,179 16,10 18,20
25,10 26,209 27,2289 28,269
29,5069 30,109 31,369 32,30
37,10 38,30 39,669 40,99
41,1849 42,339 43,1439 44,189
45,859 46,60 47,119 50,20
51,60 52,40 53,329 54,139
55,2849 56,509 57,489 58,279
59,249 60,109 61,70 63,10
65,30 66,20 67,259 68,119
69,1899 70,299 71,179 72,70
73,3849 74,169 75,40 77,10
79,80 80,10 81,349 82,189
83,459 84,40 85,70 86,1169
87,629 88,1679 89,119 90,10
93,10 94,20 95,219 96,209
97,2009 98,399 99,1039 100,319
101,3389 102,219 103,30 104,719
105,559 106,20 107,519 108,60
109,399 110,50 111,30 112,10
113,199 114,1799 115,1579 116,159
117,40 119,10 122,10 123,139
124,149 125,459 126,40 127,1899
128,369 129,359 130,30 131,60
132,1619 133,2849 134,189 135,30
137,20 138,10 141,149 142,469
143,599 144,169 145,239 146,20
153,359 154,50 155,289 156,30
157,60 158,10 159,10 160,9999
161,869 162,129 163,10 169,30
170,119 171,3569 172,379 173,1859
174,189 175,30 183,40 185,20
187,10 189,30 199,30 201,119
202,20 215,20 216,20 217,20
##END=
