##TITLE=Beryllium, bis(2,4-pentanedionato-O,O')-, (T-4)-
##JCAMP-DX=4.24
##DATA TYPE=MASS SPECTRUM
##ORIGIN=Japan AIST/NIMC Database- Spectrum MS-NW-9179
##OWNER=NIST Mass Spectrometry Data Center
Collection (C) 2014 copyright by the U.S. Secretary of Commerce
on behalf of the United States of America. All rights reserved.
##CAS REGISTRY NO=10210-64-7
##$NIST MASS SPEC NO=230420
##MOLFORM=C10 H14 Be O4
##MW=207
##$NIST SOURCE=MSDC
##XUNITS=M/Z
##YUNITS=RELATIVE INTENSITY
##XFACTOR=1
##YFACTOR=1
##FIRSTX=14
##LASTX=209
##FIRSTY=10
##MAXX=209
##MINX=14
##MAXY=9999
##MINY=10
##NPOINTS=92
##PEAK TABLE=(XY..XY)
14,10 15,90 17,10 18,30
23,10 24,30 26,60 27,60
28,119 29,30 31,10 34,20
35,10 36,40 37,20 38,20
39,139 40,60 41,60 42,50
43,1439 44,40 48,30 50,80
51,30 52,139 53,60 54,50
55,30 56,10 58,30 59,10
60,10 62,10 63,10 64,119
65,90 66,899 67,80 68,109
69,10 72,40 74,10 76,10
77,30 78,299 79,159 80,60
81,60 82,20 85,229 86,10
88,379 89,40 90,50 91,20
92,60 93,20 94,20 96,189
100,229 101,10 103,30 106,20
107,269 108,6599 109,379 110,60
120,10 125,40 126,109 134,40
135,10 136,10 149,10 150,119
151,10 152,20 158,20 164,10
165,509 166,40 178,149 179,10
191,30 192,9999 193,1019 194,129
195,10 207,6099 208,689 209,90
##END=
