##TITLE=10-Undecenoic acid, 3-methylbutyl ester
##JCAMP-DX=4.24
##DATA TYPE=MASS SPECTRUM
##ORIGIN=W.Jennings, T.Shibamoto
##OWNER=NIST Mass Spectrometry Data Center
Collection (C) 2014 copyright by the U.S. Secretary of Commerce
on behalf of the United States of America. All rights reserved.
##CAS REGISTRY NO=10214-27-4
##$NIST MASS SPEC NO=284986
##MOLFORM=C16 H30 O2
##MW=254
##$NIST SOURCE=MSDC
##XUNITS=M/Z
##YUNITS=RELATIVE INTENSITY
##XFACTOR=1
##YFACTOR=1
##FIRSTX=26
##LASTX=185
##FIRSTY=420
##MAXX=185
##MINX=26
##MAXY=9999
##MINY=80
##NPOINTS=64
##PEAK TABLE=(XY..XY)
26,420 28,90 29,90 41,520
42,420 43,6146 44,210 54,210
55,2142 56,420 57,420 60,290
61,80 67,611 68,410 69,1712
70,9659 71,9999 72,751 73,320
80,90 81,651 82,861 83,1271
84,1131 85,430 87,210 93,80
94,80 95,330 96,1281 97,961
98,1071 99,190 100,80 101,340
107,80 108,80 109,210 110,350
111,350 112,80 113,80 114,310
115,310 122,320 123,540 124,941
125,540 127,90 133,430 137,210
138,210 141,90 143,210 147,80
148,330 149,961 150,90 165,210
166,1161 167,741 184,80 185,90
##END=
