##TITLE=2,4,6-Trinitro-N-methyl-aniline
##JCAMP-DX=4.24
##DATA TYPE=MASS SPECTRUM
##ORIGIN=Japan AIST/NIMC Database- Spectrum MS-IW-4331
##OWNER=NIST Mass Spectrometry Data Center
Collection (C) 2014 copyright by the U.S. Secretary of Commerce
on behalf of the United States of America. All rights reserved.
##CAS REGISTRY NO=1022-07-7
##$NIST MASS SPEC NO=244372
##MOLFORM=C7 H6 N4 O6
##MW=242
##$NIST SOURCE=MSDC
##XUNITS=M/Z
##YUNITS=RELATIVE INTENSITY
##XFACTOR=1
##YFACTOR=1
##FIRSTX=12
##LASTX=245
##FIRSTY=10
##MAXX=245
##MINX=12
##MAXY=9999
##MINY=10
##NPOINTS=182
##PEAK TABLE=(XY..XY)
12,10 13,10 15,209 16,40
25,10 26,199 27,1429 28,2039
29,289 30,4109 31,219 32,40
36,10 37,139 38,259 39,509
40,209 41,229 42,419 43,509
44,2299 45,99 46,99 47,10
48,40 49,40 50,779 51,2099
52,969 53,539 54,159 55,119
56,99 57,50 58,209 59,10
60,40 61,429 62,1379 63,779
64,1199 65,1249 66,1269 67,249
68,239 69,159 70,40 71,30
72,50 73,119 74,869 75,2439
76,2519 77,3739 78,2029 79,499
80,609 81,149 82,139 83,50
84,20 85,20 86,30 87,159
88,839 89,699 90,959 91,1259
92,1959 93,599 94,159 95,90
96,30 97,30 98,20 99,30
100,60 101,70 102,1199 103,1479
104,1659 105,679 106,299 107,259
108,229 109,60 110,20 111,20
115,109 116,199 117,549 118,1799
119,1009 120,1329 121,299 122,129
123,80 124,20 125,10 126,20
129,10 130,30 131,179 132,1059
133,729 134,269 135,109 136,599
137,669 138,70 139,119 140,10
141,10 143,10 144,10 145,30
146,20 147,40 148,479 149,1739
150,629 151,129 152,40 153,20
158,20 159,10 160,20 161,20
162,129 163,479 164,1149 165,309
166,819 167,909 168,90 169,30
174,10 175,10 176,10 177,60
178,839 179,1029 180,179 181,40
182,99 183,209 184,20 187,20
188,10 189,10 191,10 192,80
193,20 194,9999 195,1749 196,269
197,1269 198,149 199,20 205,10
206,30 207,20 208,489 209,109
210,40 211,40 212,1139 213,459
214,40 221,10 222,30 223,20
224,889 225,1719 226,499 227,60
228,60 241,30 242,7919 243,829
244,129 245,10
##END=
