##TITLE=Piperidine, 1,1'-dithiobis-
##JCAMP-DX=4.24
##DATA TYPE=MASS SPECTRUM
##ORIGIN=J.H.BOWIE UNIVERSITY OF ADELAIDE, AUSTRALIA
##OWNER=NIST Mass Spectrometry Data Center
Collection (C) 2014 copyright by the U.S. Secretary of Commerce
on behalf of the United States of America. All rights reserved.
##CAS REGISTRY NO=10220-20-9
##$NIST MASS SPEC NO=11151
##MOLFORM=C10 H20 N2 S2
##MW=232
##$NIST SOURCE=MSDC
##XUNITS=M/Z
##YUNITS=RELATIVE INTENSITY
##XFACTOR=1
##YFACTOR=1
##FIRSTX=39
##LASTX=86
##FIRSTY=1200
##MAXX=86
##MINX=39
##MAXY=9999
##MINY=400
##NPOINTS=28
##PEAK TABLE=(XY..XY)
39,1200 40,400 41,2300 42,2200
43,1500 44,2200 50,400 51,700
52,1200 53,700 54,1400 55,5400
56,1700 57,1000 64,400 67,700
68,600 69,400 70,1000 71,400
79,1300 80,700 81,1400 82,1400
83,4400 84,9999 85,5600 86,600
##END=
