##TITLE=DDMU
##JCAMP-DX=4.24
##DATA TYPE=MASS SPECTRUM
##ORIGIN=MASS SPECTROMETRY CENTER, UNIV. OF UTAH EPA-PTSEL 1800
##OWNER=NIST Mass Spectrometry Data Center
Collection (C) 2014 copyright by the U.S. Secretary of Commerce
on behalf of the United States of America. All rights reserved.
##CAS REGISTRY NO=1022-22-6
##$NIST MASS SPEC NO=52499
##MOLFORM=C14 H9 Cl3
##MW=282
##$NIST SOURCE=MSDC
##XUNITS=M/Z
##YUNITS=RELATIVE INTENSITY
##XFACTOR=1
##YFACTOR=1
##FIRSTX=15
##LASTX=288
##FIRSTY=73
##MAXX=288
##MINX=15
##MAXY=9999
##MINY=29
##NPOINTS=96
##PEAK TABLE=(XY..XY)
15,73 16,40 26,59 27,294
35,238 36,559 37,206 38,452
39,317 44,29 47,62 49,183
50,982 51,995 52,89 61,329
62,479 63,522 72,57 73,450
74,1147 75,2365 76,488 77,245
84,179 85,479 86,408 87,796
88,3238 89,479 92,279 93,570
94,302 97,279 98,386 99,624
100,327 101,524 102,154 105,1677
106,1255 107,520 109,204 110,445
111,538 112,93 113,330 122,181
123,1506 124,1008 125,442 126,401
135,313 136,781 137,348 138,509
139,58 141,82 142,190 149,342
150,585 151,547 152,166 160,236
162,66 163,231 170,154 173,208
174,579 175,709 176,4035 177,1172
178,164 186,216 210,389 211,864
212,9999 213,1822 214,3036 215,575
233,462 235,264 237,64 246,1083
247,1911 248,978 249,1636 250,401
251,278 282,9677 283,1514 284,9649
285,1359 286,2975 287,484 288,369
##END=
