##TITLE=4-Phenylphenol, TMS derivative
##JCAMP-DX=4.24
##DATA TYPE=MASS SPECTRUM
##ORIGIN=NIST Mass Spectrometry Data Center
##OWNER=NIST Mass Spectrometry Data Center
Collection (C) 2014 copyright by the U.S. Secretary of Commerce
on behalf of the United States of America. All rights reserved.
##CAS REGISTRY NO=1023-13-8
##$NIST MASS SPEC NO=333405
##MOLFORM=C15 H18 O Si
##MW=242
##$NIST SOURCE=MSDC
##XUNITS=M/Z
##YUNITS=RELATIVE INTENSITY
##XFACTOR=1
##YFACTOR=1
##FIRSTX=15
##LASTX=246
##FIRSTY=10
##MAXX=246
##MINX=15
##MAXY=9999
##MINY=10
##NPOINTS=182
##PEAK TABLE=(XY..XY)
15,10 27,30 28,10 29,50
30,10 31,20 38,10 39,110
40,10 41,10 42,30 43,400
44,120 45,831 46,60 47,130
48,10 50,90 51,220 52,50
53,70 54,10 55,80 56,10
57,60 58,230 59,230 60,40
61,110 62,80 63,250 64,40
65,90 66,20 67,30 68,10
69,50 70,30 71,40 73,1581
74,240 75,951 76,320 77,320
78,50 79,40 80,20 81,20
83,90 84,10 85,70 86,70
87,100 88,80 89,210 90,30
91,140 92,30 93,40 94,20
95,70 96,10 97,40 99,200
100,70 101,120 102,270 103,80
104,10 105,130 106,90 108,10
109,20 110,10 111,20 113,2102
115,1131 116,120 117,30 118,10
119,40 120,10 121,160 122,30
123,20 124,10 125,60 126,260
127,330 128,160 129,60 130,10
131,80 132,10 133,30 134,10
135,90 136,10 137,30 138,30
139,500 140,130 141,801 142,130
143,50 144,10 145,160 146,30
147,30 148,10 149,120 150,260
151,781 152,2803 153,881 154,150
155,100 156,20 157,40 158,10
159,80 160,10 161,40 162,10
163,40 164,70 165,1051 166,300
167,631 168,140 169,460 170,90
171,160 172,30 173,30 175,10
176,10 177,10 178,40 179,60
180,30 181,240 182,70 183,180
184,50 185,50 186,10 187,10
191,10 193,50 194,20 195,80
196,80 197,190 198,40 199,50
200,10 205,10 207,20 208,10
209,70 211,5165 212,1041 213,280
214,40 221,10 223,30 224,20
225,120 227,8348 228,1822 229,510
230,60 231,10 237,10 239,10
240,30 242,9999 243,2382 244,641
245,80 246,10
##END=
