##TITLE=5-Methyl-(E)-2-hepten-4-one
##JCAMP-DX=4.24
##DATA TYPE=MASS SPECTRUM
##ORIGIN=P.Pfnuer ET AL.J.Agr.Food Chem., 47,2044(1999)
##OWNER=NIST Mass Spectrometry Data Center
Collection (C) 2014 copyright by the U.S. Secretary of Commerce
on behalf of the United States of America. All rights reserved.
##CAS REGISTRY NO=102322-83-8
##$NIST MASS SPEC NO=281163
##MOLFORM=C8 H14 O
##MW=126
##$NIST SOURCE=MSDC
##XUNITS=M/Z
##YUNITS=RELATIVE INTENSITY
##XFACTOR=1
##YFACTOR=1
##FIRSTX=38
##LASTX=127
##FIRSTY=30
##MAXX=127
##MINX=38
##MAXY=9999
##MINY=30
##NPOINTS=25
##PEAK TABLE=(XY..XY)
38,30 39,2823 40,440 41,8378
51,140 52,30 53,240 55,440
56,360 57,1161 68,460 69,9999
70,1481 77,150 79,50 83,260
84,150 85,70 97,50 98,2963
99,170 111,2762 112,170 126,540
127,50
##END=
