##TITLE=Glyburide
##JCAMP-DX=4.24
##DATA TYPE=MASS SPECTRUM
##ORIGIN=AAFS Toxicology Section MS DB Committee, U. Alberta, Canada
##OWNER=NIST Mass Spectrometry Data Center
Collection (C) 2014 copyright by the U.S. Secretary of Commerce
on behalf of the United States of America. All rights reserved.
##CAS REGISTRY NO=10238-21-8
##$NIST MASS SPEC NO=247159
##MOLFORM=C23 H28 Cl N3 O5 S
##MW=493
##$NIST SOURCE=MSDC
##XUNITS=M/Z
##YUNITS=RELATIVE INTENSITY
##XFACTOR=1
##YFACTOR=1
##FIRSTX=42
##LASTX=397
##FIRSTY=610
##MAXX=397
##MINX=42
##MAXY=9999
##MINY=60
##NPOINTS=95
##PEAK TABLE=(XY..XY)
42,610 43,890 44,130 50,160
51,240 52,140 53,300 54,820
55,650 56,3643 57,320 62,70
63,420 64,160 65,160 66,100
67,1981 68,430 69,1251 70,720
71,170 73,120 74,100 75,370
76,240 77,660 78,350 79,310
80,180 81,330 82,2282 83,670
84,140 85,100 89,400 90,840
91,320 92,110 95,110 96,610
97,2031 98,560 99,1251 100,160
102,70 103,290 104,170 105,90
106,90 107,70 109,70 110,220
111,1151 112,160 113,420 115,60
117,70 118,80 119,140 124,190
125,320 126,1351 127,170 128,420
129,100 134,210 135,80 138,80
139,420 140,230 141,180 142,80
151,70 154,420 155,160 156,170
157,60 167,160 168,320 169,9999
170,950 171,3202 172,260 198,2242
199,210 200,750 201,70 287,70
352,70 368,140 369,70 394,530
395,110 396,210 397,60
##END=
