##TITLE=1-(Benzylthio)acetone
##JCAMP-DX=4.24
##DATA TYPE=MASS SPECTRUM
##ORIGIN=NIST Mass Spectrometry Data Center, 1994
##OWNER=NIST Mass Spectrometry Data Center
Collection (C) 2014 copyright by the U.S. Secretary of Commerce
on behalf of the United States of America. All rights reserved.
##CAS REGISTRY NO=10230-69-0
##$NIST MASS SPEC NO=133918
##MOLFORM=C10 H12 O S
##MW=180
##$NIST SOURCE=MSDC
##XUNITS=M/Z
##YUNITS=RELATIVE INTENSITY
##XFACTOR=1
##YFACTOR=1
##FIRSTX=13
##LASTX=182
##FIRSTY=25
##MAXX=182
##MINX=13
##MAXY=9999
##MINY=14
##NPOINTS=78
##PEAK TABLE=(XY..XY)
13,25 14,191 15,823 16,21
25,27 26,213 27,593 28,34
29,163 31,19 32,36 34,16
37,88 38,298 39,1527 40,128
41,341 42,738 43,4081 44,16
45,1841 46,455 47,127 48,22
49,16 50,340 51,819 52,198
53,55 57,42 58,157 59,74
60,16 61,99 62,305 63,839
64,16 65,2375 66,147 69,106
70,25 71,29 73,36 74,62
75,66 76,16 77,524 78,184
79,121 80,14 82,23 84,14
85,19 86,40 87,34 89,588
91,9999 92,864 93,60 97,23
103,32 104,112 105,25 108,16
121,664 122,1760 123,3450 124,376
125,156 134,31 135,54 137,185
138,32 147,27 162,15 180,940
181,127 182,55
##END=
