##TITLE=2,4-Dihydroxy-2,5-dimethyl-3(2H)-furan-3-one
##JCAMP-DX=4.24
##DATA TYPE=MASS SPECTRUM
##ORIGIN=NIST Mass Spectrometry Data Center
##OWNER=NIST Mass Spectrometry Data Center
Collection (C) 2014 copyright by the U.S. Secretary of Commerce
on behalf of the United States of America. All rights reserved.
##CAS REGISTRY NO=10230-62-3
##$NIST MASS SPEC NO=413166
##MOLFORM=C6 H8 O4
##MW=144
##$NIST SOURCE=MSDC
##XUNITS=M/Z
##YUNITS=RELATIVE INTENSITY
##XFACTOR=1
##YFACTOR=1
##FIRSTX=26
##LASTX=146
##FIRSTY=150
##MAXX=146
##MINX=26
##MAXY=9999
##MINY=30
##NPOINTS=32
##PEAK TABLE=(XY..XY)
26,150 27,1331 29,861 37,70
41,140 42,851 43,9619 44,711
45,1561 53,280 54,350 55,7457
56,350 57,100 58,160 59,100
69,150 71,80 73,8638 74,340
75,40 83,30 84,70 87,110
100,70 101,9999 102,470 103,70
128,70 144,4714 145,300 146,50
##END=
