##TITLE=Heptachlor epoxide
##JCAMP-DX=4.24
##DATA TYPE=MASS SPECTRUM
##ORIGIN=MASS SPECTROMETRY CENTER, UNIV. OF UTAH EPA-PTSEL 3880
##OWNER=NIST Mass Spectrometry Data Center
Collection (C) 2014 copyright by the U.S. Secretary of Commerce
on behalf of the United States of America. All rights reserved.
##CAS REGISTRY NO=1024-57-3
##$NIST MASS SPEC NO=52340
##MOLFORM=C10 H5 Cl7 O
##MW=386
##$NIST SOURCE=MSDC
##XUNITS=M/Z
##YUNITS=RELATIVE INTENSITY
##XFACTOR=1
##YFACTOR=1
##FIRSTX=27
##LASTX=394
##FIRSTY=2474
##MAXX=394
##MINX=27
##MAXY=9999
##MINY=38
##NPOINTS=194
##PEAK TABLE=(XY..XY)
27,2474 29,1528 35,339 36,1152
37,485 38,687 39,825 43,64
44,38 47,319 49,713 50,731
51,1824 52,401 53,2092 55,136
60,526 61,1325 62,579 63,757
65,288 71,153 72,385 73,1294
74,724 75,751 77,267 81,9999
82,816 83,795 84,638 85,1190
86,687 87,1116 88,199 89,572
90,177 91,286 95,381 96,607
97,733 98,476 99,484 102,240
103,243 106,282 107,687 108,577
109,1811 110,462 111,619 115,1102
116,218 117,942 118,291 119,662
120,430 121,695 122,350 123,1401
124,53 125,867 126,485 127,450
130,341 131,320 132,249 133,440
135,223 141,676 142,166 143,830
144,225 145,564 147,619 148,188
149,278 151,1909 152,163 153,1316
154,161 155,463 156,121 157,342
158,146 159,328 165,328 167,535
168,148 169,454 170,262 171,188
172,128 179,165 180,144 181,526
182,427 183,1025 184,256 185,799
187,287 191,592 192,152 193,614
195,264 201,181 203,251 204,414
205,337 206,359 214,258 215,240
216,511 217,1160 218,506 219,1085
220,346 221,361 222,168 226,170
227,295 228,232 229,287 230,187
231,161 235,1283 236,168 237,1799
238,328 239,1395 240,344 241,687
242,187 243,247 246,152 248,302
249,220 250,308 251,922 252,564
253,1136 254,548 255,827 256,311
257,473 259,198 261,1285 262,137
263,1881 264,199 265,1236 266,168
267,513 269,161 270,584 272,927
273,216 274,988 275,238 276,522
277,170 278,201 280,458 281,253
282,572 283,331 284,297 285,240
287,469 289,500 290,161 291,309
293,148 315,434 317,684 318,203
319,462 321,192 351,4837 352,621
353,9422 354,1252 355,7221 356,849
357,3231 358,441 359,825 361,155
386,408 388,823 389,150 390,750
392,462 394,185
##END=
