##TITLE=4-Heptanol, 2,6-dimethyl-, acetate
##JCAMP-DX=4.24
##DATA TYPE=MASS SPECTRUM
##ORIGIN=W.Jennings, T.Shibamoto
##OWNER=NIST Mass Spectrometry Data Center
Collection (C) 2014 copyright by the U.S. Secretary of Commerce
on behalf of the United States of America. All rights reserved.
##CAS REGISTRY NO=10250-45-0
##$NIST MASS SPEC NO=285194
##MOLFORM=C11 H22 O2
##MW=186
##$NIST SOURCE=MSDC
##XUNITS=M/Z
##YUNITS=RELATIVE INTENSITY
##XFACTOR=1
##YFACTOR=1
##FIRSTX=37
##LASTX=144
##FIRSTY=450
##MAXX=144
##MINX=37
##MAXY=9999
##MINY=60
##NPOINTS=31
##PEAK TABLE=(XY..XY)
37,450 39,70 41,581 42,270
43,9999 44,781 45,280 55,2292
56,4354 57,2813 58,1571 59,571
61,450 68,360 69,5885 70,3253
71,1051 83,991 84,671 85,981
86,671 87,280 98,881 100,60
101,781 111,991 126,1571 127,450
129,2923 130,380 144,70
##END=
