##TITLE=Diphenyl-2,4-uretidinedione
##JCAMP-DX=4.24
##DATA TYPE=MASS SPECTRUM
##ORIGIN=Japan AIST/NIMC Database- Spectrum MS-IW-2558
##OWNER=NIST Mass Spectrometry Data Center
Collection (C) 2014 copyright by the U.S. Secretary of Commerce
on behalf of the United States of America. All rights reserved.
##CAS REGISTRY NO=1025-36-1
##$NIST MASS SPEC NO=243387
##MOLFORM=C14 H10 N2 O2
##MW=238
##$NIST SOURCE=MSDC
##XUNITS=M/Z
##YUNITS=RELATIVE INTENSITY
##XFACTOR=1
##YFACTOR=1
##FIRSTX=26
##LASTX=239
##FIRSTY=20
##MAXX=239
##MINX=26
##MAXY=9999
##MINY=10
##NPOINTS=43
##PEAK TABLE=(XY..XY)
26,20 27,60 28,60 37,119
38,259 39,289 40,60 41,159
42,10 44,40 45,80 49,20
50,149 51,239 52,139 53,10
59,119 60,10 61,50 62,90
63,429 64,1189 65,239 66,10
73,10 74,40 75,30 76,30
77,90 87,10 88,10 90,139
91,2369 92,169 93,10 103,10
118,10 119,9999 120,819 121,50
194,30 238,459 239,70
##END=
