##TITLE=Benzoic acid, 2-methoxy-, phenyl ester
##JCAMP-DX=4.24
##DATA TYPE=MASS SPECTRUM
##ORIGIN=Zaikin V.G., TIPS RAS, Moscow, Russia
##OWNER=NIST Mass Spectrometry Data Center
Collection (C) 2014 copyright by the U.S. Secretary of Commerce
on behalf of the United States of America. All rights reserved.
##CAS REGISTRY NO=10268-71-0
##$NIST MASS SPEC NO=292615
##MOLFORM=C14 H12 O3
##MW=228
##$NIST SOURCE=MSDC
##XUNITS=M/Z
##YUNITS=RELATIVE INTENSITY
##XFACTOR=1
##YFACTOR=1
##FIRSTX=28
##LASTX=228
##FIRSTY=10
##MAXX=228
##MINX=28
##MAXY=9999
##MINY=10
##NPOINTS=21
##PEAK TABLE=(XY..XY)
28,10 38,30 39,120 50,60
51,150 63,160 64,200 65,130
76,80 77,1171 78,90 79,70
92,661 93,60 94,40 105,80
120,140 135,9999 136,791 137,60
228,70
##END=
