##TITLE=3-Ethylcyclopentanone
##JCAMP-DX=4.24
##DATA TYPE=MASS SPECTRUM
##ORIGIN=NIST Mass Spectrometry Data Center, 1990.
##OWNER=NIST Mass Spectrometry Data Center
Collection (C) 2014 copyright by the U.S. Secretary of Commerce
on behalf of the United States of America. All rights reserved.
##CAS REGISTRY NO=10264-55-8
##$NIST MASS SPEC NO=113792
##MOLFORM=C7 H12 O
##MW=112
##$NIST SOURCE=MSDC
##XUNITS=M/Z
##YUNITS=RELATIVE INTENSITY
##XFACTOR=1
##YFACTOR=1
##FIRSTX=15
##LASTX=113
##FIRSTY=283
##MAXX=113
##MINX=15
##MAXY=9999
##MINY=3
##NPOINTS=38
##PEAK TABLE=(XY..XY)
15,283 16,96 26,703 27,3821
28,2985 29,2585 32,3 37,121
38,424 39,3678 40,913 41,6123
42,2945 43,823 50,385 51,634
52,256 53,1138 54,121 55,9120
56,5928 57,761 58,86 65,132
67,347 68,369 69,1362 70,1908
71,100 79,442 81,91 83,9999
84,1199 85,84 94,124 97,330
112,4133 113,282
##END=
