##TITLE=Valeramide, N-hexyl-
##JCAMP-DX=4.24
##DATA TYPE=MASS SPECTRUM
##ORIGIN=CARL DJERASSI DEPT OF CHEM STANFORD UNIV STANFORD CALIF 94305
##OWNER=NIST Mass Spectrometry Data Center
Collection (C) 2014 copyright by the U.S. Secretary of Commerce
on behalf of the United States of America. All rights reserved.
##CAS REGISTRY NO=10264-25-2
##$NIST MASS SPEC NO=47187
##MOLFORM=C11 H23 N O
##MW=185
##$NIST SOURCE=MSDC
##XUNITS=M/Z
##YUNITS=RELATIVE INTENSITY
##XFACTOR=1
##YFACTOR=1
##FIRSTX=41
##LASTX=185
##FIRSTY=8100
##MAXX=185
##MINX=41
##MAXY=9999
##MINY=100
##NPOINTS=41
##PEAK TABLE=(XY..XY)
41,8100 42,1600 43,9999 44,5900
45,600 53,200 54,1600 55,3100
56,2100 57,8200 58,1700 59,400
60,700 69,300 70,100 71,500
72,1800 73,4700 74,200 82,100
83,300 84,500 85,7800 86,3700
87,2500 88,100 99,100 100,1900
101,1800 102,1700 114,2500 115,1400
128,1700 129,100 142,2100 143,4200
144,300 156,2100 157,100 170,200
185,400
##END=
