##TITLE=Propanamide, N-hexyl-
##JCAMP-DX=4.24
##DATA TYPE=MASS SPECTRUM
##ORIGIN=CARL DJERASSI DEPT OF CHEM STANFORD UNIV STANFORD CALIF 94305
##OWNER=NIST Mass Spectrometry Data Center
Collection (C) 2014 copyright by the U.S. Secretary of Commerce
on behalf of the United States of America. All rights reserved.
##CAS REGISTRY NO=10264-24-1
##$NIST MASS SPEC NO=46822
##MOLFORM=C9 H19 N O
##MW=157
##$NIST SOURCE=MSDC
##XUNITS=M/Z
##YUNITS=RELATIVE INTENSITY
##XFACTOR=1
##YFACTOR=1
##FIRSTX=27
##LASTX=157
##FIRSTY=1200
##MAXX=157
##MINX=27
##MAXY=9999
##MINY=100
##NPOINTS=26
##PEAK TABLE=(XY..XY)
27,1200 28,800 29,3500 30,9999
31,200 39,200 41,1200 42,300
43,2300 44,2200 45,200 55,500
56,400 57,3900 58,700 72,200
74,900 85,200 86,2200 87,2100
100,600 101,400 114,900 115,100
128,700 157,400
##END=
