##TITLE=Octanoic acid, phenylmethyl ester
##JCAMP-DX=4.24
##DATA TYPE=MASS SPECTRUM
##ORIGIN=V.Zaikin,Topchiev Inst.Petrochem.Synth.,Moscow
##OWNER=NIST Mass Spectrometry Data Center
Collection (C) 2014 copyright by the U.S. Secretary of Commerce
on behalf of the United States of America. All rights reserved.
##CAS REGISTRY NO=10276-85-4
##$NIST MASS SPEC NO=282405
##MOLFORM=C15 H22 O2
##MW=234
##$NIST SOURCE=MSDC
##XUNITS=M/Z
##YUNITS=RELATIVE INTENSITY
##XFACTOR=1
##YFACTOR=1
##FIRSTX=26
##LASTX=236
##FIRSTY=50
##MAXX=236
##MINX=26
##MAXY=9999
##MINY=10
##NPOINTS=102
##PEAK TABLE=(XY..XY)
26,50 27,160 28,60 29,230
36,50 38,20 39,240 40,40
41,571 42,140 43,510 44,20
45,20 50,60 51,150 52,60
53,60 54,30 55,601 56,100
57,1611 58,80 59,50 60,90
61,20 62,20 63,100 64,40
65,561 66,40 67,130 68,30
69,130 70,50 71,50 73,80
74,20 75,20 76,20 77,400
78,140 79,470 80,50 81,100
82,110 83,721 84,120 85,60
87,60 89,310 90,831 91,9999
92,2352 93,180 95,20 96,90
97,701 98,130 99,20 100,20
101,100 102,10 104,70 105,280
106,100 107,731 108,7487 109,661
110,40 111,10 115,20 117,50
118,10 119,20 124,190 125,1231
126,120 127,1341 128,130 129,10
131,20 132,20 133,20 141,10
142,90 143,1151 144,120 145,20
147,30 150,60 159,10 161,60
162,10 174,60 175,30 177,60
191,30 216,120 217,20 234,831
235,140 236,20
##END=
