##TITLE=p-Nitrophenyl hexadecyl ether
##JCAMP-DX=4.24
##DATA TYPE=MASS SPECTRUM
##ORIGIN=NIST Mass Spectrometry Data Center, 1994
##OWNER=NIST Mass Spectrometry Data Center
Collection (C) 2014 copyright by the U.S. Secretary of Commerce
on behalf of the United States of America. All rights reserved.
##CAS REGISTRY NO=102703-33-3
##$NIST MASS SPEC NO=135859
##MOLFORM=C22 H37 N O3
##MW=363
##$NIST SOURCE=MSDC
##XUNITS=M/Z
##YUNITS=RELATIVE INTENSITY
##XFACTOR=1
##YFACTOR=1
##FIRSTX=9
##LASTX=364
##FIRSTY=23
##MAXX=364
##MINX=9
##MAXY=9999
##MINY=5
##NPOINTS=122
##PEAK TABLE=(XY..XY)
9,23 17,18 18,45 27,715
28,379 29,2778 30,384 32,5
38,79 39,992 41,7467 42,1373
43,9999 44,409 50,152 51,105
52,78 53,423 54,514 55,5838
56,1586 57,7718 58,334 62,45
63,243 64,263 65,521 66,155
67,663 68,360 69,2973 70,1011
71,4028 72,222 75,179 76,324
77,156 78,191 79,172 80,132
81,531 82,436 83,1831 84,570
85,2375 86,146 91,116 92,197
93,472 94,318 95,241 96,243
97,1543 98,311 99,508 100,33
105,56 106,223 107,266 108,315
109,2604 110,466 111,645 112,193
113,197 118,32 119,34 121,70
122,387 123,1692 124,3537 125,665
126,171 127,92 131,41 133,119
134,32 135,76 136,42 137,53
138,32 139,986 140,965 141,356
142,24 152,253 153,62 154,48
163,31 166,24 167,21 246,35
249,42 260,41 263,54 264,44
274,57 277,74 278,63 288,50
291,79 292,114 293,32 302,75
305,79 306,146 316,34 319,77
320,120 328,283 329,868 330,239
331,54 332,34 333,317 334,176
335,29 346,4663 347,1222 348,197
363,122 364,39
##END=
