##TITLE=2-Chlorobenzoic acid, heptyl ester
##JCAMP-DX=4.24
##DATA TYPE=MASS SPECTRUM
##ORIGIN=Zaikin V.G., TIPS RAS, Moscow, Russia
##OWNER=NIST Mass Spectrometry Data Center
Collection (C) 2014 copyright by the U.S. Secretary of Commerce
on behalf of the United States of America. All rights reserved.
##CAS REGISTRY NO=10276-86-5
##$NIST MASS SPEC NO=292425
##MOLFORM=C14 H19 Cl O2
##MW=254
##$NIST SOURCE=MSDC
##XUNITS=M/Z
##YUNITS=RELATIVE INTENSITY
##XFACTOR=1
##YFACTOR=1
##FIRSTX=27
##LASTX=256
##FIRSTY=150
##MAXX=256
##MINX=27
##MAXY=9999
##MINY=10
##NPOINTS=54
##PEAK TABLE=(XY..XY)
27,150 28,10 29,250 36,50
39,150 40,30 41,561 42,260
43,310 44,50 50,170 51,100
53,50 54,90 55,661 56,971
57,310 65,30 67,50 68,130
69,571 70,871 71,60 74,90
75,681 76,290 77,230 78,30
81,30 83,120 85,80 97,60
98,520 99,40 104,110 105,90
110,50 111,1782 112,210 113,641
114,60 121,40 139,8167 140,651
141,2492 142,220 156,3183 157,9999
158,1742 159,3033 160,240 254,140
255,20 256,40
##END=
