##TITLE=1,5-Anhydro-3-O-acetyl-2,4,6-tri-O-methyl-D-galactitol
##JCAMP-DX=4.24
##DATA TYPE=MASS SPECTRUM
##ORIGIN=A. VAN LANGENHOVE, HARVARD SCH. PUBLIC HEALTH, BOSTON, USA
##OWNER=NIST Mass Spectrometry Data Center
Collection (C) 2014 copyright by the U.S. Secretary of Commerce
on behalf of the United States of America. All rights reserved.
##CAS REGISTRY NO=102850-63-5
##$NIST MASS SPEC NO=101535
##MOLFORM=C11 H20 O6
##MW=248
##$NIST SOURCE=MSDC
##XUNITS=M/Z
##YUNITS=RELATIVE INTENSITY
##XFACTOR=1
##YFACTOR=1
##FIRSTX=70
##LASTX=216
##FIRSTY=222
##MAXX=216
##MINX=70
##MAXY=9999
##MINY=103
##NPOINTS=62
##PEAK TABLE=(XY..XY)
70,222 71,4472 72,641 73,710
74,7734 75,7493 76,359 77,108
79,103 81,430 82,179 83,1826
84,1805 85,1833 86,1076 87,2073
88,450 89,1137 95,270 97,1353
98,412 99,1192 100,741 101,9999
102,926 103,266 111,1473 112,826
113,375 114,3028 115,1581 116,1040
117,1083 118,148 124,119 125,1667
126,375 127,1123 128,337 129,3684
130,371 131,320 139,1260 140,188
141,797 142,572 143,2203 144,188
154,220 156,652 157,1023 158,922
159,270 161,227 171,3864 172,377
173,134 184,456 188,510 203,2030
204,213 216,144
##END=
