##TITLE=1,5-Anhydro-2-O-acetyl-3,4,6-tri-O-methyl-D-glucitol
##JCAMP-DX=4.24
##DATA TYPE=MASS SPECTRUM
##ORIGIN=A. VAN LANGENHOVE, HARVARD SCH. PUBLIC HEALTH, BOSTON, USA
##OWNER=NIST Mass Spectrometry Data Center
Collection (C) 2014 copyright by the U.S. Secretary of Commerce
on behalf of the United States of America. All rights reserved.
##CAS REGISTRY NO=102850-60-2
##$NIST MASS SPEC NO=101525
##MOLFORM=C11 H20 O6
##MW=248
##$NIST SOURCE=MSDC
##XUNITS=M/Z
##YUNITS=RELATIVE INTENSITY
##XFACTOR=1
##YFACTOR=1
##FIRSTX=68
##LASTX=203
##FIRSTY=157
##MAXX=203
##MINX=68
##MAXY=9999
##MINY=118
##NPOINTS=45
##PEAK TABLE=(XY..XY)
68,157 69,748 70,256 71,9693
72,1654 73,1294 74,1914 75,825
81,328 83,611 84,241 85,1189
86,198 87,3422 88,2202 89,758
97,488 98,159 99,792 100,458
101,9999 102,7334 103,576 104,118
111,2809 112,318 113,372 114,506
115,2113 116,519 117,281 125,224
127,131 129,1717 130,147 131,352
142,295 143,3184 144,276 145,160
147,2236 148,184 156,219 171,335
203,684
##END=
