##TITLE=1,5-Anhydro-2,3,4,6-tetra-O-methyl-D-galactitol
##JCAMP-DX=4.24
##DATA TYPE=MASS SPECTRUM
##ORIGIN=L. E. Elvebak II et. al. Carbohydrate Research 269 (1995) 1-15
##OWNER=NIST Mass Spectrometry Data Center
Collection (C) 2014 copyright by the U.S. Secretary of Commerce
on behalf of the United States of America. All rights reserved.
##CAS REGISTRY NO=102850-59-9
##$NIST MASS SPEC NO=412075
##MOLFORM=C10 H20 O5
##MW=220
##$NIST SOURCE=MSDC
##XUNITS=M/Z
##YUNITS=RELATIVE INTENSITY
##XFACTOR=1
##YFACTOR=1
##FIRSTX=41
##LASTX=220
##FIRSTY=430
##MAXX=220
##MINX=41
##MAXY=9999
##MINY=90
##NPOINTS=28
##PEAK TABLE=(XY..XY)
41,430 43,320 45,1561 55,190
58,631 59,370 71,2102 73,881
74,180 75,1271 83,190 85,861
87,460 88,1782 89,460 99,791
101,9999 102,791 103,140 111,280
115,1061 131,160 143,1041 157,540
175,3343 176,280 188,100 220,90
##END=
