##TITLE=1,5-Anhydro-4-O-acetyl-2,3,6-tri-O-methyl-D-mannitol
##JCAMP-DX=4.24
##DATA TYPE=MASS SPECTRUM
##ORIGIN=A. VAN LANGENHOVE, HARVARD SCH. PUBLIC HEALTH, BOSTON, USA
##OWNER=NIST Mass Spectrometry Data Center
Collection (C) 2014 copyright by the U.S. Secretary of Commerce
on behalf of the United States of America. All rights reserved.
##CAS REGISTRY NO=102850-61-3
##$NIST MASS SPEC NO=101532
##MOLFORM=C11 H20 O6
##MW=248
##$NIST SOURCE=MSDC
##XUNITS=M/Z
##YUNITS=RELATIVE INTENSITY
##XFACTOR=1
##YFACTOR=1
##FIRSTX=67
##LASTX=205
##FIRSTY=173
##MAXX=205
##MINX=67
##MAXY=9999
##MINY=108
##NPOINTS=65
##PEAK TABLE=(XY..XY)
67,173 68,553 69,2781 70,337
71,4275 72,696 73,1649 74,3772
75,3761 76,249 81,453 82,359
83,516 84,314 85,4300 86,165
87,6530 88,2262 89,757 95,139
96,108 97,9177 98,1006 99,1362
100,1471 101,2937 102,366 103,2501
104,220 111,3881 112,316 113,434
114,501 115,1063 116,650 117,659
119,242 125,201 126,139 127,258
129,9999 130,1282 131,366 132,140
142,203 143,5287 144,513 145,1882
146,204 156,312 158,167 159,218
160,170 161,583 171,8342 172,688
173,178 175,129 185,689 186,713
187,166 189,242 203,3536 204,331
205,217
##END=
