##TITLE=Pentifylline
##JCAMP-DX=4.24
##DATA TYPE=MASS SPECTRUM
##ORIGIN=NIST Mass Spectrometry Data Center, 1994
##OWNER=NIST Mass Spectrometry Data Center
Collection (C) 2014 copyright by the U.S. Secretary of Commerce
on behalf of the United States of America. All rights reserved.
##CAS REGISTRY NO=1028-33-7
##$NIST MASS SPEC NO=135086
##MOLFORM=C13 H20 N4 O2
##MW=264
##$NIST SOURCE=MSDC
##XUNITS=M/Z
##YUNITS=RELATIVE INTENSITY
##XFACTOR=1
##YFACTOR=1
##FIRSTX=14
##LASTX=266
##FIRSTY=37
##MAXX=266
##MINX=14
##MAXY=9999
##MINY=14
##NPOINTS=98
##PEAK TABLE=(XY..XY)
14,37 15,439 16,14 18,43
26,65 27,659 28,523 29,845
30,71 38,24 39,355 40,280
41,1091 42,1535 43,458 44,56
51,34 52,88 53,240 54,356
55,1103 56,738 57,59 65,34
67,1787 68,318 69,310 70,617
71,50 79,75 80,117 81,632
82,890 83,394 84,43 93,52
94,180 95,177 96,109 97,240
98,27 106,26 107,83 108,513
109,2840 110,660 111,430 112,54
120,36 121,150 122,327 123,124
124,107 125,37 132,56 133,21
134,56 135,215 136,657 137,1871
138,754 139,69 147,29 148,64
149,57 150,207 151,197 152,53
161,61 163,435 164,71 165,400
166,52 177,26 179,1465 180,9999
181,2173 182,192 191,30 193,2942
194,1427 195,152 203,24 205,122
207,546 208,138 209,19 219,40
221,256 222,54 235,124 236,126
247,2424 248,390 249,61 264,6501
265,1056 266,118
##END=
