##TITLE=4-Propyl-1,1'-diphenyl
##JCAMP-DX=4.24
##DATA TYPE=MASS SPECTRUM
##ORIGIN=Dmitri Zagorevskii, Scientific Instruments & Applications
##OWNER=NIST Mass Spectrometry Data Center
Collection (C) 2014 copyright by the U.S. Secretary of Commerce
on behalf of the United States of America. All rights reserved.
##CAS REGISTRY NO=10289-45-9
##$NIST MASS SPEC NO=313335
##MOLFORM=C15 H16
##MW=196
##$NIST SOURCE=MSDC
##XUNITS=M/Z
##YUNITS=RELATIVE INTENSITY
##XFACTOR=1
##YFACTOR=1
##FIRSTX=29
##LASTX=198
##FIRSTY=280
##MAXX=198
##MINX=29
##MAXY=9999
##MINY=25
##NPOINTS=57
##PEAK TABLE=(XY..XY)
29,280 38,78 39,817 40,40
41,35 50,298 51,490 52,96
56,34 57,160 61,25 62,195
63,625 64,93 65,278 74,148
75,177 76,271 77,223 78,45
82,1143 83,57 84,121 86,37
87,108 88,68 89,298 90,36
91,138 98,33 99,48 102,137
113,102 115,586 116,54 126,84
127,89 128,312 129,46 139,295
140,40 141,113 151,269 152,1559
153,283 154,39 163,198 164,353
165,2754 166,750 167,9999 168,1488
169,97 194,37 196,3035 197,440
198,38
##END=
