##TITLE=1,5-Anhydro-2-O-acetyl-3,4,6-tri-O-methyl-D-galactitol
##JCAMP-DX=4.24
##DATA TYPE=MASS SPECTRUM
##ORIGIN=A. VAN LANGENHOVE, HARVARD SCH. PUBLIC HEALTH, BOSTON, USA
##OWNER=NIST Mass Spectrometry Data Center
Collection (C) 2014 copyright by the U.S. Secretary of Commerce
on behalf of the United States of America. All rights reserved.
##CAS REGISTRY NO=102850-62-4
##$NIST MASS SPEC NO=101534
##MOLFORM=C11 H20 O6
##MW=248
##$NIST SOURCE=MSDC
##XUNITS=M/Z
##YUNITS=RELATIVE INTENSITY
##XFACTOR=1
##YFACTOR=1
##FIRSTX=71
##LASTX=203
##FIRSTY=9999
##MAXX=203
##MINX=71
##MAXY=9999
##MINY=100
##NPOINTS=50
##PEAK TABLE=(XY..XY)
71,9999 72,1943 73,1082 74,1737
75,883 79,138 81,552 82,255
83,764 84,1225 85,1077 86,1013
87,3075 88,1401 89,679 94,115
95,160 96,113 97,413 98,143
99,1313 100,260 101,6390 102,3637
103,450 104,100 111,2781 112,464
113,249 114,204 115,1225 116,287
117,274 125,254 126,144 129,1769
130,186 131,506 141,1129 142,222
143,1864 144,170 145,107 147,1890
148,119 156,178 157,160 171,162
185,123 203,144
##END=
