##TITLE=Parbenate
##JCAMP-DX=4.24
##DATA TYPE=MASS SPECTRUM
##ORIGIN=RADIAN CORP
##OWNER=NIST Mass Spectrometry Data Center
Collection (C) 2014 copyright by the U.S. Secretary of Commerce
on behalf of the United States of America. All rights reserved.
##CAS REGISTRY NO=10287-53-3
##$NIST MASS SPEC NO=70791
##MOLFORM=C11 H15 N O2
##MW=193
##$NIST SOURCE=MSDC
##XUNITS=M/Z
##YUNITS=RELATIVE INTENSITY
##XFACTOR=1
##YFACTOR=1
##FIRSTX=14
##LASTX=195
##FIRSTY=100
##MAXX=195
##MINX=14
##MAXY=9999
##MINY=10
##NPOINTS=90
##PEAK TABLE=(XY..XY)
14,100 15,920 18,30 26,620
27,2640 28,550 29,3280 30,290
31,60 37,50 38,210 39,600
40,130 41,350 42,3130 43,930
44,390 45,440 47,20 49,20
50,1060 51,1110 52,430 53,250
54,100 55,80 59,230 60,310
61,50 62,200 63,970 64,380
65,860 66,270 67,100 68,190
69,150 72,20 74,1290 75,510
76,960 77,2830 78,1410 79,1120
80,220 81,70 82,20 87,10
88,60 89,160 90,550 91,1140
92,560 93,360 94,140 102,110
103,400 104,1830 105,1420 106,160
107,80 108,30 110,30 117,250
118,1060 119,800 120,1410 121,990
122,110 132,530 133,60 134,30
135,30 136,30 146,40 148,9999
149,1390 150,240 151,10 162,40
164,5920 165,3590 166,370 167,30
178,130 190,40 192,860 193,6510
194,850 195,70
##END=
