##TITLE=1,5-Anhydro-2,6-di-O-acetyl-3,4-di-O-methyl-D-glucitol
##JCAMP-DX=4.24
##DATA TYPE=MASS SPECTRUM
##ORIGIN=A. VAN LANGENHOVE, HARVARD SCH. PUBLIC HEALTH, BOSTON, USA
##OWNER=NIST Mass Spectrometry Data Center
Collection (C) 2014 copyright by the U.S. Secretary of Commerce
on behalf of the United States of America. All rights reserved.
##CAS REGISTRY NO=102850-66-8
##$NIST MASS SPEC NO=101540
##MOLFORM=C12 H20 O7
##MW=276
##$NIST SOURCE=MSDC
##XUNITS=M/Z
##YUNITS=RELATIVE INTENSITY
##XFACTOR=1
##YFACTOR=1
##FIRSTX=67
##LASTX=234
##FIRSTY=127
##MAXX=234
##MINX=67
##MAXY=9999
##MINY=100
##NPOINTS=64
##PEAK TABLE=(XY..XY)
67,127 71,9885 72,1021 73,1838
74,5375 75,1205 81,856 82,280
83,1200 84,2990 85,1532 86,1677
87,9999 88,4555 89,513 91,103
94,141 95,419 96,268 97,764
98,255 99,1828 100,700 101,1589
102,169 103,708 104,302 109,312
110,281 111,3301 112,347 113,683
114,610 115,1211 116,1179 117,3839
118,219 124,2233 125,931 126,412
127,299 129,3523 130,7602 131,1556
132,155 141,327 142,1285 143,1415
144,139 145,125 146,147 147,461
153,173 156,554 159,111 171,195
184,492 185,162 203,100 212,145
213,112 216,861 217,143 234,107
##END=
