##TITLE=3-(2,3-Dichlorophenyl)-1,1-dimethylurea
##JCAMP-DX=4.24
##DATA TYPE=MASS SPECTRUM
##ORIGIN=NIST Mass Spectrometry Data Center, 1998.
##OWNER=NIST Mass Spectrometry Data Center
Collection (C) 2014 copyright by the U.S. Secretary of Commerce
on behalf of the United States of America. All rights reserved.
##CAS REGISTRY NO=10290-37-6
##$NIST MASS SPEC NO=291700
##MOLFORM=C9 H10 Cl2 N2 O
##MW=232
##$NIST SOURCE=MSDC
##XUNITS=M/Z
##YUNITS=RELATIVE INTENSITY
##XFACTOR=1
##YFACTOR=1
##FIRSTX=15
##LASTX=236
##FIRSTY=150
##MAXX=236
##MINX=15
##MAXY=9999
##MINY=10
##NPOINTS=140
##PEAK TABLE=(XY..XY)
15,150 18,120 26,10 27,30
28,160 29,20 30,40 35,10
36,10 37,50 38,60 39,70
40,30 41,50 42,570 43,170
44,840 45,110 47,20 48,10
49,50 50,50 51,40 52,50
53,10 54,10 55,10 56,300
57,10 58,20 60,10 61,90
62,180 63,260 64,90 65,20
66,10 72,9999 73,540 74,170
75,160 76,30 77,20 78,10
79,10 83,30 84,50 85,50
86,40 87,40 88,100 89,60
90,180 91,30 92,10 93,10
96,20 97,140 98,90 99,100
100,30 101,20 102,10 104,10
106,10 107,50 108,20 109,130
110,40 111,60 112,20 113,10
116,10 117,10 118,10 119,10
122,10 123,10 124,470 125,160
126,190 127,70 128,10 129,10
131,10 132,10 133,390 134,30
135,250 136,20 137,40 138,10
139,10 140,30 141,10 142,10
145,30 146,10 147,20 149,10
152,10 153,40 154,20 155,10
156,10 158,10 159,70 160,130
161,120 162,100 163,50 164,20
165,10 166,10 167,20 169,10
174,30 175,10 176,20 181,30
182,30 183,10 184,10 187,190
188,30 189,130 190,20 191,20
195,20 196,60 197,2970 198,330
199,980 200,100 201,10 232,330
233,40 234,210 235,20 236,40
##END=
