##TITLE=2H-Pyran, 2-ethoxy-3,4-dihydro-
##JCAMP-DX=4.24
##DATA TYPE=MASS SPECTRUM
##ORIGIN=Japan AIST/NIMC Database- Spectrum MS-NW-8512
##OWNER=NIST Mass Spectrometry Data Center
Collection (C) 2014 copyright by the U.S. Secretary of Commerce
on behalf of the United States of America. All rights reserved.
##CAS REGISTRY NO=103-75-3
##$NIST MASS SPEC NO=238533
##MOLFORM=C7 H12 O2
##MW=128
##$NIST SOURCE=MSDC
##XUNITS=M/Z
##YUNITS=RELATIVE INTENSITY
##XFACTOR=1
##YFACTOR=1
##FIRSTX=14
##LASTX=130
##FIRSTY=50
##MAXX=130
##MINX=14
##MAXY=9999
##MINY=10
##NPOINTS=63
##PEAK TABLE=(XY..XY)
14,50 15,249 16,10 17,10
18,30 25,10 26,299 27,2629
28,589 29,3219 30,99 31,489
37,30 38,99 39,1399 40,139
41,899 42,379 43,4169 44,9999
45,799 46,40 47,149 49,10
50,90 51,159 52,80 53,809
54,799 55,1859 56,219 57,1909
58,90 59,60 65,40 66,30
67,10 68,30 69,209 70,99
71,389 72,8459 73,599 74,30
75,20 78,10 79,10 80,10
81,1039 82,1899 83,3399 84,629
85,219 86,20 97,20 98,10
99,319 100,50 101,20 127,20
128,2619 129,219 130,20
##END=
