##TITLE=(E)-Stilbene
##JCAMP-DX=4.24
##DATA TYPE=MASS SPECTRUM
##ORIGIN=Japan AIST/NIMC Database- Spectrum MS-NW-4540
##OWNER=NIST Mass Spectrometry Data Center
Collection (C) 2014 copyright by the U.S. Secretary of Commerce
on behalf of the United States of America. All rights reserved.
##CAS REGISTRY NO=103-30-0
##$NIST MASS SPEC NO=228769
##MOLFORM=C14 H12
##MW=180
##$NIST SOURCE=MSDC
##XUNITS=M/Z
##YUNITS=RELATIVE INTENSITY
##XFACTOR=1
##YFACTOR=1
##FIRSTX=14
##LASTX=183
##FIRSTY=10
##MAXX=183
##MINX=14
##MAXY=9999
##MINY=10
##NPOINTS=85
##PEAK TABLE=(XY..XY)
14,10 26,30 27,99 28,20
37,20 38,50 39,319 40,10
41,20 43,40 44,20 50,279
51,609 52,199 53,30 61,40
62,129 63,429 64,109 65,129
69,40 70,10 73,10 74,179
75,239 76,999 77,569 78,259
79,10 81,20 82,259 83,40
85,20 86,60 87,99 88,329
89,1459 90,429 91,219 92,20
98,50 99,30 100,20 101,60
102,699 103,159 104,10 110,10
111,10 113,40 114,20 115,259
116,30 122,10 125,20 126,109
127,109 128,109 129,10 137,10
138,20 139,179 140,30 141,40
149,10 150,109 151,329 152,649
153,209 154,40 163,70 164,99
165,3129 166,459 167,30 174,20
175,50 176,529 177,589 178,4359
179,8089 180,9999 181,1449 182,139
183,10
##END=
