##TITLE=Acetamide, N-(4-methylphenyl)-
##JCAMP-DX=4.24
##DATA TYPE=MASS SPECTRUM
##ORIGIN=NIST Mass Spectrometry Data Center
##OWNER=NIST Mass Spectrometry Data Center
Collection (C) 2014 copyright by the U.S. Secretary of Commerce
on behalf of the United States of America. All rights reserved.
##CAS REGISTRY NO=103-89-9
##$NIST MASS SPEC NO=341116
##MOLFORM=C9 H11 N O
##MW=149
##$NIST SOURCE=MSDC
##XUNITS=M/Z
##YUNITS=RELATIVE INTENSITY
##XFACTOR=1
##YFACTOR=1
##FIRSTX=15
##LASTX=151
##FIRSTY=20
##MAXX=151
##MINX=15
##MAXY=9999
##MINY=10
##NPOINTS=59
##PEAK TABLE=(XY..XY)
15,20 26,10 27,80 30,10
37,10 38,60 39,310 40,30
41,90 42,120 43,1411 44,30
49,10 50,280 51,671 52,571
53,390 54,100 61,30 62,100
63,290 64,120 65,360 66,80
67,30 73,10 74,50 75,50
76,100 77,1832 78,671 79,821
80,190 81,20 86,10 87,10
89,130 90,80 91,360 92,50
93,10 102,20 103,20 104,310
105,110 106,9729 107,9999 108,831
109,30 118,30 120,60 131,10
132,80 133,40 134,30 147,10
149,4104 150,420 151,20
##END=
