##TITLE=2-Pyridineethanol
##JCAMP-DX=4.24
##DATA TYPE=MASS SPECTRUM
##ORIGIN=Japan AIST/NIMC Database- Spectrum MS-NW-3756
##OWNER=NIST Mass Spectrometry Data Center
Collection (C) 2014 copyright by the U.S. Secretary of Commerce
on behalf of the United States of America. All rights reserved.
##CAS REGISTRY NO=103-74-2
##$NIST MASS SPEC NO=230401
##MOLFORM=C7 H9 N O
##MW=123
##$NIST SOURCE=MSDC
##XUNITS=M/Z
##YUNITS=RELATIVE INTENSITY
##XFACTOR=1
##YFACTOR=1
##FIRSTX=14
##LASTX=125
##FIRSTY=20
##MAXX=125
##MINX=14
##MAXY=9999
##MINY=10
##NPOINTS=75
##PEAK TABLE=(XY..XY)
14,20 15,99 17,50 18,199
25,20 26,279 27,549 28,399
29,239 30,30 31,919 32,30
36,10 37,179 38,349 39,1709
40,409 41,319 42,149 43,90
44,30 45,20 46,20 47,10
49,70 50,559 51,1199 52,1409
53,499 54,159 55,20 60,10
61,60 62,119 63,359 64,269
65,1889 66,1889 67,519 68,40
69,10 70,10 73,20 74,40
75,50 76,70 77,209 78,1169
79,4309 80,949 81,50 87,10
88,20 90,20 91,80 92,1409
93,9999 94,1299 95,70 101,10
102,10 103,20 104,709 105,1899
106,8979 107,719 108,109 109,10
118,10 120,60 121,50 122,2499
123,1409 124,129 125,10
##END=
