##TITLE=Dibenzylamine
##JCAMP-DX=4.24
##DATA TYPE=MASS SPECTRUM
##ORIGIN=Japan AIST/NIMC Database- Spectrum MS-NW- 885
##OWNER=NIST Mass Spectrometry Data Center
Collection (C) 2014 copyright by the U.S. Secretary of Commerce
on behalf of the United States of America. All rights reserved.
##CAS REGISTRY NO=103-49-1
##$NIST MASS SPEC NO=228942
##MOLFORM=C14 H15 N
##MW=197
##$NIST SOURCE=MSDC
##XUNITS=M/Z
##YUNITS=RELATIVE INTENSITY
##XFACTOR=1
##YFACTOR=1
##FIRSTX=15
##LASTX=198
##FIRSTY=10
##MAXX=198
##MINX=15
##MAXY=9999
##MINY=10
##NPOINTS=66
##PEAK TABLE=(XY..XY)
15,10 26,10 27,109 28,319
29,20 30,50 36,20 37,10
38,60 39,609 40,50 41,239
42,50 43,50 44,10 50,159
51,549 52,129 53,30 56,20
57,30 62,60 63,269 64,99
65,1519 66,90 71,10 74,30
75,30 76,60 77,429 78,169
79,409 80,20 83,10 86,10
87,10 89,309 90,209 91,9999
92,2479 93,159 97,10 103,60
104,219 105,50 106,5299 107,439
108,10 115,10 116,50 117,169
118,459 119,70 120,679 121,60
152,30 165,50 166,20 167,30
193,20 194,299 195,329 196,889
197,589 198,80
##END=
