##TITLE=Benzene, (2-bromoethyl)-
##JCAMP-DX=4.24
##DATA TYPE=MASS SPECTRUM
##ORIGIN=Japan AIST/NIMC Database- Spectrum MS-NW-8367
##OWNER=NIST Mass Spectrometry Data Center
Collection (C) 2014 copyright by the U.S. Secretary of Commerce
on behalf of the United States of America. All rights reserved.
##CAS REGISTRY NO=103-63-9
##$NIST MASS SPEC NO=228697
##MOLFORM=C8 H9 Br
##MW=184
##$NIST SOURCE=MSDC
##XUNITS=M/Z
##YUNITS=RELATIVE INTENSITY
##XFACTOR=1
##YFACTOR=1
##FIRSTX=26
##LASTX=187
##FIRSTY=50
##MAXX=187
##MINX=26
##MAXY=9999
##MINY=10
##NPOINTS=51
##PEAK TABLE=(XY..XY)
26,50 27,389 28,20 37,40
38,119 39,529 40,40 41,70
42,10 49,40 50,499 51,1289
52,289 53,80 61,40 62,119
63,329 64,70 65,609 66,40
73,30 74,169 75,129 76,149
77,1389 78,669 79,949 80,60
81,20 82,40 85,10 86,10
87,20 89,159 90,50 91,9999
92,769 93,30 95,20 98,10
101,20 102,139 103,819 104,809
105,6299 106,559 107,60 184,1909
185,169 186,1859 187,159
##END=
