##TITLE=N-Phenylglycine
##JCAMP-DX=4.24
##DATA TYPE=MASS SPECTRUM
##ORIGIN=Japan AIST/NIMC Database- Spectrum MS-NW-4729
##OWNER=NIST Mass Spectrometry Data Center
Collection (C) 2014 copyright by the U.S. Secretary of Commerce
on behalf of the United States of America. All rights reserved.
##CAS REGISTRY NO=103-01-5
##$NIST MASS SPEC NO=229961
##MOLFORM=C8 H9 N O2
##MW=151
##$NIST SOURCE=MSDC
##XUNITS=M/Z
##YUNITS=RELATIVE INTENSITY
##XFACTOR=1
##YFACTOR=1
##FIRSTX=12
##LASTX=153
##FIRSTY=10
##MAXX=153
##MINX=12
##MAXY=9999
##MINY=10
##NPOINTS=70
##PEAK TABLE=(XY..XY)
12,10 14,10 15,30 16,40
17,10 18,30 26,50 27,159
28,399 29,40 30,199 31,10
32,10 36,10 37,99 38,189
39,549 40,99 41,90 42,50
43,10 44,1139 45,90 46,30
49,50 50,479 51,1349 52,399
53,209 54,70 55,10 59,10
60,10 61,40 62,80 63,209
64,149 65,509 66,409 67,60
68,10 73,30 74,139 75,109
76,179 77,3429 78,719 79,899
80,80 89,20 90,30 91,209
92,179 93,989 94,90 95,10
102,10 103,60 104,1189 105,1059
106,9999 107,2219 108,149 109,10
133,20 149,20 150,10 151,2299
152,229 153,20
##END=
