##TITLE=Propanoic acid, 2-methyl-, phenylmethyl ester
##JCAMP-DX=4.24
##DATA TYPE=MASS SPECTRUM
##OWNER=NIST Mass Spectrometry Data Center
Collection (C) 2014 copyright by the U.S. Secretary of Commerce
on behalf of the United States of America. All rights reserved.
##CAS REGISTRY NO=103-28-6
##$NIST MASS SPEC NO=7253
##MOLFORM=C11 H14 O2
##MW=178
##$NIST SOURCE=MSDC
##XUNITS=M/Z
##YUNITS=RELATIVE INTENSITY
##XFACTOR=1
##YFACTOR=1
##FIRSTX=27
##LASTX=179
##FIRSTY=1631
##MAXX=179
##MINX=27
##MAXY=9999
##MINY=50
##NPOINTS=41
##PEAK TABLE=(XY..XY)
27,1631 28,490 29,210 37,70
38,220 39,1421 40,160 41,1251
42,190 43,3673 44,140 50,310
51,801 52,220 53,90 55,70
57,100 62,110 63,380 64,130
65,1101 66,70 70,50 71,1311
72,60 74,60 75,50 76,60
77,781 78,180 79,581 89,360
90,781 91,9999 92,861 105,170
107,430 108,2232 109,170 178,1581
179,190
##END=
