##TITLE=2-Propanone, phenylhydrazone
##JCAMP-DX=4.24
##DATA TYPE=MASS SPECTRUM
##ORIGIN=James Little,Eastman Chem.Co.,Kingsport,TN
##OWNER=NIST Mass Spectrometry Data Center
Collection (C) 2014 copyright by the U.S. Secretary of Commerce
on behalf of the United States of America. All rights reserved.
##CAS REGISTRY NO=103-02-6
##$NIST MASS SPEC NO=289111
##MOLFORM=C9 H12 N2
##MW=148
##$NIST SOURCE=MSDC
##XUNITS=M/Z
##YUNITS=RELATIVE INTENSITY
##XFACTOR=1
##YFACTOR=1
##FIRSTX=27
##LASTX=150
##FIRSTY=791
##MAXX=150
##MINX=27
##MAXY=9999
##MINY=70
##NPOINTS=39
##PEAK TABLE=(XY..XY)
27,791 29,480 38,741 39,3163
41,1101 42,961 43,1491 51,1942
52,871 56,2142 57,781 63,881
64,1011 65,5515 66,1381 74,480
76,210 77,2012 78,1391 79,390
80,180 90,170 91,1241 92,9999
93,4194 94,440 105,190 106,1952
107,470 108,190 130,240 131,160
132,280 133,1672 134,200 147,581
148,8928 149,1081 150,70
##END=
