##TITLE=2-Propenoic acid, 3-phenyl-, methyl ester
##JCAMP-DX=4.24
##DATA TYPE=MASS SPECTRUM
##ORIGIN=Japan AIST/NIMC Database- Spectrum MS-NW-1518
##OWNER=NIST Mass Spectrometry Data Center
Collection (C) 2014 copyright by the U.S. Secretary of Commerce
on behalf of the United States of America. All rights reserved.
##CAS REGISTRY NO=103-26-4
##$NIST MASS SPEC NO=229225
##MOLFORM=C10 H10 O2
##MW=162
##$NIST SOURCE=MSDC
##XUNITS=M/Z
##YUNITS=RELATIVE INTENSITY
##XFACTOR=1
##YFACTOR=1
##FIRSTX=14
##LASTX=164
##FIRSTY=10
##MAXX=164
##MINX=14
##MAXY=9999
##MINY=10
##NPOINTS=88
##PEAK TABLE=(XY..XY)
14,10 15,419 18,20 26,50
27,219 28,99 29,109 30,40
31,30 37,60 38,149 39,409
40,20 41,20 43,10 44,10
45,20 49,60 50,929 51,2709
52,389 53,109 54,10 55,10
59,119 60,10 61,70 62,199
63,509 64,70 65,179 66,20
67,20 69,60 73,50 74,439
75,489 76,629 77,3949 78,439
79,30 81,10 84,10 85,149
86,30 87,50 88,10 89,80
90,70 91,409 92,90 93,10
97,10 98,60 99,20 101,159
102,1489 103,6319 104,789 105,109
106,10 107,40 108,10 115,99
116,109 117,319 118,99 119,90
120,10 121,159 122,10 129,50
130,229 131,9999 132,1029 133,99
134,99 135,10 144,129 145,30
146,20 147,169 148,20 160,20
161,1709 162,5199 163,589 164,50
##END=
