##TITLE=Benzene, ethoxy-
##JCAMP-DX=4.24
##DATA TYPE=MASS SPECTRUM
##ORIGIN=NIST Mass Spectrometry Data Center, 1992
##OWNER=NIST Mass Spectrometry Data Center
Collection (C) 2014 copyright by the U.S. Secretary of Commerce
on behalf of the United States of America. All rights reserved.
##CAS REGISTRY NO=103-73-1
##$NIST MASS SPEC NO=125421
##MOLFORM=C8 H10 O
##MW=122
##$NIST SOURCE=MSDC
##XUNITS=M/Z
##YUNITS=RELATIVE INTENSITY
##XFACTOR=1
##YFACTOR=1
##FIRSTX=12
##LASTX=124
##FIRSTY=5
##MAXX=124
##MINX=12
##MAXY=9999
##MINY=3
##NPOINTS=65
##PEAK TABLE=(XY..XY)
12,5 13,16 14,40 15,131
17,8 18,23 24,3 25,30
26,281 27,1129 28,298 29,728
30,37 31,23 32,34 37,156
38,499 39,2078 40,474 41,60
42,51 43,101 44,11 45,10
46,7 49,56 50,515 51,1046
52,99 53,118 54,28 55,284
56,9 61,78 62,202 63,536
64,278 65,1723 66,3021 67,182
68,47 69,4 73,29 74,146
75,79 76,4 77,1011 78,144
79,189 80,14 81,4 89,6
91,100 92,64 94,9999 95,675
96,42 103,21 105,10 107,67
108,9 119,3 122,3885 123,332
124,19
##END=
