##TITLE=2-Propenoic acid, 3-phenyl-, 2-phenylethyl ester
##JCAMP-DX=4.24
##DATA TYPE=MASS SPECTRUM
##ORIGIN=NIST Mass Spectrometry Data Center, 1994
##OWNER=NIST Mass Spectrometry Data Center
Collection (C) 2014 copyright by the U.S. Secretary of Commerce
on behalf of the United States of America. All rights reserved.
##CAS REGISTRY NO=103-53-7
##$NIST MASS SPEC NO=134329
##MOLFORM=C17 H16 O2
##MW=252
##$NIST SOURCE=MSDC
##XUNITS=M/Z
##YUNITS=RELATIVE INTENSITY
##XFACTOR=1
##YFACTOR=1
##FIRSTX=14
##LASTX=253
##FIRSTY=6
##MAXX=253
##MINX=14
##MAXY=9999
##MINY=5
##NPOINTS=67
##PEAK TABLE=(XY..XY)
14,6 15,10 17,9 18,17
26,27 27,204 29,29 30,11
37,12 38,63 39,370 40,25
41,69 50,309 51,918 52,179
53,85 54,7 61,12 62,70
63,265 64,7 65,529 66,44
74,127 75,158 76,344 77,2482
78,530 79,249 80,19 86,9
87,20 89,113 91,957 92,80
93,5 98,10 102,746 103,3633
104,9999 105,1096 106,62 107,9
115,18 119,13 120,40 121,9
129,28 131,4322 132,424 133,25
147,568 148,303 149,37 165,11
174,28 178,20 179,8 190,12
191,13 203,8 206,206 207,26
234,9 252,40 253,9
##END=
