##TITLE=Propanoic acid, 2-methyl-, 2-phenylethyl ester
##JCAMP-DX=4.24
##DATA TYPE=MASS SPECTRUM
##OWNER=NIST Mass Spectrometry Data Center
Collection (C) 2014 copyright by the U.S. Secretary of Commerce
on behalf of the United States of America. All rights reserved.
##CAS REGISTRY NO=103-48-0
##$NIST MASS SPEC NO=8332
##MOLFORM=C12 H16 O2
##MW=192
##$NIST SOURCE=MSDC
##XUNITS=M/Z
##YUNITS=RELATIVE INTENSITY
##XFACTOR=1
##YFACTOR=1
##FIRSTX=27
##LASTX=106
##FIRSTY=1601
##MAXX=106
##MINX=27
##MAXY=9999
##MINY=50
##NPOINTS=34
##PEAK TABLE=(XY..XY)
27,1601 28,460 29,150 31,70
38,90 39,911 40,120 41,1141
42,210 43,5165 44,180 50,50
51,571 52,150 53,90 55,80
57,130 63,200 64,60 65,540
71,1651 72,70 77,751 78,380
79,380 89,100 90,60 91,1091
92,220 102,60 103,410 104,9999
105,1782 106,110
##END=
