##TITLE=Phenol, 4-[(phenylmethyl)amino]-
##JCAMP-DX=4.24
##DATA TYPE=MASS SPECTRUM
##ORIGIN=Japan AIST/NIMC Database- Spectrum MS-NW-5690
##OWNER=NIST Mass Spectrometry Data Center
Collection (C) 2014 copyright by the U.S. Secretary of Commerce
on behalf of the United States of America. All rights reserved.
##CAS REGISTRY NO=103-14-0
##$NIST MASS SPEC NO=232701
##MOLFORM=C13 H13 N O
##MW=199
##$NIST SOURCE=MSDC
##XUNITS=M/Z
##YUNITS=RELATIVE INTENSITY
##XFACTOR=1
##YFACTOR=1
##FIRSTX=15
##LASTX=201
##FIRSTY=10
##MAXX=201
##MINX=15
##MAXY=9999
##MINY=10
##NPOINTS=107
##PEAK TABLE=(XY..XY)
15,10 26,50 27,309 28,30
29,40 30,20 37,30 38,149
39,1069 40,90 41,159 42,20
43,10 44,10 50,209 51,519
52,399 53,459 54,80 55,119
61,30 62,139 63,439 64,189
65,2039 66,199 67,50 68,40
70,10 71,20 74,50 75,60
76,70 77,429 78,149 79,99
80,159 81,819 82,50 83,30
84,20 85,10 86,20 87,20
88,10 89,259 90,119 91,9999
92,1139 93,499 94,229 95,50
98,30 99,10 101,10 102,20
103,30 104,129 105,20 106,40
107,30 108,3669 109,329 110,20
113,10 114,10 115,99 116,30
117,20 119,30 120,649 121,189
122,1279 123,99 124,10 127,20
128,30 129,20 130,10 139,30
140,20 141,50 142,20 143,20
151,20 152,50 153,40 154,20
155,10 165,10 166,20 167,90
168,109 169,30 170,30 178,10
180,30 181,20 182,20 183,20
195,10 196,529 197,629 198,1389
199,8219 200,1239 201,109
##END=
