##TITLE=Benzene, 1,1'-[oxybis(methylene)]bis-
##JCAMP-DX=4.24
##DATA TYPE=MASS SPECTRUM
##ORIGIN=NIST Mass Spectrometry Data Center, 1990.
##OWNER=NIST Mass Spectrometry Data Center
Collection (C) 2014 copyright by the U.S. Secretary of Commerce
on behalf of the United States of America. All rights reserved.
##CAS REGISTRY NO=103-50-4
##$NIST MASS SPEC NO=118448
##MOLFORM=C14 H14 O
##MW=198
##$NIST SOURCE=MSDC
##XUNITS=M/Z
##YUNITS=RELATIVE INTENSITY
##XFACTOR=1
##YFACTOR=1
##FIRSTX=14
##LASTX=167
##FIRSTY=34
##MAXX=167
##MINX=14
##MAXY=9999
##MINY=3
##NPOINTS=49
##PEAK TABLE=(XY..XY)
14,34 17,11 18,39 26,36
27,197 28,32 29,118 32,35
37,31 38,130 39,884 40,84
41,211 42,19 44,3 50,325
51,1004 52,249 53,114 61,29
62,115 63,496 64,189 65,2223
66,136 74,73 75,63 77,1517
78,293 79,1723 80,138 86,19
87,19 89,439 91,9193 92,9999
93,747 94,34 99,33 105,266
107,1406 108,134 119,106 120,120
128,15 152,41 165,70 166,33
167,34
##END=
