##TITLE=Benzene, isocyanato-
##JCAMP-DX=4.24
##DATA TYPE=MASS SPECTRUM
##ORIGIN=NIST Mass Spectrometry Data Center, 1994
##OWNER=NIST Mass Spectrometry Data Center
Collection (C) 2014 copyright by the U.S. Secretary of Commerce
on behalf of the United States of America. All rights reserved.
##CAS REGISTRY NO=103-71-9
##$NIST MASS SPEC NO=134096
##MOLFORM=C7 H5 N O
##MW=119
##$NIST SOURCE=MSDC
##XUNITS=M/Z
##YUNITS=RELATIVE INTENSITY
##XFACTOR=1
##YFACTOR=1
##FIRSTX=15
##LASTX=121
##FIRSTY=48
##MAXX=121
##MINX=15
##MAXY=9999
##MINY=6
##NPOINTS=49
##PEAK TABLE=(XY..XY)
15,48 18,6 24,20 25,101
26,482 27,472 28,213 29,74
31,73 36,122 37,1078 38,1615
39,1489 40,306 41,549 42,89
45,188 46,273 48,35 49,257
50,924 51,984 52,604 53,59
54,83 60,360 61,403 62,620
63,1743 64,3701 65,748 66,49
67,24 72,16 73,93 74,206
75,145 76,150 77,141 80,26
86,35 87,76 88,78 91,5631
92,414 93,15 119,9999 120,773
121,50
##END=
