##TITLE=Benzenamine, N-ethyl-
##JCAMP-DX=4.24
##DATA TYPE=MASS SPECTRUM
##ORIGIN=NIST Mass Spectrometry Data Center, 1998.
##OWNER=NIST Mass Spectrometry Data Center
Collection (C) 2014 copyright by the U.S. Secretary of Commerce
on behalf of the United States of America. All rights reserved.
##CAS REGISTRY NO=103-69-5
##$NIST MASS SPEC NO=291378
##MOLFORM=C8 H11 N
##MW=121
##$NIST SOURCE=MSDC
##XUNITS=M/Z
##YUNITS=RELATIVE INTENSITY
##XFACTOR=1
##YFACTOR=1
##FIRSTX=15
##LASTX=123
##FIRSTY=20
##MAXX=123
##MINX=15
##MAXY=9999
##MINY=10
##NPOINTS=62
##PEAK TABLE=(XY..XY)
15,20 26,40 27,180 28,30
29,90 30,40 37,50 38,140
39,530 40,90 41,100 42,120
43,10 44,70 49,20 50,340
51,1020 52,350 53,350 54,60
58,60 59,20 61,50 62,100
63,300 64,200 65,790 66,260
67,50 68,10 73,20 74,120
75,80 76,110 77,2190 78,480
79,1110 80,120 81,10 87,10
88,10 89,40 90,40 91,330
92,320 93,160 94,50 102,10
103,150 104,370 105,130 106,9999
107,850 108,30 116,10 117,70
118,290 119,90 120,550 121,3780
122,360 123,10
##END=
