##TITLE=Butanoic acid, 3-phenyl-2-propenyl ester
##JCAMP-DX=4.24
##DATA TYPE=MASS SPECTRUM
##ORIGIN=V.Zaikin,Topchiev Inst.Petrochem.Synth.,Moscow
##OWNER=NIST Mass Spectrometry Data Center
Collection (C) 2014 copyright by the U.S. Secretary of Commerce
on behalf of the United States of America. All rights reserved.
##CAS REGISTRY NO=103-61-7
##$NIST MASS SPEC NO=282602
##MOLFORM=C13 H16 O2
##MW=204
##$NIST SOURCE=MSDC
##XUNITS=M/Z
##YUNITS=RELATIVE INTENSITY
##XFACTOR=1
##YFACTOR=1
##FIRSTX=25
##LASTX=206
##FIRSTY=10
##MAXX=206
##MINX=25
##MAXY=9999
##MINY=10
##NPOINTS=94
##PEAK TABLE=(XY..XY)
25,10 26,130 27,721 29,160
30,20 31,30 37,10 38,40
39,681 40,70 41,731 42,120
43,4804 44,300 45,30 50,190
51,510 52,130 53,40 55,170
56,20 58,200 59,10 60,70
61,20 62,70 63,300 64,80
65,370 66,20 70,40 71,9999
72,470 73,70 74,70 75,100
76,150 77,901 78,520 79,230
86,20 87,30 88,70 89,320
90,70 91,1391 92,671 93,50
98,20 101,20 102,350 103,661
104,350 105,701 106,60 113,20
114,40 115,6296 116,2823 117,4664
118,520 119,30 123,10 125,20
127,10 128,40 129,40 131,220
132,80 133,2282 134,1171 135,130
136,10 143,20 149,30 150,10
153,20 154,10 155,20 156,20
157,20 162,100 169,10 170,20
175,60 176,40 178,10 181,10
182,20 184,30 193,40 204,1942
205,240 206,30
##END=
