##TITLE=Benzyl cinnamate
##JCAMP-DX=4.24
##DATA TYPE=MASS SPECTRUM
##ORIGIN=NIST Mass Spectrometry Data Center, 1992
##OWNER=NIST Mass Spectrometry Data Center
Collection (C) 2014 copyright by the U.S. Secretary of Commerce
on behalf of the United States of America. All rights reserved.
##CAS REGISTRY NO=103-41-3
##$NIST MASS SPEC NO=125187
##MOLFORM=C16 H14 O2
##MW=238
##$NIST SOURCE=MSDC
##XUNITS=M/Z
##YUNITS=RELATIVE INTENSITY
##XFACTOR=1
##YFACTOR=1
##FIRSTX=12
##LASTX=240
##FIRSTY=7
##MAXX=240
##MINX=12
##MAXY=9999
##MINY=3
##NPOINTS=106
##PEAK TABLE=(XY..XY)
12,7 15,13 16,3 17,23
18,90 26,111 27,450 29,127
30,10 31,15 37,58 38,262
39,1582 40,91 41,282 42,13
43,11 44,19 45,23 50,1335
51,3454 52,676 53,259 54,26
55,27 61,62 62,314 63,1004
64,324 65,2708 66,164 69,121
73,42 74,384 75,517 76,962
77,5886 78,743 79,816 80,52
85,12 86,35 87,54 88,12
89,853 90,12 91,9999 92,834
93,30 98,38 99,17 101,215
102,1380 103,4525 104,1403 105,357
106,58 107,412 108,42 113,12
115,1547 116,453 117,72 118,54
119,43 120,16 127,7 128,16
131,7580 132,884 133,78 145,6
147,632 148,67 149,10 151,7
152,24 153,13 160,206 161,36
165,100 166,32 167,39 176,11
178,710 179,386 180,54 181,9
189,19 192,5408 193,3539 194,543
195,53 202,11 203,27 204,10
205,9 219,167 220,428 221,78
222,8 223,22 224,7 238,949
239,173 240,19
##END=
