##TITLE=Benzeneacetic acid
##JCAMP-DX=4.24
##DATA TYPE=MASS SPECTRUM
##ORIGIN=NIST Mass Spectrometry Data Center
##OWNER=NIST Mass Spectrometry Data Center
Collection (C) 2014 copyright by the U.S. Secretary of Commerce
on behalf of the United States of America. All rights reserved.
##CAS REGISTRY NO=103-82-2
##$NIST MASS SPEC NO=352514
##MOLFORM=C8 H8 O2
##MW=136
##$NIST SOURCE=MSDC
##XUNITS=M/Z
##YUNITS=RELATIVE INTENSITY
##XFACTOR=1
##YFACTOR=1
##FIRSTX=26
##LASTX=138
##FIRSTY=30
##MAXX=138
##MINX=26
##MAXY=9999
##MINY=10
##NPOINTS=57
##PEAK TABLE=(XY..XY)
26,30 27,70 28,10 29,30
31,10 37,60 38,170 39,831
40,70 41,160 42,20 43,50
44,30 45,290 49,40 50,340
51,550 52,150 53,80 54,20
55,20 60,10 61,110 62,280
63,721 64,190 65,1631 66,120
67,10 73,20 74,70 75,50
76,40 77,220 78,50 79,90
80,10 81,10 84,10 85,30
86,60 87,40 88,10 89,561
90,330 91,9999 92,1912 93,110
94,50 105,10 107,40 108,10
118,70 119,20 136,2642 137,240
138,20
##END=
