##TITLE=Chlorbenside
##JCAMP-DX=4.24
##DATA TYPE=MASS SPECTRUM
##ORIGIN=MASS SPECTROMETRY CENTER, UNIV. OF UTAH. EPA-PTSEL 1340
##OWNER=NIST Mass Spectrometry Data Center
Collection (C) 2014 copyright by the U.S. Secretary of Commerce
on behalf of the United States of America. All rights reserved.
##CAS REGISTRY NO=103-17-3
##$NIST MASS SPEC NO=59445
##MOLFORM=C13 H10 Cl2 S
##MW=268
##$NIST SOURCE=MSDC
##XUNITS=M/Z
##YUNITS=RELATIVE INTENSITY
##XFACTOR=1
##YFACTOR=1
##FIRSTX=27
##LASTX=272
##FIRSTY=6
##MAXX=272
##MINX=27
##MAXY=9999
##MINY=6
##NPOINTS=51
##PEAK TABLE=(XY..XY)
27,6 28,36 38,68 39,383
40,7 45,248 49,7 50,176
51,193 58,23 61,40 62,156
63,616 64,92 65,107 69,182
70,6 73,267 74,66 75,325
76,18 77,31 81,8 82,63
86,6 87,16 89,982 90,468
91,42 99,565 100,22 101,197
107,7 108,468 109,48 110,7
124,399 125,9999 126,1249 127,4386
128,379 143,345 144,25 145,123
155,48 231,7 268,1317 269,214
270,927 271,157 272,215
##END=
