##TITLE=Azobenzene
##JCAMP-DX=4.24
##DATA TYPE=MASS SPECTRUM
##ORIGIN=NIST Mass Spectrometry Data Center, 1990.
##OWNER=NIST Mass Spectrometry Data Center
Collection (C) 2014 copyright by the U.S. Secretary of Commerce
on behalf of the United States of America. All rights reserved.
##CAS REGISTRY NO=103-33-3
##$NIST MASS SPEC NO=113361
##MOLFORM=C12 H10 N2
##MW=182
##$NIST SOURCE=MSDC
##XUNITS=M/Z
##YUNITS=RELATIVE INTENSITY
##XFACTOR=1
##YFACTOR=1
##FIRSTX=27
##LASTX=184
##FIRSTY=98
##MAXX=184
##MINX=27
##MAXY=9999
##MINY=22
##NPOINTS=39
##PEAK TABLE=(XY..XY)
27,98 28,110 37,85 38,195
39,263 40,30 50,911 51,3293
52,237 61,59 62,134 63,356
64,335 65,111 73,42 74,249
75,209 76,42 77,9999 78,696
88,28 89,37 91,57 102,66
105,1668 106,122 115,138 126,41
127,68 128,134 139,51 150,29
151,179 152,795 153,417 154,108
182,2484 183,308 184,22
##END=
