##TITLE=Disulfide, bis(4-methylphenyl)
##JCAMP-DX=4.24
##DATA TYPE=MASS SPECTRUM
##ORIGIN=NIST Mass Spectrometry Data Center, 1994
##OWNER=NIST Mass Spectrometry Data Center
Collection (C) 2014 copyright by the U.S. Secretary of Commerce
on behalf of the United States of America. All rights reserved.
##CAS REGISTRY NO=103-19-5
##$NIST MASS SPEC NO=134215
##MOLFORM=C14 H14 S2
##MW=246
##$NIST SOURCE=MSDC
##XUNITS=M/Z
##YUNITS=RELATIVE INTENSITY
##XFACTOR=1
##YFACTOR=1
##FIRSTX=14
##LASTX=250
##FIRSTY=7
##MAXX=250
##MINX=14
##MAXY=9999
##MINY=7
##NPOINTS=107
##PEAK TABLE=(XY..XY)
14,7 15,13 18,31 26,32
27,253 28,85 29,11 32,10
37,32 38,114 39,861 40,48
41,104 43,9 45,2706 46,68
47,146 50,227 51,557 52,210
53,335 54,23 57,77 58,124
59,50 60,18 61,43 62,153
63,475 64,106 65,510 66,50
69,673 70,191 71,249 72,21
73,26 74,47 75,48 77,2091
78,706 79,2049 80,155 81,72
82,180 83,93 84,87 85,26
86,28 87,23 89,309 90,129
91,657 92,51 93,99 94,26
95,199 96,81 97,327 98,26
99,21 105,23 106,14 108,503
109,67 110,28 115,21 121,1010
123,9672 124,1195 125,473 126,61
140,20 152,32 153,169 154,265
155,75 156,29 165,75 167,283
168,62 171,17 178,21 179,22
180,22 181,145 182,1027 183,167
184,44 197,95 198,311 199,73
200,29 211,66 212,76 213,479
214,161 215,50 216,19 230,18
231,27 244,14 246,9999 247,1653
248,948 249,153 250,32
##END=
