##TITLE=Butanoic acid, phenylmethyl ester
##JCAMP-DX=4.24
##DATA TYPE=MASS SPECTRUM
##ORIGIN=V.Zaikin,Topchiev Inst.Petrochem.Synth.,Moscow
##OWNER=NIST Mass Spectrometry Data Center
Collection (C) 2014 copyright by the U.S. Secretary of Commerce
on behalf of the United States of America. All rights reserved.
##CAS REGISTRY NO=103-37-7
##$NIST MASS SPEC NO=282259
##MOLFORM=C11 H14 O2
##MW=178
##$NIST SOURCE=MSDC
##XUNITS=M/Z
##YUNITS=RELATIVE INTENSITY
##XFACTOR=1
##YFACTOR=1
##FIRSTX=25
##LASTX=180
##FIRSTY=10
##MAXX=180
##MINX=25
##MAXY=9999
##MINY=10
##NPOINTS=58
##PEAK TABLE=(XY..XY)
25,10 26,80 27,260 28,20
29,40 39,360 40,50 41,390
42,60 43,1491 44,100 45,30
49,20 50,140 51,340 52,180
53,40 55,130 57,20 60,30
62,50 63,200 64,70 65,771
66,50 69,30 70,80 71,2292
72,110 73,20 74,40 75,50
76,40 77,661 78,230 79,911
80,80 82,10 87,20 89,530
90,1822 91,9278 92,751 93,40
104,20 105,320 106,110 107,941
108,9999 109,801 110,50 117,20
118,90 119,30 160,40 178,3643
179,410 180,40
##END=
