##TITLE=Paradrine
##JCAMP-DX=4.24
##DATA TYPE=MASS SPECTRUM
##ORIGIN=AAFS Toxicology Section MS DB Committee, U. Alberta, Canada
##OWNER=NIST Mass Spectrometry Data Center
Collection (C) 2014 copyright by the U.S. Secretary of Commerce
on behalf of the United States of America. All rights reserved.
##CAS REGISTRY NO=103-86-6
##$NIST MASS SPEC NO=245970
##MOLFORM=C9 H13 N O
##MW=151
##$NIST SOURCE=MSDC
##XUNITS=M/Z
##YUNITS=RELATIVE INTENSITY
##XFACTOR=1
##YFACTOR=1
##FIRSTX=29
##LASTX=151
##FIRSTY=210
##MAXX=151
##MINX=29
##MAXY=9999
##MINY=10
##NPOINTS=23
##PEAK TABLE=(XY..XY)
29,210 31,10 32,120 39,410
40,200 42,200 44,9999 45,280
51,320 53,330 55,40 56,30
65,120 68,270 77,840 78,330
79,40 91,110 105,110 107,780
108,320 133,30 151,340
##END=
