##TITLE=Benzenemethanamine, N-phenyl-
##JCAMP-DX=4.24
##DATA TYPE=MASS SPECTRUM
##ORIGIN=Japan AIST/NIMC Database- Spectrum MS-NW-4171
##OWNER=NIST Mass Spectrometry Data Center
Collection (C) 2014 copyright by the U.S. Secretary of Commerce
on behalf of the United States of America. All rights reserved.
##CAS REGISTRY NO=103-32-2
##$NIST MASS SPEC NO=233246
##MOLFORM=C13 H13 N
##MW=183
##$NIST SOURCE=MSDC
##XUNITS=M/Z
##YUNITS=RELATIVE INTENSITY
##XFACTOR=1
##YFACTOR=1
##FIRSTX=26
##LASTX=185
##FIRSTY=10
##MAXX=185
##MINX=26
##MAXY=9999
##MINY=10
##NPOINTS=67
##PEAK TABLE=(XY..XY)
26,10 27,80 28,10 30,20
37,20 38,80 39,539 40,40
41,109 44,10 50,159 51,639
52,129 53,30 54,10 61,10
62,50 63,219 64,99 65,1249
66,90 74,40 75,40 76,60
77,1409 78,279 79,149 80,10
83,40 84,10 87,10 89,159
90,109 91,9999 92,879 93,60
102,10 103,10 104,609 105,179
106,1729 107,139 115,30 116,10
117,10 127,20 128,20 129,10
139,10 141,10 151,10 152,60
153,40 154,50 155,20 165,40
166,20 167,40 168,10 178,10
179,10 180,319 181,159 182,1819
183,5279 184,759 185,50
##END=
