##TITLE=1,2-Dipropylcyclopropene
##JCAMP-DX=4.24
##DATA TYPE=MASS SPECTRUM
##ORIGIN=R. SINNHUBER, DEP. FOOD SCI. TECHNOL., OREGON STATE UNIV., U
##OWNER=NIST Mass Spectrometry Data Center
Collection (C) 2014 copyright by the U.S. Secretary of Commerce
on behalf of the United States of America. All rights reserved.
##CAS REGISTRY NO=10306-92-0
##$NIST MASS SPEC NO=90650
##MOLFORM=C9 H16
##MW=124
##$NIST SOURCE=MSDC
##XUNITS=M/Z
##YUNITS=RELATIVE INTENSITY
##XFACTOR=1
##YFACTOR=1
##FIRSTX=27
##LASTX=124
##FIRSTY=6400
##MAXX=124
##MINX=27
##MAXY=9999
##MINY=400
##NPOINTS=35
##PEAK TABLE=(XY..XY)
27,6400 29,3400 38,700 39,6400
40,1200 41,900 42,900 43,1500
44,400 50,800 51,1700 52,1200
53,4600 54,1500 55,1300 56,1800
63,600 65,1300 66,800 67,9900
68,2400 69,1100 77,2300 78,400
79,2500 80,900 81,9999 82,1700
91,800 93,900 95,9500 96,4400
97,400 109,1100 124,2900
##END=
