##TITLE=Bicyclo[2.2.1]heptan-2-one, 1,4,7,7-tetramethyl-
##JCAMP-DX=4.24
##DATA TYPE=MASS SPECTRUM
##ORIGIN=P. Vainiotalo, Dep. Chem., Joensuu Univ., Joensuu, Finland
##OWNER=NIST Mass Spectrometry Data Center
Collection (C) 2014 copyright by the U.S. Secretary of Commerce
on behalf of the United States of America. All rights reserved.
##CAS REGISTRY NO=10309-50-9
##$NIST MASS SPEC NO=142124
##MOLFORM=C11 H18 O
##MW=166
##$NIST SOURCE=MSDC
##XUNITS=M/Z
##YUNITS=RELATIVE INTENSITY
##XFACTOR=1
##YFACTOR=1
##FIRSTX=27
##LASTX=167
##FIRSTY=1860
##MAXX=167
##MINX=27
##MAXY=9999
##MINY=15
##NPOINTS=52
##PEAK TABLE=(XY..XY)
27,1860 29,2070 39,2650 40,1130
41,6770 42,460 43,1380 44,220
51,410 52,220 53,1450 54,500
55,5740 56,370 57,620 65,490
66,160 67,2880 68,330 69,2720
70,570 77,690 78,140 79,760
80,1300 81,4620 82,9999 83,9040
84,780 91,630 93,450 94,180
95,2200 96,510 97,240 98,170
105,150 107,800 108,260 109,8110
110,910 111,380 122,3550 123,3360
124,1450 125,130 138,1380 139,160
151,140 152,15 166,2840 167,360
##END=
