##TITLE=Benzene, 1,1'-(1,2-ethenediyl)bis[2-methyl-
##JCAMP-DX=4.24
##DATA TYPE=MASS SPECTRUM
##ORIGIN=D.HENNEBERG, MAX-PLANCK INSTITUTE, MULHEIM, WEST GERMANY
##OWNER=NIST Mass Spectrometry Data Center
Collection (C) 2014 copyright by the U.S. Secretary of Commerce
on behalf of the United States of America. All rights reserved.
##CAS REGISTRY NO=10311-74-7
##$NIST MASS SPEC NO=62672
##MOLFORM=C16 H16
##MW=208
##$NIST SOURCE=MSDC
##XUNITS=M/Z
##YUNITS=RELATIVE INTENSITY
##XFACTOR=1
##YFACTOR=1
##FIRSTX=26
##LASTX=210
##FIRSTY=489
##MAXX=210
##MINX=26
##MAXY=9999
##MINY=3
##NPOINTS=159
##PEAK TABLE=(XY..XY)
26,489 28,196 29,60 30,20
32,22 35,7 36,90 37,33
38,80 39,1260 40,148 41,291
42,42 43,46 44,55 46,7
47,7 48,6 49,32 50,356
51,794 52,256 53,172 54,16
55,62 56,27 57,58 58,66
59,11 61,32 62,162 63,835
64,239 65,1120 66,81 67,28
68,23 69,79 70,26 71,19
72,8 73,11 74,181 75,297
76,533 77,918 78,347 79,231
80,81 82,172 83,145 84,14
85,16 86,83 87,165 88,239
89,1373 90,292 91,1712 92,236
93,85 96,235 97,18 98,60
99,55 100,44 101,311 102,1093
103,868 104,514 105,624 106,57
107,7 108,4 109,8 110,23
111,33 112,9 113,107 114,148
115,4163 116,3304 117,807 118,63
119,9 121,11 123,11 125,29
126,135 127,298 128,710 129,385
130,86 131,28 132,7 134,7
137,24 138,36 139,303 140,63
141,233 142,65 143,8 144,3
148,4 149,51 150,93 151,264
152,694 153,292 154,63 155,34
156,12 161,7 162,22 163,175
164,271 165,1458 166,364 167,159
168,36 169,9 170,10 171,3
173,13 174,25 175,36 176,312
177,344 178,6920 179,1945 180,371
181,87 182,13 183,7 185,12
186,15 187,57 188,76 189,805
190,477 191,1349 192,1613 193,8228
194,1315 195,111 196,3 199,11
200,51 201,42 202,222 203,118
204,65 205,171 206,129 207,646
208,9999 209,1718 210,178
##END=
