##TITLE=Dialifor
##JCAMP-DX=4.24
##DATA TYPE=MASS SPECTRUM
##ORIGIN=J. SHAW, BORRISTON RESEARCH, ROCKVILLE, MD, USA
##OWNER=NIST Mass Spectrometry Data Center
Collection (C) 2014 copyright by the U.S. Secretary of Commerce
on behalf of the United States of America. All rights reserved.
##CAS REGISTRY NO=10311-84-9
##$NIST MASS SPEC NO=60170
##MOLFORM=C14 H17 Cl N O4 P S2
##MW=393
##$NIST SOURCE=MSDC
##XUNITS=M/Z
##YUNITS=RELATIVE INTENSITY
##XFACTOR=1
##YFACTOR=1
##FIRSTX=12
##LASTX=396
##FIRSTY=10
##MAXX=396
##MINX=12
##MAXY=9999
##MINY=10
##NPOINTS=160
##PEAK TABLE=(XY..XY)
12,10 13,10 14,60 15,320
16,40 17,130 18,440 19,40
26,270 27,1881 28,1181 29,3323
30,90 31,50 32,50 33,20
34,20 35,40 36,60 37,20
38,60 39,120 40,70 41,70
42,70 43,280 44,70 45,460
47,410 48,70 49,130 50,930
51,320 52,50 53,30 55,10
56,10 57,30 58,160 59,120
60,80 61,190 62,50 63,310
64,240 65,2192 66,50 67,10
68,20 69,20 70,10 73,20
74,190 75,460 76,2112 77,650
78,60 79,50 80,110 81,50
82,10 83,10 86,10 87,10
89,550 90,280 91,150 92,60
93,470 94,30 95,130 97,1561
98,10 99,80 100,10 102,520
103,380 104,1321 105,400 106,30
107,10 108,40 109,100 111,120
112,190 113,140 114,70 115,30
116,320 117,370 118,100 119,40
120,30 121,180 122,10 123,10
125,520 126,30 127,70 129,1771
130,1181 131,230 132,110 133,120
134,30 135,10 136,20 137,50
139,70 140,20 141,50 142,190
144,320 145,200 146,90 147,30
148,70 149,10 153,320 154,20
155,40 157,300 158,60 159,40
160,140 161,30 162,20 163,70
164,10 165,30 167,240 169,90
170,10 172,470 173,230 174,80
175,10 181,660 182,80 183,180
186,980 187,570 188,150 189,60
190,30 191,10 192,10 193,10
200,20 204,10 205,20 208,9999
210,4164 211,280 212,20 220,20
300,10 357,770 394,90 396,30
##END=
