##TITLE=4-Isobutylmorpholine
##JCAMP-DX=4.24
##DATA TYPE=MASS SPECTRUM
##ORIGIN=NIST Mass Spectrometry Data Center
##OWNER=NIST Mass Spectrometry Data Center
Collection (C) 2014 copyright by the U.S. Secretary of Commerce
on behalf of the United States of America. All rights reserved.
##CAS REGISTRY NO=10315-98-7
##$NIST MASS SPEC NO=343282
##MOLFORM=C8 H17 N O
##MW=143
##$NIST SOURCE=MSDC
##XUNITS=M/Z
##YUNITS=RELATIVE INTENSITY
##XFACTOR=1
##YFACTOR=1
##FIRSTX=15
##LASTX=144
##FIRSTY=721
##MAXX=144
##MINX=15
##MAXY=9999
##MINY=10
##NPOINTS=50
##PEAK TABLE=(XY..XY)
15,721 16,10 18,40 19,10
26,130 27,1041 28,1641 29,1321
30,490 31,110 37,10 39,631
41,1611 42,2682 43,761 44,310
45,90 50,10 51,20 52,30
53,60 54,230 55,320 56,2102
57,350 58,170 67,20 68,150
69,100 70,941 71,100 72,390
73,20 80,10 82,70 83,20
84,70 85,40 86,160 96,20
98,160 100,9999 101,561 102,30
112,30 126,10 128,110 142,60
143,450 144,30
##END=
