##TITLE=5-Methyl-1-phenylhexa-1,3,4-triene
##JCAMP-DX=4.24
##DATA TYPE=MASS SPECTRUM
##ORIGIN=E. KEINAN,DEP. ORG. CHEM.,WEIZMANN INST. SCI.,REHOVOT,ISRAEL
##OWNER=NIST Mass Spectrometry Data Center
Collection (C) 2014 copyright by the U.S. Secretary of Commerce
on behalf of the United States of America. All rights reserved.
##CAS REGISTRY NO=103240-79-5
##$NIST MASS SPEC NO=112843
##MOLFORM=C13 H14
##MW=170
##$NIST SOURCE=MSDC
##XUNITS=M/Z
##YUNITS=RELATIVE INTENSITY
##XFACTOR=1
##YFACTOR=1
##FIRSTX=51
##LASTX=170
##FIRSTY=3900
##MAXX=170
##MINX=51
##MAXY=9999
##MINY=1300
##NPOINTS=15
##PEAK TABLE=(XY..XY)
51,3900 63,1900 65,1600 76,1400
77,3100 91,3100 115,3700 127,1400
128,2900 129,2700 141,1700 154,2100
155,9999 156,1300 170,4700
##END=
