##TITLE=3-Nonen-1-ol, (E)-
##JCAMP-DX=4.24
##DATA TYPE=MASS SPECTRUM
##ORIGIN=FOOD RESEARCH REPORT 118, K.E. MURRAY & COLLEAGUES, DIV. OF FOOD RESEARCH, CSIRO, AUSTRALIA
##OWNER=NIST Mass Spectrometry Data Center
Collection (C) 2014 copyright by the U.S. Secretary of Commerce
on behalf of the United States of America. All rights reserved.
##CAS REGISTRY NO=10339-61-4
##$NIST MASS SPEC NO=53356
##MOLFORM=C9 H18 O
##MW=142
##$NIST SOURCE=MSDC
##XUNITS=M/Z
##YUNITS=RELATIVE INTENSITY
##XFACTOR=1
##YFACTOR=1
##FIRSTX=26
##LASTX=142
##FIRSTY=140
##MAXX=142
##MINX=26
##MAXY=9999
##MINY=20
##NPOINTS=72
##PEAK TABLE=(XY..XY)
26,140 27,2740 28,830 29,3720
30,160 31,2300 32,40 37,20
38,120 39,3010 40,510 41,9120
42,1700 43,3010 44,1860 45,230
50,140 51,390 52,230 53,1500
54,3810 55,9999 56,3270 57,3100
58,250 59,40 62,20 63,110
64,20 65,410 66,550 67,4600
68,6190 69,7790 70,2120 71,710
72,120 73,40 77,460 78,180
79,830 80,280 81,5220 82,3010
83,1040 84,370 85,210 86,70
91,300 92,40 93,160 94,90
95,2120 96,1470 97,270 98,210
99,110 103,40 105,120 107,90
109,570 110,120 111,50 112,40
114,70 120,40 122,50 123,40
124,1310 125,140 138,40 142,50
##END=
