##TITLE=L-Methionine, methyl ester
##JCAMP-DX=4.24
##DATA TYPE=MASS SPECTRUM
##ORIGIN=Japan AIST/NIMC Database- Spectrum MS-NW-7009
##OWNER=NIST Mass Spectrometry Data Center
Collection (C) 2014 copyright by the U.S. Secretary of Commerce
on behalf of the United States of America. All rights reserved.
##CAS REGISTRY NO=10332-17-9
##$NIST MASS SPEC NO=236637
##MOLFORM=C6 H13 N O2 S
##MW=163
##$NIST SOURCE=MSDC
##XUNITS=M/Z
##YUNITS=RELATIVE INTENSITY
##XFACTOR=1
##YFACTOR=1
##FIRSTX=14
##LASTX=166
##FIRSTY=40
##MAXX=166
##MINX=14
##MAXY=9999
##MINY=10
##NPOINTS=86
##PEAK TABLE=(XY..XY)
14,40 15,1209 16,20 17,10
18,10 26,80 27,879 28,2529
29,619 30,939 31,90 32,20
33,1329 34,20 35,20 39,249
40,40 41,639 42,1049 43,649
44,189 45,759 46,339 47,739
48,219 49,199 50,20 51,20
52,119 53,40 54,589 55,779
56,7199 57,839 58,119 59,429
60,309 61,9999 62,359 63,469
64,10 68,20 69,30 70,119
71,60 72,30 73,40 74,919
75,1149 76,80 77,60 82,10
83,1829 84,139 85,60 86,90
87,449 88,2529 89,689 90,60
91,60 99,70 100,839 101,109
102,279 103,50 104,4789 105,289
106,229 107,10 114,559 115,2069
116,969 117,80 118,50 131,1339
132,90 133,70 146,219 147,20
148,109 149,10 163,3599 164,349
165,209 166,20
##END=
