##TITLE=Benzene, (isocyanomethyl)-
##JCAMP-DX=4.24
##DATA TYPE=MASS SPECTRUM
##OWNER=NIST Mass Spectrometry Data Center
Collection (C) 2014 copyright by the U.S. Secretary of Commerce
on behalf of the United States of America. All rights reserved.
##CAS REGISTRY NO=10340-91-7
##$NIST MASS SPEC NO=2003
##MOLFORM=C8 H7 N
##MW=117
##$NIST SOURCE=MSDC
##XUNITS=M/Z
##YUNITS=RELATIVE INTENSITY
##XFACTOR=1
##YFACTOR=1
##FIRSTX=40
##LASTX=118
##FIRSTY=400
##MAXX=118
##MINX=40
##MAXY=9999
##MINY=60
##NPOINTS=28
##PEAK TABLE=(XY..XY)
40,400 44,360 45,500 46,160
50,1101 51,1762 52,360 61,300
62,601 63,1601 64,561 65,1401
66,160 74,240 75,160 76,200
77,1001 78,140 87,140 88,240
89,3243 90,6306 91,5305 92,801
93,60 116,4204 117,9999 118,901
##END=
