##TITLE=2-Cyclohexen-1-one, 3-phenyl-
##JCAMP-DX=4.24
##DATA TYPE=MASS SPECTRUM
##OWNER=NIST Mass Spectrometry Data Center
Collection (C) 2014 copyright by the U.S. Secretary of Commerce
on behalf of the United States of America. All rights reserved.
##CAS REGISTRY NO=10345-87-6
##$NIST MASS SPEC NO=6762
##MOLFORM=C12 H12 O
##MW=172
##$NIST SOURCE=MSDC
##XUNITS=M/Z
##YUNITS=RELATIVE INTENSITY
##XFACTOR=1
##YFACTOR=1
##FIRSTX=26
##LASTX=174
##FIRSTY=40
##MAXX=174
##MINX=26
##MAXY=9999
##MINY=10
##NPOINTS=105
##PEAK TABLE=(XY..XY)
26,40 27,220 29,30 37,20
38,70 39,641 40,100 41,210
42,80 43,40 44,10 45,10
49,10 50,300 51,721 52,170
53,60 54,10 55,130 56,20
57,280 58,571 59,10 61,30
62,150 63,510 64,300 65,360
66,110 67,50 68,20 69,80
70,180 71,621 72,130 73,20
74,170 75,210 76,300 77,550
78,200 79,20 81,10 83,10
84,40 85,90 86,50 87,70
88,60 89,400 90,70 91,280
92,30 94,10 98,30 99,20
100,10 101,60 102,601 103,260
104,50 105,380 106,30 107,10
110,10 111,10 113,70 114,270
115,5185 116,4634 117,460 118,40
125,20 126,50 127,250 128,971
129,1311 130,1301 131,170 132,20
139,90 140,30 141,350 142,140
143,671 144,9999 145,1201 146,90
150,10 151,20 152,40 153,60
154,60 155,30 156,10 157,110
158,20 160,10 168,20 169,60
170,571 171,821 172,5915 173,801
174,70
##END=
