##TITLE=Sulfide, isobutyl isopropyl
##JCAMP-DX=4.24
##DATA TYPE=MASS SPECTRUM
##OWNER=NIST Mass Spectrometry Data Center
Collection (C) 2014 copyright by the U.S. Secretary of Commerce
on behalf of the United States of America. All rights reserved.
##CAS REGISTRY NO=10359-65-6
##$NIST MASS SPEC NO=3024
##MOLFORM=C7 H16 S
##MW=132
##$NIST SOURCE=MSDC
##XUNITS=M/Z
##YUNITS=RELATIVE INTENSITY
##XFACTOR=1
##YFACTOR=1
##FIRSTX=26
##LASTX=134
##FIRSTY=400
##MAXX=134
##MINX=26
##MAXY=9999
##MINY=110
##NPOINTS=42
##PEAK TABLE=(XY..XY)
26,400 27,5575 28,591 29,2422
35,120 37,180 38,430 39,4484
40,581 41,7477 42,921 43,9999
44,370 45,2112 46,1061 47,5555
48,1011 49,631 50,120 51,110
53,240 54,110 55,3643 56,4294
59,1091 60,440 61,1962 71,170
73,170 74,510 75,1962 76,1431
77,721 89,6776 90,791 91,370
103,160 117,1882 118,120 132,4164
133,360 134,200
##END=
