##TITLE=Estra-1,3,5(10)-trien-17-ol, 3-methoxy-, (17.beta.)-
##JCAMP-DX=4.24
##DATA TYPE=MASS SPECTRUM
##ORIGIN=NIST Mass Spectrometry Data Center
##OWNER=NIST Mass Spectrometry Data Center
Collection (C) 2014 copyright by the U.S. Secretary of Commerce
on behalf of the United States of America. All rights reserved.
##CAS REGISTRY NO=1035-77-4
##$NIST MASS SPEC NO=332949
##MOLFORM=C19 H26 O2
##MW=286
##$NIST SOURCE=MSDC
##XUNITS=M/Z
##YUNITS=RELATIVE INTENSITY
##XFACTOR=1
##YFACTOR=1
##FIRSTX=15
##LASTX=289
##FIRSTY=30
##MAXX=289
##MINX=15
##MAXY=9999
##MINY=10
##NPOINTS=226
##PEAK TABLE=(XY..XY)
15,30 26,10 27,160 28,30
29,370 30,40 31,100 38,10
39,360 40,80 41,1081 42,100
43,711 44,150 45,230 50,30
51,220 52,100 53,571 54,90
55,1171 56,100 57,761 58,80
59,20 62,20 63,140 64,70
65,420 66,90 67,540 68,130
69,220 70,30 71,110 72,10
74,20 75,40 76,90 77,781
78,360 79,651 80,70 81,440
82,90 83,160 84,30 85,60
86,20 87,30 88,30 89,210
90,80 91,1792 92,250 93,510
94,90 95,320 96,50 97,210
98,60 99,100 100,40 101,50
102,260 103,581 104,300 105,510
106,180 107,641 108,210 109,230
110,150 111,130 112,60 113,60
114,20 115,2302 116,741 117,861
118,150 119,250 120,80 121,1341
122,671 123,220 124,40 125,60
126,70 127,691 128,1601 129,1261
130,380 131,641 132,270 133,200
134,1101 135,891 136,150 137,50
138,10 139,150 140,60 141,911
142,350 143,591 144,961 145,1261
146,550 147,2452 148,510 149,130
150,50 151,160 152,320 153,380
154,210 155,340 156,100 157,300
158,1331 159,2392 160,3673 161,991
162,170 163,60 164,50 165,380
166,150 167,230 168,110 169,260
170,150 171,1441 172,1111 173,3213
174,2692 175,400 176,70 177,40
178,90 179,130 180,50 181,150
182,100 183,180 184,380 185,791
186,4014 187,991 188,150 189,781
190,130 191,30 192,10 193,40
194,30 195,110 196,100 197,320
198,290 199,1992 200,1822 201,410
202,550 203,100 204,30 205,10
207,10 208,20 209,70 210,60
211,330 212,170 213,420 214,350
215,240 216,50 217,10 221,10
222,10 223,30 224,30 225,290
226,130 227,1942 228,400 229,270
230,70 231,10 235,10 237,200
238,40 239,250 240,200 241,90
242,160 243,70 244,10 249,10
251,10 252,10 253,140 254,30
255,60 256,20 257,40 258,450
259,90 260,10 267,210 268,100
269,30 270,10 271,40 272,10
274,10 279,10 282,10 283,10
284,90 285,210 286,9999 287,2012
288,250 289,20
##END=
