##TITLE=1,1':4',1''-Terphenyl, 4-nitro-
##JCAMP-DX=4.24
##DATA TYPE=MASS SPECTRUM
##ORIGIN=Japan AIST/NIMC Database- Spectrum MS-NW-9703
##OWNER=NIST Mass Spectrometry Data Center
Collection (C) 2014 copyright by the U.S. Secretary of Commerce
on behalf of the United States of America. All rights reserved.
##CAS REGISTRY NO=10355-53-0
##$NIST MASS SPEC NO=239334
##MOLFORM=C18 H13 N O2
##MW=275
##$NIST SOURCE=MSDC
##XUNITS=M/Z
##YUNITS=RELATIVE INTENSITY
##XFACTOR=1
##YFACTOR=1
##FIRSTX=28
##LASTX=278
##FIRSTY=40
##MAXX=278
##MINX=28
##MAXY=9999
##MINY=10
##NPOINTS=112
##PEAK TABLE=(XY..XY)
28,40 30,10 39,50 50,40
51,109 52,10 57,10 62,30
63,90 65,20 71,10 74,60
75,129 76,90 77,139 78,10
81,20 82,20 83,10 86,20
87,80 88,259 89,50 91,30
92,20 93,30 94,70 95,30
98,20 99,40 100,219 101,549
102,60 106,40 107,30 108,50
109,10 111,10 112,80 113,579
114,379 115,149 116,10 122,10
125,20 126,80 127,50 128,30
137,50 138,20 139,60 140,10
149,20 150,189 151,469 152,549
153,80 154,10 162,10 163,60
164,30 165,60 166,10 174,30
175,40 176,149 177,60 178,109
179,10 187,60 188,50 189,199
190,50 191,70 192,10 198,10
199,30 200,219 201,229 202,1039
203,269 204,30 211,10 212,10
213,109 214,50 215,239 216,70
217,899 218,169 219,10 223,10
224,149 225,169 226,1589 227,1429
228,2959 229,2359 230,679 231,90
242,10 243,10 244,10 245,1179
246,239 247,20 259,50 274,20
275,9999 276,2049 277,229 278,20
##END=
