##TITLE=2,7-Octadiene-1,6-diol, 2,6-dimethyl-, (Z)-
##JCAMP-DX=4.24
##DATA TYPE=MASS SPECTRUM
##ORIGIN=P.J. Williams, Australian Wine Res. Inst., Glen Osmond, S. Australia, Australia
##OWNER=NIST Mass Spectrometry Data Center
Collection (C) 2014 copyright by the U.S. Secretary of Commerce
on behalf of the United States of America. All rights reserved.
##CAS REGISTRY NO=103619-06-3
##$NIST MASS SPEC NO=111971
##MOLFORM=C10 H18 O2
##MW=170
##$NIST SOURCE=MSDC
##XUNITS=M/Z
##YUNITS=RELATIVE INTENSITY
##XFACTOR=1
##YFACTOR=1
##FIRSTX=41
##LASTX=137
##FIRSTY=4300
##MAXX=137
##MINX=41
##MAXY=9999
##MINY=50
##NPOINTS=16
##PEAK TABLE=(XY..XY)
41,4300 43,9999 55,2700 67,3100
68,1300 71,3700 79,700 81,700
82,800 93,400 96,400 109,200
110,200 119,400 134,50 137,200
##END=
