##TITLE=Pentanoic acid, phenylmethyl ester
##JCAMP-DX=4.24
##DATA TYPE=MASS SPECTRUM
##ORIGIN=V.Zaikin,Topchiev Inst.Petrochem.Synth.,Moscow
##OWNER=NIST Mass Spectrometry Data Center
Collection (C) 2014 copyright by the U.S. Secretary of Commerce
on behalf of the United States of America. All rights reserved.
##CAS REGISTRY NO=10361-39-4
##$NIST MASS SPEC NO=282343
##MOLFORM=C12 H16 O2
##MW=192
##$NIST SOURCE=MSDC
##XUNITS=M/Z
##YUNITS=RELATIVE INTENSITY
##XFACTOR=1
##YFACTOR=1
##FIRSTX=25
##LASTX=194
##FIRSTY=10
##MAXX=194
##MINX=25
##MAXY=9999
##MINY=10
##NPOINTS=102
##PEAK TABLE=(XY..XY)
25,10 26,90 27,220 28,80
29,270 30,10 35,20 36,160
37,20 38,50 39,330 40,120
41,460 42,60 43,70 44,20
45,20 49,20 50,130 51,280
52,170 53,70 54,30 55,400
56,70 57,1241 58,60 59,60
60,100 61,20 62,50 63,190
64,70 65,761 66,60 67,30
68,10 69,30 70,20 71,20
73,130 74,40 75,40 76,40
77,561 78,210 79,721 80,70
81,20 82,20 83,180 84,150
85,1591 86,100 87,20 89,450
90,1221 91,9999 92,1591 93,130
94,10 95,10 96,10 97,10
101,561 102,40 103,30 104,50
105,340 106,150 107,761 108,8738
109,601 110,40 115,20 116,10
117,50 118,20 119,130 120,20
126,10 128,10 129,10 130,20
131,20 132,110 133,80 134,10
135,40 146,10 147,50 148,10
150,20 159,10 174,240 175,30
177,10 179,10 191,10 192,1611
193,230 194,20
##END=
