##TITLE=Dimethyl 4,4'-stilbenedicarboxylate
##JCAMP-DX=4.24
##DATA TYPE=MASS SPECTRUM
##ORIGIN=NIST Mass Spectrometry Data Center, 1994
##OWNER=NIST Mass Spectrometry Data Center
Collection (C) 2014 copyright by the U.S. Secretary of Commerce
on behalf of the United States of America. All rights reserved.
##CAS REGISTRY NO=10374-80-8
##$NIST MASS SPEC NO=135563
##MOLFORM=C18 H16 O4
##MW=296
##$NIST SOURCE=MSDC
##XUNITS=M/Z
##YUNITS=RELATIVE INTENSITY
##XFACTOR=1
##YFACTOR=1
##FIRSTX=15
##LASTX=298
##FIRSTY=662
##MAXX=298
##MINX=15
##MAXY=9999
##MINY=11
##NPOINTS=52
##PEAK TABLE=(XY..XY)
15,662 28,61 29,138 44,120
50,215 51,261 59,986 63,230
73,116 74,113 75,299 76,887
77,201 87,90 88,373 89,701
101,119 102,118 103,238 115,158
117,574 127,94 128,132 139,114
150,216 151,488 152,680 153,155
165,299 175,127 176,1210 177,1200
178,4423 179,713 191,201 192,241
193,1109 194,225 205,1030 206,274
207,136 222,122 236,301 237,417
263,152 265,6224 266,1342 267,184
281,11 296,9999 297,2131 298,285
##END=
