##TITLE=Benzene, 1,4-dimethyl-2,5-bis(1-methylethyl)-
##JCAMP-DX=4.24
##DATA TYPE=MASS SPECTRUM
##ORIGIN=NIST Mass Spectrometry Data Center, 1990.
##OWNER=NIST Mass Spectrometry Data Center
Collection (C) 2014 copyright by the U.S. Secretary of Commerce
on behalf of the United States of America. All rights reserved.
##CAS REGISTRY NO=10375-96-9
##$NIST MASS SPEC NO=118580
##MOLFORM=C14 H22
##MW=190
##$NIST SOURCE=MSDC
##XUNITS=M/Z
##YUNITS=RELATIVE INTENSITY
##XFACTOR=1
##YFACTOR=1
##FIRSTX=13
##LASTX=192
##FIRSTY=25
##MAXX=192
##MINX=13
##MAXY=9999
##MINY=8
##NPOINTS=103
##PEAK TABLE=(XY..XY)
13,25 15,447 16,8 27,1181
28,229 29,610 30,23 37,21
38,125 39,1095 40,21 41,1900
42,276 43,1476 44,51 50,146
51,589 52,199 53,559 54,53
55,450 56,36 57,66 58,66
62,69 63,363 64,376 65,651
66,90 67,153 69,231 70,130
71,313 72,139 73,38 74,56
75,97 76,246 77,1128 78,752
79,662 80,133 81,46 83,54
84,26 85,44 86,30 87,59
88,34 89,184 90,26 91,1737
92,187 93,173 101,40 102,179
103,296 104,34 105,1221 106,133
107,381 108,42 113,27 115,1368
116,558 117,765 118,337 119,1709
120,209 121,119 122,25 126,72
127,321 128,862 129,928 130,447
131,832 132,25 133,3129 134,383
135,119 139,43 141,308 142,167
143,209 144,226 145,620 146,293
147,987 148,121 152,46 153,36
157,29 158,63 159,372 160,341
161,114 175,9999 176,1429 177,120
190,1942 191,295 192,28
##END=
