##TITLE=dl-Camphoroquinone
##JCAMP-DX=4.24
##DATA TYPE=MASS SPECTRUM
##ORIGIN=Chuck Anderson, Aldrich Chemical Co.
##OWNER=NIST Mass Spectrometry Data Center
Collection (C) 2014 copyright by the U.S. Secretary of Commerce
on behalf of the United States of America. All rights reserved.
##CAS REGISTRY NO=10373-78-1
##$NIST MASS SPEC NO=108280
##MOLFORM=C10 H14 O2
##MW=166
##$NIST SOURCE=MSDC
##XUNITS=M/Z
##YUNITS=RELATIVE INTENSITY
##XFACTOR=1
##YFACTOR=1
##FIRSTX=15
##LASTX=167
##FIRSTY=90
##MAXX=167
##MINX=15
##MAXY=9999
##MINY=4
##NPOINTS=63
##PEAK TABLE=(XY..XY)
15,90 26,164 27,1944 28,397
29,819 37,27 38,130 39,2055
40,381 41,4360 42,260 43,413
44,16 45,38 46,10 50,135
51,348 52,178 53,812 54,194
55,4582 56,220 57,10 62,42
63,112 64,16 65,394 66,154
67,2305 68,362 69,6554 70,362
71,17 77,666 78,144 79,631
80,177 81,324 82,499 83,5804
84,385 91,309 92,50 93,385
94,154 95,9999 96,1027 97,187
105,71 107,68 108,4 109,295
110,881 111,79 120,4 123,1888
124,163 137,37 138,3444 139,315
140,9 166,1291 167,133
##END=
