##TITLE=4-Methyl-3-nitrobenzoyl chloride
##JCAMP-DX=4.24
##DATA TYPE=MASS SPECTRUM
##ORIGIN=NIST Mass Spectrometry Data Center, 1994
##OWNER=NIST Mass Spectrometry Data Center
Collection (C) 2014 copyright by the U.S. Secretary of Commerce
on behalf of the United States of America. All rights reserved.
##CAS REGISTRY NO=10397-30-5
##$NIST MASS SPEC NO=135462
##MOLFORM=C8 H6 Cl N O3
##MW=199
##$NIST SOURCE=MSDC
##XUNITS=M/Z
##YUNITS=RELATIVE INTENSITY
##XFACTOR=1
##YFACTOR=1
##FIRSTX=12
##LASTX=201
##FIRSTY=41
##MAXX=201
##MINX=12
##MAXY=9999
##MINY=11
##NPOINTS=109
##PEAK TABLE=(XY..XY)
12,41 14,35 15,83 16,71
17,42 18,83 25,36 26,223
27,369 28,301 29,190 30,1850
35,148 36,134 37,510 38,798
39,1840 40,252 41,42 43,238
44,133 46,366 47,26 49,214
50,1177 51,1235 52,434 53,302
54,23 55,18 60,79 61,552
62,1434 63,4114 64,1047 65,284
66,45 68,25 72,42 73,385
74,549 75,612 76,262 77,660
78,368 79,64 80,70 81,59
84,56 85,215 86,434 87,357
88,42 89,5041 90,3385 91,615
92,125 93,29 97,41 99,441
100,38 101,160 102,26 103,39
104,94 105,159 106,346 107,60
108,30 109,19 110,11 111,14
112,33 113,33 114,19 115,14
117,416 118,3189 119,765 120,220
121,33 123,24 125,472 126,210
127,194 128,59 133,24 134,40
135,36 136,27 141,21 146,512
147,1269 148,197 149,22 153,36
154,64 155,25 156,28 164,9999
165,852 166,97 182,1441 183,157
184,489 185,46 199,272 200,32
201,82
##END=
