##TITLE=Formic acid, 2-phenylethyl ester
##JCAMP-DX=4.24
##DATA TYPE=MASS SPECTRUM
##ORIGIN=E.M.EMERY COLGATE-PALMOLIVE CO., JERSEY CITY, N.J., USA
##OWNER=NIST Mass Spectrometry Data Center
Collection (C) 2014 copyright by the U.S. Secretary of Commerce
on behalf of the United States of America. All rights reserved.
##CAS REGISTRY NO=104-62-1
##$NIST MASS SPEC NO=21469
##MOLFORM=C9 H10 O2
##MW=150
##$NIST SOURCE=MSDC
##XUNITS=M/Z
##YUNITS=RELATIVE INTENSITY
##XFACTOR=1
##YFACTOR=1
##FIRSTX=27
##LASTX=122
##FIRSTY=594
##MAXX=122
##MINX=27
##MAXY=9999
##MINY=62
##NPOINTS=38
##PEAK TABLE=(XY..XY)
27,594 28,204 29,1590 30,75
31,1370 37,75 38,258 39,1460
40,121 41,295 43,118 50,573
51,1270 52,325 53,138 61,62
62,213 63,634 64,168 65,1650
66,116 74,142 75,115 76,106
77,1000 78,772 79,343 89,292
90,156 91,6770 92,1270 93,90
102,115 103,748 104,9999 105,1240
106,67 122,305
##END=
