##TITLE=Formic acid, phenylmethyl ester
##JCAMP-DX=4.24
##DATA TYPE=MASS SPECTRUM
##ORIGIN=Japan AIST/NIMC Database- Spectrum MS-NW-8492
##OWNER=NIST Mass Spectrometry Data Center
Collection (C) 2014 copyright by the U.S. Secretary of Commerce
on behalf of the United States of America. All rights reserved.
##CAS REGISTRY NO=104-57-4
##$NIST MASS SPEC NO=228676
##MOLFORM=C8 H8 O2
##MW=136
##$NIST SOURCE=MSDC
##XUNITS=M/Z
##YUNITS=RELATIVE INTENSITY
##XFACTOR=1
##YFACTOR=1
##FIRSTX=15
##LASTX=138
##FIRSTY=10
##MAXX=138
##MINX=15
##MAXY=9999
##MINY=10
##NPOINTS=64
##PEAK TABLE=(XY..XY)
15,10 17,10 18,40 26,109
27,559 28,239 29,919 30,60
31,309 36,10 37,169 38,459
39,2089 40,169 41,369 42,20
43,70 44,119 45,60 46,40
49,99 50,1119 51,2569 52,689
53,329 54,20 55,40 60,10
61,159 62,459 63,1199 64,359
65,2779 66,169 73,60 74,259
75,169 76,169 77,3289 78,699
79,4169 80,489 81,30 84,10
85,50 86,80 87,60 88,40
89,2189 90,7619 91,9999 92,829
93,30 105,319 106,60 107,3099
108,3879 109,299 110,20 118,30
135,10 136,4859 137,429 138,30
##END=
