##TITLE=4-Dodecylaniline
##JCAMP-DX=4.24
##DATA TYPE=MASS SPECTRUM
##ORIGIN=Chuck Anderson, Aldrich Chemical Co.
##OWNER=NIST Mass Spectrometry Data Center
Collection (C) 2014 copyright by the U.S. Secretary of Commerce
on behalf of the United States of America. All rights reserved.
##CAS REGISTRY NO=104-42-7
##$NIST MASS SPEC NO=107879
##MOLFORM=C18 H31 N
##MW=261
##$NIST SOURCE=MSDC
##XUNITS=M/Z
##YUNITS=RELATIVE INTENSITY
##XFACTOR=1
##YFACTOR=1
##FIRSTX=18
##LASTX=262
##FIRSTY=3
##MAXX=262
##MINX=18
##MAXY=9999
##MINY=3
##NPOINTS=36
##PEAK TABLE=(XY..XY)
18,3 27,83 28,44 29,174
36,54 39,55 41,250 42,39
43,214 53,30 55,101 57,52
65,52 69,7 77,198 78,106
79,108 80,14 91,60 92,61
93,80 94,43 103,15 104,48
105,33 106,9999 107,801 108,34
117,14 118,66 119,192 120,92
132,107 133,14 261,801 262,144
##END=
