##TITLE=Benzenamine, 4-butyl-
##JCAMP-DX=4.24
##DATA TYPE=MASS SPECTRUM
##ORIGIN=Japan AIST/NIMC Database- Spectrum MS-NW-3996
##OWNER=NIST Mass Spectrometry Data Center
Collection (C) 2014 copyright by the U.S. Secretary of Commerce
on behalf of the United States of America. All rights reserved.
##CAS REGISTRY NO=104-13-2
##$NIST MASS SPEC NO=232327
##MOLFORM=C10 H15 N
##MW=149
##$NIST SOURCE=MSDC
##XUNITS=M/Z
##YUNITS=RELATIVE INTENSITY
##XFACTOR=1
##YFACTOR=1
##FIRSTX=15
##LASTX=151
##FIRSTY=10
##MAXX=151
##MINX=15
##MAXY=9999
##MINY=10
##NPOINTS=60
##PEAK TABLE=(XY..XY)
15,10 26,10 27,139 28,70
29,50 30,40 38,20 39,169
40,20 41,99 42,40 43,40
50,30 51,109 52,99 53,90
54,50 55,10 58,10 62,20
63,60 64,30 65,179 66,70
67,30 74,10 75,10 76,10
77,419 78,169 79,199 80,70
89,50 90,20 91,109 92,109
93,129 94,30 102,10 103,40
104,90 105,40 106,9999 107,829
108,30 115,20 116,10 117,40
118,90 119,119 120,99 121,10
130,20 131,10 132,30 133,10
148,20 149,1919 150,219 151,10
##END=
