##TITLE=Benzaldehyde, 4-chloro-
##JCAMP-DX=4.24
##DATA TYPE=MASS SPECTRUM
##ORIGIN=NIST Mass Spectrometry Data Center, 1998.
##OWNER=NIST Mass Spectrometry Data Center
Collection (C) 2014 copyright by the U.S. Secretary of Commerce
on behalf of the United States of America. All rights reserved.
##CAS REGISTRY NO=104-88-1
##$NIST MASS SPEC NO=290771
##MOLFORM=C7 H5 Cl O
##MW=140
##$NIST SOURCE=MSDC
##XUNITS=M/Z
##YUNITS=RELATIVE INTENSITY
##XFACTOR=1
##YFACTOR=1
##FIRSTX=25
##LASTX=144
##FIRSTY=20
##MAXX=144
##MINX=25
##MAXY=9999
##MINY=10
##NPOINTS=66
##PEAK TABLE=(XY..XY)
25,20 26,60 27,80 28,20
29,360 35,40 36,60 37,360
38,400 39,150 43,40 44,10
47,40 48,60 49,410 50,2810
51,1850 52,330 53,90 54,10
56,70 57,20 60,130 61,360
62,250 63,210 64,10 69,30
71,20 72,100 73,610 74,1920
75,3310 76,970 77,1890 78,120
79,10 83,10 84,220 85,490
86,170 87,180 88,20 89,40
96,10 97,30 99,10 101,10
103,20 104,130 105,20 108,40
109,20 110,110 111,6029 112,1040
113,2020 114,330 115,20 123,10
139,9999 140,7239 141,3820 142,2390
143,180 144,10
##END=
