##TITLE=Benzene, (3-chloropropyl)-
##JCAMP-DX=4.24
##DATA TYPE=MASS SPECTRUM
##ORIGIN=Chuck Anderson, Aldrich Chemical Co.
##OWNER=NIST Mass Spectrometry Data Center
Collection (C) 2014 copyright by the U.S. Secretary of Commerce
on behalf of the United States of America. All rights reserved.
##CAS REGISTRY NO=104-52-9
##$NIST MASS SPEC NO=107669
##MOLFORM=C9 H11 Cl
##MW=154
##$NIST SOURCE=MSDC
##XUNITS=M/Z
##YUNITS=RELATIVE INTENSITY
##XFACTOR=1
##YFACTOR=1
##FIRSTX=15
##LASTX=157
##FIRSTY=6
##MAXX=157
##MINX=15
##MAXY=9999
##MINY=3
##NPOINTS=69
##PEAK TABLE=(XY..XY)
15,6 26,53 27,457 28,34
29,4 35,3 36,4 37,35
38,121 39,878 40,59 41,269
42,6 49,86 50,159 51,396
52,95 53,29 57,102 58,32
61,23 62,89 63,275 64,58
65,733 66,43 73,10 74,53
75,54 76,47 77,331 78,256
79,155 80,8 85,9 86,27
87,30 88,8 89,340 90,87
91,9999 92,4009 93,269 94,6
98,4 99,9 101,11 102,77
103,300 104,95 105,702 106,58
113,7 114,8 115,420 116,78
117,705 118,334 119,262 120,20
125,37 126,532 127,48 128,165
129,10 154,2697 155,238 156,891
157,75
##END=
