##TITLE=Benzene, 1-bromo-4-methoxy-
##JCAMP-DX=4.24
##DATA TYPE=MASS SPECTRUM
##ORIGIN=USAF ACADEMY, COLORADO SPRINGS, COLORADO 80840, J LLOYD PFLUG
##OWNER=NIST Mass Spectrometry Data Center
Collection (C) 2014 copyright by the U.S. Secretary of Commerce
on behalf of the United States of America. All rights reserved.
##CAS REGISTRY NO=104-92-7
##$NIST MASS SPEC NO=79984
##MOLFORM=C7 H7 Br O
##MW=186
##$NIST SOURCE=MSDC
##XUNITS=M/Z
##YUNITS=RELATIVE INTENSITY
##XFACTOR=1
##YFACTOR=1
##FIRSTX=14
##LASTX=190
##FIRSTY=38
##MAXX=190
##MINX=14
##MAXY=9999
##MINY=38
##NPOINTS=73
##PEAK TABLE=(XY..XY)
14,38 15,576 25,42 26,123
27,101 29,360 30,118 31,89
36,55 37,568 38,1408 39,470
41,59 46,46 49,305 50,2049
51,759 52,114 53,343 60,131
61,683 62,1395 63,4412 64,2507
65,195 66,127 73,326 74,1395
75,1264 76,937 77,1972 78,267
79,789 80,85 81,190 82,50
91,67 92,1497 93,250 94,76
95,85 104,42 105,50 106,63
107,258 116,93 117,734 118,127
119,742 128,42 129,67 130,50
131,67 142,72 143,4734 144,339
145,4645 146,288 155,360 156,296
157,365 158,263 159,42 170,76
171,4891 172,428 173,4946 174,347
186,9999 187,810 188,9894 189,789
190,55
##END=
