##TITLE=1,3-Propanediamine, N,N-diethyl-
##JCAMP-DX=4.24
##DATA TYPE=MASS SPECTRUM
##ORIGIN=Japan AIST/NIMC Database- Spectrum MS-NW- 854
##OWNER=NIST Mass Spectrometry Data Center
Collection (C) 2014 copyright by the U.S. Secretary of Commerce
on behalf of the United States of America. All rights reserved.
##CAS REGISTRY NO=104-78-9
##$NIST MASS SPEC NO=229044
##MOLFORM=C7 H18 N2
##MW=130
##$NIST SOURCE=MSDC
##XUNITS=M/Z
##YUNITS=RELATIVE INTENSITY
##XFACTOR=1
##YFACTOR=1
##FIRSTX=15
##LASTX=131
##FIRSTY=90
##MAXX=131
##MINX=15
##MAXY=9999
##MINY=10
##NPOINTS=53
##PEAK TABLE=(XY..XY)
15,90 26,60 27,439 28,789
29,659 30,2439 31,40 32,30
39,90 40,50 41,349 42,839
43,219 44,849 45,30 46,10
52,20 53,10 54,99 55,60
56,889 57,519 58,2769 59,129
67,10 68,50 69,30 70,229
71,129 72,4259 73,239 74,389
75,20 82,10 83,10 84,279
85,149 86,9999 87,629 88,10
96,10 98,329 99,50 100,349
101,259 102,20 111,10 112,30
113,519 114,40 115,80 130,979
131,90
##END=
