##TITLE=Acetamide, N-(4-nitrophenyl)-
##JCAMP-DX=4.24
##DATA TYPE=MASS SPECTRUM
##ORIGIN=Japan AIST/NIMC Database- Spectrum MS-NW-1652
##OWNER=NIST Mass Spectrometry Data Center
Collection (C) 2014 copyright by the U.S. Secretary of Commerce
on behalf of the United States of America. All rights reserved.
##CAS REGISTRY NO=104-04-1
##$NIST MASS SPEC NO=234024
##MOLFORM=C8 H8 N2 O3
##MW=180
##$NIST SOURCE=MSDC
##XUNITS=M/Z
##YUNITS=RELATIVE INTENSITY
##XFACTOR=1
##YFACTOR=1
##FIRSTX=14
##LASTX=182
##FIRSTY=60
##MAXX=182
##MINX=14
##MAXY=9999
##MINY=10
##NPOINTS=97
##PEAK TABLE=(XY..XY)
14,60 15,589 16,10 26,50
27,90 28,50 29,30 30,639
34,30 37,119 38,429 39,709
40,99 41,239 42,199 43,9729
44,219 45,50 46,10 49,20
50,339 51,239 52,399 53,209
54,60 55,50 56,10 57,60
60,20 61,109 62,259 63,889
64,779 65,2279 66,269 67,30
68,10 69,30 70,10 71,40
73,30 74,109 75,149 76,189
77,90 78,80 79,99 80,489
81,70 82,10 83,30 84,10
85,20 87,20 88,20 89,30
90,189 91,329 92,2639 93,229
94,10 95,20 96,10 97,30
98,10 103,10 104,60 105,109
106,80 107,40 108,2649 109,199
110,10 111,10 117,10 118,20
119,10 121,30 122,559 123,50
132,20 133,90 134,30 135,10
137,10 138,9999 139,749 140,70
149,10 150,50 151,20 162,20
164,50 165,70 180,3339 181,329
182,40
##END=
