##TITLE=Benzene, 1-bromo-4-(methylthio)-
##JCAMP-DX=4.24
##DATA TYPE=MASS SPECTRUM
##ORIGIN=Japan AIST/NIMC Database- Spectrum MS-IW- 819
##OWNER=NIST Mass Spectrometry Data Center
Collection (C) 2014 copyright by the U.S. Secretary of Commerce
on behalf of the United States of America. All rights reserved.
##CAS REGISTRY NO=104-95-0
##$NIST MASS SPEC NO=239538
##MOLFORM=C7 H7 Br S
##MW=202
##$NIST SOURCE=MSDC
##XUNITS=M/Z
##YUNITS=RELATIVE INTENSITY
##XFACTOR=1
##YFACTOR=1
##FIRSTX=15
##LASTX=207
##FIRSTY=10
##MAXX=207
##MINX=15
##MAXY=9999
##MINY=10
##NPOINTS=92
##PEAK TABLE=(XY..XY)
15,10 27,10 32,10 37,40
38,70 39,80 44,70 45,749
46,80 47,149 48,10 49,30
50,449 51,179 52,10 53,30
54,60 57,40 58,139 59,10
60,50 61,80 62,90 63,319
64,50 65,20 69,369 70,20
71,30 72,20 73,50 74,249
75,399 76,319 77,649 78,119
79,149 80,30 81,70 82,259
83,20 84,10 89,40 90,90
91,40 93,30 95,10 97,20
101,189 102,189 105,20 106,30
107,109 108,3499 109,279 110,169
111,10 117,30 119,20 120,20
121,239 122,749 123,659 124,109
125,30 129,10 131,10 143,30
145,30 155,70 156,639 157,109
158,629 159,40 169,649 170,50
171,639 172,40 186,30 187,2669
188,229 189,2729 190,199 191,119
199,10 201,169 202,9849 203,989
204,9999 205,849 206,459 207,30
##END=
