##TITLE=Benzene, 1,4-diisocyanato-
##JCAMP-DX=4.24
##DATA TYPE=MASS SPECTRUM
##ORIGIN=NIST Mass Spectrometry Data Center, 1998.
##OWNER=NIST Mass Spectrometry Data Center
Collection (C) 2014 copyright by the U.S. Secretary of Commerce
on behalf of the United States of America. All rights reserved.
##CAS REGISTRY NO=104-49-4
##$NIST MASS SPEC NO=290709
##MOLFORM=C8 H4 N2 O2
##MW=160
##$NIST SOURCE=MSDC
##XUNITS=M/Z
##YUNITS=RELATIVE INTENSITY
##XFACTOR=1
##YFACTOR=1
##FIRSTX=24
##LASTX=162
##FIRSTY=10
##MAXX=162
##MINX=24
##MAXY=9999
##MINY=10
##NPOINTS=64
##PEAK TABLE=(XY..XY)
24,10 25,30 26,350 27,70
28,100 29,20 36,30 37,300
38,300 39,250 40,80 41,10
42,30 43,10 44,10 48,20
49,100 50,530 51,1340 52,1590
53,880 54,1490 55,60 56,10
60,30 61,200 62,360 63,400
64,650 65,70 66,180 67,30
68,10 73,20 74,70 75,210
76,720 77,2610 78,760 79,70
80,440 81,60 86,30 87,60
88,90 89,170 90,80 91,10
99,10 100,10 101,20 102,10
103,190 104,3740 105,290 106,20
116,20 131,110 132,3660 133,300
134,20 160,9999 161,970 162,80
##END=
