##TITLE=Benzeneacetonitrile, 4-methoxy-
##JCAMP-DX=4.24
##DATA TYPE=MASS SPECTRUM
##ORIGIN=NIST Mass Spectrometry Data Center, 1998.
##OWNER=NIST Mass Spectrometry Data Center
Collection (C) 2014 copyright by the U.S. Secretary of Commerce
on behalf of the United States of America. All rights reserved.
##CAS REGISTRY NO=104-47-2
##$NIST MASS SPEC NO=291974
##MOLFORM=C9 H9 N O
##MW=147
##$NIST SOURCE=MSDC
##XUNITS=M/Z
##YUNITS=RELATIVE INTENSITY
##XFACTOR=1
##YFACTOR=1
##FIRSTX=14
##LASTX=149
##FIRSTY=10
##MAXX=149
##MINX=14
##MAXY=9999
##MINY=10
##NPOINTS=92
##PEAK TABLE=(XY..XY)
14,10 15,140 26,100 27,200
28,50 29,100 30,20 31,20
37,130 38,380 39,830 40,100
41,170 42,20 43,40 44,10
45,10 48,10 49,120 50,1610
51,2530 52,840 53,400 54,90
55,100 56,10 58,20 60,20
61,280 62,750 63,1820 64,710
65,470 66,110 67,20 68,20
73,90 74,400 75,640 76,1540
77,5749 78,1600 79,470 80,40
81,10 84,10 85,60 86,110
87,160 88,270 89,1420 90,1060
91,1710 92,580 93,50 94,10
95,10 98,10 99,30 100,20
101,20 102,600 103,770 104,2330
105,440 106,150 107,2810 108,230
109,20 111,20 112,10 114,160
115,180 116,2640 117,1080 118,630
119,660 120,560 121,740 122,60
128,20 129,20 130,80 131,70
132,4310 133,390 134,20 144,20
146,4420 147,9999 148,1010 149,70
##END=
