##TITLE=Benzenemethanol, 4-methoxy-, acetate
##JCAMP-DX=4.24
##DATA TYPE=MASS SPECTRUM
##ORIGIN=Japan AIST/NIMC Database- Spectrum MS-NW-4017
##OWNER=NIST Mass Spectrometry Data Center
Collection (C) 2014 copyright by the U.S. Secretary of Commerce
on behalf of the United States of America. All rights reserved.
##CAS REGISTRY NO=104-21-2
##$NIST MASS SPEC NO=232282
##MOLFORM=C10 H12 O3
##MW=180
##$NIST SOURCE=MSDC
##XUNITS=M/Z
##YUNITS=RELATIVE INTENSITY
##XFACTOR=1
##YFACTOR=1
##FIRSTX=13
##LASTX=182
##FIRSTY=10
##MAXX=182
##MINX=13
##MAXY=9999
##MINY=10
##NPOINTS=83
##PEAK TABLE=(XY..XY)
13,10 14,70 15,409 17,10
18,40 26,50 27,90 28,179
29,90 30,10 31,30 32,40
37,30 38,119 39,429 40,70
41,119 42,99 43,1859 44,50
45,50 49,20 50,279 51,599
52,359 53,119 54,10 55,90
60,40 61,30 62,99 63,339
64,259 65,329 66,179 67,40
68,20 69,10 73,10 74,70
75,50 76,109 77,1559 78,1029
79,229 80,20 81,20 86,10
87,10 88,10 89,459 90,539
91,1799 92,589 93,80 94,359
95,80 96,10 102,20 103,20
104,10 105,559 106,249 107,359
108,70 109,809 110,70 118,20
119,399 120,3769 121,9999 122,1009
123,90 124,10 135,279 136,90
137,639 138,1679 139,159 140,10
180,3979 181,459 182,50
##END=
