##TITLE=Ethanol, 2-(2-phenoxyethoxy)-
##JCAMP-DX=4.24
##DATA TYPE=MASS SPECTRUM
##OWNER=NIST Mass Spectrometry Data Center
Collection (C) 2014 copyright by the U.S. Secretary of Commerce
on behalf of the United States of America. All rights reserved.
##CAS REGISTRY NO=104-68-7
##$NIST MASS SPEC NO=7631
##MOLFORM=C10 H14 O3
##MW=182
##$NIST SOURCE=MSDC
##XUNITS=M/Z
##YUNITS=RELATIVE INTENSITY
##XFACTOR=1
##YFACTOR=1
##FIRSTX=15
##LASTX=184
##FIRSTY=100
##MAXX=184
##MINX=15
##MAXY=9999
##MINY=10
##NPOINTS=82
##PEAK TABLE=(XY..XY)
15,100 17,40 18,230 19,220
26,30 27,420 28,861 29,260
30,30 31,350 32,200 37,20
38,110 39,701 40,100 41,60
42,40 43,400 44,771 45,9999
46,230 47,20 50,180 51,811
52,80 53,50 55,100 57,50
58,80 59,240 60,20 61,50
62,50 63,180 64,100 65,1101
66,410 67,30 70,30 71,40
73,160 74,70 75,250 76,90
77,3213 78,390 79,300 80,20
86,60 87,40 88,571 89,941
90,50 91,310 92,70 93,450
94,5515 95,641 96,50 103,170
104,20 105,20 107,420 108,200
109,20 112,40 119,70 120,390
121,1371 122,120 128,20 133,70
138,130 139,10 151,220 152,40
164,100 165,20 180,20 182,2612
183,300 184,40
##END=
