##TITLE=1-Hexanol, 2-ethyl-
##JCAMP-DX=4.24
##DATA TYPE=MASS SPECTRUM
##OWNER=NIST Mass Spectrometry Data Center
Collection (C) 2014 copyright by the U.S. Secretary of Commerce
on behalf of the United States of America. All rights reserved.
##CAS REGISTRY NO=104-76-7
##$NIST MASS SPEC NO=2838
##MOLFORM=C8 H18 O
##MW=130
##$NIST SOURCE=MSDC
##XUNITS=M/Z
##YUNITS=RELATIVE INTENSITY
##XFACTOR=1
##YFACTOR=1
##FIRSTX=13
##LASTX=113
##FIRSTY=10
##MAXX=113
##MINX=13
##MAXY=9999
##MINY=10
##NPOINTS=67
##PEAK TABLE=(XY..XY)
13,10 14,40 15,280 16,20
17,10 18,40 19,50 25,10
26,160 27,2292 28,520 29,2793
30,100 31,1541 32,20 33,20
37,30 38,80 39,1301 40,240
41,4024 42,861 43,3813 44,210
45,190 46,10 50,50 51,100
52,50 53,300 54,200 55,2542
56,2062 57,9999 58,460 59,120
60,10 62,20 63,30 65,40
66,20 67,130 68,160 69,991
70,1832 71,420 72,90 73,20
77,20 78,10 79,20 81,40
82,210 83,1692 84,631 85,60
86,10 87,10 95,10 97,80
98,611 99,130 100,20 101,10
111,10 112,290 113,30
##END=
