##TITLE=Benzene, 1-(chloromethyl)-4-methyl-
##JCAMP-DX=4.24
##DATA TYPE=MASS SPECTRUM
##OWNER=NIST Mass Spectrometry Data Center
Collection (C) 2014 copyright by the U.S. Secretary of Commerce
on behalf of the United States of America. All rights reserved.
##CAS REGISTRY NO=104-82-5
##$NIST MASS SPEC NO=3727
##MOLFORM=C8 H9 Cl
##MW=140
##$NIST SOURCE=MSDC
##XUNITS=M/Z
##YUNITS=RELATIVE INTENSITY
##XFACTOR=1
##YFACTOR=1
##FIRSTX=15
##LASTX=143
##FIRSTY=10
##MAXX=143
##MINX=15
##MAXY=9999
##MINY=10
##NPOINTS=78
##PEAK TABLE=(XY..XY)
15,10 26,30 27,290 28,20
29,10 35,10 36,10 37,40
38,120 39,460 40,50 41,50
43,20 44,20 49,50 50,360
51,1291 52,270 53,150 54,10
55,10 57,10 58,10 60,10
61,60 62,150 63,360 64,80
65,190 66,30 68,30 69,400
70,130 73,60 74,120 75,120
76,100 77,1221 78,420 79,981
80,60 81,10 84,10 85,20
86,30 87,40 88,10 89,160
90,50 91,320 92,40 97,10
98,20 99,30 101,40 102,130
103,971 104,430 105,9999 106,911
107,40 111,10 112,10 115,20
117,50 118,70 119,50 120,30
125,260 126,20 127,90 128,10
138,40 139,200 140,2542 141,300
142,761 143,70
##END=
