##TITLE=2(3H)-Furanone, 5-heptyldihydro-
##JCAMP-DX=4.24
##DATA TYPE=MASS SPECTRUM
##OWNER=NIST Mass Spectrometry Data Center
Collection (C) 2014 copyright by the U.S. Secretary of Commerce
on behalf of the United States of America. All rights reserved.
##CAS REGISTRY NO=104-67-6
##$NIST MASS SPEC NO=7793
##MOLFORM=C11 H20 O2
##MW=184
##$NIST SOURCE=MSDC
##XUNITS=M/Z
##YUNITS=RELATIVE INTENSITY
##XFACTOR=1
##YFACTOR=1
##FIRSTX=15
##LASTX=184
##FIRSTY=10
##MAXX=184
##MINX=15
##MAXY=9999
##MINY=10
##NPOINTS=77
##PEAK TABLE=(XY..XY)
15,10 26,30 27,701 28,540
29,1651 30,40 31,20 39,360
40,80 41,1371 42,360 43,941
44,30 45,30 52,20 53,120
54,190 55,1151 56,1001 57,931
58,110 59,30 60,80 65,30
67,240 68,260 69,621 70,330
71,160 72,190 73,160 74,30
79,30 81,180 82,270 83,260
84,550 85,9999 86,480 87,110
95,140 96,220 97,140 98,160
99,80 100,490 101,200 109,80
110,180 111,90 112,60 113,90
114,330 115,40 116,30 119,50
122,160 123,110 124,250 125,200
126,30 127,230 128,1041 129,110
133,20 137,70 138,30 141,40
142,40 148,90 151,20 155,30
156,10 166,110 167,20 183,10
184,20
##END=
