##TITLE=Cyclohexanone,2-chloro-2-methyl-
##JCAMP-DX=4.24
##DATA TYPE=MASS SPECTRUM
##ORIGIN=H. Luftmann, Org. Chem. Inst., Westfalisch Wilhelms Univ., Munster, Germany
##OWNER=NIST Mass Spectrometry Data Center
Collection (C) 2014 copyright by the U.S. Secretary of Commerce
on behalf of the United States of America. All rights reserved.
##CAS REGISTRY NO=10409-46-8
##$NIST MASS SPEC NO=115250
##MOLFORM=C7 H11 Cl O
##MW=146
##$NIST SOURCE=MSDC
##XUNITS=M/Z
##YUNITS=RELATIVE INTENSITY
##XFACTOR=1
##YFACTOR=1
##FIRSTX=36
##LASTX=148
##FIRSTY=200
##MAXX=148
##MINX=36
##MAXY=9999
##MINY=100
##NPOINTS=47
##PEAK TABLE=(XY..XY)
36,200 37,100 38,300 39,2200
40,500 41,3000 42,1400 43,600
44,100 50,100 51,200 52,100
53,800 54,800 55,4400 56,500
57,100 62,100 65,100 66,100
67,2600 68,2500 69,500 70,200
75,200 76,1100 77,200 78,400
79,100 81,100 82,800 83,1000
84,200 89,800 90,100 91,300
95,100 102,9999 103,600 104,3200
105,100 110,500 111,400 112,200
146,1700 147,100 148,500
##END=
