##TITLE=trans--4-Nonene
##JCAMP-DX=4.24
##DATA TYPE=MASS SPECTRUM
##ORIGIN=NIST Mass Spectrometry Data Center, 1990.
##OWNER=NIST Mass Spectrometry Data Center
Collection (C) 2014 copyright by the U.S. Secretary of Commerce
on behalf of the United States of America. All rights reserved.
##CAS REGISTRY NO=10405-85-3
##$NIST MASS SPEC NO=113512
##MOLFORM=C9 H18
##MW=126
##$NIST SOURCE=MSDC
##XUNITS=M/Z
##YUNITS=RELATIVE INTENSITY
##XFACTOR=1
##YFACTOR=1
##FIRSTX=15
##LASTX=127
##FIRSTY=72
##MAXX=127
##MINX=15
##MAXY=9999
##MINY=45
##NPOINTS=38
##PEAK TABLE=(XY..XY)
15,72 27,1658 28,526 29,1281
32,74 39,2290 41,5190 42,1549
43,1447 44,99 50,114 51,315
52,185 53,847 54,1233 55,9999
56,3781 57,642 63,65 65,282
66,123 67,987 68,403 69,2813
70,2709 71,497 77,202 78,45
79,204 81,197 82,266 83,1302
84,900 85,137 97,1059 98,332
126,2082 127,200
##END=
