##TITLE=2-Bromo-5-nitroaniline
##JCAMP-DX=4.24
##DATA TYPE=MASS SPECTRUM
##ORIGIN=NIST Mass Spectrometry Data Center, 1994
##OWNER=NIST Mass Spectrometry Data Center
Collection (C) 2014 copyright by the U.S. Secretary of Commerce
on behalf of the United States of America. All rights reserved.
##CAS REGISTRY NO=10403-47-1
##$NIST MASS SPEC NO=136147
##MOLFORM=C6 H5 Br N2 O2
##MW=216
##$NIST SOURCE=MSDC
##XUNITS=M/Z
##YUNITS=RELATIVE INTENSITY
##XFACTOR=1
##YFACTOR=1
##FIRSTX=5
##LASTX=220
##FIRSTY=28
##MAXX=220
##MINX=5
##MAXY=9999
##MINY=10
##NPOINTS=116
##PEAK TABLE=(XY..XY)
5,28 9,20 11,14 12,40
16,99 17,31 18,35 24,23
25,71 26,61 27,14 28,795
29,14 30,2026 35,22 36,110
37,1013 38,1696 39,1152 40,472
41,1275 42,62 44,106 45,177
46,708 48,36 49,240 50,573
51,1084 52,5210 53,546 54,108
55,28 60,208 61,1430 62,2406
63,5511 64,2972 65,1387 66,192
67,40 68,33 73,136 74,271
75,274 76,240 77,119 78,764
79,660 80,189 81,149 82,90
86,103 87,170 88,253 89,615
90,9999 91,5977 92,437 93,99
94,24 95,46 103,18 104,53
105,99 106,207 107,609 108,115
109,259 110,26 115,29 116,60
117,331 118,82 119,374 120,82
121,85 122,18 128,24 130,41
131,101 132,80 133,98 134,25
137,120 140,16 141,43 143,1547
144,185 145,1449 146,114 155,23
156,26 158,2304 159,214 160,2386
161,146 170,3241 171,465 172,3285
173,249 174,22 184,17 186,1084
187,96 188,1024 189,88 190,56
200,66 201,10 202,74 216,6058
217,516 218,5525 219,386 220,43
##END=
