##TITLE=cis-4-Nonene
##JCAMP-DX=4.24
##DATA TYPE=MASS SPECTRUM
##ORIGIN=NIST Mass Spectrometry Data Center, 1990.
##OWNER=NIST Mass Spectrometry Data Center
Collection (C) 2014 copyright by the U.S. Secretary of Commerce
on behalf of the United States of America. All rights reserved.
##CAS REGISTRY NO=10405-84-2
##$NIST MASS SPEC NO=113507
##MOLFORM=C9 H18
##MW=126
##$NIST SOURCE=MSDC
##XUNITS=M/Z
##YUNITS=RELATIVE INTENSITY
##XFACTOR=1
##YFACTOR=1
##FIRSTX=26
##LASTX=127
##FIRSTY=167
##MAXX=127
##MINX=26
##MAXY=9999
##MINY=103
##NPOINTS=35
##PEAK TABLE=(XY..XY)
26,167 27,1633 28,561 29,1282
39,2656 41,5738 42,1861 43,1518
50,141 51,368 52,227 53,1128
54,1321 55,9999 56,4201 57,726
63,103 65,346 66,163 67,1241
68,471 69,3160 70,3001 71,517
77,238 79,238 81,229 82,312
83,1286 84,977 85,154 97,1162
98,360 126,2250 127,230
##END=
