##TITLE=Benzeneethanol, .beta.-methyl-, acetate
##JCAMP-DX=4.24
##DATA TYPE=MASS SPECTRUM
##ORIGIN=RADIAN CORP
##OWNER=NIST Mass Spectrometry Data Center
Collection (C) 2014 copyright by the U.S. Secretary of Commerce
on behalf of the United States of America. All rights reserved.
##CAS REGISTRY NO=10402-52-5
##$NIST MASS SPEC NO=76341
##MOLFORM=C11 H14 O2
##MW=178
##$NIST SOURCE=MSDC
##XUNITS=M/Z
##YUNITS=RELATIVE INTENSITY
##XFACTOR=1
##YFACTOR=1
##FIRSTX=27
##LASTX=120
##FIRSTY=100
##MAXX=120
##MINX=27
##MAXY=9999
##MINY=10
##NPOINTS=45
##PEAK TABLE=(XY..XY)
27,100 29,60 31,10 38,30
39,440 40,30 41,200 42,130
43,5110 44,150 45,30 50,210
51,690 52,190 53,110 62,70
63,270 64,50 65,340 66,20
73,270 74,80 75,80 76,120
77,1670 78,860 79,1150 80,70
89,160 90,40 91,1130 92,100
101,10 102,180 103,1500 104,660
105,8940 106,850 107,50 115,310
116,90 117,1930 118,9999 119,1080
120,70
##END=
