##TITLE=Primidone di-methyl derivative
##JCAMP-DX=4.24
##DATA TYPE=MASS SPECTRUM
##ORIGIN=Association of Official Racing Chemists
##OWNER=NIST Mass Spectrometry Data Center
Collection (C) 2014 copyright by the U.S. Secretary of Commerce
on behalf of the United States of America. All rights reserved.
##CAS REGISTRY NO=104169-76-8
##$NIST MASS SPEC NO=137137
##MOLFORM=C14 H18 N2 O2
##MW=246
##$NIST SOURCE=MSDC
##XUNITS=M/Z
##YUNITS=RELATIVE INTENSITY
##XFACTOR=1
##YFACTOR=1
##FIRSTX=47
##LASTX=247
##FIRSTY=25
##MAXX=247
##MINX=47
##MAXY=9999
##MINY=9
##NPOINTS=127
##PEAK TABLE=(XY..XY)
47,25 50,274 51,842 52,213
53,118 54,67 55,97 56,294
57,99 58,547 59,80 60,29
61,38 62,203 63,765 64,168
65,499 66,134 68,31 69,139
70,96 71,74 72,71 73,34
74,76 75,156 76,280 77,1713
78,506 79,126 81,149 82,62
83,13 84,37 85,61 86,46
87,101 89,1477 90,512 91,1932
92,166 93,25 95,101 96,89
97,73 98,44 99,56 100,37
101,73 102,413 103,1926 104,366
105,190 106,43 107,46 108,63
109,40 110,62 111,32 112,9
113,60 115,2087 116,676 117,5752
118,3844 119,461 120,134 125,85
126,72 127,46 128,94 129,204
130,143 131,539 132,219 133,157
134,34 139,24 140,39 141,74
142,52 143,54 144,170 146,9999
147,1241 148,261 149,49 153,990
154,108 155,60 156,29 158,551
159,136 160,303 161,66 162,61
168,377 169,284 170,42 172,47
173,125 174,655 175,1012 176,404
177,60 186,45 187,176 188,1585
189,511 190,74 191,10 200,46
201,46 203,940 204,130 208,29
213,32 215,64 217,4119 218,9614
219,1379 220,135 231,292 232,65
245,357 246,933 247,157
##END=
