##TITLE=Phosphonic acid, (2-chloroethyl)-, diethyl ester
##JCAMP-DX=4.24
##DATA TYPE=MASS SPECTRUM
##OWNER=NIST Mass Spectrometry Data Center
Collection (C) 2014 copyright by the U.S. Secretary of Commerce
on behalf of the United States of America. All rights reserved.
##CAS REGISTRY NO=10419-79-1
##$NIST MASS SPEC NO=29295
##MOLFORM=C6 H14 Cl O3 P
##MW=200
##$NIST SOURCE=MSDC
##XUNITS=M/Z
##YUNITS=RELATIVE INTENSITY
##XFACTOR=1
##YFACTOR=1
##FIRSTX=26
##LASTX=201
##FIRSTY=515
##MAXX=201
##MINX=26
##MAXY=9999
##MINY=86
##NPOINTS=53
##PEAK TABLE=(XY..XY)
26,515 27,4549 28,2274 29,4635
30,172 31,515 36,300 41,300
43,815 44,343 45,2575 47,944
62,429 63,429 64,86 65,2961
81,5064 82,3304 83,2360 91,3905
92,429 93,1116 99,1759 100,2060
101,644 102,772 108,300 109,6308
110,1802 111,3648 117,1717 119,901
127,5836 128,1287 129,2146 130,515
137,1717 138,9999 139,601 145,8154
146,300 147,2875 155,901 156,343
157,429 165,7725 166,515 167,86
171,429 173,4721 175,1588 199,129
201,86
##END=
