##TITLE=cis-5,8,11,14,17-Eicosapentaenoic acid
##JCAMP-DX=4.24
##DATA TYPE=MASS SPECTRUM
##ORIGIN=NIST Mass Spectrometry Data Center
##OWNER=NIST Mass Spectrometry Data Center
Collection (C) 2014 copyright by the U.S. Secretary of Commerce
on behalf of the United States of America. All rights reserved.
##CAS REGISTRY NO=10417-94-4
##$NIST MASS SPEC NO=333529
##MOLFORM=C20 H30 O2
##MW=302
##$NIST SOURCE=MSDC
##XUNITS=M/Z
##YUNITS=RELATIVE INTENSITY
##XFACTOR=1
##YFACTOR=1
##FIRSTX=15
##LASTX=304
##FIRSTY=10
##MAXX=304
##MINX=15
##MAXY=9999
##MINY=10
##NPOINTS=234
##PEAK TABLE=(XY..XY)
15,10 26,20 27,480 28,80
29,781 30,20 31,30 36,10
37,10 38,40 39,1201 40,220
41,5515 42,500 43,1631 44,50
45,450 46,10 47,20 49,10
50,70 51,360 52,250 53,1571
54,1001 55,5465 56,781 57,1001
58,110 59,190 60,1191 61,90
62,30 63,120 64,50 65,1581
66,1341 67,5995 68,911 69,2022
70,581 71,611 72,50 73,540
74,100 75,100 77,3663 78,1922
79,9999 80,3553 81,2552 82,891
83,1231 84,561 85,430 86,50
87,170 88,130 89,70 91,7737
92,2112 93,4934 94,1541 95,1862
96,651 97,991 98,460 99,170
100,90 101,160 102,100 103,430
104,831 105,3994 106,2272 107,1702
108,2082 109,761 110,380 111,460
112,170 113,140 114,150 115,631
116,250 117,1892 118,540 119,3143
120,1011 121,791 122,561 123,350
124,180 125,230 126,130 127,240
128,290 129,611 130,310 131,1341
132,380 133,1611 134,520 135,490
136,210 137,180 138,140 139,130
140,90 141,160 142,80 143,210
144,100 145,741 146,280 147,771
148,450 149,240 150,100 151,130
152,150 153,110 154,50 155,90
156,30 157,170 158,60 159,400
160,160 161,360 162,210 163,90
164,40 165,120 166,671 167,150
168,50 169,90 170,30 171,140
172,30 173,280 174,110 175,320
176,70 177,70 178,60 179,100
180,170 181,70 182,30 183,60
184,20 185,60 186,30 187,140
188,80 189,50 190,20 191,60
192,60 193,100 194,80 195,40
196,20 197,50 198,10 199,40
200,20 201,120 202,40 203,30
204,20 205,60 206,180 207,70
208,50 209,20 210,10 211,10
212,10 213,30 214,10 215,110
216,20 217,40 218,20 219,50
220,90 221,60 222,50 223,30
224,10 225,10 227,20 228,10
229,20 230,10 231,20 232,20
233,90 234,40 235,40 236,30
237,20 241,20 242,10 243,10
245,30 246,20 247,10 248,70
249,40 250,40 251,10 255,10
256,10 259,30 260,10 261,10
263,20 264,30 265,10 273,50
274,20 275,10 278,10 280,10
287,10 292,120 293,30 294,10
302,10 304,10
##END=
