##TITLE=Octanoic acid, TBDMS derivative
##JCAMP-DX=4.24
##DATA TYPE=MASS SPECTRUM
##ORIGIN=NIST Mass Spectrometry Data Center
##OWNER=NIST Mass Spectrometry Data Center
Collection (C) 2014 copyright by the U.S. Secretary of Commerce
on behalf of the United States of America. All rights reserved.
##CAS REGISTRY NO=104255-72-3
##$NIST MASS SPEC NO=352379
##MOLFORM=C14 H30 O2 Si
##MW=258
##$NIST SOURCE=MSDC
##XUNITS=M/Z
##YUNITS=RELATIVE INTENSITY
##XFACTOR=1
##YFACTOR=1
##FIRSTX=15
##LASTX=257
##FIRSTY=10
##MAXX=257
##MINX=15
##MAXY=9999
##MINY=10
##NPOINTS=116
##PEAK TABLE=(XY..XY)
15,10 26,10 27,150 28,50
29,380 30,10 31,10 39,160
40,40 41,651 42,110 43,410
44,30 45,250 46,20 47,240
48,10 49,10 51,10 53,40
54,20 55,350 56,80 57,400
58,150 59,230 60,70 61,140
62,10 63,10 65,10 67,310
68,30 69,60 70,20 71,20
72,120 73,1121 74,250 75,5095
76,410 77,230 78,10 79,20
81,70 82,10 83,60 84,20
85,80 86,90 87,40 88,40
89,20 93,10 95,20 97,50
98,30 99,130 100,20 101,130
102,30 103,30 105,220 106,20
107,40 109,230 110,20 111,10
113,10 114,60 115,410 116,290
117,611 118,80 119,50 125,30
126,10 127,60 129,1201 130,180
131,1822 132,200 133,100 134,10
141,10 142,10 143,70 144,10
145,20 155,10 157,70 158,20
159,40 160,10 171,110 172,20
173,10 183,10 185,20 187,40
188,10 199,30 201,9999 202,2202
203,671 204,70 205,10 213,10
215,10 227,10 229,10 241,10
243,270 244,50 245,20 257,10
##END=
