##TITLE=1,3-Hexadien-5-yne
##JCAMP-DX=4.24
##DATA TYPE=MASS SPECTRUM
##OWNER=NIST Mass Spectrometry Data Center
Collection (C) 2014 copyright by the U.S. Secretary of Commerce
on behalf of the United States of America. All rights reserved.
##CAS REGISTRY NO=10420-90-3
##$NIST MASS SPEC NO=389
##MOLFORM=C6 H6
##MW=78
##$NIST SOURCE=MSDC
##XUNITS=M/Z
##YUNITS=RELATIVE INTENSITY
##XFACTOR=1
##YFACTOR=1
##FIRSTX=24
##LASTX=79
##FIRSTY=30
##MAXX=79
##MINX=24
##MAXY=9999
##MINY=10
##NPOINTS=41
##PEAK TABLE=(XY..XY)
24,30 25,130 26,891 27,621
28,280 29,40 30,30 31,30
36,50 37,400 38,651 39,2082
40,120 41,50 42,40 43,140
44,60 45,20 48,40 49,1441
50,2722 51,3023 52,4104 53,330
54,40 58,50 60,20 61,120
62,210 63,711 64,50 65,10
66,10 72,20 73,260 74,841
75,340 76,711 77,2312 78,9999
79,711
##END=
