##TITLE=2-Butenedioic acid, (Z)-, 2TBDMS derivative
##JCAMP-DX=4.24
##DATA TYPE=MASS SPECTRUM
##ORIGIN=NIST Mass Spectrometry Data Center
##OWNER=NIST Mass Spectrometry Data Center
Collection (C) 2014 copyright by the U.S. Secretary of Commerce
on behalf of the United States of America. All rights reserved.
##CAS REGISTRY NO=104255-92-7
##$NIST MASS SPEC NO=333771
##MOLFORM=C16 H32 O4 Si2
##MW=344
##$NIST SOURCE=MSDC
##XUNITS=M/Z
##YUNITS=RELATIVE INTENSITY
##XFACTOR=1
##YFACTOR=1
##FIRSTX=15
##LASTX=343
##FIRSTY=10
##MAXX=343
##MINX=15
##MAXY=9999
##MINY=10
##NPOINTS=165
##PEAK TABLE=(XY..XY)
15,10 26,20 27,60 28,30
29,370 30,10 31,30 39,180
40,50 41,931 42,70 43,240
44,60 45,721 46,50 47,350
48,20 49,10 51,20 52,20
53,100 54,250 55,380 56,230
57,1571 58,581 59,861 60,150
61,180 62,10 63,10 64,10
66,60 67,30 68,40 69,140
70,30 71,50 73,9088 74,1071
75,2202 76,150 77,90 78,10
79,10 80,10 81,20 82,230
83,400 84,771 85,310 86,60
87,40 88,10 89,30 91,10
95,20 96,10 97,40 98,20
99,340 100,70 101,60 102,20
103,90 104,20 105,40 106,10
107,10 108,10 109,10 110,10
111,20 112,20 113,310 114,120
115,1111 116,150 117,490 118,90
119,160 120,20 121,10 125,10
126,10 127,40 128,510 129,160
130,40 131,140 132,380 133,1822
134,280 135,210 136,20 137,10
139,10 141,10 142,10 143,380
144,70 145,80 147,5555 148,951
149,591 150,70 151,30 155,90
156,320 157,190 158,50 159,270
160,50 161,30 162,10 169,10
170,20 171,20 173,410 174,70
175,30 176,60 177,10 183,10
185,40 186,10 187,50 188,20
189,530 190,110 191,50 192,10
197,300 198,60 199,20 201,20
202,20 203,40 204,10 213,320
214,50 215,40 216,10 229,10
230,110 231,30 232,10 233,10
243,10 245,70 246,10 247,10
259,10 272,20 287,9999 288,3914
289,1672 290,270 291,50 292,10
329,741 330,200 331,80 332,10
343,10
##END=
