##TITLE=Androstane-3,17-diol, (3.alpha.,5.alpha.,17.beta.)-, 2TMS derivative
##JCAMP-DX=4.24
##DATA TYPE=MASS SPECTRUM
##ORIGIN=NIST Mass Spectrometry Data Center
##OWNER=NIST Mass Spectrometry Data Center
Collection (C) 2014 copyright by the U.S. Secretary of Commerce
on behalf of the United States of America. All rights reserved.
##CAS REGISTRY NO=10426-36-5
##$NIST MASS SPEC NO=332978
##MOLFORM=C25 H48 O2 Si2
##MW=436
##$NIST SOURCE=MSDC
##XUNITS=M/Z
##YUNITS=RELATIVE INTENSITY
##XFACTOR=1
##YFACTOR=1
##FIRSTX=15
##LASTX=440
##FIRSTY=10
##MAXX=440
##MINX=15
##MAXY=9999
##MINY=10
##NPOINTS=274
##PEAK TABLE=(XY..XY)
15,10 26,10 27,30 29,130
31,10 38,10 39,80 40,20
41,691 42,50 43,440 44,110
45,761 46,50 47,330 48,20
49,10 50,10 51,20 52,10
53,290 54,80 55,1712 56,90
57,180 58,90 59,671 60,160
61,761 62,50 63,30 65,140
67,1742 68,280 69,571 70,70
71,80 73,9999 74,1031 75,8338
76,601 77,871 78,140 79,1992
80,330 81,2502 82,230 83,410
84,50 85,220 86,30 87,120
88,50 89,310 91,2132 92,450
93,2692 94,861 95,2082 96,260
97,310 98,40 99,210 101,1271
102,140 103,340 104,140 105,2012
106,1131 107,2833 108,861 109,1131
110,140 111,130 112,20 113,180
115,1271 116,1441 117,1361 118,360
119,1291 120,741 121,1471 122,510
123,540 124,80 125,70 126,20
127,150 129,8378 130,2652 131,1571
132,390 133,1451 134,681 135,1361
136,280 137,130 138,30 139,40
140,20 141,150 142,340 143,470
144,200 145,1301 146,581 147,2052
148,2612 149,2022 150,330 151,130
152,20 153,40 154,10 155,420
156,190 157,290 158,170 159,961
160,621 161,1291 162,941 163,420
164,70 165,70 166,10 167,80
168,70 169,240 170,70 171,220
172,100 173,671 174,390 175,561
176,180 177,60 178,20 179,30
180,20 181,170 182,190 183,310
184,80 185,540 186,170 187,490
188,220 189,150 190,80 191,100
192,20 193,30 194,20 195,120
196,270 197,120 198,50 199,721
200,260 201,1131 202,450 203,450
205,20 207,20 208,20 209,230
210,80 211,50 212,10 213,931
214,390 215,3593 216,961 217,2052
218,350 219,40 220,10 221,40
222,20 223,80 224,30 225,40
226,20 227,260 228,581 229,290
230,500 231,90 232,10 233,10
235,30 236,30 237,130 238,160
239,110 241,5975 242,1181 243,140
244,20 245,10 247,30 248,10
249,20 250,30 251,30 252,10
253,20 255,1511 256,3413 257,751
258,80 261,20 262,10 263,40
264,30 265,10 266,10 271,10
272,10 273,10 276,10 277,40
278,20 279,10 287,20 289,140
290,40 291,70 292,100 293,20
294,10 303,30 304,170 305,190
306,80 307,30 308,10 313,10
314,10 315,10 317,30 318,310
319,140 320,60 321,20 329,10
331,1922 332,540 333,160 334,30
345,520 346,1631 347,470 348,120
349,10 351,10 379,90 380,30
381,10 408,10 419,10 421,881
422,330 423,120 424,20 425,10
434,10 436,1281 437,490 438,180
439,40 440,10
##END=
