##TITLE=Pentadecanoic acid, TBDMS derivative
##JCAMP-DX=4.24
##DATA TYPE=MASS SPECTRUM
##ORIGIN=NIST Mass Spectrometry Data Center
##OWNER=NIST Mass Spectrometry Data Center
Collection (C) 2014 copyright by the U.S. Secretary of Commerce
on behalf of the United States of America. All rights reserved.
##CAS REGISTRY NO=104255-80-3
##$NIST MASS SPEC NO=352554
##MOLFORM=C21 H44 O2 Si
##MW=356
##$NIST SOURCE=MSDC
##XUNITS=M/Z
##YUNITS=RELATIVE INTENSITY
##XFACTOR=1
##YFACTOR=1
##FIRSTX=27
##LASTX=357
##FIRSTY=50
##MAXX=357
##MINX=27
##MAXY=9999
##MINY=10
##NPOINTS=142
##PEAK TABLE=(XY..XY)
27,50 29,170 39,60 40,20
41,500 42,100 43,681 44,30
45,90 46,10 47,80 53,30
54,30 55,420 56,110 57,440
58,90 59,130 60,40 61,80
62,10 65,10 67,130 68,20
69,210 70,40 71,80 72,60
73,1001 74,150 75,3533 76,260
77,160 78,10 79,40 80,10
81,190 82,20 83,150 84,30
85,80 86,50 87,30 88,20
89,10 91,10 93,40 94,10
95,260 96,30 97,100 98,40
99,110 100,20 101,70 102,30
103,40 105,150 106,10 107,30
109,90 110,10 111,40 112,10
113,10 114,90 115,350 116,380
117,1171 118,150 119,60 121,20
123,30 125,10 127,10 129,2092
130,260 131,1101 132,120 133,50
135,20 137,10 139,10 141,10
142,10 143,110 144,20 145,20
149,10 155,20 157,60 158,20
159,50 160,10 167,10 169,10
171,280 172,40 173,20 174,10
175,10 181,10 185,150 186,20
187,100 188,20 189,10 199,50
200,10 201,10 213,50 214,10
215,10 225,10 227,50 228,10
229,10 241,20 242,10 243,20
255,40 256,10 257,10 269,20
283,10 285,10 297,50 299,9999
300,2803 301,751 302,110 303,10
311,10 313,10 325,10 339,10
341,170 342,50 343,10 355,10
356,20 357,10
##END=
