##TITLE=Behenic acid, TBDMS derivative
##JCAMP-DX=4.24
##DATA TYPE=MASS SPECTRUM
##ORIGIN=NIST Mass Spectrometry Data Center
##OWNER=NIST Mass Spectrometry Data Center
Collection (C) 2014 copyright by the U.S. Secretary of Commerce
on behalf of the United States of America. All rights reserved.
##CAS REGISTRY NO=104255-84-7
##$NIST MASS SPEC NO=333110
##MOLFORM=C28 H58 O2 Si
##MW=454
##$NIST SOURCE=MSDC
##XUNITS=M/Z
##YUNITS=RELATIVE INTENSITY
##XFACTOR=1
##YFACTOR=1
##FIRSTX=27
##LASTX=455
##FIRSTY=60
##MAXX=455
##MINX=27
##MAXY=9999
##MINY=10
##NPOINTS=185
##PEAK TABLE=(XY..XY)
27,60 28,10 29,220 30,10
31,10 39,90 40,20 41,771
42,190 43,1631 44,50 45,100
46,10 47,90 48,10 50,10
51,10 53,50 54,60 55,911
56,280 57,1341 58,150 59,180
60,40 61,100 62,10 63,10
65,10 67,200 68,40 69,380
70,90 71,330 72,80 73,1491
74,190 75,4364 76,310 77,200
78,10 79,50 80,10 81,250
82,40 83,280 84,50 85,180
86,60 87,40 88,20 89,20
91,20 93,70 94,10 95,300
96,30 97,210 98,60 99,130
100,20 101,70 102,30 103,40
104,10 105,130 106,10 107,40
108,10 109,110 110,10 111,90
112,20 113,30 114,90 115,350
116,390 117,1491 118,180 119,70
120,10 121,40 122,10 123,40
124,10 125,30 126,10 127,20
129,2342 130,290 131,851 132,100
133,40 134,10 135,30 137,10
139,10 141,10 142,10 143,120
144,20 145,30 149,10 151,10
153,10 154,10 155,20 156,10
157,60 158,20 159,60 160,10
163,10 167,10 169,10 171,370
172,60 173,30 174,10 175,40
176,10 177,10 181,10 185,240
186,40 187,210 188,30 189,10
199,60 200,10 201,20 213,70
214,10 215,10 227,100 228,20
229,20 241,90 242,20 243,30
255,90 256,20 257,10 269,80
270,20 271,10 283,70 284,20
285,10 297,60 298,10 299,10
311,40 312,10 313,10 323,10
325,20 326,10 327,10 339,20
341,10 353,40 354,10 355,10
367,10 369,10 381,20 382,10
383,10 395,70 397,9999 398,3153
399,851 400,150 401,20 409,10
411,10 423,10 437,10 439,120
440,50 441,10 453,20 454,40
455,20
##END=
