##TITLE=Oxalic acid, 2TBDMS derivative
##JCAMP-DX=4.24
##DATA TYPE=MASS SPECTRUM
##ORIGIN=NIST Mass Spectrometry Data Center
##OWNER=NIST Mass Spectrometry Data Center
Collection (C) 2014 copyright by the U.S. Secretary of Commerce
on behalf of the United States of America. All rights reserved.
##CAS REGISTRY NO=104255-91-6
##$NIST MASS SPEC NO=352454
##MOLFORM=C14 H30 O4 Si2
##MW=318
##$NIST SOURCE=MSDC
##XUNITS=M/Z
##YUNITS=RELATIVE INTENSITY
##XFACTOR=1
##YFACTOR=1
##FIRSTX=15
##LASTX=305
##FIRSTY=10
##MAXX=305
##MINX=15
##MAXY=9999
##MINY=10
##NPOINTS=116
##PEAK TABLE=(XY..XY)
15,10 27,30 28,10 29,210
30,10 31,30 38,10 39,110
40,20 41,470 42,50 43,250
44,70 45,530 46,40 47,140
48,10 49,10 51,10 52,40
53,30 54,10 55,80 56,160
57,671 58,470 59,791 60,120
61,120 62,10 66,120 67,20
69,60 70,20 71,30 73,9438
74,921 75,921 76,50 77,30
81,10 83,30 84,10 85,170
86,60 87,40 88,10 89,20
95,10 97,20 98,10 99,280
100,60 101,50 102,90 103,110
104,20 105,40 106,10 107,10
113,20 114,30 115,1541 116,200
117,891 118,120 119,160 120,20
121,10 129,10 130,10 131,270
132,130 133,1511 134,220 135,130
136,10 143,20 144,10 145,10
147,9999 148,1692 149,1141 150,130
151,50 157,10 159,70 160,10
161,40 162,20 163,20 173,20
174,10 175,30 176,10 177,30
189,1021 190,190 191,80 192,10
204,50 205,10 217,20 218,20
219,10 231,10 233,10 259,10
261,3593 262,861 263,370 264,60
265,10 303,70 304,20 305,10
##END=
