##TITLE=Nonadecanoic acid, TBDMS derivative
##JCAMP-DX=4.24
##DATA TYPE=MASS SPECTRUM
##ORIGIN=NIST Mass Spectrometry Data Center
##OWNER=NIST Mass Spectrometry Data Center
Collection (C) 2014 copyright by the U.S. Secretary of Commerce
on behalf of the United States of America. All rights reserved.
##CAS REGISTRY NO=104255-82-5
##$NIST MASS SPEC NO=352590
##MOLFORM=C25 H52 O2 Si
##MW=412
##$NIST SOURCE=MSDC
##XUNITS=M/Z
##YUNITS=RELATIVE INTENSITY
##XFACTOR=1
##YFACTOR=1
##FIRSTX=27
##LASTX=413
##FIRSTY=40
##MAXX=413
##MINX=27
##MAXY=9999
##MINY=10
##NPOINTS=147
##PEAK TABLE=(XY..XY)
27,40 29,140 39,50 40,10
41,470 42,110 43,871 44,30
45,60 47,60 53,30 54,30
55,460 56,130 57,621 58,80
59,110 60,30 61,60 67,120
68,20 69,210 70,40 71,140
72,50 73,981 74,130 75,2963
76,220 77,140 78,10 79,30
80,10 81,160 82,20 83,170
84,30 85,90 86,40 87,20
88,10 89,10 91,10 93,40
94,10 95,220 96,20 97,140
98,40 99,100 100,20 101,60
102,20 103,30 105,110 106,10
107,30 109,80 110,10 111,50
112,20 113,20 114,80 115,310
116,320 117,1181 118,150 119,60
120,10 121,30 123,30 125,20
127,10 129,1962 130,240 131,831
132,90 133,40 135,20 137,10
139,10 141,10 142,10 143,100
144,20 145,20 149,10 155,20
157,50 158,20 159,50 160,10
169,10 171,300 172,40 173,20
174,10 175,20 185,170 186,30
187,140 188,20 189,10 199,50
200,10 201,10 213,60 214,10
215,10 227,70 228,10 229,10
241,70 242,10 243,20 255,60
256,10 257,10 269,50 270,10
271,10 281,10 283,20 284,10
285,10 297,20 299,10 311,40
312,10 313,10 325,10 339,10
353,70 355,9999 356,3073 357,831
358,140 359,10 367,10 369,10
395,10 397,150 398,50 399,10
411,10 412,30 413,10
##END=
