##TITLE=Suberic acid, 2TBDMS derivative
##JCAMP-DX=4.24
##DATA TYPE=MASS SPECTRUM
##ORIGIN=NIST Mass Spectrometry Data Center
##OWNER=NIST Mass Spectrometry Data Center
Collection (C) 2014 copyright by the U.S. Secretary of Commerce
on behalf of the United States of America. All rights reserved.
##CAS REGISTRY NO=104255-96-1
##$NIST MASS SPEC NO=352557
##MOLFORM=C20 H42 O4 Si2
##MW=402
##$NIST SOURCE=MSDC
##XUNITS=M/Z
##YUNITS=RELATIVE INTENSITY
##XFACTOR=1
##YFACTOR=1
##FIRSTX=27
##LASTX=401
##FIRSTY=20
##MAXX=401
##MINX=27
##MAXY=9999
##MINY=10
##NPOINTS=179
##PEAK TABLE=(XY..XY)
27,20 29,80 31,10 39,50
40,10 41,240 42,30 43,90
44,10 45,150 46,10 47,130
48,10 49,10 53,20 54,10
55,460 56,90 57,190 58,120
59,250 60,60 61,110 62,10
66,10 67,90 68,20 69,100
70,10 71,20 72,100 73,4074
74,440 75,3593 76,270 77,180
78,10 79,60 80,10 81,50
82,10 83,250 84,20 85,100
86,90 87,30 88,30 89,20
91,30 93,190 94,20 95,200
96,20 97,70 98,10 99,190
100,40 101,100 102,20 103,40
104,10 105,10 107,10 109,110
110,10 111,90 112,10 113,30
114,20 115,450 116,280 117,200
118,30 119,40 120,10 121,120
122,10 123,10 125,10 127,20
129,1571 130,220 131,150 132,40
133,330 134,50 135,50 136,10
137,40 138,10 139,500 140,50
141,30 142,10 143,100 144,530
147,510 148,110 149,591 150,90
151,60 152,10 153,10 155,20
156,10 157,140 158,30 159,40
160,10 161,10 167,10 169,1001
170,150 171,210 172,30 173,90
174,20 175,20 176,30 177,20
183,10 185,190 186,40 187,30
189,30 190,80 191,80 192,20
193,10 195,10 197,20 199,10
201,10 203,140 204,30 205,20
211,20 213,70 214,10 215,10
217,10 225,10 227,10 229,200
230,40 231,30 232,10 233,20
243,20 245,60 246,20 247,10
255,170 256,30 257,10 259,10
271,150 272,30 273,10 285,20
287,10 289,10 301,130 302,40
303,20 315,10 327,10 343,10
345,9999 346,2993 347,1191 348,220
349,40 350,10 387,581 388,180
389,70 390,10 401,10
##END=
