##TITLE=Nonanoic acid, TBDMS derivative
##JCAMP-DX=4.24
##DATA TYPE=MASS SPECTRUM
##ORIGIN=NIST Mass Spectrometry Data Center
##OWNER=NIST Mass Spectrometry Data Center
Collection (C) 2014 copyright by the U.S. Secretary of Commerce
on behalf of the United States of America. All rights reserved.
##CAS REGISTRY NO=104255-73-4
##$NIST MASS SPEC NO=352380
##MOLFORM=C15 H32 O2 Si
##MW=272
##$NIST SOURCE=MSDC
##XUNITS=M/Z
##YUNITS=RELATIVE INTENSITY
##XFACTOR=1
##YFACTOR=1
##FIRSTX=26
##LASTX=272
##FIRSTY=10
##MAXX=272
##MINX=26
##MAXY=9999
##MINY=10
##NPOINTS=121
##PEAK TABLE=(XY..XY)
26,10 27,120 28,40 29,320
30,10 31,10 39,130 41,591
42,100 43,430 44,20 45,180
46,10 47,180 48,10 49,10
51,10 53,40 54,20 55,330
56,70 57,290 58,110 59,180
60,60 61,120 62,10 65,10
67,180 68,20 69,90 70,10
71,50 72,100 73,981 75,4194
76,330 77,190 78,10 79,20
81,400 82,30 83,40 84,10
85,70 86,80 87,40 88,30
89,20 91,10 93,20 95,40
96,10 97,40 98,20 99,120
100,20 101,100 102,30 103,30
105,190 106,20 107,10 109,10
111,20 112,10 113,10 114,60
115,350 116,260 117,651 118,90
119,40 121,20 123,30 125,10
127,10 129,1391 130,200 131,1611
132,180 133,80 134,10 139,20
141,50 142,10 143,100 144,10
145,20 147,10 155,10 157,60
158,10 159,30 171,160 172,30
173,20 174,10 185,40 186,10
187,50 188,10 197,10 199,10
201,20 213,20 215,9999 216,2282
217,681 218,70 219,10 227,10
229,10 241,10 243,10 255,10
257,280 258,60 259,20 271,10
272,10
##END=
