##TITLE=5-Butyldihydro-2(3H)thiophenone
##JCAMP-DX=4.24
##DATA TYPE=MASS SPECTRUM
##ORIGIN=I.Roling ET AL.J.Agr.Food Chem.,46,668(1998)
##OWNER=NIST Mass Spectrometry Data Center
Collection (C) 2014 copyright by the U.S. Secretary of Commerce
on behalf of the United States of America. All rights reserved.
##CAS REGISTRY NO=104223-43-0
##$NIST MASS SPEC NO=281474
##MOLFORM=C8 H14 O S
##MW=158
##$NIST SOURCE=MSDC
##XUNITS=M/Z
##YUNITS=RELATIVE INTENSITY
##XFACTOR=1
##YFACTOR=1
##FIRSTX=41
##LASTX=158
##FIRSTY=9338
##MAXX=158
##MINX=41
##MAXY=9999
##MINY=70
##NPOINTS=54
##PEAK TABLE=(XY..XY)
41,9338 42,2112 43,2012 44,1301
45,8638 46,250 47,771 50,180
51,210 52,70 53,951 54,420
55,4264 56,1762 57,811 58,1231
59,1902 60,1231 61,490 63,70
65,100 67,741 68,250 69,2462
70,1091 71,561 72,390 73,1942
74,771 75,460 77,100 79,140
81,320 82,140 83,320 85,250
86,100 87,1271 88,530 89,1341
96,100 97,180 99,180 101,9999
102,561 103,671 114,6166 115,741
116,561 121,100 130,250 131,70
133,210 158,390
##END=
