##TITLE=(S)-(-)-.alpha.-(1-Naphthyl)ethylamine
##JCAMP-DX=4.24
##DATA TYPE=MASS SPECTRUM
##ORIGIN=Japan AIST/NIMC Database- Spectrum MS-NW-9259
##OWNER=NIST Mass Spectrometry Data Center
Collection (C) 2014 copyright by the U.S. Secretary of Commerce
on behalf of the United States of America. All rights reserved.
##CAS REGISTRY NO=10420-89-0
##$NIST MASS SPEC NO=236522
##MOLFORM=C12 H13 N
##MW=171
##$NIST SOURCE=MSDC
##XUNITS=M/Z
##YUNITS=RELATIVE INTENSITY
##XFACTOR=1
##YFACTOR=1
##FIRSTX=15
##LASTX=173
##FIRSTY=20
##MAXX=173
##MINX=15
##MAXY=9999
##MINY=10
##NPOINTS=84
##PEAK TABLE=(XY..XY)
15,20 27,30 28,199 30,10
38,10 39,70 41,20 42,509
43,409 44,999 45,20 50,80
51,219 52,50 53,10 57,10
58,30 62,50 63,269 64,169
65,249 69,20 70,50 71,169
72,20 74,99 75,189 76,269
77,689 78,1129 79,10 82,10
83,179 84,319 85,80 86,40
87,50 88,20 89,70 90,10
91,20 98,30 99,30 100,30
101,169 102,149 103,40 106,10
113,30 114,20 115,219 116,30
117,10 125,40 126,339 127,1249
128,1899 129,3899 130,479 131,30
138,10 139,109 140,40 141,129
142,40 143,60 144,10 150,60
151,189 152,559 153,789 154,879
155,439 156,9999 157,1209 158,70
166,40 167,109 168,179 169,70
170,559 171,1709 172,229 173,10
##END=
