##TITLE=Androstane-3,17-diol, (3.alpha.,5.alpha.,17.alpha.)-, 2TMS derivative
##JCAMP-DX=4.24
##DATA TYPE=MASS SPECTRUM
##OWNER=NIST Mass Spectrometry Data Center
Collection (C) 2014 copyright by the U.S. Secretary of Commerce
on behalf of the United States of America. All rights reserved.
##CAS REGISTRY NO=10426-35-4
##$NIST MASS SPEC NO=17548
##MOLFORM=C25 H48 O2 Si2
##MW=436
##$NIST SOURCE=MSDC
##XUNITS=M/Z
##YUNITS=RELATIVE INTENSITY
##XFACTOR=1
##YFACTOR=1
##FIRSTX=101
##LASTX=439
##FIRSTY=1382
##MAXX=439
##MINX=101
##MAXY=9999
##MINY=29
##NPOINTS=140
##PEAK TABLE=(XY..XY)
101,1382 102,88 103,382 104,206
105,1912 106,1323 107,3353 108,1206
109,2617 110,206 111,235 113,235
115,1794 116,2029 117,382 118,353
119,1265 120,882 121,1970 122,735
123,882 124,59 125,59 127,206
128,59 129,9999 130,3235 131,1853
132,588 133,1588 134,823 135,2029
136,2706 137,1559 138,618 141,294
142,176 143,529 144,235 145,1559
146,823 147,2382 148,3382 149,2882
150,529 151,235 155,559 156,206
157,676 158,235 159,1029 160,647
161,1500 162,1235 163,500 167,59
169,235 170,88 171,235 173,823
174,529 175,647 176,235 180,206
181,206 182,59 183,59 184,382
185,206 186,500 187,206 189,59
190,265 195,29 196,294 197,235
198,88 199,823 200,206 201,1206
202,529 203,500 204,59 210,59
211,59 213,1147 214,382 215,4323
216,1206 217,3323 218,647 219,147
223,59 225,59 226,59 227,206
228,588 229,382 230,823 231,206
237,206 238,206 239,206 240,59
241,6146 242,1412 243,235 254,88
255,529 256,3617 257,1118 258,235
274,88 281,88 282,265 289,235
291,59 292,88 305,559 306,59
307,59 315,59 318,412 319,206
330,88 331,3029 332,823 333,235
344,59 345,618 346,3000 347,618
348,235 421,1323 422,441 423,235
436,2441 437,882 438,382 439,59
##END=
