##TITLE=Myristic acid, TBDMS derivative
##JCAMP-DX=4.24
##DATA TYPE=MASS SPECTRUM
##ORIGIN=NIST Mass Spectrometry Data Center
##OWNER=NIST Mass Spectrometry Data Center
Collection (C) 2014 copyright by the U.S. Secretary of Commerce
on behalf of the United States of America. All rights reserved.
##CAS REGISTRY NO=104255-79-0
##$NIST MASS SPEC NO=352382
##MOLFORM=C20 H42 O2 Si
##MW=342
##$NIST SOURCE=MSDC
##XUNITS=M/Z
##YUNITS=RELATIVE INTENSITY
##XFACTOR=1
##YFACTOR=1
##FIRSTX=27
##LASTX=342
##FIRSTY=60
##MAXX=342
##MINX=27
##MAXY=9999
##MINY=10
##NPOINTS=128
##PEAK TABLE=(XY..XY)
27,60 28,10 29,220 39,80
40,20 41,611 42,120 43,761
44,30 45,110 46,10 47,110
53,40 54,30 55,480 56,120
57,450 58,100 59,160 60,50
61,100 62,10 67,150 68,20
69,240 70,40 71,70 72,80
73,1131 74,170 75,4114 76,310
77,190 78,10 79,40 80,10
81,210 82,20 83,130 84,30
85,80 86,60 87,30 88,20
89,20 91,10 93,40 95,310
96,30 97,90 98,40 99,120
100,20 101,80 102,30 103,40
105,170 106,20 107,30 109,100
110,10 111,40 112,20 113,20
114,90 115,390 116,400 117,1221
118,160 119,60 121,20 123,20
125,10 127,10 129,2152 130,270
131,1241 132,140 133,50 135,10
137,10 139,10 141,10 142,10
143,120 144,20 145,20 155,20
157,70 158,20 159,50 167,10
171,270 172,40 173,20 175,10
181,10 185,140 186,20 187,90
188,10 199,50 200,10 201,10
211,10 213,40 214,10 215,10
227,30 228,10 229,10 241,30
242,10 243,20 255,20 269,10
283,40 285,9999 286,2432 287,651
288,90 289,10 299,10 327,160
328,40 329,10 341,10 342,10
##END=
