##TITLE=Phthalic acid, 2TBDMS derivative
##JCAMP-DX=4.24
##DATA TYPE=MASS SPECTRUM
##ORIGIN=NIST Mass Spectrometry Data Center, 2009
##OWNER=NIST Mass Spectrometry Data Center
Collection (C) 2014 copyright by the U.S. Secretary of Commerce
on behalf of the United States of America. All rights reserved.
##CAS REGISTRY NO=104256-00-0
##$NIST MASS SPEC NO=366712
##MOLFORM=C20 H34 O4 Si2
##MW=394
##$NIST SOURCE=MSDC
##XUNITS=M/Z
##YUNITS=RELATIVE INTENSITY
##XFACTOR=1
##YFACTOR=1
##FIRSTX=27
##LASTX=382
##FIRSTY=20
##MAXX=382
##MINX=27
##MAXY=9999
##MINY=10
##NPOINTS=166
##PEAK TABLE=(XY..XY)
27,20 29,160 31,10 39,60
41,350 42,20 43,90 44,20
45,280 46,20 47,70 50,40
51,20 52,10 53,20 55,40
56,70 57,641 58,160 59,470
60,50 61,60 63,10 65,40
66,10 67,10 69,10 70,10
71,20 73,6176 74,561 75,751
76,460 77,380 78,30 79,10
81,10 82,10 83,30 84,10
85,120 86,10 87,20 88,10
89,70 90,40 91,240 92,30
93,70 94,10 95,10 96,10
97,20 98,10 99,110 100,40
101,50 102,20 103,130 104,330
105,1702 106,140 107,30 109,10
111,20 112,10 113,10 115,190
116,30 117,70 118,50 119,641
120,90 121,60 122,10 123,10
125,10 126,70 128,10 129,30
130,10 131,140 132,40 133,691
134,160 135,350 136,50 137,30
140,520 143,10 145,30 147,6456
148,1011 149,631 150,60 151,30
157,10 159,20 161,20 163,1021
164,160 165,70 166,10 173,10
174,10 175,10 177,10 178,180
179,80 180,20 181,50 182,10
183,10 189,160 190,30 191,20
193,210 194,50 195,70 196,10
197,10 205,30 206,20 207,40
208,10 209,50 210,10 211,10
219,30 220,10 221,20 223,260
224,50 225,20 235,10 237,30
238,10 247,240 248,50 249,20
251,30 252,60 253,20 254,10
261,10 263,280 264,60 265,30
279,50 280,100 281,30 282,10
293,10 307,10 309,10 335,20
337,9999 338,2833 339,1121 340,200
341,40 342,10 379,380 380,120
381,40 382,10
##END=
