##TITLE=Butanal, dimethylhydrazone
##JCAMP-DX=4.24
##DATA TYPE=MASS SPECTRUM
##ORIGIN=ATLAS OF MASS SPECTRA OF ORGANIC COMPOUNDS, V. A. KOPTYUG, ED.
##OWNER=NIST Mass Spectrometry Data Center
Collection (C) 2014 copyright by the U.S. Secretary of Commerce
on behalf of the United States of America. All rights reserved.
##CAS REGISTRY NO=10424-98-3
##$NIST MASS SPEC NO=64494
##MOLFORM=C6 H14 N2
##MW=114
##$NIST SOURCE=MSDC
##XUNITS=M/Z
##YUNITS=RELATIVE INTENSITY
##XFACTOR=1
##YFACTOR=1
##FIRSTX=28
##LASTX=115
##FIRSTY=1250
##MAXX=115
##MINX=28
##MAXY=9999
##MINY=80
##NPOINTS=32
##PEAK TABLE=(XY..XY)
28,1250 29,750 30,670 39,710
40,230 41,1540 42,4580 43,4580
44,9999 45,3750 46,190 53,100
54,90 55,380 56,580 57,420
58,1230 59,940 68,150 69,100
70,460 71,870 72,580 73,140
83,120 85,7910 86,1620 99,1120
100,80 113,280 114,5820 115,520
##END=
