##TITLE=1H-Imidazole, 1,5-dimethyl-
##JCAMP-DX=4.24
##DATA TYPE=MASS SPECTRUM
##ORIGIN=L.Muller ET.AL.J.Agric.Food Chem.,46,3172(1998)
##OWNER=NIST Mass Spectrometry Data Center
Collection (C) 2014 copyright by the U.S. Secretary of Commerce
on behalf of the United States of America. All rights reserved.
##CAS REGISTRY NO=10447-93-5
##$NIST MASS SPEC NO=293068
##MOLFORM=C5 H8 N2
##MW=96
##$NIST SOURCE=MSDC
##XUNITS=M/Z
##YUNITS=RELATIVE INTENSITY
##XFACTOR=1
##YFACTOR=1
##FIRSTX=41
##LASTX=97
##FIRSTY=1141
##MAXX=97
##MINX=41
##MAXY=9999
##MINY=30
##NPOINTS=21
##PEAK TABLE=(XY..XY)
41,1141 42,3203 43,601 51,200
52,500 53,260 54,2032 55,631
56,2142 66,300 67,170 68,2622
69,300 70,260 71,110 78,70
79,30 84,50 95,7036 96,9999
97,611
##END=
