##TITLE=5,16-Pregnenolone oxime
##JCAMP-DX=4.24
##DATA TYPE=MASS SPECTRUM
##ORIGIN=LAC, NIDDK, NIH, Bethesda, MD 20892
##OWNER=NIST Mass Spectrometry Data Center
Collection (C) 2014 copyright by the U.S. Secretary of Commerce
on behalf of the United States of America. All rights reserved.
##CAS REGISTRY NO=1045-71-2
##$NIST MASS SPEC NO=255311
##MOLFORM=C21 H31 N O2
##MW=329
##$NIST SOURCE=MSDC
##XUNITS=M/Z
##YUNITS=RELATIVE INTENSITY
##XFACTOR=1
##YFACTOR=1
##FIRSTX=41
##LASTX=330
##FIRSTY=6629
##MAXX=330
##MINX=41
##MAXY=9999
##MINY=165
##NPOINTS=104
##PEAK TABLE=(XY..XY)
41,6629 42,5725 43,5098 44,3103
45,376 51,557 52,280 53,2895
55,5580 57,9999 58,1151 60,383
65,1731 66,280 67,2998 68,277
69,871 70,343 71,373 77,3878
78,1230 79,4894 80,946 81,2553
82,531 83,165 84,491 86,218
91,7136 92,795 93,2592 94,693
95,897 96,409 97,195 98,181
103,719 104,317 105,4505 106,363
107,3163 108,874 109,452 110,409
115,1560 116,313 117,2625 118,1029
119,1481 120,1174 121,726 122,488
124,481 128,762 129,1032 130,204
131,2374 132,1570 133,1441 134,1688
135,267 136,848 138,389 141,561
142,267 143,1141 144,567 145,1408
146,574 147,633 148,950 150,1580
151,505 152,204 155,204 157,956
158,524 159,1418 160,201 162,171
169,168 171,412 172,188 173,181
174,237 185,195 188,257 190,231
195,211 202,168 218,1088 244,455
253,287 271,1039 294,920 296,1738
297,178 311,181 312,4281 313,857
314,5481 315,798 329,5448 330,1247
##END=
