##TITLE=3-(2-Pyridyl)-5,6-diphenyl-1,2,4-triazine
##JCAMP-DX=4.24
##DATA TYPE=MASS SPECTRUM
##ORIGIN=NIST Mass Spectrometry Data Center, 1994
##OWNER=NIST Mass Spectrometry Data Center
Collection (C) 2014 copyright by the U.S. Secretary of Commerce
on behalf of the United States of America. All rights reserved.
##CAS REGISTRY NO=1046-56-6
##$NIST MASS SPEC NO=136185
##MOLFORM=C20 H14 N4
##MW=310
##$NIST SOURCE=MSDC
##XUNITS=M/Z
##YUNITS=RELATIVE INTENSITY
##XFACTOR=1
##YFACTOR=1
##FIRSTX=26
##LASTX=311
##FIRSTY=105
##MAXX=311
##MINX=26
##MAXY=9999
##MINY=34
##NPOINTS=53
##PEAK TABLE=(XY..XY)
26,105 27,98 38,48 39,170
50,363 51,517 52,250 53,101
62,53 63,161 64,65 65,37
74,117 75,221 76,452 77,572
78,137 87,78 88,85 89,88
98,74 99,61 100,46 102,105
103,217 104,335 105,69 113,81
115,70 126,276 127,78 128,67
138,34 139,199 140,55 141,48
149,40 150,264 151,547 152,950
153,135 163,63 174,55 175,114
176,1324 177,746 178,9999 179,1496
180,120 296,64 297,99 310,893
311,223
##END=
