##TITLE=8-Phenyl-1-octanol
##JCAMP-DX=4.24
##DATA TYPE=MASS SPECTRUM
##ORIGIN=NIST Mass Spectrometry Data Center, 1994
##OWNER=NIST Mass Spectrometry Data Center
Collection (C) 2014 copyright by the U.S. Secretary of Commerce
on behalf of the United States of America. All rights reserved.
##CAS REGISTRY NO=10472-97-6
##$NIST MASS SPEC NO=136644
##MOLFORM=C14 H22 O
##MW=206
##$NIST SOURCE=MSDC
##XUNITS=M/Z
##YUNITS=RELATIVE INTENSITY
##XFACTOR=1
##YFACTOR=1
##FIRSTX=15
##LASTX=207
##FIRSTY=104
##MAXX=207
##MINX=15
##MAXY=9999
##MINY=10
##NPOINTS=84
##PEAK TABLE=(XY..XY)
15,104 17,18 18,43 19,94
26,96 27,1134 29,1451 31,3618
37,10 39,1373 40,200 41,2412
42,309 43,787 44,141 45,114
50,150 51,594 52,173 53,289
54,187 55,2638 56,223 57,238
58,25 62,46 63,285 64,89
65,1620 66,140 67,304 68,140
69,363 70,32 71,29 74,10
75,48 76,63 77,769 78,615
79,553 80,79 81,162 82,60
83,27 87,15 89,234 91,9999
92,3992 93,338 94,140 95,61
96,64 97,173 98,24 101,16
102,73 104,6643 105,1297 106,165
107,56 110,34 115,242 117,1637
118,469 119,121 120,29 127,17
128,46 129,38 131,330 132,140
133,118 134,47 135,16 145,121
146,37 147,16 159,38 160,35
188,165 189,25 206,478 207,79
##END=
