##TITLE=Cholestanol acetate
##JCAMP-DX=4.24
##DATA TYPE=MASS SPECTRUM
##ORIGIN=LAC, NIDDK, NIH, Bethesda, MD 20892
##OWNER=NIST Mass Spectrometry Data Center
Collection (C) 2014 copyright by the U.S. Secretary of Commerce
on behalf of the United States of America. All rights reserved.
##CAS REGISTRY NO=104757-70-2
##$NIST MASS SPEC NO=253152
##MOLFORM=C29 H50 O2
##MW=430
##$NIST SOURCE=MSDC
##XUNITS=M/Z
##YUNITS=RELATIVE INTENSITY
##XFACTOR=1
##YFACTOR=1
##FIRSTX=41
##LASTX=432
##FIRSTY=2218
##MAXX=432
##MINX=41
##MAXY=9999
##MINY=31
##NPOINTS=129
##PEAK TABLE=(XY..XY)
41,2218 43,8557 44,201 49,71
53,341 55,4004 57,2485 58,37
61,259 65,130 67,2453 68,834
69,2193 71,1369 77,464 79,2487
81,5210 82,735 83,1100 84,47
85,266 91,1629 93,2914 94,1128
95,2929 96,408 97,862 98,37
99,94 101,34 105,1931 106,794
107,4018 108,1685 109,1521 110,245
111,425 113,81 115,245 117,331
119,1496 120,753 121,1612 122,871
123,1151 124,197 125,157 128,34
129,78 131,412 133,1320 134,592
135,1158 136,448 137,251 143,112
145,1207 147,2826 148,715 149,865
150,183 151,163 152,139 159,559
160,493 161,757 162,432 163,332
173,484 174,213 175,320 176,217
177,132 187,437 188,380 189,259
191,89 199,74 201,1558 202,448
203,210 207,32 208,266 215,9999
216,4018 217,1926 218,288 219,35
220,40 230,2102 231,491 232,117
234,33 243,142 244,33 247,196
248,154 252,31 257,552 258,74
259,37 261,742 262,986 263,164
275,2865 276,3714 277,506 285,166
288,96 290,454 315,155 316,265
328,222 329,34 355,2421 356,677
357,110 358,64 368,125 369,194
370,4970 371,1433 372,296 415,742
416,223 428,105 430,4725 431,1430
432,218
##END=
