##TITLE=Cyclopentanecarboxylic acid, 2-oxo-, methyl ester
##JCAMP-DX=4.24
##DATA TYPE=MASS SPECTRUM
##ORIGIN=Japan AIST/NIMC Database- Spectrum MS-NW-3047
##OWNER=NIST Mass Spectrometry Data Center
Collection (C) 2014 copyright by the U.S. Secretary of Commerce
on behalf of the United States of America. All rights reserved.
##CAS REGISTRY NO=10472-24-9
##$NIST MASS SPEC NO=231475
##MOLFORM=C7 H10 O3
##MW=142
##$NIST SOURCE=MSDC
##XUNITS=M/Z
##YUNITS=RELATIVE INTENSITY
##XFACTOR=1
##YFACTOR=1
##FIRSTX=12
##LASTX=144
##FIRSTY=10
##MAXX=144
##MINX=12
##MAXY=9999
##MINY=10
##NPOINTS=96
##PEAK TABLE=(XY..XY)
12,10 13,20 14,99 15,1359
16,20 17,10 18,30 25,50
26,709 27,2759 28,1429 29,1079
30,119 31,1149 32,719 33,30
35,10 36,40 37,109 38,199
39,1589 40,299 41,1529 42,649
43,799 44,399 45,109 49,60
50,229 51,269 52,169 53,869
54,1389 55,9999 56,1109 57,209
58,129 59,1499 60,50 61,40
62,20 63,30 64,10 65,80
66,40 67,90 68,1399 69,769
70,80 71,219 72,609 73,149
74,969 75,40 77,10 79,30
80,40 81,419 82,2119 83,1679
84,299 85,199 86,80 87,6299
88,309 89,30 93,10 94,10
95,10 96,20 97,119 98,20
99,289 100,60 101,359 102,30
107,10 108,20 109,359 110,4939
111,4439 112,329 113,349 114,6219
115,489 116,40 124,10 125,10
126,50 127,70 128,10 140,40
141,20 142,1589 143,359 144,30
##END=
