##TITLE=L-.alpha.-Terpineol
##JCAMP-DX=4.24
##DATA TYPE=MASS SPECTRUM
##ORIGIN=G.BRAMMER,UNIVERSITY OF TEXAS
##OWNER=NIST Mass Spectrometry Data Center
Collection (C) 2014 copyright by the U.S. Secretary of Commerce
on behalf of the United States of America. All rights reserved.
##CAS REGISTRY NO=10482-56-1
##$NIST MASS SPEC NO=43979
##MOLFORM=C10 H18 O
##MW=154
##$NIST SOURCE=MSDC
##XUNITS=M/Z
##YUNITS=RELATIVE INTENSITY
##XFACTOR=1
##YFACTOR=1
##FIRSTX=25
##LASTX=140
##FIRSTY=11
##MAXX=140
##MINX=25
##MAXY=9999
##MINY=1
##NPOINTS=112
##PEAK TABLE=(XY..XY)
25,11 26,26 27,417 29,410
30,10 31,481 33,13 34,1
35,1 36,5 37,16 38,56
39,822 41,1177 42,149 43,2405
45,175 46,7 47,18 48,18
49,16 50,69 51,216 52,150
53,848 54,443 55,1177 56,108
57,117 58,134 59,9999 60,375
61,63 62,70 63,105 64,26
65,356 66,188 67,1430 68,1253
69,518 70,31 71,822 72,74
73,13 74,22 75,31 76,27
77,917 78,219 79,1272 80,651
81,3487 82,304 83,56 84,50
85,74 86,24 87,5 88,10
89,39 90,44 91,626 92,1791
93,5841 94,816 95,1639 96,829
97,99 98,39 99,12 100,4
101,8 102,24 103,28 104,24
105,379 106,74 107,791 108,387
109,99 110,17 111,57 112,15
113,8 114,10 115,37 116,17
117,28 118,13 119,62 120,62
121,5765 122,664 123,105 124,24
125,18 126,3 127,5 128,21
129,6 130,5 131,26 132,18
133,12 134,17 135,40 136,5246
137,765 138,78 139,816 140,113
##END=
