##TITLE=2-Chlorobenzoic acid, 2-phenylethyl ester
##JCAMP-DX=4.24
##DATA TYPE=MASS SPECTRUM
##ORIGIN=V.Zaikin,Inst.Petrochem.Synth.,RAS,Moscow
##OWNER=NIST Mass Spectrometry Data Center
Collection (C) 2014 copyright by the U.S. Secretary of Commerce
on behalf of the United States of America. All rights reserved.
##CAS REGISTRY NO=104856-44-2
##$NIST MASS SPEC NO=293511
##MOLFORM=C15 H13 Cl O2
##MW=260
##$NIST SOURCE=MSDC
##XUNITS=M/Z
##YUNITS=RELATIVE INTENSITY
##XFACTOR=1
##YFACTOR=1
##FIRSTX=26
##LASTX=178
##FIRSTY=50
##MAXX=178
##MINX=26
##MAXY=9999
##MINY=10
##NPOINTS=73
##PEAK TABLE=(XY..XY)
26,50 27,190 28,10 29,90
39,400 40,30 41,160 42,20
43,90 50,520 51,591 52,120
53,60 55,60 61,40 62,70
63,190 64,90 65,440 69,40
70,110 71,30 73,70 74,240
75,871 76,370 77,631 78,400
79,260 80,20 82,20 84,80
85,110 87,50 89,90 90,40
91,971 92,120 93,20 96,30
97,20 101,40 102,100 103,440
104,9999 105,1531 106,100 107,20
110,60 111,1561 112,170 113,480
114,40 118,50 122,20 128,20
130,30 131,20 133,20 135,70
136,30 138,30 139,4134 140,310
141,1341 142,90 152,30 156,200
157,80 158,60 159,20 165,30
178,20
##END=
