##TITLE=Tridecanal
##JCAMP-DX=4.24
##DATA TYPE=MASS SPECTRUM
##OWNER=NIST Mass Spectrometry Data Center
Collection (C) 2014 copyright by the U.S. Secretary of Commerce
on behalf of the United States of America. All rights reserved.
##CAS REGISTRY NO=10486-19-8
##$NIST MASS SPEC NO=8800
##MOLFORM=C13 H26 O
##MW=198
##$NIST SOURCE=MSDC
##XUNITS=M/Z
##YUNITS=RELATIVE INTENSITY
##XFACTOR=1
##YFACTOR=1
##FIRSTX=15
##LASTX=181
##FIRSTY=70
##MAXX=181
##MINX=15
##MAXY=9999
##MINY=50
##NPOINTS=71
##PEAK TABLE=(XY..XY)
15,70 18,140 26,130 27,1812
28,561 29,3783 30,100 31,120
39,1121 40,230 41,7327 42,1802
43,9328 44,3623 45,1461 51,50
53,410 54,1471 55,6666 56,3323
57,9999 58,721 59,80 65,70
66,771 67,3273 68,4434 69,3894
70,3043 71,3493 72,841 73,90
77,70 79,180 80,210 81,2742
82,7006 83,3283 84,1672 85,1702
86,230 93,80 94,150 95,2472
96,3373 97,1972 98,901 99,601
100,70 108,50 109,1141 110,1271
111,901 112,601 113,200 123,701
124,871 125,470 126,310 127,70
137,320 138,280 139,50 151,110
152,641 153,80 154,1171 155,170
170,200 180,300 181,50
##END=
