##TITLE=Diisobutyl sulfone
##JCAMP-DX=4.24
##DATA TYPE=MASS SPECTRUM
##ORIGIN=DC-19-6
##OWNER=NIST Mass Spectrometry Data Center
Collection (C) 2014 copyright by the U.S. Secretary of Commerce
on behalf of the United States of America. All rights reserved.
##CAS REGISTRY NO=10495-45-1
##$NIST MASS SPEC NO=7303
##MOLFORM=C8 H18 O2 S
##MW=178
##$NIST SOURCE=MSDC
##XUNITS=M/Z
##YUNITS=RELATIVE INTENSITY
##XFACTOR=1
##YFACTOR=1
##FIRSTX=27
##LASTX=178
##FIRSTY=701
##MAXX=178
##MINX=27
##MAXY=9999
##MINY=100
##NPOINTS=34
##PEAK TABLE=(XY..XY)
27,701 28,200 29,2202 39,601
40,200 41,3603 42,400 43,300
44,200 45,100 53,200 55,601
56,2002 57,9999 58,701 63,400
64,200 65,300 66,100 67,200
71,100 80,100 81,400 83,100
85,100 95,200 105,100 107,200
109,100 121,200 123,2602 124,100
163,100 178,100
##END=
