##TITLE=2-Cyclopenten-1-one, 2-hydroxy-
##JCAMP-DX=4.24
##DATA TYPE=MASS SPECTRUM
##ORIGIN=J.A. ENZELL, RES. DEP., SWED. TOB. CO., STOCKHOLM, SWEDEN
##OWNER=NIST Mass Spectrometry Data Center
Collection (C) 2014 copyright by the U.S. Secretary of Commerce
on behalf of the United States of America. All rights reserved.
##CAS REGISTRY NO=10493-98-8
##$NIST MASS SPEC NO=112926
##MOLFORM=C5 H6 O2
##MW=98
##$NIST SOURCE=MSDC
##XUNITS=M/Z
##YUNITS=RELATIVE INTENSITY
##XFACTOR=1
##YFACTOR=1
##FIRSTX=40
##LASTX=98
##FIRSTY=1100
##MAXX=98
##MINX=40
##MAXY=9999
##MINY=500
##NPOINTS=10
##PEAK TABLE=(XY..XY)
40,1100 41,3400 42,5500 43,2400
44,500 55,6300 56,600 69,3100
70,1400 98,9999
##END=
