##TITLE=Silanol, trimethyl-, phosphate (3:1)
##JCAMP-DX=4.24
##DATA TYPE=MASS SPECTRUM
##ORIGIN=NIST Mass Spectrometry Data Center, 2010
##OWNER=NIST Mass Spectrometry Data Center
Collection (C) 2014 copyright by the U.S. Secretary of Commerce
on behalf of the United States of America. All rights reserved.
##CAS REGISTRY NO=10497-05-9
##$NIST MASS SPEC NO=378727
##MOLFORM=C9 H27 O4 P Si3
##MW=314
##$NIST SOURCE=MSDC
##XUNITS=M/Z
##YUNITS=RELATIVE INTENSITY
##XFACTOR=1
##YFACTOR=1
##FIRSTX=15
##LASTX=317
##FIRSTY=10
##MAXX=317
##MINX=15
##MAXY=9999
##MINY=10
##NPOINTS=109
##PEAK TABLE=(XY..XY)
15,10 29,20 42,10 43,100
44,130 45,801 46,50 47,70
55,20 57,60 58,40 59,230
60,20 61,70 63,10 66,10
67,10 70,20 71,20 72,110
73,4014 74,320 75,300 76,20
77,100 87,30 89,30 90,10
103,130 104,30 105,80 106,10
107,50 113,10 115,210 116,30
117,120 119,190 120,30 121,120
122,20 123,40 131,210 132,40
133,1081 134,160 135,380 136,40
137,180 138,10 139,20 145,10
147,470 148,90 149,50 150,20
151,90 152,10 153,20 163,30
165,80 166,10 167,60 177,50
178,10 179,50 180,10 181,170
182,20 183,30 189,110 190,10
191,370 192,90 193,450 194,90
195,130 196,10 197,20 205,80
206,20 207,520 208,100 209,70
211,781 212,110 213,60 221,40
225,160 226,20 227,50 253,30
255,20 267,20 269,50 270,10
271,10 283,450 284,110 285,70
299,9999 300,2332 301,1361 302,230
303,50 314,1531 315,390 316,220
317,30
##END=
