##TITLE=2-Pentanone, 4-methyl-, oxime
##JCAMP-DX=4.24
##DATA TYPE=MASS SPECTRUM
##ORIGIN=Japan AIST/NIMC Database- Spectrum MS-NW-1209
##OWNER=NIST Mass Spectrometry Data Center
Collection (C) 2014 copyright by the U.S. Secretary of Commerce
on behalf of the United States of America. All rights reserved.
##CAS REGISTRY NO=105-44-2
##$NIST MASS SPEC NO=230749
##MOLFORM=C6 H13 N O
##MW=115
##$NIST SOURCE=MSDC
##XUNITS=M/Z
##YUNITS=RELATIVE INTENSITY
##XFACTOR=1
##YFACTOR=1
##FIRSTX=14
##LASTX=116
##FIRSTY=30
##MAXX=116
##MINX=14
##MAXY=9999
##MINY=10
##NPOINTS=68
##PEAK TABLE=(XY..XY)
14,30 15,539 16,10 18,10
26,80 27,1139 28,769 29,859
30,169 31,239 32,119 33,429
34,20 37,30 38,119 39,1149
40,299 41,3029 42,3529 43,1999
44,109 45,149 46,70 49,10
50,50 51,80 52,70 53,139
54,729 55,709 56,1109 57,1869
58,519 59,80 60,189 64,10
65,20 66,30 67,90 68,90
69,289 70,50 71,20 72,99
73,9999 74,419 75,30 77,10
79,20 80,30 81,30 82,209
83,369 84,309 85,40 86,10
87,10 94,10 96,30 97,99
98,249 99,30 100,1229 101,80
113,10 114,80 115,239 116,20
##END=
