##TITLE=Acetic acid, chloro-, ethyl ester
##JCAMP-DX=4.24
##DATA TYPE=MASS SPECTRUM
##ORIGIN=Japan AIST/NIMC Database- Spectrum MS-NW-2176
##OWNER=NIST Mass Spectrometry Data Center
Collection (C) 2014 copyright by the U.S. Secretary of Commerce
on behalf of the United States of America. All rights reserved.
##CAS REGISTRY NO=105-39-5
##$NIST MASS SPEC NO=228385
##MOLFORM=C4 H7 Cl O2
##MW=122
##$NIST SOURCE=MSDC
##XUNITS=M/Z
##YUNITS=RELATIVE INTENSITY
##XFACTOR=1
##YFACTOR=1
##FIRSTX=12
##LASTX=124
##FIRSTY=10
##MAXX=124
##MINX=12
##MAXY=9999
##MINY=10
##NPOINTS=53
##PEAK TABLE=(XY..XY)
12,10 13,40 14,219 15,239
16,10 17,10 18,20 25,10
26,209 27,1849 28,2059 29,9999
30,219 31,179 35,20 36,30
38,10 41,60 42,809 43,319
44,40 45,439 46,10 47,50
48,99 49,1269 50,70 51,419
52,10 56,30 57,30 59,40
60,90 63,40 65,20 73,149
76,90 77,2689 78,80 79,879
80,20 83,10 87,10 94,319
95,159 96,109 97,50 107,169
109,50 121,20 122,70 123,10
124,20
##END=
