##TITLE=Ethyl cyanoacetate
##JCAMP-DX=4.24
##DATA TYPE=MASS SPECTRUM
##ORIGIN=Japan AIST/NIMC Database- Spectrum MS-NW-1495
##OWNER=NIST Mass Spectrometry Data Center
Collection (C) 2014 copyright by the U.S. Secretary of Commerce
on behalf of the United States of America. All rights reserved.
##CAS REGISTRY NO=105-56-6
##$NIST MASS SPEC NO=228301
##MOLFORM=C5 H7 N O2
##MW=113
##$NIST SOURCE=MSDC
##XUNITS=M/Z
##YUNITS=RELATIVE INTENSITY
##XFACTOR=1
##YFACTOR=1
##FIRSTX=12
##LASTX=115
##FIRSTY=30
##MAXX=115
##MINX=12
##MAXY=9999
##MINY=10
##NPOINTS=50
##PEAK TABLE=(XY..XY)
12,30 13,60 14,149 15,359
16,10 17,10 18,30 25,40
26,399 27,2249 28,999 29,9999
30,219 31,299 32,30 38,179
39,359 40,1749 41,1299 42,479
43,629 44,159 45,989 46,30
47,10 51,10 52,10 53,10
54,129 55,20 56,20 57,20
59,10 60,99 61,10 67,169
68,7099 69,279 70,20 71,10
73,40 85,70 86,1059 87,40
88,20 98,40 112,20 113,179
114,20 115,50
##END=
