##TITLE=Diethyl malonate
##JCAMP-DX=4.24
##DATA TYPE=MASS SPECTRUM
##ORIGIN=D.HENNEBERG, MAX-PLANCK INSTITUTE, MULHEIM, WEST GERMANY
##OWNER=NIST Mass Spectrometry Data Center
Collection (C) 2014 copyright by the U.S. Secretary of Commerce
on behalf of the United States of America. All rights reserved.
##CAS REGISTRY NO=105-53-3
##$NIST MASS SPEC NO=63708
##MOLFORM=C7 H12 O4
##MW=160
##$NIST SOURCE=MSDC
##XUNITS=M/Z
##YUNITS=RELATIVE INTENSITY
##XFACTOR=1
##YFACTOR=1
##FIRSTX=26
##LASTX=161
##FIRSTY=224
##MAXX=161
##MINX=26
##MAXY=9999
##MINY=10
##NPOINTS=62
##PEAK TABLE=(XY..XY)
26,224 27,1714 28,520 29,9999
30,211 31,949 32,16 36,12
39,121 41,337 42,1892 43,5263
44,242 45,1309 46,67 47,83
49,11 50,14 51,25 52,16
53,136 54,51 55,79 56,10
57,76 58,30 59,112 60,1671
61,707 62,25 68,16 69,228
70,351 71,88 72,18 73,261
74,18 75,30 77,13 86,152
87,660 88,1988 89,142 90,14
91,18 93,14 105,278 106,13
113,96 114,93 115,5321 116,295
117,42 118,37 131,44 132,142
133,2892 134,168 135,37 145,27
160,178 161,26
##END=
