##TITLE=2-Hexanamine, 4-methyl-
##JCAMP-DX=4.24
##DATA TYPE=MASS SPECTRUM
##OWNER=NIST Mass Spectrometry Data Center
Collection (C) 2014 copyright by the U.S. Secretary of Commerce
on behalf of the United States of America. All rights reserved.
##CAS REGISTRY NO=105-41-9
##$NIST MASS SPEC NO=1852
##MOLFORM=C7 H17 N
##MW=115
##$NIST SOURCE=MSDC
##XUNITS=M/Z
##YUNITS=RELATIVE INTENSITY
##XFACTOR=1
##YFACTOR=1
##FIRSTX=12
##LASTX=115
##FIRSTY=10
##MAXX=115
##MINX=12
##MAXY=9999
##MINY=10
##NPOINTS=60
##PEAK TABLE=(XY..XY)
12,10 13,10 14,30 15,280
16,30 17,70 18,50 25,10
26,60 27,621 28,380 29,571
30,821 31,50 37,10 38,30
39,330 40,60 41,571 42,480
43,280 44,9999 45,290 46,10
50,10 51,20 52,10 53,50
54,30 55,140 56,170 57,230
58,120 59,20 62,10 63,10
65,10 66,10 67,10 68,20
69,110 70,60 71,10 72,10
73,10 77,10 79,10 80,10
81,10 82,10 83,30 84,10
85,10 86,20 87,10 98,20
100,220 101,20 114,30 115,30
##END=
