##TITLE=Nonanedioic acid, bis(2-methylpropyl) ester
##JCAMP-DX=4.24
##DATA TYPE=MASS SPECTRUM
##OWNER=NIST Mass Spectrometry Data Center
Collection (C) 2014 copyright by the U.S. Secretary of Commerce
on behalf of the United States of America. All rights reserved.
##CAS REGISTRY NO=105-80-6
##$NIST MASS SPEC NO=14361
##MOLFORM=C17 H32 O4
##MW=300
##$NIST SOURCE=MSDC
##XUNITS=M/Z
##YUNITS=RELATIVE INTENSITY
##XFACTOR=1
##YFACTOR=1
##FIRSTX=15
##LASTX=245
##FIRSTY=70
##MAXX=245
##MINX=15
##MAXY=9999
##MINY=30
##NPOINTS=142
##PEAK TABLE=(XY..XY)
15,70 17,170 18,761 27,661
28,1124 29,1842 30,60 31,380
32,40 39,510 40,140 41,3173
42,1151 43,1692 45,210 49,70
50,40 51,80 53,130 54,140
55,2963 56,3423 57,8077 58,420
59,220 60,741 61,200 63,520
67,340 68,430 69,1321 70,540
71,290 72,70 73,791 74,170
75,70 76,150 77,731 79,140
80,100 81,380 82,400 83,2162
84,921 85,210 86,160 87,771
88,70 89,40 91,80 92,50
93,120 94,50 95,180 96,220
97,1651 98,1151 99,180 100,240
101,841 102,140 103,60 104,30
105,90 106,30 107,190 108,40
109,110 110,240 111,1591 112,260
113,130 114,400 115,2642 116,420
117,200 118,40 121,50 123,210
124,581 125,1962 126,350 127,180
128,240 129,3073 130,360 131,60
133,50 134,40 135,120 136,50
137,110 138,691 139,470 140,110
141,160 142,280 143,1832 144,470
145,110 150,60 151,250 152,3563
153,771 154,270 155,130 156,260
157,3473 158,360 159,50 166,60
168,60 169,110 170,470 171,9999
172,1151 173,130 182,220 183,50
184,120 185,1421 186,290 187,40
189,60 198,180 199,1321 200,510
201,100 202,50 207,40 211,40
212,60 213,2402 214,340 215,50
225,30 226,120 227,4964 228,751
229,110 245,70
##END=
