##TITLE=Phenol, 2,4-dimethyl-
##JCAMP-DX=4.24
##DATA TYPE=MASS SPECTRUM
##ORIGIN=Japan AIST/NIMC Database- Spectrum MS-NW- 849
##OWNER=NIST Mass Spectrometry Data Center
Collection (C) 2014 copyright by the U.S. Secretary of Commerce
on behalf of the United States of America. All rights reserved.
##CAS REGISTRY NO=105-67-9
##$NIST MASS SPEC NO=228782
##MOLFORM=C8 H10 O
##MW=122
##$NIST SOURCE=MSDC
##XUNITS=M/Z
##YUNITS=RELATIVE INTENSITY
##XFACTOR=1
##YFACTOR=1
##FIRSTX=15
##LASTX=124
##FIRSTY=40
##MAXX=124
##MINX=15
##MAXY=9999
##MINY=10
##NPOINTS=70
##PEAK TABLE=(XY..XY)
15,40 17,20 18,70 26,80
27,529 28,40 31,10 32,10
37,60 38,209 39,1039 40,139
41,259 44,10 45,119 46,99
47,30 49,40 50,369 51,959
52,349 53,539 54,40 59,119
60,339 61,209 62,169 63,409
64,80 65,639 66,149 67,60
68,10 72,10 73,10 74,90
75,70 76,40 77,2099 78,589
79,1209 80,129 81,70 82,20
86,30 87,10 88,10 89,99
90,70 91,1369 92,199 93,379
94,249 95,50 96,10 101,10
102,70 103,469 104,419 105,289
106,30 107,8559 108,829 109,60
119,70 120,90 121,5139 122,9999
123,859 124,60
##END=
