##TITLE=Acetic acid, bromo-, ethyl ester
##JCAMP-DX=4.24
##DATA TYPE=MASS SPECTRUM
##ORIGIN=V.Zaikin,Topchiev Inst.Petrochem.Synth.,Moscow
##OWNER=NIST Mass Spectrometry Data Center
Collection (C) 2014 copyright by the U.S. Secretary of Commerce
on behalf of the United States of America. All rights reserved.
##CAS REGISTRY NO=105-36-2
##$NIST MASS SPEC NO=281841
##MOLFORM=C4 H7 Br O2
##MW=166
##$NIST SOURCE=MSDC
##XUNITS=M/Z
##YUNITS=RELATIVE INTENSITY
##XFACTOR=1
##YFACTOR=1
##FIRSTX=27
##LASTX=169
##FIRSTY=2913
##MAXX=169
##MINX=27
##MAXY=9999
##MINY=20
##NPOINTS=56
##PEAK TABLE=(XY..XY)
27,2913 28,1301 29,9999 30,380
31,310 36,90 38,20 39,60
40,120 41,691 42,3934 43,3633
44,540 45,1041 46,40 51,30
55,30 59,80 60,450 69,30
73,440 79,430 80,80 81,460
82,90 87,741 88,20 91,190
92,300 93,2692 94,931 95,2422
96,691 97,20 106,30 107,450
108,20 109,400 115,80 117,70
120,220 121,4374 122,310 123,4284
124,110 138,1501 139,520 140,1361
141,550 142,20 151,140 153,90
166,831 167,80 168,801 169,70
##END=
