##TITLE=Hexanoic acid, 2-methylpropyl ester
##JCAMP-DX=4.24
##DATA TYPE=MASS SPECTRUM
##ORIGIN=Japan AIST/NIMC Database- Spectrum MS-NW- 906
##OWNER=NIST Mass Spectrometry Data Center
Collection (C) 2014 copyright by the U.S. Secretary of Commerce
on behalf of the United States of America. All rights reserved.
##CAS REGISTRY NO=105-79-3
##$NIST MASS SPEC NO=228836
##MOLFORM=C10 H20 O2
##MW=172
##$NIST SOURCE=MSDC
##XUNITS=M/Z
##YUNITS=RELATIVE INTENSITY
##XFACTOR=1
##YFACTOR=1
##FIRSTX=15
##LASTX=157
##FIRSTY=80
##MAXX=157
##MINX=15
##MAXY=9999
##MINY=10
##NPOINTS=64
##PEAK TABLE=(XY..XY)
15,80 18,10 26,70 27,1429
28,489 29,2639 30,70 31,179
32,10 37,10 38,40 39,989
40,189 41,3649 42,739 43,5409
44,189 45,139 50,20 51,30
52,10 53,119 54,70 55,949
56,7699 57,4809 58,209 59,50
60,1949 61,389 62,10 65,10
67,20 68,30 69,279 70,249
71,2929 72,169 73,1109 74,149
75,70 80,20 81,60 83,80
85,10 86,119 87,619 88,40
89,139 97,90 98,90 99,9999
100,679 101,99 115,50 116,579
117,2369 118,169 119,10 129,159
130,10 142,119 143,10 157,20
##END=
