##TITLE=Acetic acid, cyano-, methyl ester
##JCAMP-DX=4.24
##DATA TYPE=MASS SPECTRUM
##ORIGIN=Japan AIST/NIMC Database- Spectrum MS-NW-5077
##OWNER=NIST Mass Spectrometry Data Center
Collection (C) 2014 copyright by the U.S. Secretary of Commerce
on behalf of the United States of America. All rights reserved.
##CAS REGISTRY NO=105-34-0
##$NIST MASS SPEC NO=228309
##MOLFORM=C4 H5 N O2
##MW=99
##$NIST SOURCE=MSDC
##XUNITS=M/Z
##YUNITS=RELATIVE INTENSITY
##XFACTOR=1
##YFACTOR=1
##FIRSTX=12
##LASTX=101
##FIRSTY=80
##MAXX=101
##MINX=12
##MAXY=9999
##MINY=10
##NPOINTS=49
##PEAK TABLE=(XY..XY)
12,80 13,119 14,249 15,4489
16,50 17,120 18,30 24,20
25,50 26,129 27,149 28,439
29,839 30,149 31,609 32,99
33,80 36,40 37,10 38,429
39,869 40,2939 41,539 42,479
43,60 44,229 45,40 50,10
51,30 52,40 53,40 54,989
55,989 56,40 57,10 58,10
59,9999 60,239 61,40 66,10
67,1169 68,6379 69,259 70,20
71,10 74,20 99,40 100,10
101,50
##END=
