##TITLE=Benzene, 1,4-diethyl-
##JCAMP-DX=4.24
##DATA TYPE=MASS SPECTRUM
##ORIGIN=Japan AIST/NIMC Database- Spectrum MS-NW-3762
##OWNER=NIST Mass Spectrometry Data Center
Collection (C) 2014 copyright by the U.S. Secretary of Commerce
on behalf of the United States of America. All rights reserved.
##CAS REGISTRY NO=105-05-5
##$NIST MASS SPEC NO=229731
##MOLFORM=C10 H14
##MW=134
##$NIST SOURCE=MSDC
##XUNITS=M/Z
##YUNITS=RELATIVE INTENSITY
##XFACTOR=1
##YFACTOR=1
##FIRSTX=15
##LASTX=136
##FIRSTY=60
##MAXX=136
##MINX=15
##MAXY=9999
##MINY=10
##NPOINTS=71
##PEAK TABLE=(XY..XY)
15,60 26,30 27,429 28,40
29,209 37,20 38,60 39,539
40,50 41,559 42,20 44,10
49,10 50,199 51,529 52,149
53,189 54,10 55,30 57,109
58,80 59,30 61,20 62,90
63,289 64,109 65,419 66,50
67,30 74,70 75,80 76,60
77,949 78,399 79,669 80,40
86,20 87,30 88,10 89,179
90,80 91,1999 92,179 93,169
94,10 98,10 101,20 102,129
103,679 104,739 105,7579 106,729
107,30 113,10 114,10 115,409
116,129 117,809 118,169 119,9999
120,1059 121,50 127,20 128,40
129,20 131,20 132,20 133,169
134,5139 135,599 136,30
##END=
