##TITLE=Propanoic acid, ethenyl ester
##JCAMP-DX=4.24
##DATA TYPE=MASS SPECTRUM
##ORIGIN=Japan AIST/NIMC Database- Spectrum MS-NW-7692
##OWNER=NIST Mass Spectrometry Data Center
Collection (C) 2014 copyright by the U.S. Secretary of Commerce
on behalf of the United States of America. All rights reserved.
##CAS REGISTRY NO=105-38-4
##$NIST MASS SPEC NO=228070
##MOLFORM=C5 H8 O2
##MW=100
##$NIST SOURCE=MSDC
##XUNITS=M/Z
##YUNITS=RELATIVE INTENSITY
##XFACTOR=1
##YFACTOR=1
##FIRSTX=13
##LASTX=101
##FIRSTY=30
##MAXX=101
##MINX=13
##MAXY=9999
##MINY=10
##NPOINTS=33
##PEAK TABLE=(XY..XY)
13,30 14,149 15,399 16,10
18,10 25,50 26,489 27,2299
28,639 29,9649 30,209 31,40
32,10 38,10 39,40 41,60
42,339 43,1199 44,1159 45,80
46,10 53,30 54,10 55,169
56,259 57,9999 58,349 59,20
71,30 73,60 74,20 100,429
101,30
##END=
