##TITLE=1,2-Ethanediamine, N,N,N'-triethyl-
##JCAMP-DX=4.24
##DATA TYPE=MASS SPECTRUM
##ORIGIN=Japan AIST/NIMC Database- Spectrum MS-NW-3314
##OWNER=NIST Mass Spectrometry Data Center
Collection (C) 2014 copyright by the U.S. Secretary of Commerce
on behalf of the United States of America. All rights reserved.
##CAS REGISTRY NO=105-04-4
##$NIST MASS SPEC NO=230811
##MOLFORM=C8 H20 N2
##MW=144
##$NIST SOURCE=MSDC
##XUNITS=M/Z
##YUNITS=RELATIVE INTENSITY
##XFACTOR=1
##YFACTOR=1
##FIRSTX=15
##LASTX=145
##FIRSTY=70
##MAXX=145
##MINX=15
##MAXY=9999
##MINY=10
##NPOINTS=42
##PEAK TABLE=(XY..XY)
15,70 26,20 27,229 28,329
29,469 30,1309 31,20 39,10
40,20 41,80 42,369 43,109
44,359 45,10 54,40 55,30
56,359 57,179 58,1809 59,70
68,10 69,20 70,90 71,80
72,679 73,40 84,60 85,70
86,9999 87,889 88,30 97,10
98,10 99,40 100,50 101,10
113,40 127,99 128,10 141,10
144,80 145,10
##END=
