##TITLE=Geranyl propionate
##JCAMP-DX=4.24
##DATA TYPE=MASS SPECTRUM
##ORIGIN=W.Jennings, T.Shibamoto
##OWNER=NIST Mass Spectrometry Data Center
Collection (C) 2014 copyright by the U.S. Secretary of Commerce
on behalf of the United States of America. All rights reserved.
##CAS REGISTRY NO=105-90-8
##$NIST MASS SPEC NO=285279
##MOLFORM=C13 H22 O2
##MW=210
##$NIST SOURCE=MSDC
##XUNITS=M/Z
##YUNITS=RELATIVE INTENSITY
##XFACTOR=1
##YFACTOR=1
##FIRSTX=24
##LASTX=154
##FIRSTY=480
##MAXX=154
##MINX=24
##MAXY=9999
##MINY=70
##NPOINTS=46
##PEAK TABLE=(XY..XY)
24,480 27,190 28,190 29,2282
39,70 40,70 41,6156 42,190
43,480 47,70 53,480 55,390
56,70 57,7176 58,280 64,70
65,70 66,390 67,1391 68,6116
69,9999 70,991 71,70 77,70
79,390 80,2192 81,1091 82,70
84,280 85,480 91,190 92,1031
93,3223 94,691 95,190 105,70
107,691 108,280 109,70 121,2112
122,190 123,280 136,1722 137,280
141,70 154,70
##END=
