##TITLE=2(3H)-Furanone, dihydro-5-propyl-
##JCAMP-DX=4.24
##DATA TYPE=MASS SPECTRUM
##OWNER=NIST Mass Spectrometry Data Center
Collection (C) 2014 copyright by the U.S. Secretary of Commerce
on behalf of the United States of America. All rights reserved.
##CAS REGISTRY NO=105-21-5
##$NIST MASS SPEC NO=2734
##MOLFORM=C7 H12 O2
##MW=128
##$NIST SOURCE=MSDC
##XUNITS=M/Z
##YUNITS=RELATIVE INTENSITY
##XFACTOR=1
##YFACTOR=1
##FIRSTX=15
##LASTX=128
##FIRSTY=90
##MAXX=128
##MINX=15
##MAXY=9999
##MINY=80
##NPOINTS=34
##PEAK TABLE=(XY..XY)
15,90 26,110 27,1081 28,550
29,2853 30,90 31,80 39,561
40,90 41,1271 42,841 43,1131
44,290 53,120 54,100 55,961
56,2092 57,1351 58,110 67,100
68,130 69,330 70,150 71,641
72,190 73,240 84,320 85,9999
86,500 87,100 99,300 100,520
110,751 128,290
##END=
