##TITLE=p-Dinitrosobenzene
##JCAMP-DX=4.24
##DATA TYPE=MASS SPECTRUM
##ORIGIN=Japan AIST/NIMC Database- Spectrum MS-NW-1441
##OWNER=NIST Mass Spectrometry Data Center
Collection (C) 2014 copyright by the U.S. Secretary of Commerce
on behalf of the United States of America. All rights reserved.
##CAS REGISTRY NO=105-12-4
##$NIST MASS SPEC NO=233821
##MOLFORM=C6 H4 N2 O2
##MW=136
##$NIST SOURCE=MSDC
##XUNITS=M/Z
##YUNITS=RELATIVE INTENSITY
##XFACTOR=1
##YFACTOR=1
##FIRSTX=12
##LASTX=139
##FIRSTY=20
##MAXX=139
##MINX=12
##MAXY=9999
##MINY=10
##NPOINTS=80
##PEAK TABLE=(XY..XY)
12,20 13,10 14,99 15,50
16,129 24,10 25,40 26,229
27,179 28,189 29,239 30,1149
31,20 32,40 36,60 37,579
38,589 39,529 40,80 41,80
42,40 43,179 44,159 45,30
46,40 48,20 49,189 50,3249
51,879 52,359 53,129 54,30
55,50 56,20 57,20 58,20
59,20 60,80 61,309 62,419
63,809 64,719 65,289 66,50
67,40 68,70 69,20 70,20
71,30 72,10 73,259 74,1469
75,1639 76,9999 77,779 78,119
79,50 80,40 81,20 82,10
83,20 86,30 87,70 88,70
89,40 90,139 91,30 92,389
93,40 103,20 105,50 106,3229
107,269 108,80 119,20 120,10
136,6639 137,509 138,229 139,20
##END=
