##TITLE=Diethyl carbonate
##JCAMP-DX=4.24
##DATA TYPE=MASS SPECTRUM
##ORIGIN=NIST Mass Spectrometry Data Center, 1990.
##OWNER=NIST Mass Spectrometry Data Center
Collection (C) 2014 copyright by the U.S. Secretary of Commerce
on behalf of the United States of America. All rights reserved.
##CAS REGISTRY NO=105-58-8
##$NIST MASS SPEC NO=118691
##MOLFORM=C5 H10 O3
##MW=118
##$NIST SOURCE=MSDC
##XUNITS=M/Z
##YUNITS=RELATIVE INTENSITY
##XFACTOR=1
##YFACTOR=1
##FIRSTX=13
##LASTX=118
##FIRSTY=48
##MAXX=118
##MINX=13
##MAXY=9999
##MINY=21
##NPOINTS=36
##PEAK TABLE=(XY..XY)
13,48 14,244 15,704 16,21
17,45 18,29 19,295 26,806
27,3463 28,1769 29,9446 30,757
31,5938 32,242 40,56 41,470
42,174 43,745 44,56 45,9999
46,386 47,317 56,64 57,31
58,50 59,336 63,2064 64,32
73,98 74,53 75,281 89,52
91,4830 92,171 93,53 118,32
##END=
