##TITLE=Methyldiethanolamine
##JCAMP-DX=4.24
##DATA TYPE=MASS SPECTRUM
##ORIGIN=NIST Mass Spectrometry Data Center, 1998.
##OWNER=NIST Mass Spectrometry Data Center
Collection (C) 2014 copyright by the U.S. Secretary of Commerce
on behalf of the United States of America. All rights reserved.
##CAS REGISTRY NO=105-59-9
##$NIST MASS SPEC NO=291538
##MOLFORM=C5 H13 N O2
##MW=119
##$NIST SOURCE=MSDC
##XUNITS=M/Z
##YUNITS=RELATIVE INTENSITY
##XFACTOR=1
##YFACTOR=1
##FIRSTX=15
##LASTX=120
##FIRSTY=160
##MAXX=120
##MINX=15
##MAXY=9999
##MINY=10
##NPOINTS=46
##PEAK TABLE=(XY..XY)
15,160 18,70 19,20 26,50
27,360 28,260 29,380 30,260
31,380 32,10 38,20 39,30
40,80 41,290 42,2150 43,760
44,8769 45,3130 46,80 51,20
52,20 54,80 55,60 56,460
57,370 58,660 59,50 70,280
71,70 72,150 73,60 74,310
75,30 77,40 82,10 84,10
86,70 88,9999 89,500 90,20
100,50 104,20 105,50 118,50
119,230 120,20
##END=
