##TITLE=Divinyldimethylsilane
##JCAMP-DX=4.24
##DATA TYPE=MASS SPECTRUM
##ORIGIN=Institute of Organic Chemistry, Novosibirsk, USSR 1988
##OWNER=NIST Mass Spectrometry Data Center
Collection (C) 2014 copyright by the U.S. Secretary of Commerce
on behalf of the United States of America. All rights reserved.
##CAS REGISTRY NO=10519-87-6
##$NIST MASS SPEC NO=109905
##MOLFORM=C6 H12 Si
##MW=112
##$NIST SOURCE=MSDC
##XUNITS=M/Z
##YUNITS=RELATIVE INTENSITY
##XFACTOR=1
##YFACTOR=1
##FIRSTX=27
##LASTX=112
##FIRSTY=89
##MAXX=112
##MINX=27
##MAXY=9999
##MINY=79
##NPOINTS=34
##PEAK TABLE=(XY..XY)
27,89 28,3719 29,279 30,2869
31,679 41,89 42,99 43,1379
44,1099 45,1339 46,89 55,629
56,79 57,219 58,939 59,3209
60,199 61,109 69,519 70,419
71,4609 72,539 73,319 83,89
84,219 85,1199 86,99 95,629
96,89 97,9999 98,1229 99,399
111,99 112,129
##END=
