##TITLE=3-Decen-2-one
##JCAMP-DX=4.24
##DATA TYPE=MASS SPECTRUM
##ORIGIN=T. REICHENBACH
##OWNER=NIST Mass Spectrometry Data Center
Collection (C) 2014 copyright by the U.S. Secretary of Commerce
on behalf of the United States of America. All rights reserved.
##CAS REGISTRY NO=10519-33-2
##$NIST MASS SPEC NO=26980
##MOLFORM=C10 H18 O
##MW=154
##$NIST SOURCE=MSDC
##XUNITS=M/Z
##YUNITS=RELATIVE INTENSITY
##XFACTOR=1
##YFACTOR=1
##FIRSTX=13
##LASTX=155
##FIRSTY=24
##MAXX=155
##MINX=13
##MAXY=9999
##MINY=9
##NPOINTS=90
##PEAK TABLE=(XY..XY)
13,24 14,160 15,1358 16,23
17,13 18,38 25,11 26,265
27,3230 28,540 29,2761 30,625
31,26 37,45 38,156 39,2202
40,459 41,3463 42,689 43,9999
44,256 45,68 47,10 49,9
50,94 51,413 52,210 53,1043
54,831 55,7207 56,535 57,344
58,232 59,125 60,11 61,22
62,53 63,102 64,24 65,163
66,135 67,661 68,816 69,3399
70,252 71,2400 72,267 73,29
74,19 75,15 77,130 78,35
79,244 80,46 81,757 82,177
83,400 84,755 85,246 86,191
87,20 91,38 92,15 93,117
94,303 95,307 96,1134 97,2098
98,236 99,129 100,17 102,14
105,11 107,88 108,20 109,49
110,42 111,473 112,89 113,56
121,59 125,251 126,29 136,114
137,19 139,2481 140,248 141,18
154,299 155,46
##END=
