##TITLE=Ferulic acid, 2TMS derivative
##JCAMP-DX=4.24
##DATA TYPE=MASS SPECTRUM
##OWNER=NIST Mass Spectrometry Data Center
Collection (C) 2014 copyright by the U.S. Secretary of Commerce
on behalf of the United States of America. All rights reserved.
##CAS REGISTRY NO=10517-09-6
##$NIST MASS SPEC NO=15616
##MOLFORM=C16 H26 O4 Si2
##MW=338
##$NIST SOURCE=MSDC
##XUNITS=M/Z
##YUNITS=RELATIVE INTENSITY
##XFACTOR=1
##YFACTOR=1
##FIRSTX=45
##LASTX=341
##FIRSTY=1702
##MAXX=341
##MINX=45
##MAXY=9999
##MINY=100
##NPOINTS=121
##PEAK TABLE=(XY..XY)
45,1702 46,200 50,200 51,200
52,200 53,100 57,300 59,701
61,300 63,100 69,200 70,100
71,100 72,300 73,8207 74,701
75,2803 76,200 77,500 78,200
79,701 83,200 85,200 88,200
89,701 91,300 93,300 95,300
97,100 99,100 101,100 102,400
103,300 104,100 105,300 107,200
109,200 115,400 116,100 117,500
118,200 119,200 125,100 129,300
130,100 131,300 132,300 133,300
135,300 139,300 143,200 145,300
146,200 147,601 148,200 149,500
150,100 151,100 155,601 156,100
159,200 160,400 161,300 162,200
173,100 174,100 175,701 176,100
177,200 178,100 179,500 180,100
189,100 190,601 191,1101 192,400
193,200 203,400 204,300 205,400
206,100 207,200 209,400 210,100
217,200 218,500 219,2202 220,300
221,300 222,200 223,200 231,100
232,100 233,500 234,100 235,100
236,300 249,4004 250,601 251,300
263,100 264,200 265,100 266,200
279,300 280,200 293,1401 294,400
295,200 308,4004 309,1001 310,400
311,100 323,4104 324,1001 325,400
326,100 338,9999 339,2903 340,1101
341,200
##END=
