##TITLE=3-(3-Methoxyphenyl)propanoic acid
##JCAMP-DX=4.24
##DATA TYPE=MASS SPECTRUM
##ORIGIN=NIST Mass Spectrometry Data Center, 1994
##OWNER=NIST Mass Spectrometry Data Center
Collection (C) 2014 copyright by the U.S. Secretary of Commerce
on behalf of the United States of America. All rights reserved.
##CAS REGISTRY NO=10516-71-9
##$NIST MASS SPEC NO=134991
##MOLFORM=C10 H12 O3
##MW=180
##$NIST SOURCE=MSDC
##XUNITS=M/Z
##YUNITS=RELATIVE INTENSITY
##XFACTOR=1
##YFACTOR=1
##FIRSTX=15
##LASTX=182
##FIRSTY=836
##MAXX=182
##MINX=15
##MAXY=9999
##MINY=33
##NPOINTS=87
##PEAK TABLE=(XY..XY)
15,836 18,72 26,172 27,817
28,219 29,368 30,53 31,155
36,45 37,112 38,511 39,1970
40,250 41,522 42,206 43,217
44,45 45,1332 46,61 50,859
51,1630 52,714 53,532 54,60
55,667 57,55 60,43 61,86
62,421 63,1545 64,868 65,2445
66,342 67,248 69,46 73,80
74,305 75,279 76,363 77,3471
78,2022 79,1551 80,133 81,112
86,55 87,71 89,788 91,5859
92,1209 93,219 94,210 95,157
101,73 102,287 103,1452 104,795
105,2818 106,475 107,389 108,586
109,265 110,38 115,46 117,33
118,117 119,368 120,33 121,6804
122,623 123,93 125,57 127,37
131,117 132,55 134,5617 135,9999
136,985 137,171 147,42 149,77
161,74 162,82 163,103 165,36
180,6935 181,777 182,106
##END=
