##TITLE=Propanoic acid, 2-methyl-, nonyl ester
##JCAMP-DX=4.24
##DATA TYPE=MASS SPECTRUM
##ORIGIN=Insect Chem. Ecol. Lab., USDA, Beltsville, MD 20705
##OWNER=NIST Mass Spectrometry Data Center
Collection (C) 2014 copyright by the U.S. Secretary of Commerce
on behalf of the United States of America. All rights reserved.
##CAS REGISTRY NO=10522-34-6
##$NIST MASS SPEC NO=132248
##MOLFORM=C13 H26 O2
##MW=214
##$NIST SOURCE=MSDC
##XUNITS=M/Z
##YUNITS=RELATIVE INTENSITY
##XFACTOR=1
##YFACTOR=1
##FIRSTX=41
##LASTX=216
##FIRSTY=5237
##MAXX=216
##MINX=41
##MAXY=9999
##MINY=4
##NPOINTS=79
##PEAK TABLE=(XY..XY)
41,5237 42,1950 43,9999 44,373
45,89 47,77 48,21 53,281
54,426 55,3259 56,3910 57,2780
58,21 59,232 60,13 65,40
66,34 67,391 68,699 69,2457
70,3340 71,6135 72,440 75,30
77,27 78,5 79,45 81,125
82,899 83,2167 84,2598 85,1056
86,215 88,481 89,8233 90,339
91,48 93,6 95,40 96,400
97,2384 98,1751 99,124 101,145
102,6 103,4 105,6 109,6
110,4 111,124 112,39 113,10
115,53 116,16 117,10 123,5
124,22 125,46 126,3007 127,300
129,68 130,10 140,12 141,80
142,12 143,76 144,89 145,5
149,6 153,6 157,35 158,4
170,4 171,371 172,33 213,6
214,90 215,33 216,4
##END=
