##TITLE=CF3C.$.CC.$.CCF3
##JCAMP-DX=4.24
##DATA TYPE=MASS SPECTRUM
##ORIGIN=ASES Database, Dalian Institute, P.R. China
##OWNER=NIST Mass Spectrometry Data Center
Collection (C) 2014 copyright by the U.S. Secretary of Commerce
on behalf of the United States of America. All rights reserved.
##CAS REGISTRY NO=10524-09-1
##$NIST MASS SPEC NO=145695
##MOLFORM=C6 F6
##MW=186
##$NIST SOURCE=MSDC
##XUNITS=M/Z
##YUNITS=RELATIVE INTENSITY
##XFACTOR=1
##YFACTOR=1
##FIRSTX=31
##LASTX=186
##FIRSTY=8517
##MAXX=186
##MINX=31
##MAXY=9999
##MINY=190
##NPOINTS=18
##PEAK TABLE=(XY..XY)
31,8517 36,290 48,690 50,800
55,600 60,190 67,680 69,4594
74,780 79,3453 86,1010 93,1301
98,3993 117,9999 136,2402 148,1291
167,7767 186,6285
##END=
