##TITLE=2-Bromotetradecanoic acid
##JCAMP-DX=4.24
##DATA TYPE=MASS SPECTRUM
##ORIGIN=NIST Mass Spectrometry Data Center, 1992
##OWNER=NIST Mass Spectrometry Data Center
Collection (C) 2014 copyright by the U.S. Secretary of Commerce
on behalf of the United States of America. All rights reserved.
##CAS REGISTRY NO=10520-81-7
##$NIST MASS SPEC NO=125223
##MOLFORM=C14 H27 Br O2
##MW=306
##$NIST SOURCE=MSDC
##XUNITS=M/Z
##YUNITS=RELATIVE INTENSITY
##XFACTOR=1
##YFACTOR=1
##FIRSTX=12
##LASTX=308
##FIRSTY=109
##MAXX=308
##MINX=12
##MAXY=9999
##MINY=61
##NPOINTS=189
##PEAK TABLE=(XY..XY)
12,109 14,115 15,163 16,200
17,182 18,316 27,2966 28,2215
29,4733 30,1069 35,153 36,274
37,302 38,454 39,2639 40,776
41,9999 42,2295 43,9461 44,2536
45,902 46,128 47,84 49,212
50,605 51,678 52,271 53,1315
54,1249 55,7123 56,2762 57,6165
58,394 59,256 60,287 61,227
62,329 63,823 64,209 65,434
66,422 67,2391 68,1761 69,3867
70,2341 71,2691 72,200 73,4363
74,1234 75,1682 76,404 77,514
78,266 79,626 80,484 81,2467
82,2616 83,2993 84,1799 85,1731
86,1030 87,1175 88,172 89,131
90,223 91,505 92,162 93,289
94,404 95,2012 96,2129 97,2581
98,1657 99,3395 100,528 101,1389
102,285 103,171 104,109 105,546
106,107 107,394 108,288 109,1219
110,1297 111,1566 112,787 113,1019
114,505 115,1029 116,253 117,167
118,103 119,328 120,110 121,281
122,196 123,681 124,764 125,890
126,580 127,1472 128,317 129,2001
130,347 131,76 132,123 133,220
134,217 135,414 136,261 137,634
138,2212 139,76 140,1956 141,180
142,76 143,1675 144,344 145,362
146,100 147,393 148,152 149,616
150,100 151,658 152,535 153,1028
154,368 155,469 156,100 157,537
158,196 159,144 163,160 164,388
165,357 166,398 167,217 169,159
171,895 172,235 173,326 175,68
177,106 179,157 180,323 181,540
182,845 183,338 184,260 185,815
186,162 190,79 191,206 193,866
195,736 196,85 197,128 198,79
199,357 200,79 201,1434 202,214
203,472 204,99 207,784 208,336
209,1077 210,186 212,94 221,76
223,83 226,246 227,1173 228,185
235,172 237,158 241,104 249,349
250,104 251,335 263,322 264,72
265,282 300,61 306,211 307,77
308,153
##END=
