##TITLE=1-Butene, 4-chloro-2-methyl-
##JCAMP-DX=4.24
##DATA TYPE=MASS SPECTRUM
##ORIGIN=COMPAGNIE FRANCAISE DE RAFFINAGE, FRANCE.
##OWNER=NIST Mass Spectrometry Data Center
Collection (C) 2014 copyright by the U.S. Secretary of Commerce
on behalf of the United States of America. All rights reserved.
##CAS REGISTRY NO=10523-96-3
##$NIST MASS SPEC NO=1304
##MOLFORM=C5 H9 Cl
##MW=104
##$NIST SOURCE=MSDC
##XUNITS=M/Z
##YUNITS=RELATIVE INTENSITY
##XFACTOR=1
##YFACTOR=1
##FIRSTX=26
##LASTX=106
##FIRSTY=408
##MAXX=106
##MINX=26
##MAXY=9999
##MINY=17
##NPOINTS=47
##PEAK TABLE=(XY..XY)
26,408 27,2865 28,541 29,3295
30,79 31,102 35,62 36,327
37,269 38,632 39,4138 40,1240
41,5560 42,1081 43,439 49,396
50,401 51,684 52,216 53,2677
54,316 55,9999 56,529 57,134
61,146 62,201 63,267 64,57
65,211 66,230 67,1586 68,1475
69,7070 70,461 71,132 75,181
76,196 77,59 78,65 87,21
88,17 89,647 90,35 91,233
104,3077 105,187 106,1006
##END=
