##TITLE=1-Butene, 4-chloro-3-methyl-
##JCAMP-DX=4.24
##DATA TYPE=MASS SPECTRUM
##ORIGIN=COMPAGNIE FRANCAISE DE RAFFINAGE, FRANCE.
##OWNER=NIST Mass Spectrometry Data Center
Collection (C) 2014 copyright by the U.S. Secretary of Commerce
on behalf of the United States of America. All rights reserved.
##CAS REGISTRY NO=10524-01-3
##$NIST MASS SPEC NO=1301
##MOLFORM=C5 H9 Cl
##MW=104
##$NIST SOURCE=MSDC
##XUNITS=M/Z
##YUNITS=RELATIVE INTENSITY
##XFACTOR=1
##YFACTOR=1
##FIRSTX=26
##LASTX=106
##FIRSTY=325
##MAXX=106
##MINX=26
##MAXY=9999
##MINY=13
##NPOINTS=49
##PEAK TABLE=(XY..XY)
26,325 27,2008 28,337 29,2371
30,58 31,73 35,28 36,142
37,152 38,316 39,2265 40,428
41,2686 42,572 43,158 49,370
50,320 51,558 52,154 53,1988
54,302 55,9999 56,511 57,61
61,107 62,104 63,196 64,32
65,185 66,106 67,635 68,707
69,4255 70,258 71,37 75,141
76,183 77,56 78,67 87,23
88,13 89,489 90,22 91,143
102,183 103,20 104,467 105,29
106,131
##END=
