##TITLE=Benzenepropanoic acid, 2,5-dimethoxy-
##JCAMP-DX=4.24
##DATA TYPE=MASS SPECTRUM
##ORIGIN=NIST Mass Spectrometry Data Center, 1994
##OWNER=NIST Mass Spectrometry Data Center
Collection (C) 2014 copyright by the U.S. Secretary of Commerce
on behalf of the United States of America. All rights reserved.
##CAS REGISTRY NO=10538-49-5
##$NIST MASS SPEC NO=134802
##MOLFORM=C11 H14 O4
##MW=210
##$NIST SOURCE=MSDC
##XUNITS=M/Z
##YUNITS=RELATIVE INTENSITY
##XFACTOR=1
##YFACTOR=1
##FIRSTX=14
##LASTX=212
##FIRSTY=313
##MAXX=212
##MINX=14
##MAXY=9999
##MINY=58
##NPOINTS=111
##PEAK TABLE=(XY..XY)
14,313 15,2970 16,61 18,143
26,414 27,1209 28,888 29,753
30,78 31,344 32,103 37,81
38,443 39,2716 40,317 41,780
42,402 43,751 44,78 45,2476
46,82 50,970 51,2664 52,1164
53,2192 54,909 55,2404 56,91
57,83 59,217 60,88 61,155
62,530 63,1574 64,904 65,3213
66,558 67,431 68,130 69,309
74,373 75,383 77,5960 78,2607
79,2851 80,314 81,249 82,380
83,117 84,102 85,71 86,80
87,87 88,71 89,889 90,856
91,5190 92,1206 93,954 94,265
95,276 96,110 98,256 101,58
102,185 103,668 104,179 105,838
106,762 107,1675 108,967 109,354
110,234 111,62 117,77 118,552
119,404 120,62 121,6641 122,753
123,1223 124,62 125,1867 126,143
133,1193 134,590 135,3178 136,735
137,524 138,247 139,84 149,1982
150,1190 151,7751 152,927 153,2664
154,247 161,133 162,114 163,593
164,1408 165,437 166,83 167,65
177,2875 178,352 179,76 195,166
210,9999 211,1236 212,67
##END=
