##TITLE=Bis(pentafluorophenyl)dimethylsilane
##JCAMP-DX=4.24
##DATA TYPE=MASS SPECTRUM
##ORIGIN=NIST Mass Spectrometry Data Center, 1994
##OWNER=NIST Mass Spectrometry Data Center
Collection (C) 2014 copyright by the U.S. Secretary of Commerce
on behalf of the United States of America. All rights reserved.
##CAS REGISTRY NO=10536-62-6
##$NIST MASS SPEC NO=136358
##MOLFORM=C14 H6 F10 Si
##MW=392
##$NIST SOURCE=MSDC
##XUNITS=M/Z
##YUNITS=RELATIVE INTENSITY
##XFACTOR=1
##YFACTOR=1
##FIRSTX=15
##LASTX=395
##FIRSTY=683
##MAXX=395
##MINX=15
##MAXY=9999
##MINY=11
##NPOINTS=190
##PEAK TABLE=(XY..XY)
15,683 18,43 27,146 31,305
33,33 39,125 43,11 47,1828
48,119 49,567 50,126 51,678
55,39 56,51 57,305 61,217
62,158 63,117 67,154 68,115
69,648 73,53 74,207 75,1858
76,157 77,1371 78,133 79,1037
80,479 81,6223 82,429 83,200
84,53 85,474 86,171 87,91
88,28 91,280 92,215 93,821
94,143 95,191 98,576 99,900
100,65 101,104 103,70 104,112
105,263 106,46 109,55 110,372
111,358 112,141 113,126 115,46
117,575 118,79 119,707 120,80
121,45 122,79 123,280 124,45
125,1636 126,145 127,65 128,45
129,2223 130,200 131,36 132,60
133,59 134,61 135,53 137,132
138,39 139,89 140,58 141,248
142,36 143,543 144,139 145,78
146,126 147,62 148,277 149,47
152,66 153,90 155,43 157,43
158,110 159,283 160,84 161,162
162,43 163,452 164,193 165,247
166,48 167,62 168,50 170,68
171,56 173,54 177,103 178,53
179,75 181,90 183,283 184,51
185,121 189,315 191,50 196,97
197,35 199,43 203,336 204,235
205,110 208,163 209,238 210,52
216,39 217,71 221,51 222,278
223,839 224,136 225,144 226,39
227,1571 228,245 229,93 233,86
234,71 235,78 236,35 239,145
240,154 241,139 242,680 243,104
246,130 247,207 253,1048 254,476
255,89 258,963 259,139 260,126
261,103 265,151 267,110 271,166
272,214 273,2302 274,314 277,7689
278,1313 279,120 291,740 292,244
293,85 296,212 297,35 308,147
309,54 311,105 312,51 313,43
315,102 326,117 327,228 331,51
339,59 343,98 344,65 357,299
358,165 359,39 362,299 377,3709
378,748 379,179 392,9999 393,2094
394,595 395,67
##END=
