##TITLE=Benzamide, N-(1-methylhexyl)-
##JCAMP-DX=4.24
##DATA TYPE=MASS SPECTRUM
##ORIGIN=A.A.Kutin, Moscow, Russia
##OWNER=NIST Mass Spectrometry Data Center
Collection (C) 2014 copyright by the U.S. Secretary of Commerce
on behalf of the United States of America. All rights reserved.
##CAS REGISTRY NO=105452-89-9
##$NIST MASS SPEC NO=270792
##MOLFORM=C14 H21 N O
##MW=219
##$NIST SOURCE=MSDC
##XUNITS=M/Z
##YUNITS=RELATIVE INTENSITY
##XFACTOR=1
##YFACTOR=1
##FIRSTX=44
##LASTX=224
##FIRSTY=50
##MAXX=224
##MINX=44
##MAXY=9999
##MINY=10
##NPOINTS=133
##PEAK TABLE=(XY..XY)
44,50 45,1401 46,140 47,30
48,30 50,300 51,1441 52,200
53,240 54,100 55,1141 56,1071
57,641 58,20 59,400 60,30
61,50 62,130 63,160 64,60
65,170 66,30 67,70 68,20
69,430 70,330 71,110 72,80
73,50 74,30 75,80 76,561
77,3853 78,1251 79,80 80,60
81,90 82,100 83,130 85,30
89,30 90,20 91,190 92,140
93,160 94,50 95,20 97,40
98,190 99,40 100,10 101,30
102,30 103,100 104,601 105,9999
106,2372 107,300 108,30 109,20
110,10 111,10 116,10 117,50
118,100 119,80 120,20 121,150
122,2192 123,290 124,20 126,10
127,10 128,10 130,30 131,50
132,10 133,40 134,140 135,100
136,40 141,60 142,20 143,20
145,40 146,100 147,120 148,2092
149,130 150,20 151,30 156,30
157,20 160,50 161,40 162,2212
163,951 164,60 165,60 166,10
167,40 168,20 169,20 172,30
173,10 174,10 175,30 176,1682
177,631 178,90 180,40 181,30
182,130 183,10 187,10 188,20
189,40 190,1682 191,370 192,20
193,10 199,10 204,90 205,120
206,10 217,10 218,60 219,1081
220,330 221,30 222,10 223,20
224,20
##END=
