##TITLE=Octadecane, 6-methyl-
##JCAMP-DX=4.24
##DATA TYPE=MASS SPECTRUM
##ORIGIN=R.T.HOLMAN,UNIVERSITY OF MINNESOTA
##OWNER=NIST Mass Spectrometry Data Center
Collection (C) 2014 copyright by the U.S. Secretary of Commerce
on behalf of the United States of America. All rights reserved.
##CAS REGISTRY NO=10544-96-4
##$NIST MASS SPEC NO=35803
##MOLFORM=C19 H40
##MW=268
##$NIST SOURCE=MSDC
##XUNITS=M/Z
##YUNITS=RELATIVE INTENSITY
##XFACTOR=1
##YFACTOR=1
##FIRSTX=26
##LASTX=268
##FIRSTY=160
##MAXX=268
##MINX=26
##MAXY=9999
##MINY=30
##NPOINTS=116
##PEAK TABLE=(XY..XY)
26,160 27,1200 28,5600 29,2800
30,170 31,50 32,470 35,30
36,50 37,50 38,70 39,720
40,220 41,4500 42,1100 43,7100
44,900 45,80 50,50 51,80
52,50 53,280 54,290 55,2800
56,1600 57,9999 58,510 59,50
60,70 63,50 65,180 66,60
67,330 68,260 69,1200 70,880
71,3000 72,180 73,190 74,60
75,30 76,30 77,190 78,40
79,110 80,40 81,170 82,200
83,530 84,280 85,1600 86,130
87,50 88,30 89,30 91,200
92,40 93,50 94,30 95,90
96,120 97,320 98,1400 99,800
100,180 103,30 104,30 105,60
106,60 107,40 109,50 110,70
111,160 112,110 113,330 114,50
115,40 117,30 119,40 121,30
123,30 124,40 125,100 126,80
127,240 128,50 131,40 133,30
138,30 139,60 140,50 141,170
142,40 143,30 147,30 149,40
152,30 153,40 154,40 155,90
156,30 167,30 168,100 169,60
183,40 196,250 197,250 198,50
210,30 211,30 224,30 225,30
239,30 240,50 253,50 268,34
##END=
