##TITLE=Sulfur dichloride
##JCAMP-DX=4.24
##DATA TYPE=MASS SPECTRUM
##OWNER=NIST Mass Spectrometry Data Center
Collection (C) 2014 copyright by the U.S. Secretary of Commerce
on behalf of the United States of America. All rights reserved.
##CAS REGISTRY NO=10545-99-0
##$NIST MASS SPEC NO=1237
##MOLFORM=Cl2 S
##MW=102
##$NIST SOURCE=MSDC
##XUNITS=M/Z
##YUNITS=RELATIVE INTENSITY
##XFACTOR=1
##YFACTOR=1
##FIRSTX=16
##LASTX=108
##FIRSTY=70
##MAXX=108
##MINX=16
##MAXY=9999
##MINY=20
##NPOINTS=24
##PEAK TABLE=(XY..XY)
16,70 32,1822 34,80 35,1491
37,470 48,60 51,410 52,280
53,60 64,751 65,20 66,70
67,9999 68,80 69,3693 70,440
71,150 72,260 102,6085 103,50
104,5195 105,40 106,1011 108,30
##END=
