##TITLE=Benzamide, N-propyl-
##JCAMP-DX=4.24
##DATA TYPE=MASS SPECTRUM
##ORIGIN=CARL DJERASSI DEPT OF CHEM STANFORD UNIV STANFORD CALIF 94305
##OWNER=NIST Mass Spectrometry Data Center
Collection (C) 2014 copyright by the U.S. Secretary of Commerce
on behalf of the United States of America. All rights reserved.
##CAS REGISTRY NO=10546-70-0
##$NIST MASS SPEC NO=46902
##MOLFORM=C10 H13 N O
##MW=163
##$NIST SOURCE=MSDC
##XUNITS=M/Z
##YUNITS=RELATIVE INTENSITY
##XFACTOR=1
##YFACTOR=1
##FIRSTX=41
##LASTX=164
##FIRSTY=200
##MAXX=164
##MINX=41
##MAXY=9999
##MINY=100
##NPOINTS=22
##PEAK TABLE=(XY..XY)
41,200 43,100 45,100 50,300
51,1100 52,100 74,100 75,100
76,200 77,3500 78,300 79,100
104,100 105,9999 106,800 122,200
134,500 135,200 148,100 162,400
163,2500 164,300
##END=
