##TITLE=N,N,N',N'-Tetraacetylethylenediamine
##JCAMP-DX=4.24
##DATA TYPE=MASS SPECTRUM
##ORIGIN=Japan AIST/NIMC Database- Spectrum MS-NW-3715
##OWNER=NIST Mass Spectrometry Data Center
Collection (C) 2014 copyright by the U.S. Secretary of Commerce
on behalf of the United States of America. All rights reserved.
##CAS REGISTRY NO=10543-57-4
##$NIST MASS SPEC NO=232345
##MOLFORM=C10 H16 N2 O4
##MW=228
##$NIST SOURCE=MSDC
##XUNITS=M/Z
##YUNITS=RELATIVE INTENSITY
##XFACTOR=1
##YFACTOR=1
##FIRSTX=13
##LASTX=228
##FIRSTY=10
##MAXX=228
##MINX=13
##MAXY=9999
##MINY=10
##NPOINTS=61
##PEAK TABLE=(XY..XY)
13,10 14,149 15,1579 16,20
26,40 27,139 28,70 29,60
30,4019 31,179 32,10 39,30
40,70 41,139 42,619 43,9999
44,609 45,179 52,20 54,90
55,779 56,119 57,90 58,80
59,179 60,259 68,20 70,70
71,50 72,4599 73,4019 74,169
75,10 83,80 84,2349 85,2559
86,399 87,269 88,10 99,159
100,30 101,229 102,509 103,40
114,459 115,1769 116,119 125,20
126,30 127,3839 128,309 129,109
143,90 144,119 145,20 157,90
168,80 171,20 185,60 186,30
228,10
##END=
