##TITLE=p-Octylacetophenone
##JCAMP-DX=4.24
##DATA TYPE=MASS SPECTRUM
##ORIGIN=NIST Mass Spectrometry Data Center, 1994
##OWNER=NIST Mass Spectrometry Data Center
Collection (C) 2014 copyright by the U.S. Secretary of Commerce
on behalf of the United States of America. All rights reserved.
##CAS REGISTRY NO=10541-56-7
##$NIST MASS SPEC NO=135677
##MOLFORM=C16 H24 O
##MW=232
##$NIST SOURCE=MSDC
##XUNITS=M/Z
##YUNITS=RELATIVE INTENSITY
##XFACTOR=1
##YFACTOR=1
##FIRSTX=14
##LASTX=234
##FIRSTY=6
##MAXX=234
##MINX=14
##MAXY=9999
##MINY=6
##NPOINTS=83
##PEAK TABLE=(XY..XY)
14,6 15,202 17,18 18,31
27,1296 28,244 29,1945 30,29
39,861 41,2207 43,5498 44,132
50,107 51,291 52,73 53,154
54,40 55,413 56,48 57,374
58,35 62,49 63,251 64,125
65,390 66,30 67,58 69,101
71,20 75,48 76,110 77,746
78,325 79,287 80,17 81,19
86,8 87,11 89,620 90,1256
91,2533 92,304 93,26 101,23
102,122 103,561 104,371 105,1506
106,135 115,332 116,84 117,174
118,575 119,187 120,23 121,42
127,34 128,57 129,51 130,23
131,805 132,131 133,581 134,489
135,55 145,131 147,171 148,29
159,86 160,19 161,21 173,37
174,38 175,49 187,16 189,22
217,9999 218,1534 219,151 220,12
232,1186 233,228 234,17
##END=
