##TITLE=2,5-Dichlorobenzylamine
##JCAMP-DX=4.24
##DATA TYPE=MASS SPECTRUM
##ORIGIN=NIST Mass Spectrometry Data Center, 1994
##OWNER=NIST Mass Spectrometry Data Center
Collection (C) 2014 copyright by the U.S. Secretary of Commerce
on behalf of the United States of America. All rights reserved.
##CAS REGISTRY NO=10541-69-2
##$NIST MASS SPEC NO=136500
##MOLFORM=C7 H7 Cl2 N
##MW=175
##$NIST SOURCE=MSDC
##XUNITS=M/Z
##YUNITS=RELATIVE INTENSITY
##XFACTOR=1
##YFACTOR=1
##FIRSTX=8
##LASTX=179
##FIRSTY=3
##MAXX=179
##MINX=8
##MAXY=9999
##MINY=3
##NPOINTS=104
##PEAK TABLE=(XY..XY)
8,3 16,113 17,116 18,53
25,42 26,202 27,229 28,6674
29,1983 30,8522 35,160 36,172
37,594 38,645 39,448 40,69
41,99 43,89 44,65 47,137
48,57 49,463 50,1799 51,1575
53,93 54,144 60,195 61,498
62,609 63,709 64,143 65,86
66,50 67,35 70,400 72,170
73,891 74,1717 75,2366 76,524
77,1879 78,417 79,53 83,54
84,385 85,497 86,389 87,450
88,188 89,392 90,47 96,43
97,168 98,48 99,173 100,223
101,83 102,366 103,113 104,381
105,153 106,39 107,44 108,111
109,659 110,220 111,1709 112,392
113,1328 114,163 115,304 120,27
123,513 124,125 125,204 126,42
133,85 135,62 136,149 137,57
138,509 139,42 140,9999 141,765
142,3187 143,259 145,144 146,503
147,434 148,369 149,267 150,81
151,50 159,513 160,45 161,297
163,53 172,142 174,2623 175,1372
176,1765 177,808 178,333 179,138
##END=
