##TITLE=Azulene, 1,2,3-triphenyl-
##JCAMP-DX=4.24
##DATA TYPE=MASS SPECTRUM
##OWNER=NIST Mass Spectrometry Data Center
Collection (C) 2014 copyright by the U.S. Secretary of Commerce
on behalf of the United States of America. All rights reserved.
##CAS REGISTRY NO=1055-26-1
##$NIST MASS SPEC NO=16046
##MOLFORM=C28 H20
##MW=356
##$NIST SOURCE=MSDC
##XUNITS=M/Z
##YUNITS=RELATIVE INTENSITY
##XFACTOR=1
##YFACTOR=1
##FIRSTX=39
##LASTX=359
##FIRSTY=230
##MAXX=359
##MINX=39
##MAXY=9999
##MINY=10
##NPOINTS=224
##PEAK TABLE=(XY..XY)
39,230 40,40 41,190 42,40
43,160 44,80 50,60 51,240
52,40 53,20 54,10 55,120
56,40 57,110 58,20 62,30
63,80 64,30 65,30 66,10
67,30 68,40 69,60 70,20
71,60 74,30 75,30 76,40
77,120 78,100 79,20 80,30
81,20 82,20 83,40 84,30
85,40 86,20 87,30 88,30
89,40 90,20 91,70 92,30
93,30 94,20 95,40 96,30
97,40 98,30 99,40 100,40
101,30 102,30 103,30 104,30
105,40 106,20 107,30 108,30
109,30 110,20 111,30 112,40
113,70 114,20 115,40 116,30
117,30 118,30 119,30 120,20
121,20 122,10 123,20 124,40
125,80 126,120 127,20 128,20
129,20 130,20 131,30 132,20
133,10 134,10 135,10 136,30
137,110 138,220 139,771 140,30
141,30 142,30 143,40 144,40
145,40 148,30 149,130 150,290
151,110 152,60 153,30 154,40
155,40 156,120 157,180 158,60
161,80 162,320 163,480 164,120
165,100 166,40 167,40 168,90
169,350 170,400 171,40 172,20
173,40 174,140 175,330 176,240
177,80 178,200 179,30 187,40
188,40 189,30 190,20 191,20
198,20 199,20 200,40 201,40
202,80 203,30 221,30 222,30
223,30 224,50 225,30 226,40
227,20 228,20 235,30 236,20
237,30 238,20 239,50 240,20
248,30 249,30 250,80 251,40
252,160 253,60 254,10 261,20
262,40 263,130 264,60 265,70
266,20 272,30 273,40 274,160
275,160 276,861 277,641 278,891
279,400 280,80 281,20 285,20
286,20 287,80 288,40 289,110
290,40 291,20 297,40 298,50
299,30 300,110 301,40 302,100
303,30 311,60 312,30 313,220
314,80 315,90 316,30 322,30
323,40 324,130 325,80 326,370
327,230 328,130 329,60 330,40
335,40 336,30 337,110 338,80
339,480 340,220 341,80 342,20
348,80 349,80 350,290 351,250
352,370 353,370 354,330 355,270
356,9999 357,3113 358,520 359,70
##END=
