##TITLE=1,3-Benzenedicarboxylic acid, 5-nitro-, bis(1-methylethyl) ester
##JCAMP-DX=4.24
##DATA TYPE=MASS SPECTRUM
##ORIGIN=NIST Mass Spectrometry Data Center, 1995
##OWNER=NIST Mass Spectrometry Data Center
Collection (C) 2014 copyright by the U.S. Secretary of Commerce
on behalf of the United States of America. All rights reserved.
##CAS REGISTRY NO=10552-74-6
##$NIST MASS SPEC NO=245278
##MOLFORM=C14 H17 N O6
##MW=295
##$NIST SOURCE=MSDC
##XUNITS=M/Z
##YUNITS=RELATIVE INTENSITY
##XFACTOR=1
##YFACTOR=1
##FIRSTX=12
##LASTX=296
##FIRSTY=38
##MAXX=296
##MINX=12
##MAXY=9999
##MINY=10
##NPOINTS=119
##PEAK TABLE=(XY..XY)
12,38 15,282 27,1668 30,196
33,16 37,46 38,132 39,949
40,234 41,2794 42,2164 43,6210
44,297 45,10 46,36 50,196
51,93 52,54 53,150 55,26
59,2176 60,86 61,24 62,98
63,221 64,176 65,351 69,73
74,692 75,3214 76,344 77,62
78,36 79,39 80,47 81,186
82,20 89,270 90,45 91,134
92,118 93,51 94,30 101,69
102,476 103,544 104,88 105,31
108,48 109,82 115,35 117,33
119,416 120,1905 121,287 122,69
123,33 132,24 133,28 134,22
135,27 136,250 137,103 138,48
146,34 148,2659 149,1173 150,148
151,43 161,49 162,168 163,96
164,43 165,1593 166,384 167,584
168,75 177,55 178,571 179,352
180,71 181,84 182,106 189,41
190,215 191,60 192,76 193,41
194,8117 195,2739 196,353 197,53
206,32 207,129 208,45 209,90
210,39 211,32 212,6447 213,605
214,135 220,949 221,388 222,52
234,46 236,9999 237,2673 238,395
239,50 252,38 253,658 254,5436
255,693 256,77 265,38 279,64
280,33 295,532 296,94
##END=
