##TITLE=1,3,5-Triazine, hexahydro-1,3,5-tris(1-methylethyl)-
##JCAMP-DX=4.24
##DATA TYPE=MASS SPECTRUM
##ORIGIN=E. SCHUMACHER INORG. CHEM. INST., UNIV., ZURICH, SWITZERLAND
##OWNER=NIST Mass Spectrometry Data Center
Collection (C) 2014 copyright by the U.S. Secretary of Commerce
on behalf of the United States of America. All rights reserved.
##CAS REGISTRY NO=10556-98-6
##$NIST MASS SPEC NO=9911
##MOLFORM=C12 H27 N3
##MW=213
##$NIST SOURCE=MSDC
##XUNITS=M/Z
##YUNITS=RELATIVE INTENSITY
##XFACTOR=1
##YFACTOR=1
##FIRSTX=41
##LASTX=213
##FIRSTY=1990
##MAXX=213
##MINX=41
##MAXY=9999
##MINY=130
##NPOINTS=18
##PEAK TABLE=(XY..XY)
41,1990 42,6310 43,5420 44,830
55,1160 56,9999 57,2120 70,1740
71,2810 72,4280 84,130 85,2860
100,290 127,4520 141,540 142,3260
212,830 213,620
##END=
