##TITLE=2-Hexene, 3-methyl-, (Z)-
##JCAMP-DX=4.24
##DATA TYPE=MASS SPECTRUM
##OWNER=NIST Mass Spectrometry Data Center
Collection (C) 2014 copyright by the U.S. Secretary of Commerce
on behalf of the United States of America. All rights reserved.
##CAS REGISTRY NO=10574-36-4
##$NIST MASS SPEC NO=927
##MOLFORM=C7 H14
##MW=98
##$NIST SOURCE=MSDC
##XUNITS=M/Z
##YUNITS=RELATIVE INTENSITY
##XFACTOR=1
##YFACTOR=1
##FIRSTX=12
##LASTX=99
##FIRSTY=10
##MAXX=99
##MINX=12
##MAXY=9999
##MINY=10
##NPOINTS=73
##PEAK TABLE=(XY..XY)
12,10 13,20 14,80 15,621
16,40 24,10 25,10 26,290
27,3103 28,561 29,1421 30,30
31,20 32,10 36,10 37,90
38,290 39,3403 40,540 41,9999
42,861 43,701 44,60 45,10
46,10 48,10 49,30 50,300
51,520 52,230 53,1231 54,400
55,4374 56,1952 57,250 58,10
59,10 60,10 61,20 62,60
63,120 64,20 65,180 66,80
67,641 68,440 69,9529 70,2522
71,120 72,10 73,10 74,20
75,10 76,10 77,100 78,30
79,100 80,20 81,180 82,50
83,901 84,60 85,10 86,10
87,10 91,10 93,10 94,10
95,10 96,10 97,20 98,3183
99,220
##END=
