##TITLE=4H-1,2,4-Triazole, 4-methyl-
##JCAMP-DX=4.24
##DATA TYPE=MASS SPECTRUM
##OWNER=NIST Mass Spectrometry Data Center
Collection (C) 2014 copyright by the U.S. Secretary of Commerce
on behalf of the United States of America. All rights reserved.
##CAS REGISTRY NO=10570-40-8
##$NIST MASS SPEC NO=483
##MOLFORM=C3 H5 N3
##MW=83
##$NIST SOURCE=MSDC
##XUNITS=M/Z
##YUNITS=RELATIVE INTENSITY
##XFACTOR=1
##YFACTOR=1
##FIRSTX=26
##LASTX=84
##FIRSTY=750
##MAXX=84
##MINX=26
##MAXY=9999
##MINY=100
##NPOINTS=17
##PEAK TABLE=(XY..XY)
26,750 27,6399 28,2600 29,300
30,150 38,100 39,200 40,550
41,550 42,2700 43,100 53,300
54,150 55,1500 56,700 83,9999
84,450
##END=
