##TITLE=2,4-Dihydroxybenzoic acid, 3TMS derivative
##JCAMP-DX=4.24
##DATA TYPE=MASS SPECTRUM
##ORIGIN=NIST Mass Spectrometry Data Center
##OWNER=NIST Mass Spectrometry Data Center
Collection (C) 2014 copyright by the U.S. Secretary of Commerce
on behalf of the United States of America. All rights reserved.
##CAS REGISTRY NO=10586-16-0
##$NIST MASS SPEC NO=352817
##MOLFORM=C16 H30 O4 Si3
##MW=370
##$NIST SOURCE=MSDC
##XUNITS=M/Z
##YUNITS=RELATIVE INTENSITY
##XFACTOR=1
##YFACTOR=1
##FIRSTX=29
##LASTX=372
##FIRSTY=10
##MAXX=372
##MINX=29
##MAXY=9999
##MINY=10
##NPOINTS=206
##PEAK TABLE=(XY..XY)
29,10 43,60 44,40 45,340
46,20 47,30 51,10 53,10
55,10 57,20 58,20 59,60
60,10 61,20 63,70 64,10
65,10 66,10 67,10 69,10
70,10 71,20 73,3223 74,290
75,240 76,20 77,80 78,10
79,30 81,10 83,50 84,10
85,20 87,10 89,30 90,10
91,90 92,10 93,30 94,10
95,30 96,10 97,20 99,40
101,10 102,10 103,70 104,40
105,150 106,20 107,40 108,10
109,40 110,10 111,20 113,10
115,60 116,10 117,60 118,10
119,190 120,20 121,90 122,10
123,20 125,10 126,10 127,20
128,10 129,30 130,10 131,140
132,30 133,490 134,80 135,140
136,20 137,60 138,10 139,10
141,60 143,50 144,10 145,40
146,10 147,601 148,110 149,310
150,50 151,50 152,10 153,20
154,10 155,20 157,30 158,10
159,20 161,30 162,10 163,110
164,30 165,50 166,10 167,50
168,10 169,20 170,120 173,10
175,10 176,10 177,60 178,10
179,90 180,30 181,40 182,10
183,10 189,20 191,90 192,20
193,150 194,30 195,110 196,20
197,10 203,10 205,20 206,10
207,140 208,40 209,340 210,60
211,30 219,10 221,40 222,20
223,360 224,80 225,60 226,10
227,10 233,10 235,20 236,10
237,140 238,30 239,30 240,10
247,10 249,30 250,10 251,80
252,30 253,40 254,20 255,10
263,50 264,10 265,50 266,20
267,300 268,70 269,40 270,10
279,60 280,30 281,1171 282,340
283,250 284,50 285,20 295,20
296,10 297,170 298,50 299,20
300,10 307,10 309,10 311,30
312,10 313,40 314,10 315,10
321,40 322,10 323,10 325,20
326,10 337,120 338,40 339,80
340,20 341,30 342,10 353,250
355,9999 356,5175 357,2532 358,550
359,130 360,20 369,50 370,100
371,30 372,10
##END=
