##TITLE=n-Butyl n-undecanoate
##JCAMP-DX=4.24
##DATA TYPE=MASS SPECTRUM
##ORIGIN=V.G. Zaikin, R.S.Borisov, TIPS RAS, Moscow, Russia
##OWNER=NIST Mass Spectrometry Data Center
Collection (C) 2014 copyright by the U.S. Secretary of Commerce
on behalf of the United States of America. All rights reserved.
##CAS REGISTRY NO=10580-24-2
##$NIST MASS SPEC NO=405174
##MOLFORM=C15 H30 O2
##MW=242
##$NIST SOURCE=MSDC
##XUNITS=M/Z
##YUNITS=RELATIVE INTENSITY
##XFACTOR=1
##YFACTOR=1
##FIRSTX=27
##LASTX=243
##FIRSTY=400
##MAXX=243
##MINX=27
##MAXY=9999
##MINY=20
##NPOINTS=103
##PEAK TABLE=(XY..XY)
27,400 28,681 29,1702 30,30
31,100 39,571 40,150 41,3673
42,751 43,2742 44,100 45,90
53,190 54,230 55,2953 56,9999
57,4074 58,210 59,140 60,2452
61,1171 62,30 65,30 67,280
68,140 69,921 70,200 71,901
73,2292 74,250 75,40 77,20
79,70 80,30 81,330 82,150
83,991 84,571 85,911 86,130
87,791 88,100 89,250 92,30
93,100 94,20 95,571 96,150
97,601 98,540 99,130 100,60
101,981 102,100 103,200 107,40
109,190 110,20 111,190 112,80
113,20 114,20 115,430 116,831
117,400 118,30 121,50 122,20
123,30 124,150 125,100 126,60
128,30 129,1732 130,140 131,60
135,20 139,50 140,20 143,951
144,100 145,20 149,130 150,40
151,40 153,30 157,250 158,40
167,90 168,50 169,3944 170,480
171,100 185,220 186,731 187,6456
188,731 189,70 199,140 200,20
213,60 242,180 243,30
##END=
