##TITLE=Caffeic acid, 3TMS derivative
##JCAMP-DX=4.24
##DATA TYPE=MASS SPECTRUM
##ORIGIN=NIST Mass Spectrometry Data Center
##OWNER=NIST Mass Spectrometry Data Center
Collection (C) 2014 copyright by the U.S. Secretary of Commerce
on behalf of the United States of America. All rights reserved.
##CAS REGISTRY NO=10586-03-5
##$NIST MASS SPEC NO=334011
##MOLFORM=C18 H32 O4 Si3
##MW=396
##$NIST SOURCE=MSDC
##XUNITS=M/Z
##YUNITS=RELATIVE INTENSITY
##XFACTOR=1
##YFACTOR=1
##FIRSTX=15
##LASTX=401
##FIRSTY=10
##MAXX=401
##MINX=15
##MAXY=9999
##MINY=10
##NPOINTS=226
##PEAK TABLE=(XY..XY)
15,10 29,20 31,10 39,10
42,10 43,140 44,140 45,1171
46,80 47,110 51,10 52,10
53,20 55,30 56,10 57,50
58,60 59,190 60,20 61,50
62,10 63,30 65,10 66,10
67,10 69,10 70,30 71,30
73,6996 74,661 75,831 76,60
77,60 78,10 79,10 81,10
83,50 84,10 85,20 87,20
88,20 89,170 90,20 91,40
92,10 93,10 95,10 97,10
99,20 101,20 102,30 103,90
104,20 105,70 106,10 107,30
109,30 111,10 113,20 114,10
115,270 116,80 117,250 118,30
119,80 120,10 121,30 122,10
123,10 127,20 128,50 129,90
130,20 131,220 132,40 133,270
134,40 135,190 136,30 137,90
138,10 139,20 141,30 142,10
143,50 144,20 145,90 146,10
147,460 148,110 149,100 150,20
151,20 153,10 155,10 157,20
158,10 159,50 160,140 161,140
162,30 163,160 164,40 165,30
166,10 167,10 168,10 169,10
171,20 172,10 173,60 174,20
175,240 176,40 177,60 178,20
179,100 180,20 181,20 185,20
186,10 187,30 188,20 189,140
190,160 191,1411 192,260 193,120
194,20 195,40 196,10 199,10
201,20 202,10 203,150 204,60
205,110 206,30 207,40 208,10
209,30 210,10 215,10 216,30
217,70 219,7086 220,1291 221,410
222,50 223,80 224,20 225,10
229,10 231,30 232,20 233,250
234,60 235,40 236,10 237,20
239,10 245,10 246,10 247,50
248,20 249,611 250,150 251,70
252,10 259,10 261,20 262,10
263,60 264,30 265,60 266,20
267,190 268,50 269,20 275,10
277,40 278,70 279,70 280,100
281,30 282,10 289,20 290,10
291,90 292,110 293,571 294,150
295,60 296,10 304,10 305,30
306,10 307,1121 308,370 309,130
310,30 311,10 321,30 322,10
323,30 324,10 325,10 337,30
338,10 339,10 351,10 365,10
366,10 379,10 381,2873 382,1001
383,460 384,110 385,30 395,20
396,9999 397,4094 398,1942 399,460
400,110 401,20
##END=
