##TITLE=Estr-4-en-3-one, 17.alpha.-hydroxy-17-methyl-
##JCAMP-DX=4.24
##DATA TYPE=MASS SPECTRUM
##OWNER=NIST Mass Spectrometry Data Center
Collection (C) 2014 copyright by the U.S. Secretary of Commerce
on behalf of the United States of America. All rights reserved.
##CAS REGISTRY NO=10582-09-9
##$NIST MASS SPEC NO=13861
##MOLFORM=C19 H28 O2
##MW=288
##$NIST SOURCE=MSDC
##XUNITS=M/Z
##YUNITS=RELATIVE INTENSITY
##XFACTOR=1
##YFACTOR=1
##FIRSTX=51
##LASTX=290
##FIRSTY=273
##MAXX=290
##MINX=51
##MAXY=9999
##MINY=109
##NPOINTS=146
##PEAK TABLE=(XY..XY)
51,273 52,191 53,792 54,219
55,1776 56,219 57,738 58,519
59,191 63,109 65,574 66,273
67,1557 68,355 69,765 70,109
71,2240 72,410 77,1830 78,601
79,2268 80,601 81,1366 82,328
83,546 84,109 85,301 89,301
90,191 91,3087 92,628 93,2104
94,546 95,1257 96,355 97,574
99,191 103,328 104,437 105,1858
106,820 107,1858 108,1175 109,1393
110,3005 111,519 115,464 116,301
117,765 118,355 119,1175 120,902
121,1093 122,792 123,1038 124,219
125,191 127,191 128,328 129,546
130,273 131,656 132,820 133,1175
134,464 135,1093 136,328 137,109
141,328 142,246 143,437 144,191
145,902 146,328 147,902 148,464
149,519 150,219 155,246 157,301
158,355 159,847 160,1585 161,1912
162,820 163,546 165,246 169,273
171,328 172,219 173,656 174,355
175,710 176,246 178,109 179,301
183,191 184,109 185,355 186,301
187,546 188,492 189,301 190,219
195,191 197,301 199,601 200,219
201,137 202,137 203,137 211,273
212,355 213,820 214,601 215,1585
216,492 217,601 218,929 219,164
225,328 226,301 227,273 228,601
229,246 230,902 231,4480 232,1229
233,246 237,191 241,246 242,219
246,355 251,301 252,246 255,6721
256,2268 257,464 260,191 270,3552
271,1229 272,273 273,219 288,9999
289,2213 290,437
##END=
