##TITLE=1,3,5-Benzetriol, 3TMS derivative
##JCAMP-DX=4.24
##DATA TYPE=MASS SPECTRUM
##ORIGIN=O A MAMER, MCGILL UNIVERSITY, MONTREAL, CANADA
##OWNER=NIST Mass Spectrometry Data Center
Collection (C) 2014 copyright by the U.S. Secretary of Commerce
on behalf of the United States of America. All rights reserved.
##CAS REGISTRY NO=10586-12-6
##$NIST MASS SPEC NO=79582
##MOLFORM=C15 H30 O3 Si3
##MW=342
##$NIST SOURCE=MSDC
##XUNITS=M/Z
##YUNITS=RELATIVE INTENSITY
##XFACTOR=1
##YFACTOR=1
##FIRSTX=16
##LASTX=347
##FIRSTY=21
##MAXX=347
##MINX=16
##MAXY=9999
##MINY=16
##NPOINTS=184
##PEAK TABLE=(XY..XY)
16,21 17,27 18,158 20,21
26,19 27,21 28,97 29,27
32,16 39,19 41,26 43,115
44,95 45,935 46,65 47,70
51,25 52,18 53,20 55,30
57,40 58,41 59,178 60,18
61,42 62,18 63,196 64,19
67,26 69,50 70,18 71,30
72,57 73,6563 74,573 75,554
76,45 77,118 78,52 79,75
81,22 83,108 84,21 85,56
87,21 89,27 91,106 92,19
93,43 95,36 96,20 97,80
98,19 99,218 100,29 101,27
103,54 104,34 105,66 106,24
107,41 109,63 111,30 113,22
115,43 116,19 117,69 118,23
119,113 120,33 121,55 123,40
125,20 127,18 129,30 131,169
132,34 133,744 134,107 135,123
136,22 137,60 139,18 141,53
143,83 144,19 145,36 147,1469
148,269 149,278 150,46 151,55
152,20 153,32 155,39 156,348
157,252 158,43 159,30 161,26
163,56 164,78 165,50 166,20
167,38 169,34 171,87 172,20
173,111 174,20 175,23 177,53
178,29 179,94 180,50 181,45
182,20 183,38 187,20 189,37
191,51 192,18 193,76 194,28
195,45 196,20 197,33 205,39
207,63 208,24 209,51 211,55
212,27 213,18 215,25 221,144
222,34 223,43 224,20 225,27
235,30 236,19 237,115 238,33
239,95 240,34 241,207 242,93
243,28 249,20 251,84 252,68
253,423 254,159 255,111 256,27
265,21 266,22 267,93 268,775
269,237 270,123 271,28 281,18
297,45 298,22 311,120 313,292
314,131 315,55 316,29 325,160
327,7468 328,2386 329,1141 330,262
331,85 341,987 342,9999 343,3331
344,1525 345,358 346,100 347,24
##END=
