##TITLE=1-Propanone, 1-(5-methyl-2-furanyl)-
##JCAMP-DX=4.24
##DATA TYPE=MASS SPECTRUM
##ORIGIN=MASS SPECTRA OF ORGANIC COMPOUNDS, V. 5, B. H. KENNETT ET AL, DIV. OF FOOD RESEARCH, CSIRO, AUSTRALIA
##OWNER=NIST Mass Spectrometry Data Center
Collection (C) 2014 copyright by the U.S. Secretary of Commerce
on behalf of the United States of America. All rights reserved.
##CAS REGISTRY NO=10599-69-6
##$NIST MASS SPEC NO=57704
##MOLFORM=C8 H10 O2
##MW=138
##$NIST SOURCE=MSDC
##XUNITS=M/Z
##YUNITS=RELATIVE INTENSITY
##XFACTOR=1
##YFACTOR=1
##FIRSTX=26
##LASTX=139
##FIRSTY=600
##MAXX=139
##MINX=26
##MAXY=9999
##MINY=100
##NPOINTS=31
##PEAK TABLE=(XY..XY)
26,600 27,3200 29,1700 37,100
38,400 39,600 40,100 41,300
42,200 43,1300 50,500 51,900
52,800 53,3000 54,300 55,300
56,100 57,500 65,100 77,100
79,100 80,100 81,300 82,100
95,100 108,100 109,9999 110,1000
111,100 138,2600 139,300
##END=
