##TITLE=2,6-Octadien-1-ol, 3,7-dimethyl-, (Z)-
##JCAMP-DX=4.24
##DATA TYPE=MASS SPECTRUM
##ORIGIN=NIST Mass Spectrometry Data Center
##OWNER=NIST Mass Spectrometry Data Center
Collection (C) 2014 copyright by the U.S. Secretary of Commerce
on behalf of the United States of America. All rights reserved.
##CAS REGISTRY NO=106-25-2
##$NIST MASS SPEC NO=352645
##MOLFORM=C10 H18 O
##MW=154
##$NIST SOURCE=MSDC
##XUNITS=M/Z
##YUNITS=RELATIVE INTENSITY
##XFACTOR=1
##YFACTOR=1
##FIRSTX=15
##LASTX=155
##FIRSTY=20
##MAXX=155
##MINX=15
##MAXY=9999
##MINY=10
##NPOINTS=94
##PEAK TABLE=(XY..XY)
15,20 19,10 26,30 27,550
28,90 29,681 30,20 31,190
37,10 38,60 39,1621 40,340
41,6606 42,440 43,801 44,90
45,60 50,110 51,350 52,170
53,1361 54,200 55,1161 56,360
57,370 58,30 59,190 60,10
61,10 62,30 63,90 64,20
65,340 66,130 67,1852 68,2112
69,9999 70,871 71,821 72,140
73,10 74,10 75,10 77,510
78,100 79,661 80,1201 81,661
82,160 83,1101 84,1842 85,290
86,40 87,10 89,10 91,601
92,571 93,2893 94,430 95,340
96,240 97,631 98,260 99,30
102,10 103,40 104,10 105,240
106,50 107,370 108,90 109,150
110,190 111,731 112,190 113,10
115,20 117,10 119,60 120,20
121,1071 122,120 123,821 124,80
125,20 126,20 135,10 136,320
137,50 139,470 140,50 153,10
154,160 155,20
##END=
