##TITLE=1,4-Benzenediamine
##JCAMP-DX=4.24
##DATA TYPE=MASS SPECTRUM
##ORIGIN=NIST Mass Spectrometry Data Center, 1998.
##OWNER=NIST Mass Spectrometry Data Center
Collection (C) 2014 copyright by the U.S. Secretary of Commerce
on behalf of the United States of America. All rights reserved.
##CAS REGISTRY NO=106-50-3
##$NIST MASS SPEC NO=291211
##MOLFORM=C6 H8 N2
##MW=108
##$NIST SOURCE=MSDC
##XUNITS=M/Z
##YUNITS=RELATIVE INTENSITY
##XFACTOR=1
##YFACTOR=1
##FIRSTX=27
##LASTX=109
##FIRSTY=270
##MAXX=109
##MINX=27
##MAXY=9999
##MINY=70
##NPOINTS=34
##PEAK TABLE=(XY..XY)
27,270 29,90 37,110 38,170
39,380 40,260 41,400 42,180
50,190 51,330 52,1430 53,1620
54,1470 55,180 61,150 62,120
63,320 64,200 65,230 66,170
67,270 78,220 79,230 80,3830
81,1720 82,250 90,140 91,300
92,70 105,160 106,200 107,2570
108,9999 109,830
##END=
