##TITLE=Butanedioic acid, dimethyl ester
##JCAMP-DX=4.24
##DATA TYPE=MASS SPECTRUM
##ORIGIN=NIST Mass Spectrometry Data Center, 1998.
##OWNER=NIST Mass Spectrometry Data Center
Collection (C) 2014 copyright by the U.S. Secretary of Commerce
on behalf of the United States of America. All rights reserved.
##CAS REGISTRY NO=106-65-0
##$NIST MASS SPEC NO=291372
##MOLFORM=C6 H10 O4
##MW=146
##$NIST SOURCE=MSDC
##XUNITS=M/Z
##YUNITS=RELATIVE INTENSITY
##XFACTOR=1
##YFACTOR=1
##FIRSTX=14
##LASTX=131
##FIRSTY=20
##MAXX=131
##MINX=14
##MAXY=9999
##MINY=10
##NPOINTS=57
##PEAK TABLE=(XY..XY)
14,20 15,550 16,10 25,10
26,220 27,720 28,660 29,520
30,80 31,210 32,10 33,20
37,10 38,10 39,70 40,10
41,320 42,440 43,280 44,50
45,690 46,20 47,20 53,90
54,70 55,6259 56,660 57,690
58,120 59,4820 60,120 61,20
68,20 69,10 71,20 72,50
73,10 74,40 75,10 81,10
82,20 83,70 84,50 85,140
86,150 87,1960 88,120 89,10
91,10 99,80 101,110 102,10
114,2840 115,9999 116,570 117,70
131,10
##END=
