##TITLE=Benzenethiol, 4-bromo-
##JCAMP-DX=4.24
##DATA TYPE=MASS SPECTRUM
##ORIGIN=Japan AIST/NIMC Database- Spectrum MS-NW-3450
##OWNER=NIST Mass Spectrometry Data Center
Collection (C) 2014 copyright by the U.S. Secretary of Commerce
on behalf of the United States of America. All rights reserved.
##CAS REGISTRY NO=106-53-6
##$NIST MASS SPEC NO=234949
##MOLFORM=C6 H5 Br S
##MW=188
##$NIST SOURCE=MSDC
##XUNITS=M/Z
##YUNITS=RELATIVE INTENSITY
##XFACTOR=1
##YFACTOR=1
##FIRSTX=25
##LASTX=193
##FIRSTY=10
##MAXX=193
##MINX=25
##MAXY=9999
##MINY=10
##NPOINTS=95
##PEAK TABLE=(XY..XY)
25,10 26,40 27,20 32,30
33,20 34,10 36,40 37,229
38,289 39,439 40,10 41,10
44,80 45,469 46,10 47,20
48,20 49,109 50,779 51,299
52,30 53,129 54,659 55,30
56,10 57,179 58,299 59,70
60,50 61,169 62,269 63,719
64,139 65,1829 66,99 68,30
69,1109 70,60 71,70 72,10
73,119 74,449 75,549 76,359
77,119 78,10 79,40 80,40
81,199 82,539 83,159 84,80
85,10 93,70 94,259 95,259
96,10 104,10 105,40 106,50
107,129 108,2089 109,9999 110,839
111,489 112,30 116,10 117,60
118,10 119,60 128,10 129,20
130,10 131,20 136,10 138,10
143,60 144,50 145,50 146,50
154,10 155,109 156,40 157,99
158,30 162,30 164,30 186,20
187,439 188,5739 189,859 190,5829
191,459 192,259 193,10
##END=
