##TITLE=Oxirane, ethyl-
##JCAMP-DX=4.24
##DATA TYPE=MASS SPECTRUM
##ORIGIN=Japan AIST/NIMC Database- Spectrum MS-NW- 923
##OWNER=NIST Mass Spectrometry Data Center
Collection (C) 2014 copyright by the U.S. Secretary of Commerce
on behalf of the United States of America. All rights reserved.
##CAS REGISTRY NO=106-88-7
##$NIST MASS SPEC NO=228812
##MOLFORM=C4 H8 O
##MW=72
##$NIST SOURCE=MSDC
##XUNITS=M/Z
##YUNITS=RELATIVE INTENSITY
##XFACTOR=1
##YFACTOR=1
##FIRSTX=12
##LASTX=73
##FIRSTY=10
##MAXX=73
##MINX=12
##MAXY=9999
##MINY=10
##NPOINTS=43
##PEAK TABLE=(XY..XY)
12,10 13,40 14,259 15,989
16,30 17,20 18,70 25,70
26,739 27,4689 28,579 29,2229
30,129 31,2139 32,60 33,10
36,20 37,219 38,429 39,3049
40,1999 41,9589 42,9999 43,979
44,349 45,389 49,30 50,99
51,60 52,20 53,139 54,80
55,99 56,119 57,2139 58,70
59,10 68,10 69,20 70,30
71,2199 72,2199 73,99
##END=
