##TITLE=Benzene, 1-bromo-4-methyl-
##JCAMP-DX=4.24
##DATA TYPE=MASS SPECTRUM
##ORIGIN=Chuck Anderson, Aldrich Chemical Co.
##OWNER=NIST Mass Spectrometry Data Center
Collection (C) 2014 copyright by the U.S. Secretary of Commerce
on behalf of the United States of America. All rights reserved.
##CAS REGISTRY NO=106-38-7
##$NIST MASS SPEC NO=107649
##MOLFORM=C7 H7 Br
##MW=170
##$NIST SOURCE=MSDC
##XUNITS=M/Z
##YUNITS=RELATIVE INTENSITY
##XFACTOR=1
##YFACTOR=1
##FIRSTX=15
##LASTX=173
##FIRSTY=7
##MAXX=173
##MINX=15
##MAXY=9999
##MINY=3
##NPOINTS=68
##PEAK TABLE=(XY..XY)
15,7 25,8 26,77 27,163
28,3 36,11 37,133 38,267
39,751 40,58 41,79 43,80
44,67 45,117 46,5 49,58
50,424 51,318 52,69 53,17
60,18 61,180 62,414 63,1019
64,230 65,1376 66,70 73,44
74,186 75,150 76,76 77,11
79,33 80,10 81,47 82,11
83,10 84,39 85,213 86,260
87,115 88,35 89,1309 90,706
91,9999 92,743 93,36 95,5
104,7 105,5 106,7 107,5
116,12 117,80 118,13 119,84
128,5 129,5 130,5 131,6
141,9 143,39 145,26 169,297
170,2380 171,472 172,2291 173,161
##END=
