##TITLE=Piperazine, 1,4-dimethyl-
##JCAMP-DX=4.24
##DATA TYPE=MASS SPECTRUM
##ORIGIN=Japan AIST/NIMC Database- Spectrum MS-NW-1040
##OWNER=NIST Mass Spectrometry Data Center
Collection (C) 2014 copyright by the U.S. Secretary of Commerce
on behalf of the United States of America. All rights reserved.
##CAS REGISTRY NO=106-58-1
##$NIST MASS SPEC NO=229030
##MOLFORM=C6 H14 N2
##MW=114
##$NIST SOURCE=MSDC
##XUNITS=M/Z
##YUNITS=RELATIVE INTENSITY
##XFACTOR=1
##YFACTOR=1
##FIRSTX=14
##LASTX=116
##FIRSTY=20
##MAXX=116
##MINX=14
##MAXY=9999
##MINY=10
##NPOINTS=49
##PEAK TABLE=(XY..XY)
14,20 15,569 26,90 27,369
28,459 29,139 30,219 31,20
39,60 40,70 41,359 42,3489
43,9999 44,2289 45,70 52,40
53,20 54,199 55,209 56,1169
57,699 58,1009 59,90 67,20
68,50 69,30 70,1759 71,2829
72,309 73,10 80,10 81,20
82,40 83,70 84,40 85,189
86,60 95,30 96,20 97,129
98,80 99,439 100,40 111,30
112,60 113,249 114,5359 115,399
116,10
##END=
