##TITLE=1-Propene, 3-bromo-
##JCAMP-DX=4.24
##DATA TYPE=MASS SPECTRUM
##ORIGIN=NIST Mass Spectrometry Data Center, 1990.
##OWNER=NIST Mass Spectrometry Data Center
Collection (C) 2014 copyright by the U.S. Secretary of Commerce
on behalf of the United States of America. All rights reserved.
##CAS REGISTRY NO=106-95-6
##$NIST MASS SPEC NO=118538
##MOLFORM=C3 H5 Br
##MW=120
##$NIST SOURCE=MSDC
##XUNITS=M/Z
##YUNITS=RELATIVE INTENSITY
##XFACTOR=1
##YFACTOR=1
##FIRSTX=12
##LASTX=123
##FIRSTY=42
##MAXX=123
##MINX=12
##MAXY=9999
##MINY=17
##NPOINTS=34
##PEAK TABLE=(XY..XY)
12,42 13,62 14,89 15,242
17,17 24,42 25,146 26,495
27,486 36,146 37,865 38,1628
39,7204 40,1018 41,9999 42,379
79,416 80,95 81,392 82,86
91,33 92,38 93,149 94,50
95,116 104,20 105,61 106,24
107,46 117,31 118,18 120,2011
122,2005 123,63
##END=
