##TITLE=Octadecanoic acid, 2-(2-hydroxyethoxy)ethyl ester
##JCAMP-DX=4.24
##DATA TYPE=MASS SPECTRUM
##ORIGIN=H. Fales, LC, NHLBI, NIH, Bethesda, MD 20892
##OWNER=NIST Mass Spectrometry Data Center
Collection (C) 2014 copyright by the U.S. Secretary of Commerce
on behalf of the United States of America. All rights reserved.
##CAS REGISTRY NO=106-11-6
##$NIST MASS SPEC NO=132893
##MOLFORM=C22 H44 O4
##MW=372
##$NIST SOURCE=MSDC
##XUNITS=M/Z
##YUNITS=RELATIVE INTENSITY
##XFACTOR=1
##YFACTOR=1
##FIRSTX=41
##LASTX=372
##FIRSTY=6962
##MAXX=372
##MINX=41
##MAXY=9999
##MINY=5
##NPOINTS=168
##PEAK TABLE=(XY..XY)
41,6962 42,1841 43,9999 44,697
45,2234 46,34 47,119 48,16
49,311 51,129 52,16 53,391
54,562 55,6477 56,1588 57,5939
58,327 59,407 60,6611 61,1710
62,39 63,15 65,75 66,41
67,684 68,529 69,3197 70,932
71,2877 73,6156 74,479 75,256
76,78 77,63 78,36 79,195
80,75 81,484 82,447 83,2094
84,1121 85,1787 87,1624 88,438
89,159 91,54 93,110 94,57
95,349 96,360 97,1720 98,1122
99,650 100,9 101,684 102,195
103,44 104,26 105,27 106,8
107,138 108,24 109,146 110,163
111,591 112,315 113,275 115,850
116,366 117,39 118,12 119,12
121,120 122,18 123,79 124,107
125,356 126,113 127,193 129,2358
130,373 131,34 135,82 137,48
138,101 139,152 140,80 141,128
143,471 144,74 145,10 147,12
148,167 149,56 151,21 152,46
153,64 154,103 155,122 156,14
157,520 158,104 161,37 163,30
165,14 166,85 167,49 168,72
169,56 171,776 172,134 173,11
177,9 180,28 181,29 182,36
183,34 184,12 185,1218 186,168
187,9 194,87 195,31 196,99
197,46 199,453 200,67 209,10
210,25 211,70 213,793 214,115
215,8 220,23 222,91 223,28
224,79 225,50 227,405 228,215
229,32 237,22 238,16 239,141
241,829 242,164 243,23 248,27
253,10 255,151 256,242 257,54
258,5 265,21 266,15 267,106
268,14 269,10 270,185 271,43
282,10 283,59 284,3920 285,879
286,128 311,20 312,9 372,9
##END=
