##TITLE=Heptanoic acid, methyl ester
##JCAMP-DX=4.24
##DATA TYPE=MASS SPECTRUM
##ORIGIN=NIST Mass Spectrometry Data Center
##OWNER=NIST Mass Spectrometry Data Center
Collection (C) 2014 copyright by the U.S. Secretary of Commerce
on behalf of the United States of America. All rights reserved.
##CAS REGISTRY NO=106-73-0
##$NIST MASS SPEC NO=333890
##MOLFORM=C8 H16 O2
##MW=144
##$NIST SOURCE=MSDC
##XUNITS=M/Z
##YUNITS=RELATIVE INTENSITY
##XFACTOR=1
##YFACTOR=1
##FIRSTX=15
##LASTX=146
##FIRSTY=120
##MAXX=146
##MINX=15
##MAXY=9999
##MINY=10
##NPOINTS=76
##PEAK TABLE=(XY..XY)
15,120 26,60 27,621 28,250
29,741 30,40 31,100 33,20
37,10 38,40 39,881 40,160
41,1992 42,701 43,3473 44,160
45,230 46,10 48,10 50,40
51,80 52,40 53,260 54,120
55,2422 56,651 57,831 58,50
59,2342 60,90 61,40 62,10
63,10 65,40 66,20 67,120
68,160 69,641 70,150 71,70
72,10 73,420 74,9999 75,881
76,80 77,20 79,30 81,30
82,20 83,350 84,631 85,651
87,5095 88,631 89,50 93,10
94,30 95,100 96,10 97,80
98,10 99,10 101,2352 102,170
103,20 111,60 113,2712 114,220
115,571 116,60 117,10 129,40
143,10 144,70 145,130 146,10
##END=
