##TITLE=Benzene, 1-bromo-4-chloro-
##JCAMP-DX=4.24
##DATA TYPE=MASS SPECTRUM
##ORIGIN=Japan AIST/NIMC Database- Spectrum MS-NW-2079
##OWNER=NIST Mass Spectrometry Data Center
Collection (C) 2014 copyright by the U.S. Secretary of Commerce
on behalf of the United States of America. All rights reserved.
##CAS REGISTRY NO=106-39-8
##$NIST MASS SPEC NO=228478
##MOLFORM=C6 H4 Br Cl
##MW=190
##$NIST SOURCE=MSDC
##XUNITS=M/Z
##YUNITS=RELATIVE INTENSITY
##XFACTOR=1
##YFACTOR=1
##FIRSTX=12
##LASTX=195
##FIRSTY=10
##MAXX=195
##MINX=12
##MAXY=9999
##MINY=10
##NPOINTS=76
##PEAK TABLE=(XY..XY)
12,10 24,10 25,30 26,60
27,40 28,10 35,10 36,99
37,439 38,539 39,70 44,10
47,30 48,40 49,339 50,2219
51,609 52,20 54,10 55,279
56,99 60,70 61,159 62,80
63,40 72,70 73,409 74,1539
75,4259 76,889 77,139 78,129
79,40 80,10 81,40 82,10
83,10 84,169 85,329 86,60
87,99 93,10 95,349 96,409
97,99 104,10 105,10 106,10
107,10 108,20 109,50 110,149
111,7109 112,509 113,2269 114,149
117,20 118,10 119,10 128,20
129,30 130,30 131,30 141,10
153,10 154,10 155,129 156,20
157,119 189,20 190,7529 191,529
192,9999 193,659 194,2389 195,169
##END=
