##TITLE=Oxacyclohexadecan-2-one
##JCAMP-DX=4.24
##DATA TYPE=MASS SPECTRUM
##ORIGIN=Japan AIST/NIMC Database- Spectrum MS-NW-7026
##OWNER=NIST Mass Spectrometry Data Center
Collection (C) 2014 copyright by the U.S. Secretary of Commerce
on behalf of the United States of America. All rights reserved.
##CAS REGISTRY NO=106-02-5
##$NIST MASS SPEC NO=236668
##MOLFORM=C15 H28 O2
##MW=240
##$NIST SOURCE=MSDC
##XUNITS=M/Z
##YUNITS=RELATIVE INTENSITY
##XFACTOR=1
##YFACTOR=1
##FIRSTX=14
##LASTX=243
##FIRSTY=20
##MAXX=243
##MINX=14
##MAXY=9999
##MINY=10
##NPOINTS=184
##PEAK TABLE=(XY..XY)
14,20 15,119 16,20 17,20
18,70 26,70 27,2079 28,889
29,3939 30,109 31,279 36,10
37,10 38,10 39,1489 40,389
41,9579 42,2579 43,4719 44,219
45,289 46,10 48,10 50,10
51,50 52,50 53,649 54,1409
55,9999 56,3029 57,2599 58,669
59,369 60,829 61,429 62,20
63,20 65,80 66,259 67,2319
68,2729 69,6149 70,1929 71,1249
72,159 73,1339 74,159 75,20
76,30 77,70 78,50 79,379
80,409 81,2079 82,3719 83,3909
84,2519 85,639 86,129 87,509
88,70 89,30 91,90 92,40
93,259 94,449 95,1539 96,3309
97,2919 98,2439 99,399 100,439
101,729 102,159 103,30 104,10
105,40 106,30 107,219 108,359
109,1019 110,1649 111,1309 112,879
113,359 114,729 115,489 116,629
117,70 118,20 119,149 120,80
121,219 122,379 123,919 124,1129
125,769 126,349 127,629 128,229
129,579 130,139 131,20 132,20
133,149 134,269 135,229 136,169
137,599 138,1049 139,469 140,209
141,279 142,99 143,129 144,149
145,20 147,139 148,179 149,119
150,149 151,469 152,669 153,289
154,149 155,149 156,50 157,109
158,229 159,80 161,109 162,70
163,40 164,30 165,269 166,169
167,119 168,99 169,99 170,50
171,169 172,319 173,119 174,20
175,50 176,60 177,20 178,519
179,259 180,1329 181,279 182,50
183,60 184,30 185,40 189,10
192,30 193,169 194,209 195,40
196,30 197,209 198,50 199,10
203,20 204,309 205,50 206,20
207,10 210,50 211,70 212,90
213,10 221,40 222,1709 223,319
224,30 225,30 238,40 239,70
240,1849 241,479 242,90 243,10
##END=
