##TITLE=Nonanoic acid, 1,2-ethanediylbis(oxy-2,1-ethanediyl) ester
##JCAMP-DX=4.24
##DATA TYPE=MASS SPECTRUM
##ORIGIN=H. Fales, LC, NHLBI, NIH, Bethesda, MD 20892
##OWNER=NIST Mass Spectrometry Data Center
Collection (C) 2014 copyright by the U.S. Secretary of Commerce
on behalf of the United States of America. All rights reserved.
##CAS REGISTRY NO=106-06-9
##$NIST MASS SPEC NO=132402
##MOLFORM=C24 H46 O6
##MW=430
##$NIST SOURCE=MSDC
##XUNITS=M/Z
##YUNITS=RELATIVE INTENSITY
##XFACTOR=1
##YFACTOR=1
##FIRSTX=41
##LASTX=431
##FIRSTY=2455
##MAXX=431
##MINX=41
##MAXY=9999
##MINY=4
##NPOINTS=232
##PEAK TABLE=(XY..XY)
41,2455 43,7147 45,2934 46,10
47,48 49,100 51,53 53,144
55,2819 57,4565 58,696 59,256
60,359 61,89 63,4 65,32
67,431 68,45 69,1236 70,348
71,3008 72,743 73,847 74,87
75,40 77,34 79,104 81,560
82,24 83,512 84,1032 86,2701
87,2067 88,190 89,1036 90,31
91,35 93,82 94,101 95,233
96,318 97,54 98,533 99,3655
100,401 101,309 102,119 103,99
104,33 105,42 107,74 109,121
110,289 111,62 112,238 113,1654
114,324 115,303 116,62 117,240
118,9 119,70 120,6 121,71
122,8 123,250 124,262 125,113
127,753 129,526 130,209 131,221
132,130 133,129 135,770 137,234
138,2110 139,252 141,5065 142,99
143,1856 144,39 145,293 146,40
148,140 149,61 151,195 152,116
153,7 154,141 155,1061 157,2397
159,521 161,173 162,39 163,23
164,18 166,542 167,162 168,13
169,216 171,1026 172,26 173,403
174,239 175,53 176,48 177,4
178,4 180,32 182,495 183,635
184,622 185,9999 186,987 187,245
188,116 189,132 190,22 191,12
193,183 194,14 195,11 196,29
197,19 198,141 199,297 201,318
202,195 203,72 204,18 205,17
208,11 210,39 211,41 213,150
214,309 215,412 216,401 217,78
218,18 224,4 225,9 226,57
227,113 228,15 229,508 230,143
231,33 232,12 233,27 234,36
235,5 236,5 239,15 240,5
241,24 242,12 243,54 244,77
245,34 247,45 249,24 254,31
255,44 256,46 257,120 258,38
259,28 260,51 261,20 262,10
263,30 264,22 265,11 269,22
270,9 271,16 272,222 273,72
275,27 277,16 283,27 284,5
285,28 286,10 287,10 289,16
290,6 291,138 292,16 297,5
298,4 299,29 300,5 302,5
303,22 304,19 305,4 308,15
309,9 311,17 312,9 313,39
314,5 317,7 318,8 326,16
327,37 328,5 329,5 332,120
333,23 341,31 342,4 345,16
354,25 355,48 356,13 359,5
372,4 373,12 375,9 389,31
390,4 400,8 403,39 404,9
415,21 429,9 430,93 431,26
##END=
