##TITLE=Butanoic acid, 3,7-dimethyl-2,6-octadienyl ester, (E)-
##JCAMP-DX=4.24
##DATA TYPE=MASS SPECTRUM
##ORIGIN=Philip Morris R&D
##OWNER=NIST Mass Spectrometry Data Center
Collection (C) 2014 copyright by the U.S. Secretary of Commerce
on behalf of the United States of America. All rights reserved.
##CAS REGISTRY NO=106-29-6
##$NIST MASS SPEC NO=109212
##MOLFORM=C14 H24 O2
##MW=224
##$NIST SOURCE=MSDC
##XUNITS=M/Z
##YUNITS=RELATIVE INTENSITY
##XFACTOR=1
##YFACTOR=1
##FIRSTX=36
##LASTX=224
##FIRSTY=91
##MAXX=224
##MINX=36
##MAXY=9999
##MINY=2
##NPOINTS=93
##PEAK TABLE=(XY..XY)
36,91 37,39 38,105 39,807
40,266 41,5532 42,328 43,3468
44,260 45,89 46,23 47,12
49,44 50,56 51,143 52,69
53,616 54,66 55,338 56,74
57,77 58,15 59,42 60,45
61,10 62,12 63,37 65,218
66,50 67,1498 68,5306 69,9999
70,535 71,5538 72,290 73,48
77,235 78,67 79,422 80,2191
81,869 82,120 83,98 84,269
85,337 86,54 87,17 89,77
90,3 91,340 92,768 93,3740
94,777 95,242 96,58 97,46
98,76 99,11 103,22 104,2
105,119 106,28 107,588 108,160
109,65 110,26 111,62 112,20
113,10 117,4 119,44 120,16
121,1867 122,202 123,259 124,20
125,6 126,7 127,2 129,33
133,6 135,33 136,1258 137,190
138,16 139,50 142,3 153,7
154,172 155,90 156,3 187,4
224,18
##END=
