##TITLE=n-Butyl laurate
##JCAMP-DX=4.24
##DATA TYPE=MASS SPECTRUM
##ORIGIN=Japan AIST/NIMC Database- Spectrum MS-NW- 372
##OWNER=NIST Mass Spectrometry Data Center
Collection (C) 2014 copyright by the U.S. Secretary of Commerce
on behalf of the United States of America. All rights reserved.
##CAS REGISTRY NO=106-18-3
##$NIST MASS SPEC NO=228727
##MOLFORM=C16 H32 O2
##MW=256
##$NIST SOURCE=MSDC
##XUNITS=M/Z
##YUNITS=RELATIVE INTENSITY
##XFACTOR=1
##YFACTOR=1
##FIRSTX=26
##LASTX=258
##FIRSTY=20
##MAXX=258
##MINX=26
##MAXY=9999
##MINY=20
##NPOINTS=126
##PEAK TABLE=(XY..XY)
26,20 27,499 28,199 29,1799
30,40 31,40 39,349 40,80
41,2939 42,539 43,2689 44,80
45,90 53,139 54,219 55,2089
56,9999 57,4169 58,179 59,90
60,2249 61,1319 62,30 67,299
68,199 69,1039 70,279 71,1019
72,60 73,2089 74,229 75,30
77,30 79,70 80,40 81,279
82,149 83,699 84,429 85,679
86,60 87,419 88,70 89,90
93,50 94,20 95,309 96,129
97,509 98,499 99,129 100,30
101,819 102,80 103,90 107,50
109,169 110,90 111,239 112,119
113,40 114,30 115,369 116,2219
117,769 118,50 121,60 123,80
124,30 125,139 126,30 127,30
129,1559 130,139 131,30 135,40
137,30 138,109 139,90 140,60
141,40 143,229 144,30 149,20
153,40 155,199 156,20 157,459
158,80 163,70 164,30 165,20
166,30 167,30 171,299 172,99
173,399 174,40 180,40 181,90
182,40 183,2359 184,309 185,419
186,60 199,109 200,859 201,5379
202,709 203,70 211,329 212,50
213,199 214,30 222,30 227,90
228,219 229,759 230,119 239,139
240,20 241,50 255,40 256,1539
257,589 258,80
##END=
