##TITLE=Isobutyl acrylate
##JCAMP-DX=4.24
##DATA TYPE=MASS SPECTRUM
##ORIGIN=RADIAN CORP
##OWNER=NIST Mass Spectrometry Data Center
Collection (C) 2014 copyright by the U.S. Secretary of Commerce
on behalf of the United States of America. All rights reserved.
##CAS REGISTRY NO=106-63-8
##$NIST MASS SPEC NO=75999
##MOLFORM=C7 H12 O2
##MW=128
##$NIST SOURCE=MSDC
##XUNITS=M/Z
##YUNITS=RELATIVE INTENSITY
##XFACTOR=1
##YFACTOR=1
##FIRSTX=15
##LASTX=113
##FIRSTY=50
##MAXX=113
##MINX=15
##MAXY=9999
##MINY=10
##NPOINTS=49
##PEAK TABLE=(XY..XY)
15,50 17,20 18,40 25,20
26,280 27,1990 28,230 29,660
30,40 31,160 32,20 35,20
37,30 38,60 39,690 40,130
41,1430 42,220 43,490 44,50
45,60 47,40 48,20 49,160
50,20 51,70 53,120 54,90
55,9999 56,4350 57,510 58,70
68,40 69,220 70,240 71,30
72,20 73,1120 74,40 82,20
83,30 84,130 85,900 86,140
87,40 88,20 95,10 98,20
113,30
##END=
