##TITLE=1,2-Ethanediamine, N,N'-diethyl-N,N'-dimethyl-
##JCAMP-DX=4.24
##DATA TYPE=MASS SPECTRUM
##ORIGIN=RADIAN CORP
##OWNER=NIST Mass Spectrometry Data Center
Collection (C) 2014 copyright by the U.S. Secretary of Commerce
on behalf of the United States of America. All rights reserved.
##CAS REGISTRY NO=106-66-1
##$NIST MASS SPEC NO=72894
##MOLFORM=C8 H20 N2
##MW=144
##$NIST SOURCE=MSDC
##XUNITS=M/Z
##YUNITS=RELATIVE INTENSITY
##XFACTOR=1
##YFACTOR=1
##FIRSTX=15
##LASTX=144
##FIRSTY=30
##MAXX=144
##MINX=15
##MAXY=9999
##MINY=10
##NPOINTS=28
##PEAK TABLE=(XY..XY)
15,30 18,50 27,100 28,220
29,190 30,120 32,40 40,20
41,60 42,580 43,170 44,2060
45,50 54,40 55,20 56,190
57,300 58,210 59,10 70,140
71,80 72,9999 73,480 84,20
85,50 86,170 113,10 144,160
##END=
