##TITLE=2-Propenoic acid, 2-methyl-, oxiranylmethyl ester
##JCAMP-DX=4.24
##DATA TYPE=MASS SPECTRUM
##ORIGIN=Chuck Anderson, Aldrich Chemical Co.
##OWNER=NIST Mass Spectrometry Data Center
Collection (C) 2014 copyright by the U.S. Secretary of Commerce
on behalf of the United States of America. All rights reserved.
##CAS REGISTRY NO=106-91-2
##$NIST MASS SPEC NO=107345
##MOLFORM=C7 H10 O3
##MW=142
##$NIST SOURCE=MSDC
##XUNITS=M/Z
##YUNITS=RELATIVE INTENSITY
##XFACTOR=1
##YFACTOR=1
##FIRSTX=13
##LASTX=143
##FIRSTY=3
##MAXX=143
##MINX=13
##MAXY=9999
##MINY=1
##NPOINTS=86
##PEAK TABLE=(XY..XY)
13,3 14,24 15,126 16,2
19,13 25,13 26,168 27,888
28,388 29,1259 30,83 31,1185
32,14 33,3 36,6 37,84
38,227 39,2240 40,583 41,6295
42,337 43,296 44,92 45,143
46,5 47,3 49,2 50,8
51,9 52,6 53,94 54,43
55,233 56,712 57,252 58,55
59,41 60,5 61,1 63,1
65,5 66,10 67,29 68,347
69,9999 70,439 71,55 72,13
73,40 74,5 75,1 77,2
78,1 79,8 80,1 81,29
82,56 83,43 84,113 85,68
86,162 87,188 88,9 89,1
93,1 94,3 95,20 96,25
97,153 98,13 99,55 100,11
101,7 109,2 111,24 112,137
113,16 114,27 115,2 123,2
124,1 125,1 127,5 141,26
142,3 143,5
##END=
