##TITLE=2-Ethoxyethyl acrylate
##JCAMP-DX=4.24
##DATA TYPE=MASS SPECTRUM
##ORIGIN=NIST Mass Spectrometry Data Center, 1994
##OWNER=NIST Mass Spectrometry Data Center
Collection (C) 2014 copyright by the U.S. Secretary of Commerce
on behalf of the United States of America. All rights reserved.
##CAS REGISTRY NO=106-74-1
##$NIST MASS SPEC NO=133362
##MOLFORM=C7 H12 O3
##MW=144
##$NIST SOURCE=MSDC
##XUNITS=M/Z
##YUNITS=RELATIVE INTENSITY
##XFACTOR=1
##YFACTOR=1
##FIRSTX=4
##LASTX=101
##FIRSTY=43
##MAXX=101
##MINX=4
##MAXY=9999
##MINY=15
##NPOINTS=46
##PEAK TABLE=(XY..XY)
4,43 14,88 15,346 16,28
19,93 25,75 26,794 27,3843
28,847 29,2290 30,28 31,3611
32,73 39,43 41,800 42,409
43,2094 44,2602 45,1437 46,48
52,15 53,145 55,9999 56,546
57,195 58,15 59,4838 60,201
61,53 65,15 68,74 69,41
70,147 71,15 72,6715 73,783
74,36 82,100 83,72 85,511
86,104 87,24 89,214 99,1208
100,438 101,289
##END=
