##TITLE=2-Propenoic acid, oxiranylmethyl ester
##JCAMP-DX=4.24
##DATA TYPE=MASS SPECTRUM
##ORIGIN=NIST Mass Spectrometry Data Center, 1998.
##OWNER=NIST Mass Spectrometry Data Center
Collection (C) 2014 copyright by the U.S. Secretary of Commerce
on behalf of the United States of America. All rights reserved.
##CAS REGISTRY NO=106-90-1
##$NIST MASS SPEC NO=291410
##MOLFORM=C6 H8 O3
##MW=128
##$NIST SOURCE=MSDC
##XUNITS=M/Z
##YUNITS=RELATIVE INTENSITY
##XFACTOR=1
##YFACTOR=1
##FIRSTX=14
##LASTX=127
##FIRSTY=20
##MAXX=127
##MINX=14
##MAXY=9999
##MINY=10
##NPOINTS=42
##PEAK TABLE=(XY..XY)
14,20 15,80 25,30 26,270
27,1420 28,150 29,480 30,40
31,410 37,20 38,30 39,90
40,20 41,80 42,180 43,270
44,80 45,170 46,10 52,10
53,100 54,80 55,9999 56,870
57,90 58,10 68,40 69,40
70,180 71,40 72,30 73,180
74,10 81,10 82,10 83,10
85,70 86,10 97,20 98,60
99,10 127,20
##END=
