##TITLE=Propanoic acid, propyl ester
##JCAMP-DX=4.24
##DATA TYPE=MASS SPECTRUM
##ORIGIN=Chuck Anderson, Aldrich Chemical Co.
##OWNER=NIST Mass Spectrometry Data Center
Collection (C) 2014 copyright by the U.S. Secretary of Commerce
on behalf of the United States of America. All rights reserved.
##CAS REGISTRY NO=106-36-5
##$NIST MASS SPEC NO=107279
##MOLFORM=C6 H12 O2
##MW=116
##$NIST SOURCE=MSDC
##XUNITS=M/Z
##YUNITS=RELATIVE INTENSITY
##XFACTOR=1
##YFACTOR=1
##FIRSTX=14
##LASTX=117
##FIRSTY=34
##MAXX=117
##MINX=14
##MAXY=9999
##MINY=3
##NPOINTS=41
##PEAK TABLE=(XY..XY)
14,34 15,156 16,3 19,6
25,10 26,348 27,2737 28,863
29,6094 30,275 31,845 32,10
36,3 37,18 38,53 39,547
40,96 41,1487 42,999 43,2047
44,76 45,51 53,11 54,3
55,96 56,165 57,9999 58,358
59,499 60,16 73,111 74,358
75,5213 76,177 77,22 86,136
87,1422 88,61 89,4 115,4
117,5
##END=
