##TITLE=1,2,6-Hexanetriol
##JCAMP-DX=4.24
##DATA TYPE=MASS SPECTRUM
##ORIGIN=Japan AIST/NIMC Database- Spectrum MS-NW- 559
##OWNER=NIST Mass Spectrometry Data Center
Collection (C) 2014 copyright by the U.S. Secretary of Commerce
on behalf of the United States of America. All rights reserved.
##CAS REGISTRY NO=106-69-4
##$NIST MASS SPEC NO=227666
##MOLFORM=C6 H14 O3
##MW=134
##$NIST SOURCE=MSDC
##XUNITS=M/Z
##YUNITS=RELATIVE INTENSITY
##XFACTOR=1
##YFACTOR=1
##FIRSTX=12
##LASTX=135
##FIRSTY=20
##MAXX=135
##MINX=12
##MAXY=9999
##MINY=10
##NPOINTS=100
##PEAK TABLE=(XY..XY)
12,20 14,40 15,509 16,70
17,439 18,2119 19,299 25,10
26,149 27,1379 28,559 29,3879
30,189 31,3119 32,109 33,40
37,30 38,80 39,1079 40,259
41,5759 42,849 43,5319 44,1479
45,589 46,30 47,99 49,40
50,60 51,99 52,50 53,369
54,479 55,2449 56,1419 57,4099
58,539 59,119 60,339 61,1159
62,40 63,30 65,149 66,70
67,3339 68,739 69,479 70,1599
71,379 72,129 73,239 74,109
75,60 76,10 77,60 78,30
79,169 80,199 81,169 82,99
83,609 84,239 85,9999 86,799
87,70 88,30 89,40 91,60
92,10 93,20 94,20 95,90
96,169 97,179 98,329 99,90
100,30 101,129 102,10 103,629
104,80 105,20 106,10 107,20
108,10 109,20 110,30 111,20
112,40 113,40 114,119 115,40
116,20 117,99 118,20 119,20
129,10 131,10 134,10 135,20
##END=
