##TITLE=Ethane, 1,2-dibromo-
##JCAMP-DX=4.24
##DATA TYPE=MASS SPECTRUM
##ORIGIN=NIST Mass Spectrometry Data Center, 1990.
##OWNER=NIST Mass Spectrometry Data Center
Collection (C) 2014 copyright by the U.S. Secretary of Commerce
on behalf of the United States of America. All rights reserved.
##CAS REGISTRY NO=106-93-4
##$NIST MASS SPEC NO=118846
##MOLFORM=C2 H4 Br2
##MW=186
##$NIST SOURCE=MSDC
##XUNITS=M/Z
##YUNITS=RELATIVE INTENSITY
##XFACTOR=1
##YFACTOR=1
##FIRSTX=12
##LASTX=190
##FIRSTY=66
##MAXX=190
##MINX=12
##MAXY=9999
##MINY=2
##NPOINTS=40
##PEAK TABLE=(XY..XY)
12,66 13,95 14,189 15,33
16,2 17,27 18,17 24,97
25,546 26,2920 27,9749 28,756
29,22 53,12 65,12 79,631
80,247 81,735 82,216 83,25
91,131 92,128 93,591 94,134
95,473 103,29 104,163 105,375
106,29 107,9999 108,29 109,9902
110,194 158,46 160,88 162,52
186,212 188,437 189,56 190,209
##END=
