##TITLE=Butanoic acid, 3-methylbutyl ester
##JCAMP-DX=4.24
##DATA TYPE=MASS SPECTRUM
##ORIGIN=Japan AIST/NIMC Database- Spectrum MS-NW-8461
##OWNER=NIST Mass Spectrometry Data Center
Collection (C) 2014 copyright by the U.S. Secretary of Commerce
on behalf of the United States of America. All rights reserved.
##CAS REGISTRY NO=106-27-4
##$NIST MASS SPEC NO=228612
##MOLFORM=C9 H18 O2
##MW=158
##$NIST SOURCE=MSDC
##XUNITS=M/Z
##YUNITS=RELATIVE INTENSITY
##XFACTOR=1
##YFACTOR=1
##FIRSTX=15
##LASTX=143
##FIRSTY=70
##MAXX=143
##MINX=15
##MAXY=9999
##MINY=10
##NPOINTS=53
##PEAK TABLE=(XY..XY)
15,70 17,10 18,30 26,50
27,1209 28,299 29,839 30,20
31,90 38,20 39,609 40,109
41,2099 42,1549 43,8179 44,309
45,219 47,10 51,10 53,99
54,80 55,3279 56,219 57,239
58,30 59,20 60,329 61,30
67,30 68,20 69,469 70,7109
71,9999 72,459 73,239 74,20
85,159 86,50 87,99 88,239
89,1279 90,50 97,10 100,40
101,309 102,30 113,10 115,369
116,30 128,20 129,10 130,20
143,10
##END=
