##TITLE=4-Hydroxy-N-methylpiperidine
##JCAMP-DX=4.24
##DATA TYPE=MASS SPECTRUM
##ORIGIN=Japan AIST/NIMC Database- Spectrum MS-NW-6398
##OWNER=NIST Mass Spectrometry Data Center
Collection (C) 2014 copyright by the U.S. Secretary of Commerce
on behalf of the United States of America. All rights reserved.
##CAS REGISTRY NO=106-52-5
##$NIST MASS SPEC NO=233438
##MOLFORM=C6 H13 N O
##MW=115
##$NIST SOURCE=MSDC
##XUNITS=M/Z
##YUNITS=RELATIVE INTENSITY
##XFACTOR=1
##YFACTOR=1
##FIRSTX=14
##LASTX=117
##FIRSTY=70
##MAXX=117
##MINX=14
##MAXY=9999
##MINY=10
##NPOINTS=76
##PEAK TABLE=(XY..XY)
14,70 15,1029 16,20 17,20
18,70 25,10 26,239 27,1179
28,769 29,669 30,589 31,339
36,10 37,20 38,60 39,499
40,139 41,789 42,5579 43,9999
44,4769 45,269 46,10 47,10
49,10 50,99 51,159 52,209
53,299 54,349 55,1899 56,639
57,1859 58,1699 59,409 60,20
65,10 66,20 67,99 68,269
69,199 70,5139 71,2159 72,239
73,20 74,20 77,10 78,50
79,219 80,90 81,109 82,489
83,109 84,109 85,10 86,249
87,129 88,10 93,10 94,169
95,50 96,2159 97,669 98,2799
99,209 100,199 101,20 109,10
110,10 111,10 112,60 113,80
114,6889 115,5629 116,429 117,20
##END=
