##TITLE=Phenol, 4-bromo-
##JCAMP-DX=4.24
##DATA TYPE=MASS SPECTRUM
##ORIGIN=NIST Mass Spectrometry Data Center
##OWNER=NIST Mass Spectrometry Data Center
Collection (C) 2014 copyright by the U.S. Secretary of Commerce
on behalf of the United States of America. All rights reserved.
##CAS REGISTRY NO=106-41-2
##$NIST MASS SPEC NO=333455
##MOLFORM=C6 H5 Br O
##MW=172
##$NIST SOURCE=MSDC
##XUNITS=M/Z
##YUNITS=RELATIVE INTENSITY
##XFACTOR=1
##YFACTOR=1
##FIRSTX=14
##LASTX=176
##FIRSTY=10
##MAXX=176
##MINX=14
##MAXY=9999
##MINY=10
##NPOINTS=91
##PEAK TABLE=(XY..XY)
14,10 15,10 25,30 26,110
27,80 28,20 29,150 30,10
31,90 32,160 36,70 37,530
38,1001 39,2412 40,90 41,40
42,80 43,40 45,20 46,370
48,40 49,240 50,861 51,300
52,30 53,761 54,70 55,120
60,160 61,791 62,1311 63,2612
64,1161 65,7737 66,651 67,70
68,20 71,10 72,40 73,200
74,520 75,290 76,90 77,30
78,10 79,150 80,50 81,150
82,50 83,10 86,360 87,340
89,10 90,30 91,60 92,300
93,3553 94,260 95,40 104,30
105,20 106,30 107,30 115,20
116,60 117,390 118,80 119,360
120,20 122,10 128,20 129,10
130,20 131,20 133,20 135,20
141,10 142,10 143,440 144,140
145,430 146,130 147,10 154,10
155,10 157,10 172,9999 173,801
174,9739 175,631 176,30
##END=
