##TITLE=Benzeneacetic acid, .alpha.-hydroxy-, ethyl ester, (R)-
##JCAMP-DX=4.24
##DATA TYPE=MASS SPECTRUM
##ORIGIN=Chuck Anderson, Aldrich Chemical Co.
##OWNER=NIST Mass Spectrometry Data Center
Collection (C) 2014 copyright by the U.S. Secretary of Commerce
on behalf of the United States of America. All rights reserved.
##CAS REGISTRY NO=10606-72-1
##$NIST MASS SPEC NO=117829
##MOLFORM=C10 H12 O3
##MW=180
##$NIST SOURCE=MSDC
##XUNITS=M/Z
##YUNITS=RELATIVE INTENSITY
##XFACTOR=1
##YFACTOR=1
##FIRSTX=14
##LASTX=181
##FIRSTY=16
##MAXX=181
##MINX=14
##MAXY=9999
##MINY=4
##NPOINTS=51
##PEAK TABLE=(XY..XY)
14,16 15,68 18,14 19,23
26,94 27,566 28,193 29,1127
30,64 31,70 36,21 37,10
38,59 39,237 40,26 42,5
43,53 44,94 45,50 47,4
50,227 51,737 52,216 53,178
54,16 55,11 61,9 62,60
63,149 64,36 65,30 73,23
74,67 75,46 76,57 77,2820
78,454 79,5106 80,299 89,142
90,122 91,117 105,870 106,240
107,9999 108,721 109,44 118,76
163,5 180,432 181,49
##END=
