##TITLE=3-Hepten-1-ol
##JCAMP-DX=4.24
##DATA TYPE=MASS SPECTRUM
##ORIGIN=NIST Mass Spectrometry Data Center, 1990.
##OWNER=NIST Mass Spectrometry Data Center
Collection (C) 2014 copyright by the U.S. Secretary of Commerce
on behalf of the United States of America. All rights reserved.
##CAS REGISTRY NO=10606-47-0
##$NIST MASS SPEC NO=113238
##MOLFORM=C7 H14 O
##MW=114
##$NIST SOURCE=MSDC
##XUNITS=M/Z
##YUNITS=RELATIVE INTENSITY
##XFACTOR=1
##YFACTOR=1
##FIRSTX=26
##LASTX=114
##FIRSTY=245
##MAXX=114
##MINX=26
##MAXY=9999
##MINY=8
##NPOINTS=45
##PEAK TABLE=(XY..XY)
26,245 27,1771 28,497 29,1488
30,245 31,1835 32,8 38,290
39,2788 40,606 41,5405 42,1324
43,1210 44,377 45,144 50,277
51,495 52,240 53,1338 54,2563
55,9999 56,1637 57,1206 58,142
63,121 65,371 66,290 67,2713
68,1719 69,1109 70,437 71,305
72,144 77,204 79,557 81,5926
82,498 83,662 84,244 85,153
86,295 95,280 96,2090 97,176
114,229
##END=
