##TITLE=1H-Indole, 1-ethyl-
##JCAMP-DX=4.24
##DATA TYPE=MASS SPECTRUM
##OWNER=NIST Mass Spectrometry Data Center
Collection (C) 2014 copyright by the U.S. Secretary of Commerce
on behalf of the United States of America. All rights reserved.
##CAS REGISTRY NO=10604-59-8
##$NIST MASS SPEC NO=4192
##MOLFORM=C10 H11 N
##MW=145
##$NIST SOURCE=MSDC
##XUNITS=M/Z
##YUNITS=RELATIVE INTENSITY
##XFACTOR=1
##YFACTOR=1
##FIRSTX=51
##LASTX=146
##FIRSTY=550
##MAXX=146
##MINX=51
##MAXY=9999
##MINY=150
##NPOINTS=26
##PEAK TABLE=(XY..XY)
51,550 52,150 62,220 63,901
64,230 65,250 76,220 77,1301
89,2352 90,851 91,300 101,200
102,400 103,701 104,150 114,400
115,701 116,651 117,150 128,400
129,200 130,9999 131,1451 143,280
145,5005 146,751
##END=
