##TITLE=Isophthalic acid, 2TMS derivative
##JCAMP-DX=4.24
##DATA TYPE=MASS SPECTRUM
##ORIGIN=James Little,Eastman Chem.Co.,Kingsport,TN
##OWNER=NIST Mass Spectrometry Data Center
Collection (C) 2014 copyright by the U.S. Secretary of Commerce
on behalf of the United States of America. All rights reserved.
##CAS REGISTRY NO=106450-31-1
##$NIST MASS SPEC NO=353127
##MOLFORM=C14 H22 O4 Si2
##MW=310
##$NIST SOURCE=MSDC
##XUNITS=M/Z
##YUNITS=RELATIVE INTENSITY
##XFACTOR=1
##YFACTOR=1
##FIRSTX=29
##LASTX=313
##FIRSTY=10
##MAXX=313
##MINX=29
##MAXY=9999
##MINY=10
##NPOINTS=191
##PEAK TABLE=(XY..XY)
29,10 31,20 39,20 42,10
43,240 44,170 45,761 46,50
47,150 49,10 50,190 51,40
52,40 53,40 54,10 55,40
56,10 57,50 58,70 59,220
60,30 61,130 62,30 63,40
64,20 65,130 66,120 67,50
68,10 69,30 70,30 71,70
72,140 73,7447 74,761 75,1611
76,2692 77,410 78,50 79,50
81,40 82,50 83,100 84,30
85,60 87,30 88,30 89,581
90,240 91,370 92,40 93,90
94,10 95,60 96,60 97,60
98,20 99,10 101,30 102,20
103,3103 104,1782 105,410 106,40
107,60 108,10 109,40 110,40
111,50 112,30 113,10 115,110
116,30 117,130 118,520 119,601
120,110 121,410 122,50 123,30
124,10 125,150 126,601 127,150
128,10 129,30 130,10 131,120
132,110 133,671 134,290 135,1051
136,150 137,80 138,10 139,10
140,2953 141,130 142,10 143,10
145,90 146,40 147,500 148,150
149,430 150,100 151,90 152,10
153,20 159,10 161,40 162,10
163,210 164,30 165,150 166,20
167,10 175,150 176,90 177,1401
178,550 179,400 180,70 181,40
191,40 192,160 193,671 194,110
195,90 196,10 197,10 203,10
204,20 205,1972 206,340 207,1441
208,300 209,150 210,20 211,40
217,50 218,20 219,120 220,90
221,2642 222,440 223,170 224,20
233,130 234,30 235,210 236,130
237,50 238,10 241,10 243,110
244,20 245,20 249,30 250,20
251,520 252,130 253,50 259,10
261,80 262,20 263,20 264,20
265,30 266,10 277,60 278,20
279,2682 280,611 281,260 282,40
283,10 291,10 292,10 293,50
294,50 295,9999 296,2312 297,981
298,160 299,30 309,390 310,661
311,180 312,60 313,10
##END=
