##TITLE=Silane, chlorodimethyl-
##JCAMP-DX=4.24
##DATA TYPE=MASS SPECTRUM
##ORIGIN=NIST Mass Spectrometry Data Center, 1994
##OWNER=NIST Mass Spectrometry Data Center
Collection (C) 2014 copyright by the U.S. Secretary of Commerce
on behalf of the United States of America. All rights reserved.
##CAS REGISTRY NO=1066-35-9
##$NIST MASS SPEC NO=133319
##MOLFORM=C2 H7 Cl Si
##MW=94
##$NIST SOURCE=MSDC
##XUNITS=M/Z
##YUNITS=RELATIVE INTENSITY
##XFACTOR=1
##YFACTOR=1
##FIRSTX=15
##LASTX=97
##FIRSTY=3954
##MAXX=97
##MINX=15
##MAXY=9999
##MINY=9
##NPOINTS=56
##PEAK TABLE=(XY..XY)
15,3954 16,88 25,63 26,221
27,543 28,63 29,1310 30,260
31,1167 33,37 35,248 36,147
37,111 38,66 40,274 41,1277
42,2404 43,4850 44,454 45,193
47,55 48,64 49,82 50,20
53,819 54,198 55,321 56,20
57,493 58,20 59,7318 60,576
61,288 62,20 63,4432 64,887
65,3002 66,322 67,529 68,36
69,16 73,9 75,63 76,236
77,559 78,2148 79,7611 80,1168
81,2670 82,185 83,95 93,9999
94,1166 95,3454 96,261 97,129
##END=
