##TITLE=Trigermane, octamethyl-
##JCAMP-DX=4.24
##DATA TYPE=MASS SPECTRUM
##ORIGIN=A.A.Kutin, Moscow, Russia
##OWNER=NIST Mass Spectrometry Data Center
Collection (C) 2014 copyright by the U.S. Secretary of Commerce
on behalf of the United States of America. All rights reserved.
##CAS REGISTRY NO=1066-63-3
##$NIST MASS SPEC NO=297749
##MOLFORM=C8 H24 Ge3
##MW=342
##$NIST SOURCE=MSDC
##XUNITS=M/Z
##YUNITS=RELATIVE INTENSITY
##XFACTOR=1
##YFACTOR=1
##FIRSTX=36
##LASTX=344
##FIRSTY=11
##MAXX=344
##MINX=36
##MAXY=9999
##MINY=3
##NPOINTS=158
##PEAK TABLE=(XY..XY)
36,11 39,42 40,29 41,125
42,24 43,161 44,100 45,13
53,7 55,73 56,89 57,223
58,5 60,4 67,7 69,51
70,75 71,199 72,60 73,177
74,106 75,177 76,10 77,45
81,3 83,25 85,1546 87,2215
88,682 89,2685 91,1043 93,81
95,6 97,66 98,8 99,111
100,365 101,307 102,430 103,445
104,617 105,352 106,105 107,64
112,6 115,6216 117,8481 118,2864
119,9999 121,2390 122,51 127,4
129,11 131,14 140,4 142,5
143,4 144,24 145,13 146,31
147,16 148,20 149,13 153,11
154,3 155,60 156,27 157,150
158,61 159,194 160,67 161,175
162,49 163,88 164,6 165,20
167,6 169,16 170,15 171,43
172,38 173,69 174,68 175,66
176,59 177,40 178,38 180,3
185,31 187,93 188,33 189,158
190,46 191,151 192,36 193,100
195,24 200,158 202,502 203,231
204,856 205,307 206,852 207,312
208,642 209,85 210,185 211,4
212,8 215,521 217,1404 218,537
219,2403 220,712 221,2516 222,777
223,1797 224,235 225,556 227,73
229,33 230,12 231,84 232,37
233,152 234,40 235,144 236,41
237,104 238,5 239,23 315,4
317,55 318,26 319,151 320,61
321,242 322,105 323,265 324,117
325,232 326,66 327,133 328,19
329,39 331,3 332,34 333,18
334,102 336,233 337,92 338,202
339,82 340,181 341,50 342,85
343,15 344,25
##END=
