##TITLE=2,5,7,10-Tetraoxa-6-silaundecane, 6-ethenyl-6-(2-methoxyethoxy)-
##JCAMP-DX=4.24
##DATA TYPE=MASS SPECTRUM
##ORIGIN=Japan AIST/NIMC Database- Spectrum MS-NW-5152
##OWNER=NIST Mass Spectrometry Data Center
Collection (C) 2014 copyright by the U.S. Secretary of Commerce
on behalf of the United States of America. All rights reserved.
##CAS REGISTRY NO=1067-53-4
##$NIST MASS SPEC NO=232533
##MOLFORM=C11 H24 O6 Si
##MW=280
##$NIST SOURCE=MSDC
##XUNITS=M/Z
##YUNITS=RELATIVE INTENSITY
##XFACTOR=1
##YFACTOR=1
##FIRSTX=14
##LASTX=265
##FIRSTY=20
##MAXX=265
##MINX=14
##MAXY=9999
##MINY=10
##NPOINTS=152
##PEAK TABLE=(XY..XY)
14,20 15,449 16,10 26,30
27,129 28,149 29,349 30,30
31,279 32,20 33,10 39,10
41,50 42,30 43,219 44,40
45,1339 46,40 47,99 53,10
54,30 55,40 57,60 58,359
59,369 60,40 61,179 62,30
63,219 64,10 65,10 67,10
70,10 71,80 72,50 73,349
74,50 75,40 76,109 77,489
78,40 79,50 84,10 85,90
86,139 87,1019 88,109 89,139
90,119 91,519 92,40 93,149
94,10 95,10 97,10 98,30
99,30 100,50 101,90 102,40
103,569 104,99 105,109 106,20
107,249 108,20 109,10 111,10
112,20 113,40 114,20 115,289
116,99 117,7299 118,729 119,659
120,60 121,999 122,90 123,50
126,10 127,30 128,20 129,229
130,60 131,229 132,60 133,169
134,40 135,139 136,10 137,20
143,20 144,40 145,90 146,20
147,309 148,40 149,90 150,10
151,70 152,10 153,10 157,10
159,99 160,50 161,1119 162,139
163,359 164,40 165,90 166,10
167,10 171,20 172,20 173,30
174,50 175,30 176,20 177,30
178,10 179,20 181,10 189,109
190,20 191,10 193,20 195,179
196,20 197,10 203,30 204,119
205,9999 206,1419 207,779 208,90
209,129 210,20 211,10 217,30
218,10 219,249 220,40 221,50
222,10 223,50 224,10 225,10
253,1119 254,179 255,70 265,10
##END=
