##TITLE=Silane, trimethoxypropyl-
##JCAMP-DX=4.24
##DATA TYPE=MASS SPECTRUM
##OWNER=NIST Mass Spectrometry Data Center
Collection (C) 2014 copyright by the U.S. Secretary of Commerce
on behalf of the United States of America. All rights reserved.
##CAS REGISTRY NO=1067-25-0
##$NIST MASS SPEC NO=6134
##MOLFORM=C6 H16 O3 Si
##MW=164
##$NIST SOURCE=MSDC
##XUNITS=M/Z
##YUNITS=RELATIVE INTENSITY
##XFACTOR=1
##YFACTOR=1
##FIRSTX=18
##LASTX=166
##FIRSTY=140
##MAXX=166
##MINX=18
##MAXY=9999
##MINY=10
##NPOINTS=82
##PEAK TABLE=(XY..XY)
18,140 19,50 20,50 21,180
23,10 26,50 27,20 28,120
29,50 30,40 31,130 32,40
33,20 36,10 37,10 38,20
39,200 40,50 41,170 42,40
43,60 44,20 45,370 46,60
47,230 48,10 49,10 50,10
51,10 55,20 57,20 58,60
59,510 60,340 61,390 62,100
63,90 65,10 68,70 69,20
71,20 73,30 74,170 75,230
76,100 77,360 78,30 79,20
85,30 87,50 89,40 90,500
91,4604 92,380 93,200 99,20
101,20 102,30 103,40 104,130
105,140 106,20 107,140 108,10
109,20 115,10 117,100 118,10
119,20 120,60 121,9999 122,881
123,450 124,20 131,20 132,20
133,160 134,20 136,10 164,230
165,30 166,10
##END=
