##TITLE=Germane, tetrabutyl-
##JCAMP-DX=4.24
##DATA TYPE=MASS SPECTRUM
##ORIGIN=Japan AIST/NIMC Database- Spectrum MS-NW-8639
##OWNER=NIST Mass Spectrometry Data Center
Collection (C) 2014 copyright by the U.S. Secretary of Commerce
on behalf of the United States of America. All rights reserved.
##CAS REGISTRY NO=1067-42-1
##$NIST MASS SPEC NO=236750
##MOLFORM=C16 H36 Ge
##MW=302
##$NIST SOURCE=MSDC
##XUNITS=M/Z
##YUNITS=RELATIVE INTENSITY
##XFACTOR=1
##YFACTOR=1
##FIRSTX=14
##LASTX=248
##FIRSTY=10
##MAXX=248
##MINX=14
##MAXY=9999
##MINY=10
##NPOINTS=105
##PEAK TABLE=(XY..XY)
14,10 26,30 27,259 28,129
29,859 30,20 39,139 40,10
41,569 42,20 43,50 53,40
54,10 55,3039 56,179 57,239
58,10 67,10 69,50 70,229
71,149 72,299 73,449 74,459
75,479 76,139 77,339 79,60
81,10 84,20 85,529 86,50
87,1419 88,269 89,1869 90,339
91,1449 92,30 93,269 95,10
97,90 98,40 99,529 100,139
101,1119 102,309 103,1309 104,279
105,909 106,40 107,159 111,30
112,10 113,70 114,40 115,80
116,40 117,60 118,40 119,10
125,50 126,90 127,259 128,299
129,4259 130,619 131,5579 132,2019
133,6949 134,379 135,1439 136,60
141,10 142,10 143,40 144,20
145,50 146,30 147,30 149,10
155,40 156,10 157,50 158,20
159,70 160,20 161,20 183,30
184,40 185,5629 186,559 187,7459
188,2799 189,9999 190,889 191,2079
192,179 241,1879 242,249 243,2479
244,1029 245,3339 246,439 247,709
248,90
##END=
