##TITLE=Phosphoramidic acid, diethyl ester
##JCAMP-DX=4.24
##DATA TYPE=MASS SPECTRUM
##ORIGIN=NIST Mass Spectrometry Data Center, 1994
##OWNER=NIST Mass Spectrometry Data Center
Collection (C) 2014 copyright by the U.S. Secretary of Commerce
on behalf of the United States of America. All rights reserved.
##CAS REGISTRY NO=1068-21-9
##$NIST MASS SPEC NO=133615
##MOLFORM=C4 H12 N O3 P
##MW=153
##$NIST SOURCE=MSDC
##XUNITS=M/Z
##YUNITS=RELATIVE INTENSITY
##XFACTOR=1
##YFACTOR=1
##FIRSTX=14
##LASTX=154
##FIRSTY=37
##MAXX=154
##MINX=14
##MAXY=9999
##MINY=14
##NPOINTS=45
##PEAK TABLE=(XY..XY)
14,37 15,258 16,50 17,367
18,215 19,47 26,284 27,1077
28,399 29,1285 30,239 31,134
32,14 41,37 42,150 43,510
44,386 45,1009 46,189 47,546
48,39 62,223 63,186 64,396
65,441 80,9999 81,5011 82,857
91,76 94,53 96,266 98,9143
99,75 100,55 108,1645 109,1537
110,157 124,546 126,7223 127,235
128,54 138,192 152,137 153,602
154,42
##END=
