##TITLE=Propanedioic acid, (acetylamino)-, diethyl ester
##JCAMP-DX=4.24
##DATA TYPE=MASS SPECTRUM
##ORIGIN=Japan AIST/NIMC Database- Spectrum MS-IW-3885
##OWNER=NIST Mass Spectrometry Data Center
Collection (C) 2014 copyright by the U.S. Secretary of Commerce
on behalf of the United States of America. All rights reserved.
##CAS REGISTRY NO=1068-90-2
##$NIST MASS SPEC NO=232120
##MOLFORM=C9 H15 N O5
##MW=217
##$NIST SOURCE=MSDC
##XUNITS=M/Z
##YUNITS=RELATIVE INTENSITY
##XFACTOR=1
##YFACTOR=1
##FIRSTX=18
##LASTX=219
##FIRSTY=40
##MAXX=219
##MINX=18
##MAXY=9999
##MINY=10
##NPOINTS=65
##PEAK TABLE=(XY..XY)
18,40 26,30 27,369 28,809
29,1289 30,139 31,70 41,40
42,119 43,3519 44,109 45,109
46,199 47,70 55,20 56,70
57,589 58,119 59,10 60,10
61,10 69,40 70,20 71,199
72,109 73,40 74,2229 75,99
76,10 84,20 86,20 87,10
88,109 89,10 99,2559 100,289
101,60 102,9999 103,1159 104,80
114,10 115,10 116,159 117,10
118,10 125,30 126,40 127,529
128,50 129,20 130,20 131,20
143,20 144,1199 145,1459 146,109
147,10 171,10 172,799 173,189
174,40 176,20 217,70 218,109
219,10
##END=
