##TITLE=N-Decanoyl-DL-homoserine lactone
##JCAMP-DX=4.24
##DATA TYPE=MASS SPECTRUM
##ORIGIN=NIST Mass Spectrometry Data Center
##OWNER=NIST Mass Spectrometry Data Center
Collection (C) 2014 copyright by the U.S. Secretary of Commerce
on behalf of the United States of America. All rights reserved.
##CAS REGISTRY NO=106983-36-2
##$NIST MASS SPEC NO=352410
##MOLFORM=C14 H25 N O3
##MW=255
##$NIST SOURCE=MSDC
##XUNITS=M/Z
##YUNITS=RELATIVE INTENSITY
##XFACTOR=1
##YFACTOR=1
##FIRSTX=15
##LASTX=256
##FIRSTY=10
##MAXX=256
##MINX=15
##MAXY=9999
##MINY=10
##NPOINTS=139
##PEAK TABLE=(XY..XY)
15,10 26,30 27,480 28,500
29,1151 30,160 31,30 38,10
39,561 40,130 41,3413 42,861
43,5065 44,681 45,80 46,20
47,10 50,10 51,30 52,30
53,290 54,440 55,4374 56,2772
57,9999 58,581 59,390 60,70
63,10 65,40 66,30 67,380
68,240 69,1021 70,300 71,1601
72,390 73,110 74,681 75,30
77,30 78,10 79,110 80,50
81,410 82,150 83,2092 84,871
85,1341 86,190 87,150 88,10
91,20 93,70 94,30 95,390
96,100 97,470 98,961 99,310
100,530 101,1722 102,2042 103,110
104,10 105,10 107,30 108,20
109,40 110,80 111,160 112,440
113,60 114,90 115,440 116,30
117,10 121,10 122,10 123,20
125,2102 126,240 127,40 128,631
129,60 130,10 135,20 136,10
137,30 138,130 139,70 140,30
141,50 143,9118 144,681 145,80
150,10 151,10 152,30 153,30
154,170 155,350 156,1561 157,180
158,20 164,10 166,10 167,30
168,20 169,10 170,180 171,30
172,20 180,30 181,20 182,40
183,10 184,70 185,50 186,10
194,20 195,10 196,30 197,10
198,120 199,40 208,10 209,10
210,10 211,10 212,150 213,20
224,20 225,10 226,40 227,10
237,10 255,160 256,30
##END=
