##TITLE=Acetic acid, chloro-, 1,1-dimethylethyl ester
##JCAMP-DX=4.24
##DATA TYPE=MASS SPECTRUM
##ORIGIN=RADIAN CORP
##OWNER=NIST Mass Spectrometry Data Center
Collection (C) 2014 copyright by the U.S. Secretary of Commerce
on behalf of the United States of America. All rights reserved.
##CAS REGISTRY NO=107-59-5
##$NIST MASS SPEC NO=73426
##MOLFORM=C6 H11 Cl O2
##MW=150
##$NIST SOURCE=MSDC
##XUNITS=M/Z
##YUNITS=RELATIVE INTENSITY
##XFACTOR=1
##YFACTOR=1
##FIRSTX=14
##LASTX=138
##FIRSTY=160
##MAXX=138
##MINX=14
##MAXY=9999
##MINY=10
##NPOINTS=42
##PEAK TABLE=(XY..XY)
14,160 15,640 25,10 26,210
27,1490 29,3030 30,100 31,340
35,60 37,140 38,260 39,2420
40,300 41,5690 42,1470 43,2740
44,20 45,180 47,130 48,240
49,2390 50,310 51,890 52,100
53,190 54,40 55,460 56,660
57,9999 58,740 59,8580 60,350
61,30 71,20 76,140 77,2380
78,70 79,820 135,1480 136,90
137,500 138,30
##END=
