##TITLE=2-Pentene, 2,4,4-trimethyl-
##JCAMP-DX=4.24
##DATA TYPE=MASS SPECTRUM
##ORIGIN=Japan AIST/NIMC Database- Spectrum MS-NW-3307
##OWNER=NIST Mass Spectrometry Data Center
Collection (C) 2014 copyright by the U.S. Secretary of Commerce
on behalf of the United States of America. All rights reserved.
##CAS REGISTRY NO=107-40-4
##$NIST MASS SPEC NO=230810
##MOLFORM=C8 H16
##MW=112
##$NIST SOURCE=MSDC
##XUNITS=M/Z
##YUNITS=RELATIVE INTENSITY
##XFACTOR=1
##YFACTOR=1
##FIRSTX=15
##LASTX=114
##FIRSTY=109
##MAXX=114
##MINX=15
##MAXY=9999
##MINY=10
##NPOINTS=62
##PEAK TABLE=(XY..XY)
15,109 26,40 27,919 28,50
29,939 30,20 31,10 32,10
37,20 38,80 39,1199 40,169
41,2629 42,199 43,1299 44,50
45,10 46,30 49,10 50,99
51,209 52,80 53,579 54,109
55,8209 56,609 57,2129 58,109
59,20 61,10 62,30 63,60
64,10 65,119 66,60 67,319
68,50 69,1929 70,249 71,20
72,10 74,10 75,10 77,139
78,30 79,209 80,30 81,339
82,40 83,40 84,10 91,20
93,10 95,70 96,119 97,9999
98,829 99,30 110,10 112,2609
113,249 114,10
##END=
