##TITLE=1-Hexyn-3-ol, 3,5-dimethyl-
##JCAMP-DX=4.24
##DATA TYPE=MASS SPECTRUM
##ORIGIN=NIST Mass Spectrometry Data Center
##OWNER=NIST Mass Spectrometry Data Center
Collection (C) 2014 copyright by the U.S. Secretary of Commerce
on behalf of the United States of America. All rights reserved.
##CAS REGISTRY NO=107-54-0
##$NIST MASS SPEC NO=341056
##MOLFORM=C8 H14 O
##MW=126
##$NIST SOURCE=MSDC
##XUNITS=M/Z
##YUNITS=RELATIVE INTENSITY
##XFACTOR=1
##YFACTOR=1
##FIRSTX=15
##LASTX=112
##FIRSTY=20
##MAXX=112
##MINX=15
##MAXY=9999
##MINY=10
##NPOINTS=61
##PEAK TABLE=(XY..XY)
15,20 26,20 27,290 29,260
31,20 37,20 38,90 39,971
40,220 41,1251 42,250 43,2953
44,80 45,80 47,20 49,10
50,170 51,410 52,100 53,611
54,60 55,821 56,170 57,540
58,100 59,80 61,10 62,40
63,100 64,20 65,280 66,290
67,330 68,490 69,9999 70,721
71,150 74,10 75,10 77,400
78,60 79,80 80,10 81,110
82,20 83,190 84,871 85,80
91,340 92,30 93,380 94,30
95,50 96,20 97,20 98,10
100,10 107,20 109,10 111,1411
112,100
##END=
