##TITLE=Propanoic acid, 3-chloro-
##JCAMP-DX=4.24
##DATA TYPE=MASS SPECTRUM
##ORIGIN=Japan AIST/NIMC Database- Spectrum MS-NW-4618
##OWNER=NIST Mass Spectrometry Data Center
Collection (C) 2014 copyright by the U.S. Secretary of Commerce
on behalf of the United States of America. All rights reserved.
##CAS REGISTRY NO=107-94-8
##$NIST MASS SPEC NO=230274
##MOLFORM=C3 H5 Cl O2
##MW=108
##$NIST SOURCE=MSDC
##XUNITS=M/Z
##YUNITS=RELATIVE INTENSITY
##XFACTOR=1
##YFACTOR=1
##FIRSTX=12
##LASTX=110
##FIRSTY=10
##MAXX=110
##MINX=12
##MAXY=9999
##MINY=10
##NPOINTS=58
##PEAK TABLE=(XY..XY)
12,10 13,30 14,99 15,60
16,10 17,30 18,99 19,10
24,30 25,149 26,1029 27,3669
28,3199 29,659 30,20 31,149
35,99 36,469 37,40 38,149
39,10 41,40 42,409 43,239
44,139 45,2259 46,199 47,40
48,40 49,489 50,10 51,159
52,10 53,80 54,30 55,1229
56,50 60,50 61,149 62,489
63,1209 64,249 65,389 66,30
71,50 72,539 73,9999 74,349
75,40 89,99 90,40 91,209
92,20 93,50 107,70 108,50
109,30 110,10
##END=
