##TITLE=Di-tert-butyl sulfide
##JCAMP-DX=4.24
##DATA TYPE=MASS SPECTRUM
##OWNER=NIST Mass Spectrometry Data Center
Collection (C) 2014 copyright by the U.S. Secretary of Commerce
on behalf of the United States of America. All rights reserved.
##CAS REGISTRY NO=107-47-1
##$NIST MASS SPEC NO=4293
##MOLFORM=C8 H18 S
##MW=146
##$NIST SOURCE=MSDC
##XUNITS=M/Z
##YUNITS=RELATIVE INTENSITY
##XFACTOR=1
##YFACTOR=1
##FIRSTX=15
##LASTX=148
##FIRSTY=180
##MAXX=148
##MINX=15
##MAXY=9999
##MINY=10
##NPOINTS=70
##PEAK TABLE=(XY..XY)
15,180 16,10 26,40 27,661
28,170 29,520 30,40 32,10
33,10 34,10 35,10 37,20
38,40 39,120 40,100 41,2642
42,120 43,40 44,10 45,160
46,30 47,150 48,10 49,130
50,20 51,30 52,10 53,70
54,20 55,380 56,891 57,9999
58,480 59,410 60,30 61,60
62,10 63,10 64,10 65,10
66,10 67,10 68,10 69,20
70,10 71,20 72,10 73,20
74,50 75,801 76,40 77,40
78,10 83,10 84,10 85,10
88,160 89,190 90,460 91,230
92,30 93,10 97,10 112,20
113,10 131,10 132,10 146,931
147,70 148,40
##END=
