##TITLE=Mercury, chloroethyl-
##JCAMP-DX=4.24
##DATA TYPE=MASS SPECTRUM
##ORIGIN=MASS SPECTROMETRY CENTER, UNIV. OF UTAH EPA-PTSEL 3400
##OWNER=NIST Mass Spectrometry Data Center
Collection (C) 2014 copyright by the U.S. Secretary of Commerce
on behalf of the United States of America. All rights reserved.
##CAS REGISTRY NO=107-27-7
##$NIST MASS SPEC NO=52395
##MOLFORM=C2 H5 Cl Hg
##MW=266
##$NIST SOURCE=MSDC
##XUNITS=M/Z
##YUNITS=RELATIVE INTENSITY
##XFACTOR=1
##YFACTOR=1
##FIRSTX=14
##LASTX=268
##FIRSTY=205
##MAXX=268
##MINX=14
##MAXY=9999
##MINY=27
##NPOINTS=43
##PEAK TABLE=(XY..XY)
14,205 15,198 25,145 26,1495
27,8393 28,2565 29,9999 30,251
32,32 35,272 36,426 38,91
49,27 63,284 198,473 199,848
200,1175 201,769 202,1360 203,183
204,318 226,334 227,653 228,894
229,664 230,1054 231,295 232,217
233,264 234,562 235,907 236,939
237,1171 238,883 239,428 240,345
262,239 263,415 264,589 265,478
266,770 267,128 268,346
##END=
