##TITLE=Trisiloxane, octamethyl-
##JCAMP-DX=4.24
##DATA TYPE=MASS SPECTRUM
##ORIGIN=R.W.CRAWFORD UNIV. OF CALIFORNIA, LIVERMORE, CALIFORNIA, USA
##OWNER=NIST Mass Spectrometry Data Center
Collection (C) 2014 copyright by the U.S. Secretary of Commerce
on behalf of the United States of America. All rights reserved.
##CAS REGISTRY NO=107-51-7
##$NIST MASS SPEC NO=11382
##MOLFORM=C8 H24 O2 Si3
##MW=236
##$NIST SOURCE=MSDC
##XUNITS=M/Z
##YUNITS=RELATIVE INTENSITY
##XFACTOR=1
##YFACTOR=1
##FIRSTX=2
##LASTX=225
##FIRSTY=14
##MAXX=225
##MINX=2
##MAXY=9999
##MINY=3
##NPOINTS=103
##PEAK TABLE=(XY..XY)
2,14 12,3 13,5 14,20
15,158 16,10 26,9 27,45
28,43 29,94 30,7 31,58
32,4 39,4 41,7 42,24
43,190 44,82 45,634 46,42
47,51 51,30 52,69 53,14
55,26 56,9 57,43 58,70
59,646 60,55 61,161 62,11
63,8 65,8 66,186 67,40
68,11 69,26 70,36 71,106
73,4792 74,465 75,384 76,26
77,14 79,9 80,100 81,63
82,31 83,23 85,82 86,31
87,213 88,150 89,109 90,14
91,14 95,275 96,71 99,17
100,16 101,70 102,51 103,1275
104,190 105,102 106,17 107,16
113,29 115,183 116,47 117,176
118,39 119,134 120,21 121,13
127,6 129,29 131,295 133,644
135,56 143,15 145,50 147,946
148,151 149,78 157,6 159,54
161,35 163,17 175,99 177,50
189,398 191,231 205,576 206,124
207,159 219,160 221,9999 222,2539
223,1266 224,201 225,52
##END=
