##TITLE=Acetonitrile, hydroxy-
##JCAMP-DX=4.24
##DATA TYPE=MASS SPECTRUM
##ORIGIN=Japan AIST/NIMC Database- Spectrum MS-NW-1129
##OWNER=NIST Mass Spectrometry Data Center
Collection (C) 2014 copyright by the U.S. Secretary of Commerce
on behalf of the United States of America. All rights reserved.
##CAS REGISTRY NO=107-16-4
##$NIST MASS SPEC NO=230418
##MOLFORM=C2 H3 N O
##MW=57
##$NIST SOURCE=MSDC
##XUNITS=M/Z
##YUNITS=RELATIVE INTENSITY
##XFACTOR=1
##YFACTOR=1
##FIRSTX=12
##LASTX=59
##FIRSTY=129
##MAXX=59
##MINX=12
##MAXY=9999
##MINY=10
##NPOINTS=29
##PEAK TABLE=(XY..XY)
12,129 13,99 14,70 15,10
16,70 17,1459 18,5529 19,10
24,30 25,40 26,589 27,2569
28,9999 29,4259 30,4109 31,869
32,70 38,469 39,549 40,1359
41,80 42,20 43,20 54,549
55,129 56,2259 57,409 58,99
59,20
##END=
