##TITLE=Chloromethyl cyanide
##JCAMP-DX=4.24
##DATA TYPE=MASS SPECTRUM
##ORIGIN=Japan AIST/NIMC Database- Spectrum MS-NW-1496
##OWNER=NIST Mass Spectrometry Data Center
Collection (C) 2014 copyright by the U.S. Secretary of Commerce
on behalf of the United States of America. All rights reserved.
##CAS REGISTRY NO=107-14-2
##$NIST MASS SPEC NO=230381
##MOLFORM=C2 H2 Cl N
##MW=75
##$NIST SOURCE=MSDC
##XUNITS=M/Z
##YUNITS=RELATIVE INTENSITY
##XFACTOR=1
##YFACTOR=1
##FIRSTX=12
##LASTX=78
##FIRSTY=309
##MAXX=78
##MINX=12
##MAXY=9999
##MINY=10
##NPOINTS=35
##PEAK TABLE=(XY..XY)
12,309 13,229 14,179 24,99
25,189 26,279 27,179 28,579
29,30 30,10 35,569 36,239
37,219 38,1179 39,1319 40,4339
41,129 42,20 43,10 44,229
47,1109 48,8469 49,679 50,2649
51,139 59,20 60,40 61,30
62,10 73,229 74,449 75,9999
76,389 77,3209 78,90
##END=
