##TITLE=Ethylenediamine
##JCAMP-DX=4.24
##DATA TYPE=MASS SPECTRUM
##ORIGIN=NIST Mass Spectrometry Data Center, 1998.
##OWNER=NIST Mass Spectrometry Data Center
Collection (C) 2014 copyright by the U.S. Secretary of Commerce
on behalf of the United States of America. All rights reserved.
##CAS REGISTRY NO=107-15-3
##$NIST MASS SPEC NO=291549
##MOLFORM=C2 H8 N2
##MW=60
##$NIST SOURCE=MSDC
##XUNITS=M/Z
##YUNITS=RELATIVE INTENSITY
##XFACTOR=1
##YFACTOR=1
##FIRSTX=14
##LASTX=61
##FIRSTY=20
##MAXX=61
##MINX=14
##MAXY=9999
##MINY=10
##NPOINTS=31
##PEAK TABLE=(XY..XY)
14,20 15,90 16,30 17,30
18,150 25,10 26,50 27,270
28,1950 29,310 30,9999 31,280
32,50 38,50 39,70 40,250
41,510 42,1250 43,1540 44,400
45,10 52,10 53,50 54,10
55,10 56,20 57,30 58,60
59,660 60,680 61,60
##END=
