##TITLE=Acetaldoxime
##JCAMP-DX=4.24
##DATA TYPE=MASS SPECTRUM
##ORIGIN=NIST Mass Spectrometry Data Center, 1992
##OWNER=NIST Mass Spectrometry Data Center
Collection (C) 2014 copyright by the U.S. Secretary of Commerce
on behalf of the United States of America. All rights reserved.
##CAS REGISTRY NO=107-29-9
##$NIST MASS SPEC NO=125438
##MOLFORM=C2 H5 N O
##MW=59
##$NIST SOURCE=MSDC
##XUNITS=M/Z
##YUNITS=RELATIVE INTENSITY
##XFACTOR=1
##YFACTOR=1
##FIRSTX=12
##LASTX=61
##FIRSTY=227
##MAXX=61
##MINX=12
##MAXY=9999
##MINY=14
##NPOINTS=33
##PEAK TABLE=(XY..XY)
12,227 13,368 14,1031 15,3498
16,499 17,398 18,478 19,125
20,26 24,190 25,496 26,1606
27,2053 28,2509 29,503 30,1412
31,816 32,167 33,101 38,1236
39,1682 40,4794 41,8261 42,2760
43,689 44,5223 45,91 46,15
55,14 56,35 59,9999 60,300
61,25
##END=
