##TITLE=Silane, trichloropentyl-
##JCAMP-DX=4.24
##DATA TYPE=MASS SPECTRUM
##ORIGIN=RADIAN CORP
##OWNER=NIST Mass Spectrometry Data Center
Collection (C) 2014 copyright by the U.S. Secretary of Commerce
on behalf of the United States of America. All rights reserved.
##CAS REGISTRY NO=107-72-2
##$NIST MASS SPEC NO=72920
##MOLFORM=C5 H11 Cl3 Si
##MW=204
##$NIST SOURCE=MSDC
##XUNITS=M/Z
##YUNITS=RELATIVE INTENSITY
##XFACTOR=1
##YFACTOR=1
##FIRSTX=10
##LASTX=210
##FIRSTY=30
##MAXX=210
##MINX=10
##MAXY=9999
##MINY=10
##NPOINTS=146
##PEAK TABLE=(XY..XY)
10,30 15,20 22,10 26,140
27,1200 29,700 30,30 31,30
35,20 36,30 37,50 38,80
39,1340 40,200 41,2150 42,2360
43,5720 44,130 45,50 47,10
49,10 50,40 51,50 52,30
53,240 54,570 55,450 56,80
57,650 58,20 59,180 60,20
63,1520 64,140 65,710 66,70
67,160 68,20 70,420 71,180
72,20 76,30 77,50 78,90
79,50 80,20 81,40 82,10
83,20 84,10 89,40 90,40
91,30 92,10 93,20 94,160
95,250 96,80 97,120 98,1100
99,1470 100,870 101,940 102,220
103,310 104,40 105,80 106,40
107,40 108,90 110,20 111,10
112,580 113,610 114,460 115,410
116,100 117,240 118,30 119,70
121,60 122,80 123,170 124,130
125,990 126,360 127,1050 128,290
133,9930 134,660 135,9999 136,590
137,3340 138,310 139,1380 140,1270
141,880 142,820 143,190 144,370
145,50 146,170 147,10 148,60
149,220 150,40 151,70 152,20
153,90 154,20 155,110 156,30
161,5530 162,710 163,5430 164,520
165,1950 166,170 167,400 168,2480
169,390 170,1690 171,131 175,1130
176,90 177,1000 178,110 179,430
181,70 185,230 186,40 187,160
188,20 190,10 193,20 199,30
200,50 201,30 203,20 204,570
205,90 206,590 207,70 208,190
209,20 210,10
##END=
