##TITLE=3-Mercaptopropionic acid
##JCAMP-DX=4.24
##DATA TYPE=MASS SPECTRUM
##ORIGIN=NIST Mass Spectrometry Data Center, 1998.
##OWNER=NIST Mass Spectrometry Data Center
Collection (C) 2014 copyright by the U.S. Secretary of Commerce
on behalf of the United States of America. All rights reserved.
##CAS REGISTRY NO=107-96-0
##$NIST MASS SPEC NO=292014
##MOLFORM=C3 H6 O2 S
##MW=106
##$NIST SOURCE=MSDC
##XUNITS=M/Z
##YUNITS=RELATIVE INTENSITY
##XFACTOR=1
##YFACTOR=1
##FIRSTX=15
##LASTX=108
##FIRSTY=30
##MAXX=108
##MINX=15
##MAXY=9999
##MINY=10
##NPOINTS=46
##PEAK TABLE=(XY..XY)
15,30 25,110 26,710 27,3140
28,3900 29,1170 31,180 32,240
33,410 34,610 35,1260 36,90
37,30 38,30 41,20 42,1390
43,1410 44,410 45,6439 46,1890
47,5089 48,130 49,160 53,100
54,90 55,2720 56,160 57,770
58,1630 59,2370 60,7579 61,3420
62,390 63,300 72,100 73,990
74,10 75,50 78,30 87,280
88,4700 89,460 90,160 106,9999
107,280 108,500
##END=
