##TITLE=Propane, 1-iodo-
##JCAMP-DX=4.24
##DATA TYPE=MASS SPECTRUM
##ORIGIN=NIST Mass Spectrometry Data Center, 1992
##OWNER=NIST Mass Spectrometry Data Center
Collection (C) 2014 copyright by the U.S. Secretary of Commerce
on behalf of the United States of America. All rights reserved.
##CAS REGISTRY NO=107-08-4
##$NIST MASS SPEC NO=125449
##MOLFORM=C3 H7 I
##MW=170
##$NIST SOURCE=MSDC
##XUNITS=M/Z
##YUNITS=RELATIVE INTENSITY
##XFACTOR=1
##YFACTOR=1
##FIRSTX=12
##LASTX=171
##FIRSTY=21
##MAXX=171
##MINX=12
##MAXY=9999
##MINY=3
##NPOINTS=39
##PEAK TABLE=(XY..XY)
12,21 13,39 14,136 15,493
16,10 24,13 25,93 26,742
27,5254 28,558 29,116 32,3
36,50 37,336 38,629 39,2752
40,626 41,5899 42,3 43,9999
44,346 45,4 63,5 127,1894
128,292 129,21 139,57 140,52
141,240 142,40 152,20 153,19
155,172 156,3 164,3 165,3
167,4 170,3845 171,130
##END=
