##TITLE=2-Pentanone, 4-methoxy-4-methyl-
##JCAMP-DX=4.24
##DATA TYPE=MASS SPECTRUM
##ORIGIN=RADIAN CORP
##OWNER=NIST Mass Spectrometry Data Center
Collection (C) 2014 copyright by the U.S. Secretary of Commerce
on behalf of the United States of America. All rights reserved.
##CAS REGISTRY NO=107-70-0
##$NIST MASS SPEC NO=76002
##MOLFORM=C7 H14 O2
##MW=130
##$NIST SOURCE=MSDC
##XUNITS=M/Z
##YUNITS=RELATIVE INTENSITY
##XFACTOR=1
##YFACTOR=1
##FIRSTX=14
##LASTX=116
##FIRSTY=20
##MAXX=116
##MINX=14
##MAXY=9999
##MINY=10
##NPOINTS=45
##PEAK TABLE=(XY..XY)
14,20 15,180 18,20 26,50
27,450 28,200 29,520 30,20
31,120 32,30 33,140 37,10
38,60 39,680 40,150 41,990
42,620 43,9999 44,260 45,380
50,40 51,40 52,20 53,120
54,20 55,520 56,420 57,180
58,50 59,110 67,20 69,20
71,20 72,150 73,8550 74,400
75,70 83,180 85,150 98,120
99,80 100,530 101,40 115,920
116,60
##END=
