##TITLE=Methane, chloromethoxy-
##JCAMP-DX=4.24
##DATA TYPE=MASS SPECTRUM
##ORIGIN=Japan AIST/NIMC Database- Spectrum MS-NW-4408
##OWNER=NIST Mass Spectrometry Data Center
Collection (C) 2014 copyright by the U.S. Secretary of Commerce
on behalf of the United States of America. All rights reserved.
##CAS REGISTRY NO=107-30-2
##$NIST MASS SPEC NO=229221
##MOLFORM=C2 H5 Cl O
##MW=80
##$NIST SOURCE=MSDC
##XUNITS=M/Z
##YUNITS=RELATIVE INTENSITY
##XFACTOR=1
##YFACTOR=1
##FIRSTX=12
##LASTX=82
##FIRSTY=20
##MAXX=82
##MINX=12
##MAXY=9999
##MINY=10
##NPOINTS=39
##PEAK TABLE=(XY..XY)
12,20 13,70 14,279 15,2509
16,60 17,20 18,70 26,10
27,10 28,279 29,2799 30,419
31,259 32,129 35,149 36,159
37,50 38,50 40,20 42,30
43,50 44,139 45,9999 46,239
47,70 48,99 49,1329 50,90
51,469 52,20 53,40 61,10
63,30 65,10 78,10 79,359
80,70 81,119 82,20
##END=
