##TITLE=2-Propanol, 1-methoxy-
##JCAMP-DX=4.24
##DATA TYPE=MASS SPECTRUM
##ORIGIN=Japan AIST/NIMC Database- Spectrum MS-NW- 685
##OWNER=NIST Mass Spectrometry Data Center
Collection (C) 2014 copyright by the U.S. Secretary of Commerce
on behalf of the United States of America. All rights reserved.
##CAS REGISTRY NO=107-98-2
##$NIST MASS SPEC NO=228800
##MOLFORM=C4 H10 O2
##MW=90
##$NIST SOURCE=MSDC
##XUNITS=M/Z
##YUNITS=RELATIVE INTENSITY
##XFACTOR=1
##YFACTOR=1
##FIRSTX=14
##LASTX=90
##FIRSTY=60
##MAXX=90
##MINX=14
##MAXY=9999
##MINY=10
##NPOINTS=39
##PEAK TABLE=(XY..XY)
14,60 15,659 16,20 17,10
18,60 19,20 26,60 27,499
28,90 29,739 30,50 31,1139
32,30 33,119 37,50 38,30
39,169 40,30 41,379 42,129
43,869 44,209 45,9999 46,489
47,2889 48,60 55,20 56,30
57,189 58,80 59,349 60,10
71,70 72,60 73,50 75,379
76,10 89,20 90,60
##END=
