##TITLE=2-Pentanamine, 2,4,4-trimethyl-
##JCAMP-DX=4.24
##DATA TYPE=MASS SPECTRUM
##ORIGIN=Japan AIST/NIMC Database- Spectrum MS-NW- 711
##OWNER=NIST Mass Spectrometry Data Center
Collection (C) 2014 copyright by the U.S. Secretary of Commerce
on behalf of the United States of America. All rights reserved.
##CAS REGISTRY NO=107-45-9
##$NIST MASS SPEC NO=227932
##MOLFORM=C8 H19 N
##MW=129
##$NIST SOURCE=MSDC
##XUNITS=M/Z
##YUNITS=RELATIVE INTENSITY
##XFACTOR=1
##YFACTOR=1
##FIRSTX=15
##LASTX=115
##FIRSTY=80
##MAXX=115
##MINX=15
##MAXY=9999
##MINY=10
##NPOINTS=51
##PEAK TABLE=(XY..XY)
15,80 25,10 26,10 27,239
28,139 29,399 30,169 38,10
39,279 40,50 41,949 42,619
43,289 44,50 46,10 47,20
48,129 49,20 50,20 51,30
52,10 53,70 54,30 55,379
56,429 57,1109 58,9999 59,369
65,10 67,20 68,10 69,70
70,70 71,50 72,219 73,20
77,10 78,20 79,10 81,10
82,10 83,20 84,30 85,10
86,60 91,20 97,129 98,20
100,20 114,389 115,30
##END=
