##TITLE=Glyoxal
##JCAMP-DX=4.24
##DATA TYPE=MASS SPECTRUM
##OWNER=NIST Mass Spectrometry Data Center
Collection (C) 2014 copyright by the U.S. Secretary of Commerce
on behalf of the United States of America. All rights reserved.
##CAS REGISTRY NO=107-22-2
##$NIST MASS SPEC NO=137
##MOLFORM=C2 H2 O2
##MW=58
##$NIST SOURCE=MSDC
##XUNITS=M/Z
##YUNITS=RELATIVE INTENSITY
##XFACTOR=1
##YFACTOR=1
##FIRSTX=12
##LASTX=59
##FIRSTY=112
##MAXX=59
##MINX=12
##MAXY=9999
##MINY=56
##NPOINTS=28
##PEAK TABLE=(XY..XY)
12,112 13,168 14,337 15,617
16,561 19,337 20,112 24,112
25,168 26,224 27,337 28,3597
29,9999 30,5504 31,8647 32,2469
33,1739 36,56 40,112 41,224
42,449 43,1178 44,1852 55,56
56,673 57,56 58,4438 59,168
##END=
