##TITLE=N-Methylglycine
##JCAMP-DX=4.24
##DATA TYPE=MASS SPECTRUM
##ORIGIN=NIST Mass Spectrometry Data Center, 1998.
##OWNER=NIST Mass Spectrometry Data Center
Collection (C) 2014 copyright by the U.S. Secretary of Commerce
on behalf of the United States of America. All rights reserved.
##CAS REGISTRY NO=107-97-1
##$NIST MASS SPEC NO=291089
##MOLFORM=C3 H7 N O2
##MW=89
##$NIST SOURCE=MSDC
##XUNITS=M/Z
##YUNITS=RELATIVE INTENSITY
##XFACTOR=1
##YFACTOR=1
##FIRSTX=15
##LASTX=89
##FIRSTY=260
##MAXX=89
##MINX=15
##MAXY=9999
##MINY=120
##NPOINTS=14
##PEAK TABLE=(XY..XY)
15,260 18,660 27,120 28,1990
30,470 31,120 36,140 41,310
42,2360 43,740 44,9999 45,1320
60,190 89,940
##END=
