##TITLE=1,7-Octanediol, 3,7-dimethyl-
##JCAMP-DX=4.24
##DATA TYPE=MASS SPECTRUM
##OWNER=NIST Mass Spectrometry Data Center
Collection (C) 2014 copyright by the U.S. Secretary of Commerce
on behalf of the United States of America. All rights reserved.
##CAS REGISTRY NO=107-74-4
##$NIST MASS SPEC NO=6949
##MOLFORM=C10 H22 O2
##MW=174
##$NIST SOURCE=MSDC
##XUNITS=M/Z
##YUNITS=RELATIVE INTENSITY
##XFACTOR=1
##YFACTOR=1
##FIRSTX=15
##LASTX=159
##FIRSTY=110
##MAXX=159
##MINX=15
##MAXY=9999
##MINY=10
##NPOINTS=84
##PEAK TABLE=(XY..XY)
15,110 16,10 17,70 18,260
19,20 25,20 26,70 27,440
29,641 30,30 31,841 38,40
39,470 40,110 41,1772 42,430
43,2873 44,190 45,230 50,30
51,50 52,40 53,260 54,170
55,1912 56,1101 57,520 58,440
59,9999 60,290 61,40 65,80
66,60 67,731 68,450 69,1421
70,1231 71,871 72,90 73,20
77,80 78,50 79,70 80,80
81,831 82,631 83,941 84,110
85,190 86,70 87,50 89,80
91,50 93,50 94,40 95,480
96,160 97,90 98,731 99,110
100,40 101,20 107,20 109,230
110,90 111,70 112,60 113,50
114,20 117,20 121,40 123,841
124,110 125,20 126,40 128,20
131,20 138,90 139,20 141,120
142,20 156,70 157,20 159,170
##END=
