##TITLE=1,3-Butanediol
##JCAMP-DX=4.24
##DATA TYPE=MASS SPECTRUM
##ORIGIN=Japan AIST/NIMC Database- Spectrum MS-NW-1817
##OWNER=NIST Mass Spectrometry Data Center
Collection (C) 2014 copyright by the U.S. Secretary of Commerce
on behalf of the United States of America. All rights reserved.
##CAS REGISTRY NO=107-88-0
##$NIST MASS SPEC NO=227736
##MOLFORM=C4 H10 O2
##MW=90
##$NIST SOURCE=MSDC
##XUNITS=M/Z
##YUNITS=RELATIVE INTENSITY
##XFACTOR=1
##YFACTOR=1
##FIRSTX=12
##LASTX=90
##FIRSTY=10
##MAXX=90
##MINX=12
##MAXY=9999
##MINY=10
##NPOINTS=55
##PEAK TABLE=(XY..XY)
12,10 13,40 14,289 15,1509
16,60 17,99 18,449 19,419
25,30 26,439 27,2919 28,3109
29,2509 30,149 31,3419 32,60
33,10 34,20 36,10 37,99
38,169 39,1089 40,259 41,1389
42,1509 43,9999 44,2109 45,9139
46,519 47,219 49,60 50,70
51,70 52,10 53,119 54,119
55,429 56,50 57,2489 58,129
59,60 60,10 61,20 62,70
63,40 69,20 70,20 71,229
72,2559 73,149 74,10 75,759
76,20 89,30 90,10
##END=
