##TITLE=Sarin
##JCAMP-DX=4.24
##DATA TYPE=MASS SPECTRUM
##ORIGIN=VERIFIN - Methodology B1-1979
##OWNER=NIST Mass Spectrometry Data Center
Collection (C) 2014 copyright by the U.S. Secretary of Commerce
on behalf of the United States of America. All rights reserved.
##CAS REGISTRY NO=107-44-8
##$NIST MASS SPEC NO=226119
##MOLFORM=C4 H10 F O2 P
##MW=140
##$NIST SOURCE=MSDC
##XUNITS=M/Z
##YUNITS=RELATIVE INTENSITY
##XFACTOR=1
##YFACTOR=1
##FIRSTX=27
##LASTX=126
##FIRSTY=300
##MAXX=126
##MINX=27
##MAXY=9999
##MINY=50
##NPOINTS=22
##PEAK TABLE=(XY..XY)
27,300 28,50 38,70 39,500
40,100 41,700 42,500 43,800
47,300 59,100 67,100 79,200
80,100 81,1000 82,90 83,70
84,50 98,200 99,9999 100,100
125,3302 126,100
##END=
