##TITLE=Butane, 1-bromo-3-methyl-
##JCAMP-DX=4.24
##DATA TYPE=MASS SPECTRUM
##ORIGIN=Japan AIST/NIMC Database- Spectrum MS-NW- 902
##OWNER=NIST Mass Spectrometry Data Center
Collection (C) 2014 copyright by the U.S. Secretary of Commerce
on behalf of the United States of America. All rights reserved.
##CAS REGISTRY NO=107-82-4
##$NIST MASS SPEC NO=227752
##MOLFORM=C5 H11 Br
##MW=150
##$NIST SOURCE=MSDC
##XUNITS=M/Z
##YUNITS=RELATIVE INTENSITY
##XFACTOR=1
##YFACTOR=1
##FIRSTX=14
##LASTX=153
##FIRSTY=10
##MAXX=153
##MINX=14
##MAXY=9999
##MINY=10
##NPOINTS=57
##PEAK TABLE=(XY..XY)
14,10 15,90 26,209 27,2169
28,359 29,1519 30,30 31,10
37,50 38,139 39,1259 40,189
41,3249 42,1289 43,9999 44,339
49,20 50,99 51,109 52,40
53,269 54,60 55,3939 56,299
57,429 58,10 59,20 62,10
63,10 67,20 69,209 70,3819
71,4619 72,239 73,10 79,40
80,60 81,40 82,70 93,70
95,70 105,10 106,20 107,209
108,20 109,189 120,10 121,50
122,20 123,40 124,20 135,80
137,70 150,179 151,20 152,169
153,10
##END=
