##TITLE=Hexylene glycol
##JCAMP-DX=4.24
##DATA TYPE=MASS SPECTRUM
##ORIGIN=NIST Mass Spectrometry Data Center, 1994
##OWNER=NIST Mass Spectrometry Data Center
Collection (C) 2014 copyright by the U.S. Secretary of Commerce
on behalf of the United States of America. All rights reserved.
##CAS REGISTRY NO=107-41-5
##$NIST MASS SPEC NO=134019
##MOLFORM=C6 H14 O2
##MW=118
##$NIST SOURCE=MSDC
##XUNITS=M/Z
##YUNITS=RELATIVE INTENSITY
##XFACTOR=1
##YFACTOR=1
##FIRSTX=14
##LASTX=104
##FIRSTY=203
##MAXX=104
##MINX=14
##MAXY=9999
##MINY=16
##NPOINTS=54
##PEAK TABLE=(XY..XY)
14,203 15,1413 16,89 17,17
18,17 19,378 26,191 27,1279
28,203 29,1488 30,17 31,2169
33,16 36,26 37,45 38,177
39,1289 40,396 41,2860 42,2083
43,9372 44,677 45,2278 46,48
47,56 50,71 51,89 52,29
53,123 54,29 55,525 56,2545
57,1429 58,29 59,9999 60,370
61,861 62,37 63,56 65,33
67,155 68,21 69,70 71,67
77,25 83,71 85,1126 86,60
87,36 99,20 100,42 101,21
103,607 104,31
##END=
