##TITLE=Allyl levulinate
##JCAMP-DX=4.24
##DATA TYPE=MASS SPECTRUM
##ORIGIN=W.Jennings, T.Shibamoto
##OWNER=NIST Mass Spectrometry Data Center
Collection (C) 2014 copyright by the U.S. Secretary of Commerce
on behalf of the United States of America. All rights reserved.
##CAS REGISTRY NO=1070-35-5
##$NIST MASS SPEC NO=284931
##MOLFORM=C8 H12 O3
##MW=156
##$NIST SOURCE=MSDC
##XUNITS=M/Z
##YUNITS=RELATIVE INTENSITY
##XFACTOR=1
##YFACTOR=1
##FIRSTX=27
##LASTX=156
##FIRSTY=80
##MAXX=156
##MINX=27
##MAXY=9999
##MINY=80
##NPOINTS=34
##PEAK TABLE=(XY..XY)
27,80 28,530 29,320 39,621
40,90 41,7557 42,751 43,9999
44,420 45,80 51,190 54,190
55,1752 56,831 57,1151 58,1071
59,80 60,1131 63,210 68,951
69,210 70,230 71,1832 72,621
73,390 81,100 96,120 98,130
99,7086 100,731 101,290 114,220
141,250 156,120
##END=
