##TITLE=Butanoic acid, 3,3-dimethyl-
##JCAMP-DX=4.24
##DATA TYPE=MASS SPECTRUM
##ORIGIN=NIST Mass Spectrometry Data Center, 1992
##OWNER=NIST Mass Spectrometry Data Center
Collection (C) 2014 copyright by the U.S. Secretary of Commerce
on behalf of the United States of America. All rights reserved.
##CAS REGISTRY NO=1070-83-3
##$NIST MASS SPEC NO=125278
##MOLFORM=C6 H12 O2
##MW=116
##$NIST SOURCE=MSDC
##XUNITS=M/Z
##YUNITS=RELATIVE INTENSITY
##XFACTOR=1
##YFACTOR=1
##FIRSTX=13
##LASTX=102
##FIRSTY=25
##MAXX=102
##MINX=13
##MAXY=9999
##MINY=4
##NPOINTS=48
##PEAK TABLE=(XY..XY)
13,25 14,133 15,464 16,84
17,4 18,17 26,198 27,1785
28,744 29,2775 30,100 31,544
32,74 37,55 38,295 39,2618
40,497 41,4746 42,821 43,2541
44,128 45,1036 49,47 50,207
51,230 52,104 53,445 54,47
55,2012 56,47 57,9999 58,902
59,8890 60,2012 61,99 67,54
69,139 70,51 71,55 72,137
73,47 82,93 83,224 85,47
99,76 100,161 101,804 102,61
##END=
