##TITLE=Phosphorylethanolamine
##JCAMP-DX=4.24
##DATA TYPE=MASS SPECTRUM
##ORIGIN=Japan AIST/NIMC Database- Spectrum MS-NW-5440
##OWNER=NIST Mass Spectrometry Data Center
Collection (C) 2014 copyright by the U.S. Secretary of Commerce
on behalf of the United States of America. All rights reserved.
##CAS REGISTRY NO=1071-23-4
##$NIST MASS SPEC NO=230185
##MOLFORM=C2 H8 N O4 P
##MW=141
##$NIST SOURCE=MSDC
##XUNITS=M/Z
##YUNITS=RELATIVE INTENSITY
##XFACTOR=1
##YFACTOR=1
##FIRSTX=12
##LASTX=123
##FIRSTY=10
##MAXX=123
##MINX=12
##MAXY=9999
##MINY=10
##NPOINTS=70
##PEAK TABLE=(XY..XY)
12,10 13,20 14,80 15,449
16,109 17,159 18,249 25,10
26,99 27,319 28,1489 29,399
30,9999 31,439 32,20 33,10
36,10 38,40 39,70 40,129
41,299 42,909 43,349 44,90
45,30 47,60 51,10 53,10
54,10 55,40 56,30 57,30
58,30 59,30 60,139 61,769
62,30 63,70 64,20 65,60
66,10 67,20 68,10 69,30
70,10 71,20 73,10 77,20
78,30 79,10 80,20 81,329
82,10 83,20 84,10 85,20
91,10 92,10 93,60 94,10
95,20 96,10 97,10 98,199
106,20 109,10 111,10 121,20
122,20 123,30
##END=
