##TITLE=Hexane, 2,2,5,5-tetramethyl-
##JCAMP-DX=4.24
##DATA TYPE=MASS SPECTRUM
##ORIGIN=NIST Mass Spectrometry Data Center, 1990.
##OWNER=NIST Mass Spectrometry Data Center
Collection (C) 2014 copyright by the U.S. Secretary of Commerce
on behalf of the United States of America. All rights reserved.
##CAS REGISTRY NO=1071-81-4
##$NIST MASS SPEC NO=114265
##MOLFORM=C10 H22
##MW=142
##$NIST SOURCE=MSDC
##XUNITS=M/Z
##YUNITS=RELATIVE INTENSITY
##XFACTOR=1
##YFACTOR=1
##FIRSTX=14
##LASTX=142
##FIRSTY=78
##MAXX=142
##MINX=14
##MAXY=9999
##MINY=8
##NPOINTS=49
##PEAK TABLE=(XY..XY)
14,78 15,58 16,49 18,10
27,549 28,146 29,1252 30,33
39,1033 40,307 41,3875 42,348
43,2012 44,124 45,18 46,16
47,8 50,29 51,94 52,45
53,363 54,8 55,1590 56,5881
57,9999 58,517 59,23 63,11
65,52 66,17 67,118 68,24
69,276 70,11 71,3982 72,229
74,10 77,47 78,10 79,60
81,33 83,77 84,36 85,283
86,19 91,15 127,532 128,53
142,9
##END=
