##TITLE=2-Pentanone, 5-hydroxy-
##JCAMP-DX=4.24
##DATA TYPE=MASS SPECTRUM
##ORIGIN=Japan AIST/NIMC Database- Spectrum MS-NW-2111
##OWNER=NIST Mass Spectrometry Data Center
Collection (C) 2014 copyright by the U.S. Secretary of Commerce
on behalf of the United States of America. All rights reserved.
##CAS REGISTRY NO=1071-73-4
##$NIST MASS SPEC NO=233727
##MOLFORM=C5 H10 O2
##MW=102
##$NIST SOURCE=MSDC
##XUNITS=M/Z
##YUNITS=RELATIVE INTENSITY
##XFACTOR=1
##YFACTOR=1
##FIRSTX=13
##LASTX=87
##FIRSTY=20
##MAXX=87
##MINX=13
##MAXY=9999
##MINY=10
##NPOINTS=55
##PEAK TABLE=(XY..XY)
13,20 14,90 15,529 16,20
17,179 18,854 19,10 25,20
26,239 27,1069 28,249 29,579
30,30 31,829 32,20 36,10
37,90 38,179 39,2029 40,249
41,1939 42,1049 43,9999 44,279
45,199 49,40 50,159 51,189
52,119 53,749 54,929 55,969
56,249 57,259 58,2249 59,349
60,20 61,109 62,10 63,10
65,40 66,10 67,10 68,119
69,809 70,40 71,90 72,80
81,90 82,99 83,1779 84,3779
85,259 86,10 87,149
##END=
