##TITLE=o-Toluic acid, decyl ester
##JCAMP-DX=4.24
##DATA TYPE=MASS SPECTRUM
##ORIGIN=Zaikin V.G., TIPS RAS, Moscow, Russia
##OWNER=NIST Mass Spectrometry Data Center
Collection (C) 2014 copyright by the U.S. Secretary of Commerce
on behalf of the United States of America. All rights reserved.
##CAS REGISTRY NO=107141-17-3
##$NIST MASS SPEC NO=292381
##MOLFORM=C18 H28 O2
##MW=276
##$NIST SOURCE=MSDC
##XUNITS=M/Z
##YUNITS=RELATIVE INTENSITY
##XFACTOR=1
##YFACTOR=1
##FIRSTX=27
##LASTX=277
##FIRSTY=110
##MAXX=277
##MINX=27
##MAXY=9999
##MINY=10
##NPOINTS=60
##PEAK TABLE=(XY..XY)
27,110 28,10 29,230 39,190
40,30 41,701 42,180 43,1031
44,30 50,20 51,50 53,60
54,70 55,661 56,320 57,951
58,40 63,90 64,40 65,490
66,30 67,90 68,100 69,350
70,290 71,430 77,130 79,80
81,30 82,80 83,230 84,170
85,390 89,220 90,390 91,2322
92,270 93,170 96,40 97,200
98,100 99,30 105,50 111,130
112,110 118,3883 119,4654 120,390
121,30 135,260 136,9999 137,4264
138,350 139,30 140,200 141,30
149,30 159,20 276,991 277,210
##END=
