##TITLE=3-Isoxazolamine, 5-methyl-
##JCAMP-DX=4.24
##DATA TYPE=MASS SPECTRUM
##ORIGIN=Japan AIST/NIMC Database- Spectrum MS-IW- 959
##OWNER=NIST Mass Spectrometry Data Center
Collection (C) 2014 copyright by the U.S. Secretary of Commerce
on behalf of the United States of America. All rights reserved.
##CAS REGISTRY NO=1072-67-9
##$NIST MASS SPEC NO=239626
##MOLFORM=C4 H6 N2 O
##MW=98
##$NIST SOURCE=MSDC
##XUNITS=M/Z
##YUNITS=RELATIVE INTENSITY
##XFACTOR=1
##YFACTOR=1
##FIRSTX=13
##LASTX=100
##FIRSTY=10
##MAXX=100
##MINX=13
##MAXY=9999
##MINY=10
##NPOINTS=51
##PEAK TABLE=(XY..XY)
13,10 14,40 15,189 16,20
18,10 25,20 26,109 27,209
28,2579 29,399 30,80 32,30
33,20 34,10 36,10 37,90
38,179 39,559 40,189 41,509
42,389 43,3359 44,199 45,20
49,20 50,20 51,60 52,109
53,129 54,489 55,5399 56,909
57,40 58,50 63,10 64,20
65,50 66,209 67,379 68,70
69,70 70,10 71,40 81,10
82,20 83,249 84,10 97,409
98,9999 99,749 100,60
##END=
