##TITLE=1H-Imidazole, 2-ethyl-
##JCAMP-DX=4.24
##DATA TYPE=MASS SPECTRUM
##ORIGIN=Japan AIST/NIMC Database- Spectrum MS-NW-4640
##OWNER=NIST Mass Spectrometry Data Center
Collection (C) 2014 copyright by the U.S. Secretary of Commerce
on behalf of the United States of America. All rights reserved.
##CAS REGISTRY NO=1072-62-4
##$NIST MASS SPEC NO=230358
##MOLFORM=C5 H8 N2
##MW=96
##$NIST SOURCE=MSDC
##XUNITS=M/Z
##YUNITS=RELATIVE INTENSITY
##XFACTOR=1
##YFACTOR=1
##FIRSTX=12
##LASTX=98
##FIRSTY=10
##MAXX=98
##MINX=12
##MAXY=9999
##MINY=10
##NPOINTS=51
##PEAK TABLE=(XY..XY)
12,10 13,20 14,90 15,249
25,40 26,379 27,719 28,1549
29,259 30,70 36,20 37,149
38,299 39,1169 40,949 41,2059
42,1169 43,50 44,10 46,70
47,179 48,10 50,10 51,90
52,339 53,239 54,2319 55,139
56,149 57,10 62,10 63,20
64,30 65,30 66,109 67,209
68,1169 69,409 70,10 78,10
79,20 80,50 81,6749 82,379
83,10 93,209 94,149 95,9999
96,6129 97,429 98,10
##END=
