##TITLE=1,3,2-Dithiastannolane,2,2-dimethyl-
##JCAMP-DX=4.24
##DATA TYPE=MASS SPECTRUM
##ORIGIN=Japan AIST/NIMC Database- Spectrum MS-IW-2037
##OWNER=NIST Mass Spectrometry Data Center
Collection (C) 2014 copyright by the U.S. Secretary of Commerce
on behalf of the United States of America. All rights reserved.
##CAS REGISTRY NO=1072-55-5
##$NIST MASS SPEC NO=240783
##MOLFORM=C4 H10 S2 Sn
##MW=242
##$NIST SOURCE=MSDC
##XUNITS=M/Z
##YUNITS=RELATIVE INTENSITY
##XFACTOR=1
##YFACTOR=1
##FIRSTX=14
##LASTX=248
##FIRSTY=20
##MAXX=248
##MINX=14
##MAXY=9999
##MINY=10
##NPOINTS=172
##PEAK TABLE=(XY..XY)
14,20 15,119 25,10 26,129
27,339 28,80 29,70 31,10
32,90 33,30 34,70 35,20
39,20 41,629 42,20 44,169
45,629 46,209 47,599 48,30
49,60 57,70 58,389 59,839
60,309 61,129 62,10 64,80
73,30 74,10 75,9999 76,459
77,509 78,20 92,50 94,30
105,10 112,30 113,10 114,20
115,20 116,549 117,499 118,1019
119,679 120,1349 121,489 122,169
123,60 124,219 125,90 127,50
128,10 129,70 130,139 131,859
132,599 133,1369 134,669 135,1679
136,50 137,249 138,40 139,299
141,10 142,20 143,30 144,40
145,70 146,179 147,139 148,599
149,809 150,1189 151,1139 152,1279
153,1219 154,229 155,229 156,169
157,219 158,10 159,50 160,10
161,99 162,159 163,719 164,539
165,1159 166,589 167,1309 168,119
169,259 170,50 171,229 172,10
173,30 174,20 175,149 176,119
177,289 178,199 179,489 180,699
181,649 182,1129 183,699 184,1359
185,269 186,309 187,70 188,229
189,40 190,20 191,10 192,20
193,40 194,60 195,99 196,99
197,139 198,80 199,99 200,20
201,40 202,10 203,20 204,10
205,10 206,30 207,80 208,169
209,189 210,269 211,229 212,279
213,70 214,80 215,40 216,50
217,10 218,10 219,189 220,10
221,169 222,90 223,2909 224,1689
225,5169 226,2069 227,6929 228,499
229,1539 230,80 231,1239 232,60
233,109 234,99 235,10 236,70
237,40 238,1399 239,839 240,2499
241,1049 242,3399 243,279 244,739
245,40 246,609 247,40 248,50
##END=
