##TITLE=Ethanone, 1-(1H-pyrrol-2-yl)-
##JCAMP-DX=4.24
##DATA TYPE=MASS SPECTRUM
##ORIGIN=GEORGE R. WALLER AND BOBBY R. JOHNSON, OKLAHOMA STATE UNIV, USA
##OWNER=NIST Mass Spectrometry Data Center
Collection (C) 2014 copyright by the U.S. Secretary of Commerce
on behalf of the United States of America. All rights reserved.
##CAS REGISTRY NO=1072-83-9
##$NIST MASS SPEC NO=51894
##MOLFORM=C6 H7 N O
##MW=109
##$NIST SOURCE=MSDC
##XUNITS=M/Z
##YUNITS=RELATIVE INTENSITY
##XFACTOR=1
##YFACTOR=1
##FIRSTX=27
##LASTX=110
##FIRSTY=300
##MAXX=110
##MINX=27
##MAXY=9999
##MINY=100
##NPOINTS=40
##PEAK TABLE=(XY..XY)
27,300 29,100 31,100 37,300
38,800 39,3100 40,800 41,400
42,100 43,1100 46,100 47,100
49,100 50,200 51,300 52,300
53,200 54,100 57,200 61,100
62,100 63,100 64,200 65,300
66,5300 67,600 68,100 76,100
80,300 91,100 92,100 93,300
94,9999 95,600 96,100 104,100
107,100 108,100 109,7500 110,600
##END=
