##TITLE=1H-Pyrazole, 1,3,5-trimethyl-
##JCAMP-DX=4.24
##DATA TYPE=MASS SPECTRUM
##ORIGIN=V.A. KOPTYUG, VOL.4, ATLAS OF MASS SPECTRA OF ORGANIC COMPOUNDS
##OWNER=NIST Mass Spectrometry Data Center
Collection (C) 2014 copyright by the U.S. Secretary of Commerce
on behalf of the United States of America. All rights reserved.
##CAS REGISTRY NO=1072-91-9
##$NIST MASS SPEC NO=73057
##MOLFORM=C6 H10 N2
##MW=110
##$NIST SOURCE=MSDC
##XUNITS=M/Z
##YUNITS=RELATIVE INTENSITY
##XFACTOR=1
##YFACTOR=1
##FIRSTX=26
##LASTX=112
##FIRSTY=190
##MAXX=112
##MINX=26
##MAXY=9999
##MINY=30
##NPOINTS=44
##PEAK TABLE=(XY..XY)
26,190 27,670 28,920 29,220
30,160 31,180 38,270 39,1940
40,610 41,1640 42,1740 43,760
50,100 51,240 52,320 53,340
54,690 55,540 56,1310 57,240
63,200 64,100 65,670 66,450
67,680 68,1300 69,400 70,140
71,110 79,180 80,290 81,240
82,1000 83,200 93,130 94,110
95,2830 96,250 97,100 108,170
109,7710 110,9999 111,750 112,30
##END=
