##TITLE=Dodecyl isothiocyanate
##JCAMP-DX=4.24
##DATA TYPE=MASS SPECTRUM
##ORIGIN=Japan AIST/NIMC Database- Spectrum MS-IW-1787
##OWNER=NIST Mass Spectrometry Data Center
Collection (C) 2014 copyright by the U.S. Secretary of Commerce
on behalf of the United States of America. All rights reserved.
##CAS REGISTRY NO=1072-32-8
##$NIST MASS SPEC NO=234184
##MOLFORM=C13 H25 N S
##MW=227
##$NIST SOURCE=MSDC
##XUNITS=M/Z
##YUNITS=RELATIVE INTENSITY
##XFACTOR=1
##YFACTOR=1
##FIRSTX=15
##LASTX=228
##FIRSTY=10
##MAXX=228
##MINX=15
##MAXY=9999
##MINY=10
##NPOINTS=134
##PEAK TABLE=(XY..XY)
15,10 26,30 27,799 28,339
29,1779 30,239 32,60 34,10
38,10 39,649 40,129 41,4439
42,939 43,4959 44,269 45,109
46,10 47,10 51,30 52,20
53,289 54,409 55,4629 56,1359
57,2909 58,159 59,109 60,209
61,20 62,60 65,40 66,30
67,469 68,359 69,2409 70,969
71,879 72,1529 73,129 74,299
75,259 76,90 77,40 78,10
79,90 80,30 81,289 82,649
83,969 84,339 85,319 86,209
87,90 88,80 89,50 90,10
91,20 93,80 94,40 95,209
96,1459 97,539 98,149 99,60
100,429 101,1199 102,129 103,70
104,10 107,50 108,50 109,109
110,599 111,179 112,129 113,50
114,949 115,9999 116,769 117,479
118,30 121,50 122,60 123,60
124,239 125,40 126,50 127,40
128,1349 129,1519 130,189 131,70
135,20 136,30 137,30 138,169
139,20 140,30 141,10 142,329
143,90 144,20 150,20 151,10
152,129 153,20 154,20 155,10
156,159 157,20 158,10 164,10
165,10 166,139 167,20 168,10
170,90 171,10 177,30 178,10
180,20 184,99 185,20 186,10
192,20 194,8539 195,1239 196,80
198,80 199,10 212,40 226,169
227,119 228,20
##END=
