##TITLE=Benzene, 1-bromo-2-fluoro-
##JCAMP-DX=4.24
##DATA TYPE=MASS SPECTRUM
##ORIGIN=Japan AIST/NIMC Database- Spectrum MS-NW-6108
##OWNER=NIST Mass Spectrometry Data Center
Collection (C) 2014 copyright by the U.S. Secretary of Commerce
on behalf of the United States of America. All rights reserved.
##CAS REGISTRY NO=1072-85-1
##$NIST MASS SPEC NO=230716
##MOLFORM=C6 H4 Br F
##MW=174
##$NIST SOURCE=MSDC
##XUNITS=M/Z
##YUNITS=RELATIVE INTENSITY
##XFACTOR=1
##YFACTOR=1
##FIRSTX=12
##LASTX=178
##FIRSTY=10
##MAXX=178
##MINX=12
##MAXY=9999
##MINY=10
##NPOINTS=103
##PEAK TABLE=(XY..XY)
12,10 20,20 24,10 25,30
26,60 27,70 28,80 31,259
32,10 33,20 36,60 37,359
38,309 39,239 40,10 44,30
45,70 46,10 47,209 48,30
49,259 50,1189 51,509 52,30
55,30 56,159 57,129 59,10
60,50 61,239 62,279 63,239
64,50 65,50 67,10 68,819
69,799 70,60 71,10 72,20
73,189 74,819 75,3609 76,319
77,60 78,50 79,129 80,70
81,119 82,60 83,10 85,10
86,20 87,489 88,479 91,20
92,189 93,299 94,969 95,9999
96,669 97,20 104,10 106,10
107,10 109,20 110,10 111,30
113,10 116,10 117,20 118,10
119,20 122,10 124,10 127,10
128,30 129,10 130,30 131,10
135,20 137,30 141,30 142,30
143,40 145,10 148,20 149,10
150,20 155,20 156,20 157,10
158,20 159,10 161,10 170,10
172,90 173,60 174,9669 175,719
176,9449 177,629 178,20
##END=
