##TITLE=1,3-Dioxolane, 4-methyl-
##JCAMP-DX=4.24
##DATA TYPE=MASS SPECTRUM
##ORIGIN=Japan AIST/NIMC Database- Spectrum MS-NW-9362
##OWNER=NIST Mass Spectrometry Data Center
Collection (C) 2014 copyright by the U.S. Secretary of Commerce
on behalf of the United States of America. All rights reserved.
##CAS REGISTRY NO=1072-47-5
##$NIST MASS SPEC NO=236841
##MOLFORM=C4 H8 O2
##MW=88
##$NIST SOURCE=MSDC
##XUNITS=M/Z
##YUNITS=RELATIVE INTENSITY
##XFACTOR=1
##YFACTOR=1
##FIRSTX=13
##LASTX=89
##FIRSTY=10
##MAXX=89
##MINX=13
##MAXY=9999
##MINY=10
##NPOINTS=44
##PEAK TABLE=(XY..XY)
13,10 14,119 15,729 16,109
17,20 18,70 25,20 26,299
27,1059 28,1659 29,2559 30,269
31,3649 32,90 33,20 37,30
38,60 39,409 40,90 41,1639
42,289 43,2159 44,9999 45,3079
46,90 47,70 53,10 55,70
56,20 57,899 58,5309 59,1769
60,179 61,99 71,30 72,10
73,1099 74,90 75,10 85,10
86,10 87,6849 88,419 89,60
##END=
