##TITLE=3-Acetyl-1H-pyrroline
##JCAMP-DX=4.24
##DATA TYPE=MASS SPECTRUM
##ORIGIN=Organic Synthesis Lab, MSU, Moscow.TRC 659
##OWNER=NIST Mass Spectrometry Data Center
Collection (C) 2014 copyright by the U.S. Secretary of Commerce
on behalf of the United States of America. All rights reserved.
##CAS REGISTRY NO=1072-82-8
##$NIST MASS SPEC NO=326255
##MOLFORM=C6 H7 N O
##MW=109
##$NIST SOURCE=MSDC
##XUNITS=M/Z
##YUNITS=RELATIVE INTENSITY
##XFACTOR=1
##YFACTOR=1
##FIRSTX=26
##LASTX=110
##FIRSTY=75
##MAXX=110
##MINX=26
##MAXY=9999
##MINY=19
##NPOINTS=33
##PEAK TABLE=(XY..XY)
26,75 27,265 29,78 33,48
37,301 38,837 39,2646 40,324
41,161 42,97 43,597 44,107
47,300 49,43 50,195 51,192
52,132 53,528 55,20 57,19
62,36 63,74 64,43 65,171
66,3348 67,319 78,27 80,123
93,223 94,9999 95,567 109,5078
110,369
##END=
