##TITLE=N-Vinylimidazole
##JCAMP-DX=4.24
##DATA TYPE=MASS SPECTRUM
##ORIGIN=NIST Mass Spectrometry Data Center, 1990.
##OWNER=NIST Mass Spectrometry Data Center
Collection (C) 2014 copyright by the U.S. Secretary of Commerce
on behalf of the United States of America. All rights reserved.
##CAS REGISTRY NO=1072-63-5
##$NIST MASS SPEC NO=118695
##MOLFORM=C5 H6 N2
##MW=94
##$NIST SOURCE=MSDC
##XUNITS=M/Z
##YUNITS=RELATIVE INTENSITY
##XFACTOR=1
##YFACTOR=1
##FIRSTX=12
##LASTX=96
##FIRSTY=59
##MAXX=96
##MINX=12
##MAXY=9999
##MINY=17
##NPOINTS=35
##PEAK TABLE=(XY..XY)
12,59 13,60 14,105 15,136
24,28 25,162 26,1192 27,2010
28,1702 29,30 36,36 37,307
38,742 39,2124 40,4113 41,5632
42,517 43,42 47,59 50,55
51,346 52,730 53,211 54,255
63,62 64,127 65,108 66,496
67,3131 68,587 69,30 79,189
94,9999 95,641 96,17
##END=
