##TITLE=2(3H)-Furanone, 5-ethenyldihydro-5-methyl-
##JCAMP-DX=4.24
##DATA TYPE=MASS SPECTRUM
##ORIGIN=D.FELIX VARIAN AG. RES. LAB., ZURICH, SWITZERLAND
##OWNER=NIST Mass Spectrometry Data Center
Collection (C) 2014 copyright by the U.S. Secretary of Commerce
on behalf of the United States of America. All rights reserved.
##CAS REGISTRY NO=1073-11-6
##$NIST MASS SPEC NO=38860
##MOLFORM=C7 H10 O2
##MW=126
##$NIST SOURCE=MSDC
##XUNITS=M/Z
##YUNITS=RELATIVE INTENSITY
##XFACTOR=1
##YFACTOR=1
##FIRSTX=26
##LASTX=127
##FIRSTY=400
##MAXX=127
##MINX=26
##MAXY=9999
##MINY=50
##NPOINTS=42
##PEAK TABLE=(XY..XY)
26,400 27,2550 28,2000 29,500
38,200 39,1400 40,250 41,1600
42,800 43,5100 44,300 45,50
50,250 51,350 52,150 53,700
54,400 55,6200 56,3100 57,200
65,450 66,100 67,3200 68,200
69,200 70,250 71,4100 72,150
77,50 79,200 81,400 82,200
83,2200 84,400 93,150 98,2100
99,2550 100,150 111,9999 112,650
126,950 127,200
##END=
