##TITLE=1,4-Cyclooctadiene
##JCAMP-DX=4.24
##DATA TYPE=MASS SPECTRUM
##ORIGIN=D.HENNEBERG, MAX-PLANCK INSTITUTE, MULHEIM, WEST GERMANY
##OWNER=NIST Mass Spectrometry Data Center
Collection (C) 2014 copyright by the U.S. Secretary of Commerce
on behalf of the United States of America. All rights reserved.
##CAS REGISTRY NO=1073-07-0
##$NIST MASS SPEC NO=60549
##MOLFORM=C8 H12
##MW=108
##$NIST SOURCE=MSDC
##XUNITS=M/Z
##YUNITS=RELATIVE INTENSITY
##XFACTOR=1
##YFACTOR=1
##FIRSTX=27
##LASTX=109
##FIRSTY=4282
##MAXX=109
##MINX=27
##MAXY=9999
##MINY=20
##NPOINTS=41
##PEAK TABLE=(XY..XY)
27,4282 28,1797 29,686 37,242
38,474 39,7303 40,818 41,5444
42,232 43,111 44,515 50,888
51,1757 52,1131 53,1484 54,2676
55,313 62,151 63,525 64,161
65,1818 66,2232 67,7848 75,383
76,141 77,3898 78,1585 79,9999
80,6060 81,494 90,121 91,1989
92,272 93,4020 94,232 103,80
105,101 106,20 107,282 108,2707
109,181
##END=
