##TITLE=1,2,4,5-Tetroxane, 3,3,6,6-tetramethyl-
##JCAMP-DX=4.24
##DATA TYPE=MASS SPECTRUM
##OWNER=NIST Mass Spectrometry Data Center
Collection (C) 2014 copyright by the U.S. Secretary of Commerce
on behalf of the United States of America. All rights reserved.
##CAS REGISTRY NO=1073-91-2
##$NIST MASS SPEC NO=4543
##MOLFORM=C6 H12 O4
##MW=148
##$NIST SOURCE=MSDC
##XUNITS=M/Z
##YUNITS=RELATIVE INTENSITY
##XFACTOR=1
##YFACTOR=1
##FIRSTX=27
##LASTX=101
##FIRSTY=413
##MAXX=101
##MINX=27
##MAXY=9999
##MINY=223
##NPOINTS=8
##PEAK TABLE=(XY..XY)
27,413 28,3856 29,303 42,303
43,9999 44,551 58,854 101,223
##END=
