##TITLE=2,6-Lutidine-N-oxide
##JCAMP-DX=4.24
##DATA TYPE=MASS SPECTRUM
##ORIGIN=NIST Mass Spectrometry Data Center
##OWNER=NIST Mass Spectrometry Data Center
Collection (C) 2014 copyright by the U.S. Secretary of Commerce
on behalf of the United States of America. All rights reserved.
##CAS REGISTRY NO=1073-23-0
##$NIST MASS SPEC NO=342636
##MOLFORM=C7 H9 N O
##MW=123
##$NIST SOURCE=MSDC
##XUNITS=M/Z
##YUNITS=RELATIVE INTENSITY
##XFACTOR=1
##YFACTOR=1
##FIRSTX=18
##LASTX=125
##FIRSTY=20
##MAXX=125
##MINX=18
##MAXY=9999
##MINY=20
##NPOINTS=46
##PEAK TABLE=(XY..XY)
18,20 28,120 30,510 37,470
38,1261 39,5325 40,971 41,130
42,581 49,130 50,1131 51,1782
52,951 53,1251 54,260 55,110
61,260 62,651 63,1571 64,801
65,2953 66,2302 67,440 68,80
75,20 77,4494 78,1211 79,9088
80,971 81,140 85,50 86,80
88,30 89,370 90,90 91,651
92,1431 93,200 94,170 104,310
106,9999 107,4914 108,450 123,9118
124,771 125,40
##END=
