##TITLE=Benzene, 1-bromo-3-fluoro-
##JCAMP-DX=4.24
##DATA TYPE=MASS SPECTRUM
##ORIGIN=Japan AIST/NIMC Database- Spectrum MS-NW-6461
##OWNER=NIST Mass Spectrometry Data Center
Collection (C) 2014 copyright by the U.S. Secretary of Commerce
on behalf of the United States of America. All rights reserved.
##CAS REGISTRY NO=1073-06-9
##$NIST MASS SPEC NO=230715
##MOLFORM=C6 H4 Br F
##MW=174
##$NIST SOURCE=MSDC
##XUNITS=M/Z
##YUNITS=RELATIVE INTENSITY
##XFACTOR=1
##YFACTOR=1
##FIRSTX=12
##LASTX=178
##FIRSTY=20
##MAXX=178
##MINX=12
##MAXY=9999
##MINY=10
##NPOINTS=98
##PEAK TABLE=(XY..XY)
12,20 20,10 24,10 25,20
26,60 27,60 28,20 31,239
33,10 36,80 37,349 38,319
39,149 40,10 41,10 43,10
44,30 45,80 47,139 48,30
49,249 50,1189 51,459 52,30
55,20 56,90 57,159 58,10
59,10 60,40 61,219 62,229
63,199 64,40 65,10 67,10
68,639 69,659 70,50 72,20
73,169 74,679 75,3109 76,269
77,40 78,30 79,90 80,40
81,80 82,40 83,40 84,70
85,10 86,10 87,289 88,249
91,20 92,149 93,249 94,789
95,9999 96,679 97,30 104,10
105,10 106,20 107,10 108,10
109,20 110,10 111,199 112,20
116,10 117,20 118,10 119,20
126,10 127,10 128,20 129,10
130,20 135,10 137,10 141,20
143,30 146,10 148,10 153,10
155,20 157,10 161,10 163,10
173,90 174,6989 175,589 176,6809
177,489 178,20
##END=
