##TITLE=1,3,2-Dioxathiane, 2,2-dioxide
##JCAMP-DX=4.24
##DATA TYPE=MASS SPECTRUM
##ORIGIN=E.Lloyd ET AL.Aust.J.Chem., 30,569(1977)
##OWNER=NIST Mass Spectrometry Data Center
Collection (C) 2014 copyright by the U.S. Secretary of Commerce
on behalf of the United States of America. All rights reserved.
##CAS REGISTRY NO=1073-05-8
##$NIST MASS SPEC NO=281095
##MOLFORM=C3 H6 O4 S
##MW=138
##$NIST SOURCE=MSDC
##XUNITS=M/Z
##YUNITS=RELATIVE INTENSITY
##XFACTOR=1
##YFACTOR=1
##FIRSTX=14
##LASTX=138
##FIRSTY=180
##MAXX=138
##MINX=14
##MAXY=9999
##MINY=50
##NPOINTS=30
##PEAK TABLE=(XY..XY)
14,180 15,561 16,50 17,180
18,611 24,110 25,180 26,831
27,1631 28,9999 29,2252 30,1071
31,591 39,280 40,160 41,180
42,340 43,320 48,340 55,170
56,230 57,300 58,6146 59,220
63,130 64,220 65,250 81,250
83,130 138,170
##END=
