##TITLE=4-Nitro-3-picoline-N-oxide
##JCAMP-DX=4.24
##DATA TYPE=MASS SPECTRUM
##ORIGIN=MUS49 A. Mujsce, AT&T Bell Labs., Murray Hill, N.J., USA
##OWNER=NIST Mass Spectrometry Data Center
Collection (C) 2014 copyright by the U.S. Secretary of Commerce
on behalf of the United States of America. All rights reserved.
##CAS REGISTRY NO=1074-98-2
##$NIST MASS SPEC NO=115445
##MOLFORM=C6 H6 N2 O3
##MW=154
##$NIST SOURCE=MSDC
##XUNITS=M/Z
##YUNITS=RELATIVE INTENSITY
##XFACTOR=1
##YFACTOR=1
##FIRSTX=24
##LASTX=156
##FIRSTY=25
##MAXX=156
##MINX=24
##MAXY=9999
##MINY=12
##NPOINTS=94
##PEAK TABLE=(XY..XY)
24,25 25,31 26,216 27,1012
28,747 29,377 30,2480 31,67
35,16 36,26 37,326 38,718
39,1960 40,360 41,409 42,203
43,791 44,92 45,26 46,439
48,31 49,126 50,1284 51,2544
52,2457 53,4203 54,952 55,1197
56,200 60,60 61,377 62,836
63,1887 64,593 65,844 66,652
67,179 68,2036 69,221 70,229
71,258 72,23 73,81 74,415
75,287 76,309 77,931 78,519
79,273 80,109 81,135 82,300
83,2954 84,264 85,48 86,29
87,33 90,41 91,80 92,249
93,193 94,310 95,68 96,22
98,30 101,15 102,27 104,26
107,52 108,153 109,114 110,33
111,18 112,22 113,20 119,19
120,133 121,129 122,71 124,1504
125,113 126,29 128,24 129,21
135,21 137,1512 138,253 139,26
150,26 151,18 153,12 154,9999
155,740 156,77
##END=
