##TITLE=Cyclooctanone, oxime
##JCAMP-DX=4.24
##DATA TYPE=MASS SPECTRUM
##ORIGIN=CAR 0005
##OWNER=NIST Mass Spectrometry Data Center
Collection (C) 2014 copyright by the U.S. Secretary of Commerce
on behalf of the United States of America. All rights reserved.
##CAS REGISTRY NO=1074-51-7
##$NIST MASS SPEC NO=3797
##MOLFORM=C8 H15 N O
##MW=141
##$NIST SOURCE=MSDC
##XUNITS=M/Z
##YUNITS=RELATIVE INTENSITY
##XFACTOR=1
##YFACTOR=1
##FIRSTX=12
##LASTX=142
##FIRSTY=50
##MAXX=142
##MINX=12
##MAXY=9999
##MINY=30
##NPOINTS=89
##PEAK TABLE=(XY..XY)
12,50 13,30 14,1111 15,500
16,550 19,90 20,70 26,701
27,4254 29,3273 30,901 31,490
33,110 36,110 37,250 38,410
39,4874 40,2002 41,9569 42,2772
43,1822 45,370 46,681 50,240
51,510 52,591 53,2162 54,3813
55,5845 56,1361 57,3813 58,460
59,1391 60,330 63,120 64,130
65,390 66,520 67,5315 68,1431
69,1061 70,1021 71,260 72,931
73,7357 74,350 77,370 78,160
79,981 80,1041 81,2402 82,1601
83,661 84,921 85,2732 86,3894
87,1341 88,100 91,250 92,110
93,370 94,611 95,591 96,1021
97,490 98,3233 99,2923 100,951
101,60 105,80 106,50 107,150
108,581 109,3323 110,400 111,130
112,4254 113,9999 114,761 115,70
122,250 123,90 124,1371 125,170
126,751 127,70 140,220 141,1191
142,120
##END=
