##TITLE=Benzene, 1-methyl-3-propyl-
##JCAMP-DX=4.24
##DATA TYPE=MASS SPECTRUM
##ORIGIN=Japan AIST/NIMC Database- Spectrum MS-NW-3635
##OWNER=NIST Mass Spectrometry Data Center
Collection (C) 2014 copyright by the U.S. Secretary of Commerce
on behalf of the United States of America. All rights reserved.
##CAS REGISTRY NO=1074-43-7
##$NIST MASS SPEC NO=229743
##MOLFORM=C10 H14
##MW=134
##$NIST SOURCE=MSDC
##XUNITS=M/Z
##YUNITS=RELATIVE INTENSITY
##XFACTOR=1
##YFACTOR=1
##FIRSTX=15
##LASTX=136
##FIRSTY=20
##MAXX=136
##MINX=15
##MAXY=9999
##MINY=10
##NPOINTS=59
##PEAK TABLE=(XY..XY)
15,20 18,10 26,20 27,349
28,20 29,80 37,10 38,50
39,459 40,50 41,239 42,10
43,10 50,99 51,319 52,99
53,139 54,10 55,20 57,30
58,20 61,20 62,60 63,209
64,70 65,329 66,40 74,40
75,40 76,40 77,809 78,259
79,659 80,40 86,10 87,10
89,99 90,30 91,869 92,569
93,70 101,10 102,60 103,419
104,209 105,9999 106,1349 107,90
115,189 116,60 117,179 118,50
119,379 120,40 132,10 133,40
134,2659 135,299 136,10
##END=
