##TITLE=Phenylglyoxal
##JCAMP-DX=4.24
##DATA TYPE=MASS SPECTRUM
##ORIGIN=Japan AIST/NIMC Database- Spectrum MS-NW-2412
##OWNER=NIST Mass Spectrometry Data Center
Collection (C) 2014 copyright by the U.S. Secretary of Commerce
on behalf of the United States of America. All rights reserved.
##CAS REGISTRY NO=1074-12-0
##$NIST MASS SPEC NO=234223
##MOLFORM=C8 H6 O2
##MW=134
##$NIST SOURCE=MSDC
##XUNITS=M/Z
##YUNITS=RELATIVE INTENSITY
##XFACTOR=1
##YFACTOR=1
##FIRSTX=14
##LASTX=107
##FIRSTY=10
##MAXX=107
##MINX=14
##MAXY=9999
##MINY=10
##NPOINTS=45
##PEAK TABLE=(XY..XY)
14,10 16,20 17,10 18,30
25,10 26,50 27,219 28,199
29,309 36,20 37,159 38,189
39,209 40,10 43,20 44,40
48,10 49,119 50,1119 51,2969
52,219 53,40 56,10 60,10
61,70 62,90 63,80 64,10
73,90 74,349 75,209 76,279
77,8659 78,649 79,20 85,10
86,20 87,10 89,30 90,10
102,20 104,30 105,9999 106,1209
107,80
##END=
