##TITLE=1H-Indole-4-carboxaldehyde
##JCAMP-DX=4.24
##DATA TYPE=MASS SPECTRUM
##ORIGIN=NIST Mass Spectrometry Data Center
##OWNER=NIST Mass Spectrometry Data Center
Collection (C) 2014 copyright by the U.S. Secretary of Commerce
on behalf of the United States of America. All rights reserved.
##CAS REGISTRY NO=1074-86-8
##$NIST MASS SPEC NO=352434
##MOLFORM=C9 H7 N O
##MW=145
##$NIST SOURCE=MSDC
##XUNITS=M/Z
##YUNITS=RELATIVE INTENSITY
##XFACTOR=1
##YFACTOR=1
##FIRSTX=26
##LASTX=147
##FIRSTY=20
##MAXX=147
##MINX=26
##MAXY=9999
##MINY=10
##NPOINTS=69
##PEAK TABLE=(XY..XY)
26,20 27,40 28,160 29,160
36,10 37,150 38,270 39,671
40,90 41,80 42,20 43,70
44,20 45,30 48,10 49,90
50,450 51,410 52,320 53,60
54,20 56,30 58,1391 60,40
61,470 62,1481 63,2572 64,581
65,270 66,60 67,10 72,110
73,60 74,260 75,220 76,140
77,60 78,60 79,10 84,40
85,180 86,370 87,500 88,581
89,4564 90,2022 91,170 92,10
97,10 98,40 99,20 100,20
101,20 102,20 103,10 110,10
111,20 112,10 114,320 115,641
116,8237 117,3003 118,240 119,10
128,10 144,6796 145,9999 146,1001
147,60
##END=
