##TITLE=Benzene, 1-methyl-4-propyl-
##JCAMP-DX=4.24
##DATA TYPE=MASS SPECTRUM
##ORIGIN=Japan AIST/NIMC Database- Spectrum MS-NW-3995
##OWNER=NIST Mass Spectrometry Data Center
Collection (C) 2014 copyright by the U.S. Secretary of Commerce
on behalf of the United States of America. All rights reserved.
##CAS REGISTRY NO=1074-55-1
##$NIST MASS SPEC NO=229736
##MOLFORM=C10 H14
##MW=134
##$NIST SOURCE=MSDC
##XUNITS=M/Z
##YUNITS=RELATIVE INTENSITY
##XFACTOR=1
##YFACTOR=1
##FIRSTX=15
##LASTX=136
##FIRSTY=10
##MAXX=136
##MINX=15
##MAXY=9999
##MINY=10
##NPOINTS=58
##PEAK TABLE=(XY..XY)
15,10 26,20 27,229 28,20
29,50 38,30 39,279 40,30
41,149 50,80 51,219 52,70
53,109 55,10 57,20 58,10
61,10 62,40 63,139 64,50
65,219 66,20 74,30 75,30
76,30 77,629 78,189 79,489
80,30 86,10 87,10 89,70
90,20 91,549 92,179 93,30
101,10 102,50 103,339 104,199
105,9999 106,909 107,40 115,129
116,40 117,129 118,30 119,129
120,10 127,10 128,20 129,10
131,10 132,10 133,20 134,2319
135,259 136,10
##END=
