##TITLE=Benzene, 1-(1,1-dimethylethyl)-3-methyl-
##JCAMP-DX=4.24
##DATA TYPE=MASS SPECTRUM
##ORIGIN=Japan AIST/NIMC Database- Spectrum MS-NW-5166
##OWNER=NIST Mass Spectrometry Data Center
Collection (C) 2014 copyright by the U.S. Secretary of Commerce
on behalf of the United States of America. All rights reserved.
##CAS REGISTRY NO=1075-38-3
##$NIST MASS SPEC NO=232482
##MOLFORM=C11 H16
##MW=148
##$NIST SOURCE=MSDC
##XUNITS=M/Z
##YUNITS=RELATIVE INTENSITY
##XFACTOR=1
##YFACTOR=1
##FIRSTX=15
##LASTX=150
##FIRSTY=70
##MAXX=150
##MINX=15
##MAXY=9999
##MINY=10
##NPOINTS=76
##PEAK TABLE=(XY..XY)
15,70 26,10 27,279 28,20
29,219 37,10 38,50 39,719
40,70 41,1539 42,50 50,109
51,369 52,99 53,159 54,10
55,149 56,20 57,109 58,70
59,20 61,20 62,70 63,269
64,189 65,579 66,109 67,30
71,30 72,30 73,30 74,40
75,60 76,50 77,569 78,159
79,179 80,10 83,10 86,20
87,20 88,10 89,149 90,40
91,1129 92,209 93,1469 94,119
101,20 102,70 103,169 104,70
105,3699 106,369 107,20 113,10
114,10 115,549 116,209 117,469
118,99 119,40 127,40 128,80
129,50 130,20 131,99 132,90
133,9999 134,1129 135,60 146,10
147,50 148,2889 149,359 150,20
##END=
