##TITLE=2H-1-Benzopyran-2-one, 4-hydroxy-
##JCAMP-DX=4.24
##DATA TYPE=MASS SPECTRUM
##ORIGIN=NIST Mass Spectrometry Data Center, 1994
##OWNER=NIST Mass Spectrometry Data Center
Collection (C) 2014 copyright by the U.S. Secretary of Commerce
on behalf of the United States of America. All rights reserved.
##CAS REGISTRY NO=1076-38-6
##$NIST MASS SPEC NO=133788
##MOLFORM=C9 H6 O3
##MW=162
##$NIST SOURCE=MSDC
##XUNITS=M/Z
##YUNITS=RELATIVE INTENSITY
##XFACTOR=1
##YFACTOR=1
##FIRSTX=14
##LASTX=164
##FIRSTY=219
##MAXX=164
##MINX=14
##MAXY=9999
##MINY=33
##NPOINTS=44
##PEAK TABLE=(XY..XY)
14,219 26,104 27,132 29,212
32,40 37,402 38,959 39,799
40,124 41,278 42,759 49,216
50,972 51,933 52,220 53,691
61,433 62,1026 63,2236 64,1994
65,940 66,203 67,186 68,186
69,605 73,116 74,413 75,236
76,455 77,688 78,137 79,122
89,155 92,6761 93,1280 105,339
120,9999 121,2930 122,248 133,151
134,236 162,7400 163,740 164,33
##END=
