##TITLE=1,4-Cyclohexanedicarboxylic acid
##JCAMP-DX=4.24
##DATA TYPE=MASS SPECTRUM
##ORIGIN=NIST Mass Spectrometry Data Center, 1994
##OWNER=NIST Mass Spectrometry Data Center
Collection (C) 2014 copyright by the U.S. Secretary of Commerce
on behalf of the United States of America. All rights reserved.
##CAS REGISTRY NO=1076-97-7
##$NIST MASS SPEC NO=135638
##MOLFORM=C8 H12 O4
##MW=172
##$NIST SOURCE=MSDC
##XUNITS=M/Z
##YUNITS=RELATIVE INTENSITY
##XFACTOR=1
##YFACTOR=1
##FIRSTX=12
##LASTX=155
##FIRSTY=54
##MAXX=155
##MINX=12
##MAXY=9999
##MINY=3
##NPOINTS=78
##PEAK TABLE=(XY..XY)
12,54 16,8 17,46 18,125
19,19 26,247 27,3215 28,811
29,908 30,3 37,84 38,416
39,5052 40,867 41,4851 42,683
43,2329 44,3 45,4196 46,220
47,246 50,484 51,1136 52,485
53,2252 54,3495 55,3620 56,398
57,629 58,149 60,197 63,198
65,570 66,1013 67,3466 68,1129
69,755 70,148 71,228 72,148
73,1576 75,115 77,1078 78,256
79,3457 80,5451 81,9999 82,1047
83,288 84,210 85,248 86,949
87,218 91,210 92,105 93,75
94,326 95,471 96,75 97,954
98,234 99,306 100,152 104,198
105,136 108,7942 109,1058 110,202
111,388 112,648 113,67 121,50
126,6769 127,670 128,181 136,553
154,808 155,127
##END=
