##TITLE=Benzene-D6
##JCAMP-DX=4.24
##DATA TYPE=MASS SPECTRUM
##ORIGIN=NIST Mass Spectrometry Data Center, 1990.
##OWNER=NIST Mass Spectrometry Data Center
Collection (C) 2014 copyright by the U.S. Secretary of Commerce
on behalf of the United States of America. All rights reserved.
##CAS REGISTRY NO=1076-43-3
##$NIST MASS SPEC NO=118598
##MOLFORM=C6 D6
##MW=84
##$NIST SOURCE=MSDC
##XUNITS=M/Z
##YUNITS=RELATIVE INTENSITY
##XFACTOR=1
##YFACTOR=1
##FIRSTX=12
##LASTX=86
##FIRSTY=41
##MAXX=86
##MINX=12
##MAXY=9999
##MINY=17
##NPOINTS=34
##PEAK TABLE=(XY..XY)
12,41 24,25 26,168 28,721
30,402 36,83 38,652 40,814
42,1970 43,64 48,55 50,463
52,2612 54,2395 56,2591 57,108
60,31 62,127 64,140 66,658
67,36 72,17 74,116 76,341
77,22 78,95 79,17 80,360
81,17 82,1674 83,17 84,9999
85,665 86,20
##END=
