##TITLE=Benzene, 2-methoxy-4-methyl-1-(1-methylethyl)-
##JCAMP-DX=4.24
##DATA TYPE=MASS SPECTRUM
##ORIGIN=P.A. Leclercq, Lab. Instrum. Anal., Eindhoven Univ. Technol., Netherlands
##OWNER=NIST Mass Spectrometry Data Center
Collection (C) 2014 copyright by the U.S. Secretary of Commerce
on behalf of the United States of America. All rights reserved.
##CAS REGISTRY NO=1076-56-8
##$NIST MASS SPEC NO=141568
##MOLFORM=C11 H16 O
##MW=164
##$NIST SOURCE=MSDC
##XUNITS=M/Z
##YUNITS=RELATIVE INTENSITY
##XFACTOR=1
##YFACTOR=1
##FIRSTX=15
##LASTX=165
##FIRSTY=1649
##MAXX=165
##MINX=15
##MAXY=9999
##MINY=109
##NPOINTS=39
##PEAK TABLE=(XY..XY)
15,1649 27,649 29,259 39,1029
41,649 50,229 51,589 52,209
53,309 62,119 63,379 65,629
66,109 77,1029 78,419 79,569
89,229 91,2389 92,239 93,259
102,179 103,509 105,859 106,139
107,119 115,1079 116,339 117,1109
119,1489 120,169 121,279 131,169
133,489 134,1009 135,299 149,9999
150,1069 164,2449 165,299
##END=
