##TITLE=Naphthalene, 1,2,3,4-tetrahydro-6,7-dimethyl-
##JCAMP-DX=4.24
##DATA TYPE=MASS SPECTRUM
##ORIGIN=CONTINENTAL OIL CO., PONCA CITY, OKLA, USA
##OWNER=NIST Mass Spectrometry Data Center
Collection (C) 2014 copyright by the U.S. Secretary of Commerce
on behalf of the United States of America. All rights reserved.
##CAS REGISTRY NO=1076-61-5
##$NIST MASS SPEC NO=27609
##MOLFORM=C12 H16
##MW=160
##$NIST SOURCE=MSDC
##XUNITS=M/Z
##YUNITS=RELATIVE INTENSITY
##XFACTOR=1
##YFACTOR=1
##FIRSTX=14
##LASTX=162
##FIRSTY=34
##MAXX=162
##MINX=14
##MAXY=9999
##MINY=5
##NPOINTS=103
##PEAK TABLE=(XY..XY)
14,34 15,564 16,18 26,89
27,804 28,365 29,220 30,5
37,22 38,96 39,1041 40,135
41,513 42,29 43,51 44,43
50,220 51,694 52,200 53,364
54,31 55,67 56,15 57,64
58,71 61,23 62,116 63,458
64,343 65,498 66,78 67,82
68,15 69,50 70,119 71,263
72,25 74,89 75,142 76,216
77,701 78,367 79,398 80,93
86,36 87,57 88,33 89,156
90,45 91,1301 92,150 93,48
98,41 99,29 100,17 101,73
102,251 103,357 104,215 105,609
106,94 107,25 111,21 113,64
114,85 115,1820 116,656 117,1575
118,304 119,1249 120,139 125,32
126,96 127,552 128,1771 129,1549
130,756 131,773 132,4523 133,576
134,78 139,142 140,80 141,799
142,472 143,1184 144,538 145,9999
146,1244 147,80 150,25 151,48
152,122 153,107 154,56 155,146
156,271 157,218 158,451 159,106
160,7343 161,945 162,58
##END=
