##TITLE=L-Valine, 2TBDMS derivative
##JCAMP-DX=4.24
##DATA TYPE=MASS SPECTRUM
##ORIGIN=J.M. Halket, Trace Anal. Unit (TAU), London, UK
##OWNER=NIST Mass Spectrometry Data Center
Collection (C) 2014 copyright by the U.S. Secretary of Commerce
on behalf of the United States of America. All rights reserved.
##CAS REGISTRY NO=107715-89-9
##$NIST MASS SPEC NO=221649
##MOLFORM=C17 H39 N O2 Si2
##MW=345
##$NIST SOURCE=MSDC
##XUNITS=M/Z
##YUNITS=RELATIVE INTENSITY
##XFACTOR=1
##YFACTOR=1
##FIRSTX=39
##LASTX=331
##FIRSTY=330
##MAXX=331
##MINX=39
##MAXY=9999
##MINY=10
##NPOINTS=116
##PEAK TABLE=(XY..XY)
39,330 41,1720 42,150 43,850
44,210 45,1030 46,100 47,260
52,10 53,50 55,410 56,390
57,1930 58,550 59,1960 60,280
61,170 66,40 67,30 68,70
69,130 70,100 71,80 73,9999
74,1060 75,1410 76,110 77,50
81,30 82,80 83,70 84,60
85,190 86,170 87,90 88,60
89,10 95,10 96,30 97,40
98,100 99,170 100,120 101,90
102,100 103,430 104,50 105,40
108,10 110,10 112,130 113,20
114,420 115,530 116,120 117,220
118,90 119,120 120,10 126,20
128,320 129,230 130,290 131,170
132,630 133,940 134,170 135,80
142,170 143,90 144,50 145,100
147,2660 148,470 149,320 150,40
156,290 157,70 158,60 159,30
160,370 161,60 162,40 170,70
171,30 172,40 173,30 174,70
175,30 176,10 183,10 186,6520
187,1090 188,320 189,160 190,30
198,10 202,30 216,140 217,30
218,50 245,40 258,20 260,2910
261,710 262,260 263,40 288,1610
289,410 290,160 291,30 302,820
303,210 304,90 330,120 331,30
##END=
