##TITLE=L-Methionine, 2TBDMS derivative
##JCAMP-DX=4.24
##DATA TYPE=MASS SPECTRUM
##ORIGIN=J.M. Halket, Trace Anal. Unit (TAU), London, UK
##OWNER=NIST Mass Spectrometry Data Center
Collection (C) 2014 copyright by the U.S. Secretary of Commerce
on behalf of the United States of America. All rights reserved.
##CAS REGISTRY NO=107715-92-4
##$NIST MASS SPEC NO=221650
##MOLFORM=C17 H39 N O2 S Si2
##MW=377
##$NIST SOURCE=MSDC
##XUNITS=M/Z
##YUNITS=RELATIVE INTENSITY
##XFACTOR=1
##YFACTOR=1
##FIRSTX=35
##LASTX=378
##FIRSTY=100
##MAXX=378
##MINX=35
##MAXY=9999
##MINY=10
##NPOINTS=157
##PEAK TABLE=(XY..XY)
35,100 39,260 41,1500 42,130
43,430 44,190 45,1080 46,130
47,420 48,40 49,50 53,40
54,70 55,220 56,660 57,1570
58,550 59,1930 60,340 61,2080
62,80 63,90 66,40 67,10
68,20 69,40 70,60 71,50
73,9999 74,1100 75,2010 76,150
77,130 80,10 82,40 83,50
84,70 85,190 86,170 87,110
88,80 89,40 90,20 91,100
92,10 93,20 96,30 97,40
98,210 99,190 100,410 101,80
102,110 103,390 104,60 105,560
106,70 107,70 110,20 112,130
113,110 114,400 115,380 116,110
117,180 118,100 119,100 120,10
126,20 128,100 129,120 130,250
131,260 132,500 133,850 134,190
135,80 140,30 141,40 142,110
143,60 144,120 145,100 147,3000
148,520 149,320 150,40 151,40
154,30 156,50 157,170 158,110
159,70 160,290 161,60 162,60
163,10 165,30 170,970 171,160
172,100 173,70 174,240 175,70
176,20 178,50 179,60 186,20
188,260 189,150 190,50 191,10
192,40 202,140 203,30 204,10
205,20 214,10 215,10 216,70
218,3250 219,560 220,270 221,40
230,60 231,10 244,680 245,200
246,90 247,30 248,10 258,10
272,50 273,30 292,3340 293,820
294,450 295,80 296,20 302,120
303,120 304,40 305,40 316,30
317,10 318,10 320,1880 321,490
322,270 323,60 334,100 335,30
362,100 363,30 364,10 377,50
378,10
##END=
