##TITLE=L-Serine, 3TBDMS derivative
##JCAMP-DX=4.24
##DATA TYPE=MASS SPECTRUM
##ORIGIN=NIST Mass Spectrometry Data Center
##OWNER=NIST Mass Spectrometry Data Center
Collection (C) 2014 copyright by the U.S. Secretary of Commerce
on behalf of the United States of America. All rights reserved.
##CAS REGISTRY NO=107715-93-5
##$NIST MASS SPEC NO=333285
##MOLFORM=C21 H49 N O3 Si3
##MW=447
##$NIST SOURCE=MSDC
##XUNITS=M/Z
##YUNITS=RELATIVE INTENSITY
##XFACTOR=1
##YFACTOR=1
##FIRSTX=27
##LASTX=448
##FIRSTY=30
##MAXX=448
##MINX=27
##MAXY=9999
##MINY=10
##NPOINTS=223
##PEAK TABLE=(XY..XY)
27,30 28,20 29,220 30,10
31,20 38,10 39,80 41,550
42,50 43,130 44,50 45,400
46,30 47,90 53,20 54,30
55,240 56,270 57,1191 58,340
59,1031 60,120 61,80 66,10
67,10 68,10 69,20 70,60
71,30 73,9789 74,1071 75,1191
76,80 77,30 81,10 82,10
83,30 84,30 85,150 86,90
87,80 88,110 89,240 90,20
91,10 95,10 96,10 97,30
98,50 99,220 100,831 101,210
102,170 103,490 104,50 105,50
110,10 111,10 112,20 113,40
114,50 115,1091 116,571 117,550
118,140 119,160 120,30 121,20
126,30 127,10 128,180 129,160
130,120 131,280 132,791 133,1852
134,340 135,210 136,20 137,10
140,10 142,601 143,110 144,150
145,100 146,160 147,3323 148,621
149,530 150,70 151,30 155,10
156,50 157,40 158,210 159,170
160,440 161,100 162,50 163,20
168,10 170,10 171,20 172,230
173,170 174,691 175,200 176,100
177,60 178,10 179,10 184,30
185,10 186,30 187,20 188,50
189,270 190,210 191,100 192,50
193,20 194,10 198,10 200,30
201,20 202,140 203,40 204,30
205,50 206,120 207,180 208,50
209,20 214,30 215,10 216,130
218,671 219,130 220,70 221,290
222,70 223,40 224,10 228,10
230,1371 231,470 232,230 233,50
234,20 242,10 244,40 245,130
246,50 247,30 248,20 249,10
256,10 258,510 259,140 260,170
261,40 262,20 263,10 272,140
273,50 274,30 275,70 276,40
277,20 286,30 288,9008 289,2612
290,1001 291,170 292,30 300,150
302,5535 303,1461 304,581 305,100
306,20 314,10 316,70 317,20
318,10 332,30 333,10 334,20
344,10 346,50 347,20 348,10
349,30 350,10 362,8438 363,3053
364,1441 365,340 366,80 367,10
374,30 375,10 376,10 390,9999
391,3994 392,1872 393,440 394,110
395,20 404,280 405,110 406,50
407,10 417,10 418,10 432,971
433,370 434,170 435,50 436,10
446,10 447,10 448,10
##END=
