##TITLE=L-Histidine, N,1-bis(tert-butyldimethylsilyl)-, tert-butyldimethylsilyl ester
##JCAMP-DX=4.24
##DATA TYPE=MASS SPECTRUM
##ORIGIN=J.M. Halket, Trace Anal. Unit (TAU), London, UK
##OWNER=NIST Mass Spectrometry Data Center
Collection (C) 2014 copyright by the U.S. Secretary of Commerce
on behalf of the United States of America. All rights reserved.
##CAS REGISTRY NO=107716-00-7
##$NIST MASS SPEC NO=143211
##MOLFORM=C24 H51 N3 O2 Si3
##MW=497
##$NIST SOURCE=MSDC
##XUNITS=M/Z
##YUNITS=RELATIVE INTENSITY
##XFACTOR=1
##YFACTOR=1
##FIRSTX=39
##LASTX=499
##FIRSTY=90
##MAXX=499
##MINX=39
##MAXY=9999
##MINY=20
##NPOINTS=163
##PEAK TABLE=(XY..XY)
39,90 41,490 42,40 43,180
44,70 45,450 46,40 47,80
54,30 55,70 56,120 57,610
58,260 59,770 60,70 61,50
69,40 70,40 71,40 73,9999
74,910 75,840 76,50 77,30
81,80 82,100 83,130 84,150
85,130 86,60 87,50 96,30
97,50 98,80 99,110 100,80
101,20 102,20 103,60 110,50
111,60 112,130 113,120 114,40
115,200 116,50 117,60 118,30
119,40 120,90 121,20 125,40
128,30 130,70 131,80 132,290
133,270 134,60 135,40 138,30
139,100 140,250 141,40 142,50
145,20 146,90 147,450 148,90
149,60 150,40 151,40 152,40
154,20 155,20 156,30 158,20
159,30 160,170 161,40 162,40
165,30 166,220 167,80 168,60
169,30 170,20 174,20 181,50
182,30 183,30 188,20 189,30
192,20 193,20 194,70 196,5360
197,1220 198,300 199,50 208,40
209,40 213,30 216,40 218,20
223,40 224,130 225,80 226,30
240,40 241,30 245,100 246,20
254,20 266,30 268,110 269,30
270,20 280,380 281,130 282,90
283,40 298,20 299,330 300,90
301,40 302,480 303,130 304,50
308,260 309,80 310,50 311,20
322,40 323,20 326,20 336,40
338,1770 339,540 340,210 341,60
350,40 383,20 412,290 413,110
414,50 422,130 423,60 424,30
425,20 440,7770 441,2950 442,1350
443,320 444,60 454,30 482,600
483,230 484,110 485,30 496,30
497,130 498,60 499,30
##END=
