##TITLE=3,5-Dimethyldodecane
##JCAMP-DX=4.24
##DATA TYPE=MASS SPECTRUM
##ORIGIN=N.Chernjak
##OWNER=NIST Mass Spectrometry Data Center
Collection (C) 2014 copyright by the U.S. Secretary of Commerce
on behalf of the United States of America. All rights reserved.
##CAS REGISTRY NO=107770-99-0
##$NIST MASS SPEC NO=280204
##MOLFORM=C14 H30
##MW=198
##$NIST SOURCE=MSDC
##XUNITS=M/Z
##YUNITS=RELATIVE INTENSITY
##XFACTOR=1
##YFACTOR=1
##FIRSTX=15
##LASTX=198
##FIRSTY=40
##MAXX=198
##MINX=15
##MAXY=9999
##MINY=10
##NPOINTS=55
##PEAK TABLE=(XY..XY)
15,40 27,721 29,2092 39,500
40,260 41,3103 42,651 43,5005
53,180 54,80 55,1401 56,1321
57,9999 58,430 65,20 66,10
67,110 68,70 69,601 70,300
71,3904 72,190 81,30 82,70
83,230 84,190 85,3253 86,150
95,10 96,30 97,210 98,661
99,1131 100,100 111,40 112,40
113,250 114,20 125,50 126,430
127,350 128,30 139,10 140,170
141,190 142,10 155,10 156,20
168,40 169,490 170,60 182,10
183,80 184,10 198,20
##END=
