##TITLE=Glycine, 2TBDMS derivative
##JCAMP-DX=4.24
##DATA TYPE=MASS SPECTRUM
##ORIGIN=J.M. Halket, Trace Anal. Unit (TAU), London, UK
##OWNER=NIST Mass Spectrometry Data Center
Collection (C) 2014 copyright by the U.S. Secretary of Commerce
on behalf of the United States of America. All rights reserved.
##CAS REGISTRY NO=107715-88-8
##$NIST MASS SPEC NO=221645
##MOLFORM=C14 H33 N O2 Si2
##MW=303
##$NIST SOURCE=MSDC
##XUNITS=M/Z
##YUNITS=RELATIVE INTENSITY
##XFACTOR=1
##YFACTOR=1
##FIRSTX=39
##LASTX=289
##FIRSTY=410
##MAXX=289
##MINX=39
##MAXY=9999
##MINY=10
##NPOINTS=106
##PEAK TABLE=(XY..XY)
39,410 40,20 41,1770 42,180
43,770 44,260 45,1370 46,110
47,380 48,20 49,10 51,20
52,40 53,60 54,20 55,190
56,390 57,1890 58,940 59,2020
60,240 61,210 62,10 66,250
69,40 70,60 71,50 73,9999
74,980 75,1600 76,110 77,40
79,10 80,200 83,40 84,20
85,170 86,360 87,440 88,780
89,100 90,20 94,70 97,20
98,10 99,110 100,130 101,90
102,110 103,720 104,290 105,100
106,10 112,10 113,20 114,40
115,500 116,160 117,470 118,250
119,330 120,50 121,20 128,80
129,10 130,80 131,200 132,390
133,940 134,170 135,90 142,10
144,1080 145,220 146,280 147,7640
148,1310 149,600 150,60 158,30
159,50 160,130 161,30 162,50
173,10 174,170 175,70 176,10
189,770 190,180 191,70 216,60
218,4800 219,960 220,390 221,50
231,40 244,10 246,2730 247,620
248,240 249,40 260,90 261,20
288,130 289,30
##END=
