##TITLE=L-Tyrosine, 3TBDMS derivative
##JCAMP-DX=4.24
##DATA TYPE=MASS SPECTRUM
##ORIGIN=J.M. Halket, Trace Anal. Unit (TAU), London, UK
##OWNER=NIST Mass Spectrometry Data Center
Collection (C) 2014 copyright by the U.S. Secretary of Commerce
on behalf of the United States of America. All rights reserved.
##CAS REGISTRY NO=107716-01-8
##$NIST MASS SPEC NO=221654
##MOLFORM=C27 H53 N O3 Si3
##MW=523
##$NIST SOURCE=MSDC
##XUNITS=M/Z
##YUNITS=RELATIVE INTENSITY
##XFACTOR=1
##YFACTOR=1
##FIRSTX=39
##LASTX=511
##FIRSTY=100
##MAXX=511
##MINX=39
##MAXY=9999
##MINY=10
##NPOINTS=167
##PEAK TABLE=(XY..XY)
39,100 41,530 42,30 43,130
44,50 45,400 46,30 47,70
55,80 56,180 57,670 58,200
59,710 60,70 61,50 69,10
70,10 71,10 73,9999 74,930
75,880 76,50 77,40 83,10
84,10 85,80 86,50 87,50
88,20 89,30 90,40 91,170
92,10 97,10 98,10 99,110
100,80 101,20 102,30 103,210
104,40 105,70 107,140 115,430
116,80 117,110 118,90 119,80
121,20 128,40 129,30 130,70
131,100 132,410 133,480 134,100
135,110 136,10 137,10 142,150
143,30 144,20 145,70 146,110
147,1230 148,250 149,320 150,50
151,50 158,20 159,20 160,400
161,110 162,70 163,160 164,110
165,120 166,20 172,10 173,30
174,60 175,50 176,120 177,110
178,30 179,80 180,10 188,30
189,90 190,50 191,50 192,140
193,60 194,10 202,60 203,20
205,10 206,10 207,60 208,10
209,30 216,20 218,140 219,50
220,30 221,450 222,100 223,60
233,30 234,40 235,20 237,20
239,40 244,20 245,180 246,50
247,30 248,40 249,20 250,60
251,20 260,30 265,30 266,60
267,20 287,20 290,10 292,40
293,20 294,40 295,10 299,20
300,20 302,7720 303,1980 304,740
305,130 306,60 307,90 308,70
309,20 322,30 334,40 335,20
336,10 348,30 364,790 365,250
366,100 367,20 382,10 411,10
438,920 439,380 440,170 441,40
466,1700 467,680 468,320 469,80
470,10 480,70 481,30 508,260
509,120 510,60 511,10
##END=
