##TITLE=L-Glutamic acid, 3TBDMS derivative
##JCAMP-DX=4.24
##DATA TYPE=MASS SPECTRUM
##ORIGIN=NIST Mass Spectrometry Data Center
##OWNER=NIST Mass Spectrometry Data Center
Collection (C) 2014 copyright by the U.S. Secretary of Commerce
on behalf of the United States of America. All rights reserved.
##CAS REGISTRY NO=107715-97-9
##$NIST MASS SPEC NO=333274
##MOLFORM=C23 H51 N O4 Si3
##MW=489
##$NIST SOURCE=MSDC
##XUNITS=M/Z
##YUNITS=RELATIVE INTENSITY
##XFACTOR=1
##YFACTOR=1
##FIRSTX=27
##LASTX=492
##FIRSTY=20
##MAXX=492
##MINX=27
##MAXY=9999
##MINY=10
##NPOINTS=253
##PEAK TABLE=(XY..XY)
27,20 29,110 31,10 39,50
40,10 41,370 42,20 43,70
44,20 45,230 46,20 47,80
53,10 54,20 55,180 56,310
57,621 58,240 59,831 60,120
61,90 62,10 66,10 67,10
68,60 69,30 70,20 71,20
73,9999 74,1001 75,1842 76,130
77,60 81,10 82,20 83,40
84,921 85,230 86,100 87,70
88,40 89,20 94,10 95,50
96,20 97,40 98,100 99,270
100,781 101,230 102,90 103,230
104,30 105,20 108,10 110,20
111,10 112,90 113,60 114,300
115,520 116,180 117,200 118,60
119,100 120,20 121,10 124,10
125,10 126,40 127,10 128,90
129,611 130,180 131,250 132,420
133,1211 134,220 135,140 136,20
137,10 139,10 140,100 141,40
142,220 143,80 144,80 145,60
146,150 147,3343 148,671 149,1461
150,210 151,110 152,20 153,10
154,30 155,40 156,80 157,60
158,250 159,120 160,200 161,60
162,40 163,10 168,30 169,30
170,751 171,160 172,110 173,160
174,330 175,100 176,50 177,70
178,10 179,10 182,10 183,10
184,20 185,20 186,50 187,30
188,50 189,210 190,90 191,80
192,20 193,10 196,10 198,190
199,40 200,50 201,20 202,80
203,60 204,20 205,40 206,40
207,100 208,30 209,10 213,10
214,80 215,20 216,100 217,20
218,30 219,10 220,10 221,80
222,20 223,10 226,10 228,20
230,30 231,20 232,40 233,10
234,10 242,10 243,20 244,200
245,160 246,210 247,50 248,20
249,10 256,50 257,10 258,70
259,20 260,120 261,20 262,10
263,10 270,10 272,2502 273,621
274,280 275,50 276,10 284,10
286,10 287,10 288,20 289,10
290,10 291,10 300,460 301,130
302,210 303,60 304,20 305,10
312,10 314,70 315,20 316,20
317,10 318,30 319,10 328,30
330,5475 331,1571 332,601 333,110
334,20 340,10 342,200 343,60
344,20 345,10 356,20 358,821
359,250 360,100 361,20 374,20
375,10 376,10 388,10 404,881
405,320 406,150 407,30 408,10
414,20 415,10 416,70 417,40
418,10 419,10 430,10 432,7727
433,2953 434,1351 435,350 436,80
437,10 446,40 447,10 448,10
458,10 474,330 475,130 476,60
477,10 489,90 490,30 491,20
492,10
##END=
