##TITLE=L-Pyroglutamic acid, 2TBDMS derivative
##JCAMP-DX=4.24
##DATA TYPE=MASS SPECTRUM
##ORIGIN=NIST Mass Spectrometry Data Center
##OWNER=NIST Mass Spectrometry Data Center
Collection (C) 2014 copyright by the U.S. Secretary of Commerce
on behalf of the United States of America. All rights reserved.
##CAS REGISTRY NO=107716-03-0
##$NIST MASS SPEC NO=333165
##MOLFORM=C17 H35 N O3 Si2
##MW=357
##$NIST SOURCE=MSDC
##XUNITS=M/Z
##YUNITS=RELATIVE INTENSITY
##XFACTOR=1
##YFACTOR=1
##FIRSTX=27
##LASTX=358
##FIRSTY=40
##MAXX=358
##MINX=27
##MAXY=9999
##MINY=10
##NPOINTS=189
##PEAK TABLE=(XY..XY)
27,40 28,30 29,220 30,10
31,30 38,10 39,110 40,30
41,601 42,50 43,240 44,60
45,530 46,40 47,140 48,10
49,10 51,10 52,10 53,30
54,30 55,310 56,200 57,871
58,581 59,1171 60,140 61,130
62,10 66,100 67,180 68,90
69,60 70,70 71,50 72,260
73,9999 74,941 75,1531 76,100
77,50 78,10 80,20 81,20
82,30 83,60 84,480 85,300
86,290 87,70 88,20 89,10
93,60 95,20 96,20 97,60
98,90 99,270 100,230 101,70
102,40 103,100 104,20 105,40
107,60 109,10 110,40 111,20
112,190 113,100 114,100 115,921
116,140 117,250 118,50 119,120
120,20 121,981 124,20 125,10
126,70 127,40 128,40 129,180
130,40 131,270 132,130 133,1211
134,190 135,110 136,10 138,10
139,30 140,410 141,270 142,611
143,120 144,70 145,30 147,6256
148,1021 149,651 150,70 151,20
152,10 154,20 155,10 156,40
157,50 158,250 159,80 160,40
161,10 166,10 168,60 169,30
170,70 171,20 172,20 173,50
174,250 175,60 176,20 177,10
180,10 182,40 183,20 184,30
185,10 186,280 187,60 188,20
189,420 190,90 191,40 192,10
196,20 198,2122 199,370 200,200
201,50 202,30 203,40 204,10
212,10 213,30 214,591 215,130
216,130 217,30 218,10 226,10
228,100 229,30 230,20 231,20
232,10 240,10 242,30 243,10
244,30 245,20 246,10 256,60
257,20 258,20 270,10 272,6476
273,1601 274,661 275,110 276,20
284,10 298,20 300,7757 301,1952
302,761 303,130 304,20 314,120
315,30 316,10 342,661 343,190
344,70 345,10 356,10 357,10
358,10
##END=
