##TITLE=L-Cystine, 4TBDMS derivative
##JCAMP-DX=4.24
##DATA TYPE=MASS SPECTRUM
##ORIGIN=J.M. Halket, Trace Anal. Unit (TAU), London, UK
##OWNER=NIST Mass Spectrometry Data Center
Collection (C) 2014 copyright by the U.S. Secretary of Commerce
on behalf of the United States of America. All rights reserved.
##CAS REGISTRY NO=107716-02-9
##$NIST MASS SPEC NO=143218
##MOLFORM=C30 H68 N2 O4 S2 Si4
##MW=696
##$NIST SOURCE=MSDC
##XUNITS=M/Z
##YUNITS=RELATIVE INTENSITY
##XFACTOR=1
##YFACTOR=1
##FIRSTX=38
##LASTX=683
##FIRSTY=10
##MAXX=683
##MINX=38
##MAXY=9999
##MINY=10
##NPOINTS=236
##PEAK TABLE=(XY..XY)
38,10 39,120 40,40 41,360
42,70 43,150 44,120 45,350
46,40 47,90 53,10 54,40
55,140 56,100 57,460 58,170
59,820 60,110 61,70 69,30
70,50 71,20 73,9999 74,1010
75,1100 76,80 77,60 82,10
83,30 84,40 85,90 86,100
87,70 88,50 89,20 90,20
91,90 92,10 96,10 97,30
98,50 99,160 100,1380 101,380
102,150 103,340 104,50 105,70
106,150 107,20 112,10 113,30
114,20 115,670 116,430 117,140
118,100 119,40 120,10 121,10
126,20 128,100 129,150 130,140
131,190 132,1280 133,700 134,180
135,80 136,10 142,180 143,30
144,100 145,40 146,190 147,1760
148,320 149,310 150,50 151,30
156,60 157,70 158,90 159,70
160,430 161,130 162,90 163,20
164,20 165,20 170,10 171,30
172,90 173,80 174,230 175,60
176,50 177,20 184,20 185,20
186,50 188,3230 189,730 190,510
191,100 192,50 200,10 201,10
202,120 203,30 204,30 205,10
206,40 207,80 208,20 214,60
215,10 216,70 217,10 218,80
219,10 220,130 221,70 222,40
230,300 231,90 232,60 233,10
234,100 235,30 236,10 242,80
243,10 244,80 245,510 246,190
247,70 248,40 256,10 258,4440
259,1080 260,450 262,3160 263,730
264,520 265,90 266,40 272,10
274,40 275,20 276,60 277,50
278,30 281,10 286,10 287,40
288,20 289,10 290,680 291,190
292,270 293,60 294,80 295,20
296,40 297,10 298,10 299,10
300,170 302,5060 303,1340 304,540
305,100 306,40 308,10 314,10
316,990 317,280 318,110 319,30
320,10 322,10 324,70 325,10
326,10 330,110 331,40 332,190
333,120 334,60 335,20 336,10
340,10 344,60 345,20 346,60
348,8100 349,2340 350,2260 351,530
352,210 353,40 364,10 365,20
378,20 380,100 381,180 382,80
383,30 404,20 406,20 407,10
417,30 418,10 422,10 439,30
467,10 507,80 508,30 509,20
537,480 538,220 539,140 540,50
611,70 612,30 613,20 639,1400
640,750 641,460 642,170 643,70
644,10 681,100 682,50 683,30
##END=
