##TITLE=Benzene, hexyl-
##JCAMP-DX=4.24
##DATA TYPE=MASS SPECTRUM
##ORIGIN=CONTINENTAL OIL CO., PONCA CITY, OKLA, USA
##OWNER=NIST Mass Spectrometry Data Center
Collection (C) 2014 copyright by the U.S. Secretary of Commerce
on behalf of the United States of America. All rights reserved.
##CAS REGISTRY NO=1077-16-3
##$NIST MASS SPEC NO=27550
##MOLFORM=C12 H18
##MW=162
##$NIST SOURCE=MSDC
##XUNITS=M/Z
##YUNITS=RELATIVE INTENSITY
##XFACTOR=1
##YFACTOR=1
##FIRSTX=25
##LASTX=164
##FIRSTY=2
##MAXX=164
##MINX=25
##MAXY=9999
##MINY=1
##NPOINTS=98
##PEAK TABLE=(XY..XY)
25,2 26,58 27,748 28,101
29,623 30,14 36,1 37,10
38,46 39,617 40,65 41,637
42,99 43,1005 44,36 49,3
50,106 51,349 52,102 53,89
54,13 55,201 56,61 57,33
58,5 61,6 62,39 63,181
64,58 65,770 66,56 67,22
68,8 69,29 70,36 71,134
72,10 73,6 74,64 75,72
76,71 77,679 78,698 79,362
80,43 81,8 82,3 83,6
84,14 85,11 86,14 87,21
88,15 89,218 90,166 91,9999
92,7686 93,598 94,37 95,9
96,11 97,4 99,3 101,15
102,76 103,295 104,375 105,1011
106,154 107,15 108,16 109,4
113,6 114,8 115,172 116,54
117,146 118,38 119,210 120,47
121,8 126,3 127,15 128,31
129,17 130,4 131,9 132,8
133,362 134,58 135,4 141,2
147,20 148,2 160,2 162,2445
163,319 164,19
##END=
