##TITLE=1(2H)-Naphthalenone, 3,4-dihydro-6-methoxy-
##JCAMP-DX=4.24
##DATA TYPE=MASS SPECTRUM
##ORIGIN=Chuck Anderson, Aldrich Chemical Co.
##OWNER=NIST Mass Spectrometry Data Center
Collection (C) 2014 copyright by the U.S. Secretary of Commerce
on behalf of the United States of America. All rights reserved.
##CAS REGISTRY NO=1078-19-9
##$NIST MASS SPEC NO=117758
##MOLFORM=C11 H12 O2
##MW=176
##$NIST SOURCE=MSDC
##XUNITS=M/Z
##YUNITS=RELATIVE INTENSITY
##XFACTOR=1
##YFACTOR=1
##FIRSTX=15
##LASTX=178
##FIRSTY=103
##MAXX=178
##MINX=15
##MAXY=9999
##MINY=2
##NPOINTS=79
##PEAK TABLE=(XY..XY)
15,103 18,2 26,57 27,323
28,110 29,78 31,36 32,18
37,22 38,117 39,442 40,47
41,95 42,21 43,22 50,283
51,906 52,169 53,143 55,178
57,27 61,56 62,290 63,827
64,187 65,336 66,103 67,6
73,54 74,358 75,187 76,253
77,1549 78,415 79,224 86,59
87,92 88,57 89,704 90,457
91,1337 92,149 93,6 101,19
102,187 103,446 104,167 105,554
106,79 107,21 115,475 116,118
117,193 118,90 119,127 120,2675
121,257 127,22 128,13 131,180
132,79 133,162 134,63 144,116
145,363 146,72 147,137 148,9999
149,889 150,79 158,33 159,506
160,86 161,809 162,77 175,402
176,4647 177,536 178,47
##END=
