##TITLE=Diphenylzinc
##JCAMP-DX=4.24
##DATA TYPE=MASS SPECTRUM
##ORIGIN=D.HENNEBERG, MAX-PLANCK INSTITUTE, MULHEIM, WEST GERMANY
##OWNER=NIST Mass Spectrometry Data Center
Collection (C) 2014 copyright by the U.S. Secretary of Commerce
on behalf of the United States of America. All rights reserved.
##CAS REGISTRY NO=1078-58-6
##$NIST MASS SPEC NO=63505
##MOLFORM=C12 H10 Zn
##MW=218
##$NIST SOURCE=MSDC
##XUNITS=M/Z
##YUNITS=RELATIVE INTENSITY
##XFACTOR=1
##YFACTOR=1
##FIRSTX=26
##LASTX=225
##FIRSTY=11
##MAXX=225
##MINX=26
##MAXY=9999
##MINY=2
##NPOINTS=60
##PEAK TABLE=(XY..XY)
26,11 28,7 34,7 42,14
50,33 51,1574 52,182 66,113
67,10 68,70 73,2 77,9999
78,2024 79,108 80,5 81,4
93,5 107,7 108,25 109,56
110,26 112,68 117,7 119,4
140,409 141,2252 142,451 143,1301
144,454 145,835 146,65 147,10
156,6 163,3 164,8 165,24
166,8 167,29 168,4 170,3
176,17 178,16 179,5 180,12
181,5 182,11 185,5 186,10
214,4 215,5 216,6 217,49
218,5171 219,748 220,3011 221,851
222,2044 223,263 224,85 225,11
##END=
