##TITLE=Salicylaldehyde, TMS derivative
##JCAMP-DX=4.24
##DATA TYPE=MASS SPECTRUM
##ORIGIN=NIST Mass Spectrometry Data Center
##OWNER=NIST Mass Spectrometry Data Center
Collection (C) 2014 copyright by the U.S. Secretary of Commerce
on behalf of the United States of America. All rights reserved.
##CAS REGISTRY NO=1078-31-5
##$NIST MASS SPEC NO=342824
##MOLFORM=C10 H14 O2 Si
##MW=194
##$NIST SOURCE=MSDC
##XUNITS=M/Z
##YUNITS=RELATIVE INTENSITY
##XFACTOR=1
##YFACTOR=1
##FIRSTX=12
##LASTX=195
##FIRSTY=10
##MAXX=195
##MINX=12
##MAXY=9999
##MINY=10
##NPOINTS=120
##PEAK TABLE=(XY..XY)
12,10 15,1431 16,40 17,30
18,140 26,30 27,180 28,140
29,561 30,100 33,20 37,70
38,290 39,1181 40,70 42,240
43,1551 44,460 45,2512 46,200
47,410 48,30 50,601 51,1191
52,120 53,440 54,80 55,280
56,40 57,190 58,180 59,390
60,150 61,270 62,180 63,641
64,300 65,1031 66,180 67,150
68,40 69,100 70,50 71,80
72,320 73,1631 74,40 75,731
76,380 77,1591 78,170 79,140
80,20 82,951 84,10 85,160
86,20 87,20 89,310 91,1211
92,310 93,230 94,20 95,160
96,30 97,40 98,10 99,10
101,30 102,40 103,80 104,90
105,430 106,50 107,90 108,10
109,40 115,60 117,40 118,20
119,80 120,120 121,340 122,50
123,100 124,10 125,30 131,30
133,200 135,1311 136,160 137,230
138,30 139,10 145,50 146,10
147,100 149,1391 150,220 151,240
153,500 154,50 155,20 159,50
161,5025 162,761 163,380 164,50
165,40 166,10 175,30 176,10
177,60 179,9999 180,1431 181,490
182,40 193,20 194,70 195,50
##END=
