##TITLE=Benzene, 1,2,4,5-tetrachloro-3,6-bis(chloromethyl)-
##JCAMP-DX=4.24
##DATA TYPE=MASS SPECTRUM
##ORIGIN=Japan AIST/NIMC Database- Spectrum MS-NW-4735
##OWNER=NIST Mass Spectrometry Data Center
Collection (C) 2014 copyright by the U.S. Secretary of Commerce
on behalf of the United States of America. All rights reserved.
##CAS REGISTRY NO=1079-17-0
##$NIST MASS SPEC NO=230030
##MOLFORM=C8 H4 Cl6
##MW=310
##$NIST SOURCE=MSDC
##XUNITS=M/Z
##YUNITS=RELATIVE INTENSITY
##XFACTOR=1
##YFACTOR=1
##FIRSTX=12
##LASTX=320
##FIRSTY=10
##MAXX=320
##MINX=12
##MAXY=9999
##MINY=10
##NPOINTS=203
##PEAK TABLE=(XY..XY)
12,10 25,10 26,30 27,20
28,10 35,219 36,619 37,189
38,199 39,20 43,20 44,20
45,20 47,109 48,40 49,349
50,529 51,199 52,20 54,10
59,10 60,119 61,409 62,229
63,99 64,10 66,159 67,199
68,60 71,50 72,109 73,339
74,589 75,319 76,30 82,10
83,99 84,489 85,949 86,389
87,209 88,20 89,40 90,50
91,20 92,10 94,30 95,70
96,129 97,289 98,599 99,619
100,139 101,50 102,879 103,829
104,289 105,40 106,30 107,189
108,299 109,419 110,129 111,129
112,20 117,10 118,50 119,249
120,609 121,579 122,239 123,99
124,20 125,10 126,10 130,30
131,99 132,90 133,699 134,379
135,559 136,139 137,139 138,70
139,50 140,20 141,30 142,30
143,129 144,70 145,90 146,50
147,30 148,10 154,20 155,70
156,40 157,70 158,30 159,30
160,10 165,20 167,90 168,129
169,619 170,2389 171,569 172,1509
173,189 174,249 175,30 177,10
178,20 179,50 180,40 181,40
182,30 183,20 184,10 191,99
192,20 193,119 194,20 195,60
196,10 197,10 201,10 202,10
203,90 204,1159 205,1469 206,1189
207,1399 208,479 209,469 210,90
211,60 212,10 213,10 214,50
215,20 216,60 217,10 218,30
219,10 220,10 225,20 226,20
227,40 228,20 229,30 230,10
231,20 232,10 234,10 235,10
237,10 238,40 239,379 240,2909
241,769 242,3579 243,609 244,1809
245,229 246,419 247,50 248,50
261,90 262,20 263,149 264,20
265,99 266,10 267,40 268,10
269,20 270,10 274,149 275,6099
276,779 277,9999 278,1029 279,6559
280,609 281,2069 282,199 283,339
284,40 285,30 286,20 309,20
310,1799 311,209 312,3439 313,309
314,2799 315,269 316,1149 317,109
318,299 319,30 320,40
##END=
