##TITLE=Anthracene, 1,2,3,4,5,6,7,8-octahydro-
##JCAMP-DX=4.24
##DATA TYPE=MASS SPECTRUM
##ORIGIN=Japan AIST/NIMC Database- Spectrum MS-NW-3283
##OWNER=NIST Mass Spectrometry Data Center
Collection (C) 2014 copyright by the U.S. Secretary of Commerce
on behalf of the United States of America. All rights reserved.
##CAS REGISTRY NO=1079-71-6
##$NIST MASS SPEC NO=228355
##MOLFORM=C14 H18
##MW=186
##$NIST SOURCE=MSDC
##XUNITS=M/Z
##YUNITS=RELATIVE INTENSITY
##XFACTOR=1
##YFACTOR=1
##FIRSTX=15
##LASTX=188
##FIRSTY=20
##MAXX=188
##MINX=15
##MAXY=9999
##MINY=10
##NPOINTS=114
##PEAK TABLE=(XY..XY)
15,20 26,10 27,179 28,20
29,109 38,20 39,309 40,30
41,199 42,10 43,10 50,70
51,259 52,70 53,129 55,99
57,50 58,20 62,50 63,219
64,169 65,239 66,20 67,70
69,50 70,129 71,139 72,10
74,50 75,80 76,239 77,399
78,229 79,179 80,10 81,20
82,90 83,119 84,60 85,40
86,20 87,40 88,30 89,129
90,30 91,489 92,50 93,10
98,10 99,10 101,30 102,90
103,109 104,70 105,99 106,10
113,20 114,20 115,979 116,239
117,439 118,60 119,10 126,40
127,369 128,1379 129,1759 130,1189
131,459 132,60 134,10 135,10
139,90 140,30 141,789 142,499
143,1809 144,1079 145,2699 146,329
147,20 150,20 151,50 152,179
153,219 154,119 155,189 156,109
157,1599 158,6339 159,829 160,50
163,10 164,10 165,109 166,40
167,60 168,30 169,60 170,30
171,359 172,50 176,10 177,10
178,30 179,10 181,20 182,90
183,50 184,60 185,989 186,9999
187,1549 188,109
##END=
