##TITLE=2,3,4-Trihydroxybenzoic acid, 4TMS derivative
##JCAMP-DX=4.24
##DATA TYPE=MASS SPECTRUM
##ORIGIN=G.S. KING, CHEM. PATHOL. DEP., QUEEN CHARLOTTE'S HOSP., LONDON
##OWNER=NIST Mass Spectrometry Data Center
Collection (C) 2014 copyright by the U.S. Secretary of Commerce
on behalf of the United States of America. All rights reserved.
##CAS REGISTRY NO=107966-20-1
##$NIST MASS SPEC NO=71486
##MOLFORM=C19 H38 O5 Si4
##MW=458
##$NIST SOURCE=MSDC
##XUNITS=M/Z
##YUNITS=RELATIVE INTENSITY
##XFACTOR=1
##YFACTOR=1
##FIRSTX=41
##LASTX=447
##FIRSTY=120
##MAXX=447
##MINX=41
##MAXY=9999
##MINY=120
##NPOINTS=54
##PEAK TABLE=(XY..XY)
41,120 43,320 44,320 45,1520
47,1520 49,640 55,120 57,120
59,120 61,120 63,320 72,120
73,9240 74,720 75,920 76,120
77,572 78,520 79,320 81,1120
85,120 92,120 93,120 96,120
119,120 131,120 133,440 147,840
148,120 149,240 179,120 193,120
207,520 208,120 209,120 223,120
267,120 279,120 281,2440 282,640
283,240 296,120 353,120 354,1640
355,440 356,320 369,640 370,120
442,120 443,9999 444,4120 445,2120
446,440 447,120
##END=
