##TITLE=Phosphinous chloride, diphenyl-
##JCAMP-DX=4.24
##DATA TYPE=MASS SPECTRUM
##ORIGIN=NIST Mass Spectrometry Data Center, 1994
##OWNER=NIST Mass Spectrometry Data Center
Collection (C) 2014 copyright by the U.S. Secretary of Commerce
on behalf of the United States of America. All rights reserved.
##CAS REGISTRY NO=1079-66-9
##$NIST MASS SPEC NO=133286
##MOLFORM=C12 H10 Cl P
##MW=220
##$NIST SOURCE=MSDC
##XUNITS=M/Z
##YUNITS=RELATIVE INTENSITY
##XFACTOR=1
##YFACTOR=1
##FIRSTX=13
##LASTX=224
##FIRSTY=5
##MAXX=224
##MINX=13
##MAXY=9999
##MINY=5
##NPOINTS=119
##PEAK TABLE=(XY..XY)
13,5 15,10 26,94 27,439
35,45 36,53 37,95 38,202
39,805 40,45 41,20 44,11
45,27 50,1455 51,3090 52,249
53,26 56,410 57,606 58,42
61,65 62,168 63,461 64,103
65,170 66,79 67,47 68,214
69,227 70,30 71,11 73,100
74,396 75,293 76,377 77,1349
78,202 79,11 80,562 81,891
82,231 83,122 84,15 85,38
86,46 87,54 88,34 89,103
90,15 91,541 92,667 93,175
94,30 95,21 96,8 97,7
98,29 99,62 100,16 101,43
102,124 103,53 104,134 105,123
106,7 107,4208 108,791 109,101
110,48 111,21 112,10 113,50
114,7 115,429 116,75 117,93
119,36 120,50 121,7 126,96
127,88 128,170 129,21 131,80
133,245 134,27 137,8 139,213
140,50 141,131 142,8 143,2615
144,297 145,903 146,82 147,6
150,86 152,1272 154,9937 155,1300
157,540 158,64 159,35 167,6
168,17 169,54 170,210 171,24
181,235 183,6732 184,2786 185,1193
186,89 201,8 220,9999 221,1995
222,3459 223,409 224,27
##END=
