##TITLE=Benzo[b]thiophene-4-ol, methylcarbamate
##JCAMP-DX=4.24
##DATA TYPE=MASS SPECTRUM
##OWNER=NIST Mass Spectrometry Data Center
Collection (C) 2014 copyright by the U.S. Secretary of Commerce
on behalf of the United States of America. All rights reserved.
##CAS REGISTRY NO=1079-33-0
##$NIST MASS SPEC NO=9500
##MOLFORM=C10 H9 N O2 S
##MW=207
##$NIST SOURCE=MSDC
##XUNITS=M/Z
##YUNITS=RELATIVE INTENSITY
##XFACTOR=1
##YFACTOR=1
##FIRSTX=15
##LASTX=207
##FIRSTY=500
##MAXX=207
##MINX=15
##MAXY=9999
##MINY=200
##NPOINTS=21
##PEAK TABLE=(XY..XY)
15,500 27,600 29,500 39,300
43,800 44,800 49,600 55,500
56,200 57,300 58,700 69,1200
77,700 78,500 95,400 96,400
97,400 121,1700 122,1900 150,9999
207,1700
##END=
