##TITLE=1,3-Phenylenediamine
##JCAMP-DX=4.24
##DATA TYPE=MASS SPECTRUM
##ORIGIN=NIST Mass Spectrometry Data Center, 2010
##OWNER=NIST Mass Spectrometry Data Center
Collection (C) 2014 copyright by the U.S. Secretary of Commerce
on behalf of the United States of America. All rights reserved.
##CAS REGISTRY NO=108-45-2
##$NIST MASS SPEC NO=374679
##MOLFORM=C6 H8 N2
##MW=108
##$NIST SOURCE=MSDC
##XUNITS=M/Z
##YUNITS=RELATIVE INTENSITY
##XFACTOR=1
##YFACTOR=1
##FIRSTX=15
##LASTX=110
##FIRSTY=10
##MAXX=110
##MINX=15
##MAXY=9999
##MINY=10
##NPOINTS=59
##PEAK TABLE=(XY..XY)
15,10 16,10 17,10 18,50
26,40 27,150 28,410 29,40
30,60 36,10 37,100 38,250
39,601 40,280 41,490 42,260
43,60 44,80 48,10 49,30
50,160 51,310 52,681 53,1201
54,1041 55,110 56,40 57,10
60,10 61,70 62,140 63,330
64,380 65,420 66,240 67,290
68,120 69,80 73,70 74,20
76,70 77,40 78,160 79,140
80,4604 81,2562 82,200 83,10
88,20 89,20 90,120 91,550
93,50 94,10 105,90 107,1071
108,9999 109,701 110,20
##END=
