##TITLE=Cyanuric acid
##JCAMP-DX=4.24
##DATA TYPE=MASS SPECTRUM
##ORIGIN=NIST Mass Spectrometry Data Center
##OWNER=NIST Mass Spectrometry Data Center
Collection (C) 2014 copyright by the U.S. Secretary of Commerce
on behalf of the United States of America. All rights reserved.
##CAS REGISTRY NO=108-80-5
##$NIST MASS SPEC NO=341567
##MOLFORM=C3 H3 N3 O3
##MW=129
##$NIST SOURCE=MSDC
##XUNITS=M/Z
##YUNITS=RELATIVE INTENSITY
##XFACTOR=1
##YFACTOR=1
##FIRSTX=16
##LASTX=131
##FIRSTY=50
##MAXX=131
##MINX=16
##MAXY=9999
##MINY=10
##NPOINTS=28
##PEAK TABLE=(XY..XY)
16,50 18,10 26,20 27,80
28,50 29,500 30,100 31,30
40,30 41,230 42,681 43,5515
44,5525 45,90 54,50 65,70
69,110 70,1081 71,30 85,40
86,1461 87,130 92,30 120,80
121,30 129,9999 130,430 131,60
##END=
