##TITLE=Pyridine, 2,4-dimethyl-
##JCAMP-DX=4.24
##DATA TYPE=MASS SPECTRUM
##ORIGIN=Japan AIST/NIMC Database- Spectrum MS-NW-2070
##OWNER=NIST Mass Spectrometry Data Center
Collection (C) 2014 copyright by the U.S. Secretary of Commerce
on behalf of the United States of America. All rights reserved.
##CAS REGISTRY NO=108-47-4
##$NIST MASS SPEC NO=227867
##MOLFORM=C7 H9 N
##MW=107
##$NIST SOURCE=MSDC
##XUNITS=M/Z
##YUNITS=RELATIVE INTENSITY
##XFACTOR=1
##YFACTOR=1
##FIRSTX=14
##LASTX=109
##FIRSTY=10
##MAXX=109
##MINX=14
##MAXY=9999
##MINY=10
##NPOINTS=53
##PEAK TABLE=(XY..XY)
14,10 15,90 26,139 27,459
28,229 29,30 30,20 36,10
37,109 38,299 39,1559 40,369
41,389 42,319 43,40 49,40
50,269 51,539 52,349 53,319
54,109 55,30 56,10 61,40
62,99 63,269 64,149 65,1059
66,659 67,249 68,139 69,10
71,20 74,30 75,30 76,30
77,599 78,249 79,1949 80,609
81,70 89,10 90,20 91,60
92,1329 93,189 94,20 104,70
105,80 106,3319 107,9999 108,789
109,30
##END=
