##TITLE=Diisopropylamine
##JCAMP-DX=4.24
##DATA TYPE=MASS SPECTRUM
##ORIGIN=NIST Mass Spectrometry Data Center, 1998.
##OWNER=NIST Mass Spectrometry Data Center
Collection (C) 2014 copyright by the U.S. Secretary of Commerce
on behalf of the United States of America. All rights reserved.
##CAS REGISTRY NO=108-18-9
##$NIST MASS SPEC NO=291566
##MOLFORM=C6 H15 N
##MW=101
##$NIST SOURCE=MSDC
##XUNITS=M/Z
##YUNITS=RELATIVE INTENSITY
##XFACTOR=1
##YFACTOR=1
##FIRSTX=14
##LASTX=102
##FIRSTY=10
##MAXX=102
##MINX=14
##MAXY=9999
##MINY=10
##NPOINTS=45
##PEAK TABLE=(XY..XY)
14,10 15,140 16,10 18,90
26,40 27,490 28,350 29,60
30,200 34,20 37,20 38,50
39,590 40,120 41,1310 42,1430
43,1150 44,9999 45,310 51,10
52,30 53,20 54,70 55,20
56,290 57,80 58,1200 59,40
67,20 68,70 69,20 70,350
71,130 72,10 80,10 82,20
84,110 86,5769 87,370 88,10
98,10 99,10 100,180 101,620
102,60
##END=
