##TITLE=2(3H)-Furanone, dihydro-5-methyl-
##JCAMP-DX=4.24
##DATA TYPE=MASS SPECTRUM
##ORIGIN=NIST Mass Spectrometry Data Center, 1998.
##OWNER=NIST Mass Spectrometry Data Center
Collection (C) 2014 copyright by the U.S. Secretary of Commerce
on behalf of the United States of America. All rights reserved.
##CAS REGISTRY NO=108-29-2
##$NIST MASS SPEC NO=291502
##MOLFORM=C5 H8 O2
##MW=100
##$NIST SOURCE=MSDC
##XUNITS=M/Z
##YUNITS=RELATIVE INTENSITY
##XFACTOR=1
##YFACTOR=1
##FIRSTX=14
##LASTX=101
##FIRSTY=50
##MAXX=101
##MINX=14
##MAXY=9999
##MINY=10
##NPOINTS=41
##PEAK TABLE=(XY..XY)
14,50 15,170 16,10 25,40
26,610 27,1560 28,2500 29,2580
30,60 31,50 36,10 37,110
38,200 39,1360 40,350 41,4560
42,730 43,2870 44,320 45,430
46,10 49,60 50,250 51,210
52,70 53,280 54,170 55,1320
56,9999 57,1520 58,50 71,130
72,10 81,10 83,10 85,4680
86,210 87,10 99,300 100,600
101,70
##END=
