##TITLE=4-Heptanone, 2,6-dimethyl-
##JCAMP-DX=4.24
##DATA TYPE=MASS SPECTRUM
##ORIGIN=NIST Mass Spectrometry Data Center, 1998.
##OWNER=NIST Mass Spectrometry Data Center
Collection (C) 2014 copyright by the U.S. Secretary of Commerce
on behalf of the United States of America. All rights reserved.
##CAS REGISTRY NO=108-83-8
##$NIST MASS SPEC NO=291436
##MOLFORM=C9 H18 O
##MW=142
##$NIST SOURCE=MSDC
##XUNITS=M/Z
##YUNITS=RELATIVE INTENSITY
##XFACTOR=1
##YFACTOR=1
##FIRSTX=15
##LASTX=144
##FIRSTY=40
##MAXX=144
##MINX=15
##MAXY=9999
##MINY=10
##NPOINTS=56
##PEAK TABLE=(XY..XY)
15,40 26,30 27,590 29,930
30,20 31,20 37,10 38,50
39,1070 40,190 41,3200 42,680
43,1530 44,50 45,20 50,30
51,60 52,20 53,140 54,50
55,290 56,240 57,9999 58,2420
59,150 60,10 63,10 65,30
66,10 67,120 68,20 69,270
70,20 71,90 72,80 77,20
79,30 81,20 82,10 83,50
84,80 85,7589 86,430 87,30
91,10 95,10 97,10 100,260
101,30 109,20 113,10 127,560
128,50 142,1350 143,150 144,10
##END=
