##TITLE=Benzenamine, 3-methyl-
##JCAMP-DX=4.24
##DATA TYPE=MASS SPECTRUM
##ORIGIN=NIST Mass Spectrometry Data Center, 1998.
##OWNER=NIST Mass Spectrometry Data Center
Collection (C) 2014 copyright by the U.S. Secretary of Commerce
on behalf of the United States of America. All rights reserved.
##CAS REGISTRY NO=108-44-1
##$NIST MASS SPEC NO=290543
##MOLFORM=C7 H9 N
##MW=107
##$NIST SOURCE=MSDC
##XUNITS=M/Z
##YUNITS=RELATIVE INTENSITY
##XFACTOR=1
##YFACTOR=1
##FIRSTX=15
##LASTX=109
##FIRSTY=10
##MAXX=109
##MINX=15
##MAXY=9999
##MINY=10
##NPOINTS=59
##PEAK TABLE=(XY..XY)
15,10 26,50 27,210 28,190
29,30 30,70 37,100 38,280
39,830 40,170 41,310 42,180
43,20 44,10 45,10 49,50
50,400 51,720 52,700 53,720
55,30 56,10 60,10 61,90
62,190 63,440 64,180 65,490
66,220 67,90 68,40 73,30
74,110 75,90 76,110 77,1760
78,620 79,1540 80,670 81,90
85,20 86,30 87,20 88,10
89,360 90,250 91,380 92,90
93,10 99,10 100,10 102,20
103,10 104,290 105,10 106,9999
107,9469 108,740 109,30
##END=
