##TITLE=Mesitylene
##JCAMP-DX=4.24
##DATA TYPE=MASS SPECTRUM
##ORIGIN=Japan AIST/NIMC Database- Spectrum MS-NW- 659
##OWNER=NIST Mass Spectrometry Data Center
Collection (C) 2014 copyright by the U.S. Secretary of Commerce
on behalf of the United States of America. All rights reserved.
##CAS REGISTRY NO=108-67-8
##$NIST MASS SPEC NO=228343
##MOLFORM=C9 H12
##MW=120
##$NIST SOURCE=MSDC
##XUNITS=M/Z
##YUNITS=RELATIVE INTENSITY
##XFACTOR=1
##YFACTOR=1
##FIRSTX=15
##LASTX=122
##FIRSTY=30
##MAXX=122
##MINX=15
##MAXY=9999
##MINY=10
##NPOINTS=62
##PEAK TABLE=(XY..XY)
15,30 26,30 27,359 28,20
29,30 37,30 38,90 39,689
40,70 41,419 42,20 43,10
49,10 50,179 51,529 52,179
53,269 54,20 55,20 57,90
58,139 59,159 60,20 61,30
62,90 63,279 64,50 65,369
66,50 67,30 73,10 74,80
75,60 76,40 77,999 78,359
79,679 80,50 86,20 87,20
89,70 90,20 91,789 92,159
93,70 94,10 98,10 101,20
102,90 103,529 104,279 105,9999
106,919 107,30 115,239 116,60
117,229 118,90 119,1499 120,7009
121,669 122,30
##END=
