##TITLE=4H-Pyran-4-one
##JCAMP-DX=4.24
##DATA TYPE=MASS SPECTRUM
##ORIGIN=Japan AIST/NIMC Database- Spectrum MS-IW-2328
##OWNER=NIST Mass Spectrometry Data Center
Collection (C) 2014 copyright by the U.S. Secretary of Commerce
on behalf of the United States of America. All rights reserved.
##CAS REGISTRY NO=108-97-4
##$NIST MASS SPEC NO=235558
##MOLFORM=C5 H4 O2
##MW=96
##$NIST SOURCE=MSDC
##XUNITS=M/Z
##YUNITS=RELATIVE INTENSITY
##XFACTOR=1
##YFACTOR=1
##FIRSTX=12
##LASTX=98
##FIRSTY=50
##MAXX=98
##MINX=12
##MAXY=9999
##MINY=10
##NPOINTS=47
##PEAK TABLE=(XY..XY)
12,50 13,199 14,929 15,50
24,50 25,229 26,929 27,169
28,389 29,1239 30,10 34,99
36,70 37,349 38,419 39,1079
40,609 41,1099 42,5129 43,179
44,20 45,50 48,50 49,129
50,199 51,80 52,40 53,539
54,169 55,40 60,40 61,20
65,10 66,30 67,20 68,2599
69,6199 70,4999 71,199 72,20
77,10 79,10 94,40 95,90
96,9999 97,629 98,60
##END=
