##TITLE=N,N-Dimethylaminoethanol
##JCAMP-DX=4.24
##DATA TYPE=MASS SPECTRUM
##ORIGIN=NIST Mass Spectrometry Data Center, 1998.
##OWNER=NIST Mass Spectrometry Data Center
Collection (C) 2014 copyright by the U.S. Secretary of Commerce
on behalf of the United States of America. All rights reserved.
##CAS REGISTRY NO=108-01-0
##$NIST MASS SPEC NO=291405
##MOLFORM=C4 H11 N O
##MW=89
##$NIST SOURCE=MSDC
##XUNITS=M/Z
##YUNITS=RELATIVE INTENSITY
##XFACTOR=1
##YFACTOR=1
##FIRSTX=14
##LASTX=90
##FIRSTY=10
##MAXX=90
##MINX=14
##MAXY=9999
##MINY=10
##NPOINTS=40
##PEAK TABLE=(XY..XY)
14,10 15,160 18,40 19,10
26,40 27,160 28,190 29,310
30,830 31,150 32,20 38,10
39,30 40,120 41,260 42,1920
43,670 44,1470 45,330 46,20
51,10 52,20 54,50 55,50
56,330 57,380 58,9999 59,500
60,10 68,10 70,70 71,40
72,50 73,20 74,10 86,20
87,10 88,170 89,580 90,30
##END=
