##TITLE=Propanedioic acid, dimethyl ester
##JCAMP-DX=4.24
##DATA TYPE=MASS SPECTRUM
##ORIGIN=T.A.BLAZER DU PONT, GIBBSTOWN, N.J., USA
##OWNER=NIST Mass Spectrometry Data Center
Collection (C) 2014 copyright by the U.S. Secretary of Commerce
on behalf of the United States of America. All rights reserved.
##CAS REGISTRY NO=108-59-8
##$NIST MASS SPEC NO=20883
##MOLFORM=C5 H8 O4
##MW=132
##$NIST SOURCE=MSDC
##XUNITS=M/Z
##YUNITS=RELATIVE INTENSITY
##XFACTOR=1
##YFACTOR=1
##FIRSTX=12
##LASTX=132
##FIRSTY=120
##MAXX=132
##MINX=12
##MAXY=9999
##MINY=40
##NPOINTS=33
##PEAK TABLE=(XY..XY)
12,120 13,223 14,991 15,6049
16,103 26,65 27,462 28,167
29,2596 30,244 31,418 41,381
42,2960 43,1654 44,196 45,930
57,1902 58,413 59,8303 60,193
61,40 69,805 70,62 72,51
73,53 74,3711 75,151 100,400
101,9999 102,482 103,109 104,196
132,326
##END=
