##TITLE=Cyclohexane, methyl-
##JCAMP-DX=4.24
##DATA TYPE=MASS SPECTRUM
##ORIGIN=Japan AIST/NIMC Database- Spectrum MS-NW-3722
##OWNER=NIST Mass Spectrometry Data Center
Collection (C) 2014 copyright by the U.S. Secretary of Commerce
on behalf of the United States of America. All rights reserved.
##CAS REGISTRY NO=108-87-2
##$NIST MASS SPEC NO=227871
##MOLFORM=C7 H14
##MW=98
##$NIST SOURCE=MSDC
##XUNITS=M/Z
##YUNITS=RELATIVE INTENSITY
##XFACTOR=1
##YFACTOR=1
##FIRSTX=15
##LASTX=100
##FIRSTY=90
##MAXX=100
##MINX=15
##MAXY=9999
##MINY=10
##NPOINTS=53
##PEAK TABLE=(XY..XY)
15,90 26,99 27,1289 28,319
29,1109 30,20 36,10 37,30
38,99 39,1559 40,289 41,4109
42,2859 43,689 44,20 45,10
46,20 50,90 51,189 52,90
53,459 54,449 55,7629 56,2849
57,499 58,20 61,10 62,30
63,40 64,10 65,90 66,40
67,449 68,929 69,2249 70,2179
71,139 77,80 78,20 79,70
80,10 81,139 82,1449 83,9999
84,699 85,30 91,20 95,10
96,10 97,279 98,3689 99,309
100,10
##END=
