##TITLE=Propane, 1-nitro-
##JCAMP-DX=4.24
##DATA TYPE=MASS SPECTRUM
##ORIGIN=Japan AIST/NIMC Database- Spectrum MS-NW-4918
##OWNER=NIST Mass Spectrometry Data Center
Collection (C) 2014 copyright by the U.S. Secretary of Commerce
on behalf of the United States of America. All rights reserved.
##CAS REGISTRY NO=108-03-2
##$NIST MASS SPEC NO=230054
##MOLFORM=C3 H7 N O2
##MW=89
##$NIST SOURCE=MSDC
##XUNITS=M/Z
##YUNITS=RELATIVE INTENSITY
##XFACTOR=1
##YFACTOR=1
##FIRSTX=12
##LASTX=73
##FIRSTY=10
##MAXX=73
##MINX=12
##MAXY=9999
##MINY=10
##NPOINTS=41
##PEAK TABLE=(XY..XY)
12,10 13,20 14,80 15,409
16,30 17,30 18,109 24,10
25,50 26,479 27,7149 28,659
29,499 30,829 31,299 32,10
36,10 37,119 38,229 39,1929
40,379 41,7929 42,1609 43,9999
44,369 45,30 46,229 48,10
50,10 51,40 52,60 53,50
54,209 55,60 56,50 57,129
58,20 61,109 71,30 72,99
73,10
##END=
