##TITLE=2-Propanol, 1-(dimethylamino)-
##JCAMP-DX=4.24
##DATA TYPE=MASS SPECTRUM
##ORIGIN=RADIAN CORP
##OWNER=NIST Mass Spectrometry Data Center
Collection (C) 2014 copyright by the U.S. Secretary of Commerce
on behalf of the United States of America. All rights reserved.
##CAS REGISTRY NO=108-16-7
##$NIST MASS SPEC NO=69511
##MOLFORM=C5 H13 N O
##MW=103
##$NIST SOURCE=MSDC
##XUNITS=M/Z
##YUNITS=RELATIVE INTENSITY
##XFACTOR=1
##YFACTOR=1
##FIRSTX=15
##LASTX=104
##FIRSTY=150
##MAXX=104
##MINX=15
##MAXY=9999
##MINY=10
##NPOINTS=39
##PEAK TABLE=(XY..XY)
15,150 18,20 19,10 26,20
27,160 28,160 29,280 30,690
31,130 38,20 39,120 40,80
41,270 42,1440 43,570 44,960
45,250 46,30 54,20 55,30
56,210 57,340 58,9999 59,500
60,10 68,30 70,90 71,110
72,80 73,30 84,60 85,20
86,120 87,40 88,550 89,20
102,80 103,410 104,20
##END=
