##TITLE=1-Propen-2-ol, acetate
##JCAMP-DX=4.24
##DATA TYPE=MASS SPECTRUM
##ORIGIN=NIST Mass Spectrometry Data Center, 1990.
##OWNER=NIST Mass Spectrometry Data Center
Collection (C) 2014 copyright by the U.S. Secretary of Commerce
on behalf of the United States of America. All rights reserved.
##CAS REGISTRY NO=108-22-5
##$NIST MASS SPEC NO=118799
##MOLFORM=C5 H8 O2
##MW=100
##$NIST SOURCE=MSDC
##XUNITS=M/Z
##YUNITS=RELATIVE INTENSITY
##XFACTOR=1
##YFACTOR=1
##FIRSTX=12
##LASTX=101
##FIRSTY=13
##MAXX=101
##MINX=12
##MAXY=9999
##MINY=2
##NPOINTS=37
##PEAK TABLE=(XY..XY)
12,13 13,60 14,301 15,828
16,23 17,2 24,7 25,40
26,198 27,482 28,143 29,299
30,29 31,38 36,12 37,111
38,253 39,963 40,192 41,947
42,1014 43,9999 44,256 45,40
50,5 51,5 53,8 55,12
57,264 58,1345 59,45 60,5
61,15 72,823 73,39 100,442
101,24
##END=
