##TITLE=Benzene, 1,3,5-trichloro-
##JCAMP-DX=4.24
##DATA TYPE=MASS SPECTRUM
##ORIGIN=Chuck Anderson, Aldrich Chemical Co.
##OWNER=NIST Mass Spectrometry Data Center
Collection (C) 2014 copyright by the U.S. Secretary of Commerce
on behalf of the United States of America. All rights reserved.
##CAS REGISTRY NO=108-70-3
##$NIST MASS SPEC NO=107765
##MOLFORM=C6 H3 Cl3
##MW=180
##$NIST SOURCE=MSDC
##XUNITS=M/Z
##YUNITS=RELATIVE INTENSITY
##XFACTOR=1
##YFACTOR=1
##FIRSTX=25
##LASTX=187
##FIRSTY=15
##MAXX=187
##MINX=25
##MAXY=9999
##MINY=7
##NPOINTS=71
##PEAK TABLE=(XY..XY)
25,15 26,16 35,104 36,156
37,624 38,249 39,22 47,126
48,70 49,363 50,881 51,82
54,384 55,434 56,83 60,208
61,279 62,185 63,85 71,81
72,703 73,1111 74,2341 75,1263
76,68 77,7 82,11 83,37
84,480 85,238 86,156 87,63
90,274 91,254 92,79 93,7
95,19 96,26 97,53 98,9
99,12 106,11 107,55 108,164
109,1210 110,245 111,396 112,62
118,18 119,42 120,44 121,27
122,21 131,22 133,21 143,69
144,291 145,3210 146,342 147,2078
148,131 149,332 150,15 180,9999
181,493 182,9472 183,467 184,3052
185,159 186,333 187,16
##END=
