##TITLE=Imidodicarbonic diamide
##JCAMP-DX=4.24
##DATA TYPE=MASS SPECTRUM
##ORIGIN=Japan AIST/NIMC Database- Spectrum MS-NW- 412
##OWNER=NIST Mass Spectrometry Data Center
Collection (C) 2014 copyright by the U.S. Secretary of Commerce
on behalf of the United States of America. All rights reserved.
##CAS REGISTRY NO=108-19-0
##$NIST MASS SPEC NO=228868
##MOLFORM=C2 H5 N3 O2
##MW=103
##$NIST SOURCE=MSDC
##XUNITS=M/Z
##YUNITS=RELATIVE INTENSITY
##XFACTOR=1
##YFACTOR=1
##FIRSTX=15
##LASTX=105
##FIRSTY=50
##MAXX=105
##MINX=15
##MAXY=9999
##MINY=10
##NPOINTS=32
##PEAK TABLE=(XY..XY)
15,50 16,299 17,1449 18,209
26,20 27,90 28,299 29,219
30,40 31,179 32,50 41,70
42,369 43,1769 44,6779 45,99
46,10 55,20 56,20 57,30
59,90 60,9999 61,199 62,20
69,20 70,169 71,10 86,90
87,40 103,2199 104,80 105,20
##END=
