##TITLE=Propylene Carbonate
##JCAMP-DX=4.24
##DATA TYPE=MASS SPECTRUM
##ORIGIN=Japan AIST/NIMC Database- Spectrum MS-NW- 810
##OWNER=NIST Mass Spectrometry Data Center
Collection (C) 2014 copyright by the U.S. Secretary of Commerce
on behalf of the United States of America. All rights reserved.
##CAS REGISTRY NO=108-32-7
##$NIST MASS SPEC NO=227715
##MOLFORM=C4 H6 O3
##MW=102
##$NIST SOURCE=MSDC
##XUNITS=M/Z
##YUNITS=RELATIVE INTENSITY
##XFACTOR=1
##YFACTOR=1
##FIRSTX=13
##LASTX=104
##FIRSTY=20
##MAXX=104
##MINX=13
##MAXY=9999
##MINY=10
##NPOINTS=50
##PEAK TABLE=(XY..XY)
13,20 14,149 15,1329 16,20
17,10 18,30 25,60 26,969
27,2639 28,6379 29,3739 30,3959
31,569 32,60 36,10 37,80
38,149 39,549 40,139 41,409
42,469 43,7779 44,549 45,359
46,10 51,10 53,30 55,109
56,169 57,9999 58,1359 59,169
69,30 70,40 71,70 72,20
73,70 77,20 78,30 83,20
84,30 85,20 86,30 87,1999
88,70 89,10 101,50 102,559
103,90 104,20
##END=
