##TITLE=Piperazine, 2,6-dimethyl-
##JCAMP-DX=4.24
##DATA TYPE=MASS SPECTRUM
##ORIGIN=Japan AIST/NIMC Database- Spectrum MS-NW-6357
##OWNER=NIST Mass Spectrometry Data Center
Collection (C) 2014 copyright by the U.S. Secretary of Commerce
on behalf of the United States of America. All rights reserved.
##CAS REGISTRY NO=108-49-6
##$NIST MASS SPEC NO=227831
##MOLFORM=C6 H14 N2
##MW=114
##$NIST SOURCE=MSDC
##XUNITS=M/Z
##YUNITS=RELATIVE INTENSITY
##XFACTOR=1
##YFACTOR=1
##FIRSTX=14
##LASTX=115
##FIRSTY=30
##MAXX=115
##MINX=14
##MAXY=9999
##MINY=10
##NPOINTS=73
##PEAK TABLE=(XY..XY)
14,30 15,389 16,10 17,99
18,110 26,99 27,589 28,199
29,299 30,3399 31,159 36,20
37,30 38,80 39,739 40,319
41,1559 42,3749 43,1739 44,9999
45,279 46,10 47,10 48,70
49,30 50,10 51,20 52,60
53,40 54,209 55,129 56,2929
57,409 58,389 59,20 64,10
65,10 66,30 67,60 68,399
69,199 70,3899 71,7599 72,1839
73,179 74,10 77,10 78,30
80,30 81,40 82,119 83,289
84,249 85,90 86,10 93,10
94,20 95,109 96,40 97,80
98,119 99,3519 100,229 101,10
107,10 108,249 109,99 110,99
111,50 112,40 113,299 114,1169
115,90
##END=
