##TITLE=Benzenamine, 3,5-dimethyl-
##JCAMP-DX=4.24
##DATA TYPE=MASS SPECTRUM
##ORIGIN=NIST Mass Spectrometry Data Center, 1998.
##OWNER=NIST Mass Spectrometry Data Center
Collection (C) 2014 copyright by the U.S. Secretary of Commerce
on behalf of the United States of America. All rights reserved.
##CAS REGISTRY NO=108-69-0
##$NIST MASS SPEC NO=291465
##MOLFORM=C8 H11 N
##MW=121
##$NIST SOURCE=MSDC
##XUNITS=M/Z
##YUNITS=RELATIVE INTENSITY
##XFACTOR=1
##YFACTOR=1
##FIRSTX=15
##LASTX=123
##FIRSTY=20
##MAXX=123
##MINX=15
##MAXY=9999
##MINY=10
##NPOINTS=74
##PEAK TABLE=(XY..XY)
15,20 26,30 27,190 28,50
29,20 30,50 37,40 38,140
39,600 40,100 41,310 42,250
43,30 44,10 45,20 46,60
49,20 50,270 51,600 52,420
53,510 54,220 55,30 56,10
58,230 59,250 60,130 62,130
63,310 64,100 65,540 66,290
67,120 68,40 73,20 74,90
75,90 76,110 77,1660 78,600
79,760 80,400 81,70 82,20
85,10 86,30 87,20 88,10
89,130 90,60 91,1150 92,230
93,640 94,290 95,30 98,10
99,10 100,10 101,10 102,90
103,420 104,410 105,260 106,6489
107,540 108,20 116,30 117,120
118,320 119,190 120,5219 121,9999
122,950 123,40
##END=
