##TITLE=4-Heptanol, 2,6-dimethyl-
##JCAMP-DX=4.24
##DATA TYPE=MASS SPECTRUM
##ORIGIN=Finnish Institute for Verification of the Chemical Weapons Convention -VERIFIN
##OWNER=NIST Mass Spectrometry Data Center
Collection (C) 2014 copyright by the U.S. Secretary of Commerce
on behalf of the United States of America. All rights reserved.
##CAS REGISTRY NO=108-82-7
##$NIST MASS SPEC NO=298457
##MOLFORM=C9 H20 O
##MW=144
##$NIST SOURCE=MSDC
##XUNITS=M/Z
##YUNITS=RELATIVE INTENSITY
##XFACTOR=1
##YFACTOR=1
##FIRSTX=26
##LASTX=143
##FIRSTY=20
##MAXX=143
##MINX=26
##MAXY=9999
##MINY=10
##NPOINTS=54
##PEAK TABLE=(XY..XY)
26,20 27,540 28,50 29,561
30,10 31,130 37,10 38,30
39,490 40,90 41,1852 42,240
43,3463 44,691 45,2943 46,70
47,10 50,10 51,30 52,10
53,110 54,20 55,410 56,390
57,811 58,340 59,70 63,10
65,20 66,10 67,100 69,9999
70,651 71,440 72,20 73,30
77,10 79,10 81,10 82,10
83,60 84,30 85,80 86,480
87,4714 88,250 89,20 95,10
98,20 111,50 112,10 126,110
127,20 143,10
##END=
