##TITLE=4,6-Dimethyl-2-pyrimidone
##JCAMP-DX=4.24
##DATA TYPE=MASS SPECTRUM
##ORIGIN=E. PICQUENARD, UNIV. PIERRE MARIE CURIE, PARIS, FR.
##OWNER=NIST Mass Spectrometry Data Center
Collection (C) 2014 copyright by the U.S. Secretary of Commerce
on behalf of the United States of America. All rights reserved.
##CAS REGISTRY NO=108-79-2
##$NIST MASS SPEC NO=101728
##MOLFORM=C6 H8 N2 O
##MW=124
##$NIST SOURCE=MSDC
##XUNITS=M/Z
##YUNITS=RELATIVE INTENSITY
##XFACTOR=1
##YFACTOR=1
##FIRSTX=40
##LASTX=125
##FIRSTY=700
##MAXX=125
##MINX=40
##MAXY=9999
##MINY=500
##NPOINTS=25
##PEAK TABLE=(XY..XY)
40,700 41,1200 42,2150 43,950
44,550 53,500 54,550 55,1100
56,550 57,950 66,1400 67,700
68,500 69,1000 71,550 81,750
82,1100 83,550 95,2700 96,3700
97,600 109,4600 110,500 124,9999
125,900
##END=
