##TITLE=2-Pentanamine, 4-methyl-
##JCAMP-DX=4.24
##DATA TYPE=MASS SPECTRUM
##ORIGIN=NIST Mass Spectrometry Data Center, 1998.
##OWNER=NIST Mass Spectrometry Data Center
Collection (C) 2014 copyright by the U.S. Secretary of Commerce
on behalf of the United States of America. All rights reserved.
##CAS REGISTRY NO=108-09-8
##$NIST MASS SPEC NO=291557
##MOLFORM=C6 H15 N
##MW=101
##$NIST SOURCE=MSDC
##XUNITS=M/Z
##YUNITS=RELATIVE INTENSITY
##XFACTOR=1
##YFACTOR=1
##FIRSTX=15
##LASTX=102
##FIRSTY=50
##MAXX=102
##MINX=15
##MAXY=9999
##MINY=10
##NPOINTS=43
##PEAK TABLE=(XY..XY)
15,50 26,20 27,260 28,150
29,130 30,450 31,10 35,10
37,10 38,40 39,440 40,80
41,750 42,710 43,620 44,9999
45,310 50,20 51,30 52,20
53,50 54,50 55,70 56,130
57,90 58,200 59,10 63,10
65,10 66,10 67,20 68,20
69,190 70,70 71,10 82,10
84,50 85,10 86,330 87,20
100,50 101,60 102,10
##END=
