##TITLE=Pyridine, 3-methyl-
##JCAMP-DX=4.24
##DATA TYPE=MASS SPECTRUM
##ORIGIN=Japan AIST/NIMC Database- Spectrum MS-NW-5548
##OWNER=NIST Mass Spectrometry Data Center
Collection (C) 2014 copyright by the U.S. Secretary of Commerce
on behalf of the United States of America. All rights reserved.
##CAS REGISTRY NO=108-99-6
##$NIST MASS SPEC NO=228545
##MOLFORM=C6 H7 N
##MW=93
##$NIST SOURCE=MSDC
##XUNITS=M/Z
##YUNITS=RELATIVE INTENSITY
##XFACTOR=1
##YFACTOR=1
##FIRSTX=14
##LASTX=95
##FIRSTY=10
##MAXX=95
##MINX=14
##MAXY=9999
##MINY=10
##NPOINTS=46
##PEAK TABLE=(XY..XY)
14,10 15,30 25,30 26,229
27,319 28,249 31,99 36,40
37,409 38,829 39,2999 40,1399
41,339 42,50 43,10 44,10
45,80 46,60 48,10 49,90
50,349 51,589 52,319 53,269
54,279 55,10 60,40 61,209
62,359 63,759 64,349 65,2599
66,3939 67,1129 68,50 75,40
76,40 77,10 78,389 79,40
90,10 91,119 92,3049 93,9999
94,719 95,20
##END=
