##TITLE=Acetaldehyde, tetramer
##JCAMP-DX=4.24
##DATA TYPE=MASS SPECTRUM
##ORIGIN=Japan AIST/NIMC Database- Spectrum MS-NW- 634
##OWNER=NIST Mass Spectrometry Data Center
Collection (C) 2014 copyright by the U.S. Secretary of Commerce
on behalf of the United States of America. All rights reserved.
##CAS REGISTRY NO=108-62-3
##$NIST MASS SPEC NO=229365
##MOLFORM=C8 H16 O4
##MW=176
##$NIST SOURCE=MSDC
##XUNITS=M/Z
##YUNITS=RELATIVE INTENSITY
##XFACTOR=1
##YFACTOR=1
##FIRSTX=13
##LASTX=131
##FIRSTY=30
##MAXX=131
##MINX=13
##MAXY=9999
##MINY=10
##NPOINTS=27
##PEAK TABLE=(XY..XY)
13,30 14,119 15,719 16,60
18,30 25,10 26,80 27,319
28,80 29,979 31,60 41,20
42,149 43,2729 44,579 45,9999
46,209 47,20 58,30 71,10
72,20 87,379 88,60 89,2119
90,90 117,129 131,60
##END=
