##TITLE=1,2-Ethanediamine, N,N-dimethyl-
##JCAMP-DX=4.24
##DATA TYPE=MASS SPECTRUM
##ORIGIN=Japan AIST/NIMC Database- Spectrum MS-NW-1488
##OWNER=NIST Mass Spectrometry Data Center
Collection (C) 2014 copyright by the U.S. Secretary of Commerce
on behalf of the United States of America. All rights reserved.
##CAS REGISTRY NO=108-00-9
##$NIST MASS SPEC NO=230403
##MOLFORM=C4 H12 N2
##MW=88
##$NIST SOURCE=MSDC
##XUNITS=M/Z
##YUNITS=RELATIVE INTENSITY
##XFACTOR=1
##YFACTOR=1
##FIRSTX=14
##LASTX=89
##FIRSTY=30
##MAXX=89
##MINX=14
##MAXY=9999
##MINY=10
##NPOINTS=33
##PEAK TABLE=(XY..XY)
14,30 15,429 16,10 17,50
18,40 26,30 27,149 28,459
29,279 30,1609 31,30 32,20
38,10 39,30 40,80 41,209
42,1349 43,539 44,819 45,70
46,10 54,20 55,30 56,229
57,289 58,9999 59,409 69,20
70,60 71,70 72,20 88,339
89,20
##END=
