##TITLE=Pentane, 2,4-dimethyl-
##JCAMP-DX=4.24
##DATA TYPE=MASS SPECTRUM
##OWNER=NIST Mass Spectrometry Data Center
Collection (C) 2014 copyright by the U.S. Secretary of Commerce
on behalf of the United States of America. All rights reserved.
##CAS REGISTRY NO=108-08-7
##$NIST MASS SPEC NO=1043
##MOLFORM=C7 H16
##MW=100
##$NIST SOURCE=MSDC
##XUNITS=M/Z
##YUNITS=RELATIVE INTENSITY
##XFACTOR=1
##YFACTOR=1
##FIRSTX=12
##LASTX=101
##FIRSTY=10
##MAXX=101
##MINX=12
##MAXY=9999
##MINY=10
##NPOINTS=61
##PEAK TABLE=(XY..XY)
12,10 13,10 14,20 15,440
16,30 26,70 27,2072 28,240
29,1902 30,40 31,10 33,10
34,10 35,10 36,10 37,20
38,60 39,1361 40,270 41,4034
42,2522 43,9999 44,340 45,10
46,10 47,10 48,10 49,10
50,20 51,50 52,20 53,140
54,40 55,360 56,3613 57,6736
58,290 59,10 64,10 65,20
66,10 67,40 68,10 69,200
70,30 71,90 72,10 77,10
78,10 79,10 80,10 81,10
82,10 83,30 84,50 85,1661
86,110 87,10 99,10 100,110
101,10
##END=
