##TITLE=1,3,5-Triazine, hexahydro-1,3,5-trimethyl-
##JCAMP-DX=4.24
##DATA TYPE=MASS SPECTRUM
##ORIGIN=D.HENNEBERG, MAX-PLANCK INSTITUTE, MULHEIM, WEST GERMANY
##OWNER=NIST Mass Spectrometry Data Center
Collection (C) 2014 copyright by the U.S. Secretary of Commerce
on behalf of the United States of America. All rights reserved.
##CAS REGISTRY NO=108-74-7
##$NIST MASS SPEC NO=64005
##MOLFORM=C6 H15 N3
##MW=129
##$NIST SOURCE=MSDC
##XUNITS=M/Z
##YUNITS=RELATIVE INTENSITY
##XFACTOR=1
##YFACTOR=1
##FIRSTX=27
##LASTX=130
##FIRSTY=290
##MAXX=130
##MINX=27
##MAXY=9999
##MINY=3
##NPOINTS=48
##PEAK TABLE=(XY..XY)
27,290 28,475 29,37 30,235
31,10 32,25 38,88 39,118
40,348 41,612 42,4900 43,2019
44,9999 45,855 46,24 49,5
50,230 51,7 52,10 53,5
54,13 55,103 56,28 57,1137
58,93 59,6 61,5 69,15
70,3 71,48 72,11 73,43
74,5 75,11 77,3 83,27
84,15 85,284 86,2236 87,148
88,6 96,4 98,7 99,5
112,11 128,1242 129,614 130,37
##END=
