##TITLE=3H-Pyrazol-3-one, 2,4-dihydro-5-methyl-
##JCAMP-DX=4.24
##DATA TYPE=MASS SPECTRUM
##ORIGIN=Japan AIST/NIMC Database- Spectrum MS-NW-5510
##OWNER=NIST Mass Spectrometry Data Center
Collection (C) 2014 copyright by the U.S. Secretary of Commerce
on behalf of the United States of America. All rights reserved.
##CAS REGISTRY NO=108-26-9
##$NIST MASS SPEC NO=230085
##MOLFORM=C4 H6 N2 O
##MW=98
##$NIST SOURCE=MSDC
##XUNITS=M/Z
##YUNITS=RELATIVE INTENSITY
##XFACTOR=1
##YFACTOR=1
##FIRSTX=12
##LASTX=100
##FIRSTY=20
##MAXX=100
##MINX=12
##MAXY=9999
##MINY=10
##NPOINTS=57
##PEAK TABLE=(XY..XY)
12,20 13,40 14,129 15,379
16,10 17,20 18,40 24,20
25,90 26,449 27,699 28,689
29,799 30,159 31,80 32,339
33,10 35,10 36,80 37,449
38,769 39,3439 40,919 41,5079
42,819 43,289 44,109 45,30
48,10 49,50 50,80 51,139
52,169 53,199 54,1209 55,459
56,1519 57,139 58,80 59,20
65,10 66,90 67,1479 68,259
69,1269 70,1329 71,60 79,30
80,20 81,99 82,40 83,80
96,20 97,1169 98,9999 99,559
100,30
##END=
