##TITLE=Propanediamide
##JCAMP-DX=4.24
##DATA TYPE=MASS SPECTRUM
##ORIGIN=Japan AIST/NIMC Database- Spectrum MS-NW-4990
##OWNER=NIST Mass Spectrometry Data Center
Collection (C) 2014 copyright by the U.S. Secretary of Commerce
on behalf of the United States of America. All rights reserved.
##CAS REGISTRY NO=108-13-4
##$NIST MASS SPEC NO=230068
##MOLFORM=C3 H6 N2 O2
##MW=102
##$NIST SOURCE=MSDC
##XUNITS=M/Z
##YUNITS=RELATIVE INTENSITY
##XFACTOR=1
##YFACTOR=1
##FIRSTX=12
##LASTX=104
##FIRSTY=30
##MAXX=104
##MINX=12
##MAXY=9999
##MINY=10
##NPOINTS=43
##PEAK TABLE=(XY..XY)
12,30 13,50 14,259 15,499
16,309 17,539 18,219 25,10
26,30 27,139 28,689 29,149
30,519 31,149 32,10 38,70
39,90 40,269 41,809 42,3039
43,3349 44,5239 45,99 46,10
53,10 55,10 56,20 57,10
58,60 59,9999 60,289 61,30
66,40 67,20 68,80 69,249
70,10 84,20 85,30 86,50
102,1529 103,80 104,10
##END=
