##TITLE=Diisopropyl ether
##JCAMP-DX=4.24
##DATA TYPE=MASS SPECTRUM
##ORIGIN=Japan AIST/NIMC Database- Spectrum MS-NW-5539
##OWNER=NIST Mass Spectrometry Data Center
Collection (C) 2014 copyright by the U.S. Secretary of Commerce
on behalf of the United States of America. All rights reserved.
##CAS REGISTRY NO=108-20-3
##$NIST MASS SPEC NO=229501
##MOLFORM=C6 H14 O
##MW=102
##$NIST SOURCE=MSDC
##XUNITS=M/Z
##YUNITS=RELATIVE INTENSITY
##XFACTOR=1
##YFACTOR=1
##FIRSTX=14
##LASTX=102
##FIRSTY=20
##MAXX=102
##MINX=14
##MAXY=9999
##MINY=10
##NPOINTS=30
##PEAK TABLE=(XY..XY)
14,20 15,229 18,10 26,40
27,719 28,30 29,99 31,259
37,20 38,50 39,479 40,99
41,1219 42,319 43,4019 44,159
45,9999 46,239 47,20 57,20
58,70 59,1039 60,30 69,259
70,10 72,10 84,10 87,2229
88,129 102,50
##END=
