##TITLE=Benzene, 1,3-dibromo-
##JCAMP-DX=4.24
##DATA TYPE=MASS SPECTRUM
##ORIGIN=Chuck Anderson, Aldrich Chemical Co.
##OWNER=NIST Mass Spectrometry Data Center
Collection (C) 2014 copyright by the U.S. Secretary of Commerce
on behalf of the United States of America. All rights reserved.
##CAS REGISTRY NO=108-36-1
##$NIST MASS SPEC NO=107399
##MOLFORM=C6 H4 Br2
##MW=234
##$NIST SOURCE=MSDC
##XUNITS=M/Z
##YUNITS=RELATIVE INTENSITY
##XFACTOR=1
##YFACTOR=1
##FIRSTX=24
##LASTX=239
##FIRSTY=8
##MAXX=239
##MINX=24
##MAXY=9999
##MINY=8
##NPOINTS=59
##PEAK TABLE=(XY..XY)
24,8 25,57 26,147 27,71
36,216 37,1304 38,1922 39,204
48,72 49,666 50,3873 51,480
52,12 60,49 61,145 62,85
63,27 72,56 73,638 74,2609
75,3790 76,2746 77,611 78,460
79,248 80,41 81,221 82,42
91,33 93,47 104,85 105,105
106,87 107,86 115,14 116,51
117,494 118,830 119,460 128,197
129,211 130,190 131,200 141,17
143,15 152,18 153,64 154,145
155,7691 156,570 157,7471 158,453
159,9 234,4972 235,250 236,9999
237,542 238,4972 239,278
##END=
