##TITLE=Benzene, nonyl-
##JCAMP-DX=4.24
##DATA TYPE=MASS SPECTRUM
##ORIGIN=Japan AIST/NIMC Database- Spectrum MS-NW-5132
##OWNER=NIST Mass Spectrometry Data Center
Collection (C) 2014 copyright by the U.S. Secretary of Commerce
on behalf of the United States of America. All rights reserved.
##CAS REGISTRY NO=1081-77-2
##$NIST MASS SPEC NO=228245
##MOLFORM=C15 H24
##MW=204
##$NIST SOURCE=MSDC
##XUNITS=M/Z
##YUNITS=RELATIVE INTENSITY
##XFACTOR=1
##YFACTOR=1
##FIRSTX=15
##LASTX=206
##FIRSTY=10
##MAXX=206
##MINX=15
##MAXY=9999
##MINY=10
##NPOINTS=90
##PEAK TABLE=(XY..XY)
15,10 26,20 27,379 28,60
29,609 30,10 36,10 38,10
39,319 40,40 41,959 42,149
43,1319 44,50 50,40 51,149
52,40 53,70 54,40 55,359
56,159 57,1109 58,50 62,20
63,70 64,20 65,479 66,40
67,60 68,30 69,139 70,129
71,589 72,30 74,10 75,10
76,20 77,319 78,459 79,269
80,70 81,20 82,50 83,119
84,50 85,20 89,70 90,50
91,7319 92,9999 93,819 94,70
95,10 96,10 97,20 98,20
102,20 103,159 104,389 105,949
106,209 107,20 108,10 110,10
112,20 115,90 116,30 117,159
118,60 119,249 120,119 121,10
127,10 128,10 129,20 131,10
132,20 133,589 134,159 135,20
138,10 147,90 148,30 150,30
161,70 162,10 175,20 204,2229
205,399 206,30
##END=
