##TITLE=Phenethylamine, 3,4,5-trimethoxy-.alpha.-methyl-
##JCAMP-DX=4.24
##DATA TYPE=MASS SPECTRUM
##ORIGIN=Patti Price, Georgia Bureau of Investigation, Decatur, Georgia
##OWNER=NIST Mass Spectrometry Data Center
Collection (C) 2014 copyright by the U.S. Secretary of Commerce
on behalf of the United States of America. All rights reserved.
##CAS REGISTRY NO=1082-88-8
##$NIST MASS SPEC NO=248106
##MOLFORM=C12 H19 N O3
##MW=225
##$NIST SOURCE=MSDC
##XUNITS=M/Z
##YUNITS=RELATIVE INTENSITY
##XFACTOR=1
##YFACTOR=1
##FIRSTX=42
##LASTX=225
##FIRSTY=380
##MAXX=225
##MINX=42
##MAXY=9999
##MINY=10
##NPOINTS=99
##PEAK TABLE=(XY..XY)
42,380 43,100 44,9999 45,260
46,20 50,100 51,230 52,300
53,290 54,50 55,50 56,50
57,30 61,10 62,40 63,190
64,130 65,290 66,190 67,120
68,30 69,50 74,20 75,40
76,70 77,380 78,220 79,310
80,270 81,100 82,30 83,10
85,20 89,140 90,150 91,190
92,120 93,150 94,90 95,210
96,30 97,30 102,10 103,20
104,40 105,150 106,120 107,250
108,90 109,110 110,40 115,10
119,20 120,90 121,130 123,140
124,140 125,50 133,30 134,40
135,60 136,270 137,210 138,80
139,320 144,10 147,30 148,370
149,60 150,20 151,390 152,80
153,60 161,10 162,10 163,20
164,30 165,60 166,50 167,1591
168,160 169,10 176,10 177,10
178,50 179,10 181,770 182,5004
183,510 184,40 192,10 193,20
194,40 195,10 208,10 209,10
210,30 224,10 225,100
##END=
