##TITLE=1H-Imidazol-2-amine, 4,5-dihydro-N-(5,6,7,8-tetrahydro-1-naphthalenyl)-
##JCAMP-DX=4.24
##DATA TYPE=MASS SPECTRUM
##ORIGIN=R.E.Ardrey ET AL.Pharmaceutical Mass Spectra,L.,1985
##OWNER=NIST Mass Spectrometry Data Center
Collection (C) 2014 copyright by the U.S. Secretary of Commerce
on behalf of the United States of America. All rights reserved.
##CAS REGISTRY NO=1082-57-1
##$NIST MASS SPEC NO=298786
##MOLFORM=C13 H17 N3
##MW=215
##$NIST SOURCE=MSDC
##XUNITS=M/Z
##YUNITS=RELATIVE INTENSITY
##XFACTOR=1
##YFACTOR=1
##FIRSTX=27
##LASTX=217
##FIRSTY=400
##MAXX=217
##MINX=27
##MAXY=9999
##MINY=100
##NPOINTS=103
##PEAK TABLE=(XY..XY)
27,400 29,200 30,1101 39,601
40,100 41,500 42,901 43,601
44,6406 45,200 50,200 51,500
52,200 53,300 55,200 56,100
57,100 59,200 62,100 63,400
64,200 65,400 66,100 68,100
69,200 70,100 71,500 72,100
75,100 76,200 77,801 78,300
79,200 82,100 84,300 85,200
86,200 87,300 89,400 90,200
91,701 92,100 93,200 96,100
99,400 100,300 101,100 102,400
103,400 104,200 105,100 106,400
107,400 108,100 113,100 114,100
115,901 116,601 117,500 118,200
119,100 126,100 127,601 128,1101
129,901 130,1101 131,701 132,300
140,200 141,100 142,200 143,300
144,1001 145,1101 146,300 154,500
155,300 156,801 157,1401 158,500
159,300 160,100 168,100 169,200
170,300 171,801 172,1301 173,601
174,100 183,200 185,3603 186,1301
187,300 197,400 198,300 199,300
200,1601 201,200 212,500 214,8007
215,9999 216,1501 217,200
##END=
