##TITLE=Benzene, 1,1'-(1,4-butanediyl)bis-
##JCAMP-DX=4.24
##DATA TYPE=MASS SPECTRUM
##ORIGIN=Japan AIST/NIMC Database- Spectrum MS-IW-4247
##OWNER=NIST Mass Spectrometry Data Center
Collection (C) 2014 copyright by the U.S. Secretary of Commerce
on behalf of the United States of America. All rights reserved.
##CAS REGISTRY NO=1083-56-3
##$NIST MASS SPEC NO=244331
##MOLFORM=C16 H18
##MW=210
##$NIST SOURCE=MSDC
##XUNITS=M/Z
##YUNITS=RELATIVE INTENSITY
##XFACTOR=1
##YFACTOR=1
##FIRSTX=27
##LASTX=212
##FIRSTY=119
##MAXX=212
##MINX=27
##MAXY=9999
##MINY=10
##NPOINTS=90
##PEAK TABLE=(XY..XY)
27,119 28,40 29,10 38,20
39,429 40,30 41,489 42,10
44,10 50,80 51,369 52,90
53,60 54,10 55,10 62,30
63,199 64,50 65,1259 66,80
74,20 75,30 76,40 77,639
78,389 79,399 80,40 87,10
88,10 89,199 90,80 91,9999
92,7679 93,829 94,30 101,20
102,60 103,309 104,1579 105,1269
106,489 107,30 115,339 116,99
117,1729 118,649 119,909 120,90
127,20 128,70 129,80 130,269
131,219 132,299 133,40 141,20
142,20 143,10 144,30 152,30
153,10 154,10 155,20 156,70
157,10 165,50 166,20 167,329
168,90 169,50 178,20 179,20
180,20 181,139 182,119 183,10
191,20 195,60 196,10 202,20
203,30 204,40 205,30 206,70
207,10 208,40 209,30 210,6769
211,1179 212,90
##END=
