##TITLE=.beta.-Phenylpropiophenone
##JCAMP-DX=4.24
##DATA TYPE=MASS SPECTRUM
##ORIGIN=NIST Mass Spectrometry Data Center
##OWNER=NIST Mass Spectrometry Data Center
Collection (C) 2014 copyright by the U.S. Secretary of Commerce
on behalf of the United States of America. All rights reserved.
##CAS REGISTRY NO=1083-30-3
##$NIST MASS SPEC NO=341099
##MOLFORM=C15 H14 O
##MW=210
##$NIST SOURCE=MSDC
##XUNITS=M/Z
##YUNITS=RELATIVE INTENSITY
##XFACTOR=1
##YFACTOR=1
##FIRSTX=27
##LASTX=212
##FIRSTY=60
##MAXX=212
##MINX=27
##MAXY=9999
##MINY=10
##NPOINTS=69
##PEAK TABLE=(XY..XY)
27,60 38,20 39,180 41,20
50,280 51,1071 52,130 53,50
55,70 62,40 63,180 64,30
65,410 66,20 74,90 75,90
76,180 77,4004 78,571 79,330
80,20 86,10 87,10 89,120
90,30 91,1061 92,100 101,10
102,90 103,500 104,611 105,9999
106,861 107,70 115,90 116,10
118,20 119,20 128,10 131,210
132,70 133,70 139,10 151,10
152,50 153,20 165,100 166,40
167,50 168,10 176,10 177,10
178,50 179,30 181,110 182,10
189,30 190,10 191,140 192,180
193,40 194,30 195,40 207,20
208,10 209,270 210,4364 211,711
212,60
##END=
