##TITLE=Phenethylamine, 2,4,5-trimethoxy-.alpha.-methyl-
##JCAMP-DX=4.24
##DATA TYPE=MASS SPECTRUM
##ORIGIN=Patti Price, Georgia Bureau of Investigation, Decatur, Georgia
##OWNER=NIST Mass Spectrometry Data Center
Collection (C) 2014 copyright by the U.S. Secretary of Commerce
on behalf of the United States of America. All rights reserved.
##CAS REGISTRY NO=1083-09-6
##$NIST MASS SPEC NO=248108
##MOLFORM=C12 H19 N O3
##MW=225
##$NIST SOURCE=MSDC
##XUNITS=M/Z
##YUNITS=RELATIVE INTENSITY
##XFACTOR=1
##YFACTOR=1
##FIRSTX=40
##LASTX=225
##FIRSTY=20
##MAXX=225
##MINX=40
##MAXY=9999
##MINY=10
##NPOINTS=70
##PEAK TABLE=(XY..XY)
40,20 41,270 42,800 43,250
44,9999 51,470 52,320 53,450
55,150 56,60 57,50 59,150
63,400 64,380 65,680 66,330
67,500 68,80 69,770 75,90
76,90 77,760 78,390 79,620
80,570 81,180 82,30 85,90
89,210 90,130 91,520 92,310
93,510 94,210 95,580 97,20
98,20 105,110 106,260 108,320
109,250 110,80 119,70 122,170
124,260 125,90 133,50 134,100
135,150 136,760 137,300 139,880
140,90 147,50 149,40 151,980
152,180 153,60 163,60 166,60
167,2342 168,260 180,40 181,860
182,4844 183,630 184,60 193,30
224,10 225,100
##END=
