##TITLE=Pyridine, 4-[(4-nitrophenyl)methyl]-
##JCAMP-DX=4.24
##DATA TYPE=MASS SPECTRUM
##ORIGIN=GFS Chemicals / NIST MS Data Center.
##OWNER=NIST Mass Spectrometry Data Center
Collection (C) 2014 copyright by the U.S. Secretary of Commerce
on behalf of the United States of America. All rights reserved.
##CAS REGISTRY NO=1083-48-3
##$NIST MASS SPEC NO=125322
##MOLFORM=C12 H10 N2 O2
##MW=214
##$NIST SOURCE=MSDC
##XUNITS=M/Z
##YUNITS=RELATIVE INTENSITY
##XFACTOR=1
##YFACTOR=1
##FIRSTX=17
##LASTX=217
##FIRSTY=15
##MAXX=217
##MINX=17
##MAXY=9999
##MINY=2
##NPOINTS=116
##PEAK TABLE=(XY..XY)
17,15 18,37 26,99 27,178
28,364 29,15 30,393 32,17
37,38 38,182 39,989 40,81
41,78 42,13 46,33 50,594
51,1008 52,246 53,80 54,142
55,31 56,14 58,207 61,75
62,342 63,956 64,286 65,568
66,55 67,13 70,183 73,31
74,207 75,243 76,223 77,403
78,425 79,65 80,15 83,115
84,546 85,31 86,132 87,207
88,191 89,849 90,271 91,122
92,136 93,19 98,48 99,39
100,36 101,92 102,200 103,92
104,42 105,19 106,88 107,200
108,17 109,13 110,24 111,26
113,224 114,242 115,1216 116,226
117,116 118,23 120,9 125,25
126,107 127,233 128,364 129,190
130,77 131,25 136,31 137,52
139,1663 140,928 141,660 142,117
143,19 144,17 150,2 151,20
152,43 153,89 154,285 155,153
156,558 157,90 161,8 164,85
166,1711 167,7267 168,3847 169,439
170,36 179,55 180,43 181,29
182,51 183,125 184,634 185,89
186,11 197,455 198,132 199,15
214,9999 215,1369 216,147 217,9
##END=
