##TITLE=Diallyl isophthalate
##JCAMP-DX=4.24
##DATA TYPE=MASS SPECTRUM
##ORIGIN=L.N.Kulikova, V.G. Zaikin, RPFU, Moscow, Russia
##OWNER=NIST Mass Spectrometry Data Center
Collection (C) 2014 copyright by the U.S. Secretary of Commerce
on behalf of the United States of America. All rights reserved.
##CAS REGISTRY NO=1087-21-4
##$NIST MASS SPEC NO=345655
##MOLFORM=C14 H14 O4
##MW=246
##$NIST SOURCE=MSDC
##XUNITS=M/Z
##YUNITS=RELATIVE INTENSITY
##XFACTOR=1
##YFACTOR=1
##FIRSTX=39
##LASTX=247
##FIRSTY=120
##MAXX=247
##MINX=39
##MAXY=9999
##MINY=10
##NPOINTS=32
##PEAK TABLE=(XY..XY)
39,120 41,310 50,60 51,20
57,30 65,40 66,30 74,10
75,70 76,280 77,60 91,130
97,20 103,130 104,230 105,80
115,430 116,110 117,140 119,20
121,40 133,50 143,30 149,290
150,20 161,10 187,20 189,9999
190,1141 191,120 246,561 247,90
##END=
