##TITLE=Benzene, 1,1'-(1,6-hexanediyl)bis-
##JCAMP-DX=4.24
##DATA TYPE=MASS SPECTRUM
##ORIGIN=Div. of Experiment Therapeutics WRAIR, WRAMC, Washington DC 20307
##OWNER=NIST Mass Spectrometry Data Center
Collection (C) 2014 copyright by the U.S. Secretary of Commerce
on behalf of the United States of America. All rights reserved.
##CAS REGISTRY NO=1087-49-6
##$NIST MASS SPEC NO=212230
##MOLFORM=C18 H22
##MW=238
##$NIST SOURCE=MSDC
##XUNITS=M/Z
##YUNITS=RELATIVE INTENSITY
##XFACTOR=1
##YFACTOR=1
##FIRSTX=41
##LASTX=240
##FIRSTY=612
##MAXX=240
##MINX=41
##MAXY=9999
##MINY=4
##NPOINTS=97
##PEAK TABLE=(XY..XY)
41,612 42,39 43,100 49,12
50,93 51,385 52,111 53,105
54,25 55,121 56,23 57,44
62,32 63,207 64,74 65,1340
66,90 67,61 68,24 69,89
70,15 71,28 74,20 75,30
76,51 77,747 78,423 79,429
80,62 81,29 82,19 83,23
84,11 85,11 89,245 90,187
91,9999 92,6219 93,497 94,35
95,17 97,18 101,9 102,71
103,401 104,1127 105,1090 106,155
107,30 109,6 111,4 115,285
116,77 117,531 118,126 119,204
120,37 121,10 127,24 128,48
129,48 130,51 131,143 132,49
133,294 134,382 135,45 141,16
142,11 143,32 144,536 145,121
146,103 147,307 148,37 152,20
156,15 157,86 158,73 159,31
160,27 165,36 166,19 167,86
168,18 172,4 181,45 182,9
183,10 184,24 195,16 209,17
210,24 237,6 238,3801 239,762
240,70
##END=
