##TITLE=Nordazepam
##JCAMP-DX=4.24
##DATA TYPE=MASS SPECTRUM
##ORIGIN=Japan AIST/NIMC Database- Spectrum MS-IW- 105
##OWNER=NIST Mass Spectrometry Data Center
Collection (C) 2014 copyright by the U.S. Secretary of Commerce
on behalf of the United States of America. All rights reserved.
##CAS REGISTRY NO=1088-11-5
##$NIST MASS SPEC NO=239791
##MOLFORM=C15 H11 Cl N2 O
##MW=270
##$NIST SOURCE=MSDC
##XUNITS=M/Z
##YUNITS=RELATIVE INTENSITY
##XFACTOR=1
##YFACTOR=1
##FIRSTX=17
##LASTX=274
##FIRSTY=19
##MAXX=274
##MINX=17
##MAXY=9999
##MINY=10
##NPOINTS=189
##PEAK TABLE=(XY..XY)
17,19 18,69 27,40 28,159
30,20 36,50 37,10 38,40
39,119 40,10 41,20 42,10
43,20 49,10 50,129 51,389
52,90 53,10 55,10 56,10
57,10 61,30 62,129 63,389
64,70 65,129 66,20 68,30
69,40 70,10 73,50 74,129
75,519 76,869 77,869 78,109
79,40 80,30 81,159 82,149
83,20 85,20 86,60 87,90
88,209 89,789 90,379 91,339
92,40 93,80 94,60 95,119
96,40 97,20 98,70 99,99
100,90 101,80 102,429 103,1359
104,299 105,60 106,30 107,289
108,169 109,30 110,50 111,239
112,179 113,139 114,109 115,60
116,419 117,169 118,50 119,10
120,389 121,329 122,80 123,40
124,60 125,99 126,279 127,149
128,50 129,40 130,10 132,30
134,10 135,70 136,119 137,90
138,509 139,149 140,189 141,30
144,50 149,70 150,289 151,719
152,549 153,149 154,20 157,20
161,20 162,40 163,639 164,249
165,379 166,149 167,60 168,20
169,10 173,10 174,10 175,30
176,99 177,469 178,649 179,579
180,309 181,40 186,60 187,30
188,40 189,30 190,119 191,99
192,119 193,189 194,30 195,20
198,10 199,60 200,20 201,30
202,20 203,30 204,40 205,539
206,419 207,2059 208,389 209,40
211,10 212,30 213,229 214,939
215,229 216,359 217,70 218,20
219,20 220,10 224,40 225,10
226,60 227,70 228,159 229,40
230,50 231,10 233,60 234,609
235,2769 236,479 237,50 238,10
239,179 240,419 241,5409 242,9589
243,4129 244,3309 245,799 246,80
251,50 252,30 253,60 254,30
255,30 256,10 268,129 269,7779
270,9999 271,4189 272,3309 273,559
274,50
##END=
