##TITLE=Ethane, isocyanato-
##JCAMP-DX=4.24
##DATA TYPE=MASS SPECTRUM
##ORIGIN=Japan AIST/NIMC Database- Spectrum MS-NW-2722
##OWNER=NIST Mass Spectrometry Data Center
Collection (C) 2014 copyright by the U.S. Secretary of Commerce
on behalf of the United States of America. All rights reserved.
##CAS REGISTRY NO=109-90-0
##$NIST MASS SPEC NO=230495
##MOLFORM=C3 H5 N O
##MW=71
##$NIST SOURCE=MSDC
##XUNITS=M/Z
##YUNITS=RELATIVE INTENSITY
##XFACTOR=1
##YFACTOR=1
##FIRSTX=12
##LASTX=73
##FIRSTY=40
##MAXX=73
##MINX=12
##MAXY=9999
##MINY=10
##NPOINTS=34
##PEAK TABLE=(XY..XY)
12,40 13,50 14,169 15,869
16,20 18,30 24,10 25,50
26,429 27,1129 28,1879 29,349
30,10 36,10 38,169 39,219
40,549 41,419 42,879 43,1069
44,99 51,20 52,20 54,60
55,349 56,9999 57,269 58,20
68,10 69,10 70,619 71,6059
72,239 73,10
##END=
