##TITLE=Allylthiourea
##JCAMP-DX=4.24
##DATA TYPE=MASS SPECTRUM
##ORIGIN=NIST Mass Spectrometry Data Center, 1998.
##OWNER=NIST Mass Spectrometry Data Center
Collection (C) 2014 copyright by the U.S. Secretary of Commerce
on behalf of the United States of America. All rights reserved.
##CAS REGISTRY NO=109-57-9
##$NIST MASS SPEC NO=291138
##MOLFORM=C4 H8 N2 S
##MW=116
##$NIST SOURCE=MSDC
##XUNITS=M/Z
##YUNITS=RELATIVE INTENSITY
##XFACTOR=1
##YFACTOR=1
##FIRSTX=14
##LASTX=119
##FIRSTY=10
##MAXX=119
##MINX=14
##MAXY=9999
##MINY=10
##NPOINTS=74
##PEAK TABLE=(XY..XY)
14,10 15,50 25,10 26,210
27,510 28,2280 29,370 30,1480
31,30 32,210 33,150 34,70
35,10 36,10 37,150 38,350
39,2560 40,260 41,2810 42,550
43,4520 44,240 45,740 46,160
47,290 48,190 49,10 50,10
51,110 52,260 53,140 54,820
55,450 56,7109 57,2710 58,270
59,770 60,5039 61,710 62,260
63,20 64,10 66,70 67,60
68,10 69,80 70,60 71,200
72,330 73,210 74,430 75,90
76,50 77,10 81,80 82,80
83,760 84,40 86,50 87,10
88,40 89,10 98,110 99,50
101,9999 102,480 103,440 104,10
114,10 115,400 116,4900 117,310
118,230 119,10
##END=
