##TITLE=Propane, 1,3-dibromo-
##JCAMP-DX=4.24
##DATA TYPE=MASS SPECTRUM
##ORIGIN=Japan AIST/NIMC Database- Spectrum MS-NW- 842
##OWNER=NIST Mass Spectrometry Data Center
Collection (C) 2014 copyright by the U.S. Secretary of Commerce
on behalf of the United States of America. All rights reserved.
##CAS REGISTRY NO=109-64-8
##$NIST MASS SPEC NO=228964
##MOLFORM=C3 H6 Br2
##MW=200
##$NIST SOURCE=MSDC
##XUNITS=M/Z
##YUNITS=RELATIVE INTENSITY
##XFACTOR=1
##YFACTOR=1
##FIRSTX=13
##LASTX=205
##FIRSTY=10
##MAXX=205
##MINX=13
##MAXY=9999
##MINY=10
##NPOINTS=49
##PEAK TABLE=(XY..XY)
13,10 14,60 15,219 25,50
26,369 27,2089 28,319 29,10
32,80 36,60 37,259 38,499
39,2929 40,299 41,9999 42,429
79,239 80,169 81,239 82,159
91,10 92,50 93,819 94,80
95,789 96,20 100,10 104,10
105,70 106,50 107,549 108,40
109,479 117,20 119,90 120,199
121,5189 122,369 123,4959 124,159
172,20 174,40 176,10 200,1829
201,60 202,3539 203,109 204,1649
205,50
##END=
