##TITLE=Vinyl ether
##JCAMP-DX=4.24
##DATA TYPE=MASS SPECTRUM
##ORIGIN=NIST Mass Spectrometry Data Center, 1990.
##OWNER=NIST Mass Spectrometry Data Center
Collection (C) 2014 copyright by the U.S. Secretary of Commerce
on behalf of the United States of America. All rights reserved.
##CAS REGISTRY NO=109-93-3
##$NIST MASS SPEC NO=118711
##MOLFORM=C4 H6 O
##MW=70
##$NIST SOURCE=MSDC
##XUNITS=M/Z
##YUNITS=RELATIVE INTENSITY
##XFACTOR=1
##YFACTOR=1
##FIRSTX=12
##LASTX=72
##FIRSTY=101
##MAXX=72
##MINX=12
##MAXY=9999
##MINY=8
##NPOINTS=30
##PEAK TABLE=(XY..XY)
12,101 13,254 14,839 15,1718
16,63 18,8 24,71 25,439
26,2223 27,5737 28,311 29,1722
30,41 31,27 35,18 36,27
37,109 38,159 39,782 40,549
41,2630 42,6806 43,9999 44,3837
45,107 55,51 69,634 70,6862
71,300 72,24
##END=
