##TITLE=3-Pyridinol
##JCAMP-DX=4.24
##DATA TYPE=MASS SPECTRUM
##ORIGIN=W. KELLY UNILEVER RESEARCH COLWORTH/WELWYN, BEDFORD U.K.
##OWNER=NIST Mass Spectrometry Data Center
Collection (C) 2014 copyright by the U.S. Secretary of Commerce
on behalf of the United States of America. All rights reserved.
##CAS REGISTRY NO=109-00-2
##$NIST MASS SPEC NO=829
##MOLFORM=C5 H5 N O
##MW=95
##$NIST SOURCE=MSDC
##XUNITS=M/Z
##YUNITS=RELATIVE INTENSITY
##XFACTOR=1
##YFACTOR=1
##FIRSTX=26
##LASTX=96
##FIRSTY=140
##MAXX=96
##MINX=26
##MAXY=9999
##MINY=20
##NPOINTS=36
##PEAK TABLE=(XY..XY)
26,140 27,250 28,580 29,110
32,20 33,50 37,310 38,610
39,1800 40,960 41,770 42,390
47,110 49,80 50,210 51,220
52,120 53,110 54,50 55,450
56,30 57,20 63,30 64,50
65,60 66,430 67,740 68,950
69,120 75,40 76,60 77,80
78,50 94,350 95,9999 96,540
##END=
