##TITLE=Pyrazine, methyl-
##JCAMP-DX=4.24
##DATA TYPE=MASS SPECTRUM
##ORIGIN=Japan AIST/NIMC Database- Spectrum MS-NW-1147
##OWNER=NIST Mass Spectrometry Data Center
Collection (C) 2014 copyright by the U.S. Secretary of Commerce
on behalf of the United States of America. All rights reserved.
##CAS REGISTRY NO=109-08-0
##$NIST MASS SPEC NO=227744
##MOLFORM=C5 H6 N2
##MW=94
##$NIST SOURCE=MSDC
##XUNITS=M/Z
##YUNITS=RELATIVE INTENSITY
##XFACTOR=1
##YFACTOR=1
##FIRSTX=14
##LASTX=96
##FIRSTY=20
##MAXX=96
##MINX=14
##MAXY=9999
##MINY=10
##NPOINTS=42
##PEAK TABLE=(XY..XY)
14,20 15,129 17,10 18,20
25,40 26,1369 27,209 28,99
36,30 37,299 38,529 39,1399
40,1469 41,619 42,1049 43,40
44,20 46,60 47,20 50,20
51,239 52,479 53,1449 54,70
55,10 56,10 58,30 62,20
63,60 64,119 65,80 66,269
67,4689 68,249 77,10 79,80
80,10 92,20 93,169 94,9999
95,599 96,10
##END=
