##TITLE=Pyridine, 2-methyl-
##JCAMP-DX=4.24
##DATA TYPE=MASS SPECTRUM
##ORIGIN=NIST Mass Spectrometry Data Center, 1998.
##OWNER=NIST Mass Spectrometry Data Center
Collection (C) 2014 copyright by the U.S. Secretary of Commerce
on behalf of the United States of America. All rights reserved.
##CAS REGISTRY NO=109-06-8
##$NIST MASS SPEC NO=291568
##MOLFORM=C6 H7 N
##MW=93
##$NIST SOURCE=MSDC
##XUNITS=M/Z
##YUNITS=RELATIVE INTENSITY
##XFACTOR=1
##YFACTOR=1
##FIRSTX=14
##LASTX=95
##FIRSTY=10
##MAXX=95
##MINX=14
##MAXY=9999
##MINY=10
##NPOINTS=51
##PEAK TABLE=(XY..XY)
14,10 15,40 25,20 26,230
27,280 28,80 30,10 31,30
36,30 37,340 38,660 39,1840
40,660 41,310 42,210 43,10
44,10 46,110 48,20 49,170
50,1100 51,1830 52,960 53,520
54,230 55,10 60,50 61,280
62,460 63,890 64,470 65,2120
66,5209 67,1360 68,60 74,20
75,80 76,100 77,40 78,2060
79,130 86,10 87,20 88,20
89,10 90,20 91,150 92,2880
93,9999 94,840 95,30
##END=
