##TITLE=n-Propyl chloroformate
##JCAMP-DX=4.24
##DATA TYPE=MASS SPECTRUM
##ORIGIN=Japan AIST/NIMC Database- Spectrum MS-NW- 979
##OWNER=NIST Mass Spectrometry Data Center
Collection (C) 2014 copyright by the U.S. Secretary of Commerce
on behalf of the United States of America. All rights reserved.
##CAS REGISTRY NO=109-61-5
##$NIST MASS SPEC NO=230238
##MOLFORM=C4 H7 Cl O2
##MW=122
##$NIST SOURCE=MSDC
##XUNITS=M/Z
##YUNITS=RELATIVE INTENSITY
##XFACTOR=1
##YFACTOR=1
##FIRSTX=14
##LASTX=121
##FIRSTY=50
##MAXX=121
##MINX=14
##MAXY=9999
##MINY=10
##NPOINTS=41
##PEAK TABLE=(XY..XY)
14,50 15,209 16,20 18,20
25,30 26,359 27,2679 28,609
29,1169 30,219 31,649 32,20
35,149 36,249 37,99 38,169
39,899 40,359 41,3209 42,9999
43,7179 44,719 45,50 49,20
56,10 57,279 58,40 59,559
60,20 63,4859 64,70 65,1569
66,20 78,10 81,99 83,30
93,1529 94,80 95,509 96,20
121,10
##END=
