##TITLE=Oxacycloheptadecan-2-one
##JCAMP-DX=4.24
##DATA TYPE=MASS SPECTRUM
##OWNER=NIST Mass Spectrometry Data Center
Collection (C) 2014 copyright by the U.S. Secretary of Commerce
on behalf of the United States of America. All rights reserved.
##CAS REGISTRY NO=109-29-5
##$NIST MASS SPEC NO=12353
##MOLFORM=C16 H30 O2
##MW=254
##$NIST SOURCE=MSDC
##XUNITS=M/Z
##YUNITS=RELATIVE INTENSITY
##XFACTOR=1
##YFACTOR=1
##FIRSTX=15
##LASTX=255
##FIRSTY=20
##MAXX=255
##MINX=15
##MAXY=9999
##MINY=20
##NPOINTS=152
##PEAK TABLE=(XY..XY)
15,20 16,20 18,20 26,100
27,240 28,400 29,3403 30,40
31,200 39,1401 40,300 41,9148
42,2602 43,4844 44,100 45,240
51,20 52,20 53,701 54,1401
55,9999 56,3003 57,2702 58,601
59,400 60,841 61,400 63,20
65,100 66,200 67,2202 68,2302
69,5805 70,2202 71,1802 72,100
73,1501 74,140 77,100 78,20
79,340 80,400 81,2202 82,3403
83,4604 84,2702 85,741 86,140
87,540 88,40 91,140 92,20
93,200 94,400 95,1641 96,2903
97,3443 98,2602 99,400 100,400
101,601 102,140 105,20 107,200
108,240 109,1001 110,1601 111,1581
112,801 113,400 114,741 115,500
116,540 117,40 118,20 119,140
120,40 121,200 122,240 123,841
124,1101 125,841 126,400 127,500
128,100 129,641 130,100 131,20
133,140 134,140 135,240 136,200
137,601 138,801 139,540 140,200
141,200 142,100 143,200 144,40
147,140 148,140 149,160 150,100
151,440 152,701 153,340 154,140
155,200 156,40 157,100 158,100
161,100 162,20 163,40 164,100
165,340 166,400 167,200 168,20
169,100 171,140 172,200 173,40
175,40 176,20 177,20 179,200
180,140 181,100 182,100 183,40
185,200 186,100 187,40 189,20
192,400 193,200 194,801 195,200
197,20 207,140 208,240 209,20
211,200 218,140 224,20 225,20
236,1401 237,200 254,1001 255,140
##END=
