##TITLE=Ethanamine, N-ethyl-
##JCAMP-DX=4.24
##DATA TYPE=MASS SPECTRUM
##ORIGIN=Japan AIST/NIMC Database- Spectrum MS-NW-8271
##OWNER=NIST Mass Spectrometry Data Center
Collection (C) 2014 copyright by the U.S. Secretary of Commerce
on behalf of the United States of America. All rights reserved.
##CAS REGISTRY NO=109-89-7
##$NIST MASS SPEC NO=238501
##MOLFORM=C4 H11 N
##MW=73
##$NIST SOURCE=MSDC
##XUNITS=M/Z
##YUNITS=RELATIVE INTENSITY
##XFACTOR=1
##YFACTOR=1
##FIRSTX=14
##LASTX=74
##FIRSTY=30
##MAXX=74
##MINX=14
##MAXY=9999
##MINY=10
##NPOINTS=34
##PEAK TABLE=(XY..XY)
14,30 15,359 16,10 26,139
27,989 28,1379 29,1509 30,8589
31,139 32,10 33,10 34,10
38,10 39,40 40,90 41,239
42,829 43,209 44,2719 45,70
51,10 52,10 54,30 55,10
56,339 57,129 58,9999 59,369
68,10 70,40 71,20 72,1279
73,2199 74,169
##END=
