##TITLE=Propane, 1-(ethenyloxy)-2-methyl-
##JCAMP-DX=4.24
##DATA TYPE=MASS SPECTRUM
##ORIGIN=Japan AIST/NIMC Database- Spectrum MS-NW- 19
##OWNER=NIST Mass Spectrometry Data Center
Collection (C) 2014 copyright by the U.S. Secretary of Commerce
on behalf of the United States of America. All rights reserved.
##CAS REGISTRY NO=109-53-5
##$NIST MASS SPEC NO=229259
##MOLFORM=C6 H12 O
##MW=100
##$NIST SOURCE=MSDC
##XUNITS=M/Z
##YUNITS=RELATIVE INTENSITY
##XFACTOR=1
##YFACTOR=1
##FIRSTX=14
##LASTX=101
##FIRSTY=119
##MAXX=101
##MINX=14
##MAXY=9999
##MINY=10
##NPOINTS=45
##PEAK TABLE=(XY..XY)
14,119 15,559 18,20 26,349
27,2459 28,479 29,5709 30,129
31,1139 32,70 37,80 38,209
39,2309 40,329 41,9999 42,599
43,919 44,1849 45,479 50,90
51,109 52,30 53,219 54,60
55,1219 56,6979 57,9969 58,489
59,449 60,60 63,10 65,40
66,30 67,129 69,40 71,60
72,60 73,119 74,30 81,70
82,40 83,50 85,129 100,2089
101,169
##END=
