##TITLE=Methylal
##JCAMP-DX=4.24
##DATA TYPE=MASS SPECTRUM
##OWNER=NIST Mass Spectrometry Data Center
Collection (C) 2014 copyright by the U.S. Secretary of Commerce
on behalf of the United States of America. All rights reserved.
##CAS REGISTRY NO=109-87-5
##$NIST MASS SPEC NO=372
##MOLFORM=C3 H8 O2
##MW=76
##$NIST SOURCE=MSDC
##XUNITS=M/Z
##YUNITS=RELATIVE INTENSITY
##XFACTOR=1
##YFACTOR=1
##FIRSTX=12
##LASTX=77
##FIRSTY=90
##MAXX=77
##MINX=12
##MAXY=9999
##MINY=10
##NPOINTS=28
##PEAK TABLE=(XY..XY)
12,90 13,200 14,651 15,4114
16,130 17,90 18,10 26,10
27,20 28,230 29,4384 30,310
31,1171 32,60 33,20 37,10
40,10 41,10 42,30 43,80
44,220 45,9999 46,220 47,320
59,10 75,4374 76,140 77,20
##END=
