##TITLE=Morpholine, 4-methyl-
##JCAMP-DX=4.24
##DATA TYPE=MASS SPECTRUM
##OWNER=NIST Mass Spectrometry Data Center
Collection (C) 2014 copyright by the U.S. Secretary of Commerce
on behalf of the United States of America. All rights reserved.
##CAS REGISTRY NO=109-02-4
##$NIST MASS SPEC NO=1154
##MOLFORM=C5 H11 N O
##MW=101
##$NIST SOURCE=MSDC
##XUNITS=M/Z
##YUNITS=RELATIVE INTENSITY
##XFACTOR=1
##YFACTOR=1
##FIRSTX=12
##LASTX=103
##FIRSTY=10
##MAXX=103
##MINX=12
##MAXY=9999
##MINY=10
##NPOINTS=66
##PEAK TABLE=(XY..XY)
12,10 13,40 14,300 15,1922
16,40 17,20 18,130 19,10
25,20 26,350 27,1091 28,460
29,821 30,380 31,190 32,60
33,10 37,10 38,20 39,110
40,160 41,671 42,4894 43,9999
44,821 45,60 46,10 49,10
50,10 51,10 52,50 53,10
54,160 55,100 56,510 57,80
58,110 59,10 62,10 63,10
64,10 65,10 66,10 67,10
68,20 69,10 70,340 71,1641
72,160 73,20 74,10 77,10
78,10 79,10 82,10 83,10
84,10 85,10 86,40 87,10
98,10 99,10 100,510 101,2532
102,150 103,10
##END=
