##TITLE=Ethanol, 2-methoxy-
##JCAMP-DX=4.24
##DATA TYPE=MASS SPECTRUM
##ORIGIN=NIST Mass Spectrometry Data Center, 1998.
##OWNER=NIST Mass Spectrometry Data Center
Collection (C) 2014 copyright by the U.S. Secretary of Commerce
on behalf of the United States of America. All rights reserved.
##CAS REGISTRY NO=109-86-4
##$NIST MASS SPEC NO=290807
##MOLFORM=C3 H8 O2
##MW=76
##$NIST SOURCE=MSDC
##XUNITS=M/Z
##YUNITS=RELATIVE INTENSITY
##XFACTOR=1
##YFACTOR=1
##FIRSTX=13
##LASTX=77
##FIRSTY=10
##MAXX=77
##MINX=13
##MAXY=9999
##MINY=10
##NPOINTS=33
##PEAK TABLE=(XY..XY)
13,10 14,50 15,400 16,10
17,20 19,60 25,10 26,110
27,400 28,110 29,1970 30,170
31,1600 32,40 33,70 37,10
41,40 42,260 43,1080 44,230
45,9999 46,510 47,1150 48,30
56,10 57,20 58,620 59,50
60,20 61,10 75,20 76,750
77,30
##END=
