##TITLE=Decanedioic acid, dibutyl ester
##JCAMP-DX=4.24
##DATA TYPE=MASS SPECTRUM
##ORIGIN=NIST Mass Spectrometry Data Center
##OWNER=NIST Mass Spectrometry Data Center
Collection (C) 2014 copyright by the U.S. Secretary of Commerce
on behalf of the United States of America. All rights reserved.
##CAS REGISTRY NO=109-43-3
##$NIST MASS SPEC NO=352441
##MOLFORM=C18 H34 O4
##MW=314
##$NIST SOURCE=MSDC
##XUNITS=M/Z
##YUNITS=RELATIVE INTENSITY
##XFACTOR=1
##YFACTOR=1
##FIRSTX=15
##LASTX=316
##FIRSTY=10
##MAXX=316
##MINX=15
##MAXY=9999
##MINY=10
##NPOINTS=168
##PEAK TABLE=(XY..XY)
15,10 26,30 27,340 28,210
29,1231 30,40 31,60 39,510
40,110 41,3713 42,671 43,1091
44,70 45,160 46,10 47,10
50,10 51,20 52,20 53,230
54,310 55,4104 56,4274 57,3493
58,210 59,200 60,1031 61,330
62,10 65,40 66,30 67,530
68,320 69,1812 70,581 71,300
72,50 73,1041 74,120 75,20
77,30 78,20 79,310 80,180
81,771 82,250 83,1591 84,1401
85,210 86,70 87,510 88,50
89,20 91,90 92,20 93,400
94,180 95,751 96,540 97,2813
98,2762 99,330 100,90 101,971
102,80 103,20 104,30 105,50
106,50 107,280 108,40 109,220
110,340 111,781 112,330 113,120
114,70 115,320 116,160 117,110
118,10 119,310 120,200 121,1411
122,200 123,180 124,480 125,2893
126,260 127,80 128,40 129,480
130,250 131,140 132,10 133,10
135,10 136,20 137,360 138,2012
139,2342 140,290 141,90 142,70
143,2903 144,260 145,20 147,100
148,330 149,280 150,50 151,60
152,10 153,10 154,10 155,70
156,90 157,721 158,260 159,100
160,10 164,20 165,120 166,1641
167,500 168,100 169,120 170,20
171,90 172,30 182,10 183,70
185,7907 186,1131 187,130 188,10
194,10 196,20 197,20 198,130
199,1942 200,260 201,20 211,10
212,510 213,100 214,641 215,110
216,10 222,20 223,10 224,10
225,10 229,20 241,9999 242,1591
243,190 244,20 258,20 259,120
260,20 271,10 285,30 286,10
299,10 313,10 315,70 316,10
##END=
