##TITLE=n-Propyl acetate
##JCAMP-DX=4.24
##DATA TYPE=MASS SPECTRUM
##ORIGIN=Japan AIST/NIMC Database- Spectrum MS-NW-1063
##OWNER=NIST Mass Spectrometry Data Center
Collection (C) 2014 copyright by the U.S. Secretary of Commerce
on behalf of the United States of America. All rights reserved.
##CAS REGISTRY NO=109-60-4
##$NIST MASS SPEC NO=230707
##MOLFORM=C5 H10 O2
##MW=102
##$NIST SOURCE=MSDC
##XUNITS=M/Z
##YUNITS=RELATIVE INTENSITY
##XFACTOR=1
##YFACTOR=1
##FIRSTX=14
##LASTX=87
##FIRSTY=60
##MAXX=87
##MINX=14
##MAXY=9999
##MINY=10
##NPOINTS=30
##PEAK TABLE=(XY..XY)
14,60 15,459 17,10 18,70
26,80 27,639 28,139 29,169
30,30 31,479 32,20 37,10
38,30 39,269 40,70 41,689
42,789 43,9999 44,229 45,40
57,109 58,30 59,509 60,50
61,2679 62,60 72,129 73,1379
74,50 87,30
##END=
