##TITLE=Propanenitrile, 3-hydroxy-
##JCAMP-DX=4.24
##DATA TYPE=MASS SPECTRUM
##ORIGIN=NIST Mass Spectrometry Data Center, 1994
##OWNER=NIST Mass Spectrometry Data Center
Collection (C) 2014 copyright by the U.S. Secretary of Commerce
on behalf of the United States of America. All rights reserved.
##CAS REGISTRY NO=109-78-4
##$NIST MASS SPEC NO=134423
##MOLFORM=C3 H5 N O
##MW=71
##$NIST SOURCE=MSDC
##XUNITS=M/Z
##YUNITS=RELATIVE INTENSITY
##XFACTOR=1
##YFACTOR=1
##FIRSTX=12
##LASTX=72
##FIRSTY=113
##MAXX=72
##MINX=12
##MAXY=9999
##MINY=6
##NPOINTS=38
##PEAK TABLE=(XY..XY)
12,113 13,135 14,347 15,671
16,6 17,59 18,59 19,19
24,65 25,193 26,711 27,719
28,810 29,2040 30,6 31,9999
32,116 33,28 34,14 36,46
37,109 38,441 39,543 40,1094
41,7289 42,1140 43,281 44,50
50,80 51,418 52,472 53,88
54,80 66,11 67,61 68,76
70,18 72,14
##END=
