##TITLE=Piperazine, 1-methyl-
##JCAMP-DX=4.24
##DATA TYPE=MASS SPECTRUM
##ORIGIN=NIST Mass Spectrometry Data Center, 1994
##OWNER=NIST Mass Spectrometry Data Center
Collection (C) 2014 copyright by the U.S. Secretary of Commerce
on behalf of the United States of America. All rights reserved.
##CAS REGISTRY NO=109-01-3
##$NIST MASS SPEC NO=134060
##MOLFORM=C5 H12 N2
##MW=100
##$NIST SOURCE=MSDC
##XUNITS=M/Z
##YUNITS=RELATIVE INTENSITY
##XFACTOR=1
##YFACTOR=1
##FIRSTX=12
##LASTX=101
##FIRSTY=12
##MAXX=101
##MINX=12
##MAXY=9999
##MINY=11
##NPOINTS=51
##PEAK TABLE=(XY..XY)
12,12 13,43 14,271 15,1807
16,22 17,11 26,452 27,1387
28,3860 29,1874 30,1602 31,49
37,16 38,61 39,177 40,386
41,1285 42,5733 43,4723 44,1567
45,161 48,32 49,54 50,13
51,36 52,104 53,13 54,393
55,13 56,2329 57,1422 58,9999
59,363 66,14 67,21 68,70
69,103 70,466 71,237 72,33
73,29 81,68 82,39 83,149
84,68 85,43 95,16 97,59
98,56 100,3136 101,214
##END=
