##TITLE=1,2-Ethanediamine, N-methyl-
##JCAMP-DX=4.24
##DATA TYPE=MASS SPECTRUM
##ORIGIN=Japan AIST/NIMC Database- Spectrum MS-NW-5025
##OWNER=NIST Mass Spectrometry Data Center
Collection (C) 2014 copyright by the U.S. Secretary of Commerce
on behalf of the United States of America. All rights reserved.
##CAS REGISTRY NO=109-81-9
##$NIST MASS SPEC NO=230163
##MOLFORM=C3 H10 N2
##MW=74
##$NIST SOURCE=MSDC
##XUNITS=M/Z
##YUNITS=RELATIVE INTENSITY
##XFACTOR=1
##YFACTOR=1
##FIRSTX=13
##LASTX=75
##FIRSTY=20
##MAXX=75
##MINX=13
##MAXY=9999
##MINY=10
##NPOINTS=37
##PEAK TABLE=(XY..XY)
13,20 14,60 15,369 16,40
17,90 18,20 24,10 25,60
27,309 28,1059 29,219 30,1879
31,159 32,10 35,10 36,20
38,30 39,40 40,159 41,289
42,1149 43,589 44,9999 45,479
46,10 50,10 51,20 53,20
54,40 55,80 56,129 57,159
58,70 59,10 73,20 74,549
75,20
##END=
