##TITLE=Geranyl isovalerate
##JCAMP-DX=4.24
##DATA TYPE=MASS SPECTRUM
##ORIGIN=NIST Mass Spectrometry Data Center
##OWNER=NIST Mass Spectrometry Data Center
Collection (C) 2014 copyright by the U.S. Secretary of Commerce
on behalf of the United States of America. All rights reserved.
##CAS REGISTRY NO=109-20-6
##$NIST MASS SPEC NO=413709
##MOLFORM=C15 H26 O2
##MW=238
##$NIST SOURCE=MSDC
##XUNITS=M/Z
##YUNITS=RELATIVE INTENSITY
##XFACTOR=1
##YFACTOR=1
##FIRSTX=27
##LASTX=169
##FIRSTY=330
##MAXX=169
##MINX=27
##MAXY=9999
##MINY=50
##NPOINTS=50
##PEAK TABLE=(XY..XY)
27,330 29,330 39,480 40,240
41,4344 42,240 43,811 44,120
51,170 52,110 53,811 55,550
56,110 57,3363 58,150 60,50
63,70 65,170 67,1341 68,4254
69,9999 70,781 77,340 78,70
79,611 80,1421 81,781 82,90
84,200 85,3133 86,170 91,220
92,721 93,3523 94,731 95,330
97,180 105,190 107,801 108,250
111,80 119,130 121,2762 122,400
123,330 136,1451 137,220 138,90
154,200 169,100
##END=
