##TITLE=2H-1,3-Oxazine, 2-(4-chlorophenyl)tetrahydro-
##JCAMP-DX=4.24
##DATA TYPE=MASS SPECTRUM
##ORIGIN=P. Vainiotalo, Dep. Chem., Univ. Joensuu, Joensuu, Finland
##OWNER=NIST Mass Spectrometry Data Center
Collection (C) 2014 copyright by the U.S. Secretary of Commerce
on behalf of the United States of America. All rights reserved.
##CAS REGISTRY NO=109086-75-1
##$NIST MASS SPEC NO=115967
##MOLFORM=C10 H12 Cl N O
##MW=197
##$NIST SOURCE=MSDC
##XUNITS=M/Z
##YUNITS=RELATIVE INTENSITY
##XFACTOR=1
##YFACTOR=1
##FIRSTX=14
##LASTX=201
##FIRSTY=120
##MAXX=201
##MINX=14
##MAXY=9999
##MINY=70
##NPOINTS=100
##PEAK TABLE=(XY..XY)
14,120 15,410 26,340 27,1780
29,1280 30,2080 31,4300 36,380
37,120 38,330 39,1270 40,210
41,1930 42,980 43,450 44,370
45,90 49,170 50,1330 51,1500
52,300 54,400 55,150 56,510
57,330 58,880 59,390 61,170
62,480 63,1200 64,190 65,230
70,240 73,360 74,460 75,2140
76,810 77,1860 78,240 84,370
85,480 86,1950 87,260 88,140
89,2790 90,920 91,470 97,70
99,360 100,80 101,210 102,750
103,980 104,320 105,140 106,160
111,1860 112,620 113,720 114,240
115,130 116,220 117,1380 118,3070
119,320 123,160 124,350 125,8290
126,770 127,2700 128,270 130,180
131,110 132,670 133,100 137,300
138,4120 139,3420 140,2680 141,1230
142,460 143,80 151,400 152,9999
153,8660 154,4040 155,2810 156,280
162,110 164,80 166,1450 167,2450
168,730 169,830 170,90 197,1210
198,300 199,590 200,120 201,70
##END=
