##TITLE=Ethanethioic acid, S-(2-methoxyphenyl) ester
##JCAMP-DX=4.24
##DATA TYPE=MASS SPECTRUM
##ORIGIN=NIST Mass Spectrometry Data Center
##OWNER=NIST Mass Spectrometry Data Center
Collection (C) 2014 copyright by the U.S. Secretary of Commerce
on behalf of the United States of America. All rights reserved.
##CAS REGISTRY NO=109963-06-6
##$NIST MASS SPEC NO=352998
##MOLFORM=C9 H10 O2 S
##MW=182
##$NIST SOURCE=MSDC
##XUNITS=M/Z
##YUNITS=RELATIVE INTENSITY
##XFACTOR=1
##YFACTOR=1
##FIRSTX=14
##LASTX=185
##FIRSTY=30
##MAXX=185
##MINX=14
##MAXY=9999
##MINY=10
##NPOINTS=92
##PEAK TABLE=(XY..XY)
14,30 15,190 26,20 27,30
28,20 29,30 37,30 38,80
39,270 40,10 41,60 42,100
43,2422 44,60 45,440 46,20
47,40 48,20 49,20 50,140
51,260 52,150 53,180 54,10
55,30 57,40 58,60 59,50
60,10 61,40 62,100 63,280
64,100 65,871 66,110 67,100
68,20 69,661 70,470 71,110
72,30 73,20 74,60 75,40
76,30 77,510 78,170 79,100
80,20 81,90 82,110 83,60
84,40 85,50 91,10 92,100
93,380 94,100 95,581 96,601
97,1391 98,120 99,70 105,20
106,20 107,90 108,270 109,951
110,190 111,571 112,50 113,30
114,10 121,40 122,10 123,30
125,3974 126,310 127,200 128,10
137,180 138,70 140,9999 141,1141
142,661 143,50 151,10 166,10
182,1061 183,120 184,60 185,10
##END=
