##TITLE=2-Hexanone, 5-methyl-
##JCAMP-DX=4.24
##DATA TYPE=MASS SPECTRUM
##ORIGIN=CONTINENTAL OIL COMPANY, PONCA CITY, OKLAHOMA, USA
##OWNER=NIST Mass Spectrometry Data Center
Collection (C) 2014 copyright by the U.S. Secretary of Commerce
on behalf of the United States of America. All rights reserved.
##CAS REGISTRY NO=110-12-3
##$NIST MASS SPEC NO=69041
##MOLFORM=C7 H14 O
##MW=114
##$NIST SOURCE=MSDC
##XUNITS=M/Z
##YUNITS=RELATIVE INTENSITY
##XFACTOR=1
##YFACTOR=1
##FIRSTX=13
##LASTX=116
##FIRSTY=32
##MAXX=116
##MINX=13
##MAXY=9999
##MINY=1
##NPOINTS=69
##PEAK TABLE=(XY..XY)
13,32 14,203 15,1262 16,35
17,32 18,99 25,9 26,178
27,1440 28,475 29,753 30,25
31,51 32,42 36,1 37,38
38,96 39,929 40,141 41,1281
42,400 43,9999 44,260 45,96
48,6 49,8 50,51 51,76
52,28 53,138 54,43 55,395
56,291 57,1112 58,3381 59,765
60,52 61,2 62,5 63,11
64,1 65,12 66,1 67,26
68,1 69,36 70,38 71,824
72,90 73,25 77,9 79,12
80,2 81,274 82,21 83,10
84,2 85,68 86,53 95,9
96,1 97,9 98,1 99,124
100,9 113,9 114,206 115,19
116,1
##END=
