##TITLE=Diethyl disulfide
##JCAMP-DX=4.24
##DATA TYPE=MASS SPECTRUM
##ORIGIN=Japan AIST/NIMC Database- Spectrum MS-NW-3100
##OWNER=NIST Mass Spectrometry Data Center
Collection (C) 2014 copyright by the U.S. Secretary of Commerce
on behalf of the United States of America. All rights reserved.
##CAS REGISTRY NO=110-81-6
##$NIST MASS SPEC NO=230585
##MOLFORM=C4 H10 S2
##MW=122
##$NIST SOURCE=MSDC
##XUNITS=M/Z
##YUNITS=RELATIVE INTENSITY
##XFACTOR=1
##YFACTOR=1
##FIRSTX=14
##LASTX=126
##FIRSTY=20
##MAXX=126
##MINX=14
##MAXY=9999
##MINY=10
##NPOINTS=69
##PEAK TABLE=(XY..XY)
14,20 15,50 17,10 18,70
25,40 26,449 27,3159 28,619
29,6849 30,149 32,119 33,60
34,119 35,559 36,10 37,20
39,10 41,40 43,20 44,90
45,859 46,299 47,289 48,20
49,10 55,20 56,10 57,119
58,379 59,969 60,1099 61,849
62,299 63,50 64,639 65,249
66,8089 67,159 68,729 70,20
75,50 76,159 77,10 78,50
79,839 80,30 81,70 89,109
90,20 91,10 92,20 93,519
94,6399 95,289 96,559 97,20
98,10 107,90 108,20 109,10
110,20 117,10 119,10 121,10
122,9999 123,609 124,899 125,50
126,20
##END=
