##TITLE=Pentanal
##JCAMP-DX=4.24
##DATA TYPE=MASS SPECTRUM
##OWNER=NIST Mass Spectrometry Data Center
Collection (C) 2014 copyright by the U.S. Secretary of Commerce
on behalf of the United States of America. All rights reserved.
##CAS REGISTRY NO=110-62-3
##$NIST MASS SPEC NO=571
##MOLFORM=C5 H10 O
##MW=86
##$NIST SOURCE=MSDC
##XUNITS=M/Z
##YUNITS=RELATIVE INTENSITY
##XFACTOR=1
##YFACTOR=1
##FIRSTX=27
##LASTX=87
##FIRSTY=1892
##MAXX=87
##MINX=27
##MAXY=9999
##MINY=40
##NPOINTS=24
##PEAK TABLE=(XY..XY)
27,1892 28,761 29,4094 31,190
39,1101 40,150 41,3073 42,1101
43,2582 44,9999 45,1021 54,80
55,761 56,270 57,3033 58,4854
67,190 68,110 69,230 70,110
71,450 85,190 86,571 87,40
##END=
