##TITLE=Formic acid, propyl ester
##JCAMP-DX=4.24
##DATA TYPE=MASS SPECTRUM
##ORIGIN=Japan AIST/NIMC Database- Spectrum MS-NW- 35
##OWNER=NIST Mass Spectrometry Data Center
Collection (C) 2014 copyright by the U.S. Secretary of Commerce
on behalf of the United States of America. All rights reserved.
##CAS REGISTRY NO=110-74-7
##$NIST MASS SPEC NO=228296
##MOLFORM=C4 H8 O2
##MW=88
##$NIST SOURCE=MSDC
##XUNITS=M/Z
##YUNITS=RELATIVE INTENSITY
##XFACTOR=1
##YFACTOR=1
##FIRSTX=14
##LASTX=88
##FIRSTY=40
##MAXX=88
##MINX=14
##MAXY=9999
##MINY=10
##NPOINTS=35
##PEAK TABLE=(XY..XY)
14,40 15,189 25,20 26,279
27,1749 28,729 29,1009 30,179
31,9999 32,199 33,70 37,70
38,129 39,769 40,279 41,2209
42,8489 43,1039 44,50 45,759
46,20 47,909 55,30 56,129
57,499 58,139 59,769 60,269
61,40 69,10 71,20 73,189
85,10 87,20 88,50
##END=
