##TITLE=Propane, 1-isocyanato-
##JCAMP-DX=4.24
##DATA TYPE=MASS SPECTRUM
##ORIGIN=Japan AIST/NIMC Database- Spectrum MS-NW-3094
##OWNER=NIST Mass Spectrometry Data Center
Collection (C) 2014 copyright by the U.S. Secretary of Commerce
on behalf of the United States of America. All rights reserved.
##CAS REGISTRY NO=110-78-1
##$NIST MASS SPEC NO=230583
##MOLFORM=C4 H7 N O
##MW=85
##$NIST SOURCE=MSDC
##XUNITS=M/Z
##YUNITS=RELATIVE INTENSITY
##XFACTOR=1
##YFACTOR=1
##FIRSTX=12
##LASTX=86
##FIRSTY=10
##MAXX=86
##MINX=12
##MAXY=9999
##MINY=10
##NPOINTS=40
##PEAK TABLE=(XY..XY)
12,10 13,20 14,60 15,379
18,10 24,10 25,50 26,499
27,2169 28,1759 29,3309 30,2899
31,40 32,40 36,10 37,70
38,139 39,559 40,319 41,1079
42,2849 43,289 44,40 50,10
51,70 52,90 53,20 54,129
55,199 56,9999 57,2329 58,179
68,10 70,149 71,10 82,20
83,10 84,2609 85,879 86,50
##END=
