##TITLE=Hexanedioic acid, dihexyl ester
##JCAMP-DX=4.24
##DATA TYPE=MASS SPECTRUM
##ORIGIN=V.G. Zaikin, R.S.Borisov, TIPS RAS, Moscow, Russia
##OWNER=NIST Mass Spectrometry Data Center
Collection (C) 2014 copyright by the U.S. Secretary of Commerce
on behalf of the United States of America. All rights reserved.
##CAS REGISTRY NO=110-33-8
##$NIST MASS SPEC NO=324112
##MOLFORM=C18 H34 O4
##MW=314
##$NIST SOURCE=MSDC
##XUNITS=M/Z
##YUNITS=RELATIVE INTENSITY
##XFACTOR=1
##YFACTOR=1
##FIRSTX=27
##LASTX=315
##FIRSTY=190
##MAXX=315
##MINX=27
##MAXY=9999
##MINY=10
##NPOINTS=64
##PEAK TABLE=(XY..XY)
27,190 29,380 31,10 39,100
40,20 41,911 42,360 43,3183
44,50 53,40 54,100 55,1381
56,1091 57,420 58,30 59,180
60,50 61,240 67,70 68,70
69,380 73,300 74,20 82,80
83,621 84,891 85,901 86,90
87,2162 88,90 99,90 100,1181
101,1591 102,330 103,120 110,80
111,2512 112,420 113,50 126,20
127,60 128,260 129,9999 130,701
131,70 145,30 157,70 170,50
171,1692 172,180 184,1531 185,220
186,100 212,90 213,8788 214,1181
215,110 231,480 232,50 257,20
258,10 271,60 314,20 315,30
##END=
