##TITLE=1,2-Ethanediamine, N-ethyl-
##JCAMP-DX=4.24
##DATA TYPE=MASS SPECTRUM
##ORIGIN=Japan AIST/NIMC Database- Spectrum MS-NW-5119
##OWNER=NIST Mass Spectrometry Data Center
Collection (C) 2014 copyright by the U.S. Secretary of Commerce
on behalf of the United States of America. All rights reserved.
##CAS REGISTRY NO=110-72-5
##$NIST MASS SPEC NO=230476
##MOLFORM=C4 H12 N2
##MW=88
##$NIST SOURCE=MSDC
##XUNITS=M/Z
##YUNITS=RELATIVE INTENSITY
##XFACTOR=1
##YFACTOR=1
##FIRSTX=14
##LASTX=89
##FIRSTY=30
##MAXX=89
##MINX=14
##MAXY=9999
##MINY=10
##NPOINTS=45
##PEAK TABLE=(XY..XY)
14,30 15,259 16,20 26,90
27,479 28,879 29,829 30,7889
31,129 32,20 36,30 38,10
39,30 40,80 41,229 42,609
43,279 44,1319 45,80 46,10
47,10 52,10 53,10 54,50
55,40 56,309 57,139 58,9999
59,459 67,10 68,20 69,30
70,50 71,90 72,10 73,30
78,30 80,40 81,10 82,20
84,20 85,10 86,10 88,279
89,20
##END=
