##TITLE=2-Ethoxyethylamine
##JCAMP-DX=4.24
##DATA TYPE=MASS SPECTRUM
##ORIGIN=Japan AIST/NIMC Database- Spectrum MS-NW-3096
##OWNER=NIST Mass Spectrometry Data Center
Collection (C) 2014 copyright by the U.S. Secretary of Commerce
on behalf of the United States of America. All rights reserved.
##CAS REGISTRY NO=110-76-9
##$NIST MASS SPEC NO=230584
##MOLFORM=C4 H11 N O
##MW=89
##$NIST SOURCE=MSDC
##XUNITS=M/Z
##YUNITS=RELATIVE INTENSITY
##XFACTOR=1
##YFACTOR=1
##FIRSTX=14
##LASTX=88
##FIRSTY=30
##MAXX=88
##MINX=14
##MAXY=9999
##MINY=10
##NPOINTS=26
##PEAK TABLE=(XY..XY)
14,30 15,209 17,30 18,109
26,70 27,449 28,439 29,619
30,9999 31,1049 32,30 33,20
40,30 41,119 42,519 43,219
44,729 45,2319 46,60 56,20
58,50 59,149 60,129 72,20
73,10 88,10
##END=
