##TITLE=1,2-Ethanediamine, N,N'-dimethyl-
##JCAMP-DX=4.24
##DATA TYPE=MASS SPECTRUM
##ORIGIN=Japan AIST/NIMC Database- Spectrum MS-NW-2645
##OWNER=NIST Mass Spectrometry Data Center
Collection (C) 2014 copyright by the U.S. Secretary of Commerce
on behalf of the United States of America. All rights reserved.
##CAS REGISTRY NO=110-70-3
##$NIST MASS SPEC NO=230478
##MOLFORM=C4 H12 N2
##MW=88
##$NIST SOURCE=MSDC
##XUNITS=M/Z
##YUNITS=RELATIVE INTENSITY
##XFACTOR=1
##YFACTOR=1
##FIRSTX=14
##LASTX=89
##FIRSTY=20
##MAXX=89
##MINX=14
##MAXY=9999
##MINY=10
##NPOINTS=28
##PEAK TABLE=(XY..XY)
14,20 15,219 26,20 27,109
28,559 29,129 30,499 31,70
32,20 39,10 40,30 41,109
42,479 43,229 44,9999 45,549
46,50 54,30 55,50 56,219
57,309 58,1059 59,40 71,20
72,20 87,10 88,349 89,20
##END=
