##TITLE=Ethanol, 2-methoxy-, acetate
##JCAMP-DX=4.24
##DATA TYPE=MASS SPECTRUM
##ORIGIN=NIST Mass Spectrometry Data Center, 2007
##OWNER=NIST Mass Spectrometry Data Center
Collection (C) 2014 copyright by the U.S. Secretary of Commerce
on behalf of the United States of America. All rights reserved.
##CAS REGISTRY NO=110-49-6
##$NIST MASS SPEC NO=351952
##MOLFORM=C5 H10 O3
##MW=118
##$NIST SOURCE=MSDC
##XUNITS=M/Z
##YUNITS=RELATIVE INTENSITY
##XFACTOR=1
##YFACTOR=1
##FIRSTX=14
##LASTX=89
##FIRSTY=100
##MAXX=89
##MINX=14
##MAXY=9999
##MINY=10
##NPOINTS=37
##PEAK TABLE=(XY..XY)
14,100 15,871 16,20 17,10
19,10 25,10 26,120 27,290
28,430 29,1261 30,120 31,410
32,10 33,20 39,10 40,10
41,70 42,510 43,9999 44,310
45,5265 46,120 47,20 58,5305
59,320 60,30 61,110 70,60
72,20 73,470 74,30 75,90
76,10 86,10 87,40 88,230
89,10
##END=
