##TITLE=2H-Pyran, 3,4-dihydro-
##JCAMP-DX=4.24
##DATA TYPE=MASS SPECTRUM
##ORIGIN=NIST Mass Spectrometry Data Center, 1990.
##OWNER=NIST Mass Spectrometry Data Center
Collection (C) 2014 copyright by the U.S. Secretary of Commerce
on behalf of the United States of America. All rights reserved.
##CAS REGISTRY NO=110-87-2
##$NIST MASS SPEC NO=113097
##MOLFORM=C5 H8 O
##MW=84
##$NIST SOURCE=MSDC
##XUNITS=M/Z
##YUNITS=RELATIVE INTENSITY
##XFACTOR=1
##YFACTOR=1
##FIRSTX=14
##LASTX=85
##FIRSTY=161
##MAXX=85
##MINX=14
##MAXY=9999
##MINY=38
##NPOINTS=34
##PEAK TABLE=(XY..XY)
14,161 15,252 16,38 26,1618
27,4786 28,3914 29,3948 30,140
31,263 37,324 38,583 39,3467
40,484 41,2450 42,424 43,533
44,151 49,213 50,743 51,857
52,360 53,1520 54,2650 55,9999
56,3248 57,843 65,130 66,137
68,83 69,1127 81,157 83,2643
84,5108 85,275
##END=
