##TITLE=2-Propanol, 1,1'-oxybis-
##JCAMP-DX=4.24
##DATA TYPE=MASS SPECTRUM
##OWNER=NIST Mass Spectrometry Data Center
Collection (C) 2014 copyright by the U.S. Secretary of Commerce
on behalf of the United States of America. All rights reserved.
##CAS REGISTRY NO=110-98-5
##$NIST MASS SPEC NO=20943
##MOLFORM=C6 H14 O3
##MW=134
##$NIST SOURCE=MSDC
##XUNITS=M/Z
##YUNITS=RELATIVE INTENSITY
##XFACTOR=1
##YFACTOR=1
##FIRSTX=14
##LASTX=119
##FIRSTY=40
##MAXX=119
##MINX=14
##MAXY=9999
##MINY=10
##NPOINTS=81
##PEAK TABLE=(XY..XY)
14,40 15,430 16,20 17,30
18,130 19,240 26,50 27,601
28,280 29,951 30,60 31,3883
32,70 33,20 36,10 37,10
38,30 39,410 40,130 41,2092
42,5715 43,2472 44,410 45,9999
46,310 47,1611 48,40 49,40
50,10 51,10 52,20 53,10
54,10 55,170 56,20 57,841
58,460 59,6126 60,250 61,140
62,10 63,70 65,10 66,10
67,10 69,10 70,10 71,510
72,540 73,190 74,20 75,100
76,10 77,10 79,10 81,10
82,10 83,60 84,10 85,10
86,10 87,20 88,10 89,6176
90,430 91,70 92,10 94,10
95,10 97,10 101,190 102,10
103,100 104,10 105,10 107,10
115,20 116,10 117,20 118,10
119,20
##END=
