##TITLE=Isoamyl nitrite
##JCAMP-DX=4.24
##DATA TYPE=MASS SPECTRUM
##ORIGIN=NIST Mass Spectrometry Data Center, 1998.
##OWNER=NIST Mass Spectrometry Data Center
Collection (C) 2014 copyright by the U.S. Secretary of Commerce
on behalf of the United States of America. All rights reserved.
##CAS REGISTRY NO=110-46-3
##$NIST MASS SPEC NO=291322
##MOLFORM=C5 H11 N O2
##MW=117
##$NIST SOURCE=MSDC
##XUNITS=M/Z
##YUNITS=RELATIVE INTENSITY
##XFACTOR=1
##YFACTOR=1
##FIRSTX=14
##LASTX=87
##FIRSTY=20
##MAXX=87
##MINX=14
##MAXY=9999
##MINY=10
##NPOINTS=49
##PEAK TABLE=(XY..XY)
14,20 15,100 16,10 26,120
27,1460 28,50 29,4650 30,2580
31,360 32,10 37,70 38,210
39,2590 40,390 41,9999 42,1430
43,3950 44,480 45,390 46,50
47,10 49,20 50,120 51,140
52,40 53,270 54,60 55,1220
56,430 57,5939 58,380 59,10
60,5119 61,80 62,30 63,10
65,10 67,40 68,20 69,430
70,240 71,1770 72,190 73,10
74,10 78,10 85,80 86,100
87,10
##END=
