##TITLE=2,5-Hexanedione
##JCAMP-DX=4.24
##DATA TYPE=MASS SPECTRUM
##ORIGIN=Japan AIST/NIMC Database- Spectrum MS-NW-1214
##OWNER=NIST Mass Spectrometry Data Center
Collection (C) 2014 copyright by the U.S. Secretary of Commerce
on behalf of the United States of America. All rights reserved.
##CAS REGISTRY NO=110-13-4
##$NIST MASS SPEC NO=230753
##MOLFORM=C6 H10 O2
##MW=114
##$NIST SOURCE=MSDC
##XUNITS=M/Z
##YUNITS=RELATIVE INTENSITY
##XFACTOR=1
##YFACTOR=1
##FIRSTX=14
##LASTX=115
##FIRSTY=80
##MAXX=115
##MINX=14
##MAXY=9999
##MINY=10
##NPOINTS=48
##PEAK TABLE=(XY..XY)
14,80 15,639 16,10 18,20
26,90 27,379 28,169 29,90
31,30 32,20 37,20 38,40
39,159 40,20 41,159 42,309
43,9999 44,249 45,119 50,30
51,30 52,10 53,99 54,50
55,99 56,30 57,539 58,50
59,10 60,90 61,10 67,20
69,10 70,10 71,1169 72,269
73,20 81,40 83,30 95,20
96,20 97,10 98,30 99,2209
100,119 101,20 114,519 115,40
##END=
