##TITLE=Butanal, oxime
##JCAMP-DX=4.24
##DATA TYPE=MASS SPECTRUM
##ORIGIN=NIST Mass Spectrometry Data Center, 1992
##OWNER=NIST Mass Spectrometry Data Center
Collection (C) 2014 copyright by the U.S. Secretary of Commerce
on behalf of the United States of America. All rights reserved.
##CAS REGISTRY NO=110-69-0
##$NIST MASS SPEC NO=125450
##MOLFORM=C4 H9 N O
##MW=87
##$NIST SOURCE=MSDC
##XUNITS=M/Z
##YUNITS=RELATIVE INTENSITY
##XFACTOR=1
##YFACTOR=1
##FIRSTX=12
##LASTX=88
##FIRSTY=32
##MAXX=88
##MINX=12
##MAXY=9999
##MINY=21
##NPOINTS=60
##PEAK TABLE=(XY..XY)
12,32 13,43 14,356 15,1064
16,310 17,174 18,849 19,197
25,186 26,1382 27,5738 28,3294
29,4297 30,489 31,483 32,67
33,42 36,57 37,485 38,780
39,3103 40,1462 41,8956 42,4627
43,1606 44,1386 45,497 46,1188
47,42 48,25 49,59 50,149
51,261 52,278 53,170 54,499
55,888 56,184 57,70 58,25
59,9999 60,271 61,27 62,26
63,51 64,97 65,27 66,73
67,28 68,128 69,97 70,335
71,26 72,2229 73,77 74,21
84,21 86,102 87,483 88,44
##END=
