##TITLE=5-Hepten-2-one, 6-methyl-
##JCAMP-DX=4.24
##DATA TYPE=MASS SPECTRUM
##OWNER=NIST Mass Spectrometry Data Center
Collection (C) 2014 copyright by the U.S. Secretary of Commerce
on behalf of the United States of America. All rights reserved.
##CAS REGISTRY NO=110-93-0
##$NIST MASS SPEC NO=20620
##MOLFORM=C8 H14 O
##MW=126
##$NIST SOURCE=MSDC
##XUNITS=M/Z
##YUNITS=RELATIVE INTENSITY
##XFACTOR=1
##YFACTOR=1
##FIRSTX=15
##LASTX=127
##FIRSTY=390
##MAXX=127
##MINX=15
##MAXY=9999
##MINY=50
##NPOINTS=48
##PEAK TABLE=(XY..XY)
15,390 26,90 27,1001 28,220
29,591 31,50 38,80 39,1301
40,290 41,4604 42,410 43,9999
44,250 45,130 50,90 51,210
52,110 53,671 54,100 55,3303
56,761 57,140 58,1712 59,150
65,140 66,90 67,1181 68,1531
69,3413 70,230 71,1291 72,70
77,180 79,120 81,150 82,170
83,891 84,120 91,80 93,771
94,70 97,90 108,2762 109,270
111,1651 112,110 126,1001 127,90
##END=
