##TITLE=1,2-Hydrazinedicarboxamide
##JCAMP-DX=4.24
##DATA TYPE=MASS SPECTRUM
##ORIGIN=Japan AIST/NIMC Database- Spectrum MS-NW- 263
##OWNER=NIST Mass Spectrometry Data Center
Collection (C) 2014 copyright by the U.S. Secretary of Commerce
on behalf of the United States of America. All rights reserved.
##CAS REGISTRY NO=110-21-4
##$NIST MASS SPEC NO=228079
##MOLFORM=C2 H6 N4 O2
##MW=118
##$NIST SOURCE=MSDC
##XUNITS=M/Z
##YUNITS=RELATIVE INTENSITY
##XFACTOR=1
##YFACTOR=1
##FIRSTX=12
##LASTX=118
##FIRSTY=20
##MAXX=118
##MINX=12
##MAXY=9999
##MINY=10
##NPOINTS=57
##PEAK TABLE=(XY..XY)
12,20 13,10 14,20 15,99
16,519 17,639 18,229 26,50
27,119 28,339 29,699 30,389
31,2989 32,9999 33,70 39,20
41,90 42,459 43,2199 44,5399
45,229 46,10 54,20 55,80
56,30 57,70 58,189 59,40
60,80 64,20 67,30 68,20
69,60 70,30 71,30 73,30
74,10 75,2639 76,60 77,20
79,10 81,40 82,20 83,40
84,20 85,20 90,20 91,10
95,30 96,20 97,40 98,40
100,20 101,1639 102,60 116,40
118,60
##END=
