##TITLE=1-Pentanethiol
##JCAMP-DX=4.24
##DATA TYPE=MASS SPECTRUM
##OWNER=NIST Mass Spectrometry Data Center
Collection (C) 2014 copyright by the U.S. Secretary of Commerce
on behalf of the United States of America. All rights reserved.
##CAS REGISTRY NO=110-66-7
##$NIST MASS SPEC NO=1288
##MOLFORM=C5 H12 S
##MW=104
##$NIST SOURCE=MSDC
##XUNITS=M/Z
##YUNITS=RELATIVE INTENSITY
##XFACTOR=1
##YFACTOR=1
##FIRSTX=15
##LASTX=107
##FIRSTY=420
##MAXX=107
##MINX=15
##MAXY=9999
##MINY=10
##NPOINTS=73
##PEAK TABLE=(XY..XY)
15,420 16,10 25,20 26,420
27,3733 28,701 29,3453 30,80
31,10 32,80 33,200 34,210
35,460 36,30 37,110 38,210
39,2062 40,350 41,4304 42,9999
43,2532 44,80 45,1211 46,631
47,2833 48,270 49,180 50,90
51,110 52,30 53,200 54,100
55,4884 56,360 57,430 58,260
59,300 60,250 61,1491 62,290
63,90 64,20 65,20 66,20
67,50 68,30 69,260 70,4294
71,410 72,20 73,50 74,30
75,70 76,40 77,10 81,10
82,10 83,10 84,10 85,10
87,10 89,20 90,10 93,10
94,10 97,10 101,10 102,10
103,40 104,3853 105,250 106,170
107,10
##END=
