##TITLE=Ethanol, 2-(ethylamino)-
##JCAMP-DX=4.24
##DATA TYPE=MASS SPECTRUM
##ORIGIN=Japan AIST/NIMC Database- Spectrum MS-NW-4325
##OWNER=NIST Mass Spectrometry Data Center
Collection (C) 2014 copyright by the U.S. Secretary of Commerce
on behalf of the United States of America. All rights reserved.
##CAS REGISTRY NO=110-73-6
##$NIST MASS SPEC NO=230348
##MOLFORM=C4 H11 N O
##MW=89
##$NIST SOURCE=MSDC
##XUNITS=M/Z
##YUNITS=RELATIVE INTENSITY
##XFACTOR=1
##YFACTOR=1
##FIRSTX=14
##LASTX=90
##FIRSTY=50
##MAXX=90
##MINX=14
##MAXY=9999
##MINY=10
##NPOINTS=43
##PEAK TABLE=(XY..XY)
14,50 15,359 17,20 18,70
19,10 26,109 27,719 28,1079
29,1189 30,7709 31,299 32,30
36,30 38,10 39,30 40,70
41,189 42,869 43,249 44,659
45,359 46,10 52,10 54,50
55,40 56,939 57,149 58,9999
59,419 60,149 61,10 68,20
69,10 70,189 71,30 72,30
73,10 74,289 75,10 86,30
88,179 89,569 90,30
##END=
