##TITLE=Undecanal, 2-methyl-
##JCAMP-DX=4.24
##DATA TYPE=MASS SPECTRUM
##ORIGIN=NIST Mass Spectrometry Data Center, 1990.
##OWNER=NIST Mass Spectrometry Data Center
Collection (C) 2014 copyright by the U.S. Secretary of Commerce
on behalf of the United States of America. All rights reserved.
##CAS REGISTRY NO=110-41-8
##$NIST MASS SPEC NO=114572
##MOLFORM=C12 H24 O
##MW=184
##$NIST SOURCE=MSDC
##XUNITS=M/Z
##YUNITS=RELATIVE INTENSITY
##XFACTOR=1
##YFACTOR=1
##FIRSTX=27
##LASTX=142
##FIRSTY=597
##MAXX=142
##MINX=27
##MAXY=9999
##MINY=35
##NPOINTS=45
##PEAK TABLE=(XY..XY)
27,597 28,117 29,1095 30,47
39,619 41,2552 42,558 43,2680
44,107 45,69 53,247 54,245
55,1584 56,586 57,2761 58,9999
59,381 60,35 65,57 66,60
67,443 68,338 69,558 70,317
71,1567 72,130 79,67 81,526
82,475 83,269 84,175 85,389
86,62 95,342 96,216 97,271
98,87 99,69 109,138 110,75
123,52 124,90 126,533 127,60
142,232
##END=
