##TITLE=Cyclohexene
##JCAMP-DX=4.24
##DATA TYPE=MASS SPECTRUM
##ORIGIN=NIST Mass Spectrometry Data Center, 1990.
##OWNER=NIST Mass Spectrometry Data Center
Collection (C) 2014 copyright by the U.S. Secretary of Commerce
on behalf of the United States of America. All rights reserved.
##CAS REGISTRY NO=110-83-8
##$NIST MASS SPEC NO=114431
##MOLFORM=C6 H10
##MW=82
##$NIST SOURCE=MSDC
##XUNITS=M/Z
##YUNITS=RELATIVE INTENSITY
##XFACTOR=1
##YFACTOR=1
##FIRSTX=14
##LASTX=83
##FIRSTY=389
##MAXX=83
##MINX=14
##MAXY=9999
##MINY=85
##NPOINTS=34
##PEAK TABLE=(XY..XY)
14,389 15,324 16,181 26,533
27,2270 28,88 29,290 32,85
37,238 38,525 39,4436 40,586
41,3051 42,218 49,132 50,904
51,1190 52,594 53,1463 54,6679
55,478 62,88 63,223 65,700
67,9999 68,573 74,134 77,708
78,350 79,868 80,130 81,936
82,3466 83,260
##END=
