##TITLE=Butyl myristate
##JCAMP-DX=4.24
##DATA TYPE=MASS SPECTRUM
##ORIGIN=NIST Mass Spectrometry Data Center
##OWNER=NIST Mass Spectrometry Data Center
Collection (C) 2014 copyright by the U.S. Secretary of Commerce
on behalf of the United States of America. All rights reserved.
##CAS REGISTRY NO=110-36-1
##$NIST MASS SPEC NO=343250
##MOLFORM=C18 H36 O2
##MW=284
##$NIST SOURCE=MSDC
##XUNITS=M/Z
##YUNITS=RELATIVE INTENSITY
##XFACTOR=1
##YFACTOR=1
##FIRSTX=15
##LASTX=285
##FIRSTY=60
##MAXX=285
##MINX=15
##MAXY=9999
##MINY=10
##NPOINTS=120
##PEAK TABLE=(XY..XY)
15,60 17,20 18,40 19,10
27,1491 28,641 29,4974 30,130
31,90 37,10 39,981 41,7357
42,1461 43,5755 44,220 45,140
50,10 51,20 53,280 55,3863
56,9999 57,4924 58,310 60,2492
61,1471 62,40 63,10 65,30
67,430 68,260 69,1521 70,390
71,1321 73,2522 74,260 75,40
77,30 79,120 81,330 82,170
83,981 84,500 85,641 86,100
87,530 88,70 89,100 91,20
93,90 94,40 95,330 96,140
97,701 98,430 99,180 101,721
102,80 103,90 107,50 108,20
109,150 110,60 111,340 112,110
113,70 115,320 116,591 117,370
118,20 121,70 122,10 123,70
124,40 125,130 126,30 127,30
129,1061 130,100 131,30 135,50
137,30 138,20 139,50 140,10
143,230 144,20 145,10 149,20
151,10 153,30 157,100 158,20
159,10 166,30 167,10 168,10
171,180 172,30 173,10 185,550
186,70 191,40 192,10 199,110
200,10 208,10 209,30 211,911
212,150 213,20 227,50 228,350
229,1601 230,240 231,20 241,100
242,10 255,10 284,170 285,30
##END=
