##TITLE=Isobutyl acetate
##JCAMP-DX=4.24
##DATA TYPE=MASS SPECTRUM
##ORIGIN=NIST Mass Spectrometry Data Center
##OWNER=NIST Mass Spectrometry Data Center
Collection (C) 2014 copyright by the U.S. Secretary of Commerce
on behalf of the United States of America. All rights reserved.
##CAS REGISTRY NO=110-19-0
##$NIST MASS SPEC NO=352254
##MOLFORM=C6 H12 O2
##MW=116
##$NIST SOURCE=MSDC
##XUNITS=M/Z
##YUNITS=RELATIVE INTENSITY
##XFACTOR=1
##YFACTOR=1
##FIRSTX=14
##LASTX=117
##FIRSTY=100
##MAXX=117
##MINX=14
##MAXY=9999
##MINY=10
##NPOINTS=44
##PEAK TABLE=(XY..XY)
14,100 15,721 16,20 18,10
26,110 27,1031 28,340 29,1041
30,70 31,220 33,10 37,40
38,110 39,1221 40,220 41,2252
42,711 43,9999 44,400 45,160
50,30 51,40 52,10 53,70
54,20 55,450 56,4504 57,641
58,50 59,40 60,30 61,550
62,10 71,641 72,60 73,3323
74,350 75,50 86,430 87,30
101,40 115,10 116,10 117,10
##END=
