##TITLE=Morpholine
##JCAMP-DX=4.24
##DATA TYPE=MASS SPECTRUM
##ORIGIN=NIST Mass Spectrometry Data Center, 1998.
##OWNER=NIST Mass Spectrometry Data Center
Collection (C) 2014 copyright by the U.S. Secretary of Commerce
on behalf of the United States of America. All rights reserved.
##CAS REGISTRY NO=110-91-8
##$NIST MASS SPEC NO=291444
##MOLFORM=C4 H9 N O
##MW=87
##$NIST SOURCE=MSDC
##XUNITS=M/Z
##YUNITS=RELATIVE INTENSITY
##XFACTOR=1
##YFACTOR=1
##FIRSTX=13
##LASTX=89
##FIRSTY=10
##MAXX=89
##MINX=13
##MAXY=9999
##MINY=10
##NPOINTS=44
##PEAK TABLE=(XY..XY)
13,10 14,40 15,140 16,10
18,10 25,20 26,330 27,900
28,3480 29,4770 30,2250 31,270
32,10 33,10 37,10 38,30
39,80 40,210 41,550 42,1630
43,490 44,200 45,200 46,10
51,40 52,100 53,20 54,320
55,350 56,5029 57,9999 58,710
59,150 60,10 68,40 69,10
70,40 72,20 84,10 85,20
86,2750 87,5859 88,320 89,20
##END=
