##TITLE=Piperazine
##JCAMP-DX=4.24
##DATA TYPE=MASS SPECTRUM
##ORIGIN=Japan AIST/NIMC Database- Spectrum MS-NW-1759
##OWNER=NIST Mass Spectrometry Data Center
Collection (C) 2014 copyright by the U.S. Secretary of Commerce
on behalf of the United States of America. All rights reserved.
##CAS REGISTRY NO=110-85-0
##$NIST MASS SPEC NO=229316
##MOLFORM=C4 H10 N2
##MW=86
##$NIST SOURCE=MSDC
##XUNITS=M/Z
##YUNITS=RELATIVE INTENSITY
##XFACTOR=1
##YFACTOR=1
##FIRSTX=14
##LASTX=87
##FIRSTY=80
##MAXX=87
##MINX=14
##MAXY=9999
##MINY=10
##NPOINTS=41
##PEAK TABLE=(XY..XY)
14,80 15,559 16,30 17,10
18,10 25,30 26,419 27,1039
28,4109 29,5009 30,4169 31,249
32,109 38,30 39,60 40,169
41,649 42,1249 43,979 44,9999
45,249 51,40 52,90 53,80
54,299 55,369 56,2889 57,2669
58,139 59,149 68,30 69,40
71,10 80,70 81,70 82,50
83,129 84,60 85,2109 86,2199
87,109
##END=
