##TITLE=Decyl octyl adipate
##JCAMP-DX=4.24
##DATA TYPE=MASS SPECTRUM
##ORIGIN=NIST Mass Spectrometry Data Center, 1994
##OWNER=NIST Mass Spectrometry Data Center
Collection (C) 2014 copyright by the U.S. Secretary of Commerce
on behalf of the United States of America. All rights reserved.
##CAS REGISTRY NO=110-29-2
##$NIST MASS SPEC NO=133266
##MOLFORM=C24 H46 O4
##MW=398
##$NIST SOURCE=MSDC
##XUNITS=M/Z
##YUNITS=RELATIVE INTENSITY
##XFACTOR=1
##YFACTOR=1
##FIRSTX=12
##LASTX=399
##FIRSTY=7
##MAXX=399
##MINX=12
##MAXY=9999
##MINY=4
##NPOINTS=172
##PEAK TABLE=(XY..XY)
12,7 15,25 19,8 27,842
28,86 29,1782 30,58 31,93
37,8 39,477 41,3339 42,1400
43,4319 44,166 45,76 50,8
51,18 53,213 55,3928 56,1712
57,2735 58,169 59,267 60,64
61,150 62,6 65,29 67,337
68,488 69,1358 70,991 71,1349
72,106 73,312 74,38 75,22
77,13 79,48 80,33 81,154
82,423 83,1515 84,703 85,568
86,301 87,1555 88,67 89,9
91,9 93,18 95,61 96,121
97,273 98,189 99,247 100,969
101,1951 102,265 103,145 104,9
107,9 108,21 109,61 110,9
111,2728 112,588 113,136 114,38
115,19 116,10 119,6 121,8
122,6 123,13 124,15 125,33
126,100 127,147 128,6 129,9999
130,640 131,100 133,6 135,6
136,7 137,19 138,54 139,44
140,187 141,87 142,20 143,9
144,30 145,27 147,239 148,19
151,5 152,16 153,9 154,52
155,38 156,40 157,143 158,21
159,8 165,10 166,36 167,12
168,19 169,22 170,19 171,8
172,7 173,41 174,4 175,8
179,10 180,10 181,6 182,15
184,130 185,164 186,24 187,6
194,6 197,42 198,151 199,461
200,73 201,30 208,8 212,359
213,73 214,24 222,8 225,19
226,130 227,323 228,49 229,6
241,4165 242,614 243,74 244,9
250,7 256,8 259,619 260,96
261,12 269,2981 270,501 271,65
272,8 285,14 287,343 288,51
289,9 296,14 297,21 298,10
299,27 300,7 313,17 314,9
324,9 327,43 328,8 341,8
355,10 369,4 398,14 399,7
##END=
