##TITLE=Maleic acid
##JCAMP-DX=4.24
##DATA TYPE=MASS SPECTRUM
##ORIGIN=Japan AIST/NIMC Database- Spectrum MS-IW-4644
##OWNER=NIST Mass Spectrometry Data Center
Collection (C) 2014 copyright by the U.S. Secretary of Commerce
on behalf of the United States of America. All rights reserved.
##CAS REGISTRY NO=110-16-7
##$NIST MASS SPEC NO=228092
##MOLFORM=C4 H4 O4
##MW=116
##$NIST SOURCE=MSDC
##XUNITS=M/Z
##YUNITS=RELATIVE INTENSITY
##XFACTOR=1
##YFACTOR=1
##FIRSTX=12
##LASTX=117
##FIRSTY=30
##MAXX=117
##MINX=12
##MAXY=9999
##MINY=10
##NPOINTS=59
##PEAK TABLE=(XY..XY)
12,30 13,90 14,80 15,149
16,30 17,319 18,1359 19,20
24,119 25,649 26,4619 27,3649
28,969 29,809 30,20 31,10
32,10 36,90 37,99 38,30
40,60 41,469 42,359 43,579
44,1249 45,6659 46,1679 47,70
50,30 52,189 53,1689 54,3399
55,3279 56,129 57,20 60,10
68,10 69,199 70,179 71,1449
72,9999 73,429 74,60 80,10
81,149 82,189 83,10 85,10
87,30 88,50 89,30 96,10
97,10 98,2269 99,3089 100,159
101,20 116,219 117,119
##END=
