##TITLE=Propanenitrile, 3-methoxy-
##JCAMP-DX=4.24
##DATA TYPE=MASS SPECTRUM
##ORIGIN=Japan AIST/NIMC Database- Spectrum MS-NW-4345
##OWNER=NIST Mass Spectrometry Data Center
Collection (C) 2014 copyright by the U.S. Secretary of Commerce
on behalf of the United States of America. All rights reserved.
##CAS REGISTRY NO=110-67-8
##$NIST MASS SPEC NO=228410
##MOLFORM=C4 H7 N O
##MW=85
##$NIST SOURCE=MSDC
##XUNITS=M/Z
##YUNITS=RELATIVE INTENSITY
##XFACTOR=1
##YFACTOR=1
##FIRSTX=12
##LASTX=85
##FIRSTY=10
##MAXX=85
##MINX=12
##MAXY=9999
##MINY=10
##NPOINTS=40
##PEAK TABLE=(XY..XY)
12,10 13,10 14,70 15,1049
16,10 17,10 18,20 25,30
26,249 27,449 28,639 29,1379
30,70 31,389 32,30 37,20
38,80 39,109 40,239 41,179
42,40 43,80 44,30 45,9999
46,219 47,20 50,10 51,149
52,279 53,70 54,829 55,229
56,219 57,20 58,20 67,10
68,50 70,10 84,60 85,70
##END=
