##TITLE=Butanedinitrile
##JCAMP-DX=4.24
##DATA TYPE=MASS SPECTRUM
##ORIGIN=NIST Mass Spectrometry Data Center
##OWNER=NIST Mass Spectrometry Data Center
Collection (C) 2014 copyright by the U.S. Secretary of Commerce
on behalf of the United States of America. All rights reserved.
##CAS REGISTRY NO=110-61-2
##$NIST MASS SPEC NO=341643
##MOLFORM=C4 H4 N2
##MW=80
##$NIST SOURCE=MSDC
##XUNITS=M/Z
##YUNITS=RELATIVE INTENSITY
##XFACTOR=1
##YFACTOR=1
##FIRSTX=12
##LASTX=81
##FIRSTY=10
##MAXX=81
##MINX=12
##MAXY=9999
##MINY=10
##NPOINTS=33
##PEAK TABLE=(XY..XY)
12,10 13,20 14,20 24,30
25,100 26,731 27,390 28,400
29,20 36,70 37,200 38,581
39,641 40,4114 41,390 42,20
48,30 49,10 50,260 51,1762
52,2903 53,9999 54,901 55,20
62,40 63,40 64,30 76,190
77,300 78,60 79,3793 80,1571
81,80
##END=
