##TITLE=Di-tert-butyl disulfide
##JCAMP-DX=4.24
##DATA TYPE=MASS SPECTRUM
##ORIGIN=Japan AIST/NIMC Database- Spectrum MS-NW-8334
##OWNER=NIST Mass Spectrometry Data Center
Collection (C) 2014 copyright by the U.S. Secretary of Commerce
on behalf of the United States of America. All rights reserved.
##CAS REGISTRY NO=110-06-5
##$NIST MASS SPEC NO=230730
##MOLFORM=C8 H18 S2
##MW=178
##$NIST SOURCE=MSDC
##XUNITS=M/Z
##YUNITS=RELATIVE INTENSITY
##XFACTOR=1
##YFACTOR=1
##FIRSTX=15
##LASTX=180
##FIRSTY=10
##MAXX=180
##MINX=15
##MAXY=9999
##MINY=10
##NPOINTS=45
##PEAK TABLE=(XY..XY)
15,10 26,10 27,189 28,99
29,1239 30,20 32,20 34,10
38,10 39,309 40,40 41,1879
42,80 43,20 44,30 45,50
47,20 49,50 50,10 51,10
53,40 54,10 55,149 56,109
57,9999 58,449 59,119 60,10
61,10 64,30 66,10 73,60
74,20 76,10 87,20 88,20
89,20 107,119 109,10 122,909
123,50 124,80 178,669 179,70
180,60
##END=
