##TITLE=Boron, trihydro(pyridine)-, (T-4)-
##JCAMP-DX=4.24
##DATA TYPE=MASS SPECTRUM
##ORIGIN=CCC 0013
##OWNER=NIST Mass Spectrometry Data Center
Collection (C) 2014 copyright by the U.S. Secretary of Commerce
on behalf of the United States of America. All rights reserved.
##CAS REGISTRY NO=110-51-0
##$NIST MASS SPEC NO=792
##MOLFORM=C5 H8 B N
##MW=93
##$NIST SOURCE=MSDC
##XUNITS=M/Z
##YUNITS=RELATIVE INTENSITY
##XFACTOR=1
##YFACTOR=1
##FIRSTX=10
##LASTX=94
##FIRSTY=80
##MAXX=94
##MINX=10
##MAXY=9999
##MINY=10
##NPOINTS=83
##PEAK TABLE=(XY..XY)
10,80 11,340 12,550 13,831
14,230 15,270 16,40 17,20
18,50 19,10 20,10 21,20
22,70 23,260 24,550 25,581
26,2292 27,1261 28,811 29,120
30,10 31,30 32,70 35,30
36,330 37,1001 38,1031 39,1501
40,340 41,110 42,80 43,220
44,10 45,30 46,20 47,10
48,180 49,961 50,3213 51,4134
52,7307 53,941 54,50 55,50
56,30 57,50 58,20 59,20
60,50 61,120 62,170 63,300
64,360 65,200 66,60 67,10
68,10 69,20 70,20 71,20
72,20 73,20 74,50 75,230
76,180 77,70 78,1281 79,9999
80,691 81,30 82,30 83,40
84,10 85,10 86,10 87,10
88,20 89,130 90,520 91,741
92,1301 93,80 94,10
##END=
