##TITLE=Vinylphenylacetonitrile
##JCAMP-DX=4.24
##DATA TYPE=MASS SPECTRUM
##ORIGIN=NIST Mass Spectrometry Data Center, 1994
##OWNER=NIST Mass Spectrometry Data Center
Collection (C) 2014 copyright by the U.S. Secretary of Commerce
on behalf of the United States of America. All rights reserved.
##CAS REGISTRY NO=110013-89-3
##$NIST MASS SPEC NO=134630
##MOLFORM=C10 H9 N
##MW=143
##$NIST SOURCE=MSDC
##XUNITS=M/Z
##YUNITS=RELATIVE INTENSITY
##XFACTOR=1
##YFACTOR=1
##FIRSTX=4
##LASTX=145
##FIRSTY=19
##MAXX=145
##MINX=4
##MAXY=9999
##MINY=19
##NPOINTS=66
##PEAK TABLE=(XY..XY)
4,19 14,54 15,50 26,363
27,1068 28,515 32,44 37,286
38,715 39,2566 40,379 41,259
43,82 44,33 50,1925 51,2497
52,679 53,225 55,31 57,677
58,573 61,438 62,1214 63,2525
64,730 65,794 66,132 71,596
73,110 74,830 75,825 76,920
77,1727 78,400 79,47 84,42
85,129 86,309 87,499 88,563
89,2117 90,763 91,792 92,65
97,28 98,109 99,81 100,82
101,172 102,1159 103,1060 104,133
111,48 113,470 115,8614 116,9999
117,1627 118,98 126,56 127,52
128,179 140,730 142,3346 143,9758
144,1104 145,53
##END=
