##TITLE=4-Aminobutanoic acid, 2TBDMS derivative
##JCAMP-DX=4.24
##DATA TYPE=MASS SPECTRUM
##ORIGIN=NIST Mass Spectrometry Data Center
##OWNER=NIST Mass Spectrometry Data Center
Collection (C) 2014 copyright by the U.S. Secretary of Commerce
on behalf of the United States of America. All rights reserved.
##CAS REGISTRY NO=110024-92-5
##$NIST MASS SPEC NO=364425
##MOLFORM=C16 H37 N O2 Si2
##MW=331
##$NIST SOURCE=MSDC
##XUNITS=M/Z
##YUNITS=RELATIVE INTENSITY
##XFACTOR=1
##YFACTOR=1
##FIRSTX=27
##LASTX=331
##FIRSTY=20
##MAXX=331
##MINX=27
##MAXY=9999
##MINY=10
##NPOINTS=153
##PEAK TABLE=(XY..XY)
27,20 28,10 29,120 30,20
31,20 39,70 40,10 41,370
42,40 43,130 44,60 45,290
46,30 47,120 48,10 53,10
54,10 55,90 56,130 57,410
58,310 59,941 60,160 61,110
62,10 66,20 67,10 68,360
69,110 70,90 71,40 72,170
73,4684 74,571 75,2142 76,160
77,100 80,10 82,30 83,30
84,70 85,200 86,310 87,270
88,240 89,40 90,10 93,10
95,10 96,20 97,40 98,210
99,240 100,380 101,130 102,60
103,60 104,10 105,30 108,1001
111,10 112,40 113,30 114,150
115,240 116,80 117,230 118,80
119,180 120,30 121,10 124,20
125,10 126,20 127,10 128,30
129,180 130,60 131,180 132,200
133,1041 134,170 135,90 136,10
140,30 142,1611 143,851 144,671
145,170 146,170 147,9999 148,1641
149,831 150,90 151,20 156,20
157,30 158,60 159,30 160,140
161,20 162,20 170,40 171,10
172,20 173,40 174,90 175,40
176,10 182,30 183,10 184,150
185,80 186,30 187,10 188,20
189,100 190,20 191,10 198,30
199,10 200,220 201,80 202,40
203,10 214,20 215,10 216,210
217,40 218,20 242,30 243,10
244,10 256,10 258,1141 259,260
260,110 261,20 272,20 274,7227
275,1752 276,711 277,110 278,20
299,10 300,30 301,10 316,360
317,100 318,40 319,10 330,20
331,10
##END=
