##TITLE=2,6-Dibromo-4-nitrotoluene
##JCAMP-DX=4.24
##DATA TYPE=MASS SPECTRUM
##ORIGIN=NIST Mass Spectrometry Data Center
##OWNER=NIST Mass Spectrometry Data Center
Collection (C) 2014 copyright by the U.S. Secretary of Commerce
on behalf of the United States of America. All rights reserved.
##CAS REGISTRY NO=110127-07-6
##$NIST MASS SPEC NO=343318
##MOLFORM=C7 H5 Br2 N O2
##MW=293
##$NIST SOURCE=MSDC
##XUNITS=M/Z
##YUNITS=RELATIVE INTENSITY
##XFACTOR=1
##YFACTOR=1
##FIRSTX=12
##LASTX=298
##FIRSTY=60
##MAXX=298
##MINX=12
##MAXY=9999
##MINY=60
##NPOINTS=82
##PEAK TABLE=(XY..XY)
12,60 26,100 27,80 30,2692
37,510 38,540 39,1471 43,180
44,300 46,440 49,270 50,1071
51,931 52,190 53,60 61,1031
62,2412 63,3904 64,350 73,270
74,681 75,480 76,380 77,1101
78,160 79,190 80,130 81,170
82,170 84,150 85,540 86,1171
87,1491 88,1712 89,6896 90,480
103,110 104,120 105,490 116,80
117,330 119,280 141,170 142,80
143,280 155,300 156,1041 157,280
158,1001 159,70 167,881 168,2752
169,1121 170,2702 171,270 183,1101
184,300 185,1151 186,300 214,140
216,160 235,290 237,621 239,280
247,1021 249,2092 250,190 251,1211
252,90 263,390 264,140 265,751
266,120 267,400 277,170 279,210
293,5795 294,581 295,9999 296,891
297,5575 298,420
##END=
