##TITLE=Cedrene
##JCAMP-DX=4.24
##DATA TYPE=MASS SPECTRUM
##ORIGIN=Mark Whitten, Florida Museum of Natural History, U. of Florida
##OWNER=NIST Mass Spectrometry Data Center
Collection (C) 2014 copyright by the U.S. Secretary of Commerce
on behalf of the United States of America. All rights reserved.
##CAS REGISTRY NO=11028-42-5
##$NIST MASS SPEC NO=141090
##MOLFORM=C15 H24
##MW=204
##$NIST SOURCE=MSDC
##XUNITS=M/Z
##YUNITS=RELATIVE INTENSITY
##XFACTOR=1
##YFACTOR=1
##FIRSTX=41
##LASTX=205
##FIRSTY=9999
##MAXX=205
##MINX=41
##MAXY=9999
##MINY=106
##NPOINTS=80
##PEAK TABLE=(XY..XY)
41,9999 42,870 43,2097 44,145
50,185 51,777 52,423 53,2535
55,3762 56,1121 57,1718 58,163
59,114 63,278 64,176 65,1656
66,423 67,2261 68,609 69,4906
70,706 71,1360 77,3771 78,989
79,3405 80,605 81,1859 82,1068
83,454 84,269 85,159 91,5467
92,2870 93,5079 94,1108 95,1104
97,238 102,114 103,494 105,4800
106,1126 107,1320 108,649 109,1218
110,203 111,242 112,326 115,662
116,278 117,649 119,7583 120,3087
121,1629 122,507 123,317 124,154
128,282 129,207 130,106 131,322
133,2349 134,900 135,507 136,613
137,220 145,203 146,247 147,1523
148,918 149,278 160,472 161,6735
162,1386 163,159 175,265 176,145
189,1073 190,154 204,4102 205,693
##END=
