##TITLE=Methylglyoxal 2,4-dinitrophenylosazone
##JCAMP-DX=4.24
##DATA TYPE=MASS SPECTRUM
##ORIGIN=M.A. JOHNSON, INST. PAPER CHEM., APPLETON, WIS., USA
##OWNER=NIST Mass Spectrometry Data Center
Collection (C) 2014 copyright by the U.S. Secretary of Commerce
on behalf of the United States of America. All rights reserved.
##CAS REGISTRY NO=1107-69-3
##$NIST MASS SPEC NO=98619
##MOLFORM=C15 H12 N8 O8
##MW=432
##$NIST SOURCE=MSDC
##XUNITS=M/Z
##YUNITS=RELATIVE INTENSITY
##XFACTOR=1
##YFACTOR=1
##FIRSTX=27
##LASTX=434
##FIRSTY=340
##MAXX=434
##MINX=27
##MAXY=9999
##MINY=30
##NPOINTS=162
##PEAK TABLE=(XY..XY)
27,340 29,200 30,3780 37,340
38,650 39,1700 40,340 41,920
42,1800 43,3980 46,340 50,1290
51,3030 52,2650 53,990 54,2450
55,310 56,340 61,540 62,3230
63,5950 64,3610 65,1160 66,1160
67,610 68,370 69,30 70,480
71,30 72,170 73,140 74,1360
75,5920 76,3440 77,6770 78,4250
79,4560 80,1330 81,370 82,200
83,100 84,1020 86,270 87,480
88,1050 89,2010 90,2580 91,3030
92,1900 93,2010 94,510 95,440
96,200 98,340 99,70 100,510
101,650 102,1260 103,1330 104,1730
105,1260 106,1600 107,1600 108,310
109,70 110,100 111,170 112,170
113,440 114,540 115,610 116,1360
117,1220 118,1220 119,1160 120,850
121,750 122,1560 123,370 124,370
125,440 126,70 127,370 128,610
129,650 130,1120 131,1160 132,680
133,370 134,680 135,1390 136,880
137,1090 138,750 139,340 142,440
143,650 144,710 145,850 146,540
147,580 148,480 149,480 150,610
151,610 152,920 153,1970 154,540
157,480 158,680 159,510 160,370
161,370 162,580 163,710 164,880
165,990 166,1090 167,920 168,510
174,680 175,410 176,370 177,540
178,370 179,510 180,370 181,1840
182,850 183,4220 184,710 188,480
189,510 190,610 191,540 192,680
193,480 195,410 196,410 202,340
203,440 204,1120 205,780 206,340
207,410 216,410 217,370 219,850
232,440 233,1770 234,440 235,610
236,370 249,4520 250,9999 251,1500
252,680 415,4970 416,1220 432,8880
433,1600 434,440
##END=
