##TITLE=Ethanol, 2-(2-methoxyethoxy)-
##JCAMP-DX=4.24
##DATA TYPE=MASS SPECTRUM
##ORIGIN=NIST Mass Spectrometry Data Center, 2007
##OWNER=NIST Mass Spectrometry Data Center
Collection (C) 2014 copyright by the U.S. Secretary of Commerce
on behalf of the United States of America. All rights reserved.
##CAS REGISTRY NO=111-77-3
##$NIST MASS SPEC NO=352037
##MOLFORM=C5 H12 O3
##MW=120
##$NIST SOURCE=MSDC
##XUNITS=M/Z
##YUNITS=RELATIVE INTENSITY
##XFACTOR=1
##YFACTOR=1
##FIRSTX=14
##LASTX=102
##FIRSTY=60
##MAXX=102
##MINX=14
##MAXY=9999
##MINY=10
##NPOINTS=43
##PEAK TABLE=(XY..XY)
14,60 15,801 16,30 17,10
19,220 25,10 26,200 27,941
28,791 29,2983 30,210 31,2562
32,70 33,180 39,20 41,120
42,240 43,1531 44,500 45,9999
46,230 47,50 57,80 58,2602
59,4164 60,550 61,50 62,20
63,10 68,10 71,10 72,30
73,30 75,1001 76,30 77,70
87,240 88,60 89,1231 90,1561
91,70 92,10 102,10
##END=
