##TITLE=1-Butanol, 4-methoxy-
##JCAMP-DX=4.24
##DATA TYPE=MASS SPECTRUM
##ORIGIN=NIST Mass Spectrometry Data Center, 1990.
##OWNER=NIST Mass Spectrometry Data Center
Collection (C) 2014 copyright by the U.S. Secretary of Commerce
on behalf of the United States of America. All rights reserved.
##CAS REGISTRY NO=111-32-0
##$NIST MASS SPEC NO=114559
##MOLFORM=C5 H12 O2
##MW=104
##$NIST SOURCE=MSDC
##XUNITS=M/Z
##YUNITS=RELATIVE INTENSITY
##XFACTOR=1
##YFACTOR=1
##FIRSTX=14
##LASTX=89
##FIRSTY=24
##MAXX=89
##MINX=14
##MAXY=9999
##MINY=24
##NPOINTS=37
##PEAK TABLE=(XY..XY)
14,24 15,752 18,118 19,76
26,301 27,1333 28,613 29,2456
30,195 31,2075 32,93 33,569
38,126 39,923 40,266 41,1960
42,1548 43,1621 44,2409 45,9999
46,238 53,244 54,110 55,606
56,342 57,510 58,4708 59,252
71,1186 72,322 73,112 74,479
75,112 76,501 85,160 86,208
89,427
##END=
