##TITLE=Ethanol, 2,2'-oxybis-
##JCAMP-DX=4.24
##DATA TYPE=MASS SPECTRUM
##ORIGIN=NIST Mass Spectrometry Data Center, 1998.
##OWNER=NIST Mass Spectrometry Data Center
Collection (C) 2014 copyright by the U.S. Secretary of Commerce
on behalf of the United States of America. All rights reserved.
##CAS REGISTRY NO=111-46-6
##$NIST MASS SPEC NO=291492
##MOLFORM=C4 H10 O3
##MW=106
##$NIST SOURCE=MSDC
##XUNITS=M/Z
##YUNITS=RELATIVE INTENSITY
##XFACTOR=1
##YFACTOR=1
##FIRSTX=14
##LASTX=88
##FIRSTY=20
##MAXX=88
##MINX=14
##MAXY=9999
##MINY=20
##NPOINTS=29
##PEAK TABLE=(XY..XY)
14,20 15,110 19,220 26,80
27,700 28,210 29,980 30,90
31,1020 32,40 33,20 41,30
42,190 43,1200 44,1060 45,9999
46,270 47,220 57,50 58,180
59,20 60,30 61,70 63,60
73,20 75,2270 76,1180 77,50
88,40
##END=
