##TITLE=Dodecanoic acid, methyl ester
##JCAMP-DX=4.24
##DATA TYPE=MASS SPECTRUM
##ORIGIN=Japan AIST/NIMC Database- Spectrum MS-NW-1738
##OWNER=NIST Mass Spectrometry Data Center
Collection (C) 2014 copyright by the U.S. Secretary of Commerce
on behalf of the United States of America. All rights reserved.
##CAS REGISTRY NO=111-82-0
##$NIST MASS SPEC NO=229476
##MOLFORM=C13 H26 O2
##MW=214
##$NIST SOURCE=MSDC
##XUNITS=M/Z
##YUNITS=RELATIVE INTENSITY
##XFACTOR=1
##YFACTOR=1
##FIRSTX=15
##LASTX=215
##FIRSTY=319
##MAXX=215
##MINX=15
##MAXY=9999
##MINY=10
##NPOINTS=95
##PEAK TABLE=(XY..XY)
15,319 18,40 26,20 27,629
28,199 29,1209 30,30 31,70
32,50 33,10 39,519 40,99
41,2459 42,569 43,2049 44,70
45,119 51,20 52,20 53,179
54,169 55,1919 56,399 57,989
58,50 59,709 60,20 61,20
65,30 66,10 67,199 68,109
69,989 70,169 71,289 72,20
73,189 74,9999 75,1199 76,70
77,20 79,50 80,20 81,129
82,60 83,469 84,279 85,159
86,10 87,5579 88,529 89,40
93,30 95,99 96,40 97,299
98,239 99,30 100,20 101,429
102,50 107,20 109,50 110,20
111,99 112,50 113,10 115,259
116,60 121,10 123,10 125,40
129,459 130,50 135,10 138,30
139,20 140,60 141,10 143,779
144,80 153,10 157,119 158,20
163,10 164,10 171,599 172,70
181,10 183,559 184,70 185,209
186,30 214,609 215,80
##END=
