##TITLE=Hexamethylenimine
##JCAMP-DX=4.24
##DATA TYPE=MASS SPECTRUM
##ORIGIN=Japan AIST/NIMC Database- Spectrum MS-NW-3128
##OWNER=NIST Mass Spectrometry Data Center
Collection (C) 2014 copyright by the U.S. Secretary of Commerce
on behalf of the United States of America. All rights reserved.
##CAS REGISTRY NO=111-49-9
##$NIST MASS SPEC NO=229224
##MOLFORM=C6 H13 N
##MW=99
##$NIST SOURCE=MSDC
##XUNITS=M/Z
##YUNITS=RELATIVE INTENSITY
##XFACTOR=1
##YFACTOR=1
##FIRSTX=14
##LASTX=101
##FIRSTY=20
##MAXX=101
##MINX=14
##MAXY=9999
##MINY=10
##NPOINTS=62
##PEAK TABLE=(XY..XY)
14,20 15,339 26,169 27,1329
28,2129 29,929 30,7079 31,119
32,40 33,20 34,10 37,50
38,139 39,1539 40,319 41,3069
42,2919 43,7879 44,4099 45,199
46,30 47,10 49,10 50,60
51,109 52,70 53,269 54,289
55,1179 56,6689 57,5259 58,259
59,10 60,10 61,10 62,20
63,30 64,10 65,60 66,40
67,219 68,659 69,419 70,9999
71,899 72,40 73,10 77,20
79,50 80,50 81,119 82,169
83,30 84,1379 85,90 86,10
96,109 97,139 98,2639 99,6469
100,469 101,40
##END=
