##TITLE=Ethanol, 2,2'-[1,2-ethanediylbis(oxy)]bis-, diacetate
##JCAMP-DX=4.24
##DATA TYPE=MASS SPECTRUM
##ORIGIN=NIST Mass Spectrometry Data Center, 2007
##OWNER=NIST Mass Spectrometry Data Center
Collection (C) 2014 copyright by the U.S. Secretary of Commerce
on behalf of the United States of America. All rights reserved.
##CAS REGISTRY NO=111-21-7
##$NIST MASS SPEC NO=351911
##MOLFORM=C10 H18 O6
##MW=234
##$NIST SOURCE=MSDC
##XUNITS=M/Z
##YUNITS=RELATIVE INTENSITY
##XFACTOR=1
##YFACTOR=1
##FIRSTX=14
##LASTX=174
##FIRSTY=30
##MAXX=174
##MINX=14
##MAXY=9999
##MINY=10
##NPOINTS=52
##PEAK TABLE=(XY..XY)
14,30 15,360 16,10 17,10
19,20 26,40 27,180 28,360
29,280 30,60 31,150 32,10
39,10 41,50 42,270 43,6616
44,290 45,460 46,10 55,10
57,90 58,160 59,60 60,10
61,100 69,10 70,260 71,110
72,30 73,220 74,50 75,40
83,10 85,10 86,320 87,9999
88,500 89,90 99,160 100,30
101,120 102,20 103,10 114,60
115,40 117,320 118,20 119,10
130,20 131,80 132,10 174,10
##END=
