##TITLE=Thiodipropionic acid
##JCAMP-DX=4.24
##DATA TYPE=MASS SPECTRUM
##ORIGIN=MASS SPECTROMETRY CENTER, UNIV. OF UTAH ALDRICH T03020-1
##OWNER=NIST Mass Spectrometry Data Center
Collection (C) 2014 copyright by the U.S. Secretary of Commerce
on behalf of the United States of America. All rights reserved.
##CAS REGISTRY NO=111-17-1
##$NIST MASS SPEC NO=52455
##MOLFORM=C6 H10 O4 S
##MW=178
##$NIST SOURCE=MSDC
##XUNITS=M/Z
##YUNITS=RELATIVE INTENSITY
##XFACTOR=1
##YFACTOR=1
##FIRSTX=15
##LASTX=180
##FIRSTY=306
##MAXX=180
##MINX=15
##MAXY=9999
##MINY=13
##NPOINTS=77
##PEAK TABLE=(XY..XY)
15,306 25,168 26,1233 27,6970
28,510 29,2539 30,368 31,813
33,251 34,247 35,1589 36,249
37,98 38,129 39,121 41,58
42,756 43,1826 44,940 45,9999
46,1704 47,2594 48,156 49,175
50,58 53,243 54,217 55,2808
56,953 57,463 58,1787 59,3256
60,3083 61,3747 62,338 63,1318
69,99 71,271 72,296 73,3596
74,2190 75,406 76,343 77,1636
78,33 79,39 85,13 86,625
87,7891 88,1497 89,6065 90,357
91,408 100,155 101,206 102,15
103,78 104,1867 105,3758 106,843
107,237 108,109 110,60 114,5474
115,515 116,290 119,1140 132,5363
133,586 134,318 136,228 142,352
143,137 160,47 178,5731 179,446
180,333
##END=
