##TITLE=1,2-Ethanediamine, N,N'-diethyl-
##JCAMP-DX=4.24
##DATA TYPE=MASS SPECTRUM
##ORIGIN=Japan AIST/NIMC Database- Spectrum MS-NW-3856
##OWNER=NIST Mass Spectrometry Data Center
Collection (C) 2014 copyright by the U.S. Secretary of Commerce
on behalf of the United States of America. All rights reserved.
##CAS REGISTRY NO=111-74-0
##$NIST MASS SPEC NO=231339
##MOLFORM=C6 H16 N2
##MW=116
##$NIST SOURCE=MSDC
##XUNITS=M/Z
##YUNITS=RELATIVE INTENSITY
##XFACTOR=1
##YFACTOR=1
##FIRSTX=14
##LASTX=116
##FIRSTY=10
##MAXX=116
##MINX=14
##MAXY=9999
##MINY=10
##NPOINTS=39
##PEAK TABLE=(XY..XY)
14,10 15,119 17,20 18,70
26,50 27,329 28,489 29,469
30,3019 31,40 39,10 40,30
41,109 42,369 43,279 44,889
45,70 50,20 54,30 55,30
56,279 57,149 58,9999 59,499
60,70 68,20 69,30 70,50
71,70 72,319 73,40 78,10
83,10 84,10 85,10 86,10
97,10 99,20 116,40
##END=
