##TITLE=Octadecanoic acid, 2-hydroxyethyl ester
##JCAMP-DX=4.24
##DATA TYPE=MASS SPECTRUM
##ORIGIN=R.T.HOLMAN,UNIVERSITY OF MINNESOTA
##OWNER=NIST Mass Spectrometry Data Center
Collection (C) 2014 copyright by the U.S. Secretary of Commerce
on behalf of the United States of America. All rights reserved.
##CAS REGISTRY NO=111-60-4
##$NIST MASS SPEC NO=36032
##MOLFORM=C20 H40 O3
##MW=328
##$NIST SOURCE=MSDC
##XUNITS=M/Z
##YUNITS=RELATIVE INTENSITY
##XFACTOR=1
##YFACTOR=1
##FIRSTX=27
##LASTX=329
##FIRSTY=1000
##MAXX=329
##MINX=27
##MAXY=9999
##MINY=50
##NPOINTS=111
##PEAK TABLE=(XY..XY)
27,1000 28,400 29,3100 30,100
31,400 39,500 40,100 41,5600
42,1600 43,9999 44,2500 45,2500
46,100 53,200 54,500 55,6400
56,1500 57,5900 58,600 59,300
60,1400 61,3100 62,100 67,900
68,600 69,3500 70,900 71,2700
72,200 73,2000 74,400 75,100
79,200 80,100 81,800 82,50
83,2400 84,2800 85,1500 86,2100
87,800 88,100 93,200 94,100
95,700 96,400 97,1900 98,6000
99,1900 100,200 101,200 104,9500
105,800 106,100 107,100 108,100
109,300 110,200 111,1100 112,1900
113,300 114,100 115,200 117,4400
118,300 121,200 122,100 123,200
124,100 125,400 126,400 127,100
129,200 131,100 135,200 137,100
138,100 139,200 140,300 141,100
149,100 153,100 154,500 159,100
167,100 168,300 173,400 174,100
181,100 182,200 185,100 194,100
195,200 209,100 210,300 211,100
223,200 224,200 237,100 241,100
248,100 266,400 267,2300 268,400
284,300 285,800 286,200 298,100
311,100 328,1004 329,200
##END=
