##TITLE=Methane, bis(2-chloroethoxy)-
##JCAMP-DX=4.24
##DATA TYPE=MASS SPECTRUM
##ORIGIN=NIST Mass Spectrometry Data Center, 1990.
##OWNER=NIST Mass Spectrometry Data Center
Collection (C) 2014 copyright by the U.S. Secretary of Commerce
on behalf of the United States of America. All rights reserved.
##CAS REGISTRY NO=111-91-1
##$NIST MASS SPEC NO=114932
##MOLFORM=C5 H10 Cl2 O2
##MW=172
##$NIST SOURCE=MSDC
##XUNITS=M/Z
##YUNITS=RELATIVE INTENSITY
##XFACTOR=1
##YFACTOR=1
##FIRSTX=15
##LASTX=173
##FIRSTY=56
##MAXX=173
##MINX=15
##MAXY=9999
##MINY=34
##NPOINTS=34
##PEAK TABLE=(XY..XY)
15,56 26,315 27,1566 28,680
29,742 30,180 31,671 32,108
42,121 43,258 44,471 45,84
47,75 48,107 49,779 50,127
51,243 57,86 60,34 61,182
63,6659 64,319 65,2065 73,178
79,54 93,9999 95,3257 96,100
106,179 108,68 123,1605 125,500
171,143 173,83
##END=
