##TITLE=Squalane
##JCAMP-DX=4.24
##DATA TYPE=MASS SPECTRUM
##ORIGIN=D.HENNEBERG, MAX-PLANCK INSTITUTE, MULHEIM, WEST GERMANY
##OWNER=NIST Mass Spectrometry Data Center
Collection (C) 2014 copyright by the U.S. Secretary of Commerce
on behalf of the United States of America. All rights reserved.
##CAS REGISTRY NO=111-01-3
##$NIST MASS SPEC NO=62218
##MOLFORM=C30 H62
##MW=422
##$NIST SOURCE=MSDC
##XUNITS=M/Z
##YUNITS=RELATIVE INTENSITY
##XFACTOR=1
##YFACTOR=1
##FIRSTX=26
##LASTX=422
##FIRSTY=15
##MAXX=422
##MINX=26
##MAXY=9999
##MINY=4
##NPOINTS=127
##PEAK TABLE=(XY..XY)
26,15 27,156 29,201 33,15
37,18 38,6 39,154 40,85
41,725 42,244 43,3081 45,27
50,37 51,27 52,26 53,50
54,56 55,964 56,1567 57,9999
58,451 63,14 65,21 67,161
68,170 69,1222 70,1062 71,7884
72,421 77,4 79,42 80,24
81,168 82,164 83,713 84,715
85,4454 86,282 91,38 93,22
94,22 95,141 96,238 97,823
98,296 99,2400 100,199 105,63
106,40 107,31 109,107 110,174
111,718 112,1457 113,2826 114,206
117,13 118,15 122,14 123,33
124,48 125,241 126,877 127,1686
128,168 137,18 138,35 139,79
140,168 141,1186 142,116 143,18
153,63 154,138 155,863 156,111
166,19 167,30 168,43 169,670
170,51 171,16 175,8 179,12
181,103 182,745 183,1570 184,219
185,27 195,22 196,229 197,475
198,31 210,41 211,344 212,63
224,22 225,264 226,40 238,381
239,783 240,136 252,17 253,125
254,15 266,356 267,459 268,106
280,32 281,91 282,23 291,9
295,45 308,114 309,122 310,26
323,23 336,226 337,290 338,68
351,24 378,17 392,28 393,28
407,70 408,40 422,25
##END=
