##TITLE=Decanedioic acid
##JCAMP-DX=4.24
##DATA TYPE=MASS SPECTRUM
##ORIGIN=NIST Mass Spectrometry Data Center, 1994
##OWNER=NIST Mass Spectrometry Data Center
Collection (C) 2014 copyright by the U.S. Secretary of Commerce
on behalf of the United States of America. All rights reserved.
##CAS REGISTRY NO=111-20-6
##$NIST MASS SPEC NO=133306
##MOLFORM=C10 H18 O4
##MW=202
##$NIST SOURCE=MSDC
##XUNITS=M/Z
##YUNITS=RELATIVE INTENSITY
##XFACTOR=1
##YFACTOR=1
##FIRSTX=14
##LASTX=185
##FIRSTY=175
##MAXX=185
##MINX=14
##MAXY=9999
##MINY=64
##NPOINTS=97
##PEAK TABLE=(XY..XY)
14,175 15,114 26,182 27,1971
28,610 29,1969 30,153 31,426
39,2380 40,695 41,5410 42,2047
43,2518 44,241 45,3447 47,130
51,190 52,189 53,944 54,130
55,9823 56,970 57,873 58,191
59,896 60,5797 61,349 65,214
66,232 67,1323 68,1201 69,3353
70,810 71,465 72,191 73,3404
74,659 75,230 76,214 77,479
78,191 79,1016 80,1005 81,1340
82,862 83,4517 84,5161 85,740
86,207 87,994 91,202 93,440
94,685 95,989 96,1127 97,4750
98,9999 99,1056 100,372 101,771
102,144 104,118 105,205 106,225
107,1082 108,204 109,616 110,1210
111,777 112,902 113,269 114,235
115,543 116,112 119,236 120,365
121,511 122,237 123,370 124,687
125,4097 126,482 128,232 129,698
130,225 131,166 137,575 138,4555
139,584 140,395 143,385 148,609
149,64 166,2855 167,240 171,246
185,575
##END=
