##TITLE=1-Octanamine
##JCAMP-DX=4.24
##DATA TYPE=MASS SPECTRUM
##ORIGIN=Japan AIST/NIMC Database- Spectrum MS-NW- 666
##OWNER=NIST Mass Spectrometry Data Center
Collection (C) 2014 copyright by the U.S. Secretary of Commerce
on behalf of the United States of America. All rights reserved.
##CAS REGISTRY NO=111-86-4
##$NIST MASS SPEC NO=229179
##MOLFORM=C8 H19 N
##MW=129
##$NIST SOURCE=MSDC
##XUNITS=M/Z
##YUNITS=RELATIVE INTENSITY
##XFACTOR=1
##YFACTOR=1
##FIRSTX=15
##LASTX=130
##FIRSTY=20
##MAXX=130
##MINX=15
##MAXY=9999
##MINY=10
##NPOINTS=46
##PEAK TABLE=(XY..XY)
15,20 26,10 27,259 28,119
29,309 30,9999 31,189 32,10
39,169 40,30 41,529 42,199
43,349 44,549 45,539 46,10
53,40 54,40 55,279 56,229
57,109 58,30 59,99 67,30
68,20 69,189 70,119 71,30
72,99 73,30 82,40 83,80
84,70 85,10 86,229 87,30
96,20 97,20 98,20 100,99
101,10 112,30 114,20 128,40
129,90 130,10
##END=
