##TITLE=1-Heptanol
##JCAMP-DX=4.24
##DATA TYPE=MASS SPECTRUM
##ORIGIN=Japan AIST/NIMC Database- Spectrum MS-NW- 546
##OWNER=NIST Mass Spectrometry Data Center
Collection (C) 2014 copyright by the U.S. Secretary of Commerce
on behalf of the United States of America. All rights reserved.
##CAS REGISTRY NO=111-70-6
##$NIST MASS SPEC NO=228384
##MOLFORM=C7 H16 O
##MW=116
##$NIST SOURCE=MSDC
##XUNITS=M/Z
##YUNITS=RELATIVE INTENSITY
##XFACTOR=1
##YFACTOR=1
##FIRSTX=14
##LASTX=99
##FIRSTY=10
##MAXX=99
##MINX=14
##MAXY=9999
##MINY=10
##NPOINTS=58
##PEAK TABLE=(XY..XY)
14,10 15,129 17,60 18,319
19,90 26,119 27,2019 28,459
29,2719 30,70 31,2559 32,30
33,20 37,20 38,50 39,1129
40,239 41,6259 42,4849 43,6669
44,269 45,359 46,20 50,40
51,70 52,30 53,249 54,559
55,6569 56,9549 57,2339 58,90
59,40 60,10 63,10 65,30
66,10 67,179 68,1329 69,5159
70,9999 71,629 72,20 73,199
77,20 79,10 81,60 82,30
83,739 84,60 85,80 86,20
87,10 94,20 96,10 97,80
98,559 99,40
##END=
