##TITLE=Bis(2-chloroethyl) ether
##JCAMP-DX=4.24
##DATA TYPE=MASS SPECTRUM
##ORIGIN=NIST Mass Spectrometry Data Center, 1990.
##OWNER=NIST Mass Spectrometry Data Center
Collection (C) 2014 copyright by the U.S. Secretary of Commerce
on behalf of the United States of America. All rights reserved.
##CAS REGISTRY NO=111-44-4
##$NIST MASS SPEC NO=114915
##MOLFORM=C4 H8 Cl2 O
##MW=142
##$NIST SOURCE=MSDC
##XUNITS=M/Z
##YUNITS=RELATIVE INTENSITY
##XFACTOR=1
##YFACTOR=1
##FIRSTX=26
##LASTX=144
##FIRSTY=885
##MAXX=144
##MINX=26
##MAXY=9999
##MINY=50
##NPOINTS=35
##PEAK TABLE=(XY..XY)
26,885 27,3659 28,230 29,1003
30,209 31,533 35,105 36,81
39,61 40,86 41,97 42,276
43,368 44,259 45,198 47,126
48,185 49,1091 50,224 51,352
57,66 60,51 61,221 63,6412
64,321 65,2065 66,50 79,83
93,9999 95,3204 96,116 106,276
108,93 142,126 144,74
##END=
