##TITLE=Pentane, 1,5-dimethoxy-
##JCAMP-DX=4.24
##DATA TYPE=MASS SPECTRUM
##ORIGIN=H.FR.GRUTZMACHER UNIV. OF HAMBURG, W.GERMANY
##OWNER=NIST Mass Spectrometry Data Center
Collection (C) 2014 copyright by the U.S. Secretary of Commerce
on behalf of the United States of America. All rights reserved.
##CAS REGISTRY NO=111-89-7
##$NIST MASS SPEC NO=3018
##MOLFORM=C7 H16 O2
##MW=132
##$NIST SOURCE=MSDC
##XUNITS=M/Z
##YUNITS=RELATIVE INTENSITY
##XFACTOR=1
##YFACTOR=1
##FIRSTX=39
##LASTX=117
##FIRSTY=310
##MAXX=117
##MINX=39
##MAXY=9999
##MINY=10
##NPOINTS=41
##PEAK TABLE=(XY..XY)
39,310 41,1110 42,480 43,310
45,9999 46,260 47,60 52,20
53,150 54,100 55,600 56,120
57,260 58,1800 59,210 60,20
65,60 66,80 67,830 68,2330
69,630 70,220 71,6520 72,560
73,50 75,40 81,20 82,20
83,30 84,10 85,500 86,20
87,290 88,20 97,30 98,10
99,110 100,3170 101,230 102,40
117,90
##END=
