##TITLE=1-Propanol, 3-ethoxy-
##JCAMP-DX=4.24
##DATA TYPE=MASS SPECTRUM
##ORIGIN=NIST Mass Spectrometry Data Center, 1990.
##OWNER=NIST Mass Spectrometry Data Center
Collection (C) 2014 copyright by the U.S. Secretary of Commerce
on behalf of the United States of America. All rights reserved.
##CAS REGISTRY NO=111-35-3
##$NIST MASS SPEC NO=118811
##MOLFORM=C5 H12 O2
##MW=104
##$NIST SOURCE=MSDC
##XUNITS=M/Z
##YUNITS=RELATIVE INTENSITY
##XFACTOR=1
##YFACTOR=1
##FIRSTX=13
##LASTX=103
##FIRSTY=31
##MAXX=103
##MINX=13
##MAXY=9999
##MINY=6
##NPOINTS=51
##PEAK TABLE=(XY..XY)
13,31 14,143 15,556 16,43
17,6 18,41 19,592 26,567
27,2645 28,2047 29,5191 30,904
31,9999 32,136 33,68 37,21
38,61 39,418 40,192 41,2060
42,957 43,1286 44,452 45,3439
46,147 47,628 48,22 49,12
53,20 54,17 55,126 56,12
57,2955 58,4057 59,5291 60,228
61,425 62,18 63,12 69,11
71,1854 72,105 73,58 74,11
75,1584 76,65 86,618 87,41
89,303 90,11 103,31
##END=
