##TITLE=10-Undecenoic acid, methyl ester
##JCAMP-DX=4.24
##DATA TYPE=MASS SPECTRUM
##OWNER=NIST Mass Spectrometry Data Center
Collection (C) 2014 copyright by the U.S. Secretary of Commerce
on behalf of the United States of America. All rights reserved.
##CAS REGISTRY NO=111-81-9
##$NIST MASS SPEC NO=22463
##MOLFORM=C12 H22 O2
##MW=198
##$NIST SOURCE=MSDC
##XUNITS=M/Z
##YUNITS=RELATIVE INTENSITY
##XFACTOR=1
##YFACTOR=1
##FIRSTX=15
##LASTX=198
##FIRSTY=921
##MAXX=198
##MINX=15
##MAXY=9999
##MINY=10
##NPOINTS=81
##PEAK TABLE=(XY..XY)
15,921 27,1071 28,581 29,1581
31,120 39,1391 40,230 41,4744
42,1011 43,2582 44,140 45,340
51,90 52,60 53,571 54,991
55,7357 56,901 57,711 59,2312
60,100 65,110 66,90 67,1511
68,1421 69,3193 70,470 71,400
72,140 73,651 74,9999 75,831
79,350 80,290 81,1391 82,2182
83,2973 84,2532 85,540 87,4794
88,550 93,230 94,330 95,871
96,2803 97,1692 98,1421 99,250
100,100 101,581 102,90 107,220
108,110 109,440 110,771 111,470
112,10 113,330 114,440 115,470
116,100 119,190 122,561 123,951
124,2772 125,721 127,200 128,250
129,170 137,581 138,380 141,180
143,110 148,310 149,851 150,110
151,80 155,140 166,991 167,370
198,30
##END=
