##TITLE=1,2-Ethanediol, diacetate
##JCAMP-DX=4.24
##DATA TYPE=MASS SPECTRUM
##ORIGIN=NIST Mass Spectrometry Data Center, 2007
##OWNER=NIST Mass Spectrometry Data Center
Collection (C) 2014 copyright by the U.S. Secretary of Commerce
on behalf of the United States of America. All rights reserved.
##CAS REGISTRY NO=111-55-7
##$NIST MASS SPEC NO=351942
##MOLFORM=C6 H10 O4
##MW=146
##$NIST SOURCE=MSDC
##XUNITS=M/Z
##YUNITS=RELATIVE INTENSITY
##XFACTOR=1
##YFACTOR=1
##FIRSTX=14
##LASTX=118
##FIRSTY=120
##MAXX=118
##MINX=14
##MAXY=9999
##MINY=10
##NPOINTS=30
##PEAK TABLE=(XY..XY)
14,120 15,731 16,20 18,10
19,10 26,70 27,120 28,160
29,280 30,40 31,70 41,40
42,450 43,9999 44,290 45,90
60,10 61,60 73,561 74,150
75,10 86,1571 87,110 88,30
101,20 103,360 104,50 116,651
117,40 118,10
##END=
