##TITLE=Propanenitrile, 3,3'-thiobis-
##JCAMP-DX=4.24
##DATA TYPE=MASS SPECTRUM
##ORIGIN=Japan AIST/NIMC Database- Spectrum MS-NW-1454
##OWNER=NIST Mass Spectrometry Data Center
Collection (C) 2014 copyright by the U.S. Secretary of Commerce
on behalf of the United States of America. All rights reserved.
##CAS REGISTRY NO=111-97-7
##$NIST MASS SPEC NO=229706
##MOLFORM=C6 H8 N2 S
##MW=140
##$NIST SOURCE=MSDC
##XUNITS=M/Z
##YUNITS=RELATIVE INTENSITY
##XFACTOR=1
##YFACTOR=1
##FIRSTX=12
##LASTX=143
##FIRSTY=10
##MAXX=143
##MINX=12
##MAXY=9999
##MINY=10
##NPOINTS=74
##PEAK TABLE=(XY..XY)
12,10 13,10 14,40 15,50
16,10 25,40 26,519 27,969
28,169 29,60 30,10 31,99
32,30 33,50 34,40 35,40
36,10 37,30 38,60 39,129
40,129 41,429 42,399 43,90
44,90 45,1529 46,689 47,969
48,50 49,40 50,30 51,209
52,579 53,259 54,9999 55,579
56,70 57,219 58,299 59,649
60,419 61,50 62,20 66,50
67,20 68,10 69,20 70,30
71,50 72,189 73,529 74,30
75,30 82,20 83,60 84,80
85,70 86,109 87,90 94,10
98,70 99,30 100,5449 101,319
102,259 103,20 112,80 113,499
114,40 115,20 140,2219 141,189
142,119 143,10
##END=
