##TITLE=Hexadecanoic acid, butyl ester
##JCAMP-DX=4.24
##DATA TYPE=MASS SPECTRUM
##ORIGIN=Japan AIST/NIMC Database- Spectrum MS-NW-5188
##OWNER=NIST Mass Spectrometry Data Center
Collection (C) 2014 copyright by the U.S. Secretary of Commerce
on behalf of the United States of America. All rights reserved.
##CAS REGISTRY NO=111-06-8
##$NIST MASS SPEC NO=232981
##MOLFORM=C20 H40 O2
##MW=312
##$NIST SOURCE=MSDC
##XUNITS=M/Z
##YUNITS=RELATIVE INTENSITY
##XFACTOR=1
##YFACTOR=1
##FIRSTX=15
##LASTX=314
##FIRSTY=20
##MAXX=314
##MINX=15
##MAXY=9999
##MINY=10
##NPOINTS=186
##PEAK TABLE=(XY..XY)
15,20 17,10 18,30 26,30
27,529 28,109 29,1919 30,40
31,50 32,10 37,10 38,20
39,359 40,70 41,3039 42,529
43,3289 44,119 45,90 49,10
50,50 51,50 52,60 53,129
54,219 55,2179 56,9999 57,5029
58,229 59,99 60,2259 61,1539
62,40 63,20 65,20 66,20
67,329 68,219 69,1259 70,359
71,1499 72,109 73,2569 74,279
75,50 76,20 77,80 78,349
79,99 80,50 81,339 82,199
83,999 84,509 85,929 86,80
87,519 88,80 89,70 91,30
92,20 93,60 94,40 95,349
96,159 97,759 98,739 99,259
100,30 101,719 102,129 103,80
104,10 105,10 107,50 108,20
109,209 110,80 111,379 112,179
113,149 114,30 115,429 116,1129
117,579 118,40 119,10 121,70
122,20 123,109 124,50 125,209
126,60 127,99 128,20 129,1869
130,189 131,40 133,10 135,70
136,10 137,50 138,40 139,139
140,40 141,60 142,10 143,209
144,40 145,20 149,60 150,10
151,30 152,30 153,90 154,30
155,30 157,289 158,70 159,10
163,30 164,10 165,20 166,20
167,50 168,20 169,10 171,359
172,80 173,20 177,20 179,10
181,30 182,10 183,10 185,479
186,70 187,20 191,10 192,10
194,70 195,40 196,30 197,20
199,119 200,40 201,30 209,10
210,10 211,10 213,539 214,99
215,20 219,40 220,20 221,10
225,10 227,179 228,40 229,20
236,30 237,80 238,30 239,1879
240,349 241,80 242,20 243,10
253,10 255,40 256,769 257,2769
258,499 259,60 267,20 269,109
270,30 271,20 283,40 284,20
285,10 297,10 311,10 312,549
313,129 314,10
##END=
