##TITLE=Squalene
##JCAMP-DX=4.24
##DATA TYPE=MASS SPECTRUM
##ORIGIN=NIST Mass Spectrometry Data Center, 1998.
##OWNER=NIST Mass Spectrometry Data Center
Collection (C) 2014 copyright by the U.S. Secretary of Commerce
on behalf of the United States of America. All rights reserved.
##CAS REGISTRY NO=111-02-4
##$NIST MASS SPEC NO=290792
##MOLFORM=C30 H50
##MW=410
##$NIST SOURCE=MSDC
##XUNITS=M/Z
##YUNITS=RELATIVE INTENSITY
##XFACTOR=1
##YFACTOR=1
##FIRSTX=27
##LASTX=411
##FIRSTY=70
##MAXX=411
##MINX=27
##MAXY=9999
##MINY=10
##NPOINTS=148
##PEAK TABLE=(XY..XY)
27,70 29,110 38,10 39,180
40,80 41,2640 42,130 43,230
44,10 50,10 51,30 52,20
53,490 54,50 55,740 56,50
57,200 58,10 63,10 65,100
66,50 67,1070 68,1340 69,9999
70,600 71,90 77,240 78,50
79,500 80,240 81,5459 82,610
83,240 84,20 85,10 91,350
92,190 93,1080 94,450 95,1550
96,160 97,130 98,10 103,20
104,10 105,280 106,100 107,770
108,220 109,810 110,100 111,100
112,10 115,20 116,10 117,30
118,10 119,340 120,110 121,1210
122,300 123,890 124,110 125,30
128,10 129,10 131,20 132,20
133,190 134,210 135,580 136,1160
137,1210 138,130 139,10 145,40
146,20 147,270 148,120 149,710
150,130 151,30 159,40 160,10
161,200 162,90 163,160 164,20
165,10 173,30 174,10 175,190
176,60 177,120 178,30 179,10
187,30 188,10 189,150 190,50
191,170 192,140 193,20 201,20
202,10 203,140 204,50 205,60
206,10 215,20 216,10 217,60
218,30 219,10 229,20 230,10
231,70 232,10 233,10 243,10
244,10 245,10 257,20 258,10
259,20 260,10 271,10 272,10
273,40 274,10 285,10 286,10
297,10 299,40 300,10 301,10
325,10 326,10 327,10 328,20
329,10 341,110 342,30 367,50
368,10 395,10 410,40 411,10
##END=
