##TITLE=Decanedioyl dichloride
##JCAMP-DX=4.24
##DATA TYPE=MASS SPECTRUM
##ORIGIN=Japan AIST/NIMC Database- Spectrum MS-IW-3596
##OWNER=NIST Mass Spectrometry Data Center
Collection (C) 2014 copyright by the U.S. Secretary of Commerce
on behalf of the United States of America. All rights reserved.
##CAS REGISTRY NO=111-19-3
##$NIST MASS SPEC NO=236431
##MOLFORM=C10 H16 Cl2 O2
##MW=238
##$NIST SOURCE=MSDC
##XUNITS=M/Z
##YUNITS=RELATIVE INTENSITY
##XFACTOR=1
##YFACTOR=1
##FIRSTX=14
##LASTX=206
##FIRSTY=10
##MAXX=206
##MINX=14
##MAXY=9999
##MINY=10
##NPOINTS=133
##PEAK TABLE=(XY..XY)
14,10 15,40 18,10 26,90
27,1499 28,539 29,1109 30,20
35,179 36,1409 37,60 38,469
39,1309 40,289 41,4429 42,1229
43,1409 44,80 45,20 46,10
47,20 48,20 49,70 50,40
51,119 52,60 53,529 54,729
55,9999 56,1109 57,559 58,50
59,20 60,10 61,20 62,20
63,509 64,20 65,199 66,90
67,1209 68,1179 69,3219 70,779
71,139 72,20 73,20 74,10
75,90 76,30 77,249 78,809
79,809 80,1629 81,1309 82,629
83,1899 84,4819 85,309 86,30
88,20 89,60 90,30 91,309
92,90 93,389 94,659 95,1099
96,429 97,1589 98,8119 99,549
100,30 101,10 102,40 103,40
104,60 105,139 106,50 107,809
108,70 109,399 110,599 111,779
112,419 113,30 114,20 115,10
116,20 117,20 118,40 119,99
120,109 121,709 122,239 123,329
124,279 125,1149 126,99 127,10
129,10 130,30 131,60 132,30
133,30 134,10 135,10 136,20
137,129 138,1039 139,1429 140,129
141,10 145,20 146,20 147,30
148,40 149,50 151,10 158,70
159,40 160,30 161,20 166,60
167,1609 168,179 169,10 174,10
193,10 203,1489 204,159 205,499
206,50
##END=
