##TITLE=1-Butanamine, N-butyl-
##JCAMP-DX=4.24
##DATA TYPE=MASS SPECTRUM
##ORIGIN=Japan AIST/NIMC Database- Spectrum MS-NW-8462
##OWNER=NIST Mass Spectrometry Data Center
Collection (C) 2014 copyright by the U.S. Secretary of Commerce
on behalf of the United States of America. All rights reserved.
##CAS REGISTRY NO=111-92-2
##$NIST MASS SPEC NO=228624
##MOLFORM=C8 H19 N
##MW=129
##$NIST SOURCE=MSDC
##XUNITS=M/Z
##YUNITS=RELATIVE INTENSITY
##XFACTOR=1
##YFACTOR=1
##FIRSTX=15
##LASTX=130
##FIRSTY=70
##MAXX=130
##MINX=15
##MAXY=9999
##MINY=10
##NPOINTS=42
##PEAK TABLE=(XY..XY)
15,70 26,40 27,609 28,619
29,2069 30,6189 31,99 38,10
39,349 40,40 41,1759 42,459
43,529 44,7199 45,189 51,10
52,10 53,60 54,50 55,309
56,439 57,1729 58,139 68,50
69,10 70,149 71,10 72,249
73,40 82,10 84,169 85,20
86,9999 87,589 88,10 98,20
100,70 112,20 114,20 128,149
129,709 130,99
##END=
