##TITLE=1,2-Ethanediamine, N-ethyl-N'-methyl-
##JCAMP-DX=4.24
##DATA TYPE=MASS SPECTRUM
##ORIGIN=RADIAN CORP
##OWNER=NIST Mass Spectrometry Data Center
Collection (C) 2014 copyright by the U.S. Secretary of Commerce
on behalf of the United States of America. All rights reserved.
##CAS REGISTRY NO=111-37-5
##$NIST MASS SPEC NO=71277
##MOLFORM=C5 H14 N2
##MW=102
##$NIST SOURCE=MSDC
##XUNITS=M/Z
##YUNITS=RELATIVE INTENSITY
##XFACTOR=1
##YFACTOR=1
##FIRSTX=15
##LASTX=103
##FIRSTY=130
##MAXX=103
##MINX=15
##MAXY=9999
##MINY=10
##NPOINTS=32
##PEAK TABLE=(XY..XY)
15,130 26,50 27,370 28,950
29,520 30,3290 31,120 32,10
39,20 40,70 41,220 42,780
43,450 44,5540 45,270 46,60
52,10 54,80 55,50 56,520
57,290 58,9999 59,630 60,30
68,20 69,50 70,50 71,80
72,130 85,40 102,60 103,10
##END=
