##TITLE=2-Nonynoic acid, methyl ester
##JCAMP-DX=4.24
##DATA TYPE=MASS SPECTRUM
##ORIGIN=Japan AIST/NIMC Database- Spectrum MS-IW-7355
##OWNER=NIST Mass Spectrometry Data Center
Collection (C) 2014 copyright by the U.S. Secretary of Commerce
on behalf of the United States of America. All rights reserved.
##CAS REGISTRY NO=111-80-8
##$NIST MASS SPEC NO=237564
##MOLFORM=C10 H16 O2
##MW=168
##$NIST SOURCE=MSDC
##XUNITS=M/Z
##YUNITS=RELATIVE INTENSITY
##XFACTOR=1
##YFACTOR=1
##FIRSTX=12
##LASTX=170
##FIRSTY=10
##MAXX=170
##MINX=12
##MAXY=9999
##MINY=10
##NPOINTS=132
##PEAK TABLE=(XY..XY)
12,10 13,10 14,40 15,1159
16,30 17,10 18,30 25,10
26,289 27,3169 28,1229 29,4019
30,209 31,559 32,379 33,449
37,199 38,769 39,3889 40,759
41,7599 42,2379 43,8139 44,769
45,389 46,20 47,10 49,50
50,509 51,1259 52,1069 53,2589
54,859 55,5169 56,839 57,329
58,109 59,3269 60,109 61,229
62,119 63,309 64,109 65,1179
66,3159 67,7379 68,2179 69,4549
70,899 71,519 72,80 73,109
74,419 75,119 76,40 77,1619
78,539 79,9999 80,1769 81,4009
82,1069 83,439 84,239 85,639
86,60 87,349 88,40 89,40
90,20 91,1009 92,229 93,3529
94,1779 95,1579 96,279 97,1489
98,2139 99,1499 100,4429 101,309
102,60 103,99 104,50 105,229
106,119 107,3039 108,1619 109,3759
110,379 111,2309 112,609 113,749
114,179 115,90 116,50 117,109
118,70 119,60 120,40 121,1639
122,169 123,70 124,60 125,1919
126,389 127,149 128,30 129,20
130,10 131,20 132,20 133,10
134,30 135,519 136,649 137,5669
138,609 139,2049 140,639 141,70
142,10 151,50 152,10 153,769
154,80 155,10 165,10 166,10
167,119 168,30 169,139 170,10
##END=
