##TITLE=Di-n-propyl ether
##JCAMP-DX=4.24
##DATA TYPE=MASS SPECTRUM
##ORIGIN=NIST Mass Spectrometry Data Center, 1994
##OWNER=NIST Mass Spectrometry Data Center
Collection (C) 2014 copyright by the U.S. Secretary of Commerce
on behalf of the United States of America. All rights reserved.
##CAS REGISTRY NO=111-43-3
##$NIST MASS SPEC NO=134138
##MOLFORM=C6 H14 O
##MW=102
##$NIST SOURCE=MSDC
##XUNITS=M/Z
##YUNITS=RELATIVE INTENSITY
##XFACTOR=1
##YFACTOR=1
##FIRSTX=12
##LASTX=103
##FIRSTY=6
##MAXX=103
##MINX=12
##MAXY=9999
##MINY=4
##NPOINTS=34
##PEAK TABLE=(XY..XY)
12,6 14,85 15,544 16,12
19,4 26,541 27,3314 28,482
29,1606 30,173 31,759 37,52
39,1370 41,3158 43,9999 44,835
45,180 46,4 53,12 55,678
56,39 57,116 58,4 59,425
60,22 61,141 62,5 69,6
71,34 73,2127 74,105 75,6
102,954 103,62
##END=
