##TITLE=1,2-Ethanediamine, N-propyl-
##JCAMP-DX=4.24
##DATA TYPE=MASS SPECTRUM
##ORIGIN=RADIAN CORP
##OWNER=NIST Mass Spectrometry Data Center
Collection (C) 2014 copyright by the U.S. Secretary of Commerce
on behalf of the United States of America. All rights reserved.
##CAS REGISTRY NO=111-39-7
##$NIST MASS SPEC NO=72890
##MOLFORM=C5 H14 N2
##MW=102
##$NIST SOURCE=MSDC
##XUNITS=M/Z
##YUNITS=RELATIVE INTENSITY
##XFACTOR=1
##YFACTOR=1
##FIRSTX=15
##LASTX=103
##FIRSTY=80
##MAXX=103
##MINX=15
##MAXY=9999
##MINY=10
##NPOINTS=33
##PEAK TABLE=(XY..XY)
15,80 18,260 26,20 27,700
28,1300 29,240 30,8300 31,160
32,170 39,370 40,120 41,1720
42,1220 43,2730 44,3950 45,120
54,90 55,30 56,440 57,80
58,330 59,30 67,10 68,60
69,20 70,190 71,100 72,9999
73,850 84,10 85,30 102,240
103,30
##END=
