##TITLE=1-Octanethiol
##JCAMP-DX=4.24
##DATA TYPE=MASS SPECTRUM
##ORIGIN=D.HENNEBERG, MAX-PLANCK INSTITUTE, MULHEIM, WEST GERMANY
##OWNER=NIST Mass Spectrometry Data Center
Collection (C) 2014 copyright by the U.S. Secretary of Commerce
on behalf of the United States of America. All rights reserved.
##CAS REGISTRY NO=111-88-6
##$NIST MASS SPEC NO=63642
##MOLFORM=C8 H18 S
##MW=146
##$NIST SOURCE=MSDC
##XUNITS=M/Z
##YUNITS=RELATIVE INTENSITY
##XFACTOR=1
##YFACTOR=1
##FIRSTX=26
##LASTX=149
##FIRSTY=365
##MAXX=149
##MINX=26
##MAXY=9999
##MINY=2
##NPOINTS=96
##PEAK TABLE=(XY..XY)
26,365 27,2280 28,639 29,4405
30,113 32,53 33,54 34,139
35,283 36,39 38,28 39,1071
40,275 41,8312 42,5193 43,7802
44,245 45,19 46,277 47,2665
48,154 49,138 50,54 51,55
52,60 53,405 54,616 55,8037
56,9999 57,3483 58,156 59,106
60,430 61,1717 62,151 63,123
64,24 65,69 66,45 67,492
68,2107 69,5912 70,6743 71,1247
72,54 73,89 75,70 76,33
77,39 78,19 79,109 80,22
81,123 82,1072 83,4384 84,4688
85,341 86,57 87,111 88,63
89,1113 90,57 91,137 92,18
93,14 94,58 95,17 96,15
97,403 98,32 101,34 103,81
104,8 105,6 106,25 107,34
109,18 110,5 111,15 112,1498
113,138 114,11 115,13 117,26
121,3 122,5 129,2 133,5
138,2 141,3 144,7 145,135
146,3522 147,398 148,164 149,14
##END=
