##TITLE=Glutaraldehyde
##JCAMP-DX=4.24
##DATA TYPE=MASS SPECTRUM
##ORIGIN=NIST Mass Spectrometry Data Center
##OWNER=NIST Mass Spectrometry Data Center
Collection (C) 2014 copyright by the U.S. Secretary of Commerce
on behalf of the United States of America. All rights reserved.
##CAS REGISTRY NO=111-30-8
##$NIST MASS SPEC NO=341303
##MOLFORM=C5 H8 O2
##MW=100
##$NIST SOURCE=MSDC
##XUNITS=M/Z
##YUNITS=RELATIVE INTENSITY
##XFACTOR=1
##YFACTOR=1
##FIRSTX=14
##LASTX=100
##FIRSTY=40
##MAXX=100
##MINX=14
##MAXY=9999
##MINY=10
##NPOINTS=40
##PEAK TABLE=(XY..XY)
14,40 15,180 25,30 26,420
27,3093 28,90 29,3483 30,100
31,270 32,10 37,210 38,420
39,2823 40,320 41,4554 42,1431
43,5115 44,9999 45,360 46,30
49,70 50,210 51,180 52,40
53,420 54,470 55,911 56,180
57,2052 58,100 68,30 69,100
70,40 71,330 72,2722 73,140
81,991 82,2502 83,150 100,30
##END=
