##TITLE=Ethanol, 2-(butylamino)-
##JCAMP-DX=4.24
##DATA TYPE=MASS SPECTRUM
##ORIGIN=Japan AIST/NIMC Database- Spectrum MS-NW-2114
##OWNER=NIST Mass Spectrometry Data Center
Collection (C) 2014 copyright by the U.S. Secretary of Commerce
on behalf of the United States of America. All rights reserved.
##CAS REGISTRY NO=111-75-1
##$NIST MASS SPEC NO=233726
##MOLFORM=C6 H15 N O
##MW=117
##$NIST SOURCE=MSDC
##XUNITS=M/Z
##YUNITS=RELATIVE INTENSITY
##XFACTOR=1
##YFACTOR=1
##FIRSTX=14
##LASTX=118
##FIRSTY=30
##MAXX=118
##MINX=14
##MAXY=9999
##MINY=10
##NPOINTS=67
##PEAK TABLE=(XY..XY)
14,30 15,439 16,10 17,30
18,109 26,149 27,1329 28,1389
29,3109 30,8939 31,319 32,50
36,30 37,20 38,50 39,579
40,109 41,2499 42,1759 43,1059
44,6099 45,939 46,20 50,30
51,40 52,40 53,109 54,149
55,509 56,4809 57,2629 58,189
59,30 60,369 61,70 62,10
67,40 68,90 69,70 70,219
71,119 72,199 73,30 74,7359
75,289 76,20 79,10 80,30
81,50 82,60 83,40 84,379
85,30 86,9999 87,609 88,40
95,50 96,10 98,269 99,199
100,70 101,10 102,10 114,20
116,209 117,739 118,50
##END=
