##TITLE=2-Ethoxyethyl acetate
##JCAMP-DX=4.24
##DATA TYPE=MASS SPECTRUM
##ORIGIN=NIST Mass Spectrometry Data Center, 2007
##OWNER=NIST Mass Spectrometry Data Center
Collection (C) 2014 copyright by the U.S. Secretary of Commerce
on behalf of the United States of America. All rights reserved.
##CAS REGISTRY NO=111-15-9
##$NIST MASS SPEC NO=351927
##MOLFORM=C6 H12 O3
##MW=132
##$NIST SOURCE=MSDC
##XUNITS=M/Z
##YUNITS=RELATIVE INTENSITY
##XFACTOR=1
##YFACTOR=1
##FIRSTX=14
##LASTX=103
##FIRSTY=70
##MAXX=103
##MINX=14
##MAXY=9999
##MINY=10
##NPOINTS=39
##PEAK TABLE=(XY..XY)
14,70 15,540 16,20 18,10
19,40 25,10 26,170 27,911
28,440 29,1842 30,110 31,3073
32,40 33,10 39,10 40,10
41,350 42,490 43,9999 44,2072
45,1071 46,30 55,10 57,50
58,250 59,3653 60,140 61,370
62,10 70,150 72,3573 73,490
74,220 75,40 87,931 88,771
89,160 90,10 103,10
##END=
