##TITLE=Hexanedioyl dichloride
##JCAMP-DX=4.24
##DATA TYPE=MASS SPECTRUM
##ORIGIN=Japan AIST/NIMC Database- Spectrum MS-NW-1341
##OWNER=NIST Mass Spectrometry Data Center
Collection (C) 2014 copyright by the U.S. Secretary of Commerce
on behalf of the United States of America. All rights reserved.
##CAS REGISTRY NO=111-50-2
##$NIST MASS SPEC NO=227776
##MOLFORM=C6 H8 Cl2 O2
##MW=182
##$NIST SOURCE=MSDC
##XUNITS=M/Z
##YUNITS=RELATIVE INTENSITY
##XFACTOR=1
##YFACTOR=1
##FIRSTX=12
##LASTX=167
##FIRSTY=30
##MAXX=167
##MINX=12
##MAXY=9999
##MINY=10
##NPOINTS=132
##PEAK TABLE=(XY..XY)
12,30 13,30 14,179 15,249
16,70 17,20 18,70 25,80
26,1059 27,3479 28,1599 29,2069
30,50 31,70 32,40 33,10
35,719 36,5489 37,239 38,1769
39,2489 40,459 41,4909 42,1919
43,449 44,1429 45,80 46,30
47,99 48,30 49,219 50,299
51,309 52,159 53,799 54,1039
55,9999 56,1319 57,119 58,20
59,40 60,50 61,80 62,99
63,999 64,50 65,329 66,60
67,109 68,779 69,2569 70,139
71,50 72,20 73,30 74,50
75,129 76,70 77,299 78,669
79,109 80,229 81,159 82,369
83,3849 84,1199 85,80 86,10
87,10 88,20 89,80 90,939
91,399 92,329 93,139 94,30
95,50 96,20 97,30 98,40
99,20 100,30 101,30 102,40
103,70 104,90 105,80 106,40
107,30 108,20 109,129 110,1329
111,3339 112,239 113,30 114,10
115,10 116,30 117,10 118,689
119,1529 120,329 121,529 122,40
123,10 125,10 126,20 127,10
128,10 129,30 130,10 131,109
132,10 133,10 135,20 136,20
137,70 138,20 139,30 144,20
145,10 146,90 147,3819 148,299
149,1299 150,90 151,20 163,40
164,70 165,40 166,20 167,10
##END=
