##TITLE=Butane, 1-isocyanato-
##JCAMP-DX=4.24
##DATA TYPE=MASS SPECTRUM
##ORIGIN=Japan AIST/NIMC Database- Spectrum MS-NW-3538
##OWNER=NIST Mass Spectrometry Data Center
Collection (C) 2014 copyright by the U.S. Secretary of Commerce
on behalf of the United States of America. All rights reserved.
##CAS REGISTRY NO=111-36-4
##$NIST MASS SPEC NO=233941
##MOLFORM=C5 H9 N O
##MW=99
##$NIST SOURCE=MSDC
##XUNITS=M/Z
##YUNITS=RELATIVE INTENSITY
##XFACTOR=1
##YFACTOR=1
##FIRSTX=12
##LASTX=100
##FIRSTY=20
##MAXX=100
##MINX=12
##MAXY=9999
##MINY=10
##NPOINTS=48
##PEAK TABLE=(XY..XY)
12,20 13,30 14,109 15,829
16,10 25,20 26,479 27,4979
28,2349 29,1669 30,2769 31,50
32,20 36,10 37,99 38,189
39,1429 40,549 41,8769 42,1909
43,9999 44,349 49,10 50,60
51,70 52,60 53,99 54,239
55,899 56,4249 57,289 58,649
59,30 64,10 67,10 68,30
69,60 70,1339 71,789 72,40
81,20 82,219 83,20 84,109
97,10 98,1659 99,279 100,20
##END=
