##TITLE=Carbamic acid, monoammonium salt
##JCAMP-DX=4.24
##DATA TYPE=MASS SPECTRUM
##ORIGIN=Japan AIST/NIMC Database- Spectrum MS-NW-5009
##OWNER=NIST Mass Spectrometry Data Center
Collection (C) 2014 copyright by the U.S. Secretary of Commerce
on behalf of the United States of America. All rights reserved.
##CAS REGISTRY NO=1111-78-0
##$NIST MASS SPEC NO=230098
##MOLFORM=C H6 N2 O2
##MW=78
##$NIST SOURCE=MSDC
##XUNITS=M/Z
##YUNITS=RELATIVE INTENSITY
##XFACTOR=1
##YFACTOR=1
##FIRSTX=12
##LASTX=46
##FIRSTY=119
##MAXX=46
##MINX=12
##MAXY=9999
##MINY=20
##NPOINTS=11
##PEAK TABLE=(XY..XY)
12,119 14,20 15,80 16,2269
17,3249 18,3109 22,119 28,499
44,9999 45,119 46,40
##END=
