##TITLE=Silane, dimethyl-
##JCAMP-DX=4.24
##DATA TYPE=MASS SPECTRUM
##ORIGIN=R.W.CRAWFORD UNIV. OF CALIFORNIA, LIVERMORE, CALIFORNIA, USA
##OWNER=NIST Mass Spectrometry Data Center
Collection (C) 2014 copyright by the U.S. Secretary of Commerce
on behalf of the United States of America. All rights reserved.
##CAS REGISTRY NO=1111-74-6
##$NIST MASS SPEC NO=158
##MOLFORM=C2 H8 Si
##MW=60
##$NIST SOURCE=MSDC
##XUNITS=M/Z
##YUNITS=RELATIVE INTENSITY
##XFACTOR=1
##YFACTOR=1
##FIRSTX=2
##LASTX=63
##FIRSTY=157
##MAXX=63
##MINX=2
##MAXY=9999
##MINY=3
##NPOINTS=38
##PEAK TABLE=(XY..XY)
2,157 12,83 13,145 14,340
15,1046 16,48 17,4 18,9
25,6 26,42 27,115 28,2952
29,2420 30,400 31,2324 32,123
33,74 40,164 41,1150 42,2702
43,6616 44,6230 45,8168 46,666
47,262 48,3 52,120 53,863
54,171 55,426 56,72 57,666
58,7030 59,9999 60,950 61,347
62,10 63,5
##END=
