##TITLE=Silane, tetraethenyl-
##JCAMP-DX=4.24
##DATA TYPE=MASS SPECTRUM
##ORIGIN=RADIAN CORP
##OWNER=NIST Mass Spectrometry Data Center
Collection (C) 2014 copyright by the U.S. Secretary of Commerce
on behalf of the United States of America. All rights reserved.
##CAS REGISTRY NO=1112-55-6
##$NIST MASS SPEC NO=75324
##MOLFORM=C8 H12 Si
##MW=136
##$NIST SOURCE=MSDC
##XUNITS=M/Z
##YUNITS=RELATIVE INTENSITY
##XFACTOR=1
##YFACTOR=1
##FIRSTX=26
##LASTX=136
##FIRSTY=170
##MAXX=136
##MINX=26
##MAXY=9999
##MINY=10
##NPOINTS=69
##PEAK TABLE=(XY..XY)
26,170 27,440 28,300 29,580
30,90 31,440 32,30 38,20
39,140 40,20 41,80 42,160
43,590 44,60 45,60 49,20
50,90 51,160 53,3270 54,2560
55,6050 56,1700 57,5040 58,810
59,210 60,20 64,10 65,200
66,390 67,2680 68,350 69,370
70,210 71,370 72,40 76,50
77,410 78,370 79,940 80,1870
81,5070 82,9100 83,9999 84,1310
85,380 86,30 91,200 92,110
93,990 94,580 95,2690 96,490
97,140 105,580 106,3960 107,5560
108,9830 109,4970 110,900 111,180
119,90 120,30 121,1020 122,140
123,40 133,70 134,40 135,330
136,50
##END=
