##TITLE=2-Methylmalonodiamide
##JCAMP-DX=4.24
##DATA TYPE=MASS SPECTRUM
##ORIGIN=Pu Leung, NIH, Bethesda, MD
##OWNER=NIST Mass Spectrometry Data Center
Collection (C) 2014 copyright by the U.S. Secretary of Commerce
on behalf of the United States of America. All rights reserved.
##CAS REGISTRY NO=1113-63-9
##$NIST MASS SPEC NO=212844
##MOLFORM=C4 H8 N2 O2
##MW=116
##$NIST SOURCE=MSDC
##XUNITS=M/Z
##YUNITS=RELATIVE INTENSITY
##XFACTOR=1
##YFACTOR=1
##FIRSTX=41
##LASTX=117
##FIRSTY=108
##MAXX=117
##MINX=41
##MAXY=9999
##MINY=3
##NPOINTS=45
##PEAK TABLE=(XY..XY)
41,108 42,605 43,79 44,9132
45,1725 47,653 48,228 52,185
53,235 54,520 55,3934 56,1720
57,2009 58,67 59,24 60,20
61,18 62,3 63,8 65,13
66,3 67,20 68,29 69,81
70,60 71,132 72,5806 73,9999
74,182 75,40 77,32 78,72
79,14 80,4 81,13 82,36
83,112 98,18 99,70 100,634
101,26 102,3 115,46 116,138
117,8
##END=
