##TITLE=N,N-Diethylpropionamide
##JCAMP-DX=4.24
##DATA TYPE=MASS SPECTRUM
##ORIGIN=Japan AIST/NIMC Database- Spectrum MS-NW-4184
##OWNER=NIST Mass Spectrometry Data Center
Collection (C) 2014 copyright by the U.S. Secretary of Commerce
on behalf of the United States of America. All rights reserved.
##CAS REGISTRY NO=1114-51-8
##$NIST MASS SPEC NO=229999
##MOLFORM=C7 H15 N O
##MW=129
##$NIST SOURCE=MSDC
##XUNITS=M/Z
##YUNITS=RELATIVE INTENSITY
##XFACTOR=1
##YFACTOR=1
##FIRSTX=14
##LASTX=131
##FIRSTY=20
##MAXX=131
##MINX=14
##MAXY=9999
##MINY=10
##NPOINTS=48
##PEAK TABLE=(XY..XY)
14,20 15,199 26,149 27,1049
28,469 29,3449 30,869 31,20
32,10 39,30 40,40 41,119
42,539 43,80 44,2629 45,80
46,40 51,10 52,20 53,10
54,70 55,159 56,369 57,2479
58,9999 59,369 60,10 68,10
70,70 71,40 72,1869 73,119
74,30 77,20 78,10 84,10
86,499 87,20 98,10 100,1169
101,199 102,20 114,259 115,20
128,20 129,2939 130,259 131,20
##END=
