##TITLE=(CH3O)2CS
##JCAMP-DX=4.24
##DATA TYPE=MASS SPECTRUM
##ORIGIN=Dennis Rohrbaugh, CBDCOM/ERDEC, Edgewood, MD
##OWNER=NIST Mass Spectrometry Data Center
Collection (C) 2014 copyright by the U.S. Secretary of Commerce
on behalf of the United States of America. All rights reserved.
##CAS REGISTRY NO=1115-13-5
##$NIST MASS SPEC NO=226724
##MOLFORM=C3 H6 O2 S
##MW=106
##$NIST SOURCE=MSDC
##XUNITS=M/Z
##YUNITS=RELATIVE INTENSITY
##XFACTOR=1
##YFACTOR=1
##FIRSTX=43
##LASTX=109
##FIRSTY=439
##MAXX=109
##MINX=43
##MAXY=9999
##MINY=30
##NPOINTS=21
##PEAK TABLE=(XY..XY)
43,439 45,3129 46,779 47,2689
48,249 59,1599 60,1739 61,6839
62,419 63,369 75,3289 76,2279
77,259 78,119 91,60 92,30
94,50 106,9999 107,1349 108,529
109,70
##END=
