##TITLE=1-Propanamine, 2-methyl-N,N-bis(2-methylpropyl)-
##JCAMP-DX=4.24
##DATA TYPE=MASS SPECTRUM
##ORIGIN=Japan AIST/NIMC Database- Spectrum MS-NW-4028
##OWNER=NIST Mass Spectrometry Data Center
Collection (C) 2014 copyright by the U.S. Secretary of Commerce
on behalf of the United States of America. All rights reserved.
##CAS REGISTRY NO=1116-40-1
##$NIST MASS SPEC NO=232065
##MOLFORM=C12 H27 N
##MW=185
##$NIST SOURCE=MSDC
##XUNITS=M/Z
##YUNITS=RELATIVE INTENSITY
##XFACTOR=1
##YFACTOR=1
##FIRSTX=15
##LASTX=186
##FIRSTY=70
##MAXX=186
##MINX=15
##MAXY=9999
##MINY=10
##NPOINTS=55
##PEAK TABLE=(XY..XY)
15,70 26,10 27,299 28,50
29,1139 30,1669 31,20 38,10
39,249 40,30 41,1269 42,729
43,339 44,259 52,10 53,30
54,20 55,339 56,149 57,2639
58,229 67,10 68,40 69,20
70,179 71,20 72,189 73,10
82,30 83,10 84,239 85,20
86,2489 87,149 96,10 98,229
99,30 100,609 101,40 112,70
114,90 126,50 127,10 128,80
129,10 140,70 141,10 142,9999
143,1099 144,50 170,199 171,20
184,70 185,139 186,20
##END=
