##TITLE=6-Octen-1-ol, 3,7-dimethyl-, (R)-
##JCAMP-DX=4.24
##DATA TYPE=MASS SPECTRUM
##ORIGIN=Chuck Anderson, Aldrich Chemical Co.
##OWNER=NIST Mass Spectrometry Data Center
Collection (C) 2014 copyright by the U.S. Secretary of Commerce
on behalf of the United States of America. All rights reserved.
##CAS REGISTRY NO=1117-61-9
##$NIST MASS SPEC NO=108427
##MOLFORM=C10 H20 O
##MW=156
##$NIST SOURCE=MSDC
##XUNITS=M/Z
##YUNITS=RELATIVE INTENSITY
##XFACTOR=1
##YFACTOR=1
##FIRSTX=15
##LASTX=157
##FIRSTY=63
##MAXX=157
##MINX=15
##MAXY=9999
##MINY=5
##NPOINTS=78
##PEAK TABLE=(XY..XY)
15,63 17,10 18,24 19,60
26,61 27,1342 28,279 29,1320
30,50 31,1309 32,25 35,37
36,165 37,24 38,101 39,1499
40,358 41,8520 42,787 43,1825
44,171 45,301 50,49 51,163
52,76 53,891 54,294 55,4456
56,2304 57,1065 58,85 59,64
63,42 65,262 66,108 67,5151
68,2521 69,9999 70,1586 71,2782
72,152 73,19 77,203 78,35
79,385 80,281 81,4151 82,3695
83,1005 84,236 85,255 86,218
87,39 91,122 93,186 94,146
95,3586 96,662 97,144 98,43
99,108 100,25 105,16 107,49
108,9 109,1342 110,396 111,146
112,108 113,31 121,85 123,1695
124,146 136,5 138,690 139,91
156,323 157,22
##END=
