##TITLE=p-Methoxybenzoic acid, hexadecyl ester
##JCAMP-DX=4.24
##DATA TYPE=MASS SPECTRUM
##ORIGIN=Zaikin V.G., TIPS RAS, Moscow, Russia
##OWNER=NIST Mass Spectrometry Data Center
Collection (C) 2014 copyright by the U.S. Secretary of Commerce
on behalf of the United States of America. All rights reserved.
##CAS REGISTRY NO=111722-13-5
##$NIST MASS SPEC NO=292419
##MOLFORM=C24 H40 O3
##MW=376
##$NIST SOURCE=MSDC
##XUNITS=M/Z
##YUNITS=RELATIVE INTENSITY
##XFACTOR=1
##YFACTOR=1
##FIRSTX=26
##LASTX=378
##FIRSTY=10
##MAXX=378
##MINX=26
##MAXY=9999
##MINY=10
##NPOINTS=61
##PEAK TABLE=(XY..XY)
26,10 27,20 29,70 39,30
41,200 42,40 43,260 44,20
53,10 54,30 55,270 56,80
57,170 63,10 64,30 65,10
67,60 68,50 69,190 70,70
71,60 76,10 77,160 78,20
79,10 81,40 82,50 83,130
84,40 85,30 92,120 93,10
94,10 95,20 96,20 97,90
98,20 104,10 105,10 107,100
108,20 109,70 110,10 111,30
112,10 121,20 125,10 135,2112
136,200 137,20 138,10 151,10
152,9999 153,2793 154,240 155,20
165,20 359,20 376,330 377,90
378,10
##END=
