##TITLE=Methanamine, N-methoxy-
##JCAMP-DX=4.24
##DATA TYPE=MASS SPECTRUM
##ORIGIN=Japan AIST/NIMC Database- Spectrum MS-NW-9262
##OWNER=NIST Mass Spectrometry Data Center
Collection (C) 2014 copyright by the U.S. Secretary of Commerce
on behalf of the United States of America. All rights reserved.
##CAS REGISTRY NO=1117-97-1
##$NIST MASS SPEC NO=235169
##MOLFORM=C2 H7 N O
##MW=61
##$NIST SOURCE=MSDC
##XUNITS=M/Z
##YUNITS=RELATIVE INTENSITY
##XFACTOR=1
##YFACTOR=1
##FIRSTX=14
##LASTX=63
##FIRSTY=20
##MAXX=63
##MINX=14
##MAXY=9999
##MINY=10
##NPOINTS=26
##PEAK TABLE=(XY..XY)
14,20 15,909 16,30 17,10
18,40 27,90 28,3069 29,979
30,1259 31,789 32,60 33,799
41,10 42,60 43,20 44,80
45,1559 46,9159 47,139 48,20
58,10 59,10 60,2479 61,9999
62,479 63,20
##END=
