##TITLE=m-Methoxybenzoic acid, tetradecyl ester
##JCAMP-DX=4.24
##DATA TYPE=MASS SPECTRUM
##ORIGIN=Zaikin V.G., TIPS RAS, Moscow, Russia
##OWNER=NIST Mass Spectrometry Data Center
Collection (C) 2014 copyright by the U.S. Secretary of Commerce
on behalf of the United States of America. All rights reserved.
##CAS REGISTRY NO=111722-05-5
##$NIST MASS SPEC NO=292371
##MOLFORM=C22 H36 O3
##MW=348
##$NIST SOURCE=MSDC
##XUNITS=M/Z
##YUNITS=RELATIVE INTENSITY
##XFACTOR=1
##YFACTOR=1
##FIRSTX=27
##LASTX=350
##FIRSTY=40
##MAXX=350
##MINX=27
##MAXY=9999
##MINY=10
##NPOINTS=68
##PEAK TABLE=(XY..XY)
27,40 29,100 38,10 39,50
40,10 41,290 42,60 43,340
44,20 50,10 51,10 53,20
54,40 55,380 56,120 57,190
63,30 64,50 65,30 67,80
68,60 69,260 70,100 71,60
76,30 77,270 78,40 79,30
81,50 82,50 83,180 84,60
85,30 92,210 93,30 94,20
95,20 96,20 97,110 98,30
104,10 105,40 106,10 107,470
108,110 109,260 110,30 111,40
112,10 120,10 121,40 122,20
125,10 133,10 135,2102 136,320
137,40 138,20 150,10 151,30
152,9999 153,2532 154,320 155,30
165,50 348,1672 349,400 350,50
##END=
