##TITLE=1,2-Octanediol
##JCAMP-DX=4.24
##DATA TYPE=MASS SPECTRUM
##ORIGIN=Japan AIST/NIMC Database- Spectrum MS-IW-6303
##OWNER=NIST Mass Spectrometry Data Center
Collection (C) 2014 copyright by the U.S. Secretary of Commerce
on behalf of the United States of America. All rights reserved.
##CAS REGISTRY NO=1117-86-8
##$NIST MASS SPEC NO=237950
##MOLFORM=C8 H18 O2
##MW=146
##$NIST SOURCE=MSDC
##XUNITS=M/Z
##YUNITS=RELATIVE INTENSITY
##XFACTOR=1
##YFACTOR=1
##FIRSTX=15
##LASTX=147
##FIRSTY=159
##MAXX=147
##MINX=15
##MAXY=9999
##MINY=10
##NPOINTS=92
##PEAK TABLE=(XY..XY)
15,159 17,80 18,319 19,20
26,30 27,769 28,269 29,1299
30,60 31,699 32,40 33,40
38,10 39,529 40,90 41,2329
42,569 43,4089 44,729 45,369
46,10 47,30 50,10 51,30
52,10 53,169 54,189 55,9999
56,1019 57,1199 58,299 59,259
60,249 61,1479 62,40 63,10
65,30 66,40 67,419 68,379
69,2529 70,409 71,369 72,119
73,129 74,30 75,80 76,20
77,50 79,50 80,10 81,449
82,219 83,109 84,269 85,239
86,60 87,119 88,40 89,229
90,20 91,40 93,10 95,159
96,189 97,8949 98,699 99,70
100,60 101,60 103,20 105,10
109,60 110,119 111,129 112,20
113,189 114,279 115,3759 116,309
117,859 118,80 119,40 127,10
128,20 129,99 130,10 131,20
144,10 145,99 146,10 147,10
##END=
