##TITLE=o-Methoxybenzoic acid, hexadecyl ester
##JCAMP-DX=4.24
##DATA TYPE=MASS SPECTRUM
##ORIGIN=Zaikin V.G., TIPS RAS, Moscow, Russia
##OWNER=NIST Mass Spectrometry Data Center
Collection (C) 2014 copyright by the U.S. Secretary of Commerce
on behalf of the United States of America. All rights reserved.
##CAS REGISTRY NO=111722-09-9
##$NIST MASS SPEC NO=292305
##MOLFORM=C24 H40 O3
##MW=376
##$NIST SOURCE=MSDC
##XUNITS=M/Z
##YUNITS=RELATIVE INTENSITY
##XFACTOR=1
##YFACTOR=1
##FIRSTX=26
##LASTX=379
##FIRSTY=20
##MAXX=379
##MINX=26
##MAXY=9999
##MINY=10
##NPOINTS=122
##PEAK TABLE=(XY..XY)
26,20 27,40 29,80 35,10
36,100 37,10 38,60 39,100
40,30 41,250 42,60 43,330
44,180 45,10 50,60 51,80
52,20 53,40 54,50 55,380
56,110 57,280 58,10 61,10
62,20 63,80 64,80 65,90
66,40 67,110 68,70 69,250
70,100 71,130 73,40 74,20
75,30 76,90 77,721 78,120
79,190 80,20 81,80 82,70
83,190 84,60 85,80 89,10
90,20 91,60 92,330 93,80
94,220 95,50 96,130 97,130
98,40 99,10 104,40 105,681
106,190 107,110 108,70 109,30
110,20 111,50 112,20 115,10
118,20 119,40 120,230 121,230
122,100 123,2292 124,200 125,30
126,10 133,781 134,470 135,9999
136,931 137,110 138,50 139,20
147,10 149,10 150,10 151,470
152,4994 153,8698 154,811 155,80
163,10 165,30 166,10 177,10
179,100 180,100 181,10 191,30
193,30 194,130 195,20 221,80
222,20 224,10 249,10 263,10
267,20 277,30 282,30 283,20
291,10 305,10 319,10 333,20
347,10 355,10 362,20 376,901
377,250 379,30
##END=
