##TITLE=Octane, 3-chloro-
##JCAMP-DX=4.24
##DATA TYPE=MASS SPECTRUM
##ORIGIN=NIST Mass Spectrometry Data Center, 1990.
##OWNER=NIST Mass Spectrometry Data Center
Collection (C) 2014 copyright by the U.S. Secretary of Commerce
on behalf of the United States of America. All rights reserved.
##CAS REGISTRY NO=1117-79-9
##$NIST MASS SPEC NO=114636
##MOLFORM=C8 H17 Cl
##MW=148
##$NIST SOURCE=MSDC
##XUNITS=M/Z
##YUNITS=RELATIVE INTENSITY
##XFACTOR=1
##YFACTOR=1
##FIRSTX=26
##LASTX=119
##FIRSTY=284
##MAXX=119
##MINX=26
##MAXY=9999
##MINY=81
##NPOINTS=45
##PEAK TABLE=(XY..XY)
26,284 27,2495 28,302 29,2634
36,124 39,3212 41,8707 42,2722
43,4387 44,177 49,257 50,183
51,472 52,199 53,1014 54,987
55,9999 56,8115 57,3447 58,136
61,106 62,601 63,386 64,200
65,245 66,81 67,696 68,758
69,3759 70,8998 71,1821 72,83
75,216 76,220 77,434 78,101
79,193 82,1706 83,6788 84,3739
85,263 97,623 112,1598 113,162
119,121
##END=
