##TITLE=Octanoic acid, hexyl ester
##JCAMP-DX=4.24
##DATA TYPE=MASS SPECTRUM
##ORIGIN=V.G.Zaikin, TIPS RAS, Moscow, Russia
##OWNER=NIST Mass Spectrometry Data Center
Collection (C) 2014 copyright by the U.S. Secretary of Commerce
on behalf of the United States of America. All rights reserved.
##CAS REGISTRY NO=1117-55-1
##$NIST MASS SPEC NO=279506
##MOLFORM=C14 H28 O2
##MW=228
##$NIST SOURCE=MSDC
##XUNITS=M/Z
##YUNITS=RELATIVE INTENSITY
##XFACTOR=1
##YFACTOR=1
##FIRSTX=25
##LASTX=229
##FIRSTY=50
##MAXX=229
##MINX=25
##MAXY=9999
##MINY=20
##NPOINTS=84
##PEAK TABLE=(XY..XY)
25,50 26,470 27,2612 28,961
29,3653 30,190 31,140 37,80
38,160 39,1792 40,520 41,6616
42,3293 43,9999 44,410 45,380
50,80 51,180 52,50 53,450
54,490 55,5725 56,6065 57,6686
58,410 59,240 60,2152 61,3133
62,90 65,30 66,20 67,581
68,260 69,2712 70,651 71,350
73,1962 74,270 75,90 77,40
78,40 79,120 80,40 81,170
82,420 83,1231 84,8878 85,1952
86,170 87,791 88,80 89,611
91,40 93,20 95,20 96,40
97,490 98,581 99,150 100,70
101,1181 102,60 103,290 109,270
111,90 115,440 116,110 124,60
125,180 126,80 127,4824 128,530
129,390 142,20 143,80 144,991
145,8037 146,741 147,80 157,150
171,50 185,80 228,90 229,20
##END=
