##TITLE=3,5-Heptanedione, 2,2,6,6-tetramethyl-
##JCAMP-DX=4.24
##DATA TYPE=MASS SPECTRUM
##ORIGIN=NIST Mass Spectrometry Data Center, 1990.
##OWNER=NIST Mass Spectrometry Data Center
Collection (C) 2014 copyright by the U.S. Secretary of Commerce
on behalf of the United States of America. All rights reserved.
##CAS REGISTRY NO=1118-71-4
##$NIST MASS SPEC NO=114699
##MOLFORM=C11 H20 O2
##MW=184
##$NIST SOURCE=MSDC
##XUNITS=M/Z
##YUNITS=RELATIVE INTENSITY
##XFACTOR=1
##YFACTOR=1
##FIRSTX=14
##LASTX=185
##FIRSTY=54
##MAXX=185
##MINX=14
##MAXY=9999
##MINY=47
##NPOINTS=53
##PEAK TABLE=(XY..XY)
14,54 15,71 27,365 28,253
29,958 31,62 32,57 39,974
40,241 41,2587 42,589 43,5677
44,160 45,78 51,90 53,317
55,878 56,298 57,3320 58,206
59,103 65,138 66,66 67,188
68,66 69,977 70,130 71,271
77,72 79,290 81,1428 82,139
83,940 84,151 85,720 86,55
95,47 97,270 98,108 99,553
100,315 109,836 110,76 111,310
112,100 113,67 123,81 127,9999
128,759 129,70 141,211 184,771
185,98
##END=
