##TITLE=Acetamide, N-butyl-
##JCAMP-DX=4.24
##DATA TYPE=MASS SPECTRUM
##ORIGIN=J.A.GILPIN DOW CHEM. CO., MIDLAND, MICHIGAN, USA
##OWNER=NIST Mass Spectrometry Data Center
Collection (C) 2014 copyright by the U.S. Secretary of Commerce
on behalf of the United States of America. All rights reserved.
##CAS REGISTRY NO=1119-49-9
##$NIST MASS SPEC NO=1860
##MOLFORM=C6 H13 N O
##MW=115
##$NIST SOURCE=MSDC
##XUNITS=M/Z
##YUNITS=RELATIVE INTENSITY
##XFACTOR=1
##YFACTOR=1
##FIRSTX=15
##LASTX=116
##FIRSTY=400
##MAXX=116
##MINX=15
##MAXY=9999
##MINY=20
##NPOINTS=29
##PEAK TABLE=(XY..XY)
15,400 27,400 28,500 29,500
30,9999 31,300 41,700 42,400
43,3400 44,1900 45,200 55,200
56,300 57,200 58,400 59,60
60,1000 71,30 72,2900 73,2100
74,100 86,900 87,100 99,40
100,600 101,40 114,20 115,1100
116,200
##END=
