##TITLE=3-Octyn-2-one
##JCAMP-DX=4.24
##DATA TYPE=MASS SPECTRUM
##ORIGIN=A.Pleshkova, Nesmeyanov Inst.Org.Elem.Cpds, Moscow
##OWNER=NIST Mass Spectrometry Data Center
Collection (C) 2014 copyright by the U.S. Secretary of Commerce
on behalf of the United States of America. All rights reserved.
##CAS REGISTRY NO=1119-58-0
##$NIST MASS SPEC NO=283688
##MOLFORM=C8 H12 O
##MW=124
##$NIST SOURCE=MSDC
##XUNITS=M/Z
##YUNITS=RELATIVE INTENSITY
##XFACTOR=1
##YFACTOR=1
##FIRSTX=15
##LASTX=124
##FIRSTY=901
##MAXX=124
##MINX=15
##MAXY=9999
##MINY=10
##NPOINTS=43
##PEAK TABLE=(XY..XY)
15,901 16,10 26,500 27,2702
28,801 29,901 30,20 37,400
38,801 39,2702 40,400 41,3303
42,500 43,5405 44,1902 45,300
50,1001 51,1401 52,801 53,2803
54,400 55,901 56,400 61,300
62,400 63,500 64,200 65,901
66,1001 67,901 68,30 77,701
79,3603 80,601 81,2702 82,1702
83,300 95,601 96,20 109,9999
110,1201 111,400 124,130
##END=
