##TITLE=2,4-Hexadienedioic acid, dimethyl ester, (E,E)-
##JCAMP-DX=4.24
##DATA TYPE=MASS SPECTRUM
##ORIGIN=ORMSBG,10(10)842(1975); A. MANDELBAUM
##OWNER=NIST Mass Spectrometry Data Center
Collection (C) 2014 copyright by the U.S. Secretary of Commerce
on behalf of the United States of America. All rights reserved.
##CAS REGISTRY NO=1119-43-3
##$NIST MASS SPEC NO=54602
##MOLFORM=C8 H10 O4
##MW=170
##$NIST SOURCE=MSDC
##XUNITS=M/Z
##YUNITS=RELATIVE INTENSITY
##XFACTOR=1
##YFACTOR=1
##FIRSTX=41
##LASTX=171
##FIRSTY=460
##MAXX=171
##MINX=41
##MAXY=9999
##MINY=150
##NPOINTS=27
##PEAK TABLE=(XY..XY)
41,460 50,770 51,1460 52,1390
53,540 54,770 55,310 59,1460
65,150 68,540 69,150 79,1460
80,690 81,150 83,230 95,230
107,460 108,230 110,150 111,9999
112,690 123,1230 139,3390 140,310
155,540 170,3460 171,310
##END=
