##TITLE=6-Heptenoic acid
##JCAMP-DX=4.24
##DATA TYPE=MASS SPECTRUM
##ORIGIN=NIST Mass Spectrometry Data Center
##OWNER=NIST Mass Spectrometry Data Center
Collection (C) 2014 copyright by the U.S. Secretary of Commerce
on behalf of the United States of America. All rights reserved.
##CAS REGISTRY NO=1119-60-4
##$NIST MASS SPEC NO=342821
##MOLFORM=C7 H12 O2
##MW=128
##$NIST SOURCE=MSDC
##XUNITS=M/Z
##YUNITS=RELATIVE INTENSITY
##XFACTOR=1
##YFACTOR=1
##FIRSTX=12
##LASTX=128
##FIRSTY=10
##MAXX=128
##MINX=12
##MAXY=9999
##MINY=10
##NPOINTS=70
##PEAK TABLE=(XY..XY)
12,10 13,20 14,50 15,220
16,10 17,40 18,50 19,10
21,10 23,10 26,761 27,5755
28,1802 29,2112 30,170 32,70
36,10 37,220 38,761 39,7907
40,1451 41,9999 42,3383 43,3793
45,5935 46,140 47,80 50,430
51,731 52,290 53,1712 54,2052
55,6336 56,1451 57,661 58,651
60,5095 61,410 62,80 63,120
64,30 65,300 67,3403 68,9609
69,6706 70,410 71,430 73,2052
76,10 77,150 79,250 80,50
81,460 82,2452 83,500 84,100
85,170 86,180 87,851 88,30
92,20 93,20 95,160 99,340
100,190 110,3103 111,330 112,10
113,130 128,20
##END=
