##TITLE=1-Nonanamine
##JCAMP-DX=4.24
##DATA TYPE=MASS SPECTRUM
##ORIGIN=CARL DJERASSI DEPT OF CHEM STANFORD UNIV STANFORD CALIF 94305
##OWNER=NIST Mass Spectrometry Data Center
Collection (C) 2014 copyright by the U.S. Secretary of Commerce
on behalf of the United States of America. All rights reserved.
##CAS REGISTRY NO=112-20-9
##$NIST MASS SPEC NO=46641
##MOLFORM=C9 H21 N
##MW=143
##$NIST SOURCE=MSDC
##XUNITS=M/Z
##YUNITS=RELATIVE INTENSITY
##XFACTOR=1
##YFACTOR=1
##FIRSTX=27
##LASTX=143
##FIRSTY=300
##MAXX=143
##MINX=27
##MAXY=9999
##MINY=100
##NPOINTS=25
##PEAK TABLE=(XY..XY)
27,300 28,200 29,400 30,9999
39,100 41,600 42,200 43,400
45,700 53,100 54,100 55,400
56,300 57,100 58,100 59,100
69,200 70,100 72,100 83,100
84,100 86,300 100,100 115,100
143,200
##END=
