##TITLE=2-Butoxyethyl acetate
##JCAMP-DX=4.24
##DATA TYPE=MASS SPECTRUM
##ORIGIN=NIST Mass Spectrometry Data Center, 1990.
##OWNER=NIST Mass Spectrometry Data Center
Collection (C) 2014 copyright by the U.S. Secretary of Commerce
on behalf of the United States of America. All rights reserved.
##CAS REGISTRY NO=112-07-2
##$NIST MASS SPEC NO=118304
##MOLFORM=C8 H16 O3
##MW=160
##$NIST SOURCE=MSDC
##XUNITS=M/Z
##YUNITS=RELATIVE INTENSITY
##XFACTOR=1
##YFACTOR=1
##FIRSTX=14
##LASTX=117
##FIRSTY=114
##MAXX=117
##MINX=14
##MAXY=9999
##MINY=17
##NPOINTS=43
##PEAK TABLE=(XY..XY)
14,114 15,600 16,35 19,63
26,155 27,1171 28,742 29,2776
30,134 31,301 32,23 37,17
39,653 41,4100 42,860 43,9999
44,1040 45,878 46,26 53,71
55,562 56,3894 57,6714 58,471
59,38 60,26 61,615 62,19
67,25 69,31 70,284 71,222
72,127 73,389 74,605 75,81
85,1814 87,3374 88,935 89,68
100,660 101,50 117,88
##END=
