##TITLE=Octadecane, 1-bromo-
##JCAMP-DX=4.24
##DATA TYPE=MASS SPECTRUM
##ORIGIN=Japan AIST/NIMC Database- Spectrum MS-NW-5348
##OWNER=NIST Mass Spectrometry Data Center
Collection (C) 2014 copyright by the U.S. Secretary of Commerce
on behalf of the United States of America. All rights reserved.
##CAS REGISTRY NO=112-89-0
##$NIST MASS SPEC NO=233205
##MOLFORM=C18 H37 Br
##MW=332
##$NIST SOURCE=MSDC
##XUNITS=M/Z
##YUNITS=RELATIVE INTENSITY
##XFACTOR=1
##YFACTOR=1
##FIRSTX=15
##LASTX=332
##FIRSTY=20
##MAXX=332
##MINX=15
##MAXY=9999
##MINY=10
##NPOINTS=166
##PEAK TABLE=(XY..XY)
15,20 26,30 27,869 28,90
29,2159 30,50 38,10 39,589
40,139 41,4719 42,1069 43,7889
44,279 45,10 50,10 51,20
52,20 53,299 54,399 55,4769
56,1629 57,9999 58,459 59,10
65,50 66,30 67,479 68,339
69,3459 70,1229 71,6019 72,399
73,20 77,40 78,20 79,60
80,30 81,259 82,319 83,2369
84,719 85,3939 86,289 87,10
91,30 92,10 93,20 94,10
95,139 96,149 97,1529 98,429
99,1199 100,99 101,10 105,10
107,119 109,109 110,70 111,729
112,269 113,799 114,80 119,10
121,80 122,10 123,70 124,40
125,259 126,169 127,569 128,70
133,10 134,20 135,3059 136,159
137,3019 138,149 139,109 140,109
141,399 142,50 148,109 149,709
150,149 151,679 152,50 153,50
154,80 155,319 156,50 161,10
162,50 163,219 164,70 165,209
166,20 167,40 168,60 169,249
170,40 175,10 176,10 177,119
178,20 179,119 180,10 181,20
182,40 183,199 184,40 190,10
191,99 192,20 193,90 194,10
195,10 196,30 197,139 198,20
204,10 205,70 206,20 207,60
208,10 209,10 210,20 211,80
212,20 219,60 220,20 221,50
222,10 224,20 225,40 226,10
232,10 233,30 234,10 235,30
238,10 239,40 240,10 246,10
247,30 248,10 249,30 252,30
253,199 254,40 261,20 262,10
263,20 267,20 274,10 275,20
276,20 277,20 280,10 281,30
289,10 291,10 302,10 303,40
304,20 332,10
##END=
