##TITLE=Undecanal
##JCAMP-DX=4.24
##DATA TYPE=MASS SPECTRUM
##ORIGIN=NIST Mass Spectrometry Data Center, 1990.
##OWNER=NIST Mass Spectrometry Data Center
Collection (C) 2014 copyright by the U.S. Secretary of Commerce
on behalf of the United States of America. All rights reserved.
##CAS REGISTRY NO=112-44-7
##$NIST MASS SPEC NO=113284
##MOLFORM=C11 H22 O
##MW=170
##$NIST SOURCE=MSDC
##XUNITS=M/Z
##YUNITS=RELATIVE INTENSITY
##XFACTOR=1
##YFACTOR=1
##FIRSTX=15
##LASTX=152
##FIRSTY=211
##MAXX=152
##MINX=15
##MAXY=9999
##MINY=93
##NPOINTS=48
##PEAK TABLE=(XY..XY)
15,211 27,4100 28,961 29,6310
30,164 31,214 39,2976 41,9999
42,2796 43,9023 44,4066 45,1216
51,169 53,831 54,1664 55,6536
56,4190 57,6994 58,485 65,172
66,694 67,3465 68,3409 69,2936
70,2395 71,2858 72,637 79,282
81,2670 82,4619 83,2091 84,1559
85,1227 86,172 95,2108 96,2408
97,1801 98,703 99,229 109,737
110,808 111,154 123,380 124,735
126,1062 127,133 142,221 152,93
##END=
