##TITLE=2,5,8,11-Tetraoxadodecane
##JCAMP-DX=4.24
##DATA TYPE=MASS SPECTRUM
##ORIGIN=NIST Mass Spectrometry Data Center
##OWNER=NIST Mass Spectrometry Data Center
Collection (C) 2014 copyright by the U.S. Secretary of Commerce
on behalf of the United States of America. All rights reserved.
##CAS REGISTRY NO=112-49-2
##$NIST MASS SPEC NO=341344
##MOLFORM=C8 H18 O4
##MW=178
##$NIST SOURCE=MSDC
##XUNITS=M/Z
##YUNITS=RELATIVE INTENSITY
##XFACTOR=1
##YFACTOR=1
##FIRSTX=15
##LASTX=134
##FIRSTY=180
##MAXX=134
##MINX=15
##MAXY=9999
##MINY=10
##NPOINTS=44
##PEAK TABLE=(XY..XY)
15,180 26,40 27,190 28,390
29,1391 30,90 31,1131 32,10
33,40 39,10 41,120 42,110
43,901 44,220 45,2392 46,60
47,10 57,140 58,3623 59,9999
60,370 61,30 70,60 71,40
72,60 73,160 74,10 75,60
86,30 87,761 88,130 89,931
90,70 100,10 101,110 102,280
103,1331 104,70 115,30 118,10
119,50 131,10 133,430 134,20
##END=
