##TITLE=Decanoyl chloride
##JCAMP-DX=4.24
##DATA TYPE=MASS SPECTRUM
##ORIGIN=NIST Mass Spectrometry Data Center
##OWNER=NIST Mass Spectrometry Data Center
Collection (C) 2014 copyright by the U.S. Secretary of Commerce
on behalf of the United States of America. All rights reserved.
##CAS REGISTRY NO=112-13-0
##$NIST MASS SPEC NO=333894
##MOLFORM=C10 H19 Cl O
##MW=190
##$NIST SOURCE=MSDC
##XUNITS=M/Z
##YUNITS=RELATIVE INTENSITY
##XFACTOR=1
##YFACTOR=1
##FIRSTX=15
##LASTX=164
##FIRSTY=20
##MAXX=164
##MINX=15
##MAXY=9999
##MINY=10
##NPOINTS=119
##PEAK TABLE=(XY..XY)
15,20 26,90 27,1281 28,420
29,1882 30,40 35,10 36,10
37,20 38,70 39,1932 40,410
41,6816 42,2192 43,5755 44,220
45,10 46,10 47,10 48,10
49,70 50,60 51,190 52,90
53,811 54,981 55,9358 56,2813
57,4434 58,270 59,20 61,20
62,20 63,681 64,20 65,370
66,130 67,1171 68,1591 69,3503
70,2362 71,2873 72,270 73,30
75,60 76,20 77,260 78,1111
79,781 80,681 81,1792 82,1091
83,3303 84,9999 85,1491 86,290
87,40 88,20 89,30 91,1081
92,90 93,711 94,460 95,1011
96,210 97,2933 98,9228 99,761
100,70 101,20 102,631 103,50
104,220 105,300 106,30 107,520
108,230 110,4854 111,1872 112,1792
113,170 114,10 115,20 116,460
117,40 118,150 119,90 120,20
121,300 122,30 123,60 124,10
125,340 126,250 127,80 128,10
129,10 130,20 131,10 132,10
133,90 134,10 135,70 136,300
137,280 138,30 139,30 143,10
144,10 147,40 149,10 153,20
154,80 155,4624 156,520 157,30
161,10 162,30 164,10
##END=
