##TITLE=1-Dodecanol
##JCAMP-DX=4.24
##DATA TYPE=MASS SPECTRUM
##ORIGIN=Japan AIST/NIMC Database- Spectrum MS-NW-1608
##OWNER=NIST Mass Spectrometry Data Center
Collection (C) 2014 copyright by the U.S. Secretary of Commerce
on behalf of the United States of America. All rights reserved.
##CAS REGISTRY NO=112-53-8
##$NIST MASS SPEC NO=229216
##MOLFORM=C12 H26 O
##MW=186
##$NIST SOURCE=MSDC
##XUNITS=M/Z
##YUNITS=RELATIVE INTENSITY
##XFACTOR=1
##YFACTOR=1
##FIRSTX=15
##LASTX=169
##FIRSTY=60
##MAXX=169
##MINX=15
##MAXY=9999
##MINY=10
##NPOINTS=73
##PEAK TABLE=(XY..XY)
15,60 17,20 18,109 19,50
26,50 27,1629 28,259 29,3419
30,80 31,1819 32,40 38,20
39,1049 40,219 41,7339 42,2719
43,9619 44,329 45,239 50,10
51,40 52,30 53,389 54,879
55,9999 56,8399 57,6849 58,299
59,40 65,50 66,80 67,1109
68,3249 69,8639 70,7579 71,2289
72,109 73,269 74,20 77,40
79,60 80,20 81,389 82,2979
83,7479 84,4829 85,1209 86,70
87,30 91,20 93,10 95,119
96,899 97,4619 98,2839 99,289
100,10 109,30 110,349 111,2339
112,1519 113,139 123,10 124,109
125,789 126,529 127,60 138,40
139,229 140,1539 141,159 168,449
169,60
##END=
