##TITLE=Formic acid, heptyl ester
##JCAMP-DX=4.24
##DATA TYPE=MASS SPECTRUM
##ORIGIN=NIST Mass Spectrometry Data Center, 1994
##OWNER=NIST Mass Spectrometry Data Center
Collection (C) 2014 copyright by the U.S. Secretary of Commerce
on behalf of the United States of America. All rights reserved.
##CAS REGISTRY NO=112-23-2
##$NIST MASS SPEC NO=133421
##MOLFORM=C8 H16 O2
##MW=144
##$NIST SOURCE=MSDC
##XUNITS=M/Z
##YUNITS=RELATIVE INTENSITY
##XFACTOR=1
##YFACTOR=1
##FIRSTX=14
##LASTX=101
##FIRSTY=19
##MAXX=101
##MINX=14
##MAXY=9999
##MINY=19
##NPOINTS=49
##PEAK TABLE=(XY..XY)
14,19 15,169 19,64 26,256
27,2515 28,950 29,3733 30,19
31,2577 32,48 37,32 39,2226
41,7300 42,3776 43,3324 44,297
45,309 47,247 50,62 51,125
52,87 53,488 54,814 55,6195
56,8825 57,2166 58,109 59,137
65,58 67,451 68,1670 69,5477
70,9999 71,583 72,33 73,134
74,38 77,32 79,43 81,91
83,1073 84,153 87,244 88,34
96,38 97,118 98,779 99,73
101,24
##END=
