##TITLE=Dimethyl palmitamine
##JCAMP-DX=4.24
##DATA TYPE=MASS SPECTRUM
##ORIGIN=Japan AIST/NIMC Database- Spectrum MS-NW-8248
##OWNER=NIST Mass Spectrometry Data Center
Collection (C) 2014 copyright by the U.S. Secretary of Commerce
on behalf of the United States of America. All rights reserved.
##CAS REGISTRY NO=112-69-6
##$NIST MASS SPEC NO=228872
##MOLFORM=C18 H39 N
##MW=269
##$NIST SOURCE=MSDC
##XUNITS=M/Z
##YUNITS=RELATIVE INTENSITY
##XFACTOR=1
##YFACTOR=1
##FIRSTX=15
##LASTX=270
##FIRSTY=70
##MAXX=270
##MINX=15
##MAXY=9999
##MINY=10
##NPOINTS=51
##PEAK TABLE=(XY..XY)
15,70 27,40 28,40 29,139
30,50 39,30 41,269 42,139
43,429 44,129 45,139 46,99
47,10 49,20 50,289 51,10
52,90 53,10 54,10 55,259
56,80 57,319 58,9999 59,409
60,10 67,20 68,10 69,129
70,60 71,139 72,30 73,10
81,10 82,10 83,60 84,109
85,60 91,60 93,20 97,30
98,20 99,10 100,20 105,20
111,10 114,20 128,10 254,10
268,109 269,159 270,30
##END=
