##TITLE=1,2-Ethanediamine, N,N'-bis(2-aminoethyl)-
##JCAMP-DX=4.24
##DATA TYPE=MASS SPECTRUM
##ORIGIN=RADIAN CORP
##OWNER=NIST Mass Spectrometry Data Center
Collection (C) 2014 copyright by the U.S. Secretary of Commerce
on behalf of the United States of America. All rights reserved.
##CAS REGISTRY NO=112-24-3
##$NIST MASS SPEC NO=76004
##MOLFORM=C6 H18 N4
##MW=146
##$NIST SOURCE=MSDC
##XUNITS=M/Z
##YUNITS=RELATIVE INTENSITY
##XFACTOR=1
##YFACTOR=1
##FIRSTX=14
##LASTX=155
##FIRSTY=10
##MAXX=155
##MINX=14
##MAXY=9999
##MINY=10
##NPOINTS=79
##PEAK TABLE=(XY..XY)
14,10 15,80 16,20 17,20
18,310 26,30 27,270 28,1220
29,550 30,2660 31,60 39,40
40,60 41,410 42,1650 43,880
44,9999 45,380 52,20 53,20
54,220 55,300 56,2680 57,580
58,940 59,90 60,20 61,610
62,20 67,20 68,180 69,190
70,1310 71,330 72,150 73,4140
74,340 75,30 77,20 80,20
81,30 82,160 83,210 84,180
85,610 86,290 87,400 88,20
94,10 95,50 96,50 97,790
98,940 99,2010 100,270 101,60
103,20 104,30 109,20 110,30
111,110 112,200 113,150 114,30
116,1060 117,70 123,20 124,20
125,180 126,40 127,140 128,20
130,40 138,60 139,10 140,20
142,720 143,60 155,30
##END=
