##TITLE=Hexadecanoic acid, methyl ester
##JCAMP-DX=4.24
##DATA TYPE=MASS SPECTRUM
##ORIGIN=NIST Mass Spectrometry Data Center
##OWNER=NIST Mass Spectrometry Data Center
Collection (C) 2014 copyright by the U.S. Secretary of Commerce
on behalf of the United States of America. All rights reserved.
##CAS REGISTRY NO=112-39-0
##$NIST MASS SPEC NO=333716
##MOLFORM=C17 H34 O2
##MW=270
##$NIST SOURCE=MSDC
##XUNITS=M/Z
##YUNITS=RELATIVE INTENSITY
##XFACTOR=1
##YFACTOR=1
##FIRSTX=15
##LASTX=272
##FIRSTY=50
##MAXX=272
##MINX=15
##MAXY=9999
##MINY=10
##NPOINTS=144
##PEAK TABLE=(XY..XY)
15,50 26,10 27,220 28,70
29,661 30,20 31,30 33,10
38,10 39,290 40,70 41,2282
42,510 43,3253 44,120 45,120
51,10 52,10 53,190 54,220
55,3103 56,591 57,1832 58,130
59,1061 60,40 61,20 65,40
66,20 67,320 68,140 69,1321
70,240 71,520 72,50 73,250
74,9999 75,1882 76,100 77,40
78,10 79,100 80,30 81,240
82,120 83,891 84,360 85,290
87,7206 88,611 89,50 91,20
93,80 94,20 95,210 96,100
97,721 98,330 99,80 100,30
101,661 102,80 103,10 105,10
107,70 108,10 109,110 110,50
111,260 112,80 113,40 114,20
115,300 116,120 117,10 121,70
122,10 123,50 124,30 125,130
126,20 127,20 129,831 130,180
131,10 135,60 136,10 137,20
138,20 139,60 140,10 141,10
143,2082 144,210 145,20 149,40
150,10 151,10 152,10 153,30
154,10 155,10 157,260 158,50
159,10 163,20 165,10 166,10
167,20 168,10 171,550 172,80
173,10 177,10 181,10 185,581
186,80 187,10 191,10 194,20
195,10 196,30 199,460 200,70
201,10 209,10 213,200 214,40
219,10 220,10 221,10 223,10
227,1101 228,180 229,20 237,10
239,550 240,100 241,290 242,50
243,10 270,1031 271,200 272,20
##END=
