##TITLE=1-Tetradecanamine, N,N-dimethyl-
##JCAMP-DX=4.24
##DATA TYPE=MASS SPECTRUM
##ORIGIN=Tox21 Consortium/NIST Mass Spectrometry Data Center, 2012
##OWNER=NIST Mass Spectrometry Data Center
Collection (C) 2014 copyright by the U.S. Secretary of Commerce
on behalf of the United States of America. All rights reserved.
##CAS REGISTRY NO=112-75-4
##$NIST MASS SPEC NO=408371
##MOLFORM=C16 H35 N
##MW=241
##$NIST SOURCE=MSDC
##XUNITS=M/Z
##YUNITS=RELATIVE INTENSITY
##XFACTOR=1
##YFACTOR=1
##FIRSTX=15
##LASTX=242
##FIRSTY=10
##MAXX=242
##MINX=15
##MAXY=9999
##MINY=10
##NPOINTS=54
##PEAK TABLE=(XY..XY)
15,10 26,10 27,70 28,40
29,170 30,60 39,60 40,20
41,470 42,260 43,450 44,150
45,120 46,80 53,30 54,20
55,310 56,120 57,210 58,9999
59,380 60,10 65,10 67,30
68,20 69,100 70,70 71,80
72,40 73,10 79,10 81,10
82,20 83,30 84,180 85,20
97,10 98,20 100,20 110,10
112,10 114,40 126,10 128,20
140,10 142,10 156,10 170,10
184,10 212,10 226,10 240,40
241,120 242,20
##END=
