##TITLE=Ethanol, 2-(2-ethoxyethoxy)-, acetate
##JCAMP-DX=4.24
##DATA TYPE=MASS SPECTRUM
##ORIGIN=NIST Mass Spectrometry Data Center, 1994
##OWNER=NIST Mass Spectrometry Data Center
Collection (C) 2014 copyright by the U.S. Secretary of Commerce
on behalf of the United States of America. All rights reserved.
##CAS REGISTRY NO=112-15-2
##$NIST MASS SPEC NO=133342
##MOLFORM=C8 H16 O4
##MW=176
##$NIST SOURCE=MSDC
##XUNITS=M/Z
##YUNITS=RELATIVE INTENSITY
##XFACTOR=1
##YFACTOR=1
##FIRSTX=12
##LASTX=133
##FIRSTY=7
##MAXX=133
##MINX=12
##MAXY=9999
##MINY=7
##NPOINTS=50
##PEAK TABLE=(XY..XY)
12,7 13,14 14,110 15,762
16,33 18,17 19,110 26,206
27,938 28,828 29,1890 30,14
31,2807 32,36 39,16 41,507
43,9999 44,1157 45,4567 46,105
47,30 51,18 55,30 56,27
57,143 58,18 59,4155 60,215
61,616 62,25 69,12 70,85
72,5086 73,1947 74,321 75,85
76,9 87,6297 88,332 89,483
90,20 101,245 103,268 104,128
105,54 116,209 117,131 118,12
132,93 133,34
##END=
