##TITLE=9-Octadecenoic acid, (E)-
##JCAMP-DX=4.24
##DATA TYPE=MASS SPECTRUM
##ORIGIN=Japan AIST/NIMC Database- Spectrum MS-NW- 268
##OWNER=NIST Mass Spectrometry Data Center
Collection (C) 2014 copyright by the U.S. Secretary of Commerce
on behalf of the United States of America. All rights reserved.
##CAS REGISTRY NO=112-79-8
##$NIST MASS SPEC NO=228206
##MOLFORM=C18 H34 O2
##MW=282
##$NIST SOURCE=MSDC
##XUNITS=M/Z
##YUNITS=RELATIVE INTENSITY
##XFACTOR=1
##YFACTOR=1
##FIRSTX=15
##LASTX=285
##FIRSTY=20
##MAXX=285
##MINX=15
##MAXY=9999
##MINY=10
##NPOINTS=222
##PEAK TABLE=(XY..XY)
15,20 17,30 18,119 26,50
27,1119 28,269 29,2429 30,70
31,99 32,10 39,1029 40,209
41,6979 42,1179 43,5129 44,179
45,549 46,20 50,20 51,70
52,60 53,749 54,2639 55,9999
56,3629 57,4199 58,189 59,289
60,1419 61,269 62,10 63,20
65,199 66,199 67,3079 68,2529
69,8339 70,3849 71,1849 72,99
73,1939 74,179 75,20 77,189
78,70 79,549 80,389 81,2949
82,2599 83,6889 84,3149 85,1079
86,80 87,689 88,90 89,20
91,199 92,70 93,309 94,439
95,1869 96,2239 97,5049 98,2919
99,449 100,679 101,1039 102,149
103,20 104,20 105,119 106,50
107,269 108,359 109,1049 110,1679
111,2479 112,1379 113,389 114,1469
115,699 116,179 117,30 118,20
119,269 120,109 121,339 122,239
123,1129 124,1109 125,1339 126,859
127,869 128,329 129,669 130,119
131,20 132,20 133,299 134,309
135,309 136,179 137,849 138,929
139,829 140,599 141,249 142,129
143,279 144,60 145,20 147,309
148,259 149,209 150,139 151,729
152,679 153,559 154,379 155,199
156,109 157,219 158,50 159,20
161,189 162,119 163,129 164,129
165,579 166,509 167,379 168,209
169,259 170,90 171,179 172,70
173,20 175,139 176,60 177,80
178,70 179,409 180,769 181,329
182,149 183,149 184,80 185,239
186,149 187,30 189,90 190,40
191,50 192,60 193,329 194,319
195,169 196,90 197,80 198,60
199,159 200,90 201,30 202,169
203,60 204,40 205,30 206,30
207,289 208,269 209,119 210,99
211,70 212,50 213,129 214,70
215,20 217,30 218,30 220,959
221,479 222,1069 223,259 224,60
225,70 226,40 227,60 228,50
229,20 235,269 236,299 237,60
238,20 239,109 240,40 241,99
242,40 246,339 247,99 248,20
249,30 250,50 251,20 253,40
254,90 255,30 256,269 257,60
263,40 264,5369 265,1179 266,129
267,20 268,20 270,40 278,20
280,60 281,20 282,2199 283,449
284,539 285,99
##END=
