##TITLE=Decanal
##JCAMP-DX=4.24
##DATA TYPE=MASS SPECTRUM
##ORIGIN=Japan AIST/NIMC Database- Spectrum MS-NW- 922
##OWNER=NIST Mass Spectrometry Data Center
Collection (C) 2014 copyright by the U.S. Secretary of Commerce
on behalf of the United States of America. All rights reserved.
##CAS REGISTRY NO=112-31-2
##$NIST MASS SPEC NO=228809
##MOLFORM=C10 H20 O
##MW=156
##$NIST SOURCE=MSDC
##XUNITS=M/Z
##YUNITS=RELATIVE INTENSITY
##XFACTOR=1
##YFACTOR=1
##FIRSTX=14
##LASTX=156
##FIRSTY=10
##MAXX=156
##MINX=14
##MAXY=9999
##MINY=10
##NPOINTS=86
##PEAK TABLE=(XY..XY)
14,10 15,179 17,30 18,109
26,149 27,3369 28,709 29,5079
30,139 31,249 32,10 37,20
38,50 39,1929 40,329 41,8079
42,3049 43,9999 44,5399 45,1739
46,50 50,30 51,109 52,50
53,499 54,1459 55,6189 56,4299
57,6219 58,549 59,99 60,279
61,40 63,20 65,80 66,399
67,2619 68,3439 69,2959 70,4719
71,3379 72,679 73,269 74,20
77,50 78,20 79,149 80,99
81,2229 82,3349 83,2769 84,1629
85,429 86,129 87,50 91,20
93,40 94,70 95,1739 96,1459
97,519 98,90 99,249 100,80
101,20 107,10 108,10 109,739
110,1209 111,139 112,2159 113,299
114,40 115,30 123,60 125,10
127,40 128,379 129,99 135,10
137,10 138,209 139,20 141,30
155,10 156,20
##END=
