##TITLE=1-Dodecanethiol
##JCAMP-DX=4.24
##DATA TYPE=MASS SPECTRUM
##ORIGIN=NIST Mass Spectrometry Data Center, 1990.
##OWNER=NIST Mass Spectrometry Data Center
Collection (C) 2014 copyright by the U.S. Secretary of Commerce
on behalf of the United States of America. All rights reserved.
##CAS REGISTRY NO=112-55-0
##$NIST MASS SPEC NO=118616
##MOLFORM=C12 H26 S
##MW=202
##$NIST SOURCE=MSDC
##XUNITS=M/Z
##YUNITS=RELATIVE INTENSITY
##XFACTOR=1
##YFACTOR=1
##FIRSTX=15
##LASTX=204
##FIRSTY=63
##MAXX=204
##MINX=15
##MAXY=9999
##MINY=5
##NPOINTS=89
##PEAK TABLE=(XY..XY)
15,63 16,5 17,34 18,90
27,2391 28,660 29,4061 30,111
32,50 34,49 35,260 36,46
39,1894 41,9999 42,2506 43,7919
44,327 45,563 46,234 47,2065
48,90 49,114 50,31 51,95
52,31 53,760 54,1251 55,9270
56,6250 57,5203 58,291 59,214
60,378 61,1059 62,103 63,65
65,121 66,172 67,1412 68,2372
69,6908 70,5464 71,1653 72,112
73,106 74,52 75,54 77,79
78,27 79,131 80,27 81,522
82,2437 83,5556 84,2986 85,984
86,73 87,227 88,231 89,1459
90,105 91,77 96,1341 97,3906
98,1512 99,201 101,81 102,35
103,149 110,426 111,2021 112,955
113,109 115,33 117,28 124,170
125,731 126,276 127,43 138,81
139,229 140,645 141,91 168,935
169,127 201,208 202,1281 203,213
204,62
##END=
