##TITLE=Acetic acid, heptyl ester
##JCAMP-DX=4.24
##DATA TYPE=MASS SPECTRUM
##ORIGIN=NIST Mass Spectrometry Data Center, 2010
##OWNER=NIST Mass Spectrometry Data Center
Collection (C) 2014 copyright by the U.S. Secretary of Commerce
on behalf of the United States of America. All rights reserved.
##CAS REGISTRY NO=112-06-1
##$NIST MASS SPEC NO=417259
##MOLFORM=C9 H18 O2
##MW=158
##$NIST SOURCE=MSDC
##XUNITS=M/Z
##YUNITS=RELATIVE INTENSITY
##XFACTOR=1
##YFACTOR=1
##FIRSTX=14
##LASTX=143
##FIRSTY=20
##MAXX=143
##MINX=14
##MAXY=9999
##MINY=10
##NPOINTS=67
##PEAK TABLE=(XY..XY)
14,20 15,200 26,60 27,761
28,250 29,1061 30,30 31,90
37,10 39,861 40,200 41,2993
42,1892 43,9999 44,330 45,90
50,20 51,60 53,240 54,450
55,3904 56,5635 57,1812 58,460
59,90 61,3383 62,80 63,30
65,40 66,20 67,260 68,971
69,3673 70,6856 71,601 72,70
73,1181 74,70 75,20 77,20
79,40 80,10 81,180 82,80
83,1001 84,100 85,90 86,110
87,220 88,40 95,20 96,100
97,490 98,3183 99,280 100,70
101,350 102,80 111,90 113,60
114,30 115,50 116,430 117,30
125,10 129,20 143,20
##END=
