##TITLE=Diethyl carbitol
##JCAMP-DX=4.24
##DATA TYPE=MASS SPECTRUM
##ORIGIN=Japan AIST/NIMC Database- Spectrum MS-NW-1357
##OWNER=NIST Mass Spectrometry Data Center
Collection (C) 2014 copyright by the U.S. Secretary of Commerce
on behalf of the United States of America. All rights reserved.
##CAS REGISTRY NO=112-36-7
##$NIST MASS SPEC NO=229036
##MOLFORM=C8 H18 O3
##MW=162
##$NIST SOURCE=MSDC
##XUNITS=M/Z
##YUNITS=RELATIVE INTENSITY
##XFACTOR=1
##YFACTOR=1
##FIRSTX=14
##LASTX=118
##FIRSTY=20
##MAXX=118
##MINX=14
##MAXY=9999
##MINY=10
##NPOINTS=47
##PEAK TABLE=(XY..XY)
14,20 15,289 16,10 17,10
18,70 19,50 26,90 27,879
28,539 29,1789 30,70 31,2769
32,60 33,10 39,10 41,169
42,50 43,989 44,779 45,9999
46,239 47,40 51,30 55,40
56,20 57,60 58,90 59,4369
60,169 61,80 71,20 72,4649
73,4169 74,199 75,60 87,10
88,10 89,199 90,159 91,30
101,109 103,559 104,40 105,10
116,169 117,60 118,10
##END=
