##TITLE=1-Undecanol
##JCAMP-DX=4.24
##DATA TYPE=MASS SPECTRUM
##ORIGIN=NIST Mass Spectrometry Data Center, 1990.
##OWNER=NIST Mass Spectrometry Data Center
Collection (C) 2014 copyright by the U.S. Secretary of Commerce
on behalf of the United States of America. All rights reserved.
##CAS REGISTRY NO=112-42-5
##$NIST MASS SPEC NO=114087
##MOLFORM=C11 H24 O
##MW=172
##$NIST SOURCE=MSDC
##XUNITS=M/Z
##YUNITS=RELATIVE INTENSITY
##XFACTOR=1
##YFACTOR=1
##FIRSTX=14
##LASTX=154
##FIRSTY=214
##MAXX=154
##MINX=14
##MAXY=9999
##MINY=145
##NPOINTS=41
##PEAK TABLE=(XY..XY)
14,214 27,1666 28,275 29,2786
31,3261 39,2129 41,8684 42,2582
43,6804 44,560 45,296 51,145
53,961 54,1329 55,9999 56,7144
57,5104 58,202 67,1873 68,3425
69,8947 70,7461 71,1653 73,238
79,181 81,653 82,3140 83,6497
84,4409 85,925 95,208 96,1009
97,4481 98,1904 99,172 110,252
111,1427 112,474 125,507 126,1080
154,174
##END=
