##TITLE=1-Tetradecanol
##JCAMP-DX=4.24
##DATA TYPE=MASS SPECTRUM
##OWNER=NIST Mass Spectrometry Data Center
Collection (C) 2014 copyright by the U.S. Secretary of Commerce
on behalf of the United States of America. All rights reserved.
##CAS REGISTRY NO=112-72-1
##$NIST MASS SPEC NO=22632
##MOLFORM=C14 H30 O
##MW=214
##$NIST SOURCE=MSDC
##XUNITS=M/Z
##YUNITS=RELATIVE INTENSITY
##XFACTOR=1
##YFACTOR=1
##FIRSTX=13
##LASTX=198
##FIRSTY=10
##MAXX=198
##MINX=13
##MAXY=9999
##MINY=10
##NPOINTS=135
##PEAK TABLE=(XY..XY)
13,10 15,20 16,10 19,10
25,10 26,70 27,1371 28,230
29,3653 30,110 31,2012 32,290
33,10 36,20 37,10 38,20
39,961 40,230 41,7317 42,2302
43,9999 44,550 45,280 46,10
48,10 49,20 50,30 51,40
52,10 53,440 54,1111 55,9438
56,5965 57,6846 58,310 59,60
60,20 61,20 62,10 63,20
64,10 65,60 66,160 67,1391
68,3573 69,7337 70,5265 71,2803
72,140 73,240 74,20 75,20
76,10 77,50 78,20 79,90
80,50 81,681 82,3083 83,6956
84,3513 85,1431 86,100 87,30
88,10 89,10 91,40 92,10
93,40 94,30 95,280 96,1111
97,4834 98,1842 99,280 100,30
101,10 102,10 103,10 104,10
105,10 107,10 108,10 109,130
110,500 111,1932 112,1451 113,180
114,10 115,10 116,10 117,10
118,10 119,10 120,10 121,20
123,50 124,290 125,1111 126,861
127,110 129,10 131,10 132,10
133,10 137,40 138,130 139,360
140,490 141,60 142,10 143,10
144,10 145,10 150,10 151,10
152,50 153,110 154,120 155,30
165,10 166,40 167,60 168,871
169,130 170,10 171,10 177,10
182,10 183,10 185,10 195,10
196,340 197,60 198,20
##END=
