##TITLE=Ethanol, 2-[2-(2-ethoxyethoxy)ethoxy]-
##JCAMP-DX=4.24
##DATA TYPE=MASS SPECTRUM
##ORIGIN=NIST Mass Spectrometry Data Center, 1994
##OWNER=NIST Mass Spectrometry Data Center
Collection (C) 2014 copyright by the U.S. Secretary of Commerce
on behalf of the United States of America. All rights reserved.
##CAS REGISTRY NO=112-50-5
##$NIST MASS SPEC NO=133389
##MOLFORM=C8 H18 O4
##MW=178
##$NIST SOURCE=MSDC
##XUNITS=M/Z
##YUNITS=RELATIVE INTENSITY
##XFACTOR=1
##YFACTOR=1
##FIRSTX=14
##LASTX=148
##FIRSTY=38
##MAXX=148
##MINX=14
##MAXY=9999
##MINY=10
##NPOINTS=53
##PEAK TABLE=(XY..XY)
14,38 15,250 16,20 19,250
25,10 26,120 27,875 28,786
29,1570 30,10 31,1838 32,46
33,35 39,13 41,195 42,174
43,1243 44,1237 45,9999 46,240
47,70 51,20 55,19 57,131
58,441 59,2191 60,152 61,91
62,13 63,11 70,42 72,2475
73,1922 74,109 75,312 76,123
77,13 87,462 88,476 89,1499
90,71 91,17 101,155 102,90
103,445 104,39 105,10 106,24
116,166 117,91 119,98 133,11
148,14
##END=
