##TITLE=Dodecane, 1-chloro-
##JCAMP-DX=4.24
##DATA TYPE=MASS SPECTRUM
##ORIGIN=NIST Mass Spectrometry Data Center, 1998.
##OWNER=NIST Mass Spectrometry Data Center
Collection (C) 2014 copyright by the U.S. Secretary of Commerce
on behalf of the United States of America. All rights reserved.
##CAS REGISTRY NO=112-52-7
##$NIST MASS SPEC NO=291367
##MOLFORM=C12 H25 Cl
##MW=204
##$NIST SOURCE=MSDC
##XUNITS=M/Z
##YUNITS=RELATIVE INTENSITY
##XFACTOR=1
##YFACTOR=1
##FIRSTX=15
##LASTX=206
##FIRSTY=10
##MAXX=206
##MINX=15
##MAXY=9999
##MINY=10
##NPOINTS=106
##PEAK TABLE=(XY..XY)
15,10 26,40 27,910 29,1610
30,40 37,10 38,30 39,1150
40,220 41,5489 42,1370 43,6639
44,230 49,170 50,20 51,130
52,40 53,530 54,500 55,6009
56,1930 57,7739 58,340 59,10
61,20 62,40 63,290 64,20
65,170 66,50 67,560 68,480
69,4390 70,1380 71,3320 72,180
73,10 75,60 76,30 77,220
78,20 79,120 80,10 81,200
82,310 83,2130 84,760 85,1660
86,110 89,20 91,9999 92,470
93,3280 94,150 95,60 96,90
97,1270 98,410 99,110 100,10
103,10 104,230 105,2820 106,230
107,910 108,50 109,20 110,30
111,390 112,170 113,50 117,10
118,60 119,490 120,50 121,160
122,10 124,10 125,70 126,50
127,20 131,10 132,40 133,140
134,20 135,50 139,10 140,40
141,10 146,30 147,70 148,20
149,20 160,20 161,40 162,10
163,10 168,10 174,20 175,30
176,10 177,10 202,10 204,60
205,10 206,20
##END=
