##TITLE=Erucic acid
##JCAMP-DX=4.24
##DATA TYPE=MASS SPECTRUM
##ORIGIN=NIST Mass Spectrometry Data Center
##OWNER=NIST Mass Spectrometry Data Center
Collection (C) 2014 copyright by the U.S. Secretary of Commerce
on behalf of the United States of America. All rights reserved.
##CAS REGISTRY NO=112-86-7
##$NIST MASS SPEC NO=340629
##MOLFORM=C22 H42 O2
##MW=338
##$NIST SOURCE=MSDC
##XUNITS=M/Z
##YUNITS=RELATIVE INTENSITY
##XFACTOR=1
##YFACTOR=1
##FIRSTX=15
##LASTX=338
##FIRSTY=30
##MAXX=338
##MINX=15
##MAXY=9999
##MINY=30
##NPOINTS=204
##PEAK TABLE=(XY..XY)
15,30 16,40 17,80 18,100
26,60 27,781 28,911 29,1892
30,100 31,80 36,130 38,90
39,901 40,180 41,6286 42,1271
43,5555 44,340 45,561 50,70
51,140 52,110 53,641 54,2062
55,9999 56,2993 57,3994 58,210
59,280 60,1802 61,180 62,40
63,110 64,40 65,270 66,200
67,2793 68,1661 69,7036 70,2823
71,1802 72,110 73,1241 74,170
75,80 76,90 77,320 78,110
79,681 80,390 81,2242 82,2202
83,6266 84,2883 85,1171 86,130
87,440 88,60 89,60 90,60
91,651 92,120 93,330 94,360
95,1792 96,2512 97,5645 98,2472
99,520 100,320 101,550 102,110
103,30 104,30 105,160 106,70
107,280 108,290 109,1111 110,1481
111,2853 112,1031 113,370 114,671
115,480 116,120 117,40 118,40
119,270 120,120 121,360 122,250
123,991 124,931 125,1471 126,591
127,701 128,200 129,370 130,70
131,40 132,30 133,240 134,300
135,450 136,200 137,731 138,721
139,741 140,350 141,200 142,60
143,150 144,30 146,40 147,210
148,230 149,280 150,190 151,631
152,761 153,480 154,210 155,130
156,50 157,110 158,40 159,30
160,671 161,240 162,90 163,160
164,120 165,561 166,310 167,330
168,150 169,120 170,30 171,80
172,30 175,130 176,50 177,110
178,120 179,420 180,350 181,1501
182,300 183,80 184,40 185,80
189,80 191,40 192,30 193,190
194,160 195,120 196,90 197,60
199,30 203,40 206,30 207,160
208,150 209,80 210,40 211,30
213,30 221,170 222,160 223,90
224,40 225,40 226,70 227,30
228,30 235,170 236,200 237,70
238,30 239,40 241,40 242,30
243,160 244,50 245,40 249,180
250,120 251,30 263,190 264,90
265,30 276,100 277,150 278,160
279,40 291,120 292,60 302,30
320,911 321,250 322,30 338,70
##END=
