##TITLE=Silane, trichlorooctadecyl-
##JCAMP-DX=4.24
##DATA TYPE=MASS SPECTRUM
##ORIGIN=Japan AIST/NIMC Database- Spectrum MS-NW-5300
##OWNER=NIST Mass Spectrometry Data Center
Collection (C) 2014 copyright by the U.S. Secretary of Commerce
on behalf of the United States of America. All rights reserved.
##CAS REGISTRY NO=112-04-9
##$NIST MASS SPEC NO=233206
##MOLFORM=C18 H37 Cl3 Si
##MW=386
##$NIST SOURCE=MSDC
##XUNITS=M/Z
##YUNITS=RELATIVE INTENSITY
##XFACTOR=1
##YFACTOR=1
##FIRSTX=15
##LASTX=390
##FIRSTY=10
##MAXX=390
##MINX=15
##MAXY=9999
##MINY=10
##NPOINTS=176
##PEAK TABLE=(XY..XY)
15,10 26,20 27,779 28,90
29,2539 30,50 36,50 38,10
39,519 40,109 41,4179 42,1129
43,8359 44,259 51,10 52,10
53,199 54,309 55,2509 56,1609
57,9999 58,409 63,70 65,30
66,20 67,259 68,169 69,1099
70,1019 71,5439 72,289 77,10
79,20 80,10 81,70 82,169
83,639 84,749 85,3389 86,229
95,20 96,70 97,389 98,539
99,1139 100,80 101,30 110,30
111,179 112,469 113,749 114,50
115,20 117,30 119,10 124,10
125,80 126,279 127,479 128,50
129,20 131,20 133,509 134,30
135,519 136,20 137,149 138,10
139,80 140,189 141,349 142,30
143,10 153,40 154,90 155,229
156,20 161,99 163,90 165,30
167,20 168,60 169,149 170,20
174,40 175,239 176,60 177,219
178,40 179,70 181,10 182,20
183,80 184,10 187,10 188,20
189,139 190,20 191,139 192,20
193,50 196,10 197,50 201,10
202,10 203,109 204,20 205,99
206,10 207,30 211,10 216,10
217,90 218,20 219,80 220,10
221,30 225,50 230,10 231,60
232,20 233,50 234,10 235,20
244,20 245,60 246,20 247,50
248,10 249,10 253,10 254,10
258,20 259,50 260,20 261,50
262,10 263,10 272,20 273,40
274,30 275,40 276,10 277,20
286,10 287,30 288,20 289,30
290,10 291,10 300,20 301,30
302,20 303,40 304,10 305,10
314,10 315,30 316,20 317,20
318,10 319,10 328,10 329,20
330,10 331,30 332,10 333,10
343,10 345,10 357,10 359,10
386,30 387,10 388,30 390,10
##END=
