##TITLE=Butane, 1,1'-[oxybis(2,1-ethanediyloxy)]bis-
##JCAMP-DX=4.24
##DATA TYPE=MASS SPECTRUM
##ORIGIN=Japan AIST/NIMC Database- Spectrum MS-NW-8489
##OWNER=NIST Mass Spectrometry Data Center
Collection (C) 2014 copyright by the U.S. Secretary of Commerce
on behalf of the United States of America. All rights reserved.
##CAS REGISTRY NO=112-73-2
##$NIST MASS SPEC NO=228684
##MOLFORM=C12 H26 O3
##MW=218
##$NIST SOURCE=MSDC
##XUNITS=M/Z
##YUNITS=RELATIVE INTENSITY
##XFACTOR=1
##YFACTOR=1
##FIRSTX=15
##LASTX=145
##FIRSTY=129
##MAXX=145
##MINX=15
##MAXY=9999
##MINY=10
##NPOINTS=69
##PEAK TABLE=(XY..XY)
15,129 18,20 19,10 26,50
27,669 28,709 29,3139 30,149
31,349 33,20 39,299 40,40
41,3279 42,249 43,689 44,629
45,5179 46,119 47,20 51,60
53,50 54,20 55,729 56,3059
57,9999 58,539 59,1569 60,109
61,99 62,40 63,99 67,20
69,209 70,40 71,469 72,679
73,509 74,40 75,2379 76,80
77,30 82,30 83,139 84,20
85,1479 86,99 87,1059 88,119
89,419 90,20 91,20 98,20
99,50 100,1169 101,1209 102,90
103,199 104,10 107,20 115,30
116,40 117,169 118,80 119,50
129,20 131,309 132,30 144,99
145,50
##END=
