##TITLE=Hexadecane, 1-bromo-
##JCAMP-DX=4.24
##DATA TYPE=MASS SPECTRUM
##ORIGIN=Japan AIST/NIMC Database- Spectrum MS-NW-8345
##OWNER=NIST Mass Spectrometry Data Center
Collection (C) 2014 copyright by the U.S. Secretary of Commerce
on behalf of the United States of America. All rights reserved.
##CAS REGISTRY NO=112-82-3
##$NIST MASS SPEC NO=228693
##MOLFORM=C16 H33 Br
##MW=304
##$NIST SOURCE=MSDC
##XUNITS=M/Z
##YUNITS=RELATIVE INTENSITY
##XFACTOR=1
##YFACTOR=1
##FIRSTX=14
##LASTX=306
##FIRSTY=20
##MAXX=306
##MINX=14
##MAXY=9999
##MINY=10
##NPOINTS=110
##PEAK TABLE=(XY..XY)
14,20 15,10 26,30 27,499
28,129 29,1249 30,30 36,20
38,10 39,339 40,70 41,2889
42,739 43,6969 44,239 51,10
52,10 53,149 54,209 55,3619
56,1329 57,9999 58,449 59,10
60,10 65,20 66,20 67,249
68,199 69,3399 70,979 71,5909
72,319 73,10 77,20 79,30
80,40 81,119 82,219 83,2009
84,539 85,3499 86,239 87,10
91,20 93,10 94,10 95,60
96,90 97,1249 98,299 99,969
100,70 107,80 109,80 110,30
111,489 112,159 113,559 114,50
121,70 123,60 124,30 125,139
126,80 127,359 128,30 134,10
135,4169 136,199 137,4049 138,169
139,40 140,40 141,259 142,30
148,80 149,849 150,119 151,819
152,40 153,20 154,20 155,209
156,20 162,30 163,159 164,40
165,159 166,10 168,10 169,119
170,10 173,10 177,70 178,10
179,60 183,50 191,40 193,40
196,10 205,30 207,20 219,10
221,10 225,70 226,10 233,10
304,10 306,10
##END=
