##TITLE=Nonanoic acid
##JCAMP-DX=4.24
##DATA TYPE=MASS SPECTRUM
##ORIGIN=Japan AIST/NIMC Database- Spectrum MS-NW- 795
##OWNER=NIST Mass Spectrometry Data Center
Collection (C) 2014 copyright by the U.S. Secretary of Commerce
on behalf of the United States of America. All rights reserved.
##CAS REGISTRY NO=112-05-0
##$NIST MASS SPEC NO=227949
##MOLFORM=C9 H18 O2
##MW=158
##$NIST SOURCE=MSDC
##XUNITS=M/Z
##YUNITS=RELATIVE INTENSITY
##XFACTOR=1
##YFACTOR=1
##FIRSTX=15
##LASTX=159
##FIRSTY=10
##MAXX=159
##MINX=15
##MAXY=9999
##MINY=10
##NPOINTS=92
##PEAK TABLE=(XY..XY)
15,10 17,10 18,30 26,80
27,1429 28,369 29,1609 30,60
31,169 37,10 38,30 39,1109
40,179 41,3399 42,529 43,2749
44,90 45,659 46,30 47,30
49,10 50,40 51,80 52,40
53,279 54,279 55,2869 56,1039
57,5089 58,249 59,329 60,9999
61,1379 62,70 63,20 65,40
66,20 67,209 68,209 69,1569
70,639 71,299 72,10 73,7749
74,749 75,60 76,10 77,30
78,30 79,60 80,20 81,159
82,60 83,549 84,389 85,229
86,40 87,1079 88,99 89,20
91,20 92,10 93,30 94,20
95,30 96,389 97,269 98,1439
99,429 100,60 101,639 102,90
103,10 110,10 111,80 112,80
113,20 115,1919 116,159 117,20
121,10 122,40 125,10 129,1619
130,159 131,20 139,30 141,70
143,20 144,10 158,469 159,70
##END=
