##TITLE=Ethanol, 2-(hexyloxy)-
##JCAMP-DX=4.24
##DATA TYPE=MASS SPECTRUM
##OWNER=NIST Mass Spectrometry Data Center
Collection (C) 2014 copyright by the U.S. Secretary of Commerce
on behalf of the United States of America. All rights reserved.
##CAS REGISTRY NO=112-25-4
##$NIST MASS SPEC NO=4281
##MOLFORM=C8 H18 O2
##MW=146
##$NIST SOURCE=MSDC
##XUNITS=M/Z
##YUNITS=RELATIVE INTENSITY
##XFACTOR=1
##YFACTOR=1
##FIRSTX=15
##LASTX=147
##FIRSTY=110
##MAXX=147
##MINX=15
##MAXY=9999
##MINY=10
##NPOINTS=67
##PEAK TABLE=(XY..XY)
15,110 17,30 18,140 19,150
26,50 27,1071 28,360 29,1131
30,50 31,591 32,40 33,30
38,20 39,591 40,120 41,2402
42,711 43,9999 44,601 45,4364
46,120 47,20 50,20 51,30
52,20 53,140 54,90 55,1471
56,1902 57,1832 58,130 59,90
60,20 61,70 62,40 63,1972
64,50 65,30 67,100 68,30
69,550 70,90 71,100 72,90
73,60 75,1191 76,50 77,50
79,10 81,30 82,110 83,2312
84,1541 85,7677 86,520 87,30
89,20 99,210 100,40 101,100
103,90 115,911 116,70 117,110
145,10 146,10 147,30
##END=
