##TITLE=Formic acid, octyl ester
##JCAMP-DX=4.24
##DATA TYPE=MASS SPECTRUM
##ORIGIN=Philip Morris R&D
##OWNER=NIST Mass Spectrometry Data Center
Collection (C) 2014 copyright by the U.S. Secretary of Commerce
on behalf of the United States of America. All rights reserved.
##CAS REGISTRY NO=112-32-3
##$NIST MASS SPEC NO=109166
##MOLFORM=C9 H18 O2
##MW=158
##$NIST SOURCE=MSDC
##XUNITS=M/Z
##YUNITS=RELATIVE INTENSITY
##XFACTOR=1
##YFACTOR=1
##FIRSTX=36
##LASTX=159
##FIRSTY=11
##MAXX=159
##MINX=36
##MAXY=9999
##MINY=2
##NPOINTS=56
##PEAK TABLE=(XY..XY)
36,11 38,32 39,900 40,221
41,5891 42,4530 43,5363 44,386
45,201 47,257 50,15 51,41
52,16 53,287 54,545 55,7601
56,9999 57,2717 58,120 59,83
60,2 63,2 65,38 66,15
67,607 68,1963 69,6051 70,7902
71,1010 72,37 73,131 74,26
77,15 79,33 81,83 82,1580
83,5858 84,6473 85,448 87,187
88,21 91,9 93,3 95,7
96,19 97,548 98,63 100,2
101,20 102,38 110,37 111,49
112,737 113,73 115,9 159,5
##END=
