##TITLE=Undecanoic acid
##JCAMP-DX=4.24
##DATA TYPE=MASS SPECTRUM
##ORIGIN=Japan AIST/NIMC Database- Spectrum MS-NW-2666
##OWNER=NIST Mass Spectrometry Data Center
Collection (C) 2014 copyright by the U.S. Secretary of Commerce
on behalf of the United States of America. All rights reserved.
##CAS REGISTRY NO=112-37-8
##$NIST MASS SPEC NO=229862
##MOLFORM=C11 H22 O2
##MW=186
##$NIST SOURCE=MSDC
##XUNITS=M/Z
##YUNITS=RELATIVE INTENSITY
##XFACTOR=1
##YFACTOR=1
##FIRSTX=14
##LASTX=188
##FIRSTY=10
##MAXX=188
##MINX=14
##MAXY=9999
##MINY=10
##NPOINTS=121
##PEAK TABLE=(XY..XY)
14,10 15,50 17,20 18,70
26,60 27,1439 28,209 29,2319
30,70 31,119 32,30 38,20
39,929 40,169 41,3989 42,949
43,5179 44,169 45,539 46,10
47,20 50,30 51,60 52,30
53,249 54,319 55,3579 56,999
57,3649 58,169 59,359 60,9999
61,1609 62,70 63,20 65,50
66,20 67,319 68,329 69,2089
70,739 71,3549 72,199 73,9759
74,849 75,70 76,20 77,40
78,20 79,90 80,40 81,239
82,349 83,1159 84,839 85,2249
86,149 87,1529 88,179 89,20
91,30 92,10 93,50 94,40
95,159 96,189 97,889 98,729
99,80 100,30 101,849 102,129
103,20 105,30 107,40 108,20
109,40 110,40 111,209 112,139
113,40 114,20 115,999 116,99
117,10 121,50 122,50 123,20
124,519 125,119 126,619 127,339
128,30 129,2439 130,199 131,20
135,20 137,10 138,10 139,40
140,10 143,1989 144,199 145,20
148,30 149,20 150,60 151,10
153,10 157,509 158,70 166,10
167,20 168,10 169,60 171,20
183,10 185,10 186,1049 187,129
188,10
##END=
