##TITLE=Dodecanamide
##JCAMP-DX=4.24
##DATA TYPE=MASS SPECTRUM
##ORIGIN=Japan AIST/NIMC Database- Spectrum MS-NW- 626
##OWNER=NIST Mass Spectrometry Data Center
Collection (C) 2014 copyright by the U.S. Secretary of Commerce
on behalf of the United States of America. All rights reserved.
##CAS REGISTRY NO=1120-16-7
##$NIST MASS SPEC NO=229355
##MOLFORM=C12 H25 N O
##MW=199
##$NIST SOURCE=MSDC
##XUNITS=M/Z
##YUNITS=RELATIVE INTENSITY
##XFACTOR=1
##YFACTOR=1
##FIRSTX=15
##LASTX=200
##FIRSTY=20
##MAXX=200
##MINX=15
##MAXY=9999
##MINY=10
##NPOINTS=72
##PEAK TABLE=(XY..XY)
15,20 17,10 18,20 26,20
27,489 28,129 29,849 30,50
31,20 39,279 40,50 41,1329
42,269 43,1599 44,1019 45,30
46,20 51,10 53,80 54,70
55,659 56,159 57,599 58,40
59,9999 60,629 61,30 67,60
68,30 69,279 70,60 71,159
72,3089 73,489 74,20 79,20
81,50 82,30 83,159 84,90
85,50 86,609 87,60 93,10
95,30 96,30 97,119 98,129
99,10 100,179 101,90 109,10
110,20 111,40 112,20 114,369
115,99 124,20 125,10 128,339
129,40 138,10 142,70 143,10
156,149 157,30 170,90 171,20
184,40 198,20 199,99 200,20
##END=
