##TITLE=4-Bromopyridine
##JCAMP-DX=4.24
##DATA TYPE=MASS SPECTRUM
##ORIGIN=Japan AIST/NIMC Database- Spectrum MS-NW-9267
##OWNER=NIST Mass Spectrometry Data Center
Collection (C) 2014 copyright by the U.S. Secretary of Commerce
on behalf of the United States of America. All rights reserved.
##CAS REGISTRY NO=1120-87-2
##$NIST MASS SPEC NO=231186
##MOLFORM=C5 H4 Br N
##MW=157
##$NIST SOURCE=MSDC
##XUNITS=M/Z
##YUNITS=RELATIVE INTENSITY
##XFACTOR=1
##YFACTOR=1
##FIRSTX=25
##LASTX=161
##FIRSTY=40
##MAXX=161
##MINX=25
##MAXY=9999
##MINY=10
##NPOINTS=49
##PEAK TABLE=(XY..XY)
25,40 26,139 27,60 28,20
39,80 40,30 48,40 49,429
50,1969 51,4189 52,309 53,10
61,10 62,20 63,10 65,80
66,80 74,30 75,169 76,329
77,70 78,9999 79,609 80,60
81,90 82,50 91,10 104,60
105,20 106,70 107,10 113,119
114,10 115,40 116,10 117,50
118,10 119,40 128,10 129,80
130,40 131,70 132,30 156,40
157,9559 158,719 159,9359 160,669
161,20
##END=
