##TITLE=Oxazole, 4,5-dihydro-2-methyl-
##JCAMP-DX=4.24
##DATA TYPE=MASS SPECTRUM
##ORIGIN=Japan AIST/NIMC Database- Spectrum MS-NW-8803
##OWNER=NIST Mass Spectrometry Data Center
Collection (C) 2014 copyright by the U.S. Secretary of Commerce
on behalf of the United States of America. All rights reserved.
##CAS REGISTRY NO=1120-64-5
##$NIST MASS SPEC NO=235431
##MOLFORM=C4 H7 N O
##MW=85
##$NIST SOURCE=MSDC
##XUNITS=M/Z
##YUNITS=RELATIVE INTENSITY
##XFACTOR=1
##YFACTOR=1
##FIRSTX=13
##LASTX=87
##FIRSTY=30
##MAXX=87
##MINX=13
##MAXY=9999
##MINY=10
##NPOINTS=30
##PEAK TABLE=(XY..XY)
13,30 14,199 15,1269 16,20
25,30 26,359 27,719 28,1939
29,359 30,80 31,20 38,30
39,60 40,189 41,249 42,1069
43,1989 44,139 45,10 51,50
52,159 53,60 54,2499 55,9999
56,1119 57,40 84,159 85,4849
86,359 87,20
##END=
