##TITLE=Undecane
##JCAMP-DX=4.24
##DATA TYPE=MASS SPECTRUM
##ORIGIN=Japan AIST/NIMC Database- Spectrum MS-NW-3972
##OWNER=NIST Mass Spectrometry Data Center
Collection (C) 2014 copyright by the U.S. Secretary of Commerce
on behalf of the United States of America. All rights reserved.
##CAS REGISTRY NO=1120-21-4
##$NIST MASS SPEC NO=227975
##MOLFORM=C11 H24
##MW=156
##$NIST SOURCE=MSDC
##XUNITS=M/Z
##YUNITS=RELATIVE INTENSITY
##XFACTOR=1
##YFACTOR=1
##FIRSTX=14
##LASTX=157
##FIRSTY=10
##MAXX=157
##MINX=14
##MAXY=9999
##MINY=10
##NPOINTS=54
##PEAK TABLE=(XY..XY)
14,10 15,20 18,20 26,50
27,969 28,70 29,1789 30,30
32,10 38,20 39,579 40,109
41,2739 42,1059 43,8979 44,319
50,10 51,20 52,10 53,129
54,109 55,1169 56,1519 57,9999
58,479 59,10 65,20 67,60
68,50 69,479 70,1199 71,4659
72,279 77,10 79,10 81,10
82,30 83,159 84,769 85,2739
86,179 97,50 98,489 99,519
100,40 105,10 112,209 113,409
114,30 126,90 127,249 128,30
156,389 157,50
##END=
