##TITLE=1-Tetradecene
##JCAMP-DX=4.24
##DATA TYPE=MASS SPECTRUM
##ORIGIN=Japan AIST/NIMC Database- Spectrum MS-NW-5130
##OWNER=NIST Mass Spectrometry Data Center
Collection (C) 2014 copyright by the U.S. Secretary of Commerce
on behalf of the United States of America. All rights reserved.
##CAS REGISTRY NO=1120-36-1
##$NIST MASS SPEC NO=230878
##MOLFORM=C14 H28
##MW=196
##$NIST SOURCE=MSDC
##XUNITS=M/Z
##YUNITS=RELATIVE INTENSITY
##XFACTOR=1
##YFACTOR=1
##FIRSTX=14
##LASTX=198
##FIRSTY=10
##MAXX=198
##MINX=14
##MAXY=9999
##MINY=10
##NPOINTS=86
##PEAK TABLE=(XY..XY)
14,10 15,50 26,70 27,1749
28,119 29,3729 30,80 32,20
35,20 36,129 37,10 38,40
39,1649 40,329 41,7979 42,2199
43,9999 44,339 50,30 51,90
52,50 53,659 54,1309 55,9219
56,7809 57,9109 58,419 59,10
60,10 63,20 65,109 66,119
67,1299 68,1489 69,7589 70,7629
71,3679 72,209 77,80 78,20
79,109 80,40 81,569 82,1789
83,7769 84,4419 85,1779 86,119
91,20 93,10 94,10 95,189
96,749 97,5449 98,2429 99,339
100,20 109,50 110,359 111,2389
112,1489 113,189 114,10 123,20
124,169 125,999 126,899 127,119
128,10 138,80 139,299 140,369
141,60 142,10 152,40 153,139
154,339 155,60 166,10 167,90
168,349 169,60 170,20 196,479
197,80 198,20
##END=
