##TITLE=S-(-)-1,1-Diphenylprolinol
##JCAMP-DX=4.24
##DATA TYPE=MASS SPECTRUM
##ORIGIN=NIST Mass Spectrometry Data Center, 1994
##OWNER=NIST Mass Spectrometry Data Center
Collection (C) 2014 copyright by the U.S. Secretary of Commerce
on behalf of the United States of America. All rights reserved.
##CAS REGISTRY NO=112068-01-6
##$NIST MASS SPEC NO=136714
##MOLFORM=C17 H19 N O
##MW=253
##$NIST SOURCE=MSDC
##XUNITS=M/Z
##YUNITS=RELATIVE INTENSITY
##XFACTOR=1
##YFACTOR=1
##FIRSTX=15
##LASTX=235
##FIRSTY=39
##MAXX=235
##MINX=15
##MAXY=9999
##MINY=3
##NPOINTS=94
##PEAK TABLE=(XY..XY)
15,39 17,5 18,90 27,96
28,1014 30,217 37,7 38,18
39,169 40,34 41,452 42,146
43,773 44,35 50,103 51,435
52,72 53,63 54,15 55,27
56,16 62,15 63,57 64,14
65,31 66,9 68,382 70,9999
71,505 72,10 75,37 76,97
77,1229 78,151 79,25 82,12
86,5 87,11 88,10 89,41
90,18 91,46 92,7 96,3
101,11 102,25 103,25 105,722
106,62 107,9 113,8 114,7
115,54 116,16 117,12 118,9
126,15 127,24 128,31 129,15
130,42 131,16 139,20 143,6
146,8 150,10 151,26 152,88
153,45 154,17 155,9 156,6
158,25 159,6 163,12 164,22
165,98 166,19 167,15 176,26
177,10 178,23 179,10 181,85
182,71 183,65 184,9 189,5
191,7 204,7 206,27 207,7
234,14 235,10
##END=
