##TITLE=4-Methylpyridazine
##JCAMP-DX=4.24
##DATA TYPE=MASS SPECTRUM
##ORIGIN=NIST Mass Spectrometry Data Center
##OWNER=NIST Mass Spectrometry Data Center
Collection (C) 2014 copyright by the U.S. Secretary of Commerce
on behalf of the United States of America. All rights reserved.
##CAS REGISTRY NO=1120-88-3
##$NIST MASS SPEC NO=342818
##MOLFORM=C5 H6 N2
##MW=94
##$NIST SOURCE=MSDC
##XUNITS=M/Z
##YUNITS=RELATIVE INTENSITY
##XFACTOR=1
##YFACTOR=1
##FIRSTX=12
##LASTX=96
##FIRSTY=50
##MAXX=96
##MINX=12
##MAXY=9999
##MINY=10
##NPOINTS=37
##PEAK TABLE=(XY..XY)
12,50 13,80 14,80 15,250
17,10 18,20 24,30 25,180
26,540 27,460 28,671 32,120
36,180 37,1451 38,2432 39,8047
40,4224 41,150 48,50 49,290
50,931 51,1692 52,350 53,70
60,20 61,240 62,420 63,671
64,460 65,4834 66,1111 67,60
76,20 77,20 94,9999 95,691
96,10
##END=
