##TITLE=Cyclopentene, 3-methyl-
##JCAMP-DX=4.24
##DATA TYPE=MASS SPECTRUM
##ORIGIN=B. Derendyaev, Novosibirsk Institute of Organic Chemistry
##OWNER=NIST Mass Spectrometry Data Center
Collection (C) 2014 copyright by the U.S. Secretary of Commerce
on behalf of the United States of America. All rights reserved.
##CAS REGISTRY NO=1120-62-3
##$NIST MASS SPEC NO=139415
##MOLFORM=C6 H10
##MW=82
##$NIST SOURCE=MSDC
##XUNITS=M/Z
##YUNITS=RELATIVE INTENSITY
##XFACTOR=1
##YFACTOR=1
##FIRSTX=14
##LASTX=83
##FIRSTY=10
##MAXX=83
##MINX=14
##MAXY=9999
##MINY=10
##NPOINTS=48
##PEAK TABLE=(XY..XY)
14,10 15,60 25,10 26,129
27,1029 28,119 29,179 30,10
31,10 37,50 38,169 39,2059
40,329 41,1879 42,169 43,50
44,10 45,10 49,20 50,229
51,409 52,189 53,679 54,439
55,159 56,40 57,10 58,10
61,20 62,40 63,99 64,20
65,529 66,199 67,9999 68,439
69,20 73,10 74,20 75,10
76,10 77,209 78,50 79,379
80,70 81,919 82,1799 83,119
##END=
