##TITLE=1-Decanamine, N,N-dimethyl-
##JCAMP-DX=4.24
##DATA TYPE=MASS SPECTRUM
##ORIGIN=Japan AIST/NIMC Database- Spectrum MS-NW-9089
##OWNER=NIST Mass Spectrometry Data Center
Collection (C) 2014 copyright by the U.S. Secretary of Commerce
on behalf of the United States of America. All rights reserved.
##CAS REGISTRY NO=1120-24-7
##$NIST MASS SPEC NO=234020
##MOLFORM=C12 H27 N
##MW=185
##$NIST SOURCE=MSDC
##XUNITS=M/Z
##YUNITS=RELATIVE INTENSITY
##XFACTOR=1
##YFACTOR=1
##FIRSTX=14
##LASTX=186
##FIRSTY=10
##MAXX=186
##MINX=14
##MAXY=9999
##MINY=10
##NPOINTS=44
##PEAK TABLE=(XY..XY)
14,10 15,319 27,60 28,40
29,129 30,99 39,40 40,10
41,209 42,159 43,249 44,129
45,149 46,70 53,10 54,10
55,169 56,70 57,189 58,9999
59,409 67,10 68,10 69,80
70,40 71,80 72,40 73,10
82,10 83,30 84,60 85,40
91,20 92,10 98,10 99,10
100,10 114,20 128,10 156,10
170,10 184,40 185,269 186,40
##END=
