##TITLE=3-Amino-1,2,4-triazine
##JCAMP-DX=4.24
##DATA TYPE=MASS SPECTRUM
##ORIGIN=NIST Mass Spectrometry Data Center
##OWNER=NIST Mass Spectrometry Data Center
Collection (C) 2014 copyright by the U.S. Secretary of Commerce
on behalf of the United States of America. All rights reserved.
##CAS REGISTRY NO=1120-99-6
##$NIST MASS SPEC NO=340518
##MOLFORM=C3 H4 N4
##MW=96
##$NIST SOURCE=MSDC
##XUNITS=M/Z
##YUNITS=RELATIVE INTENSITY
##XFACTOR=1
##YFACTOR=1
##FIRSTX=12
##LASTX=97
##FIRSTY=60
##MAXX=97
##MINX=12
##MAXY=9999
##MINY=10
##NPOINTS=34
##PEAK TABLE=(XY..XY)
12,60 13,200 14,100 15,20
16,80 17,20 24,50 25,160
26,1061 27,1561 28,1551 29,120
34,140 37,10 38,571 39,821
40,2342 41,6256 42,9529 43,1011
44,20 50,30 51,160 52,210
53,540 54,60 65,20 66,140
67,160 68,3904 69,160 78,10
96,9999 97,500
##END=
