##TITLE=3-Pyridinol, 6-methyl-
##JCAMP-DX=4.24
##DATA TYPE=MASS SPECTRUM
##ORIGIN=Japan AIST/NIMC Database- Spectrum MS-NW-6534
##OWNER=NIST Mass Spectrometry Data Center
Collection (C) 2014 copyright by the U.S. Secretary of Commerce
on behalf of the United States of America. All rights reserved.
##CAS REGISTRY NO=1121-78-4
##$NIST MASS SPEC NO=235309
##MOLFORM=C6 H7 N O
##MW=109
##$NIST SOURCE=MSDC
##XUNITS=M/Z
##YUNITS=RELATIVE INTENSITY
##XFACTOR=1
##YFACTOR=1
##FIRSTX=14
##LASTX=111
##FIRSTY=40
##MAXX=111
##MINX=14
##MAXY=9999
##MINY=10
##NPOINTS=65
##PEAK TABLE=(XY..XY)
14,40 15,70 16,10 25,40
26,279 27,949 28,309 29,179
30,70 31,20 36,40 37,149
38,279 39,1029 40,189 41,249
42,409 43,99 44,70 46,10
48,20 49,119 50,479 51,619
52,569 53,1379 54,959 55,499
56,60 57,129 60,10 61,40
62,60 63,119 64,169 65,99
66,119 67,109 68,199 69,50
70,99 74,10 75,30 76,80
77,50 78,50 79,90 80,3639
81,1179 82,459 83,70 89,10
90,10 91,109 92,60 93,10
94,259 95,40 105,10 106,10
107,70 108,1429 109,9999 110,749
111,60
##END=
