##TITLE=Glutarimide
##JCAMP-DX=4.24
##DATA TYPE=MASS SPECTRUM
##ORIGIN=NIST Mass Spectrometry Data Center
##OWNER=NIST Mass Spectrometry Data Center
Collection (C) 2014 copyright by the U.S. Secretary of Commerce
on behalf of the United States of America. All rights reserved.
##CAS REGISTRY NO=1121-89-7
##$NIST MASS SPEC NO=414428
##MOLFORM=C5 H7 N O2
##MW=113
##$NIST SOURCE=MSDC
##XUNITS=M/Z
##YUNITS=RELATIVE INTENSITY
##XFACTOR=1
##YFACTOR=1
##FIRSTX=25
##LASTX=115
##FIRSTY=10
##MAXX=115
##MINX=25
##MAXY=9999
##MINY=10
##NPOINTS=35
##PEAK TABLE=(XY..XY)
25,10 26,100 27,350 28,140
29,70 30,10 34,20 35,20
36,20 37,150 38,320 39,1661
40,881 41,3483 42,9999 43,701
44,290 45,40 49,20 52,70
53,130 54,100 55,340 56,30
68,40 69,110 70,6005 71,260
72,50 74,50 84,170 85,90
113,7607 114,450 115,50
##END=
