##TITLE=3-Chloro-6-methylpyridazine
##JCAMP-DX=4.24
##DATA TYPE=MASS SPECTRUM
##ORIGIN=NIST Mass Spectrometry Data Center, 1994
##OWNER=NIST Mass Spectrometry Data Center
Collection (C) 2014 copyright by the U.S. Secretary of Commerce
on behalf of the United States of America. All rights reserved.
##CAS REGISTRY NO=1121-79-5
##$NIST MASS SPEC NO=136660
##MOLFORM=C5 H5 Cl N2
##MW=128
##$NIST SOURCE=MSDC
##XUNITS=M/Z
##YUNITS=RELATIVE INTENSITY
##XFACTOR=1
##YFACTOR=1
##FIRSTX=12
##LASTX=131
##FIRSTY=74
##MAXX=131
##MINX=12
##MAXY=9999
##MINY=18
##NPOINTS=56
##PEAK TABLE=(XY..XY)
12,74 13,61 14,168 15,876
17,38 24,72 25,299 26,996
27,244 32,18 35,215 36,279
37,1160 38,1509 39,5206 40,1055
41,147 42,386 47,275 48,272
49,503 50,669 51,1245 52,913
53,135 60,350 61,674 62,899
63,1814 64,1513 65,9999 66,847
67,57 71,32 72,253 73,1062
74,32 75,398 76,137 77,133
78,40 84,54 85,91 86,36
87,49 93,39 96,23 97,40
99,1931 100,616 101,658 102,199
128,4377 129,330 130,1354 131,93
##END=
