##TITLE=Benzene, 1-fluoro-3-iodo-
##JCAMP-DX=4.24
##DATA TYPE=MASS SPECTRUM
##ORIGIN=Japan AIST/NIMC Database- Spectrum MS-NW-9214
##OWNER=NIST Mass Spectrometry Data Center
Collection (C) 2014 copyright by the U.S. Secretary of Commerce
on behalf of the United States of America. All rights reserved.
##CAS REGISTRY NO=1121-86-4
##$NIST MASS SPEC NO=230723
##MOLFORM=C6 H4 F I
##MW=222
##$NIST SOURCE=MSDC
##XUNITS=M/Z
##YUNITS=RELATIVE INTENSITY
##XFACTOR=1
##YFACTOR=1
##FIRSTX=20
##LASTX=224
##FIRSTY=10
##MAXX=224
##MINX=20
##MAXY=9999
##MINY=10
##NPOINTS=57
##PEAK TABLE=(XY..XY)
20,10 25,20 26,50 27,70
28,30 31,229 36,50 37,349
38,319 39,189 44,30 45,90
48,30 49,269 50,1669 51,659
52,20 55,20 56,99 57,189
60,40 61,269 62,279 63,229
64,20 67,10 68,849 69,979
70,50 72,20 73,249 74,1079
75,4559 76,399 77,20 79,10
80,20 81,10 82,10 91,10
92,169 93,239 94,829 95,9569
96,629 97,20 111,309 127,889
128,90 139,10 152,20 164,10
176,20 221,30 222,9999 223,669
224,20
##END=
