##TITLE=3-Cyclohepten-1-one
##JCAMP-DX=4.24
##DATA TYPE=MASS SPECTRUM
##OWNER=NIST Mass Spectrometry Data Center
Collection (C) 2014 copyright by the U.S. Secretary of Commerce
on behalf of the United States of America. All rights reserved.
##CAS REGISTRY NO=1121-64-8
##$NIST MASS SPEC NO=1509
##MOLFORM=C7 H10 O
##MW=110
##$NIST SOURCE=MSDC
##XUNITS=M/Z
##YUNITS=RELATIVE INTENSITY
##XFACTOR=1
##YFACTOR=1
##FIRSTX=41
##LASTX=111
##FIRSTY=2502
##MAXX=111
##MINX=41
##MAXY=9999
##MINY=200
##NPOINTS=27
##PEAK TABLE=(XY..XY)
41,2502 42,400 43,400 51,601
52,400 53,1902 54,9999 55,4504
56,500 65,400 66,601 67,7006
68,2702 69,400 76,500 77,300
78,901 79,300 80,1501 81,3703
82,400 91,300 92,300 95,500
109,300 110,3303 111,200
##END=
