##TITLE=Cyclopentanone, 2,4-dimethyl-
##JCAMP-DX=4.24
##DATA TYPE=MASS SPECTRUM
##OWNER=NIST Mass Spectrometry Data Center
Collection (C) 2014 copyright by the U.S. Secretary of Commerce
on behalf of the United States of America. All rights reserved.
##CAS REGISTRY NO=1121-33-1
##$NIST MASS SPEC NO=1634
##MOLFORM=C7 H12 O
##MW=112
##$NIST SOURCE=MSDC
##XUNITS=M/Z
##YUNITS=RELATIVE INTENSITY
##XFACTOR=1
##YFACTOR=1
##FIRSTX=29
##LASTX=114
##FIRSTY=1103
##MAXX=114
##MINX=29
##MAXY=9999
##MINY=34
##NPOINTS=39
##PEAK TABLE=(XY..XY)
29,1103 31,34 33,69 37,34
38,172 39,276 40,517 41,5689
42,9999 43,1552 50,103 51,172
52,69 53,345 54,172 55,3448
56,1448 57,172 58,69 59,69
63,69 65,103 66,69 67,172
68,276 69,7068 70,1655 71,172
79,103 81,103 83,414 84,172
94,172 97,759 98,69 111,69
112,1379 113,69 114,69
##END=
