##TITLE=2-Mercaptopyridine-N-oxide
##JCAMP-DX=4.24
##DATA TYPE=MASS SPECTRUM
##ORIGIN=NIST Mass Spectrometry Data Center, 1994
##OWNER=NIST Mass Spectrometry Data Center
Collection (C) 2014 copyright by the U.S. Secretary of Commerce
on behalf of the United States of America. All rights reserved.
##CAS REGISTRY NO=1121-31-9
##$NIST MASS SPEC NO=134194
##MOLFORM=C5 H5 N O S
##MW=127
##$NIST SOURCE=MSDC
##XUNITS=M/Z
##YUNITS=RELATIVE INTENSITY
##XFACTOR=1
##YFACTOR=1
##FIRSTX=14
##LASTX=129
##FIRSTY=18
##MAXX=129
##MINX=14
##MAXY=9999
##MINY=6
##NPOINTS=74
##PEAK TABLE=(XY..XY)
14,18 16,70 17,113 18,35
25,69 26,243 27,185 28,974
29,114 30,198 32,243 33,108
36,60 37,342 38,502 39,2073
40,233 41,173 42,50 43,70
44,186 45,696 46,85 47,93
49,161 50,622 51,814 52,616
53,80 54,302 55,397 56,160
57,589 58,310 59,80 60,137
61,87 62,104 64,259 65,84
66,300 67,724 68,136 69,792
70,530 71,325 72,219 74,59
75,103 76,56 77,56 78,727
79,2080 80,146 81,325 82,656
83,2392 84,352 85,183 93,148
94,61 95,270 96,92 97,75
98,9 99,62 100,88 110,1630
111,672 112,166 113,6 127,9999
128,640 129,469
##END=
