##TITLE=3-Pyridinol, 2-methyl-
##JCAMP-DX=4.24
##DATA TYPE=MASS SPECTRUM
##OWNER=NIST Mass Spectrometry Data Center
Collection (C) 2014 copyright by the U.S. Secretary of Commerce
on behalf of the United States of America. All rights reserved.
##CAS REGISTRY NO=1121-25-1
##$NIST MASS SPEC NO=33210
##MOLFORM=C6 H7 N O
##MW=109
##$NIST SOURCE=MSDC
##XUNITS=M/Z
##YUNITS=RELATIVE INTENSITY
##XFACTOR=1
##YFACTOR=1
##FIRSTX=26
##LASTX=110
##FIRSTY=688
##MAXX=110
##MINX=26
##MAXY=9999
##MINY=92
##NPOINTS=35
##PEAK TABLE=(XY..XY)
26,688 27,1284 28,2385 37,459
38,1330 39,3394 40,757 41,734
42,1445 50,459 51,871 52,986
53,1903 54,986 55,573 63,482
64,780 65,390 66,459 67,573
68,298 69,183 70,688 78,321
79,275 80,7683 81,1605 82,482
91,596 92,115 93,92 94,206
108,688 109,9999 110,1009
##END=
