##TITLE=2,5-Pyrrolidinedione, 1-methyl-
##JCAMP-DX=4.24
##DATA TYPE=MASS SPECTRUM
##ORIGIN=NIST Mass Spectrometry Data Center, 1994
##OWNER=NIST Mass Spectrometry Data Center
Collection (C) 2014 copyright by the U.S. Secretary of Commerce
on behalf of the United States of America. All rights reserved.
##CAS REGISTRY NO=1121-07-9
##$NIST MASS SPEC NO=135473
##MOLFORM=C5 H7 N O2
##MW=113
##$NIST SOURCE=MSDC
##XUNITS=M/Z
##YUNITS=RELATIVE INTENSITY
##XFACTOR=1
##YFACTOR=1
##FIRSTX=12
##LASTX=115
##FIRSTY=42
##MAXX=115
##MINX=12
##MAXY=9999
##MINY=6
##NPOINTS=47
##PEAK TABLE=(XY..XY)
12,42 13,104 14,440 15,652
16,22 18,26 24,28 25,225
26,1771 27,3229 28,9999 29,1044
30,321 31,55 32,11 36,23
37,83 38,90 39,100 40,131
41,269 42,1039 43,402 44,77
50,13 51,60 52,116 53,226
54,227 55,1319 56,4389 57,892
58,965 59,29 66,17 67,14
68,144 69,46 70,166 71,27
82,10 84,267 85,419 86,25
113,4502 114,267 115,6
##END=
