##TITLE=Cyclohexane, 1,2-dichloro-
##JCAMP-DX=4.24
##DATA TYPE=MASS SPECTRUM
##ORIGIN=Japan AIST/NIMC Database- Spectrum MS-IW-5085
##OWNER=NIST Mass Spectrometry Data Center
Collection (C) 2014 copyright by the U.S. Secretary of Commerce
on behalf of the United States of America. All rights reserved.
##CAS REGISTRY NO=1121-21-7
##$NIST MASS SPEC NO=237409
##MOLFORM=C6 H10 Cl2
##MW=152
##$NIST SOURCE=MSDC
##XUNITS=M/Z
##YUNITS=RELATIVE INTENSITY
##XFACTOR=1
##YFACTOR=1
##FIRSTX=15
##LASTX=156
##FIRSTY=10
##MAXX=156
##MINX=15
##MAXY=9999
##MINY=10
##NPOINTS=74
##PEAK TABLE=(XY..XY)
15,10 26,70 27,549 28,60
29,119 35,60 36,539 37,50
38,209 39,989 40,179 41,1429
42,169 43,30 44,20 49,139
50,229 51,459 52,209 53,769
54,799 55,1179 56,119 57,90
58,10 60,10 61,70 62,379
63,109 64,119 65,229 66,70
67,799 68,60 69,90 70,20
71,30 73,60 74,50 75,919
76,139 77,909 78,279 79,2009
80,6299 81,9999 82,759 83,30
85,20 87,30 88,369 89,149
90,339 91,50 92,70 96,30
97,10 98,20 99,10 101,50
103,50 105,10 109,30 110,10
111,20 115,30 116,549 117,99
118,179 119,30 152,119 153,10
154,80 156,10
##END=
