##TITLE=Ethanone, 1-(4-pyridinyl)-
##JCAMP-DX=4.24
##DATA TYPE=MASS SPECTRUM
##ORIGIN=Japan AIST/NIMC Database- Spectrum MS-NW-5867
##OWNER=NIST Mass Spectrometry Data Center
Collection (C) 2014 copyright by the U.S. Secretary of Commerce
on behalf of the United States of America. All rights reserved.
##CAS REGISTRY NO=1122-54-9
##$NIST MASS SPEC NO=231430
##MOLFORM=C7 H7 N O
##MW=121
##$NIST SOURCE=MSDC
##XUNITS=M/Z
##YUNITS=RELATIVE INTENSITY
##XFACTOR=1
##YFACTOR=1
##FIRSTX=12
##LASTX=123
##FIRSTY=20
##MAXX=123
##MINX=12
##MAXY=9999
##MINY=10
##NPOINTS=70
##PEAK TABLE=(XY..XY)
12,20 13,40 14,179 15,1029
16,10 18,20 24,10 25,70
26,359 27,179 28,429 29,60
31,30 32,10 36,50 37,289
38,369 39,829 40,90 41,60
42,339 43,7039 44,169 45,20
46,10 48,40 49,349 50,2169
51,5969 52,1669 53,239 54,30
57,10 60,40 61,119 62,189
63,299 64,99 65,219 66,60
67,20 73,20 74,80 75,169
76,169 77,149 78,9399 79,3529
80,249 81,10 91,20 92,119
93,70 94,20 101,10 102,10
103,10 104,20 105,20 106,9999
107,779 108,50 109,10 117,20
118,10 119,10 120,40 121,8709
122,719 123,50
##END=
