##TITLE=Cyanic acid, phenyl ester
##JCAMP-DX=4.24
##DATA TYPE=MASS SPECTRUM
##OWNER=NIST Mass Spectrometry Data Center
Collection (C) 2014 copyright by the U.S. Secretary of Commerce
on behalf of the United States of America. All rights reserved.
##CAS REGISTRY NO=1122-85-6
##$NIST MASS SPEC NO=29296
##MOLFORM=C7 H5 N O
##MW=119
##$NIST SOURCE=MSDC
##XUNITS=M/Z
##YUNITS=RELATIVE INTENSITY
##XFACTOR=1
##YFACTOR=1
##FIRSTX=37
##LASTX=120
##FIRSTY=175
##MAXX=120
##MINX=37
##MAXY=9999
##MINY=125
##NPOINTS=15
##PEAK TABLE=(XY..XY)
37,175 38,450 39,875 50,950
51,2250 63,250 64,325 65,500
74,350 75,200 76,125 77,9999
78,650 119,5299 120,375
##END=
