##TITLE=2-Ethylidenecyclohexanone
##JCAMP-DX=4.24
##DATA TYPE=MASS SPECTRUM
##ORIGIN=NIST Mass Spectrometry Data Center, 1990.
##OWNER=NIST Mass Spectrometry Data Center
Collection (C) 2014 copyright by the U.S. Secretary of Commerce
on behalf of the United States of America. All rights reserved.
##CAS REGISTRY NO=1122-24-3
##$NIST MASS SPEC NO=114884
##MOLFORM=C8 H12 O
##MW=124
##$NIST SOURCE=MSDC
##XUNITS=M/Z
##YUNITS=RELATIVE INTENSITY
##XFACTOR=1
##YFACTOR=1
##FIRSTX=26
##LASTX=125
##FIRSTY=227
##MAXX=125
##MINX=26
##MAXY=9999
##MINY=53
##NPOINTS=34
##PEAK TABLE=(XY..XY)
26,227 27,1051 28,98 29,304
32,53 38,326 39,2703 40,808
41,1438 42,633 50,402 51,752
52,406 53,2116 54,1442 55,1750
56,167 62,134 63,253 65,665
66,1286 67,9999 68,2554 69,259
77,449 79,1122 81,3047 82,294
91,223 95,659 96,1238 109,1221
124,3567 125,329
##END=
