##TITLE=4-Pyridinamine, N,N-dimethyl-
##JCAMP-DX=4.24
##DATA TYPE=MASS SPECTRUM
##ORIGIN=A.E.WILLIAMS ICI DYESTUFFS DIVISION. BLACKLEY.
##OWNER=NIST Mass Spectrometry Data Center
Collection (C) 2014 copyright by the U.S. Secretary of Commerce
on behalf of the United States of America. All rights reserved.
##CAS REGISTRY NO=1122-58-3
##$NIST MASS SPEC NO=2269
##MOLFORM=C7 H10 N2
##MW=122
##$NIST SOURCE=MSDC
##XUNITS=M/Z
##YUNITS=RELATIVE INTENSITY
##XFACTOR=1
##YFACTOR=1
##FIRSTX=15
##LASTX=124
##FIRSTY=240
##MAXX=124
##MINX=15
##MAXY=9999
##MINY=1
##NPOINTS=66
##PEAK TABLE=(XY..XY)
15,240 18,24 26,51 27,196
28,262 29,14 30,62 36,4
37,20 38,77 39,300 40,85
41,136 42,660 43,77 44,532
45,11 47,7 48,1 49,17
50,289 51,1234 52,177 53,198
54,123 55,30 56,8 57,3
58,3 60,13 61,209 62,4
63,17 64,70 65,111 66,164
67,121 68,100 69,19 75,18
76,38 77,68 78,1021 79,332
80,313 81,70 82,4 90,2
91,14 92,187 93,226 94,770
95,91 96,3 104,31 105,345
106,330 107,304 108,143 109,8
119,181 120,68 121,9999 122,8192
123,606 124,19
##END=
