##TITLE=Pyridine, 4-propyl-
##JCAMP-DX=4.24
##DATA TYPE=MASS SPECTRUM
##ORIGIN=Japan AIST/NIMC Database- Spectrum MS-NW-1017
##OWNER=NIST Mass Spectrometry Data Center
Collection (C) 2014 copyright by the U.S. Secretary of Commerce
on behalf of the United States of America. All rights reserved.
##CAS REGISTRY NO=1122-81-2
##$NIST MASS SPEC NO=230653
##MOLFORM=C8 H11 N
##MW=121
##$NIST SOURCE=MSDC
##XUNITS=M/Z
##YUNITS=RELATIVE INTENSITY
##XFACTOR=1
##YFACTOR=1
##FIRSTX=15
##LASTX=123
##FIRSTY=60
##MAXX=123
##MINX=15
##MAXY=9999
##MINY=10
##NPOINTS=74
##PEAK TABLE=(XY..XY)
15,60 26,219 27,849 28,319
29,889 30,30 31,10 37,109
38,309 39,2239 40,279 41,619
42,209 43,239 44,20 45,20
49,50 50,529 51,1299 52,899
53,369 54,339 55,80 56,80
57,109 58,20 59,30 61,70
62,149 63,439 64,259 65,2579
66,849 67,399 68,40 69,10
71,10 72,10 73,10 74,50
75,60 76,80 77,579 78,519
79,1169 80,359 81,40 82,30
83,20 86,10 87,10 88,10
89,50 90,50 91,379 92,5019
93,9999 94,859 95,40 102,10
103,20 104,159 105,90 106,4369
107,499 108,30 116,10 117,90
118,189 119,40 120,979 121,9499
122,859 123,30
##END=
