##TITLE=2-Propanone, 1-cyclopentyl-
##JCAMP-DX=4.24
##DATA TYPE=MASS SPECTRUM
##ORIGIN=NIST Mass Spectrometry Data Center, 1994
##OWNER=NIST Mass Spectrometry Data Center
Collection (C) 2014 copyright by the U.S. Secretary of Commerce
on behalf of the United States of America. All rights reserved.
##CAS REGISTRY NO=1122-98-1
##$NIST MASS SPEC NO=135230
##MOLFORM=C8 H14 O
##MW=126
##$NIST SOURCE=MSDC
##XUNITS=M/Z
##YUNITS=RELATIVE INTENSITY
##XFACTOR=1
##YFACTOR=1
##FIRSTX=13
##LASTX=127
##FIRSTY=25
##MAXX=127
##MINX=13
##MAXY=9999
##MINY=6
##NPOINTS=65
##PEAK TABLE=(XY..XY)
13,25 14,193 15,1467 16,28
17,6 18,38 26,262 27,1829
28,478 29,922 30,35 31,87
37,52 39,2417 40,476 41,3439
42,35 43,9999 44,248 45,67
50,156 51,259 52,133 53,541
54,341 55,3125 56,209 57,67
58,4722 59,5596 60,198 61,27
62,22 63,61 65,160 66,151
67,1009 68,992 69,431 70,38
71,131 72,16 74,13 77,105
78,23 79,131 80,25 81,92
82,13 83,1481 84,143 85,27
91,23 93,101 94,14 95,8
96,8 97,324 98,33 108,116
109,19 111,230 112,17 126,615
127,61
##END=
