##TITLE=Benzene, 2-iodo-1,4-dimethyl-
##JCAMP-DX=4.24
##DATA TYPE=MASS SPECTRUM
##OWNER=NIST Mass Spectrometry Data Center
Collection (C) 2014 copyright by the U.S. Secretary of Commerce
on behalf of the United States of America. All rights reserved.
##CAS REGISTRY NO=1122-42-5
##$NIST MASS SPEC NO=11164
##MOLFORM=C8 H9 I
##MW=232
##$NIST SOURCE=MSDC
##XUNITS=M/Z
##YUNITS=RELATIVE INTENSITY
##XFACTOR=1
##YFACTOR=1
##FIRSTX=27
##LASTX=233
##FIRSTY=230
##MAXX=233
##MINX=27
##MAXY=9999
##MINY=10
##NPOINTS=43
##PEAK TABLE=(XY..XY)
27,230 28,120 38,60 39,310
41,30 42,10 43,10 50,220
51,450 52,160 53,130 56,10
57,10 62,120 63,290 64,70
65,120 74,100 75,80 76,80
77,1231 78,460 79,1391 80,100
89,110 90,70 91,70 102,110
103,1051 104,611 105,3653 106,350
107,40 116,90 127,160 128,30
141,60 217,90 218,20 230,20
231,220 232,9999 233,911
##END=
