##TITLE=1-Propanone, 1-cyclohexyl-
##JCAMP-DX=4.24
##DATA TYPE=MASS SPECTRUM
##ORIGIN=NIST Mass Spectrometry Data Center, 1990.
##OWNER=NIST Mass Spectrometry Data Center
Collection (C) 2014 copyright by the U.S. Secretary of Commerce
on behalf of the United States of America. All rights reserved.
##CAS REGISTRY NO=1123-86-0
##$NIST MASS SPEC NO=113719
##MOLFORM=C9 H16 O
##MW=140
##$NIST SOURCE=MSDC
##XUNITS=M/Z
##YUNITS=RELATIVE INTENSITY
##XFACTOR=1
##YFACTOR=1
##FIRSTX=15
##LASTX=141
##FIRSTY=101
##MAXX=141
##MINX=15
##MAXY=9999
##MINY=101
##NPOINTS=32
##PEAK TABLE=(XY..XY)
15,101 26,236 27,1911 28,858
29,2584 39,1563 41,2620 42,368
43,429 51,230 52,124 53,531
54,658 55,6395 56,635 57,2888
65,151 67,957 68,236 69,169
72,111 77,177 79,177 81,191
83,9999 84,697 85,521 98,123
111,2119 112,165 140,1700 141,178
##END=
