##TITLE=Benzene, 1,4-dichloro-2-ethenyl-
##JCAMP-DX=4.24
##DATA TYPE=MASS SPECTRUM
##OWNER=NIST Mass Spectrometry Data Center
Collection (C) 2014 copyright by the U.S. Secretary of Commerce
on behalf of the United States of America. All rights reserved.
##CAS REGISTRY NO=1123-84-8
##$NIST MASS SPEC NO=6870
##MOLFORM=C8 H6 Cl2
##MW=172
##$NIST SOURCE=MSDC
##XUNITS=M/Z
##YUNITS=RELATIVE INTENSITY
##XFACTOR=1
##YFACTOR=1
##FIRSTX=12
##LASTX=177
##FIRSTY=10
##MAXX=177
##MINX=12
##MAXY=9999
##MINY=10
##NPOINTS=126
##PEAK TABLE=(XY..XY)
12,10 13,10 14,10 15,20
16,10 17,10 25,10 26,30
27,110 35,10 36,20 37,110
38,110 39,150 40,20 41,200
42,30 43,40 44,10 45,10
47,20 48,10 49,220 50,1151
51,701 52,100 53,40 54,20
55,110 56,30 58,10 59,10
60,50 61,190 62,220 63,260
64,20 65,30 66,20 67,100
68,1181 69,380 70,20 71,10
72,50 73,290 74,811 75,1191
76,310 77,130 78,20 79,30
80,10 81,110 82,20 83,30
84,150 85,280 86,370 87,250
88,40 89,20 90,10 91,30
92,10 93,20 94,10 95,90
96,60 97,140 98,250 99,520
100,250 101,2092 102,2302 103,260
104,60 105,30 106,10 107,30
108,50 109,220 110,90 111,250
112,100 113,70 114,30 115,60
116,20 117,30 118,10 119,30
120,20 121,30 122,10 123,70
124,10 125,30 126,10 127,10
128,10 129,10 130,10 131,10
132,40 133,50 134,40 135,370
136,1051 137,5555 138,881 139,1802
140,170 141,10 146,200 147,30
148,130 149,140 150,50 171,410
172,9999 173,1151 174,6426 175,621
176,1061 177,80
##END=
