##TITLE=Cyclohexane, 1-methyl-4-(1-methylethenyl)-, trans-
##JCAMP-DX=4.24
##DATA TYPE=MASS SPECTRUM
##OWNER=NIST Mass Spectrometry Data Center
Collection (C) 2014 copyright by the U.S. Secretary of Commerce
on behalf of the United States of America. All rights reserved.
##CAS REGISTRY NO=1124-25-0
##$NIST MASS SPEC NO=3506
##MOLFORM=C10 H18
##MW=138
##$NIST SOURCE=MSDC
##XUNITS=M/Z
##YUNITS=RELATIVE INTENSITY
##XFACTOR=1
##YFACTOR=1
##FIRSTX=41
##LASTX=138
##FIRSTY=5305
##MAXX=138
##MINX=41
##MAXY=9999
##MINY=200
##NPOINTS=23
##PEAK TABLE=(XY..XY)
41,5305 43,701 53,1902 55,6306
67,6906 68,7607 69,2402 70,450
77,601 79,1101 80,651 81,9999
82,4604 83,1001 91,300 93,350
94,601 95,9108 96,4404 109,2002
110,651 123,200 138,2702
##END=
