##TITLE=Cyclohexanepropanol-
##JCAMP-DX=4.24
##DATA TYPE=MASS SPECTRUM
##ORIGIN=Chuck Anderson, Aldrich Chemical Co.
##OWNER=NIST Mass Spectrometry Data Center
Collection (C) 2014 copyright by the U.S. Secretary of Commerce
on behalf of the United States of America. All rights reserved.
##CAS REGISTRY NO=1124-63-6
##$NIST MASS SPEC NO=108428
##MOLFORM=C9 H18 O
##MW=142
##$NIST SOURCE=MSDC
##XUNITS=M/Z
##YUNITS=RELATIVE INTENSITY
##XFACTOR=1
##YFACTOR=1
##FIRSTX=15
##LASTX=125
##FIRSTY=54
##MAXX=125
##MINX=15
##MAXY=9999
##MINY=11
##NPOINTS=56
##PEAK TABLE=(XY..XY)
15,54 18,12 19,42 26,107
27,1728 28,495 29,2040 30,84
31,1630 32,11 36,56 38,66
39,1806 40,319 41,5272 42,1679
43,849 44,190 45,85 50,48
51,163 52,89 53,888 54,2109
55,9999 56,712 57,549 58,75
60,111 63,38 65,295 66,512
67,7538 68,2275 69,1074 70,138
71,142 77,263 78,50 79,781
80,297 81,8241 82,8475 83,4257
84,273 85,36 91,83 93,104
94,83 95,1513 96,8202 97,654
109,280 123,45 124,434 125,39
##END=
