##TITLE=2,6,6-Trimethyl-2-cyclohexene-1,4-dione
##JCAMP-DX=4.24
##DATA TYPE=MASS SPECTRUM
##ORIGIN=NIST Mass Spectrometry Data Center, 1998.
##OWNER=NIST Mass Spectrometry Data Center
Collection (C) 2014 copyright by the U.S. Secretary of Commerce
on behalf of the United States of America. All rights reserved.
##CAS REGISTRY NO=1125-21-9
##$NIST MASS SPEC NO=291390
##MOLFORM=C9 H12 O2
##MW=152
##$NIST SOURCE=MSDC
##XUNITS=M/Z
##YUNITS=RELATIVE INTENSITY
##XFACTOR=1
##YFACTOR=1
##FIRSTX=15
##LASTX=153
##FIRSTY=30
##MAXX=153
##MINX=15
##MAXY=9999
##MINY=20
##NPOINTS=45
##PEAK TABLE=(XY..XY)
15,30 26,50 27,490 29,380
37,100 38,410 39,3490 40,3350
41,1800 42,330 43,210 50,190
51,290 52,120 53,590 54,110
55,640 56,410 63,80 65,150
66,140 67,360 68,9999 69,840
70,60 77,190 79,270 81,500
82,110 83,130 91,190 94,60
95,150 96,7519 97,460 107,100
109,1290 110,350 111,20 123,160
124,300 137,650 138,60 152,3550
153,360
##END=
