##TITLE=1,3-Cyclohexanedione, 2,5,5-trimethyl-
##JCAMP-DX=4.24
##DATA TYPE=MASS SPECTRUM
##OWNER=NIST Mass Spectrometry Data Center
Collection (C) 2014 copyright by the U.S. Secretary of Commerce
on behalf of the United States of America. All rights reserved.
##CAS REGISTRY NO=1125-11-7
##$NIST MASS SPEC NO=5145
##MOLFORM=C9 H14 O2
##MW=154
##$NIST SOURCE=MSDC
##XUNITS=M/Z
##YUNITS=RELATIVE INTENSITY
##XFACTOR=1
##YFACTOR=1
##FIRSTX=39
##LASTX=156
##FIRSTY=631
##MAXX=156
##MINX=39
##MAXY=9999
##MINY=60
##NPOINTS=29
##PEAK TABLE=(XY..XY)
39,631 40,160 41,1251 42,310
43,380 44,160 45,631 46,310
51,60 53,310 54,60 55,1561
56,2032 57,250 69,310 70,941
71,160 82,60 83,9999 84,631
97,60 98,1722 99,60 111,470
126,310 139,310 154,3133 155,310
156,60
##END=
