##TITLE=Pyrrolidine, 1-(1-cyclohexen-1-yl)-
##JCAMP-DX=4.24
##DATA TYPE=MASS SPECTRUM
##ORIGIN=Japan AIST/NIMC Database- Spectrum MS-NW-9437
##OWNER=NIST Mass Spectrometry Data Center
Collection (C) 2014 copyright by the U.S. Secretary of Commerce
on behalf of the United States of America. All rights reserved.
##CAS REGISTRY NO=1125-99-1
##$NIST MASS SPEC NO=236816
##MOLFORM=C10 H17 N
##MW=151
##$NIST SOURCE=MSDC
##XUNITS=M/Z
##YUNITS=RELATIVE INTENSITY
##XFACTOR=1
##YFACTOR=1
##FIRSTX=15
##LASTX=154
##FIRSTY=90
##MAXX=154
##MINX=15
##MAXY=9999
##MINY=10
##NPOINTS=107
##PEAK TABLE=(XY..XY)
15,90 26,80 27,989 28,1049
29,559 30,319 36,30 37,20
38,70 39,1179 40,259 41,2669
42,1289 43,1259 44,159 46,10
50,80 51,349 52,259 53,1199
54,2219 55,2059 56,459 57,70
58,60 59,30 60,30 61,10
62,10 63,50 64,40 65,299
66,299 67,1119 68,999 69,669
70,3159 71,479 72,99 73,20
74,169 75,189 76,30 77,849
78,209 79,1139 80,1659 81,1509
82,499 83,219 84,90 85,10
89,10 90,10 91,399 92,99
93,329 94,2679 95,4719 96,1079
97,369 98,439 99,40 103,20
104,149 105,80 106,279 107,139
108,3009 109,439 110,1009 111,109
113,10 115,50 116,30 117,50
118,90 119,70 120,329 121,239
122,4969 123,6689 124,639 125,30
130,20 131,20 132,30 133,20
134,339 135,129 136,6309 137,679
138,50 139,30 142,10 143,80
144,90 145,50 146,699 147,429
148,559 149,409 150,9639 151,9999
152,1119 153,119 154,10
##END=
