##TITLE=Phenyldimethylvinylsilane
##JCAMP-DX=4.24
##DATA TYPE=MASS SPECTRUM
##ORIGIN=V.G.Zaikin, Petrochem. Synth. Inst., Moscow
##OWNER=NIST Mass Spectrometry Data Center
Collection (C) 2014 copyright by the U.S. Secretary of Commerce
on behalf of the United States of America. All rights reserved.
##CAS REGISTRY NO=1125-26-4
##$NIST MASS SPEC NO=280366
##MOLFORM=C10 H14 Si
##MW=162
##$NIST SOURCE=MSDC
##XUNITS=M/Z
##YUNITS=RELATIVE INTENSITY
##XFACTOR=1
##YFACTOR=1
##FIRSTX=26
##LASTX=165
##FIRSTY=140
##MAXX=165
##MINX=26
##MAXY=9999
##MINY=20
##NPOINTS=95
##PEAK TABLE=(XY..XY)
26,140 27,140 29,280 31,110
36,80 38,50 39,250 40,50
41,100 42,120 43,1782 44,390
45,210 50,210 51,390 52,90
53,1071 54,130 55,460 56,60
57,250 58,490 59,911 60,210
61,60 63,80 65,260 66,280
67,480 68,120 69,390 70,90
71,60 73,390 74,140 75,90
77,440 78,290 79,410 80,180
81,290 83,160 84,80 85,310
86,80 87,60 89,80 91,561
92,110 93,450 94,330 95,350
96,30 97,90 99,70 100,250
101,80 102,50 103,250 104,250
105,1852 106,260 107,711 108,130
109,210 115,50 117,210 119,671
120,480 121,7697 122,911 123,300
124,20 129,90 130,50 131,260
133,280 134,160 135,8618 136,1251
137,420 143,160 145,641 146,250
147,9999 148,1621 149,691 150,80
151,30 159,110 161,120 162,3323
163,510 164,370 165,50
##END=
