##TITLE=Benzeneethanamine, N,N-dimethyl-
##JCAMP-DX=4.24
##DATA TYPE=MASS SPECTRUM
##ORIGIN=Drug Lab
##OWNER=NIST Mass Spectrometry Data Center
Collection (C) 2014 copyright by the U.S. Secretary of Commerce
on behalf of the United States of America. All rights reserved.
##CAS REGISTRY NO=1126-71-2
##$NIST MASS SPEC NO=379737
##MOLFORM=C10 H15 N
##MW=149
##$NIST SOURCE=MSDC
##XUNITS=M/Z
##YUNITS=RELATIVE INTENSITY
##XFACTOR=1
##YFACTOR=1
##FIRSTX=37
##LASTX=150
##FIRSTY=10
##MAXX=150
##MINX=37
##MAXY=9999
##MINY=10
##NPOINTS=66
##PEAK TABLE=(XY..XY)
37,10 38,60 39,460 40,70
41,230 42,1932 43,390 44,170
45,10 49,10 50,280 51,721
52,190 53,80 54,40 55,40
56,280 57,340 58,9999 59,961
60,10 61,20 62,100 63,360
64,90 65,891 66,60 70,30
71,20 73,10 74,90 75,80
76,90 77,931 78,400 79,330
80,20 86,10 87,20 88,10
89,240 90,100 91,1021 92,90
101,10 102,110 103,490 104,320
105,661 106,60 115,20 116,60
117,80 118,70 119,10 130,70
131,40 132,130 133,140 134,10
144,40 146,170 147,40 148,90
149,220 150,30
##END=
