##TITLE=Benzenamine, N-butyl-
##JCAMP-DX=4.24
##DATA TYPE=MASS SPECTRUM
##ORIGIN=RADIAN CORP
##OWNER=NIST Mass Spectrometry Data Center
Collection (C) 2014 copyright by the U.S. Secretary of Commerce
on behalf of the United States of America. All rights reserved.
##CAS REGISTRY NO=1126-78-9
##$NIST MASS SPEC NO=71217
##MOLFORM=C10 H15 N
##MW=149
##$NIST SOURCE=MSDC
##XUNITS=M/Z
##YUNITS=RELATIVE INTENSITY
##XFACTOR=1
##YFACTOR=1
##FIRSTX=26
##LASTX=150
##FIRSTY=10
##MAXX=150
##MINX=26
##MAXY=9999
##MINY=10
##NPOINTS=48
##PEAK TABLE=(XY..XY)
26,10 27,30 29,80 30,40
38,30 39,270 40,40 41,120
44,30 50,110 51,460 52,120
53,30 54,10 55,20 62,10
63,100 64,70 65,400 66,140
67,10 74,20 75,20 76,60
77,1480 78,280 79,700 80,60
91,180 92,140 93,190 94,20
103,20 104,240 105,90 106,9999
107,850 108,20 117,70 118,260
119,80 120,90 122,10 130,10
132,30 148,20 149,2020 150,240
##END=
