##TITLE=Benzene, (2-methylpropoxy)-
##JCAMP-DX=4.24
##DATA TYPE=MASS SPECTRUM
##ORIGIN=CARL DJERASSI DEPT OF CHEM STANFORD UNIV STANFORD CALIF 94305
##OWNER=NIST Mass Spectrometry Data Center
Collection (C) 2014 copyright by the U.S. Secretary of Commerce
on behalf of the United States of America. All rights reserved.
##CAS REGISTRY NO=1126-75-6
##$NIST MASS SPEC NO=46716
##MOLFORM=C10 H14 O
##MW=150
##$NIST SOURCE=MSDC
##XUNITS=M/Z
##YUNITS=RELATIVE INTENSITY
##XFACTOR=1
##YFACTOR=1
##FIRSTX=40
##LASTX=151
##FIRSTY=466
##MAXX=151
##MINX=40
##MAXY=9999
##MINY=66
##NPOINTS=35
##PEAK TABLE=(XY..XY)
40,466 41,2866 42,166 43,200
50,400 51,1233 52,133 53,133
55,400 56,166 57,1233 58,66
62,100 63,266 64,66 65,933
66,900 67,100 74,66 75,66
76,100 77,1466 78,166 79,166
91,100 93,100 94,9999 95,866
96,66 105,66 107,233 108,66
135,66 150,1200 151,133
##END=
