##TITLE=Ethyl piperidine-4-carboxylate
##JCAMP-DX=4.24
##DATA TYPE=MASS SPECTRUM
##ORIGIN=Chuck Anderson, Aldrich Chemical Co.
##OWNER=NIST Mass Spectrometry Data Center
Collection (C) 2014 copyright by the U.S. Secretary of Commerce
on behalf of the United States of America. All rights reserved.
##CAS REGISTRY NO=1126-09-6
##$NIST MASS SPEC NO=107725
##MOLFORM=C8 H15 N O2
##MW=157
##$NIST SOURCE=MSDC
##XUNITS=M/Z
##YUNITS=RELATIVE INTENSITY
##XFACTOR=1
##YFACTOR=1
##FIRSTX=14
##LASTX=159
##FIRSTY=21
##MAXX=159
##MINX=14
##MAXY=9999
##MINY=4
##NPOINTS=80
##PEAK TABLE=(XY..XY)
14,21 15,284 17,4 18,71
19,10 26,164 27,1706 28,2169
29,3491 30,3081 31,161 36,15
37,5 38,52 39,1230 40,166
41,912 42,3094 43,2698 44,1269
45,207 46,12 50,32 51,85
52,88 53,532 54,558 55,3359
56,7300 57,9999 58,396 59,21
65,53 66,8 67,350 68,654
69,274 70,396 71,30 72,11
73,1600 74,241 75,18 78,10
79,5 80,363 81,82 82,5396
83,1282 84,6718 85,568 86,300
87,63 88,13 93,10 94,177
95,11 96,21 98,22 99,57
100,939 101,1044 102,143 110,150
111,58 112,4073 113,271 114,413
115,86 116,6 126,9 128,4020
129,469 130,28 142,238 143,10
156,459 157,2751 158,281 159,15
##END=
