##TITLE=Benzoic acid, 4-chloro-, methyl ester
##JCAMP-DX=4.24
##DATA TYPE=MASS SPECTRUM
##ORIGIN=Chuck Anderson, Aldrich Chemical Co.
##OWNER=NIST Mass Spectrometry Data Center
Collection (C) 2014 copyright by the U.S. Secretary of Commerce
on behalf of the United States of America. All rights reserved.
##CAS REGISTRY NO=1126-46-1
##$NIST MASS SPEC NO=107417
##MOLFORM=C8 H7 Cl O2
##MW=170
##$NIST SOURCE=MSDC
##XUNITS=M/Z
##YUNITS=RELATIVE INTENSITY
##XFACTOR=1
##YFACTOR=1
##FIRSTX=15
##LASTX=174
##FIRSTY=91
##MAXX=174
##MINX=15
##MAXY=9999
##MINY=1
##NPOINTS=112
##PEAK TABLE=(XY..XY)
15,91 16,2 25,5 26,2
27,5 28,24 29,96 30,28
33,2 35,1 37,156 38,288
39,97 40,5 41,6 42,3
43,5 44,9 45,8 47,13
48,12 49,123 50,1354 51,500
52,41 53,65 54,7 55,64
56,21 59,95 60,30 61,145
62,72 63,145 64,30 65,21
66,6 67,86 69,36 71,23
72,30 73,216 74,816 75,2300
76,580 77,128 78,11 79,7
83,5 84,106 85,316 86,57
87,119 88,7 89,22 90,9
91,108 92,36 93,3 96,4
97,7 98,18 99,49 100,10
101,22 102,3 103,44 104,159
105,27 106,3 107,5 108,19
109,28 110,135 111,5218 112,373
113,1623 114,105 115,5 119,40
120,26 121,3 123,2 124,5
125,64 126,34 127,51 128,13
129,9 133,2 134,2 135,191
136,19 137,7 139,9999 140,667
141,2947 142,219 143,15 144,2
152,17 153,32 154,20 155,14
156,6 157,2 169,366 170,3864
171,430 172,1284 173,105 174,10
##END=
