##TITLE=2-Methylphenyl-N-methylcarbamate
##JCAMP-DX=4.24
##DATA TYPE=MASS SPECTRUM
##ORIGIN=J.Sanz-Asensio ET AL.J.Chrom.,840,235(1999)
##OWNER=NIST Mass Spectrometry Data Center
Collection (C) 2014 copyright by the U.S. Secretary of Commerce
on behalf of the United States of America. All rights reserved.
##CAS REGISTRY NO=1128-78-5
##$NIST MASS SPEC NO=292891
##MOLFORM=C9 H11 N O2
##MW=165
##$NIST SOURCE=MSDC
##XUNITS=M/Z
##YUNITS=RELATIVE INTENSITY
##XFACTOR=1
##YFACTOR=1
##FIRSTX=50
##LASTX=108
##FIRSTY=1952
##MAXX=108
##MINX=50
##MAXY=9999
##MINY=1321
##NPOINTS=14
##PEAK TABLE=(XY..XY)
50,1952 51,2332 55,2793 57,2632
58,2112 71,1321 76,1922 77,4224
78,1511 79,1641 90,1421 104,2382
107,3703 108,9999
##END=
