##TITLE=Benzoic acid, 3-chloro-, ethyl ester
##JCAMP-DX=4.24
##DATA TYPE=MASS SPECTRUM
##OWNER=NIST Mass Spectrometry Data Center
Collection (C) 2014 copyright by the U.S. Secretary of Commerce
on behalf of the United States of America. All rights reserved.
##CAS REGISTRY NO=1128-76-3
##$NIST MASS SPEC NO=7817
##MOLFORM=C9 H9 Cl O2
##MW=184
##$NIST SOURCE=MSDC
##XUNITS=M/Z
##YUNITS=RELATIVE INTENSITY
##XFACTOR=1
##YFACTOR=1
##FIRSTX=45
##LASTX=188
##FIRSTY=671
##MAXX=188
##MINX=45
##MAXY=9999
##MINY=10
##NPOINTS=26
##PEAK TABLE=(XY..XY)
45,671 50,1702 51,721 73,200
74,821 75,2823 76,891 77,290
111,3773 112,420 113,1231 139,9999
141,3193 149,200 150,20 155,30
156,3283 157,290 158,1071 159,90
183,90 184,1952 185,230 186,631
187,60 188,10
##END=
