##TITLE=Benzene, 1-hexynyl-
##JCAMP-DX=4.24
##DATA TYPE=MASS SPECTRUM
##ORIGIN=NIST Mass Spectrometry Data Center, 1990.
##OWNER=NIST Mass Spectrometry Data Center
Collection (C) 2014 copyright by the U.S. Secretary of Commerce
on behalf of the United States of America. All rights reserved.
##CAS REGISTRY NO=1129-65-3
##$NIST MASS SPEC NO=114814
##MOLFORM=C12 H14
##MW=158
##$NIST SOURCE=MSDC
##XUNITS=M/Z
##YUNITS=RELATIVE INTENSITY
##XFACTOR=1
##YFACTOR=1
##FIRSTX=26
##LASTX=159
##FIRSTY=102
##MAXX=159
##MINX=26
##MAXY=9999
##MINY=13
##NPOINTS=64
##PEAK TABLE=(XY..XY)
26,102 27,762 28,13 29,219
38,129 39,885 40,114 41,587
43,265 50,533 51,1003 52,227
53,115 58,79 61,110 62,583
63,1644 64,287 65,992 66,92
67,149 70,42 74,541 75,631
76,572 77,907 78,263 79,358
80,408 81,125 85,62 86,268
87,393 88,446 89,1818 90,175
91,793 92,85 98,105 99,74
102,1914 103,427 104,262 113,406
115,9999 116,1557 117,934 118,109
126,256 127,1323 128,4849 129,5927
130,945 131,92 139,81 141,446
142,477 143,4376 144,478 152,65
153,56 157,446 158,2731 159,365
##END=
