##TITLE=Cyclododecene, (Z)-
##JCAMP-DX=4.24
##DATA TYPE=MASS SPECTRUM
##ORIGIN=D.HENNEBERG, MAX-PLANCK INSTITUTE, MULHEIM, WEST GERMANY
##OWNER=NIST Mass Spectrometry Data Center
Collection (C) 2014 copyright by the U.S. Secretary of Commerce
on behalf of the United States of America. All rights reserved.
##CAS REGISTRY NO=1129-89-1
##$NIST MASS SPEC NO=61494
##MOLFORM=C12 H22
##MW=166
##$NIST SOURCE=MSDC
##XUNITS=M/Z
##YUNITS=RELATIVE INTENSITY
##XFACTOR=1
##YFACTOR=1
##FIRSTX=26
##LASTX=167
##FIRSTY=57
##MAXX=167
##MINX=26
##MAXY=9999
##MINY=1
##NPOINTS=66
##PEAK TABLE=(XY..XY)
26,57 27,1823 28,418 29,2416
30,17 37,18 38,6 39,2633
40,459 41,8122 42,1225 43,1777
47,3 48,6 50,10 51,135
52,110 53,1264 54,7160 55,9045
56,1422 57,796 58,1 63,15
65,317 66,929 67,9999 68,4924
69,4018 70,584 71,49 75,6
76,5 77,247 78,39 79,703
80,511 81,7883 82,8508 83,3044
84,264 85,18 91,51 92,5
93,116 94,220 95,4608 96,6150
97,1312 98,57 107,10 108,43
109,2554 110,1121 111,106 121,10
122,15 123,742 124,463 125,16
137,192 138,315 139,12 164,12
166,2062 167,193
##END=
