##TITLE=Butanamide, N-phenyl-
##JCAMP-DX=4.24
##DATA TYPE=MASS SPECTRUM
##ORIGIN=Japan AIST/NIMC Database- Spectrum MS-IW-6564
##OWNER=NIST Mass Spectrometry Data Center
Collection (C) 2014 copyright by the U.S. Secretary of Commerce
on behalf of the United States of America. All rights reserved.
##CAS REGISTRY NO=1129-50-6
##$NIST MASS SPEC NO=241893
##MOLFORM=C10 H13 N O
##MW=163
##$NIST SOURCE=MSDC
##XUNITS=M/Z
##YUNITS=RELATIVE INTENSITY
##XFACTOR=1
##YFACTOR=1
##FIRSTX=15
##LASTX=165
##FIRSTY=10
##MAXX=165
##MINX=15
##MAXY=9999
##MINY=10
##NPOINTS=58
##PEAK TABLE=(XY..XY)
15,10 17,10 18,40 27,219
28,40 29,20 37,10 38,40
39,279 40,50 41,359 42,40
43,1159 44,40 50,40 51,179
52,50 53,20 54,20 55,60
59,10 62,10 63,80 64,90
65,419 66,369 67,40 69,10
71,439 72,20 73,60 74,30
75,10 76,20 77,449 78,50
79,10 90,10 91,99 92,299
93,9999 94,779 95,20 104,10
105,10 106,40 118,10 119,60
120,169 121,10 133,10 134,30
135,60 148,40 162,40 163,2699
164,329 165,20
##END=
