##TITLE=Benzene, 1-(1-methylethenyl)-3-(1-methylethyl)-
##JCAMP-DX=4.24
##DATA TYPE=MASS SPECTRUM
##ORIGIN=NIST Mass Spectrometry Data Center, 1990.
##OWNER=NIST Mass Spectrometry Data Center
Collection (C) 2014 copyright by the U.S. Secretary of Commerce
on behalf of the United States of America. All rights reserved.
##CAS REGISTRY NO=1129-29-9
##$NIST MASS SPEC NO=113597
##MOLFORM=C12 H16
##MW=160
##$NIST SOURCE=MSDC
##XUNITS=M/Z
##YUNITS=RELATIVE INTENSITY
##XFACTOR=1
##YFACTOR=1
##FIRSTX=15
##LASTX=161
##FIRSTY=150
##MAXX=161
##MINX=15
##MAXY=9999
##MINY=74
##NPOINTS=55
##PEAK TABLE=(XY..XY)
15,150 27,501 28,373 29,94
39,1126 40,139 41,1446 43,135
50,336 51,858 52,214 53,239
58,127 62,169 63,634 64,364
65,648 66,74 67,182 71,192
73,198 74,164 75,276 76,312
77,1212 78,435 79,493 87,103
89,364 91,2252 92,179 101,86
102,381 103,784 104,260 105,2351
106,197 115,1939 116,595 117,3093
118,405 119,505 126,88 127,452
128,1276 129,761 130,994 131,355
141,150 143,346 145,9999 146,1215
147,78 160,4607 161,620
##END=
