##TITLE=Pyridine, 2-hexyl-
##JCAMP-DX=4.24
##DATA TYPE=MASS SPECTRUM
##ORIGIN=D.HENNEBERG, MAX-PLANCK INSTITUTE, MULHEIM, WEST GERMANY
##OWNER=NIST Mass Spectrometry Data Center
Collection (C) 2014 copyright by the U.S. Secretary of Commerce
on behalf of the United States of America. All rights reserved.
##CAS REGISTRY NO=1129-69-7
##$NIST MASS SPEC NO=61531
##MOLFORM=C11 H17 N
##MW=163
##$NIST SOURCE=MSDC
##XUNITS=M/Z
##YUNITS=RELATIVE INTENSITY
##XFACTOR=1
##YFACTOR=1
##FIRSTX=26
##LASTX=164
##FIRSTY=125
##MAXX=164
##MINX=26
##MAXY=9999
##MINY=8
##NPOINTS=74
##PEAK TABLE=(XY..XY)
26,125 27,510 28,146 29,317
30,13 37,12 38,41 39,461
40,78 41,404 42,61 43,223
44,28 50,76 51,294 52,226
53,166 54,74 55,71 56,22
57,39 58,79 59,9 62,11
63,57 64,49 65,424 66,260
67,65 68,20 69,21 75,8
76,15 77,118 78,420 79,295
80,109 81,11 82,44 83,30
85,14 89,18 90,21 91,72
92,375 93,9999 94,611 95,23
103,10 104,73 105,40 106,2035
107,429 108,29 116,10 117,143
118,205 119,76 120,1772 121,176
122,10 130,31 131,17 132,72
133,21 134,298 135,47 146,10
148,129 149,16 160,9 162,156
163,247 164,29
##END=
