##TITLE=Guanidine
##JCAMP-DX=4.24
##DATA TYPE=MASS SPECTRUM
##ORIGIN=Japan AIST/NIMC Database- Spectrum MS-IW-3103
##OWNER=NIST Mass Spectrometry Data Center
Collection (C) 2014 copyright by the U.S. Secretary of Commerce
on behalf of the United States of America. All rights reserved.
##CAS REGISTRY NO=113-00-8
##$NIST MASS SPEC NO=228073
##MOLFORM=C H5 N3
##MW=59
##$NIST SOURCE=MSDC
##XUNITS=M/Z
##YUNITS=RELATIVE INTENSITY
##XFACTOR=1
##YFACTOR=1
##FIRSTX=12
##LASTX=60
##FIRSTY=40
##MAXX=60
##MINX=12
##MAXY=9999
##MINY=10
##NPOINTS=27
##PEAK TABLE=(XY..XY)
12,40 13,189 14,90 15,60
16,379 17,919 18,4539 19,20
26,60 27,369 28,1679 29,349
30,70 31,809 32,10 39,10
40,50 41,719 42,3969 43,9819
44,329 55,10 56,10 57,20
58,10 59,9999 60,329
##END=
