##TITLE=2-Chloro-2',6'-acetoxylidide
##JCAMP-DX=4.24
##DATA TYPE=MASS SPECTRUM
##ORIGIN=NIST Mass Spectrometry Data Center, 1994
##OWNER=NIST Mass Spectrometry Data Center
Collection (C) 2014 copyright by the U.S. Secretary of Commerce
on behalf of the United States of America. All rights reserved.
##CAS REGISTRY NO=1131-01-7
##$NIST MASS SPEC NO=135777
##MOLFORM=C10 H12 Cl N O
##MW=197
##$NIST SOURCE=MSDC
##XUNITS=M/Z
##YUNITS=RELATIVE INTENSITY
##XFACTOR=1
##YFACTOR=1
##FIRSTX=13
##LASTX=200
##FIRSTY=45
##MAXX=200
##MINX=13
##MAXY=9999
##MINY=12
##NPOINTS=99
##PEAK TABLE=(XY..XY)
13,45 14,377 15,166 17,12
18,79 26,39 27,682 28,688
30,279 35,51 36,54 37,98
38,314 39,1905 40,260 41,595
42,1052 43,127 44,26 47,49
48,146 49,1677 50,573 51,1742
52,754 53,742 54,245 55,54
56,24 59,68 60,22 61,57
62,201 63,710 64,300 65,1339
66,295 67,125 68,33 75,144
76,327 77,3439 78,854 79,978
80,217 81,49 86,33 87,32
89,306 91,2532 92,627 93,697
94,141 102,216 103,695 104,665
105,1414 106,1756 107,358 108,42
114,14 115,54 116,133 117,376
118,762 119,590 120,4180 121,2253
122,608 123,47 128,20 130,206
131,80 132,226 133,541 134,234
135,26 139,22 142,36 143,28
144,156 145,61 146,271 147,22
148,9999 149,994 150,65 160,102
161,47 162,194 163,32 180,25
182,287 183,31 184,84 197,2385
198,319 199,847 200,95
##END=
