##TITLE=Phenol, 4-cyclohexyl-
##JCAMP-DX=4.24
##DATA TYPE=MASS SPECTRUM
##ORIGIN=Japan AIST/NIMC Database- Spectrum MS-NW-4534
##OWNER=NIST Mass Spectrometry Data Center
Collection (C) 2014 copyright by the U.S. Secretary of Commerce
on behalf of the United States of America. All rights reserved.
##CAS REGISTRY NO=1131-60-8
##$NIST MASS SPEC NO=232625
##MOLFORM=C12 H16 O
##MW=176
##$NIST SOURCE=MSDC
##XUNITS=M/Z
##YUNITS=RELATIVE INTENSITY
##XFACTOR=1
##YFACTOR=1
##FIRSTX=15
##LASTX=178
##FIRSTY=10
##MAXX=178
##MINX=15
##MAXY=9999
##MINY=10
##NPOINTS=103
##PEAK TABLE=(XY..XY)
15,10 26,30 27,359 28,40
29,179 37,10 38,50 39,539
40,70 41,449 42,20 43,30
44,10 50,80 51,289 52,99
53,229 54,70 55,269 56,20
57,10 58,10 61,10 62,50
63,179 64,70 65,429 66,109
67,179 68,20 69,50 70,10
72,20 73,20 74,30 75,40
76,30 77,619 78,199 79,279
80,30 81,219 82,149 83,10
86,10 87,10 89,90 90,40
91,599 92,70 93,70 94,569
95,90 96,10 100,10 101,20
102,40 103,179 104,70 105,709
106,90 107,4399 108,499 109,40
114,10 115,239 116,60 117,80
118,60 119,359 120,2889 121,399
122,40 127,60 128,50 129,40
130,10 131,189 132,109 133,9999
134,1189 135,99 139,10 141,40
142,10 144,20 145,70 146,50
147,289 148,70 152,10 153,10
154,10 157,10 159,20 160,10
161,30 170,20 174,10 175,60
176,5489 177,739 178,50
##END=
