##TITLE=2,3-Difluorobenzyl bromide
##JCAMP-DX=4.24
##DATA TYPE=MASS SPECTRUM
##ORIGIN=NIST Mass Spectrometry Data Center, 1994
##OWNER=NIST Mass Spectrometry Data Center
Collection (C) 2014 copyright by the U.S. Secretary of Commerce
on behalf of the United States of America. All rights reserved.
##CAS REGISTRY NO=113211-94-2
##$NIST MASS SPEC NO=136642
##MOLFORM=C7 H5 Br F2
##MW=206
##$NIST SOURCE=MSDC
##XUNITS=M/Z
##YUNITS=RELATIVE INTENSITY
##XFACTOR=1
##YFACTOR=1
##FIRSTX=12
##LASTX=209
##FIRSTY=11
##MAXX=209
##MINX=12
##MAXY=9999
##MINY=10
##NPOINTS=74
##PEAK TABLE=(XY..XY)
12,11 13,13 18,10 20,19
25,22 26,99 31,110 33,50
36,27 37,221 38,328 39,366
40,27 44,41 46,12 48,16
49,103 50,622 51,744 52,42
53,37 55,30 56,227 57,752
58,25 60,36 61,246 62,379
63,491 68,184 69,146 70,98
73,25 74,97 75,832 76,168
77,760 78,25 79,341 80,209
81,777 82,125 83,113 84,40
85,90 86,90 87,91 88,90
89,21 92,45 93,79 94,74
95,19 96,69 99,222 101,1835
102,114 103,49 104,59 105,127
106,19 107,981 108,152 109,26
112,16 123,17 125,657 127,9999
128,769 129,31 206,408 207,51
208,395 209,35
##END=
