##TITLE=3,5-Dimethoxybenzoic acid
##JCAMP-DX=4.24
##DATA TYPE=MASS SPECTRUM
##ORIGIN=Japan AIST/NIMC Database- Spectrum MS-NW-3612
##OWNER=NIST Mass Spectrometry Data Center
Collection (C) 2014 copyright by the U.S. Secretary of Commerce
on behalf of the United States of America. All rights reserved.
##CAS REGISTRY NO=1132-21-4
##$NIST MASS SPEC NO=231999
##MOLFORM=C9 H10 O4
##MW=182
##$NIST SOURCE=MSDC
##XUNITS=M/Z
##YUNITS=RELATIVE INTENSITY
##XFACTOR=1
##YFACTOR=1
##FIRSTX=14
##LASTX=185
##FIRSTY=10
##MAXX=185
##MINX=14
##MAXY=9999
##MINY=10
##NPOINTS=108
##PEAK TABLE=(XY..XY)
14,10 15,459 16,10 18,20
26,50 27,129 28,50 29,149
30,30 31,60 32,10 37,99
38,289 39,399 40,109 41,229
42,40 43,119 44,20 45,179
49,40 50,309 51,759 52,309
53,269 54,40 55,199 56,10
57,20 59,159 60,20 61,149
62,419 63,1059 64,349 65,509
66,239 67,109 68,259 69,589
70,30 71,10 73,40 74,159
75,139 76,80 77,689 78,289
79,679 80,159 81,329 82,50
83,70 84,10 85,20 90,40
91,139 92,209 93,169 94,489
95,389 96,309 97,30 102,10
104,40 105,569 106,219 107,859
108,239 109,1999 110,169 111,929
112,70 119,50 120,50 121,119
122,849 123,179 124,80 125,50
127,10 133,30 134,40 135,1679
136,219 137,699 138,90 139,589
140,40 149,60 150,50 151,349
152,1119 153,209 154,20 163,40
164,10 165,499 166,80 167,80
168,10 179,20 180,20 181,169
182,9999 183,1009 184,139 185,10
##END=
