##TITLE=Benzene, (hexyloxy)-
##JCAMP-DX=4.24
##DATA TYPE=MASS SPECTRUM
##OWNER=NIST Mass Spectrometry Data Center
Collection (C) 2014 copyright by the U.S. Secretary of Commerce
on behalf of the United States of America. All rights reserved.
##CAS REGISTRY NO=1132-66-7
##$NIST MASS SPEC NO=7239
##MOLFORM=C12 H18 O
##MW=178
##$NIST SOURCE=MSDC
##XUNITS=M/Z
##YUNITS=RELATIVE INTENSITY
##XFACTOR=1
##YFACTOR=1
##FIRSTX=16
##LASTX=180
##FIRSTY=10
##MAXX=180
##MINX=16
##MAXY=9999
##MINY=10
##NPOINTS=79
##PEAK TABLE=(XY..XY)
16,10 17,10 18,10 26,10
27,270 28,70 29,330 30,10
31,10 32,10 37,20 38,30
39,360 40,20 41,1491 42,140
43,1361 44,160 45,10 50,50
51,230 52,20 53,50 54,20
55,440 56,150 57,150 58,10
61,10 62,10 63,50 64,20
65,330 66,200 67,30 68,10
69,150 70,10 72,10 73,10
74,10 75,10 76,30 77,641
78,60 79,90 80,10 81,10
82,10 83,30 84,60 85,70
86,10 87,10 89,10 91,30
92,10 93,40 94,9999 95,741
96,40 97,10 100,10 101,10
103,10 104,10 106,200 107,20
108,10 113,10 114,10 118,10
119,10 120,10 132,10 134,10
178,1712 179,230 180,20
##END=
