##TITLE=Naphthalene, 2-butyl-
##JCAMP-DX=4.24
##DATA TYPE=MASS SPECTRUM
##ORIGIN=D.HENNEBERG, MAX-PLANCK INSTITUTE, MULHEIM, WEST GERMANY
##OWNER=NIST Mass Spectrometry Data Center
Collection (C) 2014 copyright by the U.S. Secretary of Commerce
on behalf of the United States of America. All rights reserved.
##CAS REGISTRY NO=1134-62-9
##$NIST MASS SPEC NO=62245
##MOLFORM=C14 H16
##MW=184
##$NIST SOURCE=MSDC
##XUNITS=M/Z
##YUNITS=RELATIVE INTENSITY
##XFACTOR=1
##YFACTOR=1
##FIRSTX=25
##LASTX=186
##FIRSTY=7
##MAXX=186
##MINX=25
##MAXY=9999
##MINY=2
##NPOINTS=140
##PEAK TABLE=(XY..XY)
25,7 26,40 27,424 29,195
30,2 33,14 34,6 35,5
36,8 37,15 38,37 39,445
40,32 41,217 42,21 43,38
45,5 46,8 47,11 48,5
49,7 50,164 51,372 52,69
53,64 54,12 55,114 56,26
57,11 58,27 59,6 60,3
61,16 62,117 63,512 64,114
65,185 66,13 67,9 68,10
69,37 70,60 71,40 72,16
73,13 74,134 75,237 76,435
77,312 78,68 79,5 81,40
82,141 83,139 84,11 85,17
86,54 87,113 88,84 89,271
90,42 91,162 92,55 94,87
95,38 96,13 97,2 98,29
99,27 100,22 101,92 102,133
103,25 104,10 105,16 107,35
108,73 109,84 111,42 113,104
114,90 115,2327 116,243 117,15
118,6 119,6 120,6 121,4
122,12 123,9 124,14 125,38
126,181 127,347 128,656 129,193
130,34 131,11 134,17 135,40
138,95 139,722 140,440 141,9999
142,7207 143,832 144,52 145,11
147,4 149,21 150,57 151,148
152,402 153,362 154,222 155,565
156,87 157,11 161,6 162,7
163,20 164,26 165,149 166,43
167,52 168,9 169,65 170,10
171,3 175,3 176,18 177,12
178,34 179,27 180,15 182,22
183,47 184,2893 185,447 186,32
##END=
