##TITLE=Cycloate
##JCAMP-DX=4.24
##DATA TYPE=MASS SPECTRUM
##ORIGIN=ACCUSTANDARD Chemicals / NIST MS Data Center.
##OWNER=NIST Mass Spectrometry Data Center
Collection (C) 2014 copyright by the U.S. Secretary of Commerce
on behalf of the United States of America. All rights reserved.
##CAS REGISTRY NO=1134-23-2
##$NIST MASS SPEC NO=125592
##MOLFORM=C11 H21 N O S
##MW=215
##$NIST SOURCE=MSDC
##XUNITS=M/Z
##YUNITS=RELATIVE INTENSITY
##XFACTOR=1
##YFACTOR=1
##FIRSTX=15
##LASTX=217
##FIRSTY=97
##MAXX=217
##MINX=15
##MAXY=9999
##MINY=5
##NPOINTS=119
##PEAK TABLE=(XY..XY)
15,97 26,152 27,1540 28,2004
29,3444 30,240 32,89 33,17
34,19 35,191 37,13 39,642
40,163 41,2163 42,482 43,276
44,441 45,121 46,110 47,76
48,11 50,16 51,65 52,50
53,336 54,685 55,4908 56,1480
57,106 58,173 59,125 60,98
61,243 62,173 63,103 64,22
65,66 66,16 67,613 68,175
69,150 70,183 71,453 72,1534
73,94 74,61 75,67 76,42
77,79 78,27 79,215 80,68
81,492 82,27 83,9999 84,1005
85,56 86,55 87,9 88,9
89,349 90,86 91,29 92,9
93,9 94,23 96,114 97,80
98,138 99,87 100,9 101,311
102,53 103,39 104,86 105,41
106,28 107,6 108,14 110,154
111,47 112,73 113,13 115,113
116,30 117,16 118,65 119,8
122,8 124,92 125,116 126,318
127,63 128,11 130,65 131,15
132,21 133,7 134,42 142,9
144,149 145,16 154,6183 155,586
156,43 157,16 158,77 159,10
172,107 173,12 182,7 186,293
187,43 188,21 200,11 213,5
215,720 216,104 217,42
##END=
