##TITLE=2,2'-Bipyridine, 4,4'-dimethyl-
##JCAMP-DX=4.24
##DATA TYPE=MASS SPECTRUM
##ORIGIN=GFS Chemicals / NIST MS Data Center.
##OWNER=NIST Mass Spectrometry Data Center
Collection (C) 2014 copyright by the U.S. Secretary of Commerce
on behalf of the United States of America. All rights reserved.
##CAS REGISTRY NO=1134-35-6
##$NIST MASS SPEC NO=125332
##MOLFORM=C12 H12 N2
##MW=184
##$NIST SOURCE=MSDC
##XUNITS=M/Z
##YUNITS=RELATIVE INTENSITY
##XFACTOR=1
##YFACTOR=1
##FIRSTX=14
##LASTX=186
##FIRSTY=1
##MAXX=186
##MINX=14
##MAXY=9999
##MINY=1
##NPOINTS=103
##PEAK TABLE=(XY..XY)
14,1 15,22 16,2 17,10
18,22 26,38 27,214 28,171
32,40 37,44 38,178 39,972
40,174 41,129 42,25 50,196
51,337 52,157 53,81 54,20
58,19 59,9 61,49 62,139
63,359 64,251 65,851 66,238
67,52 71,40 72,9 73,10
74,64 75,94 76,108 77,236
78,198 80,14 85,87 86,33
87,59 88,55 89,151 90,107
91,337 92,770 93,119 94,24
98,18 99,18 100,19 101,39
102,62 103,53 104,52 105,16
106,11 107,8 110,8 111,9
112,10 113,39 114,59 115,153
116,94 117,100 118,178 119,156
120,16 126,37 127,90 128,143
129,63 130,109 131,133 132,30
139,15 140,100 141,297 142,615
143,132 144,47 145,36 152,23
153,47 154,275 155,185 156,480
157,221 158,106 159,15 166,36
167,119 168,514 169,784 170,90
171,8 179,22 181,302 183,7257
184,9999 185,1159 186,80
##END=
