##TITLE=3,4-Methylenedioxyphenyl isothiocyanate
##JCAMP-DX=4.24
##DATA TYPE=MASS SPECTRUM
##ORIGIN=NIST Mass Spectrometry Data Center, 1994
##OWNER=NIST Mass Spectrometry Data Center
Collection (C) 2014 copyright by the U.S. Secretary of Commerce
on behalf of the United States of America. All rights reserved.
##CAS REGISTRY NO=113504-93-1
##$NIST MASS SPEC NO=134896
##MOLFORM=C8 H5 N O2 S
##MW=179
##$NIST SOURCE=MSDC
##XUNITS=M/Z
##YUNITS=RELATIVE INTENSITY
##XFACTOR=1
##YFACTOR=1
##FIRSTX=4
##LASTX=182
##FIRSTY=17
##MAXX=182
##MINX=4
##MAXY=9999
##MINY=17
##NPOINTS=95
##PEAK TABLE=(XY..XY)
4,17 14,146 15,23 18,27
25,69 26,295 27,96 28,290
29,644 30,146 31,55 32,260
36,72 37,556 38,743 39,628
40,59 41,38 42,60 43,38
44,312 45,282 46,42 48,113
49,214 50,1111 51,838 52,265
53,667 54,83 56,67 57,64
58,155 59,67 60,42 61,674
62,1567 63,3781 64,454 65,833
66,83 67,53 68,95 69,466
70,1984 71,203 72,151 73,39
74,96 75,253 76,440 77,651
78,140 79,272 80,83 81,49
82,110 83,330 84,41 86,79
87,69 88,166 89,1383 91,107
92,83 93,336 94,1354 95,621
96,397 97,55 105,42 106,72
107,44 109,151 110,66 118,34
120,313 121,2170 122,603 123,423
124,64 133,71 134,159 137,58
146,405 147,146 148,51 149,210
150,94 151,43 178,5848 179,9999
180,1231 181,526 182,43
##END=
