##TITLE=Arachidonic acid, TMS derivative
##JCAMP-DX=4.24
##DATA TYPE=MASS SPECTRUM
##ORIGIN=NIST Mass Spectrometry Data Center
##OWNER=NIST Mass Spectrometry Data Center
Collection (C) 2014 copyright by the U.S. Secretary of Commerce
on behalf of the United States of America. All rights reserved.
##CAS REGISTRY NO=113516-18-0
##$NIST MASS SPEC NO=333232
##MOLFORM=C23 H40 O2 Si
##MW=376
##$NIST SOURCE=MSDC
##XUNITS=M/Z
##YUNITS=RELATIVE INTENSITY
##XFACTOR=1
##YFACTOR=1
##FIRSTX=15
##LASTX=378
##FIRSTY=10
##MAXX=378
##MINX=15
##MAXY=9999
##MINY=10
##NPOINTS=287
##PEAK TABLE=(XY..XY)
15,10 26,10 27,270 28,50
29,641 30,20 31,10 38,10
39,561 40,110 41,2803 42,270
43,1171 44,140 45,851 46,60
47,410 48,20 49,10 50,30
51,130 52,110 53,761 54,761
55,3773 56,330 57,671 58,180
59,250 60,110 61,520 62,40
63,60 65,871 66,1141 67,5855
68,661 69,1301 70,180 71,360
72,530 73,9999 74,1071 75,8808
76,691 77,3083 78,2102 79,8878
80,6386 81,3413 82,641 83,561
84,260 85,290 86,160 87,90
88,90 89,270 91,7237 92,2172
93,5975 94,2292 95,2092 96,951
97,430 98,100 99,120 100,20
101,170 102,60 103,430 104,681
105,4194 106,5185 107,2742 108,661
109,851 110,280 111,150 112,50
113,50 114,20 115,510 116,971
117,7116 118,1161 119,3343 120,2783
121,2122 122,530 123,460 124,210
125,90 126,20 127,100 128,230
129,3773 130,831 131,2512 132,1291
133,3173 134,1071 135,1171 136,581
137,300 138,60 139,60 140,20
141,320 142,220 143,500 144,260
145,1902 146,1041 147,1732 148,731
149,851 150,3173 151,540 152,70
153,70 154,60 155,330 156,130
157,861 158,180 159,891 160,520
161,901 162,480 163,430 164,821
165,180 166,50 167,80 168,50
169,480 170,150 171,771 172,150
173,671 174,320 175,1371 176,581
177,981 178,230 179,60 180,20
181,90 182,40 183,480 184,100
185,270 186,60 187,591 188,260
189,480 190,420 191,160 192,30
193,30 194,30 195,70 196,20
197,340 198,80 199,170 200,40
201,410 202,140 203,671 204,180
205,60 206,100 207,50 208,20
209,50 210,20 211,190 212,70
213,110 214,30 215,240 216,70
217,490 218,130 219,40 220,20
221,60 222,20 223,60 224,30
225,90 226,30 227,50 228,10
229,80 230,60 231,120 232,60
233,20 234,10 235,120 236,30
237,60 238,460 239,170 240,40
241,40 242,40 243,70 244,230
245,90 246,10 247,10 248,10
249,100 250,40 251,110 252,60
253,30 254,10 255,10 257,30
258,70 259,30 260,10 261,10
262,10 263,60 264,30 265,180
266,60 267,40 268,30 269,100
270,20 271,10 275,10 276,10
277,100 278,200 279,100 280,30
281,10 282,10 283,10 285,30
286,120 287,30 289,20 290,10
291,100 292,50 293,40 294,20
295,20 296,20 297,10 303,10
305,110 306,50 307,30 308,80
309,20 310,10 317,10 319,70
320,30 321,10 322,50 323,10
333,30 334,10 335,20 336,10
343,20 344,10 345,10 347,20
348,20 361,340 362,100 363,30
376,210 377,70 378,20
##END=
