##TITLE=.beta.-(4-Hydroxy-3-methoxyphenyl)propionic acid
##JCAMP-DX=4.24
##DATA TYPE=MASS SPECTRUM
##ORIGIN=NIST Mass Spectrometry Data Center, 1994
##OWNER=NIST Mass Spectrometry Data Center
Collection (C) 2014 copyright by the U.S. Secretary of Commerce
on behalf of the United States of America. All rights reserved.
##CAS REGISTRY NO=1135-23-5
##$NIST MASS SPEC NO=136441
##MOLFORM=C10 H12 O4
##MW=196
##$NIST SOURCE=MSDC
##XUNITS=M/Z
##YUNITS=RELATIVE INTENSITY
##XFACTOR=1
##YFACTOR=1
##FIRSTX=15
##LASTX=197
##FIRSTY=478
##MAXX=197
##MINX=15
##MAXY=9999
##MINY=51
##NPOINTS=48
##PEAK TABLE=(XY..XY)
15,478 16,100 27,442 28,608
29,315 32,51 39,843 40,158
41,238 42,194 44,252 45,597
50,402 51,727 52,542 53,567
54,158 55,479 62,210 63,311
65,612 66,424 67,192 74,232
77,1158 78,313 79,815 80,197
91,735 92,127 94,509 95,168
105,331 107,831 108,174 119,278
122,973 123,362 133,211 135,843
137,9999 138,967 139,200 149,169
150,459 167,331 196,3953 197,437
##END=
