##TITLE=Ethanone, 1-(3,4,5-trimethoxyphenyl)-
##JCAMP-DX=4.24
##DATA TYPE=MASS SPECTRUM
##ORIGIN=Japan AIST/NIMC Database- Spectrum MS-NW-4447
##OWNER=NIST Mass Spectrometry Data Center
Collection (C) 2014 copyright by the U.S. Secretary of Commerce
on behalf of the United States of America. All rights reserved.
##CAS REGISTRY NO=1136-86-3
##$NIST MASS SPEC NO=232474
##MOLFORM=C11 H14 O4
##MW=210
##$NIST SOURCE=MSDC
##XUNITS=M/Z
##YUNITS=RELATIVE INTENSITY
##XFACTOR=1
##YFACTOR=1
##FIRSTX=14
##LASTX=213
##FIRSTY=60
##MAXX=213
##MINX=14
##MAXY=9999
##MINY=10
##NPOINTS=129
##PEAK TABLE=(XY..XY)
14,60 15,559 16,20 17,10
18,30 26,30 27,179 28,60
29,119 30,20 31,10 37,90
38,399 39,479 40,40 41,80
42,60 43,2749 44,80 45,119
46,10 49,70 50,449 51,319
52,149 53,439 54,30 55,60
56,20 57,20 59,50 60,10
61,80 62,189 63,289 64,119
65,249 66,739 67,149 68,20
69,80 71,20 73,10 74,80
75,159 76,189 77,629 78,209
79,339 80,80 81,609 82,60
83,30 85,20 86,10 89,20
90,30 91,199 92,249 93,249
94,149 95,249 96,269 97,40
99,20 103,20 104,60 105,80
106,149 107,389 108,129 109,809
110,109 111,40 113,40 118,20
119,159 120,60 121,149 122,559
123,129 124,879 125,159 126,20
127,10 132,10 133,40 134,169
135,229 136,90 137,859 138,129
139,1569 140,149 141,20 143,10
147,10 148,30 149,239 150,269
151,179 152,1079 153,249 154,30
161,10 162,10 163,30 164,30
165,139 166,40 167,639 168,70
169,10 177,10 179,129 180,50
181,129 182,20 193,30 194,40
195,9999 196,1129 197,159 198,10
209,10 210,7439 211,909 212,119
213,10
##END=
