##TITLE=2,3,6-Trifluorophenol
##JCAMP-DX=4.24
##DATA TYPE=MASS SPECTRUM
##ORIGIN=NIST Mass Spectrometry Data Center, 1994
##OWNER=NIST Mass Spectrometry Data Center
Collection (C) 2014 copyright by the U.S. Secretary of Commerce
on behalf of the United States of America. All rights reserved.
##CAS REGISTRY NO=113798-74-6
##$NIST MASS SPEC NO=136758
##MOLFORM=C6 H3 F3 O
##MW=148
##$NIST SOURCE=MSDC
##XUNITS=M/Z
##YUNITS=RELATIVE INTENSITY
##XFACTOR=1
##YFACTOR=1
##FIRSTX=12
##LASTX=150
##FIRSTY=54
##MAXX=150
##MINX=12
##MAXY=9999
##MINY=5
##NPOINTS=67
##PEAK TABLE=(XY..XY)
12,54 17,61 18,43 19,5
20,39 25,101 28,169 31,1640
32,127 33,48 36,143 37,601
38,439 39,140 40,100 44,128
48,66 49,324 50,3620 51,977
53,259 54,38 55,246 56,874
57,735 60,147 61,517 62,274
63,119 64,371 67,56 68,517
69,1472 70,358 71,411 72,46
73,44 74,572 75,1207 76,83
77,91 79,295 80,474 81,1597
82,107 86,77 87,135 88,147
91,160 92,68 93,465 94,83
97,57 99,4824 100,9470 101,959
102,52 117,69 119,1468 120,124
128,1306 129,171 130,31 131,35
148,9999 149,733 150,38
##END=
