##TITLE=4-(n-Butoxy)benzenesulfonyl chloride
##JCAMP-DX=4.24
##DATA TYPE=MASS SPECTRUM
##ORIGIN=NIST Mass Spectrometry Data Center, 1994
##OWNER=NIST Mass Spectrometry Data Center
Collection (C) 2014 copyright by the U.S. Secretary of Commerce
on behalf of the United States of America. All rights reserved.
##CAS REGISTRY NO=1138-56-3
##$NIST MASS SPEC NO=136654
##MOLFORM=C10 H13 Cl O3 S
##MW=248
##$NIST SOURCE=MSDC
##XUNITS=M/Z
##YUNITS=RELATIVE INTENSITY
##XFACTOR=1
##YFACTOR=1
##FIRSTX=15
##LASTX=251
##FIRSTY=186
##MAXX=251
##MINX=15
##MAXY=9999
##MINY=38
##NPOINTS=109
##PEAK TABLE=(XY..XY)
15,186 18,123 26,314 27,2902
29,9359 30,248 35,149 36,307
37,144 38,853 39,3275 40,364
41,9260 42,390 43,147 44,112
45,121 48,392 50,1524 51,637
52,242 53,643 54,246 55,1254
56,9999 57,7442 58,474 61,108
62,489 63,1957 64,2229 65,3383
66,466 67,64 69,283 70,239
71,68 73,112 74,211 75,792
76,1110 77,474 78,283 79,260
80,80 81,133 82,159 83,265
84,117 85,215 86,144 89,53
91,380 92,532 93,2651 94,1614
95,227 96,124 97,222 98,150
99,496 100,60 101,164 105,74
106,235 107,153 108,91 109,948
110,119 111,96 112,61 113,104
115,38 119,100 120,84 124,80
125,160 126,535 127,225 128,181
129,59 130,51 133,87 134,58
141,581 142,87 143,48 148,60
149,366 150,154 157,7031 158,599
159,444 175,123 182,100 192,1207
193,268 194,492 195,105 197,54
205,126 207,59 213,1694 214,274
215,105 248,1601 249,216 250,602
251,83
##END=
