##TITLE=Imidodicarbonimidic diamide, N-(2-phenylethyl)-
##JCAMP-DX=4.24
##DATA TYPE=MASS SPECTRUM
##ORIGIN=Chemical Sci. & Tec. Lab., NIST, Gaithersburg, MD 20899
##OWNER=NIST Mass Spectrometry Data Center
Collection (C) 2014 copyright by the U.S. Secretary of Commerce
on behalf of the United States of America. All rights reserved.
##CAS REGISTRY NO=114-86-3
##$NIST MASS SPEC NO=256456
##MOLFORM=C10 H15 N5
##MW=205
##$NIST SOURCE=MSDC
##XUNITS=M/Z
##YUNITS=RELATIVE INTENSITY
##XFACTOR=1
##YFACTOR=1
##FIRSTX=41
##LASTX=206
##FIRSTY=220
##MAXX=206
##MINX=41
##MAXY=9999
##MINY=44
##NPOINTS=47
##PEAK TABLE=(XY..XY)
41,220 42,439 43,4566 44,1343
45,85 50,102 51,412 52,92
53,85 55,403 57,46 58,463
59,957 60,586 63,209 65,753
68,1047 69,171 70,48 72,2146
77,851 78,243 79,424 84,273
85,6555 86,1058 89,159 91,1962
92,356 93,99 97,271 101,2532
102,119 103,516 104,684 105,1002
106,82 112,99 114,9999 115,488
120,178 126,108 128,154 146,88
167,102 205,284 206,44
##END=
