##TITLE=3-(2-Naphthylthio)propionic acid
##JCAMP-DX=4.24
##DATA TYPE=MASS SPECTRUM
##ORIGIN=NIST Mass Spectrometry Data Center, 1994
##OWNER=NIST Mass Spectrometry Data Center
Collection (C) 2014 copyright by the U.S. Secretary of Commerce
on behalf of the United States of America. All rights reserved.
##CAS REGISTRY NO=1141-45-3
##$NIST MASS SPEC NO=136144
##MOLFORM=C13 H12 O2 S
##MW=232
##$NIST SOURCE=MSDC
##XUNITS=M/Z
##YUNITS=RELATIVE INTENSITY
##XFACTOR=1
##YFACTOR=1
##FIRSTX=5
##LASTX=235
##FIRSTY=28
##MAXX=235
##MINX=5
##MAXY=9999
##MINY=9
##NPOINTS=187
##PEAK TABLE=(XY..XY)
5,28 6,29 7,14 9,21
12,56 13,20 15,47 17,27
18,35 19,9 26,268 27,1259
28,175 29,115 33,32 35,57
36,23 37,47 38,151 39,557
40,17 41,35 42,70 43,12
44,12 45,3612 46,194 47,140
49,30 50,501 51,824 52,261
53,153 54,59 55,366 56,34
57,96 58,167 60,24 61,86
62,355 63,981 64,159 65,548
66,79 67,72 68,51 69,425
70,70 71,92 72,59 73,192
74,274 75,700 76,398 77,809
78,153 79,208 80,94 81,108
82,218 83,152 85,51 86,235
87,348 88,286 89,1047 90,102
91,380 92,112 93,303 94,85
95,74 96,42 97,46 98,225
99,132 100,125 101,363 102,191
103,55 104,68 105,94 106,106
107,49 108,105 109,44 110,64
111,44 112,42 113,529 114,1072
115,9678 116,1485 117,137 118,27
119,56 120,47 121,63 122,48
123,48 124,27 125,105 126,829
127,1129 128,3311 129,2158 130,253
131,47 132,83 133,38 134,206
135,39 136,42 137,41 138,35
139,176 140,53 141,369 142,50
144,28 145,56 147,48 148,45
149,30 150,48 151,199 152,278
153,395 154,146 155,115 156,28
157,989 158,758 159,2094 160,5880
161,894 162,313 163,117 164,110
165,382 166,320 167,99 168,55
169,48 170,48 171,578 172,508
173,4295 174,632 175,253 176,61
178,36 179,52 180,41 181,64
182,33 183,30 184,122 185,416
186,282 187,101 188,31 189,31
192,28 193,27 194,282 195,24
196,17 197,33 198,18 199,32
201,147 202,28 203,26 213,76
214,17 215,81 216,120 217,39
228,49 229,21 230,24 232,9999
233,1506 234,547 235,67
##END=
