##TITLE=.alpha.-Pyridoin
##JCAMP-DX=4.24
##DATA TYPE=MASS SPECTRUM
##ORIGIN=NIST Mass Spectrometry Data Center, 1994
##OWNER=NIST Mass Spectrometry Data Center
Collection (C) 2014 copyright by the U.S. Secretary of Commerce
on behalf of the United States of America. All rights reserved.
##CAS REGISTRY NO=1141-06-6
##$NIST MASS SPEC NO=134197
##MOLFORM=C12 H10 N2 O2
##MW=214
##$NIST SOURCE=MSDC
##XUNITS=M/Z
##YUNITS=RELATIVE INTENSITY
##XFACTOR=1
##YFACTOR=1
##FIRSTX=18
##LASTX=216
##FIRSTY=12
##MAXX=216
##MINX=18
##MAXY=9999
##MINY=7
##NPOINTS=60
##PEAK TABLE=(XY..XY)
18,12 25,27 26,176 27,692
29,65 37,61 38,116 39,353
40,7 44,28 49,87 50,828
51,2321 52,4002 53,1605 54,143
62,54 63,129 64,61 65,67
75,83 76,186 78,4388 79,6058
80,5880 81,334 90,44 91,58
92,58 103,43 104,45 106,860
108,9218 109,617 110,48 117,48
119,111 120,57 128,70 129,89
130,169 136,171 140,56 142,47
155,224 156,422 157,237 158,36
167,45 168,69 169,319 170,47
184,82 185,411 186,81 197,61
212,128 214,9999 215,1368 216,135
##END=
