##TITLE=.alpha.-Terpinyl isovalerate
##JCAMP-DX=4.24
##DATA TYPE=MASS SPECTRUM
##ORIGIN=Japan AIST/NIMC Database- Spectrum MS-NW-1458
##OWNER=NIST Mass Spectrometry Data Center
Collection (C) 2014 copyright by the U.S. Secretary of Commerce
on behalf of the United States of America. All rights reserved.
##CAS REGISTRY NO=1142-85-4
##$NIST MASS SPEC NO=229570
##MOLFORM=C15 H26 O2
##MW=238
##$NIST SOURCE=MSDC
##XUNITS=M/Z
##YUNITS=RELATIVE INTENSITY
##XFACTOR=1
##YFACTOR=1
##FIRSTX=14
##LASTX=238
##FIRSTY=20
##MAXX=238
##MINX=14
##MAXY=9999
##MINY=10
##NPOINTS=129
##PEAK TABLE=(XY..XY)
14,20 15,149 16,10 17,40
18,229 20,20 26,60 27,1329
28,459 29,1439 30,40 31,139
32,129 36,20 37,30 38,90
39,1429 40,369 41,3909 42,429
43,2399 44,80 45,459 46,10
50,90 51,269 52,129 53,989
54,149 55,1049 56,199 57,3639
58,189 59,639 60,2839 61,169
62,40 63,80 64,30 65,329
66,149 67,1689 68,2559 69,1119
70,80 71,139 72,20 73,10
74,20 75,20 76,10 77,999
78,219 79,1879 80,959 81,2829
82,289 83,99 84,119 85,3989
86,229 87,449 88,20 89,30
90,10 91,1079 92,1979 93,7969
94,1599 95,1289 96,159 97,70
98,10 99,10 101,10 102,30
103,99 104,40 105,519 106,189
107,1989 108,829 109,379 110,329
111,99 112,10 113,10 114,10
115,60 116,20 117,80 118,20
119,509 120,129 121,9759 122,979
123,189 124,40 125,20 126,10
128,10 129,10 131,10 132,50
133,40 134,439 135,279 136,9999
137,2749 138,239 139,70 142,10
143,50 147,10 148,10 149,20
150,50 151,20 152,199 153,60
154,20 161,20 165,10 180,20
189,10 191,30 223,70 224,10
238,10
##END=
