##TITLE=Benzenesulfonothioic acid, 4-chloro-, S-phenyl ester
##JCAMP-DX=4.24
##DATA TYPE=MASS SPECTRUM
##OWNER=NIST Mass Spectrometry Data Center
Collection (C) 2014 copyright by the U.S. Secretary of Commerce
on behalf of the United States of America. All rights reserved.
##CAS REGISTRY NO=1142-97-8
##$NIST MASS SPEC NO=33544
##MOLFORM=C12 H9 Cl O2 S2
##MW=284
##$NIST SOURCE=MSDC
##XUNITS=M/Z
##YUNITS=RELATIVE INTENSITY
##XFACTOR=1
##YFACTOR=1
##FIRSTX=76
##LASTX=289
##FIRSTY=170
##MAXX=289
##MINX=76
##MAXY=9999
##MINY=20
##NPOINTS=61
##PEAK TABLE=(XY..XY)
76,170 77,9999 78,1218 79,340
96,57 97,906 98,113 99,1700
100,170 101,538 108,8045 109,1275
110,510 111,793 112,170 113,255
124,57 125,6628 126,651 127,425
128,85 129,198 139,397 140,113
141,6232 142,878 143,6770 144,935
145,2436 146,368 147,142 151,170
152,567 153,170 154,113 158,28
159,4617 160,425 161,1813 162,142
163,85 175,425 176,793 177,170
182,821 183,425 184,2946 185,1756
218,198 219,482 220,3881 221,906
222,1501 223,227 224,113 284,4022
285,595 286,1705 287,245 288,140
289,20
##END=
