##TITLE=Disulfide, bis(4-chlorophenyl)
##JCAMP-DX=4.24
##DATA TYPE=MASS SPECTRUM
##ORIGIN=ALPHA Chemicals / NIST MS Data Center.
##OWNER=NIST Mass Spectrometry Data Center
Collection (C) 2014 copyright by the U.S. Secretary of Commerce
on behalf of the United States of America. All rights reserved.
##CAS REGISTRY NO=1142-19-4
##$NIST MASS SPEC NO=125348
##MOLFORM=C12 H8 Cl2 S2
##MW=286
##$NIST SOURCE=MSDC
##XUNITS=M/Z
##YUNITS=RELATIVE INTENSITY
##XFACTOR=1
##YFACTOR=1
##FIRSTX=18
##LASTX=293
##FIRSTY=17
##MAXX=293
##MINX=18
##MAXY=9999
##MINY=8
##NPOINTS=133
##PEAK TABLE=(XY..XY)
18,17 26,19 35,14 36,23
37,89 38,222 39,311 44,22
45,343 46,11 47,27 49,77
50,394 51,232 52,14 54,29
55,10 57,158 58,234 59,23
60,27 61,126 62,316 63,1102
64,126 65,37 67,8 69,889
70,73 71,72 72,71 73,628
74,301 75,667 76,77 77,27
79,55 81,246 82,556 83,63
84,55 85,86 86,28 87,30
88,14 91,14 92,39 93,84
94,21 95,39 96,28 97,35
99,1102 100,91 101,360 102,29
103,33 105,75 106,92 107,567
108,4904 109,465 110,281 111,174
112,53 113,61 114,17 115,11
116,17 117,16 118,20 119,8
131,18 133,17 137,12 138,17
139,76 140,200 143,9999 144,1027
145,3641 146,302 147,164 148,11
149,9 150,16 151,12 152,49
155,14 157,10 170,12 171,54
172,17 174,97 175,127 176,59
177,55 178,11 182,16 183,21
184,57 185,9 186,14 207,19
214,11 215,24 216,142 217,40
218,278 219,49 220,108 221,11
222,728 223,110 224,442 225,82
226,85 250,20 251,104 252,43
253,85 254,60 255,35 256,25
258,12 286,7626 287,1332 288,5539
289,856 290,1343 291,181 292,92
293,13
##END=
