##TITLE=4-(Hexyloxy)benzoic acid
##JCAMP-DX=4.24
##DATA TYPE=MASS SPECTRUM
##ORIGIN=NIST Mass Spectrometry Data Center, 1994
##OWNER=NIST Mass Spectrometry Data Center
Collection (C) 2014 copyright by the U.S. Secretary of Commerce
on behalf of the United States of America. All rights reserved.
##CAS REGISTRY NO=1142-39-8
##$NIST MASS SPEC NO=133487
##MOLFORM=C13 H18 O3
##MW=222
##$NIST SOURCE=MSDC
##XUNITS=M/Z
##YUNITS=RELATIVE INTENSITY
##XFACTOR=1
##YFACTOR=1
##FIRSTX=27
##LASTX=224
##FIRSTY=580
##MAXX=224
##MINX=27
##MAXY=9999
##MINY=46
##NPOINTS=62
##PEAK TABLE=(XY..XY)
27,580 28,122 29,840 38,108
39,766 40,127 41,1559 42,345
43,2504 44,107 45,66 50,196
51,193 52,74 53,383 54,89
55,1013 56,539 57,384 62,60
63,284 64,187 65,1047 66,153
67,82 68,60 69,509 74,81
75,131 76,192 77,236 78,57
79,166 80,57 81,319 82,61
83,46 84,415 85,232 91,84
92,148 93,416 94,66 95,316
103,60 105,51 107,83 109,129
110,94 119,53 121,3384 122,275
123,80 135,49 138,9999 139,2578
140,203 151,214 205,48 222,2961
223,472 224,66
##END=
