##TITLE=3-Chlorobenzoic acid, TMS derivative
##JCAMP-DX=4.24
##DATA TYPE=MASS SPECTRUM
##ORIGIN=James Little, Eastman Chemical Co.
##OWNER=NIST Mass Spectrometry Data Center
Collection (C) 2014 copyright by the U.S. Secretary of Commerce
on behalf of the United States of America. All rights reserved.
##CAS REGISTRY NO=114521-53-8
##$NIST MASS SPEC NO=368515
##MOLFORM=C10 H13 Cl O2 Si
##MW=228
##$NIST SOURCE=MSDC
##XUNITS=M/Z
##YUNITS=RELATIVE INTENSITY
##XFACTOR=1
##YFACTOR=1
##FIRSTX=37
##LASTX=232
##FIRSTY=20
##MAXX=232
##MINX=37
##MAXY=9999
##MINY=10
##NPOINTS=144
##PEAK TABLE=(XY..XY)
37,20 38,60 39,60 41,20
42,100 43,641 44,190 45,1982
46,150 47,450 48,20 49,70
50,1021 51,420 52,30 53,190
54,30 55,140 56,50 57,90
58,170 59,631 60,130 61,220
62,70 63,300 64,40 65,160
66,30 67,50 69,10 70,70
71,40 72,200 73,1231 74,1261
75,4934 76,1571 77,270 78,40
79,70 80,10 81,30 83,40
84,110 85,370 86,60 87,140
88,20 89,140 90,60 91,460
92,60 93,120 94,10 95,60
96,20 97,20 98,10 99,30
101,30 102,30 103,120 104,410
105,130 107,530 108,210 109,60
110,310 111,7327 112,611 113,2342
114,160 115,20 117,30 118,10
119,140 120,30 121,20 125,30
126,10 127,10 129,10 131,20
132,10 133,180 134,140 135,150
136,30 137,30 138,30 139,7977
140,651 141,2793 142,200 143,80
144,10 147,10 149,20 150,20
151,10 152,20 153,100 154,20
155,130 156,20 157,40 163,50
164,10 165,10 166,10 167,20
168,80 169,7216 170,1011 171,2602
172,350 173,100 174,10 177,10
178,200 179,40 180,10 183,20
193,40 195,10 197,20 207,10
209,20 210,20 211,50 212,100
213,9999 214,1491 215,3713 216,520
217,160 218,10 227,50 228,611
229,110 230,220 231,50 232,10
##END=
