##TITLE=Benzonitrile, 2-(4-methylphenyl)-
##JCAMP-DX=4.24
##DATA TYPE=MASS SPECTRUM
##ORIGIN=NIST Mass Spectrometry Data Center
##OWNER=NIST Mass Spectrometry Data Center
Collection (C) 2014 copyright by the U.S. Secretary of Commerce
on behalf of the United States of America. All rights reserved.
##CAS REGISTRY NO=114772-53-1
##$NIST MASS SPEC NO=342411
##MOLFORM=C14 H11 N
##MW=193
##$NIST SOURCE=MSDC
##XUNITS=M/Z
##YUNITS=RELATIVE INTENSITY
##XFACTOR=1
##YFACTOR=1
##FIRSTX=14
##LASTX=195
##FIRSTY=10
##MAXX=195
##MINX=14
##MAXY=9999
##MINY=10
##NPOINTS=102
##PEAK TABLE=(XY..XY)
14,10 15,100 16,30 17,110
18,350 26,110 27,390 28,240
29,10 32,20 37,60 38,220
39,961 40,130 41,60 44,20
50,540 51,691 52,180 53,60
55,20 56,20 57,20 58,20
61,110 62,370 63,851 64,210
65,360 66,60 68,30 70,340
71,160 73,30 74,330 75,490
76,310 77,210 78,40 82,891
84,450 85,50 86,190 87,280
88,180 89,410 90,150 91,520
92,30 96,911 98,120 99,150
100,130 101,140 102,90 103,10
109,10 110,50 111,80 112,60
113,280 114,150 115,270 116,80
122,20 123,30 124,40 125,100
126,190 127,170 128,70 135,10
137,80 138,110 139,380 140,380
141,50 149,40 150,210 151,220
152,250 153,130 154,20 161,20
163,410 164,711 165,3163 166,981
167,220 168,20 175,30 176,110
177,490 178,230 179,20 188,80
190,1011 191,801 192,4384 193,9999
194,1551 195,100
##END=
