##TITLE=(3R)-(-)-1-Benzyl-3-aminopyrrolidine
##JCAMP-DX=4.24
##DATA TYPE=MASS SPECTRUM
##ORIGIN=NIST Mass Spectrometry Data Center
##OWNER=NIST Mass Spectrometry Data Center
Collection (C) 2014 copyright by the U.S. Secretary of Commerce
on behalf of the United States of America. All rights reserved.
##CAS REGISTRY NO=114715-39-8
##$NIST MASS SPEC NO=342827
##MOLFORM=C11 H16 N2
##MW=176
##$NIST SOURCE=MSDC
##XUNITS=M/Z
##YUNITS=RELATIVE INTENSITY
##XFACTOR=1
##YFACTOR=1
##FIRSTX=14
##LASTX=177
##FIRSTY=10
##MAXX=177
##MINX=14
##MAXY=9999
##MINY=10
##NPOINTS=91
##PEAK TABLE=(XY..XY)
14,10 15,240 17,30 18,90
26,50 27,290 28,1171 29,330
30,771 31,20 32,20 37,20
38,90 39,801 40,130 42,9999
43,821 44,310 45,10 50,170
51,420 52,120 53,60 54,130
56,1341 57,230 58,40 59,10
62,70 63,330 65,1551 66,100
67,30 68,200 69,70 70,110
71,60 72,10 73,10 74,30
75,30 76,40 77,180 78,80
79,30 80,20 81,10 82,70
83,60 85,510 86,40 87,10
89,280 91,5545 92,480 93,20
96,10 97,10 99,100 102,10
103,60 104,230 105,130 106,170
107,10 115,10 116,20 117,50
118,100 119,40 120,320 121,40
123,10 129,10 130,60 132,1742
133,1942 134,290 135,20 144,40
146,80 147,330 148,50 156,10
157,40 159,1071 160,170 161,10
175,70 176,120 177,10
##END=
