##TITLE=1-(2-Hydroxyethylthio)-2-(2-vinylthioethoxy)ethane
##JCAMP-DX=4.24
##DATA TYPE=MASS SPECTRUM
##ORIGIN=Dennis Rohrbaugh, CBDCOM/ERDEC, Edgewood, MD
##OWNER=NIST Mass Spectrometry Data Center
Collection (C) 2014 copyright by the U.S. Secretary of Commerce
on behalf of the United States of America. All rights reserved.
##CAS REGISTRY NO=114811-41-5
##$NIST MASS SPEC NO=226832
##MOLFORM=C8 H16 O2 S2
##MW=208
##$NIST SOURCE=MSDC
##XUNITS=M/Z
##YUNITS=RELATIVE INTENSITY
##XFACTOR=1
##YFACTOR=1
##FIRSTX=43
##LASTX=208
##FIRSTY=1079
##MAXX=208
##MINX=43
##MAXY=9999
##MINY=20
##NPOINTS=34
##PEAK TABLE=(XY..XY)
43,1079 45,9999 46,2059 47,2089
53,989 57,389 58,1949 59,3839
60,2199 61,4629 63,239 71,139
73,869 74,289 75,699 76,119
77,169 85,1709 86,4559 87,4579
88,209 89,839 91,439 102,259
103,499 104,1109 105,2989 106,269
107,119 117,139 131,109 149,50
163,20 208,40
##END=
