##TITLE=Methyl 2-isothiocyanato-3-methylbutyrate
##JCAMP-DX=4.24
##DATA TYPE=MASS SPECTRUM
##ORIGIN=NIST Mass Spectrometry Data Center, 1994
##OWNER=NIST Mass Spectrometry Data Center
Collection (C) 2014 copyright by the U.S. Secretary of Commerce
on behalf of the United States of America. All rights reserved.
##CAS REGISTRY NO=114877-91-7
##$NIST MASS SPEC NO=134551
##MOLFORM=C7 H11 N O2 S
##MW=173
##$NIST SOURCE=MSDC
##XUNITS=M/Z
##YUNITS=RELATIVE INTENSITY
##XFACTOR=1
##YFACTOR=1
##FIRSTX=13
##LASTX=175
##FIRSTY=48
##MAXX=175
##MINX=13
##MAXY=9999
##MINY=28
##NPOINTS=80
##PEAK TABLE=(XY..XY)
13,48 15,3719 16,79 26,310
27,3119 28,1231 29,2434 30,201
31,133 32,169 33,50 34,29
37,158 38,459 39,3969 40,614
41,4247 42,661 43,3257 44,795
45,839 46,112 47,222 49,28
50,127 51,241 52,184 53,735
54,28 55,9999 56,751 57,116
58,355 59,2644 60,479 61,326
64,56 66,41 67,85 68,116
69,751 70,647 71,1889 72,2546
73,631 74,590 75,581 76,201
78,66 80,81 81,328 82,147
83,339 84,167 85,128 86,590
87,143 88,368 97,67 99,5977
100,354 101,329 102,372 103,1231
104,68 105,73 112,80 114,6954
115,967 116,483 117,39 126,38
131,2328 132,144 133,121 145,36
158,49 173,3750 174,354 175,217
##END=
