##TITLE=Ethyltrichlorosilane
##JCAMP-DX=4.24
##DATA TYPE=MASS SPECTRUM
##ORIGIN=Japan AIST/NIMC Database- Spectrum MS-NW-3280
##OWNER=NIST Mass Spectrometry Data Center
Collection (C) 2014 copyright by the U.S. Secretary of Commerce
on behalf of the United States of America. All rights reserved.
##CAS REGISTRY NO=115-21-9
##$NIST MASS SPEC NO=233902
##MOLFORM=C2 H5 Cl3 Si
##MW=162
##$NIST SOURCE=MSDC
##XUNITS=M/Z
##YUNITS=RELATIVE INTENSITY
##XFACTOR=1
##YFACTOR=1
##FIRSTX=14
##LASTX=168
##FIRSTY=20
##MAXX=168
##MINX=14
##MAXY=9999
##MINY=10
##NPOINTS=94
##PEAK TABLE=(XY..XY)
14,20 15,30 25,20 26,289
27,1039 28,869 29,2269 30,50
35,70 36,50 37,20 38,20
40,20 41,30 42,20 43,10
44,20 48,10 49,119 51,30
52,40 53,189 54,40 55,40
57,10 62,30 63,2009 64,189
65,729 66,60 67,30 76,20
77,30 78,10 79,10 87,20
88,50 89,30 90,40 91,20
92,40 93,20 94,20 95,10
98,1969 99,819 100,1329 101,559
102,279 103,99 104,10 110,10
111,20 112,60 113,50 114,40
115,40 116,10 117,20 123,90
124,60 125,279 126,6439 127,1049
128,4499 129,619 130,869 131,99
132,30 133,9999 134,569 135,9899
136,539 137,3459 138,189 139,459
140,20 141,10 142,10 146,10
147,70 148,10 149,70 150,10
151,20 160,10 161,10 162,839
163,80 164,839 165,70 166,289
167,20 168,40
##END=
