##TITLE=Thebaine
##JCAMP-DX=4.24
##DATA TYPE=MASS SPECTRUM
##ORIGIN=Virginia Division of Forensic Science
##OWNER=NIST Mass Spectrometry Data Center
Collection (C) 2014 copyright by the U.S. Secretary of Commerce
on behalf of the United States of America. All rights reserved.
##CAS REGISTRY NO=115-37-7
##$NIST MASS SPEC NO=250620
##MOLFORM=C19 H21 N O3
##MW=311
##$NIST SOURCE=MSDC
##XUNITS=M/Z
##YUNITS=RELATIVE INTENSITY
##XFACTOR=1
##YFACTOR=1
##FIRSTX=15
##LASTX=314
##FIRSTY=330
##MAXX=314
##MINX=15
##MAXY=9999
##MINY=10
##NPOINTS=233
##PEAK TABLE=(XY..XY)
15,330 16,10 17,20 26,20
27,90 28,80 29,130 30,40
31,20 38,10 39,100 41,140
42,1431 43,150 44,180 45,20
50,50 51,150 52,60 53,80
54,30 55,70 56,50 57,90
58,310 59,10 62,40 63,200
64,80 65,120 66,50 67,20
68,30 69,40 70,190 71,40
72,30 73,20 74,60 75,160
76,180 77,280 78,80 79,40
80,20 81,60 82,110 83,70
84,90 85,20 86,60 87,140
88,130 89,180 90,150 91,190
92,50 93,40 94,120 96,80
97,70 98,70 99,70 100,50
101,130 102,230 103,180 104,130
105,80 107,20 109,100 110,140
111,70 112,100 113,140 114,110
115,460 116,130 118,260 119,50
121,30 122,40 123,70 125,180
126,390 127,430 128,320 129,130
130,80 131,100 132,150 134,130
135,30 137,70 139,1010 141,260
142,100 143,30 144,60 145,80
146,80 147,80 148,130 150,230
151,420 152,1201 153,780 154,310
155,380 157,60 158,30 159,60
160,40 161,30 162,50 163,310
164,320 165,1040 166,400 167,410
168,460 169,210 170,90 171,100
172,40 173,10 174,30 175,80
176,200 177,160 178,300 179,230
180,350 181,630 182,890 183,460
184,240 185,60 186,30 187,30
188,20 189,60 190,100 191,120
192,210 193,270 194,360 195,490
196,340 197,260 198,230 199,190
200,70 201,20 202,10 203,20
204,80 205,160 206,140 207,220
208,360 209,360 210,710 211,1050
212,310 213,110 214,30 217,20
218,90 219,90 220,160 221,290
222,330 223,840 224,560 225,480
226,680 227,960 228,140 229,40
232,30 233,20 234,150 235,260
236,400 237,450 238,340 239,1111
240,360 241,600 242,1441 243,220
244,30 246,20 247,70 248,130
249,130 250,380 251,290 252,400
253,560 254,610 255,270 256,30
257,10 261,10 262,60 263,130
264,310 265,300 266,240 267,530
268,460 269,100 270,20 278,220
279,140 280,380 281,230 282,300
283,50 292,50 294,230 296,7706
297,1601 298,200 299,30 308,20
309,100 311,9999 312,2021 313,260
314,40
##END=
