##TITLE=Methallatal
##JCAMP-DX=4.24
##DATA TYPE=MASS SPECTRUM
##ORIGIN=Patti Price, Georgia Bureau of Investigation, Decatur, Georgia
##OWNER=NIST Mass Spectrometry Data Center
Collection (C) 2014 copyright by the U.S. Secretary of Commerce
on behalf of the United States of America. All rights reserved.
##CAS REGISTRY NO=115-56-0
##$NIST MASS SPEC NO=247814
##MOLFORM=C10 H14 N2 O2 S
##MW=226
##$NIST SOURCE=MSDC
##XUNITS=M/Z
##YUNITS=RELATIVE INTENSITY
##XFACTOR=1
##YFACTOR=1
##FIRSTX=41
##LASTX=229
##FIRSTY=580
##MAXX=229
##MINX=41
##MAXY=9999
##MINY=10
##NPOINTS=143
##PEAK TABLE=(XY..XY)
41,580 42,90 43,150 44,110
45,30 46,30 47,20 50,50
51,140 52,110 53,550 54,190
55,1801 56,370 57,60 58,50
59,280 60,260 61,40 62,20
63,40 64,20 65,220 66,120
67,500 68,180 69,620 70,180
71,70 72,40 73,50 74,20
75,10 76,40 77,400 78,70
79,480 80,220 81,510 82,230
83,470 84,100 85,40 86,220
87,20 88,30 89,10 91,90
92,90 93,130 94,250 95,560
96,190 97,290 98,230 99,60
100,40 101,20 102,10 103,130
105,30 106,40 107,60 108,70
109,370 110,380 111,210 112,410
113,50 114,70 115,30 116,20
120,210 121,480 122,340 123,190
124,360 125,60 126,40 127,70
128,30 129,100 130,10 135,70
136,40 137,30 138,2512 139,330
140,90 141,70 142,120 143,280
144,40 145,10 148,10 149,40
150,100 151,40 152,150 153,60
154,80 155,130 156,70 157,510
158,40 159,30 163,10 165,60
166,70 167,80 168,60 169,250
170,1040 171,1681 172,310 173,90
177,20 179,50 180,200 181,130
182,140 183,670 184,340 185,140
186,20 193,60 194,30 195,30
197,9999 198,1631 199,630 200,200
201,20 209,200 210,20 211,1591
212,230 213,90 225,10 226,2962
227,350 228,150 229,16
##END=
