##TITLE=Fensulfothion
##JCAMP-DX=4.24
##DATA TYPE=MASS SPECTRUM
##ORIGIN=ACCUSTANDARD Chemicals / NIST MS Data Center.
##OWNER=NIST Mass Spectrometry Data Center
Collection (C) 2014 copyright by the U.S. Secretary of Commerce
on behalf of the United States of America. All rights reserved.
##CAS REGISTRY NO=115-90-2
##$NIST MASS SPEC NO=125588
##MOLFORM=C11 H17 O4 P S2
##MW=308
##$NIST SOURCE=MSDC
##XUNITS=M/Z
##YUNITS=RELATIVE INTENSITY
##XFACTOR=1
##YFACTOR=1
##FIRSTX=12
##LASTX=312
##FIRSTY=10
##MAXX=312
##MINX=12
##MAXY=9999
##MINY=6
##NPOINTS=198
##PEAK TABLE=(XY..XY)
12,10 13,15 14,20 15,136
16,6 17,16 18,49 26,142
27,833 28,507 29,1770 30,55
31,55 32,46 35,9 37,17
38,137 39,316 40,16 41,36
42,22 43,114 44,9 45,586
46,73 47,545 48,54 49,25
50,234 51,157 52,100 53,178
54,51 55,77 57,26 58,143
59,56 60,53 61,62 62,132
63,836 64,369 65,1138 66,76
67,98 68,40 69,229 70,239
71,81 72,17 73,20 74,75
75,136 76,179 77,288 78,123
79,213 80,118 81,470 82,98
83,66 84,175 85,200 86,64
87,14 89,20 91,248 92,193
93,368 94,95 95,207 96,699
97,3850 98,110 99,221 100,14
101,14 102,11 103,14 104,16
105,17 107,130 109,2077 110,190
111,226 112,127 113,159 114,27
115,34 116,12 117,11 118,8
119,32 121,196 122,51 123,126
124,528 125,3261 126,221 127,238
128,36 129,31 131,11 134,16
135,28 137,489 139,590 140,924
141,3958 142,364 143,238 144,28
149,18 150,18 151,75 152,18
153,2323 154,158 155,417 156,996
157,839 158,145 159,90 161,6
167,54 168,22 169,78 170,37
171,134 172,184 173,42 174,15
175,18 182,12 183,26 184,29
185,98 186,121 187,467 188,838
189,157 190,60 191,15 193,47
200,11 201,34 203,336 204,69
205,37 209,11 216,9 217,35
218,170 219,388 220,192 221,132
222,22 230,10 231,46 232,19
233,74 234,180 235,596 236,411
237,579 238,81 239,57 245,17
247,15 248,21 249,144 250,21
251,70 252,16 253,17 261,515
262,122 263,140 264,323 265,1316
266,172 267,129 268,25 276,25
277,34 278,25 279,40 280,19
293,9999 294,1403 295,999 296,135
297,36 308,4152 309,611 310,451
311,52 312,13
##END=
