##TITLE=Oxyphenisatin Acetate
##JCAMP-DX=4.24
##DATA TYPE=MASS SPECTRUM
##ORIGIN=Finnigan MAT: Toxicological Library (LIBR-TX)
##OWNER=NIST Mass Spectrometry Data Center
Collection (C) 2014 copyright by the U.S. Secretary of Commerce
on behalf of the United States of America. All rights reserved.
##CAS REGISTRY NO=115-33-3
##$NIST MASS SPEC NO=120882
##MOLFORM=C24 H19 N O5
##MW=401
##$NIST SOURCE=MSDC
##XUNITS=M/Z
##YUNITS=RELATIVE INTENSITY
##XFACTOR=1
##YFACTOR=1
##FIRSTX=42
##LASTX=402
##FIRSTY=297
##MAXX=402
##MINX=42
##MAXY=9999
##MINY=92
##NPOINTS=47
##PEAK TABLE=(XY..XY)
42,297 43,2399 55,173 139,101
166,300 167,298 168,104 195,210
196,1713 197,479 199,206 211,101
215,99 222,96 223,482 224,611
225,95 228,94 230,93 233,92
241,107 242,106 257,206 258,302
259,204 260,204 270,196 271,195
272,711 273,194 280,100 288,6907
289,1895 290,296 299,188 300,300
317,9999 318,1923 319,295 330,399
331,99 359,4498 360,910 361,98
400,499 401,2486 402,700
##END=
