##TITLE=Cythioate
##JCAMP-DX=4.24
##DATA TYPE=MASS SPECTRUM
##ORIGIN=J. SHAW, BORRISTON RESEARCH, ROCKVILLE, MD, USA
##OWNER=NIST Mass Spectrometry Data Center
Collection (C) 2014 copyright by the U.S. Secretary of Commerce
on behalf of the United States of America. All rights reserved.
##CAS REGISTRY NO=115-93-5
##$NIST MASS SPEC NO=60167
##MOLFORM=C8 H12 N O5 P S2
##MW=297
##$NIST SOURCE=MSDC
##XUNITS=M/Z
##YUNITS=RELATIVE INTENSITY
##XFACTOR=1
##YFACTOR=1
##FIRSTX=27
##LASTX=300
##FIRSTY=240
##MAXX=300
##MINX=27
##MAXY=9999
##MINY=10
##NPOINTS=138
##PEAK TABLE=(XY..XY)
27,240 28,690 29,500 30,180
31,650 32,210 33,80 34,50
35,10 36,30 37,80 38,620
39,530 40,30 41,140 42,60
43,330 44,170 45,730 46,280
47,3963 48,310 49,220 50,1001
51,390 52,240 53,370 54,130
55,100 56,50 57,160 58,190
59,20 60,20 61,110 62,1441
63,3693 64,2392 65,580 66,130
67,30 68,20 69,260 70,130
71,60 72,10 73,50 74,260
75,880 76,680 77,490 79,4684
80,730 81,200 82,130 83,100
84,50 85,30 86,50 87,10
88,20 89,170 90,70 91,130
92,370 93,3683 94,250 95,470
96,430 97,140 98,40 99,30
104,10 105,60 106,440 107,500
108,790 109,7407 110,300 111,320
112,100 113,20 115,10 121,40
123,940 125,7887 127,9999 128,220
129,70 137,50 138,260 139,330
140,70 141,70 142,30 143,280
145,20 149,10 154,130 155,180
156,90 157,220 158,10 159,80
161,60 163,10 169,50 170,430
171,460 172,260 173,180 174,10
175,10 185,80 186,110 187,100
189,160 201,70 202,210 203,80
204,10 216,670 217,260 218,120
219,20 233,60 234,290 235,20
260,20 262,10 265,30 266,110
280,20 281,30 297,3203 298,280
299,270 300,10
##END=
