##TITLE=Azacyclonol
##JCAMP-DX=4.24
##DATA TYPE=MASS SPECTRUM
##ORIGIN=Tox21 Consortium/NIST Mass Spectrometry Data Center, 2012
##OWNER=NIST Mass Spectrometry Data Center
Collection (C) 2014 copyright by the U.S. Secretary of Commerce
on behalf of the United States of America. All rights reserved.
##CAS REGISTRY NO=115-46-8
##$NIST MASS SPEC NO=408710
##MOLFORM=C18 H21 N O
##MW=267
##$NIST SOURCE=MSDC
##XUNITS=M/Z
##YUNITS=RELATIVE INTENSITY
##XFACTOR=1
##YFACTOR=1
##FIRSTX=15
##LASTX=269
##FIRSTY=20
##MAXX=269
##MINX=15
##MAXY=9999
##MINY=10
##NPOINTS=191
##PEAK TABLE=(XY..XY)
15,20 18,50 26,20 27,240
28,450 29,520 30,1001 31,30
32,20 34,10 36,10 38,30
39,370 40,40 41,250 42,1261
43,951 44,490 45,40 48,10
49,10 50,210 51,921 52,140
53,300 54,340 55,2692 56,2562
57,530 58,30 59,10 60,10
61,10 62,20 63,130 64,30
65,170 66,20 67,200 68,460
69,100 70,80 71,10 73,10
74,60 75,110 76,230 77,4774
78,581 79,110 80,350 81,90
82,1311 83,1021 84,9999 85,8668
86,530 87,40 88,30 89,130
90,40 91,871 92,80 93,10
94,20 95,20 96,10 97,50
98,40 99,10 100,20 101,40
102,100 103,140 105,8007 106,741
107,70 108,10 109,10 110,10
111,10 112,10 113,40 114,40
115,550 116,120 117,80 118,40
119,10 120,10 125,10 126,70
127,170 128,370 129,390 130,70
131,50 132,40 133,30 134,30
137,10 138,10 139,130 140,20
141,90 142,30 143,60 144,60
145,30 146,20 147,20 150,40
151,120 152,450 153,210 154,120
155,50 156,40 157,20 158,20
159,10 160,20 161,10 162,10
163,90 164,110 165,540 166,120
167,150 168,40 169,10 170,40
171,10 172,60 173,20 174,10
176,40 177,20 178,160 179,70
180,30 181,350 182,390 183,6015
184,771 185,70 186,10 187,20
188,100 189,220 190,320 191,180
192,80 193,70 194,90 195,20
196,10 200,10 201,10 202,70
203,80 204,70 205,70 206,60
207,60 208,20 213,10 215,30
216,20 217,10 218,10 219,30
220,40 221,10 226,40 229,10
231,10 232,10 234,10 246,10
247,10 248,310 249,150 250,40
251,30 252,10 265,10 266,20
267,260 268,60 269,10
##END=
