##TITLE=1,3-Propanediol, 2,2-diethyl-
##JCAMP-DX=4.24
##DATA TYPE=MASS SPECTRUM
##ORIGIN=Japan AIST/NIMC Database- Spectrum MS-NW-4733
##OWNER=NIST Mass Spectrometry Data Center
Collection (C) 2014 copyright by the U.S. Secretary of Commerce
on behalf of the United States of America. All rights reserved.
##CAS REGISTRY NO=115-76-4
##$NIST MASS SPEC NO=227881
##MOLFORM=C7 H16 O2
##MW=132
##$NIST SOURCE=MSDC
##XUNITS=M/Z
##YUNITS=RELATIVE INTENSITY
##XFACTOR=1
##YFACTOR=1
##FIRSTX=14
##LASTX=115
##FIRSTY=10
##MAXX=115
##MINX=14
##MAXY=9999
##MINY=10
##NPOINTS=80
##PEAK TABLE=(XY..XY)
14,10 15,129 17,80 18,339
19,20 26,129 27,1919 28,169
29,3039 30,99 31,3609 32,40
33,70 36,10 37,30 38,80
39,1379 40,219 41,5419 42,839
43,3919 44,159 45,2559 46,60
47,30 49,10 50,70 51,159
52,60 53,689 54,379 55,7709
56,1339 57,2279 58,199 59,9999
60,339 61,109 62,20 63,30
65,109 66,40 67,669 68,249
69,3399 70,319 71,1139 72,829
73,169 74,10 77,50 78,10
79,99 80,20 81,369 82,179
83,3139 84,9639 85,1809 86,149
87,10 91,10 93,10 94,10
95,30 96,139 97,90 98,20
99,70 100,389 101,2279 102,179
103,30 107,10 108,10 110,10
112,20 113,10 114,109 115,20
##END=
