##TITLE=Diphenyl methyl phosphate
##JCAMP-DX=4.24
##DATA TYPE=MASS SPECTRUM
##ORIGIN=NIST Mass Spectrometry Data Center, 1994
##OWNER=NIST Mass Spectrometry Data Center
Collection (C) 2014 copyright by the U.S. Secretary of Commerce
on behalf of the United States of America. All rights reserved.
##CAS REGISTRY NO=115-89-9
##$NIST MASS SPEC NO=134106
##MOLFORM=C13 H13 O4 P
##MW=264
##$NIST SOURCE=MSDC
##XUNITS=M/Z
##YUNITS=RELATIVE INTENSITY
##XFACTOR=1
##YFACTOR=1
##FIRSTX=14
##LASTX=266
##FIRSTY=41
##MAXX=266
##MINX=14
##MAXY=9999
##MINY=11
##NPOINTS=116
##PEAK TABLE=(XY..XY)
14,41 15,414 18,19 26,53
27,205 29,82 30,27 31,49
37,98 38,519 39,2851 40,139
41,41 47,387 48,24 50,753
51,2195 52,180 53,150 54,16
55,74 57,22 60,11 61,58
62,200 63,717 64,11 65,3009
66,386 67,24 68,16 73,38
74,193 75,203 76,11 77,5281
78,451 79,123 80,51 81,113
83,35 84,21 85,37 90,1170
91,1560 92,221 93,443 94,1504
95,440 96,23 99,60 100,85
101,16 102,20 107,215 108,135
109,117 112,32 113,67 115,337
116,40 122,25 123,22 127,98
128,88 129,29 131,27 132,51
139,365 140,309 141,988 142,416
143,280 144,38 151,108 152,235
153,74 155,149 156,123 157,53
158,30 165,1852 166,913 167,206
168,615 169,2597 170,4243 171,786
172,186 173,25 181,42 182,50
183,139 184,132 185,37 186,68
187,157 188,24 203,16 215,96
216,30 217,18 222,37 231,221
232,433 233,75 237,29 245,189
246,83 247,56 248,121 249,41
263,7029 264,9999 265,1418 266,174
##END=
