##TITLE=Paramethadione
##JCAMP-DX=4.24
##DATA TYPE=MASS SPECTRUM
##ORIGIN=Patti Price, Georgia Bureau of Investigation, Decatur, Georgia
##OWNER=NIST Mass Spectrometry Data Center
Collection (C) 2014 copyright by the U.S. Secretary of Commerce
on behalf of the United States of America. All rights reserved.
##CAS REGISTRY NO=115-67-3
##$NIST MASS SPEC NO=247999
##MOLFORM=C7 H11 N O3
##MW=157
##$NIST SOURCE=MSDC
##XUNITS=M/Z
##YUNITS=RELATIVE INTENSITY
##XFACTOR=1
##YFACTOR=1
##FIRSTX=41
##LASTX=157
##FIRSTY=1010
##MAXX=157
##MINX=41
##MAXY=9999
##MINY=10
##NPOINTS=40
##PEAK TABLE=(XY..XY)
41,1010 42,570 43,9999 44,560
45,60 47,10 49,110 50,70
51,130 52,40 53,150 54,60
55,330 56,680 57,1481 58,640
59,70 69,80 70,160 71,10
72,440 73,60 82,10 83,20
84,60 85,10 86,30 98,10
99,10 100,170 101,10 115,10
127,30 128,400 129,4614 130,250
131,40 143,240 144,10 157,20
##END=
