##TITLE=1,3-Propanediol, 2-butyl-2-ethyl-
##JCAMP-DX=4.24
##DATA TYPE=MASS SPECTRUM
##ORIGIN=D.HENNEBERG, MAX-PLANCK INSTITUTE, MULHEIM, WEST GERMANY
##OWNER=NIST Mass Spectrometry Data Center
Collection (C) 2014 copyright by the U.S. Secretary of Commerce
on behalf of the United States of America. All rights reserved.
##CAS REGISTRY NO=115-84-4
##$NIST MASS SPEC NO=63569
##MOLFORM=C9 H20 O2
##MW=160
##$NIST SOURCE=MSDC
##XUNITS=M/Z
##YUNITS=RELATIVE INTENSITY
##XFACTOR=1
##YFACTOR=1
##FIRSTX=26
##LASTX=145
##FIRSTY=164
##MAXX=145
##MINX=26
##MAXY=9999
##MINY=12
##NPOINTS=85
##PEAK TABLE=(XY..XY)
26,164 27,1481 28,336 29,4532
30,103 31,1905 32,44 33,40
36,20 37,22 39,501 40,97
41,5553 42,769 43,4220 44,238
45,776 46,22 47,29 50,17
51,30 52,17 53,372 54,175
55,8187 56,813 57,3845 58,267
59,3293 60,116 61,73 63,30
65,53 66,33 67,574 68,290
69,9999 70,7738 71,1784 72,568
73,753 74,46 77,57 79,90
80,24 81,239 82,225 83,720
84,550 85,1369 86,302 87,560
88,66 89,41 91,21 93,33
95,363 96,58 97,89 98,43
99,239 100,62 101,167 102,16
105,25 109,40 110,87 111,1349
112,3292 113,400 114,119 115,70
117,17 118,13 123,13 124,25
126,13 127,25 128,237 129,1353
130,129 131,12 142,42 144,43
145,18
##END=
