##TITLE=Mercury, chloromethyl-
##JCAMP-DX=4.24
##DATA TYPE=MASS SPECTRUM
##OWNER=NIST Mass Spectrometry Data Center
Collection (C) 2014 copyright by the U.S. Secretary of Commerce
on behalf of the United States of America. All rights reserved.
##CAS REGISTRY NO=115-09-3
##$NIST MASS SPEC NO=12298
##MOLFORM=C H3 Cl Hg
##MW=252
##$NIST SOURCE=MSDC
##XUNITS=M/Z
##YUNITS=RELATIVE INTENSITY
##XFACTOR=1
##YFACTOR=1
##FIRSTX=35
##LASTX=254
##FIRSTY=1800
##MAXX=254
##MINX=35
##MAXY=9999
##MINY=400
##NPOINTS=35
##PEAK TABLE=(XY..XY)
35,1800 36,700 37,500 47,400
48,900 49,2000 51,600 198,1600
199,2800 200,4100 201,2400 202,5199
203,400 204,1100 212,700 213,2500
214,3400 215,4200 216,3100 217,4300
219,1100 233,900 234,1500 235,2600
236,1800 237,3600 238,400 239,1500
248,2900 249,4700 250,7199 251,5099
252,9999 253,1300 254,4500
##END=
