##TITLE=2-Amino-2-methyl-1,3-propanediol
##JCAMP-DX=4.24
##DATA TYPE=MASS SPECTRUM
##ORIGIN=Japan AIST/NIMC Database- Spectrum MS-NW-4635
##OWNER=NIST Mass Spectrometry Data Center
Collection (C) 2014 copyright by the U.S. Secretary of Commerce
on behalf of the United States of America. All rights reserved.
##CAS REGISTRY NO=115-69-5
##$NIST MASS SPEC NO=230352
##MOLFORM=C4 H11 N O2
##MW=105
##$NIST SOURCE=MSDC
##XUNITS=M/Z
##YUNITS=RELATIVE INTENSITY
##XFACTOR=1
##YFACTOR=1
##FIRSTX=14
##LASTX=106
##FIRSTY=30
##MAXX=106
##MINX=14
##MAXY=9999
##MINY=10
##NPOINTS=50
##PEAK TABLE=(XY..XY)
14,30 15,419 16,20 17,109
18,1959 19,50 25,10 26,80
27,539 28,2269 29,1629 30,899
31,729 32,20 37,20 38,40
39,289 40,129 41,589 42,1259
43,239 44,409 45,80 46,60
51,10 52,30 53,20 54,80
55,60 56,4499 57,1109 58,169
59,199 60,199 67,10 68,30
69,90 70,119 71,20 72,169
73,99 74,9999 75,389 76,30
84,10 86,40 87,10 88,30
90,30 106,10
##END=
