##TITLE=1,6-Octadien-3-ol, 3,7-dimethyl-, formate
##JCAMP-DX=4.24
##DATA TYPE=MASS SPECTRUM
##ORIGIN=H. Fales, LC, NHLBI, NIH, Bethesda, MD 20892
##OWNER=NIST Mass Spectrometry Data Center
Collection (C) 2014 copyright by the U.S. Secretary of Commerce
on behalf of the United States of America. All rights reserved.
##CAS REGISTRY NO=115-99-1
##$NIST MASS SPEC NO=132445
##MOLFORM=C11 H18 O2
##MW=182
##$NIST SOURCE=MSDC
##XUNITS=M/Z
##YUNITS=RELATIVE INTENSITY
##XFACTOR=1
##YFACTOR=1
##FIRSTX=41
##LASTX=184
##FIRSTY=4594
##MAXX=184
##MINX=41
##MAXY=9999
##MINY=4
##NPOINTS=137
##PEAK TABLE=(XY..XY)
41,4594 42,327 43,895 44,193
45,87 47,36 49,14 50,61
51,185 52,102 53,746 54,112
55,562 56,127 57,319 58,75
59,184 60,38 61,20 62,15
63,48 64,18 65,212 66,89
67,1149 68,2368 69,9999 70,719
71,214 72,42 73,56 74,21
75,24 76,11 77,278 78,70
79,364 80,470 81,500 82,160
83,213 84,126 85,177 86,34
87,46 88,10 89,22 90,11
91,303 92,269 93,1063 94,262
95,207 96,153 97,140 98,54
99,60 100,27 101,22 102,14
103,34 104,16 105,139 106,38
107,237 108,99 109,112 110,52
111,111 112,54 113,73 114,24
115,44 116,20 117,37 118,24
119,88 120,12 121,624 122,90
123,218 124,51 125,50 126,33
127,39 128,24 129,47 130,14
131,27 132,11 133,31 134,22
135,36 136,1446 137,248 138,43
139,156 140,32 141,28 142,24
143,35 144,8 145,33 146,13
147,60 148,25 149,28 150,13
151,23 152,17 153,21 154,15
155,15 157,11 158,8 159,11
161,13 163,13 164,14 165,16
166,11 167,13 168,12 169,13
171,5 173,8 174,4 175,10
176,8 177,10 178,4 179,12
180,4 181,11 182,28 183,11
184,4
##END=
