##TITLE=Bicyclo[2.2.1]hept-5-ene-2,3-dicarboxylic acid, 1,4,5,6,7,7-hexachloro-
##JCAMP-DX=4.24
##DATA TYPE=MASS SPECTRUM
##ORIGIN=NIST Mass Spectrometry Data Center, 1998.
##OWNER=NIST Mass Spectrometry Data Center
Collection (C) 2014 copyright by the U.S. Secretary of Commerce
on behalf of the United States of America. All rights reserved.
##CAS REGISTRY NO=115-28-6
##$NIST MASS SPEC NO=290586
##MOLFORM=C9 H4 Cl6 O4
##MW=386
##$NIST SOURCE=MSDC
##XUNITS=M/Z
##YUNITS=RELATIVE INTENSITY
##XFACTOR=1
##YFACTOR=1
##FIRSTX=25
##LASTX=376
##FIRSTY=30
##MAXX=376
##MINX=25
##MAXY=9999
##MINY=10
##NPOINTS=275
##PEAK TABLE=(XY..XY)
25,30 26,440 27,10 29,20
35,90 36,70 37,220 38,60
41,30 42,20 43,90 44,60
45,10 47,280 48,80 49,340
50,200 51,10 52,10 53,160
54,210 55,10 59,50 60,850
61,670 62,240 63,480 64,10
65,200 66,40 67,10 69,10
70,10 71,300 72,370 73,680
74,410 75,120 76,10 77,270
78,350 82,200 83,440 84,850
85,1010 86,710 87,140 88,10
89,460 90,30 91,150 92,20
93,10 94,240 95,1470 96,1330
97,800 98,210 99,100 100,30
101,40 102,20 103,10 106,370
107,1140 108,700 109,950 110,220
111,200 112,10 113,680 117,650
118,290 119,690 120,770 121,960
122,280 123,280 124,20 125,10
127,190 128,240 129,130 130,1070
131,1460 132,990 135,80 136,10
137,10 141,1000 142,100 143,1300
144,200 145,540 146,100 147,80
148,20 149,20 150,10 151,10
153,50 154,70 155,430 156,210
157,280 158,120 159,60 160,20
165,710 166,50 167,910 168,60
169,440 170,30 171,90 172,10
173,10 177,40 178,80 179,260
180,90 181,230 182,40 183,70
184,10 185,10 186,10 188,20
189,20 190,60 191,2270 192,210
193,2160 194,180 195,700 196,50
197,80 198,10 200,20 201,250
202,40 203,330 204,30 205,150
206,10 207,1730 208,140 209,1640
210,130 211,540 212,50 213,90
214,330 215,60 216,420 217,50
218,200 219,40 220,60 221,30
222,10 223,10 225,260 226,510
227,380 228,630 229,220 230,300
231,60 232,70 233,10 234,10
235,1550 236,100 237,2470 238,150
239,1580 240,90 241,540 242,40
243,130 244,10 245,30 248,20
249,20 250,30 251,30 252,20
253,20 254,420 255,40 256,530
257,50 258,260 259,30 260,10
261,6369 262,530 263,9999 264,800
265,6399 266,500 267,2060 268,160
269,380 270,930 271,140 272,1740
273,130 274,1380 275,80 276,590
277,480 278,170 279,700 280,70
281,440 282,40 283,140 284,60
285,30 286,90 287,10 288,80
289,230 290,60 291,370 292,40
293,230 294,20 295,70 296,50
297,20 298,90 299,10 300,70
301,10 302,30 304,10 305,550
306,50 307,880 308,70 309,560
310,50 311,180 312,50 313,30
314,70 315,10 316,60 318,20
320,10 333,690 334,70 335,1080
336,110 337,760 338,70 339,250
340,40 341,40 342,40 343,10
344,30 346,10 368,430 369,40
370,820 371,80 372,640 373,70
374,270 375,30 376,70
##END=
