##TITLE=Isobornyl thiocyanoacetate
##JCAMP-DX=4.24
##DATA TYPE=MASS SPECTRUM
##ORIGIN=J. SHAW, BORRISTON RESEARCH, ROCKVILLE, MD, USA
##OWNER=NIST Mass Spectrometry Data Center
Collection (C) 2014 copyright by the U.S. Secretary of Commerce
on behalf of the United States of America. All rights reserved.
##CAS REGISTRY NO=115-31-1
##$NIST MASS SPEC NO=60255
##MOLFORM=C13 H19 N O2 S
##MW=253
##$NIST SOURCE=MSDC
##XUNITS=M/Z
##YUNITS=RELATIVE INTENSITY
##XFACTOR=1
##YFACTOR=1
##FIRSTX=33
##LASTX=238
##FIRSTY=80
##MAXX=238
##MINX=33
##MAXY=9999
##MINY=10
##NPOINTS=149
##PEAK TABLE=(XY..XY)
33,80 34,230 36,20 37,20
38,90 39,2652 40,3083 41,8178
42,1341 43,4634 44,770 45,1361
46,1381 47,300 48,80 49,20
50,120 51,460 52,250 53,1731
54,350 55,4064 56,510 57,1201
58,290 59,350 60,110 61,40
62,30 63,130 64,40 65,710
66,450 67,3233 68,1301 69,2662
70,680 71,2582 72,2572 73,230
74,160 75,50 76,30 77,1491
78,330 79,2422 80,1521 81,2702
82,1411 83,1121 84,570 85,290
86,50 87,150 88,30 89,50
90,100 91,1571 92,2012 93,8458
94,1481 95,9999 96,960 97,330
98,110 99,150 100,320 101,20
102,30 103,80 104,60 105,450
106,120 107,1741 108,1251 109,880
110,2142 111,690 112,100 113,170
114,20 115,40 117,400 118,540
119,160 121,6416 122,640 123,310
124,50 125,80 126,50 127,70
128,10 129,10 130,10 131,20
132,10 133,20 134,90 135,280
136,5275 137,910 138,80 139,160
140,20 141,10 143,20 144,10
145,10 146,20 147,20 149,130
150,30 151,30 152,30 153,60
154,60 155,10 157,10 158,60
159,10 160,10 161,10 162,10
163,10 164,10 165,10 166,70
167,40 168,20 169,40 170,40
171,10 176,10 177,10 179,70
180,100 181,10 183,30 185,50
194,10 195,30 196,10 202,10
204,10 210,50 211,20 212,10
238,50
##END=
