##TITLE=Barbituric acid, 5-allyl-5-phenyl-
##JCAMP-DX=4.24
##DATA TYPE=MASS SPECTRUM
##ORIGIN=NIST Mass Spectrometry Data Center
##OWNER=NIST Mass Spectrometry Data Center
Collection (C) 2014 copyright by the U.S. Secretary of Commerce
on behalf of the United States of America. All rights reserved.
##CAS REGISTRY NO=115-43-5
##$NIST MASS SPEC NO=352148
##MOLFORM=C13 H12 N2 O3
##MW=244
##$NIST SOURCE=MSDC
##XUNITS=M/Z
##YUNITS=RELATIVE INTENSITY
##XFACTOR=1
##YFACTOR=1
##FIRSTX=15
##LASTX=246
##FIRSTY=20
##MAXX=246
##MINX=15
##MAXY=9999
##MINY=10
##NPOINTS=175
##PEAK TABLE=(XY..XY)
15,20 26,60 27,310 28,100
29,50 30,10 31,10 37,60
38,160 39,1782 40,150 41,4534
42,240 43,300 44,500 45,40
46,10 49,30 50,801 51,2482
52,611 53,350 54,80 55,70
56,60 57,90 58,40 60,10
61,110 62,530 63,1762 64,1001
65,631 66,90 67,50 68,60
69,100 70,540 73,50 74,360
75,460 76,911 77,4184 78,1772
79,170 80,40 81,30 82,20
83,60 84,20 86,250 87,260
88,210 89,2252 90,581 91,1541
92,180 93,60 94,50 95,30
96,90 97,30 98,70 99,50
100,50 101,240 102,1641 103,1591
104,8368 105,1441 106,190 107,30
108,10 109,10 110,20 111,20
112,10 113,60 114,110 115,2742
116,641 117,1181 118,520 119,80
120,20 121,10 122,30 123,40
124,160 125,40 126,270 127,1892
128,4544 129,3663 130,1822 131,330
132,3513 133,2062 134,170 135,20
136,10 138,10 139,40 140,50
141,60 142,230 143,390 144,731
145,270 146,200 147,60 148,10
150,10 152,20 153,360 154,340
155,360 156,681 157,270 158,941
159,260 160,1501 161,330 162,40
163,10 165,30 166,40 167,130
168,30 169,40 170,40 171,40
172,1161 173,410 174,140 175,60
176,30 182,30 183,120 184,270
185,430 186,641 187,140 188,30
189,60 190,10 197,10 198,10
199,30 200,70 201,210 202,80
203,1161 204,290 205,30 209,20
210,20 211,10 212,10 213,30
215,9999 216,1551 217,200 218,20
225,10 226,30 227,631 228,90
229,1101 230,160 231,20 243,480
244,1712 245,260 246,30
##END=
