##TITLE=2-Fluoro-3-(trifluoromethyl)benzoic acid
##JCAMP-DX=4.24
##DATA TYPE=MASS SPECTRUM
##ORIGIN=NIST Mass Spectrometry Data Center, 1994
##OWNER=NIST Mass Spectrometry Data Center
Collection (C) 2014 copyright by the U.S. Secretary of Commerce
on behalf of the United States of America. All rights reserved.
##CAS REGISTRY NO=115029-22-6
##$NIST MASS SPEC NO=136757
##MOLFORM=C8 H4 F4 O2
##MW=208
##$NIST SOURCE=MSDC
##XUNITS=M/Z
##YUNITS=RELATIVE INTENSITY
##XFACTOR=1
##YFACTOR=1
##FIRSTX=17
##LASTX=210
##FIRSTY=65
##MAXX=210
##MINX=17
##MAXY=9999
##MINY=19
##NPOINTS=92
##PEAK TABLE=(XY..XY)
17,65 18,105 20,53 36,48
37,251 38,233 39,149 44,61
45,600 46,32 47,53 49,125
50,874 51,356 53,75 55,53
56,164 57,344 60,34 61,273
62,585 63,776 64,68 66,47
68,741 69,1529 70,55 71,54
72,112 73,126 74,442 75,1751
76,113 77,40 79,73 80,131
81,204 82,59 83,123 85,45
86,222 87,103 88,106 92,265
93,749 94,889 95,239 99,416
100,44 101,104 104,45 105,42
111,78 112,265 113,1332 114,551
117,81 118,77 119,47 122,49
123,130 124,33 125,442 126,41
130,48 131,57 132,296 133,41
137,64 139,166 141,123 143,1268
144,896 145,482 146,46 151,28
159,43 160,151 161,105 162,28
163,4329 164,336 169,240 180,155
188,168 189,1372 191,9999 192,879
193,50 208,5290 209,453 210,19
##END=
