##TITLE=Benzamide, 3,5-dichloro-N-(3,4-dichlorophenyl)-2-hydroxy-
##JCAMP-DX=4.24
##DATA TYPE=MASS SPECTRUM
##ORIGIN=Japan AIST/NIMC Database- Spectrum MS-IW-3913
##OWNER=NIST Mass Spectrometry Data Center
Collection (C) 2014 copyright by the U.S. Secretary of Commerce
on behalf of the United States of America. All rights reserved.
##CAS REGISTRY NO=1154-59-2
##$NIST MASS SPEC NO=236464
##MOLFORM=C13 H7 Cl4 N O2
##MW=349
##$NIST SOURCE=MSDC
##XUNITS=M/Z
##YUNITS=RELATIVE INTENSITY
##XFACTOR=1
##YFACTOR=1
##FIRSTX=35
##LASTX=357
##FIRSTY=50
##MAXX=357
##MINX=35
##MAXY=9999
##MINY=10
##NPOINTS=165
##PEAK TABLE=(XY..XY)
35,50 36,449 37,50 38,149
39,50 40,10 41,20 43,10
44,50 45,10 47,20 48,10
49,50 50,60 51,30 52,40
53,129 55,10 57,10 60,20
61,149 62,389 63,579 64,90
65,40 66,30 69,10 71,10
72,80 73,419 74,149 75,189
76,30 77,10 79,10 80,20
81,10 83,90 84,40 85,90
86,30 87,60 88,70 89,60
90,249 91,129 92,10 93,20
94,10 95,10 96,50 97,859
98,189 99,559 100,80 101,99
102,10 107,90 108,20 109,209
110,50 111,80 112,30 113,10
119,10 121,10 122,10 123,20
124,209 125,429 126,489 127,229
128,139 129,30 131,10 132,149
133,1489 134,229 135,969 136,99
137,149 138,10 144,10 145,99
146,10 147,70 148,10 149,20
151,10 152,10 153,119 154,119
155,249 156,50 157,70 158,20
159,70 160,259 161,9999 162,1029
163,6359 164,589 165,1029 166,90
172,10 173,10 174,10 175,10
186,10 187,259 188,409 189,4989
190,629 191,3109 192,279 193,509
194,40 198,10 206,30 208,20
216,10 221,10 222,20 224,10
235,10 250,10 251,10 252,10
268,10 270,10 272,10 278,10
279,20 280,10 281,10 284,10
285,20 286,10 287,20 288,10
298,10 305,20 307,10 313,60
314,30 315,129 316,40 317,90
318,20 319,20 331,30 332,10
333,50 334,10 335,20 347,30
349,1829 350,279 351,2299 352,339
353,1109 354,159 355,239 356,30
357,20
##END=
