##TITLE=Disulfide, bis(2-nitrophenyl)
##JCAMP-DX=4.24
##DATA TYPE=MASS SPECTRUM
##ORIGIN=Japan AIST/NIMC Database- Spectrum MS-NW-6215
##OWNER=NIST Mass Spectrometry Data Center
Collection (C) 2014 copyright by the U.S. Secretary of Commerce
on behalf of the United States of America. All rights reserved.
##CAS REGISTRY NO=1155-00-6
##$NIST MASS SPEC NO=232556
##MOLFORM=C12 H8 N2 O4 S2
##MW=308
##$NIST SOURCE=MSDC
##XUNITS=M/Z
##YUNITS=RELATIVE INTENSITY
##XFACTOR=1
##YFACTOR=1
##FIRSTX=26
##LASTX=312
##FIRSTY=70
##MAXX=312
##MINX=26
##MAXY=9999
##MINY=10
##NPOINTS=176
##PEAK TABLE=(XY..XY)
26,70 27,199 28,20 29,30
30,339 32,20 36,10 37,159
38,459 39,2219 40,109 41,70
42,10 43,10 44,80 45,2239
46,90 47,109 48,259 49,50
50,1289 51,1239 52,1049 53,109
54,529 55,60 56,20 57,109
58,869 59,50 60,60 61,109
62,349 63,1659 64,799 65,189
66,139 67,30 68,40 69,3479
70,3149 71,599 72,299 73,70
74,319 75,349 76,519 77,179
78,2969 79,289 80,119 81,339
82,1129 83,349 84,149 85,40
86,20 87,20 88,20 89,40
90,619 91,699 92,139 93,219
94,80 95,1469 96,6539 97,489
98,8319 99,509 100,399 101,40
102,30 103,20 104,20 105,70
106,5889 107,539 108,2009 109,209
110,249 111,60 112,20 113,30
114,30 115,70 116,20 117,10
120,20 121,30 122,129 123,40
124,99 125,30 126,179 127,90
128,50 129,10 134,40 135,20
136,30 137,20 138,4439 139,529
140,319 141,30 142,10 145,30
146,20 147,20 148,10 149,10
150,20 151,30 152,209 153,60
154,9999 155,1219 156,569 157,60
158,40 159,30 160,30 161,20
165,10 166,60 167,30 168,139
169,40 170,40 171,309 172,80
173,60 174,20 177,20 179,50
180,80 181,30 182,40 183,90
184,359 185,80 186,99 187,80
188,20 189,10 190,10 196,50
197,569 198,2349 199,429 200,149
201,30 202,10 203,40 204,10
212,10 213,10 214,99 215,50
216,30 217,10 227,559 228,80
229,40 230,10 243,99 244,30
245,10 246,10 278,10 308,3059
309,489 310,319 311,50 312,20
##END=
