##TITLE=Tris(4-chlorophenyl)phosphine
##JCAMP-DX=4.24
##DATA TYPE=MASS SPECTRUM
##ORIGIN=NIST Mass Spectrometry Data Center, 1994
##OWNER=NIST Mass Spectrometry Data Center
Collection (C) 2014 copyright by the U.S. Secretary of Commerce
on behalf of the United States of America. All rights reserved.
##CAS REGISTRY NO=1159-54-2
##$NIST MASS SPEC NO=136477
##MOLFORM=C18 H12 Cl3 P
##MW=364
##$NIST SOURCE=MSDC
##XUNITS=M/Z
##YUNITS=RELATIVE INTENSITY
##XFACTOR=1
##YFACTOR=1
##FIRSTX=36
##LASTX=371
##FIRSTY=49
##MAXX=371
##MINX=36
##MAXY=9999
##MINY=34
##NPOINTS=117
##PEAK TABLE=(XY..XY)
36,49 38,57 39,125 40,35
49,39 50,830 51,527 56,77
57,141 61,73 62,69 63,216
66,45 69,41 73,147 74,233
75,1292 76,299 77,153 80,238
81,333 84,46 85,132 86,69
87,102 91,288 92,54 93,121
98,41 99,184 101,116 103,34
104,68 105,101 106,34 107,2265
108,205 111,213 112,66 113,135
114,53 115,114 117,93 125,76
126,78 128,72 129,121 131,126
132,53 138,52 139,78 141,383
142,5450 143,530 144,1828 145,128
149,114 150,172 151,284 152,517
153,68 154,41 155,55 156,83
157,129 167,63 173,60 175,35
177,64 179,77 180,114 181,1012
182,541 183,1375 184,222 186,251
188,86 191,130 193,44 215,124
217,2128 218,301 219,713 220,108
222,244 224,162 225,42 226,53
251,1444 252,216 253,1690 254,264
255,819 256,100 257,239 258,55
259,67 291,48 293,168 298,285
299,74 300,171 301,47 302,53
327,65 328,47 329,222 330,70
331,106 364,9549 365,2658 366,9999
367,2157 368,3283 369,631 370,432
371,66
##END=
