##TITLE=1,3-Cyclohexadiene-1-carboxaldehyde, 2,6,6-trimethyl-
##JCAMP-DX=4.24
##DATA TYPE=MASS SPECTRUM
##OWNER=NIST Mass Spectrometry Data Center
Collection (C) 2014 copyright by the U.S. Secretary of Commerce
on behalf of the United States of America. All rights reserved.
##CAS REGISTRY NO=116-26-7
##$NIST MASS SPEC NO=4622
##MOLFORM=C10 H14 O
##MW=150
##$NIST SOURCE=MSDC
##XUNITS=M/Z
##YUNITS=RELATIVE INTENSITY
##XFACTOR=1
##YFACTOR=1
##FIRSTX=15
##LASTX=151
##FIRSTY=80
##MAXX=151
##MINX=15
##MAXY=9999
##MINY=50
##NPOINTS=71
##PEAK TABLE=(XY..XY)
15,80 26,80 27,1021 28,110
29,691 38,150 39,2132 40,300
41,1371 42,80 43,320 50,320
51,1021 52,370 53,891 54,100
55,370 58,50 59,50 60,701
62,160 63,500 64,150 65,1401
66,340 67,400 68,60 69,80
74,100 75,150 76,90 77,2242
78,540 79,2342 80,270 81,260
82,50 89,190 90,120 91,7427
92,1011 93,751 94,140 95,120
101,50 102,100 103,601 104,210
105,3833 106,821 107,9999 108,1001
109,220 115,160 116,80 117,270
118,50 119,550 120,160 121,6386
122,861 123,100 131,50 132,200
133,190 134,110 135,1131 136,110
149,90 150,4684 151,550
##END=
