##TITLE=Hexachloroacetone
##JCAMP-DX=4.24
##DATA TYPE=MASS SPECTRUM
##ORIGIN=Japan AIST/NIMC Database- Spectrum MS-NW- 786
##OWNER=NIST Mass Spectrometry Data Center
Collection (C) 2014 copyright by the U.S. Secretary of Commerce
on behalf of the United States of America. All rights reserved.
##CAS REGISTRY NO=116-16-5
##$NIST MASS SPEC NO=229482
##MOLFORM=C3 Cl6 O
##MW=262
##$NIST SOURCE=MSDC
##XUNITS=M/Z
##YUNITS=RELATIVE INTENSITY
##XFACTOR=1
##YFACTOR=1
##FIRSTX=12
##LASTX=266
##FIRSTY=50
##MAXX=266
##MINX=12
##MAXY=9999
##MINY=10
##NPOINTS=88
##PEAK TABLE=(XY..XY)
12,50 24,60 28,109 35,279
37,90 47,1399 48,70 49,459
50,20 52,20 53,10 56,10
57,10 59,209 60,30 61,70
63,539 65,179 70,20 71,119
72,10 73,40 76,60 77,20
78,20 82,1989 83,529 84,1299
85,289 86,199 87,129 89,30
94,359 95,20 96,269 97,60
98,60 106,60 108,40 110,679
111,169 112,439 113,109 114,70
115,20 117,9999 118,109 119,9659
120,99 121,3049 122,40 123,329
129,169 130,20 131,179 132,20
133,60 141,20 143,20 145,909
146,20 147,859 148,20 149,269
151,30 157,60 159,50 161,20
164,259 165,40 166,359 167,50
168,179 169,20 170,30 199,319
201,509 203,329 205,109 207,10
227,109 229,169 231,109 233,30
236,10 262,10 264,20 266,20
##END=
