##TITLE=1-Propene, 2-methoxy-
##JCAMP-DX=4.24
##DATA TYPE=MASS SPECTRUM
##ORIGIN=Japan AIST/NIMC Database- Spectrum MS-NW-2126
##OWNER=NIST Mass Spectrometry Data Center
Collection (C) 2014 copyright by the U.S. Secretary of Commerce
on behalf of the United States of America. All rights reserved.
##CAS REGISTRY NO=116-11-0
##$NIST MASS SPEC NO=233773
##MOLFORM=C4 H8 O
##MW=72
##$NIST SOURCE=MSDC
##XUNITS=M/Z
##YUNITS=RELATIVE INTENSITY
##XFACTOR=1
##YFACTOR=1
##FIRSTX=12
##LASTX=74
##FIRSTY=10
##MAXX=74
##MINX=12
##MAXY=9999
##MINY=10
##NPOINTS=40
##PEAK TABLE=(XY..XY)
12,10 13,30 14,169 15,689
16,10 18,10 25,40 26,289
27,1969 28,289 29,1529 30,50
31,549 32,80 33,159 36,20
37,199 38,409 39,2639 40,1329
41,6129 42,9999 43,1229 44,50
45,129 46,20 53,50 54,10
55,99 56,70 57,649 58,99
59,50 67,20 68,20 69,20
71,20 72,6369 73,299 74,20
##END=
