##TITLE=Retinal
##JCAMP-DX=4.24
##DATA TYPE=MASS SPECTRUM
##ORIGIN=S.KUSHWAHA DEPT. BIOCHEM., UNIV. OF OTTAWA, OTTAWA, CANADA
##OWNER=NIST Mass Spectrometry Data Center
Collection (C) 2014 copyright by the U.S. Secretary of Commerce
on behalf of the United States of America. All rights reserved.
##CAS REGISTRY NO=116-31-4
##$NIST MASS SPEC NO=68281
##MOLFORM=C20 H28 O
##MW=284
##$NIST SOURCE=MSDC
##XUNITS=M/Z
##YUNITS=RELATIVE INTENSITY
##XFACTOR=1
##YFACTOR=1
##FIRSTX=50
##LASTX=286
##FIRSTY=600
##MAXX=286
##MINX=50
##MAXY=9999
##MINY=100
##NPOINTS=111
##PEAK TABLE=(XY..XY)
50,600 51,1500 52,700 54,800
55,6700 56,2200 57,4500 58,800
59,600 63,1100 64,600 65,2700
66,800 67,4900 68,1200 69,7300
70,2100 71,3500 75,900 77,5300
78,1300 79,5300 80,1200 81,5500
82,1900 83,3900 84,1500 85,1400
86,700 91,9999 92,3300 93,4300
94,1000 95,8600 96,2000 97,2900
98,700 99,1000 103,1300 105,7300
106,1600 107,5100 108,1900 109,5700
110,1800 111,3500 112,900 115,2900
116,1100 117,2400 118,900 119,6900
120,1700 121,3300 122,1700 123,3100
124,900 125,1100 127,1000 128,2200
129,2000 130,1000 131,2100 132,1100
133,3700 134,1000 135,2400 136,900
137,1600 141,1100 142,900 143,1700
144,1000 145,2900 146,900 147,2000
148,1000 149,1800 157,1100 159,2700
161,1600 165,1000 166,700 169,600
171,800 173,1200 175,800 177,3300
178,800 181,1000 183,700 185,800
187,500 189,600 195,800 199,500
201,400 203,400 209,300 213,300
218,300 223,400 251,600 252,200
266,900 267,300 268,200 269,200
284,900 285,200 286,100
##END=
