##TITLE=Acetic acid, dichloro-, methyl ester
##JCAMP-DX=4.24
##DATA TYPE=MASS SPECTRUM
##ORIGIN=Japan AIST/NIMC Database- Spectrum MS-NW-4395
##OWNER=NIST Mass Spectrometry Data Center
Collection (C) 2014 copyright by the U.S. Secretary of Commerce
on behalf of the United States of America. All rights reserved.
##CAS REGISTRY NO=116-54-1
##$NIST MASS SPEC NO=229283
##MOLFORM=C3 H4 Cl2 O2
##MW=142
##$NIST SOURCE=MSDC
##XUNITS=M/Z
##YUNITS=RELATIVE INTENSITY
##XFACTOR=1
##YFACTOR=1
##FIRSTX=12
##LASTX=115
##FIRSTY=30
##MAXX=115
##MINX=12
##MAXY=9999
##MINY=10
##NPOINTS=57
##PEAK TABLE=(XY..XY)
12,30 13,119 14,90 15,2869
16,30 25,10 26,20 27,99
28,269 29,609 30,80 31,149
32,30 35,119 36,119 37,40
38,40 40,20 41,149 42,20
43,20 44,50 45,10 47,349
48,789 49,189 50,269 51,109
53,30 59,9999 60,229 61,50
62,30 63,769 64,20 65,239
76,489 77,20 78,159 79,139
81,50 82,90 83,4099 84,109
85,2639 86,40 87,429 98,70
99,10 100,40 107,30 109,10
110,30 111,129 112,10 113,109
115,20
##END=
