##TITLE=N-Benzyloxycarbonyl-L-tyrosine
##JCAMP-DX=4.24
##DATA TYPE=MASS SPECTRUM
##ORIGIN=Japan AIST/NIMC Database- Spectrum MS-NW-9123
##OWNER=NIST Mass Spectrometry Data Center
Collection (C) 2014 copyright by the U.S. Secretary of Commerce
on behalf of the United States of America. All rights reserved.
##CAS REGISTRY NO=1164-16-5
##$NIST MASS SPEC NO=234822
##MOLFORM=C17 H17 N O5
##MW=315
##$NIST SOURCE=MSDC
##XUNITS=M/Z
##YUNITS=RELATIVE INTENSITY
##XFACTOR=1
##YFACTOR=1
##FIRSTX=17
##LASTX=316
##FIRSTY=40
##MAXX=316
##MINX=17
##MAXY=9999
##MINY=10
##NPOINTS=118
##PEAK TABLE=(XY..XY)
17,40 18,10 26,10 27,139
28,219 29,80 30,80 31,30
37,10 38,30 39,289 40,30
41,209 42,30 43,80 44,269
45,10 46,10 50,109 51,339
52,129 53,189 54,50 55,259
56,769 57,40 58,10 61,10
62,30 63,109 64,30 65,339
66,40 67,50 68,30 69,20
70,50 73,10 74,30 75,20
76,20 77,1099 78,259 79,1269
80,139 81,80 82,109 83,70
84,10 89,139 90,159 91,2089
92,189 93,10 94,40 95,20
96,30 97,10 98,80 99,10
100,109 101,10 104,10 105,80
106,60 107,9999 108,1819 109,129
110,50 112,10 116,10 118,20
119,60 120,40 121,10 123,20
124,20 125,20 132,20 133,20
134,129 135,70 136,119 137,10
138,1749 139,189 140,10 144,20
147,20 148,10 152,99 153,10
160,50 161,10 162,90 163,30
164,1139 165,119 166,10 178,30
179,30 180,149 181,229 182,30
188,149 189,10 197,139 198,20
206,90 207,149 208,20 209,10
220,10 224,50 226,10 254,20
315,60 316,10
##END=
