##TITLE=Androstan-3-one, 17-(acetyloxy)-, (5.alpha.,17.beta.)-
##JCAMP-DX=4.24
##DATA TYPE=MASS SPECTRUM
##ORIGIN=Organic Synthesis Lab, MSU, Moscow.TRC 504
##OWNER=NIST Mass Spectrometry Data Center
Collection (C) 2014 copyright by the U.S. Secretary of Commerce
on behalf of the United States of America. All rights reserved.
##CAS REGISTRY NO=1164-91-6
##$NIST MASS SPEC NO=326183
##MOLFORM=C21 H32 O3
##MW=332
##$NIST SOURCE=MSDC
##XUNITS=M/Z
##YUNITS=RELATIVE INTENSITY
##XFACTOR=1
##YFACTOR=1
##FIRSTX=27
##LASTX=334
##FIRSTY=430
##MAXX=334
##MINX=27
##MAXY=9999
##MINY=30
##NPOINTS=179
##PEAK TABLE=(XY..XY)
27,430 29,961 31,60 39,470
40,120 41,2632 42,260 43,9779
44,290 45,200 51,60 52,40
53,781 54,220 55,4244 56,300
57,390 58,70 60,90 65,270
66,130 67,1932 68,1021 69,1021
70,90 71,210 77,731 78,160
79,1852 80,410 81,3163 82,520
83,320 84,170 85,160 91,1271
92,240 93,2552 94,3743 95,2803
96,310 97,410 98,120 99,70
103,70 104,60 105,1221 106,450
107,2462 108,671 109,821 110,370
111,390 112,50 115,90 116,40
117,290 118,350 119,931 120,440
121,1291 122,571 123,861 124,2532
125,320 128,70 129,140 130,90
131,540 132,240 133,951 134,420
135,881 136,320 137,591 138,140
141,30 142,40 143,250 144,240
145,621 146,470 147,1351 148,1692
149,4144 150,571 151,110 155,40
157,250 158,230 159,701 160,310
161,1561 162,661 163,1181 164,300
165,220 166,30 169,50 171,260
172,200 173,490 174,320 175,460
176,230 177,220 178,130 179,240
183,100 185,380 186,140 187,450
188,140 189,280 190,170 191,100
192,50 197,170 198,70 199,460
200,851 201,991 202,470 203,240
204,290 205,70 209,40 211,160
212,50 213,530 214,360 215,861
216,290 217,661 218,250 219,140
225,50 226,50 227,60 228,90
229,651 230,530 231,2783 232,631
233,480 234,100 235,40 239,460
240,100 243,210 244,1191 245,310
246,500 247,360 248,60 253,100
254,350 255,120 257,5845 258,1101
259,170 260,390 261,220 262,170
270,50 271,300 272,9999 273,2162
274,320 275,220 276,40 288,70
289,120 290,130 317,240 318,50
332,2262 333,561 334,100
##END=
