##TITLE=Aflatoxin G1
##JCAMP-DX=4.24
##DATA TYPE=MASS SPECTRUM
##ORIGIN=MYCOTOXINS MASS SPECTRAL DATA BANK, L.R. DUSOLD ET AL, FDA, USA
##OWNER=NIST Mass Spectrometry Data Center
Collection (C) 2014 copyright by the U.S. Secretary of Commerce
on behalf of the United States of America. All rights reserved.
##CAS REGISTRY NO=1165-39-5
##$NIST MASS SPEC NO=64292
##MOLFORM=C17 H12 O7
##MW=328
##$NIST SOURCE=MSDC
##XUNITS=M/Z
##YUNITS=RELATIVE INTENSITY
##XFACTOR=1
##YFACTOR=1
##FIRSTX=39
##LASTX=330
##FIRSTY=783
##MAXX=330
##MINX=39
##MAXY=9999
##MINY=119
##NPOINTS=63
##PEAK TABLE=(XY..XY)
39,783 43,369 44,119 50,461
51,922 53,507 55,599 62,369
63,1014 64,599 65,599 69,875
74,323 75,691 76,323 77,783
78,323 79,599 88,369 89,507
91,369 92,599 100,507 101,369
102,553 115,968 127,553 128,783
129,507 155,369 157,507 171,691
185,783 186,415 187,415 199,829
200,645 201,968 202,599 211,461
213,1014 215,415 227,1521 228,968
229,507 241,1014 242,415 243,461
255,875 256,1106 257,599 269,645
271,461 283,415 284,645 285,461
297,829 299,829 300,1014 327,553
328,9999 329,2120 330,553
##END=
