##TITLE=m,m-Quaterphenyl
##JCAMP-DX=4.24
##DATA TYPE=MASS SPECTRUM
##ORIGIN=NIST Mass Spectrometry Data Center, 1990.
##OWNER=NIST Mass Spectrometry Data Center
Collection (C) 2014 copyright by the U.S. Secretary of Commerce
on behalf of the United States of America. All rights reserved.
##CAS REGISTRY NO=1166-18-3
##$NIST MASS SPEC NO=118498
##MOLFORM=C24 H18
##MW=306
##$NIST SOURCE=MSDC
##XUNITS=M/Z
##YUNITS=RELATIVE INTENSITY
##XFACTOR=1
##YFACTOR=1
##FIRSTX=17
##LASTX=309
##FIRSTY=9
##MAXX=309
##MINX=17
##MAXY=9999
##MINY=4
##NPOINTS=128
##PEAK TABLE=(XY..XY)
17,9 18,12 19,12 27,57
28,102 32,17 38,17 39,61
44,4 50,40 51,140 52,40
62,24 63,90 65,35 74,41
75,76 76,60 77,148 78,35
86,16 87,41 88,32 89,44
91,34 94,18 98,13 99,21
100,43 101,58 102,77 103,35
106,37 111,21 112,47 113,122
114,35 115,80 118,21 119,67
124,23 125,114 126,153 127,62
128,87 129,21 131,129 132,67
137,80 138,204 139,102 140,13
141,19 144,184 149,39 150,200
151,294 152,428 153,1052 163,52
164,37 165,99 174,18 175,32
176,81 177,31 178,61 187,37
188,21 189,82 190,32 191,71
198,14 199,20 200,88 201,77
202,229 203,96 204,44 211,16
213,62 214,25 215,117 216,32
224,66 225,77 226,392 227,270
228,410 229,210 230,44 237,32
239,63 240,20 241,16 250,54
251,28 252,65 253,21 261,27
263,106 264,43 265,64 266,24
274,40 275,35 276,260 277,157
278,95 279,40 280,15 281,15
287,58 289,767 290,337 291,193
292,41 298,32 300,181 301,108
302,423 303,344 304,244 305,32
306,9999 307,2418 308,333 309,29
##END=
