##TITLE=Lauryl gallate
##JCAMP-DX=4.24
##DATA TYPE=MASS SPECTRUM
##ORIGIN=Japan AIST/NIMC Database- Spectrum MS-IW-4389
##OWNER=NIST Mass Spectrometry Data Center
Collection (C) 2014 copyright by the U.S. Secretary of Commerce
on behalf of the United States of America. All rights reserved.
##CAS REGISTRY NO=1166-52-5
##$NIST MASS SPEC NO=231662
##MOLFORM=C19 H30 O5
##MW=338
##$NIST SOURCE=MSDC
##XUNITS=M/Z
##YUNITS=RELATIVE INTENSITY
##XFACTOR=1
##YFACTOR=1
##FIRSTX=17
##LASTX=340
##FIRSTY=40
##MAXX=340
##MINX=17
##MAXY=9999
##MINY=10
##NPOINTS=95
##PEAK TABLE=(XY..XY)
17,40 18,239 27,139 28,129
29,409 30,20 31,50 32,20
38,10 39,179 40,60 41,1079
42,279 43,1179 44,70 45,20
50,30 51,90 52,20 53,90
54,129 55,1569 56,869 57,859
58,40 65,20 66,30 67,269
68,319 69,1219 70,759 71,309
72,20 73,10 76,10 77,30
78,50 79,189 80,30 81,129
82,329 83,789 84,399 85,159
86,10 91,10 93,10 94,10
95,70 96,149 97,539 98,189
99,40 105,10 106,10 107,90
108,30 109,109 110,50 111,249
112,99 113,50 121,10 123,20
124,119 125,519 126,139 127,289
128,20 135,30 137,10 138,10
139,30 140,70 141,40 142,10
149,20 152,99 153,2239 154,289
155,40 166,10 167,10 168,50
169,50 170,9999 171,1749 172,219
173,20 183,60 226,10 290,10
338,849 339,199 340,30
##END=
