##TITLE=Dichlone
##JCAMP-DX=4.24
##DATA TYPE=MASS SPECTRUM
##ORIGIN=NIST Mass Spectrometry Data Center, 1998.
##OWNER=NIST Mass Spectrometry Data Center
Collection (C) 2014 copyright by the U.S. Secretary of Commerce
on behalf of the United States of America. All rights reserved.
##CAS REGISTRY NO=117-80-6
##$NIST MASS SPEC NO=292097
##MOLFORM=C10 H4 Cl2 O2
##MW=226
##$NIST SOURCE=MSDC
##XUNITS=M/Z
##YUNITS=RELATIVE INTENSITY
##XFACTOR=1
##YFACTOR=1
##FIRSTX=24
##LASTX=232
##FIRSTY=20
##MAXX=232
##MINX=24
##MAXY=9999
##MINY=10
##NPOINTS=131
##PEAK TABLE=(XY..XY)
24,20 25,10 26,40 27,50
29,20 35,100 36,110 37,360
38,370 39,200 40,20 43,20
47,90 48,50 49,460 50,3690
51,690 52,560 53,260 54,20
55,50 59,180 60,140 61,570
62,370 63,260 64,40 65,40
66,730 67,100 71,40 72,100
73,720 74,3050 75,1830 76,3200
77,500 78,50 80,10 81,40
82,20 83,20 84,300 85,810
86,410 87,2310 88,100 89,710
90,30 94,510 95,50 96,480
97,300 98,950 99,3710 100,700
101,360 102,60 103,30 104,790
105,110 106,20 107,20 108,420
109,760 110,230 111,330 112,30
113,40 114,30 115,20 119,10
120,40 121,30 122,30 123,20
124,10 127,20 128,30 129,410
130,40 131,30 132,40 133,110
134,190 135,4420 136,540 137,1380
138,130 139,50 141,20 144,10
147,50 148,10 149,20 157,100
158,20 161,10 163,8059 164,900
165,3050 166,330 167,90 168,10
169,70 170,270 171,70 172,180
173,20 174,40 189,10 191,9999
192,1230 193,3460 194,400 195,30
197,40 198,1070 199,130 200,660
201,80 202,100 203,10 225,300
226,7639 227,1090 228,5789 229,620
230,1300 231,150 232,70
##END=
