##TITLE=1,3-Isobenzofurandione, 4,5,6,7-tetrachloro-
##JCAMP-DX=4.24
##DATA TYPE=MASS SPECTRUM
##ORIGIN=James Little,Eastman Chem.Corp.,Kingsport,TN
##OWNER=NIST Mass Spectrometry Data Center
Collection (C) 2014 copyright by the U.S. Secretary of Commerce
on behalf of the United States of America. All rights reserved.
##CAS REGISTRY NO=117-08-8
##$NIST MASS SPEC NO=245705
##MOLFORM=C8 Cl4 O3
##MW=284
##$NIST SOURCE=MSDC
##XUNITS=M/Z
##YUNITS=RELATIVE INTENSITY
##XFACTOR=1
##YFACTOR=1
##FIRSTX=37
##LASTX=292
##FIRSTY=30
##MAXX=292
##MINX=37
##MAXY=9999
##MINY=10
##NPOINTS=109
##PEAK TABLE=(XY..XY)
37,30 38,60 41,90 43,100
44,160 47,350 48,80 49,80
53,170 54,60 55,80 56,20
57,80 59,20 60,350 61,20
65,10 67,390 68,170 69,280
70,50 71,1571 72,1111 73,330
81,120 82,50 83,250 84,60
85,190 86,80 87,120 88,670
89,720 91,250 92,30 94,40
95,510 96,70 97,190 98,20
102,110 103,110 104,20 106,1681
107,4393 108,1121 109,890 110,70
111,60 118,650 119,30 120,880
121,630 122,350 123,70 130,160
132,80 135,310 136,50 137,140
142,3853 143,330 144,2472 145,170
146,380 147,10 149,20 165,50
167,30 177,1781 178,90 179,1751
180,90 181,570 182,20 183,40
205,280 206,10 207,280 208,20
209,70 212,5184 213,420 214,6495
215,450 216,3333 217,190 218,710
219,30 220,30 236,30 240,8257
241,690 242,9999 243,910 244,5585
245,430 246,1221 247,80 248,80
284,5905 285,530 286,7186 287,660
288,3793 289,320 290,820 291,50
292,50
##END=
