##TITLE=Anisindione
##JCAMP-DX=4.24
##DATA TYPE=MASS SPECTRUM
##ORIGIN=Finnigan MAT: Toxicological Library (LIBR-TX)
##OWNER=NIST Mass Spectrometry Data Center
Collection (C) 2014 copyright by the U.S. Secretary of Commerce
on behalf of the United States of America. All rights reserved.
##CAS REGISTRY NO=117-37-3
##$NIST MASS SPEC NO=120491
##MOLFORM=C16 H12 O3
##MW=252
##$NIST SOURCE=MSDC
##XUNITS=M/Z
##YUNITS=RELATIVE INTENSITY
##XFACTOR=1
##YFACTOR=1
##FIRSTX=50
##LASTX=254
##FIRSTY=279
##MAXX=254
##MINX=50
##MAXY=9999
##MINY=84
##NPOINTS=24
##PEAK TABLE=(XY..XY)
50,279 51,274 63,199 76,589
77,581 82,208 89,85 90,84
91,109 104,180 112,112 125,279
126,207 180,94 181,796 182,93
195,203 209,409 223,200 237,4398
238,709 252,9999 253,1753 254,208
##END=
