##TITLE=Benzene, 1,2,4,5-tetrachloro-3-nitro-
##JCAMP-DX=4.24
##DATA TYPE=MASS SPECTRUM
##ORIGIN=NIST Mass Spectrometry Data Center, 1998.
##OWNER=NIST Mass Spectrometry Data Center
Collection (C) 2014 copyright by the U.S. Secretary of Commerce
on behalf of the United States of America. All rights reserved.
##CAS REGISTRY NO=117-18-0
##$NIST MASS SPEC NO=290672
##MOLFORM=C6 H Cl4 N O2
##MW=259
##$NIST SOURCE=MSDC
##XUNITS=M/Z
##YUNITS=RELATIVE INTENSITY
##XFACTOR=1
##YFACTOR=1
##FIRSTX=16
##LASTX=267
##FIRSTY=10
##MAXX=267
##MINX=16
##MAXY=9999
##MINY=10
##NPOINTS=165
##PEAK TABLE=(XY..XY)
16,10 24,10 25,10 30,2360
31,10 35,200 36,230 37,570
38,40 46,470 47,390 48,80
49,310 50,20 51,10 53,10
54,30 55,10 59,30 60,440
61,620 62,90 63,80 65,40
66,20 70,10 71,560 72,730
73,2100 74,270 75,60 76,10
78,10 79,10 82,40 83,510
84,750 85,320 86,440 87,260
89,110 90,100 91,40 94,100
95,290 96,650 97,170 98,240
99,20 100,10 106,190 107,1440
108,5609 109,1070 110,1870 111,140
112,20 113,10 117,80 118,1870
119,300 120,1220 121,240 122,330
123,50 124,40 126,10 130,90
131,1090 132,130 133,670 134,60
135,90 136,10 141,360 142,1450
143,4010 144,1210 145,2500 146,320
147,390 148,20 153,70 154,10
155,60 156,20 157,20 158,20
159,40 160,10 161,30 162,10
163,10 165,30 166,200 167,70
168,270 169,50 170,80 171,10
172,10 177,2220 178,4190 179,2390
180,4040 181,940 182,1310 183,120
184,120 185,10 189,30 191,20
192,60 194,1550 195,90 196,1810
197,100 198,810 199,40 200,150
201,7919 202,460 203,9999 204,550
205,4880 206,260 207,1040 208,40
209,70 213,6079 214,440 215,7749
216,530 217,3760 218,250 219,810
220,50 221,60 224,190 225,10
226,180 227,20 228,60 229,510
230,40 231,630 232,30 233,310
234,20 235,50 243,80 244,10
245,110 246,10 247,50 249,10
259,5009 260,350 261,6359 262,430
263,3050 264,200 265,670 266,40
267,50
##END=
