##TITLE=6H-Dibenzo(b,d)pyran-1-ol, 3-hexyl-7,8,9,10-tetrahydro-6,6,9-trimethyl-
##JCAMP-DX=4.24
##DATA TYPE=MASS SPECTRUM
##ORIGIN=Finnigan MAT: Toxicological Library (LIBR-TX)
##OWNER=NIST Mass Spectrometry Data Center
Collection (C) 2014 copyright by the U.S. Secretary of Commerce
on behalf of the United States of America. All rights reserved.
##CAS REGISTRY NO=117-51-1
##$NIST MASS SPEC NO=120289
##MOLFORM=C22 H32 O2
##MW=328
##$NIST SOURCE=MSDC
##XUNITS=M/Z
##YUNITS=RELATIVE INTENSITY
##XFACTOR=1
##YFACTOR=1
##FIRSTX=41
##LASTX=329
##FIRSTY=198
##MAXX=329
##MINX=41
##MAXY=9999
##MINY=32
##NPOINTS=45
##PEAK TABLE=(XY..XY)
41,198 43,592 53,32 55,147
67,58 69,56 77,62 81,59
91,119 95,61 105,55 107,64
115,70 121,67 128,73 129,53
141,34 157,37 165,35 173,40
187,216 188,82 200,138 201,69
211,65 213,90 226,47 227,54
242,439 243,95 245,103 255,193
257,90 269,51 271,149 283,49
285,74 297,176 299,46 311,81
313,9999 314,2207 315,269 328,698
329,159
##END=
