##TITLE=Coumafuryl
##JCAMP-DX=4.24
##DATA TYPE=MASS SPECTRUM
##ORIGIN=MASS SPECTROMETRY CENTER, UNIV. OF UTAH EPA-PTSEL 3720
##OWNER=NIST Mass Spectrometry Data Center
Collection (C) 2014 copyright by the U.S. Secretary of Commerce
on behalf of the United States of America. All rights reserved.
##CAS REGISTRY NO=117-52-2
##$NIST MASS SPEC NO=52400
##MOLFORM=C17 H14 O5
##MW=298
##$NIST SOURCE=MSDC
##XUNITS=M/Z
##YUNITS=RELATIVE INTENSITY
##XFACTOR=1
##YFACTOR=1
##FIRSTX=14
##LASTX=299
##FIRSTY=199
##MAXX=299
##MINX=14
##MAXY=9999
##MINY=76
##NPOINTS=93
##PEAK TABLE=(XY..XY)
14,199 15,785 26,270 27,712
28,903 29,695 32,95 36,220
37,331 38,842 39,2369 40,311
41,411 42,372 43,7079 50,600
51,1093 52,380 53,1058 55,679
58,494 60,199 61,105 62,636
63,1820 64,1514 65,2682 66,530
67,349 69,190 74,310 75,439
76,595 77,1174 78,538 79,632
81,387 89,135 91,380 92,2594
93,1290 94,722 95,604 97,140
102,218 103,80 105,370 106,97
107,926 108,213 115,557 119,119
120,2254 121,6369 122,644 127,329
128,874 129,104 130,399 131,96
132,358 134,76 135,1034 136,523
137,215 139,108 141,287 152,86
155,308 156,263 162,606 184,232
186,361 187,2327 188,413 189,80
199,343 200,368 211,305 212,778
213,831 227,1472 228,277 237,97
239,324 240,1084 241,1461 242,597
255,9999 256,1749 257,246 298,3822
299,810
##END=
