##TITLE=Pentanoic acid, nonyl ester
##JCAMP-DX=4.24
##DATA TYPE=MASS SPECTRUM
##ORIGIN=Zaikin V.G., TIPS RAS, Moscow, Russia
##OWNER=NIST Mass Spectrometry Data Center
Collection (C) 2014 copyright by the U.S. Secretary of Commerce
on behalf of the United States of America. All rights reserved.
##CAS REGISTRY NO=117197-08-7
##$NIST MASS SPEC NO=282858
##MOLFORM=C14 H28 O2
##MW=228
##$NIST SOURCE=MSDC
##XUNITS=M/Z
##YUNITS=RELATIVE INTENSITY
##XFACTOR=1
##YFACTOR=1
##FIRSTX=26
##LASTX=186
##FIRSTY=60
##MAXX=186
##MINX=26
##MAXY=9999
##MINY=30
##NPOINTS=71
##PEAK TABLE=(XY..XY)
26,60 27,310 28,340 29,861
30,30 31,30 39,320 40,70
41,2012 42,711 43,2032 44,150
45,80 53,120 54,250 55,2312
56,3053 57,4194 58,170 59,60
60,621 61,701 67,280 68,631
69,2172 70,3143 71,1211 72,60
73,651 74,60 75,180 79,70
81,110 82,861 83,2472 84,2783
85,8458 86,390 87,140 95,80
96,370 97,3193 98,2672 99,120
100,80 101,180 102,661 103,9999
104,601 105,60 111,140 115,130
116,390 117,30 124,50 125,30
126,3653 127,310 129,110 130,40
141,70 143,180 149,310 150,30
156,40 158,80 171,240 172,30
176,30 177,100 186,50
##END=
