##TITLE=Valeric acid, tridecyl ester
##JCAMP-DX=4.24
##DATA TYPE=MASS SPECTRUM
##ORIGIN=V.Zaikin,Topchiev Inst.Petrochem.Synth.,Moscow
##OWNER=NIST Mass Spectrometry Data Center
Collection (C) 2014 copyright by the U.S. Secretary of Commerce
on behalf of the United States of America. All rights reserved.
##CAS REGISTRY NO=117177-34-1
##$NIST MASS SPEC NO=281760
##MOLFORM=C18 H36 O2
##MW=284
##$NIST SOURCE=MSDC
##XUNITS=M/Z
##YUNITS=RELATIVE INTENSITY
##XFACTOR=1
##YFACTOR=1
##FIRSTX=27
##LASTX=228
##FIRSTY=4354
##MAXX=228
##MINX=27
##MAXY=9999
##MINY=20
##NPOINTS=108
##PEAK TABLE=(XY..XY)
27,4354 28,450 29,5425 30,190
31,160 35,40 36,130 37,60
38,180 39,1922 40,440 41,9999
42,2692 43,7907 44,1001 45,330
46,40 48,20 49,40 50,110
51,230 52,80 53,721 54,1091
55,6716 56,3473 57,9459 58,671
59,110 60,1071 61,390 62,50
63,40 65,130 66,70 67,981
68,1171 69,3793 70,2402 71,1752
72,140 73,701 74,90 75,90
77,100 78,50 79,120 80,50
81,400 82,1331 83,3043 84,1932
85,6976 86,340 87,90 89,20
91,50 92,20 93,40 95,240
96,561 97,1912 98,1001 99,190
100,90 101,170 102,631 103,8117
104,621 105,50 109,80 110,170
111,1081 112,741 113,190 114,20
115,90 116,150 117,20 123,20
124,120 125,440 126,390 127,70
129,70 133,30 135,30 139,190
140,190 141,70 142,30 143,40
145,30 152,40 153,90 154,561
155,70 158,110 173,20 181,50
182,701 183,100 199,40 206,30
208,40 212,20 227,60 228,40
##END=
