##TITLE=Pyrrolidin-2-one, 5-[2-butyrylethyl]-
##JCAMP-DX=4.24
##DATA TYPE=MASS SPECTRUM
##ORIGIN=A. Brossi, LC, NIDDK, NIH, Bethesda, MD 20892
##OWNER=NIST Mass Spectrometry Data Center
Collection (C) 2014 copyright by the U.S. Secretary of Commerce
on behalf of the United States of America. All rights reserved.
##CAS REGISTRY NO=117155-75-6
##$NIST MASS SPEC NO=124326
##MOLFORM=C10 H17 N O2
##MW=183
##$NIST SOURCE=MSDC
##XUNITS=M/Z
##YUNITS=RELATIVE INTENSITY
##XFACTOR=1
##YFACTOR=1
##FIRSTX=41
##LASTX=185
##FIRSTY=2124
##MAXX=185
##MINX=41
##MAXY=9999
##MINY=4
##NPOINTS=101
##PEAK TABLE=(XY..XY)
41,2124 42,535 43,1653 44,431
45,53 48,17 49,18 50,24
51,57 52,63 53,205 54,342
55,888 56,837 57,243 58,340
59,53 60,43 61,19 63,16
65,64 66,60 67,175 68,75
69,1574 70,185 71,477 72,65
73,33 74,11 75,4 76,8
77,72 78,114 79,49 80,64
81,99 82,167 83,254 84,9999
85,816 86,99 87,18 91,24
93,30 94,81 95,93 96,125
97,4500 98,5139 99,375 100,70
101,14 105,18 106,77 107,21
108,19 109,23 110,125 111,115
112,416 113,159 114,23 115,19
119,4 120,4 121,8 122,43
123,31 124,71 125,18 126,35
127,14 128,28 129,12 136,15
137,24 138,21 139,17 140,540
141,52 149,18 150,61 151,9
152,9 153,12 154,61 155,143
156,22 157,4 158,5 164,18
165,37 166,43 168,4 171,4
181,4 182,22 183,157 184,89
185,17
##END=
