##TITLE=Cholan-24-oic acid, 3-oxo-, methyl ester, (5.beta.)-
##JCAMP-DX=4.24
##DATA TYPE=MASS SPECTRUM
##ORIGIN=P.A. SZCZEPANIK, ARGONNE NATIONAL LABORATORY, USA
##OWNER=NIST Mass Spectrometry Data Center
Collection (C) 2014 copyright by the U.S. Secretary of Commerce
on behalf of the United States of America. All rights reserved.
##CAS REGISTRY NO=1173-32-6
##$NIST MASS SPEC NO=56030
##MOLFORM=C25 H40 O3
##MW=388
##$NIST SOURCE=MSDC
##XUNITS=M/Z
##YUNITS=RELATIVE INTENSITY
##XFACTOR=1
##YFACTOR=1
##FIRSTX=100
##LASTX=388
##FIRSTY=180
##MAXX=388
##MINX=100
##MAXY=9999
##MINY=70
##NPOINTS=224
##PEAK TABLE=(XY..XY)
100,180 101,250 102,260 103,690
104,750 105,8140 106,2910 107,9999
108,6800 109,9430 110,5990 111,1950
112,640 113,350 114,460 115,2370
116,650 117,1460 118,2160 119,6350
120,3030 121,6600 122,7790 123,4640
124,4140 125,1140 126,630 127,490
128,1100 129,1140 130,670 131,4450
132,1700 133,5720 134,2160 135,4830
136,2030 137,3150 138,540 139,290
140,100 141,1070 142,1290 143,1520
144,840 145,3060 146,990 147,4370
148,1320 149,3510 150,1140 151,1040
152,170 153,420 154,1340 155,1110
156,560 157,1880 158,1580 159,5750
160,1860 161,8060 162,4660 163,3430
164,1250 165,2410 166,220 167,690
168,370 169,470 170,310 171,1570
172,860 173,2890 174,1510 175,3690
176,5260 177,1470 178,880 179,1250
180,310 181,510 183,350 184,130
185,1040 186,490 187,1640 188,720
189,2300 190,860 191,870 192,240
193,360 194,100 195,430 197,600
198,250 199,2240 200,730 201,1200
202,600 203,1370 204,470 205,410
207,210 208,600 209,290 210,110
211,720 213,6630 214,2370 215,3280
216,630 217,2190 218,810 219,560
220,130 221,120 222,140 223,170
224,220 225,240 226,290 227,630
228,800 229,1410 230,720 231,6410
232,2970 233,1050 234,390 235,200
236,170 237,350 238,100 239,290
240,150 241,280 242,260 243,510
244,750 245,850 246,5670 247,1210
248,440 249,300 250,220 252,210
253,420 254,280 255,2670 256,650
257,660 258,370 259,260 260,280
261,210 263,310 264,300 265,600
266,260 267,240 268,290 270,680
271,2790 272,3100 273,8080 274,2050
275,410 278,190 280,100 281,410
282,420 283,260 284,290 286,900
287,450 288,210 289,120 290,100
291,90 295,390 297,1100 298,410
300,540 301,490 302,890 303,230
305,230 306,170 307,90 311,100
315,2930 316,1070 318,3840 319,1410
321,430 323,760 324,280 326,190
327,270 328,1180 329,650 331,410
332,200 333,130 335,100 339,1480
341,1040 342,260 351,70 356,4130
359,80 361,130 365,100 368,80
369,110 370,940 371,540 373,1720
375,170 384,130 387,190 388,3600
##END=
