##TITLE=Cholest-5-ene, 3-methoxy-, (3.beta.)-
##JCAMP-DX=4.24
##DATA TYPE=MASS SPECTRUM
##ORIGIN=CARL DJERASSI DEPT OF CHEM STANFORD UNIV STANFORD CALIF 94305
##OWNER=NIST Mass Spectrometry Data Center
Collection (C) 2014 copyright by the U.S. Secretary of Commerce
on behalf of the United States of America. All rights reserved.
##CAS REGISTRY NO=1174-92-1
##$NIST MASS SPEC NO=48735
##MOLFORM=C28 H48 O
##MW=400
##$NIST SOURCE=MSDC
##XUNITS=M/Z
##YUNITS=RELATIVE INTENSITY
##XFACTOR=1
##YFACTOR=1
##FIRSTX=41
##LASTX=402
##FIRSTY=3168
##MAXX=402
##MINX=41
##MAXY=9999
##MINY=99
##NPOINTS=220
##PEAK TABLE=(XY..XY)
41,3168 42,297 43,3960 44,198
45,594 50,99 53,495 54,99
55,4059 56,396 57,3465 58,198
59,198 65,198 66,99 67,2277
68,396 69,2772 70,198 71,1980
72,297 73,495 77,693 78,198
79,2376 80,396 81,4554 82,495
83,1980 84,198 85,693 86,99
87,99 91,2475 92,693 93,2970
94,891 95,3366 96,495 97,1584
98,198 99,198 103,198 104,198
105,3267 106,1089 107,4950 108,1188
109,2376 110,297 111,990 112,99
113,198 114,99 115,198 116,99
117,990 118,594 119,3069 120,2475
121,3069 122,792 123,1287 124,297
125,396 127,198 128,297 129,594
130,297 131,1782 132,693 133,2475
134,891 135,1980 136,495 137,693
138,495 139,693 140,99 141,99
142,99 143,1089 144,594 145,4158
146,1188 147,2277 148,792 149,2376
150,297 151,495 152,198 153,99
155,99 156,99 157,693 158,891
159,2772 160,2079 161,2772 162,693
163,1683 164,297 165,495 166,99
169,99 171,693 172,297 173,1287
174,495 175,693 176,198 177,594
178,99 179,297 183,99 185,792
186,297 187,792 188,297 189,495
190,99 191,495 192,594 193,594
194,99 197,99 199,891 200,396
201,693 202,198 203,297 204,99
205,594 206,396 207,297 211,99
212,99 213,2673 214,792 215,693
216,198 217,297 218,99 219,594
220,198 221,99 227,495 228,792
229,693 230,99 231,198 232,99
233,297 234,99 241,396 242,198
243,99 245,594 246,594 247,2475
248,594 249,198 255,2970 256,693
257,297 259,297 260,594 261,495
262,297 271,198 273,198 274,1089
275,3762 276,990 277,198 283,297
284,198 285,99 286,198 287,792
288,297 299,198 300,297 301,2475
302,594 303,198 311,297 312,198
313,396 314,297 315,198 325,198
326,1584 327,990 328,594 329,3069
330,792 331,198 339,297 340,396
341,198 342,198 343,198 353,5742
354,1782 355,396 358,396 367,297
368,9999 369,3168 370,693 371,297
372,297 385,2475 386,891 387,297
399,198 400,6039 401,1980 402,396
##END=
