##TITLE=Norpheniramine acetate
##JCAMP-DX=4.24
##DATA TYPE=MASS SPECTRUM
##ORIGIN=Dr. Jiri Zamecnik, DCIEM, North York, Canada, GP Library
##OWNER=NIST Mass Spectrometry Data Center
Collection (C) 2014 copyright by the U.S. Secretary of Commerce
on behalf of the United States of America. All rights reserved.
##CAS REGISTRY NO=117540-10-0
##$NIST MASS SPEC NO=123369
##MOLFORM=C17 H20 N2 O
##MW=268
##$NIST SOURCE=MSDC
##XUNITS=M/Z
##YUNITS=RELATIVE INTENSITY
##XFACTOR=1
##YFACTOR=1
##FIRSTX=51
##LASTX=268
##FIRSTY=290
##MAXX=268
##MINX=51
##MAXY=9999
##MINY=110
##NPOINTS=30
##PEAK TABLE=(XY..XY)
51,290 58,160 63,130 65,130
77,280 78,340 79,210 89,130
91,270 93,250 103,170 104,170
106,210 115,280 117,200 118,170
139,260 140,190 141,110 167,3790
168,5240 169,9999 180,690 182,3480
183,600 194,500 195,400 196,450
225,320 268,200
##END=
