##TITLE=Ginsenol
##JCAMP-DX=4.24
##DATA TYPE=MASS SPECTRUM
##ORIGIN=B. Derendyaev, Novosibirsk Institute of Organic Chemistry
##OWNER=NIST Mass Spectrometry Data Center
Collection (C) 2014 copyright by the U.S. Secretary of Commerce
on behalf of the United States of America. All rights reserved.
##CAS REGISTRY NO=117591-80-7
##$NIST MASS SPEC NO=140227
##MOLFORM=C15 H26 O
##MW=222
##$NIST SOURCE=MSDC
##XUNITS=M/Z
##YUNITS=RELATIVE INTENSITY
##XFACTOR=1
##YFACTOR=1
##FIRSTX=41
##LASTX=223
##FIRSTY=1249
##MAXX=223
##MINX=41
##MAXY=9999
##MINY=50
##NPOINTS=69
##PEAK TABLE=(XY..XY)
41,1249 42,70 43,1429 53,279
54,60 55,1049 56,149 57,349
65,99 67,589 68,189 69,909
70,99 71,159 77,239 79,399
80,80 81,899 82,509 83,509
84,189 85,229 91,299 93,389
94,129 95,1029 96,349 97,429
98,189 99,269 105,229 106,60
107,479 108,329 109,899 110,229
111,309 119,209 121,359 122,209
123,1679 124,789 125,1119 126,259
133,279 135,169 136,60 137,379
138,249 139,90 147,219 148,119
149,219 151,529 152,70 161,149
163,50 164,90 165,139 166,549
167,60 179,70 189,249 204,279
207,9999 208,1529 209,119 222,1259
223,199
##END=
