##TITLE=Phenyl salicylate
##JCAMP-DX=4.24
##DATA TYPE=MASS SPECTRUM
##ORIGIN=Japan AIST/NIMC Database- Spectrum MS-NW- 679
##OWNER=NIST Mass Spectrometry Data Center
Collection (C) 2014 copyright by the U.S. Secretary of Commerce
on behalf of the United States of America. All rights reserved.
##CAS REGISTRY NO=118-55-8
##$NIST MASS SPEC NO=229426
##MOLFORM=C13 H10 O3
##MW=214
##$NIST SOURCE=MSDC
##XUNITS=M/Z
##YUNITS=RELATIVE INTENSITY
##XFACTOR=1
##YFACTOR=1
##FIRSTX=26
##LASTX=216
##FIRSTY=10
##MAXX=216
##MINX=26
##MAXY=9999
##MINY=10
##NPOINTS=36
##PEAK TABLE=(XY..XY)
26,10 27,30 28,40 37,30
38,129 39,819 40,50 50,70
51,159 52,10 53,129 55,20
61,20 62,60 63,259 64,229
65,1289 66,129 74,20 75,30
76,10 77,60 91,10 92,289
93,939 94,279 95,20 119,10
120,239 121,9999 122,779 123,60
213,10 214,1299 215,189 216,20
##END=
