##TITLE=1-Naphthalenamine, N-ethyl-
##JCAMP-DX=4.24
##DATA TYPE=MASS SPECTRUM
##ORIGIN=Japan AIST/NIMC Database- Spectrum MS-NW-4066
##OWNER=NIST Mass Spectrometry Data Center
Collection (C) 2014 copyright by the U.S. Secretary of Commerce
on behalf of the United States of America. All rights reserved.
##CAS REGISTRY NO=118-44-5
##$NIST MASS SPEC NO=232606
##MOLFORM=C12 H13 N
##MW=171
##$NIST SOURCE=MSDC
##XUNITS=M/Z
##YUNITS=RELATIVE INTENSITY
##XFACTOR=1
##YFACTOR=1
##FIRSTX=14
##LASTX=173
##FIRSTY=20
##MAXX=173
##MINX=14
##MAXY=9999
##MINY=10
##NPOINTS=114
##PEAK TABLE=(XY..XY)
14,20 15,109 25,10 26,99
27,499 28,349 29,159 30,30
39,509 40,50 41,90 42,469
43,20 44,80 49,30 50,399
51,629 52,199 53,50 54,20
55,10 56,10 57,50 58,30
61,109 62,359 63,879 64,279
65,469 66,30 67,10 69,20
70,80 71,40 72,20 73,40
74,409 75,569 76,349 77,1029
78,589 79,20 82,20 83,99
84,30 85,119 86,189 87,279
88,249 89,569 90,119 91,50
93,10 97,10 98,119 99,109
100,90 101,409 102,219 103,70
104,30 106,30 107,30 108,10
109,20 110,30 111,40 112,20
113,319 114,369 115,3169 116,559
117,139 118,10 120,10 121,10
122,20 123,10 124,10 125,60
126,619 127,1829 128,2609 129,4609
130,589 131,50 137,10 138,20
139,80 140,329 141,239 142,439
143,319 144,50 145,20 146,10
149,10 150,10 151,20 152,60
153,149 154,1329 155,659 156,9999
157,1219 158,70 166,40 167,119
168,159 169,139 170,769 171,7409
172,1059 173,70
##END=
