##TITLE=Phenol, 2,4,6-tribromo-
##JCAMP-DX=4.24
##DATA TYPE=MASS SPECTRUM
##ORIGIN=NIST Mass Spectrometry Data Center, 1994
##OWNER=NIST Mass Spectrometry Data Center
Collection (C) 2014 copyright by the U.S. Secretary of Commerce
on behalf of the United States of America. All rights reserved.
##CAS REGISTRY NO=118-79-6
##$NIST MASS SPEC NO=133988
##MOLFORM=C6 H3 Br3 O
##MW=328
##$NIST SOURCE=MSDC
##XUNITS=M/Z
##YUNITS=RELATIVE INTENSITY
##XFACTOR=1
##YFACTOR=1
##FIRSTX=4
##LASTX=335
##FIRSTY=38
##MAXX=335
##MINX=4
##MAXY=9999
##MINY=38
##NPOINTS=106
##PEAK TABLE=(XY..XY)
4,38 24,84 25,256 26,194
28,42 29,541 31,97 36,634
37,1728 38,669 39,148 45,245
48,167 49,646 50,482 51,68
52,68 53,1629 54,93 60,1149
61,4447 62,6093 63,2615 64,147
65,113 66,156 70,459 71,576
72,206 73,510 74,641 77,96
79,1322 80,503 81,1502 82,535
85,209 86,151 89,162 90,846
91,923 92,131 93,308 94,84
104,226 105,72 106,161 110,416
111,826 112,324 115,159 116,409
117,378 118,336 119,238 124,113
125,225 126,100 128,49 130,86
131,131 133,117 139,87 141,2622
142,814 143,2339 144,287 151,95
152,118 153,46 154,57 164,158
165,376 166,331 167,120 169,255
170,630 171,330 172,527 173,128
195,96 197,200 199,92 220,493
221,511 222,1012 223,903 224,488
225,376 248,483 249,230 250,995
251,423 252,561 253,170 301,181
303,180 305,55 328,3407 329,226
330,9999 331,662 332,9805 333,644
334,3032 335,210
##END=
