##TITLE=Benzoic acid, 2-hydroxy-, ethyl ester
##JCAMP-DX=4.24
##DATA TYPE=MASS SPECTRUM
##ORIGIN=NIST Mass Spectrometry Data Center, 2010
##OWNER=NIST Mass Spectrometry Data Center
Collection (C) 2014 copyright by the U.S. Secretary of Commerce
on behalf of the United States of America. All rights reserved.
##CAS REGISTRY NO=118-61-6
##$NIST MASS SPEC NO=374552
##MOLFORM=C9 H10 O3
##MW=166
##$NIST SOURCE=MSDC
##XUNITS=M/Z
##YUNITS=RELATIVE INTENSITY
##XFACTOR=1
##YFACTOR=1
##FIRSTX=15
##LASTX=168
##FIRSTY=20
##MAXX=168
##MINX=15
##MAXY=9999
##MINY=10
##NPOINTS=66
##PEAK TABLE=(XY..XY)
15,20 25,10 26,60 27,290
28,70 29,310 30,20 31,20
37,50 38,200 39,941 40,40
41,20 42,20 43,50 45,50
46,20 49,10 50,110 51,80
52,20 53,340 54,20 55,40
61,70 62,180 63,721 64,781
65,1321 66,160 67,20 68,10
69,20 74,50 75,60 76,70
77,50 78,10 79,10 80,10
81,150 82,10 90,10 91,70
92,4064 93,861 94,70 95,10
104,20 105,20 109,70 110,10
120,9999 121,2793 122,230 123,20
128,10 133,20 137,30 138,170
139,10 148,10 151,10 166,3323
167,330 168,30
##END=
