##TITLE=Phenol, 4,4'-methylenebis[2,6-bis(1,1-dimethylethyl)-
##JCAMP-DX=4.24
##DATA TYPE=MASS SPECTRUM
##ORIGIN=NIST Mass Spectrometry Data Center, 1994
##OWNER=NIST Mass Spectrometry Data Center
Collection (C) 2014 copyright by the U.S. Secretary of Commerce
on behalf of the United States of America. All rights reserved.
##CAS REGISTRY NO=118-82-1
##$NIST MASS SPEC NO=135913
##MOLFORM=C29 H44 O2
##MW=424
##$NIST SOURCE=MSDC
##XUNITS=M/Z
##YUNITS=RELATIVE INTENSITY
##XFACTOR=1
##YFACTOR=1
##FIRSTX=14
##LASTX=427
##FIRSTY=11
##MAXX=427
##MINX=14
##MAXY=9999
##MINY=11
##NPOINTS=152
##PEAK TABLE=(XY..XY)
14,11 15,80 17,35 18,56
27,93 28,114 29,648 32,53
39,137 41,1279 42,49 43,320
53,72 55,364 57,2296 58,131
59,23 65,67 67,105 69,131
77,118 78,38 79,112 81,54
83,62 91,358 92,42 93,82
95,36 103,51 104,33 105,255
106,53 107,131 108,26 109,33
115,209 116,95 117,168 118,56
119,286 120,55 121,174 127,98
128,306 129,369 130,117 131,254
132,68 133,197 134,46 135,70
138,49 139,43 140,40 141,165
142,130 143,210 144,102 145,385
146,113 147,434 148,75 149,37
152,43 153,279 154,92 155,96
156,63 157,100 158,45 159,125
160,79 161,442 162,61 163,110
165,77 166,32 167,61 168,47
169,489 171,59 173,81 174,56
175,193 177,34 178,43 179,49
181,33 182,42 183,341 185,148
186,30 187,121 188,61 189,163
190,50 191,64 195,33 197,456
201,30 202,59 203,549 204,109
205,128 206,43 207,32 209,31
215,53 216,83 217,116 218,30
219,1397 220,230 221,51 229,41
231,37 233,99 235,37 243,27
249,28 293,25 309,40 319,41
321,45 323,30 335,58 337,76
338,30 349,34 351,147 352,44
365,215 367,2978 368,694 369,80
379,48 381,155 391,43 393,183
394,79 405,35 407,264 409,9999
410,3027 411,494 412,55 422,64
424,7382 425,2235 426,398 427,55
##END=
