##TITLE=Benzene, 1,3-dichloro-2-methyl-
##JCAMP-DX=4.24
##DATA TYPE=MASS SPECTRUM
##ORIGIN=Japan AIST/NIMC Database- Spectrum MS-NW- 588
##OWNER=NIST Mass Spectrometry Data Center
Collection (C) 2014 copyright by the U.S. Secretary of Commerce
on behalf of the United States of America. All rights reserved.
##CAS REGISTRY NO=118-69-4
##$NIST MASS SPEC NO=228557
##MOLFORM=C7 H6 Cl2
##MW=160
##$NIST SOURCE=MSDC
##XUNITS=M/Z
##YUNITS=RELATIVE INTENSITY
##XFACTOR=1
##YFACTOR=1
##FIRSTX=15
##LASTX=165
##FIRSTY=10
##MAXX=165
##MINX=15
##MAXY=9999
##MINY=10
##NPOINTS=75
##PEAK TABLE=(XY..XY)
15,10 26,40 27,60 35,20
36,50 37,159 38,209 39,649
40,40 41,20 42,10 43,289
44,739 45,20 47,40 48,30
49,119 50,319 51,329 52,20
60,80 61,319 62,1029 63,1529
64,219 65,109 71,10 72,60
73,569 74,179 75,249 76,20
77,20 79,20 80,80 81,50
83,20 84,80 85,159 86,199
87,219 88,99 89,3709 90,519
91,40 96,30 97,179 98,30
99,529 100,40 101,159 102,10
107,20 108,10 109,50 110,10
111,20 121,10 123,359 124,1029
125,9999 126,1089 127,3229 128,239
129,10 133,70 135,50 158,10
159,669 160,4719 161,799 162,3039
163,309 164,499 165,40
##END=
