##TITLE=2-Ethylhexyl salicylate
##JCAMP-DX=4.24
##DATA TYPE=MASS SPECTRUM
##ORIGIN=Japan AIST/NIMC Database- Spectrum MS-IW-4193
##OWNER=NIST Mass Spectrometry Data Center
Collection (C) 2014 copyright by the U.S. Secretary of Commerce
on behalf of the United States of America. All rights reserved.
##CAS REGISTRY NO=118-60-5
##$NIST MASS SPEC NO=237295
##MOLFORM=C15 H22 O3
##MW=250
##$NIST SOURCE=MSDC
##XUNITS=M/Z
##YUNITS=RELATIVE INTENSITY
##XFACTOR=1
##YFACTOR=1
##FIRSTX=26
##LASTX=252
##FIRSTY=10
##MAXX=252
##MINX=26
##MAXY=9999
##MINY=10
##NPOINTS=69
##PEAK TABLE=(XY..XY)
26,10 27,179 28,90 29,589
30,10 31,10 38,20 39,389
40,40 41,1399 42,299 43,2489
44,90 50,10 51,20 53,99
54,50 55,1389 56,719 57,3459
58,149 59,10 62,10 63,90
64,129 65,689 66,50 67,70
68,60 69,669 70,3049 71,2409
72,139 75,10 76,10 77,20
79,10 81,40 82,199 83,1889
84,749 85,60 91,20 92,599
93,659 94,90 95,10 97,99
98,20 109,10 111,10 112,2249
113,269 114,10 119,10 120,9999
121,3869 122,329 123,20 134,10
137,20 138,8569 139,1459 140,129
141,10 151,10 250,1169 251,199
252,20
##END=
