##TITLE=p-Benzoquinone, 2,3,5,6-tetrachloro-
##JCAMP-DX=4.24
##DATA TYPE=MASS SPECTRUM
##ORIGIN=Japan AIST/NIMC Database- Spectrum MS-NW-1394
##OWNER=NIST Mass Spectrometry Data Center
Collection (C) 2014 copyright by the U.S. Secretary of Commerce
on behalf of the United States of America. All rights reserved.
##CAS REGISTRY NO=118-75-2
##$NIST MASS SPEC NO=233499
##MOLFORM=C6 Cl4 O2
##MW=244
##$NIST SOURCE=MSDC
##XUNITS=M/Z
##YUNITS=RELATIVE INTENSITY
##XFACTOR=1
##YFACTOR=1
##FIRSTX=12
##LASTX=253
##FIRSTY=239
##MAXX=253
##MINX=12
##MAXY=9999
##MINY=10
##NPOINTS=174
##PEAK TABLE=(XY..XY)
12,239 14,50 16,60 17,20
18,89 20,10 24,409 25,20
27,10 28,30 29,30 35,369
36,689 37,109 38,80 39,10
40,50 41,20 42,10 43,30
44,349 45,10 47,1259 48,499
49,419 50,10 51,10 52,819
53,90 55,30 56,20 57,30
59,1079 60,449 61,359 62,30
63,209 64,30 65,159 66,50
67,10 68,10 69,10 70,10
71,449 72,20 73,169 74,20
75,10 76,50 77,40 78,20
79,10 80,60 81,20 82,40
83,1159 84,109 85,389 86,30
87,9999 88,359 89,3149 90,119
91,40 92,20 93,10 94,2119
95,469 96,1339 97,129 98,219
99,10 105,20 106,129 107,30
108,70 109,10 110,10 111,289
112,20 113,119 114,10 118,1359
119,119 120,909 121,80 122,909
123,70 124,519 125,30 126,80
129,20 130,109 131,30 132,70
133,10 134,10 141,50 143,50
145,20 146,10 147,229 148,20
149,139 150,60 151,20 152,30
153,1219 154,139 155,1149 156,139
157,469 158,50 159,119 160,10
161,30 163,10 164,10 165,50
166,10 167,40 168,10 169,20
175,90 176,10 177,60 178,10
179,10 180,10 181,1749 182,219
183,1689 184,199 185,549 186,70
187,80 188,1949 189,90 190,2439
191,119 192,1189 193,70 194,269
195,20 196,20 202,10 209,4569
210,399 211,4319 212,399 213,1409
214,139 215,159 216,1879 217,119
218,2329 219,149 220,1159 221,70
222,249 223,10 224,20 232,10
244,4899 245,339 246,6689 247,489
248,3679 249,269 250,999 251,70
252,139 253,10
##END=
