##TITLE=Cholest-5-en-3-ol (3.beta.)-, nonanoate
##JCAMP-DX=4.24
##DATA TYPE=MASS SPECTRUM
##ORIGIN=RADIAN CORP
##OWNER=NIST Mass Spectrometry Data Center
Collection (C) 2014 copyright by the U.S. Secretary of Commerce
on behalf of the United States of America. All rights reserved.
##CAS REGISTRY NO=1182-66-7
##$NIST MASS SPEC NO=76460
##MOLFORM=C36 H62 O2
##MW=526
##$NIST SOURCE=MSDC
##XUNITS=M/Z
##YUNITS=RELATIVE INTENSITY
##XFACTOR=1
##YFACTOR=1
##FIRSTX=27
##LASTX=527
##FIRSTY=190
##MAXX=527
##MINX=27
##MAXY=9999
##MINY=10
##NPOINTS=218
##PEAK TABLE=(XY..XY)
27,190 29,440 39,170 40,50
41,1810 42,480 43,5050 44,190
45,30 53,160 54,120 55,2530
56,630 57,4340 58,200 59,40
60,400 61,10 65,80 66,40
67,1620 68,330 69,2360 70,480
71,2900 72,170 73,290 77,330
78,170 79,1670 80,350 81,4070
82,440 83,1390 84,190 85,400
86,10 87,90 89,80 91,2370
92,680 93,2840 94,790 95,3550
96,390 97,1090 98,150 99,80
100,30 101,70 103,200 104,320
105,3870 106,1220 107,3330 108,1120
109,2260 110,280 111,580 112,70
113,120 114,100 115,360 116,190
117,1460 118,860 119,2630 120,2250
121,2690 122,640 123,1040 124,130
125,190 127,230 128,350 129,960
130,490 131,2330 132,720 133,2900
134,830 135,1930 136,390 137,420
138,60 139,160 140,10 141,1620
142,530 143,2080 144,960 145,5100
146,1850 147,5680 148,1370 149,1260
150,180 151,290 152,60 153,70
154,30 155,220 156,210 157,1260
158,1120 159,3030 160,1630 161,1850
162,510 163,830 164,130 165,210
166,10 167,10 168,10 169,190
170,110 171,650 172,320 173,1030
174,370 175,590 176,160 177,260
178,40 179,130 183,170 184,90
185,600 186,220 187,420 188,100
189,210 190,60 191,230 192,80
193,230 194,20 197,240 198,110
199,670 200,320 201,480 202,120
203,120 204,50 205,380 206,360
207,150 211,130 212,180 213,1570
214,470 215,420 216,130 217,100
218,50 219,170 220,30 225,40
226,60 227,220 228,320 229,340
230,70 231,80 232,10 233,50
239,100 240,40 241,180 242,70
243,100 245,320 246,330 247,1870
248,420 249,50 253,250 254,140
255,1700 256,430 257,110 258,80
259,260 260,1950 261,520 262,80
267,20 269,20 273,40 274,190
275,90 281,20 282,60 283,210
284,80 287,10 297,50 311,20
313,30 314,30 326,340 327,100
339,40 340,20 351,100 352,20
353,1970 354,580 355,100 366,330
367,190 368,9999 369,3370 370,610
371,80 527,30
##END=
