##TITLE=2-Fluoropropene
##JCAMP-DX=4.24
##DATA TYPE=MASS SPECTRUM
##OWNER=NIST Mass Spectrometry Data Center
Collection (C) 2014 copyright by the U.S. Secretary of Commerce
on behalf of the United States of America. All rights reserved.
##CAS REGISTRY NO=1184-60-7
##$NIST MASS SPEC NO=152
##MOLFORM=C3 H5 F
##MW=60
##$NIST SOURCE=MSDC
##XUNITS=M/Z
##YUNITS=RELATIVE INTENSITY
##XFACTOR=1
##YFACTOR=1
##FIRSTX=12
##LASTX=61
##FIRSTY=40
##MAXX=61
##MINX=12
##MAXY=9999
##MINY=10
##NPOINTS=36
##PEAK TABLE=(XY..XY)
12,40 13,60 14,130 15,170
16,10 19,140 20,90 24,30
25,80 26,340 27,1361 28,70
29,30 31,701 32,130 33,1601
34,20 35,10 36,230 37,701
38,811 39,3553 40,711 41,330
42,10 43,30 44,320 45,1331
46,80 55,40 56,190 57,1371
58,380 59,9999 60,5755 61,180
##END=
