##TITLE=2,2-Dimethylvaleric acid
##JCAMP-DX=4.24
##DATA TYPE=MASS SPECTRUM
##ORIGIN=NIST Mass Spectrometry Data Center, 1994
##OWNER=NIST Mass Spectrometry Data Center
Collection (C) 2014 copyright by the U.S. Secretary of Commerce
on behalf of the United States of America. All rights reserved.
##CAS REGISTRY NO=1185-39-3
##$NIST MASS SPEC NO=135318
##MOLFORM=C7 H14 O2
##MW=130
##$NIST SOURCE=MSDC
##XUNITS=M/Z
##YUNITS=RELATIVE INTENSITY
##XFACTOR=1
##YFACTOR=1
##FIRSTX=18
##LASTX=115
##FIRSTY=20
##MAXX=115
##MINX=18
##MAXY=9999
##MINY=2
##NPOINTS=46
##PEAK TABLE=(XY..XY)
18,20 30,82 37,81 39,3289
41,4624 43,9999 44,59 46,2
47,3 50,117 51,225 52,83
53,478 54,2 55,1206 56,564
57,1817 58,142 60,83 61,12
62,29 63,35 65,77 66,31
67,142 68,80 69,843 70,465
71,80 72,12 73,2587 77,27
79,14 81,18 83,220 85,6126
86,456 88,4698 89,220 90,21
97,42 99,16 101,542 102,103
103,13 115,64
##END=
