##TITLE=Silane, trimethoxymethyl-
##JCAMP-DX=4.24
##DATA TYPE=MASS SPECTRUM
##ORIGIN=Japan AIST/NIMC Database- Spectrum MS-NW-4214
##OWNER=NIST Mass Spectrometry Data Center
Collection (C) 2014 copyright by the U.S. Secretary of Commerce
on behalf of the United States of America. All rights reserved.
##CAS REGISTRY NO=1185-55-3
##$NIST MASS SPEC NO=230276
##MOLFORM=C4 H12 O3 Si
##MW=136
##$NIST SOURCE=MSDC
##XUNITS=M/Z
##YUNITS=RELATIVE INTENSITY
##XFACTOR=1
##YFACTOR=1
##FIRSTX=14
##LASTX=137
##FIRSTY=20
##MAXX=137
##MINX=14
##MAXY=9999
##MINY=10
##NPOINTS=44
##PEAK TABLE=(XY..XY)
14,20 15,269 27,10 28,119
29,159 30,20 31,179 32,20
42,20 43,99 44,20 45,339
46,30 47,80 58,30 59,989
60,209 61,619 62,40 63,30
67,119 74,289 75,1439 76,129
77,99 89,30 90,159 91,3919
92,299 93,149 98,10 104,90
105,1349 106,119 107,60 119,20
120,20 121,9999 122,859 123,429
124,10 135,80 136,80 137,10
##END=
