##TITLE=1-Hepten-4-ol, 4-methyl-
##JCAMP-DX=4.24
##DATA TYPE=MASS SPECTRUM
##ORIGIN=NIST Mass Spectrometry Data Center, 1990.
##OWNER=NIST Mass Spectrometry Data Center
Collection (C) 2014 copyright by the U.S. Secretary of Commerce
on behalf of the United States of America. All rights reserved.
##CAS REGISTRY NO=1186-31-8
##$NIST MASS SPEC NO=114519
##MOLFORM=C8 H16 O
##MW=128
##$NIST SOURCE=MSDC
##XUNITS=M/Z
##YUNITS=RELATIVE INTENSITY
##XFACTOR=1
##YFACTOR=1
##FIRSTX=14
##LASTX=110
##FIRSTY=150
##MAXX=110
##MINX=14
##MAXY=9999
##MINY=143
##NPOINTS=35
##PEAK TABLE=(XY..XY)
14,150 27,1021 28,189 29,796
31,385 39,2310 40,542 41,3607
43,9627 45,9369 46,226 51,246
53,573 54,143 55,712 56,148
57,545 58,347 59,193 65,244
66,145 67,1099 68,359 69,2734
70,292 71,1824 77,260 79,397
81,456 82,143 85,2090 87,9999
88,535 95,766 110,285
##END=
