##TITLE=Phosphorothioic acid, O,O,S-triethyl ester
##JCAMP-DX=4.24
##DATA TYPE=MASS SPECTRUM
##ORIGIN=Dennis Rohrbaugh, CBDCOM/ERDEC, Edgewood, MD
##OWNER=NIST Mass Spectrometry Data Center
Collection (C) 2014 copyright by the U.S. Secretary of Commerce
on behalf of the United States of America. All rights reserved.
##CAS REGISTRY NO=1186-09-0
##$NIST MASS SPEC NO=226526
##MOLFORM=C6 H15 O3 P S
##MW=198
##$NIST SOURCE=MSDC
##XUNITS=M/Z
##YUNITS=RELATIVE INTENSITY
##XFACTOR=1
##YFACTOR=1
##FIRSTX=27
##LASTX=198
##FIRSTY=4451
##MAXX=198
##MINX=27
##MAXY=9999
##MINY=194
##NPOINTS=35
##PEAK TABLE=(XY..XY)
27,4451 29,4725 35,2507 45,4082
60,4680 61,4670 62,9989 65,5901
75,882 81,9999 82,7476 83,5408
91,4934 93,7471 97,6968 109,7955
110,5971 111,5971 112,194 113,697
114,687 115,1295 125,2766 126,2970
137,692 138,2955 139,902 141,892
142,2003 143,697 153,1291 154,2492
169,1291 170,3972 198,4984
##END=
