##TITLE=Dimethyl 2,3-Dibromo-1,4-butanedioate, (2R,3R)-rel-
##JCAMP-DX=4.24
##DATA TYPE=MASS SPECTRUM
##ORIGIN=NIST Mass Spectrometry Data Center, 1994
##OWNER=NIST Mass Spectrometry Data Center
Collection (C) 2014 copyright by the U.S. Secretary of Commerce
on behalf of the United States of America. All rights reserved.
##CAS REGISTRY NO=1186-98-7
##$NIST MASS SPEC NO=135706
##MOLFORM=C6 H8 Br2 O4
##MW=302
##$NIST SOURCE=MSDC
##XUNITS=M/Z
##YUNITS=RELATIVE INTENSITY
##XFACTOR=1
##YFACTOR=1
##FIRSTX=15
##LASTX=275
##FIRSTY=2924
##MAXX=275
##MINX=15
##MAXY=9999
##MINY=3
##NPOINTS=129
##PEAK TABLE=(XY..XY)
15,2924 16,77 17,25 18,28
25,517 26,3538 27,564 28,382
29,2564 30,648 31,288 32,13
33,15 36,23 37,77 38,89
39,839 40,82 41,573 42,278
43,3 44,56 45,174 47,48
51,16 53,1976 54,1184 55,314
56,38 57,171 58,3 59,9999
60,222 61,45 68,28 69,295
70,16 71,29 72,13 75,621
76,20 79,209 80,129 81,357
82,338 83,32 84,13 85,2383
86,121 87,16 91,25 92,63
93,155 94,121 95,158 96,72
97,29 99,44 100,38 104,177
105,1171 106,183 107,1095 108,34
109,231 111,249 113,2377 114,232
115,32 119,79 120,56 121,91
122,48 123,172 125,149 131,39
133,1783 135,1675 136,99 137,16
138,45 149,10 151,13 153,22
155,15 161,12 163,54 164,120
165,63 166,117 167,18 173,12
175,13 177,19 179,1726 181,1592
182,98 183,37 184,88 185,45
186,136 187,28 188,73 189,13
190,12 191,2634 192,12 193,2462
194,153 195,287 197,250 199,102
201,219 203,95 211,28 213,44
215,31 217,13 223,925 225,946
226,57 239,15 241,32 243,39
245,42 247,25 271,124 273,269
275,113
##END=
