##TITLE=Propanamide, N-methyl-
##JCAMP-DX=4.24
##DATA TYPE=MASS SPECTRUM
##ORIGIN=Japan AIST/NIMC Database- Spectrum MS-NW-2881
##OWNER=NIST Mass Spectrometry Data Center
Collection (C) 2014 copyright by the U.S. Secretary of Commerce
on behalf of the United States of America. All rights reserved.
##CAS REGISTRY NO=1187-58-2
##$NIST MASS SPEC NO=231159
##MOLFORM=C4 H9 N O
##MW=87
##$NIST SOURCE=MSDC
##XUNITS=M/Z
##YUNITS=RELATIVE INTENSITY
##XFACTOR=1
##YFACTOR=1
##FIRSTX=13
##LASTX=89
##FIRSTY=10
##MAXX=89
##MINX=13
##MAXY=9999
##MINY=10
##NPOINTS=42
##PEAK TABLE=(XY..XY)
13,10 14,50 15,969 16,10
25,30 26,299 27,1169 28,1389
29,4399 30,1759 31,239 32,939
33,10 37,20 38,20 39,40
40,20 41,60 42,159 43,90
44,349 45,10 51,10 52,20
53,40 54,50 55,469 56,979
57,3399 58,9999 59,539 60,40
68,50 69,10 70,20 72,50
73,10 84,10 86,559 87,6539
88,329 89,20
##END=
