##TITLE=Urea, tetraethyl-
##JCAMP-DX=4.24
##DATA TYPE=MASS SPECTRUM
##ORIGIN=Japan AIST/NIMC Database- Spectrum MS-NW-2223
##OWNER=NIST Mass Spectrometry Data Center
Collection (C) 2014 copyright by the U.S. Secretary of Commerce
on behalf of the United States of America. All rights reserved.
##CAS REGISTRY NO=1187-03-7
##$NIST MASS SPEC NO=234066
##MOLFORM=C9 H20 N2 O
##MW=172
##$NIST SOURCE=MSDC
##XUNITS=M/Z
##YUNITS=RELATIVE INTENSITY
##XFACTOR=1
##YFACTOR=1
##FIRSTX=14
##LASTX=174
##FIRSTY=10
##MAXX=174
##MINX=14
##MAXY=9999
##MINY=10
##NPOINTS=54
##PEAK TABLE=(XY..XY)
14,10 15,229 18,10 26,60
27,869 28,379 29,3599 30,409
39,20 40,40 41,119 42,869
43,149 44,2069 45,40 46,10
52,20 54,40 55,40 56,829
57,119 58,3109 59,109 60,10
69,10 70,269 71,279 72,9999
73,889 74,289 75,10 84,149
85,10 86,60 87,10 99,20
100,9019 101,589 102,40 106,10
113,60 115,30 127,40 129,40
141,10 143,209 144,109 155,40
157,159 158,10 170,20 172,1949
173,219 174,20
##END=
