##TITLE=S-Methyl-L-cysteine
##JCAMP-DX=4.24
##DATA TYPE=MASS SPECTRUM
##ORIGIN=Japan AIST/NIMC Database- Spectrum MS-NW-4973
##OWNER=NIST Mass Spectrometry Data Center
Collection (C) 2014 copyright by the U.S. Secretary of Commerce
on behalf of the United States of America. All rights reserved.
##CAS REGISTRY NO=1187-84-4
##$NIST MASS SPEC NO=230080
##MOLFORM=C4 H9 N O2 S
##MW=135
##$NIST SOURCE=MSDC
##XUNITS=M/Z
##YUNITS=RELATIVE INTENSITY
##XFACTOR=1
##YFACTOR=1
##FIRSTX=12
##LASTX=138
##FIRSTY=10
##MAXX=138
##MINX=12
##MAXY=9999
##MINY=10
##NPOINTS=75
##PEAK TABLE=(XY..XY)
12,10 13,20 14,109 15,779
16,30 17,109 18,389 25,10
26,80 27,889 28,3159 29,259
30,1199 31,30 32,40 33,30
34,50 35,1109 36,10 37,50
38,20 39,50 40,149 41,539
42,1999 43,3609 44,899 45,1079
46,1049 47,1179 48,369 49,99
50,10 53,10 54,10 55,90
56,159 57,149 58,149 59,159
60,119 61,9999 62,7159 63,649
64,339 65,10 68,10 69,30
70,99 71,40 72,60 73,239
74,5829 75,849 76,80 77,40
85,20 87,1169 88,129 89,119
90,3769 91,179 92,169 100,30
101,20 103,109 105,20 116,10
118,389 119,30 120,20 135,3019
136,199 137,159 138,10
##END=
