##TITLE=N-Acetyl-L-leucine
##JCAMP-DX=4.24
##DATA TYPE=MASS SPECTRUM
##ORIGIN=Japan AIST/NIMC Database- Spectrum MS-NW-2004
##OWNER=NIST Mass Spectrometry Data Center
Collection (C) 2014 copyright by the U.S. Secretary of Commerce
on behalf of the United States of America. All rights reserved.
##CAS REGISTRY NO=1188-21-2
##$NIST MASS SPEC NO=229985
##MOLFORM=C8 H15 N O3
##MW=173
##$NIST SOURCE=MSDC
##XUNITS=M/Z
##YUNITS=RELATIVE INTENSITY
##XFACTOR=1
##YFACTOR=1
##FIRSTX=14
##LASTX=174
##FIRSTY=99
##MAXX=174
##MINX=14
##MAXY=9999
##MINY=10
##NPOINTS=86
##PEAK TABLE=(XY..XY)
14,99 15,819 16,10 17,99
18,409 26,99 27,979 28,1129
29,709 30,3239 31,50 32,10
37,20 38,70 39,659 40,239
41,1709 42,959 43,6339 44,4099
45,159 46,119 50,30 51,50
52,30 53,169 54,90 55,289
56,279 57,1099 58,60 59,189
60,1139 61,30 65,20 66,20
67,149 68,559 69,369 70,1259
71,399 72,219 73,169 74,1909
75,449 76,30 81,70 82,30
83,30 84,339 85,999 86,9999
87,599 88,549 89,40 94,20
95,50 96,259 97,70 98,50
99,2899 100,159 101,40 109,10
110,10 111,30 112,579 113,179
114,239 115,90 116,369 117,2549
118,119 119,20 126,20 127,99
128,3789 129,499 130,379 131,50
137,30 140,20 155,50 158,90
173,149 174,20
##END=
