##TITLE=N-Acetyl-L-glutamic acid
##JCAMP-DX=4.24
##DATA TYPE=MASS SPECTRUM
##ORIGIN=Japan AIST/NIMC Database- Spectrum MS-NW-3030
##OWNER=NIST Mass Spectrometry Data Center
Collection (C) 2014 copyright by the U.S. Secretary of Commerce
on behalf of the United States of America. All rights reserved.
##CAS REGISTRY NO=1188-37-0
##$NIST MASS SPEC NO=231483
##MOLFORM=C7 H11 N O5
##MW=189
##$NIST SOURCE=MSDC
##XUNITS=M/Z
##YUNITS=RELATIVE INTENSITY
##XFACTOR=1
##YFACTOR=1
##FIRSTX=12
##LASTX=189
##FIRSTY=40
##MAXX=189
##MINX=12
##MAXY=9999
##MINY=10
##NPOINTS=119
##PEAK TABLE=(XY..XY)
12,40 13,50 14,479 15,979
16,60 17,379 18,1519 24,20
25,50 26,369 27,879 28,2269
29,429 30,399 31,169 32,70
34,20 36,60 37,70 38,139
39,599 40,289 41,1859 42,1369
43,9109 44,959 45,859 46,109
47,10 50,30 51,70 52,149
53,109 54,569 55,789 56,2059
57,1029 58,80 59,80 60,579
61,50 63,10 64,20 65,20
66,70 67,169 68,529 69,90
70,90 71,90 72,149 73,159
74,1089 75,70 76,10 77,10
78,10 79,30 80,90 81,70
82,369 83,929 84,9999 85,1479
86,459 87,159 88,199 89,10
91,20 93,10 94,10 95,40
96,10 97,80 98,179 99,369
100,309 101,209 102,4369 103,219
104,30 105,10 107,20 108,10
109,40 110,60 111,759 112,219
113,80 114,20 115,40 116,209
117,119 118,10 119,10 125,99
126,1769 127,299 128,119 129,319
130,339 131,30 132,10 141,10
143,149 144,1849 145,249 146,189
147,40 153,479 154,40 155,10
156,10 158,80 159,20 160,20
171,419 172,40 189,50
##END=
