##TITLE=1,3-Butylene glycol dimethacrylate
##JCAMP-DX=4.24
##DATA TYPE=MASS SPECTRUM
##ORIGIN=Japan AIST/NIMC Database- Spectrum MS-NW-5160
##OWNER=NIST Mass Spectrometry Data Center
Collection (C) 2014 copyright by the U.S. Secretary of Commerce
on behalf of the United States of America. All rights reserved.
##CAS REGISTRY NO=1189-08-8
##$NIST MASS SPEC NO=232646
##MOLFORM=C12 H18 O4
##MW=226
##$NIST SOURCE=MSDC
##XUNITS=M/Z
##YUNITS=RELATIVE INTENSITY
##XFACTOR=1
##YFACTOR=1
##FIRSTX=15
##LASTX=226
##FIRSTY=80
##MAXX=226
##MINX=15
##MAXY=9999
##MINY=10
##NPOINTS=88
##PEAK TABLE=(XY..XY)
15,80 18,10 26,40 27,219
28,99 29,199 31,60 37,20
38,70 39,1229 40,399 41,4289
42,309 43,309 44,30 45,169
51,10 53,60 54,449 55,2019
56,169 57,60 58,30 59,80
67,30 68,319 69,9999 70,549
71,469 72,50 73,30 79,20
80,20 81,50 82,99 83,20
84,20 85,30 86,189 87,799
88,40 89,10 94,50 95,419
96,60 97,60 98,139 99,90
100,20 101,60 102,10 107,10
108,129 109,30 110,30 111,269
112,169 113,149 114,20 115,10
117,10 122,20 123,10 125,90
126,129 127,30 128,20 136,199
137,30 138,10 139,10 140,789
141,869 142,99 143,10 144,10
153,10 154,109 155,50 157,30
171,20 172,229 173,20 180,30
181,10 198,20 208,20 226,30
##END=
