##TITLE=Phosphonofluoridic acid, ethyl-, isopropyl ester
##JCAMP-DX=4.24
##DATA TYPE=MASS SPECTRUM
##ORIGIN=VERIFIN - Methodology B1-1979
##OWNER=NIST Mass Spectrometry Data Center
Collection (C) 2014 copyright by the U.S. Secretary of Commerce
on behalf of the United States of America. All rights reserved.
##CAS REGISTRY NO=1189-87-3
##$NIST MASS SPEC NO=226132
##MOLFORM=C5 H12 F O2 P
##MW=154
##$NIST SOURCE=MSDC
##XUNITS=M/Z
##YUNITS=RELATIVE INTENSITY
##XFACTOR=1
##YFACTOR=1
##FIRSTX=27
##LASTX=153
##FIRSTY=300
##MAXX=153
##MINX=27
##MAXY=9999
##MINY=20
##NPOINTS=25
##PEAK TABLE=(XY..XY)
27,300 28,200 29,400 32,50
39,400 40,60 41,600 42,400
43,800 44,60 45,80 59,200
65,100 67,200 84,600 85,400
93,100 95,200 111,300 112,300
113,9999 114,200 139,3503 140,100
153,20
##END=
