##TITLE=1,2-Benzenedicarboxylic acid, decyl octyl ester
##JCAMP-DX=4.24
##DATA TYPE=MASS SPECTRUM
##ORIGIN=NIST Mass Spectrometry Data Center, 1994
##OWNER=NIST Mass Spectrometry Data Center
Collection (C) 2014 copyright by the U.S. Secretary of Commerce
on behalf of the United States of America. All rights reserved.
##CAS REGISTRY NO=119-07-3
##$NIST MASS SPEC NO=134026
##MOLFORM=C26 H42 O4
##MW=418
##$NIST SOURCE=MSDC
##XUNITS=M/Z
##YUNITS=RELATIVE INTENSITY
##XFACTOR=1
##YFACTOR=1
##FIRSTX=15
##LASTX=418
##FIRSTY=13
##MAXX=418
##MINX=15
##MAXY=9999
##MINY=3
##NPOINTS=84
##PEAK TABLE=(XY..XY)
15,13 27,326 29,854 30,22
31,20 39,191 41,1617 42,498
43,1991 44,63 50,62 51,22
53,78 54,126 55,870 56,388
57,916 58,46 65,118 66,21
67,97 68,101 69,386 70,250
71,378 72,27 74,11 76,214
77,80 78,10 79,26 80,9
81,27 82,51 83,160 84,95
85,127 86,8 93,117 94,10
95,11 96,8 97,54 98,15
99,12 104,212 105,123 106,14
110,3 111,40 112,56 113,11
121,123 122,101 123,85 124,7
132,24 140,31 141,38 146,14
149,9999 150,985 151,100 152,10
167,173 168,18 176,32 177,9
193,8 203,11 204,6 217,15
261,98 262,37 263,6 279,653
280,120 281,14 289,62 290,30
307,473 308,99 309,16 418,10
##END=
