##TITLE=1,7-Cleve's acid
##JCAMP-DX=4.24
##DATA TYPE=MASS SPECTRUM
##ORIGIN=Japan AIST/NIMC Database- Spectrum MS-IW-3881
##OWNER=NIST Mass Spectrometry Data Center
Collection (C) 2014 copyright by the U.S. Secretary of Commerce
on behalf of the United States of America. All rights reserved.
##CAS REGISTRY NO=119-28-8
##$NIST MASS SPEC NO=236503
##MOLFORM=C10 H9 N O3 S
##MW=223
##$NIST SOURCE=MSDC
##XUNITS=M/Z
##YUNITS=RELATIVE INTENSITY
##XFACTOR=1
##YFACTOR=1
##FIRSTX=16
##LASTX=226
##FIRSTY=10
##MAXX=226
##MINX=16
##MAXY=9999
##MINY=10
##NPOINTS=113
##PEAK TABLE=(XY..XY)
16,10 17,10 18,30 26,10
27,50 28,99 32,10 34,10
36,70 37,20 38,80 39,249
40,20 41,40 42,10 43,10
44,30 45,10 48,109 49,10
50,109 51,229 52,139 53,40
54,20 55,10 56,20 57,309
58,40 61,40 62,199 63,469
64,259 65,289 66,40 67,10
69,20 70,589 71,179 72,10
73,20 74,149 75,179 76,139
77,269 78,60 79,50 80,10
81,10 85,20 86,99 87,159
88,289 89,449 90,80 91,30
93,10 98,30 99,30 100,20
101,50 102,179 103,359 104,70
105,10 108,10 109,10 110,10
111,30 112,20 113,419 114,999
115,6159 116,779 117,70 118,10
126,30 127,30 128,40 129,20
130,1639 131,289 132,40 133,10
138,10 139,20 140,449 141,619
142,599 143,759 144,99 145,20
146,30 147,10 158,169 159,299
160,30 172,10 173,10 174,40
175,80 176,10 190,20 191,10
195,99 196,10 207,20 208,10
222,90 223,9999 224,1279 225,579
226,60
##END=
