##TITLE=Benzoic acid, 2-(methylamino)-
##JCAMP-DX=4.24
##DATA TYPE=MASS SPECTRUM
##ORIGIN=Japan AIST/NIMC Database- Spectrum MS-NW-4863
##OWNER=NIST Mass Spectrometry Data Center
Collection (C) 2014 copyright by the U.S. Secretary of Commerce
on behalf of the United States of America. All rights reserved.
##CAS REGISTRY NO=119-68-6
##$NIST MASS SPEC NO=229965
##MOLFORM=C8 H9 N O2
##MW=151
##$NIST SOURCE=MSDC
##XUNITS=M/Z
##YUNITS=RELATIVE INTENSITY
##XFACTOR=1
##YFACTOR=1
##FIRSTX=14
##LASTX=153
##FIRSTY=10
##MAXX=153
##MINX=14
##MAXY=9999
##MINY=10
##NPOINTS=90
##PEAK TABLE=(XY..XY)
14,10 15,179 16,10 17,20
18,129 19,10 26,50 27,209
28,429 29,60 30,1449 31,40
32,30 36,10 37,109 38,219
39,649 40,70 41,90 42,90
43,10 44,159 45,99 46,20
49,30 50,379 51,989 52,349
53,139 54,40 55,40 56,10
58,20 61,40 62,109 63,409
64,519 65,509 66,199 67,50
68,10 73,30 74,119 75,129
76,279 77,3099 78,3179 79,659
80,70 81,30 82,10 83,10
88,20 89,50 90,219 91,359
92,789 93,119 94,40 95,10
102,40 103,99 104,6999 105,7779
106,1389 107,369 108,30 116,90
117,80 118,30 119,119 120,20
121,10 122,30 123,30 128,10
130,20 131,20 132,2239 133,2409
134,429 135,50 146,20 147,30
148,30 149,50 150,99 151,9999
152,929 153,90
##END=
