##TITLE=Bis(tridecyl) phthalate
##JCAMP-DX=4.24
##DATA TYPE=MASS SPECTRUM
##ORIGIN=RADIAN CORP
##OWNER=NIST Mass Spectrometry Data Center
Collection (C) 2014 copyright by the U.S. Secretary of Commerce
on behalf of the United States of America. All rights reserved.
##CAS REGISTRY NO=119-06-2
##$NIST MASS SPEC NO=76008
##MOLFORM=C34 H58 O4
##MW=530
##$NIST SOURCE=MSDC
##XUNITS=M/Z
##YUNITS=RELATIVE INTENSITY
##XFACTOR=1
##YFACTOR=1
##FIRSTX=14
##LASTX=446
##FIRSTY=30
##MAXX=446
##MINX=14
##MAXY=9999
##MINY=10
##NPOINTS=60
##PEAK TABLE=(XY..XY)
14,30 18,80 27,190 28,940
29,710 32,160 36,250 39,220
40,40 41,2340 42,560 43,4450
44,470 49,100 51,70 53,30
54,20 55,3420 56,1170 57,6650
58,340 67,420 68,280 69,3170
70,1400 71,4370 72,220 76,190
77,290 81,390 82,280 83,1710
84,850 85,2890 86,210 95,270
96,110 97,1150 98,480 99,1650
104,270 105,100 111,630 112,290
113,1360 125,270 126,70 127,750
139,20 149,9999 150,1150 151,10
167,2750 168,330 169,170 183,350
335,170 349,600 350,20 446,20
##END=
