##TITLE=Benzophenone
##JCAMP-DX=4.24
##DATA TYPE=MASS SPECTRUM
##ORIGIN=NIST Mass Spectrometry Data Center, 1990.
##OWNER=NIST Mass Spectrometry Data Center
Collection (C) 2014 copyright by the U.S. Secretary of Commerce
on behalf of the United States of America. All rights reserved.
##CAS REGISTRY NO=119-61-9
##$NIST MASS SPEC NO=118652
##MOLFORM=C13 H10 O
##MW=182
##$NIST SOURCE=MSDC
##XUNITS=M/Z
##YUNITS=RELATIVE INTENSITY
##XFACTOR=1
##YFACTOR=1
##FIRSTX=17
##LASTX=184
##FIRSTY=9
##MAXX=184
##MINX=17
##MAXY=9999
##MINY=2
##NPOINTS=51
##PEAK TABLE=(XY..XY)
17,9 18,18 26,42 27,210
37,43 38,87 39,171 44,2
50,886 51,2575 52,217 53,38
61,27 62,101 63,147 64,57
65,16 73,52 74,324 75,279
76,693 77,6136 78,420 86,41
87,46 89,30 91,28 98,36
99,22 100,19 101,36 102,49
105,9999 106,715 107,45 113,15
115,30 126,66 127,55 150,73
151,160 152,295 153,185 154,128
155,25 163,23 165,43 181,765
182,4090 183,626 184,52
##END=
