##TITLE=Hydrazine, (2,4-dinitrophenyl)-
##JCAMP-DX=4.24
##DATA TYPE=MASS SPECTRUM
##ORIGIN=Japan AIST/NIMC Database- Spectrum MS-NW-1944
##OWNER=NIST Mass Spectrometry Data Center
Collection (C) 2014 copyright by the U.S. Secretary of Commerce
on behalf of the United States of America. All rights reserved.
##CAS REGISTRY NO=119-26-6
##$NIST MASS SPEC NO=233665
##MOLFORM=C6 H6 N4 O4
##MW=198
##$NIST SOURCE=MSDC
##XUNITS=M/Z
##YUNITS=RELATIVE INTENSITY
##XFACTOR=1
##YFACTOR=1
##FIRSTX=12
##LASTX=200
##FIRSTY=20
##MAXX=200
##MINX=12
##MAXY=9999
##MINY=10
##NPOINTS=134
##PEAK TABLE=(XY..XY)
12,20 14,70 15,30 16,60
25,30 26,289 27,759 28,2509
29,1239 30,5449 31,339 32,30
36,40 37,679 38,1259 39,2389
40,469 41,329 42,159 43,229
44,689 45,80 46,309 47,10
48,80 49,189 50,4289 51,9179
52,4599 53,1109 54,329 55,259
56,60 57,50 58,10 60,70
61,839 62,2049 63,4809 64,2219
65,859 66,719 67,279 68,429
69,109 70,20 71,30 72,10
73,299 74,2259 75,6689 76,6439
77,3089 78,7989 79,9999 80,939
81,119 82,90 83,30 84,20
85,20 86,50 87,209 88,439
89,399 90,1059 91,639 92,3389
93,599 94,169 95,149 96,40
97,20 98,10 99,20 100,10
101,20 102,20 103,109 104,299
105,909 106,1459 107,469 108,129
109,40 110,40 111,30 112,20
113,10 117,10 118,159 119,149
120,99 121,109 122,4599 123,409
124,40 125,10 126,30 134,299
135,439 136,439 137,179 138,349
139,80 140,60 142,10 148,90
149,50 150,99 151,30 152,679
153,139 154,129 155,20 163,10
164,1599 165,169 166,20 167,20
168,2329 169,189 170,30 172,10
178,10 180,1189 181,209 182,90
183,119 184,20 195,10 198,5659
199,499 200,70
##END=
