##TITLE=4,4'-Bis(dimethylamino)benzhydrol
##JCAMP-DX=4.24
##DATA TYPE=MASS SPECTRUM
##ORIGIN=Japan AIST/NIMC Database- Spectrum MS-NW-7036
##OWNER=NIST Mass Spectrometry Data Center
Collection (C) 2014 copyright by the U.S. Secretary of Commerce
on behalf of the United States of America. All rights reserved.
##CAS REGISTRY NO=119-58-4
##$NIST MASS SPEC NO=235780
##MOLFORM=C17 H22 N2 O
##MW=270
##$NIST SOURCE=MSDC
##XUNITS=M/Z
##YUNITS=RELATIVE INTENSITY
##XFACTOR=1
##YFACTOR=1
##FIRSTX=15
##LASTX=273
##FIRSTY=299
##MAXX=273
##MINX=15
##MAXY=9999
##MINY=10
##NPOINTS=218
##PEAK TABLE=(XY..XY)
15,299 16,20 26,20 27,119
28,159 29,80 30,60 31,10
38,50 39,409 40,50 41,149
42,1559 43,159 44,419 45,20
50,259 51,469 52,189 53,119
54,40 55,70 56,50 57,30
58,50 59,30 60,20 62,70
63,359 64,139 65,349 66,209
67,40 68,99 69,70 70,20
71,10 72,10 73,90 74,70
75,189 76,349 77,1389 78,709
79,689 80,149 81,80 82,60
83,30 84,30 85,20 86,20
87,50 88,40 89,159 90,219
91,619 92,239 93,149 94,70
95,90 96,99 97,80 98,50
99,20 100,30 101,50 102,99
103,169 104,809 105,889 106,449
107,749 108,80 109,20 110,99
111,60 112,60 113,50 114,40
115,179 116,70 117,159 118,1239
119,859 120,1889 121,1349 122,3839
123,389 124,20 125,99 126,739
127,259 128,90 129,40 130,50
131,30 132,549 133,259 134,1069
135,409 136,40 137,10 138,30
139,109 140,109 141,60 142,60
143,30 144,60 145,20 146,40
147,40 148,5259 149,769 150,1129
151,209 152,259 153,179 154,90
155,50 156,20 157,20 158,60
159,20 160,10 162,20 163,99
164,109 165,769 166,309 167,139
168,80 169,30 170,60 171,20
172,10 175,10 176,10 177,60
178,90 179,99 180,99 181,99
182,70 183,30 184,50 185,10
186,10 188,10 189,10 190,50
191,50 192,129 193,159 194,279
195,119 196,129 197,109 198,40
199,10 200,10 203,10 205,30
206,30 207,90 208,299 209,319
210,1009 211,189 212,30 214,10
218,20 219,20 220,20 221,239
222,80 223,199 224,529 225,159
226,159 227,40 228,10 229,10
230,10 234,10 235,80 236,50
237,1879 238,529 239,299 240,169
241,60 242,40 243,20 244,10
245,10 246,10 248,10 249,20
250,20 251,299 252,169 253,9999
254,4609 255,679 256,70 257,10
264,10 265,20 266,50 267,309
268,1229 269,1319 270,6709 271,1339
272,139 273,10
##END=
