##TITLE=p,p'-Diaminodiphenyl sulfoxide
##JCAMP-DX=4.24
##DATA TYPE=MASS SPECTRUM
##ORIGIN=V.A.KOPTYUG, ATLAS OF MASS SPECTRA OF ORGANIC COMPOUNDS
##OWNER=NIST Mass Spectrometry Data Center
Collection (C) 2014 copyright by the U.S. Secretary of Commerce
on behalf of the United States of America. All rights reserved.
##CAS REGISTRY NO=119-59-5
##$NIST MASS SPEC NO=78701
##MOLFORM=C12 H12 N2 O S
##MW=232
##$NIST SOURCE=MSDC
##XUNITS=M/Z
##YUNITS=RELATIVE INTENSITY
##XFACTOR=1
##YFACTOR=1
##FIRSTX=29
##LASTX=218
##FIRSTY=298
##MAXX=218
##MINX=29
##MAXY=9999
##MINY=85
##NPOINTS=89
##PEAK TABLE=(XY..XY)
29,298 30,783 34,111 38,373
39,3619 40,2276 41,2313 42,1007
43,559 44,1492 45,858 48,908
50,932 51,1828 52,1679 53,1082
54,2276 55,223 56,149 57,186
60,111 63,1044 64,1380 65,5222
66,6603 67,2761 68,186 69,111
70,111 71,111 73,111 74,111
75,149 76,746 77,932 78,1156
80,1194 81,186 82,111 90,149
91,1044 92,4104 93,9999 94,3395
95,261 97,261 99,186 106,111
108,634 117,373 122,111 123,149
124,1492 125,522 127,111 128,111
129,111 130,223 131,111 136,111
142,186 143,111 149,186 154,298
155,149 156,1082 157,223 162,111
166,223 167,261 171,261 175,111
181,149 182,410 183,1343 184,3432
185,634 186,149 187,298 198,335
199,708 200,559 201,335 202,186
214,447 215,2574 216,5931 217,513
218,85
##END=
