##TITLE=1,3-Propanediol, 2-amino-1-(4-nitrophenyl)-
##JCAMP-DX=4.24
##DATA TYPE=MASS SPECTRUM
##ORIGIN=K. Kirk, LC, NIDDK, NIH, Bethesda, MD 20892
##OWNER=NIST Mass Spectrometry Data Center
Collection (C) 2014 copyright by the U.S. Secretary of Commerce
on behalf of the United States of America. All rights reserved.
##CAS REGISTRY NO=119-62-0
##$NIST MASS SPEC NO=116596
##MOLFORM=C9 H12 N2 O4
##MW=212
##$NIST SOURCE=MSDC
##XUNITS=M/Z
##YUNITS=RELATIVE INTENSITY
##XFACTOR=1
##YFACTOR=1
##FIRSTX=42
##LASTX=212
##FIRSTY=1590
##MAXX=212
##MINX=42
##MAXY=9999
##MINY=70
##NPOINTS=21
##PEAK TABLE=(XY..XY)
42,1590 43,426 51,261 60,9999
61,264 66,86 77,538 78,437
89,175 90,81 105,358 106,618
117,535 118,79 135,70 136,848
153,544 154,132 181,694 182,291
212,89
##END=
