##TITLE=Benzeneacetic acid, .alpha.-ethyl-, ethyl ester
##JCAMP-DX=4.24
##DATA TYPE=MASS SPECTRUM
##ORIGIN=L.N.Kulikova, V.G. Zaikin, Peoples' Friendship University of Russia, Moscow
##OWNER=NIST Mass Spectrometry Data Center
Collection (C) 2014 copyright by the U.S. Secretary of Commerce
on behalf of the United States of America. All rights reserved.
##CAS REGISTRY NO=119-43-7
##$NIST MASS SPEC NO=406010
##MOLFORM=C12 H16 O2
##MW=192
##$NIST SOURCE=MSDC
##XUNITS=M/Z
##YUNITS=RELATIVE INTENSITY
##XFACTOR=1
##YFACTOR=1
##FIRSTX=26
##LASTX=194
##FIRSTY=50
##MAXX=194
##MINX=26
##MAXY=9999
##MINY=10
##NPOINTS=53
##PEAK TABLE=(XY..XY)
26,50 27,350 29,1061 30,10
38,10 39,380 40,10 41,881
42,10 45,20 50,60 51,300
52,40 53,30 62,20 63,130
64,20 65,320 75,10 76,20
77,591 78,380 79,310 80,10
89,200 90,200 91,9999 92,741
93,10 102,60 103,350 104,470
105,100 107,130 115,340 116,80
117,420 118,1451 119,6846 120,661
121,10 131,10 135,50 136,20
146,10 147,40 163,10 164,480
165,50 177,10 192,1451 193,160
194,10
##END=
