##TITLE=1,6-Cleve's acid
##JCAMP-DX=4.24
##DATA TYPE=MASS SPECTRUM
##ORIGIN=Japan AIST/NIMC Database- Spectrum MS-NW- 381
##OWNER=NIST Mass Spectrometry Data Center
Collection (C) 2014 copyright by the U.S. Secretary of Commerce
on behalf of the United States of America. All rights reserved.
##CAS REGISTRY NO=119-79-9
##$NIST MASS SPEC NO=228894
##MOLFORM=C10 H9 N O3 S
##MW=223
##$NIST SOURCE=MSDC
##XUNITS=M/Z
##YUNITS=RELATIVE INTENSITY
##XFACTOR=1
##YFACTOR=1
##FIRSTX=17
##LASTX=226
##FIRSTY=20
##MAXX=226
##MINX=17
##MAXY=9999
##MINY=10
##NPOINTS=140
##PEAK TABLE=(XY..XY)
17,20 18,70 26,20 27,70
28,109 29,40 30,10 32,20
36,50 37,30 38,70 39,269
40,30 41,159 42,40 43,109
44,90 45,40 48,60 50,229
51,279 52,119 53,50 54,50
55,129 56,50 57,279 58,40
60,30 61,50 62,189 63,399
64,129 65,299 66,50 67,80
68,50 69,90 70,679 71,269
72,20 73,70 74,209 75,399
76,159 77,349 78,70 79,70
80,20 81,70 82,50 83,70
84,40 85,50 86,90 87,149
88,219 89,349 90,70 91,70
92,20 93,40 94,99 95,50
96,40 97,50 98,50 99,139
100,60 101,70 102,159 103,259
104,60 105,30 107,30 108,10
109,30 110,30 111,259 112,70
113,359 114,679 115,4469 116,579
117,50 118,10 119,20 121,20
122,10 123,20 124,10 125,20
126,30 127,109 128,339 129,60
130,1079 131,249 132,50 133,20
135,20 137,20 138,10 139,30
140,409 141,569 142,1449 143,459
144,40 145,20 147,10 152,10
157,20 158,109 159,379 160,50
167,20 168,20 169,30 174,20
175,90 176,20 177,20 178,30
179,10 190,20 191,20 192,309
193,20 194,109 195,129 196,20
202,30 207,30 208,20 222,109
223,9999 224,1239 225,579 226,70
##END=
