##TITLE=Benzene, 1-methoxy-2,4-dinitro-
##JCAMP-DX=4.24
##DATA TYPE=MASS SPECTRUM
##ORIGIN=Japan AIST/NIMC Database- Spectrum MS-NW-4823
##OWNER=NIST Mass Spectrometry Data Center
Collection (C) 2014 copyright by the U.S. Secretary of Commerce
on behalf of the United States of America. All rights reserved.
##CAS REGISTRY NO=119-27-7
##$NIST MASS SPEC NO=229897
##MOLFORM=C7 H6 N2 O5
##MW=198
##$NIST SOURCE=MSDC
##XUNITS=M/Z
##YUNITS=RELATIVE INTENSITY
##XFACTOR=1
##YFACTOR=1
##FIRSTX=12
##LASTX=201
##FIRSTY=20
##MAXX=201
##MINX=12
##MAXY=9999
##MINY=10
##NPOINTS=125
##PEAK TABLE=(XY..XY)
12,20 13,20 14,70 15,889
16,20 18,10 25,60 26,309
27,259 28,809 29,459 30,4089
31,1359 32,30 33,10 36,40
37,619 38,829 39,1689 40,149
41,60 42,99 43,109 44,30
45,40 46,239 48,20 49,169
50,2669 51,2939 52,1099 53,1289
54,269 55,719 56,60 57,30
58,20 59,259 60,80 61,689
62,2039 63,4239 64,1299 65,589
66,1099 67,259 68,209 69,239
70,60 71,40 72,20 73,249
74,1549 75,4489 76,7799 77,2079
78,2239 79,5679 80,1049 81,229
82,449 83,40 84,40 85,50
86,20 87,30 88,30 89,20
90,80 91,1209 92,2679 93,1389
94,519 95,289 96,90 97,10
98,10 104,50 105,1659 106,1279
107,1749 108,769 109,199 110,229
111,50 112,20 113,10 119,40
120,179 121,229 122,1509 123,299
124,30 126,20 134,20 135,40
136,149 137,639 138,1139 139,129
140,179 141,20 142,30 143,20
144,10 151,6349 152,529 153,90
154,10 165,20 166,10 167,70
168,9999 169,1419 170,169 171,20
172,10 181,70 182,309 183,30
197,10 198,8429 199,779 200,119
201,10
##END=
