##TITLE=Benzenemethanol, 4-chloro-.alpha.-phenyl-
##JCAMP-DX=4.24
##DATA TYPE=MASS SPECTRUM
##ORIGIN=Japan AIST/NIMC Database- Spectrum MS-NW-9970
##OWNER=NIST Mass Spectrometry Data Center
Collection (C) 2014 copyright by the U.S. Secretary of Commerce
on behalf of the United States of America. All rights reserved.
##CAS REGISTRY NO=119-56-2
##$NIST MASS SPEC NO=239312
##MOLFORM=C13 H11 Cl O
##MW=218
##$NIST SOURCE=MSDC
##XUNITS=M/Z
##YUNITS=RELATIVE INTENSITY
##XFACTOR=1
##YFACTOR=1
##FIRSTX=17
##LASTX=222
##FIRSTY=20
##MAXX=222
##MINX=17
##MAXY=9999
##MINY=10
##NPOINTS=110
##PEAK TABLE=(XY..XY)
17,20 18,139 27,70 28,40
29,80 36,10 38,20 39,139
50,269 51,739 52,139 53,60
55,20 61,20 62,60 63,179
64,50 65,30 69,80 70,10
73,40 74,129 75,449 76,339
77,2999 78,1679 79,1339 80,80
81,109 82,269 83,109 84,10
85,40 86,30 87,50 88,20
89,90 90,30 91,119 95,10
98,20 99,30 100,50 101,40
102,30 103,10 104,50 105,9999
106,1189 107,659 108,50 109,20
110,20 111,659 112,829 113,649
114,309 115,199 116,10 123,10
125,30 126,40 127,50 128,30
129,10 137,20 138,20 139,3309
140,419 141,1769 142,179 143,239
144,10 149,20 150,30 151,90
152,299 153,279 154,109 155,70
162,20 163,159 164,159 165,879
166,399 167,109 168,20 181,99
182,50 183,1069 184,149 185,10
188,10 189,40 190,10 191,10
199,90 200,40 201,219 202,70
203,70 204,20 215,10 216,50
217,999 218,3169 219,769 220,1059
221,139 222,10
##END=
