##TITLE=Phosphorothioic acid, O-(1,6-dihydro-6-oxo-1-phenyl-3-pyridazinyl) O,O-diethyl ester
##JCAMP-DX=4.24
##DATA TYPE=MASS SPECTRUM
##ORIGIN=Richard Turcotte. Direction des laboratoires d'expertises et d'analyses alimentaires, Quebec, Canada.
##OWNER=NIST Mass Spectrometry Data Center
Collection (C) 2014 copyright by the U.S. Secretary of Commerce
on behalf of the United States of America. All rights reserved.
##CAS REGISTRY NO=119-12-0
##$NIST MASS SPEC NO=366489
##MOLFORM=C14 H17 N2 O4 P S
##MW=340
##$NIST SOURCE=MSDC
##XUNITS=M/Z
##YUNITS=RELATIVE INTENSITY
##XFACTOR=1
##YFACTOR=1
##FIRSTX=42
##LASTX=344
##FIRSTY=30
##MAXX=344
##MINX=42
##MAXY=9999
##MINY=20
##NPOINTS=175
##PEAK TABLE=(XY..XY)
42,30 45,330 46,90 47,190
49,20 50,240 51,1301 52,661
53,320 54,1151 55,280 56,50
57,30 60,60 61,110 62,60
63,571 64,691 65,2412 66,50
67,40 68,50 69,140 70,140
71,150 72,40 73,60 74,40
76,190 77,7717 78,691 79,160
80,1101 81,961 82,2632 83,230
85,60 87,40 88,30 89,70
90,160 91,2632 92,470 93,1201
94,110 95,300 96,50 97,9999
98,310 99,681 103,120 104,260
105,1231 106,240 107,330 109,2552
110,240 111,110 112,40 113,40
114,170 115,290 116,210 117,120
118,100 119,170 120,50 121,430
123,270 124,60 125,4184 126,250
127,360 128,70 129,190 130,30
131,90 132,20 134,30 135,110
136,20 137,510 139,60 140,50
141,70 142,260 143,250 144,310
145,50 146,70 147,380 148,150
151,210 152,20 153,821 154,60
155,280 157,100 158,70 159,60
160,490 161,130 163,20 167,80
169,110 170,230 171,911 172,300
173,400 174,220 175,180 176,420
178,60 179,520 180,20 181,50
183,40 184,20 186,40 187,1561
188,6466 189,971 190,80 191,340
194,40 197,60 198,30 199,5955
200,851 201,220 202,90 203,1872
204,3593 205,581 206,220 207,290
209,240 215,220 216,290 221,20
223,20 231,80 232,120 233,200
235,220 236,20 239,20 249,290
250,20 251,130 253,150 256,20
263,30 265,90 267,160 268,20
269,220 282,20 283,110 284,50
285,20 295,90 309,50 311,40
312,90 323,40 324,140 325,40
327,90 339,150 340,7126 341,1451
342,340 343,120 344,20
##END=
