##TITLE=Phenol, 2-cyclohexyl-
##JCAMP-DX=4.24
##DATA TYPE=MASS SPECTRUM
##ORIGIN=Japan AIST/NIMC Database- Spectrum MS-NW-2652
##OWNER=NIST Mass Spectrometry Data Center
Collection (C) 2014 copyright by the U.S. Secretary of Commerce
on behalf of the United States of America. All rights reserved.
##CAS REGISTRY NO=119-42-6
##$NIST MASS SPEC NO=231686
##MOLFORM=C12 H16 O
##MW=176
##$NIST SOURCE=MSDC
##XUNITS=M/Z
##YUNITS=RELATIVE INTENSITY
##XFACTOR=1
##YFACTOR=1
##FIRSTX=15
##LASTX=178
##FIRSTY=20
##MAXX=178
##MINX=15
##MAXY=9999
##MINY=10
##NPOINTS=118
##PEAK TABLE=(XY..XY)
15,20 18,10 26,40 27,479
28,70 29,279 37,10 38,60
39,749 40,99 41,789 42,50
43,60 44,10 50,99 51,389
52,129 53,339 54,149 55,339
56,30 57,20 58,10 61,10
62,50 63,209 64,119 65,479
66,169 67,429 68,50 69,299
70,20 71,10 72,10 73,10
74,30 75,80 76,70 77,1159
78,329 79,819 80,99 81,299
82,469 83,40 85,10 86,10
87,20 88,10 89,179 90,139
91,1669 92,449 93,70 94,1089
95,149 96,30 100,10 101,40
102,90 103,289 104,90 105,1139
106,149 107,9829 108,1619 109,139
110,10 113,10 114,10 115,479
116,109 117,159 118,139 119,769
120,6649 121,1039 122,99 123,10
126,10 127,109 128,179 129,159
130,70 131,359 132,169 133,9999
134,1459 135,159 136,10 139,10
141,30 142,10 143,40 144,30
145,199 146,90 147,619 148,149
149,10 152,10 153,10 157,10
158,30 159,50 160,10 161,109
162,10 168,10 169,10 170,10
172,10 174,20 175,40 176,8939
177,1179 178,99
##END=
