##TITLE=2,2'-Biquinoline
##JCAMP-DX=4.24
##DATA TYPE=MASS SPECTRUM
##ORIGIN=GFS Chemicals / NIST MS Data Center.
##OWNER=NIST Mass Spectrometry Data Center
Collection (C) 2014 copyright by the U.S. Secretary of Commerce
on behalf of the United States of America. All rights reserved.
##CAS REGISTRY NO=119-91-5
##$NIST MASS SPEC NO=125329
##MOLFORM=C18 H12 N2
##MW=256
##$NIST SOURCE=MSDC
##XUNITS=M/Z
##YUNITS=RELATIVE INTENSITY
##XFACTOR=1
##YFACTOR=1
##FIRSTX=15
##LASTX=259
##FIRSTY=6
##MAXX=259
##MINX=15
##MAXY=9999
##MINY=3
##NPOINTS=121
##PEAK TABLE=(XY..XY)
15,6 17,3 18,11 26,16
27,65 28,111 29,5 32,28
37,15 38,37 39,106 40,9
41,4 50,209 51,323 52,104
53,16 61,16 62,73 63,157
64,41 65,13 67,7 68,7
74,154 75,451 76,283 77,328
78,51 79,7 81,8 82,8
85,22 86,39 87,88 88,79
89,54 90,11 93,7 95,15
98,31 99,60 100,172 101,741
102,430 103,79 104,9 107,6
110,9 111,12 114,248 116,9
123,13 124,16 125,30 126,112
127,9 128,1750 130,18 137,14
138,14 139,20 140,28 141,5
149,11 150,27 151,29 152,50
153,48 154,128 155,143 156,18
162,8 163,18 164,20 165,11
166,10 174,19 175,34 176,36
177,35 178,31 179,51 180,6
187,12 188,15 189,24 190,18
191,13 192,7 198,9 199,24
200,84 201,130 202,119 203,54
204,45 205,8 212,5 214,19
215,24 216,14 217,7 224,9
225,34 226,110 227,385 228,379
229,217 230,103 231,18 239,7
240,11 241,6 252,84 253,432
255,7627 256,9999 257,1766 258,163
259,11
##END=
