##TITLE=1-Dimethylamino-2-nitroethylene
##JCAMP-DX=4.24
##DATA TYPE=MASS SPECTRUM
##ORIGIN=NIST Mass Spectrometry Data Center, 1994
##OWNER=NIST Mass Spectrometry Data Center
Collection (C) 2014 copyright by the U.S. Secretary of Commerce
on behalf of the United States of America. All rights reserved.
##CAS REGISTRY NO=1190-92-7
##$NIST MASS SPEC NO=136047
##MOLFORM=C4 H8 N2 O2
##MW=116
##$NIST SOURCE=MSDC
##XUNITS=M/Z
##YUNITS=RELATIVE INTENSITY
##XFACTOR=1
##YFACTOR=1
##FIRSTX=13
##LASTX=117
##FIRSTY=95
##MAXX=117
##MINX=13
##MAXY=9999
##MINY=95
##NPOINTS=36
##PEAK TABLE=(XY..XY)
13,95 15,1265 18,290 26,561
27,118 28,961 30,2506 38,203
39,496 40,647 41,1496 42,9999
43,1671 44,1025 46,434 51,176
52,491 53,243 54,1014 55,3174
56,463 57,378 58,744 68,1688
69,2412 70,602 71,710 83,440
84,227 85,432 86,313 87,1025
99,454 100,142 116,2478 117,194
##END=
