##TITLE=2-Hexenoic acid
##JCAMP-DX=4.24
##DATA TYPE=MASS SPECTRUM
##ORIGIN=RADIAN CORP
##OWNER=NIST Mass Spectrometry Data Center
Collection (C) 2014 copyright by the U.S. Secretary of Commerce
on behalf of the United States of America. All rights reserved.
##CAS REGISTRY NO=1191-04-4
##$NIST MASS SPEC NO=73033
##MOLFORM=C6 H10 O2
##MW=114
##$NIST SOURCE=MSDC
##XUNITS=M/Z
##YUNITS=RELATIVE INTENSITY
##XFACTOR=1
##YFACTOR=1
##FIRSTX=15
##LASTX=115
##FIRSTY=50
##MAXX=115
##MINX=15
##MAXY=9999
##MINY=10
##NPOINTS=70
##PEAK TABLE=(XY..XY)
15,50 18,60 25,20 26,350
27,2840 28,700 29,3100 30,90
31,330 32,160 33,20 36,10
37,140 38,630 39,4760 40,1490
41,5180 42,5230 43,1870 44,350
45,1670 46,30 47,40 49,40
50,320 51,490 52,190 53,1320
54,440 55,4460 56,560 57,1010
58,420 59,720 60,1330 61,90
62,100 63,150 64,20 65,240
66,140 67,790 68,3620 69,1740
70,140 71,740 72,120 73,9999
74,390 75,70 76,10 77,30
79,10 81,930 82,60 83,40
84,20 85,250 86,500 87,30
95,190 96,770 97,470 98,20
99,3020 100,170 101,10 113,60
114,750 115,70
##END=
