##TITLE=1,10-Decanedithiol
##JCAMP-DX=4.24
##DATA TYPE=MASS SPECTRUM
##ORIGIN=NIST Mass Spectrometry Data Center
##OWNER=NIST Mass Spectrometry Data Center
Collection (C) 2014 copyright by the U.S. Secretary of Commerce
on behalf of the United States of America. All rights reserved.
##CAS REGISTRY NO=1191-67-9
##$NIST MASS SPEC NO=343650
##MOLFORM=C10 H22 S2
##MW=206
##$NIST SOURCE=MSDC
##XUNITS=M/Z
##YUNITS=RELATIVE INTENSITY
##XFACTOR=1
##YFACTOR=1
##FIRSTX=15
##LASTX=209
##FIRSTY=90
##MAXX=209
##MINX=15
##MAXY=9999
##MINY=10
##NPOINTS=121
##PEAK TABLE=(XY..XY)
15,90 17,10 18,60 26,120
27,2622 28,801 29,3253 30,70
31,10 32,70 33,70 34,110
35,861 36,200 37,40 38,120
39,2432 40,470 41,9999 42,1551
43,2242 44,110 45,1621 46,550
47,5775 48,220 49,280 50,30
51,120 52,90 53,1111 54,2682
55,9749 56,1211 57,1461 58,280
59,691 60,1812 61,2732 62,210
63,160 64,20 65,230 66,480
67,5045 68,3493 69,4124 70,510
71,671 72,90 73,500 74,450
75,220 76,30 77,160 78,40
79,430 80,170 81,3083 82,2422
83,2412 84,240 85,540 87,8868
88,1411 89,2252 90,150 91,140
93,80 94,90 95,1962 96,1171
97,951 98,130 99,60 101,7026
102,851 103,621 104,70 105,20
107,10 109,591 110,390 111,130
112,60 113,20 115,2742 116,230
117,200 118,30 119,10 120,10
121,10 123,30 125,10 126,10
127,10 128,30 129,1752 130,190
131,120 135,10 137,10 138,80
139,20 143,751 144,90 145,40
151,10 157,90 171,3353 172,1011
173,1041 174,140 175,40 202,10
204,30 206,4574 207,691 208,490
209,40
##END=
