##TITLE=4-Decenoic acid, methyl ester
##JCAMP-DX=4.24
##DATA TYPE=MASS SPECTRUM
##ORIGIN=N.W. Davies, Centr. Sci. Lab., Univ. Tasmania, Hobart, Australia
##OWNER=NIST Mass Spectrometry Data Center
Collection (C) 2014 copyright by the U.S. Secretary of Commerce
on behalf of the United States of America. All rights reserved.
##CAS REGISTRY NO=1191-02-2
##$NIST MASS SPEC NO=107127
##MOLFORM=C11 H20 O2
##MW=184
##$NIST SOURCE=MSDC
##XUNITS=M/Z
##YUNITS=RELATIVE INTENSITY
##XFACTOR=1
##YFACTOR=1
##FIRSTX=26
##LASTX=185
##FIRSTY=160
##MAXX=185
##MINX=26
##MAXY=9999
##MINY=30
##NPOINTS=76
##PEAK TABLE=(XY..XY)
26,160 27,2690 29,3670 30,100
31,230 38,100 39,2710 41,7530
42,1550 43,7400 45,390 51,270
52,190 53,1470 54,4750 55,7010
56,1090 57,1150 58,520 59,3030
65,400 66,320 67,4550 68,3330
69,5530 70,570 71,830 72,340
73,340 74,9999 75,810 77,370
78,110 79,730 80,340 81,3470
82,1770 83,1310 84,2950 85,2820
86,210 87,1500 88,210 91,210
93,540 94,210 95,1400 96,2490
97,1190 98,350 99,290 100,130
101,330 107,130 108,400 109,600
110,5040 111,1110 112,110 113,450
114,420 115,230 119,100 123,810
124,460 125,130 127,300 128,180
133,100 134,140 135,510 141,140
152,1750 153,520 184,210 185,30
##END=
