##TITLE=Cyclobutanone
##JCAMP-DX=4.24
##DATA TYPE=MASS SPECTRUM
##ORIGIN=NIST Mass Spectrometry Data Center, 1990.
##OWNER=NIST Mass Spectrometry Data Center
Collection (C) 2014 copyright by the U.S. Secretary of Commerce
on behalf of the United States of America. All rights reserved.
##CAS REGISTRY NO=1191-95-3
##$NIST MASS SPEC NO=118863
##MOLFORM=C4 H6 O
##MW=70
##$NIST SOURCE=MSDC
##XUNITS=M/Z
##YUNITS=RELATIVE INTENSITY
##XFACTOR=1
##YFACTOR=1
##FIRSTX=12
##LASTX=72
##FIRSTY=43
##MAXX=72
##MINX=12
##MAXY=9999
##MINY=2
##NPOINTS=36
##PEAK TABLE=(XY..XY)
12,43 13,118 14,470 15,210
16,5 18,2 24,26 25,130
26,714 27,1065 28,458 29,124
30,5 33,6 34,5 35,9
36,76 37,358 38,476 39,1331
40,397 41,1561 42,9999 43,525
44,49 48,17 49,80 50,143
51,56 52,16 53,60 55,46
56,3 70,2363 71,119 72,7
##END=
