##TITLE=Cyclopropane, ethyl-
##JCAMP-DX=4.24
##DATA TYPE=MASS SPECTRUM
##OWNER=NIST Mass Spectrometry Data Center
Collection (C) 2014 copyright by the U.S. Secretary of Commerce
on behalf of the United States of America. All rights reserved.
##CAS REGISTRY NO=1191-96-4
##$NIST MASS SPEC NO=19072
##MOLFORM=C5 H10
##MW=70
##$NIST SOURCE=MSDC
##XUNITS=M/Z
##YUNITS=RELATIVE INTENSITY
##XFACTOR=1
##YFACTOR=1
##FIRSTX=12
##LASTX=72
##FIRSTY=40
##MAXX=72
##MINX=12
##MAXY=9999
##MINY=10
##NPOINTS=47
##PEAK TABLE=(XY..XY)
12,40 13,60 14,200 15,771
16,20 24,10 25,40 26,581
27,2933 28,540 29,2022 30,40
31,90 32,40 33,20 36,30
37,300 38,621 39,3803 40,911
41,4234 42,9999 43,380 44,10
48,10 49,60 50,290 51,330
52,110 53,631 54,200 55,5025
56,230 57,10 60,10 61,50
62,60 63,70 64,10 65,50
66,20 67,100 68,10 69,100
70,2813 71,150 72,10
##END=
