##TITLE=Furan, 2,3-dihydro-
##JCAMP-DX=4.24
##DATA TYPE=MASS SPECTRUM
##ORIGIN=Japan AIST/NIMC Database- Spectrum MS-NW-5072
##OWNER=NIST Mass Spectrometry Data Center
Collection (C) 2014 copyright by the U.S. Secretary of Commerce
on behalf of the United States of America. All rights reserved.
##CAS REGISTRY NO=1191-99-7
##$NIST MASS SPEC NO=230218
##MOLFORM=C4 H6 O
##MW=70
##$NIST SOURCE=MSDC
##XUNITS=M/Z
##YUNITS=RELATIVE INTENSITY
##XFACTOR=1
##YFACTOR=1
##FIRSTX=12
##LASTX=72
##FIRSTY=20
##MAXX=72
##MINX=12
##MAXY=9999
##MINY=10
##NPOINTS=40
##PEAK TABLE=(XY..XY)
12,20 13,60 14,229 15,329
16,10 17,20 18,70 24,20
25,80 26,399 27,1079 28,239
29,1459 30,60 31,339 32,20
34,10 35,20 36,60 37,459
38,859 39,6969 40,3199 41,9999
42,3199 43,229 44,259 45,20
49,40 50,80 51,70 52,70
53,30 55,219 56,10 68,359
69,4839 70,9939 71,479 72,30
##END=
