##TITLE=Cyclohexane, methylene-
##JCAMP-DX=4.24
##DATA TYPE=MASS SPECTRUM
##ORIGIN=Japan AIST/NIMC Database- Spectrum MS-NW-3425
##OWNER=NIST Mass Spectrometry Data Center
Collection (C) 2014 copyright by the U.S. Secretary of Commerce
on behalf of the United States of America. All rights reserved.
##CAS REGISTRY NO=1192-37-6
##$NIST MASS SPEC NO=235403
##MOLFORM=C7 H12
##MW=96
##$NIST SOURCE=MSDC
##XUNITS=M/Z
##YUNITS=RELATIVE INTENSITY
##XFACTOR=1
##YFACTOR=1
##FIRSTX=14
##LASTX=98
##FIRSTY=10
##MAXX=98
##MINX=14
##MAXY=9999
##MINY=10
##NPOINTS=57
##PEAK TABLE=(XY..XY)
14,10 15,129 16,10 26,219
27,1739 28,299 29,799 30,20
37,119 38,309 39,3499 40,939
41,2359 42,449 43,80 44,30
45,30 46,50 47,10 49,40
50,299 51,559 52,319 53,2149
54,4699 55,4109 56,309 57,30
61,60 62,99 63,189 64,40
65,489 66,669 67,7439 68,5299
69,319 70,20 74,30 75,10
76,10 77,479 78,119 79,1029
80,189 81,9999 82,659 83,129
84,10 91,169 92,30 93,109
94,20 95,849 96,4629 97,369
98,10
##END=
