##TITLE=Oxirane, 3-ethyl-2,2-dimethyl-
##JCAMP-DX=4.24
##DATA TYPE=MASS SPECTRUM
##ORIGIN=SHELL RESEARCH LIMITED THORNTON RESEARCH CENTRE
##OWNER=NIST Mass Spectrometry Data Center
Collection (C) 2014 copyright by the U.S. Secretary of Commerce
on behalf of the United States of America. All rights reserved.
##CAS REGISTRY NO=1192-22-9
##$NIST MASS SPEC NO=19787
##MOLFORM=C6 H12 O
##MW=100
##$NIST SOURCE=MSDC
##XUNITS=M/Z
##YUNITS=RELATIVE INTENSITY
##XFACTOR=1
##YFACTOR=1
##FIRSTX=26
##LASTX=100
##FIRSTY=351
##MAXX=100
##MINX=26
##MAXY=9999
##MINY=117
##NPOINTS=32
##PEAK TABLE=(XY..XY)
26,351 27,2007 28,612 29,2448
30,459 31,3897 37,207 38,378
39,2430 40,1269 41,7542 42,5958
43,5922 44,288 45,153 53,234
54,144 55,306 56,144 57,2700
58,6336 59,9999 60,720 67,225
69,288 70,117 71,729 72,207
85,2187 86,180 99,126 100,225
##END=
