##TITLE=1H-Pyrrole-2-carboxaldehyde, 5-methyl-
##JCAMP-DX=4.24
##DATA TYPE=MASS SPECTRUM
##ORIGIN=GEORGE R. WALLER AND BOBBY R. JOHNSON, OKLAHOMA STATE UNIV, USA
##OWNER=NIST Mass Spectrometry Data Center
Collection (C) 2014 copyright by the U.S. Secretary of Commerce
on behalf of the United States of America. All rights reserved.
##CAS REGISTRY NO=1192-79-6
##$NIST MASS SPEC NO=51892
##MOLFORM=C6 H7 N O
##MW=109
##$NIST SOURCE=MSDC
##XUNITS=M/Z
##YUNITS=RELATIVE INTENSITY
##XFACTOR=1
##YFACTOR=1
##FIRSTX=27
##LASTX=110
##FIRSTY=1500
##MAXX=110
##MINX=27
##MAXY=9999
##MINY=300
##NPOINTS=41
##PEAK TABLE=(XY..XY)
27,1500 30,300 31,300 35,600
36,300 37,300 38,300 39,900
40,600 41,1500 42,2400 46,300
48,300 49,600 50,900 51,1200
52,2100 53,5300 54,900 56,1200
57,300 61,300 64,600 66,300
68,300 69,300 70,900 72,600
76,600 77,300 78,600 79,300
80,4700 81,300 83,300 92,300
93,300 94,900 108,9999 109,9700
110,1200
##END=
