##TITLE=2,3-Dihydrothiophene 1,1-dioxide
##JCAMP-DX=4.24
##DATA TYPE=MASS SPECTRUM
##ORIGIN=Japan AIST/NIMC Database- Spectrum MS-IW-3376
##OWNER=NIST Mass Spectrometry Data Center
Collection (C) 2014 copyright by the U.S. Secretary of Commerce
on behalf of the United States of America. All rights reserved.
##CAS REGISTRY NO=1192-16-1
##$NIST MASS SPEC NO=243802
##MOLFORM=C4 H6 O2 S
##MW=118
##$NIST SOURCE=MSDC
##XUNITS=M/Z
##YUNITS=RELATIVE INTENSITY
##XFACTOR=1
##YFACTOR=1
##FIRSTX=13
##LASTX=121
##FIRSTY=10
##MAXX=121
##MINX=13
##MAXY=9999
##MINY=10
##NPOINTS=73
##PEAK TABLE=(XY..XY)
13,10 14,30 15,60 25,50
26,1029 27,3149 28,5259 29,339
30,10 31,30 32,159 33,50
34,139 35,179 36,20 37,209
38,479 39,6769 40,379 41,2329
42,709 43,409 44,249 45,959
46,529 47,299 48,609 49,209
50,899 51,969 52,559 53,4549
54,1789 55,739 56,169 57,869
58,249 59,229 60,70 61,2019
62,1469 63,459 64,279 65,109
66,60 68,319 69,1219 70,1469
71,189 72,729 73,619 74,60
75,50 76,40 78,50 81,30
82,20 83,40 84,40 85,259
86,109 87,189 88,20 89,9999
90,649 91,559 92,30 101,40
103,10 118,2929 119,209 120,149
121,10
##END=
