##TITLE=Cyclopentane, 1,2-dimethyl-, cis-
##JCAMP-DX=4.24
##DATA TYPE=MASS SPECTRUM
##ORIGIN=NIST Mass Spectrometry Data Center, 1990.
##OWNER=NIST Mass Spectrometry Data Center
Collection (C) 2014 copyright by the U.S. Secretary of Commerce
on behalf of the United States of America. All rights reserved.
##CAS REGISTRY NO=1192-18-3
##$NIST MASS SPEC NO=114027
##MOLFORM=C7 H14
##MW=98
##$NIST SOURCE=MSDC
##XUNITS=M/Z
##YUNITS=RELATIVE INTENSITY
##XFACTOR=1
##YFACTOR=1
##FIRSTX=15
##LASTX=99
##FIRSTY=645
##MAXX=99
##MINX=15
##MAXY=9999
##MINY=111
##NPOINTS=34
##PEAK TABLE=(XY..XY)
15,645 26,484 27,3238 28,1109
29,1836 38,378 39,4412 40,961
41,7857 42,3151 43,920 50,343
51,586 52,278 53,1153 54,902
55,8429 56,8998 57,1175 63,137
65,258 66,122 67,511 68,540
69,3391 70,9999 71,555 77,213
79,249 81,156 83,1625 84,119
98,1380 99,111
##END=
