##TITLE=4-Aminothiophenol
##JCAMP-DX=4.24
##DATA TYPE=MASS SPECTRUM
##ORIGIN=J. MADSEN,DEP. ORG. CHEM.,TECH. UNIV. DENMARK,LYNGBY,DENMARK
##OWNER=NIST Mass Spectrometry Data Center
Collection (C) 2014 copyright by the U.S. Secretary of Commerce
on behalf of the United States of America. All rights reserved.
##CAS REGISTRY NO=1193-02-8
##$NIST MASS SPEC NO=98671
##MOLFORM=C6 H7 N S
##MW=125
##$NIST SOURCE=MSDC
##XUNITS=M/Z
##YUNITS=RELATIVE INTENSITY
##XFACTOR=1
##YFACTOR=1
##FIRSTX=37
##LASTX=127
##FIRSTY=70
##MAXX=127
##MINX=37
##MAXY=9999
##MINY=40
##NPOINTS=52
##PEAK TABLE=(XY..XY)
37,70 38,170 39,500 40,340
41,260 42,90 44,80 45,470
47,40 50,110 51,150 52,370
53,600 54,290 57,50 58,100
60,170 61,90 62,310 63,810
64,200 65,630 66,300 67,110
69,470 70,260 71,180 72,60
78,90 79,90 80,2530 81,1400
82,80 84,210 90,90 91,220
92,260 93,2080 94,140 95,80
96,200 97,1100 98,690 99,230
108,170 110,50 122,60 123,160
124,2300 125,9999 126,860 127,450
##END=
