##TITLE=3,3-Dimethylpiperidine
##JCAMP-DX=4.24
##DATA TYPE=MASS SPECTRUM
##ORIGIN=Chuck Anderson, Aldrich Chemical Co.
##OWNER=NIST Mass Spectrometry Data Center
Collection (C) 2014 copyright by the U.S. Secretary of Commerce
on behalf of the United States of America. All rights reserved.
##CAS REGISTRY NO=1193-12-0
##$NIST MASS SPEC NO=108449
##MOLFORM=C7 H15 N
##MW=113
##$NIST SOURCE=MSDC
##XUNITS=M/Z
##YUNITS=RELATIVE INTENSITY
##XFACTOR=1
##YFACTOR=1
##FIRSTX=15
##LASTX=114
##FIRSTY=91
##MAXX=114
##MINX=15
##MAXY=9999
##MINY=6
##NPOINTS=53
##PEAK TABLE=(XY..XY)
15,91 18,24 26,59 27,671
28,1032 29,1063 30,2086 31,35
32,6 38,48 39,847 40,173
41,1528 42,785 43,888 44,9999
45,277 47,30 48,15 50,30
51,67 52,39 53,189 54,118
55,609 56,1797 57,2437 58,113
65,47 66,6 67,205 68,158
69,197 70,1022 71,184 72,21
77,23 79,40 80,85 81,87
82,178 83,100 84,307 85,77
94,32 95,39 96,111 97,35
98,883 99,54 112,552 113,2375
114,200
##END=
