##TITLE=Pyrimidine, 4,6-dichloro-
##JCAMP-DX=4.24
##DATA TYPE=MASS SPECTRUM
##ORIGIN=NIST Mass Spectrometry Data Center
##OWNER=NIST Mass Spectrometry Data Center
Collection (C) 2014 copyright by the U.S. Secretary of Commerce
on behalf of the United States of America. All rights reserved.
##CAS REGISTRY NO=1193-21-1
##$NIST MASS SPEC NO=342719
##MOLFORM=C4 H2 Cl2 N2
##MW=148
##$NIST SOURCE=MSDC
##XUNITS=M/Z
##YUNITS=RELATIVE INTENSITY
##XFACTOR=1
##YFACTOR=1
##FIRSTX=12
##LASTX=152
##FIRSTY=150
##MAXX=152
##MINX=12
##MAXY=9999
##MINY=10
##NPOINTS=45
##PEAK TABLE=(XY..XY)
12,150 13,90 14,10 16,80
18,10 24,210 25,571 26,20
28,2372 32,480 35,971 36,310
37,500 38,861 39,520 40,40
47,761 48,90 49,300 50,871
51,4504 52,1161 53,140 60,1571
61,380 62,731 63,130 76,190
77,280 85,961 86,5595 87,520
88,1842 89,150 113,6856 114,410
115,2362 116,150 120,220 122,130
148,9999 149,731 150,6366 151,370
152,981
##END=
