##TITLE=Butanedioic acid, phenylmethyl propyl ester
##JCAMP-DX=4.24
##DATA TYPE=MASS SPECTRUM
##ORIGIN=E. Dziwinski, Inst. Heavy Org. Synth. Blachownia, Kedzierzyn-Kozle, Poland
##OWNER=NIST Mass Spectrometry Data Center
Collection (C) 2014 copyright by the U.S. Secretary of Commerce
on behalf of the United States of America. All rights reserved.
##CAS REGISTRY NO=119450-12-3
##$NIST MASS SPEC NO=115098
##MOLFORM=C14 H18 O4
##MW=250
##$NIST SOURCE=MSDC
##XUNITS=M/Z
##YUNITS=RELATIVE INTENSITY
##XFACTOR=1
##YFACTOR=1
##FIRSTX=39
##LASTX=250
##FIRSTY=500
##MAXX=250
##MINX=39
##MAXY=9999
##MINY=200
##NPOINTS=31
##PEAK TABLE=(XY..XY)
39,500 41,1000 42,300 43,1500
51,500 55,700 56,1300 63,200
65,1200 74,1200 75,1100 77,600
79,600 89,500 90,800 91,9999
92,1000 101,6100 102,300 105,500
106,300 107,3900 108,1000 116,800
143,2600 144,400 162,800 190,400
191,200 222,500 250,500
##END=
