##TITLE=Benzonitrile, 2,6-dichloro-
##JCAMP-DX=4.24
##DATA TYPE=MASS SPECTRUM
##ORIGIN=Japan AIST/NIMC Database- Spectrum MS-NW-2668
##OWNER=NIST Mass Spectrometry Data Center
Collection (C) 2014 copyright by the U.S. Secretary of Commerce
on behalf of the United States of America. All rights reserved.
##CAS REGISTRY NO=1194-65-6
##$NIST MASS SPEC NO=231349
##MOLFORM=C7 H3 Cl2 N
##MW=171
##$NIST SOURCE=MSDC
##XUNITS=M/Z
##YUNITS=RELATIVE INTENSITY
##XFACTOR=1
##YFACTOR=1
##FIRSTX=25
##LASTX=176
##FIRSTY=20
##MAXX=176
##MINX=25
##MAXY=9999
##MINY=10
##NPOINTS=80
##PEAK TABLE=(XY..XY)
25,20 26,40 27,20 28,20
35,60 36,90 37,279 38,149
39,60 47,90 48,50 49,209
50,819 51,269 52,40 54,10
55,10 60,139 61,219 62,149
63,109 64,30 67,80 68,40
69,10 71,20 72,149 73,369
74,579 75,1079 76,369 77,20
83,30 84,229 85,259 86,199
87,109 88,40 94,10 95,10
96,30 97,40 98,80 99,529
100,2149 101,279 102,20 107,40
108,60 109,349 110,329 111,179
112,99 113,20 119,10 120,30
121,10 122,40 124,10 131,10
132,10 133,20 134,70 135,269
136,2089 137,249 138,669 139,50
144,90 145,30 146,60 147,20
148,10 170,20 171,9999 172,819
173,6409 174,529 175,1029 176,80
##END=
