##TITLE=Butanedioic acid, hexyl phenylmethyl ester
##JCAMP-DX=4.24
##DATA TYPE=MASS SPECTRUM
##ORIGIN=E. Dziwinski, Inst. Heavy Org. Synth. Blachownia, Kedzierzyn-Kozle, Poland
##OWNER=NIST Mass Spectrometry Data Center
Collection (C) 2014 copyright by the U.S. Secretary of Commerce
on behalf of the United States of America. All rights reserved.
##CAS REGISTRY NO=119450-14-5
##$NIST MASS SPEC NO=115101
##MOLFORM=C17 H24 O4
##MW=292
##$NIST SOURCE=MSDC
##XUNITS=M/Z
##YUNITS=RELATIVE INTENSITY
##XFACTOR=1
##YFACTOR=1
##FIRSTX=39
##LASTX=292
##FIRSTY=1600
##MAXX=292
##MINX=39
##MAXY=9999
##MINY=100
##NPOINTS=45
##PEAK TABLE=(XY..XY)
39,1600 41,3200 42,1200 43,3800
51,800 55,2400 56,2800 57,4000
58,400 63,200 65,1600 73,400
74,1600 75,1200 77,1600 78,300
79,800 83,400 84,800 85,2000
86,200 89,400 90,500 91,9999
92,1600 101,5600 102,300 105,500
106,500 107,4000 108,2000 118,200
120,200 121,200 135,200 141,200
158,200 162,500 163,100 185,400
186,100 190,200 191,100 264,100
292,100
##END=
