##TITLE=2,6-Dichloronitrosobenzene
##JCAMP-DX=4.24
##DATA TYPE=MASS SPECTRUM
##ORIGIN=NIST Mass Spectrometry Data Center, 1994
##OWNER=NIST Mass Spectrometry Data Center
Collection (C) 2014 copyright by the U.S. Secretary of Commerce
on behalf of the United States of America. All rights reserved.
##CAS REGISTRY NO=1194-66-7
##$NIST MASS SPEC NO=136015
##MOLFORM=C6 H3 Cl2 N O
##MW=175
##$NIST SOURCE=MSDC
##XUNITS=M/Z
##YUNITS=RELATIVE INTENSITY
##XFACTOR=1
##YFACTOR=1
##FIRSTX=25
##LASTX=179
##FIRSTY=125
##MAXX=179
##MINX=25
##MAXY=9999
##MINY=70
##NPOINTS=58
##PEAK TABLE=(XY..XY)
25,125 26,70 30,2865 35,510
36,380 37,1916 38,987 39,311
47,432 48,294 49,1187 50,1331
51,541 52,172 60,510 61,1112
62,804 63,612 64,246 71,141
72,414 73,1593 74,5122 75,3925
76,434 83,161 84,2131 85,912
86,957 87,542 88,382 90,212
97,253 98,236 99,160 107,120
109,7504 110,1810 111,2736 112,547
118,103 119,249 121,178 124,388
125,128 126,183 145,9999 146,838
147,6751 148,427 149,1128 161,458
163,319 175,6825 176,565 177,4398
178,354 179,772
##END=
