##TITLE=Butanedioic acid, nonyl phenylmethyl ester
##JCAMP-DX=4.24
##DATA TYPE=MASS SPECTRUM
##ORIGIN=E. Dziwinski, Inst. Heavy Org. Synth. Blachownia, Kedzierzyn-Kozle, Poland
##OWNER=NIST Mass Spectrometry Data Center
Collection (C) 2014 copyright by the U.S. Secretary of Commerce
on behalf of the United States of America. All rights reserved.
##CAS REGISTRY NO=119450-17-8
##$NIST MASS SPEC NO=115104
##MOLFORM=C20 H30 O4
##MW=334
##$NIST SOURCE=MSDC
##XUNITS=M/Z
##YUNITS=RELATIVE INTENSITY
##XFACTOR=1
##YFACTOR=1
##FIRSTX=39
##LASTX=334
##FIRSTY=1200
##MAXX=334
##MINX=39
##MAXY=9999
##MINY=100
##NPOINTS=34
##PEAK TABLE=(XY..XY)
39,1200 41,5000 42,900 43,5600
51,900 55,4200 56,5000 57,5900
63,400 69,2500 70,1300 71,3400
77,1300 79,1300 83,1300 85,2100
89,400 90,900 91,9999 92,1300
101,6300 102,400 107,3800 108,1300
119,1200 127,900 162,500 190,200
191,100 200,100 227,300 228,100
306,100 334,100
##END=
