##TITLE=2,5-Dihydroxybenzaldehyde
##JCAMP-DX=4.24
##DATA TYPE=MASS SPECTRUM
##ORIGIN=NIST Mass Spectrometry Data Center, 1994
##OWNER=NIST Mass Spectrometry Data Center
Collection (C) 2014 copyright by the U.S. Secretary of Commerce
on behalf of the United States of America. All rights reserved.
##CAS REGISTRY NO=1194-98-5
##$NIST MASS SPEC NO=133730
##MOLFORM=C7 H6 O3
##MW=138
##$NIST SOURCE=MSDC
##XUNITS=M/Z
##YUNITS=RELATIVE INTENSITY
##XFACTOR=1
##YFACTOR=1
##FIRSTX=14
##LASTX=140
##FIRSTY=16
##MAXX=140
##MINX=14
##MAXY=9999
##MINY=16
##NPOINTS=63
##PEAK TABLE=(XY..XY)
14,16 25,133 26,495 27,952
28,230 29,914 30,45 31,64
32,39 36,42 37,237 38,379
39,666 40,87 41,99 42,161
43,68 45,39 46,85 49,161
50,489 51,645 52,731 53,2718
54,805 55,1199 56,99 60,83
61,257 62,397 63,740 64,413
65,140 66,141 67,47 68,47
69,628 70,25 71,26 73,50
74,75 75,32 77,79 78,25
79,138 80,267 81,2276 82,485
83,53 84,59 90,22 92,2237
93,190 108,282 109,1566 110,510
111,42 120,785 121,82 137,6541
138,9999 139,781 140,82
##END=
