##TITLE=2-Methoxy-5-methylphenol
##JCAMP-DX=4.24
##DATA TYPE=MASS SPECTRUM
##ORIGIN=NIST Mass Spectrometry Data Center
##OWNER=NIST Mass Spectrometry Data Center
Collection (C) 2014 copyright by the U.S. Secretary of Commerce
on behalf of the United States of America. All rights reserved.
##CAS REGISTRY NO=1195-09-1
##$NIST MASS SPEC NO=343656
##MOLFORM=C8 H10 O2
##MW=138
##$NIST SOURCE=MSDC
##XUNITS=M/Z
##YUNITS=RELATIVE INTENSITY
##XFACTOR=1
##YFACTOR=1
##FIRSTX=13
##LASTX=140
##FIRSTY=10
##MAXX=140
##MINX=13
##MAXY=9999
##MINY=10
##NPOINTS=79
##PEAK TABLE=(XY..XY)
13,10 14,80 15,741 16,10
18,10 25,10 26,130 27,561
28,110 29,330 30,30 31,70
32,10 33,10 37,130 38,420
39,1762 40,500 41,911 42,110
43,200 44,10 45,10 46,10
47,10 49,60 50,500 51,1031
52,370 53,641 54,100 55,1531
56,60 60,10 61,90 62,200
63,370 64,120 65,901 66,931
67,2222 68,150 69,130 73,10
74,80 75,50 76,70 77,1441
78,360 79,270 80,30 81,100
82,10 86,10 89,30 90,20
91,180 92,20 93,70 94,561
95,3043 96,210 97,10 105,70
106,120 107,120 108,30 109,110
110,10 121,60 123,9999 124,701
125,60 135,30 136,60 137,510
138,7337 139,621 140,60
##END=
