##TITLE=Fenchone
##JCAMP-DX=4.24
##DATA TYPE=MASS SPECTRUM
##ORIGIN=NIST Mass Spectrometry Data Center, 1990.
##OWNER=NIST Mass Spectrometry Data Center
Collection (C) 2014 copyright by the U.S. Secretary of Commerce
on behalf of the United States of America. All rights reserved.
##CAS REGISTRY NO=1195-79-5
##$NIST MASS SPEC NO=114697
##MOLFORM=C10 H16 O
##MW=152
##$NIST SOURCE=MSDC
##XUNITS=M/Z
##YUNITS=RELATIVE INTENSITY
##XFACTOR=1
##YFACTOR=1
##FIRSTX=15
##LASTX=153
##FIRSTY=54
##MAXX=153
##MINX=15
##MAXY=9999
##MINY=16
##NPOINTS=44
##PEAK TABLE=(XY..XY)
15,54 26,57 27,535 28,96
29,295 32,16 39,1302 40,302
41,2643 42,360 43,267 50,115
51,266 52,150 53,801 54,154
55,524 56,67 57,55 63,81
65,299 66,128 67,1113 68,618
69,5304 70,421 72,185 77,397
78,107 79,790 80,1640 81,9999
82,853 83,69 91,211 93,80
95,161 96,37 109,594 110,56
123,41 137,192 152,1309 153,138
##END=
