##TITLE=N-Isopropylcyclohexylamine
##JCAMP-DX=4.24
##DATA TYPE=MASS SPECTRUM
##ORIGIN=Japan AIST/NIMC Database- Spectrum MS-NW-8585
##OWNER=NIST Mass Spectrometry Data Center
Collection (C) 2014 copyright by the U.S. Secretary of Commerce
on behalf of the United States of America. All rights reserved.
##CAS REGISTRY NO=1195-42-2
##$NIST MASS SPEC NO=235893
##MOLFORM=C9 H19 N
##MW=141
##$NIST SOURCE=MSDC
##XUNITS=M/Z
##YUNITS=RELATIVE INTENSITY
##XFACTOR=1
##YFACTOR=1
##FIRSTX=15
##LASTX=143
##FIRSTY=80
##MAXX=143
##MINX=15
##MAXY=9999
##MINY=10
##NPOINTS=66
##PEAK TABLE=(XY..XY)
15,80 26,20 27,579 28,619
29,359 30,529 31,10 38,10
39,469 40,70 41,1419 42,549
43,979 44,5109 45,139 50,10
51,30 52,30 53,189 54,239
55,1199 56,3649 57,249 58,599
59,30 60,20 63,10 65,30
66,20 67,139 68,129 69,90
70,1679 71,129 72,189 73,30
77,50 78,10 79,109 80,40
81,239 82,179 83,319 84,379
85,599 86,30 91,10 94,20
96,90 97,30 98,9999 99,739
100,30 110,30 111,10 112,329
113,40 124,30 125,10 126,3219
127,299 128,10 140,159 141,1479
142,209 143,10
##END=
