##TITLE=Indole-6-carboxaldehyde
##JCAMP-DX=4.24
##DATA TYPE=MASS SPECTRUM
##ORIGIN=NIST Mass Spectrometry Data Center
##OWNER=NIST Mass Spectrometry Data Center
Collection (C) 2014 copyright by the U.S. Secretary of Commerce
on behalf of the United States of America. All rights reserved.
##CAS REGISTRY NO=1196-70-9
##$NIST MASS SPEC NO=352529
##MOLFORM=C9 H7 N O
##MW=145
##$NIST SOURCE=MSDC
##XUNITS=M/Z
##YUNITS=RELATIVE INTENSITY
##XFACTOR=1
##YFACTOR=1
##FIRSTX=26
##LASTX=147
##FIRSTY=20
##MAXX=147
##MINX=26
##MAXY=9999
##MINY=10
##NPOINTS=69
##PEAK TABLE=(XY..XY)
26,20 27,40 28,180 29,170
36,10 37,160 38,320 39,721
40,80 41,80 42,20 43,70
44,30 45,30 48,10 49,90
50,520 51,520 52,320 53,70
54,20 56,30 58,1481 60,40
61,430 62,1271 63,2372 64,510
65,310 66,60 67,10 72,110
73,50 74,210 75,190 76,160
77,40 78,50 79,10 84,40
85,170 86,360 87,470 88,621
89,4224 90,1241 91,110 92,10
97,10 98,40 99,20 100,20
101,20 102,20 103,10 110,10
111,20 112,10 113,10 114,350
115,721 116,8778 117,1451 118,90
128,20 144,8568 145,9999 146,1001
147,60
##END=
