##TITLE=Benzene, (1-ethylpropyl)-
##JCAMP-DX=4.24
##DATA TYPE=MASS SPECTRUM
##ORIGIN=Japan AIST/NIMC Database- Spectrum MS-NW-5190
##OWNER=NIST Mass Spectrometry Data Center
Collection (C) 2014 copyright by the U.S. Secretary of Commerce
on behalf of the United States of America. All rights reserved.
##CAS REGISTRY NO=1196-58-3
##$NIST MASS SPEC NO=232484
##MOLFORM=C11 H16
##MW=148
##$NIST SOURCE=MSDC
##XUNITS=M/Z
##YUNITS=RELATIVE INTENSITY
##XFACTOR=1
##YFACTOR=1
##FIRSTX=15
##LASTX=150
##FIRSTY=20
##MAXX=150
##MINX=15
##MAXY=9999
##MINY=10
##NPOINTS=73
##PEAK TABLE=(XY..XY)
15,20 26,30 27,369 28,30
29,219 37,10 38,40 39,599
40,50 41,1259 42,60 43,40
49,10 50,149 51,469 52,129
53,109 54,10 55,70 56,10
57,30 58,10 61,20 62,60
63,199 64,60 65,439 66,30
67,20 69,20 70,10 73,10
74,50 75,60 76,70 77,589
78,329 79,299 80,20 86,10
87,30 88,10 89,129 90,50
91,9999 92,799 93,30 101,20
102,99 103,309 104,299 105,189
106,20 113,10 114,10 115,449
116,119 117,649 118,219 119,5509
120,559 121,30 127,10 128,30
129,20 131,30 132,10 145,10
146,99 147,20 148,2119 149,279
150,20
##END=
