##TITLE=Bicyclo[6.1.0]nonane, 9,9-dibromo-,
##JCAMP-DX=4.24
##DATA TYPE=MASS SPECTRUM
##ORIGIN=V.Zaikin,Topchiev Inst.Petrochem.Synth.,Moscow
##OWNER=NIST Mass Spectrometry Data Center
Collection (C) 2014 copyright by the U.S. Secretary of Commerce
on behalf of the United States of America. All rights reserved.
##CAS REGISTRY NO=1196-95-8
##$NIST MASS SPEC NO=281780
##MOLFORM=C9 H14 Br2
##MW=280
##$NIST SOURCE=MSDC
##XUNITS=M/Z
##YUNITS=RELATIVE INTENSITY
##XFACTOR=1
##YFACTOR=1
##FIRSTX=24
##LASTX=285
##FIRSTY=20
##MAXX=285
##MINX=24
##MAXY=9999
##MINY=10
##NPOINTS=163
##PEAK TABLE=(XY..XY)
24,20 25,70 26,410 27,1651
28,490 29,841 30,20 35,20
36,70 37,170 38,500 39,4594
40,811 41,4744 42,631 43,490
44,20 45,60 46,20 48,20
49,120 50,931 51,2432 52,1221
53,2532 54,2742 55,4394 56,290
57,130 58,80 59,20 60,10
61,90 62,280 63,851 64,240
65,3833 66,2272 67,6536 68,2212
69,701 70,100 73,30 74,150
75,100 76,100 77,4294 78,1501
79,9999 80,2793 81,7957 82,1381
83,510 84,30 85,30 86,40
87,50 89,190 90,80 91,3533
92,1141 93,5725 94,901 95,1481
96,6045 97,510 98,30 101,10
102,40 103,170 104,180 105,991
106,320 107,711 108,80 109,420
110,50 115,150 116,50 117,631
118,120 119,1261 120,260 121,6466
122,861 123,150 128,10 129,50
130,70 131,1331 132,260 133,1561
134,230 135,290 136,20 143,200
144,390 145,701 146,460 147,520
148,100 149,50 156,20 157,130
158,100 159,791 160,130 161,651
162,80 166,20 168,30 169,20
170,50 171,170 172,160 173,280
174,130 175,130 176,30 184,130
185,30 186,290 187,40 188,130
195,10 197,801 198,70 199,1491
200,100 201,1201 202,110 203,410
204,40 210,3223 211,210 212,6306
213,400 214,3073 215,200 223,60
224,60 225,130 226,120 227,70
228,70 237,40 238,30 239,70
240,50 241,40 242,20 251,50
252,20 253,100 254,20 255,40
256,20 280,951 281,100 282,1792
283,190 284,881 285,80
##END=
