##TITLE=Benzenemethanol, .alpha.,.alpha.,4-trimethyl-
##JCAMP-DX=4.24
##DATA TYPE=MASS SPECTRUM
##ORIGIN=N.W. DAVIES, UNIVERSITY OF TASMANIA, TASMANIA, AUSTRALIA
##OWNER=NIST Mass Spectrometry Data Center
Collection (C) 2014 copyright by the U.S. Secretary of Commerce
on behalf of the United States of America. All rights reserved.
##CAS REGISTRY NO=1197-01-9
##$NIST MASS SPEC NO=70246
##MOLFORM=C10 H14 O
##MW=150
##$NIST SOURCE=MSDC
##XUNITS=M/Z
##YUNITS=RELATIVE INTENSITY
##XFACTOR=1
##YFACTOR=1
##FIRSTX=27
##LASTX=150
##FIRSTY=230
##MAXX=150
##MINX=27
##MAXY=9999
##MINY=100
##NPOINTS=40
##PEAK TABLE=(XY..XY)
27,230 29,110 31,100 39,640
41,350 43,9999 44,240 50,160
51,430 52,110 53,130 57,170
59,240 63,360 64,200 65,800
66,100 67,310 73,100 74,150
77,370 78,110 79,100 89,240
91,1670 92,530 93,140 105,250
107,150 115,680 116,230 117,1320
118,140 119,260 131,270 132,1430
133,290 135,5310 136,510 150,410
##END=
