##TITLE=Benzeneacetic acid, 4-amino-
##JCAMP-DX=4.24
##DATA TYPE=MASS SPECTRUM
##ORIGIN=Japan AIST/NIMC Database- Spectrum MS-NW-2460
##OWNER=NIST Mass Spectrometry Data Center
Collection (C) 2014 copyright by the U.S. Secretary of Commerce
on behalf of the United States of America. All rights reserved.
##CAS REGISTRY NO=1197-55-3
##$NIST MASS SPEC NO=230990
##MOLFORM=C8 H9 N O2
##MW=151
##$NIST SOURCE=MSDC
##XUNITS=M/Z
##YUNITS=RELATIVE INTENSITY
##XFACTOR=1
##YFACTOR=1
##FIRSTX=14
##LASTX=153
##FIRSTY=20
##MAXX=153
##MINX=14
##MAXY=9999
##MINY=10
##NPOINTS=64
##PEAK TABLE=(XY..XY)
14,20 16,20 18,20 26,20
27,90 28,149 29,20 30,50
37,20 38,50 39,209 40,30
41,80 42,40 43,20 44,99
45,80 49,10 50,129 51,279
52,259 53,309 54,109 55,10
57,10 61,20 62,50 63,99
64,30 65,99 66,70 67,50
71,10 74,30 75,30 76,50
77,829 78,389 79,419 80,129
81,20 87,10 89,80 90,20
91,30 92,10 93,30 94,30
102,10 103,10 104,259 105,109
106,9999 107,809 108,139 109,10
120,20 121,10 122,30 133,30
150,30 151,3219 152,299 153,20
##END=
