##TITLE=1H-Purin-2-amine, 6-(methylthio)-
##JCAMP-DX=4.24
##DATA TYPE=MASS SPECTRUM
##ORIGIN=MASS SPECTROMETRY CENTER, UNIV. OF UTAH ALDRICH A06460-7
##OWNER=NIST Mass Spectrometry Data Center
Collection (C) 2014 copyright by the U.S. Secretary of Commerce
on behalf of the United States of America. All rights reserved.
##CAS REGISTRY NO=1198-47-6
##$NIST MASS SPEC NO=52434
##MOLFORM=C6 H7 N5 S
##MW=181
##$NIST SOURCE=MSDC
##XUNITS=M/Z
##YUNITS=RELATIVE INTENSITY
##XFACTOR=1
##YFACTOR=1
##FIRSTX=12
##LASTX=184
##FIRSTY=79
##MAXX=184
##MINX=12
##MAXY=9999
##MINY=29
##NPOINTS=110
##PEAK TABLE=(XY..XY)
12,79 13,87 15,302 17,55
18,234 26,122 27,810 28,2385
29,208 30,98 33,59 34,74
36,159 38,550 39,302 40,205
41,171 42,431 43,1989 44,403
45,956 46,359 47,436 48,136
49,80 50,61 51,59 52,163
53,1474 54,749 55,290 56,140
57,174 58,210 59,202 60,295
61,58 64,233 65,768 66,899
67,305 68,1135 69,173 70,793
71,364 72,134 73,77 74,238
76,175 78,87 79,169 80,561
81,263 82,190 83,262 84,95
85,689 86,444 87,114 91,234
92,730 93,2058 94,309 95,29
96,175 97,136 98,77 99,140
100,59 106,181 107,920 108,1758
109,623 110,180 111,168 112,324
113,78 114,49 118,197 119,1178
120,110 121,697 122,124 123,62
126,335 127,121 133,402 134,2079
135,3091 136,1237 137,226 138,123
139,490 140,179 148,298 149,214
150,46 151,346 152,57 153,409
154,181 155,47 164,200 165,88
166,90 179,249 181,9999 182,1086
183,530 184,69
##END=
