##TITLE=Benzene, 1,3-dichloro-2,4,5,6-tetrafluoro-
##JCAMP-DX=4.24
##DATA TYPE=MASS SPECTRUM
##OWNER=NIST Mass Spectrometry Data Center
Collection (C) 2014 copyright by the U.S. Secretary of Commerce
on behalf of the United States of America. All rights reserved.
##CAS REGISTRY NO=1198-61-4
##$NIST MASS SPEC NO=10253
##MOLFORM=C6 Cl2 F4
##MW=218
##$NIST SOURCE=MSDC
##XUNITS=M/Z
##YUNITS=RELATIVE INTENSITY
##XFACTOR=1
##YFACTOR=1
##FIRSTX=31
##LASTX=222
##FIRSTY=300
##MAXX=222
##MINX=31
##MAXY=9999
##MINY=200
##NPOINTS=29
##PEAK TABLE=(XY..XY)
31,300 73,300 79,1001 85,300
90,200 93,300 98,1001 109,1401
110,701 111,400 114,500 116,1001
129,200 133,3103 135,1001 148,701
149,400 151,200 164,200 183,3803
185,801 187,500 189,200 199,200
218,9999 219,701 220,6206 221,300
222,1001
##END=
