##TITLE=Quinoline, 2,4-dimethyl-
##JCAMP-DX=4.24
##DATA TYPE=MASS SPECTRUM
##ORIGIN=Japan AIST/NIMC Database- Spectrum MS-NW-3093
##OWNER=NIST Mass Spectrometry Data Center
Collection (C) 2014 copyright by the U.S. Secretary of Commerce
on behalf of the United States of America. All rights reserved.
##CAS REGISTRY NO=1198-37-4
##$NIST MASS SPEC NO=229294
##MOLFORM=C11 H11 N
##MW=157
##$NIST SOURCE=MSDC
##XUNITS=M/Z
##YUNITS=RELATIVE INTENSITY
##XFACTOR=1
##YFACTOR=1
##FIRSTX=15
##LASTX=159
##FIRSTY=10
##MAXX=159
##MINX=15
##MAXY=9999
##MINY=10
##NPOINTS=77
##PEAK TABLE=(XY..XY)
15,10 26,20 27,80 28,40
37,20 38,60 39,339 40,30
41,40 42,40 44,10 50,159
51,319 52,80 53,40 54,10
57,70 58,10 61,30 62,119
63,329 64,129 65,219 66,40
70,30 71,10 73,10 74,99
75,209 76,149 77,329 78,179
79,30 85,10 86,30 87,60
88,70 89,329 90,70 91,80
92,10 93,10 98,10 99,20
100,20 101,139 102,99 103,80
104,40 113,80 114,119 115,1139
116,479 117,139 118,179 119,10
126,20 127,169 128,349 129,409
130,329 131,60 132,20 139,10
140,239 141,129 142,719 143,70
144,10 152,10 153,20 154,159
155,99 156,1509 157,9999 158,1269
159,70
##END=
