##TITLE=Benzene, 1,2-dichloro-3,4,5,6-tetrafluoro-
##JCAMP-DX=4.24
##DATA TYPE=MASS SPECTRUM
##OWNER=NIST Mass Spectrometry Data Center
Collection (C) 2014 copyright by the U.S. Secretary of Commerce
on behalf of the United States of America. All rights reserved.
##CAS REGISTRY NO=1198-59-0
##$NIST MASS SPEC NO=10252
##MOLFORM=C6 Cl2 F4
##MW=218
##$NIST SOURCE=MSDC
##XUNITS=M/Z
##YUNITS=RELATIVE INTENSITY
##XFACTOR=1
##YFACTOR=1
##FIRSTX=69
##LASTX=222
##FIRSTY=127
##MAXX=222
##MINX=69
##MAXY=9999
##MINY=32
##NPOINTS=48
##PEAK TABLE=(XY..XY)
69,127 74,159 78,921 79,794
86,95 87,127 88,159 90,111
91,111 92,127 93,270 98,762
109,1111 110,603 111,317 114,317
115,95 116,127 117,603 118,111
129,127 133,2539 134,190 135,873
148,429 149,429 150,79 151,254
152,111 153,95 164,127 166,63
183,2381 184,413 185,762 186,127
187,222 188,79 189,127 199,127
200,32 201,95 202,111 218,9999
219,714 220,6507 221,444 222,1079
##END=
