##TITLE=1,2,4-Oxadiazole, 3-methyl-5-phenyl-
##JCAMP-DX=4.24
##DATA TYPE=MASS SPECTRUM
##ORIGIN=A.A.Kutin, Moscow, Russia
##OWNER=NIST Mass Spectrometry Data Center
Collection (C) 2014 copyright by the U.S. Secretary of Commerce
on behalf of the United States of America. All rights reserved.
##CAS REGISTRY NO=1199-00-4
##$NIST MASS SPEC NO=261963
##MOLFORM=C9 H8 N2 O
##MW=160
##$NIST SOURCE=MSDC
##XUNITS=M/Z
##YUNITS=RELATIVE INTENSITY
##XFACTOR=1
##YFACTOR=1
##FIRSTX=33
##LASTX=162
##FIRSTY=287
##MAXX=162
##MINX=33
##MAXY=9999
##MINY=44
##NPOINTS=98
##PEAK TABLE=(XY..XY)
33,287 34,219 35,162 36,202
37,197 38,681 39,2352 40,738
41,3087 42,931 43,3382 44,1106
45,372 47,524 49,116 50,1904
51,2800 52,703 53,210 54,457
55,1698 56,793 57,2675 59,313
60,506 62,730 63,1058 64,583
65,488 67,931 68,256 69,1170
70,528 71,931 72,215 73,515
74,565 75,766 76,1877 77,3109
78,462 79,515 81,918 82,565
83,1904 84,569 85,1411 86,179
87,322 88,246 89,955 90,918
91,650 93,416 94,112 95,524
96,99 97,399 98,296 99,54
101,193 102,618 103,7616 104,8879
105,1707 106,188 107,206 108,54
109,233 111,175 112,309 113,162
114,44 115,63 116,116 117,556
119,533 120,237 121,408 122,206
124,278 125,99 127,94 128,368
129,1873 130,340 131,193 133,157
135,103 139,54 142,44 143,228
144,246 145,1724 146,193 160,9999
161,959 162,44
##END=
