##TITLE=2,5-Dimethoxyethylbenzene
##JCAMP-DX=4.24
##DATA TYPE=MASS SPECTRUM
##ORIGIN=Dr. Jiri Zamecnik, DCIEM, North York, Canada, GP Library
##OWNER=NIST Mass Spectrometry Data Center
Collection (C) 2014 copyright by the U.S. Secretary of Commerce
on behalf of the United States of America. All rights reserved.
##CAS REGISTRY NO=1199-08-2
##$NIST MASS SPEC NO=121489
##MOLFORM=C10 H14 O2
##MW=166
##$NIST SOURCE=MSDC
##XUNITS=M/Z
##YUNITS=RELATIVE INTENSITY
##XFACTOR=1
##YFACTOR=1
##FIRSTX=39
##LASTX=167
##FIRSTY=1450
##MAXX=167
##MINX=39
##MAXY=9999
##MINY=300
##NPOINTS=23
##PEAK TABLE=(XY..XY)
39,1450 51,940 53,900 63,540
65,1580 77,2480 78,910 79,1420
91,3990 92,570 103,770 107,450
108,1770 119,1680 121,1990 123,1350
133,300 135,860 136,1870 151,9999
152,1090 166,9240 167,1120
##END=
