##TITLE=4-Dimethylamino-o-tolualdehyde
##JCAMP-DX=4.24
##DATA TYPE=MASS SPECTRUM
##ORIGIN=NIST Mass Spectrometry Data Center, 1994
##OWNER=NIST Mass Spectrometry Data Center
Collection (C) 2014 copyright by the U.S. Secretary of Commerce
on behalf of the United States of America. All rights reserved.
##CAS REGISTRY NO=1199-59-3
##$NIST MASS SPEC NO=135836
##MOLFORM=C10 H13 N O
##MW=163
##$NIST SOURCE=MSDC
##XUNITS=M/Z
##YUNITS=RELATIVE INTENSITY
##XFACTOR=1
##YFACTOR=1
##FIRSTX=13
##LASTX=165
##FIRSTY=16
##MAXX=165
##MINX=13
##MAXY=9999
##MINY=10
##NPOINTS=87
##PEAK TABLE=(XY..XY)
13,16 14,93 15,1635 16,10
17,31 18,87 26,61 27,295
28,430 29,910 30,50 37,80
38,320 39,1437 40,219 41,424
42,1550 43,140 44,332 46,13
50,482 51,1064 52,380 53,249
54,94 55,109 56,57 57,16
59,171 61,108 62,438 63,1148
64,343 65,1518 66,16 67,655
68,206 69,53 73,53 74,100
75,192 76,216 77,1090 78,451
79,285 80,325 85,33 86,101
87,91 88,33 89,843 90,490
91,2695 92,431 93,331 94,126
95,15 102,90 103,155 104,254
105,283 106,181 107,89 108,52
115,78 116,132 117,499 118,1290
119,849 120,207 121,20 130,61
131,39 132,311 133,243 134,1534
135,195 136,16 146,798 147,258
148,173 149,23 160,86 162,9999
163,6697 164,768 165,41
##END=
