##TITLE=Pyrrolidine, 1-methyl-
##JCAMP-DX=4.24
##DATA TYPE=MASS SPECTRUM
##ORIGIN=Japan AIST/NIMC Database- Spectrum MS-NW-3530
##OWNER=NIST Mass Spectrometry Data Center
Collection (C) 2014 copyright by the U.S. Secretary of Commerce
on behalf of the United States of America. All rights reserved.
##CAS REGISTRY NO=120-94-5
##$NIST MASS SPEC NO=233939
##MOLFORM=C5 H11 N
##MW=85
##$NIST SOURCE=MSDC
##XUNITS=M/Z
##YUNITS=RELATIVE INTENSITY
##XFACTOR=1
##YFACTOR=1
##FIRSTX=13
##LASTX=86
##FIRSTY=10
##MAXX=86
##MINX=13
##MAXY=9999
##MINY=10
##NPOINTS=46
##PEAK TABLE=(XY..XY)
13,10 14,70 15,1279 16,20
25,10 26,209 27,859 28,299
29,359 30,419 31,10 36,10
37,50 38,99 39,669 40,189
41,1069 42,9999 43,939 44,369
45,10 49,10 50,50 51,50
52,60 53,109 54,239 55,659
56,329 57,8969 58,419 59,10
65,20 66,20 67,189 68,149
69,99 70,149 71,20 80,90
81,90 82,939 83,199 84,9719
85,5579 86,339
##END=
