##TITLE=Benzeneethanamine, 3,4-dimethoxy-
##JCAMP-DX=4.24
##DATA TYPE=MASS SPECTRUM
##ORIGIN=NIST Mass Spectrometry Data Center, 1994
##OWNER=NIST Mass Spectrometry Data Center
Collection (C) 2014 copyright by the U.S. Secretary of Commerce
on behalf of the United States of America. All rights reserved.
##CAS REGISTRY NO=120-20-7
##$NIST MASS SPEC NO=135258
##MOLFORM=C10 H15 N O2
##MW=181
##$NIST SOURCE=MSDC
##XUNITS=M/Z
##YUNITS=RELATIVE INTENSITY
##XFACTOR=1
##YFACTOR=1
##FIRSTX=13
##LASTX=182
##FIRSTY=20
##MAXX=182
##MINX=13
##MAXY=9999
##MINY=11
##NPOINTS=96
##PEAK TABLE=(XY..XY)
13,20 14,86 15,828 16,22
17,35 18,29 26,45 27,211
28,906 29,20 30,9999 31,147
32,16 37,40 38,186 39,1091
40,143 41,207 42,165 43,139
44,38 45,36 47,37 50,312
51,909 52,321 53,289 54,79
55,140 56,19 57,21 61,38
62,124 63,368 64,213 65,971
66,289 67,183 68,44 69,31
73,11 74,39 75,64 76,11
77,788 78,807 79,546 80,228
81,196 82,27 87,16 89,333
90,406 91,829 92,185 93,171
94,317 95,98 102,19 103,34
104,68 105,516 106,703 107,1242
108,474 109,539 110,48 116,19
117,41 118,126 119,71 120,54
121,374 122,215 123,72 132,22
133,42 134,97 135,319 136,22
137,1752 138,166 147,16 148,44
149,80 150,16 151,3348 152,6572
153,657 154,57 163,15 164,72
165,33 179,23 181,617 182,65
##END=
