##TITLE=N,N'-Bis(2-hydroxyethyl)dithiooxamide
##JCAMP-DX=4.24
##DATA TYPE=MASS SPECTRUM
##ORIGIN=NIST Mass Spectrometry Data Center, 1992
##OWNER=NIST Mass Spectrometry Data Center
Collection (C) 2014 copyright by the U.S. Secretary of Commerce
on behalf of the United States of America. All rights reserved.
##CAS REGISTRY NO=120-86-5
##$NIST MASS SPEC NO=125178
##MOLFORM=C6 H12 N2 O2 S2
##MW=208
##$NIST SOURCE=MSDC
##XUNITS=M/Z
##YUNITS=RELATIVE INTENSITY
##XFACTOR=1
##YFACTOR=1
##FIRSTX=15
##LASTX=211
##FIRSTY=1637
##MAXX=211
##MINX=15
##MAXY=9999
##MINY=41
##NPOINTS=160
##PEAK TABLE=(XY..XY)
15,1637 17,43 18,89 26,514
27,3095 28,1106 29,1912 30,2049
31,1790 32,378 33,824 34,1822
35,237 36,136 37,75 38,158
39,239 40,1197 41,1800 42,5571
43,2380 44,3946 45,9126 46,753
47,641 48,41 49,94 51,181
52,197 53,503 54,1040 55,423
56,1459 57,1299 58,830 59,2095
60,5882 61,1330 62,6203 63,325
64,692 66,272 67,190 68,178
69,441 70,2663 71,1243 72,4786
73,1123 74,1004 75,377 76,419
77,611 78,114 79,168 80,83
81,146 82,353 83,373 84,595
85,1528 86,7013 87,1416 88,1933
89,553 90,434 91,242 92,109
93,87 94,164 95,206 96,106
97,1382 98,744 99,554 100,252
101,245 102,447 103,959 104,2523
105,803 106,466 107,84 108,70
109,70 110,819 111,450 112,355
113,1035 114,896 115,3317 116,1202
117,715 118,671 119,333 120,363
121,149 122,65 123,112 124,69
125,99 126,107 127,188 128,239
129,404 130,65 131,3207 132,355
133,1142 134,141 135,170 136,75
139,666 140,1939 141,1197 142,209
143,696 144,428 145,556 146,566
147,2986 148,436 149,755 150,126
151,133 154,86 155,535 156,369
157,182 158,85 159,346 161,88
163,356 164,78 165,94 168,79
169,85 170,104 171,239 172,130
173,78 174,2841 175,827 176,78
177,3561 178,401 179,323 183,56
190,471 191,117 192,125 193,60
194,65 198,97 200,99 206,75
208,9999 209,915 210,996 211,91
##END=
