##TITLE=2,4,5-Trioxoimidazolidine
##JCAMP-DX=4.24
##DATA TYPE=MASS SPECTRUM
##ORIGIN=Japan AIST/NIMC Database- Spectrum MS-NW-1175
##OWNER=NIST Mass Spectrometry Data Center
Collection (C) 2014 copyright by the U.S. Secretary of Commerce
on behalf of the United States of America. All rights reserved.
##CAS REGISTRY NO=120-89-8
##$NIST MASS SPEC NO=230253
##MOLFORM=C3 H2 N2 O3
##MW=114
##$NIST SOURCE=MSDC
##XUNITS=M/Z
##YUNITS=RELATIVE INTENSITY
##XFACTOR=1
##YFACTOR=1
##FIRSTX=12
##LASTX=116
##FIRSTY=70
##MAXX=116
##MINX=12
##MAXY=9999
##MINY=10
##NPOINTS=45
##PEAK TABLE=(XY..XY)
12,70 13,50 14,80 15,179
16,99 26,119 27,419 28,529
29,619 30,109 31,10 35,10
36,50 38,30 39,10 40,30
41,109 42,1089 43,9999 44,6719
45,119 46,10 52,10 53,10
54,99 55,40 56,40 57,50
67,20 68,10 69,40 70,779
71,409 72,10 73,10 84,10
85,20 86,3029 87,90 88,10
97,20 98,10 114,3199 115,139
116,20
##END=
