##TITLE=Ethyl m-methylbenzoate
##JCAMP-DX=4.24
##DATA TYPE=MASS SPECTRUM
##ORIGIN=NIST Mass Spectrometry Data Center
##OWNER=NIST Mass Spectrometry Data Center
Collection (C) 2014 copyright by the U.S. Secretary of Commerce
on behalf of the United States of America. All rights reserved.
##CAS REGISTRY NO=120-33-2
##$NIST MASS SPEC NO=342981
##MOLFORM=C10 H12 O2
##MW=164
##$NIST SOURCE=MSDC
##XUNITS=M/Z
##YUNITS=RELATIVE INTENSITY
##XFACTOR=1
##YFACTOR=1
##FIRSTX=13
##LASTX=166
##FIRSTY=10
##MAXX=166
##MINX=13
##MAXY=9999
##MINY=10
##NPOINTS=67
##PEAK TABLE=(XY..XY)
13,10 14,20 15,240 18,30
19,10 26,270 27,1131 28,310
29,1281 30,210 31,10 37,50
38,210 39,1321 40,100 41,300
42,60 43,200 44,50 45,210
50,380 51,540 52,170 53,110
55,10 59,50 61,70 62,360
63,1011 64,320 65,2702 66,150
72,20 73,10 74,90 75,70
76,70 77,230 78,40 79,70
85,30 86,60 87,50 89,811
91,6085 92,711 93,60 103,10
105,140 106,10 107,30 108,10
119,9999 120,1141 121,80 131,20
133,20 136,2652 137,230 138,10
146,140 147,40 149,350 150,30
164,1882 165,220 166,10
##END=
