##TITLE=Benzaldehyde, 4-(diethylamino)-
##JCAMP-DX=4.24
##DATA TYPE=MASS SPECTRUM
##ORIGIN=Japan AIST/NIMC Database- Spectrum MS-NW-4527
##OWNER=NIST Mass Spectrometry Data Center
Collection (C) 2014 copyright by the U.S. Secretary of Commerce
on behalf of the United States of America. All rights reserved.
##CAS REGISTRY NO=120-21-8
##$NIST MASS SPEC NO=232478
##MOLFORM=C11 H15 N O
##MW=177
##$NIST SOURCE=MSDC
##XUNITS=M/Z
##YUNITS=RELATIVE INTENSITY
##XFACTOR=1
##YFACTOR=1
##FIRSTX=15
##LASTX=179
##FIRSTY=40
##MAXX=179
##MINX=15
##MAXY=9999
##MINY=10
##NPOINTS=81
##PEAK TABLE=(XY..XY)
15,40 18,10 26,40 27,399
28,119 29,669 30,80 37,20
38,70 39,199 40,30 41,90
42,139 44,60 50,209 51,619
52,109 53,40 54,30 55,10
56,50 58,10 61,10 62,50
63,169 64,109 65,219 66,40
67,10 70,10 74,70 75,80
76,189 77,1199 78,359 79,389
80,50 81,10 89,60 90,80
91,309 92,99 93,60 94,20
102,30 103,99 104,269 105,439
106,959 107,80 111,10 115,10
116,20 117,119 118,199 119,159
120,229 121,20 130,20 131,10
132,599 133,259 134,2909 135,279
136,20 144,10 146,189 147,119
148,169 149,30 160,40 161,10
162,9999 163,1139 164,90 174,10
175,20 176,389 177,3689 178,469
179,30
##END=
