##TITLE=Phenol, 2,4-bis(1,1-dimethylpropyl)-
##JCAMP-DX=4.24
##DATA TYPE=MASS SPECTRUM
##ORIGIN=RADIAN CORP
##OWNER=NIST Mass Spectrometry Data Center
Collection (C) 2014 copyright by the U.S. Secretary of Commerce
on behalf of the United States of America. All rights reserved.
##CAS REGISTRY NO=120-95-6
##$NIST MASS SPEC NO=73378
##MOLFORM=C16 H26 O
##MW=234
##$NIST SOURCE=MSDC
##XUNITS=M/Z
##YUNITS=RELATIVE INTENSITY
##XFACTOR=1
##YFACTOR=1
##FIRSTX=15
##LASTX=235
##FIRSTY=20
##MAXX=235
##MINX=15
##MAXY=9999
##MINY=10
##NPOINTS=91
##PEAK TABLE=(XY..XY)
15,20 26,20 27,350 29,700
39,160 40,40 41,530 42,30
43,1470 44,70 51,100 52,40
53,150 55,390 56,10 57,50
60,30 63,70 64,60 65,170
66,60 67,90 71,1400 72,120
73,80 74,100 77,340 78,100
79,180 80,30 81,50 88,40
89,70 91,580 92,70 93,50
95,70 102,50 103,160 104,50
105,270 106,60 107,460 108,40
115,540 116,170 117,230 118,60
119,230 120,80 121,240 122,10
127,140 128,380 129,240 130,50
131,200 132,80 133,410 134,130
135,170 141,130 142,80 143,140
144,70 145,130 146,80 147,470
148,230 149,110 157,50 158,50
159,70 160,50 161,760 162,130
163,40 175,500 176,170 177,850
178,130 189,220 190,40 191,130
205,9999 206,1640 207,160 219,370
220,70 234,660 235,130
##END=
