##TITLE=Sulfoxide
##JCAMP-DX=4.24
##DATA TYPE=MASS SPECTRUM
##ORIGIN=J. SHAW, BORRISTON RESEARCH, ROCKVILLE, MD, USA
##OWNER=NIST Mass Spectrometry Data Center
Collection (C) 2014 copyright by the U.S. Secretary of Commerce
on behalf of the United States of America. All rights reserved.
##CAS REGISTRY NO=120-62-7
##$NIST MASS SPEC NO=60252
##MOLFORM=C18 H28 O3 S
##MW=324
##$NIST SOURCE=MSDC
##XUNITS=M/Z
##YUNITS=RELATIVE INTENSITY
##XFACTOR=1
##YFACTOR=1
##FIRSTX=12
##LASTX=325
##FIRSTY=50
##MAXX=325
##MINX=12
##MAXY=9999
##MINY=10
##NPOINTS=125
##PEAK TABLE=(XY..XY)
12,50 13,50 14,260 15,630
16,90 17,220 18,670 19,10
25,30 26,460 27,5915 28,1501
29,8198 30,270 31,120 32,40
33,10 34,10 35,50 37,60
38,240 39,3023 40,620 41,8498
42,1251 43,6816 44,260 45,330
46,100 47,250 48,80 49,60
50,410 51,1661 52,370 53,850
54,220 55,2502 56,440 57,1721
58,120 59,240 60,120 61,270
62,230 63,1171 64,240 65,890
66,150 67,230 68,100 69,900
70,140 71,400 72,30 73,50
74,80 75,440 76,330 77,2932
78,810 79,1291 80,100 81,70
82,20 83,50 84,30 85,20
86,10 87,70 88,30 89,370
90,150 91,440 92,100 93,100
94,20 95,30 97,10 101,40
102,150 103,900 104,790 105,3093
106,310 107,90 108,10 109,20
111,10 115,70 116,20 117,30
118,40 119,50 120,40 121,210
122,160 123,20 131,390 132,270
133,1451 134,430 135,4134 136,540
137,60 138,10 145,60 146,30
147,290 148,270 149,50 150,10
151,90 152,10 162,9999 163,3413
164,360 165,40 173,160 174,10
175,10 176,10 178,210 179,70
325,10
##END=
