##TITLE=n-Butyl 4-nitrobenzoate
##JCAMP-DX=4.24
##DATA TYPE=MASS SPECTRUM
##ORIGIN=NIST Mass Spectrometry Data Center
##OWNER=NIST Mass Spectrometry Data Center
Collection (C) 2014 copyright by the U.S. Secretary of Commerce
on behalf of the United States of America. All rights reserved.
##CAS REGISTRY NO=120-48-9
##$NIST MASS SPEC NO=341144
##MOLFORM=C11 H13 N O4
##MW=223
##$NIST SOURCE=MSDC
##XUNITS=M/Z
##YUNITS=RELATIVE INTENSITY
##XFACTOR=1
##YFACTOR=1
##FIRSTX=26
##LASTX=224
##FIRSTY=30
##MAXX=224
##MINX=26
##MAXY=9999
##MINY=10
##NPOINTS=96
##PEAK TABLE=(XY..XY)
26,30 27,330 29,621 30,120
31,20 37,20 38,70 39,460
40,70 41,1451 42,80 43,190
44,30 45,30 46,20 49,20
50,1181 51,240 52,40 53,150
54,40 55,1311 56,8388 57,561
58,10 61,10 62,60 63,260
64,380 65,891 66,80 71,10
73,140 74,480 75,1161 76,3003
77,350 78,130 79,20 81,40
86,30 89,10 90,20 91,40
92,1651 93,220 94,70 102,10
103,530 104,4004 105,410 106,30
107,20 108,10 109,50 110,20
117,10 119,20 120,1341 121,671
122,370 123,50 124,10 130,10
134,410 135,130 136,50 137,190
138,50 148,40 150,9999 151,2272
152,550 153,140 154,10 163,10
164,20 165,40 168,4804 169,1611
170,150 171,10 176,30 177,90
178,30 179,20 180,70 181,10
188,10 193,40 194,60 206,30
207,60 208,40 223,50 224,30
##END=
