##TITLE=Ethanol, 2-(2,4-dichlorophenoxy)-
##JCAMP-DX=4.24
##DATA TYPE=MASS SPECTRUM
##ORIGIN=J. SHAW, BORRISTON RESEARCH, ROCKVILLE, MD, USA
##OWNER=NIST Mass Spectrometry Data Center
Collection (C) 2014 copyright by the U.S. Secretary of Commerce
on behalf of the United States of America. All rights reserved.
##CAS REGISTRY NO=120-67-2
##$NIST MASS SPEC NO=60493
##MOLFORM=C8 H8 Cl2 O2
##MW=206
##$NIST SOURCE=MSDC
##XUNITS=M/Z
##YUNITS=RELATIVE INTENSITY
##XFACTOR=1
##YFACTOR=1
##FIRSTX=12
##LASTX=212
##FIRSTY=40
##MAXX=212
##MINX=12
##MAXY=9999
##MINY=10
##NPOINTS=154
##PEAK TABLE=(XY..XY)
12,40 13,50 14,370 15,1611
24,10 25,50 26,380 27,2792
28,870 29,2242 30,210 31,1811
32,80 35,90 36,310 37,400
38,480 39,360 40,30 41,230
42,320 43,1691 44,470 45,5885
46,140 47,100 48,50 49,270
50,660 51,340 52,40 53,300
54,30 55,140 56,90 57,240
58,60 59,40 60,120 61,520
62,1041 63,3463 64,280 65,130
66,40 67,30 68,10 69,70
70,40 71,140 72,390 73,1391
74,1231 75,1571 76,150 77,260
78,30 79,40 80,10 81,40
82,30 83,260 84,280 85,400
86,120 87,150 88,30 89,60
90,30 91,190 92,40 93,20
94,10 95,40 96,80 97,450
98,2292 99,1031 100,790 101,300
102,30 104,10 105,30 106,30
107,200 108,90 109,1301 110,330
111,1021 112,240 113,230 114,70
115,30 116,10 117,10 118,10
119,40 120,10 121,30 122,10
123,20 124,10 125,70 126,810
127,280 128,450 129,60 130,60
131,10 133,710 134,100 135,460
136,60 137,70 138,10 139,30
140,10 141,70 142,20 143,20
144,20 145,830 146,100 147,600
148,60 149,220 150,20 151,60
154,10 155,10 159,20 161,350
162,9999 163,910 164,6746 165,480
166,1051 167,70 170,50 172,10
173,10 175,190 176,30 177,120
178,10 179,20 204,10 206,1541
207,140 208,960 209,80 210,150
211,10 212,10
##END=
