##TITLE=Scoparone
##JCAMP-DX=4.24
##DATA TYPE=MASS SPECTRUM
##ORIGIN=Japan AIST/NIMC Database- Spectrum MS-IW- 912
##OWNER=NIST Mass Spectrometry Data Center
Collection (C) 2014 copyright by the U.S. Secretary of Commerce
on behalf of the United States of America. All rights reserved.
##CAS REGISTRY NO=120-08-1
##$NIST MASS SPEC NO=238711
##MOLFORM=C11 H10 O4
##MW=206
##$NIST SOURCE=MSDC
##XUNITS=M/Z
##YUNITS=RELATIVE INTENSITY
##XFACTOR=1
##YFACTOR=1
##FIRSTX=15
##LASTX=209
##FIRSTY=30
##MAXX=209
##MINX=15
##MAXY=9999
##MINY=10
##NPOINTS=101
##PEAK TABLE=(XY..XY)
15,30 27,10 28,90 29,10
31,10 37,10 38,70 39,50
41,20 42,10 43,30 44,10
45,40 46,10 49,10 50,129
51,299 52,30 53,109 54,10
55,179 56,10 57,20 59,109
60,10 61,20 62,50 63,139
64,90 65,80 66,40 67,10
69,689 70,20 71,10 73,10
74,50 75,40 76,99 77,229
78,40 79,559 80,40 81,20
83,10 85,30 86,20 87,10
88,10 89,169 90,10 91,90
92,269 93,50 95,99 96,10
103,139 104,30 105,119 106,20
107,799 108,70 109,10 117,179
118,20 119,189 120,369 121,129
122,10 131,10 132,20 133,99
134,30 135,979 136,90 137,10
145,279 146,30 147,30 148,209
149,329 150,30 160,20 161,40
162,50 163,1769 164,229 165,20
177,30 178,1289 179,139 180,10
189,10 190,99 191,3969 192,609
193,80 206,9999 207,1199 208,139
209,10
##END=
