##TITLE=Cyclopentanone
##JCAMP-DX=4.24
##DATA TYPE=MASS SPECTRUM
##ORIGIN=D.HENNEBERG, MAX-PLANCK INSTITUTE, MULHEIM, WEST GERMANY
##OWNER=NIST Mass Spectrometry Data Center
Collection (C) 2014 copyright by the U.S. Secretary of Commerce
on behalf of the United States of America. All rights reserved.
##CAS REGISTRY NO=120-92-3
##$NIST MASS SPEC NO=61744
##MOLFORM=C5 H8 O
##MW=84
##$NIST SOURCE=MSDC
##XUNITS=M/Z
##YUNITS=RELATIVE INTENSITY
##XFACTOR=1
##YFACTOR=1
##FIRSTX=24
##LASTX=86
##FIRSTY=28
##MAXX=86
##MINX=24
##MAXY=9999
##MINY=4
##NPOINTS=44
##PEAK TABLE=(XY..XY)
24,28 25,73 26,894 27,2412
28,5002 29,691 30,23 31,17
36,32 37,223 38,344 39,1879
40,405 41,3770 42,1518 43,289
44,17 48,10 49,85 50,287
51,268 52,91 53,345 54,166
55,9999 56,2897 57,172 58,12
61,26 62,28 63,28 64,5
65,37 66,70 67,105 68,29
69,47 80,4 81,9 82,34
83,161 84,4201 85,279 86,11
##END=
