##TITLE=Benzenamine, N,N-diethyl-4-nitroso-
##JCAMP-DX=4.24
##DATA TYPE=MASS SPECTRUM
##ORIGIN=Japan AIST/NIMC Database- Spectrum MS-NW-4328
##OWNER=NIST Mass Spectrometry Data Center
Collection (C) 2014 copyright by the U.S. Secretary of Commerce
on behalf of the United States of America. All rights reserved.
##CAS REGISTRY NO=120-22-9
##$NIST MASS SPEC NO=232305
##MOLFORM=C10 H14 N2 O
##MW=178
##$NIST SOURCE=MSDC
##XUNITS=M/Z
##YUNITS=RELATIVE INTENSITY
##XFACTOR=1
##YFACTOR=1
##FIRSTX=14
##LASTX=180
##FIRSTY=10
##MAXX=180
##MINX=14
##MAXY=9999
##MINY=10
##NPOINTS=107
##PEAK TABLE=(XY..XY)
14,10 15,70 16,10 26,90
27,599 28,80 29,699 30,169
37,50 38,139 39,369 40,70
41,209 42,279 43,30 44,149
45,10 49,10 50,469 51,499
52,259 53,99 54,139 55,60
56,209 57,20 58,20 61,30
62,90 63,369 64,359 65,529
66,99 67,60 68,40 69,20
70,50 71,10 72,10 73,10
74,99 75,139 76,679 77,919
78,559 79,499 80,109 81,60
82,40 83,10 87,10 88,20
89,149 90,289 91,1059 92,359
93,349 94,90 95,30 102,60
103,299 104,939 105,1269 106,259
107,109 108,30 109,10 115,20
116,60 117,389 118,829 119,969
120,689 121,139 122,20 128,10
129,10 130,60 131,109 132,409
133,9999 134,1119 135,90 136,20
144,10 145,30 146,99 147,719
148,779 149,479 150,60 151,10
159,10 160,10 161,50 162,80
163,2679 164,489 165,50 166,10
173,10 175,50 176,10 177,60
178,5929 179,789 180,70
##END=
