##TITLE=Desoxyanisoin
##JCAMP-DX=4.24
##DATA TYPE=MASS SPECTRUM
##ORIGIN=NIST Mass Spectrometry Data Center, 1994
##OWNER=NIST Mass Spectrometry Data Center
Collection (C) 2014 copyright by the U.S. Secretary of Commerce
on behalf of the United States of America. All rights reserved.
##CAS REGISTRY NO=120-44-5
##$NIST MASS SPEC NO=133806
##MOLFORM=C16 H16 O3
##MW=256
##$NIST SOURCE=MSDC
##XUNITS=M/Z
##YUNITS=RELATIVE INTENSITY
##XFACTOR=1
##YFACTOR=1
##FIRSTX=14
##LASTX=258
##FIRSTY=4
##MAXX=258
##MINX=14
##MAXY=9999
##MINY=4
##NPOINTS=61
##PEAK TABLE=(XY..XY)
14,4 15,64 26,10 27,33
28,26 29,23 32,5 38,59
39,128 40,14 41,33 50,137
51,251 52,153 53,78 55,22
62,46 63,291 64,409 65,119
66,29 67,9 74,37 75,46
76,170 77,1447 78,500 79,105
80,14 87,15 89,93 90,43
91,198 92,771 93,66 104,39
105,32 106,80 107,651 108,54
115,29 119,9 121,995 122,92
133,24 135,9999 136,812 137,76
139,16 141,24 152,34 153,19
165,15 166,9 169,17 181,8
184,8 227,9 256,926 257,169
258,21
##END=
