##TITLE=4-Ethoxy-3-anisaldehyde
##JCAMP-DX=4.24
##DATA TYPE=MASS SPECTRUM
##ORIGIN=Japan AIST/NIMC Database- Spectrum MS-IW- 90
##OWNER=NIST Mass Spectrometry Data Center
Collection (C) 2014 copyright by the U.S. Secretary of Commerce
on behalf of the United States of America. All rights reserved.
##CAS REGISTRY NO=120-25-2
##$NIST MASS SPEC NO=239186
##MOLFORM=C10 H12 O3
##MW=180
##$NIST SOURCE=MSDC
##XUNITS=M/Z
##YUNITS=RELATIVE INTENSITY
##XFACTOR=1
##YFACTOR=1
##FIRSTX=15
##LASTX=182
##FIRSTY=60
##MAXX=182
##MINX=15
##MAXY=9999
##MINY=10
##NPOINTS=83
##PEAK TABLE=(XY..XY)
15,60 18,20 26,80 27,449
28,129 29,549 30,10 31,119
37,30 38,99 39,279 40,20
41,249 42,20 43,70 45,60
46,10 49,20 50,259 51,719
52,439 53,349 54,30 55,149
56,10 57,10 61,30 62,129
63,349 64,109 65,559 66,70
67,229 68,20 69,20 74,50
75,80 76,119 77,619 78,80
79,519 80,299 81,729 82,40
91,159 92,109 93,189 94,40
95,589 96,40 103,10 104,30
105,119 106,30 107,50 108,259
109,1139 110,80 112,10 119,259
120,90 121,149 122,90 123,1029
124,169 125,20 133,10 135,20
136,80 137,699 138,60 139,10
149,119 150,90 151,9999 152,5599
153,519 154,50 165,20 179,50
180,5969 181,689 182,70
##END=
