##TITLE=Dibenzoylmethane
##JCAMP-DX=4.24
##DATA TYPE=MASS SPECTRUM
##ORIGIN=Japan AIST/NIMC Database- Spectrum MS-NW-2252
##OWNER=NIST Mass Spectrometry Data Center
Collection (C) 2014 copyright by the U.S. Secretary of Commerce
on behalf of the United States of America. All rights reserved.
##CAS REGISTRY NO=120-46-7
##$NIST MASS SPEC NO=227988
##MOLFORM=C15 H12 O2
##MW=224
##$NIST SOURCE=MSDC
##XUNITS=M/Z
##YUNITS=RELATIVE INTENSITY
##XFACTOR=1
##YFACTOR=1
##FIRSTX=14
##LASTX=226
##FIRSTY=20
##MAXX=226
##MINX=14
##MAXY=9999
##MINY=10
##NPOINTS=129
##PEAK TABLE=(XY..XY)
14,20 15,20 17,60 18,289
26,20 27,129 28,40 29,50
30,10 31,70 37,20 38,60
39,309 40,20 41,60 42,30
43,20 44,40 45,10 49,10
50,439 51,1649 52,169 53,50
55,20 57,10 61,20 62,80
63,209 64,60 65,359 66,30
69,4019 70,139 71,20 73,20
74,159 75,189 76,339 77,5249
78,739 79,109 80,10 82,30
83,50 84,40 86,20 87,20
88,30 89,299 90,159 91,389
92,50 93,10 94,30 97,60
98,139 99,10 101,50 102,209
103,239 104,60 105,9999 106,779
107,60 108,10 111,50 112,60
115,30 117,10 118,199 119,40
120,70 121,60 122,20 126,10
127,20 128,20 129,70 130,20
131,50 132,10 133,70 134,20
135,10 139,20 141,10 143,10
145,30 146,99 147,4369 148,459
149,50 150,10 151,20 152,70
153,30 154,10 155,20 161,20
162,20 163,10 164,10 165,99
166,30 167,60 168,10 176,50
177,50 178,149 179,70 180,10
181,50 182,10 194,40 195,90
196,139 197,20 205,50 206,70
207,169 208,99 209,10 221,20
222,139 223,5829 224,6279 225,979
226,99
##END=
