##TITLE=1,4-Benzenedicarboxylic acid, dimethyl ester
##JCAMP-DX=4.24
##DATA TYPE=MASS SPECTRUM
##ORIGIN=Japan AIST/NIMC Database- Spectrum MS-NW-6813
##OWNER=NIST Mass Spectrometry Data Center
Collection (C) 2014 copyright by the U.S. Secretary of Commerce
on behalf of the United States of America. All rights reserved.
##CAS REGISTRY NO=120-61-6
##$NIST MASS SPEC NO=228185
##MOLFORM=C10 H10 O4
##MW=194
##$NIST SOURCE=MSDC
##XUNITS=M/Z
##YUNITS=RELATIVE INTENSITY
##XFACTOR=1
##YFACTOR=1
##FIRSTX=14
##LASTX=196
##FIRSTY=10
##MAXX=196
##MINX=14
##MAXY=9999
##MINY=10
##NPOINTS=71
##PEAK TABLE=(XY..XY)
14,10 15,389 17,10 18,30
27,20 28,109 29,90 30,20
31,20 37,40 38,109 39,90
41,20 44,10 49,30 50,709
51,129 52,289 53,60 59,159
61,10 62,30 63,90 64,80
65,50 66,309 73,50 74,289
75,609 76,819 77,489 78,40
79,50 81,20 82,10 89,10
90,10 91,50 92,199 93,20
103,1099 104,649 105,119 106,10
107,80 108,10 112,10 118,60
119,339 120,549 121,60 123,10
132,50 133,30 134,20 135,1819
136,169 137,20 149,30 150,10
162,20 163,9999 164,1029 165,109
166,10 179,229 180,30 193,90
194,2849 195,319 196,40
##END=
