##TITLE=Piperazine, 1,2,4-trimethyl-
##JCAMP-DX=4.24
##DATA TYPE=MASS SPECTRUM
##ORIGIN=RADIAN CORP
##OWNER=NIST Mass Spectrometry Data Center
Collection (C) 2014 copyright by the U.S. Secretary of Commerce
on behalf of the United States of America. All rights reserved.
##CAS REGISTRY NO=120-85-4
##$NIST MASS SPEC NO=69976
##MOLFORM=C7 H16 N2
##MW=128
##$NIST SOURCE=MSDC
##XUNITS=M/Z
##YUNITS=RELATIVE INTENSITY
##XFACTOR=1
##YFACTOR=1
##FIRSTX=18
##LASTX=129
##FIRSTY=60
##MAXX=129
##MINX=18
##MAXY=9999
##MINY=10
##NPOINTS=52
##PEAK TABLE=(XY..XY)
18,60 26,60 27,450 28,930
29,280 30,350 38,10 39,530
40,180 41,1300 42,9999 43,6610
44,1710 45,60 52,60 53,50
54,580 55,510 56,3130 57,6720
58,5880 59,230 63,30 64,70
67,70 68,270 69,140 70,5040
71,4080 72,740 73,30 80,30
81,50 82,320 83,190 84,1270
85,1010 86,80 95,110 96,120
97,450 98,300 99,40 109,30
111,190 112,470 113,2320 114,160
126,30 127,100 128,4400 129,420
##END=
