##TITLE=Phenol, 4-methoxy-, acetate
##JCAMP-DX=4.24
##DATA TYPE=MASS SPECTRUM
##ORIGIN=NIST Mass Spectrometry Data Center
##OWNER=NIST Mass Spectrometry Data Center
Collection (C) 2014 copyright by the U.S. Secretary of Commerce
on behalf of the United States of America. All rights reserved.
##CAS REGISTRY NO=1200-06-2
##$NIST MASS SPEC NO=352893
##MOLFORM=C9 H10 O3
##MW=166
##$NIST SOURCE=MSDC
##XUNITS=M/Z
##YUNITS=RELATIVE INTENSITY
##XFACTOR=1
##YFACTOR=1
##FIRSTX=14
##LASTX=168
##FIRSTY=30
##MAXX=168
##MINX=14
##MAXY=9999
##MINY=10
##NPOINTS=65
##PEAK TABLE=(XY..XY)
14,30 15,210 25,10 26,180
27,110 28,50 29,50 30,10
31,10 37,30 38,160 39,350
40,30 41,380 42,160 43,1702
44,40 45,10 49,10 50,170
51,280 52,520 53,561 54,440
55,90 56,10 61,50 62,160
63,450 64,250 65,360 66,60
67,40 68,10 69,40 73,10
74,50 75,20 76,20 77,120
78,20 79,90 80,200 81,1101
82,180 83,10 92,130 93,80
94,50 95,470 96,40 107,70
108,80 109,6746 110,470 111,40
121,10 123,490 124,9999 125,771
126,70 135,10 166,961 167,90
168,10
##END=
