##TITLE=N-Acetyltyramine
##JCAMP-DX=4.24
##DATA TYPE=MASS SPECTRUM
##ORIGIN=B.R. PETTIT, QUEEN CHARLOTTE'S MAT. HOSP., LONDON, U.K.
##OWNER=NIST Mass Spectrometry Data Center
Collection (C) 2014 copyright by the U.S. Secretary of Commerce
on behalf of the United States of America. All rights reserved.
##CAS REGISTRY NO=1202-66-0
##$NIST MASS SPEC NO=99918
##MOLFORM=C10 H13 N O2
##MW=179
##$NIST SOURCE=MSDC
##XUNITS=M/Z
##YUNITS=RELATIVE INTENSITY
##XFACTOR=1
##YFACTOR=1
##FIRSTX=89
##LASTX=180
##FIRSTY=60
##MAXX=180
##MINX=89
##MAXY=9999
##MINY=30
##NPOINTS=28
##PEAK TABLE=(XY..XY)
89,60 90,50 91,530 92,90
93,40 94,120 95,40 96,30
97,60 98,30 103,60 105,60
106,70 107,4260 108,660 109,60
111,30 118,30 119,330 120,9999
121,1160 122,80 134,40 135,80
136,80 168,50 179,190 180,40
##END=
