##TITLE=Benzoic acid, 4-(dimethylamino)-, methyl ester
##JCAMP-DX=4.24
##DATA TYPE=MASS SPECTRUM
##ORIGIN=NIST Mass Spectrometry Data Center, 2010
##OWNER=NIST Mass Spectrometry Data Center
Collection (C) 2014 copyright by the U.S. Secretary of Commerce
on behalf of the United States of America. All rights reserved.
##CAS REGISTRY NO=1202-25-1
##$NIST MASS SPEC NO=374481
##MOLFORM=C10 H13 N O2
##MW=179
##$NIST SOURCE=MSDC
##XUNITS=M/Z
##YUNITS=RELATIVE INTENSITY
##XFACTOR=1
##YFACTOR=1
##FIRSTX=15
##LASTX=181
##FIRSTY=190
##MAXX=181
##MINX=15
##MAXY=9999
##MINY=10
##NPOINTS=91
##PEAK TABLE=(XY..XY)
15,190 26,10 27,70 28,90
29,80 30,30 31,30 37,30
38,100 39,250 40,40 41,100
42,1171 43,100 44,150 45,30
46,30 49,20 50,510 51,540
52,210 53,130 54,40 55,30
56,10 59,430 61,30 62,120
63,520 64,210 65,270 66,100
68,90 69,70 73,1702 75,360
76,571 77,1692 78,731 79,611
80,110 81,30 82,10 86,10
87,10 88,40 89,100 90,310
91,701 92,380 93,150 94,60
95,10 101,10 102,80 103,250
104,1151 105,981 106,110 107,40
108,20 115,10 116,20 117,140
118,831 119,591 120,621 121,210
122,30 130,10 132,971 133,100
134,120 135,90 136,220 137,20
146,30 148,9999 149,981 150,80
151,10 162,70 163,130 164,80
165,50 166,10 176,80 178,4004
179,7757 180,821 181,70
##END=
