##TITLE=N,N-di-n-Butylheptafluorobutyramide
##JCAMP-DX=4.24
##DATA TYPE=MASS SPECTRUM
##ORIGIN=Zaikin V.G., TIPS RAS, Moscow, Russia
##OWNER=NIST Mass Spectrometry Data Center
Collection (C) 2014 copyright by the U.S. Secretary of Commerce
on behalf of the United States of America. All rights reserved.
##CAS REGISTRY NO=120219-46-7
##$NIST MASS SPEC NO=308269
##MOLFORM=C12 H18 F7 N O
##MW=325
##$NIST SOURCE=MSDC
##XUNITS=M/Z
##YUNITS=RELATIVE INTENSITY
##XFACTOR=1
##YFACTOR=1
##FIRSTX=28
##LASTX=296
##FIRSTY=50
##MAXX=296
##MINX=28
##MAXY=9999
##MINY=30
##NPOINTS=31
##PEAK TABLE=(XY..XY)
28,50 29,130 36,50 41,240
42,30 45,30 55,130 56,50
57,721 69,90 79,60 100,80
114,80 119,40 150,50 156,841
157,70 169,260 214,60 222,50
226,941 227,110 228,170 240,9999
241,891 242,30 268,40 270,190
282,1381 283,160 296,110
##END=
