##TITLE=Methanimidamide, N'-(3-methoxyphenyl)-N,N-dimethyl-
##JCAMP-DX=4.24
##DATA TYPE=MASS SPECTRUM
##ORIGIN=H.F.GRUTZMACHER HAMBURG UNIVERSITY, HAMBURG, F.R.G
##OWNER=NIST Mass Spectrometry Data Center
Collection (C) 2014 copyright by the U.S. Secretary of Commerce
on behalf of the United States of America. All rights reserved.
##CAS REGISTRY NO=1202-42-2
##$NIST MASS SPEC NO=26241
##MOLFORM=C10 H14 N2 O
##MW=178
##$NIST SOURCE=MSDC
##XUNITS=M/Z
##YUNITS=RELATIVE INTENSITY
##XFACTOR=1
##YFACTOR=1
##FIRSTX=30
##LASTX=180
##FIRSTY=170
##MAXX=180
##MINX=30
##MAXY=9999
##MINY=50
##NPOINTS=52
##PEAK TABLE=(XY..XY)
30,170 39,80 42,470 43,140
44,1700 45,450 50,60 51,80
57,150 58,90 63,210 64,280
65,130 76,80 77,630 78,140
79,60 89,320 90,50 91,50
92,480 93,80 94,80 103,70
104,100 106,90 107,1030 108,210
109,140 119,60 121,140 122,350
132,60 133,80 134,720 135,280
136,1470 137,160 146,60 147,140
148,140 149,70 150,1180 151,130
162,230 163,1600 164,200 175,50
177,4020 178,9999 179,1200 180,100
##END=
