##TITLE=Methanimidamide, N'-(4-methoxyphenyl)-N,N-dimethyl-
##JCAMP-DX=4.24
##DATA TYPE=MASS SPECTRUM
##ORIGIN=H.F.GRUTZMACHER HAMBURG UNIVERSITY, HAMBURG, F.R.G
##OWNER=NIST Mass Spectrometry Data Center
Collection (C) 2014 copyright by the U.S. Secretary of Commerce
on behalf of the United States of America. All rights reserved.
##CAS REGISTRY NO=1202-62-6
##$NIST MASS SPEC NO=26237
##MOLFORM=C10 H14 N2 O
##MW=178
##$NIST SOURCE=MSDC
##XUNITS=M/Z
##YUNITS=RELATIVE INTENSITY
##XFACTOR=1
##YFACTOR=1
##FIRSTX=27
##LASTX=180
##FIRSTY=70
##MAXX=180
##MINX=27
##MAXY=9999
##MINY=50
##NPOINTS=65
##PEAK TABLE=(XY..XY)
27,70 28,170 30,150 38,70
39,150 41,90 42,1140 43,670
44,1660 45,410 46,60 50,110
51,120 52,70 56,140 57,100
58,340 63,230 64,350 65,300
67,60 75,50 76,120 77,670
78,130 79,50 88,50 89,420
90,90 91,80 92,480 93,190
94,100 95,120 103,70 104,60
106,50 107,590 108,190 109,170
119,140 120,230 121,790 122,510
123,50 132,80 133,150 134,1450
135,340 136,1960 137,190 143,60
147,230 148,170 149,90 150,620
151,70 162,210 163,4790 164,550
175,60 177,1340 178,9999 179,1190
180,90
##END=
