##TITLE=1H-Indene, 2,3-dihydro-1,1,2,3,3-pentamethyl-
##JCAMP-DX=4.24
##DATA TYPE=MASS SPECTRUM
##ORIGIN=R.A.GILHOOLEY ET AL. LAB. OF THE GOVERNMENT CHEMIST CORNWALL HOUSE, STAMFORD ST., LONDON
##OWNER=NIST Mass Spectrometry Data Center
Collection (C) 2014 copyright by the U.S. Secretary of Commerce
on behalf of the United States of America. All rights reserved.
##CAS REGISTRY NO=1203-17-4
##$NIST MASS SPEC NO=77489
##MOLFORM=C14 H20
##MW=188
##$NIST SOURCE=MSDC
##XUNITS=M/Z
##YUNITS=RELATIVE INTENSITY
##XFACTOR=1
##YFACTOR=1
##FIRSTX=39
##LASTX=189
##FIRSTY=540
##MAXX=189
##MINX=39
##MAXY=9999
##MINY=60
##NPOINTS=61
##PEAK TABLE=(XY..XY)
39,540 40,160 41,810 42,70
43,950 50,100 51,390 52,90
53,220 55,160 57,1480 58,130
63,210 64,220 65,330 67,70
69,70 70,70 71,140 75,90
76,160 77,520 78,250 79,210
86,70 89,90 91,910 92,80
102,110 103,200 105,250 115,950
116,300 117,940 118,90 119,70
127,350 128,1310 129,980 130,270
131,4910 132,500 139,70 141,680
142,570 143,690 144,260 145,430
152,70 153,60 155,70 156,70
157,290 158,270 159,70 172,90
173,9999 174,1420 175,100 188,1580
189,240
##END=
