##TITLE=2H,5H-Pyrano[4,3-b]pyran-2,5-dione, 4,7-dimethyl-
##JCAMP-DX=4.24
##DATA TYPE=MASS SPECTRUM
##ORIGIN=F.G.JIMENZ INSTITUTO DE QUIMICA, CUIDAD UNIV., PISO, MEXICO.
##OWNER=NIST Mass Spectrometry Data Center
Collection (C) 2014 copyright by the U.S. Secretary of Commerce
on behalf of the United States of America. All rights reserved.
##CAS REGISTRY NO=1204-38-2
##$NIST MASS SPEC NO=8364
##MOLFORM=C10 H8 O4
##MW=192
##$NIST SOURCE=MSDC
##XUNITS=M/Z
##YUNITS=RELATIVE INTENSITY
##XFACTOR=1
##YFACTOR=1
##FIRSTX=39
##LASTX=193
##FIRSTY=2300
##MAXX=193
##MINX=39
##MAXY=9999
##MINY=500
##NPOINTS=28
##PEAK TABLE=(XY..XY)
39,2300 43,5100 50,1500 51,2100
52,4700 53,1800 63,800 65,1600
66,700 67,1200 68,900 69,2500
77,600 79,600 80,2300 84,700
93,1700 108,1900 109,1200 122,1200
124,1400 135,900 149,5300 164,9999
165,1000 177,500 192,7600 193,900
##END=
