##TITLE=Hippuric acid, methyl ester
##JCAMP-DX=4.24
##DATA TYPE=MASS SPECTRUM
##ORIGIN=NIST Mass Spectrometry Data Center
##OWNER=NIST Mass Spectrometry Data Center
Collection (C) 2014 copyright by the U.S. Secretary of Commerce
on behalf of the United States of America. All rights reserved.
##CAS REGISTRY NO=1205-08-9
##$NIST MASS SPEC NO=332832
##MOLFORM=C10 H11 N O3
##MW=193
##$NIST SOURCE=MSDC
##XUNITS=M/Z
##YUNITS=RELATIVE INTENSITY
##XFACTOR=1
##YFACTOR=1
##FIRSTX=14
##LASTX=195
##FIRSTY=10
##MAXX=195
##MINX=14
##MAXY=9999
##MINY=10
##NPOINTS=69
##PEAK TABLE=(XY..XY)
14,10 15,110 26,10 27,60
28,140 29,110 30,40 31,30
33,20 37,10 38,40 39,90
40,10 41,10 42,50 43,30
44,40 45,60 49,30 50,621
51,1952 52,150 53,40 54,10
55,10 56,130 57,30 59,180
60,10 61,10 62,30 63,40
64,20 65,30 66,10 67,10
73,30 74,200 75,180 76,370
77,5195 78,430 79,30 88,30
89,10 90,10 91,40 92,10
103,50 105,9999 106,1021 107,70
116,10 117,40 118,10 119,10
132,30 134,2512 135,240 136,20
148,10 161,941 162,230 163,20
175,30 176,30 193,921 194,110
195,10
##END=
