##TITLE=N-Benzoyl-dl-alanine
##JCAMP-DX=4.24
##DATA TYPE=MASS SPECTRUM
##ORIGIN=Japan AIST/NIMC Database- Spectrum MS-NW-8504
##OWNER=NIST Mass Spectrometry Data Center
Collection (C) 2014 copyright by the U.S. Secretary of Commerce
on behalf of the United States of America. All rights reserved.
##CAS REGISTRY NO=1205-02-3
##$NIST MASS SPEC NO=228645
##MOLFORM=C10 H11 N O3
##MW=193
##$NIST SOURCE=MSDC
##XUNITS=M/Z
##YUNITS=RELATIVE INTENSITY
##XFACTOR=1
##YFACTOR=1
##FIRSTX=15
##LASTX=194
##FIRSTY=70
##MAXX=194
##MINX=15
##MAXY=9999
##MINY=10
##NPOINTS=62
##PEAK TABLE=(XY..XY)
15,70 17,20 18,70 26,20
27,179 28,209 29,40 37,10
38,30 39,90 40,10 41,30
42,259 43,70 44,189 45,99
49,10 50,379 51,1319 52,109
53,20 55,20 62,10 63,20
64,10 65,20 70,20 71,119
73,20 74,149 75,90 76,209
77,3849 78,329 79,20 88,50
91,10 92,10 103,40 104,70
105,9999 106,829 107,50 118,10
119,10 120,10 121,20 130,30
131,40 132,10 134,20 139,10
146,20 147,50 148,3339 149,1039
150,90 175,119 176,30 192,10
193,469 194,60
##END=
