##TITLE=Acridine, 9-chloro-
##JCAMP-DX=4.24
##DATA TYPE=MASS SPECTRUM
##ORIGIN=RADIAN CORP
##OWNER=NIST Mass Spectrometry Data Center
Collection (C) 2014 copyright by the U.S. Secretary of Commerce
on behalf of the United States of America. All rights reserved.
##CAS REGISTRY NO=1207-69-8
##$NIST MASS SPEC NO=75345
##MOLFORM=C13 H8 Cl N
##MW=213
##$NIST SOURCE=MSDC
##XUNITS=M/Z
##YUNITS=RELATIVE INTENSITY
##XFACTOR=1
##YFACTOR=1
##FIRSTX=18
##LASTX=221
##FIRSTY=20
##MAXX=221
##MINX=18
##MAXY=9999
##MINY=20
##NPOINTS=74
##PEAK TABLE=(XY..XY)
18,20 27,30 28,220 32,30
38,40 39,140 40,20 49,40
50,230 51,270 52,40 61,130
62,370 63,390 64,80 73,210
74,550 75,1470 77,260 80,70
81,40 84,40 85,80 86,250
87,260 88,20 89,1670 92,20
93,240 94,30 97,50 98,260
99,400 100,180 101,210 102,60
106,1120 107,180 108,190 109,20
110,60 111,100 112,40 113,90
122,60 123,130 124,130 125,420
126,220 127,170 128,160 137,40
139,30 147,70 148,40 149,330
150,1350 151,2410 152,950 153,100
175,190 176,450 177,1990 178,2570
179,460 186,110 187,20 207,40
212,240 213,9999 214,1630 215,3180
216,470 221,40
##END=
