##TITLE=10H-Phenothiazine, 5-oxide
##JCAMP-DX=4.24
##DATA TYPE=MASS SPECTRUM
##ORIGIN=N.Klyuev, Institute of Ecology & Evolution, RAS, Moscow
##OWNER=NIST Mass Spectrometry Data Center
Collection (C) 2014 copyright by the U.S. Secretary of Commerce
on behalf of the United States of America. All rights reserved.
##CAS REGISTRY NO=1207-71-2
##$NIST MASS SPEC NO=284632
##MOLFORM=C12 H9 N O S
##MW=215
##$NIST SOURCE=MSDC
##XUNITS=M/Z
##YUNITS=RELATIVE INTENSITY
##XFACTOR=1
##YFACTOR=1
##FIRSTX=50
##LASTX=217
##FIRSTY=430
##MAXX=217
##MINX=50
##MAXY=9999
##MINY=100
##NPOINTS=52
##PEAK TABLE=(XY..XY)
50,430 51,811 52,330 53,130
63,981 64,380 65,761 75,350
76,360 77,921 78,350 89,490
90,180 91,150 93,340 94,100
108,561 109,460 110,100 126,350
127,1201 128,831 138,290 139,2162
140,2092 141,370 145,140 153,510
154,3303 155,641 159,140 160,350
164,460 165,370 166,3924 167,9999
168,1571 169,190 171,791 172,270
185,220 186,8247 187,2903 188,671
197,691 198,2682 199,8578 200,1481
201,460 215,5175 216,741 217,300
##END=
