##TITLE=9H-Fluorene, 2-ethyl-
##JCAMP-DX=4.24
##DATA TYPE=MASS SPECTRUM
##ORIGIN=D.HOFFMANN AMERICAN HEALTH FOUNDATION, NEW YORK, N.Y., USA
##OWNER=NIST Mass Spectrometry Data Center
Collection (C) 2014 copyright by the U.S. Secretary of Commerce
on behalf of the United States of America. All rights reserved.
##CAS REGISTRY NO=1207-20-1
##$NIST MASS SPEC NO=58414
##MOLFORM=C15 H14
##MW=194
##$NIST SOURCE=MSDC
##XUNITS=M/Z
##YUNITS=RELATIVE INTENSITY
##XFACTOR=1
##YFACTOR=1
##FIRSTX=51
##LASTX=194
##FIRSTY=300
##MAXX=194
##MINX=51
##MAXY=9999
##MINY=300
##NPOINTS=13
##PEAK TABLE=(XY..XY)
51,300 63,600 76,1300 89,2100
115,400 139,500 152,1000 164,1100
165,4050 166,700 179,9999 180,1700
194,8400
##END=
