##TITLE=Rhenium, tricarbonyl(.eta.<5>-2,4-cyclopentadien-1-yl)-
##JCAMP-DX=4.24
##DATA TYPE=MASS SPECTRUM
##ORIGIN=R.B.KING UNIVERSITY OF GEORGIA, ATHENS, GEORGIA, USA
##OWNER=NIST Mass Spectrometry Data Center
Collection (C) 2014 copyright by the U.S. Secretary of Commerce
on behalf of the United States of America. All rights reserved.
##CAS REGISTRY NO=12079-73-1
##$NIST MASS SPEC NO=15582
##MOLFORM=C8 H5 O3 Re
##MW=336
##$NIST SOURCE=MSDC
##XUNITS=M/Z
##YUNITS=RELATIVE INTENSITY
##XFACTOR=1
##YFACTOR=1
##FIRSTX=187
##LASTX=336
##FIRSTY=800
##MAXX=336
##MINX=187
##MAXY=9999
##MINY=400
##NPOINTS=12
##PEAK TABLE=(XY..XY)
187,800 199,400 200,1200 212,400
224,2000 225,1200 226,1450 250,1850
252,5000 280,9999 308,2000 336,5550
##END=
