##TITLE=10H-Phenothiazine, 10-methyl-
##JCAMP-DX=4.24
##DATA TYPE=MASS SPECTRUM
##ORIGIN=RADIAN CORP
##OWNER=NIST Mass Spectrometry Data Center
Collection (C) 2014 copyright by the U.S. Secretary of Commerce
on behalf of the United States of America. All rights reserved.
##CAS REGISTRY NO=1207-72-3
##$NIST MASS SPEC NO=73430
##MOLFORM=C13 H11 N S
##MW=213
##$NIST SOURCE=MSDC
##XUNITS=M/Z
##YUNITS=RELATIVE INTENSITY
##XFACTOR=1
##YFACTOR=1
##FIRSTX=14
##LASTX=216
##FIRSTY=40
##MAXX=216
##MINX=14
##MAXY=9999
##MINY=10
##NPOINTS=98
##PEAK TABLE=(XY..XY)
14,40 15,310 37,10 38,130
39,270 45,580 50,640 51,520
52,130 58,80 61,20 62,190
63,680 64,230 65,220 66,20
74,360 75,380 76,450 77,500
78,200 82,230 86,20 87,60
88,70 89,240 90,250 91,30
92,50 93,180 94,90 95,130
96,30 98,280 100,10 101,130
102,120 103,20 105,20 106,230
107,390 108,370 109,80 113,50
114,90 115,180 116,30 120,50
121,30 122,210 126,230 127,760
128,460 129,20 134,50 138,110
139,450 140,460 141,100 145,90
146,100 152,560 153,500 154,1500
155,170 158,20 159,70 164,170
165,50 166,630 167,290 168,280
169,120 170,200 171,750 172,230
173,30 178,150 179,250 180,1270
181,1360 182,190 183,70 184,210
186,10 196,460 197,890 198,9999
199,1530 200,530 201,20 210,60
211,10 212,520 213,8220 214,1270
215,430 216,20
##END=
