##TITLE=Chromium, tricarbonyl[(1,2,3,4,5,6-.eta.)-hexamethylbenzene]-
##JCAMP-DX=4.24
##DATA TYPE=MASS SPECTRUM
##ORIGIN=D.HENNEBERG, MAX-PLANCK INSTITUTE, MULHEIM, WEST GERMANY
##OWNER=NIST Mass Spectrometry Data Center
Collection (C) 2014 copyright by the U.S. Secretary of Commerce
on behalf of the United States of America. All rights reserved.
##CAS REGISTRY NO=12088-11-8
##$NIST MASS SPEC NO=61092
##MOLFORM=C15 H18 Cr O3
##MW=298
##$NIST SOURCE=MSDC
##XUNITS=M/Z
##YUNITS=RELATIVE INTENSITY
##XFACTOR=1
##YFACTOR=1
##FIRSTX=26
##LASTX=301
##FIRSTY=109
##MAXX=301
##MINX=26
##MAXY=9999
##MINY=3
##NPOINTS=176
##PEAK TABLE=(XY..XY)
26,109 27,166 28,1748 29,113
30,7 31,12 32,96 36,7
37,6 38,11 39,181 40,33
41,324 42,57 43,86 44,76
45,8 49,5 50,503 51,68
52,9999 53,1166 54,272 55,121
56,20 57,19 58,7 62,4
63,35 65,87 66,15 67,33
68,4 69,21 70,4 71,8
73,3 75,10 76,6 77,173
78,64 79,106 80,94 81,23
82,6 83,3 87,5 88,5
89,12 90,15 91,305 92,45
93,42 94,4 95,7 97,5
98,3 101,15 102,15 103,65
104,27 105,222 106,42 107,205
108,21 110,3 112,3 115,130
116,70 117,107 118,35 119,161
120,34 121,85 122,5 123,3
124,3 126,5 127,22 128,85
129,110 130,56 131,139 132,51
133,140 134,25 135,30 136,4
139,5 141,21 142,21 143,36
144,62 145,48 146,40 147,697
148,91 149,23 151,3 152,3
154,7 155,17 156,13 157,27
158,18 159,23 160,10 161,190
162,330 163,46 164,5 165,5
166,3 167,16 168,18 169,22
170,30 171,64 172,19 173,11
174,5 179,5 180,8 181,21
182,22 183,22 184,48 185,61
186,19 187,22 193,8 194,6
195,35 196,12 197,10 198,42
199,42 200,18 201,13 202,16
203,3 204,8 205,4 207,15
208,7 209,53 210,39 211,26
212,463 213,264 214,6817 215,1732
216,327 217,32 218,6 220,3
222,3 223,3 227,4 228,13
230,3 240,40 241,56 242,572
243,160 244,43 245,8 269,3
270,6 294,4 296,36 297,15
298,775 299,226 300,49 301,9
##END=
