##TITLE=Iron,methyldicarbonyl-.pi.-cyclopentadienyl
##JCAMP-DX=4.24
##DATA TYPE=MASS SPECTRUM
##ORIGIN=Institute of Organic Chemistry, Novosibirsk, USSR 1988
##OWNER=NIST Mass Spectrometry Data Center
Collection (C) 2014 copyright by the U.S. Secretary of Commerce
on behalf of the United States of America. All rights reserved.
##CAS REGISTRY NO=12080-06-7
##$NIST MASS SPEC NO=102403
##MOLFORM=C8 H8 Fe O2
##MW=192
##$NIST SOURCE=MSDC
##XUNITS=M/Z
##YUNITS=RELATIVE INTENSITY
##XFACTOR=1
##YFACTOR=1
##FIRSTX=54
##LASTX=193
##FIRSTY=299
##MAXX=193
##MINX=54
##MAXY=9999
##MINY=29
##NPOINTS=34
##PEAK TABLE=(XY..XY)
54,299 56,4499 57,399 65,699
66,550 67,45 70,199 71,399
80,99 81,699 82,299 83,199
84,199 120,199 121,9999 122,999
132,299 133,99 136,2099 137,299
147,99 149,1399 150,149 160,99
162,699 163,49 164,3599 165,399
175,29 177,499 178,49 190,99
192,1899 193,199
##END=
