##TITLE=4-Bis(2-chloroethyl)aminobenzaldehyde
##JCAMP-DX=4.24
##DATA TYPE=MASS SPECTRUM
##ORIGIN=NIST Mass Spectrometry Data Center, 1994
##OWNER=NIST Mass Spectrometry Data Center
Collection (C) 2014 copyright by the U.S. Secretary of Commerce
on behalf of the United States of America. All rights reserved.
##CAS REGISTRY NO=1208-03-3
##$NIST MASS SPEC NO=135562
##MOLFORM=C11 H13 Cl2 N O
##MW=245
##$NIST SOURCE=MSDC
##XUNITS=M/Z
##YUNITS=RELATIVE INTENSITY
##XFACTOR=1
##YFACTOR=1
##FIRSTX=15
##LASTX=250
##FIRSTY=129
##MAXX=250
##MINX=15
##MAXY=9999
##MINY=14
##NPOINTS=113
##PEAK TABLE=(XY..XY)
15,129 17,30 18,60 26,378
27,4473 29,1383 30,118 35,72
36,65 37,106 38,303 39,699
40,67 41,258 42,254 43,21
47,26 49,479 50,859 51,2146
52,350 53,120 54,119 55,47
56,46 59,23 61,142 62,351
63,4203 64,511 65,1611 66,126
67,37 68,16 73,56 74,236
75,320 76,682 77,2567 78,734
79,615 80,68 86,20 87,30
88,65 89,372 90,370 91,859
92,178 93,40 94,19 98,68
99,23 101,23 102,147 103,301
104,914 105,1038 106,887 107,104
109,17 114,21 115,221 116,145
117,981 118,699 119,265 120,122
127,15 128,21 130,291 132,2702
133,610 134,1633 135,156 138,26
139,15 140,19 142,20 143,20
144,101 145,35 146,198 147,149
148,57 160,142 161,22 167,243
168,158 169,92 170,50 180,75
181,23 182,81 183,14 184,20
196,9999 197,1173 198,3232 199,369
200,27 208,18 210,116 211,19
212,41 240,27 242,35 245,992
246,127 247,657 248,84 249,115
250,14
##END=
