##TITLE=Rhodium 1,5-cyclooctadiene chloride dimer
##JCAMP-DX=4.24
##DATA TYPE=MASS SPECTRUM
##ORIGIN=D.HENNEBERG, MAX-PLANCK INSTITUTE, MULHEIM, WEST GERMANY
##OWNER=NIST Mass Spectrometry Data Center
Collection (C) 2014 copyright by the U.S. Secretary of Commerce
on behalf of the United States of America. All rights reserved.
##CAS REGISTRY NO=12092-47-6
##$NIST MASS SPEC NO=63782
##MOLFORM=C16 H24 Cl2 Rh2
##MW=492
##$NIST SOURCE=MSDC
##XUNITS=M/Z
##YUNITS=RELATIVE INTENSITY
##XFACTOR=1
##YFACTOR=1
##FIRSTX=26
##LASTX=498
##FIRSTY=311
##MAXX=498
##MINX=26
##MAXY=9999
##MINY=1
##NPOINTS=325
##PEAK TABLE=(XY..XY)
26,311 27,2614 28,888 29,348
30,6 31,5 32,2 35,406
36,2407 37,136 38,772 39,5044
40,459 41,2402 42,112 43,22
44,72 45,20 46,6 47,1
48,2 49,45 50,514 51,1064
52,585 53,1367 54,9999 55,544
56,19 57,11 58,4 60,6
61,39 62,104 63,290 64,64
65,877 66,1551 67,7876 68,452
69,18 70,5 71,4 73,21
74,97 75,82 76,48 77,1384
78,844 79,3483 80,3924 81,292
82,57 83,5 85,10 86,8
87,10 88,24 89,41 90,22
91,952 92,120 93,1241 94,103
95,8 96,2 97,5 98,12
99,4 101,91 102,30 103,112
104,59 105,147 106,78 107,155
108,630 109,57 110,1 112,22
113,4 114,13 115,13 116,1
121,1 122,6 123,1 127,1
128,3 129,23 130,15 131,8
134,5 136,12 138,5 140,6
141,9 142,27 143,11 144,11
153,7 154,24 155,32 156,38
157,69 158,16 164,8 166,19
167,6 168,113 169,35 170,7
171,6 179,7 180,48 181,136
182,99 183,13 184,4 192,35
193,7 194,18 195,7 203,11
204,27 205,111 206,57 207,96
208,59 209,58 210,39 211,55
212,6 218,114 219,15 225,4
226,1 230,14 231,37 232,185
233,16 241,29 242,4 243,27
244,23 245,29 246,17 247,14
248,1 253,6 255,14 256,33
257,43 258,62 259,14 266,2
267,6 268,4 269,17 270,26
271,16 272,9 273,7 274,1
275,1 276,6 277,3 278,4
279,6 280,13 281,40 282,181
283,80 284,99 285,12 286,4
293,12 294,8 295,17 296,15
297,6 303,1 304,7 305,16
306,68 307,184 308,491 309,134
310,525 311,74 312,43 313,3
318,8 319,28 320,21 321,14
322,6 323,4 330,7 331,8
332,27 333,17 334,35 335,16
336,45 337,7 338,9 342,10
343,33 344,57 345,43 346,295
347,49 348,140 349,24 350,20
351,1 355,1 356,8 357,7
358,15 359,12 360,15 361,6
362,16 363,6 364,7 365,1
368,5 369,6 370,9 371,7
372,54 373,24 374,26 375,11
376,8 377,6 378,3 379,5
380,9 381,14 382,29 383,24
384,29 385,47 386,127 387,48
388,63 389,15 390,34 391,8
392,4 393,4 394,2 395,4
396,3 397,11 398,6 399,8
400,5 401,7 402,6 403,5
404,7 405,13 406,30 407,17
408,36 409,24 410,180 411,66
412,405 413,99 414,269 415,88
416,727 417,154 418,290 419,67
420,309 421,66 422,3 423,11
424,14 425,4 426,2 427,1
428,2 429,1 430,1 434,3
436,4 438,7 440,5 441,1
443,1 445,1 447,2 448,5
449,3 450,44 451,11 452,164
453,30 454,512 455,98 456,209
457,41 458,23 459,2 462,12
463,1 464,7 466,1 489,2
490,12 491,3 492,1015 493,185
494,655 495,115 496,112 497,20
498,6
##END=
