##TITLE=Iron, tricarbonyl[(1,2,3,4-.eta.<4>)-1,3,5,7-cyclooctatetraene]-
##JCAMP-DX=4.24
##DATA TYPE=MASS SPECTRUM
##ORIGIN=Japan AIST/NIMC Database- Spectrum MS-NW-7757
##OWNER=NIST Mass Spectrometry Data Center
Collection (C) 2014 copyright by the U.S. Secretary of Commerce
on behalf of the United States of America. All rights reserved.
##CAS REGISTRY NO=12093-05-9
##$NIST MASS SPEC NO=238337
##MOLFORM=C11 H8 Fe O3
##MW=244
##$NIST SOURCE=MSDC
##XUNITS=M/Z
##YUNITS=RELATIVE INTENSITY
##XFACTOR=1
##YFACTOR=1
##FIRSTX=12
##LASTX=246
##FIRSTY=10
##MAXX=246
##MINX=12
##MAXY=9999
##MINY=10
##NPOINTS=116
##PEAK TABLE=(XY..XY)
12,10 16,10 17,40 18,149
26,60 27,219 28,609 29,30
37,40 38,90 39,629 40,30
41,80 42,20 43,60 49,20
50,369 51,639 52,309 53,70
54,669 55,50 56,9999 57,609
58,40 61,20 62,90 63,219
64,30 65,80 66,20 67,239
68,80 69,40 70,30 71,20
73,20 74,119 75,99 76,149
77,559 78,719 79,119 80,329
81,1389 82,1519 83,139 84,819
85,40 86,10 87,10 89,90
90,10 91,70 92,50 93,109
94,539 95,209 96,20 98,20
101,10 102,649 103,539 104,349
105,179 106,169 107,259 108,139
109,10 110,10 112,159 113,10
115,30 116,10 117,20 118,30
119,50 120,30 121,319 122,30
128,10 129,10 130,20 131,70
132,719 133,219 134,8749 135,809
136,80 137,10 145,20 156,10
157,30 158,669 159,119 160,7039
161,769 162,80 163,10 184,10
186,90 187,20 188,1039 189,149
190,20 191,10 214,249 215,40
216,3429 217,489 218,60 242,50
243,10 244,569 245,90 246,10
##END=
