##TITLE=2-Norbornanamine, N-ethyl-3-phenyl-
##JCAMP-DX=4.24
##DATA TYPE=MASS SPECTRUM
##ORIGIN=Japan AIST/NIMC Database- Spectrum MS-NW-8122
##OWNER=NIST Mass Spectrometry Data Center
Collection (C) 2014 copyright by the U.S. Secretary of Commerce
on behalf of the United States of America. All rights reserved.
##CAS REGISTRY NO=1209-98-9
##$NIST MASS SPEC NO=235234
##MOLFORM=C15 H21 N
##MW=215
##$NIST SOURCE=MSDC
##XUNITS=M/Z
##YUNITS=RELATIVE INTENSITY
##XFACTOR=1
##YFACTOR=1
##FIRSTX=15
##LASTX=217
##FIRSTY=10
##MAXX=217
##MINX=15
##MAXY=9999
##MINY=10
##NPOINTS=148
##PEAK TABLE=(XY..XY)
15,10 26,20 27,219 28,1439
29,499 30,689 31,10 39,289
40,50 41,559 42,349 43,209
44,679 45,40 46,149 50,40
51,179 52,60 53,149 54,159
55,219 56,1939 57,259 58,5399
59,209 62,10 63,99 64,30
65,339 66,90 67,799 68,379
69,159 70,599 71,2189 72,169
73,50 74,10 75,30 76,40
77,419 78,149 79,379 80,189
81,189 82,699 83,199 84,4439
85,629 86,70 87,10 89,109
90,70 91,2059 92,359 93,90
94,129 95,70 96,649 97,999
98,8529 99,599 100,20 101,10
102,90 103,239 104,419 105,309
106,50 107,30 108,109 109,70
110,769 111,159 112,20 113,10
114,10 115,729 116,269 117,709
118,219 119,189 120,109 121,20
122,90 123,1209 124,2109 125,189
126,20 127,119 128,399 129,479
130,409 131,209 132,549 133,60
134,70 135,10 136,20 137,179
138,179 139,30 140,10 141,319
142,439 143,399 144,219 145,60
146,159 147,749 148,269 149,50
152,30 153,50 154,50 155,129
156,119 157,80 158,1259 159,199
160,829 161,139 162,10 165,20
167,30 168,40 169,99 170,1079
171,279 172,409 173,109 174,159
175,20 184,40 185,40 186,2399
187,1889 188,249 189,10 198,20
200,399 201,60 212,20 213,50
214,689 215,9999 216,1699 217,139
##END=
