##TITLE=N-Acetylsulfanilyl chloride
##JCAMP-DX=4.24
##DATA TYPE=MASS SPECTRUM
##ORIGIN=Humboldt-Universitat zu Berlin, Department of Chemistry, Analytical Group
##OWNER=NIST Mass Spectrometry Data Center
Collection (C) 2014 copyright by the U.S. Secretary of Commerce
on behalf of the United States of America. All rights reserved.
##CAS REGISTRY NO=121-60-8
##$NIST MASS SPEC NO=287705
##MOLFORM=C8 H8 Cl N O3 S
##MW=233
##$NIST SOURCE=MSDC
##XUNITS=M/Z
##YUNITS=RELATIVE INTENSITY
##XFACTOR=1
##YFACTOR=1
##FIRSTX=12
##LASTX=237
##FIRSTY=24
##MAXX=237
##MINX=12
##MAXY=9999
##MINY=12
##NPOINTS=143
##PEAK TABLE=(XY..XY)
12,24 13,45 14,283 15,1887
16,67 17,69 18,211 25,12
26,102 27,169 28,354 29,128
30,26 31,14 32,43 35,178
36,185 37,273 38,829 39,1181
40,209 41,442 42,710 43,9999
44,340 45,219 47,14 48,214
49,57 50,535 51,394 52,627
53,266 54,102 55,29 56,12
57,43 58,81 59,17 60,29
61,178 62,528 63,1811 64,1744
65,3384 66,352 67,45 68,43
69,261 70,150 71,38 72,19
73,74 74,190 75,230 76,219
77,214 78,197 79,254 80,200
81,69 82,33 83,124 84,67
85,78 86,29 87,33 88,57
89,64 90,425 91,922 92,3431
93,865 94,88 95,67 96,97
97,55 98,21 99,273 100,52
101,90 102,33 103,17 104,121
105,157 106,138 107,55 108,2167
109,154 110,29 111,31 112,52
113,19 116,26 117,17 118,50
119,26 121,33 122,36 123,86
124,107 125,76 126,197 127,528
128,109 129,164 130,21 132,19
133,171 134,960 135,102 138,19
139,36 140,456 141,67 142,36
150,131 151,19 156,4809 157,390
158,249 159,26 167,24 169,14
182,55 183,24 191,4220 192,345
193,1454 194,121 195,81 198,1583
199,166 200,86 201,14 204,26
218,48 220,21 233,1644 234,202
235,608 236,76 237,31
##END=
