##TITLE=1-Propanone, 1-(4-methoxyphenyl)-
##JCAMP-DX=4.24
##DATA TYPE=MASS SPECTRUM
##ORIGIN=Japan AIST/NIMC Database- Spectrum MS-NW-8547
##OWNER=NIST Mass Spectrometry Data Center
Collection (C) 2014 copyright by the U.S. Secretary of Commerce
on behalf of the United States of America. All rights reserved.
##CAS REGISTRY NO=121-97-1
##$NIST MASS SPEC NO=238819
##MOLFORM=C10 H12 O2
##MW=164
##$NIST SOURCE=MSDC
##XUNITS=M/Z
##YUNITS=RELATIVE INTENSITY
##XFACTOR=1
##YFACTOR=1
##FIRSTX=15
##LASTX=166
##FIRSTY=40
##MAXX=166
##MINX=15
##MAXY=9999
##MINY=10
##NPOINTS=61
##PEAK TABLE=(XY..XY)
15,40 18,10 26,30 27,259
28,70 29,339 30,10 37,30
38,169 39,189 40,10 41,20
42,10 43,20 50,299 51,239
52,50 53,99 55,99 57,99
61,20 62,99 63,509 64,769
65,149 66,50 67,10 73,10
74,99 75,99 76,229 77,2109
78,209 79,179 80,10 89,20
90,10 91,90 92,1359 93,109
94,20 103,30 104,70 105,50
106,30 107,1229 108,109 109,10
119,30 120,40 121,50 133,40
134,10 135,9999 136,879 137,80
149,20 163,30 164,1009 165,119
166,10
##END=
