##TITLE=Ethyl Vanillin
##JCAMP-DX=4.24
##DATA TYPE=MASS SPECTRUM
##ORIGIN=NIST Mass Spectrometry Data Center, 1994
##OWNER=NIST Mass Spectrometry Data Center
Collection (C) 2014 copyright by the U.S. Secretary of Commerce
on behalf of the United States of America. All rights reserved.
##CAS REGISTRY NO=121-32-4
##$NIST MASS SPEC NO=133471
##MOLFORM=C9 H10 O3
##MW=166
##$NIST SOURCE=MSDC
##XUNITS=M/Z
##YUNITS=RELATIVE INTENSITY
##XFACTOR=1
##YFACTOR=1
##FIRSTX=14
##LASTX=168
##FIRSTY=7
##MAXX=168
##MINX=14
##MAXY=9999
##MINY=7
##NPOINTS=67
##PEAK TABLE=(XY..XY)
14,7 15,49 26,282 27,1185
28,213 29,1180 30,31 31,26
32,7 37,79 38,184 39,465
40,36 41,35 42,45 43,126
45,66 49,66 50,496 51,887
52,700 53,1022 54,173 55,333
56,17 57,23 61,76 62,223
63,590 64,297 65,348 66,99
67,50 68,12 69,31 74,61
75,73 76,16 77,107 78,12
79,358 80,235 81,1563 82,327
83,21 91,210 92,168 93,52
94,26 95,54 107,81 108,213
109,1629 110,459 111,35 119,60
120,27 121,46 123,29 137,9999
138,3175 139,270 140,31 149,45
166,4219 167,402 168,40
##END=
