##TITLE=Trimethyl phosphite
##JCAMP-DX=4.24
##DATA TYPE=MASS SPECTRUM
##ORIGIN=Japan AIST/NIMC Database- Spectrum MS-NW- 817
##OWNER=NIST Mass Spectrometry Data Center
Collection (C) 2014 copyright by the U.S. Secretary of Commerce
on behalf of the United States of America. All rights reserved.
##CAS REGISTRY NO=121-45-9
##$NIST MASS SPEC NO=229590
##MOLFORM=C3 H9 O3 P
##MW=124
##$NIST SOURCE=MSDC
##XUNITS=M/Z
##YUNITS=RELATIVE INTENSITY
##XFACTOR=1
##YFACTOR=1
##FIRSTX=15
##LASTX=126
##FIRSTY=869
##MAXX=126
##MINX=15
##MAXY=9999
##MINY=10
##NPOINTS=35
##PEAK TABLE=(XY..XY)
15,869 27,10 28,159 29,459
30,70 31,389 32,20 33,70
45,709 46,20 47,2339 48,239
49,159 50,10 61,50 62,619
63,4659 64,60 65,50 77,309
78,70 79,2109 80,419 81,10
92,90 93,9999 94,2799 95,219
96,10 109,5729 110,439 111,50
124,3939 125,139 126,20
##END=
