##TITLE=2-Amino-5-nitrobenzotrifluoride
##JCAMP-DX=4.24
##DATA TYPE=MASS SPECTRUM
##ORIGIN=NIST Mass Spectrometry Data Center
##OWNER=NIST Mass Spectrometry Data Center
Collection (C) 2014 copyright by the U.S. Secretary of Commerce
on behalf of the United States of America. All rights reserved.
##CAS REGISTRY NO=121-01-7
##$NIST MASS SPEC NO=342931
##MOLFORM=C7 H5 F3 N2 O2
##MW=206
##$NIST SOURCE=MSDC
##XUNITS=M/Z
##YUNITS=RELATIVE INTENSITY
##XFACTOR=1
##YFACTOR=1
##FIRSTX=15
##LASTX=208
##FIRSTY=40
##MAXX=208
##MINX=15
##MAXY=9999
##MINY=20
##NPOINTS=115
##PEAK TABLE=(XY..XY)
15,40 16,50 17,20 18,30
19,40 26,120 27,160 28,691
30,2582 31,260 33,30 37,290
38,490 39,561 40,250 41,601
42,70 44,80 45,40 46,911
49,60 50,510 51,711 52,1431
53,330 54,130 55,20 56,90
57,310 58,20 59,30 61,430
62,861 63,2372 64,731 65,520
66,540 67,30 68,120 69,641
70,270 71,50 72,70 73,60
74,270 75,841 76,200 77,240
78,390 79,150 80,120 81,400
82,160 83,631 84,80 87,230
88,510 89,400 90,611 91,370
92,80 93,200 95,971 96,150
97,20 98,40 99,210 100,420
101,661 102,210 103,30 105,190
106,110 107,100 108,480 109,180
110,100 111,80 113,2282 114,621
115,290 120,2803 121,320 122,90
126,30 128,2272 129,280 130,50
131,90 132,230 133,881 134,80
140,2532 141,490 142,20 143,30
147,20 156,2302 157,190 158,80
160,3493 161,280 170,70 174,20
176,3053 177,270 178,20 186,180
187,1221 188,100 190,581 191,30
206,9999 207,871 208,60
##END=
