##TITLE=Ethanone, 1-(3-hydroxyphenyl)-
##JCAMP-DX=4.24
##DATA TYPE=MASS SPECTRUM
##ORIGIN=NIST Mass Spectrometry Data Center, 1994
##OWNER=NIST Mass Spectrometry Data Center
Collection (C) 2014 copyright by the U.S. Secretary of Commerce
on behalf of the United States of America. All rights reserved.
##CAS REGISTRY NO=121-71-1
##$NIST MASS SPEC NO=134251
##MOLFORM=C8 H8 O2
##MW=136
##$NIST SOURCE=MSDC
##XUNITS=M/Z
##YUNITS=RELATIVE INTENSITY
##XFACTOR=1
##YFACTOR=1
##FIRSTX=12
##LASTX=138
##FIRSTY=10
##MAXX=138
##MINX=12
##MAXY=9999
##MINY=5
##NPOINTS=68
##PEAK TABLE=(XY..XY)
12,10 13,29 14,235 15,810
16,9 17,6 18,5 25,27
26,156 27,298 29,294 30,21
31,48 37,290 38,807 39,2660
40,142 41,75 42,367 43,2606
44,62 45,21 46,129 49,115
50,520 51,461 52,155 53,588
54,53 55,127 61,292 62,563
63,1263 64,664 65,3279 66,480
67,60 68,17 73,81 74,251
75,141 76,75 77,396 78,93
79,93 80,13 81,17 85,21
86,29 87,16 89,42 90,29
91,67 92,13 93,5444 94,486
95,39 105,15 107,116 108,14
118,12 119,53 121,9999 122,778
123,70 136,6166 137,545 138,21
##END=
