##TITLE=Benzene, 1-chloro-2-nitro-4-(trifluoromethyl)-
##JCAMP-DX=4.24
##DATA TYPE=MASS SPECTRUM
##ORIGIN=Japan AIST/NIMC Database- Spectrum MS-NW- 965
##OWNER=NIST Mass Spectrometry Data Center
Collection (C) 2014 copyright by the U.S. Secretary of Commerce
on behalf of the United States of America. All rights reserved.
##CAS REGISTRY NO=121-17-5
##$NIST MASS SPEC NO=230225
##MOLFORM=C7 H3 Cl F3 N O2
##MW=225
##$NIST SOURCE=MSDC
##XUNITS=M/Z
##YUNITS=RELATIVE INTENSITY
##XFACTOR=1
##YFACTOR=1
##FIRSTX=16
##LASTX=229
##FIRSTY=20
##MAXX=229
##MINX=16
##MAXY=9999
##MINY=10
##NPOINTS=166
##PEAK TABLE=(XY..XY)
16,20 17,20 18,70 20,119
25,20 26,60 27,80 28,639
29,30 30,9519 31,429 32,30
35,60 36,199 37,619 38,469
39,109 41,20 42,10 43,30
44,80 45,10 46,299 47,70
48,40 49,309 50,1669 51,379
52,40 53,30 55,60 56,119
57,449 58,10 60,90 61,409
62,499 63,639 64,99 65,10
66,10 67,149 68,139 69,1579
70,30 71,20 72,199 73,729
74,2249 75,3399 76,219 77,30
79,50 80,109 81,279 82,60
83,10 84,459 85,429 86,189
87,189 88,179 89,30 90,10
91,449 92,139 93,689 94,609
95,229 96,40 97,149 98,90
99,629 100,80 101,30 102,20
103,60 104,90 105,70 106,50
107,70 108,109 109,789 110,209
111,299 112,119 113,109 114,20
115,90 116,20 117,409 118,109
119,459 120,30 122,20 123,239
124,139 125,1539 126,159 127,10
128,50 129,1439 130,109 131,749
132,3379 133,269 134,10 135,50
137,10 138,30 139,10 140,10
141,50 142,20 143,1789 144,3889
145,339 146,20 147,629 148,179
149,209 150,60 152,10 153,99
155,30 157,10 158,50 159,639
160,709 161,269 162,229 163,20
166,40 167,2489 168,179 169,789
170,50 171,10 173,10 175,20
176,20 177,20 178,90 179,9999
180,759 181,3129 182,239 183,10
190,10 191,10 194,10 195,2079
196,169 197,699 198,60 206,1159
207,90 208,369 209,299 210,30
211,99 225,5719 226,469 227,1879
228,149 229,10
##END=
