##TITLE=3-tert-Butyl-4-hydroxyanisole
##JCAMP-DX=4.24
##DATA TYPE=MASS SPECTRUM
##ORIGIN=NIST Mass Spectrometry Data Center, 1990.
##OWNER=NIST Mass Spectrometry Data Center
Collection (C) 2014 copyright by the U.S. Secretary of Commerce
on behalf of the United States of America. All rights reserved.
##CAS REGISTRY NO=121-00-6
##$NIST MASS SPEC NO=118949
##MOLFORM=C11 H16 O2
##MW=180
##$NIST SOURCE=MSDC
##XUNITS=M/Z
##YUNITS=RELATIVE INTENSITY
##XFACTOR=1
##YFACTOR=1
##FIRSTX=15
##LASTX=182
##FIRSTY=524
##MAXX=182
##MINX=15
##MAXY=9999
##MINY=4
##NPOINTS=112
##PEAK TABLE=(XY..XY)
15,524 18,4 26,119 27,453
28,171 29,380 30,22 31,70
32,6 37,31 38,94 39,782
40,141 41,812 42,58 43,330
44,8 45,82 46,28 50,184
51,557 52,353 53,624 54,225
55,431 56,71 57,136 58,14
59,64 60,21 61,27 62,104
63,326 64,158 65,540 66,239
67,266 68,107 69,150 73,20
74,69 75,89 76,162 77,1210
78,477 79,563 80,131 81,217
82,173 85,14 86,19 87,33
88,34 89,144 90,116 91,1152
92,165 93,257 94,261 95,130
96,26 101,21 102,81 103,335
104,201 105,575 106,187 107,536
108,211 109,509 110,281 111,18
115,519 116,177 117,135 118,54
119,117 120,76 121,438 122,410
123,271 124,752 125,477 126,41
127,39 128,55 129,38 130,28
131,246 132,185 133,253 134,104
135,221 136,28 137,7317 138,731
139,102 145,42 146,40 147,107
148,105 149,485 150,542 151,136
152,19 161,12 165,9999 166,1127
167,99 180,4563 181,550 182,66
##END=
