##TITLE=Aniline chromium tricarbonyl
##JCAMP-DX=4.24
##DATA TYPE=MASS SPECTRUM
##ORIGIN=Japan AIST/NIMC Database- Spectrum MS-IW- 12
##OWNER=NIST Mass Spectrometry Data Center
Collection (C) 2014 copyright by the U.S. Secretary of Commerce
on behalf of the United States of America. All rights reserved.
##CAS REGISTRY NO=12108-11-1
##$NIST MASS SPEC NO=239287
##MOLFORM=C9 H7 Cr N O3
##MW=229
##$NIST SOURCE=MSDC
##XUNITS=M/Z
##YUNITS=RELATIVE INTENSITY
##XFACTOR=1
##YFACTOR=1
##FIRSTX=26
##LASTX=232
##FIRSTY=10
##MAXX=232
##MINX=26
##MAXY=9999
##MINY=10
##NPOINTS=89
##PEAK TABLE=(XY..XY)
26,10 27,20 28,549 29,10
31,10 37,10 38,40 39,159
40,50 41,60 42,20 43,10
44,10 45,10 46,40 50,559
51,50 52,9999 53,1279 54,309
57,30 59,10 61,10 62,20
63,50 64,30 65,189 66,339
67,129 68,429 69,60 70,10
72,10 74,20 75,10 76,10
77,209 78,90 79,109 80,339
81,50 82,10 85,10 86,179
87,40 88,10 89,40 90,139
91,129 92,179 93,949 94,70
100,90 101,50 102,10 103,30
104,10 105,10 108,20 115,10
116,30 117,80 118,20 127,30
128,10 142,40 143,509 144,659
145,9029 146,1659 147,349 148,20
171,129 172,80 173,2349 174,449
175,99 176,10 199,10 201,289
202,60 203,10 225,10 227,259
228,30 229,4849 230,1059 231,249
232,20
##END=
