##TITLE=5H-Dibenzo[a,d]cyclohepten-5-ol, 10,11-dihydro-
##JCAMP-DX=4.24
##DATA TYPE=MASS SPECTRUM
##ORIGIN=Leung Pu, NIH, Bethesda, Maryland, U.S.
##OWNER=NIST Mass Spectrometry Data Center
Collection (C) 2014 copyright by the U.S. Secretary of Commerce
on behalf of the United States of America. All rights reserved.
##CAS REGISTRY NO=1210-34-0
##$NIST MASS SPEC NO=127440
##MOLFORM=C15 H14 O
##MW=210
##$NIST SOURCE=MSDC
##XUNITS=M/Z
##YUNITS=RELATIVE INTENSITY
##XFACTOR=1
##YFACTOR=1
##FIRSTX=41
##LASTX=212
##FIRSTY=248
##MAXX=212
##MINX=41
##MAXY=9999
##MINY=13
##NPOINTS=112
##PEAK TABLE=(XY..XY)
41,248 42,22 43,195 44,189
45,53 48,13 50,323 51,695
52,170 53,143 54,35 55,197
56,46 57,148 59,15 60,32
61,26 62,156 63,732 64,221
65,809 66,71 67,50 69,450
71,38 73,67 74,172 75,264
76,588 77,1121 78,476 79,200
80,14 82,1521 84,29 85,42
86,80 87,156 88,157 89,1252
91,3684 92,269 94,971 96,860
97,229 98,62 99,57 100,48
101,81 102,72 103,914 104,423
105,755 106,80 107,93 110,16
111,39 113,83 115,1368 116,191
118,329 119,491 120,21 125,16
126,149 127,159 128,247 129,69
131,589 132,873 133,3733 134,325
135,96 137,38 139,301 141,219
142,30 148,96 149,37 150,235
151,382 152,839 153,307 154,76
155,44 162,25 163,302 165,2769
166,800 167,302 168,51 174,17
176,572 178,2773 179,1278 180,365
181,1021 182,175 187,135 189,1346
191,4542 192,9999 193,2684 194,852
195,1497 196,207 197,15 207,172
209,2590 210,4730 211,708 212,69
##END=
