##TITLE=Cyclopentadienylirondicarbonylchloride
##JCAMP-DX=4.24
##DATA TYPE=MASS SPECTRUM
##ORIGIN=Institute of Organic Chemistry, Novosibirsk, USSR 1988
##OWNER=NIST Mass Spectrometry Data Center
Collection (C) 2014 copyright by the U.S. Secretary of Commerce
on behalf of the United States of America. All rights reserved.
##CAS REGISTRY NO=12107-04-9
##$NIST MASS SPEC NO=102415
##MOLFORM=C7 H5 Cl Fe O2
##MW=212
##$NIST SOURCE=MSDC
##XUNITS=M/Z
##YUNITS=RELATIVE INTENSITY
##XFACTOR=1
##YFACTOR=1
##FIRSTX=54
##LASTX=215
##FIRSTY=99
##MAXX=215
##MINX=54
##MAXY=9999
##MINY=99
##NPOINTS=34
##PEAK TABLE=(XY..XY)
54,99 56,499 65,399 66,299
91,249 93,399 94,299 95,299
120,1899 121,4099 122,199 128,99
129,149 130,449 132,149 149,299
154,1049 155,299 156,9999 157,1899
158,4099 159,399 175,99 177,599
182,299 184,4799 185,499 186,4499
187,699 210,299 212,3199 213,399
214,999 215,149
##END=
