##TITLE=Tungsten, tricarbonyl(.eta.5-2,4-cyclopentadien-1-yl)hydro-
##JCAMP-DX=4.24
##DATA TYPE=MASS SPECTRUM
##ORIGIN=R.B.KING UNIVERSITY OF GEORGIA, ATHENS, GEORGIA, USA
##OWNER=NIST Mass Spectrometry Data Center
Collection (C) 2014 copyright by the U.S. Secretary of Commerce
on behalf of the United States of America. All rights reserved.
##CAS REGISTRY NO=12128-26-6
##$NIST MASS SPEC NO=15541
##MOLFORM=C8 H6 O3 W
##MW=334
##$NIST SOURCE=MSDC
##XUNITS=M/Z
##YUNITS=RELATIVE INTENSITY
##XFACTOR=1
##YFACTOR=1
##FIRSTX=39
##LASTX=334
##FIRSTY=300
##MAXX=334
##MINX=39
##MAXY=9999
##MINY=150
##NPOINTS=21
##PEAK TABLE=(XY..XY)
39,300 40,200 65,400 66,700
125,3000 139,400 153,400 167,150
184,200 186,700 197,200 209,300
221,2300 222,2800 249,2800 250,9999
277,1400 278,2600 305,1900 306,4600
334,4300
##END=
