##TITLE=Molybdenum, tricarbonylchloro(.eta.5-2,4-cyclopentadien-1-yl)-
##JCAMP-DX=4.24
##DATA TYPE=MASS SPECTRUM
##ORIGIN=Penn State Mass Spectrom.Center
##OWNER=NIST Mass Spectrometry Data Center
Collection (C) 2014 copyright by the U.S. Secretary of Commerce
on behalf of the United States of America. All rights reserved.
##CAS REGISTRY NO=12128-23-3
##$NIST MASS SPEC NO=281410
##MOLFORM=C8 H5 Cl Mo O3
##MW=282
##$NIST SOURCE=MSDC
##XUNITS=M/Z
##YUNITS=RELATIVE INTENSITY
##XFACTOR=1
##YFACTOR=1
##FIRSTX=31
##LASTX=286
##FIRSTY=1491
##MAXX=286
##MINX=31
##MAXY=9999
##MINY=20
##NPOINTS=164
##PEAK TABLE=(XY..XY)
31,1491 35,170 36,1261 37,90
38,550 39,621 40,290 41,70
43,110 44,90 45,50 50,30
51,20 55,30 56,30 57,60
62,30 63,110 65,120 66,120
69,60 79,60 80,581 81,410
82,70 92,490 94,390 95,651
96,1091 97,1301 98,1882 99,1071
100,811 101,90 104,200 105,290
106,150 107,390 108,691 109,591
110,831 111,811 112,591 113,561
114,200 117,90 119,70 120,150
121,120 122,120 123,190 124,170
125,250 126,290 127,480 128,260
129,1081 130,1672 131,1611 132,2182
133,3523 134,3073 135,3223 136,2642
137,1651 138,931 139,450 140,240
141,30 142,270 143,290 144,380
145,310 146,550 147,150 148,310
150,60 153,110 154,130 155,410
156,350 157,1441 158,1091 159,1391
160,1952 161,2272 162,1581 163,2112
164,1091 165,951 166,1722 167,490
168,1752 169,1912 170,2262 171,1792
172,2702 173,611 174,1451 175,100
176,270 185,480 186,110 187,260
188,550 189,641 190,591 191,881
192,5025 193,791 194,4594 195,5325
196,6436 197,4994 198,9999 199,1491
200,5455 201,330 202,951 213,390
214,230 215,260 216,591 217,691
218,500 219,711 220,1922 221,390
222,1762 223,1892 224,2412 225,1982
226,3643 227,591 228,2072 229,120
230,380 241,130 242,190 243,60
244,270 245,360 246,290 247,320
248,1361 249,190 250,1051 251,1281
252,1421 253,1111 254,2292 255,380
256,1301 257,80 258,210 276,380
278,300 279,410 280,561 281,430
282,791 283,160 284,450 286,90
##END=
