##TITLE=Chromium, tricarbonyl[(1,2,3,4,5,6-.eta.)-1,3,5-cycloheptatriene]-
##JCAMP-DX=4.24
##DATA TYPE=MASS SPECTRUM
##ORIGIN=D.HENNEBERG, MAX-PLANCK INSTITUTE, MULHEIM, WEST GERMANY
##OWNER=NIST Mass Spectrometry Data Center
Collection (C) 2014 copyright by the U.S. Secretary of Commerce
on behalf of the United States of America. All rights reserved.
##CAS REGISTRY NO=12125-72-3
##$NIST MASS SPEC NO=61367
##MOLFORM=C10 H8 Cr O3
##MW=228
##$NIST SOURCE=MSDC
##XUNITS=M/Z
##YUNITS=RELATIVE INTENSITY
##XFACTOR=1
##YFACTOR=1
##FIRSTX=26
##LASTX=231
##FIRSTY=206
##MAXX=231
##MINX=26
##MAXY=9999
##MINY=3
##NPOINTS=101
##PEAK TABLE=(XY..XY)
26,206 27,148 28,9614 29,115
30,20 31,6 32,89 37,8
38,39 39,571 40,102 41,94
42,15 43,20 44,159 45,37
46,20 48,3 49,9 50,521
51,262 52,9999 53,1138 54,259
55,3 57,12 61,4 62,41
63,265 64,83 65,1260 66,1351
67,160 68,51 72,18 74,11
75,13 76,21 77,136 78,374
79,48 80,197 81,33 82,6
84,3 85,18 86,87 87,9
88,10 89,226 90,223 91,5132
92,2238 93,171 94,14 95,8
100,37 103,25 104,10 108,19
111,5 114,6 115,11 116,77
117,140 118,925 119,158 120,39
128,14 129,85 130,24 131,10
141,11 142,386 143,121 144,5707
145,1054 146,215 147,12 170,67
171,18 172,1326 173,259 174,40
175,4 196,3 198,47 199,8
200,1116 201,229 202,40 203,5
207,6 224,19 225,6 226,72
227,5 228,1292 229,286 230,65
231,12
##END=
