##TITLE=Triselenothane
##JCAMP-DX=4.24
##DATA TYPE=MASS SPECTRUM
##ORIGIN=G.-J. Wei et al., Food Chemistry 116 (2009) 774-778
##OWNER=NIST Mass Spectrometry Data Center
Collection (C) 2014 copyright by the U.S. Secretary of Commerce
on behalf of the United States of America. All rights reserved.
##CAS REGISTRY NO=121400-83-7
##$NIST MASS SPEC NO=366057
##MOLFORM=C2 H4 Se3
##MW=268
##$NIST SOURCE=MSDC
##XUNITS=M/Z
##YUNITS=RELATIVE INTENSITY
##XFACTOR=1
##YFACTOR=1
##FIRSTX=42
##LASTX=274
##FIRSTY=113
##MAXX=274
##MINX=42
##MAXY=9999
##MINY=51
##NPOINTS=110
##PEAK TABLE=(XY..XY)
42,113 43,113 45,61 55,113
56,61 57,154 68,61 70,61
71,113 73,61 76,389 77,389
78,1043 79,154 80,2076 81,389
82,389 83,113 86,61 87,61
88,113 89,1135 90,1513 91,4417
92,2637 93,8874 94,2924 95,7842
96,951 97,1329 98,61 105,113
106,154 107,338 108,194 109,572
110,338 111,113 112,61 124,61
152,154 153,205 154,1043 155,205
156,2586 157,1422 158,4417 159,379
160,4979 161,205 162,1605 163,61
164,154 166,61 167,338 168,531
169,1564 170,1513 171,4141 172,2873
173,6860 174,1564 175,7658 176,900
177,2127 178,205 179,154 184,113
185,61 186,205 187,440 188,440
190,440 192,154 234,154 235,51
236,205 237,61 238,205 240,297
242,113 245,113 246,113 247,389
248,389 249,1043 250,562 251,1748
252,715 253,2301 254,205 255,1983
257,715 258,92 259,246 260,531
261,623 262,1799 263,1595 264,4468
265,2689 266,7985 267,3108 268,9999
269,1135 270,8026 271,246 272,3344
273,61 274,481
##END=
