##TITLE=Cyprodinil
##JCAMP-DX=4.24
##DATA TYPE=MASS SPECTRUM
##ORIGIN=NIST Mass Spectrometry Data Center, 2009
##OWNER=NIST Mass Spectrometry Data Center
Collection (C) 2014 copyright by the U.S. Secretary of Commerce
on behalf of the United States of America. All rights reserved.
##CAS REGISTRY NO=121552-61-2
##$NIST MASS SPEC NO=373136
##MOLFORM=C14 H15 N3
##MW=225
##$NIST SOURCE=MSDC
##XUNITS=M/Z
##YUNITS=RELATIVE INTENSITY
##XFACTOR=1
##YFACTOR=1
##FIRSTX=15
##LASTX=227
##FIRSTY=10
##MAXX=227
##MINX=15
##MAXY=9999
##MINY=10
##NPOINTS=132
##PEAK TABLE=(XY..XY)
15,10 26,10 27,80 28,50
29,10 30,10 37,10 38,70
39,561 40,120 41,290 42,320
43,50 50,120 51,581 52,200
53,190 54,90 55,30 56,10
61,10 62,40 63,190 64,220
65,811 66,330 67,340 68,70
69,10 70,10 74,30 75,50
76,120 77,1551 78,310 79,270
80,230 81,90 82,120 83,20
85,60 88,10 89,60 90,150
91,631 92,500 93,460 94,120
95,40 96,30 97,30 98,120
101,10 102,40 103,130 104,400
106,280 107,190 108,120 109,20
112,250 114,10 115,50 116,80
117,160 118,480 119,280 120,40
121,120 122,20 123,40 127,10
128,40 129,50 130,80 131,280
132,120 133,230 134,110 135,10
139,10 140,20 141,20 142,60
143,170 144,130 145,30 146,50
147,60 148,150 149,10 152,10
153,10 154,40 155,60 156,100
157,60 158,90 159,20 160,10
165,10 166,30 167,60 168,70
169,80 170,50 171,30 172,10
179,10 180,30 181,80 182,120
183,220 184,170 185,20 195,50
196,90 197,150 198,140 199,100
207,110 208,510 209,210 210,1131
211,170 212,10 222,280 223,330
224,9999 225,6526 226,931 227,70
##END=
