##TITLE=9H-Fluorene-9-carboxylic acid, 9-hydroxy-, methyl ester
##JCAMP-DX=4.24
##DATA TYPE=MASS SPECTRUM
##ORIGIN=NIST Mass Spectrometry Data Center, 1998.
##OWNER=NIST Mass Spectrometry Data Center
Collection (C) 2014 copyright by the U.S. Secretary of Commerce
on behalf of the United States of America. All rights reserved.
##CAS REGISTRY NO=1216-44-0
##$NIST MASS SPEC NO=291831
##MOLFORM=C15 H12 O3
##MW=240
##$NIST SOURCE=MSDC
##XUNITS=M/Z
##YUNITS=RELATIVE INTENSITY
##XFACTOR=1
##YFACTOR=1
##FIRSTX=15
##LASTX=242
##FIRSTY=220
##MAXX=242
##MINX=15
##MAXY=9999
##MINY=10
##NPOINTS=98
##PEAK TABLE=(XY..XY)
15,220 26,10 27,20 28,10
29,40 30,10 31,20 38,20
39,80 44,10 45,10 50,120
51,170 52,30 53,20 55,10
59,140 61,20 62,100 63,300
65,10 68,10 69,10 73,10
74,180 75,300 76,570 77,210
78,30 81,70 85,20 86,100
87,150 88,40 89,40 90,80
97,10 98,100 99,100 100,50
101,100 102,90 103,10 109,10
110,40 111,50 112,10 113,60
114,20 115,30 122,20 123,20
124,10 125,90 126,370 127,300
128,30 129,10 134,10 135,10
137,40 138,20 139,30 140,10
141,10 149,40 150,530 151,1370
152,4260 153,2000 154,230 155,10
161,30 162,60 163,240 164,140
165,130 166,20 167,10 168,20
178,10 180,480 181,9999 182,1520
183,120 184,10 192,30 193,10
195,20 196,30 207,10 208,10
211,10 224,20 225,10 240,750
241,120 242,10
##END=
