##TITLE=Adamantane-1-carboxamide, N-(4-bromophenyl)-
##JCAMP-DX=4.24
##DATA TYPE=MASS SPECTRUM
##ORIGIN=Zaikin V.G., TIPS RAS, Moscow, Russia
##OWNER=NIST Mass Spectrometry Data Center
Collection (C) 2014 copyright by the U.S. Secretary of Commerce
on behalf of the United States of America. All rights reserved.
##CAS REGISTRY NO=121768-29-4
##$NIST MASS SPEC NO=307469
##MOLFORM=C17 H20 Br N O
##MW=333
##$NIST SOURCE=MSDC
##XUNITS=M/Z
##YUNITS=RELATIVE INTENSITY
##XFACTOR=1
##YFACTOR=1
##FIRSTX=28
##LASTX=336
##FIRSTY=10
##MAXX=336
##MINX=28
##MAXY=9999
##MINY=10
##NPOINTS=45
##PEAK TABLE=(XY..XY)
28,10 29,30 39,80 41,190
43,30 53,80 55,170 63,50
64,40 65,120 66,30 67,300
69,70 77,270 78,70 79,801
80,70 81,230 90,30 91,410
92,150 93,741 94,60 105,80
107,340 108,30 119,30 135,9999
136,971 137,40 163,140 169,40
170,70 171,150 172,80 173,140
248,110 250,120 254,30 305,40
307,40 333,1001 334,190 335,1001
336,180
##END=
