##TITLE=L-Tryptophan, N-acetyl-
##JCAMP-DX=4.24
##DATA TYPE=MASS SPECTRUM
##ORIGIN=Japan AIST/NIMC Database- Spectrum MS-NW-2348
##OWNER=NIST Mass Spectrometry Data Center
Collection (C) 2014 copyright by the U.S. Secretary of Commerce
on behalf of the United States of America. All rights reserved.
##CAS REGISTRY NO=1218-34-4
##$NIST MASS SPEC NO=234136
##MOLFORM=C13 H14 N2 O3
##MW=246
##$NIST SOURCE=MSDC
##XUNITS=M/Z
##YUNITS=RELATIVE INTENSITY
##XFACTOR=1
##YFACTOR=1
##FIRSTX=14
##LASTX=247
##FIRSTY=10
##MAXX=247
##MINX=14
##MAXY=9999
##MINY=10
##NPOINTS=105
##PEAK TABLE=(XY..XY)
14,10 15,109 16,10 17,30
18,109 26,10 27,50 28,10
29,10 30,20 32,10 38,20
39,80 40,10 41,40 42,50
43,669 44,99 45,10 50,70
51,139 52,60 53,20 54,10
55,20 57,10 58,10 60,10
61,10 62,30 63,99 64,30
65,50 70,10 71,10 74,90
75,80 76,99 77,579 78,60
79,10 86,10 87,20 88,20
89,80 90,50 91,20 92,10
99,10 100,10 101,70 102,249
103,479 104,60 105,10 113,20
114,30 115,159 116,50 117,249
118,40 126,20 127,10 128,149
129,309 130,9999 131,1039 132,109
133,20 140,30 141,60 142,80
143,99 144,30 145,10 146,10
154,10 155,50 156,80 157,119
158,169 159,169 160,20 169,40
170,109 171,20 172,10 181,10
182,40 183,30 184,10 185,10
186,30 187,1239 188,149 189,10
198,10 200,60 201,40 202,10
226,10 228,319 229,50 246,409
247,60
##END=
