##TITLE=Iron, tricarbonylchloro(.eta.3-2-propenyl)-
##JCAMP-DX=4.24
##DATA TYPE=MASS SPECTRUM
##ORIGIN=A.E. HILL, VICTORIA COLLEGE, JERSEY
##OWNER=NIST Mass Spectrometry Data Center
Collection (C) 2014 copyright by the U.S. Secretary of Commerce
on behalf of the United States of America. All rights reserved.
##CAS REGISTRY NO=12192-47-1
##$NIST MASS SPEC NO=72322
##MOLFORM=C6 H5 Cl Fe O3
##MW=216
##$NIST SOURCE=MSDC
##XUNITS=M/Z
##YUNITS=RELATIVE INTENSITY
##XFACTOR=1
##YFACTOR=1
##FIRSTX=56
##LASTX=216
##FIRSTY=9100
##MAXX=216
##MINX=56
##MAXY=9999
##MINY=30
##NPOINTS=21
##PEAK TABLE=(XY..XY)
56,9100 67,4100 69,8800 71,2200
84,2200 91,3800 95,4100 96,6500
97,9999 119,1100 125,2400 132,600
138,1000 147,200 153,4300 160,4800
166,500 181,1800 188,2000 194,100
216,30
##END=
