##TITLE=Dimethyl isothiocyanatosuccinate
##JCAMP-DX=4.24
##DATA TYPE=MASS SPECTRUM
##ORIGIN=NIST Mass Spectrometry Data Center, 1994
##OWNER=NIST Mass Spectrometry Data Center
Collection (C) 2014 copyright by the U.S. Secretary of Commerce
on behalf of the United States of America. All rights reserved.
##CAS REGISTRY NO=121928-38-9
##$NIST MASS SPEC NO=134720
##MOLFORM=C7 H9 N O4 S
##MW=203
##$NIST SOURCE=MSDC
##XUNITS=M/Z
##YUNITS=RELATIVE INTENSITY
##XFACTOR=1
##YFACTOR=1
##FIRSTX=4
##LASTX=205
##FIRSTY=32
##MAXX=205
##MINX=4
##MAXY=9999
##MINY=32
##NPOINTS=76
##PEAK TABLE=(XY..XY)
4,32 13,47 15,5960 16,107
25,63 26,763 27,3027 28,815
29,1162 30,314 31,410 32,350
33,60 38,78 39,277 40,364
41,390 42,1383 43,373 44,457
45,599 46,82 47,350 51,107
52,251 53,433 54,78 55,3383
56,235 57,607 58,2022 59,9294
60,384 61,121 68,216 69,99
70,397 71,412 72,416 73,99
74,3347 75,1571 76,189 77,60
81,42 82,84 83,138 84,928
85,1686 86,705 87,129 88,40
99,99 100,371 102,9999 103,483
104,456 112,396 113,1001 114,175
115,273 116,60 128,40 130,104
140,53 143,5524 144,2290 145,424
146,92 171,4958 172,801 173,308
174,47 203,773 204,70 205,38
##END=
