##TITLE=Chromium, hexacarbonylbis(.eta.5-2,4-cyclopentadien-1-yl)di-, (Cr-Cr)
##JCAMP-DX=4.24
##DATA TYPE=MASS SPECTRUM
##ORIGIN=R.B.KING UNIVERSITY OF GEORGIA, ATHENS, GEORGIA, USA
##OWNER=NIST Mass Spectrometry Data Center
Collection (C) 2014 copyright by the U.S. Secretary of Commerce
on behalf of the United States of America. All rights reserved.
##CAS REGISTRY NO=12194-12-6
##$NIST MASS SPEC NO=17063
##MOLFORM=C16 H10 Cr2 O6
##MW=402
##$NIST SOURCE=MSDC
##XUNITS=M/Z
##YUNITS=RELATIVE INTENSITY
##XFACTOR=1
##YFACTOR=1
##FIRSTX=52
##LASTX=402
##FIRSTY=9999
##MAXX=402
##MINX=52
##MAXY=9999
##MINY=45
##NPOINTS=18
##PEAK TABLE=(XY..XY)
52,9999 80,772 91,1136 117,4545
145,1181 146,772 173,1045 174,272
182,45 201,500 202,454 208,45
234,45 290,45 318,45 346,45
374,45 402,45
##END=
