##TITLE=Fenitrothion
##JCAMP-DX=4.24
##DATA TYPE=MASS SPECTRUM
##ORIGIN=ACCUSTANDARD Chemicals / NIST MS Data Center.
##OWNER=NIST Mass Spectrometry Data Center
Collection (C) 2014 copyright by the U.S. Secretary of Commerce
on behalf of the United States of America. All rights reserved.
##CAS REGISTRY NO=122-14-5
##$NIST MASS SPEC NO=125528
##MOLFORM=C9 H12 N O5 P S
##MW=277
##$NIST SOURCE=MSDC
##XUNITS=M/Z
##YUNITS=RELATIVE INTENSITY
##XFACTOR=1
##YFACTOR=1
##FIRSTX=13
##LASTX=281
##FIRSTY=14
##MAXX=281
##MINX=13
##MAXY=9999
##MINY=9
##NPOINTS=176
##PEAK TABLE=(XY..XY)
13,14 14,58 15,701 16,9
26,67 27,156 28,502 29,209
30,602 31,192 32,132 33,17
35,15 37,26 38,172 39,636
40,136 41,44 42,15 43,75
45,283 47,1753 48,62 49,98
50,406 51,1033 52,804 53,191
54,90 55,77 57,10 58,20
59,16 60,13 61,91 62,861
63,1979 64,358 65,343 66,232
67,67 68,84 69,90 70,30
71,34 73,35 74,115 75,116
76,172 77,755 78,679 79,3069
80,419 81,109 82,97 83,47
84,50 85,34 86,46 87,50
88,34 89,800 90,230 91,231
92,34 93,1807 94,358 95,312
96,289 97,118 98,34 99,25
102,18 103,67 104,82 105,112
106,157 107,115 108,18 109,7104
110,400 111,237 112,80 113,27
116,28 117,16 118,64 119,147
120,402 121,635 122,350 123,301
124,16 125,8545 126,311 127,591
128,33 129,21 131,11 132,51
133,26 134,74 135,94 136,518
137,198 138,197 139,108 140,61
141,43 142,60 143,56 148,16
150,592 151,251 152,358 153,155
154,69 155,43 156,17 157,17
164,51 165,28 166,171 167,77
168,190 169,249 170,84 171,34
172,13 181,24 182,156 183,69
184,35 185,57 186,118 187,38
188,30 189,16 196,50 197,33
198,56 199,162 200,175 201,88
202,131 203,38 204,15 212,16
214,593 215,220 216,256 217,138
218,36 219,15 228,255 229,37
230,163 231,84 232,100 233,23
234,15 244,104 245,52 246,315
247,186 248,35 260,6062 261,627
262,362 263,41 264,11 277,9999
278,1186 279,579 280,54 281,16
##END=
