##TITLE=Phenol, 4-(phenylamino)-
##JCAMP-DX=4.24
##DATA TYPE=MASS SPECTRUM
##ORIGIN=Japan AIST/NIMC Database- Spectrum MS-NW- 616
##OWNER=NIST Mass Spectrometry Data Center
Collection (C) 2014 copyright by the U.S. Secretary of Commerce
on behalf of the United States of America. All rights reserved.
##CAS REGISTRY NO=122-37-2
##$NIST MASS SPEC NO=229335
##MOLFORM=C12 H11 N O
##MW=185
##$NIST SOURCE=MSDC
##XUNITS=M/Z
##YUNITS=RELATIVE INTENSITY
##XFACTOR=1
##YFACTOR=1
##FIRSTX=15
##LASTX=187
##FIRSTY=10
##MAXX=187
##MINX=15
##MAXY=9999
##MINY=10
##NPOINTS=110
##PEAK TABLE=(XY..XY)
15,10 26,50 27,259 28,99
29,20 30,10 37,40 38,129
39,739 40,80 41,50 42,10
43,20 44,10 49,10 50,209
51,709 52,379 53,339 54,99
55,129 57,20 61,30 62,80
63,259 64,169 65,589 66,619
67,50 68,40 69,20 70,30
71,10 73,10 74,70 75,70
76,90 77,729 78,319 79,109
80,149 81,429 82,319 83,139
84,30 85,20 87,10 88,10
89,60 90,50 91,119 92,99
93,189 94,60 101,40 102,80
103,179 104,139 105,40 106,10
107,70 108,339 109,50 113,10
114,20 115,169 116,70 117,119
118,30 119,60 120,109 121,10
126,20 127,189 128,419 129,469
130,399 131,99 132,20 133,20
139,99 140,99 141,80 142,70
143,30 144,30 145,20 146,10
152,20 153,20 154,419 155,169
156,719 157,169 158,109 159,50
160,10 165,10 166,339 167,349
168,219 169,40 170,109 171,10
182,80 183,449 184,1449 185,9999
186,1339 187,99
##END=
