##TITLE=Phentermine
##JCAMP-DX=4.24
##DATA TYPE=MASS SPECTRUM
##ORIGIN=Virginia Division of Forensic Science
##OWNER=NIST Mass Spectrometry Data Center
Collection (C) 2014 copyright by the U.S. Secretary of Commerce
on behalf of the United States of America. All rights reserved.
##CAS REGISTRY NO=122-09-8
##$NIST MASS SPEC NO=250588
##MOLFORM=C10 H15 N
##MW=149
##$NIST SOURCE=MSDC
##XUNITS=M/Z
##YUNITS=RELATIVE INTENSITY
##XFACTOR=1
##YFACTOR=1
##FIRSTX=15
##LASTX=147
##FIRSTY=90
##MAXX=147
##MINX=15
##MAXY=9999
##MINY=10
##NPOINTS=77
##PEAK TABLE=(XY..XY)
15,90 17,10 18,100 26,10
27,100 28,80 29,40 30,480
32,10 37,10 38,70 39,490
40,50 41,650 42,950 43,170
44,20 50,140 51,300 52,110
53,40 54,30 55,20 56,130
58,9999 59,400 61,30 62,90
63,330 64,110 65,1040 66,90
67,50 68,10 70,10 72,10
74,40 75,50 76,40 77,180
78,70 79,40 80,10 85,10
86,10 87,20 89,260 91,1911
92,230 93,30 94,10 101,10
102,30 103,50 104,50 105,30
106,40 107,10 113,10 115,410
116,100 117,430 118,130 119,70
120,10 127,10 128,20 129,10
130,30 131,30 132,90 134,930
135,120 136,10 144,10 146,10
147,10
##END=
