##TITLE=Acetic acid, (4-chlorophenoxy)-
##JCAMP-DX=4.24
##DATA TYPE=MASS SPECTRUM
##ORIGIN=Japan AIST/NIMC Database- Spectrum MS-NW-4767
##OWNER=NIST Mass Spectrometry Data Center
Collection (C) 2014 copyright by the U.S. Secretary of Commerce
on behalf of the United States of America. All rights reserved.
##CAS REGISTRY NO=122-88-3
##$NIST MASS SPEC NO=229791
##MOLFORM=C8 H7 Cl O3
##MW=186
##$NIST SOURCE=MSDC
##XUNITS=M/Z
##YUNITS=RELATIVE INTENSITY
##XFACTOR=1
##YFACTOR=1
##FIRSTX=12
##LASTX=190
##FIRSTY=20
##MAXX=190
##MINX=12
##MAXY=9999
##MINY=10
##NPOINTS=143
##PEAK TABLE=(XY..XY)
12,20 13,20 15,60 17,90
18,409 20,20 25,20 26,99
27,119 28,299 29,369 30,90
31,549 32,20 35,20 36,129
37,279 38,569 39,679 40,40
41,40 42,269 43,189 44,499
45,359 46,30 47,70 48,20
49,149 50,1239 51,869 52,119
53,129 54,10 55,50 56,20
57,10 58,50 59,119 60,60
61,259 62,439 63,1299 64,659
65,849 66,109 67,40 68,10
69,10 70,139 71,50 72,109
73,1099 74,599 75,2939 76,779
77,1809 78,369 79,219 80,30
81,50 84,90 85,329 86,40
87,119 88,20 89,109 90,70
91,119 92,549 93,249 94,50
95,10 96,10 97,20 98,70
99,3279 100,399 101,1049 102,129
103,10 104,90 105,149 106,70
107,109 108,20 109,70 110,70
111,6739 112,689 113,3449 114,319
115,529 116,50 117,10 118,10
119,90 120,249 121,90 122,10
123,10 125,30 126,99 127,2389
128,6119 129,1149 130,2019 131,149
132,20 133,109 134,20 135,149
136,30 137,40 138,10 139,99
140,119 141,9029 142,779 143,2889
144,269 145,30 146,20 147,10
151,30 152,10 155,20 156,10
157,10 162,20 163,10 164,10
165,20 167,10 168,60 170,20
180,10 185,10 186,9999 187,909
188,3239 189,299 190,40
##END=
