##TITLE=Benzeneacetic acid, butyl ester
##JCAMP-DX=4.24
##DATA TYPE=MASS SPECTRUM
##ORIGIN=V.Zaikin,Topchiev Inst.Petrochem.Synth.,Moscow
##OWNER=NIST Mass Spectrometry Data Center
Collection (C) 2014 copyright by the U.S. Secretary of Commerce
on behalf of the United States of America. All rights reserved.
##CAS REGISTRY NO=122-43-0
##$NIST MASS SPEC NO=281798
##MOLFORM=C12 H16 O2
##MW=192
##$NIST SOURCE=MSDC
##XUNITS=M/Z
##YUNITS=RELATIVE INTENSITY
##XFACTOR=1
##YFACTOR=1
##FIRSTX=27
##LASTX=193
##FIRSTY=430
##MAXX=193
##MINX=27
##MAXY=9999
##MINY=20
##NPOINTS=70
##PEAK TABLE=(XY..XY)
27,430 28,250 29,1301 30,40
31,30 36,30 37,60 38,200
39,1171 40,160 41,2172 42,150
43,260 44,160 45,140 50,270
51,661 52,200 53,90 54,30
55,240 56,170 57,3123 58,160
60,20 61,80 62,290 63,771
64,250 65,1822 66,110 67,30
68,20 69,30 70,20 71,30
73,30 74,80 75,100 76,30
77,320 78,80 79,110 83,20
85,40 86,60 87,30 88,30
89,621 90,671 91,9999 92,2522
93,190 96,30 101,80 105,250
106,20 107,40 118,120 119,270
120,30 125,30 135,20 136,1672
137,320 139,30 149,30 164,20
192,490 193,50
##END=
