##TITLE=Diphenylamine
##JCAMP-DX=4.24
##DATA TYPE=MASS SPECTRUM
##ORIGIN=NIST Mass Spectrometry Data Center, 1990.
##OWNER=NIST Mass Spectrometry Data Center
Collection (C) 2014 copyright by the U.S. Secretary of Commerce
on behalf of the United States of America. All rights reserved.
##CAS REGISTRY NO=122-39-4
##$NIST MASS SPEC NO=113400
##MOLFORM=C12 H11 N
##MW=169
##$NIST SOURCE=MSDC
##XUNITS=M/Z
##YUNITS=RELATIVE INTENSITY
##XFACTOR=1
##YFACTOR=1
##FIRSTX=27
##LASTX=171
##FIRSTY=138
##MAXX=171
##MINX=27
##MAXY=9999
##MINY=37
##NPOINTS=66
##PEAK TABLE=(XY..XY)
27,138 28,210 32,59 37,70
38,273 39,895 40,141 41,82
50,710 51,2151 52,434 53,49
57,41 59,121 61,73 62,229
63,703 64,490 65,1106 66,932
67,68 70,159 71,266 72,297
73,44 74,263 75,233 76,330
77,1636 78,294 84,1732 87,70
88,86 89,311 90,155 91,219
92,160 93,107 101,65 102,111
103,99 104,188 113,107 114,120
115,686 116,150 117,91 126,46
127,137 128,201 129,73 130,69
139,447 140,364 141,584 142,279
143,182 152,37 153,60 154,286
166,718 167,3770 168,6825 169,9999
170,1210 171,85
##END=
