##TITLE=Borane, tributyl-
##JCAMP-DX=4.24
##DATA TYPE=MASS SPECTRUM
##ORIGIN=CCC 0036
##OWNER=NIST Mass Spectrometry Data Center
Collection (C) 2014 copyright by the U.S. Secretary of Commerce
on behalf of the United States of America. All rights reserved.
##CAS REGISTRY NO=122-56-5
##$NIST MASS SPEC NO=7587
##MOLFORM=C12 H27 B
##MW=182
##$NIST SOURCE=MSDC
##XUNITS=M/Z
##YUNITS=RELATIVE INTENSITY
##XFACTOR=1
##YFACTOR=1
##FIRSTX=2
##LASTX=183
##FIRSTY=60
##MAXX=183
##MINX=2
##MAXY=9999
##MINY=10
##NPOINTS=119
##PEAK TABLE=(XY..XY)
2,60 10,10 11,10 12,20
13,60 14,50 15,270 16,10
17,10 18,20 19,10 25,60
26,821 27,4104 28,1061 29,3003
30,70 31,10 32,10 33,10
36,80 37,350 38,440 39,2202
40,2652 41,9999 42,811 43,3553
44,120 45,20 46,10 47,10
48,10 49,40 50,170 51,310
52,410 53,1421 54,1271 55,3783
56,671 57,941 58,230 59,20
60,10 61,10 62,20 63,50
64,60 65,130 66,180 67,641
68,400 69,891 70,250 71,360
72,20 73,10 74,10 75,10
76,10 77,20 78,10 79,20
80,30 81,100 82,701 83,2722
84,320 85,741 86,50 87,10
88,10 89,10 90,10 91,10
92,10 93,10 94,10 95,60
96,80 97,110 98,130 99,520
100,50 101,30 102,10 103,10
104,10 105,10 109,10 110,10
111,10 112,30 113,30 114,100
115,10 122,10 123,20 124,1682
125,7006 126,611 137,10 138,10
139,10 140,10 141,30 142,10
143,10 144,10 152,10 153,10
154,10 155,10 167,10 168,10
181,30 182,110 183,10
##END=
