##TITLE=Decanedioic acid, bis(2-ethylhexyl) ester
##JCAMP-DX=4.24
##DATA TYPE=MASS SPECTRUM
##ORIGIN=NIST Mass Spectrometry Data Center, 1998.
##OWNER=NIST Mass Spectrometry Data Center
Collection (C) 2014 copyright by the U.S. Secretary of Commerce
on behalf of the United States of America. All rights reserved.
##CAS REGISTRY NO=122-62-3
##$NIST MASS SPEC NO=291915
##MOLFORM=C26 H50 O4
##MW=426
##$NIST SOURCE=MSDC
##XUNITS=M/Z
##YUNITS=RELATIVE INTENSITY
##XFACTOR=1
##YFACTOR=1
##FIRSTX=26
##LASTX=427
##FIRSTY=10
##MAXX=427
##MINX=26
##MAXY=9999
##MINY=10
##NPOINTS=157
##PEAK TABLE=(XY..XY)
26,10 27,140 28,20 29,430
30,10 31,20 39,180 40,40
41,1750 42,520 43,2300 44,80
45,50 51,10 52,10 53,130
54,200 55,3050 56,1300 57,5649
58,300 59,100 60,100 61,70
65,30 66,10 67,310 68,250
69,1480 70,3550 71,3490 72,220
73,190 74,40 77,20 78,10
79,120 80,70 81,330 82,430
83,1800 84,1300 85,160 86,40
87,140 88,10 91,30 92,10
93,150 94,50 95,260 96,150
97,990 98,1610 99,170 100,30
101,150 102,20 105,10 106,10
107,60 108,10 109,60 110,80
111,390 112,3170 113,1540 114,140
115,110 116,20 117,10 119,90
120,30 121,360 122,60 123,40
124,90 125,430 126,50 127,40
128,80 129,90 130,80 131,30
132,10 135,10 136,10 137,110
138,290 139,580 140,90 141,70
142,100 143,640 144,60 147,30
148,50 149,50 150,20 151,10
154,20 155,30 156,50 157,230
158,360 159,60 160,10 164,10
165,50 166,490 167,130 168,100
169,70 170,10 172,20 173,10
182,10 183,70 184,240 185,9999
186,1170 187,140 188,10 198,30
199,50 200,10 202,20 203,430
204,50 210,10 213,30 239,10
240,10 242,10 254,10 255,100
256,20 267,10 268,150 269,30
270,70 271,20 279,20 280,10
296,20 297,460 298,100 299,20
314,20 315,260 316,50 317,10
340,10 369,10 383,10 397,10
427,10
##END=
