##TITLE=2-Propanone, 1-(4-methoxyphenyl)-
##JCAMP-DX=4.24
##DATA TYPE=MASS SPECTRUM
##ORIGIN=Japan AIST/NIMC Database- Spectrum MS-NW-2754
##OWNER=NIST Mass Spectrometry Data Center
Collection (C) 2014 copyright by the U.S. Secretary of Commerce
on behalf of the United States of America. All rights reserved.
##CAS REGISTRY NO=122-84-9
##$NIST MASS SPEC NO=231536
##MOLFORM=C10 H12 O2
##MW=164
##$NIST SOURCE=MSDC
##XUNITS=M/Z
##YUNITS=RELATIVE INTENSITY
##XFACTOR=1
##YFACTOR=1
##FIRSTX=14
##LASTX=166
##FIRSTY=10
##MAXX=166
##MINX=14
##MAXY=9999
##MINY=10
##NPOINTS=69
##PEAK TABLE=(XY..XY)
14,10 15,139 26,20 27,60
28,80 29,20 37,10 38,40
39,179 40,10 41,90 42,20
43,769 44,20 45,10 50,119
51,299 52,229 53,80 55,40
57,10 60,10 61,20 62,50
63,149 64,50 65,169 66,10
67,20 69,10 71,10 74,30
75,20 76,30 77,689 78,739
79,90 80,10 83,10 86,10
89,149 90,109 91,469 92,60
93,10 103,30 104,10 105,50
106,109 107,99 108,10 115,10
116,10 117,20 118,10 119,10
120,30 121,9999 122,939 123,60
129,20 131,10 133,20 135,139
136,50 137,10 164,1179 165,129
166,10
##END=
