##TITLE=Benzenemethanol, 4-methoxy-, formate
##JCAMP-DX=4.24
##DATA TYPE=MASS SPECTRUM
##ORIGIN=RADIAN CORP
##OWNER=NIST Mass Spectrometry Data Center
Collection (C) 2014 copyright by the U.S. Secretary of Commerce
on behalf of the United States of America. All rights reserved.
##CAS REGISTRY NO=122-91-8
##$NIST MASS SPEC NO=70007
##MOLFORM=C9 H10 O3
##MW=166
##$NIST SOURCE=MSDC
##XUNITS=M/Z
##YUNITS=RELATIVE INTENSITY
##XFACTOR=1
##YFACTOR=1
##FIRSTX=51
##LASTX=168
##FIRSTY=70
##MAXX=168
##MINX=51
##MAXY=9999
##MINY=10
##NPOINTS=26
##PEAK TABLE=(XY..XY)
51,70 52,120 61,10 66,110
67,30 77,560 78,830 79,130
89,390 90,200 91,810 94,350
105,160 106,230 109,310 119,180
120,1350 121,9999 122,980 123,50
138,170 156,100 158,20 166,3140
167,320 168,20
##END=
