##TITLE=Benzenepropanol, propanoate
##JCAMP-DX=4.24
##DATA TYPE=MASS SPECTRUM
##ORIGIN=W.Jennings, T.Shibamoto
##OWNER=NIST Mass Spectrometry Data Center
Collection (C) 2014 copyright by the U.S. Secretary of Commerce
on behalf of the United States of America. All rights reserved.
##CAS REGISTRY NO=122-74-7
##$NIST MASS SPEC NO=285499
##MOLFORM=C12 H16 O2
##MW=192
##$NIST SOURCE=MSDC
##XUNITS=M/Z
##YUNITS=RELATIVE INTENSITY
##XFACTOR=1
##YFACTOR=1
##FIRSTX=27
##LASTX=139
##FIRSTY=280
##MAXX=139
##MINX=27
##MAXY=9999
##MINY=70
##NPOINTS=28
##PEAK TABLE=(XY..XY)
27,280 28,190 29,5935 30,70
31,190 39,70 41,591 43,70
57,7597 58,190 65,591 70,70
77,70 78,711 79,70 90,190
91,6326 92,991 103,480 104,190
105,390 113,190 115,480 116,4194
117,8998 118,9999 119,1992 139,70
##END=
