##TITLE=Propanoic acid, phenylmethyl ester
##JCAMP-DX=4.24
##DATA TYPE=MASS SPECTRUM
##OWNER=NIST Mass Spectrometry Data Center
Collection (C) 2014 copyright by the U.S. Secretary of Commerce
on behalf of the United States of America. All rights reserved.
##CAS REGISTRY NO=122-63-4
##$NIST MASS SPEC NO=21887
##MOLFORM=C10 H12 O2
##MW=164
##$NIST SOURCE=MSDC
##XUNITS=M/Z
##YUNITS=RELATIVE INTENSITY
##XFACTOR=1
##YFACTOR=1
##FIRSTX=14
##LASTX=166
##FIRSTY=170
##MAXX=166
##MINX=14
##MAXY=9999
##MINY=10
##NPOINTS=75
##PEAK TABLE=(XY..XY)
14,170 15,210 16,30 17,10
25,40 26,530 27,2202 28,641
29,4284 30,120 31,90 37,80
38,260 39,1521 40,120 41,360
42,80 43,100 44,40 45,60
46,20 49,40 50,581 51,1521
52,390 53,170 54,20 55,120
56,120 57,4624 58,190 59,40
60,10 61,60 62,200 63,671
64,230 65,1782 66,110 67,10
68,10 69,10 71,30 73,20
74,110 75,110 76,120 77,1471
78,370 79,1591 80,140 81,20
83,10 85,20 86,30 87,30
89,821 90,2742 91,9999 92,761
100,20 103,220 104,40 105,360
106,150 107,1141 108,8338 115,10
117,10 119,20 133,10 135,10
164,2342 165,257 166,12
##END=
