##TITLE=Cinnamyl cinnamate
##JCAMP-DX=4.24
##DATA TYPE=MASS SPECTRUM
##ORIGIN=NIST Mass Spectrometry Data Center
##OWNER=NIST Mass Spectrometry Data Center
Collection (C) 2014 copyright by the U.S. Secretary of Commerce
on behalf of the United States of America. All rights reserved.
##CAS REGISTRY NO=122-69-0
##$NIST MASS SPEC NO=413875
##MOLFORM=C18 H16 O2
##MW=264
##$NIST SOURCE=MSDC
##XUNITS=M/Z
##YUNITS=RELATIVE INTENSITY
##XFACTOR=1
##YFACTOR=1
##FIRSTX=27
##LASTX=266
##FIRSTY=20
##MAXX=266
##MINX=27
##MAXY=9999
##MINY=10
##NPOINTS=98
##PEAK TABLE=(XY..XY)
27,20 38,10 39,170 40,10
44,10 50,140 51,510 52,100
53,40 55,50 61,10 62,50
63,210 64,40 65,200 66,20
73,10 74,90 75,130 76,210
77,1742 78,290 79,90 86,10
87,20 88,10 89,160 90,30
91,1071 92,130 97,10 98,10
101,60 102,591 103,2632 104,490
105,140 106,10 113,20 114,30
115,3653 116,1111 117,3353 118,370
120,10 127,20 128,50 129,260
130,50 131,9999 132,1091 133,340
134,30 141,100 142,80 144,10
147,60 148,10 155,20 157,10
158,10 160,40 168,10 172,30
173,200 174,20 178,40 179,40
180,30 181,10 186,100 190,10
191,50 192,120 193,20 202,30
203,60 204,110 205,80 206,10
207,10 216,10 217,70 218,240
219,1551 220,300 221,30 231,20
235,200 236,70 237,10 245,10
246,20 247,10 249,10 264,400
265,80 266,10
##END=
