##TITLE=Benzene, 1,4-diethoxy-
##JCAMP-DX=4.24
##DATA TYPE=MASS SPECTRUM
##ORIGIN=Japan AIST/NIMC Database- Spectrum MS-NW-1864
##OWNER=NIST Mass Spectrometry Data Center
Collection (C) 2014 copyright by the U.S. Secretary of Commerce
on behalf of the United States of America. All rights reserved.
##CAS REGISTRY NO=122-95-2
##$NIST MASS SPEC NO=228973
##MOLFORM=C10 H14 O2
##MW=166
##$NIST SOURCE=MSDC
##XUNITS=M/Z
##YUNITS=RELATIVE INTENSITY
##XFACTOR=1
##YFACTOR=1
##FIRSTX=14
##LASTX=168
##FIRSTY=10
##MAXX=168
##MINX=14
##MAXY=9999
##MINY=10
##NPOINTS=70
##PEAK TABLE=(XY..XY)
14,10 15,70 25,10 26,489
27,1969 28,189 29,2259 30,50
31,10 37,30 38,229 39,799
40,50 41,60 42,30 43,129
45,10 50,219 51,289 52,319
53,969 54,549 55,369 56,20
61,30 62,149 63,629 64,649
65,779 66,149 67,30 68,20
69,30 74,50 75,40 76,50
77,209 78,50 79,99 80,80
81,2449 82,599 83,40 91,109
92,90 93,50 94,90 95,90
96,10 107,50 108,60 109,5869
110,9999 111,679 112,60 119,20
121,80 122,20 123,20 135,10
136,20 137,789 138,1599 139,149
140,10 151,30 165,30 166,4839
167,549 168,50
##END=
