##TITLE=3-Phenylpropanol
##JCAMP-DX=4.24
##DATA TYPE=MASS SPECTRUM
##OWNER=NIST Mass Spectrometry Data Center
Collection (C) 2014 copyright by the U.S. Secretary of Commerce
on behalf of the United States of America. All rights reserved.
##CAS REGISTRY NO=122-97-4
##$NIST MASS SPEC NO=3357
##MOLFORM=C9 H12 O
##MW=136
##$NIST SOURCE=MSDC
##XUNITS=M/Z
##YUNITS=RELATIVE INTENSITY
##XFACTOR=1
##YFACTOR=1
##FIRSTX=15
##LASTX=137
##FIRSTY=70
##MAXX=137
##MINX=15
##MAXY=9999
##MINY=60
##NPOINTS=50
##PEAK TABLE=(XY..XY)
15,70 26,90 27,671 28,170
29,280 31,641 38,140 39,1261
40,120 41,300 43,130 45,150
50,460 51,1441 52,330 53,210
55,60 57,170 58,150 62,160
63,550 64,150 65,1822 66,150
74,130 75,160 76,150 77,1882
78,1321 79,1321 80,100 89,380
90,390 91,9999 92,5925 93,440
102,200 103,1191 104,420 105,1762
106,180 107,110 115,470 116,1131
117,7557 118,6606 119,631 134,170
136,3023 137,300
##END=
