##TITLE=Benzeneacetic acid, octyl ester
##JCAMP-DX=4.24
##DATA TYPE=MASS SPECTRUM
##ORIGIN=V.Zaikin,Topchiev Inst.Petrochem.Synth.,Moscow
##OWNER=NIST Mass Spectrometry Data Center
Collection (C) 2014 copyright by the U.S. Secretary of Commerce
on behalf of the United States of America. All rights reserved.
##CAS REGISTRY NO=122-45-2
##$NIST MASS SPEC NO=281802
##MOLFORM=C16 H24 O2
##MW=248
##$NIST SOURCE=MSDC
##XUNITS=M/Z
##YUNITS=RELATIVE INTENSITY
##XFACTOR=1
##YFACTOR=1
##FIRSTX=27
##LASTX=248
##FIRSTY=360
##MAXX=248
##MINX=27
##MAXY=9999
##MINY=20
##NPOINTS=78
##PEAK TABLE=(XY..XY)
27,360 28,230 29,881 31,30
36,20 37,70 38,110 39,1241
40,270 41,2903 42,631 43,3593
44,180 45,70 49,20 50,230
51,420 52,80 53,320 54,110
55,1361 56,450 57,3743 58,150
59,30 61,40 62,150 63,621
64,210 65,1702 66,150 67,70
68,100 69,581 70,440 71,2322
72,130 73,30 74,40 75,50
76,50 77,120 78,60 79,50
80,20 81,30 82,50 83,280
84,230 85,70 88,40 89,621
90,581 91,9999 92,1902 93,110
95,20 96,30 97,100 98,20
104,40 105,50 107,30 111,30
112,270 113,20 115,20 118,190
119,320 120,20 129,30 136,2332
137,1001 138,90 157,781 158,70
192,20 248,100
##END=
