##TITLE=Phenol, 4-butoxy-
##JCAMP-DX=4.24
##DATA TYPE=MASS SPECTRUM
##ORIGIN=Japan AIST/NIMC Database- Spectrum MS-NW-4300
##OWNER=NIST Mass Spectrometry Data Center
Collection (C) 2014 copyright by the U.S. Secretary of Commerce
on behalf of the United States of America. All rights reserved.
##CAS REGISTRY NO=122-94-1
##$NIST MASS SPEC NO=232315
##MOLFORM=C10 H14 O2
##MW=166
##$NIST SOURCE=MSDC
##XUNITS=M/Z
##YUNITS=RELATIVE INTENSITY
##XFACTOR=1
##YFACTOR=1
##FIRSTX=15
##LASTX=168
##FIRSTY=20
##MAXX=168
##MINX=15
##MAXY=9999
##MINY=10
##NPOINTS=56
##PEAK TABLE=(XY..XY)
15,20 18,10 26,90 27,519
28,90 29,1019 30,20 31,10
37,10 38,40 39,489 40,30
41,669 42,30 43,20 50,40
51,80 52,70 53,289 54,139
55,209 56,30 57,289 58,10
61,10 62,30 63,80 64,60
65,269 66,30 67,20 69,20
74,10 77,20 79,10 80,10
81,529 82,309 83,20 92,10
93,139 94,30 95,40 107,20
108,10 109,329 110,9999 111,669
112,60 123,169 124,30 136,10
137,10 166,1559 167,179 168,10
##END=
