##TITLE=Acetamide, N-(4-formylphenyl)-
##JCAMP-DX=4.24
##DATA TYPE=MASS SPECTRUM
##ORIGIN=Japan AIST/NIMC Database- Spectrum MS-NW-3906
##OWNER=NIST Mass Spectrometry Data Center
Collection (C) 2014 copyright by the U.S. Secretary of Commerce
on behalf of the United States of America. All rights reserved.
##CAS REGISTRY NO=122-85-0
##$NIST MASS SPEC NO=231956
##MOLFORM=C9 H9 N O2
##MW=163
##$NIST SOURCE=MSDC
##XUNITS=M/Z
##YUNITS=RELATIVE INTENSITY
##XFACTOR=1
##YFACTOR=1
##FIRSTX=13
##LASTX=166
##FIRSTY=10
##MAXX=166
##MINX=13
##MAXY=9999
##MINY=10
##NPOINTS=78
##PEAK TABLE=(XY..XY)
13,10 14,60 15,499 17,10
18,40 26,40 27,80 28,20
29,129 30,10 32,10 37,129
38,289 39,829 40,109 41,139
42,149 43,5279 44,129 45,20
49,30 50,249 51,389 52,179
53,40 54,40 55,10 60,10
61,80 62,189 63,519 64,419
65,1709 66,339 67,30 73,20
74,109 75,80 76,90 77,239
78,60 79,30 86,10 87,10
88,20 89,20 90,159 91,259
92,1559 93,439 94,90 102,10
103,10 104,40 105,70 106,60
107,30 118,40 119,80 120,9999
121,7829 122,639 123,40 132,10
133,10 134,80 135,10 144,10
145,10 146,80 147,10 148,50
149,20 162,20 163,5979 164,629
165,60 166,10
##END=
