##TITLE=Hydrazine, 1,2-diphenyl-
##JCAMP-DX=4.24
##DATA TYPE=MASS SPECTRUM
##ORIGIN=NIST Mass Spectrometry Data Center, 1994
##OWNER=NIST Mass Spectrometry Data Center
Collection (C) 2014 copyright by the U.S. Secretary of Commerce
on behalf of the United States of America. All rights reserved.
##CAS REGISTRY NO=122-66-7
##$NIST MASS SPEC NO=133906
##MOLFORM=C12 H12 N2
##MW=184
##$NIST SOURCE=MSDC
##XUNITS=M/Z
##YUNITS=RELATIVE INTENSITY
##XFACTOR=1
##YFACTOR=1
##FIRSTX=14
##LASTX=186
##FIRSTY=38
##MAXX=186
##MINX=14
##MAXY=9999
##MINY=27
##NPOINTS=88
##PEAK TABLE=(XY..XY)
14,38 15,32 17,27 18,44
26,138 27,442 28,89 29,50
30,39 37,232 38,758 39,3182
40,445 41,322 42,98 46,65
47,146 50,841 51,2849 52,733
53,269 54,238 61,126 62,285
63,1085 64,1101 65,6835 66,1862
67,181 73,44 74,191 75,204
76,44 77,6881 78,799 79,242
80,1156 81,3204 82,203 84,244
88,47 89,59 90,171 91,1214
92,6918 93,3980 94,239 102,71
104,815 105,866 106,211 107,466
115,127 116,53 117,175 118,163
119,230 127,119 128,183 129,204
130,299 131,52 132,42 139,90
140,76 141,34 142,51 143,83
144,45 151,96 152,347 153,196
154,176 155,85 156,753 157,874
158,176 166,318 167,309 168,285
169,1175 170,154 181,299 182,1694
183,3054 184,9999 185,1368 186,90
##END=
