##TITLE=Ethanamine, 2,2-dimethoxy-N-methyl-
##JCAMP-DX=4.24
##DATA TYPE=MASS SPECTRUM
##ORIGIN=Japan AIST/NIMC Database- Spectrum MS-NW-8523
##OWNER=NIST Mass Spectrometry Data Center
Collection (C) 2014 copyright by the U.S. Secretary of Commerce
on behalf of the United States of America. All rights reserved.
##CAS REGISTRY NO=122-07-6
##$NIST MASS SPEC NO=235381
##MOLFORM=C5 H13 N O2
##MW=119
##$NIST SOURCE=MSDC
##XUNITS=M/Z
##YUNITS=RELATIVE INTENSITY
##XFACTOR=1
##YFACTOR=1
##FIRSTX=13
##LASTX=120
##FIRSTY=10
##MAXX=120
##MINX=13
##MAXY=9999
##MINY=10
##NPOINTS=51
##PEAK TABLE=(XY..XY)
13,10 14,60 15,1189 16,20
26,50 27,289 28,2579 29,949
30,589 31,1259 32,99 33,50
38,10 39,20 40,80 41,229
42,1229 43,709 44,9999 45,1399
46,30 47,2469 48,60 52,10
54,70 55,40 56,2249 57,539
58,1609 59,459 60,20 61,10
70,60 71,30 72,369 73,179
74,30 75,9769 76,339 77,40
85,10 86,149 87,70 88,2889
89,869 90,40 102,10 104,20
118,10 119,189 120,40
##END=
