##TITLE=Benzyl isopentyl ether
##JCAMP-DX=4.24
##DATA TYPE=MASS SPECTRUM
##ORIGIN=NIST Mass Spectrometry Data Center, 1992
##OWNER=NIST Mass Spectrometry Data Center
Collection (C) 2014 copyright by the U.S. Secretary of Commerce
on behalf of the United States of America. All rights reserved.
##CAS REGISTRY NO=122-73-6
##$NIST MASS SPEC NO=125081
##MOLFORM=C12 H18 O
##MW=178
##$NIST SOURCE=MSDC
##XUNITS=M/Z
##YUNITS=RELATIVE INTENSITY
##XFACTOR=1
##YFACTOR=1
##FIRSTX=12
##LASTX=179
##FIRSTY=3
##MAXX=179
##MINX=12
##MAXY=9999
##MINY=2
##NPOINTS=84
##PEAK TABLE=(XY..XY)
12,3 14,9 15,42 16,2
17,17 18,69 25,6 26,70
27,676 28,236 29,826 30,37
31,50 37,15 38,68 39,769
40,115 41,938 42,156 43,665
44,45 45,29 50,141 51,403
52,121 53,75 54,16 55,119
56,26 57,99 58,10 61,7
62,59 63,244 64,124 65,1337
66,85 67,20 68,7 69,873
70,53 71,53 72,5 74,30
75,21 77,590 78,252 79,804
80,84 81,5 85,21 86,19
87,117 88,5 89,337 90,5
91,9999 92,6529 93,431 94,14
104,105 105,256 106,70 107,684
108,613 109,41 110,5 115,3
117,23 118,29 119,51 120,9
121,17 131,27 132,24 133,18
145,14 147,7 148,3 149,3
160,9 177,19 178,42 179,6
##END=
