##TITLE=2-Butanone, 4-(4-hydroxy-3-methoxyphenyl)-
##JCAMP-DX=4.24
##DATA TYPE=MASS SPECTRUM
##ORIGIN=W. KELLY UNILEVER RESEARCH COLWORTH/WELWYN, BEDFORD U.K.
##OWNER=NIST Mass Spectrometry Data Center
Collection (C) 2014 copyright by the U.S. Secretary of Commerce
on behalf of the United States of America. All rights reserved.
##CAS REGISTRY NO=122-48-5
##$NIST MASS SPEC NO=8502
##MOLFORM=C11 H14 O3
##MW=194
##$NIST SOURCE=MSDC
##XUNITS=M/Z
##YUNITS=RELATIVE INTENSITY
##XFACTOR=1
##YFACTOR=1
##FIRSTX=39
##LASTX=195
##FIRSTY=550
##MAXX=195
##MINX=39
##MAXY=9999
##MINY=40
##NPOINTS=47
##PEAK TABLE=(XY..XY)
39,550 41,150 42,60 43,3100
50,110 51,510 52,310 53,300
55,330 63,200 64,70 65,500
66,200 77,670 78,190 79,350
80,110 81,100 90,40 91,1300
92,120 93,40 94,420 105,220
106,100 107,390 108,120 109,160
119,1500 120,210 122,650 123,100
124,610 133,120 135,250 136,200
137,9999 138,1000 147,100 150,100
151,1600 152,150 161,80 163,50
179,240 194,4600 195,430
##END=
