##TITLE=Benzene, 1,1'-[ethylidenebis(oxy-2,1-ethanediyl)]bis-
##JCAMP-DX=4.24
##DATA TYPE=MASS SPECTRUM
##ORIGIN=NIST Mass Spectrometry Data Center, 1990.
##OWNER=NIST Mass Spectrometry Data Center
Collection (C) 2014 copyright by the U.S. Secretary of Commerce
on behalf of the United States of America. All rights reserved.
##CAS REGISTRY NO=122-71-4
##$NIST MASS SPEC NO=118264
##MOLFORM=C18 H22 O2
##MW=270
##$NIST SOURCE=MSDC
##XUNITS=M/Z
##YUNITS=RELATIVE INTENSITY
##XFACTOR=1
##YFACTOR=1
##FIRSTX=14
##LASTX=226
##FIRSTY=1
##MAXX=226
##MINX=14
##MAXY=9999
##MINY=1
##NPOINTS=76
##PEAK TABLE=(XY..XY)
14,1 15,107 17,13 18,24
19,9 25,13 26,78 27,471
29,227 30,28 31,263 37,36
38,124 39,714 40,61 41,143
42,54 43,233 44,41 45,48
50,299 51,783 52,160 53,89
54,13 55,8 57,59 58,222
59,16 60,9 61,33 62,113
63,337 64,125 65,1067 66,65
73,20 74,73 75,79 76,131
77,1373 78,637 79,1484 80,100
85,12 86,17 87,23 89,164
91,3205 92,1373 93,93 94,7
100,8 102,140 103,1005 104,2739
105,9999 106,939 107,46 115,15
117,13 119,26 120,66 121,59
122,478 123,41 133,11 149,843
150,100 151,11 164,18 165,104
166,16 179,12 192,21 226,12
##END=
