##TITLE=2-Fluoro-4-(trifluoromethyl)acetophenone
##JCAMP-DX=4.24
##DATA TYPE=MASS SPECTRUM
##ORIGIN=NIST Mass Spectrometry Data Center, 1994
##OWNER=NIST Mass Spectrometry Data Center
Collection (C) 2014 copyright by the U.S. Secretary of Commerce
on behalf of the United States of America. All rights reserved.
##CAS REGISTRY NO=122023-29-4
##$NIST MASS SPEC NO=136973
##MOLFORM=C9 H6 F4 O
##MW=206
##$NIST SOURCE=MSDC
##XUNITS=M/Z
##YUNITS=RELATIVE INTENSITY
##XFACTOR=1
##YFACTOR=1
##FIRSTX=12
##LASTX=208
##FIRSTY=20
##MAXX=208
##MINX=12
##MAXY=9999
##MINY=4
##NPOINTS=108
##PEAK TABLE=(XY..XY)
12,20 13,35 14,192 15,1064
16,11 18,29 20,24 26,26
27,59 29,60 31,268 33,27
37,86 38,109 39,105 41,37
42,499 43,3812 44,106 45,28
49,60 50,474 51,255 52,16
53,27 55,17 56,87 57,284
60,13 61,149 62,317 63,486
64,36 68,349 69,706 70,37
71,20 72,44 73,69 74,415
75,760 76,50 77,34 79,27
80,90 81,195 82,31 83,33
85,59 86,101 87,99 88,51
89,28 92,116 93,380 94,460
95,116 98,42 99,205 100,36
101,91 103,20 104,35 105,59
106,37 107,180 108,49 109,93
111,24 112,139 113,742 114,100
117,57 118,43 119,50 122,41
123,64 125,218 126,57 127,235
128,18 132,36 137,82 138,39
141,33 143,802 144,404 145,107
156,21 158,29 159,161 160,23
161,40 162,21 163,3818 164,303
169,42 172,35 176,15 177,63
187,520 188,67 191,9999 192,843
193,58 206,1038 207,105 208,4
##END=
