##TITLE=Benzene, 1-dimethylamino-4-(2-cyano-2-phenylethenyl)
##JCAMP-DX=4.24
##DATA TYPE=MASS SPECTRUM
##ORIGIN=USAF ACADEMY, COLORADO SPRINGS, COLORADO 80840, J LLOYD PFLUG
##OWNER=NIST Mass Spectrometry Data Center
Collection (C) 2014 copyright by the U.S. Secretary of Commerce
on behalf of the United States of America. All rights reserved.
##CAS REGISTRY NO=1222-61-3
##$NIST MASS SPEC NO=79959
##MOLFORM=C17 H16 N2
##MW=248
##$NIST SOURCE=MSDC
##XUNITS=M/Z
##YUNITS=RELATIVE INTENSITY
##XFACTOR=1
##YFACTOR=1
##FIRSTX=15
##LASTX=250
##FIRSTY=94
##MAXX=250
##MINX=15
##MAXY=9999
##MINY=31
##NPOINTS=108
##PEAK TABLE=(XY..XY)
15,94 27,69 30,34 38,34
39,186 40,34 41,56 42,378
43,40 50,126 51,293 52,85
62,91 63,198 64,78 65,82
66,47 68,34 74,88 75,208
76,261 77,356 78,164 81,44
83,82 86,44 87,151 88,615
89,312 90,78 91,78 92,31
94,53 95,88 98,47 99,53
100,66 102,583 104,63 105,31
109,104 111,388 113,72 114,91
115,347 116,227 118,56 119,47
120,82 123,612 124,473 126,138
127,107 128,72 129,44 130,40
137,44 138,34 139,85 140,116
145,31 149,47 150,120 151,280
152,157 153,107 154,37 155,34
163,113 164,141 165,186 166,75
169,69 174,47 175,113 176,514
177,492 178,539 179,138 180,31
188,47 189,75 190,340 191,113
192,50 201,138 202,211 203,893
204,1224 205,284 206,88 215,40
216,60 217,82 218,66 219,31
220,40 229,88 230,104 231,284
232,498 233,157 245,135 246,60
247,5531 248,9999 249,1805 250,164
##END=
