##TITLE=Cyclopropanecarboxamide, N-2-methylpropyl
##JCAMP-DX=4.24
##DATA TYPE=MASS SPECTRUM
##ORIGIN=V.G. Zaikin, TIPS RAS, Moscow, Russia
##OWNER=NIST Mass Spectrometry Data Center
Collection (C) 2014 copyright by the U.S. Secretary of Commerce
on behalf of the United States of America. All rights reserved.
##CAS REGISTRY NO=122348-69-0
##$NIST MASS SPEC NO=278654
##MOLFORM=C8 H15 N O
##MW=141
##$NIST SOURCE=MSDC
##XUNITS=M/Z
##YUNITS=RELATIVE INTENSITY
##XFACTOR=1
##YFACTOR=1
##FIRSTX=26
##LASTX=142
##FIRSTY=240
##MAXX=142
##MINX=26
##MAXY=9999
##MINY=40
##NPOINTS=53
##PEAK TABLE=(XY..XY)
26,240 27,1451 28,1451 29,961
30,841 31,70 36,70 37,150
38,390 39,4094 40,671 41,6686
42,731 43,951 44,480 45,50
50,50 51,70 52,90 53,70
54,210 55,621 56,561 57,791
58,440 59,70 67,80 68,480
69,9999 70,520 71,80 72,210
73,50 80,40 81,40 82,60
83,60 84,250 85,60 86,951
87,50 96,80 97,60 98,2752
99,390 100,60 124,40 125,40
126,721 127,40 140,50 141,741
142,90
##END=
