##TITLE=di(p-Nitrophenyl) sulfide
##JCAMP-DX=4.24
##DATA TYPE=MASS SPECTRUM
##ORIGIN=Japan AIST/NIMC Database- Spectrum MS-NW-2428
##OWNER=NIST Mass Spectrometry Data Center
Collection (C) 2014 copyright by the U.S. Secretary of Commerce
on behalf of the United States of America. All rights reserved.
##CAS REGISTRY NO=1223-31-0
##$NIST MASS SPEC NO=230969
##MOLFORM=C12 H8 N2 O4 S
##MW=276
##$NIST SOURCE=MSDC
##XUNITS=M/Z
##YUNITS=RELATIVE INTENSITY
##XFACTOR=1
##YFACTOR=1
##FIRSTX=14
##LASTX=280
##FIRSTY=10
##MAXX=280
##MINX=14
##MAXY=9999
##MINY=10
##NPOINTS=186
##PEAK TABLE=(XY..XY)
14,10 16,10 17,139 18,719
26,30 27,70 28,559 29,10
30,899 32,109 34,10 37,60
38,199 39,389 40,20 41,10
43,10 44,90 45,569 46,80
47,30 48,20 49,30 50,1339
51,369 52,70 53,30 55,10
57,99 58,399 59,30 60,20
61,70 62,269 63,1139 64,329
65,109 66,20 67,10 69,1589
70,269 71,90 72,10 73,40
74,439 75,549 76,979 77,189
78,40 79,229 80,30 81,119
82,729 83,70 84,50 85,30
86,40 87,70 88,60 89,269
90,159 91,80 92,129 93,109
94,30 95,129 96,269 97,40
98,70 99,30 100,20 101,50
102,129 103,30 104,10 105,30
106,60 107,109 108,949 109,109
110,60 111,10 112,20 113,139
114,199 115,319 116,50 117,10
119,20 120,50 121,70 122,40
123,20 124,139 125,50 126,99
127,169 128,159 129,20 130,10
132,40 133,40 134,219 135,30
136,20 137,50 138,179 139,3469
140,679 141,70 144,10 145,139
146,109 147,40 148,10 149,20
150,159 151,349 152,1499 153,189
154,20 155,20 156,20 157,60
158,359 159,99 160,169 161,30
162,20 163,10 167,20 168,10
169,50 170,70 171,1859 172,1009
173,199 174,50 175,10 179,10
181,10 182,309 183,2809 184,6609
185,1049 186,359 187,70 188,30
189,10 196,20 197,40 198,20
199,99 200,1359 201,229 202,90
203,20 212,10 213,90 214,30
215,10 216,20 218,20 219,10
220,10 221,10 228,10 229,60
230,529 231,80 232,30 244,10
245,10 246,3149 247,459 248,189
249,20 260,279 261,40 262,20
275,10 276,9999 277,1489 278,619
279,70 280,10
##END=
