##TITLE=Benzenamine, 4,4'-methylenebis[2-methoxy-
##JCAMP-DX=4.24
##DATA TYPE=MASS SPECTRUM
##ORIGIN=A.A.Kutin, Moscow, Russia
##OWNER=NIST Mass Spectrometry Data Center
Collection (C) 2014 copyright by the U.S. Secretary of Commerce
on behalf of the United States of America. All rights reserved.
##CAS REGISTRY NO=1223-20-7
##$NIST MASS SPEC NO=294115
##MOLFORM=C15 H18 N2 O2
##MW=258
##$NIST SOURCE=MSDC
##XUNITS=M/Z
##YUNITS=RELATIVE INTENSITY
##XFACTOR=1
##YFACTOR=1
##FIRSTX=33
##LASTX=261
##FIRSTY=256
##MAXX=261
##MINX=33
##MAXY=9999
##MINY=3
##NPOINTS=193
##PEAK TABLE=(XY..XY)
33,256 34,167 35,47 36,209
38,641 39,3055 40,2882 41,2139
42,1507 43,574 44,837 45,110
46,46 48,47 50,1084 51,3343
52,4324 53,2062 54,1839 55,642
56,178 57,278 58,304 59,211
60,123 61,100 62,466 63,1422
64,962 65,2720 66,2444 67,747
68,230 69,189 70,293 71,1072
73,425 74,233 75,479 76,728
77,2712 78,2429 79,1569 80,1058
81,169 83,853 85,884 86,4530
89,547 90,626 91,2497 92,1780
93,3725 94,399 95,100 96,66
98,521 100,2318 102,493 103,419
104,1244 105,494 106,1166 107,668
108,827 109,228 110,54 111,62
113,953 114,1231 115,940 116,474
117,679 118,347 119,188 120,266
121,2286 122,609 123,912 124,184
125,54 126,163 127,762 128,674
129,1179 130,911 131,257 132,115
133,106 134,411 136,3296 137,245
139,434 140,362 141,253 142,230
143,469 144,453 145,221 146,157
147,52 149,199 150,155 151,182
152,151 153,245 154,1199 155,561
156,603 157,230 158,119 159,139
160,77 161,33 162,20 163,3
164,75 166,611 167,870 168,549
169,402 170,228 171,448 172,283
173,119 174,211 176,266 177,42
178,32 179,57 180,136 181,316
182,783 183,1497 184,868 185,281
186,79 187,40 188,64 189,10
191,3 192,30 193,126 194,165
195,607 196,357 197,270 198,652
199,874 200,634 201,109 202,22
206,4 207,9 208,59 209,71
210,356 211,1816 212,991 213,217
214,112 215,387 216,64 217,10
218,17 221,4 222,10 223,38
224,58 225,389 226,1977 227,4371
228,771 229,118 230,36 231,5
233,4 239,30 240,39 241,151
242,946 243,1895 244,261 245,31
252,3 253,39 255,102 256,147
257,1824 258,9999 259,1722 260,152
261,8
##END=
