##TITLE=Cyclopropanecarboxamide, N-n-hexyl
##JCAMP-DX=4.24
##DATA TYPE=MASS SPECTRUM
##ORIGIN=Vladimir Zaikin, TIPS RAS, Moscow, Russia
##OWNER=NIST Mass Spectrometry Data Center
Collection (C) 2014 copyright by the U.S. Secretary of Commerce
on behalf of the United States of America. All rights reserved.
##CAS REGISTRY NO=122348-70-3
##$NIST MASS SPEC NO=245335
##MOLFORM=C10 H19 N O
##MW=169
##$NIST SOURCE=MSDC
##XUNITS=M/Z
##YUNITS=RELATIVE INTENSITY
##XFACTOR=1
##YFACTOR=1
##FIRSTX=30
##LASTX=170
##FIRSTY=1481
##MAXX=170
##MINX=30
##MAXY=9999
##MINY=20
##NPOINTS=59
##PEAK TABLE=(XY..XY)
30,1481 31,90 35,50 36,90
37,480 38,990 39,7486 40,1281
41,9999 42,1551 43,2302 44,710
45,200 50,90 51,180 52,100
53,300 54,280 55,1080 56,650
57,300 58,250 59,100 60,20
63,50 65,50 66,50 67,110
68,650 69,8517 70,600 71,100
72,110 80,50 81,30 82,100
83,100 84,600 85,200 86,420
96,80 97,110 98,2802 99,2302
100,300 101,50 112,950 113,290
124,50 125,30 126,1401 127,170
128,70 140,700 141,80 154,150
168,80 169,450 170,280
##END=
