##TITLE=Ferrocene, 1,2-dichloro-
##JCAMP-DX=4.24
##DATA TYPE=MASS SPECTRUM
##OWNER=NIST Mass Spectrometry Data Center
Collection (C) 2014 copyright by the U.S. Secretary of Commerce
on behalf of the United States of America. All rights reserved.
##CAS REGISTRY NO=12287-95-5
##$NIST MASS SPEC NO=12391
##MOLFORM=C10 H8 Cl2 Fe
##MW=254
##$NIST SOURCE=MSDC
##XUNITS=M/Z
##YUNITS=RELATIVE INTENSITY
##XFACTOR=1
##YFACTOR=1
##FIRSTX=39
##LASTX=259
##FIRSTY=701
##MAXX=259
##MINX=39
##MAXY=9999
##MINY=100
##NPOINTS=33
##PEAK TABLE=(XY..XY)
39,701 45,1001 62,400 63,1101
65,400 75,200 77,200 78,200
81,300 90,801 91,400 92,200
94,200 101,300 102,1001 121,701
126,601 127,2102 128,7807 129,801
133,300 135,300 182,1401 189,100
191,100 218,200 252,601 254,9999
255,1201 256,6206 257,801 258,1001
259,100
##END=
