##TITLE=7-Tetradecanol, TMS derivative
##JCAMP-DX=4.24
##DATA TYPE=MASS SPECTRUM
##ORIGIN=V.G.Zaikin, TIPS, Russian Acad. Sci.
##OWNER=NIST Mass Spectrometry Data Center
Collection (C) 2014 copyright by the U.S. Secretary of Commerce
on behalf of the United States of America. All rights reserved.
##CAS REGISTRY NO=122825-88-1
##$NIST MASS SPEC NO=215157
##MOLFORM=C17 H38 O Si
##MW=286
##$NIST SOURCE=MSDC
##XUNITS=M/Z
##YUNITS=RELATIVE INTENSITY
##XFACTOR=1
##YFACTOR=1
##FIRSTX=57
##LASTX=273
##FIRSTY=1601
##MAXX=273
##MINX=57
##MAXY=9999
##MINY=50
##NPOINTS=24
##PEAK TABLE=(XY..XY)
57,1601 59,1000 61,1101 73,8507
74,1000 75,7106 76,600 83,2602
97,1601 101,1101 103,2802 113,500
117,800 129,1000 145,1201 187,9999
188,1000 189,600 201,8407 202,900
203,600 271,800 272,190 273,50
##END=
