##TITLE=Nonanoic acid, ethyl ester
##JCAMP-DX=4.24
##DATA TYPE=MASS SPECTRUM
##ORIGIN=Japan AIST/NIMC Database- Spectrum MS-NW- 513
##OWNER=NIST Mass Spectrometry Data Center
Collection (C) 2014 copyright by the U.S. Secretary of Commerce
on behalf of the United States of America. All rights reserved.
##CAS REGISTRY NO=123-29-5
##$NIST MASS SPEC NO=229119
##MOLFORM=C11 H22 O2
##MW=186
##$NIST SOURCE=MSDC
##XUNITS=M/Z
##YUNITS=RELATIVE INTENSITY
##XFACTOR=1
##YFACTOR=1
##FIRSTX=15
##LASTX=187
##FIRSTY=40
##MAXX=187
##MINX=15
##MAXY=9999
##MINY=10
##NPOINTS=89
##PEAK TABLE=(XY..XY)
15,40 17,40 18,219 26,70
27,799 28,269 29,1979 30,50
31,60 32,20 39,489 40,99
41,2029 42,529 43,1859 44,319
45,789 46,30 47,20 51,20
52,20 53,139 54,119 55,1449
56,409 57,1609 58,80 59,119
60,2109 61,1699 62,50 65,20
66,10 67,199 68,189 69,779
70,1399 71,979 72,70 73,1869
74,269 75,60 77,20 79,40
81,199 82,40 83,309 84,429
85,60 86,20 87,309 88,9999
89,799 90,70 91,20 93,20
94,30 95,60 96,80 97,279
98,149 99,30 101,3559 102,349
103,30 111,90 112,109 113,20
115,639 116,60 121,30 122,20
123,80 125,30 127,10 129,239
130,50 139,80 140,20 141,1849
142,189 143,639 144,80 155,20
157,589 158,80 159,99 186,289
187,50
##END=
