##TITLE=Hydroquinone
##JCAMP-DX=4.24
##DATA TYPE=MASS SPECTRUM
##ORIGIN=Japan AIST/NIMC Database- Spectrum MS-NW-1852
##OWNER=NIST Mass Spectrometry Data Center
Collection (C) 2014 copyright by the U.S. Secretary of Commerce
on behalf of the United States of America. All rights reserved.
##CAS REGISTRY NO=123-31-9
##$NIST MASS SPEC NO=228148
##MOLFORM=C6 H6 O2
##MW=110
##$NIST SOURCE=MSDC
##XUNITS=M/Z
##YUNITS=RELATIVE INTENSITY
##XFACTOR=1
##YFACTOR=1
##FIRSTX=14
##LASTX=112
##FIRSTY=30
##MAXX=112
##MINX=14
##MAXY=9999
##MINY=10
##NPOINTS=64
##PEAK TABLE=(XY..XY)
14,30 15,20 17,30 18,109
24,20 25,129 26,799 27,1389
28,209 29,479 30,20 31,90
32,40 36,40 37,209 38,319
39,1599 40,109 41,80 42,229
43,159 44,10 45,10 46,30
48,20 49,139 50,399 51,539
52,449 53,1729 54,1249 55,1819
56,159 57,50 60,40 61,199
62,309 63,529 64,419 65,159
66,60 67,30 68,40 69,179
70,20 71,60 73,20 74,50
77,40 79,50 80,90 81,3149
82,1479 83,80 84,50 90,10
92,50 93,20 95,60 108,159
109,589 110,9999 111,699 112,70
##END=
