##TITLE=1,2-Ethanediamine, N'-ethyl-N,N-dimethyl-
##JCAMP-DX=4.24
##DATA TYPE=MASS SPECTRUM
##ORIGIN=Japan AIST/NIMC Database- Spectrum MS-IW-4035
##OWNER=NIST Mass Spectrometry Data Center
Collection (C) 2014 copyright by the U.S. Secretary of Commerce
on behalf of the United States of America. All rights reserved.
##CAS REGISTRY NO=123-83-1
##$NIST MASS SPEC NO=239371
##MOLFORM=C6 H16 N2
##MW=116
##$NIST SOURCE=MSDC
##XUNITS=M/Z
##YUNITS=RELATIVE INTENSITY
##XFACTOR=1
##YFACTOR=1
##FIRSTX=15
##LASTX=117
##FIRSTY=90
##MAXX=117
##MINX=15
##MAXY=9999
##MINY=10
##NPOINTS=34
##PEAK TABLE=(XY..XY)
15,90 27,109 28,229 29,209
30,1149 31,10 39,10 41,80
42,589 43,219 44,429 45,50
46,10 50,30 54,30 55,20
56,319 57,259 58,9999 59,3019
60,109 68,10 69,20 70,60
71,99 72,299 73,40 83,10
85,20 86,20 99,10 113,20
116,369 117,30
##END=
