##TITLE=1-Butanol, 3-methyl-
##JCAMP-DX=4.24
##DATA TYPE=MASS SPECTRUM
##OWNER=NIST Mass Spectrometry Data Center
Collection (C) 2014 copyright by the U.S. Secretary of Commerce
on behalf of the United States of America. All rights reserved.
##CAS REGISTRY NO=123-51-3
##$NIST MASS SPEC NO=19490
##MOLFORM=C5 H12 O
##MW=88
##$NIST SOURCE=MSDC
##XUNITS=M/Z
##YUNITS=RELATIVE INTENSITY
##XFACTOR=1
##YFACTOR=1
##FIRSTX=12
##LASTX=88
##FIRSTY=60
##MAXX=88
##MINX=12
##MAXY=9999
##MINY=10
##NPOINTS=64
##PEAK TABLE=(XY..XY)
12,60 13,120 14,440 15,2012
16,120 17,150 18,430 19,440
20,10 24,10 25,50 26,661
27,5945 28,1902 29,5945 30,230
31,6126 32,90 33,40 34,10
35,10 36,20 37,250 38,530
39,4364 40,681 41,8057 42,8968
43,8237 44,671 45,1992 46,781
47,150 48,10 49,60 50,220
51,250 52,70 53,280 54,170
55,9999 56,1281 57,3073 58,160
59,70 60,100 61,30 62,10
63,20 65,10 66,10 67,50
68,20 69,530 70,7056 71,490
72,30 73,70 77,10 79,10
85,10 86,10 87,70 88,10
##END=
