##TITLE=Octadecanoic acid, butyl ester
##JCAMP-DX=4.24
##DATA TYPE=MASS SPECTRUM
##ORIGIN=R.T.HOLMAN,UNIVERSITY OF MINNESOTA
##OWNER=NIST Mass Spectrometry Data Center
Collection (C) 2014 copyright by the U.S. Secretary of Commerce
on behalf of the United States of America. All rights reserved.
##CAS REGISTRY NO=123-95-5
##$NIST MASS SPEC NO=36394
##MOLFORM=C22 H44 O2
##MW=340
##$NIST SOURCE=MSDC
##XUNITS=M/Z
##YUNITS=RELATIVE INTENSITY
##XFACTOR=1
##YFACTOR=1
##FIRSTX=26
##LASTX=343
##FIRSTY=80
##MAXX=343
##MINX=26
##MAXY=9999
##MINY=10
##NPOINTS=235
##PEAK TABLE=(XY..XY)
26,80 27,430 28,1460 29,1620
30,60 31,80 32,130 36,20
37,20 38,30 39,270 40,90
41,2840 42,570 43,3980 44,540
45,190 46,20 50,30 51,30
52,30 53,120 54,250 55,2600
56,9999 57,5440 58,330 59,160
60,2520 61,1910 62,70 63,30
64,20 65,40 66,40 67,360
68,260 69,1620 70,470 71,1780
72,140 73,2840 74,280 75,50
76,20 77,40 78,30 79,100
80,60 81,360 82,260 83,1210
84,590 85,1000 86,130 87,530
88,100 89,90 90,20 91,50
92,30 93,80 94,50 95,360
96,210 97,950 98,630 99,290
100,60 101,780 102,130 103,70
104,20 105,30 106,20 107,70
108,50 109,200 110,110 111,480
112,280 113,170 114,60 115,450
116,1860 117,1260 118,100 119,40
120,30 121,110 122,40 123,130
124,70 125,270 126,80 127,110
128,40 129,2430 130,220 131,50
133,40 134,20 135,120 136,30
137,80 138,50 139,170 140,50
141,80 142,30 143,250 144,50
145,30 147,30 148,20 149,80
150,30 151,40 152,50 153,120
154,50 155,60 156,30 157,140
158,80 159,40 160,30 163,60
164,30 165,40 166,40 167,80
168,40 169,50 170,30 171,320
172,130 173,40 176,20 177,40
178,20 179,40 180,50 181,70
182,40 183,30 184,10 185,830
186,130 187,40 188,10 189,10
190,10 191,30 193,30 194,30
195,40 196,40 197,30 199,200
200,60 201,30 205,40 207,40
208,30 209,40 210,40 211,20
212,20 213,90 214,40 215,30
217,30 218,30 219,50 220,40
221,20 222,80 223,40 224,40
225,40 226,20 227,170 228,60
229,30 236,40 237,50 238,50
239,40 240,30 241,720 242,120
243,40 246,20 247,40 248,40
249,30 250,20 251,20 252,10
253,20 255,170 256,40 257,20
264,80 265,130 266,70 267,2350
268,460 269,70 270,30 271,10
279,20 281,20 282,30 283,110
284,1260 285,4390 286,830 287,110
288,30 297,190 298,70 299,20
310,20 311,60 312,30 325,30
326,20 327,20 339,70 340,2604
341,610 342,90 343,20
##END=
