##TITLE=Pentanal, 2-methyl-
##JCAMP-DX=4.24
##DATA TYPE=MASS SPECTRUM
##ORIGIN=NIST Mass Spectrometry Data Center, 1990.
##OWNER=NIST Mass Spectrometry Data Center
Collection (C) 2014 copyright by the U.S. Secretary of Commerce
on behalf of the United States of America. All rights reserved.
##CAS REGISTRY NO=123-15-9
##$NIST MASS SPEC NO=113087
##MOLFORM=C6 H12 O
##MW=100
##$NIST SOURCE=MSDC
##XUNITS=M/Z
##YUNITS=RELATIVE INTENSITY
##XFACTOR=1
##YFACTOR=1
##FIRSTX=14
##LASTX=100
##FIRSTY=190
##MAXX=100
##MINX=14
##MAXY=9999
##MINY=41
##NPOINTS=25
##PEAK TABLE=(XY..XY)
14,190 15,300 26,446 27,3286
28,955 29,3527 30,242 31,209
32,41 38,315 39,2799 40,555
41,4348 42,955 43,9999 44,409
53,380 55,1236 56,225 57,1806
58,7962 59,275 70,148 71,1183
100,210
##END=
