##TITLE=Benzene, dodecyl-
##JCAMP-DX=4.24
##DATA TYPE=MASS SPECTRUM
##ORIGIN=NIST Mass Spectrometry Data Center, 1998.
##OWNER=NIST Mass Spectrometry Data Center
Collection (C) 2014 copyright by the U.S. Secretary of Commerce
on behalf of the United States of America. All rights reserved.
##CAS REGISTRY NO=123-01-3
##$NIST MASS SPEC NO=291281
##MOLFORM=C18 H30
##MW=246
##$NIST SOURCE=MSDC
##XUNITS=M/Z
##YUNITS=RELATIVE INTENSITY
##XFACTOR=1
##YFACTOR=1
##FIRSTX=26
##LASTX=248
##FIRSTY=10
##MAXX=248
##MINX=26
##MAXY=9999
##MINY=10
##NPOINTS=111
##PEAK TABLE=(XY..XY)
26,10 27,190 29,420 30,10
38,10 39,270 40,40 41,1220
42,190 43,1320 44,40 50,20
51,120 52,40 53,100 54,60
55,650 56,200 57,1000 58,40
62,10 63,60 64,20 65,570
66,50 67,90 68,40 69,220
70,110 71,350 72,20 74,10
75,10 76,20 77,330 78,460
79,340 80,80 81,40 82,40
83,90 84,40 85,190 86,10
89,100 91,8049 92,9999 93,930
94,110 95,30 96,20 97,60
98,20 99,20 102,30 103,230
104,740 105,1130 106,260 107,40
108,10 109,10 110,10 111,30
112,10 113,10 115,140 116,40
117,280 118,100 119,350 120,110
121,20 122,10 123,10 124,10
125,10 126,10 127,10 128,20
129,20 130,10 131,40 132,40
133,1020 134,310 135,40 136,10
145,10 146,10 147,160 148,70
149,10 150,10 152,10 161,60
162,20 175,30 176,10 179,10
180,10 189,20 192,30 203,30
204,10 205,10 217,10 218,10
246,1970 247,400 248,40
##END=
