##TITLE=Propanoic acid, anhydride
##JCAMP-DX=4.24
##DATA TYPE=MASS SPECTRUM
##ORIGIN=Japan AIST/NIMC Database- Spectrum MS-NW- 776
##OWNER=NIST Mass Spectrometry Data Center
Collection (C) 2014 copyright by the U.S. Secretary of Commerce
on behalf of the United States of America. All rights reserved.
##CAS REGISTRY NO=123-62-6
##$NIST MASS SPEC NO=227789
##MOLFORM=C6 H10 O3
##MW=130
##$NIST SOURCE=MSDC
##XUNITS=M/Z
##YUNITS=RELATIVE INTENSITY
##XFACTOR=1
##YFACTOR=1
##FIRSTX=14
##LASTX=75
##FIRSTY=30
##MAXX=75
##MINX=14
##MAXY=9999
##MINY=10
##NPOINTS=29
##PEAK TABLE=(XY..XY)
14,30 15,50 18,20 25,40
26,409 27,1339 28,729 29,4719
30,129 31,10 32,10 39,20
41,20 42,99 43,179 44,10
45,129 46,10 53,20 54,40
55,119 56,319 57,9999 58,349
59,20 71,20 73,99 74,159
75,10
##END=
