##TITLE=Thiomorpholine
##JCAMP-DX=4.24
##DATA TYPE=MASS SPECTRUM
##ORIGIN=Japan AIST/NIMC Database- Spectrum MS-IW-1311
##OWNER=NIST Mass Spectrometry Data Center
Collection (C) 2014 copyright by the U.S. Secretary of Commerce
on behalf of the United States of America. All rights reserved.
##CAS REGISTRY NO=123-90-0
##$NIST MASS SPEC NO=239535
##MOLFORM=C4 H9 N S
##MW=103
##$NIST SOURCE=MSDC
##XUNITS=M/Z
##YUNITS=RELATIVE INTENSITY
##XFACTOR=1
##YFACTOR=1
##FIRSTX=14
##LASTX=106
##FIRSTY=30
##MAXX=106
##MINX=14
##MAXY=9999
##MINY=10
##NPOINTS=64
##PEAK TABLE=(XY..XY)
14,30 15,169 25,10 26,139
27,589 28,2109 29,2559 30,2089
31,40 32,40 33,20 34,30
35,90 37,10 38,20 39,80
40,109 41,449 42,3319 43,389
44,899 45,799 46,1729 47,409
48,159 49,30 51,30 52,30
53,10 54,179 55,199 56,4689
57,8529 58,429 59,439 60,129
61,879 62,30 63,60 67,20
68,70 69,20 70,60 71,40
72,20 73,80 74,629 75,499
76,70 77,20 84,20 85,20
86,50 88,2769 89,129 90,129
99,10 100,20 101,80 102,289
103,9999 104,639 105,469 106,20
##END=
