##TITLE=6-Tridecanol, 3,9-diethyl-
##JCAMP-DX=4.24
##DATA TYPE=MASS SPECTRUM
##OWNER=NIST Mass Spectrometry Data Center
Collection (C) 2014 copyright by the U.S. Secretary of Commerce
on behalf of the United States of America. All rights reserved.
##CAS REGISTRY NO=123-24-0
##$NIST MASS SPEC NO=12447
##MOLFORM=C17 H36 O
##MW=256
##$NIST SOURCE=MSDC
##XUNITS=M/Z
##YUNITS=RELATIVE INTENSITY
##XFACTOR=1
##YFACTOR=1
##FIRSTX=14
##LASTX=239
##FIRSTY=10
##MAXX=239
##MINX=14
##MAXY=9999
##MINY=2
##NPOINTS=117
##PEAK TABLE=(XY..XY)
14,10 15,20 17,30 18,110
19,10 26,10 27,500 28,380
29,1461 30,60 31,170 32,60
39,310 40,60 41,2843 42,420
43,4224 44,300 45,280 51,30
53,210 54,200 55,5395 56,771
57,5335 58,651 59,260 60,20
65,70 66,30 67,540 68,200
69,9999 70,2762 71,2142 72,180
73,130 77,100 78,10 79,90
80,30 81,661 82,210 83,7517
84,2142 85,1021 86,100 87,240
88,50 91,30 93,40 94,60
95,470 96,280 97,3553 98,1051
99,350 100,70 101,160 102,10
105,10 107,20 108,10 109,400
110,280 111,4054 112,1501 113,480
114,70 115,50 121,20 123,160
124,80 125,340 126,430 127,260
128,180 129,2002 130,170 131,20
135,20 137,130 138,90 139,380
140,80 141,60 142,20 143,30
145,20 151,80 152,130 153,110
154,70 155,100 156,70 157,2112
158,240 159,20 167,25 168,12
169,8 170,10 171,6 175,2
177,4 195,60 196,10 207,70
208,30 209,130 210,70 211,30
225,30 236,10 237,10 238,240
239,60
##END=
