##TITLE=Butanedioic acid, diethyl ester
##JCAMP-DX=4.24
##DATA TYPE=MASS SPECTRUM
##ORIGIN=J.VOTH UNIV. OF CALIFORNIA, DAVIS, CALIFORNIA, 95616, USA
##OWNER=NIST Mass Spectrometry Data Center
Collection (C) 2014 copyright by the U.S. Secretary of Commerce
on behalf of the United States of America. All rights reserved.
##CAS REGISTRY NO=123-25-1
##$NIST MASS SPEC NO=26776
##MOLFORM=C8 H14 O4
##MW=174
##$NIST SOURCE=MSDC
##XUNITS=M/Z
##YUNITS=RELATIVE INTENSITY
##XFACTOR=1
##YFACTOR=1
##FIRSTX=12
##LASTX=174
##FIRSTY=32
##MAXX=174
##MINX=12
##MAXY=9999
##MINY=17
##NPOINTS=56
##PEAK TABLE=(XY..XY)
12,32 13,67 14,331 15,937
16,55 17,57 18,175 19,146
25,50 26,957 27,4618 28,3428
29,8330 30,409 31,577 32,20
39,48 41,92 42,431 43,725
44,114 45,1460 46,53 47,62
49,36 53,84 54,72 55,2803
56,1574 57,560 58,40 59,79
60,94 61,24 68,26 71,34
72,87 73,1604 74,1223 75,221
82,23 83,40 84,74 85,22
99,95 100,508 101,9999 102,1317
103,123 128,1214 129,6328 130,434
131,55 146,17 147,198 174,83
##END=
