##TITLE=3-Allyloxy-1,2 propanediol
##JCAMP-DX=4.24
##DATA TYPE=MASS SPECTRUM
##ORIGIN=Japan AIST/NIMC Database- Spectrum MS-NW-1228
##OWNER=NIST Mass Spectrometry Data Center
Collection (C) 2014 copyright by the U.S. Secretary of Commerce
on behalf of the United States of America. All rights reserved.
##CAS REGISTRY NO=123-34-2
##$NIST MASS SPEC NO=229869
##MOLFORM=C6 H12 O3
##MW=132
##$NIST SOURCE=MSDC
##XUNITS=M/Z
##YUNITS=RELATIVE INTENSITY
##XFACTOR=1
##YFACTOR=1
##FIRSTX=14
##LASTX=131
##FIRSTY=60
##MAXX=131
##MINX=14
##MAXY=9999
##MINY=10
##NPOINTS=67
##PEAK TABLE=(XY..XY)
14,60 15,989 16,10 17,30
18,119 19,50 25,10 26,139
27,789 28,399 29,919 30,159
31,2249 32,90 33,30 37,40
38,99 39,1689 40,269 41,9999
42,1189 43,3469 44,1189 45,879
46,20 47,30 53,20 54,30
55,579 56,479 57,2229 58,2379
59,349 60,249 61,3379 62,80
63,10 66,20 67,20 68,40
69,169 70,90 71,1919 72,239
73,269 74,679 75,669 76,20
77,10 81,20 83,589 84,339
85,30 86,30 87,30 89,30
91,20 95,10 96,10 97,10
100,20 101,559 102,30 103,20
113,10 117,20 131,10
##END=
