##TITLE=1,4-Dioxane
##JCAMP-DX=4.24
##DATA TYPE=MASS SPECTRUM
##ORIGIN=NIST Mass Spectrometry Data Center, 1990.
##OWNER=NIST Mass Spectrometry Data Center
Collection (C) 2014 copyright by the U.S. Secretary of Commerce
on behalf of the United States of America. All rights reserved.
##CAS REGISTRY NO=123-91-1
##$NIST MASS SPEC NO=118696
##MOLFORM=C4 H8 O2
##MW=88
##$NIST SOURCE=MSDC
##XUNITS=M/Z
##YUNITS=RELATIVE INTENSITY
##XFACTOR=1
##YFACTOR=1
##FIRSTX=12
##LASTX=90
##FIRSTY=21
##MAXX=90
##MINX=12
##MAXY=9999
##MINY=10
##NPOINTS=35
##PEAK TABLE=(XY..XY)
12,21 13,49 14,300 15,911
16,40 17,10 18,22 19,38
24,11 26,968 27,1901 28,9999
29,4103 30,1457 31,1911 32,51
39,45 40,20 41,98 42,357
43,1715 44,687 45,600 46,19
55,20 57,1318 58,4081 59,201
60,16 61,12 69,16 87,613
88,5207 89,226 90,36
##END=
