##TITLE=Benzaldehyde, 4-methoxy-
##JCAMP-DX=4.24
##DATA TYPE=MASS SPECTRUM
##ORIGIN=NIST Mass Spectrometry Data Center, 1990.
##OWNER=NIST Mass Spectrometry Data Center
Collection (C) 2014 copyright by the U.S. Secretary of Commerce
on behalf of the United States of America. All rights reserved.
##CAS REGISTRY NO=123-11-5
##$NIST MASS SPEC NO=118660
##MOLFORM=C8 H8 O2
##MW=136
##$NIST SOURCE=MSDC
##XUNITS=M/Z
##YUNITS=RELATIVE INTENSITY
##XFACTOR=1
##YFACTOR=1
##FIRSTX=12
##LASTX=138
##FIRSTY=15
##MAXX=138
##MINX=12
##MAXY=9999
##MINY=6
##NPOINTS=66
##PEAK TABLE=(XY..XY)
12,15 13,16 14,89 15,301
18,14 25,21 26,119 27,195
28,94 29,463 30,20 31,48
32,17 37,295 38,768 39,1409
40,65 41,23 42,26 43,25
44,6 48,16 49,160 50,1119
51,1064 52,140 53,254 54,31
55,29 60,27 61,234 62,481
63,1387 64,1140 65,1150 66,159
67,26 68,9 73,125 74,478
75,281 76,509 77,3520 78,455
79,284 80,22 86,16 89,12
92,1767 93,276 94,34 103,18
104,61 105,99 106,12 107,1738
108,198 109,22 119,64 120,46
121,20 132,7 135,9999 136,6653
137,566 138,57
##END=
