##TITLE=Maleic hydrazide
##JCAMP-DX=4.24
##DATA TYPE=MASS SPECTRUM
##ORIGIN=Japan AIST/NIMC Database- Spectrum MS-NW- 247
##OWNER=NIST Mass Spectrometry Data Center
Collection (C) 2014 copyright by the U.S. Secretary of Commerce
on behalf of the United States of America. All rights reserved.
##CAS REGISTRY NO=123-33-1
##$NIST MASS SPEC NO=227707
##MOLFORM=C4 H4 N2 O2
##MW=112
##$NIST SOURCE=MSDC
##XUNITS=M/Z
##YUNITS=RELATIVE INTENSITY
##XFACTOR=1
##YFACTOR=1
##FIRSTX=12
##LASTX=114
##FIRSTY=30
##MAXX=114
##MINX=12
##MAXY=9999
##MINY=10
##NPOINTS=69
##PEAK TABLE=(XY..XY)
12,30 13,30 14,40 15,20
16,30 24,80 25,329 26,1399
27,1189 28,269 29,1129 30,329
31,90 32,20 36,40 37,149
38,359 39,119 40,149 41,539
42,169 43,179 44,119 45,50
50,40 51,199 52,169 53,679
54,2039 55,3199 56,449 57,80
58,279 59,30 60,20 61,10
64,10 65,20 66,40 67,30
68,90 69,60 70,30 71,50
73,40 74,10 75,10 76,10
77,30 78,70 79,10 80,20
81,20 82,6939 83,389 84,769
85,30 86,10 92,10 93,10
94,10 95,20 96,30 97,30
109,10 111,10 112,9999 113,609
114,50
##END=
