##TITLE=Octadecanoic acid, 2,3-dihydroxypropyl ester
##JCAMP-DX=4.24
##DATA TYPE=MASS SPECTRUM
##ORIGIN=Japan AIST/NIMC Database- Spectrum MS-NW-6838
##OWNER=NIST Mass Spectrometry Data Center
Collection (C) 2014 copyright by the U.S. Secretary of Commerce
on behalf of the United States of America. All rights reserved.
##CAS REGISTRY NO=123-94-4
##$NIST MASS SPEC NO=228270
##MOLFORM=C21 H42 O4
##MW=358
##$NIST SOURCE=MSDC
##XUNITS=M/Z
##YUNITS=RELATIVE INTENSITY
##XFACTOR=1
##YFACTOR=1
##FIRSTX=13
##LASTX=359
##FIRSTY=10
##MAXX=359
##MINX=13
##MAXY=9999
##MINY=10
##NPOINTS=264
##PEAK TABLE=(XY..XY)
13,10 14,40 15,369 16,10
17,90 18,339 19,30 25,30
26,179 27,1419 28,699 29,3849
30,169 31,879 32,50 33,10
37,10 38,20 39,699 40,169
41,6129 42,1449 43,9929 44,1119
45,1089 46,90 47,50 50,10
51,30 52,20 53,329 54,629
55,6339 56,1929 57,8169 58,569
59,359 60,1789 61,1509 62,50
63,20 65,60 66,70 67,1179
68,779 69,4029 70,1089 71,3819
72,289 73,2579 74,6739 75,2139
76,119 77,80 78,40 79,279
80,219 81,1209 82,829 83,2879
84,5429 85,2279 86,249 87,1449
88,179 89,70 90,10 91,99
92,30 93,579 94,229 95,1259
96,669 97,2259 98,9999 99,1119
100,209 101,459 102,129 103,80
104,10 105,40 106,20 107,179
108,139 109,739 110,339 111,1389
112,3259 113,579 114,139 115,439
116,1429 117,269 118,40 119,40
120,10 121,359 122,129 123,389
124,209 125,649 126,699 127,299
128,90 129,1539 130,199 131,40
132,10 133,20 134,5419 135,589
136,129 137,209 138,159 139,309
140,529 141,189 142,80 143,439
144,70 145,20 147,939 148,90
149,149 150,50 151,90 152,119
153,219 154,1489 155,269 156,60
157,179 158,50 159,10 161,20
163,70 164,40 165,50 166,90
167,179 168,659 169,129 170,60
171,279 172,70 173,20 175,20
176,579 177,90 178,30 179,30
180,60 181,149 182,489 183,139
184,30 185,559 186,80 187,20
189,20 190,209 191,50 192,30
193,30 194,60 195,139 196,349
197,70 198,20 199,209 200,40
201,20 203,30 204,50 205,20
206,20 207,20 208,20 209,99
210,689 211,229 212,30 213,169
214,40 215,20 218,10 219,20
220,40 221,20 222,70 223,109
224,269 225,70 226,10 227,159
228,60 229,50 230,10 233,10
235,10 236,30 237,90 238,399
239,1289 240,229 241,309 242,80
243,20 246,10 247,20 248,70
249,40 250,20 251,20 252,30
253,50 254,20 255,139 256,469
257,429 258,70 259,10 264,70
265,90 266,1089 267,2659 268,509
269,99 270,239 271,90 272,10
281,10 282,30 283,40 284,1049
285,839 286,139 287,20 294,30
295,50 296,10 297,60 298,409
299,339 300,70 301,10 311,20
312,60 313,60 314,10 325,10
326,10 327,519 328,109 329,20
330,10 331,20 339,10 340,70
341,50 342,10 358,50 359,30
##END=
