##TITLE=Azelaic acid
##JCAMP-DX=4.24
##DATA TYPE=MASS SPECTRUM
##ORIGIN=NIST Mass Spectrometry Data Center, 1990.
##OWNER=NIST Mass Spectrometry Data Center
Collection (C) 2014 copyright by the U.S. Secretary of Commerce
on behalf of the United States of America. All rights reserved.
##CAS REGISTRY NO=123-99-9
##$NIST MASS SPEC NO=113078
##MOLFORM=C9 H16 O4
##MW=188
##$NIST SOURCE=MSDC
##XUNITS=M/Z
##YUNITS=RELATIVE INTENSITY
##XFACTOR=1
##YFACTOR=1
##FIRSTX=18
##LASTX=153
##FIRSTY=206
##MAXX=153
##MINX=18
##MAXY=9999
##MINY=100
##NPOINTS=55
##PEAK TABLE=(XY..XY)
18,206 26,603 27,3666 28,1259
29,3323 30,206 31,1165 32,100
39,3278 40,784 41,7437 42,2821
43,3415 44,708 45,4931 53,1067
54,1096 55,9999 56,1371 57,759
58,708 59,876 60,6318 61,402
67,1353 68,1276 69,4021 70,810
71,420 72,402 73,3252 74,474
79,488 81,1105 82,1375 83,5514
84,4178 85,530 86,420 87,1031
95,446 96,1371 97,1421 98,1987
99,556 100,446 101,478 110,638
111,3147 114,796 124,2883 129,586
137,471 152,4188 153,441
##END=
