##TITLE=Androstane-11,17-dione, 3-hydroxy-, (3.alpha.,5.alpha.)-
##JCAMP-DX=4.24
##DATA TYPE=MASS SPECTRUM
##OWNER=NIST Mass Spectrometry Data Center
Collection (C) 2014 copyright by the U.S. Secretary of Commerce
on behalf of the United States of America. All rights reserved.
##CAS REGISTRY NO=1231-82-9
##$NIST MASS SPEC NO=14501
##MOLFORM=C19 H28 O3
##MW=304
##$NIST SOURCE=MSDC
##XUNITS=M/Z
##YUNITS=RELATIVE INTENSITY
##XFACTOR=1
##YFACTOR=1
##FIRSTX=41
##LASTX=306
##FIRSTY=3500
##MAXX=306
##MINX=41
##MAXY=9999
##MINY=125
##NPOINTS=93
##PEAK TABLE=(XY..XY)
41,3500 42,225 43,1625 53,925
54,150 55,2875 56,150 57,725
65,300 66,200 67,2400 68,775
69,1500 77,1100 78,200 79,2550
80,750 81,2100 82,700 83,500
91,2250 92,425 93,2350 94,1150
95,1750 96,500 97,600 104,225
105,2425 106,1200 107,3000 108,2550
109,2750 110,1600 111,1075 117,350
118,875 119,1625 120,800 121,1800
122,1250 123,650 124,1500 125,250
131,625 132,325 133,1000 134,450
135,600 136,225 137,425 138,225
139,200 145,1000 146,325 147,3750
148,925 149,700 150,1700 151,250
159,300 160,250 161,300 162,200
163,1050 164,300 165,1500 166,175
172,250 173,625 174,250 175,350
176,350 178,2250 179,250 191,2300
192,300 193,2000 194,200 205,200
232,300 243,250 261,150 268,200
269,250 271,725 272,125 286,950
287,175 289,125 304,9999 305,2250
306,250
##END=
