##TITLE=2-Amino-3-benzyl-5-(4-methoxyphenyl)pyrazine-1-oxide
##JCAMP-DX=4.24
##DATA TYPE=MASS SPECTRUM
##ORIGIN=A.A.Kutin, Moscow, Russia
##OWNER=NIST Mass Spectrometry Data Center
Collection (C) 2014 copyright by the U.S. Secretary of Commerce
on behalf of the United States of America. All rights reserved.
##CAS REGISTRY NO=123437-73-0
##$NIST MASS SPEC NO=301693
##MOLFORM=C18 H17 N3 O2
##MW=307
##$NIST SOURCE=MSDC
##XUNITS=M/Z
##YUNITS=RELATIVE INTENSITY
##XFACTOR=1
##YFACTOR=1
##FIRSTX=75
##LASTX=309
##FIRSTY=70
##MAXX=309
##MINX=75
##MAXY=9999
##MINY=60
##NPOINTS=81
##PEAK TABLE=(XY..XY)
75,70 76,3143 77,180 78,480
79,210 80,110 88,240 89,2602
90,891 91,6676 92,1271 93,60
98,80 101,340 102,1011 103,1762
104,851 105,781 106,280 107,200
108,150 109,120 113,120 114,480
115,470 117,1011 118,350 119,480
121,210 122,150 123,390 128,360
129,561 130,2062 131,470 132,1221
133,490 134,721 135,2672 136,190
137,130 138,120 140,100 141,90
143,210 144,260 145,1031 146,1211
148,130 151,1031 153,130 156,440
158,160 159,110 160,210 170,120
173,220 182,90 185,190 217,80
219,70 220,130 221,150 232,140
246,60 248,370 249,420 261,90
263,981 264,310 275,581 276,871
288,200 289,741 290,5315 291,9999
292,2092 306,150 307,3323 308,440
309,90
##END=
