##TITLE=Acetamide, N-phenyl-N-[1-(phenylmethyl)-4-piperidinyl]-
##JCAMP-DX=4.24
##DATA TYPE=MASS SPECTRUM
##ORIGIN=Drug Lab
##OWNER=NIST Mass Spectrometry Data Center
Collection (C) 2014 copyright by the U.S. Secretary of Commerce
on behalf of the United States of America. All rights reserved.
##CAS REGISTRY NO=1237-52-1
##$NIST MASS SPEC NO=379899
##MOLFORM=C20 H24 N2 O
##MW=308
##$NIST SOURCE=MSDC
##XUNITS=M/Z
##YUNITS=RELATIVE INTENSITY
##XFACTOR=1
##YFACTOR=1
##FIRSTX=13
##LASTX=309
##FIRSTY=20
##MAXX=309
##MINX=13
##MAXY=9999
##MINY=10
##NPOINTS=98
##PEAK TABLE=(XY..XY)
13,20 15,120 20,50 29,40
30,30 32,170 37,70 39,450
40,30 41,240 42,581 43,2702
44,120 47,60 51,480 52,70
53,60 54,160 55,420 56,320
60,40 63,170 65,1571 66,150
67,160 68,130 71,20 75,40
76,90 77,1211 78,230 80,180
81,100 82,6246 83,340 89,230
90,230 91,9999 92,1021 93,420
94,110 95,90 96,400 104,410
105,100 106,240 107,80 113,10
115,130 116,90 117,450 118,1431
119,631 120,500 121,110 126,10
127,30 128,70 130,380 131,240
132,1221 133,310 134,260 135,10
136,80 140,20 144,561 145,390
146,1321 147,180 156,30 157,110
158,621 159,60 160,60 161,50
167,30 169,20 172,2032 173,1932
174,801 175,80 176,60 177,40
188,110 202,40 217,170 232,10
236,30 237,30 249,220 250,30
256,20 265,510 266,120 307,20
308,380 309,60
##END=
