##TITLE=Tetradecanoic acid, ethyl ester
##JCAMP-DX=4.24
##DATA TYPE=MASS SPECTRUM
##ORIGIN=Japan AIST/NIMC Database- Spectrum MS-NW-3755
##OWNER=NIST Mass Spectrometry Data Center
Collection (C) 2014 copyright by the U.S. Secretary of Commerce
on behalf of the United States of America. All rights reserved.
##CAS REGISTRY NO=124-06-1
##$NIST MASS SPEC NO=229118
##MOLFORM=C16 H32 O2
##MW=256
##$NIST SOURCE=MSDC
##XUNITS=M/Z
##YUNITS=RELATIVE INTENSITY
##XFACTOR=1
##YFACTOR=1
##FIRSTX=14
##LASTX=258
##FIRSTY=10
##MAXX=258
##MINX=14
##MAXY=9999
##MINY=10
##NPOINTS=120
##PEAK TABLE=(XY..XY)
14,10 15,20 17,20 18,99
26,30 27,509 28,269 29,1439
30,30 31,60 32,90 39,239
40,50 41,1619 42,409 43,1959
44,60 45,459 46,20 53,90
54,119 55,1279 56,349 57,1199
58,60 59,70 60,769 61,989
62,20 65,10 66,10 67,189
68,109 69,799 70,999 71,519
72,30 73,1179 74,149 75,30
77,10 79,40 80,20 81,159
82,70 83,469 84,329 85,259
86,20 87,169 88,9999 89,1369
90,90 91,10 93,30 94,10
95,149 96,60 97,389 98,369
99,60 101,4739 102,419 103,40
107,20 109,80 110,30 111,189
112,90 113,20 115,509 116,50
121,30 123,40 124,20 125,90
126,20 127,10 129,189 130,90
131,10 135,20 137,10 138,10
139,40 140,10 143,469 144,99
145,10 149,20 153,30 157,1129
158,129 159,10 163,10 166,20
167,20 168,20 171,199 172,30
181,10 185,129 186,30 191,20
199,189 200,40 209,20 210,20
211,849 212,129 213,699 214,119
215,10 227,169 228,40 229,20
255,20 256,1189 257,229 258,20
##END=
