##TITLE=Tetradecanal
##JCAMP-DX=4.24
##DATA TYPE=MASS SPECTRUM
##ORIGIN=Japan AIST/NIMC Database- Spectrum MS-IW-3684
##OWNER=NIST Mass Spectrometry Data Center
Collection (C) 2014 copyright by the U.S. Secretary of Commerce
on behalf of the United States of America. All rights reserved.
##CAS REGISTRY NO=124-25-4
##$NIST MASS SPEC NO=235587
##MOLFORM=C14 H28 O
##MW=212
##$NIST SOURCE=MSDC
##XUNITS=M/Z
##YUNITS=RELATIVE INTENSITY
##XFACTOR=1
##YFACTOR=1
##FIRSTX=15
##LASTX=213
##FIRSTY=30
##MAXX=213
##MINX=15
##MAXY=9999
##MINY=10
##NPOINTS=121
##PEAK TABLE=(XY..XY)
15,30 18,20 26,40 27,1369
28,309 29,3259 30,80 31,109
32,10 38,10 39,1049 40,209
41,6739 42,1679 43,8069 44,3099
45,1309 46,30 47,10 50,10
51,50 52,30 53,479 54,1559
55,7109 56,3719 57,9999 58,669
59,99 60,10 63,10 65,90
66,879 67,4209 68,5519 69,5099
70,3279 71,4399 72,889 73,119
74,10 75,30 77,60 78,20
79,259 80,299 81,3759 82,8629
83,4729 84,2119 85,2269 86,309
87,30 91,40 92,10 93,109
94,229 95,3449 96,5159 97,3019
98,1189 99,659 100,80 101,10
103,60 105,10 107,40 108,80
109,1669 110,1759 111,1209 112,679
113,329 114,40 115,10 121,20
122,60 123,869 124,1039 125,589
126,509 127,189 128,30 129,10
133,10 135,10 136,30 137,669
138,889 139,249 140,389 141,90
142,10 146,10 151,219 152,279
153,50 154,20 155,30 156,50
157,10 160,10 161,90 162,10
165,90 166,759 167,109 168,1219
169,199 170,20 179,20 183,10
184,199 185,20 194,529 195,80
196,20 197,10 211,10 212,60
213,20
##END=
