##TITLE=1-Dodecanamine
##JCAMP-DX=4.24
##DATA TYPE=MASS SPECTRUM
##ORIGIN=Japan AIST/NIMC Database- Spectrum MS-NW-2333
##OWNER=NIST Mass Spectrometry Data Center
Collection (C) 2014 copyright by the U.S. Secretary of Commerce
on behalf of the United States of America. All rights reserved.
##CAS REGISTRY NO=124-22-1
##$NIST MASS SPEC NO=229207
##MOLFORM=C12 H27 N
##MW=185
##$NIST SOURCE=MSDC
##XUNITS=M/Z
##YUNITS=RELATIVE INTENSITY
##XFACTOR=1
##YFACTOR=1
##FIRSTX=15
##LASTX=186
##FIRSTY=10
##MAXX=186
##MINX=15
##MAXY=9999
##MINY=10
##NPOINTS=72
##PEAK TABLE=(XY..XY)
15,10 17,40 18,45 26,10
27,269 28,109 29,459 30,9999
31,199 32,10 39,199 40,30
41,919 42,239 43,729 44,639
45,789 46,20 51,10 53,60
54,70 55,569 56,349 57,269
58,40 59,229 67,60 68,60
69,289 70,149 71,60 72,209
73,90 77,10 79,10 81,20
82,90 83,189 84,99 85,30
86,519 87,70 95,10 96,70
97,169 98,70 99,10 100,249
101,30 110,60 111,70 112,40
114,109 115,20 124,40 125,20
126,20 128,80 129,10 138,30
139,10 140,20 142,99 143,10
152,10 156,80 157,10 168,10
170,30 184,70 185,169 186,20
##END=
