##TITLE=2-Propen-1-amine, N-2-propenyl-
##JCAMP-DX=4.24
##DATA TYPE=MASS SPECTRUM
##ORIGIN=NIST Mass Spectrometry Data Center
##OWNER=NIST Mass Spectrometry Data Center
Collection (C) 2014 copyright by the U.S. Secretary of Commerce
on behalf of the United States of America. All rights reserved.
##CAS REGISTRY NO=124-02-7
##$NIST MASS SPEC NO=341322
##MOLFORM=C6 H11 N
##MW=97
##$NIST SOURCE=MSDC
##XUNITS=M/Z
##YUNITS=RELATIVE INTENSITY
##XFACTOR=1
##YFACTOR=1
##FIRSTX=14
##LASTX=98
##FIRSTY=10
##MAXX=98
##MINX=14
##MAXY=9999
##MINY=10
##NPOINTS=51
##PEAK TABLE=(XY..XY)
14,10 15,90 25,20 26,280
27,821 28,2382 29,310 30,851
31,10 37,180 38,470 39,4304
40,561 41,9999 42,1702 43,1091
44,90 46,30 50,30 51,110
52,320 53,220 54,1521 55,821
56,2632 57,160 58,10 62,10
63,20 64,20 65,140 66,50
67,761 68,7667 69,1031 70,7066
71,340 77,160 78,30 79,330
80,911 81,621 82,6075 83,340
92,10 93,40 94,520 95,60
96,2282 97,1702 98,160
##END=
