##TITLE=Isoborneol
##JCAMP-DX=4.24
##DATA TYPE=MASS SPECTRUM
##ORIGIN=Japan AIST/NIMC Database- Spectrum MS-NW-4330
##OWNER=NIST Mass Spectrometry Data Center
Collection (C) 2014 copyright by the U.S. Secretary of Commerce
on behalf of the United States of America. All rights reserved.
##CAS REGISTRY NO=124-76-5
##$NIST MASS SPEC NO=232360
##MOLFORM=C10 H18 O
##MW=154
##$NIST SOURCE=MSDC
##XUNITS=M/Z
##YUNITS=RELATIVE INTENSITY
##XFACTOR=1
##YFACTOR=1
##FIRSTX=14
##LASTX=155
##FIRSTY=10
##MAXX=155
##MINX=14
##MAXY=9999
##MINY=10
##NPOINTS=93
##PEAK TABLE=(XY..XY)
14,10 15,70 17,40 18,139
26,30 27,709 28,40 29,589
30,10 31,99 32,10 37,10
38,40 39,819 40,149 41,2019
42,169 43,919 44,60 45,80
50,40 51,149 52,60 53,509
54,149 55,1339 56,179 57,269
58,40 59,609 60,20 61,10
62,10 63,40 64,10 65,159
66,80 67,1139 68,369 69,969
70,289 71,909 72,589 73,30
74,10 77,349 78,60 79,509
80,219 81,709 82,1119 83,659
84,489 85,149 86,40 91,279
92,679 93,1899 94,289 95,9999
96,929 97,209 98,99 99,129
100,50 103,10 105,149 106,50
107,309 108,379 109,319 110,1619
111,589 112,60 113,70 119,30
120,10 121,1309 122,139 123,99
124,10 125,60 126,60 135,10
136,1039 137,149 138,10 139,899
140,99 152,30 153,10 154,70
155,10
##END=
