##TITLE=Methane, dibromochloro-
##JCAMP-DX=4.24
##DATA TYPE=MASS SPECTRUM
##ORIGIN=Japan AIST/NIMC Database- Spectrum MS-NW-2893
##OWNER=NIST Mass Spectrometry Data Center
Collection (C) 2014 copyright by the U.S. Secretary of Commerce
on behalf of the United States of America. All rights reserved.
##CAS REGISTRY NO=124-48-1
##$NIST MASS SPEC NO=230572
##MOLFORM=C H Br2 Cl
##MW=206
##$NIST SOURCE=MSDC
##XUNITS=M/Z
##YUNITS=RELATIVE INTENSITY
##XFACTOR=1
##YFACTOR=1
##FIRSTX=12
##LASTX=212
##FIRSTY=90
##MAXX=212
##MINX=12
##MAXY=9999
##MINY=10
##NPOINTS=55
##PEAK TABLE=(XY..XY)
12,90 13,199 14,10 26,10
27,30 28,50 29,40 31,109
35,129 36,90 37,40 38,30
44,10 45,60 46,20 47,1409
48,1629 49,469 50,549 79,649
80,70 81,589 82,70 91,669
92,359 93,659 94,349 108,10
110,10 114,20 116,20 126,80
127,7639 128,199 129,9999 130,139
131,2439 132,20 158,50 160,109
162,50 170,10 171,109 172,20
173,219 174,10 175,119 205,20
206,299 207,50 208,659 209,40
210,489 211,10 212,90
##END=
