##TITLE=Dimantine
##JCAMP-DX=4.24
##DATA TYPE=MASS SPECTRUM
##ORIGIN=Japan AIST/NIMC Database- Spectrum MS-IW-7689
##OWNER=NIST Mass Spectrometry Data Center
Collection (C) 2014 copyright by the U.S. Secretary of Commerce
on behalf of the United States of America. All rights reserved.
##CAS REGISTRY NO=124-28-7
##$NIST MASS SPEC NO=237704
##MOLFORM=C20 H43 N
##MW=297
##$NIST SOURCE=MSDC
##XUNITS=M/Z
##YUNITS=RELATIVE INTENSITY
##XFACTOR=1
##YFACTOR=1
##FIRSTX=15
##LASTX=299
##FIRSTY=10
##MAXX=299
##MINX=15
##MAXY=9999
##MINY=10
##NPOINTS=134
##PEAK TABLE=(XY..XY)
15,10 17,10 18,40 26,40
27,139 28,709 29,319 30,179
31,10 38,10 39,90 40,40
41,489 42,239 43,649 44,279
45,239 46,179 48,50 53,30
54,40 55,449 56,159 57,579
58,9999 59,549 64,109 65,40
66,10 67,80 68,50 69,239
70,129 71,229 72,70 73,10
77,20 78,20 79,40 80,30
81,60 82,70 83,169 84,669
85,129 86,20 91,70 92,80
93,30 94,30 95,40 96,50
97,129 98,60 99,20 100,30
104,20 105,30 106,20 107,10
108,10 109,20 110,129 111,70
112,30 113,10 114,40 115,10
117,20 118,10 119,20 120,10
121,20 122,70 123,20 124,10
125,30 126,20 127,10 128,30
129,20 130,10 131,20 132,10
133,10 134,10 135,10 136,20
137,10 138,10 139,10 140,30
141,10 142,20 143,10 148,10
153,10 154,10 155,10 156,10
166,10 167,10 168,10 170,10
180,50 181,10 182,10 184,10
196,10 198,10 210,10 212,10
224,10 238,10 240,10 242,10
244,10 246,20 252,20 254,10
268,20 280,10 282,40 283,10
289,10 291,10 292,10 293,20
294,70 295,60 296,369 297,479
298,99 299,10
##END=
