##TITLE=2-Propanol, 1-(2-butoxyethoxy)-
##JCAMP-DX=4.24
##DATA TYPE=MASS SPECTRUM
##ORIGIN=NIST Mass Spectrometry Data Center, 1990.
##OWNER=NIST Mass Spectrometry Data Center
Collection (C) 2014 copyright by the U.S. Secretary of Commerce
on behalf of the United States of America. All rights reserved.
##CAS REGISTRY NO=124-16-3
##$NIST MASS SPEC NO=118286
##MOLFORM=C9 H20 O3
##MW=176
##$NIST SOURCE=MSDC
##XUNITS=M/Z
##YUNITS=RELATIVE INTENSITY
##XFACTOR=1
##YFACTOR=1
##FIRSTX=15
##LASTX=161
##FIRSTY=377
##MAXX=161
##MINX=15
##MAXY=9999
##MINY=47
##NPOINTS=59
##PEAK TABLE=(XY..XY)
15,377 18,77 19,349 26,262
27,1778 28,963 29,4545 30,364
31,2603 33,93 38,79 39,810
41,5754 42,790 43,2351 44,936
45,6413 46,193 47,122 53,96
55,954 56,2121 57,9999 58,1400
59,5977 60,1754 61,523 63,119
69,180 70,80 71,722 72,761
73,634 74,156 75,1304 76,219
77,782 78,50 82,51 83,70
85,513 86,347 87,2836 88,205
89,1135 100,1108 101,584 102,69
103,279 104,60 115,131 117,62
129,144 130,133 131,736 132,565
133,102 158,59 161,47
##END=
