##TITLE=Arsonic acid, methyl-
##JCAMP-DX=4.24
##DATA TYPE=MASS SPECTRUM
##ORIGIN=FDA, Los Angeles District Laboratory
##OWNER=NIST Mass Spectrometry Data Center
Collection (C) 2014 copyright by the U.S. Secretary of Commerce
on behalf of the United States of America. All rights reserved.
##CAS REGISTRY NO=124-58-3
##$NIST MASS SPEC NO=117137
##MOLFORM=C H5 As O3
##MW=140
##$NIST SOURCE=MSDC
##XUNITS=M/Z
##YUNITS=RELATIVE INTENSITY
##XFACTOR=1
##YFACTOR=1
##FIRSTX=75
##LASTX=140
##FIRSTY=900
##MAXX=140
##MINX=75
##MAXY=9999
##MINY=250
##NPOINTS=20
##PEAK TABLE=(XY..XY)
75,900 76,250 77,450 79,450
88,350 89,1050 90,950 91,9749
92,1200 93,3150 95,750 105,300
106,1250 107,5849 123,1100 124,950
125,9999 138,400 139,2850 140,1600
##END=
