##TITLE=Methanesulfonyl chloride
##JCAMP-DX=4.24
##DATA TYPE=MASS SPECTRUM
##ORIGIN=Japan AIST/NIMC Database- Spectrum MS-NW-1128
##OWNER=NIST Mass Spectrometry Data Center
Collection (C) 2014 copyright by the U.S. Secretary of Commerce
on behalf of the United States of America. All rights reserved.
##CAS REGISTRY NO=124-63-0
##$NIST MASS SPEC NO=228992
##MOLFORM=C H3 Cl O2 S
##MW=114
##$NIST SOURCE=MSDC
##XUNITS=M/Z
##YUNITS=RELATIVE INTENSITY
##XFACTOR=1
##YFACTOR=1
##FIRSTX=12
##LASTX=116
##FIRSTY=10
##MAXX=116
##MINX=12
##MAXY=9999
##MINY=10
##NPOINTS=44
##PEAK TABLE=(XY..XY)
12,10 13,20 14,90 15,4219
16,50 18,20 28,119 29,189
30,10 31,90 32,90 33,60
34,40 35,70 36,60 37,10
38,10 44,109 45,239 46,70
47,40 48,569 49,179 50,40
51,40 62,10 63,90 64,559
65,70 66,20 67,10 78,20
79,9999 80,209 81,469 82,10
83,80 85,20 94,10 96,10
99,179 101,70 114,70 116,30
##END=
