##TITLE=1,3-Cyclopentanedicarboxylic acid, 1,2,2-trimethyl-, (1R-cis)-
##JCAMP-DX=4.24
##DATA TYPE=MASS SPECTRUM
##ORIGIN=Japan AIST/NIMC Database- Spectrum MS-NW-4285
##OWNER=NIST Mass Spectrometry Data Center
Collection (C) 2014 copyright by the U.S. Secretary of Commerce
on behalf of the United States of America. All rights reserved.
##CAS REGISTRY NO=124-83-4
##$NIST MASS SPEC NO=232351
##MOLFORM=C10 H16 O4
##MW=200
##$NIST SOURCE=MSDC
##XUNITS=M/Z
##YUNITS=RELATIVE INTENSITY
##XFACTOR=1
##YFACTOR=1
##FIRSTX=14
##LASTX=185
##FIRSTY=10
##MAXX=185
##MINX=14
##MAXY=9999
##MINY=10
##NPOINTS=135
##PEAK TABLE=(XY..XY)
14,10 15,189 16,10 17,30
18,99 26,119 27,1969 28,219
29,1509 30,40 37,40 38,139
39,2579 40,469 41,6229 42,519
43,1979 44,90 45,789 46,40
47,40 49,10 50,129 51,389
52,169 53,1379 54,529 55,3369
56,489 57,389 58,119 59,2129
60,119 61,30 62,50 63,119
64,30 65,379 66,169 67,2699
68,6979 69,3969 70,959 71,379
72,80 73,599 74,139 75,20
76,10 77,509 78,129 79,579
80,199 81,929 82,2329 83,2139
84,359 85,489 86,299 87,1909
88,129 89,20 90,20 91,439
92,70 93,1469 94,379 95,3069
96,3169 97,619 98,309 99,929
100,679 101,399 102,20 103,20
105,70 106,20 107,359 108,3779
109,6379 110,859 111,1129 112,449
113,919 114,1299 115,229 116,20
118,20 119,50 120,60 121,669
122,209 123,259 124,249 125,409
126,249 127,109 128,80 129,10
131,60 134,10 135,169 136,9999
137,1749 138,709 139,1799 140,859
141,119 142,80 143,10 146,80
147,10 148,20 149,279 150,30
151,10 152,20 153,50 154,6189
155,739 156,99 157,30 163,10
164,4169 165,499 166,40 167,179
168,20 172,99 173,10 182,979
183,139 184,10 185,20
##END=
