##TITLE=Octadecanamide
##JCAMP-DX=4.24
##DATA TYPE=MASS SPECTRUM
##ORIGIN=Japan AIST/NIMC Database- Spectrum MS-NW-6024
##OWNER=NIST Mass Spectrometry Data Center
Collection (C) 2014 copyright by the U.S. Secretary of Commerce
on behalf of the United States of America. All rights reserved.
##CAS REGISTRY NO=124-26-5
##$NIST MASS SPEC NO=233208
##MOLFORM=C18 H37 N O
##MW=283
##$NIST SOURCE=MSDC
##XUNITS=M/Z
##YUNITS=RELATIVE INTENSITY
##XFACTOR=1
##YFACTOR=1
##FIRSTX=15
##LASTX=285
##FIRSTY=10
##MAXX=285
##MINX=15
##MAXY=9999
##MINY=10
##NPOINTS=131
##PEAK TABLE=(XY..XY)
15,10 26,10 27,309 28,90
29,829 30,60 39,219 40,50
41,1589 42,319 43,2209 44,739
45,30 46,10 51,10 53,90
54,119 55,1169 56,269 57,1109
58,80 59,9999 60,1139 61,60
65,20 66,10 67,139 68,60
69,559 70,179 71,359 72,4009
73,769 74,99 75,20 77,20
79,40 80,10 81,109 82,80
83,339 84,189 85,179 86,619
87,119 88,10 91,10 93,20
94,10 95,80 96,99 97,309
98,389 99,70 100,199 101,219
102,20 107,10 109,40 110,109
111,139 112,60 113,40 114,569
115,369 116,30 121,20 122,10
123,20 124,80 125,70 126,30
127,20 128,679 129,119 130,10
135,20 137,10 138,40 139,30
140,20 141,10 142,129 143,50
149,10 152,20 153,20 154,20
156,90 157,30 166,20 167,10
168,10 170,119 171,30 180,20
181,10 182,10 184,139 185,40
194,30 195,10 196,10 198,90
199,30 208,30 209,20 210,10
212,90 213,30 222,40 223,20
224,10 226,70 227,30 236,30
237,10 240,229 241,60 254,109
255,99 256,30 265,20 266,30
267,10 268,20 269,10 282,40
283,599 284,179 285,30
##END=
