##TITLE=Hydrocodone
##JCAMP-DX=4.24
##DATA TYPE=MASS SPECTRUM
##ORIGIN=NIST Mass Spectrometry Data Center
##OWNER=NIST Mass Spectrometry Data Center
Collection (C) 2014 copyright by the U.S. Secretary of Commerce
on behalf of the United States of America. All rights reserved.
##CAS REGISTRY NO=125-29-1
##$NIST MASS SPEC NO=352146
##MOLFORM=C18 H21 N O3
##MW=299
##$NIST SOURCE=MSDC
##XUNITS=M/Z
##YUNITS=RELATIVE INTENSITY
##XFACTOR=1
##YFACTOR=1
##FIRSTX=15
##LASTX=302
##FIRSTY=110
##MAXX=302
##MINX=15
##MAXY=9999
##MINY=10
##NPOINTS=243
##PEAK TABLE=(XY..XY)
15,110 26,20 27,230 28,200
29,170 30,440 31,601 37,10
38,30 39,520 40,80 41,581
42,3363 43,400 44,1481 45,70
48,10 50,150 51,581 52,200
53,450 54,250 55,1171 56,330
57,1031 58,611 59,3003 60,450
61,20 62,120 63,601 64,220
65,591 66,140 67,280 68,510
69,170 70,1772 71,160 72,90
74,110 75,280 76,310 77,1191
78,390 79,290 80,210 81,320
82,1501 83,490 84,621 85,100
86,110 87,140 88,170 89,611
91,991 92,240 93,160 94,671
95,200 96,3513 97,360 98,180
99,160 101,240 102,631 103,801
104,230 105,250 106,200 107,320
108,260 109,120 110,220 111,130
112,140 113,320 114,721 115,3623
116,841 117,530 118,260 119,150
120,310 121,591 123,50 124,360
125,70 126,380 127,1501 128,2602
129,1031 130,350 131,651 132,320
133,160 134,500 135,130 136,190
137,130 138,60 139,561 140,270
141,1061 142,500 143,581 144,821
145,540 146,260 147,140 148,130
151,180 152,631 153,691 154,390
155,1001 156,520 157,661 158,561
159,500 160,260 161,430 162,611
163,130 164,80 165,330 166,160
167,260 168,611 169,671 170,811
171,821 172,410 173,510 174,450
175,591 176,200 177,70 178,80
179,70 180,90 181,601 182,380
183,691 184,641 185,2983 186,871
187,641 188,1111 189,270 190,130
191,40 192,20 193,40 194,160
195,170 196,460 197,651 198,1111
199,1531 200,851 201,641 202,360
203,100 204,40 205,20 206,10
207,30 208,40 209,100 210,210
211,290 212,1742 213,1291 214,2662
215,701 216,230 217,150 218,40
219,10 220,10 221,10 222,40
223,60 224,230 225,350 226,430
227,520 228,2212 229,581 230,510
231,80 232,10 234,10 235,10
236,20 237,20 238,110 239,90
240,1041 241,500 242,5185 243,3453
244,671 245,80 246,10 249,10
250,10 251,10 252,80 253,50
254,250 255,130 256,1061 257,230
258,50 259,10 264,10 265,10
266,40 267,30 268,100 269,50
270,1091 271,450 272,70 273,10
280,40 281,10 282,130 283,40
284,1301 285,240 286,30 295,10
296,10 297,60 298,1041 299,9999
300,1982 301,250 302,20
##END=
