##TITLE=Primidone
##JCAMP-DX=4.24
##DATA TYPE=MASS SPECTRUM
##ORIGIN=Japan AIST/NIMC Database- Spectrum MS-IW-4279
##OWNER=NIST Mass Spectrometry Data Center
Collection (C) 2014 copyright by the U.S. Secretary of Commerce
on behalf of the United States of America. All rights reserved.
##CAS REGISTRY NO=125-33-7
##$NIST MASS SPEC NO=244337
##MOLFORM=C12 H14 N2 O2
##MW=218
##$NIST SOURCE=MSDC
##XUNITS=M/Z
##YUNITS=RELATIVE INTENSITY
##XFACTOR=1
##YFACTOR=1
##FIRSTX=15
##LASTX=220
##FIRSTY=20
##MAXX=220
##MINX=15
##MAXY=9999
##MINY=10
##NPOINTS=142
##PEAK TABLE=(XY..XY)
15,20 26,30 27,169 28,39
29,149 30,629 31,10 36,40
37,10 38,40 39,349 40,30
41,159 42,109 43,609 44,129
45,40 46,20 50,129 51,439
52,99 53,50 54,40 55,60
56,159 57,90 58,199 59,30
61,10 62,80 63,309 64,80
65,269 66,40 67,20 68,10
69,40 70,20 71,60 72,10
73,70 74,60 75,70 76,129
77,779 78,349 79,80 80,20
81,10 82,30 83,20 84,10
85,20 86,30 87,60 88,50
89,479 90,289 91,1419 92,129
93,20 94,10 95,20 96,10
97,30 98,10 99,10 100,10
101,40 102,179 103,1399 104,509
105,169 106,99 107,10 109,10
110,10 111,10 112,50 113,30
114,30 115,1269 116,489 117,4979
118,2809 119,589 120,60 125,119
126,10 127,80 128,129 129,90
130,70 131,469 132,619 133,149
134,70 135,20 139,10 140,90
141,50 142,80 143,159 144,239
145,439 146,9839 147,1549 148,119
149,20 153,10 154,30 155,20
156,50 157,80 158,40 159,30
160,509 161,2709 162,349 163,40
171,10 172,189 173,109 174,719
175,409 176,60 177,10 186,30
187,10 188,40 189,2849 190,9999
191,1169 192,99 193,10 201,10
203,99 204,20 217,70 218,609
219,129 220,10
##END=
