##TITLE=Vinbarbital
##JCAMP-DX=4.24
##DATA TYPE=MASS SPECTRUM
##ORIGIN=Virginia Division of Forensic Science
##OWNER=NIST Mass Spectrometry Data Center
Collection (C) 2014 copyright by the U.S. Secretary of Commerce
on behalf of the United States of America. All rights reserved.
##CAS REGISTRY NO=125-42-8
##$NIST MASS SPEC NO=250623
##MOLFORM=C11 H16 N2 O3
##MW=224
##$NIST SOURCE=MSDC
##XUNITS=M/Z
##YUNITS=RELATIVE INTENSITY
##XFACTOR=1
##YFACTOR=1
##FIRSTX=15
##LASTX=224
##FIRSTY=60
##MAXX=224
##MINX=15
##MAXY=9999
##MINY=10
##NPOINTS=142
##PEAK TABLE=(XY..XY)
15,60 16,10 17,10 18,10
26,40 27,360 28,110 29,290
30,20 31,10 37,10 38,60
39,740 40,140 41,1040 42,140
43,230 44,310 45,10 46,10
50,70 51,200 52,150 53,550
54,120 55,360 56,50 57,70
58,10 59,10 61,10 62,30
63,80 64,40 65,300 66,240
67,850 68,150 69,640 70,320
71,10 72,10 73,10 74,10
75,10 77,480 78,120 79,630
80,210 81,380 82,100 83,70
84,40 85,60 86,10 87,10
89,10 90,20 91,250 92,60
93,280 94,140 95,310 96,180
97,100 98,260 99,10 100,10
102,10 103,10 104,10 105,20
106,130 107,200 108,190 109,260
110,150 111,20 112,60 113,20
114,20 115,10 116,10 117,10
118,10 119,10 120,40 121,60
122,60 123,210 124,420 125,150
126,10 127,10 128,10 129,20
131,10 132,10 134,340 135,1121
136,210 137,50 138,190 139,40
141,1251 142,70 143,10 148,10
149,10 150,30 152,920 153,230
154,20 155,70 156,80 157,50
158,10 160,10 162,10 163,10
164,10 165,20 166,30 167,130
168,10 169,10 177,50 178,20
179,50 180,10 181,80 182,10
191,10 195,9999 196,1090 197,110
198,10 207,10 209,20 210,10
223,10 224,10
##END=
