##TITLE=Levomethorphan
##JCAMP-DX=4.24
##DATA TYPE=MASS SPECTRUM
##ORIGIN=EQUINE DRUG TESTING PROG. J.D.HENION,ETAL CORNELL U, ITHACA, NY
##OWNER=NIST Mass Spectrometry Data Center
Collection (C) 2014 copyright by the U.S. Secretary of Commerce
on behalf of the United States of America. All rights reserved.
##CAS REGISTRY NO=125-70-2
##$NIST MASS SPEC NO=74593
##MOLFORM=C18 H25 N O
##MW=271
##$NIST SOURCE=MSDC
##XUNITS=M/Z
##YUNITS=RELATIVE INTENSITY
##XFACTOR=1
##YFACTOR=1
##FIRSTX=41
##LASTX=272
##FIRSTY=950
##MAXX=272
##MINX=41
##MAXY=9999
##MINY=150
##NPOINTS=112
##PEAK TABLE=(XY..XY)
41,950 42,2240 43,770 44,1550
45,3390 51,190 52,220 55,570
56,350 57,530 58,2520 59,9999
60,750 63,160 65,250 67,280
68,170 69,150 70,450 71,230
72,210 73,1660 74,610 75,210
77,500 78,230 79,300 81,220
82,610 83,230 87,270 89,160
91,620 92,160 94,320 95,220
96,200 102,240 103,190 107,300
108,270 114,190 115,1480 116,370
117,280 120,230 121,580 122,430
123,320 127,720 128,1810 129,780
130,270 131,360 132,150 134,260
135,410 139,270 141,980 142,380
143,360 144,460 145,390 146,440
147,340 148,490 149,300 150,3870
151,490 152,450 153,580 154,310
155,290 156,320 157,420 158,500
159,550 160,410 161,340 162,450
165,320 166,190 167,250 168,170
169,280 170,350 171,2730 172,1370
173,360 174,620 175,420 183,300
184,570 185,460 186,210 188,160
198,260 199,260 200,150 202,180
203,740 211,180 212,1410 213,1250
214,2880 215,540 228,220 242,250
256,220 270,1030 271,2010 272,380
##END=
