##TITLE=Valeric acid, pentadecyl ester
##JCAMP-DX=4.24
##DATA TYPE=MASS SPECTRUM
##ORIGIN=V.Zaikin,Topchiev Inst.Petrochem.Synth.,Moscow
##OWNER=NIST Mass Spectrometry Data Center
Collection (C) 2014 copyright by the U.S. Secretary of Commerce
on behalf of the United States of America. All rights reserved.
##CAS REGISTRY NO=125164-53-6
##$NIST MASS SPEC NO=281762
##MOLFORM=C20 H40 O2
##MW=312
##$NIST SOURCE=MSDC
##XUNITS=M/Z
##YUNITS=RELATIVE INTENSITY
##XFACTOR=1
##YFACTOR=1
##FIRSTX=27
##LASTX=269
##FIRSTY=2562
##MAXX=269
##MINX=27
##MAXY=9999
##MINY=20
##NPOINTS=123
##PEAK TABLE=(XY..XY)
27,2562 28,440 29,4764 30,150
31,230 33,40 35,60 36,180
37,40 38,160 39,2042 40,440
41,9999 42,2502 43,9178 44,1141
45,240 46,70 47,40 49,20
50,150 51,190 52,110 53,611
54,1181 55,7977 56,3393 57,9679
58,550 59,230 60,981 61,520
63,30 65,180 66,30 67,1191
68,1461 69,3883 70,2632 71,2863
72,160 73,921 74,60 75,150
76,110 77,130 79,130 80,60
81,561 82,1521 83,3723 84,1772
85,7417 86,500 87,100 89,30
91,40 92,30 93,60 94,30
95,330 96,711 97,2873 98,1131
99,190 100,80 101,290 102,1101
103,9749 104,500 105,100 106,40
109,110 110,180 111,1181 112,761
113,170 115,130 116,180 117,60
121,40 123,60 124,170 125,510
126,530 127,90 129,90 135,30
138,100 139,250 140,460 141,150
143,50 152,60 153,130 154,180
155,210 156,50 157,20 158,50
159,30 167,50 168,180 169,60
172,50 173,500 174,30 180,40
181,40 182,310 183,40 184,20
187,20 196,30 206,40 208,50
210,561 211,80 212,30 240,30
255,100 256,70 269,40
##END=
