##TITLE=Valeric acid, tetradecyl ester
##JCAMP-DX=4.24
##DATA TYPE=MASS SPECTRUM
##ORIGIN=V.Zaikin,Topchiev Inst.Petrochem.Synth.,Moscow
##OWNER=NIST Mass Spectrometry Data Center
Collection (C) 2014 copyright by the U.S. Secretary of Commerce
on behalf of the United States of America. All rights reserved.
##CAS REGISTRY NO=125164-52-5
##$NIST MASS SPEC NO=281761
##MOLFORM=C19 H38 O2
##MW=298
##$NIST SOURCE=MSDC
##XUNITS=M/Z
##YUNITS=RELATIVE INTENSITY
##XFACTOR=1
##YFACTOR=1
##FIRSTX=27
##LASTX=256
##FIRSTY=3033
##MAXX=256
##MINX=27
##MAXY=9999
##MINY=20
##NPOINTS=101
##PEAK TABLE=(XY..XY)
27,3033 28,841 29,5135 30,150
31,150 36,50 37,60 38,130
39,1631 40,410 41,8568 42,2282
43,8067 44,791 45,300 46,30
49,30 50,100 51,180 52,60
53,530 54,1041 55,6996 56,3683
57,9999 58,561 59,140 60,741
61,430 62,20 63,20 65,100
66,100 67,971 68,1101 69,3653
70,2352 71,2142 72,150 73,711
74,60 75,200 77,110 78,40
79,110 80,60 81,550 82,1301
83,3173 84,1591 85,6075 86,330
87,110 88,30 91,30 94,30
95,180 96,490 97,1982 98,951
99,210 100,70 101,190 102,781
103,8097 104,561 105,70 109,50
110,230 111,991 112,601 113,150
115,60 116,210 123,30 124,100
125,530 126,380 127,120 129,60
130,30 138,40 139,200 140,260
141,60 143,60 153,90 154,120
155,40 158,90 167,70 168,440
169,60 195,30 196,721 197,100
206,20 211,20 241,90 242,20
256,20
##END=
