##TITLE=Cobalt, hexacarbonyl(ethyne)di-
##JCAMP-DX=4.24
##DATA TYPE=MASS SPECTRUM
##ORIGIN=G. A. VAGLIO
##OWNER=NIST Mass Spectrometry Data Center
Collection (C) 2014 copyright by the U.S. Secretary of Commerce
on behalf of the United States of America. All rights reserved.
##CAS REGISTRY NO=12553-66-1
##$NIST MASS SPEC NO=41163
##MOLFORM=C8 H2 Co2 O6
##MW=312
##$NIST SOURCE=MSDC
##XUNITS=M/Z
##YUNITS=RELATIVE INTENSITY
##XFACTOR=1
##YFACTOR=1
##FIRSTX=59
##LASTX=312
##FIRSTY=8800
##MAXX=312
##MINX=59
##MAXY=9999
##MINY=300
##NPOINTS=23
##PEAK TABLE=(XY..XY)
59,8800 71,600 83,500 84,1900
85,1400 87,5100 113,600 115,1700
118,8600 130,400 142,2300 143,7100
144,6800 146,1000 171,1400 172,9999
174,800 200,1000 228,3300 230,300
256,2200 284,6500 312,2900
##END=
