##TITLE=Cobalt, decacarbonyl(ethynylbenzene)tetra-
##JCAMP-DX=4.24
##DATA TYPE=MASS SPECTRUM
##ORIGIN=G.R.TAILBY MONASH UNIVERSITY, CLAYTON, VICTORIA, AUSTRALIA.
##OWNER=NIST Mass Spectrometry Data Center
Collection (C) 2014 copyright by the U.S. Secretary of Commerce
on behalf of the United States of America. All rights reserved.
##CAS REGISTRY NO=12568-53-5
##$NIST MASS SPEC NO=18541
##MOLFORM=C18 H6 Co4 O10
##MW=618
##$NIST SOURCE=MSDC
##XUNITS=M/Z
##YUNITS=RELATIVE INTENSITY
##XFACTOR=1
##YFACTOR=1
##FIRSTX=28
##LASTX=618
##FIRSTY=9999
##MAXX=618
##MINX=28
##MAXY=9999
##MINY=300
##NPOINTS=48
##PEAK TABLE=(XY..XY)
28,9999 59,4300 63,3700 64,2600
65,3500 76,2600 77,8600 78,5300
91,7000 92,4500 102,1700 103,1300
104,1500 115,5600 118,3100 128,2500
139,2400 141,3700 149,2400 161,2700
165,1700 168,2700 179,1700 184,1400
193,1500 203,800 215,500 220,1900
231,700 233,900 248,3300 260,800
276,1200 304,500 332,500 338,1300
360,800 366,700 388,300 394,600
422,700 450,900 478,1000 506,700
534,500 562,300 590,600 618,400
##END=
