##TITLE=Selenium hexamer
##JCAMP-DX=4.24
##DATA TYPE=MASS SPECTRUM
##ORIGIN=A.A.Kutin, Moscow, Russia
##OWNER=NIST Mass Spectrometry Data Center
Collection (C) 2014 copyright by the U.S. Secretary of Commerce
on behalf of the United States of America. All rights reserved.
##CAS REGISTRY NO=12597-30-7
##$NIST MASS SPEC NO=275657
##MOLFORM=Se6
##MW=480
##$NIST SOURCE=MSDC
##XUNITS=M/Z
##YUNITS=RELATIVE INTENSITY
##XFACTOR=1
##YFACTOR=1
##FIRSTX=40
##LASTX=484
##FIRSTY=20
##MAXX=484
##MINX=40
##MAXY=9999
##MINY=10
##NPOINTS=89
##PEAK TABLE=(XY..XY)
40,20 64,40 74,120 76,1261
77,991 78,3353 80,6956 82,1101
110,40 112,90 150,30 151,70
152,460 153,501 154,2002 155,1291
156,5154 157,2673 158,8758 159,641
160,9999 162,3133 163,10 164,320
230,100 231,110 232,360 233,310
234,831 235,501 236,1441 237,581
238,1802 239,200 240,1572 242,631
244,100 309,10 310,120 311,130
312,280 313,220 314,490 315,260
316,681 317,250 318,731 319,70
320,541 322,220 324,30 386,90
387,120 388,240 389,280 390,541
391,490 392,991 393,751 394,1481
395,811 396,1732 397,621 398,1572
399,260 400,1111 401,40 402,490
404,130 464,50 465,70 466,130
467,160 468,280 469,310 470,561
471,470 472,841 473,591 474,1011
475,571 476,1101 477,380 478,911
479,180 480,571 481,10 482,270
484,80
##END=
