##TITLE=Smilagenin
##JCAMP-DX=4.24
##DATA TYPE=MASS SPECTRUM
##ORIGIN=LAC, NIDDK, NIH, Bethesda, MD 20892
##OWNER=NIST Mass Spectrometry Data Center
Collection (C) 2014 copyright by the U.S. Secretary of Commerce
on behalf of the United States of America. All rights reserved.
##CAS REGISTRY NO=126-18-1
##$NIST MASS SPEC NO=127018
##MOLFORM=C27 H44 O3
##MW=416
##$NIST SOURCE=MSDC
##XUNITS=M/Z
##YUNITS=RELATIVE INTENSITY
##XFACTOR=1
##YFACTOR=1
##FIRSTX=41
##LASTX=418
##FIRSTY=1229
##MAXX=418
##MINX=41
##MAXY=9999
##MINY=10
##NPOINTS=230
##PEAK TABLE=(XY..XY)
41,1229 42,718 43,994 44,117
45,60 47,70 48,11 49,308
51,119 53,270 54,21 55,2239
56,350 57,644 58,72 59,51
65,96 67,1093 68,29 69,2509
70,329 71,183 72,48 73,135
74,44 77,314 78,14 79,1077
80,19 81,1370 82,96 83,494
84,248 85,136 86,122 87,21
88,36 91,871 92,132 93,1389
94,138 95,1248 96,201 97,609
98,50 99,180 100,37 101,35
103,43 105,890 106,126 107,1368
108,638 109,853 110,203 111,174
112,88 113,129 114,435 115,1987
116,73 117,301 119,669 120,353
121,853 122,1130 123,321 124,370
125,362 126,470 127,174 128,117
129,102 131,392 132,12 133,732
134,257 135,538 136,176 137,141
139,9999 140,1191 141,160 142,84
143,127 144,58 145,404 146,77
147,835 148,133 149,419 150,72
151,86 152,39 153,46 155,94
156,21 157,116 158,50 159,384
160,163 161,535 162,151 163,253
164,48 165,210 166,29 167,144
168,257 169,82 171,131 172,53
173,257 174,122 175,219 176,562
177,289 178,80 179,86 180,35
181,83 182,41 183,42 185,125
186,40 187,161 188,60 189,118
190,234 191,70 192,11 193,29
195,30 197,42 199,158 200,56
201,191 202,419 203,170 204,33
205,40 206,13 207,26 211,29
213,94 214,32 215,330 216,240
217,174 218,270 219,117 220,31
221,38 225,26 227,80 229,371
230,138 231,33 232,370 233,177
234,162 235,46 239,49 241,92
242,29 243,108 244,66 245,392
246,116 247,163 248,29 253,95
255,1247 256,244 257,61 258,31
259,44 260,22 261,24 263,11
269,931 270,197 271,129 273,5698
274,1094 275,147 276,31 284,945
285,356 287,3542 288,672 289,113
291,40 299,12 300,58 302,5118
303,1105 304,144 311,47 313,130
314,27 317,145 318,31 328,270
329,587 330,137 331,23 344,2195
345,537 346,213 347,752 348,172
349,12 357,729 358,190 359,27
383,57 384,10 386,231 387,78
388,33 397,22 398,11 399,28
401,133 402,29 414,34 416,2636
417,745 418,131
##END=
