##TITLE=1,3-Cyclohexanedione, 5,5-dimethyl-
##JCAMP-DX=4.24
##DATA TYPE=MASS SPECTRUM
##ORIGIN=Japan AIST/NIMC Database- Spectrum MS-NW-1675
##OWNER=NIST Mass Spectrometry Data Center
Collection (C) 2014 copyright by the U.S. Secretary of Commerce
on behalf of the United States of America. All rights reserved.
##CAS REGISTRY NO=126-81-8
##$NIST MASS SPEC NO=229668
##MOLFORM=C8 H12 O2
##MW=140
##$NIST SOURCE=MSDC
##XUNITS=M/Z
##YUNITS=RELATIVE INTENSITY
##XFACTOR=1
##YFACTOR=1
##FIRSTX=14
##LASTX=142
##FIRSTY=90
##MAXX=142
##MINX=14
##MAXY=9999
##MINY=10
##NPOINTS=63
##PEAK TABLE=(XY..XY)
14,90 15,199 17,10 18,30
26,129 27,1259 28,479 29,1059
30,20 31,20 37,40 38,149
39,1609 40,409 41,2979 42,1389
43,1549 44,40 48,10 49,10
50,109 51,179 52,80 53,419
54,199 55,4569 56,6539 57,429
58,40 59,40 62,20 63,30
65,30 66,20 67,80 68,60
69,479 70,1429 71,90 72,10
73,10 77,30 79,60 80,10
81,20 82,119 83,9999 84,1749
85,109 86,10 94,10 95,10
96,10 97,749 98,60 111,30
112,1909 113,149 125,229 126,20
140,2459 141,219 142,20
##END=
