##TITLE=Propane, 2,2-diethoxy-
##JCAMP-DX=4.24
##DATA TYPE=MASS SPECTRUM
##ORIGIN=RADIAN CORP
##OWNER=NIST Mass Spectrometry Data Center
Collection (C) 2014 copyright by the U.S. Secretary of Commerce
on behalf of the United States of America. All rights reserved.
##CAS REGISTRY NO=126-84-1
##$NIST MASS SPEC NO=71247
##MOLFORM=C7 H16 O2
##MW=132
##$NIST SOURCE=MSDC
##XUNITS=M/Z
##YUNITS=RELATIVE INTENSITY
##XFACTOR=1
##YFACTOR=1
##FIRSTX=15
##LASTX=118
##FIRSTY=210
##MAXX=118
##MINX=15
##MAXY=9999
##MINY=10
##NPOINTS=30
##PEAK TABLE=(XY..XY)
15,210 26,130 27,990 28,90
29,1750 30,210 31,1050 38,20
39,430 40,80 41,700 42,430
43,3520 44,110 45,360 46,10
57,170 58,630 59,9999 60,340
61,2350 62,40 75,20 86,200
87,6620 88,360 89,720 90,10
117,900 118,50
##END=
