##TITLE=Tributyl phosphate
##JCAMP-DX=4.24
##DATA TYPE=MASS SPECTRUM
##ORIGIN=NIST Mass Spectrometry Data Center
##OWNER=NIST Mass Spectrometry Data Center
Collection (C) 2014 copyright by the U.S. Secretary of Commerce
on behalf of the United States of America. All rights reserved.
##CAS REGISTRY NO=126-73-8
##$NIST MASS SPEC NO=341663
##MOLFORM=C12 H27 O4 P
##MW=266
##$NIST SOURCE=MSDC
##XUNITS=M/Z
##YUNITS=RELATIVE INTENSITY
##XFACTOR=1
##YFACTOR=1
##FIRSTX=26
##LASTX=237
##FIRSTY=10
##MAXX=237
##MINX=26
##MAXY=9999
##MINY=10
##NPOINTS=62
##PEAK TABLE=(XY..XY)
26,10 27,230 29,721 30,10
31,40 39,240 40,30 41,1411
42,80 43,170 44,30 45,70
47,10 51,10 53,70 54,100
55,581 56,400 57,1421 58,60
65,40 67,10 69,10 71,20
73,10 81,140 82,160 83,120
93,10 95,10 96,10 99,9999
100,10 101,90 109,20 111,310
112,190 113,200 119,10 123,10
124,10 125,851 126,60 127,210
137,581 138,30 139,120 153,150
154,60 155,2052 156,90 157,10
167,170 168,10 169,10 181,40
183,80 209,10 211,851 212,70
223,10 237,10
##END=
