##TITLE=O,O,O-Triethyl thiophosphate
##JCAMP-DX=4.24
##DATA TYPE=MASS SPECTRUM
##ORIGIN=NIST Mass Spectrometry Data Center, 1998.
##OWNER=NIST Mass Spectrometry Data Center
Collection (C) 2014 copyright by the U.S. Secretary of Commerce
on behalf of the United States of America. All rights reserved.
##CAS REGISTRY NO=126-68-1
##$NIST MASS SPEC NO=291601
##MOLFORM=C6 H15 O3 P S
##MW=198
##$NIST SOURCE=MSDC
##XUNITS=M/Z
##YUNITS=RELATIVE INTENSITY
##XFACTOR=1
##YFACTOR=1
##FIRSTX=15
##LASTX=200
##FIRSTY=90
##MAXX=200
##MINX=15
##MAXY=9999
##MINY=20
##NPOINTS=83
##PEAK TABLE=(XY..XY)
15,90 26,230 27,1990 29,3320
30,120 31,180 33,70 35,110
41,90 42,80 43,840 44,170
45,2390 46,140 47,970 48,160
49,40 59,280 60,640 61,500
62,110 63,250 64,50 65,5709
75,20 76,100 77,50 79,250
80,290 81,2730 82,500 83,290
91,920 92,150 93,7069 94,200
95,150 96,630 97,6709 98,700
99,460 107,20 108,200 109,4270
110,200 111,300 112,20 113,1260
114,4270 115,5089 116,270 117,250
121,9999 122,520 123,160 124,80
125,1950 126,3710 127,350 128,200
137,880 138,80 139,180 140,80
141,560 142,2250 143,2750 144,210
145,150 153,1440 154,1860 155,200
156,70 166,50 169,60 170,1590
171,1010 172,130 173,50 197,140
198,8799 199,710 200,470
##END=
