##TITLE=Ethinamate
##JCAMP-DX=4.24
##DATA TYPE=MASS SPECTRUM
##ORIGIN=NIST Mass Spectrometry Data Center
##OWNER=NIST Mass Spectrometry Data Center
Collection (C) 2014 copyright by the U.S. Secretary of Commerce
on behalf of the United States of America. All rights reserved.
##CAS REGISTRY NO=126-52-3
##$NIST MASS SPEC NO=352163
##MOLFORM=C9 H13 N O2
##MW=167
##$NIST SOURCE=MSDC
##XUNITS=M/Z
##YUNITS=RELATIVE INTENSITY
##XFACTOR=1
##YFACTOR=1
##FIRSTX=15
##LASTX=167
##FIRSTY=40
##MAXX=167
##MINX=15
##MAXY=9999
##MINY=10
##NPOINTS=89
##PEAK TABLE=(XY..XY)
15,40 16,70 17,50 25,10
26,150 27,1161 28,320 29,851
30,30 31,70 32,10 37,70
38,270 39,3733 40,1001 41,2843
42,791 43,2823 44,2342 45,150
46,10 49,50 50,921 51,2182
52,1071 53,4564 54,1001 55,3513
56,350 57,180 58,40 59,10
61,80 62,561 63,801 64,240
65,2072 66,991 67,3964 68,3894
69,641 70,260 71,20 73,20
74,140 75,100 76,140 77,2823
78,3894 79,4724 80,2402 81,9118
82,1641 83,490 84,40 85,10
86,10 87,20 89,110 91,9999
92,961 93,571 94,200 95,6436
96,2742 97,260 98,50 99,20
101,10 102,70 103,470 104,110
105,2212 106,7347 107,1892 108,180
109,3974 110,280 111,20 112,10
113,10 121,20 122,20 123,851
124,931 125,90 126,10 136,10
167,10
##END=
