##TITLE=Solasodine
##JCAMP-DX=4.24
##DATA TYPE=MASS SPECTRUM
##ORIGIN=LAC, NIDDK, NIH, Bethesda, MD 20892
##OWNER=NIST Mass Spectrometry Data Center
Collection (C) 2014 copyright by the U.S. Secretary of Commerce
on behalf of the United States of America. All rights reserved.
##CAS REGISTRY NO=126-17-0
##$NIST MASS SPEC NO=255294
##MOLFORM=C27 H43 N O2
##MW=413
##$NIST SOURCE=MSDC
##XUNITS=M/Z
##YUNITS=RELATIVE INTENSITY
##XFACTOR=1
##YFACTOR=1
##FIRSTX=41
##LASTX=416
##FIRSTY=892
##MAXX=416
##MINX=41
##MAXY=9999
##MINY=9
##NPOINTS=190
##PEAK TABLE=(XY..XY)
41,892 42,344 43,733 44,195
45,33 51,10 53,239 54,222
55,1106 56,204 57,412 58,102
59,10 65,81 67,554 68,293
69,404 70,250 71,79 72,27
73,27 77,282 78,39 79,709
81,678 82,176 83,165 84,165
85,31 86,57 91,678 92,117
93,524 94,189 95,394 96,278
97,129 98,400 99,22 103,46
104,56 105,659 106,148 107,456
108,176 109,222 110,237 111,508
113,5720 114,9999 115,648 116,88
117,238 118,78 119,329 120,156
121,301 122,179 123,112 124,626
125,619 126,147 127,21 128,76
129,142 130,69 131,271 132,72
133,305 134,100 135,98 136,114
137,25 138,5182 139,798 141,144
142,82 143,254 144,105 145,271
146,72 147,169 148,90 149,89
150,109 151,23 152,376 153,83
154,38 155,69 156,42 157,202
158,119 159,273 160,93 161,162
162,148 163,82 164,145 165,50
166,232 167,66 168,93 169,70
170,28 171,136 172,59 173,103
174,52 175,114 176,84 177,36
178,121 180,170 181,37 183,71
184,14 185,77 186,32 187,61
188,27 189,50 190,12 192,91
193,14 194,12 195,10 197,106
198,29 199,111 200,24 201,14
206,10 211,48 212,39 213,74
214,98 215,45 216,10 217,10
225,43 227,45 229,9 230,12
231,11 232,44 234,115 235,9
237,11 241,47 243,10 253,103
254,13 256,12 258,24 260,29
267,174 268,46 271,154 272,27
282,130 283,87 284,14 285,57
286,39 300,50 301,21 314,87
328,20 342,42 355,11 356,52
357,79 358,9 370,100 371,27
384,275 385,772 386,198 387,27
394,14 396,52 398,99 399,32
411,12 412,162 413,991 414,470
415,85 416,12
##END=
