##TITLE=1-Bromo-2,2-dimethoxypropane
##JCAMP-DX=4.24
##DATA TYPE=MASS SPECTRUM
##ORIGIN=NIST Mass Spectrometry Data Center
##OWNER=NIST Mass Spectrometry Data Center
Collection (C) 2014 copyright by the U.S. Secretary of Commerce
on behalf of the United States of America. All rights reserved.
##CAS REGISTRY NO=126-38-5
##$NIST MASS SPEC NO=343175
##MOLFORM=C5 H11 Br O2
##MW=182
##$NIST SOURCE=MSDC
##XUNITS=M/Z
##YUNITS=RELATIVE INTENSITY
##XFACTOR=1
##YFACTOR=1
##FIRSTX=11
##LASTX=169
##FIRSTY=10
##MAXX=169
##MINX=11
##MAXY=9999
##MINY=10
##NPOINTS=64
##PEAK TABLE=(XY..XY)
11,10 12,30 13,70 14,360
15,1882 16,10 17,10 18,10
26,430 27,1992 28,530 29,4124
30,420 31,510 32,100 33,60
37,170 38,440 39,2282 40,530
41,2923 42,2382 43,7797 44,240
45,801 47,761 53,60 54,20
55,170 57,5645 58,280 59,80
71,1251 72,1521 73,771 79,100
80,90 81,130 82,80 87,30
89,9999 90,450 91,100 92,100
93,561 94,100 95,520 97,30
105,20 106,50 107,160 108,20
109,130 119,70 120,70 121,170
122,60 123,120 151,4624 152,520
153,4544 154,180 167,370 169,370
##END=
