##TITLE=2,4,8,10-Tetraoxaspiro[5.5]undecane
##JCAMP-DX=4.24
##DATA TYPE=MASS SPECTRUM
##ORIGIN=RADIAN CORP
##OWNER=NIST Mass Spectrometry Data Center
Collection (C) 2014 copyright by the U.S. Secretary of Commerce
on behalf of the United States of America. All rights reserved.
##CAS REGISTRY NO=126-54-5
##$NIST MASS SPEC NO=73001
##MOLFORM=C7 H12 O4
##MW=160
##$NIST SOURCE=MSDC
##XUNITS=M/Z
##YUNITS=RELATIVE INTENSITY
##XFACTOR=1
##YFACTOR=1
##FIRSTX=15
##LASTX=160
##FIRSTY=30
##MAXX=160
##MINX=15
##MAXY=9999
##MINY=10
##NPOINTS=72
##PEAK TABLE=(XY..XY)
15,30 26,50 27,320 28,100
29,1430 30,340 31,1660 32,60
37,50 38,180 39,2640 40,1360
41,3560 42,4540 43,1720 44,850
45,320 47,30 49,10 50,70
51,100 52,70 53,1550 54,660
55,1030 56,270 57,830 58,90
59,280 60,10 61,1150 62,20
66,20 67,110 68,320 69,6100
70,5960 71,3770 72,910 73,230
74,30 75,20 79,180 81,280
82,1440 83,2130 84,2560 85,410
86,80 87,290 89,80 94,60
95,130 96,120 97,130 98,230
99,7430 100,9999 101,820 102,120
103,20 111,200 112,2380 113,250
114,30 115,20 129,260 130,1250
131,80 142,30 159,1320 160,110
##END=
