##TITLE=Demeton-S
##JCAMP-DX=4.24
##DATA TYPE=MASS SPECTRUM
##ORIGIN=NIST Mass Spectrometry Data Center, 1990.
##OWNER=NIST Mass Spectrometry Data Center
Collection (C) 2014 copyright by the U.S. Secretary of Commerce
on behalf of the United States of America. All rights reserved.
##CAS REGISTRY NO=126-75-0
##$NIST MASS SPEC NO=118985
##MOLFORM=C8 H19 O3 P S2
##MW=258
##$NIST SOURCE=MSDC
##XUNITS=M/Z
##YUNITS=RELATIVE INTENSITY
##XFACTOR=1
##YFACTOR=1
##FIRSTX=12
##LASTX=260
##FIRSTY=7
##MAXX=260
##MINX=12
##MAXY=9999
##MINY=4
##NPOINTS=129
##PEAK TABLE=(XY..XY)
12,7 13,5 14,31 15,121
26,259 27,1856 28,570 29,2980
30,72 31,64 32,54 33,20
34,46 35,390 36,9 37,17
39,28 40,7 41,152 42,32
43,210 44,7 45,1212 46,324
47,1020 48,74 49,41 50,4
53,25 54,42 55,153 57,61
58,323 59,1421 60,4721 61,1535
62,302 63,114 64,228 65,595
66,41 67,15 71,8 73,238
75,733 76,36 77,61 78,33
79,44 80,8 81,1657 82,115
83,57 84,7 85,32 88,9999
89,1411 90,494 91,545 92,199
93,1178 94,65 95,63 96,114
97,471 98,132 99,56 100,7
101,7 103,6 105,42 106,8
107,24 109,1076 110,60 111,94
113,233 114,1359 115,1246 116,80
117,66 119,13 121,122 122,21
123,33 124,23 126,1152 127,107
128,71 129,17 137,162 138,47
139,149 140,17 141,376 142,839
143,1048 144,81 145,60 146,19
150,9 153,20 155,36 156,19
157,115 158,7 159,12 167,8
170,1281 171,548 172,99 173,94
174,12 175,7 183,9 184,7
185,68 187,10 197,50 198,9
199,5 201,14 213,110 214,12
215,15 229,9 258,264 259,27
260,26
##END=
