##TITLE=m-Methoxybenzoic acid, 2-chlorophenyl ester
##JCAMP-DX=4.24
##DATA TYPE=MASS SPECTRUM
##ORIGIN=Zaikin V.G., TIPS RAS, Moscow, Russia
##OWNER=NIST Mass Spectrometry Data Center
Collection (C) 2014 copyright by the U.S. Secretary of Commerce
on behalf of the United States of America. All rights reserved.
##CAS REGISTRY NO=126165-50-2
##$NIST MASS SPEC NO=292629
##MOLFORM=C14 H11 Cl O3
##MW=262
##$NIST SOURCE=MSDC
##XUNITS=M/Z
##YUNITS=RELATIVE INTENSITY
##XFACTOR=1
##YFACTOR=1
##FIRSTX=28
##LASTX=264
##FIRSTY=10
##MAXX=264
##MINX=28
##MAXY=9999
##MINY=10
##NPOINTS=28
##PEAK TABLE=(XY..XY)
28,10 38,30 39,30 50,50
51,30 62,30 63,200 64,290
65,30 73,50 75,50 76,110
77,691 78,60 79,30 92,631
93,40 99,80 107,1191 108,100
128,60 135,9999 136,741 137,60
152,30 262,400 263,60 264,130
##END=
