##TITLE=Retinol, acetate
##JCAMP-DX=4.24
##DATA TYPE=MASS SPECTRUM
##ORIGIN=Japan AIST/NIMC Database- Spectrum MS-NW-4783
##OWNER=NIST Mass Spectrometry Data Center
Collection (C) 2014 copyright by the U.S. Secretary of Commerce
on behalf of the United States of America. All rights reserved.
##CAS REGISTRY NO=127-47-9
##$NIST MASS SPEC NO=233347
##MOLFORM=C22 H32 O2
##MW=328
##$NIST SOURCE=MSDC
##XUNITS=M/Z
##YUNITS=RELATIVE INTENSITY
##XFACTOR=1
##YFACTOR=1
##FIRSTX=12
##LASTX=330
##FIRSTY=40
##MAXX=330
##MINX=12
##MAXY=9999
##MINY=10
##NPOINTS=267
##PEAK TABLE=(XY..XY)
12,40 13,99 14,269 15,1049
16,70 17,20 18,70 25,20
26,80 27,899 28,229 29,1159
30,30 31,109 32,20 37,10
38,40 39,1199 40,189 41,3639
42,429 43,4539 44,109 45,2579
46,30 47,10 49,10 50,109
51,529 52,209 53,1249 54,169
55,3389 56,289 57,819 58,40
59,20 60,2109 61,70 62,60
63,259 64,109 65,879 66,239
67,1329 68,209 69,2879 70,239
71,179 72,20 73,109 74,60
75,70 76,109 77,2079 78,559
79,2129 80,669 81,3329 82,389
83,799 84,119 85,159 86,20
87,60 88,30 89,219 90,99
91,3749 92,859 93,3339 94,779
95,2559 96,349 97,269 98,119
99,70 100,20 101,70 102,139
103,509 104,419 105,4639 106,1199
107,2659 108,509 109,1099 110,159
111,319 112,129 113,119 114,40
115,1109 116,519 117,1499 118,709
119,5039 120,1769 121,3359 122,1099
123,1169 124,159 125,70 126,199
127,349 128,1049 129,1529 130,769
131,2549 132,2749 133,2409 134,1139
135,769 136,229 137,609 138,90
139,80 140,40 141,839 142,889
143,2059 144,1799 145,5389 146,1379
147,1489 148,559 149,469 150,99
151,60 152,239 153,389 154,269
155,1059 156,769 157,2379 158,839
159,2239 160,489 161,1919 162,399
163,119 164,109 165,539 166,229
167,409 168,339 169,1099 170,589
171,1469 172,669 173,1509 174,459
175,689 176,549 177,279 178,149
179,199 180,139 181,349 182,319
183,2149 184,639 185,1229 186,469
187,579 188,249 189,409 190,90
191,80 192,70 193,129 194,99
195,289 196,219 197,2269 198,749
199,859 200,289 201,119 202,60
203,50 204,30 205,949 206,189
207,90 208,60 209,189 210,169
211,669 212,1019 213,459 214,109
215,70 216,30 217,20 218,30
219,30 220,309 221,80 222,40
223,139 224,80 225,529 226,139
227,80 228,40 229,20 230,10
231,10 232,20 233,10 234,10
235,20 236,20 237,80 238,90
239,149 240,109 241,70 242,20
243,30 244,10 245,30 246,20
247,30 248,20 249,40 250,20
251,119 252,70 253,1939 254,429
255,549 256,149 257,30 258,20
259,20 260,20 261,10 262,40
263,20 264,70 265,30 266,189
267,109 268,9999 269,2429 270,659
271,139 272,20 274,10 278,10
279,10 280,30 281,10 282,30
283,10 284,119 285,60 286,30
287,10 313,30 314,10 327,10
328,1179 329,309 330,40
##END=
