##TITLE=2-Phenyl-3-butyn-2-ol
##JCAMP-DX=4.24
##DATA TYPE=MASS SPECTRUM
##ORIGIN=NIST Mass Spectrometry Data Center, 1990.
##OWNER=NIST Mass Spectrometry Data Center
Collection (C) 2014 copyright by the U.S. Secretary of Commerce
on behalf of the United States of America. All rights reserved.
##CAS REGISTRY NO=127-66-2
##$NIST MASS SPEC NO=118146
##MOLFORM=C10 H10 O
##MW=146
##$NIST SOURCE=MSDC
##XUNITS=M/Z
##YUNITS=RELATIVE INTENSITY
##XFACTOR=1
##YFACTOR=1
##FIRSTX=14
##LASTX=147
##FIRSTY=62
##MAXX=147
##MINX=14
##MAXY=9999
##MINY=36
##NPOINTS=68
##PEAK TABLE=(XY..XY)
14,62 15,310 18,36 25,57
26,209 27,407 28,67 29,104
37,115 38,292 39,932 40,109
41,113 42,57 43,1765 44,61
49,160 50,1338 51,2694 52,61
53,9999 54,302 55,77 58,49
61,150 62,372 63,722 64,178
65,301 68,38 69,244 72,54
73,97 74,579 75,538 76,605
77,2504 78,703 79,99 85,61
86,136 87,171 88,84 89,120
91,256 98,87 101,158 102,736
103,1863 104,238 105,452 113,85
114,57 115,336 116,75 117,114
120,54 126,141 127,402 128,615
129,254 130,54 131,8052 132,718
133,49 145,358 146,368 147,57
##END=
