##TITLE=Sulfamerazine
##JCAMP-DX=4.24
##DATA TYPE=MASS SPECTRUM
##ORIGIN=Japan AIST/NIMC Database- Spectrum MS-IW-3383
##OWNER=NIST Mass Spectrometry Data Center
Collection (C) 2014 copyright by the U.S. Secretary of Commerce
on behalf of the United States of America. All rights reserved.
##CAS REGISTRY NO=127-79-7
##$NIST MASS SPEC NO=243985
##MOLFORM=C11 H12 N4 O2 S
##MW=264
##$NIST SOURCE=MSDC
##XUNITS=M/Z
##YUNITS=RELATIVE INTENSITY
##XFACTOR=1
##YFACTOR=1
##FIRSTX=15
##LASTX=264
##FIRSTY=30
##MAXX=264
##MINX=15
##MAXY=9999
##MINY=10
##NPOINTS=123
##PEAK TABLE=(XY..XY)
15,30 26,30 27,99 28,319
29,10 30,10 32,10 37,20
38,99 39,679 40,359 41,299
42,239 43,129 44,20 45,20
48,30 50,40 51,80 52,219
53,189 54,159 55,40 56,10
57,10 61,10 62,60 63,259
64,319 65,2469 66,529 67,239
68,129 69,80 70,10 71,10
73,10 74,20 75,30 76,20
77,30 78,50 79,90 80,209
81,129 82,179 83,30 85,10
86,30 89,20 90,70 91,289
92,3259 93,509 94,139 95,30
96,20 97,20 99,99 100,349
102,10 103,20 104,30 105,60
106,179 107,139 108,1379 109,579
110,129 111,10 112,10 115,10
116,10 117,20 118,99 119,70
120,40 121,10 122,10 123,40
124,50 125,60 130,70 131,80
132,109 133,119 134,20 136,30
140,269 141,40 142,30 143,20
144,10 145,20 146,10 147,10
149,20 155,30 156,389 157,129
158,189 159,80 160,30 170,10
171,20 172,60 173,50 181,10
182,90 183,60 184,219 185,159
186,20 197,20 199,9469 200,9999
201,1269 202,80 221,99 222,90
223,10 263,10 264,10
##END=
