##TITLE=Diphenyl sulfone
##JCAMP-DX=4.24
##DATA TYPE=MASS SPECTRUM
##ORIGIN=Japan AIST/NIMC Database- Spectrum MS-NW- 207
##OWNER=NIST Mass Spectrometry Data Center
Collection (C) 2014 copyright by the U.S. Secretary of Commerce
on behalf of the United States of America. All rights reserved.
##CAS REGISTRY NO=127-63-9
##$NIST MASS SPEC NO=228408
##MOLFORM=C12 H10 O2 S
##MW=218
##$NIST SOURCE=MSDC
##XUNITS=M/Z
##YUNITS=RELATIVE INTENSITY
##XFACTOR=1
##YFACTOR=1
##FIRSTX=18
##LASTX=221
##FIRSTY=20
##MAXX=221
##MINX=18
##MAXY=9999
##MINY=10
##NPOINTS=88
##PEAK TABLE=(XY..XY)
18,20 26,10 27,159 28,10
37,10 38,50 39,309 40,10
41,20 45,80 49,10 50,639
51,2309 52,149 53,119 55,10
57,10 58,10 61,10 62,30
63,109 64,70 65,389 66,30
69,80 70,20 71,10 73,20
74,199 75,169 76,239 77,3419
78,319 79,20 81,159 82,20
83,10 87,10 89,20 92,10
93,50 94,10 95,10 96,10
97,1139 98,90 99,50 101,20
102,40 103,10 108,30 109,149
110,20 111,10 115,80 116,10
125,9999 126,759 127,499 128,60
129,10 137,30 139,40 140,10
141,70 142,10 149,20 150,30
151,109 152,449 153,359 154,129
155,10 168,40 169,30 170,10
171,20 172,10 173,20 183,10
184,40 185,20 186,10 217,179
218,3769 219,519 220,219 221,30
##END=
