##TITLE=Ferrocene, acetyl-
##JCAMP-DX=4.24
##DATA TYPE=MASS SPECTRUM
##ORIGIN=Japan AIST/NIMC Database- Spectrum MS-NW-4466
##OWNER=NIST Mass Spectrometry Data Center
Collection (C) 2014 copyright by the U.S. Secretary of Commerce
on behalf of the United States of America. All rights reserved.
##CAS REGISTRY NO=1271-55-2
##$NIST MASS SPEC NO=232594
##MOLFORM=C12 H12 Fe O
##MW=228
##$NIST SOURCE=MSDC
##XUNITS=M/Z
##YUNITS=RELATIVE INTENSITY
##XFACTOR=1
##YFACTOR=1
##FIRSTX=15
##LASTX=231
##FIRSTY=40
##MAXX=231
##MINX=15
##MAXY=9999
##MINY=10
##NPOINTS=132
##PEAK TABLE=(XY..XY)
15,40 26,10 27,30 28,10
37,10 38,50 39,269 40,10
41,10 42,10 43,249 44,10
50,20 51,60 52,20 53,20
54,119 55,10 56,1899 57,229
61,10 62,30 63,109 64,50
65,80 66,20 68,20 69,50
70,30 71,659 72,20 73,30
75,10 76,10 77,129 78,40
79,80 81,449 82,70 83,40
89,90 90,20 91,30 92,50
93,109 94,449 95,309 96,20
101,10 102,80 103,179 104,20
105,50 106,70 107,80 108,40
109,20 114,90 115,40 116,10
117,20 118,60 119,169 120,439
121,1539 122,139 123,10 126,20
127,169 128,539 129,2459 130,289
131,30 132,50 133,149 134,209
135,60 136,20 137,10 138,109
139,10 141,30 142,20 143,20
144,10 145,80 146,30 147,10
148,189 149,20 152,20 153,20
157,50 158,60 159,129 160,30
161,50 162,80 163,489 164,50
170,10 171,10 172,30 182,30
183,339 184,349 185,4649 186,919
187,90 196,20 197,20 198,70
199,159 200,60 201,20 202,10
203,10 205,10 208,10 210,30
211,60 212,20 213,899 214,149
215,20 225,10 226,679 227,159
228,9999 229,1589 230,179 231,10
##END=
