##TITLE=Titanium, bis(.eta.5-2,4-cyclopentadien-1-yl)dimethyl-
##JCAMP-DX=4.24
##DATA TYPE=MASS SPECTRUM
##ORIGIN=D.HENNEBERG, MAX-PLANCK INSTITUTE, MULHEIM, WEST GERMANY
##OWNER=NIST Mass Spectrometry Data Center
Collection (C) 2014 copyright by the U.S. Secretary of Commerce
on behalf of the United States of America. All rights reserved.
##CAS REGISTRY NO=1271-66-5
##$NIST MASS SPEC NO=62976
##MOLFORM=C12 H16 Ti
##MW=208
##$NIST SOURCE=MSDC
##XUNITS=M/Z
##YUNITS=RELATIVE INTENSITY
##XFACTOR=1
##YFACTOR=1
##FIRSTX=27
##LASTX=197
##FIRSTY=30
##MAXX=197
##MINX=27
##MAXY=9999
##MINY=1
##NPOINTS=134
##PEAK TABLE=(XY..XY)
27,30 28,5 32,2 37,7
38,24 39,148 41,18 42,6
43,9 46,10 47,15 48,97
49,28 50,35 51,53 52,37
53,3 55,6 56,5 57,1
61,4 62,10 63,32 64,11
65,85 66,155 67,16 71,8
72,16 73,119 74,24 75,25
76,8 77,51 78,167 79,36
80,13 81,4 82,3 83,5
84,14 85,63 86,113 87,347
88,53 89,150 90,12 91,5
94,4 95,16 96,49 97,13
98,24 99,35 100,18 101,7
102,5 103,6 104,3 106,6
108,3 109,9 110,19 111,313
112,376 113,2502 114,350 115,200
116,13 117,4 121,17 122,16
123,23 124,82 125,79 126,112
127,38 128,43 129,16 130,21
131,11 132,43 133,7 134,7
135,5 136,29 137,35 138,162
139,30 140,26 141,5 142,3
146,10 147,10 148,83 149,47
150,243 151,166 152,581 153,106
154,48 155,4 161,7 162,11
163,20 164,40 165,11 166,6
167,4 172,6 173,10 174,30
175,35 176,1126 177,1120 178,9999
179,1807 180,845 181,89 182,7
184,5 185,3 186,39 187,13
188,28 189,47 190,107 191,432
192,532 193,3033 194,602 195,261
196,33 197,26
##END=
