##TITLE=2,3,4-Trichlorophenyl isothiocyanate
##JCAMP-DX=4.24
##DATA TYPE=MASS SPECTRUM
##ORIGIN=NIST Mass Spectrometry Data Center, 1994
##OWNER=NIST Mass Spectrometry Data Center
Collection (C) 2014 copyright by the U.S. Secretary of Commerce
on behalf of the United States of America. All rights reserved.
##CAS REGISTRY NO=127142-69-2
##$NIST MASS SPEC NO=134836
##MOLFORM=C7 H2 Cl3 N S
##MW=237
##$NIST SOURCE=MSDC
##XUNITS=M/Z
##YUNITS=RELATIVE INTENSITY
##XFACTOR=1
##YFACTOR=1
##FIRSTX=18
##LASTX=243
##FIRSTY=69
##MAXX=243
##MINX=18
##MAXY=9999
##MINY=49
##NPOINTS=125
##PEAK TABLE=(XY..XY)
18,69 26,138 28,326 32,651
35,365 36,353 37,953 38,462
39,64 44,700 45,206 46,60
47,387 48,193 49,685 50,387
51,136 56,80 57,65 58,347
59,131 60,437 61,992 62,656
63,239 64,134 66,80 68,137
69,220 70,1223 71,417 72,595
73,1491 74,2333 75,478 76,91
79,1200 81,576 82,184 83,758
84,1223 85,454 86,588 87,770
88,748 89,84 91,53 93,105
94,250 95,148 96,395 97,661
98,494 99,762 100,385 101,294
102,203 103,117 105,154 106,277
107,573 108,1341 109,1667 110,603
111,535 112,64 116,60 117,106
118,736 119,734 122,283 123,80
124,90 130,52 131,272 132,410
133,160 134,460 135,91 136,152
141,100 143,1203 144,649 145,802
146,335 147,154 148,73 158,857
159,81 160,616 161,49 162,87
167,2145 168,235 169,963 170,265
171,166 172,143 176,57 179,1267
180,179 181,1140 182,93 183,421
193,238 195,238 197,91 201,147
202,992 203,196 204,665 205,1161
206,244 207,1017 208,90 209,315
210,155 212,128 237,9652 238,867
239,9999 240,890 241,3514 242,328
243,442
##END=
