##TITLE=Ferrocene, chloro-
##JCAMP-DX=4.24
##DATA TYPE=MASS SPECTRUM
##OWNER=NIST Mass Spectrometry Data Center
Collection (C) 2014 copyright by the U.S. Secretary of Commerce
on behalf of the United States of America. All rights reserved.
##CAS REGISTRY NO=1273-74-1
##$NIST MASS SPEC NO=10353
##MOLFORM=C10 H9 Cl Fe
##MW=220
##$NIST SOURCE=MSDC
##XUNITS=M/Z
##YUNITS=RELATIVE INTENSITY
##XFACTOR=1
##YFACTOR=1
##FIRSTX=39
##LASTX=223
##FIRSTY=4104
##MAXX=223
##MINX=39
##MAXY=9999
##MINY=100
##NPOINTS=33
##PEAK TABLE=(XY..XY)
39,4104 51,500 54,400 56,6506
57,400 63,1802 65,901 77,601
81,1301 91,2502 93,801 94,1001
95,601 99,500 101,100 102,1001
103,500 110,500 119,701 121,2102
127,1301 128,6506 129,2803 182,701
184,9308 185,1201 186,400 218,601
219,300 220,9999 221,1201 222,3003
223,500
##END=
