##TITLE=1,1'-di-n-Butylferrocene
##JCAMP-DX=4.24
##DATA TYPE=MASS SPECTRUM
##ORIGIN=Japan AIST/NIMC Database- Spectrum MS-NW-2432
##OWNER=NIST Mass Spectrometry Data Center
Collection (C) 2014 copyright by the U.S. Secretary of Commerce
on behalf of the United States of America. All rights reserved.
##CAS REGISTRY NO=1274-08-4
##$NIST MASS SPEC NO=230980
##MOLFORM=C18 H26 Fe
##MW=298
##$NIST SOURCE=MSDC
##XUNITS=M/Z
##YUNITS=RELATIVE INTENSITY
##XFACTOR=1
##YFACTOR=1
##FIRSTX=14
##LASTX=301
##FIRSTY=40
##MAXX=301
##MINX=14
##MAXY=9999
##MINY=10
##NPOINTS=213
##PEAK TABLE=(XY..XY)
14,40 15,20 26,40 27,469
28,109 29,239 37,10 38,40
39,419 40,40 41,399 42,30
43,149 44,70 50,70 51,189
52,119 53,109 54,139 55,99
56,2279 57,469 58,20 61,10
62,30 63,119 64,20 65,249
66,219 67,60 68,10 69,10
70,60 71,129 74,20 75,20
76,30 77,739 78,539 79,1779
80,929 81,219 82,159 83,70
84,20 85,10 87,10 89,129
90,20 91,749 92,169 93,269
94,109 95,149 96,50 97,70
98,10 102,70 103,269 104,60
105,369 106,50 107,99 108,90
109,30 110,80 111,10 113,10
114,10 115,349 116,149 117,299
118,179 119,99 120,229 121,1169
122,839 123,60 124,20 127,30
128,40 129,30 130,10 131,10
132,159 133,189 134,2119 135,1989
136,189 137,10 139,10 141,30
142,10 143,10 144,10 145,209
146,169 147,609 148,1009 149,189
150,30 152,30 153,30 154,10
155,20 156,10 157,20 158,129
159,169 160,119 161,70 162,20
163,10 165,20 166,10 167,10
169,30 170,20 171,369 172,239
173,429 174,379 175,709 176,219
177,30 178,20 179,10 184,30
185,30 186,199 187,50 188,10
189,10 196,10 197,30 198,99
199,319 200,1449 201,219 202,20
208,10 210,60 211,149 212,499
213,2099 214,389 215,40 216,10
217,10 218,20 219,10 220,10
221,10 222,20 223,40 224,299
225,189 226,3019 227,589 228,70
229,10 230,10 235,10 236,30
237,40 238,179 239,119 240,579
241,199 242,299 243,50 244,10
245,10 247,10 248,10 249,10
250,20 251,80 252,80 253,189
254,109 255,599 256,149 257,20
263,10 264,10 265,10 266,30
267,20 268,149 269,70 270,20
272,10 275,10 276,10 278,10
279,10 280,10 281,20 282,20
283,20 290,10 291,10 292,10
293,20 294,129 295,40 296,1319
297,369 298,9999 299,2149 300,259
301,20
##END=
