##TITLE=Noscapine
##JCAMP-DX=4.24
##DATA TYPE=MASS SPECTRUM
##ORIGIN=Japan AIST/NIMC Database- Spectrum MS-NW-6569
##OWNER=NIST Mass Spectrometry Data Center
Collection (C) 2014 copyright by the U.S. Secretary of Commerce
on behalf of the United States of America. All rights reserved.
##CAS REGISTRY NO=128-62-1
##$NIST MASS SPEC NO=235001
##MOLFORM=C22 H23 N O7
##MW=413
##$NIST SOURCE=MSDC
##XUNITS=M/Z
##YUNITS=RELATIVE INTENSITY
##XFACTOR=1
##YFACTOR=1
##FIRSTX=15
##LASTX=412
##FIRSTY=40
##MAXX=412
##MINX=15
##MAXY=9999
##MINY=10
##NPOINTS=115
##PEAK TABLE=(XY..XY)
15,40 17,10 18,80 27,10
28,60 29,20 30,20 36,10
38,10 39,40 41,20 42,169
43,20 44,20 45,10 50,40
51,90 52,30 53,30 55,20
62,20 63,60 64,30 65,50
66,20 67,10 74,10 75,30
76,60 77,139 78,50 79,50
80,10 81,10 86,10 87,10
88,10 89,40 90,40 91,60
92,40 93,30 94,20 95,10
101,10 102,20 103,20 104,50
105,60 106,40 107,50 108,10
109,30 110,10 115,10 116,20
117,50 118,129 119,109 120,70
121,70 122,70 123,10 130,20
131,20 132,30 133,40 134,30
135,40 136,10 145,30 146,40
147,219 148,129 149,60 150,50
151,10 152,10 158,30 159,30
160,20 161,10 162,20 163,60
164,20 165,90 166,10 174,30
175,50 176,99 177,90 178,169
179,30 188,40 189,20 190,30
191,30 192,10 193,169 194,129
195,20 202,10 203,179 204,80
205,879 206,129 207,20 217,10
218,319 219,199 220,9999 221,1459
222,159 223,10 412,10
##END=
