##TITLE=1,4,5,8-Naphthalenetetracarboxylic acid
##JCAMP-DX=4.24
##DATA TYPE=MASS SPECTRUM
##ORIGIN=Japan AIST/NIMC Database- Spectrum MS-NW-9699
##OWNER=NIST Mass Spectrometry Data Center
Collection (C) 2014 copyright by the U.S. Secretary of Commerce
on behalf of the United States of America. All rights reserved.
##CAS REGISTRY NO=128-97-2
##$NIST MASS SPEC NO=239316
##MOLFORM=C14 H8 O8
##MW=304
##$NIST SOURCE=MSDC
##XUNITS=M/Z
##YUNITS=RELATIVE INTENSITY
##XFACTOR=1
##YFACTOR=1
##FIRSTX=17
##LASTX=271
##FIRSTY=10
##MAXX=271
##MINX=17
##MAXY=9999
##MINY=10
##NPOINTS=90
##PEAK TABLE=(XY..XY)
17,10 18,40 26,10 28,40
37,50 38,40 44,30 45,10
49,60 50,99 51,10 53,60
54,10 55,50 56,20 60,30
61,689 62,1899 63,60 66,10
67,10 70,30 72,10 73,179
74,2929 75,219 76,1239 77,129
78,10 79,10 80,30 81,10
82,40 84,99 85,349 86,579
87,90 90,709 96,20 97,189
98,2209 99,219 100,20 101,20
108,20 109,90 110,159 111,139
112,289 113,30 114,10 120,139
121,319 122,1409 123,869 124,5769
125,639 126,40 132,10 133,10
134,20 139,10 140,139 141,20
151,50 152,5639 153,679 154,50
167,10 168,30 169,10 179,10
180,4359 181,589 182,50 196,139
197,20 198,10 223,40 224,9999
225,1439 226,179 227,10 240,60
241,40 242,20 268,8489 269,1339
270,199 271,20
##END=
