##TITLE=Pregnane-3,20-dione, (5.beta.)-
##JCAMP-DX=4.24
##DATA TYPE=MASS SPECTRUM
##OWNER=NIST Mass Spectrometry Data Center
Collection (C) 2014 copyright by the U.S. Secretary of Commerce
on behalf of the United States of America. All rights reserved.
##CAS REGISTRY NO=128-23-4
##$NIST MASS SPEC NO=14943
##MOLFORM=C21 H32 O2
##MW=316
##$NIST SOURCE=MSDC
##XUNITS=M/Z
##YUNITS=RELATIVE INTENSITY
##XFACTOR=1
##YFACTOR=1
##FIRSTX=41
##LASTX=319
##FIRSTY=3183
##MAXX=319
##MINX=41
##MAXY=9999
##MINY=29
##NPOINTS=125
##PEAK TABLE=(XY..XY)
41,3183 43,9999 44,203 45,796
53,883 55,3979 56,145 57,289
65,188 67,2677 68,998 69,1302
71,1780 77,1013 78,174 79,2460
80,651 81,3198 82,275 83,506
84,3777 85,1172 91,1809 92,217
93,2301 94,796 95,2880 96,217
97,420 105,1736 106,506 107,2171
108,998 109,1519 110,434 111,434
117,260 118,145 119,1302 120,1158
121,2098 122,1722 123,1216 124,724
125,145 131,724 132,506 133,998
134,593 135,1013 136,217 137,506
143,260 144,72 145,868 146,289
147,1158 148,217 149,579 157,304
158,174 159,1158 160,275 161,1143
162,275 163,289 171,232 172,145
173,593 174,506 175,1013 176,1592
177,289 185,159 186,145 187,434
188,362 189,506 199,289 200,29
201,289 202,130 203,289 211,145
213,1736 214,217 215,579 216,72
217,217 227,289 228,1056 229,362
230,72 231,1563 232,420 233,289
241,217 243,260 244,260 245,434
246,5513 247,796 255,738 256,217
257,145 258,1085 259,289 269,362
270,145 271,217 272,1302 273,579
274,130 281,275 282,72 283,941
284,174 298,5354 299,1129 300,145
301,883 302,145 316,8219 317,1809
319,289
##END=
