##TITLE=3,4,9,10-Perylenetetracarboxylic dianhydride
##JCAMP-DX=4.24
##DATA TYPE=MASS SPECTRUM
##ORIGIN=Japan AIST/NIMC Database- Spectrum MS-NW-8123
##OWNER=NIST Mass Spectrometry Data Center
Collection (C) 2014 copyright by the U.S. Secretary of Commerce
on behalf of the United States of America. All rights reserved.
##CAS REGISTRY NO=128-69-8
##$NIST MASS SPEC NO=235507
##MOLFORM=C24 H8 O6
##MW=392
##$NIST SOURCE=MSDC
##XUNITS=M/Z
##YUNITS=RELATIVE INTENSITY
##XFACTOR=1
##YFACTOR=1
##FIRSTX=27
##LASTX=395
##FIRSTY=10
##MAXX=395
##MINX=27
##MAXY=9999
##MINY=10
##NPOINTS=115
##PEAK TABLE=(XY..XY)
27,10 28,199 36,20 39,10
41,10 43,20 44,209 51,10
57,10 62,30 63,40 64,40
73,10 74,109 75,50 82,179
83,30 85,40 86,99 87,70
91,20 92,30 97,40 98,199
99,109 100,20 101,20 105,10
109,30 110,99 111,439 112,30
117,169 118,139 121,10 122,129
123,1269 124,3289 125,80 133,20
134,70 135,50 137,20 138,359
139,10 145,20 146,209 147,50
148,20 151,10 152,839 153,30
158,40 159,30 160,60 168,20
170,50 171,30 172,10 174,259
182,20 183,10 185,20 194,20
196,139 197,40 198,80 209,20
220,50 221,129 222,229 223,60
224,20 233,50 234,60 235,219
236,159 237,30 244,30 245,159
246,1129 247,1269 248,4489 249,959
250,109 262,20 264,30 275,30
276,1329 277,299 278,40 292,40
294,10 304,429 305,99 306,20
307,20 308,20 319,119 320,2609
321,629 322,99 323,10 347,80
348,4819 349,1219 350,189 351,20
364,60 365,10 391,159 392,9999
393,2599 394,459 395,60
##END=
