##TITLE=1H-Pyrrole-2,5-dione, 1-ethyl-
##JCAMP-DX=4.24
##DATA TYPE=MASS SPECTRUM
##ORIGIN=MASS SPECTROMETRY CENTER, UNIV. OF UTAH ALDRICH 12828-7
##OWNER=NIST Mass Spectrometry Data Center
Collection (C) 2014 copyright by the U.S. Secretary of Commerce
on behalf of the United States of America. All rights reserved.
##CAS REGISTRY NO=128-53-0
##$NIST MASS SPEC NO=59537
##MOLFORM=C6 H7 N O2
##MW=125
##$NIST SOURCE=MSDC
##XUNITS=M/Z
##YUNITS=RELATIVE INTENSITY
##XFACTOR=1
##YFACTOR=1
##FIRSTX=13
##LASTX=127
##FIRSTY=6
##MAXX=127
##MINX=13
##MAXY=9999
##MINY=6
##NPOINTS=48
##PEAK TABLE=(XY..XY)
13,6 14,82 15,455 25,214
26,2342 27,934 28,1059 29,456
30,92 31,261 36,6 37,7
38,112 39,218 40,305 41,517
42,1047 43,233 44,667 45,138
46,10 52,215 53,894 54,3307
55,842 56,1149 57,6 66,17
68,106 69,303 70,369 71,192
78,29 80,566 81,20 82,1933
83,152 96,476 97,117 98,205
109,10 110,9999 111,707 112,66
124,268 125,5605 126,445 127,7
##END=
