##TITLE=9,10-Anthracenedione, 1,4-bis[(4-methylphenyl)amino]-
##JCAMP-DX=4.24
##DATA TYPE=MASS SPECTRUM
##ORIGIN=Japan AIST/NIMC Database- Spectrum MS-IW- 904
##OWNER=NIST Mass Spectrometry Data Center
Collection (C) 2014 copyright by the U.S. Secretary of Commerce
on behalf of the United States of America. All rights reserved.
##CAS REGISTRY NO=128-80-3
##$NIST MASS SPEC NO=239577
##MOLFORM=C28 H22 N2 O2
##MW=418
##$NIST SOURCE=MSDC
##XUNITS=M/Z
##YUNITS=RELATIVE INTENSITY
##XFACTOR=1
##YFACTOR=1
##FIRSTX=17
##LASTX=421
##FIRSTY=10
##MAXX=421
##MINX=17
##MAXY=9999
##MINY=10
##NPOINTS=124
##PEAK TABLE=(XY..XY)
17,10 28,10 65,40 77,50
79,70 80,30 89,10 90,10
91,70 104,10 105,30 106,209
107,50 127,20 139,10 144,10
151,10 152,10 164,10 165,20
166,10 170,20 171,40 172,10
177,10 178,50 179,30 180,20
184,10 185,30 186,20 187,10
191,10 192,60 193,40 194,20
199,10 200,50 201,30 202,10
208,50 209,519 210,30 228,10
240,20 241,30 242,10 244,10
253,10 254,40 255,30 256,20
257,10 266,20 267,20 268,20
269,40 270,20 271,10 281,20
282,40 283,40 284,40 285,20
286,10 293,10 294,20 295,40
296,40 297,70 298,50 299,30
300,20 309,20 310,60 311,70
312,109 313,90 314,20 321,10
322,10 323,20 324,10 325,20
326,20 327,119 328,60 329,159
330,40 331,10 337,50 338,70
339,20 343,10 357,20 358,10
359,10 369,10 370,10 371,20
372,10 373,20 374,10 375,10
382,10 383,30 384,20 385,50
386,60 387,20 388,10 389,20
399,30 400,70 401,239 402,90
403,40 404,20 416,20 417,309
418,9999 419,3119 420,529 421,60
##END=
