##TITLE=Isoviolanthrone
##JCAMP-DX=4.24
##DATA TYPE=MASS SPECTRUM
##ORIGIN=Japan AIST/NIMC Database- Spectrum MS-IW-4318
##OWNER=NIST Mass Spectrometry Data Center
Collection (C) 2014 copyright by the U.S. Secretary of Commerce
on behalf of the United States of America. All rights reserved.
##CAS REGISTRY NO=128-64-3
##$NIST MASS SPEC NO=237172
##MOLFORM=C34 H16 O2
##MW=456
##$NIST SOURCE=MSDC
##XUNITS=M/Z
##YUNITS=RELATIVE INTENSITY
##XFACTOR=1
##YFACTOR=1
##FIRSTX=17
##LASTX=460
##FIRSTY=10
##MAXX=460
##MINX=17
##MAXY=9999
##MINY=10
##NPOINTS=299
##PEAK TABLE=(XY..XY)
17,10 18,30 26,20 27,40
28,759 29,20 30,10 34,10
36,20 38,10 39,40 40,10
41,60 42,30 43,50 44,99
45,10 50,10 51,10 52,10
53,10 54,10 55,40 56,30
57,50 60,10 63,10 64,20
65,10 66,10 67,20 68,10
69,30 70,10 71,40 73,10
74,10 75,10 76,10 77,20
78,10 79,10 80,30 81,30
82,30 83,30 84,10 85,20
87,10 88,10 91,30 92,10
93,10 94,20 95,20 96,10
97,30 98,20 99,10 100,30
101,30 104,10 105,20 106,20
107,20 108,10 109,10 111,20
112,10 113,20 115,20 116,20
117,10 118,10 119,10 120,10
121,10 122,10 123,20 124,60
125,50 126,20 128,10 129,10
131,10 132,70 133,119 134,20
135,10 136,10 137,20 138,20
141,10 142,20 143,20 147,10
148,20 149,20 150,10 151,10
152,20 153,10 159,10 160,40
161,50 162,20 163,10 165,10
166,10 167,10 168,10 171,10
172,70 173,139 174,129 175,80
176,10 178,30 179,30 180,20
181,10 183,10 184,70 185,239
186,289 187,179 188,20 189,30
190,10 191,30 192,30 193,20
194,10 195,10 196,50 197,249
198,729 199,1199 200,2149 201,159
202,99 203,30 204,60 205,99
206,179 207,80 208,20 209,10
210,30 211,70 212,119 213,259
214,399 215,169 216,30 217,10
218,10 220,10 221,99 222,10
224,10 225,10 226,20 227,10
228,609 229,70 230,219 231,50
232,10 234,10 235,10 237,10
239,30 240,20 241,10 242,10
243,80 244,139 245,30 246,40
247,10 250,10 252,40 253,10
254,10 255,20 256,20 257,30
258,30 259,10 261,20 262,40
263,20 264,10 265,20 266,10
267,10 268,20 269,20 270,10
271,10 272,40 273,10 274,10
276,10 277,10 279,10 280,20
281,30 282,20 283,20 284,10
289,10 293,10 294,10 295,30
296,20 297,20 298,10 299,10
300,10 307,10 308,10 309,20
310,20 311,10 312,10 318,10
320,10 321,10 322,10 323,10
324,40 325,10 326,20 328,10
332,10 333,10 344,20 345,10
346,30 347,10 348,20 349,10
350,10 357,10 359,10 360,10
361,10 368,20 369,10 370,50
371,20 372,60 373,20 374,20
375,10 383,10 385,10 392,20
393,20 394,90 395,60 396,269
397,129 398,649 399,299 400,1059
401,359 402,60 403,10 407,10
409,20 410,10 411,50 412,20
413,189 414,70 415,20 420,10
422,30 423,10 424,90 425,40
426,769 427,349 428,899 429,329
430,80 431,10 440,10 441,199
442,50 443,10 456,9999 457,3779
458,819 459,129 460,20
##END=
