##TITLE=Bicyclo[3.1.1]hept-2-ene-2-ethanol, 6,6-dimethyl-
##JCAMP-DX=4.24
##DATA TYPE=MASS SPECTRUM
##ORIGIN=Japan AIST/NIMC Database- Spectrum MS-NW-8509
##OWNER=NIST Mass Spectrometry Data Center
Collection (C) 2014 copyright by the U.S. Secretary of Commerce
on behalf of the United States of America. All rights reserved.
##CAS REGISTRY NO=128-50-7
##$NIST MASS SPEC NO=238454
##MOLFORM=C11 H18 O
##MW=166
##$NIST SOURCE=MSDC
##XUNITS=M/Z
##YUNITS=RELATIVE INTENSITY
##XFACTOR=1
##YFACTOR=1
##FIRSTX=15
##LASTX=167
##FIRSTY=30
##MAXX=167
##MINX=15
##MAXY=9999
##MINY=10
##NPOINTS=99
##PEAK TABLE=(XY..XY)
15,30 18,30 26,30 27,1059
28,179 29,729 30,40 31,469
32,10 38,40 39,1229 40,209
41,2459 42,139 43,1309 44,60
45,70 50,99 51,409 52,199
53,869 54,109 55,969 56,99
57,109 58,10 59,20 62,30
63,139 64,40 65,569 66,299
67,719 68,279 69,569 70,80
71,20 74,10 75,20 76,10
77,1649 78,499 79,2609 80,399
81,469 82,119 83,99 84,10
85,10 89,40 90,20 91,2469
92,1809 93,2089 94,279 95,209
96,40 97,30 98,10 100,10
101,10 102,20 103,429 104,149
105,9999 106,1019 107,769 108,80
109,70 110,70 111,20 115,99
116,40 117,169 118,80 119,399
120,169 121,619 122,1019 123,179
124,40 125,10 128,10 129,10
131,70 132,10 133,789 134,90
135,519 136,80 137,20 138,10
147,20 148,99 149,10 151,279
152,30 166,329 167,40
##END=
