##TITLE=Ruthenium, bis(.eta.<5>-Cyclopentadienyl)
##JCAMP-DX=4.24
##DATA TYPE=MASS SPECTRUM
##ORIGIN=Japan AIST/NIMC Database- Spectrum MS-NW-9958
##OWNER=NIST Mass Spectrometry Data Center
Collection (C) 2014 copyright by the U.S. Secretary of Commerce
on behalf of the United States of America. All rights reserved.
##CAS REGISTRY NO=1287-13-4
##$NIST MASS SPEC NO=239153
##MOLFORM=C10 H10 Ru
##MW=232
##$NIST SOURCE=MSDC
##XUNITS=M/Z
##YUNITS=RELATIVE INTENSITY
##XFACTOR=1
##YFACTOR=1
##FIRSTX=38
##LASTX=236
##FIRSTY=10
##MAXX=236
##MINX=38
##MAXY=9999
##MINY=10
##NPOINTS=107
##PEAK TABLE=(XY..XY)
38,10 39,90 63,10 65,30
96,40 98,10 99,90 100,90
101,119 102,229 104,139 108,40
109,10 110,10 111,109 112,129
113,199 114,319 115,309 116,639
117,339 122,10 124,20 125,40
126,50 127,70 128,60 129,30
130,30 133,30 134,20 135,60
136,80 137,149 138,259 139,369
140,279 141,389 142,90 143,149
146,10 147,20 148,30 149,60
150,99 151,139 152,139 153,139
154,60 155,60 160,10 161,299
162,50 163,149 164,699 165,729
166,949 167,1689 168,99 169,969
170,50 171,10 172,30 173,30
174,60 175,119 176,149 177,209
178,239 179,129 180,149 181,50
182,20 188,10 189,10 190,20
191,20 192,10 193,10 197,10
198,60 199,50 200,109 201,219
202,309 203,449 204,569 205,329
206,459 207,99 208,129 209,10
222,20 223,10 224,20 225,80
226,1709 227,299 228,779 229,3929
230,4329 231,5629 232,9999 233,1089
234,5639 235,619 236,30
##END=
