##TITLE=Carbic anhydride
##JCAMP-DX=4.24
##DATA TYPE=MASS SPECTRUM
##ORIGIN=Dmitri Zagorevskii, University of Ottawa, Ontario, Canada
##OWNER=NIST Mass Spectrometry Data Center
Collection (C) 2014 copyright by the U.S. Secretary of Commerce
on behalf of the United States of America. All rights reserved.
##CAS REGISTRY NO=129-64-6
##$NIST MASS SPEC NO=284367
##MOLFORM=C9 H8 O3
##MW=164
##$NIST SOURCE=MSDC
##XUNITS=M/Z
##YUNITS=RELATIVE INTENSITY
##XFACTOR=1
##YFACTOR=1
##FIRSTX=26
##LASTX=164
##FIRSTY=290
##MAXX=164
##MINX=26
##MAXY=9999
##MINY=20
##NPOINTS=43
##PEAK TABLE=(XY..XY)
26,290 27,420 29,60 38,150
39,1481 40,591 41,200 43,60
44,60 45,200 46,50 50,110
51,340 52,160 53,120 54,150
55,520 56,90 57,120 62,30
63,310 64,130 65,1101 66,9999
67,591 69,60 70,20 71,30
77,150 78,130 79,90 89,100
90,80 91,2943 92,1371 93,100
99,360 119,350 120,480 121,30
129,30 149,30 164,250
##END=
