##TITLE=Phenampromid
##JCAMP-DX=4.24
##DATA TYPE=MASS SPECTRUM
##ORIGIN=HOME OFFICE, CENTRAL RES. EST., ALDERMASTON, BERKS., U.K.
##OWNER=NIST Mass Spectrometry Data Center
Collection (C) 2014 copyright by the U.S. Secretary of Commerce
on behalf of the United States of America. All rights reserved.
##CAS REGISTRY NO=129-83-9
##$NIST MASS SPEC NO=58704
##MOLFORM=C17 H26 N2 O
##MW=274
##$NIST SOURCE=MSDC
##XUNITS=M/Z
##YUNITS=RELATIVE INTENSITY
##XFACTOR=1
##YFACTOR=1
##FIRSTX=29
##LASTX=198
##FIRSTY=500
##MAXX=198
##MINX=29
##MAXY=9999
##MINY=100
##NPOINTS=31
##PEAK TABLE=(XY..XY)
29,500 30,100 32,100 36,400
38,100 39,100 41,500 42,400
43,100 44,200 51,100 55,400
56,100 57,200 68,100 69,200
70,100 77,200 96,100 97,100
98,9999 99,600 104,100 110,100
118,100 119,100 120,400 125,1300
126,100 134,100 198,100
##END=
