##TITLE=Benzoic acid, 2,4,6-trinitro-
##JCAMP-DX=4.24
##DATA TYPE=MASS SPECTRUM
##ORIGIN=LAC, NIDDK, NIH, Bethesda, MD 20892
##OWNER=NIST Mass Spectrometry Data Center
Collection (C) 2014 copyright by the U.S. Secretary of Commerce
on behalf of the United States of America. All rights reserved.
##CAS REGISTRY NO=129-66-8
##$NIST MASS SPEC NO=253388
##MOLFORM=C7 H3 N3 O8
##MW=257
##$NIST SOURCE=MSDC
##XUNITS=M/Z
##YUNITS=RELATIVE INTENSITY
##XFACTOR=1
##YFACTOR=1
##FIRSTX=44
##LASTX=257
##FIRSTY=8451
##MAXX=257
##MINX=44
##MAXY=9999
##MINY=50
##NPOINTS=35
##PEAK TABLE=(XY..XY)
44,8451 46,1680 50,687 51,396
52,50 53,380 61,436 62,3084
63,2458 64,202 66,261 69,146
74,9999 75,8786 76,684 77,223
79,564 80,101 87,259 88,129
91,2974 92,119 107,356 117,110
120,2374 121,111 137,284 166,228
167,935 196,70 197,156 213,7896
214,106 240,111 257,561
##END=
