##TITLE=Cyproheptadine
##JCAMP-DX=4.24
##DATA TYPE=MASS SPECTRUM
##ORIGIN=Virginia Division of Forensic Science
##OWNER=NIST Mass Spectrometry Data Center
Collection (C) 2014 copyright by the U.S. Secretary of Commerce
on behalf of the United States of America. All rights reserved.
##CAS REGISTRY NO=129-03-3
##$NIST MASS SPEC NO=250706
##MOLFORM=C21 H21 N
##MW=287
##$NIST SOURCE=MSDC
##XUNITS=M/Z
##YUNITS=RELATIVE INTENSITY
##XFACTOR=1
##YFACTOR=1
##FIRSTX=15
##LASTX=289
##FIRSTY=90
##MAXX=289
##MINX=15
##MAXY=9999
##MINY=20
##NPOINTS=190
##PEAK TABLE=(XY..XY)
15,90 27,120 28,160 29,50
30,50 39,140 41,160 42,2071
43,920 44,1040 45,20 50,40
51,100 52,20 53,60 54,40
55,50 56,110 57,870 58,1191
59,40 62,40 63,170 65,50
66,20 67,60 68,60 70,1451
71,320 72,20 74,50 75,100
76,50 77,90 78,30 79,20
80,50 81,170 82,180 83,110
84,30 86,40 87,90 88,100
89,100 91,90 92,20 94,650
96,4554 97,330 98,40 99,60
100,110 101,220 107,210 108,430
109,610 110,150 111,40 112,90
113,390 114,170 115,230 116,50
117,30 119,80 120,170 121,60
122,50 125,30 126,80 127,100
128,100 129,60 130,30 131,20
132,30 134,70 135,60 137,50
138,20 139,160 140,40 141,60
143,100 144,220 146,20 149,30
150,160 151,170 152,210 153,70
154,20 155,20 158,30 161,50
162,90 163,340 164,150 165,410
166,80 167,50 168,30 169,20
170,50 171,20 174,70 175,80
176,250 177,90 178,260 179,90
180,20 181,60 182,240 183,140
184,30 185,30 186,80 187,570
188,450 189,1701 190,390 191,610
192,270 193,50 194,50 195,40
196,530 197,90 198,40 199,60
200,350 201,300 202,1521 203,710
204,300 205,260 206,80 207,20
210,60 211,180 213,1791 215,7556
216,2302 217,750 218,180 219,20
224,160 225,200 226,1611 227,2392
228,2442 229,2992 230,1491 231,940
232,230 233,30 237,120 238,90
239,800 240,470 241,1070 242,420
243,1431 244,530 245,140 246,230
247,40 252,30 253,50 254,60
255,200 256,250 257,130 258,250
259,240 260,60 266,20 268,50
269,20 270,80 272,1251 273,290
274,30 284,130 286,4844 287,9999
288,2181 289,230
##END=
