##TITLE=9,10-Anthracenedione, 2-methyl-1-nitro-
##JCAMP-DX=4.24
##DATA TYPE=MASS SPECTRUM
##ORIGIN=NIST Mass Spectrometry Data Center, 1998.
##OWNER=NIST Mass Spectrometry Data Center
Collection (C) 2014 copyright by the U.S. Secretary of Commerce
on behalf of the United States of America. All rights reserved.
##CAS REGISTRY NO=129-15-7
##$NIST MASS SPEC NO=290944
##MOLFORM=C15 H9 N O4
##MW=267
##$NIST SOURCE=MSDC
##XUNITS=M/Z
##YUNITS=RELATIVE INTENSITY
##XFACTOR=1
##YFACTOR=1
##FIRSTX=26
##LASTX=270
##FIRSTY=10
##MAXX=270
##MINX=26
##MAXY=9999
##MINY=10
##NPOINTS=173
##PEAK TABLE=(XY..XY)
26,10 27,90 29,120 30,610
31,10 37,30 38,100 39,710
40,30 41,10 42,10 43,570
44,20 46,110 49,40 50,1350
51,790 52,150 53,270 54,10
55,50 56,30 60,10 61,160
62,880 63,2330 64,240 65,200
66,40 67,40 68,10 69,760
73,80 74,990 75,1390 76,2300
77,1220 78,140 79,30 82,840
85,130 86,670 87,1060 88,480
89,1330 90,270 91,170 92,50
95,10 96,160 98,430 99,470
100,200 101,310 102,200 103,140
104,590 105,1050 106,80 107,10
109,50 110,270 111,360 112,140
113,780 114,290 115,1670 116,200
117,120 118,40 119,40 120,10
121,20 122,170 123,150 124,90
125,320 126,640 127,440 128,110
129,60 130,100 131,10 132,10
133,50 134,110 135,40 136,10
137,580 138,760 139,3260 140,640
141,70 142,10 143,120 144,600
145,70 146,30 148,10 149,270
150,1070 151,1810 152,3680 153,1900
154,430 155,80 157,10 158,10
159,10 161,190 162,710 163,6089
164,5119 165,9999 166,2470 167,600
168,130 169,10 170,50 171,10
173,10 174,250 175,210 176,280
177,210 178,140 179,180 180,580
181,890 182,270 183,110 184,20
185,10 191,30 192,270 193,1920
194,790 195,200 196,50 197,10
198,10 204,10 205,10 206,10
207,160 208,360 209,3150 210,620
211,150 212,10 219,10 220,550
221,5429 222,2770 223,450 224,60
225,10 235,40 236,70 237,1660
238,460 239,70 240,10 248,90
249,60 250,2620 251,460 252,90
265,10 267,8099 268,1350 269,180
270,10
##END=
