##TITLE=Pyridinium,2-methoxy-1-(methoxycarbonyl)-2-oxoethylide
##JCAMP-DX=4.24
##DATA TYPE=MASS SPECTRUM
##ORIGIN=ASES Database, Dalian Institute, P.R. China
##OWNER=NIST Mass Spectrometry Data Center
Collection (C) 2014 copyright by the U.S. Secretary of Commerce
on behalf of the United States of America. All rights reserved.
##CAS REGISTRY NO=1291-37-8
##$NIST MASS SPEC NO=144977
##MOLFORM=C10 H11 N O4
##MW=209
##$NIST SOURCE=MSDC
##XUNITS=M/Z
##YUNITS=RELATIVE INTENSITY
##XFACTOR=1
##YFACTOR=1
##FIRSTX=50
##LASTX=210
##FIRSTY=580
##MAXX=210
##MINX=50
##MAXY=9999
##MINY=110
##NPOINTS=45
##PEAK TABLE=(XY..XY)
50,580 51,1621 52,1691 53,990
54,190 57,250 59,820 62,130
63,2272 64,2282 65,3052 66,540
67,320 69,380 71,110 74,580
77,170 78,2051 79,3693 80,2091
90,300 91,1801 92,690 93,9999
94,3102 95,300 106,220 113,130
118,190 119,310 120,2512 121,130
122,190 135,270 146,110 148,4894
149,520 150,420 151,7546 152,590
162,260 178,7416 179,1000 209,6315
210,710
##END=
