##TITLE=3,5-Difluorobenzoyl chloride
##JCAMP-DX=4.24
##DATA TYPE=MASS SPECTRUM
##ORIGIN=NIST Mass Spectrometry Data Center
##OWNER=NIST Mass Spectrometry Data Center
Collection (C) 2014 copyright by the U.S. Secretary of Commerce
on behalf of the United States of America. All rights reserved.
##CAS REGISTRY NO=129714-97-2
##$NIST MASS SPEC NO=343000
##MOLFORM=C7 H3 Cl F2 O
##MW=176
##$NIST SOURCE=MSDC
##XUNITS=M/Z
##YUNITS=RELATIVE INTENSITY
##XFACTOR=1
##YFACTOR=1
##FIRSTX=12
##LASTX=179
##FIRSTY=10
##MAXX=179
##MINX=12
##MAXY=9999
##MINY=10
##NPOINTS=82
##PEAK TABLE=(XY..XY)
12,10 18,30 19,10 24,10
25,50 26,50 28,100 29,30
31,1251 32,60 33,30 35,360
36,170 37,661 38,340 39,70
43,10 44,80 45,40 47,60
48,40 49,270 50,841 51,110
52,10 53,110 55,90 56,390
57,400 58,10 60,120 61,711
62,1161 63,3934 64,220 65,50
68,871 69,360 70,971 72,50
73,230 74,681 75,370 76,20
77,20 78,30 79,80 80,180
81,460 82,70 84,30 85,50
86,70 87,190 88,20 91,30
92,270 93,601 94,310 95,30
97,40 98,10 99,30 103,20
104,20 105,20 110,80 111,100
113,7687 114,561 115,20 125,30
139,30 141,9999 142,791 143,50
147,30 148,20 176,1211 177,100
178,370 179,30
##END=
