##TITLE=Protopine
##JCAMP-DX=4.24
##DATA TYPE=MASS SPECTRUM
##ORIGIN=Humboldt-Universitat zu Berlin, Department of Chemistry, Analytical Group
##OWNER=NIST Mass Spectrometry Data Center
Collection (C) 2014 copyright by the U.S. Secretary of Commerce
on behalf of the United States of America. All rights reserved.
##CAS REGISTRY NO=130-86-9
##$NIST MASS SPEC NO=287490
##MOLFORM=C20 H19 N O5
##MW=353
##$NIST SOURCE=MSDC
##XUNITS=M/Z
##YUNITS=RELATIVE INTENSITY
##XFACTOR=1
##YFACTOR=1
##FIRSTX=37
##LASTX=355
##FIRSTY=6
##MAXX=355
##MINX=37
##MAXY=9999
##MINY=3
##NPOINTS=256
##PEAK TABLE=(XY..XY)
37,6 38,27 39,191 40,47
41,65 42,474 43,119 44,305
45,22 46,4 49,4 50,163
51,215 52,86 53,99 54,18
55,75 56,12 57,55 58,22
59,6 60,5 61,7 62,47
63,229 64,135 65,168 66,38
67,18 68,19 69,14 70,12
71,6 72,3 73,9 74,24
75,69 76,421 77,249 78,191
79,51 80,10 81,15 82,36
83,34 84,11 85,3 86,9
87,19 88,37 89,692 90,257
91,681 92,137 93,24 94,22
95,9 96,14 97,33 98,11
99,8 100,7 101,19 102,49
103,59 104,291 105,171 106,44
107,18 108,6 109,8 111,42
112,16 113,15 114,15 115,54
116,30 117,76 118,128 119,135
120,67 121,26 122,8 123,4
124,4 125,22 126,48 127,26
128,24 129,12 130,47 131,46
132,59 133,88 134,765 135,364
136,178 137,27 138,16 139,68
140,39 141,19 142,9 143,9
144,10 145,24 146,70 148,9999
149,1138 150,138 151,76 152,112
153,64 154,29 155,320 157,6
158,11 159,49 160,190 161,67
162,221 163,2242 164,434 165,398
166,133 167,52 168,19 169,10
170,9 171,22 172,20 173,32
174,176 175,169 176,169 177,309
178,89 179,39 180,20 181,58
182,16 183,9 184,6 185,24
186,16 188,280 189,193 190,1061
191,149 192,29 193,74 194,136
195,68 196,27 197,14 198,9
199,15 200,5 201,4 202,9
203,15 204,173 205,67 206,39
207,37 209,377 210,83 211,22
212,11 213,6 214,10 215,5
216,5 217,11 218,31 219,8
220,10 221,54 222,83 223,223
224,166 225,54 226,14 227,5
230,6 232,12 233,16 234,30
235,44 237,302 238,113 239,47
240,10 241,4 246,4 247,8
248,6 249,24 250,28 251,222
252,355 253,95 254,18 255,6
261,8 262,32 263,35 264,28
265,34 266,138 267,476 268,158
269,31 270,5 274,5 275,8
276,4 277,14 278,23 279,80
280,70 281,320 282,109 283,36
284,6 290,4 291,29 292,34
293,49 295,164 296,36 297,9
304,9 305,8 306,6 307,27
308,51 309,133 310,77 311,16
320,11 321,22 322,70 323,19
324,19 325,29 326,7 334,5
336,68 338,94 339,23 340,4
350,4 353,262 354,69 355,11
##END=
