##TITLE=Quinine
##JCAMP-DX=4.24
##DATA TYPE=MASS SPECTRUM
##ORIGIN=N.W. Davies, Centr. Sci. Lab., Univ. Tasmania, Hobart, Australia
##OWNER=NIST Mass Spectrometry Data Center
Collection (C) 2014 copyright by the U.S. Secretary of Commerce
on behalf of the United States of America. All rights reserved.
##CAS REGISTRY NO=130-95-0
##$NIST MASS SPEC NO=107180
##MOLFORM=C20 H24 N2 O2
##MW=324
##$NIST SOURCE=MSDC
##XUNITS=M/Z
##YUNITS=RELATIVE INTENSITY
##XFACTOR=1
##YFACTOR=1
##FIRSTX=26
##LASTX=325
##FIRSTY=40
##MAXX=325
##MINX=26
##MAXY=9999
##MINY=20
##NPOINTS=98
##PEAK TABLE=(XY..XY)
26,40 27,430 28,149 29,370
30,80 32,22 35,160 37,40
39,510 40,20 41,1300 42,1170
43,180 44,160 51,160 52,70
53,470 54,300 55,910 56,410
57,90 62,50 63,90 64,40
65,170 66,80 67,250 68,170
69,140 70,90 75,50 77,270
78,70 79,450 80,210 81,1000
82,420 83,40 87,40 88,60
89,130 90,120 91,140 93,100
94,150 95,270 96,50 101,40
102,80 103,50 105,60 108,110
110,80 115,120 116,180 117,500
118,70 122,80 126,50 127,60
128,60 129,90 130,90 132,40
135,30 136,9999 137,1170 138,220
139,60 141,50 142,40 145,180
154,70 155,60 158,130 159,120
160,200 166,80 169,40 170,70
172,270 173,210 174,160 182,50
183,30 184,100 186,80 187,90
188,180 189,490 190,70 198,60
199,60 202,40 212,50 307,30
324,100 325,90
##END=
