##TITLE=Chromium hexacarbonyl
##JCAMP-DX=4.24
##DATA TYPE=MASS SPECTRUM
##ORIGIN=D.HENNEBERG, MAX-PLANCK INSTITUTE, MULHEIM, WEST GERMANY
##OWNER=NIST Mass Spectrometry Data Center
Collection (C) 2014 copyright by the U.S. Secretary of Commerce
on behalf of the United States of America. All rights reserved.
##CAS REGISTRY NO=13007-92-6
##$NIST MASS SPEC NO=61993
##MOLFORM=C6 Cr O6
##MW=220
##$NIST SOURCE=MSDC
##XUNITS=M/Z
##YUNITS=RELATIVE INTENSITY
##XFACTOR=1
##YFACTOR=1
##FIRSTX=26
##LASTX=223
##FIRSTY=17
##MAXX=223
##MINX=26
##MAXY=9999
##MINY=3
##NPOINTS=76
##PEAK TABLE=(XY..XY)
26,17 27,30 28,7161 29,108
30,19 31,6 34,6 36,13
39,52 41,26 42,9 43,11
44,107 45,11 46,132 50,521
51,3 52,9999 53,1134 54,1343
55,31 56,5 57,10 58,6
60,17 62,31 64,614 65,86
66,34 67,15 68,487 69,44
70,7 73,5 76,21 77,4
78,465 79,8 80,8852 81,1162
82,404 83,7 86,8 90,8
92,201 93,18 96,56 106,289
107,4 108,5164 109,659 110,180
111,6 120,4 134,24 136,465
137,61 138,25 148,4 149,8
162,16 164,304 165,52 166,13
190,19 191,3 192,347 193,46
194,15 202,4 218,240 219,11
220,3907 221,683 222,192 223,17
##END=
