##TITLE=.beta.-(1-Naphthyl)acrylic acid
##JCAMP-DX=4.24
##DATA TYPE=MASS SPECTRUM
##ORIGIN=NIST Mass Spectrometry Data Center
##OWNER=NIST Mass Spectrometry Data Center
Collection (C) 2014 copyright by the U.S. Secretary of Commerce
on behalf of the United States of America. All rights reserved.
##CAS REGISTRY NO=13026-12-5
##$NIST MASS SPEC NO=342983
##MOLFORM=C13 H10 O2
##MW=198
##$NIST SOURCE=MSDC
##XUNITS=M/Z
##YUNITS=RELATIVE INTENSITY
##XFACTOR=1
##YFACTOR=1
##FIRSTX=12
##LASTX=199
##FIRSTY=80
##MAXX=199
##MINX=12
##MAXY=9999
##MINY=40
##NPOINTS=53
##PEAK TABLE=(XY..XY)
12,80 15,150 26,100 27,180
38,170 39,310 44,330 45,480
50,410 51,510 53,70 61,190
62,340 63,921 65,130 73,210
74,591 75,711 76,1221 77,671
84,120 85,130 86,210 87,300
88,110 89,40 91,420 98,270
99,240 100,110 101,210 102,150
113,80 115,350 116,220 125,120
126,581 127,490 128,190 139,130
141,340 143,140 150,631 151,1611
152,4694 153,9999 154,1391 155,210
169,130 172,120 181,210 198,3273
199,510
##END=
