##TITLE=1,1'-Biphenyl, 2,2'-dichloro-
##JCAMP-DX=4.24
##DATA TYPE=MASS SPECTRUM
##ORIGIN=NIST Mass Spectrometry Data Center, 1998.
##OWNER=NIST Mass Spectrometry Data Center
Collection (C) 2014 copyright by the U.S. Secretary of Commerce
on behalf of the United States of America. All rights reserved.
##CAS REGISTRY NO=13029-08-8
##$NIST MASS SPEC NO=291879
##MOLFORM=C12 H8 Cl2
##MW=222
##$NIST SOURCE=MSDC
##XUNITS=M/Z
##YUNITS=RELATIVE INTENSITY
##XFACTOR=1
##YFACTOR=1
##FIRSTX=26
##LASTX=227
##FIRSTY=40
##MAXX=227
##MINX=26
##MAXY=9999
##MINY=10
##NPOINTS=117
##PEAK TABLE=(XY..XY)
26,40 27,80 35,10 36,10
37,60 38,120 39,280 40,10
47,20 48,10 49,100 50,590
51,590 52,70 53,10 55,20
56,10 60,40 61,250 62,520
63,670 64,40 65,10 67,20
68,20 72,40 73,240 74,870
75,1810 76,1120 77,210 78,30
79,10 80,180 81,70 84,90
85,230 86,410 87,400 88,80
89,40 90,10 93,1120 94,410
96,30 97,150 98,550 99,650
100,190 101,290 102,140 103,20
108,50 109,90 110,180 111,510
112,240 113,250 114,90 115,20
120,20 121,60 122,150 123,180
124,90 125,530 126,660 127,100
128,10 132,10 133,10 134,20
135,40 136,130 137,70 138,80
139,20 144,10 145,10 146,30
147,40 148,50 149,240 150,1840
151,2500 152,9999 153,1280 154,80
159,20 160,160 161,60 162,80
163,20 164,10 170,20 172,10
173,40 174,10 175,20 183,20
184,20 185,50 186,640 187,4250
188,760 189,1410 190,180 191,10
196,10 198,10 220,20 222,5909
223,820 224,3860 225,510 226,640
227,80
##END=
