##TITLE=1,1'-Biphenyl, 2,2'-dibromo-
##JCAMP-DX=4.24
##DATA TYPE=MASS SPECTRUM
##ORIGIN=J.E. WILKINSON S-CUBED, SAN DIEGO, CA.
##OWNER=NIST Mass Spectrometry Data Center
Collection (C) 2014 copyright by the U.S. Secretary of Commerce
on behalf of the United States of America. All rights reserved.
##CAS REGISTRY NO=13029-09-9
##$NIST MASS SPEC NO=77796
##MOLFORM=C12 H8 Br2
##MW=310
##$NIST SOURCE=MSDC
##XUNITS=M/Z
##YUNITS=RELATIVE INTENSITY
##XFACTOR=1
##YFACTOR=1
##FIRSTX=47
##LASTX=315
##FIRSTY=2
##MAXX=315
##MINX=47
##MAXY=9999
##MINY=1
##NPOINTS=86
##PEAK TABLE=(XY..XY)
47,2 49,107 50,1333 51,1056
52,68 53,1 55,7 57,1
61,222 62,713 63,1291 64,31
65,1 67,1 69,21 73,101
74,1388 75,2040 76,2726 77,291
78,22 79,19 80,2 81,25
82,2 84,19 85,108 86,498
87,572 88,55 89,17 93,1
95,1 97,29 98,587 99,550
100,127 101,186 102,252 103,11
104,1 106,1 109,20 110,76
111,110 112,12 113,104 114,19
115,386 116,360 119,7 121,6
122,78 123,39 124,24 125,363
126,903 127,44 128,3 130,1
131,1 135,2 137,1 149,59
150,1627 151,2562 152,9999 153,1226
154,30 155,7 156,14 157,5
204,2 206,2 230,37 231,4174
232,558 233,4089 234,445 235,6
310,1213 311,94 312,2482 313,238
314,1180 315,80
##END=
