##TITLE=Benzonitrile, 4-[[(4-methoxyphenyl)methylene]amino]-
##JCAMP-DX=4.24
##DATA TYPE=MASS SPECTRUM
##ORIGIN=NIST Mass Spectrometry Data Center, 1994
##OWNER=NIST Mass Spectrometry Data Center
Collection (C) 2014 copyright by the U.S. Secretary of Commerce
on behalf of the United States of America. All rights reserved.
##CAS REGISTRY NO=13036-19-6
##$NIST MASS SPEC NO=135686
##MOLFORM=C15 H12 N2 O
##MW=236
##$NIST SOURCE=MSDC
##XUNITS=M/Z
##YUNITS=RELATIVE INTENSITY
##XFACTOR=1
##YFACTOR=1
##FIRSTX=12
##LASTX=238
##FIRSTY=19
##MAXX=238
##MINX=12
##MAXY=9999
##MINY=11
##NPOINTS=114
##PEAK TABLE=(XY..XY)
12,19 13,21 15,2193 16,18
17,17 18,49 26,31 27,210
28,248 37,161 38,417 39,1262
40,82 41,12 50,1047 51,2072
52,408 53,163 54,20 55,26
61,94 62,392 63,1102 64,968
65,1580 66,132 70,33 74,187
75,1437 76,1209 77,1384 78,465
79,249 83,60 85,18 86,50
87,76 88,126 89,249 90,416
91,328 92,500 93,251 94,17
97,48 99,56 100,76 102,3276
103,499 104,86 105,46 106,34
107,139 108,209 109,18 110,11
111,13 112,20 113,59 114,69
115,62 116,40 118,175 119,132
120,20 125,19 126,26 127,35
129,348 130,38 133,235 134,374
135,32 137,27 138,120 139,158
140,199 141,41 142,24 146,18
150,34 151,86 152,42 153,51
154,13 164,243 165,237 166,201
167,48 168,34 175,13 176,57
177,83 178,60 179,19 180,15
191,296 192,1814 193,518 194,81
202,15 203,59 204,111 205,97
206,26 207,23 209,16 220,377
221,256 222,52 235,9999 236,8827
237,1365 238,109
##END=
