##TITLE=Propanal, 2-methyl-, dimethylhydrazone
##JCAMP-DX=4.24
##DATA TYPE=MASS SPECTRUM
##ORIGIN=ATLAS OF MASS SPECTRA OF ORGANIC COMPOUNDS, V. A. KOPTYUG, ED.
##OWNER=NIST Mass Spectrometry Data Center
Collection (C) 2014 copyright by the U.S. Secretary of Commerce
on behalf of the United States of America. All rights reserved.
##CAS REGISTRY NO=13063-57-5
##$NIST MASS SPEC NO=64495
##MOLFORM=C6 H14 N2
##MW=114
##$NIST SOURCE=MSDC
##XUNITS=M/Z
##YUNITS=RELATIVE INTENSITY
##XFACTOR=1
##YFACTOR=1
##FIRSTX=27
##LASTX=115
##FIRSTY=1330
##MAXX=115
##MINX=27
##MAXY=9999
##MINY=60
##NPOINTS=35
##PEAK TABLE=(XY..XY)
27,1330 28,2290 29,760 30,530
39,970 40,270 41,1570 42,3370
43,9999 44,9520 45,3700 46,780
52,80 53,140 54,190 55,350
56,1570 57,270 58,2890 59,550
68,170 69,150 70,640 71,680
72,940 73,60 83,190 85,460
86,160 97,80 99,4220 100,330
113,210 114,4950 115,580
##END=
