##TITLE=Propanedinitrile, dichloro-
##JCAMP-DX=4.24
##DATA TYPE=MASS SPECTRUM
##OWNER=NIST Mass Spectrometry Data Center
Collection (C) 2014 copyright by the U.S. Secretary of Commerce
on behalf of the United States of America. All rights reserved.
##CAS REGISTRY NO=13063-43-9
##$NIST MASS SPEC NO=3251
##MOLFORM=C3 Cl2 N2
##MW=134
##$NIST SOURCE=MSDC
##XUNITS=M/Z
##YUNITS=RELATIVE INTENSITY
##XFACTOR=1
##YFACTOR=1
##FIRSTX=39
##LASTX=136
##FIRSTY=170
##MAXX=136
##MINX=39
##MAXY=9999
##MINY=20
##NPOINTS=58
##PEAK TABLE=(XY..XY)
39,170 40,30 41,50 42,20
43,70 44,250 45,20 47,801
48,210 49,290 50,550 51,80
52,80 53,20 54,60 55,40
56,40 57,40 59,30 60,20
61,60 62,190 63,50 64,1391
65,581 66,270 67,20 69,20
70,120 71,20 73,3333 74,180
75,1081 76,440 77,260 78,30
79,30 80,50 81,20 82,1672
83,30 84,1061 85,30 86,170
88,30 96,90 99,9999 100,671
101,3333 102,731 103,110 108,80
109,20 110,50 111,20 112,20
134,30 136,20
##END=
