##TITLE=6-Octen-1-ol, 7-methyl-3-methylene-
##JCAMP-DX=4.24
##DATA TYPE=MASS SPECTRUM
##OWNER=NIST Mass Spectrometry Data Center
Collection (C) 2014 copyright by the U.S. Secretary of Commerce
on behalf of the United States of America. All rights reserved.
##CAS REGISTRY NO=13066-51-8
##$NIST MASS SPEC NO=5124
##MOLFORM=C10 H18 O
##MW=154
##$NIST SOURCE=MSDC
##XUNITS=M/Z
##YUNITS=RELATIVE INTENSITY
##XFACTOR=1
##YFACTOR=1
##FIRSTX=27
##LASTX=154
##FIRSTY=721
##MAXX=154
##MINX=27
##MAXY=9999
##MINY=40
##NPOINTS=48
##PEAK TABLE=(XY..XY)
27,721 28,150 29,621 30,70
31,460 39,1001 40,260 41,6436
42,310 43,510 51,170 52,80
53,681 54,110 55,490 56,190
57,80 65,180 66,140 67,1021
68,821 69,9999 70,621 71,60
77,320 78,80 79,360 80,170
81,540 82,130 83,100 84,60
91,290 92,70 93,1361 94,140
95,160 105,70 107,210 108,170
109,991 110,410 111,2142 112,170
121,340 123,80 136,170 154,40
##END=
