##TITLE=Pyrazine, 2,6-diethyl-
##JCAMP-DX=4.24
##DATA TYPE=MASS SPECTRUM
##ORIGIN=Philip Morris R&D
##OWNER=NIST Mass Spectrometry Data Center
Collection (C) 2014 copyright by the U.S. Secretary of Commerce
on behalf of the United States of America. All rights reserved.
##CAS REGISTRY NO=13067-27-1
##$NIST MASS SPEC NO=109567
##MOLFORM=C8 H12 N2
##MW=136
##$NIST SOURCE=MSDC
##XUNITS=M/Z
##YUNITS=RELATIVE INTENSITY
##XFACTOR=1
##YFACTOR=1
##FIRSTX=36
##LASTX=137
##FIRSTY=3
##MAXX=137
##MINX=36
##MAXY=9999
##MINY=1
##NPOINTS=62
##PEAK TABLE=(XY..XY)
36,3 37,57 38,240 39,1793
40,175 41,241 42,88 43,17
45,6 46,12 49,16 50,166
51,390 52,631 53,1214 54,761
55,131 56,878 57,36 59,2
60,88 61,9 63,16 64,62
65,101 66,389 67,138 68,68
69,2 70,6 75,13 76,24
77,23 78,67 79,42 80,362
81,105 82,13 83,3 91,6
92,60 93,53 94,125 95,29
104,13 105,35 106,38 107,539
108,1439 109,271 110,26 117,1
118,13 119,58 120,448 121,208
122,16 133,101 134,23 135,9999
136,6055 137,619
##END=
