##TITLE=3',4'-Methylenedioxyacetanilide
##JCAMP-DX=4.24
##DATA TYPE=MASS SPECTRUM
##ORIGIN=NIST Mass Spectrometry Data Center, 1994
##OWNER=NIST Mass Spectrometry Data Center
Collection (C) 2014 copyright by the U.S. Secretary of Commerce
on behalf of the United States of America. All rights reserved.
##CAS REGISTRY NO=13067-19-1
##$NIST MASS SPEC NO=135794
##MOLFORM=C9 H9 N O3
##MW=179
##$NIST SOURCE=MSDC
##XUNITS=M/Z
##YUNITS=RELATIVE INTENSITY
##XFACTOR=1
##YFACTOR=1
##FIRSTX=12
##LASTX=181
##FIRSTY=16
##MAXX=181
##MINX=12
##MAXY=9999
##MINY=5
##NPOINTS=72
##PEAK TABLE=(XY..XY)
12,16 13,37 14,424 15,1617
16,5 17,17 18,17 25,47
26,225 28,455 29,56 30,73
37,221 38,424 39,469 40,383
41,180 42,622 43,4538 44,95
49,139 50,946 51,1859 52,3077
53,1529 54,244 55,144 61,157
62,398 63,434 64,148 65,271
66,84 67,170 68,359 69,34
75,100 76,221 77,416 78,936
79,4533 80,2353 81,474 82,52
83,23 89,36 90,34 91,131
92,99 93,47 95,85 105,92
106,551 107,899 108,650 109,533
110,35 119,37 120,87 121,53
122,39 136,3257 137,9999 138,962
139,93 148,116 150,24 162,241
163,142 179,4633 180,477 181,22
##END=
