##TITLE=2-(3-Chlorophenyl)ethylamine
##JCAMP-DX=4.24
##DATA TYPE=MASS SPECTRUM
##ORIGIN=NIST Mass Spectrometry Data Center, 1994
##OWNER=NIST Mass Spectrometry Data Center
Collection (C) 2014 copyright by the U.S. Secretary of Commerce
on behalf of the United States of America. All rights reserved.
##CAS REGISTRY NO=13078-79-0
##$NIST MASS SPEC NO=134702
##MOLFORM=C8 H10 Cl N
##MW=155
##$NIST SOURCE=MSDC
##XUNITS=M/Z
##YUNITS=RELATIVE INTENSITY
##XFACTOR=1
##YFACTOR=1
##FIRSTX=4
##LASTX=157
##FIRSTY=5
##MAXX=157
##MINX=4
##MAXY=9999
##MINY=3
##NPOINTS=84
##PEAK TABLE=(XY..XY)
4,5 14,3 15,30 16,7
17,13 18,19 26,19 27,89
28,498 29,3 30,9999 31,170
32,7 35,8 36,15 37,36
38,96 39,334 40,39 41,67
42,116 43,52 44,13 46,15
47,10 49,34 50,210 51,233
52,44 53,21 54,14 57,5
58,111 60,36 61,67 62,163
63,456 64,90 65,180 66,19
67,7 72,13 73,111 74,86
75,195 76,43 77,107 78,19
84,18 85,38 86,42 87,39
89,485 90,147 91,397 92,38
93,5 97,15 99,146 100,12
101,76 102,49 103,49 104,10
111,11 112,6 113,6 116,16
117,46 118,63 119,57 120,7
125,196 126,57 127,77 128,15
136,6 138,14 152,9 153,20
154,17 155,101 156,17 157,32
##END=
