##TITLE=Tricyclo(3.3.1.1(3,7))decan-2-amine
##JCAMP-DX=4.24
##DATA TYPE=MASS SPECTRUM
##ORIGIN=NIST Mass Spectrometry Data Center
##OWNER=NIST Mass Spectrometry Data Center
Collection (C) 2014 copyright by the U.S. Secretary of Commerce
on behalf of the United States of America. All rights reserved.
##CAS REGISTRY NO=13074-39-0
##$NIST MASS SPEC NO=333348
##MOLFORM=C10 H17 N
##MW=151
##$NIST SOURCE=MSDC
##XUNITS=M/Z
##YUNITS=RELATIVE INTENSITY
##XFACTOR=1
##YFACTOR=1
##FIRSTX=15
##LASTX=153
##FIRSTY=20
##MAXX=153
##MINX=15
##MAXY=9999
##MINY=10
##NPOINTS=96
##PEAK TABLE=(XY..XY)
15,20 18,40 26,30 27,380
28,801 29,370 30,3033 31,70
32,30 37,10 38,50 39,1161
40,190 41,1461 42,460 43,741
44,100 45,10 46,30 47,80
50,100 51,400 52,240 53,841
54,761 55,711 56,4104 57,290
58,50 59,40 60,20 62,30
63,110 64,30 65,571 66,651
67,1191 68,350 69,430 70,891
71,60 72,20 74,10 75,10
77,1411 78,1181 79,3603 80,2132
81,631 82,611 83,80 84,20
89,30 91,3443 92,6246 93,2712
94,971 95,180 96,110 97,20
102,10 103,80 104,70 105,1381
106,1051 107,260 108,1802 109,220
110,60 115,80 116,30 117,90
118,30 119,2102 120,280 121,80
122,140 123,30 124,10 128,10
129,10 130,10 131,20 132,20
133,140 134,5205 135,601 136,90
137,10 146,10 147,10 148,30
150,9999 151,5375 152,550 153,20
##END=
