##TITLE=Benzeneethanamine, 2-chloro-
##JCAMP-DX=4.24
##DATA TYPE=MASS SPECTRUM
##ORIGIN=Japan AIST/NIMC Database- Spectrum MS-NW-6061
##OWNER=NIST Mass Spectrometry Data Center
Collection (C) 2014 copyright by the U.S. Secretary of Commerce
on behalf of the United States of America. All rights reserved.
##CAS REGISTRY NO=13078-80-3
##$NIST MASS SPEC NO=235867
##MOLFORM=C8 H10 Cl N
##MW=155
##$NIST SOURCE=MSDC
##XUNITS=M/Z
##YUNITS=RELATIVE INTENSITY
##XFACTOR=1
##YFACTOR=1
##FIRSTX=15
##LASTX=156
##FIRSTY=20
##MAXX=156
##MINX=15
##MAXY=9999
##MINY=10
##NPOINTS=71
##PEAK TABLE=(XY..XY)
15,20 26,10 27,40 28,229
29,30 30,9999 31,139 32,10
36,20 37,20 38,40 39,179
40,20 41,40 42,60 43,30
44,10 45,10 49,10 50,90
51,139 52,30 53,10 58,70
59,20 61,20 62,80 63,229
64,50 65,119 66,10 70,10
73,50 74,30 75,80 76,20
77,99 78,20 79,10 85,10
86,20 87,20 89,299 90,119
91,409 92,50 99,90 101,40
102,30 103,50 104,10 106,10
107,20 116,10 117,60 118,80
119,60 120,589 121,50 125,289
126,99 127,99 128,30 135,10
138,30 139,20 140,10 141,10
152,10 154,30 156,10
##END=
