##TITLE=Bicyclo[2.2.1]hept-5-en-2-ol
##JCAMP-DX=4.24
##DATA TYPE=MASS SPECTRUM
##ORIGIN=Japan AIST/NIMC Database- Spectrum MS-NW-9881
##OWNER=NIST Mass Spectrometry Data Center
Collection (C) 2014 copyright by the U.S. Secretary of Commerce
on behalf of the United States of America. All rights reserved.
##CAS REGISTRY NO=13080-90-5
##$NIST MASS SPEC NO=239335
##MOLFORM=C7 H10 O
##MW=110
##$NIST SOURCE=MSDC
##XUNITS=M/Z
##YUNITS=RELATIVE INTENSITY
##XFACTOR=1
##YFACTOR=1
##FIRSTX=14
##LASTX=111
##FIRSTY=10
##MAXX=111
##MINX=14
##MAXY=9999
##MINY=10
##NPOINTS=65
##PEAK TABLE=(XY..XY)
14,10 15,40 17,20 18,70
26,60 27,449 28,80 29,259
30,10 31,109 37,30 38,109
39,909 40,449 41,509 42,99
43,209 44,80 45,50 46,40
47,10 49,10 50,109 51,229
52,90 53,369 54,339 55,329
56,30 57,149 58,10 60,20
61,20 62,30 63,90 64,30
65,629 66,9999 67,939 68,99
69,119 70,129 71,30 73,10
74,10 77,429 78,99 79,749
80,159 81,1399 82,1419 83,169
84,30 89,10 91,179 92,50
93,20 94,20 95,159 96,20
107,50 108,80 109,60 110,559
111,50
##END=
