##TITLE=2-Thiazolidinecarboxamide, 2-methyl-
##JCAMP-DX=4.24
##DATA TYPE=MASS SPECTRUM
##ORIGIN=James Little,Eastman Chem.Co.,Kingsport,TN
##OWNER=NIST Mass Spectrometry Data Center
Collection (C) 2014 copyright by the U.S. Secretary of Commerce
on behalf of the United States of America. All rights reserved.
##CAS REGISTRY NO=13084-22-5
##$NIST MASS SPEC NO=289061
##MOLFORM=C5 H10 N2 O S
##MW=146
##$NIST SOURCE=MSDC
##XUNITS=M/Z
##YUNITS=RELATIVE INTENSITY
##XFACTOR=1
##YFACTOR=1
##FIRSTX=27
##LASTX=131
##FIRSTY=931
##MAXX=131
##MINX=27
##MAXY=9999
##MINY=40
##NPOINTS=29
##PEAK TABLE=(XY..XY)
27,931 28,1031 29,180 30,400
35,230 41,601 42,3974 43,380
44,1611 45,631 54,500 55,981
56,490 59,1892 60,470 61,1611
68,170 69,80 71,70 73,60
74,50 75,50 99,100 100,200
101,70 102,9999 103,631 104,520
131,40
##END=
