##TITLE=2-Naphthyl propionate
##JCAMP-DX=4.24
##DATA TYPE=MASS SPECTRUM
##ORIGIN=NIST Mass Spectrometry Data Center, 1994
##OWNER=NIST Mass Spectrometry Data Center
Collection (C) 2014 copyright by the U.S. Secretary of Commerce
on behalf of the United States of America. All rights reserved.
##CAS REGISTRY NO=13080-43-8
##$NIST MASS SPEC NO=136355
##MOLFORM=C13 H12 O2
##MW=200
##$NIST SOURCE=MSDC
##XUNITS=M/Z
##YUNITS=RELATIVE INTENSITY
##XFACTOR=1
##YFACTOR=1
##FIRSTX=13
##LASTX=202
##FIRSTY=22
##MAXX=202
##MINX=13
##MAXY=9999
##MINY=5
##NPOINTS=59
##PEAK TABLE=(XY..XY)
13,22 14,55 15,45 18,24
25,23 26,270 27,1181 28,273
29,2509 30,49 37,27 38,81
39,414 40,16 41,38 42,71
50,226 51,251 52,38 53,34
55,91 57,1373 61,53 62,322
63,792 64,130 65,341 66,30
74,132 75,198 76,103 77,123
78,14 85,22 86,100 87,183
88,234 89,730 90,80 91,5
98,32 99,27 100,24 101,64
102,16 113,194 115,3286 116,790
117,70 126,136 127,284 128,53
141,18 144,9999 145,1106 146,80
200,794 201,119 202,12
##END=
