##TITLE=1,6-Hexanediamine, N,N'-dimethyl-
##JCAMP-DX=4.24
##DATA TYPE=MASS SPECTRUM
##ORIGIN=Japan AIST/NIMC Database- Spectrum MS-NW-3857
##OWNER=NIST Mass Spectrometry Data Center
Collection (C) 2014 copyright by the U.S. Secretary of Commerce
on behalf of the United States of America. All rights reserved.
##CAS REGISTRY NO=13093-04-4
##$NIST MASS SPEC NO=231912
##MOLFORM=C8 H20 N2
##MW=144
##$NIST SOURCE=MSDC
##XUNITS=M/Z
##YUNITS=RELATIVE INTENSITY
##XFACTOR=1
##YFACTOR=1
##FIRSTX=15
##LASTX=144
##FIRSTY=129
##MAXX=144
##MINX=15
##MAXY=9999
##MINY=10
##NPOINTS=55
##PEAK TABLE=(XY..XY)
15,129 26,10 27,129 28,309
29,119 30,489 31,339 32,199
39,99 40,20 41,289 42,389
43,169 44,9999 45,319 51,10
52,10 53,30 54,20 55,159
56,149 57,149 58,359 59,90
67,20 68,40 69,80 70,649
71,60 72,40 73,20 79,10
80,10 81,70 82,60 83,30
84,60 86,199 87,50 94,10
96,40 98,169 99,20 100,509
101,849 102,60 109,10 110,20
111,30 112,199 113,259 114,559
115,50 129,60 144,50
##END=
