##TITLE=3-Anilinorhodanine
##JCAMP-DX=4.24
##DATA TYPE=MASS SPECTRUM
##ORIGIN=A.A.Kutin, Moscow, Russia
##OWNER=NIST Mass Spectrometry Data Center
Collection (C) 2014 copyright by the U.S. Secretary of Commerce
on behalf of the United States of America. All rights reserved.
##CAS REGISTRY NO=13097-10-4
##$NIST MASS SPEC NO=266178
##MOLFORM=C9 H8 N2 O S2
##MW=224
##$NIST SOURCE=MSDC
##XUNITS=M/Z
##YUNITS=RELATIVE INTENSITY
##XFACTOR=1
##YFACTOR=1
##FIRSTX=33
##LASTX=229
##FIRSTY=36
##MAXX=229
##MINX=33
##MAXY=9999
##MINY=1
##NPOINTS=110
##PEAK TABLE=(XY..XY)
33,36 34,9 35,2 37,40
38,194 39,425 40,285 42,1990
45,1128 46,2302 48,195 50,265
51,460 52,240 53,22 54,16
56,12 58,367 59,55 61,51
62,78 63,352 64,723 65,1294
66,78 69,5 70,44 72,91
74,211 76,1289 77,2777 78,450
79,59 80,21 82,11 83,5
84,6 86,304 87,39 88,60
90,109 92,4834 93,466 95,21
96,60 97,68 98,75 99,7
102,6 103,13 104,105 105,2477
106,1002 109,71 110,59 112,12
115,1 117,17 118,274 120,3805
121,281 123,348 124,137 125,36
126,2 130,4 132,49 133,40
134,17 135,26 136,108 137,53
138,11 140,8 145,14 147,29
148,2661 150,1654 151,194 152,82
153,25 154,19 155,14 156,2
158,13 162,11 163,64 164,10
165,5 166,7 167,22 168,9
170,2 177,263 179,61 180,13
181,14 182,19 183,2 184,40
191,67 192,9 195,2 196,2
221,2 224,9999 225,1051 226,977
228,95 229,6
##END=
