##TITLE=Phenol, 2-cyclohexyl-4,6-dinitro-
##JCAMP-DX=4.24
##DATA TYPE=MASS SPECTRUM
##ORIGIN=NIST Mass Spectrometry Data Center, 1998.
##OWNER=NIST Mass Spectrometry Data Center
Collection (C) 2014 copyright by the U.S. Secretary of Commerce
on behalf of the United States of America. All rights reserved.
##CAS REGISTRY NO=131-89-5
##$NIST MASS SPEC NO=291869
##MOLFORM=C12 H14 N2 O5
##MW=266
##$NIST SOURCE=MSDC
##XUNITS=M/Z
##YUNITS=RELATIVE INTENSITY
##XFACTOR=1
##YFACTOR=1
##FIRSTX=15
##LASTX=268
##FIRSTY=60
##MAXX=268
##MINX=15
##MAXY=9999
##MINY=20
##NPOINTS=212
##PEAK TABLE=(XY..XY)
15,60 16,30 26,140 27,2070
28,910 29,2450 30,1850 31,40
37,90 38,380 39,5179 40,860
41,9689 42,800 43,1110 44,130
45,130 46,150 48,50 49,30
50,1360 51,3930 52,1720 53,4630
54,1190 55,5609 56,960 57,710
58,90 59,30 61,210 62,1400
63,4770 64,1640 65,3150 66,1260
67,4800 68,930 69,1710 70,210
71,50 72,30 73,60 74,840
75,1680 76,2230 77,6509 78,2330
79,2680 80,900 81,1760 82,290
83,280 84,60 85,70 86,300
87,660 88,700 89,5629 90,2080
91,3550 92,890 93,620 94,260
95,240 96,160 97,50 98,140
99,170 100,100 101,730 102,2570
103,2610 104,1600 105,2490 106,870
107,650 108,220 109,360 110,90
111,60 112,20 113,250 114,410
115,5149 116,3010 117,4720 118,1700
119,660 120,290 121,180 122,240
123,90 124,60 125,40 126,240
127,1460 128,2700 129,3000 130,2190
131,2490 132,950 133,650 134,440
135,360 136,140 137,40 138,130
139,700 140,440 141,540 142,660
143,1190 144,1430 145,920 146,820
147,2710 148,580 149,240 150,340
151,1340 152,950 153,290 154,1020
155,730 156,2030 157,2450 158,730
159,630 160,670 161,440 162,260
163,4760 164,490 165,250 166,620
167,760 168,2580 169,510 170,1750
171,550 172,800 173,1080 174,860
175,1180 176,560 177,1900 178,350
179,180 180,680 181,530 182,890
183,1390 184,3280 185,8199 186,1830
187,370 188,130 189,620 190,570
191,500 192,730 193,6729 194,1050
195,310 196,130 197,2640 198,290
199,100 200,130 201,1400 202,1560
203,2950 204,670 205,550 206,4170
207,2080 208,250 209,60 210,1110
211,220 212,40 213,580 214,2430
215,420 216,110 217,150 218,80
219,550 220,3630 221,530 222,70
223,110 224,50 225,30 229,260
231,9999 232,1500 233,210 234,30
235,30 236,400 237,90 246,20
247,320 248,1910 249,2200 250,470
251,60 266,5969 267,850 268,110
##END=
