##TITLE=Dipicrylamine
##JCAMP-DX=4.24
##DATA TYPE=MASS SPECTRUM
##ORIGIN=Japan AIST/NIMC Database- Spectrum MS-NW-2556
##OWNER=NIST Mass Spectrometry Data Center
Collection (C) 2014 copyright by the U.S. Secretary of Commerce
on behalf of the United States of America. All rights reserved.
##CAS REGISTRY NO=131-73-7
##$NIST MASS SPEC NO=231019
##MOLFORM=C12 H5 N7 O12
##MW=439
##$NIST SOURCE=MSDC
##XUNITS=M/Z
##YUNITS=RELATIVE INTENSITY
##XFACTOR=1
##YFACTOR=1
##FIRSTX=12
##LASTX=440
##FIRSTY=40
##MAXX=440
##MINX=12
##MAXY=9999
##MINY=10
##NPOINTS=280
##PEAK TABLE=(XY..XY)
12,40 14,60 15,30 16,239
26,60 27,269 28,1239 29,189
30,9999 31,80 32,80 37,149
38,389 39,239 40,50 46,629
47,289 48,10 49,50 50,1049
51,389 52,479 53,1699 54,149
55,99 56,30 57,60 60,30
61,579 62,1879 63,679 64,699
65,129 66,1419 67,199 68,139
69,5389 70,329 71,40 72,20
73,219 74,2629 75,999 76,919
77,1299 78,629 79,219 80,1509
81,90 82,30 83,60 84,50
85,99 86,469 87,609 88,1029
89,299 90,309 91,199 92,429
93,289 94,199 95,50 96,80
97,40 98,299 99,579 100,829
101,249 102,199 103,119 104,399
105,159 106,99 107,70 108,129
109,60 110,189 111,279 112,339
113,219 114,149 115,90 116,379
117,109 118,60 119,60 120,559
121,80 122,149 123,259 124,439
125,229 126,139 127,139 128,70
129,60 130,30 131,20 132,40
133,40 134,80 135,129 136,209
137,189 138,259 139,199 140,149
141,339 142,119 143,60 144,50
145,30 146,20 147,40 148,80
149,109 150,169 151,259 152,419
153,299 154,99 155,60 156,80
157,139 158,40 159,30 160,30
161,20 162,219 163,459 164,359
165,199 166,279 167,129 168,149
169,159 170,40 171,40 172,10
173,10 174,20 175,50 176,119
177,60 178,589 179,299 180,179
181,309 182,80 183,60 184,30
185,30 186,129 187,809 188,129
189,50 190,30 191,50 192,209
193,229 194,179 195,70 196,60
197,199 198,229 199,279 200,40
201,30 202,50 203,159 204,20
205,10 206,10 207,30 208,159
209,329 210,209 211,109 212,139
213,80 214,40 215,109 216,119
217,50 218,10 220,10 221,10
222,90 223,30 224,259 225,159
226,129 227,559 228,149 229,99
230,20 231,10 232,60 233,829
234,119 235,50 236,10 237,20
238,119 239,99 240,70 241,50
242,30 243,199 244,50 245,589
246,70 247,10 248,10 249,189
250,20 251,10 253,10 254,219
255,219 256,99 257,60 258,20
259,40 260,40 261,99 262,10
263,10 264,10 265,10 266,10
267,30 268,30 269,20 270,109
271,349 272,159 273,1119 274,169
275,40 283,10 284,40 285,229
286,60 287,10 288,10 289,269
290,40 291,549 292,80 293,10
300,10 301,50 302,30 303,20
306,10 314,60 315,20 316,20
317,50 318,20 319,2099 320,299
321,50 330,40 331,70 332,10
333,10 347,40 348,10 360,379
361,60 362,10 363,50 376,30
377,10 423,10 439,139 440,20
##END=
