##TITLE=Diallyl phthalate
##JCAMP-DX=4.24
##DATA TYPE=MASS SPECTRUM
##ORIGIN=Japan AIST/NIMC Database- Spectrum MS-NW- 275
##OWNER=NIST Mass Spectrometry Data Center
Collection (C) 2014 copyright by the U.S. Secretary of Commerce
on behalf of the United States of America. All rights reserved.
##CAS REGISTRY NO=131-17-9
##$NIST MASS SPEC NO=228069
##MOLFORM=C14 H14 O4
##MW=246
##$NIST SOURCE=MSDC
##XUNITS=M/Z
##YUNITS=RELATIVE INTENSITY
##XFACTOR=1
##YFACTOR=1
##FIRSTX=15
##LASTX=246
##FIRSTY=30
##MAXX=246
##MINX=15
##MAXY=9999
##MINY=10
##NPOINTS=83
##PEAK TABLE=(XY..XY)
15,30 18,20 26,20 27,129
28,50 29,50 31,20 37,10
38,50 39,969 40,90 41,9999
42,369 43,209 50,309 51,119
52,20 53,20 54,50 55,40
56,40 57,129 63,20 64,20
65,359 66,30 67,10 68,40
69,70 70,50 74,70 75,90
76,639 77,219 78,20 79,20
80,169 81,20 83,99 91,40
92,30 93,289 94,20 97,20
98,1459 99,99 103,30 104,1049
105,289 106,20 115,99 116,40
117,90 118,30 121,249 122,40
131,20 132,1379 133,149 134,20
144,20 145,30 146,40 147,60
148,20 149,5369 150,489 151,50
159,20 160,20 161,70 162,70
172,289 173,40 174,30 184,30
188,849 189,2439 190,389 191,50
202,50 216,20 246,50
##END=
