##TITLE=Dioxybenzone
##JCAMP-DX=4.24
##DATA TYPE=MASS SPECTRUM
##ORIGIN=Japan AIST/NIMC Database- Spectrum MS-NW-4750
##OWNER=NIST Mass Spectrometry Data Center
Collection (C) 2014 copyright by the U.S. Secretary of Commerce
on behalf of the United States of America. All rights reserved.
##CAS REGISTRY NO=131-53-3
##$NIST MASS SPEC NO=232783
##MOLFORM=C14 H12 O4
##MW=244
##$NIST SOURCE=MSDC
##XUNITS=M/Z
##YUNITS=RELATIVE INTENSITY
##XFACTOR=1
##YFACTOR=1
##FIRSTX=15
##LASTX=247
##FIRSTY=90
##MAXX=247
##MINX=15
##MAXY=9999
##MINY=10
##NPOINTS=166
##PEAK TABLE=(XY..XY)
15,90 18,10 26,10 27,70
28,10 29,20 31,10 38,50
39,599 40,50 41,179 42,10
43,50 50,60 51,289 52,289
53,249 54,30 55,189 56,10
57,10 58,10 59,30 62,50
63,339 64,259 65,1319 66,199
67,90 68,30 69,339 70,20
71,10 72,10 74,30 75,109
76,99 77,269 78,70 79,249
80,249 81,149 82,20 83,10
84,10 85,10 86,20 87,40
88,30 89,80 90,40 91,90
92,559 93,889 94,749 95,809
96,80 97,10 98,10 99,20
100,20 101,70 102,70 103,40
104,20 105,60 106,30 107,249
108,789 109,80 110,10 111,10
113,40 114,30 115,209 116,70
117,40 118,30 119,40 120,709
121,9999 122,1229 123,209 124,5059
125,419 126,119 127,199 128,129
129,40 130,10 131,80 132,10
133,20 134,30 135,20 136,50
137,30 138,70 139,80 140,20
141,20 142,10 143,10 144,60
145,40 146,10 147,20 149,30
150,399 151,3119 152,289 153,40
154,20 155,129 156,30 157,20
158,10 159,50 160,10 161,10
164,10 165,10 167,10 168,20
169,20 171,70 172,50 173,70
174,10 175,10 181,10 182,20
183,90 184,239 185,50 186,20
187,109 188,20 195,10 196,10
197,20 198,20 199,30 200,189
201,80 202,10 210,10 211,40
212,70 213,129 214,30 215,30
216,10 225,20 226,70 227,4089
228,659 229,159 230,20 241,30
242,20 243,1439 244,6799 245,1089
246,129 247,10
##END=
