##TITLE=Methanone, (2-methylphenyl)phenyl-
##JCAMP-DX=4.24
##DATA TYPE=MASS SPECTRUM
##ORIGIN=Japan AIST/NIMC Database- Spectrum MS-NW-6014
##OWNER=NIST Mass Spectrometry Data Center
Collection (C) 2014 copyright by the U.S. Secretary of Commerce
on behalf of the United States of America. All rights reserved.
##CAS REGISTRY NO=131-58-8
##$NIST MASS SPEC NO=236063
##MOLFORM=C14 H12 O
##MW=196
##$NIST SOURCE=MSDC
##XUNITS=M/Z
##YUNITS=RELATIVE INTENSITY
##XFACTOR=1
##YFACTOR=1
##FIRSTX=14
##LASTX=199
##FIRSTY=10
##MAXX=199
##MINX=14
##MAXY=9999
##MINY=10
##NPOINTS=118
##PEAK TABLE=(XY..XY)
14,10 26,20 27,129 28,109
29,10 37,30 38,90 39,699
40,50 41,189 43,10 44,20
49,20 50,349 51,1209 52,119
53,30 55,10 56,10 57,20
61,30 62,159 63,499 64,149
65,1469 66,90 69,50 70,30
71,30 73,20 74,139 75,149
76,299 77,3169 78,249 79,10
81,40 82,159 83,159 84,70
85,30 86,50 87,60 88,139
89,699 90,309 91,3479 92,299
93,10 96,20 97,229 98,80
99,20 100,10 101,20 102,30
103,20 104,20 105,2519 106,219
107,20 109,10 110,10 111,10
113,30 114,10 115,109 116,10
118,109 119,3099 120,269 121,30
122,10 125,10 126,50 127,40
128,70 129,10 131,10 137,10
138,10 139,90 140,20 141,40
142,10 150,30 151,90 152,329
153,129 154,20 160,10 161,10
162,10 163,70 164,70 165,589
166,169 167,289 168,70 169,10
175,10 176,50 177,519 178,789
179,699 180,109 181,609 182,119
183,10 191,10 192,10 193,40
194,439 195,9999 196,6829 197,949
198,90 199,10
##END=
