##TITLE=Methanone, bis(2-hydroxy-4-methoxyphenyl)-
##JCAMP-DX=4.24
##DATA TYPE=MASS SPECTRUM
##ORIGIN=RADIAN CORP
##OWNER=NIST Mass Spectrometry Data Center
Collection (C) 2014 copyright by the U.S. Secretary of Commerce
on behalf of the United States of America. All rights reserved.
##CAS REGISTRY NO=131-54-4
##$NIST MASS SPEC NO=70834
##MOLFORM=C15 H14 O5
##MW=274
##$NIST SOURCE=MSDC
##XUNITS=M/Z
##YUNITS=RELATIVE INTENSITY
##XFACTOR=1
##YFACTOR=1
##FIRSTX=15
##LASTX=276
##FIRSTY=90
##MAXX=276
##MINX=15
##MAXY=9999
##MINY=10
##NPOINTS=146
##PEAK TABLE=(XY..XY)
15,90 27,30 29,70 32,40
38,60 39,190 40,50 41,150
42,20 43,40 44,30 45,20
50,110 51,330 52,370 53,330
54,50 55,160 59,60 61,20
62,110 63,360 64,140 65,290
66,110 67,70 68,20 69,450
70,20 73,90 74,80 75,100
76,60 77,190 78,60 79,350
80,280 81,110 82,10 86,30
87,50 88,50 89,80 90,30
91,100 92,110 93,120 94,320
95,620 96,60 98,20 99,20
100,20 101,40 102,50 103,60
104,30 105,40 106,80 107,380
108,750 109,70 110,10 111,20
113,40 114,60 115,140 116,50
117,20 118,30 119,60 120,60
121,50 122,530 123,530 124,1360
125,120 126,60 127,40 128,40
129,20 130,10 131,50 132,30
133,40 134,50 135,40 136,50
137,40 138,30 139,20 141,20
142,60 143,40 144,50 145,30
146,20 147,40 148,20 149,70
150,640 151,9999 152,920 153,100
155,20 158,10 159,30 160,30
161,50 170,50 171,60 172,20
173,20 175,20 177,30 185,50
186,30 187,30 189,20 193,20
199,40 200,20 201,60 202,20
203,40 207,20 213,60 214,130
215,40 217,60 229,30 230,80
231,60 241,30 242,80 243,70
244,10 256,50 257,2030 258,360
259,80 272,60 273,430 274,2130
275,360 276,60
##END=
