##TITLE=Methanone, bis(2,4-dihydroxyphenyl)-
##JCAMP-DX=4.24
##DATA TYPE=MASS SPECTRUM
##ORIGIN=Japan AIST/NIMC Database- Spectrum MS-NW- 287
##OWNER=NIST Mass Spectrometry Data Center
Collection (C) 2014 copyright by the U.S. Secretary of Commerce
on behalf of the United States of America. All rights reserved.
##CAS REGISTRY NO=131-55-5
##$NIST MASS SPEC NO=228472
##MOLFORM=C13 H10 O5
##MW=246
##$NIST SOURCE=MSDC
##XUNITS=M/Z
##YUNITS=RELATIVE INTENSITY
##XFACTOR=1
##YFACTOR=1
##FIRSTX=17
##LASTX=248
##FIRSTY=30
##MAXX=248
##MINX=17
##MAXY=9999
##MINY=10
##NPOINTS=141
##PEAK TABLE=(XY..XY)
17,30 18,109 26,20 27,219
28,99 29,70 37,20 38,70
39,259 40,20 41,50 42,50
43,50 44,30 50,99 51,289
52,199 53,389 54,40 55,199
56,10 57,30 58,20 59,20
61,20 62,80 63,239 64,60
65,99 66,50 67,40 68,20
69,719 70,30 71,30 72,40
73,10 74,50 75,60 76,30
77,99 78,40 79,109 80,149
81,799 82,90 83,20 85,20
86,50 87,40 88,30 89,60
90,20 91,60 92,60 93,30
94,20 95,99 97,20 98,10
99,10 100,149 101,40 102,30
103,30 104,10 105,30 107,139
108,529 109,599 110,1109 111,80
113,10 114,30 115,129 116,20
118,20 119,30 120,20 121,40
123,60 126,10 127,20 129,10
131,40 132,10 133,10 134,10
135,20 136,829 137,9999 138,789
139,90 142,10 143,20 144,20
145,10 147,99 148,10 149,30
150,10 153,10 155,20 160,10
161,30 163,20 167,10 169,10
171,90 172,20 175,109 176,40
177,20 178,30 179,20 183,10
187,20 189,60 190,10 192,10
199,40 200,109 201,50 202,139
203,70 204,30 211,10 216,20
217,189 218,40 220,10 227,10
228,289 229,2759 230,409 231,50
244,20 245,819 246,4809 247,709
248,90
##END=
