##TITLE=.alpha.-Naphthyl red
##JCAMP-DX=4.24
##DATA TYPE=MASS SPECTRUM
##ORIGIN=Japan AIST/NIMC Database- Spectrum MS-IW-1439
##OWNER=NIST Mass Spectrometry Data Center
Collection (C) 2014 copyright by the U.S. Secretary of Commerce
on behalf of the United States of America. All rights reserved.
##CAS REGISTRY NO=131-22-6
##$NIST MASS SPEC NO=240387
##MOLFORM=C16 H13 N3
##MW=247
##$NIST SOURCE=MSDC
##XUNITS=M/Z
##YUNITS=RELATIVE INTENSITY
##XFACTOR=1
##YFACTOR=1
##FIRSTX=27
##LASTX=250
##FIRSTY=50
##MAXX=250
##MINX=27
##MAXY=9999
##MINY=10
##NPOINTS=138
##PEAK TABLE=(XY..XY)
27,50 28,80 29,10 37,10
38,50 39,349 40,20 41,50
42,10 43,20 50,129 51,599
52,139 53,30 54,20 55,10
57,20 61,10 62,80 63,269
64,109 65,229 66,60 67,10
69,10 70,20 71,20 74,70
75,139 76,139 77,1349 78,119
79,30 82,10 83,10 85,10
86,30 87,60 88,139 89,449
90,70 91,90 92,30 93,109
94,10 97,10 98,10 99,20
100,20 101,70 102,129 103,70
104,40 105,40 109,10 110,10
111,10 112,10 113,199 114,419
115,3569 116,1159 117,99 118,10
122,10 123,269 124,50 125,10
126,20 127,40 128,90 129,50
130,40 131,10 138,10 139,20
140,819 141,359 142,9999 143,1199
144,70 145,30 146,20 149,10
151,10 152,10 153,10 155,119
156,40 157,40 158,99 159,10
163,10 164,10 165,40 166,20
167,60 168,30 169,10 170,1219
171,139 172,10 176,10 177,10
178,10 179,10 180,10 188,10
189,80 190,50 191,60 192,30
193,10 200,20 201,60 202,80
203,40 204,20 205,20 206,10
215,10 216,60 217,219 218,209
219,199 220,99 221,30 229,40
230,40 231,99 232,20 244,60
245,139 246,1319 247,9219 248,1719
249,169 250,10
##END=
