##TITLE=Butanoic acid, 1,7,7-trimethylbicyclo[2.2.1]hept-2-yl ester, endo-
##JCAMP-DX=4.24
##DATA TYPE=MASS SPECTRUM
##ORIGIN=Philip Morris R&D
##OWNER=NIST Mass Spectrometry Data Center
Collection (C) 2014 copyright by the U.S. Secretary of Commerce
on behalf of the United States of America. All rights reserved.
##CAS REGISTRY NO=13109-70-1
##$NIST MASS SPEC NO=109376
##MOLFORM=C14 H24 O2
##MW=224
##$NIST SOURCE=MSDC
##XUNITS=M/Z
##YUNITS=RELATIVE INTENSITY
##XFACTOR=1
##YFACTOR=1
##FIRSTX=36
##LASTX=224
##FIRSTY=6
##MAXX=224
##MINX=36
##MAXY=9999
##MINY=4
##NPOINTS=96
##PEAK TABLE=(XY..XY)
36,6 38,16 39,511 40,157
41,2479 42,315 43,6662 44,264
45,82 46,13 47,20 48,12
50,20 51,86 52,55 53,328
54,55 55,1123 56,73 57,408
58,46 59,118 60,48 61,14
63,13 64,9 65,169 66,63
67,1110 68,262 69,1619 70,213
71,9999 72,753 73,60 77,313
78,62 79,626 80,1268 81,1424
82,996 83,844 84,269 85,58
86,19 87,19 88,4 89,47
91,403 92,1404 93,4341 94,810
95,8998 96,706 97,243 98,99
99,62 100,15 103,14 105,186
106,60 107,1012 108,2944 109,3133
110,2684 111,729 112,58 113,56
114,59 115,52 119,65 120,19
121,4314 122,376 123,188 124,35
125,65 126,28 133,5 135,307
136,7541 137,1482 138,106 139,259
140,33 141,12 142,26 152,89
153,263 154,1444 155,175 156,6
181,42 191,4 209,34 224,300
##END=
