##TITLE=5-Ethenyl-5-(1-methyl-3-butenyl)-hexahydropyrimidine-2,4,6-trione
##JCAMP-DX=4.24
##DATA TYPE=MASS SPECTRUM
##ORIGIN=H.Maurer, J.Chromatogr.,530,307(1990)
##OWNER=NIST Mass Spectrometry Data Center
Collection (C) 2014 copyright by the U.S. Secretary of Commerce
on behalf of the United States of America. All rights reserved.
##CAS REGISTRY NO=131147-55-2
##$NIST MASS SPEC NO=281547
##MOLFORM=C11 H14 N2 O3
##MW=222
##$NIST SOURCE=MSDC
##XUNITS=M/Z
##YUNITS=RELATIVE INTENSITY
##XFACTOR=1
##YFACTOR=1
##FIRSTX=51
##LASTX=196
##FIRSTY=300
##MAXX=196
##MINX=51
##MAXY=9999
##MINY=40
##NPOINTS=73
##PEAK TABLE=(XY..XY)
51,300 52,260 53,1001 54,480
55,1381 56,561 57,330 58,300
63,110 65,631 66,1151 67,4764
68,1601 69,4544 70,631 71,821
72,40 73,110 77,561 78,150
79,891 80,220 81,931 82,450
83,3753 84,300 85,1301 86,220
87,671 91,330 92,110 93,861
94,821 95,1121 96,260 97,480
98,260 107,260 108,300 109,561
110,410 111,520 112,2752 113,450
121,410 122,190 124,150 125,480
126,260 135,150 136,260 137,330
138,260 139,1081 140,150 141,190
149,110 150,260 152,220 153,971
154,9999 155,2943 156,330 164,300
165,110 168,150 169,260 179,220
180,190 181,260 193,150 195,631
196,150
##END=
