##TITLE=2-Formyl-2-desmethyl-methaqualone
##JCAMP-DX=4.24
##DATA TYPE=MASS SPECTRUM
##ORIGIN=H.Maurer,J.Chromatogr.,530,307(1990)
##OWNER=NIST Mass Spectrometry Data Center
Collection (C) 2014 copyright by the U.S. Secretary of Commerce
on behalf of the United States of America. All rights reserved.
##CAS REGISTRY NO=131147-51-8
##$NIST MASS SPEC NO=281589
##MOLFORM=C16 H12 N2 O2
##MW=264
##$NIST SOURCE=MSDC
##XUNITS=M/Z
##YUNITS=RELATIVE INTENSITY
##XFACTOR=1
##YFACTOR=1
##FIRSTX=51
##LASTX=264
##FIRSTY=420
##MAXX=264
##MINX=51
##MAXY=9999
##MINY=80
##NPOINTS=40
##PEAK TABLE=(XY..XY)
51,420 52,530 63,530 64,340
65,1411 75,230 76,420 77,530
78,80 88,761 89,1061 91,1101
102,460 103,230 107,270 116,420
117,611 118,110 119,150 120,150
132,2092 133,110 144,110 151,110
152,80 178,110 179,190 180,270
192,150 205,420 206,801 207,110
208,80 219,80 234,530 235,9999
236,80 248,230 263,80 264,1411
##END=
