##TITLE=Androstane-3,17-diol, (3.alpha.,5.beta.,17.beta.)-, 2TMS derivative
##JCAMP-DX=4.24
##DATA TYPE=MASS SPECTRUM
##ORIGIN=C.D. KOCHAKIAN,MED. CENT.,UNIV. OF ALA. IN BIRMINGHAM,ALA.,USA
##OWNER=NIST Mass Spectrometry Data Center
Collection (C) 2014 copyright by the U.S. Secretary of Commerce
on behalf of the United States of America. All rights reserved.
##CAS REGISTRY NO=13111-26-7
##$NIST MASS SPEC NO=101117
##MOLFORM=C25 H48 O2 Si2
##MW=436
##$NIST SOURCE=MSDC
##XUNITS=M/Z
##YUNITS=RELATIVE INTENSITY
##XFACTOR=1
##YFACTOR=1
##FIRSTX=55
##LASTX=437
##FIRSTY=700
##MAXX=437
##MINX=55
##MAXY=9999
##MINY=400
##NPOINTS=89
##PEAK TABLE=(XY..XY)
55,700 61,500 67,2000 69,500
73,8500 75,9400 76,700 77,900
79,2600 81,2800 83,600 89,400
91,2800 93,3000 94,1800 95,2700
96,400 97,500 101,2000 103,500
105,3200 106,1900 107,3300 108,1000
109,1700 115,1900 116,2300 117,2000
118,800 119,2000 120,1000 121,2100
122,600 123,800 129,9999 130,4200
131,2800 132,700 133,2100 134,1100
135,2400 136,400 142,400 143,800
145,2200 146,1400 147,2900 148,1300
149,1300 155,400 157,600 158,400
159,1900 160,1800 161,2500 162,1700
163,800 171,400 173,1100 174,1000
175,1000 176,400 185,1600 186,400
187,1000 188,500 199,3500 200,1200
201,3300 202,2600 203,1600 213,1500
215,5200 216,1500 217,2400 218,400
227,600 228,1000 230,1200 241,7100
242,1500 255,1000 256,6200 346,2600
347,700 421,2000 422,600 436,1300
437,600
##END=
