##TITLE=Androst-5-ene-3,17-diol, (3.beta.,17.alpha.)-, 2TMS derivative
##JCAMP-DX=4.24
##DATA TYPE=MASS SPECTRUM
##ORIGIN=STER ANDR TMSI SE30 01 2590 E M.HORN
##OWNER=NIST Mass Spectrometry Data Center
Collection (C) 2014 copyright by the U.S. Secretary of Commerce
on behalf of the United States of America. All rights reserved.
##CAS REGISTRY NO=13111-27-8
##$NIST MASS SPEC NO=43537
##MOLFORM=C25 H46 O2 Si2
##MW=434
##$NIST SOURCE=MSDC
##XUNITS=M/Z
##YUNITS=RELATIVE INTENSITY
##XFACTOR=1
##YFACTOR=1
##FIRSTX=67
##LASTX=435
##FIRSTY=300
##MAXX=435
##MINX=67
##MAXY=9999
##MINY=200
##NPOINTS=92
##PEAK TABLE=(XY..XY)
67,300 69,200 73,1900 74,200
75,1700 79,200 81,1000 83,200
91,400 93,600 94,200 95,800
105,700 106,400 107,1800 108,500
109,700 115,400 116,200 117,300
118,200 119,2800 120,800 121,1100
122,200 129,9999 130,1700 131,1500
132,500 133,1200 134,400 135,400
143,1600 144,500 145,2000 146,600
147,900 148,400 149,200 155,600
156,200 157,700 158,1600 159,1500
160,600 161,1100 162,200 169,500
170,200 171,600 172,500 173,800
174,200 183,400 184,200 185,500
186,300 187,500 189,300 195,200
196,200 197,700 198,200 199,1600
200,500 211,600 212,700 213,4000
214,1000 215,7200 216,1400 225,300
226,600 228,400 239,5300 240,1200
252,400 253,900 254,4900 255,1200
303,300 304,900 305,2300 306,600
329,2100 330,700 344,3500 345,1200
346,300 419,200 434,1100 435,400
##END=
