##TITLE=5-Ethyl-5-(1-methyl-1,3-butadienyl)-hexahydropyrimidine-2,4,6-trione
##JCAMP-DX=4.24
##DATA TYPE=MASS SPECTRUM
##ORIGIN=H.Maurer, J.Chromatogr.,530,307(1990)
##OWNER=NIST Mass Spectrometry Data Center
Collection (C) 2014 copyright by the U.S. Secretary of Commerce
on behalf of the United States of America. All rights reserved.
##CAS REGISTRY NO=131147-54-1
##$NIST MASS SPEC NO=281545
##MOLFORM=C11 H14 N2 O3
##MW=222
##$NIST SOURCE=MSDC
##XUNITS=M/Z
##YUNITS=RELATIVE INTENSITY
##XFACTOR=1
##YFACTOR=1
##FIRSTX=53
##LASTX=197
##FIRSTY=330
##MAXX=197
##MINX=53
##MAXY=9999
##MINY=40
##NPOINTS=52
##PEAK TABLE=(XY..XY)
53,330 54,40 55,260 65,220
66,180 67,811 68,40 70,110
77,410 79,180 80,40 81,110
82,40 83,70 85,2622 86,150
91,330 93,110 94,40 95,40
96,40 97,110 107,110 108,70
109,70 110,40 118,40 122,70
123,40 124,220 127,110 132,70
133,220 136,220 137,40 141,180
150,2442 151,480 152,70 153,110
155,260 157,150 160,70 167,330
168,70 169,550 176,40 179,110
193,9999 194,1001 195,40 197,150
##END=
