##TITLE=Phenol-d6-
##JCAMP-DX=4.24
##DATA TYPE=MASS SPECTRUM
##ORIGIN=NIST Mass Spectrometry Data Center, 1990.
##OWNER=NIST Mass Spectrometry Data Center
Collection (C) 2014 copyright by the U.S. Secretary of Commerce
on behalf of the United States of America. All rights reserved.
##CAS REGISTRY NO=13127-88-3
##$NIST MASS SPEC NO=118437
##MOLFORM=C6 D6 O
##MW=100
##$NIST SOURCE=MSDC
##XUNITS=M/Z
##YUNITS=RELATIVE INTENSITY
##XFACTOR=1
##YFACTOR=1
##FIRSTX=13
##LASTX=101
##FIRSTY=18
##MAXX=101
##MINX=13
##MAXY=9999
##MINY=18
##NPOINTS=66
##PEAK TABLE=(XY..XY)
13,18 14,18 15,60 16,38
17,40 18,35 19,26 24,27
26,104 28,622 29,260 30,521
32,255 33,39 34,53 35,55
36,67 37,53 38,662 39,199
40,1317 41,1023 42,3347 43,1464
44,1022 45,66 46,63 48,52
50,366 51,104 52,995 53,213
54,1017 55,84 56,135 57,188
58,834 59,46 60,48 61,24
62,248 63,39 64,355 65,147
66,596 67,97 68,355 69,1398
70,2296 71,4824 72,1143 73,74
74,72 75,27 76,230 77,18
78,104 79,27 80,67 81,79
82,170 96,30 98,1012 99,9999
100,2658 101,168
##END=
