##TITLE=cis-13-Octadecenoic acid
##JCAMP-DX=4.24
##DATA TYPE=MASS SPECTRUM
##ORIGIN=NIST Mass Spectrometry Data Center
##OWNER=NIST Mass Spectrometry Data Center
Collection (C) 2014 copyright by the U.S. Secretary of Commerce
on behalf of the United States of America. All rights reserved.
##CAS REGISTRY NO=13126-39-1
##$NIST MASS SPEC NO=333585
##MOLFORM=C18 H34 O2
##MW=282
##$NIST SOURCE=MSDC
##XUNITS=M/Z
##YUNITS=RELATIVE INTENSITY
##XFACTOR=1
##YFACTOR=1
##FIRSTX=15
##LASTX=284
##FIRSTY=10
##MAXX=284
##MINX=15
##MAXY=9999
##MINY=10
##NPOINTS=203
##PEAK TABLE=(XY..XY)
15,10 26,20 27,490 28,140
29,841 30,30 31,50 38,20
39,791 40,160 41,4664 42,951
43,2452 44,90 45,540 46,20
47,10 50,20 51,60 52,50
53,661 54,1581 55,9999 56,2402
57,1782 58,160 59,270 60,1571
61,130 62,10 63,10 64,10
65,220 66,160 67,2232 68,1361
69,5495 70,2022 71,891 72,60
73,1221 74,120 75,30 76,10
77,200 78,60 79,540 80,250
81,1862 82,1682 83,4344 84,2482
85,671 86,90 87,440 88,50
89,10 91,180 92,50 93,280
94,310 95,1421 96,2162 97,3964
98,2112 99,400 100,340 101,540
102,70 103,20 104,10 105,110
106,50 107,250 108,250 109,861
110,1311 111,1852 112,771 113,310
114,671 115,350 116,90 117,30
118,20 119,210 120,90 121,290
122,200 123,861 124,771 125,881
126,360 127,470 128,160 129,300
130,50 131,30 132,10 133,230
134,220 135,250 136,140 137,550
138,540 139,420 140,180 141,130
142,40 143,100 144,30 145,10
146,10 147,180 148,180 149,200
150,110 151,400 152,360 153,230
154,100 155,90 156,30 157,60
158,20 159,10 161,130 162,70
163,110 164,80 165,280 166,240
167,140 168,50 169,90 170,20
171,40 172,20 173,10 175,100
176,40 177,60 178,50 179,190
180,260 181,100 182,40 183,50
184,10 185,40 186,40 187,10
189,60 190,20 191,30 192,20
193,140 194,110 195,50 196,20
197,10 198,10 199,30 200,20
201,10 203,40 204,10 205,10
206,10 207,130 208,90 209,40
210,20 211,10 212,10 213,20
214,10 217,20 218,10 220,220
221,190 222,250 223,60 224,10
225,10 227,10 235,130 236,70
237,10 239,30 241,10 246,50
247,10 249,20 253,10 264,791
265,190 266,20 278,10 280,10
282,150 283,40 284,10
##END=
