##TITLE=Bromazepam-3-hydroxy
##JCAMP-DX=4.24
##DATA TYPE=MASS SPECTRUM
##ORIGIN=Finnigan MAT: Toxicological Library (LIBR-TX)
##OWNER=NIST Mass Spectrometry Data Center
Collection (C) 2014 copyright by the U.S. Secretary of Commerce
on behalf of the United States of America. All rights reserved.
##CAS REGISTRY NO=13132-73-5
##$NIST MASS SPEC NO=120278
##MOLFORM=C14 H10 Br N3 O2
##MW=331
##$NIST SOURCE=MSDC
##XUNITS=M/Z
##YUNITS=RELATIVE INTENSITY
##XFACTOR=1
##YFACTOR=1
##FIRSTX=11
##LASTX=333
##FIRSTY=213
##MAXX=333
##MINX=11
##MAXY=9999
##MINY=99
##NPOINTS=34
##PEAK TABLE=(XY..XY)
11,213 44,2494 51,3011 52,3265
63,1496 76,1979 78,8966 79,9999
90,1279 105,4492 152,399 168,304
179,1997 194,292 195,291 224,99
225,696 234,890 260,497 261,495
262,305 274,1006 276,999 284,941
286,891 288,899 302,2809 303,2702
304,3491 305,2880 314,2797 316,2780
331,1992 333,1902
##END=
