##TITLE=1,2,3,4-Tetrahydrodibenzofuran
##JCAMP-DX=4.24
##DATA TYPE=MASS SPECTRUM
##ORIGIN=NIST Mass Spectrometry Data Center, 1994
##OWNER=NIST Mass Spectrometry Data Center
Collection (C) 2014 copyright by the U.S. Secretary of Commerce
on behalf of the United States of America. All rights reserved.
##CAS REGISTRY NO=13130-19-3
##$NIST MASS SPEC NO=135335
##MOLFORM=C12 H12 O
##MW=172
##$NIST SOURCE=MSDC
##XUNITS=M/Z
##YUNITS=RELATIVE INTENSITY
##XFACTOR=1
##YFACTOR=1
##FIRSTX=12
##LASTX=174
##FIRSTY=14
##MAXX=174
##MINX=12
##MAXY=9999
##MINY=10
##NPOINTS=102
##PEAK TABLE=(XY..XY)
12,14 14,26 15,206 18,21
19,21 26,206 27,937 28,452
29,125 37,69 38,234 39,1262
40,137 41,252 42,73 43,197
44,21 50,561 51,963 52,238
53,170 54,23 55,181 58,216
61,87 62,379 63,1016 64,382
65,366 66,77 67,16 68,17
69,83 70,114 71,101 72,63
73,16 74,357 75,447 76,434
77,614 78,190 79,51 84,52
85,165 86,288 87,213 88,162
89,614 90,161 91,199 92,31
94,28 98,68 99,31 100,22
101,120 102,316 103,159 104,31
105,27 107,198 108,17 109,10
110,25 111,21 113,134 115,3412
116,758 117,93 118,291 119,36
125,11 126,81 127,301 128,777
129,254 130,11 131,459 132,53
137,11 139,192 140,50 141,288
142,105 143,11 144,9999 145,1154
146,92 151,50 152,208 153,128
154,44 155,89 157,284 158,51
168,71 169,189 171,1286 172,3834
173,487 174,41
##END=
