##TITLE=Thiophene, 2-(phenylmethyl)-
##JCAMP-DX=4.24
##DATA TYPE=MASS SPECTRUM
##ORIGIN=TEXAS WOMAN'S UNIVERSITY, DEPT. OF CHEM., DENTON, TEXAS USA
##OWNER=NIST Mass Spectrometry Data Center
Collection (C) 2014 copyright by the U.S. Secretary of Commerce
on behalf of the United States of America. All rights reserved.
##CAS REGISTRY NO=13132-15-5
##$NIST MASS SPEC NO=22103
##MOLFORM=C11 H10 S
##MW=174
##$NIST SOURCE=MSDC
##XUNITS=M/Z
##YUNITS=RELATIVE INTENSITY
##XFACTOR=1
##YFACTOR=1
##FIRSTX=45
##LASTX=178
##FIRSTY=5238
##MAXX=178
##MINX=45
##MAXY=9999
##MINY=8
##NPOINTS=93
##PEAK TABLE=(XY..XY)
45,5238 46,162 47,342 48,15
58,476 59,110 60,48 61,148
70,562 71,448 72,86 73,185
82,228 83,195 84,82 85,389
86,766 87,686 88,133 89,843
90,290 91,1150 92,102 93,133
94,37 95,267 96,1026 97,9286
98,667 99,476 100,43 101,119
102,360 103,193 104,24 105,10
106,19 107,11 108,76 109,48
110,31 111,22 112,9 113,110
114,114 115,1271 116,186 117,48
118,10 119,20 120,20 121,217
122,33 123,15 125,21 126,124
127,507 128,1000 129,1386 130,181
131,12 132,17 133,24 134,262
135,48 136,17 137,17 138,29
139,421 140,156 141,1154 142,169
143,16 145,90 146,74 147,686
148,98 149,43 150,10 158,105
159,60 160,14 166,12 169,36
170,74 171,771 172,529 173,7643
174,9999 175,1486 176,519 177,62
178,8
##END=
