##TITLE=1,4,6,9-Tetrathiaspiro[4.4]nonane
##JCAMP-DX=4.24
##DATA TYPE=MASS SPECTRUM
##ORIGIN=J. DAMICO MONSANTO COMPANY, NITRO, W. VIRGINIA, USA
##OWNER=NIST Mass Spectrometry Data Center
Collection (C) 2014 copyright by the U.S. Secretary of Commerce
on behalf of the United States of America. All rights reserved.
##CAS REGISTRY NO=13145-46-5
##$NIST MASS SPEC NO=8737
##MOLFORM=C5 H8 S4
##MW=196
##$NIST SOURCE=MSDC
##XUNITS=M/Z
##YUNITS=RELATIVE INTENSITY
##XFACTOR=1
##YFACTOR=1
##FIRSTX=26
##LASTX=196
##FIRSTY=2216
##MAXX=196
##MINX=26
##MAXY=9999
##MINY=613
##NPOINTS=18
##PEAK TABLE=(XY..XY)
26,2216 27,2216 28,1509 32,1320
44,2216 45,3679 58,1179 59,2405
60,2783 64,1698 76,9999 78,990
91,2075 92,990 136,2405 168,2594
170,613 196,896
##END=
