##TITLE=Decane, 5-cyclohexyl-
##JCAMP-DX=4.24
##DATA TYPE=MASS SPECTRUM
##ORIGIN=D.HENNEBERG, MAX-PLANCK INSTITUTE, MULHEIM, WEST GERMANY
##OWNER=NIST Mass Spectrometry Data Center
Collection (C) 2014 copyright by the U.S. Secretary of Commerce
on behalf of the United States of America. All rights reserved.
##CAS REGISTRY NO=13151-76-3
##$NIST MASS SPEC NO=61140
##MOLFORM=C16 H32
##MW=224
##$NIST SOURCE=MSDC
##XUNITS=M/Z
##YUNITS=RELATIVE INTENSITY
##XFACTOR=1
##YFACTOR=1
##FIRSTX=25
##LASTX=224
##FIRSTY=24
##MAXX=224
##MINX=25
##MAXY=9999
##MINY=11
##NPOINTS=76
##PEAK TABLE=(XY..XY)
25,24 26,92 27,1049 28,837
29,2326 30,83 31,29 33,29
35,11 38,67 39,809 40,116
41,6241 42,923 43,7351 44,61
45,15 49,16 50,20 51,93
52,49 53,513 54,1030 55,9999
56,2143 57,8060 58,303 61,20
65,158 66,66 67,3717 68,588
69,4016 70,1608 71,4864 72,254
77,148 79,245 80,159 81,1087
82,6564 83,9301 84,1752 85,4006
86,205 88,25 90,36 91,172
92,14 93,24 95,619 96,1008
97,5887 98,1062 99,580 100,25
109,336 110,270 111,2605 112,571
113,33 123,89 124,98 125,315
138,41 139,63 140,2477 141,496
142,18 152,498 153,957 154,88
166,418 167,865 168,96 224,28
##END=
