##TITLE=Undecane, 6-cyclohexyl-
##JCAMP-DX=4.24
##DATA TYPE=MASS SPECTRUM
##ORIGIN=D.HENNEBERG, MAX-PLANCK INSTITUTE, MULHEIM, WEST GERMANY
##OWNER=NIST Mass Spectrometry Data Center
Collection (C) 2014 copyright by the U.S. Secretary of Commerce
on behalf of the United States of America. All rights reserved.
##CAS REGISTRY NO=13151-81-0
##$NIST MASS SPEC NO=61144
##MOLFORM=C17 H34
##MW=238
##$NIST SOURCE=MSDC
##XUNITS=M/Z
##YUNITS=RELATIVE INTENSITY
##XFACTOR=1
##YFACTOR=1
##FIRSTX=27
##LASTX=181
##FIRSTY=910
##MAXX=181
##MINX=27
##MAXY=9999
##MINY=3
##NPOINTS=81
##PEAK TABLE=(XY..XY)
27,910 28,1072 29,2280 30,9
31,28 35,30 36,137 37,65
38,3 39,600 40,86 41,5406
42,680 43,6621 44,159 45,31
47,33 51,97 52,28 53,471
54,931 55,8860 56,2036 57,9999
58,357 63,23 65,134 66,94
67,3415 68,541 69,4892 70,1559
71,5190 72,337 74,22 76,20
77,204 78,52 79,335 80,231
81,1149 82,5790 83,7959 84,1556
85,4305 86,266 91,156 92,46
93,47 94,35 95,663 96,1182
97,6183 98,851 99,899 100,49
103,6 105,47 107,38 109,405
110,321 111,3236 112,527 113,388
114,28 123,91 124,116 125,887
126,380 139,44 152,28 153,143
154,1970 155,664 156,81 165,78
166,872 167,1740 168,151 180,28
181,7
##END=
