##TITLE=Tridecane, 3-cyclohexyl-
##JCAMP-DX=4.24
##DATA TYPE=MASS SPECTRUM
##ORIGIN=D.HENNEBERG, MAX-PLANCK INSTITUTE, MULHEIM, WEST GERMANY
##OWNER=NIST Mass Spectrometry Data Center
Collection (C) 2014 copyright by the U.S. Secretary of Commerce
on behalf of the United States of America. All rights reserved.
##CAS REGISTRY NO=13151-88-7
##$NIST MASS SPEC NO=61158
##MOLFORM=C19 H38
##MW=266
##$NIST SOURCE=MSDC
##XUNITS=M/Z
##YUNITS=RELATIVE INTENSITY
##XFACTOR=1
##YFACTOR=1
##FIRSTX=21
##LASTX=244
##FIRSTY=8
##MAXX=244
##MINX=21
##MAXY=9999
##MINY=2
##NPOINTS=103
##PEAK TABLE=(XY..XY)
21,8 25,61 26,59 27,645
28,653 29,2532 31,28 32,16
35,26 37,55 39,701 40,59
41,5699 42,1184 43,6441 47,6
52,39 53,429 54,958 55,8766
56,2275 57,9810 58,370 63,10
64,4 65,78 66,133 67,3462
68,565 69,6636 70,1511 71,4757
72,168 76,43 77,100 78,55
79,178 80,63 81,956 82,8050
83,9999 84,1453 85,2711 86,180
91,180 93,41 94,39 95,466
96,993 97,3250 98,575 99,701
100,76 103,18 105,43 107,43
109,242 110,224 111,1652 112,236
113,390 115,32 117,12 118,10
123,139 124,1083 125,2650 126,333
127,133 128,26 129,102 130,41
131,10 137,26 138,53 139,610
140,78 141,121 143,55 144,34
145,57 148,6 152,32 153,96
154,232 155,26 159,22 166,18
168,4 173,187 180,2 181,26
182,754 183,209 184,22 187,53
201,53 215,39 236,230 237,579
238,164 239,14 244,26
##END=
