##TITLE=1-Octene, 7-methyl-
##JCAMP-DX=4.24
##DATA TYPE=MASS SPECTRUM
##ORIGIN=CARL DJERASSI DEPT OF CHEM STANFORD UNIV STANFORD CALIF 94305
##OWNER=NIST Mass Spectrometry Data Center
Collection (C) 2014 copyright by the U.S. Secretary of Commerce
on behalf of the United States of America. All rights reserved.
##CAS REGISTRY NO=13151-06-9
##$NIST MASS SPEC NO=50930
##MOLFORM=C9 H18
##MW=126
##$NIST SOURCE=MSDC
##XUNITS=M/Z
##YUNITS=RELATIVE INTENSITY
##XFACTOR=1
##YFACTOR=1
##FIRSTX=39
##LASTX=126
##FIRSTY=1300
##MAXX=126
##MINX=39
##MAXY=9999
##MINY=100
##NPOINTS=21
##PEAK TABLE=(XY..XY)
39,1300 40,100 41,4600 42,1300
43,8100 44,100 53,100 54,200
55,5000 56,9999 57,2900 67,300
68,600 69,5900 70,2100 71,100
83,800 84,800 98,300 111,300
126,300
##END=
