##TITLE=Decane, 5-methyl-
##JCAMP-DX=4.24
##DATA TYPE=MASS SPECTRUM
##ORIGIN=D.HENNEBERG, MAX-PLANCK INSTITUTE, MULHEIM, WEST GERMANY
##OWNER=NIST Mass Spectrometry Data Center
Collection (C) 2014 copyright by the U.S. Secretary of Commerce
on behalf of the United States of America. All rights reserved.
##CAS REGISTRY NO=13151-35-4
##$NIST MASS SPEC NO=60763
##MOLFORM=C11 H24
##MW=156
##$NIST SOURCE=MSDC
##XUNITS=M/Z
##YUNITS=RELATIVE INTENSITY
##XFACTOR=1
##YFACTOR=1
##FIRSTX=26
##LASTX=157
##FIRSTY=29
##MAXX=157
##MINX=26
##MAXY=9999
##MINY=2
##NPOINTS=45
##PEAK TABLE=(XY..XY)
26,29 27,953 29,1724 30,25
33,13 35,6 37,5 39,448
40,66 41,2106 42,692 43,8567
44,41 51,7 53,543 54,72
55,860 56,1411 57,9999 58,345
59,10 63,2 67,25 68,29
69,528 70,541 71,855 72,35
81,3 82,3 83,71 84,1552
85,2384 86,114 98,1234 99,498
100,22 112,88 113,23 126,62
127,69 140,10 141,50 156,90
157,4
##END=
