##TITLE=2,6-Dimethyldecane
##JCAMP-DX=4.24
##DATA TYPE=MASS SPECTRUM
##ORIGIN=NIST Mass Spectrometry Data Center, 1990.
##OWNER=NIST Mass Spectrometry Data Center
Collection (C) 2014 copyright by the U.S. Secretary of Commerce
on behalf of the United States of America. All rights reserved.
##CAS REGISTRY NO=13150-81-7
##$NIST MASS SPEC NO=113602
##MOLFORM=C12 H26
##MW=170
##$NIST SOURCE=MSDC
##XUNITS=M/Z
##YUNITS=RELATIVE INTENSITY
##XFACTOR=1
##YFACTOR=1
##FIRSTX=27
##LASTX=170
##FIRSTY=1461
##MAXX=170
##MINX=27
##MAXY=9999
##MINY=108
##NPOINTS=35
##PEAK TABLE=(XY..XY)
27,1461 28,611 29,2143 39,1376
41,5815 42,1724 43,9999 44,378
53,433 54,227 55,2250 56,2881
57,9292 58,384 67,214 68,124
69,1261 70,912 71,7049 72,379
84,3493 85,4189 86,305 97,263
98,152 99,331 112,1188 113,1426
114,128 126,183 127,233 140,108
141,109 155,158 170,237
##END=
