##TITLE=1-Hexene, 1-bromo-, (E)-
##JCAMP-DX=4.24
##DATA TYPE=MASS SPECTRUM
##ORIGIN=T. REICHENBACH
##OWNER=NIST Mass Spectrometry Data Center
Collection (C) 2014 copyright by the U.S. Secretary of Commerce
on behalf of the United States of America. All rights reserved.
##CAS REGISTRY NO=13154-13-7
##$NIST MASS SPEC NO=26983
##MOLFORM=C6 H11 Br
##MW=162
##$NIST SOURCE=MSDC
##XUNITS=M/Z
##YUNITS=RELATIVE INTENSITY
##XFACTOR=1
##YFACTOR=1
##FIRSTX=13
##LASTX=165
##FIRSTY=42
##MAXX=165
##MINX=13
##MAXY=9999
##MINY=19
##NPOINTS=100
##PEAK TABLE=(XY..XY)
13,42 14,101 15,599 16,26
17,79 18,270 25,68 26,1079
27,6963 28,1290 29,1740 30,45
31,33 32,19 36,30 37,277
38,752 39,5801 40,738 41,9999
42,1283 43,6727 44,249 45,64
49,79 50,455 51,864 52,338
53,2308 54,509 55,4221 56,7189
57,380 58,27 59,43 60,28
61,60 62,88 63,150 64,33
65,210 66,122 67,693 68,70
69,193 70,26 71,20 72,20
73,314 74,77 75,48 77,95
78,35 79,258 80,136 81,441
82,551 83,2593 84,181 85,25
91,41 92,56 93,394 94,59
95,361 97,32 98,31 99,20
104,45 105,166 106,249 107,233
108,208 109,94 111,22 113,21
117,73 119,1534 120,419 121,1548
122,427 123,142 124,31 125,23
132,35 133,159 134,73 135,147
136,45 137,414 138,36 139,422
140,34 147,33 149,20 161,22
162,1860 163,154 164,1815 165,134
##END=
