##TITLE=1-Decene, 2-methyl-
##JCAMP-DX=4.24
##DATA TYPE=MASS SPECTRUM
##ORIGIN=D.HENNEBERG, MAX-PLANCK INSTITUTE, MULHEIM, WEST GERMANY
##OWNER=NIST Mass Spectrometry Data Center
Collection (C) 2014 copyright by the U.S. Secretary of Commerce
on behalf of the United States of America. All rights reserved.
##CAS REGISTRY NO=13151-27-4
##$NIST MASS SPEC NO=61173
##MOLFORM=C11 H22
##MW=154
##$NIST SOURCE=MSDC
##XUNITS=M/Z
##YUNITS=RELATIVE INTENSITY
##XFACTOR=1
##YFACTOR=1
##FIRSTX=25
##LASTX=155
##FIRSTY=27
##MAXX=155
##MINX=25
##MAXY=9999
##MINY=6
##NPOINTS=61
##PEAK TABLE=(XY..XY)
25,27 26,59 27,1014 28,234
29,1418 30,87 33,14 35,26
36,13 38,67 39,737 40,231
41,3441 42,765 43,1744 49,12
50,23 51,91 52,62 53,365
54,248 55,2612 56,9999 57,2883
58,129 64,8 65,30 66,51
67,320 68,264 69,2723 70,942
71,69 72,22 75,17 77,23
79,35 80,10 81,105 82,57
83,365 84,235 85,83 91,10
94,6 96,47 97,145 98,259
99,8 103,8 110,21 111,170
112,14 125,13 126,119 127,7
139,83 151,8 153,20 154,300
155,34
##END=
