##TITLE=2,4-Undecadienal
##JCAMP-DX=4.24
##DATA TYPE=MASS SPECTRUM
##OWNER=NIST Mass Spectrometry Data Center
Collection (C) 2014 copyright by the U.S. Secretary of Commerce
on behalf of the United States of America. All rights reserved.
##CAS REGISTRY NO=13162-46-4
##$NIST MASS SPEC NO=6225
##MOLFORM=C11 H18 O
##MW=166
##$NIST SOURCE=MSDC
##XUNITS=M/Z
##YUNITS=RELATIVE INTENSITY
##XFACTOR=1
##YFACTOR=1
##FIRSTX=15
##LASTX=166
##FIRSTY=40
##MAXX=166
##MINX=15
##MAXY=9999
##MINY=40
##NPOINTS=48
##PEAK TABLE=(XY..XY)
15,40 26,80 27,1091 28,290
29,1211 31,90 39,1161 40,250
41,2652 42,601 43,1732 44,70
51,220 52,140 53,671 54,641
55,1351 56,641 57,220 65,360
66,480 67,1481 68,611 69,450
70,530 71,80 77,320 78,150
79,540 80,210 81,9999 82,1001
83,1441 84,360 90,190 92,180
93,180 94,901 95,520 96,150
97,250 107,120 109,420 110,150
122,100 123,300 137,280 166,400
##END=
