##TITLE=Butane, 1,4-dimethoxy-
##JCAMP-DX=4.24
##DATA TYPE=MASS SPECTRUM
##ORIGIN=D.HENNEBERG, MAX-PLANCK INSTITUTE, MULHEIM, WEST GERMANY
##OWNER=NIST Mass Spectrometry Data Center
Collection (C) 2014 copyright by the U.S. Secretary of Commerce
on behalf of the United States of America. All rights reserved.
##CAS REGISTRY NO=13179-96-9
##$NIST MASS SPEC NO=61635
##MOLFORM=C6 H14 O2
##MW=118
##$NIST SOURCE=MSDC
##XUNITS=M/Z
##YUNITS=RELATIVE INTENSITY
##XFACTOR=1
##YFACTOR=1
##FIRSTX=27
##LASTX=119
##FIRSTY=388
##MAXX=119
##MINX=27
##MAXY=9999
##MINY=10
##NPOINTS=46
##PEAK TABLE=(XY..XY)
27,388 28,744 29,797 30,88
31,235 33,149 37,10 38,11
39,179 40,74 41,836 42,209
43,563 44,85 45,9999 46,180
47,74 50,30 51,19 53,208
54,48 55,572 56,418 57,141
58,8142 59,343 60,50 69,103
70,22 71,1022 72,85 73,24
75,43 79,10 81,13 84,12
85,250 86,664 87,64 88,88
90,14 95,15 103,817 104,55
108,13 119,16
##END=
