##TITLE=2-Amino-5-iodotoluene
##JCAMP-DX=4.24
##DATA TYPE=MASS SPECTRUM
##ORIGIN=NIST Mass Spectrometry Data Center, 1990.
##OWNER=NIST Mass Spectrometry Data Center
Collection (C) 2014 copyright by the U.S. Secretary of Commerce
on behalf of the United States of America. All rights reserved.
##CAS REGISTRY NO=13194-68-8
##$NIST MASS SPEC NO=118365
##MOLFORM=C7 H8 I N
##MW=233
##$NIST SOURCE=MSDC
##XUNITS=M/Z
##YUNITS=RELATIVE INTENSITY
##XFACTOR=1
##YFACTOR=1
##FIRSTX=14
##LASTX=235
##FIRSTY=16
##MAXX=235
##MINX=14
##MAXY=9999
##MINY=2
##NPOINTS=75
##PEAK TABLE=(XY..XY)
14,16 15,40 17,20 18,24
25,14 26,86 27,324 28,702
29,83 30,266 32,2 36,17
37,152 38,341 39,759 40,115
41,257 42,150 43,16 44,10
48,12 49,107 50,658 51,985
52,906 53,493 54,322 55,48
60,16 61,128 62,253 63,550
64,196 65,263 66,179 67,56
68,20 72,12 73,69 74,240
75,163 76,330 77,2694 78,1182
79,2580 80,272 81,33 85,26
86,49 87,42 88,29 89,271
90,47 91,70 92,10 100,18
102,38 104,928 105,996 106,4917
107,385 108,16 116,294 127,371
128,43 152,14 165,11 176,10
216,12 229,11 230,33 232,894
233,9999 234,749 235,29
##END=
