##TITLE=1,3-Naphthalenediol
##JCAMP-DX=4.24
##DATA TYPE=MASS SPECTRUM
##ORIGIN=NIST Mass Spectrometry Data Center
##OWNER=NIST Mass Spectrometry Data Center
Collection (C) 2014 copyright by the U.S. Secretary of Commerce
on behalf of the United States of America. All rights reserved.
##CAS REGISTRY NO=132-86-5
##$NIST MASS SPEC NO=365464
##MOLFORM=C10 H8 O2
##MW=160
##$NIST SOURCE=MSDC
##XUNITS=M/Z
##YUNITS=RELATIVE INTENSITY
##XFACTOR=1
##YFACTOR=1
##FIRSTX=20
##LASTX=162
##FIRSTY=20
##MAXX=162
##MINX=20
##MAXY=9999
##MINY=10
##NPOINTS=81
##PEAK TABLE=(XY..XY)
20,20 26,20 27,70 29,80
37,30 38,120 39,320 42,70
43,30 44,60 46,10 49,40
50,460 51,1211 52,240 53,190
54,40 55,100 56,30 57,100
58,20 60,10 61,130 62,430
63,731 64,140 65,240 67,40
69,380 70,20 71,20 73,220
74,290 75,320 76,410 77,1862
78,440 79,80 80,671 84,10
85,80 86,160 87,200 88,160
89,661 90,1081 91,621 92,90
94,20 98,70 99,20 100,20
101,130 102,731 103,1692 104,581
105,230 106,20 110,30 113,240
114,330 115,530 116,90 117,20
118,1311 119,300 120,30 128,10
129,60 131,4924 132,1371 133,120
134,20 135,20 142,90 147,40
157,30 159,240 160,9999 161,1071
162,100
##END=
