##TITLE=1-Naphthalenol, 2-nitroso-
##JCAMP-DX=4.24
##DATA TYPE=MASS SPECTRUM
##ORIGIN=NIST Mass Spectrometry Data Center, 1994
##OWNER=NIST Mass Spectrometry Data Center
Collection (C) 2014 copyright by the U.S. Secretary of Commerce
on behalf of the United States of America. All rights reserved.
##CAS REGISTRY NO=132-53-6
##$NIST MASS SPEC NO=134425
##MOLFORM=C10 H7 N O2
##MW=173
##$NIST SOURCE=MSDC
##XUNITS=M/Z
##YUNITS=RELATIVE INTENSITY
##XFACTOR=1
##YFACTOR=1
##FIRSTX=14
##LASTX=175
##FIRSTY=33
##MAXX=175
##MINX=14
##MAXY=9999
##MINY=1
##NPOINTS=62
##PEAK TABLE=(XY..XY)
14,33 16,1 17,69 18,34
26,132 28,205 29,99 30,453
32,142 37,157 38,266 39,533
40,19 44,75 49,142 50,686
51,849 52,196 53,144 61,227
62,629 63,1212 64,316 65,435
73,114 74,849 75,1011 76,593
77,675 78,128 85,157 86,344
87,467 88,690 89,1082 90,152
98,168 99,202 100,295 101,1453
102,1257 103,245 104,63 113,808
114,1192 115,4887 116,465 126,85
128,3587 129,640 130,1569 131,219
143,1295 144,188 156,9529 157,1796
158,287 159,507 169,121 173,9999
174,1066 175,111
##END=
