##TITLE=Borane carbonyl
##JCAMP-DX=4.24
##DATA TYPE=MASS SPECTRUM
##ORIGIN=CCC 0002
##OWNER=NIST Mass Spectrometry Data Center
Collection (C) 2014 copyright by the U.S. Secretary of Commerce
on behalf of the United States of America. All rights reserved.
##CAS REGISTRY NO=13205-44-2
##$NIST MASS SPEC NO=56
##MOLFORM=C H3 B O
##MW=42
##$NIST SOURCE=MSDC
##XUNITS=M/Z
##YUNITS=RELATIVE INTENSITY
##XFACTOR=1
##YFACTOR=1
##FIRSTX=10
##LASTX=45
##FIRSTY=1031
##MAXX=45
##MINX=10
##MAXY=9999
##MINY=10
##NPOINTS=25
##PEAK TABLE=(XY..XY)
10,1031 11,5225 12,6726 13,6546
14,160 15,230 16,110 20,170
21,100 22,591 23,2312 24,4054
25,2412 26,4154 27,3974 28,2152
29,811 30,50 39,2162 40,9999
41,6826 42,3603 43,310 44,30
45,10
##END=
