##TITLE=4-(2-Aminoethyl)pyridine
##JCAMP-DX=4.24
##DATA TYPE=MASS SPECTRUM
##ORIGIN=Japan AIST/NIMC Database- Spectrum MS-IW-4776
##OWNER=NIST Mass Spectrometry Data Center
Collection (C) 2014 copyright by the U.S. Secretary of Commerce
on behalf of the United States of America. All rights reserved.
##CAS REGISTRY NO=13258-63-4
##$NIST MASS SPEC NO=237340
##MOLFORM=C7 H10 N2
##MW=122
##$NIST SOURCE=MSDC
##XUNITS=M/Z
##YUNITS=RELATIVE INTENSITY
##XFACTOR=1
##YFACTOR=1
##FIRSTX=15
##LASTX=123
##FIRSTY=30
##MAXX=123
##MINX=15
##MAXY=9999
##MINY=10
##NPOINTS=61
##PEAK TABLE=(XY..XY)
15,30 16,30 17,50 18,80
26,90 27,199 28,609 29,109
30,3999 31,60 32,10 37,60
38,149 39,749 40,179 41,169
42,129 43,50 44,20 45,90
49,30 50,229 51,509 52,319
53,129 54,159 55,10 56,10
60,10 61,30 62,70 63,199
64,109 65,659 66,739 67,359
68,30 74,20 75,30 76,50
77,159 78,359 79,109 80,30
90,10 91,50 92,909 93,9999
94,899 95,30 98,10 104,269
105,569 106,109 107,119 108,10
119,50 120,30 121,119 122,10
123,30
##END=
