##TITLE=2-Heptanol, 2,6-dimethyl-
##JCAMP-DX=4.24
##DATA TYPE=MASS SPECTRUM
##ORIGIN=W.Jennings, T.Shibamoto
##OWNER=NIST Mass Spectrometry Data Center
Collection (C) 2014 copyright by the U.S. Secretary of Commerce
on behalf of the United States of America. All rights reserved.
##CAS REGISTRY NO=13254-34-7
##$NIST MASS SPEC NO=285192
##MOLFORM=C9 H20 O
##MW=144
##$NIST SOURCE=MSDC
##XUNITS=M/Z
##YUNITS=RELATIVE INTENSITY
##XFACTOR=1
##YFACTOR=1
##FIRSTX=29
##LASTX=129
##FIRSTY=370
##MAXX=129
##MINX=29
##MAXY=9999
##MINY=70
##NPOINTS=21
##PEAK TABLE=(XY..XY)
29,370 31,1181 41,1381 42,190
43,3293 44,80 45,591 55,1782
56,891 57,681 58,771 59,9999
60,771 69,4014 70,490 71,390
83,80 85,70 96,90 111,681
129,681
##END=
