##TITLE=Dipentylamine, N-nitroso-
##JCAMP-DX=4.24
##DATA TYPE=MASS SPECTRUM
##ORIGIN=NIST Mass Spectrometry Data Center, 1998.
##OWNER=NIST Mass Spectrometry Data Center
Collection (C) 2014 copyright by the U.S. Secretary of Commerce
on behalf of the United States of America. All rights reserved.
##CAS REGISTRY NO=13256-06-9
##$NIST MASS SPEC NO=291463
##MOLFORM=C10 H22 N2 O
##MW=186
##$NIST SOURCE=MSDC
##XUNITS=M/Z
##YUNITS=RELATIVE INTENSITY
##XFACTOR=1
##YFACTOR=1
##FIRSTX=15
##LASTX=188
##FIRSTY=40
##MAXX=188
##MINX=15
##MAXY=9999
##MINY=10
##NPOINTS=87
##PEAK TABLE=(XY..XY)
15,40 26,50 27,870 28,150
29,1620 30,1000 31,30 32,10
37,10 38,30 39,810 40,130
41,3280 42,2800 43,9999 44,3480
45,180 47,50 50,10 51,40
52,30 53,190 54,180 55,1210
56,990 57,1330 58,440 59,80
60,40 61,10 65,20 66,10
67,90 68,130 69,840 70,1270
71,1970 72,120 73,90 74,550
75,20 80,20 81,20 82,60
83,40 84,2370 85,180 86,210
87,100 88,50 94,10 96,30
98,3670 99,510 100,1010 101,90
102,10 110,10 111,30 112,80
113,3140 114,310 115,240 116,20
117,420 118,30 126,170 127,90
129,930 130,770 131,60 139,10
140,120 141,40 143,40 144,10
154,30 155,20 156,180 157,50
169,2730 170,320 171,20 185,10
186,290 187,60 188,10
##END=
