##TITLE=2-Naphthyl-p-tolyl sulfone
##JCAMP-DX=4.24
##DATA TYPE=MASS SPECTRUM
##ORIGIN=Div. of Experiment Therapeutics WRAIR, WRAMC, Washington DC 20307
##OWNER=NIST Mass Spectrometry Data Center
Collection (C) 2014 copyright by the U.S. Secretary of Commerce
on behalf of the United States of America. All rights reserved.
##CAS REGISTRY NO=13250-06-1
##$NIST MASS SPEC NO=250922
##MOLFORM=C17 H14 O2 S
##MW=282
##$NIST SOURCE=MSDC
##XUNITS=M/Z
##YUNITS=RELATIVE INTENSITY
##XFACTOR=1
##YFACTOR=1
##FIRSTX=41
##LASTX=285
##FIRSTY=583
##MAXX=285
##MINX=41
##MAXY=9999
##MINY=9
##NPOINTS=110
##PEAK TABLE=(XY..XY)
41,583 43,239 45,587 47,120
48,46 49,423 50,168 51,3635
53,357 54,35 55,56 57,32
58,27 59,14 60,12 61,25
62,458 63,2821 65,3597 67,544
69,294 71,139 73,54 74,353
75,1842 77,5091 78,70 79,89
81,18 82,73 84,164 86,247
87,545 89,2260 91,3538 95,309
96,78 98,173 99,261 100,183
101,1338 102,30 103,214 104,15
107,377 108,258 109,1107 111,298
113,25 115,9999 121,87 122,88
123,119 126,2319 127,6364 129,32
131,208 132,18 134,37 138,27
139,8144 141,485 143,1931 144,285
145,12 147,921 148,29 149,16
150,69 151,26 152,96 155,49
158,99 159,61 161,17 163,37
165,71 166,9 174,58 175,2475
176,314 177,136 178,60 187,27
188,12 189,157 190,18 191,27
200,54 202,728 203,203 204,31
205,12 208,11 213,84 215,386
217,300 218,153 219,10 221,28
232,74 234,80 235,34 247,12
250,116 281,42 282,2257 283,409
284,175 285,22
##END=
