##TITLE=3-Thiophenamine, tetrahydro-N-methyl-N-nitroso-, 1,1-dioxide
##JCAMP-DX=4.24
##DATA TYPE=MASS SPECTRUM
##ORIGIN=J.E. WILKINSON S-CUBED, SAN DIEGO, CA.
##OWNER=NIST Mass Spectrometry Data Center
Collection (C) 2014 copyright by the U.S. Secretary of Commerce
on behalf of the United States of America. All rights reserved.
##CAS REGISTRY NO=13256-21-8
##$NIST MASS SPEC NO=90816
##MOLFORM=C5 H10 N2 O3 S
##MW=178
##$NIST SOURCE=MSDC
##XUNITS=M/Z
##YUNITS=RELATIVE INTENSITY
##XFACTOR=1
##YFACTOR=1
##FIRSTX=42
##LASTX=178
##FIRSTY=9999
##MAXX=178
##MINX=42
##MAXY=9999
##MINY=1
##NPOINTS=50
##PEAK TABLE=(XY..XY)
42,9999 43,633 44,851 45,115
46,10 47,8 48,1638 49,48
50,186 51,202 52,182 53,727
54,1035 55,3493 56,2932 57,1610
58,94 59,101 60,1 61,1
64,3311 65,56 66,164 67,21
68,660 69,133 70,291 71,30
72,6 77,11 78,51 79,72
80,763 81,1089 82,689 83,96
84,76 86,3357 87,88 89,23
94,8 97,33 108,4 114,543
115,1 119,623 120,21 133,3
148,153 178,110
##END=
