##TITLE=Androstane-3,17-diol, (3.beta.,5.alpha.,17.beta.)-, 2TMS derivative
##JCAMP-DX=4.24
##DATA TYPE=MASS SPECTRUM
##ORIGIN=NIST Mass Spectrometry Data Center
##OWNER=NIST Mass Spectrometry Data Center
Collection (C) 2014 copyright by the U.S. Secretary of Commerce
on behalf of the United States of America. All rights reserved.
##CAS REGISTRY NO=13260-01-0
##$NIST MASS SPEC NO=332981
##MOLFORM=C25 H48 O2 Si2
##MW=436
##$NIST SOURCE=MSDC
##XUNITS=M/Z
##YUNITS=RELATIVE INTENSITY
##XFACTOR=1
##YFACTOR=1
##FIRSTX=27
##LASTX=439
##FIRSTY=20
##MAXX=439
##MINX=27
##MAXY=9999
##MINY=10
##NPOINTS=291
##PEAK TABLE=(XY..XY)
27,20 29,110 31,10 39,60
40,10 41,691 42,40 43,420
44,90 45,641 46,50 47,260
48,10 49,10 50,10 51,20
52,10 53,280 54,80 55,1772
56,110 57,230 58,80 59,611
60,140 61,681 62,50 63,20
65,130 66,60 67,1541 68,220
69,480 70,50 71,70 72,170
73,7927 74,881 75,8297 76,611
77,781 78,110 79,1702 80,280
81,2282 82,210 83,360 84,50
85,190 86,30 87,100 88,50
89,300 90,20 91,1772 92,390
93,2302 94,741 95,1932 96,210
97,460 98,50 99,180 100,30
101,1131 102,110 103,310 104,120
105,1752 106,1031 107,2722 108,761
109,1051 110,130 111,150 112,20
113,170 114,40 115,1121 116,1692
117,1161 118,340 119,1191 120,671
121,1621 122,430 123,540 124,100
125,60 126,20 127,150 129,9999
130,2823 131,1531 132,350 133,1171
134,490 135,1131 136,230 137,120
138,40 139,30 140,10 141,120
142,470 143,420 144,170 145,981
146,360 147,1491 148,2292 149,2612
150,440 151,160 152,30 153,40
154,20 155,470 156,180 157,250
158,150 159,801 160,410 161,1071
162,771 163,450 164,80 165,80
166,30 167,80 168,50 169,230
170,60 171,170 172,80 173,480
174,270 175,370 176,100 177,50
178,20 179,20 180,20 181,110
182,190 183,200 184,60 185,230
186,100 187,270 188,110 189,120
190,60 191,100 192,20 193,20
194,20 195,80 196,210 197,100
198,40 199,470 200,150 201,611
202,230 203,270 204,50 205,20
206,10 207,20 208,10 209,90
210,40 211,30 212,10 213,410
214,180 215,1682 216,440 217,1031
218,180 219,40 220,10 221,30
222,10 223,50 224,20 225,20
226,10 227,120 228,320 229,110
230,250 231,60 232,10 233,10
234,40 235,70 236,20 237,80
238,100 239,50 241,2412 242,490
243,70 244,10 245,10 247,20
248,10 249,20 250,20 251,30
252,10 253,10 255,691 256,1121
257,260 258,50 259,50 260,20
261,10 262,10 263,50 264,20
265,10 271,10 272,10 273,40
274,160 275,40 276,10 277,100
278,30 279,10 287,10 289,220
290,60 291,70 292,140 293,30
294,20 303,40 304,140 305,270
306,80 307,50 308,10 309,10
313,10 315,10 317,30 318,290
319,170 320,80 321,20 329,10
330,10 331,931 332,270 333,90
334,10 344,10 345,180 346,1291
347,400 348,110 349,520 350,130
351,50 352,10 362,10 363,10
364,60 365,20 379,190 380,60
381,30 382,10 408,10 419,10
421,1852 422,681 423,250 424,60
425,10 434,10 435,20 436,761
437,260 438,100 439,30
##END=
