##TITLE=9H-Fluoren-2-amine, N,N-dimethyl-
##JCAMP-DX=4.24
##DATA TYPE=MASS SPECTRUM
##ORIGIN=J.E. WILKINSON S-CUBED, SAN DIEGO, CA.
##OWNER=NIST Mass Spectrometry Data Center
Collection (C) 2014 copyright by the U.S. Secretary of Commerce
on behalf of the United States of America. All rights reserved.
##CAS REGISTRY NO=13261-62-6
##$NIST MASS SPEC NO=90812
##MOLFORM=C15 H15 N
##MW=209
##$NIST SOURCE=MSDC
##XUNITS=M/Z
##YUNITS=RELATIVE INTENSITY
##XFACTOR=1
##YFACTOR=1
##FIRSTX=41
##LASTX=211
##FIRSTY=4
##MAXX=211
##MINX=41
##MAXY=9999
##MINY=2
##NPOINTS=66
##PEAK TABLE=(XY..XY)
41,4 42,778 43,27 44,88
50,32 51,97 62,44 63,357
64,6 65,6 69,224 74,65
75,113 76,235 77,29 81,828
82,1898 83,61 84,15 86,27
87,99 88,40 89,231 90,8
91,44 92,2 96,2190 97,172
98,8 99,8 102,96 104,4472
113,27 115,193 126,46 127,15
128,2 137,13 138,8 139,308
140,10 150,92 151,269 152,845
153,199 162,46 163,1042 164,977
165,6781 166,1737 167,283 176,4
177,57 178,126 179,59 180,25
190,11 191,8 192,138 193,1005
194,1443 195,354 208,4740 209,9999
210,1452 211,27
##END=
