##TITLE=Butane, 2-methyl-2-(methylthio)-
##JCAMP-DX=4.24
##DATA TYPE=MASS SPECTRUM
##OWNER=NIST Mass Spectrometry Data Center
Collection (C) 2014 copyright by the U.S. Secretary of Commerce
on behalf of the United States of America. All rights reserved.
##CAS REGISTRY NO=13286-92-5
##$NIST MASS SPEC NO=2069
##MOLFORM=C6 H14 S
##MW=118
##$NIST SOURCE=MSDC
##XUNITS=M/Z
##YUNITS=RELATIVE INTENSITY
##XFACTOR=1
##YFACTOR=1
##FIRSTX=26
##LASTX=118
##FIRSTY=300
##MAXX=118
##MINX=26
##MAXY=9999
##MINY=100
##NPOINTS=35
##PEAK TABLE=(XY..XY)
26,300 27,2652 28,370 29,2212
39,2322 40,270 41,3363 42,641
43,9999 44,360 45,1241 46,370
47,901 48,200 49,420 50,150
51,230 53,470 54,110 55,3403
56,260 57,150 58,180 59,611
61,430 69,220 70,1191 71,5845
72,350 73,120 75,170 89,1932
90,100 103,290 118,2873
##END=
