##TITLE=Heptadecane, 8-methyl-
##JCAMP-DX=4.24
##DATA TYPE=MASS SPECTRUM
##ORIGIN=AP-2113
##OWNER=NIST Mass Spectrometry Data Center
Collection (C) 2014 copyright by the U.S. Secretary of Commerce
on behalf of the United States of America. All rights reserved.
##CAS REGISTRY NO=13287-23-5
##$NIST MASS SPEC NO=12333
##MOLFORM=C18 H38
##MW=254
##$NIST SOURCE=MSDC
##XUNITS=M/Z
##YUNITS=RELATIVE INTENSITY
##XFACTOR=1
##YFACTOR=1
##FIRSTX=40
##LASTX=256
##FIRSTY=120
##MAXX=256
##MINX=40
##MAXY=9999
##MINY=10
##NPOINTS=92
##PEAK TABLE=(XY..XY)
40,120 41,3900 42,1100 43,8699
44,290 49,10 50,20 51,20
52,20 53,200 54,200 55,2700
56,1800 57,9999 58,440 59,10
63,10 65,30 66,20 67,220
68,230 69,1170 70,1140 71,7799
72,430 73,10 77,20 78,10
79,40 80,20 81,90 82,260
83,760 84,770 85,5099 86,330
87,10 91,10 93,10 94,10
95,30 96,150 97,790 98,610
99,1000 100,80 109,10 110,50
111,280 112,180 113,470 114,40
124,30 125,170 126,3400 127,1500
128,140 129,10 139,20 140,110
141,140 142,10 153,20 154,2300
155,1530 156,170 157,10 167,10
168,120 169,130 170,20 182,120
183,120 184,20 196,100 197,130
198,20 210,100 211,160 212,20
224,100 225,220 226,40 238,40
239,310 240,60 241,10 252,10
253,20 254,760 255,150 256,20
##END=
