##TITLE=2-Bromo-2-butene
##JCAMP-DX=4.24
##DATA TYPE=MASS SPECTRUM
##ORIGIN=NIST Mass Spectrometry Data Center, 1990.
##OWNER=NIST Mass Spectrometry Data Center
Collection (C) 2014 copyright by the U.S. Secretary of Commerce
on behalf of the United States of America. All rights reserved.
##CAS REGISTRY NO=13294-71-8
##$NIST MASS SPEC NO=118844
##MOLFORM=C4 H7 Br
##MW=134
##$NIST SOURCE=MSDC
##XUNITS=M/Z
##YUNITS=RELATIVE INTENSITY
##XFACTOR=1
##YFACTOR=1
##FIRSTX=12
##LASTX=137
##FIRSTY=22
##MAXX=137
##MINX=12
##MAXY=9999
##MINY=3
##NPOINTS=53
##PEAK TABLE=(XY..XY)
12,22 13,34 14,67 15,116
17,3 18,5 24,22 25,119
26,751 27,3040 28,532 29,3466
30,88 36,32 37,233 38,441
39,2510 40,170 41,33 48,32
49,264 50,815 51,800 52,364
53,2029 54,32 55,9999 56,446
57,10 66,10 67,12 79,123
80,76 81,147 82,49 83,15
91,7 93,33 94,11 95,26
104,12 105,38 106,30 107,47
108,18 109,14 117,19 118,9
119,47 121,41 134,1345 136,1241
137,61
##END=
