##TITLE=Benzene, 1-chloro-2-methyl-4-nitro-
##JCAMP-DX=4.24
##DATA TYPE=MASS SPECTRUM
##ORIGIN=NIST Mass Spectrometry Data Center
##OWNER=NIST Mass Spectrometry Data Center
Collection (C) 2014 copyright by the U.S. Secretary of Commerce
on behalf of the United States of America. All rights reserved.
##CAS REGISTRY NO=13290-74-9
##$NIST MASS SPEC NO=340995
##MOLFORM=C7 H6 Cl N O2
##MW=171
##$NIST SOURCE=MSDC
##XUNITS=M/Z
##YUNITS=RELATIVE INTENSITY
##XFACTOR=1
##YFACTOR=1
##FIRSTX=26
##LASTX=175
##FIRSTY=30
##MAXX=175
##MINX=26
##MAXY=9999
##MINY=10
##NPOINTS=88
##PEAK TABLE=(XY..XY)
26,30 27,50 30,470 35,10
36,20 37,170 38,310 39,1091
40,60 41,40 43,90 44,20
46,220 47,30 48,10 49,190
50,751 51,1201 52,210 53,80
60,80 61,561 62,1481 63,4374
64,671 65,390 66,20 71,10
72,90 73,1041 74,550 75,871
76,160 77,2813 78,520 79,40
84,150 85,380 86,611 87,621
88,190 89,8378 90,1982 91,150
96,30 97,220 98,40 99,2772
100,160 101,951 102,70 103,10
104,70 105,130 106,80 107,10
108,10 109,10 110,20 111,40
112,60 113,3093 114,220 115,1011
116,70 123,190 124,280 125,8017
126,721 127,2632 128,200 136,70
138,10 139,10 141,4534 142,350
143,1491 144,110 154,50 155,220
156,30 157,70 169,10 171,9999
172,851 173,3313 174,260 175,20
##END=
