##TITLE=2-Methyl-3-acetyl-quinoxaline 1,4-dioxide
##JCAMP-DX=4.24
##DATA TYPE=MASS SPECTRUM
##ORIGIN=ASES Database, Dalian Institute, P.R. China
##OWNER=NIST Mass Spectrometry Data Center
Collection (C) 2014 copyright by the U.S. Secretary of Commerce
on behalf of the United States of America. All rights reserved.
##CAS REGISTRY NO=13297-17-1
##$NIST MASS SPEC NO=147822
##MOLFORM=C11 H10 N2 O3
##MW=218
##$NIST SOURCE=MSDC
##XUNITS=M/Z
##YUNITS=RELATIVE INTENSITY
##XFACTOR=1
##YFACTOR=1
##FIRSTX=75
##LASTX=219
##FIRSTY=1251
##MAXX=219
##MINX=75
##MAXY=9999
##MINY=240
##NPOINTS=34
##PEAK TABLE=(XY..XY)
75,1251 76,1911 77,1221 78,490
89,570 90,2502 102,3903 103,1171
104,650 105,2141 106,3823 107,980
115,480 116,840 117,480 129,2492
130,830 131,1321 142,1321 143,9748
144,3573 145,480 158,2071 159,2232
160,240 183,890 184,8187 185,3152
186,2061 201,8737 202,4133 203,410
218,9999 219,1321
##END=
