##TITLE=1,3-Benzenedicarboxylic acid, 5-nitro-, dimethyl ester
##JCAMP-DX=4.24
##DATA TYPE=MASS SPECTRUM
##ORIGIN=Japan AIST/NIMC Database- Spectrum MS-NW-9917
##OWNER=NIST Mass Spectrometry Data Center
Collection (C) 2014 copyright by the U.S. Secretary of Commerce
on behalf of the United States of America. All rights reserved.
##CAS REGISTRY NO=13290-96-5
##$NIST MASS SPEC NO=239076
##MOLFORM=C10 H9 N O6
##MW=239
##$NIST SOURCE=MSDC
##XUNITS=M/Z
##YUNITS=RELATIVE INTENSITY
##XFACTOR=1
##YFACTOR=1
##FIRSTX=15
##LASTX=241
##FIRSTY=159
##MAXX=241
##MINX=15
##MAXY=9999
##MINY=10
##NPOINTS=87
##PEAK TABLE=(XY..XY)
15,159 28,90 29,20 30,30
31,10 37,10 38,20 39,30
44,10 45,119 50,40 51,50
52,20 53,30 59,199 61,20
62,50 63,129 64,20 65,70
66,10 69,20 73,40 74,479
75,1019 76,139 77,70 78,20
79,20 88,60 89,30 90,20
91,60 92,40 93,10 101,40
102,419 103,189 104,40 105,40
106,70 107,20 118,10 119,219
120,80 121,20 122,50 123,10
133,489 134,1109 135,179 136,20
147,509 148,149 149,139 150,219
151,40 152,20 161,209 162,2129
163,259 164,40 165,40 177,30
178,239 179,169 180,349 181,50
190,10 191,10 192,40 193,439
194,399 195,40 206,20 207,10
208,9999 209,1849 210,249 211,20
222,10 223,30 224,40 238,599
239,3349 240,399 241,60
##END=
