##TITLE=Captan
##JCAMP-DX=4.24
##DATA TYPE=MASS SPECTRUM
##ORIGIN=Tox21 Consortium/NIST Mass Spectrometry Data Center, 2012
##OWNER=NIST Mass Spectrometry Data Center
Collection (C) 2014 copyright by the U.S. Secretary of Commerce
on behalf of the United States of America. All rights reserved.
##CAS REGISTRY NO=133-06-2
##$NIST MASS SPEC NO=408697
##MOLFORM=C9 H8 Cl3 N O2 S
##MW=299
##$NIST SOURCE=MSDC
##XUNITS=M/Z
##YUNITS=RELATIVE INTENSITY
##XFACTOR=1
##YFACTOR=1
##FIRSTX=15
##LASTX=303
##FIRSTY=10
##MAXX=303
##MINX=15
##MAXY=9999
##MINY=10
##NPOINTS=167
##PEAK TABLE=(XY..XY)
15,10 26,70 27,340 28,130
29,30 30,10 32,50 34,10
35,70 36,140 37,60 38,130
39,771 40,150 41,240 42,50
43,40 44,300 45,70 46,100
47,150 48,20 49,60 50,260
51,711 52,510 53,571 54,310
55,140 56,90 57,10 58,10
59,20 60,60 61,10 62,40
63,120 64,40 65,320 66,140
67,220 68,50 69,50 70,510
71,30 72,100 73,20 74,40
75,40 76,170 77,2572 78,1521
79,9999 80,2342 81,641 82,240
83,40 84,100 85,30 86,60
87,10 88,30 89,10 90,10
91,20 92,40 93,90 94,60
95,130 96,50 97,60 98,40
99,50 100,30 101,10 102,10
103,20 104,90 105,591 106,561
107,1501 108,180 109,60 110,10
111,170 112,30 113,30 114,530
115,40 116,340 117,1451 118,80
119,1341 120,40 121,841 122,160
123,160 124,30 125,60 126,30
127,30 128,20 129,10 130,130
131,20 132,100 133,10 134,330
135,40 136,100 137,20 138,20
139,10 140,20 141,10 142,10
145,10 146,10 147,10 148,350
149,2172 150,260 151,571 152,60
153,10 154,70 155,10 156,370
157,40 158,270 159,20 160,50
161,10 165,10 167,10 172,50
173,10 174,20 180,80 181,10
182,300 183,30 184,20 200,20
202,10 204,20 206,20 208,10
210,10 228,10 230,10 235,10
236,140 237,20 238,100 239,10
240,20 263,260 264,420 265,230
266,280 267,70 268,60 269,10
299,30 301,30 303,10
##END=
