##TITLE=Benzoic acid, 3-amino-2,5-dichloro-
##JCAMP-DX=4.24
##DATA TYPE=MASS SPECTRUM
##ORIGIN=ACCUSTANDARD Chemicals / NIST MS Data Center.
##OWNER=NIST Mass Spectrometry Data Center
Collection (C) 2014 copyright by the U.S. Secretary of Commerce
on behalf of the United States of America. All rights reserved.
##CAS REGISTRY NO=133-90-4
##$NIST MASS SPEC NO=125505
##MOLFORM=C7 H5 Cl2 N O2
##MW=205
##$NIST SOURCE=MSDC
##XUNITS=M/Z
##YUNITS=RELATIVE INTENSITY
##XFACTOR=1
##YFACTOR=1
##FIRSTX=12
##LASTX=210
##FIRSTY=15
##MAXX=210
##MINX=12
##MAXY=9999
##MINY=6
##NPOINTS=154
##PEAK TABLE=(XY..XY)
12,15 13,20 15,19 16,6
25,40 26,55 28,85 29,77
30,28 31,49 35,75 36,136
37,433 38,408 39,176 40,91
41,265 42,40 43,28 44,379
45,629 47,124 48,88 49,257
50,178 51,352 52,660 53,158
54,38 55,23 56,18 57,17
58,20 59,32 60,198 61,919
62,1428 63,1489 64,332 65,433
66,68 67,24 68,35 71,144
72,253 73,668 74,339 75,353
76,165 77,142 78,428 79,146
80,136 81,72 82,31 83,93
84,24 85,357 86,282 87,288
88,491 89,643 90,1155 91,187
92,25 94,172 95,170 96,260
97,1023 98,382 99,891 100,160
101,216 102,37 103,19 104,11
105,18 106,96 107,134 108,75
109,107 110,52 111,35 112,92
113,622 114,488 115,292 116,183
117,44 118,19 121,40 122,34
124,2076 125,880 126,973 127,305
128,116 129,33 130,11 131,41
133,554 134,170 135,320 136,91
137,68 140,47 141,101 142,233
143,62 144,86 145,22 146,16
148,48 149,80 150,44 151,174
152,137 153,102 154,62 155,25
156,15 158,66 159,381 160,2036
161,1152 162,1344 163,583 164,278
165,101 168,21 169,55 170,320
171,70 172,121 173,22 177,452
178,76 179,297 180,26 181,52
185,18 186,35 188,3597 189,499
190,2281 191,219 192,362 193,43
205,9999 206,1234 207,6827 208,626
209,1098 210,103
##END=
