##TITLE=Benzenethiol, pentachloro-
##JCAMP-DX=4.24
##DATA TYPE=MASS SPECTRUM
##ORIGIN=Japan AIST/NIMC Database- Spectrum MS-NW-1613
##OWNER=NIST Mass Spectrometry Data Center
Collection (C) 2014 copyright by the U.S. Secretary of Commerce
on behalf of the United States of America. All rights reserved.
##CAS REGISTRY NO=133-49-3
##$NIST MASS SPEC NO=233564
##MOLFORM=C6 H Cl5 S
##MW=280
##$NIST SOURCE=MSDC
##XUNITS=M/Z
##YUNITS=RELATIVE INTENSITY
##XFACTOR=1
##YFACTOR=1
##FIRSTX=12
##LASTX=290
##FIRSTY=30
##MAXX=290
##MINX=12
##MAXY=9999
##MINY=10
##NPOINTS=173
##PEAK TABLE=(XY..XY)
12,30 24,20 33,50 35,199
36,109 37,60 38,30 39,10
44,179 45,269 46,10 47,319
48,99 49,99 52,80 55,10
56,90 57,30 59,30 60,479
61,149 63,10 65,30 66,20
67,10 68,409 69,589 70,219
71,499 72,169 73,149 74,20
78,40 79,2329 80,129 81,839
82,40 83,159 84,30 85,60
86,10 87,779 88,529 89,99
91,109 92,259 93,90 94,80
95,779 96,229 97,269 98,70
100,10 101,10 103,1219 104,359
105,859 106,509 107,519 108,169
109,159 110,30 111,10 115,249
116,40 117,139 118,249 119,70
120,149 121,30 122,829 123,1049
124,549 125,139 126,60 127,499
128,60 129,189 130,349 131,249
132,229 133,159 134,40 135,30
139,1139 140,649 141,1249 142,969
143,439 144,359 145,109 146,60
147,10 150,70 152,50 153,20
154,10 155,20 163,10 165,569
166,30 167,549 168,30 169,179
170,10 171,20 174,809 175,299
176,589 177,379 178,149 179,209
180,40 181,60 182,10 186,60
188,70 190,30 192,10 200,10
201,219 202,20 203,279 204,20
205,129 207,30 209,829 210,2199
211,979 212,2319 213,479 214,959
215,139 216,199 217,40 218,30
219,10 220,30 222,40 224,20
235,90 236,10 237,149 238,20
239,90 240,10 241,30 243,10
244,1649 245,4739 246,2549 247,6349
248,1719 249,3339 250,759 251,839
252,249 253,109 254,60 255,10
256,10 279,199 280,6259 281,789
282,9999 283,949 284,6679 285,579
286,2349 287,189 288,429 289,30
290,40
##END=
