##TITLE=Benzoic acid, 2-hydroxy-3,5-diiodo-
##JCAMP-DX=4.24
##DATA TYPE=MASS SPECTRUM
##ORIGIN=RADIAN CORP
##OWNER=NIST Mass Spectrometry Data Center
Collection (C) 2014 copyright by the U.S. Secretary of Commerce
on behalf of the United States of America. All rights reserved.
##CAS REGISTRY NO=133-91-5
##$NIST MASS SPEC NO=76469
##MOLFORM=C7 H4 I2 O3
##MW=390
##$NIST SOURCE=MSDC
##XUNITS=M/Z
##YUNITS=RELATIVE INTENSITY
##XFACTOR=1
##YFACTOR=1
##FIRSTX=28
##LASTX=391
##FIRSTY=160
##MAXX=391
##MINX=28
##MAXY=9999
##MINY=10
##NPOINTS=106
##PEAK TABLE=(XY..XY)
28,160 29,140 32,50 37,270
38,250 39,120 41,140 42,70
43,150 45,450 49,110 50,300
51,300 52,400 53,840 54,110
55,200 56,20 57,130 60,300
61,1510 62,3040 63,1940 64,340
65,110 66,110 67,50 68,50
69,380 70,40 71,110 73,340
74,440 75,220 77,150 79,470
80,350 81,170 82,30 83,110
84,20 85,40 89,150 90,1410
91,1120 92,300 93,40 94,10
95,80 96,10 97,110 98,20
103,290 105,30 107,200 108,900
109,140 111,10 117,40 118,530
119,580 120,40 122,690 126,20
127,2390 128,480 129,40 135,120
136,530 137,60 139,90 149,160
152,140 158,470 163,120 164,260
165,190 172,440 176,80 177,30
178,30 179,230 186,1680 188,130
189,2960 190,310 192,250 195,280
207,620 217,1120 218,620 235,100
245,2020 246,220 254,80 262,30
263,130 316,440 317,60 344,810
345,70 372,9999 373,810 374,50
390,5750 391,440
##END=
