##TITLE=Diethyl butylmalonate
##JCAMP-DX=4.24
##DATA TYPE=MASS SPECTRUM
##ORIGIN=Japan AIST/NIMC Database- Spectrum MS-NW-3939
##OWNER=NIST Mass Spectrometry Data Center
Collection (C) 2014 copyright by the U.S. Secretary of Commerce
on behalf of the United States of America. All rights reserved.
##CAS REGISTRY NO=133-08-4
##$NIST MASS SPEC NO=232515
##MOLFORM=C11 H20 O4
##MW=216
##$NIST SOURCE=MSDC
##XUNITS=M/Z
##YUNITS=RELATIVE INTENSITY
##XFACTOR=1
##YFACTOR=1
##FIRSTX=14
##LASTX=217
##FIRSTY=30
##MAXX=217
##MINX=14
##MAXY=9999
##MINY=10
##NPOINTS=125
##PEAK TABLE=(XY..XY)
14,30 15,179 16,10 17,10
18,30 25,10 26,239 27,2649
28,679 29,7879 30,189 31,359
32,109 37,10 38,40 39,749
40,169 41,2089 42,729 43,1069
44,119 45,1199 46,40 47,119
50,20 51,40 52,20 53,209
54,119 55,3219 56,289 57,709
58,329 59,179 60,219 61,90
62,10 63,10 65,30 66,30
67,169 68,309 69,2769 70,649
71,269 72,40 73,4629 74,279
75,50 77,10 79,30 80,119
81,179 82,50 83,199 84,30
85,349 86,1549 87,709 88,1869
89,129 90,10 91,10 94,10
95,129 96,529 97,2479 98,509
99,819 100,129 101,3369 102,389
103,30 104,769 105,519 106,30
107,10 109,70 110,30 111,20
112,10 113,359 114,2129 115,2579
116,219 117,60 119,10 122,10
123,139 124,529 125,109 126,10
127,639 128,239 129,419 130,40
131,179 132,1799 133,2929 134,179
135,30 140,10 141,129 142,539
143,749 144,309 145,99 146,10
155,20 159,99 160,9999 161,839
162,129 163,10 169,20 170,80
171,4869 172,519 173,1239 174,169
175,20 187,90 188,10 189,50
217,10
##END=
