##TITLE=Folpet
##JCAMP-DX=4.24
##DATA TYPE=MASS SPECTRUM
##ORIGIN=ACCUSTANDARD Chemicals / NIST MS Data Center.
##OWNER=NIST Mass Spectrometry Data Center
Collection (C) 2014 copyright by the U.S. Secretary of Commerce
on behalf of the United States of America. All rights reserved.
##CAS REGISTRY NO=133-07-3
##$NIST MASS SPEC NO=125527
##MOLFORM=C9 H4 Cl3 N O2 S
##MW=295
##$NIST SOURCE=MSDC
##XUNITS=M/Z
##YUNITS=RELATIVE INTENSITY
##XFACTOR=1
##YFACTOR=1
##FIRSTX=12
##LASTX=302
##FIRSTY=50
##MAXX=302
##MINX=12
##MAXY=9999
##MINY=22
##NPOINTS=138
##PEAK TABLE=(XY..XY)
12,50 15,29 16,29 18,31
25,23 26,61 28,411 29,48
32,266 35,213 36,78 37,320
38,362 39,515 40,25 41,22
44,418 45,86 46,220 47,288
48,58 49,285 50,2974 51,263
52,150 53,79 58,46 60,123
61,123 62,220 63,579 64,396
65,87 66,72 67,133 69,124
70,221 72,41 73,265 74,1180
75,1228 76,5479 77,489 78,41
79,1855 80,41 81,672 82,261
83,38 84,196 85,27 86,62
87,52 88,83 89,27 90,946
91,84 92,25 93,31 94,25
95,473 96,29 97,166 99,31
102,846 104,5691 105,558 106,57
107,54 108,55 111,103 114,439
117,3103 119,2930 121,1080 122,293
123,197 124,27 128,46 130,4770
131,510 132,732 133,95 134,705
135,58 136,99 137,34 139,54
147,798 148,73 150,1323 151,198
152,83 155,27 156,60 158,39
162,268 163,36 164,29 167,267
168,43 169,100 171,24 178,1433
179,158 180,86 190,78 199,67
200,463 201,57 202,306 203,34
204,62 213,128 215,40 232,1160
233,136 234,769 235,117 236,163
241,31 260,9999 261,1256 262,7094
263,755 264,1397 265,164 266,67
268,45 270,69 272,28 295,2040
297,2402 298,276 299,796 300,108
301,105 302,23
##END=
