##TITLE=Benzoic acid, 4-amino-2-chloro-, 2-(diethylamino)ethyl ester
##JCAMP-DX=4.24
##DATA TYPE=MASS SPECTRUM
##ORIGIN=Association of Official Racing Chemists
##OWNER=NIST Mass Spectrometry Data Center
Collection (C) 2014 copyright by the U.S. Secretary of Commerce
on behalf of the United States of America. All rights reserved.
##CAS REGISTRY NO=133-16-4
##$NIST MASS SPEC NO=137198
##MOLFORM=C13 H19 Cl N2 O2
##MW=270
##$NIST SOURCE=MSDC
##XUNITS=M/Z
##YUNITS=RELATIVE INTENSITY
##XFACTOR=1
##YFACTOR=1
##FIRSTX=46
##LASTX=255
##FIRSTY=22
##MAXX=255
##MINX=46
##MAXY=9999
##MINY=3
##NPOINTS=62
##PEAK TABLE=(XY..XY)
46,22 50,34 51,41 52,72
53,33 54,81 55,74 56,525
57,157 58,972 59,27 61,11
62,53 63,268 64,86 65,91
66,35 68,23 69,22 70,167
71,380 72,106 73,57 74,28
75,44 76,14 77,22 79,21
81,15 82,21 84,307 86,9999
87,577 88,41 89,48 90,273
91,103 92,60 96,3 97,37
99,2616 100,227 101,100 114,21
118,18 119,8 120,113 125,48
126,300 128,146 140,19 142,14
154,1474 155,141 156,452 157,46
171,56 173,26 198,259 199,40
200,108 255,15
##END=
