##TITLE=Benzoic acid, 2-amino-, 2-phenylethyl ester
##JCAMP-DX=4.24
##DATA TYPE=MASS SPECTRUM
##ORIGIN=NIST Mass Spectrometry Data Center, 1998.
##OWNER=NIST Mass Spectrometry Data Center
Collection (C) 2014 copyright by the U.S. Secretary of Commerce
on behalf of the United States of America. All rights reserved.
##CAS REGISTRY NO=133-18-6
##$NIST MASS SPEC NO=290560
##MOLFORM=C15 H15 N O2
##MW=241
##$NIST SOURCE=MSDC
##XUNITS=M/Z
##YUNITS=RELATIVE INTENSITY
##XFACTOR=1
##YFACTOR=1
##FIRSTX=27
##LASTX=243
##FIRSTY=130
##MAXX=243
##MINX=27
##MAXY=9999
##MINY=10
##NPOINTS=67
##PEAK TABLE=(XY..XY)
27,130 29,10 37,10 38,120
39,750 40,70 41,150 42,60
44,10 50,190 51,520 52,360
53,140 54,30 61,20 62,130
63,550 64,490 65,3200 66,390
74,70 75,80 76,120 77,1600
78,560 79,1330 80,100 89,180
90,190 91,1850 92,4150 93,560
94,30 102,120 103,1270 104,2180
105,5759 106,520 119,8359 120,8179
121,720 122,50 132,720 133,60
137,9999 138,850 139,80 150,50
152,10 165,10 167,30 178,10
179,30 180,60 181,10 193,10
194,10 195,10 196,10 204,10
208,70 210,10 222,140 223,10
241,7309 242,1230 243,120
##END=
