##TITLE=Benzeneacetic acid, .alpha.-hydroxy-4-methoxy-, methyl ester
##JCAMP-DX=4.24
##DATA TYPE=MASS SPECTRUM
##ORIGIN=C.M.WILLIAMS VETERANS ADMIN. HOSP., GAINESVILLE, FLORIDA, USA
##OWNER=NIST Mass Spectrometry Data Center
Collection (C) 2014 copyright by the U.S. Secretary of Commerce
on behalf of the United States of America. All rights reserved.
##CAS REGISTRY NO=13305-14-1
##$NIST MASS SPEC NO=8688
##MOLFORM=C10 H12 O4
##MW=196
##$NIST SOURCE=MSDC
##XUNITS=M/Z
##YUNITS=RELATIVE INTENSITY
##XFACTOR=1
##YFACTOR=1
##FIRSTX=15
##LASTX=198
##FIRSTY=718
##MAXX=198
##MINX=15
##MAXY=9999
##MINY=51
##NPOINTS=71
##PEAK TABLE=(XY..XY)
15,718 16,256 26,51 27,205
28,308 29,359 30,103 31,154
37,103 38,256 39,615 40,256
41,205 42,51 43,154 44,51
45,103 49,51 50,359 51,564
52,205 53,256 54,51 55,154
56,51 57,103 59,256 60,103
61,103 62,154 63,359 64,308
65,564 66,718 67,103 68,103
74,154 75,154 76,205 77,1692
78,359 79,308 80,51 89,103
90,51 91,205 92,410 93,205
94,1385 95,205 104,51 105,205
106,154 107,256 108,205 109,1846
110,256 120,103 121,154 122,205
123,51 135,821 136,308 137,9999
138,974 139,154 151,667 152,103
196,1128 197,205 198,51
##END=
