##TITLE=3-(Methylthio)propanoic acid ethyl ester
##JCAMP-DX=4.24
##DATA TYPE=MASS SPECTRUM
##ORIGIN=J. MADSEN,DEP. ORG. CHEM.,TECH. UNIV. DENMARK,LYNGBY,DENMARK
##OWNER=NIST Mass Spectrometry Data Center
Collection (C) 2014 copyright by the U.S. Secretary of Commerce
on behalf of the United States of America. All rights reserved.
##CAS REGISTRY NO=13327-56-5
##$NIST MASS SPEC NO=99444
##MOLFORM=C6 H12 O2 S
##MW=148
##$NIST SOURCE=MSDC
##XUNITS=M/Z
##YUNITS=RELATIVE INTENSITY
##XFACTOR=1
##YFACTOR=1
##FIRSTX=26
##LASTX=150
##FIRSTY=280
##MAXX=150
##MINX=26
##MAXY=9999
##MINY=190
##NPOINTS=41
##PEAK TABLE=(XY..XY)
26,280 27,2350 28,500 29,3250
30,190 35,470 40,740 41,1420
42,190 43,690 44,260 45,2070
46,790 47,1760 48,720 49,530
55,930 56,230 58,230 59,680
60,390 61,8720 62,300 63,470
71,930 73,1300 74,9999 75,4370
76,690 77,1140 87,790 89,370
101,260 102,690 103,2650 105,260
119,470 133,280 148,6860 149,480
150,350
##END=
