##TITLE=4-Amino-1-butanol
##JCAMP-DX=4.24
##DATA TYPE=MASS SPECTRUM
##ORIGIN=NIST Mass Spectrometry Data Center, 1990.
##OWNER=NIST Mass Spectrometry Data Center
Collection (C) 2014 copyright by the U.S. Secretary of Commerce
on behalf of the United States of America. All rights reserved.
##CAS REGISTRY NO=13325-10-5
##$NIST MASS SPEC NO=118233
##MOLFORM=C4 H11 N O
##MW=89
##$NIST SOURCE=MSDC
##XUNITS=M/Z
##YUNITS=RELATIVE INTENSITY
##XFACTOR=1
##YFACTOR=1
##FIRSTX=13
##LASTX=89
##FIRSTY=9
##MAXX=89
##MINX=13
##MAXY=9999
##MINY=2
##NPOINTS=41
##PEAK TABLE=(XY..XY)
13,9 14,14 15,104 16,19
17,63 18,431 19,34 25,16
26,105 27,450 28,966 29,715
30,9999 31,765 32,14 33,6
36,7 37,40 38,76 39,286
40,114 41,512 42,221 43,461
44,315 45,1335 46,2 48,17
50,15 51,24 52,25 53,55
54,36 59,130 68,28 69,22
70,34 73,8 74,14 88,13
89,79
##END=
