##TITLE=Phenol, 2,6-dimethyl-4-nitroso-
##JCAMP-DX=4.24
##DATA TYPE=MASS SPECTRUM
##ORIGIN=James Little,Eastman Chem.Co.,Kingsport,TN
##OWNER=NIST Mass Spectrometry Data Center
Collection (C) 2014 copyright by the U.S. Secretary of Commerce
on behalf of the United States of America. All rights reserved.
##CAS REGISTRY NO=13331-93-6
##$NIST MASS SPEC NO=289183
##MOLFORM=C8 H9 N O2
##MW=151
##$NIST SOURCE=MSDC
##XUNITS=M/Z
##YUNITS=RELATIVE INTENSITY
##XFACTOR=1
##YFACTOR=1
##FIRSTX=26
##LASTX=153
##FIRSTY=400
##MAXX=153
##MINX=26
##MAXY=9999
##MINY=200
##NPOINTS=40
##PEAK TABLE=(XY..XY)
26,400 27,1201 28,3003 38,701
39,3403 40,1301 41,1101 43,701
51,1902 52,701 53,801 63,400
65,801 66,1702 67,701 77,2002
78,801 79,1902 80,1101 91,1301
92,500 93,500 94,1001 104,400
106,801 107,1101 108,1401 116,601
120,500 121,801 122,1101 123,500
134,3203 135,2002 136,701 137,901
138,200 151,9999 152,1201 153,200
##END=
