##TITLE=4-Decen-6-yne, (Z)-
##JCAMP-DX=4.24
##DATA TYPE=MASS SPECTRUM
##ORIGIN=D.HENNEBERG, MAX-PLANCK INSTITUTE, MULHEIM, WEST GERMANY
##OWNER=NIST Mass Spectrometry Data Center
Collection (C) 2014 copyright by the U.S. Secretary of Commerce
on behalf of the United States of America. All rights reserved.
##CAS REGISTRY NO=13343-76-5
##$NIST MASS SPEC NO=62991
##MOLFORM=C10 H16
##MW=136
##$NIST SOURCE=MSDC
##XUNITS=M/Z
##YUNITS=RELATIVE INTENSITY
##XFACTOR=1
##YFACTOR=1
##FIRSTX=23
##LASTX=138
##FIRSTY=21
##MAXX=138
##MINX=23
##MAXY=9999
##MINY=3
##NPOINTS=101
##PEAK TABLE=(XY..XY)
23,21 25,25 26,122 27,1695
28,130 29,2165 30,40 31,26
33,23 34,22 35,18 36,5
37,65 38,147 39,2191 40,266
41,2067 42,232 43,452 44,47
45,24 46,35 47,20 48,16
49,33 50,343 51,1001 52,645
53,862 54,149 55,1313 56,89
57,56 58,38 59,26 60,14
61,45 62,118 63,424 64,141
65,2123 66,636 67,891 68,518
69,80 70,23 71,18 72,10
73,12 74,60 75,341 76,91
77,2541 78,699 79,9999 80,968
81,331 82,38 83,3 84,27
85,16 86,25 87,23 88,8
89,105 90,64 91,3237 92,645
93,2056 94,1818 95,224 96,15
101,13 102,17 103,130 104,37
105,696 106,99 107,1443 108,250
109,17 115,78 116,17 117,50
118,6 119,53 120,11 121,186
122,46 123,7 127,11 128,31
129,25 130,19 132,9 133,3
134,50 135,20 136,2488 137,258
138,11
##END=
