##TITLE=2-(2-Pyridyl-2-vinyl)pyridine, trans
##JCAMP-DX=4.24
##DATA TYPE=MASS SPECTRUM
##ORIGIN=V.A.KOPTYUG, ATLAS OF MASS SPECTRA OF ORGANIC COMPOUNDS
##OWNER=NIST Mass Spectrometry Data Center
Collection (C) 2014 copyright by the U.S. Secretary of Commerce
on behalf of the United States of America. All rights reserved.
##CAS REGISTRY NO=13341-40-7
##$NIST MASS SPEC NO=78079
##MOLFORM=C12 H10 N2
##MW=182
##$NIST SOURCE=MSDC
##XUNITS=M/Z
##YUNITS=RELATIVE INTENSITY
##XFACTOR=1
##YFACTOR=1
##FIRSTX=50
##LASTX=183
##FIRSTY=560
##MAXX=183
##MINX=50
##MAXY=9999
##MINY=110
##NPOINTS=34
##PEAK TABLE=(XY..XY)
50,560 51,1790 52,1210 62,110
63,450 64,260 65,120 75,200
76,390 77,1380 78,2590 79,890
80,120 90,590 91,1310 101,140
102,160 103,140 104,2830 105,230
126,130 127,450 128,260 129,170
130,130 152,160 153,210 154,1030
155,250 179,380 180,380 181,9999
182,5109 183,600
##END=
