##TITLE=1H-Benzotriazole, 1-methyl-
##JCAMP-DX=4.24
##DATA TYPE=MASS SPECTRUM
##ORIGIN=A. MARQUESTIAU
##OWNER=NIST Mass Spectrometry Data Center
Collection (C) 2014 copyright by the U.S. Secretary of Commerce
on behalf of the United States of America. All rights reserved.
##CAS REGISTRY NO=13351-73-0
##$NIST MASS SPEC NO=42180
##MOLFORM=C7 H7 N3
##MW=133
##$NIST SOURCE=MSDC
##XUNITS=M/Z
##YUNITS=RELATIVE INTENSITY
##XFACTOR=1
##YFACTOR=1
##FIRSTX=26
##LASTX=134
##FIRSTY=190
##MAXX=134
##MINX=26
##MAXY=9999
##MINY=120
##NPOINTS=38
##PEAK TABLE=(XY..XY)
26,190 27,1000 28,1510 37,410
38,700 39,1300 40,180 41,220
42,410 43,150 44,410 50,840
51,920 52,620 53,180 55,280
61,240 62,430 63,2030 64,1730
65,350 66,570 74,320 75,240
76,350 77,2570 78,1300 79,460
88,120 90,4460 91,410 92,140
103,410 104,1890 105,8380 106,680
133,9999 134,860
##END=
