##TITLE=Isocyclocitral
##JCAMP-DX=4.24
##DATA TYPE=MASS SPECTRUM
##ORIGIN=NIST Mass Spectrometry Data Center, 1994
##OWNER=NIST Mass Spectrometry Data Center
Collection (C) 2014 copyright by the U.S. Secretary of Commerce
on behalf of the United States of America. All rights reserved.
##CAS REGISTRY NO=1335-66-6
##$NIST MASS SPEC NO=133452
##MOLFORM=C10 H16 O
##MW=152
##$NIST SOURCE=MSDC
##XUNITS=M/Z
##YUNITS=RELATIVE INTENSITY
##XFACTOR=1
##YFACTOR=1
##FIRSTX=14
##LASTX=153
##FIRSTY=6
##MAXX=153
##MINX=14
##MAXY=9999
##MINY=6
##NPOINTS=74
##PEAK TABLE=(XY..XY)
14,6 15,378 27,2314 28,547
29,3364 30,70 31,142 37,54
39,5087 40,889 41,6507 42,543
43,2174 44,92 45,209 50,490
51,1206 52,509 53,2307 54,585
55,2558 56,268 57,774 58,49
61,57 62,140 63,451 64,49
65,1852 66,49 67,9235 68,1039
69,6318 70,407 71,330 74,81
75,61 77,2859 78,702 79,3118
80,61 81,7624 82,3660 83,469
84,123 89,97 91,3787 92,561
93,2439 94,785 95,3947 96,520
97,198 102,59 103,271 105,1560
107,5551 108,1085 109,4401 110,1219
111,130 115,75 117,75 119,1643
121,9999 122,1152 123,2962 124,376
134,1050 135,184 137,1851 138,184
152,2898 153,328
##END=
