##TITLE=Pyridine, 4,4'-(1,2-ethenediyl)bis-, (E)-
##JCAMP-DX=4.24
##DATA TYPE=MASS SPECTRUM
##ORIGIN=V.A.KOPTYUG, ATLAS OF MASS SPECTRA OF ORGANIC COMPOUNDS
##OWNER=NIST Mass Spectrometry Data Center
Collection (C) 2014 copyright by the U.S. Secretary of Commerce
on behalf of the United States of America. All rights reserved.
##CAS REGISTRY NO=13362-78-2
##$NIST MASS SPEC NO=78078
##MOLFORM=C12 H10 N2
##MW=182
##$NIST SOURCE=MSDC
##XUNITS=M/Z
##YUNITS=RELATIVE INTENSITY
##XFACTOR=1
##YFACTOR=1
##FIRSTX=50
##LASTX=183
##FIRSTY=2390
##MAXX=183
##MINX=50
##MAXY=9999
##MINY=110
##NPOINTS=46
##PEAK TABLE=(XY..XY)
50,2390 51,6489 52,1930 61,210
62,670 63,3380 64,1260 65,460
75,1340 76,1960 77,6099 78,1370
79,660 80,120 84,430 87,330
88,250 89,840 90,600 91,830
98,130 99,200 100,180 101,1050
102,920 103,390 104,290 114,110
115,150 126,300 127,1250 128,540
129,370 140,130 141,130 142,120
152,200 153,300 154,2320 155,1020
156,140 179,390 180,330 181,9909
182,9999 183,1430
##END=
