##TITLE=Quinoline, 4,8-dimethyl-
##JCAMP-DX=4.24
##DATA TYPE=MASS SPECTRUM
##OWNER=NIST Mass Spectrometry Data Center
Collection (C) 2014 copyright by the U.S. Secretary of Commerce
on behalf of the United States of America. All rights reserved.
##CAS REGISTRY NO=13362-80-6
##$NIST MASS SPEC NO=5413
##MOLFORM=C11 H11 N
##MW=157
##$NIST SOURCE=MSDC
##XUNITS=M/Z
##YUNITS=RELATIVE INTENSITY
##XFACTOR=1
##YFACTOR=1
##FIRSTX=62
##LASTX=158
##FIRSTY=320
##MAXX=158
##MINX=62
##MAXY=9999
##MINY=240
##NPOINTS=26
##PEAK TABLE=(XY..XY)
62,320 63,720 64,280 65,400
74,240 75,280 76,280 77,1040
78,320 89,320 102,320 103,240
115,520 116,280 127,400 128,800
129,480 130,400 131,280 141,400
142,1280 143,280 155,400 156,2720
157,9999 158,1120
##END=
