##TITLE=Acetic acid, chloro-, isobutyl ester
##JCAMP-DX=4.24
##DATA TYPE=MASS SPECTRUM
##ORIGIN=V.G.Zaikin,TIPS,Russian Acad.Sci.Moscow
##OWNER=NIST Mass Spectrometry Data Center
Collection (C) 2014 copyright by the U.S. Secretary of Commerce
on behalf of the United States of America. All rights reserved.
##CAS REGISTRY NO=13361-35-8
##$NIST MASS SPEC NO=279990
##MOLFORM=C6 H11 Cl O2
##MW=150
##$NIST SOURCE=MSDC
##XUNITS=M/Z
##YUNITS=RELATIVE INTENSITY
##XFACTOR=1
##YFACTOR=1
##FIRSTX=25
##LASTX=135
##FIRSTY=20
##MAXX=135
##MINX=25
##MAXY=9999
##MINY=10
##NPOINTS=58
##PEAK TABLE=(XY..XY)
25,20 26,691 27,3083 28,260
29,5055 30,370 31,561 35,110
36,490 37,220 38,510 39,2452
40,440 41,6996 42,3293 43,5615
44,490 45,40 47,110 48,340
49,3013 50,691 51,1712 52,1581
53,350 54,20 55,881 56,9999
57,7557 58,470 59,490 60,100
63,30 64,30 65,30 66,10
68,30 69,60 71,681 72,190
73,330 75,30 76,350 77,5195
78,390 79,3313 80,120 91,20
93,40 95,160 97,20 107,781
108,1121 109,550 110,410 111,30
115,10 135,20
##END=
