##TITLE=1-Butanamine, N-ethyl-
##JCAMP-DX=4.24
##DATA TYPE=MASS SPECTRUM
##ORIGIN=Japan AIST/NIMC Database- Spectrum MS-NW-3270
##OWNER=NIST Mass Spectrometry Data Center
Collection (C) 2014 copyright by the U.S. Secretary of Commerce
on behalf of the United States of America. All rights reserved.
##CAS REGISTRY NO=13360-63-9
##$NIST MASS SPEC NO=233610
##MOLFORM=C6 H15 N
##MW=101
##$NIST SOURCE=MSDC
##XUNITS=M/Z
##YUNITS=RELATIVE INTENSITY
##XFACTOR=1
##YFACTOR=1
##FIRSTX=15
##LASTX=102
##FIRSTY=99
##MAXX=102
##MINX=15
##MAXY=9999
##MINY=10
##NPOINTS=37
##PEAK TABLE=(XY..XY)
15,99 26,50 27,499 28,509
29,769 30,3289 31,50 32,30
38,10 39,179 40,30 41,399
42,269 43,149 44,959 45,60
46,10 51,10 52,10 53,20
54,30 55,90 56,259 57,259
58,9999 59,369 68,20 70,50
71,40 72,50 84,60 86,239
87,10 98,10 100,209 101,899
102,60
##END=
