##TITLE=Photodieldrin
##JCAMP-DX=4.24
##DATA TYPE=MASS SPECTRUM
##ORIGIN=J. SHAW, BORRISTON RESEARCH, ROCKVILLE, MD, USA
##OWNER=NIST Mass Spectrometry Data Center
Collection (C) 2014 copyright by the U.S. Secretary of Commerce
on behalf of the United States of America. All rights reserved.
##CAS REGISTRY NO=13366-73-9
##$NIST MASS SPEC NO=60420
##MOLFORM=C12 H8 Cl6 O
##MW=378
##$NIST SOURCE=MSDC
##XUNITS=M/Z
##YUNITS=RELATIVE INTENSITY
##XFACTOR=1
##YFACTOR=1
##FIRSTX=12
##LASTX=384
##FIRSTY=10
##MAXX=384
##MINX=12
##MAXY=9999
##MINY=10
##NPOINTS=249
##PEAK TABLE=(XY..XY)
12,10 14,50 15,60 16,40
17,180 18,620 19,10 26,180
27,1061 28,230 29,2222 30,40
31,110 32,10 35,120 36,300
37,120 38,340 39,1161 40,110
41,90 42,50 43,80 44,30
45,20 47,50 48,20 49,200
50,520 51,1021 52,260 53,580
54,50 55,250 56,50 57,70
58,10 60,90 61,250 62,430
63,760 64,90 65,450 66,110
67,100 68,140 69,160 71,40
72,130 73,770 74,490 75,770
77,1071 78,330 79,2302 81,9999
82,750 83,370 84,170 85,530
86,470 87,620 88,120 89,260
90,40 91,210 93,170 94,180
95,190 96,140 97,350 98,210
99,740 100,120 101,390 102,150
103,160 104,150 105,210 106,110
107,500 108,200 109,490 110,160
111,460 112,170 113,520 114,130
115,390 116,50 117,160 118,80
119,210 120,90 121,200 122,120
123,320 124,70 125,170 126,110
127,170 128,140 129,240 130,60
131,160 133,340 134,150 135,310
136,220 137,380 138,260 139,580
140,160 141,480 142,90 143,230
144,60 145,210 146,230 147,380
148,260 149,420 150,110 151,160
152,40 153,30 155,50 156,20
157,140 158,50 159,200 160,100
161,140 162,140 163,210 164,70
165,130 167,350 168,90 169,310
170,140 171,180 173,600 174,140
175,390 176,120 177,140 178,60
179,60 180,80 181,160 183,410
184,80 185,170 186,40 187,30
188,10 189,20 191,40 193,130
194,50 195,120 196,120 197,80
198,80 199,40 200,30 201,100
202,90 203,120 204,70 205,70
206,40 207,150 208,80 209,300
210,100 211,160 212,50 213,30
214,40 215,30 216,30 217,100
219,110 220,30 221,30 222,10
223,10 225,10 227,50 228,10
229,50 230,50 231,40 232,40
233,20 234,20 235,30 236,130
237,90 238,110 239,60 240,40
241,30 243,250 244,90 245,210
246,80 247,70 248,30 249,20
251,20 253,20 254,10 255,20
256,10 257,10 264,10 265,10
266,10 267,20 271,60 272,40
273,70 274,40 275,30 277,40
279,130 280,30 281,100 282,20
283,40 291,10 307,50 309,60
311,40 313,20 315,30 317,20
319,10 343,50 345,80 347,60
349,10 378,30 380,60 382,50
384,10
##END=
