##TITLE=Butyric acid, octadecyl ester
##JCAMP-DX=4.24
##DATA TYPE=MASS SPECTRUM
##ORIGIN=V.G.Zaikin, Petrochem. Synth. Inst., Moscow
##OWNER=NIST Mass Spectrometry Data Center
Collection (C) 2014 copyright by the U.S. Secretary of Commerce
on behalf of the United States of America. All rights reserved.
##CAS REGISTRY NO=13373-83-6
##$NIST MASS SPEC NO=280441
##MOLFORM=C22 H44 O2
##MW=340
##$NIST SOURCE=MSDC
##XUNITS=M/Z
##YUNITS=RELATIVE INTENSITY
##XFACTOR=1
##YFACTOR=1
##FIRSTX=26
##LASTX=298
##FIRSTY=90
##MAXX=298
##MINX=26
##MAXY=9999
##MINY=10
##NPOINTS=73
##PEAK TABLE=(XY..XY)
26,90 27,871 28,320 29,1461
30,30 31,50 39,591 40,150
41,3533 42,1051 43,7717 44,260
45,80 53,190 54,611 55,4184
56,2192 57,4584 58,290 59,30
60,450 61,110 66,40 67,751
68,1051 69,3113 70,2012 71,6816
72,360 73,190 81,390 82,1291
83,3453 84,1391 85,1351 86,200
87,110 88,1381 89,9999 90,480
95,220 96,591 97,2772 98,961
99,310 101,90 109,90 110,280
111,1411 112,550 113,180 124,150
125,711 126,420 127,120 138,110
139,290 140,290 141,70 144,320
145,30 151,50 152,110 153,180
167,70 168,120 182,120 224,310
225,40 252,470 253,50 297,120
298,10
##END=
