##TITLE=2-Octene, (E)-
##JCAMP-DX=4.24
##DATA TYPE=MASS SPECTRUM
##ORIGIN=Japan AIST/NIMC Database- Spectrum MS-NW-3487
##OWNER=NIST Mass Spectrometry Data Center
Collection (C) 2014 copyright by the U.S. Secretary of Commerce
on behalf of the United States of America. All rights reserved.
##CAS REGISTRY NO=13389-42-9
##$NIST MASS SPEC NO=227619
##MOLFORM=C8 H16
##MW=112
##$NIST SOURCE=MSDC
##XUNITS=M/Z
##YUNITS=RELATIVE INTENSITY
##XFACTOR=1
##YFACTOR=1
##FIRSTX=15
##LASTX=114
##FIRSTY=90
##MAXX=114
##MINX=15
##MAXY=9999
##MINY=10
##NPOINTS=54
##PEAK TABLE=(XY..XY)
15,90 26,139 27,1789 28,379
29,3289 30,80 36,10 37,30
38,109 39,1859 40,339 41,6399
42,3439 43,1129 44,40 49,10
50,109 51,229 52,99 53,769
54,919 55,9999 56,5229 57,2129
58,90 61,10 62,30 63,50
64,10 65,99 66,50 67,489
68,429 69,2889 70,4269 71,449
72,20 74,10 77,70 78,20
79,70 80,10 81,90 82,169
83,1649 84,729 85,50 91,10
95,10 97,159 98,20 112,2829
113,289 114,10
##END=
