##TITLE=Phenyl methylphosphonofluoridate
##JCAMP-DX=4.24
##DATA TYPE=MASS SPECTRUM
##ORIGIN=VERIFIN - Methodology B1-1979
##OWNER=NIST Mass Spectrometry Data Center
Collection (C) 2014 copyright by the U.S. Secretary of Commerce
on behalf of the United States of America. All rights reserved.
##CAS REGISTRY NO=133826-40-1
##$NIST MASS SPEC NO=226128
##MOLFORM=C7 H8 F O2 P
##MW=174
##$NIST SOURCE=MSDC
##XUNITS=M/Z
##YUNITS=RELATIVE INTENSITY
##XFACTOR=1
##YFACTOR=1
##FIRSTX=28
##LASTX=175
##FIRSTY=100
##MAXX=175
##MINX=28
##MAXY=9999
##MINY=30
##NPOINTS=43
##PEAK TABLE=(XY..XY)
28,100 36,90 38,200 39,900
40,70 41,70 47,300 50,600
51,600 52,70 53,90 54,100
55,60 61,50 62,100 63,400
64,200 65,900 66,300 67,100
74,200 75,200 76,600 77,1201
78,100 79,300 81,500 82,50
90,300 91,9999 92,900 93,100
94,1000 95,80 99,800 107,300
108,50 146,100 158,50 159,80
173,30 174,4504 175,300
##END=
