##TITLE=Benzeneethanol, 3-hydroxy-
##JCAMP-DX=4.24
##DATA TYPE=MASS SPECTRUM
##ORIGIN=Japan AIST/NIMC Database- Spectrum MS-IW- 922
##OWNER=NIST Mass Spectrometry Data Center
Collection (C) 2014 copyright by the U.S. Secretary of Commerce
on behalf of the United States of America. All rights reserved.
##CAS REGISTRY NO=13398-94-2
##$NIST MASS SPEC NO=239554
##MOLFORM=C8 H10 O2
##MW=138
##$NIST SOURCE=MSDC
##XUNITS=M/Z
##YUNITS=RELATIVE INTENSITY
##XFACTOR=1
##YFACTOR=1
##FIRSTX=15
##LASTX=140
##FIRSTY=10
##MAXX=140
##MINX=15
##MAXY=9999
##MINY=10
##NPOINTS=81
##PEAK TABLE=(XY..XY)
15,10 18,20 26,20 27,229
28,80 29,99 30,20 31,409
32,10 37,30 38,109 39,619
40,80 41,109 42,40 43,119
44,20 45,50 49,10 50,149
51,399 52,179 53,369 54,30
55,209 56,10 57,20 58,40
59,30 60,10 61,30 62,80
63,239 64,80 65,329 66,119
67,60 68,70 69,30 73,10
74,40 75,40 76,20 77,2249
78,359 79,1189 80,419 81,139
82,30 86,10 87,10 89,229
90,1229 91,699 92,99 93,40
94,1239 95,469 96,30 101,10
103,40 105,60 106,20 107,9999
108,7429 109,609 110,259 111,20
118,20 119,119 120,569 121,119
122,20 123,10 134,20 135,10
136,209 137,70 138,7619 139,679
140,60
##END=
