##TITLE=Copper, bis(2,4-pentanedionato-O,O')-, (SP-4-1)-
##JCAMP-DX=4.24
##DATA TYPE=MASS SPECTRUM
##ORIGIN=Japan AIST/NIMC Database- Spectrum MS-NW-9148
##OWNER=NIST Mass Spectrometry Data Center
Collection (C) 2014 copyright by the U.S. Secretary of Commerce
on behalf of the United States of America. All rights reserved.
##CAS REGISTRY NO=13395-16-9
##$NIST MASS SPEC NO=230396
##MOLFORM=C10 H14 Cu O4
##MW=261
##$NIST SOURCE=MSDC
##XUNITS=M/Z
##YUNITS=RELATIVE INTENSITY
##XFACTOR=1
##YFACTOR=1
##FIRSTX=14
##LASTX=265
##FIRSTY=10
##MAXX=265
##MINX=14
##MAXY=9999
##MINY=10
##NPOINTS=158
##PEAK TABLE=(XY..XY)
14,10 15,90 17,20 18,70
26,20 27,119 28,149 29,60
31,40 38,10 39,80 40,20
41,99 42,90 43,3309 44,80
45,10 53,20 55,229 56,10
57,20 58,40 63,589 65,269
67,10 69,70 71,40 72,40
77,10 78,10 79,10 81,30
82,10 83,20 84,30 85,1109
86,50 89,40 90,20 91,80
93,30 95,109 96,20 97,40
99,219 100,779 101,50 102,20
103,70 104,279 105,2229 106,169
107,1059 108,20 109,50 113,20
115,10 117,20 119,40 120,30
121,70 122,20 123,109 125,10
129,10 130,119 131,50 132,20
133,509 134,40 135,239 136,30
137,60 138,10 139,30 141,20
144,20 145,50 146,50 147,6099
148,309 149,2749 150,129 151,30
155,80 157,20 158,40 159,199
160,40 161,309 162,4609 163,2679
164,2209 165,1199 166,70 167,10
172,10 173,30 175,409 176,109
177,349 178,60 179,80 183,10
185,10 186,10 188,20 189,10
190,30 191,20 192,10 193,10
200,90 201,409 202,80 203,309
204,99 205,70 206,50 207,20
208,40 215,30 216,20 217,119
218,80 219,639 220,80 221,269
222,30 223,30 224,10 225,80
226,10 227,20 228,20 230,10
231,3979 232,409 233,2079 234,209
235,139 236,10 239,60 240,10
243,189 244,20 245,99 246,5259
247,559 248,2419 249,249 250,60
251,10 261,9999 262,1149 263,4569
264,529 265,40
##END=
