##TITLE=Methanone, (4-chlorophenyl)phenyl-
##JCAMP-DX=4.24
##DATA TYPE=MASS SPECTRUM
##ORIGIN=Japan AIST/NIMC Database- Spectrum MS-NW-8778
##OWNER=NIST Mass Spectrometry Data Center
Collection (C) 2014 copyright by the U.S. Secretary of Commerce
on behalf of the United States of America. All rights reserved.
##CAS REGISTRY NO=134-85-0
##$NIST MASS SPEC NO=229197
##MOLFORM=C13 H9 Cl O
##MW=216
##$NIST SOURCE=MSDC
##XUNITS=M/Z
##YUNITS=RELATIVE INTENSITY
##XFACTOR=1
##YFACTOR=1
##FIRSTX=26
##LASTX=220
##FIRSTY=10
##MAXX=220
##MINX=26
##MAXY=9999
##MINY=10
##NPOINTS=94
##PEAK TABLE=(XY..XY)
26,10 27,90 36,30 37,10
38,40 39,90 44,10 49,20
50,729 51,1639 52,99 53,40
61,50 62,70 63,129 64,10
65,10 73,60 74,369 75,1569
76,859 77,4359 78,299 79,10
81,20 82,10 84,30 85,149
86,50 87,80 88,10 89,20
90,20 91,10 93,20 94,389
95,119 97,10 98,40 99,40
100,10 101,30 102,20 104,99
105,9999 106,779 107,50 108,10
109,10 110,90 111,2829 112,219
113,939 114,70 115,10 122,10
123,10 125,30 126,60 127,40
136,10 137,10 138,20 139,7699
140,599 141,2479 142,189 143,10
149,20 150,99 151,189 152,489
153,209 154,20 162,10 163,20
164,10 165,10 180,20 181,1329
182,189 183,10 186,20 188,119
189,20 190,40 199,10 214,10
215,99 216,5049 217,749 218,1689
219,239 220,20
##END=
