##TITLE=Diethyltoluamide
##JCAMP-DX=4.24
##DATA TYPE=MASS SPECTRUM
##ORIGIN=Japan AIST/NIMC Database- Spectrum MS-NW-3834
##OWNER=NIST Mass Spectrometry Data Center
Collection (C) 2014 copyright by the U.S. Secretary of Commerce
on behalf of the United States of America. All rights reserved.
##CAS REGISTRY NO=134-62-3
##$NIST MASS SPEC NO=232629
##MOLFORM=C12 H17 N O
##MW=191
##$NIST SOURCE=MSDC
##XUNITS=M/Z
##YUNITS=RELATIVE INTENSITY
##XFACTOR=1
##YFACTOR=1
##FIRSTX=14
##LASTX=193
##FIRSTY=10
##MAXX=193
##MINX=14
##MAXY=9999
##MINY=10
##NPOINTS=75
##PEAK TABLE=(XY..XY)
14,10 15,60 26,30 27,219
28,90 29,309 30,30 38,30
39,359 40,30 41,139 42,219
43,20 44,139 45,10 50,60
51,159 52,30 53,20 54,10
55,10 56,149 57,20 58,10
61,10 62,50 63,209 64,70
65,999 66,50 70,70 71,20
72,109 74,20 75,20 76,20
77,90 78,10 79,10 81,20
86,10 87,10 88,20 89,249
90,219 91,3089 92,269 93,20
100,20 103,10 104,10 105,169
106,20 116,10 117,20 118,80
119,9999 120,899 121,60 132,10
134,10 135,10 146,10 148,179
149,20 160,10 162,399 163,70
176,279 177,50 189,40 190,2929
191,1969 192,259 193,20
##END=
