##TITLE=Benzoic acid, 2-ethoxy-
##JCAMP-DX=4.24
##DATA TYPE=MASS SPECTRUM
##ORIGIN=Japan AIST/NIMC Database- Spectrum MS-NW-3420
##OWNER=NIST Mass Spectrometry Data Center
Collection (C) 2014 copyright by the U.S. Secretary of Commerce
on behalf of the United States of America. All rights reserved.
##CAS REGISTRY NO=134-11-2
##$NIST MASS SPEC NO=231989
##MOLFORM=C9 H10 O3
##MW=166
##$NIST SOURCE=MSDC
##XUNITS=M/Z
##YUNITS=RELATIVE INTENSITY
##XFACTOR=1
##YFACTOR=1
##FIRSTX=12
##LASTX=168
##FIRSTY=10
##MAXX=168
##MINX=12
##MAXY=9999
##MINY=10
##NPOINTS=96
##PEAK TABLE=(XY..XY)
12,10 14,20 15,60 16,10
18,20 25,40 26,259 27,909
28,159 29,799 30,20 31,40
32,10 36,10 37,169 38,399
39,1229 40,119 41,40 42,30
43,90 44,229 45,129 46,10
47,10 49,40 50,419 51,389
52,80 53,309 54,30 55,129
60,20 61,129 62,269 63,1029
64,1229 65,1509 66,289 67,30
68,20 69,20 71,10 73,30
74,169 75,119 76,239 77,429
78,80 79,70 80,10 81,319
82,30 89,10 90,20 91,139
92,6149 93,789 94,649 95,60
102,10 103,30 104,60 105,429
106,50 107,119 108,10 109,90
110,30 117,10 119,40 120,9999
121,2139 122,309 123,289 124,20
128,10 131,30 133,889 134,90
135,20 137,60 138,659 139,60
140,10 147,80 148,209 149,179
150,30 151,849 152,80 153,10
165,20 166,1999 167,209 168,30
##END=
