##TITLE=Benzene, 1-chloro-4-(chlorophenylmethyl)-
##JCAMP-DX=4.24
##DATA TYPE=MASS SPECTRUM
##ORIGIN=Japan AIST/NIMC Database- Spectrum MS-NW-8544
##OWNER=NIST Mass Spectrometry Data Center
Collection (C) 2014 copyright by the U.S. Secretary of Commerce
on behalf of the United States of America. All rights reserved.
##CAS REGISTRY NO=134-83-8
##$NIST MASS SPEC NO=238834
##MOLFORM=C13 H10 Cl2
##MW=236
##$NIST SOURCE=MSDC
##XUNITS=M/Z
##YUNITS=RELATIVE INTENSITY
##XFACTOR=1
##YFACTOR=1
##FIRSTX=14
##LASTX=240
##FIRSTY=10
##MAXX=240
##MINX=14
##MAXY=9999
##MINY=10
##NPOINTS=130
##PEAK TABLE=(XY..XY)
14,10 26,20 27,90 28,60
29,10 35,60 36,499 37,40
38,199 39,579 40,40 41,40
43,20 44,20 49,30 50,409
51,619 52,99 53,40 55,50
56,40 57,20 60,10 61,80
62,349 63,869 64,109 65,239
66,20 67,20 68,40 69,669
70,149 72,10 73,179 74,299
75,489 76,209 77,359 78,80
79,10 80,80 81,749 82,2049
83,1249 84,20 85,70 86,199
87,309 88,139 89,539 90,90
91,119 92,10 93,20 94,20
97,50 98,90 99,209 100,209
101,189 102,90 103,10 105,349
106,30 109,20 110,60 111,179
112,40 113,289 114,159 115,439
116,40 118,10 120,40 121,10
122,20 123,80 124,20 125,189
126,149 127,129 128,50 133,10
134,10 135,10 136,40 137,119
138,139 139,829 140,109 141,90
142,10 149,90 150,50 151,119
152,269 153,40 159,40 160,20
161,60 162,149 163,1049 164,1189
165,9999 166,7399 167,1999 168,219
169,10 173,40 175,30 178,10
181,50 182,10 186,40 188,20
197,10 198,10 199,389 200,109
201,9769 202,1769 203,3189 204,559
205,40 236,109 237,20 238,70
239,10 240,10
##END=
