##TITLE=5-Azulenemethanol, 1,2,3,4,5,6,7,8-octahydro-.alpha.,.alpha.,3,8-tetramethyl-, acetate, [3S-(3.alpha.,5.alpha.,8.alpha.)]-
##JCAMP-DX=4.24
##DATA TYPE=MASS SPECTRUM
##ORIGIN=NIST Mass Spectrometry Data Center
##OWNER=NIST Mass Spectrometry Data Center
Collection (C) 2014 copyright by the U.S. Secretary of Commerce
on behalf of the United States of America. All rights reserved.
##CAS REGISTRY NO=134-28-1
##$NIST MASS SPEC NO=412639
##MOLFORM=C17 H28 O2
##MW=264
##$NIST SOURCE=MSDC
##XUNITS=M/Z
##YUNITS=RELATIVE INTENSITY
##XFACTOR=1
##YFACTOR=1
##FIRSTX=39
##LASTX=264
##FIRSTY=70
##MAXX=264
##MINX=39
##MAXY=9999
##MINY=10
##NPOINTS=104
##PEAK TABLE=(XY..XY)
39,70 40,20 41,510 42,60
43,1361 44,30 45,40 51,60
52,30 53,260 54,30 55,721
56,40 57,120 58,20 59,400
60,40 61,50 63,40 64,20
65,280 66,70 67,591 68,70
69,581 70,40 71,80 72,10
77,801 78,200 79,1241 80,140
81,1111 82,140 89,20 91,2182
92,300 93,1431 94,230 95,781
96,70 101,50 102,20 103,170
104,80 105,4124 106,621 107,1651
108,310 109,390 110,40 115,210
116,80 117,340 118,80 119,2502
120,420 121,721 122,260 123,190
127,40 128,100 129,110 130,70
131,330 132,80 133,1702 134,330
135,380 136,100 139,30 141,20
142,20 143,30 144,20 145,250
146,80 147,1361 148,490 149,591
150,100 159,150 160,90 161,9999
162,1511 163,410 164,40 173,40
174,20 175,200 176,250 187,20
188,20 189,2062 190,310 191,40
203,30 204,3163 205,641 206,70
207,40 208,10 249,10 264,10
##END=
