##TITLE=8-Azaguanine
##JCAMP-DX=4.24
##DATA TYPE=MASS SPECTRUM
##ORIGIN=Japan AIST/NIMC Database- Spectrum MS-NW-2023
##OWNER=NIST Mass Spectrometry Data Center
Collection (C) 2014 copyright by the U.S. Secretary of Commerce
on behalf of the United States of America. All rights reserved.
##CAS REGISTRY NO=134-58-7
##$NIST MASS SPEC NO=234003
##MOLFORM=C4 H4 N6 O
##MW=152
##$NIST SOURCE=MSDC
##XUNITS=M/Z
##YUNITS=RELATIVE INTENSITY
##XFACTOR=1
##YFACTOR=1
##FIRSTX=12
##LASTX=154
##FIRSTY=129
##MAXX=154
##MINX=12
##MAXY=9999
##MINY=10
##NPOINTS=85
##PEAK TABLE=(XY..XY)
12,129 13,189 14,179 15,50
16,199 17,10 18,30 24,70
25,50 26,289 27,2399 28,5839
29,519 30,40 31,10 32,30
34,10 36,60 38,339 39,369
40,279 41,589 42,2579 43,9989
44,749 45,149 50,20 51,20
52,279 53,2519 54,1909 55,259
56,439 57,99 59,40 60,10
63,20 64,20 65,40 66,189
67,369 68,1179 69,2999 70,409
71,389 72,20 76,20 78,50
79,309 80,50 81,129 82,669
83,60 84,99 85,179 86,189
93,10 94,30 95,20 96,419
97,1279 98,769 99,139 106,20
107,309 108,30 109,80 110,239
111,1939 112,99 122,70 123,309
124,809 125,2719 126,169 127,10
135,80 136,209 137,20 149,10
150,10 151,30 152,9999 153,679
154,40
##END=
