##TITLE=1-Naphthalenamine
##JCAMP-DX=4.24
##DATA TYPE=MASS SPECTRUM
##ORIGIN=Japan AIST/NIMC Database- Spectrum MS-NW-8709
##OWNER=NIST Mass Spectrometry Data Center
Collection (C) 2014 copyright by the U.S. Secretary of Commerce
on behalf of the United States of America. All rights reserved.
##CAS REGISTRY NO=134-32-7
##$NIST MASS SPEC NO=228184
##MOLFORM=C10 H9 N
##MW=143
##$NIST SOURCE=MSDC
##XUNITS=M/Z
##YUNITS=RELATIVE INTENSITY
##XFACTOR=1
##YFACTOR=1
##FIRSTX=27
##LASTX=145
##FIRSTY=30
##MAXX=145
##MINX=27
##MAXY=9999
##MINY=10
##NPOINTS=70
##PEAK TABLE=(XY..XY)
27,30 28,70 37,20 38,60
39,209 40,20 41,40 42,10
44,20 45,20 49,10 50,109
51,159 52,90 53,20 54,10
55,10 56,10 57,219 58,409
59,40 61,40 62,139 63,319
64,80 65,169 66,20 69,10
70,479 71,779 72,90 73,10
74,109 75,119 76,109 77,139
78,50 85,20 86,60 87,90
88,109 89,379 90,109 91,90
92,10 93,10 98,20 99,20
100,20 101,40 102,50 103,50
104,40 110,10 111,10 113,159
114,239 115,3099 116,1789 117,319
118,20 126,129 127,50 128,60
140,199 141,99 142,529 143,9999
144,1129 145,60
##END=
