##TITLE=5-Chloro-2-iodobenzoic acid
##JCAMP-DX=4.24
##DATA TYPE=MASS SPECTRUM
##ORIGIN=NIST Mass Spectrometry Data Center, 1994
##OWNER=NIST Mass Spectrometry Data Center
Collection (C) 2014 copyright by the U.S. Secretary of Commerce
on behalf of the United States of America. All rights reserved.
##CAS REGISTRY NO=13421-00-6
##$NIST MASS SPEC NO=134975
##MOLFORM=C7 H4 Cl I O2
##MW=282
##$NIST SOURCE=MSDC
##XUNITS=M/Z
##YUNITS=RELATIVE INTENSITY
##XFACTOR=1
##YFACTOR=1
##FIRSTX=14
##LASTX=285
##FIRSTY=54
##MAXX=285
##MINX=14
##MAXY=9999
##MINY=8
##NPOINTS=100
##PEAK TABLE=(XY..XY)
14,54 17,30 18,107 25,61
26,105 27,114 28,102 29,155
32,33 35,118 36,214 37,983
38,695 39,431 40,51 45,1012
47,98 48,87 49,779 50,2574
51,492 52,51 53,513 55,59
60,234 61,468 62,489 63,1456
64,433 65,113 66,88 73,2689
74,4732 75,5515 76,632 77,264
78,73 79,70 84,609 85,260
86,238 87,161 89,191 90,155
91,225 92,264 97,45 99,2544
100,243 101,899 102,61 107,70
108,138 110,2487 111,697 112,716
113,172 118,138 119,132 125,66
127,2230 128,270 129,259 132,252
133,102 135,187 136,43 137,40
138,78 139,56 140,54 141,115
142,67 152,53 155,456 156,61
157,180 169,46 171,90 176,92
181,40 191,60 197,113 199,95
201,73 214,133 215,8 216,143
217,28 237,1521 238,153 239,528
265,6634 266,577 267,2101 268,157
282,9999 283,855 284,3478 285,241
##END=
