##TITLE=3-Hexanol, 2,4-dimethyl-
##JCAMP-DX=4.24
##DATA TYPE=MASS SPECTRUM
##ORIGIN=CONTINENTAL OIL CO., PONCA CITY, OKLA, USA
##OWNER=NIST Mass Spectrometry Data Center
Collection (C) 2014 copyright by the U.S. Secretary of Commerce
on behalf of the United States of America. All rights reserved.
##CAS REGISTRY NO=13432-25-2
##$NIST MASS SPEC NO=35071
##MOLFORM=C8 H18 O
##MW=130
##$NIST SOURCE=MSDC
##XUNITS=M/Z
##YUNITS=RELATIVE INTENSITY
##XFACTOR=1
##YFACTOR=1
##FIRSTX=13
##LASTX=130
##FIRSTY=25
##MAXX=130
##MINX=13
##MAXY=9999
##MINY=9
##NPOINTS=81
##PEAK TABLE=(XY..XY)
13,25 14,95 15,365 16,11
17,48 18,150 19,24 24,18
25,14 26,277 27,3709 28,975
29,3826 30,240 31,1507 32,38
33,14 37,50 38,131 39,1909
40,313 41,4302 42,465 43,4390
44,285 45,8414 46,196 47,31
50,60 51,118 52,48 53,339
54,107 55,3658 56,780 57,2626
58,517 59,398 60,19 62,13
63,23 64,9 65,46 66,24
67,112 68,84 69,2772 70,284
71,639 72,948 73,9999 74,459
75,44 77,28 78,13 79,24
81,31 82,18 83,145 84,37
85,169 86,554 87,4455 88,254
89,20 95,15 97,72 98,15
99,20 100,18 101,23 104,15
105,48 106,13 111,14 112,19
113,14 115,21 128,37 129,23
130,11
##END=
