##TITLE=Pentane, 1-(1-ethoxyethoxy)-
##JCAMP-DX=4.24
##DATA TYPE=MASS SPECTRUM
##ORIGIN=J.Little, Eastman Chem. Comp.,Kingsport
##OWNER=NIST Mass Spectrometry Data Center
Collection (C) 2014 copyright by the U.S. Secretary of Commerce
on behalf of the United States of America. All rights reserved.
##CAS REGISTRY NO=13442-89-2
##$NIST MASS SPEC NO=279765
##MOLFORM=C9 H20 O2
##MW=160
##$NIST SOURCE=MSDC
##XUNITS=M/Z
##YUNITS=RELATIVE INTENSITY
##XFACTOR=1
##YFACTOR=1
##FIRSTX=14
##LASTX=145
##FIRSTY=80
##MAXX=145
##MINX=14
##MAXY=9999
##MINY=40
##NPOINTS=29
##PEAK TABLE=(XY..XY)
14,80 15,150 16,150 26,100
27,1171 29,2072 31,561 41,1391
42,851 43,4634 44,550 45,7477
47,691 55,721 56,70 59,80
61,150 69,140 70,290 71,2913
73,9999 74,370 75,2002 89,50
99,80 103,40 115,1231 116,50
145,1321
##END=
