##TITLE=n-Pentyl methylphosphonofluoridate
##JCAMP-DX=4.24
##DATA TYPE=MASS SPECTRUM
##ORIGIN=VERIFIN - Methodology B1-1979
##OWNER=NIST Mass Spectrometry Data Center
Collection (C) 2014 copyright by the U.S. Secretary of Commerce
on behalf of the United States of America. All rights reserved.
##CAS REGISTRY NO=13454-59-6
##$NIST MASS SPEC NO=226125
##MOLFORM=C6 H14 F O2 P
##MW=168
##$NIST SOURCE=MSDC
##XUNITS=M/Z
##YUNITS=RELATIVE INTENSITY
##XFACTOR=1
##YFACTOR=1
##FIRSTX=26
##LASTX=167
##FIRSTY=60
##MAXX=167
##MINX=26
##MAXY=9999
##MINY=60
##NPOINTS=31
##PEAK TABLE=(XY..XY)
26,60 27,400 28,100 29,300
36,100 39,300 40,80 41,800
42,1000 43,400 47,200 53,100
55,1000 56,70 57,70 67,90
69,60 70,500 71,60 79,100
81,700 82,400 83,60 98,80
99,9999 100,100 111,200 112,100
125,200 139,100 167,80
##END=
