##TITLE=Nickel tetracarbonyl
##JCAMP-DX=4.24
##DATA TYPE=MASS SPECTRUM
##ORIGIN=GRC 0029
##OWNER=NIST Mass Spectrometry Data Center
Collection (C) 2014 copyright by the U.S. Secretary of Commerce
on behalf of the United States of America. All rights reserved.
##CAS REGISTRY NO=13463-39-3
##$NIST MASS SPEC NO=6717
##MOLFORM=C4 Ni O4
##MW=170
##$NIST SOURCE=MSDC
##XUNITS=M/Z
##YUNITS=RELATIVE INTENSITY
##XFACTOR=1
##YFACTOR=1
##FIRSTX=12
##LASTX=170
##FIRSTY=70
##MAXX=170
##MINX=12
##MAXY=9999
##MINY=10
##NPOINTS=27
##PEAK TABLE=(XY..XY)
12,70 14,40 15,10 16,20
17,10 18,20 26,10 27,10
28,9999 29,120 30,20 32,10
40,30 43,10 44,150 57,10
58,80 60,30 62,10 70,10
86,40 88,20 114,10 116,10
142,10 144,10 170,10
##END=
