##TITLE=Iron pentacarbonyl
##JCAMP-DX=4.24
##DATA TYPE=MASS SPECTRUM
##ORIGIN=B.R.CONARD, J. ROY GORDON RES. LAB., MISSISSAUGA, ONT., CANAta
##OWNER=NIST Mass Spectrometry Data Center
Collection (C) 2014 copyright by the U.S. Secretary of Commerce
on behalf of the United States of America. All rights reserved.
##CAS REGISTRY NO=13463-40-6
##$NIST MASS SPEC NO=72420
##MOLFORM=C5 Fe O5
##MW=196
##$NIST SOURCE=MSDC
##XUNITS=M/Z
##YUNITS=RELATIVE INTENSITY
##XFACTOR=1
##YFACTOR=1
##FIRSTX=40
##LASTX=197
##FIRSTY=403
##MAXX=197
##MINX=40
##MAXY=9999
##MINY=1
##NPOINTS=37
##PEAK TABLE=(XY..XY)
40,403 41,32 42,247 54,334
56,4997 57,140 66,43 68,704
69,39 70,224 71,4 72,124
73,3 78,4 80,15 81,2
82,528 84,9999 85,342 94,5
96,79 97,4 110,158 112,2497
113,115 122,1 124,8 125,1
138,70 140,1186 141,61 166,92
168,1536 169,101 194,33 196,532
197,11
##END=
