##TITLE=3-Carene
##JCAMP-DX=4.24
##DATA TYPE=MASS SPECTRUM
##ORIGIN=RESEARCH LABORATORY, STATE ALCOHOL MONOPOLY ALKO, HELSINKI, FINLAND; IRMA NYKANEN ET AL
##OWNER=NIST Mass Spectrometry Data Center
Collection (C) 2014 copyright by the U.S. Secretary of Commerce
on behalf of the United States of America. All rights reserved.
##CAS REGISTRY NO=13466-78-9
##$NIST MASS SPEC NO=77623
##MOLFORM=C10 H16
##MW=136
##$NIST SOURCE=MSDC
##XUNITS=M/Z
##YUNITS=RELATIVE INTENSITY
##XFACTOR=1
##YFACTOR=1
##FIRSTX=27
##LASTX=137
##FIRSTY=137
##MAXX=137
##MINX=27
##MAXY=9999
##MINY=34
##NPOINTS=47
##PEAK TABLE=(XY..XY)
27,137 29,103 39,586 40,68
41,793 43,689 44,310 50,103
51,413 52,172 53,551 54,103
55,413 56,137 63,172 65,689
66,103 67,724 68,206 69,103
77,3172 78,620 79,3206 80,2137
81,448 91,5000 92,3034 93,9999
94,1517 95,172 103,275 104,68
105,1517 106,379 107,931 108,206
109,34 115,103 116,34 117,137
119,517 120,137 121,2413 122,275
134,68 136,1517 137,206
##END=
