##TITLE=trans-.alpha.-Bergamotene
##JCAMP-DX=4.24
##DATA TYPE=MASS SPECTRUM
##ORIGIN=NIST Mass Spectrometry Data Center
##OWNER=NIST Mass Spectrometry Data Center
Collection (C) 2014 copyright by the U.S. Secretary of Commerce
on behalf of the United States of America. All rights reserved.
##CAS REGISTRY NO=13474-59-4
##$NIST MASS SPEC NO=412425
##MOLFORM=C15 H24
##MW=204
##$NIST SOURCE=MSDC
##XUNITS=M/Z
##YUNITS=RELATIVE INTENSITY
##XFACTOR=1
##YFACTOR=1
##FIRSTX=26
##LASTX=205
##FIRSTY=10
##MAXX=205
##MINX=26
##MAXY=9999
##MINY=10
##NPOINTS=97
##PEAK TABLE=(XY..XY)
26,10 27,250 28,20 29,280
30,10 38,20 39,911 40,170
41,3483 42,190 43,701 44,20
50,60 51,300 52,140 53,981
54,110 55,2192 56,891 57,350
62,10 63,100 64,30 65,621
66,170 67,871 68,210 69,4044
70,520 71,50 74,10 76,20
77,2402 78,450 79,2542 80,681
81,851 82,280 83,170 84,120
85,10 89,40 90,20 91,3473
92,1411 93,9408 94,1191 95,520
96,60 97,120 98,10 102,30
103,210 104,90 105,2412 106,440
107,3103 108,410 109,761 110,90
111,70 112,30 115,180 116,60
117,230 118,140 119,9999 120,1551
121,981 122,250 123,190 124,30
127,20 128,60 129,50 131,60
132,30 133,561 134,310 135,440
136,210 137,30 141,10 143,10
147,270 148,180 149,140 150,20
159,10 160,10 163,50 175,40
176,20 189,270 190,40 204,210
205,30
##END=
