##TITLE=Heptane, 5-ethyl-2-methyl-
##JCAMP-DX=4.24
##DATA TYPE=MASS SPECTRUM
##OWNER=NIST Mass Spectrometry Data Center
Collection (C) 2014 copyright by the U.S. Secretary of Commerce
on behalf of the United States of America. All rights reserved.
##CAS REGISTRY NO=13475-78-0
##$NIST MASS SPEC NO=3830
##MOLFORM=C10 H22
##MW=142
##$NIST SOURCE=MSDC
##XUNITS=M/Z
##YUNITS=RELATIVE INTENSITY
##XFACTOR=1
##YFACTOR=1
##FIRSTX=25
##LASTX=127
##FIRSTY=10
##MAXX=127
##MINX=25
##MAXY=9999
##MINY=10
##NPOINTS=54
##PEAK TABLE=(XY..XY)
25,10 26,100 27,2652 28,340
29,3213 30,50 37,20 38,40
39,1271 40,210 41,3984 42,1081
43,9999 44,330 45,70 50,30
51,80 52,40 53,290 54,100
55,1682 56,1161 57,9759 58,430
59,10 63,20 64,10 65,20
66,30 67,80 68,60 69,571
70,2052 71,8017 72,430 73,10
77,30 78,10 79,20 81,10
82,10 83,60 84,280 85,410
86,30 97,80 98,120 99,30
105,10 112,1491 113,1722 114,140
115,10 127,10
##END=
