##TITLE=Docosane, 11-butyl-
##JCAMP-DX=4.24
##DATA TYPE=MASS SPECTRUM
##OWNER=NIST Mass Spectrometry Data Center
Collection (C) 2014 copyright by the U.S. Secretary of Commerce
on behalf of the United States of America. All rights reserved.
##CAS REGISTRY NO=13475-76-8
##$NIST MASS SPEC NO=23537
##MOLFORM=C26 H54
##MW=366
##$NIST SOURCE=MSDC
##XUNITS=M/Z
##YUNITS=RELATIVE INTENSITY
##XFACTOR=1
##YFACTOR=1
##FIRSTX=36
##LASTX=367
##FIRSTY=10
##MAXX=367
##MINX=36
##MAXY=9999
##MINY=10
##NPOINTS=198
##PEAK TABLE=(XY..XY)
36,10 37,10 38,20 39,400
40,90 41,3843 42,911 43,8878
44,300 45,10 46,10 48,10
49,10 50,10 51,20 52,10
53,150 54,290 55,3073 56,1401
57,9999 58,450 59,10 60,10
61,10 62,10 63,10 64,10
65,30 66,30 67,310 68,230
69,1621 70,841 71,6296 72,350
73,10 74,10 75,10 76,10
77,30 78,10 79,50 80,20
81,150 82,230 83,1091 84,440
85,4234 86,280 87,10 89,10
90,60 91,20 92,10 93,40
94,20 95,60 96,150 97,801
98,270 99,1381 100,110 101,10
102,10 103,10 104,10 105,10
106,10 107,10 108,10 109,20
110,90 111,430 112,190 113,911
114,80 115,10 116,10 117,10
118,10 119,10 120,10 121,10
122,10 123,10 124,60 125,240
126,130 127,671 128,70 129,10
130,10 131,10 132,10 133,10
134,10 135,10 136,10 137,10
138,40 139,120 140,100 141,510
142,60 143,10 144,10 145,10
146,10 147,10 148,10 149,10
150,10 151,10 152,30 153,80
154,70 155,370 156,50 157,10
158,10 159,10 165,10 166,20
167,60 168,50 169,240 170,30
171,10 172,10 179,10 180,10
181,30 182,60 183,140 184,20
185,10 186,10 193,10 194,10
195,20 196,50 197,90 198,10
199,10 200,10 201,10 202,10
207,10 208,10 209,10 210,380
211,340 212,50 213,10 222,10
223,10 224,320 225,310 226,50
227,10 236,10 237,10 238,20
239,50 240,10 241,10 250,10
251,10 252,10 253,30 254,10
264,10 265,10 266,10 267,20
268,10 279,10 280,10 281,10
282,10 294,10 295,10 296,10
308,250 309,480 310,110 311,10
312,10 322,10 323,10 324,10
336,10 337,10 338,10 365,10
366,10 367,10
##END=
