##TITLE=Cyclohexene, 4-propyl-
##JCAMP-DX=4.24
##DATA TYPE=MASS SPECTRUM
##ORIGIN=S.A. Rang et al., IR & MS of Unsatd. Hydrocarbons, 1977
##OWNER=NIST Mass Spectrometry Data Center
Collection (C) 2014 copyright by the U.S. Secretary of Commerce
on behalf of the United States of America. All rights reserved.
##CAS REGISTRY NO=13487-64-4
##$NIST MASS SPEC NO=142691
##MOLFORM=C9 H16
##MW=124
##$NIST SOURCE=MSDC
##XUNITS=M/Z
##YUNITS=RELATIVE INTENSITY
##XFACTOR=1
##YFACTOR=1
##FIRSTX=15
##LASTX=126
##FIRSTY=11
##MAXX=126
##MINX=15
##MAXY=9999
##MINY=3
##NPOINTS=74
##PEAK TABLE=(XY..XY)
15,11 24,3 25,10 26,96
27,1600 28,127 29,857 30,27
31,5 37,22 38,57 39,2400
40,349 41,3911 42,952 43,231
45,5 46,5 49,13 50,135
51,476 52,318 53,1689 54,8611
55,3289 56,212 57,106 58,9
61,5 62,15 63,83 64,21
65,476 66,476 67,4711 68,1867
69,603 70,212 71,14 73,9
74,21 75,29 76,34 77,1079
78,603 79,2133 80,794 81,9999
82,7500 83,857 84,30 89,14
90,6 91,250 92,36 93,183
94,318 95,2489 96,1016 97,83
98,4 105,15 106,3 107,18
108,14 109,381 110,39 120,4
121,3 122,11 123,44 124,2222
125,212 126,9
##END=
