##TITLE=Phosphorin, 2,4,6-triphenyl-
##JCAMP-DX=4.24
##DATA TYPE=MASS SPECTRUM
##ORIGIN=D.HENNEBERG, MAX-PLANCK INSTITUTE, MULHEIM, WEST GERMANY
##OWNER=NIST Mass Spectrometry Data Center
Collection (C) 2014 copyright by the U.S. Secretary of Commerce
on behalf of the United States of America. All rights reserved.
##CAS REGISTRY NO=13497-36-4
##$NIST MASS SPEC NO=61964
##MOLFORM=C23 H17 P
##MW=324
##$NIST SOURCE=MSDC
##XUNITS=M/Z
##YUNITS=RELATIVE INTENSITY
##XFACTOR=1
##YFACTOR=1
##FIRSTX=26
##LASTX=327
##FIRSTY=25
##MAXX=327
##MINX=26
##MAXY=9999
##MINY=7
##NPOINTS=238
##PEAK TABLE=(XY..XY)
26,25 28,132 31,183 32,28
39,251 40,287 41,16 44,27
45,24 46,13 50,88 51,340
52,125 56,22 57,60 62,50
63,221 64,23 65,97 66,13
68,33 69,62 70,20 74,88
75,111 76,254 77,339 78,162
79,22 80,33 81,68 82,14
83,18 86,26 87,87 88,63
89,188 90,17 91,301 92,87
93,44 94,75 95,22 97,23
98,29 99,16 100,38 101,93
102,450 103,122 104,30 105,36
106,20 107,201 108,53 109,44
110,73 111,29 112,34 113,104
114,31 115,216 116,29 117,16
119,18 120,521 121,68 122,125
123,270 124,28 125,40 126,154
127,33 128,26 129,20 130,14
131,65 132,49 133,221 134,69
135,68 137,48 138,206 139,153
141,46 142,21 143,16 144,121
145,207 146,260 147,221 148,47
149,37 150,74 151,65 152,162
154,148 155,24 156,11 157,28
159,131 160,266 161,106 162,415
164,52 165,304 166,45 167,29
168,44 169,53 170,71 171,13
174,23 175,41 176,160 177,76
178,483 179,73 180,7 181,22
183,82 185,8 186,30 187,98
188,79 189,477 190,119 191,1537
192,253 193,27 194,47 195,17
196,68 197,15 199,9 200,85
201,63 202,432 203,189 204,868
205,164 206,27 207,130 208,29
209,134 210,31 211,16 213,160
214,56 215,1068 216,289 217,52
218,89 219,50 220,671 221,540
222,335 223,42 225,17 226,60
227,9 230,9 231,65 232,22
233,1107 234,221 237,27 238,15
239,84 240,36 241,23 242,49
243,83 244,751 245,524 246,1479
247,882 248,135 249,11 250,43
251,10 252,63 253,15 255,12
257,64 258,17 259,12 261,35
262,37 263,75 264,33 265,89
266,32 267,10 268,23 270,41
271,18 272,9 274,22 275,21
276,166 277,98 278,126 279,106
280,151 281,96 283,41 284,11
287,43 288,25 289,526 290,256
291,799 292,616 293,135 294,148
295,79 296,76 297,33 303,8
305,35 306,37 307,358 308,164
309,514 310,111 311,21 317,15
318,119 319,114 320,310 321,358
322,235 323,872 324,9999 325,2480
326,289 327,21
##END=
