##TITLE=Piminodine
##JCAMP-DX=4.24
##DATA TYPE=MASS SPECTRUM
##ORIGIN=Patti Price, Georgia Bureau of Investigation, Decatur, Georgia
##OWNER=NIST Mass Spectrometry Data Center
Collection (C) 2014 copyright by the U.S. Secretary of Commerce
on behalf of the United States of America. All rights reserved.
##CAS REGISTRY NO=13495-09-5
##$NIST MASS SPEC NO=248498
##MOLFORM=C23 H30 N2 O2
##MW=366
##$NIST SOURCE=MSDC
##XUNITS=M/Z
##YUNITS=RELATIVE INTENSITY
##XFACTOR=1
##YFACTOR=1
##FIRSTX=42
##LASTX=368
##FIRSTY=1060
##MAXX=368
##MINX=42
##MAXY=9999
##MINY=10
##NPOINTS=138
##PEAK TABLE=(XY..XY)
42,1060 43,360 51,240 52,50
53,120 54,90 55,130 56,630
57,600 58,80 59,140 63,50
65,260 66,90 67,20 68,200
69,130 70,630 71,750 72,80
74,10 76,80 77,1151 78,270
79,450 80,80 82,550 83,300
84,110 86,30 89,30 90,20
91,1231 92,270 93,200 94,110
95,100 96,230 97,740 98,70
99,30 101,20 102,60 103,1050
104,620 105,330 106,2302 107,370
108,40 111,70 115,690 116,400
117,390 118,440 119,250 120,460
121,60 122,20 123,10 127,120
128,320 129,460 130,370 131,650
132,1961 133,1331 134,250 135,20
140,60 143,210 144,150 145,150
146,370 155,80 156,220 157,60
158,1191 159,170 160,390 161,140
162,70 163,20 166,20 168,70
169,80 170,130 171,130 172,830
173,280 174,770 175,490 176,50
177,40 181,20 182,40 183,10
184,110 186,130 187,180 188,110
190,200 191,40 198,110 200,460
201,70 202,140 204,60 212,10
213,10 216,40 217,40 218,810
219,120 220,20 232,1020 233,450
234,1641 235,200 236,50 244,1511
245,290 246,9999 247,1651 248,180
249,20 258,490 259,120 260,1441
261,290 262,50 272,390 273,500
293,150 294,30 364,10 366,2121
367,510 368,80
##END=
