##TITLE=Furfuryl formate
##JCAMP-DX=4.24
##DATA TYPE=MASS SPECTRUM
##ORIGIN=MASS SPECTRA OF ORGANIC COMPOUNDS, CSIRO, B.H. KENNETT ET AL
##OWNER=NIST Mass Spectrometry Data Center
Collection (C) 2014 copyright by the U.S. Secretary of Commerce
on behalf of the United States of America. All rights reserved.
##CAS REGISTRY NO=13493-97-5
##$NIST MASS SPEC NO=69800
##MOLFORM=C6 H6 O3
##MW=126
##$NIST SOURCE=MSDC
##XUNITS=M/Z
##YUNITS=RELATIVE INTENSITY
##XFACTOR=1
##YFACTOR=1
##FIRSTX=26
##LASTX=127
##FIRSTY=900
##MAXX=127
##MINX=26
##MAXY=9999
##MINY=100
##NPOINTS=34
##PEAK TABLE=(XY..XY)
26,900 27,4200 29,2500 30,100
31,800 37,600 38,1000 39,2600
40,200 41,1400 42,800 43,200
44,1700 45,100 46,100 49,100
50,1000 51,1400 52,3500 53,5500
54,500 56,300 68,100 69,400
70,300 79,200 80,3400 81,9999
82,1000 95,200 97,200 98,700
126,3600 127,500
##END=
