##TITLE=Pentacene
##JCAMP-DX=4.24
##DATA TYPE=MASS SPECTRUM
##ORIGIN=Japan AIST/NIMC Database- Spectrum MS-IW-3109
##OWNER=NIST Mass Spectrometry Data Center
Collection (C) 2014 copyright by the U.S. Secretary of Commerce
on behalf of the United States of America. All rights reserved.
##CAS REGISTRY NO=135-48-8
##$NIST MASS SPEC NO=234338
##MOLFORM=C22 H14
##MW=278
##$NIST SOURCE=MSDC
##XUNITS=M/Z
##YUNITS=RELATIVE INTENSITY
##XFACTOR=1
##YFACTOR=1
##FIRSTX=39
##LASTX=281
##FIRSTY=10
##MAXX=281
##MINX=39
##MAXY=9999
##MINY=10
##NPOINTS=91
##PEAK TABLE=(XY..XY)
39,10 51,10 57,10 63,20
74,20 75,20 83,20 84,30
86,10 87,20 88,20 91,20
92,90 93,20 98,10 99,30
100,60 101,40 105,10 106,10
109,10 111,40 112,179 113,229
114,30 117,10 118,30 119,10
122,10 123,30 124,189 125,439
126,349 127,10 130,20 131,40
132,40 133,10 135,10 136,90
137,439 138,929 139,2279 140,90
147,10 150,20 151,10 163,10
174,10 176,10 187,20 189,10
198,10 199,10 200,30 201,10
202,10 211,20 213,20 222,10
223,20 224,70 225,30 226,50
227,10 235,10 236,10 237,40
238,10 239,30 246,10 247,10
248,90 249,60 250,189 251,50
252,129 253,20 261,20 263,30
271,10 272,60 273,40 274,479
275,209 276,1489 277,539 278,9999
279,2489 280,449 281,60
##END=
