##TITLE=Methanone, phenyl-2-thienyl-
##JCAMP-DX=4.24
##DATA TYPE=MASS SPECTRUM
##OWNER=NIST Mass Spectrometry Data Center
Collection (C) 2014 copyright by the U.S. Secretary of Commerce
on behalf of the United States of America. All rights reserved.
##CAS REGISTRY NO=135-00-2
##$NIST MASS SPEC NO=8089
##MOLFORM=C11 H8 O S
##MW=188
##$NIST SOURCE=MSDC
##XUNITS=M/Z
##YUNITS=RELATIVE INTENSITY
##XFACTOR=1
##YFACTOR=1
##FIRSTX=38
##LASTX=190
##FIRSTY=300
##MAXX=190
##MINX=38
##MAXY=9999
##MINY=100
##NPOINTS=38
##PEAK TABLE=(XY..XY)
38,300 39,1051 40,200 44,220
45,250 50,250 51,1171 52,170
57,270 58,120 62,150 63,150
74,170 75,150 76,220 77,2392
78,250 80,520 81,100 83,671
84,220 105,3673 106,300 111,9999
112,971 113,701 114,170 115,320
160,951 161,150 162,150 171,1051
172,120 173,120 187,1121 188,9809
189,1121 190,450
##END=
