##TITLE=1,1':4',1'':4'',1'''-Quaterphenyl
##JCAMP-DX=4.24
##DATA TYPE=MASS SPECTRUM
##ORIGIN=W.BEYRICH, J.N.R.C., ISPRA, ITALY
##OWNER=NIST Mass Spectrometry Data Center
Collection (C) 2014 copyright by the U.S. Secretary of Commerce
on behalf of the United States of America. All rights reserved.
##CAS REGISTRY NO=135-70-6
##$NIST MASS SPEC NO=14548
##MOLFORM=C24 H18
##MW=306
##$NIST SOURCE=MSDC
##XUNITS=M/Z
##YUNITS=RELATIVE INTENSITY
##XFACTOR=1
##YFACTOR=1
##FIRSTX=39
##LASTX=309
##FIRSTY=20
##MAXX=309
##MINX=39
##MAXY=9999
##MINY=10
##NPOINTS=74
##PEAK TABLE=(XY..XY)
39,20 50,10 51,55 63,35
74,10 75,25 76,20 77,75
78,10 87,15 88,15 89,15
91,15 100,30 101,65 102,120
103,20 112,20 113,135 114,20
115,80 119,10 120,15 125,105
126,185 127,65 128,100 131,15
132,50 133,30 137,55 138,275
139,135 140,35 144,35 145,125
149,15 150,190 151,375 152,450
153,2620 154,105 163,20 165,65
176,55 177,15 178,60 187,15
189,90 190,15 191,50 200,40
201,35 202,85 203,75 204,30
213,25 215,60 224,30 225,40
226,310 227,180 228,320 229,125
230,30 301,70 302,270 303,235
304,240 305,120 306,9999 307,2620
308,320 309,15
##END=
