##TITLE=1,2,4-Trimethoxybenzene
##JCAMP-DX=4.24
##DATA TYPE=MASS SPECTRUM
##ORIGIN=NIST Mass Spectrometry Data Center, 1990.
##OWNER=NIST Mass Spectrometry Data Center
Collection (C) 2014 copyright by the U.S. Secretary of Commerce
on behalf of the United States of America. All rights reserved.
##CAS REGISTRY NO=135-77-3
##$NIST MASS SPEC NO=118292
##MOLFORM=C9 H12 O3
##MW=168
##$NIST SOURCE=MSDC
##XUNITS=M/Z
##YUNITS=RELATIVE INTENSITY
##XFACTOR=1
##YFACTOR=1
##FIRSTX=13
##LASTX=170
##FIRSTY=54
##MAXX=170
##MINX=13
##MAXY=9999
##MINY=31
##NPOINTS=81
##PEAK TABLE=(XY..XY)
13,54 14,35 15,1078 17,64
18,31 26,245 27,197 29,338
30,61 31,99 37,169 38,382
39,1333 40,103 41,910 42,96
43,278 44,36 45,147 49,116
50,720 51,2081 52,1965 53,1322
54,414 55,484 56,96 57,50
58,36 59,499 61,172 62,396
63,779 64,557 65,1399 66,419
67,558 68,50 69,2851 70,104
74,136 75,95 76,146 77,1093
78,252 79,1836 80,620 81,206
82,839 83,106 84,88 85,61
91,85 92,644 93,2030 94,505
95,1457 96,160 97,183 107,1245
108,699 109,639 110,3059 111,339
121,150 122,323 123,375 124,150
125,7729 126,656 127,82 137,249
138,60 139,40 151,130 153,9999
154,871 155,91 168,8997 169,888
170,123
##END=
