##TITLE=Ethanone, 1-[1,1'-biphenyl]-4-yl-2-bromo-
##JCAMP-DX=4.24
##DATA TYPE=MASS SPECTRUM
##ORIGIN=Japan AIST/NIMC Database- Spectrum MS-NW-5783
##OWNER=NIST Mass Spectrometry Data Center
Collection (C) 2014 copyright by the U.S. Secretary of Commerce
on behalf of the United States of America. All rights reserved.
##CAS REGISTRY NO=135-73-9
##$NIST MASS SPEC NO=232769
##MOLFORM=C14 H11 Br O
##MW=274
##$NIST SOURCE=MSDC
##XUNITS=M/Z
##YUNITS=RELATIVE INTENSITY
##XFACTOR=1
##YFACTOR=1
##FIRSTX=14
##LASTX=278
##FIRSTY=10
##MAXX=278
##MINX=14
##MAXY=9999
##MINY=10
##NPOINTS=147
##PEAK TABLE=(XY..XY)
14,10 15,50 16,10 18,10
26,20 27,50 28,20 29,20
36,10 37,10 38,40 39,169
40,20 41,30 42,70 43,229
44,20 50,229 51,269 52,70
53,20 55,20 57,50 58,60
61,30 62,119 63,309 64,50
65,70 66,10 69,50 70,60
71,10 73,20 74,189 75,249
76,729 77,259 78,50 79,30
80,60 81,30 82,90 83,80
84,30 85,20 86,70 87,109
88,50 89,109 90,359 91,99
92,10 93,40 94,10 95,30
96,10 97,10 98,90 99,70
100,40 101,99 102,209 103,40
104,10 105,30 110,20 111,30
112,10 113,60 114,30 115,189
116,30 118,10 119,10 120,20
121,20 122,20 123,10 124,10
125,50 126,279 127,359 128,119
129,20 130,10 136,10 137,20
138,10 139,90 140,20 141,40
142,10 143,10 144,80 145,20
149,20 150,199 151,729 152,2679
153,2109 154,639 155,90 156,10
162,10 163,50 164,50 165,449
166,119 167,819 168,129 169,10
170,10 172,10 175,10 176,20
177,20 178,50 179,30 180,30
181,9999 182,1459 183,129 184,10
186,50 191,10 194,20 195,10
196,579 197,179 198,40 200,20
208,10 209,10 210,10 230,80
231,10 232,30 233,10 234,10
245,20 247,10 274,949 275,169
276,969 277,159 278,20
##END=
