##TITLE=3-Hydroxy-2-naphthoyl-ortho-anisidide
##JCAMP-DX=4.24
##DATA TYPE=MASS SPECTRUM
##ORIGIN=NIST Mass Spectrometry Data Center, 1994
##OWNER=NIST Mass Spectrometry Data Center
Collection (C) 2014 copyright by the U.S. Secretary of Commerce
on behalf of the United States of America. All rights reserved.
##CAS REGISTRY NO=135-62-6
##$NIST MASS SPEC NO=134289
##MOLFORM=C18 H15 N O3
##MW=293
##$NIST SOURCE=MSDC
##XUNITS=M/Z
##YUNITS=RELATIVE INTENSITY
##XFACTOR=1
##YFACTOR=1
##FIRSTX=15
##LASTX=295
##FIRSTY=58
##MAXX=295
##MINX=15
##MAXY=9999
##MINY=9
##NPOINTS=129
##PEAK TABLE=(XY..XY)
15,58 17,15 26,23 27,78
29,28 30,12 37,10 38,54
39,263 41,94 42,23 43,16
44,17 50,97 51,291 52,444
53,179 54,29 55,14 57,22
61,22 62,129 63,402 64,162
65,650 66,78 67,46 69,11
71,56 74,73 75,103 76,62
77,191 78,128 79,120 80,414
81,41 82,12 86,56 87,122
88,282 89,554 90,55 91,43
92,213 93,69 94,151 95,64
98,13 99,19 101,25 102,33
103,14 104,15 105,19 106,33
108,1665 109,136 110,19 111,12
112,12 113,422 114,1311 115,4308
116,443 117,25 120,30 123,9999
124,823 125,74 126,49 127,28
128,25 129,13 134,11 135,24
139,20 140,71 142,1748 143,391
144,38 147,37 151,15 152,21
153,11 163,10 164,16 165,23
167,9 168,16 170,1560 171,3897
172,443 173,43 176,29 177,20
178,17 189,16 190,12 191,18
192,16 193,9 202,11 203,39
204,62 205,25 214,18 216,20
217,21 218,33 220,32 221,14
230,12 232,52 233,74 234,24
246,60 247,37 248,12 249,22
260,11 261,16 262,34 275,110
276,20 277,25 293,3824 294,769
295,99
##END=
