##TITLE=2-Naphthalenecarboxamide, 3-hydroxy-N-(2-methylphenyl)-
##JCAMP-DX=4.24
##DATA TYPE=MASS SPECTRUM
##ORIGIN=NIST Mass Spectrometry Data Center, 1994
##OWNER=NIST Mass Spectrometry Data Center
Collection (C) 2014 copyright by the U.S. Secretary of Commerce
on behalf of the United States of America. All rights reserved.
##CAS REGISTRY NO=135-61-5
##$NIST MASS SPEC NO=134287
##MOLFORM=C18 H15 N O2
##MW=277
##$NIST SOURCE=MSDC
##XUNITS=M/Z
##YUNITS=RELATIVE INTENSITY
##XFACTOR=1
##YFACTOR=1
##FIRSTX=15
##LASTX=280
##FIRSTY=23
##MAXX=280
##MINX=15
##MAXY=9999
##MINY=11
##NPOINTS=126
##PEAK TABLE=(XY..XY)
15,23 26,44 27,246 29,44
30,160 31,20 37,25 38,123
39,775 40,18 41,121 42,34
44,23 50,236 51,622 52,347
53,316 54,59 57,40 61,45
62,298 63,926 64,252 65,845
66,89 67,31 71,114 74,136
75,235 77,1228 78,520 79,504
80,98 86,137 87,261 88,543
89,1340 90,169 91,241 92,35
94,18 98,30 99,42 100,32
101,92 102,82 103,42 104,192
105,18 106,1517 107,6660 108,555
109,33 110,20 111,22 113,909
114,2739 115,8408 116,840 117,77
121,32 122,16 124,40 125,47
126,75 127,44 128,54 129,153
131,74 132,111 133,18 138,68
139,208 140,137 141,18 142,4046
143,838 144,94 148,16 150,14
151,33 152,57 164,16 165,26
170,7186 171,9945 172,1189 173,102
176,29 177,21 178,25 189,32
190,27 191,17 200,22 201,26
202,81 203,70 204,106 205,51
214,23 215,34 216,37 217,42
218,47 220,23 226,17 227,19
228,40 230,351 231,122 232,43
233,92 234,22 246,52 247,28
248,41 249,29 259,1035 260,218
261,50 262,26 277,9999 278,2021
279,195 280,11
##END=
