##TITLE=Benzene, 1,2-diethyl-
##JCAMP-DX=4.24
##DATA TYPE=MASS SPECTRUM
##ORIGIN=NIST Mass Spectrometry Data Center, 1990.
##OWNER=NIST Mass Spectrometry Data Center
Collection (C) 2014 copyright by the U.S. Secretary of Commerce
on behalf of the United States of America. All rights reserved.
##CAS REGISTRY NO=135-01-3
##$NIST MASS SPEC NO=118834
##MOLFORM=C10 H14
##MW=134
##$NIST SOURCE=MSDC
##XUNITS=M/Z
##YUNITS=RELATIVE INTENSITY
##XFACTOR=1
##YFACTOR=1
##FIRSTX=14
##LASTX=136
##FIRSTY=55
##MAXX=136
##MINX=14
##MAXY=9999
##MINY=12
##NPOINTS=72
##PEAK TABLE=(XY..XY)
14,55 15,314 25,14 26,101
27,840 28,69 29,298 30,16
35,13 37,43 38,186 39,1255
40,143 41,754 42,19 43,12
50,461 51,1210 52,311 53,338
54,24 55,54 56,12 57,377
60,15 61,68 62,256 63,705
64,237 65,1068 66,97 67,26
73,34 74,214 75,174 76,284
77,2049 78,885 79,1242 80,76
86,43 87,76 89,402 91,3952
92,328 93,367 94,36 98,24
99,18 101,59 102,360 103,1267
104,18 105,9999 106,935 107,53
113,26 115,1312 116,396 117,1884
118,26 119,8055 120,893 121,47
126,25 127,69 128,104 129,50
131,37 134,4331 135,466 136,29
##END=
