##TITLE=Silane, (chloromethyl)ethoxydimethyl-
##JCAMP-DX=4.24
##DATA TYPE=MASS SPECTRUM
##ORIGIN=V.G. Zaikin, TIPS RAS, Moscow, Russia
##OWNER=NIST Mass Spectrometry Data Center
Collection (C) 2014 copyright by the U.S. Secretary of Commerce
on behalf of the United States of America. All rights reserved.
##CAS REGISTRY NO=13508-53-7
##$NIST MASS SPEC NO=278615
##MOLFORM=C5 H13 Cl O Si
##MW=152
##$NIST SOURCE=MSDC
##XUNITS=M/Z
##YUNITS=RELATIVE INTENSITY
##XFACTOR=1
##YFACTOR=1
##FIRSTX=25
##LASTX=139
##FIRSTY=50
##MAXX=139
##MINX=25
##MAXY=9999
##MINY=50
##NPOINTS=73
##PEAK TABLE=(XY..XY)
25,50 26,140 27,520 29,360
30,50 31,571 36,250 38,90
39,90 40,50 41,130 42,220
43,1021 44,390 45,1651 46,170
47,480 48,50 49,270 50,50
51,150 52,50 53,90 54,50
55,150 56,80 57,90 58,230
59,2272 60,280 61,370 62,70
63,520 64,80 65,350 66,80
67,50 70,50 72,80 73,380
74,90 75,5685 76,460 77,320
78,270 79,1071 80,190 81,1621
82,90 83,480 87,120 88,60
89,50 91,60 93,661 94,80
95,1071 96,70 97,320 98,50
101,70 102,50 103,9999 104,891
105,460 106,70 107,530 108,60
109,480 111,150 137,450 138,50
139,130
##END=
