##TITLE=Cyclohexene,1-(2-propenyl)-
##JCAMP-DX=4.24
##DATA TYPE=MASS SPECTRUM
##ORIGIN=S.A. Rang et al., IR & MS of Unsatd. Hydrocarbons, 1977
##OWNER=NIST Mass Spectrometry Data Center
Collection (C) 2014 copyright by the U.S. Secretary of Commerce
on behalf of the United States of America. All rights reserved.
##CAS REGISTRY NO=13511-13-2
##$NIST MASS SPEC NO=142687
##MOLFORM=C9 H14
##MW=122
##$NIST SOURCE=MSDC
##XUNITS=M/Z
##YUNITS=RELATIVE INTENSITY
##XFACTOR=1
##YFACTOR=1
##FIRSTX=15
##LASTX=124
##FIRSTY=35
##MAXX=124
##MINX=15
##MAXY=9999
##MINY=6
##NPOINTS=80
##PEAK TABLE=(XY..XY)
15,35 25,15 26,125 27,1576
28,91 29,525 37,23 38,104
39,2340 40,394 41,2388 42,163
43,116 45,23 46,6 49,9
50,180 51,716 52,445 53,1863
54,525 55,669 56,52 57,70
58,52 59,44 60,26 61,6
62,49 63,214 64,61 65,812
66,573 67,1385 68,573 69,55
70,12 71,15 73,12 74,20
75,81 76,32 77,1863 78,621
79,6207 80,1767 81,9999 82,716
83,41 84,6 85,6 86,6
87,9 88,6 89,49 90,23
91,1290 92,214 93,1672 94,621
95,137 96,23 97,17 98,9
99,12 103,61 104,26 105,163
106,23 107,1242 108,111 109,17
117,29 118,12 119,17 120,32
121,26 122,2632 123,248 124,32
##END=
