##TITLE=Pindolol
##JCAMP-DX=4.24
##DATA TYPE=MASS SPECTRUM
##ORIGIN=Japan AIST/NIMC Database- Spectrum MS-IW-4296
##OWNER=NIST Mass Spectrometry Data Center
Collection (C) 2014 copyright by the U.S. Secretary of Commerce
on behalf of the United States of America. All rights reserved.
##CAS REGISTRY NO=13523-86-9
##$NIST MASS SPEC NO=235693
##MOLFORM=C14 H20 N2 O2
##MW=248
##$NIST SOURCE=MSDC
##XUNITS=M/Z
##YUNITS=RELATIVE INTENSITY
##XFACTOR=1
##YFACTOR=1
##FIRSTX=15
##LASTX=250
##FIRSTY=50
##MAXX=250
##MINX=15
##MAXY=9999
##MINY=10
##NPOINTS=131
##PEAK TABLE=(XY..XY)
15,50 17,70 18,359 26,40
27,249 28,439 29,129 30,3619
31,70 32,10 37,20 38,50
39,229 40,50 41,559 42,399
43,829 44,299 45,20 50,119
51,269 52,139 53,40 54,90
55,99 56,1719 57,289 58,319
59,30 60,239 61,10 62,50
63,119 64,30 65,40 66,159
67,30 68,30 69,30 70,319
71,259 72,7629 73,369 74,239
75,50 76,129 77,419 78,359
79,129 80,30 81,10 82,139
83,20 84,109 85,40 86,80
87,20 88,40 89,279 90,80
91,30 93,10 94,30 95,30
96,30 97,40 98,519 99,40
100,639 101,60 102,409 103,90
104,1159 105,879 106,90 107,10
111,10 113,10 114,229 115,169
116,1559 117,329 118,159 119,10
128,10 129,10 130,99 131,30
132,679 133,9999 134,1099 135,70
142,10 143,20 144,80 145,50
146,219 147,159 148,20 154,10
157,50 158,109 159,269 160,90
161,10 169,10 170,60 171,80
172,269 173,60 174,20 175,99
176,20 187,60 188,20 189,10
204,859 205,129 206,10 228,10
229,10 230,279 231,50 232,10
233,249 234,30 246,20 247,70
248,1819 249,349 250,40
##END=
