##TITLE=2-Furaldehyde diethyl acetal
##JCAMP-DX=4.24
##DATA TYPE=MASS SPECTRUM
##ORIGIN=Chuck Anderson, Aldrich Chemical Co.
##OWNER=NIST Mass Spectrometry Data Center
Collection (C) 2014 copyright by the U.S. Secretary of Commerce
on behalf of the United States of America. All rights reserved.
##CAS REGISTRY NO=13529-27-6
##$NIST MASS SPEC NO=118088
##MOLFORM=C9 H14 O3
##MW=170
##$NIST SOURCE=MSDC
##XUNITS=M/Z
##YUNITS=RELATIVE INTENSITY
##XFACTOR=1
##YFACTOR=1
##FIRSTX=15
##LASTX=171
##FIRSTY=62
##MAXX=171
##MINX=15
##MAXY=9999
##MINY=5
##NPOINTS=51
##PEAK TABLE=(XY..XY)
15,62 26,50 27,340 28,51
29,801 30,40 31,58 37,36
38,112 39,742 40,104 41,872
42,117 43,132 44,28 45,66
47,249 50,57 51,126 52,141
53,53 55,52 57,52 66,27
67,94 68,341 69,589 70,56
75,145 79,35 80,71 81,88
82,55 84,5 85,113 88,10
95,1326 96,571 97,9999 98,524
99,59 103,38 112,26 113,339
114,24 125,6320 126,459 127,42
141,125 170,577 171,56
##END=
