##TITLE=Benzenemethanol, 2-chloro-.alpha.-methyl-
##JCAMP-DX=4.24
##DATA TYPE=MASS SPECTRUM
##ORIGIN=Japan AIST/NIMC Database- Spectrum MS-IW-6460
##OWNER=NIST Mass Spectrometry Data Center
Collection (C) 2014 copyright by the U.S. Secretary of Commerce
on behalf of the United States of America. All rights reserved.
##CAS REGISTRY NO=13524-04-4
##$NIST MASS SPEC NO=237490
##MOLFORM=C8 H9 Cl O
##MW=156
##$NIST SOURCE=MSDC
##XUNITS=M/Z
##YUNITS=RELATIVE INTENSITY
##XFACTOR=1
##YFACTOR=1
##FIRSTX=14
##LASTX=159
##FIRSTY=10
##MAXX=159
##MINX=14
##MAXY=9999
##MINY=10
##NPOINTS=102
##PEAK TABLE=(XY..XY)
14,10 15,80 17,10 18,30
26,20 27,199 28,50 29,129
36,50 37,70 38,179 39,319
40,20 41,40 42,30 43,1829
44,90 45,419 46,30 49,80
50,799 51,1809 52,269 53,90
55,20 56,10 57,10 59,40
60,60 61,99 62,149 63,309
64,50 65,179 66,20 68,30
69,80 70,789 71,249 72,40
73,139 74,409 75,969 76,449
77,8009 78,729 79,70 84,50
85,109 86,60 87,70 88,10
89,129 90,30 91,319 92,30
93,50 97,30 98,40 99,50
100,20 101,309 102,499 103,2299
104,259 105,559 106,50 107,20
108,10 110,10 111,469 112,629
113,2429 114,349 115,759 116,50
119,10 120,20 121,359 122,30
123,10 125,99 126,10 127,40
128,10 129,10 136,30 137,109
138,1909 139,1019 140,719 141,9999
142,799 143,3179 144,249 145,10
154,60 155,119 156,1679 157,179
158,549 159,50
##END=
