##TITLE=3,5-Difluoropropiophenone
##JCAMP-DX=4.24
##DATA TYPE=MASS SPECTRUM
##ORIGIN=NIST Mass Spectrometry Data Center
##OWNER=NIST Mass Spectrometry Data Center
Collection (C) 2014 copyright by the U.S. Secretary of Commerce
on behalf of the United States of America. All rights reserved.
##CAS REGISTRY NO=135306-45-5
##$NIST MASS SPEC NO=342805
##MOLFORM=C9 H8 F2 O
##MW=170
##$NIST SOURCE=MSDC
##XUNITS=M/Z
##YUNITS=RELATIVE INTENSITY
##XFACTOR=1
##YFACTOR=1
##FIRSTX=13
##LASTX=171
##FIRSTY=10
##MAXX=171
##MINX=13
##MAXY=9999
##MINY=10
##NPOINTS=88
##PEAK TABLE=(XY..XY)
13,10 14,50 15,160 18,20
19,10 26,410 27,1451 28,510
29,1091 30,40 31,140 32,20
33,20 37,80 38,80 39,90
42,80 43,10 44,20 49,40
50,340 51,120 53,70 55,190
56,120 57,510 58,20 61,140
62,460 63,2212 64,120 65,10
68,280 69,140 70,40 73,50
74,240 75,260 76,20 77,30
79,10 80,40 81,200 82,10
83,10 84,10 85,20 86,30
87,110 88,50 92,100 93,260
94,230 95,60 96,10 98,10
99,40 100,10 101,130 102,10
103,10 104,10 105,20 106,10
107,40 109,10 110,10 113,5825
114,480 115,50 119,30 120,10
121,20 122,20 123,10 125,50
126,10 127,120 128,10 133,10
138,10 141,9999 142,771 143,50
151,70 152,10 170,1852 171,190
##END=
