##TITLE=1-Amino-2-butanol
##JCAMP-DX=4.24
##DATA TYPE=MASS SPECTRUM
##ORIGIN=NIST Mass Spectrometry Data Center, 1994
##OWNER=NIST Mass Spectrometry Data Center
Collection (C) 2014 copyright by the U.S. Secretary of Commerce
on behalf of the United States of America. All rights reserved.
##CAS REGISTRY NO=13552-21-1
##$NIST MASS SPEC NO=133914
##MOLFORM=C4 H11 N O
##MW=89
##$NIST SOURCE=MSDC
##XUNITS=M/Z
##YUNITS=RELATIVE INTENSITY
##XFACTOR=1
##YFACTOR=1
##FIRSTX=14
##LASTX=89
##FIRSTY=56
##MAXX=89
##MINX=14
##MAXY=9999
##MINY=7
##NPOINTS=42
##PEAK TABLE=(XY..XY)
14,56 15,316 16,30 17,44
18,214 19,23 26,203 27,817
28,1263 29,1030 30,9999 31,2775
32,1198 33,25 36,7 37,36
38,73 39,291 40,93 41,702
42,853 43,465 44,110 45,29
46,24 50,19 51,20 52,18
53,50 54,49 55,74 56,134
57,149 58,166 59,480 60,1095
61,38 70,31 71,66 72,23
88,12 89,35
##END=
