##TITLE=Methyl N-chloroacetylcarbamate
##JCAMP-DX=4.24
##DATA TYPE=MASS SPECTRUM
##ORIGIN=NIST Mass Spectrometry Data Center, 1994
##OWNER=NIST Mass Spectrometry Data Center
Collection (C) 2014 copyright by the U.S. Secretary of Commerce
on behalf of the United States of America. All rights reserved.
##CAS REGISTRY NO=13558-70-8
##$NIST MASS SPEC NO=136674
##MOLFORM=C4 H6 Cl N O3
##MW=151
##$NIST SOURCE=MSDC
##XUNITS=M/Z
##YUNITS=RELATIVE INTENSITY
##XFACTOR=1
##YFACTOR=1
##FIRSTX=12
##LASTX=153
##FIRSTY=321
##MAXX=153
##MINX=12
##MAXY=9999
##MINY=47
##NPOINTS=72
##PEAK TABLE=(XY..XY)
12,321 13,554 15,1044 16,77
17,87 18,115 25,91 26,241
27,741 28,560 29,3848 30,1144
31,1506 32,99 35,429 36,236
37,158 38,310 39,248 40,484
41,708 42,5391 43,1467 44,3489
45,984 46,89 47,506 48,1393
49,7607 50,590 51,2477 52,62
54,176 55,66 56,321 57,62
58,9523 59,9999 60,225 63,90
64,405 65,105 66,124 70,5449
71,158 72,324 73,47 74,47
75,560 76,4057 77,6090 78,1171
79,1988 80,63 85,76 89,63
93,103 102,2753 103,83 107,105
108,831 109,73 110,307 116,3916
117,207 119,3069 120,656 121,1158
122,197 151,539 152,50 153,188
##END=
