##TITLE=6-Phenyl-5-hexyn-3-ol
##JCAMP-DX=4.24
##DATA TYPE=MASS SPECTRUM
##ORIGIN=NIST Mass Spectrometry Data Center, 1994
##OWNER=NIST Mass Spectrometry Data Center
Collection (C) 2014 copyright by the U.S. Secretary of Commerce
on behalf of the United States of America. All rights reserved.
##CAS REGISTRY NO=135663-98-8
##$NIST MASS SPEC NO=136720
##MOLFORM=C12 H14 O
##MW=174
##$NIST SOURCE=MSDC
##XUNITS=M/Z
##YUNITS=RELATIVE INTENSITY
##XFACTOR=1
##YFACTOR=1
##FIRSTX=12
##LASTX=175
##FIRSTY=13
##MAXX=175
##MINX=12
##MAXY=9999
##MINY=5
##NPOINTS=82
##PEAK TABLE=(XY..XY)
12,13 15,293 17,39 18,131
26,223 27,1294 29,1865 31,5002
33,17 37,70 38,245 39,1543
40,128 41,1687 42,103 43,291
44,20 49,40 50,581 51,866
52,178 53,99 55,98 57,401
59,3957 60,168 61,157 62,625
63,1696 64,257 65,880 66,67
67,30 69,13 73,5 74,218
75,420 76,255 77,404 78,92
79,27 85,68 86,234 87,354
88,362 89,1513 90,163 91,469
92,38 98,52 99,38 100,16
101,35 102,172 103,59 105,141
106,12 109,12 110,30 111,21
113,294 115,9999 116,9270 117,1232
118,87 126,57 127,246 128,160
129,61 130,22 131,60 139,24
141,56 142,18 144,42 145,65
152,16 153,16 155,13 159,16
174,464 175,69
##END=
