##TITLE=Heptyl 4-nitrophenyl ether
##JCAMP-DX=4.24
##DATA TYPE=MASS SPECTRUM
##ORIGIN=Japan AIST/NIMC Database- Spectrum MS-IW-2233
##OWNER=NIST Mass Spectrometry Data Center
Collection (C) 2014 copyright by the U.S. Secretary of Commerce
on behalf of the United States of America. All rights reserved.
##CAS REGISTRY NO=13565-36-1
##$NIST MASS SPEC NO=228031
##MOLFORM=C13 H19 N O3
##MW=237
##$NIST SOURCE=MSDC
##XUNITS=M/Z
##YUNITS=RELATIVE INTENSITY
##XFACTOR=1
##YFACTOR=1
##FIRSTX=26
##LASTX=239
##FIRSTY=30
##MAXX=239
##MINX=26
##MAXY=9999
##MINY=10
##NPOINTS=100
##PEAK TABLE=(XY..XY)
26,30 27,539 28,179 29,1419
30,129 37,10 38,80 39,599
40,90 41,3059 42,619 43,3849
44,129 45,10 50,209 51,99
52,60 53,189 54,169 55,2359
56,2559 57,9999 58,469 62,50
63,279 64,269 65,529 66,60
67,90 68,159 69,1559 70,1489
71,249 72,10 74,50 75,309
76,419 77,109 78,119 79,60
80,50 81,139 82,30 83,289
84,30 85,20 89,10 91,80
92,219 93,459 94,119 95,60
96,20 97,1419 98,2339 99,229
100,10 103,10 105,40 106,139
107,149 108,70 109,1019 110,80
111,10 112,20 113,10 115,30
117,20 118,10 119,30 120,20
121,20 122,279 123,1019 124,619
125,50 128,10 129,20 131,20
133,50 134,20 135,10 136,10
139,1839 140,1109 141,569 142,40
143,20 149,30 152,289 153,30
166,10 167,30 207,99 208,10
221,50 237,2249 238,319 239,40
##END=
