##TITLE=Benzene, (propylsulfonyl)-
##JCAMP-DX=4.24
##DATA TYPE=MASS SPECTRUM
##ORIGIN=H. Luftmann, Org. Chem. Inst., Westfalisch Wilhelms Univ., Munster, Germany
##OWNER=NIST Mass Spectrometry Data Center
Collection (C) 2014 copyright by the U.S. Secretary of Commerce
on behalf of the United States of America. All rights reserved.
##CAS REGISTRY NO=13596-75-3
##$NIST MASS SPEC NO=115081
##MOLFORM=C9 H12 O2 S
##MW=184
##$NIST SOURCE=MSDC
##XUNITS=M/Z
##YUNITS=RELATIVE INTENSITY
##XFACTOR=1
##YFACTOR=1
##FIRSTX=38
##LASTX=185
##FIRSTY=100
##MAXX=185
##MINX=38
##MAXY=9999
##MINY=100
##NPOINTS=41
##PEAK TABLE=(XY..XY)
38,100 39,1900 40,200 41,5400
42,400 43,9800 44,500 45,100
50,1100 51,4500 52,400 53,100
65,400 66,300 73,100 74,200
75,200 76,200 77,7400 78,9999
79,1000 91,2300 92,600 93,100
94,1800 97,200 105,200 117,300
118,800 119,1300 120,2000 121,200
125,600 126,100 141,600 142,4200
143,1200 144,200 156,200 184,2100
185,200
##END=
