##TITLE=Erbon
##JCAMP-DX=4.24
##DATA TYPE=MASS SPECTRUM
##ORIGIN=MASS SPECTROMETRY CENTER, UNIV. OF UTAH EPA-PTSEL 3320
##OWNER=NIST Mass Spectrometry Data Center
Collection (C) 2014 copyright by the U.S. Secretary of Commerce
on behalf of the United States of America. All rights reserved.
##CAS REGISTRY NO=136-25-4
##$NIST MASS SPEC NO=52482
##MOLFORM=C11 H9 Cl5 O3
##MW=364
##$NIST SOURCE=MSDC
##XUNITS=M/Z
##YUNITS=RELATIVE INTENSITY
##XFACTOR=1
##YFACTOR=1
##FIRSTX=15
##LASTX=370
##FIRSTY=803
##MAXX=370
##MINX=15
##MAXY=9999
##MINY=11
##NPOINTS=149
##PEAK TABLE=(XY..XY)
15,803 19,450 25,156 26,892
27,3280 29,1005 30,112 31,671
35,281 36,963 37,470 38,491
41,68 42,276 43,1394 44,543
45,6414 46,138 47,182 48,179
49,389 50,337 51,110 53,311
54,26 55,289 60,315 61,2489
62,2590 63,1782 64,540 65,314
71,115 72,1349 73,894 74,916
75,365 77,263 79,137 83,564
84,393 85,511 86,140 87,537
89,1015 90,811 91,415 92,242
95,60 96,377 97,7401 98,463
99,4254 100,54 101,616 107,709
108,386 109,1021 110,244 111,422
112,22 113,117 119,121 121,344
123,190 124,11 125,321 126,99
127,161 128,58 131,178 132,633
133,1184 134,798 135,1557 136,278
137,402 143,624 144,430 145,647
146,461 147,259 148,204 149,144
151,92 155,332 157,216 159,486
160,424 161,408 162,619 163,211
164,276 167,913 168,79 169,9999
170,644 171,6752 172,406 173,1074
174,26 177,156 179,881 180,164
181,845 182,127 183,292 187,162
188,628 189,264 190,442 191,140
192,483 193,107 194,290 195,483
196,5719 197,837 198,5496 199,569
200,1732 201,156 202,216 203,26
204,57 205,51 206,79 207,21
208,78 209,200 211,166 223,1692
224,208 225,1597 226,170 227,541
232,71 234,22 236,131 238,52
240,856 241,93 242,802 243,51
244,287 364,283 366,424 368,279
370,63
##END=
