##TITLE=Butyl benzoate
##JCAMP-DX=4.24
##DATA TYPE=MASS SPECTRUM
##ORIGIN=Chuck Anderson, Aldrich Chemical Co.
##OWNER=NIST Mass Spectrometry Data Center
Collection (C) 2014 copyright by the U.S. Secretary of Commerce
on behalf of the United States of America. All rights reserved.
##CAS REGISTRY NO=136-60-7
##$NIST MASS SPEC NO=107583
##MOLFORM=C11 H14 O2
##MW=178
##$NIST SOURCE=MSDC
##XUNITS=M/Z
##YUNITS=RELATIVE INTENSITY
##XFACTOR=1
##YFACTOR=1
##FIRSTX=14
##LASTX=180
##FIRSTY=1
##MAXX=180
##MINX=14
##MAXY=9999
##MINY=1
##NPOINTS=99
##PEAK TABLE=(XY..XY)
14,1 15,1 16,1 19,2
25,3 26,7 27,531 28,25
29,788 30,28 31,33 37,14
38,51 39,441 40,59 41,851
42,48 43,103 44,23 45,20
48,1 49,16 50,515 51,1773
52,123 53,65 54,24 55,371
56,2374 57,164 58,6 61,4
62,16 63,22 64,7 65,53
66,13 67,2 68,1 71,4
72,8 73,77 74,114 75,102
76,248 77,4530 78,367 79,734
80,49 81,2 86,1 89,3
90,2 91,45 92,19 93,15
94,34 95,3 101,6 102,2
103,16 105,9999 106,788 107,80
108,7 110,1 115,4 116,1
117,4 118,12 119,4 120,21
121,24 122,1999 123,6468 124,458
125,41 126,3 131,10 132,3
133,10 134,21 135,144 136,40
137,4 145,2 147,2 148,4
149,30 150,5 159,4 160,7
161,62 162,8 163,5 177,9
178,154 179,18 180,2
##END=
