##TITLE=Dimethylol ethylene urea
##JCAMP-DX=4.24
##DATA TYPE=MASS SPECTRUM
##ORIGIN=Leung Pu, NIH, Bethesda, Maryland, U.S.
##OWNER=NIST Mass Spectrometry Data Center
Collection (C) 2014 copyright by the U.S. Secretary of Commerce
on behalf of the United States of America. All rights reserved.
##CAS REGISTRY NO=136-84-5
##$NIST MASS SPEC NO=127542
##MOLFORM=C5 H10 N2 O3
##MW=146
##$NIST SOURCE=MSDC
##XUNITS=M/Z
##YUNITS=RELATIVE INTENSITY
##XFACTOR=1
##YFACTOR=1
##FIRSTX=41
##LASTX=149
##FIRSTY=2030
##MAXX=149
##MINX=41
##MAXY=9999
##MINY=2
##NPOINTS=94
##PEAK TABLE=(XY..XY)
41,2030 42,9999 43,6602 44,1383
45,142 46,19 47,2 48,12
49,36 50,31 51,67 52,129
53,131 54,444 55,999 56,3285
57,571 58,614 59,72 60,12
61,2 63,17 64,27 65,26
66,33 67,53 68,99 69,291
70,941 71,235 72,113 73,30
75,3 76,5 77,24 78,20
79,27 80,26 81,37 82,39
83,72 84,411 85,1401 86,4718
87,1613 88,73 89,4 91,13
92,16 93,21 94,22 95,23
96,47 97,200 98,2394 99,6708
100,1576 101,540 102,30 104,5
105,40 106,20 107,19 108,19
109,19 110,82 111,32 112,820
113,709 114,150 115,40 116,15
117,13 118,7 119,21 120,17
121,20 122,17 123,12 124,43
125,58 126,100 127,133 128,43
129,41 130,12 131,22 132,5
144,15 145,39 146,115 147,57
148,39 149,22
##END=
