##TITLE=Ethanone, 1-(2,3,4-trichlorophenyl)-
##JCAMP-DX=4.24
##DATA TYPE=MASS SPECTRUM
##ORIGIN=Japan AIST/NIMC Database- Spectrum MS-NW-6755
##OWNER=NIST Mass Spectrometry Data Center
Collection (C) 2014 copyright by the U.S. Secretary of Commerce
on behalf of the United States of America. All rights reserved.
##CAS REGISTRY NO=13608-87-2
##$NIST MASS SPEC NO=235620
##MOLFORM=C8 H5 Cl3 O
##MW=222
##$NIST SOURCE=MSDC
##XUNITS=M/Z
##YUNITS=RELATIVE INTENSITY
##XFACTOR=1
##YFACTOR=1
##FIRSTX=14
##LASTX=229
##FIRSTY=30
##MAXX=229
##MINX=14
##MAXY=9999
##MINY=10
##NPOINTS=148
##PEAK TABLE=(XY..XY)
14,30 15,259 26,10 27,10
28,10 29,10 35,50 36,109
37,179 38,70 39,40 41,10
42,149 43,4689 44,119 45,10
47,50 48,30 49,129 50,149
51,50 53,40 54,60 55,20
60,90 61,219 62,139 63,90
64,10 66,10 67,20 68,10
71,169 72,209 73,479 74,1089
75,199 76,10 77,10 78,20
79,60 80,40 81,10 83,50
84,479 85,179 86,209 87,90
88,20 89,90 90,90 91,30
94,20 95,20 96,60 97,179
98,109 99,90 100,10 101,20
103,299 104,289 105,90 106,20
107,80 108,549 109,929 110,249
111,329 112,30 118,80 119,70
120,70 121,70 122,20 123,159
124,30 125,50 126,10 131,20
132,10 133,50 134,20 135,30
136,20 137,60 138,10 139,20
142,10 143,709 144,579 145,579
146,399 147,149 148,70 149,10
151,10 152,20 153,10 154,10
155,10 157,60 158,30 159,99
160,30 161,50 162,10 167,10
169,20 170,10 171,20 172,80
173,20 174,50 175,10 176,10
178,20 179,2219 180,269 181,2119
182,239 183,699 184,80 185,80
186,10 193,60 194,10 195,50
196,10 197,20 204,20 206,20
207,9999 208,789 209,9669 210,769
211,3149 212,259 213,359 214,30
222,2709 223,259 224,2599 225,249
226,849 227,80 228,99 229,10
##END=
