##TITLE=Cycloheptanone, 4-methyl-, (R)-
##JCAMP-DX=4.24
##DATA TYPE=MASS SPECTRUM
##ORIGIN=CARL DJERASSI DEPT OF CHEM STANFORD UNIV STANFORD CALIF 94305
##OWNER=NIST Mass Spectrometry Data Center
Collection (C) 2014 copyright by the U.S. Secretary of Commerce
on behalf of the United States of America. All rights reserved.
##CAS REGISTRY NO=13609-59-1
##$NIST MASS SPEC NO=46432
##MOLFORM=C8 H14 O
##MW=126
##$NIST SOURCE=MSDC
##XUNITS=M/Z
##YUNITS=RELATIVE INTENSITY
##XFACTOR=1
##YFACTOR=1
##FIRSTX=39
##LASTX=127
##FIRSTY=4300
##MAXX=127
##MINX=39
##MAXY=9999
##MINY=100
##NPOINTS=41
##PEAK TABLE=(XY..XY)
39,4300 40,900 41,7000 42,5700
43,3500 44,200 48,100 50,200
51,400 52,200 53,900 54,500
55,9999 56,3200 57,1000 63,100
65,200 66,100 67,1100 68,300
69,3200 70,3600 71,600 72,100
77,100 79,200 81,200 82,4400
83,3100 84,800 85,100 91,100
93,400 95,100 97,900 98,1200
99,100 108,200 111,300 126,1700
127,200
##END=
