##TITLE=1(2H)-Naphthalenone, 3,4-dihydro-5,7-dimethyl-
##JCAMP-DX=4.24
##DATA TYPE=MASS SPECTRUM
##ORIGIN=CONTINENTAL OIL CO., PONCA CITY, OKLA, USA
##OWNER=NIST Mass Spectrometry Data Center
Collection (C) 2014 copyright by the U.S. Secretary of Commerce
on behalf of the United States of America. All rights reserved.
##CAS REGISTRY NO=13621-25-5
##$NIST MASS SPEC NO=35092
##MOLFORM=C12 H14 O
##MW=174
##$NIST SOURCE=MSDC
##XUNITS=M/Z
##YUNITS=RELATIVE INTENSITY
##XFACTOR=1
##YFACTOR=1
##FIRSTX=13
##LASTX=176
##FIRSTY=21
##MAXX=176
##MINX=13
##MAXY=9999
##MINY=10
##NPOINTS=115
##PEAK TABLE=(XY..XY)
13,21 14,428 15,737 16,14
17,60 18,186 25,10 26,260
27,1498 28,613 29,222 31,13
37,71 38,277 39,2140 40,338
41,685 42,138 43,96 44,27
45,35 49,35 50,642 51,1673
52,512 53,631 54,53 55,250
56,39 57,152 58,373 59,71
61,78 62,356 63,1070 64,609
65,919 66,160 67,67 68,21
69,53 70,107 71,228 72,113
73,379 74,296 75,356 76,299
77,1427 78,706 79,335 80,28
85,56 86,142 87,169 88,77
89,395 90,188 91,2184 92,285
93,39 95,74 97,71 98,142
99,67 100,37 101,167 102,555
103,1673 104,449 105,416 106,60
109,25 110,35 113,107 114,162
115,2783 116,1141 117,3037 118,7056
119,1070 120,81 125,42 126,93
127,459 128,1106 129,930 130,428
131,1145 132,2140 133,442 134,43
139,78 140,42 141,257 142,142
143,177 144,213 145,856 146,9999
147,1070 148,103 155,46 156,320
157,260 158,138 159,2355 160,313
161,28 171,24 172,71 173,531
174,8489 175,1070 176,92
##END=
