##TITLE=2,4-Octadiene
##JCAMP-DX=4.24
##DATA TYPE=MASS SPECTRUM
##ORIGIN=NIST Mass Spectrometry Data Center, 1990.
##OWNER=NIST Mass Spectrometry Data Center
Collection (C) 2014 copyright by the U.S. Secretary of Commerce
on behalf of the United States of America. All rights reserved.
##CAS REGISTRY NO=13643-08-8
##$NIST MASS SPEC NO=113458
##MOLFORM=C8 H14
##MW=110
##$NIST SOURCE=MSDC
##XUNITS=M/Z
##YUNITS=RELATIVE INTENSITY
##XFACTOR=1
##YFACTOR=1
##FIRSTX=15
##LASTX=111
##FIRSTY=114
##MAXX=111
##MINX=15
##MAXY=9999
##MINY=108
##NPOINTS=35
##PEAK TABLE=(XY..XY)
15,114 26,212 27,1383 28,468
29,675 38,309 39,2811 40,600
41,2881 42,293 43,117 50,539
51,1062 52,589 53,3273 54,570
55,1332 56,152 62,183 63,420
65,1174 66,899 67,4644 68,6395
69,468 74,108 77,1602 79,5539
81,9999 82,774 91,403 93,281
95,1468 110,4387 111,393
##END=
