##TITLE=Curdione
##JCAMP-DX=4.24
##DATA TYPE=MASS SPECTRUM
##ORIGIN=P.A. Leclercq, Lab. Instrum. Anal., Tech. Univ. Eindhoven, Netherlands
##OWNER=NIST Mass Spectrometry Data Center
Collection (C) 2014 copyright by the U.S. Secretary of Commerce
on behalf of the United States of America. All rights reserved.
##CAS REGISTRY NO=13657-68-6
##$NIST MASS SPEC NO=221565
##MOLFORM=C15 H24 O2
##MW=236
##$NIST SOURCE=MSDC
##XUNITS=M/Z
##YUNITS=RELATIVE INTENSITY
##XFACTOR=1
##YFACTOR=1
##FIRSTX=36
##LASTX=237
##FIRSTY=39
##MAXX=237
##MINX=36
##MAXY=9999
##MINY=9
##NPOINTS=146
##PEAK TABLE=(XY..XY)
36,39 37,29 39,4139 40,1509
41,9999 42,2359 43,3579 44,179
45,109 46,19 48,9 50,109
51,529 53,3929 54,769 55,7690
56,1129 57,819 58,49 59,149
60,19 61,19 62,19 63,109
65,779 67,5600 68,5600 69,9150
70,1299 71,419 72,39 73,59
74,19 75,19 77,1019 78,199
79,1769 80,449 81,2809 82,3049
83,1639 84,499 85,149 86,19
87,99 88,19 89,39 91,979
92,279 93,1419 94,579 95,2819
96,1449 97,1919 98,279 99,79
100,19 101,79 102,309 103,119
105,1119 106,239 107,1669 108,909
109,7510 110,1729 111,1389 112,749
113,109 115,219 116,79 117,179
119,599 121,1449 122,419 123,1259
124,639 125,529 126,579 127,289
128,119 129,99 130,59 131,229
132,119 133,479 134,369 135,549
136,389 137,1499 138,1199 139,1489
140,189 141,119 142,49 143,49
144,39 145,179 146,69 147,649
148,139 149,209 151,459 152,469
153,269 154,359 155,139 156,49
157,69 159,119 160,59 161,269
162,89 163,69 165,2259 167,5870
168,649 169,99 173,129 174,69
175,259 176,149 177,79 180,7030
181,799 182,99 187,29 189,49
190,49 191,59 193,369 194,159
201,59 203,129 204,29 206,39
207,39 208,259 209,49 216,59
218,119 219,39 221,159 234,19
236,249 237,49
##END=
