##TITLE=2,3,6-Trifluorobenzonitrile
##JCAMP-DX=4.24
##DATA TYPE=MASS SPECTRUM
##ORIGIN=NIST Mass Spectrometry Data Center
##OWNER=NIST Mass Spectrometry Data Center
Collection (C) 2014 copyright by the U.S. Secretary of Commerce
on behalf of the United States of America. All rights reserved.
##CAS REGISTRY NO=136514-17-5
##$NIST MASS SPEC NO=342876
##MOLFORM=C7 H2 F3 N
##MW=157
##$NIST SOURCE=MSDC
##XUNITS=M/Z
##YUNITS=RELATIVE INTENSITY
##XFACTOR=1
##YFACTOR=1
##FIRSTX=12
##LASTX=159
##FIRSTY=20
##MAXX=159
##MINX=12
##MAXY=9999
##MINY=10
##NPOINTS=49
##PEAK TABLE=(XY..XY)
12,20 23,40 31,1161 35,50
36,70 37,300 38,230 44,10
49,130 50,170 51,280 55,150
56,370 57,310 60,90 61,370
62,300 63,100 68,360 69,310
75,811 76,170 79,340 80,370
81,490 82,380 86,230 87,400
88,1451 89,100 92,120 93,260
94,80 99,320 100,240 106,981
107,300 111,80 112,611 113,190
117,50 126,450 130,811 131,210
137,340 138,90 157,9999 158,851
159,40
##END=
