##TITLE=2-(Cyclopenten-1-yl)acetic acid
##JCAMP-DX=4.24
##DATA TYPE=MASS SPECTRUM
##ORIGIN=NIST Mass Spectrometry Data Center, 1992
##OWNER=NIST Mass Spectrometry Data Center
Collection (C) 2014 copyright by the U.S. Secretary of Commerce
on behalf of the United States of America. All rights reserved.
##CAS REGISTRY NO=13668-61-6
##$NIST MASS SPEC NO=125280
##MOLFORM=C7 H10 O2
##MW=126
##$NIST SOURCE=MSDC
##XUNITS=M/Z
##YUNITS=RELATIVE INTENSITY
##XFACTOR=1
##YFACTOR=1
##FIRSTX=14
##LASTX=127
##FIRSTY=34
##MAXX=127
##MINX=14
##MAXY=9999
##MINY=17
##NPOINTS=65
##PEAK TABLE=(XY..XY)
14,34 15,93 16,17 17,22
18,29 26,251 27,1457 28,506
29,376 30,28 31,198 32,29
37,133 38,436 39,2561 40,500
41,2305 42,419 43,223 44,63
45,666 47,22 49,76 50,445
51,715 52,406 53,923 54,193
55,478 56,50 57,66 60,681
61,89 62,120 63,204 64,22
65,1230 66,5026 67,9999 68,599
69,118 70,76 71,30 73,25
74,47 75,24 77,803 78,282
79,1964 80,1220 81,779 82,99
83,304 84,137 85,19 95,19
97,152 98,18 106,25 108,2615
109,295 110,29 111,51 126,717
127,50
##END=
