##TITLE=Phenethylamine, 3-methoxy-.alpha.-methyl-4,5-(methylenedioxy)-
##JCAMP-DX=4.24
##DATA TYPE=MASS SPECTRUM
##ORIGIN=Finnigan MAT: Toxicological Library (LIBR-TX)
##OWNER=NIST Mass Spectrometry Data Center
Collection (C) 2014 copyright by the U.S. Secretary of Commerce
on behalf of the United States of America. All rights reserved.
##CAS REGISTRY NO=13674-05-0
##$NIST MASS SPEC NO=120147
##MOLFORM=C11 H15 N O3
##MW=209
##$NIST SOURCE=MSDC
##XUNITS=M/Z
##YUNITS=RELATIVE INTENSITY
##XFACTOR=1
##YFACTOR=1
##FIRSTX=42
##LASTX=209
##FIRSTY=220
##MAXX=209
##MINX=42
##MAXY=9999
##MINY=8
##NPOINTS=32
##PEAK TABLE=(XY..XY)
42,220 44,9999 45,278 51,127
53,139 63,72 64,129 65,113
77,194 78,49 79,45 92,85
97,100 107,36 108,22 120,57
121,57 122,40 135,33 136,19
150,14 151,54 152,11 165,469
166,2446 167,227 176,8 192,9
193,14 194,15 208,11 209,25
##END=
