##TITLE=Hexanoic acid, 3-trimethylsilyloxy, trimethylsilyl ester
##JCAMP-DX=4.24
##DATA TYPE=MASS SPECTRUM
##ORIGIN=O A MAMER, MCGILL UNIVERSITY, MONTRE
##OWNER=NIST Mass Spectrometry Data Center
Collection (C) 2014 copyright by the U.S. Secretary of Commerce
on behalf of the United States of America. All rights reserved.
##CAS REGISTRY NO=136788-82-4
##$NIST MASS SPEC NO=79404
##MOLFORM=C12 H28 O3 Si2
##MW=276
##$NIST SOURCE=MSDC
##XUNITS=M/Z
##YUNITS=RELATIVE INTENSITY
##XFACTOR=1
##YFACTOR=1
##FIRSTX=43
##LASTX=275
##FIRSTY=255
##MAXX=275
##MINX=43
##MAXY=9999
##MINY=7
##NPOINTS=101
##PEAK TABLE=(XY..XY)
43,255 44,139 45,1015 48,20
49,15 55,276 56,8 58,125
60,75 61,275 62,19 67,48
68,43 69,279 70,40 71,97
72,343 73,9999 74,917 75,1784
77,68 81,301 82,74 85,51
87,198 88,91 89,26 91,20
94,27 96,7 97,153 98,17
99,79 100,15 101,593 102,200
103,419 104,38 105,37 113,31
115,106 116,33 117,330 118,41
119,54 123,62 127,16 129,135
130,492 131,266 132,57 133,546
134,80 135,50 142,15 143,178
144,62 145,4133 146,550 147,5107
148,797 149,553 150,66 151,24
157,47 158,240 159,38 161,15
163,21 171,152 172,22 175,51
177,28 184,15 185,17 186,47
187,15 189,628 190,124 191,285
192,47 200,17 203,17 204,230
205,49 206,21 217,81 218,20
219,1135 220,229 221,101 233,1386
234,279 235,124 236,16 245,43
247,57 261,897 262,200 263,83
275,18
##END=
