##TITLE=5-Methyl-2-thiophenecarboxaldehyde
##JCAMP-DX=4.24
##DATA TYPE=MASS SPECTRUM
##ORIGIN=NIST Mass Spectrometry Data Center
##OWNER=NIST Mass Spectrometry Data Center
Collection (C) 2014 copyright by the U.S. Secretary of Commerce
on behalf of the United States of America. All rights reserved.
##CAS REGISTRY NO=13679-70-4
##$NIST MASS SPEC NO=342379
##MOLFORM=C6 H6 O S
##MW=126
##$NIST SOURCE=MSDC
##XUNITS=M/Z
##YUNITS=RELATIVE INTENSITY
##XFACTOR=1
##YFACTOR=1
##FIRSTX=12
##LASTX=129
##FIRSTY=40
##MAXX=129
##MINX=12
##MAXY=9999
##MINY=10
##NPOINTS=69
##PEAK TABLE=(XY..XY)
12,40 13,30 14,60 15,120
16,10 18,30 24,30 25,130
26,420 27,1281 29,1822 30,20
32,240 33,80 34,30 36,120
37,771 38,1031 39,1782 40,80
41,40 42,10 45,3013 46,170
47,290 48,100 49,380 50,931
51,901 53,4164 54,200 57,801
58,811 59,621 60,160 61,400
62,410 63,480 64,70 65,130
66,20 69,1621 70,510 71,581
72,90 73,50 74,40 75,20
77,20 81,210 82,290 83,60
84,20 85,20 91,10 92,80
93,290 95,370 97,3863 98,290
99,190 100,10 109,10 111,40
125,9999 126,7897 127,1011 128,370
129,20
##END=
