##TITLE=2-Acetyl-3-methylthiophene
##JCAMP-DX=4.24
##DATA TYPE=MASS SPECTRUM
##ORIGIN=NIST Mass Spectrometry Data Center, 1994
##OWNER=NIST Mass Spectrometry Data Center
Collection (C) 2014 copyright by the U.S. Secretary of Commerce
on behalf of the United States of America. All rights reserved.
##CAS REGISTRY NO=13679-72-6
##$NIST MASS SPEC NO=136230
##MOLFORM=C7 H8 O S
##MW=140
##$NIST SOURCE=MSDC
##XUNITS=M/Z
##YUNITS=RELATIVE INTENSITY
##XFACTOR=1
##YFACTOR=1
##FIRSTX=12
##LASTX=143
##FIRSTY=23
##MAXX=143
##MINX=12
##MAXY=9999
##MINY=3
##NPOINTS=84
##PEAK TABLE=(XY..XY)
12,23 13,48 14,223 15,1157
16,3 17,20 18,38 19,25
25,29 26,268 27,830 28,7
29,22 32,31 33,19 34,16
36,22 37,236 38,368 39,866
40,70 41,82 42,257 43,2108
44,143 45,2594 46,91 47,192
49,141 50,557 51,690 52,207
53,2609 54,113 55,56 56,30
57,251 58,304 59,44 60,76
61,137 62,214 63,257 64,42
65,110 66,61 67,94 68,88
69,1255 70,596 71,377 72,63
73,34 75,16 77,131 78,49
79,21 80,20 81,146 82,185
83,60 84,48 85,46 92,35
93,113 95,179 96,216 97,2458
98,178 99,116 108,10 109,49
110,17 111,77 121,43 122,14
125,9999 126,742 127,487 128,39
140,4307 141,350 142,203 143,22
##END=
