##TITLE=Ethanethioic acid, S-(2-furanylmethyl) ester
##JCAMP-DX=4.24
##DATA TYPE=MASS SPECTRUM
##OWNER=NIST Mass Spectrometry Data Center
Collection (C) 2014 copyright by the U.S. Secretary of Commerce
on behalf of the United States of America. All rights reserved.
##CAS REGISTRY NO=13678-68-7
##$NIST MASS SPEC NO=5378
##MOLFORM=C7 H8 O2 S
##MW=156
##$NIST SOURCE=MSDC
##XUNITS=M/Z
##YUNITS=RELATIVE INTENSITY
##XFACTOR=1
##YFACTOR=1
##FIRSTX=27
##LASTX=158
##FIRSTY=671
##MAXX=158
##MINX=27
##MAXY=9999
##MINY=80
##NPOINTS=16
##PEAK TABLE=(XY..XY)
27,671 39,280 43,2702 45,831
51,280 52,200 53,1752 69,80
81,9999 82,520 85,120 113,360
114,360 156,1631 157,140 158,80
##END=
