##TITLE=2(3H)-Benzoxazolethione,3-methyl-
##JCAMP-DX=4.24
##DATA TYPE=MASS SPECTRUM
##ORIGIN=A.A.Kutin, Moscow, Russia
##OWNER=NIST Mass Spectrometry Data Center
Collection (C) 2014 copyright by the U.S. Secretary of Commerce
on behalf of the United States of America. All rights reserved.
##CAS REGISTRY NO=13673-63-7
##$NIST MASS SPEC NO=266098
##MOLFORM=C8 H7 N O S
##MW=165
##$NIST SOURCE=MSDC
##XUNITS=M/Z
##YUNITS=RELATIVE INTENSITY
##XFACTOR=1
##YFACTOR=1
##FIRSTX=33
##LASTX=168
##FIRSTY=286
##MAXX=168
##MINX=33
##MAXY=9999
##MINY=3
##NPOINTS=99
##PEAK TABLE=(XY..XY)
33,286 34,65 37,1785 38,2812
39,3149 40,529 41,414 42,555
44,1314 45,1380 46,244 47,181
50,3665 51,3679 52,1690 53,577
54,207 55,331 56,127 57,211
58,534 59,665 60,724 61,1338
62,1738 63,3868 64,1951 65,946
66,690 67,180 69,870 70,726
71,247 72,642 73,433 74,855
75,655 76,1146 77,3570 78,2784
79,1027 80,116 83,1165 85,86
86,43 87,69 88,104 90,1499
91,460 92,459 93,286 94,237
95,756 96,544 97,99 98,48
99,20 100,10 101,22 102,91
104,2453 105,922 106,282 107,109
108,130 109,198 110,78 111,20
112,8 117,21 119,1025 120,1679
122,4171 123,268 124,156 125,25
126,19 127,3 132,4640 133,392
134,71 135,208 136,676 137,139
138,38 139,11 147,10 148,30
149,185 150,473 151,57 152,43
153,52 154,4 161,40 165,9999
166,753 167,364 168,28
##END=
