##TITLE=Methyl 2,6-difluorobenzoate
##JCAMP-DX=4.24
##DATA TYPE=MASS SPECTRUM
##ORIGIN=NIST Mass Spectrometry Data Center
##OWNER=NIST Mass Spectrometry Data Center
Collection (C) 2014 copyright by the U.S. Secretary of Commerce
on behalf of the United States of America. All rights reserved.
##CAS REGISTRY NO=13671-00-6
##$NIST MASS SPEC NO=340460
##MOLFORM=C8 H6 F2 O2
##MW=172
##$NIST SOURCE=MSDC
##XUNITS=M/Z
##YUNITS=RELATIVE INTENSITY
##XFACTOR=1
##YFACTOR=1
##FIRSTX=15
##LASTX=174
##FIRSTY=120
##MAXX=174
##MINX=15
##MAXY=9999
##MINY=10
##NPOINTS=65
##PEAK TABLE=(XY..XY)
15,120 29,140 30,40 31,110
37,90 38,40 39,60 44,10
45,20 49,30 50,160 51,50
55,10 56,60 57,150 59,100
60,10 61,150 62,360 63,1972
64,100 68,270 69,150 70,30
73,40 74,240 75,120 77,20
79,10 80,40 81,170 82,20
86,40 87,140 88,20 92,110
93,390 94,250 95,30 99,10
101,60 107,10 108,20 110,30
111,40 112,230 113,3073 114,240
115,10 122,30 123,50 127,80
128,30 137,10 138,10 141,9999
142,931 143,60 153,180 154,10
156,20 171,80 172,2182 173,190
174,10
##END=
