##TITLE=1H-Pyrrole-2,5-dione, 1,1'-(methylenedi-4,1-phenylene)bis-
##JCAMP-DX=4.24
##DATA TYPE=MASS SPECTRUM
##ORIGIN=Japan AIST/NIMC Database- Spectrum MS-NW-8163
##OWNER=NIST Mass Spectrometry Data Center
Collection (C) 2014 copyright by the U.S. Secretary of Commerce
on behalf of the United States of America. All rights reserved.
##CAS REGISTRY NO=13676-54-5
##$NIST MASS SPEC NO=237992
##MOLFORM=C21 H14 N2 O4
##MW=358
##$NIST SOURCE=MSDC
##XUNITS=M/Z
##YUNITS=RELATIVE INTENSITY
##XFACTOR=1
##YFACTOR=1
##FIRSTX=15
##LASTX=362
##FIRSTY=10
##MAXX=362
##MINX=15
##MAXY=9999
##MINY=10
##NPOINTS=258
##PEAK TABLE=(XY..XY)
15,10 25,10 26,739 27,99
28,119 29,10 38,30 39,149
40,30 41,20 42,20 43,80
44,40 45,30 50,70 51,219
52,109 53,379 54,1439 55,179
56,30 57,10 60,20 62,50
63,199 64,90 65,50 66,10
68,10 69,10 70,10 71,10
74,20 75,80 76,279 77,559
78,189 79,20 80,119 81,20
82,559 83,50 86,10 87,20
88,50 89,219 90,209 91,50
92,10 93,10 95,50 96,20
97,20 98,10 99,10 100,10
101,60 102,199 103,279 104,179
105,40 106,129 107,60 108,20
109,30 110,20 111,40 112,10
113,40 114,60 115,239 116,159
117,70 118,10 119,20 120,20
121,20 122,30 123,10 124,50
125,70 126,40 127,90 128,149
129,539 130,389 131,169 132,669
133,90 134,20 135,10 137,20
138,109 139,119 140,149 141,60
142,50 143,30 144,109 145,30
146,20 150,40 151,279 152,369
153,179 154,60 155,10 156,139
157,609 158,979 159,109 160,10
163,60 164,509 165,1119 166,269
167,80 168,30 169,30 170,30
172,149 173,30 175,10 176,60
177,189 178,269 179,549 180,269
181,109 182,70 183,40 185,199
186,1009 187,129 188,20 189,109
190,309 191,209 192,129 193,80
194,60 195,40 196,20 198,10
200,90 201,20 202,40 203,80
204,499 205,309 206,519 207,229
208,109 209,10 210,10 213,70
214,60 215,139 216,239 217,269
218,119 219,119 220,119 221,129
222,40 223,30 224,30 226,10
227,10 228,30 229,70 230,60
231,119 232,609 233,689 234,429
235,80 236,20 240,20 241,50
242,40 243,80 244,80 245,70
246,50 247,249 248,129 249,119
250,40 255,50 256,80 257,109
258,119 259,169 260,439 261,2279
262,1109 263,189 264,20 265,10
266,20 267,40 268,20 269,20
270,30 271,80 272,40 273,219
274,109 275,429 276,249 277,159
278,139 279,30 282,10 283,129
284,109 285,189 286,90 287,159
288,99 289,40 290,10 292,10
295,50 296,10 299,30 300,30
301,589 302,229 303,159 304,70
305,10 311,90 312,169 313,599
314,179 315,90 316,129 317,30
320,60 321,10 328,10 329,909
330,569 331,119 332,20 334,10
339,30 340,80 341,60 342,10
357,509 358,9999 359,2369 360,439
361,50 362,10
##END=
