##TITLE=2-Tert-butyl-6-methylphenyl isocyanate
##JCAMP-DX=4.24
##DATA TYPE=MASS SPECTRUM
##ORIGIN=NIST Mass Spectrometry Data Center
##OWNER=NIST Mass Spectrometry Data Center
Collection (C) 2014 copyright by the U.S. Secretary of Commerce
on behalf of the United States of America. All rights reserved.
##CAS REGISTRY NO=13680-30-3
##$NIST MASS SPEC NO=343333
##MOLFORM=C12 H15 N O
##MW=189
##$NIST SOURCE=MSDC
##XUNITS=M/Z
##YUNITS=RELATIVE INTENSITY
##XFACTOR=1
##YFACTOR=1
##FIRSTX=15
##LASTX=191
##FIRSTY=691
##MAXX=191
##MINX=15
##MAXY=9999
##MINY=10
##NPOINTS=100
##PEAK TABLE=(XY..XY)
15,691 17,10 18,50 26,120
27,1081 28,450 29,621 30,60
37,60 38,230 39,1932 40,240
41,1361 42,150 43,40 44,20
45,10 50,450 51,1251 52,530
53,550 54,90 55,110 56,50
57,220 59,260 60,20 61,40
62,220 63,691 64,380 65,1081
67,130 68,20 72,571 74,100
75,230 76,360 77,1551 78,490
79,330 82,40 85,10 87,210
88,80 89,480 90,180 91,1271
92,150 93,60 94,10 99,10
101,90 102,320 103,611 104,370
105,240 106,110 107,50 108,40
113,30 115,1171 116,721 117,460
118,210 119,150 120,70 127,210
128,530 129,1251 130,1461 131,1631
132,801 133,110 134,100 140,50
141,180 142,140 143,180 144,811
146,2823 147,400 148,50 154,150
156,3583 157,460 158,130 159,641
160,150 161,20 170,10 171,10
172,80 174,9999 175,1231 176,80
187,10 189,3303 190,460 191,30
##END=
