##TITLE=Desmedipham
##JCAMP-DX=4.24
##DATA TYPE=MASS SPECTRUM
##ORIGIN=J. SHAW, BORRISTON RESEARCH, ROCKVILLE, MD, USA
##OWNER=NIST Mass Spectrometry Data Center
Collection (C) 2014 copyright by the U.S. Secretary of Commerce
on behalf of the United States of America. All rights reserved.
##CAS REGISTRY NO=13684-56-5
##$NIST MASS SPEC NO=60169
##MOLFORM=C16 H16 N2 O4
##MW=300
##$NIST SOURCE=MSDC
##XUNITS=M/Z
##YUNITS=RELATIVE INTENSITY
##XFACTOR=1
##YFACTOR=1
##FIRSTX=12
##LASTX=300
##FIRSTY=20
##MAXX=300
##MINX=12
##MAXY=9999
##MINY=10
##NPOINTS=115
##PEAK TABLE=(XY..XY)
12,20 13,20 14,80 15,270
16,110 17,780 18,2812 19,40
25,40 26,410 27,1701 28,750
29,3543 30,170 31,170 32,50
36,40 37,670 38,1221 39,1611
40,400 41,720 42,200 43,430
44,210 45,490 48,10 49,130
50,730 51,1091 52,1091 53,970
54,180 55,170 56,40 57,110
58,100 60,380 61,260 62,460
63,1691 64,3753 65,1331 66,190
67,180 68,460 69,130 70,40
71,40 72,10 73,70 74,180
75,150 76,150 77,400 78,170
79,350 80,1511 81,1841 82,610
83,60 84,10 85,20 86,20
87,60 88,70 89,50 91,6556
92,540 93,530 94,480 95,270
96,50 97,30 98,10 99,10
103,10 104,50 105,130 106,120
107,160 108,760 109,6026 110,440
111,40 112,10 119,9999 120,760
122,3833 123,290 124,180 125,20
128,10 133,10 135,930 136,610
137,100 138,10 145,10 148,10
149,60 152,190 153,520 154,40
161,10 162,10 163,10 166,50
175,20 177,10 181,4654 182,430
183,40 185,10 300,20
##END=
