##TITLE=2-(1-Naphthyl)ethyl bromide
##JCAMP-DX=4.24
##DATA TYPE=MASS SPECTRUM
##ORIGIN=NIST Mass Spectrometry Data Center, 1994
##OWNER=NIST Mass Spectrometry Data Center
Collection (C) 2014 copyright by the U.S. Secretary of Commerce
on behalf of the United States of America. All rights reserved.
##CAS REGISTRY NO=13686-49-2
##$NIST MASS SPEC NO=135132
##MOLFORM=C12 H11 Br
##MW=234
##$NIST SOURCE=MSDC
##XUNITS=M/Z
##YUNITS=RELATIVE INTENSITY
##XFACTOR=1
##YFACTOR=1
##FIRSTX=5
##LASTX=238
##FIRSTY=8
##MAXX=238
##MINX=5
##MAXY=9999
##MINY=2
##NPOINTS=106
##PEAK TABLE=(XY..XY)
5,8 7,17 11,14 13,16
14,15 15,34 18,20 26,164
27,567 28,73 30,16 32,7
35,9 36,16 37,38 38,179
39,591 40,44 41,24 42,3
44,33 50,681 51,980 52,154
53,47 55,18 56,15 57,48
60,9 61,122 62,536 63,1362
64,380 65,144 66,12 67,2
68,12 69,58 70,24 74,718
75,952 76,1638 77,1083 78,192
79,63 80,27 81,61 82,19
84,25 85,81 86,243 87,362
88,150 89,339 90,32 91,71
93,194 95,184 98,225 99,150
100,118 101,352 102,304 103,49
104,12 105,2 106,13 108,11
109,19 110,36 111,49 113,153
115,2050 116,217 117,31 118,30
121,13 122,38 123,14 126,744
127,1157 128,922 129,408 130,44
131,11 137,34 139,566 141,9999
142,1222 143,69 150,238 151,580
152,1696 153,2124 154,942 155,2595
156,342 157,31 207,3 208,15
232,12 234,2130 235,322 236,2084
237,288 238,17
##END=
