##TITLE=3-Mercaptohexyl hexanoate
##JCAMP-DX=4.24
##DATA TYPE=MASS SPECTRUM
##ORIGIN=K.-H.Engel ET AL.J.Agric.Food.Chem.,39,2249(1991)
##OWNER=NIST Mass Spectrometry Data Center
Collection (C) 2014 copyright by the U.S. Secretary of Commerce
on behalf of the United States of America. All rights reserved.
##CAS REGISTRY NO=136954-22-8
##$NIST MASS SPEC NO=293192
##MOLFORM=C12 H24 O2 S
##MW=232
##$NIST SOURCE=MSDC
##XUNITS=M/Z
##YUNITS=RELATIVE INTENSITY
##XFACTOR=1
##YFACTOR=1
##FIRSTX=33
##LASTX=199
##FIRSTY=60
##MAXX=199
##MINX=33
##MAXY=9999
##MINY=10
##NPOINTS=63
##PEAK TABLE=(XY..XY)
33,60 35,150 39,1461 40,280
41,5745 42,1501 43,9999 44,330
45,1011 46,80 47,1461 49,50
50,50 51,50 52,20 53,530
54,711 55,7897 56,641 57,420
58,90 59,641 60,1061 61,911
62,70 65,40 67,1531 68,250
69,1051 70,490 71,4234 72,300
73,2442 74,821 75,420 80,40
81,530 82,1551 83,4944 84,320
85,60 87,2893 88,5605 89,741
90,280 91,60 98,50 99,4514
100,400 101,1361 103,60 115,230
116,3513 117,951 118,220 127,10
130,20 132,30 133,150 134,30
135,10 143,30 199,10
##END=
