##TITLE=N,N-Dichlorourethan
##JCAMP-DX=4.24
##DATA TYPE=MASS SPECTRUM
##ORIGIN=NIST Mass Spectrometry Data Center, 1994
##OWNER=NIST Mass Spectrometry Data Center
Collection (C) 2014 copyright by the U.S. Secretary of Commerce
on behalf of the United States of America. All rights reserved.
##CAS REGISTRY NO=13698-16-3
##$NIST MASS SPEC NO=133607
##MOLFORM=C3 H5 Cl2 N O2
##MW=157
##$NIST SOURCE=MSDC
##XUNITS=M/Z
##YUNITS=RELATIVE INTENSITY
##XFACTOR=1
##YFACTOR=1
##FIRSTX=4
##LASTX=125
##FIRSTY=43
##MAXX=125
##MINX=4
##MAXY=9999
##MINY=43
##NPOINTS=38
##PEAK TABLE=(XY..XY)
4,43 14,180 15,775 16,54
18,90 19,96 25,86 26,776
27,4456 28,1140 29,9999 30,1137
31,882 32,45 35,311 36,191
37,115 41,72 42,636 43,1750
44,765 45,1093 46,117 49,235
50,1085 51,4500 52,391 53,1524
64,3224 66,976 78,1699 80,621
95,85 108,156 110,84 123,1839
124,107 125,631
##END=
