##TITLE=3'-Trifluoromethylcyclopentanecarboxanilide
##JCAMP-DX=4.24
##DATA TYPE=MASS SPECTRUM
##ORIGIN=NIST Mass Spectrometry Data Center, 1994
##OWNER=NIST Mass Spectrometry Data Center
Collection (C) 2014 copyright by the U.S. Secretary of Commerce
on behalf of the United States of America. All rights reserved.
##CAS REGISTRY NO=13691-84-4
##$NIST MASS SPEC NO=135519
##MOLFORM=C13 H14 F3 N O
##MW=257
##$NIST SOURCE=MSDC
##XUNITS=M/Z
##YUNITS=RELATIVE INTENSITY
##XFACTOR=1
##YFACTOR=1
##FIRSTX=12
##LASTX=258
##FIRSTY=4
##MAXX=258
##MINX=12
##MAXY=9999
##MINY=4
##NPOINTS=141
##PEAK TABLE=(XY..XY)
12,4 14,17 15,121 16,13
17,21 18,34 19,7 20,34
26,119 27,1262 28,399 29,209
30,14 33,10 37,41 38,206
39,1980 40,538 41,5913 42,469
43,83 44,33 46,11 50,131
51,155 52,101 53,282 54,11
55,1212 56,65 57,110 61,16
62,82 63,360 64,181 65,324
66,129 67,734 68,16 69,9999
70,535 71,13 72,13 74,16
75,218 76,61 77,38 78,16
79,9 80,9 81,51 82,28
83,192 84,35 87,28 88,106
89,35 90,73 91,132 92,31
93,50 94,37 95,293 96,1948
97,1729 98,111 99,32 100,30
101,17 102,19 103,8 104,7
105,7 106,10 107,22 108,19
109,48 110,15 111,145 112,7
113,300 114,391 115,53 116,7
117,11 118,14 119,35 120,109
121,19 122,16 125,129 126,33
127,39 130,28 131,27 132,66
133,151 134,46 137,11 138,14
139,57 140,250 141,89 142,220
143,31 144,11 145,482 146,55
151,10 152,11 158,13 160,489
161,3358 162,348 163,16 166,12
168,32 170,8 171,5 172,35
174,33 180,18 185,9 186,21
187,66 188,118 189,10 196,19
198,20 199,7 200,27 201,9
214,16 216,163 217,19 228,9
229,12 238,360 239,51 257,469
258,81
##END=
