##TITLE=1-Butanol, 2-methyl-
##JCAMP-DX=4.24
##DATA TYPE=MASS SPECTRUM
##ORIGIN=Japan AIST/NIMC Database- Spectrum MS-NW-1090
##OWNER=NIST Mass Spectrometry Data Center
Collection (C) 2014 copyright by the U.S. Secretary of Commerce
on behalf of the United States of America. All rights reserved.
##CAS REGISTRY NO=137-32-6
##$NIST MASS SPEC NO=233556
##MOLFORM=C5 H12 O
##MW=88
##$NIST SOURCE=MSDC
##XUNITS=M/Z
##YUNITS=RELATIVE INTENSITY
##XFACTOR=1
##YFACTOR=1
##FIRSTX=14
##LASTX=88
##FIRSTY=30
##MAXX=88
##MINX=14
##MAXY=9999
##MINY=10
##NPOINTS=45
##PEAK TABLE=(XY..XY)
14,30 15,229 16,10 17,30
18,119 19,10 25,10 26,249
27,2229 28,429 29,7009 30,199
31,3699 32,80 33,139 37,70
38,149 39,1659 40,259 41,8779
42,1809 43,1439 44,80 45,729
46,50 49,20 50,119 51,119
52,40 53,249 54,90 55,2819
56,8779 57,9999 58,479 59,389
60,60 67,20 69,159 70,4239
71,349 72,10 73,10 87,30
88,30
##END=
