##TITLE=1,3-Benzenediol, 4,6-dichloro-
##JCAMP-DX=4.24
##DATA TYPE=MASS SPECTRUM
##ORIGIN=NIST Mass Spectrometry Data Center, 1998.
##OWNER=NIST Mass Spectrometry Data Center
Collection (C) 2014 copyright by the U.S. Secretary of Commerce
on behalf of the United States of America. All rights reserved.
##CAS REGISTRY NO=137-19-9
##$NIST MASS SPEC NO=292058
##MOLFORM=C6 H4 Cl2 O2
##MW=178
##$NIST SOURCE=MSDC
##XUNITS=M/Z
##YUNITS=RELATIVE INTENSITY
##XFACTOR=1
##YFACTOR=1
##FIRSTX=14
##LASTX=183
##FIRSTY=30
##MAXX=183
##MINX=14
##MAXY=9999
##MINY=10
##NPOINTS=101
##PEAK TABLE=(XY..XY)
14,30 26,60 27,40 29,340
35,110 36,200 37,440 38,260
39,490 40,20 41,290 42,210
43,170 44,60 45,20 47,200
48,300 49,580 50,1960 51,2940
52,210 53,1460 54,160 55,140
56,30 57,120 58,60 59,20
60,380 61,740 62,580 63,700
64,50 65,170 66,100 69,1300
70,50 71,260 72,520 73,540
74,160 75,130 76,90 77,440
78,410 79,1200 80,80 81,20
83,60 84,200 85,950 86,2760
87,1060 88,970 89,570 90,290
91,70 95,60 96,120 97,420
98,90 99,150 100,60 101,30
102,10 106,80 107,180 108,120
109,70 110,20 111,30 112,10
113,300 114,1700 115,2450 116,720
117,780 118,90 120,60 121,130
122,40 123,90 124,40 132,40
133,30 142,60 143,240 144,20
145,50 149,640 150,130 151,400
152,60 153,30 162,30 178,9999
179,670 180,6109 181,440 182,1060
183,30
##END=
