##TITLE=1,3-Benzenedicarboxylic acid, bis(2-ethylhexyl) ester
##JCAMP-DX=4.24
##DATA TYPE=MASS SPECTRUM
##ORIGIN=R.S.Borisov, V.G.Zaikin, Russian Friendship University, Moscow
##OWNER=NIST Mass Spectrometry Data Center
Collection (C) 2014 copyright by the U.S. Secretary of Commerce
on behalf of the United States of America. All rights reserved.
##CAS REGISTRY NO=137-89-3
##$NIST MASS SPEC NO=344018
##MOLFORM=C24 H38 O4
##MW=390
##$NIST SOURCE=MSDC
##XUNITS=M/Z
##YUNITS=RELATIVE INTENSITY
##XFACTOR=1
##YFACTOR=1
##FIRSTX=41
##LASTX=361
##FIRSTY=170
##MAXX=361
##MINX=41
##MAXY=9999
##MINY=20
##NPOINTS=45
##PEAK TABLE=(XY..XY)
41,170 42,50 43,110 55,440
56,260 57,1251 58,50 67,20
68,20 69,160 70,3133 71,1822
72,70 76,200 82,290 83,1491
84,791 97,20 104,581 105,60
112,5275 113,2242 114,160 121,591
122,90 132,90 149,3033 150,290
163,20 167,6206 168,550 169,70
176,20 179,60 180,130 189,30
261,9999 262,1872 263,240 279,3123
280,621 290,20 291,40 304,70
361,20
##END=
