##TITLE=5-Thiazoleethanol, 4-methyl-
##JCAMP-DX=4.24
##DATA TYPE=MASS SPECTRUM
##ORIGIN=Japan AIST/NIMC Database- Spectrum MS-NW-4265
##OWNER=NIST Mass Spectrometry Data Center
Collection (C) 2014 copyright by the U.S. Secretary of Commerce
on behalf of the United States of America. All rights reserved.
##CAS REGISTRY NO=137-00-8
##$NIST MASS SPEC NO=230644
##MOLFORM=C6 H9 N O S
##MW=143
##$NIST SOURCE=MSDC
##XUNITS=M/Z
##YUNITS=RELATIVE INTENSITY
##XFACTOR=1
##YFACTOR=1
##FIRSTX=14
##LASTX=146
##FIRSTY=10
##MAXX=146
##MINX=14
##MAXY=9999
##MINY=10
##NPOINTS=88
##PEAK TABLE=(XY..XY)
14,10 15,80 18,20 25,10
26,149 27,619 28,279 29,199
30,20 31,749 32,50 33,10
34,10 37,60 38,80 39,529
40,80 41,589 42,239 43,179
44,60 45,2249 46,90 47,149
49,30 50,119 51,309 52,189
53,539 54,149 55,269 56,20
57,60 58,379 59,749 60,60
61,50 62,30 63,20 64,10
65,70 66,50 67,20 68,259
69,299 70,139 71,689 72,439
73,80 74,20 75,10 76,10
78,20 79,10 80,80 81,30
82,20 83,40 84,119 85,2779
86,479 87,179 88,70 89,10
92,10 96,20 97,119 98,179
99,109 100,90 101,10 110,10
111,90 112,9999 113,3799 114,709
115,189 116,10 124,50 125,169
126,40 127,10 141,10 142,20
143,3239 144,259 145,169 146,10
##END=
