##TITLE=Benzenamine, 2,4,5-trimethyl-
##JCAMP-DX=4.24
##DATA TYPE=MASS SPECTRUM
##ORIGIN=NIST Mass Spectrometry Data Center, 1998.
##OWNER=NIST Mass Spectrometry Data Center
Collection (C) 2014 copyright by the U.S. Secretary of Commerce
on behalf of the United States of America. All rights reserved.
##CAS REGISTRY NO=137-17-7
##$NIST MASS SPEC NO=291163
##MOLFORM=C9 H13 N
##MW=135
##$NIST SOURCE=MSDC
##XUNITS=M/Z
##YUNITS=RELATIVE INTENSITY
##XFACTOR=1
##YFACTOR=1
##FIRSTX=15
##LASTX=137
##FIRSTY=20
##MAXX=137
##MINX=15
##MAXY=9999
##MINY=10
##NPOINTS=83
##PEAK TABLE=(XY..XY)
15,20 26,20 27,160 29,40
30,40 37,20 38,90 39,610
40,100 41,330 42,250 43,20
44,10 45,10 46,20 49,10
50,150 51,410 52,280 53,320
54,210 55,40 56,20 58,160
59,110 61,30 62,100 63,280
64,100 65,680 66,310 67,180
73,10 74,60 75,70 76,80
77,880 78,280 79,490 80,230
81,50 82,10 85,10 86,20
87,30 88,10 89,150 90,100
91,1540 92,290 93,490 94,270
95,50 98,10 99,10 100,10
101,20 102,100 103,330 104,210
105,280 106,360 107,270 108,110
109,10 113,10 114,10 115,450
116,150 117,550 118,620 119,640
120,9999 121,950 122,40 130,100
131,40 132,320 133,200 134,5719
135,8279 136,840 137,40
##END=
