##TITLE=Sulfur tetrafluoride oxide
##JCAMP-DX=4.24
##DATA TYPE=MASS SPECTRUM
##OWNER=NIST Mass Spectrometry Data Center
Collection (C) 2014 copyright by the U.S. Secretary of Commerce
on behalf of the United States of America. All rights reserved.
##CAS REGISTRY NO=13709-54-1
##$NIST MASS SPEC NO=2416
##MOLFORM=F4 O S
##MW=124
##$NIST SOURCE=MSDC
##XUNITS=M/Z
##YUNITS=RELATIVE INTENSITY
##XFACTOR=1
##YFACTOR=1
##FIRSTX=16
##LASTX=124
##FIRSTY=120
##MAXX=124
##MINX=16
##MAXY=9999
##MINY=10
##NPOINTS=22
##PEAK TABLE=(XY..XY)
16,120 19,180 32,520 34,30
48,270 51,250 53,10 54,20
67,931 68,20 69,40 70,170
86,1261 87,20 88,60 89,370
91,20 105,9999 106,80 107,470
108,10 124,40
##END=
