##TITLE=Quinoxaline, 5-methyl-
##JCAMP-DX=4.24
##DATA TYPE=MASS SPECTRUM
##OWNER=NIST Mass Spectrometry Data Center
Collection (C) 2014 copyright by the U.S. Secretary of Commerce
on behalf of the United States of America. All rights reserved.
##CAS REGISTRY NO=13708-12-8
##$NIST MASS SPEC NO=4043
##MOLFORM=C9 H8 N2
##MW=144
##$NIST SOURCE=MSDC
##XUNITS=M/Z
##YUNITS=RELATIVE INTENSITY
##XFACTOR=1
##YFACTOR=1
##FIRSTX=26
##LASTX=145
##FIRSTY=80
##MAXX=145
##MINX=26
##MAXY=9999
##MINY=80
##NPOINTS=25
##PEAK TABLE=(XY..XY)
26,80 27,120 38,160 39,631
40,120 50,200 51,280 52,200
62,280 63,951 64,550 65,160
75,120 76,120 77,80 89,1611
90,2803 91,240 116,320 117,1341
118,200 142,240 143,2242 144,9999
145,1051
##END=
