##TITLE=Benzeneacetaldehyde, .alpha.-(phenylmethylene)-
##JCAMP-DX=4.24
##DATA TYPE=MASS SPECTRUM
##ORIGIN=Japan AIST/NIMC Database- Spectrum MS-NW-7862
##OWNER=NIST Mass Spectrometry Data Center
Collection (C) 2014 copyright by the U.S. Secretary of Commerce
on behalf of the United States of America. All rights reserved.
##CAS REGISTRY NO=13702-35-7
##$NIST MASS SPEC NO=238458
##MOLFORM=C15 H12 O
##MW=208
##$NIST SOURCE=MSDC
##XUNITS=M/Z
##YUNITS=RELATIVE INTENSITY
##XFACTOR=1
##YFACTOR=1
##FIRSTX=27
##LASTX=210
##FIRSTY=90
##MAXX=210
##MINX=27
##MAXY=9999
##MINY=10
##NPOINTS=121
##PEAK TABLE=(XY..XY)
27,90 28,60 29,60 30,20
38,20 39,299 40,20 41,20
42,80 43,50 50,279 51,1099
52,259 53,60 55,20 62,80
63,419 64,109 65,189 66,40
67,10 69,20 74,149 75,349
76,959 77,1409 78,429 79,139
80,10 81,30 82,149 83,30
84,50 86,30 87,119 88,299
89,919 90,70 91,119 92,10
93,10 94,60 95,60 96,10
98,30 99,40 100,30 101,109
102,3269 103,839 104,379 105,939
106,269 107,30 110,10 111,10
112,10 113,70 114,30 115,249
116,40 118,10 121,159 122,60
123,10 125,40 126,159 127,119
128,99 129,40 130,189 131,1039
132,159 133,10 134,989 135,209
136,10 137,20 138,40 139,209
140,40 141,20 148,10 149,30
150,199 151,549 152,939 153,179
154,30 155,20 162,99 163,1209
164,219 165,1159 166,199 167,209
168,30 174,50 175,99 176,1029
177,819 178,4409 179,3329 180,999
181,129 182,40 183,129 184,20
187,10 189,80 190,30 191,40
192,40 193,20 194,10 205,70
206,70 207,9999 208,9689 209,1489
210,139
##END=
