##TITLE=6S-2,3,8,8-Tetramethyltricyclo[5.2.2.0(1,6)]undec-2-ene
##JCAMP-DX=4.24
##DATA TYPE=MASS SPECTRUM
##ORIGIN=B. Derendyaev, Novosibirsk Institute of Organic Chemistry
##OWNER=NIST Mass Spectrometry Data Center
Collection (C) 2014 copyright by the U.S. Secretary of Commerce
on behalf of the United States of America. All rights reserved.
##CAS REGISTRY NO=137235-48-4
##$NIST MASS SPEC NO=140070
##MOLFORM=C15 H24
##MW=204
##$NIST SOURCE=MSDC
##XUNITS=M/Z
##YUNITS=RELATIVE INTENSITY
##XFACTOR=1
##YFACTOR=1
##FIRSTX=41
##LASTX=206
##FIRSTY=1109
##MAXX=206
##MINX=41
##MAXY=9999
##MINY=50
##NPOINTS=91
##PEAK TABLE=(XY..XY)
41,1109 43,1079 51,119 53,279
55,789 56,70 57,239 65,219
67,359 69,2079 70,70 71,209
72,60 77,539 78,119 79,609
80,90 81,349 82,70 83,279
85,99 91,1089 92,139 93,609
94,129 95,549 96,90 97,90
103,109 104,50 105,1639 106,429
107,949 108,309 109,489 110,99
115,169 116,70 117,279 118,70
119,2199 120,799 121,839 122,509
123,189 125,70 128,109 129,139
130,60 131,629 132,90 133,1219
134,349 135,419 136,149 137,109
143,60 145,339 146,159 147,1709
148,409 149,369 150,109 151,80
159,259 160,209 161,879 162,329
163,339 164,99 169,179 171,80
173,80 174,60 175,1189 176,229
177,199 178,50 179,70 181,279
187,109 189,9999 190,1489 191,189
192,60 193,60 202,80 203,199
204,2159 205,689 206,80
##END=
