##TITLE=Cyclohexanone, 2-(1-methylethylidene)-
##JCAMP-DX=4.24
##DATA TYPE=MASS SPECTRUM
##ORIGIN=CARL DJERASSI DEPT OF CHEM STANFORD UNIV STANFORD CALIF 94305
##OWNER=NIST Mass Spectrometry Data Center
Collection (C) 2014 copyright by the U.S. Secretary of Commerce
on behalf of the United States of America. All rights reserved.
##CAS REGISTRY NO=13747-73-4
##$NIST MASS SPEC NO=46560
##MOLFORM=C9 H14 O
##MW=138
##$NIST SOURCE=MSDC
##XUNITS=M/Z
##YUNITS=RELATIVE INTENSITY
##XFACTOR=1
##YFACTOR=1
##FIRSTX=32
##LASTX=140
##FIRSTY=100
##MAXX=140
##MINX=32
##MAXY=9999
##MINY=100
##NPOINTS=53
##PEAK TABLE=(XY..XY)
32,100 38,200 39,3500 40,900
41,4800 42,600 43,800 44,200
50,300 51,900 52,500 53,2100
54,800 55,1400 56,300 57,100
62,100 63,300 64,100 65,700
66,1600 67,9999 68,2300 69,2000
70,200 71,100 77,800 78,200
79,1300 80,300 81,2400 82,2900
83,400 91,500 92,100 93,500
94,200 95,7300 96,700 97,400
98,100 105,300 107,100 108,100
109,700 110,800 111,100 123,2900
124,300 137,100 138,9000 139,1000
140,100
##END=
