##TITLE=4,5-Pyrimidinediamine
##JCAMP-DX=4.24
##DATA TYPE=MASS SPECTRUM
##ORIGIN=Japan AIST/NIMC Database- Spectrum MS-IW-6884
##OWNER=NIST Mass Spectrometry Data Center
Collection (C) 2014 copyright by the U.S. Secretary of Commerce
on behalf of the United States of America. All rights reserved.
##CAS REGISTRY NO=13754-19-3
##$NIST MASS SPEC NO=242174
##MOLFORM=C4 H6 N4
##MW=110
##$NIST SOURCE=MSDC
##XUNITS=M/Z
##YUNITS=RELATIVE INTENSITY
##XFACTOR=1
##YFACTOR=1
##FIRSTX=14
##LASTX=112
##FIRSTY=10
##MAXX=112
##MINX=14
##MAXY=9999
##MINY=10
##NPOINTS=40
##PEAK TABLE=(XY..XY)
14,10 16,10 17,20 18,80
26,70 27,619 28,969 29,409
30,20 32,10 33,10 38,60
39,119 40,399 41,709 42,50
43,219 44,10 51,20 52,30
53,169 54,129 55,259 56,1789
57,50 65,20 66,409 67,519
68,50 81,10 82,80 83,2589
84,109 93,50 94,209 95,50
109,40 110,9999 111,659 112,10
##END=
