##TITLE=2-Acetylamino-3-amino-1,4-naphthoquinone
##JCAMP-DX=4.24
##DATA TYPE=MASS SPECTRUM
##ORIGIN=R.T. LOEFFLER,LONG ASHTON RES. STN.,LONG ASHTON,BRISTOL,U.K.
##OWNER=NIST Mass Spectrometry Data Center
Collection (C) 2014 copyright by the U.S. Secretary of Commerce
on behalf of the United States of America. All rights reserved.
##CAS REGISTRY NO=13755-96-9
##$NIST MASS SPEC NO=103074
##MOLFORM=C12 H10 N2 O3
##MW=230
##$NIST SOURCE=MSDC
##XUNITS=M/Z
##YUNITS=RELATIVE INTENSITY
##XFACTOR=1
##YFACTOR=1
##FIRSTX=39
##LASTX=231
##FIRSTY=155
##MAXX=231
##MINX=39
##MAXY=9999
##MINY=108
##NPOINTS=49
##PEAK TABLE=(XY..XY)
39,155 41,256 43,3784 44,708
45,239 50,371 51,625 55,287
56,114 57,324 58,234 63,110
68,115 69,158 71,125 73,108
75,291 76,1243 77,1826 78,250
83,111 88,189 89,353 99,117
102,142 103,492 104,1522 105,1622
106,141 114,147 115,565 116,155
130,188 131,128 132,593 133,1376
134,131 143,176 149,119 160,1405
161,2578 162,236 171,941 172,197
187,148 188,9999 189,1131 230,1968
231,255
##END=
