##TITLE=1H-Imidazole-2-carboxaldehyde, 1-methyl-
##JCAMP-DX=4.24
##DATA TYPE=MASS SPECTRUM
##ORIGIN=DC-25-5
##OWNER=NIST Mass Spectrometry Data Center
Collection (C) 2014 copyright by the U.S. Secretary of Commerce
on behalf of the United States of America. All rights reserved.
##CAS REGISTRY NO=13750-81-7
##$NIST MASS SPEC NO=1535
##MOLFORM=C5 H6 N2 O
##MW=110
##$NIST SOURCE=MSDC
##XUNITS=M/Z
##YUNITS=RELATIVE INTENSITY
##XFACTOR=1
##YFACTOR=1
##FIRSTX=37
##LASTX=111
##FIRSTY=200
##MAXX=111
##MINX=37
##MAXY=9999
##MINY=200
##NPOINTS=21
##PEAK TABLE=(XY..XY)
37,200 38,300 40,1201 41,1001
42,2002 51,200 52,701 53,500
54,2803 55,1201 56,1501 66,200
67,200 79,200 80,200 81,3503
82,5505 83,300 109,1501 110,9999
111,701
##END=
