##TITLE=Phosphoryl chloride difluoride
##JCAMP-DX=4.24
##DATA TYPE=MASS SPECTRUM
##OWNER=NIST Mass Spectrometry Data Center
Collection (C) 2014 copyright by the U.S. Secretary of Commerce
on behalf of the United States of America. All rights reserved.
##CAS REGISTRY NO=13769-75-0
##$NIST MASS SPEC NO=2194
##MOLFORM=Cl F2 O P
##MW=120
##$NIST SOURCE=MSDC
##XUNITS=M/Z
##YUNITS=RELATIVE INTENSITY
##XFACTOR=1
##YFACTOR=1
##FIRSTX=31
##LASTX=122
##FIRSTY=350
##MAXX=122
##MINX=31
##MAXY=9999
##MINY=20
##NPOINTS=17
##PEAK TABLE=(XY..XY)
31,350 32,20 35,330 37,100
38,40 42,30 44,30 47,540
50,530 52,50 66,470 69,1561
85,9999 101,1862 103,591 120,8077
122,2602
##END=
