##TITLE=Nitrogen fluoride, (E)-
##JCAMP-DX=4.24
##DATA TYPE=MASS SPECTRUM
##OWNER=NIST Mass Spectrometry Data Center
Collection (C) 2014 copyright by the U.S. Secretary of Commerce
on behalf of the United States of America. All rights reserved.
##CAS REGISTRY NO=13776-62-0
##$NIST MASS SPEC NO=201
##MOLFORM=F2 N2
##MW=66
##$NIST SOURCE=MSDC
##XUNITS=M/Z
##YUNITS=RELATIVE INTENSITY
##XFACTOR=1
##YFACTOR=1
##FIRSTX=14
##LASTX=66
##FIRSTY=2452
##MAXX=66
##MINX=14
##MAXY=9999
##MINY=10
##NPOINTS=9
##PEAK TABLE=(XY..XY)
14,2452 19,540 28,9999 29,80
33,1141 34,10 47,9709 48,70
66,2562
##END=
