##TITLE=3-Chloro-4-fluorophenyl isothiocyanate
##JCAMP-DX=4.24
##DATA TYPE=MASS SPECTRUM
##ORIGIN=NIST Mass Spectrometry Data Center, 1994
##OWNER=NIST Mass Spectrometry Data Center
Collection (C) 2014 copyright by the U.S. Secretary of Commerce
on behalf of the United States of America. All rights reserved.
##CAS REGISTRY NO=137724-66-4
##$NIST MASS SPEC NO=134514
##MOLFORM=C7 H3 Cl F N S
##MW=187
##$NIST SOURCE=MSDC
##XUNITS=M/Z
##YUNITS=RELATIVE INTENSITY
##XFACTOR=1
##YFACTOR=1
##FIRSTX=14
##LASTX=191
##FIRSTY=38
##MAXX=191
##MINX=14
##MAXY=9999
##MINY=22
##NPOINTS=113
##PEAK TABLE=(XY..XY)
14,38 25,32 26,113 28,93
31,899 32,432 33,114 34,32
35,110 36,125 37,498 38,324
39,131 44,637 45,281 46,47
47,85 48,46 49,290 50,959
51,277 52,94 55,105 56,492
57,716 58,322 59,51 60,198
61,618 62,619 63,678 64,160
65,22 67,191 68,840 69,625
70,721 71,114 72,167 73,373
74,1111 75,584 76,263 78,44
79,235 80,179 81,696 82,362
83,121 84,157 85,111 86,116
87,177 88,176 89,36 90,36
91,241 92,333 93,1715 94,1416
96,44 97,72 98,53 99,142
100,274 101,42 102,54 103,146
104,64 105,74 106,144 107,36
108,1071 109,1223 110,101 111,375
115,38 116,40 117,212 118,69
119,152 120,267 124,50 125,112
126,54 127,50 128,38 129,3567
130,307 131,1122 132,121 136,40
142,74 143,361 144,59 145,144
151,200 152,1303 153,128 154,65
155,709 156,68 157,203 160,349
161,45 162,126 167,112 169,43
187,9999 188,916 189,3545 190,327
191,163
##END=
