##TITLE=3-Thiopheneethanol
##JCAMP-DX=4.24
##DATA TYPE=MASS SPECTRUM
##ORIGIN=J.E. WILKINSON S-CUBED, SAN DIEGO, CA.
##OWNER=NIST Mass Spectrometry Data Center
Collection (C) 2014 copyright by the U.S. Secretary of Commerce
on behalf of the United States of America. All rights reserved.
##CAS REGISTRY NO=13781-67-4
##$NIST MASS SPEC NO=92242
##MOLFORM=C6 H8 O S
##MW=128
##$NIST SOURCE=MSDC
##XUNITS=M/Z
##YUNITS=RELATIVE INTENSITY
##XFACTOR=1
##YFACTOR=1
##FIRSTX=40
##LASTX=131
##FIRSTY=43
##MAXX=131
##MINX=40
##MAXY=9999
##MINY=1
##NPOINTS=66
##PEAK TABLE=(XY..XY)
40,43 41,53 42,31 43,86
45,1946 46,78 47,152 48,16
49,71 50,312 51,365 52,82
53,954 54,57 55,53 56,9
57,182 58,310 59,73 60,28
61,63 62,100 63,181 64,37
65,259 66,84 67,34 68,19
69,559 70,176 71,315 72,25
73,17 74,14 75,1 77,39
78,7 79,1 80,3 81,119
82,123 83,50 84,229 85,156
86,13 87,2 92,1 93,48
94,1 95,51 97,9999 98,1486
99,591 100,134 101,3 108,10
109,94 110,278 111,82 112,16
113,1 126,57 128,3358 129,247
130,164 131,1
##END=
