##TITLE=4-Chloroacetamidobenzophenone
##JCAMP-DX=4.24
##DATA TYPE=MASS SPECTRUM
##ORIGIN=Shen K. Yang, Dept. of Pharmacology., USUHS, Bethesda, MD 20814
##OWNER=NIST Mass Spectrometry Data Center
Collection (C) 2014 copyright by the U.S. Secretary of Commerce
on behalf of the United States of America. All rights reserved.
##CAS REGISTRY NO=13788-59-5
##$NIST MASS SPEC NO=214243
##MOLFORM=C15 H12 Cl N O2
##MW=273
##$NIST SOURCE=MSDC
##XUNITS=M/Z
##YUNITS=RELATIVE INTENSITY
##XFACTOR=1
##YFACTOR=1
##FIRSTX=42
##LASTX=277
##FIRSTY=984
##MAXX=277
##MINX=42
##MAXY=9999
##MINY=6
##NPOINTS=163
##PEAK TABLE=(XY..XY)
42,984 43,9999 44,257 45,41
47,654 48,272 49,312 50,837
51,3778 52,553 53,254 54,34
55,56 56,18 57,62 59,13
60,14 61,122 62,487 63,1436
64,283 65,175 66,7 67,46
68,15 69,81 70,88 71,50
72,69 73,262 74,303 75,447
76,390 77,5685 78,449 79,35
80,8 81,12 82,9 83,128
84,147 86,121 87,153 88,363
89,282 90,629 91,279 92,47
93,17 95,10 97,120 98,250
99,625 100,146 101,175 102,74
103,24 104,9 105,2332 106,161
107,17 108,7 109,17 110,53
111,79 112,47 113,133 114,95
115,143 116,38 117,22 118,11
119,14 120,6 121,7 122,13
123,30 124,376 125,223 126,1020
127,150 128,197 129,25 130,20
132,10 133,11 134,6 136,26
137,43 138,69 139,473 140,265
141,73 142,11 147,8 148,12
149,88 150,106 151,152 152,139
153,14 154,1202 155,96 156,284
157,24 160,9 161,9 162,10
163,22 164,77 165,7 166,627
167,644 168,518 169,48 170,141
171,11 173,16 174,49 175,18
176,12 177,47 178,51 179,23
180,124 182,34 185,6 186,22
188,18 194,60 195,562 196,254
197,28 198,20 200,14 201,200
202,164 203,122 204,71 205,18
213,14 214,362 215,55 216,125
217,12 228,7 229,86 230,6328
231,3950 232,2807 233,1482 234,152
235,10 238,11 244,13 256,9
258,20 260,11 273,1170 274,203
275,405 276,66 277,7
##END=
