##TITLE=2-Phenoxybutyric acid
##JCAMP-DX=4.24
##DATA TYPE=MASS SPECTRUM
##ORIGIN=NIST Mass Spectrometry Data Center, 1994
##OWNER=NIST Mass Spectrometry Data Center
Collection (C) 2014 copyright by the U.S. Secretary of Commerce
on behalf of the United States of America. All rights reserved.
##CAS REGISTRY NO=13794-14-4
##$NIST MASS SPEC NO=134275
##MOLFORM=C10 H12 O3
##MW=180
##$NIST SOURCE=MSDC
##XUNITS=M/Z
##YUNITS=RELATIVE INTENSITY
##XFACTOR=1
##YFACTOR=1
##FIRSTX=15
##LASTX=182
##FIRSTY=256
##MAXX=182
##MINX=15
##MAXY=9999
##MINY=8
##NPOINTS=74
##PEAK TABLE=(XY..XY)
15,256 19,44 26,264 27,1297
29,702 30,35 31,219 37,132
38,516 39,2718 40,376 41,1403
42,168 43,364 44,35 45,1564
46,50 47,13 50,530 51,1757
52,159 53,102 54,13 55,328
56,19 57,87 58,20 59,89
60,14 61,39 62,145 63,430
64,13 65,1568 66,1477 67,113
68,96 69,337 70,26 73,29
74,129 75,91 76,14 77,2458
78,306 79,420 80,27 81,10
87,57 91,336 92,104 94,9999
95,1076 96,74 103,22 105,111
107,1678 108,149 109,12 115,71
116,13 117,18 119,54 120,23
121,16 123,18 133,53 135,3741
136,404 137,27 152,8 180,3802
181,408 182,44
##END=
