##TITLE=1-Cyclohexene-1-carboxaldehyde, 4-(1-methylethenyl)-, oxime
##JCAMP-DX=4.24
##DATA TYPE=MASS SPECTRUM
##ORIGIN=Japan AIST/NIMC Database- Spectrum MS-IW-2515
##OWNER=NIST Mass Spectrometry Data Center
Collection (C) 2014 copyright by the U.S. Secretary of Commerce
on behalf of the United States of America. All rights reserved.
##CAS REGISTRY NO=138-91-0
##$NIST MASS SPEC NO=243403
##MOLFORM=C10 H15 N O
##MW=165
##$NIST SOURCE=MSDC
##XUNITS=M/Z
##YUNITS=RELATIVE INTENSITY
##XFACTOR=1
##YFACTOR=1
##FIRSTX=15
##LASTX=167
##FIRSTY=30
##MAXX=167
##MINX=15
##MAXY=9999
##MINY=10
##NPOINTS=126
##PEAK TABLE=(XY..XY)
15,30 16,10 17,20 18,109
26,60 27,1119 28,699 29,539
30,449 31,70 37,40 38,139
39,2209 40,799 41,2589 42,619
43,559 44,169 45,40 46,129
49,10 50,269 51,909 52,679
53,3219 54,499 55,1489 56,769
57,109 58,99 59,70 60,30
61,30 62,80 63,289 64,159
65,1179 66,659 67,5209 68,9999
69,1439 70,289 71,60 72,229
73,90 74,80 75,109 76,119
77,2219 78,959 79,2549 80,2449
81,1359 82,469 83,149 84,189
85,119 86,60 87,20 88,10
89,119 90,80 91,2559 92,959
93,1779 94,1269 95,679 96,3709
97,529 98,399 99,30 100,10
101,20 102,90 103,459 104,1279
105,3099 106,2349 107,1039 108,479
109,1909 110,1599 111,169 112,50
113,10 114,10 115,259 116,389
117,689 118,769 119,759 120,1409
121,809 122,1589 123,899 124,1039
125,90 127,20 128,50 129,139
130,239 131,1719 132,1289 133,1169
134,319 135,80 136,399 137,269
138,279 139,20 141,10 142,10
143,30 144,70 145,50 146,549
147,679 148,7809 149,979 150,559
151,50 163,10 164,129 165,1989
166,239 167,20
##END=
