##TITLE=Benzamide, N-[[4-[2-(dimethylamino)ethoxy]phenyl]methyl]-3,4,5-trimethoxy-
##JCAMP-DX=4.24
##DATA TYPE=MASS SPECTRUM
##ORIGIN=Patti Price, Georgia Bureau of Investigation, Decatur, Georgia
##OWNER=NIST Mass Spectrometry Data Center
Collection (C) 2014 copyright by the U.S. Secretary of Commerce
on behalf of the United States of America. All rights reserved.
##CAS REGISTRY NO=138-56-7
##$NIST MASS SPEC NO=248162
##MOLFORM=C21 H28 N2 O5
##MW=388
##$NIST SOURCE=MSDC
##XUNITS=M/Z
##YUNITS=RELATIVE INTENSITY
##XFACTOR=1
##YFACTOR=1
##FIRSTX=30
##LASTX=390
##FIRSTY=200
##MAXX=390
##MINX=30
##MAXY=9999
##MINY=10
##NPOINTS=162
##PEAK TABLE=(XY..XY)
30,200 35,10 38,30 39,60
40,10 41,70 42,820 43,280
44,320 45,30 47,10 50,60
51,90 52,50 53,170 54,50
55,90 56,450 57,210 58,9999
59,410 60,10 61,10 62,20
63,150 64,60 65,220 66,380
67,240 68,50 69,70 70,240
71,330 72,590 73,40 74,20
75,50 76,140 77,520 78,270
79,250 80,70 81,420 82,110
83,40 84,10 85,30 86,10
87,10 89,730 90,370 91,510
92,260 93,300 94,120 95,220
96,160 97,40 98,10 99,10
101,10 102,10 103,40 104,110
105,110 106,140 107,330 108,150
109,380 110,180 111,60 112,10
113,10 115,20 116,10 117,10
118,20 119,140 120,110 121,290
122,330 123,180 124,180 125,170
126,20 127,20 128,20 129,10
131,20 132,40 133,140 134,100
135,70 136,60 137,370 138,130
139,190 140,60 141,20 143,10
144,10 145,30 146,10 147,10
148,70 149,70 150,100 151,130
152,370 153,510 154,250 155,50
160,10 161,10 162,30 163,30
164,20 165,40 166,30 167,260
168,250 169,70 171,10 175,10
176,100 177,20 178,20 179,70
180,40 181,380 182,90 183,30
184,10 193,20 194,60 195,1751
196,310 197,40 198,10 199,10
208,10 210,10 211,20 212,20
222,10 225,10 239,10 262,10
265,10 301,10 302,40 315,100
316,220 317,110 318,20 330,70
331,40 357,10 387,20 388,670
389,200 390,30
##END=
