##TITLE=Shikimic acid
##JCAMP-DX=4.24
##DATA TYPE=MASS SPECTRUM
##ORIGIN=Japan AIST/NIMC Database- Spectrum MS-NW-2376
##OWNER=NIST Mass Spectrometry Data Center
Collection (C) 2014 copyright by the U.S. Secretary of Commerce
on behalf of the United States of America. All rights reserved.
##CAS REGISTRY NO=138-59-0
##$NIST MASS SPEC NO=234183
##MOLFORM=C7 H10 O5
##MW=174
##$NIST SOURCE=MSDC
##XUNITS=M/Z
##YUNITS=RELATIVE INTENSITY
##XFACTOR=1
##YFACTOR=1
##FIRSTX=12
##LASTX=174
##FIRSTY=20
##MAXX=174
##MINX=12
##MAXY=9999
##MINY=10
##NPOINTS=129
##PEAK TABLE=(XY..XY)
12,20 14,70 15,339 16,80
17,679 18,3229 19,299 25,40
26,229 27,1899 28,779 29,1719
30,219 31,1089 32,60 33,10
36,20 37,249 38,559 39,3379
40,1119 41,4129 42,989 43,1209
44,999 45,609 46,90 47,499
48,20 49,90 50,469 51,949
52,339 53,2539 54,789 55,1239
56,279 57,349 58,159 59,60
60,9579 61,379 62,219 63,449
64,319 65,1349 66,1189 67,559
68,1979 69,4679 70,379 71,639
72,70 73,479 74,119 75,60
76,70 77,629 78,159 79,109
80,90 81,1769 82,1999 83,879
84,889 85,149 86,80 87,50
88,10 89,239 90,10 91,40
92,259 93,599 94,1069 95,289
96,2359 97,9999 98,689 99,339
100,229 101,50 102,159 103,10
104,20 105,749 106,70 107,20
108,70 109,1159 110,2759 111,1259
112,779 113,439 114,1189 115,3449
116,209 117,30 119,90 120,109
121,1259 122,809 123,70 124,10
125,399 126,719 127,819 128,449
129,99 130,30 131,10 135,10
136,10 137,159 138,3699 139,419
140,90 141,30 143,20 145,10
149,10 153,10 154,109 155,50
156,1919 157,189 158,30 170,10
174,60
##END=
