##TITLE=Mafenide
##JCAMP-DX=4.24
##DATA TYPE=MASS SPECTRUM
##ORIGIN=Japan AIST/NIMC Database- Spectrum MS-NW-3178
##OWNER=NIST Mass Spectrometry Data Center
Collection (C) 2014 copyright by the U.S. Secretary of Commerce
on behalf of the United States of America. All rights reserved.
##CAS REGISTRY NO=138-39-6
##$NIST MASS SPEC NO=231471
##MOLFORM=C7 H10 N2 O2 S
##MW=186
##$NIST SOURCE=MSDC
##XUNITS=M/Z
##YUNITS=RELATIVE INTENSITY
##XFACTOR=1
##YFACTOR=1
##FIRSTX=15
##LASTX=188
##FIRSTY=10
##MAXX=188
##MINX=15
##MAXY=9999
##MINY=10
##NPOINTS=131
##PEAK TABLE=(XY..XY)
15,10 16,109 17,119 18,70
26,50 27,309 28,1219 29,319
30,3669 31,30 32,80 33,30
34,80 39,389 40,50 41,129
42,40 43,40 44,50 45,60
46,389 47,40 48,139 49,40
50,649 51,789 52,349 53,149
54,149 55,50 56,20 57,50
58,10 59,10 60,10 61,60
62,139 63,499 64,289 65,229
66,129 67,119 68,30 69,70
70,20 71,30 73,40 74,219
75,269 76,669 77,2899 78,969
79,949 80,119 81,30 82,20
83,30 84,20 85,20 86,30
87,30 88,20 89,1659 90,239
91,209 92,99 93,299 94,249
95,339 96,40 97,30 99,20
102,60 103,339 104,1929 105,3029
106,9999 107,1149 108,90 109,129
110,60 111,20 116,10 117,20
118,179 119,80 120,139 121,129
122,349 123,60 124,40 125,80
126,20 127,30 128,20 129,10
134,50 135,159 136,70 137,70
138,40 139,40 140,50 141,1049
142,80 143,50 149,10 150,40
151,10 152,80 153,70 154,30
155,10 157,10 158,569 159,50
160,30 165,10 166,20 167,20
168,149 169,30 170,80 171,20
182,10 183,70 184,70 185,2429
186,359 187,149 188,10
##END=
