##TITLE=Carzenide
##JCAMP-DX=4.24
##DATA TYPE=MASS SPECTRUM
##ORIGIN=RADIAN CORP
##OWNER=NIST Mass Spectrometry Data Center
Collection (C) 2014 copyright by the U.S. Secretary of Commerce
on behalf of the United States of America. All rights reserved.
##CAS REGISTRY NO=138-41-0
##$NIST MASS SPEC NO=76407
##MOLFORM=C7 H7 N O4 S
##MW=201
##$NIST SOURCE=MSDC
##XUNITS=M/Z
##YUNITS=RELATIVE INTENSITY
##XFACTOR=1
##YFACTOR=1
##FIRSTX=15
##LASTX=204
##FIRSTY=10
##MAXX=204
##MINX=15
##MAXY=9999
##MINY=10
##NPOINTS=130
##PEAK TABLE=(XY..XY)
15,10 16,210 17,80 18,140
26,40 27,220 29,140 30,70
31,30 32,170 35,40 36,130
37,150 38,460 39,1770 40,90
41,140 42,70 43,170 44,840
45,1600 46,340 47,130 48,740
49,210 50,3830 51,2140 52,290
53,830 54,40 55,20 56,40
57,120 58,50 59,20 60,50
61,160 62,410 63,1030 64,2430
65,9970 66,830 67,120 68,50
69,310 70,160 71,100 72,30
73,390 74,2360 75,3210 76,3080
77,570 78,80 79,110 80,1450
81,480 82,210 83,80 84,60
85,100 86,40 87,50 88,30
89,70 90,160 91,540 92,770
93,1500 94,130 95,160 96,90
97,90 98,30 99,20 101,30
102,80 103,890 104,810 105,190
106,70 107,160 108,320 109,270
110,100 111,90 112,20 113,110
114,110 115,40 117,10 118,50
119,290 120,1680 121,9999 122,820
123,110 124,80 125,40 126,20
128,20 129,20 136,30 137,8450
138,3350 139,580 140,100 141,90
142,130 143,20 149,100 150,20
152,40 153,20 155,130 156,90
157,20 169,80 170,120 171,140
181,40 184,300 185,2840 186,260
187,160 188,60 201,5340 202,500
203,300 204,20
##END=
