##TITLE=Cyclohexanol, 1-methyl-4-(1-methylethenyl)-
##JCAMP-DX=4.24
##DATA TYPE=MASS SPECTRUM
##ORIGIN=G.BRAMMER,UNIVERSITY OF TEXAS
##OWNER=NIST Mass Spectrometry Data Center
Collection (C) 2014 copyright by the U.S. Secretary of Commerce
on behalf of the United States of America. All rights reserved.
##CAS REGISTRY NO=138-87-4
##$NIST MASS SPEC NO=43961
##MOLFORM=C10 H18 O
##MW=154
##$NIST SOURCE=MSDC
##XUNITS=M/Z
##YUNITS=RELATIVE INTENSITY
##XFACTOR=1
##YFACTOR=1
##FIRSTX=25
##LASTX=154
##FIRSTY=11
##MAXX=154
##MINX=25
##MAXY=9999
##MINY=4
##NPOINTS=125
##PEAK TABLE=(XY..XY)
25,11 26,126 27,586 29,691
30,66 31,264 33,16 34,25
35,16 36,20 37,48 38,39
39,1473 41,2137 42,411 43,4988
45,227 46,29 47,16 48,6
49,75 50,149 51,213 52,121
53,1363 54,333 55,2321 56,590
57,393 58,1514 59,218 60,43
61,34 62,236 63,135 64,39
65,301 66,200 67,1908 68,3241
69,4482 70,337 71,9999 72,494
73,144 74,39 75,48 76,45
77,413 78,206 79,1724 80,1048
81,2183 82,450 83,1770 84,2459
85,308 86,114 87,50 88,18
89,68 90,73 91,583 92,1816
93,5264 94,3333 95,1586 96,473
97,560 98,78 99,45 100,22
101,18 102,13 103,45 104,41
105,252 106,101 107,3701 108,2229
109,243 110,87 111,1402 112,220
113,68 114,32 115,13 116,27
117,68 118,22 119,87 120,73
121,3793 122,556 123,206 124,45
125,101 126,225 127,50 128,22
129,18 130,32 131,36 132,22
133,22 134,18 135,64 136,5034
137,648 138,68 139,754 140,87
141,9 143,4 144,4 145,9
146,13 147,4 148,9 149,4
150,9 151,9 152,9 153,32
154,197
##END=
