##TITLE=Butyl lactate
##JCAMP-DX=4.24
##DATA TYPE=MASS SPECTRUM
##ORIGIN=Japan AIST/NIMC Database- Spectrum MS-NW- 98
##OWNER=NIST Mass Spectrometry Data Center
Collection (C) 2014 copyright by the U.S. Secretary of Commerce
on behalf of the United States of America. All rights reserved.
##CAS REGISTRY NO=138-22-7
##$NIST MASS SPEC NO=229810
##MOLFORM=C7 H14 O3
##MW=146
##$NIST SOURCE=MSDC
##XUNITS=M/Z
##YUNITS=RELATIVE INTENSITY
##XFACTOR=1
##YFACTOR=1
##FIRSTX=14
##LASTX=145
##FIRSTY=10
##MAXX=145
##MINX=14
##MAXY=9999
##MINY=10
##NPOINTS=64
##PEAK TABLE=(XY..XY)
14,10 15,119 17,20 18,80
19,10 26,90 27,969 28,349
29,1639 30,50 31,729 32,80
33,60 37,10 38,30 39,419
40,70 41,2489 42,369 43,1279
44,209 45,9999 46,229 47,20
50,10 51,30 53,30 54,20
55,519 56,2399 57,2849 58,119
59,30 60,10 61,80 63,60
65,20 69,10 71,50 72,30
73,149 74,109 75,499 77,40
83,10 85,639 86,40 87,99
88,20 89,90 90,40 91,149
94,60 95,10 97,10 100,10
101,159 102,99 103,30 115,60
117,10 130,50 131,20 145,20
##END=
