##TITLE=Benzonitrile, 4-(1-methylethyl)-
##JCAMP-DX=4.24
##DATA TYPE=MASS SPECTRUM
##ORIGIN=NIST Mass Spectrometry Data Center
##OWNER=NIST Mass Spectrometry Data Center
Collection (C) 2014 copyright by the U.S. Secretary of Commerce
on behalf of the United States of America. All rights reserved.
##CAS REGISTRY NO=13816-33-6
##$NIST MASS SPEC NO=342739
##MOLFORM=C10 H11 N
##MW=145
##$NIST SOURCE=MSDC
##XUNITS=M/Z
##YUNITS=RELATIVE INTENSITY
##XFACTOR=1
##YFACTOR=1
##FIRSTX=13
##LASTX=147
##FIRSTY=10
##MAXX=147
##MINX=13
##MAXY=9999
##MINY=10
##NPOINTS=73
##PEAK TABLE=(XY..XY)
13,10 14,70 15,801 16,30
17,10 18,10 26,210 27,1371
28,260 29,40 37,130 38,240
39,1241 40,120 41,460 42,70
43,60 50,731 51,1031 52,370
53,100 54,10 57,30 58,20
61,90 62,260 63,530 64,260
65,160 66,20 71,60 72,10
73,40 74,270 75,701 76,691
77,1211 78,190 79,30 85,20
86,40 87,100 88,100 89,330
90,100 91,60 98,30 99,80
100,110 101,350 102,661 103,2482
104,921 105,80 111,10 112,10
113,30 114,60 115,140 116,460
117,70 118,20 127,110 128,330
130,9999 131,1041 132,40 140,40
142,20 143,20 145,2262 146,260
147,10
##END=
