##TITLE=Rhenium, pentacarbonyliodo-
##JCAMP-DX=4.24
##DATA TYPE=MASS SPECTRUM
##ORIGIN=B.F.G.JOHNSON DEPT. OF CHEM., UNIV. OF MANCHESTER, UK
##OWNER=NIST Mass Spectrometry Data Center
Collection (C) 2014 copyright by the U.S. Secretary of Commerce
on behalf of the United States of America. All rights reserved.
##CAS REGISTRY NO=13821-00-6
##$NIST MASS SPEC NO=17737
##MOLFORM=C5 I O5 Re
##MW=454
##$NIST SOURCE=MSDC
##XUNITS=M/Z
##YUNITS=RELATIVE INTENSITY
##XFACTOR=1
##YFACTOR=1
##FIRSTX=199
##LASTX=454
##FIRSTY=2000
##MAXX=454
##MINX=199
##MAXY=9999
##MINY=120
##NPOINTS=14
##PEAK TABLE=(XY..XY)
199,2000 215,450 227,120 243,330
255,330 271,740 299,480 314,9999
327,1200 342,1890 370,2190 398,2450
426,1830 454,1230
##END=
