##TITLE=Trifluoroamine oxide
##JCAMP-DX=4.24
##DATA TYPE=MASS SPECTRUM
##ORIGIN=W.B.FOX, ALLIED CHEM. CORP., MORRISTOWN, N.J., USA
##OWNER=NIST Mass Spectrometry Data Center
Collection (C) 2014 copyright by the U.S. Secretary of Commerce
on behalf of the United States of America. All rights reserved.
##CAS REGISTRY NO=13847-65-9
##$NIST MASS SPEC NO=650
##MOLFORM=F3 N O
##MW=87
##$NIST SOURCE=MSDC
##XUNITS=M/Z
##YUNITS=RELATIVE INTENSITY
##XFACTOR=1
##YFACTOR=1
##FIRSTX=14
##LASTX=87
##FIRSTY=1250
##MAXX=87
##MINX=14
##MAXY=9999
##MINY=20
##NPOINTS=9
##PEAK TABLE=(XY..XY)
14,1250 16,370 19,980 30,9999
33,410 49,160 52,130 68,7810
87,20
##END=
