##TITLE=4-Pyridinecarboxylic acid, butyl ester
##JCAMP-DX=4.24
##DATA TYPE=MASS SPECTRUM
##ORIGIN=Japan AIST/NIMC Database- Spectrum MS-NW-5824
##OWNER=NIST Mass Spectrometry Data Center
Collection (C) 2014 copyright by the U.S. Secretary of Commerce
on behalf of the United States of America. All rights reserved.
##CAS REGISTRY NO=13841-66-2
##$NIST MASS SPEC NO=234818
##MOLFORM=C10 H13 N O2
##MW=179
##$NIST SOURCE=MSDC
##XUNITS=M/Z
##YUNITS=RELATIVE INTENSITY
##XFACTOR=1
##YFACTOR=1
##FIRSTX=14
##LASTX=180
##FIRSTY=20
##MAXX=180
##MINX=14
##MAXY=9999
##MINY=10
##NPOINTS=96
##PEAK TABLE=(XY..XY)
14,20 15,80 16,10 17,10
18,30 25,10 26,179 27,1019
28,449 29,2149 30,50 31,179
32,50 33,10 37,40 38,99
39,589 40,129 41,2699 42,139
43,409 44,99 45,40 49,80
50,899 51,3799 52,459 53,119
54,50 55,869 56,6429 57,639
58,20 62,10 63,10 64,10
65,10 66,30 67,30 68,20
69,10 70,20 71,20 72,20
73,90 74,10 75,50 76,90
77,159 78,5599 79,849 80,269
81,20 91,10 92,10 93,30
94,40 95,40 96,70 97,10
101,40 104,10 105,169 106,9999
107,769 108,70 109,10 119,10
120,10 121,70 122,30 123,3559
124,8079 125,579 126,60 132,20
133,10 134,40 135,30 136,99
137,1199 138,109 139,10 146,10
148,10 149,10 150,469 151,429
152,40 164,1219 165,149 166,10
177,10 178,809 179,489 180,60
##END=
