##TITLE=7H-Furo[3,2-g][1]benzopyran-7-one, 2,3-dihydro-2-(1-hydroxy-1-methylethyl)-, (S)-
##JCAMP-DX=4.24
##DATA TYPE=MASS SPECTRUM
##ORIGIN=T.HIGA DEPT. CHEM., UNIV. OF HAWAII, HONOLULU, HAWAII, USA
##OWNER=NIST Mass Spectrometry Data Center
Collection (C) 2014 copyright by the U.S. Secretary of Commerce
on behalf of the United States of America. All rights reserved.
##CAS REGISTRY NO=13849-08-6
##$NIST MASS SPEC NO=68675
##MOLFORM=C14 H14 O4
##MW=246
##$NIST SOURCE=MSDC
##XUNITS=M/Z
##YUNITS=RELATIVE INTENSITY
##XFACTOR=1
##YFACTOR=1
##FIRSTX=43
##LASTX=247
##FIRSTY=2000
##MAXX=247
##MINX=43
##MAXY=9999
##MINY=400
##NPOINTS=26
##PEAK TABLE=(XY..XY)
43,2000 51,900 59,4000 69,800
77,1000 103,750 104,500 115,400
131,1600 147,550 149,550 158,550
159,1100 160,2700 175,1600 176,750
187,9999 188,8400 189,1400 213,2150
228,550 229,3100 230,550 244,1100
246,5300 247,1100
##END=
