##TITLE=Z-7-Decen-1-yl acetate
##JCAMP-DX=4.24
##DATA TYPE=MASS SPECTRUM
##ORIGIN=NIST Mass Spectrometry Data Center, 1998.
##OWNER=NIST Mass Spectrometry Data Center
Collection (C) 2014 copyright by the U.S. Secretary of Commerce
on behalf of the United States of America. All rights reserved.
##CAS REGISTRY NO=13857-03-9
##$NIST MASS SPEC NO=291618
##MOLFORM=C12 H22 O2
##MW=198
##$NIST SOURCE=MSDC
##XUNITS=M/Z
##YUNITS=RELATIVE INTENSITY
##XFACTOR=1
##YFACTOR=1
##FIRSTX=14
##LASTX=155
##FIRSTY=20
##MAXX=155
##MINX=14
##MAXY=9999
##MINY=10
##NPOINTS=84
##PEAK TABLE=(XY..XY)
14,20 15,160 26,50 27,730
28,220 29,970 30,40 31,100
37,10 38,50 39,1710 40,360
41,6869 42,1250 43,9999 44,310
45,90 50,60 51,190 52,130
53,1250 54,3150 55,5709 56,870
57,350 58,60 59,30 60,20
61,850 62,30 63,40 64,10
65,330 66,540 67,9879 68,7579
69,3010 70,390 71,240 72,50
73,240 74,10 77,250 78,60
79,780 80,280 81,5419 82,7509
83,1230 84,130 85,60 86,80
87,50 88,10 91,120 92,20
93,240 94,170 95,4220 96,3190
97,490 98,60 99,20 100,30
101,20 105,20 107,70 108,80
109,2930 110,1150 111,130 112,20
113,10 115,10 121,20 123,150
124,20 125,20 136,10 137,40
138,2010 139,220 140,10 155,10
##END=
