##TITLE=1H-Pyrazolo[4,3-d]pyrimidin-7-amine
##JCAMP-DX=4.24
##DATA TYPE=MASS SPECTRUM
##OWNER=NIST Mass Spectrometry Data Center
Collection (C) 2014 copyright by the U.S. Secretary of Commerce
on behalf of the United States of America. All rights reserved.
##CAS REGISTRY NO=13877-56-0
##$NIST MASS SPEC NO=3292
##MOLFORM=C5 H5 N5
##MW=135
##$NIST SOURCE=MSDC
##XUNITS=M/Z
##YUNITS=RELATIVE INTENSITY
##XFACTOR=1
##YFACTOR=1
##FIRSTX=27
##LASTX=136
##FIRSTY=730
##MAXX=136
##MINX=27
##MAXY=9999
##MINY=160
##NPOINTS=31
##PEAK TABLE=(XY..XY)
27,730 28,330 29,410 37,230
38,470 39,580 40,230 42,270
43,1100 51,250 52,540 53,1760
54,3300 55,700 56,540 64,450
65,270 66,1510 78,190 80,240
81,1670 82,160 92,160 93,620
94,160 107,220 108,810 119,240
134,220 135,9999 136,1050
##END=
