##TITLE=S-Methyl methanethiosulfinate
##JCAMP-DX=4.24
##DATA TYPE=MASS SPECTRUM
##ORIGIN=J. MADSEN,DEP. ORG. CHEM.,TECH. UNIV. DENMARK,LYNGBY,DENMARK
##OWNER=NIST Mass Spectrometry Data Center
Collection (C) 2014 copyright by the U.S. Secretary of Commerce
on behalf of the United States of America. All rights reserved.
##CAS REGISTRY NO=13882-12-7
##$NIST MASS SPEC NO=99483
##MOLFORM=C2 H6 O S2
##MW=110
##$NIST SOURCE=MSDC
##XUNITS=M/Z
##YUNITS=RELATIVE INTENSITY
##XFACTOR=1
##YFACTOR=1
##FIRSTX=28
##LASTX=112
##FIRSTY=450
##MAXX=112
##MINX=28
##MAXY=9999
##MINY=140
##NPOINTS=28
##PEAK TABLE=(XY..XY)
28,450 29,840 31,350 32,3900
33,140 34,210 40,1680 44,290
45,4610 46,2190 47,7350 48,550
49,380 61,250 62,400 63,2590
64,9999 65,360 66,490 77,330
79,420 80,140 94,210 95,3820
97,350 110,6090 111,250 112,570
##END=
