##TITLE=Diphenyl sulfide
##JCAMP-DX=4.24
##DATA TYPE=MASS SPECTRUM
##ORIGIN=Japan AIST/NIMC Database- Spectrum MS-IW-5634
##OWNER=NIST Mass Spectrometry Data Center
Collection (C) 2014 copyright by the U.S. Secretary of Commerce
on behalf of the United States of America. All rights reserved.
##CAS REGISTRY NO=139-66-2
##$NIST MASS SPEC NO=229014
##MOLFORM=C12 H10 S
##MW=186
##$NIST SOURCE=MSDC
##XUNITS=M/Z
##YUNITS=RELATIVE INTENSITY
##XFACTOR=1
##YFACTOR=1
##FIRSTX=27
##LASTX=189
##FIRSTY=70
##MAXX=189
##MINX=27
##MAXY=9999
##MINY=10
##NPOINTS=97
##PEAK TABLE=(XY..XY)
27,70 28,10 32,10 37,10
38,40 39,299 40,10 44,10
45,119 49,10 50,249 51,1139
52,70 57,20 58,70 59,20
61,10 62,40 63,139 64,20
65,539 66,129 67,40 69,329
70,20 71,40 73,10 74,99
75,99 76,119 77,959 78,80
79,209 80,159 81,40 82,99
83,40 84,99 85,20 86,10
87,10 89,50 90,10 91,60
92,759 93,309 94,10 95,10
101,10 102,139 103,20 107,10
108,159 109,419 110,129 111,30
113,20 114,30 115,229 116,30
121,70 126,30 127,70 128,70
129,20 134,30 138,10 139,189
140,40 141,249 142,139 143,10
145,20 146,10 147,50 150,30
151,119 152,719 153,419 154,269
155,30 158,40 159,20 160,80
161,10 170,10 171,429 172,50
173,20 182,10 183,159 184,2579
185,6599 186,9999 187,1619 188,519
189,60
##END=
