##TITLE=Semustine
##JCAMP-DX=4.24
##DATA TYPE=MASS SPECTRUM
##ORIGIN=Chemical Sci. & Tec. Lab., NIST, Gaithersburg, MD 20899
##OWNER=NIST Mass Spectrometry Data Center
Collection (C) 2014 copyright by the U.S. Secretary of Commerce
on behalf of the United States of America. All rights reserved.
##CAS REGISTRY NO=13909-09-6
##$NIST MASS SPEC NO=254343
##MOLFORM=C10 H18 Cl N3 O2
##MW=247
##$NIST SOURCE=MSDC
##XUNITS=M/Z
##YUNITS=RELATIVE INTENSITY
##XFACTOR=1
##YFACTOR=1
##FIRSTX=41
##LASTX=249
##FIRSTY=965
##MAXX=249
##MINX=41
##MAXY=9999
##MINY=6
##NPOINTS=89
##PEAK TABLE=(XY..XY)
41,965 42,355 43,719 44,227
45,30 46,26 47,51 48,36
49,42 51,17 52,9 53,167
54,352 55,6176 56,665 57,175
58,13 59,164 60,39 61,21
62,42 63,254 64,11 65,112
66,21 67,209 68,155 69,615
70,127 71,31 73,238 74,8
76,7 77,58 78,82 79,80
80,70 81,281 82,129 83,91
84,29 85,95 86,20 87,17
88,38 89,13 91,30 93,59
94,45 95,313 97,9999 98,616
99,33 104,16 105,14 106,19
108,416 109,169 110,145 111,111
112,65 113,6 114,11 118,33
119,6 121,8 123,54 124,13
125,23 127,18 132,21 133,6
135,6 137,6 138,57 140,1731
141,158 142,6 147,15 149,12
161,24 163,24 167,18 205,7
217,6 246,49 247,58 248,16
249,19
##END=
