##TITLE=Urea, N-(2-chloroethyl)-N'-(2,6-dioxo-3-piperidinyl)-N-nitroso-
##JCAMP-DX=4.24
##DATA TYPE=MASS SPECTRUM
##ORIGIN=OGDEN BioServices Corp., NCI, Rockville, MD 20852
##OWNER=NIST Mass Spectrometry Data Center
Collection (C) 2014 copyright by the U.S. Secretary of Commerce
on behalf of the United States of America. All rights reserved.
##CAS REGISTRY NO=13909-02-9
##$NIST MASS SPEC NO=131594
##MOLFORM=C8 H11 Cl N4 O4
##MW=262
##$NIST SOURCE=MSDC
##XUNITS=M/Z
##YUNITS=RELATIVE INTENSITY
##XFACTOR=1
##YFACTOR=1
##FIRSTX=41
##LASTX=264
##FIRSTY=2004
##MAXX=264
##MINX=41
##MAXY=9999
##MINY=3
##NPOINTS=164
##PEAK TABLE=(XY..XY)
41,2004 42,1500 43,665 44,1356
45,181 46,132 47,19 48,36
49,446 50,19 51,165 52,97
53,102 54,696 55,2304 56,2473
57,527 58,57 59,968 60,58
61,51 62,98 63,784 64,51
65,256 66,132 67,45 68,198
69,466 70,395 71,189 72,186
73,351 74,16 75,9 76,56
77,43 78,356 79,36 80,164
81,26 82,1164 83,606 84,5526
85,494 86,140 87,28 88,12
89,4 90,13 91,35 92,8
93,10 94,38 95,46 96,37
97,50 98,77 99,584 100,133
101,67 102,12 103,26 104,71
105,15 106,82 107,23 108,186
109,74 110,1262 111,247 112,152
113,192 114,48 115,40 116,8
117,7 119,11 120,3 121,10
122,14 123,22 124,16 125,44
126,67 127,1486 128,186 129,313
130,71 131,7 132,15 133,7
134,9 135,22 137,59 138,28
139,30 140,11 141,164 142,40
143,41 144,9 145,18 146,10
147,13 148,7 149,24 150,4
151,13 152,29 153,9 155,9999
156,450 157,124 158,21 159,10
161,10 162,8 163,8 167,11
169,8 170,3 171,6 172,3
173,3 174,22 175,11 176,14
177,16 179,3 181,3 182,9
184,278 185,25 186,37 187,137
188,34 189,45 190,17 191,7
193,4 195,3 196,15 197,24
198,33 199,3 203,6 213,31
214,8 215,25 216,94 217,24
218,34 219,3 225,3 232,8
233,75 234,29 235,29 236,8
261,3 262,156 263,13 264,52
##END=
