##TITLE=3-Diethylaminobutyranilide
##JCAMP-DX=4.24
##DATA TYPE=MASS SPECTRUM
##ORIGIN=Finnigan MAT: Toxicological Library (LIBR-TX)
##OWNER=NIST Mass Spectrometry Data Center
Collection (C) 2014 copyright by the U.S. Secretary of Commerce
on behalf of the United States of America. All rights reserved.
##CAS REGISTRY NO=13912-77-1
##$NIST MASS SPEC NO=120867
##MOLFORM=C14 H22 N2 O
##MW=234
##$NIST SOURCE=MSDC
##XUNITS=M/Z
##YUNITS=RELATIVE INTENSITY
##XFACTOR=1
##YFACTOR=1
##FIRSTX=42
##LASTX=235
##FIRSTY=474
##MAXX=235
##MINX=42
##MAXY=9999
##MINY=94
##NPOINTS=24
##PEAK TABLE=(XY..XY)
42,474 44,909 56,507 58,689
70,571 72,3337 77,519 92,309
93,615 100,9999 101,623 112,400
114,194 120,1205 126,382 149,190
161,202 162,478 205,1993 206,305
219,1011 220,203 234,206 235,94
##END=
