##TITLE=Pyrazine, 2-ethyl-3,5-dimethyl-
##JCAMP-DX=4.24
##DATA TYPE=MASS SPECTRUM
##ORIGIN=GEORGE R. WALLER AND BOBBY R. JOHNSON, OKLAHOMA STATE UNIV, USA
##OWNER=NIST Mass Spectrometry Data Center
Collection (C) 2014 copyright by the U.S. Secretary of Commerce
on behalf of the United States of America. All rights reserved.
##CAS REGISTRY NO=13925-07-0
##$NIST MASS SPEC NO=51849
##MOLFORM=C8 H12 N2
##MW=136
##$NIST SOURCE=MSDC
##XUNITS=M/Z
##YUNITS=RELATIVE INTENSITY
##XFACTOR=1
##YFACTOR=1
##FIRSTX=37
##LASTX=137
##FIRSTY=83
##MAXX=137
##MINX=37
##MAXY=9999
##MINY=83
##NPOINTS=63
##PEAK TABLE=(XY..XY)
37,83 38,417 39,2833 40,667
41,1167 42,3583 43,1000 50,167
51,500 52,750 53,1333 54,2000
55,500 56,1583 57,333 58,167
60,83 61,250 63,83 64,83
65,167 66,250 67,417 68,167
69,250 70,83 71,167 72,83
75,250 76,83 77,83 78,83
79,83 80,500 81,250 82,83
83,83 85,83 86,83 87,83
88,83 89,250 93,83 94,167
95,333 96,417 97,167 103,83
105,83 106,84 107,383 108,1667
109,417 117,83 119,83 120,83
121,500 122,250 133,167 134,250
135,9999 136,7750 137,667
##END=
