##TITLE=2-Isobutyl-3-methylpyrazine
##JCAMP-DX=4.24
##DATA TYPE=MASS SPECTRUM
##ORIGIN=Japan AIST/NIMC Database- Spectrum MS-NW-7129
##OWNER=NIST Mass Spectrometry Data Center
Collection (C) 2014 copyright by the U.S. Secretary of Commerce
on behalf of the United States of America. All rights reserved.
##CAS REGISTRY NO=13925-06-9
##$NIST MASS SPEC NO=236575
##MOLFORM=C9 H14 N2
##MW=150
##$NIST SOURCE=MSDC
##XUNITS=M/Z
##YUNITS=RELATIVE INTENSITY
##XFACTOR=1
##YFACTOR=1
##FIRSTX=14
##LASTX=151
##FIRSTY=10
##MAXX=151
##MINX=14
##MAXY=9999
##MINY=10
##NPOINTS=67
##PEAK TABLE=(XY..XY)
14,10 15,129 26,359 27,649
28,149 29,109 30,20 37,30
38,119 39,929 40,469 41,969
42,829 43,619 44,30 50,70
51,149 52,289 53,379 54,129
55,60 56,40 57,30 59,20
60,90 62,10 63,20 64,60
65,109 66,309 67,979 68,179
69,30 76,10 77,50 78,50
79,70 80,209 81,129 82,199
83,20 91,20 92,30 93,379
94,219 95,90 104,10 105,20
106,50 107,1029 108,9999 109,759
110,30 118,20 119,109 120,30
121,60 122,30 131,10 132,20
133,90 134,30 135,1419 136,139
149,359 150,379 151,40
##END=
