##TITLE=5-Bromovaleric acid, hexyl ester
##JCAMP-DX=4.24
##DATA TYPE=MASS SPECTRUM
##ORIGIN=Zaikin V.G., TIPS RAS, Moscow, Russia
##OWNER=NIST Mass Spectrometry Data Center
Collection (C) 2014 copyright by the U.S. Secretary of Commerce
on behalf of the United States of America. All rights reserved.
##CAS REGISTRY NO=13931-42-5
##$NIST MASS SPEC NO=292286
##MOLFORM=C11 H21 Br O2
##MW=264
##$NIST SOURCE=MSDC
##XUNITS=M/Z
##YUNITS=RELATIVE INTENSITY
##XFACTOR=1
##YFACTOR=1
##FIRSTX=26
##LASTX=223
##FIRSTY=190
##MAXX=223
##MINX=26
##MAXY=9999
##MINY=30
##NPOINTS=80
##PEAK TABLE=(XY..XY)
26,190 27,1892 28,30 29,2192
30,40 31,110 36,100 38,70
39,1171 40,250 41,3653 42,2582
43,6846 44,320 45,100 50,30
51,70 52,50 53,480 54,540
55,9999 56,7257 57,1221 58,100
59,631 60,60 67,210 68,100
69,2732 70,230 71,110 73,1091
74,80 79,80 80,120 81,110
82,260 83,2793 84,7987 85,1411
86,60 87,120 93,70 95,80
98,50 99,300 100,240 101,8027
102,420 103,50 106,50 107,260
108,50 109,260 111,90 128,30
129,681 130,40 135,2452 136,110
137,2382 138,90 155,60 157,50
162,60 163,3934 164,250 165,3823
166,190 167,70 180,520 181,3463
182,631 183,3303 184,170 185,130
207,50 209,40 221,50 223,40
##END=
