##TITLE=5-Bromovaleric acid, octyl ester
##JCAMP-DX=4.24
##DATA TYPE=MASS SPECTRUM
##ORIGIN=Zaikin V.G., TIPS RAS, Moscow, Russia
##OWNER=NIST Mass Spectrometry Data Center
Collection (C) 2014 copyright by the U.S. Secretary of Commerce
on behalf of the United States of America. All rights reserved.
##CAS REGISTRY NO=13931-44-7
##$NIST MASS SPEC NO=292288
##MOLFORM=C13 H25 Br O2
##MW=292
##$NIST SOURCE=MSDC
##XUNITS=M/Z
##YUNITS=RELATIVE INTENSITY
##XFACTOR=1
##YFACTOR=1
##FIRSTX=26
##LASTX=238
##FIRSTY=170
##MAXX=238
##MINX=26
##MAXY=9999
##MINY=30
##NPOINTS=94
##PEAK TABLE=(XY..XY)
26,170 27,1531 28,30 29,2492
30,50 31,90 36,110 38,70
39,1041 40,220 41,4464 42,2352
43,4444 44,250 45,80 50,30
51,60 52,30 53,490 54,641
55,9999 56,5455 57,4584 58,230
59,500 60,50 65,30 66,30
67,460 68,1071 69,3713 70,6476
71,3213 72,170 73,881 74,70
79,100 80,110 81,220 82,1281
83,6085 84,4594 85,360 87,100
93,60 95,100 97,591 98,60
99,170 100,270 101,7977 102,460
103,70 106,50 107,270 108,50
109,270 110,70 111,210 112,5255
113,540 127,130 129,110 133,30
135,2722 136,140 137,2682 138,120
139,70 157,530 158,50 162,90
163,4214 164,340 165,4204 166,230
180,711 181,5675 182,991 183,5375
184,310 185,30 191,30 193,40
195,70 207,70 209,60 213,250
214,30 220,30 221,100 223,110
236,70 238,60
##END=
