##TITLE=Molybdenum hexacarbonyl
##JCAMP-DX=4.24
##DATA TYPE=MASS SPECTRUM
##ORIGIN=D.HENNEBERG, MAX-PLANCK INSTITUTE, MULHEIM, WEST GERMANY
##OWNER=NIST Mass Spectrometry Data Center
Collection (C) 2014 copyright by the U.S. Secretary of Commerce
on behalf of the United States of America. All rights reserved.
##CAS REGISTRY NO=13939-06-5
##$NIST MASS SPEC NO=60913
##MOLFORM=C6 Mo O6
##MW=266
##$NIST SOURCE=MSDC
##XUNITS=M/Z
##YUNITS=RELATIVE INTENSITY
##XFACTOR=1
##YFACTOR=1
##FIRSTX=26
##LASTX=270
##FIRSTY=28
##MAXX=270
##MINX=26
##MAXY=9999
##MINY=4
##NPOINTS=150
##PEAK TABLE=(XY..XY)
26,28 27,33 28,9999 29,234
30,44 32,80 39,8 40,166
41,13 42,4 43,14 44,23
46,37 48,39 49,57 50,18
52,14 54,17 55,27 56,10
57,6 58,4 60,221 62,242
63,338 64,135 66,67 67,46
68,86 69,121 70,50 71,8
74,197 76,226 77,319 78,136
80,8 82,15 83,18 84,6
88,122 90,141 91,202 92,1156
94,631 95,1152 96,1227 97,649
98,1745 100,660 102,18 103,13
104,233 105,28 106,147 107,243
108,333 109,149 110,414 111,72
112,228 114,94 116,72 117,12
118,23 119,42 120,810 121,15
122,507 123,846 124,915 125,512
126,1364 127,18 128,512 129,5
130,23 131,14 132,73 133,27
134,41 135,50 136,57 137,30
138,73 139,6 140,39 142,10
144,5 148,837 149,19 150,508
151,870 152,1045 153,557 154,1421
155,36 156,545 157,14 160,8
162,6 163,10 164,13 165,6
166,15 168,8 176,985 177,32
178,591 179,1113 180,1149 181,645
182,1687 183,58 184,629 185,22
186,6 191,4 192,4 194,8
204,99 205,5 206,75 207,111
208,130 209,80 210,193 211,10
212,81 213,5 232,84 233,8
234,49 235,90 236,98 237,59
238,141 239,9 240,58 260,489
261,30 262,297 263,519 264,600
265,352 266,818 267,60 268,323
269,22 270,6
##END=
