##TITLE=Pyrrolidine, 1-(1-butenyl)-
##JCAMP-DX=4.24
##DATA TYPE=MASS SPECTRUM
##ORIGIN=D.H.WILLIAMS CHEMISTRY DEPT., UNIVERSITY OF CAMBRIDGE
##OWNER=NIST Mass Spectrometry Data Center
Collection (C) 2014 copyright by the U.S. Secretary of Commerce
on behalf of the United States of America. All rights reserved.
##CAS REGISTRY NO=13937-89-8
##$NIST MASS SPEC NO=2423
##MOLFORM=C8 H15 N
##MW=125
##$NIST SOURCE=MSDC
##XUNITS=M/Z
##YUNITS=RELATIVE INTENSITY
##XFACTOR=1
##YFACTOR=1
##FIRSTX=26
##LASTX=126
##FIRSTY=150
##MAXX=126
##MINX=26
##MAXY=9999
##MINY=50
##NPOINTS=62
##PEAK TABLE=(XY..XY)
26,150 27,700 28,415 29,500
30,300 37,100 38,100 39,600
40,200 41,1600 42,600 43,1000
44,150 50,100 51,100 52,100
53,400 54,500 55,1100 56,300
57,300 65,100 66,100 67,300
68,750 69,500 70,1200 71,600
72,100 77,100 78,100 79,100
80,300 81,400 82,400 83,200
84,200 85,150 91,100 93,100
94,200 95,250 96,800 97,300
98,50 99,50 106,100 107,100
108,400 109,200 110,9999 111,1000
112,100 113,100 118,50 120,100
121,100 122,150 123,300 124,1300
125,3400 126,300
##END=
