##TITLE=Tetradecanedioic Acid, 2TMS derivative
##JCAMP-DX=4.24
##DATA TYPE=MASS SPECTRUM
##ORIGIN=G.S. KING, CHEM. PATHOL. DEP., QUEEN CHARLOTTE'S HOSP., LONDON
##OWNER=NIST Mass Spectrometry Data Center
Collection (C) 2014 copyright by the U.S. Secretary of Commerce
on behalf of the United States of America. All rights reserved.
##CAS REGISTRY NO=139432-41-0
##$NIST MASS SPEC NO=71865
##MOLFORM=C20 H42 O4 Si2
##MW=402
##$NIST SOURCE=MSDC
##XUNITS=M/Z
##YUNITS=RELATIVE INTENSITY
##XFACTOR=1
##YFACTOR=1
##FIRSTX=41
##LASTX=402
##FIRSTY=640
##MAXX=402
##MINX=41
##MAXY=9999
##MINY=120
##NPOINTS=135
##PEAK TABLE=(XY..XY)
41,640 42,120 43,840 44,240
45,640 47,440 55,2320 56,240
57,320 58,120 59,240 61,320
67,640 68,120 69,1040 70,120
71,240 72,320 73,9840 74,840
75,7120 76,520 77,1120 79,240
81,840 82,120 83,920 84,240
85,240 89,120 93,320 95,1240
96,240 97,920 98,520 99,240
105,120 107,320 109,640 111,440
112,240 113,120 116,640 117,2840
118,240 119,240 121,520 123,240
125,240 126,120 129,2520 130,320
131,520 132,520 133,320 135,240
137,120 139,120 140,120 143,240
145,520 147,1320 148,240 149,1240
150,240 151,240 156,120 157,120
159,240 161,120 163,440 170,520
171,320 172,120 173,120 177,240
181,440 184,240 185,240 186,120
187,320 194,120 195,120 198,120
199,240 201,240 203,120 204,3840
205,840 206,320 213,120 215,440
216,120 217,4120 218,840 219,320
220,120 221,120 222,240 223,240
227,120 229,240 231,240 241,840
242,240 243,240 253,120 255,640
256,120 257,120 258,120 259,120
269,720 270,240 271,3640 272,720
273,320 279,440 280,120 287,120
297,120 313,240 315,320 329,120
343,840 344,240 359,440 371,1240
372,320 373,120 387,9999 388,3120
389,1120 390,240 402,120
##END=
