##TITLE=sec-Butylamine
##JCAMP-DX=4.24
##DATA TYPE=MASS SPECTRUM
##ORIGIN=Japan AIST/NIMC Database- Spectrum MS-NW- 928
##OWNER=NIST Mass Spectrometry Data Center
Collection (C) 2014 copyright by the U.S. Secretary of Commerce
on behalf of the United States of America. All rights reserved.
##CAS REGISTRY NO=13952-84-6
##$NIST MASS SPEC NO=228231
##MOLFORM=C4 H11 N
##MW=73
##$NIST SOURCE=MSDC
##XUNITS=M/Z
##YUNITS=RELATIVE INTENSITY
##XFACTOR=1
##YFACTOR=1
##FIRSTX=14
##LASTX=73
##FIRSTY=20
##MAXX=73
##MINX=14
##MAXY=9999
##MINY=10
##NPOINTS=34
##PEAK TABLE=(XY..XY)
14,20 15,249 17,30 18,1009
25,10 26,119 27,529 28,599
29,319 30,539 32,20 37,20
38,40 39,219 40,80 41,979
42,699 43,329 44,9999 45,259
50,20 51,40 52,40 53,40
54,60 55,259 56,239 57,159
58,1159 59,40 70,40 71,10
72,189 73,70
##END=
