##TITLE=Manganese, acetylpentacarbonyl-, (OC-6-21)-
##JCAMP-DX=4.24
##DATA TYPE=MASS SPECTRUM
##ORIGIN=ETHYL CORPORATION, FERNDALE, MICHIGAN
##OWNER=NIST Mass Spectrometry Data Center
Collection (C) 2014 copyright by the U.S. Secretary of Commerce
on behalf of the United States of America. All rights reserved.
##CAS REGISTRY NO=13963-91-2
##$NIST MASS SPEC NO=25878
##MOLFORM=C7 H3 Mn O6
##MW=238
##$NIST SOURCE=MSDC
##XUNITS=M/Z
##YUNITS=RELATIVE INTENSITY
##XFACTOR=1
##YFACTOR=1
##FIRSTX=13
##LASTX=195
##FIRSTY=50
##MAXX=195
##MINX=13
##MAXY=9999
##MINY=10
##NPOINTS=36
##PEAK TABLE=(XY..XY)
13,50 14,230 15,460 16,390
26,100 27,140 28,9999 29,220
39,170 40,90 41,120 42,70
43,170 44,40 53,30 54,20
55,660 56,20 59,20 67,50
68,50 69,40 70,200 77,20
79,20 83,110 91,20 98,10
105,10 111,40 126,10 139,30
154,30 167,20 182,50 195,10
##END=
