##TITLE=Hexahydro-1,3,5-trinitroso-1,3,5-triazine
##JCAMP-DX=4.24
##DATA TYPE=MASS SPECTRUM
##ORIGIN=LAC, NIDDK, NIH, Bethesda, MD 20892
##OWNER=NIST Mass Spectrometry Data Center
Collection (C) 2014 copyright by the U.S. Secretary of Commerce
on behalf of the United States of America. All rights reserved.
##CAS REGISTRY NO=13980-04-6
##$NIST MASS SPEC NO=253384
##MOLFORM=C3 H6 N6 O3
##MW=174
##$NIST SOURCE=MSDC
##XUNITS=M/Z
##YUNITS=RELATIVE INTENSITY
##XFACTOR=1
##YFACTOR=1
##FIRSTX=42
##LASTX=174
##FIRSTY=9999
##MAXX=174
##MINX=42
##MAXY=9999
##MINY=3
##NPOINTS=23
##PEAK TABLE=(XY..XY)
42,9999 43,209 45,18 46,8
53,69 54,15 55,83 56,110
57,17 58,119 59,49 69,10
70,5 71,3 73,24 82,29
83,7 88,3 100,1350 101,34
117,16 140,3 174,4
##END=
