##TITLE=Cyacetacide
##JCAMP-DX=4.24
##DATA TYPE=MASS SPECTRUM
##ORIGIN=NIST Mass Spectrometry Data Center, 1998.
##OWNER=NIST Mass Spectrometry Data Center
Collection (C) 2014 copyright by the U.S. Secretary of Commerce
on behalf of the United States of America. All rights reserved.
##CAS REGISTRY NO=140-87-4
##$NIST MASS SPEC NO=291599
##MOLFORM=C3 H5 N3 O
##MW=99
##$NIST SOURCE=MSDC
##XUNITS=M/Z
##YUNITS=RELATIVE INTENSITY
##XFACTOR=1
##YFACTOR=1
##FIRSTX=12
##LASTX=100
##FIRSTY=20
##MAXX=100
##MINX=12
##MAXY=9999
##MINY=10
##NPOINTS=43
##PEAK TABLE=(XY..XY)
12,20 13,50 14,140 15,90
16,130 17,70 24,60 25,90
26,180 27,260 28,590 29,1450
30,950 31,9999 32,9949 33,90
38,760 39,1220 40,4750 41,3020
42,3810 43,650 44,200 50,80
51,150 52,130 53,110 54,40
55,50 56,280 57,260 58,120
59,410 65,10 66,160 67,280
68,3390 69,110 70,190 71,1280
72,60 99,1160 100,80
##END=
