##TITLE=9-Octadecenoic acid, 12-(acetyloxy)-, methyl ester, [R-(Z)]-
##JCAMP-DX=4.24
##DATA TYPE=MASS SPECTRUM
##ORIGIN=Japan AIST/NIMC Database- Spectrum MS-IW-6349
##OWNER=NIST Mass Spectrometry Data Center
Collection (C) 2014 copyright by the U.S. Secretary of Commerce
on behalf of the United States of America. All rights reserved.
##CAS REGISTRY NO=140-03-4
##$NIST MASS SPEC NO=236287
##MOLFORM=C21 H38 O4
##MW=354
##$NIST SOURCE=MSDC
##XUNITS=M/Z
##YUNITS=RELATIVE INTENSITY
##XFACTOR=1
##YFACTOR=1
##FIRSTX=15
##LASTX=355
##FIRSTY=119
##MAXX=355
##MINX=15
##MAXY=9999
##MINY=10
##NPOINTS=242
##PEAK TABLE=(XY..XY)
15,119 27,149 28,40 29,389
30,10 31,40 39,179 40,30
41,1309 42,189 43,8589 44,249
45,179 51,10 52,10 53,209
54,859 55,2309 56,219 57,419
58,60 59,439 60,139 61,50
65,90 66,149 67,2529 68,1409
69,1419 70,179 71,239 72,30
73,119 74,989 75,149 76,10
77,149 78,90 79,749 80,769
81,2799 82,2289 83,1189 84,739
85,319 86,40 87,679 88,60
89,40 90,10 91,209 92,90
93,509 94,819 95,2309 96,2679
97,1909 98,1029 99,179 100,30
101,179 102,20 103,10 104,20
105,129 106,119 107,399 108,629
109,1409 110,1729 111,629 112,169
113,229 114,99 115,319 116,60
117,40 118,30 119,179 120,129
121,519 122,649 123,1089 124,1629
125,459 126,99 127,109 128,119
129,249 130,60 131,90 132,109
133,179 134,90 135,599 136,769
137,809 138,1019 139,239 140,149
141,199 142,50 143,239 144,40
145,60 146,50 147,229 148,229
149,539 150,1919 151,769 152,679
153,189 154,239 155,179 156,30
157,179 158,40 159,90 160,30
161,60 162,50 163,319 164,1009
165,619 166,1009 167,289 168,329
169,99 170,40 171,90 172,30
173,109 174,30 175,50 176,20
177,229 178,679 179,319 180,339
181,219 182,409 183,119 184,20
185,80 186,20 187,139 188,30
189,30 190,129 191,159 192,259
193,159 194,90 195,289 196,459
197,90 198,60 199,90 200,20
201,40 202,10 203,10 205,90
206,129 207,70 208,709 209,289
210,299 211,60 212,10 213,50
214,10 215,20 216,10 218,50
219,70 220,609 221,149 222,209
223,179 224,259 225,50 226,10
227,139 228,20 229,70 230,10
234,209 235,60 236,30 237,119
238,129 239,40 240,239 241,50
242,10 243,10 244,30 245,90
246,30 247,10 248,10 249,10
250,10 251,99 252,70 253,20
255,20 256,10 261,20 262,2459
263,2139 264,539 265,179 266,50
267,20 269,10 270,50 271,10
272,10 278,10 279,109 280,70
281,30 292,90 293,20 294,9999
295,2299 296,349 297,40 298,109
299,20 305,40 306,10 308,10
311,50 312,10 322,60 323,129
324,30 355,30
##END=
