##TITLE=Nithiamide
##JCAMP-DX=4.24
##DATA TYPE=MASS SPECTRUM
##ORIGIN=Japan AIST/NIMC Database- Spectrum MS-NW-6842
##OWNER=NIST Mass Spectrometry Data Center
Collection (C) 2014 copyright by the U.S. Secretary of Commerce
on behalf of the United States of America. All rights reserved.
##CAS REGISTRY NO=140-40-9
##$NIST MASS SPEC NO=230397
##MOLFORM=C5 H5 N3 O3 S
##MW=187
##$NIST SOURCE=MSDC
##XUNITS=M/Z
##YUNITS=RELATIVE INTENSITY
##XFACTOR=1
##YFACTOR=1
##FIRSTX=12
##LASTX=189
##FIRSTY=10
##MAXX=189
##MINX=12
##MAXY=9999
##MINY=10
##NPOINTS=75
##PEAK TABLE=(XY..XY)
12,10 13,20 14,99 15,639
16,20 17,109 18,509 25,10
26,30 27,179 28,389 29,50
30,299 32,90 33,10 34,10
38,50 39,60 40,40 41,70
42,299 43,9999 44,339 45,439
46,50 47,30 48,20 51,10
52,20 53,189 54,149 55,309
56,30 57,509 58,80 59,129
60,129 61,20 62,10 64,10
66,10 69,20 70,249 71,789
72,329 73,60 74,20 76,20
82,20 83,40 84,10 85,20
86,20 97,99 98,1059 99,1339
100,139 101,70 112,10 113,20
115,40 129,399 130,30 131,20
145,5319 146,309 147,289 148,20
149,20 158,10 171,10 172,30
187,1409 188,119 189,80
##END=
