##TITLE=1,3-Bis(hydroxymethyl)urea
##JCAMP-DX=4.24
##DATA TYPE=MASS SPECTRUM
##ORIGIN=Japan AIST/NIMC Database- Spectrum MS-NW- 361
##OWNER=NIST Mass Spectrometry Data Center
Collection (C) 2014 copyright by the U.S. Secretary of Commerce
on behalf of the United States of America. All rights reserved.
##CAS REGISTRY NO=140-95-4
##$NIST MASS SPEC NO=228700
##MOLFORM=C3 H8 N2 O3
##MW=120
##$NIST SOURCE=MSDC
##XUNITS=M/Z
##YUNITS=RELATIVE INTENSITY
##XFACTOR=1
##YFACTOR=1
##FIRSTX=12
##LASTX=119
##FIRSTY=70
##MAXX=119
##MINX=12
##MAXY=9999
##MINY=30
##NPOINTS=50
##PEAK TABLE=(XY..XY)
12,70 13,90 14,99 15,70
16,779 17,3159 18,2529 19,50
26,50 27,429 28,2849 29,9999
30,7749 31,3789 32,80 41,129
42,329 43,1609 44,9359 45,549
46,9369 47,589 48,70 53,40
55,70 56,459 57,99 58,90
59,959 60,4629 61,129 62,159
69,50 70,30 71,50 72,769
73,239 74,919 75,40 76,40
83,50 85,99 89,909 90,60
95,40 97,40 101,459 102,509
103,70 119,80
##END=
