##TITLE=Acetic acid, 4-methylphenyl ester
##JCAMP-DX=4.24
##DATA TYPE=MASS SPECTRUM
##ORIGIN=Japan AIST/NIMC Database- Spectrum MS-NW-3364
##OWNER=NIST Mass Spectrometry Data Center
Collection (C) 2014 copyright by the U.S. Secretary of Commerce
on behalf of the United States of America. All rights reserved.
##CAS REGISTRY NO=140-39-6
##$NIST MASS SPEC NO=230873
##MOLFORM=C9 H10 O2
##MW=150
##$NIST SOURCE=MSDC
##XUNITS=M/Z
##YUNITS=RELATIVE INTENSITY
##XFACTOR=1
##YFACTOR=1
##FIRSTX=14
##LASTX=152
##FIRSTY=40
##MAXX=152
##MINX=14
##MAXY=9999
##MINY=10
##NPOINTS=52
##PEAK TABLE=(XY..XY)
14,40 15,199 26,40 27,239
28,40 29,10 37,20 38,60
39,279 40,30 41,30 42,80
43,1369 44,30 49,20 50,189
51,389 52,239 53,249 54,20
55,50 61,20 62,60 63,139
64,40 65,149 66,30 68,10
74,30 75,20 76,10 77,839
78,279 79,599 80,339 81,40
86,10 89,60 90,419 91,259
92,20 94,30 105,20 106,60
107,4149 108,9999 109,779 110,40
121,10 150,1019 151,109 152,10
##END=
