##TITLE=trans-Cinnamic acid
##JCAMP-DX=4.24
##DATA TYPE=MASS SPECTRUM
##ORIGIN=NIST Mass Spectrometry Data Center
##OWNER=NIST Mass Spectrometry Data Center
Collection (C) 2014 copyright by the U.S. Secretary of Commerce
on behalf of the United States of America. All rights reserved.
##CAS REGISTRY NO=140-10-3
##$NIST MASS SPEC NO=352549
##MOLFORM=C9 H8 O2
##MW=148
##$NIST SOURCE=MSDC
##XUNITS=M/Z
##YUNITS=RELATIVE INTENSITY
##XFACTOR=1
##YFACTOR=1
##FIRSTX=15
##LASTX=151
##FIRSTY=10
##MAXX=151
##MINX=15
##MAXY=9999
##MINY=10
##NPOINTS=94
##PEAK TABLE=(XY..XY)
15,10 25,10 26,90 27,240
28,30 29,60 31,10 36,10
37,120 38,270 39,651 40,60
41,50 42,30 43,50 44,50
45,591 46,130 47,10 48,10
49,170 50,1702 51,4064 52,671
53,250 54,50 55,100 56,10
57,10 59,60 60,130 61,180
62,410 63,901 64,130 65,440
67,10 68,30 69,110 70,20
71,80 72,10 73,180 74,1001
75,811 76,1041 77,4794 78,841
79,330 80,20 81,10 82,10
84,10 85,40 86,60 87,110
88,20 89,140 90,90 91,3113
92,470 93,40 94,200 95,10
97,30 98,140 99,40 100,20
101,260 102,3243 103,6176 104,581
105,250 106,50 107,180 108,20
118,30 119,550 120,761 121,90
122,10 128,10 129,80 130,510
131,2222 132,210 133,20 144,10
145,10 147,9999 148,7427 149,731
150,60 151,10
##END=
