##TITLE=1-Piperazineethanamine
##JCAMP-DX=4.24
##DATA TYPE=MASS SPECTRUM
##ORIGIN=RADIAN CORP
##OWNER=NIST Mass Spectrometry Data Center
Collection (C) 2014 copyright by the U.S. Secretary of Commerce
on behalf of the United States of America. All rights reserved.
##CAS REGISTRY NO=140-31-8
##$NIST MASS SPEC NO=69510
##MOLFORM=C6 H15 N3
##MW=129
##$NIST SOURCE=MSDC
##XUNITS=M/Z
##YUNITS=RELATIVE INTENSITY
##XFACTOR=1
##YFACTOR=1
##FIRSTX=15
##LASTX=130
##FIRSTY=100
##MAXX=130
##MINX=15
##MAXY=9999
##MINY=10
##NPOINTS=55
##PEAK TABLE=(XY..XY)
15,100 18,60 26,80 27,430
28,1800 29,790 30,2160 31,50
39,70 40,130 41,760 42,2330
43,1230 44,2850 45,140 52,50
53,50 54,350 55,360 56,7510
57,800 58,940 59,40 61,120
67,40 68,290 69,300 70,4310
71,500 72,290 73,50 80,50
81,50 82,120 83,340 84,1170
85,310 86,60 87,1310 88,60
95,20 97,290 98,260 99,9999
100,750 101,10 111,50 112,470
113,80 119,10 120,20 122,10
127,60 129,30 130,20
##END=
