##TITLE=N,N'-Diacetyl-1,4-phenylenediamine
##JCAMP-DX=4.24
##DATA TYPE=MASS SPECTRUM
##ORIGIN=NIST Mass Spectrometry Data Center, 1994
##OWNER=NIST Mass Spectrometry Data Center
Collection (C) 2014 copyright by the U.S. Secretary of Commerce
on behalf of the United States of America. All rights reserved.
##CAS REGISTRY NO=140-50-1
##$NIST MASS SPEC NO=135768
##MOLFORM=C10 H12 N2 O2
##MW=192
##$NIST SOURCE=MSDC
##XUNITS=M/Z
##YUNITS=RELATIVE INTENSITY
##XFACTOR=1
##YFACTOR=1
##FIRSTX=15
##LASTX=193
##FIRSTY=590
##MAXX=193
##MINX=15
##MAXY=9999
##MINY=41
##NPOINTS=33
##PEAK TABLE=(XY..XY)
15,590 16,41 38,122 39,284
40,98 43,3809 50,140 51,340
52,863 53,1115 54,251 62,123
63,299 64,188 65,183 67,127
78,192 79,577 80,2355 81,515
90,171 91,119 92,101 105,357
107,2841 108,9999 109,1033 121,104
134,230 150,2381 151,222 192,3167
193,362
##END=
