##TITLE=1H-Imidazole, 4-methyl-5-nitro-
##JCAMP-DX=4.24
##DATA TYPE=MASS SPECTRUM
##ORIGIN=W. LUIJTEN, GORLAEUS LAB., LEIDEN UNIV., NETHERL
##OWNER=NIST Mass Spectrometry Data Center
Collection (C) 2014 copyright by the U.S. Secretary of Commerce
on behalf of the United States of America. All rights reserved.
##CAS REGISTRY NO=14003-66-8
##$NIST MASS SPEC NO=75825
##MOLFORM=C4 H5 N3 O2
##MW=127
##$NIST SOURCE=MSDC
##XUNITS=M/Z
##YUNITS=RELATIVE INTENSITY
##XFACTOR=1
##YFACTOR=1
##FIRSTX=38
##LASTX=128
##FIRSTY=200
##MAXX=128
##MINX=38
##MAXY=9999
##MINY=200
##NPOINTS=26
##PEAK TABLE=(XY..XY)
38,200 39,400 40,700 41,2500
42,2900 43,400 51,400 52,1300
53,2300 54,2700 55,1500 69,400
70,400 79,600 80,1300 81,1100
82,1000 83,300 97,400 98,200
109,1500 110,1400 111,200 126,400
127,9999 128,500
##END=
