##TITLE=Hydroperoxide, 1-methylbutyl
##JCAMP-DX=4.24
##DATA TYPE=MASS SPECTRUM
##OWNER=NIST Mass Spectrometry Data Center
Collection (C) 2014 copyright by the U.S. Secretary of Commerce
on behalf of the United States of America. All rights reserved.
##CAS REGISTRY NO=14018-58-7
##$NIST MASS SPEC NO=28547
##MOLFORM=C5 H12 O2
##MW=104
##$NIST SOURCE=MSDC
##XUNITS=M/Z
##YUNITS=RELATIVE INTENSITY
##XFACTOR=1
##YFACTOR=1
##FIRSTX=12
##LASTX=104
##FIRSTY=20
##MAXX=104
##MINX=12
##MAXY=9999
##MINY=20
##NPOINTS=51
##PEAK TABLE=(XY..XY)
12,20 13,40 14,210 15,1080
16,300 19,160 26,420 27,2720
28,1240 29,2550 30,150 31,1590
32,290 33,50 34,140 37,60
38,150 39,1320 40,220 41,2390
42,830 43,9999 44,1280 45,3170
46,300 47,50 50,40 51,50
52,20 53,120 54,30 55,1130
56,130 57,290 58,210 59,70
60,30 61,700 62,30 63,20
67,40 69,90 70,280 71,1450
72,200 73,240 75,40 83,30
86,40 87,40 104,270
##END=
