##TITLE=Bis(acetylacetonate)iron
##JCAMP-DX=4.24
##DATA TYPE=MASS SPECTRUM
##ORIGIN=D.HENNEBERG, MAX-PLANCK INSTITUTE, MULHEIM, WEST GERMANY
##OWNER=NIST Mass Spectrometry Data Center
Collection (C) 2014 copyright by the U.S. Secretary of Commerce
on behalf of the United States of America. All rights reserved.
##CAS REGISTRY NO=14024-17-0
##$NIST MASS SPEC NO=62365
##MOLFORM=C10 H14 Fe O4
##MW=254
##$NIST SOURCE=MSDC
##XUNITS=M/Z
##YUNITS=RELATIVE INTENSITY
##XFACTOR=1
##YFACTOR=1
##FIRSTX=26
##LASTX=256
##FIRSTY=186
##MAXX=256
##MINX=26
##MAXY=9999
##MINY=2
##NPOINTS=143
##PEAK TABLE=(XY..XY)
26,186 27,928 28,203 29,231
31,131 33,11 34,37 37,77
38,163 39,264 40,75 41,212
42,476 43,6899 44,188 45,13
47,10 49,28 51,15 53,28
54,43 55,55 56,1408 57,158
58,113 59,36 60,24 61,37
63,5 66,25 67,9 70,173
71,2808 72,237 73,416 74,33
76,3 77,7 81,95 82,151
83,187 84,168 85,1777 86,20
92,22 93,10 96,39 97,606
98,83 99,45 100,1117 101,153
102,27 104,41 105,72 107,43
110,134 112,743 113,274 114,78
115,272 116,8 117,4 118,21
120,21 121,13 125,98 126,115
127,97 128,20 131,33 132,5
136,8 137,381 138,39 139,627
140,214 141,94 146,20 151,59
152,83 153,659 154,161 155,9999
156,675 157,179 158,33 161,25
162,38 164,69 165,15 166,34
167,51 168,29 169,8 170,50
171,19 172,603 173,127 174,38
179,19 180,92 181,128 182,22
183,58 184,47 185,14 191,54
193,84 194,20 196,36 197,110
198,32 202,15 206,27 208,119
209,54 210,39 211,57 212,170
213,56 214,46 220,15 221,2
223,12 224,27 225,172 226,119
227,21 236,170 237,472 238,64
239,6305 240,735 241,162 244,26
250,75 251,37 252,482 253,66
254,8265 255,1286 256,158
##END=
