##TITLE=Ferric tris(acetylacetonate)
##JCAMP-DX=4.24
##DATA TYPE=MASS SPECTRUM
##ORIGIN=Japan AIST/NIMC Database- Spectrum MS-NW-9155
##OWNER=NIST Mass Spectrometry Data Center
Collection (C) 2014 copyright by the U.S. Secretary of Commerce
on behalf of the United States of America. All rights reserved.
##CAS REGISTRY NO=14024-18-1
##$NIST MASS SPEC NO=230421
##MOLFORM=C15 H21 Fe O6
##MW=353
##$NIST SOURCE=MSDC
##XUNITS=M/Z
##YUNITS=RELATIVE INTENSITY
##XFACTOR=1
##YFACTOR=1
##FIRSTX=15
##LASTX=355
##FIRSTY=50
##MAXX=355
##MINX=15
##MAXY=9999
##MINY=10
##NPOINTS=134
##PEAK TABLE=(XY..XY)
15,50 17,20 18,20 27,30
28,109 29,10 39,30 41,20
42,20 43,1209 44,20 53,10
54,10 55,20 56,229 57,40
59,70 67,20 69,70 70,30
71,709 72,30 73,80 74,80
81,10 82,30 83,30 84,40
85,119 86,20 87,50 94,10
95,40 96,10 97,90 98,20
99,10 100,99 101,20 105,20
109,10 110,20 111,20 112,219
113,90 114,10 115,129 116,10
119,30 120,10 125,20 126,50
127,30 128,10 129,20 131,20
137,119 138,20 139,269 140,70
141,30 142,40 143,109 152,10
153,289 154,139 155,4299 156,359
157,129 158,959 159,109 160,10
163,10 164,30 165,10 166,10
167,10 170,30 172,349 173,50
178,10 180,60 181,60 183,10
184,10 187,10 193,40 194,10
196,10 197,50 200,20 201,10
206,10 208,159 209,20 211,20
212,99 213,10 214,10 215,30
221,10 225,60 228,10 236,109
237,189 238,50 239,2719 240,339
241,60 242,809 243,90 244,10
249,10 251,10 252,639 253,129
254,9999 255,1349 256,209 257,819
258,99 259,10 265,10 267,10
293,60 294,10 311,40 335,70
336,10 351,90 352,10 353,1419
354,269 355,40
##END=
