##TITLE=Palladium(II) acetylacetonate
##JCAMP-DX=4.24
##DATA TYPE=MASS SPECTRUM
##ORIGIN=Japan AIST/NIMC Database- Spectrum MS-IW-2411
##OWNER=NIST Mass Spectrometry Data Center
Collection (C) 2014 copyright by the U.S. Secretary of Commerce
on behalf of the United States of America. All rights reserved.
##CAS REGISTRY NO=14024-61-4
##$NIST MASS SPEC NO=236117
##MOLFORM=C10 H14 O4 Pd
##MW=304
##$NIST SOURCE=MSDC
##XUNITS=M/Z
##YUNITS=RELATIVE INTENSITY
##XFACTOR=1
##YFACTOR=1
##FIRSTX=12
##LASTX=310
##FIRSTY=10
##MAXX=310
##MINX=12
##MAXY=9999
##MINY=10
##NPOINTS=228
##PEAK TABLE=(XY..XY)
12,10 13,30 14,139 15,679
16,109 25,40 26,169 27,539
28,949 29,259 30,20 31,179
36,20 37,70 38,129 39,509
40,239 41,569 42,669 43,9999
44,289 45,80 49,20 50,40
51,30 52,20 53,129 54,20
55,659 56,60 57,159 58,189
59,20 60,10 66,20 67,70
68,119 69,1149 70,60 71,929
72,379 73,30 79,20 81,20
82,40 83,30 84,1209 85,4019
86,199 87,20 95,20 96,10
97,30 98,239 99,469 100,3059
101,229 102,30 104,329 105,739
106,919 107,70 108,849 109,70
110,379 111,30 112,20 113,20
114,30 117,60 118,90 119,519
120,849 121,1029 122,90 123,949
124,50 125,419 127,20 129,20
130,60 131,269 132,729 133,1259
134,1049 135,869 136,729 137,599
138,329 139,179 140,10 141,30
142,40 143,90 144,109 145,569
146,1019 147,1949 148,1449 149,2499
150,379 151,1839 152,379 153,759
154,109 155,70 156,10 157,139
158,90 159,219 160,309 161,479
162,249 163,499 164,119 165,269
166,60 167,60 168,10 171,10
172,30 173,99 174,289 175,1029
176,1569 177,1489 178,569 179,1329
180,299 181,579 182,30 185,10
186,30 187,229 188,629 189,1119
190,809 191,769 192,669 193,459
194,319 195,109 196,20 197,10
199,10 201,199 202,209 203,1719
204,3599 205,4959 206,1619 207,3649
208,1459 209,1639 210,619 211,30
215,20 216,60 217,99 218,189
219,399 220,369 221,109 222,309
223,50 224,129 225,10 230,10
231,60 232,90 233,129 234,20
235,99 236,10 237,40 239,40
241,139 242,20 243,80 244,10
245,50 246,70 247,99 248,40
249,60 250,99 251,40 252,20
254,70 256,159 257,20 258,70
259,50 260,99 261,149 262,60
263,109 264,60 265,40 266,30
272,10 273,30 274,20 275,30
277,20 278,20 279,10 285,80
287,759 288,1659 289,2129 290,239
291,1929 292,199 293,879 294,90
295,10 300,269 301,10 302,3009
303,6359 304,8029 305,939 306,7189
307,839 308,3309 309,369 310,50
##END=
