##TITLE=Amoxapine
##JCAMP-DX=4.24
##DATA TYPE=MASS SPECTRUM
##ORIGIN=NIST Mass Spectrometry Data Center
##OWNER=NIST Mass Spectrometry Data Center
Collection (C) 2014 copyright by the U.S. Secretary of Commerce
on behalf of the United States of America. All rights reserved.
##CAS REGISTRY NO=14028-44-5
##$NIST MASS SPEC NO=352177
##MOLFORM=C17 H16 Cl N3 O
##MW=313
##$NIST SOURCE=MSDC
##XUNITS=M/Z
##YUNITS=RELATIVE INTENSITY
##XFACTOR=1
##YFACTOR=1
##FIRSTX=15
##LASTX=316
##FIRSTY=40
##MAXX=316
##MINX=15
##MAXY=9999
##MINY=10
##NPOINTS=253
##PEAK TABLE=(XY..XY)
15,40 26,20 27,150 28,671
29,490 30,380 31,10 36,10
37,10 38,80 39,230 40,40
41,200 42,681 43,200 44,170
45,10 49,20 50,330 51,330
52,140 53,120 54,200 55,220
56,3603 57,410 58,240 59,10
61,30 62,140 63,701 64,470
65,190 66,30 67,20 68,340
69,871 70,70 71,10 72,10
73,120 74,220 75,490 76,250
77,320 78,100 79,30 80,60
81,30 83,150 84,130 85,540
86,100 87,150 88,160 89,160
90,100 91,70 92,330 93,110
94,20 95,10 97,80 98,130
99,100 100,180 101,90 102,160
103,70 104,80 105,60 106,30
107,10 108,90 109,50 110,100
111,160 112,80 113,170 114,200
115,110 116,70 117,50 118,40
119,40 120,90 121,20 122,20
123,80 124,410 125,170 126,270
127,110 128,110 129,30 130,40
131,30 132,20 133,10 134,10
135,10 136,60 137,260 138,611
139,771 140,410 141,70 142,40
143,20 144,10 145,10 147,50
148,30 149,100 150,110 151,140
152,150 153,100 154,60 155,20
156,60 159,50 160,20 161,20
162,40 163,100 164,2062 165,611
166,390 167,160 168,70 169,20
170,10 171,10 172,10 173,270
174,340 175,130 176,110 177,60
178,70 179,110 180,90 181,60
182,30 183,10 184,10 185,10
186,10 187,10 188,20 189,20
190,50 191,80 192,280 193,3964
194,901 195,160 196,40 197,10
198,30 199,10 200,230 201,180
202,300 203,150 204,110 205,110
206,110 207,110 208,90 209,40
210,90 211,20 212,10 213,10
214,90 215,120 216,190 217,200
218,80 219,100 220,80 221,330
222,300 223,280 224,40 225,10
226,20 227,190 228,1932 229,701
230,841 231,230 232,80 233,30
234,40 235,160 236,90 237,20
238,10 239,30 240,40 241,100
242,100 243,130 244,1171 245,9999
246,1872 247,3303 248,500 249,80
250,20 251,10 252,10 253,10
254,40 255,210 256,240 257,4054
258,851 259,1491 260,270 261,50
267,10 268,50 269,911 270,310
271,540 272,140 273,80 274,20
276,10 278,10 281,30 282,10
283,631 284,150 285,260 286,60
287,30 295,30 296,20 297,30
298,20 299,10 310,20 311,20
312,460 313,581 314,260 315,190
316,30
##END=
