##TITLE=Pentanedioic acid, 2-methyl-, dimethyl ester
##JCAMP-DX=4.24
##DATA TYPE=MASS SPECTRUM
##OWNER=NIST Mass Spectrometry Data Center
Collection (C) 2014 copyright by the U.S. Secretary of Commerce
on behalf of the United States of America. All rights reserved.
##CAS REGISTRY NO=14035-94-0
##$NIST MASS SPEC NO=7014
##MOLFORM=C8 H14 O4
##MW=174
##$NIST SOURCE=MSDC
##XUNITS=M/Z
##YUNITS=RELATIVE INTENSITY
##XFACTOR=1
##YFACTOR=1
##FIRSTX=12
##LASTX=174
##FIRSTY=10
##MAXX=174
##MINX=12
##MAXY=9999
##MINY=10
##NPOINTS=95
##PEAK TABLE=(XY..XY)
12,10 13,10 14,100 15,6176
16,90 17,20 18,80 24,10
25,10 26,300 27,2412 28,1732
29,2422 30,140 31,480 32,30
33,90 34,10 35,20 36,70
38,90 39,1371 40,260 41,2562
42,1862 43,2452 44,140 45,831
46,40 47,30 49,10 50,60
51,110 52,60 53,510 54,711
55,9999 56,2682 57,951 58,510
59,7517 60,400 61,40 63,10
65,10 66,10 67,20 68,60
69,991 70,60 71,230 72,581
73,5695 74,1041 75,100 76,10
79,10 81,100 82,611 83,3163
84,240 85,120 86,90 87,1371
88,2853 89,130 96,70 97,30
98,10 99,2162 100,190 101,1271
102,100 103,10 109,20 110,50
111,30 112,30 113,130 114,7767
115,4504 116,320 117,30 127,80
128,10 129,20 132,110 133,10
141,30 142,1021 143,3243 144,260
145,30 146,20 174,10
##END=
