##TITLE=2-Pyrazoline, 1,3,4-trimethyl-
##JCAMP-DX=4.24
##DATA TYPE=MASS SPECTRUM
##ORIGIN=ATLAS OF MASS SPECTRA OF ORGANIC COMPOUNDS, V. A. KOPTYUG, ED.
##OWNER=NIST Mass Spectrometry Data Center
Collection (C) 2014 copyright by the U.S. Secretary of Commerce
on behalf of the United States of America. All rights reserved.
##CAS REGISTRY NO=14044-41-8
##$NIST MASS SPEC NO=64558
##MOLFORM=C6 H12 N2
##MW=112
##$NIST SOURCE=MSDC
##XUNITS=M/Z
##YUNITS=RELATIVE INTENSITY
##XFACTOR=1
##YFACTOR=1
##FIRSTX=26
##LASTX=113
##FIRSTY=180
##MAXX=113
##MINX=26
##MAXY=9999
##MINY=40
##NPOINTS=37
##PEAK TABLE=(XY..XY)
26,180 27,810 28,1870 29,440
30,780 38,100 39,940 40,280
41,1780 42,6250 43,1410 44,300
51,100 52,100 53,310 54,310
55,260 56,2600 57,140 66,50
67,110 68,1080 69,880 70,1370
71,100 80,40 81,100 82,230
95,280 96,170 97,9999 98,630
109,140 110,230 111,4380 112,7340
113,530
##END=
