##TITLE=2H-Pyran-3-ol, 6-ethenyltetrahydro-2,2,6-trimethyl-
##JCAMP-DX=4.24
##DATA TYPE=MASS SPECTRUM
##ORIGIN=D.FELIX VARIAN AG. RES. LAB., ZURICH, SWITZERLAND
##OWNER=NIST Mass Spectrometry Data Center
Collection (C) 2014 copyright by the U.S. Secretary of Commerce
on behalf of the United States of America. All rights reserved.
##CAS REGISTRY NO=14049-11-7
##$NIST MASS SPEC NO=38861
##MOLFORM=C10 H18 O2
##MW=170
##$NIST SOURCE=MSDC
##XUNITS=M/Z
##YUNITS=RELATIVE INTENSITY
##XFACTOR=1
##YFACTOR=1
##FIRSTX=26
##LASTX=155
##FIRSTY=100
##MAXX=155
##MINX=26
##MAXY=9999
##MINY=50
##NPOINTS=66
##PEAK TABLE=(XY..XY)
26,100 27,900 28,650 29,700
31,350 39,850 40,400 41,1900
42,400 43,3200 44,350 45,200
50,50 51,150 52,100 53,1100
54,150 55,1900 56,350 57,700
58,150 59,6350 60,200 65,200
66,300 67,4300 68,9999 69,1300
70,700 71,1450 72,850 73,150
77,300 78,100 79,1800 80,200
81,1900 82,300 83,1100 84,550
85,600 91,300 92,50 93,350
94,5100 95,700 96,100 97,400
99,100 102,300 105,100 107,150
109,700 110,100 111,100 112,250
115,100 117,50 119,400 121,50
125,100 134,150 137,400 143,150
152,200 155,500
##END=
