##TITLE=Nickel phthalocyanine
##JCAMP-DX=4.24
##DATA TYPE=MASS SPECTRUM
##ORIGIN=Japan AIST/NIMC Database- Spectrum MS-IW-3946
##OWNER=NIST Mass Spectrometry Data Center
Collection (C) 2014 copyright by the U.S. Secretary of Commerce
on behalf of the United States of America. All rights reserved.
##CAS REGISTRY NO=14055-02-8
##$NIST MASS SPEC NO=236449
##MOLFORM=C32 H16 N8 Ni
##MW=570
##$NIST SOURCE=MSDC
##XUNITS=M/Z
##YUNITS=RELATIVE INTENSITY
##XFACTOR=1
##YFACTOR=1
##FIRSTX=27
##LASTX=577
##FIRSTY=30
##MAXX=577
##MINX=27
##MAXY=9999
##MINY=20
##NPOINTS=93
##PEAK TABLE=(XY..XY)
27,30 28,70 36,40 38,20
39,30 43,20 44,149 50,80
51,50 52,30 58,939 60,359
62,40 63,30 64,40 74,40
75,109 76,109 77,50 88,30
100,30 101,169 102,169 103,60
104,40 109,20 111,20 114,40
115,20 127,20 128,639 129,99
130,30 140,20 145,40 146,50
147,50 148,20 154,70 157,169
158,70 160,30 172,50 174,60
180,90 182,80 184,40 186,1279
187,149 188,509 189,70 190,169
192,20 200,20 202,20 212,40
214,20 230,30 255,20 272,20
278,70 279,60 280,20 285,3159
286,1489 287,159 288,60 293,70
294,30 302,40 304,20 330,119
331,20 332,40 498,50 499,20
500,20 543,20 544,20 556,219
557,90 558,119 559,50 560,40
568,90 570,9999 571,3939 572,4569
573,1749 574,869 575,259 576,189
577,60
##END=
