##TITLE=Vanadium, oxo[2,7,12,17-tetraethyl-3,8,13,18-tetramethyl-21H,23H-porphinato(2-)-N21,N22,N23,N24]-, (SP-5-12)-
##JCAMP-DX=4.24
##DATA TYPE=MASS SPECTRUM
##ORIGIN=W.L.MEAD THE B.P. CO., LTD., SUNBURY-ON-THAMES, UK
##OWNER=NIST Mass Spectrometry Data Center
Collection (C) 2014 copyright by the U.S. Secretary of Commerce
on behalf of the United States of America. All rights reserved.
##CAS REGISTRY NO=14055-20-0
##$NIST MASS SPEC NO=18332
##MOLFORM=C32 H36 N4 O V
##MW=543
##$NIST SOURCE=MSDC
##XUNITS=M/Z
##YUNITS=RELATIVE INTENSITY
##XFACTOR=1
##YFACTOR=1
##FIRSTX=197
##LASTX=547
##FIRSTY=15
##MAXX=547
##MINX=197
##MAXY=9999
##MINY=7
##NPOINTS=160
##PEAK TABLE=(XY..XY)
197,15 198,29 199,29 200,15
201,7 202,7 203,15 204,29
205,51 206,29 207,22 210,44
211,88 212,102 213,102 214,58
215,37 216,37 217,117 218,219
219,249 220,205 221,110 222,51
223,58 224,146 225,278 226,336
227,300 228,190 229,88 230,51
231,102 232,220 233,329 234,351
235,278 236,80 237,15 238,22
239,80 240,175 241,241 242,322
243,146 244,22 245,7 246,7
247,51 248,124 249,241 250,161
251,22 254,7 255,132 256,161
257,307 258,58 263,15 264,387
265,29 270,7 271,44 272,446
273,22 437,7 438,15 439,22
440,29 441,29 442,22 443,15
444,15 449,29 450,29 451,44
452,73 453,73 454,80 455,66
456,73 457,29 458,22 459,22
460,7 461,7 462,29 463,44
464,88 465,102 466,161 467,168
468,227 469,190 470,132 471,66
472,58 473,37 474,15 475,15
476,29 477,44 478,88 479,102
480,249 481,322 482,475 483,402
484,351 485,175 486,80 487,102
488,29 489,7 490,15 491,15
492,29 493,44 494,110 495,117
496,322 497,570 498,804 499,351
500,234 501,117 502,44 503,15
504,15 508,29 509,44 510,88
511,154 512,629 513,1345 514,585
515,512 516,175 517,73 518,29
519,15 524,58 525,58 526,110
527,219 528,3158 529,1287 530,270
531,51 532,73 533,29 539,168
540,117 541,219 542,278 543,9999
544,3711 545,855 546,104 547,19
##END=
