##TITLE=Proclonol
##JCAMP-DX=4.24
##DATA TYPE=MASS SPECTRUM
##ORIGIN=CATALOGUE OF MASS SPECTRA OF PESTICIDES, APRIL, 1975; J. FREUDENTHAL & L. G. GRAMBERG, NAT'L INST. OF PUBLIC HEALTH, THE NETHERLANDS
##OWNER=NIST Mass Spectrometry Data Center
Collection (C) 2014 copyright by the U.S. Secretary of Commerce
on behalf of the United States of America. All rights reserved.
##CAS REGISTRY NO=14088-71-2
##$NIST MASS SPEC NO=53708
##MOLFORM=C16 H14 Cl2 O
##MW=292
##$NIST SOURCE=MSDC
##XUNITS=M/Z
##YUNITS=RELATIVE INTENSITY
##XFACTOR=1
##YFACTOR=1
##FIRSTX=39
##LASTX=294
##FIRSTY=253
##MAXX=294
##MINX=39
##MAXY=9999
##MINY=100
##NPOINTS=81
##PEAK TABLE=(XY..XY)
39,253 41,450 63,164 75,964
76,632 77,490 82,319 83,328
88,168 89,532 90,241 94,113
97,142 99,100 101,418 102,322
103,128 104,302 105,104 107,182
108,168 111,3461 112,313 113,956
114,395 115,490 116,157 117,133
124,468 125,1030 126,354 127,485
128,364 129,293 136,163 138,349
139,9935 140,1123 141,3257 142,293
145,184 149,110 152,1966 153,300
154,1174 155,122 156,306 163,187
164,230 165,1033 166,539 167,110
176,210 177,121 178,125 189,154
194,366 199,199 201,388 202,222
203,304 204,219 215,118 216,104
228,110 229,329 239,108 251,2846
252,475 253,1871 254,291 255,136
257,273 259,107 264,9999 265,1424
266,5903 267,786 268,1145 292,303
294,150
##END=
