##TITLE=1,4,7,10,13-Benzopentaoxacyclopentadecin, 2,3,5,6,8,9,11,12-octahydro-
##JCAMP-DX=4.24
##DATA TYPE=MASS SPECTRUM
##ORIGIN=Japan AIST/NIMC Database- Spectrum MS-NW-6583
##OWNER=NIST Mass Spectrometry Data Center
Collection (C) 2014 copyright by the U.S. Secretary of Commerce
on behalf of the United States of America. All rights reserved.
##CAS REGISTRY NO=14098-44-3
##$NIST MASS SPEC NO=233265
##MOLFORM=C14 H20 O5
##MW=268
##$NIST SOURCE=MSDC
##XUNITS=M/Z
##YUNITS=RELATIVE INTENSITY
##XFACTOR=1
##YFACTOR=1
##FIRSTX=14
##LASTX=271
##FIRSTY=20
##MAXX=271
##MINX=14
##MAXY=9999
##MINY=10
##NPOINTS=120
##PEAK TABLE=(XY..XY)
14,20 15,459 16,10 17,20
18,60 26,109 27,679 28,679
29,549 30,50 31,469 32,10
37,10 38,80 39,229 40,40
41,519 42,119 43,1359 44,349
45,3289 46,80 47,10 50,129
51,299 52,1059 53,189 54,50
55,80 56,10 57,90 58,109
59,199 60,10 61,10 62,30
63,299 64,389 65,509 66,80
67,30 68,30 69,40 70,30
71,629 72,70 73,609 74,40
75,60 76,80 77,379 78,99
79,149 80,3169 81,499 82,149
85,10 86,20 87,159 88,99
89,349 90,70 91,229 92,179
93,169 94,99 95,90 96,10
97,10 98,10 99,10 101,20
102,10 103,20 104,30 105,20
106,10 107,159 108,1299 109,419
110,879 111,60 113,10 114,10
115,179 116,10 117,30 118,10
119,50 120,40 121,3759 122,349
123,50 124,20 131,10 133,169
134,40 135,249 136,9999 137,1009
138,90 139,10 149,30 151,10
154,90 155,10 159,20 162,10
163,20 179,10 180,549 181,80
182,10 198,10 224,40 267,10
268,4239 269,689 270,90 271,10
##END=
