##TITLE=Rhenium, pentacarbonylchloro-
##JCAMP-DX=4.24
##DATA TYPE=MASS SPECTRUM
##ORIGIN=B.F.G.JOHNSON DEPT. OF CHEM., UNIV. OF MANCHESTER, UK
##OWNER=NIST Mass Spectrometry Data Center
Collection (C) 2014 copyright by the U.S. Secretary of Commerce
on behalf of the United States of America. All rights reserved.
##CAS REGISTRY NO=14099-01-5
##$NIST MASS SPEC NO=16249
##MOLFORM=C5 Cl O5 Re
##MW=362
##$NIST SOURCE=MSDC
##XUNITS=M/Z
##YUNITS=RELATIVE INTENSITY
##XFACTOR=1
##YFACTOR=1
##FIRSTX=125
##LASTX=362
##FIRSTY=2140
##MAXX=362
##MINX=125
##MAXY=9999
##MINY=30
##NPOINTS=17
##PEAK TABLE=(XY..XY)
125,2140 139,2790 153,1290 167,1220
181,50 187,5430 199,1860 215,30
222,5720 243,2000 250,5860 271,2500
278,9999 299,710 306,4930 334,7860
362,7860
##END=
