##TITLE=Benzene, 1-methyl-2-(methylthio)-
##JCAMP-DX=4.24
##DATA TYPE=MASS SPECTRUM
##ORIGIN=NIST Mass Spectrometry Data Center
##OWNER=NIST Mass Spectrometry Data Center
Collection (C) 2014 copyright by the U.S. Secretary of Commerce
on behalf of the United States of America. All rights reserved.
##CAS REGISTRY NO=14092-00-3
##$NIST MASS SPEC NO=353008
##MOLFORM=C8 H10 S
##MW=138
##$NIST SOURCE=MSDC
##XUNITS=M/Z
##YUNITS=RELATIVE INTENSITY
##XFACTOR=1
##YFACTOR=1
##FIRSTX=14
##LASTX=141
##FIRSTY=10
##MAXX=141
##MINX=14
##MAXY=9999
##MINY=10
##NPOINTS=88
##PEAK TABLE=(XY..XY)
14,10 15,110 26,20 27,100
37,40 38,130 39,781 40,60
41,90 45,2462 46,130 47,200
48,20 49,20 50,250 51,510
52,130 53,130 54,10 57,40
58,80 59,60 60,40 61,110
62,270 63,791 64,190 65,891
66,60 67,40 68,20 69,561
70,110 71,130 72,20 73,30
74,100 75,70 76,50 77,1081
78,440 79,671 80,50 81,70
82,130 83,40 84,50 85,40
86,70 87,60 88,10 89,901
90,460 91,3683 92,651 93,250
94,40 95,100 96,50 97,180
98,20 99,10 102,20 103,100
104,70 105,330 106,40 107,10
108,140 109,30 110,10 111,10
117,10 119,10 121,1101 122,280
123,5605 124,520 125,280 126,20
134,70 135,70 136,10 137,180
138,9999 139,1021 140,530 141,40
##END=
