##TITLE=2-Buten-1-one, 3-(methylamino)-1-phenyl-
##JCAMP-DX=4.24
##DATA TYPE=MASS SPECTRUM
##ORIGIN=D.H.WILLIAMS CHEMISTRY DEPT., UNIVERSITY OF CAMBRIDGE
##OWNER=NIST Mass Spectrometry Data Center
Collection (C) 2014 copyright by the U.S. Secretary of Commerce
on behalf of the United States of America. All rights reserved.
##CAS REGISTRY NO=14091-93-1
##$NIST MASS SPEC NO=7061
##MOLFORM=C11 H13 N O
##MW=175
##$NIST SOURCE=MSDC
##XUNITS=M/Z
##YUNITS=RELATIVE INTENSITY
##XFACTOR=1
##YFACTOR=1
##FIRSTX=30
##LASTX=176
##FIRSTY=800
##MAXX=176
##MINX=30
##MAXY=9999
##MINY=40
##NPOINTS=57
##PEAK TABLE=(XY..XY)
30,800 31,100 32,100 38,100
39,400 40,100 41,400 42,350
43,550 44,100 50,200 51,600
52,100 53,100 54,200 55,300
56,1600 57,100 58,300 63,100
65,100 67,100 68,100 69,100
70,500 73,100 74,100 75,100
76,100 77,2000 78,300 82,300
85,100 91,300 98,605 99,40
103,150 105,2000 106,100 115,100
116,100 117,100 130,100 131,100
132,100 133,100 143,100 144,100
145,100 146,100 154,100 158,950
159,900 160,800 174,9999 175,6700
176,900
##END=
