##TITLE=Valeraldehyde, dimethylhydrazone
##JCAMP-DX=4.24
##DATA TYPE=MASS SPECTRUM
##ORIGIN=ATLAS OF MASS SPECTRA OF ORGANIC COMPOUNDS, V. A. KOPTYUG, ED.
##OWNER=NIST Mass Spectrometry Data Center
Collection (C) 2014 copyright by the U.S. Secretary of Commerce
on behalf of the United States of America. All rights reserved.
##CAS REGISTRY NO=14090-57-4
##$NIST MASS SPEC NO=64500
##MOLFORM=C7 H16 N2
##MW=128
##$NIST SOURCE=MSDC
##XUNITS=M/Z
##YUNITS=RELATIVE INTENSITY
##XFACTOR=1
##YFACTOR=1
##FIRSTX=27
##LASTX=129
##FIRSTY=1940
##MAXX=129
##MINX=27
##MAXY=9999
##MINY=100
##NPOINTS=29
##PEAK TABLE=(XY..XY)
27,1940 29,1250 30,1000 39,760
41,1750 42,4620 43,4880 44,9999
45,3620 46,410 55,550 56,750
57,550 58,880 70,280 71,1560
72,320 83,240 84,310 85,8110
86,8390 87,480 99,1750 100,300
113,1130 114,100 127,220 128,6610
129,610
##END=
