##TITLE=tert-Butyl methyl sulfoxide
##JCAMP-DX=4.24
##DATA TYPE=MASS SPECTRUM
##ORIGIN=NIST Mass Spectrometry Data Center, 1994
##OWNER=NIST Mass Spectrometry Data Center
Collection (C) 2014 copyright by the U.S. Secretary of Commerce
on behalf of the United States of America. All rights reserved.
##CAS REGISTRY NO=14094-11-2
##$NIST MASS SPEC NO=136948
##MOLFORM=C5 H12 O S
##MW=120
##$NIST SOURCE=MSDC
##XUNITS=M/Z
##YUNITS=RELATIVE INTENSITY
##XFACTOR=1
##YFACTOR=1
##FIRSTX=12
##LASTX=122
##FIRSTY=53
##MAXX=122
##MINX=12
##MAXY=9999
##MINY=14
##NPOINTS=53
##PEAK TABLE=(XY..XY)
12,53 13,100 14,291 15,996
16,100 17,69 18,50 25,30
26,312 27,1709 28,1614 29,5262
30,149 31,236 32,364 33,154
34,125 35,60 37,185 38,470
39,3515 40,705 41,9999 42,453
43,117 44,187 45,1484 46,611
47,1107 48,566 49,346 50,322
51,257 52,65 53,279 54,101
55,1072 56,1529 57,6190 58,298
59,229 61,42 62,297 63,959
64,2111 65,149 66,92 79,46
81,54 104,49 120,318 121,22
122,14
##END=
