##TITLE=4,6-Nonanedione
##JCAMP-DX=4.24
##DATA TYPE=MASS SPECTRUM
##ORIGIN=RADIAN CORP
##OWNER=NIST Mass Spectrometry Data Center
Collection (C) 2014 copyright by the U.S. Secretary of Commerce
on behalf of the United States of America. All rights reserved.
##CAS REGISTRY NO=14090-88-1
##$NIST MASS SPEC NO=73406
##MOLFORM=C9 H16 O2
##MW=156
##$NIST SOURCE=MSDC
##XUNITS=M/Z
##YUNITS=RELATIVE INTENSITY
##XFACTOR=1
##YFACTOR=1
##FIRSTX=15
##LASTX=158
##FIRSTY=130
##MAXX=158
##MINX=15
##MAXY=9999
##MINY=10
##NPOINTS=43
##PEAK TABLE=(XY..XY)
15,130 26,240 27,2570 29,910
37,40 38,160 39,1590 41,2960
42,1290 43,6940 45,90 50,10
52,30 53,180 54,30 55,640
56,50 57,430 58,420 65,60
66,50 67,490 68,70 69,890
70,200 71,8780 72,350 81,20
85,510 95,160 97,140 99,110
100,140 111,30 113,9999 114,740
115,50 128,860 129,70 141,240
156,1230 157,330 158,10
##END=
