##TITLE=Benzene, 1,3-diethyl-
##JCAMP-DX=4.24
##DATA TYPE=MASS SPECTRUM
##ORIGIN=Japan AIST/NIMC Database- Spectrum MS-NW-3676
##OWNER=NIST Mass Spectrometry Data Center
Collection (C) 2014 copyright by the U.S. Secretary of Commerce
on behalf of the United States of America. All rights reserved.
##CAS REGISTRY NO=141-93-5
##$NIST MASS SPEC NO=229734
##MOLFORM=C10 H14
##MW=134
##$NIST SOURCE=MSDC
##XUNITS=M/Z
##YUNITS=RELATIVE INTENSITY
##XFACTOR=1
##YFACTOR=1
##FIRSTX=15
##LASTX=136
##FIRSTY=70
##MAXX=136
##MINX=15
##MAXY=9999
##MINY=10
##NPOINTS=74
##PEAK TABLE=(XY..XY)
15,70 26,40 27,529 28,30
29,279 37,20 38,80 39,729
40,70 41,559 42,20 43,10
44,10 49,10 50,259 51,639
52,209 53,239 54,20 55,50
57,139 58,109 59,50 61,30
62,119 63,399 64,139 65,539
66,70 67,30 73,10 74,99
75,109 76,90 77,1209 78,529
79,769 80,60 85,10 86,20
87,30 88,10 89,229 90,80
91,1929 92,199 93,179 94,10
98,20 101,30 102,149 103,819
104,649 105,9499 106,999 107,50
113,10 114,10 115,549 116,149
117,749 118,149 119,9999 120,1049
121,50 127,20 128,50 129,20
131,30 132,20 133,159 134,4939
135,559 136,30
##END=
