##TITLE=Acetaldehyde, hydroxy-
##JCAMP-DX=4.24
##DATA TYPE=MASS SPECTRUM
##OWNER=NIST Mass Spectrometry Data Center
Collection (C) 2014 copyright by the U.S. Secretary of Commerce
on behalf of the United States of America. All rights reserved.
##CAS REGISTRY NO=141-46-8
##$NIST MASS SPEC NO=161
##MOLFORM=C2 H4 O2
##MW=60
##$NIST SOURCE=MSDC
##XUNITS=M/Z
##YUNITS=RELATIVE INTENSITY
##XFACTOR=1
##YFACTOR=1
##FIRSTX=12
##LASTX=61
##FIRSTY=40
##MAXX=61
##MINX=12
##MAXY=9999
##MINY=10
##NPOINTS=29
##PEAK TABLE=(XY..XY)
12,40 13,120 14,320 15,621
16,20 17,90 18,310 24,20
25,60 26,110 27,40 28,1271
29,4044 30,561 31,9999 32,4854
33,80 36,60 38,10 40,60
41,150 42,480 43,80 44,20
45,30 56,90 58,70 60,711
61,40
##END=
