##TITLE=Ethyl acetoacetate
##JCAMP-DX=4.24
##DATA TYPE=MASS SPECTRUM
##ORIGIN=Japan AIST/NIMC Database- Spectrum MS-NW-1297
##OWNER=NIST Mass Spectrometry Data Center
Collection (C) 2014 copyright by the U.S. Secretary of Commerce
on behalf of the United States of America. All rights reserved.
##CAS REGISTRY NO=141-97-9
##$NIST MASS SPEC NO=227788
##MOLFORM=C6 H10 O3
##MW=130
##$NIST SOURCE=MSDC
##XUNITS=M/Z
##YUNITS=RELATIVE INTENSITY
##XFACTOR=1
##YFACTOR=1
##FIRSTX=12
##LASTX=131
##FIRSTY=10
##MAXX=131
##MINX=12
##MAXY=9999
##MINY=10
##NPOINTS=54
##PEAK TABLE=(XY..XY)
12,10 13,30 14,219 15,819
16,60 18,30 19,40 25,30
26,209 27,1069 28,719 29,2359
30,60 31,689 32,20 37,20
38,40 39,99 40,80 41,109
42,1029 43,9999 44,279 45,539
46,99 53,10 55,50 56,70
57,30 58,349 59,30 60,969
61,389 62,10 68,10 69,529
70,179 71,30 73,139 74,20
84,429 85,1459 86,80 87,309
88,1909 89,99 90,10 102,359
103,30 113,10 115,169 116,10
130,579 131,40
##END=
