##TITLE=Hexanedioic acid, bis(2-methylpropyl) ester
##JCAMP-DX=4.24
##DATA TYPE=MASS SPECTRUM
##ORIGIN=Japan AIST/NIMC Database- Spectrum MS-NW-5245
##OWNER=NIST Mass Spectrometry Data Center
Collection (C) 2014 copyright by the U.S. Secretary of Commerce
on behalf of the United States of America. All rights reserved.
##CAS REGISTRY NO=141-04-8
##$NIST MASS SPEC NO=232836
##MOLFORM=C14 H26 O4
##MW=258
##$NIST SOURCE=MSDC
##XUNITS=M/Z
##YUNITS=RELATIVE INTENSITY
##XFACTOR=1
##YFACTOR=1
##FIRSTX=14
##LASTX=258
##FIRSTY=10
##MAXX=258
##MINX=14
##MAXY=9999
##MINY=10
##NPOINTS=115
##PEAK TABLE=(XY..XY)
14,10 15,70 17,30 18,109
26,60 27,749 28,549 29,1959
30,50 31,109 32,60 33,10
37,10 38,30 39,609 40,129
41,2819 42,299 43,559 44,99
45,99 50,30 51,40 52,10
53,109 54,129 55,1579 56,2479
57,5519 58,269 59,349 60,289
61,80 66,10 67,30 68,99
69,139 70,20 71,40 72,20
73,329 74,50 75,10 77,10
79,10 81,20 82,80 83,869
84,539 85,99 86,40 87,1049
88,50 89,10 90,20 91,10
95,20 96,10 97,10 98,20
99,90 100,1259 101,1679 102,319
103,60 105,10 106,10 107,10
108,10 109,10 110,80 111,2309
112,539 113,70 114,20 115,10
116,50 117,30 121,10 122,10
123,10 124,10 126,10 127,50
128,349 129,9999 130,689 131,99
132,10 141,10 142,30 143,809
144,80 145,20 146,30 147,129
148,10 154,10 156,779 157,99
158,119 159,10 167,10 169,20
183,10 184,80 185,4269 186,489
187,60 202,40 203,90 204,10
243,40 244,10 258,10
##END=
