##TITLE=Dicrotophos
##JCAMP-DX=4.24
##DATA TYPE=MASS SPECTRUM
##ORIGIN=ACCUSTANDARD Chemicals / NIST MS Data Center.
##OWNER=NIST Mass Spectrometry Data Center
Collection (C) 2014 copyright by the U.S. Secretary of Commerce
on behalf of the United States of America. All rights reserved.
##CAS REGISTRY NO=141-66-2
##$NIST MASS SPEC NO=125572
##MOLFORM=C8 H16 N O5 P
##MW=237
##$NIST SOURCE=MSDC
##XUNITS=M/Z
##YUNITS=RELATIVE INTENSITY
##XFACTOR=1
##YFACTOR=1
##FIRSTX=12
##LASTX=239
##FIRSTY=6
##MAXX=239
##MINX=12
##MAXY=9999
##MINY=1
##NPOINTS=112
##PEAK TABLE=(XY..XY)
12,6 14,65 15,1070 16,18
25,4 26,25 27,193 28,627
29,156 30,105 31,163 32,80
33,65 34,3 37,20 38,85
39,522 40,124 41,150 42,854
43,834 44,937 45,243 46,81
47,153 48,23 49,26 50,14
51,11 52,16 53,36 54,40
55,199 56,130 57,47 58,136
59,15 61,5 62,7 63,37
64,13 65,65 66,5 67,2700
68,378 69,211 70,55 71,5
72,1123 73,40 74,4 76,3
77,17 79,462 80,34 81,50
82,223 83,429 84,69 85,49
86,1 89,5 90,4 91,6
93,110 95,169 96,112 97,19
98,17 99,12 100,50 101,5
104,3 105,6 106,8 109,964
110,418 111,766 112,122 113,67
119,17 120,6 121,4 122,5
125,134 127,9999 128,249 129,74
130,3 131,4 132,6 149,7
151,11 160,7 164,161 165,30
166,69 167,8 180,14 181,4
192,544 193,1027 194,255 195,26
206,12 208,12 209,23 220,39
222,25 237,675 238,73 239,13
##END=
