##TITLE=Pentasiloxane, dodecamethyl-
##JCAMP-DX=4.24
##DATA TYPE=MASS SPECTRUM
##ORIGIN=NIST Mass Spectrometry Data Center
##OWNER=NIST Mass Spectrometry Data Center
Collection (C) 2014 copyright by the U.S. Secretary of Commerce
on behalf of the United States of America. All rights reserved.
##CAS REGISTRY NO=141-63-9
##$NIST MASS SPEC NO=352501
##MOLFORM=C12 H36 O4 Si5
##MW=384
##$NIST SOURCE=MSDC
##XUNITS=M/Z
##YUNITS=RELATIVE INTENSITY
##XFACTOR=1
##YFACTOR=1
##FIRSTX=43
##LASTX=374
##FIRSTY=30
##MAXX=374
##MINX=43
##MAXY=9999
##MINY=10
##NPOINTS=138
##PEAK TABLE=(XY..XY)
43,30 44,20 45,330 46,20
47,20 55,10 57,10 58,30
59,230 60,20 61,20 70,10
71,20 73,4264 74,380 75,200
76,10 83,10 85,30 87,30
88,10 89,10 95,10 96,10
101,10 102,10 103,50 104,10
105,20 113,20 115,40 116,10
117,190 118,30 119,80 120,10
121,10 124,10 125,10 129,10
131,170 132,30 133,330 134,50
135,30 143,10 145,30 147,6236
148,1011 149,510 150,50 151,10
153,10 159,20 161,30 162,10
163,60 164,10 165,40 166,10
175,30 176,30 177,150 178,30
179,100 180,20 181,10 187,10
189,150 190,40 191,571 192,110
193,270 194,50 195,30 201,10
203,80 204,20 205,220 206,60
207,1131 208,240 209,140 210,20
211,10 217,10 219,20 220,10
221,80 222,20 223,20 233,10
234,10 235,80 236,20 237,20
247,70 249,921 250,240 251,300
252,70 253,40 254,10 261,10
263,20 265,1281 266,340 267,310
268,60 269,30 277,10 279,100
281,9999 282,3433 283,2142 284,440
285,140 286,20 295,20 305,10
307,10 321,20 322,10 323,10
337,20 338,10 339,20 340,10
353,140 354,50 355,30 356,10
369,4364 370,1682 371,1061 372,280
373,90 374,20
##END=
