##TITLE=Decanedioic acid, bis(2-butoxyethyl) ester
##JCAMP-DX=4.24
##DATA TYPE=MASS SPECTRUM
##ORIGIN=H. Fales, LC, NHLBI, NIH, Bethesda, MD 20892
##OWNER=NIST Mass Spectrometry Data Center
Collection (C) 2014 copyright by the U.S. Secretary of Commerce
on behalf of the United States of America. All rights reserved.
##CAS REGISTRY NO=141-19-5
##$NIST MASS SPEC NO=132388
##MOLFORM=C22 H42 O6
##MW=402
##$NIST SOURCE=MSDC
##XUNITS=M/Z
##YUNITS=RELATIVE INTENSITY
##XFACTOR=1
##YFACTOR=1
##FIRSTX=41
##LASTX=403
##FIRSTY=2602
##MAXX=403
##MINX=41
##MAXY=9999
##MINY=11
##NPOINTS=232
##PEAK TABLE=(XY..XY)
41,2602 42,731 43,1671 44,998
45,2529 46,54 47,19 49,81
51,33 53,143 54,34 55,3046
56,1247 57,9999 58,77 59,32
60,434 61,132 63,152 65,26
67,410 68,222 69,1362 70,638
71,749 72,171 73,611 74,75
75,51 77,31 79,212 80,115
81,409 82,224 83,919 84,192
85,7816 86,185 87,881 88,378
89,77 91,53 93,238 94,107
95,402 96,220 97,824 98,1813
99,1822 100,1272 101,8644 102,49
103,44 104,63 105,319 107,142
108,27 109,111 110,139 111,420
112,837 113,429 114,14 115,276
116,120 117,1294 119,355 121,445
122,14 123,127 124,201 125,266
127,217 128,111 129,242 130,46
131,121 132,16 133,18 135,32
136,22 137,142 138,498 139,423
140,588 141,515 142,68 143,85
145,101 147,62 148,82 149,151
150,34 151,34 152,40 153,38
154,45 155,434 156,136 157,109
158,145 160,1603 161,156 162,23
164,31 165,79 166,769 167,264
168,79 169,670 170,19 171,222
173,652 174,74 176,33 177,11
179,15 180,20 181,27 182,26
183,134 184,470 185,2412 186,58
187,366 188,33 189,13 193,14
194,55 195,19 197,40 198,34
199,178 201,235 202,75 203,80
209,31 210,18 211,771 213,1801
214,232 215,116 216,27 217,29
225,34 226,23 227,191 228,139
229,4122 230,813 231,133 232,31
239,21 240,26 241,172 242,60
243,1623 244,244 245,48 247,50
254,15 255,42 256,330 257,362
258,516 259,108 260,15 268,25
269,27 270,42 271,135 272,42
273,230 274,42 275,12 283,37
284,59 285,2027 286,382 287,143
289,23 296,17 297,68 298,32
299,108 300,29 301,114 302,93
303,191 304,33 307,57 308,12
311,16 312,13 313,82 314,37
315,49 316,23 317,13 325,34
326,13 327,38 328,168 329,973
330,281 331,57 339,12 340,26
341,70 342,47 343,63 344,16
345,24 347,18 353,14 355,13
356,12 357,46 358,15 359,26
368,14 369,30 370,13 371,20
387,17 395,11 397,13 399,15
400,33 401,73 402,157 403,34
##END=
