##TITLE=Morpholine, 2,6-dimethyl-
##JCAMP-DX=4.24
##DATA TYPE=MASS SPECTRUM
##ORIGIN=Japan AIST/NIMC Database- Spectrum MS-NW-3144
##OWNER=NIST Mass Spectrometry Data Center
Collection (C) 2014 copyright by the U.S. Secretary of Commerce
on behalf of the United States of America. All rights reserved.
##CAS REGISTRY NO=141-91-3
##$NIST MASS SPEC NO=231330
##MOLFORM=C6 H13 N O
##MW=115
##$NIST SOURCE=MSDC
##XUNITS=M/Z
##YUNITS=RELATIVE INTENSITY
##XFACTOR=1
##YFACTOR=1
##FIRSTX=14
##LASTX=117
##FIRSTY=40
##MAXX=117
##MINX=14
##MAXY=9999
##MINY=10
##NPOINTS=59
##PEAK TABLE=(XY..XY)
14,40 15,349 18,20 26,70
27,559 28,1119 29,539 30,9999
31,179 32,10 33,10 34,10
37,20 38,60 39,809 40,229
41,1719 42,4759 43,1289 44,879
45,689 46,20 50,10 52,20
53,20 54,129 55,129 56,2769
57,299 58,119 59,50 67,30
68,199 69,139 70,1719 71,6599
72,449 73,139 74,10 78,10
80,10 81,20 82,20 84,40
85,179 86,40 87,30 94,10
96,40 98,10 99,10 100,309
101,20 111,10 113,10 114,159
115,4189 116,289 117,20
##END=
