##TITLE=Tetrasiloxane, decamethyl-
##JCAMP-DX=4.24
##DATA TYPE=MASS SPECTRUM
##ORIGIN=NIST Mass Spectrometry Data Center
##OWNER=NIST Mass Spectrometry Data Center
Collection (C) 2014 copyright by the U.S. Secretary of Commerce
on behalf of the United States of America. All rights reserved.
##CAS REGISTRY NO=141-62-8
##$NIST MASS SPEC NO=352502
##MOLFORM=C10 H30 O3 Si4
##MW=310
##$NIST SOURCE=MSDC
##XUNITS=M/Z
##YUNITS=RELATIVE INTENSITY
##XFACTOR=1
##YFACTOR=1
##FIRSTX=15
##LASTX=300
##FIRSTY=10
##MAXX=300
##MINX=15
##MAXY=9999
##MINY=10
##NPOINTS=126
##PEAK TABLE=(XY..XY)
15,10 29,10 31,10 43,40
44,30 45,340 46,20 47,20
52,10 55,10 57,20 58,30
59,300 60,20 61,30 66,50
70,10 71,20 73,4864 74,440
75,250 76,10 80,10 81,10
82,10 83,10 85,40 86,10
87,50 88,30 89,30 95,20
96,10 101,10 102,10 103,80
104,10 105,40 106,10 109,10
110,10 113,10 115,100 116,20
117,100 118,20 119,150 120,20
121,10 124,40 125,10 129,20
131,140 132,40 133,400 134,60
135,40 140,80 143,10 145,30
146,10 147,220 148,30 149,40
150,10 159,30 160,10 161,50
162,10 163,120 164,20 165,60
166,10 167,10 173,10 175,60
176,50 177,250 178,50 179,60
180,10 187,10 189,300 190,70
191,1241 192,240 193,370 194,60
195,30 201,10 203,60 204,20
205,100 207,9999 208,2762 209,1601
210,220 211,60 212,10 219,10
221,20 233,20 234,10 235,10
247,200 248,60 249,60 250,10
251,10 263,160 264,50 265,160
266,40 267,30 279,561 280,160
281,100 282,20 283,10 293,10
295,4504 296,1421 297,881 298,190
299,60 300,10
##END=
