##TITLE=Silane, trichloropropyl-
##JCAMP-DX=4.24
##DATA TYPE=MASS SPECTRUM
##OWNER=NIST Mass Spectrometry Data Center
Collection (C) 2014 copyright by the U.S. Secretary of Commerce
on behalf of the United States of America. All rights reserved.
##CAS REGISTRY NO=141-57-1
##$NIST MASS SPEC NO=7181
##MOLFORM=C3 H7 Cl3 Si
##MW=176
##$NIST SOURCE=MSDC
##XUNITS=M/Z
##YUNITS=RELATIVE INTENSITY
##XFACTOR=1
##YFACTOR=1
##FIRSTX=14
##LASTX=182
##FIRSTY=70
##MAXX=182
##MINX=14
##MAXY=9999
##MINY=20
##NPOINTS=108
##PEAK TABLE=(XY..XY)
14,70 15,210 16,30 25,20
26,300 27,1431 28,530 29,1131
30,30 35,110 36,631 37,100
38,240 39,1351 40,380 41,2182
42,3013 43,5565 44,260 47,20
48,20 49,260 51,80 52,20
53,140 54,30 55,30 57,20
63,1651 64,190 65,891 66,90
67,50 69,20 73,30 75,20
76,30 77,60 78,100 79,40
80,30 88,40 89,20 90,20
91,20 93,20 98,971 99,721
100,681 101,490 102,150 103,130
104,70 105,50 106,50 111,40
112,981 113,360 114,961 115,230
116,180 117,60 123,100 124,80
125,1281 126,210 127,901 128,110
129,220 133,5715 134,420 135,5645
136,410 137,1962 138,200 139,571
140,9999 141,1051 142,6626 143,891
144,1281 145,170 146,60 147,50
148,20 149,40 150,20 151,20
160,30 161,2112 162,240 163,2032
164,220 165,991 166,80 167,120
168,40 170,40 172,20 174,20
175,160 176,811 177,220 178,801
179,120 180,270 181,30 182,50
##END=
