##TITLE=2-Butenedioic acid (E)-, bis(2-ethylhexyl) ester
##JCAMP-DX=4.24
##DATA TYPE=MASS SPECTRUM
##ORIGIN=Zaikin V.G., TIPS RAS, Moscow, Russia
##OWNER=NIST Mass Spectrometry Data Center
Collection (C) 2014 copyright by the U.S. Secretary of Commerce
on behalf of the United States of America. All rights reserved.
##CAS REGISTRY NO=141-02-6
##$NIST MASS SPEC NO=339147
##MOLFORM=C20 H36 O4
##MW=340
##$NIST SOURCE=MSDC
##XUNITS=M/Z
##YUNITS=RELATIVE INTENSITY
##XFACTOR=1
##YFACTOR=1
##FIRSTX=26
##LASTX=311
##FIRSTY=90
##MAXX=311
##MINX=26
##MAXY=9999
##MINY=10
##NPOINTS=80
##PEAK TABLE=(XY..XY)
26,90 27,550 29,1181 31,20
39,290 41,2422 42,581 43,2632
53,220 54,691 55,3163 56,1782
57,6356 58,260 59,30 67,190
68,200 69,1992 70,9999 71,3693
72,220 81,330 82,1481 83,2853
84,1672 85,1201 86,90 95,30
97,300 98,60 99,2472 100,4204
101,230 102,30 109,20 110,200
111,390 112,6386 113,1692 114,130
117,480 118,170 119,30 125,20
126,20 127,30 128,30 129,100
131,70 137,40 138,20 139,20
141,20 142,60 151,10 153,40
154,40 155,20 165,60 167,60
168,20 169,50 180,20 181,50
182,50 183,100 185,70 192,50
199,20 210,100 211,2062 212,470
213,50 228,30 229,330 230,40
243,20 283,50 297,20 311,30
##END=
