##TITLE=2-Butenedioic acid (Z)-, diethyl ester
##JCAMP-DX=4.24
##DATA TYPE=MASS SPECTRUM
##ORIGIN=Chuck Anderson, Aldrich Chemical Co.
##OWNER=NIST Mass Spectrometry Data Center
Collection (C) 2014 copyright by the U.S. Secretary of Commerce
on behalf of the United States of America. All rights reserved.
##CAS REGISTRY NO=141-05-9
##$NIST MASS SPEC NO=107712
##MOLFORM=C8 H12 O4
##MW=172
##$NIST SOURCE=MSDC
##XUNITS=M/Z
##YUNITS=RELATIVE INTENSITY
##XFACTOR=1
##YFACTOR=1
##FIRSTX=13
##LASTX=174
##FIRSTY=1
##MAXX=174
##MINX=13
##MAXY=9999
##MINY=1
##NPOINTS=87
##PEAK TABLE=(XY..XY)
13,1 14,13 15,92 16,5
19,19 24,1 25,21 26,644
27,1399 28,294 29,2216 30,104
31,141 32,2 36,2 37,5
38,12 39,47 40,8 41,91
42,119 43,648 44,211 45,1635
46,66 47,228 48,4 49,2
50,2 51,4 52,13 53,632
54,1760 55,1194 56,192 57,26
58,36 59,26 60,5 68,15
69,43 70,19 71,679 72,310
73,59 74,12 75,1 79,1
80,2 81,141 82,1053 83,70
84,6 85,11 86,20 87,2
88,4 97,13 99,9999 100,1053
101,106 102,8 111,1 113,6
114,20 115,3 116,2 117,35
118,1 125,290 126,3002 127,4464
128,1053 129,85 130,8 141,26
142,1 143,782 144,51 145,153
146,9 147,1 154,3 171,1
172,1 173,26 174,1
##END=
