##TITLE=Diethylene glycol monolaurate
##JCAMP-DX=4.24
##DATA TYPE=MASS SPECTRUM
##ORIGIN=Japan AIST/NIMC Database- Spectrum MS-NW-6418
##OWNER=NIST Mass Spectrometry Data Center
Collection (C) 2014 copyright by the U.S. Secretary of Commerce
on behalf of the United States of America. All rights reserved.
##CAS REGISTRY NO=141-20-8
##$NIST MASS SPEC NO=235931
##MOLFORM=C16 H32 O4
##MW=288
##$NIST SOURCE=MSDC
##XUNITS=M/Z
##YUNITS=RELATIVE INTENSITY
##XFACTOR=1
##YFACTOR=1
##FIRSTX=12
##LASTX=289
##FIRSTY=10
##MAXX=289
##MINX=12
##MAXY=9999
##MINY=10
##NPOINTS=215
##PEAK TABLE=(XY..XY)
12,10 13,10 14,30 15,789
16,70 17,30 18,119 19,10
24,20 25,60 26,359 27,1949
28,1169 29,2039 30,439 31,1429
32,139 33,99 35,10 36,80
37,30 38,40 39,609 40,119
41,2389 42,639 43,2809 44,3289
45,9999 46,309 47,159 48,10
50,20 51,50 52,30 53,189
54,259 55,2019 56,619 57,2879
58,689 59,279 60,1759 61,1289
62,80 63,60 65,40 66,30
67,399 68,259 69,979 70,399
71,1119 72,80 73,1829 74,489
75,2009 76,879 77,99 78,40
79,99 80,80 81,319 82,239
83,639 84,1219 85,779 86,839
87,1039 88,1259 89,439 90,30
91,80 92,20 93,80 94,50
95,319 96,159 97,549 98,1569
99,1729 100,189 101,379 102,90
103,199 104,159 105,189 106,20
107,169 108,40 109,229 110,90
111,259 112,419 113,159 114,40
115,269 116,189 117,129 118,70
119,20 120,10 121,50 122,20
123,70 124,40 125,109 126,209
127,879 128,109 129,479 130,70
131,80 132,20 133,20 134,90
135,40 136,20 137,40 138,80
139,60 140,80 141,119 142,30
143,229 144,40 145,99 146,20
147,20 148,379 149,50 150,20
151,20 152,20 153,50 154,70
155,469 156,60 157,229 158,50
159,20 160,10 161,80 162,20
163,30 164,10 165,20 166,20
167,20 168,20 169,50 170,70
171,509 172,129 173,50 174,20
176,10 180,30 181,40 182,80
183,1029 184,169 185,80 186,20
187,20 190,20 191,10 197,50
198,40 199,199 200,159 201,149
202,60 203,10 208,10 210,30
211,189 212,40 213,20 214,30
215,20 216,10 217,10 218,10
225,30 226,90 227,579 228,189
229,40 230,20 231,10 232,20
233,20 234,10 236,10 239,40
240,30 243,20 251,10 253,10
254,20 255,109 256,40 257,20
258,60 259,20 260,20 261,10
262,20 264,20 283,20 284,10
286,10 288,20 289,10
##END=
