##TITLE=Butanedioic acid, dibutyl ester
##JCAMP-DX=4.24
##DATA TYPE=MASS SPECTRUM
##ORIGIN=NIST Mass Spectrometry Data Center, 1994
##OWNER=NIST Mass Spectrometry Data Center
Collection (C) 2014 copyright by the U.S. Secretary of Commerce
on behalf of the United States of America. All rights reserved.
##CAS REGISTRY NO=141-03-7
##$NIST MASS SPEC NO=133329
##MOLFORM=C12 H22 O4
##MW=230
##$NIST SOURCE=MSDC
##XUNITS=M/Z
##YUNITS=RELATIVE INTENSITY
##XFACTOR=1
##YFACTOR=1
##FIRSTX=14
##LASTX=201
##FIRSTY=5
##MAXX=201
##MINX=14
##MAXY=9999
##MINY=3
##NPOINTS=62
##PEAK TABLE=(XY..XY)
14,5 15,20 16,5 25,6
26,60 27,516 28,540 29,1048
30,41 31,57 37,3 39,240
41,1269 42,140 43,188 44,37
45,106 46,4 51,7 52,5
53,41 55,700 56,1130 57,1152
58,56 59,11 60,6 70,6
71,44 72,42 73,434 74,318
75,131 76,4 82,6 83,30
84,42 85,19 86,9 87,4
97,5 101,9999 102,421 103,71
112,8 114,45 115,5 119,315
120,14 127,15 128,17 130,121
131,13 141,6 145,16 154,4
157,1566 158,131 159,29 175,271
176,26 201,10
##END=
