##TITLE=Butanoyl chloride
##JCAMP-DX=4.24
##DATA TYPE=MASS SPECTRUM
##ORIGIN=NIST Mass Spectrometry Data Center
##OWNER=NIST Mass Spectrometry Data Center
Collection (C) 2014 copyright by the U.S. Secretary of Commerce
on behalf of the United States of America. All rights reserved.
##CAS REGISTRY NO=141-75-3
##$NIST MASS SPEC NO=333903
##MOLFORM=C4 H7 Cl O
##MW=106
##$NIST SOURCE=MSDC
##XUNITS=M/Z
##YUNITS=RELATIVE INTENSITY
##XFACTOR=1
##YFACTOR=1
##FIRSTX=14
##LASTX=109
##FIRSTY=30
##MAXX=109
##MINX=14
##MAXY=9999
##MINY=10
##NPOINTS=60
##PEAK TABLE=(XY..XY)
14,30 15,80 25,40 26,360
27,1591 28,440 29,280 30,10
33,10 35,110 36,50 37,290
38,430 39,1812 40,270 41,3543
42,2062 43,6085 44,230 45,10
47,30 48,30 49,200 50,90
51,90 52,20 53,110 54,20
55,480 56,120 57,10 60,30
61,60 62,30 63,981 64,30
65,330 66,10 67,10 68,10
69,50 71,9999 72,550 73,50
75,20 76,10 77,60 78,1862
79,60 80,631 81,20 91,480
92,20 93,160 94,10 105,10
106,110 107,20 108,40 109,10
##END=
