##TITLE=Methylthio-2-propanone
##JCAMP-DX=4.24
##DATA TYPE=MASS SPECTRUM
##ORIGIN=NIST Mass Spectrometry Data Center
##OWNER=NIST Mass Spectrometry Data Center
Collection (C) 2014 copyright by the U.S. Secretary of Commerce
on behalf of the United States of America. All rights reserved.
##CAS REGISTRY NO=14109-72-9
##$NIST MASS SPEC NO=343713
##MOLFORM=C4 H8 O S
##MW=104
##$NIST SOURCE=MSDC
##XUNITS=M/Z
##YUNITS=RELATIVE INTENSITY
##XFACTOR=1
##YFACTOR=1
##FIRSTX=12
##LASTX=106
##FIRSTY=30
##MAXX=106
##MINX=12
##MAXY=9999
##MINY=10
##NPOINTS=45
##PEAK TABLE=(XY..XY)
12,30 13,130 14,601 15,1972
16,20 25,50 26,370 27,2442
28,60 29,440 30,20 31,60
33,40 35,2332 36,30 37,160
38,100 39,270 40,30 41,190
42,941 43,9999 44,380 45,1962
46,1141 47,1071 48,100 49,60
53,20 57,150 58,350 59,200
61,7377 62,3183 63,410 64,170
69,20 71,10 72,10 73,40
75,10 76,80 104,2492 105,120
106,80
##END=
