##TITLE=2,4,6-Trimethoxytoluene
##JCAMP-DX=4.24
##DATA TYPE=MASS SPECTRUM
##ORIGIN=NIST Mass Spectrometry Data Center
##OWNER=NIST Mass Spectrometry Data Center
Collection (C) 2014 copyright by the U.S. Secretary of Commerce
on behalf of the United States of America. All rights reserved.
##CAS REGISTRY NO=14107-97-2
##$NIST MASS SPEC NO=352460
##MOLFORM=C10 H14 O3
##MW=182
##$NIST SOURCE=MSDC
##XUNITS=M/Z
##YUNITS=RELATIVE INTENSITY
##XFACTOR=1
##YFACTOR=1
##FIRSTX=14
##LASTX=184
##FIRSTY=10
##MAXX=184
##MINX=14
##MAXY=9999
##MINY=10
##NPOINTS=111
##PEAK TABLE=(XY..XY)
14,10 15,230 26,30 27,210
28,40 29,140 30,30 31,30
37,30 38,170 39,881 40,130
41,320 42,50 43,280 45,130
49,20 50,440 51,931 52,530
53,1061 54,130 55,400 56,60
57,60 59,430 61,60 62,180
63,430 64,290 65,1001 66,931
67,290 68,80 69,1231 70,50
71,20 74,130 75,110 76,140
77,1251 78,601 79,761 80,330
81,370 82,60 83,200 84,20
85,30 86,20 87,10 89,90
90,100 91,1201 92,420 93,771
94,370 95,490 96,350 97,40
98,10 99,10 101,10 103,30
104,20 105,230 106,180 107,591
108,561 109,1571 110,180 111,90
112,10 118,10 119,90 120,540
121,2672 122,571 123,771 124,941
125,340 126,30 131,10 133,20
134,90 135,781 136,1121 137,1001
138,801 139,2022 140,180 141,20
149,170 150,320 151,3743 152,651
153,3193 154,260 155,20 163,190
164,310 165,90 166,100 167,2642
168,260 169,30 179,40 181,2262
182,9999 183,1071 184,120
##END=
