##TITLE=Phosphorocyanidous difluoride
##JCAMP-DX=4.24
##DATA TYPE=MASS SPECTRUM
##ORIGIN=A.Pleshkova, Nesmeyanov Inst.Org.Elem.Cpds, Moscow
##OWNER=NIST Mass Spectrometry Data Center
Collection (C) 2014 copyright by the U.S. Secretary of Commerce
on behalf of the United States of America. All rights reserved.
##CAS REGISTRY NO=14118-40-2
##$NIST MASS SPEC NO=284321
##MOLFORM=C F2 N P
##MW=95
##$NIST SOURCE=MSDC
##XUNITS=M/Z
##YUNITS=RELATIVE INTENSITY
##XFACTOR=1
##YFACTOR=1
##FIRSTX=14
##LASTX=96
##FIRSTY=250
##MAXX=96
##MINX=14
##MAXY=9999
##MINY=20
##NPOINTS=16
##PEAK TABLE=(XY..XY)
14,250 19,160 26,961 27,1261
28,20 31,1331 38,140 43,180
47,130 50,1762 57,190 69,9999
76,1421 77,20 95,2712 96,40
##END=
