##TITLE=2-Pyridinecarboxylic acid, 4-amino-3,5,6-trichloro-, methyl ester
##JCAMP-DX=4.24
##DATA TYPE=MASS SPECTRUM
##ORIGIN=NIST Mass Spectrometry Data Center, 1995
##OWNER=NIST Mass Spectrometry Data Center
Collection (C) 2014 copyright by the U.S. Secretary of Commerce
on behalf of the United States of America. All rights reserved.
##CAS REGISTRY NO=14143-55-6
##$NIST MASS SPEC NO=245219
##MOLFORM=C7 H5 Cl3 N2 O2
##MW=254
##$NIST SOURCE=MSDC
##XUNITS=M/Z
##YUNITS=RELATIVE INTENSITY
##XFACTOR=1
##YFACTOR=1
##FIRSTX=14
##LASTX=258
##FIRSTY=111
##MAXX=258
##MINX=14
##MAXY=9999
##MINY=81
##NPOINTS=105
##PEAK TABLE=(XY..XY)
14,111 15,1438 28,196 30,170
35,176 36,191 37,222 38,310
39,264 44,210 47,586 48,238
49,218 50,200 51,433 52,219
53,327 59,805 62,886 63,477
64,289 65,199 66,454 71,283
72,132 73,529 74,384 75,732
76,214 77,463 83,212 85,242
86,1435 87,403 88,519 89,345
90,931 91,138 95,141 96,143
97,521 98,609 99,617 100,588
101,261 102,179 106,137 108,185
109,278 110,146 112,142 113,199
115,116 120,197 122,132 124,300
125,1686 126,344 127,540 132,748
133,290 134,687 135,278 136,319
141,921 143,821 144,95 145,283
148,181 159,288 160,1052 161,1090
162,872 163,685 164,197 168,1709
169,292 170,1416 171,168 172,521
175,135 176,151 178,91 193,81
195,3201 196,9094 197,3380 198,9999
199,1448 200,2911 201,215 202,321
207,154 210,137 223,1834 224,872
225,2194 226,874 227,762 228,326
254,2292 255,315 256,1880 257,223
258,581
##END=
