##TITLE=2-Fluoro-5-(trifluoromethyl)phenol
##JCAMP-DX=4.24
##DATA TYPE=MASS SPECTRUM
##ORIGIN=NIST Mass Spectrometry Data Center, 1994
##OWNER=NIST Mass Spectrometry Data Center
Collection (C) 2014 copyright by the U.S. Secretary of Commerce
on behalf of the United States of America. All rights reserved.
##CAS REGISTRY NO=141483-15-0
##$NIST MASS SPEC NO=136576
##MOLFORM=C7 H4 F4 O
##MW=180
##$NIST SOURCE=MSDC
##XUNITS=M/Z
##YUNITS=RELATIVE INTENSITY
##XFACTOR=1
##YFACTOR=1
##FIRSTX=13
##LASTX=182
##FIRSTY=28
##MAXX=182
##MINX=13
##MAXY=9999
##MINY=28
##NPOINTS=97
##PEAK TABLE=(XY..XY)
13,28 17,49 18,64 20,88
25,65 26,33 31,740 33,158
36,81 37,719 38,923 39,475
40,43 42,51 44,54 47,54
48,46 49,229 50,1060 51,585
52,73 53,619 54,52 55,222
56,858 57,2651 58,112 60,115
61,804 62,1032 63,4545 64,315
65,99 66,542 67,58 68,389
69,1395 70,89 71,164 72,53
73,159 74,53 75,1177 76,123
77,71 79,151 80,530 81,1915
82,1185 83,1268 84,96 85,33
86,69 87,175 88,414 89,41
90,111 91,128 92,135 93,310
94,134 95,55 99,360 101,1941
102,256 103,32 104,39 105,63
106,232 107,43 110,668 111,162
112,553 113,926 114,109 117,70
123,41 125,36 130,2457 131,599
132,4891 133,497 141,1255 142,134
143,365 144,42 150,124 151,566
152,101 159,297 161,4825 162,411
163,656 164,61 180,9999 181,802
182,54
##END=
