##TITLE=2-Pyridinamine, 1-oxide
##JCAMP-DX=4.24
##DATA TYPE=MASS SPECTRUM
##ORIGIN=Japan AIST/NIMC Database- Spectrum MS-IW-3075
##OWNER=NIST Mass Spectrometry Data Center
Collection (C) 2014 copyright by the U.S. Secretary of Commerce
on behalf of the United States of America. All rights reserved.
##CAS REGISTRY NO=14150-95-9
##$NIST MASS SPEC NO=230463
##MOLFORM=C5 H6 N2 O
##MW=110
##$NIST SOURCE=MSDC
##XUNITS=M/Z
##YUNITS=RELATIVE INTENSITY
##XFACTOR=1
##YFACTOR=1
##FIRSTX=14
##LASTX=112
##FIRSTY=10
##MAXX=112
##MINX=14
##MAXY=9999
##MINY=10
##NPOINTS=59
##PEAK TABLE=(XY..XY)
14,10 15,20 16,10 25,20
26,159 27,329 28,1139 29,129
30,129 36,20 37,219 38,789
39,1919 40,459 41,869 42,149
43,99 44,139 46,90 47,20
48,10 49,90 50,429 51,679
52,1359 53,569 54,839 55,1369
56,179 57,40 61,10 62,40
63,80 64,379 65,2229 66,1989
67,909 68,269 69,20 70,159
75,40 76,70 77,20 78,219
79,149 80,99 81,119 82,219
83,1109 84,60 91,80 92,2029
93,529 94,599 95,40 109,70
110,9999 111,659 112,40
##END=
