##TITLE=Tetratriacontane
##JCAMP-DX=4.24
##DATA TYPE=MASS SPECTRUM
##ORIGIN=Japan AIST/NIMC Database- Spectrum MS-NW-2326
##OWNER=NIST Mass Spectrometry Data Center
Collection (C) 2014 copyright by the U.S. Secretary of Commerce
on behalf of the United States of America. All rights reserved.
##CAS REGISTRY NO=14167-59-0
##$NIST MASS SPEC NO=234130
##MOLFORM=C34 H70
##MW=478
##$NIST SOURCE=MSDC
##XUNITS=M/Z
##YUNITS=RELATIVE INTENSITY
##XFACTOR=1
##YFACTOR=1
##FIRSTX=27
##LASTX=479
##FIRSTY=169
##MAXX=479
##MINX=27
##MAXY=9999
##MINY=10
##NPOINTS=137
##PEAK TABLE=(XY..XY)
27,169 28,50 29,699 30,10
39,99 40,20 41,1419 42,409
43,5439 44,179 53,50 54,169
55,1809 56,1099 57,9999 58,439
66,10 67,189 68,269 69,1389
70,959 71,7119 72,389 79,20
80,10 81,109 82,389 83,1349
84,709 85,5059 86,329 95,60
96,259 97,1209 98,589 99,2139
100,159 109,30 110,129 111,679
112,519 113,1549 114,129 123,10
124,90 125,399 126,459 127,1199
128,119 137,10 138,60 139,209
140,399 141,989 142,99 152,50
153,139 154,359 155,829 156,90
166,40 167,99 168,319 169,689
170,90 180,30 181,70 182,279
183,599 184,80 194,20 195,50
196,249 197,529 198,80 208,20
209,40 210,219 211,469 212,70
222,10 223,30 224,189 225,419
226,70 236,10 237,20 238,169
239,369 240,60 250,10 251,20
252,149 253,329 254,60 265,10
266,119 267,279 268,60 280,99
281,239 282,50 294,80 295,199
296,40 308,70 309,179 310,40
322,60 323,149 324,30 336,50
337,129 338,30 350,40 351,109
352,30 364,30 365,99 366,30
378,30 379,90 380,20 392,20
393,80 394,20 406,20 407,70
408,20 420,10 421,60 422,20
435,30 436,10 449,20 478,80
479,30
##END=
