##TITLE=1,3-Isobenzofurandione, hexahydro-, trans-
##JCAMP-DX=4.24
##DATA TYPE=MASS SPECTRUM
##ORIGIN=Japan AIST/NIMC Database- Spectrum MS-NW-8696
##OWNER=NIST Mass Spectrometry Data Center
Collection (C) 2014 copyright by the U.S. Secretary of Commerce
on behalf of the United States of America. All rights reserved.
##CAS REGISTRY NO=14166-21-3
##$NIST MASS SPEC NO=238872
##MOLFORM=C8 H10 O3
##MW=154
##$NIST SOURCE=MSDC
##XUNITS=M/Z
##YUNITS=RELATIVE INTENSITY
##XFACTOR=1
##YFACTOR=1
##FIRSTX=15
##LASTX=155
##FIRSTY=60
##MAXX=155
##MINX=15
##MAXY=9999
##MINY=10
##NPOINTS=59
##PEAK TABLE=(XY..XY)
15,60 17,20 18,70 26,219
27,1439 28,579 29,219 31,10
37,60 38,199 39,2209 40,479
41,2499 42,199 43,70 44,30
45,40 49,20 50,239 51,389
52,259 53,789 54,6869 55,559
56,50 57,10 60,10 61,10
62,20 63,60 64,10 65,189
66,189 67,9999 68,639 69,40
73,40 74,30 75,10 77,199
78,60 79,409 80,139 81,1089
82,8829 83,589 84,20 97,10
99,30 108,40 109,80 110,20
121,10 126,60 127,50 128,70
153,20 154,359 155,30
##END=
