##TITLE=Nickel, [[2,2'-[1,2-ethanediylbis(nitrilomethylidyne)]bis[phenolato]](2-)-N,N',O,O']-, (SP-4-2)-
##JCAMP-DX=4.24
##DATA TYPE=MASS SPECTRUM
##OWNER=NIST Mass Spectrometry Data Center
Collection (C) 2014 copyright by the U.S. Secretary of Commerce
on behalf of the United States of America. All rights reserved.
##CAS REGISTRY NO=14167-20-5
##$NIST MASS SPEC NO=30208
##MOLFORM=C16 H14 N2 Ni O2
##MW=324
##$NIST SOURCE=MSDC
##XUNITS=M/Z
##YUNITS=RELATIVE INTENSITY
##XFACTOR=1
##YFACTOR=1
##FIRSTX=38
##LASTX=330
##FIRSTY=100
##MAXX=330
##MINX=38
##MAXY=9999
##MINY=100
##NPOINTS=106
##PEAK TABLE=(XY..XY)
38,100 39,300 41,100 42,100
43,100 44,100 45,100 51,200
52,100 53,100 54,100 55,100
58,1800 59,200 60,700 62,100
63,200 64,200 65,200 66,100
72,200 73,400 74,100 75,300
76,100 77,700 78,700 79,100
85,300 87,200 89,100 90,100
91,400 92,100 96,200 97,100
98,100 99,100 100,100 101,100
102,100 103,100 104,500 105,500
106,100 107,200 109,200 111,200
115,100 116,100 117,200 118,200
119,200 120,200 121,100 122,400
123,300 124,300 126,100 129,100
131,100 132,1500 133,500 134,100
135,300 136,600 137,100 138,200
146,200 147,1500 148,500 149,300
150,400 151,200 152,200 153,100
161,100 162,600 163,500 164,2500
165,300 166,1000 167,200 168,200
176,300 177,800 178,500 179,800
180,200 181,300 189,100 191,2500
192,300 193,1000 194,200 195,100
205,100 296,100 323,200 324,9999
325,2200 326,4300 327,1000 328,800
329,100 330,200
##END=
