##TITLE=2-Phenoxypyridine-3-carbonitrile
##JCAMP-DX=4.24
##DATA TYPE=MASS SPECTRUM
##ORIGIN=NIST Mass Spectrometry Data Center, 1994
##OWNER=NIST Mass Spectrometry Data Center
Collection (C) 2014 copyright by the U.S. Secretary of Commerce
on behalf of the United States of America. All rights reserved.
##CAS REGISTRY NO=14178-15-5
##$NIST MASS SPEC NO=136399
##MOLFORM=C12 H8 N2 O
##MW=196
##$NIST SOURCE=MSDC
##XUNITS=M/Z
##YUNITS=RELATIVE INTENSITY
##XFACTOR=1
##YFACTOR=1
##FIRSTX=26
##LASTX=198
##FIRSTY=288
##MAXX=198
##MINX=26
##MAXY=9999
##MINY=27
##NPOINTS=70
##PEAK TABLE=(XY..XY)
26,288 27,502 28,446 37,696
38,1071 39,3283 40,369 41,157
42,31 49,148 50,1567 51,4123
52,573 53,168 55,61 61,90
62,353 63,1128 64,925 65,1375
66,253 67,60 71,137 73,57
74,335 75,646 76,2033 77,2931
78,340 79,46 84,67 85,27
87,46 88,109 89,115 90,153
91,122 92,218 93,130 98,150
101,52 103,869 104,275 105,42
113,123 114,709 115,723 116,209
117,584 118,73 119,48 121,36
128,158 129,143 130,41 139,78
140,1198 141,848 142,564 143,93
166,166 167,527 168,2049 169,329
170,977 171,98 195,9999 196,6174
197,776 198,63
##END=
