##TITLE=Dibenzo-18-crown-6
##JCAMP-DX=4.24
##DATA TYPE=MASS SPECTRUM
##ORIGIN=Japan AIST/NIMC Database- Spectrum MS-NW-6593
##OWNER=NIST Mass Spectrometry Data Center
Collection (C) 2014 copyright by the U.S. Secretary of Commerce
on behalf of the United States of America. All rights reserved.
##CAS REGISTRY NO=14187-32-7
##$NIST MASS SPEC NO=229664
##MOLFORM=C20 H24 O6
##MW=360
##$NIST SOURCE=MSDC
##XUNITS=M/Z
##YUNITS=RELATIVE INTENSITY
##XFACTOR=1
##YFACTOR=1
##FIRSTX=13
##LASTX=363
##FIRSTY=10
##MAXX=363
##MINX=13
##MAXY=9999
##MINY=10
##NPOINTS=161
##PEAK TABLE=(XY..XY)
13,10 14,30 15,329 16,30
17,90 18,299 19,10 26,169
27,889 28,389 29,639 30,30
31,209 37,20 38,119 39,499
40,90 41,599 42,119 43,2839
44,359 45,2589 46,60 47,10
49,10 50,249 51,559 52,2069
53,389 54,80 55,269 56,30
57,70 58,30 59,60 60,10
61,20 62,60 63,479 64,759
65,1649 66,259 67,80 68,80
69,259 70,40 71,859 72,50
73,249 74,30 75,80 76,159
77,969 78,239 79,409 80,3139
81,1249 82,159 83,10 85,10
86,20 87,50 88,10 89,70
90,40 91,999 92,459 93,699
94,249 95,339 96,30 97,20
99,10 101,10 102,10 103,50
104,30 105,80 106,40 107,569
108,829 109,2009 110,1159 111,109
112,10 115,50 116,10 117,70
118,40 119,239 120,229 121,9999
122,929 123,169 124,50 125,10
127,20 128,10 129,10 131,30
132,10 133,60 134,119 135,979
136,9569 137,2999 138,329 139,40
143,10 144,10 145,30 146,10
147,50 148,20 149,179 150,40
151,119 152,30 153,80 154,99
155,10 159,10 161,40 162,119
163,669 164,90 165,109 166,20
167,20 175,10 177,30 178,20
179,80 180,789 181,409 182,50
183,10 185,10 189,20 192,30
193,10 198,10 199,10 205,10
206,10 207,329 208,50 209,10
221,10 224,139 225,30 251,20
252,10 265,10 277,10 316,80
317,10 360,3109 361,759 362,129
363,20
##END=
