##TITLE=Benzeneacetonitrile, 4-hydroxy-
##JCAMP-DX=4.24
##DATA TYPE=MASS SPECTRUM
##ORIGIN=Japan AIST/NIMC Database- Spectrum MS-NW-8839
##OWNER=NIST Mass Spectrometry Data Center
Collection (C) 2014 copyright by the U.S. Secretary of Commerce
on behalf of the United States of America. All rights reserved.
##CAS REGISTRY NO=14191-95-8
##$NIST MASS SPEC NO=236771
##MOLFORM=C8 H7 N O
##MW=133
##$NIST SOURCE=MSDC
##XUNITS=M/Z
##YUNITS=RELATIVE INTENSITY
##XFACTOR=1
##YFACTOR=1
##FIRSTX=14
##LASTX=135
##FIRSTY=10
##MAXX=135
##MINX=14
##MAXY=9999
##MINY=10
##NPOINTS=78
##PEAK TABLE=(XY..XY)
14,10 15,10 26,109 27,389
28,119 29,99 30,20 31,10
37,80 38,259 39,919 40,80
41,99 42,50 43,60 44,40
49,40 50,609 51,1459 52,619
53,439 54,70 55,209 56,50
57,129 58,10 61,80 62,249
63,539 64,239 65,379 66,169
67,99 68,50 69,10 73,20
74,129 75,259 76,519 77,2779
78,4219 79,479 80,80 81,80
82,60 83,40 85,10 86,30
87,50 88,99 89,169 90,929
91,109 92,60 93,30 94,60
99,30 100,20 101,10 102,199
103,159 104,1959 105,2479 106,4079
107,1009 108,80 109,10 112,20
114,80 115,379 116,229 117,20
130,30 131,30 132,4549 133,9999
134,899 135,70
##END=
