##TITLE=Benzeneacetic acid, 4-hydroxy-, methyl ester
##JCAMP-DX=4.24
##DATA TYPE=MASS SPECTRUM
##ORIGIN=NIST Mass Spectrometry Data Center
##OWNER=NIST Mass Spectrometry Data Center
Collection (C) 2014 copyright by the U.S. Secretary of Commerce
on behalf of the United States of America. All rights reserved.
##CAS REGISTRY NO=14199-15-6
##$NIST MASS SPEC NO=340798
##MOLFORM=C9 H10 O3
##MW=166
##$NIST SOURCE=MSDC
##XUNITS=M/Z
##YUNITS=RELATIVE INTENSITY
##XFACTOR=1
##YFACTOR=1
##FIRSTX=15
##LASTX=168
##FIRSTY=180
##MAXX=168
##MINX=15
##MAXY=9999
##MINY=10
##NPOINTS=63
##PEAK TABLE=(XY..XY)
15,180 26,40 27,180 29,140
30,30 31,50 37,20 38,80
39,390 40,30 41,30 42,30
43,30 44,10 45,10 49,20
50,320 51,731 52,450 53,510
55,180 59,240 61,30 62,90
63,200 64,40 65,70 66,40
67,30 68,10 69,10 74,50
75,30 76,40 77,1802 78,701
79,230 80,20 81,70 86,10
87,10 89,40 90,10 91,30
92,10 93,10 94,30 95,20
105,170 106,180 107,9999 108,961
109,60 121,120 122,20 123,50
134,50 135,30 137,20 151,10
166,2392 167,230 168,20
##END=
