##TITLE=Iminodiacetic acid
##JCAMP-DX=4.24
##DATA TYPE=MASS SPECTRUM
##ORIGIN=Japan AIST/NIMC Database- Spectrum MS-NW- 631
##OWNER=NIST Mass Spectrometry Data Center
Collection (C) 2014 copyright by the U.S. Secretary of Commerce
on behalf of the United States of America. All rights reserved.
##CAS REGISTRY NO=142-73-4
##$NIST MASS SPEC NO=229360
##MOLFORM=C4 H7 N O4
##MW=133
##$NIST SOURCE=MSDC
##XUNITS=M/Z
##YUNITS=RELATIVE INTENSITY
##XFACTOR=1
##YFACTOR=1
##FIRSTX=12
##LASTX=134
##FIRSTY=20
##MAXX=134
##MINX=12
##MAXY=9999
##MINY=10
##NPOINTS=50
##PEAK TABLE=(XY..XY)
12,20 13,30 15,669 16,30
17,30 21,20 26,20 27,109
28,125 29,229 30,1769 31,419
32,35 35,20 36,20 38,30
39,60 40,169 41,509 42,9999
43,1119 44,739 45,509 46,60
47,10 51,10 54,10 55,10
56,10 57,20 58,159 59,109
60,1799 61,50 68,10 69,50
70,109 71,10 74,99 81,10
83,10 86,80 87,60 88,5899
89,249 90,30 115,289 116,10
133,349 134,20
##END=
