##TITLE=Hexanoyl chloride
##JCAMP-DX=4.24
##DATA TYPE=MASS SPECTRUM
##ORIGIN=Japan AIST/NIMC Database- Spectrum MS-NW-3272
##OWNER=NIST Mass Spectrometry Data Center
Collection (C) 2014 copyright by the U.S. Secretary of Commerce
on behalf of the United States of America. All rights reserved.
##CAS REGISTRY NO=142-61-0
##$NIST MASS SPEC NO=233618
##MOLFORM=C6 H11 Cl O
##MW=134
##$NIST SOURCE=MSDC
##XUNITS=M/Z
##YUNITS=RELATIVE INTENSITY
##XFACTOR=1
##YFACTOR=1
##FIRSTX=13
##LASTX=135
##FIRSTY=20
##MAXX=135
##MINX=13
##MAXY=9999
##MINY=10
##NPOINTS=97
##PEAK TABLE=(XY..XY)
13,20 14,70 15,379 16,10
25,40 26,709 27,5879 28,909
29,4419 30,119 31,90 32,20
33,20 34,20 35,119 36,759
37,209 38,459 39,3569 40,659
41,8419 42,4319 43,9659 44,349
45,129 46,10 47,10 48,40
49,129 50,239 51,319 52,99
53,479 54,309 55,9999 56,2699
57,4509 58,239 59,40 60,1269
61,149 62,80 63,469 64,30
65,169 66,20 67,99 68,80
69,1049 70,2339 71,4019 72,239
73,569 74,99 75,40 76,30
77,349 78,3409 79,529 80,1069
81,229 82,50 83,409 84,30
85,20 86,10 87,169 88,10
89,20 90,20 91,1209 92,109
93,409 94,30 95,10 96,10
97,129 98,2349 99,8369 100,539
101,40 104,10 105,619 106,579
107,199 108,169 109,10 111,10
115,10 116,10 117,20 118,10
119,30 120,10 121,10 134,10
135,10
##END=
