##TITLE=Oleic acid, butyl ester
##JCAMP-DX=4.24
##DATA TYPE=MASS SPECTRUM
##ORIGIN=Japan AIST/NIMC Database- Spectrum MS-IW-3181
##OWNER=NIST Mass Spectrometry Data Center
Collection (C) 2014 copyright by the U.S. Secretary of Commerce
on behalf of the United States of America. All rights reserved.
##CAS REGISTRY NO=142-77-8
##$NIST MASS SPEC NO=227542
##MOLFORM=C22 H42 O2
##MW=338
##$NIST SOURCE=MSDC
##XUNITS=M/Z
##YUNITS=RELATIVE INTENSITY
##XFACTOR=1
##YFACTOR=1
##FIRSTX=15
##LASTX=341
##FIRSTY=10
##MAXX=341
##MINX=15
##MAXY=9999
##MINY=10
##NPOINTS=263
##PEAK TABLE=(XY..XY)
15,10 26,30 27,549 28,259
29,2549 30,60 31,50 38,10
39,559 40,129 41,5929 42,889
43,3999 44,149 45,139 50,10
51,30 52,30 53,469 54,1889
55,8179 56,5099 57,6599 58,339
59,159 60,819 61,589 62,20
63,10 65,119 66,149 67,3009
68,1839 69,6589 70,2079 71,1639
72,109 73,1339 74,159 75,20
76,20 77,139 78,60 79,629
80,459 81,2989 82,2039 83,6269
84,4099 85,1179 86,119 87,579
88,70 89,20 90,20 91,219
92,70 93,479 94,589 95,2419
96,3639 97,5639 98,4409 99,749
100,359 101,949 102,109 103,30
104,20 105,149 106,60 107,409
108,469 109,1579 110,2119 111,3169
112,1309 113,499 114,739 115,629
116,549 117,449 118,70 119,369
120,139 121,569 122,309 123,1609
124,1119 125,1719 126,739 127,849
128,229 129,1479 130,209 131,50
132,20 133,429 134,429 135,559
136,249 137,1239 138,979 139,1049
140,489 141,389 142,109 143,489
144,90 145,30 146,10 147,409
148,359 149,399 150,239 151,1059
152,1379 153,809 154,399 155,419
156,179 157,349 158,90 159,30
161,279 162,119 163,269 164,259
165,909 166,1159 167,619 168,269
169,659 170,269 171,319 172,149
173,30 174,10 175,209 176,70
177,119 178,119 179,649 180,2009
181,689 182,229 183,1189 184,269
185,429 186,159 187,40 188,10
189,129 190,40 191,60 192,60
193,419 194,389 195,209 196,119
197,199 198,109 199,259 200,109
201,20 203,60 204,30 205,40
206,60 207,379 208,339 209,179
210,99 211,169 212,90 213,169
214,70 215,20 217,30 218,30
219,40 220,859 221,629 222,2239
223,599 224,99 225,129 226,70
227,119 228,50 229,30 232,10
233,20 234,10 235,299 236,399
237,149 238,40 239,189 240,70
241,179 242,109 243,20 244,10
245,299 246,699 247,299 248,60
249,60 250,60 251,50 252,30
253,90 254,70 255,149 256,199
257,119 262,90 263,699 264,9999
265,5519 266,949 267,189 268,50
269,50 270,109 271,50 272,10
277,20 278,30 279,60 280,109
281,159 282,339 283,739 284,189
285,159 286,30 291,10 292,10
293,10 294,10 295,149 296,70
297,30 298,10 307,10 308,10
309,50 310,40 311,10 312,80
313,30 320,30 321,10 323,20
324,10 336,129 337,90 338,2989
339,809 340,319 341,60
##END=
