##TITLE=Isopropyl palmitate
##JCAMP-DX=4.24
##DATA TYPE=MASS SPECTRUM
##ORIGIN=Japan AIST/NIMC Database- Spectrum MS-NW-8692
##OWNER=NIST Mass Spectrometry Data Center
Collection (C) 2014 copyright by the U.S. Secretary of Commerce
on behalf of the United States of America. All rights reserved.
##CAS REGISTRY NO=142-91-6
##$NIST MASS SPEC NO=229565
##MOLFORM=C19 H38 O2
##MW=298
##$NIST SOURCE=MSDC
##XUNITS=M/Z
##YUNITS=RELATIVE INTENSITY
##XFACTOR=1
##YFACTOR=1
##FIRSTX=14
##LASTX=299
##FIRSTY=20
##MAXX=299
##MINX=14
##MAXY=9999
##MINY=10
##NPOINTS=220
##PEAK TABLE=(XY..XY)
14,20 15,30 16,20 17,30
18,109 26,50 27,689 28,339
29,1409 30,50 31,60 32,80
34,10 36,10 37,20 38,30
39,529 40,149 41,4219 42,1289
43,9999 44,889 45,239 46,10
48,10 50,10 51,20 52,10
53,169 54,339 55,4029 56,1319
57,7579 58,449 59,1989 60,8599
61,5229 62,149 63,30 64,50
65,40 66,50 67,769 68,469
69,2939 70,1039 71,4909 72,299
73,4169 74,1019 75,70 76,10
77,50 78,30 79,189 80,90
81,969 82,609 83,2879 84,1359
85,3099 86,239 87,1699 88,329
89,169 90,10 91,50 92,20
93,189 94,90 95,1029 96,549
97,2409 98,1619 99,1059 100,119
101,899 102,7249 103,1189 104,90
105,40 106,10 107,169 108,60
109,639 110,309 111,1219 112,499
113,609 114,90 115,1279 116,559
117,109 118,10 119,20 120,10
121,239 122,60 123,409 124,189
125,709 126,209 127,409 128,60
129,2729 130,399 131,70 132,10
133,20 134,20 135,229 136,50
137,239 138,149 139,419 140,129
141,249 142,30 143,859 144,229
145,50 147,10 148,20 149,179
150,30 151,109 152,119 153,249
154,99 155,129 156,20 157,1169
158,229 159,40 161,10 163,119
164,20 165,80 166,60 167,159
168,99 169,50 170,10 171,1149
172,199 173,50 177,60 178,10
179,30 180,30 181,99 182,40
183,30 185,1249 186,189 187,40
191,30 192,30 193,20 194,149
195,90 196,119 197,60 198,10
199,619 200,109 201,40 205,20
207,10 208,10 209,30 210,20
211,40 213,1199 214,189 215,30
218,10 219,139 220,70 221,60
222,30 223,30 224,20 225,20
227,469 228,129 229,40 233,10
235,10 236,80 237,199 238,50
239,1839 240,329 241,259 242,70
243,30 247,20 248,10 249,10
251,10 253,60 254,20 255,129
256,3879 257,2559 258,409 259,40
264,20 265,30 266,10 267,249
268,50 269,10 270,189 271,109
272,20 283,20 298,60 299,30
##END=
