##TITLE=3-Hexyne-2,5-diol, 2,5-dimethyl-
##JCAMP-DX=4.24
##DATA TYPE=MASS SPECTRUM
##ORIGIN=Japan AIST/NIMC Database- Spectrum MS-NW-2272
##OWNER=NIST Mass Spectrometry Data Center
Collection (C) 2014 copyright by the U.S. Secretary of Commerce
on behalf of the United States of America. All rights reserved.
##CAS REGISTRY NO=142-30-3
##$NIST MASS SPEC NO=229792
##MOLFORM=C8 H14 O2
##MW=142
##$NIST SOURCE=MSDC
##XUNITS=M/Z
##YUNITS=RELATIVE INTENSITY
##XFACTOR=1
##YFACTOR=1
##FIRSTX=12
##LASTX=128
##FIRSTY=20
##MAXX=128
##MINX=12
##MAXY=9999
##MINY=10
##NPOINTS=88
##PEAK TABLE=(XY..XY)
12,20 13,50 14,139 15,1149
16,20 17,139 18,479 24,40
25,159 26,799 27,609 28,129
29,239 31,229 32,20 36,30
37,149 38,249 39,1369 40,499
41,1149 42,309 43,9999 44,259
45,99 48,20 49,60 50,269
51,549 52,129 53,529 54,80
55,389 56,149 57,99 58,1359
59,639 60,20 61,90 62,129
63,249 64,70 65,799 66,879
67,529 68,90 69,2159 70,119
71,80 73,10 74,40 75,30
76,20 77,209 78,149 79,489
80,70 81,2829 82,229 83,359
84,40 85,40 86,10 87,10
89,30 90,10 91,479 92,50
93,70 94,40 95,90 96,30
97,20 99,80 103,30 105,129
106,399 107,99 108,50 109,5999
110,529 111,90 112,70 123,109
124,109 125,50 127,1049 128,90
##END=
