##TITLE=1,2-Ethanediamine, N,N,N'-trimethyl-
##JCAMP-DX=4.24
##DATA TYPE=MASS SPECTRUM
##ORIGIN=Japan AIST/NIMC Database- Spectrum MS-NW-3233
##OWNER=NIST Mass Spectrometry Data Center
Collection (C) 2014 copyright by the U.S. Secretary of Commerce
on behalf of the United States of America. All rights reserved.
##CAS REGISTRY NO=142-25-6
##$NIST MASS SPEC NO=230795
##MOLFORM=C5 H14 N2
##MW=102
##$NIST SOURCE=MSDC
##XUNITS=M/Z
##YUNITS=RELATIVE INTENSITY
##XFACTOR=1
##YFACTOR=1
##FIRSTX=14
##LASTX=103
##FIRSTY=20
##MAXX=103
##MINX=14
##MAXY=9999
##MINY=10
##NPOINTS=36
##PEAK TABLE=(XY..XY)
14,20 15,289 26,30 27,119
28,349 29,179 30,659 31,20
32,20 39,20 40,40 41,119
42,799 43,299 44,1569 45,70
46,10 50,10 52,10 54,30
55,40 56,289 57,299 58,9999
59,1819 60,60 69,10 70,70
71,80 72,70 73,20 83,10
85,40 99,30 102,239 103,20
##END=
