##TITLE=Bis(2-ethylhexyl) maleate
##JCAMP-DX=4.24
##DATA TYPE=MASS SPECTRUM
##ORIGIN=NIST Mass Spectrometry Data Center, 1994
##OWNER=NIST Mass Spectrometry Data Center
Collection (C) 2014 copyright by the U.S. Secretary of Commerce
on behalf of the United States of America. All rights reserved.
##CAS REGISTRY NO=142-16-5
##$NIST MASS SPEC NO=133337
##MOLFORM=C20 H36 O4
##MW=340
##$NIST SOURCE=MSDC
##XUNITS=M/Z
##YUNITS=RELATIVE INTENSITY
##XFACTOR=1
##YFACTOR=1
##FIRSTX=12
##LASTX=341
##FIRSTY=17
##MAXX=341
##MINX=12
##MAXY=9999
##MINY=8
##NPOINTS=116
##PEAK TABLE=(XY..XY)
12,17 15,50 16,18 18,16
26,349 27,1414 28,408 29,3153
30,75 31,111 32,8 39,757
41,5763 42,1099 43,5494 44,250
45,102 51,38 52,52 53,448
54,1442 55,4174 56,1915 57,9999
58,431 59,70 65,57 66,53
67,276 68,291 69,1830 70,5360
71,6246 72,485 73,43 77,27
79,66 81,309 82,1893 83,2136
84,1257 85,190 86,24 87,23
93,14 95,88 97,249 99,2815
100,4576 101,282 102,36 109,61
110,331 111,566 112,2347 113,2357
114,217 117,9393 118,629 119,194
120,12 122,23 123,29 124,24
125,21 126,34 127,46 128,55
129,116 130,32 131,57 135,13
137,30 138,15 139,49 140,47
141,41 142,24 143,13 150,27
151,22 152,24 153,49 154,49
155,43 156,16 159,15 164,28
165,32 167,93 168,49 169,117
170,33 171,174 172,19 180,40
181,85 182,99 183,40 185,222
186,27 192,61 193,31 198,16
199,85 200,20 210,99 211,168
212,182 213,44 227,55 228,50
229,253 230,35 297,16 341,16
##END=
