##TITLE=Allyl heptanoate
##JCAMP-DX=4.24
##DATA TYPE=MASS SPECTRUM
##ORIGIN=NIST Mass Spectrometry Data Center, 1990.
##OWNER=NIST Mass Spectrometry Data Center
Collection (C) 2014 copyright by the U.S. Secretary of Commerce
on behalf of the United States of America. All rights reserved.
##CAS REGISTRY NO=142-19-8
##$NIST MASS SPEC NO=118223
##MOLFORM=C10 H18 O2
##MW=170
##$NIST SOURCE=MSDC
##XUNITS=M/Z
##YUNITS=RELATIVE INTENSITY
##XFACTOR=1
##YFACTOR=1
##FIRSTX=14
##LASTX=155
##FIRSTY=21
##MAXX=155
##MINX=14
##MAXY=9999
##MINY=9
##NPOINTS=66
##PEAK TABLE=(XY..XY)
14,21 15,243 17,9 18,24
21,22 25,48 26,374 27,2769
28,1240 29,2828 30,91 31,138
37,73 38,290 39,3420 40,962
41,9473 42,1764 43,9999 44,495
45,426 50,49 51,67 53,307
54,1033 55,4057 56,1408 57,2600
58,802 59,124 60,134 65,45
67,304 68,281 69,1745 70,174
71,151 72,88 73,172 80,29
81,163 82,631 83,1495 84,433
85,2836 86,199 87,204 89,68
93,38 94,57 95,454 97,48
99,364 100,1644 101,168 109,44
110,76 111,245 112,44 113,4812
114,412 115,41 127,326 129,30
141,110 155,26
##END=
