##TITLE=Dinoterb
##JCAMP-DX=4.24
##DATA TYPE=MASS SPECTRUM
##ORIGIN=NIST Mass Spectrometry Data Center, 1998.
##OWNER=NIST Mass Spectrometry Data Center
Collection (C) 2014 copyright by the U.S. Secretary of Commerce
on behalf of the United States of America. All rights reserved.
##CAS REGISTRY NO=1420-07-1
##$NIST MASS SPEC NO=291672
##MOLFORM=C10 H12 N2 O5
##MW=240
##$NIST SOURCE=MSDC
##XUNITS=M/Z
##YUNITS=RELATIVE INTENSITY
##XFACTOR=1
##YFACTOR=1
##FIRSTX=15
##LASTX=242
##FIRSTY=50
##MAXX=242
##MINX=15
##MAXY=9999
##MINY=10
##NPOINTS=161
##PEAK TABLE=(XY..XY)
15,50 18,10 26,20 27,240
28,70 29,340 30,470 31,20
37,30 38,80 39,850 40,110
41,1290 42,100 43,330 44,30
45,40 46,80 48,20 49,20
50,320 51,830 52,330 53,910
54,130 55,280 56,50 57,490
58,30 59,20 61,80 62,400
63,890 64,280 65,790 66,250
67,300 68,100 69,520 70,40
71,10 73,10 74,180 75,410
76,330 77,1900 78,790 79,400
80,120 81,60 82,30 83,100
84,10 85,20 86,80 87,150
88,110 89,910 90,290 91,1180
92,210 93,150 94,60 95,30
96,60 97,10 98,40 99,40
100,10 101,90 102,420 103,1750
104,760 105,490 106,150 107,100
108,30 109,20 110,10 113,30
114,60 115,620 116,310 117,280
118,150 119,400 120,90 121,40
122,30 123,10 126,10 127,40
128,70 129,50 130,1090 131,2960
132,580 133,320 134,90 135,40
136,30 137,10 143,10 144,180
145,110 146,130 147,250 148,100
149,170 150,40 151,80 152,60
153,10 157,10 158,80 159,60
160,190 161,1100 162,170 163,60
164,20 165,20 166,50 167,20
168,10 174,10 175,120 176,140
177,4450 178,470 179,110 180,30
181,30 182,360 183,40 184,10
190,50 191,150 192,20 193,20
194,30 195,40 196,10 197,140
198,10 205,230 206,30 207,70
208,50 209,60 210,30 211,10
222,20 223,70 225,9999 226,1090
227,150 228,10 240,1280 241,150
242,20
##END=
