##TITLE=Thiethylperazine
##JCAMP-DX=4.24
##DATA TYPE=MASS SPECTRUM
##ORIGIN=R.E.Ardrey ET AL.Pharmaceutical Mass Spectra,L.,1985
##OWNER=NIST Mass Spectrometry Data Center
Collection (C) 2014 copyright by the U.S. Secretary of Commerce
on behalf of the United States of America. All rights reserved.
##CAS REGISTRY NO=1420-55-9
##$NIST MASS SPEC NO=298783
##MOLFORM=C22 H29 N3 S2
##MW=399
##$NIST SOURCE=MSDC
##XUNITS=M/Z
##YUNITS=RELATIVE INTENSITY
##XFACTOR=1
##YFACTOR=1
##FIRSTX=26
##LASTX=402
##FIRSTY=3603
##MAXX=402
##MINX=26
##MAXY=9999
##MINY=100
##NPOINTS=112
##PEAK TABLE=(XY..XY)
26,3603 27,2002 29,601 30,300
39,100 40,100 41,701 42,3103
43,3803 44,1601 45,3003 46,601
52,100 53,701 54,1601 55,1301
56,1501 57,701 58,1301 59,200
63,100 68,200 69,300 70,9999
71,1802 72,3503 73,100 77,100
82,400 83,500 84,601 85,601
86,100 95,100 96,400 97,601
98,1101 99,901 100,100 109,200
111,1001 112,200 113,9408 114,901
115,100 125,200 126,100 127,1301
128,200 138,100 139,500 141,5805
142,500 152,100 154,100 166,200
167,200 178,200 179,300 180,100
184,100 185,601 186,200 196,100
197,200 198,500 199,200 209,100
210,300 211,500 212,601 213,200
223,200 224,200 225,200 228,100
229,200 230,400 231,100 236,100
237,200 238,300 239,300 240,500
241,100 242,200 243,200 244,200
258,801 259,1201 260,300 261,100
270,300 271,100 272,701 273,801
274,200 275,100 285,300 286,400
287,100 297,100 298,500 299,701
300,300 301,100 342,100 355,100
399,4704 400,1401 401,601 402,300
##END=
