##TITLE=Cholesta-4,6-dien-3-ol, (3.beta.)-
##JCAMP-DX=4.24
##DATA TYPE=MASS SPECTRUM
##ORIGIN=RADIAN CORP
##OWNER=NIST Mass Spectrometry Data Center
Collection (C) 2014 copyright by the U.S. Secretary of Commerce
on behalf of the United States of America. All rights reserved.
##CAS REGISTRY NO=14214-69-8
##$NIST MASS SPEC NO=70824
##MOLFORM=C27 H44 O
##MW=384
##$NIST SOURCE=MSDC
##XUNITS=M/Z
##YUNITS=RELATIVE INTENSITY
##XFACTOR=1
##YFACTOR=1
##FIRSTX=18
##LASTX=369
##FIRSTY=20
##MAXX=369
##MINX=18
##MAXY=9999
##MINY=20
##NPOINTS=169
##PEAK TABLE=(XY..XY)
18,20 27,570 29,1090 39,650
41,5420 42,860 43,9999 51,90
53,770 54,120 55,3710 56,490
57,3910 58,200 65,600 66,300
67,2310 68,350 69,2400 70,260
71,2030 72,90 73,570 77,1330
78,450 79,2790 80,530 81,4570
82,540 83,1560 85,360 86,20
87,20 89,140 91,5210 92,890
93,2890 94,730 95,3600 96,270
97,910 98,20 102,110 103,580
104,480 105,3970 106,820 107,2450
108,680 109,1790 110,240 111,580
113,40 115,2310 116,750 117,2870
118,1920 119,4060 120,950 121,1570
122,580 123,730 124,20 125,170
127,860 128,3910 129,4410 130,1140
131,2700 132,540 133,1460 134,1170
135,6260 136,1060 137,400 139,140
141,4250 142,3550 143,6930 144,2470
145,2800 146,740 147,830 148,420
149,2450 150,370 151,330 152,440
153,800 154,520 155,2000 156,960
157,2450 158,2070 159,1240 160,400
161,700 162,170 163,1100 164,210
165,730 166,320 167,500 168,310
169,570 170,270 171,610 172,350
173,250 174,20 175,50 177,210
178,420 179,400 180,150 181,390
182,160 183,560 184,150 185,240
187,20 189,150 191,330 192,160
193,180 194,140 195,370 196,170
197,450 198,230 199,280 200,80
201,100 202,70 203,50 205,70
206,360 209,50 210,40 211,540
212,180 213,260 214,40 219,270
225,110 233,120 237,50 246,50
247,2260 248,520 251,180 253,700
254,140 255,150 256,40 259,60
260,110 261,50 268,70 269,60
273,30 350,20 351,330 352,40
353,80 366,3740 367,1110 368,420
369,70
##END=
