##TITLE=Benzoic acid, 3,5-bis(1,1-dimethylethyl)-4-hydroxy-
##JCAMP-DX=4.24
##DATA TYPE=MASS SPECTRUM
##ORIGIN=NIST Mass Spectrometry Data Center
##OWNER=NIST Mass Spectrometry Data Center
Collection (C) 2014 copyright by the U.S. Secretary of Commerce
on behalf of the United States of America. All rights reserved.
##CAS REGISTRY NO=1421-49-4
##$NIST MASS SPEC NO=352484
##MOLFORM=C15 H22 O3
##MW=250
##$NIST SOURCE=MSDC
##XUNITS=M/Z
##YUNITS=RELATIVE INTENSITY
##XFACTOR=1
##YFACTOR=1
##FIRSTX=15
##LASTX=252
##FIRSTY=20
##MAXX=252
##MINX=15
##MAXY=9999
##MINY=10
##NPOINTS=162
##PEAK TABLE=(XY..XY)
15,20 27,100 28,10 29,340
30,10 31,10 38,10 39,330
40,40 41,1061 42,60 43,280
44,10 45,110 46,10 50,40
51,260 52,70 53,290 54,30
55,691 56,50 57,1992 58,200
59,90 60,20 62,30 63,170
64,100 65,330 66,80 67,140
68,20 69,110 70,20 71,30
72,50 76,50 77,661 78,180
79,370 80,70 81,60 82,130
83,30 84,10 85,10 86,150
87,330 88,60 89,160 90,40
91,1151 92,130 93,120 94,30
95,140 96,540 98,10 99,10
100,10 101,70 102,110 103,280
104,80 105,460 106,60 107,460
108,50 110,260 113,20 114,30
115,1011 116,350 117,470 118,80
119,220 120,40 121,160 122,20
123,50 125,10 126,30 127,220
128,631 129,460 130,130 131,470
133,180 134,40 135,200 136,30
137,20 139,50 140,20 141,290
142,170 143,150 144,50 145,230
146,50 147,200 148,40 149,130
150,40 151,130 152,40 153,60
154,30 155,60 156,40 157,90
158,30 159,90 160,40 161,200
162,30 163,300 164,40 165,80
166,10 169,10 171,40 172,10
173,70 174,30 175,781 176,100
177,160 178,30 179,210 180,20
185,10 187,20 188,10 189,70
190,20 191,721 192,100 193,50
194,10 201,20 202,10 203,10
205,190 206,30 207,2332 208,330
209,40 217,50 218,10 219,390
220,60 221,20 233,70 235,9999
236,1521 237,180 238,20 250,1641
251,270 252,30
##END=
