##TITLE=4-Pyridinol, acetate (ester)
##JCAMP-DX=4.24
##DATA TYPE=MASS SPECTRUM
##ORIGIN=L.BAUER UNIV. OF ILLINOIS, CHICAGO, ILLINOIS, USA
##OWNER=NIST Mass Spectrometry Data Center
Collection (C) 2014 copyright by the U.S. Secretary of Commerce
on behalf of the United States of America. All rights reserved.
##CAS REGISTRY NO=14210-20-9
##$NIST MASS SPEC NO=3480
##MOLFORM=C7 H7 N O2
##MW=137
##$NIST SOURCE=MSDC
##XUNITS=M/Z
##YUNITS=RELATIVE INTENSITY
##XFACTOR=1
##YFACTOR=1
##FIRSTX=38
##LASTX=138
##FIRSTY=900
##MAXX=138
##MINX=38
##MAXY=9999
##MINY=300
##NPOINTS=18
##PEAK TABLE=(XY..XY)
38,900 39,2700 40,2300 41,1700
42,1600 43,9999 52,500 53,700
66,500 67,8200 68,1000 69,400
95,7200 96,2100 108,300 109,1400
137,6200 138,600
##END=
