##TITLE=Molybdenum, tetrakis[.mu.-(acetato-O:O')]di-, (Mo-Mo)
##JCAMP-DX=4.24
##DATA TYPE=MASS SPECTRUM
##ORIGIN=D.HENNEBERG, MAX-PLANCK INSTITUTE, MULHEIM, WEST GERMANY
##OWNER=NIST Mass Spectrometry Data Center
Collection (C) 2014 copyright by the U.S. Secretary of Commerce
on behalf of the United States of America. All rights reserved.
##CAS REGISTRY NO=14221-06-8
##$NIST MASS SPEC NO=63590
##MOLFORM=C8 H12 Mo2 O8
##MW=432
##$NIST SOURCE=MSDC
##XUNITS=M/Z
##YUNITS=RELATIVE INTENSITY
##XFACTOR=1
##YFACTOR=1
##FIRSTX=26
##LASTX=438
##FIRSTY=134
##MAXX=438
##MINX=26
##MAXY=9999
##MINY=1
##NPOINTS=329
##PEAK TABLE=(XY..XY)
26,134 27,24 28,1789 29,255
30,17 31,52 36,14 38,2
39,25 40,70 41,340 42,1840
43,9999 44,252 45,681 46,8
51,1 53,8 54,5 55,16
56,1 57,3 58,4 60,441
61,10 73,20 77,9 78,2
92,4 94,4 95,8 96,7
97,1 98,10 99,1 100,1
105,6 106,1 107,1 109,1
111,1 112,3 113,6 115,1
122,6 123,5 124,5 125,10
126,17 127,15 128,16 129,12
130,8 131,12 132,2 137,1
138,3 139,4 140,13 141,6
142,16 143,10 144,8 145,13
146,13 147,2 148,6 151,6
152,3 153,2 154,9 155,5
156,4 157,1 159,2 164,8
166,8 167,8 168,11 169,9
170,19 171,11 172,17 173,4
174,8 177,1 179,2 180,1
181,3 182,4 183,9 184,2
185,8 186,8 187,1 188,2
190,1 199,2 201,2 206,2
207,3 209,2 210,4 211,1
212,2 213,11 214,12 215,8
216,9 217,5 218,4 219,1
220,7 221,12 222,12 223,13
224,19 225,18 226,20 227,16
228,15 229,14 230,14 231,11
232,18 233,13 234,23 235,25
236,30 237,42 238,48 239,54
240,64 241,59 242,59 243,63
244,57 245,50 246,51 247,35
248,103 249,106 250,145 251,222
252,272 253,283 254,405 255,360
256,397 257,392 258,358 259,275
260,243 261,144 262,152 263,120
264,110 265,172 266,216 267,261
268,341 269,399 270,399 271,479
272,444 273,437 274,392 275,362
276,280 277,292 278,287 279,325
280,362 281,408 282,471 283,460
284,524 285,439 286,403 287,357
288,296 289,194 290,214 291,167
292,199 293,300 294,319 295,376
296,533 297,548 298,544 299,735
300,567 301,636 302,576 303,469
304,372 305,385 306,167 307,251
308,135 309,174 310,151 311,202
312,177 313,243 314,224 315,250
316,213 317,228 318,377 319,214
320,389 321,619 322,703 323,734
324,1318 325,867 326,1387 327,1157
328,1130 329,809 330,925 331,247
332,474 333,87 334,125 335,137
336,131 337,196 338,288 339,427
340,386 341,625 342,533 343,635
344,588 345,593 346,406 347,456
348,229 349,243 350,110 351,152
352,125 353,144 354,106 355,134
356,108 357,113 358,80 359,89
360,71 361,217 362,82 363,264
364,449 365,504 366,555 367,997
368,682 369,1047 370,929 371,883
372,687 373,686 374,233 375,345
376,48 377,105 378,80 379,54
380,147 381,210 382,240 383,332
384,433 385,366 386,496 387,436
388,389 389,314 390,281 391,122
392,129 393,24 394,31 395,3
396,1 397,2 399,2 400,2
401,3 402,1 403,1 404,1
405,3 406,1 408,4 409,6
410,3 411,4 412,6 413,10
414,8 415,6 416,6 417,8
418,10 419,47 420,774 421,128
422,1009 423,1777 424,2224 425,2441
426,4682 427,3127 428,5109 429,4366
430,4397 431,3269 432,3519 433,1067
434,1710 435,200 436,361 437,32
438,7
##END=
