##TITLE=Thiourea, N,N'-bis(phenylmethyl)-
##JCAMP-DX=4.24
##DATA TYPE=MASS SPECTRUM
##ORIGIN=MASS SPECTROMETRY CENTER, UNIV. OF UTAH ALDRICH D03675-5
##OWNER=NIST Mass Spectrometry Data Center
Collection (C) 2014 copyright by the U.S. Secretary of Commerce
on behalf of the United States of America. All rights reserved.
##CAS REGISTRY NO=1424-14-2
##$NIST MASS SPEC NO=52710
##MOLFORM=C15 H16 N2 S
##MW=256
##$NIST SOURCE=MSDC
##XUNITS=M/Z
##YUNITS=RELATIVE INTENSITY
##XFACTOR=1
##YFACTOR=1
##FIRSTX=12
##LASTX=259
##FIRSTY=8
##MAXX=259
##MINX=12
##MAXY=9999
##MINY=3
##NPOINTS=125
##PEAK TABLE=(XY..XY)
12,8 15,40 16,36 26,178
27,447 28,120 29,227 30,756
31,4 32,124 33,259 34,629
35,10 36,32 37,119 38,308
39,1610 40,211 41,511 42,127
43,143 44,117 45,548 47,4
49,18 50,639 51,1466 52,476
53,273 54,34 55,353 56,30
57,101 58,8 59,62 60,836
61,134 62,304 63,909 64,337
65,3492 66,247 67,54 68,5
69,83 70,15 71,41 72,86
73,68 74,197 75,194 76,323
77,1531 78,595 79,2502 80,207
81,23 82,9 83,27 84,8
85,16 86,3 87,16 88,3
89,686 90,390 91,9999 92,1572
93,141 95,22 96,3 97,21
102,14 103,228 104,800 105,273
106,9133 107,1274 108,84 109,129
111,8 112,4 113,3 116,137
117,163 118,148 119,88 120,21
121,211 122,52 123,251 124,8
127,78 129,83 130,62 131,564
132,105 133,63 135,34 136,123
138,91 147,99 148,103 149,412
150,160 151,8 164,14 165,1410
166,205 167,332 168,26 178,24
181,12 182,144 183,4 221,4
222,523 223,296 224,64 254,57
255,11 256,3893 257,719 258,254
259,5
##END=
