##TITLE=Bicyclo[4.2.1]nonan-9-one
##JCAMP-DX=4.24
##DATA TYPE=MASS SPECTRUM
##ORIGIN=D.G.I.KINGSTON POLYTECH. INST., BLACKSBURG, VIRGINIA, USA
##OWNER=NIST Mass Spectrometry Data Center
Collection (C) 2014 copyright by the U.S. Secretary of Commerce
on behalf of the United States of America. All rights reserved.
##CAS REGISTRY NO=14252-11-0
##$NIST MASS SPEC NO=68240
##MOLFORM=C9 H14 O
##MW=138
##$NIST SOURCE=MSDC
##XUNITS=M/Z
##YUNITS=RELATIVE INTENSITY
##XFACTOR=1
##YFACTOR=1
##FIRSTX=39
##LASTX=139
##FIRSTY=2500
##MAXX=139
##MINX=39
##MAXY=9999
##MINY=200
##NPOINTS=15
##PEAK TABLE=(XY..XY)
39,2500 41,5900 54,6000 55,1500
67,9999 68,2900 69,700 70,200
81,3300 82,8400 95,1000 110,1700
120,1400 138,7900 139,600
##END=
