##TITLE=[1,2]Azaborino[1,2-a][1,2]azaborine
##JCAMP-DX=4.24
##DATA TYPE=MASS SPECTRUM
##OWNER=NIST Mass Spectrometry Data Center
Collection (C) 2014 copyright by the U.S. Secretary of Commerce
on behalf of the United States of America. All rights reserved.
##CAS REGISTRY NO=1425-58-7
##$NIST MASS SPEC NO=2793
##MOLFORM=C8 H8 B N
##MW=129
##$NIST SOURCE=MSDC
##XUNITS=M/Z
##YUNITS=RELATIVE INTENSITY
##XFACTOR=1
##YFACTOR=1
##FIRSTX=48
##LASTX=130
##FIRSTY=671
##MAXX=130
##MINX=48
##MAXY=9999
##MINY=270
##NPOINTS=23
##PEAK TABLE=(XY..XY)
48,671 49,1071 50,2672 51,1471
52,671 61,270 62,1331 63,671
64,1071 65,671 73,671 74,1601
75,2402 76,2402 77,671 100,1071
101,1331 102,1331 103,1331 127,671
128,4674 129,9999 130,1071
##END=
