##TITLE=1,3-Benzodioxol-5-amine
##JCAMP-DX=4.24
##DATA TYPE=MASS SPECTRUM
##ORIGIN=Japan AIST/NIMC Database- Spectrum MS-NW-7899
##OWNER=NIST Mass Spectrometry Data Center
Collection (C) 2014 copyright by the U.S. Secretary of Commerce
on behalf of the United States of America. All rights reserved.
##CAS REGISTRY NO=14268-66-7
##$NIST MASS SPEC NO=235404
##MOLFORM=C7 H7 N O2
##MW=137
##$NIST SOURCE=MSDC
##XUNITS=M/Z
##YUNITS=RELATIVE INTENSITY
##XFACTOR=1
##YFACTOR=1
##FIRSTX=14
##LASTX=139
##FIRSTY=30
##MAXX=139
##MINX=14
##MAXY=9999
##MINY=20
##NPOINTS=65
##PEAK TABLE=(XY..XY)
14,30 17,20 18,70 26,99
27,149 28,109 29,119 30,40
33,179 36,30 37,90 38,159
39,259 40,129 41,239 42,30
43,30 44,40 49,60 50,259
51,669 52,2469 53,789 54,159
55,50 57,20 61,60 62,119
63,129 64,50 65,99 66,50
67,99 68,759 69,80 74,20
75,30 76,90 77,80 78,599
79,4599 80,869 81,229 83,20
91,129 92,90 93,40 94,30
95,80 96,40 101,20 105,20
106,359 107,609 108,669 109,239
110,20 119,20 121,30 122,40
135,159 136,2559 137,9999 138,849
139,80
##END=
