##TITLE=ClCH2(CH2)3C(O)OCH3
##JCAMP-DX=4.24
##DATA TYPE=MASS SPECTRUM
##ORIGIN=Zaikin V.G., TIPS RAS, Moscow, Russia
##OWNER=NIST Mass Spectrometry Data Center
Collection (C) 2014 copyright by the U.S. Secretary of Commerce
on behalf of the United States of America. All rights reserved.
##CAS REGISTRY NO=14273-86-0
##$NIST MASS SPEC NO=292307
##MOLFORM=C6 H11 Cl O2
##MW=150
##$NIST SOURCE=MSDC
##XUNITS=M/Z
##YUNITS=RELATIVE INTENSITY
##XFACTOR=1
##YFACTOR=1
##FIRSTX=26
##LASTX=150
##FIRSTY=350
##MAXX=150
##MINX=26
##MAXY=9999
##MINY=10
##NPOINTS=74
##PEAK TABLE=(XY..XY)
26,350 27,2112 28,10 29,1772
30,110 31,240 33,30 35,50
36,270 37,40 38,170 39,1601
40,230 41,2172 42,1601 43,1311
44,250 45,390 49,520 50,140
51,380 52,130 53,711 54,1151
55,9999 56,971 57,490 58,50
59,5115 60,180 61,120 62,250
63,611 64,90 65,180 69,110
70,70 71,200 72,1041 73,2102
74,2512 75,230 76,20 77,50
79,120 81,70 82,1341 83,1782
84,100 85,40 86,30 87,5925
88,811 89,110 90,110 91,2742
92,160 93,901 94,30 99,190
100,130 101,1081 102,50 113,80
114,1982 115,4974 116,340 117,50
118,90 119,4154 120,250 121,1481
122,70 150,30
##END=
