##TITLE=Benzene, 2-fluoro-1-methyl-4-nitro-
##JCAMP-DX=4.24
##DATA TYPE=MASS SPECTRUM
##ORIGIN=Japan AIST/NIMC Database- Spectrum MS-IW-3077
##OWNER=NIST Mass Spectrometry Data Center
Collection (C) 2014 copyright by the U.S. Secretary of Commerce
on behalf of the United States of America. All rights reserved.
##CAS REGISTRY NO=1427-07-2
##$NIST MASS SPEC NO=238546
##MOLFORM=C7 H6 F N O2
##MW=155
##$NIST SOURCE=MSDC
##XUNITS=M/Z
##YUNITS=RELATIVE INTENSITY
##XFACTOR=1
##YFACTOR=1
##FIRSTX=20
##LASTX=157
##FIRSTY=10
##MAXX=157
##MINX=20
##MAXY=9999
##MINY=10
##NPOINTS=100
##PEAK TABLE=(XY..XY)
20,10 26,40 27,139 28,319
29,10 30,989 31,269 32,60
33,80 36,10 37,119 38,239
39,1029 40,60 41,30 43,90
44,50 45,40 46,50 47,10
48,10 49,90 50,639 51,899
52,139 53,50 55,20 56,159
57,1849 58,99 59,729 60,40
61,259 62,599 63,1569 64,159
65,90 68,179 69,179 70,219
71,129 72,10 73,70 74,249
75,269 76,99 77,1069 78,99
79,20 80,129 81,889 82,299
83,7099 84,419 85,119 86,169
87,159 88,80 89,849 90,99
91,10 92,30 93,60 94,99
95,659 96,399 97,1899 98,129
99,30 100,10 101,10 102,10
103,10 104,20 105,139 106,60
107,1759 108,619 109,9999 110,829
111,30 112,239 113,30 114,80
115,10 122,30 123,20 124,90
125,1989 126,149 127,30 136,10
138,20 139,179 140,10 153,40
154,10 155,8939 156,719 157,60
##END=
