##TITLE=3-Ethylheptanoic acid
##JCAMP-DX=4.24
##DATA TYPE=MASS SPECTRUM
##ORIGIN=NIST Mass Spectrometry Data Center, 1990.
##OWNER=NIST Mass Spectrometry Data Center
Collection (C) 2014 copyright by the U.S. Secretary of Commerce
on behalf of the United States of America. All rights reserved.
##CAS REGISTRY NO=14272-47-0
##$NIST MASS SPEC NO=114890
##MOLFORM=C9 H18 O2
##MW=158
##$NIST SOURCE=MSDC
##XUNITS=M/Z
##YUNITS=RELATIVE INTENSITY
##XFACTOR=1
##YFACTOR=1
##FIRSTX=14
##LASTX=129
##FIRSTY=8
##MAXX=129
##MINX=14
##MAXY=9999
##MINY=8
##NPOINTS=47
##PEAK TABLE=(XY..XY)
14,8 15,179 16,63 18,120
26,393 27,3558 28,576 29,4244
30,154 31,410 39,2697 40,664
41,6604 42,1377 43,3756 44,373
45,1707 51,245 53,932 54,695
55,6398 56,3444 57,9999 58,484
59,826 60,8138 61,2432 65,223
67,406 68,537 69,2933 70,2199
71,465 73,2112 74,151 81,259
82,137 83,1736 84,170 87,741
88,162 98,3463 99,531 101,2554
102,182 111,135 129,1466
##END=
