##TITLE=Allyl methallyl ether
##JCAMP-DX=4.24
##DATA TYPE=MASS SPECTRUM
##ORIGIN=NIST Mass Spectrometry Data Center, 1990.
##OWNER=NIST Mass Spectrometry Data Center
Collection (C) 2014 copyright by the U.S. Secretary of Commerce
on behalf of the United States of America. All rights reserved.
##CAS REGISTRY NO=14289-96-4
##$NIST MASS SPEC NO=113129
##MOLFORM=C7 H12 O
##MW=112
##$NIST SOURCE=MSDC
##XUNITS=M/Z
##YUNITS=RELATIVE INTENSITY
##XFACTOR=1
##YFACTOR=1
##FIRSTX=14
##LASTX=98
##FIRSTY=88
##MAXX=98
##MINX=14
##MAXY=9999
##MINY=45
##NPOINTS=41
##PEAK TABLE=(XY..XY)
14,88 15,287 26,542 27,3337
28,1147 29,3161 30,117 31,313
32,45 37,210 38,690 39,5880
40,1216 41,9999 42,2301 43,3457
44,157 45,56 50,182 51,241
52,136 53,1036 54,459 55,5233
56,2339 57,1164 58,833 65,50
67,536 68,955 69,2026 70,981
71,664 79,239 81,66 82,122
83,1243 84,709 85,56 97,721
98,70
##END=
