##TITLE=Rhodium, tris(2,4-pentanedionato-O,O')-, (OC-6-11)-
##JCAMP-DX=4.24
##DATA TYPE=MASS SPECTRUM
##ORIGIN=D.HENNEBERG, MAX-PLANCK INSTITUTE, MULHEIM, WEST GERMANY
##OWNER=NIST Mass Spectrometry Data Center
Collection (C) 2014 copyright by the U.S. Secretary of Commerce
on behalf of the United States of America. All rights reserved.
##CAS REGISTRY NO=14284-92-5
##$NIST MASS SPEC NO=63427
##MOLFORM=C15 H21 O6 Rh
##MW=400
##$NIST SOURCE=MSDC
##XUNITS=M/Z
##YUNITS=RELATIVE INTENSITY
##XFACTOR=1
##YFACTOR=1
##FIRSTX=27
##LASTX=404
##FIRSTY=24
##MAXX=404
##MINX=27
##MAXY=9999
##MINY=3
##NPOINTS=197
##PEAK TABLE=(XY..XY)
27,24 28,214 29,13 31,6
32,12 38,3 39,19 40,8
41,21 42,21 43,679 44,18
45,3 55,18 58,6 59,6
67,3 69,29 70,5 71,14
72,7 83,3 84,13 85,75
86,4 95,4 99,6 100,41
101,23 103,91 115,10 116,3
117,37 118,43 126,4 129,193
130,137 131,512 132,79 133,7
135,4 136,5 137,17 138,8
139,10 140,4 141,12 142,91
143,377 144,461 145,538 146,352
147,53 148,9 149,6 150,6
151,11 152,5 153,6 154,8
155,81 156,61 157,810 158,165
159,483 160,151 161,366 162,16
163,22 166,4 168,24 169,30
170,20 171,184 172,416 173,1281
174,156 175,398 176,26 177,26
178,18 179,11 181,13 182,7
183,34 184,28 185,354 186,154
187,480 188,53 189,173 190,16
191,18 193,9 195,10 196,10
197,35 198,19 199,121 200,145
201,1534 202,252 203,1592 204,97
205,21 207,4 208,4 211,12
212,13 213,37 214,46 215,247
216,31 217,2745 218,195 219,33
220,10 221,4 222,4 223,4
224,4 225,15 227,56 228,35
229,191 230,48 231,477 232,39
233,9 237,4 239,6 240,36
241,34 242,17 243,175 244,36
245,338 246,43 247,14 248,14
250,4 251,3 253,3 254,9
255,10 256,9 257,96 258,42
259,33 260,7 261,319 262,31
263,5 267,4 269,9 271,108
272,60 273,46 274,6 282,4
283,4 285,146 286,42 287,12
289,4 290,4 292,3 295,5
297,11 298,10 299,19 300,70
301,9999 302,1129 303,135 304,13
312,3 313,14 314,3 315,7
316,5 318,3 319,3 329,9
336,4 339,15 340,6 354,4
357,56 358,9 367,4 397,3
400,6470 401,1099 402,166 403,19
404,3
##END=
