##TITLE=Butanamide, N,N-dibutyl-
##JCAMP-DX=4.24
##DATA TYPE=MASS SPECTRUM
##ORIGIN=Zaikin V.G., TIPS RAS, Moscow, Russia
##OWNER=NIST Mass Spectrometry Data Center
Collection (C) 2014 copyright by the U.S. Secretary of Commerce
on behalf of the United States of America. All rights reserved.
##CAS REGISTRY NO=14287-95-7
##$NIST MASS SPEC NO=308674
##MOLFORM=C12 H25 N O
##MW=199
##$NIST SOURCE=MSDC
##XUNITS=M/Z
##YUNITS=RELATIVE INTENSITY
##XFACTOR=1
##YFACTOR=1
##FIRSTX=26
##LASTX=200
##FIRSTY=90
##MAXX=200
##MINX=26
##MAXY=9999
##MINY=30
##NPOINTS=71
##PEAK TABLE=(XY..XY)
26,90 27,410 28,180 29,450
30,310 36,160 37,30 38,100
39,340 40,80 41,1151 42,510
43,1802 44,1251 45,50 50,40
51,40 52,50 53,60 54,80
55,370 56,240 57,651 58,130
59,30 60,60 68,60 69,130
70,230 71,1391 72,360 73,300
77,30 79,70 82,60 83,110
84,350 85,60 86,9999 87,821
88,60 91,70 96,50 98,90
99,40 100,1361 101,250 110,60
111,1251 112,220 113,30 114,681
115,571 116,40 122,30 126,40
127,50 128,641 129,90 138,40
140,40 142,220 143,30 144,50
156,2102 157,290 168,30 170,150
184,230 199,400 200,70
##END=
