##TITLE=Myristin, 1,3-diaceto-2-
##JCAMP-DX=4.24
##DATA TYPE=MASS SPECTRUM
##ORIGIN=R.T.HOLMAN,UNIVERSITY OF MINNESOTA
##OWNER=NIST Mass Spectrometry Data Center
Collection (C) 2014 copyright by the U.S. Secretary of Commerce
on behalf of the United States of America. All rights reserved.
##CAS REGISTRY NO=14290-23-4
##$NIST MASS SPEC NO=35910
##MOLFORM=C21 H38 O6
##MW=386
##$NIST SOURCE=MSDC
##XUNITS=M/Z
##YUNITS=RELATIVE INTENSITY
##XFACTOR=1
##YFACTOR=1
##FIRSTX=26
##LASTX=329
##FIRSTY=30
##MAXX=329
##MINX=26
##MAXY=9999
##MINY=10
##NPOINTS=196
##PEAK TABLE=(XY..XY)
26,30 27,460 28,160 29,1100
30,20 31,60 39,360 40,80
41,2400 42,690 43,9999 44,290
45,560 46,10 50,10 51,20
52,10 53,160 54,250 55,2400
56,650 57,2800 58,230 59,60
60,120 61,280 65,30 66,30
67,470 68,280 69,1400 70,450
71,1600 72,110 73,960 74,190
75,50 76,10 77,40 78,10
79,140 80,80 81,470 82,250
83,900 84,2200 85,1000 86,140
87,60 88,20 89,10 91,30
92,10 93,120 94,80 95,600
96,200 97,810 98,3200 99,650
100,80 101,50 102,20 103,220
104,20 105,20 106,10 107,70
108,50 109,350 110,110 111,580
112,1200 113,170 114,30 115,870
116,820 117,1200 118,70 119,20
120,10 121,120 122,30 123,180
124,60 125,190 126,320 127,90
128,20 129,60 130,20 131,10
133,10 135,110 136,20 137,90
138,50 139,70 140,130 141,40
142,50 143,60 145,10 146,10
147,10 149,150 150,30 151,40
152,20 153,50 154,100 155,30
156,10 157,20 158,2500 159,5000
160,400 161,60 162,10 163,30
164,30 165,20 166,50 167,50
168,50 169,30 170,10 171,710
172,80 173,20 176,20 177,610
178,60 179,20 180,10 181,40
182,40 183,20 184,10 185,80
186,20 191,20 192,30 193,30
194,10 195,20 196,10 197,10
199,30 200,10 205,20 206,20
207,10 208,20 209,30 210,250
211,4300 212,650 213,130 214,30
215,10 218,160 219,30 220,10
221,10 222,10 223,20 224,20
225,10 227,190 228,50 229,30
241,50 242,60 243,20 255,30
256,20 269,40 270,20 271,20
283,130 284,50 285,20 297,50
298,50 299,20 311,20 312,10
313,250 314,60 315,20 325,20
326,224 327,110 328,30 329,10
##END=
