##TITLE=(2,5-Dimethoxyphenyl)acetone
##JCAMP-DX=4.24
##DATA TYPE=MASS SPECTRUM
##ORIGIN=Dr. Jiri Zamecnik, DCIEM, North York, Canada, GP Library
##OWNER=NIST Mass Spectrometry Data Center
Collection (C) 2014 copyright by the U.S. Secretary of Commerce
on behalf of the United States of America. All rights reserved.
##CAS REGISTRY NO=14293-24-4
##$NIST MASS SPEC NO=121458
##MOLFORM=C11 H14 O3
##MW=194
##$NIST SOURCE=MSDC
##XUNITS=M/Z
##YUNITS=RELATIVE INTENSITY
##XFACTOR=1
##YFACTOR=1
##FIRSTX=39
##LASTX=195
##FIRSTY=1490
##MAXX=195
##MINX=39
##MAXY=9999
##MINY=110
##NPOINTS=27
##PEAK TABLE=(XY..XY)
39,1490 43,5620 51,1180 53,540
63,500 65,2350 77,3260 78,1770
79,860 91,3730 92,610 93,380
106,480 107,420 108,750 121,7910
122,800 123,980 135,210 136,230
137,1250 149,620 151,9999 152,1440
163,110 194,5330 195,960
##END=
