##TITLE=Methylmercuric iodide
##JCAMP-DX=4.24
##DATA TYPE=MASS SPECTRUM
##OWNER=NIST Mass Spectrometry Data Center
Collection (C) 2014 copyright by the U.S. Secretary of Commerce
on behalf of the United States of America. All rights reserved.
##CAS REGISTRY NO=143-36-2
##$NIST MASS SPEC NO=15791
##MOLFORM=C H3 Hg I
##MW=344
##$NIST SOURCE=MSDC
##XUNITS=M/Z
##YUNITS=RELATIVE INTENSITY
##XFACTOR=1
##YFACTOR=1
##FIRSTX=127
##LASTX=346
##FIRSTY=5945
##MAXX=346
##MINX=127
##MAXY=9999
##MINY=54
##NPOINTS=35
##PEAK TABLE=(XY..XY)
127,5945 128,4135 139,1027 140,1865
141,3864 142,9999 143,189 198,1676
199,2865 200,3864 201,2432 202,4594
203,189 204,1135 213,2702 214,4108
215,4864 216,3459 217,5675 218,189
219,1405 325,2865 326,4864 327,6675
328,3783 329,7999 330,135 331,1892
340,3189 341,5135 342,6972 343,4054
344,8837 345,54 346,2108
##END=
