##TITLE=9-Octadecen-1-ol, (Z)-
##JCAMP-DX=4.24
##DATA TYPE=MASS SPECTRUM
##ORIGIN=NIST Mass Spectrometry Data Center
##OWNER=NIST Mass Spectrometry Data Center
Collection (C) 2014 copyright by the U.S. Secretary of Commerce
on behalf of the United States of America. All rights reserved.
##CAS REGISTRY NO=143-28-2
##$NIST MASS SPEC NO=352682
##MOLFORM=C18 H36 O
##MW=268
##$NIST SOURCE=MSDC
##XUNITS=M/Z
##YUNITS=RELATIVE INTENSITY
##XFACTOR=1
##YFACTOR=1
##FIRSTX=15
##LASTX=268
##FIRSTY=10
##MAXX=268
##MINX=15
##MAXY=9999
##MINY=10
##NPOINTS=121
##PEAK TABLE=(XY..XY)
15,10 19,10 26,20 27,420
28,100 29,1111 30,50 31,1361
37,10 38,20 39,811 40,180
41,5285 42,901 43,3613 44,230
45,140 46,10 50,20 51,60
52,60 53,851 54,3713 55,9999
56,2272 57,3183 58,180 59,30
63,10 65,290 66,701 67,6916
68,4634 69,5635 70,1661 71,1191
72,120 73,50 75,10 77,260
78,70 79,991 80,671 81,7096
82,9849 83,4834 84,881 85,771
86,90 87,20 91,150 92,20
93,310 94,350 95,6095 96,7637
97,3173 98,550 99,200 100,30
101,10 103,10 105,20 106,10
107,100 108,150 109,3213 110,2923
111,1091 112,250 113,70 114,10
115,10 121,90 122,140 123,1752
124,1722 125,410 126,120 127,30
128,10 135,50 136,80 137,891
138,911 139,150 140,70 141,20
149,10 150,10 151,290 152,390
153,60 154,40 155,10 165,130
166,220 167,30 168,50 169,10
179,70 180,130 181,20 182,20
183,10 193,90 194,140 195,20
196,10 207,40 208,60 209,10
221,20 222,130 223,20 224,10
235,10 250,500 251,100 252,10
268,10
##END=
