##TITLE=Ethanol, 2-[2-(2-butoxyethoxy)ethoxy]-
##JCAMP-DX=4.24
##DATA TYPE=MASS SPECTRUM
##ORIGIN=NIST Mass Spectrometry Data Center, 2007
##OWNER=NIST Mass Spectrometry Data Center
Collection (C) 2014 copyright by the U.S. Secretary of Commerce
on behalf of the United States of America. All rights reserved.
##CAS REGISTRY NO=143-22-6
##$NIST MASS SPEC NO=352049
##MOLFORM=C10 H22 O4
##MW=206
##$NIST SOURCE=MSDC
##XUNITS=M/Z
##YUNITS=RELATIVE INTENSITY
##XFACTOR=1
##YFACTOR=1
##FIRSTX=15
##LASTX=176
##FIRSTY=80
##MAXX=176
##MINX=15
##MAXY=9999
##MINY=10
##NPOINTS=84
##PEAK TABLE=(XY..XY)
15,80 16,10 19,120 26,60
27,651 28,701 29,1842 30,150
31,741 32,30 33,30 38,10
39,280 40,50 41,2262 42,270
43,1171 44,1431 45,9999 46,240
47,50 51,70 52,10 53,50
54,20 55,520 56,1712 57,5725
58,841 59,1621 60,150 61,120
62,40 63,70 67,20 68,10
69,150 70,80 71,360 72,771
73,711 74,50 75,2152 76,420
77,100 78,10 81,10 82,30
83,100 85,1571 86,130 87,1541
88,981 89,3253 90,210 91,30
98,70 99,90 100,1531 101,1581
102,180 103,520 104,50 105,20
106,50 107,40 115,100 116,70
117,400 118,30 119,360 120,20
121,10 129,50 130,10 131,380
132,40 133,80 134,20 144,150
145,50 151,10 163,10 176,10
##END=
