##TITLE=1-Hexadecanamine
##JCAMP-DX=4.24
##DATA TYPE=MASS SPECTRUM
##ORIGIN=NIST Mass Spectrometry Data Center, 1998.
##OWNER=NIST Mass Spectrometry Data Center
Collection (C) 2014 copyright by the U.S. Secretary of Commerce
on behalf of the United States of America. All rights reserved.
##CAS REGISTRY NO=143-27-1
##$NIST MASS SPEC NO=290921
##MOLFORM=C16 H35 N
##MW=241
##$NIST SOURCE=MSDC
##XUNITS=M/Z
##YUNITS=RELATIVE INTENSITY
##XFACTOR=1
##YFACTOR=1
##FIRSTX=26
##LASTX=243
##FIRSTY=10
##MAXX=243
##MINX=26
##MAXY=9999
##MINY=10
##NPOINTS=100
##PEAK TABLE=(XY..XY)
26,10 27,270 28,120 29,740
30,9999 31,210 32,30 38,10
39,350 40,80 41,2650 42,640
43,2820 44,3190 45,1680 46,50
51,20 52,10 53,200 54,230
55,2490 56,1240 57,1370 58,190
59,720 60,30 65,40 66,20
67,270 68,180 69,1150 70,440
71,340 72,630 73,310 74,10
77,20 78,10 79,50 80,10
81,110 82,180 83,660 84,250
85,160 86,1470 87,230 88,10
91,10 93,10 95,40 96,90
97,450 98,140 99,30 100,830
101,100 109,10 110,50 111,220
112,100 113,10 114,400 115,60
123,10 124,20 125,90 126,60
127,10 128,320 129,40 138,10
139,20 140,40 141,10 142,380
143,50 152,10 153,10 154,20
156,320 157,40 168,10 170,250
171,30 182,10 184,200 185,30
196,20 198,190 199,30 212,200
213,30 224,10 226,100 227,20
240,150 241,210 242,70 243,10
##END=
