##TITLE=Dimethyl 1,4-cyclohexadiene-1,2-dicarboxylate
##JCAMP-DX=4.24
##DATA TYPE=MASS SPECTRUM
##ORIGIN=NIST Mass Spectrometry Data Center, 1994
##OWNER=NIST Mass Spectrometry Data Center
Collection (C) 2014 copyright by the U.S. Secretary of Commerce
on behalf of the United States of America. All rights reserved.
##CAS REGISTRY NO=14309-54-7
##$NIST MASS SPEC NO=135156
##MOLFORM=C10 H12 O4
##MW=196
##$NIST SOURCE=MSDC
##XUNITS=M/Z
##YUNITS=RELATIVE INTENSITY
##XFACTOR=1
##YFACTOR=1
##FIRSTX=12
##LASTX=195
##FIRSTY=27
##MAXX=195
##MINX=12
##MAXY=9999
##MINY=25
##NPOINTS=80
##PEAK TABLE=(XY..XY)
12,27 13,54 15,5648 16,94
17,38 18,66 26,171 27,681
28,326 29,1122 30,304 31,459
32,75 33,32 37,116 38,413
39,1691 40,203 41,278 42,54
43,132 44,54 45,376 50,1790
51,3393 52,1429 53,694 54,118
55,114 57,42 59,4816 60,137
61,87 62,116 63,411 64,211
65,791 66,523 67,97 68,41
71,31 73,62 74,406 75,322
76,31 77,7585 78,2187 79,661
80,64 81,55 89,30 91,2637
92,795 93,694 94,239 95,71
105,5912 106,670 107,107 108,64
109,340 110,35 119,63 120,113
121,150 122,45 133,525 134,77
135,402 136,353 137,824 138,82
149,148 151,101 163,9999 164,6806
165,2907 166,311 194,25 195,49
##END=
