##TITLE=Dicyclopropyl carbinol
##JCAMP-DX=4.24
##DATA TYPE=MASS SPECTRUM
##ORIGIN=NIST Mass Spectrometry Data Center, 1994
##OWNER=NIST Mass Spectrometry Data Center
Collection (C) 2014 copyright by the U.S. Secretary of Commerce
on behalf of the United States of America. All rights reserved.
##CAS REGISTRY NO=14300-33-5
##$NIST MASS SPEC NO=136244
##MOLFORM=C7 H12 O
##MW=112
##$NIST SOURCE=MSDC
##XUNITS=M/Z
##YUNITS=RELATIVE INTENSITY
##XFACTOR=1
##YFACTOR=1
##FIRSTX=13
##LASTX=112
##FIRSTY=71
##MAXX=112
##MINX=13
##MAXY=9999
##MINY=5
##NPOINTS=63
##PEAK TABLE=(XY..XY)
13,71 14,329 15,1324 16,30
17,26 18,81 19,175 25,54
26,949 27,6231 28,1345 29,3527
30,141 31,1281 32,8 37,470
38,1276 39,9272 40,1555 41,9999
42,2846 43,6729 44,479 45,146
49,65 50,509 51,877 52,323
53,2017 54,448 55,6864 56,4227
57,1111 58,215 61,58 62,142
63,243 64,56 65,645 66,829
67,1369 68,1719 69,5408 70,413
71,1403 72,72 76,25 77,445
78,114 79,573 80,66 81,183
82,25 83,8010 84,7091 85,406
86,26 93,42 94,28 95,79
97,43 111,48 112,5
##END=
