##TITLE=Benzo[b]thiophene, 4-methyl-
##JCAMP-DX=4.24
##DATA TYPE=MASS SPECTRUM
##OWNER=NIST Mass Spectrometry Data Center
Collection (C) 2014 copyright by the U.S. Secretary of Commerce
on behalf of the United States of America. All rights reserved.
##CAS REGISTRY NO=14315-11-8
##$NIST MASS SPEC NO=4496
##MOLFORM=C9 H8 S
##MW=148
##$NIST SOURCE=MSDC
##XUNITS=M/Z
##YUNITS=RELATIVE INTENSITY
##XFACTOR=1
##YFACTOR=1
##FIRSTX=39
##LASTX=152
##FIRSTY=791
##MAXX=152
##MINX=39
##MAXY=9999
##MINY=10
##NPOINTS=106
##PEAK TABLE=(XY..XY)
39,791 40,40 41,30 42,10
43,20 44,50 45,1351 46,60
47,70 48,10 49,80 50,591
51,731 52,140 53,60 54,10
55,10 56,10 57,80 58,110
59,60 60,70 61,210 62,350
63,721 64,90 65,120 66,10
67,10 68,30 69,971 70,130
71,210 72,150 73,641 74,1031
75,360 76,190 77,701 78,100
79,10 80,10 81,120 82,170
83,40 84,30 85,50 86,80
87,110 88,60 89,260 90,30
91,30 92,20 93,190 94,40
95,70 96,20 97,40 98,60
99,20 100,10 101,80 102,340
103,601 104,80 105,30 106,40
107,20 108,80 109,30 110,10
111,10 112,10 113,50 114,40
115,751 116,80 117,30 118,10
119,40 120,40 121,330 122,30
123,20 124,10 129,10 130,10
131,10 132,30 133,10 134,10
135,10 136,10 141,10 142,10
143,10 144,10 145,220 146,270
147,9999 148,7607 149,1171 150,360
151,30 152,10
##END=
