##TITLE=Benzene, 1-nitro-4-(2-phenylethyl)-
##JCAMP-DX=4.24
##DATA TYPE=MASS SPECTRUM
##OWNER=NIST Mass Spectrometry Data Center
Collection (C) 2014 copyright by the U.S. Secretary of Commerce
on behalf of the United States of America. All rights reserved.
##CAS REGISTRY NO=14310-29-3
##$NIST MASS SPEC NO=10833
##MOLFORM=C14 H13 N O2
##MW=227
##$NIST SOURCE=MSDC
##XUNITS=M/Z
##YUNITS=RELATIVE INTENSITY
##XFACTOR=1
##YFACTOR=1
##FIRSTX=39
##LASTX=228
##FIRSTY=170
##MAXX=228
##MINX=39
##MAXY=9999
##MINY=10
##NPOINTS=24
##PEAK TABLE=(XY..XY)
39,170 40,20 41,50 50,70
51,200 63,200 64,80 65,671
76,90 77,170 78,140 89,300
90,200 91,9999 92,771 106,80
165,110 178,110 179,50 180,20
181,20 197,10 227,721 228,120
##END=
