##TITLE=1,1,3-Trimethoxypropane
##JCAMP-DX=4.24
##DATA TYPE=MASS SPECTRUM
##ORIGIN=NIST Mass Spectrometry Data Center, 1990.
##OWNER=NIST Mass Spectrometry Data Center
Collection (C) 2014 copyright by the U.S. Secretary of Commerce
on behalf of the United States of America. All rights reserved.
##CAS REGISTRY NO=14315-97-0
##$NIST MASS SPEC NO=118815
##MOLFORM=C6 H14 O3
##MW=134
##$NIST SOURCE=MSDC
##XUNITS=M/Z
##YUNITS=RELATIVE INTENSITY
##XFACTOR=1
##YFACTOR=1
##FIRSTX=12
##LASTX=133
##FIRSTY=6
##MAXX=133
##MINX=12
##MAXY=9999
##MINY=5
##NPOINTS=60
##PEAK TABLE=(XY..XY)
12,6 13,20 14,144 15,1572
16,41 17,24 18,12 19,11
26,180 27,783 28,621 29,2297
30,199 31,1738 32,64 33,291
37,13 38,44 39,302 40,63
41,775 42,295 43,708 44,13
45,9204 46,281 47,2236 48,60
49,7 51,14 53,35 54,22
55,189 56,99 57,365 58,365
59,496 60,26 61,20 69,29
71,2023 72,443 73,760 74,20
75,9999 76,365 77,48 85,42
87,217 88,11 89,7 101,358
102,589 103,1776 104,94 105,15
117,5 119,142 120,14 133,25
##END=
