##TITLE=D-Mannitol, 6TMS derivative
##JCAMP-DX=4.24
##DATA TYPE=MASS SPECTRUM
##ORIGIN=NIST Mass Spectrometry Data Center, 2010
##OWNER=NIST Mass Spectrometry Data Center
Collection (C) 2014 copyright by the U.S. Secretary of Commerce
on behalf of the United States of America. All rights reserved.
##CAS REGISTRY NO=14317-07-8
##$NIST MASS SPEC NO=380338
##MOLFORM=C24 H62 O6 Si6
##MW=614
##$NIST SOURCE=MSDC
##XUNITS=M/Z
##YUNITS=RELATIVE INTENSITY
##XFACTOR=1
##YFACTOR=1
##FIRSTX=15
##LASTX=434
##FIRSTY=10
##MAXX=434
##MINX=15
##MAXY=9999
##MINY=10
##NPOINTS=187
##PEAK TABLE=(XY..XY)
15,10 29,10 31,10 39,10
41,90 42,10 43,60 44,70
45,370 46,30 47,40 53,20
54,30 55,60 56,10 57,20
58,50 59,230 60,20 61,30
66,10 67,10 69,40 70,20
71,20 72,160 73,9999 74,831
75,591 76,30 77,20 81,20
83,30 85,20 87,40 88,50
89,220 90,20 91,10 97,20
99,30 101,210 102,40 103,3193
104,300 105,130 106,10 111,20
113,60 114,10 115,50 116,80
117,1491 118,150 119,110 120,10
125,10 127,30 128,10 129,731
130,90 131,320 132,50 133,791
134,110 135,70 136,10 141,20
142,20 143,150 144,20 145,50
146,20 147,4884 148,771 149,480
150,50 151,20 153,10 155,30
156,10 157,520 158,60 159,60
160,10 161,50 162,10 163,90
164,10 165,10 167,10 169,30
170,10 173,20 175,100 176,20
177,60 178,10 179,10 183,60
184,10 185,10 187,10 189,621
190,150 191,510 192,90 193,40
194,10 201,20 202,10 203,70
204,791 205,4104 206,801 207,400
208,50 209,20 215,20 216,20
217,2552 218,540 219,240 220,30
221,150 222,30 223,20 229,290
230,100 231,210 232,40 233,20
239,10 243,20 244,10 247,10
255,90 256,20 257,20 259,30
260,10 265,20 266,10 273,10
277,210 278,80 279,40 280,10
291,220 292,70 293,40 294,10
303,10 305,230 306,120 307,771
308,220 309,110 310,20 317,20
318,20 319,4534 320,1341 321,641
322,130 323,30 329,20 330,10
331,170 332,50 333,30 334,10
345,200 346,60 347,30 348,10
393,10 408,10 409,20 410,10
419,80 420,30 421,140 422,50
423,30 424,10 434,10
##END=
