##TITLE=Benzenemethanamine, N-ethyl-
##JCAMP-DX=4.24
##DATA TYPE=MASS SPECTRUM
##ORIGIN=Japan AIST/NIMC Database- Spectrum MS-NW-8872
##OWNER=NIST Mass Spectrometry Data Center
Collection (C) 2014 copyright by the U.S. Secretary of Commerce
on behalf of the United States of America. All rights reserved.
##CAS REGISTRY NO=14321-27-8
##$NIST MASS SPEC NO=235220
##MOLFORM=C9 H13 N
##MW=135
##$NIST SOURCE=MSDC
##XUNITS=M/Z
##YUNITS=RELATIVE INTENSITY
##XFACTOR=1
##YFACTOR=1
##FIRSTX=15
##LASTX=136
##FIRSTY=30
##MAXX=136
##MINX=15
##MAXY=9999
##MINY=10
##NPOINTS=60
##PEAK TABLE=(XY..XY)
15,30 26,20 27,189 28,739
29,259 30,719 31,10 38,40
39,379 40,40 41,139 42,139
43,20 44,1549 45,40 50,119
51,379 52,109 53,30 54,20
55,10 56,229 57,139 58,1639
59,80 60,219 62,50 63,219
64,60 65,999 66,60 67,10
74,20 75,30 76,40 77,469
78,139 79,579 80,40 89,229
90,109 91,9999 92,999 93,50
103,20 104,159 105,60 106,359
107,30 117,40 118,139 119,20
120,3309 121,309 122,10 132,60
133,40 134,1209 135,949 136,119
##END=
