##TITLE=Pyridin-4-amine, 3,5-dichloro-2-trichloromethyl-
##JCAMP-DX=4.24
##DATA TYPE=MASS SPECTRUM
##ORIGIN=A.A.Kutin, Moscow, Russia
##OWNER=NIST Mass Spectrometry Data Center
Collection (C) 2014 copyright by the U.S. Secretary of Commerce
on behalf of the United States of America. All rights reserved.
##CAS REGISTRY NO=14321-05-2
##$NIST MASS SPEC NO=263103
##MOLFORM=C6 H3 Cl5 N2
##MW=278
##$NIST SOURCE=MSDC
##XUNITS=M/Z
##YUNITS=RELATIVE INTENSITY
##XFACTOR=1
##YFACTOR=1
##FIRSTX=33
##LASTX=286
##FIRSTY=4
##MAXX=286
##MINX=33
##MAXY=9999
##MINY=3
##NPOINTS=207
##PEAK TABLE=(XY..XY)
33,4 35,2121 36,664 37,1169
38,798 39,443 40,237 41,115
42,56 43,81 44,49 45,33
47,2230 48,475 49,942 50,346
51,957 52,2091 53,435 55,462
57,64 59,235 60,730 62,1671
63,531 64,672 65,608 66,281
67,99 68,27 69,66 70,94
71,763 72,545 73,917 74,816
75,1428 76,447 77,599 78,60
79,49 80,16 82,963 83,352
84,900 85,709 86,1665 87,433
88,745 89,129 90,271 91,609
92,92 94,406 95,300 96,263
97,282 98,354 99,421 100,366
101,287 102,112 103,106 104,249
105,261 106,732 107,334 108,712
109,566 110,1558 111,522 112,539
113,375 115,152 117,342 118,310
119,598 120,284 121,455 122,958
124,446 125,94 126,178 127,33
128,69 130,159 131,77 132,153
133,124 134,315 135,209 136,197
137,318 138,62 139,116 141,274
143,301 144,425 145,207 146,979
147,164 148,496 149,185 150,83
151,78 152,4 153,208 154,66
155,221 156,101 157,121 158,51
159,36 160,40 161,85 162,25
163,46 164,3 165,68 166,7
167,70 168,16 169,37 171,426
173,1591 174,165 175,823 176,70
177,141 178,26 180,869 181,198
182,914 183,151 184,374 185,55
186,70 187,7 188,23 189,44
190,43 191,67 192,49 193,43
194,43 195,26 196,81 197,10
198,45 200,19 201,22 202,4
203,33 204,7 205,36 207,456
208,124 209,459 210,126 211,177
212,34 213,35 214,24 215,67
216,476 218,692 220,356 221,15
222,66 228,64 230,87 231,6
232,37 233,3 234,7 237,33
238,42 239,66 240,121 243,7973
245,9999 246,985 247,4177 248,362
249,896 250,88 251,82 252,9
262,151 263,32 264,210 265,35
266,149 267,11 268,43 270,7
275,20 276,38 278,1099 279,252
280,1558 281,214 282,979 283,109
284,301 285,27 286,46
##END=
