##TITLE=Nickel,bis(1,1,1-trifluoro-2,4-pentanedionato-O,O')-
##JCAMP-DX=4.24
##DATA TYPE=MASS SPECTRUM
##ORIGIN=Japan AIST/NIMC Database- Spectrum MS-NW-3083
##OWNER=NIST Mass Spectrometry Data Center
Collection (C) 2014 copyright by the U.S. Secretary of Commerce
on behalf of the United States of America. All rights reserved.
##CAS REGISTRY NO=14324-83-5
##$NIST MASS SPEC NO=231195
##MOLFORM=C10 H8 F6 Ni O4
##MW=364
##$NIST SOURCE=MSDC
##XUNITS=M/Z
##YUNITS=RELATIVE INTENSITY
##XFACTOR=1
##YFACTOR=1
##FIRSTX=12
##LASTX=368
##FIRSTY=40
##MAXX=368
##MINX=12
##MAXY=9999
##MINY=10
##NPOINTS=149
##PEAK TABLE=(XY..XY)
12,40 13,30 14,119 15,429
16,20 19,20 20,70 25,40
26,139 27,509 28,1569 29,129
31,119 36,30 37,99 38,189
39,499 40,299 41,159 42,279
43,9999 44,269 45,50 47,40
50,50 51,50 53,129 54,40
55,639 56,50 57,60 58,759
59,60 60,269 62,40 63,60
66,60 67,299 68,70 69,1399
70,40 71,149 72,50 73,80
74,30 75,90 76,20 77,40
78,30 79,20 80,10 82,30
83,50 84,229 85,719 86,469
87,80 88,169 89,30 90,40
91,239 95,30 96,20 97,50
98,10 99,189 100,189 101,99
102,99 103,20 104,10 105,20
108,30 110,30 112,10 113,40
114,80 115,60 116,30 117,20
119,70 120,229 123,10 126,30
127,20 128,20 131,20 133,20
134,70 135,20 139,80 140,30
141,159 142,299 143,70 144,119
145,20 146,10 148,20 149,80
154,90 155,90 157,50 159,70
161,2199 162,119 163,739 164,80
165,129 167,50 182,10 183,70
185,30 195,20 196,80 198,30
199,20 209,30 211,2249 212,209
213,979 214,119 215,149 217,50
218,20 225,50 227,20 253,269
254,10 255,90 257,20 283,30
295,1869 296,179 297,709 298,109
299,119 301,30 317,20 349,169
350,20 351,80 352,10 362,20
364,749 365,99 366,279 367,40
368,60
##END=
