##TITLE=Phthalocyanine manganese
##JCAMP-DX=4.24
##DATA TYPE=MASS SPECTRUM
##ORIGIN=Japan AIST/NIMC Database- Spectrum MS-IW-3929
##OWNER=NIST Mass Spectrometry Data Center
Collection (C) 2014 copyright by the U.S. Secretary of Commerce
on behalf of the United States of America. All rights reserved.
##CAS REGISTRY NO=14325-24-7
##$NIST MASS SPEC NO=236498
##MOLFORM=C32 H16 Mn N8
##MW=567
##$NIST SOURCE=MSDC
##XUNITS=M/Z
##YUNITS=RELATIVE INTENSITY
##XFACTOR=1
##YFACTOR=1
##FIRSTX=26
##LASTX=569
##FIRSTY=40
##MAXX=569
##MINX=26
##MAXY=9999
##MINY=30
##NPOINTS=42
##PEAK TABLE=(XY..XY)
26,40 27,139 28,99 37,30
38,30 39,40 43,30 44,189
50,149 51,80 52,40 55,1709
64,70 74,50 75,129 76,159
77,60 81,389 88,30 91,489
92,50 100,30 101,209 102,80
103,90 104,60 105,30 128,1029
129,119 147,60 155,1649 156,339
182,40 183,669 184,60 189,70
209,189 283,2009 284,779 567,9999
568,3759 569,749
##END=
