##TITLE=Phthalocyanine zinc
##JCAMP-DX=4.24
##DATA TYPE=MASS SPECTRUM
##ORIGIN=Japan AIST/NIMC Database- Spectrum MS-IW-1007
##OWNER=NIST Mass Spectrometry Data Center
Collection (C) 2014 copyright by the U.S. Secretary of Commerce
on behalf of the United States of America. All rights reserved.
##CAS REGISTRY NO=14320-04-8
##$NIST MASS SPEC NO=231079
##MOLFORM=C32 H16 N8 Zn
##MW=576
##$NIST SOURCE=MSDC
##XUNITS=M/Z
##YUNITS=RELATIVE INTENSITY
##XFACTOR=1
##YFACTOR=1
##FIRSTX=26
##LASTX=583
##FIRSTY=30
##MAXX=583
##MINX=26
##MAXY=9999
##MINY=20
##NPOINTS=108
##PEAK TABLE=(XY..XY)
26,30 27,109 28,229 29,20
36,40 39,50 41,60 42,20
43,60 44,449 50,109 51,90
52,40 55,60 56,30 57,70
63,30 64,1189 66,659 67,90
68,429 69,50 70,20 71,50
73,20 74,40 75,139 76,129
77,90 78,40 81,30 83,40
85,30 88,30 90,70 91,20
92,30 94,20 97,40 98,30
100,60 101,349 102,349 103,90
104,30 105,60 114,30 121,20
122,40 127,70 128,1119 129,219
130,20 140,40 149,109 154,199
155,20 160,1149 161,689 162,529
163,30 164,30 166,50 178,20
191,50 192,959 193,119 194,519
195,119 196,359 197,30 218,159
220,99 221,50 222,60 228,30
229,30 230,80 255,259 256,90
268,50 282,40 287,40 288,2149
289,1369 290,969 291,90 319,30
321,20 358,90 359,30 383,539
384,269 385,50 564,159 565,80
566,30 568,20 570,20 575,279
576,9999 577,3929 578,6399 579,3109
580,4409 581,1519 582,419 583,80
##END=
