##TITLE=Zinc, bis(diethylcarbamodithioato-S,S')-, (T-4)-
##JCAMP-DX=4.24
##DATA TYPE=MASS SPECTRUM
##ORIGIN=Japan AIST/NIMC Database- Spectrum MS-NW-8129
##OWNER=NIST Mass Spectrometry Data Center
Collection (C) 2014 copyright by the U.S. Secretary of Commerce
on behalf of the United States of America. All rights reserved.
##CAS REGISTRY NO=14324-55-1
##$NIST MASS SPEC NO=229592
##MOLFORM=C10 H20 N2 S4 Zn
##MW=360
##$NIST SOURCE=MSDC
##XUNITS=M/Z
##YUNITS=RELATIVE INTENSITY
##XFACTOR=1
##YFACTOR=1
##FIRSTX=15
##LASTX=368
##FIRSTY=40
##MAXX=368
##MINX=15
##MAXY=9999
##MINY=10
##NPOINTS=244
##PEAK TABLE=(XY..XY)
15,40 17,30 18,199 26,80
27,599 28,609 29,1249 30,159
32,60 33,20 34,50 35,20
38,10 39,20 40,20 41,80
42,389 43,40 44,1449 45,139
46,20 47,20 52,10 54,90
55,60 56,699 57,90 58,209
59,529 60,2329 61,229 62,109
64,109 65,10 66,30 67,10
68,20 69,10 70,469 71,139
72,1899 73,139 74,20 76,389
77,199 78,40 79,20 82,40
83,10 84,119 85,30 86,2139
87,709 88,3999 89,219 90,189
91,60 92,30 93,30 94,10
95,10 96,40 97,99 98,109
99,60 100,30 101,40 102,10
104,10 106,10 108,10 110,10
111,10 112,10 113,119 114,1429
115,649 116,9999 117,1129 118,499
119,80 120,30 121,20 122,20
123,50 124,60 125,50 126,30
127,30 128,60 129,60 130,30
131,10 132,20 135,20 136,40
137,10 138,20 139,20 140,40
141,10 142,20 143,10 144,20
145,20 146,50 147,209 148,1619
149,559 150,179 151,139 152,50
153,60 154,40 155,80 156,80
157,60 158,50 159,40 160,40
161,10 166,10 168,129 169,10
170,80 171,20 172,60 173,30
174,20 175,20 176,10 177,30
178,10 179,10 180,80 181,20
182,30 183,10 184,199 185,20
186,129 187,50 188,90 189,20
190,10 191,10 200,30 203,50
204,20 205,40 207,20 209,10
210,10 211,60 212,1659 213,369
214,1179 215,439 216,789 217,209
218,129 219,50 220,10 232,40
239,10 241,10 243,20 244,1839
245,209 246,1309 247,299 248,859
249,109 250,129 251,10 255,60
256,10 257,40 258,10 259,30
260,20 262,10 264,40 266,20
267,239 268,40 269,279 270,60
271,349 272,299 273,209 274,199
275,129 276,129 277,40 278,20
283,429 284,50 285,279 286,70
287,189 288,50 289,20 290,20
291,30 292,20 293,30 295,20
297,20 299,329 300,80 301,249
302,80 303,159 304,40 305,30
327,99 328,10 329,80 330,20
331,959 332,119 333,689 334,159
335,459 336,60 337,80 338,10
348,10 351,10 352,70 353,10
354,10 358,10 359,419 360,7569
361,1429 362,5669 363,1619 364,3789
365,679 366,699 367,99 368,60
##END=
