##TITLE=Thiourea, N-(1,1-dimethylethyl)-N'-phenyl-
##JCAMP-DX=4.24
##DATA TYPE=MASS SPECTRUM
##ORIGIN=CARL DJERASSI DEPT OF CHEM STANFORD UNIV STANFORD CALIF 94305
##OWNER=NIST Mass Spectrometry Data Center
Collection (C) 2014 copyright by the U.S. Secretary of Commerce
on behalf of the United States of America. All rights reserved.
##CAS REGISTRY NO=14327-04-9
##$NIST MASS SPEC NO=47431
##MOLFORM=C11 H16 N2 S
##MW=208
##$NIST SOURCE=MSDC
##XUNITS=M/Z
##YUNITS=RELATIVE INTENSITY
##XFACTOR=1
##YFACTOR=1
##FIRSTX=40
##LASTX=211
##FIRSTY=396
##MAXX=211
##MINX=40
##MAXY=9999
##MINY=99
##NPOINTS=63
##PEAK TABLE=(XY..XY)
40,396 41,3960 42,1287 43,1089
44,99 50,396 51,2079 52,297
53,198 54,99 55,1683 56,495
57,4158 58,2871 59,99 60,792
63,297 64,297 65,2475 66,2079
67,297 69,396 70,198 71,297
72,594 76,198 77,3366 78,594
81,198 82,99 83,198 85,99
91,594 92,2475 93,6733 94,3069
95,396 96,99 97,198 99,396
100,99 104,99 106,99 109,1584
110,1782 111,99 118,1782 119,5446
120,990 124,297 134,198 135,297
136,891 150,99 151,5347 152,1287
153,495 175,297 207,2277 208,9999
209,3267 210,891 211,99
##END=
