##TITLE=Estran-3-one, 17-hydroxy-, (5.alpha.,17.beta.)-
##JCAMP-DX=4.24
##DATA TYPE=MASS SPECTRUM
##ORIGIN=CARL DJERASSI DEPT OF CHEM STANFORD UNIV STANFORD CALIF 94305
##OWNER=NIST Mass Spectrometry Data Center
Collection (C) 2014 copyright by the U.S. Secretary of Commerce
on behalf of the United States of America. All rights reserved.
##CAS REGISTRY NO=1434-85-1
##$NIST MASS SPEC NO=47921
##MOLFORM=C18 H28 O2
##MW=276
##$NIST SOURCE=MSDC
##XUNITS=M/Z
##YUNITS=RELATIVE INTENSITY
##XFACTOR=1
##YFACTOR=1
##FIRSTX=41
##LASTX=278
##FIRSTY=9999
##MAXX=278
##MINX=41
##MAXY=9999
##MINY=52
##NPOINTS=166
##PEAK TABLE=(XY..XY)
41,9999 42,1269 43,4656 44,1216
45,423 50,158 51,529 52,370
53,3703 54,1322 55,9999 56,846
57,2539 58,529 59,158 60,105
61,52 63,158 64,105 65,1481
66,846 67,7936 68,5555 69,2592
70,370 71,1058 72,211 73,158
74,264 75,105 76,52 77,3068
78,1005 79,6349 80,1481 81,6825
82,1322 83,1851 84,476 85,317
86,52 87,52 88,105 89,52
91,4285 92,952 93,4391 94,1798
95,3386 96,846 97,952 98,158
99,105 101,52 102,52 103,211
104,370 105,2857 106,1058 107,3386
108,1640 109,1957 110,1640 111,582
112,105 115,264 116,158 117,740
118,634 119,1693 120,1428 121,1534
122,1111 123,1322 124,264 125,105
127,52 128,158 129,317 130,158
131,1005 132,476 133,1322 134,582
135,1269 136,476 137,370 138,105
139,52 141,52 143,264 144,158
145,793 146,317 147,1058 148,582
149,1058 150,211 151,158 152,52
155,52 157,264 158,370 159,1322
160,423 161,1164 162,2380 163,634
164,158 165,264 166,105 167,52
171,211 172,158 173,529 174,687
175,1640 176,740 177,264 178,158
179,105 183,52 185,317 186,105
187,211 188,105 189,423 190,952
191,264 197,105 198,52 199,1322
200,687 201,1746 202,370 203,1111
204,529 205,105 206,52 207,158
213,52 214,158 215,264 216,264
217,5291 218,1957 219,1798 220,529
221,105 225,105 229,105 230,211
231,52 232,2169 233,1111 234,211
240,52 243,476 244,52 247,158
258,1005 259,158 261,211 276,3862
277,793 278,52
##END=
