##TITLE=Hydroquinidine
##JCAMP-DX=4.24
##DATA TYPE=MASS SPECTRUM
##ORIGIN=Japan AIST/NIMC Database- Spectrum MS-NW-8996
##OWNER=NIST Mass Spectrometry Data Center
Collection (C) 2014 copyright by the U.S. Secretary of Commerce
on behalf of the United States of America. All rights reserved.
##CAS REGISTRY NO=1435-55-8
##$NIST MASS SPEC NO=238128
##MOLFORM=C20 H26 N2 O2
##MW=326
##$NIST SOURCE=MSDC
##XUNITS=M/Z
##YUNITS=RELATIVE INTENSITY
##XFACTOR=1
##YFACTOR=1
##FIRSTX=15
##LASTX=329
##FIRSTY=10
##MAXX=329
##MINX=15
##MAXY=9999
##MINY=10
##NPOINTS=254
##PEAK TABLE=(XY..XY)
15,10 27,60 30,169 39,90
40,10 41,809 42,579 43,199
44,259 45,10 51,20 52,10
53,109 54,129 55,2129 56,769
57,129 58,80 63,20 64,10
65,40 66,20 67,309 68,229
69,339 70,529 71,50 72,30
75,10 76,10 77,99 78,30
79,99 80,109 81,189 82,4029
83,859 84,379 85,50 86,20
87,10 88,20 89,70 90,80
91,50 92,20 93,70 94,149
95,399 96,329 97,149 98,50
99,10 100,10 101,50 102,50
103,40 104,10 105,50 106,50
107,40 108,199 109,179 110,3509
111,649 112,119 113,40 114,30
115,90 116,159 117,339 118,60
119,20 120,30 121,40 122,129
123,159 124,349 125,149 126,1159
127,129 128,99 129,90 130,99
131,40 132,30 133,20 134,30
135,20 136,139 137,50 138,9999
139,4879 140,909 141,99 142,70
143,80 144,70 145,239 146,99
147,20 148,20 149,30 150,40
151,109 152,779 153,99 154,179
155,90 156,50 157,60 158,429
159,429 160,1329 161,169 162,20
163,30 165,10 166,109 167,90
168,369 169,139 170,129 171,50
172,769 173,1439 174,679 175,109
176,149 177,20 178,20 179,20
180,20 181,40 182,90 183,109
184,219 185,129 186,479 187,339
188,599 189,2639 190,349 191,40
192,10 193,10 194,30 195,20
196,219 197,99 198,229 199,219
200,279 201,1099 202,359 203,60
204,10 205,10 206,20 207,30
208,20 209,20 210,60 211,99
212,119 213,139 214,339 215,149
216,60 217,70 218,10 219,10
220,30 221,20 222,99 223,30
224,189 225,99 226,119 227,129
228,70 229,90 230,10 234,10
235,10 236,30 237,40 238,50
239,60 240,109 241,99 242,50
243,109 244,20 248,20 249,20
250,20 251,109 252,669 253,179
254,80 255,50 256,20 257,60
258,10 263,10 264,20 265,60
266,40 267,259 268,129 269,689
270,169 271,60 272,10 277,20
278,20 279,149 280,50 281,139
282,60 283,139 284,40 285,529
286,99 287,10 291,10 293,80
294,30 295,129 296,50 297,1749
298,399 299,50 302,10 303,10
304,20 305,20 306,30 307,60
308,149 309,519 310,229 311,1469
312,319 313,40 322,20 323,20
324,159 325,409 326,8109 327,2079
328,289 329,30
##END=
