##TITLE=2,4-Dibromo-1-fluorobenzene
##JCAMP-DX=4.24
##DATA TYPE=MASS SPECTRUM
##ORIGIN=Japan AIST/NIMC Database- Spectrum MS-IW- 582
##OWNER=NIST Mass Spectrometry Data Center
Collection (C) 2014 copyright by the U.S. Secretary of Commerce
on behalf of the United States of America. All rights reserved.
##CAS REGISTRY NO=1435-53-6
##$NIST MASS SPEC NO=238869
##MOLFORM=C6 H3 Br2 F
##MW=252
##$NIST SOURCE=MSDC
##XUNITS=M/Z
##YUNITS=RELATIVE INTENSITY
##XFACTOR=1
##YFACTOR=1
##FIRSTX=14
##LASTX=257
##FIRSTY=60
##MAXX=257
##MINX=14
##MAXY=9999
##MINY=10
##NPOINTS=83
##PEAK TABLE=(XY..XY)
14,60 16,10 25,10 26,10
31,149 36,50 37,239 38,119
39,20 47,239 48,20 49,149
50,819 51,50 55,20 56,80
57,50 60,40 61,299 62,249
63,169 67,20 68,809 69,80
72,30 73,239 74,969 75,359
76,40 77,40 78,10 79,90
80,60 81,90 82,60 86,269
87,279 91,20 92,339 93,1159
94,4559 95,309 104,10 105,10
106,10 115,10 116,40 117,60
118,40 119,20 126,349 127,679
128,389 129,10 130,50 131,10
135,10 137,10 140,10 141,10
142,10 143,10 146,20 147,20
148,30 149,20 152,10 153,99
154,30 155,90 156,10 172,129
173,3709 174,369 175,3619 176,239
251,20 252,5119 253,379 254,9999
255,679 256,4859 257,319
##END=
