##TITLE=Benzene, 2-bromo-1,4-dichloro-
##JCAMP-DX=4.24
##DATA TYPE=MASS SPECTRUM
##ORIGIN=Japan AIST/NIMC Database- Spectrum MS-NW-6106
##OWNER=NIST Mass Spectrometry Data Center
Collection (C) 2014 copyright by the U.S. Secretary of Commerce
on behalf of the United States of America. All rights reserved.
##CAS REGISTRY NO=1435-50-3
##$NIST MASS SPEC NO=231250
##MOLFORM=C6 H3 Br Cl2
##MW=224
##$NIST SOURCE=MSDC
##XUNITS=M/Z
##YUNITS=RELATIVE INTENSITY
##XFACTOR=1
##YFACTOR=1
##FIRSTX=12
##LASTX=231
##FIRSTY=10
##MAXX=231
##MINX=12
##MAXY=9999
##MINY=10
##NPOINTS=116
##PEAK TABLE=(XY..XY)
12,10 14,10 17,10 18,40
24,10 25,30 26,40 27,10
35,60 36,189 37,509 38,209
39,30 44,20 47,80 48,60
49,349 50,799 51,90 54,269
55,309 56,99 59,10 60,109
61,179 62,119 63,60 71,40
72,439 73,729 74,2219 75,1499
76,109 77,60 78,20 79,80
80,40 81,80 82,40 83,40
84,549 85,269 86,199 87,90
91,10 93,20 94,169 95,239
96,70 97,30 98,10 99,20
100,20 101,10 104,10 105,10
106,20 107,30 108,179 109,2139
110,819 111,729 112,539 113,639
114,309 115,50 116,20 117,10
118,50 119,60 120,30 121,30
122,10 123,10 128,50 129,20
130,50 131,20 138,10 140,10
141,10 142,10 143,20 144,99
145,4309 146,369 147,2789 148,199
149,499 150,40 151,20 152,20
153,90 154,30 155,80 156,10
163,10 164,10 165,10 175,10
177,10 188,20 189,179 190,40
191,219 192,20 193,60 223,20
224,6219 225,459 226,9999 227,709
228,4429 229,319 230,639 231,40
##END=
