##TITLE=1,3-Dibromo-5-fluorobenzene
##JCAMP-DX=4.24
##DATA TYPE=MASS SPECTRUM
##ORIGIN=NIST Mass Spectrometry Data Center
##OWNER=NIST Mass Spectrometry Data Center
Collection (C) 2014 copyright by the U.S. Secretary of Commerce
on behalf of the United States of America. All rights reserved.
##CAS REGISTRY NO=1435-51-4
##$NIST MASS SPEC NO=342917
##MOLFORM=C6 H3 Br2 F
##MW=252
##$NIST SOURCE=MSDC
##XUNITS=M/Z
##YUNITS=RELATIVE INTENSITY
##XFACTOR=1
##YFACTOR=1
##FIRSTX=17
##LASTX=257
##FIRSTY=30
##MAXX=257
##MINX=17
##MAXY=9999
##MINY=10
##NPOINTS=59
##PEAK TABLE=(XY..XY)
17,30 18,20 25,60 26,120
31,561 32,10 36,160 37,601
38,350 44,10 47,260 48,80
49,410 50,1501 51,90 55,70
56,240 57,90 60,110 61,671
62,520 63,280 68,1161 69,120
72,90 73,540 74,1571 75,520
76,70 79,430 80,180 81,460
82,90 86,290 87,260 91,60
92,581 93,1371 94,3984 95,270
104,80 106,50 117,60 118,70
126,320 127,581 128,340 130,60
154,40 155,80 173,3243 174,410
175,3213 176,190 252,5035 254,9999
255,761 256,3984 257,290
##END=
