##TITLE=Benzene,1-chloro-3,5-difluoro-
##JCAMP-DX=4.24
##DATA TYPE=MASS SPECTRUM
##ORIGIN=NIST Mass Spectrometry Data Center
##OWNER=NIST Mass Spectrometry Data Center
Collection (C) 2014 copyright by the U.S. Secretary of Commerce
on behalf of the United States of America. All rights reserved.
##CAS REGISTRY NO=1435-43-4
##$NIST MASS SPEC NO=343674
##MOLFORM=C6 H3 Cl F2
##MW=148
##$NIST SOURCE=MSDC
##XUNITS=M/Z
##YUNITS=RELATIVE INTENSITY
##XFACTOR=1
##YFACTOR=1
##FIRSTX=12
##LASTX=151
##FIRSTY=10
##MAXX=151
##MINX=12
##MAXY=9999
##MINY=10
##NPOINTS=80
##PEAK TABLE=(XY..XY)
12,10 18,10 25,20 26,10
31,540 35,50 36,90 37,320
38,190 39,30 44,40 45,10
47,40 48,30 49,130 50,360
51,50 55,40 56,220 57,210
60,90 61,420 62,621 63,1932
64,110 67,40 68,480 69,200
70,10 71,20 72,50 73,170
74,671 75,300 76,10 79,40
80,100 81,310 82,20 84,60
85,10 86,60 87,80 88,100
90,20 91,100 92,230 93,400
94,130 95,10 96,20 97,260
98,50 99,90 100,10 101,20
102,30 103,10 104,40 108,10
109,40 110,20 111,80 112,761
113,3553 114,230 115,40 117,70
119,10 122,40 124,10 127,10
128,60 129,40 130,20 131,10
148,9999 149,681 150,3313 151,210
##END=
