##TITLE=1,4-Dibromo-2-fluorobenzene
##JCAMP-DX=4.24
##DATA TYPE=MASS SPECTRUM
##ORIGIN=NIST Mass Spectrometry Data Center
##OWNER=NIST Mass Spectrometry Data Center
Collection (C) 2014 copyright by the U.S. Secretary of Commerce
on behalf of the United States of America. All rights reserved.
##CAS REGISTRY NO=1435-52-5
##$NIST MASS SPEC NO=343594
##MOLFORM=C6 H3 Br2 F
##MW=252
##$NIST SOURCE=MSDC
##XUNITS=M/Z
##YUNITS=RELATIVE INTENSITY
##XFACTOR=1
##YFACTOR=1
##FIRSTX=12
##LASTX=258
##FIRSTY=10
##MAXX=258
##MINX=12
##MAXY=9999
##MINY=10
##NPOINTS=94
##PEAK TABLE=(XY..XY)
12,10 13,10 18,20 20,10
24,10 25,50 26,50 31,480
32,10 33,20 36,150 37,601
38,370 39,40 44,30 45,10
47,220 48,50 49,280 50,1221
51,60 55,60 56,210 57,70
60,120 61,641 62,470 63,280
67,30 68,1161 69,130 72,70
73,470 74,1571 75,500 76,70
77,30 79,240 80,60 81,220
82,30 86,180 87,190 91,70
92,530 93,1331 94,4224 95,240
104,40 105,10 106,40 115,20
116,40 117,60 118,40 119,20
122,10 124,10 126,220 127,450
128,250 130,50 131,10 135,20
137,20 139,10 140,10 141,40
142,20 143,20 146,10 147,10
148,20 149,20 152,20 153,80
154,20 155,70 156,10 172,150
173,2973 174,310 175,2853 176,200
221,20 235,10 249,10 252,4964
253,470 254,9999 255,711 256,5145
257,280 258,10
##END=
