##TITLE=Propanal, 2-methyl-2-(methylsulfonyl)-, oxime
##JCAMP-DX=4.24
##DATA TYPE=MASS SPECTRUM
##ORIGIN=MASS SPECTROMETRY CENTER, UNIV. OF UTAH EPA-PTSEL 0066
##OWNER=NIST Mass Spectrometry Data Center
Collection (C) 2014 copyright by the U.S. Secretary of Commerce
on behalf of the United States of America. All rights reserved.
##CAS REGISTRY NO=14357-44-9
##$NIST MASS SPEC NO=52723
##MOLFORM=C5 H11 N O3 S
##MW=165
##$NIST SOURCE=MSDC
##XUNITS=M/Z
##YUNITS=RELATIVE INTENSITY
##XFACTOR=1
##YFACTOR=1
##FIRSTX=14
##LASTX=88
##FIRSTY=120
##MAXX=88
##MINX=14
##MAXY=9999
##MINY=10
##NPOINTS=52
##PEAK TABLE=(XY..XY)
14,120 15,2277 16,131 19,10
26,277 27,1719 28,3617 29,1258
30,1136 31,1097 32,70 33,71
34,119 37,145 38,285 39,2622
40,612 41,8115 42,1822 43,1588
44,842 45,441 46,421 47,214
48,316 50,60 51,164 52,290
53,273 54,425 55,395 56,324
57,410 58,352 59,219 63,648
64,434 65,321 66,93 67,122
68,1127 69,1689 70,307 76,22
79,244 80,157 81,281 84,65
85,125 86,9999 87,646 88,11
##END=
