##TITLE=cis-1,2-Cyclohexanediamine
##JCAMP-DX=4.24
##DATA TYPE=MASS SPECTRUM
##ORIGIN=H. SUESS, CIBA-GEIGY AG, MUNCHWILEN, SWITZER
##OWNER=NIST Mass Spectrometry Data Center
Collection (C) 2014 copyright by the U.S. Secretary of Commerce
on behalf of the United States of America. All rights reserved.
##CAS REGISTRY NO=1436-59-5
##$NIST MASS SPEC NO=74155
##MOLFORM=C6 H14 N2
##MW=114
##$NIST SOURCE=MSDC
##XUNITS=M/Z
##YUNITS=RELATIVE INTENSITY
##XFACTOR=1
##YFACTOR=1
##FIRSTX=30
##LASTX=114
##FIRSTY=7200
##MAXX=114
##MINX=30
##MAXY=9999
##MINY=600
##NPOINTS=18
##PEAK TABLE=(XY..XY)
30,7200 41,2500 42,3000 43,9999
44,1600 45,1400 56,9500 57,1000
58,800 59,600 69,6000 70,2500
71,1400 72,700 82,1000 96,700
97,3000 114,2000
##END=
