##TITLE=Heptafluoromethanetriamine
##JCAMP-DX=4.24
##DATA TYPE=MASS SPECTRUM
##ORIGIN=A.Pleshkova, Nesmeyanov Inst.Org.Elem.Cpds, Moscow
##OWNER=NIST Mass Spectrometry Data Center
Collection (C) 2014 copyright by the U.S. Secretary of Commerce
on behalf of the United States of America. All rights reserved.
##CAS REGISTRY NO=14362-68-6
##$NIST MASS SPEC NO=284298
##MOLFORM=C F7 N3
##MW=187
##$NIST SOURCE=MSDC
##XUNITS=M/Z
##YUNITS=RELATIVE INTENSITY
##XFACTOR=1
##YFACTOR=1
##FIRSTX=14
##LASTX=136
##FIRSTY=360
##MAXX=136
##MINX=14
##MAXY=9999
##MINY=10
##NPOINTS=22
##PEAK TABLE=(XY..XY)
14,360 26,240 31,2783 32,30
33,1621 34,10 45,891 46,10
50,430 51,10 52,4034 53,20
64,9999 65,150 69,701 70,10
83,3043 84,50 116,390 117,10
135,1321 136,30
##END=
