##TITLE=Cyclobutanecarbonitrile, 1-phenyl-
##JCAMP-DX=4.24
##DATA TYPE=MASS SPECTRUM
##ORIGIN=MASS SPECTROMETRY CENTER, UNIV. OF UTAH ALDRICH 12571-7
##OWNER=NIST Mass Spectrometry Data Center
Collection (C) 2014 copyright by the U.S. Secretary of Commerce
on behalf of the United States of America. All rights reserved.
##CAS REGISTRY NO=14377-68-5
##$NIST MASS SPEC NO=52732
##MOLFORM=C11 H11 N
##MW=157
##$NIST SOURCE=MSDC
##XUNITS=M/Z
##YUNITS=RELATIVE INTENSITY
##XFACTOR=1
##YFACTOR=1
##FIRSTX=15
##LASTX=158
##FIRSTY=47
##MAXX=158
##MINX=15
##MAXY=9999
##MINY=12
##NPOINTS=55
##PEAK TABLE=(XY..XY)
15,47 16,29 25,108 26,814
27,951 37,96 38,242 39,853
40,114 41,302 49,60 50,814
51,1358 52,537 53,136 61,75
62,266 63,665 64,313 65,244
74,297 75,438 76,607 77,888
78,861 79,17 86,12 87,84
88,146 89,445 90,297 91,254
101,324 102,1373 103,821 104,530
105,71 114,80 115,619 116,812
117,693 118,37 127,288 128,1150
129,9999 130,1469 131,133 140,146
141,28 142,246 153,34 154,27
156,141 157,1540 158,212
##END=
