##TITLE=Cyclohexanone, 3,3,5,5-tetramethyl-
##JCAMP-DX=4.24
##DATA TYPE=MASS SPECTRUM
##ORIGIN=NIST Mass Spectrometry Data Center, 1990.
##OWNER=NIST Mass Spectrometry Data Center
Collection (C) 2014 copyright by the U.S. Secretary of Commerce
on behalf of the United States of America. All rights reserved.
##CAS REGISTRY NO=14376-79-5
##$NIST MASS SPEC NO=114310
##MOLFORM=C10 H18 O
##MW=154
##$NIST SOURCE=MSDC
##XUNITS=M/Z
##YUNITS=RELATIVE INTENSITY
##XFACTOR=1
##YFACTOR=1
##FIRSTX=15
##LASTX=155
##FIRSTY=225
##MAXX=155
##MINX=15
##MAXY=9999
##MINY=33
##NPOINTS=44
##PEAK TABLE=(XY..XY)
15,225 27,1104 28,1050 29,1335
39,1794 40,395 41,3085 42,527
43,558 44,56 50,79 51,166
52,82 53,610 54,56 55,4435
56,2768 57,682 62,33 65,111
66,47 67,259 68,33 69,1201
70,1089 71,65 77,140 79,157
81,187 83,9999 84,543 85,47
91,49 95,50 97,1504 98,435
99,53 111,96 121,35 126,144
139,1217 140,133 154,1168 155,116
##END=
