##TITLE=1-Phenyl-1-heptyne
##JCAMP-DX=4.24
##DATA TYPE=MASS SPECTRUM
##ORIGIN=NIST Mass Spectrometry Data Center, 1990.
##OWNER=NIST Mass Spectrometry Data Center
Collection (C) 2014 copyright by the U.S. Secretary of Commerce
on behalf of the United States of America. All rights reserved.
##CAS REGISTRY NO=14374-45-9
##$NIST MASS SPEC NO=118140
##MOLFORM=C13 H16
##MW=172
##$NIST SOURCE=MSDC
##XUNITS=M/Z
##YUNITS=RELATIVE INTENSITY
##XFACTOR=1
##YFACTOR=1
##FIRSTX=15
##LASTX=173
##FIRSTY=109
##MAXX=173
##MINX=15
##MAXY=9999
##MINY=27
##NPOINTS=85
##PEAK TABLE=(XY..XY)
15,109 26,227 27,1737 28,270
29,2211 30,57 37,59 38,258
39,1818 40,252 41,1681 42,158
43,138 50,578 51,1165 52,292
53,235 54,37 55,319 56,38
57,164 61,107 62,643 63,1925
64,323 65,1289 66,96 67,86
68,68 70,27 73,61 74,464
75,602 76,561 77,945 78,328
79,509 80,108 81,584 82,47
85,58 86,278 87,410 88,474
89,1957 90,243 91,1751 92,170
93,58 94,117 95,51 98,89
99,68 100,57 101,246 102,1899
103,427 104,499 105,115 110,45
113,428 115,9999 116,1632 117,4890
118,523 126,283 127,1317 128,4695
129,4411 130,1967 131,445 132,43
139,120 141,556 142,643 143,4235
144,724 145,61 152,49 153,53
155,62 157,491 158,55 172,1722
173,215
##END=
