##TITLE=Oxirane, (1-methylethyl)-
##JCAMP-DX=4.24
##DATA TYPE=MASS SPECTRUM
##ORIGIN=P.F.DIAMOND SHELL RESEARCH LIMITED THORNTON RESEARCH CENTRE
##OWNER=NIST Mass Spectrometry Data Center
Collection (C) 2014 copyright by the U.S. Secretary of Commerce
on behalf of the United States of America. All rights reserved.
##CAS REGISTRY NO=1438-14-8
##$NIST MASS SPEC NO=594
##MOLFORM=C5 H10 O
##MW=86
##$NIST SOURCE=MSDC
##XUNITS=M/Z
##YUNITS=RELATIVE INTENSITY
##XFACTOR=1
##YFACTOR=1
##FIRSTX=26
##LASTX=86
##FIRSTY=161
##MAXX=86
##MINX=26
##MAXY=9999
##MINY=49
##NPOINTS=27
##PEAK TABLE=(XY..XY)
26,161 27,1260 28,1105 29,826
30,93 31,192 37,105 38,229
39,2049 40,478 41,8322 42,422
43,652 44,86 45,93 50,124
51,124 52,55 53,273 54,186
55,1198 56,9999 57,515 58,55
71,900 85,118 86,49
##END=
