##TITLE=2,3,4-Trifluorobenzonitrile
##JCAMP-DX=4.24
##DATA TYPE=MASS SPECTRUM
##ORIGIN=NIST Mass Spectrometry Data Center, 1994
##OWNER=NIST Mass Spectrometry Data Center
Collection (C) 2014 copyright by the U.S. Secretary of Commerce
on behalf of the United States of America. All rights reserved.
##CAS REGISTRY NO=143879-80-5
##$NIST MASS SPEC NO=136976
##MOLFORM=C7 H2 F3 N
##MW=157
##$NIST SOURCE=MSDC
##XUNITS=M/Z
##YUNITS=RELATIVE INTENSITY
##XFACTOR=1
##YFACTOR=1
##FIRSTX=12
##LASTX=159
##FIRSTY=45
##MAXX=159
##MINX=12
##MAXY=9999
##MINY=3
##NPOINTS=89
##PEAK TABLE=(XY..XY)
12,45 13,16 14,27 17,3
18,12 19,27 20,26 24,19
25,34 26,115 31,2807 32,8
33,18 36,128 37,536 38,273
39,20 43,19 44,70 45,39
48,57 49,120 50,198 51,326
52,27 54,25 55,154 56,487
57,347 58,23 60,82 61,483
62,414 63,211 64,96 65,28
67,34 68,439 69,351 70,41
72,20 73,57 74,240 75,1013
76,194 77,11 78,11 79,354
80,451 81,607 82,326 83,12
86,254 87,572 88,1593 89,115
91,22 92,114 93,425 94,86
95,23 98,47 99,437 100,272
101,16 103,11 105,130 106,1332
107,287 108,19 110,38 111,85
112,510 113,179 117,52 118,61
119,19 124,60 126,385 127,26
130,1391 131,287 132,17 137,362
138,134 139,14 157,9999 158,852
159,29
##END=
