##TITLE=Phosphonic dichloride, ethenyl-
##JCAMP-DX=4.24
##DATA TYPE=MASS SPECTRUM
##ORIGIN=James Little,Eastman Chem.Co.,Kingsport,TN
##OWNER=NIST Mass Spectrometry Data Center
Collection (C) 2014 copyright by the U.S. Secretary of Commerce
on behalf of the United States of America. All rights reserved.
##CAS REGISTRY NO=1438-74-0
##$NIST MASS SPEC NO=289025
##MOLFORM=C2 H3 Cl2 O P
##MW=144
##$NIST SOURCE=MSDC
##XUNITS=M/Z
##YUNITS=RELATIVE INTENSITY
##XFACTOR=1
##YFACTOR=1
##FIRSTX=26
##LASTX=149
##FIRSTY=2082
##MAXX=149
##MINX=26
##MAXY=9999
##MINY=80
##NPOINTS=35
##PEAK TABLE=(XY..XY)
26,2082 27,9258 31,450 35,581
36,500 43,661 44,510 47,7807
48,851 55,340 56,691 57,500
62,3783 64,891 66,621 79,280
80,1361 82,1261 83,3363 84,290
85,1021 101,2042 103,1251 109,7477
111,2422 116,3493 117,1121 118,9999
120,5355 144,3633 145,330 146,2192
147,260 148,360 149,80
##END=
