##TITLE=1-Naphthalenepropanol, .alpha.-ethenyldecahydro-4-hydroxy-.alpha.,5,5,8a-tetramethyl-2-methylene-, [1S-[1.alpha.(R*),4.beta.,4a.beta.,8a.alpha.]]-
##JCAMP-DX=4.24
##DATA TYPE=MASS SPECTRUM
##OWNER=NIST Mass Spectrometry Data Center
Collection (C) 2014 copyright by the U.S. Secretary of Commerce
on behalf of the United States of America. All rights reserved.
##CAS REGISTRY NO=1438-66-0
##$NIST MASS SPEC NO=29393
##MOLFORM=C20 H34 O2
##MW=306
##$NIST SOURCE=MSDC
##XUNITS=M/Z
##YUNITS=RELATIVE INTENSITY
##XFACTOR=1
##YFACTOR=1
##FIRSTX=18
##LASTX=291
##FIRSTY=271
##MAXX=291
##MINX=18
##MAXY=9999
##MINY=17
##NPOINTS=194
##PEAK TABLE=(XY..XY)
18,271 27,475 28,203 29,729
31,119 39,593 40,136 41,3644
42,322 43,3762 44,169 45,136
51,136 52,102 53,1085 54,203
55,4152 56,559 57,1407 58,203
59,508 65,475 66,254 67,2339
68,2373 69,9999 70,847 71,4694
72,949 73,68 75,17 77,1220
78,339 79,2576 80,1932 81,5084
82,1356 83,2508 84,2712 85,2949
86,102 91,2339 92,1271 93,4796
94,2457 95,5559 96,1288 97,2305
98,373 99,237 103,407 104,220
105,2576 106,1119 107,3830 108,1593
109,7626 110,1000 111,1254 112,220
113,153 115,220 116,102 117,712
118,576 119,2644 120,2101 121,3678
122,1424 123,2661 124,1796 125,2407
126,271 127,102 128,136 129,254
130,254 131,1576 132,813 133,2000
134,1102 135,3288 136,1491 137,2017
138,491 139,610 140,85 141,102
142,34 143,288 144,169 145,1220
146,830 147,1373 148,407 149,1288
150,983 151,2423 152,678 153,5321
154,644 155,119 157,339 158,153
159,1271 160,407 161,983 162,542
163,1152 164,864 165,339 166,68
167,68 169,17 171,288 172,119
173,712 174,322 175,1254 176,627
177,1102 178,339 179,339 180,136
181,51 182,119 183,85 185,780
186,305 187,1474 188,678 189,1288
190,1102 191,847 192,339 193,1441
194,593 195,119 199,576 200,390
201,966 202,1220 203,813 204,305
205,780 206,949 207,780 208,136
210,17 213,237 214,271 215,407
216,136 217,644 218,475 219,1068
220,559 221,119 227,542 228,254
229,271 230,271 231,339 232,288
233,136 234,17 235,17 241,237
242,373 243,271 244,237 245,593
246,271 247,119 253,68 254,34
255,2796 256,576 257,102 259,288
260,1186 261,305 262,17 263,136
270,1661 271,407 272,51 273,1966
274,407 275,17 288,1983 289,475
290,68 291,220
##END=
