##TITLE=Disiloxane, pentamethyl-
##JCAMP-DX=4.24
##DATA TYPE=MASS SPECTRUM
##ORIGIN=P. BRUCK, MAGYAR TUDOMANYOS AKADEMIA, HUNGARY
##OWNER=NIST Mass Spectrometry Data Center
Collection (C) 2014 copyright by the U.S. Secretary of Commerce
on behalf of the United States of America. All rights reserved.
##CAS REGISTRY NO=1438-82-0
##$NIST MASS SPEC NO=52168
##MOLFORM=C5 H16 O Si2
##MW=148
##$NIST SOURCE=MSDC
##XUNITS=M/Z
##YUNITS=RELATIVE INTENSITY
##XFACTOR=1
##YFACTOR=1
##FIRSTX=43
##LASTX=149
##FIRSTY=200
##MAXX=149
##MINX=43
##MAXY=9999
##MINY=110
##NPOINTS=18
##PEAK TABLE=(XY..XY)
43,200 45,440 51,270 53,270
59,1000 66,720 73,1100 103,130
117,270 119,1000 120,110 131,140
133,9999 134,1380 135,720 147,1970
148,300 149,160
##END=
