##TITLE=Aziridinone, 1,3-bis(1,1-dimethylethyl)-
##JCAMP-DX=4.24
##DATA TYPE=MASS SPECTRUM
##OWNER=NIST Mass Spectrometry Data Center
Collection (C) 2014 copyright by the U.S. Secretary of Commerce
on behalf of the United States of America. All rights reserved.
##CAS REGISTRY NO=14387-89-4
##$NIST MASS SPEC NO=6551
##MOLFORM=C10 H19 N O
##MW=169
##$NIST SOURCE=MSDC
##XUNITS=M/Z
##YUNITS=RELATIVE INTENSITY
##XFACTOR=1
##YFACTOR=1
##FIRSTX=37
##LASTX=170
##FIRSTY=100
##MAXX=170
##MINX=37
##MAXY=9999
##MINY=10
##NPOINTS=47
##PEAK TABLE=(XY..XY)
37,100 38,200 39,1501 40,300
41,4704 42,1201 43,500 50,50
51,200 52,300 53,300 54,200
55,1201 56,801 57,9999 58,1001
59,50 60,50 66,100 67,200
68,1001 69,601 70,1201 71,200
72,200 73,50 74,100 82,100
83,100 84,500 85,100 86,801
87,100 96,100 97,50 98,100
99,100 112,100 113,30 114,30
126,430 127,70 141,400 142,50
154,10 169,60 170,20
##END=
