##TITLE=Sulfacetamide
##JCAMP-DX=4.24
##DATA TYPE=MASS SPECTRUM
##ORIGIN=Japan AIST/NIMC Database- Spectrum MS-IW-6837
##OWNER=NIST Mass Spectrometry Data Center
Collection (C) 2014 copyright by the U.S. Secretary of Commerce
on behalf of the United States of America. All rights reserved.
##CAS REGISTRY NO=144-80-9
##$NIST MASS SPEC NO=242149
##MOLFORM=C8 H10 N2 O3 S
##MW=214
##$NIST SOURCE=MSDC
##XUNITS=M/Z
##YUNITS=RELATIVE INTENSITY
##XFACTOR=1
##YFACTOR=1
##FIRSTX=15
##LASTX=217
##FIRSTY=319
##MAXX=217
##MINX=15
##MAXY=9999
##MINY=10
##NPOINTS=128
##PEAK TABLE=(XY..XY)
15,319 16,10 17,99 18,129
25,10 26,50 27,239 28,279
29,40 30,30 32,40 33,20
34,80 37,60 38,279 39,1569
40,299 41,819 42,719 43,2439
44,129 45,99 46,159 47,10
48,129 49,20 50,169 51,229
52,539 53,379 54,219 55,20
57,10 58,20 59,40 60,80
61,70 62,229 63,739 64,789
65,5839 66,839 67,70 68,20
69,70 70,40 71,20 73,10
74,70 75,90 76,90 77,139
78,159 79,159 80,809 81,219
82,30 83,10 84,20 85,20
86,10 87,10 88,20 89,40
90,179 91,499 92,9999 93,1279
94,70 95,20 96,50 97,80
98,40 99,10 102,10 103,10
104,149 105,90 106,209 107,559
108,6669 109,9379 110,689 111,40
112,30 118,20 119,10 120,90
121,239 122,40 123,99 124,209
125,539 126,50 127,30 131,20
132,20 134,10 135,10 136,10
139,10 140,419 141,40 142,10
149,10 150,249 151,30 154,129
155,40 156,8139 157,649 158,419
159,30 162,10 168,70 169,10
172,2369 173,809 174,169 175,40
183,10 184,30 198,40 199,10
214,3909 215,469 216,229 217,20
##END=
