##TITLE=Iron, tris(1,3-diphenyl-1,3-propanedionato-O,O')-, (OC-6-11)-
##JCAMP-DX=4.24
##DATA TYPE=MASS SPECTRUM
##OWNER=NIST Mass Spectrometry Data Center
Collection (C) 2014 copyright by the U.S. Secretary of Commerce
on behalf of the United States of America. All rights reserved.
##CAS REGISTRY NO=14405-49-3
##$NIST MASS SPEC NO=18691
##MOLFORM=C45 H33 Fe O6
##MW=725
##$NIST SOURCE=MSDC
##XUNITS=M/Z
##YUNITS=RELATIVE INTENSITY
##XFACTOR=1
##YFACTOR=1
##FIRSTX=44
##LASTX=727
##FIRSTY=190
##MAXX=727
##MINX=44
##MAXY=9999
##MINY=110
##NPOINTS=61
##PEAK TABLE=(XY..XY)
44,190 50,110 51,380 53,110
56,190 65,110 69,751 76,110
77,3213 78,260 89,110 91,110
102,110 103,110 105,5775 106,380
129,110 131,110 132,110 133,1211
134,110 145,110 146,110 147,831
148,110 152,110 157,110 165,110
166,110 167,110 178,110 179,110
201,420 207,110 223,1131 224,981
225,110 234,110 251,190 277,190
278,110 279,2382 280,380 300,260
425,571 426,110 473,230 474,110
498,110 500,601 501,380 502,9999
503,3513 504,681 505,110 603,110
721,110 723,110 725,1702 726,751
727,190
##END=
