##TITLE=Indium tris(acetylacetonate)
##JCAMP-DX=4.24
##DATA TYPE=MASS SPECTRUM
##ORIGIN=Japan AIST/NIMC Database- Spectrum MS-NW-2973
##OWNER=NIST Mass Spectrometry Data Center
Collection (C) 2014 copyright by the U.S. Secretary of Commerce
on behalf of the United States of America. All rights reserved.
##CAS REGISTRY NO=14405-45-9
##$NIST MASS SPEC NO=231211
##MOLFORM=C15 H21 In O6
##MW=412
##$NIST SOURCE=MSDC
##XUNITS=M/Z
##YUNITS=RELATIVE INTENSITY
##XFACTOR=1
##YFACTOR=1
##FIRSTX=12
##LASTX=414
##FIRSTY=20
##MAXX=414
##MINX=12
##MAXY=9999
##MINY=10
##NPOINTS=131
##PEAK TABLE=(XY..XY)
12,20 13,30 14,219 15,839
16,20 24,10 25,30 26,189
27,599 28,249 29,189 30,10
31,139 32,10 36,10 37,80
38,149 39,519 40,129 41,319
42,429 43,5789 44,129 45,30
49,10 50,50 51,50 52,20
53,90 54,20 55,199 56,30
57,40 58,109 61,10 62,10
63,10 65,10 66,10 67,80
68,20 69,159 70,10 71,30
72,109 77,10 79,10 81,20
82,129 83,20 84,70 85,1119
86,50 91,10 95,10 96,10
97,20 98,30 99,80 100,569
101,30 107,10 111,109 112,10
113,439 115,9479 121,10 122,20
123,40 124,10 125,10 133,10
137,10 139,109 140,10 141,40
145,10 149,20 155,40 157,20
158,10 163,20 171,10 173,10
181,10 185,30 197,70 199,1209
200,50 207,30 212,80 213,30
214,1849 215,149 216,10 222,20
224,10 225,70 226,10 227,20
228,60 229,179 230,10 231,579
232,30 238,10 239,20 241,10
252,10 253,30 254,30 255,299
256,30 271,20 273,70 278,10
293,10 295,99 296,10 297,20
310,10 311,469 312,149 313,9999
314,1109 315,139 316,10 410,40
412,759 413,119 414,10
##END=
