##TITLE=2H-1-Benzopyran-2-one, 6-amino-
##JCAMP-DX=4.24
##DATA TYPE=MASS SPECTRUM
##ORIGIN=Japan AIST/NIMC Database- Spectrum MS-IW-5342
##OWNER=NIST Mass Spectrometry Data Center
Collection (C) 2014 copyright by the U.S. Secretary of Commerce
on behalf of the United States of America. All rights reserved.
##CAS REGISTRY NO=14415-44-2
##$NIST MASS SPEC NO=242390
##MOLFORM=C9 H7 N O2
##MW=161
##$NIST SOURCE=MSDC
##XUNITS=M/Z
##YUNITS=RELATIVE INTENSITY
##XFACTOR=1
##YFACTOR=1
##FIRSTX=26
##LASTX=163
##FIRSTY=30
##MAXX=163
##MINX=26
##MAXY=9999
##MINY=10
##NPOINTS=56
##PEAK TABLE=(XY..XY)
26,30 27,50 28,60 37,20
38,60 39,129 40,20 41,50
42,20 43,20 44,20 49,30
50,179 51,479 52,549 53,229
54,99 55,20 57,10 61,30
62,70 63,99 64,30 65,50
66,469 67,50 73,10 74,30
75,50 76,129 77,469 78,809
79,179 80,339 81,50 85,10
86,20 87,20 88,10 89,30
90,10 102,20 103,30 104,1789
105,549 106,229 107,20 116,10
132,269 133,3869 134,349 135,20
160,169 161,9999 162,1019 163,90
##END=
