##TITLE=9-Decenoic acid
##JCAMP-DX=4.24
##DATA TYPE=MASS SPECTRUM
##ORIGIN=NIST Mass Spectrometry Data Center
##OWNER=NIST Mass Spectrometry Data Center
Collection (C) 2014 copyright by the U.S. Secretary of Commerce
on behalf of the United States of America. All rights reserved.
##CAS REGISTRY NO=14436-32-9
##$NIST MASS SPEC NO=333579
##MOLFORM=C10 H18 O2
##MW=170
##$NIST SOURCE=MSDC
##XUNITS=M/Z
##YUNITS=RELATIVE INTENSITY
##XFACTOR=1
##YFACTOR=1
##FIRSTX=15
##LASTX=154
##FIRSTY=20
##MAXX=154
##MINX=15
##MAXY=9999
##MINY=10
##NPOINTS=105
##PEAK TABLE=(XY..XY)
15,20 26,60 27,941 28,300
29,1071 30,30 31,120 37,20
38,80 39,2332 40,370 41,5675
42,1181 43,1792 44,90 45,1651
46,50 47,30 50,70 51,220
52,130 53,1111 54,1672 55,9999
56,1952 57,701 58,230 59,550
60,3093 61,270 62,30 63,40
64,10 65,210 66,140 67,1762
68,3533 69,5715 70,921 71,390
72,60 73,2222 74,230 75,20
77,130 78,60 79,420 80,240
81,1381 82,2242 83,2382 84,2242
85,360 86,140 87,761 88,120
89,20 91,90 92,50 93,180
94,180 95,741 96,1601 97,911
98,571 99,380 100,621 101,480
102,90 103,20 105,70 106,70
107,40 108,771 109,561 110,2682
111,851 112,70 113,230 114,601
115,120 116,20 119,130 120,10
121,10 123,1121 124,440 125,50
126,10 127,260 128,90 129,40
133,20 134,200 135,80 136,10
137,140 138,20 141,90 142,10
143,10 151,50 152,621 153,80
154,10
##END=
