##TITLE=N,N-Dimethyldecanamide
##JCAMP-DX=4.24
##DATA TYPE=MASS SPECTRUM
##ORIGIN=NIST Mass Spectrometry Data Center, 1994
##OWNER=NIST Mass Spectrometry Data Center
Collection (C) 2014 copyright by the U.S. Secretary of Commerce
on behalf of the United States of America. All rights reserved.
##CAS REGISTRY NO=14433-76-2
##$NIST MASS SPEC NO=133455
##MOLFORM=C12 H25 N O
##MW=199
##$NIST SOURCE=MSDC
##XUNITS=M/Z
##YUNITS=RELATIVE INTENSITY
##XFACTOR=1
##YFACTOR=1
##FIRSTX=4
##LASTX=200
##FIRSTY=18
##MAXX=200
##MINX=4
##MAXY=9999
##MINY=8
##NPOINTS=69
##PEAK TABLE=(XY..XY)
4,18 15,228 18,204 27,651
28,360 29,1059 30,168 31,22
39,417 41,1718 42,880 43,1624
44,1656 45,4481 46,976 47,28
51,27 52,16 53,136 54,16
55,1033 56,305 57,533 58,292
59,58 65,25 67,113 68,78
69,244 70,113 71,25 72,3464
73,161 74,35 77,18 79,33
80,10 81,89 82,28 83,101
84,93 85,142 86,10 87,9999
88,442 89,29 95,65 96,8
97,43 98,99 99,8 100,2061
101,386 102,23 112,25 114,398
115,54 128,129 129,44 142,223
143,41 155,32 156,162 157,27
170,72 184,22 198,41 199,239
200,72
##END=
