##TITLE=1-Heptadecanol, TMS derivative
##JCAMP-DX=4.24
##DATA TYPE=MASS SPECTRUM
##ORIGIN=NIST Mass Spectrometry Data Center
##OWNER=NIST Mass Spectrometry Data Center
Collection (C) 2014 copyright by the U.S. Secretary of Commerce
on behalf of the United States of America. All rights reserved.
##CAS REGISTRY NO=144363-02-0
##$NIST MASS SPEC NO=351843
##MOLFORM=C20 H44 O Si
##MW=328
##$NIST SOURCE=MSDC
##XUNITS=M/Z
##YUNITS=RELATIVE INTENSITY
##XFACTOR=1
##YFACTOR=1
##FIRSTX=27
##LASTX=328
##FIRSTY=90
##MAXX=328
##MINX=27
##MAXY=9999
##MINY=10
##NPOINTS=149
##PEAK TABLE=(XY..XY)
27,90 28,20 29,320 30,10
31,10 39,110 41,1051 42,220
43,1702 44,90 45,230 46,10
47,130 48,10 53,70 54,120
55,1301 56,290 57,1491 58,180
59,370 60,60 61,591 62,40
63,20 65,20 66,10 67,290
68,170 69,1151 70,210 71,661
72,140 73,2522 74,270 75,5045
76,370 77,290 78,20 79,50
80,20 81,250 82,210 83,1461
84,180 85,540 86,50 87,160
88,80 89,1161 90,120 91,500
92,50 93,40 94,10 95,190
96,110 97,1441 98,160 99,290
100,50 101,591 103,2232 104,210
105,90 106,10 107,10 109,90
110,40 111,671 112,90 113,150
114,30 115,380 116,50 117,40
118,10 121,10 123,30 124,20
125,210 126,40 127,70 128,10
129,230 130,30 131,60 132,10
137,10 138,10 139,60 140,20
141,30 142,10 143,80 144,10
145,30 151,10 152,10 153,30
154,10 155,10 157,50 158,10
159,20 167,20 168,10 169,10
171,50 172,10 173,10 181,10
182,10 183,10 185,40 186,10
187,10 195,10 199,50 200,10
210,20 211,10 213,50 214,10
215,10 227,60 228,10 229,10
238,30 239,10 241,50 242,10
243,10 255,30 256,10 269,10
285,10 297,90 298,20 299,10
309,10 311,20 313,9999 314,2692
315,701 316,110 317,10 327,10
328,10
##END=
