##TITLE=Chlorfenprop-methyl
##JCAMP-DX=4.24
##DATA TYPE=MASS SPECTRUM
##ORIGIN=NIST Mass Spectrometry Data Center, 1998.
##OWNER=NIST Mass Spectrometry Data Center
Collection (C) 2014 copyright by the U.S. Secretary of Commerce
on behalf of the United States of America. All rights reserved.
##CAS REGISTRY NO=14437-17-3
##$NIST MASS SPEC NO=291790
##MOLFORM=C10 H10 Cl2 O2
##MW=232
##$NIST SOURCE=MSDC
##XUNITS=M/Z
##YUNITS=RELATIVE INTENSITY
##XFACTOR=1
##YFACTOR=1
##FIRSTX=14
##LASTX=236
##FIRSTY=30
##MAXX=236
##MINX=14
##MAXY=9999
##MINY=10
##NPOINTS=156
##PEAK TABLE=(XY..XY)
14,30 15,770 16,10 26,70
27,330 28,40 29,290 30,80
31,70 35,30 36,30 37,80
38,190 39,460 40,40 41,50
42,20 43,40 44,20 45,50
47,30 48,50 49,160 50,1360
51,2180 52,220 53,100 54,40
55,210 56,20 59,1120 60,60
61,250 62,390 63,1040 64,160
65,190 66,10 67,10 68,160
72,40 73,380 74,840 75,2470
76,670 77,1480 78,160 79,60
81,20 83,10 84,90 85,290
86,150 87,220 88,60 89,1520
90,510 91,380 92,40 96,10
97,90 98,140 99,640 100,140
101,2810 102,3030 103,1840 104,160
105,30 107,10 108,20 109,40
110,40 111,470 112,360 113,180
114,120 115,200 116,70 117,90
118,60 119,40 120,10 121,20
123,50 125,9999 126,810 127,3230
128,260 129,20 130,50 131,400
132,40 133,110 134,20 135,40
136,560 137,2950 138,1210 139,1090
140,340 141,90 142,10 143,40
146,20 147,60 148,20 149,10
150,20 151,160 152,40 153,80
154,40 155,280 156,30 157,90
158,10 159,10 161,170 162,50
163,30 164,10 165,8149 166,870
167,2680 168,330 169,40 170,30
171,20 172,190 173,810 174,190
175,520 176,60 177,80 178,130
179,20 180,40 181,200 182,60
183,70 184,20 195,550 196,6639
197,3750 198,2520 199,1180 200,130
201,60 202,10 203,40 232,80
233,10 234,50 235,10 236,10
##END=
