##TITLE=2-n-butyladamantane
##JCAMP-DX=4.24
##DATA TYPE=MASS SPECTRUM
##ORIGIN=V.G.Zaikin, TIPS, Russian Acad. Sci.
##OWNER=NIST Mass Spectrometry Data Center
Collection (C) 2014 copyright by the U.S. Secretary of Commerce
on behalf of the United States of America. All rights reserved.
##CAS REGISTRY NO=14449-43-5
##$NIST MASS SPEC NO=214990
##MOLFORM=C14 H24
##MW=192
##$NIST SOURCE=MSDC
##XUNITS=M/Z
##YUNITS=RELATIVE INTENSITY
##XFACTOR=1
##YFACTOR=1
##FIRSTX=51
##LASTX=194
##FIRSTY=100
##MAXX=194
##MINX=51
##MAXY=9999
##MINY=11
##NPOINTS=40
##PEAK TABLE=(XY..XY)
51,100 53,400 54,100 55,800
56,300 57,1000 65,200 66,100
67,1201 68,200 69,500 70,200
71,600 77,500 78,200 79,1000
80,400 81,800 82,100 83,200
84,100 85,400 91,500 92,300
93,1401 94,200 95,650 97,100
99,100 100,100 105,100 107,500
113,150 135,9999 136,1000 149,300
191,100 192,1351 193,210 194,11
##END=
