##TITLE=2-Butenedioic acid (Z)-, bis(1-methylpropyl) ester
##JCAMP-DX=4.24
##DATA TYPE=MASS SPECTRUM
##ORIGIN=JIM LAWLESS AMES RESEARCH CTR NASA MOFFETT FIELD, CALIF 94035
##OWNER=NIST Mass Spectrometry Data Center
Collection (C) 2014 copyright by the U.S. Secretary of Commerce
on behalf of the United States of America. All rights reserved.
##CAS REGISTRY NO=14447-12-2
##$NIST MASS SPEC NO=47587
##MOLFORM=C12 H20 O4
##MW=228
##$NIST SOURCE=MSDC
##XUNITS=M/Z
##YUNITS=RELATIVE INTENSITY
##XFACTOR=1
##YFACTOR=1
##FIRSTX=40
##LASTX=199
##FIRSTY=273
##MAXX=199
##MINX=40
##MAXY=9999
##MINY=6
##NPOINTS=93
##PEAK TABLE=(XY..XY)
40,273 41,4367 42,408 43,1648
44,872 45,1590 46,35 47,130
48,20 49,363 50,54 51,175
52,17 53,920 54,2325 55,4733
56,5485 57,4354 58,445 59,253
60,22 63,189 64,6 65,30
67,12 68,30 69,297 70,29
71,452 72,367 73,1542 74,89
75,48 77,9 79,22 81,1398
82,2156 83,324 84,282 85,59
86,138 87,161 88,193 89,72
93,20 95,10 97,81 98,74
99,8657 100,3992 101,601 102,81
103,50 106,15 107,112 108,39
109,164 110,35 111,118 112,48
113,37 114,10 115,80 116,64
117,6174 118,357 119,61 126,137
127,579 128,439 129,306 130,60
133,12 136,28 139,16 141,251
142,14 143,178 144,13 149,69
153,7 154,305 155,9999 156,1631
157,178 158,7 171,12 172,51
173,1728 174,115 175,24 185,27
199,35
##END=
