##TITLE=1-(2-Propenyl)piperidine
##JCAMP-DX=4.24
##DATA TYPE=MASS SPECTRUM
##ORIGIN=NIST Mass Spectrometry Data Center
##OWNER=NIST Mass Spectrometry Data Center
Collection (C) 2014 copyright by the U.S. Secretary of Commerce
on behalf of the United States of America. All rights reserved.
##CAS REGISTRY NO=14446-67-4
##$NIST MASS SPEC NO=343476
##MOLFORM=C8 H15 N
##MW=125
##$NIST SOURCE=MSDC
##XUNITS=M/Z
##YUNITS=RELATIVE INTENSITY
##XFACTOR=1
##YFACTOR=1
##FIRSTX=12
##LASTX=127
##FIRSTY=20
##MAXX=127
##MINX=12
##MAXY=9999
##MINY=10
##NPOINTS=76
##PEAK TABLE=(XY..XY)
12,20 14,90 15,911 16,10
17,10 18,80 26,510 27,2552
28,2772 29,1281 32,10 33,10
36,10 37,120 38,360 39,4674
40,851 41,8287 42,5995 43,881
44,641 45,20 46,10 47,20
49,10 50,80 51,180 52,160
53,490 54,1261 55,3473 56,1131
57,270 58,70 59,10 62,10
63,30 64,20 65,110 66,70
67,561 68,2042 69,1211 70,991
71,80 77,30 78,30 79,80
80,330 81,230 82,2712 83,1511
84,1581 85,70 91,30 92,20
93,30 94,270 96,1712 98,9999
99,691 100,20 105,10 106,30
107,10 108,70 110,3183 111,270
112,10 120,40 121,10 122,160
124,7297 125,4244 126,370 127,10
##END=
