##TITLE=Cyclohexanol, 2-phenyl-
##JCAMP-DX=4.24
##DATA TYPE=MASS SPECTRUM
##ORIGIN=NIST Mass Spectrometry Data Center, 1990.
##OWNER=NIST Mass Spectrometry Data Center
Collection (C) 2014 copyright by the U.S. Secretary of Commerce
on behalf of the United States of America. All rights reserved.
##CAS REGISTRY NO=1444-64-0
##$NIST MASS SPEC NO=114808
##MOLFORM=C12 H16 O
##MW=176
##$NIST SOURCE=MSDC
##XUNITS=M/Z
##YUNITS=RELATIVE INTENSITY
##XFACTOR=1
##YFACTOR=1
##FIRSTX=27
##LASTX=177
##FIRSTY=643
##MAXX=177
##MINX=27
##MAXY=9999
##MINY=114
##NPOINTS=73
##PEAK TABLE=(XY..XY)
27,643 29,584 31,296 38,174
39,1333 40,251 41,1087 42,200
43,576 44,636 50,530 51,1483
52,410 53,391 54,114 55,431
57,1591 62,238 63,787 64,296
65,1704 66,485 67,1366 69,143
70,295 71,702 74,220 75,261
76,454 77,2329 78,1984 79,1063
80,546 83,199 84,259 85,705
89,648 91,9999 92,3656 93,302
98,1458 99,140 102,521 103,1415
104,4361 105,1662 106,144 107,139
115,2833 116,733 117,3597 118,467
119,155 120,307 127,429 128,1151
129,3463 130,4481 131,749 132,816
133,520 141,195 142,170 143,1570
144,219 152,175 153,190 154,321
157,258 158,1930 159,215 176,4221
177,560
##END=
