##TITLE=1-sec-Butyladamantane
##JCAMP-DX=4.24
##DATA TYPE=MASS SPECTRUM
##ORIGIN=V.G.Zaikin, TIPS, Russian Acad. Sci.
##OWNER=NIST Mass Spectrometry Data Center
Collection (C) 2014 copyright by the U.S. Secretary of Commerce
on behalf of the United States of America. All rights reserved.
##CAS REGISTRY NO=14449-42-4
##$NIST MASS SPEC NO=214985
##MOLFORM=C14 H24
##MW=192
##$NIST SOURCE=MSDC
##XUNITS=M/Z
##YUNITS=RELATIVE INTENSITY
##XFACTOR=1
##YFACTOR=1
##FIRSTX=53
##LASTX=193
##FIRSTY=200
##MAXX=193
##MINX=53
##MAXY=9999
##MINY=40
##NPOINTS=22
##PEAK TABLE=(XY..XY)
53,200 55,400 57,200 65,200
67,600 69,200 77,350 78,200
79,1101 80,150 81,400 91,350
92,200 93,1101 94,200 95,150
105,150 107,500 135,9999 136,1101
192,250 193,40
##END=
