##TITLE=Thiophene, 2,5-diphenyl-
##JCAMP-DX=4.24
##DATA TYPE=MASS SPECTRUM
##OWNER=NIST Mass Spectrometry Data Center
Collection (C) 2014 copyright by the U.S. Secretary of Commerce
on behalf of the United States of America. All rights reserved.
##CAS REGISTRY NO=1445-78-9
##$NIST MASS SPEC NO=11343
##MOLFORM=C16 H12 S
##MW=236
##$NIST SOURCE=MSDC
##XUNITS=M/Z
##YUNITS=RELATIVE INTENSITY
##XFACTOR=1
##YFACTOR=1
##FIRSTX=39
##LASTX=238
##FIRSTY=1301
##MAXX=238
##MINX=39
##MAXY=9999
##MINY=200
##NPOINTS=23
##PEAK TABLE=(XY..XY)
39,1301 45,901 50,801 51,1301
63,1001 69,300 77,601 89,300
115,801 118,801 121,1702 135,601
165,300 189,300 191,400 202,901
203,300 221,200 234,901 235,500
236,9999 237,2002 238,601
##END=
