##TITLE=Tricyclo[3.3.1.1<3,7>]decane, 2-ethyl-
##JCAMP-DX=4.24
##DATA TYPE=MASS SPECTRUM
##ORIGIN=Vladimir Zaikin,TIPS RAS, Moscow, Russia
##OWNER=NIST Mass Spectrometry Data Center
Collection (C) 2014 copyright by the U.S. Secretary of Commerce
on behalf of the United States of America. All rights reserved.
##CAS REGISTRY NO=14451-87-7
##$NIST MASS SPEC NO=245641
##MOLFORM=C12 H20
##MW=164
##$NIST SOURCE=MSDC
##XUNITS=M/Z
##YUNITS=RELATIVE INTENSITY
##XFACTOR=1
##YFACTOR=1
##FIRSTX=51
##LASTX=165
##FIRSTY=300
##MAXX=165
##MINX=51
##MAXY=9999
##MINY=100
##NPOINTS=34
##PEAK TABLE=(XY..XY)
51,300 52,200 53,800 54,300
55,1000 57,200 65,500 66,300
67,2402 68,400 69,300 70,100
77,1101 78,400 79,2602 80,800
81,1501 90,100 91,1000 92,300
93,2201 94,700 95,800 105,200
107,1000 108,400 110,100 121,1601
122,150 135,9999 136,2552 137,200
164,2802 165,400
##END=
