##TITLE=2-n-Propyladamantane
##JCAMP-DX=4.24
##DATA TYPE=MASS SPECTRUM
##ORIGIN=V.G.Zaikin, TIPS, Russian Acad. Sci.
##OWNER=NIST Mass Spectrometry Data Center
Collection (C) 2014 copyright by the U.S. Secretary of Commerce
on behalf of the United States of America. All rights reserved.
##CAS REGISTRY NO=14451-88-8
##$NIST MASS SPEC NO=214981
##MOLFORM=C13 H22
##MW=178
##$NIST SOURCE=MSDC
##XUNITS=M/Z
##YUNITS=RELATIVE INTENSITY
##XFACTOR=1
##YFACTOR=1
##FIRSTX=51
##LASTX=180
##FIRSTY=200
##MAXX=180
##MINX=51
##MAXY=9999
##MINY=11
##NPOINTS=30
##PEAK TABLE=(XY..XY)
51,200 53,400 54,150 55,700
57,300 65,300 66,150 67,1351
68,200 69,300 70,700 77,650
78,200 79,1701 80,400 81,700
82,300 91,600 92,250 93,1501
94,200 95,200 105,150 107,600
135,9999 136,1401 137,100 178,1401
179,200 180,11
##END=
