##TITLE=Cyclopropanecarboxylic acid, 2,2-dichloro-1-methyl-, methyl ester
##JCAMP-DX=4.24
##DATA TYPE=MASS SPECTRUM
##ORIGIN=D.HENNEBERG, MAX-PLANCK INSTITUTE, MULHEIM, WEST GERMANY
##OWNER=NIST Mass Spectrometry Data Center
Collection (C) 2014 copyright by the U.S. Secretary of Commerce
on behalf of the United States of America. All rights reserved.
##CAS REGISTRY NO=1447-13-8
##$NIST MASS SPEC NO=62547
##MOLFORM=C6 H8 Cl2 O2
##MW=182
##$NIST SOURCE=MSDC
##XUNITS=M/Z
##YUNITS=RELATIVE INTENSITY
##XFACTOR=1
##YFACTOR=1
##FIRSTX=24
##LASTX=187
##FIRSTY=19
##MAXX=187
##MINX=24
##MAXY=9999
##MINY=2
##NPOINTS=151
##PEAK TABLE=(XY..XY)
24,19 26,1455 27,5685 28,2834
29,1134 30,348 31,352 32,42
33,63 34,11 35,267 36,1266
37,463 38,684 39,2367 40,352
41,3834 42,306 43,1803 44,287
45,447 46,13 47,568 48,214
49,868 50,1426 51,6862 52,1044
53,3886 54,724 55,2297 56,404
57,166 58,60 59,9999 60,466
61,1907 62,456 63,1305 64,146
65,305 66,48 67,375 68,107
69,7663 70,397 71,71 72,146
73,531 74,69 75,916 76,76
77,286 78,42 79,197 80,61
81,316 82,327 83,1695 84,280
85,1329 86,208 87,9984 88,1201
89,3298 90,431 91,140 92,89
93,47 94,38 95,90 96,859
97,246 98,547 99,175 100,179
101,87 102,103 103,2794 104,187
105,924 106,53 107,129 108,23
109,211 110,28 111,315 112,82
113,329 114,11 115,280 116,109
117,336 118,293 119,5321 120,407
121,1839 122,763 123,7803 124,745
125,4958 126,695 127,838 128,286
129,40 130,62 131,1102 132,126
133,388 134,29 135,10 137,30
138,7 139,358 140,28 141,224
142,47 143,51 144,11 145,23
146,666 147,4044 148,515 149,1325
150,1235 151,4061 152,966 153,2525
154,289 155,432 156,52 157,7
164,8 166,14 167,294 168,26
169,215 170,19 171,36 176,2
177,230 178,14 179,297 180,18
181,156 182,1709 183,174 184,1050
185,94 186,157 187,14
##END=
