##TITLE=Propane, 1,2,2-tribromo-
##JCAMP-DX=4.24
##DATA TYPE=MASS SPECTRUM
##ORIGIN=RADIAN CORP
##OWNER=NIST Mass Spectrometry Data Center
Collection (C) 2014 copyright by the U.S. Secretary of Commerce
on behalf of the United States of America. All rights reserved.
##CAS REGISTRY NO=14476-30-3
##$NIST MASS SPEC NO=73703
##MOLFORM=C3 H5 Br3
##MW=278
##$NIST SOURCE=MSDC
##XUNITS=M/Z
##YUNITS=RELATIVE INTENSITY
##XFACTOR=1
##YFACTOR=1
##FIRSTX=12
##LASTX=282
##FIRSTY=20
##MAXX=282
##MINX=12
##MAXY=9999
##MINY=10
##NPOINTS=62
##PEAK TABLE=(XY..XY)
12,20 13,40 14,40 15,130
24,30 25,130 26,310 27,240
36,170 37,850 38,1450 39,5980
40,450 41,1720 42,70 43,20
79,2330 80,600 81,2300 82,550
83,30 91,120 92,80 93,870
94,100 95,740 103,10 104,100
105,330 106,130 107,320 108,30
116,20 117,140 119,3310 120,380
121,3150 122,310 158,220 160,440
161,10 162,220 171,100 173,210
175,100 183,20 184,50 185,150
186,90 187,220 188,40 189,90
199,5240 200,20 201,9999 202,30
203,4860 204,30 265,20 267,20
280,30 282,30
##END=
