##TITLE=Myristin, 2,3-diaceto-1-
##JCAMP-DX=4.24
##DATA TYPE=MASS SPECTRUM
##OWNER=NIST Mass Spectrometry Data Center
Collection (C) 2014 copyright by the U.S. Secretary of Commerce
on behalf of the United States of America. All rights reserved.
##CAS REGISTRY NO=14473-55-3
##$NIST MASS SPEC NO=16727
##MOLFORM=C21 H38 O6
##MW=386
##$NIST SOURCE=MSDC
##XUNITS=M/Z
##YUNITS=RELATIVE INTENSITY
##XFACTOR=1
##YFACTOR=1
##FIRSTX=27
##LASTX=327
##FIRSTY=500
##MAXX=327
##MINX=27
##MAXY=9999
##MINY=100
##NPOINTS=101
##PEAK TABLE=(XY..XY)
27,500 28,200 29,1101 31,100
39,400 40,100 41,2402 42,701
43,9999 44,300 45,601 53,200
54,300 55,2402 56,701 57,2803
58,200 59,100 60,100 61,300
65,100 67,500 68,300 69,1401
70,500 71,1601 72,100 73,1001
74,200 75,100 77,100 79,200
80,100 81,500 82,300 83,901
84,2202 85,1001 86,200 87,100
93,100 94,100 95,601 96,200
97,801 98,3203 99,701 100,100
101,100 103,200 107,100 108,100
109,400 110,100 111,601 112,1201
113,200 115,901 116,801 117,1201
118,100 121,100 123,200 124,100
125,200 126,300 127,100 129,100
135,100 137,100 138,100 139,100
140,100 145,100 149,200 153,100
154,100 158,2502 159,5005 160,400
161,100 166,100 167,100 168,100
171,701 172,100 177,601 178,100
185,100 210,300 211,4304 212,701
213,100 218,200 227,200 242,100
283,100 313,200 314,100 326,200
327,100
##END=
