##TITLE=Stigmast-7-en-3-ol, acetate, (3.beta.,5.alpha.)-
##JCAMP-DX=4.24
##DATA TYPE=MASS SPECTRUM
##ORIGIN=T.MATSUNO KYOTO COLLEGE OF PHARMACY, KYOTO, JAPAN
##OWNER=NIST Mass Spectrometry Data Center
Collection (C) 2014 copyright by the U.S. Secretary of Commerce
on behalf of the United States of America. All rights reserved.
##CAS REGISTRY NO=14473-77-9
##$NIST MASS SPEC NO=26341
##MOLFORM=C31 H52 O2
##MW=456
##$NIST SOURCE=MSDC
##XUNITS=M/Z
##YUNITS=RELATIVE INTENSITY
##XFACTOR=1
##YFACTOR=1
##FIRSTX=29
##LASTX=458
##FIRSTY=650
##MAXX=458
##MINX=29
##MAXY=9999
##MINY=500
##NPOINTS=77
##PEAK TABLE=(XY..XY)
29,650 41,1970 43,5000 53,3510
55,3510 57,2860 58,2080 67,1450
69,2160 71,1390 79,1820 81,4550
82,850 83,1600 85,1190 91,2320
92,530 93,2450 94,820 95,3690
96,520 97,1040 105,3110 106,910
107,3450 108,840 109,1730 111,810
117,910 118,500 119,2440 120,1060
121,1720 122,910 123,1260 131,1480
132,570 133,2450 134,1310 135,1540
136,700 137,680 143,760 145,1960
146,600 147,2470 148,630 149,870
157,700 159,1390 160,610 161,1750
171,620 173,950 185,550 187,620
199,670 201,900 213,4260 214,950
215,760 228,1180 229,3430 230,730
255,9020 256,1970 273,1450 274,620
288,1200 315,1530 381,1130 396,670
441,2080 442,870 456,9999 457,3490
458,670
##END=
