##TITLE=4-Undecanone
##JCAMP-DX=4.24
##DATA TYPE=MASS SPECTRUM
##ORIGIN=Japan AIST/NIMC Database- Spectrum MS-IW-2921
##OWNER=NIST Mass Spectrometry Data Center
Collection (C) 2014 copyright by the U.S. Secretary of Commerce
on behalf of the United States of America. All rights reserved.
##CAS REGISTRY NO=14476-37-0
##$NIST MASS SPEC NO=227683
##MOLFORM=C11 H22 O
##MW=170
##$NIST SOURCE=MSDC
##XUNITS=M/Z
##YUNITS=RELATIVE INTENSITY
##XFACTOR=1
##YFACTOR=1
##FIRSTX=15
##LASTX=172
##FIRSTY=60
##MAXX=172
##MINX=15
##MAXY=9999
##MINY=10
##NPOINTS=86
##PEAK TABLE=(XY..XY)
15,60 26,70 27,1629 28,269
29,1469 30,30 31,50 38,30
39,909 40,179 41,3619 42,879
43,8669 44,319 45,119 50,20
51,50 52,20 53,219 54,99
55,1579 56,269 57,9999 58,8109
59,409 60,60 63,10 65,50
66,20 67,489 68,90 69,269
70,309 71,9259 72,499 73,60
77,40 78,10 79,50 80,20
81,159 82,309 83,259 84,159
85,119 86,6979 87,1729 88,99
91,30 93,20 94,10 95,80
96,50 97,50 98,90 99,2079
100,199 101,20 105,10 107,20
108,10 109,759 110,99 111,20
113,249 114,129 115,10 121,20
122,10 123,20 124,20 125,20
126,30 127,7129 128,899 129,70
135,20 141,99 142,50 152,30
155,70 156,10 169,10 170,1159
171,169 172,10
##END=
