##TITLE=Cyanoacetylurea
##JCAMP-DX=4.24
##DATA TYPE=MASS SPECTRUM
##ORIGIN=Japan AIST/NIMC Database- Spectrum MS-NW-8006
##OWNER=NIST Mass Spectrometry Data Center
Collection (C) 2014 copyright by the U.S. Secretary of Commerce
on behalf of the United States of America. All rights reserved.
##CAS REGISTRY NO=1448-98-2
##$NIST MASS SPEC NO=236757
##MOLFORM=C4 H5 N3 O2
##MW=127
##$NIST SOURCE=MSDC
##XUNITS=M/Z
##YUNITS=RELATIVE INTENSITY
##XFACTOR=1
##YFACTOR=1
##FIRSTX=12
##LASTX=128
##FIRSTY=50
##MAXX=128
##MINX=12
##MAXY=9999
##MINY=10
##NPOINTS=49
##PEAK TABLE=(XY..XY)
12,50 13,90 14,149 15,70
16,499 17,529 18,229 24,10
25,30 26,50 27,129 28,439
29,189 30,50 31,80 32,10
38,209 39,459 40,1629 41,3299
42,429 43,719 44,9999 45,149
46,20 51,10 52,10 53,40
54,20 55,30 56,60 58,10
59,40 60,99 61,20 66,30
67,199 68,769 69,50 70,169
84,2079 85,119 86,10 87,369
88,10 100,20 102,10 127,379
128,50
##END=
