##TITLE=2-Amino-3-fluorobenzotrifluoride
##JCAMP-DX=4.24
##DATA TYPE=MASS SPECTRUM
##ORIGIN=NIST Mass Spectrometry Data Center, 1994
##OWNER=NIST Mass Spectrometry Data Center
Collection (C) 2014 copyright by the U.S. Secretary of Commerce
on behalf of the United States of America. All rights reserved.
##CAS REGISTRY NO=144851-61-6
##$NIST MASS SPEC NO=136498
##MOLFORM=C7 H5 F4 N
##MW=179
##$NIST SOURCE=MSDC
##XUNITS=M/Z
##YUNITS=RELATIVE INTENSITY
##XFACTOR=1
##YFACTOR=1
##FIRSTX=16
##LASTX=181
##FIRSTY=67
##MAXX=181
##MINX=16
##MAXY=9999
##MINY=13
##NPOINTS=104
##PEAK TABLE=(XY..XY)
16,67 25,43 26,118 27,13
28,823 31,1133 32,60 33,179
36,35 37,461 38,690 39,537
40,101 41,158 44,149 45,53
46,219 49,130 50,666 51,619
52,938 53,111 55,270 56,539
57,1339 58,162 59,31 60,88
61,449 62,654 63,1931 64,422
65,234 66,317 67,41 68,330
69,1182 70,522 71,71 72,92
73,57 74,113 75,964 76,237
77,55 78,47 79,41 80,954
81,1244 82,810 83,723 84,100
85,41 86,48 87,221 88,580
89,409 90,442 91,63 92,77
93,213 94,1844 95,295 96,133
99,344 100,235 101,980 102,148
105,42 106,253 107,74 108,417
109,810 110,99 111,86 112,350
113,519 114,351 115,43 119,49
120,489 121,49 126,39 128,153
129,122 130,85 131,39 132,8499
133,612 134,24 138,326 139,828
140,956 141,75 143,57 150,71
151,449 157,88 159,9999 160,2946
161,194 179,7794 180,616 181,33
##END=
