##TITLE=Ferbam
##JCAMP-DX=4.24
##DATA TYPE=MASS SPECTRUM
##OWNER=NIST Mass Spectrometry Data Center
Collection (C) 2014 copyright by the U.S. Secretary of Commerce
on behalf of the United States of America. All rights reserved.
##CAS REGISTRY NO=14484-64-1
##$NIST MASS SPEC NO=17287
##MOLFORM=C9 H18 Fe N3 S6
##MW=416
##$NIST SOURCE=MSDC
##XUNITS=M/Z
##YUNITS=RELATIVE INTENSITY
##XFACTOR=1
##YFACTOR=1
##FIRSTX=15
##LASTX=416
##FIRSTY=800
##MAXX=416
##MINX=15
##MAXY=9999
##MINY=200
##NPOINTS=39
##PEAK TABLE=(XY..XY)
15,800 27,300 29,500 30,500
31,200 38,200 39,200 40,400
41,1100 42,2000 43,3100 44,3400
45,1000 55,800 56,700 57,1000
58,2600 59,200 60,200 64,1300
69,500 70,300 71,600 72,900
73,1400 76,1000 77,600 81,300
83,400 85,500 88,9999 89,700
90,500 120,1100 121,800 175,1000
235,800 296,2600 416,400
##END=
