##TITLE=4-Methyl-2,6,7-trioxa-1-phosphabicyclo[2.2.2]octane
##JCAMP-DX=4.24
##DATA TYPE=MASS SPECTRUM
##ORIGIN=VERIFIN - Methodology B1-1979
##OWNER=NIST Mass Spectrometry Data Center
Collection (C) 2014 copyright by the U.S. Secretary of Commerce
on behalf of the United States of America. All rights reserved.
##CAS REGISTRY NO=1449-91-8
##$NIST MASS SPEC NO=226165
##MOLFORM=C5 H9 O3 P
##MW=148
##$NIST SOURCE=MSDC
##XUNITS=M/Z
##YUNITS=RELATIVE INTENSITY
##XFACTOR=1
##YFACTOR=1
##FIRSTX=27
##LASTX=149
##FIRSTY=400
##MAXX=149
##MINX=27
##MAXY=9999
##MINY=90
##NPOINTS=27
##PEAK TABLE=(XY..XY)
27,400 28,300 29,700 39,1401
40,100 41,700 42,100 43,300
47,1301 48,100 53,800 54,2802
55,6906 56,300 69,300 71,2201
72,100 77,200 84,90 100,900
103,400 109,1901 117,700 118,9999
119,500 148,3703 149,200
##END=
