##TITLE=Benzene, 1-bromo-4-chloro-2-methyl-
##JCAMP-DX=4.24
##DATA TYPE=MASS SPECTRUM
##ORIGIN=Chuck Anderson, Aldrich Chemical Co.
##OWNER=NIST Mass Spectrometry Data Center
Collection (C) 2014 copyright by the U.S. Secretary of Commerce
on behalf of the United States of America. All rights reserved.
##CAS REGISTRY NO=14495-51-3
##$NIST MASS SPEC NO=107531
##MOLFORM=C7 H6 Br Cl
##MW=204
##$NIST SOURCE=MSDC
##XUNITS=M/Z
##YUNITS=RELATIVE INTENSITY
##XFACTOR=1
##YFACTOR=1
##FIRSTX=25
##LASTX=209
##FIRSTY=20
##MAXX=209
##MINX=25
##MAXY=9999
##MINY=6
##NPOINTS=95
##PEAK TABLE=(XY..XY)
25,20 26,115 27,154 31,6
35,24 36,69 37,526 38,758
39,1748 40,131 41,26 43,463
44,1172 47,31 48,32 49,254
50,723 51,568 52,65 60,117
61,610 62,1474 63,2752 64,393
65,131 71,8 72,66 73,674
74,491 75,491 76,39 79,54
80,25 81,66 82,27 83,45
84,758 85,954 86,674 87,596
88,229 89,7527 90,1853 91,124
93,18 95,17 96,37 97,247
98,38 99,1018 100,54 101,317
102,152 103,187 104,59 105,8
106,13 107,6 108,13 109,29
110,46 116,19 117,114 118,21
119,115 121,6 122,6 123,331
124,1067 125,9999 126,1018 127,3145
128,259 129,35 130,24 131,14
143,81 145,27 151,11 153,22
167,9 168,6 169,2106 170,128
171,1966 172,129 177,19 179,24
203,191 204,4859 205,540 206,6179
207,484 208,1572 209,99
##END=
