##TITLE=Ergosta-7,22-dien-3-ol, acetate, (3.beta.,5.alpha.)-
##JCAMP-DX=4.24
##DATA TYPE=MASS SPECTRUM
##ORIGIN=LAC, NIDDK, NIH, Bethesda, MD 20892
##OWNER=NIST Mass Spectrometry Data Center
Collection (C) 2014 copyright by the U.S. Secretary of Commerce
on behalf of the United States of America. All rights reserved.
##CAS REGISTRY NO=1449-60-1
##$NIST MASS SPEC NO=253030
##MOLFORM=C30 H48 O2
##MW=440
##$NIST SOURCE=MSDC
##XUNITS=M/Z
##YUNITS=RELATIVE INTENSITY
##XFACTOR=1
##YFACTOR=1
##FIRSTX=41
##LASTX=443
##FIRSTY=2156
##MAXX=443
##MINX=41
##MAXY=9999
##MINY=5
##NPOINTS=169
##PEAK TABLE=(XY..XY)
41,2156 43,9999 44,193 45,5
51,9 53,313 55,3746 57,869
58,14 61,76 65,141 67,1526
69,2346 70,270 71,222 72,6
77,375 79,1047 81,2364 82,409
83,642 85,90 91,1008 93,1224
94,424 95,1207 96,68 97,191
98,7 99,6 103,78 105,1275
107,1388 108,113 109,627 110,29
111,57 113,6 115,109 117,438
119,631 120,75 121,453 122,78
123,236 125,414 126,16 128,81
129,168 131,461 133,659 134,67
135,391 137,170 141,54 142,31
143,241 145,674 147,823 148,74
149,146 150,53 151,43 152,53
153,9 155,77 157,233 159,384
160,25 161,370 162,50 163,41
164,69 165,19 167,19 169,55
171,128 173,235 174,52 175,145
176,27 177,16 183,48 185,154
186,16 187,197 188,15 189,57
197,73 199,151 200,13 201,137
202,18 203,35 211,67 213,342
214,56 215,106 216,14 217,7
225,40 227,167 228,178 229,339
230,51 231,5 239,60 240,8
241,150 242,16 243,36 245,7
253,122 255,854 256,164 257,34
259,18 260,7 261,20 267,26
269,8 271,16 273,120 274,31
275,18 281,22 282,8 283,36
285,21 286,16 287,12 288,291
289,50 295,7 299,97 300,51
301,19 309,20 312,19 313,996
314,283 315,275 316,58 327,58
328,38 337,71 338,16 341,57
342,204 343,47 355,6 356,7
365,79 366,19 369,14 379,12
380,47 381,93 382,24 397,73
398,23 425,116 426,39 427,6
439,24 440,502 441,143 442,49
443,5
##END=
