##TITLE=Stannane, tetracyclohexyl-
##JCAMP-DX=4.24
##DATA TYPE=MASS SPECTRUM
##ORIGIN=M.GEILEN UNIVERSITE LIBRE DE BRUXELLES, BELGIUM
##OWNER=NIST Mass Spectrometry Data Center
Collection (C) 2014 copyright by the U.S. Secretary of Commerce
on behalf of the United States of America. All rights reserved.
##CAS REGISTRY NO=1449-55-4
##$NIST MASS SPEC NO=17715
##MOLFORM=C24 H44 Sn
##MW=452
##$NIST SOURCE=MSDC
##XUNITS=M/Z
##YUNITS=RELATIVE INTENSITY
##XFACTOR=1
##YFACTOR=1
##FIRSTX=27
##LASTX=456
##FIRSTY=120
##MAXX=456
##MINX=27
##MAXY=9999
##MINY=20
##NPOINTS=126
##PEAK TABLE=(XY..XY)
27,120 28,90 29,250 39,250
40,40 41,1460 42,120 43,210
53,210 54,210 55,3150 56,210
57,120 67,330 68,40 69,40
71,40 77,120 78,40 79,330
80,40 81,7500 82,710 83,2050
84,170 85,40 93,20 94,20
95,80 96,40 97,80 98,20
99,120 109,40 111,40 112,40
113,80 114,40 115,80 116,710
117,1750 118,1960 119,2950 120,2550
121,3300 122,290 123,620 124,250
125,580 127,40 131,40 132,20
133,40 134,20 135,40 144,20
145,20 146,40 147,20 148,80
150,40 151,20 157,20 158,20
159,40 160,20 161,40 171,20
172,20 173,40 174,20 175,80
177,40 179,20 195,80 196,40
197,420 198,210 199,840 200,670
201,5300 202,3400 203,8300 204,3200
205,9999 206,710 207,1670 208,120
209,1830 210,120 279,290 280,40
281,210 282,120 283,4050 284,2500
285,6700 286,3300 287,9000 288,1170
289,1330 290,170 291,1580 292,210
361,250 362,40 363,170 364,120
365,3100 366,2250 367,5900 368,3000
369,7100 370,1460 371,1130 372,210
373,1300 374,250 448,40 449,40
450,80 451,40 452,120 453,40
454,40 456,40
##END=
