##TITLE=Pregn-4-en-3-one, 20-hydroxy-, (20S)-
##JCAMP-DX=4.24
##DATA TYPE=MASS SPECTRUM
##ORIGIN=D.KRAUSS HEIDELBERG UNIVERSITY, WEST GERMANY
##OWNER=NIST Mass Spectrometry Data Center
Collection (C) 2014 copyright by the U.S. Secretary of Commerce
on behalf of the United States of America. All rights reserved.
##CAS REGISTRY NO=145-14-2
##$NIST MASS SPEC NO=14947
##MOLFORM=C21 H32 O2
##MW=316
##$NIST SOURCE=MSDC
##XUNITS=M/Z
##YUNITS=RELATIVE INTENSITY
##XFACTOR=1
##YFACTOR=1
##FIRSTX=29
##LASTX=318
##FIRSTY=400
##MAXX=318
##MINX=29
##MAXY=9999
##MINY=100
##NPOINTS=150
##PEAK TABLE=(XY..XY)
29,400 38,300 39,900 41,2400
42,700 43,5300 44,3700 45,3400
46,200 50,200 51,400 52,300
53,700 54,700 55,2600 56,800
57,1700 58,1300 59,200 60,400
61,200 65,400 66,200 67,1600
68,300 69,1200 70,700 71,900
73,1200 77,1300 78,1100 79,2100
80,300 81,1800 82,300 83,700
84,300 85,600 88,200 91,4200
92,1200 93,1900 94,800 95,1900
96,400 97,600 98,200 99,200
103,200 104,200 105,2100 106,1600
107,1700 108,600 109,1400 110,300
111,400 115,200 117,400 118,200
119,1400 120,800 121,1400 122,1100
123,1500 124,9999 125,1200 128,200
129,200 131,700 132,400 133,1600
134,900 135,1500 136,700 137,900
138,300 143,200 145,700 146,350
147,1300 148,900 149,2500 150,400
157,300 159,800 160,200 161,800
162,400 163,400 169,200 171,200
172,300 173,600 174,1100 175,2500
176,600 177,300 178,200 179,200
185,100 187,900 188,300 189,300
190,200 191,200 192,1100 193,500
197,300 198,200 199,400 200,200
201,300 202,200 207,200 211,200
212,200 213,400 214,200 215,400
225,200 226,200 227,500 228,300
229,1700 230,3100 231,2000 232,400
241,400 242,200 243,400 244,200
255,200 256,900 257,400 265,300
269,800 270,200 271,200 272,500
274,1800 275,400 281,500 283,700
298,1700 299,400 301,500 316,7200
317,1600 318,200
##END=
