##TITLE=5-tert-Butyl-4,6-dinitro-1,2,3-trimethylbenzene
##JCAMP-DX=4.24
##DATA TYPE=MASS SPECTRUM
##ORIGIN=NIST Mass Spectrometry Data Center, 1998.
##OWNER=NIST Mass Spectrometry Data Center
Collection (C) 2014 copyright by the U.S. Secretary of Commerce
on behalf of the United States of America. All rights reserved.
##CAS REGISTRY NO=145-39-1
##$NIST MASS SPEC NO=291954
##MOLFORM=C13 H18 N2 O4
##MW=266
##$NIST SOURCE=MSDC
##XUNITS=M/Z
##YUNITS=RELATIVE INTENSITY
##XFACTOR=1
##YFACTOR=1
##FIRSTX=15
##LASTX=268
##FIRSTY=50
##MAXX=268
##MINX=15
##MAXY=9999
##MINY=10
##NPOINTS=199
##PEAK TABLE=(XY..XY)
15,50 26,10 27,260 28,40
29,390 30,250 31,40 37,10
38,30 39,750 40,100 41,1220
42,150 43,3300 44,90 45,50
46,30 50,130 51,700 52,250
53,860 54,130 55,360 56,320
57,1440 58,90 59,70 60,10
61,10 62,80 63,470 64,190
65,980 66,230 67,280 68,70
69,80 70,40 71,20 73,10
74,60 75,170 76,170 77,1600
78,450 79,770 80,190 81,210
82,60 83,30 84,20 85,20
86,30 87,70 88,50 89,330
90,120 91,2050 92,350 93,340
94,140 95,70 96,50 97,20
98,20 99,20 100,10 101,80
102,240 103,580 104,350 105,900
106,500 107,370 108,190 109,70
110,30 111,10 113,30 114,40
115,1660 116,750 117,1140 118,740
119,630 120,490 121,280 122,120
123,50 124,60 125,10 126,50
127,440 128,1550 129,900 130,660
131,630 132,860 133,880 134,550
135,270 136,130 137,30 138,10
139,50 140,50 141,770 142,520
143,1010 144,730 145,660 146,710
147,620 148,540 149,180 150,90
151,60 152,60 153,50 154,90
155,100 156,190 157,340 158,630
159,550 160,780 161,480 162,390
163,180 164,50 165,10 166,10
167,20 168,50 169,40 170,210
171,170 172,250 173,250 174,510
175,380 176,380 177,70 178,60
179,10 180,10 181,10 182,10
183,10 184,90 185,90 186,210
187,310 188,230 189,150 190,200
191,90 192,30 193,10 194,10
197,20 198,10 199,40 200,50
201,40 202,50 203,70 204,170
205,50 206,40 207,40 208,10
209,10 211,20 213,10 214,10
215,40 216,10 217,270 218,40
219,40 220,220 221,80 222,10
231,10 232,10 233,40 234,270
235,50 236,40 237,10 249,370
251,9999 252,1450 253,170 254,20
266,2900 267,440 268,50
##END=
