##TITLE=Pregnenolone
##JCAMP-DX=4.24
##DATA TYPE=MASS SPECTRUM
##ORIGIN=NIST Mass Spectrometry Data Center
##OWNER=NIST Mass Spectrometry Data Center
Collection (C) 2014 copyright by the U.S. Secretary of Commerce
on behalf of the United States of America. All rights reserved.
##CAS REGISTRY NO=145-13-1
##$NIST MASS SPEC NO=352611
##MOLFORM=C21 H32 O2
##MW=316
##$NIST SOURCE=MSDC
##XUNITS=M/Z
##YUNITS=RELATIVE INTENSITY
##XFACTOR=1
##YFACTOR=1
##FIRSTX=15
##LASTX=319
##FIRSTY=50
##MAXX=319
##MINX=15
##MAXY=9999
##MINY=10
##NPOINTS=260
##PEAK TABLE=(XY..XY)
15,50 26,20 27,220 28,70
29,561 30,20 31,90 37,10
38,10 39,420 40,100 41,1852
42,170 43,9999 44,290 45,190
46,10 50,20 51,140 52,80
53,891 54,130 55,2402 56,130
57,871 58,110 59,70 61,10
62,10 63,50 64,30 65,701
66,230 67,2472 68,300 69,801
70,70 71,1281 72,80 73,40
74,10 75,20 76,20 77,2272
78,591 79,4184 80,550 81,2652
82,300 83,581 84,530 85,3353
86,220 87,50 88,10 89,70
91,5575 92,1171 93,3533 94,821
95,2873 96,390 97,420 98,70
99,120 100,20 101,30 102,70
103,561 104,390 105,5735 106,1211
107,4744 108,971 109,1361 110,230
111,330 112,40 113,90 115,1011
116,480 117,2142 118,811 119,3243
120,2202 121,2152 122,450 123,581
124,490 125,721 126,90 127,240
128,931 129,1481 130,681 131,2903
132,911 133,3053 134,881 135,1251
136,280 137,561 138,260 139,110
140,20 141,601 142,450 143,2142
144,781 145,4344 146,1051 147,2352
148,561 149,671 150,150 151,260
152,130 153,170 154,120 155,420
156,270 157,1331 158,911 159,2883
160,1121 161,2712 162,460 163,861
164,160 165,200 166,60 167,120
168,80 169,510 170,190 171,1071
172,360 173,1291 174,350 175,450
176,210 177,430 178,190 179,140
180,30 181,140 182,60 183,520
184,150 185,711 186,240 187,2092
188,380 189,450 190,150 191,180
192,150 193,60 194,20 195,210
196,60 197,340 198,130 199,611
200,180 201,270 202,70 203,130
204,470 205,1171 206,210 207,50
208,20 209,330 210,80 211,240
212,120 213,1461 214,320 215,300
216,120 217,140 218,60 219,20
220,10 221,10 222,10 223,130
224,50 225,270 226,70 227,280
228,230 229,280 230,230 231,2162
232,430 233,60 234,40 235,10
236,20 237,70 238,30 239,280
240,190 241,450 242,100 243,190
244,140 245,100 246,110 247,30
250,10 251,40 252,20 253,100
254,40 255,771 256,550 257,330
258,190 259,150 260,30 261,20
262,10 265,550 266,120 267,20
269,140 270,120 271,60 272,110
273,240 274,60 275,10 279,10
280,50 281,30 282,10 283,1631
284,390 285,50 286,10 287,30
288,30 289,10 296,10 297,20
298,1912 299,450 300,70 301,550
302,120 303,10 314,20 315,20
316,2732 317,661 318,90 319,10
##END=
