##TITLE=Oxymesterone
##JCAMP-DX=4.24
##DATA TYPE=MASS SPECTRUM
##ORIGIN=NIST Mass Spectrometry Data Center, 1998.
##OWNER=NIST Mass Spectrometry Data Center
Collection (C) 2014 copyright by the U.S. Secretary of Commerce
on behalf of the United States of America. All rights reserved.
##CAS REGISTRY NO=145-12-0
##$NIST MASS SPEC NO=292129
##MOLFORM=C20 H30 O3
##MW=318
##$NIST SOURCE=MSDC
##XUNITS=M/Z
##YUNITS=RELATIVE INTENSITY
##XFACTOR=1
##YFACTOR=1
##FIRSTX=15
##LASTX=321
##FIRSTY=40
##MAXX=321
##MINX=15
##MAXY=9999
##MINY=10
##NPOINTS=269
##PEAK TABLE=(XY..XY)
15,40 19,10 26,20 27,470
28,80 29,1070 30,30 31,160
38,20 39,1020 40,280 41,4300
42,380 43,9999 44,300 45,410
46,20 50,40 51,300 52,190
53,2270 54,510 55,5509 56,430
57,1600 58,850 59,350 60,20
61,20 62,10 63,90 64,70
65,1370 66,520 67,5239 68,900
69,1700 70,170 71,2640 72,280
73,60 74,20 75,40 76,10
77,3080 78,680 79,5219 80,830
81,4150 82,910 83,860 84,210
85,410 86,80 87,30 88,30
89,90 90,50 91,5299 92,990
93,4410 94,1070 95,4320 96,630
97,790 98,300 99,280 100,50
101,40 102,100 103,540 104,380
105,4200 106,920 107,4300 108,2060
109,3690 110,2180 111,1190 112,810
113,2150 114,170 115,830 116,390
117,1080 118,370 119,3280 120,1600
121,5959 122,1460 123,2790 124,1000
125,1590 126,890 127,1090 128,690
129,690 130,320 131,1320 132,600
133,1990 134,900 135,1570 136,740
137,2470 138,3300 139,1590 140,7159
141,1020 142,280 143,600 144,310
145,1720 146,530 147,2200 148,3330
149,1990 150,710 151,1400 152,950
153,1080 154,370 155,280 156,130
157,530 158,430 159,1290 160,1420
161,8039 162,2120 163,2200 164,750
165,600 166,250 167,180 168,80
169,240 170,110 171,390 172,390
173,1040 174,600 175,820 176,370
177,710 178,320 179,810 180,170
181,200 182,50 183,320 184,130
185,420 186,180 187,860 188,660
189,780 190,320 191,340 192,470
193,180 194,80 195,90 196,50
197,330 198,200 199,600 200,260
201,650 202,280 203,330 204,160
205,720 206,310 207,180 208,70
209,170 210,40 211,330 212,190
213,360 214,270 215,620 216,240
217,280 218,190 219,200 220,320
221,90 222,20 223,80 224,80
225,440 226,250 227,480 228,150
229,520 230,290 231,200 232,180
233,630 234,150 235,30 236,20
237,20 238,50 239,740 240,380
241,190 242,510 243,740 244,400
245,500 246,140 247,130 248,410
249,270 250,50 251,20 252,20
253,150 254,300 255,100 256,40
257,410 258,360 259,90 260,510
261,360 262,60 263,20 264,30
265,30 266,20 267,820 268,170
269,40 270,20 271,190 272,320
273,70 274,30 275,460 276,600
277,110 278,20 281,30 282,500
283,150 284,30 285,1440 286,300
287,40 289,10 290,200 291,40
298,10 299,10 300,1670 301,370
302,50 303,550 304,120 305,10
316,30 318,8199 319,1780 320,240
321,20
##END=
