##TITLE=Pregn-4-en-3-one, 20-hydroxy-, (20R)-
##JCAMP-DX=4.24
##DATA TYPE=MASS SPECTRUM
##ORIGIN=D.HENNEBERG, MAX-PLANCK INSTITUTE, MULHEIM, WEST GERMANY
##OWNER=NIST Mass Spectrometry Data Center
Collection (C) 2014 copyright by the U.S. Secretary of Commerce
on behalf of the United States of America. All rights reserved.
##CAS REGISTRY NO=145-15-3
##$NIST MASS SPEC NO=62037
##MOLFORM=C21 H32 O2
##MW=316
##$NIST SOURCE=MSDC
##XUNITS=M/Z
##YUNITS=RELATIVE INTENSITY
##XFACTOR=1
##YFACTOR=1
##FIRSTX=26
##LASTX=319
##FIRSTY=40
##MAXX=319
##MINX=26
##MAXY=9999
##MINY=4
##NPOINTS=267
##PEAK TABLE=(XY..XY)
26,40 27,737 28,192 29,1115
30,40 31,182 37,4 38,11
39,745 41,3064 42,208 43,2173
44,17 45,4251 46,92 47,23
48,7 49,14 50,37 51,178
52,144 53,1190 54,179 55,2937
56,161 57,273 58,49 59,24
61,9 62,14 63,56 64,35
65,641 66,326 67,2502 68,474
69,823 70,92 71,558 72,35
73,20 74,11 75,49 76,31
77,1956 78,540 79,3513 80,575
81,2318 82,294 83,405 84,79
85,165 86,50 87,28 88,17
89,53 90,52 91,3357 92,618
93,2776 94,1077 95,2683 96,415
97,349 98,39 99,88 100,12
101,19 103,308 104,243 105,2510
106,795 107,2416 108,796 109,1450
110,315 111,439 112,41 113,122
114,48 115,399 116,207 117,849
118,372 119,1869 120,817 121,1700
122,1262 123,1359 124,9999 125,1176
126,90 127,110 128,301 129,399
130,179 131,1022 132,633 133,1987
134,1172 135,1669 136,701 137,1116
138,343 139,76 140,25 141,155
142,125 143,383 144,188 145,991
146,502 147,1728 148,1123 149,2837
150,443 151,127 152,45 153,45
154,37 155,150 156,81 157,417
158,177 159,1114 160,393 161,931
162,471 163,399 164,104 165,102
166,28 167,39 168,46 169,118
170,96 171,325 172,311 173,710
174,1942 175,2629 176,519 177,273
178,103 179,161 180,40 181,42
182,37 183,134 184,69 185,323
186,186 187,1026 188,364 189,315
190,135 191,139 192,1447 193,641
194,121 195,61 196,42 197,93
198,50 199,258 200,168 201,360
202,160 203,128 204,36 205,30
206,17 207,57 208,19 209,50
210,25 211,169 212,113 213,490
214,166 215,407 216,185 217,113
218,184 219,37 220,12 221,18
222,14 223,37 224,39 225,162
226,69 227,344 228,194 229,1284
230,1655 231,1579 232,490 233,87
234,37 235,17 236,14 237,44
238,35 239,95 240,47 241,522
242,186 243,328 244,104 245,78
246,63 247,11 249,12 250,11
251,102 252,34 253,129 254,93
255,128 256,890 257,351 258,78
259,151 260,59 261,14 263,15
265,68 266,27 267,29 268,24
269,929 270,222 271,135 272,438
273,131 274,1895 275,354 276,40
277,9 278,8 280,115 281,154
283,447 284,73 285,26 286,21
287,21 288,72 289,16 290,7
295,10 296,59 297,50 298,1057
299,273 300,45 301,401 302,85
303,6 314,63 315,34 316,4092
317,928 318,103 319,13
##END=
