##TITLE=2-Mercaptopyrimidine
##JCAMP-DX=4.24
##DATA TYPE=MASS SPECTRUM
##ORIGIN=NIST Mass Spectrometry Data Center, 1994
##OWNER=NIST Mass Spectrometry Data Center
Collection (C) 2014 copyright by the U.S. Secretary of Commerce
on behalf of the United States of America. All rights reserved.
##CAS REGISTRY NO=1450-85-7
##$NIST MASS SPEC NO=134316
##MOLFORM=C4 H4 N2 S
##MW=112
##$NIST SOURCE=MSDC
##XUNITS=M/Z
##YUNITS=RELATIVE INTENSITY
##XFACTOR=1
##YFACTOR=1
##FIRSTX=12
##LASTX=114
##FIRSTY=77
##MAXX=114
##MINX=12
##MAXY=9999
##MINY=5
##NPOINTS=60
##PEAK TABLE=(XY..XY)
12,77 13,75 14,24 15,5
16,11 17,39 18,22 24,69
25,267 26,1275 27,813 28,1164
32,626 33,497 34,73 35,39
36,40 37,170 38,380 39,286
40,470 41,147 44,335 45,469
46,121 47,45 50,115 51,883
52,2029 53,1905 54,928 55,82
56,235 57,833 58,1658 59,2281
60,563 61,140 62,49 66,30
68,2777 69,160 70,295 71,70
72,34 76,51 77,106 79,644
80,71 82,129 83,303 84,959
85,2009 86,735 87,113 88,33
111,2668 112,9999 113,712 114,412
##END=
