##TITLE=Disilane, hexamethyl-
##JCAMP-DX=4.24
##DATA TYPE=MASS SPECTRUM
##ORIGIN=Japan AIST/NIMC Database- Spectrum MS-NW-9254
##OWNER=NIST Mass Spectrometry Data Center
Collection (C) 2014 copyright by the U.S. Secretary of Commerce
on behalf of the United States of America. All rights reserved.
##CAS REGISTRY NO=1450-14-2
##$NIST MASS SPEC NO=236663
##MOLFORM=C6 H18 Si2
##MW=146
##$NIST SOURCE=MSDC
##XUNITS=M/Z
##YUNITS=RELATIVE INTENSITY
##XFACTOR=1
##YFACTOR=1
##FIRSTX=28
##LASTX=149
##FIRSTY=40
##MAXX=149
##MINX=28
##MAXY=9999
##MINY=10
##NPOINTS=54
##PEAK TABLE=(XY..XY)
28,40 29,60 31,50 32,10
42,20 43,349 44,119 45,839
46,50 47,30 53,30 55,50
56,10 57,50 58,119 59,259
60,20 61,10 69,50 70,20
71,50 72,229 73,9999 74,879
75,369 76,10 81,10 83,20
84,10 85,50 86,10 87,20
91,10 92,10 97,10 99,60
100,10 101,40 103,20 113,20
115,159 116,30 117,20 129,80
130,30 131,2439 132,389 133,189
134,20 145,20 146,1149 147,199
148,90 149,10
##END=
