##TITLE=Chloropyrazine
##JCAMP-DX=4.24
##DATA TYPE=MASS SPECTRUM
##ORIGIN=NIST Mass Spectrometry Data Center, 1990.
##OWNER=NIST Mass Spectrometry Data Center
Collection (C) 2014 copyright by the U.S. Secretary of Commerce
on behalf of the United States of America. All rights reserved.
##CAS REGISTRY NO=14508-49-7
##$NIST MASS SPEC NO=118281
##MOLFORM=C4 H3 Cl N2
##MW=114
##$NIST SOURCE=MSDC
##XUNITS=M/Z
##YUNITS=RELATIVE INTENSITY
##XFACTOR=1
##YFACTOR=1
##FIRSTX=12
##LASTX=117
##FIRSTY=121
##MAXX=117
##MINX=12
##MAXY=9999
##MINY=1
##NPOINTS=51
##PEAK TABLE=(XY..XY)
12,121 13,58 14,2 18,1
24,254 25,833 26,2898 27,503
28,1306 29,32 35,187 36,73
37,220 38,649 39,510 40,335
41,23 43,57 44,31 47,303
48,69 49,153 50,452 51,3161
52,4825 53,1022 54,39 57,32
58,24 60,3077 61,220 62,1115
63,62 64,59 73,47 74,37
75,43 76,112 77,185 78,37
79,9169 80,495 85,105 86,475
87,1604 88,201 89,555 114,9999
115,711 116,3127 117,155
##END=
