##TITLE=Methyl 2,5-dichlorothiophene-3-carboxylate
##JCAMP-DX=4.24
##DATA TYPE=MASS SPECTRUM
##ORIGIN=NIST Mass Spectrometry Data Center, 1994
##OWNER=NIST Mass Spectrometry Data Center
Collection (C) 2014 copyright by the U.S. Secretary of Commerce
on behalf of the United States of America. All rights reserved.
##CAS REGISTRY NO=145129-54-0
##$NIST MASS SPEC NO=136126
##MOLFORM=C6 H4 Cl2 O2 S
##MW=210
##$NIST SOURCE=MSDC
##XUNITS=M/Z
##YUNITS=RELATIVE INTENSITY
##XFACTOR=1
##YFACTOR=1
##FIRSTX=12
##LASTX=215
##FIRSTY=106
##MAXX=215
##MINX=12
##MAXY=9999
##MINY=21
##NPOINTS=116
##PEAK TABLE=(XY..XY)
12,106 13,89 14,308 15,3050
16,34 18,43 24,41 25,117
26,28 28,127 29,1374 30,489
31,65 32,179 33,21 35,217
36,312 37,1307 38,120 39,51
41,34 44,480 45,677 46,41
47,372 48,142 49,385 50,67
51,124 52,45 53,171 56,314
57,332 58,152 59,515 60,177
61,43 62,53 63,40 67,27
68,296 69,683 70,59 71,431
72,916 73,248 74,241 75,70
76,26 77,27 78,26 79,914
80,432 81,2651 82,189 83,213
84,544 85,75 86,86 87,258
88,36 89,107 91,225 92,62
93,95 94,33 95,22 96,24
103,132 104,69 105,53 106,22
107,2259 108,22 109,1525 110,70
111,245 115,544 116,1336 117,299
118,547 119,88 120,57 132,53
139,49 143,43 144,56 145,99
146,33 147,39 151,1391 152,173
153,934 154,82 155,177 160,58
162,33 165,34 167,54 175,347
176,39 177,154 178,33 179,9999
180,33 181,6624 182,500 183,1241
184,80 185,46 210,3086 211,324
212,2188 213,177 214,476 215,33
##END=
