##TITLE=Etorphine
##JCAMP-DX=4.24
##DATA TYPE=MASS SPECTRUM
##ORIGIN=R.E.Ardrey ET AL.Pharmaceutical Mass Spectra,L.,1985
##OWNER=NIST Mass Spectrometry Data Center
Collection (C) 2014 copyright by the U.S. Secretary of Commerce
on behalf of the United States of America. All rights reserved.
##CAS REGISTRY NO=14521-96-1
##$NIST MASS SPEC NO=298681
##MOLFORM=C25 H33 N O4
##MW=411
##$NIST SOURCE=MSDC
##XUNITS=M/Z
##YUNITS=RELATIVE INTENSITY
##XFACTOR=1
##YFACTOR=1
##FIRSTX=27
##LASTX=413
##FIRSTY=500
##MAXX=413
##MINX=27
##MAXY=9999
##MINY=100
##NPOINTS=194
##PEAK TABLE=(XY..XY)
27,500 29,601 30,200 31,400
39,200 41,1001 42,3103 43,2402
44,9999 45,4604 51,100 53,200
55,500 56,200 57,500 58,2302
59,801 60,100 65,200 67,100
69,400 70,601 71,701 77,300
78,200 79,200 80,100 81,100
82,100 87,1301 89,100 91,400
94,200 95,100 97,100 103,200
105,200 107,200 108,100 109,200
110,200 113,100 115,400 116,100
117,200 118,100 119,100 120,300
121,1301 122,300 123,601 124,100
127,300 128,300 129,200 131,300
132,500 133,200 134,300 135,300
136,100 139,100 141,200 144,200
145,200 146,100 147,300 148,400
149,200 150,701 151,200 152,400
153,200 154,100 155,100 157,100
158,100 159,100 160,300 161,701
162,2702 163,1301 164,4204 165,701
166,200 167,100 168,200 169,200
170,100 171,200 172,200 173,400
174,801 175,901 176,701 177,200
178,200 179,100 181,200 182,100
183,100 184,200 185,100 186,300
187,200 188,100 189,100 190,200
191,100 194,100 195,200 196,200
197,300 198,200 200,100 201,100
202,300 203,300 204,300 205,100
206,100 207,100 208,100 209,100
210,100 211,300 212,100 213,901
215,6706 216,2803 217,400 218,100
221,200 222,100 223,300 224,200
225,200 226,200 227,100 228,200
229,100 232,701 233,100 234,100
235,200 236,100 237,200 238,200
239,300 240,400 241,701 242,200
248,100 249,200 250,1201 251,300
252,200 253,300 254,400 255,100
264,100 265,100 266,300 267,300
268,200 280,200 281,300 282,601
283,200 294,200 295,100 297,1501
298,1101 299,200 310,300 311,100
322,200 324,5205 325,1101 326,200
336,100 350,100 364,100 368,200
378,200 379,300 380,100 393,300
394,100 396,400 397,100 411,6105
412,1301 413,200
##END=
