##TITLE=Pyridine, 2-ethoxy-
##JCAMP-DX=4.24
##DATA TYPE=MASS SPECTRUM
##OWNER=NIST Mass Spectrometry Data Center
Collection (C) 2014 copyright by the U.S. Secretary of Commerce
on behalf of the United States of America. All rights reserved.
##CAS REGISTRY NO=14529-53-4
##$NIST MASS SPEC NO=2318
##MOLFORM=C7 H9 N O
##MW=123
##$NIST SOURCE=MSDC
##XUNITS=M/Z
##YUNITS=RELATIVE INTENSITY
##XFACTOR=1
##YFACTOR=1
##FIRSTX=14
##LASTX=123
##FIRSTY=470
##MAXX=123
##MINX=14
##MAXY=9999
##MINY=30
##NPOINTS=68
##PEAK TABLE=(XY..XY)
14,470 15,1071 16,60 17,40
18,90 24,40 25,190 26,1501
27,4384 28,2602 29,2302 30,120
31,80 32,30 35,40 36,80
37,831 38,2112 39,6276 40,1732
41,1832 42,440 43,360 44,80
45,70 48,50 49,230 50,1091
51,2632 52,2312 53,641 54,150
55,110 56,390 57,40 60,440
62,60 63,120 64,290 65,270
66,1181 67,9999 68,761 69,70
74,40 75,140 76,220 77,130
78,3373 79,8518 80,1541 81,210
82,50 86,40 92,30 93,110
94,290 95,4194 96,490 104,120
106,90 108,7797 111,170 113,510
115,180 120,40 122,591 123,2232
##END=
