##TITLE=Rhodium carbonyl chloride
##JCAMP-DX=4.24
##DATA TYPE=MASS SPECTRUM
##ORIGIN=Japan AIST/NIMC Database- Spectrum MS-IW-2529
##OWNER=NIST Mass Spectrometry Data Center
Collection (C) 2014 copyright by the U.S. Secretary of Commerce
on behalf of the United States of America. All rights reserved.
##CAS REGISTRY NO=14523-22-9
##$NIST MASS SPEC NO=239521
##MOLFORM=C4 Cl2 O4 Rh2
##MW=388
##$NIST SOURCE=MSDC
##XUNITS=M/Z
##YUNITS=RELATIVE INTENSITY
##XFACTOR=1
##YFACTOR=1
##FIRSTX=12
##LASTX=393
##FIRSTY=80
##MAXX=393
##MINX=12
##MAXY=9999
##MINY=10
##NPOINTS=65
##PEAK TABLE=(XY..XY)
12,80 16,30 28,9999 29,179
30,30 35,70 36,569 37,20
38,189 103,5199 131,369 138,429
140,139 159,20 166,129 167,20
168,30 173,20 180,189 181,119
182,20 194,119 195,50 196,20
201,10 203,10 206,809 218,99
234,10 241,2499 243,839 253,80
255,20 269,309 271,90 276,4019
278,2639 280,429 288,30 290,20
297,30 299,10 304,3619 305,40
306,2329 307,20 308,379 332,3439
333,90 334,2229 335,60 336,369
337,10 360,3819 361,139 362,2499
363,80 364,419 365,10 388,4559
389,209 390,2959 391,129 392,489
393,20
##END=
