##TITLE=Benzenebutanoic acid, 2,5-dimethyl-
##JCAMP-DX=4.24
##DATA TYPE=MASS SPECTRUM
##ORIGIN=CONTINENTAL OIL CO., PONCA CITY, OKLA, USA
##OWNER=NIST Mass Spectrometry Data Center
Collection (C) 2014 copyright by the U.S. Secretary of Commerce
on behalf of the United States of America. All rights reserved.
##CAS REGISTRY NO=1453-06-1
##$NIST MASS SPEC NO=35136
##MOLFORM=C12 H16 O2
##MW=192
##$NIST SOURCE=MSDC
##XUNITS=M/Z
##YUNITS=RELATIVE INTENSITY
##XFACTOR=1
##YFACTOR=1
##FIRSTX=13
##LASTX=195
##FIRSTY=19
##MAXX=195
##MINX=13
##MAXY=9999
##MINY=6
##NPOINTS=146
##PEAK TABLE=(XY..XY)
13,19 14,268 15,374 16,47
17,26 18,84 19,12 25,10
26,161 27,1416 28,253 29,515
30,22 31,139 32,85 36,9
37,22 38,118 39,1419 40,266
41,1291 42,230 43,219 44,117
45,1088 46,32 47,20 49,10
50,258 51,885 52,311 53,588
54,43 55,276 56,18 57,73
58,66 59,45 60,143 61,27
62,110 63,481 64,222 65,731
66,98 67,74 68,18 69,62
70,51 71,99 72,53 73,218
74,95 75,144 76,126 77,1499
78,584 79,588 80,52 81,26
85,31 86,28 87,59 89,204
90,119 91,2195 92,247 93,144
94,19 95,18 96,46 97,10
98,19 99,12 100,8 101,54
102,231 103,804 104,912 105,1565
106,457 107,87 108,19 109,18
110,16 111,25 113,44 114,66
115,1146 116,547 117,2059 118,640
119,9999 120,1635 121,130 122,18
125,16 126,30 127,155 128,384
129,321 130,281 131,1142 132,8048
133,1576 134,126 135,45 136,12
137,6 139,18 140,8 141,78
142,48 143,34 144,29 145,268
146,171 147,51 148,9 149,13
150,7 152,8 153,13 154,9
155,22 156,11 157,15 158,20
159,62 160,11 161,25 162,9
172,8 173,27 174,75 175,108
176,22 177,64 178,12 179,9
190,18 191,32 192,3841 193,512
194,48 195,6
##END=
