##TITLE=1H-Pyrazole, 3-methyl-
##JCAMP-DX=4.24
##DATA TYPE=MASS SPECTRUM
##ORIGIN=NIST Mass Spectrometry Data Center
##OWNER=NIST Mass Spectrometry Data Center
Collection (C) 2014 copyright by the U.S. Secretary of Commerce
on behalf of the United States of America. All rights reserved.
##CAS REGISTRY NO=1453-58-3
##$NIST MASS SPEC NO=340715
##MOLFORM=C4 H6 N2
##MW=82
##$NIST SOURCE=MSDC
##XUNITS=M/Z
##YUNITS=RELATIVE INTENSITY
##XFACTOR=1
##YFACTOR=1
##FIRSTX=12
##LASTX=83
##FIRSTY=10
##MAXX=83
##MINX=12
##MAXY=9999
##MINY=10
##NPOINTS=38
##PEAK TABLE=(XY..XY)
12,10 13,20 14,50 15,210
24,10 25,90 26,561 27,1511
28,1321 29,460 30,100 36,30
37,200 38,360 39,681 40,901
41,871 42,1121 43,110 48,30
49,210 50,1001 51,1171 52,751
53,1391 54,3233 55,801 56,140
64,20 65,20 66,120 67,180
77,10 79,10 80,70 81,7056
82,9999 83,510
##END=
