##TITLE=Cyclohexene, 1-ethyl-
##JCAMP-DX=4.24
##DATA TYPE=MASS SPECTRUM
##ORIGIN=B. Derendyaev, Novosibirsk Institute of Organic Chemistry
##OWNER=NIST Mass Spectrometry Data Center
Collection (C) 2014 copyright by the U.S. Secretary of Commerce
on behalf of the United States of America. All rights reserved.
##CAS REGISTRY NO=1453-24-3
##$NIST MASS SPEC NO=139463
##MOLFORM=C8 H14
##MW=110
##$NIST SOURCE=MSDC
##XUNITS=M/Z
##YUNITS=RELATIVE INTENSITY
##XFACTOR=1
##YFACTOR=1
##FIRSTX=14
##LASTX=112
##FIRSTY=10
##MAXX=112
##MINX=14
##MAXY=9999
##MINY=10
##NPOINTS=64
##PEAK TABLE=(XY..XY)
14,10 15,50 26,60 27,1029
28,139 29,429 30,10 37,10
38,50 39,1419 40,239 41,2259
42,189 43,109 44,10 45,20
46,10 50,80 51,309 52,189
53,969 54,779 55,719 56,90
57,20 62,20 63,60 64,20
65,329 66,219 67,3429 68,799
69,559 70,40 71,10 73,10
74,10 75,20 76,10 77,459
78,119 79,1199 80,459 81,9999
82,1709 83,80 84,10 89,10
91,189 92,30 93,109 94,30
95,1199 96,80 97,10 103,10
104,10 105,10 106,10 107,10
108,10 110,2259 111,159 112,10
##END=
