##TITLE=2,6-Dibromo-4-methoxytoluene
##JCAMP-DX=4.24
##DATA TYPE=MASS SPECTRUM
##ORIGIN=NIST Mass Spectrometry Data Center, 1994
##OWNER=NIST Mass Spectrometry Data Center
Collection (C) 2014 copyright by the U.S. Secretary of Commerce
on behalf of the United States of America. All rights reserved.
##CAS REGISTRY NO=14542-71-3
##$NIST MASS SPEC NO=136374
##MOLFORM=C8 H8 Br2 O
##MW=278
##$NIST SOURCE=MSDC
##XUNITS=M/Z
##YUNITS=RELATIVE INTENSITY
##XFACTOR=1
##YFACTOR=1
##FIRSTX=13
##LASTX=283
##FIRSTY=65
##MAXX=283
##MINX=13
##MAXY=9999
##MINY=37
##NPOINTS=107
##PEAK TABLE=(XY..XY)
13,65 14,182 15,4345 16,46
18,152 25,69 26,195 27,336
28,463 29,516 30,182 37,366
38,593 39,803 40,75 41,103
43,157 44,82 49,382 50,2836
51,4569 52,456 53,557 60,99
61,728 62,1459 63,1463 64,162
65,476 66,63 73,329 74,1171
75,1755 76,1451 77,3916 78,351
79,266 80,118 81,218 82,139
84,93 85,291 86,544 87,416
88,349 89,1600 90,958 91,1803
92,790 93,117 95,51 100,37
103,141 104,171 105,1316 106,198
107,90 117,147 118,77 119,762
120,762 121,89 129,93 130,63
131,181 133,98 140,75 141,127
143,151 154,44 155,550 156,897
157,646 158,843 159,60 167,92
168,194 169,699 170,317 171,673
172,143 173,49 183,376 184,201
185,439 186,174 198,497 199,4772
200,857 201,4619 202,403 235,169
236,68 237,289 239,169 249,73
250,53 263,131 265,272 267,115
277,756 278,4942 279,1961 280,9999
281,1644 282,4917 283,461
##END=
