##TITLE=1-Nonanethiol
##JCAMP-DX=4.24
##DATA TYPE=MASS SPECTRUM
##OWNER=NIST Mass Spectrometry Data Center
Collection (C) 2014 copyright by the U.S. Secretary of Commerce
on behalf of the United States of America. All rights reserved.
##CAS REGISTRY NO=1455-21-6
##$NIST MASS SPEC NO=5719
##MOLFORM=C9 H20 S
##MW=160
##$NIST SOURCE=MSDC
##XUNITS=M/Z
##YUNITS=RELATIVE INTENSITY
##XFACTOR=1
##YFACTOR=1
##FIRSTX=37
##LASTX=163
##FIRSTY=70
##MAXX=163
##MINX=37
##MAXY=9999
##MINY=10
##NPOINTS=108
##PEAK TABLE=(XY..XY)
37,70 38,160 39,3924 40,631
41,9999 42,3663 43,7627 44,260
45,1261 46,480 47,3934 48,170
49,190 50,80 51,190 52,100
53,781 54,851 55,7006 56,7216
57,3193 58,180 59,340 60,480
61,1651 62,120 63,100 64,10
65,90 66,50 67,571 68,1631
69,4384 70,4614 71,1071 72,50
73,130 74,50 75,80 76,20
77,60 78,10 79,60 80,10
81,150 82,641 83,2482 84,2192
85,510 86,30 87,130 88,70
89,1031 90,60 91,70 92,10
93,10 94,10 95,50 96,260
97,1832 98,1651 99,180 100,10
101,30 102,10 103,100 104,10
105,10 106,10 107,10 109,20
110,10 111,80 112,30 113,40
114,10 115,10 117,10 119,10
121,10 122,10 123,10 124,10
125,10 126,1021 127,110 128,10
129,10 131,10 137,10 139,10
140,10 141,10 145,10 146,10
147,10 151,10 153,10 154,10
155,10 157,10 158,10 159,180
160,1401 161,170 162,70 163,10
##END=
