##TITLE=2,3-Difluorophenylacetonitrile
##JCAMP-DX=4.24
##DATA TYPE=MASS SPECTRUM
##ORIGIN=NIST Mass Spectrometry Data Center, 1994
##OWNER=NIST Mass Spectrometry Data Center
Collection (C) 2014 copyright by the U.S. Secretary of Commerce
on behalf of the United States of America. All rights reserved.
##CAS REGISTRY NO=145689-34-5
##$NIST MASS SPEC NO=136562
##MOLFORM=C8 H5 F2 N
##MW=153
##$NIST SOURCE=MSDC
##XUNITS=M/Z
##YUNITS=RELATIVE INTENSITY
##XFACTOR=1
##YFACTOR=1
##FIRSTX=12
##LASTX=155
##FIRSTY=71
##MAXX=155
##MINX=12
##MAXY=9999
##MINY=14
##NPOINTS=88
##PEAK TABLE=(XY..XY)
12,71 13,14 14,14 18,57
20,41 25,47 26,227 28,14
31,1059 33,152 36,74 37,621
38,770 39,770 40,243 44,62
46,31 48,43 49,214 50,1332
51,1395 52,232 53,77 55,98
56,532 57,1307 58,62 60,70
61,692 62,980 63,1452 64,294
65,53 67,75 68,679 69,397
70,137 71,27 73,146 74,600
75,2205 76,853 77,441 79,127
80,370 81,993 82,302 83,116
84,58 85,190 86,264 87,344
88,379 89,67 92,177 93,296
94,207 95,78 96,46 99,623
100,478 101,988 102,266 103,1160
104,176 105,338 106,460 107,1254
108,209 111,40 112,121 113,262
114,216 121,42 123,64 125,4101
126,6553 127,1910 128,128 132,491
133,1410 134,884 135,72 150,133
152,6343 153,9999 154,856 155,35
##END=
