##TITLE=Silanamine, 1-(chloromethyl)-N-[(chloromethyl)dimethylsilyl]-1,1-dimethyl-
##JCAMP-DX=4.24
##DATA TYPE=MASS SPECTRUM
##ORIGIN=Japan AIST/NIMC Database- Spectrum MS-IW-4075
##OWNER=NIST Mass Spectrometry Data Center
Collection (C) 2014 copyright by the U.S. Secretary of Commerce
on behalf of the United States of America. All rights reserved.
##CAS REGISTRY NO=14579-91-0
##$NIST MASS SPEC NO=239373
##MOLFORM=C6 H17 Cl2 N Si2
##MW=229
##$NIST SOURCE=MSDC
##XUNITS=M/Z
##YUNITS=RELATIVE INTENSITY
##XFACTOR=1
##YFACTOR=1
##FIRSTX=15
##LASTX=214
##FIRSTY=10
##MAXX=214
##MINX=15
##MAXY=9999
##MINY=10
##NPOINTS=158
##PEAK TABLE=(XY..XY)
15,10 16,10 27,40 29,80
30,50 31,70 36,70 38,20
41,40 42,30 43,339 44,189
45,379 46,60 47,30 49,40
50,60 51,339 52,80 53,20
55,40 56,109 57,339 58,129
59,959 60,139 61,50 63,269
64,30 65,1739 66,449 67,90
68,289 69,109 70,169 71,99
72,229 73,1119 74,309 75,239
76,30 77,50 78,70 79,1019
80,109 81,379 82,60 83,40
84,30 85,80 86,349 87,109
88,60 89,60 90,40 91,30
92,60 93,1739 94,179 95,629
96,50 97,30 98,20 99,169
100,829 101,179 102,619 103,90
104,40 105,40 106,119 107,309
108,229 109,129 110,70 111,10
112,20 113,189 114,349 115,129
116,4109 117,669 118,339 119,50
120,309 121,70 122,459 123,99
124,149 125,40 126,20 127,30
128,70 130,879 131,169 132,139
133,50 134,90 135,70 136,1059
137,309 138,519 139,179 140,80
141,20 142,40 143,10 144,589
145,99 146,129 147,30 148,30
149,20 150,709 151,149 152,9999
153,3089 154,4099 155,1159 156,359
157,80 158,919 159,319 160,669
161,219 162,159 163,40 164,90
165,20 166,50 167,30 168,10
169,10 170,70 171,30 172,369
173,109 174,239 175,70 176,50
177,10 178,30 180,7229 181,1889
182,2999 183,709 184,229 185,30
186,279 187,129 188,219 189,90
190,50 191,20 192,10 194,30
196,10 214,20
##END=
