##TITLE=3,4-Dimethoxybenzyl isothiocyanate
##JCAMP-DX=4.24
##DATA TYPE=MASS SPECTRUM
##ORIGIN=NIST Mass Spectrometry Data Center
##OWNER=NIST Mass Spectrometry Data Center
Collection (C) 2014 copyright by the U.S. Secretary of Commerce
on behalf of the United States of America. All rights reserved.
##CAS REGISTRY NO=14596-50-0
##$NIST MASS SPEC NO=343401
##MOLFORM=C10 H11 N O2 S
##MW=209
##$NIST SOURCE=MSDC
##XUNITS=M/Z
##YUNITS=RELATIVE INTENSITY
##XFACTOR=1
##YFACTOR=1
##FIRSTX=12
##LASTX=212
##FIRSTY=10
##MAXX=212
##MINX=12
##MAXY=9999
##MINY=10
##NPOINTS=119
##PEAK TABLE=(XY..XY)
12,10 13,10 15,1171 16,10
18,20 26,80 27,170 28,130
29,180 30,30 31,50 32,110
37,80 38,240 39,1091 40,70
41,60 42,40 43,50 44,40
45,170 46,20 47,10 50,400
51,921 52,240 53,250 54,40
55,70 56,10 58,120 59,60
60,20 61,70 62,180 63,480
64,310 65,1001 66,130 67,70
68,30 69,50 70,60 71,40
72,160 73,10 74,90 75,90
76,120 77,671 78,651 79,440
80,220 81,30 82,10 83,20
84,10 85,10 86,20 87,20
89,300 90,480 91,581 92,140
93,90 94,90 95,90 96,100
97,20 98,10 102,20 103,30
105,591 106,811 107,1651 108,691
109,70 110,10 116,20 118,130
119,70 120,40 121,50 122,70
123,40 124,20 130,10 132,10
133,30 134,60 135,470 136,150
137,40 138,10 146,20 147,20
148,10 151,9999 152,981 153,80
160,10 162,80 163,40 164,40
165,10 166,30 167,10 177,40
178,20 179,10 181,30 186,20
192,10 193,10 194,40 209,1561
210,180 211,90 212,10
##END=
