##TITLE=Benzene, tetradecyl-
##JCAMP-DX=4.24
##DATA TYPE=MASS SPECTRUM
##OWNER=NIST Mass Spectrometry Data Center
Collection (C) 2014 copyright by the U.S. Secretary of Commerce
on behalf of the United States of America. All rights reserved.
##CAS REGISTRY NO=1459-10-5
##$NIST MASS SPEC NO=13246
##MOLFORM=C20 H34
##MW=274
##$NIST SOURCE=MSDC
##XUNITS=M/Z
##YUNITS=RELATIVE INTENSITY
##XFACTOR=1
##YFACTOR=1
##FIRSTX=14
##LASTX=276
##FIRSTY=20
##MAXX=276
##MINX=14
##MAXY=9999
##MINY=10
##NPOINTS=83
##PEAK TABLE=(XY..XY)
14,20 16,20 26,30 27,220
29,561 32,110 39,170 40,40
41,1011 42,170 43,1521 44,150
51,60 52,20 53,60 54,60
55,581 56,190 57,1101 58,50
63,30 65,250 66,30 67,80
68,40 69,230 70,110 71,490
72,30 77,140 78,310 79,200
80,70 81,40 82,40 83,130
84,50 85,240 86,20 89,40
90,40 91,5755 92,9999 93,811
94,120 95,30 96,30 97,80
98,30 99,30 103,90 104,410
105,781 106,200 107,30 111,30
112,10 113,10 115,50 117,140
118,70 119,270 120,90 121,20
131,20 132,30 133,811 134,250
135,50 147,140 148,70 161,60
162,20 175,30 189,10 220,20
231,20 232,10 245,10 246,10
274,1621 275,350 276,40
##END=
