##TITLE=Nitrazepam
##JCAMP-DX=4.24
##DATA TYPE=MASS SPECTRUM
##ORIGIN=Dr. P.K. Shah, NYC Police Laboratory, NY
##OWNER=NIST Mass Spectrometry Data Center
Collection (C) 2014 copyright by the U.S. Secretary of Commerce
on behalf of the United States of America. All rights reserved.
##CAS REGISTRY NO=146-22-5
##$NIST MASS SPEC NO=312937
##MOLFORM=C15 H11 N3 O3
##MW=281
##$NIST SOURCE=MSDC
##XUNITS=M/Z
##YUNITS=RELATIVE INTENSITY
##XFACTOR=1
##YFACTOR=1
##FIRSTX=37
##LASTX=283
##FIRSTY=50
##MAXX=283
##MINX=37
##MAXY=9999
##MINY=40
##NPOINTS=152
##PEAK TABLE=(XY..XY)
37,50 38,200 39,591 40,100
41,120 42,130 43,40 46,50
50,671 51,1912 52,721 53,210
54,90 55,50 61,130 62,631
63,1742 64,480 65,691 66,120
69,200 70,100 73,100 74,661
75,1341 76,2412 77,3443 78,791
79,140 80,150 82,300 84,310
85,70 86,310 87,510 88,510
89,1822 90,1001 91,1231 92,200
93,60 96,380 98,330 99,290
100,290 101,370 102,1101 103,2262
104,1121 105,220 108,310 110,120
111,280 112,100 113,450 114,350
115,561 116,711 117,641 119,100
120,80 122,60 123,80 124,90
125,290 126,871 127,591 128,430
129,360 130,340 131,100 132,130
133,50 135,50 137,170 138,180
139,701 140,571 141,180 142,110
144,160 148,40 149,260 150,1041
151,2232 152,2182 153,771 154,220
155,60 157,70 158,60 161,50
162,120 163,651 164,681 165,611
166,631 167,801 168,250 175,190
176,420 177,1441 178,2222 179,3083
180,1081 181,210 188,50 189,80
190,540 191,410 192,571 193,641
194,741 195,591 196,100 203,190
204,310 205,5755 206,8698 207,3473
208,831 209,200 210,50 220,150
221,350 222,1371 223,731 224,260
225,721 226,110 233,350 234,7617
235,1872 236,721 237,260 238,120
239,90 250,260 251,881 252,6146
253,9999 254,6436 255,911 256,100
263,90 264,4244 265,841 266,110
280,9619 281,5265 282,841 283,140
##END=
