##TITLE=1,2-Benzenedicarboxylic acid, bis(4-methylpentyl) ester
##JCAMP-DX=4.24
##DATA TYPE=MASS SPECTRUM
##ORIGIN=RADIAN CORP
##OWNER=NIST Mass Spectrometry Data Center
Collection (C) 2014 copyright by the U.S. Secretary of Commerce
on behalf of the United States of America. All rights reserved.
##CAS REGISTRY NO=146-50-9
##$NIST MASS SPEC NO=76295
##MOLFORM=C20 H30 O4
##MW=334
##$NIST SOURCE=MSDC
##XUNITS=M/Z
##YUNITS=RELATIVE INTENSITY
##XFACTOR=1
##YFACTOR=1
##FIRSTX=27
##LASTX=252
##FIRSTY=140
##MAXX=252
##MINX=27
##MAXY=9999
##MINY=10
##NPOINTS=45
##PEAK TABLE=(XY..XY)
27,140 29,320 39,120 40,30
41,760 42,220 43,2120 44,80
50,60 51,20 53,40 54,30
55,420 56,480 57,380 65,150
67,50 68,10 69,450 70,30
75,20 76,280 77,90 83,60
84,470 85,1940 86,120 93,180
104,390 105,200 121,170 122,130
123,80 132,70 146,10 149,9999
150,930 151,100 167,350 168,30
176,30 233,130 234,30 251,510
252,70
##END=
