##TITLE=Adenosine, 2-chloro-
##JCAMP-DX=4.24
##DATA TYPE=MASS SPECTRUM
##ORIGIN=Q. Pu, LAC, NIDDK, NIH, Bethesda, MD 20892
##OWNER=NIST Mass Spectrometry Data Center
Collection (C) 2014 copyright by the U.S. Secretary of Commerce
on behalf of the United States of America. All rights reserved.
##CAS REGISTRY NO=146-77-0
##$NIST MASS SPEC NO=124518
##MOLFORM=C10 H12 Cl N5 O4
##MW=301
##$NIST SOURCE=MSDC
##XUNITS=M/Z
##YUNITS=RELATIVE INTENSITY
##XFACTOR=1
##YFACTOR=1
##FIRSTX=41
##LASTX=304
##FIRSTY=875
##MAXX=304
##MINX=41
##MAXY=9999
##MINY=4
##NPOINTS=227
##PEAK TABLE=(XY..XY)
41,875 42,13 43,1283 44,265
45,834 46,145 47,85 48,6
49,39 50,22 51,65 52,124
53,378 54,386 55,653 56,172
57,938 58,129 59,184 60,243
61,490 62,223 63,33 64,117
65,194 66,468 67,443 68,219
69,345 70,114 71,357 72,21
73,801 74,64 75,50 76,29
77,119 78,153 79,110 80,272
81,171 82,51 83,42 84,47
85,292 86,144 87,90 88,36
89,60 90,19 91,102 92,386
93,78 94,171 95,56 96,23
97,145 98,20 99,21 100,22
101,66 102,23 103,51 104,55
105,34 106,170 107,449 108,667
109,71 110,15 111,23 112,11
113,31 114,57 115,109 116,23
117,22 118,30 119,155 120,43
121,134 122,25 123,15 124,69
125,15 126,15 127,31 128,41
129,57 130,20 131,34 132,46
133,306 134,3921 135,404 136,82
137,14 138,4 139,14 140,7
141,38 142,28 143,26 144,20
145,20 146,361 147,71 148,91
149,44 150,21 151,22 152,25
153,66 154,33 155,42 156,19
157,16 158,12 159,21 160,62
161,30 162,14 163,34 164,109
165,203 166,102 167,21 168,120
169,9999 170,4994 171,4508 172,1752
173,114 174,16 175,13 176,213
177,44 178,147 179,31 180,21
181,9 182,843 183,55 184,384
185,90 186,36 187,15 188,15
190,6 191,5 192,4 193,4
194,133 195,41 196,105 197,67
198,7769 199,645 200,2690 201,224
202,25 205,6 206,5 207,30
208,60 209,46 210,46 211,192
212,3446 213,402 214,1153 215,123
216,6 220,51 222,24 223,15
224,157 225,34 226,86 227,33
228,258 229,48 230,87 231,17
234,4 236,242 237,41 238,81
239,16 240,8 241,8 242,13
243,4 248,99 249,14 250,6
252,50 253,8 254,210 255,27
256,59 257,8 262,6 265,53
266,96 267,36 268,33 269,4
270,99 271,991 272,132 273,332
274,38 275,7 282,4 283,20
284,82 285,18 286,31 287,4
297,21 298,6 300,8 301,588
302,313 303,234 304,100
##END=
