##TITLE=Triflupromazine
##JCAMP-DX=4.24
##DATA TYPE=MASS SPECTRUM
##ORIGIN=NIST Mass Spectrometry Data Center, 1990.
##OWNER=NIST Mass Spectrometry Data Center
Collection (C) 2014 copyright by the U.S. Secretary of Commerce
on behalf of the United States of America. All rights reserved.
##CAS REGISTRY NO=146-54-3
##$NIST MASS SPEC NO=113868
##MOLFORM=C18 H19 F3 N2 S
##MW=352
##$NIST SOURCE=MSDC
##XUNITS=M/Z
##YUNITS=RELATIVE INTENSITY
##XFACTOR=1
##YFACTOR=1
##FIRSTX=14
##LASTX=354
##FIRSTY=37
##MAXX=354
##MINX=14
##MAXY=9999
##MINY=19
##NPOINTS=154
##PEAK TABLE=(XY..XY)
14,37 15,38 28,370 29,126
30,443 32,75 39,125 40,43
41,180 42,931 43,266 44,511
45,188 50,63 51,95 55,38
56,209 58,9999 59,453 62,33
63,117 64,32 65,56 68,46
69,255 70,469 71,200 72,281
74,38 75,91 76,42 77,106
78,39 81,27 82,77 83,47
84,384 85,994 86,1719 87,119
89,50 91,35 93,41 94,34
95,73 96,34 99,23 101,36
102,29 107,35 108,95 109,53
113,29 117,22 120,33 121,20
123,19 124,25 125,30 126,51
127,34 128,24 130,30 132,37
134,55 139,69 140,41 145,40
151,37 152,88 153,95 154,36
157,68 158,34 164,64 165,35
166,35 169,49 170,56 171,41
172,29 175,34 176,54 177,51
178,44 179,36 182,46 183,38
184,76 188,33 189,34 194,30
195,56 196,252 197,169 198,76
201,61 202,141 203,70 204,34
206,27 208,37 209,30 212,27
213,39 214,48 215,67 216,72
220,39 221,35 222,187 223,92
224,31 225,26 226,42 227,33
228,76 233,59 234,121 235,157
236,39 238,53 239,51 240,48
245,22 246,81 247,228 248,569
249,79 260,32 261,35 262,74
265,68 266,776 267,719 268,136
269,38 272,29 274,42 278,74
279,34 280,238 281,150 282,28
291,75 292,122 293,102 294,67
306,1225 307,447 308,107 352,1554
353,337 354,114
##END=
