##TITLE=.alpha.,.alpha.,.alpha.,2-Tetrafluoro-m-tolunitrile
##JCAMP-DX=4.24
##DATA TYPE=MASS SPECTRUM
##ORIGIN=NIST Mass Spectrometry Data Center
##OWNER=NIST Mass Spectrometry Data Center
Collection (C) 2014 copyright by the U.S. Secretary of Commerce
on behalf of the United States of America. All rights reserved.
##CAS REGISTRY NO=146070-35-1
##$NIST MASS SPEC NO=342768
##MOLFORM=C8 H3 F4 N
##MW=189
##$NIST SOURCE=MSDC
##XUNITS=M/Z
##YUNITS=RELATIVE INTENSITY
##XFACTOR=1
##YFACTOR=1
##FIRSTX=16
##LASTX=191
##FIRSTY=10
##MAXX=191
##MINX=16
##MAXY=9999
##MINY=10
##NPOINTS=101
##PEAK TABLE=(XY..XY)
16,10 17,20 18,30 20,10
25,30 26,130 28,280 31,861
32,80 33,30 36,60 37,440
38,360 39,180 40,20 44,20
46,60 47,10 48,50 49,220
50,921 51,430 52,90 55,60
56,270 57,310 58,10 60,70
61,350 62,320 63,260 64,150
65,10 68,731 69,3003 70,140
72,60 73,180 74,370 75,1481
76,350 77,20 79,70 80,120
81,180 82,90 85,260 86,100
87,220 88,480 89,90 92,220
93,941 94,420 99,771 100,1311
101,170 102,10 103,30 104,20
105,70 106,90 110,10 111,60
112,470 113,210 114,10 117,100
118,150 119,300 120,631 121,40
123,70 124,120 125,40 126,10
130,10 132,10 137,60 139,4514
140,370 141,20 142,60 143,400
144,110 148,10 150,290 151,30
157,20 161,80 162,110 163,370
164,30 168,130 170,6586 171,591
172,20 188,2292 189,9999 190,931
191,40
##END=
