##TITLE=Agarospirol
##JCAMP-DX=4.24
##DATA TYPE=MASS SPECTRUM
##ORIGIN=NIST Mass Spectrometry Data Center
##OWNER=NIST Mass Spectrometry Data Center
Collection (C) 2014 copyright by the U.S. Secretary of Commerce
on behalf of the United States of America. All rights reserved.
##CAS REGISTRY NO=1460-73-7
##$NIST MASS SPEC NO=413182
##MOLFORM=C15 H26 O
##MW=222
##$NIST SOURCE=MSDC
##XUNITS=M/Z
##YUNITS=RELATIVE INTENSITY
##XFACTOR=1
##YFACTOR=1
##FIRSTX=27
##LASTX=222
##FIRSTY=330
##MAXX=222
##MINX=27
##MAXY=9999
##MINY=230
##NPOINTS=62
##PEAK TABLE=(XY..XY)
27,330 29,450 31,571 39,1081
40,270 41,2392 42,250 43,2823
45,360 53,1161 55,2532 59,9999
60,340 65,961 66,340 67,2282
68,470 69,1261 71,751 77,2522
79,3283 80,510 81,2552 82,611
83,520 91,4144 92,801 93,4754
94,1381 95,2923 96,651 97,390
103,390 105,4494 106,1121 107,5695
108,1651 109,1401 115,330 117,661
118,260 119,9268 120,2472 121,2893
122,2492 123,1772 133,1952 134,641
135,3904 136,1251 147,2833 148,601
149,2252 161,7807 162,3703 163,961
189,3403 190,440 204,3573 205,661
207,280 222,230
##END=
