##TITLE=Cadina-1(10),6,8-triene
##JCAMP-DX=4.24
##DATA TYPE=MASS SPECTRUM
##ORIGIN=D.HENNEBERG, MAX-PLANCK INSTITUTE, MULHEIM, WEST GERMANY
##OWNER=NIST Mass Spectrometry Data Center
Collection (C) 2014 copyright by the U.S. Secretary of Commerce
on behalf of the United States of America. All rights reserved.
##CAS REGISTRY NO=1460-96-4
##$NIST MASS SPEC NO=63804
##MOLFORM=C15 H22
##MW=202
##$NIST SOURCE=MSDC
##XUNITS=M/Z
##YUNITS=RELATIVE INTENSITY
##XFACTOR=1
##YFACTOR=1
##FIRSTX=26
##LASTX=204
##FIRSTY=113
##MAXX=204
##MINX=26
##MAXY=9999
##MINY=3
##NPOINTS=156
##PEAK TABLE=(XY..XY)
26,113 27,318 29,223 30,6
32,7 37,5 38,14 39,341
40,46 41,597 42,66 43,335
44,10 49,8 50,52 51,198
52,60 53,216 54,15 55,119
56,9 57,48 58,23 61,4
62,17 63,124 64,112 65,227
66,41 67,125 68,10 69,30
70,39 71,134 72,40 73,4
74,14 75,43 76,115 77,389
78,131 79,144 80,22 81,30
82,39 83,42 84,52 85,81
86,88 87,25 88,14 89,75
90,19 91,566 92,70 93,43
94,14 95,13 99,4 101,28
102,69 103,128 104,43 105,532
106,56 107,22 108,13 109,8
111,3 112,6 113,22 114,27
115,727 116,274 117,358 118,74
119,164 120,27 121,7 122,3
123,4 125,33 126,38 127,267
128,935 129,823 130,376 131,921
132,141 133,99 134,33 136,47
137,14 138,10 139,71 140,40
141,483 142,423 143,757 144,369
145,870 146,157 147,108 148,17
149,7 150,11 151,34 152,115
153,146 154,80 155,173 156,138
157,408 158,614 159,4516 160,787
161,75 162,8 163,9 164,6
165,55 166,17 167,24 168,11
169,29 170,21 171,124 172,128
173,205 174,50 175,12 176,8
177,8 178,12 179,10 180,7
181,8 182,9 183,15 184,16
185,66 186,82 187,9999 188,1567
189,126 190,9 191,3 196,4
197,5 198,4 199,6 200,15
201,61 202,3492 203,598 204,47
##END=
