##TITLE=Propane, 1,1,2-tribromo-
##JCAMP-DX=4.24
##DATA TYPE=MASS SPECTRUM
##ORIGIN=RADIAN CORP
##OWNER=NIST Mass Spectrometry Data Center
Collection (C) 2014 copyright by the U.S. Secretary of Commerce
on behalf of the United States of America. All rights reserved.
##CAS REGISTRY NO=14602-62-1
##$NIST MASS SPEC NO=73460
##MOLFORM=C3 H5 Br3
##MW=278
##$NIST SOURCE=MSDC
##XUNITS=M/Z
##YUNITS=RELATIVE INTENSITY
##XFACTOR=1
##YFACTOR=1
##FIRSTX=12
##LASTX=282
##FIRSTY=30
##MAXX=282
##MINX=12
##MAXY=9999
##MINY=20
##NPOINTS=53
##PEAK TABLE=(XY..XY)
12,30 13,90 14,140 15,540
24,30 25,190 26,730 27,1140
28,170 36,190 37,1150 38,2130
39,9999 40,770 41,3260 42,150
43,40 63,30 79,1320 80,400
81,1230 82,360 91,170 92,170
93,900 94,170 95,670 104,80
105,130 106,130 107,480 108,60
109,330 117,160 119,4220 120,230
121,3920 122,380 158,110 160,220
162,110 171,250 173,470 175,250
184,50 185,70 186,130 188,20
199,4240 201,5800 203,2520 280,50
282,80
##END=
