##TITLE=Benzene, 1,3,5-tri-tert-butyl-
##JCAMP-DX=4.24
##DATA TYPE=MASS SPECTRUM
##ORIGIN=NIST Mass Spectrometry Data Center, 1994
##OWNER=NIST Mass Spectrometry Data Center
Collection (C) 2014 copyright by the U.S. Secretary of Commerce
on behalf of the United States of America. All rights reserved.
##CAS REGISTRY NO=1460-02-2
##$NIST MASS SPEC NO=135817
##MOLFORM=C18 H30
##MW=246
##$NIST SOURCE=MSDC
##XUNITS=M/Z
##YUNITS=RELATIVE INTENSITY
##XFACTOR=1
##YFACTOR=1
##FIRSTX=4
##LASTX=248
##FIRSTY=4
##MAXX=248
##MINX=4
##MAXY=9999
##MINY=1
##NPOINTS=112
##PEAK TABLE=(XY..XY)
4,4 12,15 13,16 15,387
17,11 18,46 27,289 28,102
29,2502 30,36 32,6 39,550
41,4393 42,177 43,297 44,1
50,26 51,134 52,38 53,216
54,1 55,397 56,1 57,9999
58,499 63,83 64,123 65,214
66,72 67,72 69,90 71,134
72,74 75,40 76,81 77,371
78,133 79,249 80,99 81,30
82,19 83,34 84,31 85,32
86,70 89,61 91,740 92,66
93,88 94,367 100,133 101,32
102,71 103,121 104,47 105,293
106,35 107,32 108,428 115,511
116,178 117,350 118,57 119,260
120,29 127,154 128,471 129,394
130,127 131,364 132,70 133,87
139,34 141,205 142,150 143,157
144,104 145,147 146,30 147,109
151,15 152,54 153,65 154,41
155,72 156,50 157,69 159,249
160,52 161,56 165,25 169,21
170,17 171,40 173,120 174,35
175,298 176,33 185,26 187,25
189,71 201,58 203,195 204,34
215,112 216,34 231,9891 232,1920
233,175 246,1084 247,218 248,20
##END=
