##TITLE=N-tert-Butylmethylamine
##JCAMP-DX=4.24
##DATA TYPE=MASS SPECTRUM
##ORIGIN=Chuck Anderson, Aldrich Chemical Co.
##OWNER=NIST Mass Spectrometry Data Center
Collection (C) 2014 copyright by the U.S. Secretary of Commerce
on behalf of the United States of America. All rights reserved.
##CAS REGISTRY NO=14610-37-8
##$NIST MASS SPEC NO=108031
##MOLFORM=C5 H13 N
##MW=87
##$NIST SOURCE=MSDC
##XUNITS=M/Z
##YUNITS=RELATIVE INTENSITY
##XFACTOR=1
##YFACTOR=1
##FIRSTX=14
##LASTX=88
##FIRSTY=12
##MAXX=88
##MINX=14
##MAXY=9999
##MINY=1
##NPOINTS=45
##PEAK TABLE=(XY..XY)
14,12 15,119 16,1 18,9
25,1 26,49 27,283 28,394
29,430 30,867 31,50 32,448
33,9 34,9 37,19 38,61
39,521 40,116 41,1201 42,606
43,160 44,215 45,3 49,1
50,28 51,40 52,43 53,58
54,156 55,236 56,885 57,1468
58,79 68,19 69,14 70,570
71,618 72,9999 73,479 74,11
84,16 85,1 86,23 87,357
88,60
##END=
