##TITLE=1,2-Cyclobutanedicarboxylic acid, cis-
##JCAMP-DX=4.24
##DATA TYPE=MASS SPECTRUM
##OWNER=NIST Mass Spectrometry Data Center
Collection (C) 2014 copyright by the U.S. Secretary of Commerce
on behalf of the United States of America. All rights reserved.
##CAS REGISTRY NO=1461-94-5
##$NIST MASS SPEC NO=4154
##MOLFORM=C6 H8 O4
##MW=144
##$NIST SOURCE=MSDC
##XUNITS=M/Z
##YUNITS=RELATIVE INTENSITY
##XFACTOR=1
##YFACTOR=1
##FIRSTX=50
##LASTX=127
##FIRSTY=1143
##MAXX=127
##MINX=50
##MAXY=9999
##MINY=429
##NPOINTS=28
##PEAK TABLE=(XY..XY)
50,1143 51,1428 52,881 53,4999
54,9999 55,9428 56,2690 57,1833
58,1238 68,714 69,1024 70,1714
71,2143 72,1595 73,2904 74,524
80,667 81,2904 82,4047 83,857
97,1143 98,4047 99,3571 100,4166
101,643 108,429 126,3381 127,643
##END=
