##TITLE=Stannane, tributylchloro-
##JCAMP-DX=4.24
##DATA TYPE=MASS SPECTRUM
##ORIGIN=Japan AIST/NIMC Database- Spectrum MS-NW-4063
##OWNER=NIST Mass Spectrometry Data Center
Collection (C) 2014 copyright by the U.S. Secretary of Commerce
on behalf of the United States of America. All rights reserved.
##CAS REGISTRY NO=1461-22-9
##$NIST MASS SPEC NO=232062
##MOLFORM=C12 H27 Cl Sn
##MW=326
##$NIST SOURCE=MSDC
##XUNITS=M/Z
##YUNITS=RELATIVE INTENSITY
##XFACTOR=1
##YFACTOR=1
##FIRSTX=15
##LASTX=330
##FIRSTY=99
##MAXX=330
##MINX=15
##MAXY=9999
##MINY=10
##NPOINTS=243
##PEAK TABLE=(XY..XY)
15,99 25,20 26,239 27,1539
28,80 29,5569 30,129 31,20
35,20 36,139 37,30 38,60
39,939 40,119 41,4639 42,249
43,409 44,119 45,20 49,10
50,50 51,80 52,20 53,169
54,40 55,559 56,409 57,6559
58,329 59,20 67,10 68,10
69,50 70,40 71,289 72,30
79,20 81,10 82,10 83,30
84,10 85,40 95,10 97,10
98,20 99,20 105,10 109,10
111,10 112,20 113,70 114,10
115,40 116,219 117,789 118,649
119,1259 120,829 121,1569 122,99
123,309 124,80 125,289 126,10
127,30 129,10 130,20 131,80
132,70 133,129 134,80 135,149
136,10 137,30 138,10 139,30
141,20 142,10 143,50 144,30
145,119 146,60 147,199 148,50
149,179 150,30 151,1159 152,589
153,2129 154,829 155,3029 156,229
157,1109 158,10 159,569 161,159
163,10 164,10 165,20 166,10
167,30 168,20 169,119 170,30
171,119 172,70 173,1449 174,859
175,2669 176,1139 177,3629 178,389
179,1029 180,90 181,639 182,80
183,159 184,50 185,50 186,10
187,30 188,10 189,10 190,10
191,20 192,10 193,20 194,10
195,119 196,70 197,289 198,109
199,419 200,70 201,259 202,10
203,90 204,10 205,99 206,20
207,199 208,179 209,1249 210,849
211,2349 212,1079 213,2909 214,429
215,1119 216,109 217,519 218,40
219,139 220,10 223,10 225,10
226,10 227,20 228,10 229,30
230,109 231,259 232,279 233,429
234,359 235,419 236,80 237,80
238,60 239,80 240,10 241,10
242,10 243,10 244,10 245,20
246,10 247,30 248,10 249,30
250,10 251,40 252,20 253,129
254,99 255,299 256,159 257,409
258,99 259,249 260,30 261,269
262,40 263,279 264,129 265,3549
266,2219 267,7029 268,3229 269,9999
270,1539 271,3639 272,349 273,1739
274,179 275,479 276,50 283,20
285,10 286,10 287,229 288,149
289,389 290,189 291,479 292,70
293,80 294,10 295,90 296,20
303,10 305,30 307,254 308,166
309,511 310,259 311,709 312,149
313,269 314,40 315,139 316,20
317,40 318,10 322,50 323,39
324,101 325,52 326,139 327,30
328,50 329,10 330,30
##END=
