##TITLE=Acetamide, 2,2'-thiobis-
##JCAMP-DX=4.24
##DATA TYPE=MASS SPECTRUM
##ORIGIN=J.E. WILKINSON S-CUBED, SAN DIEGO, CA.
##OWNER=NIST Mass Spectrometry Data Center
Collection (C) 2014 copyright by the U.S. Secretary of Commerce
on behalf of the United States of America. All rights reserved.
##CAS REGISTRY NO=14618-65-6
##$NIST MASS SPEC NO=90818
##MOLFORM=C4 H8 N2 O2 S
##MW=148
##$NIST SOURCE=MSDC
##XUNITS=M/Z
##YUNITS=RELATIVE INTENSITY
##XFACTOR=1
##YFACTOR=1
##FIRSTX=41
##LASTX=148
##FIRSTY=818
##MAXX=148
##MINX=41
##MAXY=9999
##MINY=18
##NPOINTS=23
##PEAK TABLE=(XY..XY)
41,818 42,2127 43,1366 44,4899
45,1858 46,1288 47,1076 48,126
59,9999 60,559 61,233 62,50
86,79 87,68 90,43 103,574
104,18 105,201 130,86 131,3809
132,47 133,32 148,29
##END=
