##TITLE=4-Methoxybenzyl alcohol, TMS derivative
##JCAMP-DX=4.24
##DATA TYPE=MASS SPECTRUM
##ORIGIN=NIST Mass Spectrometry Data Center
##OWNER=NIST Mass Spectrometry Data Center
Collection (C) 2014 copyright by the U.S. Secretary of Commerce
on behalf of the United States of America. All rights reserved.
##CAS REGISTRY NO=14629-56-2
##$NIST MASS SPEC NO=365096
##MOLFORM=C11 H18 O2 Si
##MW=210
##$NIST SOURCE=MSDC
##XUNITS=M/Z
##YUNITS=RELATIVE INTENSITY
##XFACTOR=1
##YFACTOR=1
##FIRSTX=15
##LASTX=213
##FIRSTY=20
##MAXX=213
##MINX=15
##MAXY=9999
##MINY=10
##NPOINTS=114
##PEAK TABLE=(XY..XY)
15,20 26,10 27,20 28,20
29,40 30,10 31,20 38,10
39,110 40,10 41,50 42,20
43,160 44,60 45,480 46,40
47,90 49,10 50,70 51,220
52,170 53,70 54,10 55,50
56,10 57,30 58,70 59,170
60,20 61,40 62,30 63,130
64,50 65,160 66,40 67,30
68,20 69,10 70,10 71,10
72,20 73,1381 74,180 75,250
76,60 77,671 78,651 79,90
80,10 81,10 82,10 83,10
85,20 86,10 87,10 89,320
90,110 91,440 92,90 93,30
94,30 95,20 96,10 97,280
99,10 101,10 102,10 103,50
104,20 105,70 106,70 107,60
108,20 109,40 111,10 119,40
121,9999 122,901 123,60 131,10
133,30 134,20 135,250 136,60
137,30 147,20 148,10 149,60
150,30 151,50 152,10 161,10
163,70 164,20 165,300 166,50
167,10 177,10 179,530 180,260
181,50 182,10 193,40 194,10
195,1842 196,280 197,80 198,10
207,10 209,550 210,951 211,170
212,50 213,10
##END=
