##TITLE=Phenylethyl Alcohol, TMS derivative
##JCAMP-DX=4.24
##DATA TYPE=MASS SPECTRUM
##OWNER=NIST Mass Spectrometry Data Center
Collection (C) 2014 copyright by the U.S. Secretary of Commerce
on behalf of the United States of America. All rights reserved.
##CAS REGISTRY NO=14629-58-4
##$NIST MASS SPEC NO=8483
##MOLFORM=C11 H18 O Si
##MW=194
##$NIST SOURCE=MSDC
##XUNITS=M/Z
##YUNITS=RELATIVE INTENSITY
##XFACTOR=1
##YFACTOR=1
##FIRSTX=41
##LASTX=194
##FIRSTY=200
##MAXX=194
##MINX=41
##MAXY=9999
##MINY=80
##NPOINTS=52
##PEAK TABLE=(XY..XY)
41,200 42,100 43,881 44,430
45,1511 46,160 47,731 50,140
51,571 52,140 53,160 55,160
57,160 58,711 59,611 60,200
61,410 62,140 63,200 65,430
72,200 73,9999 74,901 75,3333
76,330 77,1021 78,290 79,550
88,330 89,200 90,80 91,801
92,180 102,100 103,7907 104,1121
105,2452 106,240 121,120 122,100
133,100 135,80 145,80 147,80
149,100 161,711 162,220 163,220
179,6536 180,1101 181,310 194,100
##END=
