##TITLE=2(1H)-Pyrimidinethione, 4,5-diamino-
##JCAMP-DX=4.24
##DATA TYPE=MASS SPECTRUM
##ORIGIN=Japan AIST/NIMC Database- Spectrum MS-IW-5553
##OWNER=NIST Mass Spectrometry Data Center
Collection (C) 2014 copyright by the U.S. Secretary of Commerce
on behalf of the United States of America. All rights reserved.
##CAS REGISTRY NO=14623-58-6
##$NIST MASS SPEC NO=242494
##MOLFORM=C4 H6 N4 S
##MW=142
##$NIST SOURCE=MSDC
##XUNITS=M/Z
##YUNITS=RELATIVE INTENSITY
##XFACTOR=1
##YFACTOR=1
##FIRSTX=12
##LASTX=145
##FIRSTY=10
##MAXX=145
##MINX=12
##MAXY=9999
##MINY=10
##NPOINTS=92
##PEAK TABLE=(XY..XY)
12,10 13,10 14,10 15,10
16,20 17,129 18,139 26,219
27,1869 28,1639 29,469 30,539
32,269 33,189 34,469 35,10
36,20 38,80 39,99 40,249
41,669 42,229 43,619 44,209
45,359 46,109 47,20 50,10
51,30 52,99 53,539 54,359
55,1249 56,1819 57,2129 58,139
59,439 60,549 61,60 62,30
64,30 65,40 66,219 67,129
68,70 69,10 70,509 71,459
72,439 73,189 74,20 75,10
76,30 77,10 78,10 79,10
80,10 81,70 82,399 83,899
84,1199 85,309 86,239 87,289
88,40 89,10 93,10 94,10
97,129 98,1359 99,409 100,129
101,20 108,40 109,70 110,40
111,10 113,20 114,179 115,50
116,10 124,30 125,8799 126,609
127,399 128,20 140,10 141,389
142,9999 143,799 144,469 145,30
##END=
