##TITLE=1-Butylcyclopentanol
##JCAMP-DX=4.24
##DATA TYPE=MASS SPECTRUM
##ORIGIN=NIST Mass Spectrometry Data Center, 1990.
##OWNER=NIST Mass Spectrometry Data Center
Collection (C) 2014 copyright by the U.S. Secretary of Commerce
on behalf of the United States of America. All rights reserved.
##CAS REGISTRY NO=1462-97-1
##$NIST MASS SPEC NO=113722
##MOLFORM=C9 H18 O
##MW=142
##$NIST SOURCE=MSDC
##XUNITS=M/Z
##YUNITS=RELATIVE INTENSITY
##XFACTOR=1
##YFACTOR=1
##FIRSTX=26
##LASTX=142
##FIRSTY=279
##MAXX=142
##MINX=26
##MAXY=9999
##MINY=188
##NPOINTS=42
##PEAK TABLE=(XY..XY)
26,279 27,2461 28,1523 29,3077
31,472 39,2184 40,512 41,4613
42,786 43,3506 44,273 45,198
51,334 53,1265 54,415 55,2263
56,698 57,5270 58,3672 59,414
65,473 67,7358 68,639 69,596
71,1168 72,873 77,529 79,852
81,776 82,1082 83,672 85,9999
86,571 93,261 95,1809 96,188
100,2108 101,206 113,4241 114,311
124,718 142,228
##END=
