##TITLE=1-Butanone, 1-cyclohexyl-
##JCAMP-DX=4.24
##DATA TYPE=MASS SPECTRUM
##ORIGIN=NIST Mass Spectrometry Data Center, 1990.
##OWNER=NIST Mass Spectrometry Data Center
Collection (C) 2014 copyright by the U.S. Secretary of Commerce
on behalf of the United States of America. All rights reserved.
##CAS REGISTRY NO=1462-27-7
##$NIST MASS SPEC NO=113016
##MOLFORM=C10 H18 O
##MW=154
##$NIST SOURCE=MSDC
##XUNITS=M/Z
##YUNITS=RELATIVE INTENSITY
##XFACTOR=1
##YFACTOR=1
##FIRSTX=15
##LASTX=155
##FIRSTY=115
##MAXX=155
##MINX=15
##MAXY=9999
##MINY=47
##NPOINTS=48
##PEAK TABLE=(XY..XY)
15,115 26,211 27,2181 28,324
29,1118 31,57 39,1909 40,455
41,4225 42,720 43,4569 44,183
50,73 51,188 52,117 53,566
54,760 55,7503 56,347 57,168
58,120 65,134 67,1042 68,226
69,197 70,493 71,3864 72,176
73,55 77,172 78,51 79,233
80,60 81,249 82,51 83,9999
84,678 86,78 91,47 93,54
98,67 99,496 111,2234 112,209
113,81 139,54 154,1409 155,149
##END=
