##TITLE=Cyclopentene, 1-(1-methylethyl)-
##JCAMP-DX=4.24
##DATA TYPE=MASS SPECTRUM
##ORIGIN=D.HENNEBERG, MAX-PLANCK INSTITUTE, MULHEIM, WEST GERMANY
##OWNER=NIST Mass Spectrometry Data Center
Collection (C) 2014 copyright by the U.S. Secretary of Commerce
on behalf of the United States of America. All rights reserved.
##CAS REGISTRY NO=1462-07-3
##$NIST MASS SPEC NO=61655
##MOLFORM=C8 H14
##MW=110
##$NIST SOURCE=MSDC
##XUNITS=M/Z
##YUNITS=RELATIVE INTENSITY
##XFACTOR=1
##YFACTOR=1
##FIRSTX=26
##LASTX=111
##FIRSTY=58
##MAXX=111
##MINX=26
##MAXY=9999
##MINY=16
##NPOINTS=52
##PEAK TABLE=(XY..XY)
26,58 27,1226 28,241 29,373
37,56 38,125 39,1952 40,204
41,2933 42,204 43,549 44,84
45,82 46,61 47,18 50,135
51,420 52,198 53,800 54,285
55,1232 56,206 61,22 62,75
63,181 64,48 65,690 66,1682
67,9999 68,1590 69,1828 70,82
75,24 76,16 77,671 78,170
79,592 80,217 81,1247 82,568
83,43 89,30 91,414 92,52
93,553 94,88 95,5936 96,493
108,22 109,181 110,2823 111,253
##END=
