##TITLE=2,8-Dimethylquinoline
##JCAMP-DX=4.24
##DATA TYPE=MASS SPECTRUM
##ORIGIN=NIST Mass Spectrometry Data Center, 1994
##OWNER=NIST Mass Spectrometry Data Center
Collection (C) 2014 copyright by the U.S. Secretary of Commerce
on behalf of the United States of America. All rights reserved.
##CAS REGISTRY NO=1463-17-8
##$NIST MASS SPEC NO=135976
##MOLFORM=C11 H11 N
##MW=157
##$NIST SOURCE=MSDC
##XUNITS=M/Z
##YUNITS=RELATIVE INTENSITY
##XFACTOR=1
##YFACTOR=1
##FIRSTX=14
##LASTX=159
##FIRSTY=35
##MAXX=159
##MINX=14
##MAXY=9999
##MINY=13
##NPOINTS=80
##PEAK TABLE=(XY..XY)
14,35 15,257 17,24 18,68
26,202 27,666 28,250 37,124
38,315 39,1262 40,159 41,162
42,180 49,39 50,703 51,1111
52,451 53,181 54,38 56,16
58,97 61,147 62,512 63,1286
64,516 65,805 67,15 71,145
73,52 74,331 75,454 76,414
77,937 78,497 80,17 85,55
86,159 87,256 88,248 89,834
90,168 91,97 92,26 98,69
99,74 100,71 101,148 102,292
103,254 104,137 110,21 111,15
112,19 113,254 114,321 115,1457
116,512 117,156 118,69 125,26
126,188 127,617 128,790 129,581
130,594 131,367 132,33 140,403
141,572 142,1572 143,188 144,13
152,42 153,95 154,600 155,13
156,4227 157,9999 158,1266 159,72
##END=
