##TITLE=Cyclopropyl phenyl sulphide
##JCAMP-DX=4.24
##DATA TYPE=MASS SPECTRUM
##ORIGIN=NIST Mass Spectrometry Data Center, 1990.
##OWNER=NIST Mass Spectrometry Data Center
Collection (C) 2014 copyright by the U.S. Secretary of Commerce
on behalf of the United States of America. All rights reserved.
##CAS REGISTRY NO=14633-54-6
##$NIST MASS SPEC NO=114821
##MOLFORM=C9 H10 S
##MW=150
##$NIST SOURCE=MSDC
##XUNITS=M/Z
##YUNITS=RELATIVE INTENSITY
##XFACTOR=1
##YFACTOR=1
##FIRSTX=14
##LASTX=152
##FIRSTY=136
##MAXX=152
##MINX=14
##MAXY=9999
##MINY=97
##NPOINTS=70
##PEAK TABLE=(XY..XY)
14,136 26,166 27,432 37,253
38,772 39,3968 40,372 41,2707
42,119 45,2781 46,137 47,266
49,134 50,1530 51,3474 52,361
57,382 58,575 59,681 61,164
62,272 63,785 64,134 65,3560
66,1425 69,1866 70,244 71,1107
72,1429 73,990 74,971 75,456
76,314 77,2383 78,1488 79,400
81,270 82,544 83,281 84,600
89,237 91,3100 92,298 93,135
103,307 104,397 105,2063 106,211
107,135 108,717 109,3237 110,1513
111,271 112,97 115,2714 116,1696
117,9999 118,958 121,1646 122,331
123,401 134,1335 135,6107 136,659
137,321 147,338 149,3437 150,5480
151,743 152,285
##END=
