##TITLE=Bis(trimethylsilyl)acetylene
##JCAMP-DX=4.24
##DATA TYPE=MASS SPECTRUM
##ORIGIN=D.HENNEBERG, MAX-PLANCK INSTITUTE, MULHEIM, WEST GERMANY
##OWNER=NIST Mass Spectrometry Data Center
Collection (C) 2014 copyright by the U.S. Secretary of Commerce
on behalf of the United States of America. All rights reserved.
##CAS REGISTRY NO=14630-40-1
##$NIST MASS SPEC NO=63230
##MOLFORM=C8 H18 Si2
##MW=170
##$NIST SOURCE=MSDC
##XUNITS=M/Z
##YUNITS=RELATIVE INTENSITY
##XFACTOR=1
##YFACTOR=1
##FIRSTX=27
##LASTX=173
##FIRSTY=53
##MAXX=173
##MINX=27
##MAXY=9999
##MINY=3
##NPOINTS=115
##PEAK TABLE=(XY..XY)
27,53 28,126 29,99 30,7
31,66 32,13 36,6 39,23
40,52 41,47 42,34 43,685
44,101 45,684 46,41 47,25
48,5 49,29 50,10 51,17
52,28 53,202 54,35 55,263
56,294 57,103 58,59 59,276
60,21 61,17 62,6 63,74
64,4 65,10 66,141 67,294
68,47 69,215 70,983 71,118
72,36 73,2003 74,159 75,89
76,6 77,10 78,13 79,27
80,28 81,160 82,32 83,478
84,62 85,94 86,19 87,17
88,4 91,5 92,9 93,50
94,22 95,107 96,73 97,630
98,70 99,154 100,23 101,22
102,6 103,15 104,5 105,11
107,12 108,6 109,69 110,43
111,47 112,13 113,28 114,7
115,20 116,4 117,10 119,8
123,41 124,7 125,222 126,35
127,29 128,3 129,28 130,6
131,39 132,6 133,20 137,4
139,185 140,76 141,56 142,11
143,4 151,3 153,17 154,25
155,9999 156,1779 157,793 158,82
159,18 161,3 169,6 170,834
171,161 172,65 173,11
##END=
