##TITLE=Benzyl alcohol, TMS derivative
##JCAMP-DX=4.24
##DATA TYPE=MASS SPECTRUM
##ORIGIN=NIST Mass Spectrometry Data Center
##OWNER=NIST Mass Spectrometry Data Center
Collection (C) 2014 copyright by the U.S. Secretary of Commerce
on behalf of the United States of America. All rights reserved.
##CAS REGISTRY NO=14642-79-6
##$NIST MASS SPEC NO=352476
##MOLFORM=C10 H16 O Si
##MW=180
##$NIST SOURCE=MSDC
##XUNITS=M/Z
##YUNITS=RELATIVE INTENSITY
##XFACTOR=1
##YFACTOR=1
##FIRSTX=15
##LASTX=183
##FIRSTY=10
##MAXX=183
##MINX=15
##MAXY=9999
##MINY=10
##NPOINTS=104
##PEAK TABLE=(XY..XY)
15,10 26,10 27,30 28,10
29,50 30,10 31,20 37,10
38,30 39,260 40,20 41,70
42,40 43,330 44,80 45,631
46,50 47,130 48,10 49,10
50,110 51,340 52,80 53,80
54,10 55,60 56,20 57,60
58,280 59,370 60,60 61,70
62,80 63,320 64,90 65,1611
66,100 67,30 68,20 69,20
70,10 71,20 72,40 73,1411
74,300 75,340 76,50 77,460
78,110 79,320 80,20 81,20
82,340 85,20 86,10 87,20
88,10 89,430 91,9188 92,771
93,50 95,20 102,20 103,70
104,80 105,300 106,50 107,50
108,10 109,20 115,10 117,10
119,50 120,10 121,100 122,10
123,10 131,30 132,10 133,50
135,7497 136,1081 137,340 138,20
145,30 146,10 147,80 148,30
149,350 150,80 151,20 161,10
162,10 163,170 165,9999 166,1621
167,490 168,40 177,10 179,320
180,1461 181,250 182,70 183,10
##END=
