##TITLE=Iron, tetracarbonyl(triphenylphosphine)-
##JCAMP-DX=4.24
##DATA TYPE=MASS SPECTRUM
##ORIGIN=D.HENNEBERG, MAX-PLANCK INSTITUTE, MULHEIM, WEST GERMANY
##OWNER=NIST Mass Spectrometry Data Center
Collection (C) 2014 copyright by the U.S. Secretary of Commerce
on behalf of the United States of America. All rights reserved.
##CAS REGISTRY NO=14649-69-5
##$NIST MASS SPEC NO=63957
##MOLFORM=C22 H15 Fe O4 P
##MW=430
##$NIST SOURCE=MSDC
##XUNITS=M/Z
##YUNITS=RELATIVE INTENSITY
##XFACTOR=1
##YFACTOR=1
##FIRSTX=26
##LASTX=432
##FIRSTY=64
##MAXX=432
##MINX=26
##MAXY=9999
##MINY=1
##NPOINTS=275
##PEAK TABLE=(XY..XY)
26,64 28,4029 29,38 30,6
37,17 38,26 39,220 40,15
41,20 44,1 45,6 49,13
50,130 51,407 52,118 53,9
54,106 56,9588 57,194 58,8
61,3 62,21 63,124 64,34
65,111 66,6 67,3 68,13
69,31 70,6 73,5 74,44
75,38 76,98 77,266 78,395
79,20 80,38 81,264 82,74
83,79 84,134 85,11 86,5
87,52 88,15 89,51 90,8
91,42 92,12 93,21 94,44
95,31 98,6 99,28 100,18
101,15 102,58 103,10 104,11
105,44 106,70 107,1124 108,1461
109,136 110,12 111,18 112,129
113,30 114,18 115,239 116,31
117,8 118,18 119,15 120,70
121,22 122,6 123,5 124,38
125,16 127,9 128,99 129,31
130,19 131,104 132,155 133,619
134,123 135,21 136,31 137,33
138,171 139,115 140,40 141,104
142,24 143,7 144,30 145,16
146,23 147,4 149,7 150,23
151,89 152,557 153,313 154,432
155,67 156,11 157,235 158,81
159,581 160,34 161,8 162,189
163,72 164,1537 165,140 166,15
167,3 168,11 169,14 170,145
171,29 172,14 175,5 176,22
177,8 178,15 179,12 180,26
181,149 182,135 183,4086 184,1197
185,496 186,61 187,57 188,25
189,20 190,15 191,5 192,4
194,9 195,5 196,19 197,9
198,6 199,4 200,10 201,7
202,16 203,7 204,4 207,19
208,20 209,120 210,98 211,14
212,18 213,8 214,19 215,21
216,11 218,5 220,9 221,3
225,3 226,25 227,14 228,36
229,18 230,34 231,12 232,6
233,18 234,10 235,6 236,7
237,24 238,130 239,310 240,1287
241,204 242,23 244,7 245,5
246,3 252,6 253,3 254,3
255,5 256,3 257,40 258,25
259,69 260,109 261,460 262,2979
263,600 264,64 265,5 273,3
274,3 277,14 278,7 285,4
286,8 290,12 291,8 299,3
303,1 309,4 310,6 312,9
313,13 314,50 315,61 316,731
317,291 318,9999 319,2195 320,319
321,43 322,9 323,5 324,4
328,3 331,3 332,9 333,7
335,3 337,32 338,13 339,7
340,5 341,5 342,5 343,13
344,82 345,37 346,1362 347,330
348,65 349,20 350,5 351,4
360,4 367,3 368,3 371,10
372,47 373,18 374,630 375,167
376,40 377,10 378,4 382,4
392,3 393,3 394,18 395,7
400,34 401,15 402,476 403,119
404,20 422,5 428,15 429,7
430,244 431,63 432,13
##END=
