##TITLE=Cobalt, tetracarbonylsilyl-
##JCAMP-DX=4.24
##DATA TYPE=MASS SPECTRUM
##OWNER=NIST Mass Spectrometry Data Center
Collection (C) 2014 copyright by the U.S. Secretary of Commerce
on behalf of the United States of America. All rights reserved.
##CAS REGISTRY NO=14652-62-1
##$NIST MASS SPEC NO=30080
##MOLFORM=C4 H3 Co O4 Si
##MW=202
##$NIST SOURCE=MSDC
##XUNITS=M/Z
##YUNITS=RELATIVE INTENSITY
##XFACTOR=1
##YFACTOR=1
##FIRSTX=28
##LASTX=202
##FIRSTY=9999
##MAXX=202
##MINX=28
##MAXY=9999
##MINY=10
##NPOINTS=27
##PEAK TABLE=(XY..XY)
28,9999 29,1700 30,700 31,1200
44,200 45,200 59,2000 60,100
73,500 74,300 75,900 76,500
77,1200 78,300 79,100 87,1000
88,400 89,100 90,300 115,400
116,200 118,200 143,100 146,50
171,30 174,50 202,10
##END=
