##TITLE=Cyanamide, dimethyl-
##JCAMP-DX=4.24
##DATA TYPE=MASS SPECTRUM
##ORIGIN=NIST Mass Spectrometry Data Center, 1998.
##OWNER=NIST Mass Spectrometry Data Center
Collection (C) 2014 copyright by the U.S. Secretary of Commerce
on behalf of the United States of America. All rights reserved.
##CAS REGISTRY NO=1467-79-4
##$NIST MASS SPEC NO=290893
##MOLFORM=C3 H6 N2
##MW=70
##$NIST SOURCE=MSDC
##XUNITS=M/Z
##YUNITS=RELATIVE INTENSITY
##XFACTOR=1
##YFACTOR=1
##FIRSTX=12
##LASTX=71
##FIRSTY=10
##MAXX=71
##MINX=12
##MAXY=9999
##MINY=10
##NPOINTS=31
##PEAK TABLE=(XY..XY)
12,10 13,10 14,60 15,450
16,10 24,10 25,30 26,90
27,280 28,770 29,50 30,30
38,130 39,170 40,500 41,600
42,3300 43,280 44,40 51,10
52,80 53,1960 54,270 55,240
56,10 66,20 67,270 68,80
69,9999 70,5599 71,240
##END=
