##TITLE=Heptane, 3-ethyl-2-methyl-
##JCAMP-DX=4.24
##DATA TYPE=MASS SPECTRUM
##ORIGIN=NIST Mass Spectrometry Data Center, 1990.
##OWNER=NIST Mass Spectrometry Data Center
Collection (C) 2014 copyright by the U.S. Secretary of Commerce
on behalf of the United States of America. All rights reserved.
##CAS REGISTRY NO=14676-29-0
##$NIST MASS SPEC NO=114161
##MOLFORM=C10 H22
##MW=142
##$NIST SOURCE=MSDC
##XUNITS=M/Z
##YUNITS=RELATIVE INTENSITY
##XFACTOR=1
##YFACTOR=1
##FIRSTX=14
##LASTX=142
##FIRSTY=66
##MAXX=142
##MINX=14
##MAXY=9999
##MINY=29
##NPOINTS=42
##PEAK TABLE=(XY..XY)
14,66 15,44 16,40 27,1198
28,102 29,1279 30,29 39,1321
41,4825 42,1141 43,4509 44,194
50,43 51,125 52,77 53,566
54,286 55,2112 56,2594 57,9999
58,447 65,121 66,35 67,278
68,199 69,1559 70,1542 71,1584
72,95 77,81 79,65 81,35
83,293 84,348 85,906 86,56
98,4722 99,638 100,36 112,167
113,266 142,145
##END=
