##TITLE=9-Anthracenemethanol
##JCAMP-DX=4.24
##DATA TYPE=MASS SPECTRUM
##ORIGIN=NIST Mass Spectrometry Data Center, 1990.
##OWNER=NIST Mass Spectrometry Data Center
Collection (C) 2014 copyright by the U.S. Secretary of Commerce
on behalf of the United States of America. All rights reserved.
##CAS REGISTRY NO=1468-95-7
##$NIST MASS SPEC NO=113350
##MOLFORM=C15 H12 O
##MW=208
##$NIST SOURCE=MSDC
##XUNITS=M/Z
##YUNITS=RELATIVE INTENSITY
##XFACTOR=1
##YFACTOR=1
##FIRSTX=28
##LASTX=209
##FIRSTY=288
##MAXX=209
##MINX=28
##MAXY=9999
##MINY=75
##NPOINTS=68
##PEAK TABLE=(XY..XY)
28,288 29,306 31,144 39,187
50,248 51,308 62,271 63,581
70,107 74,464 75,611 76,864
77,225 82,271 83,247 86,302
87,511 88,871 89,932 90,299
95,961 98,292 99,214 100,117
101,103 102,107 103,75 110,139
111,143 113,118 115,157 123,77
125,87 126,241 127,114 128,111
137,101 139,254 149,168 150,816
151,925 152,917 153,138 162,112
163,378 164,211 165,961 166,142
174,294 175,352 176,2103 177,1224
178,5494 179,9999 180,1678 181,139
187,296 188,242 189,1715 190,694
191,2721 192,818 193,132 205,234
206,312 207,371 208,3628 209,616
##END=
