##TITLE=2-Methylbutanoic anhydride
##JCAMP-DX=4.24
##DATA TYPE=MASS SPECTRUM
##ORIGIN=NIST Mass Spectrometry Data Center, 1994
##OWNER=NIST Mass Spectrometry Data Center
Collection (C) 2014 copyright by the U.S. Secretary of Commerce
on behalf of the United States of America. All rights reserved.
##CAS REGISTRY NO=1468-39-9
##$NIST MASS SPEC NO=133456
##MOLFORM=C10 H18 O3
##MW=186
##$NIST SOURCE=MSDC
##XUNITS=M/Z
##YUNITS=RELATIVE INTENSITY
##XFACTOR=1
##YFACTOR=1
##FIRSTX=14
##LASTX=129
##FIRSTY=9
##MAXX=129
##MINX=14
##MAXY=9999
##MINY=6
##NPOINTS=36
##PEAK TABLE=(XY..XY)
14,9 15,99 27,642 28,154
29,937 30,25 31,20 32,6
37,14 39,818 41,2193 42,832
43,913 44,44 45,66 50,19
51,26 52,10 53,57 54,22
55,176 56,10 57,4339 58,206
59,66 60,40 61,11 69,222
70,9 83,38 85,9999 86,500
87,47 100,7 103,36 129,11
##END=
