##TITLE=Ethanone, 1-(3-thienyl)-
##JCAMP-DX=4.24
##DATA TYPE=MASS SPECTRUM
##ORIGIN=Japan AIST/NIMC Database- Spectrum MS-NW-8675
##OWNER=NIST Mass Spectrometry Data Center
Collection (C) 2014 copyright by the U.S. Secretary of Commerce
on behalf of the United States of America. All rights reserved.
##CAS REGISTRY NO=1468-83-3
##$NIST MASS SPEC NO=236670
##MOLFORM=C6 H6 O S
##MW=126
##$NIST SOURCE=MSDC
##XUNITS=M/Z
##YUNITS=RELATIVE INTENSITY
##XFACTOR=1
##YFACTOR=1
##FIRSTX=14
##LASTX=129
##FIRSTY=30
##MAXX=129
##MINX=14
##MAXY=9999
##MINY=10
##NPOINTS=63
##PEAK TABLE=(XY..XY)
14,30 15,229 25,10 26,30
27,50 28,39 29,10 37,129
38,259 39,2209 40,80 41,20
42,90 43,1539 44,90 45,699
46,20 47,40 48,10 49,70
50,179 51,109 52,20 53,119
55,119 56,30 57,239 58,199
59,20 60,10 61,30 62,30
63,40 65,20 66,10 68,20
69,129 70,20 71,20 74,10
76,10 80,20 81,229 82,259
83,2309 84,279 85,119 86,10
93,20 95,10 97,80 98,10
109,10 110,10 111,9999 112,619
113,479 114,20 124,25 126,3989
127,299 128,189 129,10
##END=
