##TITLE=Dihydromorphinone acetate
##JCAMP-DX=4.24
##DATA TYPE=MASS SPECTRUM
##ORIGIN=NIST Mass Spectrometry Data Center
##OWNER=NIST Mass Spectrometry Data Center
Collection (C) 2014 copyright by the U.S. Secretary of Commerce
on behalf of the United States of America. All rights reserved.
##CAS REGISTRY NO=14696-22-1
##$NIST MASS SPEC NO=353229
##MOLFORM=C19 H21 N O4
##MW=327
##$NIST SOURCE=MSDC
##XUNITS=M/Z
##YUNITS=RELATIVE INTENSITY
##XFACTOR=1
##YFACTOR=1
##FIRSTX=14
##LASTX=330
##FIRSTY=120
##MAXX=330
##MINX=14
##MAXY=9999
##MINY=10
##NPOINTS=241
##PEAK TABLE=(XY..XY)
14,120 15,821 20,30 26,60
27,360 28,621 29,220 30,440
31,490 39,510 40,140 41,681
42,4594 43,7417 44,1912 45,140
50,120 51,410 52,150 53,410
54,230 55,1271 56,380 57,1421
58,1722 59,1892 60,601 61,20
62,70 63,410 64,130 65,510
66,170 67,290 68,621 69,230
70,1882 71,190 72,80 73,20
74,80 75,170 76,180 77,1051
78,340 79,270 80,200 81,390
82,1812 83,691 84,731 85,70
86,50 87,100 88,110 89,530
90,120 91,1001 92,190 93,170
94,691 95,190 96,3333 97,290
98,130 99,30 100,40 101,140
102,470 103,520 104,170 105,190
106,180 107,390 108,300 109,120
110,150 111,120 112,120 113,170
114,340 115,3343 116,671 117,611
118,270 119,150 120,320 121,120
122,190 123,130 124,370 125,60
126,170 127,1111 128,2272 129,741
130,300 131,791 132,380 133,160
134,561 135,120 136,160 137,100
138,30 139,360 140,160 141,891
142,360 143,470 144,901 145,601
146,300 147,310 148,250 149,80
150,50 151,130 152,520 153,681
154,310 155,520 156,300 157,861
158,400 159,320 160,310 161,791
162,781 163,390 164,200 165,290
166,110 167,210 168,360 169,520
170,500 171,1912 172,621 173,781
174,891 175,270 176,180 177,50
178,30 179,60 180,80 181,440
182,310 183,360 184,1011 185,1031
186,751 187,460 188,290 189,130
190,50 192,20 193,20 194,50
195,90 196,290 197,320 198,1031
199,951 200,1641 201,460 202,350
203,410 204,80 205,10 206,10
208,40 209,60 210,110 211,290
212,310 213,340 214,2012 215,530
216,520 217,60 218,10 222,10
223,30 224,100 225,110 226,781
227,430 228,3633 229,3533 230,771
231,120 232,20 234,10 236,20
237,30 238,60 239,80 240,300
241,110 242,1201 243,350 244,50
245,20 247,10 250,20 252,20
253,40 254,90 255,40 256,1151
257,641 258,140 259,10 266,50
267,20 268,190 269,90 270,370
271,310 272,30 273,10 282,50
283,160 284,1411 285,9999 286,1802
287,210 288,20 298,50 299,20
311,10 312,20 313,10 325,50
326,120 327,2442 328,591 329,110
330,10
##END=
