##TITLE=4-Acetamido-2,2,6,6-tetramethylpiperidinyloxy
##JCAMP-DX=4.24
##DATA TYPE=MASS SPECTRUM
##ORIGIN=NIST Mass Spectrometry Data Center, 1990.
##OWNER=NIST Mass Spectrometry Data Center
Collection (C) 2014 copyright by the U.S. Secretary of Commerce
on behalf of the United States of America. All rights reserved.
##CAS REGISTRY NO=14691-89-5
##$NIST MASS SPEC NO=118420
##MOLFORM=C11 H21 N2 O2
##MW=213
##$NIST SOURCE=MSDC
##XUNITS=M/Z
##YUNITS=RELATIVE INTENSITY
##XFACTOR=1
##YFACTOR=1
##FIRSTX=15
##LASTX=214
##FIRSTY=497
##MAXX=214
##MINX=15
##MAXY=9999
##MINY=70
##NPOINTS=81
##PEAK TABLE=(XY..XY)
15,497 27,651 28,790 29,1102
30,807 38,100 39,933 40,459
41,3401 42,2693 43,5166 44,974
51,141 52,118 53,436 54,272
55,1236 56,1277 57,1323 58,1558
59,175 60,1390 65,187 67,1378
68,1627 69,677 70,4158 71,413
72,1090 73,113 74,276 77,180
79,331 80,241 81,845 82,1154
83,690 84,4933 85,1771 86,340
91,175 93,116 94,151 95,339
96,279 97,543 98,1330 99,274
101,173 107,772 108,544 109,4402
110,521 111,151 112,1901 113,146
121,93 122,727 124,9999 125,1102
126,560 127,4673 128,463 136,108
137,95 138,248 139,1222 140,1486
141,195 142,96 154,1371 155,173
167,70 181,199 183,1619 184,236
197,93 198,363 200,80 213,711
214,137
##END=
