##TITLE=1H-Isoindole-1,3(2H)-dione, 3a,4,7,7a-tetrahydro-, cis-
##JCAMP-DX=4.24
##DATA TYPE=MASS SPECTRUM
##ORIGIN=Japan AIST/NIMC Database- Spectrum MS-NW-8253
##OWNER=NIST Mass Spectrometry Data Center
Collection (C) 2014 copyright by the U.S. Secretary of Commerce
on behalf of the United States of America. All rights reserved.
##CAS REGISTRY NO=1469-48-3
##$NIST MASS SPEC NO=236189
##MOLFORM=C8 H9 N O2
##MW=151
##$NIST SOURCE=MSDC
##XUNITS=M/Z
##YUNITS=RELATIVE INTENSITY
##XFACTOR=1
##YFACTOR=1
##FIRSTX=15
##LASTX=153
##FIRSTY=20
##MAXX=153
##MINX=15
##MAXY=9999
##MINY=10
##NPOINTS=81
##PEAK TABLE=(XY..XY)
15,20 16,10 26,239 27,919
28,359 29,50 30,30 37,70
38,229 39,1469 40,309 41,299
42,40 43,90 44,309 45,219
46,40 49,40 50,449 51,879
52,659 53,569 54,549 55,109
56,20 57,20 61,20 62,40
63,129 64,30 65,289 66,179
67,90 68,50 69,30 70,179
71,10 73,10 74,70 75,40
76,50 77,1749 78,1659 79,9269
80,6739 81,529 82,50 83,30
86,30 90,30 91,10 92,20
93,60 94,119 95,90 96,449
97,50 98,30 99,20 104,80
105,369 106,519 107,519 108,469
109,60 110,10 111,10 122,1309
123,1659 124,429 125,30 132,10
133,50 134,99 135,10 136,289
137,20 150,189 151,9999 152,1029
153,99
##END=
