##TITLE=Carbonic acid, ethyl 2-propenyl ester
##JCAMP-DX=4.24
##DATA TYPE=MASS SPECTRUM
##ORIGIN=Japan AIST/NIMC Database- Spectrum MS-IW-4049
##OWNER=NIST Mass Spectrometry Data Center
Collection (C) 2014 copyright by the U.S. Secretary of Commerce
on behalf of the United States of America. All rights reserved.
##CAS REGISTRY NO=1469-70-1
##$NIST MASS SPEC NO=237214
##MOLFORM=C6 H10 O3
##MW=130
##$NIST SOURCE=MSDC
##XUNITS=M/Z
##YUNITS=RELATIVE INTENSITY
##XFACTOR=1
##YFACTOR=1
##FIRSTX=14
##LASTX=131
##FIRSTY=40
##MAXX=131
##MINX=14
##MAXY=9999
##MINY=10
##NPOINTS=48
##PEAK TABLE=(XY..XY)
14,40 15,269 16,10 18,20
25,10 26,309 27,1919 28,1339
29,7489 30,1559 31,1029 32,30
37,50 38,179 39,2369 40,1509
41,8279 42,529 43,429 44,339
45,1089 46,40 47,40 53,20
55,219 56,119 57,9309 58,9999
59,529 60,30 63,1089 64,10
67,50 68,50 69,10 71,20
73,50 75,10 81,10 84,329
85,30 86,10 91,229 101,30
102,189 103,50 130,50 131,90
##END=
