##TITLE=Carbamodithioic acid, diethyl-
##JCAMP-DX=4.24
##DATA TYPE=MASS SPECTRUM
##ORIGIN=Insect Chem. Ecol. Lab., USDA, Beltsville, MD 20705
##OWNER=NIST Mass Spectrometry Data Center
Collection (C) 2014 copyright by the U.S. Secretary of Commerce
on behalf of the United States of America. All rights reserved.
##CAS REGISTRY NO=147-84-2
##$NIST MASS SPEC NO=131969
##MOLFORM=C5 H11 N S2
##MW=149
##$NIST SOURCE=MSDC
##XUNITS=M/Z
##YUNITS=RELATIVE INTENSITY
##XFACTOR=1
##YFACTOR=1
##FIRSTX=41
##LASTX=152
##FIRSTY=375
##MAXX=152
##MINX=41
##MAXY=9999
##MINY=6
##NPOINTS=91
##PEAK TABLE=(XY..XY)
41,375 42,1121 43,372 44,4724
45,935 46,453 47,185 48,32
49,22 50,12 51,33 52,32
53,28 54,192 55,181 56,981
57,244 58,2864 59,918 60,6291
61,433 62,301 63,27 64,144
65,33 66,28 67,41 68,46
69,105 70,198 71,162 72,1328
73,945 74,149 75,35 76,3360
77,612 78,405 79,117 80,29
81,44 82,35 83,56 84,151
85,63 86,815 87,298 88,6903
89,335 90,371 91,333 92,83
93,63 94,16 95,41 96,25
97,44 98,26 99,17 100,25
101,36 102,22 103,23 104,60
105,54 106,16 107,24 108,6
109,31 110,21 111,34 112,17
113,13 114,92 115,50 116,9999
117,1080 118,584 119,132 120,35
121,21 122,12 134,20 135,6
146,65 147,178 148,605 149,324
150,102 151,41 152,19
##END=
