##TITLE=Butanedioic acid, 2,3-dihydroxy-, [S-(R*,R*)]-
##JCAMP-DX=4.24
##DATA TYPE=MASS SPECTRUM
##ORIGIN=Japan AIST/NIMC Database- Spectrum MS-NW- 262
##OWNER=NIST Mass Spectrometry Data Center
Collection (C) 2014 copyright by the U.S. Secretary of Commerce
on behalf of the United States of America. All rights reserved.
##CAS REGISTRY NO=147-71-7
##$NIST MASS SPEC NO=228098
##MOLFORM=C4 H6 O6
##MW=150
##$NIST SOURCE=MSDC
##XUNITS=M/Z
##YUNITS=RELATIVE INTENSITY
##XFACTOR=1
##YFACTOR=1
##FIRSTX=13
##LASTX=132
##FIRSTY=30
##MAXX=132
##MINX=13
##MAXY=9999
##MINY=10
##NPOINTS=78
##PEAK TABLE=(XY..XY)
13,30 14,129 15,579 16,10
17,60 18,299 19,1309 20,20
25,20 26,90 27,60 28,359
29,2859 30,1419 31,2169 32,50
35,10 36,99 38,30 39,20
40,20 41,159 42,1199 43,1159
44,299 45,1269 46,119 47,169
48,10 49,279 53,50 54,10
55,50 56,30 57,40 58,3379
59,2199 60,629 61,369 62,10
63,10 67,20 68,10 69,719
70,2249 71,439 72,20 73,40
74,10 75,169 76,9999 77,1849
78,99 79,20 80,40 81,20
82,50 83,30 84,20 85,10
86,10 87,259 88,1069 89,70
90,10 91,10 93,20 95,10
97,20 98,10 101,10 105,2059
106,70 107,20 111,10 115,10
129,10 132,20
##END=
