##TITLE=Copper phthalocyanine, CI 74160
##JCAMP-DX=4.24
##DATA TYPE=MASS SPECTRUM
##ORIGIN=Robert B. Cody, JEOL USA, Inc.
##OWNER=NIST Mass Spectrometry Data Center
Collection (C) 2014 copyright by the U.S. Secretary of Commerce
on behalf of the United States of America. All rights reserved.
##CAS REGISTRY NO=147-14-8
##$NIST MASS SPEC NO=327219
##MOLFORM=C32 H16 Cu N8
##MW=575
##$NIST SOURCE=MSDC
##XUNITS=M/Z
##YUNITS=RELATIVE INTENSITY
##XFACTOR=1
##YFACTOR=1
##FIRSTX=21
##LASTX=580
##FIRSTY=20
##MAXX=580
##MINX=21
##MAXY=9999
##MINY=20
##NPOINTS=27
##PEAK TABLE=(XY..XY)
21,20 37,50 48,20 50,20
63,530 64,40 75,30 101,70
102,110 128,711 154,40 191,941
192,20 193,280 230,80 288,3143
289,1762 290,220 570,20 572,20
573,90 575,9999 576,3904 577,5105
578,1822 579,460 580,130
##END=
