##TITLE=Proline
##JCAMP-DX=4.24
##DATA TYPE=MASS SPECTRUM
##ORIGIN=Japan AIST/NIMC Database- Spectrum MS-NW-2505
##OWNER=NIST Mass Spectrometry Data Center
Collection (C) 2014 copyright by the U.S. Secretary of Commerce
on behalf of the United States of America. All rights reserved.
##CAS REGISTRY NO=147-85-3
##$NIST MASS SPEC NO=228120
##MOLFORM=C5 H9 N O2
##MW=115
##$NIST SOURCE=MSDC
##XUNITS=M/Z
##YUNITS=RELATIVE INTENSITY
##XFACTOR=1
##YFACTOR=1
##FIRSTX=14
##LASTX=115
##FIRSTY=20
##MAXX=115
##MINX=14
##MAXY=9999
##MINY=10
##NPOINTS=37
##PEAK TABLE=(XY..XY)
14,20 15,179 17,10 18,30
26,60 27,329 28,2149 29,60
30,309 31,20 33,20 37,30
38,70 39,399 40,109 41,1589
42,479 43,1889 44,90 45,129
52,10 53,60 54,30 55,30
56,10 66,10 67,40 68,799
69,429 70,9999 71,489 73,20
74,50 87,90 96,20 114,10
115,80
##END=
