##TITLE=3,5-Bis(trifluoromethyl)pyrazol
##JCAMP-DX=4.24
##DATA TYPE=MASS SPECTRUM
##ORIGIN=A.Pleshkova, Nesmeyanov Inst.Org.Elem.Cpds, Moscow
##OWNER=NIST Mass Spectrometry Data Center
Collection (C) 2014 copyright by the U.S. Secretary of Commerce
on behalf of the United States of America. All rights reserved.
##CAS REGISTRY NO=14704-41-7
##$NIST MASS SPEC NO=283608
##MOLFORM=C5 H2 F6 N2
##MW=204
##$NIST SOURCE=MSDC
##XUNITS=M/Z
##YUNITS=RELATIVE INTENSITY
##XFACTOR=1
##YFACTOR=1
##FIRSTX=49
##LASTX=206
##FIRSTY=50
##MAXX=206
##MINX=49
##MAXY=9999
##MINY=20
##NPOINTS=35
##PEAK TABLE=(XY..XY)
49,50 50,130 51,30 56,80
57,70 58,30 66,470 67,60
69,2993 70,70 85,2122 86,120
87,380 88,40 106,1631 107,70
108,340 109,20 115,220 116,150
135,671 136,60 137,2392 138,50
154,931 155,100 156,440 157,100
165,210 185,5605 186,220 187,20
204,9999 205,410 206,30
##END=
