##TITLE=(Methoxymethyl)trimethylsilane
##JCAMP-DX=4.24
##DATA TYPE=MASS SPECTRUM
##ORIGIN=NIST Mass Spectrometry Data Center
##OWNER=NIST Mass Spectrometry Data Center
Collection (C) 2014 copyright by the U.S. Secretary of Commerce
on behalf of the United States of America. All rights reserved.
##CAS REGISTRY NO=14704-14-4
##$NIST MASS SPEC NO=343612
##MOLFORM=C5 H14 O Si
##MW=118
##$NIST SOURCE=MSDC
##XUNITS=M/Z
##YUNITS=RELATIVE INTENSITY
##XFACTOR=1
##YFACTOR=1
##FIRSTX=13
##LASTX=118
##FIRSTY=20
##MAXX=118
##MINX=13
##MAXY=9999
##MINY=10
##NPOINTS=37
##PEAK TABLE=(XY..XY)
13,20 15,1251 26,40 27,160
29,1441 30,140 31,641 33,30
41,70 42,420 43,2112 44,711
45,4174 46,250 47,250 53,190
54,50 55,270 56,50 57,220
58,420 59,1501 60,110 61,130
65,10 70,50 71,90 73,9999
74,931 75,4214 76,270 77,120
89,50 103,3513 104,350 105,130
118,140
##END=
