##TITLE=1-Propene, 3-propoxy-
##JCAMP-DX=4.24
##DATA TYPE=MASS SPECTRUM
##ORIGIN=NIST Mass Spectrometry Data Center, 1990.
##OWNER=NIST Mass Spectrometry Data Center
Collection (C) 2014 copyright by the U.S. Secretary of Commerce
on behalf of the United States of America. All rights reserved.
##CAS REGISTRY NO=1471-03-0
##$NIST MASS SPEC NO=113171
##MOLFORM=C6 H12 O
##MW=100
##$NIST SOURCE=MSDC
##XUNITS=M/Z
##YUNITS=RELATIVE INTENSITY
##XFACTOR=1
##YFACTOR=1
##FIRSTX=14
##LASTX=71
##FIRSTY=130
##MAXX=71
##MINX=14
##MAXY=9999
##MINY=17
##NPOINTS=23
##PEAK TABLE=(XY..XY)
14,130 15,128 26,428 27,1821
28,538 29,1272 30,248 31,415
32,17 37,160 38,464 39,4045
40,940 41,9525 42,1399 43,4111
44,228 53,85 55,654 57,5093
58,9999 59,834 71,1051
##END=
