##TITLE=1-Propene, 3-(1,1-dimethylethoxy)-
##JCAMP-DX=4.24
##DATA TYPE=MASS SPECTRUM
##ORIGIN=CARL DJERASSI DEPT OF CHEM STANFORD UNIV STANFORD CALIF 94305
##OWNER=NIST Mass Spectrometry Data Center
Collection (C) 2014 copyright by the U.S. Secretary of Commerce
on behalf of the United States of America. All rights reserved.
##CAS REGISTRY NO=1471-04-1
##$NIST MASS SPEC NO=46332
##MOLFORM=C7 H14 O
##MW=114
##$NIST SOURCE=MSDC
##XUNITS=M/Z
##YUNITS=RELATIVE INTENSITY
##XFACTOR=1
##YFACTOR=1
##FIRSTX=40
##LASTX=100
##FIRSTY=234
##MAXX=100
##MINX=40
##MAXY=9999
##MINY=46
##NPOINTS=13
##PEAK TABLE=(XY..XY)
40,234 41,9999 42,469 43,704
44,93 53,93 55,234 56,704
57,4694 58,328 59,610 99,1643
100,46
##END=
