##TITLE=3-Aminothiophene-2-carboxamide
##JCAMP-DX=4.24
##DATA TYPE=MASS SPECTRUM
##ORIGIN=NIST Mass Spectrometry Data Center, 1994
##OWNER=NIST Mass Spectrometry Data Center
Collection (C) 2014 copyright by the U.S. Secretary of Commerce
on behalf of the United States of America. All rights reserved.
##CAS REGISTRY NO=147123-47-5
##$NIST MASS SPEC NO=136663
##MOLFORM=C5 H6 N2 O S
##MW=142
##$NIST SOURCE=MSDC
##XUNITS=M/Z
##YUNITS=RELATIVE INTENSITY
##XFACTOR=1
##YFACTOR=1
##FIRSTX=16
##LASTX=144
##FIRSTY=104
##MAXX=144
##MINX=16
##MAXY=9999
##MINY=97
##NPOINTS=51
##PEAK TABLE=(XY..XY)
16,104 17,202 18,144 25,97
26,229 27,260 37,409 38,467
39,829 40,409 41,331 42,273
43,231 44,2171 45,2838 46,717
47,163 49,203 51,335 52,1654
53,710 54,3158 55,196 56,163
57,413 58,333 60,209 61,117
63,137 66,102 67,166 68,325
69,708 70,2242 71,2267 72,1455
73,274 81,243 82,135 86,257
96,356 97,3787 98,1789 99,413
125,9999 126,2951 127,696 128,157
142,9837 143,760 144,466
##END=
