##TITLE=Heptane, 2,2,4-trimethyl-
##JCAMP-DX=4.24
##DATA TYPE=MASS SPECTRUM
##OWNER=NIST Mass Spectrometry Data Center
Collection (C) 2014 copyright by the U.S. Secretary of Commerce
on behalf of the United States of America. All rights reserved.
##CAS REGISTRY NO=14720-74-2
##$NIST MASS SPEC NO=3827
##MOLFORM=C10 H22
##MW=142
##$NIST SOURCE=MSDC
##XUNITS=M/Z
##YUNITS=RELATIVE INTENSITY
##XFACTOR=1
##YFACTOR=1
##FIRSTX=26
##LASTX=128
##FIRSTY=40
##MAXX=128
##MINX=26
##MAXY=9999
##MINY=10
##NPOINTS=49
##PEAK TABLE=(XY..XY)
26,40 27,1131 28,200 29,1752
30,40 32,10 37,10 38,20
39,671 40,120 41,2442 42,300
43,2823 44,90 50,10 51,30
52,10 53,140 54,30 55,540
56,4704 57,9999 58,430 59,10
63,10 64,10 65,20 66,10
67,40 68,10 69,160 70,70
71,1551 72,80 77,10 78,10
79,10 80,10 81,10 82,10
83,70 84,450 85,871 86,60
97,10 98,10 126,10 127,240
128,20
##END=
