##TITLE=Crinan-11-ol, 1,2-didehydro-3-methoxy-, (3.beta.,5.alpha.,11S,13.beta.,19.alpha.)-
##JCAMP-DX=4.24
##DATA TYPE=MASS SPECTRUM
##ORIGIN=H. Fales, LC, NHLBI, NIH, Bethesda, MD 20892
##OWNER=NIST Mass Spectrometry Data Center
Collection (C) 2014 copyright by the U.S. Secretary of Commerce
on behalf of the United States of America. All rights reserved.
##CAS REGISTRY NO=1472-76-0
##$NIST MASS SPEC NO=111612
##MOLFORM=C17 H19 N O4
##MW=301
##$NIST SOURCE=MSDC
##XUNITS=M/Z
##YUNITS=RELATIVE INTENSITY
##XFACTOR=1
##YFACTOR=1
##FIRSTX=41
##LASTX=304
##FIRSTY=1697
##MAXX=304
##MINX=41
##MAXY=9999
##MINY=20
##NPOINTS=220
##PEAK TABLE=(XY..XY)
41,1697 42,2060 43,3363 44,4272
45,3303 46,98 47,41 49,191
50,566 51,1700 52,483 53,854
54,541 55,1333 56,1241 57,435
58,468 59,234 60,187 61,78
62,334 63,1413 64,895 65,930
66,251 67,289 68,311 69,395
70,499 71,1188 72,269 73,35
74,486 75,768 76,1930 77,2360
78,723 79,357 80,210 81,202
82,414 84,1133 85,287 86,300
87,344 88,311 89,894 90,492
91,1044 92,830 94,238 95,178
96,283 97,245 98,224 99,250
100,458 101,492 102,971 103,733
104,391 105,543 106,346 107,316
108,143 109,67 110,99 111,266
112,170 113,317 114,695 115,3218
116,667 117,442 118,440 120,377
121,378 123,200 124,78 126,636
127,1285 128,1459 129,732 130,912
131,331 132,74 133,63 135,864
136,97 137,74 139,1467 140,678
141,1412 142,401 143,414 144,208
145,297 146,106 147,153 148,74
149,126 150,146 151,504 152,2115
153,1976 154,756 155,618 156,387
157,338 158,61 159,992 160,1544
161,293 162,148 163,140 164,124
165,430 166,877 167,879 168,625
169,1001 170,270 171,376 172,544
173,1059 174,364 175,287 176,144
177,51 178,69 179,81 180,442
181,6266 182,1074 183,651 184,343
185,1236 186,930 187,792 188,1477
189,230 190,83 192,46 193,388
194,238 195,202 196,405 197,726
198,762 199,850 200,1110 201,548
202,405 203,131 204,55 207,58
209,2466 210,1153 211,2794 212,1970
213,839 214,736 215,568 216,504
217,458 218,83 220,45 222,329
223,469 224,4503 225,8145 226,2421
227,7381 228,1285 229,373 230,1633
231,478 232,67 236,20 237,95
238,614 239,847 240,2227 241,585
242,992 243,506 244,548 245,280
246,56 250,87 251,43 252,458
253,137 254,169 255,75 256,603
257,5345 258,1494 259,375 260,95
261,59 266,81 268,2524 269,4212
270,1939 271,486 272,2978 273,527
274,106 282,20 283,20 284,164
285,20 286,475 287,82 300,515
301,9999 302,1897 303,500 304,80
##END=
