##TITLE=Octadecanedioic acid, dimethyl ester
##JCAMP-DX=4.24
##DATA TYPE=MASS SPECTRUM
##ORIGIN=R.T.HOLMAN,UNIVERSITY OF MINNESOTA
##OWNER=NIST Mass Spectrometry Data Center
Collection (C) 2014 copyright by the U.S. Secretary of Commerce
on behalf of the United States of America. All rights reserved.
##CAS REGISTRY NO=1472-93-1
##$NIST MASS SPEC NO=36439
##MOLFORM=C20 H38 O4
##MW=342
##$NIST SOURCE=MSDC
##XUNITS=M/Z
##YUNITS=RELATIVE INTENSITY
##XFACTOR=1
##YFACTOR=1
##FIRSTX=25
##LASTX=344
##FIRSTY=40
##MAXX=344
##MINX=25
##MAXY=9999
##MINY=10
##NPOINTS=255
##PEAK TABLE=(XY..XY)
25,40 26,80 27,670 28,420
29,1870 30,80 31,240 32,20
38,40 39,570 40,160 41,4960
42,1140 43,5430 44,330 45,480
46,30 50,30 51,40 52,40
53,350 54,550 55,7650 56,1000
57,2340 58,280 59,3080 60,160
61,60 62,20 63,40 64,20
65,70 66,80 67,1270 68,690
69,4490 70,650 71,1140 72,100
73,730 74,8450 75,870 76,80
77,80 78,60 79,300 80,320
81,1400 82,630 83,3020 84,4690
85,870 86,80 87,4020 88,450
89,50 90,20 91,100 92,50
93,320 94,400 95,1200 96,870
97,2480 98,9999 99,1000 100,140
101,590 102,80 103,30 104,20
105,60 106,50 107,320 108,350
109,640 110,420 111,1340 112,3220
113,440 114,160 115,450 116,190
117,60 118,30 119,100 120,60
121,520 122,200 123,440 124,240
125,710 126,870 127,200 128,140
129,370 130,290 131,60 132,30
133,110 134,80 135,450 136,160
137,290 138,210 139,440 140,590
141,210 142,60 143,320 144,400
145,60 146,30 147,120 148,80
149,290 150,120 151,160 152,220
153,290 154,750 155,140 156,40
157,200 158,440 159,70 160,30
161,70 162,40 163,170 164,80
165,100 166,110 167,190 168,400
169,80 170,30 171,200 172,300
173,60 174,20 175,50 176,40
177,130 178,70 186,120 187,40
189,30 190,20 191,40 192,70
193,60 194,190 195,240 196,540
197,110 198,30 199,110 200,80
201,30 205,40 206,60 207,80
208,140 209,170 210,180 211,50
212,70 213,120 214,70 215,20
216,20 217,30 218,60 219,330
220,60 221,60 222,60 223,60
224,40 225,40 226,110 227,210
228,60 229,30 230,20 231,20
232,40 233,80 234,60 235,80
236,560 237,870 238,160 239,50
240,30 241,40 242,40 243,20
249,70 250,340 251,160 252,50
253,30 254,170 255,70 256,200
257,50 259,30 260,60 261,30
262,20 263,20 264,30 265,20
266,40 267,60 268,230 269,2080
270,400 271,60 276,20 277,100
278,430 279,150 280,40 281,50
282,80 283,80 284,50 285,20
292,60 293,30 294,20 295,20
296,10 297,20 298,20 299,20
309,50 310,540 311,2280 312,460
313,80 314,20 324,30 325,70
326,20 327,20 339,20 341,20
342,94 343,40 344,20
##END=
