##TITLE=2-Propenoic acid, 3-(3,4-dimethoxyphenyl)-, (E)-
##JCAMP-DX=4.24
##DATA TYPE=MASS SPECTRUM
##ORIGIN=Japan AIST/NIMC Database- Spectrum MS-NW-6390
##OWNER=NIST Mass Spectrometry Data Center
Collection (C) 2014 copyright by the U.S. Secretary of Commerce
on behalf of the United States of America. All rights reserved.
##CAS REGISTRY NO=14737-89-4
##$NIST MASS SPEC NO=235143
##MOLFORM=C11 H12 O4
##MW=208
##$NIST SOURCE=MSDC
##XUNITS=M/Z
##YUNITS=RELATIVE INTENSITY
##XFACTOR=1
##YFACTOR=1
##FIRSTX=14
##LASTX=211
##FIRSTY=10
##MAXX=211
##MINX=14
##MAXY=9999
##MINY=10
##NPOINTS=162
##PEAK TABLE=(XY..XY)
14,10 15,189 16,10 17,20
18,80 26,50 27,70 28,199
29,70 30,10 31,70 36,10
37,40 38,109 39,229 40,60
41,99 42,20 43,90 44,99
45,129 46,10 49,20 50,279
51,599 52,119 53,139 54,30
55,229 56,20 57,50 58,10
59,90 60,30 61,60 62,139
63,319 64,70 65,209 66,229
67,50 68,40 69,149 70,20
71,30 72,10 73,50 74,119
75,119 76,209 77,809 78,209
79,229 80,30 81,60 82,40
83,30 84,10 85,30 86,30
87,60 88,80 89,319 90,99
91,669 92,109 93,70 94,189
95,219 96,50 97,80 98,30
99,20 100,10 101,70 102,139
103,419 104,199 105,299 106,99
107,139 108,30 109,229 110,30
111,20 112,10 113,10 114,10
115,10 116,20 117,159 118,149
119,539 120,109 121,139 122,109
123,339 124,50 125,20 126,10
127,10 129,50 130,30 131,99
132,90 133,619 134,139 135,40
136,20 137,329 138,40 139,20
143,10 144,10 145,139 146,50
147,649 148,149 149,169 150,109
151,50 152,10 157,10 159,10
160,30 161,379 162,149 163,189
164,80 165,229 166,40 167,10
175,80 176,30 177,60 178,30
179,50 180,30 181,10 182,10
183,10 184,10 185,10 186,10
187,10 188,10 189,10 190,109
191,349 192,159 193,1879 194,249
195,50 203,10 204,10 205,20
206,10 207,109 208,9999 209,1289
210,189 211,20
##END=
