##TITLE=1,3,5,2,4,6-Triazatriphosphorine, 2-bromo-2,4,4,6,6-pentachloro-2,2,4,4,6,6-hexahydro-
##JCAMP-DX=4.24
##DATA TYPE=MASS SPECTRUM
##OWNER=NIST Mass Spectrometry Data Center
Collection (C) 2014 copyright by the U.S. Secretary of Commerce
on behalf of the United States of America. All rights reserved.
##CAS REGISTRY NO=14740-93-3
##$NIST MASS SPEC NO=29523
##MOLFORM=Br Cl5 N3 P3
##MW=389
##$NIST SOURCE=MSDC
##XUNITS=M/Z
##YUNITS=RELATIVE INTENSITY
##XFACTOR=1
##YFACTOR=1
##FIRSTX=76
##LASTX=389
##FIRSTY=280
##MAXX=389
##MINX=76
##MAXY=9999
##MINY=10
##NPOINTS=31
##PEAK TABLE=(XY..XY)
76,280 78,150 90,60 105,60
111,420 113,230 120,180 125,70
146,1060 155,40 160,80 170,160
177,30 181,160 190,30 191,20
195,130 198,150 200,20 205,100
216,170 239,30 240,1320 260,60
261,70 275,750 284,60 305,10
310,9999 354,830 389,250
##END=
