##TITLE=Phosphinecarboxylic acid, diethoxy-, ethyl ester, oxide
##JCAMP-DX=4.24
##DATA TYPE=MASS SPECTRUM
##ORIGIN=Japan AIST/NIMC Database- Spectrum MS-NW-7589
##OWNER=NIST Mass Spectrometry Data Center
Collection (C) 2014 copyright by the U.S. Secretary of Commerce
on behalf of the United States of America. All rights reserved.
##CAS REGISTRY NO=1474-78-8
##$NIST MASS SPEC NO=238494
##MOLFORM=C7 H15 O5 P
##MW=210
##$NIST SOURCE=MSDC
##XUNITS=M/Z
##YUNITS=RELATIVE INTENSITY
##XFACTOR=1
##YFACTOR=1
##FIRSTX=14
##LASTX=211
##FIRSTY=20
##MAXX=211
##MINX=14
##MAXY=9999
##MINY=10
##NPOINTS=101
##PEAK TABLE=(XY..XY)
14,20 15,219 16,10 18,20
19,10 25,20 26,279 27,2179
28,769 29,7159 30,169 31,889
32,30 39,10 41,80 42,70
43,649 44,179 45,1609 46,60
47,589 48,50 49,20 55,40
56,10 57,30 59,319 60,10
62,30 63,80 64,40 65,2579
66,129 67,20 72,20 73,239
74,20 75,10 76,40 77,90
78,20 79,30 80,10 81,7279
82,4589 83,2089 84,30 85,20
87,10 89,10 90,10 91,2079
92,299 93,1129 94,279 95,40
96,10 97,10 98,10 99,1399
101,10 102,10 104,10 105,10
106,10 107,60 108,40 109,9999
110,1419 111,3819 112,109 113,40
120,10 121,60 122,209 123,20
125,559 126,159 127,1559 128,50
129,20 135,60 136,30 137,4629
138,1549 139,1029 140,50 141,10
153,179 154,139 155,819 156,40
165,20 166,179 167,70 181,60
182,40 183,109 195,10 210,229
211,40
##END=
