##TITLE=2-Propenoic acid, 3-(3-hydroxyphenyl)-, (E)-
##JCAMP-DX=4.24
##DATA TYPE=MASS SPECTRUM
##ORIGIN=Japan AIST/NIMC Database- Spectrum MS-NW-2457
##OWNER=NIST Mass Spectrometry Data Center
Collection (C) 2014 copyright by the U.S. Secretary of Commerce
on behalf of the United States of America. All rights reserved.
##CAS REGISTRY NO=14755-02-3
##$NIST MASS SPEC NO=230985
##MOLFORM=C9 H8 O3
##MW=164
##$NIST SOURCE=MSDC
##XUNITS=M/Z
##YUNITS=RELATIVE INTENSITY
##XFACTOR=1
##YFACTOR=1
##FIRSTX=14
##LASTX=167
##FIRSTY=50
##MAXX=167
##MINX=14
##MAXY=9999
##MINY=10
##NPOINTS=119
##PEAK TABLE=(XY..XY)
14,50 15,30 16,30 17,30
18,109 25,20 26,189 27,229
28,729 29,139 30,10 31,20
36,10 37,119 38,419 39,1379
40,169 41,239 42,50 43,169
44,509 45,259 46,30 47,10
49,80 50,469 51,789 52,159
53,329 54,119 55,249 56,20
57,40 58,20 59,429 60,50
61,179 62,359 63,949 64,449
65,1889 66,239 67,80 68,109
69,149 70,10 71,60 73,169
74,189 75,269 76,119 77,539
78,159 79,599 80,239 81,99
82,189 83,20 84,10 85,30
86,60 87,70 88,40 89,1099
90,579 91,3019 92,389 93,129
94,319 95,199 96,20 97,30
98,40 99,20 101,179 102,99
103,189 104,30 105,70 106,30
107,929 108,309 109,40 110,269
111,20 114,10 115,20 116,30
117,109 118,2719 119,1979 120,549
121,159 122,209 123,119 124,10
129,30 130,50 131,50 132,50
134,40 135,399 136,789 137,60
138,10 143,10 144,10 145,109
146,719 147,3989 148,369 149,30
161,10 162,50 163,4339 164,9999
165,939 166,90 167,10
##END=
