##TITLE=2,5-Dichloro-.alpha.-methylbenzyl alcohol
##JCAMP-DX=4.24
##DATA TYPE=MASS SPECTRUM
##ORIGIN=NIST Mass Spectrometry Data Center
##OWNER=NIST Mass Spectrometry Data Center
Collection (C) 2014 copyright by the U.S. Secretary of Commerce
on behalf of the United States of America. All rights reserved.
##CAS REGISTRY NO=1475-12-3
##$NIST MASS SPEC NO=341293
##MOLFORM=C8 H8 Cl2 O
##MW=190
##$NIST SOURCE=MSDC
##XUNITS=M/Z
##YUNITS=RELATIVE INTENSITY
##XFACTOR=1
##YFACTOR=1
##FIRSTX=15
##LASTX=195
##FIRSTY=80
##MAXX=195
##MINX=15
##MAXY=9999
##MINY=10
##NPOINTS=132
##PEAK TABLE=(XY..XY)
15,80 19,20 26,30 27,120
29,250 31,10 35,20 36,20
37,100 38,150 39,170 41,10
42,50 43,2092 44,110 45,591
46,10 47,20 48,10 49,150
50,801 51,731 52,110 53,60
55,70 59,70 60,60 61,200
62,270 63,400 64,40 65,140
66,20 67,10 68,100 69,60
70,10 71,20 72,60 73,430
74,1191 75,2492 76,410 77,490
78,50 79,10 83,10 84,250
85,350 86,210 87,711 88,440
89,370 90,80 91,380 92,30
94,80 95,60 96,40 97,100
98,100 99,270 100,60 101,530
102,631 103,140 104,10 105,40
107,20 108,60 109,631 110,380
111,7206 112,1001 113,2362 114,290
115,10 118,30 119,30 120,30
121,20 123,100 124,20 125,280
126,40 127,120 128,20 129,10
133,20 135,70 136,130 137,260
138,140 139,591 140,100 141,170
142,20 144,10 145,460 146,641
147,3813 148,641 149,2352 150,210
151,370 152,20 153,30 154,40
155,480 156,50 157,160 158,10
159,30 161,20 163,10 170,10
171,20 172,60 173,571 175,9999
176,791 177,6356 178,470 179,1051
180,70 189,60 190,3033 191,280
192,1952 193,170 194,330 195,20
##END=
