##TITLE=Benzenemethanol, 3,4-dichloro-.alpha.-methyl-
##JCAMP-DX=4.24
##DATA TYPE=MASS SPECTRUM
##OWNER=NIST Mass Spectrometry Data Center
Collection (C) 2014 copyright by the U.S. Secretary of Commerce
on behalf of the United States of America. All rights reserved.
##CAS REGISTRY NO=1475-11-2
##$NIST MASS SPEC NO=8251
##MOLFORM=C8 H8 Cl2 O
##MW=190
##$NIST SOURCE=MSDC
##XUNITS=M/Z
##YUNITS=RELATIVE INTENSITY
##XFACTOR=1
##YFACTOR=1
##FIRSTX=14
##LASTX=194
##FIRSTY=20
##MAXX=194
##MINX=14
##MAXY=9999
##MINY=10
##NPOINTS=144
##PEAK TABLE=(XY..XY)
14,20 15,190 17,70 18,290
19,70 26,30 27,240 28,100
29,380 31,50 32,20 35,20
36,30 37,120 38,190 39,200
40,20 41,30 42,40 43,6166
44,290 45,771 46,30 47,30
48,10 49,160 50,751 51,771
52,210 53,70 54,20 55,150
56,80 57,20 58,20 59,170
60,60 61,190 62,220 63,290
64,40 65,110 66,20 67,40
68,230 69,120 70,30 71,10
72,80 73,410 74,951 75,1812
76,280 77,581 78,80 84,280
85,380 86,200 87,220 88,140
89,210 90,50 91,200 92,30
94,140 95,90 96,50 97,90
98,70 99,190 100,50 101,360
102,450 103,150 104,50 105,60
107,50 108,70 109,711 110,240
111,6536 112,1091 113,2192 114,330
115,30 117,30 118,30 119,50
120,20 121,30 122,10 123,90
124,30 125,210 126,50 127,90
128,20 129,20 133,40 134,20
135,90 136,150 137,320 138,150
139,410 140,100 141,110 142,30
144,10 145,761 146,891 147,4044
148,811 149,2412 150,250 151,380
152,30 153,20 154,80 155,2292
156,230 157,751 158,70 159,70
161,50 163,20 171,50 172,110
173,1281 174,180 175,9999 176,841
177,6206 178,490 179,1041 180,90
181,30 188,270 189,230 190,3733
191,470 192,2352 193,230 194,370
##END=
