##TITLE=n-Heptadecylbenzene
##JCAMP-DX=4.24
##DATA TYPE=MASS SPECTRUM
##ORIGIN=Japan AIST/NIMC Database- Spectrum MS-NW-1238
##OWNER=NIST Mass Spectrometry Data Center
Collection (C) 2014 copyright by the U.S. Secretary of Commerce
on behalf of the United States of America. All rights reserved.
##CAS REGISTRY NO=14752-75-1
##$NIST MASS SPEC NO=228251
##MOLFORM=C23 H40
##MW=316
##$NIST SOURCE=MSDC
##XUNITS=M/Z
##YUNITS=RELATIVE INTENSITY
##XFACTOR=1
##YFACTOR=1
##FIRSTX=14
##LASTX=318
##FIRSTY=20
##MAXX=318
##MINX=14
##MAXY=9999
##MINY=10
##NPOINTS=96
##PEAK TABLE=(XY..XY)
14,20 15,10 26,10 27,199
28,30 29,529 30,10 39,139
40,20 41,1029 42,219 43,1749
44,119 45,20 50,10 51,40
52,20 53,80 54,70 55,699
56,199 57,1199 58,50 63,20
65,179 66,20 67,99 68,60
69,309 70,109 71,539 72,30
77,109 78,269 79,169 80,70
81,60 82,50 83,179 84,50
85,299 86,20 89,30 90,20
91,5239 92,9999 93,809 94,139
95,40 96,30 97,99 98,30
99,50 100,10 103,70 104,519
105,899 106,339 107,40 108,10
109,10 110,10 111,40 112,10
113,30 115,40 116,10 117,149
118,80 119,269 120,90 121,20
123,10 125,20 127,20 129,10
131,40 132,40 133,739 134,219
135,40 136,10 147,119 148,50
149,30 161,50 162,10 165,20
167,20 175,30 189,10 262,10
273,10 316,1729 317,429 318,60
##END=
