##TITLE=Noracymethadol
##JCAMP-DX=4.24
##DATA TYPE=MASS SPECTRUM
##ORIGIN=Patti Price, Georgia Bureau of Investigation, Decatur, Georgia
##OWNER=NIST Mass Spectrometry Data Center
Collection (C) 2014 copyright by the U.S. Secretary of Commerce
on behalf of the United States of America. All rights reserved.
##CAS REGISTRY NO=1477-39-0
##$NIST MASS SPEC NO=247713
##MOLFORM=C22 H29 N O2
##MW=339
##$NIST SOURCE=MSDC
##XUNITS=M/Z
##YUNITS=RELATIVE INTENSITY
##XFACTOR=1
##YFACTOR=1
##FIRSTX=41
##LASTX=340
##FIRSTY=110
##MAXX=340
##MINX=41
##MAXY=9999
##MINY=10
##NPOINTS=131
##PEAK TABLE=(XY..XY)
41,110 42,300 43,1731 44,240
45,30 51,60 53,20 55,30
56,540 57,420 58,9999 59,370
60,20 63,20 65,40 68,10
69,10 70,50 71,250 72,210
73,60 76,20 77,160 78,30
79,30 82,10 83,50 84,220
85,50 89,30 91,630 92,50
98,10 99,600 100,40 101,20
102,40 103,110 104,30 105,390
106,40 107,120 108,20 115,320
116,60 117,80 118,100 119,50
120,70 127,60 128,170 129,370
130,170 131,450 132,80 133,30
134,2262 135,270 139,30 141,20
143,50 144,110 145,20 146,40
147,140 148,10 151,30 152,120
153,20 157,20 158,40 159,10
160,20 163,20 164,30 165,330
166,70 167,100 168,10 171,10
172,30 176,30 177,20 178,260
179,200 180,70 181,10 189,40
190,30 191,90 192,50 193,400
194,70 195,20 200,10 202,40
203,20 204,20 205,30 206,20
207,150 208,120 209,20 219,20
220,20 222,370 223,90 224,30
225,220 226,40 233,10 234,20
236,20 248,60 249,10 250,310
251,50 262,10 264,30 265,190
266,40 277,10 278,50 279,50
280,70 281,20 296,40 322,20
324,40 339,130 340,30
##END=
