##TITLE=2-Benzothiazolamine, 4-methyl-
##JCAMP-DX=4.24
##DATA TYPE=MASS SPECTRUM
##ORIGIN=Japan AIST/NIMC Database- Spectrum MS-NW-6340
##OWNER=NIST Mass Spectrometry Data Center
Collection (C) 2014 copyright by the U.S. Secretary of Commerce
on behalf of the United States of America. All rights reserved.
##CAS REGISTRY NO=1477-42-5
##$NIST MASS SPEC NO=234736
##MOLFORM=C8 H8 N2 S
##MW=164
##$NIST SOURCE=MSDC
##XUNITS=M/Z
##YUNITS=RELATIVE INTENSITY
##XFACTOR=1
##YFACTOR=1
##FIRSTX=14
##LASTX=167
##FIRSTY=10
##MAXX=167
##MINX=14
##MAXY=9999
##MINY=10
##NPOINTS=122
##PEAK TABLE=(XY..XY)
14,10 15,10 26,30 27,119
28,70 29,20 30,10 32,10
33,10 36,10 37,70 38,119
39,409 40,40 41,30 42,40
43,70 44,109 45,359 46,10
47,20 48,10 49,20 50,199
51,419 52,209 53,80 54,30
55,20 56,10 57,60 58,70
59,50 60,169 61,129 62,129
63,289 64,119 65,299 66,199
67,30 68,60 69,509 70,149
71,90 72,20 73,30 74,70
75,90 76,139 77,689 78,579
79,90 80,20 81,99 82,659
83,90 84,80 85,40 86,30
87,30 88,20 89,60 90,50
91,90 92,209 93,249 94,50
95,99 96,70 97,30 98,20
99,20 101,10 102,99 103,199
104,699 105,779 106,159 107,30
108,60 109,409 110,789 111,80
112,40 114,10 115,10 117,10
118,30 119,119 120,60 121,899
122,449 123,119 124,50 125,10
129,50 130,30 131,729 132,169
133,30 134,30 135,30 136,849
137,719 138,109 139,50 140,10
144,10 146,139 147,80 148,60
149,40 150,10 160,10 161,10
162,30 163,3469 164,9999 165,1179
166,519 167,60
##END=
