##TITLE=Cupric trifluoroacetylacetonate
##JCAMP-DX=4.24
##DATA TYPE=MASS SPECTRUM
##ORIGIN=MUS21 A. Mujsce, AT&T Bell Labs., Murray Hill, N.J., USA
##OWNER=NIST Mass Spectrometry Data Center
Collection (C) 2014 copyright by the U.S. Secretary of Commerce
on behalf of the United States of America. All rights reserved.
##CAS REGISTRY NO=14781-45-4
##$NIST MASS SPEC NO=115417
##MOLFORM=C10 H2 Cu F12 O4
##MW=477
##$NIST SOURCE=MSDC
##XUNITS=M/Z
##YUNITS=RELATIVE INTENSITY
##XFACTOR=1
##YFACTOR=1
##FIRSTX=28
##LASTX=482
##FIRSTY=58
##MAXX=482
##MINX=28
##MAXY=9999
##MINY=14
##NPOINTS=145
##PEAK TABLE=(XY..XY)
28,58 29,32 31,157 39,453
41,407 42,25 43,55 44,46
45,47 47,61 50,329 51,51
53,110 54,28 56,35 57,40
60,31 61,21 63,2471 64,19
65,1059 66,25 69,8029 70,178
71,212 73,56 74,54 75,217
76,26 79,53 81,85 82,56
83,157 85,124 88,29 90,43
91,595 92,55 93,78 94,35
95,27 97,51 102,33 103,65
104,775 105,89 106,404 107,20
113,190 114,30 115,109 116,36
119,172 120,38 121,34 122,52
123,24 126,88 128,38 131,294
133,159 137,35 138,61 139,297
151,46 153,98 154,114 156,61
157,31 160,21 161,99 162,39
174,28 179,46 182,68 184,28
195,35 201,9999 202,121 203,4508
204,236 205,19 208,38 211,37
212,35 213,332 227,26 230,101
231,19 232,42 236,42 239,20
242,20 251,35 253,577 254,32
255,14 257,22 263,91 269,109
270,201 272,117 276,25 282,24
325,42 335,25 336,24 339,9504
341,4627 342,431 343,93 348,32
352,47 353,20 357,38 359,27
386,21 401,342 402,38 408,9587
409,359 410,4576 411,466 412,57
413,21 416,25 417,25 419,31
420,107 421,31 422,22 425,23
426,25 430,35 437,24 458,153
459,35 460,83 461,21 477,2741
478,379 479,1495 480,146 481,15
482,17
##END=
