##TITLE=L-Valine, N-(trifluoroacetyl)-, butyl ester
##JCAMP-DX=4.24
##DATA TYPE=MASS SPECTRUM
##ORIGIN=S. MARKEY UNIV. OF COLO. MED. CTR., DENVER, COLORADO, USA
##OWNER=NIST Mass Spectrometry Data Center
Collection (C) 2014 copyright by the U.S. Secretary of Commerce
on behalf of the United States of America. All rights reserved.
##CAS REGISTRY NO=1478-96-2
##$NIST MASS SPEC NO=13054
##MOLFORM=C11 H18 F3 N O3
##MW=269
##$NIST SOURCE=MSDC
##XUNITS=M/Z
##YUNITS=RELATIVE INTENSITY
##XFACTOR=1
##YFACTOR=1
##FIRSTX=15
##LASTX=228
##FIRSTY=180
##MAXX=228
##MINX=15
##MAXY=9999
##MINY=10
##NPOINTS=55
##PEAK TABLE=(XY..XY)
15,180 17,160 18,600 27,2080
29,4710 30,140 31,220 39,1340
41,5350 42,760 43,1910 44,430
45,210 47,70 50,50 51,240
53,200 54,160 55,9999 56,1290
57,4010 58,130 69,2560 73,410
77,280 78,150 82,120 84,140
94,90 98,380 100,360 101,160
114,1510 116,190 119,150 125,320
126,620 131,140 152,200 153,2350
154,540 156,180 167,130 168,9500
169,1290 170,170 171,710 194,140
195,12 196,100 197,10 214,80
215,10 227,230 228,23
##END=
