##TITLE=4-Quinolinol, 4-ethynyldecahydro-1,2-dimethyl-, (2.alpha.,4.beta.,4a.alpha.,8a.beta.)-
##JCAMP-DX=4.24
##DATA TYPE=MASS SPECTRUM
##OWNER=NIST Mass Spectrometry Data Center
Collection (C) 2014 copyright by the U.S. Secretary of Commerce
on behalf of the United States of America. All rights reserved.
##CAS REGISTRY NO=14788-65-9
##$NIST MASS SPEC NO=9485
##MOLFORM=C13 H21 N O
##MW=207
##$NIST SOURCE=MSDC
##XUNITS=M/Z
##YUNITS=RELATIVE INTENSITY
##XFACTOR=1
##YFACTOR=1
##FIRSTX=51
##LASTX=208
##FIRSTY=350
##MAXX=208
##MINX=51
##MAXY=9999
##MINY=50
##NPOINTS=91
##PEAK TABLE=(XY..XY)
51,350 52,200 53,1301 54,601
55,1001 56,1151 57,851 58,2853
59,150 65,400 66,200 67,751
68,601 69,250 70,601 71,200
72,250 77,550 78,150 79,601
80,200 81,851 82,701 83,200
84,500 85,100 91,400 92,100
93,150 94,300 95,200 96,701
97,100 98,150 105,200 106,150
107,150 108,200 109,150 110,350
111,150 112,150 115,100 117,100
118,150 119,100 120,100 122,250
123,100 124,300 125,100 126,100
130,50 131,100 132,100 133,100
134,601 135,150 136,200 137,100
138,701 139,100 144,100 146,150
147,100 148,100 150,350 151,100
152,100 160,150 163,250 164,7206
165,851 166,400 167,100 168,200
174,1151 175,150 176,100 180,50
181,100 182,200 189,50 190,1501
191,651 192,9999 193,1251 194,250
206,300 207,1501 208,250
##END=
