##TITLE=Butanoic acid, 4-chloro-4-oxo-, ethyl ester
##JCAMP-DX=4.24
##DATA TYPE=MASS SPECTRUM
##ORIGIN=RADIAN CORP
##OWNER=NIST Mass Spectrometry Data Center
Collection (C) 2014 copyright by the U.S. Secretary of Commerce
on behalf of the United States of America. All rights reserved.
##CAS REGISTRY NO=14794-31-1
##$NIST MASS SPEC NO=72960
##MOLFORM=C6 H9 Cl O3
##MW=164
##$NIST SOURCE=MSDC
##XUNITS=M/Z
##YUNITS=RELATIVE INTENSITY
##XFACTOR=1
##YFACTOR=1
##FIRSTX=14
##LASTX=167
##FIRSTY=20
##MAXX=167
##MINX=14
##MAXY=9999
##MINY=10
##NPOINTS=108
##PEAK TABLE=(XY..XY)
14,20 15,100 25,70 26,730
27,2480 28,1140 29,2520 30,150
31,170 35,40 36,40 37,60
38,60 39,100 40,20 41,280
42,550 43,650 44,170 45,770
46,20 47,20 48,30 49,40
50,10 51,30 52,30 53,250
54,250 55,9270 56,1720 57,390
58,30 59,50 60,30 61,30
62,20 63,820 64,110 65,320
66,30 67,20 69,60 70,20
71,150 72,360 73,1190 74,170
75,30 77,100 78,90 79,50
80,20 81,40 82,110 83,190
84,100 85,110 87,20 88,10
89,50 90,110 91,390 92,120
93,30 94,30 97,10 99,390
100,1970 101,9999 102,500 103,180
104,150 105,100 106,20 107,170
108,90 109,20 110,70 115,240
116,70 117,190 118,190 119,3320
120,180 121,1090 122,60 123,20
127,40 128,2040 129,1640 130,150
131,110 132,30 133,20 135,20
137,20 139,10 141,10 145,40
149,10 151,10 155,40 159,30
161,20 163,40 165,10 167,20
##END=
