##TITLE=Thiabendazole
##JCAMP-DX=4.24
##DATA TYPE=MASS SPECTRUM
##ORIGIN=Tox21 Consortium/NIST Mass Spectrometry Data Center, 2012
##OWNER=NIST Mass Spectrometry Data Center
Collection (C) 2014 copyright by the U.S. Secretary of Commerce
on behalf of the United States of America. All rights reserved.
##CAS REGISTRY NO=148-79-8
##$NIST MASS SPEC NO=408784
##MOLFORM=C10 H7 N3 S
##MW=201
##$NIST SOURCE=MSDC
##XUNITS=M/Z
##YUNITS=RELATIVE INTENSITY
##XFACTOR=1
##YFACTOR=1
##FIRSTX=26
##LASTX=204
##FIRSTY=30
##MAXX=204
##MINX=26
##MAXY=9999
##MINY=10
##NPOINTS=132
##PEAK TABLE=(XY..XY)
26,30 27,80 28,140 32,40
33,10 36,10 37,140 38,320
39,510 40,80 41,120 42,10
44,20 45,460 46,110 47,30
48,10 49,30 50,290 51,540
52,761 53,80 54,20 56,40
57,310 58,100 59,40 60,30
61,120 62,360 63,1441 64,1181
65,911 66,90 67,20 68,100
69,621 70,410 71,60 72,30
73,30 74,70 75,270 76,390
77,150 78,220 79,40 80,20
81,20 82,90 83,290 84,410
85,70 86,50 87,140 88,120
89,100 90,1001 91,470 92,400
93,70 94,190 95,60 96,90
97,10 98,10 99,20 100,540
102,671 103,731 104,100 105,200
106,30 107,60 108,30 109,20
110,60 111,520 112,40 113,30
114,70 115,110 116,100 117,40
118,120 119,50 120,150 121,40
122,40 123,20 124,10 127,10
128,40 129,1161 130,781 131,90
133,30 134,230 135,30 136,10
140,20 141,60 142,310 143,380
144,60 145,20 146,340 147,160
148,60 149,10 150,30 156,120
157,60 158,10 167,10 168,50
169,10 171,10 172,10 173,520
174,9999 175,1111 176,530 177,40
178,10 198,10 199,10 200,280
201,9529 202,1211 203,490 204,50
##END=
