##TITLE=Benzaldehyde, 2-hydroxy-3-methoxy-
##JCAMP-DX=4.24
##DATA TYPE=MASS SPECTRUM
##ORIGIN=NIST Mass Spectrometry Data Center
##OWNER=NIST Mass Spectrometry Data Center
Collection (C) 2014 copyright by the U.S. Secretary of Commerce
on behalf of the United States of America. All rights reserved.
##CAS REGISTRY NO=148-53-8
##$NIST MASS SPEC NO=352861
##MOLFORM=C8 H8 O3
##MW=152
##$NIST SOURCE=MSDC
##XUNITS=M/Z
##YUNITS=RELATIVE INTENSITY
##XFACTOR=1
##YFACTOR=1
##FIRSTX=14
##LASTX=155
##FIRSTY=30
##MAXX=155
##MINX=14
##MAXY=9999
##MINY=10
##NPOINTS=92
##PEAK TABLE=(XY..XY)
14,30 15,220 16,10 25,20
26,180 27,691 28,130 29,711
30,50 31,90 36,30 37,210
38,420 39,1061 41,210 42,80
43,160 44,10 45,110 46,10
47,10 48,20 49,150 50,991
51,1451 52,1421 53,2422 54,300
55,1261 56,50 57,10 60,90
61,220 62,460 63,1021 64,390
65,931 66,430 67,260 68,40
69,80 70,10 73,40 74,180
75,170 76,1171 77,701 78,731
79,691 80,520 81,2783 82,160
83,20 90,20 91,120 92,661
93,520 94,140 95,340 96,20
103,20 104,240 105,891 106,4774
107,991 108,1211 109,3473 110,250
111,20 119,120 120,520 121,1131
122,1381 123,571 124,210 125,20
127,10 128,10 133,260 134,170
135,70 136,611 137,420 138,40
143,10 147,10 149,70 151,2062
152,9999 153,901 154,100 155,10
##END=
