##TITLE=Androsterone acetate
##JCAMP-DX=4.24
##DATA TYPE=MASS SPECTRUM
##ORIGIN=LAC, NIDDK, NIH, Bethesda, MD 20892
##OWNER=NIST Mass Spectrometry Data Center
Collection (C) 2014 copyright by the U.S. Secretary of Commerce
on behalf of the United States of America. All rights reserved.
##CAS REGISTRY NO=1482-78-6
##$NIST MASS SPEC NO=127305
##MOLFORM=C21 H32 O3
##MW=332
##$NIST SOURCE=MSDC
##XUNITS=M/Z
##YUNITS=RELATIVE INTENSITY
##XFACTOR=1
##YFACTOR=1
##FIRSTX=41
##LASTX=333
##FIRSTY=1883
##MAXX=333
##MINX=41
##MAXY=9999
##MINY=4
##NPOINTS=161
##PEAK TABLE=(XY..XY)
41,1883 43,9999 44,276 45,91
47,9 49,44 51,97 53,904
55,2964 56,213 57,216 58,33
61,937 63,18 65,449 67,2634
68,414 69,479 71,88 72,4
73,6 74,4 77,1105 79,2800
80,72 81,2073 82,30 83,405
84,15 85,72 86,27 87,17
89,11 91,2146 93,2521 94,691
95,984 97,779 98,51 99,10
101,48 103,125 105,1519 106,870
107,1616 108,2088 109,815 110,134
111,79 112,16 115,181 117,413
118,24 119,948 120,431 121,715
122,556 123,290 124,67 125,31
127,24 128,79 129,162 131,490
132,21 133,713 134,433 135,398
136,267 137,97 138,19 141,43
142,6 143,170 144,40 145,632
146,241 147,766 148,363 149,273
150,291 151,135 152,25 153,13
155,34 156,6 157,125 158,49
159,410 160,232 161,401 162,199
163,113 164,136 165,41 166,6
167,8 169,28 171,108 172,21
173,310 174,216 175,170 176,375
177,87 178,22 179,9 183,39
185,82 186,51 187,186 188,80
189,61 190,275 191,64 197,54
198,8 199,108 201,1011 202,198
203,99 204,56 205,22 211,25
213,421 215,655 216,662 218,1345
219,147 220,13 225,13 226,10
228,212 229,219 230,249 231,135
232,23 233,5 239,233 240,35
243,65 244,370 245,70 254,94
255,52 257,1212 258,205 259,22
261,12 272,4409 273,771 274,88
275,6 276,15 288,55 289,10
290,6 299,14 317,21 332,389
333,79
##END=
