##TITLE=2,5-Dimethoxythiophenol
##JCAMP-DX=4.24
##DATA TYPE=MASS SPECTRUM
##ORIGIN=NIST Mass Spectrometry Data Center, 1994
##OWNER=NIST Mass Spectrometry Data Center
Collection (C) 2014 copyright by the U.S. Secretary of Commerce
on behalf of the United States of America. All rights reserved.
##CAS REGISTRY NO=1483-27-8
##$NIST MASS SPEC NO=136494
##MOLFORM=C8 H10 O2 S
##MW=170
##$NIST SOURCE=MSDC
##XUNITS=M/Z
##YUNITS=RELATIVE INTENSITY
##XFACTOR=1
##YFACTOR=1
##FIRSTX=13
##LASTX=173
##FIRSTY=45
##MAXX=173
##MINX=13
##MAXY=9999
##MINY=25
##NPOINTS=108
##PEAK TABLE=(XY..XY)
13,45 14,157 15,2651 18,55
25,34 26,357 27,100 28,34
29,305 30,85 33,90 36,32
37,141 38,282 39,1077 40,92
41,306 42,65 43,31 44,31
45,951 46,76 47,211 48,27
49,87 50,463 51,1057 52,363
53,1188 54,531 55,479 56,76
57,662 58,519 59,99 60,56
61,259 62,440 63,670 64,175
65,1221 66,226 67,173 68,155
69,1066 70,619 71,271 72,93
73,101 74,41 75,190 76,38
77,341 78,137 79,782 80,133
81,265 82,461 83,505 84,908
85,993 86,129 87,81 91,105
92,172 93,421 94,207 95,1116
96,826 97,617 98,126 99,324
100,41 105,57 106,40 107,188
108,455 109,799 110,40 111,2761
112,936 113,90 114,53 122,80
123,1251 124,340 125,290 126,254
127,1723 128,120 129,103 137,49
138,125 139,132 140,91 141,42
152,29 153,90 155,9999 156,797
157,551 158,42 167,125 168,60
170,6465 171,622 172,315 173,25
##END=
