##TITLE=Benzene,(chloroethynyl)-
##JCAMP-DX=4.24
##DATA TYPE=MASS SPECTRUM
##ORIGIN=A.Pleshkova, Nesmeyanov Inst.Org.Elem.Cpds, Moscow
##OWNER=NIST Mass Spectrometry Data Center
Collection (C) 2014 copyright by the U.S. Secretary of Commerce
on behalf of the United States of America. All rights reserved.
##CAS REGISTRY NO=1483-82-5
##$NIST MASS SPEC NO=283758
##MOLFORM=C8 H5 Cl
##MW=136
##$NIST SOURCE=MSDC
##XUNITS=M/Z
##YUNITS=RELATIVE INTENSITY
##XFACTOR=1
##YFACTOR=1
##FIRSTX=49
##LASTX=140
##FIRSTY=150
##MAXX=140
##MINX=49
##MAXY=9999
##MINY=20
##NPOINTS=30
##PEAK TABLE=(XY..XY)
49,150 50,921 51,791 52,210
61,260 62,330 63,250 68,631
69,370 73,280 74,1371 75,1421
76,430 77,340 83,120 84,330
85,160 86,260 87,80 91,781
92,20 100,911 101,2632 102,1161
103,100 136,9999 137,801 138,3253
139,250 140,50
##END=
