##TITLE=Norephedrine, (.+/-.)-
##JCAMP-DX=4.24
##DATA TYPE=MASS SPECTRUM
##ORIGIN=Japan AIST/NIMC Database- Spectrum MS-IW-3339
##OWNER=NIST Mass Spectrometry Data Center
Collection (C) 2014 copyright by the U.S. Secretary of Commerce
on behalf of the United States of America. All rights reserved.
##CAS REGISTRY NO=14838-15-4
##$NIST MASS SPEC NO=243877
##MOLFORM=C9 H13 N O
##MW=151
##$NIST SOURCE=MSDC
##XUNITS=M/Z
##YUNITS=RELATIVE INTENSITY
##XFACTOR=1
##YFACTOR=1
##FIRSTX=15
##LASTX=136
##FIRSTY=30
##MAXX=136
##MINX=15
##MAXY=9999
##MINY=10
##NPOINTS=59
##PEAK TABLE=(XY..XY)
15,30 17,60 18,149 27,99
28,119 29,60 30,60 38,20
39,99 40,20 41,40 42,229
43,139 44,9999 45,409 50,90
51,309 52,80 53,50 55,10
56,10 57,20 58,20 59,10
60,10 62,20 63,60 64,10
65,40 66,10 73,20 74,30
75,20 76,20 77,749 78,169
79,559 80,40 89,50 90,40
91,129 92,20 103,20 104,10
105,239 106,80 107,299 108,60
115,30 116,10 117,109 118,109
119,30 130,10 131,10 132,60
133,30 134,10 136,10
##END=
