##TITLE=2-Heptynoic acid
##JCAMP-DX=4.24
##DATA TYPE=MASS SPECTRUM
##ORIGIN=NIST Mass Spectrometry Data Center, 1994
##OWNER=NIST Mass Spectrometry Data Center
Collection (C) 2014 copyright by the U.S. Secretary of Commerce
on behalf of the United States of America. All rights reserved.
##CAS REGISTRY NO=1483-67-6
##$NIST MASS SPEC NO=136241
##MOLFORM=C7 H10 O2
##MW=126
##$NIST SOURCE=MSDC
##XUNITS=M/Z
##YUNITS=RELATIVE INTENSITY
##XFACTOR=1
##YFACTOR=1
##FIRSTX=12
##LASTX=111
##FIRSTY=532
##MAXX=111
##MINX=12
##MAXY=9999
##MINY=19
##NPOINTS=47
##PEAK TABLE=(XY..XY)
12,532 13,59 14,27 15,580
16,720 18,57 25,104 26,822
27,6099 28,1340 29,439 36,58
37,626 38,1339 39,5992 40,2152
41,7166 42,1376 43,3567 44,6643
49,267 50,1299 51,1452 52,647
53,1580 54,2328 55,330 56,320
61,106 62,191 63,289 64,57
65,743 66,57 67,9999 68,539
73,19 75,33 77,283 78,55
79,409 80,77 81,1001 82,81
84,72 85,37 111,46
##END=
