##TITLE=2-Ethylpiperidine
##JCAMP-DX=4.24
##DATA TYPE=MASS SPECTRUM
##ORIGIN=Japan AIST/NIMC Database- Spectrum MS-NW-3079
##OWNER=NIST Mass Spectrometry Data Center
Collection (C) 2014 copyright by the U.S. Secretary of Commerce
on behalf of the United States of America. All rights reserved.
##CAS REGISTRY NO=1484-80-6
##$NIST MASS SPEC NO=231734
##MOLFORM=C7 H15 N
##MW=113
##$NIST SOURCE=MSDC
##XUNITS=M/Z
##YUNITS=RELATIVE INTENSITY
##XFACTOR=1
##YFACTOR=1
##FIRSTX=15
##LASTX=114
##FIRSTY=50
##MAXX=114
##MINX=15
##MAXY=9999
##MINY=10
##NPOINTS=51
##PEAK TABLE=(XY..XY)
15,50 26,40 27,369 28,819
29,329 30,749 38,20 39,319
40,50 41,679 42,389 43,149
44,129 50,20 51,30 52,30
53,99 54,159 55,499 56,2069
57,419 58,119 65,20 67,149
68,109 69,90 70,669 71,139
72,50 77,10 79,10 80,40
81,20 82,149 83,50 84,9999
85,669 86,20 91,10 93,10
94,10 95,20 96,40 97,10
98,219 99,20 110,30 111,10
112,389 113,219 114,20
##END=
