##TITLE=9H-Carbazole, 9-butyl-
##JCAMP-DX=4.24
##DATA TYPE=MASS SPECTRUM
##ORIGIN=A.A.Kutin, Moscow, Russia
##OWNER=NIST Mass Spectrometry Data Center
Collection (C) 2014 copyright by the U.S. Secretary of Commerce
on behalf of the United States of America. All rights reserved.
##CAS REGISTRY NO=1484-08-8
##$NIST MASS SPEC NO=266084
##MOLFORM=C16 H17 N
##MW=223
##$NIST SOURCE=MSDC
##XUNITS=M/Z
##YUNITS=RELATIVE INTENSITY
##XFACTOR=1
##YFACTOR=1
##FIRSTX=33
##LASTX=226
##FIRSTY=2
##MAXX=226
##MINX=33
##MAXY=9999
##MINY=1
##NPOINTS=148
##PEAK TABLE=(XY..XY)
33,2 34,2 36,6 37,3
38,19 39,161 40,47 41,136
42,25 43,50 44,41 45,14
47,5 50,40 51,76 52,21
53,16 54,9 55,45 56,10
57,28 59,3 60,8 61,8
62,38 63,112 64,31 65,20
66,4 67,7 68,5 69,20
70,14 71,13 72,1 73,8
74,51 75,101 76,135 77,129
78,22 79,4 80,2 81,17
83,22 84,27 85,19 86,31
87,60 88,56 89,91 90,273
94,3 95,32 97,32 99,39
100,22 101,46 102,48 103,20
105,2 107,3 108,4 109,4
110,13 112,126 113,100 114,47
115,81 116,36 117,8 122,3
123,4 124,2 125,35 126,67
127,107 128,35 129,7 130,2
131,2 135,2 136,5 137,36
138,70 139,250 140,312 141,45
142,7 143,3 144,3 147,4
148,2 149,13 150,90 151,391
152,1239 153,335 154,39 155,5
157,3 161,2 162,5 163,20
164,102 165,72 166,386 167,320
168,57 169,22 170,4 171,4
172,1 174,2 175,8 176,19
177,88 178,308 180,9999 181,1441
182,112 183,6 188,3 189,8
190,22 191,61 192,74 193,71
194,45 195,9 201,2 202,8
203,7 204,36 205,20 206,19
207,8 208,9 209,2 215,3
216,4 217,6 219,9 220,26
223,3567 224,591 225,54 226,1
##END=
