##TITLE=Benzylamine, TMS derivative
##JCAMP-DX=4.24
##DATA TYPE=MASS SPECTRUM
##ORIGIN=FLO 0009
##OWNER=NIST Mass Spectrometry Data Center
Collection (C) 2014 copyright by the U.S. Secretary of Commerce
on behalf of the United States of America. All rights reserved.
##CAS REGISTRY NO=14856-79-2
##$NIST MASS SPEC NO=7350
##MOLFORM=C10 H17 N Si
##MW=179
##$NIST SOURCE=MSDC
##XUNITS=M/Z
##YUNITS=RELATIVE INTENSITY
##XFACTOR=1
##YFACTOR=1
##FIRSTX=14
##LASTX=181
##FIRSTY=10
##MAXX=181
##MINX=14
##MAXY=9999
##MINY=10
##NPOINTS=124
##PEAK TABLE=(XY..XY)
14,10 15,10 18,10 26,10
27,10 28,140 29,20 30,30
31,10 32,20 39,40 40,10
41,70 42,90 43,1752 44,901
45,2612 46,310 47,100 49,10
50,210 51,601 52,170 53,290
54,80 55,210 56,210 57,320
58,721 59,3303 60,390 61,130
62,70 63,260 64,70 65,1651
66,150 67,90 68,40 69,60
70,70 71,70 72,390 73,7407
74,1091 75,410 76,70 77,621
78,220 79,410 80,50 81,50
82,310 83,70 84,40 85,60
86,861 87,110 88,60 89,230
90,50 91,2903 92,250 93,120
94,30 95,40 96,20 97,10
98,10 100,300 101,651 102,1912
103,280 104,390 105,380 106,761
107,360 108,40 109,40 110,10
115,10 116,10 117,40 118,30
119,180 120,60 121,230 122,50
123,10 130,20 131,60 132,290
133,130 134,100 135,9999 136,1501
137,450 138,50 143,10 144,10
145,160 146,100 147,300 148,611
149,120 150,40 151,10 152,90
153,10 160,20 161,10 162,390
163,70 164,7607 165,1251 166,380
167,30 174,10 176,30 177,90
178,2002 179,2602 180,510 181,120
##END=
