##TITLE=4-Octene, (E)-
##JCAMP-DX=4.24
##DATA TYPE=MASS SPECTRUM
##ORIGIN=Japan AIST/NIMC Database- Spectrum MS-NW-3367
##OWNER=NIST Mass Spectrometry Data Center
Collection (C) 2014 copyright by the U.S. Secretary of Commerce
on behalf of the United States of America. All rights reserved.
##CAS REGISTRY NO=14850-23-8
##$NIST MASS SPEC NO=227616
##MOLFORM=C8 H16
##MW=112
##$NIST SOURCE=MSDC
##XUNITS=M/Z
##YUNITS=RELATIVE INTENSITY
##XFACTOR=1
##YFACTOR=1
##FIRSTX=15
##LASTX=114
##FIRSTY=70
##MAXX=114
##MINX=15
##MAXY=9999
##MINY=10
##NPOINTS=56
##PEAK TABLE=(XY..XY)
15,70 18,10 26,109 27,1589
28,189 29,1419 30,30 36,10
37,30 38,90 39,1639 40,249
41,7799 42,2519 43,1159 44,40
49,10 50,109 51,229 52,109
53,649 54,719 55,9999 56,4339
57,1189 58,50 61,10 62,30
63,50 64,10 65,149 66,70
67,769 68,379 69,3229 70,4229
71,449 72,20 74,10 77,119
78,20 79,119 80,20 81,199
82,189 83,2879 84,699 85,50
91,20 95,20 97,139 98,10
110,10 112,3329 113,319 114,10
##END=
