##TITLE=3,4-Methylenedioxy-.beta.-nitrostyrene
##JCAMP-DX=4.24
##DATA TYPE=MASS SPECTRUM
##ORIGIN=NIST Mass Spectrometry Data Center, 1994
##OWNER=NIST Mass Spectrometry Data Center
Collection (C) 2014 copyright by the U.S. Secretary of Commerce
on behalf of the United States of America. All rights reserved.
##CAS REGISTRY NO=1485-00-3
##$NIST MASS SPEC NO=135651
##MOLFORM=C9 H7 N O4
##MW=193
##$NIST SOURCE=MSDC
##XUNITS=M/Z
##YUNITS=RELATIVE INTENSITY
##XFACTOR=1
##YFACTOR=1
##FIRSTX=10
##LASTX=195
##FIRSTY=29
##MAXX=195
##MINX=10
##MAXY=9999
##MINY=17
##NPOINTS=107
##PEAK TABLE=(XY..XY)
10,29 12,53 13,28 14,351
16,73 17,17 18,72 25,32
26,261 27,86 28,412 29,872
30,2715 32,20 37,625 38,1156
39,3011 40,268 41,140 42,202
44,32 46,503 49,326 50,2353
51,2776 52,910 53,1623 54,280
55,435 61,1113 62,4460 63,8544
64,938 65,2424 66,494 67,370
68,219 69,653 70,44 73,531
74,393 75,602 76,980 77,1889
78,1814 79,1440 80,406 81,109
82,136 83,71 84,61 85,214
86,617 87,940 88,1398 89,9732
90,1204 91,1143 92,413 93,195
94,189 95,580 96,79 101,72
102,101 103,218 104,295 105,810
106,864 107,334 108,217 109,202
111,45 117,1994 118,396 119,225
120,399 121,660 122,742 123,82
125,43 131,51 133,1110 134,300
135,823 136,257 137,566 138,277
139,42 145,4571 146,9999 147,1428
148,362 149,543 150,834 151,84
160,226 161,299 162,147 163,161
164,59 176,118 177,72 191,30
193,6824 194,719 195,105
##END=
