##TITLE=3-Octene, (Z)-
##JCAMP-DX=4.24
##DATA TYPE=MASS SPECTRUM
##ORIGIN=Japan AIST/NIMC Database- Spectrum MS-NW-3494
##OWNER=NIST Mass Spectrometry Data Center
Collection (C) 2014 copyright by the U.S. Secretary of Commerce
on behalf of the United States of America. All rights reserved.
##CAS REGISTRY NO=14850-22-7
##$NIST MASS SPEC NO=227617
##MOLFORM=C8 H16
##MW=112
##$NIST SOURCE=MSDC
##XUNITS=M/Z
##YUNITS=RELATIVE INTENSITY
##XFACTOR=1
##YFACTOR=1
##FIRSTX=14
##LASTX=114
##FIRSTY=20
##MAXX=114
##MINX=14
##MAXY=9999
##MINY=10
##NPOINTS=66
##PEAK TABLE=(XY..XY)
14,20 15,159 26,189 27,2499
28,389 29,1879 30,50 31,40
36,10 37,60 38,189 39,2599
40,499 41,9999 42,3749 43,1769
44,70 45,30 49,20 50,199
51,369 52,179 53,1109 54,749
55,9539 56,5349 57,1639 58,119
59,80 61,20 62,40 63,109
64,20 65,229 66,109 67,1029
68,659 69,4709 70,4839 71,639
72,60 73,20 74,20 75,10
77,159 78,30 79,169 80,30
81,269 82,199 83,2409 84,739
85,149 86,30 87,10 91,20
93,10 95,60 97,189 98,20
109,10 110,80 111,90 112,3579
113,339 114,10
##END=
