##TITLE=2-Hexadecanol
##JCAMP-DX=4.24
##DATA TYPE=MASS SPECTRUM
##ORIGIN=NIST Mass Spectrometry Data Center, 1990.
##OWNER=NIST Mass Spectrometry Data Center
Collection (C) 2014 copyright by the U.S. Secretary of Commerce
on behalf of the United States of America. All rights reserved.
##CAS REGISTRY NO=14852-31-4
##$NIST MASS SPEC NO=114352
##MOLFORM=C16 H34 O
##MW=242
##$NIST SOURCE=MSDC
##XUNITS=M/Z
##YUNITS=RELATIVE INTENSITY
##XFACTOR=1
##YFACTOR=1
##FIRSTX=15
##LASTX=227
##FIRSTY=60
##MAXX=227
##MINX=15
##MAXY=9999
##MINY=60
##NPOINTS=59
##PEAK TABLE=(XY..XY)
15,60 19,105 27,926 28,123
29,1929 31,141 39,715 41,4460
42,1081 43,4877 44,123 45,9999
46,218 53,326 54,575 55,3905
56,1773 57,3619 58,740 59,336
65,64 67,733 68,499 69,2686
70,1586 71,1832 72,110 79,106
81,384 82,745 83,2339 84,989
85,954 86,67 95,216 96,491
97,2351 98,627 99,224 109,72
110,287 111,1232 112,420 113,106
124,175 125,664 126,283 127,86
138,108 139,235 140,144 152,64
153,131 154,119 167,62 182,64
196,205 224,324 227,134
##END=
