##TITLE=Phosphine, methyldiphenyl-
##JCAMP-DX=4.24
##DATA TYPE=MASS SPECTRUM
##ORIGIN=Japan AIST/NIMC Database- Spectrum MS-IW-4527
##OWNER=NIST Mass Spectrometry Data Center
Collection (C) 2014 copyright by the U.S. Secretary of Commerce
on behalf of the United States of America. All rights reserved.
##CAS REGISTRY NO=1486-28-8
##$NIST MASS SPEC NO=234368
##MOLFORM=C13 H13 P
##MW=200
##$NIST SOURCE=MSDC
##XUNITS=M/Z
##YUNITS=RELATIVE INTENSITY
##XFACTOR=1
##YFACTOR=1
##FIRSTX=27
##LASTX=202
##FIRSTY=30
##MAXX=202
##MINX=27
##MAXY=9999
##MINY=10
##NPOINTS=104
##PEAK TABLE=(XY..XY)
27,30 28,10 39,109 41,10
45,99 50,80 51,319 52,40
53,20 56,30 57,139 62,20
63,80 64,10 65,129 66,10
68,20 69,70 70,20 71,20
74,30 75,30 76,60 77,449
78,189 79,119 80,50 81,129
82,40 83,90 85,60 86,20
87,20 89,40 90,50 91,519
92,249 93,10 94,10 95,139
96,20 97,30 98,90 99,149
100,359 101,10 102,30 104,10
105,10 107,499 108,149 109,60
115,169 116,10 119,10 120,50
121,559 122,60 123,129 124,10
126,20 127,20 128,70 129,10
131,20 133,189 134,10 139,80
140,10 141,119 142,10 144,20
145,10 146,10 150,10 151,40
152,789 153,169 154,90 155,20
157,269 158,30 159,50 165,80
166,30 167,10 169,20 170,239
171,40 181,80 182,30 183,6899
184,969 185,4649 186,619 187,40
194,10 195,10 196,10 197,40
199,2189 200,9999 201,1419 202,90
##END=
