##TITLE=4-Benzyloxybenzoic acid
##JCAMP-DX=4.24
##DATA TYPE=MASS SPECTRUM
##ORIGIN=NIST Mass Spectrometry Data Center, 1994
##OWNER=NIST Mass Spectrometry Data Center
Collection (C) 2014 copyright by the U.S. Secretary of Commerce
on behalf of the United States of America. All rights reserved.
##CAS REGISTRY NO=1486-51-7
##$NIST MASS SPEC NO=136463
##MOLFORM=C14 H12 O3
##MW=228
##$NIST SOURCE=MSDC
##XUNITS=M/Z
##YUNITS=RELATIVE INTENSITY
##XFACTOR=1
##YFACTOR=1
##FIRSTX=27
##LASTX=229
##FIRSTY=141
##MAXX=229
##MINX=27
##MAXY=9999
##MINY=28
##NPOINTS=49
##PEAK TABLE=(XY..XY)
27,141 29,79 31,38 38,43
39,599 42,28 44,45 45,140
50,281 51,467 52,107 53,269
55,89 61,62 62,206 63,640
64,283 65,1614 66,114 74,74
75,85 76,120 77,348 78,54
81,301 82,30 87,28 89,295
91,9999 92,865 93,45 105,444
106,57 107,94 109,106 115,36
120,274 121,63 132,50 133,218
134,32 137,63 152,37 153,38
161,215 162,33 179,106 228,923
229,146
##END=
