##TITLE=Cyclododecene, (E)-
##JCAMP-DX=4.24
##DATA TYPE=MASS SPECTRUM
##ORIGIN=NIST Mass Spectrometry Data Center, 1990.
##OWNER=NIST Mass Spectrometry Data Center
Collection (C) 2014 copyright by the U.S. Secretary of Commerce
on behalf of the United States of America. All rights reserved.
##CAS REGISTRY NO=1486-75-5
##$NIST MASS SPEC NO=113947
##MOLFORM=C12 H22
##MW=166
##$NIST SOURCE=MSDC
##XUNITS=M/Z
##YUNITS=RELATIVE INTENSITY
##XFACTOR=1
##YFACTOR=1
##FIRSTX=27
##LASTX=167
##FIRSTY=1813
##MAXX=167
##MINX=27
##MAXY=9999
##MINY=169
##NPOINTS=43
##PEAK TABLE=(XY..XY)
27,1813 28,577 29,1935 39,4591
40,1056 41,8996 42,1474 43,1065
51,513 52,366 53,2610 54,5735
55,7708 56,1162 57,548 65,987
66,1201 67,9999 68,3725 69,3014
70,457 77,793 78,240 79,1486
80,899 81,7876 82,6497 83,2229
84,260 91,296 93,371 95,3933
96,4361 97,1065 109,2043 110,963
111,169 123,708 124,410 137,222
138,346 166,2322 167,270
##END=
