##TITLE=Rhodium, dicarbonyl(2,4-pentanedionato-O,O')-, (SP-4-2)-
##JCAMP-DX=4.24
##DATA TYPE=MASS SPECTRUM
##ORIGIN=D.HENNEBERG, MAX-PLANCK INSTITUTE, MULHEIM, WEST GERMANY
##OWNER=NIST Mass Spectrometry Data Center
Collection (C) 2014 copyright by the U.S. Secretary of Commerce
on behalf of the United States of America. All rights reserved.
##CAS REGISTRY NO=14874-82-9
##$NIST MASS SPEC NO=63939
##MOLFORM=C7 H7 O4 Rh
##MW=258
##$NIST SOURCE=MSDC
##XUNITS=M/Z
##YUNITS=RELATIVE INTENSITY
##XFACTOR=1
##YFACTOR=1
##FIRSTX=26
##LASTX=260
##FIRSTY=267
##MAXX=260
##MINX=26
##MAXY=9999
##MINY=15
##NPOINTS=112
##PEAK TABLE=(XY..XY)
26,267 27,676 28,5611 29,265
30,21 31,97 32,35 37,43
38,107 39,316 40,56 41,203
42,323 43,5535 44,136 50,22
51,39 54,34 55,145 57,16
58,84 65,20 67,36 69,112
70,29 71,119 72,77 77,19
78,37 84,20 85,657 86,44
95,15 100,431 101,255 103,6370
104,519 105,21 115,1679 116,1273
117,1141 118,980 119,270 120,77
122,19 123,52 127,29 128,291
129,2371 130,2296 131,6032 132,918
133,46 135,16 140,168 141,82
142,1195 143,545 144,6407 145,563
146,5464 147,221 148,65 150,63
152,23 153,21 154,41 155,79
156,68 157,602 158,662 159,1112
160,398 165,23 168,42 169,31
170,188 171,134 172,7212 173,557
174,2058 175,116 178,25 180,26
181,23 182,56 185,29 186,271
187,591 188,70 200,47 201,159
202,6968 203,396 204,52 205,140
206,44 207,25 208,71 210,61
211,109 213,29 215,46 229,41
230,7533 231,552 232,51 256,36
257,38 258,9999 259,728 260,122
##END=
