##TITLE=Iron, tetracarbonyl(trimethyl phosphite-P)-
##JCAMP-DX=4.24
##DATA TYPE=MASS SPECTRUM
##ORIGIN=D.HENNEBERG, MAX-PLANCK INSTITUTE, MULHEIM, WEST GERMANY
##OWNER=NIST Mass Spectrometry Data Center
Collection (C) 2014 copyright by the U.S. Secretary of Commerce
on behalf of the United States of America. All rights reserved.
##CAS REGISTRY NO=14878-71-8
##$NIST MASS SPEC NO=61343
##MOLFORM=C7 H9 Fe O7 P
##MW=292
##$NIST SOURCE=MSDC
##XUNITS=M/Z
##YUNITS=RELATIVE INTENSITY
##XFACTOR=1
##YFACTOR=1
##FIRSTX=28
##LASTX=294
##FIRSTY=4245
##MAXX=294
##MINX=28
##MAXY=9999
##MINY=3
##NPOINTS=137
##PEAK TABLE=(XY..XY)
28,4245 29,69 30,46 31,252
32,10 56,544 57,22 62,128
63,1238 64,13 65,10 68,5
69,15 70,23 71,231 72,13
73,10 76,3 77,51 78,15
79,404 80,19 81,3 82,28
84,376 85,38 86,70 87,225
88,77 89,70 90,31 92,31
93,4085 94,661 95,39 101,14
102,8 103,163 104,89 105,209
106,5 108,3 109,1119 110,61
111,15 112,153 113,8 114,11
115,38 116,40 117,232 118,108
119,1377 120,166 121,21 124,844
125,45 126,5 130,5 131,21
132,31 133,318 134,344 135,3989
136,145 137,34 140,9 143,10
146,27 147,52 148,46 149,589
150,616 151,72 152,24 153,4
154,7 155,4 156,50 157,8
160,9 162,68 163,310 164,67
165,4896 166,236 167,49 174,15
175,42 176,8 177,580 178,67
179,102 180,9999 181,608 182,96
183,7 184,4 192,8 193,10
194,5 202,15 203,14 204,7
205,314 206,53 207,75 208,7645
209,516 210,106 211,34 212,3
221,6 230,3 231,19 233,300
234,78 235,41 236,851 237,66
238,20 239,21 240,5 249,4
259,26 261,399 262,165 263,20
264,1986 265,188 266,33 267,4
290,113 291,10 292,1794 293,192
294,39
##END=
