##TITLE=Iron, hexacarbonylbis[.mu.-(methanethiolato)]di-, (Fe-Fe)
##JCAMP-DX=4.24
##DATA TYPE=MASS SPECTRUM
##ORIGIN=B.F.G.JOHNSON DEPT. OF CHEM., UNIV. OF MANCHESTER, UK
##OWNER=NIST Mass Spectrometry Data Center
Collection (C) 2014 copyright by the U.S. Secretary of Commerce
on behalf of the United States of America. All rights reserved.
##CAS REGISTRY NO=14878-96-7
##$NIST MASS SPEC NO=23575
##MOLFORM=C8 H6 Fe2 O6 S2
##MW=374
##$NIST SOURCE=MSDC
##XUNITS=M/Z
##YUNITS=RELATIVE INTENSITY
##XFACTOR=1
##YFACTOR=1
##FIRSTX=56
##LASTX=374
##FIRSTY=830
##MAXX=374
##MINX=56
##MAXY=9999
##MINY=20
##NPOINTS=19
##PEAK TABLE=(XY..XY)
56,830 103,1530 112,510 117,620
131,570 135,51 144,2290 159,480
176,4170 206,9999 219,170 232,130
234,4360 262,2180 275,20 290,3030
318,3190 346,2680 374,2990
##END=
