##TITLE=Manganese, pentacarbonyliodo-
##JCAMP-DX=4.24
##DATA TYPE=MASS SPECTRUM
##ORIGIN=B.F.G.JOHNSON DEPT. OF CHEM., UNIV. OF MANCHESTER, UK
##OWNER=NIST Mass Spectrometry Data Center
Collection (C) 2014 copyright by the U.S. Secretary of Commerce
on behalf of the United States of America. All rights reserved.
##CAS REGISTRY NO=14879-42-6
##$NIST MASS SPEC NO=15180
##MOLFORM=C5 I Mn O5
##MW=322
##$NIST SOURCE=MSDC
##XUNITS=M/Z
##YUNITS=RELATIVE INTENSITY
##XFACTOR=1
##YFACTOR=1
##FIRSTX=83
##LASTX=323
##FIRSTY=5200
##MAXX=323
##MINX=83
##MAXY=9999
##MINY=60
##NPOINTS=12
##PEAK TABLE=(XY..XY)
83,5200 111,1440 139,280 167,60
182,9999 194,220 195,130 210,2640
238,5750 266,4480 322,6950 323,400
##END=
