##TITLE=N-Methylbenzylamine, TMS derivative
##JCAMP-DX=4.24
##DATA TYPE=MASS SPECTRUM
##ORIGIN=CARL DJERASSI DEPT OF CHEM STANFORD UNIV STANFORD CALIF 94305
##OWNER=NIST Mass Spectrometry Data Center
Collection (C) 2014 copyright by the U.S. Secretary of Commerce
on behalf of the United States of America. All rights reserved.
##CAS REGISTRY NO=14884-70-9
##$NIST MASS SPEC NO=47266
##MOLFORM=C11 H19 N Si
##MW=193
##$NIST SOURCE=MSDC
##XUNITS=M/Z
##YUNITS=RELATIVE INTENSITY
##XFACTOR=1
##YFACTOR=1
##FIRSTX=41
##LASTX=195
##FIRSTY=600
##MAXX=195
##MINX=41
##MAXY=9999
##MINY=100
##NPOINTS=93
##PEAK TABLE=(XY..XY)
41,600 42,2800 43,2900 44,2900
45,3600 46,300 47,300 50,400
51,1100 52,400 53,300 54,100
55,300 56,400 57,400 58,700
59,3700 60,300 61,200 62,100
63,500 64,100 65,1900 66,500
67,100 69,100 70,100 71,100
72,400 73,9900 74,1000 75,2300
76,300 77,1000 78,400 79,200
81,100 82,100 86,500 87,200
88,200 89,700 90,200 91,5400
92,900 93,200 95,100 100,400
101,100 102,400 103,100 104,200
105,400 106,100 107,100 114,100
115,400 116,9999 117,1200 118,900
119,400 120,2400 121,1700 122,200
131,300 132,200 133,200 134,100
135,7300 136,1000 137,200 145,100
146,200 147,3200 148,600 149,2900
150,400 151,200 160,200 161,100
162,400 163,100 164,700 165,200
176,600 177,200 178,7200 179,1400
180,400 192,1100 193,5300 194,900
195,300
##END=
