##TITLE=2-Butanol, (R)-
##JCAMP-DX=4.24
##DATA TYPE=MASS SPECTRUM
##ORIGIN=D.HENNEBERG, MAX-PLANCK INSTITUTE, MULHEIM, WEST GERMANY
##OWNER=NIST Mass Spectrometry Data Center
Collection (C) 2014 copyright by the U.S. Secretary of Commerce
on behalf of the United States of America. All rights reserved.
##CAS REGISTRY NO=14898-79-4
##$NIST MASS SPEC NO=61056
##MOLFORM=C4 H10 O
##MW=74
##$NIST SOURCE=MSDC
##XUNITS=M/Z
##YUNITS=RELATIVE INTENSITY
##XFACTOR=1
##YFACTOR=1
##FIRSTX=26
##LASTX=74
##FIRSTY=373
##MAXX=74
##MINX=26
##MAXY=9999
##MINY=3
##NPOINTS=34
##PEAK TABLE=(XY..XY)
26,373 27,1326 28,1309 29,660
30,34 31,1881 32,79 37,25
38,56 39,375 40,60 41,1143
42,131 43,879 44,935 45,9999
46,213 47,9 49,12 50,46
51,30 52,6 53,38 54,9
55,225 56,146 57,219 58,48
59,1819 60,53 71,3 72,15
73,110 74,21
##END=
