##TITLE=Butacaine
##JCAMP-DX=4.24
##DATA TYPE=MASS SPECTRUM
##ORIGIN=NIST Mass Spectrometry Data Center, 1990.
##OWNER=NIST Mass Spectrometry Data Center
Collection (C) 2014 copyright by the U.S. Secretary of Commerce
on behalf of the United States of America. All rights reserved.
##CAS REGISTRY NO=149-16-6
##$NIST MASS SPEC NO=113849
##MOLFORM=C18 H30 N2 O2
##MW=306
##$NIST SOURCE=MSDC
##XUNITS=M/Z
##YUNITS=RELATIVE INTENSITY
##XFACTOR=1
##YFACTOR=1
##FIRSTX=14
##LASTX=306
##FIRSTY=69
##MAXX=306
##MINX=14
##MAXY=9999
##MINY=35
##NPOINTS=77
##PEAK TABLE=(XY..XY)
14,69 27,215 28,728 29,938
30,243 32,124 38,43 39,376
41,1618 42,985 43,350 44,760
52,65 53,70 54,124 55,337
56,329 57,713 58,690 63,100
64,148 65,1006 66,114 67,58
68,356 69,237 70,522 71,76
72,74 81,39 82,151 84,900
85,87 86,154 90,43 91,210
92,1338 93,180 94,60 96,73
98,480 100,2284 101,163 104,38
106,35 111,610 112,227 118,77
120,9999 121,825 122,61 124,64
126,338 127,48 128,109 132,128
137,457 138,83 140,182 142,2702
143,312 144,51 168,93 169,84
178,2837 179,333 186,93 207,62
249,60 250,65 261,82 263,3895
264,651 265,72 289,38 304,69
306,146
##END=
