##TITLE=Silane, dichloromethylphenyl-
##JCAMP-DX=4.24
##DATA TYPE=MASS SPECTRUM
##ORIGIN=Japan AIST/NIMC Database- Spectrum MS-NW-4826
##OWNER=NIST Mass Spectrometry Data Center
Collection (C) 2014 copyright by the U.S. Secretary of Commerce
on behalf of the United States of America. All rights reserved.
##CAS REGISTRY NO=149-74-6
##$NIST MASS SPEC NO=231445
##MOLFORM=C7 H8 Cl2 Si
##MW=190
##$NIST SOURCE=MSDC
##XUNITS=M/Z
##YUNITS=RELATIVE INTENSITY
##XFACTOR=1
##YFACTOR=1
##FIRSTX=14
##LASTX=196
##FIRSTY=10
##MAXX=196
##MINX=14
##MAXY=9999
##MINY=10
##NPOINTS=132
##PEAK TABLE=(XY..XY)
14,10 15,40 26,30 27,129
28,149 29,20 32,50 35,10
36,80 37,30 38,60 39,279
40,20 41,50 42,20 43,50
44,20 47,20 49,30 50,409
51,1189 52,139 53,189 54,20
55,10 61,20 62,50 63,1659
64,99 65,579 66,40 67,30
73,20 74,99 75,99 76,219
77,1669 78,239 79,99 80,30
81,20 86,10 87,119 88,80
89,129 90,40 91,899 92,119
93,40 94,40 95,30 97,10
98,60 99,40 100,40 101,40
102,10 103,109 104,20 105,139
106,20 107,10 111,10 112,119
113,679 114,119 115,469 116,40
117,80 118,10 119,90 120,20
121,10 123,119 124,10 125,90
126,10 127,40 128,10 129,20
130,10 131,10 133,90 134,20
135,10 136,10 137,10 139,189
140,129 141,99 142,50 143,70
144,10 146,10 147,30 148,50
149,50 150,10 151,30 152,20
153,30 154,30 155,579 156,109
157,229 158,60 159,129 160,10
161,50 162,10 163,10 165,10
167,40 169,10 170,20 173,10
174,60 175,9999 176,1249 177,6799
178,799 179,1269 180,149 181,50
182,10 190,2429 191,349 192,1669
193,219 194,329 195,50 196,20
##END=
