##TITLE=Erythritol
##JCAMP-DX=4.24
##DATA TYPE=MASS SPECTRUM
##ORIGIN=NIST Mass Spectrometry Data Center, 1998.
##OWNER=NIST Mass Spectrometry Data Center
Collection (C) 2014 copyright by the U.S. Secretary of Commerce
on behalf of the United States of America. All rights reserved.
##CAS REGISTRY NO=149-32-6
##$NIST MASS SPEC NO=292004
##MOLFORM=C4 H10 O4
##MW=122
##$NIST SOURCE=MSDC
##XUNITS=M/Z
##YUNITS=RELATIVE INTENSITY
##XFACTOR=1
##YFACTOR=1
##FIRSTX=14
##LASTX=104
##FIRSTY=80
##MAXX=104
##MINX=14
##MAXY=9999
##MINY=50
##NPOINTS=36
##PEAK TABLE=(XY..XY)
14,80 15,380 27,770 29,1050
30,220 31,2360 38,90 39,130
41,100 42,1340 43,5609 44,8969
45,2730 47,280 55,720 56,1420
57,360 58,180 59,180 60,1630
61,9999 62,640 63,60 69,70
71,130 72,80 73,1100 74,1170
75,370 76,70 86,60 87,50
90,70 91,1390 101,190 104,90
##END=
