##TITLE=Tetradecane, 2,6,10-trimethyl-
##JCAMP-DX=4.24
##DATA TYPE=MASS SPECTRUM
##ORIGIN=E.D.MCCARTHY CALIFORNIA UNIV., BERKELEY, U.S.A
##OWNER=NIST Mass Spectrometry Data Center
Collection (C) 2014 copyright by the U.S. Secretary of Commerce
on behalf of the United States of America. All rights reserved.
##CAS REGISTRY NO=14905-56-7
##$NIST MASS SPEC NO=11556
##MOLFORM=C17 H36
##MW=240
##$NIST SOURCE=MSDC
##XUNITS=M/Z
##YUNITS=RELATIVE INTENSITY
##XFACTOR=1
##YFACTOR=1
##FIRSTX=41
##LASTX=240
##FIRSTY=3846
##MAXX=240
##MINX=41
##MAXY=9999
##MINY=13
##NPOINTS=112
##PEAK TABLE=(XY..XY)
41,3846 42,1025 43,7827 44,400
45,13 53,269 54,215 55,2820
56,2564 57,9999 58,499 59,40
60,94 64,148 65,80 66,53
67,377 68,256 69,1470 70,1093
71,6410 72,364 73,94 74,40
76,40 77,80 78,53 79,148
80,67 81,323 82,188 83,620
84,1794 85,5006 86,323 87,40
91,121 92,53 93,94 94,67
95,256 96,229 97,701 98,364
99,917 100,94 104,40 105,67
106,40 107,67 108,53 109,148
110,107 111,310 112,283 113,1282
114,134 115,53 117,40 118,26
119,53 120,40 121,80 122,40
123,121 124,67 125,134 126,310
127,445 128,67 129,40 133,40
135,67 136,40 137,80 138,40
139,53 140,67 141,175 142,40
143,40 147,40 149,107 150,40
151,53 152,40 153,40 154,472
155,1349 156,161 157,26 163,40
165,40 167,40 168,53 169,80
177,40 182,202 183,634 184,107
196,40 197,94 198,26 207,26
210,40 211,80 212,26 225,107
226,26 238,13 239,13 240,80
##END=
