##TITLE=4-Pyridinecarbonitrile, 1-oxide
##JCAMP-DX=4.24
##DATA TYPE=MASS SPECTRUM
##ORIGIN=Japan AIST/NIMC Database- Spectrum MS-NW-1375
##OWNER=NIST Mass Spectrometry Data Center
Collection (C) 2014 copyright by the U.S. Secretary of Commerce
on behalf of the United States of America. All rights reserved.
##CAS REGISTRY NO=14906-59-3
##$NIST MASS SPEC NO=233453
##MOLFORM=C6 H4 N2 O
##MW=120
##$NIST SOURCE=MSDC
##XUNITS=M/Z
##YUNITS=RELATIVE INTENSITY
##XFACTOR=1
##YFACTOR=1
##FIRSTX=12
##LASTX=122
##FIRSTY=20
##MAXX=122
##MINX=12
##MAXY=9999
##MINY=10
##NPOINTS=59
##PEAK TABLE=(XY..XY)
12,20 13,10 14,20 24,20
25,50 26,549 27,129 28,409
29,299 30,459 31,10 36,70
37,1069 38,1799 39,889 40,159
41,789 42,649 43,30 44,109
48,40 49,239 50,939 51,679
52,549 53,159 57,10 60,439
61,269 62,459 63,939 64,2929
65,2459 66,259 67,20 68,20
69,10 74,50 75,359 76,1149
77,1349 78,139 79,10 86,10
87,60 88,119 89,30 90,209
91,149 92,489 93,1409 94,99
103,859 104,1749 105,129 119,99
120,9999 121,729 122,50
##END=
