##TITLE=Pyridine, 4-ethyl-, 1-oxide
##JCAMP-DX=4.24
##DATA TYPE=MASS SPECTRUM
##OWNER=NIST Mass Spectrometry Data Center
Collection (C) 2014 copyright by the U.S. Secretary of Commerce
on behalf of the United States of America. All rights reserved.
##CAS REGISTRY NO=14906-55-9
##$NIST MASS SPEC NO=2317
##MOLFORM=C7 H9 N O
##MW=123
##$NIST SOURCE=MSDC
##XUNITS=M/Z
##YUNITS=RELATIVE INTENSITY
##XFACTOR=1
##YFACTOR=1
##FIRSTX=37
##LASTX=124
##FIRSTY=200
##MAXX=124
##MINX=37
##MAXY=9999
##MINY=100
##NPOINTS=38
##PEAK TABLE=(XY..XY)
37,200 38,200 39,1001 40,200
41,300 43,300 50,300 51,701
52,400 53,500 54,200 55,200
61,200 62,200 63,300 64,200
65,801 66,200 67,200 76,200
77,400 78,400 79,500 80,300
81,200 91,1001 92,1101 93,200
104,200 105,200 106,2202 107,2402
108,9999 109,701 121,100 122,200
123,7206 124,601
##END=
