##TITLE=3-Octene, (E)-
##JCAMP-DX=4.24
##DATA TYPE=MASS SPECTRUM
##ORIGIN=NIST Mass Spectrometry Data Center, 1990.
##OWNER=NIST Mass Spectrometry Data Center
Collection (C) 2014 copyright by the U.S. Secretary of Commerce
on behalf of the United States of America. All rights reserved.
##CAS REGISTRY NO=14919-01-8
##$NIST MASS SPEC NO=113893
##MOLFORM=C8 H16
##MW=112
##$NIST SOURCE=MSDC
##XUNITS=M/Z
##YUNITS=RELATIVE INTENSITY
##XFACTOR=1
##YFACTOR=1
##FIRSTX=14
##LASTX=113
##FIRSTY=67
##MAXX=113
##MINX=14
##MAXY=9999
##MINY=43
##NPOINTS=41
##PEAK TABLE=(XY..XY)
14,67 15,119 26,232 27,2504
28,121 29,1722 31,43 37,61
38,298 39,3610 40,43 41,9999
42,3003 43,1106 44,134 50,238
51,467 52,226 53,1143 54,920
55,8362 56,4376 57,1171 63,106
65,294 66,118 67,1146 68,620
69,3937 70,3991 71,375 77,171
78,46 79,161 81,119 82,205
83,1644 84,607 97,137 112,2580
113,236
##END=
