##TITLE=3-Octyn-1-ol
##JCAMP-DX=4.24
##DATA TYPE=MASS SPECTRUM
##ORIGIN=Japan AIST/NIMC Database- Spectrum MS-NW-3397
##OWNER=NIST Mass Spectrometry Data Center
Collection (C) 2014 copyright by the U.S. Secretary of Commerce
on behalf of the United States of America. All rights reserved.
##CAS REGISTRY NO=14916-80-4
##$NIST MASS SPEC NO=231880
##MOLFORM=C8 H14 O
##MW=126
##$NIST SOURCE=MSDC
##XUNITS=M/Z
##YUNITS=RELATIVE INTENSITY
##XFACTOR=1
##YFACTOR=1
##FIRSTX=14
##LASTX=127
##FIRSTY=10
##MAXX=127
##MINX=14
##MAXY=9999
##MINY=10
##NPOINTS=92
##PEAK TABLE=(XY..XY)
14,10 15,139 17,20 18,70
25,10 26,239 27,3419 28,169
29,1359 30,70 31,2839 32,40
33,10 36,10 37,119 38,309
39,3369 40,909 41,5769 42,879
43,1869 44,249 45,499 46,20
49,50 50,579 51,1379 52,1619
53,5199 54,9999 55,5439 56,1559
57,489 58,90 59,70 60,20
61,80 62,179 63,459 64,109
65,1699 66,1549 67,5109 68,1199
69,3119 70,389 71,189 72,30
73,40 74,70 75,169 76,30
77,1659 78,339 79,2239 80,609
81,3259 82,1569 83,2159 84,6049
85,459 86,40 87,10 89,20
90,10 91,729 92,90 93,2149
94,269 95,2049 96,339 97,1249
98,219 99,80 100,10 103,10
105,60 106,10 107,139 108,159
109,80 110,20 111,379 112,60
113,10 121,30 122,10 123,10
124,10 125,50 126,169 127,20
##END=
