##TITLE=5-Hexynenitrile
##JCAMP-DX=4.24
##DATA TYPE=MASS SPECTRUM
##ORIGIN=NIST Mass Spectrometry Data Center
##OWNER=NIST Mass Spectrometry Data Center
Collection (C) 2014 copyright by the U.S. Secretary of Commerce
on behalf of the United States of America. All rights reserved.
##CAS REGISTRY NO=14918-21-9
##$NIST MASS SPEC NO=342626
##MOLFORM=C6 H7 N
##MW=93
##$NIST SOURCE=MSDC
##XUNITS=M/Z
##YUNITS=RELATIVE INTENSITY
##XFACTOR=1
##YFACTOR=1
##FIRSTX=12
##LASTX=94
##FIRSTY=70
##MAXX=94
##MINX=12
##MAXY=9999
##MINY=10
##NPOINTS=46
##PEAK TABLE=(XY..XY)
12,70 13,110 14,110 15,40
18,30 24,40 25,180 26,1171
27,4514 28,1161 36,140 37,1351
38,2472 39,7006 40,2272 41,7136
42,260 48,40 49,340 50,1601
51,1942 52,1151 53,9999 54,1321
55,50 60,60 61,340 62,390
63,591 64,480 65,1641 66,3823
67,540 68,20 75,30 76,40
77,10 78,120 79,10 86,20
87,50 88,20 90,20 92,1481
93,250 94,20
##END=
