##TITLE=3-Heptyn-1-ol
##JCAMP-DX=4.24
##DATA TYPE=MASS SPECTRUM
##ORIGIN=Japan AIST/NIMC Database- Spectrum MS-NW-2218
##OWNER=NIST Mass Spectrometry Data Center
Collection (C) 2014 copyright by the U.S. Secretary of Commerce
on behalf of the United States of America. All rights reserved.
##CAS REGISTRY NO=14916-79-1
##$NIST MASS SPEC NO=234071
##MOLFORM=C7 H12 O
##MW=112
##$NIST SOURCE=MSDC
##XUNITS=M/Z
##YUNITS=RELATIVE INTENSITY
##XFACTOR=1
##YFACTOR=1
##FIRSTX=14
##LASTX=113
##FIRSTY=10
##MAXX=113
##MINX=14
##MAXY=9999
##MINY=10
##NPOINTS=68
##PEAK TABLE=(XY..XY)
14,10 15,60 17,60 18,309
26,159 27,1559 28,149 29,879
30,30 31,1889 32,20 37,80
38,179 39,1819 40,519 41,3019
42,599 43,539 44,109 45,70
49,40 50,369 51,749 52,799
53,3209 54,2829 55,1389 56,219
57,209 58,50 60,10 61,40
62,99 63,199 64,50 65,939
66,629 67,9999 68,669 69,459
70,249 71,109 72,10 73,10
74,40 75,30 77,899 78,129
79,1759 80,179 81,1149 82,1559
83,469 84,469 85,30 91,169
92,20 93,169 94,189 95,50
96,20 97,349 98,20 99,10
110,40 111,60 112,859 113,60
##END=
