##TITLE=Ethyl cyclobutanecarboxylate
##JCAMP-DX=4.24
##DATA TYPE=MASS SPECTRUM
##ORIGIN=V.G.Zaikin, Petrochem. Synth. Inst., Moscow
##OWNER=NIST Mass Spectrometry Data Center
Collection (C) 2014 copyright by the U.S. Secretary of Commerce
on behalf of the United States of America. All rights reserved.
##CAS REGISTRY NO=14924-53-9
##$NIST MASS SPEC NO=280399
##MOLFORM=C7 H12 O2
##MW=128
##$NIST SOURCE=MSDC
##XUNITS=M/Z
##YUNITS=RELATIVE INTENSITY
##XFACTOR=1
##YFACTOR=1
##FIRSTX=25
##LASTX=129
##FIRSTY=140
##MAXX=129
##MINX=25
##MAXY=9999
##MINY=10
##NPOINTS=59
##PEAK TABLE=(XY..XY)
25,140 26,1882 27,6616 28,2933
29,7537 30,571 31,450 37,140
38,290 39,3333 40,410 41,1732
42,951 43,2462 44,881 45,3954
46,90 49,70 50,390 51,591
52,380 53,2182 54,3493 55,9999
56,6376 57,891 58,1672 59,150
60,250 67,70 68,110 69,761
70,60 71,280 72,891 73,4194
74,190 75,20 78,160 79,190
80,40 81,290 82,2492 83,6756
84,851 85,771 86,90 87,30
98,110 99,1752 100,6696 101,2662
102,180 112,10 113,561 114,40
127,110 128,921 129,280
##END=
