##TITLE=Benzene, 1-fluoro-2-nitro-
##JCAMP-DX=4.24
##DATA TYPE=MASS SPECTRUM
##ORIGIN=RADIAN CORP
##OWNER=NIST Mass Spectrometry Data Center
Collection (C) 2014 copyright by the U.S. Secretary of Commerce
on behalf of the United States of America. All rights reserved.
##CAS REGISTRY NO=1493-27-2
##$NIST MASS SPEC NO=69573
##MOLFORM=C6 H4 F N O2
##MW=141
##$NIST SOURCE=MSDC
##XUNITS=M/Z
##YUNITS=RELATIVE INTENSITY
##XFACTOR=1
##YFACTOR=1
##FIRSTX=16
##LASTX=143
##FIRSTY=30
##MAXX=143
##MINX=16
##MAXY=9999
##MINY=10
##NPOINTS=69
##PEAK TABLE=(XY..XY)
16,30 25,10 26,50 27,40
28,60 29,10 30,1650 31,210
32,20 33,20 36,30 37,230
38,220 39,240 40,10 44,90
45,120 46,300 48,30 49,210
50,1170 51,730 52,70 53,10
55,40 56,210 57,1410 58,60
60,50 61,280 62,310 63,410
64,70 68,950 69,1410 70,80
72,20 73,230 74,1330 75,8120
76,600 77,30 79,10 80,50
81,190 82,230 83,5120 84,290
87,10 89,20 91,20 92,210
93,320 94,850 95,7400 96,510
97,10 108,20 109,30 110,20
111,3460 112,230 113,20 123,20
125,600 126,40 141,9999 142,720
143,70
##END=
