##TITLE=Bis(dimethylamino)methylphosphine
##JCAMP-DX=4.24
##DATA TYPE=MASS SPECTRUM
##ORIGIN=CBDCOM/ERDEC, Edgewood, MD
##OWNER=NIST Mass Spectrometry Data Center
Collection (C) 2014 copyright by the U.S. Secretary of Commerce
on behalf of the United States of America. All rights reserved.
##CAS REGISTRY NO=14937-39-4
##$NIST MASS SPEC NO=226501
##MOLFORM=C5 H15 N2 P
##MW=134
##$NIST SOURCE=MSDC
##XUNITS=M/Z
##YUNITS=RELATIVE INTENSITY
##XFACTOR=1
##YFACTOR=1
##FIRSTX=15
##LASTX=135
##FIRSTY=1471
##MAXX=135
##MINX=15
##MAXY=9999
##MINY=20
##NPOINTS=42
##PEAK TABLE=(XY..XY)
15,1471 27,360 28,1791 30,790
33,40 39,30 40,290 41,540
42,6295 43,1291 44,9999 45,2992
46,360 47,890 48,20 49,20
57,60 58,730 59,360 61,360
62,590 63,2292 67,170 72,30
73,40 74,730 75,290 76,9999
77,140 88,60 89,1090 90,9498
91,640 92,320 106,740 107,170
119,7797 120,440 122,60 123,30
134,440 135,30
##END=
