##TITLE=Methanethiol, trifluoro-
##JCAMP-DX=4.24
##DATA TYPE=MASS SPECTRUM
##OWNER=NIST Mass Spectrometry Data Center
Collection (C) 2014 copyright by the U.S. Secretary of Commerce
on behalf of the United States of America. All rights reserved.
##CAS REGISTRY NO=1493-15-8
##$NIST MASS SPEC NO=1235
##MOLFORM=C H F3 S
##MW=102
##$NIST SOURCE=MSDC
##XUNITS=M/Z
##YUNITS=RELATIVE INTENSITY
##XFACTOR=1
##YFACTOR=1
##FIRSTX=12
##LASTX=104
##FIRSTY=651
##MAXX=104
##MINX=12
##MAXY=9999
##MINY=10
##NPOINTS=34
##PEAK TABLE=(XY..XY)
12,651 13,20 19,260 20,480
31,1651 32,2182 33,2122 34,120
35,180 41,30 44,530 45,60
46,30 47,10 48,10 50,791
51,260 52,50 53,10 63,4504
64,100 65,210 69,9999 70,110
77,10 78,10 82,4414 83,1912
84,230 85,250 101,100 102,9669
103,160 104,380
##END=
