##TITLE=tri-n-Propylphosphine oxide
##JCAMP-DX=4.24
##DATA TYPE=MASS SPECTRUM
##ORIGIN=H. Keck, Inst. Inorg. Struct. Chem., Heinrich-Heine Univ., Dusseldorf, Ger.
##OWNER=NIST Mass Spectrometry Data Center
Collection (C) 2014 copyright by the U.S. Secretary of Commerce
on behalf of the United States of America. All rights reserved.
##CAS REGISTRY NO=1496-94-2
##$NIST MASS SPEC NO=115541
##MOLFORM=C9 H21 O P
##MW=176
##$NIST SOURCE=MSDC
##XUNITS=M/Z
##YUNITS=RELATIVE INTENSITY
##XFACTOR=1
##YFACTOR=1
##FIRSTX=39
##LASTX=177
##FIRSTY=1170
##MAXX=177
##MINX=39
##MAXY=9999
##MINY=290
##NPOINTS=35
##PEAK TABLE=(XY..XY)
39,1170 40,970 41,4270 42,780
43,4170 45,680 47,1360 48,390
49,1360 63,4270 64,2620 72,390
73,1940 75,580 76,390 77,350
78,8250 89,380 91,1070 92,7090
93,390 106,9999 107,680 108,490
109,390 119,1360 120,1260 133,4270
134,8540 135,780 161,4370 162,490
175,290 176,1750 177,290
##END=
