##TITLE=Methanone, bis(4-phenoxyphenyl)-
##JCAMP-DX=4.24
##DATA TYPE=MASS SPECTRUM
##ORIGIN=NIST Mass Spectrometry Data Center, 1994
##OWNER=NIST Mass Spectrometry Data Center
Collection (C) 2014 copyright by the U.S. Secretary of Commerce
on behalf of the United States of America. All rights reserved.
##CAS REGISTRY NO=14984-21-5
##$NIST MASS SPEC NO=135870
##MOLFORM=C25 H18 O3
##MW=366
##$NIST SOURCE=MSDC
##XUNITS=M/Z
##YUNITS=RELATIVE INTENSITY
##XFACTOR=1
##YFACTOR=1
##FIRSTX=32
##LASTX=368
##FIRSTY=73
##MAXX=368
##MINX=32
##MAXY=9999
##MINY=64
##NPOINTS=47
##PEAK TABLE=(XY..XY)
32,73 38,102 39,517 50,487
51,1577 63,337 64,316 65,435
66,84 75,203 76,417 77,2396
78,194 89,110 91,166 92,295
93,154 102,69 113,64 115,2789
116,260 121,198 128,64 139,644
141,2509 142,320 151,92 152,151
157,101 168,342 169,192 183,171
195,69 197,9999 198,1481 199,164
202,108 215,94 233,145 261,318
273,3758 274,821 275,113 338,147
366,9142 367,2678 368,390
##END=
