##TITLE=Ethyl 2-bromotetradecanoate
##JCAMP-DX=4.24
##DATA TYPE=MASS SPECTRUM
##ORIGIN=NIST Mass Spectrometry Data Center, 1990.
##OWNER=NIST Mass Spectrometry Data Center
Collection (C) 2014 copyright by the U.S. Secretary of Commerce
on behalf of the United States of America. All rights reserved.
##CAS REGISTRY NO=14980-92-8
##$NIST MASS SPEC NO=118313
##MOLFORM=C16 H31 Br O2
##MW=334
##$NIST SOURCE=MSDC
##XUNITS=M/Z
##YUNITS=RELATIVE INTENSITY
##XFACTOR=1
##YFACTOR=1
##FIRSTX=15
##LASTX=337
##FIRSTY=116
##MAXX=337
##MINX=15
##MAXY=9999
##MINY=27
##NPOINTS=197
##PEAK TABLE=(XY..XY)
15,116 16,27 18,78 19,35
26,203 27,2679 28,977 29,8847
30,242 31,147 39,1558 41,9293
42,1957 43,9999 44,393 45,649
46,59 47,40 51,61 52,96
53,935 54,1068 55,8571 56,1688
57,5933 58,328 59,156 60,243
61,233 62,34 65,167 66,149
67,1794 68,856 69,4355 70,1256
71,2123 72,34 73,5588 74,253
75,63 76,28 77,97 78,28
79,338 80,259 81,1791 82,565
83,2666 84,890 85,1118 86,307
87,631 88,1503 89,264 91,86
92,33 93,289 94,159 95,1732
96,754 97,2265 98,1288 99,1149
100,33 101,4961 102,468 103,35
105,70 106,92 107,323 108,220
109,1247 110,457 111,1143 112,319
113,649 114,147 115,1109 116,152
118,31 119,141 120,120 121,483
122,136 123,654 124,443 125,600
126,123 127,473 128,138 129,611
130,108 131,35 133,147 134,126
135,516 136,77 137,529 138,1451
139,386 140,1364 141,174 142,116
143,568 144,275 147,109 148,59
149,278 150,59 151,520 152,174
153,460 154,50 155,192 156,50
157,1704 158,266 159,41 161,67
162,59 163,128 164,153 165,41
166,5646 167,41 168,5014 169,268
170,41 171,1334 172,188 175,77
176,28 177,87 178,28 179,628
180,118 181,604 182,58 183,49
184,28 185,574 186,107 189,73
190,81 191,724 192,97 193,251
195,174 197,35 199,350 200,78
205,51 207,211 208,465 209,731
210,288 211,153 212,35 213,1541
214,228 221,1316 222,181 223,1345
224,153 225,45 226,45 227,2680
228,401 229,55 235,1223 236,187
237,1334 238,128 249,38 251,58
255,6827 256,1149 257,145 263,147
264,31 265,188 277,427 278,61
279,370 280,64 289,50 291,363
292,51 293,316 294,58 305,28
307,32 334,391 335,101 336,401
337,104
##END=
