##TITLE=Phosphoramidothioic dichloride, dimethyl-
##JCAMP-DX=4.24
##DATA TYPE=MASS SPECTRUM
##ORIGIN=Dennis Rohrbaugh, CBDCOM/ERDEC, Edgewood, MD
##OWNER=NIST Mass Spectrometry Data Center
Collection (C) 2014 copyright by the U.S. Secretary of Commerce
on behalf of the United States of America. All rights reserved.
##CAS REGISTRY NO=1498-65-3
##$NIST MASS SPEC NO=226594
##MOLFORM=C2 H6 Cl2 N P S
##MW=177
##$NIST SOURCE=MSDC
##XUNITS=M/Z
##YUNITS=RELATIVE INTENSITY
##XFACTOR=1
##YFACTOR=1
##FIRSTX=15
##LASTX=181
##FIRSTY=2454
##MAXX=181
##MINX=15
##MAXY=9999
##MINY=98
##NPOINTS=38
##PEAK TABLE=(XY..XY)
15,2454 30,197 41,5968 42,9999
43,5303 44,6452 59,188 60,1091
61,106 63,1797 76,205 94,197
98,295 99,492 100,106 101,804
103,385 107,98 111,1420 112,508
133,1108 134,205 135,697 136,98
137,98 142,402 143,98 144,8209
145,197 146,2512 147,98 148,706
176,98 177,3907 178,295 179,2799
180,98 181,492
##END=
