##TITLE=4-Butoxybenzoic acid
##JCAMP-DX=4.24
##DATA TYPE=MASS SPECTRUM
##ORIGIN=NIST Mass Spectrometry Data Center, 1992
##OWNER=NIST Mass Spectrometry Data Center
Collection (C) 2014 copyright by the U.S. Secretary of Commerce
on behalf of the United States of America. All rights reserved.
##CAS REGISTRY NO=1498-96-0
##$NIST MASS SPEC NO=125244
##MOLFORM=C11 H14 O3
##MW=194
##$NIST SOURCE=MSDC
##XUNITS=M/Z
##YUNITS=RELATIVE INTENSITY
##XFACTOR=1
##YFACTOR=1
##FIRSTX=14
##LASTX=196
##FIRSTY=31
##MAXX=196
##MINX=14
##MAXY=9999
##MINY=18
##NPOINTS=83
##PEAK TABLE=(XY..XY)
14,31 15,61 16,27 17,18
18,42 26,119 27,938 28,300
29,1683 30,38 31,72 37,72
38,233 39,1003 40,136 41,1541
42,96 43,56 44,40 45,114
49,37 50,348 51,358 52,122
53,364 54,68 55,287 56,376
57,777 58,50 61,47 62,109
63,474 64,283 65,1269 66,185
67,91 69,40 73,35 74,172
75,215 76,282 77,365 78,67
79,104 80,42 81,320 82,93
90,42 91,163 92,182 93,573
94,94 95,139 99,34 103,75
104,77 105,335 106,55 107,62
109,152 110,121 111,28 118,28
119,72 121,5862 122,469 123,89
127,21 133,24 135,36 138,9999
139,1162 140,131 141,35 149,51
150,50 151,140 152,87 177,80
194,2239 195,276 196,39
##END=
