##TITLE=Diphenylphosphinic chloride
##JCAMP-DX=4.24
##DATA TYPE=MASS SPECTRUM
##ORIGIN=NIST Mass Spectrometry Data Center
##OWNER=NIST Mass Spectrometry Data Center
Collection (C) 2014 copyright by the U.S. Secretary of Commerce
on behalf of the United States of America. All rights reserved.
##CAS REGISTRY NO=1499-21-4
##$NIST MASS SPEC NO=342482
##MOLFORM=C12 H10 Cl O P
##MW=236
##$NIST SOURCE=MSDC
##XUNITS=M/Z
##YUNITS=RELATIVE INTENSITY
##XFACTOR=1
##YFACTOR=1
##FIRSTX=17
##LASTX=239
##FIRSTY=250
##MAXX=239
##MINX=17
##MAXY=9999
##MINY=40
##NPOINTS=96
##PEAK TABLE=(XY..XY)
17,250 18,571 35,90 36,170
37,70 38,240 39,711 47,2002
48,100 50,2702 51,7827 52,460
56,100 57,120 62,150 63,300
64,140 65,130 68,110 69,220
70,70 75,550 76,981 77,7437
78,601 79,40 80,140 81,180
82,50 83,150 84,50 85,160
86,50 87,60 89,60 91,190
92,180 93,60 95,390 96,190
100,581 101,70 102,110 103,40
104,50 105,90 107,1031 108,170
109,170 110,60 112,130 114,50
115,170 117,110 118,60 119,60
123,160 124,180 125,120 126,180
127,150 128,230 129,130 133,120
139,70 141,40 143,1892 144,170
145,631 146,50 147,60 150,130
151,370 152,1401 153,691 154,390
157,70 159,310 161,110 170,210
171,220 172,50 173,170 183,490
184,60 199,4924 200,1281 201,5065
202,641 203,80 219,60 235,9999
236,5375 237,3523 238,1611 239,220
##END=
