##TITLE=m-Guaiacol
##JCAMP-DX=4.24
##DATA TYPE=MASS SPECTRUM
##ORIGIN=Japan AIST/NIMC Database- Spectrum MS-NW-8343
##OWNER=NIST Mass Spectrometry Data Center
Collection (C) 2014 copyright by the U.S. Secretary of Commerce
on behalf of the United States of America. All rights reserved.
##CAS REGISTRY NO=150-19-6
##$NIST MASS SPEC NO=229480
##MOLFORM=C7 H8 O2
##MW=124
##$NIST SOURCE=MSDC
##XUNITS=M/Z
##YUNITS=RELATIVE INTENSITY
##XFACTOR=1
##YFACTOR=1
##FIRSTX=14
##LASTX=126
##FIRSTY=40
##MAXX=126
##MINX=14
##MAXY=9999
##MINY=10
##NPOINTS=74
##PEAK TABLE=(XY..XY)
14,40 15,179 25,10 26,169
27,899 28,209 29,229 30,20
31,60 36,20 37,189 38,529
39,1469 40,349 41,409 42,149
43,119 44,10 45,10 47,10
48,10 49,60 50,399 51,609
52,679 53,2019 54,169 55,589
56,30 57,10 59,10 60,20
61,139 62,339 63,649 64,289
65,1059 66,1959 67,319 68,219
69,599 70,20 71,10 73,20
74,80 75,40 76,30 77,409
78,219 79,189 80,209 81,3289
82,189 83,30 90,10 91,10
92,60 93,349 94,5369 95,2919
96,219 97,20 105,99 106,20
107,119 108,119 109,219 110,30
121,20 122,10 123,309 124,9999
125,779 126,60
##END=
