##TITLE=Phytol
##JCAMP-DX=4.24
##DATA TYPE=MASS SPECTRUM
##ORIGIN=NIST Mass Spectrometry Data Center, 2010
##OWNER=NIST Mass Spectrometry Data Center
Collection (C) 2014 copyright by the U.S. Secretary of Commerce
on behalf of the United States of America. All rights reserved.
##CAS REGISTRY NO=150-86-7
##$NIST MASS SPEC NO=375015
##MOLFORM=C20 H40 O
##MW=296
##$NIST SOURCE=MSDC
##XUNITS=M/Z
##YUNITS=RELATIVE INTENSITY
##XFACTOR=1
##YFACTOR=1
##FIRSTX=26
##LASTX=296
##FIRSTY=10
##MAXX=296
##MINX=26
##MAXY=9999
##MINY=10
##NPOINTS=131
##PEAK TABLE=(XY..XY)
26,10 27,260 28,50 29,811
30,20 31,80 38,10 39,360
40,90 41,2742 42,420 43,3613
44,160 45,50 50,10 51,40
52,30 53,400 54,130 55,2993
56,1581 57,3333 58,200 59,30
63,10 65,100 66,70 67,1151
68,2252 69,2783 70,1461 71,9999
72,530 73,40 74,10 77,150
78,30 79,410 80,330 81,2712
82,1672 83,1792 84,881 85,941
86,420 87,90 88,10 91,70
92,30 93,160 94,190 95,1822
96,781 97,1411 98,340 99,300
100,50 101,10 105,50 106,10
107,70 108,40 109,801 110,350
111,961 112,310 113,140 114,20
115,10 121,100 122,160 123,2732
124,761 125,410 126,701 127,180
128,20 135,30 136,20 137,280
138,160 139,100 140,170 141,90
142,20 149,40 150,20 151,100
152,60 153,40 154,20 155,10
156,20 157,10 163,20 164,10
165,50 166,20 167,20 168,20
169,10 179,80 180,20 181,20
182,40 183,10 191,10 193,50
194,20 196,130 197,20 199,10
207,10 208,20 209,10 210,20
211,10 221,10 222,10 224,10
235,10 236,10 249,20 250,10
252,10 253,10 263,30 278,100
279,20 280,10 296,20
##END=
