##TITLE=Triethyl borate
##JCAMP-DX=4.24
##DATA TYPE=MASS SPECTRUM
##ORIGIN=Japan AIST/NIMC Database- Spectrum MS-NW-1159
##OWNER=NIST Mass Spectrometry Data Center
Collection (C) 2014 copyright by the U.S. Secretary of Commerce
on behalf of the United States of America. All rights reserved.
##CAS REGISTRY NO=150-46-9
##$NIST MASS SPEC NO=230737
##MOLFORM=C6 H15 B O3
##MW=146
##$NIST SOURCE=MSDC
##XUNITS=M/Z
##YUNITS=RELATIVE INTENSITY
##XFACTOR=1
##YFACTOR=1
##FIRSTX=13
##LASTX=148
##FIRSTY=20
##MAXX=148
##MINX=13
##MAXY=9999
##MINY=10
##NPOINTS=81
##PEAK TABLE=(XY..XY)
13,20 14,90 15,329 16,10
25,30 26,319 27,1699 28,569
29,1349 30,159 31,2899 32,99
39,20 40,20 41,80 42,159
43,529 44,2409 45,9999 46,599
47,40 51,10 53,10 54,10
55,50 56,169 57,229 58,389
59,359 60,10 62,10 63,40
65,20 69,30 70,60 71,309
72,2059 73,7069 74,199 75,149
77,10 78,20 79,20 84,20
85,80 86,559 87,2149 88,369
89,1339 90,209 91,70 93,10
94,10 98,10 99,50 100,1749
101,6649 102,409 103,429 104,20
105,20 113,10 114,60 115,129
116,949 117,3969 118,479 119,119
128,10 129,40 130,1119 131,4519
132,269 133,40 142,10 143,10
144,99 145,779 146,1419 147,99
148,10
##END=
