##TITLE=Tributyl phosphorotrithioite
##JCAMP-DX=4.24
##DATA TYPE=MASS SPECTRUM
##ORIGIN=NIST Mass Spectrometry Data Center
##OWNER=NIST Mass Spectrometry Data Center
Collection (C) 2014 copyright by the U.S. Secretary of Commerce
on behalf of the United States of America. All rights reserved.
##CAS REGISTRY NO=150-50-5
##$NIST MASS SPEC NO=357140
##MOLFORM=C12 H27 P S3
##MW=298
##$NIST SOURCE=MSDC
##XUNITS=M/Z
##YUNITS=RELATIVE INTENSITY
##XFACTOR=1
##YFACTOR=1
##FIRSTX=41
##LASTX=302
##FIRSTY=2172
##MAXX=302
##MINX=41
##MAXY=9999
##MINY=10
##NPOINTS=100
##PEAK TABLE=(XY..XY)
41,2172 42,100 43,90 44,10
45,180 46,90 47,320 48,10
49,20 50,10 51,20 52,10
53,90 54,40 55,681 56,270
57,4474 58,240 59,90 60,70
61,100 63,801 64,40 65,60
66,10 67,20 71,20 73,30
75,20 76,10 77,30 78,10
79,50 85,70 86,40 87,100
88,50 89,260 91,50 92,10
95,120 96,180 97,1621 98,60
99,160 101,10 103,30 105,10
109,50 110,20 111,20 117,50
118,70 119,651 120,120 121,120
122,40 123,30 124,10 125,10
129,751 130,110 131,130 132,10
137,10 145,180 146,20 147,10
151,110 152,310 153,5445 154,420
155,510 156,30 157,20 175,10
177,10 178,20 179,10 185,801
186,410 187,190 188,60 189,20
209,9999 210,1061 211,941 212,90
213,30 241,370 242,901 243,190
244,130 245,20 246,10 298,3603
299,561 300,500 301,70 302,30
##END=
