##TITLE=DL-Phenylalanine
##JCAMP-DX=4.24
##DATA TYPE=MASS SPECTRUM
##ORIGIN=Japan AIST/NIMC Database- Spectrum MS-NW- 741
##OWNER=NIST Mass Spectrometry Data Center
Collection (C) 2014 copyright by the U.S. Secretary of Commerce
on behalf of the United States of America. All rights reserved.
##CAS REGISTRY NO=150-30-1
##$NIST MASS SPEC NO=229437
##MOLFORM=C9 H11 N O2
##MW=165
##$NIST SOURCE=MSDC
##XUNITS=M/Z
##YUNITS=RELATIVE INTENSITY
##XFACTOR=1
##YFACTOR=1
##FIRSTX=15
##LASTX=166
##FIRSTY=50
##MAXX=166
##MINX=15
##MAXY=9999
##MINY=10
##NPOINTS=80
##PEAK TABLE=(XY..XY)
15,50 16,20 17,30 18,109
26,30 27,149 28,1419 29,119
30,259 37,40 38,99 39,659
40,70 41,229 42,359 43,199
44,99 45,70 46,569 47,20
49,20 50,249 51,589 52,149
53,70 54,30 55,20 56,90
57,30 58,159 59,329 60,459
61,50 62,119 63,389 64,109
65,1259 66,99 67,20 73,20
74,9999 75,329 76,99 77,739
78,189 79,60 80,30 85,10
86,30 87,30 88,10 89,279
90,199 91,6349 92,2019 93,359
94,30 101,10 102,109 103,949
104,349 105,40 107,10 115,10
116,50 117,199 118,459 119,379
120,5949 121,549 122,20 129,20
130,40 131,40 132,10 146,20
147,80 148,40 165,239 166,40
##END=
