##TITLE=Pyridine, 2-nitro-
##JCAMP-DX=4.24
##DATA TYPE=MASS SPECTRUM
##ORIGIN=A.A.Kutin, Moscow, Russia
##OWNER=NIST Mass Spectrometry Data Center
Collection (C) 2014 copyright by the U.S. Secretary of Commerce
on behalf of the United States of America. All rights reserved.
##CAS REGISTRY NO=15009-91-3
##$NIST MASS SPEC NO=261754
##MOLFORM=C5 H4 N2 O2
##MW=124
##$NIST SOURCE=MSDC
##XUNITS=M/Z
##YUNITS=RELATIVE INTENSITY
##XFACTOR=1
##YFACTOR=1
##FIRSTX=34
##LASTX=125
##FIRSTY=29
##MAXX=125
##MINX=34
##MAXY=9999
##MINY=12
##NPOINTS=57
##PEAK TABLE=(XY..XY)
34,29 36,64 37,270 38,459
39,684 40,1162 41,254 42,119
43,270 44,528 45,22 46,540
48,41 49,359 50,1441 51,5212
52,1740 53,224 54,15 55,246
56,74 57,256 62,31 63,89
64,129 66,631 67,170 69,83
70,191 71,98 73,26 75,418
76,499 77,279 78,9999 79,605
80,34 81,76 82,72 83,126
84,77 85,36 86,22 92,41
94,739 95,113 97,34 98,15
105,91 106,29 107,12 110,29
111,113 119,34 122,28 124,363
125,31
##END=
