##TITLE=Pentanedioic acid, monomethyl ester
##JCAMP-DX=4.24
##DATA TYPE=MASS SPECTRUM
##ORIGIN=NIST Mass Spectrometry Data Center, 1994
##OWNER=NIST Mass Spectrometry Data Center
Collection (C) 2014 copyright by the U.S. Secretary of Commerce
on behalf of the United States of America. All rights reserved.
##CAS REGISTRY NO=1501-27-5
##$NIST MASS SPEC NO=135178
##MOLFORM=C6 H10 O4
##MW=146
##$NIST SOURCE=MSDC
##XUNITS=M/Z
##YUNITS=RELATIVE INTENSITY
##XFACTOR=1
##YFACTOR=1
##FIRSTX=12
##LASTX=129
##FIRSTY=125
##MAXX=129
##MINX=12
##MAXY=9999
##MINY=52
##NPOINTS=55
##PEAK TABLE=(XY..XY)
12,125 13,242 14,694 15,5540
16,132 17,52 18,328 19,56
26,1112 27,5457 28,1657 29,3605
30,511 31,2483 32,182 33,428
35,184 37,277 38,872 39,5086
40,1036 41,7211 42,9437 43,9999
44,1181 45,9387 46,246 49,164
50,121 53,182 55,5841 56,432
57,425 58,1882 59,6149 60,1091
68,414 69,841 70,439 71,195
72,509 73,420 74,2457 85,997
86,4714 87,8219 88,423 97,537
100,6929 101,750 114,3478 115,5017
116,255 128,770 129,284
##END=
