##TITLE=Methyl 3,5-di-t-butylsalicylate
##JCAMP-DX=4.24
##DATA TYPE=MASS SPECTRUM
##ORIGIN=NIST Mass Spectrometry Data Center, 1994
##OWNER=NIST Mass Spectrometry Data Center
Collection (C) 2014 copyright by the U.S. Secretary of Commerce
on behalf of the United States of America. All rights reserved.
##CAS REGISTRY NO=15018-03-8
##$NIST MASS SPEC NO=135392
##MOLFORM=C16 H24 O3
##MW=264
##$NIST SOURCE=MSDC
##XUNITS=M/Z
##YUNITS=RELATIVE INTENSITY
##XFACTOR=1
##YFACTOR=1
##FIRSTX=12
##LASTX=266
##FIRSTY=26
##MAXX=266
##MINX=12
##MAXY=9999
##MINY=19
##NPOINTS=140
##PEAK TABLE=(XY..XY)
12,26 15,1936 16,56 17,61
18,151 19,21 27,718 28,327
29,1796 30,61 31,158 32,21
33,967 34,24 39,804 41,2776
42,142 43,676 44,33 45,101
50,72 51,473 52,119 53,676
54,59 55,528 56,33 57,1592
58,198 59,305 62,59 63,300
64,159 65,489 66,104 67,215
68,59 69,524 70,43 71,47
72,147 73,187 74,53 75,92
76,96 77,983 78,335 79,685
80,119 81,56 83,44 86,373
87,1233 89,233 91,1296 92,188
93,195 94,69 95,61 99,19
101,342 102,144 103,485 104,151
105,778 106,143 107,176 108,42
109,37 113,20 115,941 116,389
117,680 118,130 119,367 120,68
121,160 127,239 128,592 129,525
130,286 131,774 132,261 133,390
134,73 135,109 139,29 141,155
142,97 143,127 144,115 145,272
146,205 147,252 148,89 149,33
153,31 155,50 156,76 157,124
158,122 159,390 160,107 161,218
162,297 163,55 171,86 172,45
173,226 174,45 175,1850 176,361
177,67 187,95 188,112 189,525
190,752 191,268 201,681 202,93
203,64 204,229 205,41 207,39
215,396 217,9999 218,1481 219,139
223,26 231,204 232,605 233,383
234,54 248,25 249,4081 250,654
251,74 264,1562 265,277 266,31
##END=
