##TITLE=Dibenzyl malonate
##JCAMP-DX=4.24
##DATA TYPE=MASS SPECTRUM
##ORIGIN=NIST Mass Spectrometry Data Center
##OWNER=NIST Mass Spectrometry Data Center
Collection (C) 2014 copyright by the U.S. Secretary of Commerce
on behalf of the United States of America. All rights reserved.
##CAS REGISTRY NO=15014-25-2
##$NIST MASS SPEC NO=342546
##MOLFORM=C17 H16 O4
##MW=284
##$NIST SOURCE=MSDC
##XUNITS=M/Z
##YUNITS=RELATIVE INTENSITY
##XFACTOR=1
##YFACTOR=1
##FIRSTX=12
##LASTX=195
##FIRSTY=30
##MAXX=195
##MINX=12
##MAXY=9999
##MINY=10
##NPOINTS=69
##PEAK TABLE=(XY..XY)
12,30 13,30 14,60 16,20
19,10 25,10 26,10 27,160
28,110 30,30 37,90 38,320
39,1611 40,180 41,430 42,550
43,480 44,140 50,601 51,1672
52,470 53,150 54,10 55,10
60,10 61,50 62,190 63,681
65,2652 66,170 69,200 70,10
74,20 75,110 77,2182 78,641
79,2302 80,200 81,10 85,10
87,811 89,801 91,9999 92,1151
93,70 103,30 105,460 107,8197
108,1351 109,80 118,250 119,40
120,20 130,10 131,20 147,50
148,20 152,20 165,40 166,10
167,30 176,30 177,10 178,30
180,460 181,70 193,951 194,120
195,20
##END=
