##TITLE=Diethyl 2-acetylglutarate
##JCAMP-DX=4.24
##DATA TYPE=MASS SPECTRUM
##ORIGIN=NIST Mass Spectrometry Data Center
##OWNER=NIST Mass Spectrometry Data Center
Collection (C) 2014 copyright by the U.S. Secretary of Commerce
on behalf of the United States of America. All rights reserved.
##CAS REGISTRY NO=1501-06-0
##$NIST MASS SPEC NO=340529
##MOLFORM=C11 H18 O5
##MW=230
##$NIST SOURCE=MSDC
##XUNITS=M/Z
##YUNITS=RELATIVE INTENSITY
##XFACTOR=1
##YFACTOR=1
##FIRSTX=15
##LASTX=230
##FIRSTY=270
##MAXX=230
##MINX=15
##MAXY=9999
##MINY=10
##NPOINTS=101
##PEAK TABLE=(XY..XY)
15,270 16,10 19,10 26,150
27,1511 29,3313 30,110 31,230
37,10 38,40 39,711 40,160
41,931 42,1732 43,9318 44,330
45,731 46,30 47,10 50,10
51,20 52,10 53,110 54,60
55,3373 56,170 57,150 58,170
59,40 60,500 61,320 62,10
65,30 66,20 67,80 68,380
69,811 70,320 71,280 72,50
73,1311 74,40 75,10 81,20
82,310 83,230 84,540 85,1712
86,1682 87,811 88,460 89,50
95,130 96,60 97,1061 98,80
99,320 100,50 101,1341 102,210
103,40 109,10 110,641 111,450
112,220 113,861 114,9999 115,1541
116,120 117,10 123,20 127,691
128,310 129,50 130,460 131,90
137,50 138,50 139,6446 140,520
141,651 142,4274 143,1982 144,160
145,20 155,30 156,881 157,120
158,10 159,20 169,250 170,20
173,20 184,180 185,2162 186,210
187,210 188,2482 189,240 190,30
230,30
##END=
