##TITLE=3-Phenyl-2-propyn-1-ol
##JCAMP-DX=4.24
##DATA TYPE=MASS SPECTRUM
##ORIGIN=NIST Mass Spectrometry Data Center, 1990.
##OWNER=NIST Mass Spectrometry Data Center
Collection (C) 2014 copyright by the U.S. Secretary of Commerce
on behalf of the United States of America. All rights reserved.
##CAS REGISTRY NO=1504-58-1
##$NIST MASS SPEC NO=113185
##MOLFORM=C9 H8 O
##MW=132
##$NIST SOURCE=MSDC
##XUNITS=M/Z
##YUNITS=RELATIVE INTENSITY
##XFACTOR=1
##YFACTOR=1
##FIRSTX=26
##LASTX=133
##FIRSTY=173
##MAXX=133
##MINX=26
##MAXY=9999
##MINY=20
##NPOINTS=48
##PEAK TABLE=(XY..XY)
26,173 27,317 28,307 29,476
32,20 37,292 38,379 39,852
49,288 50,1780 51,3158 52,790
53,317 54,154 55,289 61,624
62,1520 63,2248 64,320 65,719
73,340 74,1681 75,1699 76,1508
77,6307 78,4409 79,306 85,288
86,491 87,592 88,417 89,1075
90,148 91,227 98,289 101,484
102,2427 103,6205 104,3307 105,770
113,388 114,379 115,2779 116,288
129,420 131,9999 132,5974 133,532
##END=
