##TITLE=Furan, tetrahydro-2,2,5,5-tetramethyl-
##JCAMP-DX=4.24
##DATA TYPE=MASS SPECTRUM
##OWNER=NIST Mass Spectrometry Data Center
Collection (C) 2014 copyright by the U.S. Secretary of Commerce
on behalf of the United States of America. All rights reserved.
##CAS REGISTRY NO=15045-43-9
##$NIST MASS SPEC NO=2707
##MOLFORM=C8 H16 O
##MW=128
##$NIST SOURCE=MSDC
##XUNITS=M/Z
##YUNITS=RELATIVE INTENSITY
##XFACTOR=1
##YFACTOR=1
##FIRSTX=14
##LASTX=114
##FIRSTY=120
##MAXX=114
##MINX=14
##MAXY=9999
##MINY=40
##NPOINTS=30
##PEAK TABLE=(XY..XY)
14,120 15,1141 26,140 27,1341
28,270 29,881 31,190 38,90
39,1271 40,180 41,1471 42,1081
43,9999 44,190 45,80 51,100
53,300 55,3663 56,220 57,110
58,70 59,1551 67,200 69,220
70,3553 71,260 83,40 95,1251
113,3033 114,230
##END=
