##TITLE=3-Fluoro-5-(trifluoromethyl)benzylamine
##JCAMP-DX=4.24
##DATA TYPE=MASS SPECTRUM
##ORIGIN=NIST Mass Spectrometry Data Center
##OWNER=NIST Mass Spectrometry Data Center
Collection (C) 2014 copyright by the U.S. Secretary of Commerce
on behalf of the United States of America. All rights reserved.
##CAS REGISTRY NO=150517-77-4
##$NIST MASS SPEC NO=342772
##MOLFORM=C8 H7 F4 N
##MW=193
##$NIST SOURCE=MSDC
##XUNITS=M/Z
##YUNITS=RELATIVE INTENSITY
##XFACTOR=1
##YFACTOR=1
##FIRSTX=14
##LASTX=194
##FIRSTY=70
##MAXX=194
##MINX=14
##MAXY=9999
##MINY=10
##NPOINTS=111
##PEAK TABLE=(XY..XY)
14,70 15,10 16,120 17,20
19,60 26,100 28,9879 29,4434
30,9999 31,731 32,240 37,190
38,290 39,310 40,10 41,150
44,80 45,70 48,230 49,130
50,961 51,731 52,260 53,60
54,140 56,160 57,601 61,290
62,420 63,591 68,490 69,1832
70,290 71,120 72,50 73,160
74,671 75,1752 76,300 77,300
78,80 79,70 80,160 81,420
82,110 83,70 85,160 87,430
88,170 92,200 93,540 94,731
95,901 96,510 97,530 98,100
99,280 100,140 101,320 102,120
103,60 104,150 105,170 106,160
107,540 108,130 112,170 113,631
114,430 115,60 117,100 119,100
120,100 122,500 124,3994 125,1101
126,260 127,1281 128,100 132,80
134,140 137,220 138,80 139,40
143,631 144,420 145,2993 146,380
150,40 151,70 152,330 153,150
154,500 155,80 156,150 157,110
158,60 163,931 164,320 165,50
170,130 172,1211 173,5225 174,2582
175,280 176,130 177,851 190,901
192,7066 193,3083 194,250
##END=
