##TITLE=p-Methylhydrocinnamic acid
##JCAMP-DX=4.24
##DATA TYPE=MASS SPECTRUM
##ORIGIN=NIST Mass Spectrometry Data Center, 1994
##OWNER=NIST Mass Spectrometry Data Center
Collection (C) 2014 copyright by the U.S. Secretary of Commerce
on behalf of the United States of America. All rights reserved.
##CAS REGISTRY NO=1505-50-6
##$NIST MASS SPEC NO=134895
##MOLFORM=C10 H12 O2
##MW=164
##$NIST SOURCE=MSDC
##XUNITS=M/Z
##YUNITS=RELATIVE INTENSITY
##XFACTOR=1
##YFACTOR=1
##FIRSTX=4
##LASTX=166
##FIRSTY=47
##MAXX=166
##MINX=4
##MAXY=9999
##MINY=14
##NPOINTS=72
##PEAK TABLE=(XY..XY)
4,47 14,15 15,71 18,17
26,70 27,604 28,99 29,91
31,89 37,26 38,133 39,928
40,116 41,318 42,118 43,65
44,26 45,591 46,19 50,303
51,723 52,207 53,248 54,18
55,80 58,132 60,15 61,47
62,202 63,501 64,139 65,791
66,76 67,27 72,29 73,30
74,93 75,110 76,15 77,1408
78,481 79,1045 80,82 81,68
86,40 87,50 89,294 91,1339
92,400 93,148 101,31 102,189
103,820 104,31 105,9999 106,858
107,275 108,23 115,513 116,128
117,943 118,1683 119,452 120,55
121,64 131,30 145,22 147,22
162,14 164,2204 165,250 166,21
##END=
