##TITLE=Ethanol, 2-[2-(2-propenyloxy)ethoxy]-
##JCAMP-DX=4.24
##DATA TYPE=MASS SPECTRUM
##ORIGIN=NIST Mass Spectrometry Data Center, 1994
##OWNER=NIST Mass Spectrometry Data Center
Collection (C) 2014 copyright by the U.S. Secretary of Commerce
on behalf of the United States of America. All rights reserved.
##CAS REGISTRY NO=15075-50-0
##$NIST MASS SPEC NO=136598
##MOLFORM=C7 H14 O3
##MW=146
##$NIST SOURCE=MSDC
##XUNITS=M/Z
##YUNITS=RELATIVE INTENSITY
##XFACTOR=1
##YFACTOR=1
##FIRSTX=12
##LASTX=117
##FIRSTY=5
##MAXX=117
##MINX=12
##MAXY=9999
##MINY=5
##NPOINTS=57
##PEAK TABLE=(XY..XY)
12,5 13,12 14,57 15,524
16,33 18,15 19,550 26,217
27,1085 28,920 29,1393 30,184
31,980 32,7 33,103 37,35
38,107 39,1403 40,7 41,5529
42,431 43,1285 44,878 45,9999
46,240 47,36 53,22 54,39
55,373 56,205 57,556 58,688
59,469 60,107 61,117 62,139
63,21 67,18 69,48 71,463
73,843 75,373 76,16 83,58
84,45 85,168 86,32 87,84
88,89 89,575 90,47 99,10
101,28 103,115 104,12 115,105
117,11
##END=
