##TITLE=2-Chlorophenyl dichlorophosphate
##JCAMP-DX=4.24
##DATA TYPE=MASS SPECTRUM
##ORIGIN=Japan AIST/NIMC Database- Spectrum MS-NW-9540
##OWNER=NIST Mass Spectrometry Data Center
Collection (C) 2014 copyright by the U.S. Secretary of Commerce
on behalf of the United States of America. All rights reserved.
##CAS REGISTRY NO=15074-54-1
##$NIST MASS SPEC NO=238678
##MOLFORM=C6 H4 Cl3 O2 P
##MW=244
##$NIST SOURCE=MSDC
##XUNITS=M/Z
##YUNITS=RELATIVE INTENSITY
##XFACTOR=1
##YFACTOR=1
##FIRSTX=26
##LASTX=250
##FIRSTY=20
##MAXX=250
##MINX=26
##MAXY=9999
##MINY=10
##NPOINTS=101
##PEAK TABLE=(XY..XY)
26,20 27,20 28,20 31,10
35,20 36,80 37,109 38,249
39,319 40,10 44,10 47,389
48,10 49,80 50,259 51,129
52,40 53,70 55,10 60,20
61,99 62,229 63,779 64,309
65,70 66,20 72,70 73,759
74,209 75,739 76,99 77,30
79,20 80,40 82,20 83,10
84,60 85,70 86,20 87,20
89,10 91,149 92,219 93,20
96,10 97,30 98,40 99,2229
100,129 101,759 102,40 103,40
107,30 108,10 109,30 110,289
111,289 112,99 113,80 115,10
117,269 119,169 121,30 124,20
126,40 127,1019 128,209 129,329
130,70 133,10 135,10 139,379
140,40 141,10 146,20 152,10
154,10 155,70 161,10 173,209
174,249 175,90 176,80 190,20
192,10 193,10 208,159 209,9999
210,809 211,6479 212,439 213,1069
214,60 243,30 244,1799 245,149
246,1799 247,129 248,589 249,30
250,60
##END=
