##TITLE=Piperidine, 1,1'-(1,4-phenylenedicarbonyl)bis-
##JCAMP-DX=4.24
##DATA TYPE=MASS SPECTRUM
##ORIGIN=V.G. Zaikin, R.S.Borisov, TIPS RAS, Moscow, Russia
##OWNER=NIST Mass Spectrometry Data Center
Collection (C) 2014 copyright by the U.S. Secretary of Commerce
on behalf of the United States of America. All rights reserved.
##CAS REGISTRY NO=15088-30-9
##$NIST MASS SPEC NO=323896
##MOLFORM=C18 H24 N2 O2
##MW=300
##$NIST SOURCE=MSDC
##XUNITS=M/Z
##YUNITS=RELATIVE INTENSITY
##XFACTOR=1
##YFACTOR=1
##FIRSTX=29
##LASTX=302
##FIRSTY=20
##MAXX=302
##MINX=29
##MAXY=9999
##MINY=10
##NPOINTS=80
##PEAK TABLE=(XY..XY)
29,20 41,110 42,60 50,30
51,20 54,20 55,90 56,50
65,20 66,20 69,80 70,20
75,80 76,320 77,200 78,20
82,80 83,20 84,310 85,20
86,230 87,20 91,70 93,30
100,20 103,310 104,871 105,731
106,60 107,100 108,20 112,30
117,40 118,30 121,30 128,20
130,30 131,30 132,150 133,40
145,30 146,40 148,30 149,170
150,90 158,10 159,70 160,370
161,50 166,50 167,20 186,30
187,911 188,410 189,300 190,40
203,70 213,20 214,70 215,30
216,4464 217,721 218,70 230,30
231,90 232,100 233,40 243,60
244,40 245,60 257,210 258,50
271,70 272,30 297,60 298,150
299,9999 300,4884 301,971 302,110
##END=
