##TITLE=Thiourea, N-(1-methylethyl)-N'-phenyl-
##JCAMP-DX=4.24
##DATA TYPE=MASS SPECTRUM
##ORIGIN=CARL DJERASSI DEPT OF CHEM STANFORD UNIV STANFORD CALIF 94305
##OWNER=NIST Mass Spectrometry Data Center
Collection (C) 2014 copyright by the U.S. Secretary of Commerce
on behalf of the United States of America. All rights reserved.
##CAS REGISTRY NO=15093-36-4
##$NIST MASS SPEC NO=47284
##MOLFORM=C10 H14 N2 S
##MW=194
##$NIST SOURCE=MSDC
##XUNITS=M/Z
##YUNITS=RELATIVE INTENSITY
##XFACTOR=1
##YFACTOR=1
##FIRSTX=40
##LASTX=196
##FIRSTY=198
##MAXX=196
##MINX=40
##MAXY=9999
##MINY=99
##NPOINTS=67
##PEAK TABLE=(XY..XY)
40,198 41,2673 42,990 43,3861
44,792 45,99 50,297 51,1881
52,198 55,495 56,396 57,792
58,6733 59,297 60,1485 63,297
64,297 65,1980 66,1386 67,198
68,99 69,396 70,99 71,297
72,99 74,99 75,99 76,198
77,3762 78,594 79,99 81,198
82,198 83,396 84,99 85,693
91,594 92,1980 93,9703 94,2079
95,99 97,99 98,99 100,99
102,99 103,99 104,594 105,99
106,99 109,990 110,495 111,99
118,594 119,3069 120,396 124,99
135,198 136,792 140,99 151,1485
152,297 161,792 192,198 193,693
194,9999 195,1188 196,495
##END=
