##TITLE=Ethylenimine
##JCAMP-DX=4.24
##DATA TYPE=MASS SPECTRUM
##ORIGIN=E.GALLEGOS KANSAS STATE UNIVERSITY, MANHATTAN, KANSAS, USA
##OWNER=NIST Mass Spectrometry Data Center
Collection (C) 2014 copyright by the U.S. Secretary of Commerce
on behalf of the United States of America. All rights reserved.
##CAS REGISTRY NO=151-56-4
##$NIST MASS SPEC NO=18859
##MOLFORM=C2 H5 N
##MW=43
##$NIST SOURCE=MSDC
##XUNITS=M/Z
##YUNITS=RELATIVE INTENSITY
##XFACTOR=1
##YFACTOR=1
##FIRSTX=12
##LASTX=44
##FIRSTY=190
##MAXX=44
##MINX=12
##MAXY=9999
##MINY=40
##NPOINTS=22
##PEAK TABLE=(XY..XY)
12,190 13,380 14,1040 15,3530
16,170 17,120 18,50 21,140
24,40 25,210 26,760 27,1230
28,7980 29,260 30,90 38,540
39,740 40,1810 41,2610 42,9999
43,5990 44,240
##END=
