##TITLE=Halothane
##JCAMP-DX=4.24
##DATA TYPE=MASS SPECTRUM
##ORIGIN=Japan AIST/NIMC Database- Spectrum MS-IW-6270
##OWNER=NIST Mass Spectrometry Data Center
Collection (C) 2014 copyright by the U.S. Secretary of Commerce
on behalf of the United States of America. All rights reserved.
##CAS REGISTRY NO=151-67-7
##$NIST MASS SPEC NO=238098
##MOLFORM=C2 H Br Cl F3
##MW=196
##$NIST SOURCE=MSDC
##XUNITS=M/Z
##YUNITS=RELATIVE INTENSITY
##XFACTOR=1
##YFACTOR=1
##FIRSTX=13
##LASTX=201
##FIRSTY=10
##MAXX=201
##MINX=13
##MAXY=9999
##MINY=10
##NPOINTS=83
##PEAK TABLE=(XY..XY)
13,10 25,10 28,30 31,379
32,99 35,30 36,30 37,10
38,10 43,20 44,119 47,259
48,289 49,90 50,159 51,339
62,20 63,139 66,90 67,1829
68,50 69,1139 70,10 71,10
72,10 78,20 79,199 80,30
81,199 82,159 85,80 87,20
91,119 92,139 93,119 94,139
97,60 98,1729 99,50 100,549
101,10 110,50 111,459 112,60
113,439 114,10 116,90 117,9999
118,249 119,3209 120,70 122,10
124,10 126,50 127,1779 128,90
129,2359 130,40 131,589 141,20
142,80 143,20 144,80 145,60
147,80 149,20 160,20 161,80
162,30 163,80 176,20 177,919
178,50 179,1209 180,30 181,289
195,10 196,4749 197,129 198,6139
199,139 200,1479 201,30
##END=
