##TITLE=Benzeneethanol, 2-nitro-
##JCAMP-DX=4.24
##DATA TYPE=MASS SPECTRUM
##ORIGIN=NIST Mass Spectrometry Data Center, 1998.
##OWNER=NIST Mass Spectrometry Data Center
Collection (C) 2014 copyright by the U.S. Secretary of Commerce
on behalf of the United States of America. All rights reserved.
##CAS REGISTRY NO=15121-84-3
##$NIST MASS SPEC NO=291470
##MOLFORM=C8 H9 N O3
##MW=167
##$NIST SOURCE=MSDC
##XUNITS=M/Z
##YUNITS=RELATIVE INTENSITY
##XFACTOR=1
##YFACTOR=1
##FIRSTX=15
##LASTX=139
##FIRSTY=10
##MAXX=139
##MINX=15
##MAXY=9999
##MINY=10
##NPOINTS=81
##PEAK TABLE=(XY..XY)
15,10 26,30 27,180 29,270
30,260 31,860 32,10 37,70
38,240 39,1360 40,170 41,300
42,40 43,160 44,30 45,40
46,40 47,80 49,50 50,760
51,1700 52,600 53,390 54,50
55,90 58,40 60,20 61,130
62,520 63,1750 64,830 65,4390
66,690 67,110 68,20 73,40
74,270 75,310 76,390 77,3790
78,1630 79,440 80,110 81,50
84,10 85,40 86,100 87,100
88,50 89,2700 90,1190 91,2240
92,5319 93,870 94,110 95,20
98,20 99,10 101,90 102,270
103,400 104,380 105,300 106,300
107,130 108,40 116,70 117,460
118,100 119,100 120,9999 121,860
122,60 132,370 133,80 134,70
135,10 136,70 137,3880 138,320
139,30
##END=
