##TITLE=2,6-Difluoropyridine
##JCAMP-DX=4.24
##DATA TYPE=MASS SPECTRUM
##ORIGIN=NIST Mass Spectrometry Data Center
##OWNER=NIST Mass Spectrometry Data Center
Collection (C) 2014 copyright by the U.S. Secretary of Commerce
on behalf of the United States of America. All rights reserved.
##CAS REGISTRY NO=1513-65-1
##$NIST MASS SPEC NO=342370
##MOLFORM=C5 H3 F2 N
##MW=115
##$NIST SOURCE=MSDC
##XUNITS=M/Z
##YUNITS=RELATIVE INTENSITY
##XFACTOR=1
##YFACTOR=1
##FIRSTX=12
##LASTX=117
##FIRSTY=70
##MAXX=117
##MINX=12
##MAXY=9999
##MINY=10
##NPOINTS=55
##PEAK TABLE=(XY..XY)
12,70 13,20 18,10 19,20
20,10 24,50 25,130 26,320
28,40 31,1571 32,60 33,120
35,10 36,150 37,731 38,981
39,1141 40,60 44,550 45,50
46,220 48,100 49,390 50,1161
51,881 52,240 55,50 56,290
57,721 61,10 62,80 63,140
64,921 65,801 66,40 68,791
69,1171 70,2442 71,150 75,510
76,701 77,40 82,60 83,20
84,100 88,3293 89,270 93,30
95,761 96,741 97,30 112,10
115,9999 116,460 117,10
##END=
