##TITLE=2-Amino-4-hydroxy-6-(trifluoromethyl)pyrimidine
##JCAMP-DX=4.24
##DATA TYPE=MASS SPECTRUM
##ORIGIN=NIST Mass Spectrometry Data Center, 1994
##OWNER=NIST Mass Spectrometry Data Center
Collection (C) 2014 copyright by the U.S. Secretary of Commerce
on behalf of the United States of America. All rights reserved.
##CAS REGISTRY NO=1513-69-5
##$NIST MASS SPEC NO=136584
##MOLFORM=C5 H4 F3 N3 O
##MW=179
##$NIST SOURCE=MSDC
##XUNITS=M/Z
##YUNITS=RELATIVE INTENSITY
##XFACTOR=1
##YFACTOR=1
##FIRSTX=25
##LASTX=180
##FIRSTY=81
##MAXX=180
##MINX=25
##MAXY=9999
##MINY=81
##NPOINTS=53
##PEAK TABLE=(XY..XY)
25,81 27,264 38,418 39,865
40,846 41,691 42,2171 43,9924
44,568 46,164 50,279 51,199
52,143 53,445 54,204 55,345
56,280 58,278 65,335 66,628
67,1219 68,3492 69,2073 70,249
73,215 74,130 75,489 76,201
81,168 88,123 89,210 90,466
91,674 92,532 93,285 96,604
104,143 108,466 110,309 118,214
120,392 123,276 131,1440 132,233
138,5133 139,264 150,201 151,2113
152,181 160,1386 163,364 179,9999
180,612
##END=
