##TITLE=5,5-Dimethyl-1,3-hexadiene
##JCAMP-DX=4.24
##DATA TYPE=MASS SPECTRUM
##ORIGIN=NIST Mass Spectrometry Data Center, 1990.
##OWNER=NIST Mass Spectrometry Data Center
Collection (C) 2014 copyright by the U.S. Secretary of Commerce
on behalf of the United States of America. All rights reserved.
##CAS REGISTRY NO=1515-79-3
##$NIST MASS SPEC NO=113453
##MOLFORM=C8 H14
##MW=110
##$NIST SOURCE=MSDC
##XUNITS=M/Z
##YUNITS=RELATIVE INTENSITY
##XFACTOR=1
##YFACTOR=1
##FIRSTX=15
##LASTX=111
##FIRSTY=222
##MAXX=111
##MINX=15
##MAXY=9999
##MINY=88
##NPOINTS=38
##PEAK TABLE=(XY..XY)
15,222 26,135 27,854 28,473
29,416 38,240 39,2214 40,377
41,2408 42,166 43,240 50,515
51,1006 52,462 53,1398 54,334
55,2508 56,242 57,163 62,115
63,301 65,811 67,7049 68,706
69,259 70,88 77,1589 78,402
79,1310 80,538 81,553 82,117
91,629 93,1303 95,9999 96,820
110,2881 111,251
##END=
