##TITLE=1-Docosanol, formate
##JCAMP-DX=4.24
##DATA TYPE=MASS SPECTRUM
##OWNER=NIST Mass Spectrometry Data Center
Collection (C) 2014 copyright by the U.S. Secretary of Commerce
on behalf of the United States of America. All rights reserved.
##CAS REGISTRY NO=15155-62-1
##$NIST MASS SPEC NO=16004
##MOLFORM=C23 H46 O2
##MW=354
##$NIST SOURCE=MSDC
##XUNITS=M/Z
##YUNITS=RELATIVE INTENSITY
##XFACTOR=1
##YFACTOR=1
##FIRSTX=15
##LASTX=356
##FIRSTY=20
##MAXX=356
##MINX=15
##MAXY=9999
##MINY=20
##NPOINTS=240
##PEAK TABLE=(XY..XY)
15,20 16,50 17,350 18,1802
26,20 27,120 28,220 29,510
30,30 31,130 39,120 40,40
41,1601 42,510 43,3904 44,1301
45,60 46,20 47,50 50,20
53,100 54,60 55,4404 56,2903
57,6206 58,330 59,50 60,50
62,20 64,30 65,30 66,140
67,1101 68,1802 69,5805 70,3703
71,4504 72,270 73,80 74,80
75,20 76,20 77,20 79,90
80,100 81,1001 82,4504 83,8608
84,2803 85,3203 86,220 87,90
88,20 91,50 92,20 93,50
94,60 95,681 96,2903 97,9999
98,2302 99,1101 100,100 101,50
102,160 103,20 104,20 105,30
107,30 108,40 109,370 110,1301
111,6406 112,1902 113,821 114,90
115,40 116,20 119,30 120,20
121,50 122,80 123,310 124,1001
125,4204 126,1501 127,611 128,80
129,50 130,20 131,20 133,20
134,20 135,40 136,60 137,240
138,871 139,2602 140,1201 141,440
142,60 143,40 144,20 145,20
147,20 148,20 149,30 150,40
151,90 152,681 153,1802 154,1001
155,390 156,50 157,30 158,20
161,20 163,20 164,20 165,60
166,611 167,1401 168,901 169,320
170,50 171,40 172,20 173,20
175,20 177,20 178,20 179,40
180,561 181,1201 182,781 183,270
184,40 185,50 186,20 189,20
191,20 192,20 193,40 194,520
195,961 196,711 197,220 198,30
199,40 200,60 201,40 202,60
203,20 204,20 205,20 206,20
207,50 208,460 209,781 210,671
211,180 212,40 213,40 214,40
215,20 220,20 221,30 222,420
223,671 224,701 225,220 226,40
227,20 228,40 229,20 235,20
236,380 237,480 238,550 239,190
240,50 241,20 242,60 243,20
250,200 251,470 252,420 253,110
254,40 256,20 257,90 258,30
261,20 262,20 263,20 264,230
265,410 266,300 267,90 268,40
269,20 270,80 271,20 277,20
278,140 279,340 280,1401 281,360
282,50 283,20 284,60 285,20
291,30 292,30 293,40 294,20
295,20 296,20 297,50 298,20
304,20 305,20 306,260 307,90
308,5005 309,1301 310,170 311,20
312,30 318,30 322,20 323,20
324,20 336,851 337,240 338,40
353,30 354,220 355,80 356,20
##END=
