##TITLE=Benzene, 1,3-butadienyl-
##JCAMP-DX=4.24
##DATA TYPE=MASS SPECTRUM
##ORIGIN=ORMSBG,10(1)81(1975); J-L. DEROCQUE
##OWNER=NIST Mass Spectrometry Data Center
Collection (C) 2014 copyright by the U.S. Secretary of Commerce
on behalf of the United States of America. All rights reserved.
##CAS REGISTRY NO=1515-78-2
##$NIST MASS SPEC NO=54282
##MOLFORM=C10 H10
##MW=130
##$NIST SOURCE=MSDC
##XUNITS=M/Z
##YUNITS=RELATIVE INTENSITY
##XFACTOR=1
##YFACTOR=1
##FIRSTX=39
##LASTX=130
##FIRSTY=5000
##MAXX=130
##MINX=39
##MAXY=9999
##MINY=600
##NPOINTS=23
##PEAK TABLE=(XY..XY)
39,5000 40,800 50,3100 51,5300
52,1300 62,800 63,2200 64,900
65,1200 74,900 75,700 76,900
77,2100 78,1200 89,800 91,800
102,1200 103,600 115,6300 127,2700
128,5700 129,9900 130,9999
##END=
