##TITLE=2,4-Hexadienenitrile
##JCAMP-DX=4.24
##DATA TYPE=MASS SPECTRUM
##ORIGIN=NIST Mass Spectrometry Data Center, 1994
##OWNER=NIST Mass Spectrometry Data Center
Collection (C) 2014 copyright by the U.S. Secretary of Commerce
on behalf of the United States of America. All rights reserved.
##CAS REGISTRY NO=1516-01-4
##$NIST MASS SPEC NO=135142
##MOLFORM=C6 H7 N
##MW=93
##$NIST SOURCE=MSDC
##XUNITS=M/Z
##YUNITS=RELATIVE INTENSITY
##XFACTOR=1
##YFACTOR=1
##FIRSTX=12
##LASTX=94
##FIRSTY=50
##MAXX=94
##MINX=12
##MAXY=9999
##MINY=28
##NPOINTS=43
##PEAK TABLE=(XY..XY)
12,50 13,47 14,94 15,250
18,41 25,111 26,816 27,1767
28,495 29,61 37,993 38,1492
39,3458 40,1353 41,915 42,85
44,28 46,38 47,53 49,238
50,839 51,1264 52,697 53,726
54,387 60,71 61,355 62,462
63,825 64,917 65,2277 66,9999
67,956 75,204 76,220 77,57
78,294 87,51 88,49 91,91
92,425 93,2738 94,200
##END=
