##TITLE=Benzene, 1-azido-4-nitro-
##JCAMP-DX=4.24
##DATA TYPE=MASS SPECTRUM
##ORIGIN=MINISTRY OF DEFENCE ERDE, WALTHAM ABBEY, ESSEX, UK
##OWNER=NIST Mass Spectrometry Data Center
Collection (C) 2014 copyright by the U.S. Secretary of Commerce
on behalf of the United States of America. All rights reserved.
##CAS REGISTRY NO=1516-60-5
##$NIST MASS SPEC NO=39089
##MOLFORM=C6 H4 N4 O2
##MW=164
##$NIST SOURCE=MSDC
##XUNITS=M/Z
##YUNITS=RELATIVE INTENSITY
##XFACTOR=1
##YFACTOR=1
##FIRSTX=14
##LASTX=165
##FIRSTY=200
##MAXX=165
##MINX=14
##MAXY=9999
##MINY=100
##NPOINTS=48
##PEAK TABLE=(XY..XY)
14,200 25,100 26,800 27,600
28,3400 29,200 30,9400 31,100
32,200 37,2000 38,2800 39,6700
40,600 41,100 42,600 43,100
44,200 46,200 49,300 50,2200
51,1700 52,1700 53,300 60,100
61,1100 62,4100 63,9999 64,4300
65,700 73,200 74,600 75,400
76,400 77,200 78,400 79,200
87,300 88,700 89,2800 90,6700
91,600 92,300 108,200 119,100
136,4900 137,400 164,2400 165,200
##END=
