##TITLE=2-Butanol, 3-methyl-, (S)-
##JCAMP-DX=4.24
##DATA TYPE=MASS SPECTRUM
##ORIGIN=Chuck Anderson, Aldrich Chemical Co.
##OWNER=NIST Mass Spectrometry Data Center
Collection (C) 2014 copyright by the U.S. Secretary of Commerce
on behalf of the United States of America. All rights reserved.
##CAS REGISTRY NO=1517-66-4
##$NIST MASS SPEC NO=107948
##MOLFORM=C5 H12 O
##MW=88
##$NIST SOURCE=MSDC
##XUNITS=M/Z
##YUNITS=RELATIVE INTENSITY
##XFACTOR=1
##YFACTOR=1
##FIRSTX=15
##LASTX=88
##FIRSTY=46
##MAXX=88
##MINX=15
##MAXY=9999
##MINY=2
##NPOINTS=36
##PEAK TABLE=(XY..XY)
15,46 19,72 26,49 27,640
28,111 29,437 30,23 31,222
37,24 38,72 39,634 40,91
41,1002 42,279 43,1573 44,1383
45,9999 46,250 47,48 50,25
51,29 52,2 53,73 54,32
55,1065 56,52 57,111 58,23
69,98 70,43 71,172 72,37
73,1142 74,53 87,84 88,52
##END=
