##TITLE=1,4-Dioxane, 2,5-dimethyl-
##JCAMP-DX=4.24
##DATA TYPE=MASS SPECTRUM
##ORIGIN=A.E.FONTAINE DYESTUFFS DIV., I.C.I., MANCHESTER
##OWNER=NIST Mass Spectrometry Data Center
Collection (C) 2014 copyright by the U.S. Secretary of Commerce
on behalf of the United States of America. All rights reserved.
##CAS REGISTRY NO=15176-21-3
##$NIST MASS SPEC NO=1958
##MOLFORM=C6 H12 O2
##MW=116
##$NIST SOURCE=MSDC
##XUNITS=M/Z
##YUNITS=RELATIVE INTENSITY
##XFACTOR=1
##YFACTOR=1
##FIRSTX=12
##LASTX=118
##FIRSTY=2
##MAXX=118
##MINX=12
##MAXY=9999
##MINY=1
##NPOINTS=71
##PEAK TABLE=(XY..XY)
12,2 13,1 14,20 15,231
16,8 17,7 18,40 19,39
26,2 27,82 28,667 29,265
30,846 31,47 32,564 33,5
34,2 38,6 39,33 40,607
41,2393 42,9999 43,2650 44,188
45,9145 46,149 47,12 50,11
51,9 52,8 53,10 54,6
55,134 56,39 57,598 58,282
59,957 60,28 61,19 67,9
68,4 69,43 70,31 71,453
72,2137 73,308 74,43 75,44
76,4 77,12 78,71 79,5
83,52 84,9 85,22 86,66
87,40 91,9 92,6 97,37
98,8 99,4 100,26 101,2906
102,117 103,8 114,7 115,57
116,6068 117,368 118,29
##END=
