##TITLE=Disulfide, bis(2-methylpropyl)
##JCAMP-DX=4.24
##DATA TYPE=MASS SPECTRUM
##ORIGIN=Japan AIST/NIMC Database- Spectrum MS-NW-2736
##OWNER=NIST Mass Spectrometry Data Center
Collection (C) 2014 copyright by the U.S. Secretary of Commerce
on behalf of the United States of America. All rights reserved.
##CAS REGISTRY NO=1518-72-5
##$NIST MASS SPEC NO=231533
##MOLFORM=C8 H18 S2
##MW=178
##$NIST SOURCE=MSDC
##XUNITS=M/Z
##YUNITS=RELATIVE INTENSITY
##XFACTOR=1
##YFACTOR=1
##FIRSTX=15
##LASTX=181
##FIRSTY=30
##MAXX=181
##MINX=15
##MAXY=9999
##MINY=10
##NPOINTS=61
##PEAK TABLE=(XY..XY)
15,30 18,20 26,20 27,519
28,169 29,2009 30,40 32,40
34,10 35,10 37,10 38,30
39,529 40,60 41,2679 42,179
43,559 44,30 45,269 46,129
47,189 48,30 49,10 50,10
51,10 53,90 54,60 55,519
56,279 57,9999 58,449 59,90
60,40 61,40 64,40 66,50
71,30 73,99 74,10 75,10
76,10 78,10 79,149 80,10
81,10 85,10 87,379 88,209
89,99 90,30 93,10 105,10
120,10 121,10 122,1139 123,60
124,99 178,2229 179,229 180,219
181,20
##END=
