##TITLE=Benzene, 1-ethyl-3,5-diisopropyl-
##JCAMP-DX=4.24
##DATA TYPE=MASS SPECTRUM
##OWNER=NIST Mass Spectrometry Data Center
Collection (C) 2014 copyright by the U.S. Secretary of Commerce
on behalf of the United States of America. All rights reserved.
##CAS REGISTRY NO=15181-13-2
##$NIST MASS SPEC NO=8180
##MOLFORM=C14 H22
##MW=190
##$NIST SOURCE=MSDC
##XUNITS=M/Z
##YUNITS=RELATIVE INTENSITY
##XFACTOR=1
##YFACTOR=1
##FIRSTX=39
##LASTX=192
##FIRSTY=1101
##MAXX=192
##MINX=39
##MAXY=9999
##MINY=10
##NPOINTS=139
##PEAK TABLE=(XY..XY)
39,1101 40,130 41,621 42,110
43,3123 44,110 45,20 50,150
51,561 52,170 53,460 54,30
55,210 56,20 57,30 58,80
59,40 60,10 61,10 62,70
63,340 64,220 65,480 66,100
67,100 68,10 69,60 70,60
71,160 72,110 73,80 74,60
75,110 76,120 77,901 78,290
79,601 80,591 81,30 82,10
83,10 85,10 86,30 87,150
88,40 89,150 90,50 91,1872
92,180 93,100 94,20 95,20
96,10 98,10 99,10 100,10
101,40 102,140 103,380 104,160
105,1802 106,170 107,90 108,10
109,10 110,10 111,10 113,20
114,20 115,961 116,460 117,791
118,140 119,1101 120,120 121,40
122,10 123,10 124,10 125,10
126,40 127,230 128,641 129,530
130,230 131,681 132,120 133,1051
134,120 135,30 139,40 140,20
141,170 142,90 143,130 144,60
145,320 146,140 147,3063 148,390
149,70 150,10 151,10 152,30
153,20 154,10 155,20 156,10
157,30 158,20 159,270 160,90
161,1651 162,240 163,60 164,20
165,10 166,10 167,10 168,10
169,10 170,10 171,20 172,20
173,320 174,110 175,9999 176,1501
177,110 178,20 179,10 185,10
186,10 187,60 188,140 189,1692
190,3093 191,530 192,50
##END=
