##TITLE=o-Menth-8-ene
##JCAMP-DX=4.24
##DATA TYPE=MASS SPECTRUM
##OWNER=NIST Mass Spectrometry Data Center
Collection (C) 2014 copyright by the U.S. Secretary of Commerce
on behalf of the United States of America. All rights reserved.
##CAS REGISTRY NO=15193-25-6
##$NIST MASS SPEC NO=3504
##MOLFORM=C10 H18
##MW=138
##$NIST SOURCE=MSDC
##XUNITS=M/Z
##YUNITS=RELATIVE INTENSITY
##XFACTOR=1
##YFACTOR=1
##FIRSTX=27
##LASTX=139
##FIRSTY=1571
##MAXX=139
##MINX=27
##MAXY=9999
##MINY=80
##NPOINTS=39
##PEAK TABLE=(XY..XY)
27,1571 29,1491 39,2412 40,510
41,5145 42,561 43,631 51,300
52,200 53,1672 54,1011 55,5045
56,561 57,460 65,350 66,530
67,7877 68,7597 69,2432 70,711
77,561 79,891 80,530 81,9278
82,4464 83,1571 84,230 91,200
93,230 94,460 95,4814 96,9999
97,891 109,1852 110,250 123,1521
124,80 138,1521 139,130
##END=
