##TITLE=Perylene-D12
##JCAMP-DX=4.24
##DATA TYPE=MASS SPECTRUM
##ORIGIN=NIST Mass Spectrometry Data Center, 1990.
##OWNER=NIST Mass Spectrometry Data Center
Collection (C) 2014 copyright by the U.S. Secretary of Commerce
on behalf of the United States of America. All rights reserved.
##CAS REGISTRY NO=1520-96-3
##$NIST MASS SPEC NO=118444
##MOLFORM=C20 D12
##MW=264
##$NIST SOURCE=MSDC
##XUNITS=M/Z
##YUNITS=RELATIVE INTENSITY
##XFACTOR=1
##YFACTOR=1
##FIRSTX=18
##LASTX=266
##FIRSTY=8
##MAXX=266
##MINX=18
##MAXY=9999
##MINY=8
##NPOINTS=40
##PEAK TABLE=(XY..XY)
18,8 28,71 66,45 76,75
78,49 88,88 90,63 100,58
102,129 104,111 112,40 114,131
116,458 118,620 126,49 128,443
130,1130 132,1291 194,26 204,53
208,62 228,95 230,86 232,246
233,49 234,120 236,171 237,35
254,38 256,389 257,77 258,204
259,42 260,2430 261,486 262,269
263,59 264,9999 265,2217 266,219
##END=
