##TITLE=4-Aminostyrene
##JCAMP-DX=4.24
##DATA TYPE=MASS SPECTRUM
##ORIGIN=ALPHA Chemicals / NIST MS Data Center.
##OWNER=NIST Mass Spectrometry Data Center
Collection (C) 2014 copyright by the U.S. Secretary of Commerce
on behalf of the United States of America. All rights reserved.
##CAS REGISTRY NO=1520-21-4
##$NIST MASS SPEC NO=125339
##MOLFORM=C8 H9 N
##MW=119
##$NIST SOURCE=MSDC
##XUNITS=M/Z
##YUNITS=RELATIVE INTENSITY
##XFACTOR=1
##YFACTOR=1
##FIRSTX=12
##LASTX=121
##FIRSTY=6
##MAXX=121
##MINX=12
##MAXY=9999
##MINY=4
##NPOINTS=79
##PEAK TABLE=(XY..XY)
12,6 14,24 15,44 16,5
17,18 18,40 26,148 27,365
28,480 29,31 30,36 32,11
36,14 37,149 38,341 39,1029
40,191 41,374 42,121 43,22
45,42 46,71 47,119 48,8
49,58 50,335 51,570 52,529
53,198 54,182 55,12 57,10
59,763 60,323 61,200 62,367
63,664 64,294 65,1205 66,410
67,90 68,14 73,35 74,153
75,166 76,143 77,297 78,300
79,39 80,218 81,15 84,7
85,31 86,57 87,57 88,57
89,486 90,407 91,2401 92,498
93,683 94,43 97,8 98,27
99,11 101,85 102,128 103,93
104,420 105,32 106,7 111,4
114,6 116,261 117,1558 118,5803
119,9999 120,827 121,37
##END=
