##TITLE=2-Methanesulfonylethanol
##JCAMP-DX=4.24
##DATA TYPE=MASS SPECTRUM
##ORIGIN=NIST Mass Spectrometry Data Center, 1994
##OWNER=NIST Mass Spectrometry Data Center
Collection (C) 2014 copyright by the U.S. Secretary of Commerce
on behalf of the United States of America. All rights reserved.
##CAS REGISTRY NO=15205-66-0
##$NIST MASS SPEC NO=136250
##MOLFORM=C3 H8 O3 S
##MW=124
##$NIST SOURCE=MSDC
##XUNITS=M/Z
##YUNITS=RELATIVE INTENSITY
##XFACTOR=1
##YFACTOR=1
##FIRSTX=12
##LASTX=125
##FIRSTY=33
##MAXX=125
##MINX=12
##MAXY=9999
##MINY=14
##NPOINTS=58
##PEAK TABLE=(XY..XY)
12,33 13,89 14,428 15,2971
16,83 17,44 18,80 19,1347
25,36 26,507 27,3099 28,420
29,3617 30,144 31,1417 32,119
33,187 34,105 35,60 39,45
40,20 41,99 42,498 43,2193
44,732 45,9999 46,523 47,294
48,775 49,239 50,93 51,15
57,31 58,40 59,28 60,21
61,108 62,98 63,1686 64,466
65,1325 66,89 67,78 77,213
79,1973 80,622 81,2814 82,73
83,144 91,41 94,1915 95,75
96,100 97,138 107,14 109,114
123,104 125,18
##END=
