##TITLE=2-Fluoro-6-(trifluoromethyl)benzyl alcohol
##JCAMP-DX=4.24
##DATA TYPE=MASS SPECTRUM
##ORIGIN=NIST Mass Spectrometry Data Center
##OWNER=NIST Mass Spectrometry Data Center
Collection (C) 2014 copyright by the U.S. Secretary of Commerce
on behalf of the United States of America. All rights reserved.
##CAS REGISTRY NO=152211-15-9
##$NIST MASS SPEC NO=364050
##MOLFORM=C8 H6 F4 O
##MW=194
##$NIST SOURCE=MSDC
##XUNITS=M/Z
##YUNITS=RELATIVE INTENSITY
##XFACTOR=1
##YFACTOR=1
##FIRSTX=20
##LASTX=196
##FIRSTY=10
##MAXX=196
##MINX=20
##MAXY=9999
##MINY=10
##NPOINTS=141
##PEAK TABLE=(XY..XY)
20,10 26,20 27,40 28,20
29,380 30,130 31,711 32,10
33,30 37,70 38,110 39,170
40,10 42,10 43,10 44,30
45,40 46,10 47,20 48,10
49,120 50,460 51,530 52,40
53,40 55,20 56,90 57,470
58,20 59,10 60,10 61,140
62,330 63,440 64,40 65,10
66,10 68,260 69,731 70,130
71,40 72,30 73,90 74,480
75,1451 76,170 77,981 78,80
79,60 80,110 81,400 82,70
83,50 84,20 85,100 86,170
87,320 88,150 89,50 90,10
91,10 92,110 93,310 94,530
95,1171 96,731 97,2292 98,170
99,390 100,90 101,410 102,30
103,20 104,50 105,370 106,110
107,871 108,270 109,40 110,10
111,30 112,100 113,350 114,701
115,60 116,10 117,90 118,70
119,210 120,20 121,10 122,10
123,270 125,4984 126,1031 127,3423
128,260 129,10 130,10 131,10
132,100 133,10 136,20 137,260
138,90 139,20 141,30 143,941
144,971 145,9999 146,1832 147,190
148,10 150,20 151,40 152,10
153,10 155,1672 156,240 157,100
158,140 159,20 160,20 161,30
163,881 164,490 165,1251 166,150
167,10 173,5395 174,1501 175,170
176,160 177,1221 178,110 191,370
192,60 193,561 194,3263 195,280
196,20
##END=
