##TITLE=1,2-Oxathiane, 6-dodecyl-, 2,2-dioxide
##JCAMP-DX=4.24
##DATA TYPE=MASS SPECTRUM
##ORIGIN=D. LUKE UNILEVER RESEARCH LAB., PORT SUNLIGHT
##OWNER=NIST Mass Spectrometry Data Center
Collection (C) 2014 copyright by the U.S. Secretary of Commerce
on behalf of the United States of America. All rights reserved.
##CAS REGISTRY NO=15224-88-1
##$NIST MASS SPEC NO=14510
##MOLFORM=C16 H32 O3 S
##MW=304
##$NIST SOURCE=MSDC
##XUNITS=M/Z
##YUNITS=RELATIVE INTENSITY
##XFACTOR=1
##YFACTOR=1
##FIRSTX=15
##LASTX=304
##FIRSTY=110
##MAXX=304
##MINX=15
##MAXY=9999
##MINY=108
##NPOINTS=100
##PEAK TABLE=(XY..XY)
15,110 17,275 18,1410 26,142
27,1732 28,2907 29,4016 30,110
31,158 39,1181 40,378 41,8663
42,4016 43,9529 44,866 45,236
48,126 53,567 54,1732 55,9999
56,6306 57,6847 58,414 64,252
65,216 66,270 67,3604 68,3243
69,8649 70,7387 71,4595 72,378
73,991 79,486 80,270 81,3514
82,4144 83,7658 84,7297 85,1622
95,2523 96,3243 97,6306 98,4324
99,559 100,234 107,559 108,162
109,1772 110,1892 111,3333 112,2973
113,342 121,234 123,1351 124,1261
125,1062 126,1982 127,252 135,360
137,883 138,667 139,667 140,1261
141,144 151,577 152,360 153,378
154,775 155,108 165,342 166,162
167,234 168,216 174,126 177,126
178,144 179,252 180,144 181,306
191,306 192,270 193,162 194,270
205,450 206,342 207,108 219,324
220,396 222,180 227,216 233,270
234,378 247,216 248,324 261,162
262,270 275,108 276,324 304,648
##END=
