##TITLE=2-Propenoic acid, 3-bicyclo[2.2.1]hept-5-en-2-yl-
##JCAMP-DX=4.24
##DATA TYPE=MASS SPECTRUM
##ORIGIN=Japan AIST/NIMC Database- Spectrum MS-NW-5682
##OWNER=NIST Mass Spectrometry Data Center
Collection (C) 2014 copyright by the U.S. Secretary of Commerce
on behalf of the United States of America. All rights reserved.
##CAS REGISTRY NO=15222-64-7
##$NIST MASS SPEC NO=235493
##MOLFORM=C10 H12 O2
##MW=164
##$NIST SOURCE=MSDC
##XUNITS=M/Z
##YUNITS=RELATIVE INTENSITY
##XFACTOR=1
##YFACTOR=1
##FIRSTX=14
##LASTX=166
##FIRSTY=10
##MAXX=166
##MINX=14
##MAXY=9999
##MINY=10
##NPOINTS=113
##PEAK TABLE=(XY..XY)
14,10 15,20 17,10 18,30
26,50 27,389 28,80 29,40
31,20 32,10 36,10 37,40
38,119 39,819 40,329 41,529
42,60 43,99 44,119 45,129
49,20 50,149 51,359 52,159
53,319 54,50 55,90 56,20
57,50 58,70 59,10 60,20
61,30 62,70 63,209 64,70
65,659 66,9999 67,649 68,40
69,40 70,50 71,30 72,20
73,50 74,30 75,20 76,20
77,529 78,239 79,619 80,139
81,129 82,40 83,10 84,30
85,20 86,30 87,20 88,10
89,80 90,40 91,1029 92,259
93,80 94,40 95,60 96,10
97,149 98,109 99,499 100,40
101,10 102,40 103,139 104,149
105,199 106,20 107,20 108,10
109,10 110,70 111,10 113,10
114,10 115,289 116,119 117,569
118,359 119,1629 120,179 121,20
122,40 123,149 124,20 127,20
129,10 130,10 131,30 132,10
135,40 136,50 137,10 144,10
145,30 146,90 147,20 149,20
162,10 163,20 164,609 165,80
166,10
##END=
