##TITLE=Indole, 3-benzoyl-
##JCAMP-DX=4.24
##DATA TYPE=MASS SPECTRUM
##ORIGIN=Japan AIST/NIMC Database- Spectrum MS-IW-7734
##OWNER=NIST Mass Spectrometry Data Center
Collection (C) 2014 copyright by the U.S. Secretary of Commerce
on behalf of the United States of America. All rights reserved.
##CAS REGISTRY NO=15224-25-6
##$NIST MASS SPEC NO=241376
##MOLFORM=C15 H11 N O
##MW=221
##$NIST SOURCE=MSDC
##XUNITS=M/Z
##YUNITS=RELATIVE INTENSITY
##XFACTOR=1
##YFACTOR=1
##FIRSTX=27
##LASTX=223
##FIRSTY=50
##MAXX=223
##MINX=27
##MAXY=9999
##MINY=10
##NPOINTS=125
##PEAK TABLE=(XY..XY)
27,50 28,309 29,20 32,10
36,20 38,10 39,109 40,10
41,40 42,10 43,60 44,30
50,70 51,229 52,30 53,10
55,50 56,20 57,99 58,10
61,10 62,80 63,209 64,30
65,30 67,20 68,10 69,60
70,20 71,80 74,30 75,50
76,60 77,479 78,80 79,10
81,40 82,119 83,129 84,30
85,60 86,20 87,50 88,139
89,909 90,149 91,40 92,10
94,10 95,199 96,249 97,70
98,10 99,20 101,99 102,50
103,20 104,10 105,159 106,30
109,20 110,229 111,70 112,10
113,20 114,70 115,189 116,1219
117,199 118,10 119,10 123,10
124,10 125,20 126,10 127,20
128,10 130,10 135,20 137,20
138,10 139,40 140,20 141,10
143,119 144,9999 145,1069 146,70
147,10 149,10 150,10 151,10
152,10 153,10 160,10 162,10
163,80 164,99 165,289 166,60
167,20 174,10 175,10 176,40
177,40 178,10 179,10 188,10
190,80 191,90 192,229 193,219
194,30 201,20 202,30 203,149
204,289 205,169 206,40 207,20
219,60 220,679 221,5639 222,949
223,90
##END=
