##TITLE=1-Heptylcyclohexene
##JCAMP-DX=4.24
##DATA TYPE=MASS SPECTRUM
##ORIGIN=S.A. Rang et al., IR & MS of Unsatd. Hydrocarbons, 1977
##OWNER=NIST Mass Spectrometry Data Center
Collection (C) 2014 copyright by the U.S. Secretary of Commerce
on behalf of the United States of America. All rights reserved.
##CAS REGISTRY NO=15232-86-7
##$NIST MASS SPEC NO=142696
##MOLFORM=C13 H24
##MW=180
##$NIST SOURCE=MSDC
##XUNITS=M/Z
##YUNITS=RELATIVE INTENSITY
##XFACTOR=1
##YFACTOR=1
##FIRSTX=15
##LASTX=181
##FIRSTY=21
##MAXX=181
##MINX=15
##MAXY=9999
##MINY=2
##NPOINTS=100
##PEAK TABLE=(XY..XY)
15,21 16,7 24,5 25,19
26,114 27,1029 28,150 29,1464
37,10 38,24 39,910 40,192
41,3835 42,355 43,1385 44,75
45,29 50,29 51,121 52,121
53,1069 54,1069 55,2782 56,326
57,390 58,26 59,10 63,26
64,12 65,419 66,475 67,4571
68,1860 69,594 70,107 71,50
72,7 73,29 75,23 76,10
77,673 78,192 79,1741 80,752
81,9999 82,2782 83,554 84,90
85,38 86,5 89,7 90,5
91,404 92,79 93,554 94,262
95,2632 96,6000 97,1623 98,156
99,21 102,5 103,19 104,14
105,43 106,14 107,88 108,135
109,1504 110,312 111,45 112,14
113,5 115,14 116,7 117,10
119,7 120,5 121,29 122,19
123,149 124,114 125,24 127,5
128,7 129,7 135,17 136,7
137,107 138,86 139,10 151,43
152,105 153,14 154,2 164,19
165,7 178,14 180,1543 181,199
##END=
