##TITLE=Cyclohexene, 3-octyl-
##JCAMP-DX=4.24
##DATA TYPE=MASS SPECTRUM
##ORIGIN=S.A. Rang et al., IR & MS of Unsatd. Hydrocarbons, 1977
##OWNER=NIST Mass Spectrometry Data Center
Collection (C) 2014 copyright by the U.S. Secretary of Commerce
on behalf of the United States of America. All rights reserved.
##CAS REGISTRY NO=15232-94-7
##$NIST MASS SPEC NO=142699
##MOLFORM=C14 H26
##MW=194
##$NIST SOURCE=MSDC
##XUNITS=M/Z
##YUNITS=RELATIVE INTENSITY
##XFACTOR=1
##YFACTOR=1
##FIRSTX=15
##LASTX=196
##FIRSTY=38
##MAXX=196
##MINX=15
##MAXY=9999
##MINY=3
##NPOINTS=130
##PEAK TABLE=(XY..XY)
15,38 16,9 24,6 25,18
26,119 27,1277 28,343 29,1986
30,47 31,17 37,10 38,26
39,993 40,198 41,4286 42,514
43,1986 44,49 45,26 49,4
50,32 51,132 52,126 53,1277
54,1064 55,2143 56,391 57,851
58,42 59,7 62,4 63,22
64,9 65,391 66,465 67,3571
68,1135 69,538 70,165 71,294
72,17 73,15 74,4 75,17
76,6 77,636 78,179 79,2143
80,1348 81,9999 82,2857 83,465
84,66 85,112 86,8 87,3
89,8 90,4 91,269 92,54
93,269 94,198 95,1277 96,4464
97,1064 98,119 99,30 100,3
102,3 103,13 104,10 105,35
106,11 107,47 108,86 109,563
110,145 111,38 112,31 113,21
114,3 115,12 116,5 117,12
118,3 119,11 120,7 121,15
122,9 123,83 124,76 125,12
126,8 127,11 128,5 129,4
131,4 132,3 133,8 134,5
135,8 136,5 137,53 138,53
139,8 140,6 141,9 142,3
147,3 149,3 150,3 151,36
152,31 153,5 154,4 155,6
161,4 162,9 164,3 165,7
166,58 167,9 168,3 169,4
179,4 192,4 193,4 194,440
195,63 196,6
##END=
