##TITLE=2-Naphthalenol, acetate
##JCAMP-DX=4.24
##DATA TYPE=MASS SPECTRUM
##ORIGIN=Japan AIST/NIMC Database- Spectrum MS-NW-4468
##OWNER=NIST Mass Spectrometry Data Center
Collection (C) 2014 copyright by the U.S. Secretary of Commerce
on behalf of the United States of America. All rights reserved.
##CAS REGISTRY NO=1523-11-1
##$NIST MASS SPEC NO=232580
##MOLFORM=C12 H10 O2
##MW=186
##$NIST SOURCE=MSDC
##XUNITS=M/Z
##YUNITS=RELATIVE INTENSITY
##XFACTOR=1
##YFACTOR=1
##FIRSTX=14
##LASTX=188
##FIRSTY=30
##MAXX=188
##MINX=14
##MAXY=9999
##MINY=10
##NPOINTS=49
##PEAK TABLE=(XY..XY)
14,30 15,119 27,10 28,10
37,10 38,30 39,139 41,10
42,40 43,759 44,20 50,90
51,90 52,10 57,40 61,30
62,129 63,309 64,50 65,139
74,70 75,90 76,30 77,50
85,10 86,50 87,70 88,80
89,249 90,30 98,10 99,10
101,20 113,80 114,119 115,1939
116,479 117,40 126,60 127,109
128,20 142,10 143,99 144,9999
145,1099 146,80 186,1159 187,149
188,10
##END=
