##TITLE=2-Naphthalenol, 6-bromo-
##JCAMP-DX=4.24
##DATA TYPE=MASS SPECTRUM
##ORIGIN=Japan AIST/NIMC Database- Spectrum MS-NW-3884
##OWNER=NIST Mass Spectrometry Data Center
Collection (C) 2014 copyright by the U.S. Secretary of Commerce
on behalf of the United States of America. All rights reserved.
##CAS REGISTRY NO=15231-91-1
##$NIST MASS SPEC NO=232206
##MOLFORM=C10 H7 Br O
##MW=222
##$NIST SOURCE=MSDC
##XUNITS=M/Z
##YUNITS=RELATIVE INTENSITY
##XFACTOR=1
##YFACTOR=1
##FIRSTX=26
##LASTX=226
##FIRSTY=40
##MAXX=226
##MINX=26
##MAXY=9999
##MINY=10
##NPOINTS=109
##PEAK TABLE=(XY..XY)
26,40 27,70 28,30 29,60
36,10 37,90 38,149 39,359
40,20 41,30 42,10 43,70
44,60 49,50 50,309 51,279
52,60 53,109 54,10 55,90
56,70 57,679 58,90 60,20
61,199 62,499 63,839 64,169
65,379 66,40 67,10 69,10
70,10 71,479 72,30 73,60
74,329 75,299 76,99 77,80
78,159 79,30 80,20 81,20
82,20 84,40 85,109 86,269
87,379 88,449 89,639 90,60
91,20 92,30 93,10 96,50
97,50 98,90 99,80 100,20
101,20 103,20 105,40 107,20
109,40 110,60 111,519 112,519
113,599 114,1239 115,4399 116,469
117,30 119,20 120,20 121,10
122,40 123,10 125,30 126,70
127,60 128,10 129,20 137,10
139,10 140,30 141,20 142,409
143,2929 144,479 145,40 149,10
150,10 167,10 168,20 169,20
182,20 192,10 193,399 194,60
195,399 196,60 197,10 221,70
222,9999 223,1179 224,9809 225,1099
226,70
##END=
