##TITLE=Cyclohexene,3-hexyl-
##JCAMP-DX=4.24
##DATA TYPE=MASS SPECTRUM
##ORIGIN=S.A. Rang et al., IR & MS of Unsatd. Hydrocarbons, 1977
##OWNER=NIST Mass Spectrometry Data Center
Collection (C) 2014 copyright by the U.S. Secretary of Commerce
on behalf of the United States of America. All rights reserved.
##CAS REGISTRY NO=15232-78-7
##$NIST MASS SPEC NO=142695
##MOLFORM=C12 H22
##MW=166
##$NIST SOURCE=MSDC
##XUNITS=M/Z
##YUNITS=RELATIVE INTENSITY
##XFACTOR=1
##YFACTOR=1
##FIRSTX=15
##LASTX=168
##FIRSTY=8
##MAXX=168
##MINX=15
##MAXY=9999
##MINY=2
##NPOINTS=98
##PEAK TABLE=(XY..XY)
15,8 16,3 25,5 26,34
27,535 28,474 29,645 30,13
37,5 38,10 39,630 40,85
41,2782 42,212 43,835 44,76
45,2 50,15 51,74 52,62
53,778 54,782 55,1395 56,156
57,126 58,7 62,2 63,15
64,5 65,213 66,265 67,3430
68,931 69,340 70,53 71,30
72,2 73,2 75,10 76,42
77,487 78,120 79,1760 80,782
81,9999 82,2650 83,327 84,53
85,39 86,3 89,5 90,3
91,351 92,252 93,113 94,180
95,1391 96,4831 97,932 98,46
99,4 102,2 103,9 104,12
105,24 106,10 107,39 108,30
109,693 110,144 111,16 112,3
113,2 115,9 116,2 117,12
118,2 119,4 120,2 121,8
122,5 123,67 124,65 125,8
135,12 136,2 137,37 138,72
139,8 151,7 152,2 162,25
163,4 164,18 165,12 166,910
167,141 168,6
##END=
