##TITLE=3-Octyne
##JCAMP-DX=4.24
##DATA TYPE=MASS SPECTRUM
##ORIGIN=Japan AIST/NIMC Database- Spectrum MS-NW-3534
##OWNER=NIST Mass Spectrometry Data Center
Collection (C) 2014 copyright by the U.S. Secretary of Commerce
on behalf of the United States of America. All rights reserved.
##CAS REGISTRY NO=15232-76-5
##$NIST MASS SPEC NO=230806
##MOLFORM=C8 H14
##MW=110
##$NIST SOURCE=MSDC
##XUNITS=M/Z
##YUNITS=RELATIVE INTENSITY
##XFACTOR=1
##YFACTOR=1
##FIRSTX=14
##LASTX=111
##FIRSTY=20
##MAXX=111
##MINX=14
##MAXY=9999
##MINY=10
##NPOINTS=63
##PEAK TABLE=(XY..XY)
14,20 15,169 26,149 27,2199
28,60 29,969 30,20 37,70
38,189 39,2439 40,1059 41,5649
42,849 43,1639 44,60 45,10
49,30 50,269 51,609 52,429
53,3599 54,699 55,2049 56,459
57,90 60,10 61,40 62,99
63,219 64,50 65,909 66,669
67,9999 68,5509 69,819 70,80
71,10 73,10 74,30 75,20
76,10 77,549 78,109 79,1389
80,339 81,6819 82,1719 83,159
84,20 85,10 91,169 92,20
93,269 94,50 95,3939 96,319
97,60 105,10 107,10 108,10
109,199 110,1109 111,119
##END=
