##TITLE=Butanal, (2,4-dinitrophenyl)hydrazone
##JCAMP-DX=4.24
##DATA TYPE=MASS SPECTRUM
##ORIGIN=Japan AIST/NIMC Database- Spectrum MS-IW-6785
##OWNER=NIST Mass Spectrometry Data Center
Collection (C) 2014 copyright by the U.S. Secretary of Commerce
on behalf of the United States of America. All rights reserved.
##CAS REGISTRY NO=1527-98-6
##$NIST MASS SPEC NO=242071
##MOLFORM=C10 H12 N4 O4
##MW=252
##$NIST SOURCE=MSDC
##XUNITS=M/Z
##YUNITS=RELATIVE INTENSITY
##XFACTOR=1
##YFACTOR=1
##FIRSTX=15
##LASTX=255
##FIRSTY=60
##MAXX=255
##MINX=15
##MAXY=9999
##MINY=10
##NPOINTS=192
##PEAK TABLE=(XY..XY)
15,60 26,90 27,1699 28,939
29,769 30,1459 31,50 37,80
38,239 39,1109 40,189 41,1989
42,379 43,1839 44,199 45,30
46,30 49,10 50,299 51,1149
52,699 53,419 54,259 55,3569
56,329 57,169 58,40 61,99
62,549 63,1389 64,959 65,389
66,259 67,119 68,259 69,119
70,329 71,129 72,109 73,1149
74,319 75,1519 76,889 77,1579
78,2129 79,3039 80,389 81,60
82,50 83,50 85,10 86,10
87,50 88,139 89,449 90,709
91,1019 92,1169 93,319 94,99
95,60 96,20 97,20 101,30
102,259 103,779 104,789 105,429
106,389 107,259 108,99 109,10
110,10 111,20 112,10 114,10
115,419 116,329 117,369 118,369
119,499 120,209 121,99 122,2279
123,189 124,20 126,10 127,50
128,119 129,229 130,489 131,509
132,309 133,149 134,90 135,249
136,119 137,219 138,169 139,10
141,10 142,70 143,299 144,309
145,199 146,109 147,209 148,139
149,679 150,289 151,80 152,3919
153,579 154,60 155,20 156,50
157,90 158,109 159,129 160,159
161,90 162,169 163,139 164,179
165,169 166,189 167,219 168,40
169,80 170,209 171,659 172,179
173,40 174,50 175,50 176,339
177,329 178,70 179,60 180,2429
181,609 182,99 183,889 184,109
185,20 186,10 187,20 188,50
189,109 190,219 191,139 192,279
193,599 194,70 195,20 196,779
197,70 198,10 200,30 201,10
202,90 203,149 204,60 205,70
206,1009 207,149 208,20 209,179
210,70 211,10 215,169 216,60
217,489 218,149 219,50 220,20
222,50 223,599 224,299 225,40
233,20 234,30 235,60 236,189
237,70 238,10 250,20 251,20
252,9999 253,1549 254,179 255,20
##END=
