##TITLE=2-Butenal, (2,4-dinitrophenyl)hydrazone
##JCAMP-DX=4.24
##DATA TYPE=MASS SPECTRUM
##OWNER=NIST Mass Spectrometry Data Center
Collection (C) 2014 copyright by the U.S. Secretary of Commerce
on behalf of the United States of America. All rights reserved.
##CAS REGISTRY NO=1527-96-4
##$NIST MASS SPEC NO=12179
##MOLFORM=C10 H10 N4 O4
##MW=250
##$NIST SOURCE=MSDC
##XUNITS=M/Z
##YUNITS=RELATIVE INTENSITY
##XFACTOR=1
##YFACTOR=1
##FIRSTX=26
##LASTX=252
##FIRSTY=500
##MAXX=252
##MINX=26
##MAXY=9999
##MINY=100
##NPOINTS=172
##PEAK TABLE=(XY..XY)
26,500 27,3904 28,5305 29,1902
30,4004 31,300 32,5005 37,400
38,1201 39,9999 41,8408 42,2002
43,2502 44,300 45,200 46,100
50,1201 51,3203 52,2502 53,4704
54,2002 55,1802 56,500 57,500
58,200 60,100 61,500 62,1501
63,5705 64,3003 65,1301 66,500
67,1802 68,3203 69,2602 70,500
71,1301 72,100 73,200 74,1001
75,2502 76,1501 77,3503 78,2302
79,2202 80,1001 81,1301 82,300
83,300 84,200 85,200 86,100
87,200 88,500 89,1301 90,1802
91,2202 92,1201 93,500 94,200
95,400 96,200 97,100 98,200
101,300 102,1201 103,2502 104,1201
105,601 106,500 107,400 108,100
109,100 111,100 112,100 113,200
114,300 115,701 116,1401 117,1301
118,1201 119,500 120,300 121,200
122,701 123,200 125,100 126,200
127,901 128,2402 129,2502 130,2302
131,1501 132,400 133,200 134,200
135,200 136,100 137,100 138,100
140,300 141,300 142,801 143,2002
144,701 145,701 146,500 147,300
148,200 149,200 150,100 151,100
152,500 153,300 154,100 155,1702
156,5305 157,3603 158,1301 159,2002
160,400 161,100 162,100 163,100
164,100 165,100 166,100 167,100
168,200 169,5505 170,901 171,500
172,200 173,701 174,200 175,400
176,300 177,200 178,100 180,100
181,200 183,100 185,801 186,1001
187,300 188,400 189,3503 190,500
191,300 193,100 201,400 202,8408
203,7807 204,1101 205,300 206,100
215,1902 216,500 217,200 218,200
219,100 220,100 231,701 232,200
233,3303 234,701 235,4304 236,500
249,200 250,6306 251,801 252,100
##END=
