##TITLE=Tranid
##JCAMP-DX=4.24
##DATA TYPE=MASS SPECTRUM
##ORIGIN=S.I.M. SKINNER & R. GREENHALGH, CHEMISTRY & BIOLOGY RESEARCH INST., AGRICULTURE, CANADA
##OWNER=NIST Mass Spectrometry Data Center
Collection (C) 2014 copyright by the U.S. Secretary of Commerce
on behalf of the United States of America. All rights reserved.
##CAS REGISTRY NO=15271-41-7
##$NIST MASS SPEC NO=59685
##MOLFORM=C10 H12 Cl N3 O2
##MW=241
##$NIST SOURCE=MSDC
##XUNITS=M/Z
##YUNITS=RELATIVE INTENSITY
##XFACTOR=1
##YFACTOR=1
##FIRSTX=35
##LASTX=187
##FIRSTY=134
##MAXX=187
##MINX=35
##MAXY=9999
##MINY=33
##NPOINTS=111
##PEAK TABLE=(XY..XY)
35,134 36,570 37,302 38,1073
39,4765 40,973 41,1543 42,335
43,201 44,771 45,134 48,100
49,570 50,570 51,2013 52,1812
53,1510 54,2516 55,302 56,369
57,1006 58,9999 59,268 60,33
61,100 62,167 63,536 64,738
65,2382 66,1812 67,1342 68,201
69,67 70,67 73,134 74,167
75,704 76,503 77,1644 78,1476
79,1006 80,402 81,167 82,100
83,33 86,33 87,134 88,134
89,234 90,436 91,1912 92,973
93,335 94,234 95,1577 96,1879
97,100 99,67 100,335 101,100
102,268 103,268 104,1442 105,369
106,201 107,167 108,402 109,134
110,67 112,67 113,268 114,335
115,201 116,536 117,335 118,1912
119,302 120,67 121,100 122,201
125,33 126,33 127,100 128,33
129,67 130,402 131,939 132,335
133,201 140,100 141,33 142,33
143,33 144,67 146,33 147,100
148,1912 149,805 150,100 152,33
153,33 154,939 155,100 156,302
157,100 167,67 183,67 184,2684
185,335 186,1040 187,100
##END=
