##TITLE=Tricyclo[3.3.3.0(1,5)]undecane, 2,8,9-trioxa-5-aza-1-bora-
##JCAMP-DX=4.24
##DATA TYPE=MASS SPECTRUM
##ORIGIN=Japan AIST/NIMC Database- Spectrum MS-NW-8861
##OWNER=NIST Mass Spectrometry Data Center
Collection (C) 2014 copyright by the U.S. Secretary of Commerce
on behalf of the United States of America. All rights reserved.
##CAS REGISTRY NO=15277-97-1
##$NIST MASS SPEC NO=235628
##MOLFORM=C6 H12 B N O3
##MW=157
##$NIST SOURCE=MSDC
##XUNITS=M/Z
##YUNITS=RELATIVE INTENSITY
##XFACTOR=1
##YFACTOR=1
##FIRSTX=15
##LASTX=159
##FIRSTY=159
##MAXX=159
##MINX=15
##MAXY=9999
##MINY=10
##NPOINTS=63
##PEAK TABLE=(XY..XY)
15,159 26,50 27,259 28,799
29,199 30,129 31,30 39,30
40,30 41,389 42,1189 43,119
44,149 45,399 52,10 53,20
54,189 55,1139 56,1229 57,99
58,209 59,459 63,40 64,10
67,20 68,129 69,90 70,169
71,189 72,579 73,139 77,10
80,10 81,10 82,99 83,40
84,129 85,169 86,279 87,10
96,30 97,60 98,329 99,949
100,1729 101,70 110,30 111,109
112,419 113,149 114,239 115,10
124,30 125,2109 126,9999 127,5539
128,399 129,30 155,20 156,269
157,739 158,199 159,10
##END=
