##TITLE=Stannane, tributylmethyl-
##JCAMP-DX=4.24
##DATA TYPE=MASS SPECTRUM
##ORIGIN=M.GIELEN FREE UNIV. OF BRUSSELS, BRUSSELS, BELGIUM
##OWNER=NIST Mass Spectrometry Data Center
Collection (C) 2014 copyright by the U.S. Secretary of Commerce
on behalf of the United States of America. All rights reserved.
##CAS REGISTRY NO=1528-01-4
##$NIST MASS SPEC NO=14588
##MOLFORM=C13 H30 Sn
##MW=306
##$NIST SOURCE=MSDC
##XUNITS=M/Z
##YUNITS=RELATIVE INTENSITY
##XFACTOR=1
##YFACTOR=1
##FIRSTX=15
##LASTX=254
##FIRSTY=300
##MAXX=254
##MINX=15
##MAXY=9999
##MINY=100
##NPOINTS=93
##PEAK TABLE=(XY..XY)
15,300 27,3700 28,1100 29,8000
30,200 39,1600 40,100 41,3800
42,300 43,600 53,200 55,400
56,200 57,900 58,100 112,100
114,100 115,600 116,1800 117,1600
119,2800 120,1900 121,3300 122,300
123,700 124,200 125,700 127,100
129,300 130,100 131,1600 132,1000
133,4900 134,2700 135,7100 136,1800
137,6300 138,100 139,1500 141,1100
143,100 145,300 146,100 147,300
148,100 149,300 151,100 159,100
161,100 163,200 171,100 173,800
174,400 175,1600 176,700 177,2000
178,300 179,1100 181,400 183,200
185,300 187,300 188,300 189,4600
190,2900 191,7800 192,3300 193,9999
194,700 195,1600 196,100 197,1900
198,100 199,100 201,100 231,200
232,100 233,300 234,100 235,100
241,200 243,100 244,100 245,1400
246,1700 247,4200 248,2000 249,5600
250,700 251,900 252,100 253,1000
254,100
##END=
