##TITLE=1,1'-Biphenyl, 4,4'-dinitro-
##JCAMP-DX=4.24
##DATA TYPE=MASS SPECTRUM
##ORIGIN=Japan AIST/NIMC Database- Spectrum MS-NW- 495
##OWNER=NIST Mass Spectrometry Data Center
Collection (C) 2014 copyright by the U.S. Secretary of Commerce
on behalf of the United States of America. All rights reserved.
##CAS REGISTRY NO=1528-74-1
##$NIST MASS SPEC NO=229125
##MOLFORM=C12 H8 N2 O4
##MW=244
##$NIST SOURCE=MSDC
##XUNITS=M/Z
##YUNITS=RELATIVE INTENSITY
##XFACTOR=1
##YFACTOR=1
##FIRSTX=26
##LASTX=247
##FIRSTY=10
##MAXX=247
##MINX=26
##MAXY=9999
##MINY=10
##NPOINTS=111
##PEAK TABLE=(XY..XY)
26,10 27,40 28,129 29,10
30,359 32,20 38,40 39,159
41,20 43,20 44,30 46,30
50,419 51,359 52,99 53,10
55,20 57,20 61,40 62,209
63,669 64,70 65,40 69,30
70,10 71,10 73,20 74,389
75,579 76,619 77,189 78,70
79,60 83,20 85,20 86,119
87,239 88,129 89,139 90,30
91,10 97,20 98,139 99,159
100,109 101,159 102,349 103,40
110,30 111,50 112,20 113,169
114,169 115,99 116,30 117,10
122,40 123,20 124,20 125,179
126,709 127,129 128,539 129,70
130,10 137,30 138,60 139,1269
140,579 141,99 142,20 149,90
150,1009 151,3629 152,4529 153,599
154,40 155,20 156,769 157,99
158,10 164,30 165,20 166,30
167,80 168,339 169,60 170,10
181,709 182,109 183,10 184,179
185,30 186,149 187,20 196,20
197,30 198,539 199,80 212,10
214,1789 215,249 216,30 226,10
228,149 229,20 243,10 244,9999
245,1429 246,189 247,20
##END=
