##TITLE=Cyclopentane, methylene-
##JCAMP-DX=4.24
##DATA TYPE=MASS SPECTRUM
##ORIGIN=Japan AIST/NIMC Database- Spectrum MS-NW-6766
##OWNER=NIST Mass Spectrometry Data Center
Collection (C) 2014 copyright by the U.S. Secretary of Commerce
on behalf of the United States of America. All rights reserved.
##CAS REGISTRY NO=1528-30-9
##$NIST MASS SPEC NO=238669
##MOLFORM=C6 H10
##MW=82
##$NIST SOURCE=MSDC
##XUNITS=M/Z
##YUNITS=RELATIVE INTENSITY
##XFACTOR=1
##YFACTOR=1
##FIRSTX=14
##LASTX=83
##FIRSTY=10
##MAXX=83
##MINX=14
##MAXY=9999
##MINY=10
##NPOINTS=40
##PEAK TABLE=(XY..XY)
14,10 15,60 26,179 27,1089
28,259 29,179 31,10 37,119
38,239 39,2329 40,599 41,2159
42,349 43,80 44,10 49,60
50,349 51,519 52,289 53,999
54,2839 55,289 56,50 61,30
62,50 63,90 64,10 65,359
66,189 67,9999 68,579 69,10
75,10 77,259 78,70 79,539
80,90 81,1429 82,3109 83,219
##END=
