##TITLE=Cyclohexanone, 2-methylene-5-(1-methylethyl)-
##JCAMP-DX=4.24
##DATA TYPE=MASS SPECTRUM
##OWNER=NIST Mass Spectrometry Data Center
Collection (C) 2014 copyright by the U.S. Secretary of Commerce
on behalf of the United States of America. All rights reserved.
##CAS REGISTRY NO=15297-07-1
##$NIST MASS SPEC NO=4820
##MOLFORM=C10 H16 O
##MW=152
##$NIST SOURCE=MSDC
##XUNITS=M/Z
##YUNITS=RELATIVE INTENSITY
##XFACTOR=1
##YFACTOR=1
##FIRSTX=62
##LASTX=153
##FIRSTY=86
##MAXX=153
##MINX=62
##MAXY=9999
##MINY=29
##NPOINTS=35
##PEAK TABLE=(XY..XY)
62,86 63,229 65,429 66,286
67,571 68,229 69,1714 70,143
77,571 78,229 79,1143 80,429
81,4428 82,9999 83,857 91,286
92,86 93,143 94,57 95,1571
96,286 97,429 107,143 108,343
109,1857 110,1000 111,57 121,143
122,29 123,57 136,29 137,229
138,29 152,2800 153,286
##END=
