##TITLE=Oxypertine
##JCAMP-DX=4.24
##DATA TYPE=MASS SPECTRUM
##ORIGIN=Finnigan MAT: Toxicological Library (LIBR-TX)
##OWNER=NIST Mass Spectrometry Data Center
Collection (C) 2014 copyright by the U.S. Secretary of Commerce
on behalf of the United States of America. All rights reserved.
##CAS REGISTRY NO=153-87-7
##$NIST MASS SPEC NO=120881
##MOLFORM=C23 H29 N3 O2
##MW=379
##$NIST SOURCE=MSDC
##XUNITS=M/Z
##YUNITS=RELATIVE INTENSITY
##XFACTOR=1
##YFACTOR=1
##FIRSTX=41
##LASTX=380
##FIRSTY=94
##MAXX=380
##MINX=41
##MAXY=9999
##MINY=85
##NPOINTS=31
##PEAK TABLE=(XY..XY)
41,94 42,282 56,523 70,2162
71,85 77,428 91,184 104,393
105,186 106,213 120,188 121,213
132,1208 133,107 144,98 146,97
159,105 160,387 161,104 173,388
174,211 175,9999 176,1438 188,195
203,96 204,610 205,95 217,388
218,207 379,614 380,206
##END=
