##TITLE=2-Fluorenamine
##JCAMP-DX=4.24
##DATA TYPE=MASS SPECTRUM
##ORIGIN=NIST Mass Spectrometry Data Center, 1998.
##OWNER=NIST Mass Spectrometry Data Center
Collection (C) 2014 copyright by the U.S. Secretary of Commerce
on behalf of the United States of America. All rights reserved.
##CAS REGISTRY NO=153-78-6
##$NIST MASS SPEC NO=291097
##MOLFORM=C13 H11 N
##MW=181
##$NIST SOURCE=MSDC
##XUNITS=M/Z
##YUNITS=RELATIVE INTENSITY
##XFACTOR=1
##YFACTOR=1
##FIRSTX=26
##LASTX=183
##FIRSTY=10
##MAXX=183
##MINX=26
##MAXY=9999
##MINY=10
##NPOINTS=94
##PEAK TABLE=(XY..XY)
26,10 27,40 29,10 37,10
38,50 39,140 40,10 41,40
42,10 49,10 50,170 51,250
52,130 53,30 54,30 55,10
60,30 61,50 62,190 63,500
64,100 65,70 66,20 67,10
69,20 73,20 74,220 75,390
76,970 77,530 78,60 81,50
85,30 86,130 87,180 88,90
89,20 90,1690 97,10 98,110
99,90 100,70 101,120 102,120
103,40 104,20 109,10 110,50
111,50 112,20 113,110 114,50
115,130 116,20 117,10 122,30
123,20 124,20 125,90 126,380
127,460 128,190 129,30 130,20
134,10 135,10 137,50 138,40
139,190 140,100 141,30 149,40
150,440 151,1080 152,3140 153,1300
154,240 155,20 161,20 162,90
163,740 164,540 165,990 166,140
167,10 175,10 176,30 177,130
178,240 179,10 180,8669 181,9999
182,1380 183,90
##END=
