##TITLE=9,9'-Bi-9H-fluorene
##JCAMP-DX=4.24
##DATA TYPE=MASS SPECTRUM
##ORIGIN=Japan AIST/NIMC Database- Spectrum MS-IW- 38
##OWNER=NIST Mass Spectrometry Data Center
Collection (C) 2014 copyright by the U.S. Secretary of Commerce
on behalf of the United States of America. All rights reserved.
##CAS REGISTRY NO=1530-12-7
##$NIST MASS SPEC NO=239326
##MOLFORM=C26 H18
##MW=330
##$NIST SOURCE=MSDC
##XUNITS=M/Z
##YUNITS=RELATIVE INTENSITY
##XFACTOR=1
##YFACTOR=1
##FIRSTX=39
##LASTX=332
##FIRSTY=10
##MAXX=332
##MINX=39
##MAXY=9999
##MINY=10
##NPOINTS=40
##PEAK TABLE=(XY..XY)
39,10 63,30 69,10 82,20
83,10 87,10 89,20 113,20
115,99 116,10 126,10 137,20
138,20 139,139 140,10 143,10
149,20 150,30 155,10 156,20
161,20 162,90 163,319 164,369
165,9999 166,1559 167,109 298,10
300,10 313,10 322,10 324,40
325,20 326,60 327,40 328,30
329,30 330,1569 331,449 332,60
##END=
