##TITLE=Diclofenac
##JCAMP-DX=4.24
##DATA TYPE=MASS SPECTRUM
##ORIGIN=Drug Lab
##OWNER=NIST Mass Spectrometry Data Center
Collection (C) 2014 copyright by the U.S. Secretary of Commerce
on behalf of the United States of America. All rights reserved.
##CAS REGISTRY NO=15307-86-5
##$NIST MASS SPEC NO=379262
##MOLFORM=C14 H11 Cl2 N O2
##MW=295
##$NIST SOURCE=MSDC
##XUNITS=M/Z
##YUNITS=RELATIVE INTENSITY
##XFACTOR=1
##YFACTOR=1
##FIRSTX=42
##LASTX=301
##FIRSTY=10
##MAXX=301
##MINX=42
##MAXY=9999
##MINY=10
##NPOINTS=169
##PEAK TABLE=(XY..XY)
42,10 43,40 44,30 45,160
49,10 50,110 51,270 52,130
53,60 54,10 55,40 56,10
57,20 60,30 61,30 62,100
63,280 64,70 65,80 66,10
67,20 68,10 69,20 70,10
71,10 72,10 73,80 74,140
75,280 76,330 77,400 78,210
79,60 80,10 81,20 82,20
83,30 84,40 85,30 86,30
87,50 89,450 91,70 92,10
93,60 94,30 95,20 96,10
97,40 98,40 99,60 100,50
101,60 102,40 103,30 104,40
105,10 107,380 108,140 109,130
110,40 111,90 112,20 113,40
114,20 115,20 116,10 117,10
119,10 121,10 123,20 125,140
126,100 127,80 128,50 129,20
130,10 132,10 133,30 135,20
136,40 137,30 138,40 139,50
140,60 141,10 145,60 146,10
147,50 148,10 149,40 150,170
151,621 152,410 153,100 154,30
159,10 160,10 161,20 162,20
163,20 164,80 165,40 166,80
167,30 168,10 171,20 172,20
173,20 174,20 175,20 176,120
177,601 178,781 179,1211 180,561
181,120 182,10 185,10 186,30
187,20 188,30 196,10 199,10
200,30 201,60 202,20 203,30
206,10 207,30 208,10 209,10
214,9999 215,2192 216,3393 217,711
218,110 219,10 230,10 235,20
242,4164 243,661 244,1391 245,210
246,10 248,100 250,130 251,30
252,50 253,10 254,10 256,60
257,10 258,20 259,10 260,10
261,10 277,320 278,50 279,220
280,30 281,30 295,4044 296,671
297,2692 298,410 299,430 300,70
301,30
##END=
