##TITLE=Diclofenac, methyl ester
##JCAMP-DX=4.24
##DATA TYPE=MASS SPECTRUM
##ORIGIN=Finnigan MAT: Toxicological Library (LIBR-TX)
##OWNER=NIST Mass Spectrometry Data Center
Collection (C) 2014 copyright by the U.S. Secretary of Commerce
on behalf of the United States of America. All rights reserved.
##CAS REGISTRY NO=15307-78-5
##$NIST MASS SPEC NO=120343
##MOLFORM=C15 H13 Cl2 N O2
##MW=309
##$NIST SOURCE=MSDC
##XUNITS=M/Z
##YUNITS=RELATIVE INTENSITY
##XFACTOR=1
##YFACTOR=1
##FIRSTX=51
##LASTX=311
##FIRSTY=165
##MAXX=311
##MINX=51
##MAXY=9999
##MINY=38
##NPOINTS=43
##PEAK TABLE=(XY..XY)
51,165 52,124 63,75 65,99
75,63 77,650 78,405 89,378
90,176 91,61 107,314 108,98
109,59 125,116 126,126 127,66
139,40 151,1098 152,478 153,104
164,80 166,71 167,38 177,761
178,1124 179,1391 180,533 207,45
214,9999 215,2391 216,3072 217,660
242,3838 243,607 244,1191 250,316
252,150 277,565 278,208 279,343
309,2332 310,382 311,1473
##END=
