##TITLE=Benzene, 1,1'-(1-heptenylidene)bis-
##JCAMP-DX=4.24
##DATA TYPE=MASS SPECTRUM
##OWNER=NIST Mass Spectrometry Data Center
Collection (C) 2014 copyright by the U.S. Secretary of Commerce
on behalf of the United States of America. All rights reserved.
##CAS REGISTRY NO=1530-20-7
##$NIST MASS SPEC NO=22940
##MOLFORM=C19 H22
##MW=250
##$NIST SOURCE=MSDC
##XUNITS=M/Z
##YUNITS=RELATIVE INTENSITY
##XFACTOR=1
##YFACTOR=1
##FIRSTX=12
##LASTX=253
##FIRSTY=20
##MAXX=253
##MINX=12
##MAXY=9999
##MINY=10
##NPOINTS=234
##PEAK TABLE=(XY..XY)
12,20 13,20 14,50 15,210
16,40 17,30 18,100 19,10
20,10 23,10 24,10 25,30
26,190 27,1471 28,330 29,1571
30,50 31,10 32,10 36,10
37,30 38,70 39,851 40,90
41,891 42,150 43,110 44,90
45,10 49,10 50,170 51,651
52,150 53,100 54,20 55,240
56,80 57,170 58,10 59,10
60,10 61,20 62,140 63,550
64,100 65,520 66,40 67,30
68,10 69,30 70,40 71,20
72,10 73,10 74,140 75,220
76,260 77,741 78,230 79,60
80,10 81,40 82,60 83,80
84,10 85,10 86,60 87,130
88,130 89,430 90,60 91,4014
92,320 93,20 94,30 95,70
96,40 97,10 98,30 99,50
100,40 101,140 102,350 103,360
104,120 105,220 106,20 107,10
108,10 109,10 110,10 111,20
112,10 113,100 114,110 115,5975
116,741 117,360 118,70 119,10
120,10 121,10 122,10 123,10
124,10 125,20 126,130 127,310
128,651 129,601 130,200 131,70
132,20 133,10 134,10 135,10
136,10 137,30 138,30 139,260
140,40 141,150 142,40 143,80
144,20 145,20 146,20 147,10
148,10 149,10 150,70 151,170
152,530 153,140 154,40 155,10
156,10 157,10 158,10 159,30
160,10 161,10 162,20 163,190
164,160 165,2182 166,420 167,1401
168,260 169,30 170,10 171,10
172,10 173,10 174,10 175,40
176,240 177,220 178,2482 179,1331
180,3473 181,550 182,70 183,10
184,10 185,10 186,10 187,40
188,50 189,540 190,250 191,1001
192,801 193,9999 194,1792 195,150
196,20 197,10 198,10 199,10
200,30 201,30 202,170 203,150
204,100 205,230 206,140 207,120
208,40 209,10 210,10 211,10
212,10 213,10 214,10 215,30
216,10 217,20 218,10 219,20
220,10 221,20 222,10 223,10
224,10 225,10 226,10 227,10
228,10 229,10 230,10 231,10
232,10 233,10 234,10 235,10
236,10 237,10 238,10 239,10
240,10 241,10 242,10 243,10
244,10 245,10 246,10 247,10
248,40 249,130 250,4034 251,841
252,90 253,10
##END=
