##TITLE=Quinoline, 2-butyl-3-methyl-
##JCAMP-DX=4.24
##DATA TYPE=MASS SPECTRUM
##ORIGIN=CARL DJERASSI DEPT OF CHEM STANFORD UNIV STANFORD CALIF 94305
##OWNER=NIST Mass Spectrometry Data Center
Collection (C) 2014 copyright by the U.S. Secretary of Commerce
on behalf of the United States of America. All rights reserved.
##CAS REGISTRY NO=1531-62-0
##$NIST MASS SPEC NO=47335
##MOLFORM=C14 H17 N
##MW=199
##$NIST SOURCE=MSDC
##XUNITS=M/Z
##YUNITS=RELATIVE INTENSITY
##XFACTOR=1
##YFACTOR=1
##FIRSTX=41
##LASTX=185
##FIRSTY=202
##MAXX=185
##MINX=41
##MAXY=9999
##MINY=101
##NPOINTS=40
##PEAK TABLE=(XY..XY)
41,202 42,101 43,101 50,202
51,303 52,101 53,101 63,404
65,202 75,101 76,101 77,202
88,101 89,404 90,101 91,101
113,101 114,101 115,1212 116,606
117,101 127,101 128,303 129,202
130,202 140,303 141,101 142,707
143,404 144,101 154,202 156,808
157,9999 158,1717 167,303 168,404
170,1414 171,303 184,808 185,101
##END=
