##TITLE=Morphinan, 3-methoxy-
##JCAMP-DX=4.24
##DATA TYPE=MASS SPECTRUM
##ORIGIN=C. SOHR & D. HAASE, THEDA CLARK REG. MED. CENTER, NEENAH,WI,USA
##OWNER=NIST Mass Spectrometry Data Center
Collection (C) 2014 copyright by the U.S. Secretary of Commerce
on behalf of the United States of America. All rights reserved.
##CAS REGISTRY NO=1531-25-5
##$NIST MASS SPEC NO=70217
##MOLFORM=C17 H23 N O
##MW=257
##$NIST SOURCE=MSDC
##XUNITS=M/Z
##YUNITS=RELATIVE INTENSITY
##XFACTOR=1
##YFACTOR=1
##FIRSTX=41
##LASTX=259
##FIRSTY=7499
##MAXX=259
##MINX=41
##MAXY=9999
##MINY=179
##NPOINTS=136
##PEAK TABLE=(XY..XY)
41,7499 42,1875 43,2500 44,6964
45,7440 46,677 47,357 50,714
51,2053 52,982 53,1964 54,1339
55,2143 56,2678 57,446 58,625
62,268 63,1339 64,625 65,2053
66,536 67,1875 68,2500 69,893
70,357 71,446 73,268 74,268
75,625 76,803 77,3303 78,1607
79,1786 80,1428 81,1250 82,625
83,179 84,357 85,536 89,1339
91,3660 92,803 93,1071 94,982
95,714 96,357 99,357 101,357
102,1428 103,1607 104,893 105,1428
106,1161 107,982 108,1339 109,1161
110,446 113,446 114,714 115,6964
116,2053 117,2053 118,803 119,803
120,714 121,3660 122,1071 126,625
127,2768 128,6696 129,3750 130,1786
131,1339 132,1161 133,714 134,1161
135,1071 136,9999 137,1161 139,1071
140,446 141,3035 142,1607 143,1518
144,1964 145,1696 146,1339 147,1875
148,3125 149,625 152,1428 153,1696
154,1161 155,1339 156,1161 157,1339
158,1964 159,2321 160,3035 161,2143
162,893 165,1071 166,446 167,714
168,625 169,893 170,893 171,5803
172,3214 173,1250 174,1071 181,714
182,446 183,714 184,1875 185,1428
186,1071 187,357 188,446 189,714
197,893 198,893 199,536 200,536
211,446 212,5982 213,3750 214,3303
215,714 228,1339 229,357 242,357
256,1250 257,6071 258,1071 259,268
##END=
