##TITLE=Ethanone, 1-(2,3-dihydro-1,1,2,3,3,6-hexamethyl-1H-inden-5-yl)-
##JCAMP-DX=4.24
##DATA TYPE=MASS SPECTRUM
##ORIGIN=R.Draisci ET AL J.Chrom.,814,187(1998)
##OWNER=NIST Mass Spectrometry Data Center
Collection (C) 2014 copyright by the U.S. Secretary of Commerce
on behalf of the United States of America. All rights reserved.
##CAS REGISTRY NO=15323-35-0
##$NIST MASS SPEC NO=298558
##MOLFORM=C17 H24 O
##MW=244
##$NIST SOURCE=MSDC
##XUNITS=M/Z
##YUNITS=RELATIVE INTENSITY
##XFACTOR=1
##YFACTOR=1
##FIRSTX=41
##LASTX=245
##FIRSTY=50
##MAXX=245
##MINX=41
##MAXY=9999
##MINY=20
##NPOINTS=48
##PEAK TABLE=(XY..XY)
41,50 43,3383 44,50 51,80
53,40 57,150 63,60 64,230
69,30 75,90 77,250 78,110
91,390 104,60 105,170 115,450
116,110 127,100 128,490 129,210
130,90 131,150 139,50 141,711
142,300 145,581 151,80 152,160
153,90 154,230 155,380 156,380
157,210 159,150 164,20 169,100
170,220 171,611 173,90 185,480
186,290 187,761 199,90 213,130
229,9999 230,1341 244,2382 245,400
##END=
