##TITLE=m-Trifluoromethylpropiophenone
##JCAMP-DX=4.24
##DATA TYPE=MASS SPECTRUM
##ORIGIN=NIST Mass Spectrometry Data Center
##OWNER=NIST Mass Spectrometry Data Center
Collection (C) 2014 copyright by the U.S. Secretary of Commerce
on behalf of the United States of America. All rights reserved.
##CAS REGISTRY NO=1533-03-5
##$NIST MASS SPEC NO=343331
##MOLFORM=C10 H9 F3 O
##MW=202
##$NIST SOURCE=MSDC
##XUNITS=M/Z
##YUNITS=RELATIVE INTENSITY
##XFACTOR=1
##YFACTOR=1
##FIRSTX=14
##LASTX=203
##FIRSTY=30
##MAXX=203
##MINX=14
##MAXY=9999
##MINY=10
##NPOINTS=92
##PEAK TABLE=(XY..XY)
14,30 15,100 26,180 27,861
28,200 29,671 30,10 31,40
37,30 38,70 39,130 41,10
42,60 43,20 44,10 50,611
51,300 52,10 53,50 55,140
56,60 57,340 58,10 61,30
62,110 63,150 64,10 68,30
69,260 70,10 73,30 74,300
75,911 76,250 77,130 78,10
79,10 80,20 81,80 82,10
83,20 85,10 86,20 87,40
88,30 89,30 91,10 92,10
93,30 95,961 96,90 99,170
100,70 101,30 102,10 103,20
104,10 105,30 106,10 107,90
108,10 109,50 113,10 114,10
115,20 118,20 119,130 120,10
123,20 125,651 126,370 127,120
133,330 134,30 138,10 143,70
145,5145 146,400 147,10 151,30
153,10 154,10 159,30 169,10
170,10 173,9999 174,841 175,50
183,520 184,50 202,530 203,50
##END=
