##TITLE=3-Tridecanone
##JCAMP-DX=4.24
##DATA TYPE=MASS SPECTRUM
##ORIGIN=NIST Mass Spectrometry Data Center, 1994
##OWNER=NIST Mass Spectrometry Data Center
Collection (C) 2014 copyright by the U.S. Secretary of Commerce
on behalf of the United States of America. All rights reserved.
##CAS REGISTRY NO=1534-26-5
##$NIST MASS SPEC NO=133250
##MOLFORM=C13 H26 O
##MW=198
##$NIST SOURCE=MSDC
##XUNITS=M/Z
##YUNITS=RELATIVE INTENSITY
##XFACTOR=1
##YFACTOR=1
##FIRSTX=15
##LASTX=200
##FIRSTY=107
##MAXX=200
##MINX=15
##MAXY=9999
##MINY=6
##NPOINTS=87
##PEAK TABLE=(XY..XY)
15,107 17,7 18,12 27,2421
28,686 29,6404 30,143 31,101
39,1116 41,4510 42,1506 43,6729
44,211 45,52 48,7 50,17
51,51 52,69 53,370 54,7
55,2497 56,7 57,9999 58,396
59,74 63,9 65,67 67,534
68,235 69,778 70,414 71,2459
72,9078 73,2762 74,120 77,43
78,17 79,77 80,9 81,649
82,297 83,577 84,17 85,3393
86,301 87,42 91,15 93,28
95,1529 96,323 97,233 98,202
99,551 100,111 101,27 107,15
109,532 110,178 111,53 113,137
114,254 115,20 124,338 125,49
126,119 127,157 128,110 129,8
137,19 138,19 139,8 141,149
142,43 151,130 152,17 155,93
156,46 169,4612 170,541 171,36
179,14 180,37 181,7 183,6
198,257 199,52 200,8
##END=
