##TITLE=Methyl thiolacetate
##JCAMP-DX=4.24
##DATA TYPE=MASS SPECTRUM
##OWNER=NIST Mass Spectrometry Data Center
Collection (C) 2014 copyright by the U.S. Secretary of Commerce
on behalf of the United States of America. All rights reserved.
##CAS REGISTRY NO=1534-08-3
##$NIST MASS SPEC NO=29192
##MOLFORM=C3 H6 O S
##MW=90
##$NIST SOURCE=MSDC
##XUNITS=M/Z
##YUNITS=RELATIVE INTENSITY
##XFACTOR=1
##YFACTOR=1
##FIRSTX=29
##LASTX=92
##FIRSTY=90
##MAXX=92
##MINX=29
##MAXY=9999
##MINY=20
##NPOINTS=19
##PEAK TABLE=(XY..XY)
29,90 41,60 42,550 43,9999
44,250 45,880 46,320 47,880
48,360 49,50 57,20 58,50
59,50 60,30 61,30 75,150
90,2100 91,50 92,100
##END=
