##TITLE=3-Phenanthrenol, 4b,5,6,7,8,8a,9,10-octahydro-4b,8,8-trimethyl-2-(1-methylethyl)-, acetate, (4bs-trans)-
##JCAMP-DX=4.24
##DATA TYPE=MASS SPECTRUM
##OWNER=NIST Mass Spectrometry Data Center
Collection (C) 2014 copyright by the U.S. Secretary of Commerce
on behalf of the United States of America. All rights reserved.
##CAS REGISTRY NO=15340-79-1
##$NIST MASS SPEC NO=15315
##MOLFORM=C22 H32 O2
##MW=328
##$NIST SOURCE=MSDC
##XUNITS=M/Z
##YUNITS=RELATIVE INTENSITY
##XFACTOR=1
##YFACTOR=1
##FIRSTX=18
##LASTX=329
##FIRSTY=20
##MAXX=329
##MINX=18
##MAXY=9999
##MINY=20
##NPOINTS=98
##PEAK TABLE=(XY..XY)
18,20 28,20 29,20 39,20
41,440 43,1011 53,20 55,300
56,20 57,20 67,20 69,811
77,40 79,40 81,40 83,100
91,200 105,100 107,40 115,240
116,20 117,40 119,20 127,40
128,200 129,160 131,100 133,100
141,200 142,100 143,100 144,100
145,200 147,440 149,240 152,40
153,100 154,20 155,100 157,160
158,40 159,360 160,20 161,160
162,40 163,200 165,40 167,20
169,40 170,20 171,160 172,20
173,300 174,20 175,1011 176,100
183,20 185,200 186,40 187,510
188,100 189,1051 190,160 199,160
200,40 201,811 202,240 203,200
213,100 215,300 216,20 217,40
227,40 229,440 230,20 231,200
243,240 244,20 255,40 256,40
257,140 258,100 259,40 269,40
270,40 271,4854 272,1011 273,40
284,100 285,200 286,9999 287,2062
288,200 313,360 314,20 326,20
328,1722 329,400
##END=
