##TITLE=6-Nitropiperonyl alcohol
##JCAMP-DX=4.24
##DATA TYPE=MASS SPECTRUM
##ORIGIN=NIST Mass Spectrometry Data Center
##OWNER=NIST Mass Spectrometry Data Center
Collection (C) 2014 copyright by the U.S. Secretary of Commerce
on behalf of the United States of America. All rights reserved.
##CAS REGISTRY NO=15341-08-9
##$NIST MASS SPEC NO=342936
##MOLFORM=C8 H7 N O5
##MW=197
##$NIST SOURCE=MSDC
##XUNITS=M/Z
##YUNITS=RELATIVE INTENSITY
##XFACTOR=1
##YFACTOR=1
##FIRSTX=13
##LASTX=198
##FIRSTY=70
##MAXX=198
##MINX=13
##MAXY=9999
##MINY=20
##NPOINTS=94
##PEAK TABLE=(XY..XY)
13,70 14,390 15,160 16,20
17,270 18,150 19,150 26,430
27,891 28,60 29,4614 30,4374
31,2152 37,941 38,1802 39,7046
40,821 41,771 42,991 43,340
44,200 45,220 46,450 47,260
49,571 50,3553 51,3163 52,4144
53,9999 54,1101 55,2652 56,160
57,150 61,1942 62,5345 63,7106
64,3033 65,8177 66,2492 67,1151
68,1631 69,3163 70,290 71,130
73,250 74,1101 75,981 76,1341
77,2722 78,2222 79,4754 80,2432
81,1571 82,240 83,120 89,130
91,1441 92,761 93,2072 94,1201
95,350 96,100 98,100 99,290
105,2442 106,1722 107,941 108,380
109,901 110,110 119,1702 120,1421
121,4634 122,4834 123,3793 124,661
133,260 134,1471 135,4554 136,1361
137,320 149,6966 150,1061 151,871
152,2192 153,240 163,280 164,210
165,671 166,210 178,220 180,160
197,4044 198,370
##END=
