##TITLE=Benzene, 1-(1,1-dimethylethoxy)-2-methyl-
##JCAMP-DX=4.24
##DATA TYPE=MASS SPECTRUM
##OWNER=NIST Mass Spectrometry Data Center
Collection (C) 2014 copyright by the U.S. Secretary of Commerce
on behalf of the United States of America. All rights reserved.
##CAS REGISTRY NO=15359-96-3
##$NIST MASS SPEC NO=6047
##MOLFORM=C11 H16 O
##MW=164
##$NIST SOURCE=MSDC
##XUNITS=M/Z
##YUNITS=RELATIVE INTENSITY
##XFACTOR=1
##YFACTOR=1
##FIRSTX=41
##LASTX=164
##FIRSTY=1001
##MAXX=164
##MINX=41
##MAXY=9999
##MINY=250
##NPOINTS=20
##PEAK TABLE=(XY..XY)
41,1001 42,250 50,500 51,500
52,500 53,500 57,1251 65,631
77,1251 78,631 79,1131 80,751
89,631 90,1251 91,1251 107,2502
108,9999 109,1381 149,1001 164,500
##END=
