##TITLE=2(4H)-Benzofuranone, 5,6,7,7a-tetrahydro-4,4,7a-trimethyl-
##JCAMP-DX=4.24
##DATA TYPE=MASS SPECTRUM
##OWNER=NIST Mass Spectrometry Data Center
Collection (C) 2014 copyright by the U.S. Secretary of Commerce
on behalf of the United States of America. All rights reserved.
##CAS REGISTRY NO=15356-74-8
##$NIST MASS SPEC NO=7400
##MOLFORM=C11 H16 O2
##MW=180
##$NIST SOURCE=MSDC
##XUNITS=M/Z
##YUNITS=RELATIVE INTENSITY
##XFACTOR=1
##YFACTOR=1
##FIRSTX=26
##LASTX=181
##FIRSTY=1601
##MAXX=181
##MINX=26
##MAXY=9999
##MINY=100
##NPOINTS=41
##PEAK TABLE=(XY..XY)
26,1601 27,1902 29,1101 39,2002
40,801 41,3503 42,500 43,7307
44,400 50,1001 51,1001 53,1001
55,1802 56,100 57,601 65,801
67,3003 69,1902 70,100 77,1001
79,1101 81,1101 83,801 91,801
93,801 95,1401 96,500 109,4304
110,2102 111,9999 112,901 123,400
124,1101 125,100 137,3904 138,400
152,1001 153,100 165,500 180,1902
181,200
##END=
