##TITLE=Metamfepramone
##JCAMP-DX=4.24
##DATA TYPE=MASS SPECTRUM
##ORIGIN=Drug Lab
##OWNER=NIST Mass Spectrometry Data Center
Collection (C) 2014 copyright by the U.S. Secretary of Commerce
on behalf of the United States of America. All rights reserved.
##CAS REGISTRY NO=15351-09-4
##$NIST MASS SPEC NO=378835
##MOLFORM=C11 H15 N O
##MW=177
##$NIST SOURCE=MSDC
##XUNITS=M/Z
##YUNITS=RELATIVE INTENSITY
##XFACTOR=1
##YFACTOR=1
##FIRSTX=40
##LASTX=177
##FIRSTY=20
##MAXX=177
##MINX=40
##MAXY=9999
##MINY=10
##NPOINTS=47
##PEAK TABLE=(XY..XY)
40,20 41,60 42,591 43,70
44,520 45,20 50,150 51,480
52,40 53,10 54,50 55,120
56,530 57,230 58,20 62,10
63,30 65,20 70,380 72,9999
73,460 74,50 75,30 76,60
77,761 78,70 79,20 89,20
91,60 102,10 103,30 105,280
106,20 115,20 116,10 117,10
118,10 131,20 132,20 133,40
134,30 146,30 147,10 148,10
160,30 162,20 177,10
##END=
