##TITLE=Cyclohexanol, 5-methyl-2-(1-methylethyl)-, (1.alpha.,2.beta.,5.alpha.)-(.+/-.)-
##JCAMP-DX=4.24
##DATA TYPE=MASS SPECTRUM
##ORIGIN=RADIAN CORP
##OWNER=NIST Mass Spectrometry Data Center
Collection (C) 2014 copyright by the U.S. Secretary of Commerce
on behalf of the United States of America. All rights reserved.
##CAS REGISTRY NO=15356-70-4
##$NIST MASS SPEC NO=72991
##MOLFORM=C10 H20 O
##MW=156
##$NIST SOURCE=MSDC
##XUNITS=M/Z
##YUNITS=RELATIVE INTENSITY
##XFACTOR=1
##YFACTOR=1
##FIRSTX=14
##LASTX=139
##FIRSTY=20
##MAXX=139
##MINX=14
##MAXY=9999
##MINY=20
##NPOINTS=58
##PEAK TABLE=(XY..XY)
14,20 27,880 28,340 29,1020
31,250 32,100 39,1260 40,260
41,3580 42,550 43,2690 44,410
45,190 51,150 52,20 53,890
54,410 55,3880 56,1470 57,2650
58,230 59,110 65,280 66,90
67,4050 68,1260 69,3250 70,1290
71,9999 72,530 73,100 77,390
78,20 79,750 80,1200 81,8940
82,3830 83,1390 84,340 85,1020
86,340 91,220 93,610 94,730
95,7980 96,2780 97,570 99,380
109,1370 110,730 111,170 112,90
113,70 123,3560 124,340 137,20
138,1330 139,170
##END=
