##TITLE=Benzene, 1-(1,1-dimethylethoxy)-4-methyl-
##JCAMP-DX=4.24
##DATA TYPE=MASS SPECTRUM
##OWNER=NIST Mass Spectrometry Data Center
Collection (C) 2014 copyright by the U.S. Secretary of Commerce
on behalf of the United States of America. All rights reserved.
##CAS REGISTRY NO=15359-98-5
##$NIST MASS SPEC NO=6049
##MOLFORM=C11 H16 O
##MW=164
##$NIST SOURCE=MSDC
##XUNITS=M/Z
##YUNITS=RELATIVE INTENSITY
##XFACTOR=1
##YFACTOR=1
##FIRSTX=41
##LASTX=164
##FIRSTY=631
##MAXX=164
##MINX=41
##MAXY=9999
##MINY=500
##NPOINTS=18
##PEAK TABLE=(XY..XY)
41,631 51,631 53,631 57,631
65,631 77,1251 78,500 79,751
80,500 91,751 94,631 105,631
107,2502 108,9999 109,1251 121,751
149,1001 164,751
##END=
