##TITLE=Nicofuranose
##JCAMP-DX=4.24
##DATA TYPE=MASS SPECTRUM
##ORIGIN=Finnigan MAT: Toxicological Library (LIBR-TX)
##OWNER=NIST Mass Spectrometry Data Center
Collection (C) 2014 copyright by the U.S. Secretary of Commerce
on behalf of the United States of America. All rights reserved.
##CAS REGISTRY NO=15351-13-0
##$NIST MASS SPEC NO=120846
##MOLFORM=C30 H24 N4 O10
##MW=600
##$NIST SOURCE=MSDC
##XUNITS=M/Z
##YUNITS=RELATIVE INTENSITY
##XFACTOR=1
##YFACTOR=1
##FIRSTX=45
##LASTX=124
##FIRSTY=485
##MAXX=124
##MINX=45
##MAXY=9999
##MINY=197
##NPOINTS=17
##PEAK TABLE=(XY..XY)
45,485 49,395 50,2606 51,4736
52,1309 53,412 68,218 75,197
76,287 77,2264 78,6844 79,506
105,4669 106,6996 107,496 123,9999
124,586
##END=
