##TITLE=Benzene, 1,2,3,4-tetramethoxy-5-(2-propenyl)-
##JCAMP-DX=4.24
##DATA TYPE=MASS SPECTRUM
##ORIGIN=N.W. DAVIES, UNIVERSITY OF TASMANIA, TASMANIA, AUSTRALIA
##OWNER=NIST Mass Spectrometry Data Center
Collection (C) 2014 copyright by the U.S. Secretary of Commerce
on behalf of the United States of America. All rights reserved.
##CAS REGISTRY NO=15361-99-6
##$NIST MASS SPEC NO=70248
##MOLFORM=C13 H18 O4
##MW=238
##$NIST SOURCE=MSDC
##XUNITS=M/Z
##YUNITS=RELATIVE INTENSITY
##XFACTOR=1
##YFACTOR=1
##FIRSTX=26
##LASTX=240
##FIRSTY=190
##MAXX=240
##MINX=26
##MAXY=9999
##MINY=10
##NPOINTS=102
##PEAK TABLE=(XY..XY)
26,190 27,530 28,1110 29,310
31,130 32,10 37,110 38,170
39,1030 40,240 41,510 42,220
43,2550 44,500 45,190 50,260
51,470 52,310 53,450 55,230
57,270 58,750 59,170 62,110
63,330 64,190 65,870 66,850
67,330 68,110 69,190 75,250
76,110 77,870 78,530 79,430
81,150 82,110 83,110 89,190
90,180 91,720 92,240 93,340
94,510 95,190 103,410 104,210
105,720 106,310 107,260 109,820
110,110 115,150 117,110 118,390
119,370 120,210 121,450 122,150
123,110 125,110 131,310 132,160
133,460 134,150 135,250 136,150
137,560 139,110 147,270 148,670
149,700 150,170 151,210 153,130
154,130 161,290 162,170 163,1100
164,600 165,660 166,150 176,470
177,930 178,210 179,140 180,410
181,190 191,1130 192,1920 193,600
194,110 195,470 196,110 207,510
209,250 223,3080 224,410 238,9999
239,1460 240,210
##END=
