##TITLE=Methanone, (pentafluorophenyl)phenyl-
##JCAMP-DX=4.24
##DATA TYPE=MASS SPECTRUM
##ORIGIN=Japan AIST/NIMC Database- Spectrum MS-IW-2367
##OWNER=NIST Mass Spectrometry Data Center
Collection (C) 2014 copyright by the U.S. Secretary of Commerce
on behalf of the United States of America. All rights reserved.
##CAS REGISTRY NO=1536-23-8
##$NIST MASS SPEC NO=238902
##MOLFORM=C13 H5 F5 O
##MW=272
##$NIST SOURCE=MSDC
##XUNITS=M/Z
##YUNITS=RELATIVE INTENSITY
##XFACTOR=1
##YFACTOR=1
##FIRSTX=27
##LASTX=274
##FIRSTY=70
##MAXX=274
##MINX=27
##MAXY=9999
##MINY=10
##NPOINTS=100
##PEAK TABLE=(XY..XY)
27,70 28,50 31,50 37,10
38,30 39,60 49,20 50,479
51,1609 52,70 53,30 61,20
62,20 63,20 69,10 73,30
74,219 75,149 76,209 77,5469
78,369 79,60 80,20 81,10
85,20 86,30 87,10 92,10
93,169 96,10 97,10 98,109
99,50 102,10 103,20 104,50
105,9999 106,819 107,50 109,20
110,20 111,10 112,50 116,10
117,579 118,30 121,10 122,279
123,40 124,10 126,10 128,10
129,20 135,10 136,20 141,10
142,10 143,10 147,30 148,70
149,10 155,10 161,10 167,899
168,70 173,10 174,10 175,20
179,10 185,20 186,10 187,10
192,20 193,50 194,10 195,1089
196,80 197,10 198,20 204,20
205,50 206,30 216,20 217,10
222,10 223,30 224,129 225,60
237,10 242,50 243,30 244,40
252,80 253,80 254,10 255,20
271,40 272,4809 273,679 274,50
##END=
