##TITLE=Benzene, 1-(1,1-dimethylethoxy)-4-methoxy-
##JCAMP-DX=4.24
##DATA TYPE=MASS SPECTRUM
##OWNER=NIST Mass Spectrometry Data Center
Collection (C) 2014 copyright by the U.S. Secretary of Commerce
on behalf of the United States of America. All rights reserved.
##CAS REGISTRY NO=15360-00-6
##$NIST MASS SPEC NO=7410
##MOLFORM=C11 H16 O2
##MW=180
##$NIST SOURCE=MSDC
##XUNITS=M/Z
##YUNITS=RELATIVE INTENSITY
##XFACTOR=1
##YFACTOR=1
##FIRSTX=41
##LASTX=180
##FIRSTY=1001
##MAXX=180
##MINX=41
##MAXY=9999
##MINY=250
##NPOINTS=18
##PEAK TABLE=(XY..XY)
41,1001 43,250 54,631 57,631
63,380 64,380 65,380 79,631
81,751 105,500 107,751 108,631
109,4754 110,500 124,9999 125,1251
165,1131 180,631
##END=
