##TITLE=2-Propanone, 1-(dimethylamino)-
##JCAMP-DX=4.24
##DATA TYPE=MASS SPECTRUM
##ORIGIN=Japan AIST/NIMC Database- Spectrum MS-IW-2387
##OWNER=NIST Mass Spectrometry Data Center
Collection (C) 2014 copyright by the U.S. Secretary of Commerce
on behalf of the United States of America. All rights reserved.
##CAS REGISTRY NO=15364-56-4
##$NIST MASS SPEC NO=238850
##MOLFORM=C5 H11 N O
##MW=101
##$NIST SOURCE=MSDC
##XUNITS=M/Z
##YUNITS=RELATIVE INTENSITY
##XFACTOR=1
##YFACTOR=1
##FIRSTX=14
##LASTX=102
##FIRSTY=30
##MAXX=102
##MINX=14
##MAXY=9999
##MINY=10
##NPOINTS=40
##PEAK TABLE=(XY..XY)
14,30 15,399 26,30 27,149
28,279 29,429 30,1679 31,40
37,10 38,20 39,80 40,90
41,249 42,2099 43,949 44,289
45,20 52,10 53,10 54,20
55,50 56,269 57,579 58,9999
59,539 60,10 68,10 70,179
71,10 72,40 73,20 83,30
84,109 85,10 86,20 98,99
99,20 100,80 101,379 102,20
##END=
