##TITLE=Naphthalene, 1,1'-(1,2-ethanediyl)bis-
##JCAMP-DX=4.24
##DATA TYPE=MASS SPECTRUM
##ORIGIN=Japan AIST/NIMC Database- Spectrum MS-IW-3984
##OWNER=NIST Mass Spectrometry Data Center
Collection (C) 2014 copyright by the U.S. Secretary of Commerce
on behalf of the United States of America. All rights reserved.
##CAS REGISTRY NO=15374-45-5
##$NIST MASS SPEC NO=244194
##MOLFORM=C22 H18
##MW=282
##$NIST SOURCE=MSDC
##XUNITS=M/Z
##YUNITS=RELATIVE INTENSITY
##XFACTOR=1
##YFACTOR=1
##FIRSTX=28
##LASTX=284
##FIRSTY=20
##MAXX=284
##MINX=28
##MAXY=9999
##MINY=10
##NPOINTS=62
##PEAK TABLE=(XY..XY)
28,20 39,20 44,10 51,10
57,10 63,30 65,20 71,10
75,10 76,10 77,20 78,20
89,40 91,40 101,10 102,10
113,30 114,10 115,889 116,90
119,10 125,20 126,50 127,20
128,30 129,10 131,20 132,30
133,10 137,20 138,60 139,249
140,80 141,9999 142,1239 143,70
150,10 151,20 152,90 153,99
154,30 155,10 158,10 165,10
239,10 250,10 252,20 253,10
263,30 264,10 265,80 266,40
267,10 276,50 277,40 278,30
279,40 280,30 281,70 282,2569
283,619 284,70
##END=
