##TITLE=Carbamic acid, phenyl-, butyl ester
##JCAMP-DX=4.24
##DATA TYPE=MASS SPECTRUM
##OWNER=NIST Mass Spectrometry Data Center
Collection (C) 2014 copyright by the U.S. Secretary of Commerce
on behalf of the United States of America. All rights reserved.
##CAS REGISTRY NO=1538-74-5
##$NIST MASS SPEC NO=32680
##MOLFORM=C11 H15 N O2
##MW=193
##$NIST SOURCE=MSDC
##XUNITS=M/Z
##YUNITS=RELATIVE INTENSITY
##XFACTOR=1
##YFACTOR=1
##FIRSTX=26
##LASTX=194
##FIRSTY=114
##MAXX=194
##MINX=26
##MAXY=9999
##MINY=38
##NPOINTS=46
##PEAK TABLE=(XY..XY)
26,114 27,722 28,228 29,3764
30,114 31,171 39,874 40,133
41,3004 42,228 43,266 44,247
45,133 50,133 51,532 52,152
53,133 54,38 55,532 56,323
57,3688 58,152 63,247 64,361
65,1483 66,608 67,114 73,57
76,95 77,1483 78,133 91,532
92,893 93,9999 94,817 119,950
120,3175 121,304 134,342 136,247
137,3403 138,532 150,114 151,95
193,6577 194,817
##END=
