##TITLE=2,2-Dimethylpropanoic anhydride
##JCAMP-DX=4.24
##DATA TYPE=MASS SPECTRUM
##ORIGIN=Japan AIST/NIMC Database- Spectrum MS-NW-5678
##OWNER=NIST Mass Spectrometry Data Center
Collection (C) 2014 copyright by the U.S. Secretary of Commerce
on behalf of the United States of America. All rights reserved.
##CAS REGISTRY NO=1538-75-6
##$NIST MASS SPEC NO=235645
##MOLFORM=C10 H18 O3
##MW=186
##$NIST SOURCE=MSDC
##XUNITS=M/Z
##YUNITS=RELATIVE INTENSITY
##XFACTOR=1
##YFACTOR=1
##FIRSTX=14
##LASTX=87
##FIRSTY=10
##MAXX=87
##MINX=14
##MAXY=9999
##MINY=10
##NPOINTS=35
##PEAK TABLE=(XY..XY)
14,10 15,80 16,10 18,10
26,30 27,309 28,169 29,1049
30,20 31,10 32,20 37,10
38,30 39,519 40,109 41,1709
42,249 43,179 44,30 45,30
50,20 51,20 53,30 54,10
55,129 56,259 57,9999 58,459
59,99 69,20 70,40 71,10
85,3639 86,219 87,90
##END=
