##TITLE=2,3-Dimethylphenylisothiocyanate
##JCAMP-DX=4.24
##DATA TYPE=MASS SPECTRUM
##ORIGIN=NIST Mass Spectrometry Data Center, 1994
##OWNER=NIST Mass Spectrometry Data Center
Collection (C) 2014 copyright by the U.S. Secretary of Commerce
on behalf of the United States of America. All rights reserved.
##CAS REGISTRY NO=1539-20-4
##$NIST MASS SPEC NO=134687
##MOLFORM=C9 H9 N S
##MW=163
##$NIST SOURCE=MSDC
##XUNITS=M/Z
##YUNITS=RELATIVE INTENSITY
##XFACTOR=1
##YFACTOR=1
##FIRSTX=4
##LASTX=166
##FIRSTY=3
##MAXX=166
##MINX=4
##MAXY=9999
##MINY=3
##NPOINTS=101
##PEAK TABLE=(XY..XY)
4,3 14,66 15,195 18,42
26,211 27,1357 28,375 29,60
32,305 34,38 37,217 38,550
39,2378 40,234 41,277 44,258
45,823 46,66 47,63 49,123
50,1230 51,2601 52,790 53,715
54,130 57,76 58,223 59,228
60,95 61,241 62,620 63,1727
64,660 65,905 66,163 67,261
69,209 70,342 71,85 72,142
73,123 74,447 75,530 76,660
77,3760 78,1516 79,1119 81,284
82,599 83,159 84,125 85,67
86,93 87,149 88,121 89,709
90,299 91,645 92,126 93,54
94,49 95,92 96,137 97,48
98,69 99,47 101,183 102,626
103,1951 104,775 105,1904 106,189
108,83 109,74 116,549 117,205
118,602 119,92 120,73 121,470
122,125 123,54 128,440 130,8779
131,1541 132,120 133,44 134,209
135,564 136,164 137,48 146,53
148,2217 149,234 150,109 160,61
162,2205 163,9999 164,1104 165,510
166,67
##END=
