##TITLE=Diphenyl terephthalate
##JCAMP-DX=4.24
##DATA TYPE=MASS SPECTRUM
##ORIGIN=NIST Mass Spectrometry Data Center, 1994
##OWNER=NIST Mass Spectrometry Data Center
Collection (C) 2014 copyright by the U.S. Secretary of Commerce
on behalf of the United States of America. All rights reserved.
##CAS REGISTRY NO=1539-04-4
##$NIST MASS SPEC NO=133725
##MOLFORM=C20 H14 O4
##MW=318
##$NIST SOURCE=MSDC
##XUNITS=M/Z
##YUNITS=RELATIVE INTENSITY
##XFACTOR=1
##YFACTOR=1
##FIRSTX=14
##LASTX=320
##FIRSTY=2
##MAXX=320
##MINX=14
##MAXY=9999
##MINY=2
##NPOINTS=48
##PEAK TABLE=(XY..XY)
14,2 27,16 28,12 32,3
37,14 38,58 39,394 40,30
50,342 51,121 53,25 62,26
63,101 64,59 65,530 66,51
74,74 75,196 76,1193 77,182
91,15 92,12 93,75 94,38
102,9 104,2519 105,182 115,177
116,17 132,1207 133,117 139,54
141,138 142,18 152,13 168,26
169,109 170,17 196,38 197,323
198,49 225,9999 226,1523 227,167
228,15 318,911 319,194 320,26
##END=
