##TITLE=Boron, difluoro(2,4-pentanedionato-O,O')-, (T-4)-
##JCAMP-DX=4.24
##DATA TYPE=MASS SPECTRUM
##ORIGIN=D.HENNEBERG, MAX-PLANCK INSTITUTE, MULHEIM, WEST GERMANY
##OWNER=NIST Mass Spectrometry Data Center
Collection (C) 2014 copyright by the U.S. Secretary of Commerce
on behalf of the United States of America. All rights reserved.
##CAS REGISTRY NO=15390-25-7
##$NIST MASS SPEC NO=62359
##MOLFORM=C5 H7 B F2 O2
##MW=148
##$NIST SOURCE=MSDC
##XUNITS=M/Z
##YUNITS=RELATIVE INTENSITY
##XFACTOR=1
##YFACTOR=1
##FIRSTX=27
##LASTX=149
##FIRSTY=329
##MAXX=149
##MINX=27
##MAXY=9999
##MINY=49
##NPOINTS=49
##PEAK TABLE=(XY..XY)
27,329 28,109 29,189 37,69
38,209 39,549 40,179 41,159
42,419 43,9999 44,279 45,59
48,100 49,469 50,89 51,109
53,209 54,59 55,169 56,59
57,109 63,100 69,79 73,69
76,69 77,100 78,89 79,359
81,59 82,69 83,49 88,79
89,49 93,59 94,49 99,59
101,100 105,109 126,69 127,209
128,779 129,1449 130,129 132,839
133,3749 134,149 147,439 148,1739
149,379
##END=
