##TITLE=Lincomycin
##JCAMP-DX=4.24
##DATA TYPE=MASS SPECTRUM
##OWNER=NIST Mass Spectrometry Data Center
Collection (C) 2014 copyright by the U.S. Secretary of Commerce
on behalf of the United States of America. All rights reserved.
##CAS REGISTRY NO=154-21-2
##$NIST MASS SPEC NO=17106
##MOLFORM=C18 H34 N2 O6 S
##MW=406
##$NIST SOURCE=MSDC
##XUNITS=M/Z
##YUNITS=RELATIVE INTENSITY
##XFACTOR=1
##YFACTOR=1
##FIRSTX=39
##LASTX=408
##FIRSTY=24
##MAXX=408
##MINX=39
##MAXY=9999
##MINY=5
##NPOINTS=75
##PEAK TABLE=(XY..XY)
39,24 41,155 42,238 43,186
44,114 45,76 47,60 48,38
53,21 54,19 55,186 56,57
57,133 58,57 59,7 60,55
61,55 67,48 68,29 69,95
70,102 71,71 72,29 73,71
74,29 77,7 81,48 82,286
83,136 84,60 85,38 86,7
87,7 90,19 91,57 94,19
95,38 96,55 97,55 98,33
99,36 100,17 101,5 109,19
110,24 111,24 112,114 113,19
123,19 124,119 125,105 126,9999
127,845 128,29 142,31 149,19
150,19 170,19 203,10 256,19
257,707 258,105 271,7 290,10
317,19 341,19 359,171 360,38
361,40 388,10 391,31 405,19
406,157 407,29 408,7
##END=
