##TITLE=Acetamide, N-(2-methylpropyl)-
##JCAMP-DX=4.24
##DATA TYPE=MASS SPECTRUM
##ORIGIN=J.A.GILPIN DOW CHEM. CO., MIDLAND, MICHIGAN, USA
##OWNER=NIST Mass Spectrometry Data Center
Collection (C) 2014 copyright by the U.S. Secretary of Commerce
on behalf of the United States of America. All rights reserved.
##CAS REGISTRY NO=1540-94-9
##$NIST MASS SPEC NO=1859
##MOLFORM=C6 H13 N O
##MW=115
##$NIST SOURCE=MSDC
##XUNITS=M/Z
##YUNITS=RELATIVE INTENSITY
##XFACTOR=1
##YFACTOR=1
##FIRSTX=15
##LASTX=116
##FIRSTY=400
##MAXX=116
##MINX=15
##MAXY=9999
##MINY=10
##NPOINTS=28
##PEAK TABLE=(XY..XY)
15,400 27,300 28,400 29,400
30,9999 31,400 41,700 42,300
43,3100 44,300 45,100 55,200
56,400 57,200 58,1300 59,60
60,1800 71,30 72,3100 73,600
74,100 86,60 87,10 100,1200
101,80 114,10 115,1100 116,200
##END=
