##TITLE=2,3-Dimethoxyamphetamine
##JCAMP-DX=4.24
##DATA TYPE=MASS SPECTRUM
##ORIGIN=Dr. Jiri Zamecnik, DCIEM, North York, Canada, GP Library
##OWNER=NIST Mass Spectrometry Data Center
Collection (C) 2014 copyright by the U.S. Secretary of Commerce
on behalf of the United States of America. All rights reserved.
##CAS REGISTRY NO=15402-81-0
##$NIST MASS SPEC NO=121396
##MOLFORM=C11 H17 N O2
##MW=195
##$NIST SOURCE=MSDC
##XUNITS=M/Z
##YUNITS=RELATIVE INTENSITY
##XFACTOR=1
##YFACTOR=1
##FIRSTX=42
##LASTX=195
##FIRSTY=220
##MAXX=195
##MINX=42
##MAXY=9999
##MINY=50
##NPOINTS=27
##PEAK TABLE=(XY..XY)
42,220 44,9999 45,380 65,410
77,330 78,190 79,140 91,670
93,90 94,80 105,170 106,190
107,130 121,100 122,90 135,140
136,370 137,300 148,90 152,1130
153,110 163,150 164,790 165,110
176,100 180,50 195,80
##END=
