##TITLE=5-Ethyl bicyclo[2.2.1]-2-heptene
##JCAMP-DX=4.24
##DATA TYPE=MASS SPECTRUM
##ORIGIN=NIST Mass Spectrometry Data Center, 1990.
##OWNER=NIST Mass Spectrometry Data Center
Collection (C) 2014 copyright by the U.S. Secretary of Commerce
on behalf of the United States of America. All rights reserved.
##CAS REGISTRY NO=15403-89-1
##$NIST MASS SPEC NO=113492
##MOLFORM=C9 H14
##MW=122
##$NIST SOURCE=MSDC
##XUNITS=M/Z
##YUNITS=RELATIVE INTENSITY
##XFACTOR=1
##YFACTOR=1
##FIRSTX=15
##LASTX=123
##FIRSTY=33
##MAXX=123
##MINX=15
##MAXY=9999
##MINY=33
##NPOINTS=34
##PEAK TABLE=(XY..XY)
15,33 26,54 27,401 28,171
29,184 38,118 39,1032 40,320
41,462 42,38 50,151 51,369
52,142 53,242 54,38 55,127
62,62 63,188 65,1141 66,9999
67,797 68,39 77,757 78,249
79,706 80,224 81,77 91,548
92,93 93,265 94,66 107,48
122,467 123,55
##END=
