##TITLE=Naphthalene, decahydro-1,8a-dimethyl-7-(1-methylethyl)-, [1R-(1.alpha.,4a.beta.,7.beta.,8a.alpha.)]-
##JCAMP-DX=4.24
##DATA TYPE=MASS SPECTRUM
##ORIGIN=Dr. Jiri Zamecnik, DCIEM, North York, Canada, GP Library
##OWNER=NIST Mass Spectrometry Data Center
Collection (C) 2014 copyright by the U.S. Secretary of Commerce
on behalf of the United States of America. All rights reserved.
##CAS REGISTRY NO=15404-63-4
##$NIST MASS SPEC NO=121628
##MOLFORM=C15 H28
##MW=208
##$NIST SOURCE=MSDC
##XUNITS=M/Z
##YUNITS=RELATIVE INTENSITY
##XFACTOR=1
##YFACTOR=1
##FIRSTX=39
##LASTX=209
##FIRSTY=830
##MAXX=209
##MINX=39
##MAXY=9999
##MINY=50
##NPOINTS=50
##PEAK TABLE=(XY..XY)
39,830 41,5850 42,400 43,1820
53,790 55,5700 56,430 57,1090
67,4850 68,1070 69,5210 70,540
71,340 77,550 79,1100 80,380
81,8390 82,7800 83,3320 91,440
93,730 94,800 95,9999 96,1310
97,1020 107,300 108,330 109,7430
110,1240 111,560 112,80 121,80
123,1910 124,460 125,290 135,70
137,1860 138,1740 139,150 147,60
149,50 151,450 152,240 164,170
165,9850 166,1330 193,1190 194,180
208,6350 209,970
##END=
