##TITLE=1,5-Hexadiene, 3-methyl-
##JCAMP-DX=4.24
##DATA TYPE=MASS SPECTRUM
##ORIGIN=Japan AIST/NIMC Database- Spectrum MS-IW-3648
##OWNER=NIST Mass Spectrometry Data Center
Collection (C) 2014 copyright by the U.S. Secretary of Commerce
on behalf of the United States of America. All rights reserved.
##CAS REGISTRY NO=1541-33-9
##$NIST MASS SPEC NO=238744
##MOLFORM=C7 H12
##MW=96
##$NIST SOURCE=MSDC
##XUNITS=M/Z
##YUNITS=RELATIVE INTENSITY
##XFACTOR=1
##YFACTOR=1
##FIRSTX=15
##LASTX=96
##FIRSTY=50
##MAXX=96
##MINX=15
##MAXY=9999
##MINY=10
##NPOINTS=45
##PEAK TABLE=(XY..XY)
15,50 26,129 27,1559 28,209
29,2439 30,50 37,70 38,199
39,2909 40,339 41,1789 42,179
43,40 49,20 50,239 51,429
52,189 53,1739 54,1659 55,9999
56,769 57,20 61,20 62,50
63,90 64,10 65,209 66,289
67,2369 68,1209 69,109 70,10
74,20 75,10 77,269 78,50
79,499 80,70 81,5239 82,349
83,10 91,50 93,20 95,209
96,40
##END=
