##TITLE=Ethanol, 2,2'-(dodecylimino)bis-
##JCAMP-DX=4.24
##DATA TYPE=MASS SPECTRUM
##ORIGIN=B. Derendyaev, Novosibirsk Institute of Organic Chemistry
##OWNER=NIST Mass Spectrometry Data Center
Collection (C) 2014 copyright by the U.S. Secretary of Commerce
on behalf of the United States of America. All rights reserved.
##CAS REGISTRY NO=1541-67-9
##$NIST MASS SPEC NO=140668
##MOLFORM=C16 H35 N O2
##MW=273
##$NIST SOURCE=MSDC
##XUNITS=M/Z
##YUNITS=RELATIVE INTENSITY
##XFACTOR=1
##YFACTOR=1
##FIRSTX=17
##LASTX=255
##FIRSTY=749
##MAXX=255
##MINX=17
##MAXY=9999
##MINY=99
##NPOINTS=77
##PEAK TABLE=(XY..XY)
17,749 18,6209 27,239 28,772
29,389 30,1339 31,129 32,172
36,119 40,139 41,659 42,799
43,1069 44,1439 45,719 55,859
56,2809 57,1549 58,839 60,119
61,149 67,189 68,119 69,869
70,919 71,689 72,199 74,4649
75,139 81,369 82,319 83,679
84,339 85,349 86,289 87,439
88,4379 89,159 91,609 93,169
94,129 95,419 96,259 97,769
98,379 99,259 100,9999 101,589
105,409 109,239 110,169 111,449
112,129 113,219 116,469 118,1779
119,239 123,239 124,119 125,309
126,159 135,109 137,169 140,99
143,379 156,109 165,109 179,109
198,949 199,139 210,159 212,189
240,109 242,7479 243,1279 244,129
255,309
##END=
