##TITLE=Tungsten, pentacarbonyl(triphenylphosphine)-, (OC-6-22)-
##JCAMP-DX=4.24
##DATA TYPE=MASS SPECTRUM
##ORIGIN=D.HENNEBERG, MAX-PLANCK INSTITUTE, MULHEIM, WEST GERMANY
##OWNER=NIST Mass Spectrometry Data Center
Collection (C) 2014 copyright by the U.S. Secretary of Commerce
on behalf of the United States of America. All rights reserved.
##CAS REGISTRY NO=15444-65-2
##$NIST MASS SPEC NO=63956
##MOLFORM=C23 H15 O5 P W
##MW=586
##$NIST SOURCE=MSDC
##XUNITS=M/Z
##YUNITS=RELATIVE INTENSITY
##XFACTOR=1
##YFACTOR=1
##FIRSTX=28
##LASTX=591
##FIRSTY=3285
##MAXX=591
##MINX=28
##MAXY=9999
##MINY=11
##NPOINTS=326
##PEAK TABLE=(XY..XY)
28,3285 39,187 50,207 51,546
52,143 77,219 78,532 107,378
108,725 115,149 154,137 157,145
170,200 181,158 182,202 183,1779
184,474 185,319 186,134 194,151
195,257 196,219 197,190 200,161
206,370 207,522 208,571 209,444
210,218 211,104 218,235 219,456
220,874 221,2005 222,3700 223,3408
224,2164 225,104 233,93 235,91
236,218 237,285 238,383 239,196
240,237 241,80 242,233 245,85
246,87 247,70 249,85 250,202
251,210 252,136 257,133 258,146
259,219 260,182 261,420 262,2368
263,690 264,605 265,648 266,509
267,313 268,184 269,80 270,163
271,124 272,134 273,101 274,123
275,107 276,137 277,100 278,107
279,97 280,72 281,59 282,124
283,169 284,142 285,134 286,128
287,247 288,448 289,477 290,513
291,332 292,486 293,210 294,195
295,203 296,290 297,214 298,246
299,188 300,177 301,154 302,161
303,143 304,110 305,77 306,85
307,91 308,103 309,135 310,128
311,164 312,394 313,551 314,900
315,689 316,892 317,550 318,511
319,240 320,321 321,202 322,312
323,202 324,288 325,136 326,198
327,105 328,86 329,73 330,62
331,70 332,76 333,113 334,103
335,125 336,146 337,339 338,1021
339,1241 340,2011 341,1343 342,1660
343,666 344,864 345,174 346,112
347,77 348,87 349,91 350,80
351,89 352,109 353,76 354,80
355,43 356,50 357,49 359,65
360,81 361,119 362,546 363,805
364,1654 365,1851 366,4415 367,3187
368,4250 369,1319 370,2950 371,553
372,181 373,93 374,125 375,71
376,96 377,65 378,66 379,51
380,67 381,43 382,45 383,34
384,40 385,36 386,72 387,102
388,251 389,283 390,342 391,242
392,337 393,242 394,294 395,261
397,284 398,232 399,214 400,159
401,100 402,70 403,59 404,54
405,49 406,36 407,34 408,35
409,35 410,63 411,99 412,225
413,297 414,360 415,264 416,380
417,334 418,263 419,158 420,165
421,70 422,45 423,37 424,33
425,49 426,29 427,40 428,40
429,38 430,32 431,22 432,34
433,31 434,44 435,53 436,149
437,246 438,393 439,448 440,610
441,1058 442,1489 443,2570 444,8936
445,7733 446,9999 447,3300 448,7937
449,1657 450,209 451,58 452,43
453,33 454,39 455,31 456,38
457,20 460,24 461,15 463,18
465,15 467,20 468,21 469,24
471,64 472,93 473,145 474,228
475,198 476,163 481,29 482,33
484,35 485,33 486,28 487,27
488,28 489,28 490,26 494,44
499,515 500,7206 501,5780 502,8797
503,2426 504,7479 505,1750 506,303
507,68 514,26 515,18 516,17
524,23 525,26 527,57 528,351
529,359 530,510 531,314 532,512
533,233 537,23 538,27 539,24
543,23 544,21 545,21 547,17
548,21 554,99 556,2192 557,1805
558,3018 559,734 560,2382 561,613
562,96 564,18 568,12 574,11
575,14 583,43 584,1727 585,1388
586,2278 587,610 588,1977 589,511
590,85 591,18
##END=
