##TITLE=p-Hexyloxy nitrobenzene
##JCAMP-DX=4.24
##DATA TYPE=MASS SPECTRUM
##ORIGIN=Japan AIST/NIMC Database- Spectrum MS-NW-5197
##OWNER=NIST Mass Spectrometry Data Center
Collection (C) 2014 copyright by the U.S. Secretary of Commerce
on behalf of the United States of America. All rights reserved.
##CAS REGISTRY NO=15440-98-9
##$NIST MASS SPEC NO=232630
##MOLFORM=C12 H17 N O3
##MW=223
##$NIST SOURCE=MSDC
##XUNITS=M/Z
##YUNITS=RELATIVE INTENSITY
##XFACTOR=1
##YFACTOR=1
##FIRSTX=15
##LASTX=225
##FIRSTY=20
##MAXX=225
##MINX=15
##MAXY=9999
##MINY=10
##NPOINTS=92
##PEAK TABLE=(XY..XY)
15,20 18,10 26,50 27,909
28,119 29,1369 30,189 37,20
38,119 39,709 40,90 41,2429
42,1009 43,9999 44,339 50,269
51,109 52,60 53,169 54,99
55,1859 56,1639 57,1229 58,60
61,10 62,60 63,309 64,309
65,539 66,60 67,50 68,20
69,929 70,60 71,20 74,50
75,309 76,429 77,99 78,90
79,50 80,40 81,109 82,20
83,1039 84,2179 85,1279 86,80
91,60 92,169 93,419 94,99
95,10 103,10 105,30 106,109
107,99 108,40 109,669 110,50
119,30 120,20 122,189 123,819
124,489 125,40 129,10 131,10
133,30 134,10 135,10 136,10
137,10 139,1559 140,979 141,319
142,30 148,10 149,10 152,209
153,20 166,10 167,10 177,10
180,10 193,50 194,10 195,10
207,60 223,1279 224,199 225,20
##END=
