##TITLE=1,2-Benzisothiazol-3(2H)-one, 2-methyl-, 1,1-dioxide
##JCAMP-DX=4.24
##DATA TYPE=MASS SPECTRUM
##ORIGIN=Japan AIST/NIMC Database- Spectrum MS-NW- 237
##OWNER=NIST Mass Spectrometry Data Center
Collection (C) 2014 copyright by the U.S. Secretary of Commerce
on behalf of the United States of America. All rights reserved.
##CAS REGISTRY NO=15448-99-4
##$NIST MASS SPEC NO=228042
##MOLFORM=C8 H7 N O3 S
##MW=197
##$NIST SOURCE=MSDC
##XUNITS=M/Z
##YUNITS=RELATIVE INTENSITY
##XFACTOR=1
##YFACTOR=1
##FIRSTX=14
##LASTX=200
##FIRSTY=20
##MAXX=200
##MINX=14
##MAXY=9999
##MINY=10
##NPOINTS=126
##PEAK TABLE=(XY..XY)
14,20 15,199 17,60 18,219
26,80 27,119 28,609 29,99
30,20 31,20 32,10 38,249
39,519 40,619 41,50 42,90
43,40 44,50 45,139 46,50
47,20 48,179 49,179 50,4399
51,1089 52,289 53,149 54,40
55,70 56,159 57,60 58,60
60,20 61,149 62,169 63,899
64,549 65,229 66,80 67,40
68,20 69,409 70,269 71,40
72,40 73,249 74,1719 75,1709
76,6319 77,2329 78,1199 79,129
80,20 81,60 82,119 83,30
84,549 85,80 86,50 87,50
88,50 89,90 90,529 91,99
92,879 93,109 95,229 96,359
97,209 98,40 99,50 101,30
102,189 103,1139 104,5619 105,4109
106,939 107,80 108,139 109,90
110,30 111,30 112,60 113,80
115,90 116,90 117,929 118,109
119,149 120,679 121,459 122,60
123,40 125,60 127,20 131,50
132,4949 133,5969 134,529 135,50
136,90 137,20 139,20 140,169
141,50 142,30 150,149 151,30
152,269 153,30 154,20 158,20
165,20 166,20 167,20 168,40
169,1039 170,99 171,70 172,20
180,20 196,769 197,9999 198,1029
199,519 200,60
##END=
