##TITLE=Fluorodifen
##JCAMP-DX=4.24
##DATA TYPE=MASS SPECTRUM
##ORIGIN=NIST Mass Spectrometry Data Center, 1998.
##OWNER=NIST Mass Spectrometry Data Center
Collection (C) 2014 copyright by the U.S. Secretary of Commerce
on behalf of the United States of America. All rights reserved.
##CAS REGISTRY NO=15457-05-3
##$NIST MASS SPEC NO=291896
##MOLFORM=C13 H7 F3 N2 O5
##MW=328
##$NIST SOURCE=MSDC
##XUNITS=M/Z
##YUNITS=RELATIVE INTENSITY
##XFACTOR=1
##YFACTOR=1
##FIRSTX=26
##LASTX=330
##FIRSTY=20
##MAXX=330
##MINX=26
##MAXY=9999
##MINY=10
##NPOINTS=235
##PEAK TABLE=(XY..XY)
26,20 27,20 28,40 29,20
30,790 31,10 37,40 38,250
39,230 40,20 41,10 42,10
43,10 44,10 45,70 46,100
49,20 50,1420 51,520 52,250
53,270 54,130 55,50 56,30
57,300 58,10 61,80 62,420
63,2110 64,1830 65,220 66,70
67,20 68,80 69,350 70,50
71,10 72,10 73,60 74,630
75,1630 76,950 77,140 78,60
79,340 80,190 81,150 82,120
83,40 84,50 85,20 86,60
87,170 88,120 89,140 90,50
91,60 92,1000 93,150 94,170
95,90 96,140 97,10 98,40
99,130 100,50 101,90 102,50
103,30 104,20 105,30 106,50
107,670 108,340 109,50 110,70
111,50 112,120 113,340 114,270
115,70 116,10 117,20 118,20
119,200 120,140 121,20 122,40
123,90 124,20 125,160 126,3070
127,320 128,50 129,40 130,20
131,60 132,880 133,140 134,110
135,30 136,20 137,130 138,190
139,960 140,220 141,330 142,60
143,110 144,80 145,130 146,960
147,100 148,80 149,30 150,20
151,130 152,40 153,20 154,40
155,90 156,70 157,370 158,100
159,40 160,1360 161,190 162,1840
163,140 164,20 165,10 166,20
167,70 168,120 169,170 170,140
171,100 172,40 173,20 174,220
175,120 176,70 177,80 178,40
179,10 180,20 181,40 182,90
183,70 184,30 185,20 186,410
187,180 188,370 189,10 190,9999
191,930 192,80 193,30 194,20
195,160 196,60 197,30 198,30
199,20 200,60 201,20 202,20
203,10 204,20 205,30 206,360
207,660 208,100 209,20 210,10
211,30 212,30 213,20 214,10
215,30 216,140 217,530 218,70
219,10 220,20 221,20 222,10
223,150 224,40 225,50 226,60
227,10 228,10 232,10 233,20
234,20 235,340 236,340 237,260
238,60 239,20 240,20 248,100
249,130 250,50 251,120 252,70
253,30 254,20 262,20 263,10
264,10 265,280 266,100 267,20
268,40 269,10 279,20 280,10
281,30 282,20 283,20 295,60
296,10 297,10 298,220 299,30
309,840 310,130 311,120 312,30
328,870 329,140 330,20
##END=
