##TITLE=3-Dimethylamino-2,2-dimethylpropionaldehyde
##JCAMP-DX=4.24
##DATA TYPE=MASS SPECTRUM
##ORIGIN=NIST Mass Spectrometry Data Center, 1994
##OWNER=NIST Mass Spectrometry Data Center
Collection (C) 2014 copyright by the U.S. Secretary of Commerce
on behalf of the United States of America. All rights reserved.
##CAS REGISTRY NO=15451-14-6
##$NIST MASS SPEC NO=135317
##MOLFORM=C7 H15 N O
##MW=129
##$NIST SOURCE=MSDC
##XUNITS=M/Z
##YUNITS=RELATIVE INTENSITY
##XFACTOR=1
##YFACTOR=1
##FIRSTX=12
##LASTX=129
##FIRSTY=7
##MAXX=129
##MINX=12
##MAXY=9999
##MINY=2
##NPOINTS=63
##PEAK TABLE=(XY..XY)
12,7 13,11 15,868 16,17
18,126 19,4 26,61 27,554
28,407 29,1047 30,1042 31,62
32,12 36,2 37,23 39,592
40,132 41,641 42,1753 43,416
44,720 45,184 46,26 49,3
50,24 51,34 52,19 53,59
54,27 55,137 56,189 57,3
58,9999 59,362 60,6 61,12
64,3 65,5 66,9 67,11
68,46 69,20 70,149 71,41
72,23 73,11 74,37 80,7
81,6 82,34 84,125 85,114
86,24 89,12 94,2 96,6
98,37 99,11 100,30 101,26
112,14 128,2 129,8
##END=
