##TITLE=3-Fluorobenzoic acid, 3-methylbut-2-enyl ester
##JCAMP-DX=4.24
##DATA TYPE=MASS SPECTRUM
##ORIGIN=Zaikin V.G., TIPS RAS, Moscow, Russia
##OWNER=NIST Mass Spectrometry Data Center
Collection (C) 2014 copyright by the U.S. Secretary of Commerce
on behalf of the United States of America. All rights reserved.
##CAS REGISTRY NO=154559-38-3
##$NIST MASS SPEC NO=292601
##MOLFORM=C12 H13 F O2
##MW=208
##$NIST SOURCE=MSDC
##XUNITS=M/Z
##YUNITS=RELATIVE INTENSITY
##XFACTOR=1
##YFACTOR=1
##FIRSTX=26
##LASTX=209
##FIRSTY=30
##MAXX=209
##MINX=26
##MAXY=9999
##MINY=20
##NPOINTS=50
##PEAK TABLE=(XY..XY)
26,30 27,260 28,70 29,190
39,430 40,240 41,1862 42,190
43,40 44,90 50,160 51,150
52,80 53,761 54,80 55,90
57,110 63,30 65,40 66,60
67,2282 68,5555 69,2662 70,170
74,80 75,651 76,60 79,70
83,60 85,530 94,150 95,2622
96,290 97,70 122,20 123,9999
124,791 125,50 127,30 140,420
141,120 147,30 149,50 152,30
163,60 165,30 166,40 175,40
208,220 209,20
##END=
