##TITLE=Arsine, silyl-
##JCAMP-DX=4.24
##DATA TYPE=MASS SPECTRUM
##ORIGIN=F.E.SAALFELD CHEM. DEPT., U.S. NAVAL RES. LAB., WASH. D.C.
##OWNER=NIST Mass Spectrometry Data Center
Collection (C) 2014 copyright by the U.S. Secretary of Commerce
on behalf of the United States of America. All rights reserved.
##CAS REGISTRY NO=15455-99-9
##$NIST MASS SPEC NO=1452
##MOLFORM=As H5 Si
##MW=108
##$NIST SOURCE=MSDC
##XUNITS=M/Z
##YUNITS=RELATIVE INTENSITY
##XFACTOR=1
##YFACTOR=1
##FIRSTX=75
##LASTX=108
##FIRSTY=5610
##MAXX=108
##MINX=75
##MAXY=9999
##MINY=1810
##NPOINTS=9
##PEAK TABLE=(XY..XY)
75,5610 76,4230 77,4260 103,4160
104,9010 105,2250 106,9999 107,1810
108,5900
##END=
