##TITLE=N-Trifluoroacetylimidazole
##JCAMP-DX=4.24
##DATA TYPE=MASS SPECTRUM
##ORIGIN=NIST Mass Spectrometry Data Center
##OWNER=NIST Mass Spectrometry Data Center
Collection (C) 2014 copyright by the U.S. Secretary of Commerce
on behalf of the United States of America. All rights reserved.
##CAS REGISTRY NO=1546-79-8
##$NIST MASS SPEC NO=342604
##MOLFORM=C5 H3 F3 N2 O
##MW=164
##$NIST SOURCE=MSDC
##XUNITS=M/Z
##YUNITS=RELATIVE INTENSITY
##XFACTOR=1
##YFACTOR=1
##FIRSTX=12
##LASTX=166
##FIRSTY=160
##MAXX=166
##MINX=12
##MAXY=9999
##MINY=10
##NPOINTS=69
##PEAK TABLE=(XY..XY)
12,160 13,220 14,60 19,90
20,20 24,30 25,170 26,701
27,310 28,1341 31,250 32,20
33,30 34,30 36,10 38,981
39,1982 40,9999 41,751 42,60
44,50 46,30 47,40 50,1161
51,310 52,220 53,50 54,50
55,20 57,10 60,60 62,10
63,40 64,40 65,50 66,250
67,691 68,3914 69,7146 70,200
71,30 72,80 75,10 76,30
77,10 78,250 79,10 81,20
82,150 85,40 86,150 89,180
90,530 91,30 93,10 95,2552
96,220 97,90 108,50 109,160
110,10 115,10 116,60 117,70
135,40 136,20 164,4184 165,280
166,10
##END=
