##TITLE=4-Amino-2,3,5,6-tetrafluorobenzamide
##JCAMP-DX=4.24
##DATA TYPE=MASS SPECTRUM
##ORIGIN=Institute of Organic Chemistry, USSR, 1990
##OWNER=NIST Mass Spectrometry Data Center
Collection (C) 2014 copyright by the U.S. Secretary of Commerce
on behalf of the United States of America. All rights reserved.
##CAS REGISTRY NO=1548-74-9
##$NIST MASS SPEC NO=110892
##MOLFORM=C7 H4 F4 N2 O
##MW=208
##$NIST SOURCE=MSDC
##XUNITS=M/Z
##YUNITS=RELATIVE INTENSITY
##XFACTOR=1
##YFACTOR=1
##FIRSTX=31
##LASTX=210
##FIRSTY=600
##MAXX=210
##MINX=31
##MAXY=9999
##MINY=10
##NPOINTS=98
##PEAK TABLE=(XY..XY)
31,600 37,20 43,50 44,1030
45,70 46,140 50,10 51,240
53,50 55,50 56,60 57,50
59,40 61,10 62,20 63,20
64,80 67,10 68,120 69,780
70,450 71,30 73,10 74,130
75,410 76,120 79,150 80,70
81,40 82,180 83,50 86,120
87,200 88,200 89,20 90,540
91,20 93,360 94,390 96,310
98,250 99,590 101,140 106,230
107,20 110,10 112,30 113,200
114,260 115,30 117,1020 118,960
119,220 120,30 121,20 124,150
125,280 126,80 132,70 133,40
134,140 136,340 137,3050 138,550
139,30 141,20 143,30 144,1700
145,800 146,60 148,20 149,20
151,10 152,170 153,10 159,20
161,10 162,30 163,220 164,2880
165,2030 166,120 169,10 171,30
176,10 178,10 179,660 180,80
189,40 190,50 191,170 192,9999
193,790 194,30 207,10 208,9170
209,910 210,50
##END=
