##TITLE=Acetic acid, trifluoro-, cyclohexyl ester
##JCAMP-DX=4.24
##DATA TYPE=MASS SPECTRUM
##ORIGIN=NIST Mass Spectrometry Data Center, 2010
##OWNER=NIST Mass Spectrometry Data Center
Collection (C) 2014 copyright by the U.S. Secretary of Commerce
on behalf of the United States of America. All rights reserved.
##CAS REGISTRY NO=1549-45-7
##$NIST MASS SPEC NO=417281
##MOLFORM=C8 H11 F3 O2
##MW=196
##$NIST SOURCE=MSDC
##XUNITS=M/Z
##YUNITS=RELATIVE INTENSITY
##XFACTOR=1
##YFACTOR=1
##FIRSTX=15
##LASTX=167
##FIRSTY=30
##MAXX=167
##MINX=15
##MAXY=9999
##MINY=10
##NPOINTS=65
##PEAK TABLE=(XY..XY)
15,30 26,60 27,581 28,210
29,460 31,40 37,20 38,80
39,1291 40,260 41,2542 42,460
43,530 44,80 46,20 47,30
50,260 51,210 52,110 53,681
54,3013 55,3653 56,651 57,110
59,340 60,30 61,10 62,10
63,40 64,10 65,210 67,9909
68,611 69,3483 71,40 72,10
73,20 74,10 75,10 77,240
78,120 79,661 80,120 81,1331
82,9999 83,6045 84,370 85,40
91,10 97,310 98,20 99,180
106,10 112,210 113,20 115,20
125,350 126,20 127,20 140,160
141,20 153,450 154,30 166,10
167,10
##END=
