##TITLE=Cholesteryl methyl carbonate
##JCAMP-DX=4.24
##DATA TYPE=MASS SPECTRUM
##ORIGIN=Organic Synthesis Lab, MSU, Moscow.TRC 795
##OWNER=NIST Mass Spectrometry Data Center
Collection (C) 2014 copyright by the U.S. Secretary of Commerce
on behalf of the United States of America. All rights reserved.
##CAS REGISTRY NO=15507-52-5
##$NIST MASS SPEC NO=326309
##MOLFORM=C29 H48 O3
##MW=444
##$NIST SOURCE=MSDC
##XUNITS=M/Z
##YUNITS=RELATIVE INTENSITY
##XFACTOR=1
##YFACTOR=1
##FIRSTX=27
##LASTX=371
##FIRSTY=159
##MAXX=371
##MINX=27
##MAXY=9999
##MINY=9
##NPOINTS=187
##PEAK TABLE=(XY..XY)
27,159 29,499 31,59 39,99
40,9 41,1229 42,119 43,2088
44,188 45,19 53,169 54,19
55,1588 56,139 57,1259 58,39
59,279 65,59 66,29 67,989
68,119 69,958 70,69 71,559
72,19 77,279 78,79 79,819
80,139 81,1939 82,179 83,479
84,19 85,89 91,1029 92,259
93,1119 94,299 95,1269 96,99
97,249 98,9 103,49 104,79
105,1279 106,439 107,1289 108,419
109,689 110,59 111,169 113,9
114,19 115,89 116,49 117,409
118,209 119,729 120,879 121,879
122,189 123,299 124,19 125,39
127,9 128,99 129,249 130,139
131,659 132,179 133,859 134,219
135,589 136,109 137,109 141,49
142,79 143,599 144,229 145,1469
146,489 147,1789 148,379 149,359
150,39 151,69 155,39 156,29
157,319 158,309 159,759 160,449
161,509 162,139 163,229 164,19
165,49 169,29 170,19 171,179
172,69 173,239 174,89 175,139
176,29 177,59 179,29 183,39
184,19 185,179 186,49 187,99
188,19 189,49 191,59 192,19
193,79 197,69 198,19 199,209
200,89 201,139 202,19 203,19
205,189 206,129 207,59 211,29
212,39 213,669 214,179 215,109
216,29 217,9 219,49 226,9
227,79 228,169 229,89 230,9
231,9 233,9 239,29 240,9
241,49 242,9 243,9 245,129
246,109 247,969 248,229 249,19
253,49 254,39 255,789 256,159
257,29 258,19 259,99 260,719
261,249 262,39 273,19 274,49
275,59 283,89 284,19 297,9
301,9 311,9 314,19 325,9
326,129 327,29 339,9 340,9
351,19 352,19 353,1229 354,349
355,39 366,179 367,169 368,9999
369,3299 370,549 371,39
##END=
