##TITLE=1-Trifluoroacetoxy-2-methylpentane
##JCAMP-DX=4.24
##DATA TYPE=MASS SPECTRUM
##ORIGIN=NIST Mass Spectrometry Data Center
##OWNER=NIST Mass Spectrometry Data Center
Collection (C) 2014 copyright by the U.S. Secretary of Commerce
on behalf of the United States of America. All rights reserved.
##CAS REGISTRY NO=155089-96-6
##$NIST MASS SPEC NO=352358
##MOLFORM=C8 H13 F3 O2
##MW=198
##$NIST SOURCE=MSDC
##XUNITS=M/Z
##YUNITS=RELATIVE INTENSITY
##XFACTOR=1
##YFACTOR=1
##FIRSTX=15
##LASTX=169
##FIRSTY=60
##MAXX=169
##MINX=15
##MAXY=9999
##MINY=10
##NPOINTS=72
##PEAK TABLE=(XY..XY)
15,60 20,10 26,80 27,1371
28,250 29,1581 30,60 31,70
33,40 37,20 38,70 39,1411
40,300 41,4574 42,1872 43,9999
44,410 45,50 47,70 50,170
51,100 52,30 53,300 54,150
55,2592 56,4264 57,550 58,30
59,80 60,20 61,70 62,10
63,20 65,50 66,20 67,170
69,6146 70,360 71,6126 72,350
73,10 77,20 78,90 79,10
80,10 81,10 82,10 83,160
84,1712 85,1251 86,80 95,10
97,330 98,10 99,410 100,20
111,10 113,40 115,10 119,10
125,40 126,10 127,30 128,10
129,90 130,10 141,10 150,10
153,10 154,10 155,70 169,40
##END=
