##TITLE=1-Cyclopentenylphenylmethane
##JCAMP-DX=4.24
##DATA TYPE=MASS SPECTRUM
##ORIGIN=NIST Mass Spectrometry Data Center, 1990.
##OWNER=NIST Mass Spectrometry Data Center
Collection (C) 2014 copyright by the U.S. Secretary of Commerce
on behalf of the United States of America. All rights reserved.
##CAS REGISTRY NO=15507-35-4
##$NIST MASS SPEC NO=114860
##MOLFORM=C12 H14
##MW=158
##$NIST SOURCE=MSDC
##XUNITS=M/Z
##YUNITS=RELATIVE INTENSITY
##XFACTOR=1
##YFACTOR=1
##FIRSTX=26
##LASTX=160
##FIRSTY=85
##MAXX=160
##MINX=26
##MAXY=9999
##MINY=6
##NPOINTS=60
##PEAK TABLE=(XY..XY)
26,85 27,703 28,224 29,104
32,6 38,236 39,1993 40,376
41,1294 42,69 50,619 51,1693
52,504 53,415 61,59 62,324
63,1102 64,591 65,3247 66,2797
67,9999 68,499 70,59 74,244
75,329 76,436 77,1657 78,743
79,1903 80,1745 81,169 86,79
87,114 89,688 91,5720 92,973
93,71 101,89 102,411 103,301
104,437 105,84 115,3178 116,851
117,3842 118,410 126,160 127,648
128,2036 129,3719 130,2150 131,250
141,351 142,306 143,1246 144,140
157,74 158,7380 159,887 160,64
##END=
