##TITLE=Thiophane, propyl-
##JCAMP-DX=4.24
##DATA TYPE=MASS SPECTRUM
##ORIGIN=V.A.KOPTYUG, ATLAS OF MASS SPECTRA OF ORGANIC COMPOUNDS
##OWNER=NIST Mass Spectrometry Data Center
Collection (C) 2014 copyright by the U.S. Secretary of Commerce
on behalf of the United States of America. All rights reserved.
##CAS REGISTRY NO=1551-34-4
##$NIST MASS SPEC NO=78675
##MOLFORM=C7 H14 S
##MW=130
##$NIST SOURCE=MSDC
##XUNITS=M/Z
##YUNITS=RELATIVE INTENSITY
##XFACTOR=1
##YFACTOR=1
##FIRSTX=15
##LASTX=130
##FIRSTY=370
##MAXX=130
##MINX=15
##MAXY=9999
##MINY=30
##NPOINTS=33
##PEAK TABLE=(XY..XY)
15,370 26,260 27,2160 39,1980
41,2500 42,340 43,200 45,2370
46,380 47,920 53,860 54,370
55,1320 56,120 57,30 58,430
59,1170 60,520 61,310 67,920
68,220 69,110 73,310 81,420
85,590 87,9999 88,550 101,1630
102,60 115,60 116,60 129,30
130,1830
##END=
