##TITLE=1H-Pyrrole, 2-ethyl-
##JCAMP-DX=4.24
##DATA TYPE=MASS SPECTRUM
##ORIGIN=W.Baltes ET AL.J.Agric.Food Chem.,35,340(1987)
##OWNER=NIST Mass Spectrometry Data Center
Collection (C) 2014 copyright by the U.S. Secretary of Commerce
on behalf of the United States of America. All rights reserved.
##CAS REGISTRY NO=1551-06-0
##$NIST MASS SPEC NO=292884
##MOLFORM=C6 H9 N
##MW=95
##$NIST SOURCE=MSDC
##XUNITS=M/Z
##YUNITS=RELATIVE INTENSITY
##XFACTOR=1
##YFACTOR=1
##FIRSTX=38
##LASTX=95
##FIRSTY=450
##MAXX=95
##MINX=38
##MAXY=9999
##MINY=170
##NPOINTS=18
##PEAK TABLE=(XY..XY)
38,450 39,691 40,621 50,380
51,450 52,721 53,1211 54,280
63,280 64,170 65,340 66,380
67,380 78,380 80,9999 81,691
94,1141 95,5665
##END=
