##TITLE=2-Methyl-1,5-pentanediamine
##JCAMP-DX=4.24
##DATA TYPE=MASS SPECTRUM
##ORIGIN=Chuck Anderson, Aldrich Chemical Co.
##OWNER=NIST Mass Spectrometry Data Center
Collection (C) 2014 copyright by the U.S. Secretary of Commerce
on behalf of the United States of America. All rights reserved.
##CAS REGISTRY NO=15520-10-2
##$NIST MASS SPEC NO=107990
##MOLFORM=C6 H16 N2
##MW=116
##$NIST SOURCE=MSDC
##XUNITS=M/Z
##YUNITS=RELATIVE INTENSITY
##XFACTOR=1
##YFACTOR=1
##FIRSTX=15
##LASTX=117
##FIRSTY=56
##MAXX=117
##MINX=15
##MAXY=9999
##MINY=1
##NPOINTS=64
##PEAK TABLE=(XY..XY)
15,56 16,14 17,81 18,932
19,1 26,30 27,264 28,718
29,239 30,9999 31,240 32,53
35,67 36,421 37,28 38,170
39,287 40,55 41,906 42,833
43,932 44,253 45,1374 46,36
47,20 50,11 51,23 52,20
53,83 54,95 55,364 56,1479
57,246 58,153 59,210 60,8
65,20 66,11 67,187 68,76
69,320 70,781 71,55 72,40
73,36 77,5 79,34 80,16
81,43 82,156 83,30 84,174
85,13 86,174 87,1520 88,83
94,5 96,26 97,57 98,128
99,359 100,97 101,6 117,26
##END=
