##TITLE=Manganese, decacarbonyl(mercury)di-, (2Hg-Mn)
##JCAMP-DX=4.24
##DATA TYPE=MASS SPECTRUM
##ORIGIN=R.B.KING UNIVERSITY OF GEORGIA, ATHENS, GEORGIA, USA
##OWNER=NIST Mass Spectrometry Data Center
Collection (C) 2014 copyright by the U.S. Secretary of Commerce
on behalf of the United States of America. All rights reserved.
##CAS REGISTRY NO=15525-07-2
##$NIST MASS SPEC NO=18461
##MOLFORM=C10 Hg Mn2 O10
##MW=592
##$NIST SOURCE=MSDC
##XUNITS=M/Z
##YUNITS=RELATIVE INTENSITY
##XFACTOR=1
##YFACTOR=1
##FIRSTX=55
##LASTX=592
##FIRSTY=9090
##MAXX=592
##MINX=55
##MAXY=9999
##MINY=27
##NPOINTS=24
##PEAK TABLE=(XY..XY)
55,9090 58,4181 83,1454 101,1727
110,5181 139,181 166,3909 194,4090
202,9090 222,9999 250,7545 257,1545
278,181 285,90 306,181 312,1363
322,181 340,90 368,272 396,1454
424,27 452,1000 480,27 592,636
##END=
