##TITLE=p-(Dimethylamino)cinnamic acid
##JCAMP-DX=4.24
##DATA TYPE=MASS SPECTRUM
##ORIGIN=LAC, NIDDK, NIH, Bethesda, MD 20892
##OWNER=NIST Mass Spectrometry Data Center
Collection (C) 2014 copyright by the U.S. Secretary of Commerce
on behalf of the United States of America. All rights reserved.
##CAS REGISTRY NO=1552-96-1
##$NIST MASS SPEC NO=130605
##MOLFORM=C11 H13 N O2
##MW=191
##$NIST SOURCE=MSDC
##XUNITS=M/Z
##YUNITS=RELATIVE INTENSITY
##XFACTOR=1
##YFACTOR=1
##FIRSTX=41
##LASTX=194
##FIRSTY=200
##MAXX=194
##MINX=41
##MAXY=9999
##MINY=3
##NPOINTS=116
##PEAK TABLE=(XY..XY)
41,200 42,817 43,249 44,321
45,450 46,33 47,10 49,45
50,373 51,750 52,197 53,125
54,54 55,152 56,42 57,85
58,56 59,20 60,54 61,42
62,143 63,443 64,148 65,494
66,129 67,78 68,66 69,109
70,29 71,65 73,816 74,213
75,331 76,284 77,844 78,227
79,173 80,34 81,478 83,37
84,36 85,35 87,474 88,62
89,262 90,140 91,476 92,81
93,37 94,60 96,279 97,34
98,36 99,24 100,20 101,340
102,580 103,499 104,207 105,156
106,51 107,36 108,18 109,15
110,15 111,22 112,4 113,8
114,33 115,172 116,158 117,117
118,229 119,151 120,166 121,51
122,28 123,7 124,13 125,8
127,43 128,216 129,302 130,636
131,328 132,71 133,26 134,126
135,20 136,12 137,25 141,8
142,27 143,72 144,141 145,420
146,881 147,349 148,223 149,159
150,27 151,3 157,23 159,237
160,17 173,56 174,1352 175,702
176,177 177,31 189,81 190,7843
191,9999 192,1500 193,138 194,10
##END=
