##TITLE=2-Hexenoic acid, ethyl ester
##JCAMP-DX=4.24
##DATA TYPE=MASS SPECTRUM
##ORIGIN=NIST Mass Spectrometry Data Center, 1994
##OWNER=NIST Mass Spectrometry Data Center
Collection (C) 2014 copyright by the U.S. Secretary of Commerce
on behalf of the United States of America. All rights reserved.
##CAS REGISTRY NO=1552-67-6
##$NIST MASS SPEC NO=133439
##MOLFORM=C8 H14 O2
##MW=142
##$NIST SOURCE=MSDC
##XUNITS=M/Z
##YUNITS=RELATIVE INTENSITY
##XFACTOR=1
##YFACTOR=1
##FIRSTX=14
##LASTX=143
##FIRSTY=51
##MAXX=143
##MINX=14
##MAXY=9999
##MINY=1
##NPOINTS=67
##PEAK TABLE=(XY..XY)
14,51 15,354 16,1 26,581
27,3783 28,841 29,4531 30,177
31,201 32,36 37,102 38,419
39,3575 40,1213 41,4584 42,1679
43,1139 44,84 45,583 46,32
50,162 51,279 52,151 53,953
54,32 55,9999 56,728 57,728
58,140 59,467 60,521 61,101
62,52 63,86 64,32 65,224
66,159 67,792 68,3354 69,2162
70,515 71,857 72,32 73,4506
74,165 75,34 79,60 81,947
82,169 83,231 84,34 85,528
86,417 87,215 88,561 95,276
97,9856 99,8372 100,632 101,1056
102,63 113,591 114,1240 115,252
127,240 142,385 143,62
##END=
