##TITLE=Piperazine, 1-[3-(trifluoromethyl)phenyl]-
##JCAMP-DX=4.24
##DATA TYPE=MASS SPECTRUM
##ORIGIN=Japan AIST/NIMC Database- Spectrum MS-NW-8593
##OWNER=NIST Mass Spectrometry Data Center
Collection (C) 2014 copyright by the U.S. Secretary of Commerce
on behalf of the United States of America. All rights reserved.
##CAS REGISTRY NO=15532-75-9
##$NIST MASS SPEC NO=236775
##MOLFORM=C11 H13 F3 N2
##MW=230
##$NIST SOURCE=MSDC
##XUNITS=M/Z
##YUNITS=RELATIVE INTENSITY
##XFACTOR=1
##YFACTOR=1
##FIRSTX=15
##LASTX=232
##FIRSTY=60
##MAXX=232
##MINX=15
##MAXY=9999
##MINY=10
##NPOINTS=120
##PEAK TABLE=(XY..XY)
15,60 26,20 27,159 28,639
29,609 30,409 31,10 38,20
39,60 40,20 41,119 42,329
43,99 44,60 50,90 51,99
52,30 53,10 54,80 55,99
56,1119 57,599 58,40 62,20
63,60 64,20 65,10 68,20
69,60 74,30 75,189 76,70
77,80 78,20 81,30 83,70
84,10 88,20 89,20 90,10
91,30 93,10 94,10 95,229
96,40 99,30 100,10 101,20
102,10 103,10 104,30 105,119
107,30 108,10 109,70 113,10
114,50 115,30 117,30 118,40
119,99 120,10 121,10 125,129
126,90 127,159 128,20 130,20
131,20 132,20 133,20 134,10
139,20 140,20 141,30 143,10
144,10 145,1129 146,99 148,20
151,10 152,10 153,10 154,70
155,10 156,20 158,10 159,349
160,50 161,10 166,40 168,20
169,60 170,10 171,10 172,1059
173,799 174,329 175,99 180,10
185,10 186,40 187,50 188,9999
189,1029 190,50 198,20 199,10
200,90 201,20 202,20 211,309
212,40 213,10 227,10 228,30
229,60 230,2149 231,289 232,10
##END=
