##TITLE=3,3'-(Phenylimino)dipropionitrile
##JCAMP-DX=4.24
##DATA TYPE=MASS SPECTRUM
##ORIGIN=NIST Mass Spectrometry Data Center, 1994
##OWNER=NIST Mass Spectrometry Data Center
Collection (C) 2014 copyright by the U.S. Secretary of Commerce
on behalf of the United States of America. All rights reserved.
##CAS REGISTRY NO=1555-66-4
##$NIST MASS SPEC NO=135698
##MOLFORM=C12 H13 N3
##MW=199
##$NIST SOURCE=MSDC
##XUNITS=M/Z
##YUNITS=RELATIVE INTENSITY
##XFACTOR=1
##YFACTOR=1
##FIRSTX=26
##LASTX=200
##FIRSTY=310
##MAXX=200
##MINX=26
##MAXY=9999
##MINY=21
##NPOINTS=63
##PEAK TABLE=(XY..XY)
26,310 27,1060 28,1572 37,84
38,300 39,929 40,432 41,341
42,398 50,685 51,2539 52,733
53,84 54,6733 55,254 56,22
61,39 62,118 63,405 64,297
65,480 66,150 67,37 68,53
74,37 75,168 77,4237 78,612
79,282 80,36 81,21 88,23
89,131 91,1453 92,158 93,44
101,24 102,72 104,2241 105,1138
106,2747 107,208 115,31 116,63
117,144 118,222 119,179 120,25
128,38 129,53 130,177 131,44
132,196 143,25 144,21 145,58
146,26 157,150 159,9999 160,1252
161,78 199,1325 200,185
##END=
