##TITLE=Cyclooctyl bromide
##JCAMP-DX=4.24
##DATA TYPE=MASS SPECTRUM
##ORIGIN=NIST Mass Spectrometry Data Center, 1990.
##OWNER=NIST Mass Spectrometry Data Center
Collection (C) 2014 copyright by the U.S. Secretary of Commerce
on behalf of the United States of America. All rights reserved.
##CAS REGISTRY NO=1556-09-8
##$NIST MASS SPEC NO=113157
##MOLFORM=C8 H15 Br
##MW=190
##$NIST SOURCE=MSDC
##XUNITS=M/Z
##YUNITS=RELATIVE INTENSITY
##XFACTOR=1
##YFACTOR=1
##FIRSTX=26
##LASTX=112
##FIRSTY=165
##MAXX=112
##MINX=26
##MAXY=9999
##MINY=92
##NPOINTS=37
##PEAK TABLE=(XY..XY)
26,165 27,1044 28,311 29,598
39,2483 40,623 41,4248 42,603
43,444 50,188 51,450 52,283
53,1225 54,1939 55,4191 56,384
57,403 63,103 65,427 67,3581
68,1196 69,9999 70,559 77,365
78,130 79,701 80,447 81,1486
82,1531 83,219 91,134 93,95
95,531 109,92 110,699 111,4412
112,383
##END=
