##TITLE=Cyclopentane, iodo-
##JCAMP-DX=4.24
##DATA TYPE=MASS SPECTRUM
##ORIGIN=A.J. LORQUET UNIVERSITY OF LIEGE, LIEGE, BELGIUM
##OWNER=NIST Mass Spectrometry Data Center
Collection (C) 2014 copyright by the U.S. Secretary of Commerce
on behalf of the United States of America. All rights reserved.
##CAS REGISTRY NO=1556-18-9
##$NIST MASS SPEC NO=22432
##MOLFORM=C5 H9 I
##MW=196
##$NIST SOURCE=MSDC
##XUNITS=M/Z
##YUNITS=RELATIVE INTENSITY
##XFACTOR=1
##YFACTOR=1
##FIRSTX=12
##LASTX=197
##FIRSTY=6
##MAXX=197
##MINX=12
##MAXY=9999
##MINY=3
##NPOINTS=45
##PEAK TABLE=(XY..XY)
12,6 14,15 15,190 26,139
27,1141 28,628 29,226 30,6
37,27 38,160 39,2847 40,613
41,8098 42,435 43,214 50,39
51,106 52,63 53,459 54,106
55,36 56,12 57,48 62,12
63,39 64,15 65,184 66,124
67,963 68,193 69,9999 70,565
71,18 127,317 128,166 141,18
152,3 153,6 154,39 155,6
165,3 167,12 168,18 196,2114
197,106
##END=
