##TITLE=meta-Methoxybenzenethiol
##JCAMP-DX=4.24
##DATA TYPE=MASS SPECTRUM
##ORIGIN=NIST Mass Spectrometry Data Center
##OWNER=NIST Mass Spectrometry Data Center
Collection (C) 2014 copyright by the U.S. Secretary of Commerce
on behalf of the United States of America. All rights reserved.
##CAS REGISTRY NO=15570-12-4
##$NIST MASS SPEC NO=352995
##MOLFORM=C7 H8 O S
##MW=140
##$NIST SOURCE=MSDC
##XUNITS=M/Z
##YUNITS=RELATIVE INTENSITY
##XFACTOR=1
##YFACTOR=1
##FIRSTX=14
##LASTX=143
##FIRSTY=20
##MAXX=143
##MINX=14
##MAXY=9999
##MINY=10
##NPOINTS=99
##PEAK TABLE=(XY..XY)
14,20 15,180 25,10 26,40
27,80 28,20 29,90 30,30
31,20 32,20 33,20 34,10
36,10 37,100 38,280 39,540
40,30 41,110 42,10 43,30
44,20 45,731 46,30 47,70
48,20 49,40 50,290 51,290
52,190 53,731 54,50 55,50
56,20 57,150 58,150 59,50
60,20 61,130 62,280 63,731
64,350 65,500 66,701 67,120
68,50 69,931 70,611 71,280
72,40 73,50 74,160 75,130
76,80 77,761 78,200 79,320
80,50 81,290 82,230 83,80
84,350 85,150 86,20 87,10
91,10 92,330 93,150 94,120
95,1051 96,1561 97,2742 98,220
99,150 100,10 105,40 106,30
107,180 108,300 109,701 110,991
111,581 112,90 113,30 114,20
121,30 122,10 123,60 124,621
125,4374 126,360 127,220 128,10
137,20 138,10 139,721 140,9999
141,931 142,510 143,40
##END=
