##TITLE=Benzenethiol, 4-(1,1-dimethylethyl)-2-methyl-
##JCAMP-DX=4.24
##DATA TYPE=MASS SPECTRUM
##ORIGIN=Japan AIST/NIMC Database- Spectrum MS-NW-5858
##OWNER=NIST Mass Spectrometry Data Center
Collection (C) 2014 copyright by the U.S. Secretary of Commerce
on behalf of the United States of America. All rights reserved.
##CAS REGISTRY NO=15570-10-2
##$NIST MASS SPEC NO=234990
##MOLFORM=C11 H16 S
##MW=180
##$NIST SOURCE=MSDC
##XUNITS=M/Z
##YUNITS=RELATIVE INTENSITY
##XFACTOR=1
##YFACTOR=1
##FIRSTX=15
##LASTX=183
##FIRSTY=50
##MAXX=183
##MINX=15
##MAXY=9999
##MINY=10
##NPOINTS=125
##PEAK TABLE=(XY..XY)
15,50 27,169 28,50 29,189
32,10 34,20 38,30 39,379
40,30 41,659 42,30 43,20
44,30 45,439 46,10 47,30
50,60 51,209 52,50 53,129
54,10 55,99 56,10 57,319
58,30 59,109 60,10 61,20
62,60 63,189 64,90 65,229
66,30 67,70 68,60 69,109
70,20 71,60 72,10 73,629
74,99 75,80 76,50 77,319
78,109 79,139 80,30 81,50
82,80 83,30 84,10 85,30
86,10 87,20 88,10 89,119
90,40 91,759 92,149 93,60
95,20 97,60 98,10 101,10
102,50 103,119 104,60 105,249
106,50 107,30 108,20 109,30
110,20 111,20 113,10 114,10
115,459 116,289 117,329 118,50
119,99 120,30 121,80 122,30
123,359 124,159 125,689 126,70
127,80 128,119 129,139 130,90
131,419 132,559 133,80 134,149
135,129 136,70 137,1089 138,149
139,90 140,10 145,30 146,30
147,109 148,80 149,199 150,109
151,129 152,20 153,10 161,10
162,10 163,159 164,149 165,9999
166,1219 167,519 168,60 178,20
179,219 180,4059 181,549 182,219
183,30
##END=
