##TITLE=Silane, dichloro(chloromethyl)methyl-
##JCAMP-DX=4.24
##DATA TYPE=MASS SPECTRUM
##ORIGIN=RADIAN CORP
##OWNER=NIST Mass Spectrometry Data Center
Collection (C) 2014 copyright by the U.S. Secretary of Commerce
on behalf of the United States of America. All rights reserved.
##CAS REGISTRY NO=1558-33-4
##$NIST MASS SPEC NO=73204
##MOLFORM=C2 H5 Cl3 Si
##MW=162
##$NIST SOURCE=MSDC
##XUNITS=M/Z
##YUNITS=RELATIVE INTENSITY
##XFACTOR=1
##YFACTOR=1
##FIRSTX=14
##LASTX=166
##FIRSTY=40
##MAXX=166
##MINX=14
##MAXY=9999
##MINY=10
##NPOINTS=53
##PEAK TABLE=(XY..XY)
14,40 15,70 27,80 28,50
29,70 35,70 41,110 42,140
43,90 47,50 48,50 49,340
51,90 53,90 63,2560 64,200
65,950 66,60 67,20 76,100
77,240 78,90 79,80 98,540
99,730 100,390 101,490 102,80
103,80 111,70 112,250 113,9999
114,780 115,6720 116,420 117,1200
118,60 119,20 127,290 129,190
131,20 133,140 135,130 137,40
146,10 147,680 148,70 149,660
150,40 151,230 162,270 164,260
166,80
##END=
