##TITLE=1,2,4,5-Tetrazine, 3,6-dimethyl-
##JCAMP-DX=4.24
##DATA TYPE=MASS SPECTRUM
##ORIGIN=J.MOLLER, UNIV. OF COPENHAGEN, DENMARK
##OWNER=NIST Mass Spectrometry Data Center
Collection (C) 2014 copyright by the U.S. Secretary of Commerce
on behalf of the United States of America. All rights reserved.
##CAS REGISTRY NO=1558-23-2
##$NIST MASS SPEC NO=1544
##MOLFORM=C4 H6 N4
##MW=110
##$NIST SOURCE=MSDC
##XUNITS=M/Z
##YUNITS=RELATIVE INTENSITY
##XFACTOR=1
##YFACTOR=1
##FIRSTX=14
##LASTX=110
##FIRSTY=1040
##MAXX=110
##MINX=14
##MAXY=9999
##MINY=220
##NPOINTS=14
##PEAK TABLE=(XY..XY)
14,1040 15,3660 25,220 26,750
27,580 28,1990 38,610 39,1110
40,3820 41,6250 42,9999 43,310
82,290 110,1990
##END=
