##TITLE=3,6,9,12-Tetraoxahexadecan-1-ol
##JCAMP-DX=4.24
##DATA TYPE=MASS SPECTRUM
##ORIGIN=NIST Mass Spectrometry Data Center, 2007
##OWNER=NIST Mass Spectrometry Data Center
Collection (C) 2014 copyright by the U.S. Secretary of Commerce
on behalf of the United States of America. All rights reserved.
##CAS REGISTRY NO=1559-34-8
##$NIST MASS SPEC NO=352050
##MOLFORM=C12 H26 O5
##MW=250
##$NIST SOURCE=MSDC
##XUNITS=M/Z
##YUNITS=RELATIVE INTENSITY
##XFACTOR=1
##YFACTOR=1
##FIRSTX=14
##LASTX=207
##FIRSTY=10
##MAXX=207
##MINX=14
##MAXY=9999
##MINY=10
##NPOINTS=99
##PEAK TABLE=(XY..XY)
14,10 15,90 16,10 18,10
19,120 26,50 27,520 28,691
29,1651 30,140 31,550 32,20
33,20 38,10 39,190 40,30
41,1782 42,270 43,1241 44,1251
45,9999 46,240 47,30 51,20
53,30 54,20 55,420 56,1171
57,4304 58,1101 59,1551 60,110
61,100 62,20 63,30 67,10
68,10 69,90 70,130 71,290
72,921 73,861 74,70 75,1061
76,80 77,220 78,10 81,10
82,30 83,100 84,20 85,961
86,140 87,1812 88,951 89,4014
90,280 91,30 98,70 99,80
100,691 101,1682 102,280 103,861
104,70 105,30 107,40 113,10
114,10 115,160 116,70 117,290
118,30 119,260 120,20 121,50
129,40 130,10 131,320 132,50
133,400 134,30 135,220 136,10
144,80 145,170 146,10 147,60
148,10 149,20 151,10 160,10
161,100 162,10 163,120 164,10
175,10 188,10 207,10
##END=
