##TITLE=3-n-Propyl-adamantol-1
##JCAMP-DX=4.24
##DATA TYPE=MASS SPECTRUM
##ORIGIN=B. Derendyaev, Novosibirsk Institute of Organic Chemistry
##OWNER=NIST Mass Spectrometry Data Center
Collection (C) 2014 copyright by the U.S. Secretary of Commerce
on behalf of the United States of America. All rights reserved.
##CAS REGISTRY NO=15598-88-6
##$NIST MASS SPEC NO=139956
##MOLFORM=C13 H22 O
##MW=194
##$NIST SOURCE=MSDC
##XUNITS=M/Z
##YUNITS=RELATIVE INTENSITY
##XFACTOR=1
##YFACTOR=1
##FIRSTX=41
##LASTX=195
##FIRSTY=2429
##MAXX=195
##MINX=41
##MAXY=9999
##MINY=199
##NPOINTS=33
##PEAK TABLE=(XY..XY)
41,2429 42,1259 43,2159 53,529
55,1589 57,599 59,399 65,299
67,1319 68,199 69,399 77,1299
78,269 79,1399 81,1359 91,1529
92,329 93,5529 94,529 95,7209
96,469 105,269 107,1659 108,429
109,1059 132,469 136,629 137,4879
138,299 151,9999 152,1159 194,4879
195,689
##END=
