##TITLE=Fluorene, 1,2,3,4,4a,9a-hexahydro-, cis-
##JCAMP-DX=4.24
##DATA TYPE=MASS SPECTRUM
##ORIGIN=R.A.HITES, INDIANA UNIV., BLOOMINGTON, IN
##OWNER=NIST Mass Spectrometry Data Center
Collection (C) 2014 copyright by the U.S. Secretary of Commerce
on behalf of the United States of America. All rights reserved.
##CAS REGISTRY NO=1559-97-3
##$NIST MASS SPEC NO=80125
##MOLFORM=C13 H16
##MW=172
##$NIST SOURCE=MSDC
##XUNITS=M/Z
##YUNITS=RELATIVE INTENSITY
##XFACTOR=1
##YFACTOR=1
##FIRSTX=62
##LASTX=173
##FIRSTY=200
##MAXX=173
##MINX=62
##MAXY=9999
##MINY=100
##NPOINTS=38
##PEAK TABLE=(XY..XY)
62,200 63,700 64,200 65,700
66,200 67,400 75,300 76,300
77,800 78,500 79,800 80,900
81,1200 91,2000 92,300 102,400
103,400 104,1500 105,700 115,3100
116,1600 117,1200 118,300 127,1200
128,3500 129,9999 130,5600 131,900
132,100 141,800 142,500 143,1500
144,600 157,400 165,200 171,2500
172,8000 173,1200
##END=
