##TITLE=1-Propanol, 3-amino-
##JCAMP-DX=4.24
##DATA TYPE=MASS SPECTRUM
##ORIGIN=Japan AIST/NIMC Database- Spectrum MS-NW-8463
##OWNER=NIST Mass Spectrometry Data Center
Collection (C) 2014 copyright by the U.S. Secretary of Commerce
on behalf of the United States of America. All rights reserved.
##CAS REGISTRY NO=156-87-6
##$NIST MASS SPEC NO=228625
##MOLFORM=C3 H9 N O
##MW=75
##$NIST SOURCE=MSDC
##XUNITS=M/Z
##YUNITS=RELATIVE INTENSITY
##XFACTOR=1
##YFACTOR=1
##FIRSTX=14
##LASTX=76
##FIRSTY=20
##MAXX=76
##MINX=14
##MAXY=9999
##MINY=10
##NPOINTS=32
##PEAK TABLE=(XY..XY)
14,20 15,139 16,10 17,119
18,69 26,90 27,349 28,1119
29,509 30,9999 31,729 32,10
38,20 39,80 40,60 41,179
42,369 43,239 44,779 45,249
46,60 52,20 53,10 54,40
55,30 56,419 57,249 58,90
72,20 74,30 75,159 76,30
##END=
