##TITLE=Ethylene, 1,2-dichloro-, (E)-
##JCAMP-DX=4.24
##DATA TYPE=MASS SPECTRUM
##ORIGIN=NIST Mass Spectrometry Data Center, 1998.
##OWNER=NIST Mass Spectrometry Data Center
Collection (C) 2014 copyright by the U.S. Secretary of Commerce
on behalf of the United States of America. All rights reserved.
##CAS REGISTRY NO=156-60-5
##$NIST MASS SPEC NO=290837
##MOLFORM=C2 H2 Cl2
##MW=96
##$NIST SOURCE=MSDC
##XUNITS=M/Z
##YUNITS=RELATIVE INTENSITY
##XFACTOR=1
##YFACTOR=1
##FIRSTX=12
##LASTX=101
##FIRSTY=10
##MAXX=101
##MINX=12
##MAXY=9999
##MINY=10
##NPOINTS=32
##PEAK TABLE=(XY..XY)
12,10 13,20 24,110 25,500
26,1140 27,30 35,730 36,130
37,260 38,50 47,460 48,490
49,300 50,140 51,20 59,240
60,2210 61,9999 62,900 63,3250
64,70 70,90 72,60 74,10
94,50 95,160 96,6979 97,260
98,4470 99,120 100,720 101,20
##END=
