##TITLE=Ethylene, 1,2-dichloro-, (Z)-
##JCAMP-DX=4.24
##DATA TYPE=MASS SPECTRUM
##ORIGIN=NIST Mass Spectrometry Data Center, 1998.
##OWNER=NIST Mass Spectrometry Data Center
Collection (C) 2014 copyright by the U.S. Secretary of Commerce
on behalf of the United States of America. All rights reserved.
##CAS REGISTRY NO=156-59-2
##$NIST MASS SPEC NO=291425
##MOLFORM=C2 H2 Cl2
##MW=96
##$NIST SOURCE=MSDC
##XUNITS=M/Z
##YUNITS=RELATIVE INTENSITY
##XFACTOR=1
##YFACTOR=1
##FIRSTX=12
##LASTX=101
##FIRSTY=20
##MAXX=101
##MINX=12
##MAXY=9999
##MINY=20
##NPOINTS=29
##PEAK TABLE=(XY..XY)
12,20 13,30 24,120 25,530
26,1190 27,20 35,370 36,120
37,130 38,40 47,610 48,520
49,360 50,150 51,20 59,320
60,2690 61,9999 62,1080 63,3250
64,70 94,100 95,290 96,6349
97,330 98,4010 99,130 100,640
101,20
##END=
