##TITLE=Hexadecane, 2-methyl-
##JCAMP-DX=4.24
##DATA TYPE=MASS SPECTRUM
##ORIGIN=H.PICHLER THE UNIV. KARLSRUHE, KARLSRUHE, GERMANY, F.R.G.
##OWNER=NIST Mass Spectrometry Data Center
Collection (C) 2014 copyright by the U.S. Secretary of Commerce
on behalf of the United States of America. All rights reserved.
##CAS REGISTRY NO=1560-92-5
##$NIST MASS SPEC NO=11557
##MOLFORM=C17 H36
##MW=240
##$NIST SOURCE=MSDC
##XUNITS=M/Z
##YUNITS=RELATIVE INTENSITY
##XFACTOR=1
##YFACTOR=1
##FIRSTX=2
##LASTX=242
##FIRSTY=107
##MAXX=242
##MINX=2
##MAXY=9999
##MINY=1
##NPOINTS=129
##PEAK TABLE=(XY..XY)
2,107 12,1 13,2 14,9
15,40 16,7 19,1 24,2
25,6 26,56 27,732 28,237
29,1880 30,43 31,2 32,2
36,6 37,10 38,10 39,395
40,94 41,3490 42,1400 43,9260
44,341 45,6 48,1 50,8
51,13 52,11 53,152 54,196
55,2040 56,1880 57,9999 58,477
59,18 63,3 65,21 66,19
67,194 68,199 69,1110 70,839
71,5820 72,333 73,9 77,16
78,5 79,25 80,8 81,72
82,198 83,697 84,465 85,4030
86,270 87,8 91,9 92,2
93,5 94,2 95,28 96,98
97,497 98,281 99,1550 100,111
101,9 105,4 107,11 109,9
110,53 111,264 112,204 113,1050
114,94 115,5 117,2 119,5
120,1 122,8 123,4 124,31
125,143 126,143 127,807 128,80
129,5 134,3 137,3 138,18
139,62 140,98 141,634 142,70
143,4 152,10 153,34 154,72
155,418 156,50 157,3 166,5
167,17 168,87 169,233 170,30
171,2 181,3 182,35 183,131
184,18 196,592 197,1690 198,245
199,10 210,10 211,22 212,4
224,65 225,523 226,96 227,7
238,8 239,9 240,192 241,37
242,3
##END=
