##TITLE=Nonadecane, 2-methyl-
##JCAMP-DX=4.24
##DATA TYPE=MASS SPECTRUM
##ORIGIN=NIST Mass Spectrometry Data Center, 1990.
##OWNER=NIST Mass Spectrometry Data Center
Collection (C) 2014 copyright by the U.S. Secretary of Commerce
on behalf of the United States of America. All rights reserved.
##CAS REGISTRY NO=1560-86-7
##$NIST MASS SPEC NO=113882
##MOLFORM=C20 H42
##MW=282
##$NIST SOURCE=MSDC
##XUNITS=M/Z
##YUNITS=RELATIVE INTENSITY
##XFACTOR=1
##YFACTOR=1
##FIRSTX=27
##LASTX=267
##FIRSTY=619
##MAXX=267
##MINX=27
##MAXY=9999
##MINY=29
##NPOINTS=58
##PEAK TABLE=(XY..XY)
27,619 28,648 29,1672 32,108
39,502 41,4424 42,1488 43,9193
44,326 53,178 54,299 55,2716
56,1952 57,9999 58,423 66,29
67,282 68,254 69,1310 70,920
71,5630 72,278 79,35 81,93
82,242 83,729 84,427 85,3552
86,230 96,125 97,540 98,232
99,1529 100,124 110,60 111,279
112,144 113,844 114,80 124,39
125,143 126,91 127,596 128,48
139,50 140,65 141,368 154,45
155,313 156,40 169,219 183,160
197,89 211,50 238,207 239,486
240,87 267,77
##END=
