##TITLE=2-Methyldocosane
##JCAMP-DX=4.24
##DATA TYPE=MASS SPECTRUM
##ORIGIN=J. Klune, Insect Chem. Ecol. Lab., USDA, Beltsville, MD 20705
##OWNER=NIST Mass Spectrometry Data Center
Collection (C) 2014 copyright by the U.S. Secretary of Commerce
on behalf of the United States of America. All rights reserved.
##CAS REGISTRY NO=1560-81-2
##$NIST MASS SPEC NO=131166
##MOLFORM=C23 H48
##MW=324
##$NIST SOURCE=MSDC
##XUNITS=M/Z
##YUNITS=RELATIVE INTENSITY
##XFACTOR=1
##YFACTOR=1
##FIRSTX=41
##LASTX=326
##FIRSTY=4128
##MAXX=326
##MINX=41
##MAXY=9999
##MINY=4
##NPOINTS=133
##PEAK TABLE=(XY..XY)
41,4128 42,1687 43,9999 44,359
45,5 47,5 49,37 51,17
52,5 53,187 54,381 55,3554
56,2615 57,9482 58,445 59,5
65,38 66,33 67,442 68,436
69,2205 70,1310 71,6647 72,337
73,5 77,23 79,71 80,19
81,198 82,420 83,1465 84,714
85,4865 86,309 87,7 91,18
93,7 94,5 95,89 96,211
97,1170 98,482 99,1940 100,144
103,7 105,11 109,45 110,105
111,594 112,342 113,1056 114,91
116,8 119,6 123,25 124,72
125,274 126,254 127,741 128,66
135,51 137,76 138,54 139,124
140,217 141,606 142,61 149,27
151,18 152,37 153,69 154,193
155,515 156,59 165,11 166,26
167,45 168,172 169,449 170,58
180,17 181,32 182,150 183,404
184,58 189,5 191,5 194,16
195,25 196,125 197,378 198,55
207,4 208,20 209,22 210,123
211,346 212,55 222,11 223,14
224,111 225,304 226,57 236,4
237,10 238,97 239,263 240,54
241,4 251,5 252,117 253,219
254,46 266,102 267,188 268,37
278,15 280,1544 281,4353 282,1050
283,108 294,42 295,74 296,17
308,111 309,1002 310,239 311,32
322,37 323,92 324,2280 325,574
326,70
##END=
