##TITLE=Pentadecane, 2-methyl-
##JCAMP-DX=4.24
##DATA TYPE=MASS SPECTRUM
##OWNER=NIST Mass Spectrometry Data Center
Collection (C) 2014 copyright by the U.S. Secretary of Commerce
on behalf of the United States of America. All rights reserved.
##CAS REGISTRY NO=1560-93-6
##$NIST MASS SPEC NO=22753
##MOLFORM=C16 H34
##MW=226
##$NIST SOURCE=MSDC
##XUNITS=M/Z
##YUNITS=RELATIVE INTENSITY
##XFACTOR=1
##YFACTOR=1
##FIRSTX=37
##LASTX=227
##FIRSTY=10
##MAXX=227
##MINX=37
##MAXY=9999
##MINY=10
##NPOINTS=91
##PEAK TABLE=(XY..XY)
37,10 38,30 39,881 40,180
41,4834 42,1762 43,9999 44,320
45,10 49,10 50,10 51,30
52,20 53,230 54,220 55,2232
56,1722 57,7867 58,330 59,10
65,30 66,20 67,180 68,160
69,981 70,721 71,4224 72,220
73,10 77,20 78,10 79,20
80,10 81,50 82,110 83,470
84,330 85,2823 86,180 87,10
91,10 95,10 96,50 97,300
98,200 99,931 100,70 101,10
109,10 110,30 111,160 112,130
113,611 114,50 115,10 124,10
125,80 126,80 127,440 128,40
138,10 139,30 140,60 141,300
142,30 143,10 152,10 153,10
154,60 155,160 156,20 167,10
168,20 169,80 170,10 171,10
182,380 183,1041 184,150 185,10
196,10 197,10 198,10 210,40
211,320 212,50 213,10 224,10
225,10 226,130 227,20
##END=
