##TITLE=1,2-Propanediol, 3-(tetradecyloxy)-
##JCAMP-DX=4.24
##DATA TYPE=MASS SPECTRUM
##ORIGIN=R.T.HOLMAN,UNIVERSITY OF MINNESOTA
##OWNER=NIST Mass Spectrometry Data Center
Collection (C) 2014 copyright by the U.S. Secretary of Commerce
on behalf of the United States of America. All rights reserved.
##CAS REGISTRY NO=1561-06-4
##$NIST MASS SPEC NO=36335
##MOLFORM=C17 H36 O3
##MW=288
##$NIST SOURCE=MSDC
##XUNITS=M/Z
##YUNITS=RELATIVE INTENSITY
##XFACTOR=1
##YFACTOR=1
##FIRSTX=26
##LASTX=286
##FIRSTY=110
##MAXX=286
##MINX=26
##MAXY=9999
##MINY=10
##NPOINTS=189
##PEAK TABLE=(XY..XY)
26,110 27,820 28,1320 29,2380
30,90 31,310 32,240 39,490
40,150 41,4510 42,1320 43,7340
44,730 45,1940 46,130 47,40
50,40 51,40 52,30 53,260
54,480 55,4690 56,1850 57,9999
58,810 59,620 60,140 61,60
62,10 63,40 64,30 65,70
66,60 67,620 68,950 69,3180
70,1540 71,6900 72,430 73,230
74,70 75,110 76,30 77,70
78,20 79,120 80,70 81,430
82,1180 83,2920 84,860 85,4420
86,1410 87,1680 88,180 89,90
90,40 91,50 92,20 93,40
94,50 95,270 96,510 97,2300
98,610 99,1410 100,950 101,2560
102,530 103,180 104,20 105,30
106,20 107,20 108,20 109,150
110,240 111,1460 112,430 113,730
114,120 115,130 116,200 117,540
118,690 119,2380 120,230 121,110
122,30 123,70 124,150 125,690
126,310 127,590 128,80 129,80
130,100 131,320 132,90 133,70
134,20 135,30 136,20 137,50
138,100 139,320 140,220 141,410
142,70 143,50 144,30 145,60
146,20 147,30 149,30 151,30
152,60 153,90 154,90 155,200
156,50 157,50 158,10 159,20
160,20 161,30 162,30 163,50
165,30 166,50 167,70 168,940
169,160 170,50 171,60 172,20
173,20 174,20 176,20 179,30
181,20 182,10 183,20 184,30
185,60 186,60 187,50 188,30
189,40 190,20 191,30 194,100
195,50 196,840 197,560 198,70
199,50 200,110 201,210 202,60
203,50 211,30 213,30 217,60
218,170 219,380 220,40 221,30
225,40 226,20 227,700 228,150
229,40 230,20 239,20 241,20
242,20 243,20 269,20 270,10
271,20 272,10 280,10 281,10
282,10 283,10 284,10 285,10
286,10
##END=
