##TITLE=Iron, bis[.mu.-(benzenethiolato)]hexacarbonyldi-, (Fe-Fe)
##JCAMP-DX=4.24
##DATA TYPE=MASS SPECTRUM
##ORIGIN=B.F.G.JOHNSON DEPT. OF CHEM., UNIV. OF MANCHESTER, UK
##OWNER=NIST Mass Spectrometry Data Center
Collection (C) 2014 copyright by the U.S. Secretary of Commerce
on behalf of the United States of America. All rights reserved.
##CAS REGISTRY NO=15634-63-6
##$NIST MASS SPEC NO=18128
##MOLFORM=C18 H10 Fe2 O6 S2
##MW=498
##$NIST SOURCE=MSDC
##XUNITS=M/Z
##YUNITS=RELATIVE INTENSITY
##XFACTOR=1
##YFACTOR=1
##FIRSTX=56
##LASTX=498
##FIRSTY=480
##MAXX=498
##MINX=56
##MAXY=9999
##MINY=80
##NPOINTS=14
##PEAK TABLE=(XY..XY)
56,480 112,280 144,1630 165,2840
176,6520 197,3170 221,240 330,9999
358,1320 386,570 414,820 442,1630
470,80 498,820
##END=
