##TITLE=3-(4-Diethylamino-2-hydroxyphenylazo)-4-hydroxybenzenesulfonic acid
##JCAMP-DX=4.24
##DATA TYPE=MASS SPECTRUM
##ORIGIN=Japan AIST/NIMC Database- Spectrum MS-NW-2493
##OWNER=NIST Mass Spectrometry Data Center
Collection (C) 2014 copyright by the U.S. Secretary of Commerce
on behalf of the United States of America. All rights reserved.
##CAS REGISTRY NO=1563-01-5
##$NIST MASS SPEC NO=234323
##MOLFORM=C16 H19 N3 O5 S
##MW=365
##$NIST SOURCE=MSDC
##XUNITS=M/Z
##YUNITS=RELATIVE INTENSITY
##XFACTOR=1
##YFACTOR=1
##FIRSTX=12
##LASTX=294
##FIRSTY=90
##MAXX=294
##MINX=12
##MAXY=9999
##MINY=10
##NPOINTS=231
##PEAK TABLE=(XY..XY)
12,90 13,50 14,129 15,259
16,819 24,40 25,229 26,1569
27,2609 28,3529 29,1099 30,1169
31,50 32,309 33,90 34,249
36,109 37,239 38,639 39,1699
40,589 41,1239 42,789 43,369
44,489 45,219 48,1999 49,129
50,659 51,1389 52,1519 53,1309
54,679 55,359 56,399 57,179
58,269 59,30 60,159 61,209
62,469 63,1689 64,4389 65,1589
66,649 67,379 68,319 69,179
70,109 71,139 72,90 73,90
74,139 75,169 76,359 77,1009
78,1259 79,1029 80,3109 81,679
82,179 83,119 84,80 85,99
86,30 87,40 88,80 89,169
90,309 91,1169 92,1049 93,1179
94,1239 95,569 96,299 97,99
98,119 99,40 100,30 101,40
102,179 103,309 104,1009 105,539
106,549 107,769 108,1179 109,5749
110,649 111,60 112,40 113,30
114,50 115,99 116,149 117,279
118,249 119,789 120,1179 121,429
122,2869 123,699 124,569 125,70
126,40 127,50 128,109 129,149
130,219 131,259 132,659 133,1579
134,639 135,1179 136,3529 137,2379
138,209 139,40 140,50 141,30
142,60 143,119 144,99 145,159
146,339 147,729 148,2169 149,569
150,5399 151,1329 152,799 153,99
154,40 155,40 156,60 157,70
158,129 159,1139 160,709 161,4269
162,649 163,239 164,369 165,9999
166,1159 167,119 168,70 169,80
170,60 171,60 172,189 173,179
174,689 175,479 176,1589 177,229
178,509 179,359 180,4769 181,599
182,70 183,50 184,50 185,90
186,99 187,269 188,99 189,6169
190,879 191,459 192,99 193,189
194,30 195,40 196,50 197,99
198,249 199,109 200,119 201,129
202,209 203,269 204,2319 205,409
206,209 207,30 208,60 209,40
210,50 211,50 212,70 213,869
214,179 215,249 216,90 217,119
218,30 219,30 220,20 224,70
225,50 226,50 227,50 228,30
229,40 230,90 231,40 237,30
238,60 239,80 240,60 241,50
242,40 244,30 251,40 252,40
253,40 254,50 255,40 257,70
267,30 268,70 269,30 270,40
278,20 279,30 280,30 281,30
283,40 285,50 294,10
##END=
