##TITLE=Acetamide, N-acetyl-N-butyl-
##JCAMP-DX=4.24
##DATA TYPE=MASS SPECTRUM
##OWNER=NIST Mass Spectrometry Data Center
Collection (C) 2014 copyright by the U.S. Secretary of Commerce
on behalf of the United States of America. All rights reserved.
##CAS REGISTRY NO=1563-86-6
##$NIST MASS SPEC NO=5436
##MOLFORM=C8 H15 N O2
##MW=157
##$NIST SOURCE=MSDC
##XUNITS=M/Z
##YUNITS=RELATIVE INTENSITY
##XFACTOR=1
##YFACTOR=1
##FIRSTX=27
##LASTX=158
##FIRSTY=592
##MAXX=158
##MINX=27
##MAXY=9999
##MINY=59
##NPOINTS=46
##PEAK TABLE=(XY..XY)
27,592 28,947 29,651 30,8224
31,296 39,296 40,59 41,1627
42,828 43,9999 44,1035 45,237
55,532 56,592 57,651 58,148
59,59 60,1538 61,59 68,89
69,59 70,59 71,59 72,9112
73,3550 74,89 84,3491 85,148
86,1775 87,828 93,148 97,444
98,89 100,1420 101,59 102,1834
103,89 114,1923 115,1183 116,237
128,237 129,59 142,3402 143,148
157,651 158,118
##END=
