##TITLE=Acetamide, N,N-dibutyl-
##JCAMP-DX=4.24
##DATA TYPE=MASS SPECTRUM
##ORIGIN=Japan AIST/NIMC Database- Spectrum MS-NW-6375
##OWNER=NIST Mass Spectrometry Data Center
Collection (C) 2014 copyright by the U.S. Secretary of Commerce
on behalf of the United States of America. All rights reserved.
##CAS REGISTRY NO=1563-90-2
##$NIST MASS SPEC NO=235920
##MOLFORM=C10 H21 N O
##MW=171
##$NIST SOURCE=MSDC
##XUNITS=M/Z
##YUNITS=RELATIVE INTENSITY
##XFACTOR=1
##YFACTOR=1
##FIRSTX=14
##LASTX=172
##FIRSTY=10
##MAXX=172
##MINX=14
##MAXY=9999
##MINY=10
##NPOINTS=61
##PEAK TABLE=(XY..XY)
14,10 15,209 26,40 27,429
28,199 29,869 30,1409 31,40
32,10 38,10 39,229 40,40
41,689 42,419 43,1949 44,1999
45,119 51,10 52,10 53,40
54,50 55,219 56,219 57,509
58,99 59,10 60,90 67,10
68,20 69,10 70,80 71,30
72,479 73,579 74,40 84,119
85,20 86,9999 87,899 88,40
96,10 98,20 99,80 100,639
101,60 112,40 114,409 115,40
116,70 126,10 128,2269 129,289
130,20 142,179 143,20 154,20
156,589 157,60 170,10 171,549
172,70
##END=
