##TITLE=9-Bromoanthracene
##JCAMP-DX=4.24
##DATA TYPE=MASS SPECTRUM
##ORIGIN=USAF ACADEMY, COLORADO SPRINGS, COLORADO 80840, J LLOYD PFLUG
##OWNER=NIST Mass Spectrometry Data Center
Collection (C) 2014 copyright by the U.S. Secretary of Commerce
on behalf of the United States of America. All rights reserved.
##CAS REGISTRY NO=1564-64-3
##$NIST MASS SPEC NO=80042
##MOLFORM=C14 H9 Br
##MW=256
##$NIST SOURCE=MSDC
##XUNITS=M/Z
##YUNITS=RELATIVE INTENSITY
##XFACTOR=1
##YFACTOR=1
##FIRSTX=27
##LASTX=260
##FIRSTY=64
##MAXX=260
##MINX=27
##MAXY=9999
##MINY=37
##NPOINTS=63
##PEAK TABLE=(XY..XY)
27,64 38,102 39,197 50,300
51,288 52,53 61,140 62,432
63,410 64,37 73,91 74,687
75,1366 77,155 85,125 86,375
87,865 88,3781 97,45 98,478
99,341 100,144 101,83 102,64
109,72 110,178 111,170 112,45
113,45 115,178 116,182 121,41
122,201 123,155 124,83 125,136
126,254 127,110 128,876 129,899
134,60 135,56 137,83 138,49
139,53 146,53 148,37 149,390
150,1594 151,1685 152,254 173,75
174,907 175,1005 176,6499 177,4145
178,569 179,49 256,9999 257,1613
258,9920 259,1530 260,113
##END=
