##TITLE=2-Ethyl-4-methylthiazole
##JCAMP-DX=4.24
##DATA TYPE=MASS SPECTRUM
##ORIGIN=Japan AIST/NIMC Database- Spectrum MS-IW-7352
##OWNER=NIST Mass Spectrometry Data Center
Collection (C) 2014 copyright by the U.S. Secretary of Commerce
on behalf of the United States of America. All rights reserved.
##CAS REGISTRY NO=15679-12-6
##$NIST MASS SPEC NO=237561
##MOLFORM=C6 H9 N S
##MW=127
##$NIST SOURCE=MSDC
##XUNITS=M/Z
##YUNITS=RELATIVE INTENSITY
##XFACTOR=1
##YFACTOR=1
##FIRSTX=14
##LASTX=130
##FIRSTY=10
##MAXX=130
##MINX=14
##MAXY=9999
##MINY=10
##NPOINTS=73
##PEAK TABLE=(XY..XY)
14,10 15,80 26,139 27,499
28,649 29,209 32,70 33,10
34,10 37,80 38,169 39,1459
40,139 41,229 42,579 43,20
44,50 45,2069 46,149 47,149
49,10 50,10 51,60 52,139
53,60 54,279 55,70 56,379
57,99 58,119 59,109 60,40
61,10 62,40 63,20 64,20
65,20 66,40 67,20 68,189
69,429 70,189 71,6149 72,7149
73,1029 74,349 75,40 76,10
78,20 80,20 82,739 83,50
84,20 85,169 86,30 87,10
88,10 94,10 96,10 97,10
98,30 99,519 100,199 101,30
112,1789 113,129 114,80 124,10
126,7009 127,9999 128,1109 129,469
130,30
##END=
