##TITLE=9-Octadecene, 1,1-dimethoxy-, (Z)-
##JCAMP-DX=4.24
##DATA TYPE=MASS SPECTRUM
##ORIGIN=R.T.HOLMAN,UNIVERSITY OF MINNESOTA
##OWNER=NIST Mass Spectrometry Data Center
Collection (C) 2014 copyright by the U.S. Secretary of Commerce
on behalf of the United States of America. All rights reserved.
##CAS REGISTRY NO=15677-71-1
##$NIST MASS SPEC NO=36006
##MOLFORM=C20 H40 O2
##MW=312
##$NIST SOURCE=MSDC
##XUNITS=M/Z
##YUNITS=RELATIVE INTENSITY
##XFACTOR=1
##YFACTOR=1
##FIRSTX=26
##LASTX=281
##FIRSTY=60
##MAXX=281
##MINX=26
##MAXY=9999
##MINY=50
##NPOINTS=100
##PEAK TABLE=(XY..XY)
26,60 27,790 28,1300 29,5200
30,750 31,9999 32,7300 33,130
36,50 39,680 40,130 41,4300
42,820 43,2700 44,290 45,640
51,80 53,450 54,1000 55,2300
56,520 57,1200 58,440 59,190
60,70 65,130 66,290 67,2200
68,1500 69,1200 70,340 71,8500
72,570 73,110 74,70 75,90
77,130 78,110 79,690 80,670
81,1800 82,2400 83,1100 84,700
85,470 86,80 87,70 91,230
92,150 93,580 94,530 95,1600
96,1800 97,1400 98,250 99,120
105,60 107,380 108,350 109,670
110,660 111,550 112,190 113,70
121,730 122,380 123,350 124,410
125,760 126,140 127,60 135,660
136,250 137,190 138,420 139,190
140,60 141,140 142,60 149,220
150,120 151,80 152,360 153,100
154,50 155,90 163,90 165,50
166,190 167,50 168,50 169,50
170,60 177,60 184,180 185,60
222,70 248,170 280,200 281,70
##END=
