##TITLE=Benzene, 1,1'-(1-methylethylidene)bis[4-methoxy-
##JCAMP-DX=4.24
##DATA TYPE=MASS SPECTRUM
##ORIGIN=NIST Mass Spectrometry Data Center
##OWNER=NIST Mass Spectrometry Data Center
Collection (C) 2014 copyright by the U.S. Secretary of Commerce
on behalf of the United States of America. All rights reserved.
##CAS REGISTRY NO=1568-83-8
##$NIST MASS SPEC NO=333472
##MOLFORM=C17 H20 O2
##MW=256
##$NIST SOURCE=MSDC
##XUNITS=M/Z
##YUNITS=RELATIVE INTENSITY
##XFACTOR=1
##YFACTOR=1
##FIRSTX=15
##LASTX=259
##FIRSTY=170
##MAXX=259
##MINX=15
##MAXY=9999
##MINY=10
##NPOINTS=173
##PEAK TABLE=(XY..XY)
15,170 27,50 28,10 29,30
31,10 38,30 39,190 40,20
41,190 42,10 43,20 45,30
50,90 51,200 52,60 53,80
54,10 55,60 57,10 61,10
62,50 63,300 64,200 65,290
66,50 67,10 68,10 69,20
70,10 74,50 75,90 76,170
77,731 78,290 79,270 80,20
81,20 82,60 84,10 85,10
86,20 87,40 88,40 89,300
90,270 91,621 92,240 93,60
94,140 95,20 96,10 97,20
98,60 99,50 100,10 101,70
102,200 103,350 104,100 105,250
107,80 108,150 109,220 110,20
111,40 113,751 114,100 115,500
116,110 117,110 118,390 119,180
121,811 122,70 123,10 125,10
126,80 127,230 128,711 129,200
130,30 131,60 132,30 133,2442
134,320 135,80 136,10 137,10
138,10 139,310 140,170 141,130
142,40 143,20 144,20 145,40
146,10 147,60 148,70 149,721
150,120 151,150 152,661 153,550
154,220 155,320 156,60 157,60
158,30 159,30 160,10 161,10
162,10 163,50 164,70 165,741
166,310 167,330 168,230 169,60
170,20 171,70 172,50 173,10
176,50 177,90 178,170 179,120
180,60 181,160 182,160 183,571
184,100 185,40 186,10 189,10
190,10 191,10 192,10 193,30
194,170 195,340 196,130 197,200
198,150 199,50 200,20 201,10
207,10 208,40 209,240 210,340
211,611 212,110 213,30 214,10
215,10 223,20 224,30 225,230
226,460 227,90 228,10 239,80
241,9999 242,3133 243,340 244,30
254,10 256,3673 257,691 258,80
259,10
##END=
