##TITLE=13-Methylheptacosane
##JCAMP-DX=4.24
##DATA TYPE=MASS SPECTRUM
##ORIGIN=NIST Mass Spectrometry Data Center
##OWNER=NIST Mass Spectrometry Data Center
Collection (C) 2014 copyright by the U.S. Secretary of Commerce
on behalf of the United States of America. All rights reserved.
##CAS REGISTRY NO=15689-72-2
##$NIST MASS SPEC NO=413742
##MOLFORM=C28 H58
##MW=394
##$NIST SOURCE=MSDC
##XUNITS=M/Z
##YUNITS=RELATIVE INTENSITY
##XFACTOR=1
##YFACTOR=1
##FIRSTX=27
##LASTX=394
##FIRSTY=60
##MAXX=394
##MINX=27
##MAXY=9999
##MINY=10
##NPOINTS=94
##PEAK TABLE=(XY..XY)
27,60 29,270 30,10 39,100
40,20 41,1441 42,400 43,4464
44,160 53,40 54,140 55,2252
56,1331 57,9999 58,430 67,270
68,300 69,1912 70,1241 71,9278
72,520 81,190 82,480 83,1601
84,741 85,6226 86,370 96,280
97,1732 98,601 99,2452 100,170
109,60 110,310 111,1271 112,470
113,1661 114,140 125,791 126,320
127,1351 128,100 138,130 139,300
141,861 142,90 153,140 154,150
155,550 156,70 166,50 167,100
168,1321 169,711 170,80 180,30
181,50 182,90 183,200 184,20
195,40 196,2152 197,1101 198,130
210,80 211,100 224,1541 225,991
238,70 239,80 266,50 267,100
294,40 295,60 296,10 308,30
309,50 310,10 322,40 323,60
324,10 336,40 337,60 338,10
350,40 351,60 352,20 364,50
365,110 366,30 378,20 379,190
380,50 394,20
##END=
