##TITLE=3-Penten-2-ol
##JCAMP-DX=4.24
##DATA TYPE=MASS SPECTRUM
##ORIGIN=NIST Mass Spectrometry Data Center, 1990.
##OWNER=NIST Mass Spectrometry Data Center
Collection (C) 2014 copyright by the U.S. Secretary of Commerce
on behalf of the United States of America. All rights reserved.
##CAS REGISTRY NO=1569-50-2
##$NIST MASS SPEC NO=114669
##MOLFORM=C5 H10 O
##MW=86
##$NIST SOURCE=MSDC
##XUNITS=M/Z
##YUNITS=RELATIVE INTENSITY
##XFACTOR=1
##YFACTOR=1
##FIRSTX=14
##LASTX=86
##FIRSTY=187
##MAXX=86
##MINX=14
##MAXY=9999
##MINY=68
##NPOINTS=41
##PEAK TABLE=(XY..XY)
14,187 15,707 16,68 17,204
18,346 19,227 26,618 27,2984
28,577 29,1421 31,588 32,221
37,523 38,934 39,4351 40,1158
41,5450 42,1253 43,9220 44,521
45,1830 49,106 50,448 51,461
53,3363 54,221 55,334 57,255
58,1028 61,155 62,278 63,217
65,543 66,284 67,2421 68,1480
69,793 71,9999 72,456 85,161
86,926
##END=
