##TITLE=5-Hepten-2-ol, 6-methyl-
##JCAMP-DX=4.24
##DATA TYPE=MASS SPECTRUM
##ORIGIN=NIST Mass Spectrometry Data Center, 1994
##OWNER=NIST Mass Spectrometry Data Center
Collection (C) 2014 copyright by the U.S. Secretary of Commerce
on behalf of the United States of America. All rights reserved.
##CAS REGISTRY NO=1569-60-4
##$NIST MASS SPEC NO=134031
##MOLFORM=C8 H16 O
##MW=128
##$NIST SOURCE=MSDC
##XUNITS=M/Z
##YUNITS=RELATIVE INTENSITY
##XFACTOR=1
##YFACTOR=1
##FIRSTX=13
##LASTX=129
##FIRSTY=31
##MAXX=129
##MINX=13
##MAXY=9999
##MINY=5
##NPOINTS=60
##PEAK TABLE=(XY..XY)
13,31 14,64 15,803 16,31
17,5 18,21 19,428 27,2913
28,171 29,2168 30,102 31,653
37,56 39,3213 41,7789 42,1014
43,3334 44,580 45,4118 46,117
50,221 51,485 52,228 53,1298
54,465 55,3069 56,1200 57,712
58,1240 59,337 62,47 63,118
65,337 67,3724 68,1924 69,4089
70,551 71,2168 72,216 77,246
78,62 79,422 80,62 81,1025
82,217 83,212 84,153 85,646
86,140 91,100 93,522 95,9999
96,764 97,47 108,47 110,1872
111,195 113,279 128,814 129,79
##END=
