##TITLE=Spiropentane
##JCAMP-DX=4.24
##DATA TYPE=MASS SPECTRUM
##ORIGIN=NIST Mass Spectrometry Data Center, 1990.
##OWNER=NIST Mass Spectrometry Data Center
Collection (C) 2014 copyright by the U.S. Secretary of Commerce
on behalf of the United States of America. All rights reserved.
##CAS REGISTRY NO=157-40-4
##$NIST MASS SPEC NO=118856
##MOLFORM=C5 H8
##MW=68
##$NIST SOURCE=MSDC
##XUNITS=M/Z
##YUNITS=RELATIVE INTENSITY
##XFACTOR=1
##YFACTOR=1
##FIRSTX=12
##LASTX=69
##FIRSTY=26
##MAXX=69
##MINX=12
##MAXY=9999
##MINY=6
##NPOINTS=38
##PEAK TABLE=(XY..XY)
12,26 13,41 14,146 15,158
24,21 25,89 26,784 27,2167
28,557 29,123 31,144 32,55
36,80 37,679 38,1502 39,7293
40,5618 41,1352 42,718 43,30
48,25 49,174 50,660 51,619
52,329 53,2984 54,130 55,6
60,37 61,139 62,180 63,211
64,6 65,645 66,6 67,9999
68,736 69,31
##END=
