##TITLE=Butyl 2-methylbutanoate
##JCAMP-DX=4.24
##DATA TYPE=MASS SPECTRUM
##ORIGIN=MASS SPECTRA OF ORGANIC COMPOUNDS, CSIRO, B.H. KENNETT ET AL
##OWNER=NIST Mass Spectrometry Data Center
Collection (C) 2014 copyright by the U.S. Secretary of Commerce
on behalf of the United States of America. All rights reserved.
##CAS REGISTRY NO=15706-73-7
##$NIST MASS SPEC NO=69696
##MOLFORM=C9 H18 O2
##MW=158
##$NIST SOURCE=MSDC
##XUNITS=M/Z
##YUNITS=RELATIVE INTENSITY
##XFACTOR=1
##YFACTOR=1
##FIRSTX=26
##LASTX=131
##FIRSTY=180
##MAXX=131
##MINX=26
##MAXY=9999
##MINY=40
##NPOINTS=34
##PEAK TABLE=(XY..XY)
26,180 27,1660 28,1030 29,5370
30,150 31,180 39,730 40,130
41,4350 42,260 43,700 45,180
53,110 55,850 56,4430 57,9999
58,460 59,60 69,70 71,120
73,290 74,1840 75,200 84,60
85,4770 86,270 87,690 101,120
102,360 103,6300 104,360 115,140
130,420 131,40
##END=
