##TITLE=Ethyl p-bis(2-hydroxyethyl)aminobenzoate
##JCAMP-DX=4.24
##DATA TYPE=MASS SPECTRUM
##ORIGIN=NIST Mass Spectrometry Data Center, 1994
##OWNER=NIST Mass Spectrometry Data Center
Collection (C) 2014 copyright by the U.S. Secretary of Commerce
on behalf of the United States of America. All rights reserved.
##CAS REGISTRY NO=15716-30-0
##$NIST MASS SPEC NO=135541
##MOLFORM=C13 H19 N O4
##MW=253
##$NIST SOURCE=MSDC
##XUNITS=M/Z
##YUNITS=RELATIVE INTENSITY
##XFACTOR=1
##YFACTOR=1
##FIRSTX=15
##LASTX=254
##FIRSTY=253
##MAXX=254
##MINX=15
##MAXY=9999
##MINY=47
##NPOINTS=87
##PEAK TABLE=(XY..XY)
15,253 16,56 17,115 18,68
19,224 26,143 27,611 28,395
29,1122 30,254 31,610 39,60
41,114 42,284 43,314 44,307
45,1358 50,415 51,328 52,113
53,121 59,117 61,128 63,274
64,173 65,424 66,147 67,100
74,226 75,47 76,606 77,958
78,602 79,395 89,358 90,465
91,418 92,167 93,93 102,178
103,348 104,769 105,413 106,740
107,350 116,94 117,460 118,466
119,317 120,148 121,229 130,155
132,1198 133,302 134,117 135,335
137,65 146,364 147,201 148,344
149,1418 150,3335 151,429 163,676
164,412 176,586 177,360 178,1379
179,225 191,333 192,646 193,163
194,1253 195,143 204,258 206,165
207,126 208,1154 209,219 220,1007
222,9999 223,1549 224,232 249,106
251,151 253,1400 254,206
##END=
