##TITLE=p-Menth-3-en-9-ol
##JCAMP-DX=4.24
##DATA TYPE=MASS SPECTRUM
##OWNER=NIST Mass Spectrometry Data Center
Collection (C) 2014 copyright by the U.S. Secretary of Commerce
on behalf of the United States of America. All rights reserved.
##CAS REGISTRY NO=15714-10-0
##$NIST MASS SPEC NO=5070
##MOLFORM=C10 H18 O
##MW=154
##$NIST SOURCE=MSDC
##XUNITS=M/Z
##YUNITS=RELATIVE INTENSITY
##XFACTOR=1
##YFACTOR=1
##FIRSTX=26
##LASTX=155
##FIRSTY=50
##MAXX=155
##MINX=26
##MAXY=9999
##MINY=50
##NPOINTS=59
##PEAK TABLE=(XY..XY)
26,50 27,881 29,891 30,80
31,631 39,1291 40,210 41,2642
42,210 43,1221 44,70 45,50
50,90 51,310 52,190 53,1291
54,190 55,2362 56,140 57,520
58,160 63,90 65,460 66,250
67,2933 68,591 69,861 70,90
71,50 77,1001 78,220 79,2002
80,390 81,7156 82,691 83,320
84,70 91,801 92,240 93,1641
94,921 95,2502 96,240 97,190
105,190 106,50 107,1862 108,360
109,120 121,1291 122,380 123,9999
124,1221 125,60 135,50 136,861
137,110 154,1501 155,160
##END=
