##TITLE=2-Chlorothiobenzamide
##JCAMP-DX=4.24
##DATA TYPE=MASS SPECTRUM
##ORIGIN=NIST Mass Spectrometry Data Center
##OWNER=NIST Mass Spectrometry Data Center
Collection (C) 2014 copyright by the U.S. Secretary of Commerce
on behalf of the United States of America. All rights reserved.
##CAS REGISTRY NO=15717-17-6
##$NIST MASS SPEC NO=341254
##MOLFORM=C7 H6 Cl N S
##MW=171
##$NIST SOURCE=MSDC
##XUNITS=M/Z
##YUNITS=RELATIVE INTENSITY
##XFACTOR=1
##YFACTOR=1
##FIRSTX=26
##LASTX=175
##FIRSTY=50
##MAXX=175
##MINX=26
##MAXY=9999
##MINY=10
##NPOINTS=117
##PEAK TABLE=(XY..XY)
26,50 27,90 32,110 33,70
34,50 35,20 36,40 37,230
38,260 39,320 41,30 44,20
45,240 47,40 48,30 49,250
50,1521 51,1321 52,430 53,70
54,180 56,10 57,60 58,90
59,180 60,2612 61,290 62,350
63,360 64,130 65,400 66,50
67,400 69,631 70,80 71,60
72,90 73,360 74,981 75,2372
76,1131 77,1241 78,130 79,50
80,10 81,130 82,160 83,60
84,190 85,540 87,120 88,40
89,20 90,120 91,110 92,110
93,300 94,110 95,50 96,20
97,30 98,20 99,180 100,170
101,190 102,3353 103,661 104,160
105,50 106,30 107,100 108,500
109,1541 110,210 111,611 112,811
113,220 114,250 115,20 116,10
117,50 118,10 119,170 120,490
121,40 122,20 125,10 126,20
127,30 128,10 129,10 133,30
134,170 135,220 136,9999 137,2172
138,3093 139,701 140,841 141,80
142,10 143,250 144,50 145,90
146,10 154,20 155,1862 156,170
157,681 158,50 159,30 170,380
171,7667 172,841 173,2813 174,250
175,120
##END=
