##TITLE=(R)-(-)-3-Methyl-2-butanol
##JCAMP-DX=4.24
##DATA TYPE=MASS SPECTRUM
##ORIGIN=NIST Mass Spectrometry Data Center
##OWNER=NIST Mass Spectrometry Data Center
Collection (C) 2014 copyright by the U.S. Secretary of Commerce
on behalf of the United States of America. All rights reserved.
##CAS REGISTRY NO=1572-93-6
##$NIST MASS SPEC NO=342766
##MOLFORM=C5 H12 O
##MW=88
##$NIST SOURCE=MSDC
##XUNITS=M/Z
##YUNITS=RELATIVE INTENSITY
##XFACTOR=1
##YFACTOR=1
##FIRSTX=13
##LASTX=88
##FIRSTY=10
##MAXX=88
##MINX=13
##MAXY=9999
##MINY=10
##NPOINTS=43
##PEAK TABLE=(XY..XY)
13,10 14,110 15,561 16,30
17,10 18,30 19,280 26,190
27,1341 28,520 29,1061 30,60
31,520 32,70 37,50 38,130
39,851 40,130 41,981 42,340
43,1742 44,1411 45,9999 46,240
47,40 49,10 50,40 51,60
52,10 53,100 55,1321 56,70
57,180 58,50 59,100 67,10
69,80 70,40 71,70 73,811
74,90 87,40 88,40
##END=
