##TITLE=3-Penten-1-yne, 3-methyl-
##JCAMP-DX=4.24
##DATA TYPE=MASS SPECTRUM
##ORIGIN=A.G. HARRISON, UNIV. OF TORONTO, TORONTO 5, ONTARIO, CANADA
##OWNER=NIST Mass Spectrometry Data Center
Collection (C) 2014 copyright by the U.S. Secretary of Commerce
on behalf of the United States of America. All rights reserved.
##CAS REGISTRY NO=1574-33-0
##$NIST MASS SPEC NO=415
##MOLFORM=C6 H8
##MW=80
##$NIST SOURCE=MSDC
##XUNITS=M/Z
##YUNITS=RELATIVE INTENSITY
##XFACTOR=1
##YFACTOR=1
##FIRSTX=39
##LASTX=80
##FIRSTY=5074
##MAXX=80
##MINX=39
##MAXY=9999
##MINY=468
##NPOINTS=12
##PEAK TABLE=(XY..XY)
39,5074 50,1995 51,2926 52,2626
53,1655 54,468 63,1010 65,2606
77,5025 78,862 79,9999 80,9557
##END=
