##TITLE=1,3-Pentadiene, (Z)-
##JCAMP-DX=4.24
##DATA TYPE=MASS SPECTRUM
##OWNER=NIST Mass Spectrometry Data Center
Collection (C) 2014 copyright by the U.S. Secretary of Commerce
on behalf of the United States of America. All rights reserved.
##CAS REGISTRY NO=1574-41-0
##$NIST MASS SPEC NO=211
##MOLFORM=C5 H8
##MW=68
##$NIST SOURCE=MSDC
##XUNITS=M/Z
##YUNITS=RELATIVE INTENSITY
##XFACTOR=1
##YFACTOR=1
##FIRSTX=1
##LASTX=70
##FIRSTY=370
##MAXX=70
##MINX=1
##MAXY=9999
##MINY=10
##NPOINTS=45
##PEAK TABLE=(XY..XY)
1,370 2,80 12,70 13,80
14,190 15,731 16,20 24,20
25,120 26,991 27,4274 28,540
29,470 30,30 31,721 32,220
33,140 34,190 36,90 37,861
38,1692 39,8257 40,4344 41,4844
42,2492 43,80 48,30 49,170
50,691 51,901 52,520 53,7196
54,310 55,10 60,80 61,340
62,460 63,601 64,90 65,1191
66,1191 67,9999 68,7587 69,400
70,10
##END=
