##TITLE=Nickel, bis(1,1,1-trifluoro-4-thioxo-2-pentanonato-O,S)-
##JCAMP-DX=4.24
##DATA TYPE=MASS SPECTRUM
##ORIGIN=P.MULLER CHEM. INST., THE UNIV., TUBINGEN, GERMANY, F.R.G
##OWNER=NIST Mass Spectrometry Data Center
Collection (C) 2014 copyright by the U.S. Secretary of Commerce
on behalf of the United States of America. All rights reserved.
##CAS REGISTRY NO=15744-66-8
##$NIST MASS SPEC NO=38787
##MOLFORM=C10 H8 F6 Ni O2 S2
##MW=396
##$NIST SOURCE=MSDC
##XUNITS=M/Z
##YUNITS=RELATIVE INTENSITY
##XFACTOR=1
##YFACTOR=1
##FIRSTX=69
##LASTX=400
##FIRSTY=1400
##MAXX=400
##MINX=69
##MAXY=9999
##MINY=100
##NPOINTS=23
##PEAK TABLE=(XY..XY)
69,1400 148,200 149,1100 150,1000
169,9999 170,1100 227,1800 228,300
229,800 231,200 259,300 261,200
299,400 301,200 327,200 329,100
377,200 379,100 396,2100 397,400
398,1100 399,200 400,300
##END=
