##TITLE=2-Chlorobenzo[b]thiophene-3-acetonitrile
##JCAMP-DX=4.24
##DATA TYPE=MASS SPECTRUM
##ORIGIN=NIST Mass Spectrometry Data Center, 1994
##OWNER=NIST Mass Spectrometry Data Center
Collection (C) 2014 copyright by the U.S. Secretary of Commerce
on behalf of the United States of America. All rights reserved.
##CAS REGISTRY NO=157549-49-0
##$NIST MASS SPEC NO=136827
##MOLFORM=C10 H6 Cl N S
##MW=207
##$NIST SOURCE=MSDC
##XUNITS=M/Z
##YUNITS=RELATIVE INTENSITY
##XFACTOR=1
##YFACTOR=1
##FIRSTX=18
##LASTX=211
##FIRSTY=41
##MAXX=211
##MINX=18
##MAXY=9999
##MINY=24
##NPOINTS=119
##PEAK TABLE=(XY..XY)
18,41 26,90 27,65 35,35
36,57 37,195 38,268 39,436
40,99 44,58 45,582 46,25
47,67 49,113 50,620 51,489
52,106 53,32 57,90 58,86
60,63 61,314 62,459 63,450
64,111 65,54 66,28 69,1066
70,172 71,157 72,429 73,425
74,442 75,618 76,267 77,224
78,28 79,458 80,38 81,379
82,265 83,61 84,97 85,38
86,405 87,270 88,184 89,107
90,66 91,58 92,62 93,446
94,232 95,105 96,69 97,126
98,122 99,231 100,251 101,468
102,337 103,58 104,369 105,163
106,108 107,42 108,85 109,42
110,36 111,49 112,31 113,53
114,44 117,131 118,65 119,89
120,122 121,66 122,31 123,117
124,26 125,40 126,162 127,445
128,493 129,81 130,37 131,37
132,142 133,47 135,34 136,30
138,30 139,24 140,132 143,44
144,156 145,1414 146,375 147,103
149,64 162,75 164,26 170,374
172,9999 173,1215 174,603 175,65
179,104 180,48 181,336 182,43
183,99 206,595 207,3937 208,725
209,1473 210,175 211,67
##END=
