##TITLE=Benzamide, N-acetyl-
##JCAMP-DX=4.24
##DATA TYPE=MASS SPECTRUM
##ORIGIN=LAC, NIDDK, NIH, Bethesda, MD 20892
##OWNER=NIST Mass Spectrometry Data Center
Collection (C) 2014 copyright by the U.S. Secretary of Commerce
on behalf of the United States of America. All rights reserved.
##CAS REGISTRY NO=1575-95-7
##$NIST MASS SPEC NO=127852
##MOLFORM=C9 H9 N O2
##MW=163
##$NIST SOURCE=MSDC
##XUNITS=M/Z
##YUNITS=RELATIVE INTENSITY
##XFACTOR=1
##YFACTOR=1
##FIRSTX=41
##LASTX=165
##FIRSTY=64
##MAXX=165
##MINX=41
##MAXY=9999
##MINY=4
##NPOINTS=64
##PEAK TABLE=(XY..XY)
41,64 42,235 43,2277 44,271
45,26 46,11 47,7 49,63
50,762 51,1671 52,204 53,42
54,21 55,24 56,14 57,19
60,4 61,25 62,47 63,84
64,42 65,110 66,58 67,26
69,61 70,34 73,42 74,274
75,170 76,320 77,4337 78,441
79,77 80,4 83,5 84,15
86,4 91,25 92,107 93,151
94,151 95,20 100,4 102,9
103,108 105,9999 106,748 107,47
121,1465 122,684 123,56 124,9
130,9 131,26 134,362 135,431
136,42 146,32 148,23 149,8
162,1997 163,3596 164,360 165,17
##END=
