##TITLE=2,3-Dimethyl-4-hydroxy-2-butenoic lactone
##JCAMP-DX=4.24
##DATA TYPE=MASS SPECTRUM
##ORIGIN=O A MAMER, MCGILL UNIVERSITY, MONTREAL, CANA5
##OWNER=NIST Mass Spectrometry Data Center
Collection (C) 2014 copyright by the U.S. Secretary of Commerce
on behalf of the United States of America. All rights reserved.
##CAS REGISTRY NO=1575-46-8
##$NIST MASS SPEC NO=79310
##MOLFORM=C6 H8 O2
##MW=112
##$NIST SOURCE=MSDC
##XUNITS=M/Z
##YUNITS=RELATIVE INTENSITY
##XFACTOR=1
##YFACTOR=1
##FIRSTX=14
##LASTX=113
##FIRSTY=46
##MAXX=113
##MINX=14
##MAXY=9999
##MINY=8
##NPOINTS=47
##PEAK TABLE=(XY..XY)
14,46 15,198 25,64 26,484
27,2443 28,373 29,1944 30,93
31,109 37,241 38,435 39,2699
40,410 41,1050 42,153 43,251
44,94 45,118 49,159 50,717
51,938 52,505 53,1533 54,1266
55,9999 56,634 57,62 61,77
62,83 63,95 65,132 66,139
67,262 68,55 69,183 73,26
75,8 81,42 82,154 83,5278
84,413 85,165 97,64 100,53
111,67 112,3732 113,381
##END=
