##TITLE=2-Pentenal, (E)-
##JCAMP-DX=4.24
##DATA TYPE=MASS SPECTRUM
##ORIGIN=Japan AIST/NIMC Database- Spectrum MS-IW-3647
##OWNER=NIST Mass Spectrometry Data Center
Collection (C) 2014 copyright by the U.S. Secretary of Commerce
on behalf of the United States of America. All rights reserved.
##CAS REGISTRY NO=1576-87-0
##$NIST MASS SPEC NO=238725
##MOLFORM=C5 H8 O
##MW=84
##$NIST SOURCE=MSDC
##XUNITS=M/Z
##YUNITS=RELATIVE INTENSITY
##XFACTOR=1
##YFACTOR=1
##FIRSTX=13
##LASTX=86
##FIRSTY=10
##MAXX=86
##MINX=13
##MAXY=9999
##MINY=10
##NPOINTS=58
##PEAK TABLE=(XY..XY)
13,10 14,50 15,139 17,10
18,50 25,60 26,709 27,3679
28,1369 29,4919 30,119 31,119
36,30 37,329 38,609 39,4619
40,799 41,5089 42,639 43,629
44,199 45,129 46,10 48,30
49,229 50,799 51,779 52,249
53,1919 54,449 55,9999 56,1939
57,889 58,109 59,20 60,30
61,60 62,60 63,50 64,10
65,419 66,619 67,179 68,159
69,1209 70,70 71,20 73,10
77,50 78,10 79,40 80,10
81,119 82,50 83,6569 84,8749
85,519 86,30
##END=
