##TITLE=7-Octenoic acid, methyl ester
##JCAMP-DX=4.24
##DATA TYPE=MASS SPECTRUM
##OWNER=NIST Mass Spectrometry Data Center
Collection (C) 2014 copyright by the U.S. Secretary of Commerce
on behalf of the United States of America. All rights reserved.
##CAS REGISTRY NO=15766-90-2
##$NIST MASS SPEC NO=5323
##MOLFORM=C9 H16 O2
##MW=156
##$NIST SOURCE=MSDC
##XUNITS=M/Z
##YUNITS=RELATIVE INTENSITY
##XFACTOR=1
##YFACTOR=1
##FIRSTX=39
##LASTX=156
##FIRSTY=3143
##MAXX=156
##MINX=39
##MAXY=9999
##MINY=200
##NPOINTS=41
##PEAK TABLE=(XY..XY)
39,3143 40,8056 41,2000 42,4857
43,8142 44,714 50,571 51,714
52,714 53,2000 54,2714 55,9999
56,1228 57,7428 59,5999 67,1943
68,1428 71,714 73,1200 74,9999
75,657 79,371 80,514 81,1343
82,3200 83,1628 85,514 87,2200
88,429 94,571 95,2400 96,771
101,486 114,486 115,657 116,343
125,2000 126,943 128,286 141,200
156,200
##END=
