##TITLE=2-Vinylethyl acetate
##JCAMP-DX=4.24
##DATA TYPE=MASS SPECTRUM
##ORIGIN=NIST Mass Spectrometry Data Center
##OWNER=NIST Mass Spectrometry Data Center
Collection (C) 2014 copyright by the U.S. Secretary of Commerce
on behalf of the United States of America. All rights reserved.
##CAS REGISTRY NO=1576-84-7
##$NIST MASS SPEC NO=352270
##MOLFORM=C6 H10 O2
##MW=114
##$NIST SOURCE=MSDC
##XUNITS=M/Z
##YUNITS=RELATIVE INTENSITY
##XFACTOR=1
##YFACTOR=1
##FIRSTX=14
##LASTX=84
##FIRSTY=140
##MAXX=84
##MINX=14
##MAXY=9999
##MINY=10
##NPOINTS=35
##PEAK TABLE=(XY..XY)
14,140 15,761 16,20 25,10
26,230 27,1011 28,260 29,591
31,110 32,10 37,70 38,190
39,1792 40,200 41,500 42,400
43,9999 45,100 49,10 50,120
51,140 52,60 53,340 54,3303
55,520 56,20 57,20 60,10
61,30 69,20 70,10 71,20
73,1121 74,30 84,30
##END=
