##TITLE=1-Naphthalenecarboxylic acid, decahydro-1,4a-dimethyl-6-methylene-5-(3-methyl-2,4-pentadienyl)-, methyl ester, [1S-[1.alpha.,4a.alpha.,5.alpha.(E),8a.beta.]]-
##JCAMP-DX=4.24
##DATA TYPE=MASS SPECTRUM
##OWNER=NIST Mass Spectrometry Data Center
Collection (C) 2014 copyright by the U.S. Secretary of Commerce
on behalf of the United States of America. All rights reserved.
##CAS REGISTRY NO=15798-13-7
##$NIST MASS SPEC NO=29396
##MOLFORM=C21 H32 O2
##MW=316
##$NIST SOURCE=MSDC
##XUNITS=M/Z
##YUNITS=RELATIVE INTENSITY
##XFACTOR=1
##YFACTOR=1
##FIRSTX=15
##LASTX=318
##FIRSTY=333
##MAXX=318
##MINX=15
##MAXY=9999
##MINY=20
##NPOINTS=213
##PEAK TABLE=(XY..XY)
15,333 17,98 18,373 27,392
28,137 29,725 30,39 31,137
39,627 40,118 41,2706 42,157
43,745 44,118 45,255 51,137
52,59 53,1216 54,137 55,2392
56,157 57,235 58,39 59,686
63,20 65,549 66,255 67,1666
68,216 69,902 70,39 71,137
77,1549 78,431 79,4156 80,980
81,4999 82,471 83,353 84,39
85,196 86,20 87,118 88,157
89,39 91,3529 92,1294 93,4901
94,1666 95,2372 96,274 97,353
98,39 99,98 100,39 101,725
102,118 103,392 104,255 105,4901
106,1627 107,4509 108,980 109,2157
110,235 111,157 112,20 113,118
114,373 115,490 116,235 117,1118
118,549 119,6568 120,2039 121,9999
122,1412 123,1137 124,157 125,118
127,157 128,431 129,490 130,235
131,1451 132,608 133,3764 134,4294
135,3706 136,765 137,353 138,39
139,157 141,157 142,118 143,431
144,196 145,1451 146,1059 147,4019
148,3764 149,1647 150,235 151,216
152,39 153,353 154,39 155,157
156,118 157,392 158,235 159,1823
160,980 161,3843 162,902 163,921
164,235 165,235 166,118 167,157
168,137 169,274 170,59 171,353
172,216 173,1020 174,725 175,8823
176,1412 177,255 178,39 179,39
180,333 181,1470 182,196 183,235
184,39 185,1078 186,353 187,1647
188,725 189,647 190,137 191,59
192,39 193,157 194,59 195,137
196,118 197,157 198,39 199,823
200,784 201,2196 202,549 203,490
204,98 207,196 208,39 209,39
211,78 213,353 214,196 215,235
216,137 217,39 219,98 220,235
221,549 222,176 223,98 224,137
225,39 227,549 228,314 229,235
230,39 233,157 234,353 235,353
236,39 237,20 241,3686 242,745
243,98 245,588 246,157 247,98
248,137 251,39 255,176 256,2078
257,4235 258,823 259,510 260,1470
261,490 262,59 269,353 270,59
272,59 273,196 274,39 284,451
285,157 287,353 288,157 301,2431
302,549 303,39 316,7627 317,2098
318,314
##END=
