##TITLE=2,3-Quinoxalinedione, 1,4-dihydro-
##JCAMP-DX=4.24
##DATA TYPE=MASS SPECTRUM
##ORIGIN=Japan AIST/NIMC Database- Spectrum MS-NW-3337
##OWNER=NIST Mass Spectrometry Data Center
Collection (C) 2014 copyright by the U.S. Secretary of Commerce
on behalf of the United States of America. All rights reserved.
##CAS REGISTRY NO=15804-19-0
##$NIST MASS SPEC NO=231770
##MOLFORM=C8 H6 N2 O2
##MW=162
##$NIST SOURCE=MSDC
##XUNITS=M/Z
##YUNITS=RELATIVE INTENSITY
##XFACTOR=1
##YFACTOR=1
##FIRSTX=12
##LASTX=165
##FIRSTY=10
##MAXX=165
##MINX=12
##MAXY=9999
##MINY=10
##NPOINTS=100
##PEAK TABLE=(XY..XY)
12,10 16,10 25,30 26,269
27,419 28,639 29,80 30,10
31,10 32,10 36,40 37,389
38,619 39,589 40,169 41,149
42,30 43,50 44,139 45,20
48,20 49,119 50,659 51,1199
52,1929 53,749 54,169 55,50
56,10 57,10 58,60 59,10
60,30 61,179 62,429 63,799
64,699 65,339 66,80 67,669
68,10 69,10 70,10 71,10
72,40 73,30 74,99 75,229
76,359 77,319 78,989 79,2939
80,359 81,70 83,10 84,10
86,30 87,50 88,119 89,409
90,419 91,159 92,50 93,10
97,10 99,10 100,10 101,20
102,20 103,40 104,99 105,1829
106,5199 107,409 108,20 110,10
111,10 112,10 115,30 116,829
117,90 118,90 119,20 120,10
128,50 129,10 132,20 133,459
134,5689 135,509 136,40 144,1989
145,199 146,40 160,90 161,70
162,9999 163,969 164,90 165,10
##END=
