##TITLE=1,2,4-Cyclopentanetrione
##JCAMP-DX=4.24
##DATA TYPE=MASS SPECTRUM
##ORIGIN=M. V. ANDEWALLE
##OWNER=NIST Mass Spectrometry Data Center
Collection (C) 2014 copyright by the U.S. Secretary of Commerce
on behalf of the United States of America. All rights reserved.
##CAS REGISTRY NO=15849-14-6
##$NIST MASS SPEC NO=41115
##MOLFORM=C5 H4 O3
##MW=112
##$NIST SOURCE=MSDC
##XUNITS=M/Z
##YUNITS=RELATIVE INTENSITY
##XFACTOR=1
##YFACTOR=1
##FIRSTX=37
##LASTX=113
##FIRSTY=220
##MAXX=113
##MINX=37
##MAXY=9999
##MINY=100
##NPOINTS=19
##PEAK TABLE=(XY..XY)
37,220 38,220 39,360 40,160
41,1450 42,9999 43,6800 44,270
53,430 55,860 56,180 67,230
68,110 69,5400 70,2900 71,260
84,100 112,9999 113,620
##END=
