##TITLE=Perfluoro-2-methyl-2-pentene
##JCAMP-DX=4.24
##DATA TYPE=MASS SPECTRUM
##ORIGIN=S.Huang, Org.Mass Spectrom. 24, 1065 (1989)
##OWNER=NIST Mass Spectrometry Data Center
Collection (C) 2014 copyright by the U.S. Secretary of Commerce
on behalf of the United States of America. All rights reserved.
##CAS REGISTRY NO=1584-03-8
##$NIST MASS SPEC NO=279735
##MOLFORM=C6 F12
##MW=300
##$NIST SOURCE=MSDC
##XUNITS=M/Z
##YUNITS=RELATIVE INTENSITY
##XFACTOR=1
##YFACTOR=1
##FIRSTX=69
##LASTX=282
##FIRSTY=2472
##MAXX=282
##MINX=69
##MAXY=9999
##MINY=90
##NPOINTS=24
##PEAK TABLE=(XY..XY)
69,2472 70,280 71,280 74,230
93,1001 100,330 105,230 112,280
113,230 119,280 124,280 131,230
143,851 151,230 162,330 175,90
181,9999 182,520 193,420 212,661
231,4004 232,380 281,6286 282,420
##END=
