##TITLE=2-Chloro-N,N-diethylacetoacetamide
##JCAMP-DX=4.24
##DATA TYPE=MASS SPECTRUM
##ORIGIN=NIST Mass Spectrometry Data Center, 1994
##OWNER=NIST Mass Spectrometry Data Center
Collection (C) 2014 copyright by the U.S. Secretary of Commerce
on behalf of the United States of America. All rights reserved.
##CAS REGISTRY NO=15844-87-8
##$NIST MASS SPEC NO=135144
##MOLFORM=C8 H14 Cl N O2
##MW=191
##$NIST SOURCE=MSDC
##XUNITS=M/Z
##YUNITS=RELATIVE INTENSITY
##XFACTOR=1
##YFACTOR=1
##FIRSTX=12
##LASTX=191
##FIRSTY=15
##MAXX=191
##MINX=12
##MAXY=9999
##MINY=15
##NPOINTS=100
##PEAK TABLE=(XY..XY)
12,15 13,58 14,246 15,2146
16,72 17,17 18,374 26,479
27,3044 28,2748 29,4191 30,1215
31,95 35,46 36,41 37,50
38,144 39,349 40,224 41,914
42,3356 43,6862 44,3992 45,153
47,30 48,110 49,192 50,62
51,100 52,79 53,91 54,232
55,307 56,1610 57,551 58,5480
59,201 61,37 62,41 63,79
64,139 65,40 66,54 67,63
68,130 69,626 70,379 71,37
72,9999 73,458 74,69 75,65
76,286 77,130 78,100 79,41
82,34 84,126 85,635 86,259
87,28 88,33 90,28 92,158
94,52 98,53 100,2211 101,155
103,38 105,183 106,375 107,76
108,132 112,75 114,3700 115,270
118,22 119,72 120,94 121,94
122,42 123,28 128,69 134,123
136,48 140,100 141,19 142,43
149,1005 150,100 151,384 152,38
153,23 156,1176 157,239 174,46
176,203 177,26 178,58 191,50
##END=
