##TITLE=3-Hexene, 2-methyl-, (Z)-
##JCAMP-DX=4.24
##DATA TYPE=MASS SPECTRUM
##ORIGIN=NIST Mass Spectrometry Data Center, 1990.
##OWNER=NIST Mass Spectrometry Data Center
Collection (C) 2014 copyright by the U.S. Secretary of Commerce
on behalf of the United States of America. All rights reserved.
##CAS REGISTRY NO=15840-60-5
##$NIST MASS SPEC NO=113668
##MOLFORM=C7 H14
##MW=98
##$NIST SOURCE=MSDC
##XUNITS=M/Z
##YUNITS=RELATIVE INTENSITY
##XFACTOR=1
##YFACTOR=1
##FIRSTX=14
##LASTX=99
##FIRSTY=286
##MAXX=99
##MINX=14
##MAXY=9999
##MINY=172
##NPOINTS=32
##PEAK TABLE=(XY..XY)
14,286 15,667 26,284 27,2578
28,1790 29,1276 32,377 38,419
39,3743 40,848 41,8225 42,678
43,1400 50,472 51,677 52,320
53,1235 55,8382 56,4552 57,405
63,172 65,388 66,191 67,1182
69,9999 70,1113 77,209 79,279
81,177 83,1503 98,3045 99,290
##END=
