##TITLE=Octane, 4,5-dimethyl-
##JCAMP-DX=4.24
##DATA TYPE=MASS SPECTRUM
##ORIGIN=Japan AIST/NIMC Database- Spectrum MS-IW-5294
##OWNER=NIST Mass Spectrometry Data Center
Collection (C) 2014 copyright by the U.S. Secretary of Commerce
on behalf of the United States of America. All rights reserved.
##CAS REGISTRY NO=15869-96-2
##$NIST MASS SPEC NO=237186
##MOLFORM=C10 H22
##MW=142
##$NIST SOURCE=MSDC
##XUNITS=M/Z
##YUNITS=RELATIVE INTENSITY
##XFACTOR=1
##YFACTOR=1
##FIRSTX=15
##LASTX=143
##FIRSTY=10
##MAXX=143
##MINX=15
##MAXY=9999
##MINY=10
##NPOINTS=54
##PEAK TABLE=(XY..XY)
15,10 26,30 27,919 28,80
29,1449 30,30 38,20 39,689
40,109 41,2709 42,1709 43,8879
44,379 45,50 50,10 51,50
52,20 53,229 54,90 55,3139
56,509 57,7319 58,329 63,10
65,40 66,10 67,99 68,60
69,579 70,9999 71,7169 72,359
73,30 77,40 78,10 79,40
81,20 82,10 83,70 84,90
85,309 86,30 97,99 98,749
99,1459 100,109 111,10 112,70
113,189 114,10 115,10 127,40
142,329 143,30
##END=
