##TITLE=Octane, 4-ethyl-
##JCAMP-DX=4.24
##DATA TYPE=MASS SPECTRUM
##ORIGIN=NIST Mass Spectrometry Data Center, 1990.
##OWNER=NIST Mass Spectrometry Data Center
Collection (C) 2014 copyright by the U.S. Secretary of Commerce
on behalf of the United States of America. All rights reserved.
##CAS REGISTRY NO=15869-86-0
##$NIST MASS SPEC NO=114047
##MOLFORM=C10 H22
##MW=142
##$NIST SOURCE=MSDC
##XUNITS=M/Z
##YUNITS=RELATIVE INTENSITY
##XFACTOR=1
##YFACTOR=1
##FIRSTX=27
##LASTX=142
##FIRSTY=1419
##MAXX=142
##MINX=27
##MAXY=9999
##MINY=97
##NPOINTS=34
##PEAK TABLE=(XY..XY)
27,1419 28,548 29,1960 39,1411
41,4721 42,1189 43,5616 44,238
51,148 52,97 53,512 54,298
55,2132 56,2215 57,9999 58,414
65,114 67,278 68,155 69,1043
70,1138 71,4376 72,231 77,104
82,150 83,494 84,1992 85,2014
86,114 98,1812 99,369 112,2496
113,778 142,296
##END=
