##TITLE=Octane, 3,4-dimethyl-
##JCAMP-DX=4.24
##DATA TYPE=MASS SPECTRUM
##ORIGIN=D.HENNEBERG, MAX-PLANCK INSTITUTE, MULHEIM, WEST GERMANY
##OWNER=NIST Mass Spectrometry Data Center
Collection (C) 2014 copyright by the U.S. Secretary of Commerce
on behalf of the United States of America. All rights reserved.
##CAS REGISTRY NO=15869-92-8
##$NIST MASS SPEC NO=61817
##MOLFORM=C10 H22
##MW=142
##$NIST SOURCE=MSDC
##XUNITS=M/Z
##YUNITS=RELATIVE INTENSITY
##XFACTOR=1
##YFACTOR=1
##FIRSTX=25
##LASTX=142
##FIRSTY=3
##MAXX=142
##MINX=25
##MAXY=9999
##MINY=3
##NPOINTS=38
##PEAK TABLE=(XY..XY)
25,3 26,34 27,907 29,1877
30,57 36,13 38,11 39,557
40,9 41,2596 42,673 43,9999
44,140 45,7 51,27 52,13
53,119 54,76 55,946 56,3711
57,3968 58,153 65,13 67,35
68,3 69,654 70,93 71,1056
72,68 83,29 84,2356 85,2465
86,166 98,20 112,38 113,253
114,7 142,64
##END=
