##TITLE=Heptane, 3-ethyl-
##JCAMP-DX=4.24
##DATA TYPE=MASS SPECTRUM
##ORIGIN=NIST Mass Spectrometry Data Center, 1990.
##OWNER=NIST Mass Spectrometry Data Center
Collection (C) 2014 copyright by the U.S. Secretary of Commerce
on behalf of the United States of America. All rights reserved.
##CAS REGISTRY NO=15869-80-4
##$NIST MASS SPEC NO=114031
##MOLFORM=C9 H20
##MW=128
##$NIST SOURCE=MSDC
##XUNITS=M/Z
##YUNITS=RELATIVE INTENSITY
##XFACTOR=1
##YFACTOR=1
##FIRSTX=27
##LASTX=128
##FIRSTY=1469
##MAXX=128
##MINX=27
##MAXY=9999
##MINY=70
##NPOINTS=29
##PEAK TABLE=(XY..XY)
27,1469 28,603 29,1949 39,1485
41,3979 42,1276 43,4411 44,194
50,70 51,157 52,84 53,502
54,285 55,2109 56,1446 57,9999
58,471 65,102 67,167 68,91
69,611 70,2269 71,1590 83,111
84,199 85,226 98,3428 99,910
128,212
##END=
