##TITLE=Octane, 2,5-dimethyl-
##JCAMP-DX=4.24
##DATA TYPE=MASS SPECTRUM
##ORIGIN=TECH. UNIVERSITY OF KARLSRUHE, KARLSRUHE, W. GERMANY
##OWNER=NIST Mass Spectrometry Data Center
Collection (C) 2014 copyright by the U.S. Secretary of Commerce
on behalf of the United States of America. All rights reserved.
##CAS REGISTRY NO=15869-89-3
##$NIST MASS SPEC NO=34611
##MOLFORM=C10 H22
##MW=142
##$NIST SOURCE=MSDC
##XUNITS=M/Z
##YUNITS=RELATIVE INTENSITY
##XFACTOR=1
##YFACTOR=1
##FIRSTX=12
##LASTX=144
##FIRSTY=1
##MAXX=144
##MINX=12
##MAXY=9999
##MINY=1
##NPOINTS=90
##PEAK TABLE=(XY..XY)
12,1 13,1 14,4 15,45
16,6 19,1 20,1 24,1
25,3 26,58 27,986 28,163
29,1300 30,31 31,1 32,2
36,3 37,9 38,17 39,593
40,116 41,2290 42,712 43,7750
44,258 45,19 46,3 47,2
48,1 49,2 50,24 51,33
52,16 53,141 54,61 55,1110
56,1080 57,9999 58,437 59,8
62,2 63,5 64,2 65,18
66,7 67,47 68,34 69,339
70,3010 71,3560 72,193 73,17
74,1 75,1 76,1 77,13
78,3 79,11 80,2 81,9
82,5 83,78 84,90 85,587
86,39 87,2 91,5 92,1
93,1 94,1 95,3 96,3
97,15 98,793 99,1410 100,106
111,4 112,67 113,96 114,8
115,1 126,29 127,148 128,14
129,1 140,16 141,8 142,287
143,31 144,1
##END=
