##TITLE=Octane, 2,2-dimethyl-
##JCAMP-DX=4.24
##DATA TYPE=MASS SPECTRUM
##ORIGIN=NIST Mass Spectrometry Data Center, 1990.
##OWNER=NIST Mass Spectrometry Data Center
Collection (C) 2014 copyright by the U.S. Secretary of Commerce
on behalf of the United States of America. All rights reserved.
##CAS REGISTRY NO=15869-87-1
##$NIST MASS SPEC NO=113555
##MOLFORM=C10 H22
##MW=142
##$NIST SOURCE=MSDC
##XUNITS=M/Z
##YUNITS=RELATIVE INTENSITY
##XFACTOR=1
##YFACTOR=1
##FIRSTX=15
##LASTX=128
##FIRSTY=59
##MAXX=128
##MINX=15
##MAXY=9999
##MINY=32
##NPOINTS=33
##PEAK TABLE=(XY..XY)
15,59 27,778 28,369 29,1394
32,48 39,1043 41,4178 42,459
43,2181 44,91 51,81 52,44
53,280 54,122 55,1310 56,6157
57,9999 58,460 65,48 67,109
68,41 69,393 70,41 71,2157
72,124 77,34 79,32 83,66
84,257 85,1275 86,87 127,490
128,48
##END=
