##TITLE=Hexadecane, 6,11-dipentyl-
##JCAMP-DX=4.24
##DATA TYPE=MASS SPECTRUM
##OWNER=NIST Mass Spectrometry Data Center
Collection (C) 2014 copyright by the U.S. Secretary of Commerce
on behalf of the United States of America. All rights reserved.
##CAS REGISTRY NO=15874-03-0
##$NIST MASS SPEC NO=16321
##MOLFORM=C26 H54
##MW=366
##$NIST SOURCE=MSDC
##XUNITS=M/Z
##YUNITS=RELATIVE INTENSITY
##XFACTOR=1
##YFACTOR=1
##FIRSTX=12
##LASTX=367
##FIRSTY=70
##MAXX=367
##MINX=12
##MAXY=9999
##MINY=10
##NPOINTS=157
##PEAK TABLE=(XY..XY)
12,70 13,90 15,530 16,340
19,30 20,20 24,70 25,230
26,1331 27,2933 29,3073 30,180
31,10 36,20 37,150 38,270
39,1631 40,440 41,5515 42,2132
43,8488 44,320 49,20 50,90
51,110 52,60 53,380 54,510
55,1501 56,951 57,9999 58,460
59,10 61,10 62,20 63,10
65,40 66,30 67,530 68,400
69,2462 70,1081 71,5655 72,310
73,10 77,40 78,20 79,90
80,30 81,280 82,250 83,1391
84,550 85,4134 86,270 87,10
91,30 92,10 93,20 94,10
95,150 96,190 97,1041 98,320
99,1161 100,90 101,10 105,10
106,10 107,10 108,10 109,50
110,70 111,440 112,601 113,811
114,70 123,20 124,30 125,200
126,170 127,390 128,40 137,10
138,50 139,110 140,110 141,310
142,30 151,10 152,40 153,100
154,2502 155,1111 156,110 157,10
165,10 166,30 167,100 168,300
169,290 170,40 179,10 180,10
181,20 182,100 183,200 184,30
194,10 195,10 196,30 197,160
198,30 199,10 208,10 209,10
210,190 211,701 212,120 213,10
222,40 223,170 224,70 225,120
226,20 236,10 237,10 238,250
239,140 240,20 251,10 252,40
253,50 254,10 266,10 267,30
268,10 280,20 281,70 282,10
294,971 295,2963 296,641 297,70
298,10 306,10 307,10 308,40
309,60 310,10 322,10 323,20
324,10 337,10 365,20 366,10
367,10
##END=
