##TITLE=p-Undecyloxybenzoic acid
##JCAMP-DX=4.24
##DATA TYPE=MASS SPECTRUM
##ORIGIN=Pu Leung, NIH, Bethesda, MD
##OWNER=NIST Mass Spectrometry Data Center
Collection (C) 2014 copyright by the U.S. Secretary of Commerce
on behalf of the United States of America. All rights reserved.
##CAS REGISTRY NO=15872-44-3
##$NIST MASS SPEC NO=212851
##MOLFORM=C18 H28 O3
##MW=292
##$NIST SOURCE=MSDC
##XUNITS=M/Z
##YUNITS=RELATIVE INTENSITY
##XFACTOR=1
##YFACTOR=1
##FIRSTX=41
##LASTX=295
##FIRSTY=6070
##MAXX=295
##MINX=41
##MAXY=9999
##MINY=3
##NPOINTS=115
##PEAK TABLE=(XY..XY)
41,6070 43,9999 44,84 45,66
47,64 48,26 49,305 50,171
51,315 53,746 54,93 55,5906
56,2716 57,5776 58,267 59,4
60,12 61,3 62,49 63,267
65,1732 66,38 67,753 68,367
69,3202 70,2108 71,2545 72,115
74,44 75,107 76,215 77,356
78,89 79,286 81,532 82,473
83,1456 84,1227 85,1336 86,136
88,23 89,6 91,131 92,138
93,368 94,27 95,481 96,257
97,1250 98,516 99,213 100,14
101,5 103,71 104,45 105,71
106,7 107,150 109,131 110,170
111,738 112,256 113,63 115,16
117,4 118,5 119,49 120,50
121,2463 122,160 123,68 124,41
125,303 126,264 127,24 129,6
131,11 132,5 133,31 135,35
137,17 138,6797 139,4558 140,374
141,42 145,3 147,20 149,10
151,217 152,136 153,60 154,241
155,30 159,3 161,7 163,4
164,19 165,17 167,6 175,4
177,4 178,3 179,29 180,4
192,4 193,4 273,4 275,95
276,17 289,18 290,9 292,2377
293,489 294,47 295,3
##END=
