##TITLE=p-Nonyloxybenzoic acid
##JCAMP-DX=4.24
##DATA TYPE=MASS SPECTRUM
##ORIGIN=NIST Mass Spectrometry Data Center, 1994
##OWNER=NIST Mass Spectrometry Data Center
Collection (C) 2014 copyright by the U.S. Secretary of Commerce
on behalf of the United States of America. All rights reserved.
##CAS REGISTRY NO=15872-43-2
##$NIST MASS SPEC NO=135388
##MOLFORM=C16 H24 O3
##MW=264
##$NIST SOURCE=MSDC
##XUNITS=M/Z
##YUNITS=RELATIVE INTENSITY
##XFACTOR=1
##YFACTOR=1
##FIRSTX=17
##LASTX=265
##FIRSTY=83
##MAXX=265
##MINX=17
##MAXY=9999
##MINY=47
##NPOINTS=68
##PEAK TABLE=(XY..XY)
17,83 27,1287 29,2785 38,205
39,1539 41,5011 42,978 43,5204
44,47 45,54 50,218 51,267
53,573 54,259 55,2723 56,1123
57,2179 58,90 62,79 63,329
64,288 65,1527 66,151 67,356
68,187 69,999 70,1035 71,1430
72,119 73,118 74,103 75,178
76,261 77,411 78,96 79,301
80,96 81,485 82,290 83,713
84,790 85,673 91,145 92,200
93,454 94,119 95,401 96,138
97,788 98,367 103,85 104,108
105,141 107,127 109,145 110,125
111,78 119,63 121,3494 122,302
123,105 126,397 138,9999 139,4557
140,392 151,239 264,1837 265,271
##END=
