##TITLE=Benzene, 1-methyl-2-(2-propenyl)-
##JCAMP-DX=4.24
##DATA TYPE=MASS SPECTRUM
##OWNER=NIST Mass Spectrometry Data Center
Collection (C) 2014 copyright by the U.S. Secretary of Commerce
on behalf of the United States of America. All rights reserved.
##CAS REGISTRY NO=1587-04-8
##$NIST MASS SPEC NO=2982
##MOLFORM=C10 H12
##MW=132
##$NIST SOURCE=MSDC
##XUNITS=M/Z
##YUNITS=RELATIVE INTENSITY
##XFACTOR=1
##YFACTOR=1
##FIRSTX=26
##LASTX=134
##FIRSTY=20
##MAXX=134
##MINX=26
##MAXY=9999
##MINY=10
##NPOINTS=66
##PEAK TABLE=(XY..XY)
26,20 27,290 28,20 29,20
37,20 38,80 39,731 40,60
41,140 49,10 50,240 51,691
52,180 53,240 54,30 55,20
57,50 58,100 61,40 62,140
63,510 64,581 65,921 66,60
67,10 73,10 74,110 75,110
76,90 77,911 78,360 79,380
80,40 85,20 86,40 87,50
88,20 89,280 90,60 91,2172
92,250 93,20 98,20 99,10
101,40 102,170 103,480 104,370
105,1201 106,110 113,20 114,30
115,2742 116,1061 117,9999 118,981
119,50 126,50 127,230 128,490
129,460 130,110 131,1872 132,6156
133,661 134,40
##END=
