##TITLE=Pentanal, 3-methyl-
##JCAMP-DX=4.24
##DATA TYPE=MASS SPECTRUM
##OWNER=NIST Mass Spectrometry Data Center
Collection (C) 2014 copyright by the U.S. Secretary of Commerce
on behalf of the United States of America. All rights reserved.
##CAS REGISTRY NO=15877-57-3
##$NIST MASS SPEC NO=1052
##MOLFORM=C6 H12 O
##MW=100
##$NIST SOURCE=MSDC
##XUNITS=M/Z
##YUNITS=RELATIVE INTENSITY
##XFACTOR=1
##YFACTOR=1
##FIRSTX=27
##LASTX=100
##FIRSTY=1631
##MAXX=100
##MINX=27
##MAXY=9999
##MINY=40
##NPOINTS=26
##PEAK TABLE=(XY..XY)
27,1631 28,370 29,2813 31,70
39,1441 40,220 41,4484 42,671
43,3853 44,2192 45,781 54,70
55,1001 56,9999 57,2042 58,1371
67,300 69,190 70,40 71,1441
72,410 81,70 82,260 85,190
99,40 100,150
##END=
