##TITLE=Citric acid, trimethyl ester
##JCAMP-DX=4.24
##DATA TYPE=MASS SPECTRUM
##ORIGIN=Japan AIST/NIMC Database- Spectrum MS-NW-4231
##OWNER=NIST Mass Spectrometry Data Center
Collection (C) 2014 copyright by the U.S. Secretary of Commerce
on behalf of the United States of America. All rights reserved.
##CAS REGISTRY NO=1587-20-8
##$NIST MASS SPEC NO=232116
##MOLFORM=C9 H14 O7
##MW=234
##$NIST SOURCE=MSDC
##XUNITS=M/Z
##YUNITS=RELATIVE INTENSITY
##XFACTOR=1
##YFACTOR=1
##FIRSTX=15
##LASTX=235
##FIRSTY=1959
##MAXX=235
##MINX=15
##MAXY=9999
##MINY=10
##NPOINTS=87
##PEAK TABLE=(XY..XY)
15,1959 16,20 17,10 18,70
26,30 27,219 28,239 29,599
30,40 31,349 32,30 33,80
38,20 39,119 40,50 41,60
42,819 43,1719 44,90 45,169
47,50 53,20 55,129 56,249
57,889 58,40 59,2249 60,60
61,20 67,20 68,20 69,789
70,30 71,30 72,10 73,20
74,489 75,80 83,20 84,169
85,30 87,20 88,50 89,10
98,30 99,20 100,10 101,6699
102,339 103,50 111,479 112,30
113,20 114,40 115,40 116,90
117,40 125,80 126,40 127,10
129,169 130,10 131,20 132,10
133,40 139,10 142,20 143,9999
144,689 145,109 153,429 154,30
156,10 157,50 158,10 161,149
162,10 174,10 175,2449 176,189
177,30 184,10 185,149 186,10
189,10 203,20 235,10
##END=
