##TITLE=Butanedioic acid, hydroxy-, dimethyl ester
##JCAMP-DX=4.24
##DATA TYPE=MASS SPECTRUM
##ORIGIN=W. KELLY UNILEVER RESEARCH COLWORTH/WELWYN, BEDFORD U.K.
##OWNER=NIST Mass Spectrometry Data Center
Collection (C) 2014 copyright by the U.S. Secretary of Commerce
on behalf of the United States of America. All rights reserved.
##CAS REGISTRY NO=1587-15-1
##$NIST MASS SPEC NO=35511
##MOLFORM=C6 H10 O5
##MW=162
##$NIST SOURCE=MSDC
##XUNITS=M/Z
##YUNITS=RELATIVE INTENSITY
##XFACTOR=1
##YFACTOR=1
##FIRSTX=41
##LASTX=131
##FIRSTY=310
##MAXX=131
##MINX=41
##MAXY=9999
##MINY=60
##NPOINTS=37
##PEAK TABLE=(XY..XY)
41,310 42,1100 43,7350 45,530
53,190 54,190 55,440 56,90
57,310 58,120 59,2970 60,120
61,4850 62,120 67,60 69,220
71,9070 72,280 73,90 74,1090
75,90 77,90 82,80 83,150
85,620 87,120 97,60 101,150
102,750 103,9999 104,460 105,150
106,60 113,1620 114,180 130,400
131,500
##END=
