##TITLE=2-o-Tolylbenzothiazole
##JCAMP-DX=4.24
##DATA TYPE=MASS SPECTRUM
##ORIGIN=NIST Mass Spectrometry Data Center, 1994
##OWNER=NIST Mass Spectrometry Data Center
Collection (C) 2014 copyright by the U.S. Secretary of Commerce
on behalf of the United States of America. All rights reserved.
##CAS REGISTRY NO=15903-58-9
##$NIST MASS SPEC NO=135440
##MOLFORM=C14 H11 N S
##MW=225
##$NIST SOURCE=MSDC
##XUNITS=M/Z
##YUNITS=RELATIVE INTENSITY
##XFACTOR=1
##YFACTOR=1
##FIRSTX=14
##LASTX=228
##FIRSTY=23
##MAXX=228
##MINX=14
##MAXY=9999
##MINY=14
##NPOINTS=139
##PEAK TABLE=(XY..XY)
14,23 15,38 17,30 18,39
23,14 26,64 27,305 28,79
32,23 34,16 37,162 38,593
39,2241 40,166 41,121 44,40
45,919 46,20 47,59 50,737
51,904 52,253 53,72 54,22
57,105 58,729 59,27 60,38
61,144 62,579 63,2199 64,640
65,1433 66,93 67,17 68,17
69,3028 70,229 71,192 73,63
74,273 75,399 76,331 77,470
78,123 81,354 82,1279 83,154
84,81 85,56 87,275 89,1530
90,605 91,1170 92,120 93,202
94,76 95,97 96,61 98,92
99,244 101,54 102,111 103,59
104,71 105,131 106,83 107,185
108,856 109,418 110,83 111,54
112,611 113,739 116,863 117,149
120,81 121,299 122,160 123,39
126,36 127,55 128,29 133,38
134,105 135,41 136,22 139,82
140,76 141,21 145,42 146,104
147,38 148,140 149,38 150,40
151,75 152,181 153,67 154,38
159,29 160,43 163,57 164,108
165,250 166,75 167,34 170,24
171,41 172,24 173,24 176,15
177,49 178,122 179,104 180,138
181,24 183,30 184,47 185,21
186,55 190,186 191,114 192,61
193,85 195,64 196,81 197,166
198,69 199,50 209,70 210,77
220,16 223,2444 224,9999 225,8733
226,1728 227,503 228,56
##END=
