##TITLE=Methyl 3-(methylthio)-(E)-2-propenoate
##JCAMP-DX=4.24
##DATA TYPE=MASS SPECTRUM
##ORIGIN=G.Takeoka ET AL,J.Agric.Food Chem., 39,1848(1991)
##OWNER=NIST Mass Spectrometry Data Center
Collection (C) 2014 copyright by the U.S. Secretary of Commerce
on behalf of the United States of America. All rights reserved.
##CAS REGISTRY NO=15904-85-5
##$NIST MASS SPEC NO=293052
##MOLFORM=C5 H8 O2 S
##MW=132
##$NIST SOURCE=MSDC
##XUNITS=M/Z
##YUNITS=RELATIVE INTENSITY
##XFACTOR=1
##YFACTOR=1
##FIRSTX=39
##LASTX=134
##FIRSTY=641
##MAXX=134
##MINX=39
##MAXY=9999
##MINY=80
##NPOINTS=42
##PEAK TABLE=(XY..XY)
39,641 41,230 44,310 45,6196
46,1241 47,1601 48,210 53,691
54,170 55,430 56,180 57,1912
58,4174 59,1241 60,240 61,240
69,270 71,701 72,2182 73,5575
74,621 75,410 77,190 83,110
85,2572 86,510 87,410 89,280
91,80 99,360 100,3463 101,9999
102,681 103,581 105,140 115,190
117,5525 118,250 119,300 132,6796
133,500 134,270
##END=
