##TITLE=3',4'-Dichlorocyclohexanecarboxanilide
##JCAMP-DX=4.24
##DATA TYPE=MASS SPECTRUM
##ORIGIN=NIST Mass Spectrometry Data Center, 1994
##OWNER=NIST Mass Spectrometry Data Center
Collection (C) 2014 copyright by the U.S. Secretary of Commerce
on behalf of the United States of America. All rights reserved.
##CAS REGISTRY NO=15907-85-4
##$NIST MASS SPEC NO=135820
##MOLFORM=C13 H15 Cl2 N O
##MW=271
##$NIST SOURCE=MSDC
##XUNITS=M/Z
##YUNITS=RELATIVE INTENSITY
##XFACTOR=1
##YFACTOR=1
##FIRSTX=15
##LASTX=275
##FIRSTY=64
##MAXX=275
##MINX=15
##MAXY=9999
##MINY=11
##NPOINTS=129
##PEAK TABLE=(XY..XY)
15,64 17,29 18,88 26,89
27,1753 28,554 29,1176 30,27
35,40 36,57 37,79 38,236
39,2211 40,399 41,4880 42,354
43,291 44,52 49,87 50,142
51,257 52,219 53,861 54,595
55,8732 56,455 57,24 61,126
62,347 63,594 64,143 65,210
66,88 67,794 68,169 69,154
70,19 71,24 72,111 73,314
74,139 75,298 76,46 77,174
78,53 79,293 80,47 81,425
82,19 83,9999 84,730 85,107
86,38 87,39 88,126 89,149
90,354 91,87 92,46 93,15
94,16 95,25 96,26 97,217
98,104 99,261 100,72 101,83
102,29 107,88 109,338 110,785
111,1114 112,118 113,14 114,12
124,354 125,418 126,276 127,233
128,73 129,40 130,16 133,553
134,102 135,359 136,75 137,64
138,30 139,17 145,181 146,34
147,120 148,18 149,27 151,19
153,25 154,26 156,11 161,5363
162,758 163,3534 164,388 165,578
166,74 167,25 172,20 174,58
176,33 178,15 186,15 187,87
188,64 189,67 190,55 191,16
200,58 202,41 203,26 216,82
217,16 218,39 236,17 242,15
271,800 272,144 273,533 274,83
275,101
##END=
