##TITLE=Methyl 3-(methylthio)-(Z)-2-propenoate
##JCAMP-DX=4.24
##DATA TYPE=MASS SPECTRUM
##ORIGIN=G.Takeoka ET AL,J.Agric.Food Chem.,39,1848(1991)
##OWNER=NIST Mass Spectrometry Data Center
Collection (C) 2014 copyright by the U.S. Secretary of Commerce
on behalf of the United States of America. All rights reserved.
##CAS REGISTRY NO=15904-84-4
##$NIST MASS SPEC NO=293053
##MOLFORM=C5 H8 O2 S
##MW=132
##$NIST SOURCE=MSDC
##XUNITS=M/Z
##YUNITS=RELATIVE INTENSITY
##XFACTOR=1
##YFACTOR=1
##FIRSTX=39
##LASTX=134
##FIRSTY=841
##MAXX=134
##MINX=39
##MAXY=9999
##MINY=140
##NPOINTS=42
##PEAK TABLE=(XY..XY)
39,841 41,460 45,6846 46,1411
47,1862 48,270 51,190 53,811
54,230 55,460 56,250 57,1541
58,4764 59,1451 60,340 61,420
68,140 69,420 71,661 72,2682
73,6256 74,871 75,510 77,250
85,2662 86,350 87,571 89,550
99,390 100,4594 101,9999 102,891
103,601 105,240 106,150 115,340
117,6105 118,390 119,350 132,7517
133,510 134,350
##END=
