##TITLE=3-Hexene, 2,5-dimethyl-
##JCAMP-DX=4.24
##DATA TYPE=MASS SPECTRUM
##ORIGIN=NIST Mass Spectrometry Data Center, 1990.
##OWNER=NIST Mass Spectrometry Data Center
Collection (C) 2014 copyright by the U.S. Secretary of Commerce
on behalf of the United States of America. All rights reserved.
##CAS REGISTRY NO=15910-22-2
##$NIST MASS SPEC NO=118162
##MOLFORM=C8 H16
##MW=112
##$NIST SOURCE=MSDC
##XUNITS=M/Z
##YUNITS=RELATIVE INTENSITY
##XFACTOR=1
##YFACTOR=1
##FIRSTX=13
##LASTX=113
##FIRSTY=27
##MAXX=113
##MINX=13
##MAXY=9999
##MINY=15
##NPOINTS=55
##PEAK TABLE=(XY..XY)
13,27 14,89 15,518 16,30
18,39 26,248 27,2504 28,567
29,1488 30,36 32,15 37,73
38,336 39,3094 40,780 41,8385
42,685 43,1391 44,60 46,41
50,235 51,528 52,261 53,1147
54,41 55,6326 56,4180 57,1619
58,80 62,54 63,122 64,39
65,287 66,192 67,946 68,1480
69,9999 70,1593 71,75 74,26
77,291 78,80 79,368 80,64
81,392 82,44 83,98 84,67
91,42 95,62 96,47 97,463
98,38 112,1380 113,140
##END=
