##TITLE=3-Butenenitrile, 2-(benzoyloxy)-4-phenyl-
##JCAMP-DX=4.24
##DATA TYPE=MASS SPECTRUM
##OWNER=NIST Mass Spectrometry Data Center
Collection (C) 2014 copyright by the U.S. Secretary of Commerce
on behalf of the United States of America. All rights reserved.
##CAS REGISTRY NO=1591-17-9
##$NIST MASS SPEC NO=12771
##MOLFORM=C17 H13 N O2
##MW=263
##$NIST SOURCE=MSDC
##XUNITS=M/Z
##YUNITS=RELATIVE INTENSITY
##XFACTOR=1
##YFACTOR=1
##FIRSTX=41
##LASTX=264
##FIRSTY=270
##MAXX=264
##MINX=41
##MAXY=9999
##MINY=34
##NPOINTS=37
##PEAK TABLE=(XY..XY)
41,270 42,236 43,338 45,169
50,169 51,845 52,169 57,101
59,236 63,169 65,101 69,68
74,169 75,101 76,169 77,2027
78,270 83,68 89,68 102,101
103,236 105,9999 106,676 113,68
114,540 115,1689 116,405 123,101
131,507 132,68 140,1013 141,2196
142,1182 143,34 182,169 263,1419
264,338
##END=
