##TITLE=2-Naphthalenemethanol
##JCAMP-DX=4.24
##DATA TYPE=MASS SPECTRUM
##ORIGIN=NIST Mass Spectrometry Data Center, 1990.
##OWNER=NIST Mass Spectrometry Data Center
Collection (C) 2014 copyright by the U.S. Secretary of Commerce
on behalf of the United States of America. All rights reserved.
##CAS REGISTRY NO=1592-38-7
##$NIST MASS SPEC NO=113332
##MOLFORM=C11 H10 O
##MW=158
##$NIST SOURCE=MSDC
##XUNITS=M/Z
##YUNITS=RELATIVE INTENSITY
##XFACTOR=1
##YFACTOR=1
##FIRSTX=27
##LASTX=159
##FIRSTY=101
##MAXX=159
##MINX=27
##MAXY=9999
##MINY=72
##NPOINTS=51
##PEAK TABLE=(XY..XY)
27,101 28,201 29,325 31,156
38,103 39,269 50,516 51,757
52,138 58,72 61,124 62,415
63,867 64,233 65,111 70,106
73,90 74,761 75,848 76,490
77,949 78,365 85,96 86,272
87,362 88,120 89,337 98,266
99,186 100,155 101,502 102,709
103,154 113,175 115,1506 116,175
126,1145 127,3679 128,4890 129,9999
130,1369 131,99 139,697 140,425
141,1407 142,228 155,441 156,363
157,1315 158,4305 159,545
##END=
