##TITLE=1,1,3,3-Tetramethyldisilazane
##JCAMP-DX=4.24
##DATA TYPE=MASS SPECTRUM
##ORIGIN=NIST Mass Spectrometry Data Center
##OWNER=NIST Mass Spectrometry Data Center
Collection (C) 2014 copyright by the U.S. Secretary of Commerce
on behalf of the United States of America. All rights reserved.
##CAS REGISTRY NO=15933-59-2
##$NIST MASS SPEC NO=343538
##MOLFORM=C4 H15 N Si2
##MW=133
##$NIST SOURCE=MSDC
##XUNITS=M/Z
##YUNITS=RELATIVE INTENSITY
##XFACTOR=1
##YFACTOR=1
##FIRSTX=15
##LASTX=135
##FIRSTY=651
##MAXX=135
##MINX=15
##MAXY=9999
##MINY=30
##NPOINTS=54
##PEAK TABLE=(XY..XY)
15,651 26,40 27,160 29,440
30,110 31,861 33,30 41,60
42,270 43,1521 44,761 45,1581
46,270 47,40 51,520 52,500
53,90 54,40 55,120 56,240
57,320 59,2262 60,280 61,60
66,240 69,110 70,1101 71,350
72,771 73,2052 74,731 75,110
82,40 84,60 85,200 86,951
87,150 88,210 89,40 100,961
101,160 102,1381 103,160 104,110
114,50 116,3203 118,9999 119,1471
120,721 121,60 130,741 132,2853
133,1702 135,400
##END=
