##TITLE=Benzenesulfonyl chloride, 2,4,5-trichloro-
##JCAMP-DX=4.24
##DATA TYPE=MASS SPECTRUM
##ORIGIN=Japan AIST/NIMC Database- Spectrum MS-NW-1919
##OWNER=NIST Mass Spectrometry Data Center
Collection (C) 2014 copyright by the U.S. Secretary of Commerce
on behalf of the United States of America. All rights reserved.
##CAS REGISTRY NO=15945-07-0
##$NIST MASS SPEC NO=233677
##MOLFORM=C6 H2 Cl4 O2 S
##MW=278
##$NIST SOURCE=MSDC
##XUNITS=M/Z
##YUNITS=RELATIVE INTENSITY
##XFACTOR=1
##YFACTOR=1
##FIRSTX=25
##LASTX=286
##FIRSTY=10
##MAXX=286
##MINX=25
##MAXY=9999
##MINY=10
##NPOINTS=173
##PEAK TABLE=(XY..XY)
25,10 28,109 32,40 35,99
36,149 37,529 38,139 44,80
45,99 47,119 48,299 49,219
50,309 51,10 52,40 53,40
54,159 55,50 56,10 57,20
59,10 60,139 61,419 62,309
63,20 64,389 65,30 66,20
68,60 69,209 70,50 71,409
72,609 73,1129 74,2669 75,179
76,20 79,189 80,20 81,90
82,30 83,159 84,1149 85,209
86,379 87,60 88,50 89,80
90,80 91,40 92,30 93,90
94,99 95,70 96,149 97,369
98,50 99,109 103,60 104,20
105,90 106,80 107,499 108,1829
109,2339 110,689 111,719 112,50
113,10 114,10 115,20 116,20
117,20 118,189 119,209 120,129
121,189 122,189 123,70 127,20
128,10 129,90 130,10 131,90
132,30 133,40 134,20 139,10
140,30 141,60 142,50 143,2679
144,1489 145,1809 146,959 147,339
148,159 149,10 153,10 155,30
157,20 160,20 161,10 162,20
163,30 164,60 165,20 166,50
167,439 168,30 169,419 170,20
171,129 173,20 175,10 176,119
177,20 178,149 179,6669 180,599
181,6249 182,519 183,2049 184,159
185,219 186,10 194,10 195,2039
196,139 197,1939 198,129 199,689
200,50 201,139 203,30 209,10
210,20 211,20 212,20 213,20
214,479 215,50 216,619 217,50
218,299 219,20 220,60 227,119
228,10 229,119 230,10 231,40
243,9919 244,729 245,9999 246,729
247,3529 248,259 249,489 250,30
251,20 258,10 260,20 262,10
278,2889 279,209 280,3829 281,299
282,1959 283,139 284,469 285,40
286,50
##END=
