##TITLE=Phenol, 2,3,4-trichloro-
##JCAMP-DX=4.24
##DATA TYPE=MASS SPECTRUM
##ORIGIN=Japan AIST/NIMC Database- Spectrum MS-NW-3284
##OWNER=NIST Mass Spectrometry Data Center
Collection (C) 2014 copyright by the U.S. Secretary of Commerce
on behalf of the United States of America. All rights reserved.
##CAS REGISTRY NO=15950-66-0
##$NIST MASS SPEC NO=231257
##MOLFORM=C6 H3 Cl3 O
##MW=196
##$NIST SOURCE=MSDC
##XUNITS=M/Z
##YUNITS=RELATIVE INTENSITY
##XFACTOR=1
##YFACTOR=1
##FIRSTX=12
##LASTX=203
##FIRSTY=10
##MAXX=203
##MINX=12
##MAXY=9999
##MINY=10
##NPOINTS=135
##PEAK TABLE=(XY..XY)
12,10 14,10 24,20 25,40
26,80 27,119 28,60 29,159
31,60 32,20 35,159 36,189
37,339 38,159 39,109 40,10
41,269 42,129 43,549 44,20
45,70 47,149 48,929 49,479
50,119 51,30 52,20 53,249
54,30 55,70 56,209 57,399
58,20 59,30 60,229 61,889
62,1169 63,709 64,50 65,40
66,469 67,279 68,50 69,10
70,109 71,319 72,319 73,779
74,219 75,209 76,30 77,20
78,10 79,10 80,649 81,449
82,90 83,239 84,239 85,179
86,70 87,299 88,10 89,119
90,209 91,60 94,40 95,80
96,439 97,4169 98,699 99,1589
100,239 101,40 102,20 106,219
107,399 108,209 109,289 110,60
111,70 113,10 117,10 118,30
119,20 120,20 121,10 123,10
124,30 125,179 126,179 127,60
128,60 129,10 130,20 131,159
132,2129 133,1209 134,1459 135,749
136,279 137,119 138,20 141,40
142,10 143,50 144,30 145,30
146,10 154,10 156,10 158,10
160,3559 161,289 162,2369 163,169
164,449 165,40 166,20 167,309
168,40 169,299 170,40 171,99
172,10 173,10 195,60 196,9929
197,749 198,9999 199,689 200,3029
201,219 202,339 203,20
##END=
