##TITLE=Benzene, 1-methyl-3-hexyl-
##JCAMP-DX=4.24
##DATA TYPE=MASS SPECTRUM
##ORIGIN=V.A.KOPTYUG, ATLAS OF MASS SPECTRA OF ORGANIC COMPOUNDS
##OWNER=NIST Mass Spectrometry Data Center
Collection (C) 2014 copyright by the U.S. Secretary of Commerce
on behalf of the United States of America. All rights reserved.
##CAS REGISTRY NO=1595-03-5
##$NIST MASS SPEC NO=78301
##MOLFORM=C13 H20
##MW=176
##$NIST SOURCE=MSDC
##XUNITS=M/Z
##YUNITS=RELATIVE INTENSITY
##XFACTOR=1
##YFACTOR=1
##FIRSTX=50
##LASTX=177
##FIRSTY=229
##MAXX=177
##MINX=50
##MAXY=9999
##MINY=152
##NPOINTS=33
##PEAK TABLE=(XY..XY)
50,229 51,375 52,259 53,296
55,317 63,287 65,433 77,979
78,527 79,723 80,190 81,198
89,193 90,152 91,1296 92,819
93,238 103,564 104,1259 105,8536
106,9999 107,1109 115,327 116,155
117,469 118,429 119,1400 120,253
131,175 133,389 147,479 176,3146
177,503
##END=
