##TITLE=Benzeneacetic acid, 4-hydroxy-3-methoxy-, methyl ester
##JCAMP-DX=4.24
##DATA TYPE=MASS SPECTRUM
##ORIGIN=C.M.WILLIAMS/M.W.CROUCH VET. ADMIN. HOSP., GAINESVILLE, FLA
##OWNER=NIST Mass Spectrometry Data Center
Collection (C) 2014 copyright by the U.S. Secretary of Commerce
on behalf of the United States of America. All rights reserved.
##CAS REGISTRY NO=15964-80-4
##$NIST MASS SPEC NO=8689
##MOLFORM=C10 H12 O4
##MW=196
##$NIST SOURCE=MSDC
##XUNITS=M/Z
##YUNITS=RELATIVE INTENSITY
##XFACTOR=1
##YFACTOR=1
##FIRSTX=37
##LASTX=198
##FIRSTY=42
##MAXX=198
##MINX=37
##MAXY=9999
##MINY=42
##NPOINTS=65
##PEAK TABLE=(XY..XY)
37,42 38,167 39,625 40,250
41,125 42,83 43,208 44,167
45,42 50,250 51,542 52,250
53,292 54,83 55,250 59,375
60,42 61,42 62,125 63,205
64,125 65,458 66,375 67,125
68,83 69,83 74,83 75,83
76,83 77,417 78,208 79,167
80,42 81,83 89,42 90,83
91,125 92,125 93,125 94,750
95,125 105,250 106,167 107,292
108,125 109,208 120,42 121,125
122,917 123,167 135,167 136,125
137,9999 138,958 139,167 151,375
152,83 153,42 181,42 182,250
183,42 195,83 196,2875 197,417
198,83
##END=
