##TITLE=1,3,5,2,4,6-Triazatriphosphorine, 2,4-dibromo-2,4,6,6-tetrachloro-2,2,4,4,6,6-hexahydro-
##JCAMP-DX=4.24
##DATA TYPE=MASS SPECTRUM
##OWNER=NIST Mass Spectrometry Data Center
Collection (C) 2014 copyright by the U.S. Secretary of Commerce
on behalf of the United States of America. All rights reserved.
##CAS REGISTRY NO=15964-99-5
##$NIST MASS SPEC NO=29524
##MOLFORM=Br2 Cl4 N3 P3
##MW=433
##$NIST SOURCE=MSDC
##XUNITS=M/Z
##YUNITS=RELATIVE INTENSITY
##XFACTOR=1
##YFACTOR=1
##FIRSTX=76
##LASTX=433
##FIRSTY=330
##MAXX=433
##MINX=76
##MAXY=9999
##MINY=10
##NPOINTS=30
##PEAK TABLE=(XY..XY)
76,330 78,130 90,70 111,430
113,160 120,180 125,70 135,70
146,820 155,40 160,80 169,20
170,320 181,120 190,160 191,100
195,100 216,80 225,10 239,60
240,1300 260,100 261,50 275,650
284,220 305,40 319,90 354,9999
398,450 433,300
##END=
