##TITLE=1,1'-Biphenyl, 2,2',6,6'-tetrachloro-
##JCAMP-DX=4.24
##DATA TYPE=MASS SPECTRUM
##ORIGIN=T.L.Hayes, Battelle Columbus Laboratories, Columbus, OH 43221
##OWNER=NIST Mass Spectrometry Data Center
Collection (C) 2014 copyright by the U.S. Secretary of Commerce
on behalf of the United States of America. All rights reserved.
##CAS REGISTRY NO=15968-05-5
##$NIST MASS SPEC NO=80768
##MOLFORM=C12 H6 Cl4
##MW=290
##$NIST SOURCE=MSDC
##XUNITS=M/Z
##YUNITS=RELATIVE INTENSITY
##XFACTOR=1
##YFACTOR=1
##FIRSTX=34
##LASTX=298
##FIRSTY=16
##MAXX=298
##MINX=34
##MAXY=9999
##MINY=14
##NPOINTS=123
##PEAK TABLE=(XY..XY)
34,16 35,144 36,374 37,353
38,337 39,229 40,690 41,50
43,34 44,134 45,19 47,95
49,375 50,493 55,123 60,216
61,1409 62,912 63,331 67,79
71,30 72,208 73,1726 74,2653
75,2002 76,157 78,68 79,286
80,173 84,492 85,817 86,877
87,483 92,3776 93,1381 95,15
96,284 97,887 98,1512 99,1081
100,139 108,319 109,1359 110,4484
111,3256 112,526 113,27 114,67
115,107 116,17 119,33 120,129
121,229 122,672 123,1010 124,327
125,90 127,453 128,1499 129,328
130,25 131,44 132,90 133,350
134,177 135,254 136,101 137,37
144,36 145,1024 146,1348 147,1204
148,557 149,1355 150,3396 151,397
157,48 158,57 159,262 160,135
161,52 162,14 169,35 170,109
171,55 172,63 182,31 183,185
184,1263 185,1123 186,362 187,292
188,37 193,21 194,174 195,31
196,37 207,57 208,37 209,67
218,30 219,99 220,6957 221,980
222,4344 223,586 224,565 225,14
254,129 256,136 257,575 258,43
259,185 281,41 290,8076 291,1101
292,9999 293,1305 294,4912 295,636
296,964 297,108 298,51
##END=
