##TITLE=2-Methyl-3-isopropylpyrazine
##JCAMP-DX=4.24
##DATA TYPE=MASS SPECTRUM
##ORIGIN=W.Jennings, T.Shibamoto
##OWNER=NIST Mass Spectrometry Data Center
Collection (C) 2014 copyright by the U.S. Secretary of Commerce
on behalf of the United States of America. All rights reserved.
##CAS REGISTRY NO=15986-81-9
##$NIST MASS SPEC NO=285418
##MOLFORM=C8 H12 N2
##MW=136
##$NIST SOURCE=MSDC
##XUNITS=M/Z
##YUNITS=RELATIVE INTENSITY
##XFACTOR=1
##YFACTOR=1
##FIRSTX=26
##LASTX=137
##FIRSTY=280
##MAXX=137
##MINX=26
##MAXY=9999
##MINY=70
##NPOINTS=32
##PEAK TABLE=(XY..XY)
26,280 39,70 40,480 41,791
42,1321 43,480 53,2392 54,1111
66,480 67,3924 68,931 79,70
80,2192 81,280 82,70 86,931
92,70 93,3533 94,3193 95,1121
106,480 107,1191 108,9999 109,2092
117,70 119,390 120,190 121,9128
122,1922 135,3793 136,5595 137,1111
##END=
