##TITLE=L-Glutamic acid, 3TMS derivative
##JCAMP-DX=4.24
##DATA TYPE=MASS SPECTRUM
##ORIGIN=NIST Mass Spectrometry Data Center
##OWNER=NIST Mass Spectrometry Data Center
Collection (C) 2014 copyright by the U.S. Secretary of Commerce
on behalf of the United States of America. All rights reserved.
##CAS REGISTRY NO=15985-07-6
##$NIST MASS SPEC NO=333275
##MOLFORM=C14 H33 N O4 Si3
##MW=363
##$NIST SOURCE=MSDC
##XUNITS=M/Z
##YUNITS=RELATIVE INTENSITY
##XFACTOR=1
##YFACTOR=1
##FIRSTX=27
##LASTX=366
##FIRSTY=10
##MAXX=366
##MINX=27
##MAXY=9999
##MINY=10
##NPOINTS=176
##PEAK TABLE=(XY..XY)
27,10 28,20 29,20 31,10
41,60 42,20 43,130 44,120
45,691 46,50 47,120 48,10
53,10 54,20 55,130 56,460
57,100 58,110 59,320 60,70
61,110 62,10 66,30 67,10
68,20 69,10 70,40 71,40
72,240 73,6306 74,671 75,1511
76,110 77,50 80,10 82,30
83,40 84,701 85,90 86,80
87,40 88,30 89,30 90,10
91,10 95,20 96,10 97,20
98,80 99,80 100,821 101,160
102,80 103,110 104,20 105,20
110,20 111,10 112,110 113,160
114,260 115,230 116,100 117,170
118,30 119,50 120,10 124,10
126,30 128,3243 129,701 130,290
131,270 132,200 133,611 134,100
135,70 136,10 139,10 140,200
141,30 142,40 143,40 144,40
145,30 147,2622 148,460 149,621
150,80 151,40 152,10 154,30
155,40 156,1381 157,260 158,340
159,70 160,40 161,20 162,10
163,20 168,10 169,10 170,10
172,50 173,20 174,100 175,20
176,20 177,20 184,10 186,30
187,10 188,40 189,30 190,20
191,10 198,10 200,10 201,10
202,100 203,70 204,280 205,60
206,30 207,10 214,60 215,20
216,60 217,20 218,510 219,130
220,50 221,90 222,20 223,10
228,10 229,20 230,851 231,180
232,110 233,20 234,10 240,10
242,10 243,10 244,40 246,9999
247,2412 248,1021 249,150 250,30
258,220 259,50 260,30 261,10
272,20 273,20 274,130 275,30
276,20 320,170 321,50 322,20
330,10 331,10 332,10 348,831
349,270 350,140 351,30 352,10
363,390 364,120 365,60 366,10
##END=
