##TITLE=Leucine, 2TMS derivative
##JCAMP-DX=4.24
##DATA TYPE=MASS SPECTRUM
##ORIGIN=James Shoemaker, St. Louis Online Library of Metabolic Mass Spectra
##OWNER=NIST Mass Spectrometry Data Center
Collection (C) 2014 copyright by the U.S. Secretary of Commerce
on behalf of the United States of America. All rights reserved.
##CAS REGISTRY NO=15984-97-1
##$NIST MASS SPEC NO=141300
##MOLFORM=C12 H29 N O2 Si2
##MW=275
##$NIST SOURCE=MSDC
##XUNITS=M/Z
##YUNITS=RELATIVE INTENSITY
##XFACTOR=1
##YFACTOR=1
##FIRSTX=53
##LASTX=275
##FIRSTY=0
##MAXX=275
##MINX=53
##MAXY=9999
##MINY=0
##NPOINTS=119
##PEAK TABLE=(XY..XY)
53,0 54,0 55,40 56,20
57,70 58,60 59,279 60,40
61,80 62,0 63,0 66,10
67,0 68,0 69,60 70,40
71,20 72,70 73,4179 74,429
75,519 76,30 77,209 78,10
79,0 81,10 82,0 83,0
84,20 85,10 86,179 87,50
88,0 89,0 90,0 91,0
92,0 93,0 94,0 95,0
96,10 97,10 98,10 99,10
100,309 101,70 102,549 103,359
104,50 105,30 106,0 107,0
110,0 111,0 112,10 113,0
114,20 115,90 116,289 117,99
118,10 119,20 121,80 122,0
123,0 126,0 127,10 128,60
129,20 130,109 131,70 132,50
133,149 134,20 135,10 141,10
142,109 143,20 144,10 147,879
148,139 149,70 151,0 156,10
158,9999 159,1409 160,409 161,50
163,0 164,0 170,60 171,50
172,10 174,119 175,20 176,30
177,20 178,0 184,0 186,0
188,0 189,0 190,0 191,0
203,0 205,0 207,0 215,0
216,0 218,309 219,70 220,20
221,0 231,0 232,339 233,80
234,20 260,80 275,10
##END=
