##TITLE=Aspartic acid, 3TMS derivative
##JCAMP-DX=4.24
##DATA TYPE=MASS SPECTRUM
##ORIGIN=A.Pleshkova, Nesmeyanov Inst.Org.Elem.Cpds, Moscow
##OWNER=NIST Mass Spectrometry Data Center
Collection (C) 2014 copyright by the U.S. Secretary of Commerce
on behalf of the United States of America. All rights reserved.
##CAS REGISTRY NO=15985-05-4
##$NIST MASS SPEC NO=283842
##MOLFORM=C13 H31 N O4 Si3
##MW=349
##$NIST SOURCE=MSDC
##XUNITS=M/Z
##YUNITS=RELATIVE INTENSITY
##XFACTOR=1
##YFACTOR=1
##FIRSTX=73
##LASTX=350
##FIRSTY=6276
##MAXX=350
##MINX=73
##MAXY=9999
##MINY=20
##NPOINTS=38
##PEAK TABLE=(XY..XY)
73,6276 74,540 75,1101 76,100
77,40 100,1411 101,120 102,20
147,1471 148,230 149,120 150,20
202,931 203,190 204,40 218,1892
219,370 220,170 221,20 232,9999
233,2102 234,891 235,120 236,20
245,100 246,20 262,80 263,20
292,120 293,40 306,190 307,40
308,20 334,290 335,80 336,40
349,80 350,20
##END=
