##TITLE=1-Docosene
##JCAMP-DX=4.24
##DATA TYPE=MASS SPECTRUM
##ORIGIN=Japan AIST/NIMC Database- Spectrum MS-NW-6119
##OWNER=NIST Mass Spectrometry Data Center
Collection (C) 2014 copyright by the U.S. Secretary of Commerce
on behalf of the United States of America. All rights reserved.
##CAS REGISTRY NO=1599-67-3
##$NIST MASS SPEC NO=233030
##MOLFORM=C22 H44
##MW=308
##$NIST SOURCE=MSDC
##XUNITS=M/Z
##YUNITS=RELATIVE INTENSITY
##XFACTOR=1
##YFACTOR=1
##FIRSTX=15
##LASTX=311
##FIRSTY=20
##MAXX=311
##MINX=15
##MAXY=9999
##MINY=10
##NPOINTS=136
##PEAK TABLE=(XY..XY)
15,20 26,30 27,799 28,199
29,2769 30,70 37,10 38,10
39,759 40,159 41,6389 42,1429
43,9509 44,319 49,10 50,10
51,40 52,30 53,409 54,1279
55,8479 56,4319 57,9999 58,439
61,10 63,10 65,70 66,159
67,1419 68,1589 69,6239 70,3989
71,5099 72,309 73,10 76,10
77,60 78,20 79,119 80,90
81,949 82,3059 83,8099 84,2929
85,3059 86,219 91,20 93,30
94,30 95,509 96,2039 97,8649
98,2149 99,919 100,80 105,10
107,10 108,20 109,229 110,919
111,4629 112,1599 113,629 114,50
122,30 123,169 124,669 125,2769
126,1119 127,429 128,40 136,20
137,109 138,509 139,1499 140,829
141,329 142,30 151,40 152,409
153,999 154,729 155,229 156,30
165,20 166,319 167,709 168,529
169,189 170,20 179,10 180,249
181,539 182,469 183,149 184,30
194,199 195,369 196,349 197,99
198,10 208,149 209,279 210,279
211,80 212,10 222,139 223,229
224,219 225,70 226,10 236,109
237,169 238,199 239,60 240,10
250,70 251,109 252,139 253,40
264,40 265,90 266,159 267,40
268,10 278,20 279,50 280,389
281,99 282,10 293,10 306,20
308,2969 309,749 310,109 311,10
##END=
