##TITLE=Methyldesorphine
##JCAMP-DX=4.24
##DATA TYPE=MASS SPECTRUM
##ORIGIN=HOME OFFICE, CENTRAL RES. EST., ALDERMASTON, BERKS., U.K.
##OWNER=NIST Mass Spectrometry Data Center
Collection (C) 2014 copyright by the U.S. Secretary of Commerce
on behalf of the United States of America. All rights reserved.
##CAS REGISTRY NO=16008-36-9
##$NIST MASS SPEC NO=58712
##MOLFORM=C18 H21 N O2
##MW=283
##$NIST SOURCE=MSDC
##XUNITS=M/Z
##YUNITS=RELATIVE INTENSITY
##XFACTOR=1
##YFACTOR=1
##FIRSTX=39
##LASTX=284
##FIRSTY=600
##MAXX=284
##MINX=39
##MAXY=9999
##MINY=300
##NPOINTS=81
##PEAK TABLE=(XY..XY)
39,600 41,700 42,3000 43,900
44,2000 51,500 53,300 55,600
56,400 57,600 58,1700 59,700
65,400 70,1000 71,700 72,700
77,700 79,400 82,400 83,300
91,700 94,400 103,500 105,400
110,2100 115,1400 116,400 117,400
118,700 119,1700 120,900 121,300
122,400 127,600 128,700 129,400
131,500 134,300 141,500 144,300
146,500 147,400 149,500 152,600
153,400 160,3500 161,800 165,700
168,400 171,400 176,700 177,400
178,800 179,800 181,600 193,600
195,400 197,400 198,400 203,300
204,300 207,900 209,400 210,300
211,1000 212,400 214,400 223,400
224,500 225,1200 226,1500 227,500
240,700 254,600 266,500 268,2500
269,600 281,500 282,3700 283,9999
284,2600
##END=
