##TITLE=Iodotrimethylsilane
##JCAMP-DX=4.24
##DATA TYPE=MASS SPECTRUM
##ORIGIN=NIST Mass Spectrometry Data Center, 1994
##OWNER=NIST Mass Spectrometry Data Center
Collection (C) 2014 copyright by the U.S. Secretary of Commerce
on behalf of the United States of America. All rights reserved.
##CAS REGISTRY NO=16029-98-4
##$NIST MASS SPEC NO=133600
##MOLFORM=C3 H9 I Si
##MW=200
##$NIST SOURCE=MSDC
##XUNITS=M/Z
##YUNITS=RELATIVE INTENSITY
##XFACTOR=1
##YFACTOR=1
##FIRSTX=4
##LASTX=202
##FIRSTY=9
##MAXX=202
##MINX=4
##MAXY=9999
##MINY=9
##NPOINTS=59
##PEAK TABLE=(XY..XY)
4,9 14,48 15,205 26,24
27,87 28,307 29,377 30,35
31,65 32,37 40,28 41,159
42,530 43,1319 44,405 45,2143
46,160 47,90 52,73 53,315
54,78 55,284 56,57 57,213
58,348 59,114 60,20 65,24
66,142 67,29 70,55 71,75
73,9999 74,797 75,308 87,27
115,18 127,425 128,220 131,80
133,20 141,22 155,720 156,167
157,1017 158,56 159,36 167,19
168,61 169,192 170,146 171,271
172,21 185,2713 186,200 187,110
200,2126 201,193 202,84
##END=
