##TITLE=2-Pyridinamine, 5-methyl-
##JCAMP-DX=4.24
##DATA TYPE=MASS SPECTRUM
##ORIGIN=Japan AIST/NIMC Database- Spectrum MS-NW-3572
##OWNER=NIST Mass Spectrometry Data Center
Collection (C) 2014 copyright by the U.S. Secretary of Commerce
on behalf of the United States of America. All rights reserved.
##CAS REGISTRY NO=1603-41-4
##$NIST MASS SPEC NO=231286
##MOLFORM=C6 H8 N2
##MW=108
##$NIST SOURCE=MSDC
##XUNITS=M/Z
##YUNITS=RELATIVE INTENSITY
##XFACTOR=1
##YFACTOR=1
##FIRSTX=14
##LASTX=110
##FIRSTY=10
##MAXX=110
##MINX=14
##MAXY=9999
##MINY=10
##NPOINTS=53
##PEAK TABLE=(XY..XY)
14,10 15,30 25,20 26,139
27,639 28,879 29,90 30,199
36,10 37,119 38,249 39,759
40,209 41,569 42,139 43,169
48,10 49,60 50,299 51,519
52,709 53,1689 54,599 55,209
56,209 57,10 61,30 62,50
63,129 64,129 65,219 66,199
67,129 68,239 69,10 75,30
76,60 77,20 78,179 79,159
80,4899 81,1979 82,149 90,40
91,199 92,129 93,70 105,80
106,70 107,4149 108,9999 109,769
110,20
##END=
