##TITLE=1,4-Heptadiene, 3-methyl-
##JCAMP-DX=4.24
##DATA TYPE=MASS SPECTRUM
##ORIGIN=M. IWAMOTO TOYO RAYON CO., SONOYANA, OTSU, SHIGA-KEN, JAPAN
##OWNER=NIST Mass Spectrometry Data Center
Collection (C) 2014 copyright by the U.S. Secretary of Commerce
on behalf of the United States of America. All rights reserved.
##CAS REGISTRY NO=1603-01-6
##$NIST MASS SPEC NO=1484
##MOLFORM=C8 H14
##MW=110
##$NIST SOURCE=MSDC
##XUNITS=M/Z
##YUNITS=RELATIVE INTENSITY
##XFACTOR=1
##YFACTOR=1
##FIRSTX=15
##LASTX=111
##FIRSTY=561
##MAXX=111
##MINX=15
##MAXY=9999
##MINY=224
##NPOINTS=37
##PEAK TABLE=(XY..XY)
15,561 26,561 27,4887 28,955
29,2528 37,224 38,543 39,5524
40,1029 41,5842 42,655 43,468
50,749 51,1385 52,711 53,4213
54,898 55,6161 56,655 63,468
65,1104 66,1086 67,7303 68,6591
69,786 77,1685 78,524 79,2659
80,749 81,9999 82,1123 91,561
93,711 95,6217 96,561 110,2996
111,299
##END=
