##TITLE=2-Pyridinamine, 3-methyl-
##JCAMP-DX=4.24
##DATA TYPE=MASS SPECTRUM
##ORIGIN=Japan AIST/NIMC Database- Spectrum MS-NW-1045
##OWNER=NIST Mass Spectrometry Data Center
Collection (C) 2014 copyright by the U.S. Secretary of Commerce
on behalf of the United States of America. All rights reserved.
##CAS REGISTRY NO=1603-40-3
##$NIST MASS SPEC NO=229667
##MOLFORM=C6 H8 N2
##MW=108
##$NIST SOURCE=MSDC
##XUNITS=M/Z
##YUNITS=RELATIVE INTENSITY
##XFACTOR=1
##YFACTOR=1
##FIRSTX=14
##LASTX=110
##FIRSTY=10
##MAXX=110
##MINX=14
##MAXY=9999
##MINY=10
##NPOINTS=57
##PEAK TABLE=(XY..XY)
14,10 15,40 17,10 18,10
25,20 26,129 27,539 28,699
29,90 30,199 36,10 37,149
38,329 39,1139 40,269 41,369
42,199 43,269 44,20 49,60
50,269 51,429 52,589 53,1259
54,619 55,239 56,459 57,20
60,10 61,60 62,119 63,319
64,499 65,399 66,299 67,239
68,179 69,20 75,40 76,50
77,20 78,139 79,189 80,5079
81,2089 82,159 90,60 91,1209
92,199 93,109 94,60 105,70
106,50 107,1949 108,9999 109,719
110,20
##END=
