##TITLE=Bis(dimethylamino)phosphinic chloride
##JCAMP-DX=4.24
##DATA TYPE=MASS SPECTRUM
##ORIGIN=NIST Mass Spectrometry Data Center
##OWNER=NIST Mass Spectrometry Data Center
Collection (C) 2014 copyright by the U.S. Secretary of Commerce
on behalf of the United States of America. All rights reserved.
##CAS REGISTRY NO=1605-65-8
##$NIST MASS SPEC NO=342993
##MOLFORM=C4 H12 Cl N2 O P
##MW=170
##$NIST SOURCE=MSDC
##XUNITS=M/Z
##YUNITS=RELATIVE INTENSITY
##XFACTOR=1
##YFACTOR=1
##FIRSTX=12
##LASTX=173
##FIRSTY=10
##MAXX=173
##MINX=12
##MAXY=9999
##MINY=10
##NPOINTS=66
##PEAK TABLE=(XY..XY)
12,10 14,60 15,881 16,10
18,500 19,10 27,90 28,781
29,60 30,120 31,20 32,40
33,10 35,20 36,10 38,20
39,30 40,150 41,310 42,3033
43,731 44,9999 45,1271 46,130
47,781 48,30 49,100 57,90
58,330 59,40 60,180 63,30
66,10 67,20 69,10 73,40
74,20 76,260 78,20 83,110
84,50 85,50 87,70 88,130
90,210 92,2212 93,80 94,20
97,40 99,10 106,10 110,80
111,10 112,40 119,10 126,1692
127,180 128,540 129,50 135,1431
136,70 153,10 170,651 171,70
172,210 173,10
##END=
