##TITLE=4-Quinolinol, 4-ethynyldecahydro-1,2-dimethyl-, (2.alpha.,4.alpha.,4a.alpha.,8a.beta.)-
##JCAMP-DX=4.24
##DATA TYPE=MASS SPECTRUM
##OWNER=NIST Mass Spectrometry Data Center
Collection (C) 2014 copyright by the U.S. Secretary of Commerce
on behalf of the United States of America. All rights reserved.
##CAS REGISTRY NO=16067-80-4
##$NIST MASS SPEC NO=9483
##MOLFORM=C13 H21 N O
##MW=207
##$NIST SOURCE=MSDC
##XUNITS=M/Z
##YUNITS=RELATIVE INTENSITY
##XFACTOR=1
##YFACTOR=1
##FIRSTX=51
##LASTX=208
##FIRSTY=250
##MAXX=208
##MINX=51
##MAXY=9999
##MINY=50
##NPOINTS=87
##PEAK TABLE=(XY..XY)
51,250 52,150 53,1001 54,400
55,901 56,1051 57,751 58,2102
59,100 63,100 65,300 66,200
67,701 68,550 69,350 70,500
71,250 72,250 77,500 78,150
79,500 80,150 81,751 82,601
83,200 84,400 85,250 91,350
92,100 93,150 94,250 95,250
96,601 97,200 98,200 103,100
105,150 106,100 107,250 108,250
109,150 110,350 111,150 112,200
113,100 117,100 118,150 119,100
120,150 121,150 122,200 123,150
124,250 125,100 126,150 131,100
132,100 133,50 134,651 135,200
136,200 137,100 138,450 139,100
140,100 146,100 147,100 148,100
149,150 150,300 151,150 162,100
164,9999 165,1001 166,200 168,150
174,751 175,100 189,100 190,2652
191,500 192,9809 194,1151 195,100
206,300 207,2752 208,400
##END=
