##TITLE=1-Penten-3-one, 4-methyl-
##JCAMP-DX=4.24
##DATA TYPE=MASS SPECTRUM
##ORIGIN=SHELL RESEARCH LIMITED THORNTON RESEARCH CENTRE
##OWNER=NIST Mass Spectrometry Data Center
Collection (C) 2014 copyright by the U.S. Secretary of Commerce
on behalf of the United States of America. All rights reserved.
##CAS REGISTRY NO=1606-47-9
##$NIST MASS SPEC NO=950
##MOLFORM=C6 H10 O
##MW=98
##$NIST SOURCE=MSDC
##XUNITS=M/Z
##YUNITS=RELATIVE INTENSITY
##XFACTOR=1
##YFACTOR=1
##FIRSTX=26
##LASTX=99
##FIRSTY=437
##MAXX=99
##MINX=26
##MAXY=9999
##MINY=179
##NPOINTS=20
##PEAK TABLE=(XY..XY)
26,437 27,2704 28,561 29,314
38,269 39,740 40,258 41,1548
42,448 43,1885 53,202 55,9999
56,886 57,269 69,381 70,1077
71,280 83,190 98,987 99,179
##END=
