##TITLE=Hexametapil
##JCAMP-DX=4.24
##DATA TYPE=MASS SPECTRUM
##ORIGIN=Japan AIST/NIMC Database- Spectrum MS-NW-5443
##OWNER=NIST Mass Spectrometry Data Center
Collection (C) 2014 copyright by the U.S. Secretary of Commerce
on behalf of the United States of America. All rights reserved.
##CAS REGISTRY NO=1608-26-0
##$NIST MASS SPEC NO=235285
##MOLFORM=C6 H18 N3 P
##MW=163
##$NIST SOURCE=MSDC
##XUNITS=M/Z
##YUNITS=RELATIVE INTENSITY
##XFACTOR=1
##YFACTOR=1
##FIRSTX=12
##LASTX=165
##FIRSTY=10
##MAXX=165
##MINX=12
##MAXY=9999
##MINY=10
##NPOINTS=80
##PEAK TABLE=(XY..XY)
12,10 13,20 14,70 15,719
16,10 17,10 26,40 27,249
28,759 29,409 30,519 31,799
32,40 33,80 38,40 39,50
40,159 41,239 42,1689 43,559
44,2909 45,1249 46,179 47,199
48,50 49,60 51,10 55,10
56,20 57,30 58,119 59,419
60,2299 61,129 62,40 63,30
70,10 71,10 72,10 73,70
74,259 75,779 76,9999 77,299
78,30 81,159 82,20 87,10
88,20 89,10 90,189 91,369
92,259 93,70 94,99 102,10
103,10 105,20 106,10 107,30
108,70 109,10 110,20 112,10
117,10 118,90 119,9869 120,549
121,30 122,10 129,10 130,10
133,20 135,349 136,169 137,10
148,20 163,2739 164,229 165,10
##END=
