##TITLE=Oxirane, methyl-, (S)-
##JCAMP-DX=4.24
##DATA TYPE=MASS SPECTRUM
##ORIGIN=NIST Mass Spectrometry Data Center
##OWNER=NIST Mass Spectrometry Data Center
Collection (C) 2014 copyright by the U.S. Secretary of Commerce
on behalf of the United States of America. All rights reserved.
##CAS REGISTRY NO=16088-62-3
##$NIST MASS SPEC NO=341796
##MOLFORM=C3 H6 O
##MW=58
##$NIST SOURCE=MSDC
##XUNITS=M/Z
##YUNITS=RELATIVE INTENSITY
##XFACTOR=1
##YFACTOR=1
##FIRSTX=12
##LASTX=60
##FIRSTY=10
##MAXX=60
##MINX=12
##MAXY=9999
##MINY=10
##NPOINTS=35
##PEAK TABLE=(XY..XY)
12,10 13,40 14,200 15,571
16,10 19,10 20,10 24,30
25,220 26,2923 27,4734 28,7357
29,5825 30,871 31,2732 32,80
36,60 37,370 38,540 39,1111
40,130 41,300 42,791 43,7407
44,180 45,20 52,20 53,90
54,10 55,210 56,20 57,971
58,9999 59,340 60,20
##END=
