##TITLE=Benzoic acid, 5-(1,1-dimethylethyl)-2-hydroxy-
##JCAMP-DX=4.24
##DATA TYPE=MASS SPECTRUM
##ORIGIN=Japan AIST/NIMC Database- Spectrum MS-IW-6066
##OWNER=NIST Mass Spectrometry Data Center
Collection (C) 2014 copyright by the U.S. Secretary of Commerce
on behalf of the United States of America. All rights reserved.
##CAS REGISTRY NO=16094-31-8
##$NIST MASS SPEC NO=242974
##MOLFORM=C11 H14 O3
##MW=194
##$NIST SOURCE=MSDC
##XUNITS=M/Z
##YUNITS=RELATIVE INTENSITY
##XFACTOR=1
##YFACTOR=1
##FIRSTX=17
##LASTX=196
##FIRSTY=30
##MAXX=196
##MINX=17
##MAXY=9999
##MINY=10
##NPOINTS=84
##PEAK TABLE=(XY..XY)
17,30 18,129 27,70 28,10
29,40 38,10 39,179 40,10
41,119 43,20 44,10 45,20
50,30 51,179 52,50 53,119
54,10 55,60 57,20 58,10
59,20 62,40 63,149 64,50
65,169 66,50 67,50 69,10
73,10 74,20 75,20 76,20
77,449 78,119 79,349 80,40
81,20 88,10 89,129 90,50
91,149 92,60 93,50 94,10
102,30 103,239 104,80 105,579
106,60 107,40 109,10 115,40
116,10 117,60 118,40 119,50
120,20 121,40 131,30 132,50
133,289 134,80 135,40 145,20
146,10 147,30 148,10 149,10
159,20 160,159 161,9999 162,1119
163,90 174,10 175,109 176,1909
177,289 178,30 179,5689 180,649
181,70 194,3869 195,479 196,50
##END=
