##TITLE=m-Aminobenzanilide
##JCAMP-DX=4.24
##DATA TYPE=MASS SPECTRUM
##ORIGIN=NIST Mass Spectrometry Data Center, 1990.
##OWNER=NIST Mass Spectrometry Data Center
Collection (C) 2014 copyright by the U.S. Secretary of Commerce
on behalf of the United States of America. All rights reserved.
##CAS REGISTRY NO=16091-26-2
##$NIST MASS SPEC NO=118398
##MOLFORM=C13 H12 N2 O
##MW=212
##$NIST SOURCE=MSDC
##XUNITS=M/Z
##YUNITS=RELATIVE INTENSITY
##XFACTOR=1
##YFACTOR=1
##FIRSTX=17
##LASTX=214
##FIRSTY=21
##MAXX=214
##MINX=17
##MAXY=9999
##MINY=17
##NPOINTS=57
##PEAK TABLE=(XY..XY)
17,21 18,19 27,83 28,159
37,40 38,243 39,1183 40,112
41,259 42,93 44,33 46,25
50,119 51,270 52,231 53,58
54,52 61,27 62,124 63,433
64,643 65,3070 66,418 67,42
74,50 75,38 76,70 77,150
78,45 83,83 84,37 85,17
89,38 90,101 91,571 92,5486
93,466 94,34 97,239 106,113
118,228 120,9999 121,804 122,53
128,25 166,133 167,80 168,29
181,37 182,61 183,28 192,28
193,143 194,36 212,3871 213,671
214,59
##END=
