##TITLE=Propane, 2-isocyanato-2-methyl-
##JCAMP-DX=4.24
##DATA TYPE=MASS SPECTRUM
##ORIGIN=Japan AIST/NIMC Database- Spectrum MS-NW-2970
##OWNER=NIST Mass Spectrometry Data Center
Collection (C) 2014 copyright by the U.S. Secretary of Commerce
on behalf of the United States of America. All rights reserved.
##CAS REGISTRY NO=1609-86-5
##$NIST MASS SPEC NO=231216
##MOLFORM=C5 H9 N O
##MW=99
##$NIST SOURCE=MSDC
##XUNITS=M/Z
##YUNITS=RELATIVE INTENSITY
##XFACTOR=1
##YFACTOR=1
##FIRSTX=13
##LASTX=99
##FIRSTY=10
##MAXX=99
##MINX=13
##MAXY=9999
##MINY=10
##NPOINTS=35
##PEAK TABLE=(XY..XY)
13,10 14,60 15,799 25,10
26,149 27,579 28,699 29,1009
30,70 37,50 38,90 39,599
40,289 41,1709 42,289 43,109
44,20 49,10 50,30 51,50
52,60 53,60 54,109 55,209
56,2639 57,749 58,30 68,70
70,30 82,10 83,50 84,9999
85,499 86,30 99,20
##END=
