##TITLE=Octanedioic acid, dibutyl ester
##JCAMP-DX=4.24
##DATA TYPE=MASS SPECTRUM
##ORIGIN=A DUFFIELD DEPT GENETICS STANFORD MED CENTER STANFORD CA 9430
##OWNER=NIST Mass Spectrometry Data Center
Collection (C) 2014 copyright by the U.S. Secretary of Commerce
on behalf of the United States of America. All rights reserved.
##CAS REGISTRY NO=16090-77-0
##$NIST MASS SPEC NO=24886
##MOLFORM=C16 H30 O4
##MW=286
##$NIST SOURCE=MSDC
##XUNITS=M/Z
##YUNITS=RELATIVE INTENSITY
##XFACTOR=1
##YFACTOR=1
##FIRSTX=41
##LASTX=215
##FIRSTY=2322
##MAXX=215
##MINX=41
##MAXY=9999
##MINY=201
##NPOINTS=53
##PEAK TABLE=(XY..XY)
41,2322 42,504 43,807 44,605
45,201 55,2524 56,2726 57,1817
60,807 61,201 67,302 68,706
69,1413 70,504 71,201 73,908
81,302 82,302 83,1817 84,504
85,201 87,504 95,201 97,1413
98,201 100,201 101,504 109,201
110,706 111,2726 112,302 113,201
114,201 115,4544 116,403 128,201
129,1110 130,403 137,302 138,3534
139,2827 140,403 141,201 156,302
157,9999 158,908 171,1514 172,201
184,201 186,605 213,8584 214,1009
215,201
##END=
