##TITLE=Methane, tricyclohexyl-
##JCAMP-DX=4.24
##DATA TYPE=MASS SPECTRUM
##OWNER=NIST Mass Spectrometry Data Center
Collection (C) 2014 copyright by the U.S. Secretary of Commerce
on behalf of the United States of America. All rights reserved.
##CAS REGISTRY NO=1610-24-8
##$NIST MASS SPEC NO=12700
##MOLFORM=C19 H34
##MW=262
##$NIST SOURCE=MSDC
##XUNITS=M/Z
##YUNITS=RELATIVE INTENSITY
##XFACTOR=1
##YFACTOR=1
##FIRSTX=29
##LASTX=263
##FIRSTY=1561
##MAXX=263
##MINX=29
##MAXY=9999
##MINY=10
##NPOINTS=118
##PEAK TABLE=(XY..XY)
29,1561 30,30 31,10 32,10
37,10 38,10 39,1001 40,160
41,6406 42,360 43,641 44,20
50,10 51,70 52,70 53,741
54,891 55,8107 56,450 57,100
58,10 63,10 64,10 65,100
66,150 67,2442 68,440 69,1341
70,80 71,30 72,10 74,10
76,10 77,310 78,100 79,691
80,380 81,1712 82,1541 83,9428
84,671 85,30 86,10 89,10
90,10 91,360 92,80 93,230
94,140 95,1531 96,1802 97,9999
98,811 99,30 102,10 103,10
104,10 105,60 106,10 107,100
108,90 109,1081 110,110 111,400
112,30 113,10 115,20 116,10
117,20 118,10 119,10 120,10
121,90 122,90 123,861 124,90
125,10 126,10 127,10 128,10
129,10 130,10 131,10 132,10
133,10 134,10 135,150 136,50
137,220 138,30 139,10 147,10
148,10 149,20 150,10 151,10
152,10 163,10 164,10 165,40
166,10 172,10 173,90 174,50
175,10 176,10 177,50 178,3103
179,4704 180,661 181,40 182,10
256,10 257,10 260,10 261,10
262,30 263,10
##END=
