##TITLE=Chrysene, 1,2,3,4,4a,7,8,9,10,11,12,12a-dodecahydro-
##JCAMP-DX=4.24
##DATA TYPE=MASS SPECTRUM
##ORIGIN=CONTINENTAL OIL CO., PONCA CITY, OKLA, USA
##OWNER=NIST Mass Spectrometry Data Center
Collection (C) 2014 copyright by the U.S. Secretary of Commerce
on behalf of the United States of America. All rights reserved.
##CAS REGISTRY NO=1610-22-6
##$NIST MASS SPEC NO=34923
##MOLFORM=C18 H24
##MW=240
##$NIST SOURCE=MSDC
##XUNITS=M/Z
##YUNITS=RELATIVE INTENSITY
##XFACTOR=1
##YFACTOR=1
##FIRSTX=13
##LASTX=242
##FIRSTY=20
##MAXX=242
##MINX=13
##MAXY=9999
##MINY=7
##NPOINTS=139
##PEAK TABLE=(XY..XY)
13,20 14,44 15,159 16,13
26,53 27,754 28,43 29,881
30,25 34,12 38,25 39,584
40,305 41,1167 42,159 43,168
44,7 50,44 51,209 52,71
53,270 54,41 55,419 56,153
57,43 62,23 63,154 64,89
65,210 66,38 67,197 69,83
70,35 71,50 75,70 76,193
77,424 78,130 79,172 80,78
81,106 82,112 83,145 88,56
89,219 91,491 92,56 93,43
94,30 95,78 96,39 97,23
98,26 99,43 101,56 102,113
103,113 104,72 105,138 106,27
113,37 114,48 115,995 116,226
117,237 118,70 119,36 126,76
127,425 128,1375 129,1245 130,369
131,204 132,47 139,203 140,143
141,2287 142,743 143,906 144,807
145,763 146,184 147,34 150,42
151,142 152,565 153,706 154,532
155,1156 156,498 157,230 158,858
159,256 160,46 162,87 163,123
164,119 165,570 166,275 167,478
168,295 169,616 170,226 171,470
172,98 176,56 177,59 178,189
179,165 180,93 181,217 182,213
183,1876 184,888 185,258 186,58
189,71 191,76 192,46 193,54
194,48 195,183 196,163 197,6555
198,1185 199,152 208,29 209,44
210,66 211,389 212,1156 213,203
225,43 236,39 238,119 239,282
240,9999 241,1979 242,185
##END=
