##TITLE=Atraton
##JCAMP-DX=4.24
##DATA TYPE=MASS SPECTRUM
##ORIGIN=MASS SPECTROMETRY CENTER, UNIV. OF UTAH EPA-PTSEL 0320
##OWNER=NIST Mass Spectrometry Data Center
Collection (C) 2014 copyright by the U.S. Secretary of Commerce
on behalf of the United States of America. All rights reserved.
##CAS REGISTRY NO=1610-17-9
##$NIST MASS SPEC NO=59431
##MOLFORM=C9 H17 N5 O
##MW=211
##$NIST SOURCE=MSDC
##XUNITS=M/Z
##YUNITS=RELATIVE INTENSITY
##XFACTOR=1
##YFACTOR=1
##FIRSTX=15
##LASTX=212
##FIRSTY=2310
##MAXX=212
##MINX=15
##MAXY=9999
##MINY=54
##NPOINTS=75
##PEAK TABLE=(XY..XY)
15,2310 18,174 28,1415 29,1551
30,1238 31,1130 40,480 42,1585
43,1979 44,4165 45,2680 46,54
53,147 54,307 55,995 56,1051
57,2229 58,8292 59,626 67,560
68,2267 69,3760 70,903 71,1656
75,410 81,54 82,438 83,1402
84,666 85,1524 86,144 87,347
91,3420 93,196 94,1138 95,700
96,1243 97,1096 98,1999 99,336
100,1163 101,825 110,900 111,1147
112,1201 114,73 122,1136 123,118
125,854 126,1151 127,175 128,1133
136,696 137,189 138,239 139,2234
140,446 141,2893 142,72 153,1059
154,3079 155,1240 166,800 168,2223
169,5289 170,840 180,189 182,309
183,1084 194,201 196,9999 197,2022
210,1369 211,8173 212,1283
##END=
