##TITLE=1-Hexene, 4,5-dimethyl-
##JCAMP-DX=4.24
##DATA TYPE=MASS SPECTRUM
##ORIGIN=NIST Mass Spectrometry Data Center, 1990.
##OWNER=NIST Mass Spectrometry Data Center
Collection (C) 2014 copyright by the U.S. Secretary of Commerce
on behalf of the United States of America. All rights reserved.
##CAS REGISTRY NO=16106-59-5
##$NIST MASS SPEC NO=114038
##MOLFORM=C8 H16
##MW=112
##$NIST SOURCE=MSDC
##XUNITS=M/Z
##YUNITS=RELATIVE INTENSITY
##XFACTOR=1
##YFACTOR=1
##FIRSTX=15
##LASTX=97
##FIRSTY=186
##MAXX=97
##MINX=15
##MAXY=9999
##MINY=156
##NPOINTS=32
##PEAK TABLE=(XY..XY)
15,186 27,1771 28,598 29,1003
39,4066 40,828 41,6770 42,1253
43,9999 44,419 50,242 51,510
52,244 53,1390 54,648 55,4100
56,492 57,240 63,175 65,350
66,156 67,1005 68,343 69,2131
70,4851 71,8252 72,388 77,237
79,207 83,300 84,510 97,194
##END=
