##TITLE=Benzene, 1,3-dibromo-5-methyl-
##JCAMP-DX=4.24
##DATA TYPE=MASS SPECTRUM
##OWNER=NIST Mass Spectrometry Data Center
Collection (C) 2014 copyright by the U.S. Secretary of Commerce
on behalf of the United States of America. All rights reserved.
##CAS REGISTRY NO=1611-92-3
##$NIST MASS SPEC NO=28392
##MOLFORM=C7 H6 Br2
##MW=248
##$NIST SOURCE=MSDC
##XUNITS=M/Z
##YUNITS=RELATIVE INTENSITY
##XFACTOR=1
##YFACTOR=1
##FIRSTX=26
##LASTX=253
##FIRSTY=30
##MAXX=253
##MINX=26
##MAXY=9999
##MINY=4
##NPOINTS=82
##PEAK TABLE=(XY..XY)
26,30 27,44 36,18 37,154
38,265 39,684 40,71 41,14
43,294 44,136 48,11 49,99
50,371 51,289 52,33 60,38
61,271 62,662 63,1483 64,308
65,50 70,7 71,8 72,62
73,238 74,166 75,20 76,11
77,11 78,39 79,15 80,40
81,15 82,51 83,639 84,622
85,222 86,196 87,174 88,2433
89,2416 90,188 91,7 92,22
93,4 94,12 115,6 116,27
117,161 118,38 119,156 124,172
125,332 126,162 128,33 129,21
130,32 131,18 138,8 139,55
140,18 141,125 142,11 143,69
151,6 152,13 153,8 154,11
167,61 168,458 169,4749 170,816
171,4637 172,357 173,17 247,275
248,5109 249,939 250,9999 251,1011
252,4876 253,377
##END=
