##TITLE=Ethanamine, N-butylidene-
##JCAMP-DX=4.24
##DATA TYPE=MASS SPECTRUM
##ORIGIN=CARL DJERASSI DEPT OF CHEM STANFORD UNIV STANFORD CALIF 94305
##OWNER=NIST Mass Spectrometry Data Center
Collection (C) 2014 copyright by the U.S. Secretary of Commerce
on behalf of the United States of America. All rights reserved.
##CAS REGISTRY NO=1611-12-7
##$NIST MASS SPEC NO=46256
##MOLFORM=C6 H13 N
##MW=99
##$NIST SOURCE=MSDC
##XUNITS=M/Z
##YUNITS=RELATIVE INTENSITY
##XFACTOR=1
##YFACTOR=1
##FIRSTX=40
##LASTX=99
##FIRSTY=1600
##MAXX=99
##MINX=40
##MAXY=9999
##MINY=100
##NPOINTS=22
##PEAK TABLE=(XY..XY)
40,1600 41,3900 42,4900 43,2300
44,800 51,200 52,100 53,200
54,800 55,1100 56,9999 57,500
58,200 69,300 70,1100 71,7600
72,400 84,2600 85,200 97,400
98,200 99,500
##END=
