##TITLE=Benzenemethanimine
##JCAMP-DX=4.24
##DATA TYPE=MASS SPECTRUM
##ORIGIN=D.HENNEBERG, MAX-PLANCK INSTITUTE, MULHEIM, WEST GERMANY
##OWNER=NIST Mass Spectrometry Data Center
Collection (C) 2014 copyright by the U.S. Secretary of Commerce
on behalf of the United States of America. All rights reserved.
##CAS REGISTRY NO=16118-22-2
##$NIST MASS SPEC NO=62384
##MOLFORM=C7 H7 N
##MW=105
##$NIST SOURCE=MSDC
##XUNITS=M/Z
##YUNITS=RELATIVE INTENSITY
##XFACTOR=1
##YFACTOR=1
##FIRSTX=26
##LASTX=107
##FIRSTY=238
##MAXX=107
##MINX=26
##MAXY=9999
##MINY=1
##NPOINTS=53
##PEAK TABLE=(XY..XY)
26,238 27,461 28,1784 29,1
32,17 33,31 34,33 35,41
37,340 38,342 39,766 40,9
42,27 43,61 47,19 48,79
49,294 50,2301 51,3737 52,1463
53,119 55,37 57,33 60,33
61,109 62,153 63,274 64,69
66,29 73,183 74,533 75,489
76,1481 77,4544 78,3307 79,197
81,1 86,5 88,37 89,19
90,15 91,71 93,23 96,63
97,15 99,33 100,55 102,73
103,2473 104,9999 105,8524 106,549
107,49
##END=
