##TITLE=p-Menthane-1,3-diol
##JCAMP-DX=4.24
##DATA TYPE=MASS SPECTRUM
##ORIGIN=T.NAGASAWA, LAB. CHEM., NAGOYA GAKUIN UNIV., OSAKA, JAPA
##OWNER=NIST Mass Spectrometry Data Center
Collection (C) 2014 copyright by the U.S. Secretary of Commerce
on behalf of the United States of America. All rights reserved.
##CAS REGISTRY NO=1612-98-2
##$NIST MASS SPEC NO=72664
##MOLFORM=C10 H20 O2
##MW=172
##$NIST SOURCE=MSDC
##XUNITS=M/Z
##YUNITS=RELATIVE INTENSITY
##XFACTOR=1
##YFACTOR=1
##FIRSTX=39
##LASTX=172
##FIRSTY=2100
##MAXX=172
##MINX=39
##MAXY=9999
##MINY=20
##NPOINTS=48
##PEAK TABLE=(XY..XY)
39,2100 40,300 41,5500 42,400
43,9999 53,1000 54,400 55,4100
56,2000 57,1000 58,2300 59,500
67,900 68,400 69,3500 70,2000
71,2900 77,400 79,700 80,200
81,1700 82,200 83,1300 84,1700
85,400 86,300 87,9000 88,300
89,500 91,400 93,1600 94,300
95,700 96,700 97,1500 107,600
110,300 111,3500 112,800 113,700
121,1300 125,500 129,200 136,1100
139,800 154,800 157,100 172,20
##END=
