##TITLE=Quinoline, 2-ethyl-
##JCAMP-DX=4.24
##DATA TYPE=MASS SPECTRUM
##ORIGIN=CARL DJERASSI DEPT OF CHEM STANFORD UNIV STANFORD CALIF 94305
##OWNER=NIST Mass Spectrometry Data Center
Collection (C) 2014 copyright by the U.S. Secretary of Commerce
on behalf of the United States of America. All rights reserved.
##CAS REGISTRY NO=1613-34-9
##$NIST MASS SPEC NO=46817
##MOLFORM=C11 H11 N
##MW=157
##$NIST SOURCE=MSDC
##XUNITS=M/Z
##YUNITS=RELATIVE INTENSITY
##XFACTOR=1
##YFACTOR=1
##FIRSTX=50
##LASTX=158
##FIRSTY=400
##MAXX=158
##MINX=50
##MAXY=9999
##MINY=100
##NPOINTS=29
##PEAK TABLE=(XY..XY)
50,400 51,600 52,100 62,100
63,400 64,100 65,300 74,100
75,300 76,200 77,800 78,400
89,200 101,500 102,600 103,300
115,300 116,200 127,200 128,1700
129,2300 130,800 140,200 142,200
154,300 155,200 156,9999 157,5800
158,600
##END=
