##TITLE=2-Ethylthiacyclohexane
##JCAMP-DX=4.24
##DATA TYPE=MASS SPECTRUM
##ORIGIN=V.A.KOPTYUG, ATLAS OF MASS SPECTRA OF ORGANIC COMPOUNDS
##OWNER=NIST Mass Spectrometry Data Center
Collection (C) 2014 copyright by the U.S. Secretary of Commerce
on behalf of the United States of America. All rights reserved.
##CAS REGISTRY NO=1613-52-1
##$NIST MASS SPEC NO=78674
##MOLFORM=C7 H14 S
##MW=130
##$NIST SOURCE=MSDC
##XUNITS=M/Z
##YUNITS=RELATIVE INTENSITY
##XFACTOR=1
##YFACTOR=1
##FIRSTX=39
##LASTX=132
##FIRSTY=1470
##MAXX=132
##MINX=39
##MAXY=9999
##MINY=100
##NPOINTS=41
##PEAK TABLE=(XY..XY)
39,1470 40,190 41,2350 42,310
43,250 44,150 45,1910 46,460
47,1180 51,150 53,530 54,380
55,1560 56,170 57,100 58,320
59,1620 60,540 61,480 65,160
67,1840 68,380 69,170 71,210
73,140 74,350 75,190 81,440
85,250 87,3750 88,280 89,240
99,200 100,150 101,9999 102,720
103,450 115,320 130,2800 131,280
132,120
##END=
