##TITLE=Propane, 1-(ethylthio)-2-methyl-
##JCAMP-DX=4.24
##DATA TYPE=MASS SPECTRUM
##OWNER=NIST Mass Spectrometry Data Center
Collection (C) 2014 copyright by the U.S. Secretary of Commerce
on behalf of the United States of America. All rights reserved.
##CAS REGISTRY NO=1613-45-2
##$NIST MASS SPEC NO=2073
##MOLFORM=C6 H14 S
##MW=118
##$NIST SOURCE=MSDC
##XUNITS=M/Z
##YUNITS=RELATIVE INTENSITY
##XFACTOR=1
##YFACTOR=1
##FIRSTX=25
##LASTX=121
##FIRSTY=30
##MAXX=121
##MINX=25
##MAXY=9999
##MINY=10
##NPOINTS=70
##PEAK TABLE=(XY..XY)
25,30 26,520 27,4104 28,941
29,4034 30,100 31,10 32,210
33,50 34,90 35,571 36,10
37,80 38,180 39,2112 40,260
41,4414 42,380 43,1181 44,40
45,1812 46,1121 47,4314 48,761
49,240 50,80 51,80 52,20
53,200 54,50 55,1021 56,4174
57,2953 58,280 59,490 60,310
61,1381 62,781 63,530 64,50
65,20 67,10 68,20 69,50
70,10 71,110 72,30 73,130
74,70 75,9999 76,1131 77,470
78,50 79,10 80,10 85,20
87,30 88,20 89,751 90,60
91,40 101,10 103,320 104,20
105,20 117,60 118,3293 119,260
120,160 121,10
##END=
