##TITLE=Quinoline, 1-oxide
##JCAMP-DX=4.24
##DATA TYPE=MASS SPECTRUM
##ORIGIN=A.A.Kutin, Moscow, Russia
##OWNER=NIST Mass Spectrometry Data Center
Collection (C) 2014 copyright by the U.S. Secretary of Commerce
on behalf of the United States of America. All rights reserved.
##CAS REGISTRY NO=1613-37-2
##$NIST MASS SPEC NO=257931
##MOLFORM=C9 H7 N O
##MW=145
##$NIST SOURCE=MSDC
##XUNITS=M/Z
##YUNITS=RELATIVE INTENSITY
##XFACTOR=1
##YFACTOR=1
##FIRSTX=34
##LASTX=150
##FIRSTY=5
##MAXX=150
##MINX=34
##MAXY=9999
##MINY=1
##NPOINTS=106
##PEAK TABLE=(XY..XY)
34,5 36,25 37,268 38,492
39,1413 40,192 41,121 42,28
43,79 44,80 45,97 46,48
48,18 49,149 50,1121 51,1272
52,380 53,106 54,27 55,98
56,20 57,111 59,184 60,34
61,265 62,794 63,1775 64,719
65,336 66,51 67,33 68,35
69,18 70,13 71,13 73,890
74,637 75,875 76,629 77,535
78,216 79,53 80,11 81,16
82,7 83,16 84,25 85,101
86,226 87,285 88,350 89,4300
90,5670 91,597 92,57 93,11
94,6 95,8 96,17 97,27
98,84 99,87 100,141 101,697
102,644 103,176 104,44 105,31
106,20 107,8 108,5 109,19
110,29 111,16 112,14 113,203
114,165 115,240 116,1083 117,1761
118,399 119,60 120,8 121,2
122,4 123,8 124,4 125,3
126,17 127,144 128,672 129,759
130,80 131,4 132,5 133,5
134,3 135,5 136,1 137,1
145,9999 146,1052 147,57 148,4
149,3 150,2
##END=
