##TITLE=Hydrazine, 1,2-diethyl-
##JCAMP-DX=4.24
##DATA TYPE=MASS SPECTRUM
##ORIGIN=Japan AIST/NIMC Database- Spectrum MS-NW-9507
##OWNER=NIST Mass Spectrometry Data Center
Collection (C) 2014 copyright by the U.S. Secretary of Commerce
on behalf of the United States of America. All rights reserved.
##CAS REGISTRY NO=1615-80-1
##$NIST MASS SPEC NO=238639
##MOLFORM=C4 H12 N2
##MW=88
##$NIST SOURCE=MSDC
##XUNITS=M/Z
##YUNITS=RELATIVE INTENSITY
##XFACTOR=1
##YFACTOR=1
##FIRSTX=14
##LASTX=90
##FIRSTY=40
##MAXX=90
##MINX=14
##MAXY=9999
##MINY=10
##NPOINTS=41
##PEAK TABLE=(XY..XY)
14,40 15,439 16,20 17,10
18,40 25,10 26,129 27,949
28,1489 29,2509 30,3229 31,8239
32,499 33,10 39,60 40,189
41,359 42,1109 43,709 44,4869
45,2179 46,90 55,10 56,109
57,249 58,389 59,8529 60,629
61,50 69,10 70,10 71,189
72,20 73,5229 74,219 85,10
86,109 87,199 88,9999 89,859
90,30
##END=
