##TITLE=Diethyl decylphosphonate
##JCAMP-DX=4.24
##DATA TYPE=MASS SPECTRUM
##ORIGIN=NIST Mass Spectrometry Data Center
##OWNER=NIST Mass Spectrometry Data Center
Collection (C) 2014 copyright by the U.S. Secretary of Commerce
on behalf of the United States of America. All rights reserved.
##CAS REGISTRY NO=16165-68-7
##$NIST MASS SPEC NO=343310
##MOLFORM=C14 H31 O3 P
##MW=278
##$NIST SOURCE=MSDC
##XUNITS=M/Z
##YUNITS=RELATIVE INTENSITY
##XFACTOR=1
##YFACTOR=1
##FIRSTX=14
##LASTX=279
##FIRSTY=20
##MAXX=279
##MINX=14
##MAXY=9999
##MINY=10
##NPOINTS=142
##PEAK TABLE=(XY..XY)
14,20 15,180 16,20 17,10
18,80 19,100 27,2833 28,1191
29,6306 30,170 31,210 39,1101
41,6306 42,1231 43,4264 44,240
45,500 47,230 48,50 49,30
50,10 51,40 52,30 53,410
55,3563 56,561 57,921 58,50
59,20 61,50 62,20 63,40
65,1992 66,140 67,480 69,1481
70,150 71,190 72,20 73,10
75,30 76,20 77,90 78,300
79,410 80,1081 81,2322 82,1391
83,1311 84,60 85,110 87,20
89,30 91,801 92,220 93,510
94,300 95,210 96,611 97,2202
98,50 99,40 101,60 103,50
104,90 105,280 106,90 108,2072
109,1722 110,741 111,2282 112,70
113,30 115,70 117,60 118,40
119,200 120,70 121,300 122,320
123,1361 125,6035 126,220 127,50
129,20 131,30 132,20 133,140
134,50 135,270 137,2282 138,2472
139,611 140,30 141,10 143,20
145,10 147,120 148,120 149,220
151,1411 152,9999 153,621 154,60
157,10 161,80 162,30 163,130
165,3843 166,1321 167,110 175,50
176,10 177,20 179,1661 180,450
181,40 187,10 189,20 191,20
193,861 194,180 195,20 203,10
205,100 207,651 208,150 221,611
222,130 223,530 224,50 233,250
235,460 236,100 249,410 250,50
251,110 263,210 264,20 277,120
278,130 279,70
##END=
