##TITLE=CH3CHClCN
##JCAMP-DX=4.24
##DATA TYPE=MASS SPECTRUM
##ORIGIN=NIST Mass Spectrometry Data Center
##OWNER=NIST Mass Spectrometry Data Center
Collection (C) 2014 copyright by the U.S. Secretary of Commerce
on behalf of the United States of America. All rights reserved.
##CAS REGISTRY NO=1617-17-0
##$NIST MASS SPEC NO=343721
##MOLFORM=C3 H4 Cl N
##MW=89
##$NIST SOURCE=MSDC
##XUNITS=M/Z
##YUNITS=RELATIVE INTENSITY
##XFACTOR=1
##YFACTOR=1
##FIRSTX=12
##LASTX=92
##FIRSTY=250
##MAXX=92
##MINX=12
##MAXY=9999
##MINY=10
##NPOINTS=44
##PEAK TABLE=(XY..XY)
12,250 13,180 14,250 15,821
24,170 25,591 26,3613 27,3353
28,9999 29,190 35,400 36,260
37,410 38,470 39,260 42,160
44,10 47,350 48,120 49,220
50,300 51,1371 52,2482 53,1241
54,8678 55,300 59,10 60,80
61,320 62,1011 63,130 64,290
73,110 74,1331 75,70 76,440
77,10 86,20 87,60 88,861
89,1872 90,340 91,571 92,20
##END=
