##TITLE=3-Butenoic acid, ethyl ester
##JCAMP-DX=4.24
##DATA TYPE=MASS SPECTRUM
##ORIGIN=D.HENNEBERG, MAX-PLANCK INSTITUTE, MULHEIM, WEST GERMANY
##OWNER=NIST Mass Spectrometry Data Center
Collection (C) 2014 copyright by the U.S. Secretary of Commerce
on behalf of the United States of America. All rights reserved.
##CAS REGISTRY NO=1617-18-1
##$NIST MASS SPEC NO=62554
##MOLFORM=C6 H10 O2
##MW=114
##$NIST SOURCE=MSDC
##XUNITS=M/Z
##YUNITS=RELATIVE INTENSITY
##XFACTOR=1
##YFACTOR=1
##FIRSTX=24
##LASTX=115
##FIRSTY=6
##MAXX=115
##MINX=24
##MAXY=9999
##MINY=1
##NPOINTS=46
##PEAK TABLE=(XY..XY)
24,6 25,62 26,286 27,1880
28,1114 29,9999 30,226 31,166
32,1 33,4 37,125 38,207
39,1831 40,407 41,4758 42,4416
43,338 44,146 45,253 46,14
50,3 51,1 52,3 53,26
54,20 55,1377 56,63 57,66
58,44 59,4 60,58 61,7
66,3 67,8 68,188 69,2101
70,110 71,16 72,22 73,78
85,19 86,82 87,9 99,43
114,221 115,14
##END=
