##TITLE=2,3,4-Trifluorobenzaldehyde
##JCAMP-DX=4.24
##DATA TYPE=MASS SPECTRUM
##ORIGIN=NIST Mass Spectrometry Data Center
##OWNER=NIST Mass Spectrometry Data Center
Collection (C) 2014 copyright by the U.S. Secretary of Commerce
on behalf of the United States of America. All rights reserved.
##CAS REGISTRY NO=161793-17-5
##$NIST MASS SPEC NO=342773
##MOLFORM=C7 H3 F3 O
##MW=160
##$NIST SOURCE=MSDC
##XUNITS=M/Z
##YUNITS=RELATIVE INTENSITY
##XFACTOR=1
##YFACTOR=1
##FIRSTX=12
##LASTX=162
##FIRSTY=30
##MAXX=162
##MINX=12
##MAXY=9999
##MINY=10
##NPOINTS=84
##PEAK TABLE=(XY..XY)
12,30 13,20 16,40 18,30
19,20 21,10 24,20 25,40
26,60 28,460 29,2082 31,1722
32,120 36,100 37,480 38,240
39,60 40,20 43,20 44,70
45,20 48,60 49,160 50,400
51,180 53,40 55,170 56,460
57,500 60,120 61,951 62,1221
63,1331 64,100 66,210 68,681
69,180 70,20 71,50 72,20
73,150 74,450 75,891 76,30
77,20 79,290 80,791 81,4624
82,430 83,20 84,20 85,50
86,160 87,190 88,250 92,340
93,350 94,50 95,20 99,470
100,60 101,180 103,20 104,20
105,80 106,270 110,60 111,200
112,811 113,270 114,20 123,30
125,30 128,20 131,5145 132,1201
133,60 140,30 143,40 144,20
159,9999 160,8117 161,591 162,30
##END=
