##TITLE=Vincamine
##JCAMP-DX=4.24
##DATA TYPE=MASS SPECTRUM
##ORIGIN=Japan AIST/NIMC Database- Spectrum MS-IW-1760
##OWNER=NIST Mass Spectrometry Data Center
Collection (C) 2014 copyright by the U.S. Secretary of Commerce
on behalf of the United States of America. All rights reserved.
##CAS REGISTRY NO=1617-90-9
##$NIST MASS SPEC NO=233872
##MOLFORM=C21 H26 N2 O3
##MW=354
##$NIST SOURCE=MSDC
##XUNITS=M/Z
##YUNITS=RELATIVE INTENSITY
##XFACTOR=1
##YFACTOR=1
##FIRSTX=15
##LASTX=357
##FIRSTY=70
##MAXX=357
##MINX=15
##MAXY=9999
##MINY=10
##NPOINTS=240
##PEAK TABLE=(XY..XY)
15,70 18,20 27,30 28,60
29,60 30,40 31,10 39,50
40,10 41,149 42,139 43,80
44,109 45,10 51,20 52,10
53,50 54,30 55,129 56,50
57,10 59,40 63,20 65,30
66,10 67,70 68,40 69,40
70,99 71,10 75,20 76,30
77,99 78,20 79,30 80,20
81,40 82,20 83,30 84,60
85,10 88,10 89,40 90,40
91,70 92,129 93,30 94,20
95,60 96,40 97,20 98,20
99,30 101,30 102,40 103,70
104,60 105,129 106,20 107,20
108,30 109,30 110,109 111,99
112,50 113,10 114,20 115,169
116,70 117,80 118,109 119,149
120,20 121,10 122,50 123,50
124,139 125,30 126,99 127,60
128,90 129,60 130,159 131,70
132,90 133,579 134,40 135,10
136,20 137,10 138,179 139,50
140,80 141,50 142,90 143,219
144,319 145,50 146,60 147,529
148,20 150,20 151,20 152,139
153,50 154,139 155,80 156,159
157,149 158,60 159,10 160,10
164,10 165,30 166,70 167,489
168,639 169,289 170,409 171,159
172,30 177,209 178,40 180,409
181,199 182,239 183,129 184,159
185,239 186,40 190,10 191,50
192,80 193,129 194,189 195,149
196,339 197,609 198,229 199,40
204,40 205,50 206,119 207,109
208,179 209,439 210,229 211,109
212,60 213,10 217,20 218,50
219,60 220,70 221,99 222,209
223,349 224,1259 225,329 226,109
227,20 228,10 231,10 232,10
233,30 234,50 235,119 236,209
237,819 238,399 239,80 240,20
243,10 246,10 247,80 248,179
249,99 251,829 252,5499 253,1479
254,189 255,20 261,20 262,20
263,129 264,349 265,609 266,999
267,3069 268,629 269,70 270,10
275,20 276,20 277,50 278,139
279,50 280,50 281,10 282,10
284,929 285,179 286,20 291,20
292,30 293,429 294,619 295,2629
296,579 297,80 298,20 305,20
306,60 307,889 308,269 309,60
310,10 311,109 312,60 313,10
319,10 321,20 322,10 323,20
324,60 325,309 326,90 327,10
335,40 336,169 337,109 338,50
339,429 340,99 341,10 353,2839
354,9999 355,2329 356,319 357,30
##END=
