##TITLE=Bicyclo[5.3.0]decane (cis)
##JCAMP-DX=4.24
##DATA TYPE=MASS SPECTRUM
##ORIGIN=R.Herzschuh ET AL. J.Prakt.Chem.,322,450(1980)
##OWNER=NIST Mass Spectrometry Data Center
Collection (C) 2014 copyright by the U.S. Secretary of Commerce
on behalf of the United States of America. All rights reserved.
##CAS REGISTRY NO=16189-46-1
##$NIST MASS SPEC NO=280226
##MOLFORM=C10 H18
##MW=138
##$NIST SOURCE=MSDC
##XUNITS=M/Z
##YUNITS=RELATIVE INTENSITY
##XFACTOR=1
##YFACTOR=1
##FIRSTX=39
##LASTX=140
##FIRSTY=3583
##MAXX=140
##MINX=39
##MAXY=9999
##MINY=20
##NPOINTS=44
##PEAK TABLE=(XY..XY)
39,3583 40,621 41,6766 42,641
43,711 51,300 52,210 53,1521
54,3974 55,5125 56,1101 57,210
65,510 66,891 67,9318 68,3633
69,1631 70,250 71,110 72,160
77,550 78,140 79,1101 80,621
81,6766 82,9999 83,1311 84,110
91,230 92,40 93,320 94,320
95,6546 96,8408 97,961 109,1191
110,3463 111,300 123,100 136,20
137,40 138,1862 139,210 140,20
##END=
