##TITLE=Propanedioic acid, dimethyl-, diethyl ester
##JCAMP-DX=4.24
##DATA TYPE=MASS SPECTRUM
##ORIGIN=Chuck Anderson, Aldrich Chemical Co.
##OWNER=NIST Mass Spectrometry Data Center
Collection (C) 2014 copyright by the U.S. Secretary of Commerce
on behalf of the United States of America. All rights reserved.
##CAS REGISTRY NO=1619-62-1
##$NIST MASS SPEC NO=107335
##MOLFORM=C9 H16 O4
##MW=188
##$NIST SOURCE=MSDC
##XUNITS=M/Z
##YUNITS=RELATIVE INTENSITY
##XFACTOR=1
##YFACTOR=1
##FIRSTX=13
##LASTX=190
##FIRSTY=5
##MAXX=190
##MINX=13
##MAXY=9999
##MINY=2
##NPOINTS=93
##PEAK TABLE=(XY..XY)
13,5 14,28 15,263 16,19
17,3 18,2 24,6 25,16
26,310 27,3252 28,557 29,9999
30,297 31,692 32,10 35,7
36,15 37,22 38,46 39,896
40,304 41,2017 42,1377 43,956
44,74 45,527 46,18 47,20
50,6 51,6 53,48 54,21
55,133 56,21 57,49 58,44
59,3824 60,244 61,18 63,6
67,13 68,82 69,1174 70,3041
71,1227 72,88 73,3583 74,124
75,25 81,7 82,6 83,67
84,12 85,66 86,468 87,7710
88,8071 89,534 90,52 91,7
95,11 96,34 97,10 98,9
99,280 100,64 101,111 102,11
112,9 113,98 114,156 115,4246
116,7439 117,534 118,49 119,8
127,60 128,6 129,69 130,8
133,5 142,91 143,3222 144,274
145,36 159,5 160,8 161,201
162,17 173,13 188,440 189,65
190,9
##END=
