##TITLE=Hexyl N,N-dimethylphosphoramidocyanidate
##JCAMP-DX=4.24
##DATA TYPE=MASS SPECTRUM
##ORIGIN=VERIFIN - Methodology B1-1979
##OWNER=NIST Mass Spectrometry Data Center
Collection (C) 2014 copyright by the U.S. Secretary of Commerce
on behalf of the United States of America. All rights reserved.
##CAS REGISTRY NO=162085-90-7
##$NIST MASS SPEC NO=226151
##MOLFORM=C9 H19 N2 O2 P
##MW=218
##$NIST SOURCE=MSDC
##XUNITS=M/Z
##YUNITS=RELATIVE INTENSITY
##XFACTOR=1
##YFACTOR=1
##FIRSTX=26
##LASTX=218
##FIRSTY=200
##MAXX=218
##MINX=26
##MAXY=9999
##MINY=60
##NPOINTS=46
##PEAK TABLE=(XY..XY)
26,200 27,1301 28,200 29,600
39,600 40,200 41,1901 42,2502
43,4303 44,2001 45,2402 47,200
53,200 54,200 55,2101 56,1701
57,500 63,90 67,100 69,1301
70,1901 71,200 76,100 77,90
83,200 84,700 85,1401 86,90
90,100 91,100 92,100 106,300
107,400 108,900 109,200 110,100
117,800 126,90 128,100 133,900
134,600 135,9999 136,400 137,90
192,60 218,80
##END=
