##TITLE=Heptyl N,N-dimethylphosphoramidocyanidate
##JCAMP-DX=4.24
##DATA TYPE=MASS SPECTRUM
##ORIGIN=VERIFIN - Methodology B1-1979
##OWNER=NIST Mass Spectrometry Data Center
Collection (C) 2014 copyright by the U.S. Secretary of Commerce
on behalf of the United States of America. All rights reserved.
##CAS REGISTRY NO=162085-91-8
##$NIST MASS SPEC NO=226152
##MOLFORM=C10 H21 N2 O2 P
##MW=232
##$NIST SOURCE=MSDC
##XUNITS=M/Z
##YUNITS=RELATIVE INTENSITY
##XFACTOR=1
##YFACTOR=1
##FIRSTX=27
##LASTX=232
##FIRSTY=600
##MAXX=232
##MINX=27
##MAXY=9999
##MINY=40
##NPOINTS=36
##PEAK TABLE=(XY..XY)
27,600 28,100 29,500 39,400
40,90 41,1701 42,1501 43,2502
44,1201 45,1901 46,100 47,100
53,100 54,200 55,1801 56,2201
57,1401 67,60 68,200 69,1601
70,2302 83,200 90,90 92,100
98,300 106,200 107,200 108,900
109,100 110,100 117,700 133,800
134,300 135,9999 136,500 232,40
##END=
