##TITLE=Heptyl ethylphosphonofluoridate
##JCAMP-DX=4.24
##DATA TYPE=MASS SPECTRUM
##ORIGIN=VERIFIN - Methodology B1-1979
##OWNER=NIST Mass Spectrometry Data Center
Collection (C) 2014 copyright by the U.S. Secretary of Commerce
on behalf of the United States of America. All rights reserved.
##CAS REGISTRY NO=162085-85-0
##$NIST MASS SPEC NO=226142
##MOLFORM=C9 H20 F O2 P
##MW=210
##$NIST SOURCE=MSDC
##XUNITS=M/Z
##YUNITS=RELATIVE INTENSITY
##XFACTOR=1
##YFACTOR=1
##FIRSTX=27
##LASTX=167
##FIRSTY=100
##MAXX=167
##MINX=27
##MAXY=9999
##MINY=10
##NPOINTS=28
##PEAK TABLE=(XY..XY)
27,100 28,50 29,200 39,200
41,600 42,300 43,200 53,50
54,60 55,500 56,500 57,200
67,100 68,50 69,300 70,400
83,50 84,90 85,80 95,100
96,50 98,80 111,70 112,100
113,9999 114,200 125,60 167,10
##END=
