##TITLE=Propyl N,N-dimethylphosphoramidocyanidate
##JCAMP-DX=4.24
##DATA TYPE=MASS SPECTRUM
##ORIGIN=VERIFIN - Methodology B1-1979
##OWNER=NIST Mass Spectrometry Data Center
Collection (C) 2014 copyright by the U.S. Secretary of Commerce
on behalf of the United States of America. All rights reserved.
##CAS REGISTRY NO=162085-86-1
##$NIST MASS SPEC NO=226146
##MOLFORM=C6 H13 N2 O2 P
##MW=176
##$NIST SOURCE=MSDC
##XUNITS=M/Z
##YUNITS=RELATIVE INTENSITY
##XFACTOR=1
##YFACTOR=1
##FIRSTX=26
##LASTX=176
##FIRSTY=70
##MAXX=176
##MINX=26
##MAXY=9999
##MINY=50
##NPOINTS=42
##PEAK TABLE=(XY..XY)
26,70 27,1101 28,600 29,100
30,200 39,900 40,200 41,1301
42,4804 43,9999 44,5605 45,3202
47,900 49,90 60,80 65,300
69,500 70,9308 71,500 72,70
74,200 76,100 83,100 90,200
91,200 92,300 94,50 103,50
106,1301 107,1601 108,2001 109,70
117,1901 118,90 119,300 133,3302
134,2602 135,4804 136,200 147,300
150,70 176,300
##END=
