##TITLE=O-Methyl S-2-diisopropylaminoethyl ethylphosphonothiolate
##JCAMP-DX=4.24
##DATA TYPE=MASS SPECTRUM
##ORIGIN=VERIFIN - Methodology B1-1979
##OWNER=NIST Mass Spectrometry Data Center
Collection (C) 2014 copyright by the U.S. Secretary of Commerce
on behalf of the United States of America. All rights reserved.
##CAS REGISTRY NO=162085-94-1
##$NIST MASS SPEC NO=226162
##MOLFORM=C11 H26 N O2 P S
##MW=267
##$NIST SOURCE=MSDC
##XUNITS=M/Z
##YUNITS=RELATIVE INTENSITY
##XFACTOR=1
##YFACTOR=1
##FIRSTX=27
##LASTX=266
##FIRSTY=300
##MAXX=266
##MINX=27
##MAXY=9999
##MINY=0
##NPOINTS=44
##PEAK TABLE=(XY..XY)
27,300 28,200 29,100 30,700
39,70 41,400 42,400 43,800
44,600 47,100 54,50 56,200
57,50 58,100 59,70 61,60
68,80 69,70 70,1000 71,100
72,2201 73,100 79,600 84,700
85,300 86,200 98,100 102,50
106,60 107,900 108,70 112,600
114,9999 115,800 127,1201 128,300
140,100 144,90 167,900 168,50
169,50 224,60 252,300 266,0
##END=
