##TITLE=n-Heptyl methylphosphonofluoridate
##JCAMP-DX=4.24
##DATA TYPE=MASS SPECTRUM
##ORIGIN=VERIFIN - Methodology B1-1979
##OWNER=NIST Mass Spectrometry Data Center
Collection (C) 2014 copyright by the U.S. Secretary of Commerce
on behalf of the United States of America. All rights reserved.
##CAS REGISTRY NO=162085-82-7
##$NIST MASS SPEC NO=226129
##MOLFORM=C8 H18 F O2 P
##MW=196
##$NIST SOURCE=MSDC
##XUNITS=M/Z
##YUNITS=RELATIVE INTENSITY
##XFACTOR=1
##YFACTOR=1
##FIRSTX=27
##LASTX=153
##FIRSTY=200
##MAXX=153
##MINX=27
##MAXY=9999
##MINY=10
##NPOINTS=27
##PEAK TABLE=(XY..XY)
27,200 28,100 29,300 39,200
41,900 42,500 43,300 47,50
53,60 54,70 55,900 56,900
57,300 67,80 68,80 69,500
70,700 79,70 81,400 82,100
83,80 98,100 99,9999 100,100
111,60 112,60 153,10
##END=
