##TITLE=O-Isopropyl S-2-diethylaminoethyl ethylphosphonothiolate
##JCAMP-DX=4.24
##DATA TYPE=MASS SPECTRUM
##ORIGIN=VERIFINN
##OWNER=NIST Mass Spectrometry Data Center
Collection (C) 2014 copyright by the U.S. Secretary of Commerce
on behalf of the United States of America. All rights reserved.
##CAS REGISTRY NO=162085-93-0
##$NIST MASS SPEC NO=289527
##MOLFORM=C11 H26 N O2 P S
##MW=267
##$NIST SOURCE=MSDC
##XUNITS=M/Z
##YUNITS=RELATIVE INTENSITY
##XFACTOR=1
##YFACTOR=1
##FIRSTX=27
##LASTX=208
##FIRSTY=490
##MAXX=208
##MINX=27
##MAXY=9999
##MINY=50
##NPOINTS=37
##PEAK TABLE=(XY..XY)
27,490 28,530 29,871 30,911
39,80 41,330 42,500 43,450
44,540 47,90 56,691 57,160
58,621 59,90 61,300 65,330
70,450 71,1221 72,410 84,701
86,9999 87,530 93,390 97,50
98,90 99,3994 100,510 104,70
109,50 116,60 118,60 130,70
132,80 135,160 153,210 180,60
208,180
##END=
