##TITLE=1H-Indene, 2,3-dihydro-1,1,4,5-tetramethyl-
##JCAMP-DX=4.24
##DATA TYPE=MASS SPECTRUM
##OWNER=NIST Mass Spectrometry Data Center
Collection (C) 2014 copyright by the U.S. Secretary of Commerce
on behalf of the United States of America. All rights reserved.
##CAS REGISTRY NO=16204-57-2
##$NIST MASS SPEC NO=6929
##MOLFORM=C13 H18
##MW=174
##$NIST SOURCE=MSDC
##XUNITS=M/Z
##YUNITS=RELATIVE INTENSITY
##XFACTOR=1
##YFACTOR=1
##FIRSTX=12
##LASTX=176
##FIRSTY=10
##MAXX=176
##MINX=12
##MAXY=9999
##MINY=10
##NPOINTS=107
##PEAK TABLE=(XY..XY)
12,10 13,10 14,40 15,601
16,10 26,50 27,540 28,160
29,220 30,10 37,10 38,50
39,571 40,60 41,330 42,10
43,40 44,30 50,110 51,380
52,90 53,240 54,10 55,40
56,10 57,30 58,50 61,10
62,60 63,250 64,180 65,230
66,20 67,60 68,10 69,30
70,110 71,420 72,100 74,50
75,80 76,130 77,420 78,150
79,130 81,10 83,10 84,20
85,30 86,50 87,60 88,20
89,90 90,20 91,360 92,10
93,20 98,20 99,10 100,10
101,30 102,100 103,110 104,40
105,150 106,10 107,10 111,10
113,20 114,30 115,651 116,130
117,140 118,30 119,250 120,10
126,40 127,270 128,941 129,801
130,140 131,170 132,20 133,20
139,80 140,40 141,460 142,270
143,500 144,761 145,70 146,10
151,20 152,50 153,40 154,20
155,50 156,40 157,180 158,180
159,9999 171,10 172,60 173,90
174,1501 175,100 176,10
##END=
