##TITLE=Indan, 1,1,6,7-tetramethyl-
##JCAMP-DX=4.24
##DATA TYPE=MASS SPECTRUM
##OWNER=NIST Mass Spectrometry Data Center
Collection (C) 2014 copyright by the U.S. Secretary of Commerce
on behalf of the United States of America. All rights reserved.
##CAS REGISTRY NO=16204-58-3
##$NIST MASS SPEC NO=6932
##MOLFORM=C13 H18
##MW=174
##$NIST SOURCE=MSDC
##XUNITS=M/Z
##YUNITS=RELATIVE INTENSITY
##XFACTOR=1
##YFACTOR=1
##FIRSTX=13
##LASTX=174
##FIRSTY=20
##MAXX=174
##MINX=13
##MAXY=9999
##MINY=10
##NPOINTS=109
##PEAK TABLE=(XY..XY)
13,20 14,60 15,550 16,10
26,50 27,540 28,370 29,230
30,10 37,10 38,50 39,581
40,60 41,340 42,10 43,30
44,10 50,110 51,400 52,90
53,240 54,10 55,30 56,10
57,30 58,50 59,10 61,10
62,60 63,250 64,170 65,240
66,20 67,60 68,10 69,30
70,100 71,410 72,90 74,50
75,80 76,130 77,420 78,150
79,130 81,10 82,10 83,10
84,10 85,20 86,40 87,40
88,10 89,90 90,20 91,380
92,10 93,10 98,20 99,10
100,10 101,30 102,100 103,120
104,40 105,160 106,10 107,10
110,10 111,10 113,20 114,30
115,651 116,120 117,140 118,40
119,250 120,10 125,10 126,40
127,280 128,941 129,831 130,130
131,180 132,20 133,20 139,70
140,40 141,440 142,240 143,490
144,841 145,80 146,10 151,20
152,40 153,40 154,20 155,50
156,30 157,120 158,140 159,9999
160,60 165,10 172,20 173,60
174,1651
##END=
