##TITLE=O-Isopropyl S-2-dimethylaminoethyl ethylphosphonothiolate
##JCAMP-DX=4.24
##DATA TYPE=MASS SPECTRUM
##ORIGIN=VERIFIN - Methodology B1-1979
##OWNER=NIST Mass Spectrometry Data Center
Collection (C) 2014 copyright by the U.S. Secretary of Commerce
on behalf of the United States of America. All rights reserved.
##CAS REGISTRY NO=162085-92-9
##$NIST MASS SPEC NO=226156
##MOLFORM=C9 H22 N O2 P S
##MW=239
##$NIST SOURCE=MSDC
##XUNITS=M/Z
##YUNITS=RELATIVE INTENSITY
##XFACTOR=1
##YFACTOR=1
##FIRSTX=26
##LASTX=238
##FIRSTY=70
##MAXX=238
##MINX=26
##MAXY=9999
##MINY=0
##NPOINTS=35
##PEAK TABLE=(XY..XY)
26,70 27,300 28,70 29,200
30,100 39,100 41,300 42,800
43,700 44,400 45,70 47,60
56,400 57,200 58,9999 59,400
60,50 61,200 65,300 70,300
71,8507 72,900 73,50 93,300
94,400 98,50 102,200 104,100
109,70 127,70 135,100 153,100
168,70 180,500 238,0
##END=
