##TITLE=3,5-di-tert-Butyl-4-hydroxybenzaldehyde
##JCAMP-DX=4.24
##DATA TYPE=MASS SPECTRUM
##ORIGIN=NIST Mass Spectrometry Data Center, 1994
##OWNER=NIST Mass Spectrometry Data Center
Collection (C) 2014 copyright by the U.S. Secretary of Commerce
on behalf of the United States of America. All rights reserved.
##CAS REGISTRY NO=1620-98-0
##$NIST MASS SPEC NO=133808
##MOLFORM=C15 H22 O2
##MW=234
##$NIST SOURCE=MSDC
##XUNITS=M/Z
##YUNITS=RELATIVE INTENSITY
##XFACTOR=1
##YFACTOR=1
##FIRSTX=15
##LASTX=236
##FIRSTY=159
##MAXX=236
##MINX=15
##MAXY=9999
##MINY=21
##NPOINTS=111
##PEAK TABLE=(XY..XY)
15,159 27,294 28,136 29,922
30,24 39,511 41,1374 42,82
43,256 50,40 51,284 52,94
53,300 54,40 55,511 56,40
57,1925 58,141 59,28 60,28
62,34 63,174 64,120 65,363
66,75 67,115 69,84 70,21
72,61 73,62 74,199 75,69
76,21 77,617 78,165 79,358
80,95 81,48 86,57 87,272
88,622 89,152 90,48 91,1076
92,110 93,100 94,41 95,51
101,130 102,370 103,230 104,62
105,347 106,51 107,328 108,34
109,36 115,691 116,288 117,361
118,64 119,295 120,45 121,105
123,35 127,142 128,396 129,302
130,99 131,427 132,88 133,197
134,50 135,180 139,22 141,199
142,108 143,124 144,39 145,152
146,60 147,339 148,41 149,72
153,35 155,26 157,49 159,540
160,75 161,180 162,32 163,176
173,43 175,809 176,117 177,61
189,117 191,3176 192,411 193,41
203,483 204,72 205,78 206,22
217,38 219,9999 220,1589 221,141
234,2799 235,462 236,52
##END=
