##TITLE=(3S,3aR,6R,8aS)-7,7-Dimethyl-8-methyleneoctahydro-1H-3a,6-methanoazulene-3-carboxylic acid
##JCAMP-DX=4.24
##DATA TYPE=MASS SPECTRUM
##ORIGIN=NIST Mass Spectrometry Data Center, 2010
##OWNER=NIST Mass Spectrometry Data Center
Collection (C) 2014 copyright by the U.S. Secretary of Commerce
on behalf of the United States of America. All rights reserved.
##CAS REGISTRY NO=16203-25-1
##$NIST MASS SPEC NO=384110
##MOLFORM=C15 H22 O2
##MW=234
##$NIST SOURCE=MSDC
##XUNITS=M/Z
##YUNITS=RELATIVE INTENSITY
##XFACTOR=1
##YFACTOR=1
##FIRSTX=26
##LASTX=236
##FIRSTY=20
##MAXX=236
##MINX=26
##MAXY=9999
##MINY=10
##NPOINTS=154
##PEAK TABLE=(XY..XY)
26,20 27,390 29,430 30,10
37,10 38,40 39,1341 40,280
41,3373 42,250 43,1041 44,60
45,380 46,20 47,20 50,110
51,621 52,290 53,1511 54,220
55,2732 56,140 57,320 58,100
59,80 60,60 62,30 63,300
64,240 65,1862 66,530 67,2843
68,320 69,1802 70,360 71,390
72,150 73,651 74,60 75,60
76,70 77,3243 78,931 79,3863
80,591 81,1792 83,591 84,80
85,70 86,60 87,150 88,1031
89,230 90,200 91,5945 92,1641
93,2352 94,480 95,1942 96,1081
97,280 98,60 99,50 101,50
102,160 103,661 104,410 105,3333
106,841 107,1351 108,821 109,1041
110,450 111,190 112,20 114,20
115,1321 116,581 117,5885 118,1391
119,9999 120,1231 121,1271 122,210
123,500 124,330 125,160 126,90
127,250 128,851 129,1041 130,571
131,2632 132,941 133,2062 134,340
135,330 136,1011 137,1411 138,210
139,80 141,170 142,80 143,280
144,230 145,9929 146,1511 147,1842
148,240 149,320 150,430 151,140
152,150 153,30 154,40 155,40
156,20 157,90 158,100 159,861
160,290 161,390 162,601 163,1291
164,8698 165,2122 166,260 167,40
168,20 171,30 172,30 173,1702
174,290 176,80 177,210 178,410
179,80 183,50 186,20 187,60
188,1852 189,1922 191,3103 192,430
201,160 205,100 206,70 216,200
219,6306 220,1001 221,80 234,1241
235,200 236,20
##END=
