##TITLE=Butyl N,N-dimethylphosphoramidocyanidate
##JCAMP-DX=4.24
##DATA TYPE=MASS SPECTRUM
##ORIGIN=VERIFIN - Methodology B1-1979
##OWNER=NIST Mass Spectrometry Data Center
Collection (C) 2014 copyright by the U.S. Secretary of Commerce
on behalf of the United States of America. All rights reserved.
##CAS REGISTRY NO=162085-87-2
##$NIST MASS SPEC NO=226149
##MOLFORM=C7 H15 N2 O2 P
##MW=190
##$NIST SOURCE=MSDC
##XUNITS=M/Z
##YUNITS=RELATIVE INTENSITY
##XFACTOR=1
##YFACTOR=1
##FIRSTX=27
##LASTX=190
##FIRSTY=800
##MAXX=190
##MINX=27
##MAXY=9999
##MINY=60
##NPOINTS=45
##PEAK TABLE=(XY..XY)
27,800 28,500 29,900 30,70
32,70 39,700 40,80 41,2201
42,2502 43,5104 44,2502 45,2902
46,80 47,400 49,70 51,90
53,100 54,200 55,600 56,2902
57,600 65,200 69,200 70,4203
71,200 73,200 76,100 83,100
90,200 91,100 92,200 96,60
106,600 107,1000 108,1901 109,200
117,1601 118,70 119,200 133,1901
134,1000 135,9999 136,400 147,200
190,200
##END=
