##TITLE=Diethylaminoacetone
##JCAMP-DX=4.24
##DATA TYPE=MASS SPECTRUM
##ORIGIN=Japan AIST/NIMC Database- Spectrum MS-IW-2317
##OWNER=NIST Mass Spectrometry Data Center
Collection (C) 2014 copyright by the U.S. Secretary of Commerce
on behalf of the United States of America. All rights reserved.
##CAS REGISTRY NO=1620-14-0
##$NIST MASS SPEC NO=235104
##MOLFORM=C7 H15 N O
##MW=129
##$NIST SOURCE=MSDC
##XUNITS=M/Z
##YUNITS=RELATIVE INTENSITY
##XFACTOR=1
##YFACTOR=1
##FIRSTX=14
##LASTX=130
##FIRSTY=10
##MAXX=130
##MINX=14
##MAXY=9999
##MINY=10
##NPOINTS=53
##PEAK TABLE=(XY..XY)
14,10 15,99 26,40 27,329
28,449 29,629 30,2039 31,40
39,50 40,30 41,159 42,599
43,429 44,159 45,20 52,10
53,10 54,70 55,50 56,639
57,219 58,2919 59,109 60,10
67,10 68,20 69,10 70,109
71,70 72,70 73,10 80,10
82,20 83,10 84,139 85,40
86,9999 87,629 88,10 94,20
98,20 100,30 101,30 108,20
109,20 110,10 112,30 114,159
115,10 126,20 128,40 129,149
130,20
##END=
