##TITLE=Clonazepam
##JCAMP-DX=4.24
##DATA TYPE=MASS SPECTRUM
##ORIGIN=Dr. P.K. Shah, NYC Police Laboratory, NY
##OWNER=NIST Mass Spectrometry Data Center
Collection (C) 2014 copyright by the U.S. Secretary of Commerce
on behalf of the United States of America. All rights reserved.
##CAS REGISTRY NO=1622-61-3
##$NIST MASS SPEC NO=312384
##MOLFORM=C15 H10 Cl N3 O3
##MW=315
##$NIST SOURCE=MSDC
##XUNITS=M/Z
##YUNITS=RELATIVE INTENSITY
##XFACTOR=1
##YFACTOR=1
##FIRSTX=38
##LASTX=318
##FIRSTY=350
##MAXX=318
##MINX=38
##MAXY=9999
##MINY=10
##NPOINTS=160
##PEAK TABLE=(XY..XY)
38,350 39,180 40,180 46,110
49,100 50,500 51,861 52,571
53,350 54,200 56,20 61,330
62,811 63,1201 64,410 65,350
66,250 68,180 69,20 70,150
74,781 75,2182 76,1782 77,881
78,621 79,200 80,280 82,621
85,350 87,220 89,1962 90,621
92,10 93,50 94,60 97,611
98,420 99,350 100,200 101,480
102,1832 103,1381 104,330 107,170
108,120 109,190 111,380 112,240
113,561 114,160 116,40 120,440
122,200 123,581 125,1221 126,510
127,470 128,140 129,340 130,561
134,210 135,60 136,70 137,210
138,841 139,470 140,651 141,150
142,190 144,250 145,180 146,210
147,40 148,280 149,1261 150,2492
151,2402 152,480 153,280 155,130
157,200 158,130 160,240 161,10
162,170 164,230 166,490 167,330
173,380 174,150 175,581 176,1011
177,2833 178,1942 179,1571 180,100
184,130 185,140 186,210 187,250
188,160 189,90 190,270 191,290
192,260 200,210 201,70 203,310
205,3143 206,1661 212,250 213,230
214,60 215,50 216,40 220,170
221,510 224,160 225,330 227,130
232,150 233,671 234,5835 235,530
239,1301 240,5895 241,1892 242,1822
249,170 250,310 251,270 252,1431
253,200 256,1071 258,530 259,110
260,140 261,130 267,30 268,2172
269,460 270,871 280,9999 281,1361
284,250 285,1571 286,6996 287,3924
288,6336 289,1742 290,1311 291,300
297,160 298,100 299,20 314,9278
315,5725 316,3733 317,2062 318,410
##END=
