##TITLE=Ethanone, 1-(1,3-dimethyl-1H-indol-2-yl)-
##JCAMP-DX=4.24
##DATA TYPE=MASS SPECTRUM
##ORIGIN=A.Pleshkova, Nesmeyanov Inst.Org.Elem.Cpds, Moscow
##OWNER=NIST Mass Spectrometry Data Center
Collection (C) 2014 copyright by the U.S. Secretary of Commerce
on behalf of the United States of America. All rights reserved.
##CAS REGISTRY NO=16244-26-1
##$NIST MASS SPEC NO=283962
##MOLFORM=C12 H13 N O
##MW=187
##$NIST SOURCE=MSDC
##XUNITS=M/Z
##YUNITS=RELATIVE INTENSITY
##XFACTOR=1
##YFACTOR=1
##FIRSTX=41
##LASTX=189
##FIRSTY=90
##MAXX=189
##MINX=41
##MAXY=9999
##MINY=30
##NPOINTS=71
##PEAK TABLE=(XY..XY)
41,90 42,390 43,2022 50,490
51,851 52,290 53,110 55,50
59,60 61,110 62,300 63,741
64,220 65,310 66,140 71,70
72,100 73,70 74,540 75,841
76,821 77,2462 78,350 85,60
86,300 87,240 88,170 89,480
90,170 91,440 92,50 94,320
98,90 99,100 100,110 101,681
102,1431 103,2012 104,250 113,100
114,160 115,1181 116,621 117,500
118,130 126,60 127,520 128,1712
129,1031 130,811 131,110 140,140
141,80 142,520 143,2022 144,5775
145,701 154,160 156,80 157,110
158,310 167,70 168,170 172,9999
173,1231 174,110 175,30 186,971
187,8207 188,1191 189,90
##END=
