##TITLE=Estra-1,3,5(10)-trien-17-one, 3-methoxy-
##JCAMP-DX=4.24
##DATA TYPE=MASS SPECTRUM
##ORIGIN=NIST Mass Spectrometry Data Center
##OWNER=NIST Mass Spectrometry Data Center
Collection (C) 2014 copyright by the U.S. Secretary of Commerce
on behalf of the United States of America. All rights reserved.
##CAS REGISTRY NO=1624-62-0
##$NIST MASS SPEC NO=332734
##MOLFORM=C19 H24 O2
##MW=284
##$NIST SOURCE=MSDC
##XUNITS=M/Z
##YUNITS=RELATIVE INTENSITY
##XFACTOR=1
##YFACTOR=1
##FIRSTX=15
##LASTX=287
##FIRSTY=30
##MAXX=287
##MINX=15
##MAXY=9999
##MINY=10
##NPOINTS=217
##PEAK TABLE=(XY..XY)
15,30 26,10 27,160 28,80
29,230 31,10 38,10 39,400
40,90 41,931 42,140 43,180
44,10 45,110 50,50 51,250
52,110 53,550 54,110 55,961
56,80 57,200 58,20 59,10
62,30 63,220 64,100 65,500
66,100 67,591 68,100 69,200
70,30 71,40 74,30 75,70
76,150 77,831 78,400 79,611
80,70 81,360 82,110 83,130
84,20 85,120 86,160 87,30
88,40 89,290 90,90 91,1762
92,310 93,370 94,80 95,190
96,40 97,941 98,140 99,390
101,60 102,330 103,661 104,320
105,480 106,270 107,520 108,110
109,170 110,50 111,130 112,80
113,70 114,120 115,2692 116,821
117,811 118,140 119,280 120,70
121,981 122,510 123,270 124,80
125,20 126,90 127,771 128,1842
129,1431 130,420 131,631 132,240
133,170 134,1541 135,550 136,80
137,30 138,10 139,170 140,70
141,931 142,400 143,540 144,951
145,1261 146,480 147,1551 148,300
149,110 150,170 151,100 152,410
153,490 154,250 155,370 156,130
157,380 158,1301 159,2472 160,5885
161,1351 162,170 163,80 164,40
165,430 166,170 167,260 168,130
169,220 170,170 171,1361 172,941
173,1982 174,1621 175,230 176,50
177,30 178,140 179,130 180,60
181,160 182,100 183,220 184,921
185,761 186,3283 187,941 188,200
189,60 190,20 191,30 192,10
193,70 194,50 195,120 196,110
197,270 198,260 199,5345 200,1431
201,230 202,40 203,10 205,10
206,10 207,20 208,20 209,110
210,70 211,200 212,150 213,571
214,190 215,50 216,10 219,10
221,10 222,10 223,60 224,60
225,320 226,170 227,1181 228,591
229,90 230,10 233,10 235,60
236,20 237,60 238,30 239,60
240,210 241,140 242,70 243,10
250,10 251,130 252,30 253,60
254,20 255,120 256,460 257,80
258,10 265,40 266,20 267,50
268,10 269,160 270,40 282,30
283,240 284,9999 285,2082 286,260
287,20
##END=
