##TITLE=4,4'-di-tert-Butylbiphenyl
##JCAMP-DX=4.24
##DATA TYPE=MASS SPECTRUM
##ORIGIN=NIST Mass Spectrometry Data Center
##OWNER=NIST Mass Spectrometry Data Center
Collection (C) 2014 copyright by the U.S. Secretary of Commerce
on behalf of the United States of America. All rights reserved.
##CAS REGISTRY NO=1625-91-8
##$NIST MASS SPEC NO=340916
##MOLFORM=C20 H26
##MW=266
##$NIST SOURCE=MSDC
##XUNITS=M/Z
##YUNITS=RELATIVE INTENSITY
##XFACTOR=1
##YFACTOR=1
##FIRSTX=15
##LASTX=268
##FIRSTY=40
##MAXX=268
##MINX=15
##MAXY=9999
##MINY=10
##NPOINTS=131
##PEAK TABLE=(XY..XY)
15,40 27,140 29,430 30,10
39,380 40,20 41,1842 42,70
43,60 50,20 51,110 52,20
53,70 55,200 57,3313 58,150
62,10 63,90 64,40 65,90
67,10 69,20 74,20 75,60
76,290 77,330 78,60 79,20
82,200 83,180 87,30 88,100
89,661 90,4664 92,20 93,10
95,370 96,530 99,10 100,20
101,180 102,280 103,440 104,1651
107,20 108,30 109,30 110,30
111,30 113,30 114,20 115,500
116,90 117,140 118,1571 126,80
127,120 128,200 129,90 130,10
131,10 133,20 139,150 140,20
141,100 142,20 143,10 150,70
151,190 152,611 153,280 154,170
155,270 156,30 163,60 164,70
165,1031 166,380 167,721 168,100
169,10 175,10 176,150 177,120
178,891 179,540 180,230 181,130
182,10 187,10 188,10 189,180
190,90 191,280 192,150 193,601
194,210 195,220 196,30 200,10
201,10 202,110 203,100 204,50
205,110 206,60 207,240 208,240
209,100 210,10 215,20 217,10
219,20 220,30 221,591 222,110
223,340 224,60 234,10 235,240
236,340 237,70 238,10 249,40
251,9999 252,2122 253,210 254,10
266,2813 267,611 268,60
##END=
