##TITLE=Trimethylphenylgermanium
##JCAMP-DX=4.24
##DATA TYPE=MASS SPECTRUM
##ORIGIN=A.A.Kutin, Moscow, Russia
##OWNER=NIST Mass Spectrometry Data Center
Collection (C) 2014 copyright by the U.S. Secretary of Commerce
on behalf of the United States of America. All rights reserved.
##CAS REGISTRY NO=1626-00-2
##$NIST MASS SPEC NO=257933
##MOLFORM=C9 H14 Ge
##MW=196
##$NIST SOURCE=MSDC
##XUNITS=M/Z
##YUNITS=RELATIVE INTENSITY
##XFACTOR=1
##YFACTOR=1
##FIRSTX=33
##LASTX=199
##FIRSTY=49
##MAXX=199
##MINX=33
##MAXY=9999
##MINY=1
##NPOINTS=99
##PEAK TABLE=(XY..XY)
33,49 36,85 39,1969 41,331
42,51 43,35 44,36 51,4882
53,57 55,13 56,1 57,16
63,674 65,1383 67,5 70,464
71,475 72,531 73,762 74,1031
75,848 77,1958 78,157 79,77
80,9 81,12 85,2145 87,2875
89,4720 91,4792 95,997 97,1415
99,1917 100,388 101,427 102,361
103,292 104,419 105,192 106,67
107,43 108,109 109,164 110,157
111,239 112,201 113,197 115,368
117,404 119,660 121,702 123,860
125,911 127,173 129,21 131,10
132,13 133,42 134,52 135,180
137,297 138,106 139,222 141,61
143,15 145,123 147,2132 149,2789
150,1073 151,2798 153,808 154,24
156,21 158,30 159,54 161,248
162,198 163,298 164,272 165,318
166,251 167,86 168,48 169,10
171,4 172,7 177,7956 179,9999
180,4060 181,9673 183,3137 190,9
192,322 194,454 195,167 196,446
197,47 198,84 199,5
##END=
