##TITLE=8-Benzoyloctanoic acid
##JCAMP-DX=4.24
##DATA TYPE=MASS SPECTRUM
##ORIGIN=NIST Mass Spectrometry Data Center, 1994
##OWNER=NIST Mass Spectrometry Data Center
Collection (C) 2014 copyright by the U.S. Secretary of Commerce
on behalf of the United States of America. All rights reserved.
##CAS REGISTRY NO=16269-05-9
##$NIST MASS SPEC NO=136459
##MOLFORM=C15 H20 O3
##MW=248
##$NIST SOURCE=MSDC
##XUNITS=M/Z
##YUNITS=RELATIVE INTENSITY
##XFACTOR=1
##YFACTOR=1
##FIRSTX=8
##LASTX=248
##FIRSTY=13
##MAXX=248
##MINX=8
##MAXY=9999
##MINY=13
##NPOINTS=93
##PEAK TABLE=(XY..XY)
8,13 17,29 18,78 26,31
27,675 28,250 29,370 36,40
37,20 38,61 39,717 40,99
41,1087 42,357 43,312 44,23
45,586 50,414 51,1587 52,143
53,167 54,63 55,993 56,108
57,54 60,326 61,16 62,35
63,78 64,27 65,127 66,32
67,92 68,55 69,147 70,26
71,22 73,120 75,94 76,302
77,5086 78,817 79,110 81,49
83,63 84,28 86,33 89,48
90,18 91,308 92,78 97,32
98,41 102,33 103,69 105,9999
106,709 107,68 115,120 116,25
117,54 118,27 119,25 120,5670
121,723 122,62 125,17 128,56
129,71 130,29 131,33 132,17
133,486 134,60 138,25 144,28
145,32 146,23 147,19 157,24
159,18 161,17 173,24 174,21
187,15 188,44 201,34 202,135
216,92 217,19 230,40 234,30
248,41
##END=
