##TITLE=Pyridine, 2-methoxy-
##JCAMP-DX=4.24
##DATA TYPE=MASS SPECTRUM
##ORIGIN=Japan AIST/NIMC Database- Spectrum MS-NW-8329
##OWNER=NIST Mass Spectrometry Data Center
Collection (C) 2014 copyright by the U.S. Secretary of Commerce
on behalf of the United States of America. All rights reserved.
##CAS REGISTRY NO=1628-89-3
##$NIST MASS SPEC NO=236061
##MOLFORM=C6 H7 N O
##MW=109
##$NIST SOURCE=MSDC
##XUNITS=M/Z
##YUNITS=RELATIVE INTENSITY
##XFACTOR=1
##YFACTOR=1
##FIRSTX=13
##LASTX=111
##FIRSTY=10
##MAXX=111
##MINX=13
##MAXY=9999
##MINY=10
##NPOINTS=62
##PEAK TABLE=(XY..XY)
13,10 14,40 15,359 17,10
18,70 25,40 26,319 27,569
28,589 29,169 30,30 31,80
32,20 36,40 37,429 38,1229
39,3129 40,439 41,169 42,419
43,40 44,10 48,20 49,159
50,839 51,2069 52,5549 53,1139
54,139 55,179 56,50 58,10
60,20 62,30 63,80 64,289
65,279 66,709 67,109 68,40
74,10 75,119 76,179 77,80
78,2259 79,9999 80,3149 81,279
82,10 85,10 86,30 88,10
91,20 93,139 94,50 95,10
106,169 107,40 108,7349 109,6019
110,449 111,20
##END=
