##TITLE=2,6-Dimethylphenol, TMS derivative
##JCAMP-DX=4.24
##DATA TYPE=MASS SPECTRUM
##ORIGIN=NIST Mass Spectrometry Data Center, 2009
##OWNER=NIST Mass Spectrometry Data Center
Collection (C) 2014 copyright by the U.S. Secretary of Commerce
on behalf of the United States of America. All rights reserved.
##CAS REGISTRY NO=16286-54-7
##$NIST MASS SPEC NO=373169
##MOLFORM=C11 H18 O Si
##MW=194
##$NIST SOURCE=MSDC
##XUNITS=M/Z
##YUNITS=RELATIVE INTENSITY
##XFACTOR=1
##YFACTOR=1
##FIRSTX=15
##LASTX=197
##FIRSTY=10
##MAXX=197
##MINX=15
##MAXY=9999
##MINY=10
##NPOINTS=114
##PEAK TABLE=(XY..XY)
15,10 27,70 28,20 29,40
31,40 38,10 39,160 40,20
41,60 42,20 43,240 44,90
45,651 46,50 47,90 50,40
51,160 52,70 53,150 54,20
55,60 56,10 57,60 58,60
59,290 60,40 61,90 62,30
63,120 64,30 65,250 66,40
67,70 68,60 69,40 70,20
71,30 72,110 73,2012 74,290
75,1081 76,110 77,901 78,250
79,400 81,490 82,510 85,30
86,10 87,20 89,250 91,751
92,110 93,70 94,10 95,30
96,10 97,20 98,10 99,10
101,10 102,80 103,470 104,180
105,6566 106,581 107,60 108,10
109,30 111,10 115,160 116,40
117,120 118,30 119,300 120,70
121,170 122,20 123,30 129,10
130,10 131,40 133,70 134,20
135,200 136,30 137,60 138,10
143,20 145,130 146,30 147,220
148,130 149,3433 150,520 151,210
159,40 160,10 161,310 162,110
163,1702 164,380 165,120 175,120
177,761 178,330 179,9999 180,1631
181,480 193,280 194,8117 195,1401
196,390 197,40
##END=
