##TITLE=1-Triethylsilyloxytetradecane
##JCAMP-DX=4.24
##DATA TYPE=MASS SPECTRUM
##ORIGIN=V.G. Zaikin, TIPS RAS, Moscow, Russia
##OWNER=NIST Mass Spectrometry Data Center
Collection (C) 2014 copyright by the U.S. Secretary of Commerce
on behalf of the United States of America. All rights reserved.
##CAS REGISTRY NO=163015-55-2
##$NIST MASS SPEC NO=278952
##MOLFORM=C20 H44 O Si
##MW=328
##$NIST SOURCE=MSDC
##XUNITS=M/Z
##YUNITS=RELATIVE INTENSITY
##XFACTOR=1
##YFACTOR=1
##FIRSTX=27
##LASTX=328
##FIRSTY=911
##MAXX=328
##MINX=27
##MAXY=9999
##MINY=20
##NPOINTS=114
##PEAK TABLE=(XY..XY)
27,911 28,150 29,1772 30,40
31,140 35,40 36,110 38,60
39,540 40,150 41,2662 42,550
43,3483 44,480 45,731 46,40
47,1291 48,60 49,60 50,60
51,90 52,90 53,190 54,150
55,1972 56,460 57,1692 58,290
59,1191 60,110 61,390 62,40
63,70 65,70 66,70 67,310
68,170 69,1091 70,250 71,581
72,70 73,310 74,140 75,4884
76,330 77,190 78,40 79,180
80,40 81,180 82,110 83,951
84,90 85,310 86,110 87,1531
88,180 89,921 90,90 91,70
93,60 94,40 95,140 96,40
97,520 98,60 99,210 100,40
101,450 102,70 103,2292 104,230
105,110 107,40 109,80 110,40
111,180 112,40 113,160 114,60
115,891 116,110 117,450 118,40
121,40 123,60 125,60 126,40
127,110 128,40 129,440 130,60
131,60 139,40 141,40 143,110
145,60 157,70 171,80 185,60
199,110 213,90 227,60 241,40
269,90 270,40 271,80 298,210
299,9999 300,2352 301,611 302,90
327,20 328,20
##END=
