##TITLE=Cyclopropane, 1,1-dimethyl-
##JCAMP-DX=4.24
##DATA TYPE=MASS SPECTRUM
##ORIGIN=NIST Mass Spectrometry Data Center, 1990.
##OWNER=NIST Mass Spectrometry Data Center
Collection (C) 2014 copyright by the U.S. Secretary of Commerce
on behalf of the United States of America. All rights reserved.
##CAS REGISTRY NO=1630-94-0
##$NIST MASS SPEC NO=114476
##MOLFORM=C5 H10
##MW=70
##$NIST SOURCE=MSDC
##XUNITS=M/Z
##YUNITS=RELATIVE INTENSITY
##XFACTOR=1
##YFACTOR=1
##FIRSTX=15
##LASTX=71
##FIRSTY=502
##MAXX=71
##MINX=15
##MAXY=9999
##MINY=55
##NPOINTS=27
##PEAK TABLE=(XY..XY)
15,502 26,508 27,2450 28,295
29,2198 30,55 37,275 38,674
39,4388 40,781 41,3383 42,2672
43,239 49,90 50,452 51,483
52,185 53,1428 54,90 55,9999
56,483 62,65 63,65 65,61
67,179 70,4202 71,221
##END=
