##TITLE=1H-Pyrrole-2,5-dione, 1-(4-methylphenyl)-
##JCAMP-DX=4.24
##DATA TYPE=MASS SPECTRUM
##ORIGIN=Japan AIST/NIMC Database- Spectrum MS-IW-3150
##OWNER=NIST Mass Spectrometry Data Center
Collection (C) 2014 copyright by the U.S. Secretary of Commerce
on behalf of the United States of America. All rights reserved.
##CAS REGISTRY NO=1631-28-3
##$NIST MASS SPEC NO=243849
##MOLFORM=C11 H9 N O2
##MW=187
##$NIST SOURCE=MSDC
##XUNITS=M/Z
##YUNITS=RELATIVE INTENSITY
##XFACTOR=1
##YFACTOR=1
##FIRSTX=25
##LASTX=190
##FIRSTY=10
##MAXX=190
##MINX=25
##MAXY=9999
##MINY=10
##NPOINTS=86
##PEAK TABLE=(XY..XY)
25,10 26,419 27,129 28,99
29,10 37,20 38,60 39,279
40,30 41,40 49,10 50,169
51,399 52,249 53,219 54,949
55,80 56,10 58,10 61,20
62,60 63,179 64,80 65,259
66,30 70,10 74,30 75,50
76,109 77,569 78,379 79,119
80,99 82,219 83,10 86,10
87,10 88,10 89,139 90,529
91,549 92,499 93,99 94,10
102,60 103,99 104,459 105,169
106,459 107,269 108,139 109,10
114,30 115,60 116,209 117,1269
118,359 119,30 128,30 129,20
130,1139 131,469 132,629 133,309
134,40 140,10 141,109 142,99
143,719 144,169 145,90 146,20
157,10 158,619 159,459 160,50
169,119 170,20 172,399 173,40
185,30 186,409 187,9999 188,1249
189,139 190,10
##END=
