##TITLE=Silane, chloromethylphenyl-
##JCAMP-DX=4.24
##DATA TYPE=MASS SPECTRUM
##ORIGIN=RADIAN CORP
##OWNER=NIST Mass Spectrometry Data Center
Collection (C) 2014 copyright by the U.S. Secretary of Commerce
on behalf of the United States of America. All rights reserved.
##CAS REGISTRY NO=1631-82-9
##$NIST MASS SPEC NO=73250
##MOLFORM=C7 H9 Cl Si
##MW=156
##$NIST SOURCE=MSDC
##XUNITS=M/Z
##YUNITS=RELATIVE INTENSITY
##XFACTOR=1
##YFACTOR=1
##FIRSTX=15
##LASTX=159
##FIRSTY=50
##MAXX=159
##MINX=15
##MAXY=9999
##MINY=20
##NPOINTS=50
##PEAK TABLE=(XY..XY)
15,50 27,180 38,50 39,420
42,150 43,770 50,1040 51,1880
52,320 53,1310 54,140 55,30
62,20 63,8680 64,620 65,3630
66,230 67,330 76,190 77,1520
78,9999 79,2110 80,3340 81,550
82,20 88,50 89,350 90,50
91,1120 92,110 93,260 101,20
103,590 105,1700 106,250 115,150
117,30 119,310 120,160 121,150
140,420 141,7670 142,1030 143,2780
144,280 155,6480 156,6440 157,3040
158,2240 159,320
##END=
