##TITLE=2H-Imidazo[4,5-b]pyridin-2-one, 1,3-dihydro-
##JCAMP-DX=4.24
##DATA TYPE=MASS SPECTRUM
##ORIGIN=F.M.HERSHENSON G.D. SEARLE AND CO., CHICAGO, ILLINOIS, USA
##OWNER=NIST Mass Spectrometry Data Center
Collection (C) 2014 copyright by the U.S. Secretary of Commerce
on behalf of the United States of America. All rights reserved.
##CAS REGISTRY NO=16328-62-4
##$NIST MASS SPEC NO=3289
##MOLFORM=C6 H5 N3 O
##MW=135
##$NIST SOURCE=MSDC
##XUNITS=M/Z
##YUNITS=RELATIVE INTENSITY
##XFACTOR=1
##YFACTOR=1
##FIRSTX=38
##LASTX=136
##FIRSTY=1040
##MAXX=136
##MINX=38
##MAXY=9999
##MINY=420
##NPOINTS=14
##PEAK TABLE=(XY..XY)
38,1040 39,730 52,1350 53,1980
55,520 63,620 64,1250 79,520
80,2080 92,620 107,2300 108,420
135,9999 136,834
##END=
