##TITLE=1,3-Cyclopentanediol, cis-
##JCAMP-DX=4.24
##DATA TYPE=MASS SPECTRUM
##ORIGIN=G.A.SINGY UNIVERSITY OF GENEVA, GENEVA, SWITZERLAND
##OWNER=NIST Mass Spectrometry Data Center
Collection (C) 2014 copyright by the U.S. Secretary of Commerce
on behalf of the United States of America. All rights reserved.
##CAS REGISTRY NO=16326-97-9
##$NIST MASS SPEC NO=37763
##MOLFORM=C5 H10 O2
##MW=102
##$NIST SOURCE=MSDC
##XUNITS=M/Z
##YUNITS=RELATIVE INTENSITY
##XFACTOR=1
##YFACTOR=1
##FIRSTX=39
##LASTX=101
##FIRSTY=1910
##MAXX=101
##MINX=39
##MAXY=9999
##MINY=60
##NPOINTS=42
##PEAK TABLE=(XY..XY)
39,1910 40,900 41,4680 42,1870
43,5630 44,1350 45,2040 46,90
47,1310 49,60 50,170 51,210
52,130 53,730 54,600 55,9999
56,6720 57,6830 58,3630 59,370
60,260 61,130 62,90 63,90
65,210 66,600 67,820 68,170
69,1740 70,130 71,170 72,90
73,1330 74,130 81,150 82,540
83,3220 84,5610 85,520 86,90
100,170 101,90
##END=
