##TITLE=Nonane, 4-ethyl-5-methyl-
##JCAMP-DX=4.24
##DATA TYPE=MASS SPECTRUM
##ORIGIN=R.A. Khmel'nitsky
##OWNER=NIST Mass Spectrometry Data Center
Collection (C) 2014 copyright by the U.S. Secretary of Commerce
on behalf of the United States of America. All rights reserved.
##CAS REGISTRY NO=1632-71-9
##$NIST MASS SPEC NO=280946
##MOLFORM=C12 H26
##MW=170
##$NIST SOURCE=MSDC
##XUNITS=M/Z
##YUNITS=RELATIVE INTENSITY
##XFACTOR=1
##YFACTOR=1
##FIRSTX=15
##LASTX=171
##FIRSTY=90
##MAXX=171
##MINX=15
##MAXY=9999
##MINY=10
##NPOINTS=48
##PEAK TABLE=(XY..XY)
15,90 26,180 27,2202 29,2903
30,70 39,1271 40,240 41,5305
42,1531 43,9999 44,320 50,30
51,80 52,50 53,440 54,200
55,2752 56,2122 57,3863 58,160
65,80 66,30 67,240 68,80
69,1251 70,300 71,1321 72,80
81,20 82,20 83,140 84,3984
85,2522 86,160 95,20 97,30
98,40 99,90 112,60 113,90
126,40 127,130 128,10 140,70
141,260 142,30 170,70 171,10
##END=
