##TITLE=4-Ethoxybenzoyl chloride
##JCAMP-DX=4.24
##DATA TYPE=MASS SPECTRUM
##ORIGIN=NIST Mass Spectrometry Data Center, 1994
##OWNER=NIST Mass Spectrometry Data Center
Collection (C) 2014 copyright by the U.S. Secretary of Commerce
on behalf of the United States of America. All rights reserved.
##CAS REGISTRY NO=16331-46-7
##$NIST MASS SPEC NO=134580
##MOLFORM=C9 H9 Cl O2
##MW=184
##$NIST SOURCE=MSDC
##XUNITS=M/Z
##YUNITS=RELATIVE INTENSITY
##XFACTOR=1
##YFACTOR=1
##FIRSTX=14
##LASTX=187
##FIRSTY=38
##MAXX=187
##MINX=14
##MAXY=9999
##MINY=23
##NPOINTS=71
##PEAK TABLE=(XY..XY)
14,38 15,160 18,31 25,43
26,427 27,1819 28,31 29,1920
30,68 31,27 35,57 36,85
37,369 38,1126 39,2235 40,104
41,66 42,57 43,192 45,74
46,40 47,23 49,105 50,1321
51,341 52,60 53,448 54,39
55,62 60,58 61,272 62,727
63,2112 64,1398 65,3476 66,392
67,132 73,283 74,590 75,770
76,737 77,441 78,79 79,28
85,45 91,281 92,1024 93,3011
94,238 99,279 101,108 103,160
104,161 105,48 111,67 113,37
121,8899 122,637 123,63 127,135
128,40 129,59 139,35 147,51
149,9999 150,994 151,78 184,1058
185,100 186,327 187,40
##END=
