##TITLE=[2.2]Paracyclophane
##JCAMP-DX=4.24
##DATA TYPE=MASS SPECTRUM
##ORIGIN=NIST Mass Spectrometry Data Center, 1990.
##OWNER=NIST Mass Spectrometry Data Center
Collection (C) 2014 copyright by the U.S. Secretary of Commerce
on behalf of the United States of America. All rights reserved.
##CAS REGISTRY NO=1633-22-3
##$NIST MASS SPEC NO=118477
##MOLFORM=C16 H16
##MW=208
##$NIST SOURCE=MSDC
##XUNITS=M/Z
##YUNITS=RELATIVE INTENSITY
##XFACTOR=1
##YFACTOR=1
##FIRSTX=11
##LASTX=210
##FIRSTY=13
##MAXX=210
##MINX=11
##MAXY=9999
##MINY=11
##NPOINTS=78
##PEAK TABLE=(XY..XY)
11,13 14,11 18,18 26,22
27,119 28,52 29,14 38,52
39,369 40,42 41,40 50,146
51,396 52,209 53,64 61,16
62,83 63,272 64,95 65,255
66,20 69,21 74,48 75,86
76,171 77,591 78,1343 79,136
82,33 86,20 87,33 88,39
89,230 90,45 91,115 94,27
98,21 99,14 100,21 101,46
102,240 103,1624 104,9999 105,944
106,25 113,17 115,200 116,30
117,28 126,25 127,26 128,46
139,27 141,13 150,29 151,36
152,51 153,23 163,19 164,20
165,94 166,13 176,33 177,18
178,62 179,30 188,14 189,71
190,51 191,82 192,34 202,31
203,27 205,22 206,22 208,1747
209,318 210,24
##END=
