##TITLE=4-Ethylbenzoyl chloride
##JCAMP-DX=4.24
##DATA TYPE=MASS SPECTRUM
##ORIGIN=NIST Mass Spectrometry Data Center, 1994
##OWNER=NIST Mass Spectrometry Data Center
Collection (C) 2014 copyright by the U.S. Secretary of Commerce
on behalf of the United States of America. All rights reserved.
##CAS REGISTRY NO=16331-45-6
##$NIST MASS SPEC NO=134679
##MOLFORM=C9 H9 Cl O
##MW=168
##$NIST SOURCE=MSDC
##XUNITS=M/Z
##YUNITS=RELATIVE INTENSITY
##XFACTOR=1
##YFACTOR=1
##FIRSTX=4
##LASTX=170
##FIRSTY=26
##MAXX=170
##MINX=4
##MAXY=9999
##MINY=13
##NPOINTS=70
##PEAK TABLE=(XY..XY)
4,26 14,37 15,206 18,17
26,148 27,783 28,228 29,103
32,43 35,51 36,53 37,115
38,302 39,820 40,106 41,57
43,50 45,152 49,100 50,1064
51,1719 52,334 53,249 55,20
59,85 60,15 61,133 62,399
63,1078 64,264 65,404 66,104
69,26 70,13 73,108 74,424
75,368 76,398 77,2152 78,568
79,2411 80,146 85,47 86,76
87,90 88,47 89,939 90,623
91,71 97,16 98,48 99,54
101,59 102,187 103,1358 104,388
105,2072 106,192 118,101 125,225
126,23 127,83 131,37 133,9999
134,1010 135,56 139,22 168,414
169,53 170,160
##END=
