##TITLE=3-Hexanethiol
##JCAMP-DX=4.24
##DATA TYPE=MASS SPECTRUM
##OWNER=NIST Mass Spectrometry Data Center
Collection (C) 2014 copyright by the U.S. Secretary of Commerce
on behalf of the United States of America. All rights reserved.
##CAS REGISTRY NO=1633-90-5
##$NIST MASS SPEC NO=2062
##MOLFORM=C6 H14 S
##MW=118
##$NIST SOURCE=MSDC
##XUNITS=M/Z
##YUNITS=RELATIVE INTENSITY
##XFACTOR=1
##YFACTOR=1
##FIRSTX=26
##LASTX=120
##FIRSTY=520
##MAXX=120
##MINX=26
##MAXY=9999
##MINY=110
##NPOINTS=51
##PEAK TABLE=(XY..XY)
26,520 27,4684 28,1481 29,2953
32,290 33,300 34,220 35,260
36,120 37,110 38,260 39,2893
40,390 41,6496 42,2052 43,9999
44,360 45,1481 46,200 47,4254
48,110 49,220 50,180 51,280
53,581 54,350 55,5865 56,2152
57,1341 58,430 59,651 60,631
61,1441 62,120 63,120 67,130
69,1331 71,180 73,270 74,951
75,3153 76,190 77,170 84,1992
85,3263 86,220 88,260 89,1461
118,4014 119,300 120,200
##END=
