##TITLE=Propane, 2-methoxy-2-methyl-
##JCAMP-DX=4.24
##DATA TYPE=MASS SPECTRUM
##ORIGIN=Japan AIST/NIMC Database- Spectrum MS-NW-1333
##OWNER=NIST Mass Spectrometry Data Center
Collection (C) 2014 copyright by the U.S. Secretary of Commerce
on behalf of the United States of America. All rights reserved.
##CAS REGISTRY NO=1634-04-4
##$NIST MASS SPEC NO=229277
##MOLFORM=C5 H12 O
##MW=88
##$NIST SOURCE=MSDC
##XUNITS=M/Z
##YUNITS=RELATIVE INTENSITY
##XFACTOR=1
##YFACTOR=1
##FIRSTX=14
##LASTX=75
##FIRSTY=30
##MAXX=75
##MINX=14
##MAXY=9999
##MINY=10
##NPOINTS=37
##PEAK TABLE=(XY..XY)
14,30 15,399 17,10 18,30
26,70 27,619 28,319 29,1569
30,30 31,199 32,90 33,90
37,30 38,70 39,679 40,129
41,2479 42,259 43,1119 44,40
45,529 46,10 50,40 51,40
52,10 53,60 54,10 55,479
56,479 57,2579 58,129 59,40
71,10 72,20 73,9999 74,469
75,30
##END=
