##TITLE=2,4-Dimethyl-6-nitroaniline
##JCAMP-DX=4.24
##DATA TYPE=MASS SPECTRUM
##ORIGIN=Japan AIST/NIMC Database- Spectrum MS-IW- 272
##OWNER=NIST Mass Spectrometry Data Center
Collection (C) 2014 copyright by the U.S. Secretary of Commerce
on behalf of the United States of America. All rights reserved.
##CAS REGISTRY NO=1635-84-3
##$NIST MASS SPEC NO=238081
##MOLFORM=C8 H10 N2 O2
##MW=166
##$NIST SOURCE=MSDC
##XUNITS=M/Z
##YUNITS=RELATIVE INTENSITY
##XFACTOR=1
##YFACTOR=1
##FIRSTX=15
##LASTX=168
##FIRSTY=10
##MAXX=168
##MINX=15
##MAXY=9999
##MINY=10
##NPOINTS=92
##PEAK TABLE=(XY..XY)
15,10 26,10 27,169 28,169
29,10 30,99 37,20 38,70
39,479 40,80 41,309 42,529
43,50 44,20 45,10 46,40
47,10 50,119 51,389 52,419
53,449 54,239 55,30 56,20
58,169 59,70 60,20 61,20
62,60 63,199 64,90 65,719
66,199 67,189 68,90 69,10
74,30 75,60 76,99 77,2189
78,489 79,549 80,389 81,99
82,10 83,109 86,10 87,10
88,10 89,129 90,119 91,1979
92,539 93,1609 94,339 95,20
101,10 102,99 103,919 104,869
105,509 106,129 107,70 108,449
109,40 116,159 117,269 118,1189
119,1379 120,3879 121,469 122,60
129,109 130,199 131,249 132,90
133,60 134,20 135,40 136,299
137,30 147,10 148,139 149,709
150,159 151,109 152,10 164,20
165,209 166,9999 167,1009 168,80
##END=
