##TITLE=Benz(a)anthracene, 12-ethyl-7-methyl-
##JCAMP-DX=4.24
##DATA TYPE=MASS SPECTRUM
##ORIGIN=Organic Synthesis Lab, MSU, Moscow.TRC 450
##OWNER=NIST Mass Spectrometry Data Center
Collection (C) 2014 copyright by the U.S. Secretary of Commerce
on behalf of the United States of America. All rights reserved.
##CAS REGISTRY NO=16354-55-5
##$NIST MASS SPEC NO=326147
##MOLFORM=C21 H18
##MW=270
##$NIST SOURCE=MSDC
##XUNITS=M/Z
##YUNITS=RELATIVE INTENSITY
##XFACTOR=1
##YFACTOR=1
##FIRSTX=26
##LASTX=272
##FIRSTY=30
##MAXX=272
##MINX=26
##MAXY=9999
##MINY=10
##NPOINTS=175
##PEAK TABLE=(XY..XY)
26,30 27,340 29,100 38,30
39,250 40,20 41,50 42,10
43,170 44,20 50,100 51,190
52,30 53,20 55,10 57,10
58,30 62,60 63,200 64,20
65,30 69,20 74,100 75,140
76,80 77,120 78,30 79,10
80,10 81,20 83,20 84,10
86,60 87,140 88,120 89,60
90,10 91,30 93,110 94,150
95,30 98,50 99,80 100,230
101,330 102,30 103,40 104,10
105,110 106,370 107,200 108,80
110,30 111,70 112,330 113,1251
114,340 115,110 116,10 117,80
118,571 119,2522 120,2292 121,450
122,20 123,20 124,140 125,741
126,1862 127,701 128,170 129,10
130,120 131,310 132,120 133,80
134,130 135,911 136,20 137,20
138,10 139,70 140,10 141,30
142,10 146,10 149,20 150,90
151,80 152,90 153,20 161,20
162,30 163,120 164,30 165,80
166,10 173,10 174,60 175,40
176,110 177,30 178,40 179,10
185,20 186,30 187,160 188,60
189,170 190,30 191,20 198,40
199,50 200,190 201,100 202,250
203,50 209,10 210,10 211,120
212,60 213,280 214,70 215,320
216,60 217,10 222,30 223,40
224,250 225,180 226,721 227,250
228,360 229,130 230,30 231,10
234,10 235,70 236,70 237,550
238,350 239,6566 240,9088 241,2342
242,350 243,110 244,20 245,10
246,10 247,10 248,100 249,80
250,731 251,310 252,2172 253,1441
254,781 255,7176 256,1621 257,200
258,80 259,210 260,50 261,80
262,40 263,240 264,70 265,150
266,50 267,40 268,100 269,260
270,9999 271,2742 272,310
##END=
