##TITLE=7-Butyl-12-methylbenz[a]anthracene
##JCAMP-DX=4.24
##DATA TYPE=MASS SPECTRUM
##ORIGIN=Organic Synthesis Lab, MSU, Moscow.TRC 483
##OWNER=NIST Mass Spectrometry Data Center
Collection (C) 2014 copyright by the U.S. Secretary of Commerce
on behalf of the United States of America. All rights reserved.
##CAS REGISTRY NO=16354-51-1
##$NIST MASS SPEC NO=326178
##MOLFORM=C23 H22
##MW=298
##$NIST SOURCE=MSDC
##XUNITS=M/Z
##YUNITS=RELATIVE INTENSITY
##XFACTOR=1
##YFACTOR=1
##FIRSTX=26
##LASTX=301
##FIRSTY=10
##MAXX=301
##MINX=26
##MAXY=9999
##MINY=10
##NPOINTS=134
##PEAK TABLE=(XY..XY)
26,10 27,140 29,50 39,50
40,20 41,100 42,10 43,110
51,20 63,20 69,10 75,10
76,10 77,50 87,10 88,10
89,10 94,10 100,20 101,70
102,10 103,80 106,10 107,20
108,10 112,40 113,240 114,80
115,20 118,20 119,110 120,390
121,230 124,10 125,150 126,480
127,260 128,80 129,10 131,20
132,70 133,60 134,20 137,20
138,40 139,30 141,10 149,130
150,20 151,40 152,50 153,30
162,10 163,20 164,10 165,20
174,10 175,10 176,60 177,50
178,80 179,10 187,30 188,10
189,50 190,10 199,10 200,50
201,30 202,70 203,20 211,30
212,10 213,90 214,20 215,210
216,50 220,30 222,10 223,10
224,80 225,70 226,320 227,160
228,300 229,90 230,10 235,10
236,20 237,180 238,120 239,2012
240,1291 241,520 242,350 243,110
244,10 248,30 249,40 250,310
251,160 252,1411 253,1541 254,811
255,9999 256,2222 257,240 258,20
259,10 261,30 262,10 263,140
264,50 265,170 266,70 267,80
268,50 269,30 270,10 274,10
276,30 277,30 278,10 279,10
281,10 282,40 283,60 284,10
296,40 297,50 298,7387 299,1842
300,220 301,20
##END=
