##TITLE=2-Pentanone, (2,4-dinitrophenyl)hydrazone
##JCAMP-DX=4.24
##DATA TYPE=MASS SPECTRUM
##ORIGIN=DN-171-5
##OWNER=NIST Mass Spectrometry Data Center
Collection (C) 2014 copyright by the U.S. Secretary of Commerce
on behalf of the United States of America. All rights reserved.
##CAS REGISTRY NO=1636-82-4
##$NIST MASS SPEC NO=31107
##MOLFORM=C11 H14 N4 O4
##MW=266
##$NIST SOURCE=MSDC
##XUNITS=M/Z
##YUNITS=RELATIVE INTENSITY
##XFACTOR=1
##YFACTOR=1
##FIRSTX=38
##LASTX=267
##FIRSTY=539
##MAXX=267
##MINX=38
##MAXY=9999
##MINY=8
##NPOINTS=184
##PEAK TABLE=(XY..XY)
38,539 39,2377 41,9999 42,8928
43,5765 45,718 46,62 50,538
51,1326 52,888 53,680 54,446
55,1257 56,1077 57,1526 58,182
59,65 60,19 61,134 62,738
63,1598 64,886 65,557 66,330
67,641 68,855 69,1976 70,770
71,347 72,345 73,107 74,324
75,1437 76,1077 77,1617 78,1598
79,1715 80,413 81,106 82,254
83,183 84,120 85,118 87,2353
88,269 89,448 90,701 91,874
92,895 93,365 94,148 95,104
96,18 97,38 100,28 101,45
102,156 103,538 104,813 105,482
106,430 107,307 108,124 109,12
110,8 111,24 112,11 114,21
115,560 116,507 117,826 118,371
119,394 120,247 121,110 122,1167
123,132 124,9 126,11 127,77
128,192 129,339 130,489 131,597
132,422 133,432 134,168 135,492
136,209 137,221 138,123 141,31
142,46 143,211 144,418 145,478
146,230 147,172 148,83 149,509
150,303 151,86 152,1455 153,470
154,57 155,29 157,86 158,221
159,240 160,148 161,259 162,211
163,371 164,180 165,808 166,192
167,113 168,57 169,19 170,57
171,77 172,96 173,208 174,110
175,118 176,124 177,252 178,651
179,146 180,727 181,1778 182,232
183,701 184,213 185,432 186,118
187,62 188,48 189,190 190,267
191,582 192,146 193,89 194,40
195,19 196,534 197,64 198,9
201,29 202,57 203,114 204,118
205,180 206,182 207,422 208,72
209,19 210,86 211,16 214,19
215,38 216,96 217,152 218,53
219,531 220,117 221,86 222,33
223,65 229,92 230,38 231,539
232,163 233,182 234,38 235,17
236,163 237,110 238,74 249,80
250,182 251,82 266,5102 267,780
##END=
