##TITLE=Ethyl 5,6-dimethoxyindole-2-carboxylate
##JCAMP-DX=4.24
##DATA TYPE=MASS SPECTRUM
##ORIGIN=NIST Mass Spectrometry Data Center, 1994
##OWNER=NIST Mass Spectrometry Data Center
Collection (C) 2014 copyright by the U.S. Secretary of Commerce
on behalf of the United States of America. All rights reserved.
##CAS REGISTRY NO=16382-18-6
##$NIST MASS SPEC NO=136166
##MOLFORM=C13 H15 N O4
##MW=249
##$NIST SOURCE=MSDC
##XUNITS=M/Z
##YUNITS=RELATIVE INTENSITY
##XFACTOR=1
##YFACTOR=1
##FIRSTX=5
##LASTX=251
##FIRSTY=1
##MAXX=251
##MINX=5
##MAXY=9999
##MINY=1
##NPOINTS=146
##PEAK TABLE=(XY..XY)
5,1 8,43 9,17 11,17
12,32 13,2 15,1145 18,8
19,18 22,16 26,93 27,646
29,1665 30,65 37,23 38,168
39,294 40,59 42,10 43,46
44,26 49,35 50,409 51,386
52,203 53,306 54,39 55,32
59,51 60,26 61,110 62,592
63,1785 64,321 65,198 66,102
67,60 68,228 69,244 70,26
71,15 72,18 73,43 74,87
75,409 76,454 77,443 78,367
79,146 80,44 82,48 85,34
86,66 87,211 88,504 89,742
90,426 91,254 92,79 93,51
94,51 95,34 99,30 100,72
101,231 102,669 103,209 104,480
105,288 106,323 107,108 108,17
111,25 112,21 113,56 114,538
115,295 116,265 117,1022 118,658
119,457 120,86 121,47 122,16
127,21 128,23 129,101 130,422
131,219 132,1834 133,952 134,829
135,74 136,26 141,46 142,313
143,124 144,160 145,904 146,207
147,79 148,26 149,2006 150,254
151,13 156,46 158,365 160,3357
161,568 162,181 163,134 164,26
170,20 172,76 173,54 175,1958
176,968 177,198 178,119 186,34
187,193 188,2630 189,283 190,76
191,64 192,115 193,16 201,30
203,9999 204,2623 205,288 206,436
207,52 208,18 220,309 221,406
222,50 232,11 233,170 234,1350
235,213 236,24 247,21 249,9732
250,1598 251,164
##END=
