##TITLE=Phosphonous acid, phenyl-, diethyl ester
##JCAMP-DX=4.24
##DATA TYPE=MASS SPECTRUM
##ORIGIN=Japan AIST/NIMC Database- Spectrum MS-IW-2296
##OWNER=NIST Mass Spectrometry Data Center
Collection (C) 2014 copyright by the U.S. Secretary of Commerce
on behalf of the United States of America. All rights reserved.
##CAS REGISTRY NO=1638-86-4
##$NIST MASS SPEC NO=237943
##MOLFORM=C10 H15 O2 P
##MW=198
##$NIST SOURCE=MSDC
##XUNITS=M/Z
##YUNITS=RELATIVE INTENSITY
##XFACTOR=1
##YFACTOR=1
##FIRSTX=15
##LASTX=200
##FIRSTY=20
##MAXX=200
##MINX=15
##MAXY=9999
##MINY=10
##NPOINTS=91
##PEAK TABLE=(XY..XY)
15,20 26,40 27,359 28,50
29,559 30,10 31,90 38,10
39,119 40,10 41,10 42,10
43,80 44,10 45,80 46,20
47,1519 48,50 49,20 50,259
51,1239 52,149 53,10 56,30
57,40 62,10 63,50 64,20
65,1589 66,20 68,10 69,60
70,10 73,10 74,70 75,70
76,259 77,4549 78,2379 79,659
80,50 81,70 82,30 83,30
91,99 92,20 93,589 94,219
95,40 96,99 97,10 99,10
103,10 104,379 105,909 106,119
107,249 108,149 109,259 110,40
111,10 121,149 123,20 124,349
125,889 126,369 127,40 139,20
140,60 141,9999 142,3349 143,889
144,70 152,20 153,569 154,519
155,70 156,10 157,10 158,479
159,199 160,30 161,10 169,789
170,649 171,239 172,20 197,99
198,3699 199,419 200,40
##END=
