##TITLE=2-Propanol, 1,1'-[(1-methyl-1,2-ethanediyl)bis(oxy)]bis-
##JCAMP-DX=4.24
##DATA TYPE=MASS SPECTRUM
##OWNER=NIST Mass Spectrometry Data Center
Collection (C) 2014 copyright by the U.S. Secretary of Commerce
on behalf of the United States of America. All rights reserved.
##CAS REGISTRY NO=1638-16-0
##$NIST MASS SPEC NO=8368
##MOLFORM=C9 H20 O4
##MW=192
##$NIST SOURCE=MSDC
##XUNITS=M/Z
##YUNITS=RELATIVE INTENSITY
##XFACTOR=1
##YFACTOR=1
##FIRSTX=15
##LASTX=161
##FIRSTY=80
##MAXX=161
##MINX=15
##MAXY=9999
##MINY=30
##NPOINTS=48
##PEAK TABLE=(XY..XY)
15,80 17,50 18,250 19,50
27,160 28,180 29,290 30,30
31,1712 32,50 39,130 40,40
41,1061 42,621 43,540 44,90
45,1441 46,30 55,50 56,40
57,420 58,350 59,9999 60,350
61,70 71,50 72,170 73,180
75,70 77,50 83,30 85,60
87,60 89,70 99,50 101,110
102,30 103,2172 104,270 105,30
115,30 116,50 117,811 118,80
130,60 131,50 133,30 161,240
##END=
