##TITLE=Cyclopentanethiol, 1-methyl-
##JCAMP-DX=4.24
##DATA TYPE=MASS SPECTRUM
##OWNER=NIST Mass Spectrometry Data Center
Collection (C) 2014 copyright by the U.S. Secretary of Commerce
on behalf of the United States of America. All rights reserved.
##CAS REGISTRY NO=1638-95-5
##$NIST MASS SPEC NO=1962
##MOLFORM=C6 H12 S
##MW=116
##$NIST SOURCE=MSDC
##XUNITS=M/Z
##YUNITS=RELATIVE INTENSITY
##XFACTOR=1
##YFACTOR=1
##FIRSTX=26
##LASTX=119
##FIRSTY=310
##MAXX=119
##MINX=26
##MAXY=9999
##MINY=10
##NPOINTS=77
##PEAK TABLE=(XY..XY)
26,310 27,2793 28,591 29,1241
30,30 31,10 32,230 33,430
34,470 35,100 36,30 37,100
38,270 39,3523 40,540 41,5175
42,340 43,390 44,40 45,961
46,90 47,661 48,30 49,70
50,270 51,520 52,270 53,1431
54,561 55,7517 56,380 57,80
58,370 59,2462 60,190 61,340
62,50 63,110 64,30 65,350
66,170 67,4504 68,260 69,110
70,20 71,230 72,30 73,240
74,1712 75,120 76,110 77,260
78,80 79,410 80,70 81,771
82,701 83,9999 84,661 85,80
86,40 87,871 88,140 89,50
90,10 97,30 98,10 101,130
102,10 103,10 105,10 113,10
115,40 116,2642 117,200 118,130
119,10
##END=
