##TITLE=2-Butanethiol, 2,3-dimethyl-
##JCAMP-DX=4.24
##DATA TYPE=MASS SPECTRUM
##ORIGIN=AP-2085
##OWNER=NIST Mass Spectrometry Data Center
Collection (C) 2014 copyright by the U.S. Secretary of Commerce
on behalf of the United States of America. All rights reserved.
##CAS REGISTRY NO=1639-01-6
##$NIST MASS SPEC NO=2057
##MOLFORM=C6 H14 S
##MW=118
##$NIST SOURCE=MSDC
##XUNITS=M/Z
##YUNITS=RELATIVE INTENSITY
##XFACTOR=1
##YFACTOR=1
##FIRSTX=12
##LASTX=121
##FIRSTY=13
##MAXX=121
##MINX=12
##MAXY=9999
##MINY=6
##NPOINTS=77
##PEAK TABLE=(XY..XY)
12,13 13,13 14,36 15,387
25,10 26,103 27,1784 28,287
29,777 30,21 32,148 33,154
34,334 35,66 36,20 37,88
38,245 39,2943 40,419 41,8870
42,705 43,9999 44,346 45,483
46,55 47,1113 48,35 49,82
50,126 51,224 52,75 53,605
54,83 55,930 56,178 57,1130
58,269 59,1764 60,113 61,405
62,46 63,69 64,10 65,89
66,34 67,255 68,49 69,3040
70,264 71,96 72,16 73,46
74,3093 75,9269 76,568 77,445
78,24 79,12 81,11 82,9
83,87 84,470 85,4347 86,292
87,49 88,20 89,6 101,7
102,8 103,152 104,11 105,8
117,17 118,1983 119,151 120,97
121,8
##END=
