##TITLE=Androst-5-ene-3,17-diol, 3-acetate, (3.beta.,17.beta.)-
##JCAMP-DX=4.24
##DATA TYPE=MASS SPECTRUM
##ORIGIN=Patti Price, Georgia Bureau of Investigation, Decatur, Georgia
##OWNER=NIST Mass Spectrometry Data Center
Collection (C) 2014 copyright by the U.S. Secretary of Commerce
on behalf of the United States of America. All rights reserved.
##CAS REGISTRY NO=1639-43-6
##$NIST MASS SPEC NO=248853
##MOLFORM=C21 H32 O3
##MW=332
##$NIST SOURCE=MSDC
##XUNITS=M/Z
##YUNITS=RELATIVE INTENSITY
##XFACTOR=1
##YFACTOR=1
##FIRSTX=41
##LASTX=289
##FIRSTY=1881
##MAXX=289
##MINX=41
##MAXY=9999
##MINY=10
##NPOINTS=152
##PEAK TABLE=(XY..XY)
41,1881 43,6035 44,450 50,30
51,50 52,10 53,730 54,30
55,2452 56,100 57,890 59,10
61,40 64,10 65,420 66,180
67,2131 68,150 69,810 71,260
73,20 77,1631 78,450 79,3172
80,400 81,2342 82,180 83,290
85,100 91,4313 92,820 93,2972
94,930 95,2001 96,220 97,520
98,40 101,10 102,20 103,350
104,340 105,4033 106,1671 107,3823
108,1451 109,1211 110,390 111,120
113,20 114,20 115,540 116,240
117,1561 118,680 119,1781 120,1791
121,5034 122,970 123,550 124,10
127,130 128,490 129,970 130,380
131,1891 132,460 133,2552 134,620
135,800 136,440 137,170 141,200
142,270 143,1891 144,580 145,2692
146,860 147,1411 148,750 149,910
150,330 151,2101 152,320 153,30
154,10 155,170 156,60 157,940
158,780 159,1171 160,470 161,640
162,250 163,270 164,1501 165,420
166,60 168,10 169,250 171,570
172,370 173,540 174,260 175,60
176,60 177,80 178,160 179,100
181,10 183,510 184,110 185,440
186,180 187,160 189,40 196,10
197,360 198,50 199,510 200,180
201,450 202,50 203,10 207,70
211,230 212,210 213,990 214,180
215,240 216,60 217,10 218,40
225,170 226,40 227,80 228,350
229,150 230,240 239,1291 240,240
243,60 244,20 254,350 255,20
257,2422 258,490 259,20 270,100
272,9999 273,2181 274,240 289,10
##END=
