##TITLE=3H-Indole, 2,3,3-trimethyl-
##JCAMP-DX=4.24
##DATA TYPE=MASS SPECTRUM
##ORIGIN=Chuck Anderson, Aldrich Chemical Co.
##OWNER=NIST Mass Spectrometry Data Center
Collection (C) 2014 copyright by the U.S. Secretary of Commerce
on behalf of the United States of America. All rights reserved.
##CAS REGISTRY NO=1640-39-7
##$NIST MASS SPEC NO=118016
##MOLFORM=C11 H13 N
##MW=159
##$NIST SOURCE=MSDC
##XUNITS=M/Z
##YUNITS=RELATIVE INTENSITY
##XFACTOR=1
##YFACTOR=1
##FIRSTX=15
##LASTX=161
##FIRSTY=149
##MAXX=161
##MINX=15
##MAXY=9999
##MINY=8
##NPOINTS=72
##PEAK TABLE=(XY..XY)
15,149 26,50 27,332 28,22
36,65 37,84 38,278 39,1983
40,280 41,518 42,355 49,8
50,871 51,1846 52,473 53,246
58,131 59,91 61,70 62,295
63,963 64,266 65,1181 66,344
71,114 72,335 73,37 74,438
75,673 76,731 77,2752 78,2419
79,283 86,82 87,152 88,116
89,860 90,266 91,2213 92,203
98,63 99,29 100,35 101,312
102,905 103,3623 104,398 113,66
114,88 115,2557 116,708 117,6283
118,1479 119,126 127,144 128,447
129,154 130,249 131,122 140,87
141,56 142,232 143,974 144,9999
145,1077 146,64 156,134 157,194
158,4816 159,8301 160,997 161,61
##END=
