##TITLE=2H-Pyran, tetrahydro-4-methyl-2-(2-methyl-1-propenyl)-
##JCAMP-DX=4.24
##DATA TYPE=MASS SPECTRUM
##ORIGIN=W. KELLY UNILEVER RESEARCH COLWORTH/WELWYN, BEDFORD U.K.
##OWNER=NIST Mass Spectrometry Data Center
Collection (C) 2014 copyright by the U.S. Secretary of Commerce
on behalf of the United States of America. All rights reserved.
##CAS REGISTRY NO=16409-43-1
##$NIST MASS SPEC NO=5103
##MOLFORM=C10 H18 O
##MW=154
##$NIST SOURCE=MSDC
##XUNITS=M/Z
##YUNITS=RELATIVE INTENSITY
##XFACTOR=1
##YFACTOR=1
##FIRSTX=27
##LASTX=154
##FIRSTY=1200
##MAXX=154
##MINX=27
##MAXY=9999
##MINY=30
##NPOINTS=55
##PEAK TABLE=(XY..XY)
27,1200 29,1500 30,30 31,120
39,1850 40,220 41,3100 42,1000
43,610 44,370 51,230 52,110
53,800 54,240 55,2300 56,790
57,240 65,240 66,110 67,1100
68,180 69,4500 70,260 71,80
77,300 78,60 79,350 80,90
81,370 82,460 83,1900 84,1100
85,1060 91,200 92,40 93,220
94,60 95,170 96,40 97,360
98,50 99,100 105,70 107,70
109,210 110,50 111,100 112,230
121,180 136,43 137,50 139,9999
140,1000 153,150 154,1800
##END=
