##TITLE=2-Bromo-3-chloropropene-1
##JCAMP-DX=4.24
##DATA TYPE=MASS SPECTRUM
##ORIGIN=NIST Mass Spectrometry Data Center, 1994
##OWNER=NIST Mass Spectrometry Data Center
Collection (C) 2014 copyright by the U.S. Secretary of Commerce
on behalf of the United States of America. All rights reserved.
##CAS REGISTRY NO=16400-63-8
##$NIST MASS SPEC NO=136237
##MOLFORM=C3 H4 Br Cl
##MW=154
##$NIST SOURCE=MSDC
##XUNITS=M/Z
##YUNITS=RELATIVE INTENSITY
##XFACTOR=1
##YFACTOR=1
##FIRSTX=12
##LASTX=159
##FIRSTY=169
##MAXX=159
##MINX=12
##MAXY=9999
##MINY=6
##NPOINTS=66
##PEAK TABLE=(XY..XY)
12,169 13,197 14,260 15,35
18,33 19,20 20,11 24,98
25,344 26,739 27,49 28,68
32,6 35,537 36,537 37,2260
38,3137 39,9999 40,1212 41,41
47,176 48,125 49,1603 50,64
51,507 60,54 61,37 62,19
63,15 71,46 72,77 73,344
74,15 75,9245 76,373 77,2900
78,109 79,820 80,165 81,775
82,169 83,12 91,44 93,331
94,41 95,254 103,17 104,54
105,291 106,69 107,250 114,18
116,34 117,102 119,564 121,483
122,22 127,52 129,65 131,15
154,1612 155,55 156,2101 157,71
158,517 159,17
##END=
