##TITLE=Cyclopentane, ethyl-
##JCAMP-DX=4.24
##DATA TYPE=MASS SPECTRUM
##ORIGIN=Japan AIST/NIMC Database- Spectrum MS-NW-4000
##OWNER=NIST Mass Spectrometry Data Center
Collection (C) 2014 copyright by the U.S. Secretary of Commerce
on behalf of the United States of America. All rights reserved.
##CAS REGISTRY NO=1640-89-7
##$NIST MASS SPEC NO=231044
##MOLFORM=C7 H14
##MW=98
##$NIST SOURCE=MSDC
##XUNITS=M/Z
##YUNITS=RELATIVE INTENSITY
##XFACTOR=1
##YFACTOR=1
##FIRSTX=14
##LASTX=99
##FIRSTY=10
##MAXX=99
##MINX=14
##MAXY=9999
##MINY=10
##NPOINTS=52
##PEAK TABLE=(XY..XY)
14,10 15,99 26,139 27,1369
28,259 29,1249 30,30 37,40
38,119 39,1859 40,349 41,6369
42,4129 43,699 44,20 45,10
49,10 50,99 51,169 52,70
53,509 54,529 55,4789 56,4469
57,739 58,30 61,10 62,30
63,50 64,10 65,119 66,70
67,999 68,6639 69,9999 70,5609
71,319 72,10 77,50 78,10
79,50 80,10 81,40 82,70
83,819 84,50 85,10 95,10
96,10 97,90 98,1229 99,99
##END=
