##TITLE=2,4-Dimethylphenol, TMS derivative
##JCAMP-DX=4.24
##DATA TYPE=MASS SPECTRUM
##ORIGIN=W.T.RAINEY OAK RIDGE NATIONAL LABORATORY,OAK RIDGE,TN.USA
##OWNER=NIST Mass Spectrometry Data Center
Collection (C) 2014 copyright by the U.S. Secretary of Commerce
on behalf of the United States of America. All rights reserved.
##CAS REGISTRY NO=16414-81-6
##$NIST MASS SPEC NO=25621
##MOLFORM=C11 H18 O Si
##MW=194
##$NIST SOURCE=MSDC
##XUNITS=M/Z
##YUNITS=RELATIVE INTENSITY
##XFACTOR=1
##YFACTOR=1
##FIRSTX=45
##LASTX=196
##FIRSTY=272
##MAXX=196
##MINX=45
##MAXY=9999
##MINY=145
##NPOINTS=20
##PEAK TABLE=(XY..XY)
45,272 59,272 73,1636 75,1499
77,309 79,536 91,163 105,7272
106,636 161,145 163,1381 164,436
165,445 177,218 179,9999 180,1636
181,436 194,8181 195,1408 196,390
##END=
