##TITLE=3-(2-Chlorophenyl)propionic acid
##JCAMP-DX=4.24
##DATA TYPE=MASS SPECTRUM
##ORIGIN=NIST Mass Spectrometry Data Center, 1994
##OWNER=NIST Mass Spectrometry Data Center
Collection (C) 2014 copyright by the U.S. Secretary of Commerce
on behalf of the United States of America. All rights reserved.
##CAS REGISTRY NO=1643-28-3
##$NIST MASS SPEC NO=134980
##MOLFORM=C9 H9 Cl O2
##MW=184
##$NIST SOURCE=MSDC
##XUNITS=M/Z
##YUNITS=RELATIVE INTENSITY
##XFACTOR=1
##YFACTOR=1
##FIRSTX=14
##LASTX=187
##FIRSTY=141
##MAXX=187
##MINX=14
##MAXY=9999
##MINY=4
##NPOINTS=104
##PEAK TABLE=(XY..XY)
14,141 15,128 17,47 18,57
26,290 27,1193 28,219 29,280
31,250 32,4 35,72 36,96
37,233 38,520 39,1447 40,152
41,96 42,359 43,323 44,4
45,1942 46,86 47,63 49,220
50,1776 51,3578 52,511 53,226
55,245 59,29 60,140 61,309
62,715 63,1907 64,272 65,408
66,44 68,43 69,82 70,29
72,74 73,538 74,1038 75,1764
76,870 77,4948 78,893 79,973
80,54 84,85 85,208 86,199
87,231 88,54 89,2216 90,513
91,394 92,76 97,89 98,126
99,665 100,89 101,774 102,1213
103,3996 104,704 105,402 106,76
107,5325 108,457 109,58 111,106
112,685 113,149 114,272 115,42
119,38 120,96 121,255 122,33
123,47 124,33 125,9999 126,829
127,3192 128,272 131,164 136,43
138,1696 139,498 140,591 141,297
143,27 147,125 149,9623 150,889
151,77 165,54 167,91 169,32
184,1495 185,130 186,552 187,55
##END=
