##TITLE=p-Trifluoromethylphenylisothiocyanate
##JCAMP-DX=4.24
##DATA TYPE=MASS SPECTRUM
##ORIGIN=NIST Mass Spectrometry Data Center, 1994
##OWNER=NIST Mass Spectrometry Data Center
Collection (C) 2014 copyright by the U.S. Secretary of Commerce
on behalf of the United States of America. All rights reserved.
##CAS REGISTRY NO=1645-65-4
##$NIST MASS SPEC NO=134841
##MOLFORM=C8 H4 F3 N S
##MW=203
##$NIST SOURCE=MSDC
##XUNITS=M/Z
##YUNITS=RELATIVE INTENSITY
##XFACTOR=1
##YFACTOR=1
##FIRSTX=26
##LASTX=206
##FIRSTY=86
##MAXX=206
##MINX=26
##MAXY=9999
##MINY=20
##NPOINTS=105
##PEAK TABLE=(XY..XY)
26,86 27,104 28,131 31,273
32,336 33,24 37,337 38,400
39,321 40,29 44,314 45,232
46,41 50,1425 51,727 52,108
55,20 56,117 57,441 58,169
59,59 60,51 61,249 62,390
63,721 64,312 65,37 67,25
68,145 69,983 70,417 71,48
72,46 73,159 74,755 75,2193
76,1095 79,35 80,62 81,239
82,197 83,237 84,41 85,33
86,60 87,140 88,277 89,59
90,228 92,182 93,154 94,337
95,1766 96,133 99,440 100,159
102,504 103,42 104,31 105,54
106,100 107,181 108,162 109,105
112,76 113,74 114,73 118,31
119,231 120,81 121,308 122,34
123,47 124,31 125,889 126,527
127,43 131,38 132,102 133,108
134,134 138,66 139,266 140,65
143,104 145,5363 146,420 152,325
153,1606 154,171 155,69 157,73
158,52 159,158 170,122 171,111
176,64 182,88 184,1920 185,197
186,93 203,9999 204,1026 205,466
206,43
##END=
