##TITLE=Aldicarb sulfone
##JCAMP-DX=4.24
##DATA TYPE=MASS SPECTRUM
##OWNER=NIST Mass Spectrometry Data Center
Collection (C) 2014 copyright by the U.S. Secretary of Commerce
on behalf of the United States of America. All rights reserved.
##CAS REGISTRY NO=1646-88-4
##$NIST MASS SPEC NO=10532
##MOLFORM=C7 H14 N2 O4 S
##MW=222
##$NIST SOURCE=MSDC
##XUNITS=M/Z
##YUNITS=RELATIVE INTENSITY
##XFACTOR=1
##YFACTOR=1
##FIRSTX=39
##LASTX=144
##FIRSTY=500
##MAXX=144
##MINX=39
##MAXY=9999
##MINY=200
##NPOINTS=22
##PEAK TABLE=(XY..XY)
39,500 41,2800 42,1000 43,900
44,500 45,300 55,1300 57,600
58,2300 59,500 63,400 64,400
68,1500 69,800 70,300 71,200
85,3600 86,9999 87,900 88,200
143,3800 144,500
##END=
