##TITLE=Butanenitrile, 2-methylene-
##JCAMP-DX=4.24
##DATA TYPE=MASS SPECTRUM
##ORIGIN=B. F. SMITH
##OWNER=NIST Mass Spectrometry Data Center
Collection (C) 2014 copyright by the U.S. Secretary of Commerce
on behalf of the United States of America. All rights reserved.
##CAS REGISTRY NO=1647-11-6
##$NIST MASS SPEC NO=26961
##MOLFORM=C5 H7 N
##MW=81
##$NIST SOURCE=MSDC
##XUNITS=M/Z
##YUNITS=RELATIVE INTENSITY
##XFACTOR=1
##YFACTOR=1
##FIRSTX=13
##LASTX=82
##FIRSTY=143
##MAXX=82
##MINX=13
##MAXY=9999
##MINY=22
##NPOINTS=47
##PEAK TABLE=(XY..XY)
13,143 14,376 15,981 16,23
17,23 18,74 19,76 20,30
24,62 25,271 26,2100 27,4782
28,3928 29,1519 30,40 31,22
36,118 37,935 38,1213 39,4511
40,773 41,6401 42,396 48,65
49,330 50,932 51,1482 52,2489
53,2918 54,9999 55,651 61,38
62,76 63,187 64,599 65,208
66,2802 67,137 74,25 75,139
76,111 77,23 78,77 79,105
80,1519 81,4139 82,263
##END=
