##TITLE=Benzene, (2-methyl-3-butenyl)-
##JCAMP-DX=4.24
##DATA TYPE=MASS SPECTRUM
##ORIGIN=NIST Mass Spectrometry Data Center, 1990.
##OWNER=NIST Mass Spectrometry Data Center
Collection (C) 2014 copyright by the U.S. Secretary of Commerce
on behalf of the United States of America. All rights reserved.
##CAS REGISTRY NO=1647-06-9
##$NIST MASS SPEC NO=113575
##MOLFORM=C11 H14
##MW=146
##$NIST SOURCE=MSDC
##XUNITS=M/Z
##YUNITS=RELATIVE INTENSITY
##XFACTOR=1
##YFACTOR=1
##FIRSTX=26
##LASTX=147
##FIRSTY=68
##MAXX=147
##MINX=26
##MAXY=9999
##MINY=39
##NPOINTS=48
##PEAK TABLE=(XY..XY)
26,68 27,417 28,223 29,258
32,40 38,91 39,865 40,84
41,234 50,220 51,494 52,125
53,182 54,62 55,646 62,106
63,368 64,166 65,1368 66,88
67,48 68,39 74,60 75,63
76,77 77,304 78,159 79,47
89,282 91,9999 92,1214 93,67
102,80 103,111 104,425 105,79
115,348 116,129 117,394 118,156
127,79 128,182 129,141 130,51
131,440 132,49 146,1460 147,164
##END=
