##TITLE=4,4-Dimethyl-1-hexene
##JCAMP-DX=4.24
##DATA TYPE=MASS SPECTRUM
##ORIGIN=Japan AIST/NIMC Database- Spectrum MS-NW-4663
##OWNER=NIST Mass Spectrometry Data Center
Collection (C) 2014 copyright by the U.S. Secretary of Commerce
on behalf of the United States of America. All rights reserved.
##CAS REGISTRY NO=1647-08-1
##$NIST MASS SPEC NO=231890
##MOLFORM=C8 H16
##MW=112
##$NIST SOURCE=MSDC
##XUNITS=M/Z
##YUNITS=RELATIVE INTENSITY
##XFACTOR=1
##YFACTOR=1
##FIRSTX=15
##LASTX=111
##FIRSTY=70
##MAXX=111
##MINX=15
##MAXY=9999
##MINY=10
##NPOINTS=52
##PEAK TABLE=(XY..XY)
15,70 26,60 27,979 28,50
29,1349 30,30 37,20 38,80
39,1269 40,179 41,2889 42,329
43,9999 44,339 45,10 50,60
51,119 52,40 53,399 54,90
55,5919 56,369 57,60 61,10
62,20 63,30 65,80 66,40
67,399 68,80 69,429 70,1469
71,9469 72,529 73,20 75,10
77,60 78,10 79,60 80,10
81,129 82,129 83,1179 84,119
85,10 91,10 94,10 95,30
96,20 97,739 98,60 111,10
##END=
