##TITLE=1,9-Decadiene
##JCAMP-DX=4.24
##DATA TYPE=MASS SPECTRUM
##ORIGIN=NIST Mass Spectrometry Data Center, 1990.
##OWNER=NIST Mass Spectrometry Data Center
Collection (C) 2014 copyright by the U.S. Secretary of Commerce
on behalf of the United States of America. All rights reserved.
##CAS REGISTRY NO=1647-16-1
##$NIST MASS SPEC NO=118291
##MOLFORM=C10 H18
##MW=138
##$NIST SOURCE=MSDC
##XUNITS=M/Z
##YUNITS=RELATIVE INTENSITY
##XFACTOR=1
##YFACTOR=1
##FIRSTX=14
##LASTX=138
##FIRSTY=44
##MAXX=138
##MINX=14
##MAXY=9999
##MINY=17
##NPOINTS=50
##PEAK TABLE=(XY..XY)
14,44 15,93 26,243 27,2694
28,628 29,2594 30,77 37,68
39,4876 40,834 41,8567 42,866
43,1220 44,48 49,17 50,142
51,307 52,209 53,1622 54,6842
55,9999 56,930 57,89 62,29
63,68 64,54 65,318 66,710
67,6041 68,3310 69,1109 70,124
71,32 77,168 79,451 81,4594
82,2271 83,352 84,52 91,61
93,71 95,1600 96,1356 97,320
98,26 109,523 110,871 111,66
123,47 138,27
##END=
