##TITLE=N-Butyl-tert-butylamine
##JCAMP-DX=4.24
##DATA TYPE=MASS SPECTRUM
##ORIGIN=AIR PRODUCTS & CHEMICALS, INC BOX 538, ALLENTOWN, PA 18105, D M PAREES
##OWNER=NIST Mass Spectrometry Data Center
Collection (C) 2014 copyright by the U.S. Secretary of Commerce
on behalf of the United States of America. All rights reserved.
##CAS REGISTRY NO=16486-74-1
##$NIST MASS SPEC NO=79730
##MOLFORM=C8 H19 N
##MW=129
##$NIST SOURCE=MSDC
##XUNITS=M/Z
##YUNITS=RELATIVE INTENSITY
##XFACTOR=1
##YFACTOR=1
##FIRSTX=27
##LASTX=130
##FIRSTY=380
##MAXX=130
##MINX=27
##MAXY=9999
##MINY=40
##NPOINTS=20
##PEAK TABLE=(XY..XY)
27,380 29,890 30,3420 39,360
41,1050 42,670 55,210 56,180
57,1230 58,3810 59,110 70,220
71,150 72,310 84,80 86,1140
114,9999 115,990 129,510 130,40
##END=
