##TITLE=2H-Inden-2-one, octahydro-, trans-
##JCAMP-DX=4.24
##DATA TYPE=MASS SPECTRUM
##ORIGIN=CARL DJERASSI DEPT OF CHEM STANFORD UNIV STANFORD CALIF 94305
##OWNER=NIST Mass Spectrometry Data Center
Collection (C) 2014 copyright by the U.S. Secretary of Commerce
on behalf of the United States of America. All rights reserved.
##CAS REGISTRY NO=16484-17-6
##$NIST MASS SPEC NO=46561
##MOLFORM=C9 H14 O
##MW=138
##$NIST SOURCE=MSDC
##XUNITS=M/Z
##YUNITS=RELATIVE INTENSITY
##XFACTOR=1
##YFACTOR=1
##FIRSTX=37
##LASTX=139
##FIRSTY=200
##MAXX=139
##MINX=37
##MAXY=9999
##MINY=100
##NPOINTS=49
##PEAK TABLE=(XY..XY)
37,200 38,700 39,8800 40,1500
41,9300 42,2200 43,700 44,100
45,100 50,600 51,1200 52,700
53,3300 54,5900 55,4300 56,800
57,600 62,100 63,200 65,700
66,700 67,8500 68,4900 69,1200
70,500 77,700 78,100 79,1900
80,700 81,9999 82,2900 83,400
84,100 91,400 92,500 93,600
94,9300 95,4500 96,5500 97,500
105,100 107,100 109,4600 110,700
120,400 122,100 123,300 138,6700
139,600
##END=
