##TITLE=Ethomoxane
##JCAMP-DX=4.24
##DATA TYPE=MASS SPECTRUM
##ORIGIN=Finnigan MAT: Toxicological Library (LIBR-TX)
##OWNER=NIST Mass Spectrometry Data Center
Collection (C) 2014 copyright by the U.S. Secretary of Commerce
on behalf of the United States of America. All rights reserved.
##CAS REGISTRY NO=16509-23-2
##$NIST MASS SPEC NO=120692
##MOLFORM=C15 H23 N O3
##MW=265
##$NIST SOURCE=MSDC
##XUNITS=M/Z
##YUNITS=RELATIVE INTENSITY
##XFACTOR=1
##YFACTOR=1
##FIRSTX=41
##LASTX=266
##FIRSTY=872
##MAXX=266
##MINX=41
##MAXY=9999
##MINY=94
##NPOINTS=18
##PEAK TABLE=(XY..XY)
41,872 43,276 44,1923 56,306
57,300 68,94 70,417 84,98
86,9999 87,511 97,301 112,198
137,213 180,595 192,99 222,100
265,896 266,197
##END=
