##TITLE=2,4,5-Trifluorobenzaldehyde
##JCAMP-DX=4.24
##DATA TYPE=MASS SPECTRUM
##ORIGIN=NIST Mass Spectrometry Data Center, 1994
##OWNER=NIST Mass Spectrometry Data Center
Collection (C) 2014 copyright by the U.S. Secretary of Commerce
on behalf of the United States of America. All rights reserved.
##CAS REGISTRY NO=165047-24-5
##$NIST MASS SPEC NO=136486
##MOLFORM=C7 H3 F3 O
##MW=160
##$NIST SOURCE=MSDC
##XUNITS=M/Z
##YUNITS=RELATIVE INTENSITY
##XFACTOR=1
##YFACTOR=1
##FIRSTX=12
##LASTX=162
##FIRSTY=61
##MAXX=162
##MINX=12
##MAXY=9999
##MINY=5
##NPOINTS=82
##PEAK TABLE=(XY..XY)
12,61 13,5 16,17 17,30
18,20 19,46 20,33 24,26
25,67 28,254 29,2621 31,2321
32,59 36,139 37,729 38,266
39,45 44,123 48,65 49,196
50,606 51,248 53,60 55,201
56,615 57,574 60,164 61,1437
62,1489 63,1700 64,104 66,214
67,68 68,783 69,196 70,34
71,57 72,43 73,169 74,376
75,1108 76,45 79,331 80,840
81,5616 82,474 83,27 84,29
85,62 86,245 87,238 88,311
91,42 92,439 93,308 94,72
95,26 98,58 99,538 100,72
101,259 103,26 104,32 105,55
106,228 110,77 111,218 112,986
113,216 123,45 125,50 128,33
131,6125 132,1280 133,70 140,43
141,52 143,41 159,9999 160,7943
161,580 162,19
##END=
