##TITLE=3-Butynylbenzene
##JCAMP-DX=4.24
##DATA TYPE=MASS SPECTRUM
##ORIGIN=NIST Mass Spectrometry Data Center, 1990.
##OWNER=NIST Mass Spectrometry Data Center
Collection (C) 2014 copyright by the U.S. Secretary of Commerce
on behalf of the United States of America. All rights reserved.
##CAS REGISTRY NO=16520-62-0
##$NIST MASS SPEC NO=118138
##MOLFORM=C10 H10
##MW=130
##$NIST SOURCE=MSDC
##XUNITS=M/Z
##YUNITS=RELATIVE INTENSITY
##XFACTOR=1
##YFACTOR=1
##FIRSTX=18
##LASTX=131
##FIRSTY=1
##MAXX=131
##MINX=18
##MAXY=9999
##MINY=1
##NPOINTS=54
##PEAK TABLE=(XY..XY)
18,1 25,17 26,105 27,307
28,48 32,4 36,20 37,155
38,381 39,1609 40,100 41,204
49,91 50,698 51,1188 52,271
53,54 57,15 61,128 62,325
63,770 64,278 65,2151 66,132
73,48 74,288 75,216 76,197
77,421 78,249 79,32 85,46
86,78 87,69 88,32 89,395
90,32 91,9999 92,766 93,22
98,46 101,66 102,243 103,90
104,32 113,14 115,882 116,102
126,112 127,262 128,518 129,2037
130,1836 131,184
##END=
