##TITLE=2-Undecanol
##JCAMP-DX=4.24
##DATA TYPE=MASS SPECTRUM
##ORIGIN=Japan AIST/NIMC Database- Spectrum MS-NW-2011
##OWNER=NIST Mass Spectrometry Data Center
Collection (C) 2014 copyright by the U.S. Secretary of Commerce
on behalf of the United States of America. All rights reserved.
##CAS REGISTRY NO=1653-30-1
##$NIST MASS SPEC NO=230933
##MOLFORM=C11 H24 O
##MW=172
##$NIST SOURCE=MSDC
##XUNITS=M/Z
##YUNITS=RELATIVE INTENSITY
##XFACTOR=1
##YFACTOR=1
##FIRSTX=15
##LASTX=171
##FIRSTY=40
##MAXX=171
##MINX=15
##MAXY=9999
##MINY=10
##NPOINTS=58
##PEAK TABLE=(XY..XY)
15,40 18,20 26,10 27,439
28,119 29,699 30,20 31,80
32,40 39,229 40,40 41,1229
42,439 43,1629 44,539 45,9999
46,209 47,30 51,10 53,60
54,109 55,1419 56,949 57,1309
58,209 59,70 67,109 68,99
69,1149 70,929 71,529 72,30
81,60 82,199 83,1219 84,629
85,369 86,20 95,20 96,99
97,769 98,319 99,90 110,50
111,269 112,209 113,20 124,20
125,149 126,419 127,40 128,80
139,10 154,289 155,40 157,199
158,20 171,20
##END=
