##TITLE=4-Tetradecanol
##JCAMP-DX=4.24
##DATA TYPE=MASS SPECTRUM
##ORIGIN=V.G.Zaikin, TIPS, Russian Acad. Sci.
##OWNER=NIST Mass Spectrometry Data Center
Collection (C) 2014 copyright by the U.S. Secretary of Commerce
on behalf of the United States of America. All rights reserved.
##CAS REGISTRY NO=1653-33-4
##$NIST MASS SPEC NO=215207
##MOLFORM=C14 H30 O
##MW=214
##$NIST SOURCE=MSDC
##XUNITS=M/Z
##YUNITS=RELATIVE INTENSITY
##XFACTOR=1
##YFACTOR=1
##FIRSTX=31
##LASTX=197
##FIRSTY=1201
##MAXX=197
##MINX=31
##MAXY=9999
##MINY=40
##NPOINTS=33
##PEAK TABLE=(XY..XY)
31,1201 40,1201 41,4003 42,600
43,2402 44,900 45,2001 53,1000
54,700 55,9999 56,900 57,2702
58,400 59,500 69,2001 70,700
71,1201 72,400 73,5905 74,300
83,1401 84,500 85,800 97,800
99,400 111,400 125,400 139,300
153,300 171,2001 172,300 196,270
197,40
##END=
