##TITLE=1-Hexene, 1-iodo-, (Z)-
##JCAMP-DX=4.24
##DATA TYPE=MASS SPECTRUM
##ORIGIN=T. REICHENBACH
##OWNER=NIST Mass Spectrometry Data Center
Collection (C) 2014 copyright by the U.S. Secretary of Commerce
on behalf of the United States of America. All rights reserved.
##CAS REGISTRY NO=16538-47-9
##$NIST MASS SPEC NO=26987
##MOLFORM=C6 H11 I
##MW=210
##$NIST SOURCE=MSDC
##XUNITS=M/Z
##YUNITS=RELATIVE INTENSITY
##XFACTOR=1
##YFACTOR=1
##FIRSTX=14
##LASTX=212
##FIRSTY=72
##MAXX=212
##MINX=14
##MAXY=9999
##MINY=16
##NPOINTS=67
##PEAK TABLE=(XY..XY)
14,72 15,404 17,45 18,154
25,36 26,656 27,5296 28,1006
29,2109 30,48 36,16 37,211
38,586 39,5178 40,1043 41,9999
42,675 43,3694 44,126 49,55
50,356 51,636 52,327 53,1424
54,907 55,5562 57,111 61,40
62,63 63,96 64,22 65,130
66,94 67,370 68,101 69,18
73,45 74,39 75,19 77,66
78,21 79,69 81,133 82,48
83,1083 84,75 85,98 127,1524
128,365 129,23 139,28 140,43
141,204 152,60 153,157 154,4707
155,167 165,38 166,17 167,2172
168,1022 169,118 180,29 181,90
210,5235 211,354 212,17
##END=
