##TITLE=4a(2H)-Naphthalenol, octahydro-, trans-
##JCAMP-DX=4.24
##DATA TYPE=MASS SPECTRUM
##ORIGIN=V.G.Zaikin, TIPS, Russian Acad. Sci.
##OWNER=NIST Mass Spectrometry Data Center
Collection (C) 2014 copyright by the U.S. Secretary of Commerce
on behalf of the United States of America. All rights reserved.
##CAS REGISTRY NO=1654-87-1
##$NIST MASS SPEC NO=214931
##MOLFORM=C10 H18 O
##MW=154
##$NIST SOURCE=MSDC
##XUNITS=M/Z
##YUNITS=RELATIVE INTENSITY
##XFACTOR=1
##YFACTOR=1
##FIRSTX=39
##LASTX=156
##FIRSTY=1651
##MAXX=156
##MINX=39
##MAXY=9999
##MINY=20
##NPOINTS=48
##PEAK TABLE=(XY..XY)
39,1651 40,370 41,3413 42,730
43,1461 44,240 45,240 51,260
52,120 53,730 54,490 55,4203
56,430 57,610 58,240 65,200
66,150 67,1891 68,670 69,1101
70,1151 71,230 77,430 78,100
79,850 80,250 81,1161 82,550
83,1521 84,550 91,370 92,100
93,910 94,300 95,730 96,600
97,2201 98,3963 99,300 110,230
111,9999 112,980 125,210 136,120
153,60 154,3172 155,350 156,20
##END=
