##TITLE=1-Propanone, 1-(1-cyclohexen-1-yl)-
##JCAMP-DX=4.24
##DATA TYPE=MASS SPECTRUM
##OWNER=NIST Mass Spectrometry Data Center
Collection (C) 2014 copyright by the U.S. Secretary of Commerce
on behalf of the United States of America. All rights reserved.
##CAS REGISTRY NO=1655-03-4
##$NIST MASS SPEC NO=33763
##MOLFORM=C9 H14 O
##MW=138
##$NIST SOURCE=MSDC
##XUNITS=M/Z
##YUNITS=RELATIVE INTENSITY
##XFACTOR=1
##YFACTOR=1
##FIRSTX=39
##LASTX=138
##FIRSTY=700
##MAXX=138
##MINX=39
##MAXY=9999
##MINY=600
##NPOINTS=11
##PEAK TABLE=(XY..XY)
39,700 41,1000 53,1600 57,900
77,900 79,3000 81,9299 82,600
109,9999 110,700 138,1400
##END=
