##TITLE=4-Heptanone, (2,4-dinitrophenyl)hydrazone
##JCAMP-DX=4.24
##DATA TYPE=MASS SPECTRUM
##ORIGIN=CARL DJERASSI DEPT OF CHEM STANFORD UNIV STANFORD CALIF 94305
##OWNER=NIST Mass Spectrometry Data Center
Collection (C) 2014 copyright by the U.S. Secretary of Commerce
on behalf of the United States of America. All rights reserved.
##CAS REGISTRY NO=1655-41-0
##$NIST MASS SPEC NO=49810
##MOLFORM=C13 H18 N4 O4
##MW=294
##$NIST SOURCE=MSDC
##XUNITS=M/Z
##YUNITS=RELATIVE INTENSITY
##XFACTOR=1
##YFACTOR=1
##FIRSTX=41
##LASTX=296
##FIRSTY=6200
##MAXX=296
##MINX=41
##MAXY=9999
##MINY=100
##NPOINTS=174
##PEAK TABLE=(XY..XY)
41,6200 42,900 43,6500 44,300
45,200 50,300 51,600 52,500
53,500 54,800 55,6400 56,700
57,1000 59,100 62,500 63,1100
64,600 65,300 66,300 67,700
68,800 69,1600 70,5400 71,2300
72,600 73,200 74,200 75,900
76,600 77,900 78,800 79,700
80,200 81,300 82,200 83,600
84,200 85,200 86,200 88,100
89,400 90,600 91,600 92,400
93,300 94,100 95,300 96,700
97,300 98,200 100,200 102,100
103,200 104,300 105,300 106,300
107,300 108,100 109,200 111,100
112,200 113,100 115,1000 116,200
117,300 118,300 119,300 120,200
121,100 122,700 128,200 129,300
130,400 131,400 132,200 133,200
134,100 135,400 136,200 137,300
138,100 143,200 144,400 145,300
146,200 147,100 148,100 149,400
150,200 151,100 152,1100 153,400
156,100 157,100 158,100 159,200
160,200 161,200 162,300 163,100
164,300 165,2000 166,200 167,300
168,100 170,100 171,200 172,200
173,300 174,100 175,100 176,100
177,200 178,300 179,100 180,600
181,2700 182,400 183,1600 184,400
185,200 186,200 187,100 188,100
189,100 190,300 191,600 192,100
194,100 196,600 197,100 203,200
204,200 205,200 206,100 207,100
210,200 212,100 213,400 214,100
215,100 216,100 217,300 218,200
219,1200 220,100 221,100 229,100
230,100 231,1800 232,400 233,300
234,100 235,500 238,100 245,100
247,300 248,100 249,200 251,200
257,100 259,1000 260,200 261,100
264,100 265,100 266,100 277,100
278,200 279,100 280,300 294,9999
295,1700 296,300
##END=
