##TITLE=Benzene, 1-methoxy-4-phenoxy-
##JCAMP-DX=4.24
##DATA TYPE=MASS SPECTRUM
##OWNER=NIST Mass Spectrometry Data Center
Collection (C) 2014 copyright by the U.S. Secretary of Commerce
on behalf of the United States of America. All rights reserved.
##CAS REGISTRY NO=1655-69-2
##$NIST MASS SPEC NO=8954
##MOLFORM=C13 H12 O2
##MW=200
##$NIST SOURCE=MSDC
##XUNITS=M/Z
##YUNITS=RELATIVE INTENSITY
##XFACTOR=1
##YFACTOR=1
##FIRSTX=39
##LASTX=202
##FIRSTY=601
##MAXX=202
##MINX=39
##MAXY=9999
##MINY=100
##NPOINTS=29
##PEAK TABLE=(XY..XY)
39,601 41,400 50,601 51,2202
52,400 63,601 64,1201 65,300
69,500 76,300 77,2302 78,400
92,200 95,300 100,300 115,300
123,901 128,400 129,1201 130,100
138,200 141,200 157,300 170,400
185,3303 186,701 200,9999 201,1401
202,100
##END=
