##TITLE=Propanenitrile, 3,3'-oxybis-
##JCAMP-DX=4.24
##DATA TYPE=MASS SPECTRUM
##ORIGIN=NIST Mass Spectrometry Data Center, 1990.
##OWNER=NIST Mass Spectrometry Data Center
Collection (C) 2014 copyright by the U.S. Secretary of Commerce
on behalf of the United States of America. All rights reserved.
##CAS REGISTRY NO=1656-48-0
##$NIST MASS SPEC NO=118727
##MOLFORM=C6 H8 N2 O
##MW=124
##$NIST SOURCE=MSDC
##XUNITS=M/Z
##YUNITS=RELATIVE INTENSITY
##XFACTOR=1
##YFACTOR=1
##FIRSTX=12
##LASTX=123
##FIRSTY=59
##MAXX=123
##MINX=12
##MAXY=9999
##MINY=23
##NPOINTS=36
##PEAK TABLE=(XY..XY)
12,59 13,58 14,167 15,182
25,134 26,768 27,1223 28,1643
29,829 30,145 31,1649 32,24
37,64 38,183 39,230 40,606
41,716 42,529 43,92 44,109
45,32 50,79 51,414 52,917
53,800 54,9999 55,513 57,39
67,29 68,97 70,54 84,2346
85,107 97,376 98,34 123,23
##END=
