##TITLE=Naphtho[2,3-b]thiophene, 4,9-dimethyl-
##JCAMP-DX=4.24
##DATA TYPE=MASS SPECTRUM
##OWNER=NIST Mass Spectrometry Data Center
Collection (C) 2014 copyright by the U.S. Secretary of Commerce
on behalf of the United States of America. All rights reserved.
##CAS REGISTRY NO=16587-34-1
##$NIST MASS SPEC NO=9812
##MOLFORM=C14 H12 S
##MW=212
##$NIST SOURCE=MSDC
##XUNITS=M/Z
##YUNITS=RELATIVE INTENSITY
##XFACTOR=1
##YFACTOR=1
##FIRSTX=12
##LASTX=216
##FIRSTY=10
##MAXX=216
##MINX=12
##MAXY=9999
##MINY=10
##NPOINTS=193
##PEAK TABLE=(XY..XY)
12,10 13,10 14,20 15,180
16,10 17,10 18,20 25,10
26,30 27,210 28,120 29,10
32,20 33,10 34,10 36,10
37,20 38,60 39,310 40,20
41,20 42,10 43,10 44,20
45,270 46,10 47,10 49,10
50,160 51,280 52,40 53,20
54,10 55,10 56,10 57,20
58,30 59,30 60,10 61,30
62,130 63,330 64,40 65,70
66,20 67,20 68,10 69,160
70,50 71,40 72,10 73,20
74,140 75,200 76,270 77,170
78,50 79,200 80,40 81,50
82,130 83,90 84,30 85,60
86,120 87,130 88,150 89,250
90,40 91,170 92,751 93,120
94,10 95,20 96,10 97,60
98,160 99,120 100,20 101,40
102,50 103,80 104,400 105,460
106,761 107,50 108,10 109,60
110,30 111,30 113,80 114,50
115,210 116,20 117,40 118,10
119,20 120,10 121,30 122,30
123,20 124,10 125,30 126,130
127,160 128,120 129,20 130,10
131,10 132,20 133,30 134,70
135,20 136,10 137,40 138,40
139,300 140,50 141,70 142,10
143,10 144,10 145,40 146,10
147,20 148,10 150,140 151,240
152,601 153,130 154,20 155,10
156,10 157,10 158,50 159,10
160,10 161,10 162,30 163,220
164,130 165,701 166,180 167,70
168,10 169,50 170,40 171,220
172,40 173,20 174,30 175,40
176,230 177,140 178,741 179,200
180,20 181,10 182,40 183,50
184,360 185,130 186,30 187,10
188,10 189,10 190,10 191,10
192,10 193,10 194,20 195,270
196,110 197,2772 198,420 199,150
200,20 201,10 202,10 203,10
204,10 205,10 206,20 207,40
208,420 209,420 210,470 211,3353
212,9999 213,1692 214,550 215,70
216,10
##END=
