##TITLE=2H-Benzotriazole, 2-methyl-
##JCAMP-DX=4.24
##DATA TYPE=MASS SPECTRUM
##ORIGIN=A. MARQUESTIAU
##OWNER=NIST Mass Spectrometry Data Center
Collection (C) 2014 copyright by the U.S. Secretary of Commerce
on behalf of the United States of America. All rights reserved.
##CAS REGISTRY NO=16584-00-2
##$NIST MASS SPEC NO=42179
##MOLFORM=C7 H7 N3
##MW=133
##$NIST SOURCE=MSDC
##XUNITS=M/Z
##YUNITS=RELATIVE INTENSITY
##XFACTOR=1
##YFACTOR=1
##FIRSTX=26
##LASTX=134
##FIRSTY=100
##MAXX=134
##MINX=26
##MAXY=9999
##MINY=100
##NPOINTS=22
##PEAK TABLE=(XY..XY)
26,100 27,220 28,330 37,210
38,250 39,750 43,450 50,200
51,410 52,280 62,200 63,1220
64,580 76,120 77,310 78,580
89,110 90,2830 91,220 105,410
133,9999 134,830
##END=
