##TITLE=Benzo[b]thiophene, 2,5-dimethyl-
##JCAMP-DX=4.24
##DATA TYPE=MASS SPECTRUM
##OWNER=NIST Mass Spectrometry Data Center
Collection (C) 2014 copyright by the U.S. Secretary of Commerce
on behalf of the United States of America. All rights reserved.
##CAS REGISTRY NO=16587-48-7
##$NIST MASS SPEC NO=5912
##MOLFORM=C10 H10 S
##MW=162
##$NIST SOURCE=MSDC
##XUNITS=M/Z
##YUNITS=RELATIVE INTENSITY
##XFACTOR=1
##YFACTOR=1
##FIRSTX=12
##LASTX=165
##FIRSTY=10
##MAXX=165
##MINX=12
##MAXY=9999
##MINY=10
##NPOINTS=120
##PEAK TABLE=(XY..XY)
12,10 13,10 14,20 15,230
16,10 25,10 26,40 27,210
28,50 29,20 32,20 33,20
34,20 37,40 38,110 39,510
40,40 41,50 42,10 43,20
44,10 45,460 46,20 47,30
55,30 56,20 57,110 58,210
59,380 60,40 61,170 62,430
63,891 64,170 65,300 66,80
67,641 68,60 69,931 70,180
71,210 72,50 73,70 74,280
75,300 76,160 77,571 78,180
79,300 80,1001 81,581 82,180
83,70 84,40 85,70 86,130
87,160 88,60 89,270 90,80
91,360 92,40 93,240 94,60
95,150 96,40 97,60 98,70
99,40 100,20 101,110 102,350
103,190 104,20 105,30 106,40
107,30 108,70 109,50 110,30
111,20 112,10 113,50 114,70
115,931 116,200 117,140 118,30
119,40 120,30 121,250 122,40
123,20 125,20 126,100 127,280
128,1031 129,380 130,50 131,10
132,30 133,50 134,280 135,130
136,30 137,10 145,170 146,90
147,2642 148,280 149,130 150,20
158,110 159,240 160,861 161,8878
162,9999 163,1441 164,480 165,50
##END=
