##TITLE=Dibenzothiophene, 3-methyl-
##JCAMP-DX=4.24
##DATA TYPE=MASS SPECTRUM
##OWNER=NIST Mass Spectrometry Data Center
Collection (C) 2014 copyright by the U.S. Secretary of Commerce
on behalf of the United States of America. All rights reserved.
##CAS REGISTRY NO=16587-52-3
##$NIST MASS SPEC NO=8817
##MOLFORM=C13 H10 S
##MW=198
##$NIST SOURCE=MSDC
##XUNITS=M/Z
##YUNITS=RELATIVE INTENSITY
##XFACTOR=1
##YFACTOR=1
##FIRSTX=13
##LASTX=201
##FIRSTY=10
##MAXX=201
##MINX=13
##MAXY=9999
##MINY=10
##NPOINTS=175
##PEAK TABLE=(XY..XY)
13,10 14,110 15,60 16,20
17,10 18,40 20,10 24,10
25,10 26,50 27,200 28,1061
29,10 32,100 33,10 34,10
36,10 37,30 38,90 39,350
40,20 41,20 42,10 43,10
44,30 45,300 46,10 47,20
49,10 50,150 51,230 52,40
53,20 54,10 55,20 56,10
57,20 58,30 59,10 60,10
61,60 62,170 63,360 64,60
65,60 66,20 67,10 68,10
69,350 70,40 71,50 72,20
73,40 74,160 75,180 76,310
77,110 78,40 79,20 80,10
81,40 82,80 83,40 84,40
85,180 86,290 87,140 88,40
89,90 90,10 91,110 92,60
93,110 94,20 95,30 96,20
97,170 98,450 99,961 100,70
101,50 102,50 103,10 104,10
105,30 106,20 107,10 108,10
109,10 110,20 111,50 112,20
113,100 114,80 115,100 116,10
117,60 118,10 119,30 120,20
121,50 122,30 123,20 124,10
125,30 126,130 127,160 128,40
129,10 130,10 131,10 132,30
133,10 134,40 135,10 136,10
137,50 138,90 139,250 140,30
141,20 142,10 143,10 144,10
145,80 146,20 147,40 148,10
149,20 150,140 151,220 152,721
153,290 154,40 155,10 156,20
157,10 158,100 159,20 160,10
161,10 162,20 163,170 164,130
165,901 166,140 167,10 168,10
169,100 170,100 171,561 172,80
173,30 174,10 175,10 176,10
178,10 179,10 180,10 181,10
182,80 183,20 184,40 185,10
186,10 187,10 193,20 194,30
195,510 196,420 197,5195 198,9999
199,1712 200,571 201,80
##END=
