##TITLE=Benzo[b]thiophene, 6-methyl-
##JCAMP-DX=4.24
##DATA TYPE=MASS SPECTRUM
##OWNER=NIST Mass Spectrometry Data Center
Collection (C) 2014 copyright by the U.S. Secretary of Commerce
on behalf of the United States of America. All rights reserved.
##CAS REGISTRY NO=16587-47-6
##$NIST MASS SPEC NO=4498
##MOLFORM=C9 H8 S
##MW=148
##$NIST SOURCE=MSDC
##XUNITS=M/Z
##YUNITS=RELATIVE INTENSITY
##XFACTOR=1
##YFACTOR=1
##FIRSTX=39
##LASTX=153
##FIRSTY=801
##MAXX=153
##MINX=39
##MAXY=9999
##MINY=10
##NPOINTS=111
##PEAK TABLE=(XY..XY)
39,801 40,50 41,30 42,10
43,20 44,60 45,1231 46,40
47,70 48,20 49,100 50,561
51,731 52,160 53,90 54,10
55,10 56,20 57,140 58,210
59,70 60,100 61,310 62,490
63,891 64,120 65,130 66,20
67,10 68,20 69,270 70,120
71,140 72,130 73,591 74,991
75,300 76,150 77,611 78,110
79,10 80,10 81,140 82,200
83,60 84,40 85,90 86,140
87,170 88,60 89,320 90,50
91,40 92,30 93,290 94,70
95,130 96,40 97,120 98,60
99,30 100,10 101,70 102,320
103,460 104,70 105,30 106,50
107,20 108,70 109,30 110,20
111,10 112,10 113,50 114,40
115,490 116,60 117,40 118,10
119,60 120,50 121,831 122,80
123,40 124,10 125,10 128,10
129,10 130,10 131,10 132,60
133,20 134,30 135,10 136,10
137,10 138,10 139,10 141,10
143,10 144,10 145,270 146,350
147,9859 148,9999 149,1441 150,490
151,40 152,20 153,10
##END=
