##TITLE=Dibenzothiophene, 1,2,3,4-tetrahydro-
##JCAMP-DX=4.24
##DATA TYPE=MASS SPECTRUM
##ORIGIN=U.S. BUREAU OF MINES, LARAMIE, WYO, USA
##OWNER=NIST Mass Spectrometry Data Center
Collection (C) 2014 copyright by the U.S. Secretary of Commerce
on behalf of the United States of America. All rights reserved.
##CAS REGISTRY NO=16587-33-0
##$NIST MASS SPEC NO=34592
##MOLFORM=C12 H12 S
##MW=188
##$NIST SOURCE=MSDC
##XUNITS=M/Z
##YUNITS=RELATIVE INTENSITY
##XFACTOR=1
##YFACTOR=1
##FIRSTX=13
##LASTX=191
##FIRSTY=10
##MAXX=191
##MINX=13
##MAXY=9999
##MINY=7
##NPOINTS=157
##PEAK TABLE=(XY..XY)
13,10 14,11 15,123 16,8
25,8 26,43 27,244 28,120
29,30 32,14 33,10 34,12
37,17 38,63 39,405 40,29
41,47 42,9 43,12 44,11
45,466 46,16 47,26 48,7
49,17 50,361 51,686 52,146
53,166 54,24 55,19 56,14
57,86 58,237 59,178 60,28
61,91 62,317 63,804 64,152
65,219 66,69 67,304 68,30
69,751 70,118 71,180 72,30
73,63 74,334 75,439 76,321
77,496 78,110 79,453 80,280
81,116 82,183 83,65 84,63
85,179 86,369 87,203 88,96
89,407 90,117 91,237 92,437
93,428 94,511 95,99 96,17
97,26 98,72 99,60 100,29
101,129 102,294 103,171 104,21
105,28 106,43 107,23 108,91
109,68 110,40 111,30 112,14
113,123 114,191 115,2363 116,614
117,83 118,13 119,35 120,37
121,155 122,28 123,24 124,8
125,23 126,143 127,292 128,692
129,159 130,21 131,9 132,35
133,48 134,547 135,99 136,43
137,24 138,24 139,243 140,47
141,87 142,35 143,65 144,18
145,184 146,65 147,1072 148,122
149,57 150,40 151,81 152,312
153,228 154,181 155,74 156,15
157,24 158,279 159,521 160,9999
161,1217 162,479 163,53 164,8
169,22 170,41 171,624 172,355
173,259 174,50 175,17 182,33
183,75 184,614 185,420 186,263
187,1928 188,6582 189,896 190,299
191,42
##END=
