##TITLE=Benzo[b]thiophene, 2,5,7-trimethyl-
##JCAMP-DX=4.24
##DATA TYPE=MASS SPECTRUM
##ORIGIN=U.S. BUREAU OF MINES, LARAMIE, WYO, USA
##OWNER=NIST Mass Spectrometry Data Center
Collection (C) 2014 copyright by the U.S. Secretary of Commerce
on behalf of the United States of America. All rights reserved.
##CAS REGISTRY NO=16587-65-8
##$NIST MASS SPEC NO=34588
##MOLFORM=C11 H12 S
##MW=176
##$NIST SOURCE=MSDC
##XUNITS=M/Z
##YUNITS=RELATIVE INTENSITY
##XFACTOR=1
##YFACTOR=1
##FIRSTX=13
##LASTX=180
##FIRSTY=9
##MAXX=180
##MINX=13
##MAXY=9999
##MINY=9
##NPOINTS=145
##PEAK TABLE=(XY..XY)
13,9 14,15 15,272 16,10
26,30 27,230 28,38 29,21
32,14 33,12 34,13 37,22
38,71 39,540 40,45 41,97
42,11 43,21 44,10 45,343
46,14 47,30 48,9 49,19
50,296 51,725 52,157 53,183
54,17 55,21 56,14 57,72
58,183 59,481 60,44 61,115
62,295 63,783 64,156 65,394
66,66 67,194 68,21 69,627
70,155 71,182 72,55 73,158
74,425 75,272 76,131 77,469
78,132 79,176 80,373 81,78
82,106 83,85 84,45 85,136
86,235 87,592 88,627 89,274
90,69 91,404 92,44 93,171
94,47 95,98 96,28 97,65
98,54 99,37 100,14 101,65
102,193 103,145 104,26 105,46
106,31 107,22 108,48 109,52
110,27 111,29 112,10 113,52
114,84 115,1076 116,257 117,108
118,18 119,31 120,17 121,168
122,31 123,28 124,9 125,13
126,71 127,220 128,700 129,226
130,39 131,29 132,22 133,43
134,404 135,183 136,43 137,16
138,11 139,120 140,59 141,442
142,192 143,167 144,22 145,92
146,60 147,444 148,147 149,118
150,29 151,14 157,12 158,156
159,259 160,582 161,5353 162,658
163,263 164,31 170,17 171,126
172,61 173,267 174,476 175,5646
176,9999 177,1429 178,510 179,59
180,9
##END=
