##TITLE=Methyl 2-pyridylacetate
##JCAMP-DX=4.24
##DATA TYPE=MASS SPECTRUM
##ORIGIN=Japan AIST/NIMC Database- Spectrum MS-NW-8870
##OWNER=NIST Mass Spectrometry Data Center
Collection (C) 2014 copyright by the U.S. Secretary of Commerce
on behalf of the United States of America. All rights reserved.
##CAS REGISTRY NO=1658-42-0
##$NIST MASS SPEC NO=235448
##MOLFORM=C8 H9 N O2
##MW=151
##$NIST SOURCE=MSDC
##XUNITS=M/Z
##YUNITS=RELATIVE INTENSITY
##XFACTOR=1
##YFACTOR=1
##FIRSTX=14
##LASTX=153
##FIRSTY=20
##MAXX=153
##MINX=14
##MAXY=9999
##MINY=10
##NPOINTS=66
##PEAK TABLE=(XY..XY)
14,20 15,1069 16,10 26,139
27,199 28,209 29,109 30,20
31,70 37,109 38,369 39,2109
40,239 41,259 42,159 43,20
44,20 45,30 46,90 49,20
50,349 51,719 52,499 53,119
54,50 55,20 59,1799 60,50
61,60 62,159 63,649 64,719
65,4889 66,879 67,119 68,30
75,20 76,40 77,119 78,359
79,909 80,189 81,20 88,10
90,50 91,509 92,9999 93,6889
94,479 95,20 104,10 106,1199
107,249 108,509 109,379 110,30
119,1649 120,1899 121,149 122,20
136,959 137,70 150,20 151,2429
152,309 153,30
##END=
