##TITLE=N,N'-Di-p-tolyl-formamidine
##JCAMP-DX=4.24
##DATA TYPE=MASS SPECTRUM
##ORIGIN=A. SAEED, DEP. CHEM., COLL. SCI., BASRAH UNIV., BASRAH, IRAQ
##OWNER=NIST Mass Spectrometry Data Center
Collection (C) 2014 copyright by the U.S. Secretary of Commerce
on behalf of the United States of America. All rights reserved.
##CAS REGISTRY NO=16596-03-5
##$NIST MASS SPEC NO=100093
##MOLFORM=C15 H16 N2
##MW=224
##$NIST SOURCE=MSDC
##XUNITS=M/Z
##YUNITS=RELATIVE INTENSITY
##XFACTOR=1
##YFACTOR=1
##FIRSTX=39
##LASTX=225
##FIRSTY=600
##MAXX=225
##MINX=39
##MAXY=9999
##MINY=500
##NPOINTS=17
##PEAK TABLE=(XY..XY)
39,600 51,500 65,1100 77,1000
79,600 91,2200 93,600 104,500
106,4800 107,9999 108,1000 111,1000
118,1100 135,1500 223,800 224,3400
225,500
##END=
