##TITLE=1,1'-Biphenyl, 2,3-dichloro-
##JCAMP-DX=4.24
##DATA TYPE=MASS SPECTRUM
##ORIGIN=NIST Mass Spectrometry Data Center, 1998.
##OWNER=NIST Mass Spectrometry Data Center
Collection (C) 2014 copyright by the U.S. Secretary of Commerce
on behalf of the United States of America. All rights reserved.
##CAS REGISTRY NO=16605-91-7
##$NIST MASS SPEC NO=292155
##MOLFORM=C12 H8 Cl2
##MW=222
##$NIST SOURCE=MSDC
##XUNITS=M/Z
##YUNITS=RELATIVE INTENSITY
##XFACTOR=1
##YFACTOR=1
##FIRSTX=26
##LASTX=228
##FIRSTY=30
##MAXX=228
##MINX=26
##MAXY=9999
##MINY=10
##NPOINTS=125
##PEAK TABLE=(XY..XY)
26,30 27,50 35,20 36,10
37,40 38,80 39,230 40,10
47,10 49,70 50,490 51,570
52,110 53,10 55,10 56,10
60,20 61,180 62,390 63,550
64,40 65,20 67,20 68,20
72,30 73,170 74,680 75,1290
76,970 77,250 78,40 79,10
80,190 81,70 83,10 84,90
85,200 86,310 87,300 88,50
89,50 93,1000 94,360 96,30
97,120 98,450 99,500 100,140
101,130 102,170 103,20 104,10
107,20 108,50 109,130 110,160
111,450 112,220 113,200 114,50
115,20 120,30 121,60 122,120
123,170 124,90 125,290 126,550
127,80 128,10 132,10 133,30
134,30 135,80 136,60 137,70
138,40 139,20 144,10 145,10
146,30 147,70 148,80 149,200
150,1410 151,1880 152,6679 153,870
154,50 157,10 159,40 160,100
161,70 162,70 163,20 164,10
170,60 171,10 172,50 173,30
174,10 175,10 183,50 184,20
185,70 186,860 187,270 188,300
189,80 190,10 194,20 196,70
197,10 198,40 200,10 207,10
209,10 220,30 222,9999 223,1380
224,6479 225,860 226,1100 227,140
228,10
##END=
