##TITLE=1-Adamantyl methyl ketone
##JCAMP-DX=4.24
##DATA TYPE=MASS SPECTRUM
##ORIGIN=Japan AIST/NIMC Database- Spectrum MS-NW-9169
##OWNER=NIST Mass Spectrometry Data Center
Collection (C) 2014 copyright by the U.S. Secretary of Commerce
on behalf of the United States of America. All rights reserved.
##CAS REGISTRY NO=1660-04-4
##$NIST MASS SPEC NO=239037
##MOLFORM=C12 H18 O
##MW=178
##$NIST SOURCE=MSDC
##XUNITS=M/Z
##YUNITS=RELATIVE INTENSITY
##XFACTOR=1
##YFACTOR=1
##FIRSTX=15
##LASTX=179
##FIRSTY=60
##MAXX=179
##MINX=15
##MAXY=9999
##MINY=10
##NPOINTS=65
##PEAK TABLE=(XY..XY)
15,60 18,10 27,159 28,40
29,139 39,279 40,40 41,519
42,20 43,969 44,20 45,10
50,10 51,80 52,40 53,209
54,30 55,389 56,30 57,80
63,20 64,10 65,149 66,50
67,829 68,50 69,229 70,10
71,10 77,459 78,119 79,2019
80,169 81,599 82,40 91,419
92,119 93,1949 94,179 95,30
103,50 104,40 105,99 106,20
107,819 108,70 115,20 116,10
117,60 118,30 119,50 120,10
121,10 131,30 132,10 133,30
134,10 135,9999 136,1099 137,50
145,40 160,109 161,10 178,559
179,90
##END=
