##TITLE=3-Amino-4-pyrazolecarbonitrile
##JCAMP-DX=4.24
##DATA TYPE=MASS SPECTRUM
##ORIGIN=NIST Mass Spectrometry Data Center
##OWNER=NIST Mass Spectrometry Data Center
Collection (C) 2014 copyright by the U.S. Secretary of Commerce
on behalf of the United States of America. All rights reserved.
##CAS REGISTRY NO=16617-46-2
##$NIST MASS SPEC NO=340562
##MOLFORM=C4 H4 N4
##MW=108
##$NIST SOURCE=MSDC
##XUNITS=M/Z
##YUNITS=RELATIVE INTENSITY
##XFACTOR=1
##YFACTOR=1
##FIRSTX=12
##LASTX=109
##FIRSTY=20
##MAXX=109
##MINX=12
##MAXY=9999
##MINY=10
##NPOINTS=47
##PEAK TABLE=(XY..XY)
12,20 13,20 16,30 17,60
18,10 24,30 25,70 26,130
27,350 28,1992 29,611 30,90
31,30 36,30 37,80 38,661
39,601 40,210 41,90 42,280
43,1261 44,30 50,140 51,871
52,2332 53,2412 54,1191 55,50
56,40 57,150 63,30 64,230
65,210 66,370 67,170 68,20
76,50 77,430 78,160 79,801
80,110 81,260 91,40 92,20
107,60 108,9999 109,591
##END=
