##TITLE=Phosphine, 1,2-ethanediylbis[diphenyl-
##JCAMP-DX=4.24
##DATA TYPE=MASS SPECTRUM
##ORIGIN=ALPHA Chemicals / NIST MS Data Center.
##OWNER=NIST Mass Spectrometry Data Center
Collection (C) 2014 copyright by the U.S. Secretary of Commerce
on behalf of the United States of America. All rights reserved.
##CAS REGISTRY NO=1663-45-2
##$NIST MASS SPEC NO=125347
##MOLFORM=C26 H24 P2
##MW=398
##$NIST SOURCE=MSDC
##XUNITS=M/Z
##YUNITS=RELATIVE INTENSITY
##XFACTOR=1
##YFACTOR=1
##FIRSTX=14
##LASTX=401
##FIRSTY=1
##MAXX=401
##MINX=14
##MAXY=9999
##MINY=1
##NPOINTS=150
##PEAK TABLE=(XY..XY)
14,1 26,34 28,186 39,285
40,5 41,36 45,31 50,124
51,504 52,82 53,27 56,81
57,364 58,35 62,28 63,119
64,40 65,393 66,23 68,25
69,59 70,27 73,4 74,32
75,47 76,82 77,514 78,191
79,77 80,82 81,236 82,107
83,229 89,77 91,391 92,55
94,20 95,121 96,21 101,15
102,86 103,60 104,36 105,36
106,15 107,1416 108,1645 109,561
110,46 113,27 115,478 116,58
120,108 121,678 122,63 126,48
127,59 128,127 129,24 131,46
133,683 134,277 135,72 136,17
139,254 140,52 141,272 142,31
143,16 144,47 145,46 146,56
150,40 152,1155 153,236 154,86
155,42 156,16 157,444 158,71
159,133 160,106 165,161 166,64
167,37 168,29 169,29 170,397
171,80 177,20 178,47 179,36
181,147 183,9999 184,1712 185,4913
186,692 187,79 194,33 195,47
196,46 197,64 199,274 201,56
209,23 211,81 212,158 213,168
214,44 215,158 216,27 217,37
220,19 227,22 228,47 229,31
257,27 258,23 259,64 260,23
261,941 262,4657 263,958 264,119
275,3305 276,735 277,108 287,56
289,8479 290,1748 291,213 292,56
293,301 294,63 305,23 319,21
321,482 322,114 337,82 355,1
369,1104 370,5783 371,1446 372,175
386,28 396,77 398,9888 399,2822
400,367 401,47
##END=
