##TITLE=4-Chlorophenylselenol
##JCAMP-DX=4.24
##DATA TYPE=MASS SPECTRUM
##ORIGIN=NIST Mass Spectrometry Data Center, 1994
##OWNER=NIST Mass Spectrometry Data Center
Collection (C) 2014 copyright by the U.S. Secretary of Commerce
on behalf of the United States of America. All rights reserved.
##CAS REGISTRY NO=16645-10-6
##$NIST MASS SPEC NO=136013
##MOLFORM=C6 H5 Cl Se
##MW=192
##$NIST SOURCE=MSDC
##XUNITS=M/Z
##YUNITS=RELATIVE INTENSITY
##XFACTOR=1
##YFACTOR=1
##FIRSTX=35
##LASTX=195
##FIRSTY=167
##MAXX=195
##MINX=35
##MAXY=9999
##MINY=64
##NPOINTS=49
##PEAK TABLE=(XY..XY)
35,167 36,263 37,1129 47,143
48,119 49,819 50,3739 51,814
55,160 56,70 60,202 61,390
62,202 63,132 72,196 73,967
74,2767 75,5135 76,1060 77,162
78,103 79,288 80,83 81,374
82,99 83,83 84,312 85,480
86,122 87,133 93,64 95,221
96,309 97,85 109,88 111,6860
112,486 113,2245 114,151 128,65
130,79 155,133 157,109 190,7383
191,653 192,9999 193,623 194,2364
195,146
##END=
