##TITLE=Peroxide, bis(1-methylethyl)
##JCAMP-DX=4.24
##DATA TYPE=MASS SPECTRUM
##ORIGIN=N.C.PAUL M.O.D., AVIATION SUPPLY, E.R.D.E., WALTHAM ABBEY UK
##OWNER=NIST Mass Spectrometry Data Center
Collection (C) 2014 copyright by the U.S. Secretary of Commerce
on behalf of the United States of America. All rights reserved.
##CAS REGISTRY NO=16642-57-2
##$NIST MASS SPEC NO=38599
##MOLFORM=C6 H14 O2
##MW=118
##$NIST SOURCE=MSDC
##XUNITS=M/Z
##YUNITS=RELATIVE INTENSITY
##XFACTOR=1
##YFACTOR=1
##FIRSTX=12
##LASTX=119
##FIRSTY=10
##MAXX=119
##MINX=12
##MAXY=9999
##MINY=10
##NPOINTS=64
##PEAK TABLE=(XY..XY)
12,10 13,20 14,120 15,1180
16,50 17,40 18,160 19,50
25,20 26,180 27,1540 28,510
29,2210 30,60 31,830 32,40
33,50 37,50 38,90 39,930
40,190 41,2880 42,1540 43,9999
44,480 45,670 46,20 50,60
51,60 52,30 53,90 54,80
55,510 56,2200 57,1920 58,270
59,450 60,20 61,1820 62,10
63,10 65,20 66,10 67,40
68,50 69,450 70,60 71,110
72,10 74,10 75,220 76,800
77,90 78,20 79,10 80,10
83,30 84,380 85,70 86,310
87,40 103,10 118,750 119,50
##END=
