##TITLE=3-Hydroxycarbofuran
##JCAMP-DX=4.24
##DATA TYPE=MASS SPECTRUM
##ORIGIN=J. SHAW, BORRISTON RESEARCH, ROCKVILLE, MD, USA
##OWNER=NIST Mass Spectrometry Data Center
Collection (C) 2014 copyright by the U.S. Secretary of Commerce
on behalf of the United States of America. All rights reserved.
##CAS REGISTRY NO=16655-82-6
##$NIST MASS SPEC NO=60422
##MOLFORM=C12 H15 N O4
##MW=237
##$NIST SOURCE=MSDC
##XUNITS=M/Z
##YUNITS=RELATIVE INTENSITY
##XFACTOR=1
##YFACTOR=1
##FIRSTX=12
##LASTX=239
##FIRSTY=20
##MAXX=239
##MINX=12
##MAXY=9999
##MINY=10
##NPOINTS=140
##PEAK TABLE=(XY..XY)
12,20 13,10 14,60 15,2202
16,100 26,100 27,960 28,1041
29,560 30,150 31,230 32,40
35,10 36,30 37,30 38,150
39,1351 40,190 41,1101 42,210
43,1871 44,130 45,140 46,10
47,10 50,220 51,540 52,360
53,640 54,110 55,690 56,180
57,540 58,1881 59,340 60,40
61,20 62,80 63,380 64,310
65,1221 66,220 67,90 68,40
69,110 70,40 71,110 72,50
73,30 74,40 75,70 76,110
77,520 78,150 79,440 80,160
81,770 82,80 83,70 84,20
85,40 86,10 87,20 88,10
89,80 90,50 91,900 92,420
93,670 94,190 95,100 96,20
97,40 98,10 99,10 100,10
101,30 102,40 103,150 104,70
105,470 106,250 107,320 108,170
109,490 110,180 111,160 112,20
113,10 115,190 116,140 117,90
118,60 119,610 120,220 121,820
122,300 123,930 124,80 125,60
127,30 128,10 129,20 130,20
131,50 133,480 134,1061 135,230
137,9999 138,1301 139,260 140,30
141,10 143,60 144,120 145,90
147,3133 148,320 149,100 151,2742
152,280 153,30 161,1081 162,2272
163,340 164,90 165,60 166,10
175,10 177,20 178,50 180,5365
181,550 182,60 207,20 220,40
221,10 237,380 238,60 239,10
##END=
