##TITLE=2-(Dimethylamino)ethanol, TMS derivative
##JCAMP-DX=4.24
##DATA TYPE=MASS SPECTRUM
##ORIGIN=K. G. Karaisz et al., J. Microcolumn Separations, 13(1), 1-7, 2001
##OWNER=NIST Mass Spectrometry Data Center
Collection (C) 2014 copyright by the U.S. Secretary of Commerce
on behalf of the United States of America. All rights reserved.
##CAS REGISTRY NO=16654-64-1
##$NIST MASS SPEC NO=383526
##MOLFORM=C7 H19 N O Si
##MW=161
##$NIST SOURCE=MSDC
##XUNITS=M/Z
##YUNITS=RELATIVE INTENSITY
##XFACTOR=1
##YFACTOR=1
##FIRSTX=27
##LASTX=161
##FIRSTY=110
##MAXX=161
##MINX=27
##MAXY=9999
##MINY=90
##NPOINTS=26
##PEAK TABLE=(XY..XY)
27,110 28,210 29,210 30,310
42,1011 43,540 44,290 45,651
47,190 55,90 56,270 58,9999
59,821 60,90 61,110 70,130
72,981 73,631 74,90 75,90
88,90 101,90 102,180 146,931
147,130 161,90
##END=
