##TITLE=Diselenide, diphenyl
##JCAMP-DX=4.24
##DATA TYPE=MASS SPECTRUM
##OWNER=NIST Mass Spectrometry Data Center
Collection (C) 2014 copyright by the U.S. Secretary of Commerce
on behalf of the United States of America. All rights reserved.
##CAS REGISTRY NO=1666-13-3
##$NIST MASS SPEC NO=14884
##MOLFORM=C12 H10 Se2
##MW=314
##$NIST SOURCE=MSDC
##XUNITS=M/Z
##YUNITS=RELATIVE INTENSITY
##XFACTOR=1
##YFACTOR=1
##FIRSTX=26
##LASTX=318
##FIRSTY=95
##MAXX=318
##MINX=26
##MAXY=9999
##MINY=19
##NPOINTS=104
##PEAK TABLE=(XY..XY)
26,95 27,417 28,19 37,152
38,227 39,2424 40,38 41,19
49,114 50,2746 51,5018 52,379
53,19 61,95 62,152 63,530
64,38 65,1515 66,114 73,95
74,852 75,947 76,1136 77,9999
78,2178 79,95 80,284 81,57
82,57 89,95 90,57 91,189
93,473 94,95 101,95 102,114
103,284 104,152 105,473 106,189
107,284 108,38 109,38 111,38
113,227 114,208 115,720 116,57
117,1420 118,152 119,284 120,38
125,19 126,114 127,208 128,227
129,379 130,341 131,322 132,57
133,57 139,38 141,57 150,38
151,227 152,511 153,2310 154,4640
155,5208 156,1136 157,9753 158,1288
159,1742 160,284 172,57 174,38
175,38 228,95 229,133 230,473
231,530 232,1042 233,568 234,1894
235,568 236,473 237,379 238,57
239,95 304,19 305,19 306,208
307,227 308,985 309,758 310,2803
311,1704 312,4545 313,795 314,5056
315,606 316,1515 317,189 318,114
##END=
