##TITLE=Phosphonic acid, (2-chloroethyl)-
##JCAMP-DX=4.24
##DATA TYPE=MASS SPECTRUM
##ORIGIN=J. SHAW, BORRISTON RESEARCH, ROCKVILLE, MD, USA
##OWNER=NIST Mass Spectrometry Data Center
Collection (C) 2014 copyright by the U.S. Secretary of Commerce
on behalf of the United States of America. All rights reserved.
##CAS REGISTRY NO=16672-87-0
##$NIST MASS SPEC NO=60196
##MOLFORM=C2 H6 Cl O3 P
##MW=144
##$NIST SOURCE=MSDC
##XUNITS=M/Z
##YUNITS=RELATIVE INTENSITY
##XFACTOR=1
##YFACTOR=1
##FIRSTX=12
##LASTX=149
##FIRSTY=20
##MAXX=149
##MINX=12
##MAXY=9999
##MINY=10
##NPOINTS=106
##PEAK TABLE=(XY..XY)
12,20 13,30 14,130 15,200
16,130 17,690 18,2392 19,1601
20,10 25,70 26,980 27,3053
28,2852 29,650 30,40 31,240
32,40 33,20 34,10 35,170
36,610 37,70 38,200 39,60
40,10 41,320 42,170 43,440
44,420 45,380 47,1451 48,220
49,250 50,30 51,80 53,20
54,20 55,160 56,80 57,370
58,40 59,40 60,120 61,170
62,510 63,1101 64,540 65,2292
66,20 67,40 68,30 69,90
70,50 71,80 72,20 73,110
74,50 75,60 76,10 77,30
78,140 79,80 81,5535 82,9999
83,230 84,160 85,60 86,40
87,30 88,10 89,50 91,1611
92,50 93,30 94,10 95,50
96,110 97,80 98,70 99,430
100,30 101,100 102,10 103,10
107,50 109,4134 110,120 111,140
112,40 113,30 114,10 115,40
117,380 119,120 121,20 122,10
123,20 125,90 126,20 127,110
128,50 129,40 143,50 145,600
147,240 149,60
##END=
