##TITLE=1,1'-Biphenyl, 4-(chloromethyl)-
##JCAMP-DX=4.24
##DATA TYPE=MASS SPECTRUM
##ORIGIN=Japan AIST/NIMC Database- Spectrum MS-NW-7199
##OWNER=NIST Mass Spectrometry Data Center
Collection (C) 2014 copyright by the U.S. Secretary of Commerce
on behalf of the United States of America. All rights reserved.
##CAS REGISTRY NO=1667-11-4
##$NIST MASS SPEC NO=235848
##MOLFORM=C13 H11 Cl
##MW=202
##$NIST SOURCE=MSDC
##XUNITS=M/Z
##YUNITS=RELATIVE INTENSITY
##XFACTOR=1
##YFACTOR=1
##FIRSTX=26
##LASTX=205
##FIRSTY=10
##MAXX=205
##MINX=26
##MAXY=9999
##MINY=10
##NPOINTS=91
##PEAK TABLE=(XY..XY)
26,10 27,40 28,20 36,40
37,10 38,30 39,249 40,10
41,10 49,10 50,129 51,219
52,50 53,10 55,10 56,10
57,129 58,10 61,30 62,119
63,329 64,50 65,119 68,10
69,239 70,189 71,20 73,20
74,109 75,119 76,179 77,109
78,30 81,159 82,689 83,579
84,80 85,20 86,60 87,99
88,50 89,189 90,30 91,50
98,30 99,30 100,40 101,309
102,169 103,10 110,10 111,20
113,70 114,40 115,339 116,30
125,20 126,70 127,70 128,199
129,20 137,20 138,30 139,269
140,40 141,70 142,10 149,10
150,30 151,109 152,769 153,119
154,40 162,20 163,189 164,229
165,1959 166,529 167,9999 168,1499
169,109 178,10 179,10 180,10
181,10 182,10 201,70 202,2709
203,409 204,899 205,129
##END=
