##TITLE=5-Dodecen-1-ol, acetate, (Z)-
##JCAMP-DX=4.24
##DATA TYPE=MASS SPECTRUM
##ORIGIN=NIST Mass Spectrometry Data Center, 1998.
##OWNER=NIST Mass Spectrometry Data Center
Collection (C) 2014 copyright by the U.S. Secretary of Commerce
on behalf of the United States of America. All rights reserved.
##CAS REGISTRY NO=16676-96-3
##$NIST MASS SPEC NO=291625
##MOLFORM=C14 H26 O2
##MW=226
##$NIST SOURCE=MSDC
##XUNITS=M/Z
##YUNITS=RELATIVE INTENSITY
##XFACTOR=1
##YFACTOR=1
##FIRSTX=14
##LASTX=183
##FIRSTY=10
##MAXX=183
##MINX=14
##MAXY=9999
##MINY=10
##NPOINTS=104
##PEAK TABLE=(XY..XY)
14,10 15,120 26,40 27,720
28,150 29,1250 30,40 31,70
37,10 38,30 39,1360 40,250
41,4670 42,930 43,9999 44,290
45,70 50,30 51,130 52,110
53,1140 54,6279 55,5479 56,920
57,740 58,80 59,20 60,20
61,390 62,10 63,20 64,10
65,470 66,850 67,8659 68,5889
69,2610 70,430 71,390 72,30
73,190 74,10 77,490 78,100
79,1610 80,700 81,6749 82,7429
83,2100 84,300 85,150 86,30
87,20 88,10 91,240 92,30
93,420 94,310 95,5769 96,5409
97,980 98,170 99,40 100,10
101,50 102,10 103,10 105,20
106,10 107,60 108,80 109,2530
110,3390 111,380 112,30 113,10
114,10 115,10 116,10 121,20
122,50 123,840 124,700 125,80
126,10 127,10 128,10 135,10
136,20 137,380 138,2120 139,230
140,10 141,20 142,10 151,20
155,10 164,10 165,30 166,1840
167,260 168,20 181,10 183,10
##END=
