##TITLE=1H-Tetrazole, 1-methyl-
##JCAMP-DX=4.24
##DATA TYPE=MASS SPECTRUM
##OWNER=NIST Mass Spectrometry Data Center
Collection (C) 2014 copyright by the U.S. Secretary of Commerce
on behalf of the United States of America. All rights reserved.
##CAS REGISTRY NO=16681-77-9
##$NIST MASS SPEC NO=541
##MOLFORM=C2 H4 N4
##MW=84
##$NIST SOURCE=MSDC
##XUNITS=M/Z
##YUNITS=RELATIVE INTENSITY
##XFACTOR=1
##YFACTOR=1
##FIRSTX=26
##LASTX=85
##FIRSTY=500
##MAXX=85
##MINX=26
##MAXY=9999
##MINY=100
##NPOINTS=17
##PEAK TABLE=(XY..XY)
26,500 27,2002 28,8708 29,3003
38,100 39,100 40,200 41,801
42,1702 43,1802 53,400 54,200
55,9999 56,901 57,100 84,3203
85,500
##END=
