##TITLE=2H-Tetrazole, 2-methyl-
##JCAMP-DX=4.24
##DATA TYPE=MASS SPECTRUM
##OWNER=NIST Mass Spectrometry Data Center
Collection (C) 2014 copyright by the U.S. Secretary of Commerce
on behalf of the United States of America. All rights reserved.
##CAS REGISTRY NO=16681-78-0
##$NIST MASS SPEC NO=543
##MOLFORM=C2 H4 N4
##MW=84
##$NIST SOURCE=MSDC
##XUNITS=M/Z
##YUNITS=RELATIVE INTENSITY
##XFACTOR=1
##YFACTOR=1
##FIRSTX=26
##LASTX=84
##FIRSTY=200
##MAXX=84
##MINX=26
##MAXY=9999
##MINY=100
##NPOINTS=12
##PEAK TABLE=(XY..XY)
26,200 27,1702 28,9999 29,601
41,400 42,100 43,300 53,200
55,200 56,4804 57,100 84,200
##END=
