##TITLE=5-Nitrothiophene-2-carbonitrile
##JCAMP-DX=4.24
##DATA TYPE=MASS SPECTRUM
##ORIGIN=NIST Mass Spectrometry Data Center, 1994
##OWNER=NIST Mass Spectrometry Data Center
Collection (C) 2014 copyright by the U.S. Secretary of Commerce
on behalf of the United States of America. All rights reserved.
##CAS REGISTRY NO=16689-02-4
##$NIST MASS SPEC NO=136813
##MOLFORM=C5 H2 N2 O2 S
##MW=154
##$NIST SOURCE=MSDC
##XUNITS=M/Z
##YUNITS=RELATIVE INTENSITY
##XFACTOR=1
##YFACTOR=1
##FIRSTX=12
##LASTX=157
##FIRSTY=193
##MAXX=157
##MINX=12
##MAXY=9999
##MINY=20
##NPOINTS=72
##PEAK TABLE=(XY..XY)
12,193 13,47 16,158 18,28
24,103 25,219 26,189 28,25
30,7933 32,631 33,87 34,49
35,25 36,438 37,2484 38,1303
39,176 40,57 44,568 45,3278
46,715 47,193 48,239 49,410
50,422 51,558 52,340 53,97
54,39 55,35 56,382 57,4838
58,267 60,70 61,43 62,609
63,1075 64,9999 65,438 68,342
69,946 70,3689 71,199 72,157
75,361 76,129 80,674 81,967
82,1015 83,114 84,41 89,40
92,48 93,44 94,170 95,40
96,5801 97,412 98,277 106,337
107,468 108,913 109,83 110,47
124,3266 125,217 126,172 138,469
154,7127 155,510 156,335 157,20
##END=
