##TITLE=Ethyl N,N-dimethyloxamate
##JCAMP-DX=4.24
##DATA TYPE=MASS SPECTRUM
##ORIGIN=NIST Mass Spectrometry Data Center, 1994
##OWNER=NIST Mass Spectrometry Data Center
Collection (C) 2014 copyright by the U.S. Secretary of Commerce
on behalf of the United States of America. All rights reserved.
##CAS REGISTRY NO=16703-52-9
##$NIST MASS SPEC NO=133448
##MOLFORM=C6 H11 N O3
##MW=145
##$NIST SOURCE=MSDC
##XUNITS=M/Z
##YUNITS=RELATIVE INTENSITY
##XFACTOR=1
##YFACTOR=1
##FIRSTX=4
##LASTX=147
##FIRSTY=2
##MAXX=147
##MINX=4
##MAXY=9999
##MINY=2
##NPOINTS=36
##PEAK TABLE=(XY..XY)
4,2 14,67 15,545 16,17
17,2 18,453 26,111 27,580
28,489 29,1003 30,98 31,16
32,4 39,16 40,67 41,128
42,981 43,350 44,435 45,66
56,388 57,26 58,256 59,11
60,9 72,9999 73,602 74,115
86,12 88,99 89,65 116,716
117,39 145,930 146,73 147,10
##END=
