##TITLE=Silane, (chloromethyl)ethenyldimethyl-
##JCAMP-DX=4.24
##DATA TYPE=MASS SPECTRUM
##OWNER=NIST Mass Spectrometry Data Center
Collection (C) 2014 copyright by the U.S. Secretary of Commerce
on behalf of the United States of America. All rights reserved.
##CAS REGISTRY NO=16709-86-7
##$NIST MASS SPEC NO=3234
##MOLFORM=C5 H11 Cl Si
##MW=134
##$NIST SOURCE=MSDC
##XUNITS=M/Z
##YUNITS=RELATIVE INTENSITY
##XFACTOR=1
##YFACTOR=1
##FIRSTX=35
##LASTX=122
##FIRSTY=50
##MAXX=122
##MINX=35
##MAXY=9999
##MINY=20
##NPOINTS=71
##PEAK TABLE=(XY..XY)
35,50 36,150 37,50 38,80
39,60 45,420 46,50 47,20
48,20 49,120 50,120 51,160
52,120 53,581 54,150 55,581
56,190 57,160 58,360 59,2182
60,490 61,230 62,20 63,1211
64,140 65,761 66,190 67,240
68,80 69,160 70,110 71,220
72,140 73,70 74,40 75,40
76,50 77,160 78,390 79,200
80,220 81,851 82,60 83,250
84,110 85,9999 86,971 87,390
88,20 89,40 90,50 91,731
92,130 93,971 94,100 95,290
96,20 97,70 98,20 99,30
103,30 105,60 106,30 107,120
108,20 109,40 117,30 119,490
120,60 121,190 122,20
##END=
