##TITLE=2-Butanone, ethylhydrazone
##JCAMP-DX=4.24
##DATA TYPE=MASS SPECTRUM
##ORIGIN=ATLAS OF MASS SPECTRA OF ORGANIC COMPOUNDS, V. A. KOPTYUG, ED.
##OWNER=NIST Mass Spectrometry Data Center
Collection (C) 2014 copyright by the U.S. Secretary of Commerce
on behalf of the United States of America. All rights reserved.
##CAS REGISTRY NO=16713-35-2
##$NIST MASS SPEC NO=64487
##MOLFORM=C6 H14 N2
##MW=114
##$NIST SOURCE=MSDC
##XUNITS=M/Z
##YUNITS=RELATIVE INTENSITY
##XFACTOR=1
##YFACTOR=1
##FIRSTX=27
##LASTX=115
##FIRSTY=1450
##MAXX=115
##MINX=27
##MAXY=9999
##MINY=100
##NPOINTS=29
##PEAK TABLE=(XY..XY)
27,1450 29,2000 30,1500 31,170
39,550 40,170 41,1210 42,9999
43,920 44,3850 45,340 46,100
53,130 54,260 55,470 56,840
57,420 58,250 68,840 69,330
70,2630 71,710 85,660 86,180
99,5000 100,400 113,270 114,5000
115,530
##END=
