##TITLE=3-Benzenesulphonylthiophene
##JCAMP-DX=4.24
##DATA TYPE=MASS SPECTRUM
##ORIGIN=NIST Mass Spectrometry Data Center, 1994
##OWNER=NIST Mass Spectrometry Data Center
Collection (C) 2014 copyright by the U.S. Secretary of Commerce
on behalf of the United States of America. All rights reserved.
##CAS REGISTRY NO=16718-05-1
##$NIST MASS SPEC NO=136963
##MOLFORM=C10 H8 O2 S2
##MW=224
##$NIST SOURCE=MSDC
##XUNITS=M/Z
##YUNITS=RELATIVE INTENSITY
##XFACTOR=1
##YFACTOR=1
##FIRSTX=17
##LASTX=227
##FIRSTY=52
##MAXX=227
##MINX=17
##MAXY=9999
##MINY=21
##NPOINTS=103
##PEAK TABLE=(XY..XY)
17,52 18,86 25,24 26,38
27,307 33,21 37,294 38,926
39,6207 40,228 45,2421 46,82
47,131 48,95 49,21 50,2223
51,6241 52,358 53,243 54,30
55,179 56,48 57,488 58,281
61,61 62,133 63,312 64,125
65,640 66,88 67,118 68,42
69,489 70,99 71,486 72,49
73,221 74,221 75,358 76,349
77,5135 78,448 79,169 80,480
81,715 82,755 83,797 84,170
85,82 86,82 87,1002 88,99
89,353 90,42 91,84 93,72
94,27 95,40 96,27 97,1314
98,27 99,1936 100,112 101,114
102,124 103,243 105,41 108,88
109,118 110,32 113,48 114,106
115,1191 116,222 117,36 121,125
125,4545 126,420 127,315 128,200
131,9999 132,600 133,844 134,153
135,59 136,22 137,124 141,78
147,548 148,53 149,59 152,45
153,31 158,86 159,135 160,298
161,42 177,57 178,31 224,5377
225,687 226,526 227,61
##END=
