##TITLE=1-Pentanone, 1-(4-methylphenyl)-
##JCAMP-DX=4.24
##DATA TYPE=MASS SPECTRUM
##ORIGIN=Dr. Jiri Zamecnik, DCIEM, North York, Canada, GP Library
##OWNER=NIST Mass Spectrometry Data Center
Collection (C) 2014 copyright by the U.S. Secretary of Commerce
on behalf of the United States of America. All rights reserved.
##CAS REGISTRY NO=1671-77-8
##$NIST MASS SPEC NO=122467
##MOLFORM=C12 H16 O
##MW=176
##$NIST SOURCE=MSDC
##XUNITS=M/Z
##YUNITS=RELATIVE INTENSITY
##XFACTOR=1
##YFACTOR=1
##FIRSTX=39
##LASTX=177
##FIRSTY=290
##MAXX=177
##MINX=39
##MAXY=9999
##MINY=20
##NPOINTS=34
##PEAK TABLE=(XY..XY)
39,290 41,220 43,30 44,90
50,30 51,80 52,20 53,20
55,130 62,20 63,140 64,40
65,700 66,30 73,30 77,70
89,160 90,130 91,2010 92,240
105,30 115,20 118,30 119,9999
120,460 121,20 131,30 133,20
134,2130 135,220 147,110 161,100
176,340 177,50
##END=
