##TITLE=2-Propanone, diethylhydrazone
##JCAMP-DX=4.24
##DATA TYPE=MASS SPECTRUM
##ORIGIN=ATLAS OF MASS SPECTRA OF ORGANIC COMPOUNDS, V. A. KOPTYUG, ED.
##OWNER=NIST Mass Spectrometry Data Center
Collection (C) 2014 copyright by the U.S. Secretary of Commerce
on behalf of the United States of America. All rights reserved.
##CAS REGISTRY NO=16713-36-3
##$NIST MASS SPEC NO=64513
##MOLFORM=C7 H16 N2
##MW=128
##$NIST SOURCE=MSDC
##XUNITS=M/Z
##YUNITS=RELATIVE INTENSITY
##XFACTOR=1
##YFACTOR=1
##FIRSTX=27
##LASTX=129
##FIRSTY=1470
##MAXX=129
##MINX=27
##MAXY=9999
##MINY=80
##NPOINTS=28
##PEAK TABLE=(XY..XY)
27,1470 28,1470 29,1690 30,440
39,500 40,250 41,1120 42,1890
43,1050 44,990 54,110 55,100
56,7690 57,420 58,1220 70,300
71,270 72,360 85,610 97,80
99,930 100,90 112,100 113,9999
114,1000 127,320 128,3370 129,340
##END=
