##TITLE=2-Cyclohexen-1-ol, 3-methyl-6-(1-methylethyl)-, cis-
##JCAMP-DX=4.24
##DATA TYPE=MASS SPECTRUM
##ORIGIN=N.W. Davies, Centr. Sci. Lab., Univ. Tasmania, Hobart, Australia
##OWNER=NIST Mass Spectrometry Data Center
Collection (C) 2014 copyright by the U.S. Secretary of Commerce
on behalf of the United States of America. All rights reserved.
##CAS REGISTRY NO=16721-38-3
##$NIST MASS SPEC NO=107131
##MOLFORM=C10 H18 O
##MW=154
##$NIST SOURCE=MSDC
##XUNITS=M/Z
##YUNITS=RELATIVE INTENSITY
##XFACTOR=1
##YFACTOR=1
##FIRSTX=27
##LASTX=154
##FIRSTY=1320
##MAXX=154
##MINX=27
##MAXY=9999
##MINY=100
##NPOINTS=52
##PEAK TABLE=(XY..XY)
27,1320 29,1050 31,220 39,1400
41,2720 42,280 43,2750 45,140
51,290 52,110 53,670 54,160
55,1800 56,800 57,330 59,820
65,360 66,130 67,680 68,410
69,1170 70,250 71,1020 77,1020
78,220 79,860 80,190 81,860
82,270 83,2510 84,9999 85,600
91,860 92,420 93,2410 94,510
95,660 96,190 97,480 105,100
107,100 109,150 110,210 111,860
112,530 119,100 121,470 136,450
137,100 139,2290 140,210 154,450
##END=
