##TITLE=2-Cyclohexen-1-ol, 3-methyl-6-(1-methylethyl)-, trans-
##JCAMP-DX=4.24
##DATA TYPE=MASS SPECTRUM
##ORIGIN=N.W. Davies, Centr. Sci. Lab., Univ. Tasmania, Hobart, Australia
##OWNER=NIST Mass Spectrometry Data Center
Collection (C) 2014 copyright by the U.S. Secretary of Commerce
on behalf of the United States of America. All rights reserved.
##CAS REGISTRY NO=16721-39-4
##$NIST MASS SPEC NO=107132
##MOLFORM=C10 H18 O
##MW=154
##$NIST SOURCE=MSDC
##XUNITS=M/Z
##YUNITS=RELATIVE INTENSITY
##XFACTOR=1
##YFACTOR=1
##FIRSTX=27
##LASTX=154
##FIRSTY=1370
##MAXX=154
##MINX=27
##MAXY=9999
##MINY=110
##NPOINTS=49
##PEAK TABLE=(XY..XY)
27,1370 29,1020 31,160 39,1450
41,2730 42,250 43,2510 51,310
52,150 53,660 54,130 55,1790
56,860 57,390 59,300 65,350
66,110 67,560 68,130 69,970
70,190 71,870 77,1210 78,250
79,830 80,170 81,610 82,260
83,2630 84,9999 85,620 91,960
92,450 93,2490 94,390 95,460
96,110 97,470 99,110 105,190
107,130 109,130 111,940 112,500
121,590 136,510 139,2430 140,230
154,620
##END=
