##TITLE=2,3-Dimethyl-1-hexene
##JCAMP-DX=4.24
##DATA TYPE=MASS SPECTRUM
##ORIGIN=Japan AIST/NIMC Database- Spectrum MS-NW-4648
##OWNER=NIST Mass Spectrometry Data Center
Collection (C) 2014 copyright by the U.S. Secretary of Commerce
on behalf of the United States of America. All rights reserved.
##CAS REGISTRY NO=16746-86-4
##$NIST MASS SPEC NO=231889
##MOLFORM=C8 H16
##MW=112
##$NIST SOURCE=MSDC
##XUNITS=M/Z
##YUNITS=RELATIVE INTENSITY
##XFACTOR=1
##YFACTOR=1
##FIRSTX=15
##LASTX=113
##FIRSTY=80
##MAXX=113
##MINX=15
##MAXY=9999
##MINY=10
##NPOINTS=58
##PEAK TABLE=(XY..XY)
15,80 17,10 18,80 26,50
27,1059 28,50 29,799 30,20
32,10 37,20 38,80 39,1389
40,269 41,6309 42,1179 43,1099
44,40 45,10 50,60 51,139
52,70 53,589 54,189 55,6249
56,819 57,229 58,40 62,20
63,30 65,109 66,50 67,589
68,349 69,6299 70,9999 71,589
72,20 77,60 78,10 79,70
80,10 81,119 82,40 83,1209
84,209 85,50 86,10 91,10
93,10 95,50 96,10 97,279
98,30 99,30 110,10 111,10
112,119 113,20
##END=
