##TITLE=Pentane, 2,3,3,4-tetramethyl-
##JCAMP-DX=4.24
##DATA TYPE=MASS SPECTRUM
##OWNER=NIST Mass Spectrometry Data Center
Collection (C) 2014 copyright by the U.S. Secretary of Commerce
on behalf of the United States of America. All rights reserved.
##CAS REGISTRY NO=16747-38-9
##$NIST MASS SPEC NO=2633
##MOLFORM=C9 H20
##MW=128
##$NIST SOURCE=MSDC
##XUNITS=M/Z
##YUNITS=RELATIVE INTENSITY
##XFACTOR=1
##YFACTOR=1
##FIRSTX=26
##LASTX=128
##FIRSTY=30
##MAXX=128
##MINX=26
##MAXY=9999
##MINY=10
##NPOINTS=55
##PEAK TABLE=(XY..XY)
26,30 27,1421 28,120 29,831
30,20 37,10 38,20 39,781
40,130 41,2953 42,320 43,9999
44,330 45,10 46,10 50,10
51,40 52,20 53,220 54,40
55,661 56,200 57,3253 58,140
59,10 63,10 64,10 65,20
66,10 67,80 68,20 69,1531
70,160 71,290 72,20 77,10
78,10 79,10 80,10 81,10
82,10 83,30 84,2772 85,5955
86,370 87,10 91,10 95,10
96,10 97,40 98,10 112,10
113,90 114,10 128,10
##END=
