##TITLE=1-Hexene, 3,4-dimethyl-
##JCAMP-DX=4.24
##DATA TYPE=MASS SPECTRUM
##ORIGIN=NIST Mass Spectrometry Data Center, 1990.
##OWNER=NIST Mass Spectrometry Data Center
Collection (C) 2014 copyright by the U.S. Secretary of Commerce
on behalf of the United States of America. All rights reserved.
##CAS REGISTRY NO=16745-94-1
##$NIST MASS SPEC NO=113920
##MOLFORM=C8 H16
##MW=112
##$NIST SOURCE=MSDC
##XUNITS=M/Z
##YUNITS=RELATIVE INTENSITY
##XFACTOR=1
##YFACTOR=1
##FIRSTX=15
##LASTX=97
##FIRSTY=136
##MAXX=97
##MINX=15
##MAXY=9999
##MINY=83
##NPOINTS=34
##PEAK TABLE=(XY..XY)
15,136 26,286 27,2332 28,853
29,2969 30,83 39,3265 41,7942
42,600 43,544 50,310 51,601
52,260 53,1336 54,860 55,5676
56,9999 57,5232 58,220 63,104
65,275 66,118 67,898 68,289
69,1307 70,1012 71,103 77,188
79,229 81,160 83,1272 84,3678
85,255 97,91
##END=
