##TITLE=2,4-Dimethyl-1-hexene
##JCAMP-DX=4.24
##DATA TYPE=MASS SPECTRUM
##ORIGIN=NIST Mass Spectrometry Data Center, 1990.
##OWNER=NIST Mass Spectrometry Data Center
Collection (C) 2014 copyright by the U.S. Secretary of Commerce
on behalf of the United States of America. All rights reserved.
##CAS REGISTRY NO=16746-87-5
##$NIST MASS SPEC NO=113443
##MOLFORM=C8 H16
##MW=112
##$NIST SOURCE=MSDC
##XUNITS=M/Z
##YUNITS=RELATIVE INTENSITY
##XFACTOR=1
##YFACTOR=1
##FIRSTX=15
##LASTX=113
##FIRSTY=94
##MAXX=113
##MINX=15
##MAXY=9999
##MINY=60
##NPOINTS=37
##PEAK TABLE=(XY..XY)
15,94 26,155 27,1416 28,548
29,2133 39,2922 40,764 41,6552
42,524 43,356 44,60 50,197
51,425 52,184 53,970 54,60
55,3780 56,9999 57,7010 58,317
63,97 65,221 66,100 67,861
68,283 69,566 70,1236 71,87
77,189 79,170 81,126 82,81
83,774 84,120 97,135 112,1042
113,105
##END=
