##TITLE=Hexane, 2,2,4-trimethyl-
##JCAMP-DX=4.24
##DATA TYPE=MASS SPECTRUM
##ORIGIN=Japan AIST/NIMC Database- Spectrum MS-NW-4572
##OWNER=NIST Mass Spectrometry Data Center
Collection (C) 2014 copyright by the U.S. Secretary of Commerce
on behalf of the United States of America. All rights reserved.
##CAS REGISTRY NO=16747-26-5
##$NIST MASS SPEC NO=233018
##MOLFORM=C9 H20
##MW=128
##$NIST SOURCE=MSDC
##XUNITS=M/Z
##YUNITS=RELATIVE INTENSITY
##XFACTOR=1
##YFACTOR=1
##FIRSTX=14
##LASTX=114
##FIRSTY=10
##MAXX=114
##MINX=14
##MAXY=9999
##MINY=10
##NPOINTS=45
##PEAK TABLE=(XY..XY)
14,10 15,30 26,30 27,399
28,70 29,1079 30,30 38,20
39,379 40,70 41,1849 42,159
43,1189 44,70 50,20 51,40
52,10 53,99 54,30 55,409
56,3359 57,9999 58,479 65,20
67,50 68,20 69,139 70,409
71,1649 72,99 77,10 79,10
81,20 82,10 83,90 84,20
85,30 91,10 95,10 97,30
98,10 99,20 112,10 113,329
114,30
##END=
