##TITLE=Cyclohexane, 1,4-dichloro-, cis-
##JCAMP-DX=4.24
##DATA TYPE=MASS SPECTRUM
##ORIGIN=A.CAMBON LAB. OF STRUCTURAL CHEM., UNIV. OF NICE, NICE, FRANCE
##OWNER=NIST Mass Spectrometry Data Center
Collection (C) 2014 copyright by the U.S. Secretary of Commerce
on behalf of the United States of America. All rights reserved.
##CAS REGISTRY NO=16749-11-4
##$NIST MASS SPEC NO=4931
##MOLFORM=C6 H10 Cl2
##MW=152
##$NIST SOURCE=MSDC
##XUNITS=M/Z
##YUNITS=RELATIVE INTENSITY
##XFACTOR=1
##YFACTOR=1
##FIRSTX=28
##LASTX=154
##FIRSTY=400
##MAXX=154
##MINX=28
##MAXY=9999
##MINY=100
##NPOINTS=19
##PEAK TABLE=(XY..XY)
28,400 29,400 39,1100 41,1300
51,300 53,500 54,600 55,600
75,500 79,800 80,2800 81,9999
82,600 116,1000 117,600 118,300
119,100 152,200 154,100
##END=
