##TITLE=1-Hexene, 4-ethyl-
##JCAMP-DX=4.24
##DATA TYPE=MASS SPECTRUM
##ORIGIN=NIST Mass Spectrometry Data Center, 1990.
##OWNER=NIST Mass Spectrometry Data Center
Collection (C) 2014 copyright by the U.S. Secretary of Commerce
on behalf of the United States of America. All rights reserved.
##CAS REGISTRY NO=16746-85-3
##$NIST MASS SPEC NO=113459
##MOLFORM=C8 H16
##MW=112
##$NIST SOURCE=MSDC
##XUNITS=M/Z
##YUNITS=RELATIVE INTENSITY
##XFACTOR=1
##YFACTOR=1
##FIRSTX=26
##LASTX=112
##FIRSTY=319
##MAXX=112
##MINX=26
##MAXY=9999
##MINY=142
##NPOINTS=35
##PEAK TABLE=(XY..XY)
26,319 27,2111 28,1054 29,2043
31,586 32,170 39,3626 40,619
41,5374 42,1527 43,9999 44,558
45,474 50,260 51,505 52,236
53,1163 54,771 55,5925 56,730
59,705 65,312 66,142 67,950
68,484 69,1293 70,8996 71,5447
72,265 74,601 77,219 79,217
83,701 84,705 112,360
##END=
