##TITLE=Hexane, 2,4,4-trimethyl-
##JCAMP-DX=4.24
##DATA TYPE=MASS SPECTRUM
##OWNER=NIST Mass Spectrometry Data Center
Collection (C) 2014 copyright by the U.S. Secretary of Commerce
on behalf of the United States of America. All rights reserved.
##CAS REGISTRY NO=16747-30-1
##$NIST MASS SPEC NO=2636
##MOLFORM=C9 H20
##MW=128
##$NIST SOURCE=MSDC
##XUNITS=M/Z
##YUNITS=RELATIVE INTENSITY
##XFACTOR=1
##YFACTOR=1
##FIRSTX=26
##LASTX=128
##FIRSTY=70
##MAXX=128
##MINX=26
##MAXY=9999
##MINY=10
##NPOINTS=58
##PEAK TABLE=(XY..XY)
26,70 27,2252 28,290 29,2512
30,60 38,30 39,1221 40,200
41,3843 42,510 43,9799 44,320
45,10 46,10 47,10 48,10
50,20 51,50 52,30 53,300
54,70 55,1651 56,701 57,9999
58,440 59,10 63,10 64,10
65,30 66,20 67,90 68,20
69,250 70,3203 71,8508 72,460
73,10 77,20 78,10 79,20
80,10 81,20 82,10 83,270
84,40 85,70 86,10 91,10
95,10 97,20 98,450 99,1812
100,130 101,10 112,10 113,350
114,30 128,10
##END=
