##TITLE=4-Aminoheptane
##JCAMP-DX=4.24
##DATA TYPE=MASS SPECTRUM
##ORIGIN=NIST Mass Spectrometry Data Center, 1994
##OWNER=NIST Mass Spectrometry Data Center
Collection (C) 2014 copyright by the U.S. Secretary of Commerce
on behalf of the United States of America. All rights reserved.
##CAS REGISTRY NO=16751-59-0
##$NIST MASS SPEC NO=133446
##MOLFORM=C7 H17 N
##MW=115
##$NIST SOURCE=MSDC
##XUNITS=M/Z
##YUNITS=RELATIVE INTENSITY
##XFACTOR=1
##YFACTOR=1
##FIRSTX=15
##LASTX=116
##FIRSTY=136
##MAXX=116
##MINX=15
##MAXY=9999
##MINY=3
##NPOINTS=44
##PEAK TABLE=(XY..XY)
15,136 17,14 18,217 27,740
28,435 29,539 30,5114 31,81
32,3 37,14 38,44 39,431
40,83 41,670 42,544 43,686
44,356 45,14 50,11 51,30
52,23 53,73 54,100 55,540
56,435 57,149 58,43 65,12
66,12 67,20 68,32 69,67
70,109 71,12 72,9999 73,494
74,12 77,7 84,10 86,10
98,14 114,87 115,28 116,14
##END=
