##TITLE=Diethynyl-diphenyl-silane
##JCAMP-DX=4.24
##DATA TYPE=MASS SPECTRUM
##ORIGIN=A.A.Kutin, Moscow, Russia
##OWNER=NIST Mass Spectrometry Data Center
Collection (C) 2014 copyright by the U.S. Secretary of Commerce
on behalf of the United States of America. All rights reserved.
##CAS REGISTRY NO=1675-57-6
##$NIST MASS SPEC NO=275237
##MOLFORM=C16 H12 Si
##MW=232
##$NIST SOURCE=MSDC
##XUNITS=M/Z
##YUNITS=RELATIVE INTENSITY
##XFACTOR=1
##YFACTOR=1
##FIRSTX=39
##LASTX=234
##FIRSTY=318
##MAXX=234
##MINX=39
##MAXY=9999
##MINY=171
##NPOINTS=48
##PEAK TABLE=(XY..XY)
39,318 40,171 44,252 50,705
51,1684 52,263 53,5363 54,498
55,257 63,192 74,252 75,230
76,336 77,1783 78,579 79,890
101,289 102,629 103,2985 104,874
105,1555 106,198 128,271 129,5528
130,2248 131,438 152,291 153,1209
154,2940 155,3788 156,636 178,1601
179,552 180,294 181,341 202,1057
203,389 204,479 205,1126 206,554
207,182 228,187 229,663 230,1948
231,9999 232,7652 233,1763 234,375
##END=
