##TITLE=Oxirane, 2,2'-[(1-methylethylidene)bis(4,1-phenyleneoxymethylene)]bis-
##JCAMP-DX=4.24
##DATA TYPE=MASS SPECTRUM
##ORIGIN=NIST Mass Spectrometry Data Center, 1998.
##OWNER=NIST Mass Spectrometry Data Center
Collection (C) 2014 copyright by the U.S. Secretary of Commerce
on behalf of the United States of America. All rights reserved.
##CAS REGISTRY NO=1675-54-3
##$NIST MASS SPEC NO=291488
##MOLFORM=C21 H24 O4
##MW=340
##$NIST SOURCE=MSDC
##XUNITS=M/Z
##YUNITS=RELATIVE INTENSITY
##XFACTOR=1
##YFACTOR=1
##FIRSTX=15
##LASTX=342
##FIRSTY=20
##MAXX=342
##MINX=15
##MAXY=9999
##MINY=10
##NPOINTS=185
##PEAK TABLE=(XY..XY)
15,20 26,50 27,600 29,1930
30,50 31,1280 32,10 38,20
39,180 41,300 42,30 43,130
50,30 51,90 52,30 53,70
54,10 55,230 56,50 57,1700
58,60 62,10 63,100 64,40
65,220 66,30 67,20 69,20
74,10 75,30 76,70 77,340
78,90 79,120 80,10 81,10
82,10 83,10 87,10 88,20
89,110 90,40 91,620 92,60
93,30 94,50 95,110 96,10
101,30 102,150 103,170 104,30
105,140 106,40 107,490 108,60
113,20 114,10 115,410 116,80
117,90 118,70 119,960 120,150
121,70 126,30 127,150 128,280
129,140 130,20 131,110 132,30
133,110 134,60 135,460 136,40
139,170 140,50 141,210 142,50
143,30 144,30 145,110 146,20
147,30 149,10 150,20 151,120
152,540 153,350 154,140 155,180
156,30 157,100 158,50 159,30
161,100 162,10 163,40 164,40
165,710 166,300 167,300 168,150
169,400 170,90 171,50 173,10
175,160 176,60 177,90 178,120
179,150 180,50 181,270 182,180
183,280 184,110 185,30 189,10
190,20 191,360 192,80 193,40
194,90 195,220 196,100 197,240
198,100 199,40 205,10 206,10
207,50 208,40 209,100 210,110
211,140 212,140 213,590 214,90
215,10 219,10 220,10 221,20
222,20 223,40 224,30 225,80
226,20 227,20 235,20 236,20
237,20 238,30 239,60 240,20
251,10 252,80 253,50 254,20
255,20 267,40 268,110 269,800
270,150 271,10 281,10 283,50
284,50 285,20 295,120 296,20
309,390 310,90 311,80 312,20
323,10 324,80 325,9999 326,2170
327,300 328,30 340,1740 341,390
342,50
##END=
