##TITLE=Methomyl
##JCAMP-DX=4.24
##DATA TYPE=MASS SPECTRUM
##ORIGIN=AAFS Toxicology Section MS DB Committee, U. Alberta, Canada
##OWNER=NIST Mass Spectrometry Data Center
Collection (C) 2014 copyright by the U.S. Secretary of Commerce
on behalf of the United States of America. All rights reserved.
##CAS REGISTRY NO=16752-77-5
##$NIST MASS SPEC NO=246000
##MOLFORM=C5 H10 N2 O2 S
##MW=162
##$NIST SOURCE=MSDC
##XUNITS=M/Z
##YUNITS=RELATIVE INTENSITY
##XFACTOR=1
##YFACTOR=1
##FIRSTX=40
##LASTX=163
##FIRSTY=390
##MAXX=163
##MINX=40
##MAXY=9999
##MINY=30
##NPOINTS=59
##PEAK TABLE=(XY..XY)
40,390 41,350 42,1681 43,480
44,770 45,1311 46,710 47,1401
48,320 49,120 54,50 55,160
56,310 57,290 58,8677 59,1761
60,170 61,240 62,80 63,50
64,80 67,40 68,40 69,110
70,100 71,600 72,340 73,780
74,450 75,190 76,30 77,30
79,130 80,250 81,80 82,70
83,260 84,40 85,190 86,110
88,8307 89,390 90,240 91,40
94,70 95,170 97,40 100,30
105,9999 106,550 107,510 111,30
114,70 115,330 116,150 119,40
144,90 162,290 163,40
##END=
