##TITLE=1-Propene, 3,3',3''-[methylidynetris(oxy)]tris-
##JCAMP-DX=4.24
##DATA TYPE=MASS SPECTRUM
##ORIGIN=CARL DJERASSI DEPT OF CHEM STANFORD UNIV STANFORD CALIF 94305
##OWNER=NIST Mass Spectrometry Data Center
Collection (C) 2014 copyright by the U.S. Secretary of Commerce
on behalf of the United States of America. All rights reserved.
##CAS REGISTRY NO=16754-50-0
##$NIST MASS SPEC NO=47173
##MOLFORM=C10 H16 O3
##MW=184
##$NIST SOURCE=MSDC
##XUNITS=M/Z
##YUNITS=RELATIVE INTENSITY
##XFACTOR=1
##YFACTOR=1
##FIRSTX=41
##LASTX=184
##FIRSTY=9999
##MAXX=184
##MINX=41
##MAXY=9999
##MINY=100
##NPOINTS=34
##PEAK TABLE=(XY..XY)
41,9999 42,900 43,600 44,500
45,100 47,100 51,100 53,200
54,500 55,900 56,400 57,4200
58,900 59,100 65,100 66,100
67,500 68,100 69,300 70,100
71,100 77,100 79,300 80,100
81,3300 82,300 83,100 85,100
87,100 126,100 127,2500 128,200
129,100 184,200
##END=
