##TITLE=1,2-Dimethoxy-4-chloro-benzene
##JCAMP-DX=4.24
##DATA TYPE=MASS SPECTRUM
##ORIGIN=NIST Mass Spectrometry Data Center
##OWNER=NIST Mass Spectrometry Data Center
Collection (C) 2014 copyright by the U.S. Secretary of Commerce
on behalf of the United States of America. All rights reserved.
##CAS REGISTRY NO=16766-27-1
##$NIST MASS SPEC NO=352855
##MOLFORM=C8 H9 Cl O2
##MW=172
##$NIST SOURCE=MSDC
##XUNITS=M/Z
##YUNITS=RELATIVE INTENSITY
##XFACTOR=1
##YFACTOR=1
##FIRSTX=14
##LASTX=176
##FIRSTY=50
##MAXX=176
##MINX=14
##MAXY=9999
##MINY=10
##NPOINTS=122
##PEAK TABLE=(XY..XY)
14,50 15,571 16,10 18,10
25,10 26,60 27,40 28,90
29,260 30,50 31,180 32,10
35,20 36,40 37,160 38,200
39,330 40,30 41,60 42,20
43,120 44,30 45,20 47,30
48,20 49,190 50,991 51,1832
52,110 53,340 54,30 55,130
56,10 57,10 59,10 60,220
61,340 62,731 63,1822 64,200
65,3393 66,410 67,30 68,10
69,30 71,40 72,130 73,480
74,410 75,1041 76,190 77,651
78,150 79,2863 80,160 81,10
83,10 84,80 85,220 86,771
87,190 88,310 89,130 90,50
91,80 92,150 93,3833 94,2652
95,180 96,30 97,100 98,390
99,1331 100,220 101,601 102,40
103,60 105,10 106,10 107,220
108,50 109,30 110,70 111,1742
112,170 113,791 114,831 115,160
116,260 117,30 121,80 122,70
123,10 125,10 126,601 127,330
128,280 129,3453 130,240 131,1101
132,70 137,30 138,20 139,30
140,10 141,90 142,40 143,50
144,10 145,10 155,290 156,340
157,6796 158,661 159,2282 160,180
161,20 172,9999 173,991 174,3583
175,310 176,30
##END=
