##TITLE=Benzene, 1,2,3-trichloro-4,5-dimethoxy-
##JCAMP-DX=4.24
##DATA TYPE=MASS SPECTRUM
##ORIGIN=PET06 P.H. Peterman, U.S. Fish Wildlife Serv., Columbia, Mo., USA
##OWNER=NIST Mass Spectrometry Data Center
Collection (C) 2014 copyright by the U.S. Secretary of Commerce
on behalf of the United States of America. All rights reserved.
##CAS REGISTRY NO=16766-29-3
##$NIST MASS SPEC NO=115341
##MOLFORM=C8 H7 Cl3 O2
##MW=240
##$NIST SOURCE=MSDC
##XUNITS=M/Z
##YUNITS=RELATIVE INTENSITY
##XFACTOR=1
##YFACTOR=1
##FIRSTX=35
##LASTX=246
##FIRSTY=600
##MAXX=246
##MINX=35
##MAXY=9999
##MINY=100
##NPOINTS=156
##PEAK TABLE=(XY..XY)
35,600 36,1500 37,650 38,1000
41,500 43,200 44,1000 45,200
47,600 48,600 49,2900 50,600
51,1000 52,200 53,1000 54,200
55,250 56,200 57,200 59,200
60,1600 61,4800 62,1500 63,4300
64,800 65,1500 67,200 68,100
71,1200 72,1200 73,2700 74,2900
75,1700 76,300 77,5600 78,1100
79,250 81,300 82,200 83,1600
84,9999 85,1700 86,3200 87,2900
88,300 89,900 90,100 91,400
94,600 95,1100 96,4700 97,2800
98,1900 99,2000 100,200 101,600
104,500 106,500 107,1600 108,2000
109,2700 110,900 111,2400 112,950
113,800 114,500 115,650 118,700
119,5000 120,800 121,3600 122,300
123,700 124,300 125,200 126,200
127,800 128,400 130,250 131,4300
132,800 133,8200 134,1700 135,4400
136,850 137,750 138,200 140,200
141,400 142,300 143,1000 144,700
145,1300 146,600 147,7000 148,750
149,3900 150,200 151,750 154,1800
155,300 156,1700 157,200 158,500
159,200 160,800 161,3200 162,7900
163,2600 164,4500 165,700 166,1100
167,1300 168,500 169,1400 170,200
171,600 175,750 177,500 179,600
180,100 181,600 182,2800 183,300
184,2700 185,200 186,1000 188,200
189,200 190,200 191,200 194,500
196,400 197,3400 198,400 199,3200
200,200 201,1100 202,100 203,150
223,300 224,400 225,9600 226,1200
227,9100 228,1000 229,3000 230,400
231,400 240,8000 241,800 242,7800
243,750 244,2700 245,400 246,300
##END=
