##TITLE=2-Methoxy-4-chloro-phenol
##JCAMP-DX=4.24
##DATA TYPE=MASS SPECTRUM
##ORIGIN=NIST Mass Spectrometry Data Center
##OWNER=NIST Mass Spectrometry Data Center
Collection (C) 2014 copyright by the U.S. Secretary of Commerce
on behalf of the United States of America. All rights reserved.
##CAS REGISTRY NO=16766-30-6
##$NIST MASS SPEC NO=352856
##MOLFORM=C7 H7 Cl O2
##MW=158
##$NIST SOURCE=MSDC
##XUNITS=M/Z
##YUNITS=RELATIVE INTENSITY
##XFACTOR=1
##YFACTOR=1
##FIRSTX=14
##LASTX=162
##FIRSTY=20
##MAXX=162
##MINX=14
##MAXY=9999
##MINY=10
##NPOINTS=107
##PEAK TABLE=(XY..XY)
14,20 15,170 25,10 26,70
27,60 28,40 29,210 30,30
31,80 35,20 36,40 37,170
38,230 39,260 41,80 42,40
43,110 44,20 45,30 47,40
48,30 49,260 50,981 51,2893
52,771 53,621 54,90 55,160
56,10 57,10 59,10 60,210
61,420 62,571 63,1131 64,130
65,500 66,120 67,60 68,10
69,30 71,30 72,100 73,510
74,170 75,250 76,20 77,220
78,50 79,1061 80,200 81,20
84,40 85,80 86,230 87,701
88,130 89,270 90,50 91,50
92,20 93,180 94,160 95,70
96,20 97,50 98,80 99,440
100,70 101,150 102,20 103,10
107,20 108,190 109,30 110,20
111,90 112,20 113,90 114,150
115,6666 116,420 117,2192 118,120
119,10 121,10 123,70 124,10
126,40 127,60 128,50 129,100
130,20 131,30 141,10 143,9999
144,711 145,3303 146,220 147,20
155,30 156,10 158,9088 159,761
160,2973 161,220 162,20
##END=
