##TITLE=4-Methoxybenzoyl isothiocyanate
##JCAMP-DX=4.24
##DATA TYPE=MASS SPECTRUM
##ORIGIN=NIST Mass Spectrometry Data Center, 1994
##OWNER=NIST Mass Spectrometry Data Center
Collection (C) 2014 copyright by the U.S. Secretary of Commerce
on behalf of the United States of America. All rights reserved.
##CAS REGISTRY NO=16778-84-0
##$NIST MASS SPEC NO=134696
##MOLFORM=C9 H7 N O2 S
##MW=193
##$NIST SOURCE=MSDC
##XUNITS=M/Z
##YUNITS=RELATIVE INTENSITY
##XFACTOR=1
##YFACTOR=1
##FIRSTX=4
##LASTX=194
##FIRSTY=49
##MAXX=194
##MINX=4
##MAXY=9999
##MINY=15
##NPOINTS=71
##PEAK TABLE=(XY..XY)
4,49 14,45 15,420 26,83
27,134 28,124 29,145 30,41
31,63 32,204 36,22 37,261
38,777 39,263 42,18 43,19
44,79 45,25 49,95 50,1008
51,490 52,95 53,277 54,36
58,555 59,87 60,47 61,177
62,545 63,1905 64,2160 65,160
66,136 67,24 69,25 70,35
72,23 73,98 74,430 75,322
76,643 77,3687 78,294 79,177
80,27 82,45 86,86 88,15
90,66 92,2383 93,185 94,30
102,15 103,40 104,108 105,47
106,15 107,1367 108,105 119,24
120,61 121,18 122,24 133,61
135,9999 136,814 137,81 150,15
161,33 193,179 194,25
##END=
