##TITLE=Cyclohexane, 1,2,3-trimethyl-
##JCAMP-DX=4.24
##DATA TYPE=MASS SPECTRUM
##ORIGIN=Japan AIST/NIMC Database- Spectrum MS-NW-3651
##OWNER=NIST Mass Spectrometry Data Center
Collection (C) 2014 copyright by the U.S. Secretary of Commerce
on behalf of the United States of America. All rights reserved.
##CAS REGISTRY NO=1678-97-3
##$NIST MASS SPEC NO=232154
##MOLFORM=C9 H18
##MW=126
##$NIST SOURCE=MSDC
##XUNITS=M/Z
##YUNITS=RELATIVE INTENSITY
##XFACTOR=1
##YFACTOR=1
##FIRSTX=15
##LASTX=128
##FIRSTY=139
##MAXX=128
##MINX=15
##MAXY=9999
##MINY=10
##NPOINTS=76
##PEAK TABLE=(XY..XY)
15,139 26,80 27,1729 28,119
29,1829 30,40 31,10 36,10
37,10 38,70 39,1779 40,309
41,5389 42,1859 43,2489 44,80
45,50 46,10 50,70 51,219
52,99 53,689 54,319 55,9999
56,4729 57,1419 58,179 59,30
61,10 62,20 63,50 64,10
65,139 66,60 67,929 68,389
69,9069 70,8249 71,2029 72,209
73,20 74,10 75,10 77,149
78,40 79,119 80,30 81,269
82,729 83,3339 84,1319 85,219
86,20 91,80 92,10 93,30
94,10 95,149 96,1139 97,4929
98,1009 99,90 105,10 107,10
109,119 110,40 111,2549 112,259
113,30 122,10 123,10 124,50
125,80 126,2669 127,289 128,20
##END=
