##TITLE=Cyclohexane, 1-methyl-4-(1-methylethyl)-, trans-
##JCAMP-DX=4.24
##DATA TYPE=MASS SPECTRUM
##ORIGIN=Japan AIST/NIMC Database- Spectrum MS-NW-3914
##OWNER=NIST Mass Spectrometry Data Center
Collection (C) 2014 copyright by the U.S. Secretary of Commerce
on behalf of the United States of America. All rights reserved.
##CAS REGISTRY NO=1678-82-6
##$NIST MASS SPEC NO=231028
##MOLFORM=C10 H20
##MW=140
##$NIST SOURCE=MSDC
##XUNITS=M/Z
##YUNITS=RELATIVE INTENSITY
##XFACTOR=1
##YFACTOR=1
##FIRSTX=15
##LASTX=141
##FIRSTY=40
##MAXX=141
##MINX=15
##MAXY=9999
##MINY=10
##NPOINTS=58
##PEAK TABLE=(XY..XY)
15,40 18,10 26,30 27,719
28,70 29,709 30,10 32,10
38,20 39,719 40,119 41,1929
42,319 43,1089 44,30 50,20
51,80 52,40 53,319 54,419
55,9999 56,749 57,339 58,20
59,10 63,20 65,70 66,60
67,549 68,369 69,1709 70,259
71,50 77,80 78,20 79,99
80,20 81,1849 82,209 83,649
84,80 85,10 91,30 93,20
94,10 95,129 96,4849 97,8969
98,839 99,30 109,10 111,10
112,10 125,80 126,10 139,10
140,889 141,109
##END=
