##TITLE=Cyclohexane, ethyl-
##JCAMP-DX=4.24
##DATA TYPE=MASS SPECTRUM
##ORIGIN=NIST Mass Spectrometry Data Center, 1990.
##OWNER=NIST Mass Spectrometry Data Center
Collection (C) 2014 copyright by the U.S. Secretary of Commerce
on behalf of the United States of America. All rights reserved.
##CAS REGISTRY NO=1678-91-7
##$NIST MASS SPEC NO=113476
##MOLFORM=C8 H16
##MW=112
##$NIST SOURCE=MSDC
##XUNITS=M/Z
##YUNITS=RELATIVE INTENSITY
##XFACTOR=1
##YFACTOR=1
##FIRSTX=15
##LASTX=113
##FIRSTY=77
##MAXX=113
##MINX=15
##MAXY=9999
##MINY=58
##NPOINTS=33
##PEAK TABLE=(XY..XY)
15,77 26,146 27,1206 28,247
29,1059 39,2065 40,458 41,4089
42,971 43,530 44,87 50,135
51,292 52,146 53,781 54,989
55,8947 56,1152 57,143 63,68
65,193 67,1676 68,335 69,924
70,344 77,194 78,58 79,198
82,5600 83,9999 84,729 112,2760
113,248
##END=
