##TITLE=2-Benzyloxy-6-methoxybenzonitrile
##JCAMP-DX=4.24
##DATA TYPE=MASS SPECTRUM
##ORIGIN=NIST Mass Spectrometry Data Center, 1994
##OWNER=NIST Mass Spectrometry Data Center
Collection (C) 2014 copyright by the U.S. Secretary of Commerce
on behalf of the United States of America. All rights reserved.
##CAS REGISTRY NO=167832-66-8
##$NIST MASS SPEC NO=136786
##MOLFORM=C15 H13 N O2
##MW=239
##$NIST SOURCE=MSDC
##XUNITS=M/Z
##YUNITS=RELATIVE INTENSITY
##XFACTOR=1
##YFACTOR=1
##FIRSTX=13
##LASTX=241
##FIRSTY=6
##MAXX=241
##MINX=13
##MAXY=9999
##MINY=6
##NPOINTS=77
##PEAK TABLE=(XY..XY)
13,6 14,29 15,272 16,6
17,9 18,12 26,96 27,107
28,55 29,73 30,8 31,10
37,57 38,230 39,1067 40,73
41,230 42,51 43,12 45,7
50,275 51,497 52,125 53,66
54,32 55,17 61,57 62,268
63,529 64,202 65,1835 66,204
67,17 68,9 74,30 75,70
76,139 77,371 78,58 79,49
80,10 81,10 82,7 86,13
87,35 88,85 89,364 90,7
91,9999 92,823 93,40 94,10
102,11 103,7 104,17 105,93
106,30 115,11 117,64 118,10
120,141 121,13 128,9 129,8
133,25 139,10 140,10 148,10
149,6 151,8 152,8 166,12
167,11 195,8 239,730 240,115
241,14
##END=
