##TITLE=3-Ethyl-3-hexene
##JCAMP-DX=4.24
##DATA TYPE=MASS SPECTRUM
##ORIGIN=NIST Mass Spectrometry Data Center, 1990.
##OWNER=NIST Mass Spectrometry Data Center
Collection (C) 2014 copyright by the U.S. Secretary of Commerce
on behalf of the United States of America. All rights reserved.
##CAS REGISTRY NO=16789-51-8
##$NIST MASS SPEC NO=113457
##MOLFORM=C8 H16
##MW=112
##$NIST SOURCE=MSDC
##XUNITS=M/Z
##YUNITS=RELATIVE INTENSITY
##XFACTOR=1
##YFACTOR=1
##FIRSTX=15
##LASTX=113
##FIRSTY=118
##MAXX=113
##MINX=15
##MAXY=9999
##MINY=64
##NPOINTS=38
##PEAK TABLE=(XY..XY)
15,118 26,97 27,774 28,310
29,706 39,1609 40,309 41,2636
42,446 43,398 44,66 50,213
51,424 52,195 53,885 54,66
55,9999 56,691 57,83 62,66
63,130 65,366 66,145 67,955
68,231 69,1039 70,695 77,260
78,67 79,330 80,64 81,255
82,64 83,4657 84,712 97,178
112,2015 113,184
##END=
