##TITLE=4-Methylbenzoyl isothiocyanate
##JCAMP-DX=4.24
##DATA TYPE=MASS SPECTRUM
##ORIGIN=NIST Mass Spectrometry Data Center, 1994
##OWNER=NIST Mass Spectrometry Data Center
Collection (C) 2014 copyright by the U.S. Secretary of Commerce
on behalf of the United States of America. All rights reserved.
##CAS REGISTRY NO=16794-68-6
##$NIST MASS SPEC NO=134676
##MOLFORM=C9 H7 N O S
##MW=177
##$NIST SOURCE=MSDC
##XUNITS=M/Z
##YUNITS=RELATIVE INTENSITY
##XFACTOR=1
##YFACTOR=1
##FIRSTX=14
##LASTX=177
##FIRSTY=18
##MAXX=177
##MINX=14
##MAXY=9999
##MINY=12
##NPOINTS=53
##PEAK TABLE=(XY..XY)
14,18 15,28 26,73 27,174
28,111 32,160 37,135 38,338
39,1559 40,121 41,343 42,13
43,64 44,84 45,96 49,60
50,617 51,617 52,158 53,100
58,521 59,120 60,55 61,201
62,523 63,1245 64,381 65,2971
66,173 69,12 70,19 73,43
74,178 75,127 76,95 77,61
85,56 86,162 87,81 88,43
89,882 90,43 91,6518 92,478
93,18 104,15 116,37 117,52
119,9999 120,882 121,60 148,15
177,34
##END=
