##TITLE=10-Hydroxydecanoic acid
##JCAMP-DX=4.24
##DATA TYPE=MASS SPECTRUM
##ORIGIN=Japan AIST/NIMC Database- Spectrum MS-IW-7256
##OWNER=NIST Mass Spectrometry Data Center
Collection (C) 2014 copyright by the U.S. Secretary of Commerce
on behalf of the United States of America. All rights reserved.
##CAS REGISTRY NO=1679-53-4
##$NIST MASS SPEC NO=236302
##MOLFORM=C10 H20 O3
##MW=188
##$NIST SOURCE=MSDC
##XUNITS=M/Z
##YUNITS=RELATIVE INTENSITY
##XFACTOR=1
##YFACTOR=1
##FIRSTX=15
##LASTX=190
##FIRSTY=40
##MAXX=190
##MINX=15
##MAXY=9999
##MINY=10
##NPOINTS=143
##PEAK TABLE=(XY..XY)
15,40 16,10 17,20 18,70
19,10 26,90 27,1159 28,649
29,1599 30,70 31,1419 32,20
37,20 38,50 39,1199 40,269
41,5409 42,1559 43,2539 44,279
45,1019 46,30 47,30 49,10
50,70 51,149 52,80 53,589
54,1309 55,9209 56,2269 57,1829
58,349 59,529 60,4719 61,509
62,50 63,70 64,50 65,199
66,289 67,2339 68,3469 69,8589
70,1869 71,809 72,119 73,5649
74,519 75,70 76,20 77,269
78,219 79,819 80,579 81,2199
82,3329 83,2949 84,6719 85,819
86,179 87,1299 88,239 89,80
90,10 91,639 92,369 93,519
94,749 95,1359 96,2679 97,1929
98,9999 99,1089 100,929 101,1219
102,309 103,99 104,60 105,339
106,209 107,269 108,2679 109,1469
110,2219 111,2159 112,639 113,479
114,839 115,2279 116,249 117,239
118,50 119,339 120,60 121,199
122,209 123,1309 124,1599 125,529
126,639 127,619 128,319 129,1949
130,319 131,99 132,129 133,99
134,1249 135,259 136,119 137,469
138,149 139,80 140,60 141,279
142,179 143,60 144,30 145,30
146,30 147,10 148,30 149,30
150,99 151,149 152,2399 153,399
154,40 155,10 158,3709 159,369
160,30 166,90 167,10 168,20
169,129 170,429 171,249 172,30
188,10 189,90 190,10
##END=
