##TITLE=4-Chlorobenzoyl isothiocyanate
##JCAMP-DX=4.24
##DATA TYPE=MASS SPECTRUM
##ORIGIN=NIST Mass Spectrometry Data Center
##OWNER=NIST Mass Spectrometry Data Center
Collection (C) 2014 copyright by the U.S. Secretary of Commerce
on behalf of the United States of America. All rights reserved.
##CAS REGISTRY NO=16794-67-5
##$NIST MASS SPEC NO=343302
##MOLFORM=C8 H4 Cl N O S
##MW=197
##$NIST SOURCE=MSDC
##XUNITS=M/Z
##YUNITS=RELATIVE INTENSITY
##XFACTOR=1
##YFACTOR=1
##FIRSTX=12
##LASTX=199
##FIRSTY=20
##MAXX=199
##MINX=12
##MAXY=9999
##MINY=10
##NPOINTS=71
##PEAK TABLE=(XY..XY)
12,20 25,30 26,80 27,90
32,260 33,10 34,10 35,40
36,70 37,370 38,420 39,100
44,110 46,10 47,30 48,30
49,280 50,2182 51,681 52,50
53,80 54,20 55,70 56,20
58,611 59,40 60,110 61,250
62,120 63,130 64,30 68,10
70,40 71,10 72,70 73,360
74,1201 75,3653 76,811 77,70
81,10 83,10 84,130 85,420
86,160 87,160 88,20 90,10
98,10 99,20 100,10 101,10
102,50 104,70 105,10 108,20
109,30 111,4904 112,380 113,1611
114,100 133,10 134,10 137,70
139,9999 140,841 141,3183 142,230
143,10 197,70 199,20
##END=
