##TITLE=2-Butanethiol, 2-methyl-
##JCAMP-DX=4.24
##DATA TYPE=MASS SPECTRUM
##ORIGIN=NIST Mass Spectrometry Data Center, 1998.
##OWNER=NIST Mass Spectrometry Data Center
Collection (C) 2014 copyright by the U.S. Secretary of Commerce
on behalf of the United States of America. All rights reserved.
##CAS REGISTRY NO=1679-09-0
##$NIST MASS SPEC NO=291968
##MOLFORM=C5 H12 S
##MW=104
##$NIST SOURCE=MSDC
##XUNITS=M/Z
##YUNITS=RELATIVE INTENSITY
##XFACTOR=1
##YFACTOR=1
##FIRSTX=14
##LASTX=107
##FIRSTY=10
##MAXX=107
##MINX=14
##MAXY=9999
##MINY=10
##NPOINTS=63
##PEAK TABLE=(XY..XY)
14,10 15,60 26,90 27,1050
28,130 29,1160 30,30 32,30
33,130 34,50 35,50 36,10
37,70 38,170 39,2190 40,250
41,4370 42,530 43,9999 44,360
45,500 46,60 47,980 48,30
49,100 50,200 51,280 52,90
53,750 54,120 55,4790 56,320
57,90 58,350 59,1280 60,90
61,340 62,40 63,50 65,40
66,10 67,60 68,10 69,180
70,260 71,8229 72,490 73,80
74,240 75,3280 76,150 77,150
78,10 85,20 87,10 88,20
89,340 90,20 91,20 104,4160
105,270 106,200 107,10
##END=
