##TITLE=3-Cyclohexene-1-methanol
##JCAMP-DX=4.24
##DATA TYPE=MASS SPECTRUM
##OWNER=NIST Mass Spectrometry Data Center
Collection (C) 2014 copyright by the U.S. Secretary of Commerce
on behalf of the United States of America. All rights reserved.
##CAS REGISTRY NO=1679-51-2
##$NIST MASS SPEC NO=1647
##MOLFORM=C7 H12 O
##MW=112
##$NIST SOURCE=MSDC
##XUNITS=M/Z
##YUNITS=RELATIVE INTENSITY
##XFACTOR=1
##YFACTOR=1
##FIRSTX=15
##LASTX=113
##FIRSTY=30
##MAXX=113
##MINX=15
##MAXY=9999
##MINY=10
##NPOINTS=64
##PEAK TABLE=(XY..XY)
15,30 18,30 26,50 27,661
28,250 29,370 30,20 31,350
32,40 37,20 38,70 39,1021
40,150 41,1311 42,120 43,240
44,40 45,30 49,10 50,130
51,310 52,160 53,1181 54,901
55,490 56,90 57,490 58,30
61,10 62,40 63,60 64,10
65,290 66,701 67,550 68,230
69,90 70,210 71,50 74,20
75,10 76,10 77,1301 78,290
79,9999 80,931 81,2752 82,260
83,140 84,40 89,10 91,360
92,40 93,911 94,4024 95,360
96,20 97,50 108,50 109,30
110,10 111,20 112,200 113,15
##END=
