##TITLE=Benzene, 1-(2-bromoethyl)-3-chloro-
##JCAMP-DX=4.24
##DATA TYPE=MASS SPECTRUM
##OWNER=NIST Mass Spectrometry Data Center
Collection (C) 2014 copyright by the U.S. Secretary of Commerce
on behalf of the United States of America. All rights reserved.
##CAS REGISTRY NO=16799-05-6
##$NIST MASS SPEC NO=10237
##MOLFORM=C8 H8 Br Cl
##MW=218
##$NIST SOURCE=MSDC
##XUNITS=M/Z
##YUNITS=RELATIVE INTENSITY
##XFACTOR=1
##YFACTOR=1
##FIRSTX=50
##LASTX=222
##FIRSTY=2002
##MAXX=222
##MINX=50
##MAXY=9999
##MINY=20
##NPOINTS=22
##PEAK TABLE=(XY..XY)
50,2002 51,3103 52,200 75,230
76,20 77,360 78,30 103,4804
104,400 125,9999 126,901 127,3303
128,300 139,4804 140,400 183,1601
184,100 218,2803 219,300 220,3603
221,400 222,800
##END=
