##TITLE=1H-1,2,3-Triazole, 4-phenyl-
##JCAMP-DX=4.24
##DATA TYPE=MASS SPECTRUM
##ORIGIN=JCPRB4, (1)15(1979); S. I. MILLER ET AL.
##OWNER=NIST Mass Spectrometry Data Center
Collection (C) 2014 copyright by the U.S. Secretary of Commerce
on behalf of the United States of America. All rights reserved.
##CAS REGISTRY NO=1680-44-0
##$NIST MASS SPEC NO=66638
##MOLFORM=C8 H7 N3
##MW=145
##$NIST SOURCE=MSDC
##XUNITS=M/Z
##YUNITS=RELATIVE INTENSITY
##XFACTOR=1
##YFACTOR=1
##FIRSTX=39
##LASTX=146
##FIRSTY=700
##MAXX=146
##MINX=39
##MAXY=9999
##MINY=500
##NPOINTS=16
##PEAK TABLE=(XY..XY)
39,700 40,500 42,600 51,800
63,1300 64,600 77,1200 89,1800
90,1200 91,1600 103,500 104,500
116,700 118,2100 145,9999 146,1300
##END=
