##TITLE=2,5-Diphenyl-2,4-hexadiene
##JCAMP-DX=4.24
##DATA TYPE=MASS SPECTRUM
##ORIGIN=Japan AIST/NIMC Database- Spectrum MS-NW-9800
##OWNER=NIST Mass Spectrometry Data Center
Collection (C) 2014 copyright by the U.S. Secretary of Commerce
on behalf of the United States of America. All rights reserved.
##CAS REGISTRY NO=16819-47-9
##$NIST MASS SPEC NO=239730
##MOLFORM=C18 H18
##MW=234
##$NIST SOURCE=MSDC
##XUNITS=M/Z
##YUNITS=RELATIVE INTENSITY
##XFACTOR=1
##YFACTOR=1
##FIRSTX=27
##LASTX=237
##FIRSTY=50
##MAXX=237
##MINX=27
##MAXY=9999
##MINY=10
##NPOINTS=118
##PEAK TABLE=(XY..XY)
27,50 39,109 41,30 50,40
51,219 52,40 53,50 55,10
62,20 63,109 64,20 65,159
66,10 67,10 74,20 75,50
76,99 77,579 78,139 79,229
80,10 81,10 82,40 83,20
87,20 88,60 89,289 90,20
91,1359 92,119 93,10 94,109
95,99 96,90 97,10 100,20
101,389 102,329 103,609 104,70
105,2629 106,239 107,139 108,199
109,80 113,30 114,40 115,899
116,249 117,429 118,30 119,10
126,30 127,279 128,869 129,629
130,149 131,179 132,20 139,70
140,20 141,699 142,539 143,1679
144,199 145,10 150,10 151,30
152,109 153,99 154,40 155,129
156,239 157,639 158,80 163,20
164,10 165,129 166,20 167,10
176,30 177,20 178,319 179,159
180,20 187,10 188,10 189,159
190,129 191,339 192,119 193,99
194,10 200,30 201,60 202,749
203,1069 204,2809 205,1139 206,179
207,30 213,40 214,20 215,329
216,129 217,359 218,579 219,8139
220,1509 221,129 229,10 231,10
232,10 233,419 234,9999 235,1969
236,189 237,10
##END=
