##TITLE=Methyl 2,6-dihydroxy-4-methylbenzoate
##JCAMP-DX=4.24
##DATA TYPE=MASS SPECTRUM
##ORIGIN=Japan AIST/NIMC Database- Spectrum MS-NW-7821
##OWNER=NIST Mass Spectrometry Data Center
Collection (C) 2014 copyright by the U.S. Secretary of Commerce
on behalf of the United States of America. All rights reserved.
##CAS REGISTRY NO=16846-10-9
##$NIST MASS SPEC NO=238206
##MOLFORM=C9 H10 O4
##MW=182
##$NIST SOURCE=MSDC
##XUNITS=M/Z
##YUNITS=RELATIVE INTENSITY
##XFACTOR=1
##YFACTOR=1
##FIRSTX=15
##LASTX=184
##FIRSTY=70
##MAXX=184
##MINX=15
##MAXY=9999
##MINY=10
##NPOINTS=71
##PEAK TABLE=(XY..XY)
15,70 26,20 27,199 28,50
29,80 31,40 37,20 38,90
39,559 40,169 41,199 42,50
43,80 45,20 47,10 49,10
50,139 51,359 52,139 53,519
54,50 55,319 56,10 59,30
61,20 62,50 63,99 64,80
65,539 66,839 67,159 68,20
69,249 70,10 74,30 75,50
76,60 77,249 78,30 79,90
80,20 81,109 82,20 91,99
92,50 93,90 94,849 95,149
96,10 104,10 105,30 106,10
107,10 108,10 109,30 120,30
121,659 122,3999 123,319 124,30
148,20 149,109 150,9999 151,2009
152,209 153,30 167,20 181,50
182,4269 183,479 184,60
##END=
