##TITLE=Butyric Acid, TMS derivative
##JCAMP-DX=4.24
##DATA TYPE=MASS SPECTRUM
##ORIGIN=NIST Mass Spectrometry Data Center
##OWNER=NIST Mass Spectrometry Data Center
Collection (C) 2014 copyright by the U.S. Secretary of Commerce
on behalf of the United States of America. All rights reserved.
##CAS REGISTRY NO=16844-99-8
##$NIST MASS SPEC NO=333858
##MOLFORM=C7 H16 O2 Si
##MW=160
##$NIST SOURCE=MSDC
##XUNITS=M/Z
##YUNITS=RELATIVE INTENSITY
##XFACTOR=1
##YFACTOR=1
##FIRSTX=14
##LASTX=162
##FIRSTY=10
##MAXX=162
##MINX=14
##MAXY=9999
##MINY=10
##NPOINTS=84
##PEAK TABLE=(XY..XY)
14,10 15,80 26,60 27,510
28,160 29,370 30,20 31,50
37,10 38,40 39,460 40,70
41,771 42,440 43,1441 44,280
45,2092 46,160 47,921 48,50
49,30 50,10 51,20 53,90
54,30 55,470 56,60 57,180
58,450 59,651 60,250 61,961
62,70 63,30 65,20 66,10
67,10 68,30 69,130 70,230
71,310 72,480 73,8237 74,1311
75,9999 76,1301 77,681 78,20
83,10 85,50 86,20 87,60
88,100 89,60 90,20 91,40
99,40 100,20 101,310 102,40
103,50 111,10 115,20 116,300
117,1451 118,150 119,60 127,20
129,671 130,80 131,30 132,741
133,90 134,30 142,10 143,30
145,9749 146,1712 147,641 148,40
149,10 160,270 161,50 162,10
##END=
