##TITLE=10-Nonadecanol
##JCAMP-DX=4.24
##DATA TYPE=MASS SPECTRUM
##ORIGIN=NIST Mass Spectrometry Data Center, 1990.
##OWNER=NIST Mass Spectrometry Data Center
Collection (C) 2014 copyright by the U.S. Secretary of Commerce
on behalf of the United States of America. All rights reserved.
##CAS REGISTRY NO=16840-84-9
##$NIST MASS SPEC NO=113685
##MOLFORM=C19 H40 O
##MW=284
##$NIST SOURCE=MSDC
##XUNITS=M/Z
##YUNITS=RELATIVE INTENSITY
##XFACTOR=1
##YFACTOR=1
##FIRSTX=27
##LASTX=266
##FIRSTY=772
##MAXX=266
##MINX=27
##MAXY=9999
##MINY=169
##NPOINTS=42
##PEAK TABLE=(XY..XY)
27,772 28,678 29,2048 39,529
41,4174 42,1002 43,5075 44,550
45,188 53,266 54,552 55,5103
56,1099 57,4768 58,709 59,217
67,822 68,691 69,4807 70,985
71,1861 72,210 81,847 82,1203
83,9999 84,910 85,631 95,501
96,703 97,4395 98,466 109,231
110,423 111,607 112,267 125,236
138,169 139,214 155,699 157,2609
158,273 266,321
##END=
