##TITLE=1-Benzenesulfonyl-1H-pyrrole
##JCAMP-DX=4.24
##DATA TYPE=MASS SPECTRUM
##ORIGIN=NIST Mass Spectrometry Data Center
##OWNER=NIST Mass Spectrometry Data Center
Collection (C) 2014 copyright by the U.S. Secretary of Commerce
on behalf of the United States of America. All rights reserved.
##CAS REGISTRY NO=16851-82-4
##$NIST MASS SPEC NO=343004
##MOLFORM=C10 H9 N O2 S
##MW=207
##$NIST SOURCE=MSDC
##XUNITS=M/Z
##YUNITS=RELATIVE INTENSITY
##XFACTOR=1
##YFACTOR=1
##FIRSTX=18
##LASTX=210
##FIRSTY=30
##MAXX=210
##MINX=18
##MAXY=9999
##MINY=10
##NPOINTS=65
##PEAK TABLE=(XY..XY)
18,30 26,60 27,240 37,270
38,751 39,2242 40,490 41,180
45,90 48,70 50,931 51,2933
52,170 53,80 54,10 55,10
57,10 58,20 59,20 61,10
62,50 63,130 64,130 65,150
66,520 67,370 68,20 69,70
70,20 71,10 74,250 75,180
77,9999 78,631 79,10 81,30
82,30 86,10 89,110 90,60
91,10 95,30 97,180 98,10
99,10 102,10 103,10 104,60
108,10 109,10 113,10 115,631
116,110 117,50 125,200 126,20
127,10 141,2372 142,210 143,450
144,40 207,2412 208,290 209,120
210,10
##END=
