##TITLE=2(1H)-Pyridinone, 3-hydroxy-
##JCAMP-DX=4.24
##DATA TYPE=MASS SPECTRUM
##ORIGIN=Japan AIST/NIMC Database- Spectrum MS-IW-4337
##OWNER=NIST Mass Spectrometry Data Center
Collection (C) 2014 copyright by the U.S. Secretary of Commerce
on behalf of the United States of America. All rights reserved.
##CAS REGISTRY NO=16867-04-2
##$NIST MASS SPEC NO=227574
##MOLFORM=C5 H5 N O2
##MW=111
##$NIST SOURCE=MSDC
##XUNITS=M/Z
##YUNITS=RELATIVE INTENSITY
##XFACTOR=1
##YFACTOR=1
##FIRSTX=17
##LASTX=113
##FIRSTY=40
##MAXX=113
##MINX=17
##MAXY=9999
##MINY=10
##NPOINTS=43
##PEAK TABLE=(XY..XY)
17,40 18,159 25,20 26,129
27,229 28,659 29,169 30,10
36,10 37,70 38,219 39,249
40,60 41,119 42,40 43,20
44,80 50,10 51,60 52,129
53,159 54,719 55,1829 56,159
57,20 64,40 65,329 66,50
67,20 68,10 69,10 70,10
81,20 82,299 83,489 84,40
93,449 94,40 95,10 110,30
111,9999 112,789 113,70
##END=
