##TITLE=Phenanthrene, 7-ethenyl-1,2,3,4,4a,4b,5,6,7,8,10,10a-dodecahydro-1,1,4a,7-tetramethyl-, [4aS-(4a.alpha.,4b.beta.,7.beta.,10a.beta.)]-
##JCAMP-DX=4.24
##DATA TYPE=MASS SPECTRUM
##OWNER=NIST Mass Spectrometry Data Center
Collection (C) 2014 copyright by the U.S. Secretary of Commerce
on behalf of the United States of America. All rights reserved.
##CAS REGISTRY NO=1686-66-4
##$NIST MASS SPEC NO=13160
##MOLFORM=C20 H32
##MW=272
##$NIST SOURCE=MSDC
##XUNITS=M/Z
##YUNITS=RELATIVE INTENSITY
##XFACTOR=1
##YFACTOR=1
##FIRSTX=41
##LASTX=274
##FIRSTY=8221
##MAXX=274
##MINX=41
##MAXY=9999
##MINY=134
##NPOINTS=80
##PEAK TABLE=(XY..XY)
41,8221 42,268 43,2684 44,268
53,1946 54,503 55,5973 56,403
65,1007 67,3355 68,738 69,4698
70,235 76,2349 77,403 78,4630
80,5436 81,906 82,940 83,268
91,4966 92,2282 93,4429 94,1409
95,3959 96,336 97,403 105,6207
106,3624 107,3926 108,268 109,9999
110,638 119,5301 120,2349 121,3020
122,436 123,906 124,1946 131,1443
132,604 133,3959 134,1007 135,1275
136,268 137,436 145,1074 146,268
147,1409 148,3624 149,839 159,1174
160,235 161,1946 162,268 163,839
164,168 172,436 173,134 174,940
175,671 176,503 187,2517 188,436
189,940 190,235 201,940 202,671
203,1409 215,436 216,336 242,1845
243,201 245,168 257,5033 258,1007
259,537 272,3422 273,604 274,134
##END=
