##TITLE=Phenanthrene, 7-ethenyl-1,2,3,4,4a,4b,5,6,7,9,10,10a-dodecahydro-1,1,4a,7-tetramethyl-, [4aS-(4a.alpha.,4b.beta.,7.beta.,10a.beta.)]-
##JCAMP-DX=4.24
##DATA TYPE=MASS SPECTRUM
##ORIGIN=NIST Mass Spectrometry Data Center
##OWNER=NIST Mass Spectrometry Data Center
Collection (C) 2014 copyright by the U.S. Secretary of Commerce
on behalf of the United States of America. All rights reserved.
##CAS REGISTRY NO=1686-56-2
##$NIST MASS SPEC NO=413003
##MOLFORM=C20 H32
##MW=272
##$NIST SOURCE=MSDC
##XUNITS=M/Z
##YUNITS=RELATIVE INTENSITY
##XFACTOR=1
##YFACTOR=1
##FIRSTX=27
##LASTX=274
##FIRSTY=210
##MAXX=274
##MINX=27
##MAXY=9999
##MINY=10
##NPOINTS=162
##PEAK TABLE=(XY..XY)
27,210 29,450 30,10 39,550
40,120 41,3163 42,180 43,761
50,30 51,150 52,80 53,941
54,110 55,2532 56,210 57,480
58,40 59,60 63,60 64,40
65,671 66,180 67,2092 68,340
69,2612 70,170 71,120 72,40
76,20 77,1591 78,410 79,2572
80,440 81,3763 82,420 83,350
84,20 86,20 87,30 89,50
90,20 91,3433 92,901 93,2242
94,571 95,3223 96,350 97,340
100,50 101,30 102,50 103,380
104,270 105,2542 106,821 107,1902
108,510 109,1692 110,160 111,120
114,20 115,611 116,240 117,1301
118,350 119,2302 120,951 121,2482
122,621 123,2923 124,1601 125,280
126,50 127,90 128,350 129,410
130,170 131,721 132,210 133,2042
134,1071 135,921 136,4634 137,9999
138,1171 139,80 141,140 142,100
143,190 144,90 145,601 146,170
147,631 148,1181 149,450 150,100
151,50 152,30 153,40 154,20
155,40 156,30 157,100 158,40
159,370 160,110 161,530 162,140
163,130 164,20 165,40 166,10
169,10 170,10 171,50 172,30
173,340 174,160 175,550 176,160
177,100 178,70 179,20 183,10
184,10 185,40 186,20 187,420
188,200 189,240 190,130 191,50
199,40 200,20 201,230 202,250
203,190 204,370 205,60 214,10
215,90 216,150 217,40 228,10
229,290 230,140 231,80 232,10
241,10 242,10 243,180 244,300
245,90 246,10 257,4284 258,861
259,90 260,10 271,10 272,2342
273,500 274,50
##END=
