##TITLE=2-Amino-3-hydroxypyridine
##JCAMP-DX=4.24
##DATA TYPE=MASS SPECTRUM
##ORIGIN=NIST Mass Spectrometry Data Center, 1990.
##OWNER=NIST Mass Spectrometry Data Center
Collection (C) 2014 copyright by the U.S. Secretary of Commerce
on behalf of the United States of America. All rights reserved.
##CAS REGISTRY NO=16867-03-1
##$NIST MASS SPEC NO=118379
##MOLFORM=C5 H6 N2 O
##MW=110
##$NIST SOURCE=MSDC
##XUNITS=M/Z
##YUNITS=RELATIVE INTENSITY
##XFACTOR=1
##YFACTOR=1
##FIRSTX=14
##LASTX=111
##FIRSTY=87
##MAXX=111
##MINX=14
##MAXY=9999
##MINY=68
##NPOINTS=38
##PEAK TABLE=(XY..XY)
14,87 17,132 18,153 25,166
26,526 27,881 28,1293 29,517
30,124 36,83 37,618 38,1700
39,2102 40,513 41,573 42,403
43,588 44,124 50,68 51,214
52,613 53,931 54,2813 55,5535
56,616 63,141 64,538 65,1352
66,349 67,158 68,233 80,164
81,1463 82,3285 83,758 93,265
110,9999 111,760
##END=
