##TITLE=1,3-Dimethyl-5-ethyladamantane
##JCAMP-DX=4.24
##DATA TYPE=MASS SPECTRUM
##ORIGIN=V.G.Zaikin, TIPS, Russian Acad. Sci.
##OWNER=NIST Mass Spectrometry Data Center
Collection (C) 2014 copyright by the U.S. Secretary of Commerce
on behalf of the United States of America. All rights reserved.
##CAS REGISTRY NO=1687-35-0
##$NIST MASS SPEC NO=214992
##MOLFORM=C14 H24
##MW=192
##$NIST SOURCE=MSDC
##XUNITS=M/Z
##YUNITS=RELATIVE INTENSITY
##XFACTOR=1
##YFACTOR=1
##FIRSTX=51
##LASTX=193
##FIRSTY=150
##MAXX=193
##MINX=51
##MAXY=9999
##MINY=50
##NPOINTS=33
##PEAK TABLE=(XY..XY)
51,150 53,450 55,800 57,100
65,300 67,500 69,400 70,100
77,600 78,150 79,750 80,200
81,500 83,200 91,800 92,200
93,1301 94,200 95,500 105,400
107,4804 108,500 109,200 121,1000
122,200 135,300 149,100 163,9999
164,1151 177,850 178,250 192,300
193,50
##END=
