##TITLE=2-Quinazolinamine
##JCAMP-DX=4.24
##DATA TYPE=MASS SPECTRUM
##ORIGIN=Japan AIST/NIMC Database- Spectrum MS-IW-6817
##OWNER=NIST Mass Spectrometry Data Center
Collection (C) 2014 copyright by the U.S. Secretary of Commerce
on behalf of the United States of America. All rights reserved.
##CAS REGISTRY NO=1687-51-0
##$NIST MASS SPEC NO=242113
##MOLFORM=C8 H7 N3
##MW=145
##$NIST SOURCE=MSDC
##XUNITS=M/Z
##YUNITS=RELATIVE INTENSITY
##XFACTOR=1
##YFACTOR=1
##FIRSTX=26
##LASTX=147
##FIRSTY=20
##MAXX=147
##MINX=26
##MAXY=9999
##MINY=10
##NPOINTS=62
##PEAK TABLE=(XY..XY)
26,20 27,40 28,139 37,80
38,119 39,169 40,30 41,40
42,20 43,229 45,20 49,20
50,539 51,249 52,129 53,60
54,10 58,30 59,60 61,50
62,109 63,289 64,309 65,99
66,30 67,10 72,509 73,70
74,159 75,389 76,679 77,129
78,30 79,10 86,10 87,20
88,40 89,60 90,639 91,1119
92,99 93,40 99,20 100,20
101,20 102,289 103,599 104,90
115,10 116,60 117,689 118,3659
119,399 120,10 128,159 129,999
130,90 143,30 144,819 145,9999
146,999 147,50
##END=
