##TITLE=5-Amino-2-methoxyphenol
##JCAMP-DX=4.24
##DATA TYPE=MASS SPECTRUM
##ORIGIN=Chuck Anderson, Aldrich Chemical Co.
##OWNER=NIST Mass Spectrometry Data Center
Collection (C) 2014 copyright by the U.S. Secretary of Commerce
on behalf of the United States of America. All rights reserved.
##CAS REGISTRY NO=1687-53-2
##$NIST MASS SPEC NO=117780
##MOLFORM=C7 H9 N O2
##MW=139
##$NIST SOURCE=MSDC
##XUNITS=M/Z
##YUNITS=RELATIVE INTENSITY
##XFACTOR=1
##YFACTOR=1
##FIRSTX=14
##LASTX=141
##FIRSTY=52
##MAXX=141
##MINX=14
##MAXY=9999
##MINY=6
##NPOINTS=70
##PEAK TABLE=(XY..XY)
14,52 15,256 17,27 18,47
25,7 26,195 27,407 28,1152
29,310 30,112 31,70 32,34
33,137 37,111 38,266 39,683
40,402 41,1406 42,578 43,95
44,131 48,29 49,49 50,251
51,583 52,751 53,761 54,307
55,270 56,7 61,73 62,142
63,207 64,86 65,312 66,209
67,820 68,2031 69,380 70,87
75,6 76,72 77,83 78,385
79,344 80,385 81,98 82,61
90,6 92,80 93,79 94,103
95,373 96,7499 97,441 98,20
106,35 107,6 109,21 110,322
111,383 112,13 123,6 124,9999
125,654 126,66 138,283 139,9374
140,683 141,65
##END=
