##TITLE=Phenol, 2-ethyl-5-methyl-
##JCAMP-DX=4.24
##DATA TYPE=MASS SPECTRUM
##ORIGIN=ALLIED CHEMICAL CORP., GLENOLDEN, PA, USA
##OWNER=NIST Mass Spectrometry Data Center
Collection (C) 2014 copyright by the U.S. Secretary of Commerce
on behalf of the United States of America. All rights reserved.
##CAS REGISTRY NO=1687-61-2
##$NIST MASS SPEC NO=34984
##MOLFORM=C9 H12 O
##MW=136
##$NIST SOURCE=MSDC
##XUNITS=M/Z
##YUNITS=RELATIVE INTENSITY
##XFACTOR=1
##YFACTOR=1
##FIRSTX=27
##LASTX=137
##FIRSTY=1111
##MAXX=137
##MINX=27
##MAXY=9999
##MINY=52
##NPOINTS=54
##PEAK TABLE=(XY..XY)
27,1111 28,196 29,284 37,83
38,281 39,1421 40,200 41,452
42,58 43,138 50,369 51,836
52,321 53,589 54,52 55,173
61,61 62,161 63,424 64,131
65,630 66,219 67,251 74,86
75,96 76,83 77,1618 78,396
79,270 89,173 90,117 91,1759
92,267 93,335 94,70 102,84
103,202 105,129 107,263 108,131
109,63 115,309 116,89 117,212
118,68 119,101 120,125 121,9999
122,919 123,58 134,60 135,267
136,3091 137,318
##END=
