##TITLE=1-Methyl-3-ethyladamantane
##JCAMP-DX=4.24
##DATA TYPE=MASS SPECTRUM
##ORIGIN=V.G.Zaikin, TIPS, Russian Acad. Sci.
##OWNER=NIST Mass Spectrometry Data Center
Collection (C) 2014 copyright by the U.S. Secretary of Commerce
on behalf of the United States of America. All rights reserved.
##CAS REGISTRY NO=1687-34-9
##$NIST MASS SPEC NO=214994
##MOLFORM=C13 H22
##MW=178
##$NIST SOURCE=MSDC
##XUNITS=M/Z
##YUNITS=RELATIVE INTENSITY
##XFACTOR=1
##YFACTOR=1
##FIRSTX=51
##LASTX=179
##FIRSTY=200
##MAXX=179
##MINX=51
##MAXY=9999
##MINY=60
##NPOINTS=32
##PEAK TABLE=(XY..XY)
51,200 53,500 55,800 57,200
65,300 66,100 67,600 68,150
69,400 77,650 78,150 79,900
80,200 81,800 82,200 83,300
91,700 92,200 93,2802 94,300
95,400 105,300 107,1301 108,200
121,500 135,200 149,9999 150,1101
163,700 164,150 178,400 179,60
##END=
