##TITLE=6-Chloro-2-pyridinol
##JCAMP-DX=4.24
##DATA TYPE=MASS SPECTRUM
##ORIGIN=NIST Mass Spectrometry Data Center, 1992
##OWNER=NIST Mass Spectrometry Data Center
Collection (C) 2014 copyright by the U.S. Secretary of Commerce
on behalf of the United States of America. All rights reserved.
##CAS REGISTRY NO=16879-02-0
##$NIST MASS SPEC NO=125176
##MOLFORM=C5 H4 Cl N O
##MW=129
##$NIST SOURCE=MSDC
##XUNITS=M/Z
##YUNITS=RELATIVE INTENSITY
##XFACTOR=1
##YFACTOR=1
##FIRSTX=12
##LASTX=133
##FIRSTY=81
##MAXX=133
##MINX=12
##MAXY=9999
##MINY=9
##NPOINTS=76
##PEAK TABLE=(XY..XY)
12,81 13,88 15,79 17,24
18,203 24,70 25,354 26,674
27,822 28,24 29,813 30,30
35,323 36,461 37,2176 38,3954
39,9999 40,1071 41,494 42,366
43,93 44,107 45,34 46,30
47,395 48,161 49,678 50,1275
51,803 52,366 53,388 54,127
55,68 56,27 59,22 60,304
61,146 62,811 63,655 64,1472
65,1367 66,8817 67,624 68,110
71,42 72,82 73,483 74,922
75,600 76,620 77,117 78,34
84,114 85,157 86,137 87,32
88,13 89,40 90,35 91,48
94,9975 95,550 96,56 98,29
101,8510 102,996 103,2649 104,255
105,9 112,48 121,23 129,8986
130,687 131,2881 132,121 133,27
##END=
