##TITLE=1,2-Dicarbadodecaborane(12)
##JCAMP-DX=4.24
##DATA TYPE=MASS SPECTRUM
##ORIGIN=RADIAN CORP
##OWNER=NIST Mass Spectrometry Data Center
Collection (C) 2014 copyright by the U.S. Secretary of Commerce
on behalf of the United States of America. All rights reserved.
##CAS REGISTRY NO=16872-09-6
##$NIST MASS SPEC NO=73689
##MOLFORM=C2 H12 B10
##MW=146
##$NIST SOURCE=MSDC
##XUNITS=M/Z
##YUNITS=RELATIVE INTENSITY
##XFACTOR=1
##YFACTOR=1
##FIRSTX=13
##LASTX=146
##FIRSTY=110
##MAXX=146
##MINX=13
##MAXY=9999
##MINY=10
##NPOINTS=67
##PEAK TABLE=(XY..XY)
13,110 36,50 37,120 47,30
48,40 49,30 57,20 58,30
59,20 67,60 68,130 78,30
79,60 80,60 81,30 87,30
88,90 89,180 90,220 91,190
92,70 93,10 97,20 98,110
99,230 100,340 101,330 102,230
103,130 104,40 105,10 109,60
110,180 111,310 112,370 113,330
114,220 115,130 116,40 119,30
120,130 121,300 122,580 123,890
124,1060 125,890 126,560 127,360
128,220 129,120 130,110 131,240
132,520 133,980 134,1460 135,1900
136,2150 137,2200 138,2290 139,2820
140,4410 141,7340 142,9999 143,9740
144,6120 145,2550 146,940
##END=
