##TITLE=2-Methylpropanoic acid, TMS derivative
##JCAMP-DX=4.24
##DATA TYPE=MASS SPECTRUM
##ORIGIN=ORVAL A. MAMER, ROYAL VICTORIA HOSPITAL, MONTREAL, CANADA
##OWNER=NIST Mass Spectrometry Data Center
Collection (C) 2014 copyright by the U.S. Secretary of Commerce
on behalf of the United States of America. All rights reserved.
##CAS REGISTRY NO=16883-61-7
##$NIST MASS SPEC NO=23925
##MOLFORM=C7 H16 O2 Si
##MW=160
##$NIST SOURCE=MSDC
##XUNITS=M/Z
##YUNITS=RELATIVE INTENSITY
##XFACTOR=1
##YFACTOR=1
##FIRSTX=15
##LASTX=160
##FIRSTY=237
##MAXX=160
##MINX=15
##MAXY=9999
##MINY=2
##NPOINTS=41
##PEAK TABLE=(XY..XY)
15,237 26,69 27,585 28,155
29,209 31,128 39,319 40,68
41,622 42,213 43,1103 44,242
45,1626 46,153 47,664 51,2
53,70 55,226 57,138 58,327
59,232 60,165 61,481 69,75
70,170 71,160 72,138 73,9999
74,989 75,8566 76,641 77,418
87,2 116,188 117,754 118,97
129,127 144,94 145,4285 146,565
160,106
##END=
