##TITLE=Cyclopentane, 1,2,4-trimethyl-, (1.alpha.,2.beta.,4.alpha.)-
##JCAMP-DX=4.24
##DATA TYPE=MASS SPECTRUM
##OWNER=NIST Mass Spectrometry Data Center
Collection (C) 2014 copyright by the U.S. Secretary of Commerce
on behalf of the United States of America. All rights reserved.
##CAS REGISTRY NO=16883-48-0
##$NIST MASS SPEC NO=1609
##MOLFORM=C8 H16
##MW=112
##$NIST SOURCE=MSDC
##XUNITS=M/Z
##YUNITS=RELATIVE INTENSITY
##XFACTOR=1
##YFACTOR=1
##FIRSTX=13
##LASTX=114
##FIRSTY=10
##MAXX=114
##MINX=13
##MAXY=9999
##MINY=10
##NPOINTS=65
##PEAK TABLE=(XY..XY)
13,10 14,10 15,320 16,10
26,70 27,1692 28,300 29,1291
30,30 34,10 35,10 37,20
38,50 39,1581 40,290 41,3383
42,2472 43,771 44,30 45,10
46,10 50,30 51,130 52,60
53,500 54,250 55,7357 56,1621
57,561 58,30 62,10 63,30
64,10 65,80 66,50 67,210
68,320 69,2362 70,9999 71,711
72,20 75,10 77,80 78,20
79,60 80,10 81,90 82,20
83,400 84,390 85,30 91,20
92,10 93,10 94,10 95,70
96,20 97,701 98,50 99,10
109,10 111,30 112,951 113,80
114,10
##END=
