##TITLE=1,1,1',1'-Tetrafluorodimethyl ether
##JCAMP-DX=4.24
##DATA TYPE=MASS SPECTRUM
##ORIGIN=Thomas J.Bruno
##OWNER=NIST Mass Spectrometry Data Center
Collection (C) 2014 copyright by the U.S. Secretary of Commerce
on behalf of the United States of America. All rights reserved.
##CAS REGISTRY NO=1691-17-4
##$NIST MASS SPEC NO=215700
##MOLFORM=C2 H2 F4 O
##MW=118
##$NIST SOURCE=MSDC
##XUNITS=M/Z
##YUNITS=RELATIVE INTENSITY
##XFACTOR=1
##YFACTOR=1
##FIRSTX=28
##LASTX=117
##FIRSTY=1951
##MAXX=117
##MINX=28
##MAXY=9999
##MINY=280
##NPOINTS=13
##PEAK TABLE=(XY..XY)
28,1951 29,9999 31,9358 32,4083
40,280 47,4313 48,9558 51,9999
52,1141 66,410 71,1090 99,290
117,960
##END=
