##TITLE=2,6-Dimethoxybenzonitrile
##JCAMP-DX=4.24
##DATA TYPE=MASS SPECTRUM
##ORIGIN=NIST Mass Spectrometry Data Center
##OWNER=NIST Mass Spectrometry Data Center
Collection (C) 2014 copyright by the U.S. Secretary of Commerce
on behalf of the United States of America. All rights reserved.
##CAS REGISTRY NO=16932-49-3
##$NIST MASS SPEC NO=343243
##MOLFORM=C9 H9 N O2
##MW=163
##$NIST SOURCE=MSDC
##XUNITS=M/Z
##YUNITS=RELATIVE INTENSITY
##XFACTOR=1
##YFACTOR=1
##FIRSTX=12
##LASTX=164
##FIRSTY=50
##MAXX=164
##MINX=12
##MAXY=9999
##MINY=10
##NPOINTS=79
##PEAK TABLE=(XY..XY)
12,50 13,50 14,20 15,2963
16,80 18,50 25,10 26,591
27,150 29,621 30,90 32,30
37,691 38,1511 39,2182 40,20
41,170 42,490 43,50 49,160
50,1672 51,1601 52,490 53,671
54,410 55,170 61,881 62,2442
63,2452 64,961 65,2672 66,1621
67,330 68,250 69,70 73,60
74,350 75,1011 76,1772 77,3263
78,1381 79,1651 80,490 81,100
87,470 88,1021 89,1571 90,1061
91,561 92,2312 93,410 94,310
95,280 99,10 102,180 103,941
104,2622 105,3073 106,2923 107,1672
108,360 115,120 116,100 117,1241
118,641 119,791 120,6736 121,631
122,10 132,701 133,861 134,811
135,561 146,400 147,20 148,10
162,1081 163,9999 164,1051
##END=
