##TITLE=(E)-4-Nitrostilbene
##JCAMP-DX=4.24
##DATA TYPE=MASS SPECTRUM
##ORIGIN=Japan AIST/NIMC Database- Spectrum MS-IW-2636
##OWNER=NIST Mass Spectrometry Data Center
Collection (C) 2014 copyright by the U.S. Secretary of Commerce
on behalf of the United States of America. All rights reserved.
##CAS REGISTRY NO=1694-20-8
##$NIST MASS SPEC NO=241816
##MOLFORM=C14 H11 N O2
##MW=225
##$NIST SOURCE=MSDC
##XUNITS=M/Z
##YUNITS=RELATIVE INTENSITY
##XFACTOR=1
##YFACTOR=1
##FIRSTX=27
##LASTX=228
##FIRSTY=30
##MAXX=228
##MINX=27
##MAXY=9999
##MINY=10
##NPOINTS=102
##PEAK TABLE=(XY..XY)
27,30 28,10 30,30 38,20
39,149 40,10 41,10 50,169
51,399 52,70 53,20 57,10
61,10 62,90 63,329 64,40
65,109 69,10 70,10 74,139
75,279 76,819 77,329 78,119
79,10 81,10 82,30 83,20
84,10 85,10 86,40 87,99
88,479 89,889 90,30 91,50
93,10 96,10 97,10 98,40
99,40 100,20 101,90 102,249
103,50 104,10 110,10 111,10
112,50 113,60 114,30 115,219
116,20 117,20 122,10 125,20
126,149 127,179 128,239 129,30
137,20 138,20 139,239 140,50
141,80 142,10 149,20 150,179
151,639 152,1409 153,289 154,30
162,10 163,99 164,80 165,599
166,239 167,439 168,60 174,40
175,90 176,1099 177,1289 178,7699
179,2949 180,409 181,30 190,10
191,10 193,30 194,90 195,409
196,70 207,90 208,229 209,99
210,40 224,179 225,9999 226,1579
227,159 228,10
##END=
