##TITLE=Acetic acid, trichloro-, octyl ester
##JCAMP-DX=4.24
##DATA TYPE=MASS SPECTRUM
##ORIGIN=V.G.Zaikin, Petrochem. Synth. Inst., Moscow
##OWNER=NIST Mass Spectrometry Data Center
Collection (C) 2014 copyright by the U.S. Secretary of Commerce
on behalf of the United States of America. All rights reserved.
##CAS REGISTRY NO=16958-78-4
##$NIST MASS SPEC NO=280511
##MOLFORM=C10 H17 Cl3 O2
##MW=274
##$NIST SOURCE=MSDC
##XUNITS=M/Z
##YUNITS=RELATIVE INTENSITY
##XFACTOR=1
##YFACTOR=1
##FIRSTX=25
##LASTX=121
##FIRSTY=90
##MAXX=121
##MINX=25
##MAXY=9999
##MINY=60
##NPOINTS=60
##PEAK TABLE=(XY..XY)
25,90 26,480 27,2392 28,681
29,3853 30,180 31,130 35,220
36,791 37,130 38,460 39,2372
40,611 41,8698 42,4094 43,9999
44,1591 45,90 47,410 48,140
49,190 50,120 51,190 52,160
53,470 54,681 55,6996 56,7667
57,9699 58,450 63,190 65,80
66,70 67,631 68,1822 69,5545
70,6676 71,5975 72,380 76,80
77,120 79,130 81,180 82,921
83,4054 84,5285 85,460 86,90
87,70 97,410 98,60 110,651
111,250 112,931 113,100 117,991
118,70 119,1031 120,70 121,330
##END=
