##TITLE=2,2'-Dinitrobibenzyl
##JCAMP-DX=4.24
##DATA TYPE=MASS SPECTRUM
##ORIGIN=Japan AIST/NIMC Database- Spectrum MS-IW-6729
##OWNER=NIST Mass Spectrometry Data Center
Collection (C) 2014 copyright by the U.S. Secretary of Commerce
on behalf of the United States of America. All rights reserved.
##CAS REGISTRY NO=16968-19-7
##$NIST MASS SPEC NO=242020
##MOLFORM=C14 H12 N2 O4
##MW=272
##$NIST SOURCE=MSDC
##XUNITS=M/Z
##YUNITS=RELATIVE INTENSITY
##XFACTOR=1
##YFACTOR=1
##FIRSTX=26
##LASTX=273
##FIRSTY=20
##MAXX=273
##MINX=26
##MAXY=9999
##MINY=10
##NPOINTS=187
##PEAK TABLE=(XY..XY)
26,20 27,239 28,70 29,10
30,879 31,10 37,20 38,119
39,1229 40,159 41,159 42,20
43,40 44,50 45,10 46,10
50,459 51,1579 52,719 53,349
54,40 55,50 57,20 58,10
60,50 61,30 62,269 63,1479
64,869 65,3549 66,679 67,119
68,20 69,70 70,60 71,50
72,10 73,10 74,189 75,419
76,1929 77,2989 78,8939 79,1299
80,339 81,99 82,219 83,80
84,60 85,10 86,70 87,149
88,499 89,2709 90,1219 91,1259
92,7799 93,2269 94,389 95,50
96,20 97,80 98,50 99,50
100,30 101,99 102,249 103,199
104,1499 105,1639 106,499 107,369
108,629 109,70 110,20 111,20
112,10 113,70 114,50 115,359
116,90 117,80 118,139 119,1169
120,6039 121,1379 122,199 123,20
124,10 125,40 126,149 127,229
128,259 129,90 130,99 131,20
132,80 133,20 134,869 135,499
136,9999 137,1299 138,149 139,339
140,139 141,109 142,30 143,20
144,30 145,20 146,159 147,20
148,60 149,30 150,359 151,649
152,1859 153,499 154,289 155,80
156,30 157,10 162,20 163,159
164,209 165,1139 166,499 167,439
168,189 169,60 170,40 171,10
174,30 175,70 176,679 177,569
178,1669 179,1609 180,1239 181,949
182,439 183,129 184,60 185,10
189,10 190,109 191,139 192,309
193,339 194,299 195,259 196,199
197,90 198,30 203,10 204,40
205,70 206,219 207,219 208,489
209,729 210,489 211,90 212,10
213,10 219,20 220,399 221,299
222,99 223,40 224,30 225,40
226,20 227,20 236,40 237,1139
238,659 239,119 240,20 242,50
243,10 253,10 255,1129 256,199
257,20 272,119 273,10
##END=
