##TITLE=Cobalt, octacarbonyl(zinc)di-, (2Co-Zn)
##JCAMP-DX=4.24
##DATA TYPE=MASS SPECTRUM
##ORIGIN=J.M.BURLITCH CORNELL UNIVERSITY, ITHACA, NEW YORK, USA
##OWNER=NIST Mass Spectrometry Data Center
Collection (C) 2014 copyright by the U.S. Secretary of Commerce
on behalf of the United States of America. All rights reserved.
##CAS REGISTRY NO=16985-99-2
##$NIST MASS SPEC NO=17110
##MOLFORM=C8 Co2 O8 Zn
##MW=406
##$NIST SOURCE=MSDC
##XUNITS=M/Z
##YUNITS=RELATIVE INTENSITY
##XFACTOR=1
##YFACTOR=1
##FIRSTX=59
##LASTX=406
##FIRSTY=3700
##MAXX=406
##MINX=59
##MAXY=9999
##MINY=280
##NPOINTS=29
##PEAK TABLE=(XY..XY)
59,3700 64,1700 71,290 87,6100
115,3700 118,6100 123,5200 130,430
143,1000 146,1200 151,4200 174,5900
179,1700 182,3200 202,6300 207,280
210,1400 230,9999 238,1600 258,2300
266,2600 269,280 286,750 294,3400
314,400 322,480 350,1000 378,3600
406,7200
##END=
