##TITLE=Pyrazon
##JCAMP-DX=4.24
##DATA TYPE=MASS SPECTRUM
##ORIGIN=NIST Mass Spectrometry Data Center, 1995
##OWNER=NIST Mass Spectrometry Data Center
Collection (C) 2014 copyright by the U.S. Secretary of Commerce
on behalf of the United States of America. All rights reserved.
##CAS REGISTRY NO=1698-60-8
##$NIST MASS SPEC NO=245204
##MOLFORM=C10 H8 Cl N3 O
##MW=221
##$NIST SOURCE=MSDC
##XUNITS=M/Z
##YUNITS=RELATIVE INTENSITY
##XFACTOR=1
##YFACTOR=1
##FIRSTX=26
##LASTX=225
##FIRSTY=45
##MAXX=225
##MINX=26
##MAXY=9999
##MINY=5
##NPOINTS=52
##PEAK TABLE=(XY..XY)
26,45 27,370 28,45 37,202
38,734 39,1178 40,712 41,194
44,433 47,13 48,23 49,5
50,834 51,2431 52,1545 53,801
61,173 62,118 63,1001 64,1184
65,844 66,155 67,6 68,445
73,48 74,525 75,851 76,133
77,9999 78,904 88,3475 89,85
90,1242 91,794 92,40 102,270
103,604 104,796 105,2233 110,6
119,6 130,775 131,314 138,12
158,131 193,10 220,4426 221,7767
222,2443 223,2704 224,280 225,17
##END=
