##TITLE=Cobalt, (cadmium)octacarbonyldi-, (2Co-Cd)
##JCAMP-DX=4.24
##DATA TYPE=MASS SPECTRUM
##ORIGIN=J.M.BURLITCH CORNELL UNIVERSITY, ITHACA, NEW YORK, USA
##OWNER=NIST Mass Spectrometry Data Center
Collection (C) 2014 copyright by the U.S. Secretary of Commerce
on behalf of the United States of America. All rights reserved.
##CAS REGISTRY NO=16986-00-8
##$NIST MASS SPEC NO=17768
##MOLFORM=C8 Cd Co2 O8
##MW=456
##$NIST SOURCE=MSDC
##XUNITS=M/Z
##YUNITS=RELATIVE INTENSITY
##XFACTOR=1
##YFACTOR=1
##FIRSTX=59
##LASTX=456
##FIRSTY=3400
##MAXX=456
##MINX=59
##MAXY=9999
##MINY=260
##NPOINTS=28
##PEAK TABLE=(XY..XY)
59,3400 71,270 87,5300 114,6900
115,4600 118,4500 130,350 143,1200
146,1000 173,6600 174,4500 201,6900
202,5500 229,3800 230,9999 232,4000
257,890 258,1700 260,1800 286,800
288,2100 314,2400 316,3800 344,2200
372,260 400,380 428,3800 456,9000
##END=
