##TITLE=Thiazole, 2-ethyl-4,5-dihydro-
##JCAMP-DX=4.24
##DATA TYPE=MASS SPECTRUM
##ORIGIN=T.-C.Huang ET AL.J.Agr.Food Chem.,46,224(1998)
##OWNER=NIST Mass Spectrometry Data Center
Collection (C) 2014 copyright by the U.S. Secretary of Commerce
on behalf of the United States of America. All rights reserved.
##CAS REGISTRY NO=16982-46-0
##$NIST MASS SPEC NO=292875
##MOLFORM=C5 H9 N S
##MW=115
##$NIST SOURCE=MSDC
##XUNITS=M/Z
##YUNITS=RELATIVE INTENSITY
##XFACTOR=1
##YFACTOR=1
##FIRSTX=40
##LASTX=117
##FIRSTY=1321
##MAXX=117
##MINX=40
##MAXY=9999
##MINY=100
##NPOINTS=32
##PEAK TABLE=(XY..XY)
40,1321 41,1481 42,220 43,1772
44,691 45,5655 46,2202 47,450
50,100 51,240 52,571 54,2202
56,1441 57,651 58,1892 59,6126
60,9999 61,1031 62,290 68,430
69,2492 71,240 83,621 84,220
87,310 88,671 89,2132 90,190
114,500 115,4954 116,500 117,721
##END=
