##TITLE=2-Methyl-2-octene
##JCAMP-DX=4.24
##DATA TYPE=MASS SPECTRUM
##ORIGIN=NIST Mass Spectrometry Data Center, 1990.
##OWNER=NIST Mass Spectrometry Data Center
Collection (C) 2014 copyright by the U.S. Secretary of Commerce
on behalf of the United States of America. All rights reserved.
##CAS REGISTRY NO=16993-86-5
##$NIST MASS SPEC NO=113524
##MOLFORM=C9 H18
##MW=126
##$NIST SOURCE=MSDC
##XUNITS=M/Z
##YUNITS=RELATIVE INTENSITY
##XFACTOR=1
##YFACTOR=1
##FIRSTX=26
##LASTX=127
##FIRSTY=138
##MAXX=127
##MINX=26
##MAXY=9999
##MINY=61
##NPOINTS=34
##PEAK TABLE=(XY..XY)
26,138 27,1263 28,493 29,1123
39,2215 41,7088 42,755 43,699
44,61 50,139 51,325 52,166
53,1102 54,481 55,3178 56,4447
57,1183 65,229 67,1229 69,9999
70,1595 71,136 77,169 79,185
81,168 82,222 83,609 84,636
85,68 97,123 98,187 111,341
126,2162 127,215
##END=
