##TITLE=Barbituric acid, 5-ethyl-5-(1-methyl-2-butenyl)-
##JCAMP-DX=4.24
##DATA TYPE=MASS SPECTRUM
##ORIGIN=H.Maurer,J.Chromatogr.,530,307(1990)
##OWNER=NIST Mass Spectrometry Data Center
Collection (C) 2014 copyright by the U.S. Secretary of Commerce
on behalf of the United States of America. All rights reserved.
##CAS REGISTRY NO=17013-35-3
##$NIST MASS SPEC NO=281576
##MOLFORM=C11 H16 N2 O3
##MW=224
##$NIST SOURCE=MSDC
##XUNITS=M/Z
##YUNITS=RELATIVE INTENSITY
##XFACTOR=1
##YFACTOR=1
##FIRSTX=52
##LASTX=224
##FIRSTY=40
##MAXX=224
##MINX=52
##MAXY=9999
##MINY=40
##NPOINTS=44
##PEAK TABLE=(XY..XY)
52,40 53,400 54,110 55,691
56,110 57,70 61,290 65,40
66,40 67,470 68,550 69,9999
70,881 79,70 80,150 81,150
83,110 84,40 85,150 86,40
87,110 98,360 112,70 123,40
124,70 127,70 129,470 135,70
136,40 141,2923 142,110 152,150
153,70 154,40 155,260 156,2923
157,1722 158,110 159,70 180,40
195,3073 196,360 198,40 224,70
##END=
