##TITLE=(S)-(+)-4-Isopropyl-2-oxazolidinone
##JCAMP-DX=4.24
##DATA TYPE=MASS SPECTRUM
##ORIGIN=NIST Mass Spectrometry Data Center, 1994
##OWNER=NIST Mass Spectrometry Data Center
Collection (C) 2014 copyright by the U.S. Secretary of Commerce
on behalf of the United States of America. All rights reserved.
##CAS REGISTRY NO=17016-83-0
##$NIST MASS SPEC NO=136055
##MOLFORM=C6 H11 N O2
##MW=129
##$NIST SOURCE=MSDC
##XUNITS=M/Z
##YUNITS=RELATIVE INTENSITY
##XFACTOR=1
##YFACTOR=1
##FIRSTX=15
##LASTX=129
##FIRSTY=1827
##MAXX=129
##MINX=15
##MAXY=9999
##MINY=101
##NPOINTS=29
##PEAK TABLE=(XY..XY)
15,1827 26,225 27,1644 28,2453
29,807 30,716 38,275 39,2239
40,503 41,2983 42,6157 43,3468
44,394 50,114 51,113 52,160
53,186 54,301 55,347 56,663
57,331 58,3336 68,114 70,216
85,4078 86,9999 87,1144 88,101
129,448
##END=
