##TITLE=4-Nitrophenanthrene
##JCAMP-DX=4.24
##DATA TYPE=MASS SPECTRUM
##ORIGIN=Pu Leung, NIH, Bethesda, MD
##OWNER=NIST Mass Spectrometry Data Center
Collection (C) 2014 copyright by the U.S. Secretary of Commerce
on behalf of the United States of America. All rights reserved.
##CAS REGISTRY NO=17024-17-8
##$NIST MASS SPEC NO=214142
##MOLFORM=C14 H9 N O2
##MW=223
##$NIST SOURCE=MSDC
##XUNITS=M/Z
##YUNITS=RELATIVE INTENSITY
##XFACTOR=1
##YFACTOR=1
##FIRSTX=41
##LASTX=224
##FIRSTY=1286
##MAXX=224
##MINX=41
##MAXY=9999
##MINY=203
##NPOINTS=62
##PEAK TABLE=(XY..XY)
41,1286 43,1039 44,260 45,1392
46,1104 49,601 50,3973 51,4886
52,1404 53,560 55,840 56,377
57,1327 61,1157 62,2325 63,5340
64,1331 65,9999 66,1234 67,219
69,674 73,292 74,1514 75,1299
76,690 77,1692 78,223 81,252
82,264 83,678 84,248 85,739
86,767 87,718 88,1035 89,2394
90,1282 91,653 92,507 93,341
97,223 105,300 106,479 111,495
139,296 149,203 150,852 151,844
163,597 164,718 165,5827 166,1019
167,483 174,475 175,564 176,2780
177,832 192,471 193,2735 194,637
223,1599 224,215
##END=
