##TITLE=Rhenium tetrafluoride oxide
##JCAMP-DX=4.24
##DATA TYPE=MASS SPECTRUM
##ORIGIN=R.T.PAINE UNIV. CALIF., LOS ALAMOS, NEW MEXICO, USA
##OWNER=NIST Mass Spectrometry Data Center
Collection (C) 2014 copyright by the U.S. Secretary of Commerce
on behalf of the United States of America. All rights reserved.
##CAS REGISTRY NO=17026-29-8
##$NIST MASS SPEC NO=67981
##MOLFORM=F4 O Re
##MW=279
##$NIST SOURCE=MSDC
##XUNITS=M/Z
##YUNITS=RELATIVE INTENSITY
##XFACTOR=1
##YFACTOR=1
##FIRSTX=185
##LASTX=279
##FIRSTY=600
##MAXX=279
##MINX=185
##MAXY=9999
##MINY=200
##NPOINTS=22
##PEAK TABLE=(XY..XY)
185,600 187,1200 201,200 203,700
204,400 206,700 220,400 222,600
223,400 225,800 239,700 241,1000
242,300 244,500 255,200 257,300
258,5300 260,9999 261,200 263,300
277,900 279,1600
##END=
