##TITLE=3,6-Heptanedione
##JCAMP-DX=4.24
##DATA TYPE=MASS SPECTRUM
##ORIGIN=James Little,Eastman Chem.Co.,Kingsport,TN
##OWNER=NIST Mass Spectrometry Data Center
Collection (C) 2014 copyright by the U.S. Secretary of Commerce
on behalf of the United States of America. All rights reserved.
##CAS REGISTRY NO=1703-51-1
##$NIST MASS SPEC NO=288702
##MOLFORM=C7 H12 O2
##MW=128
##$NIST SOURCE=MSDC
##XUNITS=M/Z
##YUNITS=RELATIVE INTENSITY
##XFACTOR=1
##YFACTOR=1
##FIRSTX=28
##LASTX=100
##FIRSTY=691
##MAXX=100
##MINX=28
##MAXY=9999
##MINY=60
##NPOINTS=24
##PEAK TABLE=(XY..XY)
28,691 29,5175 30,120 31,80
39,310 41,410 42,631 43,9999
44,250 45,70 53,150 55,410
56,310 57,6506 58,270 67,70
70,60 71,1511 72,90 81,150
85,230 95,70 99,5735 100,310
##END=
