##TITLE=2-Pyridinesulfonylacetonitrile
##JCAMP-DX=4.24
##DATA TYPE=MASS SPECTRUM
##ORIGIN=NIST Mass Spectrometry Data Center, 1994
##OWNER=NIST Mass Spectrometry Data Center
Collection (C) 2014 copyright by the U.S. Secretary of Commerce
on behalf of the United States of America. All rights reserved.
##CAS REGISTRY NO=170449-34-0
##$NIST MASS SPEC NO=136041
##MOLFORM=C7 H6 N2 O2 S
##MW=182
##$NIST SOURCE=MSDC
##XUNITS=M/Z
##YUNITS=RELATIVE INTENSITY
##XFACTOR=1
##YFACTOR=1
##FIRSTX=12
##LASTX=184
##FIRSTY=37
##MAXX=184
##MINX=12
##MAXY=9999
##MINY=12
##NPOINTS=47
##PEAK TABLE=(XY..XY)
12,37 13,88 25,37 26,303
27,697 28,336 32,13 37,128
38,378 39,607 40,978 41,127
44,28 45,14 48,325 49,188
50,1199 51,4413 52,1325 53,61
57,69 58,19 62,22 63,51
64,187 65,68 66,25 67,21
68,12 69,42 70,31 75,239
76,352 78,9999 79,644 80,25
81,23 82,31 83,19 91,31
118,1890 119,147 126,17 142,96
182,304 183,33 184,20
##END=
