##TITLE=3-Hexanone, 4-methyl-
##JCAMP-DX=4.24
##DATA TYPE=MASS SPECTRUM
##ORIGIN=A.QUAYLE, SHELL LTD., THORNTON RES. CENT., CHESTER, CHES., UK
##OWNER=NIST Mass Spectrometry Data Center
Collection (C) 2014 copyright by the U.S. Secretary of Commerce
on behalf of the United States of America. All rights reserved.
##CAS REGISTRY NO=17042-16-9
##$NIST MASS SPEC NO=68031
##MOLFORM=C7 H14 O
##MW=114
##$NIST SOURCE=MSDC
##XUNITS=M/Z
##YUNITS=RELATIVE INTENSITY
##XFACTOR=1
##YFACTOR=1
##FIRSTX=26
##LASTX=115
##FIRSTY=162
##MAXX=115
##MINX=26
##MAXY=9999
##MINY=98
##NPOINTS=18
##PEAK TABLE=(XY..XY)
26,162 27,1000 29,4981 30,150
39,411 41,1577 42,98 43,237
53,124 55,271 56,573 57,9999
58,441 85,935 86,698 99,101
114,898 115,105
##END=
