##TITLE=Demeton-S-methyl sulfone
##JCAMP-DX=4.24
##DATA TYPE=MASS SPECTRUM
##ORIGIN=CATALOGUE OF MASS SPECTRA OF PESTICIDES, APRIL, 1975; J. FREUDENTHAL & L. G. GRAMBERG, NAT'L INST. OF PUBLIC HEALTH, THE NETHERLANDS
##OWNER=NIST Mass Spectrometry Data Center
Collection (C) 2014 copyright by the U.S. Secretary of Commerce
on behalf of the United States of America. All rights reserved.
##CAS REGISTRY NO=17040-19-6
##$NIST MASS SPEC NO=53763
##MOLFORM=C6 H15 O5 P S2
##MW=262
##$NIST SOURCE=MSDC
##XUNITS=M/Z
##YUNITS=RELATIVE INTENSITY
##XFACTOR=1
##YFACTOR=1
##FIRSTX=15
##LASTX=171
##FIRSTY=479
##MAXX=171
##MINX=15
##MAXY=9999
##MINY=106
##NPOINTS=32
##PEAK TABLE=(XY..XY)
15,479 27,323 29,644 31,116
45,182 47,542 49,147 58,111
59,593 60,343 61,271 63,191
75,106 77,140 79,1147 80,125
93,499 95,235 109,6313 110,1130
111,385 112,456 125,4444 126,171
127,507 128,139 137,212 142,1075
168,1217 169,9999 170,689 171,621
##END=
