##TITLE=Benzofuran, 7-methyl-
##JCAMP-DX=4.24
##DATA TYPE=MASS SPECTRUM
##ORIGIN=MC-90
##OWNER=NIST Mass Spectrometry Data Center
Collection (C) 2014 copyright by the U.S. Secretary of Commerce
on behalf of the United States of America. All rights reserved.
##CAS REGISTRY NO=17059-52-8
##$NIST MASS SPEC NO=30268
##MOLFORM=C9 H8 O
##MW=132
##$NIST SOURCE=MSDC
##XUNITS=M/Z
##YUNITS=RELATIVE INTENSITY
##XFACTOR=1
##YFACTOR=1
##FIRSTX=25
##LASTX=134
##FIRSTY=75
##MAXX=134
##MINX=25
##MAXY=9999
##MINY=46
##NPOINTS=52
##PEAK TABLE=(XY..XY)
25,75 26,467 27,870 28,242
29,550 37,439 38,662 39,1167
40,87 41,70 43,70 49,237
50,1535 51,3152 52,319 53,407
60,52 61,307 62,639 63,1271
64,204 65,227 66,508 73,124
74,629 75,528 76,512 77,2286
78,1416 79,100 82,61 84,46
85,66 86,110 87,145 88,50
89,248 90,86 98,103 99,61
100,60 101,193 102,836 103,1903
104,1809 105,184 117,173 130,608
131,9148 132,9999 133,982 134,55
##END=
