##TITLE=Diazene, bis(4-butoxyphenyl)-, 1-oxide
##JCAMP-DX=4.24
##DATA TYPE=MASS SPECTRUM
##ORIGIN=Japan AIST/NIMC Database- Spectrum MS-NW-4455
##OWNER=NIST Mass Spectrometry Data Center
Collection (C) 2014 copyright by the U.S. Secretary of Commerce
on behalf of the United States of America. All rights reserved.
##CAS REGISTRY NO=17051-01-3
##$NIST MASS SPEC NO=232965
##MOLFORM=C20 H26 N2 O3
##MW=342
##$NIST SOURCE=MSDC
##XUNITS=M/Z
##YUNITS=RELATIVE INTENSITY
##XFACTOR=1
##YFACTOR=1
##FIRSTX=15
##LASTX=344
##FIRSTY=30
##MAXX=344
##MINX=15
##MAXY=9999
##MINY=10
##NPOINTS=209
##PEAK TABLE=(XY..XY)
15,30 18,20 26,109 27,989
28,259 29,6599 30,159 31,10
37,20 38,109 39,1159 40,80
41,4539 42,189 43,139 44,30
45,10 50,249 51,219 52,809
53,339 54,80 55,909 56,229
57,6569 58,339 61,10 62,60
63,479 64,669 65,2639 66,209
67,60 68,80 69,50 70,10
71,20 72,20 74,20 75,119
76,669 77,299 78,219 79,1379
80,619 81,489 82,40 83,10
84,10 85,10 87,10 88,10
89,40 90,139 91,259 92,209
93,4409 94,779 95,159 96,70
97,40 98,10 101,10 102,30
103,60 104,50 105,119 106,439
107,9999 108,2259 109,859 110,159
111,20 113,10 114,20 115,60
116,40 117,60 118,30 119,99
120,129 121,559 122,259 123,3119
124,1919 125,149 126,20 127,90
128,90 129,50 130,30 131,139
132,80 133,109 134,149 135,70
136,90 137,109 138,10 139,70
140,30 141,20 142,10 143,20
144,50 145,80 146,60 147,139
148,60 149,7759 150,889 151,70
152,10 153,20 154,20 155,50
156,30 157,109 158,50 159,30
160,30 161,50 162,20 163,1709
164,419 165,99 166,30 167,20
168,40 169,10 170,30 171,30
172,30 173,149 174,99 175,30
176,70 177,899 178,189 179,669
180,289 181,40 182,20 183,50
184,80 185,179 186,139 187,80
188,20 189,10 191,10 193,30
195,10 196,20 197,20 198,30
199,50 200,60 201,899 202,439
203,60 204,10 211,10 212,50
213,349 214,70 215,10 217,30
225,10 226,10 229,369 230,229
231,30 237,10 239,10 240,20
241,50 242,20 243,10 253,10
255,10 256,20 257,139 258,389
259,70 260,10 269,50 270,50
271,10 284,10 285,269 286,489
287,80 288,10 299,30 300,10
313,10 314,20 315,10 324,20
326,289 327,90 328,20 338,10
340,10 341,60 342,1729 343,409
344,50
##END=
