##TITLE=Triphenylene, 2-methyl-
##JCAMP-DX=4.24
##DATA TYPE=MASS SPECTRUM
##OWNER=NIST Mass Spectrometry Data Center
Collection (C) 2014 copyright by the U.S. Secretary of Commerce
on behalf of the United States of America. All rights reserved.
##CAS REGISTRY NO=1705-84-6
##$NIST MASS SPEC NO=11673
##MOLFORM=C19 H14
##MW=242
##$NIST SOURCE=MSDC
##XUNITS=M/Z
##YUNITS=RELATIVE INTENSITY
##XFACTOR=1
##YFACTOR=1
##FIRSTX=36
##LASTX=245
##FIRSTY=10
##MAXX=245
##MINX=36
##MAXY=9999
##MINY=10
##NPOINTS=151
##PEAK TABLE=(XY..XY)
36,10 37,10 38,30 39,130
40,20 41,40 42,10 43,20
44,240 45,10 48,20 49,10
50,80 51,90 52,20 53,10
54,10 55,10 56,20 57,30
58,10 59,10 61,10 62,60
63,130 64,20 65,20 66,10
67,10 68,10 69,10 71,10
73,10 74,90 75,90 76,30
77,30 78,10 79,40 80,30
81,20 82,10 83,10 85,20
86,80 87,130 88,60 89,30
91,10 92,10 93,60 94,90
95,60 96,10 97,10 98,70
99,80 100,120 101,50 102,10
103,10 105,30 106,130 107,170
108,120 109,10 110,40 111,60
112,130 113,340 114,30 115,20
117,20 118,130 119,370 120,791
121,911 122,50 123,20 124,10
125,10 126,20 127,10 134,20
135,20 136,10 137,20 138,10
139,30 146,10 147,10 149,10
150,50 151,30 152,20 158,10
159,10 161,20 162,20 163,70
164,20 165,40 166,10 173,10
174,50 175,30 176,50 177,10
178,10 185,20 186,30 187,120
188,50 189,110 190,20 191,10
198,30 199,30 200,120 201,40
202,120 203,30 209,10 210,10
211,90 212,40 213,270 214,70
215,510 216,110 217,10 222,20
223,20 224,150 225,80 226,550
227,160 228,50 229,10 234,10
235,40 236,30 237,340 238,120
239,2102 240,771 241,2202 242,9999
243,1992 244,190 245,10
##END=
