##TITLE=Benzenamine, N-[(2-nitrophenyl)methylene]-
##JCAMP-DX=4.24
##DATA TYPE=MASS SPECTRUM
##OWNER=NIST Mass Spectrometry Data Center
Collection (C) 2014 copyright by the U.S. Secretary of Commerce
on behalf of the United States of America. All rights reserved.
##CAS REGISTRY NO=17064-77-6
##$NIST MASS SPEC NO=10780
##MOLFORM=C13 H10 N2 O2
##MW=226
##$NIST SOURCE=MSDC
##XUNITS=M/Z
##YUNITS=RELATIVE INTENSITY
##XFACTOR=1
##YFACTOR=1
##FIRSTX=51
##LASTX=227
##FIRSTY=5205
##MAXX=227
##MINX=51
##MAXY=9999
##MINY=100
##NPOINTS=16
##PEAK TABLE=(XY..XY)
51,5205 52,500 77,9999 78,801
152,1601 153,155 168,1902 169,200
179,9899 180,1001 181,100 209,9709
210,1201 211,100 226,6506 227,801
##END=
