##TITLE=Naphthalene, 1,2,3,6,7,8-hexachloro-
##JCAMP-DX=4.24
##DATA TYPE=MASS SPECTRUM
##ORIGIN=H. Fales, LC, NHLBI, NIH, Bethesda, MD 20892
##OWNER=NIST Mass Spectrometry Data Center
Collection (C) 2014 copyright by the U.S. Secretary of Commerce
on behalf of the United States of America. All rights reserved.
##CAS REGISTRY NO=17062-87-2
##$NIST MASS SPEC NO=132472
##MOLFORM=C10 H2 Cl6
##MW=332
##$NIST SOURCE=MSDC
##XUNITS=M/Z
##YUNITS=RELATIVE INTENSITY
##XFACTOR=1
##YFACTOR=1
##FIRSTX=41
##LASTX=340
##FIRSTY=67
##MAXX=340
##MINX=41
##MAXY=9999
##MINY=3
##NPOINTS=194
##PEAK TABLE=(XY..XY)
41,67 43,298 45,68 47,703
49,1817 50,749 51,731 52,32
55,104 56,23 57,105 61,3983
62,1603 63,331 64,41 66,214
67,249 69,32 71,94 72,559
73,1299 74,3015 75,1302 76,107
79,2382 80,1194 84,2153 85,2039
86,1881 87,568 88,140 89,14
91,25 92,3 94,67 96,782
97,4811 98,3829 99,1400 100,55
101,60 102,263 103,238 104,20
105,9 106,93 108,1820 109,1416
110,808 111,503 112,34 114,2072
115,2305 116,1098 118,144 119,251
120,1156 121,1263 122,2816 123,3068
124,1097 125,471 126,115 129,3
131,344 132,2550 133,2318 134,966
135,376 136,57 137,36 138,23
139,7 141,17 142,136 143,228
144,240 145,292 147,233 149,657
150,850 151,695 152,118 154,55
155,118 156,338 157,1085 158,2066
159,1871 160,2348 161,625 162,549
163,61 164,5 165,23 166,105
167,228 168,168 169,142 170,85
171,37 172,30 173,4 177,5
178,27 179,39 180,23 181,88
182,53 183,71 184,34 185,32
186,6 189,5 191,80 192,670
193,569 194,6312 195,1674 196,3782
197,781 198,733 199,132 200,37
202,46 203,31 204,90 205,22
206,75 207,14 208,24 215,19
216,24 217,102 218,34 219,85
221,43 223,5 226,50 228,3243
229,1709 230,7550 231,2335 232,4818
233,950 234,1527 235,128 236,249
238,112 240,71 242,35 244,5
251,67 253,89 255,48 256,3
257,10 259,3 262,392 264,9999
265,1499 266,9757 267,950 268,6036
269,633 270,1183 271,177 272,99
273,7 274,45 276,16 279,3
285,8 287,13 289,8 291,9
296,22 298,3835 300,5841 302,4091
303,392 304,1067 305,182 306,110
307,18 308,25 310,15 312,9
332,297 334,581 336,500 338,231
339,33 340,34
##END=
