##TITLE=4-Pyrenamine
##JCAMP-DX=4.24
##DATA TYPE=MASS SPECTRUM
##ORIGIN=Organic Synthesis Lab, MSU, Moscow.TRC 199q
##OWNER=NIST Mass Spectrometry Data Center
Collection (C) 2014 copyright by the U.S. Secretary of Commerce
on behalf of the United States of America. All rights reserved.
##CAS REGISTRY NO=17075-03-5
##$NIST MASS SPEC NO=326018
##MOLFORM=C16 H11 N
##MW=217
##$NIST SOURCE=MSDC
##XUNITS=M/Z
##YUNITS=RELATIVE INTENSITY
##XFACTOR=1
##YFACTOR=1
##FIRSTX=68
##LASTX=219
##FIRSTY=40
##MAXX=219
##MINX=68
##MAXY=9999
##MINY=20
##NPOINTS=44
##PEAK TABLE=(XY..XY)
68,40 69,20 72,70 74,60
75,40 83,20 85,40 86,70
87,90 88,20 98,40 99,110
100,190 110,50 111,40 113,20
137,40 150,50 161,40 162,50
163,130 164,50 165,50 174,50
185,50 186,100 187,530 188,390
189,2662 190,621 191,70 198,100
199,110 200,881 201,220 202,40
212,50 213,50 214,240 215,100
216,380 217,9999 218,1672 219,150
##END=
