##TITLE=Hexyl octyl ether
##JCAMP-DX=4.24
##DATA TYPE=MASS SPECTRUM
##ORIGIN=NIST Mass Spectrometry Data Center, 1990.
##OWNER=NIST Mass Spectrometry Data Center
Collection (C) 2014 copyright by the U.S. Secretary of Commerce
on behalf of the United States of America. All rights reserved.
##CAS REGISTRY NO=17071-54-4
##$NIST MASS SPEC NO=114711
##MOLFORM=C14 H30 O
##MW=214
##$NIST SOURCE=MSDC
##XUNITS=M/Z
##YUNITS=RELATIVE INTENSITY
##XFACTOR=1
##YFACTOR=1
##FIRSTX=27
##LASTX=143
##FIRSTY=1057
##MAXX=143
##MINX=27
##MAXY=9999
##MINY=72
##NPOINTS=38
##PEAK TABLE=(XY..XY)
27,1057 28,239 29,2092 31,231
39,1081 41,5879 42,2415 43,9999
44,551 45,315 53,411 54,501
55,4447 56,6090 57,8474 58,363
67,653 68,1176 69,4447 70,2383
71,6640 72,410 73,103 81,180
82,1163 83,3925 84,4771 85,9624
86,536 87,92 97,255 101,90
103,384 111,848 112,969 113,508
115,168 143,72
##END=
