##TITLE=Hydrazine, 1,1-diphenyl-2-(2,4,6-trinitrophenyl)-
##JCAMP-DX=4.24
##DATA TYPE=MASS SPECTRUM
##ORIGIN=Japan AIST/NIMC Database- Spectrum MS-NW-5909
##OWNER=NIST Mass Spectrometry Data Center
Collection (C) 2014 copyright by the U.S. Secretary of Commerce
on behalf of the United States of America. All rights reserved.
##CAS REGISTRY NO=1707-75-1
##$NIST MASS SPEC NO=233263
##MOLFORM=C18 H13 N5 O6
##MW=395
##$NIST SOURCE=MSDC
##XUNITS=M/Z
##YUNITS=RELATIVE INTENSITY
##XFACTOR=1
##YFACTOR=1
##FIRSTX=16
##LASTX=397
##FIRSTY=10
##MAXX=397
##MINX=16
##MAXY=9999
##MINY=10
##NPOINTS=217
##PEAK TABLE=(XY..XY)
16,10 26,40 27,159 28,70
29,30 30,2609 31,10 37,139
38,229 39,959 40,119 41,80
42,20 43,40 44,259 45,10
46,119 48,10 49,50 50,469
51,1769 52,489 53,109 54,40
55,30 56,10 57,30 58,119
59,10 60,40 61,299 62,689
63,819 64,359 65,759 66,719
67,80 68,30 69,109 70,179
71,279 72,30 73,80 74,619
75,269 76,339 77,3839 78,619
79,70 80,70 81,30 82,70
83,1229 84,339 85,40 86,50
87,149 88,169 89,349 90,1139
91,249 92,229 93,169 94,50
95,10 98,20 99,20 100,30
101,80 102,99 103,90 104,159
105,319 106,40 107,30 108,20
109,10 112,10 113,60 114,109
115,369 116,99 117,70 118,30
119,30 120,219 121,20 122,10
123,10 124,20 125,30 126,70
127,129 128,189 129,70 130,40
134,10 135,40 136,299 137,40
138,40 139,289 140,249 141,339
142,219 143,109 144,10 148,10
149,10 150,179 151,149 152,139
153,109 154,179 155,30 156,10
163,10 164,40 165,60 166,619
167,4029 168,6629 169,9999 170,1279
171,90 176,10 177,20 178,20
179,40 180,40 181,20 182,70
183,60 184,10 189,10 190,10
191,20 192,10 194,40 195,10
196,389 197,50 198,419 199,40
200,30 201,20 202,20 203,20
204,20 205,10 210,209 211,60
212,70 213,20 214,20 215,30
216,20 217,10 218,10 219,10
221,10 224,20 225,30 226,279
227,60 228,2359 229,229 230,50
231,10 240,10 241,20 242,70
243,50 244,20 245,10 246,10
252,10 253,99 254,80 255,989
256,289 257,40 258,10 259,30
260,10 268,10 269,10 270,30
271,139 272,50 273,10 284,10
285,10 286,20 289,10 291,10
300,20 301,239 302,70 303,10
316,10 317,90 318,20 331,10
332,10 346,20 347,599 348,199
349,40 350,10 378,80 379,20
393,50 394,2639 395,989 396,189
397,30
##END=
