##TITLE=Naphthalene, 1-(1,1-dimethylethyl)-
##JCAMP-DX=4.24
##DATA TYPE=MASS SPECTRUM
##ORIGIN=AP-2078
##OWNER=NIST Mass Spectrometry Data Center
Collection (C) 2014 copyright by the U.S. Secretary of Commerce
on behalf of the United States of America. All rights reserved.
##CAS REGISTRY NO=17085-91-5
##$NIST MASS SPEC NO=7742
##MOLFORM=C14 H16
##MW=184
##$NIST SOURCE=MSDC
##XUNITS=M/Z
##YUNITS=RELATIVE INTENSITY
##XFACTOR=1
##YFACTOR=1
##FIRSTX=36
##LASTX=186
##FIRSTY=6
##MAXX=186
##MINX=36
##MAXY=9999
##MINY=3
##NPOINTS=122
##PEAK TABLE=(XY..XY)
36,6 37,25 38,84 39,818
40,145 41,1500 42,82 43,38
44,295 45,4 48,3 49,8
50,260 51,503 52,95 53,82
54,8 55,189 56,26 57,184
58,26 61,36 62,196 63,572
64,156 65,106 66,11 67,11
68,6 69,46 70,78 71,67
72,17 73,12 74,272 75,394
76,778 77,561 78,234 79,12
80,6 81,56 82,301 83,297
84,106 85,57 86,86 87,172
88,61 89,156 90,23 91,109
92,67 93,5 95,6 96,4
97,9 98,73 99,72 100,45
101,178 102,200 103,43 104,6
105,11 109,6 110,17 111,28
112,9 113,66 114,34 115,711
116,78 117,14 122,8 123,6
124,6 125,46 126,356 127,728
128,1720 129,1900 130,201 131,11
137,17 138,22 139,241 140,62
141,3390 142,506 143,61 144,6
149,14 150,124 151,378 152,1390
153,1180 154,633 155,163 156,22
162,11 163,92 164,78 165,539
166,138 167,300 168,116 169,9999
170,1440 171,98 172,6 176,11
177,6 178,17 179,11 180,3
181,9 182,11 183,22 184,3390
185,539 186,39
##END=
