##TITLE=1,3-Dioxolane, 2-hexyl-
##JCAMP-DX=4.24
##DATA TYPE=MASS SPECTRUM
##ORIGIN=W.Jennings, T.Shibamoto
##OWNER=NIST Mass Spectrometry Data Center
Collection (C) 2014 copyright by the U.S. Secretary of Commerce
on behalf of the United States of America. All rights reserved.
##CAS REGISTRY NO=1708-34-5
##$NIST MASS SPEC NO=285287
##MOLFORM=C9 H18 O2
##MW=158
##$NIST SOURCE=MSDC
##XUNITS=M/Z
##YUNITS=RELATIVE INTENSITY
##XFACTOR=1
##YFACTOR=1
##FIRSTX=41
##LASTX=157
##FIRSTY=70
##MAXX=157
##MINX=41
##MAXY=9999
##MINY=70
##NPOINTS=17
##PEAK TABLE=(XY..XY)
41,70 43,991 44,791 45,5195
46,70 55,190 57,390 58,280
71,70 73,9999 74,1692 75,280
81,70 85,190 88,70 101,70
157,1091
##END=
