##TITLE=O-Methyl S-2-diethylaminoethyl ethylphosphonothiolate
##JCAMP-DX=4.24
##DATA TYPE=MASS SPECTRUM
##ORIGIN=VERIFIN - Methodology B1-1979
##OWNER=NIST Mass Spectrometry Data Center
Collection (C) 2014 copyright by the U.S. Secretary of Commerce
on behalf of the United States of America. All rights reserved.
##CAS REGISTRY NO=170800-77-8
##$NIST MASS SPEC NO=226158
##MOLFORM=C9 H22 N O2 P S
##MW=239
##$NIST SOURCE=MSDC
##XUNITS=M/Z
##YUNITS=RELATIVE INTENSITY
##XFACTOR=1
##YFACTOR=1
##FIRSTX=27
##LASTX=238
##FIRSTY=100
##MAXX=238
##MINX=27
##MAXY=9999
##MINY=10
##NPOINTS=28
##PEAK TABLE=(XY..XY)
27,100 28,100 29,200 30,200
41,60 42,300 43,50 44,300
56,400 57,80 58,600 59,50
61,70 70,300 71,600 72,200
79,500 84,600 85,60 86,9999
87,600 98,50 99,2402 100,300
107,600 130,70 167,200 238,10
##END=
