##TITLE=Furan, 2,5-dihydro-
##JCAMP-DX=4.24
##DATA TYPE=MASS SPECTRUM
##ORIGIN=Japan AIST/NIMC Database- Spectrum MS-NW-5071
##OWNER=NIST Mass Spectrometry Data Center
Collection (C) 2014 copyright by the U.S. Secretary of Commerce
on behalf of the United States of America. All rights reserved.
##CAS REGISTRY NO=1708-29-8
##$NIST MASS SPEC NO=227714
##MOLFORM=C4 H6 O
##MW=70
##$NIST SOURCE=MSDC
##XUNITS=M/Z
##YUNITS=RELATIVE INTENSITY
##XFACTOR=1
##YFACTOR=1
##FIRSTX=12
##LASTX=72
##FIRSTY=30
##MAXX=72
##MINX=12
##MAXY=9999
##MINY=10
##NPOINTS=43
##PEAK TABLE=(XY..XY)
12,30 13,70 14,179 15,349
16,20 17,10 18,30 24,20
25,99 26,429 27,1219 28,369
29,1879 30,80 31,269 32,70
33,20 34,60 35,10 36,80
37,589 38,1139 39,8369 40,2649
41,9999 42,7699 43,359 44,249
45,20 48,20 49,70 50,169
51,129 52,60 53,40 54,30
55,80 66,10 68,349 69,2619
70,9129 71,559 72,169
##END=
