##TITLE=Azobenzene, (E)-
##JCAMP-DX=4.24
##DATA TYPE=MASS SPECTRUM
##ORIGIN=GAZ DE FRANCE, DELORME, PARIS, FRANCE
##OWNER=NIST Mass Spectrometry Data Center
Collection (C) 2014 copyright by the U.S. Secretary of Commerce
on behalf of the United States of America. All rights reserved.
##CAS REGISTRY NO=17082-12-1
##$NIST MASS SPEC NO=7603
##MOLFORM=C12 H10 N2
##MW=182
##$NIST SOURCE=MSDC
##XUNITS=M/Z
##YUNITS=RELATIVE INTENSITY
##XFACTOR=1
##YFACTOR=1
##FIRSTX=26
##LASTX=183
##FIRSTY=28
##MAXX=183
##MINX=26
##MAXY=9999
##MINY=13
##NPOINTS=38
##PEAK TABLE=(XY..XY)
26,28 27,265 37,51 38,149
39,248 40,25 41,25 49,13
50,196 51,2078 52,78 61,17
62,44 63,179 64,207 65,82
74,61 75,63 76,39 77,9999
78,627 89,16 90,15 91,49
93,28 102,41 105,180 106,137
115,102 127,35 128,80 139,38
151,124 152,482 153,414 154,94
182,2732 183,340
##END=
