##TITLE=Edifenphos
##JCAMP-DX=4.24
##DATA TYPE=MASS SPECTRUM
##ORIGIN=NIST Mass Spectrometry Data Center, 1998.
##OWNER=NIST Mass Spectrometry Data Center
Collection (C) 2014 copyright by the U.S. Secretary of Commerce
on behalf of the United States of America. All rights reserved.
##CAS REGISTRY NO=17109-49-8
##$NIST MASS SPEC NO=291757
##MOLFORM=C14 H15 O2 P S2
##MW=310
##$NIST SOURCE=MSDC
##XUNITS=M/Z
##YUNITS=RELATIVE INTENSITY
##XFACTOR=1
##YFACTOR=1
##FIRSTX=15
##LASTX=314
##FIRSTY=10
##MAXX=314
##MINX=15
##MAXY=9999
##MINY=10
##NPOINTS=147
##PEAK TABLE=(XY..XY)
15,10 26,40 27,260 28,30
29,480 30,10 37,10 38,80
39,990 40,40 41,10 43,50
44,10 45,360 46,10 47,230
48,10 49,10 50,230 51,790
52,70 53,20 57,90 58,150
59,100 60,20 61,20 62,70
63,470 64,10 65,3110 66,540
67,20 68,20 69,990 70,70
71,90 72,10 73,10 74,70
75,90 76,70 77,740 78,150
79,30 80,10 81,90 82,280
83,210 84,170 85,20 86,10
89,10 91,30 92,10 93,40
94,90 95,30 96,40 97,100
98,10 99,10 102,10 103,10
104,20 105,50 106,20 107,40
108,690 109,9999 110,2300 111,660
112,100 113,10 115,20 121,20
122,10 123,140 124,10 125,30
126,10 127,10 128,10 134,10
135,20 136,10 137,60 138,70
139,60 140,100 141,290 142,30
143,20 151,10 152,60 153,50
154,220 155,300 156,70 157,70
158,10 159,10 165,10 167,10
169,70 170,10 171,70 172,10
173,6809 174,560 175,370 176,20
181,10 183,90 184,220 185,240
186,540 187,120 188,30 189,60
190,10 191,10 201,2260 202,220
203,120 204,10 205,20 206,10
216,10 217,110 218,970 219,150
220,90 221,10 233,20 263,10
265,80 266,20 267,10 281,20
282,20 283,10 310,3090 311,540
312,330 313,50 314,10
##END=
