##TITLE=2,4-Furandicarboxylic acid, dimethyl ester
##JCAMP-DX=4.24
##DATA TYPE=MASS SPECTRUM
##ORIGIN=INST.OF CLINICAL BIOCHEM,RIKSHOSP,UNIV.OF OSLO,E.JELLUM,ET.A
##OWNER=NIST Mass Spectrometry Data Center
Collection (C) 2014 copyright by the U.S. Secretary of Commerce
on behalf of the United States of America. All rights reserved.
##CAS REGISTRY NO=1710-13-0
##$NIST MASS SPEC NO=24670
##MOLFORM=C8 H8 O5
##MW=184
##$NIST SOURCE=MSDC
##XUNITS=M/Z
##YUNITS=RELATIVE INTENSITY
##XFACTOR=1
##YFACTOR=1
##FIRSTX=29
##LASTX=184
##FIRSTY=800
##MAXX=184
##MINX=29
##MAXY=9999
##MINY=600
##NPOINTS=15
##PEAK TABLE=(XY..XY)
29,800 37,600 38,2500 39,1000
53,1300 59,1700 66,1700 69,900
85,600 93,1500 94,600 121,1600
153,9999 154,1000 184,4200
##END=
