##TITLE=Benzoyl chloride, 3-methyl-
##JCAMP-DX=4.24
##DATA TYPE=MASS SPECTRUM
##ORIGIN=Japan AIST/NIMC Database- Spectrum MS-NW-2821
##OWNER=NIST Mass Spectrometry Data Center
Collection (C) 2014 copyright by the U.S. Secretary of Commerce
on behalf of the United States of America. All rights reserved.
##CAS REGISTRY NO=1711-06-4
##$NIST MASS SPEC NO=228791
##MOLFORM=C8 H7 Cl O
##MW=154
##$NIST SOURCE=MSDC
##XUNITS=M/Z
##YUNITS=RELATIVE INTENSITY
##XFACTOR=1
##YFACTOR=1
##FIRSTX=15
##LASTX=157
##FIRSTY=10
##MAXX=157
##MINX=15
##MAXY=9999
##MINY=10
##NPOINTS=65
##PEAK TABLE=(XY..XY)
15,10 26,40 27,90 28,80
35,20 36,50 37,99 38,169
39,799 40,70 41,219 43,90
44,50 45,69 46,10 49,50
50,379 51,399 52,109 53,40
59,189 60,30 61,119 62,289
63,749 64,229 65,1809 66,99
73,40 74,109 75,90 76,80
77,60 80,10 82,10 84,10
85,40 86,70 87,50 88,20
89,689 90,419 91,6149 92,479
93,20 99,20 101,10 105,60
116,10 117,30 118,60 119,9999
120,889 121,60 124,10 125,50
126,10 127,10 136,20 138,10
153,10 154,739 155,70 156,229
157,20
##END=
