##TITLE=Benzoyl chloride, 4-iodo-
##JCAMP-DX=4.24
##DATA TYPE=MASS SPECTRUM
##ORIGIN=RADIAN CORP
##OWNER=NIST Mass Spectrometry Data Center
Collection (C) 2014 copyright by the U.S. Secretary of Commerce
on behalf of the United States of America. All rights reserved.
##CAS REGISTRY NO=1711-02-0
##$NIST MASS SPEC NO=73487
##MOLFORM=C7 H4 Cl I O
##MW=266
##$NIST SOURCE=MSDC
##XUNITS=M/Z
##YUNITS=RELATIVE INTENSITY
##XFACTOR=1
##YFACTOR=1
##FIRSTX=25
##LASTX=268
##FIRSTY=20
##MAXX=268
##MINX=25
##MAXY=9999
##MINY=10
##NPOINTS=48
##PEAK TABLE=(XY..XY)
25,20 26,80 27,40 35,110
36,50 37,620 38,630 39,110
48,20 49,500 50,4090 51,570
52,50 53,100 60,20 61,200
62,220 63,270 64,70 72,20
73,630 74,2340 75,2100 76,4020
77,470 82,10 85,50 86,30
99,10 100,20 101,390 103,60
104,1150 105,40 111,60 115,160
116,130 119,30 127,2630 128,1580
129,120 152,20 203,2490 204,70
231,9999 232,230 266,880 268,280
##END=
