##TITLE=Morpholine, 4-(phenylacetyl)-
##JCAMP-DX=4.24
##DATA TYPE=MASS SPECTRUM
##ORIGIN=Zaikin V.G., TIPS RAS, Moscow, Russia
##OWNER=NIST Mass Spectrometry Data Center
Collection (C) 2014 copyright by the U.S. Secretary of Commerce
on behalf of the United States of America. All rights reserved.
##CAS REGISTRY NO=17123-83-0
##$NIST MASS SPEC NO=307139
##MOLFORM=C12 H15 N O2
##MW=205
##$NIST SOURCE=MSDC
##XUNITS=M/Z
##YUNITS=RELATIVE INTENSITY
##XFACTOR=1
##YFACTOR=1
##FIRSTX=26
##LASTX=207
##FIRSTY=50
##MAXX=207
##MINX=26
##MAXY=9999
##MINY=20
##NPOINTS=59
##PEAK TABLE=(XY..XY)
26,50 27,120 28,20 29,220
30,120 36,30 39,270 40,30
41,140 42,641 43,80 44,80
45,210 46,30 50,60 51,150
52,30 54,60 55,120 56,961
57,831 58,60 62,50 63,220
64,70 65,901 66,50 70,3613
71,140 72,50 74,100 77,60
84,40 85,80 86,701 87,110
88,70 89,390 90,470 91,4094
92,420 103,20 104,90 105,60
114,9999 115,631 116,60 117,30
118,801 119,110 127,40 132,50
162,90 174,50 190,130 204,140
205,3974 206,561 207,40
##END=
