##TITLE=Benzene, 1-chloro-4-(1-methylethenyl)-
##JCAMP-DX=4.24
##DATA TYPE=MASS SPECTRUM
##ORIGIN=NIST Mass Spectrometry Data Center, 1990.
##OWNER=NIST Mass Spectrometry Data Center
Collection (C) 2014 copyright by the U.S. Secretary of Commerce
on behalf of the United States of America. All rights reserved.
##CAS REGISTRY NO=1712-70-5
##$NIST MASS SPEC NO=118318
##MOLFORM=C9 H9 Cl
##MW=152
##$NIST SOURCE=MSDC
##XUNITS=M/Z
##YUNITS=RELATIVE INTENSITY
##XFACTOR=1
##YFACTOR=1
##FIRSTX=15
##LASTX=155
##FIRSTY=119
##MAXX=155
##MINX=15
##MAXY=9999
##MINY=23
##NPOINTS=76
##PEAK TABLE=(XY..XY)
15,119 26,127 27,338 28,80
32,24 36,23 37,225 38,439
39,1785 40,166 41,188 43,70
44,40 48,31 49,272 50,1733
51,1805 52,214 53,66 55,71
57,746 58,754 60,66 61,293
62,658 63,1379 64,199 65,513
66,45 68,49 69,27 73,532
74,1165 75,2554 76,788 77,722
78,104 84,94 85,304 86,348
87,377 88,190 89,1144 90,260
91,1313 92,116 97,125 98,173
99,260 100,292 101,2946 102,3836
103,366 109,50 110,74 111,290
112,1658 113,393 114,1023 115,5351
116,2147 117,9999 118,998 119,69
123,62 125,684 126,101 127,183
137,4526 138,602 139,1615 140,143
152,8863 153,1156 154,2547 155,230
##END=
