##TITLE=Octafluoromethanetetramine
##JCAMP-DX=4.24
##DATA TYPE=MASS SPECTRUM
##ORIGIN=A.Pleshkova, Nesmeyanov Inst.Org.Elem.Cpds, Moscow
##OWNER=NIST Mass Spectrometry Data Center
Collection (C) 2014 copyright by the U.S. Secretary of Commerce
on behalf of the United States of America. All rights reserved.
##CAS REGISTRY NO=17125-65-4
##$NIST MASS SPEC NO=284310
##MOLFORM=C F8 N4
##MW=220
##$NIST SOURCE=MSDC
##XUNITS=M/Z
##YUNITS=RELATIVE INTENSITY
##XFACTOR=1
##YFACTOR=1
##FIRSTX=14
##LASTX=169
##FIRSTY=530
##MAXX=169
##MINX=14
##MAXY=9999
##MINY=10
##NPOINTS=32
##PEAK TABLE=(XY..XY)
14,530 19,190 26,751 27,10
28,380 31,5695 32,70 33,4114
34,20 40,781 41,10 45,550
46,10 47,230 50,1692 51,20
52,6126 53,20 54,110 55,10
59,791 60,20 64,7987 65,120
78,1201 79,20 83,110 97,9999
98,190 116,80 168,3833 169,90
##END=
