##TITLE=2-Methyl-1,5-hexadiene-3-ol
##JCAMP-DX=4.24
##DATA TYPE=MASS SPECTRUM
##ORIGIN=NIST Mass Spectrometry Data Center, 1990.
##OWNER=NIST Mass Spectrometry Data Center
Collection (C) 2014 copyright by the U.S. Secretary of Commerce
on behalf of the United States of America. All rights reserved.
##CAS REGISTRY NO=17123-60-3
##$NIST MASS SPEC NO=114511
##MOLFORM=C7 H12 O
##MW=112
##$NIST SOURCE=MSDC
##XUNITS=M/Z
##YUNITS=RELATIVE INTENSITY
##XFACTOR=1
##YFACTOR=1
##FIRSTX=26
##LASTX=97
##FIRSTY=146
##MAXX=97
##MINX=26
##MAXY=9999
##MINY=127
##NPOINTS=32
##PEAK TABLE=(XY..XY)
26,146 27,1021 28,194 29,456
31,253 38,411 39,3073 40,626
41,4493 42,959 43,649 44,340
45,224 50,328 51,474 52,205
53,853 54,149 55,652 65,199
67,202 68,165 69,536 71,9999
72,490 77,809 78,181 79,893
83,230 93,127 94,353 97,364
##END=
