##TITLE=Anthracene, 2-chloro-
##JCAMP-DX=4.24
##DATA TYPE=MASS SPECTRUM
##ORIGIN=Japan AIST/NIMC Database- Spectrum MS-NW-7149
##OWNER=NIST Mass Spectrometry Data Center
Collection (C) 2014 copyright by the U.S. Secretary of Commerce
on behalf of the United States of America. All rights reserved.
##CAS REGISTRY NO=17135-78-3
##$NIST MASS SPEC NO=235828
##MOLFORM=C14 H9 Cl
##MW=212
##$NIST SOURCE=MSDC
##XUNITS=M/Z
##YUNITS=RELATIVE INTENSITY
##XFACTOR=1
##YFACTOR=1
##FIRSTX=27
##LASTX=216
##FIRSTY=20
##MAXX=216
##MINX=27
##MAXY=9999
##MINY=10
##NPOINTS=111
##PEAK TABLE=(XY..XY)
27,20 37,10 38,40 39,90
41,10 43,10 44,40 45,109
49,10 50,139 51,129 52,30
53,10 55,10 57,10 58,20
59,10 61,90 62,219 63,199
64,20 70,30 71,10 73,50
74,309 75,619 76,159 77,70
78,10 80,40 81,10 83,10
84,10 85,40 86,119 87,359
88,1299 89,70 91,10 92,20
93,279 94,109 97,20 98,169
99,149 100,60 101,50 102,30
105,60 106,959 107,329 108,20
109,20 110,60 111,80 112,10
113,30 114,10 120,10 121,20
122,80 123,80 124,40 125,70
126,149 127,80 128,10 133,10
134,20 135,30 136,10 137,30
138,40 139,40 146,10 147,20
148,20 149,169 150,599 151,769
152,159 153,10 160,10 161,10
162,30 163,20 164,10 165,20
173,50 174,409 175,499 176,2659
177,1299 178,359 179,70 180,10
181,10 184,10 185,10 186,60
187,10 188,30 208,10 209,10
210,50 211,99 212,9999 213,1599
214,3339 215,529 216,50
##END=
