##TITLE=Benzeneacetic acid, 4-hydroxy-, ethyl ester
##JCAMP-DX=4.24
##DATA TYPE=MASS SPECTRUM
##ORIGIN=R.SELF AGRICULTURAL RES., FOOD RES. INSTITUTE, NORWICH, U.K.
##OWNER=NIST Mass Spectrometry Data Center
Collection (C) 2014 copyright by the U.S. Secretary of Commerce
on behalf of the United States of America. All rights reserved.
##CAS REGISTRY NO=17138-28-2
##$NIST MASS SPEC NO=7442
##MOLFORM=C10 H12 O3
##MW=180
##$NIST SOURCE=MSDC
##XUNITS=M/Z
##YUNITS=RELATIVE INTENSITY
##XFACTOR=1
##YFACTOR=1
##FIRSTX=27
##LASTX=181
##FIRSTY=435
##MAXX=181
##MINX=27
##MAXY=9999
##MINY=129
##NPOINTS=18
##PEAK TABLE=(XY..XY)
27,435 29,897 39,244 41,185
43,244 44,352 45,324 51,301
52,185 53,185 55,216 77,730
78,315 107,9999 108,875 119,129
180,2730 181,273
##END=
