##TITLE=Butanoic acid, heptafluoro-, 2-propenyl ester
##JCAMP-DX=4.24
##DATA TYPE=MASS SPECTRUM
##ORIGIN=NIST Mass Spectrometry Data Center
##OWNER=NIST Mass Spectrometry Data Center
Collection (C) 2014 copyright by the U.S. Secretary of Commerce
on behalf of the United States of America. All rights reserved.
##CAS REGISTRY NO=17165-55-8
##$NIST MASS SPEC NO=352303
##MOLFORM=C7 H5 F7 O2
##MW=254
##$NIST SOURCE=MSDC
##XUNITS=M/Z
##YUNITS=RELATIVE INTENSITY
##XFACTOR=1
##YFACTOR=1
##FIRSTX=14
##LASTX=256
##FIRSTY=10
##MAXX=256
##MINX=14
##MAXY=9999
##MINY=10
##NPOINTS=92
##PEAK TABLE=(XY..XY)
14,10 15,90 20,10 25,20
26,230 27,781 28,270 29,1411
30,50 31,380 32,10 33,20
36,10 37,160 38,440 39,4764
40,1962 41,9999 42,400 43,20
44,60 45,60 47,20 50,250
51,50 53,30 54,10 55,220
56,90 57,1782 58,70 59,310
60,140 62,40 63,10 67,20
69,6055 70,70 71,30 74,20
75,10 77,10 78,90 79,10
81,190 82,10 83,10 85,1892
86,90 87,20 89,10 90,20
91,10 93,100 95,10 97,10
100,2402 101,60 107,160 109,500
110,20 112,20 113,10 115,40
119,1281 120,30 127,10 129,10
131,160 132,10 135,210 136,10
137,10 138,10 147,20 150,320
151,10 159,10 169,4444 170,150
178,10 195,10 197,90 199,10
206,30 215,20 225,190 226,50
227,10 254,1041 255,80 256,10
##END=
