##TITLE=Acetaldehyde, methylhydrazone
##JCAMP-DX=4.24
##DATA TYPE=MASS SPECTRUM
##ORIGIN=ATLAS OF MASS SPECTRA OF ORGANIC COMPOUNDS, V. A. KOPTYUG, ED.
##OWNER=NIST Mass Spectrometry Data Center
Collection (C) 2014 copyright by the U.S. Secretary of Commerce
on behalf of the United States of America. All rights reserved.
##CAS REGISTRY NO=17167-73-6
##$NIST MASS SPEC NO=64467
##MOLFORM=C3 H8 N2
##MW=72
##$NIST SOURCE=MSDC
##XUNITS=M/Z
##YUNITS=RELATIVE INTENSITY
##XFACTOR=1
##YFACTOR=1
##FIRSTX=27
##LASTX=73
##FIRSTY=1670
##MAXX=73
##MINX=27
##MAXY=9999
##MINY=120
##NPOINTS=20
##PEAK TABLE=(XY..XY)
27,1670 28,3860 29,2000 30,8630
31,1310 39,340 40,540 41,1360
42,3630 43,1950 44,950 45,120
55,500 56,650 57,3680 58,190
69,150 71,1810 72,9999 73,500
##END=
