##TITLE=1,1-Dichloro-1-fluoroethane
##JCAMP-DX=4.24
##DATA TYPE=MASS SPECTRUM
##ORIGIN=T.J. Bruno, Cent. Chem. Technol., NIST, Boulder, CO 80303, USA
##OWNER=NIST Mass Spectrometry Data Center
Collection (C) 2014 copyright by the U.S. Secretary of Commerce
on behalf of the United States of America. All rights reserved.
##CAS REGISTRY NO=1717-00-6
##$NIST MASS SPEC NO=142369
##MOLFORM=C2 H3 Cl2 F
##MW=116
##$NIST SOURCE=MSDC
##XUNITS=M/Z
##YUNITS=RELATIVE INTENSITY
##XFACTOR=1
##YFACTOR=1
##FIRSTX=19
##LASTX=116
##FIRSTY=64
##MAXX=116
##MINX=19
##MAXY=9999
##MINY=1
##NPOINTS=56
##PEAK TABLE=(XY..XY)
19,64 20,26 24,247 25,839
26,1899 27,687 31,789 35,1598
36,344 37,515 38,107 39,8
43,15 45,4334 46,554 47,314
48,82 49,172 50,29 51,26
52,1 54,3 59,91 60,472
61,2845 62,236 63,932 64,31
66,188 67,26 68,63 70,22
72,16 74,4 76,2 78,39
79,210 81,9999 82,462 83,748
84,107 85,11 86,6 87,1
94,3 95,21 96,16 97,39
98,10 99,21 101,742 102,8
103,455 104,5 105,73 116,1
##END=
