##TITLE=4-Chloro-2-methylthiophenol
##JCAMP-DX=4.24
##DATA TYPE=MASS SPECTRUM
##ORIGIN=NIST Mass Spectrometry Data Center, 1994
##OWNER=NIST Mass Spectrometry Data Center
Collection (C) 2014 copyright by the U.S. Secretary of Commerce
on behalf of the United States of America. All rights reserved.
##CAS REGISTRY NO=17178-01-7
##$NIST MASS SPEC NO=136755
##MOLFORM=C7 H7 Cl S
##MW=158
##$NIST SOURCE=MSDC
##XUNITS=M/Z
##YUNITS=RELATIVE INTENSITY
##XFACTOR=1
##YFACTOR=1
##FIRSTX=18
##LASTX=163
##FIRSTY=80
##MAXX=163
##MINX=18
##MAXY=9999
##MINY=12
##NPOINTS=92
##PEAK TABLE=(XY..XY)
18,80 33,264 34,164 35,170
36,208 37,562 38,763 39,1716
40,99 45,4682 46,296 47,650
48,78 49,320 50,1167 51,1960
52,221 53,182 57,276 58,356
60,1175 61,1290 62,1245 63,2307
64,332 65,241 69,1887 70,338
71,481 72,108 73,724 74,108
75,994 76,260 77,2571 78,946
79,1514 80,235 81,353 82,361
83,140 84,194 85,301 86,351
87,383 88,108 89,3437 90,392
91,370 92,139 93,492 94,141
95,531 96,178 97,394 98,102
99,612 100,75 101,192 105,111
106,71 107,125 108,302 111,335
112,255 113,245 114,184 115,86
117,113 118,181 119,103 120,234
121,2377 122,1002 123,6190 124,1029
125,8248 126,812 127,2621 128,184
131,106 142,100 143,126 155,512
156,637 157,3026 158,9999 159,1962
160,3735 161,354 162,157 163,12
##END=
