##TITLE=p-Terphenyl-d14
##JCAMP-DX=4.24
##DATA TYPE=MASS SPECTRUM
##ORIGIN=NIST Mass Spectrometry Data Center, 1990.
##OWNER=NIST Mass Spectrometry Data Center
Collection (C) 2014 copyright by the U.S. Secretary of Commerce
on behalf of the United States of America. All rights reserved.
##CAS REGISTRY NO=1718-51-0
##$NIST MASS SPEC NO=118438
##MOLFORM=C18 D14
##MW=244
##$NIST SOURCE=MSDC
##XUNITS=M/Z
##YUNITS=RELATIVE INTENSITY
##XFACTOR=1
##YFACTOR=1
##FIRSTX=18
##LASTX=246
##FIRSTY=10
##MAXX=246
##MINX=18
##MAXY=9999
##MINY=10
##NPOINTS=128
##PEAK TABLE=(XY..XY)
18,10 28,16 30,74 40,19
42,210 51,15 52,182 53,39
54,355 55,29 56,61 62,14
64,81 66,230 68,22 69,25
70,78 73,31 76,115 77,35
78,200 79,14 80,305 81,53
82,198 83,31 84,74 85,26
86,19 87,20 88,39 89,15
90,91 92,234 94,252 97,37
98,102 99,150 100,52 101,15
102,52 103,40 104,108 105,15
106,446 108,196 109,26 110,19
111,43 113,85 114,19 116,20
117,40 118,254 119,59 120,140
121,19 122,1207 130,27 131,30
132,118 133,32 134,109 135,56
136,325 137,48 145,18 146,111
154,19 156,145 158,315 159,133
160,637 161,109 162,300 163,41
164,28 168,22 170,63 171,15
172,31 173,31 174,103 175,15
180,21 182,20 183,25 184,105
185,15 186,29 188,36 194,46
196,40 197,52 198,197 199,47
202,25 207,20 208,115 209,40
210,97 211,120 212,600 213,144
214,136 215,22 216,27 221,19
222,93 223,33 224,35 225,85
226,454 227,100 232,30 234,47
235,65 236,442 237,160 238,370
239,258 240,973 241,366 242,839
243,2161 244,9999 245,1943 246,199
##END=
