##TITLE=2-Cyclopenten-1-one, 2-(2-butenyl)-4-hydroxy-3-methyl-, (Z)-
##JCAMP-DX=4.24
##DATA TYPE=MASS SPECTRUM
##OWNER=NIST Mass Spectrometry Data Center
Collection (C) 2014 copyright by the U.S. Secretary of Commerce
on behalf of the United States of America. All rights reserved.
##CAS REGISTRY NO=17190-74-8
##$NIST MASS SPEC NO=29829
##MOLFORM=C10 H14 O2
##MW=166
##$NIST SOURCE=MSDC
##XUNITS=M/Z
##YUNITS=RELATIVE INTENSITY
##XFACTOR=1
##YFACTOR=1
##FIRSTX=27
##LASTX=167
##FIRSTY=2167
##MAXX=167
##MINX=27
##MAXY=9999
##MINY=468
##NPOINTS=69
##PEAK TABLE=(XY..XY)
27,2167 28,1040 29,1527 39,3251
40,1182 41,2586 43,7512 44,591
45,493 50,690 51,1182 52,739
53,2044 54,739 55,2414 57,640
63,591 65,1182 66,690 67,1699
69,813 71,1182 77,2463 78,690
79,2881 80,690 81,1822 82,542
83,788 91,2414 92,788 93,1675
94,1182 95,2635 96,788 97,591
103,591 104,468 105,2832 106,739
107,985 108,788 109,3374 110,616
111,739 112,690 119,788 120,640
121,1108 122,960 123,1970 124,690
125,542 130,640 131,640 133,2020
134,640 135,517 137,2906 138,665
147,813 148,739 149,788 151,2561
152,739 164,542 165,591 166,9999
167,1601
##END=
