##TITLE=3,5-Dimethoxybenzoyl chloride
##JCAMP-DX=4.24
##DATA TYPE=MASS SPECTRUM
##ORIGIN=NIST Mass Spectrometry Data Center
##OWNER=NIST Mass Spectrometry Data Center
Collection (C) 2014 copyright by the U.S. Secretary of Commerce
on behalf of the United States of America. All rights reserved.
##CAS REGISTRY NO=17213-57-9
##$NIST MASS SPEC NO=343235
##MOLFORM=C9 H9 Cl O3
##MW=200
##$NIST SOURCE=MSDC
##XUNITS=M/Z
##YUNITS=RELATIVE INTENSITY
##XFACTOR=1
##YFACTOR=1
##FIRSTX=12
##LASTX=203
##FIRSTY=40
##MAXX=203
##MINX=12
##MAXY=9999
##MINY=20
##NPOINTS=91
##PEAK TABLE=(XY..XY)
12,40 13,60 14,190 15,1421
16,30 17,20 25,40 26,60
27,120 28,110 29,390 30,80
31,30 35,90 36,70 37,270
38,490 39,300 40,80 41,150
42,50 43,80 49,150 50,721
51,1491 52,220 53,470 54,40
55,100 59,290 60,50 61,400
62,1071 63,2232 64,540 65,330
66,500 67,80 69,1131 70,40
73,140 74,380 75,330 77,1692
78,220 79,1171 80,90 81,70
82,190 84,30 86,50 90,70
91,240 92,571 93,180 94,440
95,50 98,70 99,70 101,30
105,70 106,330 107,1531 108,160
109,200 112,30 113,50 114,50
119,40 122,3653 123,290 126,110
128,50 129,140 131,40 134,70
135,90 137,2913 138,250 149,60
150,130 157,70 159,50 163,90
165,9999 166,1001 167,100 200,2032
201,250 202,751 203,90
##END=
