##TITLE=Ethyl 2-methylnicotinate
##JCAMP-DX=4.24
##DATA TYPE=MASS SPECTRUM
##ORIGIN=NIST Mass Spectrometry Data Center, 1994
##OWNER=NIST Mass Spectrometry Data Center
Collection (C) 2014 copyright by the U.S. Secretary of Commerce
on behalf of the United States of America. All rights reserved.
##CAS REGISTRY NO=1721-26-2
##$NIST MASS SPEC NO=136266
##MOLFORM=C9 H11 N O2
##MW=165
##$NIST SOURCE=MSDC
##XUNITS=M/Z
##YUNITS=RELATIVE INTENSITY
##XFACTOR=1
##YFACTOR=1
##FIRSTX=12
##LASTX=167
##FIRSTY=28
##MAXX=167
##MINX=12
##MAXY=9999
##MINY=21
##NPOINTS=77
##PEAK TABLE=(XY..XY)
12,28 13,67 14,308 15,1353
16,23 17,48 18,59 19,50
25,99 26,1057 27,3700 28,1155
29,4255 30,443 37,496 38,1500
39,6500 40,661 41,737 42,988
43,426 44,59 45,310 46,98
49,187 50,1915 51,2164 52,745
53,1046 54,143 55,63 60,30
61,287 62,741 63,2217 64,1926
65,7283 66,1623 67,572 68,76
75,107 76,186 77,312 78,430
79,259 80,523 81,70 88,35
89,32 91,2636 92,9705 93,7667
94,656 95,40 104,61 106,92
108,603 109,51 117,21 119,5052
120,9999 121,1433 122,226 123,48
124,28 132,75 136,390 137,3127
138,287 146,49 147,109 150,1089
151,109 164,689 165,5320 166,595
167,52
##END=
