##TITLE=.beta.-Amyrin, TMS derivative
##JCAMP-DX=4.24
##DATA TYPE=MASS SPECTRUM
##ORIGIN=NIST Mass Spectrometry Data Center, 2010
##OWNER=NIST Mass Spectrometry Data Center
Collection (C) 2014 copyright by the U.S. Secretary of Commerce
on behalf of the United States of America. All rights reserved.
##CAS REGISTRY NO=1721-67-1
##$NIST MASS SPEC NO=374765
##MOLFORM=C33 H58 O Si
##MW=498
##$NIST SOURCE=MSDC
##XUNITS=M/Z
##YUNITS=RELATIVE INTENSITY
##XFACTOR=1
##YFACTOR=1
##FIRSTX=27
##LASTX=500
##FIRSTY=10
##MAXX=500
##MINX=27
##MAXY=9999
##MINY=10
##NPOINTS=261
##PEAK TABLE=(XY..XY)
27,10 29,70 39,30 40,10
41,500 42,30 43,340 44,20
45,80 46,10 47,30 51,10
53,80 54,10 55,811 56,50
57,190 58,10 59,60 60,10
61,60 62,10 63,10 65,40
66,10 67,410 68,70 69,1271
70,80 71,60 72,40 73,1802
74,180 75,1291 76,90 77,190
78,30 79,520 80,150 81,991
82,100 83,260 84,20 85,40
86,10 87,10 88,10 89,50
90,10 91,510 92,100 93,761
94,561 95,1361 96,140 97,170
98,20 99,20 101,70 102,10
103,70 104,30 105,721 106,160
107,861 108,280 109,841 110,80
111,180 112,20 113,20 114,10
115,80 116,40 117,250 118,60
119,791 120,250 121,761 122,320
123,440 124,50 125,40 126,10
127,30 128,50 129,550 130,110
131,290 132,80 133,581 134,360
135,871 136,520 137,490 138,70
139,10 141,40 142,40 143,210
144,120 145,270 146,100 147,771
148,290 149,340 150,100 151,100
152,20 153,20 154,20 155,50
156,50 157,180 158,70 159,200
160,70 161,400 162,230 163,220
164,50 165,20 166,10 167,10
168,10 169,40 170,30 171,90
172,30 173,140 174,40 175,691
176,170 177,190 178,40 179,30
180,10 181,20 182,20 183,60
184,20 185,40 186,20 187,140
188,60 189,1631 190,1682 191,430
192,50 193,20 195,20 196,10
197,30 198,10 199,30 200,10
201,120 202,80 203,3553 204,671
205,240 206,100 207,20 209,20
210,10 211,140 212,30 213,30
214,20 215,110 216,50 218,9999
219,1762 220,160 221,10 223,20
224,20 225,30 226,10 227,20
228,10 229,100 230,30 231,80
232,30 233,10 234,20 235,10
237,20 238,10 239,10 241,20
242,20 243,60 244,20 245,20
246,10 249,10 251,20 252,10
253,10 255,50 256,20 257,210
258,70 259,30 260,10 263,10
265,10 266,10 267,10 269,40
270,20 271,110 272,110 273,30
274,10 277,10 279,290 280,130
281,30 282,10 283,10 284,20
285,20 286,20 287,10 292,10
293,20 294,10 295,10 297,10
298,10 299,10 304,10 305,10
306,10 311,10 313,10 323,10
325,10 337,10 339,10 340,10
365,20 366,10 367,10 369,10
393,120 394,40 395,10 407,20
408,40 409,10 483,70 484,40
485,10 496,10 498,160 499,70
500,20
##END=
