##TITLE=2-Acetyl-1-tetralone
##JCAMP-DX=4.24
##DATA TYPE=MASS SPECTRUM
##ORIGIN=NIST Mass Spectrometry Data Center
##OWNER=NIST Mass Spectrometry Data Center
Collection (C) 2014 copyright by the U.S. Secretary of Commerce
on behalf of the United States of America. All rights reserved.
##CAS REGISTRY NO=17216-08-9
##$NIST MASS SPEC NO=340702
##MOLFORM=C12 H12 O2
##MW=188
##$NIST SOURCE=MSDC
##XUNITS=M/Z
##YUNITS=RELATIVE INTENSITY
##XFACTOR=1
##YFACTOR=1
##FIRSTX=15
##LASTX=190
##FIRSTY=220
##MAXX=190
##MINX=15
##MAXY=9999
##MINY=10
##NPOINTS=119
##PEAK TABLE=(XY..XY)
15,220 26,40 27,290 29,60
31,20 37,30 38,160 39,1081
40,100 41,170 42,170 43,5825
44,150 45,60 49,20 50,510
51,991 52,180 53,290 54,30
55,340 56,10 57,280 59,40
61,80 62,450 63,1431 64,430
65,891 66,100 67,30 68,10
69,110 70,50 71,90 72,240
74,310 75,390 76,290 77,901
78,240 79,290 80,20 84,10
85,60 86,240 87,260 88,190
89,2232 90,2272 91,2692 92,210
93,20 94,20 97,30 98,60
99,40 100,20 101,180 102,370
103,370 104,150 105,2973 106,260
107,10 109,10 110,20 111,10
113,220 114,280 115,6926 116,1772
117,2893 118,1181 119,500 120,40
125,10 126,260 127,3513 128,1061
129,270 130,60 131,1521 132,150
133,20 138,10 139,190 140,50
141,751 142,240 143,130 144,621
145,9999 146,2142 147,190 148,10
151,10 152,10 153,10 155,1912
156,230 157,30 158,10 159,60
160,10 161,10 168,20 169,300
170,1181 171,290 173,4744 174,581
175,50 176,10 186,40 187,1661
188,6156 189,841 190,70
##END=
