##TITLE=Triethylamine borane
##JCAMP-DX=4.24
##DATA TYPE=MASS SPECTRUM
##ORIGIN=Japan AIST/NIMC Database- Spectrum MS-NW-8598
##OWNER=NIST Mass Spectrometry Data Center
Collection (C) 2014 copyright by the U.S. Secretary of Commerce
on behalf of the United States of America. All rights reserved.
##CAS REGISTRY NO=1722-26-5
##$NIST MASS SPEC NO=234920
##MOLFORM=C6 H18 B N
##MW=115
##$NIST SOURCE=MSDC
##XUNITS=M/Z
##YUNITS=RELATIVE INTENSITY
##XFACTOR=1
##YFACTOR=1
##FIRSTX=11
##LASTX=115
##FIRSTY=10
##MAXX=115
##MINX=11
##MAXY=9999
##MINY=10
##NPOINTS=65
##PEAK TABLE=(XY..XY)
11,10 12,50 13,129 14,30
15,169 18,179 23,20 24,60
25,50 26,169 27,1119 28,1059
29,1589 30,2639 31,30 37,10
38,20 39,129 40,249 41,309
42,1079 43,169 44,1149 45,30
51,20 52,40 53,189 54,779
55,149 56,789 57,179 58,2829
59,99 66,10 67,30 68,109
69,139 70,809 71,149 72,399
73,20 80,10 81,139 82,539
83,389 84,1469 85,149 86,9999
87,599 88,10 94,10 95,20
96,90 97,30 98,119 99,30
100,1249 101,1719 102,129 110,10
111,10 112,60 113,369 114,1499
115,99
##END=
