##TITLE=Pyridazine, 3-chloro-6-methoxy-
##JCAMP-DX=4.24
##DATA TYPE=MASS SPECTRUM
##ORIGIN=NIST Mass Spectrometry Data Center, 1992
##OWNER=NIST Mass Spectrometry Data Center
Collection (C) 2014 copyright by the U.S. Secretary of Commerce
on behalf of the United States of America. All rights reserved.
##CAS REGISTRY NO=1722-10-7
##$NIST MASS SPEC NO=125133
##MOLFORM=C5 H5 Cl N2 O
##MW=144
##$NIST SOURCE=MSDC
##XUNITS=M/Z
##YUNITS=RELATIVE INTENSITY
##XFACTOR=1
##YFACTOR=1
##FIRSTX=12
##LASTX=147
##FIRSTY=69
##MAXX=147
##MINX=12
##MAXY=9999
##MINY=14
##NPOINTS=83
##PEAK TABLE=(XY..XY)
12,69 13,95 14,158 15,1511
24,62 25,219 26,742 27,475
28,145 29,646 30,153 31,97
35,125 36,305 37,1398 38,1789
39,408 40,139 41,148 42,133
43,131 47,778 48,109 49,500
50,496 51,1296 52,1746 53,461
54,384 55,120 56,462 57,36
58,17 59,23 60,145 61,72
62,219 63,57 64,84 65,69
66,241 67,144 68,35 71,113
72,742 73,7264 74,486 75,2309
76,191 77,288 78,35 79,9999
80,622 81,722 82,57 83,30
84,68 85,22 86,66 87,87
88,125 89,65 90,57 91,14
93,28 94,57 99,31 100,70
101,124 102,25 103,48 109,1756
110,118 114,844 115,1162 116,373
117,367 118,32 143,3915 144,6058
145,1588 146,1899 147,124
##END=
