##TITLE=2,3-Dichlorobenzenethiol
##JCAMP-DX=4.24
##DATA TYPE=MASS SPECTRUM
##ORIGIN=NIST Mass Spectrometry Data Center
##OWNER=NIST Mass Spectrometry Data Center
Collection (C) 2014 copyright by the U.S. Secretary of Commerce
on behalf of the United States of America. All rights reserved.
##CAS REGISTRY NO=17231-95-7
##$NIST MASS SPEC NO=343358
##MOLFORM=C6 H4 Cl2 S
##MW=178
##$NIST SOURCE=MSDC
##XUNITS=M/Z
##YUNITS=RELATIVE INTENSITY
##XFACTOR=1
##YFACTOR=1
##FIRSTX=12
##LASTX=184
##FIRSTY=50
##MAXX=184
##MINX=12
##MAXY=9999
##MINY=20
##NPOINTS=118
##PEAK TABLE=(XY..XY)
12,50 13,50 15,40 17,20
18,110 24,40 25,110 26,350
27,90 28,50 32,430 33,550
35,641 36,601 37,1661 38,991
39,621 40,40 41,30 44,260
45,1882 46,70 47,400 48,190
49,851 50,791 51,280 53,1121
56,120 57,490 58,641 59,140
60,440 61,1201 62,1521 63,2212
64,130 67,60 68,430 69,3153
70,320 71,1752 72,1021 73,1651
74,1902 75,1291 76,110 79,651
80,190 81,1641 82,1011 83,290
84,861 85,340 86,240 87,100
89,571 90,370 91,200 92,230
93,400 94,150 95,120 96,200
97,510 98,120 99,1131 100,70
101,290 103,490 104,130 105,520
106,651 107,3934 108,3763 109,1091
110,350 111,270 112,30 113,50
115,110 116,290 117,70 118,340
119,40 120,120 121,50 122,20
127,50 129,130 130,20 131,60
133,310 134,741 135,230 136,490
137,50 138,70 142,3863 143,9999
144,1972 145,3954 146,530 147,290
148,170 149,40 150,50 152,130
154,60 156,30 177,360 178,9759
179,871 180,6326 181,490 182,1301
183,80 184,40
##END=
