##TITLE=3-Chlorothiophene
##JCAMP-DX=4.24
##DATA TYPE=MASS SPECTRUM
##ORIGIN=Japan AIST/NIMC Database- Spectrum MS-IW-1316
##OWNER=NIST Mass Spectrometry Data Center
Collection (C) 2014 copyright by the U.S. Secretary of Commerce
on behalf of the United States of America. All rights reserved.
##CAS REGISTRY NO=17249-80-8
##$NIST MASS SPEC NO=231157
##MOLFORM=C4 H3 Cl S
##MW=118
##$NIST SOURCE=MSDC
##XUNITS=M/Z
##YUNITS=RELATIVE INTENSITY
##XFACTOR=1
##YFACTOR=1
##FIRSTX=12
##LASTX=122
##FIRSTY=10
##MAXX=122
##MINX=12
##MAXY=9999
##MINY=10
##NPOINTS=56
##PEAK TABLE=(XY..XY)
12,10 25,20 26,30 32,30
33,10 35,10 36,60 37,229
38,279 39,1069 40,30 41,229
42,10 44,90 45,2019 46,40
47,149 48,40 49,149 50,209
51,80 56,50 57,409 58,729
59,289 60,149 61,10 68,30
69,189 70,10 71,20 72,40
73,669 74,50 75,219 76,20
79,209 80,40 81,359 82,409
83,3619 84,219 85,179 86,10
91,70 92,219 93,30 94,80
112,10 116,10 117,30 118,9999
119,529 120,3649 121,189 122,149
##END=
