##TITLE=Oxacyclotetradecan-2-one
##JCAMP-DX=4.24
##DATA TYPE=MASS SPECTRUM
##ORIGIN=W. KELLY UNILEVER RESEARCH COLWORTH/WELWYN, BEDFORD U.K.
##OWNER=NIST Mass Spectrometry Data Center
Collection (C) 2014 copyright by the U.S. Secretary of Commerce
on behalf of the United States of America. All rights reserved.
##CAS REGISTRY NO=1725-04-8
##$NIST MASS SPEC NO=9818
##MOLFORM=C13 H24 O2
##MW=212
##$NIST SOURCE=MSDC
##XUNITS=M/Z
##YUNITS=RELATIVE INTENSITY
##XFACTOR=1
##YFACTOR=1
##FIRSTX=39
##LASTX=212
##FIRSTY=2500
##MAXX=212
##MINX=39
##MAXY=9999
##MINY=120
##NPOINTS=62
##PEAK TABLE=(XY..XY)
39,2500 40,900 41,9999 42,3000
43,2800 44,2200 53,950 54,1300
55,8400 56,2200 57,1020 58,410
59,240 60,670 61,210 65,210
66,300 67,2400 68,2100 69,3930
70,1100 71,650 73,920 79,210
80,120 81,1860 82,2800 83,2500
84,1500 85,360 87,420 95,1100
96,2100 97,2000 98,2020 109,720
110,1300 111,920 112,500 113,740
114,490 123,640 124,690 125,400
126,130 127,270 129,340 133,120
134,200 137,340 138,260 139,200
150,350 151,310 152,760 153,200
165,250 166,120 169,160 176,250
194,410 212,390
##END=
