##TITLE=5-Chlorobenzo[b]thiophene-3-acetic acid
##JCAMP-DX=4.24
##DATA TYPE=MASS SPECTRUM
##ORIGIN=NIST Mass Spectrometry Data Center, 1994
##OWNER=NIST Mass Spectrometry Data Center
Collection (C) 2014 copyright by the U.S. Secretary of Commerce
on behalf of the United States of America. All rights reserved.
##CAS REGISTRY NO=17266-30-7
##$NIST MASS SPEC NO=136710
##MOLFORM=C10 H7 Cl O2 S
##MW=226
##$NIST SOURCE=MSDC
##XUNITS=M/Z
##YUNITS=RELATIVE INTENSITY
##XFACTOR=1
##YFACTOR=1
##FIRSTX=17
##LASTX=230
##FIRSTY=73
##MAXX=230
##MINX=17
##MAXY=9999
##MINY=35
##NPOINTS=108
##PEAK TABLE=(XY..XY)
17,73 18,204 35,53 36,161
37,151 38,209 39,330 42,57
44,154 45,1757 46,70 47,102
49,86 50,517 51,474 52,70
55,107 57,74 58,62 60,81
61,216 62,389 63,558 64,66
65,73 66,38 67,68 68,38
69,1181 70,150 71,175 72,300
73,516 74,102 75,769 76,190
77,189 78,54 79,123 80,55
81,181 82,178 83,45 84,73
85,125 86,194 87,208 88,58
89,184 91,281 92,98 93,300
94,107 95,131 97,113 98,164
99,231 100,101 101,657 102,1247
103,173 105,138 106,102 107,87
108,71 109,70 111,103 113,133
114,79 117,100 118,40 119,181
120,146 121,68 123,77 131,40
132,43 133,95 134,208 135,139
136,164 137,172 138,61 139,66
142,51 143,35 145,1562 146,1150
147,414 148,99 149,321 150,39
151,111 155,118 157,60 163,68
169,38 179,140 181,9999 182,1234
183,3863 184,451 185,195 226,3494
227,424 228,1220 229,167 230,69
##END=
