##TITLE=3-Hydroxy-7,8-dihydro-.beta.-ionol
##JCAMP-DX=4.24
##DATA TYPE=MASS SPECTRUM
##ORIGIN=Philip Morris R&D
##OWNER=NIST Mass Spectrometry Data Center
Collection (C) 2014 copyright by the U.S. Secretary of Commerce
on behalf of the United States of America. All rights reserved.
##CAS REGISTRY NO=172705-13-4
##$NIST MASS SPEC NO=108742
##MOLFORM=C13 H20 O2
##MW=208
##$NIST SOURCE=MSDC
##XUNITS=M/Z
##YUNITS=RELATIVE INTENSITY
##XFACTOR=1
##YFACTOR=1
##FIRSTX=38
##LASTX=209
##FIRSTY=260
##MAXX=209
##MINX=38
##MAXY=9999
##MINY=23
##NPOINTS=113
##PEAK TABLE=(XY..XY)
38,260 39,1202 40,2487 41,2229
42,152 43,9999 44,593 45,1239
50,108 51,597 52,183 53,1401
55,1159 56,315 57,490 59,301
61,96 62,71 63,240 64,124
65,854 66,181 67,519 68,99
69,1047 70,158 71,404 72,136
73,196 76,75 77,1110 78,222
79,1044 80,468 81,694 82,236
83,139 84,265 85,478 87,203
88,85 91,2162 92,231 93,940
94,117 95,642 96,130 97,184
98,183 101,102 102,199 103,539
104,149 105,2183 106,462 107,673
108,324 109,644 110,136 111,507
112,220 115,390 116,271 117,275
119,1143 121,1149 122,446 123,266
126,95 127,179 128,240 129,262
131,1921 132,409 133,975 134,337
135,477 136,314 137,79 140,181
141,166 142,240 143,176 145,364
146,242 147,709 148,393 149,1101
150,202 151,151 153,23 156,129
157,320 159,133 161,158 163,95
164,448 165,148 172,80 173,226
175,1477 176,175 179,205 180,80
185,135 188,78 190,83 191,215
193,3200 194,484 195,112 208,3502
209,378
##END=
