##TITLE=2-Amino-3-bromo-5-methylpyridine
##JCAMP-DX=4.24
##DATA TYPE=MASS SPECTRUM
##ORIGIN=NIST Mass Spectrometry Data Center, 1994
##OWNER=NIST Mass Spectrometry Data Center
Collection (C) 2014 copyright by the U.S. Secretary of Commerce
on behalf of the United States of America. All rights reserved.
##CAS REGISTRY NO=17282-00-7
##$NIST MASS SPEC NO=136627
##MOLFORM=C6 H7 Br N2
##MW=186
##$NIST SOURCE=MSDC
##XUNITS=M/Z
##YUNITS=RELATIVE INTENSITY
##XFACTOR=1
##YFACTOR=1
##FIRSTX=12
##LASTX=189
##FIRSTY=78
##MAXX=189
##MINX=12
##MAXY=9999
##MINY=35
##NPOINTS=85
##PEAK TABLE=(XY..XY)
12,78 13,70 14,79 15,423
16,135 17,113 18,117 24,59
25,279 26,1257 27,2716 28,5439
29,35 30,497 36,146 37,1187
38,1988 39,3230 40,911 41,618
42,537 43,437 44,43 48,156
49,940 50,3383 51,6292 52,7605
53,8638 54,1631 55,285 56,359
60,83 61,379 62,651 63,1100
64,746 65,932 66,700 67,353
68,87 75,611 76,1397 77,539
78,2970 79,2037 80,8452 81,1106
82,259 83,76 90,301 91,171
92,676 93,370 94,246 95,66
104,167 105,2252 106,1689 107,6588
108,548 116,56 117,149 118,114
119,187 120,78 121,98 128,48
129,76 130,106 131,544 132,162
133,492 134,129 144,74 146,97
158,841 159,299 160,912 161,283
185,3916 186,9999 187,4606 188,9890
189,714
##END=
