##TITLE=Methyl 2,3-dibromopropionate
##JCAMP-DX=4.24
##DATA TYPE=MASS SPECTRUM
##ORIGIN=Japan AIST/NIMC Database- Spectrum MS-NW-5856
##OWNER=NIST Mass Spectrometry Data Center
Collection (C) 2014 copyright by the U.S. Secretary of Commerce
on behalf of the United States of America. All rights reserved.
##CAS REGISTRY NO=1729-67-5
##$NIST MASS SPEC NO=229638
##MOLFORM=C4 H6 Br2 O2
##MW=244
##$NIST SOURCE=MSDC
##XUNITS=M/Z
##YUNITS=RELATIVE INTENSITY
##XFACTOR=1
##YFACTOR=1
##FIRSTX=12
##LASTX=248
##FIRSTY=20
##MAXX=248
##MINX=12
##MAXY=9999
##MINY=10
##NPOINTS=108
##PEAK TABLE=(XY..XY)
12,20 13,60 14,139 15,5159
16,50 17,10 18,70 24,30
25,269 26,1709 27,5979 28,409
29,619 30,199 31,419 32,60
33,30 36,20 37,40 38,40
39,249 40,30 41,599 42,109
43,479 44,60 45,249 52,30
53,269 54,149 55,3769 56,179
57,50 58,219 59,8249 60,179
61,40 68,40 69,10 71,20
79,229 80,299 81,239 82,289
85,229 86,20 87,30 91,30
92,50 93,199 94,179 95,949
96,159 97,839 98,10 103,10
104,70 105,1499 106,2129 107,1539
108,2099 109,90 120,30 121,1259
122,70 123,1799 124,70 125,679
126,20 133,619 134,20 135,629
136,30 137,299 138,10 139,299
140,10 146,20 148,20 151,10
152,10 154,10 158,10 160,20
162,10 163,10 164,109 165,9999
166,559 167,9529 168,499 169,60
184,40 185,1159 186,99 187,2309
188,90 189,1079 190,30 213,269
214,10 215,469 216,20 217,239
218,10 244,10 246,20 248,10
##END=
