##TITLE=2-Cyclohexen-1-one, 3,4,4-trimethyl-
##JCAMP-DX=4.24
##DATA TYPE=MASS SPECTRUM
##ORIGIN=CARL DJERASSI DEPT OF CHEM STANFORD UNIV STANFORD CALIF 94305
##OWNER=NIST Mass Spectrometry Data Center
Collection (C) 2014 copyright by the U.S. Secretary of Commerce
on behalf of the United States of America. All rights reserved.
##CAS REGISTRY NO=17299-41-1
##$NIST MASS SPEC NO=46563
##MOLFORM=C9 H14 O
##MW=138
##$NIST SOURCE=MSDC
##XUNITS=M/Z
##YUNITS=RELATIVE INTENSITY
##XFACTOR=1
##YFACTOR=1
##FIRSTX=41
##LASTX=139
##FIRSTY=3800
##MAXX=139
##MINX=41
##MAXY=9999
##MINY=100
##NPOINTS=40
##PEAK TABLE=(XY..XY)
41,3800 42,400 43,1800 50,100
51,700 52,300 53,1600 54,500
55,2100 56,200 57,100 63,200
65,500 66,200 67,4700 68,400
69,300 70,100 77,800 78,100
79,800 80,200 81,2600 82,1900
83,200 91,300 93,300 95,8600
96,9999 97,600 107,100 108,100
109,1300 110,6500 111,300 122,100
123,800 124,200 138,4200 139,300
##END=
