##TITLE=Undecane, 2,6-dimethyl-
##JCAMP-DX=4.24
##DATA TYPE=MASS SPECTRUM
##ORIGIN=NIST Mass Spectrometry Data Center, 1990.
##OWNER=NIST Mass Spectrometry Data Center
Collection (C) 2014 copyright by the U.S. Secretary of Commerce
on behalf of the United States of America. All rights reserved.
##CAS REGISTRY NO=17301-23-4
##$NIST MASS SPEC NO=114012
##MOLFORM=C13 H28
##MW=184
##$NIST SOURCE=MSDC
##XUNITS=M/Z
##YUNITS=RELATIVE INTENSITY
##XFACTOR=1
##YFACTOR=1
##FIRSTX=27
##LASTX=184
##FIRSTY=712
##MAXX=184
##MINX=27
##MAXY=9999
##MINY=45
##NPOINTS=39
##PEAK TABLE=(XY..XY)
27,712 28,706 29,1112 32,167
39,854 41,3801 42,1077 43,4269
44,160 51,45 53,341 55,1935
56,2099 57,9999 58,422 65,62
67,188 68,152 69,895 70,1216
71,4810 72,261 79,50 83,256
84,533 85,818 86,66 97,271
98,1708 99,551 112,726 113,758
114,72 127,54 140,79 141,116
155,60 169,98 184,102
##END=
