##TITLE=Undecane, 2,7-dimethyl-
##JCAMP-DX=4.24
##DATA TYPE=MASS SPECTRUM
##ORIGIN=D.HENNEBERG, MAX-PLANCK INSTITUTE, MULHEIM, WEST GERMANY
##OWNER=NIST Mass Spectrometry Data Center
Collection (C) 2014 copyright by the U.S. Secretary of Commerce
on behalf of the United States of America. All rights reserved.
##CAS REGISTRY NO=17301-24-5
##$NIST MASS SPEC NO=60733
##MOLFORM=C13 H28
##MW=184
##$NIST SOURCE=MSDC
##XUNITS=M/Z
##YUNITS=RELATIVE INTENSITY
##XFACTOR=1
##YFACTOR=1
##FIRSTX=21
##LASTX=169
##FIRSTY=15
##MAXX=169
##MINX=21
##MAXY=9999
##MINY=1
##NPOINTS=45
##PEAK TABLE=(XY..XY)
21,15 25,4 26,54 27,887
28,157 29,1613 30,29 35,4
39,475 40,38 41,2558 42,673
43,9999 44,52 51,1 53,82
54,60 55,1049 56,1725 57,6100
58,225 65,1 66,3 67,42
68,71 69,627 70,370 71,3938
72,174 82,25 83,120 84,1463
85,3640 86,239 98,772 99,434
100,6 111,113 112,4 113,46
126,220 127,382 128,23 141,160
169,23
##END=
