##TITLE=5-Ethyldecane
##JCAMP-DX=4.24
##DATA TYPE=MASS SPECTRUM
##ORIGIN=V.G.Zaikin, TIPS, Russian Acad. Sci.
##OWNER=NIST Mass Spectrometry Data Center
Collection (C) 2014 copyright by the U.S. Secretary of Commerce
on behalf of the United States of America. All rights reserved.
##CAS REGISTRY NO=17302-36-2
##$NIST MASS SPEC NO=215205
##MOLFORM=C12 H26
##MW=170
##$NIST SOURCE=MSDC
##XUNITS=M/Z
##YUNITS=RELATIVE INTENSITY
##XFACTOR=1
##YFACTOR=1
##FIRSTX=41
##LASTX=171
##FIRSTY=2602
##MAXX=171
##MINX=41
##MAXY=9999
##MINY=20
##NPOINTS=23
##PEAK TABLE=(XY..XY)
41,2602 42,550 43,5955 44,150
55,1151 56,1101 57,9999 58,800
69,500 70,700 71,4353 72,200
83,350 84,250 85,1951 98,1000
99,550 112,750 113,400 140,1050
141,900 170,150 171,20
##END=
