##TITLE=Undecane, 2,10-dimethyl-
##JCAMP-DX=4.24
##DATA TYPE=MASS SPECTRUM
##ORIGIN=D.HENNEBERG, MAX-PLANCK INSTITUTE, MULHEIM, WEST GERMANY
##OWNER=NIST Mass Spectrometry Data Center
Collection (C) 2014 copyright by the U.S. Secretary of Commerce
on behalf of the United States of America. All rights reserved.
##CAS REGISTRY NO=17301-27-8
##$NIST MASS SPEC NO=61464
##MOLFORM=C13 H28
##MW=184
##$NIST SOURCE=MSDC
##XUNITS=M/Z
##YUNITS=RELATIVE INTENSITY
##XFACTOR=1
##YFACTOR=1
##FIRSTX=24
##LASTX=184
##FIRSTY=2
##MAXX=184
##MINX=24
##MAXY=9999
##MINY=1
##NPOINTS=64
##PEAK TABLE=(XY..XY)
24,2 25,11 26,85 27,960
28,114 29,1600 30,47 31,6
33,16 34,7 36,17 37,32
38,19 39,566 40,139 41,3304
42,1771 43,9999 44,118 51,84
52,5 53,156 54,110 55,1354
56,2159 57,9878 58,408 59,14
64,1 65,12 66,1 67,96
68,126 69,874 70,478 71,4958
72,248 79,64 81,20 82,58
83,207 84,262 85,3442 86,216
96,22 97,124 98,139 99,1194
100,80 110,3 111,44 112,121
113,435 114,28 125,83 126,14
127,175 140,324 141,984 142,103
168,14 169,229 170,21 184,32
##END=
