##TITLE=Nonane, 4,5-dimethyl-
##JCAMP-DX=4.24
##DATA TYPE=MASS SPECTRUM
##OWNER=NIST Mass Spectrometry Data Center
Collection (C) 2014 copyright by the U.S. Secretary of Commerce
on behalf of the United States of America. All rights reserved.
##CAS REGISTRY NO=17302-23-7
##$NIST MASS SPEC NO=5259
##MOLFORM=C11 H24
##MW=156
##$NIST SOURCE=MSDC
##XUNITS=M/Z
##YUNITS=RELATIVE INTENSITY
##XFACTOR=1
##YFACTOR=1
##FIRSTX=26
##LASTX=157
##FIRSTY=30
##MAXX=157
##MINX=26
##MAXY=9999
##MINY=10
##NPOINTS=50
##PEAK TABLE=(XY..XY)
26,30 27,611 29,1261 30,30
38,10 39,110 40,120 41,220
42,1051 43,9999 44,370 45,10
51,20 52,10 53,130 54,80
55,2042 56,2202 57,9358 58,400
65,20 66,10 67,70 68,40
69,1211 70,3403 71,6035 72,260
81,10 82,80 83,320 84,3253
85,3934 86,220 87,10 96,30
97,120 98,340 99,370 100,20
111,10 112,460 113,530 114,30
126,601 127,450 128,30 141,10
156,100 157,10
##END=
