##TITLE=Undecane, 2,5-dimethyl-
##JCAMP-DX=4.24
##DATA TYPE=MASS SPECTRUM
##ORIGIN=TECH. UNIVERSITY OF KARLSRUHE, KARLSRUHE, W. GERMANY
##OWNER=NIST Mass Spectrometry Data Center
Collection (C) 2014 copyright by the U.S. Secretary of Commerce
on behalf of the United States of America. All rights reserved.
##CAS REGISTRY NO=17301-22-3
##$NIST MASS SPEC NO=34614
##MOLFORM=C13 H28
##MW=184
##$NIST SOURCE=MSDC
##XUNITS=M/Z
##YUNITS=RELATIVE INTENSITY
##XFACTOR=1
##YFACTOR=1
##FIRSTX=12
##LASTX=186
##FIRSTY=1
##MAXX=186
##MINX=12
##MAXY=9999
##MINY=1
##NPOINTS=111
##PEAK TABLE=(XY..XY)
12,1 13,1 14,1 15,17
16,3 19,1 20,1 24,1
25,2 26,28 27,534 28,110
29,1070 30,26 31,1 32,1
36,2 37,4 38,7 39,301
40,67 41,1830 42,394 43,3890
44,131 45,9 46,1 47,1
48,1 49,1 50,13 51,14
52,9 53,101 54,61 55,859
56,1320 57,9999 58,443 59,8
60,3 63,6 64,2 65,12
66,7 67,57 68,58 69,434
70,1050 71,3480 72,191 73,5
77,10 78,3 79,11 80,3
81,15 82,67 83,305 84,227
85,531 86,35 87,2 88,1
91,4 92,1 93,2 94,1
95,5 96,5 97,50 98,514
99,872 100,64 101,1 102,1
108,2 109,3 110,5 111,27
112,937 113,526 114,42 115,2
123,1 124,1 125,3 126,53
127,72 128,6 129,1 138,1
139,3 140,74 141,112 142,11
143,1 153,1 154,41 155,88
156,10 157,1 168,19 169,121
170,15 171,1 182,9 183,5
184,122 185,17 186,1
##END=
