##TITLE=Naphthalene, 1,2,3,4-tetrahydro-6-methoxy-
##JCAMP-DX=4.24
##DATA TYPE=MASS SPECTRUM
##ORIGIN=Japan AIST/NIMC Database- Spectrum MS-NW-4177
##OWNER=NIST Mass Spectrometry Data Center
Collection (C) 2014 copyright by the U.S. Secretary of Commerce
on behalf of the United States of America. All rights reserved.
##CAS REGISTRY NO=1730-48-9
##$NIST MASS SPEC NO=232466
##MOLFORM=C11 H14 O
##MW=162
##$NIST SOURCE=MSDC
##XUNITS=M/Z
##YUNITS=RELATIVE INTENSITY
##XFACTOR=1
##YFACTOR=1
##FIRSTX=14
##LASTX=164
##FIRSTY=10
##MAXX=164
##MINX=14
##MAXY=9999
##MINY=10
##NPOINTS=107
##PEAK TABLE=(XY..XY)
14,10 15,219 18,10 26,40
27,269 28,20 29,40 30,10
31,10 37,20 38,90 39,679
40,70 41,429 42,20 43,50
44,20 45,40 49,10 50,229
51,589 52,189 53,239 54,20
55,129 56,10 57,40 58,20
61,40 62,139 63,469 64,139
65,709 66,80 67,50 68,10
69,10 73,30 74,109 75,119
76,109 77,739 78,519 79,209
80,40 81,70 85,20 86,30
87,50 88,30 89,269 90,139
91,2489 92,249 93,50 94,20
95,10 98,20 99,10 101,40
102,219 103,669 104,829 105,339
106,50 107,149 108,50 109,20
110,10 111,20 113,20 114,30
115,929 116,409 117,489 118,149
119,749 120,149 121,1079 122,99
123,10 126,30 127,219 128,339
129,409 130,199 131,1319 132,259
133,169 134,9999 135,1029 136,70
137,10 143,10 144,139 145,219
146,379 147,819 148,199 149,20
158,30 159,129 160,149 161,3069
162,8139 163,1029 164,80
##END=
