##TITLE=3-Ethyl-3-methylheptane
##JCAMP-DX=4.24
##DATA TYPE=MASS SPECTRUM
##ORIGIN=Japan AIST/NIMC Database- Spectrum MS-NW-8698
##OWNER=NIST Mass Spectrometry Data Center
Collection (C) 2014 copyright by the U.S. Secretary of Commerce
on behalf of the United States of America. All rights reserved.
##CAS REGISTRY NO=17302-01-1
##$NIST MASS SPEC NO=227578
##MOLFORM=C10 H22
##MW=142
##$NIST SOURCE=MSDC
##XUNITS=M/Z
##YUNITS=RELATIVE INTENSITY
##XFACTOR=1
##YFACTOR=1
##FIRSTX=15
##LASTX=128
##FIRSTY=20
##MAXX=128
##MINX=15
##MAXY=9999
##MINY=10
##NPOINTS=48
##PEAK TABLE=(XY..XY)
15,20 26,30 27,819 28,129
29,1569 30,30 38,10 39,559
40,70 41,2719 42,289 43,9649
44,319 50,10 51,40 52,20
53,219 54,60 55,1359 56,309
57,9999 58,439 63,10 65,30
66,10 67,90 68,20 69,749
70,699 71,7889 72,429 73,10
77,20 79,20 81,20 82,20
83,279 84,1519 85,5729 86,379
87,10 97,20 112,709 113,2449
114,209 115,10 127,159 128,10
##END=
