##TITLE=Undecane, 3,7-dimethyl-
##JCAMP-DX=4.24
##DATA TYPE=MASS SPECTRUM
##ORIGIN=D.HENNEBERG, MAX-PLANCK INSTITUTE, MULHEIM, WEST GERMANY
##OWNER=NIST Mass Spectrometry Data Center
Collection (C) 2014 copyright by the U.S. Secretary of Commerce
on behalf of the United States of America. All rights reserved.
##CAS REGISTRY NO=17301-29-0
##$NIST MASS SPEC NO=60734
##MOLFORM=C13 H28
##MW=184
##$NIST SOURCE=MSDC
##XUNITS=M/Z
##YUNITS=RELATIVE INTENSITY
##XFACTOR=1
##YFACTOR=1
##FIRSTX=21
##LASTX=184
##FIRSTY=18
##MAXX=184
##MINX=21
##MAXY=9999
##MINY=4
##NPOINTS=46
##PEAK TABLE=(XY..XY)
21,18 26,104 27,1089 28,543
29,2643 30,44 33,4 37,16
38,6 39,572 40,86 41,3262
42,750 43,9999 44,31 51,7
53,123 54,95 55,1382 56,2070
57,8941 58,320 67,69 68,39
69,542 70,884 71,5110 72,284
83,84 84,1489 85,4261 86,242
96,59 97,262 98,165 99,430
112,10 113,114 126,221 127,633
128,41 154,21 155,177 156,6
169,16 184,12
##END=
