##TITLE=Undecane, 3,9-dimethyl-
##JCAMP-DX=4.24
##DATA TYPE=MASS SPECTRUM
##ORIGIN=D.HENNEBERG, MAX-PLANCK INSTITUTE, MULHEIM, WEST GERMANY
##OWNER=NIST Mass Spectrometry Data Center
Collection (C) 2014 copyright by the U.S. Secretary of Commerce
on behalf of the United States of America. All rights reserved.
##CAS REGISTRY NO=17301-31-4
##$NIST MASS SPEC NO=61474
##MOLFORM=C13 H28
##MW=184
##$NIST SOURCE=MSDC
##XUNITS=M/Z
##YUNITS=RELATIVE INTENSITY
##XFACTOR=1
##YFACTOR=1
##FIRSTX=25
##LASTX=184
##FIRSTY=28
##MAXX=184
##MINX=25
##MAXY=9999
##MINY=1
##NPOINTS=66
##PEAK TABLE=(XY..XY)
25,28 26,49 27,493 28,44
29,1760 30,42 31,7 33,88
35,23 36,11 37,25 39,358
40,37 41,2476 42,452 43,4057
47,10 48,3 49,4 51,24
52,2 53,108 54,71 55,1232
56,2369 57,9999 58,391 65,23
66,1 67,64 68,42 69,437
70,951 71,4307 72,233 73,6
75,11 77,8 79,13 81,31
82,31 83,295 84,115 85,2713
86,151 95,5 96,33 97,159
98,65 99,986 100,86 111,13
112,20 113,395 114,53 124,44
125,374 126,133 127,305 128,33
154,216 155,776 156,77 169,31
182,6 184,19
##END=
