##TITLE=Undecane, 6,6-dimethyl-
##JCAMP-DX=4.24
##DATA TYPE=MASS SPECTRUM
##ORIGIN=D.HENNEBERG, MAX-PLANCK INSTITUTE, MULHEIM, WEST GERMANY
##OWNER=NIST Mass Spectrometry Data Center
Collection (C) 2014 copyright by the U.S. Secretary of Commerce
on behalf of the United States of America. All rights reserved.
##CAS REGISTRY NO=17312-76-4
##$NIST MASS SPEC NO=60723
##MOLFORM=C13 H28
##MW=184
##$NIST SOURCE=MSDC
##XUNITS=M/Z
##YUNITS=RELATIVE INTENSITY
##XFACTOR=1
##YFACTOR=1
##FIRSTX=22
##LASTX=170
##FIRSTY=17
##MAXX=170
##MINX=22
##MAXY=9999
##MINY=1
##NPOINTS=63
##PEAK TABLE=(XY..XY)
22,17 23,6 24,8 25,19
26,128 27,623 28,211 29,1425
30,17 31,14 32,86 33,3
34,17 35,9 36,26 37,24
38,1 39,362 41,1913 42,229
43,4217 45,16 46,29 47,14
48,2 51,39 53,112 54,27
55,669 56,1552 57,9999 58,466
63,8 65,44 66,7 67,61
68,61 69,468 70,308 71,6984
72,344 79,11 80,7 81,30
83,73 84,274 85,267 86,9
87,31 97,98 99,61 101,9
104,3 111,2 112,993 113,2287
114,181 117,9 125,7 127,15
141,4 168,8 170,15
##END=
