##TITLE=Undecane, 3,4-dimethyl-
##JCAMP-DX=4.24
##DATA TYPE=MASS SPECTRUM
##ORIGIN=D.HENNEBERG, MAX-PLANCK INSTITUTE, MULHEIM, WEST GERMANY
##OWNER=NIST Mass Spectrometry Data Center
Collection (C) 2014 copyright by the U.S. Secretary of Commerce
on behalf of the United States of America. All rights reserved.
##CAS REGISTRY NO=17312-78-6
##$NIST MASS SPEC NO=60797
##MOLFORM=C13 H28
##MW=184
##$NIST SOURCE=MSDC
##XUNITS=M/Z
##YUNITS=RELATIVE INTENSITY
##XFACTOR=1
##YFACTOR=1
##FIRSTX=22
##LASTX=155
##FIRSTY=40
##MAXX=155
##MINX=22
##MAXY=9999
##MINY=3
##NPOINTS=37
##PEAK TABLE=(XY..XY)
22,40 26,40 27,970 29,2358
30,3 39,492 40,54 41,3465
42,747 43,9999 44,23 53,128
54,33 55,1670 56,4671 57,9489
58,429 67,73 68,88 69,901
70,1147 71,7228 72,343 82,201
83,634 84,1242 85,5352 86,280
96,58 97,730 98,370 99,266
113,42 126,2168 127,890 128,28
155,220
##END=
