##TITLE=Undecane, 3,5-dimethyl-
##JCAMP-DX=4.24
##DATA TYPE=MASS SPECTRUM
##ORIGIN=D.HENNEBERG, MAX-PLANCK INSTITUTE, MULHEIM, WEST GERMANY
##OWNER=NIST Mass Spectrometry Data Center
Collection (C) 2014 copyright by the U.S. Secretary of Commerce
on behalf of the United States of America. All rights reserved.
##CAS REGISTRY NO=17312-81-1
##$NIST MASS SPEC NO=60743
##MOLFORM=C13 H28
##MW=184
##$NIST SOURCE=MSDC
##XUNITS=M/Z
##YUNITS=RELATIVE INTENSITY
##XFACTOR=1
##YFACTOR=1
##FIRSTX=22
##LASTX=184
##FIRSTY=29
##MAXX=184
##MINX=22
##MAXY=9999
##MINY=3
##NPOINTS=62
##PEAK TABLE=(XY..XY)
22,29 23,16 24,10 26,76
27,478 29,1212 30,5 31,38
32,15 33,42 34,12 35,10
36,9 37,32 39,370 41,1942
42,439 43,3973 44,167 48,12
50,10 51,24 52,13 53,83
54,21 55,355 56,1216 57,9999
60,7 62,3 67,54 68,54
69,467 70,734 71,3677 72,231
81,6 82,101 83,185 84,241
85,1373 86,72 87,14 91,10
97,53 98,532 99,939 100,65
111,32 112,301 113,212 125,9
126,146 127,177 128,11 140,16
141,7 147,5 155,284 156,16
169,35 184,38
##END=
