##TITLE=Dodecane, 3-methyl-
##JCAMP-DX=4.24
##DATA TYPE=MASS SPECTRUM
##ORIGIN=D.HENNEBERG, MAX-PLANCK INSTITUTE, MULHEIM, WEST GERMANY
##OWNER=NIST Mass Spectrometry Data Center
Collection (C) 2014 copyright by the U.S. Secretary of Commerce
on behalf of the United States of America. All rights reserved.
##CAS REGISTRY NO=17312-57-1
##$NIST MASS SPEC NO=60774
##MOLFORM=C13 H28
##MW=184
##$NIST SOURCE=MSDC
##XUNITS=M/Z
##YUNITS=RELATIVE INTENSITY
##XFACTOR=1
##YFACTOR=1
##FIRSTX=23
##LASTX=169
##FIRSTY=30
##MAXX=169
##MINX=23
##MAXY=9999
##MINY=2
##NPOINTS=64
##PEAK TABLE=(XY..XY)
23,30 26,91 27,793 28,14
29,2169 30,102 31,7 32,41
33,32 37,43 38,14 39,467
40,182 41,2953 42,680 43,5807
47,33 51,9 52,13 53,172
54,51 55,1210 56,3035 57,9999
58,379 60,6 61,2 66,20
67,126 68,39 69,461 70,393
71,3675 72,166 73,33 77,32
78,27 81,30 82,61 83,197
84,212 85,2332 86,129 91,7
95,13 96,46 97,185 98,83
99,740 100,29 102,5 111,84
112,42 113,246 114,33 115,11
125,61 126,73 127,82 154,375
155,647 156,72 168,15 169,40
##END=
