##TITLE=Nonadecanoic acid, methyl ester
##JCAMP-DX=4.24
##DATA TYPE=MASS SPECTRUM
##ORIGIN=NIST Mass Spectrometry Data Center
##OWNER=NIST Mass Spectrometry Data Center
Collection (C) 2014 copyright by the U.S. Secretary of Commerce
on behalf of the United States of America. All rights reserved.
##CAS REGISTRY NO=1731-94-8
##$NIST MASS SPEC NO=352589
##MOLFORM=C20 H40 O2
##MW=312
##$NIST SOURCE=MSDC
##XUNITS=M/Z
##YUNITS=RELATIVE INTENSITY
##XFACTOR=1
##YFACTOR=1
##FIRSTX=15
##LASTX=314
##FIRSTY=50
##MAXX=314
##MINX=15
##MAXY=9999
##MINY=10
##NPOINTS=155
##PEAK TABLE=(XY..XY)
15,50 26,10 27,180 28,60
29,581 30,20 31,30 33,10
39,200 40,50 41,1942 42,440
43,3293 44,120 45,90 51,10
52,10 53,130 54,180 55,2602
56,530 57,1962 58,130 59,781
60,40 61,20 65,30 66,20
67,320 68,160 69,1491 70,290
71,761 72,50 73,240 74,9999
75,2502 76,120 77,30 78,10
79,90 80,30 81,300 82,140
83,1011 84,380 85,410 87,7317
88,611 89,50 91,20 93,80
94,30 95,250 96,120 97,881
98,360 99,90 100,30 101,671
102,70 103,10 105,10 107,70
108,20 109,130 110,60 111,350
112,90 113,50 114,20 115,260
116,120 117,10 121,90 122,10
123,70 124,30 125,160 126,30
127,30 129,791 130,190 131,20
133,10 135,80 136,10 137,30
138,20 139,90 140,20 141,10
143,2262 144,210 145,20 149,50
150,10 151,10 152,10 153,40
154,10 155,10 157,300 158,50
163,30 165,10 166,10 167,20
168,10 171,200 172,40 177,20
180,10 181,20 182,10 185,320
186,60 187,10 191,10 194,10
195,10 196,10 199,440 200,70
201,10 205,10 209,10 210,10
213,380 214,60 215,10 223,10
227,220 228,40 236,10 237,10
238,10 241,120 242,20 255,200
256,40 257,10 261,10 269,881
270,160 271,20 279,10 280,10
281,330 282,70 283,180 284,40
312,1171 313,260 314,30
##END=
