##TITLE=Undecane, 5,7-dimethyl-
##JCAMP-DX=4.24
##DATA TYPE=MASS SPECTRUM
##ORIGIN=D.HENNEBERG, MAX-PLANCK INSTITUTE, MULHEIM, WEST GERMANY
##OWNER=NIST Mass Spectrometry Data Center
Collection (C) 2014 copyright by the U.S. Secretary of Commerce
on behalf of the United States of America. All rights reserved.
##CAS REGISTRY NO=17312-83-3
##$NIST MASS SPEC NO=60731
##MOLFORM=C13 H28
##MW=184
##$NIST SOURCE=MSDC
##XUNITS=M/Z
##YUNITS=RELATIVE INTENSITY
##XFACTOR=1
##YFACTOR=1
##FIRSTX=21
##LASTX=128
##FIRSTY=8
##MAXX=128
##MINX=21
##MAXY=9999
##MINY=3
##NPOINTS=38
##PEAK TABLE=(XY..XY)
21,8 24,4 26,33 27,977
29,1675 30,25 32,127 36,3
39,450 41,2687 42,680 43,9999
52,14 53,72 54,78 55,1205
56,1436 57,6927 58,366 67,63
68,19 69,587 70,702 71,4070
72,196 82,27 83,100 84,1364
85,3535 86,235 96,18 97,23
98,301 99,373 113,19 126,240
127,863 128,49
##END=
