##TITLE=Decane, 2,5-dimethyl-
##JCAMP-DX=4.24
##DATA TYPE=MASS SPECTRUM
##ORIGIN=TECH. UNIVERSITY OF KARLSRUHE, KARLSRUHE, W. GERMANY
##OWNER=NIST Mass Spectrometry Data Center
Collection (C) 2014 copyright by the U.S. Secretary of Commerce
on behalf of the United States of America. All rights reserved.
##CAS REGISTRY NO=17312-50-4
##$NIST MASS SPEC NO=34613
##MOLFORM=C12 H26
##MW=170
##$NIST SOURCE=MSDC
##XUNITS=M/Z
##YUNITS=RELATIVE INTENSITY
##XFACTOR=1
##YFACTOR=1
##FIRSTX=12
##LASTX=172
##FIRSTY=1
##MAXX=172
##MINX=12
##MAXY=9999
##MINY=1
##NPOINTS=100
##PEAK TABLE=(XY..XY)
12,1 13,1 14,2 15,18
16,3 19,1 20,1 24,1
25,2 26,25 27,488 28,104
29,926 30,22 31,1 32,3
36,3 37,5 38,8 39,282
40,62 41,1530 42,323 43,3030
44,100 45,2 46,1 47,1
48,1 49,2 50,19 51,14
52,8 53,83 54,56 55,649
56,1140 57,9999 58,441 59,8
62,1 63,3 64,1 65,10
66,5 67,36 68,41 69,360
70,869 71,853 72,46 73,2
74,1 75,1 77,8 78,2
79,8 80,2 81,9 82,7
83,92 84,33 85,378 86,25
87,1 91,3 92,1 93,2
95,4 96,5 97,23 98,1300
99,1060 100,73 101,1 110,1
111,6 112,49 113,72 114,6
115,1 125,3 126,74 127,95
128,9 129,1 139,1 140,38
141,72 142,7 143,1 154,17
155,100 156,12 157,1 168,6
169,4 170,122 171,16 172,1
##END=
