##TITLE=Tridecanoic acid, methyl ester
##JCAMP-DX=4.24
##DATA TYPE=MASS SPECTRUM
##ORIGIN=NIST Mass Spectrometry Data Center
##OWNER=NIST Mass Spectrometry Data Center
Collection (C) 2014 copyright by the U.S. Secretary of Commerce
on behalf of the United States of America. All rights reserved.
##CAS REGISTRY NO=1731-88-0
##$NIST MASS SPEC NO=352604
##MOLFORM=C14 H28 O2
##MW=228
##$NIST SOURCE=MSDC
##XUNITS=M/Z
##YUNITS=RELATIVE INTENSITY
##XFACTOR=1
##YFACTOR=1
##FIRSTX=15
##LASTX=230
##FIRSTY=70
##MAXX=230
##MINX=15
##MAXY=9999
##MINY=10
##NPOINTS=115
##PEAK TABLE=(XY..XY)
15,70 26,10 27,250 28,80
29,591 30,20 31,30 33,10
38,10 39,330 40,70 41,1862
42,450 43,2232 44,90 45,110
51,20 52,10 53,170 54,160
55,2222 56,420 57,1081 58,70
59,1001 60,30 61,20 65,30
66,20 67,250 68,120 69,1111
70,220 71,360 72,30 73,240
74,9999 75,1521 76,90 77,30
78,10 79,90 80,20 81,190
82,90 83,661 84,360 85,220
87,6786 88,621 89,50 91,10
93,50 94,20 95,160 96,70
97,540 98,310 99,60 100,30
101,631 102,60 103,10 107,40
108,10 109,80 110,30 111,190
112,70 113,30 114,10 115,220
116,90 117,10 121,30 122,10
123,40 124,20 125,80 126,20
127,10 129,971 130,140 131,10
135,30 137,10 139,30 140,10
143,1942 144,170 145,10 149,20
152,30 153,20 154,60 155,10
157,200 158,30 163,10 167,10
171,210 172,30 177,10 178,10
185,1121 186,150 187,10 195,10
197,601 198,90 199,380 200,50
228,360 229,70 230,10
##END=
