##TITLE=Decane, 5-propyl-
##JCAMP-DX=4.24
##DATA TYPE=MASS SPECTRUM
##ORIGIN=D.HENNEBERG, MAX-PLANCK INSTITUTE, MULHEIM, WEST GERMANY
##OWNER=NIST Mass Spectrometry Data Center
Collection (C) 2014 copyright by the U.S. Secretary of Commerce
on behalf of the United States of America. All rights reserved.
##CAS REGISTRY NO=17312-62-8
##$NIST MASS SPEC NO=61471
##MOLFORM=C13 H28
##MW=184
##$NIST SOURCE=MSDC
##XUNITS=M/Z
##YUNITS=RELATIVE INTENSITY
##XFACTOR=1
##YFACTOR=1
##FIRSTX=25
##LASTX=184
##FIRSTY=18
##MAXX=184
##MINX=25
##MAXY=9999
##MINY=2
##NPOINTS=63
##PEAK TABLE=(XY..XY)
25,18 26,59 27,817 28,23
29,1777 30,12 36,5 37,10
38,16 39,434 40,99 41,2974
42,712 43,7442 44,119 45,18
51,22 52,5 53,153 54,101
55,1552 56,1030 57,9999 58,386
63,4 65,20 66,6 67,120
68,85 69,571 70,902 71,7977
72,434 73,3 77,20 79,24
81,24 82,201 83,523 84,530
85,3634 86,258 91,6 96,47
97,388 98,207 99,419 100,38
110,4 111,139 112,1010 113,241
114,3 125,2 126,771 127,347
128,30 140,791 141,444 142,42
154,11 155,16 184,46
##END=
