##TITLE=4,4-Dipropylheptane
##JCAMP-DX=4.24
##DATA TYPE=MASS SPECTRUM
##ORIGIN=NIST Mass Spectrometry Data Center, 1990.
##OWNER=NIST Mass Spectrometry Data Center
Collection (C) 2014 copyright by the U.S. Secretary of Commerce
on behalf of the United States of America. All rights reserved.
##CAS REGISTRY NO=17312-72-0
##$NIST MASS SPEC NO=114061
##MOLFORM=C13 H28
##MW=184
##$NIST SOURCE=MSDC
##XUNITS=M/Z
##YUNITS=RELATIVE INTENSITY
##XFACTOR=1
##YFACTOR=1
##FIRSTX=27
##LASTX=142
##FIRSTY=1398
##MAXX=142
##MINX=27
##MAXY=9999
##MINY=118
##NPOINTS=36
##PEAK TABLE=(XY..XY)
27,1398 28,597 29,1414 32,123
39,1062 41,5275 42,741 43,6106
44,249 53,646 55,4304 56,2068
57,9999 58,427 65,231 66,118
67,675 68,235 69,1551 71,7107
72,410 77,218 79,249 81,197
83,331 84,1234 85,8589 86,597
97,902 98,666 99,1806 100,127
112,187 140,1633 141,4088 142,450
##END=
