##TITLE=Heptadecanoic acid, methyl ester
##JCAMP-DX=4.24
##DATA TYPE=MASS SPECTRUM
##ORIGIN=Japan AIST/NIMC Database- Spectrum MS-NW-5983
##OWNER=NIST Mass Spectrometry Data Center
Collection (C) 2014 copyright by the U.S. Secretary of Commerce
on behalf of the United States of America. All rights reserved.
##CAS REGISTRY NO=1731-92-6
##$NIST MASS SPEC NO=227555
##MOLFORM=C18 H36 O2
##MW=284
##$NIST SOURCE=MSDC
##XUNITS=M/Z
##YUNITS=RELATIVE INTENSITY
##XFACTOR=1
##YFACTOR=1
##FIRSTX=15
##LASTX=286
##FIRSTY=259
##MAXX=286
##MINX=15
##MAXY=9999
##MINY=10
##NPOINTS=145
##PEAK TABLE=(XY..XY)
15,259 17,10 18,70 26,10
27,379 28,80 29,1019 30,30
31,60 32,10 33,10 39,239
40,50 41,1999 42,419 43,2669
44,99 45,159 51,10 53,109
54,159 55,1779 56,399 57,1509
58,80 59,449 60,30 61,30
65,20 66,20 67,239 68,129
69,1149 70,239 71,559 72,40
73,169 74,9999 75,1839 76,99
77,30 78,10 79,50 80,30
81,189 82,119 83,679 84,319
85,289 86,20 87,6409 88,579
89,50 91,20 93,50 94,20
95,149 96,80 97,489 98,369
99,70 100,20 101,489 102,60
103,10 107,40 108,10 109,80
110,40 111,229 112,99 113,40
114,10 115,169 116,99 117,10
121,40 122,10 123,30 124,30
125,109 126,30 127,20 129,549
130,139 131,10 135,40 136,10
137,20 138,10 139,70 140,20
141,10 143,1319 144,159 145,10
149,30 151,10 152,10 153,40
154,10 155,10 157,129 158,30
163,20 166,10 167,30 171,90
172,40 177,20 181,20 182,10
185,379 186,60 191,10 195,10
196,10 199,329 200,60 201,10
205,10 208,20 209,20 210,20
213,70 214,10 223,10 224,10
225,10 227,109 228,30 233,10
234,10 241,729 242,149 243,20
251,10 252,10 253,409 254,90
255,199 256,50 284,849 285,189
286,20
##END=
