##TITLE=Undecane, 3,3-dimethyl-
##JCAMP-DX=4.24
##DATA TYPE=MASS SPECTRUM
##ORIGIN=D.HENNEBERG, MAX-PLANCK INSTITUTE, MULHEIM, WEST GERMANY
##OWNER=NIST Mass Spectrometry Data Center
Collection (C) 2014 copyright by the U.S. Secretary of Commerce
on behalf of the United States of America. All rights reserved.
##CAS REGISTRY NO=17312-65-1
##$NIST MASS SPEC NO=60757
##MOLFORM=C13 H28
##MW=184
##$NIST SOURCE=MSDC
##XUNITS=M/Z
##YUNITS=RELATIVE INTENSITY
##XFACTOR=1
##YFACTOR=1
##FIRSTX=22
##LASTX=169
##FIRSTY=4
##MAXX=169
##MINX=22
##MAXY=9999
##MINY=1
##NPOINTS=46
##PEAK TABLE=(XY..XY)
22,4 26,104 27,551 28,77
29,1130 30,12 33,8 39,332
40,34 41,1872 42,375 43,6268
44,127 51,1 53,90 54,38
55,1267 56,520 57,5358 58,193
67,342 68,18 69,418 70,3902
71,9999 72,527 82,3 83,81
84,35 85,1888 86,104 97,24
98,50 99,695 100,33 111,16
112,22 113,257 114,1 126,33
127,9 139,16 154,280 155,873
156,91 169,97
##END=
