##TITLE=Decane, 3,8-dimethyl-
##JCAMP-DX=4.24
##DATA TYPE=MASS SPECTRUM
##ORIGIN=D.HENNEBERG, MAX-PLANCK INSTITUTE, MULHEIM, WEST GERMANY
##OWNER=NIST Mass Spectrometry Data Center
Collection (C) 2014 copyright by the U.S. Secretary of Commerce
on behalf of the United States of America. All rights reserved.
##CAS REGISTRY NO=17312-55-9
##$NIST MASS SPEC NO=60872
##MOLFORM=C12 H26
##MW=170
##$NIST SOURCE=MSDC
##XUNITS=M/Z
##YUNITS=RELATIVE INTENSITY
##XFACTOR=1
##YFACTOR=1
##FIRSTX=25
##LASTX=170
##FIRSTY=7
##MAXX=170
##MINX=25
##MAXY=9999
##MINY=1
##NPOINTS=66
##PEAK TABLE=(XY..XY)
25,7 26,49 27,592 28,98
29,1977 30,45 36,6 38,11
39,449 40,90 41,2693 42,419
43,4925 44,126 45,2 50,6
51,23 52,12 53,138 54,62
55,969 56,2358 57,9999 58,425
59,7 65,142 66,6 67,57
68,24 69,252 70,781 71,4712
72,268 73,6 77,78 78,1
79,11 81,6 82,26 83,177
84,124 85,3714 86,251 87,7
88,5 91,1 97,188 98,37
99,812 100,65 110,89 111,452
112,112 113,1021 114,97 115,2
127,11 140,176 141,842 142,98
143,4 154,5 155,30 156,2
169,2 170,9
##END=
