##TITLE=Acetanilide, 2-chloro-4'-nitro-
##JCAMP-DX=4.24
##DATA TYPE=MASS SPECTRUM
##ORIGIN=A.A.Kutin, Moscow, Russia
##OWNER=NIST Mass Spectrometry Data Center
Collection (C) 2014 copyright by the U.S. Secretary of Commerce
on behalf of the United States of America. All rights reserved.
##CAS REGISTRY NO=17329-87-2
##$NIST MASS SPEC NO=266952
##MOLFORM=C8 H7 Cl N2 O3
##MW=214
##$NIST SOURCE=MSDC
##XUNITS=M/Z
##YUNITS=RELATIVE INTENSITY
##XFACTOR=1
##YFACTOR=1
##FIRSTX=33
##LASTX=218
##FIRSTY=34
##MAXX=218
##MINX=33
##MAXY=9999
##MINY=4
##NPOINTS=143
##PEAK TABLE=(XY..XY)
33,34 34,25 35,118 36,322
37,552 38,1615 39,1598 40,607
41,699 42,1023 43,432 44,300
45,60 46,134 47,65 48,293
49,4233 50,1569 51,2359 52,1441
53,657 54,133 55,120 56,46
57,84 58,15 60,77 61,392
62,1074 63,3408 64,3138 65,2857
66,322 67,80 68,39 69,54
70,38 71,42 73,140 74,439
75,858 76,1447 77,4337 78,677
79,1544 80,782 81,166 82,29
83,29 84,17 85,34 86,35
87,78 88,105 89,147 90,737
91,1314 92,2496 93,320 94,29
95,26 96,10 97,27 99,66
100,16 101,27 102,77 103,98
104,559 105,859 106,261 108,5223
109,360 110,35 111,22 112,21
113,24 114,19 115,17 116,9
117,20 118,78 119,172 120,67
121,179 122,846 123,181 124,28
125,9 126,7 127,17 128,4
129,7 130,4 131,32 132,197
133,299 134,110 135,46 138,9999
139,764 140,93 141,25 142,16
144,5 146,10 147,20 148,39
149,101 151,236 152,20 153,4
161,5 162,36 165,2828 166,229
167,67 168,77 169,25 170,26
171,17 172,17 174,6 177,7
179,191 180,33 181,16 184,105
185,27 186,39 187,5 196,13
198,126 199,21 200,41 201,4
205,8 211,7 214,6574 215,771
216,1982 217,187 218,25
##END=
