##TITLE=Pyrene, 1,2,3,6,7,8-hexahydro-
##JCAMP-DX=4.24
##DATA TYPE=MASS SPECTRUM
##ORIGIN=Japan AIST/NIMC Database- Spectrum MS-IW-1106
##OWNER=NIST Mass Spectrometry Data Center
Collection (C) 2014 copyright by the U.S. Secretary of Commerce
on behalf of the United States of America. All rights reserved.
##CAS REGISTRY NO=1732-13-4
##$NIST MASS SPEC NO=228331
##MOLFORM=C16 H16
##MW=208
##$NIST SOURCE=MSDC
##XUNITS=M/Z
##YUNITS=RELATIVE INTENSITY
##XFACTOR=1
##YFACTOR=1
##FIRSTX=27
##LASTX=211
##FIRSTY=10
##MAXX=211
##MINX=27
##MAXY=9999
##MINY=10
##NPOINTS=96
##PEAK TABLE=(XY..XY)
27,10 28,10 39,30 41,10
50,10 51,30 53,10 55,30
62,10 63,60 64,10 65,10
69,10 74,20 75,60 76,179
77,30 81,30 82,99 83,30
86,10 87,40 88,149 89,689
90,319 91,10 93,40 94,209
95,149 96,50 98,10 99,10
100,90 101,189 102,40 103,20
104,109 113,10 115,50 126,20
127,20 128,30 129,10 135,10
139,50 141,40 142,10 149,10
150,60 151,109 152,319 153,129
154,20 155,10 156,10 162,10
163,80 164,90 165,2139 166,409
167,159 168,20 169,40 170,20
174,20 175,30 176,159 177,129
178,899 179,1239 180,1749 181,289
182,20 184,20 187,40 188,40
189,469 190,279 191,409 192,249
193,639 194,99 198,10 199,20
200,99 201,90 202,389 203,239
204,60 205,229 206,80 207,1769
208,9999 209,1729 210,139 211,10
##END=
