##TITLE=Octanedioic acid, dimethyl ester
##JCAMP-DX=4.24
##DATA TYPE=MASS SPECTRUM
##ORIGIN=NIST Mass Spectrometry Data Center
##OWNER=NIST Mass Spectrometry Data Center
Collection (C) 2014 copyright by the U.S. Secretary of Commerce
on behalf of the United States of America. All rights reserved.
##CAS REGISTRY NO=1732-09-8
##$NIST MASS SPEC NO=352556
##MOLFORM=C10 H18 O4
##MW=202
##$NIST SOURCE=MSDC
##XUNITS=M/Z
##YUNITS=RELATIVE INTENSITY
##XFACTOR=1
##YFACTOR=1
##FIRSTX=14
##LASTX=203
##FIRSTY=20
##MAXX=203
##MINX=14
##MAXY=9999
##MINY=10
##NPOINTS=125
##PEAK TABLE=(XY..XY)
14,20 15,631 16,10 26,70
27,691 28,480 29,911 30,70
31,250 32,10 33,50 34,10
37,10 38,40 39,1211 40,300
41,3693 42,1281 43,3203 44,200
45,751 46,20 47,10 48,10
50,40 51,100 52,60 53,550
54,460 55,7227 56,1231 57,550
58,110 59,5755 60,170 61,60
62,10 63,20 64,10 65,130
66,80 67,941 68,1481 69,7877
70,701 71,230 72,180 73,671
74,8207 75,400 76,40 77,80
78,50 79,280 80,50 81,601
82,1301 83,4244 84,1041 85,460
87,3954 88,430 89,30 91,50
92,60 93,280 94,120 95,200
96,430 97,7727 98,550 99,260
100,180 101,921 102,80 103,20
107,10 108,20 109,250 110,2282
111,2652 112,240 113,470 114,1431
115,320 116,220 117,20 119,10
120,70 121,100 122,10 123,10
124,10 125,100 126,50 127,440
128,601 129,9999 130,801 131,70
136,10 137,320 138,9549 139,2422
140,230 141,70 142,1201 143,230
144,50 145,10 146,10 148,10
152,20 153,10 155,40 159,10
160,130 161,10 169,10 170,330
171,5245 172,540 173,60 174,10
203,10
##END=
