##TITLE=all-trans-1,6-Diphenyl-1,3,5-hexatriene
##JCAMP-DX=4.24
##DATA TYPE=MASS SPECTRUM
##ORIGIN=NIST Mass Spectrometry Data Center, 1994
##OWNER=NIST Mass Spectrometry Data Center
Collection (C) 2014 copyright by the U.S. Secretary of Commerce
on behalf of the United States of America. All rights reserved.
##CAS REGISTRY NO=17329-15-6
##$NIST MASS SPEC NO=136310
##MOLFORM=C18 H16
##MW=232
##$NIST SOURCE=MSDC
##XUNITS=M/Z
##YUNITS=RELATIVE INTENSITY
##XFACTOR=1
##YFACTOR=1
##FIRSTX=17
##LASTX=234
##FIRSTY=119
##MAXX=234
##MINX=17
##MAXY=9999
##MINY=93
##NPOINTS=83
##PEAK TABLE=(XY..XY)
17,119 18,176 38,166 39,1628
40,107 50,719 51,1991 52,460
53,170 62,295 63,1268 64,229
65,1303 66,125 75,481 76,707
77,1840 78,895 87,239 88,254
89,1103 90,239 91,7878 92,648
95,186 100,152 101,592 102,1020
103,582 104,325 108,285 113,280
115,4643 116,1328 117,1425 118,160
126,315 127,1085 128,4618 129,1244
130,158 139,442 141,4915 142,537
150,180 151,454 152,1464 153,2208
154,1876 155,1074 156,121 163,106
164,110 165,519 166,105 167,436
176,134 178,310 179,108 189,446
190,230 191,766 192,126 200,93
201,157 202,1433 203,836 204,626
205,195 213,111 215,2091 216,1372
217,1922 218,334 226,317 227,187
228,421 229,439 230,364 231,1398
232,9999 233,2190 234,232
##END=
