##TITLE=6-Azathymine, bis(trimethylsilyl) ether
##JCAMP-DX=4.24
##DATA TYPE=MASS SPECTRUM
##ORIGIN=NIST Mass Spectrometry Data Center
##OWNER=NIST Mass Spectrometry Data Center
Collection (C) 2014 copyright by the U.S. Secretary of Commerce
on behalf of the United States of America. All rights reserved.
##CAS REGISTRY NO=17331-64-5
##$NIST MASS SPEC NO=333806
##MOLFORM=C10 H21 N3 O2 Si2
##MW=271
##$NIST SOURCE=MSDC
##XUNITS=M/Z
##YUNITS=RELATIVE INTENSITY
##XFACTOR=1
##YFACTOR=1
##FIRSTX=15
##LASTX=275
##FIRSTY=20
##MAXX=275
##MINX=15
##MAXY=9999
##MINY=10
##NPOINTS=157
##PEAK TABLE=(XY..XY)
15,20 26,10 27,60 28,30
29,90 30,10 31,30 39,20
40,10 41,30 42,80 43,661
44,320 45,1832 46,130 47,120
51,10 52,30 53,80 54,60
55,300 56,190 57,170 58,340
59,651 60,70 61,50 63,10
64,10 66,20 67,20 68,20
69,60 70,470 71,130 72,1121
73,9999 74,1101 75,571 76,30
77,10 78,10 81,20 82,20
83,160 84,120 85,150 86,561
87,240 88,40 89,10 96,10
97,20 98,90 99,150 100,2182
101,220 102,140 103,30 104,10
105,20 106,30 110,10 111,20
113,4734 114,681 115,1892 116,430
117,160 118,30 119,20 120,180
124,10 125,10 126,10 127,130
128,520 129,100 130,60 131,180
132,80 133,190 134,30 135,20
139,10 140,210 141,150 142,40
143,20 144,20 145,40 147,1782
148,290 149,150 150,10 154,10
155,40 156,370 157,190 158,80
159,50 160,80 161,20 162,10
170,30 171,20 172,120 173,60
174,70 175,120 176,20 177,10
182,10 183,10 184,40 185,20
186,20 187,220 188,380 189,90
190,30 197,10 198,50 199,10
200,20 201,30 202,460 203,90
204,40 205,10 213,40 214,20
215,40 216,10 226,20 227,10
228,110 229,40 230,60 231,10
232,10 240,50 241,10 242,50
243,10 244,10 256,6456 257,1441
258,671 259,100 260,20 270,100
271,2532 272,591 273,250 274,40
275,10
##END=
