##TITLE=4-Nitrocinnamaldehyde
##JCAMP-DX=4.24
##DATA TYPE=MASS SPECTRUM
##ORIGIN=NIST Mass Spectrometry Data Center
##OWNER=NIST Mass Spectrometry Data Center
Collection (C) 2014 copyright by the U.S. Secretary of Commerce
on behalf of the United States of America. All rights reserved.
##CAS REGISTRY NO=1734-79-8
##$NIST MASS SPEC NO=343248
##MOLFORM=C9 H7 N O3
##MW=177
##$NIST SOURCE=MSDC
##XUNITS=M/Z
##YUNITS=RELATIVE INTENSITY
##XFACTOR=1
##YFACTOR=1
##FIRSTX=12
##LASTX=179
##FIRSTY=30
##MAXX=179
##MINX=12
##MAXY=9999
##MINY=10
##NPOINTS=90
##PEAK TABLE=(XY..XY)
12,30 14,10 15,40 16,90
17,40 18,30 26,370 27,1071
28,330 29,1942 30,2272 36,30
37,410 38,741 39,1742 40,140
41,150 42,30 43,40 44,30
46,320 48,20 50,4354 51,5735
52,1221 53,671 54,300 55,320
60,40 61,500 62,1131 63,2652
64,601 65,1441 66,130 73,330
74,2372 75,2632 76,3563 77,9999
78,751 79,80 80,30 81,30
84,20 85,110 86,200 87,340
88,140 89,1001 90,1261 91,1952
92,550 93,140 94,20 97,110
98,390 99,130 101,761 102,5875
103,5555 104,601 105,70 106,30
107,200 113,40 114,20 115,50
116,100 117,90 118,721 119,490
120,60 127,10 130,7277 131,3083
132,330 133,70 144,30 146,220
147,250 148,70 149,110 160,8728
161,1001 162,90 176,971 177,2752
178,300 179,20
##END=
