##TITLE=5-Bromoindoxyl acetate
##JCAMP-DX=4.24
##DATA TYPE=MASS SPECTRUM
##ORIGIN=NIST Mass Spectrometry Data Center
##OWNER=NIST Mass Spectrometry Data Center
Collection (C) 2014 copyright by the U.S. Secretary of Commerce
on behalf of the United States of America. All rights reserved.
##CAS REGISTRY NO=17357-14-1
##$NIST MASS SPEC NO=342779
##MOLFORM=C10 H8 Br N O2
##MW=253
##$NIST SOURCE=MSDC
##XUNITS=M/Z
##YUNITS=RELATIVE INTENSITY
##XFACTOR=1
##YFACTOR=1
##FIRSTX=12
##LASTX=256
##FIRSTY=10
##MAXX=256
##MINX=12
##MAXY=9999
##MINY=10
##NPOINTS=88
##PEAK TABLE=(XY..XY)
12,10 13,70 14,300 15,1551
17,30 18,60 25,20 26,30
28,1411 36,30 37,210 38,230
39,90 40,60 41,110 42,621
43,6766 44,140 50,1541 51,721
52,240 53,130 55,20 57,60
60,20 61,160 62,290 63,230
64,70 65,50 73,330 74,1752
75,3283 76,2552 77,1692 78,220
79,70 80,40 81,70 82,30
85,40 86,70 87,140 88,150
89,50 90,20 99,30 100,50
101,60 102,370 103,1161 104,661
105,290 106,60 107,20 114,50
115,80 117,30 119,30 128,30
129,50 130,100 131,340 132,2112
133,180 154,340 155,1041 156,520
157,1071 158,260 167,30 169,40
182,1361 183,841 184,1421 185,701
186,60 194,40 196,40 211,9999
212,2102 213,9489 214,931 215,70
253,1802 254,270 255,1872 256,190
##END=
