##TITLE=Phosphorodiamidous fluoride, tetramethyl-
##JCAMP-DX=4.24
##DATA TYPE=MASS SPECTRUM
##ORIGIN=A.Pleshkova, Nesmeyanov Inst.Org.Elem.Cpds, Moscow
##OWNER=NIST Mass Spectrometry Data Center
Collection (C) 2014 copyright by the U.S. Secretary of Commerce
on behalf of the United States of America. All rights reserved.
##CAS REGISTRY NO=1735-82-6
##$NIST MASS SPEC NO=284303
##MOLFORM=C4 H12 F N2 P
##MW=138
##$NIST SOURCE=MSDC
##XUNITS=M/Z
##YUNITS=RELATIVE INTENSITY
##XFACTOR=1
##YFACTOR=1
##FIRSTX=15
##LASTX=140
##FIRSTY=3433
##MAXX=140
##MINX=15
##MAXY=9999
##MINY=10
##NPOINTS=29
##PEAK TABLE=(XY..XY)
15,3433 16,210 27,260 28,1341
29,200 30,1621 40,260 41,400
42,4274 43,591 44,3173 45,260
50,350 51,611 65,520 69,480
76,260 78,761 79,10 80,170
93,701 94,9999 95,520 122,631
123,651 124,20 138,1972 139,110
140,20
##END=
