##TITLE=Cyclohexane-d12
##JCAMP-DX=4.24
##DATA TYPE=MASS SPECTRUM
##ORIGIN=NIST Mass Spectrometry Data Center, 1990.
##OWNER=NIST Mass Spectrometry Data Center
Collection (C) 2014 copyright by the U.S. Secretary of Commerce
on behalf of the United States of America. All rights reserved.
##CAS REGISTRY NO=1735-17-7
##$NIST MASS SPEC NO=118596
##MOLFORM=C6 D12
##MW=96
##$NIST SOURCE=MSDC
##XUNITS=M/Z
##YUNITS=RELATIVE INTENSITY
##XFACTOR=1
##YFACTOR=1
##FIRSTX=13
##LASTX=97
##FIRSTY=10
##MAXX=97
##MINX=13
##MAXY=9999
##MINY=10
##NPOINTS=39
##PEAK TABLE=(XY..XY)
13,10 15,129 18,466 29,268
30,3685 32,1159 33,154 34,1510
35,106 38,141 40,487 42,3890
43,194 44,829 45,106 46,8327
47,485 48,2602 49,165 50,941
52,212 54,365 56,159 58,428
59,83 60,514 61,83 62,2718
63,83 64,9999 65,363 70,103
74,288 76,220 78,2378 79,163
94,308 96,5597 97,401
##END=
