##TITLE=Benzene, pentafluoro-2-propenyl-
##JCAMP-DX=4.24
##DATA TYPE=MASS SPECTRUM
##OWNER=NIST Mass Spectrometry Data Center
Collection (C) 2014 copyright by the U.S. Secretary of Commerce
on behalf of the United States of America. All rights reserved.
##CAS REGISTRY NO=1736-60-3
##$NIST MASS SPEC NO=9585
##MOLFORM=C9 H5 F5
##MW=208
##$NIST SOURCE=MSDC
##XUNITS=M/Z
##YUNITS=RELATIVE INTENSITY
##XFACTOR=1
##YFACTOR=1
##FIRSTX=31
##LASTX=209
##FIRSTY=2402
##MAXX=209
##MINX=31
##MAXY=9999
##MINY=100
##NPOINTS=42
##PEAK TABLE=(XY..XY)
31,2402 32,200 51,801 57,601
63,300 69,1401 70,100 74,701
75,1401 76,100 81,1301 82,100
86,500 93,2052 94,200 99,1651
100,200 111,400 112,701 117,1501
118,200 119,450 123,901 124,100
130,500 131,701 132,601 143,1301
144,100 150,500 155,801 161,2402
162,1401 163,1401 164,100 180,300
181,9999 182,1001 189,2202 190,200
208,7206 209,801
##END=
