##TITLE=p-Trifluoromethoxybenzyl alcohol
##JCAMP-DX=4.24
##DATA TYPE=MASS SPECTRUM
##ORIGIN=NIST Mass Spectrometry Data Center
##OWNER=NIST Mass Spectrometry Data Center
Collection (C) 2014 copyright by the U.S. Secretary of Commerce
on behalf of the United States of America. All rights reserved.
##CAS REGISTRY NO=1736-74-9
##$NIST MASS SPEC NO=343002
##MOLFORM=C8 H7 F3 O2
##MW=192
##$NIST SOURCE=MSDC
##XUNITS=M/Z
##YUNITS=RELATIVE INTENSITY
##XFACTOR=1
##YFACTOR=1
##FIRSTX=12
##LASTX=194
##FIRSTY=20
##MAXX=194
##MINX=12
##MAXY=9999
##MINY=10
##NPOINTS=80
##PEAK TABLE=(XY..XY)
12,20 15,30 17,30 18,40
26,190 27,420 29,981 30,120
31,831 37,300 38,671 39,1872
40,320 41,651 42,80 43,130
44,10 45,20 47,120 49,140
50,1221 51,1702 52,480 53,350
54,60 55,190 57,60 61,180
62,470 63,1131 64,581 65,1001
66,691 67,490 69,3343 70,50
73,70 74,360 75,440 77,9999
78,1281 79,2843 80,200 81,40
83,290 84,40 85,30 86,60
87,20 89,540 90,70 92,320
93,120 94,200 95,1201 96,150
97,120 105,1121 107,5705 108,571
109,611 110,40 113,20 123,70
125,20 127,70 143,370 144,20
161,260 163,1641 164,170 171,210
172,20 175,811 176,90 189,621
191,1942 192,5285 193,460 194,40
##END=
