##TITLE=8,11,14-Eicosatrienoic acid, methyl ester
##JCAMP-DX=4.24
##DATA TYPE=MASS SPECTRUM
##ORIGIN=R.T.HOLMAN,UNIVERSITY OF MINNESOTA
##OWNER=NIST Mass Spectrometry Data Center
Collection (C) 2014 copyright by the U.S. Secretary of Commerce
on behalf of the United States of America. All rights reserved.
##CAS REGISTRY NO=17364-32-8
##$NIST MASS SPEC NO=36062
##MOLFORM=C21 H36 O2
##MW=320
##$NIST SOURCE=MSDC
##XUNITS=M/Z
##YUNITS=RELATIVE INTENSITY
##XFACTOR=1
##YFACTOR=1
##FIRSTX=38
##LASTX=322
##FIRSTY=100
##MAXX=322
##MINX=38
##MAXY=9999
##MINY=100
##NPOINTS=182
##PEAK TABLE=(XY..XY)
38,100 39,2600 40,500 41,9000
42,2200 43,7100 44,700 45,600
50,100 51,300 52,200 53,1400
54,2500 55,9100 56,2000 57,4500
58,400 59,2700 60,100 61,100
63,100 64,100 65,800 66,1100
67,8100 68,3200 69,5700 70,1400
71,2300 72,300 73,600 74,9999
75,1000 76,100 77,1700 78,1100
79,5900 80,5500 81,7600 82,3100
83,2800 84,1600 85,1700 86,200
87,5300 88,600 89,100 91,2300
92,800 93,4100 94,3400 95,5100
96,4000 97,2600 98,800 99,500
100,100 101,800 102,100 103,200
104,200 105,1400 106,600 107,2000
108,1200 109,2100 110,1300 111,900
112,400 113,500 114,200 115,700
116,200 117,400 118,200 119,1000
120,500 121,2000 122,900 123,1200
124,700 125,500 126,200 127,400
128,400 129,900 130,200 131,300
132,100 133,600 141,900 142,200
143,600 144,200 145,200 146,100
147,300 148,300 149,900 150,2500
151,700 152,500 153,200 154,200
155,200 156,100 157,200 158,100
159,300 160,100 161,300 162,200
163,800 164,700 165,300 166,300
167,200 168,100 169,100 170,100
171,100 172,100 173,100 174,100
175,200 176,100 177,800 178,400
179,200 180,100 181,100 182,100
183,100 184,100 185,200 187,100
189,200 190,200 191,300 192,200
193,100 194,100 195,100 196,100
197,100 199,100 203,200 204,100
205,200 206,100 207,100 208,100
209,200 210,100 217,100 219,100
221,100 222,1100 223,200 224,100
235,200 236,100 237,100 238,100
248,100 249,200 250,100 251,100
252,100 263,200 264,100 266,100
277,100 289,400 290,200 291,200
292,200 293,100 318,100 320,1604
321,300 322,100
##END=
