##TITLE=Methoxyacetonitrile
##JCAMP-DX=4.24
##DATA TYPE=MASS SPECTRUM
##ORIGIN=NIST Mass Spectrometry Data Center, 1990.
##OWNER=NIST Mass Spectrometry Data Center
Collection (C) 2014 copyright by the U.S. Secretary of Commerce
on behalf of the United States of America. All rights reserved.
##CAS REGISTRY NO=1738-36-9
##$NIST MASS SPEC NO=118271
##MOLFORM=C3 H5 N O
##MW=71
##$NIST SOURCE=MSDC
##XUNITS=M/Z
##YUNITS=RELATIVE INTENSITY
##XFACTOR=1
##YFACTOR=1
##FIRSTX=12
##LASTX=72
##FIRSTY=164
##MAXX=72
##MINX=12
##MAXY=9999
##MINY=20
##NPOINTS=31
##PEAK TABLE=(XY..XY)
12,164 13,335 14,608 15,2048
16,62 17,30 18,33 24,41
25,116 26,394 27,455 28,2100
29,7612 30,483 31,264 32,34
38,641 39,851 40,2875 41,9999
42,3695 43,474 44,698 45,587
53,20 54,445 55,46 56,231
70,4018 71,1585 72,64
##END=
