##TITLE=2'-Fluoro-6'-(trifluoromethyl)-acetophenone
##JCAMP-DX=4.24
##DATA TYPE=MASS SPECTRUM
##ORIGIN=NIST Mass Spectrometry Data Center
##OWNER=NIST Mass Spectrometry Data Center
Collection (C) 2014 copyright by the U.S. Secretary of Commerce
on behalf of the United States of America. All rights reserved.
##CAS REGISTRY NO=174013-29-7
##$NIST MASS SPEC NO=342761
##MOLFORM=C9 H6 F4 O
##MW=206
##$NIST SOURCE=MSDC
##XUNITS=M/Z
##YUNITS=RELATIVE INTENSITY
##XFACTOR=1
##YFACTOR=1
##FIRSTX=13
##LASTX=207
##FIRSTY=20
##MAXX=207
##MINX=13
##MAXY=9999
##MINY=10
##NPOINTS=123
##PEAK TABLE=(XY..XY)
13,20 14,210 15,731 16,30
17,10 18,40 19,10 20,10
26,40 27,40 28,430 29,70
31,260 32,130 33,50 37,80
38,100 39,130 40,10 42,611
43,4174 44,120 45,30 47,10
49,50 50,360 51,200 52,10
53,10 55,10 56,70 57,250
58,10 59,10 60,10 61,140
62,280 63,410 64,30 68,290
69,601 70,30 71,10 72,20
73,70 74,400 75,691 76,40
77,30 79,20 80,70 81,150
82,20 83,20 85,50 86,90
87,90 88,50 89,10 92,100
93,320 94,410 95,130 96,20
99,290 100,40 101,60 103,20
104,20 105,60 106,30 107,120
108,20 109,40 111,30 112,130
113,661 114,140 117,60 118,40
119,70 120,10 121,20 122,20
123,60 125,240 126,40 127,140
132,20 136,10 137,60 138,30
139,20 140,10 141,20 143,540
144,320 145,140 146,10 147,40
149,10 151,10 156,10 157,10
158,30 159,30 161,20 163,2823
164,270 165,10 167,10 169,50
170,10 172,10 176,10 177,30
187,450 188,40 191,9999 192,841
193,50 206,641 207,60
##END=
