##TITLE=Hydrazine, trimethyl-
##JCAMP-DX=4.24
##DATA TYPE=MASS SPECTRUM
##ORIGIN=ATLAS OF MASS SPECTRA OF ORGANIC COMPOUNDS, V. A. KOPTYUG, ED.
##OWNER=NIST Mass Spectrometry Data Center
Collection (C) 2014 copyright by the U.S. Secretary of Commerce
on behalf of the United States of America. All rights reserved.
##CAS REGISTRY NO=1741-01-1
##$NIST MASS SPEC NO=64451
##MOLFORM=C3 H10 N2
##MW=74
##$NIST SOURCE=MSDC
##XUNITS=M/Z
##YUNITS=RELATIVE INTENSITY
##XFACTOR=1
##YFACTOR=1
##FIRSTX=27
##LASTX=75
##FIRSTY=280
##MAXX=75
##MINX=27
##MAXY=9999
##MINY=70
##NPOINTS=22
##PEAK TABLE=(XY..XY)
27,280 28,360 29,340 30,3250
31,580 32,760 36,170 40,110
41,210 42,2650 43,1200 44,1690
45,230 46,260 57,310 58,160
59,9999 60,320 71,70 73,250
74,6150 75,410
##END=
