##TITLE=Propane, 1,1-diethoxy-2-methyl-
##JCAMP-DX=4.24
##DATA TYPE=MASS SPECTRUM
##ORIGIN=Japan AIST/NIMC Database- Spectrum MS-IW-3553
##OWNER=NIST Mass Spectrometry Data Center
Collection (C) 2014 copyright by the U.S. Secretary of Commerce
on behalf of the United States of America. All rights reserved.
##CAS REGISTRY NO=1741-41-9
##$NIST MASS SPEC NO=236368
##MOLFORM=C8 H18 O2
##MW=146
##$NIST SOURCE=MSDC
##XUNITS=M/Z
##YUNITS=RELATIVE INTENSITY
##XFACTOR=1
##YFACTOR=1
##FIRSTX=13
##LASTX=145
##FIRSTY=10
##MAXX=145
##MINX=13
##MAXY=9999
##MINY=10
##NPOINTS=67
##PEAK TABLE=(XY..XY)
13,10 14,50 15,269 16,10
17,20 18,109 19,279 25,20
26,279 27,2639 28,719 29,4289
30,199 31,2419 32,30 33,10
37,30 38,80 39,829 40,149
41,2349 42,789 43,6999 44,379
45,3249 46,469 47,8489 48,129
49,50 50,10 51,10 52,10
53,109 54,80 55,3049 56,429
57,1429 58,159 59,209 60,80
61,119 69,40 70,129 71,2119
72,869 73,9529 74,529 75,8099
76,279 77,40 83,10 85,199
86,20 87,40 88,529 89,519
90,20 99,30 100,339 101,8089
102,539 103,9999 104,629 105,60
118,29 130,10 145,70
##END=
