##TITLE=2,5-Cyclohexadien-1-one, 4-ethyl-3,4-dimethyl-
##JCAMP-DX=4.24
##DATA TYPE=MASS SPECTRUM
##ORIGIN=CARL DJERASSI DEPT OF CHEM STANFORD UNIV STANFORD CALIF 94305
##OWNER=NIST Mass Spectrometry Data Center
Collection (C) 2014 copyright by the U.S. Secretary of Commerce
on behalf of the United States of America. All rights reserved.
##CAS REGISTRY NO=17429-35-5
##$NIST MASS SPEC NO=46723
##MOLFORM=C10 H14 O
##MW=150
##$NIST SOURCE=MSDC
##XUNITS=M/Z
##YUNITS=RELATIVE INTENSITY
##XFACTOR=1
##YFACTOR=1
##FIRSTX=41
##LASTX=151
##FIRSTY=1818
##MAXX=151
##MINX=41
##MAXY=9999
##MINY=101
##NPOINTS=30
##PEAK TABLE=(XY..XY)
41,1818 50,505 51,1616 52,707
53,1515 55,202 63,505 65,1313
66,202 67,404 77,3737 78,707
79,2121 80,202 91,4747 92,606
93,1717 94,606 95,101 103,101
105,505 107,9999 108,909 109,101
121,2727 122,3636 123,202 135,1616
150,3232 151,202
##END=
