##TITLE=6-Chloroindole
##JCAMP-DX=4.24
##DATA TYPE=MASS SPECTRUM
##ORIGIN=Japan AIST/NIMC Database- Spectrum MS-IW-1320
##OWNER=NIST Mass Spectrometry Data Center
Collection (C) 2014 copyright by the U.S. Secretary of Commerce
on behalf of the United States of America. All rights reserved.
##CAS REGISTRY NO=17422-33-2
##$NIST MASS SPEC NO=239687
##MOLFORM=C8 H6 Cl N
##MW=151
##$NIST SOURCE=MSDC
##XUNITS=M/Z
##YUNITS=RELATIVE INTENSITY
##XFACTOR=1
##YFACTOR=1
##FIRSTX=27
##LASTX=155
##FIRSTY=10
##MAXX=155
##MINX=27
##MAXY=9999
##MINY=10
##NPOINTS=60
##PEAK TABLE=(XY..XY)
27,10 28,40 36,20 37,40
38,80 39,139 40,10 41,10
43,50 44,70 49,30 50,80
51,70 52,40 56,30 57,489
58,109 60,10 61,90 62,269
63,449 64,90 65,50 66,10
72,10 73,149 74,40 75,1019
76,339 77,40 84,10 85,40
86,90 87,159 88,199 89,2119
90,209 91,10 96,10 97,60
98,10 99,30 100,10 106,10
111,10 114,189 115,479 116,1539
117,139 123,429 124,1399 125,239
126,459 127,30 150,359 151,9999
152,1019 153,3249 154,299 155,10
##END=
