##TITLE=Benzene, 1,1'-ethylidenebis[3,4-dimethyl-
##JCAMP-DX=4.24
##DATA TYPE=MASS SPECTRUM
##ORIGIN=Japan AIST/NIMC Database- Spectrum MS-NW-5322
##OWNER=NIST Mass Spectrometry Data Center
Collection (C) 2014 copyright by the U.S. Secretary of Commerce
on behalf of the United States of America. All rights reserved.
##CAS REGISTRY NO=1742-14-9
##$NIST MASS SPEC NO=233188
##MOLFORM=C18 H22
##MW=238
##$NIST SOURCE=MSDC
##XUNITS=M/Z
##YUNITS=RELATIVE INTENSITY
##XFACTOR=1
##YFACTOR=1
##FIRSTX=15
##LASTX=240
##FIRSTY=20
##MAXX=240
##MINX=15
##MAXY=9999
##MINY=10
##NPOINTS=155
##PEAK TABLE=(XY..XY)
15,20 27,189 28,20 29,70
38,10 39,289 40,30 41,199
42,10 43,20 50,50 51,199
52,60 53,159 54,10 55,50
56,10 57,10 62,30 63,129
64,40 65,199 66,20 67,30
69,10 70,10 74,30 75,50
76,90 77,429 78,129 79,159
80,10 81,10 82,40 83,50
84,10 87,20 88,30 89,279
90,90 91,629 92,60 93,40
94,60 95,60 96,129 97,30
98,10 101,80 102,169 103,419
104,249 105,269 106,30 107,30
108,10 109,20 110,50 111,30
113,10 114,10 115,509 116,239
117,569 118,209 119,169 120,10
126,20 127,80 128,179 129,119
130,50 131,339 132,199 133,349
134,30 139,50 140,10 141,90
142,40 143,30 145,60 146,10
147,10 150,10 151,40 152,149
153,80 154,30 155,40 156,10
157,10 160,10 163,20 164,20
165,309 166,109 167,70 168,30
169,30 170,10 176,40 177,50
178,519 179,319 180,90 181,90
182,20 183,10 188,10 189,169
190,119 191,389 192,539 193,1689
194,379 195,119 196,20 197,10
199,10 200,10 201,10 202,60
203,60 204,30 205,129 206,169
207,409 208,1049 209,259 210,30
211,10 212,10 213,10 214,10
215,10 216,10 217,10 218,10
219,20 220,20 221,99 222,129
223,9999 224,1889 225,169 226,10
234,10 235,10 236,40 237,119
238,3079 239,589 240,50
##END=
