##TITLE=L-Valine, ethyl ester
##JCAMP-DX=4.24
##DATA TYPE=MASS SPECTRUM
##ORIGIN=Japan AIST/NIMC Database- Spectrum MS-IW-1533
##OWNER=NIST Mass Spectrometry Data Center
Collection (C) 2014 copyright by the U.S. Secretary of Commerce
on behalf of the United States of America. All rights reserved.
##CAS REGISTRY NO=17431-03-7
##$NIST MASS SPEC NO=238966
##MOLFORM=C7 H15 N O2
##MW=145
##$NIST SOURCE=MSDC
##XUNITS=M/Z
##YUNITS=RELATIVE INTENSITY
##XFACTOR=1
##YFACTOR=1
##FIRSTX=15
##LASTX=147
##FIRSTY=20
##MAXX=147
##MINX=15
##MAXY=9999
##MINY=10
##NPOINTS=45
##PEAK TABLE=(XY..XY)
15,20 26,10 27,219 28,479
29,439 30,279 31,10 39,119
40,10 41,139 42,70 43,149
44,50 45,20 46,159 47,30
53,30 54,40 55,1949 56,479
57,329 58,50 68,10 69,40
70,109 71,50 72,9999 73,519
74,1569 75,70 82,10 83,20
84,109 85,10 98,20 100,20
102,2119 103,149 104,10 116,20
130,40 144,10 145,80 146,199
147,10
##END=
