##TITLE=Pentamethylbenzaldehyde
##JCAMP-DX=4.24
##DATA TYPE=MASS SPECTRUM
##ORIGIN=NIST Mass Spectrometry Data Center, 1994
##OWNER=NIST Mass Spectrometry Data Center
Collection (C) 2014 copyright by the U.S. Secretary of Commerce
on behalf of the United States of America. All rights reserved.
##CAS REGISTRY NO=17432-38-1
##$NIST MASS SPEC NO=136040
##MOLFORM=C12 H16 O
##MW=176
##$NIST SOURCE=MSDC
##XUNITS=M/Z
##YUNITS=RELATIVE INTENSITY
##XFACTOR=1
##YFACTOR=1
##FIRSTX=15
##LASTX=178
##FIRSTY=713
##MAXX=178
##MINX=15
##MAXY=9999
##MINY=19
##NPOINTS=101
##PEAK TABLE=(XY..XY)
15,713 18,83 19,51 26,107
27,2258 28,255 29,2412 30,19
37,45 38,248 39,3085 40,486
41,2658 42,138 43,174 44,41
50,588 51,2066 52,614 53,1448
54,137 55,837 56,45 58,146
60,48 61,44 62,262 63,1119
64,571 65,1623 66,283 67,282
68,36 69,117 70,52 71,92
72,165 73,220 74,184 75,312
76,201 77,2290 78,679 79,1265
80,231 81,77 85,35 86,104
87,193 88,124 89,368 90,35
91,3843 92,424 93,380 94,47
98,36 101,68 102,272 103,601
104,245 105,2027 106,261 107,428
108,56 113,33 115,2444 116,1023
117,1962 118,382 119,1472 120,167
121,88 126,59 127,386 128,886
129,690 130,302 131,1043 132,59
133,4683 134,545 135,50 139,29
141,128 142,60 143,106 144,45
145,332 146,29 147,7264 148,1342
149,121 159,61 161,594 162,83
173,53 175,9999 176,7688 177,1021
178,88
##END=
