##TITLE=Hydrazine, 1,2-dibutyl-
##JCAMP-DX=4.24
##DATA TYPE=MASS SPECTRUM
##ORIGIN=ATLAS OF MASS SPECTRA OF ORGANIC COMPOUNDS, V. A. KOPTYUG, ED.
##OWNER=NIST Mass Spectrometry Data Center
Collection (C) 2014 copyright by the U.S. Secretary of Commerce
on behalf of the United States of America. All rights reserved.
##CAS REGISTRY NO=1744-71-4
##$NIST MASS SPEC NO=64449
##MOLFORM=C8 H20 N2
##MW=144
##$NIST SOURCE=MSDC
##XUNITS=M/Z
##YUNITS=RELATIVE INTENSITY
##XFACTOR=1
##YFACTOR=1
##FIRSTX=27
##LASTX=145
##FIRSTY=870
##MAXX=145
##MINX=27
##MAXY=9999
##MINY=70
##NPOINTS=30
##PEAK TABLE=(XY..XY)
27,870 28,1670 29,1790 30,3750
31,460 32,580 39,380 41,1540
42,290 43,1240 44,460 45,4160
46,90 55,240 56,180 57,1160
58,150 59,290 70,500 71,190
72,310 87,330 99,830 101,9999
102,750 113,110 115,70 142,130
144,3160 145,380
##END=
