##TITLE=Benzenepropanoic acid, .beta.-oxo-.alpha.-(phenylmethylene)-, ethyl ester
##JCAMP-DX=4.24
##DATA TYPE=MASS SPECTRUM
##ORIGIN=Japan AIST/NIMC Database- Spectrum MS-IW-6716
##OWNER=NIST Mass Spectrometry Data Center
Collection (C) 2014 copyright by the U.S. Secretary of Commerce
on behalf of the United States of America. All rights reserved.
##CAS REGISTRY NO=17451-18-2
##$NIST MASS SPEC NO=242026
##MOLFORM=C18 H16 O3
##MW=280
##$NIST SOURCE=MSDC
##XUNITS=M/Z
##YUNITS=RELATIVE INTENSITY
##XFACTOR=1
##YFACTOR=1
##FIRSTX=27
##LASTX=283
##FIRSTY=80
##MAXX=283
##MINX=27
##MAXY=9999
##MINY=10
##NPOINTS=112
##PEAK TABLE=(XY..XY)
27,80 28,30 29,249 31,20
39,40 43,30 44,20 45,20
50,119 51,529 52,70 53,70
62,20 63,70 64,10 65,20
69,40 74,50 75,119 76,259
77,3589 78,269 79,60 87,10
88,20 89,60 90,30 91,80
92,10 101,60 102,319 103,269
104,50 105,7669 106,599 107,329
108,20 115,30 116,20 117,10
118,20 121,10 125,10 126,60
127,10 128,10 129,239 130,169
131,299 132,30 135,449 136,40
139,10 140,20 145,10 146,10
147,90 149,10 150,20 151,60
152,99 153,20 155,10 157,50
158,10 159,20 163,10 165,99
166,20 167,99 168,10 173,99
174,20 175,139 176,139 177,129
178,1189 179,499 180,80 181,10
183,50 184,10 189,20 190,10
191,30 192,10 195,10 203,359
204,60 205,1029 206,2589 207,1289
208,279 209,30 221,10 223,90
224,20 233,179 234,789 235,899
236,149 237,10 249,50 250,139
251,869 252,179 253,20 279,4519
280,9999 281,1939 282,239 283,20
##END=
