##TITLE=1-(4-Trifluoromethylphenyl)imidazoline-2-thione
##JCAMP-DX=4.24
##DATA TYPE=MASS SPECTRUM
##ORIGIN=NIST Mass Spectrometry Data Center, 1994
##OWNER=NIST Mass Spectrometry Data Center
Collection (C) 2014 copyright by the U.S. Secretary of Commerce
on behalf of the United States of America. All rights reserved.
##CAS REGISTRY NO=17452-18-5
##$NIST MASS SPEC NO=134826
##MOLFORM=C10 H7 F3 N2 S
##MW=244
##$NIST SOURCE=MSDC
##XUNITS=M/Z
##YUNITS=RELATIVE INTENSITY
##XFACTOR=1
##YFACTOR=1
##FIRSTX=4
##LASTX=247
##FIRSTY=38
##MAXX=247
##MINX=4
##MAXY=9999
##MINY=37
##NPOINTS=127
##PEAK TABLE=(XY..XY)
4,38 14,71 26,116 27,148
28,869 31,67 32,104 37,83
38,194 39,229 40,273 41,309
44,149 45,618 46,159 49,59
50,606 51,387 52,184 57,465
58,94 59,199 60,55 61,82
62,245 63,476 64,116 65,82
68,107 69,680 70,180 71,281
72,1356 73,237 74,357 75,1036
76,310 77,96 81,141 82,52
83,156 84,146 85,55 86,47
87,137 88,187 89,203 90,138
93,107 94,130 95,963 96,128
97,37 99,249 100,172 101,68
102,66 104,54 106,55 107,182
108,133 109,98 111,49 112,347
113,120 114,134 115,87 116,212
117,436 118,77 119,212 120,81
121,73 125,595 126,292 127,98
132,83 133,110 134,156 135,175
137,72 138,109 139,139 140,98
142,67 143,96 145,1639 146,235
148,92 152,124 153,55 157,119
158,449 159,118 164,89 165,130
166,569 167,78 172,388 173,109
174,153 175,309 176,67 182,55
184,394 185,1008 186,152 189,258
191,73 193,116 196,235 197,74
202,193 203,93 212,849 213,116
216,519 217,75 218,53 223,111
225,604 226,71 243,9999 244,7825
245,1312 246,416 247,46
##END=
