##TITLE=Silane, dichlorodiethenyl-
##JCAMP-DX=4.24
##DATA TYPE=MASS SPECTRUM
##ORIGIN=Institute of Organic Chemistry, Novosibirsk, USSR 1988
##OWNER=NIST Mass Spectrometry Data Center
Collection (C) 2014 copyright by the U.S. Secretary of Commerce
on behalf of the United States of America. All rights reserved.
##CAS REGISTRY NO=1745-72-8
##$NIST MASS SPEC NO=109940
##MOLFORM=C4 H6 Cl2 Si
##MW=152
##$NIST SOURCE=MSDC
##XUNITS=M/Z
##YUNITS=RELATIVE INTENSITY
##XFACTOR=1
##YFACTOR=1
##FIRSTX=26
##LASTX=151
##FIRSTY=79
##MAXX=151
##MINX=26
##MAXY=9999
##MINY=19
##NPOINTS=33
##PEAK TABLE=(XY..XY)
26,79 27,1119 28,399 39,569
53,429 54,9999 55,509 63,2039
64,179 65,709 88,329 89,489
90,419 91,179 92,109 98,819
99,2309 100,699 101,1519 102,119
103,299 116,5819 117,979 118,2129
119,309 123,69 124,109 125,3309
126,519 127,2139 128,299 129,419
151,19
##END=
