##TITLE=1-(3-Trifluoromethylphenyl)imidazoline-2-thione
##JCAMP-DX=4.24
##DATA TYPE=MASS SPECTRUM
##ORIGIN=NIST Mass Spectrometry Data Center, 1994
##OWNER=NIST Mass Spectrometry Data Center
Collection (C) 2014 copyright by the U.S. Secretary of Commerce
on behalf of the United States of America. All rights reserved.
##CAS REGISTRY NO=17452-08-3
##$NIST MASS SPEC NO=134870
##MOLFORM=C10 H7 F3 N2 S
##MW=244
##$NIST SOURCE=MSDC
##XUNITS=M/Z
##YUNITS=RELATIVE INTENSITY
##XFACTOR=1
##YFACTOR=1
##FIRSTX=14
##LASTX=247
##FIRSTY=84
##MAXX=247
##MINX=14
##MAXY=9999
##MINY=28
##NPOINTS=152
##PEAK TABLE=(XY..XY)
14,84 26,143 27,176 28,769
29,39 30,37 31,105 32,105
37,126 38,278 39,431 40,389
41,410 42,57 44,172 45,950
46,240 47,71 49,54 50,716
51,461 52,203 53,44 56,51
57,498 58,138 59,277 60,96
61,139 62,319 63,562 64,198
65,119 67,32 68,134 69,937
70,226 71,381 72,1966 73,326
74,525 75,1387 76,350 77,163
79,35 80,67 81,166 82,94
83,190 84,184 85,53 86,61
87,171 88,235 89,220 90,166
91,48 92,41 93,104 94,159
95,1089 96,154 97,61 98,41
99,371 100,234 101,81 102,74
103,45 104,52 105,40 106,56
107,183 108,132 109,105 112,357
113,150 114,188 115,82 116,163
117,490 118,85 119,267 120,82
121,90 123,34 125,685 126,295
127,89 132,107 133,97 134,233
135,154 137,84 138,120 139,175
140,79 142,59 143,73 145,1931
146,249 147,57 148,98 150,30
152,123 153,46 157,142 158,260
159,118 160,48 164,98 165,96
166,651 167,72 170,76 172,375
173,144 174,260 175,397 176,100
177,54 178,34 179,28 180,80
182,63 183,55 184,369 185,550
186,99 189,279 190,47 191,88
192,76 193,57 196,182 197,74
202,260 203,109 204,70 212,478
213,88 216,445 217,88 223,349
224,382 225,680 226,89 243,9999
244,7964 245,1290 246,435 247,49
##END=
