##TITLE=1-(3-Fluorophenyl)imidazoline-2-thione
##JCAMP-DX=4.24
##DATA TYPE=MASS SPECTRUM
##ORIGIN=NIST Mass Spectrometry Data Center, 1994
##OWNER=NIST Mass Spectrometry Data Center
Collection (C) 2014 copyright by the U.S. Secretary of Commerce
on behalf of the United States of America. All rights reserved.
##CAS REGISTRY NO=17452-26-5
##$NIST MASS SPEC NO=135005
##MOLFORM=C9 H7 F N2 S
##MW=194
##$NIST SOURCE=MSDC
##XUNITS=M/Z
##YUNITS=RELATIVE INTENSITY
##XFACTOR=1
##YFACTOR=1
##FIRSTX=4
##LASTX=197
##FIRSTY=2
##MAXX=197
##MINX=4
##MAXY=9999
##MINY=2
##NPOINTS=88
##PEAK TABLE=(XY..XY)
4,2 14,76 18,41 26,91
28,297 31,116 32,66 37,94
38,148 39,167 40,235 41,150
44,115 45,667 46,114 47,41
49,38 50,319 51,248 52,110
56,86 57,392 58,99 59,181
60,48 61,103 62,150 63,232
64,88 68,237 69,345 70,185
71,253 72,924 73,199 74,328
75,1398 76,163 77,57 81,213
82,215 83,361 84,248 87,236
88,67 89,70 93,78 94,210
95,1716 96,276 97,513 99,101
100,81 107,370 108,711 109,767
110,67 116,71 119,47 120,39
121,101 122,541 123,80 126,100
127,66 133,62 134,501 135,906
136,308 137,90 138,62 139,371
140,89 149,76 152,236 153,112
154,39 161,87 162,368 163,82
166,890 167,154 168,70 193,9999
194,8555 195,1328 196,438 197,52
##END=
