##TITLE=Undecane, 5-ethyl-
##JCAMP-DX=4.24
##DATA TYPE=MASS SPECTRUM
##ORIGIN=D.HENNEBERG, MAX-PLANCK INSTITUTE, MULHEIM, WEST GERMANY
##OWNER=NIST Mass Spectrometry Data Center
Collection (C) 2014 copyright by the U.S. Secretary of Commerce
on behalf of the United States of America. All rights reserved.
##CAS REGISTRY NO=17453-94-0
##$NIST MASS SPEC NO=60736
##MOLFORM=C13 H28
##MW=184
##$NIST SOURCE=MSDC
##XUNITS=M/Z
##YUNITS=RELATIVE INTENSITY
##XFACTOR=1
##YFACTOR=1
##FIRSTX=25
##LASTX=156
##FIRSTY=6
##MAXX=156
##MINX=25
##MAXY=9999
##MINY=2
##NPOINTS=51
##PEAK TABLE=(XY..XY)
25,6 26,54 27,981 28,414
29,2074 30,31 31,2 32,24
33,7 37,19 39,439 40,27
41,2714 42,550 43,6431 51,15
53,94 54,85 55,1233 56,1031
57,9999 58,424 59,3 65,7
67,98 68,49 69,567 70,610
71,3747 72,148 82,51 83,163
84,227 85,2146 86,100 87,6
96,2 97,148 98,682 99,578
100,17 111,49 112,36 113,142
125,11 126,314 127,110 140,7
154,350 155,419 156,23
##END=
