##TITLE=Dodecane, 5-methyl-
##JCAMP-DX=4.24
##DATA TYPE=MASS SPECTRUM
##ORIGIN=D.HENNEBERG, MAX-PLANCK INSTITUTE, MULHEIM, WEST GERMANY
##OWNER=NIST Mass Spectrometry Data Center
Collection (C) 2014 copyright by the U.S. Secretary of Commerce
on behalf of the United States of America. All rights reserved.
##CAS REGISTRY NO=17453-93-9
##$NIST MASS SPEC NO=60737
##MOLFORM=C13 H28
##MW=184
##$NIST SOURCE=MSDC
##XUNITS=M/Z
##YUNITS=RELATIVE INTENSITY
##XFACTOR=1
##YFACTOR=1
##FIRSTX=26
##LASTX=169
##FIRSTY=59
##MAXX=169
##MINX=26
##MAXY=9999
##MINY=3
##NPOINTS=35
##PEAK TABLE=(XY..XY)
26,59 27,854 28,26 29,1902
30,6 38,3 39,447 40,28
41,2403 42,747 43,9999 44,45
53,83 54,55 55,1217 56,1237
57,5063 58,162 67,41 69,484
70,338 71,3582 72,138 82,38
83,141 84,1778 85,4017 86,174
97,146 98,153 99,100 113,23
126,547 127,380 169,39
##END=
