##TITLE=2-Benzylquinoline
##JCAMP-DX=4.24
##DATA TYPE=MASS SPECTRUM
##ORIGIN=E.V.BROWN, DEP. CHEM., UNIV. KENTUCKY, LEXINGTON, KENTUCKY,U.
##OWNER=NIST Mass Spectrometry Data Center
Collection (C) 2014 copyright by the U.S. Secretary of Commerce
on behalf of the United States of America. All rights reserved.
##CAS REGISTRY NO=1745-77-3
##$NIST MASS SPEC NO=72701
##MOLFORM=C16 H13 N
##MW=219
##$NIST SOURCE=MSDC
##XUNITS=M/Z
##YUNITS=RELATIVE INTENSITY
##XFACTOR=1
##YFACTOR=1
##FIRSTX=91
##LASTX=220
##FIRSTY=500
##MAXX=220
##MINX=91
##MAXY=9999
##MINY=300
##NPOINTS=8
##PEAK TABLE=(XY..XY)
91,500 203,800 204,300 216,1000
217,3400 218,9999 219,4400 220,700
##END=
