##TITLE=As-Indacene, 1,2,3,6,7,8-hexahydro-1,1,6,6-tetramethyl-4-(1-methylethyl)-
##JCAMP-DX=4.24
##DATA TYPE=MASS SPECTRUM
##ORIGIN=CONTINENTAL OIL CO., PONCA CITY, OKLA, USA
##OWNER=NIST Mass Spectrometry Data Center
Collection (C) 2014 copyright by the U.S. Secretary of Commerce
on behalf of the United States of America. All rights reserved.
##CAS REGISTRY NO=17465-47-3
##$NIST MASS SPEC NO=27678
##MOLFORM=C19 H28
##MW=256
##$NIST SOURCE=MSDC
##XUNITS=M/Z
##YUNITS=RELATIVE INTENSITY
##XFACTOR=1
##YFACTOR=1
##FIRSTX=13
##LASTX=258
##FIRSTY=11
##MAXX=258
##MINX=13
##MAXY=9999
##MINY=5
##NPOINTS=171
##PEAK TABLE=(XY..XY)
13,11 14,118 15,514 16,23
26,23 27,708 28,648 29,1032
30,25 36,9 38,16 39,373
40,68 41,990 42,66 43,1049
44,159 45,5 48,11 50,24
51,138 52,39 53,203 54,31
55,223 56,44 57,57 58,11
62,13 63,91 64,81 65,148
66,26 67,71 68,22 69,101
70,36 71,82 73,16 74,16
75,49 76,171 77,326 78,107
79,95 80,18 81,52 82,127
83,205 84,121 85,97 87,38
88,62 89,294 90,148 91,389
92,125 93,30 94,22 95,45
96,82 97,59 98,93 99,156
100,14 101,46 102,63 103,78
104,39 105,185 106,28 107,15
111,16 112,23 113,1226 114,45
115,441 116,111 117,90 118,21
119,38 120,19 125,16 126,39
127,223 128,771 129,545 130,110
131,78 132,22 133,27 138,23
139,126 140,84 141,653 142,610
143,2305 144,337 145,88 146,20
147,19 150,33 151,110 152,463
153,613 154,366 155,618 156,245
157,746 158,116 159,38 163,51
164,82 165,749 166,379 167,596
168,381 169,591 170,228 171,114
172,27 176,52 177,70 178,257
179,293 180,166 181,342 182,271
183,762 184,216 185,1144 186,187
187,24 189,61 190,35 191,78
192,46 193,74 194,54 195,146
196,91 197,330 198,85 199,214
200,48 201,15 202,20 203,14
205,11 210,38 211,226 212,50
213,144 214,29 223,17 224,21
225,269 226,162 227,144 228,98
229,116 239,136 240,263 241,9999
242,334 243,30 254,33 255,117
256,2305 257,472 258,49
##END=
