##TITLE=Benzofuran, 2,3-dihydro-2-methyl-
##JCAMP-DX=4.24
##DATA TYPE=MASS SPECTRUM
##ORIGIN=Japan AIST/NIMC Database- Spectrum MS-NW-8401
##OWNER=NIST Mass Spectrometry Data Center
Collection (C) 2014 copyright by the U.S. Secretary of Commerce
on behalf of the United States of America. All rights reserved.
##CAS REGISTRY NO=1746-11-8
##$NIST MASS SPEC NO=229237
##MOLFORM=C9 H10 O
##MW=134
##$NIST SOURCE=MSDC
##XUNITS=M/Z
##YUNITS=RELATIVE INTENSITY
##XFACTOR=1
##YFACTOR=1
##FIRSTX=15
##LASTX=136
##FIRSTY=60
##MAXX=136
##MINX=15
##MAXY=9999
##MINY=10
##NPOINTS=80
##PEAK TABLE=(XY..XY)
15,60 26,109 27,559 28,119
29,60 37,99 38,339 39,1439
40,179 41,259 42,30 43,449
44,20 45,109 49,50 50,589
51,1449 52,549 53,339 54,40
55,339 56,20 57,50 58,70
59,50 60,10 61,99 62,339
63,1039 64,369 65,849 66,359
67,179 68,80 69,20 73,30
74,169 75,159 76,129 77,1549
78,1319 79,959 80,90 81,20
85,20 86,40 87,50 88,30
89,1249 90,839 91,5169 92,559
93,40 94,159 95,10 98,10
101,30 102,90 103,429 104,109
105,1779 106,449 107,1139 108,109
113,10 114,30 115,1829 116,549
117,909 118,239 119,4299 120,389
121,50 122,10 131,249 132,119
133,3139 134,9999 135,989 136,60
##END=
