##TITLE=L-Phenylalanine, N,N-dimethyl-
##JCAMP-DX=4.24
##DATA TYPE=MASS SPECTRUM
##ORIGIN=CARL DJERASSI DEPT OF CHEM STANFORD UNIV STANFORD CALIF 94305
##OWNER=NIST Mass Spectrometry Data Center
Collection (C) 2014 copyright by the U.S. Secretary of Commerce
on behalf of the United States of America. All rights reserved.
##CAS REGISTRY NO=17469-89-5
##$NIST MASS SPEC NO=47267
##MOLFORM=C11 H15 N O2
##MW=193
##$NIST SOURCE=MSDC
##XUNITS=M/Z
##YUNITS=RELATIVE INTENSITY
##XFACTOR=1
##YFACTOR=1
##FIRSTX=41
##LASTX=193
##FIRSTY=200
##MAXX=193
##MINX=41
##MAXY=9999
##MINY=100
##NPOINTS=34
##PEAK TABLE=(XY..XY)
41,200 42,1500 43,100 44,1200
50,100 51,300 56,700 58,200
63,100 65,300 70,100 74,300
77,500 78,200 79,100 88,200
89,100 91,1000 92,200 102,9999
103,800 104,400 105,300 117,100
130,100 131,100 132,300 133,500
134,200 144,100 146,400 147,600
148,2100 193,100
##END=
