##TITLE=2,3,7,8-Tetrachlorodibenzo-p-dioxin
##JCAMP-DX=4.24
##DATA TYPE=MASS SPECTRUM
##ORIGIN=VERIFIN - Methodology B3-1982
##OWNER=NIST Mass Spectrometry Data Center
Collection (C) 2014 copyright by the U.S. Secretary of Commerce
on behalf of the United States of America. All rights reserved.
##CAS REGISTRY NO=1746-01-6
##$NIST MASS SPEC NO=226252
##MOLFORM=C12 H4 Cl4 O2
##MW=320
##$NIST SOURCE=MSDC
##XUNITS=M/Z
##YUNITS=RELATIVE INTENSITY
##XFACTOR=1
##YFACTOR=1
##FIRSTX=50
##LASTX=326
##FIRSTY=400
##MAXX=326
##MINX=50
##MAXY=9999
##MINY=100
##NPOINTS=47
##PEAK TABLE=(XY..XY)
50,400 57,300 58,500 62,300
71,400 74,500 84,200 85,200
96,200 97,800 99,200 108,200
109,400 111,300 113,500 120,200
123,100 125,100 128,100 129,100
133,300 144,200 159,200 160,700
161,700 162,600 191,200 193,200
194,1201 195,300 196,800 207,200
257,2602 258,200 259,2602 260,300
261,400 262,600 285,700 287,300
320,8007 321,1101 322,9999 323,1201
324,4704 325,800 326,1000
##END=
