##TITLE=Benzene, 4-methoxy-1-methyl-2-nitro-
##JCAMP-DX=4.24
##DATA TYPE=MASS SPECTRUM
##ORIGIN=Japan AIST/NIMC Database- Spectrum MS-IW- 918
##OWNER=NIST Mass Spectrometry Data Center
Collection (C) 2014 copyright by the U.S. Secretary of Commerce
on behalf of the United States of America. All rights reserved.
##CAS REGISTRY NO=17484-36-5
##$NIST MASS SPEC NO=239381
##MOLFORM=C8 H9 N O3
##MW=167
##$NIST SOURCE=MSDC
##XUNITS=M/Z
##YUNITS=RELATIVE INTENSITY
##XFACTOR=1
##YFACTOR=1
##FIRSTX=14
##LASTX=169
##FIRSTY=10
##MAXX=169
##MINX=14
##MAXY=9999
##MINY=10
##NPOINTS=95
##PEAK TABLE=(XY..XY)
14,10 15,149 26,80 27,259
28,289 29,80 30,129 31,20
37,60 38,169 39,1019 40,119
41,459 42,99 43,149 44,20
45,40 46,10 49,40 50,669
51,1899 52,1359 53,1009 54,80
55,289 56,20 57,50 58,40
59,40 60,10 61,90 62,299
63,969 64,299 65,2009 66,389
67,289 68,109 69,119 71,10
73,20 74,149 75,129 76,229
77,3569 78,3519 79,659 80,349
81,219 82,50 83,10 85,20
86,60 87,50 88,20 89,929
90,719 91,4419 92,799 93,249
94,569 95,1229 96,109 97,10
102,10 103,30 104,30 105,789
106,1629 107,579 108,209 109,209
110,40 111,10 117,10 118,269
119,139 120,2019 121,1679 122,7109
123,729 124,60 134,40 135,749
136,129 137,199 138,20 149,20
150,9999 151,979 152,90 166,10
167,5469 168,519 169,50
##END=
