##TITLE=5-Bromovaleric acid, decyl ester
##JCAMP-DX=4.24
##DATA TYPE=MASS SPECTRUM
##ORIGIN=Zaikin V.G., TIPS RAS, Moscow, Russia
##OWNER=NIST Mass Spectrometry Data Center
Collection (C) 2014 copyright by the U.S. Secretary of Commerce
on behalf of the United States of America. All rights reserved.
##CAS REGISTRY NO=175083-30-4
##$NIST MASS SPEC NO=292289
##MOLFORM=C15 H29 Br O2
##MW=320
##$NIST SOURCE=MSDC
##XUNITS=M/Z
##YUNITS=RELATIVE INTENSITY
##XFACTOR=1
##YFACTOR=1
##FIRSTX=26
##LASTX=242
##FIRSTY=140
##MAXX=242
##MINX=26
##MAXY=9999
##MINY=20
##NPOINTS=104
##PEAK TABLE=(XY..XY)
26,140 27,1091 28,20 29,2022
30,40 31,60 36,140 38,70
39,821 40,180 41,4104 42,1712
43,5015 44,260 45,110 51,40
52,30 53,440 54,781 55,9999
56,5135 57,4784 58,220 59,390
60,40 65,30 66,40 67,701
68,1351 69,4144 70,5395 71,2242
72,110 73,721 74,60 77,30
79,110 80,110 81,370 82,1722
83,5485 84,3353 85,1992 86,110
87,70 93,40 95,180 96,671
97,3613 98,2172 99,420 100,300
101,6776 102,400 103,90 106,30
107,220 108,40 109,260 110,270
111,2292 112,2672 113,260 115,40
125,60 129,40 135,2362 136,130
137,2342 138,150 139,100 140,3643
141,460 155,80 157,440 158,40
162,100 163,3603 164,300 165,3523
166,190 171,30 178,30 180,751
181,6406 182,1051 183,6386 184,370
185,430 186,50 191,30 193,40
207,50 209,40 211,50 213,30
218,30 220,30 221,90 223,180
236,130 238,120 241,310 242,40
##END=
