##TITLE=Naphthalene, decahydro-1,6-dimethyl-
##JCAMP-DX=4.24
##DATA TYPE=MASS SPECTRUM
##ORIGIN=G.A.M.S., PARIS, FRANCE.
##OWNER=NIST Mass Spectrometry Data Center
Collection (C) 2014 copyright by the U.S. Secretary of Commerce
on behalf of the United States of America. All rights reserved.
##CAS REGISTRY NO=1750-51-2
##$NIST MASS SPEC NO=6221
##MOLFORM=C12 H22
##MW=166
##$NIST SOURCE=MSDC
##XUNITS=M/Z
##YUNITS=RELATIVE INTENSITY
##XFACTOR=1
##YFACTOR=1
##FIRSTX=26
##LASTX=168
##FIRSTY=50
##MAXX=168
##MINX=26
##MAXY=9999
##MINY=10
##NPOINTS=93
##PEAK TABLE=(XY..XY)
26,50 27,694 28,234 29,979
30,24 38,19 39,877 40,177
41,2670 42,316 43,644 44,32
50,25 51,113 52,73 53,654
54,622 55,3110 56,388 57,468
58,30 63,31 64,13 65,206
66,144 67,2790 68,1340 69,1290
70,205 71,220 72,13 77,300
78,75 79,489 80,314 81,5020
82,2590 83,1110 84,117 85,133
86,12 91,221 92,55 93,236
94,641 95,9999 96,1940 97,436
98,45 99,35 103,14 105,61
106,23 107,83 108,101 109,1350
110,1980 111,431 112,43 113,28
115,20 117,12 119,30 120,13
121,35 122,55 123,1138 124,351
125,76 126,14 127,18 128,10
129,10 131,12 133,18 135,23
136,14 137,202 138,143 139,25
141,50 145,12 149,28 150,12
151,659 152,88 153,13 155,12
164,10 165,34 166,3540 167,486
168,37
##END=
