##TITLE=Thianaphthene-2-carboxylic hydrazide
##JCAMP-DX=4.24
##DATA TYPE=MASS SPECTRUM
##ORIGIN=NIST Mass Spectrometry Data Center, 1994
##OWNER=NIST Mass Spectrometry Data Center
Collection (C) 2014 copyright by the U.S. Secretary of Commerce
on behalf of the United States of America. All rights reserved.
##CAS REGISTRY NO=175135-07-6
##$NIST MASS SPEC NO=136892
##MOLFORM=C9 H8 N2 O S
##MW=192
##$NIST SOURCE=MSDC
##XUNITS=M/Z
##YUNITS=RELATIVE INTENSITY
##XFACTOR=1
##YFACTOR=1
##FIRSTX=14
##LASTX=194
##FIRSTY=91
##MAXX=194
##MINX=14
##MAXY=9999
##MINY=26
##NPOINTS=56
##PEAK TABLE=(XY..XY)
14,91 16,125 17,84 18,102
27,92 28,617 29,418 30,173
31,520 32,120 38,157 39,583
44,26 45,307 50,301 51,259
53,92 57,94 58,104 61,138
62,377 63,1037 64,107 66,124
67,78 69,606 74,280 75,206
76,87 77,227 81,171 82,234
83,86 86,117 87,142 89,4687
90,491 93,351 95,105 105,87
108,77 121,86 132,246 133,2473
134,563 135,195 159,220 161,9999
162,1441 163,590 164,105 177,480
189,121 192,2305 193,274 194,123
##END=
