##TITLE=2-(Pentamethylbenzoyl)thiophene
##JCAMP-DX=4.24
##DATA TYPE=MASS SPECTRUM
##ORIGIN=NIST Mass Spectrometry Data Center, 1994
##OWNER=NIST Mass Spectrometry Data Center
Collection (C) 2014 copyright by the U.S. Secretary of Commerce
on behalf of the United States of America. All rights reserved.
##CAS REGISTRY NO=175136-70-6
##$NIST MASS SPEC NO=136890
##MOLFORM=C16 H18 O S
##MW=258
##$NIST SOURCE=MSDC
##XUNITS=M/Z
##YUNITS=RELATIVE INTENSITY
##XFACTOR=1
##YFACTOR=1
##FIRSTX=15
##LASTX=261
##FIRSTY=105
##MAXX=261
##MINX=15
##MAXY=9999
##MINY=13
##NPOINTS=159
##PEAK TABLE=(XY..XY)
15,105 17,70 18,396 26,43
27,722 28,98 29,381 32,13
38,176 39,3275 40,279 41,1194
42,50 43,220 44,13 45,383
50,162 51,773 52,217 53,819
54,59 55,344 57,208 58,182
59,52 62,76 63,398 64,144
65,769 66,120 67,156 69,125
71,63 74,68 75,139 76,156
77,1187 78,276 79,520 80,47
81,127 82,115 83,639 84,236
85,104 86,73 87,75 88,44
89,236 90,44 91,1930 92,262
93,165 94,52 95,32 97,164
98,59 99,118 100,93 101,78
102,107 103,255 104,149 105,657
106,128 107,174 108,39 109,70
110,32 111,2738 112,195 113,165
114,204 115,1460 116,587 117,1034
118,114 119,438 120,64 121,67
126,42 127,233 128,558 129,489
130,210 131,1071 132,280 133,74
139,71 141,234 142,110 143,112
144,34 145,160 146,217 147,754
148,116 151,52 152,226 153,168
154,65 155,147 156,83 157,61
164,46 165,341 166,149 167,344
168,70 169,105 170,71 171,165
172,45 173,73 174,382 175,495
176,76 178,70 179,70 180,45
181,130 182,259 183,113 184,277
185,280 186,92 187,69 195,275
196,92 197,673 198,213 199,403
200,285 201,94 207,30 208,40
210,1685 211,366 212,76 213,168
214,121 215,219 216,47 223,75
225,9999 226,2038 227,332 228,410
229,129 240,83 241,353 242,857
243,666 244,132 257,524 258,3669
259,643 260,251 261,46
##END=
