##TITLE=5-Ethylbenzo[b]thiophene
##JCAMP-DX=4.24
##DATA TYPE=MASS SPECTRUM
##ORIGIN=Organic Synthesis Lab, MSU, Moscow.TRC 323
##OWNER=NIST Mass Spectrometry Data Center
Collection (C) 2014 copyright by the U.S. Secretary of Commerce
on behalf of the United States of America. All rights reserved.
##CAS REGISTRY NO=17514-96-4
##$NIST MASS SPEC NO=326049
##MOLFORM=C10 H10 S
##MW=162
##$NIST SOURCE=MSDC
##XUNITS=M/Z
##YUNITS=RELATIVE INTENSITY
##XFACTOR=1
##YFACTOR=1
##FIRSTX=40
##LASTX=164
##FIRSTY=20
##MAXX=164
##MINX=40
##MAXY=9999
##MINY=10
##NPOINTS=92
##PEAK TABLE=(XY..XY)
40,20 45,180 47,10 49,10
50,100 51,110 52,30 53,20
57,20 58,60 59,10 61,70
62,160 63,360 64,50 65,70
66,20 67,40 69,530 70,70
71,60 72,10 74,230 75,190
76,110 77,450 78,70 79,110
80,40 81,130 82,150 83,40
84,40 85,40 86,100 87,120
88,60 89,571 90,140 91,250
92,30 93,200 94,40 95,90
96,20 97,100 98,60 99,20
100,10 101,90 102,350 103,410
104,40 105,30 106,50 107,20
108,130 109,20 110,10 113,60
114,90 115,741 116,120 117,160
118,10 119,40 120,40 121,841
122,70 123,40 126,30 127,90
128,591 129,70 132,80 133,100
134,801 135,250 136,50 137,10
145,270 147,9999 148,1611 149,761
150,60 158,90 159,110 160,110
161,400 162,5815 163,641 164,280
##END=
