##TITLE=Molybdenyl acetylacetonate
##JCAMP-DX=4.24
##DATA TYPE=MASS SPECTRUM
##ORIGIN=Japan AIST/NIMC Database- Spectrum MS-NW-5035
##OWNER=NIST Mass Spectrometry Data Center
Collection (C) 2014 copyright by the U.S. Secretary of Commerce
on behalf of the United States of America. All rights reserved.
##CAS REGISTRY NO=17524-05-9
##$NIST MASS SPEC NO=230344
##MOLFORM=C10 H14 Mo O6
##MW=328
##$NIST SOURCE=MSDC
##XUNITS=M/Z
##YUNITS=RELATIVE INTENSITY
##XFACTOR=1
##YFACTOR=1
##FIRSTX=13
##LASTX=332
##FIRSTY=10
##MAXX=332
##MINX=13
##MAXY=9999
##MINY=10
##NPOINTS=262
##PEAK TABLE=(XY..XY)
13,10 14,99 15,609 16,10
17,20 18,70 25,10 26,90
27,419 28,199 29,129 31,80
32,10 36,10 37,60 38,139
39,729 40,99 41,269 42,329
43,9999 44,269 45,40 49,10
50,50 51,70 52,20 53,229
54,40 55,199 56,10 57,30
58,90 60,10 61,10 62,10
63,30 64,10 65,149 66,60
67,279 68,30 69,109 70,10
71,20 72,80 77,20 79,20
81,60 82,239 83,80 84,40
85,1169 86,60 87,10 91,10
92,10 95,20 96,10 97,20
98,10 99,139 100,819 101,50
107,10 108,30 109,20 110,20
111,40 112,50 113,40 114,60
115,30 116,20 117,10 121,20
122,30 123,20 124,90 125,90
126,80 127,139 128,149 129,139
130,149 131,109 132,50 133,50
134,30 135,20 136,40 137,50
138,70 139,109 140,80 141,119
142,119 143,99 144,119 145,139
146,99 147,149 148,80 149,109
150,80 151,119 152,80 153,139
154,109 155,199 156,109 157,159
158,60 159,119 160,30 161,50
162,20 163,149 164,99 165,129
166,219 167,269 168,229 169,329
170,189 171,179 172,119 173,60
174,40 175,20 176,20 177,60
178,20 179,50 180,80 181,289
182,80 183,269 184,329 185,349
186,249 187,459 188,119 189,249
190,109 191,50 192,70 193,40
194,50 195,50 196,40 197,40
198,40 199,30 200,30 201,20
202,20 203,10 204,10 205,80
206,20 207,239 208,219 209,229
210,329 211,469 212,299 213,449
214,219 215,149 216,90 217,10
222,80 223,1509 224,569 225,1049
226,2029 227,2299 228,1679 229,2769
230,929 231,1059 232,359 233,30
234,10 237,10 238,30 239,90
240,40 241,30 242,30 243,30
244,40 245,10 246,20 247,10
248,10 249,20 250,50 251,20
252,50 253,50 254,169 255,70
256,70 257,20 258,30 262,10
264,10 265,10 266,10 267,10
268,20 269,10 270,20 271,10
272,10 274,10 278,10 279,309
280,1359 281,339 282,1189 283,1869
284,1889 285,1509 286,2299 287,429
288,929 289,90 290,20 293,40
294,40 295,30 296,70 297,80
298,70 299,90 300,60 301,30
302,30 306,40 307,40 308,30
309,70 310,90 311,60 312,90
313,60 314,30 315,30 322,749
323,90 324,499 325,869 326,959
327,609 328,1289 329,159 330,539
331,60 332,10
##END=
