##TITLE=7-Amino-4-(methoxymethyl)coumarin
##JCAMP-DX=4.24
##DATA TYPE=MASS SPECTRUM
##ORIGIN=NIST Mass Spectrometry Data Center, 1994
##OWNER=NIST Mass Spectrometry Data Center
Collection (C) 2014 copyright by the U.S. Secretary of Commerce
on behalf of the United States of America. All rights reserved.
##CAS REGISTRY NO=175205-10-4
##$NIST MASS SPEC NO=136762
##MOLFORM=C11 H11 N O3
##MW=205
##$NIST SOURCE=MSDC
##XUNITS=M/Z
##YUNITS=RELATIVE INTENSITY
##XFACTOR=1
##YFACTOR=1
##FIRSTX=15
##LASTX=207
##FIRSTY=1492
##MAXX=207
##MINX=15
##MAXY=9999
##MINY=75
##NPOINTS=85
##PEAK TABLE=(XY..XY)
15,1492 17,291 18,233 30,366
37,183 38,743 39,2002 40,607
41,376 42,189 44,75 49,137
50,1517 51,2960 52,1880 53,971
54,743 55,175 59,1576 61,310
62,947 63,2238 64,677 65,1633
66,467 67,312 68,723 69,163
73,775 74,917 75,610 76,1121
77,2896 78,1398 79,1039 80,349
81,107 85,103 86,205 87,370
88,328 89,2331 90,1031 91,2357
92,424 93,168 101,198 102,410
103,581 104,2543 105,751 106,4798
107,506 114,101 115,120 116,1146
117,2007 118,2125 119,965 120,300
130,361 131,110 132,213 133,1197
134,3618 135,391 136,182 144,145
146,6535 147,8710 148,1538 160,318
161,721 162,3851 163,433 173,267
174,1360 175,7284 176,1006 177,284
190,1642 191,212 205,9999 206,1254
207,182
##END=
