##TITLE=2-Bromo-4,6-difluoroiodobenzene
##JCAMP-DX=4.24
##DATA TYPE=MASS SPECTRUM
##ORIGIN=NIST Mass Spectrometry Data Center, 1994
##OWNER=NIST Mass Spectrometry Data Center
Collection (C) 2014 copyright by the U.S. Secretary of Commerce
on behalf of the United States of America. All rights reserved.
##CAS REGISTRY NO=175278-11-2
##$NIST MASS SPEC NO=136810
##MOLFORM=C6 H2 Br F2 I
##MW=318
##$NIST SOURCE=MSDC
##XUNITS=M/Z
##YUNITS=RELATIVE INTENSITY
##XFACTOR=1
##YFACTOR=1
##FIRSTX=31
##LASTX=322
##FIRSTY=275
##MAXX=322
##MINX=31
##MAXY=9999
##MINY=21
##NPOINTS=50
##PEAK TABLE=(XY..XY)
31,275 36,54 37,171 38,42
44,36 49,72 50,49 55,49
56,88 57,45 60,58 61,519
62,1027 63,47 67,41 68,504
72,28 73,79 74,135 75,47
79,152 80,150 81,447 82,42
86,51 91,33 92,285 93,195
110,46 111,294 112,3128 113,209
127,809 128,80 143,22 159,251
160,219 191,1372 192,130 193,1336
194,113 206,76 208,73 239,741
240,46 318,9999 319,791 320,8317
321,606 322,21
##END=
