##TITLE=5-Fluoro-2-methylphenyl isothiocyanate
##JCAMP-DX=4.24
##DATA TYPE=MASS SPECTRUM
##ORIGIN=NIST Mass Spectrometry Data Center, 1994
##OWNER=NIST Mass Spectrometry Data Center
Collection (C) 2014 copyright by the U.S. Secretary of Commerce
on behalf of the United States of America. All rights reserved.
##CAS REGISTRY NO=175205-39-7
##$NIST MASS SPEC NO=134572
##MOLFORM=C8 H6 F N S
##MW=167
##$NIST SOURCE=MSDC
##XUNITS=M/Z
##YUNITS=RELATIVE INTENSITY
##XFACTOR=1
##YFACTOR=1
##FIRSTX=15
##LASTX=170
##FIRSTY=172
##MAXX=170
##MINX=15
##MAXY=9999
##MINY=44
##NPOINTS=99
##PEAK TABLE=(XY..XY)
15,172 26,350 27,789 28,44
31,1061 32,725 33,401 34,60
36,63 37,541 38,785 39,1817
40,123 41,54 44,1056 45,2134
46,207 47,105 49,273 50,1630
51,1544 52,446 53,66 56,535
57,3033 58,625 59,681 60,287
61,658 62,1127 63,2007 64,476
65,103 68,380 69,733 70,1236
71,262 72,161 73,207 74,556
75,1053 76,528 77,189 78,60
79,67 80,276 81,1590 82,802
83,3124 85,287 86,286 87,443
88,297 89,544 90,131 92,90
93,243 94,512 95,919 96,731
97,109 99,75 100,167 102,240
103,134 104,90 105,199 106,75
107,3554 108,2110 109,2998 110,265
111,52 113,90 114,106 119,85
120,232 121,200 122,732 123,148
126,58 132,74 134,1742 135,4708
136,458 137,65 138,58 139,1985
140,542 141,144 146,152 147,340
148,103 164,92 166,3420 167,9999
168,1098 169,577 170,44
##END=
