##TITLE=2-Amino-6-fluorobenzylamine
##JCAMP-DX=4.24
##DATA TYPE=MASS SPECTRUM
##ORIGIN=NIST Mass Spectrometry Data Center, 1994
##OWNER=NIST Mass Spectrometry Data Center
Collection (C) 2014 copyright by the U.S. Secretary of Commerce
on behalf of the United States of America. All rights reserved.
##CAS REGISTRY NO=175277-93-7
##$NIST MASS SPEC NO=136523
##MOLFORM=C7 H9 F N2
##MW=140
##$NIST SOURCE=MSDC
##XUNITS=M/Z
##YUNITS=RELATIVE INTENSITY
##XFACTOR=1
##YFACTOR=1
##FIRSTX=15
##LASTX=141
##FIRSTY=89
##MAXX=141
##MINX=15
##MAXY=9999
##MINY=26
##NPOINTS=98
##PEAK TABLE=(XY..XY)
15,89 16,79 17,321 18,441
20,33 26,140 27,248 28,3584
29,152 30,3239 31,110 33,148
37,314 38,636 39,1178 40,288
41,520 42,181 43,47 44,126
46,133 47,64 48,94 49,109
50,707 51,1054 52,933 53,211
54,222 56,249 57,1207 58,145
59,26 60,141 61,331 62,479
63,971 64,528 65,1476 66,295
67,102 68,358 69,591 70,1026
71,167 72,173 73,63 74,210
75,1175 76,552 77,752 78,202
79,65 80,110 81,342 82,327
83,1220 84,1125 85,277 87,34
88,59 89,184 90,540 91,251
92,1444 93,734 94,597 95,1480
96,5189 97,730 98,144 100,62
101,123 102,584 103,130 104,106
107,75 108,82 109,262 110,292
111,1529 112,1436 113,100 117,147
118,76 119,282 120,1409 121,75
122,9999 123,6041 124,2151 125,179
136,49 137,137 138,210 139,1765
140,7362 141,570
##END=
