##TITLE=1,3-Diacetylindole
##JCAMP-DX=4.24
##DATA TYPE=MASS SPECTRUM
##ORIGIN=NIST Mass Spectrometry Data Center, 1994
##OWNER=NIST Mass Spectrometry Data Center
Collection (C) 2014 copyright by the U.S. Secretary of Commerce
on behalf of the United States of America. All rights reserved.
##CAS REGISTRY NO=17537-64-3
##$NIST MASS SPEC NO=136304
##MOLFORM=C12 H11 N O2
##MW=201
##$NIST SOURCE=MSDC
##XUNITS=M/Z
##YUNITS=RELATIVE INTENSITY
##XFACTOR=1
##YFACTOR=1
##FIRSTX=13
##LASTX=203
##FIRSTY=32
##MAXX=203
##MINX=13
##MAXY=9999
##MINY=25
##NPOINTS=58
##PEAK TABLE=(XY..XY)
13,32 14,133 15,1166 18,38
37,75 38,159 39,358 40,43
41,74 42,339 43,4561 44,85
50,328 51,397 52,130 53,45
61,147 62,646 63,735 64,186
65,121 74,129 75,301 76,246
77,597 78,59 85,37 86,130
87,298 88,559 89,1489 90,238
91,25 98,39 99,27 100,25
101,99 102,206 103,269 104,36
113,36 114,406 115,796 116,1489
117,548 118,52 128,106 129,64
130,488 131,57 144,9999 145,1024
146,70 159,2484 160,293 201,2616
202,373 203,31
##END=
