##TITLE=1,2-Benzenedithiol
##JCAMP-DX=4.24
##DATA TYPE=MASS SPECTRUM
##ORIGIN=NIST Mass Spectrometry Data Center, 1994
##OWNER=NIST Mass Spectrometry Data Center
Collection (C) 2014 copyright by the U.S. Secretary of Commerce
on behalf of the United States of America. All rights reserved.
##CAS REGISTRY NO=17534-15-5
##$NIST MASS SPEC NO=136504
##MOLFORM=C6 H6 S2
##MW=142
##$NIST SOURCE=MSDC
##XUNITS=M/Z
##YUNITS=RELATIVE INTENSITY
##XFACTOR=1
##YFACTOR=1
##FIRSTX=12
##LASTX=145
##FIRSTY=44
##MAXX=145
##MINX=12
##MAXY=9999
##MINY=29
##NPOINTS=94
##PEAK TABLE=(XY..XY)
12,44 13,29 15,40 17,74
18,157 25,54 26,199 27,134
32,326 33,483 34,331 35,58
36,155 37,654 38,911 39,1627
40,94 41,36 44,248 45,2313
46,113 47,158 48,39 49,223
50,1034 51,1107 52,191 53,469
54,89 56,112 57,616 58,977
59,40 60,125 61,380 62,512
63,1077 64,896 65,1204 66,351
67,35 68,299 69,3894 70,1182
71,1150 72,140 73,166 74,405
75,413 76,185 77,2491 78,8521
79,566 80,115 81,694 82,1204
83,218 84,470 85,191 88,257
89,56 90,64 91,289 92,115
93,447 94,139 95,1162 96,1275
97,2199 98,478 99,122 100,122
101,125 103,33 104,30 105,172
106,125 107,30 108,1989 109,3144
110,557 111,172 112,55 114,50
116,134 118,30 138,34 139,155
140,735 141,2128 142,9999 143,990
144,893 145,78
##END=
