##TITLE=Phosphonic acid, phenyl-, diethyl ester
##JCAMP-DX=4.24
##DATA TYPE=MASS SPECTRUM
##ORIGIN=Japan AIST/NIMC Database- Spectrum MS-NW-3988
##OWNER=NIST Mass Spectrometry Data Center
Collection (C) 2014 copyright by the U.S. Secretary of Commerce
on behalf of the United States of America. All rights reserved.
##CAS REGISTRY NO=1754-49-0
##$NIST MASS SPEC NO=232334
##MOLFORM=C10 H15 O3 P
##MW=214
##$NIST SOURCE=MSDC
##XUNITS=M/Z
##YUNITS=RELATIVE INTENSITY
##XFACTOR=1
##YFACTOR=1
##FIRSTX=14
##LASTX=218
##FIRSTY=20
##MAXX=218
##MINX=14
##MAXY=9999
##MINY=10
##NPOINTS=145
##PEAK TABLE=(XY..XY)
14,20 15,129 16,10 25,10
26,189 27,1009 28,479 29,1259
30,30 31,119 32,109 37,20
38,70 39,359 40,40 41,20
42,30 43,219 44,30 45,229
46,20 47,639 48,20 49,30
50,729 51,2549 52,279 53,30
55,30 56,20 57,20 61,10
62,40 63,129 64,90 65,749
66,159 67,10 68,10 69,20
70,10 71,10 73,30 74,199
75,189 76,439 77,6749 78,4889
79,619 80,40 81,439 82,90
83,50 84,20 85,10 86,10
89,20 90,10 91,189 92,119
93,229 94,3279 95,269 96,50
99,10 101,10 102,10 103,60
104,1169 105,4019 106,419 107,40
108,20 109,90 110,149 111,10
112,40 113,20 118,10 119,20
120,10 121,50 122,10 123,20
124,199 125,70 126,90 127,10
129,20 132,50 133,40 134,20
135,10 136,10 137,10 138,10
139,169 140,479 141,8049 142,5969
143,749 144,70 149,40 150,10
151,10 152,10 153,30 154,10
155,30 156,30 157,90 158,9999
159,4229 160,359 161,50 162,20
165,10 167,80 168,30 169,919
170,1169 171,219 172,70 173,10
183,20 184,20 185,819 186,1519
187,1069 188,99 189,10 193,10
195,10 197,10 198,10 199,60
200,20 201,10 212,20 213,849
214,2999 215,389 216,40 217,30
218,10
##END=
