##TITLE=Pentalene, octahydro-, cis-
##JCAMP-DX=4.24
##DATA TYPE=MASS SPECTRUM
##OWNER=NIST Mass Spectrometry Data Center
Collection (C) 2014 copyright by the U.S. Secretary of Commerce
on behalf of the United States of America. All rights reserved.
##CAS REGISTRY NO=1755-05-1
##$NIST MASS SPEC NO=20124
##MOLFORM=C8 H14
##MW=110
##$NIST SOURCE=MSDC
##XUNITS=M/Z
##YUNITS=RELATIVE INTENSITY
##XFACTOR=1
##YFACTOR=1
##FIRSTX=25
##LASTX=112
##FIRSTY=10
##MAXX=112
##MINX=25
##MAXY=9999
##MINY=10
##NPOINTS=67
##PEAK TABLE=(XY..XY)
25,10 26,240 27,2032 28,520
29,641 30,20 37,60 38,180
39,2452 40,460 41,2963 42,310
43,130 44,10 45,20 46,10
49,10 50,160 51,350 52,200
53,811 54,1631 55,751 56,70
57,10 58,10 60,20 62,30
63,90 64,20 65,270 66,1001
67,9999 68,1331 69,380 70,20
74,20 75,20 76,10 77,230
78,60 79,230 80,130 81,1171
82,6246 83,400 84,10 89,10
90,10 91,60 92,10 93,20
94,10 95,300 96,30 100,10
101,10 102,10 103,10 104,10
105,10 107,10 108,10 109,40
110,1461 111,130 112,10
##END=
