##TITLE=N-(Chloromethyl)phthalimide
##JCAMP-DX=4.24
##DATA TYPE=MASS SPECTRUM
##ORIGIN=Japan AIST/NIMC Database- Spectrum MS-NW-9877
##OWNER=NIST Mass Spectrometry Data Center
Collection (C) 2014 copyright by the U.S. Secretary of Commerce
on behalf of the United States of America. All rights reserved.
##CAS REGISTRY NO=17564-64-6
##$NIST MASS SPEC NO=239067
##MOLFORM=C9 H6 Cl N O2
##MW=195
##$NIST SOURCE=MSDC
##XUNITS=M/Z
##YUNITS=RELATIVE INTENSITY
##XFACTOR=1
##YFACTOR=1
##FIRSTX=27
##LASTX=198
##FIRSTY=10
##MAXX=198
##MINX=27
##MAXY=9999
##MINY=10
##NPOINTS=51
##PEAK TABLE=(XY..XY)
27,10 28,20 30,20 36,20
37,80 38,189 39,30 49,50
50,689 51,199 52,399 53,20
56,30 61,20 62,20 63,20
64,10 66,919 73,50 74,279
75,339 76,1159 77,699 78,60
79,30 80,99 90,10 102,70
103,80 104,1029 105,399 106,30
111,30 130,169 131,20 132,259
133,689 134,60 147,169 148,60
149,40 159,10 160,9999 161,1049
162,90 167,20 177,90 195,299
196,30 197,99 198,10
##END=
