##TITLE=11-Hydroxyetiocholanolone (3.alpha.,5.beta.,11.beta.)-, 2TMS derivative
##JCAMP-DX=4.24
##DATA TYPE=MASS SPECTRUM
##ORIGIN=M. HORNING
##OWNER=NIST Mass Spectrometry Data Center
Collection (C) 2014 copyright by the U.S. Secretary of Commerce
on behalf of the United States of America. All rights reserved.
##CAS REGISTRY NO=17562-89-9
##$NIST MASS SPEC NO=43592
##MOLFORM=C25 H46 O3 Si2
##MW=450
##$NIST SOURCE=MSDC
##XUNITS=M/Z
##YUNITS=RELATIVE INTENSITY
##XFACTOR=1
##YFACTOR=1
##FIRSTX=41
##LASTX=452
##FIRSTY=1050
##MAXX=452
##MINX=41
##MAXY=9999
##MINY=113
##NPOINTS=100
##PEAK TABLE=(XY..XY)
41,1050 42,250 43,1150 44,250
45,700 47,250 53,250 55,1100
57,250 59,550 61,450 67,1100
69,500 73,9999 74,1000 75,6350
76,450 77,650 79,1350 81,1250
83,300 91,1150 92,400 93,1300
94,750 95,1100 96,450 97,550
101,600 103,500 105,1350 106,1300
107,1100 108,3200 109,700 116,250
117,550 118,800 119,800 120,300
121,400 129,700 131,750 132,250
133,550 134,250 141,800 142,350
143,1100 144,350 145,800 146,300
147,600 148,250 149,400 155,300
156,9989 157,1700 158,550 159,600
160,250 161,250 168,400 169,700
170,300 171,500 173,300 174,1100
175,900 181,250 182,250 183,450
184,3000 185,1100 186,950 187,450
188,400 189,400 195,250 197,250
199,800 207,300 213,300 214,500
242,300 253,400 255,400 270,1500
271,350 290,550 305,350 359,400
360,1200 361,350 395,750 396,250
435,250 450,850 451,320 452,113
##END=
