##TITLE=Thiophene, 3-methoxy-
##JCAMP-DX=4.24
##DATA TYPE=MASS SPECTRUM
##ORIGIN=NIST Mass Spectrometry Data Center, 1994
##OWNER=NIST Mass Spectrometry Data Center
Collection (C) 2014 copyright by the U.S. Secretary of Commerce
on behalf of the United States of America. All rights reserved.
##CAS REGISTRY NO=17573-92-1
##$NIST MASS SPEC NO=136561
##MOLFORM=C5 H6 O S
##MW=114
##$NIST SOURCE=MSDC
##XUNITS=M/Z
##YUNITS=RELATIVE INTENSITY
##XFACTOR=1
##YFACTOR=1
##FIRSTX=12
##LASTX=116
##FIRSTY=97
##MAXX=116
##MINX=12
##MAXY=9999
##MINY=10
##NPOINTS=50
##PEAK TABLE=(XY..XY)
12,97 13,165 14,305 15,1181
18,65 25,179 26,713 32,191
33,72 36,65 37,502 38,740
39,1783 40,160 41,10 45,8699
46,257 47,476 48,71 49,176
50,376 51,134 52,10 53,500
54,197 55,1535 56,172 57,757
58,844 60,151 68,148 69,775
70,247 71,1648 72,230 73,1472
81,495 82,282 83,227 84,2227
85,1252 86,235 97,96 99,9999
100,566 101,445 111,153 114,8500
115,574 116,385
##END=
