##TITLE=Benzeneacetic acid, 2,5-dimethoxy-
##JCAMP-DX=4.24
##DATA TYPE=MASS SPECTRUM
##ORIGIN=Japan AIST/NIMC Database- Spectrum MS-NW-2390
##OWNER=NIST Mass Spectrometry Data Center
Collection (C) 2014 copyright by the U.S. Secretary of Commerce
on behalf of the United States of America. All rights reserved.
##CAS REGISTRY NO=1758-25-4
##$NIST MASS SPEC NO=234201
##MOLFORM=C10 H12 O4
##MW=196
##$NIST SOURCE=MSDC
##XUNITS=M/Z
##YUNITS=RELATIVE INTENSITY
##XFACTOR=1
##YFACTOR=1
##FIRSTX=26
##LASTX=199
##FIRSTY=119
##MAXX=199
##MINX=26
##MAXY=9999
##MINY=10
##NPOINTS=117
##PEAK TABLE=(XY..XY)
26,119 27,159 28,379 29,129
30,20 31,70 32,70 33,10
36,229 37,60 38,209 39,939
40,129 41,219 42,40 43,99
44,119 45,269 49,20 50,319
51,739 52,229 53,299 54,209
55,189 56,30 57,40 59,70
60,10 61,40 62,139 63,309
64,219 65,1439 66,419 67,149
68,50 69,80 70,10 71,10
73,20 74,119 75,109 76,129
77,1359 78,779 79,509 80,60
81,129 82,90 83,20 84,20
85,20 86,20 87,10 88,10
89,129 90,90 91,949 92,289
93,429 94,379 95,80 96,30
97,30 98,20 103,30 104,20
105,299 106,179 107,289 108,529
109,839 110,80 111,90 117,10
118,20 119,70 120,119 121,3939
122,379 123,289 124,40 125,99
126,10 133,30 134,20 135,319
136,259 137,7559 138,689 139,199
140,20 147,10 148,30 149,1019
150,119 151,3009 152,489 153,70
163,949 164,159 165,70 166,40
167,20 168,10 177,10 178,249
179,30 181,499 182,50 183,10
195,30 196,9999 197,1119 198,139
199,20
##END=
