##TITLE=Oxirane, 2,3-dimethyl-, cis-
##JCAMP-DX=4.24
##DATA TYPE=MASS SPECTRUM
##ORIGIN=NIST Mass Spectrometry Data Center, 1990.
##OWNER=NIST Mass Spectrometry Data Center
Collection (C) 2014 copyright by the U.S. Secretary of Commerce
on behalf of the United States of America. All rights reserved.
##CAS REGISTRY NO=1758-33-4
##$NIST MASS SPEC NO=118168
##MOLFORM=C4 H8 O
##MW=72
##$NIST SOURCE=MSDC
##XUNITS=M/Z
##YUNITS=RELATIVE INTENSITY
##XFACTOR=1
##YFACTOR=1
##FIRSTX=12
##LASTX=73
##FIRSTY=19
##MAXX=73
##MINX=12
##MAXY=9999
##MINY=7
##NPOINTS=40
##PEAK TABLE=(XY..XY)
12,19 13,73 14,301 15,963
16,63 18,18 19,301 24,25
25,182 26,1602 27,3138 28,1905
29,3207 30,58 31,79 32,7
36,23 37,108 38,146 39,401
40,76 41,611 42,7 43,9999
44,4511 45,3459 46,87 48,10
49,51 50,134 51,88 52,23
53,71 54,18 55,107 56,37
57,114 71,35 72,132 73,7
##END=
