##TITLE=Thiazole, 5-ethenyl-4-methyl-
##JCAMP-DX=4.24
##DATA TYPE=MASS SPECTRUM
##ORIGIN=Japan AIST/NIMC Database- Spectrum MS-IW-1304
##OWNER=NIST Mass Spectrometry Data Center
Collection (C) 2014 copyright by the U.S. Secretary of Commerce
on behalf of the United States of America. All rights reserved.
##CAS REGISTRY NO=1759-28-0
##$NIST MASS SPEC NO=239653
##MOLFORM=C6 H7 N S
##MW=125
##$NIST SOURCE=MSDC
##XUNITS=M/Z
##YUNITS=RELATIVE INTENSITY
##XFACTOR=1
##YFACTOR=1
##FIRSTX=15
##LASTX=128
##FIRSTY=20
##MAXX=128
##MINX=15
##MAXY=9999
##MINY=10
##NPOINTS=77
##PEAK TABLE=(XY..XY)
15,20 26,99 27,369 28,159
31,30 32,30 33,10 34,10
36,20 37,99 38,179 39,1019
40,129 41,109 42,70 43,30
44,90 45,1279 46,90 47,109
48,10 49,50 50,119 51,199
52,159 53,609 54,279 55,20
56,10 57,60 58,3339 59,629
60,179 61,99 62,109 63,209
64,90 65,479 66,109 67,40
68,50 69,609 70,409 71,699
72,139 73,40 75,10 76,20
77,10 78,10 79,30 80,289
81,139 82,90 83,419 84,329
85,139 86,30 91,10 92,249
93,50 94,10 95,40 96,80
97,4259 98,2449 99,369 100,119
110,30 112,70 113,30 123,10
124,1459 125,9999 126,899 127,519
128,40
##END=
