##TITLE=Cyclopentane, 1,3-dimethyl-, trans-
##JCAMP-DX=4.24
##DATA TYPE=MASS SPECTRUM
##OWNER=NIST Mass Spectrometry Data Center
Collection (C) 2014 copyright by the U.S. Secretary of Commerce
on behalf of the United States of America. All rights reserved.
##CAS REGISTRY NO=1759-58-6
##$NIST MASS SPEC NO=939
##MOLFORM=C7 H14
##MW=98
##$NIST SOURCE=MSDC
##XUNITS=M/Z
##YUNITS=RELATIVE INTENSITY
##XFACTOR=1
##YFACTOR=1
##FIRSTX=1
##LASTX=100
##FIRSTY=50
##MAXX=100
##MINX=1
##MAXY=9999
##MINY=10
##NPOINTS=73
##PEAK TABLE=(XY..XY)
1,50 2,20 12,10 13,10
14,30 15,691 16,20 25,10
26,230 27,3323 28,1221 29,2362
30,80 31,10 32,10 33,10
34,10 35,10 37,40 38,160
39,3303 40,701 41,7987 42,2943
43,1191 44,40 45,10 46,20
47,10 49,10 50,140 51,280
52,130 53,791 54,651 55,7337
56,9999 57,1451 58,50 61,10
62,10 63,40 64,10 65,120
66,60 67,340 68,250 69,2943
70,9689 71,530 72,10 74,10
75,10 76,10 77,100 78,20
79,100 80,20 81,180 82,200
83,2502 84,170 85,10 89,10
91,10 92,10 93,10 95,10
96,10 97,110 98,1451 99,110
100,10
##END=
