##TITLE=Lactic Acid, 2TMS derivative
##JCAMP-DX=4.24
##DATA TYPE=MASS SPECTRUM
##ORIGIN=O A MAMER, MCGILL UNIVERSITY, MONTREAL, CANADA
##OWNER=NIST Mass Spectrometry Data Center
Collection (C) 2014 copyright by the U.S. Secretary of Commerce
on behalf of the United States of America. All rights reserved.
##CAS REGISTRY NO=17596-96-2
##$NIST MASS SPEC NO=78865
##MOLFORM=C9 H22 O3 Si2
##MW=234
##$NIST SOURCE=MSDC
##XUNITS=M/Z
##YUNITS=RELATIVE INTENSITY
##XFACTOR=1
##YFACTOR=1
##FIRSTX=15
##LASTX=221
##FIRSTY=138
##MAXX=221
##MINX=15
##MAXY=9999
##MINY=64
##NPOINTS=44
##PEAK TABLE=(XY..XY)
15,138 27,154 28,298 29,202
31,106 43,812 44,417 45,1827
46,143 47,388 52,214 55,315
57,160 58,348 59,752 60,115
61,234 66,1223 67,134 72,349
73,9999 74,929 75,1426 76,110
87,152 88,653 101,221 102,193
103,117 117,6961 118,793 119,342
131,339 133,599 147,6911 148,1128
149,621 190,994 191,1266 192,297
193,120 219,547 220,120 221,64
##END=
