##TITLE=Precocene I
##JCAMP-DX=4.24
##DATA TYPE=MASS SPECTRUM
##ORIGIN=Japan AIST/NIMC Database- Spectrum MS-NW-5599
##OWNER=NIST Mass Spectrometry Data Center
Collection (C) 2014 copyright by the U.S. Secretary of Commerce
on behalf of the United States of America. All rights reserved.
##CAS REGISTRY NO=17598-02-6
##$NIST MASS SPEC NO=235551
##MOLFORM=C12 H14 O2
##MW=190
##$NIST SOURCE=MSDC
##XUNITS=M/Z
##YUNITS=RELATIVE INTENSITY
##XFACTOR=1
##YFACTOR=1
##FIRSTX=15
##LASTX=192
##FIRSTY=109
##MAXX=192
##MINX=15
##MAXY=9999
##MINY=10
##NPOINTS=110
##PEAK TABLE=(XY..XY)
15,109 26,10 27,99 28,50
29,30 37,10 38,40 39,239
40,20 41,119 42,10 43,249
44,10 45,10 50,90 51,239
52,60 53,80 54,10 55,60
57,20 58,20 59,10 61,10
62,80 63,189 64,60 65,129
66,20 67,10 69,139 72,10
74,40 75,50 76,50 77,279
78,129 79,70 80,10 81,20
86,10 87,139 88,40 89,109
90,30 91,199 92,30 93,10
94,20 95,70 99,10 101,20
102,50 103,189 104,80 105,60
106,20 107,20 108,10 114,10
115,199 116,60 117,60 118,30
119,40 120,20 121,30 122,10
127,30 128,60 129,50 130,10
131,129 132,769 133,109 134,10
135,10 137,30 141,10 142,10
143,20 144,80 145,60 146,50
147,50 148,10 149,10 150,20
151,40 152,20 157,10 158,40
159,90 160,689 161,119 162,10
163,30 172,10 173,50 174,109
175,9999 176,1199 177,119 178,40
187,10 188,20 189,129 190,1919
191,259 192,30
##END=
