##TITLE=Cyclopentene, 4-methyl-
##JCAMP-DX=4.24
##DATA TYPE=MASS SPECTRUM
##ORIGIN=R.F.KENDALL BUR. MINES, U.S. DEPT. INT., BARTLESVILLE, OKLA
##OWNER=NIST Mass Spectrometry Data Center
Collection (C) 2014 copyright by the U.S. Secretary of Commerce
on behalf of the United States of America. All rights reserved.
##CAS REGISTRY NO=1759-81-5
##$NIST MASS SPEC NO=19270
##MOLFORM=C6 H10
##MW=82
##$NIST SOURCE=MSDC
##XUNITS=M/Z
##YUNITS=RELATIVE INTENSITY
##XFACTOR=1
##YFACTOR=1
##FIRSTX=14
##LASTX=84
##FIRSTY=83
##MAXX=84
##MINX=14
##MAXY=9999
##MINY=4
##NPOINTS=53
##PEAK TABLE=(XY..XY)
14,83 15,187 16,8 24,5
25,31 26,333 27,1448 28,298
29,218 30,7 31,15 36,11
37,177 38,398 39,2477 40,386
41,1865 42,218 43,38 44,8
48,7 49,66 50,384 51,511
52,225 53,765 54,888 55,265
56,75 57,10 60,8 61,47
62,77 63,174 64,49 65,574
66,321 67,9999 68,501 69,16
70,4 73,17 74,54 75,23
76,13 77,295 78,89 79,462
80,68 81,1274 82,2661 83,159
84,6
##END=
