##TITLE=Spiro[4.5]decane
##JCAMP-DX=4.24
##DATA TYPE=MASS SPECTRUM
##ORIGIN=TEXAS A&M UNIVERSITY, COLLEGE STATION, TEXAS, USA
##OWNER=NIST Mass Spectrometry Data Center
Collection (C) 2014 copyright by the U.S. Secretary of Commerce
on behalf of the United States of America. All rights reserved.
##CAS REGISTRY NO=176-63-6
##$NIST MASS SPEC NO=39290
##MOLFORM=C10 H18
##MW=138
##$NIST SOURCE=MSDC
##XUNITS=M/Z
##YUNITS=RELATIVE INTENSITY
##XFACTOR=1
##YFACTOR=1
##FIRSTX=26
##LASTX=139
##FIRSTY=95
##MAXX=139
##MINX=26
##MAXY=9999
##MINY=95
##NPOINTS=49
##PEAK TABLE=(XY..XY)
26,95 27,1190 28,333 29,857
38,143 39,2333 40,476 41,4762
42,571 43,381 50,190 51,476
52,333 53,1524 54,1810 55,3333
56,333 57,143 63,190 65,476
66,762 67,9048 68,3333 69,1381
70,238 71,95 77,714 78,238
79,1095 80,714 81,8095 82,7619
83,1238 84,95 91,333 93,381
94,429 95,6190 96,9999 97,1143
98,95 107,95 108,143 109,4286
110,1048 111,95 123,190 138,6667
139,810
##END=
