##TITLE=4-Methylpentyl isothiocyanate
##JCAMP-DX=4.24
##DATA TYPE=MASS SPECTRUM
##ORIGIN=J. MADSEN,DEP. ORG. CHEM.,TECH. UNIV. DENMARK,LYNGBY,DENMARK
##OWNER=NIST Mass Spectrometry Data Center
Collection (C) 2014 copyright by the U.S. Secretary of Commerce
on behalf of the United States of America. All rights reserved.
##CAS REGISTRY NO=17608-07-0
##$NIST MASS SPEC NO=99485
##MOLFORM=C7 H13 N S
##MW=143
##$NIST SOURCE=MSDC
##XUNITS=M/Z
##YUNITS=RELATIVE INTENSITY
##XFACTOR=1
##YFACTOR=1
##FIRSTX=37
##LASTX=145
##FIRSTY=20
##MAXX=145
##MINX=37
##MAXY=9999
##MINY=10
##NPOINTS=69
##PEAK TABLE=(XY..XY)
37,20 38,90 39,1620 40,700
41,5880 42,1220 43,9999 44,610
45,420 46,80 47,20 50,40
51,80 52,40 53,230 54,100
55,1150 56,2900 57,910 58,150
59,300 60,370 61,20 62,70
63,10 64,50 65,30 67,200
68,150 69,1790 70,190 71,170
72,2100 73,570 74,630 75,530
76,50 77,20 81,50 82,510
83,160 84,100 85,170 86,210
87,130 88,70 89,30 94,60
95,30 96,30 98,20 99,40
100,380 101,430 102,50 103,20
110,1010 111,90 114,150 115,390
116,30 117,20 128,1750 129,130
130,80 142,200 143,1680 144,160
145,80
##END=
