##TITLE=5(4H)-Oxazolone, 2-phenyl-4-(phenylmethylene)-, (Z)-
##JCAMP-DX=4.24
##DATA TYPE=MASS SPECTRUM
##ORIGIN=A.A.Kutin, Moscow, Russia
##OWNER=NIST Mass Spectrometry Data Center
Collection (C) 2014 copyright by the U.S. Secretary of Commerce
on behalf of the United States of America. All rights reserved.
##CAS REGISTRY NO=17606-70-1
##$NIST MASS SPEC NO=266049
##MOLFORM=C16 H11 N O2
##MW=249
##$NIST SOURCE=MSDC
##XUNITS=M/Z
##YUNITS=RELATIVE INTENSITY
##XFACTOR=1
##YFACTOR=1
##FIRSTX=33
##LASTX=252
##FIRSTY=41
##MAXX=252
##MINX=33
##MAXY=9999
##MINY=1
##NPOINTS=74
##PEAK TABLE=(XY..XY)
33,41 37,20 38,59 39,182
40,72 41,8 43,13 44,12
45,1 50,310 51,906 52,80
53,11 61,15 62,64 63,157
64,43 65,35 66,7 72,1
74,77 75,101 77,3976 78,192
79,8 86,6 87,16 88,34
89,218 90,46 91,21 98,1
99,1 100,3 102,104 105,9999
106,683 107,43 108,3 111,5
113,2 114,15 116,126 117,16
118,1 121,1 122,4 125,112
137,1 139,18 140,2 141,4
151,2 159,1 163,1 164,2
165,12 176,3 179,1 190,4
191,4 192,3 193,1 203,5
204,5 205,2 220,4 221,3
222,1 247,24 249,2436 250,404
251,45 252,2
##END=
