##TITLE=Cyclohexanamine, 4,4'-methylenebis-
##JCAMP-DX=4.24
##DATA TYPE=MASS SPECTRUM
##ORIGIN=Japan AIST/NIMC Database- Spectrum MS-NW-5587
##OWNER=NIST Mass Spectrometry Data Center
Collection (C) 2014 copyright by the U.S. Secretary of Commerce
on behalf of the United States of America. All rights reserved.
##CAS REGISTRY NO=1761-71-3
##$NIST MASS SPEC NO=232740
##MOLFORM=C13 H26 N2
##MW=210
##$NIST SOURCE=MSDC
##XUNITS=M/Z
##YUNITS=RELATIVE INTENSITY
##XFACTOR=1
##YFACTOR=1
##FIRSTX=15
##LASTX=212
##FIRSTY=90
##MAXX=212
##MINX=15
##MAXY=9999
##MINY=10
##NPOINTS=121
##PEAK TABLE=(XY..XY)
15,90 16,40 17,10 26,10
27,339 28,769 29,479 30,1519
31,20 39,389 40,60 41,1129
42,699 43,2769 44,499 45,109
51,50 52,50 53,359 54,239
55,829 56,9999 57,719 58,99
65,129 66,70 67,849 68,229
69,669 70,409 71,99 72,30
73,10 77,229 78,99 79,479
80,359 81,1019 82,819 83,159
84,199 85,30 91,189 92,80
93,289 94,339 95,629 96,989
97,479 98,329 99,929 100,90
104,10 105,90 106,109 107,159
108,219 109,179 110,609 111,229
112,429 113,60 114,10 115,10
119,70 120,80 121,99 122,129
123,99 124,109 125,60 126,60
127,10 133,99 134,70 135,109
136,80 137,199 138,419 139,99
140,159 141,10 142,30 146,10
147,189 148,70 149,20 150,119
151,60 152,279 153,80 154,109
155,249 156,20 161,40 162,10
163,10 164,749 165,149 166,60
167,30 168,279 169,40 175,10
176,729 177,119 178,80 179,10
180,50 181,239 182,60 183,20
191,20 192,739 193,2099 194,359
195,60 209,99 210,1239 211,209
212,20
##END=
