##TITLE=Undecane, 5,6-dimethyl-
##JCAMP-DX=4.24
##DATA TYPE=MASS SPECTRUM
##ORIGIN=D.HENNEBERG, MAX-PLANCK INSTITUTE, MULHEIM, WEST GERMANY
##OWNER=NIST Mass Spectrometry Data Center
Collection (C) 2014 copyright by the U.S. Secretary of Commerce
on behalf of the United States of America. All rights reserved.
##CAS REGISTRY NO=17615-91-7
##$NIST MASS SPEC NO=60725
##MOLFORM=C13 H28
##MW=184
##$NIST SOURCE=MSDC
##XUNITS=M/Z
##YUNITS=RELATIVE INTENSITY
##XFACTOR=1
##YFACTOR=1
##FIRSTX=21
##LASTX=184
##FIRSTY=6
##MAXX=184
##MINX=21
##MAXY=9999
##MINY=2
##NPOINTS=47
##PEAK TABLE=(XY..XY)
21,6 22,5 24,2 25,2
26,42 27,787 28,128 29,1711
30,7 35,15 37,56 39,319
40,30 41,2352 42,866 43,7856
44,78 48,3 50,21 53,131
54,127 55,1279 56,2849 57,9999
58,382 67,35 68,97 69,1198
70,1112 71,1892 72,65 83,137
84,2256 85,1730 86,92 97,36
98,1886 99,360 100,3 112,59
113,196 114,9 126,21 127,179
141,4 155,12 184,32
##END=
