##TITLE=1,5-Cyclooctadiene, (E,E)-
##JCAMP-DX=4.24
##DATA TYPE=MASS SPECTRUM
##OWNER=NIST Mass Spectrometry Data Center
Collection (C) 2014 copyright by the U.S. Secretary of Commerce
on behalf of the United States of America. All rights reserved.
##CAS REGISTRY NO=17612-50-9
##$NIST MASS SPEC NO=1408
##MOLFORM=C8 H12
##MW=108
##$NIST SOURCE=MSDC
##XUNITS=M/Z
##YUNITS=RELATIVE INTENSITY
##XFACTOR=1
##YFACTOR=1
##FIRSTX=39
##LASTX=109
##FIRSTY=3904
##MAXX=109
##MINX=39
##MAXY=9999
##MINY=100
##NPOINTS=29
##PEAK TABLE=(XY..XY)
39,3904 40,500 41,200 42,500
43,601 50,701 51,1201 52,601
53,1702 54,9999 55,901 56,100
57,300 65,801 66,2502 67,6306
68,400 69,300 77,1601 78,901
79,4604 80,3803 81,300 91,1001
92,200 93,1802 94,200 108,1201
109,200
##END=
