##TITLE=4-Methyl-2-nitrophenyl isothiocyanate
##JCAMP-DX=4.24
##DATA TYPE=MASS SPECTRUM
##ORIGIN=NIST Mass Spectrometry Data Center, 1994
##OWNER=NIST Mass Spectrometry Data Center
Collection (C) 2014 copyright by the U.S. Secretary of Commerce
on behalf of the United States of America. All rights reserved.
##CAS REGISTRY NO=17614-74-3
##$NIST MASS SPEC NO=134903
##MOLFORM=C8 H6 N2 O2 S
##MW=194
##$NIST SOURCE=MSDC
##XUNITS=M/Z
##YUNITS=RELATIVE INTENSITY
##XFACTOR=1
##YFACTOR=1
##FIRSTX=14
##LASTX=197
##FIRSTY=121
##MAXX=197
##MINX=14
##MAXY=9999
##MINY=14
##NPOINTS=113
##PEAK TABLE=(XY..XY)
14,121 15,32 16,108 26,381
27,914 28,608 29,14 30,1424
31,127 32,374 37,501 38,958
39,3064 40,390 41,447 43,191
44,1234 45,2118 46,532 47,48
48,343 49,267 50,1828 51,3653
52,1435 53,579 54,280 57,146
58,370 59,87 60,341 61,691
62,1728 63,4660 64,1945 65,1557
66,224 67,195 68,87 69,978
70,838 71,392 72,414 73,201
74,642 75,979 76,1945 77,9999
78,3558 79,576 80,67 81,139
82,351 83,376 84,429 85,292
86,471 87,632 88,539 89,2724
90,1554 91,5934 92,1332 93,177
94,308 95,568 96,798 97,346
98,181 99,125 102,1049 103,1333
104,3780 105,1188 106,243 107,200
108,519 109,601 110,236 111,329
115,107 116,446 117,699 118,5617
119,565 120,1223 121,2334 122,834
123,896 124,225 132,32 133,563
134,180 135,175 136,636 137,491
138,358 139,200 146,1030 147,141
148,865 149,1242 150,1326 151,317
152,725 162,175 164,1928 165,192
166,1126 194,9897 195,1027 196,487
197,42
##END=
