##TITLE=Benzamide, N-(4-aminophenyl)-
##JCAMP-DX=4.24
##DATA TYPE=MASS SPECTRUM
##ORIGIN=A.A.Kutin, Moscow, Russia
##OWNER=NIST Mass Spectrometry Data Center
Collection (C) 2014 copyright by the U.S. Secretary of Commerce
on behalf of the United States of America. All rights reserved.
##CAS REGISTRY NO=17625-83-1
##$NIST MASS SPEC NO=257935
##MOLFORM=C13 H12 N2 O
##MW=212
##$NIST SOURCE=MSDC
##XUNITS=M/Z
##YUNITS=RELATIVE INTENSITY
##XFACTOR=1
##YFACTOR=1
##FIRSTX=34
##LASTX=214
##FIRSTY=35
##MAXX=214
##MINX=34
##MAXY=9999
##MINY=4
##NPOINTS=92
##PEAK TABLE=(XY..XY)
34,35 39,151 40,10 41,89
42,39 43,131 44,8 45,7
50,170 51,654 52,297 53,472
54,139 55,96 56,29 57,89
59,106 60,13 62,4 63,76
64,14 65,84 66,37 67,35
68,7 69,47 70,30 71,31
72,19 73,51 74,33 75,37
76,119 77,3672 78,303 79,232
80,1083 81,87 83,31 84,23
85,4 87,6 90,56 91,32
92,37 93,11 95,5 96,11
97,15 98,19 100,8 101,9
103,6 105,9999 106,913 107,3318
108,359 109,947 110,77 111,14
112,11 113,8 120,126 121,16
123,6 127,11 128,26 129,9
134,26 139,45 141,17 143,6
156,5 166,31 167,18 168,10
171,19 173,8 178,9 181,17
182,33 183,31 184,4 194,14
195,38 196,11 203,74 204,16
210,37 212,8734 213,1283 214,116
##END=
