##TITLE=4-Ethyl-1,3-thiazole
##JCAMP-DX=4.24
##DATA TYPE=MASS SPECTRUM
##ORIGIN=ASES Database, Dalian Institute, P.R. China
##OWNER=NIST Mass Spectrometry Data Center
Collection (C) 2014 copyright by the U.S. Secretary of Commerce
on behalf of the United States of America. All rights reserved.
##CAS REGISTRY NO=17626-72-1
##$NIST MASS SPEC NO=144197
##MOLFORM=C5 H7 N S
##MW=113
##$NIST SOURCE=MSDC
##XUNITS=M/Z
##YUNITS=RELATIVE INTENSITY
##XFACTOR=1
##YFACTOR=1
##FIRSTX=39
##LASTX=115
##FIRSTY=4203
##MAXX=115
##MINX=39
##MAXY=9999
##MINY=100
##NPOINTS=20
##PEAK TABLE=(XY..XY)
39,4203 45,5214 58,4223 59,3082
60,190 61,100 71,9999 72,400
73,2011 74,200 86,2412 87,200
88,200 98,6936 99,390 100,390
112,6946 113,7516 114,800 115,390
##END=
