##TITLE=1,3-Benzodioxole, 5-(1-propenyl)-, (Z)-
##JCAMP-DX=4.24
##DATA TYPE=MASS SPECTRUM
##ORIGIN=Mark Whitten, Florida Museum of Natural History, U. of Florida
##OWNER=NIST Mass Spectrometry Data Center
Collection (C) 2014 copyright by the U.S. Secretary of Commerce
on behalf of the United States of America. All rights reserved.
##CAS REGISTRY NO=17627-76-8
##$NIST MASS SPEC NO=141172
##MOLFORM=C10 H10 O2
##MW=162
##$NIST SOURCE=MSDC
##XUNITS=M/Z
##YUNITS=RELATIVE INTENSITY
##XFACTOR=1
##YFACTOR=1
##FIRSTX=41
##LASTX=164
##FIRSTY=418
##MAXX=164
##MINX=41
##MAXY=9999
##MINY=43
##NPOINTS=70
##PEAK TABLE=(XY..XY)
41,418 42,126 43,283 44,63
45,72 49,230 50,2439 51,3741
52,1263 53,1270 54,154 55,353
57,52 59,95 60,43 61,379
62,1229 63,2446 64,445 65,1062
66,325 67,128 68,77 71,89
73,193 74,925 75,935 76,1180
77,4723 78,3752 79,1050 80,212
81,214 85,87 86,137 87,221
88,174 89,622 90,149 91,1511
92,355 93,86 98,87 101,207
102,1226 103,5708 104,7464 105,1461
106,198 107,87 115,351 116,117
117,93 118,54 119,394 120,79
121,181 122,100 131,5207 132,1611
133,385 134,258 135,1720 136,140
145,105 147,109 161,2980 162,9999
163,1183 164,96
##END=
