##TITLE=2-Cyclohexen-1-one, 4-ethyl-3,4-dimethyl-
##JCAMP-DX=4.24
##DATA TYPE=MASS SPECTRUM
##ORIGIN=CARL DJERASSI DEPT OF CHEM STANFORD UNIV STANFORD CALIF 94305
##OWNER=NIST Mass Spectrometry Data Center
Collection (C) 2014 copyright by the U.S. Secretary of Commerce
on behalf of the United States of America. All rights reserved.
##CAS REGISTRY NO=17622-46-7
##$NIST MASS SPEC NO=46746
##MOLFORM=C10 H16 O
##MW=152
##$NIST SOURCE=MSDC
##XUNITS=M/Z
##YUNITS=RELATIVE INTENSITY
##XFACTOR=1
##YFACTOR=1
##FIRSTX=41
##LASTX=153
##FIRSTY=3900
##MAXX=153
##MINX=41
##MAXY=9999
##MINY=100
##NPOINTS=37
##PEAK TABLE=(XY..XY)
41,3900 42,200 43,700 50,200
51,900 52,400 53,2000 54,200
55,2700 63,200 65,700 66,300
67,3200 68,200 69,300 77,1200
78,200 79,1600 80,300 81,2000
82,600 91,600 93,600 94,200
95,9999 96,1000 107,200 109,4800
110,5500 111,400 122,200 123,3000
124,2300 125,100 137,300 152,1900
153,100
##END=
