##TITLE=2,3,5,6-Pyridinetetracarbonitrile
##JCAMP-DX=4.24
##DATA TYPE=MASS SPECTRUM
##OWNER=NIST Mass Spectrometry Data Center
Collection (C) 2014 copyright by the U.S. Secretary of Commerce
on behalf of the United States of America. All rights reserved.
##CAS REGISTRY NO=17638-20-9
##$NIST MASS SPEC NO=31934
##MOLFORM=C9 H N5
##MW=179
##$NIST SOURCE=MSDC
##XUNITS=M/Z
##YUNITS=RELATIVE INTENSITY
##XFACTOR=1
##YFACTOR=1
##FIRSTX=49
##LASTX=180
##FIRSTY=370
##MAXX=180
##MINX=49
##MAXY=9999
##MINY=82
##NPOINTS=23
##PEAK TABLE=(XY..XY)
49,370 50,165 51,823 52,7530
53,658 54,247 63,2057 64,946
65,494 75,1687 76,1769 77,6501
78,823 100,4115 101,946 102,82
126,782 127,3991 128,123 152,823
153,535 179,9999 180,2592
##END=
