##TITLE=Propanoic acid, 2,2-dichloro-, methyl ester
##JCAMP-DX=4.24
##DATA TYPE=MASS SPECTRUM
##OWNER=NIST Mass Spectrometry Data Center
Collection (C) 2014 copyright by the U.S. Secretary of Commerce
on behalf of the United States of America. All rights reserved.
##CAS REGISTRY NO=17640-02-7
##$NIST MASS SPEC NO=5394
##MOLFORM=C4 H6 Cl2 O2
##MW=156
##$NIST SOURCE=MSDC
##XUNITS=M/Z
##YUNITS=RELATIVE INTENSITY
##XFACTOR=1
##YFACTOR=1
##FIRSTX=13
##LASTX=158
##FIRSTY=10
##MAXX=158
##MINX=13
##MAXY=9999
##MINY=10
##NPOINTS=79
##PEAK TABLE=(XY..XY)
13,10 14,40 15,1591 16,20
18,20 25,90 26,550 27,1241
28,130 29,280 30,60 31,150
35,50 36,50 37,30 38,20
39,50 41,70 42,20 43,741
44,40 45,80 46,10 47,80
48,40 49,80 50,20 51,60
53,150 54,40 55,40 57,10
59,7567 60,310 61,3223 62,1892
63,1201 64,601 65,60 71,20
76,20 77,230 78,20 79,80
82,50 83,170 84,30 85,120
87,20 89,340 90,210 91,150
92,80 93,400 94,20 95,140
96,310 97,9999 98,430 99,6526
100,180 101,1051 102,30 109,20
110,20 111,20 113,60 115,40
121,831 122,40 123,270 124,10
125,60 127,40 137,20 141,20
156,20 157,10 158,20
##END=
