##TITLE=2-Methyl-1,3-oxathiolane
##JCAMP-DX=4.24
##DATA TYPE=MASS SPECTRUM
##OWNER=NIST Mass Spectrometry Data Center
Collection (C) 2014 copyright by the U.S. Secretary of Commerce
on behalf of the United States of America. All rights reserved.
##CAS REGISTRY NO=17642-74-9
##$NIST MASS SPEC NO=1318
##MOLFORM=C4 H8 O S
##MW=104
##$NIST SOURCE=MSDC
##XUNITS=M/Z
##YUNITS=RELATIVE INTENSITY
##XFACTOR=1
##YFACTOR=1
##FIRSTX=12
##LASTX=107
##FIRSTY=170
##MAXX=107
##MINX=12
##MAXY=9999
##MINY=10
##NPOINTS=76
##PEAK TABLE=(XY..XY)
12,170 13,220 14,861 15,2372
16,280 17,70 24,120 25,530
26,3323 27,5025 28,7897 29,3974
30,120 31,230 32,540 33,350
34,791 35,941 36,100 37,60
38,140 39,150 40,70 41,991
42,631 43,3523 44,2122 45,5935
46,831 47,641 48,100 49,40
50,20 51,10 52,10 53,10
54,10 55,20 56,40 57,300
58,1191 59,5075 60,9999 61,3833
62,550 63,160 64,30 65,10
66,10 67,10 68,10 69,20
70,10 71,330 72,20 73,100
74,350 75,20 76,1682 77,60
78,150 79,10 84,10 85,40
86,60 87,30 88,10 89,1481
90,70 91,80 102,10 103,120
104,4454 105,260 106,220 107,10
##END=
