##TITLE=Methyl trichloropropenoate
##JCAMP-DX=4.24
##DATA TYPE=MASS SPECTRUM
##ORIGIN=ASES Database, Dalian Institute, P.R. China
##OWNER=NIST Mass Spectrometry Data Center
Collection (C) 2014 copyright by the U.S. Secretary of Commerce
on behalf of the United States of America. All rights reserved.
##CAS REGISTRY NO=17640-12-9
##$NIST MASS SPEC NO=146756
##MOLFORM=C4 H3 Cl3 O2
##MW=188
##$NIST SOURCE=MSDC
##XUNITS=M/Z
##YUNITS=RELATIVE INTENSITY
##XFACTOR=1
##YFACTOR=1
##FIRSTX=47
##LASTX=192
##FIRSTY=1131
##MAXX=192
##MINX=47
##MAXY=9999
##MINY=140
##NPOINTS=29
##PEAK TABLE=(XY..XY)
47,1131 49,380 59,6185 60,310
61,630 87,2942 89,1141 94,3453
96,2362 98,300 103,680 117,150
129,3202 130,140 131,3062 132,150
133,1211 153,6115 154,150 155,4233
156,140 157,9999 158,530 159,8958
160,150 161,2972 188,2001 190,1981
192,760
##END=
