##TITLE=Benzene, (bromomethyl)pentafluoro-
##JCAMP-DX=4.24
##DATA TYPE=MASS SPECTRUM
##ORIGIN=Japan AIST/NIMC Database- Spectrum MS-NW-4644
##OWNER=NIST Mass Spectrometry Data Center
Collection (C) 2014 copyright by the U.S. Secretary of Commerce
on behalf of the United States of America. All rights reserved.
##CAS REGISTRY NO=1765-40-8
##$NIST MASS SPEC NO=231023
##MOLFORM=C7 H2 Br F5
##MW=260
##$NIST SOURCE=MSDC
##XUNITS=M/Z
##YUNITS=RELATIVE INTENSITY
##XFACTOR=1
##YFACTOR=1
##FIRSTX=20
##LASTX=263
##FIRSTY=10
##MAXX=263
##MINX=20
##MAXY=9999
##MINY=10
##NPOINTS=97
##PEAK TABLE=(XY..XY)
20,10 28,60 31,669 32,10
33,10 36,20 37,50 38,30
43,60 44,10 48,10 49,20
50,40 51,139 55,50 56,60
57,90 60,10 61,129 62,99
67,10 68,90 69,359 73,10
74,109 75,239 76,10 79,109
80,159 81,429 82,30 83,20
85,20 86,70 87,30 88,20
90,139 91,20 92,99 93,359
94,20 98,70 99,249 100,40
103,20 104,20 105,70 106,20
107,10 110,30 111,139 112,299
113,70 117,149 118,20 119,30
120,10 121,20 122,20 123,60
124,40 129,20 130,209 131,449
132,30 136,10 137,109 141,60
142,10 143,199 144,20 148,10
149,10 150,289 151,20 155,409
156,30 160,10 161,989 162,349
163,80 166,10 178,10 179,60
180,129 181,9999 182,799 183,30
197,10 240,10 241,10 243,20
259,20 260,229 261,40 262,199
263,10
##END=
