##TITLE=4,5-Isoxazoledicarboxylic acid, 4,5-dihydro-3-phenyl-, dimethyl ester, cis-
##JCAMP-DX=4.24
##DATA TYPE=MASS SPECTRUM
##OWNER=NIST Mass Spectrometry Data Center
Collection (C) 2014 copyright by the U.S. Secretary of Commerce
on behalf of the United States of America. All rights reserved.
##CAS REGISTRY NO=17669-30-6
##$NIST MASS SPEC NO=12783
##MOLFORM=C13 H13 N O5
##MW=263
##$NIST SOURCE=MSDC
##XUNITS=M/Z
##YUNITS=RELATIVE INTENSITY
##XFACTOR=1
##YFACTOR=1
##FIRSTX=29
##LASTX=264
##FIRSTY=500
##MAXX=264
##MINX=29
##MAXY=9999
##MINY=500
##NPOINTS=30
##PEAK TABLE=(XY..XY)
29,500 31,1100 39,600 51,2200
59,3100 76,900 77,5099 89,900
91,1800 103,1500 104,600 105,800
113,1600 115,600 116,1200 117,1200
118,900 119,1100 134,1800 144,8499
146,600 160,1400 172,2300 176,9999
177,1400 178,2100 204,2700 231,500
263,6199 264,1100
##END=
