##TITLE=Myristyl stearate
##JCAMP-DX=4.24
##DATA TYPE=MASS SPECTRUM
##ORIGIN=R.T.HOLMAN,UNIVERSITY OF MINNESOTA
##OWNER=NIST Mass Spectrometry Data Center
Collection (C) 2014 copyright by the U.S. Secretary of Commerce
on behalf of the United States of America. All rights reserved.
##CAS REGISTRY NO=17661-50-6
##$NIST MASS SPEC NO=36369
##MOLFORM=C32 H64 O2
##MW=480
##$NIST SOURCE=MSDC
##XUNITS=M/Z
##YUNITS=RELATIVE INTENSITY
##XFACTOR=1
##YFACTOR=1
##FIRSTX=26
##LASTX=483
##FIRSTY=50
##MAXX=483
##MINX=26
##MAXY=9999
##MINY=10
##NPOINTS=259
##PEAK TABLE=(XY..XY)
26,50 27,350 28,1030 29,1370
30,40 31,30 32,290 39,230
40,70 41,3050 42,900 43,8240
44,320 45,90 51,20 52,10
53,140 54,580 55,5410 56,2590
57,9690 58,550 59,100 60,1220
61,2290 62,70 63,30 65,30
66,90 67,870 68,1370 69,4800
70,2510 71,5640 72,320 73,1980
74,190 75,30 76,20 77,40
78,30 79,120 80,90 81,770
82,2290 83,4960 84,2360 85,3580
86,240 87,450 88,60 89,60
90,10 91,50 92,20 93,90
94,10 95,610 96,1250 97,4420
98,2060 99,850 100,100 101,370
102,100 103,90 104,20 105,30
106,20 107,80 108,40 109,330
110,570 111,2590 112,1290 113,520
114,90 115,490 116,470 117,70
118,20 119,30 120,30 121,130
122,50 123,190 124,320 125,1520
126,740 127,350 128,60 129,1220
130,160 131,40 133,20 135,110
136,40 137,90 138,220 139,670
140,480 141,290 142,60 143,220
144,60 145,30 147,30 148,30
149,110 150,50 151,70 152,130
153,410 154,350 155,170 156,40
157,120 158,60 159,30 161,30
163,60 164,30 165,50 166,100
167,260 168,1290 169,230 170,50
171,220 172,70 173,30 177,30
178,20 179,30 180,50 181,100
182,40 183,40 184,30 185,480
186,90 187,30 188,10 189,20
191,40 192,30 193,30 194,70
195,90 196,5030 197,1020 198,100
199,180 200,50 201,30 202,20
205,30 207,20 208,20 209,30
210,30 211,30 212,10 213,100
214,30 215,30 217,30 218,30
219,60 220,40 221,30 222,90
223,40 224,60 225,40 226,30
227,150 228,40 229,30 230,10
235,10 236,20 237,20 238,20
239,40 240,20 241,1220 242,220
243,50 244,10 246,20 247,60
248,50 249,30 250,20 251,20
252,20 253,30 254,10 255,100
256,160 257,540 258,100 259,20
264,140 265,140 266,80 267,1220
268,230 269,180 270,50 271,80
272,20 281,20 282,40 283,160
284,2510 285,9999 286,2060 287,240
288,30 295,20 297,30 298,30
299,50 300,10 311,30 312,30
313,30 314,10 322,30 323,20
324,10 325,90 326,30 339,20
340,120 341,30 352,20 353,20
354,30 355,20 380,10 381,30
382,10 408,10 409,10 410,10
437,30 438,20 451,10 452,30
453,10 462,10 479,40 480,2364
481,830 482,160 483,30
##END=
