##TITLE=2-Methyl-1-hepten-3-yne
##JCAMP-DX=4.24
##DATA TYPE=MASS SPECTRUM
##ORIGIN=ASES Database, Dalian Institute, P.R. China
##OWNER=NIST Mass Spectrometry Data Center
Collection (C) 2014 copyright by the U.S. Secretary of Commerce
on behalf of the United States of America. All rights reserved.
##CAS REGISTRY NO=17669-40-8
##$NIST MASS SPEC NO=144392
##MOLFORM=C8 H12
##MW=108
##$NIST SOURCE=MSDC
##XUNITS=M/Z
##YUNITS=RELATIVE INTENSITY
##XFACTOR=1
##YFACTOR=1
##FIRSTX=26
##LASTX=109
##FIRSTY=190
##MAXX=109
##MINX=26
##MAXY=9999
##MINY=190
##NPOINTS=38
##PEAK TABLE=(XY..XY)
26,190 27,1701 28,200 29,700
36,290 37,190 38,380 39,1701
40,700 41,1401 42,200 43,600
50,800 51,1811 52,880 53,1781
54,190 55,390 58,190 62,400
63,990 64,400 65,1701 66,1601
67,800 68,200 77,9999 78,1391
79,4634 80,1411 91,4924 92,600
93,4814 94,390 105,300 107,500
108,7716 109,690
##END=
