##TITLE=1-Hexanol, 4-methyl-, (S)-
##JCAMP-DX=4.24
##DATA TYPE=MASS SPECTRUM
##ORIGIN=Japan AIST/NIMC Database- Spectrum MS-IW- 891
##OWNER=NIST Mass Spectrometry Data Center
Collection (C) 2014 copyright by the U.S. Secretary of Commerce
on behalf of the United States of America. All rights reserved.
##CAS REGISTRY NO=1767-46-0
##$NIST MASS SPEC NO=237034
##MOLFORM=C7 H16 O
##MW=116
##$NIST SOURCE=MSDC
##XUNITS=M/Z
##YUNITS=RELATIVE INTENSITY
##XFACTOR=1
##YFACTOR=1
##FIRSTX=15
##LASTX=115
##FIRSTY=40
##MAXX=115
##MINX=15
##MAXY=9999
##MINY=10
##NPOINTS=54
##PEAK TABLE=(XY..XY)
15,40 17,10 18,20 26,30
27,609 28,219 29,1969 30,60
31,989 32,10 38,10 39,499
40,99 41,6659 42,2759 43,2019
44,149 45,619 46,10 50,10
51,30 52,10 53,169 54,99
55,3579 56,3869 57,3519 58,199
59,199 60,229 61,10 65,20
66,10 67,279 68,409 69,9789
70,9999 71,709 72,20 73,10
79,10 81,40 82,20 83,859
84,60 85,30 86,10 87,209
88,10 96,10 97,129 98,429
99,50 115,20
##END=
