##TITLE=Furyl hydroxymethyl ketone
##JCAMP-DX=4.24
##DATA TYPE=MASS SPECTRUM
##ORIGIN=NIST Mass Spectrometry Data Center
##OWNER=NIST Mass Spectrometry Data Center
Collection (C) 2014 copyright by the U.S. Secretary of Commerce
on behalf of the United States of America. All rights reserved.
##CAS REGISTRY NO=17678-19-2
##$NIST MASS SPEC NO=413768
##MOLFORM=C6 H6 O3
##MW=126
##$NIST SOURCE=MSDC
##XUNITS=M/Z
##YUNITS=RELATIVE INTENSITY
##XFACTOR=1
##YFACTOR=1
##FIRSTX=29
##LASTX=127
##FIRSTY=190
##MAXX=127
##MINX=29
##MAXY=9999
##MINY=40
##NPOINTS=18
##PEAK TABLE=(XY..XY)
29,190 31,350 37,230 38,430
39,1581 40,100 49,50 50,110
66,80 67,530 68,230 69,60
95,9999 96,921 97,90 110,40
126,2102 127,120
##END=
