##TITLE=Arabinose, 4TMS derivative
##JCAMP-DX=4.24
##DATA TYPE=MASS SPECTRUM
##ORIGIN=G.A.REINECCIUS UNIV. OF MINNESOTA, ST. PAUL, MINN., USA
##OWNER=NIST Mass Spectrometry Data Center
Collection (C) 2014 copyright by the U.S. Secretary of Commerce
on behalf of the United States of America. All rights reserved.
##CAS REGISTRY NO=1768-95-2
##$NIST MASS SPEC NO=58369
##MOLFORM=C17 H42 O5 Si4
##MW=438
##$NIST SOURCE=MSDC
##XUNITS=M/Z
##YUNITS=RELATIVE INTENSITY
##XFACTOR=1
##YFACTOR=1
##FIRSTX=43
##LASTX=333
##FIRSTY=120
##MAXX=333
##MINX=43
##MAXY=9999
##MINY=100
##NPOINTS=46
##PEAK TABLE=(XY..XY)
43,120 44,130 45,710 59,430
69,360 72,180 73,9999 74,850
75,940 101,470 103,530 116,270
117,270 129,620 131,330 133,710
143,270 147,3290 148,490 149,370
169,130 189,590 190,160 191,5570
192,970 193,480 203,120 204,7570
205,1460 206,630 207,150 215,170
217,7960 218,1570 219,790 220,120
221,170 231,250 243,140 259,290
265,100 291,240 305,520 306,170
307,100 333,330
##END=
