##TITLE=2-Propanone, 1,1,1,3,3-pentachloro-
##JCAMP-DX=4.24
##DATA TYPE=MASS SPECTRUM
##ORIGIN=KONINKLIJKE SHELL LABORATORIUM AMSTERDAM
##OWNER=NIST Mass Spectrometry Data Center
Collection (C) 2014 copyright by the U.S. Secretary of Commerce
on behalf of the United States of America. All rights reserved.
##CAS REGISTRY NO=1768-31-6
##$NIST MASS SPEC NO=10960
##MOLFORM=C3 H Cl5 O
##MW=228
##$NIST SOURCE=MSDC
##XUNITS=M/Z
##YUNITS=RELATIVE INTENSITY
##XFACTOR=1
##YFACTOR=1
##FIRSTX=35
##LASTX=234
##FIRSTY=3825
##MAXX=234
##MINX=35
##MAXY=9999
##MINY=1
##NPOINTS=150
##PEAK TABLE=(XY..XY)
35,3825 36,2712 37,1575 38,792
39,21 40,155 41,450 42,267
43,25 44,140 45,8 46,3
47,4126 48,2813 49,2232 50,911
51,295 52,91 53,183 54,23
55,14 56,5 57,5 58,3
59,489 60,1140 61,304 62,375
63,400 64,23 65,167 66,56
67,20 68,6 69,6 70,49
71,159 72,186 73,74 74,59
75,29 76,1777 77,1803 78,600
79,577 80,33 81,14 82,2295
83,9999 84,1588 85,6350 86,300
87,1133 88,21 89,53 90,4
91,9 92,4 93,5 94,276
95,529 96,221 97,338 98,58
99,56 100,9 103,5 104,5
105,6 106,35 107,48 108,25
109,33 110,502 111,2725 112,376
113,1727 114,90 115,305 116,8
117,6752 118,76 119,6462 120,71
121,2055 122,33 123,345 124,11
125,85 126,5 127,27 128,3
129,183 130,420 131,290 132,402
133,170 134,128 135,43 136,13
137,3 141,10 142,5 143,9
144,3 145,51 146,4 147,45
148,3 149,14 150,15 152,8
154,1 155,6 156,1 157,67
158,3 159,138 160,6 161,100
162,5 163,39 164,39 165,808
166,64 167,1021 168,45 169,491
170,102 171,1 172,9 177,14
179,18 181,9 183,3 192,8
193,122 194,43 195,158 196,43
197,76 198,16 199,20 200,3
201,6 203,4 228,33 230,53
232,37 234,9
##END=
