##TITLE=4(3H)-Quinazolinone, 2,3-dimethyl-
##JCAMP-DX=4.24
##DATA TYPE=MASS SPECTRUM
##ORIGIN=A.A.Kutin, Moscow, Russia
##OWNER=NIST Mass Spectrometry Data Center
Collection (C) 2014 copyright by the U.S. Secretary of Commerce
on behalf of the United States of America. All rights reserved.
##CAS REGISTRY NO=1769-25-1
##$NIST MASS SPEC NO=266046
##MOLFORM=C10 H10 N2 O
##MW=174
##$NIST SOURCE=MSDC
##XUNITS=M/Z
##YUNITS=RELATIVE INTENSITY
##XFACTOR=1
##YFACTOR=1
##FIRSTX=37
##LASTX=179
##FIRSTY=87
##MAXX=179
##MINX=37
##MAXY=9999
##MINY=1
##NPOINTS=85
##PEAK TABLE=(XY..XY)
37,87 38,143 39,226 40,154
41,98 42,317 43,13 44,5
50,763 51,316 52,157 53,129
54,314 56,3090 58,201 61,155
62,318 63,749 64,438 65,95
66,45 67,9 68,6 69,13
71,3 73,201 74,689 75,698
76,1124 77,1040 78,158 79,33
80,6 82,5 83,3 84,4
85,13 87,230 88,141 90,1817
92,254 93,15 94,2 95,1
97,1 99,25 100,21 102,241
104,845 105,486 106,40 107,4
111,5 112,1 114,21 116,418
117,1212 118,245 119,103 120,16
121,1 128,40 129,53 131,1209
132,640 133,105 134,5 137,3
141,1 142,11 144,522 145,748
146,2950 147,223 148,18 155,5
157,44 159,6805 160,551 161,42
174,9999 175,864 176,57 177,3
179,1
##END=
