##TITLE=Methanesulfinic acid
##JCAMP-DX=4.24
##DATA TYPE=MASS SPECTRUM
##OWNER=NIST Mass Spectrometry Data Center
Collection (C) 2014 copyright by the U.S. Secretary of Commerce
on behalf of the United States of America. All rights reserved.
##CAS REGISTRY NO=17696-73-0
##$NIST MASS SPEC NO=431
##MOLFORM=C H4 O2 S
##MW=80
##$NIST SOURCE=MSDC
##XUNITS=M/Z
##YUNITS=RELATIVE INTENSITY
##XFACTOR=1
##YFACTOR=1
##FIRSTX=31
##LASTX=82
##FIRSTY=801
##MAXX=82
##MINX=31
##MAXY=9999
##MINY=320
##NPOINTS=21
##PEAK TABLE=(XY..XY)
31,801 32,1021 33,801 34,1471
36,480 44,1121 45,2002 46,941
47,1471 48,2192 49,400 50,320
62,861 63,3253 64,3683 65,9999
66,400 67,540 80,4934 81,320
82,480
##END=
