##TITLE=Acetamide, 2-(hydroxyimino)-N-phenyl-
##JCAMP-DX=4.24
##DATA TYPE=MASS SPECTRUM
##ORIGIN=A.A.Kutin, Moscow, Russia
##OWNER=NIST Mass Spectrometry Data Center
Collection (C) 2014 copyright by the U.S. Secretary of Commerce
on behalf of the United States of America. All rights reserved.
##CAS REGISTRY NO=1769-41-1
##$NIST MASS SPEC NO=261930
##MOLFORM=C8 H8 N2 O2
##MW=164
##$NIST SOURCE=MSDC
##XUNITS=M/Z
##YUNITS=RELATIVE INTENSITY
##XFACTOR=1
##YFACTOR=1
##FIRSTX=33
##LASTX=167
##FIRSTY=124
##MAXX=167
##MINX=33
##MAXY=9999
##MINY=2
##NPOINTS=99
##PEAK TABLE=(XY..XY)
33,124 37,1090 38,3755 39,7735
40,2087 41,1150 44,9879 45,357
46,218 47,6 50,2700 51,4521
52,1703 53,390 54,813 55,335
56,83 57,133 58,33 60,100
61,417 62,1332 63,2813 64,3615
65,7962 66,2154 67,242 69,104
70,115 72,1934 74,840 75,382
77,6710 78,484 79,83 80,53
81,32 82,36 83,29 84,32
85,15 86,43 87,80 88,83
89,68 91,3129 92,5032 93,9999
94,877 95,58 96,18 97,25
99,9 100,6 101,8 102,44
103,51 104,219 105,232 106,172
107,22 108,4 109,29 111,5
112,20 113,5 115,21 116,28
117,90 119,3822 120,1887 121,218
122,27 123,3 127,18 128,35
129,194 130,24 131,40 133,1530
134,544 135,64 136,68 137,3
145,121 147,3662 148,426 149,65
150,14 151,8 152,5 154,4
157,2 160,12 161,21 164,5518
165,450 166,29 167,4
##END=
