##TITLE=1,2,3-Trichloro-4-nitrobenzene
##JCAMP-DX=4.24
##DATA TYPE=MASS SPECTRUM
##ORIGIN=NIST Mass Spectrometry Data Center, 1990.
##OWNER=NIST Mass Spectrometry Data Center
Collection (C) 2014 copyright by the U.S. Secretary of Commerce
on behalf of the United States of America. All rights reserved.
##CAS REGISTRY NO=17700-09-3
##$NIST MASS SPEC NO=118328
##MOLFORM=C6 H2 Cl3 N O2
##MW=225
##$NIST SOURCE=MSDC
##XUNITS=M/Z
##YUNITS=RELATIVE INTENSITY
##XFACTOR=1
##YFACTOR=1
##FIRSTX=16
##LASTX=231
##FIRSTY=87
##MAXX=231
##MINX=16
##MAXY=9999
##MINY=57
##NPOINTS=112
##PEAK TABLE=(XY..XY)
16,87 25,57 26,144 28,255
30,5928 31,63 32,106 35,425
36,558 37,1701 38,609 44,89
46,419 47,449 48,265 49,868
50,489 51,127 54,179 59,100
60,489 61,1152 62,773 63,90
71,443 72,962 73,3531 74,7226
75,684 76,71 83,879 84,2850
85,856 86,1115 87,390 88,201
89,111 90,91 94,173 95,216
96,543 97,1250 98,326 99,383
106,277 107,1504 108,4785 109,6413
110,1964 111,1835 112,140 117,70
118,707 119,542 120,429 121,354
122,193 123,118 124,172 125,192
127,76 131,200 132,341 133,185
134,195 135,72 141,152 143,8207
144,3678 145,5570 146,2232 147,989
148,385 155,82 158,189 159,89
160,476 161,107 162,255 164,96
167,8830 169,8951 170,543 171,2881
172,194 173,304 179,7404 180,899
181,6994 182,554 183,2325 184,152
185,238 193,77 195,8571 196,846
197,7816 198,637 199,2707 200,148
201,305 209,369 210,66 211,402
213,139 225,9999 226,973 227,9709
228,724 229,3246 230,215 231,351
##END=
