##TITLE=Acetamide, N-(2,6-dichlorophenyl)-
##JCAMP-DX=4.24
##DATA TYPE=MASS SPECTRUM
##ORIGIN=NIST Mass Spectrometry Data Center
##OWNER=NIST Mass Spectrometry Data Center
Collection (C) 2014 copyright by the U.S. Secretary of Commerce
on behalf of the United States of America. All rights reserved.
##CAS REGISTRY NO=17700-54-8
##$NIST MASS SPEC NO=341091
##MOLFORM=C8 H7 Cl2 N O
##MW=203
##$NIST SOURCE=MSDC
##XUNITS=M/Z
##YUNITS=RELATIVE INTENSITY
##XFACTOR=1
##YFACTOR=1
##FIRSTX=15
##LASTX=205
##FIRSTY=40
##MAXX=205
##MINX=15
##MAXY=9999
##MINY=10
##NPOINTS=103
##PEAK TABLE=(XY..XY)
15,40 27,10 36,10 37,110
38,130 39,120 41,40 42,160
43,2492 44,60 47,40 48,10
49,120 50,120 51,130 52,260
53,10 60,50 61,260 62,550
63,1101 64,270 65,100 66,10
71,10 72,130 73,611 74,280
75,360 76,70 77,70 78,30
83,70 84,70 85,80 86,70
87,80 88,160 89,180 90,961
91,170 92,10 95,10 96,40
97,260 98,220 99,490 100,130
101,150 102,40 103,10 104,40
105,10 106,30 107,120 108,20
109,170 110,40 111,100 112,20
113,20 114,10 123,10 124,410
125,681 126,621 127,300 128,160
129,20 131,10 132,50 133,891
134,160 135,540 136,100 137,90
138,30 139,10 140,20 145,20
147,10 159,20 160,210 161,9999
162,811 163,6336 164,460 165,1031
166,70 167,20 168,3093 169,280
170,991 171,90 172,10 174,30
176,20 187,20 188,30 189,10
190,20 203,40 205,20
##END=
