##TITLE=3-Methoxypropyl isothiocyanate
##JCAMP-DX=4.24
##DATA TYPE=MASS SPECTRUM
##ORIGIN=NIST Mass Spectrometry Data Center, 1994
##OWNER=NIST Mass Spectrometry Data Center
Collection (C) 2014 copyright by the U.S. Secretary of Commerce
on behalf of the United States of America. All rights reserved.
##CAS REGISTRY NO=17702-11-3
##$NIST MASS SPEC NO=134751
##MOLFORM=C5 H9 N O S
##MW=131
##$NIST SOURCE=MSDC
##XUNITS=M/Z
##YUNITS=RELATIVE INTENSITY
##XFACTOR=1
##YFACTOR=1
##FIRSTX=4
##LASTX=133
##FIRSTY=21
##MAXX=133
##MINX=4
##MAXY=9999
##MINY=18
##NPOINTS=65
##PEAK TABLE=(XY..XY)
4,21 13,35 14,149 15,1265
16,29 17,24 18,18 26,381
27,1559 28,1212 29,2644 30,241
31,525 32,289 33,129 34,41
37,82 38,242 39,1555 40,499
41,5094 42,1117 43,724 44,41
45,9999 46,409 47,103 51,45
52,74 53,35 54,165 55,94
56,92 57,649 58,476 59,722
60,540 61,44 62,122 64,19
66,21 67,209 68,182 69,19
70,388 71,1372 72,4659 73,587
74,289 75,46 83,20 84,89
85,97 86,242 87,30 88,19
98,519 99,3553 100,1019 101,4248
102,310 103,212 131,758 132,63
133,39
##END=
