##TITLE=N,N-Dimethyl phenyl(thioacetamide)
##JCAMP-DX=4.24
##DATA TYPE=MASS SPECTRUM
##ORIGIN=NIST Mass Spectrometry Data Center, 1994
##OWNER=NIST Mass Spectrometry Data Center
Collection (C) 2014 copyright by the U.S. Secretary of Commerce
on behalf of the United States of America. All rights reserved.
##CAS REGISTRY NO=17709-95-4
##$NIST MASS SPEC NO=136001
##MOLFORM=C10 H13 N S
##MW=179
##$NIST SOURCE=MSDC
##XUNITS=M/Z
##YUNITS=RELATIVE INTENSITY
##XFACTOR=1
##YFACTOR=1
##FIRSTX=13
##LASTX=182
##FIRSTY=21
##MAXX=182
##MINX=13
##MAXY=9999
##MINY=10
##NPOINTS=120
##PEAK TABLE=(XY..XY)
13,21 15,2170 16,35 17,28
26,98 27,379 28,452 29,10
30,490 32,45 33,36 34,32
35,16 37,71 38,267 39,1325
40,203 41,369 42,2335 43,239
44,1160 45,809 46,277 47,499
48,25 49,54 50,620 51,1222
52,263 53,84 54,158 55,426
56,750 57,106 58,388 59,248
60,40 61,254 62,323 63,937
64,244 65,1598 66,158 67,78
68,89 69,311 70,1875 71,154
72,376 73,1123 74,291 75,231
76,220 77,684 78,252 79,102
80,28 82,267 83,45 84,44
85,32 86,74 87,28 88,9999
89,1509 90,917 91,3120 92,279
93,106 94,33 95,54 96,16
97,27 98,19 100,23 101,36
102,267 103,205 104,96 105,253
106,207 107,36 108,124 109,75
110,21 114,26 116,1016 117,217
118,97 119,44 120,21 121,378
122,110 123,168 124,19 128,23
129,40 130,276 131,1752 132,269
133,19 134,1076 135,488 136,105
137,44 144,517 145,165 146,1628
147,206 148,66 149,35 161,16
162,36 163,36 164,33 176,36
179,4192 180,523 181,187 182,27
##END=
