##TITLE=Benzene, 1-bromo-2,4-dimethoxy-
##JCAMP-DX=4.24
##DATA TYPE=MASS SPECTRUM
##ORIGIN=Japan AIST/NIMC Database- Spectrum MS-NW-7582
##OWNER=NIST Mass Spectrometry Data Center
Collection (C) 2014 copyright by the U.S. Secretary of Commerce
on behalf of the United States of America. All rights reserved.
##CAS REGISTRY NO=17715-69-4
##$NIST MASS SPEC NO=237919
##MOLFORM=C8 H9 Br O2
##MW=216
##$NIST SOURCE=MSDC
##XUNITS=M/Z
##YUNITS=RELATIVE INTENSITY
##XFACTOR=1
##YFACTOR=1
##FIRSTX=14
##LASTX=220
##FIRSTY=40
##MAXX=220
##MINX=14
##MAXY=9999
##MINY=10
##NPOINTS=128
##PEAK TABLE=(XY..XY)
14,40 15,459 25,10 26,60
27,80 28,149 29,159 30,20
31,30 32,10 36,20 37,239
38,389 39,409 40,60 41,60
42,20 43,80 44,30 49,109
50,669 51,1609 52,139 53,429
54,40 55,50 56,10 59,60
60,30 61,359 62,839 63,2379
64,689 65,1119 66,1109 67,70
68,20 69,389 70,10 71,10
73,90 74,329 75,319 76,169
77,1389 78,469 79,2079 80,119
81,30 82,60 83,10 87,10
90,30 91,99 92,789 93,149
94,359 95,40 104,30 105,149
106,50 107,2779 108,1309 109,649
110,50 115,10 116,60 117,109
118,60 119,119 120,10 121,20
122,799 123,70 124,10 128,20
129,50 130,80 131,70 132,60
133,20 135,90 136,70 137,309
138,40 141,30 142,99 143,279
144,119 145,249 146,20 147,10
154,20 155,109 156,60 157,169
158,419 159,99 160,369 161,30
170,309 171,349 172,359 173,3419
174,249 175,3069 176,209 177,10
183,10 185,139 186,499 187,199
188,489 189,80 199,10 200,20
201,719 202,90 203,709 204,70
213,10 214,10 215,40 216,9999
217,939 218,9899 219,879 220,70
##END=
