##TITLE=cis-13-Eicosenoic acid
##JCAMP-DX=4.24
##DATA TYPE=MASS SPECTRUM
##ORIGIN=NIST Mass Spectrometry Data Center
##OWNER=NIST Mass Spectrometry Data Center
Collection (C) 2014 copyright by the U.S. Secretary of Commerce
on behalf of the United States of America. All rights reserved.
##CAS REGISTRY NO=17735-94-3
##$NIST MASS SPEC NO=333523
##MOLFORM=C20 H38 O2
##MW=310
##$NIST SOURCE=MSDC
##XUNITS=M/Z
##YUNITS=RELATIVE INTENSITY
##XFACTOR=1
##YFACTOR=1
##FIRSTX=26
##LASTX=312
##FIRSTY=10
##MAXX=312
##MINX=26
##MAXY=9999
##MINY=10
##NPOINTS=237
##PEAK TABLE=(XY..XY)
26,10 27,310 28,70 29,771
30,30 31,30 39,591 40,130
41,4084 42,881 43,3123 44,100
45,450 46,10 47,10 50,10
51,60 52,50 53,671 54,1912
55,9999 56,2793 57,2732 58,160
59,300 60,1842 61,160 62,10
63,10 65,270 66,210 67,2793
68,1541 69,6696 70,2482 71,1261
72,80 73,1221 74,120 75,50
76,10 77,270 78,100 79,841
80,430 81,2182 82,2012 83,5525
84,2742 85,911 86,90 87,430
88,50 89,10 90,10 91,390
92,100 93,450 94,390 95,1732
96,2412 97,5055 98,2432 99,470
100,340 101,561 102,80 103,30
104,40 105,220 106,100 107,320
108,320 109,1051 110,1481 111,2492
112,991 113,370 114,711 115,430
116,130 117,100 118,50 119,300
120,110 121,380 122,230 123,961
124,941 125,1261 126,530 127,621
128,180 129,460 130,80 131,80
132,30 133,290 134,260 135,370
136,180 137,661 138,681 139,601
140,280 141,170 142,60 143,150
144,40 145,40 146,20 147,230
148,230 149,250 150,130 151,490
152,470 153,360 154,180 155,120
156,40 157,100 158,40 159,30
160,10 161,160 162,90 163,130
164,90 165,330 166,250 167,190
168,100 169,90 170,20 171,80
172,30 173,20 174,10 175,120
176,40 177,80 178,60 179,230
180,170 181,120 182,70 183,60
184,20 185,70 186,20 187,20
189,80 190,30 191,40 192,50
193,160 194,170 195,80 196,40
197,50 198,10 199,20 200,20
201,10 202,10 203,40 204,20
205,30 206,30 207,160 208,250
209,80 210,40 211,40 212,10
213,30 214,30 215,10 217,30
218,10 219,20 220,20 221,160
222,140 223,50 224,20 225,20
226,10 227,30 228,20 229,10
231,10 232,10 233,10 234,10
235,180 236,120 237,40 238,10
239,10 240,10 241,20 242,10
243,10 245,10 246,10 247,10
248,160 249,210 250,220 251,50
252,10 253,10 255,10 263,140
264,80 265,20 267,20 268,10
269,10 273,10 274,50 275,20
277,20 278,10 282,10 283,10
292,971 293,260 294,40 302,10
304,10 308,10 310,130 311,30
312,10
##END=
