##TITLE=Butane, 2,2-dichloro-3-methyl-
##JCAMP-DX=4.24
##DATA TYPE=MASS SPECTRUM
##ORIGIN=COMPAGNIE FRANCAISE DE RAFFINAGE, FRANCE.
##OWNER=NIST Mass Spectrometry Data Center
Collection (C) 2014 copyright by the U.S. Secretary of Commerce
on behalf of the United States of America. All rights reserved.
##CAS REGISTRY NO=17773-66-9
##$NIST MASS SPEC NO=3766
##MOLFORM=C5 H10 Cl2
##MW=140
##$NIST SOURCE=MSDC
##XUNITS=M/Z
##YUNITS=RELATIVE INTENSITY
##XFACTOR=1
##YFACTOR=1
##FIRSTX=25
##LASTX=142
##FIRSTY=13
##MAXX=142
##MINX=25
##MAXY=9999
##MINY=9
##NPOINTS=73
##PEAK TABLE=(XY..XY)
25,13 26,199 27,2071 28,187
29,359 30,9 31,28 35,83
36,573 37,91 38,300 39,1107
40,134 41,3789 42,3313 43,9999
44,356 47,15 48,10 49,134
50,168 51,322 52,85 53,1288
54,105 55,440 56,29 57,79
60,29 61,308 62,131 63,598
64,49 65,202 66,23 67,206
69,2715 70,191 71,42 73,42
75,112 76,46 77,122 78,18
79,29 83,28 85,24 87,22
88,11 89,673 90,81 91,224
92,26 96,67 97,436 98,54
99,276 101,44 103,29 104,241
105,1761 106,177 107,573 108,32
109,12 125,192 126,11 127,122
129,20 139,17 140,13 141,12
142,9
##END=
