##TITLE=2-Butene, 2-chloro-3-methyl-
##JCAMP-DX=4.24
##DATA TYPE=MASS SPECTRUM
##ORIGIN=COMPAGNIE FRANCAISE DE RAFFINAGE, FRANCE.
##OWNER=NIST Mass Spectrometry Data Center
Collection (C) 2014 copyright by the U.S. Secretary of Commerce
on behalf of the United States of America. All rights reserved.
##CAS REGISTRY NO=17773-65-8
##$NIST MASS SPEC NO=1295
##MOLFORM=C5 H9 Cl
##MW=104
##$NIST SOURCE=MSDC
##XUNITS=M/Z
##YUNITS=RELATIVE INTENSITY
##XFACTOR=1
##YFACTOR=1
##FIRSTX=26
##LASTX=106
##FIRSTY=367
##MAXX=106
##MINX=26
##MAXY=9999
##MINY=22
##NPOINTS=48
##PEAK TABLE=(XY..XY)
26,367 27,2512 28,314 29,570
30,22 31,174 35,47 36,275
37,275 38,534 39,3043 40,848
41,9999 42,869 43,298 49,331
50,603 51,1058 52,315 53,4951
54,299 55,1007 56,112 57,216
61,314 62,256 63,505 64,71
65,431 66,187 67,1942 68,611
69,9560 70,589 71,23 75,415
76,302 77,151 78,100 87,56
88,29 89,2560 90,122 91,840
103,78 104,4854 105,307 106,1608
##END=
