##TITLE=1-Butene, 2-chloro-3-methyl-
##JCAMP-DX=4.24
##DATA TYPE=MASS SPECTRUM
##ORIGIN=COMPAGNIE FRANCAISE DE RAFFINAGE, FRANCE.
##OWNER=NIST Mass Spectrometry Data Center
Collection (C) 2014 copyright by the U.S. Secretary of Commerce
on behalf of the United States of America. All rights reserved.
##CAS REGISTRY NO=17773-64-7
##$NIST MASS SPEC NO=1297
##MOLFORM=C5 H9 Cl
##MW=104
##$NIST SOURCE=MSDC
##XUNITS=M/Z
##YUNITS=RELATIVE INTENSITY
##XFACTOR=1
##YFACTOR=1
##FIRSTX=26
##LASTX=106
##FIRSTY=408
##MAXX=106
##MINX=26
##MAXY=9999
##MINY=13
##NPOINTS=46
##PEAK TABLE=(XY..XY)
26,408 27,2405 28,298 29,270
30,13 31,91 35,42 36,224
37,177 38,355 39,1975 40,440
41,6482 42,728 43,561 49,245
50,464 51,766 52,237 53,5486
54,327 55,392 61,397 62,175
63,426 64,48 65,215 66,68
67,674 68,183 69,9999 70,595
71,22 75,175 76,127 77,70
78,49 87,34 88,54 89,2903
90,148 91,956 103,56 104,2068
105,133 106,665
##END=
