##TITLE=3,7-Benzofurandiol, 2,3-dihydro-2,2-dimethyl-
##JCAMP-DX=4.24
##DATA TYPE=MASS SPECTRUM
##ORIGIN=FDA, Los Angeles District Laboratory
##OWNER=NIST Mass Spectrometry Data Center
Collection (C) 2014 copyright by the U.S. Secretary of Commerce
on behalf of the United States of America. All rights reserved.
##CAS REGISTRY NO=17781-15-6
##$NIST MASS SPEC NO=117195
##MOLFORM=C10 H12 O3
##MW=180
##$NIST SOURCE=MSDC
##XUNITS=M/Z
##YUNITS=RELATIVE INTENSITY
##XFACTOR=1
##YFACTOR=1
##FIRSTX=40
##LASTX=181
##FIRSTY=250
##MAXX=181
##MINX=40
##MAXY=9999
##MINY=200
##NPOINTS=52
##PEAK TABLE=(XY..XY)
40,250 41,1150 42,350 43,1150
51,550 52,400 53,750 55,700
59,300 63,550 64,400 65,1350
66,350 77,550 78,200 79,500
80,200 81,1250 91,1700 92,650
93,1100 94,350 103,200 105,700
106,300 107,600 108,200 109,900
110,450 111,200 115,350 116,250
119,1000 120,350 121,1400 122,300
123,1400 133,500 134,800 135,300
136,300 137,9999 138,1200 139,250
147,3000 148,350 151,1250 161,1000
162,850 163,250 180,2500 181,300
##END=
