##TITLE=Ethanone, 1-[4-(methylthio)phenyl]-
##JCAMP-DX=4.24
##DATA TYPE=MASS SPECTRUM
##ORIGIN=Dr. Jiri Zamecnik, DCIEM, North York, Canada, GP Library
##OWNER=NIST Mass Spectrometry Data Center
Collection (C) 2014 copyright by the U.S. Secretary of Commerce
on behalf of the United States of America. All rights reserved.
##CAS REGISTRY NO=1778-09-2
##$NIST MASS SPEC NO=122483
##MOLFORM=C9 H10 O S
##MW=166
##$NIST SOURCE=MSDC
##XUNITS=M/Z
##YUNITS=RELATIVE INTENSITY
##XFACTOR=1
##YFACTOR=1
##FIRSTX=39
##LASTX=169
##FIRSTY=320
##MAXX=169
##MINX=39
##MAXY=9999
##MINY=20
##NPOINTS=48
##PEAK TABLE=(XY..XY)
39,320 43,1090 45,2600 47,160
50,540 51,330 53,90 58,210
61,110 62,150 63,350 65,140
69,620 75,240 76,440 77,640
78,220 79,1170 82,290 89,130
91,230 93,60 97,60 104,60
105,40 107,60 108,1050 109,140
110,60 119,40 121,370 122,200
123,1930 124,170 125,100 133,30
136,300 137,90 138,30 139,20
151,9999 152,980 153,480 154,70
166,5210 167,570 168,270 169,40
##END=
