##TITLE=1,3,6-Trioxocane
##JCAMP-DX=4.24
##DATA TYPE=MASS SPECTRUM
##ORIGIN=NIST Mass Spectrometry Data Center, 1990.
##OWNER=NIST Mass Spectrometry Data Center
Collection (C) 2014 copyright by the U.S. Secretary of Commerce
on behalf of the United States of America. All rights reserved.
##CAS REGISTRY NO=1779-19-7
##$NIST MASS SPEC NO=118143
##MOLFORM=C5 H10 O3
##MW=118
##$NIST SOURCE=MSDC
##XUNITS=M/Z
##YUNITS=RELATIVE INTENSITY
##XFACTOR=1
##YFACTOR=1
##FIRSTX=14
##LASTX=118
##FIRSTY=216
##MAXX=118
##MINX=14
##MAXY=9999
##MINY=70
##NPOINTS=26
##PEAK TABLE=(XY..XY)
14,216 15,1164 16,101 18,73
19,163 26,566 27,1940 28,9999
29,4045 30,2197 31,2664 32,103
41,95 42,352 43,2009 44,2628
45,1977 57,1635 58,3873 59,229
60,70 73,140 87,362 88,3186
89,128 118,88
##END=
