##TITLE=1,3-Dioxane, 4,5-dimethyl-
##JCAMP-DX=4.24
##DATA TYPE=MASS SPECTRUM
##OWNER=NIST Mass Spectrometry Data Center
Collection (C) 2014 copyright by the U.S. Secretary of Commerce
on behalf of the United States of America. All rights reserved.
##CAS REGISTRY NO=1779-22-2
##$NIST MASS SPEC NO=1956
##MOLFORM=C6 H12 O2
##MW=116
##$NIST SOURCE=MSDC
##XUNITS=M/Z
##YUNITS=RELATIVE INTENSITY
##XFACTOR=1
##YFACTOR=1
##FIRSTX=18
##LASTX=116
##FIRSTY=60
##MAXX=116
##MINX=18
##MAXY=9999
##MINY=10
##NPOINTS=36
##PEAK TABLE=(XY..XY)
18,60 26,440 27,2592 29,3073
30,390 31,1591 39,2152 40,681
41,4434 42,9999 43,4134 44,671
45,8197 53,230 54,90 55,561
56,1191 57,440 58,110 59,90
67,40 68,40 69,1001 70,130
71,821 72,70 73,130 75,821
83,10 84,10 85,70 86,2622
87,310 101,120 115,440 116,260
##END=
