##TITLE=1-Pentanamine, N-ethyl-
##JCAMP-DX=4.24
##DATA TYPE=MASS SPECTRUM
##ORIGIN=CARL DJERASSI DEPT OF CHEM STANFORD UNIV STANFORD CALIF 94305
##OWNER=NIST Mass Spectrometry Data Center
Collection (C) 2014 copyright by the U.S. Secretary of Commerce
on behalf of the United States of America. All rights reserved.
##CAS REGISTRY NO=17839-26-8
##$NIST MASS SPEC NO=46364
##MOLFORM=C7 H17 N
##MW=115
##$NIST SOURCE=MSDC
##XUNITS=M/Z
##YUNITS=RELATIVE INTENSITY
##XFACTOR=1
##YFACTOR=1
##FIRSTX=29
##LASTX=115
##FIRSTY=600
##MAXX=115
##MINX=29
##MAXY=9999
##MINY=100
##NPOINTS=16
##PEAK TABLE=(XY..XY)
29,600 30,3200 39,100 41,400
42,200 43,600 44,800 45,100
56,300 57,100 58,9999 59,300
71,100 100,100 114,100 115,400
##END=
