##TITLE=8,11,14-Eicosatrienoic acid, (Z,Z,Z)-
##JCAMP-DX=4.24
##DATA TYPE=MASS SPECTRUM
##ORIGIN=NIST Mass Spectrometry Data Center
##OWNER=NIST Mass Spectrometry Data Center
Collection (C) 2014 copyright by the U.S. Secretary of Commerce
on behalf of the United States of America. All rights reserved.
##CAS REGISTRY NO=1783-84-2
##$NIST MASS SPEC NO=333611
##MOLFORM=C20 H34 O2
##MW=306
##$NIST SOURCE=MSDC
##XUNITS=M/Z
##YUNITS=RELATIVE INTENSITY
##XFACTOR=1
##YFACTOR=1
##FIRSTX=15
##LASTX=308
##FIRSTY=10
##MAXX=308
##MINX=15
##MAXY=9999
##MINY=10
##NPOINTS=213
##PEAK TABLE=(XY..XY)
15,10 26,30 27,621 28,120
29,1371 30,40 31,70 37,10
38,10 39,1101 40,180 41,5275
42,530 43,1952 44,70 45,601
46,10 47,10 50,40 51,190
52,160 53,1181 54,1902 55,5845
56,440 57,1141 58,90 59,210
60,661 61,50 62,10 63,50
64,30 65,1101 66,1531 67,8938
68,1882 69,2432 70,250 71,621
72,50 73,1151 74,100 75,40
77,2913 78,1782 79,9999 80,8638
81,6105 82,1962 83,1091 84,200
85,661 86,50 87,470 88,40
89,30 91,4064 92,1061 93,5805
94,3873 95,3954 96,1501 97,741
98,160 99,110 100,20 101,240
102,50 103,190 104,150 105,1181
106,470 107,2412 108,1221 109,1091
110,520 111,250 112,60 113,110
114,50 115,250 116,90 117,490
118,100 119,530 120,190 121,1872
122,701 123,460 124,350 125,150
126,100 127,140 128,100 129,230
130,60 131,220 132,60 133,370
134,120 135,1301 136,571 137,460
138,170 139,100 140,130 141,40
142,10 143,110 144,40 145,90
146,40 147,180 148,210 149,510
150,2192 151,350 152,70 153,80
154,70 155,20 156,10 157,70
158,20 159,160 160,30 161,210
162,80 163,330 164,220 165,80
166,50 167,60 168,60 169,10
170,10 171,110 172,30 173,40
174,10 175,100 176,30 177,360
178,150 179,90 180,40 181,40
182,60 183,10 184,10 185,110
186,20 187,10 188,10 189,60
190,20 191,120 192,40 193,40
194,50 195,140 196,50 197,10
199,30 200,10 201,10 202,10
203,80 204,10 205,40 206,20
207,50 208,1111 209,200 210,30
211,10 213,10 217,20 218,10
219,20 220,10 221,120 222,80
223,20 224,10 231,10 233,10
234,10 235,150 236,90 237,20
238,20 239,10 246,10 247,10
249,90 250,30 251,10 252,80
253,20 263,30 264,20 265,30
266,10 277,20 278,20 279,10
289,10 292,10 306,350 307,80
308,10
##END=
