##TITLE=3,5-Difluoro-4-hydroxypropiophenone
##JCAMP-DX=4.24
##DATA TYPE=MASS SPECTRUM
##ORIGIN=NIST Mass Spectrometry Data Center, 1994
##OWNER=NIST Mass Spectrometry Data Center
Collection (C) 2014 copyright by the U.S. Secretary of Commerce
on behalf of the United States of America. All rights reserved.
##CAS REGISTRY NO=178374-78-2
##$NIST MASS SPEC NO=136704
##MOLFORM=C9 H8 F2 O2
##MW=186
##$NIST SOURCE=MSDC
##XUNITS=M/Z
##YUNITS=RELATIVE INTENSITY
##XFACTOR=1
##YFACTOR=1
##FIRSTX=13
##LASTX=188
##FIRSTY=17
##MAXX=188
##MINX=13
##MAXY=9999
##MINY=7
##NPOINTS=95
##PEAK TABLE=(XY..XY)
13,17 14,7 15,97 17,7
18,28 20,26 25,26 26,254
27,1194 28,7 29,871 31,12
33,40 37,79 38,78 39,125
42,38 44,7 48,14 49,41
50,322 51,859 52,37 53,238
55,281 56,250 57,888 58,35
60,29 61,265 62,213 63,195
64,58 65,26 66,17 68,103
69,152 70,57 71,72 73,38
75,765 76,41 77,61 79,93
80,266 81,873 82,178 83,111
84,25 85,22 86,23 87,28
88,33 89,23 92,46 93,80
94,29 95,72 97,19 98,31
99,265 100,524 101,2348 102,137
105,23 106,14 107,51 108,61
109,161 110,73 111,37 112,46
113,19 114,38 119,17 125,23
127,79 128,483 129,2506 130,200
131,22 137,21 138,23 139,16
140,14 141,10 143,64 157,9999
158,838 159,87 166,15 167,39
186,1388 187,145 188,14
##END=
