##TITLE=Benzoic acid, 4-cyano-, phenyl ester
##JCAMP-DX=4.24
##DATA TYPE=MASS SPECTRUM
##ORIGIN=Zaikin V.G., TIPS RAS, Moscow, Russia
##OWNER=NIST Mass Spectrometry Data Center
Collection (C) 2014 copyright by the U.S. Secretary of Commerce
on behalf of the United States of America. All rights reserved.
##CAS REGISTRY NO=17847-33-5
##$NIST MASS SPEC NO=292656
##MOLFORM=C14 H9 N O2
##MW=223
##$NIST SOURCE=MSDC
##XUNITS=M/Z
##YUNITS=RELATIVE INTENSITY
##XFACTOR=1
##YFACTOR=1
##FIRSTX=28
##LASTX=224
##FIRSTY=10
##MAXX=224
##MINX=28
##MAXY=9999
##MINY=10
##NPOINTS=25
##PEAK TABLE=(XY..XY)
28,10 38,30 39,190 50,110
51,220 52,30 63,60 64,30
65,210 66,30 74,50 75,310
76,200 77,60 93,30 94,70
101,50 102,2292 103,200 130,9999
131,751 132,40 147,50 223,1001
224,160
##END=
