##TITLE=Triethylpropoxysilane
##JCAMP-DX=4.24
##DATA TYPE=MASS SPECTRUM
##ORIGIN=V.G.Zaikin,TIPS,Russian Acad.Sci.Moscow
##OWNER=NIST Mass Spectrometry Data Center
Collection (C) 2014 copyright by the U.S. Secretary of Commerce
on behalf of the United States of America. All rights reserved.
##CAS REGISTRY NO=17841-44-0
##$NIST MASS SPEC NO=279909
##MOLFORM=C9 H22 O Si
##MW=174
##$NIST SOURCE=MSDC
##XUNITS=M/Z
##YUNITS=RELATIVE INTENSITY
##XFACTOR=1
##YFACTOR=1
##FIRSTX=25
##LASTX=174
##FIRSTY=50
##MAXX=174
##MINX=25
##MAXY=9999
##MINY=20
##NPOINTS=65
##PEAK TABLE=(XY..XY)
25,50 26,661 27,3513 28,500
29,3443 30,190 31,881 38,50
39,561 40,50 41,971 42,270
43,1291 44,270 45,4194 46,350
47,4114 48,250 49,110 50,20
51,130 52,60 53,190 55,390
56,290 57,981 58,1191 59,3463
60,490 61,691 62,50 65,40
71,180 72,70 73,550 74,280
75,7397 76,581 77,260 79,90
85,160 86,190 87,2532 88,651
89,290 90,30 93,30 94,230
101,70 102,60 103,1792 104,180
105,70 113,50 115,641 116,190
117,2893 118,290 119,80 143,70
144,280 145,9999 146,1271 147,380
174,70
##END=
