##TITLE=Phenol, 3,4-dichloro-, acetate
##JCAMP-DX=4.24
##DATA TYPE=MASS SPECTRUM
##ORIGIN=NIST Mass Spectrometry Data Center
##OWNER=NIST Mass Spectrometry Data Center
Collection (C) 2014 copyright by the U.S. Secretary of Commerce
on behalf of the United States of America. All rights reserved.
##CAS REGISTRY NO=17847-51-7
##$NIST MASS SPEC NO=364905
##MOLFORM=C8 H6 Cl2 O2
##MW=204
##$NIST SOURCE=MSDC
##XUNITS=M/Z
##YUNITS=RELATIVE INTENSITY
##XFACTOR=1
##YFACTOR=1
##FIRSTX=13
##LASTX=209
##FIRSTY=10
##MAXX=209
##MINX=13
##MAXY=9999
##MINY=10
##NPOINTS=108
##PEAK TABLE=(XY..XY)
13,10 14,50 15,310 18,10
25,10 26,30 27,10 28,40
29,20 31,10 32,10 35,10
36,10 37,130 38,90 39,80
41,30 42,230 43,6336 44,130
45,20 47,30 48,30 49,80
50,110 51,40 53,50 54,20
55,10 60,40 61,250 62,540
63,1311 64,100 65,10 66,20
67,10 71,30 72,230 73,591
74,280 75,230 76,10 77,20
78,10 83,110 84,70 85,70
86,30 87,30 89,30 90,10
91,20 92,20 94,10 95,10
96,30 97,200 98,330 99,901
100,160 101,290 102,20 106,10
107,160 108,20 109,210 110,50
111,70 112,20 113,10 119,10
121,10 123,10 126,230 127,160
128,90 129,50 132,10 133,550
134,160 135,370 136,100 137,60
138,20 141,10 144,10 145,130
146,10 147,70 148,10 149,10
156,10 157,10 161,110 162,9999
163,721 164,6336 165,440 166,1031
167,70 175,10 204,861 205,80
206,571 207,40 208,100 209,10
##END=
