##TITLE=1,3,5-Triphenyl-s-triazine-2,4,6(1H,3H,5H)-trione
##JCAMP-DX=4.24
##DATA TYPE=MASS SPECTRUM
##ORIGIN=Japan AIST/NIMC Database- Spectrum MS-IW- 491
##OWNER=NIST Mass Spectrometry Data Center
Collection (C) 2014 copyright by the U.S. Secretary of Commerce
on behalf of the United States of America. All rights reserved.
##CAS REGISTRY NO=1785-02-0
##$NIST MASS SPEC NO=240124
##MOLFORM=C21 H15 N3 O3
##MW=357
##$NIST SOURCE=MSDC
##XUNITS=M/Z
##YUNITS=RELATIVE INTENSITY
##XFACTOR=1
##YFACTOR=1
##FIRSTX=27
##LASTX=360
##FIRSTY=10
##MAXX=360
##MINX=27
##MAXY=9999
##MINY=10
##NPOINTS=51
##PEAK TABLE=(XY..XY)
27,10 28,70 37,10 38,40
39,70 40,20 41,70 44,50
45,10 50,30 51,109 52,40
59,10 62,10 63,119 64,419
65,99 66,30 70,10 75,10
76,20 77,159 78,20 90,70
91,1209 92,90 93,80 103,20
104,10 105,10 119,9999 120,809
121,50 145,229 146,20 166,10
167,10 179,10 193,10 194,199
195,30 209,20 237,50 238,619
239,90 240,10 356,10 357,2869
358,679 359,99 360,10
##END=
