##TITLE=Benzene, 1-ethyl-2,4,5-trimethyl-
##JCAMP-DX=4.24
##DATA TYPE=MASS SPECTRUM
##ORIGIN=T.A.BLAZER DU PONT, GIBBSTOWN, N.J., USA
##OWNER=NIST Mass Spectrometry Data Center
Collection (C) 2014 copyright by the U.S. Secretary of Commerce
on behalf of the United States of America. All rights reserved.
##CAS REGISTRY NO=17851-27-3
##$NIST MASS SPEC NO=4447
##MOLFORM=C11 H16
##MW=148
##$NIST SOURCE=MSDC
##XUNITS=M/Z
##YUNITS=RELATIVE INTENSITY
##XFACTOR=1
##YFACTOR=1
##FIRSTX=15
##LASTX=149
##FIRSTY=358
##MAXX=149
##MINX=15
##MAXY=9999
##MINY=34
##NPOINTS=60
##PEAK TABLE=(XY..XY)
15,358 16,34 26,70 27,491
28,133 29,114 38,70 39,730
40,60 41,530 44,61 50,149
51,471 52,156 53,293 55,102
59,82 62,82 63,250 64,215
65,404 66,79 67,66 71,77
72,82 73,80 74,70 75,61
77,591 78,192 79,264 89,70
91,967 92,172 93,115 102,124
103,348 104,188 105,1322 106,197
107,66 115,750 116,359 117,735
118,289 119,2133 120,670 121,89
127,84 128,201 129,165 130,75
131,429 132,224 133,9999 134,1583
135,111 147,250 148,3040 149,370
##END=
