##TITLE=2-Benzoyl-1,3-indanedione
##JCAMP-DX=4.24
##DATA TYPE=MASS SPECTRUM
##ORIGIN=NIST Mass Spectrometry Data Center, 1994
##OWNER=NIST Mass Spectrometry Data Center
Collection (C) 2014 copyright by the U.S. Secretary of Commerce
on behalf of the United States of America. All rights reserved.
##CAS REGISTRY NO=1785-95-1
##$NIST MASS SPEC NO=136117
##MOLFORM=C16 H10 O3
##MW=250
##$NIST SOURCE=MSDC
##XUNITS=M/Z
##YUNITS=RELATIVE INTENSITY
##XFACTOR=1
##YFACTOR=1
##FIRSTX=17
##LASTX=252
##FIRSTY=58
##MAXX=252
##MINX=17
##MAXY=9999
##MINY=6
##NPOINTS=108
##PEAK TABLE=(XY..XY)
17,58 18,111 27,137 28,6
37,58 38,202 39,906 40,65
41,59 44,53 50,1952 51,2709
52,294 53,253 61,154 62,645
63,1448 64,192 65,116 66,62
67,38 68,38 69,464 73,107
74,717 75,967 76,1809 77,5436
78,2651 79,195 82,428 84,57
85,60 86,212 87,322 88,650
89,3505 90,345 91,73 92,77
96,41 97,88 98,151 99,115
100,97 101,372 102,155 103,61
104,464 105,2806 106,212 110,58
111,145 112,30 113,71 114,34
115,139 116,95 117,307 118,51
120,100 122,37 125,172 126,87
127,57 128,67 129,213 137,80
138,56 139,209 140,54 144,29
145,45 149,30 150,137 151,161
152,117 153,66 162,44 163,272
164,287 165,1387 166,337 167,24
168,24 173,4943 174,598 175,122
176,398 177,123 178,42 181,47
192,24 193,135 194,223 204,300
205,89 210,55 221,231 222,303
223,55 232,294 233,270 234,59
249,9999 250,7544 251,1231 252,167
##END=
