##TITLE=Cyclotetradecane, 1,7,11-trimethyl-4-(1-methylethyl)-
##JCAMP-DX=4.24
##DATA TYPE=MASS SPECTRUM
##ORIGIN=H. SALVATORI, SNAM PROGETTI-LRSR, SAN DONATO, MILANESE, ITALY
##OWNER=NIST Mass Spectrometry Data Center
Collection (C) 2014 copyright by the U.S. Secretary of Commerce
on behalf of the United States of America. All rights reserved.
##CAS REGISTRY NO=1786-12-5
##$NIST MASS SPEC NO=13489
##MOLFORM=C20 H40
##MW=280
##$NIST SOURCE=MSDC
##XUNITS=M/Z
##YUNITS=RELATIVE INTENSITY
##XFACTOR=1
##YFACTOR=1
##FIRSTX=27
##LASTX=280
##FIRSTY=930
##MAXX=280
##MINX=27
##MAXY=9999
##MINY=90
##NPOINTS=66
##PEAK TABLE=(XY..XY)
27,930 28,650 29,2500 39,740
40,280 41,7590 42,1480 43,7780
44,280 53,460 54,370 55,9999
56,3610 57,9070 58,460 67,1200
68,1020 69,8520 70,2690 71,4810
72,370 79,190 80,90 81,1390
82,1200 83,6390 84,1200 85,2590
86,190 95,1200 96,740 97,6670
98,740 99,740 109,830 110,830
111,3890 112,650 113,460 123,650
124,460 125,2310 126,640 127,280
137,280 138,190 139,1020 140,370
141,460 151,280 152,90 153,740
154,90 155,190 165,190 166,90
167,560 168,90 179,190 180,90
181,370 182,90 236,2310 237,1300
238,280 280,90
##END=
