##TITLE=Pentacyclo[9.5.1.1(3,9).1(5,15).1(7,13)]octasiloxane, octamethyl-
##JCAMP-DX=4.24
##DATA TYPE=MASS SPECTRUM
##ORIGIN=Institute of Organic Chemistry, Novosibirsk, USSR 1988
##OWNER=NIST Mass Spectrometry Data Center
Collection (C) 2014 copyright by the U.S. Secretary of Commerce
on behalf of the United States of America. All rights reserved.
##CAS REGISTRY NO=17865-85-9
##$NIST MASS SPEC NO=102789
##MOLFORM=C8 H24 O12 Si8
##MW=536
##$NIST SOURCE=MSDC
##XUNITS=M/Z
##YUNITS=RELATIVE INTENSITY
##XFACTOR=1
##YFACTOR=1
##FIRSTX=41
##LASTX=537
##FIRSTY=189
##MAXX=537
##MINX=41
##MAXY=9999
##MINY=39
##NPOINTS=60
##PEAK TABLE=(XY..XY)
41,189 42,109 43,209 55,229
56,169 57,139 81,169 82,119
83,359 84,109 85,259 95,179
96,129 97,249 214,109 215,129
223,399 224,669 225,449 226,109
231,319 232,169 233,229 237,209
238,949 239,289 240,149 245,889
246,419 247,69 253,3759 254,749
255,129 445,119 457,89 458,39
463,149 464,59 465,109 475,199
476,109 477,229 478,99 491,439
492,239 493,149 505,1219 506,659
507,549 508,169 509,129 521,9999
522,4199 523,3349 524,1209 525,599
526,159 535,229 536,179 537,79
##END=
