##TITLE=2-Methyl-1-pentanol, TMS derivative
##JCAMP-DX=4.24
##DATA TYPE=MASS SPECTRUM
##ORIGIN=NIST Mass Spectrometry Data Center
##OWNER=NIST Mass Spectrometry Data Center
Collection (C) 2014 copyright by the U.S. Secretary of Commerce
on behalf of the United States of America. All rights reserved.
##CAS REGISTRY NO=17877-22-4
##$NIST MASS SPEC NO=333304
##MOLFORM=C9 H22 O Si
##MW=174
##$NIST SOURCE=MSDC
##XUNITS=M/Z
##YUNITS=RELATIVE INTENSITY
##XFACTOR=1
##YFACTOR=1
##FIRSTX=15
##LASTX=176
##FIRSTY=30
##MAXX=176
##MINX=15
##MAXY=9999
##MINY=10
##NPOINTS=92
##PEAK TABLE=(XY..XY)
15,30 26,20 27,310 28,60
29,420 30,20 31,40 38,10
39,270 40,40 41,641 42,210
43,931 44,180 45,891 46,70
47,390 48,20 50,10 51,20
52,10 53,90 54,30 55,480
56,220 57,130 58,440 59,601
60,140 61,671 62,50 63,30
65,10 66,10 67,40 68,10
69,260 70,150 71,110 72,250
73,6916 74,771 75,8908 76,751
77,320 78,10 81,10 83,480
84,350 85,180 86,20 87,90
88,410 89,861 90,90 91,160
92,10 93,10 97,20 98,10
99,80 100,10 101,220 103,7677
104,821 105,550 106,40 107,10
111,10 113,40 115,250 116,70
117,100 118,10 127,10 129,50
130,30 131,40 132,10 143,60
144,10 145,10 149,10 157,20
159,9999 160,1742 161,530 162,40
173,40 174,150 175,20 176,10
##END=
