##TITLE=Silane, trimethyl[(phenylthio)methyl]-
##JCAMP-DX=4.24
##DATA TYPE=MASS SPECTRUM
##ORIGIN=Japan AIST/NIMC Database- Spectrum MS-IW-5092
##OWNER=NIST Mass Spectrometry Data Center
Collection (C) 2014 copyright by the U.S. Secretary of Commerce
on behalf of the United States of America. All rights reserved.
##CAS REGISTRY NO=17873-08-4
##$NIST MASS SPEC NO=238278
##MOLFORM=C10 H16 S Si
##MW=196
##$NIST SOURCE=MSDC
##XUNITS=M/Z
##YUNITS=RELATIVE INTENSITY
##XFACTOR=1
##YFACTOR=1
##FIRSTX=27
##LASTX=199
##FIRSTY=30
##MAXX=199
##MINX=27
##MAXY=9999
##MINY=10
##NPOINTS=109
##PEAK TABLE=(XY..XY)
27,30 28,90 29,99 31,109
32,30 38,10 39,119 40,10
41,10 42,40 43,539 44,369
45,1019 46,70 47,30 50,60
51,359 52,30 53,70 54,10
55,80 56,20 57,129 58,119
59,479 60,40 61,50 62,10
63,40 64,10 65,259 66,30
67,20 69,80 70,40 71,60
72,519 73,9999 74,1059 75,569
76,60 77,619 78,99 79,99
81,10 82,30 83,40 84,10
85,10 87,10 89,70 90,109
91,1529 92,119 93,30 95,10
97,10 103,40 104,20 105,679
106,70 107,99 108,40 109,149
110,30 111,10 117,10 119,70
120,10 121,109 122,10 123,90
124,50 125,10 131,30 133,30
134,10 135,1179 136,169 137,279
138,30 139,20 145,10 149,40
150,30 151,409 152,60 153,99
154,20 155,10 163,10 164,20
165,1829 166,299 167,229 168,30
169,10 179,10 180,20 181,3989
182,629 183,359 184,40 185,10
195,90 196,3489 197,599 198,299
199,30
##END=
