##TITLE=2-Chlorophenol, TMS derivative
##JCAMP-DX=4.24
##DATA TYPE=MASS SPECTRUM
##ORIGIN=G.Dube,J.Prakt.Chem.,313,905(1971)
##OWNER=NIST Mass Spectrometry Data Center
Collection (C) 2014 copyright by the U.S. Secretary of Commerce
on behalf of the United States of America. All rights reserved.
##CAS REGISTRY NO=17881-65-1
##$NIST MASS SPEC NO=281030
##MOLFORM=C9 H13 Cl O Si
##MW=200
##$NIST SOURCE=MSDC
##XUNITS=M/Z
##YUNITS=RELATIVE INTENSITY
##XFACTOR=1
##YFACTOR=1
##FIRSTX=26
##LASTX=204
##FIRSTY=280
##MAXX=204
##MINX=26
##MAXY=9999
##MINY=60
##NPOINTS=77
##PEAK TABLE=(XY..XY)
26,280 27,200 28,1001 29,300
31,180 32,160 36,200 38,200
39,340 42,200 43,821 44,410
45,1191 46,140 47,220 50,280
51,300 53,280 55,220 57,200
58,200 59,220 61,120 62,180
63,1832 64,450 65,1641 66,200
67,410 71,140 72,160 73,1661
74,390 75,530 76,200 77,430
78,200 79,961 80,200 81,340
89,300 90,160 91,1722 92,1231
93,8438 94,450 95,2923 96,300
97,180 99,80 101,100 103,80
105,100 107,120 125,120 127,100
128,120 135,260 147,220 148,120
149,5595 150,691 151,240 155,240
157,140 169,120 183,140 185,9999
186,1331 187,3533 188,390 189,100
200,3723 201,490 202,1291 203,180
204,60
##END=
