##TITLE=2-Ethyl-1-butanol, TMS derivative
##JCAMP-DX=4.24
##DATA TYPE=MASS SPECTRUM
##ORIGIN=NIST Mass Spectrometry Data Center
##OWNER=NIST Mass Spectrometry Data Center
Collection (C) 2014 copyright by the U.S. Secretary of Commerce
on behalf of the United States of America. All rights reserved.
##CAS REGISTRY NO=17888-61-8
##$NIST MASS SPEC NO=333313
##MOLFORM=C9 H22 O Si
##MW=174
##$NIST SOURCE=MSDC
##XUNITS=M/Z
##YUNITS=RELATIVE INTENSITY
##XFACTOR=1
##YFACTOR=1
##FIRSTX=15
##LASTX=175
##FIRSTY=30
##MAXX=175
##MINX=15
##MAXY=9999
##MINY=10
##NPOINTS=95
##PEAK TABLE=(XY..XY)
15,30 26,20 27,350 28,90
29,641 30,20 31,40 38,10
39,240 40,30 41,530 42,190
43,961 44,200 45,1001 46,70
47,460 48,20 49,10 50,10
51,30 52,10 53,110 54,40
55,571 56,210 57,160 58,430
59,641 60,150 61,681 62,50
63,30 64,10 65,10 66,10
67,40 68,10 69,230 70,310
71,160 72,140 73,7397 74,851
75,9398 76,841 77,420 78,10
79,10 81,10 83,270 84,420
85,160 86,20 87,110 88,370
89,781 90,80 91,70 92,10
95,10 97,30 98,10 99,80
100,10 101,210 103,7657 104,851
105,921 106,70 107,20 111,20
113,40 115,190 116,20 117,400
118,40 119,20 127,10 129,70
130,40 131,30 143,70 144,20
145,50 146,10 149,10 157,30
159,9999 160,1742 161,550 162,40
173,40 174,30 175,10
##END=
