##TITLE=Picolinic acid, TMS derivative
##JCAMP-DX=4.24
##DATA TYPE=MASS SPECTRUM
##ORIGIN=ORVAL A. MAMER, ROYAL VICTORIA HOSPITAL, MONTREAL, CANADA
##OWNER=NIST Mass Spectrometry Data Center
Collection (C) 2014 copyright by the U.S. Secretary of Commerce
on behalf of the United States of America. All rights reserved.
##CAS REGISTRY NO=17881-49-1
##$NIST MASS SPEC NO=23882
##MOLFORM=C9 H13 N O2 Si
##MW=195
##$NIST SOURCE=MSDC
##XUNITS=M/Z
##YUNITS=RELATIVE INTENSITY
##XFACTOR=1
##YFACTOR=1
##FIRSTX=15
##LASTX=182
##FIRSTY=262
##MAXX=182
##MINX=15
##MAXY=9999
##MINY=75
##NPOINTS=62
##PEAK TABLE=(XY..XY)
15,262 26,137 27,416 28,362
29,234 31,111 39,158 42,119
43,856 44,382 45,1376 46,114
47,403 50,305 51,1394 52,459
53,162 54,75 55,139 57,124
58,210 59,469 60,107 61,120
65,82 67,177 68,486 69,117
70,86 71,81 72,641 73,2149
74,248 75,662 76,142 77,161
78,4588 79,381 80,138 83,107
84,143 92,106 93,467 94,98
106,849 107,138 108,120 109,114
120,120 122,220 136,3321 137,462
138,176 150,742 151,490 152,672
153,112 167,859 168,138 180,9999
181,1484 182,486
##END=
