##TITLE=2-Hexanol, TMS derivative
##JCAMP-DX=4.24
##DATA TYPE=MASS SPECTRUM
##ORIGIN=NIST Mass Spectrometry Data Center
##OWNER=NIST Mass Spectrometry Data Center
Collection (C) 2014 copyright by the U.S. Secretary of Commerce
on behalf of the United States of America. All rights reserved.
##CAS REGISTRY NO=17888-63-0
##$NIST MASS SPEC NO=333306
##MOLFORM=C9 H22 O Si
##MW=174
##$NIST SOURCE=MSDC
##XUNITS=M/Z
##YUNITS=RELATIVE INTENSITY
##XFACTOR=1
##YFACTOR=1
##FIRSTX=15
##LASTX=174
##FIRSTY=20
##MAXX=174
##MINX=15
##MAXY=9999
##MINY=10
##NPOINTS=79
##PEAK TABLE=(XY..XY)
15,20 26,10 27,180 28,50
29,370 30,10 31,20 38,10
39,160 40,20 41,330 42,90
43,430 44,140 45,761 46,60
47,350 48,20 49,10 50,10
51,20 52,10 53,50 54,20
55,200 56,70 57,90 58,200
59,400 60,110 61,550 62,40
63,20 65,10 67,20 69,160
70,40 71,60 72,210 73,6496
74,711 75,5235 76,400 77,200
78,10 79,10 81,10 83,20
84,30 85,70 86,30 87,230
88,30 89,30 91,30 97,30
99,50 101,250 102,180 103,350
104,40 105,10 113,30 115,320
117,9999 118,1431 119,530 120,30
129,60 130,20 131,10 143,40
144,10 159,2242 160,320 161,100
162,10 173,90 174,20
##END=
