##TITLE=1,3-Propanediol, 2TMS derivative
##JCAMP-DX=4.24
##DATA TYPE=MASS SPECTRUM
##ORIGIN=D.HENNEBERG, MAX-PLANCK INSTITUTE, MULHEIM, WEST GERMANY
##OWNER=NIST Mass Spectrometry Data Center
Collection (C) 2014 copyright by the U.S. Secretary of Commerce
on behalf of the United States of America. All rights reserved.
##CAS REGISTRY NO=17887-80-8
##$NIST MASS SPEC NO=63316
##MOLFORM=C9 H24 O2 Si2
##MW=220
##$NIST SOURCE=MSDC
##XUNITS=M/Z
##YUNITS=RELATIVE INTENSITY
##XFACTOR=1
##YFACTOR=1
##FIRSTX=22
##LASTX=219
##FIRSTY=2
##MAXX=219
##MINX=22
##MAXY=9999
##MINY=1
##NPOINTS=154
##PEAK TABLE=(XY..XY)
22,2 23,6 24,12 25,20
26,60 27,151 28,297 29,297
30,45 31,204 33,14 34,9
35,15 36,77 37,41 38,17
39,165 40,32 41,830 42,104
43,851 44,464 45,2328 46,166
47,651 48,35 49,39 50,7
51,72 52,160 53,50 54,56
55,109 56,46 57,130 58,480
59,1807 60,203 61,421 62,33
63,43 64,13 65,29 66,3610
67,300 68,23 69,39 70,51
71,116 72,334 73,8301 74,734
75,1239 76,88 77,85 78,11
79,12 80,19 81,946 82,73
83,17 84,11 85,285 86,37
87,190 88,69 89,139 90,18
91,18 92,12 93,30 94,29
95,166 96,22 97,20 98,9
99,116 100,21 101,379 102,203
103,913 104,104 105,102 106,32
107,21 108,9 109,9 110,11
111,5 112,1 113,33 114,11
115,3529 116,434 117,588 118,79
119,122 120,22 121,18 122,37
123,31 124,19 125,9 126,9
127,11 128,11 129,42 130,3411
131,884 132,214 133,662 134,93
135,47 136,7 137,1 138,2
139,3 140,5 141,5 142,7
144,14 145,27 147,9999 148,1569
149,830 150,87 151,23 152,13
155,4 156,3 158,2 159,10
160,6 161,5 162,2 163,83
164,10 165,6 166,2 171,12
173,1 177,663 178,113 179,54
180,9 183,1 189,10 191,4
204,3 205,324 206,65 207,26
208,3 219,10
##END=
