##TITLE=4-Nitrophenyl-.beta.-phenylpropionate
##JCAMP-DX=4.24
##DATA TYPE=MASS SPECTRUM
##ORIGIN=Zaikin V.G., TIPS RAS, Moscow, Russia
##OWNER=NIST Mass Spectrometry Data Center
Collection (C) 2014 copyright by the U.S. Secretary of Commerce
on behalf of the United States of America. All rights reserved.
##CAS REGISTRY NO=17895-71-5
##$NIST MASS SPEC NO=307786
##MOLFORM=C15 H13 N O4
##MW=271
##$NIST SOURCE=MSDC
##XUNITS=M/Z
##YUNITS=RELATIVE INTENSITY
##XFACTOR=1
##YFACTOR=1
##FIRSTX=27
##LASTX=272
##FIRSTY=50
##MAXX=272
##MINX=27
##MAXY=9999
##MINY=20
##NPOINTS=33
##PEAK TABLE=(XY..XY)
27,50 28,20 39,60 51,100
55,30 63,60 64,40 65,360
76,30 77,550 78,200 79,530
80,30 89,40 90,40 91,7717
92,611 93,70 102,30 103,490
104,450 105,9469 106,851 107,20
109,110 123,200 131,250 132,130
133,9999 134,971 135,90 271,460
272,60
##END=
