##TITLE=Ethyldichlorosilane
##JCAMP-DX=4.24
##DATA TYPE=MASS SPECTRUM
##OWNER=NIST Mass Spectrometry Data Center
Collection (C) 2014 copyright by the U.S. Secretary of Commerce
on behalf of the United States of America. All rights reserved.
##CAS REGISTRY NO=1789-58-8
##$NIST MASS SPEC NO=2773
##MOLFORM=C2 H6 Cl2 Si
##MW=128
##$NIST SOURCE=MSDC
##XUNITS=M/Z
##YUNITS=RELATIVE INTENSITY
##XFACTOR=1
##YFACTOR=1
##FIRSTX=12
##LASTX=133
##FIRSTY=20
##MAXX=133
##MINX=12
##MAXY=9999
##MINY=10
##NPOINTS=88
##PEAK TABLE=(XY..XY)
12,20 13,20 14,200 15,120
16,10 24,20 25,70 26,681
27,1972 28,170 29,2122 30,130
31,80 35,220 36,581 37,70
38,190 40,100 41,110 42,150
43,120 44,40 45,70 47,40
49,20 52,100 53,681 54,150
55,220 56,60 57,60 58,30
59,40 62,20 63,5335 64,1101
65,2562 66,430 67,320 68,20
69,20 73,150 75,20 76,50
77,100 78,40 79,70 80,20
81,30 82,20 83,40 85,20
87,20 88,70 89,60 90,80
91,160 92,1611 93,641 94,611
95,210 96,40 98,5775 99,9999
100,1243 101,6506 102,951 103,1171
104,70 105,30 107,40 109,50
111,40 112,110 113,150 114,80
115,100 116,20 123,40 125,110
126,170 127,5775 128,1972 129,3873
130,1311 131,771 132,230 133,70
##END=
