##TITLE=m-Cresol, TMS derivative
##JCAMP-DX=4.24
##DATA TYPE=MASS SPECTRUM
##ORIGIN=John Halket,Royal Holloway, University of London, UK
##OWNER=NIST Mass Spectrometry Data Center
Collection (C) 2014 copyright by the U.S. Secretary of Commerce
on behalf of the United States of America. All rights reserved.
##CAS REGISTRY NO=17902-31-7
##$NIST MASS SPEC NO=331754
##MOLFORM=C10 H16 O Si
##MW=180
##$NIST SOURCE=MSDC
##XUNITS=M/Z
##YUNITS=RELATIVE INTENSITY
##XFACTOR=1
##YFACTOR=1
##FIRSTX=15
##LASTX=183
##FIRSTY=30
##MAXX=183
##MINX=15
##MAXY=9999
##MINY=10
##NPOINTS=115
##PEAK TABLE=(XY..XY)
15,30 26,10 27,100 29,80
30,10 31,30 37,10 38,40
39,320 40,30 41,70 42,50
43,370 44,110 45,671 46,50
47,150 48,10 49,10 50,90
51,250 52,110 53,180 54,30
55,100 56,10 57,50 58,90
59,330 60,50 61,110 62,70
63,250 64,70 65,681 66,70
67,160 68,210 69,90 70,20
71,40 72,40 73,701 74,160
75,781 76,80 77,601 78,190
79,350 80,30 81,80 82,530
85,60 86,20 87,20 89,260
90,130 91,2282 92,200 93,50
94,10 95,160 96,20 97,60
98,10 99,30 101,10 102,20
103,170 104,60 105,651 106,70
107,130 108,20 109,280 110,30
111,30 115,20 116,10 117,20
119,60 120,10 121,80 122,20
123,40 124,10 125,10 131,40
132,10 133,40 134,30 135,751
136,100 137,140 138,20 143,10
145,70 146,20 147,100 148,50
149,791 150,140 151,70 161,70
162,20 163,310 165,9999 166,1962
167,601 168,50 178,10 180,4564
181,781 182,230 183,20
##END=
