##TITLE=2,6,9,11-Dodecatetraenal, 2,6,10-trimethyl-, (E,E,E)-
##JCAMP-DX=4.24
##DATA TYPE=MASS SPECTRUM
##OWNER=NIST Mass Spectrometry Data Center
Collection (C) 2014 copyright by the U.S. Secretary of Commerce
on behalf of the United States of America. All rights reserved.
##CAS REGISTRY NO=17909-77-2
##$NIST MASS SPEC NO=10184
##MOLFORM=C15 H22 O
##MW=218
##$NIST SOURCE=MSDC
##XUNITS=M/Z
##YUNITS=RELATIVE INTENSITY
##XFACTOR=1
##YFACTOR=1
##FIRSTX=41
##LASTX=218
##FIRSTY=4704
##MAXX=218
##MINX=41
##MAXY=9999
##MINY=100
##NPOINTS=57
##PEAK TABLE=(XY..XY)
41,4704 42,200 43,2702 44,100
51,500 52,200 53,1902 54,400
55,7807 56,500 57,400 64,801
65,300 66,1201 67,400 68,1201
69,300 70,400 77,2803 78,701
79,4704 80,2002 81,2803 82,701
83,300 84,1001 91,3403 92,1001
93,9999 94,1301 95,801 96,200
97,200 105,2202 106,601 107,3803
108,500 109,300 119,3703 120,801
121,1001 133,400 134,6806 135,300
136,200 137,500 145,400 146,100
147,300 160,200 161,300 162,200
175,200 176,100 185,200 203,200
218,200
##END=
