##TITLE=Azelaic acid, 2TMS derivative
##JCAMP-DX=4.24
##DATA TYPE=MASS SPECTRUM
##ORIGIN=NIST Mass Spectrometry Data Center
##OWNER=NIST Mass Spectrometry Data Center
Collection (C) 2014 copyright by the U.S. Secretary of Commerce
on behalf of the United States of America. All rights reserved.
##CAS REGISTRY NO=17906-08-0
##$NIST MASS SPEC NO=352564
##MOLFORM=C15 H32 O4 Si2
##MW=332
##$NIST SOURCE=MSDC
##XUNITS=M/Z
##YUNITS=RELATIVE INTENSITY
##XFACTOR=1
##YFACTOR=1
##FIRSTX=15
##LASTX=331
##FIRSTY=20
##MAXX=331
##MINX=15
##MAXY=9999
##MINY=10
##NPOINTS=208
##PEAK TABLE=(XY..XY)
15,20 26,10 27,110 28,50
29,170 30,10 31,30 39,120
40,30 41,641 42,210 43,951
44,240 45,1401 46,110 47,661
48,30 49,30 50,10 51,10
52,10 53,100 54,80 55,3843
56,280 57,270 58,300 59,420
60,120 61,701 62,50 63,30
65,20 66,10 67,681 68,100
69,550 70,80 71,120 72,591
73,9999 74,1041 75,8698 76,611
77,410 78,20 79,591 80,100
81,711 82,150 83,1101 84,120
85,180 86,120 87,70 88,130
89,160 90,30 91,150 92,10
93,530 94,50 95,190 96,170
97,941 98,180 99,240 100,40
101,230 102,40 103,90 104,10
105,140 106,30 107,741 108,90
109,270 110,110 111,571 112,40
113,30 114,10 115,110 116,971
117,2582 118,290 119,130 120,10
121,20 123,280 124,540 125,370
126,40 127,30 128,30 129,3153
130,430 131,420 132,260 133,480
134,100 135,320 136,30 137,90
138,10 139,10 141,50 142,40
143,230 144,50 145,340 146,70
147,2072 148,340 149,1862 150,290
151,280 152,1732 153,370 154,40
155,100 156,90 157,180 158,40
159,150 160,20 161,20 162,40
163,30 164,10 165,30 166,10
167,30 168,10 169,60 170,60
171,581 172,120 173,80 174,30
175,10 179,10 181,40 182,10
183,410 184,70 185,370 186,100
187,60 188,130 189,110 190,50
191,60 192,20 193,10 196,10
197,130 198,30 199,470 200,170
201,2562 202,430 203,210 204,1211
205,280 206,130 207,20 209,140
210,20 211,10 213,10 214,260
215,60 216,20 217,771 218,170
219,60 220,10 225,60 226,10
227,30 228,10 231,50 232,10
233,10 241,10 242,50 243,100
244,20 245,30 246,10 257,10
259,20 260,10 271,10 273,210
274,60 275,30 276,20 299,20
301,30 302,10 317,2682 318,741
319,300 320,50 321,10 331,10
##END=
