##TITLE=p-Cresol, TMS derivative
##JCAMP-DX=4.24
##DATA TYPE=MASS SPECTRUM
##ORIGIN=John Halket,Royal Holloway, University of London, UK
##OWNER=NIST Mass Spectrometry Data Center
Collection (C) 2014 copyright by the U.S. Secretary of Commerce
on behalf of the United States of America. All rights reserved.
##CAS REGISTRY NO=17902-32-8
##$NIST MASS SPEC NO=331753
##MOLFORM=C10 H16 O Si
##MW=180
##$NIST SOURCE=MSDC
##XUNITS=M/Z
##YUNITS=RELATIVE INTENSITY
##XFACTOR=1
##YFACTOR=1
##FIRSTX=15
##LASTX=183
##FIRSTY=20
##MAXX=183
##MINX=15
##MAXY=9999
##MINY=10
##NPOINTS=92
##PEAK TABLE=(XY..XY)
15,20 31,30 37,10 38,30
39,280 40,20 44,130 45,821
46,60 47,150 48,10 49,10
50,120 51,310 52,140 53,230
55,110 57,60 58,100 59,370
60,50 61,110 62,70 63,260
64,70 65,711 66,70 67,170
68,260 71,50 73,1121 74,200
75,831 76,90 77,751 78,220
79,390 80,40 81,90 82,661
85,70 86,20 87,20 89,280
90,150 91,2362 92,200 93,60
94,10 95,170 99,30 102,20
103,200 104,70 105,711 106,80
107,180 108,20 109,340 110,40
111,30 115,20 117,20 118,10
119,60 120,20 121,100 123,50
131,40 132,10 133,70 135,871
136,120 137,190 138,20 143,10
145,80 149,861 150,170 161,70
162,20 163,410 165,9999 166,2252
167,691 168,60 177,10 178,30
180,5675 181,1011 182,290 183,30
##END=
