##TITLE=2-n-Propylthiane
##JCAMP-DX=4.24
##DATA TYPE=MASS SPECTRUM
##ORIGIN=V.G.Zaikin, TIPS, Russian Acad. Sci.
##OWNER=NIST Mass Spectrometry Data Center
Collection (C) 2014 copyright by the U.S. Secretary of Commerce
on behalf of the United States of America. All rights reserved.
##CAS REGISTRY NO=17912-23-1
##$NIST MASS SPEC NO=215937
##MOLFORM=C8 H16 S
##MW=144
##$NIST SOURCE=MSDC
##XUNITS=M/Z
##YUNITS=RELATIVE INTENSITY
##XFACTOR=1
##YFACTOR=1
##FIRSTX=38
##LASTX=147
##FIRSTY=120
##MAXX=147
##MINX=38
##MAXY=9999
##MINY=10
##NPOINTS=61
##PEAK TABLE=(XY..XY)
38,120 39,2191 40,310 41,4003
42,430 43,370 44,210 45,2111
46,440 47,1821 48,30 49,80
50,100 51,190 52,60 53,810
54,560 55,3222 56,190 57,60
58,310 59,2171 60,740 61,770
62,50 63,60 65,200 66,80
67,3252 68,550 69,500 71,250
72,70 73,1020 74,210 75,50
77,100 78,30 79,140 81,530
82,140 85,180 87,1341 88,190
89,120 99,210 100,230 101,9999
102,1321 103,960 104,30 114,40
115,970 116,90 117,40 129,20
143,50 144,2582 145,250 146,130
147,10
##END=
