##TITLE=Silanol, trimethyl-, triester with arsenic acid
##JCAMP-DX=4.24
##DATA TYPE=MASS SPECTRUM
##ORIGIN=W.T.RAINEY OAK RIDGE NATIONAL LABORATORY,OAK RIDGE,TN.USA
##OWNER=NIST Mass Spectrometry Data Center
Collection (C) 2014 copyright by the U.S. Secretary of Commerce
on behalf of the United States of America. All rights reserved.
##CAS REGISTRY NO=17921-76-5
##$NIST MASS SPEC NO=25417
##MOLFORM=C9 H27 As O4 Si3
##MW=358
##$NIST SOURCE=MSDC
##XUNITS=M/Z
##YUNITS=RELATIVE INTENSITY
##XFACTOR=1
##YFACTOR=1
##FIRSTX=52
##LASTX=360
##FIRSTY=299
##MAXX=360
##MINX=52
##MAXY=9999
##MINY=149
##NPOINTS=42
##PEAK TABLE=(XY..XY)
52,299 72,149 73,2666 74,266
75,3333 76,249 77,316 79,666
93,1049 95,349 103,233 105,766
117,166 121,299 133,283 135,433
147,1699 148,249 149,283 151,166
191,199 193,3582 194,649 195,899
207,2083 208,433 209,716 211,699
269,999 270,166 271,216 299,1749
300,399 301,216 314,383 343,9999
344,2333 345,1333 346,316 358,3499
359,866 360,483
##END=
