##TITLE=N,N'-di-n-Butylurea
##JCAMP-DX=4.24
##DATA TYPE=MASS SPECTRUM
##ORIGIN=NIST Mass Spectrometry Data Center, 1994
##OWNER=NIST Mass Spectrometry Data Center
Collection (C) 2014 copyright by the U.S. Secretary of Commerce
on behalf of the United States of America. All rights reserved.
##CAS REGISTRY NO=1792-17-2
##$NIST MASS SPEC NO=133694
##MOLFORM=C9 H20 N2 O
##MW=172
##$NIST SOURCE=MSDC
##XUNITS=M/Z
##YUNITS=RELATIVE INTENSITY
##XFACTOR=1
##YFACTOR=1
##FIRSTX=4
##LASTX=173
##FIRSTY=10
##MAXX=173
##MINX=4
##MAXY=9999
##MINY=4
##NPOINTS=49
##PEAK TABLE=(XY..XY)
4,10 14,4 15,70 18,135
27,939 28,931 29,1835 30,9999
31,268 32,27 39,576 41,1763
42,385 43,647 44,3515 45,130
53,91 54,82 55,334 56,628
57,1182 58,348 59,47 60,87
61,89 69,26 70,89 72,642
73,550 74,1332 75,51 85,101
86,60 87,717 88,307 100,906
101,914 102,71 115,59 116,48
117,106 129,873 130,781 131,50
143,384 144,47 157,258 172,1870
173,243
##END=
