##TITLE=Bicyclo[3.3.1]nonan-9-one
##JCAMP-DX=4.24
##DATA TYPE=MASS SPECTRUM
##ORIGIN=Japan AIST/NIMC Database- Spectrum MS-NW-6268
##OWNER=NIST Mass Spectrometry Data Center
Collection (C) 2014 copyright by the U.S. Secretary of Commerce
on behalf of the United States of America. All rights reserved.
##CAS REGISTRY NO=17931-55-4
##$NIST MASS SPEC NO=235777
##MOLFORM=C9 H14 O
##MW=138
##$NIST SOURCE=MSDC
##XUNITS=M/Z
##YUNITS=RELATIVE INTENSITY
##XFACTOR=1
##YFACTOR=1
##FIRSTX=14
##LASTX=140
##FIRSTY=10
##MAXX=140
##MINX=14
##MAXY=9999
##MINY=10
##NPOINTS=96
##PEAK TABLE=(XY..XY)
14,10 15,119 18,20 26,179
27,2079 28,109 29,839 30,20
31,20 32,10 37,50 38,169
39,2509 40,509 41,3959 42,309
43,209 44,40 45,30 46,10
49,20 50,159 51,369 52,209
53,999 54,4209 55,1569 56,389
57,149 58,10 59,10 60,10
61,10 62,40 63,109 64,20
65,359 66,959 67,9999 68,2459
69,939 70,269 71,90 72,10
73,10 74,30 75,20 76,10
77,319 78,439 79,1239 80,389
81,2619 82,5839 83,589 84,349
85,20 86,10 88,10 89,10
90,10 91,1509 92,1639 93,249
94,419 95,1079 96,359 97,219
98,30 99,10 103,10 104,20
105,319 106,50 107,119 108,30
109,339 110,1929 111,179 112,10
115,20 116,10 117,30 118,20
119,109 120,1269 121,159 122,20
123,80 124,10 135,10 136,10
137,40 138,5379 139,619 140,40
##END=
