##TITLE=1,1':4',1''-Tercyclohexane
##JCAMP-DX=4.24
##DATA TYPE=MASS SPECTRUM
##ORIGIN=C.E.A., C.E.N., GRENOBLE, FRANCE
##OWNER=NIST Mass Spectrometry Data Center
Collection (C) 2014 copyright by the U.S. Secretary of Commerce
on behalf of the United States of America. All rights reserved.
##CAS REGISTRY NO=1795-19-3
##$NIST MASS SPEC NO=34639
##MOLFORM=C18 H32
##MW=248
##$NIST SOURCE=MSDC
##XUNITS=M/Z
##YUNITS=RELATIVE INTENSITY
##XFACTOR=1
##YFACTOR=1
##FIRSTX=15
##LASTX=250
##FIRSTY=10
##MAXX=250
##MINX=15
##MAXY=9999
##MINY=10
##NPOINTS=103
##PEAK TABLE=(XY..XY)
15,10 17,60 18,290 25,20
26,210 27,1210 28,420 29,10
31,30 37,80 39,330 40,70
41,2570 42,160 43,300 44,30
50,10 51,30 52,30 53,370
54,660 55,4740 56,270 57,100
58,10 63,10 65,110 66,130
67,2860 68,470 69,1200 70,80
71,40 72,70 73,10 74,10
77,180 78,70 79,480 80,430
81,2100 82,6490 83,9999 84,650
85,30 91,140 92,30 93,170
94,150 95,1930 96,750 97,1670
98,130 103,10 104,10 105,30
106,10 107,120 108,240 109,2980
110,310 111,50 115,10 117,10
119,10 120,10 121,190 122,340
123,630 124,150 125,20 128,10
135,240 136,90 137,50 138,20
141,10 142,10 149,120 150,20
151,60 152,20 161,10 162,20
163,90 164,4120 165,110 166,480
167,30 177,10 178,20 179,10
191,10 199,10 201,10 219,10
220,20 244,10 246,20 247,20
248,1880 249,380 250,30
##END=
