##TITLE=Silanol, trimethyl-, phosphite (3:1)
##JCAMP-DX=4.24
##DATA TYPE=MASS SPECTRUM
##ORIGIN=NIST Mass Spectrometry Data Center, 1998.
##OWNER=NIST Mass Spectrometry Data Center
Collection (C) 2014 copyright by the U.S. Secretary of Commerce
on behalf of the United States of America. All rights reserved.
##CAS REGISTRY NO=1795-31-9
##$NIST MASS SPEC NO=290753
##MOLFORM=C9 H27 O3 P Si3
##MW=298
##$NIST SOURCE=MSDC
##XUNITS=M/Z
##YUNITS=RELATIVE INTENSITY
##XFACTOR=1
##YFACTOR=1
##FIRSTX=15
##LASTX=302
##FIRSTY=10
##MAXX=302
##MINX=15
##MAXY=9999
##MINY=10
##NPOINTS=134
##PEAK TABLE=(XY..XY)
15,10 27,10 29,50 31,30
41,10 42,20 43,290 44,260
45,1820 46,120 47,140 52,10
53,10 55,60 56,20 57,120
58,110 59,520 60,50 61,1220
62,30 63,30 66,20 69,10
70,50 71,80 72,210 73,7999
74,680 75,640 76,40 77,400
78,30 79,20 83,10 85,40
86,10 87,90 88,20 89,60
90,20 91,100 92,20 93,20
96,10 99,10 101,40 102,40
103,240 104,40 105,200 106,30
107,90 108,10 109,10 113,40
114,10 115,270 116,50 117,250
118,40 119,260 120,50 121,500
122,40 123,20 129,20 131,950
132,140 133,1590 134,220 135,1520
136,180 137,110 138,10 143,10
145,30 147,9999 148,1570 149,880
150,100 151,130 152,10 153,10
161,10 163,40 164,10 165,80
166,10 167,10 175,10 176,10
177,120 178,20 179,80 180,10
181,50 189,90 190,20 191,400
192,80 193,180 194,40 195,750
196,110 197,60 205,160 207,7969
208,1670 209,1190 210,290 211,80
212,10 221,470 222,110 223,100
224,20 225,90 226,10 227,10
267,20 269,10 281,10 283,1520
284,370 285,200 286,30 287,10
297,110 298,7169 299,1810 300,970
301,160 302,40
##END=
