##TITLE=Thiophene, tetrahydro-2-methyl-
##JCAMP-DX=4.24
##DATA TYPE=MASS SPECTRUM
##ORIGIN=Japan AIST/NIMC Database- Spectrum MS-NW- 160
##OWNER=NIST Mass Spectrometry Data Center
Collection (C) 2014 copyright by the U.S. Secretary of Commerce
on behalf of the United States of America. All rights reserved.
##CAS REGISTRY NO=1795-09-1
##$NIST MASS SPEC NO=229231
##MOLFORM=C5 H10 S
##MW=102
##$NIST SOURCE=MSDC
##XUNITS=M/Z
##YUNITS=RELATIVE INTENSITY
##XFACTOR=1
##YFACTOR=1
##FIRSTX=15
##LASTX=105
##FIRSTY=90
##MAXX=105
##MINX=15
##MAXY=9999
##MINY=20
##NPOINTS=64
##PEAK TABLE=(XY..XY)
15,90 18,30 26,129 27,889
28,179 29,379 32,30 33,20
34,30 35,90 37,60 38,139
39,1289 40,189 41,2139 42,239
43,70 44,40 45,2049 46,569
47,639 48,40 49,40 50,80
51,99 52,30 53,699 54,159
55,979 56,389 57,99 58,479
59,1739 60,1469 61,559 62,80
63,40 65,99 66,20 67,639
68,589 69,309 70,20 71,99
72,20 73,309 74,1559 75,80
76,70 84,20 85,379 86,40
87,9999 88,559 89,449 90,20
91,20 97,20 99,40 101,399
102,4429 103,309 104,219 105,20
##END=
