##TITLE=Thiophene, 2,3,4-trimethyl-
##JCAMP-DX=4.24
##DATA TYPE=MASS SPECTRUM
##OWNER=NIST Mass Spectrometry Data Center
Collection (C) 2014 copyright by the U.S. Secretary of Commerce
on behalf of the United States of America. All rights reserved.
##CAS REGISTRY NO=1795-04-6
##$NIST MASS SPEC NO=2535
##MOLFORM=C7 H10 S
##MW=126
##$NIST SOURCE=MSDC
##XUNITS=M/Z
##YUNITS=RELATIVE INTENSITY
##XFACTOR=1
##YFACTOR=1
##FIRSTX=24
##LASTX=129
##FIRSTY=10
##MAXX=129
##MINX=24
##MAXY=9999
##MINY=10
##NPOINTS=97
##PEAK TABLE=(XY..XY)
24,10 25,30 26,320 27,1812
28,230 29,150 30,10 31,10
32,90 33,50 34,40 35,20
36,20 37,230 38,430 39,2242
40,260 41,961 42,50 43,30
44,50 45,2722 46,160 47,260
48,20 49,100 50,611 51,1031
52,310 53,821 54,70 55,120
56,30 57,140 58,460 59,1191
60,120 61,250 62,360 63,370
64,70 65,591 66,180 67,410
68,70 69,731 70,220 71,721
72,140 73,80 74,90 75,40
76,20 77,881 78,290 79,280
80,40 81,250 82,100 83,110
84,110 85,310 86,40 87,20
89,30 90,20 91,791 92,240
93,280 94,30 95,90 96,30
97,721 98,70 99,90 100,10
101,10 105,10 106,10 107,10
108,20 109,140 110,340 111,9999
112,1121 113,490 114,50 115,10
121,20 122,10 123,150 124,130
125,5805 126,6136 127,741 128,290
129,20
##END=
