##TITLE=Pentane, 1-ethoxy-
##JCAMP-DX=4.24
##DATA TYPE=MASS SPECTRUM
##ORIGIN=CARL DJERASSI DEPT OF CHEM STANFORD UNIV STANFORD CALIF 94305
##OWNER=NIST Mass Spectrometry Data Center
Collection (C) 2014 copyright by the U.S. Secretary of Commerce
on behalf of the United States of America. All rights reserved.
##CAS REGISTRY NO=17952-11-3
##$NIST MASS SPEC NO=46375
##MOLFORM=C7 H16 O
##MW=116
##$NIST SOURCE=MSDC
##XUNITS=M/Z
##YUNITS=RELATIVE INTENSITY
##XFACTOR=1
##YFACTOR=1
##FIRSTX=29
##LASTX=116
##FIRSTY=5247
##MAXX=116
##MINX=29
##MAXY=9999
##MINY=99
##NPOINTS=31
##PEAK TABLE=(XY..XY)
29,5247 30,297 31,9405 32,198
33,99 38,99 39,1386 40,297
41,3267 42,2574 43,3465 44,396
45,792 47,1386 50,99 51,99
53,198 54,99 55,1485 56,297
57,297 58,99 59,9999 60,396
61,99 69,495 70,3465 71,1386
72,99 73,297 116,297
##END=
