##TITLE=Cyclopentane, decyl-
##JCAMP-DX=4.24
##DATA TYPE=MASS SPECTRUM
##ORIGIN=NIST Mass Spectrometry Data Center, 1990.
##OWNER=NIST Mass Spectrometry Data Center
Collection (C) 2014 copyright by the U.S. Secretary of Commerce
on behalf of the United States of America. All rights reserved.
##CAS REGISTRY NO=1795-21-7
##$NIST MASS SPEC NO=118900
##MOLFORM=C15 H30
##MW=210
##$NIST SOURCE=MSDC
##XUNITS=M/Z
##YUNITS=RELATIVE INTENSITY
##XFACTOR=1
##YFACTOR=1
##FIRSTX=15
##LASTX=212
##FIRSTY=35
##MAXX=212
##MINX=15
##MAXY=9999
##MINY=9
##NPOINTS=81
##PEAK TABLE=(XY..XY)
15,35 18,44 26,115 27,1563
28,901 29,2769 30,80 32,64
39,1654 41,9600 42,1824 43,4890
44,170 50,21 51,99 52,85
53,865 54,1238 55,7836 56,3337
57,3853 58,169 63,12 64,13
65,230 66,12 67,3222 68,8430
69,9999 70,3239 71,1709 72,91
77,127 78,42 79,265 80,12
81,735 82,3700 83,7504 84,2303
85,1029 86,69 91,54 93,40
94,28 95,367 96,1241 97,4734
98,1421 99,288 100,9 109,109
110,681 111,2658 112,1032 113,118
123,53 124,387 125,1505 126,643
127,77 137,34 138,259 139,552
140,512 141,115 152,126 153,265
154,310 155,31 166,69 167,127
168,110 169,19 180,29 181,100
182,501 183,70 210,999 211,149
212,22
##END=
