##TITLE=Cyclohexane, 1,3,5-trimethyl-, (1.alpha.,3.alpha.,5.beta.)-
##JCAMP-DX=4.24
##DATA TYPE=MASS SPECTRUM
##ORIGIN=NIST Mass Spectrometry Data Center, 1990.
##OWNER=NIST Mass Spectrometry Data Center
Collection (C) 2014 copyright by the U.S. Secretary of Commerce
on behalf of the United States of America. All rights reserved.
##CAS REGISTRY NO=1795-26-2
##$NIST MASS SPEC NO=114263
##MOLFORM=C9 H18
##MW=126
##$NIST SOURCE=MSDC
##XUNITS=M/Z
##YUNITS=RELATIVE INTENSITY
##XFACTOR=1
##YFACTOR=1
##FIRSTX=15
##LASTX=127
##FIRSTY=67
##MAXX=127
##MINX=15
##MAXY=9999
##MINY=10
##NPOINTS=54
##PEAK TABLE=(XY..XY)
15,67 27,878 28,147 29,836
30,19 37,15 39,2039 40,540
41,4047 42,1366 43,950 44,106
45,27 46,10 50,89 51,240
52,112 53,769 54,10 55,5616
56,2045 57,680 58,33 62,18
63,69 65,249 66,88 67,734
68,18 69,9999 70,1314 71,120
77,206 78,46 79,184 80,37
81,181 82,122 83,769 84,466
85,53 91,83 92,13 93,26
95,228 96,43 97,232 98,30
109,64 111,6881 112,617 113,24
126,2924 127,272
##END=
