##TITLE=Cyclohexane, decyl-
##JCAMP-DX=4.24
##DATA TYPE=MASS SPECTRUM
##ORIGIN=NIST Mass Spectrometry Data Center, 1990.
##OWNER=NIST Mass Spectrometry Data Center
Collection (C) 2014 copyright by the U.S. Secretary of Commerce
on behalf of the United States of America. All rights reserved.
##CAS REGISTRY NO=1795-16-0
##$NIST MASS SPEC NO=118889
##MOLFORM=C16 H32
##MW=224
##$NIST SOURCE=MSDC
##XUNITS=M/Z
##YUNITS=RELATIVE INTENSITY
##XFACTOR=1
##YFACTOR=1
##FIRSTX=14
##LASTX=226
##FIRSTY=7
##MAXX=226
##MINX=14
##MAXY=9999
##MINY=1
##NPOINTS=73
##PEAK TABLE=(XY..XY)
14,7 15,29 16,1 17,12
18,16 27,778 28,361 29,1416
30,31 32,18 39,703 41,3996
42,711 43,2085 44,65 50,7
51,26 53,374 54,734 55,6702
56,956 57,1036 58,43 63,7
65,85 67,1970 68,447 69,1243
70,545 71,351 72,22 77,75
79,142 82,9144 83,9999 84,867
85,194 86,12 91,29 92,9
93,14 94,11 95,74 96,222
97,867 98,215 99,41 109,31
110,74 111,326 112,157 113,19
123,7 124,29 125,107 126,41
138,27 139,107 140,211 141,69
152,19 153,27 154,17 155,5
166,8 167,14 168,7 181,10
182,6 196,18 224,645 225,114
226,12
##END=
