##TITLE=2-Butenedioic acid, (E)-, 2TMS derivative
##JCAMP-DX=4.24
##DATA TYPE=MASS SPECTRUM
##ORIGIN=O A MAMER, MCGILL UNIVERSITY, MONTREAL, CANADA
##OWNER=NIST Mass Spectrometry Data Center
Collection (C) 2014 copyright by the U.S. Secretary of Commerce
on behalf of the United States of America. All rights reserved.
##CAS REGISTRY NO=17962-03-7
##$NIST MASS SPEC NO=78901
##MOLFORM=C10 H20 O4 Si2
##MW=260
##$NIST SOURCE=MSDC
##XUNITS=M/Z
##YUNITS=RELATIVE INTENSITY
##XFACTOR=1
##YFACTOR=1
##FIRSTX=15
##LASTX=248
##FIRSTY=323
##MAXX=248
##MINX=15
##MAXY=9999
##MINY=37
##NPOINTS=82
##PEAK TABLE=(XY..XY)
15,323 18,75 26,191 27,136
28,508 29,276 31,128 39,135
40,146 41,76 42,109 43,984
44,478 45,2736 46,194 47,901
51,124 52,88 53,706 54,351
55,278 57,163 58,634 59,600
60,159 61,563 66,210 67,151
68,259 69,302 70,81 71,101
72,296 73,9884 74,984 75,4014
76,291 77,159 82,144 83,899
84,511 85,213 89,80 97,101
98,163 99,134 103,87 113,156
115,923 116,98 117,177 119,76
126,149 127,244 128,129 131,155
133,813 134,123 135,92 142,87
143,1726 144,218 145,98 147,5794
148,920 149,781 150,102 155,390
156,90 157,249 170,105 171,167
191,45 201,91 208,37 215,127
217,214 230,78 245,9999 246,2060
247,945 248,133
##END=
