##TITLE=Adenine, 2TMS derivative
##JCAMP-DX=4.24
##DATA TYPE=MASS SPECTRUM
##ORIGIN=NIST Mass Spectrometry Data Center
##OWNER=NIST Mass Spectrometry Data Center
Collection (C) 2014 copyright by the U.S. Secretary of Commerce
on behalf of the United States of America. All rights reserved.
##CAS REGISTRY NO=17995-04-9
##$NIST MASS SPEC NO=332927
##MOLFORM=C11 H21 N5 Si2
##MW=279
##$NIST SOURCE=MSDC
##XUNITS=M/Z
##YUNITS=RELATIVE INTENSITY
##XFACTOR=1
##YFACTOR=1
##FIRSTX=15
##LASTX=283
##FIRSTY=10
##MAXX=283
##MINX=15
##MAXY=9999
##MINY=10
##NPOINTS=183
##PEAK TABLE=(XY..XY)
15,10 27,10 28,30 29,60
30,10 31,20 41,10 42,40
43,390 44,200 45,1031 46,80
47,40 52,10 53,30 54,80
55,100 56,100 57,130 58,310
59,180 60,40 61,10 63,10
64,10 65,10 66,20 67,20
68,50 69,100 70,130 71,90
72,150 73,3974 74,520 75,160
76,20 78,10 79,10 80,10
81,20 82,20 83,30 84,631
85,310 86,90 87,20 88,20
89,10 90,10 92,20 93,30
94,20 95,60 96,40 97,40
98,70 99,330 100,190 101,80
102,20 103,10 104,10 107,20
108,20 109,30 110,60 111,260
112,40 113,30 114,20 115,10
116,30 117,10 118,10 119,20
120,10 121,10 122,30 123,90
125,300 126,40 127,20 128,10
129,10 130,90 131,20 132,20
134,10 135,60 136,30 137,80
138,90 139,30 140,20 141,40
142,20 143,10 146,10 147,10
148,10 149,50 150,50 151,50
152,60 153,20 154,20 155,20
156,10 157,50 158,10 161,10
162,50 163,20 164,120 165,360
166,70 167,50 168,30 169,10
171,30 172,10 173,10 175,10
176,120 177,40 178,30 179,100
180,140 181,30 182,20 183,20
184,10 189,10 190,20 191,150
192,1101 193,180 194,90 195,20
196,20 197,10 204,10 205,20
206,350 207,130 208,40 209,20
210,20 211,10 218,10 219,10
220,10 221,90 222,80 223,30
224,20 234,60 235,30 236,50
237,200 238,110 239,30 240,10
247,10 248,120 249,30 250,30
251,30 252,20 253,10 262,40
264,9999 265,2512 266,991 267,150
268,30 278,300 279,2472 280,601
281,230 282,40 283,10
##END=
