##TITLE=1,3,5,7-Tetrasilatricyclo[3.3.1.1<3,7>]decane,1,3,5,7-tetramethyl)-
##JCAMP-DX=4.24
##DATA TYPE=MASS SPECTRUM
##ORIGIN=V.G.Zaikin, Petrochem. Synth. Inst., Moscow
##OWNER=NIST Mass Spectrometry Data Center
Collection (C) 2014 copyright by the U.S. Secretary of Commerce
on behalf of the United States of America. All rights reserved.
##CAS REGISTRY NO=17995-33-4
##$NIST MASS SPEC NO=280746
##MOLFORM=C10 H24 Si4
##MW=256
##$NIST SOURCE=MSDC
##XUNITS=M/Z
##YUNITS=RELATIVE INTENSITY
##XFACTOR=1
##YFACTOR=1
##FIRSTX=55
##LASTX=258
##FIRSTY=130
##MAXX=258
##MINX=55
##MAXY=9999
##MINY=20
##NPOINTS=75
##PEAK TABLE=(XY..XY)
55,130 57,60 59,651 67,60
69,150 71,150 73,540 81,100
83,170 84,60 85,300 86,90
87,90 95,100 97,120 98,80
99,430 100,120 101,140 106,110
109,70 111,110 112,60 113,2192
114,1091 115,300 123,110 124,20
125,190 126,20 127,250 128,30
129,100 139,110 140,20 141,230
142,70 143,100 153,150 154,60
155,200 156,70 157,230 167,80
168,30 169,250 170,80 171,290
172,80 173,50 181,100 183,250
184,100 185,200 195,80 197,220
198,80 199,180 211,180 212,200
213,260 214,100 215,60 225,200
226,80 227,290 228,80 229,30
241,9999 242,1752 243,380 244,110
256,150 257,30 258,30
##END=
