##TITLE=Spiro[5.5]undecane
##JCAMP-DX=4.24
##DATA TYPE=MASS SPECTRUM
##OWNER=NIST Mass Spectrometry Data Center
Collection (C) 2014 copyright by the U.S. Secretary of Commerce
on behalf of the United States of America. All rights reserved.
##CAS REGISTRY NO=180-43-8
##$NIST MASS SPEC NO=4794
##MOLFORM=C11 H20
##MW=152
##$NIST SOURCE=MSDC
##XUNITS=M/Z
##YUNITS=RELATIVE INTENSITY
##XFACTOR=1
##YFACTOR=1
##FIRSTX=36
##LASTX=155
##FIRSTY=10
##MAXX=155
##MINX=36
##MAXY=9999
##MINY=10
##NPOINTS=120
##PEAK TABLE=(XY..XY)
36,10 37,50 38,220 39,4794
40,931 41,8878 42,1021 43,841
44,30 45,10 46,20 47,10
48,10 49,10 50,200 51,641
52,410 53,2222 54,2242 55,5865
56,540 57,150 58,20 59,10
60,10 61,10 62,40 63,160
64,50 65,611 66,530 67,9999
68,2522 69,1461 70,220 71,60
72,10 73,10 74,20 75,20
76,10 77,741 78,210 79,1211
80,641 81,8047 82,4374 83,1251
84,120 85,70 86,10 87,10
88,10 89,20 90,10 91,350
92,70 93,350 94,220 95,2572
96,9709 97,1792 98,120 99,10
100,10 101,10 102,10 103,20
104,10 105,40 106,10 107,100
108,290 109,6926 110,1351 111,110
112,10 113,10 114,10 115,20
116,10 117,10 118,10 119,10
120,10 121,10 122,20 123,280
124,400 125,40 126,10 127,10
128,10 129,10 130,10 131,10
132,10 133,10 134,10 135,10
136,10 137,50 138,10 139,10
140,10 141,10 142,10 143,10
144,10 145,10 146,10 147,10
148,10 149,10 150,10 151,20
152,6306 153,781 154,50 155,10
##END=
