##TITLE=Benzyl(ethenyl)dimethylsilane
##JCAMP-DX=4.24
##DATA TYPE=MASS SPECTRUM
##ORIGIN=V.Zaikin,Topchiev Inst.Petrochem.Synth.,Moscow
##OWNER=NIST Mass Spectrometry Data Center
Collection (C) 2014 copyright by the U.S. Secretary of Commerce
on behalf of the United States of America. All rights reserved.
##CAS REGISTRY NO=18001-46-2
##$NIST MASS SPEC NO=281923
##MOLFORM=C11 H16 Si
##MW=176
##$NIST SOURCE=MSDC
##XUNITS=M/Z
##YUNITS=RELATIVE INTENSITY
##XFACTOR=1
##YFACTOR=1
##FIRSTX=26
##LASTX=177
##FIRSTY=140
##MAXX=177
##MINX=26
##MAXY=9999
##MINY=20
##NPOINTS=89
##PEAK TABLE=(XY..XY)
26,140 27,400 28,50 29,380
31,681 36,20 37,60 38,170
39,1241 40,120 41,210 42,250
43,2172 44,400 45,711 46,50
50,280 51,530 52,200 53,761
54,190 55,631 56,140 57,140
58,330 59,5125 60,430 61,260
62,160 63,591 64,140 65,1531
66,310 67,290 68,80 69,290
70,190 71,150 72,50 73,40
74,40 75,120 77,270 78,120
79,250 81,30 83,140 84,120
85,9999 86,951 87,460 89,280
90,130 91,1742 92,130 93,250
95,60 101,40 103,140 104,20
105,400 106,70 107,310 108,60
115,190 116,40 117,120 118,80
119,250 121,611 122,60 123,20
129,50 131,240 133,130 134,20
135,200 136,70 143,50 145,240
146,30 148,80 149,140 159,140
161,300 162,20 163,40 176,691
177,110
##END=
