##TITLE=1,4-Butanediol, 2TMS derivative
##JCAMP-DX=4.24
##DATA TYPE=MASS SPECTRUM
##ORIGIN=D.HENNEBERG, MAX-PLANCK INSTITUTE, MULHEIM, WEST GERMANY
##OWNER=NIST Mass Spectrometry Data Center
Collection (C) 2014 copyright by the U.S. Secretary of Commerce
on behalf of the United States of America. All rights reserved.
##CAS REGISTRY NO=18001-91-7
##$NIST MASS SPEC NO=63317
##MOLFORM=C10 H26 O2 Si2
##MW=234
##$NIST SOURCE=MSDC
##XUNITS=M/Z
##YUNITS=RELATIVE INTENSITY
##XFACTOR=1
##YFACTOR=1
##FIRSTX=23
##LASTX=234
##FIRSTY=2
##MAXX=234
##MINX=23
##MAXY=9999
##MINY=1
##NPOINTS=144
##PEAK TABLE=(XY..XY)
23,2 24,7 25,12 26,39
27,218 28,211 29,367 30,36
31,133 33,7 34,8 35,10
36,50 37,35 38,15 39,163
40,29 41,341 42,216 43,628
44,332 45,1714 46,133 47,638
48,42 49,32 50,12 51,31
52,45 53,66 54,44 55,1988
56,101 57,97 58,309 59,996
60,136 61,385 62,34 63,22
65,9 66,934 67,84 68,12
69,36 70,42 71,213 72,316
73,6517 74,621 75,1789 76,119
77,184 78,17 79,9 81,410
82,38 83,14 84,8 85,93
86,23 87,153 88,188 89,68
90,22 91,13 92,18 93,31
94,16 95,13 96,11 97,15
98,4 99,161 100,42 101,1360
102,310 103,1250 104,122 105,92
106,9 107,4 108,5 109,6
111,9 113,33 114,13 115,163
116,4972 117,687 118,245 119,82
120,18 121,20 122,93 123,38
124,4 127,13 128,10 129,72
130,16 131,502 132,84 133,717
134,103 135,60 136,7 137,4
138,3 139,6 140,4 141,1
142,12 143,99 144,45 145,77
147,9999 148,1596 149,860 150,93
151,27 152,4 158,2 159,1
161,9 162,1 163,49 164,9
165,2 173,4 175,19 176,10
177,893 178,168 179,71 180,7
181,1 214,8 217,1 219,192
220,33 221,18 222,2 234,6
##END=
