##TITLE=Carbazole, 1,4-dimethyl-
##JCAMP-DX=4.24
##DATA TYPE=MASS SPECTRUM
##ORIGIN=TRC, TEXAS A&M UNIV., COLLEGE STATION, TEXAS, USA
##OWNER=NIST Mass Spectrometry Data Center
Collection (C) 2014 copyright by the U.S. Secretary of Commerce
on behalf of the United States of America. All rights reserved.
##CAS REGISTRY NO=18028-55-2
##$NIST MASS SPEC NO=138125
##MOLFORM=C14 H13 N
##MW=195
##$NIST SOURCE=MSDC
##XUNITS=M/Z
##YUNITS=RELATIVE INTENSITY
##XFACTOR=1
##YFACTOR=1
##FIRSTX=40
##LASTX=197
##FIRSTY=20
##MAXX=197
##MINX=40
##MAXY=9999
##MINY=10
##NPOINTS=95
##PEAK TABLE=(XY..XY)
40,20 41,20 42,10 49,10
50,140 51,219 52,109 53,39
54,10 61,29 62,140 63,329
64,80 65,99 66,20 73,10
74,190 75,279 76,209 77,430
78,60 79,10 86,120 87,180
88,109 89,279 90,410 92,10
99,80 100,49 101,99 102,89
103,29 104,20 109,20 110,29
111,49 112,20 113,159 114,120
115,240 116,70 117,60 118,20
122,20 123,20 124,20 125,60
126,149 127,200 128,159 129,29
130,29 135,20 137,60 138,60
139,350 140,230 141,120 142,20
143,20 149,20 150,130 151,300
152,669 153,240 154,159 155,29
161,10 162,29 163,140 164,200
165,559 166,379 167,760 168,250
169,29 175,10 176,70 177,190
178,439 179,449 180,5020 181,770
182,49 188,20 189,29 190,209
191,629 192,739 193,1079 194,5320
195,9999 196,1460 197,120
##END=
