##TITLE=1(2H)-Naphthalenone, octahydro-4a,8a-dimethyl-7-(1-methylethyl)-, [4aR-(4a.alpha.,7.beta.,8a.alpha.)]-
##JCAMP-DX=4.24
##DATA TYPE=MASS SPECTRUM
##ORIGIN=NIST Mass Spectrometry Data Center
##OWNER=NIST Mass Spectrometry Data Center
Collection (C) 2014 copyright by the U.S. Secretary of Commerce
on behalf of the United States of America. All rights reserved.
##CAS REGISTRY NO=1803-39-0
##$NIST MASS SPEC NO=412666
##MOLFORM=C15 H26 O
##MW=222
##$NIST SOURCE=MSDC
##XUNITS=M/Z
##YUNITS=RELATIVE INTENSITY
##XFACTOR=1
##YFACTOR=1
##FIRSTX=26
##LASTX=224
##FIRSTY=20
##MAXX=224
##MINX=26
##MAXY=9999
##MINY=10
##NPOINTS=133
##PEAK TABLE=(XY..XY)
26,20 27,941 28,170 29,1131
30,30 38,40 39,1722 40,420
41,7026 42,1061 43,3803 44,130
45,40 46,10 47,10 48,10
50,50 51,260 52,170 53,1742
54,530 55,6065 56,691 57,1181
58,60 59,90 62,20 63,60
64,30 65,831 66,561 67,6406
68,1712 69,6396 70,871 71,520
72,30 75,20 76,30 77,1221
78,230 79,1992 80,460 81,5035
82,2372 83,3063 84,1061 85,270
86,30 89,40 90,10 91,1131
92,160 93,1381 94,420 95,5935
96,1301 97,1591 98,9989 99,731
100,50 103,100 104,50 105,911
106,330 107,1101 108,571 109,5085
110,2032 111,991 112,150 113,60
115,70 117,70 119,480 120,110
121,1031 122,561 123,5105 124,851
125,9999 126,1141 127,150 133,340
134,100 135,911 136,330 137,711
138,691 139,510 140,80 141,30
147,170 148,150 149,380 151,1551
152,460 153,140 154,30 155,20
156,10 161,1371 162,230 163,90
164,120 165,210 166,240 167,80
168,100 169,20 178,70 179,1221
180,280 181,40 182,10 183,300
184,50 189,440 190,60 191,20
193,40 194,20 198,140 199,20
204,400 205,70 207,911 208,150
209,10 221,10 222,3623 223,591
224,50
##END=
