##TITLE=4-Pyrimidinamine, N-(trimethylsilyl)-2-[(trimethylsilyl)oxy]-
##JCAMP-DX=4.24
##DATA TYPE=MASS SPECTRUM
##ORIGIN=NIST Mass Spectrometry Data Center
##OWNER=NIST Mass Spectrometry Data Center
Collection (C) 2014 copyright by the U.S. Secretary of Commerce
on behalf of the United States of America. All rights reserved.
##CAS REGISTRY NO=18037-10-0
##$NIST MASS SPEC NO=332817
##MOLFORM=C10 H21 N3 O Si2
##MW=255
##$NIST SOURCE=MSDC
##XUNITS=M/Z
##YUNITS=RELATIVE INTENSITY
##XFACTOR=1
##YFACTOR=1
##FIRSTX=15
##LASTX=259
##FIRSTY=20
##MAXX=259
##MINX=15
##MAXY=9999
##MINY=10
##NPOINTS=167
##PEAK TABLE=(XY..XY)
15,20 26,10 27,20 28,30
29,100 30,20 31,40 39,20
40,30 41,30 42,70 43,591
44,390 45,1461 46,120 47,90
51,10 52,60 53,50 54,90
55,150 56,130 57,150 58,290
59,430 60,90 61,50 63,30
66,60 67,80 68,150 69,130
70,370 71,160 72,470 73,4454
74,751 75,390 76,40 77,190
80,10 81,20 82,110 83,80
84,350 85,140 86,280 87,60
88,30 89,10 90,10 91,40
93,20 94,50 95,200 96,80
97,250 98,3123 99,530 100,1481
101,290 102,100 103,40 104,370
107,10 108,10 109,60 110,60
111,70 112,1932 114,270 115,90
116,140 117,60 118,20 119,10
120,40 121,10 122,10 123,90
124,90 125,731 126,120 127,110
128,40 129,30 130,641 131,280
132,160 133,80 134,20 135,10
136,30 137,20 138,50 139,70
140,120 141,70 142,40 143,30
144,10 146,540 147,1101 148,210
149,90 150,170 151,30 152,120
153,40 154,60 155,110 156,190
157,140 158,60 159,20 160,10
164,10 165,10 166,80 167,80
168,470 169,90 170,2252 171,440
172,220 173,40 174,10 180,30
181,40 182,450 183,130 184,90
185,20 186,10 194,20 195,20
196,20 197,220 198,60 199,40
200,10 208,10 210,80 211,40
212,40 213,130 214,30 215,10
222,10 224,230 225,60 226,30
227,10 238,1001 239,280 240,9999
241,2122 242,891 243,110 244,20
252,30 254,9889 255,4764 256,1471
257,360 258,50 259,10
##END=
