##TITLE=Disiloxane, 1,1,3,3-tetramethyl-1,3-bis(4-methylphenyl)-
##JCAMP-DX=4.24
##DATA TYPE=MASS SPECTRUM
##ORIGIN=ASES Database, Dalian Institute, P.R. China
##OWNER=NIST Mass Spectrometry Data Center
Collection (C) 2014 copyright by the U.S. Secretary of Commerce
on behalf of the United States of America. All rights reserved.
##CAS REGISTRY NO=18055-70-4
##$NIST MASS SPEC NO=148696
##MOLFORM=C18 H26 O Si2
##MW=314
##$NIST SOURCE=MSDC
##XUNITS=M/Z
##YUNITS=RELATIVE INTENSITY
##XFACTOR=1
##YFACTOR=1
##FIRSTX=73
##LASTX=316
##FIRSTY=680
##MAXX=316
##MINX=73
##MAXY=9999
##MINY=90
##NPOINTS=21
##PEAK TABLE=(XY..XY)
73,680 96,400 97,100 142,490
143,100 149,5454 150,890 151,390
207,7436 208,1481 209,900 223,390
225,1080 226,700 283,790 299,9999
300,3082 301,1101 314,800 315,390
316,90
##END=
