##TITLE=2,6-Difluorobenzamide
##JCAMP-DX=4.24
##DATA TYPE=MASS SPECTRUM
##ORIGIN=NIST Mass Spectrometry Data Center
##OWNER=NIST Mass Spectrometry Data Center
Collection (C) 2014 copyright by the U.S. Secretary of Commerce
on behalf of the United States of America. All rights reserved.
##CAS REGISTRY NO=18063-03-1
##$NIST MASS SPEC NO=343215
##MOLFORM=C7 H5 F2 N O
##MW=157
##$NIST SOURCE=MSDC
##XUNITS=M/Z
##YUNITS=RELATIVE INTENSITY
##XFACTOR=1
##YFACTOR=1
##FIRSTX=15
##LASTX=158
##FIRSTY=10
##MAXX=158
##MINX=15
##MAXY=9999
##MINY=10
##NPOINTS=45
##PEAK TABLE=(XY..XY)
15,10 16,170 17,50 28,10
31,450 33,60 37,410 38,110
39,140 43,90 44,1331 50,530
51,180 52,90 56,180 57,380
61,370 62,611 63,2712 64,250
68,460 69,240 70,170 73,140
74,480 75,360 81,290 82,100
87,160 88,310 92,240 93,510
94,360 100,130 101,200 108,130
112,430 113,4104 114,851 128,100
139,400 141,9999 142,821 157,5375
158,440
##END=
