##TITLE=Phosphoric acid, trioctyl ester
##JCAMP-DX=4.24
##DATA TYPE=MASS SPECTRUM
##ORIGIN=NIST Mass Spectrometry Data Center, 1998.
##OWNER=NIST Mass Spectrometry Data Center
Collection (C) 2014 copyright by the U.S. Secretary of Commerce
on behalf of the United States of America. All rights reserved.
##CAS REGISTRY NO=1806-54-8
##$NIST MASS SPEC NO=291501
##MOLFORM=C24 H51 O4 P
##MW=434
##$NIST SOURCE=MSDC
##XUNITS=M/Z
##YUNITS=RELATIVE INTENSITY
##XFACTOR=1
##YFACTOR=1
##FIRSTX=27
##LASTX=435
##FIRSTY=80
##MAXX=435
##MINX=27
##MAXY=9999
##MINY=10
##NPOINTS=81
##PEAK TABLE=(XY..XY)
27,80 29,260 30,10 31,10
39,90 40,20 41,900 42,150
43,980 44,40 45,40 51,10
52,10 53,70 54,110 55,1120
56,350 57,2230 58,100 59,10
65,20 66,10 67,160 68,100
69,870 70,630 71,1770 72,100
77,20 79,40 80,10 81,130
82,200 83,470 84,160 85,30
91,10 93,10 95,60 96,30
97,80 98,10 99,9999 100,30
101,130 109,20 110,30 111,220
112,1250 113,3670 114,300 115,20
123,10 124,10 125,50 126,20
127,10 137,30 138,10 139,50
151,20 152,30 153,160 154,10
165,10 167,30 180,10 181,130
182,10 193,10 195,30 209,20
211,940 212,80 213,10 223,10
225,30 323,340 324,60 325,10
435,10
##END=
