##TITLE=di-n-Propylaminoacetonitrile
##JCAMP-DX=4.24
##DATA TYPE=MASS SPECTRUM
##ORIGIN=NIST Mass Spectrometry Data Center
##OWNER=NIST Mass Spectrometry Data Center
Collection (C) 2014 copyright by the U.S. Secretary of Commerce
on behalf of the United States of America. All rights reserved.
##CAS REGISTRY NO=18071-35-7
##$NIST MASS SPEC NO=342535
##MOLFORM=C8 H16 N2
##MW=140
##$NIST SOURCE=MSDC
##XUNITS=M/Z
##YUNITS=RELATIVE INTENSITY
##XFACTOR=1
##YFACTOR=1
##FIRSTX=14
##LASTX=141
##FIRSTY=100
##MAXX=141
##MINX=14
##MAXY=9999
##MINY=10
##NPOINTS=49
##PEAK TABLE=(XY..XY)
14,100 15,781 16,10 27,3663
28,1251 29,581 30,530 37,80
39,1812 40,1271 41,5295 42,9999
43,4554 44,180 50,10 51,20
52,80 53,80 54,310 55,200
56,400 57,100 58,30 66,130
67,540 69,6866 70,931 71,60
72,70 80,20 81,30 82,150
83,731 84,150 85,10 86,40
95,30 96,20 97,40 98,20
107,10 109,90 111,6075 112,470
113,20 114,150 115,10 140,500
141,40
##END=
