##TITLE=11.alpha.-Hydroxy-17.alpha.-methyl testosterone
##JCAMP-DX=4.24
##DATA TYPE=MASS SPECTRUM
##ORIGIN=Patti Price, Georgia Bureau of Investigation, Decatur, Georgia
##OWNER=NIST Mass Spectrometry Data Center
Collection (C) 2014 copyright by the U.S. Secretary of Commerce
on behalf of the United States of America. All rights reserved.
##CAS REGISTRY NO=1807-02-9
##$NIST MASS SPEC NO=248230
##MOLFORM=C20 H30 O3
##MW=318
##$NIST SOURCE=MSDC
##XUNITS=M/Z
##YUNITS=RELATIVE INTENSITY
##XFACTOR=1
##YFACTOR=1
##FIRSTX=41
##LASTX=320
##FIRSTY=4163
##MAXX=320
##MINX=41
##MAXY=9999
##MINY=10
##NPOINTS=249
##PEAK TABLE=(XY..XY)
41,4163 43,9999 45,200 50,10
51,280 52,230 53,1781 54,240
55,4654 56,300 57,1381 58,1311
59,250 60,10 61,20 62,10
63,90 64,20 65,1121 66,480
67,2942 68,540 69,1801 70,310
71,3783 72,650 73,100 75,10
76,20 77,3503 78,750 79,4283
80,670 81,2242 82,370 83,1040
84,200 85,400 86,60 87,80
88,10 89,90 90,90 91,5534
92,850 93,3122 94,1211 95,3333
96,980 97,1111 98,140 99,180
100,50 101,40 102,40 103,540
104,360 105,4183 106,1451 107,4514
108,2292 109,4714 110,1241 111,1191
112,480 113,360 114,60 115,800
116,360 117,1281 118,760 119,3973
120,1811 121,5364 122,4764 123,5384
124,8307 125,1611 126,170 127,260
128,600 129,930 130,370 131,1801
132,650 133,2512 134,2141 135,2542
136,1391 137,6635 138,1441 139,250
140,10 141,350 142,350 143,1221
144,490 145,1751 146,810 147,2111
148,2051 149,1791 150,410 151,350
152,190 153,190 154,80 155,440
156,280 157,920 158,780 159,2272
160,990 161,1801 162,920 163,3222
164,1040 165,460 166,120 167,160
168,80 169,430 170,210 171,790
172,480 173,1311 174,930 175,740
176,510 177,1141 178,640 179,390
180,80 181,190 182,110 183,590
184,360 185,870 186,450 187,1211
188,640 189,520 190,250 191,400
192,140 193,130 194,320 195,800
196,180 197,540 198,440 199,990
200,940 201,690 202,230 203,250
204,100 205,100 206,90 207,260
208,70 209,390 210,120 211,640
212,320 213,560 214,520 215,1020
216,400 217,290 218,150 219,60
220,40 221,10 222,40 223,110
224,270 225,710 226,300 227,1251
228,350 229,830 230,460 231,120
232,130 233,170 234,80 235,20
237,20 238,40 239,520 240,440
241,250 242,2532 243,1361 244,300
245,1431 246,290 247,230 248,160
249,200 250,20 251,10 252,10
253,90 254,100 255,60 256,170
257,290 258,200 259,120 260,390
261,2422 262,470 263,40 264,50
265,80 266,10 267,710 268,150
269,10 271,30 272,160 273,30
274,10 275,50 276,50 280,10
281,10 282,650 283,200 284,20
285,760 286,120 287,10 289,10
290,140 291,10 292,10 298,10
299,10 300,2842 301,620 302,70
303,60 304,10 318,2282 319,500
320,20
##END=
