##TITLE=Cyclohexene,3-cyclohexyl-
##JCAMP-DX=4.24
##DATA TYPE=MASS SPECTRUM
##ORIGIN=S.A. Rang et al., IR & MS of Unsatd. Hydrocarbons, 1977
##OWNER=NIST Mass Spectrometry Data Center
Collection (C) 2014 copyright by the U.S. Secretary of Commerce
on behalf of the United States of America. All rights reserved.
##CAS REGISTRY NO=1808-09-9
##$NIST MASS SPEC NO=142704
##MOLFORM=C12 H20
##MW=164
##$NIST SOURCE=MSDC
##XUNITS=M/Z
##YUNITS=RELATIVE INTENSITY
##XFACTOR=1
##YFACTOR=1
##FIRSTX=15
##LASTX=166
##FIRSTY=22
##MAXX=166
##MINX=15
##MAXY=9999
##MINY=3
##NPOINTS=95
##PEAK TABLE=(XY..XY)
15,22 16,6 25,16 26,111
27,1104 28,135 29,1063 37,13
38,38 39,1754 40,230 41,5533
42,251 43,272 45,38 50,70
51,283 52,230 53,1513 54,1431
55,8421 56,345 57,32 58,13
59,13 62,10 63,70 64,29
65,586 66,377 67,6073 68,777
69,209 70,13 73,41 74,10
75,45 76,26 77,1227 78,387
79,3374 80,2969 81,6613 82,9999
83,5938 84,303 85,10 89,29
90,10 91,1145 92,167 93,544
94,366 95,345 96,617 97,544
98,157 100,10 101,3 102,13
103,57 104,48 105,124 106,45
107,345 108,377 109,303 110,45
115,48 116,22 117,41 118,10
119,32 120,26 121,460 122,460
123,124 124,6 127,6 128,13
129,10 130,6 131,6 133,10
134,13 135,356 136,118 137,16
149,156 150,16 160,10 162,29
164,2969 165,293 166,45
##END=
