##TITLE=Phosphonic acid, bis(1-methylethyl) ester
##JCAMP-DX=4.24
##DATA TYPE=MASS SPECTRUM
##ORIGIN=Japan AIST/NIMC Database- Spectrum MS-NW-1020
##OWNER=NIST Mass Spectrometry Data Center
Collection (C) 2014 copyright by the U.S. Secretary of Commerce
on behalf of the United States of America. All rights reserved.
##CAS REGISTRY NO=1809-20-7
##$NIST MASS SPEC NO=230654
##MOLFORM=C6 H15 O3 P
##MW=166
##$NIST SOURCE=MSDC
##XUNITS=M/Z
##YUNITS=RELATIVE INTENSITY
##XFACTOR=1
##YFACTOR=1
##FIRSTX=14
##LASTX=152
##FIRSTY=20
##MAXX=152
##MINX=14
##MAXY=9999
##MINY=10
##NPOINTS=62
##PEAK TABLE=(XY..XY)
14,20 15,229 16,10 17,20
18,70 19,20 26,70 27,919
28,219 29,129 31,169 32,50
36,30 37,60 38,109 39,889
40,229 41,1689 42,869 43,2639
44,149 45,3429 46,70 47,269
48,10 49,10 55,10 57,30
58,30 59,1079 60,30 62,10
63,10 64,10 65,709 66,60
67,10 68,10 69,50 79,10
80,10 81,50 82,209 83,9999
84,10 85,60 87,20 91,80
92,20 105,20 106,10 107,90
108,40 109,9109 110,229 111,60
123,379 124,239 125,249 126,10
151,279 152,20
##END=
