##TITLE=2-Methyl-n-1-tridecene
##JCAMP-DX=4.24
##DATA TYPE=MASS SPECTRUM
##ORIGIN=NIST Mass Spectrometry Data Center, 1990.
##OWNER=NIST Mass Spectrometry Data Center
Collection (C) 2014 copyright by the U.S. Secretary of Commerce
on behalf of the United States of America. All rights reserved.
##CAS REGISTRY NO=18094-01-4
##$NIST MASS SPEC NO=113614
##MOLFORM=C14 H28
##MW=196
##$NIST SOURCE=MSDC
##XUNITS=M/Z
##YUNITS=RELATIVE INTENSITY
##XFACTOR=1
##YFACTOR=1
##FIRSTX=27
##LASTX=196
##FIRSTY=1392
##MAXX=196
##MINX=27
##MAXY=9999
##MINY=65
##NPOINTS=44
##PEAK TABLE=(XY..XY)
27,1392 28,898 29,2701 32,109
39,1454 40,468 41,5677 42,957
43,2961 44,136 51,71 52,65
53,607 54,524 55,4156 56,9999
57,4683 58,184 65,94 66,77
67,711 68,607 69,3689 70,1675
71,497 79,115 81,252 82,397
83,1222 84,755 85,293 95,99
96,230 97,954 98,309 110,124
111,599 112,250 125,168 126,72
140,292 168,200 181,106 196,374
##END=
