##TITLE=1-Triethylsilyloxyhexane
##JCAMP-DX=4.24
##DATA TYPE=MASS SPECTRUM
##ORIGIN=V.G. Zaikin, TIPS RAS, Moscow, Russia
##OWNER=NIST Mass Spectrometry Data Center
Collection (C) 2014 copyright by the U.S. Secretary of Commerce
on behalf of the United States of America. All rights reserved.
##CAS REGISTRY NO=18107-40-9
##$NIST MASS SPEC NO=278946
##MOLFORM=C12 H28 O Si
##MW=216
##$NIST SOURCE=MSDC
##XUNITS=M/Z
##YUNITS=RELATIVE INTENSITY
##XFACTOR=1
##YFACTOR=1
##FIRSTX=27
##LASTX=216
##FIRSTY=2712
##MAXX=216
##MINX=27
##MAXY=9999
##MINY=30
##NPOINTS=109
##PEAK TABLE=(XY..XY)
27,2712 28,360 29,3793 30,150
31,1081 35,40 36,170 37,60
38,80 39,1191 40,210 41,3293
42,961 43,3083 44,591 45,2192
46,130 47,2252 48,110 49,90
50,240 51,260 52,360 53,310
54,180 55,2883 56,1491 57,1291
58,591 59,2132 60,270 61,581
62,40 63,150 64,60 65,160
66,130 67,190 68,290 69,1131
70,1131 71,611 72,190 73,891
74,220 75,5675 76,480 77,290
78,80 79,390 80,60 81,60
82,180 83,1231 84,611 85,290
86,130 87,1952 88,290 89,1091
90,60 91,80 92,80 93,390
94,80 95,110 96,40 97,260
98,140 99,270 100,60 101,691
102,60 103,2582 104,260 105,210
107,40 111,90 112,230 113,80
115,911 116,80 117,480 118,60
119,40 121,290 122,40 123,90
127,60 128,40 129,591 130,40
131,60 133,60 135,80 140,40
145,40 157,70 159,370 160,60
161,90 173,40 186,220 187,9999
188,1551 189,651 190,80 215,40
216,30
##END=
