##TITLE=1,1'-Biphenyl, 2-ethyl-
##JCAMP-DX=4.24
##DATA TYPE=MASS SPECTRUM
##OWNER=NIST Mass Spectrometry Data Center
Collection (C) 2014 copyright by the U.S. Secretary of Commerce
on behalf of the United States of America. All rights reserved.
##CAS REGISTRY NO=1812-51-7
##$NIST MASS SPEC NO=7577
##MOLFORM=C14 H14
##MW=182
##$NIST SOURCE=MSDC
##XUNITS=M/Z
##YUNITS=RELATIVE INTENSITY
##XFACTOR=1
##YFACTOR=1
##FIRSTX=36
##LASTX=188
##FIRSTY=10
##MAXX=188
##MINX=36
##MAXY=9999
##MINY=10
##NPOINTS=126
##PEAK TABLE=(XY..XY)
36,10 37,60 38,220 39,1171
40,90 41,110 42,10 43,10
44,20 48,10 49,20 50,601
51,1171 52,280 53,150 54,10
55,10 56,10 57,10 58,10
59,10 60,10 61,60 62,310
63,931 64,240 65,280 66,20
67,30 68,10 69,50 70,70
71,30 73,20 74,360 75,450
76,931 77,911 78,250 79,100
80,10 81,110 82,741 83,1131
84,70 85,30 86,140 87,250
88,270 89,711 90,300 91,420
92,20 95,10 97,10 98,100
99,80 100,40 101,100 102,260
103,220 104,90 105,210 106,20
109,10 110,30 111,30 112,10
113,110 114,60 115,791 116,110
117,30 118,10 121,10 122,20
123,10 124,10 125,30 126,230
127,250 128,550 129,110 130,10
131,10 134,10 135,10 136,10
137,30 138,50 139,470 140,80
141,330 142,70 143,10 149,20
150,150 151,430 152,2272 153,561
154,250 155,120 156,20 161,10
162,30 163,290 164,360 165,4324
166,1802 167,9999 168,1461 169,100
170,10 174,10 175,20 176,150
177,110 178,581 179,320 180,140
181,901 182,7106 183,1101 184,70
185,10 188,10
##END=
