##TITLE=Pyrazine, 3,5-diethyl-2-methyl-
##JCAMP-DX=4.24
##DATA TYPE=MASS SPECTRUM
##OWNER=NIST Mass Spectrometry Data Center
Collection (C) 2014 copyright by the U.S. Secretary of Commerce
on behalf of the United States of America. All rights reserved.
##CAS REGISTRY NO=18138-05-1
##$NIST MASS SPEC NO=4659
##MOLFORM=C9 H14 N2
##MW=150
##$NIST SOURCE=MSDC
##XUNITS=M/Z
##YUNITS=RELATIVE INTENSITY
##XFACTOR=1
##YFACTOR=1
##FIRSTX=26
##LASTX=152
##FIRSTY=170
##MAXX=152
##MINX=26
##MAXY=9999
##MINY=20
##NPOINTS=55
##PEAK TABLE=(XY..XY)
26,170 27,1111 28,811 29,420
38,200 39,1852 40,270 41,671
42,1211 50,220 51,490 52,811
53,1361 54,1211 55,170 56,991
57,50 62,20 63,70 64,150
65,250 66,170 67,490 68,150
77,20 78,70 79,170 80,400
81,150 92,20 93,50 94,170
95,70 105,20 106,50 107,571
108,100 109,20 119,20 120,50
121,250 122,1461 123,200 124,20
133,20 134,220 135,1331 136,150
137,20 147,170 148,20 149,9999
150,7837 151,841 152,20
##END=
