##TITLE=Pyrazine, 2,3-diethyl-5-methyl-
##JCAMP-DX=4.24
##DATA TYPE=MASS SPECTRUM
##ORIGIN=Japan AIST/NIMC Database- Spectrum MS-NW-9251
##OWNER=NIST Mass Spectrometry Data Center
Collection (C) 2014 copyright by the U.S. Secretary of Commerce
on behalf of the United States of America. All rights reserved.
##CAS REGISTRY NO=18138-04-0
##$NIST MASS SPEC NO=236562
##MOLFORM=C9 H14 N2
##MW=150
##$NIST SOURCE=MSDC
##XUNITS=M/Z
##YUNITS=RELATIVE INTENSITY
##XFACTOR=1
##YFACTOR=1
##FIRSTX=15
##LASTX=152
##FIRSTY=40
##MAXX=152
##MINX=15
##MAXY=9999
##MINY=10
##NPOINTS=77
##PEAK TABLE=(XY..XY)
15,40 18,20 26,40 27,369
28,869 29,329 30,20 32,10
37,30 38,129 39,1579 40,579
41,639 42,339 43,20 44,10
50,50 51,159 52,249 53,389
54,489 55,179 56,3389 57,129
60,10 61,20 62,10 63,50
64,80 65,209 66,449 67,559
68,99 69,10 73,20 74,10
76,10 77,99 78,90 79,139
80,159 81,109 82,50 83,30
91,20 92,50 93,179 94,529
95,219 96,50 104,10 105,30
106,50 107,289 108,129 109,50
117,10 118,50 119,50 120,199
121,1979 122,1099 123,209 124,10
131,10 132,50 133,499 134,469
135,7059 136,709 137,30 147,99
148,80 149,6069 150,9999 151,1079
152,50
##END=
