##TITLE=1-Heptanol, TMS derivative
##JCAMP-DX=4.24
##DATA TYPE=MASS SPECTRUM
##ORIGIN=NIST Mass Spectrometry Data Center
##OWNER=NIST Mass Spectrometry Data Center
Collection (C) 2014 copyright by the U.S. Secretary of Commerce
on behalf of the United States of America. All rights reserved.
##CAS REGISTRY NO=18132-93-9
##$NIST MASS SPEC NO=333078
##MOLFORM=C10 H24 O Si
##MW=188
##$NIST SOURCE=MSDC
##XUNITS=M/Z
##YUNITS=RELATIVE INTENSITY
##XFACTOR=1
##YFACTOR=1
##FIRSTX=15
##LASTX=189
##FIRSTY=10
##MAXX=189
##MINX=15
##MAXY=9999
##MINY=10
##NPOINTS=93
##PEAK TABLE=(XY..XY)
15,10 26,10 27,210 28,60
29,440 30,10 31,20 39,200
40,40 41,611 42,130 43,550
44,100 45,601 46,40 47,300
48,20 49,10 51,10 52,10
53,70 55,1301 56,170 57,170
58,230 59,520 60,100 61,510
62,30 63,20 65,10 66,10
67,50 68,40 69,290 70,190
71,80 72,140 73,2722 74,320
75,5295 76,410 77,250 78,10
79,10 81,30 83,40 84,10
85,120 86,30 87,300 88,130
89,1401 90,130 91,230 92,20
93,10 95,20 97,1151 98,150
99,260 100,40 101,681 102,90
103,2122 104,200 105,80 111,20
113,50 115,530 116,70 117,40
118,10 127,10 129,190 130,20
131,50 132,10 141,10 143,20
145,20 149,10 157,60 158,10
159,10 171,20 173,9999 174,1872
175,540 176,50 187,30 188,50
189,10
##END=
