##TITLE=Imidazole, TMS derivative
##JCAMP-DX=4.24
##DATA TYPE=MASS SPECTRUM
##ORIGIN=ORVAL A. MAMER, ROYAL VICTORIA HOSPITAL, MONTREAL, CANADA
##OWNER=NIST Mass Spectrometry Data Center
Collection (C) 2014 copyright by the U.S. Secretary of Commerce
on behalf of the United States of America. All rights reserved.
##CAS REGISTRY NO=18156-74-6
##$NIST MASS SPEC NO=23901
##MOLFORM=C6 H12 N2 Si
##MW=140
##$NIST SOURCE=MSDC
##XUNITS=M/Z
##YUNITS=RELATIVE INTENSITY
##XFACTOR=1
##YFACTOR=1
##FIRSTX=15
##LASTX=142
##FIRSTY=228
##MAXX=142
##MINX=15
##MAXY=9999
##MINY=47
##NPOINTS=44
##PEAK TABLE=(XY..XY)
15,228 26,150 27,203 28,224
29,1060 30,115 31,235 39,47
40,148 42,492 43,3152 44,743
45,1468 46,162 49,123 53,356
54,437 55,716 56,425 57,488
58,521 59,226 63,324 69,237
70,1158 71,284 72,358 73,9999
74,872 82,237 83,138 84,389
95,150 97,170 98,5972 99,663
100,261 112,131 125,4210 126,528
127,190 140,5833 141,835 142,278
##END=
