##TITLE=Benzene, 1-nitro-4-(phenylmethyl)-
##JCAMP-DX=4.24
##DATA TYPE=MASS SPECTRUM
##ORIGIN=Japan AIST/NIMC Database- Spectrum MS-IW-5097
##OWNER=NIST Mass Spectrometry Data Center
Collection (C) 2014 copyright by the U.S. Secretary of Commerce
on behalf of the United States of America. All rights reserved.
##CAS REGISTRY NO=1817-77-2
##$NIST MASS SPEC NO=237313
##MOLFORM=C13 H11 N O2
##MW=213
##$NIST SOURCE=MSDC
##XUNITS=M/Z
##YUNITS=RELATIVE INTENSITY
##XFACTOR=1
##YFACTOR=1
##FIRSTX=26
##LASTX=215
##FIRSTY=10
##MAXX=215
##MINX=26
##MAXY=9999
##MINY=10
##NPOINTS=113
##PEAK TABLE=(XY..XY)
26,10 27,70 28,80 30,119
37,10 38,60 39,619 40,50
41,99 50,329 51,649 52,119
53,40 55,90 56,10 57,219
58,20 61,30 62,209 63,869
64,199 65,1099 66,70 68,10
69,399 70,319 71,40 73,10
74,189 75,219 76,359 77,1789
78,289 79,40 81,309 82,1349
83,889 84,20 85,10 86,90
87,149 88,90 89,919 90,419
91,2909 92,249 93,10 98,70
99,30 100,20 101,50 102,169
103,50 104,20 105,159 106,129
107,2099 108,149 109,10 110,20
111,20 112,10 113,119 114,70
115,909 116,99 117,10 125,10
126,119 127,239 128,759 129,169
130,20 136,20 137,40 138,50
139,549 140,99 141,229 142,30
150,50 151,359 152,3349 153,839
154,299 155,219 156,30 161,10
162,40 163,459 164,669 165,7409
166,4959 167,4509 168,709 169,60
177,10 178,239 179,179 180,70
181,119 182,189 183,229 184,30
194,10 195,109 196,1789 197,369
198,40 212,469 213,9999 214,1479
215,139
##END=
