##TITLE=2-Methoxyethanol, TMS derivative
##JCAMP-DX=4.24
##DATA TYPE=MASS SPECTRUM
##ORIGIN=NIST Mass Spectrometry Data Center, 2007
##OWNER=NIST Mass Spectrometry Data Center
Collection (C) 2014 copyright by the U.S. Secretary of Commerce
on behalf of the United States of America. All rights reserved.
##CAS REGISTRY NO=18173-74-5
##$NIST MASS SPEC NO=352071
##MOLFORM=C6 H16 O2 Si
##MW=148
##$NIST SOURCE=MSDC
##XUNITS=M/Z
##YUNITS=RELATIVE INTENSITY
##XFACTOR=1
##YFACTOR=1
##FIRSTX=14
##LASTX=147
##FIRSTY=10
##MAXX=147
##MINX=14
##MAXY=9999
##MINY=10
##NPOINTS=66
##PEAK TABLE=(XY..XY)
14,10 15,260 16,10 26,30
27,110 28,140 29,520 30,50
31,210 32,10 33,10 39,20
41,40 42,130 43,951 44,270
45,1992 46,110 47,280 48,10
49,10 51,30 53,50 54,20
55,110 56,30 57,110 58,811
59,2682 60,270 61,340 62,20
63,10 66,10 69,10 70,40
71,70 72,190 73,6566 74,601
75,1011 76,70 77,60 85,10
86,10 87,90 88,310 89,9999
90,901 91,430 92,20 99,10
101,170 103,2562 104,250 105,100
115,10 116,20 117,80 118,30
119,10 133,4504 134,490 135,190
136,10 147,10
##END=
