##TITLE=Bicyclo[3.1.1]heptane, 6,6-dimethyl-2-methylene-, (1S)-
##JCAMP-DX=4.24
##DATA TYPE=MASS SPECTRUM
##ORIGIN=Japan AIST/NIMC Database- Spectrum MS-NW-3680
##OWNER=NIST Mass Spectrometry Data Center
Collection (C) 2014 copyright by the U.S. Secretary of Commerce
on behalf of the United States of America. All rights reserved.
##CAS REGISTRY NO=18172-67-3
##$NIST MASS SPEC NO=232339
##MOLFORM=C10 H16
##MW=136
##$NIST SOURCE=MSDC
##XUNITS=M/Z
##YUNITS=RELATIVE INTENSITY
##XFACTOR=1
##YFACTOR=1
##FIRSTX=15
##LASTX=137
##FIRSTY=50
##MAXX=137
##MINX=15
##MAXY=9999
##MINY=10
##NPOINTS=72
##PEAK TABLE=(XY..XY)
15,50 26,50 27,919 28,50
29,459 30,10 37,20 38,80
39,1239 40,219 41,4179 42,189
43,479 44,20 50,109 51,339
52,179 53,769 54,109 55,599
56,50 57,30 58,30 59,10
61,10 62,40 63,119 64,40
65,409 66,149 67,909 68,359
69,3899 70,239 71,10 74,20
75,20 76,10 77,1589 78,289
79,1909 80,1079 81,329 82,169
83,20 89,40 90,20 91,1499
92,919 93,9999 94,1369 95,309
96,30 102,10 103,50 104,20
105,239 106,60 107,459 108,169
109,30 115,30 116,10 117,20
119,209 120,30 121,1169 122,119
134,10 135,20 136,899 137,109
##END=
