##TITLE=2-Ethoxypentane
##JCAMP-DX=4.24
##DATA TYPE=MASS SPECTRUM
##ORIGIN=NIST Mass Spectrometry Data Center, 1994
##OWNER=NIST Mass Spectrometry Data Center
Collection (C) 2014 copyright by the U.S. Secretary of Commerce
on behalf of the United States of America. All rights reserved.
##CAS REGISTRY NO=1817-89-6
##$NIST MASS SPEC NO=135175
##MOLFORM=C7 H16 O
##MW=116
##$NIST SOURCE=MSDC
##XUNITS=M/Z
##YUNITS=RELATIVE INTENSITY
##XFACTOR=1
##YFACTOR=1
##FIRSTX=13
##LASTX=116
##FIRSTY=18
##MAXX=116
##MINX=13
##MAXY=9999
##MINY=8
##NPOINTS=44
##PEAK TABLE=(XY..XY)
13,18 14,93 15,556 16,35
17,11 18,8 19,166 26,257
27,2282 28,370 29,2367 30,119
31,481 37,21 39,956 40,184
41,1385 42,703 43,2434 44,21
45,9999 46,237 47,37 50,22
51,39 53,92 55,1494 56,69
57,74 58,47 59,164 65,12
67,25 69,54 70,105 71,314
72,12 73,6092 74,264 75,25
87,52 101,368 102,29 116,60
##END=
