##TITLE=Benzene, 1-(1-methylethyl)-4-nitro-
##JCAMP-DX=4.24
##DATA TYPE=MASS SPECTRUM
##OWNER=NIST Mass Spectrometry Data Center
Collection (C) 2014 copyright by the U.S. Secretary of Commerce
on behalf of the United States of America. All rights reserved.
##CAS REGISTRY NO=1817-47-6
##$NIST MASS SPEC NO=6183
##MOLFORM=C9 H11 N O2
##MW=165
##$NIST SOURCE=MSDC
##XUNITS=M/Z
##YUNITS=RELATIVE INTENSITY
##XFACTOR=1
##YFACTOR=1
##FIRSTX=38
##LASTX=166
##FIRSTY=200
##MAXX=166
##MINX=38
##MAXY=9999
##MINY=100
##NPOINTS=57
##PEAK TABLE=(XY..XY)
38,200 39,1600 40,300 41,2500
42,300 43,700 50,700 51,1700
52,500 53,600 55,300 56,100
57,200 62,200 63,700 64,300
65,1100 66,300 67,200 74,200
75,500 76,500 77,3200 78,2000
79,600 80,200 89,500 90,400
91,3900 92,3100 93,400 101,100
102,500 103,2400 104,3500 105,500
106,200 107,500 115,500 116,100
117,500 118,600 119,1500 120,2400
121,300 133,200 134,100 135,200
136,200 148,800 149,300 150,9999
151,1400 152,200 164,100 165,4000
166,500
##END=
