##TITLE=Benzene, 1,1'-methylenebis[4-nitro-
##JCAMP-DX=4.24
##DATA TYPE=MASS SPECTRUM
##ORIGIN=Japan AIST/NIMC Database- Spectrum MS-NW-2429
##OWNER=NIST Mass Spectrometry Data Center
Collection (C) 2014 copyright by the U.S. Secretary of Commerce
on behalf of the United States of America. All rights reserved.
##CAS REGISTRY NO=1817-74-9
##$NIST MASS SPEC NO=230970
##MOLFORM=C13 H10 N2 O4
##MW=258
##$NIST SOURCE=MSDC
##XUNITS=M/Z
##YUNITS=RELATIVE INTENSITY
##XFACTOR=1
##YFACTOR=1
##FIRSTX=14
##LASTX=261
##FIRSTY=20
##MAXX=261
##MINX=14
##MAXY=9999
##MINY=10
##NPOINTS=173
##PEAK TABLE=(XY..XY)
14,20 15,10 16,20 18,20
26,40 27,209 28,1019 29,20
30,1109 32,179 34,10 37,30
38,99 39,659 40,80 41,50
43,30 44,99 46,40 48,10
49,10 50,509 51,549 52,179
53,40 54,10 55,50 56,10
57,40 61,50 62,289 63,1029
64,339 65,239 66,30 67,10
68,10 69,209 70,80 71,20
73,20 74,259 75,299 76,359
77,1009 78,749 79,70 80,20
81,309 82,589 83,139 84,10
85,20 86,119 87,189 88,119
89,1109 90,589 91,109 92,40
93,30 95,10 97,20 98,60
99,50 100,30 101,80 102,159
103,40 104,40 105,30 106,359
107,1129 108,90 109,20 110,30
111,50 112,20 113,169 114,129
115,659 116,99 117,10 120,40
121,20 123,10 125,30 126,159
127,219 128,229 129,40 130,20
131,10 134,10 135,10 136,70
137,70 138,70 139,869 140,159
141,90 142,30 143,10 144,10
149,10 150,129 151,219 152,919
153,1499 154,1379 155,209 156,20
160,10 161,20 162,70 163,859
164,1159 165,9999 166,3909 167,519
168,60 169,40 170,50 171,10
173,10 174,10 175,10 176,10
177,20 178,40 179,40 180,90
181,549 182,399 183,99 184,20
192,10 193,10 194,50 195,219
196,50 197,30 198,30 199,10
200,20 202,10 205,10 209,20
210,40 211,1129 212,4299 213,619
214,70 223,20 224,20 225,10
226,40 227,60 228,409 229,70
230,10 240,10 241,1169 242,619
243,80 244,10 255,20 256,10
257,40 258,6619 259,999 260,119
261,10
##END=
