##TITLE=tert-Butyltrichlorosilane
##JCAMP-DX=4.24
##DATA TYPE=MASS SPECTRUM
##ORIGIN=NIST Mass Spectrometry Data Center
##OWNER=NIST Mass Spectrometry Data Center
Collection (C) 2014 copyright by the U.S. Secretary of Commerce
on behalf of the United States of America. All rights reserved.
##CAS REGISTRY NO=18171-74-9
##$NIST MASS SPEC NO=341295
##MOLFORM=C4 H9 Cl3 Si
##MW=190
##$NIST SOURCE=MSDC
##XUNITS=M/Z
##YUNITS=RELATIVE INTENSITY
##XFACTOR=1
##YFACTOR=1
##FIRSTX=15
##LASTX=194
##FIRSTY=50
##MAXX=194
##MINX=15
##MAXY=9999
##MINY=10
##NPOINTS=83
##PEAK TABLE=(XY..XY)
15,50 26,30 27,340 29,891
30,20 35,10 36,10 37,40
38,110 39,1221 40,200 41,3203
42,220 43,40 49,10 50,60
51,90 52,30 53,160 54,40
55,330 56,811 57,9999 58,611
59,10 63,851 64,60 65,330
66,50 67,40 73,10 77,20
78,20 79,20 93,10 98,460
99,200 100,320 101,140 102,70
103,70 104,10 105,30 112,90
113,390 114,90 115,270 116,30
117,80 118,10 119,10 120,10
123,60 125,110 126,20 127,50
128,10 129,10 133,2702 134,150
135,2702 136,150 137,991 138,120
139,791 140,110 141,440 142,40
143,80 153,20 154,20 155,50
156,10 157,20 174,20 175,210
176,40 177,200 178,20 179,70
190,40 192,40 194,10
##END=
