##TITLE=(CH3)2NCH2Si(CH3)3
##JCAMP-DX=4.24
##DATA TYPE=MASS SPECTRUM
##ORIGIN=V.V.Takhistov
##OWNER=NIST Mass Spectrometry Data Center
Collection (C) 2014 copyright by the U.S. Secretary of Commerce
on behalf of the United States of America. All rights reserved.
##CAS REGISTRY NO=18182-40-6
##$NIST MASS SPEC NO=280968
##MOLFORM=C6 H17 N Si
##MW=131
##$NIST SOURCE=MSDC
##XUNITS=M/Z
##YUNITS=RELATIVE INTENSITY
##XFACTOR=1
##YFACTOR=1
##FIRSTX=29
##LASTX=132
##FIRSTY=2002
##MAXX=132
##MINX=29
##MAXY=9999
##MINY=200
##NPOINTS=15
##PEAK TABLE=(XY..XY)
29,2002 30,701 31,601 41,200
42,1201 43,1201 44,7507 45,1501
58,9999 59,1101 73,4504 74,500
115,1401 131,1301 132,200
##END=
