##TITLE=Benzene, (octyloxy)-
##JCAMP-DX=4.24
##DATA TYPE=MASS SPECTRUM
##ORIGIN=Japan AIST/NIMC Database- Spectrum MS-IW-4060
##OWNER=NIST Mass Spectrometry Data Center
Collection (C) 2014 copyright by the U.S. Secretary of Commerce
on behalf of the United States of America. All rights reserved.
##CAS REGISTRY NO=1818-07-1
##$NIST MASS SPEC NO=237230
##MOLFORM=C14 H22 O
##MW=206
##$NIST SOURCE=MSDC
##XUNITS=M/Z
##YUNITS=RELATIVE INTENSITY
##XFACTOR=1
##YFACTOR=1
##FIRSTX=27
##LASTX=208
##FIRSTY=129
##MAXX=208
##MINX=27
##MAXY=9999
##MINY=10
##NPOINTS=50
##PEAK TABLE=(XY..XY)
27,129 28,40 29,359 39,159
40,40 41,829 42,169 43,1139
44,40 50,10 51,99 52,10
53,40 54,20 55,629 56,259
57,869 58,50 63,10 64,10
65,199 66,149 67,50 68,30
69,339 70,299 71,469 72,20
76,10 77,529 78,50 79,99
81,10 82,20 83,179 84,80
85,10 90,10 91,20 93,20
94,9999 95,819 96,50 97,20
107,179 108,10 112,30 206,1349
207,209 208,10
##END=
