##TITLE=3-Octen-1-ol
##JCAMP-DX=4.24
##DATA TYPE=MASS SPECTRUM
##OWNER=NIST Mass Spectrometry Data Center
Collection (C) 2014 copyright by the U.S. Secretary of Commerce
on behalf of the United States of America. All rights reserved.
##CAS REGISTRY NO=18185-81-4
##$NIST MASS SPEC NO=2692
##MOLFORM=C8 H16 O
##MW=128
##$NIST SOURCE=MSDC
##XUNITS=M/Z
##YUNITS=RELATIVE INTENSITY
##XFACTOR=1
##YFACTOR=1
##FIRSTX=15
##LASTX=128
##FIRSTY=80
##MAXX=128
##MINX=15
##MAXY=9999
##MINY=20
##NPOINTS=52
##PEAK TABLE=(XY..XY)
15,80 16,20 17,70 18,280
26,70 27,1581 28,1045 29,1912
30,100 31,1461 32,66 39,1792
40,240 41,4834 42,1051 43,1952
44,460 45,180 51,160 52,110
53,951 54,2012 55,9999 56,2382
57,1381 58,200 65,270 66,470
67,3023 68,4404 69,1752 70,651
71,390 72,110 77,170 79,510
81,4134 82,1742 83,330 84,340
85,220 86,80 91,60 93,50
95,961 96,120 97,310 98,120
99,80 100,90 110,1912 128,270
##END=
