##TITLE=3-Aminopyrazole
##JCAMP-DX=4.24
##DATA TYPE=MASS SPECTRUM
##ORIGIN=NIST Mass Spectrometry Data Center
##OWNER=NIST Mass Spectrometry Data Center
Collection (C) 2014 copyright by the U.S. Secretary of Commerce
on behalf of the United States of America. All rights reserved.
##CAS REGISTRY NO=1820-80-0
##$NIST MASS SPEC NO=340428
##MOLFORM=C3 H5 N3
##MW=83
##$NIST SOURCE=MSDC
##XUNITS=M/Z
##YUNITS=RELATIVE INTENSITY
##XFACTOR=1
##YFACTOR=1
##FIRSTX=12
##LASTX=84
##FIRSTY=10
##MAXX=84
##MINX=12
##MAXY=9999
##MINY=10
##NPOINTS=40
##PEAK TABLE=(XY..XY)
12,10 13,20 14,30 15,10
16,20 17,40 18,30 24,10
25,70 26,340 27,711 28,2132
29,1021 30,90 31,70 32,250
36,10 37,40 38,210 39,300
40,621 41,530 42,210 43,811
44,20 50,30 51,240 52,1391
53,731 54,1912 55,540 56,180
57,100 65,10 66,180 67,140
68,20 82,80 83,9999 84,450
##END=
