##TITLE=Pyrazine, 2-methyl-6-(1-propenyl)-, (E)-
##JCAMP-DX=4.24
##DATA TYPE=MASS SPECTRUM
##OWNER=NIST Mass Spectrometry Data Center
Collection (C) 2014 copyright by the U.S. Secretary of Commerce
on behalf of the United States of America. All rights reserved.
##CAS REGISTRY NO=18217-81-7
##$NIST MASS SPEC NO=3186
##MOLFORM=C8 H10 N2
##MW=134
##$NIST SOURCE=MSDC
##XUNITS=M/Z
##YUNITS=RELATIVE INTENSITY
##XFACTOR=1
##YFACTOR=1
##FIRSTX=26
##LASTX=135
##FIRSTY=80
##MAXX=135
##MINX=26
##MAXY=9999
##MINY=30
##NPOINTS=48
##PEAK TABLE=(XY..XY)
26,80 27,430 28,450 37,200
38,681 39,1942 40,1241 41,761
42,510 49,30 50,280 51,330
52,330 53,200 54,50 55,30
61,80 62,180 63,510 64,430
65,1191 66,1491 67,400 68,1041
69,30 76,50 77,100 78,200
79,150 80,50 81,50 90,30
91,30 92,230 93,50 94,180
95,30 106,180 107,150 108,561
109,50 118,100 119,450 131,50
132,200 133,9999 134,4974 135,430
##END=
