##TITLE=Benzene, (ethenylthio)-
##JCAMP-DX=4.24
##DATA TYPE=MASS SPECTRUM
##ORIGIN=Japan AIST/NIMC Database- Spectrum MS-IW-3650
##OWNER=NIST Mass Spectrometry Data Center
Collection (C) 2014 copyright by the U.S. Secretary of Commerce
on behalf of the United States of America. All rights reserved.
##CAS REGISTRY NO=1822-73-7
##$NIST MASS SPEC NO=237983
##MOLFORM=C8 H8 S
##MW=136
##$NIST SOURCE=MSDC
##XUNITS=M/Z
##YUNITS=RELATIVE INTENSITY
##XFACTOR=1
##YFACTOR=1
##FIRSTX=25
##LASTX=139
##FIRSTY=10
##MAXX=139
##MINX=25
##MAXY=9999
##MINY=10
##NPOINTS=84
##PEAK TABLE=(XY..XY)
25,10 26,99 27,359 28,40
32,20 33,10 34,10 36,20
37,70 38,149 39,739 40,50
41,20 44,70 45,519 46,10
47,30 49,40 50,569 51,1429
52,149 53,30 54,10 55,10
57,149 58,539 59,529 60,50
61,80 62,109 63,269 64,50
65,1149 66,789 67,419 68,189
69,659 70,70 71,129 72,10
73,40 74,229 75,159 76,119
77,1199 78,309 79,60 81,99
82,199 83,80 84,349 85,20
86,10 89,109 90,80 91,5379
92,499 93,40 95,40 96,10
97,40 101,10 102,129 103,369
104,60 105,10 106,10 107,20
108,249 109,919 110,559 111,70
112,20 121,459 122,40 123,159
124,20 133,60 134,819 135,9999
136,8909 137,1259 138,439 139,30
##END=
