##TITLE=Benzeneacetonitrile, .alpha.-methyl-
##JCAMP-DX=4.24
##DATA TYPE=MASS SPECTRUM
##ORIGIN=Japan AIST/NIMC Database- Spectrum MS-NW-4643
##OWNER=NIST Mass Spectrometry Data Center
Collection (C) 2014 copyright by the U.S. Secretary of Commerce
on behalf of the United States of America. All rights reserved.
##CAS REGISTRY NO=1823-91-2
##$NIST MASS SPEC NO=234290
##MOLFORM=C9 H9 N
##MW=131
##$NIST SOURCE=MSDC
##XUNITS=M/Z
##YUNITS=RELATIVE INTENSITY
##XFACTOR=1
##YFACTOR=1
##FIRSTX=14
##LASTX=133
##FIRSTY=20
##MAXX=133
##MINX=14
##MAXY=9999
##MINY=10
##NPOINTS=66
##PEAK TABLE=(XY..XY)
14,20 15,90 26,60 27,219
28,30 37,90 38,139 39,549
40,40 41,40 42,20 43,159
44,40 45,50 49,50 50,449
51,1029 52,239 53,60 54,20
57,10 59,30 60,40 61,80
62,169 63,469 64,169 65,199
66,40 73,30 74,149 75,149
76,179 77,949 78,489 79,119
85,20 86,30 87,60 88,119
89,1059 90,319 91,149 92,10
94,10 98,10 99,10 100,10
101,50 102,149 103,689 104,759
105,289 106,20 114,60 115,80
116,9999 117,939 118,50 127,10
128,60 129,50 130,429 131,3449
132,369 133,20
##END=
