##TITLE=2-Pyridinamine, 6-methyl-
##JCAMP-DX=4.24
##DATA TYPE=MASS SPECTRUM
##ORIGIN=Japan AIST/NIMC Database- Spectrum MS-NW-4672
##OWNER=NIST Mass Spectrometry Data Center
Collection (C) 2014 copyright by the U.S. Secretary of Commerce
on behalf of the United States of America. All rights reserved.
##CAS REGISTRY NO=1824-81-3
##$NIST MASS SPEC NO=229845
##MOLFORM=C6 H8 N2
##MW=108
##$NIST SOURCE=MSDC
##XUNITS=M/Z
##YUNITS=RELATIVE INTENSITY
##XFACTOR=1
##YFACTOR=1
##FIRSTX=12
##LASTX=110
##FIRSTY=10
##MAXX=110
##MINX=12
##MAXY=9999
##MINY=10
##NPOINTS=59
##PEAK TABLE=(XY..XY)
12,10 14,20 15,129 16,10
25,10 26,99 27,279 28,359
29,40 30,60 36,20 37,239
38,539 39,1739 40,449 41,959
42,819 43,229 44,50 49,40
50,159 51,269 52,389 53,679
54,399 55,70 56,20 57,10
60,10 61,60 62,109 63,249
64,499 65,549 66,1209 67,259
68,319 69,20 74,10 75,30
76,40 77,30 78,80 79,109
80,5169 81,3969 82,269 83,10
90,30 91,949 92,229 93,409
94,30 105,60 106,50 107,339
108,9999 109,739 110,20
##END=
