##TITLE=3-Methyl-2-butanol, TMS derivative
##JCAMP-DX=4.24
##DATA TYPE=MASS SPECTRUM
##ORIGIN=NIST Mass Spectrometry Data Center
##OWNER=NIST Mass Spectrometry Data Center
Collection (C) 2014 copyright by the U.S. Secretary of Commerce
on behalf of the United States of America. All rights reserved.
##CAS REGISTRY NO=18246-76-9
##$NIST MASS SPEC NO=333063
##MOLFORM=C8 H20 O Si
##MW=160
##$NIST SOURCE=MSDC
##XUNITS=M/Z
##YUNITS=RELATIVE INTENSITY
##XFACTOR=1
##YFACTOR=1
##FIRSTX=15
##LASTX=161
##FIRSTY=20
##MAXX=161
##MINX=15
##MAXY=9999
##MINY=10
##NPOINTS=73
##PEAK TABLE=(XY..XY)
15,20 26,10 27,160 28,30
29,130 30,10 31,20 38,10
39,160 40,20 41,350 42,80
43,701 44,180 45,791 46,60
47,260 48,10 49,10 50,10
51,40 52,10 53,60 54,10
55,190 56,30 57,100 58,250
59,450 60,90 61,360 62,20
63,10 64,10 65,10 67,10
69,20 70,80 71,80 72,110
73,7277 74,761 75,3683 76,260
77,130 83,10 85,30 87,220
88,30 89,20 99,20 101,290
102,170 103,30 104,10 111,10
113,10 115,20 117,9999 118,1331
119,480 120,30 127,10 129,50
130,10 143,20 145,1952 146,260
147,80 148,10 159,120 160,20
161,10
##END=
