##TITLE=Anisole, 2,3,4,5,6-pentachloro-
##JCAMP-DX=4.24
##DATA TYPE=MASS SPECTRUM
##ORIGIN=NIST Mass Spectrometry Data Center, 1990.
##OWNER=NIST Mass Spectrometry Data Center
Collection (C) 2014 copyright by the U.S. Secretary of Commerce
on behalf of the United States of America. All rights reserved.
##CAS REGISTRY NO=1825-21-4
##$NIST MASS SPEC NO=119026
##MOLFORM=C7 H3 Cl5 O
##MW=278
##$NIST SOURCE=MSDC
##XUNITS=M/Z
##YUNITS=RELATIVE INTENSITY
##XFACTOR=1
##YFACTOR=1
##FIRSTX=12
##LASTX=288
##FIRSTY=40
##MAXX=288
##MINX=12
##MAXY=9999
##MINY=1
##NPOINTS=172
##PEAK TABLE=(XY..XY)
12,40 13,66 14,209 15,1446
17,48 18,256 24,27 26,17
28,160 29,400 30,112 31,84
32,72 35,241 36,391 37,154
38,36 40,22 43,50 44,1
47,393 48,110 49,219 50,27
51,17 52,19 59,92 60,850
61,133 63,45 65,218 66,142
67,38 71,610 72,235 73,326
74,75 75,38 83,242 84,121
85,99 86,45 87,265 89,97
90,24 94,161 95,1788 96,209
97,583 98,54 99,18 100,82
101,113 102,49 106,424 107,697
108,591 109,361 110,151 111,62
115,20 117,546 118,475 119,575
120,265 121,201 122,52 123,40
125,19 130,1802 131,201 132,1197
133,95 134,210 135,19 141,829
142,1025 143,1124 144,693 145,525
146,141 147,116 153,37 155,32
158,57 160,39 165,2301 166,170
167,2270 168,169 169,777 170,58
171,88 173,44 175,23 177,556
178,364 179,669 180,644 181,327
182,384 183,70 184,120 193,19
195,24 200,269 201,49 202,351
203,50 204,173 205,18 206,32
207,78 208,41 209,56 210,28
211,18 212,409 213,252 214,666
215,383 216,428 217,237 218,135
219,61 220,22 228,264 230,327
231,53 232,150 235,4365 236,345
237,7498 238,662 239,4592 240,337
241,1608 242,129 243,397 244,43
245,171 247,228 248,74 249,288
250,58 251,183 252,33 253,92
260,21 263,6146 264,509 265,9927
266,925 267,6477 268,485 269,2070
270,124 271,305 272,29 273,26
275,22 278,6025 279,599 280,9999
281,1045 282,5922 283,592 284,2015
285,142 286,339 287,30 288,28
##END=
