##TITLE=Methanol, TMS derivative
##JCAMP-DX=4.24
##DATA TYPE=MASS SPECTRUM
##ORIGIN=Japan AIST/NIMC Database- Spectrum MS-NW-2872
##OWNER=NIST Mass Spectrometry Data Center
Collection (C) 2014 copyright by the U.S. Secretary of Commerce
on behalf of the United States of America. All rights reserved.
##CAS REGISTRY NO=1825-61-2
##$NIST MASS SPEC NO=231172
##MOLFORM=C4 H12 O Si
##MW=104
##$NIST SOURCE=MSDC
##XUNITS=M/Z
##YUNITS=RELATIVE INTENSITY
##XFACTOR=1
##YFACTOR=1
##FIRSTX=15
##LASTX=104
##FIRSTY=129
##MAXX=104
##MINX=15
##MAXY=9999
##MINY=10
##NPOINTS=39
##PEAK TABLE=(XY..XY)
15,129 27,30 28,90 29,139
30,20 31,119 32,20 39,10
41,20 42,99 43,579 44,159
45,439 46,30 47,40 51,10
53,50 54,10 55,50 56,10
57,40 58,339 59,4879 60,349
61,219 71,10 72,30 73,299
74,30 75,169 76,10 77,30
88,60 89,9999 90,849 91,369
92,10 103,20 104,80
##END=
