##TITLE=Naphthalene, 1,5-dichloro-
##JCAMP-DX=4.24
##DATA TYPE=MASS SPECTRUM
##ORIGIN=EP-1352
##OWNER=NIST Mass Spectrometry Data Center
Collection (C) 2014 copyright by the U.S. Secretary of Commerce
on behalf of the United States of America. All rights reserved.
##CAS REGISTRY NO=1825-30-5
##$NIST MASS SPEC NO=43776
##MOLFORM=C10 H6 Cl2
##MW=196
##$NIST SOURCE=MSDC
##XUNITS=M/Z
##YUNITS=RELATIVE INTENSITY
##XFACTOR=1
##YFACTOR=1
##FIRSTX=50
##LASTX=201
##FIRSTY=150
##MAXX=201
##MINX=50
##MAXY=9999
##MINY=45
##NPOINTS=26
##PEAK TABLE=(XY..XY)
50,150 51,350 52,250 73,150
74,750 75,850 76,250 108,50
109,70 110,50 111,60 124,100
125,950 126,2100 127,230 160,600
161,1100 162,350 163,400 164,45
196,9999 197,1100 198,6400 199,600
200,1000 201,120
##END=
