##TITLE=1-Butanol, TMS derivative
##JCAMP-DX=4.24
##DATA TYPE=MASS SPECTRUM
##ORIGIN=NIST Mass Spectrometry Data Center
##OWNER=NIST Mass Spectrometry Data Center
Collection (C) 2014 copyright by the U.S. Secretary of Commerce
on behalf of the United States of America. All rights reserved.
##CAS REGISTRY NO=1825-65-6
##$NIST MASS SPEC NO=333048
##MOLFORM=C7 H18 O Si
##MW=146
##$NIST SOURCE=MSDC
##XUNITS=M/Z
##YUNITS=RELATIVE INTENSITY
##XFACTOR=1
##YFACTOR=1
##FIRSTX=15
##LASTX=149
##FIRSTY=30
##MAXX=149
##MINX=15
##MAXY=9999
##MINY=10
##NPOINTS=72
##PEAK TABLE=(XY..XY)
15,30 26,20 27,210 28,60
29,320 30,10 31,30 38,10
39,150 40,20 41,250 42,70
43,460 44,140 45,871 46,70
47,340 48,20 49,10 50,10
51,10 53,50 54,20 55,160
56,90 57,140 58,300 59,611
60,120 61,480 62,30 63,20
67,10 69,10 70,30 71,70
72,170 73,3283 74,400 75,6726
76,540 77,270 78,10 83,10
85,50 86,10 87,220 88,150
89,1321 90,120 91,60 97,10
99,40 100,10 101,110 102,110
103,2192 104,210 105,90 113,10
115,140 116,20 117,30 129,40
131,9999 132,1431 133,500 134,30
145,60 146,70 147,20 149,10
##END=
