##TITLE=1,1'-Biphenyl, 2,3,4,5,6-pentachloro-
##JCAMP-DX=4.24
##DATA TYPE=MASS SPECTRUM
##ORIGIN=T.L.Hayes, Battelle Columbus Laboratories, Columbus, OH 43221
##OWNER=NIST Mass Spectrometry Data Center
Collection (C) 2014 copyright by the U.S. Secretary of Commerce
on behalf of the United States of America. All rights reserved.
##CAS REGISTRY NO=18259-05-7
##$NIST MASS SPEC NO=80772
##MOLFORM=C12 H5 Cl5
##MW=324
##$NIST SOURCE=MSDC
##XUNITS=M/Z
##YUNITS=RELATIVE INTENSITY
##XFACTOR=1
##YFACTOR=1
##FIRSTX=33
##LASTX=334
##FIRSTY=8
##MAXX=334
##MINX=33
##MAXY=9999
##MINY=4
##NPOINTS=225
##PEAK TABLE=(XY..XY)
33,8 34,24 35,160 36,375
37,198 38,296 39,560 40,214
41,14 43,24 44,58 45,5
47,129 48,24 49,197 50,754
51,1051 52,55 53,6 55,56
56,12 59,11 60,156 61,773
62,336 63,288 66,14 67,74
68,15 71,149 72,230 73,762
74,917 75,536 77,204 78,27
79,550 80,76 81,15 82,15
83,82 84,482 85,661 86,381
87,152 89,40 90,4 91,194
92,2111 93,674 96,430 97,846
98,804 99,388 101,135 103,37
104,10 106,106 107,267 108,753
109,2621 110,2016 111,433 112,32
114,154 115,308 116,129 117,48
118,152 119,167 120,473 121,416
122,639 123,424 124,44 125,125
126,40 127,4110 128,3398 129,1199
130,54 131,238 132,945 133,427
134,301 135,95 136,160 137,157
138,77 141,84 142,241 143,188
144,1739 145,2272 146,1469 147,708
148,360 149,801 150,79 151,8
153,15 155,81 157,168 158,150
159,86 160,139 161,11 162,549
163,756 164,528 165,188 166,65
167,115 168,63 169,105 170,50
171,39 172,41 173,8 177,71
178,10 179,121 180,51 181,95
182,164 183,520 184,2942 185,527
186,967 187,129 188,19 190,8
192,100 193,44 194,100 195,43
196,40 197,11 201,23 202,71
203,59 204,101 205,44 206,67
207,204 208,39 209,24 211,10
212,19 213,5 214,46 215,95
216,55 217,136 218,1003 219,624
220,702 221,366 222,154 223,57
230,39 231,11 232,33 233,9
235,4 237,64 238,22 239,93
240,34 241,55 242,19 243,17
244,4 248,4 249,34 250,46
251,67 252,99 253,177 254,5176
255,815 256,4897 257,653 258,1576
259,193 260,179 261,5 262,32
263,9 264,57 265,29 266,40
267,12 268,33 269,16 272,42
274,56 275,12 276,35 277,7
278,11 281,66 282,6 283,6
284,7 285,17 287,24 288,303
289,178 290,431 291,197 292,230
293,102 294,67 324,6415 325,902
326,9999 327,1334 328,6405 329,837
330,2034 331,278 332,354 333,45
334,23
##END=
