##TITLE=3-Octadecanone
##JCAMP-DX=4.24
##DATA TYPE=MASS SPECTRUM
##ORIGIN=NIST Mass Spectrometry Data Center, 1990.
##OWNER=NIST Mass Spectrometry Data Center
Collection (C) 2014 copyright by the U.S. Secretary of Commerce
on behalf of the United States of America. All rights reserved.
##CAS REGISTRY NO=18261-92-2
##$NIST MASS SPEC NO=113059
##MOLFORM=C18 H36 O
##MW=268
##$NIST SOURCE=MSDC
##XUNITS=M/Z
##YUNITS=RELATIVE INTENSITY
##XFACTOR=1
##YFACTOR=1
##FIRSTX=18
##LASTX=240
##FIRSTY=187
##MAXX=240
##MINX=18
##MAXY=9999
##MINY=132
##NPOINTS=46
##PEAK TABLE=(XY..XY)
18,187 27,1111 28,411 29,4554
39,548 41,4256 42,1054 43,6306
44,267 53,290 54,397 55,3236
56,1092 57,9999 58,454 67,688
68,279 69,1276 70,452 71,2285
72,9193 73,4642 74,209 81,741
82,274 83,1043 84,342 85,2942
86,260 95,885 96,458 97,729
98,243 99,686 109,582 110,265
111,248 113,172 114,304 123,312
125,136 127,154 137,132 141,182
239,1915 240,370
##END=
