##TITLE=5-Octadecanone
##JCAMP-DX=4.24
##DATA TYPE=MASS SPECTRUM
##ORIGIN=NIST Mass Spectrometry Data Center, 1990.
##OWNER=NIST Mass Spectrometry Data Center
Collection (C) 2014 copyright by the U.S. Secretary of Commerce
on behalf of the United States of America. All rights reserved.
##CAS REGISTRY NO=18276-99-8
##$NIST MASS SPEC NO=113051
##MOLFORM=C18 H36 O
##MW=268
##$NIST SOURCE=MSDC
##XUNITS=M/Z
##YUNITS=RELATIVE INTENSITY
##XFACTOR=1
##YFACTOR=1
##FIRSTX=27
##LASTX=239
##FIRSTY=1411
##MAXX=239
##MINX=27
##MAXY=9999
##MINY=126
##NPOINTS=52
##PEAK TABLE=(XY..XY)
27,1411 29,4384 39,858 41,7420
42,1438 43,6204 44,280 53,361
54,416 55,3786 56,1314 57,9999
58,8874 59,1231 67,746 68,345
69,1462 70,539 71,3369 72,944
79,180 81,769 82,573 83,872
85,6514 86,395 95,1065 96,842
97,676 98,268 99,356 100,2519
101,2696 102,156 109,605 110,283
111,366 113,1258 114,319 123,275
124,213 127,453 137,162 138,170
142,173 155,126 166,309 169,185
211,1934 212,319 226,220 239,164
##END=
