##TITLE=2-sec-Butylthiazole
##JCAMP-DX=4.24
##DATA TYPE=MASS SPECTRUM
##ORIGIN=NIST Mass Spectrometry Data Center, 1994
##OWNER=NIST Mass Spectrometry Data Center
Collection (C) 2014 copyright by the U.S. Secretary of Commerce
on behalf of the United States of America. All rights reserved.
##CAS REGISTRY NO=18277-27-5
##$NIST MASS SPEC NO=136559
##MOLFORM=C7 H11 N S
##MW=141
##$NIST SOURCE=MSDC
##XUNITS=M/Z
##YUNITS=RELATIVE INTENSITY
##XFACTOR=1
##YFACTOR=1
##FIRSTX=12
##LASTX=142
##FIRSTY=23
##MAXX=142
##MINX=12
##MAXY=9999
##MINY=1
##NPOINTS=82
##PEAK TABLE=(XY..XY)
12,23 13,47 14,88 15,459
16,1 18,40 24,16 25,44
26,651 27,2847 28,985 29,1844
30,79 32,153 33,67 34,33
37,171 38,377 39,2117 40,471
41,2228 42,222 44,36 45,1237
46,99 47,133 49,37 50,199
51,374 52,481 53,343 54,1021
55,313 56,191 57,1756 58,6207
59,6046 60,536 61,344 62,55
63,59 64,72 65,108 66,90
67,125 68,160 69,180 70,123
71,441 72,104 73,67 75,19
78,52 80,84 81,47 82,73
83,117 84,123 85,273 86,609
87,70 88,34 93,58 96,29
98,939 99,1995 100,172 101,99
110,130 112,9193 113,9999 114,1049
115,470 116,29 123,82 124,157
126,3751 127,302 128,181 140,205
141,257 142,38
##END=
