##TITLE=Benzene, 1-ethyl-2-iodo-
##JCAMP-DX=4.24
##DATA TYPE=MASS SPECTRUM
##ORIGIN=NIST Mass Spectrometry Data Center, 1994
##OWNER=NIST Mass Spectrometry Data Center
Collection (C) 2014 copyright by the U.S. Secretary of Commerce
on behalf of the United States of America. All rights reserved.
##CAS REGISTRY NO=18282-40-1
##$NIST MASS SPEC NO=134682
##MOLFORM=C8 H9 I
##MW=232
##$NIST SOURCE=MSDC
##XUNITS=M/Z
##YUNITS=RELATIVE INTENSITY
##XFACTOR=1
##YFACTOR=1
##FIRSTX=14
##LASTX=233
##FIRSTY=79
##MAXX=233
##MINX=14
##MAXY=9999
##MINY=21
##NPOINTS=52
##PEAK TABLE=(XY..XY)
14,79 15,499 18,59 26,370
27,2264 28,270 29,140 32,21
37,445 38,952 39,2882 40,284
41,116 49,366 50,3301 51,4928
52,979 53,548 61,479 62,1277
63,3051 64,716 65,499 66,69
73,326 74,1495 75,1161 76,1374
77,7106 78,3699 79,4630 80,333
85,123 86,221 87,210 88,123
89,2246 90,3991 91,370 98,176
101,159 102,902 103,3619 104,3195
105,8708 106,820 127,1808 128,422
217,6205 218,460 232,9999 233,984
##END=
