##TITLE=Tetraborane(10)
##JCAMP-DX=4.24
##DATA TYPE=MASS SPECTRUM
##ORIGIN=CCC 0003
##OWNER=NIST Mass Spectrometry Data Center
Collection (C) 2014 copyright by the U.S. Secretary of Commerce
on behalf of the United States of America. All rights reserved.
##CAS REGISTRY NO=18283-93-7
##$NIST MASS SPEC NO=98
##MOLFORM=B4 H10
##MW=54
##$NIST SOURCE=MSDC
##XUNITS=M/Z
##YUNITS=RELATIVE INTENSITY
##XFACTOR=1
##YFACTOR=1
##FIRSTX=10
##LASTX=53
##FIRSTY=701
##MAXX=53
##MINX=10
##MAXY=9999
##MINY=10
##NPOINTS=39
##PEAK TABLE=(XY..XY)
10,701 11,2002 12,731 13,1541
14,40 20,10 21,50 22,170
23,420 24,691 25,450 26,440
27,550 28,20 29,20 30,10
31,40 32,210 33,931 34,2292
35,3603 36,3183 37,3003 38,2762
39,290 40,20 41,90 42,320
43,1161 44,2422 45,3643 46,5585
47,8638 48,9999 49,9869 50,9338
51,1922 52,911 53,30
##END=
