##TITLE=Benzenesulfonamide, N-(4-nitrophenyl)-
##JCAMP-DX=4.24
##DATA TYPE=MASS SPECTRUM
##ORIGIN=Japan AIST/NIMC Database- Spectrum MS-IW-4509
##OWNER=NIST Mass Spectrometry Data Center
Collection (C) 2014 copyright by the U.S. Secretary of Commerce
on behalf of the United States of America. All rights reserved.
##CAS REGISTRY NO=1829-81-8
##$NIST MASS SPEC NO=244498
##MOLFORM=C12 H10 N2 O4 S
##MW=278
##$NIST SOURCE=MSDC
##XUNITS=M/Z
##YUNITS=RELATIVE INTENSITY
##XFACTOR=1
##YFACTOR=1
##FIRSTX=26
##LASTX=282
##FIRSTY=10
##MAXX=282
##MINX=26
##MAXY=9999
##MINY=10
##NPOINTS=107
##PEAK TABLE=(XY..XY)
26,10 27,60 28,10 30,509
37,30 38,149 39,219 40,40
41,60 42,10 44,20 45,30
48,20 49,10 50,309 51,1319
52,289 53,139 54,10 55,10
61,20 62,129 63,689 64,759
65,349 66,50 67,10 69,30
71,10 73,10 74,90 75,99
76,159 77,9999 78,1019 79,109
80,50 81,50 82,10 84,10
88,20 89,30 90,229 91,699
92,129 93,20 94,30 95,10
97,139 98,10 99,10 102,10
103,10 105,30 106,50 107,199
108,90 109,60 110,60 111,10
113,10 114,10 115,60 116,10
117,10 120,10 121,80 122,40
125,369 126,60 127,30 128,30
129,10 137,20 138,80 139,80
140,50 141,8839 142,669 143,459
144,30 153,10 154,30 155,20
156,10 166,99 167,249 168,109
169,20 183,10 184,30 185,10
197,30 213,10 214,30 232,10
248,30 258,10 260,10 262,129
263,20 264,10 278,7709 279,1139
280,479 281,60 282,10
##END=
