##TITLE=Pentanedioic acid, 3-oxo-, dimethyl ester
##JCAMP-DX=4.24
##DATA TYPE=MASS SPECTRUM
##ORIGIN=Japan AIST/NIMC Database- Spectrum MS-NW-3325
##OWNER=NIST Mass Spectrometry Data Center
Collection (C) 2014 copyright by the U.S. Secretary of Commerce
on behalf of the United States of America. All rights reserved.
##CAS REGISTRY NO=1830-54-2
##$NIST MASS SPEC NO=231479
##MOLFORM=C7 H10 O5
##MW=174
##$NIST SOURCE=MSDC
##XUNITS=M/Z
##YUNITS=RELATIVE INTENSITY
##XFACTOR=1
##YFACTOR=1
##FIRSTX=12
##LASTX=175
##FIRSTY=20
##MAXX=175
##MINX=12
##MAXY=9999
##MINY=10
##NPOINTS=93
##PEAK TABLE=(XY..XY)
12,20 13,20 14,169 15,2199
16,20 18,10 25,20 26,119
27,519 28,419 29,849 30,99
31,669 32,349 33,90 36,20
37,40 38,80 39,189 40,80
41,259 42,2279 43,2739 44,389
45,329 46,10 47,20 50,10
53,50 54,20 55,309 56,139
57,1839 58,119 59,5689 60,129
61,30 65,10 66,20 67,40
68,80 69,2419 70,109 71,40
72,40 73,40 74,1289 75,80
76,10 77,10 81,10 83,20
84,139 85,169 86,50 87,30
88,50 89,10 91,10 94,40
96,10 97,10 98,30 99,50
100,169 101,9999 102,479 103,70
105,10 110,40 111,359 112,30
113,70 114,909 115,90 116,109
124,20 125,289 126,20 127,20
128,339 129,70 130,10 133,20
142,1959 143,2219 144,169 145,20
156,179 157,299 158,20 174,149
175,10
##END=
