##TITLE=Pentadecanenitrile
##JCAMP-DX=4.24
##DATA TYPE=MASS SPECTRUM
##ORIGIN=V.G. Zaikin, R.S.Borisov, TIPS RAS, Moscow, Russia
##OWNER=NIST Mass Spectrometry Data Center
Collection (C) 2014 copyright by the U.S. Secretary of Commerce
on behalf of the United States of America. All rights reserved.
##CAS REGISTRY NO=18300-91-9
##$NIST MASS SPEC NO=376724
##MOLFORM=C15 H29 N
##MW=223
##$NIST SOURCE=MSDC
##XUNITS=M/Z
##YUNITS=RELATIVE INTENSITY
##XFACTOR=1
##YFACTOR=1
##FIRSTX=26
##LASTX=223
##FIRSTY=120
##MAXX=223
##MINX=26
##MAXY=9999
##MINY=10
##NPOINTS=102
##PEAK TABLE=(XY..XY)
26,120 27,1441 28,1381 29,3463
30,250 31,190 38,50 39,1211
40,250 41,8267 42,2072 43,9999
44,460 45,20 50,10 51,60
52,70 53,550 54,2292 55,7106
56,3613 57,8638 58,440 60,30
65,60 66,80 67,1141 68,1421
69,5645 70,4604 71,3283 72,210
73,80 74,10 75,70 77,100
78,30 79,470 80,240 81,891
82,4284 83,5685 84,2352 85,1331
86,120 87,10 91,120 92,10
93,400 94,290 95,550 96,6055
97,9709 98,1872 99,380 100,40
101,10 105,10 107,180 108,170
109,210 110,7076 111,4304 112,1121
113,170 115,10 121,100 122,330
123,90 124,4784 125,1421 126,671
127,90 130,10 135,50 136,180
137,30 138,2783 139,581 140,490
141,50 150,40 152,2022 153,320
154,330 155,20 164,10 166,2332
167,320 168,260 169,10 178,10
180,3103 181,450 182,430 183,20
194,2132 195,310 208,390 209,30
222,170 223,10
##END=
