##TITLE=D-Verbenone
##JCAMP-DX=4.24
##DATA TYPE=MASS SPECTRUM
##ORIGIN=G. VON BUNAU MAX-PLANCK-INST., MULHEIM-RUHR, GERMANY FRG
##OWNER=NIST Mass Spectrometry Data Center
Collection (C) 2014 copyright by the U.S. Secretary of Commerce
on behalf of the United States of America. All rights reserved.
##CAS REGISTRY NO=18309-32-5
##$NIST MASS SPEC NO=38883
##MOLFORM=C10 H14 O
##MW=150
##$NIST SOURCE=MSDC
##XUNITS=M/Z
##YUNITS=RELATIVE INTENSITY
##XFACTOR=1
##YFACTOR=1
##FIRSTX=15
##LASTX=152
##FIRSTY=563
##MAXX=152
##MINX=15
##MAXY=9999
##MINY=199
##NPOINTS=79
##PEAK TABLE=(XY..XY)
15,563 26,414 27,5232 28,1490
29,2235 37,199 38,695 39,7318
40,1672 41,6523 42,762 43,3179
44,315 45,232 50,828 51,2119
52,1093 53,2781 54,911 55,3212
56,613 57,199 58,199 59,315
62,281 63,894 64,331 65,2103
66,894 67,2699 68,414 69,1109
70,1391 71,712 75,298 77,2699
78,1308 79,4868 80,5778 81,1623
82,2467 83,1109 84,331 89,348
90,447 91,8742 92,2434 93,2119
94,1606 95,2368 96,646 97,430
103,563 104,497 105,2152 106,1291
107,9999 108,3129 109,2152 110,480
111,364 115,662 116,248 117,960
119,2632 120,447 121,960 122,1838
123,464 132,265 133,331 134,1457
135,6904 136,861 137,414 149,464
150,5596 151,762 152,265
##END=
