##TITLE=trans-2-Butenal 2,4-dinitrophenylhydrazone
##JCAMP-DX=4.24
##DATA TYPE=MASS SPECTRUM
##ORIGIN=Japan AIST/NIMC Database- Spectrum MS-IW-6793
##OWNER=NIST Mass Spectrometry Data Center
Collection (C) 2014 copyright by the U.S. Secretary of Commerce
on behalf of the United States of America. All rights reserved.
##CAS REGISTRY NO=18318-80-4
##$NIST MASS SPEC NO=242109
##MOLFORM=C10 H10 N4 O4
##MW=250
##$NIST SOURCE=MSDC
##XUNITS=M/Z
##YUNITS=RELATIVE INTENSITY
##XFACTOR=1
##YFACTOR=1
##FIRSTX=12
##LASTX=253
##FIRSTY=10
##MAXX=253
##MINX=12
##MAXY=9999
##MINY=10
##NPOINTS=209
##PEAK TABLE=(XY..XY)
12,10 14,30 15,90 16,10
17,269 18,20 25,10 26,269
27,1709 28,2489 29,249 30,1709
31,20 32,10 36,10 37,239
38,659 39,3999 40,729 41,4209
42,489 43,969 44,329 45,20
46,40 48,10 49,40 50,629
51,1649 52,1339 53,2459 54,769
55,669 56,259 57,50 58,20
60,10 61,219 62,949 63,2339
64,1659 65,719 66,469 67,1369
68,2039 69,1759 70,289 71,879
72,70 73,50 74,539 75,1489
76,1009 77,1849 78,1649 79,1209
80,399 81,909 82,199 83,109
84,40 85,20 86,40 87,119
88,309 89,779 90,1139 91,1419
92,709 93,459 94,179 95,80
96,30 97,10 98,10 99,20
100,40 101,279 102,729 103,1359
104,599 105,349 106,339 107,279
108,70 109,20 111,10 113,70
114,209 115,499 116,859 117,789
118,629 119,309 120,159 121,80
122,569 123,60 124,10 125,169
126,99 127,549 128,1769 129,1569
130,2129 131,929 132,259 133,119
134,80 135,99 136,70 137,179
138,60 139,10 140,179 141,189
142,669 143,1369 144,489 145,449
146,219 147,139 148,119 149,119
150,50 151,30 152,289 153,239
154,90 155,1439 156,4019 157,3059
158,1079 159,1089 160,189 161,40
162,60 163,80 164,139 165,139
166,60 167,189 168,249 169,3749
170,739 171,329 172,269 173,339
174,279 175,309 176,259 177,119
178,40 179,10 180,119 181,229
182,50 183,779 184,199 185,569
186,729 187,269 188,349 189,2829
190,469 191,209 192,40 193,80
194,30 195,20 196,10 198,40
200,30 201,539 202,8619 203,9079
204,1209 205,239 206,70 207,20
208,10 210,10 212,10 214,269
215,1899 216,629 217,219 218,519
219,109 220,40 222,20 223,10
224,10 228,10 230,40 231,829
232,399 233,5569 234,919 235,5579
236,639 237,80 238,10 248,119
249,319 250,9999 251,1429 252,179
253,20
##END=
