##TITLE=Cedren-13-ol, 8-
##JCAMP-DX=4.24
##DATA TYPE=MASS SPECTRUM
##ORIGIN=Mark Whitten, Florida Museum of Natural History, U. of Florida
##OWNER=NIST Mass Spectrometry Data Center
Collection (C) 2014 copyright by the U.S. Secretary of Commerce
on behalf of the United States of America. All rights reserved.
##CAS REGISTRY NO=18319-35-2
##$NIST MASS SPEC NO=141107
##MOLFORM=C15 H24 O
##MW=220
##$NIST SOURCE=MSDC
##XUNITS=M/Z
##YUNITS=RELATIVE INTENSITY
##XFACTOR=1
##YFACTOR=1
##FIRSTX=41
##LASTX=222
##FIRSTY=6396
##MAXX=222
##MINX=41
##MAXY=9999
##MINY=21
##NPOINTS=128
##PEAK TABLE=(XY..XY)
41,6396 42,616 43,4523 44,179
45,295 50,141 51,789 52,387
53,2225 55,4462 56,576 57,819
58,405 59,96 61,31 63,268
65,1498 66,363 67,1850 68,1514
69,1106 70,190 71,955 72,132
73,40 74,21 75,60 77,3497
78,827 79,2940 80,628 81,2596
82,356 83,637 84,1226 85,252
86,65 87,21 89,125 91,5913
92,2249 93,4839 94,1158 95,2159
96,501 97,640 98,120 99,61
101,39 102,104 103,510 105,5481
106,1734 107,1845 108,517 109,860
110,305 111,178 112,48 113,48
115,834 116,326 117,1053 119,9999
120,1734 121,2718 122,681 123,492
124,138 125,84 126,58 127,143
128,428 129,435 130,231 131,1917
132,3681 133,2035 134,626 135,518
136,200 137,253 138,107 139,103
140,62 141,110 142,96 143,161
145,2189 146,737 147,1106 148,342
149,255 150,122 151,80 152,126
153,45 156,24 157,57 159,702
160,490 161,1388 162,435 163,435
164,238 165,77 171,28 173,550
174,161 175,48 176,24 177,130
178,52 179,26 187,713 188,243
189,1876 190,305 191,153 192,45
202,791 203,154 204,44 205,102
206,40 220,1767 221,302 222,55
##END=
