##TITLE=N-Ethyl-2-methylallylamine
##JCAMP-DX=4.24
##DATA TYPE=MASS SPECTRUM
##ORIGIN=Chuck Anderson, Aldrich Chemical Co.
##OWNER=NIST Mass Spectrometry Data Center
Collection (C) 2014 copyright by the U.S. Secretary of Commerce
on behalf of the United States of America. All rights reserved.
##CAS REGISTRY NO=18328-90-0
##$NIST MASS SPEC NO=108413
##MOLFORM=C6 H13 N
##MW=99
##$NIST SOURCE=MSDC
##XUNITS=M/Z
##YUNITS=RELATIVE INTENSITY
##XFACTOR=1
##YFACTOR=1
##FIRSTX=14
##LASTX=100
##FIRSTY=25
##MAXX=100
##MINX=14
##MAXY=9999
##MINY=4
##NPOINTS=55
##PEAK TABLE=(XY..XY)
14,25 15,259 17,7 18,216
25,4 26,246 27,2279 28,3367
29,3056 30,6838 31,116 32,11
34,8 37,72 38,204 39,1916
40,323 41,1398 42,1903 43,1126
44,1878 45,62 46,16 47,9
49,9 50,118 51,177 52,129
53,547 54,189 55,4766 56,1463
57,317 58,9999 59,340 65,23
66,4 67,388 68,275 69,144
70,828 71,391 72,19 79,77
80,77 81,189 82,547 83,11
84,7771 85,359 94,4 96,40
98,611 99,1735 100,131
##END=
