##TITLE=Phosphonic acid, methyl-, monoethyl ester
##JCAMP-DX=4.24
##DATA TYPE=MASS SPECTRUM
##ORIGIN=I. Potec et al., Cent. Eur. J. Chem., 8(6), 2010, 1251-1265
##OWNER=NIST Mass Spectrometry Data Center
Collection (C) 2014 copyright by the U.S. Secretary of Commerce
on behalf of the United States of America. All rights reserved.
##CAS REGISTRY NO=1832-53-7
##$NIST MASS SPEC NO=383771
##MOLFORM=C3 H9 O3 P
##MW=124
##$NIST SOURCE=MSDC
##XUNITS=M/Z
##YUNITS=RELATIVE INTENSITY
##XFACTOR=1
##YFACTOR=1
##FIRSTX=40
##LASTX=123
##FIRSTY=130
##MAXX=123
##MINX=40
##MAXY=9999
##MINY=130
##NPOINTS=30
##PEAK TABLE=(XY..XY)
40,130 42,130 43,400 44,210
45,1401 47,1822 48,320 49,320
51,130 56,130 57,130 58,130
61,130 63,210 64,130 65,2202
71,130 73,130 78,731 79,8698
80,2322 81,2512 89,210 91,210
96,400 97,9999 98,130 99,130
109,711 123,210
##END=
