##TITLE=2,5-Diaminobenzophenone
##JCAMP-DX=4.24
##DATA TYPE=MASS SPECTRUM
##ORIGIN=Institute of Organic Chemistry, USSR, 1990
##OWNER=NIST Mass Spectrometry Data Center
Collection (C) 2014 copyright by the U.S. Secretary of Commerce
on behalf of the United States of America. All rights reserved.
##CAS REGISTRY NO=18330-94-4
##$NIST MASS SPEC NO=111125
##MOLFORM=C13 H12 N2 O
##MW=212
##$NIST SOURCE=MSDC
##XUNITS=M/Z
##YUNITS=RELATIVE INTENSITY
##XFACTOR=1
##YFACTOR=1
##FIRSTX=50
##LASTX=213
##FIRSTY=290
##MAXX=213
##MINX=50
##MAXY=9999
##MINY=240
##NPOINTS=33
##PEAK TABLE=(XY..XY)
50,290 51,1290 52,1060 53,1120
54,410 63,590 64,290 65,290
77,4240 78,650 79,710 80,1770
81,290 90,350 91,650 105,1940
106,1290 107,3820 108,470 135,1060
166,650 167,530 181,290 182,410
183,650 184,240 193,290 194,350
195,650 196,240 211,9999 212,9410
213,1290
##END=
