##TITLE=Heptadecane, 2,6,10,14-tetramethyl-
##JCAMP-DX=4.24
##DATA TYPE=MASS SPECTRUM
##ORIGIN=W. VAN HOEVEN, UNIV. OF CALIFORNIA, BERKELEY, USA
##OWNER=NIST Mass Spectrometry Data Center
Collection (C) 2014 copyright by the U.S. Secretary of Commerce
on behalf of the United States of America. All rights reserved.
##CAS REGISTRY NO=18344-37-1
##$NIST MASS SPEC NO=14104
##MOLFORM=C21 H44
##MW=296
##$NIST SOURCE=MSDC
##XUNITS=M/Z
##YUNITS=RELATIVE INTENSITY
##XFACTOR=1
##YFACTOR=1
##FIRSTX=40
##LASTX=296
##FIRSTY=170
##MAXX=296
##MINX=40
##MAXY=9999
##MINY=5
##NPOINTS=104
##PEAK TABLE=(XY..XY)
40,170 41,3520 42,1050 43,8950
44,350 45,30 50,10 51,40
52,10 53,190 54,130 55,2790
56,2110 57,9999 58,380 59,10
60,10 61,5 65,20 66,10
67,180 68,150 69,1210 70,1260
71,6320 72,320 73,20 77,10
79,30 81,80 82,40 83,280
84,430 85,2340 86,140 95,40
96,80 97,270 98,110 99,470
100,40 101,5 102,5 103,5
104,5 105,10 106,5 107,10
108,5 109,30 110,20 111,110
112,370 113,530 114,50 115,5
117,5 119,5 121,5 123,20
124,5 125,30 126,90 127,210
128,20 129,5 133,5 135,5
136,5 137,10 138,5 139,20
140,140 141,350 142,40 143,5
149,5 151,5 153,5 154,40
155,90 156,10 167,5 168,5
169,40 170,5 182,80 183,180
184,30 185,5 196,5 197,20
198,5 210,40 211,100 212,20
225,5 226,10 252,10 253,20
254,5 267,5 281,10 296,5
##END=
