##TITLE=2,3-Difluorobenzoyl chloride
##JCAMP-DX=4.24
##DATA TYPE=MASS SPECTRUM
##ORIGIN=NIST Mass Spectrometry Data Center, 1994
##OWNER=NIST Mass Spectrometry Data Center
Collection (C) 2014 copyright by the U.S. Secretary of Commerce
on behalf of the United States of America. All rights reserved.
##CAS REGISTRY NO=18355-73-2
##$NIST MASS SPEC NO=136487
##MOLFORM=C7 H3 Cl F2 O
##MW=176
##$NIST SOURCE=MSDC
##XUNITS=M/Z
##YUNITS=RELATIVE INTENSITY
##XFACTOR=1
##YFACTOR=1
##FIRSTX=12
##LASTX=179
##FIRSTY=34
##MAXX=179
##MINX=12
##MAXY=9999
##MINY=4
##NPOINTS=82
##PEAK TABLE=(XY..XY)
12,34 13,24 16,4 24,24
25,55 26,93 28,92 31,969
32,35 33,32 34,24 35,319
36,131 37,785 38,248 39,123
40,15 43,6 44,50 47,42
48,59 49,210 50,548 51,148
53,54 55,100 56,440 57,330
60,91 61,674 62,1035 63,3720
64,206 65,55 67,32 68,768
69,285 70,32 71,603 72,35
73,167 74,563 75,308 76,22
77,33 79,76 80,189 81,363
82,60 84,20 85,39 86,90
87,305 88,26 90,18 91,49
92,241 93,576 94,246 95,28
97,37 99,41 105,22 109,24
110,56 111,91 112,417 113,5406
114,379 122,29 123,16 125,33
139,39 141,9999 142,762 143,49
148,32 158,17 176,756 177,60
178,262 179,27
##END=
