##TITLE=Tetrafluorophthalonitrile
##JCAMP-DX=4.24
##DATA TYPE=MASS SPECTRUM
##ORIGIN=Chuck Anderson, Aldrich Chemical Co.
##OWNER=NIST Mass Spectrometry Data Center
Collection (C) 2014 copyright by the U.S. Secretary of Commerce
on behalf of the United States of America. All rights reserved.
##CAS REGISTRY NO=1835-65-0
##$NIST MASS SPEC NO=117881
##MOLFORM=C8 F4 N2
##MW=200
##$NIST SOURCE=MSDC
##XUNITS=M/Z
##YUNITS=RELATIVE INTENSITY
##XFACTOR=1
##YFACTOR=1
##FIRSTX=26
##LASTX=202
##FIRSTY=42
##MAXX=202
##MINX=26
##MAXY=9999
##MINY=2
##NPOINTS=60
##PEAK TABLE=(XY..XY)
26,42 28,4 31,4341 32,53
36,77 38,84 43,5 48,28
50,40 55,202 60,57 62,260
67,23 69,423 72,5 74,444
75,33 76,159 79,219 81,345
82,11 86,374 87,21 88,68
91,8 93,896 94,35 98,166
100,1661 101,63 103,21 105,534
106,31 107,52 110,43 112,220
113,8 117,210 119,44 124,1266
125,62 129,14 131,1044 132,61
136,29 138,24 148,131 150,86
155,546 156,35 162,16 169,312
170,19 174,22 181,88 182,2
199,58 200,9999 201,888 202,36
##END=
