##TITLE=4-Benzyloxy-3-methoxyacetophenone
##JCAMP-DX=4.24
##DATA TYPE=MASS SPECTRUM
##ORIGIN=NIST Mass Spectrometry Data Center, 1994
##OWNER=NIST Mass Spectrometry Data Center
Collection (C) 2014 copyright by the U.S. Secretary of Commerce
on behalf of the United States of America. All rights reserved.
##CAS REGISTRY NO=1835-11-6
##$NIST MASS SPEC NO=135687
##MOLFORM=C16 H16 O3
##MW=256
##$NIST SOURCE=MSDC
##XUNITS=M/Z
##YUNITS=RELATIVE INTENSITY
##XFACTOR=1
##YFACTOR=1
##FIRSTX=13
##LASTX=258
##FIRSTY=4
##MAXX=258
##MINX=13
##MAXY=9999
##MINY=3
##NPOINTS=95
##PEAK TABLE=(XY..XY)
13,4 14,13 15,176 16,3
17,8 18,9 27,6 28,32
37,21 38,80 39,572 40,58
41,156 42,6 43,1030 44,22
49,9 50,188 51,606 52,138
53,124 54,11 55,33 57,3
61,14 62,89 63,328 64,139
65,1283 66,190 67,20 68,7
69,6 70,3 75,37 76,75
77,207 78,65 79,356 80,39
81,35 82,5 86,6 87,6
89,179 91,9999 92,841 93,65
94,76 95,32 102,3 103,7
104,17 105,48 106,16 107,76
108,17 109,74 110,6 114,4
115,20 116,3 119,58 120,102
121,71 122,124 123,39 124,3
127,6 133,6 134,3 135,6
137,9 139,9 140,4 141,18
149,45 150,8 151,25 152,19
153,12 163,6 165,41 166,11
169,5 181,9 182,4 197,6
213,11 214,48 215,7 241,13
256,571 257,115 258,13
##END=
