##TITLE=Carbonochloridothioic acid, S-methyl ester
##JCAMP-DX=4.24
##DATA TYPE=MASS SPECTRUM
##ORIGIN=CARL DJERASSI DEPT OF CHEM STANFORD UNIV STANFORD CALIF 94305
##OWNER=NIST Mass Spectrometry Data Center
Collection (C) 2014 copyright by the U.S. Secretary of Commerce
on behalf of the United States of America. All rights reserved.
##CAS REGISTRY NO=18369-83-0
##$NIST MASS SPEC NO=46296
##MOLFORM=C2 H3 Cl O S
##MW=110
##$NIST SOURCE=MSDC
##XUNITS=M/Z
##YUNITS=RELATIVE INTENSITY
##XFACTOR=1
##YFACTOR=1
##FIRSTX=28
##LASTX=112
##FIRSTY=900
##MAXX=112
##MINX=28
##MAXY=9999
##MINY=10
##NPOINTS=24
##PEAK TABLE=(XY..XY)
28,900 29,100 32,900 33,100
35,500 37,100 43,10 44,100
45,450 46,1400 47,3500 48,300
49,200 60,600 61,100 63,1100
64,100 65,300 67,100 75,9999
76,300 77,400 110,2400 112,900
##END=
