##TITLE=N-Methyl-p-toluamide
##JCAMP-DX=4.24
##DATA TYPE=MASS SPECTRUM
##ORIGIN=L.N.Kulikova, V.G. Zaikin, Peoples' Friendship University of Russia, Moscow
##OWNER=NIST Mass Spectrometry Data Center
Collection (C) 2014 copyright by the U.S. Secretary of Commerce
on behalf of the United States of America. All rights reserved.
##CAS REGISTRY NO=18370-11-1
##$NIST MASS SPEC NO=407462
##MOLFORM=C9 H11 N O
##MW=149
##$NIST SOURCE=MSDC
##XUNITS=M/Z
##YUNITS=RELATIVE INTENSITY
##XFACTOR=1
##YFACTOR=1
##FIRSTX=15
##LASTX=151
##FIRSTY=60
##MAXX=151
##MINX=15
##MAXY=9999
##MINY=10
##NPOINTS=67
##PEAK TABLE=(XY..XY)
15,60 26,10 27,50 28,10
29,30 30,30 37,30 38,130
39,871 40,70 41,230 42,20
43,10 44,10 45,50 49,10
50,280 51,450 52,120 53,70
56,10 58,320 59,20 60,110
61,230 62,320 63,861 64,250
65,2572 66,160 67,10 73,80
74,150 75,80 76,60 77,160
78,50 79,40 80,10 85,30
86,60 87,60 88,40 89,981
90,530 91,6316 92,510 93,30
94,10 103,10 104,50 105,60
106,40 107,10 116,50 117,60
119,9999 120,991 121,60 130,40
132,30 133,30 134,40 148,3643
149,3393 150,350 151,20
##END=
