##TITLE=Formic acid, 2-propenyl ester
##JCAMP-DX=4.24
##DATA TYPE=MASS SPECTRUM
##ORIGIN=Japan AIST/NIMC Database- Spectrum MS-NW-2190
##OWNER=NIST Mass Spectrometry Data Center
Collection (C) 2014 copyright by the U.S. Secretary of Commerce
on behalf of the United States of America. All rights reserved.
##CAS REGISTRY NO=1838-59-1
##$NIST MASS SPEC NO=230366
##MOLFORM=C4 H6 O2
##MW=86
##$NIST SOURCE=MSDC
##XUNITS=M/Z
##YUNITS=RELATIVE INTENSITY
##XFACTOR=1
##YFACTOR=1
##FIRSTX=12
##LASTX=86
##FIRSTY=10
##MAXX=86
##MINX=12
##MAXY=9999
##MINY=10
##NPOINTS=36
##PEAK TABLE=(XY..XY)
12,10 13,20 14,60 15,259
16,20 18,20 24,10 25,80
26,579 27,1579 28,1069 29,2559
30,1179 31,2489 32,10 36,30
37,259 38,529 39,4529 40,1799
41,2679 42,129 43,359 44,189
45,99 46,109 47,259 53,40
54,10 55,279 56,60 57,9999
58,2489 59,99 60,10 86,40
##END=
