##TITLE=Silane, dichlorobis(2-methylpropyl)-
##JCAMP-DX=4.24
##DATA TYPE=MASS SPECTRUM
##OWNER=NIST Mass Spectrometry Data Center
Collection (C) 2014 copyright by the U.S. Secretary of Commerce
on behalf of the United States of America. All rights reserved.
##CAS REGISTRY NO=18395-92-1
##$NIST MASS SPEC NO=9865
##MOLFORM=C8 H18 Cl2 Si
##MW=212
##$NIST SOURCE=MSDC
##XUNITS=M/Z
##YUNITS=RELATIVE INTENSITY
##XFACTOR=1
##YFACTOR=1
##FIRSTX=14
##LASTX=216
##FIRSTY=120
##MAXX=216
##MINX=14
##MAXY=9999
##MINY=10
##NPOINTS=150
##PEAK TABLE=(XY..XY)
14,120 15,581 16,220 26,480
27,4144 28,1081 29,4044 35,240
36,1321 37,210 38,480 39,4344
40,801 41,9118 42,2662 43,6506
44,220 45,510 50,180 51,240
53,500 54,200 55,2913 56,3543
57,7577 58,420 59,641 63,3843
64,320 65,1601 66,140 67,230
69,170 73,360 76,120 77,260
78,460 79,1411 80,280 81,971
83,240 87,200 90,60 91,500
92,520 93,891 94,270 95,1441
96,130 97,520 98,410 99,1922
100,360 101,1251 102,120 103,350
104,200 109,380 111,190 112,841
113,9999 114,1141 115,7487 116,550
117,1862 118,130 119,671 120,561
121,631 122,240 123,400 124,30
125,430 126,130 127,450 128,150
129,1471 130,140 131,951 132,70
133,200 134,50 135,500 136,120
137,741 138,100 139,460 140,100
141,3523 142,350 143,2352 144,200
145,470 146,20 147,20 149,450
150,50 151,410 152,40 153,220
154,110 155,3823 156,430 157,2803
158,270 159,751 160,50 161,150
163,60 165,270 166,20 167,200
168,10 169,90 170,60 171,1171
172,150 173,801 174,70 175,170
176,150 177,510 178,110 179,220
180,20 181,60 183,50 185,881
186,80 187,711 188,60 189,180
194,130 195,330 196,30 197,5695
198,751 199,3703 200,490 201,811
202,80 203,30 209,30 210,70
211,70 212,651 213,210 214,430
215,60 216,70
##END=
