##TITLE=Cyclohexane, 1,2,3-trimethyl-, (1.alpha.,2.alpha.,3.alpha.)-
##JCAMP-DX=4.24
##DATA TYPE=MASS SPECTRUM
##ORIGIN=NIST Mass Spectrometry Data Center, 1990.
##OWNER=NIST Mass Spectrometry Data Center
Collection (C) 2014 copyright by the U.S. Secretary of Commerce
on behalf of the United States of America. All rights reserved.
##CAS REGISTRY NO=1839-88-9
##$NIST MASS SPEC NO=113490
##MOLFORM=C9 H18
##MW=126
##$NIST SOURCE=MSDC
##XUNITS=M/Z
##YUNITS=RELATIVE INTENSITY
##XFACTOR=1
##YFACTOR=1
##FIRSTX=15
##LASTX=127
##FIRSTY=145
##MAXX=127
##MINX=15
##MAXY=9999
##MINY=80
##NPOINTS=44
##PEAK TABLE=(XY..XY)
15,145 27,1792 28,862 29,1665
39,3092 40,687 41,6900 42,1976
43,1711 44,95 50,151 51,425
52,180 53,1297 54,95 55,9999
56,3926 57,956 65,338 66,156
67,1315 68,156 69,9971 70,8228
71,2019 72,93 77,316 78,85
79,297 80,85 81,438 82,571
83,2866 84,1422 85,139 91,148
96,2649 97,6733 98,1252 109,80
111,1965 112,164 126,3354 127,299
##END=
