##TITLE=Estrone, TMS derivative
##JCAMP-DX=4.24
##DATA TYPE=MASS SPECTRUM
##ORIGIN=NIST Mass Spectrometry Data Center, 1998.
##OWNER=NIST Mass Spectrometry Data Center
Collection (C) 2014 copyright by the U.S. Secretary of Commerce
on behalf of the United States of America. All rights reserved.
##CAS REGISTRY NO=1839-54-9
##$NIST MASS SPEC NO=291990
##MOLFORM=C21 H30 O2 Si
##MW=342
##$NIST SOURCE=MSDC
##XUNITS=M/Z
##YUNITS=RELATIVE INTENSITY
##XFACTOR=1
##YFACTOR=1
##FIRSTX=27
##LASTX=345
##FIRSTY=70
##MAXX=345
##MINX=27
##MAXY=9999
##MINY=10
##NPOINTS=206
##PEAK TABLE=(XY..XY)
27,70 29,80 39,130 40,20
41,600 42,90 43,330 44,100
45,780 46,50 47,70 51,60
53,300 54,50 55,900 56,70
57,170 58,60 59,320 60,20
61,130 63,40 65,120 67,570
68,60 69,190 71,10 72,50
73,4750 74,420 75,850 76,100
77,320 78,90 79,360 80,30
81,400 82,120 83,100 85,60
86,50 89,100 91,560 92,130
93,310 94,190 95,400 96,30
97,540 98,30 99,50 101,210
102,110 103,250 104,80 105,330
106,80 107,1260 109,170 111,90
113,70 114,280 115,1330 116,190
117,140 118,10 119,230 120,110
121,530 123,140 124,10 126,130
127,380 128,1230 129,700 130,120
134,210 135,300 136,50 137,40
139,90 140,70 141,680 142,250
143,210 148,50 149,260 150,170
151,190 152,190 153,230 154,100
155,230 156,90 161,470 162,90
163,620 164,140 165,390 166,110
167,200 168,10 169,100 171,80
174,30 175,150 176,80 177,800
178,250 179,440 180,250 181,150
182,20 183,120 184,80 187,230
188,110 189,420 190,100 191,150
192,940 193,330 194,100 195,90
196,40 197,90 198,50 199,130
200,120 201,580 202,150 203,760
204,220 205,550 206,160 207,70
209,40 210,20 215,370 216,270
217,1100 218,3900 219,1300 220,350
221,80 225,80 227,90 228,60
229,550 230,310 231,910 232,750
233,210 234,40 235,10 239,60
241,120 242,610 243,380 244,2070
245,770 246,210 247,50 251,50
252,30 253,70 254,10 255,130
256,90 257,4500 258,1440 259,420
260,80 267,40 268,50 269,130
271,250 272,180 273,50 281,40
282,10 283,130 284,90 285,560
286,370 287,100 295,10 297,60
298,90 299,120 300,40 309,60
313,90 314,350 315,90 323,10
325,50 327,950 328,250 329,70
340,30 341,240 342,9999 343,2770
344,750 345,120
##END=
