##TITLE=1-Decanol, TMS derivative
##JCAMP-DX=4.24
##DATA TYPE=MASS SPECTRUM
##ORIGIN=D.HENNEBERG, MAX-PLANCK INSTITUTE, MULHEIM, WEST GERMANY
##OWNER=NIST Mass Spectrometry Data Center
Collection (C) 2014 copyright by the U.S. Secretary of Commerce
on behalf of the United States of America. All rights reserved.
##CAS REGISTRY NO=18402-10-3
##$NIST MASS SPEC NO=60927
##MOLFORM=C13 H30 O Si
##MW=230
##$NIST SOURCE=MSDC
##XUNITS=M/Z
##YUNITS=RELATIVE INTENSITY
##XFACTOR=1
##YFACTOR=1
##FIRSTX=26
##LASTX=230
##FIRSTY=19
##MAXX=230
##MINX=26
##MAXY=9999
##MINY=1
##NPOINTS=128
##PEAK TABLE=(XY..XY)
26,19 27,255 28,209 29,550
30,10 31,30 33,1 38,3
39,141 40,27 41,953 42,192
43,846 44,110 45,551 46,38
47,350 48,20 49,12 50,2
51,7 53,59 54,73 55,1453
56,340 57,768 58,166 59,465
60,83 61,593 62,36 63,23
64,6 65,12 66,9 67,122
68,126 69,1836 70,369 71,333
72,133 73,3658 74,337 75,7649
76,504 77,365 78,30 79,33
80,7 81,96 82,97 83,3037
84,302 85,124 86,18 87,142
88,63 89,1861 90,157 91,348
92,28 93,19 94,3 95,59
96,28 97,1359 98,130 99,132
100,20 101,493 102,57 103,2701
104,226 105,93 106,2 107,3
109,16 110,10 111,78 112,81
113,55 114,9 115,236 116,30
117,40 118,6 121,2 123,1
125,5 127,21 128,5 129,143
130,13 131,57 132,8 133,3
136,1 137,4 139,34 140,57
141,12 143,57 144,9 145,29
147,1 149,31 153,3 155,1
157,46 158,7 159,8 167,3
168,2 171,91 173,4 177,1
185,3 187,6 194,1 199,36
200,4 213,14 215,9999 216,1780
217,449 218,46 229,16 230,24
##END=
