##TITLE=3-Octen-2-one, (E)-
##JCAMP-DX=4.24
##DATA TYPE=MASS SPECTRUM
##ORIGIN=FOOD RESEARCH REPORT 122, K.E. MURRAY & COLLEAGUES, DIV OF FOOD RESEARCH, CSIRO, AUSTRALIA
##OWNER=NIST Mass Spectrometry Data Center
Collection (C) 2014 copyright by the U.S. Secretary of Commerce
on behalf of the United States of America. All rights reserved.
##CAS REGISTRY NO=18402-82-9
##$NIST MASS SPEC NO=53599
##MOLFORM=C8 H14 O
##MW=126
##$NIST SOURCE=MSDC
##XUNITS=M/Z
##YUNITS=RELATIVE INTENSITY
##XFACTOR=1
##YFACTOR=1
##FIRSTX=27
##LASTX=126
##FIRSTY=5500
##MAXX=126
##MINX=27
##MAXY=9999
##MINY=100
##NPOINTS=44
##PEAK TABLE=(XY..XY)
27,5500 28,1100 29,1400 38,300
39,3300 40,800 41,7300 42,900
43,9999 44,600 45,200 50,300
51,400 52,200 53,1100 54,500
55,9800 56,1100 57,200 58,300
59,200 65,200 66,200 67,500
68,1500 69,2200 70,200 71,1900
72,200 77,200 79,300 81,400
82,200 83,800 85,400 86,100
93,100 95,100 97,2200 98,200
108,100 111,5600 112,400 126,1300
##END=
