##TITLE=2-Decen-1-ol, (E)-
##JCAMP-DX=4.24
##DATA TYPE=MASS SPECTRUM
##ORIGIN=NIST Mass Spectrometry Data Center, 1994
##OWNER=NIST Mass Spectrometry Data Center
Collection (C) 2014 copyright by the U.S. Secretary of Commerce
on behalf of the United States of America. All rights reserved.
##CAS REGISTRY NO=18409-18-2
##$NIST MASS SPEC NO=133279
##MOLFORM=C10 H20 O
##MW=156
##$NIST SOURCE=MSDC
##XUNITS=M/Z
##YUNITS=RELATIVE INTENSITY
##XFACTOR=1
##YFACTOR=1
##FIRSTX=15
##LASTX=157
##FIRSTY=292
##MAXX=157
##MINX=15
##MAXY=9999
##MINY=3
##NPOINTS=74
##PEAK TABLE=(XY..XY)
15,292 16,6 17,3 19,44
27,4320 28,526 29,5542 30,308
31,1434 39,3001 41,7629 42,2283
43,6283 44,1462 45,380 46,17
47,17 50,112 51,238 52,195
53,969 54,2173 55,4431 56,2749
57,9999 58,737 59,76 60,7
61,8 63,42 65,236 67,2654
68,2561 69,1997 70,1455 71,1420
72,354 73,79 74,9 75,18
77,132 79,292 81,2142 82,2334
83,1068 84,485 85,312 86,69
87,12 91,37 93,59 95,1499
96,1092 97,321 98,79 99,175
100,35 103,29 107,21 109,638
110,604 111,66 112,75 113,66
114,10 123,45 124,7 125,13
127,36 128,14 138,146 139,18
156,38 157,12
##END=
