##TITLE=n-Tetradecyltrichlorosilane
##JCAMP-DX=4.24
##DATA TYPE=MASS SPECTRUM
##ORIGIN=NIST Mass Spectrometry Data Center, 1994
##OWNER=NIST Mass Spectrometry Data Center
Collection (C) 2014 copyright by the U.S. Secretary of Commerce
on behalf of the United States of America. All rights reserved.
##CAS REGISTRY NO=18402-22-7
##$NIST MASS SPEC NO=136214
##MOLFORM=C14 H29 Cl3 Si
##MW=330
##$NIST SOURCE=MSDC
##XUNITS=M/Z
##YUNITS=RELATIVE INTENSITY
##XFACTOR=1
##YFACTOR=1
##FIRSTX=26
##LASTX=334
##FIRSTY=8
##MAXX=334
##MINX=26
##MAXY=9999
##MINY=8
##NPOINTS=136
##PEAK TABLE=(XY..XY)
26,8 27,1512 28,166 29,3240
30,41 35,94 36,93 37,49
38,97 39,1113 40,345 41,6267
42,1843 43,9029 44,312 51,48
52,46 53,385 54,389 55,2915
56,1774 57,9999 58,513 63,203
65,162 66,47 67,292 68,143
69,1060 70,1175 71,6156 72,329
77,44 79,71 81,82 82,100
83,459 84,761 85,3356 86,243
91,45 97,306 98,622 99,948
100,175 101,129 103,47 111,152
112,351 113,443 114,92 115,72
117,111 119,49 125,200 126,175
127,316 128,64 129,49 131,61
133,1828 135,1823 136,111 137,644
138,69 139,298 140,84 141,182
153,161 155,128 161,278 163,235
165,98 167,75 169,57 174,235
175,1168 176,315 177,1051 178,171
179,402 180,49 181,60 187,37
188,87 189,630 190,119 191,637
192,83 193,217 202,60 203,452
204,119 205,437 206,55 207,150
216,35 217,384 218,66 219,349
221,110 230,63 231,209 232,55
233,223 234,50 235,98 244,50
245,153 246,67 247,114 249,47
258,72 259,139 260,83 261,123
262,46 272,72 273,108 274,89
275,105 276,49 277,41 286,53
287,99 288,66 289,113 290,43
300,56 301,66 302,52 303,85
330,143 332,126 333,42 334,50
##END=
