##TITLE=Silane, chloroethenyldiphenyl-
##JCAMP-DX=4.24
##DATA TYPE=MASS SPECTRUM
##ORIGIN=RADIAN CORP
##OWNER=NIST Mass Spectrometry Data Center
Collection (C) 2014 copyright by the U.S. Secretary of Commerce
on behalf of the United States of America. All rights reserved.
##CAS REGISTRY NO=18419-53-9
##$NIST MASS SPEC NO=73236
##MOLFORM=C14 H13 Cl Si
##MW=244
##$NIST SOURCE=MSDC
##XUNITS=M/Z
##YUNITS=RELATIVE INTENSITY
##XFACTOR=1
##YFACTOR=1
##FIRSTX=27
##LASTX=248
##FIRSTY=250
##MAXX=248
##MINX=27
##MAXY=9999
##MINY=10
##NPOINTS=117
##PEAK TABLE=(XY..XY)
27,250 38,10 39,220 50,730
51,2190 52,290 53,640 54,70
55,60 62,70 63,6510 64,400
65,2600 66,210 67,130 74,250
75,300 76,340 77,2150 78,970
79,470 80,50 81,30 87,60
88,180 89,520 90,320 91,300
92,110 93,40 99,30 101,150
102,360 103,1170 104,2070 105,1740
106,200 107,50 108,40 109,60
112,50 113,230 114,80 115,500
116,60 117,100 121,270 122,20
125,30 126,130 127,150 128,150
129,730 130,960 131,440 132,70
137,30 139,720 140,3950 141,4310
142,1890 143,1440 144,170 145,40
146,50 147,70 150,90 151,300
152,1160 153,730 154,1000 155,1460
156,320 157,200 158,50 159,20
165,1880 166,9999 167,3200 168,3750
169,970 170,190 171,10 176,10
177,60 178,350 179,590 180,1790
181,2570 182,1240 183,340 184,300
185,40 189,40 191,20 197,160
205,10 207,370 208,2450 209,730
210,180 215,700 216,220 217,4960
218,910 219,1720 220,280 229,120
231,40 233,110 235,30 243,70
244,2460 245,540 246,900 247,170
248,20
##END=
