##TITLE=Pyrazine, 2,5-dimethyl-3-propyl-
##JCAMP-DX=4.24
##DATA TYPE=MASS SPECTRUM
##OWNER=NIST Mass Spectrometry Data Center
Collection (C) 2014 copyright by the U.S. Secretary of Commerce
on behalf of the United States of America. All rights reserved.
##CAS REGISTRY NO=18433-97-1
##$NIST MASS SPEC NO=4658
##MOLFORM=C9 H14 N2
##MW=150
##$NIST SOURCE=MSDC
##XUNITS=M/Z
##YUNITS=RELATIVE INTENSITY
##XFACTOR=1
##YFACTOR=1
##FIRSTX=14
##LASTX=152
##FIRSTY=40
##MAXX=152
##MINX=14
##MAXY=9999
##MINY=10
##NPOINTS=113
##PEAK TABLE=(XY..XY)
14,40 15,460 16,10 17,10
18,20 25,10 26,230 27,1371
28,520 29,300 30,20 31,10
32,10 36,10 37,70 38,290
39,2312 40,691 41,821 42,2102
43,270 44,20 45,10 46,10
47,10 48,10 49,10 50,120
51,320 52,500 53,1071 54,350
55,100 56,40 57,10 58,10
59,10 60,10 61,10 62,20
63,50 64,90 65,120 66,230
67,240 68,70 69,20 70,280
71,20 72,10 73,10 74,20
75,30 76,40 77,90 78,80
79,110 80,410 81,50 82,60
83,10 84,10 85,10 86,10
87,10 88,10 89,10 90,10
91,10 92,20 93,40 94,90
95,60 96,100 97,10 98,10
99,10 100,20 101,10 102,10
103,10 104,10 105,20 106,50
107,420 108,290 109,70 110,10
117,10 118,10 119,20 120,140
121,761 122,9999 123,811 124,30
125,10 126,10 130,10 131,10
132,20 133,100 134,30 135,2002
136,180 137,10 146,10 147,10
148,40 149,611 150,821 151,90
152,10
##END=
