##TITLE=Octabenzone
##JCAMP-DX=4.24
##DATA TYPE=MASS SPECTRUM
##ORIGIN=Japan AIST/NIMC Database- Spectrum MS-NW-5949
##OWNER=NIST Mass Spectrometry Data Center
Collection (C) 2014 copyright by the U.S. Secretary of Commerce
on behalf of the United States of America. All rights reserved.
##CAS REGISTRY NO=1843-05-6
##$NIST MASS SPEC NO=232998
##MOLFORM=C21 H26 O3
##MW=326
##$NIST SOURCE=MSDC
##XUNITS=M/Z
##YUNITS=RELATIVE INTENSITY
##XFACTOR=1
##YFACTOR=1
##FIRSTX=15
##LASTX=329
##FIRSTY=10
##MAXX=329
##MINX=15
##MAXY=9999
##MINY=10
##NPOINTS=199
##PEAK TABLE=(XY..XY)
15,10 26,20 27,589 28,99
29,1219 30,20 31,10 38,30
39,399 40,70 41,2109 42,259
43,1989 44,70 50,99 51,439
52,129 53,239 54,40 55,939
56,119 57,919 58,40 62,40
63,169 64,90 65,80 66,30
67,80 68,30 69,499 70,80
71,439 72,20 74,30 75,60
76,109 77,1739 78,209 79,119
80,90 81,309 82,30 83,60
84,20 85,10 86,10 87,20
88,20 89,50 90,20 91,90
92,50 93,20 94,10 95,40
97,20 98,10 99,10 101,20
102,60 103,40 104,40 105,3199
106,259 107,359 108,369 109,109
110,20 111,10 112,10 113,30
114,40 115,279 116,40 117,20
118,10 119,20 120,109 121,70
122,20 123,20 126,30 127,149
128,309 129,269 130,40 131,20
134,10 135,20 136,529 137,3819
138,329 139,219 140,70 141,219
142,40 143,20 144,159 145,389
146,80 147,30 148,10 149,90
150,30 151,30 152,30 153,10
154,10 155,30 156,20 157,269
158,109 159,20 161,10 163,90
164,10 165,20 167,30 168,179
169,70 170,50 171,50 172,119
173,30 177,30 178,10 179,10
181,10 183,20 184,70 185,339
186,469 187,60 188,10 191,10
195,20 196,119 197,529 198,109
199,80 200,30 205,10 210,10
211,20 212,139 213,9999 214,6749
215,1279 216,149 217,20 221,40
223,10 224,10 225,60 226,30
227,249 228,50 229,10 237,99
238,40 239,80 240,30 241,30
242,10 247,20 248,20 249,219
250,40 251,20 252,10 253,30
254,20 255,149 256,50 267,30
268,20 269,50 270,20 280,10
281,20 282,40 283,50 284,20
295,10 296,10 297,30 298,20
308,70 309,70 310,20 311,20
312,10 324,80 325,2459 326,9109
327,2139 328,309 329,30
##END=
