##TITLE=3-Pyridinamine, N,N-dimethyl-
##JCAMP-DX=4.24
##DATA TYPE=MASS SPECTRUM
##ORIGIN=James Little,Eastman Chem.Co.,Kingsport,TN
##OWNER=NIST Mass Spectrometry Data Center
Collection (C) 2014 copyright by the U.S. Secretary of Commerce
on behalf of the United States of America. All rights reserved.
##CAS REGISTRY NO=18437-57-5
##$NIST MASS SPEC NO=288621
##MOLFORM=C7 H10 N2
##MW=122
##$NIST SOURCE=MSDC
##XUNITS=M/Z
##YUNITS=RELATIVE INTENSITY
##XFACTOR=1
##YFACTOR=1
##FIRSTX=38
##LASTX=123
##FIRSTY=300
##MAXX=123
##MINX=38
##MAXY=9999
##MINY=120
##NPOINTS=30
##PEAK TABLE=(XY..XY)
38,300 39,871 42,711 50,520
51,1001 52,621 53,380 54,250
61,270 64,290 65,310 66,390
67,270 68,370 77,140 78,1361
79,591 80,581 92,841 93,1221
94,1221 95,120 104,310 105,801
106,1011 107,300 119,330 121,9999
122,9008 123,791
##END=
