##TITLE=Pyridine, 2-(methylthio)-
##JCAMP-DX=4.24
##DATA TYPE=MASS SPECTRUM
##OWNER=NIST Mass Spectrometry Data Center
Collection (C) 2014 copyright by the U.S. Secretary of Commerce
on behalf of the United States of America. All rights reserved.
##CAS REGISTRY NO=18438-38-5
##$NIST MASS SPEC NO=2447
##MOLFORM=C6 H7 N S
##MW=125
##$NIST SOURCE=MSDC
##XUNITS=M/Z
##YUNITS=RELATIVE INTENSITY
##XFACTOR=1
##YFACTOR=1
##FIRSTX=32
##LASTX=127
##FIRSTY=1125
##MAXX=127
##MINX=32
##MAXY=9999
##MINY=375
##NPOINTS=18
##PEAK TABLE=(XY..XY)
32,1125 39,1375 45,1125 50,1000
51,2500 52,3250 57,625 78,1875
79,6124 80,1875 82,500 83,500
92,750 110,375 124,6249 125,9999
126,1250 127,500
##END=
