##TITLE=Spiro[5.5]undec-2-ene, 3,7,7-trimethyl-11-methylene-, (-)-
##JCAMP-DX=4.24
##DATA TYPE=MASS SPECTRUM
##ORIGIN=H.U.DAENIKER GIVAUDAN CPN., 125 DELAWANA AVE., N.J., USA
##OWNER=NIST Mass Spectrometry Data Center
Collection (C) 2014 copyright by the U.S. Secretary of Commerce
on behalf of the United States of America. All rights reserved.
##CAS REGISTRY NO=18431-82-8
##$NIST MASS SPEC NO=26183
##MOLFORM=C15 H24
##MW=204
##$NIST SOURCE=MSDC
##XUNITS=M/Z
##YUNITS=RELATIVE INTENSITY
##XFACTOR=1
##YFACTOR=1
##FIRSTX=27
##LASTX=205
##FIRSTY=2111
##MAXX=205
##MINX=27
##MAXY=9999
##MINY=193
##NPOINTS=77
##PEAK TABLE=(XY..XY)
27,2111 28,1286 29,2465 39,3041
40,858 41,8415 42,475 43,2275
44,576 51,900 52,494 53,2671
54,295 55,4733 56,517 57,517
63,357 65,1555 66,422 67,3014
68,681 69,4052 70,291 71,193
77,4085 78,1038 79,6549 80,1784
81,3568 82,517 83,422 91,6713
92,2399 93,9626 94,4962 95,3581
96,465 97,262 103,592 104,393
105,7819 106,2366 107,6769 108,1839
109,2199 110,262 111,295 115,756
116,327 117,988 118,393 119,5616
120,2199 121,5882 122,1182 123,822
128,295 129,327 131,619 132,295
133,5040 134,1692 135,1983 136,1394
145,416 147,2118 148,1921 149,576
161,2049 162,890 163,255 175,2379
176,750 189,9999 190,1578 204,3545
205,553
##END=
