##TITLE=Pyrazine, 2,5-dimethyl-3-(3-methylbutyl)-
##JCAMP-DX=4.24
##DATA TYPE=MASS SPECTRUM
##ORIGIN=J. Daly, M. Garraffo, T. Spande, LBC, NIDDK, NIH, Bethesda, MD 20892
##OWNER=NIST Mass Spectrometry Data Center
Collection (C) 2014 copyright by the U.S. Secretary of Commerce
on behalf of the United States of America. All rights reserved.
##CAS REGISTRY NO=18433-98-2
##$NIST MASS SPEC NO=367291
##MOLFORM=C11 H18 N2
##MW=178
##$NIST SOURCE=MSDC
##XUNITS=M/Z
##YUNITS=RELATIVE INTENSITY
##XFACTOR=1
##YFACTOR=1
##FIRSTX=51
##LASTX=178
##FIRSTY=90
##MAXX=178
##MINX=51
##MAXY=9999
##MINY=10
##NPOINTS=56
##PEAK TABLE=(XY..XY)
51,90 52,160 53,440 54,190
55,100 63,20 64,30 65,90
66,120 67,100 68,30 73,10
74,10 76,10 77,50 78,40
79,50 80,330 81,130 82,40
92,10 93,30 94,90 95,60
96,90 104,10 105,10 106,20
107,210 108,100 109,40 117,10
118,10 119,20 121,1031 122,9999
123,821 124,30 131,10 132,20
133,110 135,1151 136,200 137,10
145,20 146,20 147,60 148,20
149,100 150,10 159,10 161,30
163,681 164,80 177,50 178,10
##END=
