##TITLE=Manganese, dodecacarbonyltrihydrotri-, triangulo
##JCAMP-DX=4.24
##DATA TYPE=MASS SPECTRUM
##ORIGIN=B.F.G.JOHNSON DEPT. OF CHEM., UNIV. OF MANCHESTER, UK
##OWNER=NIST Mass Spectrometry Data Center
Collection (C) 2014 copyright by the U.S. Secretary of Commerce
on behalf of the United States of America. All rights reserved.
##CAS REGISTRY NO=18444-56-9
##$NIST MASS SPEC NO=18160
##MOLFORM=C12 H3 Mn3 O12
##MW=504
##$NIST SOURCE=MSDC
##XUNITS=M/Z
##YUNITS=RELATIVE INTENSITY
##XFACTOR=1
##YFACTOR=1
##FIRSTX=55
##LASTX=504
##FIRSTY=8500
##MAXX=504
##MINX=55
##MAXY=9999
##MINY=100
##NPOINTS=44
##PEAK TABLE=(XY..XY)
55,8500 56,2200 67,400 83,3100
84,2000 110,3400 111,5600 112,1600
113,600 139,1400 140,1900 141,200
165,1000 166,3300 167,800 168,4700
194,900 195,1300 196,6100 197,300
221,100 222,1200 223,200 224,1000
249,100 250,5100 251,600 252,2500
278,4300 279,200 280,9999 306,1800
308,2700 334,400 336,1300 362,500
364,400 390,200 392,600 418,700
420,900 446,3700 448,100 504,200
##END=
