##TITLE=Methyl 1-cyclohexene-1-carboxylate
##JCAMP-DX=4.24
##DATA TYPE=MASS SPECTRUM
##ORIGIN=Chuck Anderson, Aldrich Chemical Co.
##OWNER=NIST Mass Spectrometry Data Center
Collection (C) 2014 copyright by the U.S. Secretary of Commerce
on behalf of the United States of America. All rights reserved.
##CAS REGISTRY NO=18448-47-0
##$NIST MASS SPEC NO=107433
##MOLFORM=C8 H12 O2
##MW=140
##$NIST SOURCE=MSDC
##XUNITS=M/Z
##YUNITS=RELATIVE INTENSITY
##XFACTOR=1
##YFACTOR=1
##FIRSTX=14
##LASTX=142
##FIRSTY=15
##MAXX=142
##MINX=14
##MAXY=9999
##MINY=6
##NPOINTS=92
##PEAK TABLE=(XY..XY)
14,15 15,754 16,16 25,6
26,174 27,1696 28,245 29,497
30,55 31,120 32,14 33,42
36,7 37,63 38,231 39,2207
40,344 41,2037 42,129 43,255
44,26 45,158 47,16 49,17
50,300 51,592 52,426 53,1542
54,363 55,389 56,37 57,31
58,33 59,779 60,19 61,48
62,37 63,127 64,25 65,491
66,454 67,452 68,174 69,186
70,16 71,90 72,20 73,29
74,172 75,32 76,28 77,1558
78,300 79,6135 80,6849 81,9999
82,811 83,196 84,89 85,74
86,12 87,15 91,49 92,12
93,320 94,49 95,253 96,27
97,551 98,111 99,76 100,7
105,53 106,7 107,259 108,3700
109,3538 110,292 111,517 112,267
113,29 121,8 123,31 124,6
125,730 126,49 137,22 138,10
139,82 140,4122 141,369 142,29
##END=
