##TITLE=2,6-Octadiene, 4,5-dimethyl-
##JCAMP-DX=4.24
##DATA TYPE=MASS SPECTRUM
##ORIGIN=D.HENNEBERG, MAX-PLANCK INSTITUTE, MULHEIM, WEST GERMANY
##OWNER=NIST Mass Spectrometry Data Center
Collection (C) 2014 copyright by the U.S. Secretary of Commerce
on behalf of the United States of America. All rights reserved.
##CAS REGISTRY NO=18476-57-8
##$NIST MASS SPEC NO=61716
##MOLFORM=C10 H18
##MW=138
##$NIST SOURCE=MSDC
##XUNITS=M/Z
##YUNITS=RELATIVE INTENSITY
##XFACTOR=1
##YFACTOR=1
##FIRSTX=22
##LASTX=138
##FIRSTY=6
##MAXX=138
##MINX=22
##MAXY=9999
##MINY=2
##NPOINTS=62
##PEAK TABLE=(XY..XY)
22,6 23,3 26,24 27,503
29,353 30,7 35,11 37,44
38,43 39,977 40,184 41,5361
42,269 43,113 49,5 50,34
51,118 52,56 53,493 54,91
55,302 56,17 57,17 58,2
62,11 63,39 64,9 65,137
66,74 67,664 68,1340 69,9999
70,566 71,12 75,7 77,122
78,25 79,114 80,14 81,156
82,51 83,7 89,3 91,98
92,13 93,45 94,8 95,50
96,56 97,6 103,6 105,22
106,4 107,30 108,6 109,241
110,19 119,3 121,8 123,91
124,8 138,44
##END=
