##TITLE=1H-Indazole, 3-methoxy-
##JCAMP-DX=4.24
##DATA TYPE=MASS SPECTRUM
##OWNER=NIST Mass Spectrometry Data Center
Collection (C) 2014 copyright by the U.S. Secretary of Commerce
on behalf of the United States of America. All rights reserved.
##CAS REGISTRY NO=1848-41-5
##$NIST MASS SPEC NO=4510
##MOLFORM=C8 H8 N2 O
##MW=148
##$NIST SOURCE=MSDC
##XUNITS=M/Z
##YUNITS=RELATIVE INTENSITY
##XFACTOR=1
##YFACTOR=1
##FIRSTX=50
##LASTX=149
##FIRSTY=1461
##MAXX=149
##MINX=50
##MAXY=9999
##MINY=100
##NPOINTS=18
##PEAK TABLE=(XY..XY)
50,1461 51,2112 52,200 76,1812
77,5355 78,500 92,520 104,841
105,1451 106,100 118,721 119,1832
120,200 133,4084 134,400 147,1972
148,9999 149,801
##END=
