##TITLE=3-Fluoro-5-(trifluoromethyl)benzyl alcohol
##JCAMP-DX=4.24
##DATA TYPE=MASS SPECTRUM
##ORIGIN=NIST Mass Spectrometry Data Center, 1994
##OWNER=NIST Mass Spectrometry Data Center
Collection (C) 2014 copyright by the U.S. Secretary of Commerce
on behalf of the United States of America. All rights reserved.
##CAS REGISTRY NO=184970-29-4
##$NIST MASS SPEC NO=136975
##MOLFORM=C8 H6 F4 O
##MW=194
##$NIST SOURCE=MSDC
##XUNITS=M/Z
##YUNITS=RELATIVE INTENSITY
##XFACTOR=1
##YFACTOR=1
##FIRSTX=15
##LASTX=196
##FIRSTY=47
##MAXX=196
##MINX=15
##MAXY=9999
##MINY=23
##NPOINTS=111
##PEAK TABLE=(XY..XY)
15,47 17,56 18,92 19,42
20,103 26,105 27,345 29,4629
30,609 31,3486 33,73 37,289
38,452 39,563 43,52 44,79
45,98 47,29 49,229 50,1354
51,1192 52,107 53,107 55,108
56,225 57,964 58,45 61,378
62,611 63,804 64,67 65,23
68,572 69,2418 70,373 71,65
72,69 73,172 74,844 75,2211
76,226 77,1704 78,145 79,96
80,169 81,591 82,98 83,90
84,37 85,120 86,197 87,477
88,198 89,65 92,179 93,529
94,677 95,1732 96,1175 97,4294
98,324 99,457 100,64 101,329
103,45 104,65 105,298 106,150
107,772 108,271 109,35 112,144
113,491 114,624 115,85 117,87
118,52 119,119 123,280 125,4448
126,674 127,1879 128,132 132,102
137,265 138,83 143,575 145,9999
146,1350 147,126 150,43 151,46
155,98 156,182 157,132 158,91
163,1357 164,404 165,1195 166,148
173,2011 174,789 175,2117 176,453
177,645 178,46 191,405 193,928
194,3969 195,341 196,24
##END=
