##TITLE=Benzenethiol, 4-nitro-
##JCAMP-DX=4.24
##DATA TYPE=MASS SPECTRUM
##ORIGIN=Japan AIST/NIMC Database- Spectrum MS-IW-3898
##OWNER=NIST Mass Spectrometry Data Center
Collection (C) 2014 copyright by the U.S. Secretary of Commerce
on behalf of the United States of America. All rights reserved.
##CAS REGISTRY NO=1849-36-1
##$NIST MASS SPEC NO=241812
##MOLFORM=C6 H5 N O2 S
##MW=155
##$NIST SOURCE=MSDC
##XUNITS=M/Z
##YUNITS=RELATIVE INTENSITY
##XFACTOR=1
##YFACTOR=1
##FIRSTX=26
##LASTX=158
##FIRSTY=20
##MAXX=158
##MINX=26
##MAXY=9999
##MINY=10
##NPOINTS=90
##PEAK TABLE=(XY..XY)
26,20 27,40 28,10 30,579
32,40 33,20 34,20 36,20
37,159 38,269 39,989 40,30
44,129 45,1059 46,60 47,60
48,10 49,99 50,819 51,489
52,80 53,469 54,40 55,10
56,10 57,229 58,519 59,189
60,50 61,199 62,359 63,1019
64,219 65,4639 66,259 68,50
69,2319 70,289 71,249 72,20
73,99 74,479 75,399 76,259
77,60 78,10 79,10 80,20
81,239 82,769 83,399 84,70
85,20 86,10 87,10 90,10
92,50 93,80 94,30 95,60
96,209 97,1589 98,149 99,70
105,70 106,60 107,99 108,1159
109,4899 110,409 111,229 112,10
122,20 123,10 124,119 125,3099
126,229 127,149 128,10 134,10
135,10 138,20 139,199 140,20
141,10 154,159 155,9999 156,799
157,509 158,30
##END=
