##TITLE=Methan-d3-ol
##JCAMP-DX=4.24
##DATA TYPE=MASS SPECTRUM
##OWNER=NIST Mass Spectrometry Data Center
Collection (C) 2014 copyright by the U.S. Secretary of Commerce
on behalf of the United States of America. All rights reserved.
##CAS REGISTRY NO=1849-29-2
##$NIST MASS SPEC NO=37
##MOLFORM=C H D3 O
##MW=35
##$NIST SOURCE=MSDC
##XUNITS=M/Z
##YUNITS=RELATIVE INTENSITY
##XFACTOR=1
##YFACTOR=1
##FIRSTX=12
##LASTX=37
##FIRSTY=50
##MAXX=37
##MINX=12
##MAXY=9999
##MINY=40
##NPOINTS=16
##PEAK TABLE=(XY..XY)
12,50 14,110 15,40 16,330
17,180 18,2612 28,410 29,671
30,3964 31,430 32,500 33,9999
34,1061 35,7166 36,280 37,140
##END=
