##TITLE=Tetramethyl orthocarbonate
##JCAMP-DX=4.24
##DATA TYPE=MASS SPECTRUM
##ORIGIN=Japan AIST/NIMC Database- Spectrum MS-NW-8631
##OWNER=NIST Mass Spectrometry Data Center
Collection (C) 2014 copyright by the U.S. Secretary of Commerce
on behalf of the United States of America. All rights reserved.
##CAS REGISTRY NO=1850-14-2
##$NIST MASS SPEC NO=239010
##MOLFORM=C5 H12 O4
##MW=136
##$NIST SOURCE=MSDC
##XUNITS=M/Z
##YUNITS=RELATIVE INTENSITY
##XFACTOR=1
##YFACTOR=1
##FIRSTX=14
##LASTX=107
##FIRSTY=50
##MAXX=107
##MINX=14
##MAXY=9999
##MINY=10
##NPOINTS=32
##PEAK TABLE=(XY..XY)
14,50 15,4079 16,50 17,10
18,20 27,20 28,119 29,849
30,109 31,439 32,50 33,40
42,10 43,30 44,30 45,3239
46,149 47,70 59,5219 60,139
61,1499 62,60 74,169 75,99
90,10 91,10 94,10 96,10
104,10 105,9999 106,469 107,70
##END=
