##TITLE=1-Undecene, 2-methyl-
##JCAMP-DX=4.24
##DATA TYPE=MASS SPECTRUM
##ORIGIN=Japan AIST/NIMC Database- Spectrum MS-IW- 612
##OWNER=NIST Mass Spectrometry Data Center
Collection (C) 2014 copyright by the U.S. Secretary of Commerce
on behalf of the United States of America. All rights reserved.
##CAS REGISTRY NO=18516-37-5
##$NIST MASS SPEC NO=238848
##MOLFORM=C12 H24
##MW=168
##$NIST SOURCE=MSDC
##XUNITS=M/Z
##YUNITS=RELATIVE INTENSITY
##XFACTOR=1
##YFACTOR=1
##FIRSTX=26
##LASTX=170
##FIRSTY=10
##MAXX=170
##MINX=26
##MAXY=9999
##MINY=10
##NPOINTS=66
##PEAK TABLE=(XY..XY)
26,10 27,419 28,70 29,889
30,20 39,489 40,119 41,2419
42,649 43,1899 44,50 45,10
51,30 52,20 53,239 54,199
55,2569 56,9999 57,4239 58,439
59,179 60,10 65,40 66,30
67,379 68,419 69,3499 70,1769
71,609 72,109 73,20 77,30
79,50 80,10 81,199 82,289
83,1149 84,889 85,329 86,40
91,10 93,10 95,99 96,80
97,589 98,219 99,50 109,20
110,129 111,359 112,669 113,70
123,10 124,60 125,209 126,119
127,20 139,10 140,429 141,70
142,10 153,339 154,40 168,879
169,119 170,10
##END=
