##TITLE=.alpha.-D-Glucofuranose, 1,2-O-(1-methylethylidene)-
##JCAMP-DX=4.24
##DATA TYPE=MASS SPECTRUM
##ORIGIN=Japan AIST/NIMC Database- Spectrum MS-NW-6635
##OWNER=NIST Mass Spectrometry Data Center
Collection (C) 2014 copyright by the U.S. Secretary of Commerce
on behalf of the United States of America. All rights reserved.
##CAS REGISTRY NO=18549-40-1
##$NIST MASS SPEC NO=235339
##MOLFORM=C9 H16 O6
##MW=220
##$NIST SOURCE=MSDC
##XUNITS=M/Z
##YUNITS=RELATIVE INTENSITY
##XFACTOR=1
##YFACTOR=1
##FIRSTX=14
##LASTX=207
##FIRSTY=50
##MAXX=207
##MINX=14
##MAXY=9999
##MINY=10
##NPOINTS=118
##PEAK TABLE=(XY..XY)
14,50 15,639 16,10 17,30
18,109 19,119 26,80 27,559
28,199 29,669 30,90 31,1379
32,40 37,10 38,20 39,409
40,80 41,659 42,239 43,4959
44,299 45,429 46,10 47,80
51,10 53,60 54,70 55,629
56,189 57,619 58,219 59,9999
60,539 61,709 62,40 64,10
68,90 69,439 70,90 71,1009
72,109 73,4839 74,249 75,50
77,10 80,20 81,109 82,10
83,119 84,119 85,2949 86,349
87,109 88,10 89,99 91,179
92,10 95,40 96,20 97,209
98,90 99,209 100,1049 101,869
102,229 103,159 104,149 105,10
109,159 110,10 111,20 112,10
113,879 114,99 115,109 116,20
117,10 119,50 120,20 123,50
125,10 126,20 127,1149 128,99
129,289 130,60 131,379 132,40
133,20 139,10 141,50 142,139
143,30 144,40 145,199 146,10
149,119 150,10 155,10 159,2509
160,229 161,40 162,20 169,10
171,10 173,30 175,20 177,99
178,10 187,60 188,10 189,129
190,20 201,10 202,10 205,2589
206,259 207,50
##END=
