##TITLE=Butanoic acid, 2,2-dichloro-, methyl ester
##JCAMP-DX=4.24
##DATA TYPE=MASS SPECTRUM
##OWNER=NIST Mass Spectrometry Data Center
Collection (C) 2014 copyright by the U.S. Secretary of Commerce
on behalf of the United States of America. All rights reserved.
##CAS REGISTRY NO=18545-44-3
##$NIST MASS SPEC NO=6713
##MOLFORM=C5 H8 Cl2 O2
##MW=170
##$NIST SOURCE=MSDC
##XUNITS=M/Z
##YUNITS=RELATIVE INTENSITY
##XFACTOR=1
##YFACTOR=1
##FIRSTX=14
##LASTX=147
##FIRSTY=90
##MAXX=147
##MINX=14
##MAXY=9999
##MINY=10
##NPOINTS=124
##PEAK TABLE=(XY..XY)
14,90 15,2162 16,40 17,80
18,360 25,30 26,260 27,581
28,981 29,881 30,110 31,470
32,290 33,30 35,30 36,80
37,210 38,330 39,2172 40,430
41,4184 42,250 43,250 44,350
45,651 46,20 47,170 48,70
49,1011 50,70 51,360 52,20
53,180 54,60 55,350 56,70
57,220 58,70 59,9999 60,360
61,701 62,90 63,450 64,30
65,90 66,10 67,50 68,40
69,110 70,10 71,100 72,70
73,210 74,160 75,5765 76,1171
77,1892 78,390 79,100 80,20
81,50 82,120 83,581 84,100
85,410 86,30 87,80 88,10
89,200 90,10 91,250 92,20
93,70 94,10 95,50 96,130
97,500 98,110 99,651 100,60
101,120 102,190 103,440 104,210
105,170 106,50 107,100 108,90
109,110 110,761 111,7537 112,721
113,4914 114,250 115,831 116,40
117,70 118,70 119,50 120,60
121,20 122,10 123,20 125,30
127,290 128,20 129,170 131,30
132,30 133,20 134,90 135,250
136,280 137,50 138,90 139,50
140,10 141,60 142,1231 143,80
144,741 145,100 146,130 147,60
##END=
