##TITLE=Ethyl 4-chloro-3-trifluoromethylcarbanilate
##JCAMP-DX=4.24
##DATA TYPE=MASS SPECTRUM
##ORIGIN=NIST Mass Spectrometry Data Center, 1994
##OWNER=NIST Mass Spectrometry Data Center
Collection (C) 2014 copyright by the U.S. Secretary of Commerce
on behalf of the United States of America. All rights reserved.
##CAS REGISTRY NO=18585-06-3
##$NIST MASS SPEC NO=135400
##MOLFORM=C10 H9 Cl F3 N O2
##MW=267
##$NIST SOURCE=MSDC
##XUNITS=M/Z
##YUNITS=RELATIVE INTENSITY
##XFACTOR=1
##YFACTOR=1
##FIRSTX=12
##LASTX=270
##FIRSTY=50
##MAXX=270
##MINX=12
##MAXY=9999
##MINY=18
##NPOINTS=190
##PEAK TABLE=(XY..XY)
12,50 13,54 14,198 15,627
16,72 17,53 18,73 19,167
20,36 25,75 26,575 27,2792
28,882 29,9999 30,454 31,1824
32,28 33,25 35,82 36,55
37,348 38,433 39,237 40,100
41,73 42,148 43,312 44,281
45,1108 46,227 47,107 48,33
49,172 50,325 51,237 52,219
53,18 54,44 55,35 56,117
57,261 58,21 60,60 61,434
62,734 63,1013 64,302 65,81
66,27 67,77 68,18 69,1061
70,50 71,39 72,178 73,405
74,369 75,649 76,104 77,32
79,78 80,86 81,346 82,105
83,61 84,68 85,149 86,82
87,325 88,584 89,214 90,226
91,197 92,48 93,214 94,95
95,59 96,48 97,312 98,182
99,363 100,145 101,94 102,26
104,34 105,28 106,70 107,59
108,297 109,148 110,61 111,132
112,160 113,328 114,71 115,28
117,135 118,55 119,102 120,101
121,23 122,46 123,23 124,789
125,286 126,300 127,74 128,26
129,79 130,23 131,354 132,1173
133,144 138,444 139,401 140,208
141,68 142,60 143,280 144,195
145,352 146,61 147,316 148,789
149,134 150,276 151,33 152,38
153,28 154,66 155,24 156,55
157,173 158,768 159,213 160,351
161,130 162,29 163,41 166,171
167,366 168,145 169,130 170,40
171,84 172,24 173,439 174,270
175,437 176,296 177,124 178,89
179,263 180,43 181,98 182,26
186,366 187,48 188,65 193,1105
194,1005 195,4509 196,665 197,1293
198,100 202,450 203,74 204,205
205,27 206,33 207,27 208,2303
209,272 210,820 211,79 221,2652
222,543 223,942 224,160 238,46
239,162 240,34 241,59 248,308
249,49 250,100 267,1936 268,282
269,587 270,80
##END=
