##TITLE=Methyl N-(3-trifluoromethylphenyl)carbamate
##JCAMP-DX=4.24
##DATA TYPE=MASS SPECTRUM
##ORIGIN=NIST Mass Spectrometry Data Center, 1994
##OWNER=NIST Mass Spectrometry Data Center
Collection (C) 2014 copyright by the U.S. Secretary of Commerce
on behalf of the United States of America. All rights reserved.
##CAS REGISTRY NO=18584-93-5
##$NIST MASS SPEC NO=135811
##MOLFORM=C9 H8 F3 N O2
##MW=219
##$NIST SOURCE=MSDC
##XUNITS=M/Z
##YUNITS=RELATIVE INTENSITY
##XFACTOR=1
##YFACTOR=1
##FIRSTX=12
##LASTX=221
##FIRSTY=92
##MAXX=221
##MINX=12
##MAXY=9999
##MINY=22
##NPOINTS=138
##PEAK TABLE=(XY..XY)
12,92 13,127 14,363 15,8424
16,115 17,22 18,64 26,44
28,735 29,1225 30,627 31,686
32,396 33,90 36,40 37,647
38,1361 39,1521 40,347 41,189
42,37 44,158 46,42 49,117
50,1037 51,808 52,621 53,99
54,70 55,37 56,186 57,837
58,37 59,8546 60,255 61,446
62,946 63,3188 64,1645 65,609
66,81 67,39 68,141 69,1425
70,206 71,46 73,65 74,191
75,1593 76,324 77,288 78,128
79,739 80,151 81,285 82,255
83,1147 84,138 86,57 87,227
88,908 89,310 90,786 91,830
92,132 93,154 94,179 95,743
96,123 99,303 100,225 101,134
102,54 104,152 105,221 106,557
107,200 108,237 109,985 110,135
111,83 112,346 113,2241 114,1894
115,196 118,45 119,166 120,1046
121,120 123,46 125,477 126,160
127,1156 128,142 132,709 133,1023
134,312 135,69 137,295 138,182
139,1046 140,2511 141,380 142,82
143,55 144,55 145,2000 146,285
147,119 148,106 149,59 150,33
154,221 155,117 157,31 158,206
159,1488 160,2199 161,417 162,192
168,1391 169,142 170,46 172,95
174,9999 175,1101 176,92 183,73
187,5362 188,1207 189,102 198,70
200,1492 201,174 203,177 219,7943
220,825 221,38
##END=
