##TITLE=Heptane, 2-iodo-
##JCAMP-DX=4.24
##DATA TYPE=MASS SPECTRUM
##OWNER=NIST Mass Spectrometry Data Center
Collection (C) 2014 copyright by the U.S. Secretary of Commerce
on behalf of the United States of America. All rights reserved.
##CAS REGISTRY NO=18589-29-2
##$NIST MASS SPEC NO=10815
##MOLFORM=C7 H15 I
##MW=226
##$NIST SOURCE=MSDC
##XUNITS=M/Z
##YUNITS=RELATIVE INTENSITY
##XFACTOR=1
##YFACTOR=1
##FIRSTX=15
##LASTX=227
##FIRSTY=30
##MAXX=227
##MINX=15
##MAXY=9999
##MINY=10
##NPOINTS=62
##PEAK TABLE=(XY..XY)
15,30 26,40 27,811 28,370
29,2022 30,30 31,30 32,60
36,40 38,40 39,701 40,120
41,3273 42,490 43,3383 44,120
45,40 50,30 51,60 52,30
53,170 54,80 55,1031 56,400
57,9999 58,460 59,130 65,30
66,20 67,100 68,50 69,340
70,110 71,150 72,60 73,20
81,30 82,10 83,30 84,20
85,190 86,20 87,50 93,10
94,20 95,30 97,20 98,50
99,4124 100,320 101,10 127,90
128,40 136,20 141,30 153,10
154,10 155,110 169,40 183,10
226,160 227,10
##END=
