##TITLE=Butane, 1-(1-methylethoxy)-
##JCAMP-DX=4.24
##DATA TYPE=MASS SPECTRUM
##OWNER=NIST Mass Spectrometry Data Center
Collection (C) 2014 copyright by the U.S. Secretary of Commerce
on behalf of the United States of America. All rights reserved.
##CAS REGISTRY NO=1860-27-1
##$NIST MASS SPEC NO=1903
##MOLFORM=C7 H16 O
##MW=116
##$NIST SOURCE=MSDC
##XUNITS=M/Z
##YUNITS=RELATIVE INTENSITY
##XFACTOR=1
##YFACTOR=1
##FIRSTX=14
##LASTX=117
##FIRSTY=80
##MAXX=117
##MINX=14
##MAXY=9999
##MINY=20
##NPOINTS=35
##PEAK TABLE=(XY..XY)
14,80 15,460 26,140 27,1712
28,1872 29,2482 30,60 31,5555
32,390 39,881 40,140 41,3553
42,1101 43,9999 44,470 45,7527
46,180 53,80 55,1021 56,6996
57,6035 58,500 59,741 69,50
70,50 71,110 72,70 73,3363
74,170 83,220 101,3203 102,190
115,20 116,280 117,30
##END=
