##TITLE=Myristic acid, TMS derivative
##JCAMP-DX=4.24
##DATA TYPE=MASS SPECTRUM
##ORIGIN=D.HENNEBERG, MAX-PLANCK INSTITUTE, MULHEIM, WEST GERMANY
##OWNER=NIST Mass Spectrometry Data Center
Collection (C) 2014 copyright by the U.S. Secretary of Commerce
on behalf of the United States of America. All rights reserved.
##CAS REGISTRY NO=18603-17-3
##$NIST MASS SPEC NO=63711
##MOLFORM=C17 H36 O2 Si
##MW=300
##$NIST SOURCE=MSDC
##XUNITS=M/Z
##YUNITS=RELATIVE INTENSITY
##XFACTOR=1
##YFACTOR=1
##FIRSTX=24
##LASTX=307
##FIRSTY=11
##MAXX=307
##MINX=24
##MAXY=9999
##MINY=1
##NPOINTS=184
##PEAK TABLE=(XY..XY)
24,11 25,23 26,72 27,469
28,235 29,1143 30,34 31,24
34,7 37,17 39,237 40,74
41,1701 42,410 43,2274 44,61
45,623 46,59 47,371 48,49
49,42 50,8 51,14 52,10
53,89 54,105 55,2101 56,309
57,785 58,143 59,269 60,87
61,471 62,32 63,33 65,22
66,13 67,347 68,69 69,876
70,129 71,199 72,227 73,9999
74,888 75,6252 76,450 77,325
78,14 79,54 80,19 81,344
82,64 83,364 84,216 85,111
86,67 87,45 88,63 89,145
90,37 91,48 92,3 93,67
94,11 95,258 96,25 97,269
98,221 99,109 100,18 101,83
102,19 103,40 105,170 106,31
107,35 108,6 109,87 110,23
111,108 112,89 113,24 114,26
115,111 116,376 117,6325 118,542
119,273 120,16 121,41 122,8
123,36 124,10 125,32 126,12
127,12 128,22 129,1840 130,220
131,715 132,2827 133,474 134,118
135,36 136,7 137,17 139,13
140,14 141,11 142,12 143,115
144,27 145,1739 146,205 147,71
148,5 149,10 153,8 154,25
155,13 156,7 157,36 158,4
159,126 160,27 161,10 167,23
168,9 169,8 171,62 172,12
173,28 174,23 175,2 178,11
179,3 181,5 185,68 186,16
187,82 188,25 191,4 192,5
195,4 196,5 199,25 200,5
201,220 202,45 203,12 206,3
210,8 213,10 215,36 216,11
217,4 219,4 221,1 225,2
227,15 228,4 229,12 241,117
242,24 243,25 244,12 245,4
255,11 256,4 257,109 258,19
259,4 269,7 271,17 272,5
285,1904 286,500 287,143 288,22
299,13 300,117 301,31 307,6
##END=
