##TITLE=1-(Dimethyl(prop-2-enyl)silyloxy)butane
##JCAMP-DX=4.24
##DATA TYPE=MASS SPECTRUM
##ORIGIN=Vladimir Zaikin, TIPS RAS, Moscow, Russia
##OWNER=NIST Mass Spectrometry Data Center
Collection (C) 2014 copyright by the U.S. Secretary of Commerce
on behalf of the United States of America. All rights reserved.
##CAS REGISTRY NO=186181-25-9
##$NIST MASS SPEC NO=245305
##MOLFORM=C9 H20 O Si
##MW=172
##$NIST SOURCE=MSDC
##XUNITS=M/Z
##YUNITS=RELATIVE INTENSITY
##XFACTOR=1
##YFACTOR=1
##FIRSTX=39
##LASTX=157
##FIRSTY=500
##MAXX=157
##MINX=39
##MAXY=9999
##MINY=130
##NPOINTS=34
##PEAK TABLE=(XY..XY)
39,500 41,770 42,260 43,760
45,1281 47,820 55,290 57,210
58,380 59,1621 60,250 61,1050
71,280 72,130 73,200 74,230
75,9999 76,790 77,440 83,150
85,220 87,240 88,210 89,930
95,220 97,170 99,470 101,690
115,210 130,240 131,4924 132,670
133,260 157,190
##END=
