##TITLE=2,4,6(1H,3H,5H)-Pyrimidinetrione, 1-methyl-5-(1-methylethyl)-5-(2-propenyl)-
##JCAMP-DX=4.24
##DATA TYPE=MASS SPECTRUM
##ORIGIN=Finnigan MAT: Toxicological Library (LIBR-TX)
##OWNER=NIST Mass Spectrometry Data Center
Collection (C) 2014 copyright by the U.S. Secretary of Commerce
on behalf of the United States of America. All rights reserved.
##CAS REGISTRY NO=1861-21-8
##$NIST MASS SPEC NO=120673
##MOLFORM=C11 H16 N2 O3
##MW=224
##$NIST SOURCE=MSDC
##XUNITS=M/Z
##YUNITS=RELATIVE INTENSITY
##XFACTOR=1
##YFACTOR=1
##FIRSTX=41
##LASTX=209
##FIRSTY=5998
##MAXX=209
##MINX=41
##MAXY=9999
##MINY=95
##NPOINTS=29
##PEAK TABLE=(XY..XY)
41,5998 43,1818 53,2018 55,809
58,693 67,373 79,407 81,695
82,392 83,387 96,511 97,1790
109,717 110,880 111,814 124,2155
126,198 138,1858 139,105 154,208
155,95 165,105 167,1204 169,304
181,9999 182,5579 183,1774 206,195
209,479
##END=
