##TITLE=Benzo[g]pteridine-2,4(3H,10H)-dione, 3,7,8,10-tetramethyl-
##JCAMP-DX=4.24
##DATA TYPE=MASS SPECTRUM
##OWNER=NIST Mass Spectrometry Data Center
Collection (C) 2014 copyright by the U.S. Secretary of Commerce
on behalf of the United States of America. All rights reserved.
##CAS REGISTRY NO=18636-32-3
##$NIST MASS SPEC NO=13113
##MOLFORM=C14 H14 N4 O2
##MW=270
##$NIST SOURCE=MSDC
##XUNITS=M/Z
##YUNITS=RELATIVE INTENSITY
##XFACTOR=1
##YFACTOR=1
##FIRSTX=41
##LASTX=272
##FIRSTY=375
##MAXX=272
##MINX=41
##MAXY=9999
##MINY=62
##NPOINTS=98
##PEAK TABLE=(XY..XY)
41,375 42,375 43,1667 44,312
49,208 50,312 51,979 52,500
53,417 54,104 55,104 56,521
57,125 58,208 62,208 63,667
64,375 65,833 74,62 75,271
76,479 77,1771 78,583 79,312
87,125 88,208 89,1042 90,833
91,1250 92,271 93,104 100,104
101,479 102,1042 103,1875 104,1187
105,417 106,104 107,104 114,312
115,625 116,1750 117,1146 118,771
119,104 126,83 127,83 128,667
129,583 130,1167 131,2500 132,583
141,375 142,667 143,1042 144,833
145,312 153,83 154,83 155,479
156,833 157,3291 158,3375 159,792
160,104 168,208 169,583 170,3583
171,3375 172,625 182,208 183,208
184,3750 185,4375 186,1354 187,1250
188,208 196,83 197,83 198,2500
199,979 200,417 201,104 211,104
212,271 213,9999 214,5458 215,667
227,2541 228,375 240,104 241,1458
242,1979 243,208 269,208 270,9020
271,2291 272,292
##END=
