##TITLE=Docosanoic acid, 1,2,3-propanetriyl ester
##JCAMP-DX=4.24
##DATA TYPE=MASS SPECTRUM
##ORIGIN=R.T.HOLMAN,UNIVERSITY OF MINNESOTA
##OWNER=NIST Mass Spectrometry Data Center
Collection (C) 2014 copyright by the U.S. Secretary of Commerce
on behalf of the United States of America. All rights reserved.
##CAS REGISTRY NO=18641-57-1
##$NIST MASS SPEC NO=36452
##MOLFORM=C69 H134 O6
##MW=1058
##$NIST SOURCE=MSDC
##XUNITS=M/Z
##YUNITS=RELATIVE INTENSITY
##XFACTOR=1
##YFACTOR=1
##FIRSTX=26
##LASTX=721
##FIRSTY=210
##MAXX=721
##MINX=26
##MAXY=9999
##MINY=60
##NPOINTS=380
##PEAK TABLE=(XY..XY)
26,210 27,680 28,500 29,1210
30,180 31,400 36,310 37,120
38,210 39,1000 40,340 41,9999
42,1460 43,7500 44,1840 45,1400
46,120 50,250 51,430 52,210
53,750 54,900 55,6870 56,2120
57,7810 58,1150 59,1180 60,2280
61,960 62,120 63,180 64,210
65,310 66,310 67,2150 68,1430
69,5310 70,2310 71,5310 72,710
73,3530 74,530 75,370 76,310
77,680 78,370 79,960 80,560
81,2400 82,1710 83,4370 84,1930
85,3120 86,900 87,1370 88,1400
89,650 90,150 91,930 92,370
93,930 94,530 95,2000 96,1370
97,3900 98,3370 99,1250 100,810
101,2930 102,530 103,500 104,430
105,1250 106,400 107,870 108,530
109,1310 110,840 111,2000 112,1400
113,1500 114,430 115,1460 116,750
117,870 118,370 119,680 120,310
121,870 122,370 123,840 124,560
125,1370 126,560 127,530 128,500
129,1780 130,430 131,620 132,280
133,840 134,310 135,900 136,370
137,560 138,370 139,620 140,430
141,930 142,430 143,650 144,280
145,680 146,310 147,560 148,310
149,1900 150,370 151,370 152,340
153,340 154,370 155,650 156,310
157,530 158,530 159,750 160,340
161,400 162,210 163,710 164,210
165,530 166,340 167,620 168,280
169,460 170,210 171,810 172,310
173,340 174,180 175,280 176,150
177,250 178,250 179,280 180,210
181,250 182,210 183,400 184,150
185,1780 186,310 187,250 188,280
189,370 190,210 191,340 192,280
193,370 194,280 195,370 196,250
197,750 198,250 199,460 200,180
201,250 202,180 203,250 204,180
205,280 206,250 207,280 208,210
209,250 210,500 211,370 212,150
213,460 214,150 215,250 216,250
217,680 218,650 219,1780 220,430
221,180 222,250 223,210 224,180
225,340 226,180 227,560 228,280
229,250 230,120 231,210 232,150
233,120 234,250 235,150 236,250
237,250 238,210 239,400 240,210
241,560 242,280 243,150 244,90
245,120 246,150 247,250 248,150
249,180 250,210 251,150 252,180
253,370 254,150 255,430 256,280
257,210 258,120 259,280 260,210
261,150 262,120 263,180 264,150
265,150 266,210 267,280 268,120
269,250 270,180 271,150 272,120
273,210 274,210 275,430 276,180
277,90 278,120 279,210 280,120
281,210 282,150 283,310 284,210
285,210 286,120 287,120 288,120
289,120 290,120 291,120 292,120
293,120 294,120 295,180 296,150
297,530 298,180 299,150 300,120
301,250 302,150 303,120 304,120
305,120 306,120 307,150 308,150
309,150 310,120 311,210 312,150
313,370 314,210 315,150 316,120
317,120 318,120 319,120 320,180
321,210 322,310 323,1000 324,340
325,150 326,280 327,150 328,120
329,120 330,120 331,120 332,120
333,90 337,150 338,150 339,150
340,1370 341,400 342,90 343,60
350,90 351,120 352,150 353,340
354,180 355,120 356,90 357,310
358,180 359,90 364,90 365,150
366,90 367,150 368,370 369,150
370,90 371,210 372,120 373,90
375,120 378,120 379,150 380,310
381,780 382,280 383,90 384,90
386,400 387,210 388,120 391,250
392,120 393,120 395,180 396,120
397,430 398,210 399,150 400,90
401,90 407,150 408,90 409,90
423,120 424,90 425,150 437,120
438,340 439,250 440,150 451,1150
452,430 453,120 465,120 466,120
467,90 468,90 491,180 492,90
512,430 513,210 514,90 675,210
676,120 689,120 690,120 691,120
718,840 719,1090 720,560 721,210
##END=
