##TITLE=Pentane, 1-propoxy-
##JCAMP-DX=4.24
##DATA TYPE=MASS SPECTRUM
##ORIGIN=CARL DJERASSI DEPT OF CHEM STANFORD UNIV STANFORD CALIF 94305
##OWNER=NIST Mass Spectrometry Data Center
Collection (C) 2014 copyright by the U.S. Secretary of Commerce
on behalf of the United States of America. All rights reserved.
##CAS REGISTRY NO=18641-82-2
##$NIST MASS SPEC NO=46504
##MOLFORM=C8 H18 O
##MW=130
##$NIST SOURCE=MSDC
##XUNITS=M/Z
##YUNITS=RELATIVE INTENSITY
##XFACTOR=1
##YFACTOR=1
##FIRSTX=41
##LASTX=101
##FIRSTY=1600
##MAXX=101
##MINX=41
##MAXY=9999
##MINY=100
##NPOINTS=14
##PEAK TABLE=(XY..XY)
41,1600 42,900 43,9999 44,400
45,100 55,700 59,100 61,200
69,400 70,1300 71,2700 72,100
73,1100 101,100
##END=
