##TITLE=m-Chlorocinnamic acid
##JCAMP-DX=4.24
##DATA TYPE=MASS SPECTRUM
##ORIGIN=Japan AIST/NIMC Database- Spectrum MS-NW-2811
##OWNER=NIST Mass Spectrometry Data Center
Collection (C) 2014 copyright by the U.S. Secretary of Commerce
on behalf of the United States of America. All rights reserved.
##CAS REGISTRY NO=1866-38-2
##$NIST MASS SPEC NO=231702
##MOLFORM=C9 H7 Cl O2
##MW=182
##$NIST SOURCE=MSDC
##XUNITS=M/Z
##YUNITS=RELATIVE INTENSITY
##XFACTOR=1
##YFACTOR=1
##FIRSTX=12
##LASTX=186
##FIRSTY=10
##MAXX=186
##MINX=12
##MAXY=9999
##MINY=10
##NPOINTS=140
##PEAK TABLE=(XY..XY)
12,10 14,30 15,20 16,30
18,20 25,20 26,99 27,199
28,199 29,109 31,40 32,30
35,30 36,129 37,199 38,249
39,449 40,40 41,60 42,40
43,80 44,389 45,489 46,20
47,20 48,20 49,219 50,1549
51,2519 52,289 53,119 54,90
55,99 56,10 57,10 59,189
60,70 61,279 62,379 63,699
64,119 65,389 66,30 67,20
68,149 69,229 70,50 71,209
72,40 73,729 74,1079 75,2949
76,909 77,949 78,80 79,50
81,20 82,129 83,30 84,99
85,259 86,119 87,149 88,30
89,379 90,179 91,2319 92,189
93,20 94,10 95,10 96,20
97,99 98,209 99,279 100,209
101,4009 102,4239 103,1439 104,129
105,50 107,10 108,20 109,30
110,80 111,599 112,349 113,349
114,119 115,60 116,10 117,80
118,169 119,1119 120,109 121,20
122,10 123,20 124,10 125,909
126,129 127,309 128,189 129,99
130,70 131,20 135,50 136,1969
137,2839 138,979 139,1139 140,249
141,289 142,60 143,70 145,10
146,30 147,4049 148,429 149,60
150,10 152,30 153,179 154,559
155,119 156,199 157,20 163,70
164,659 165,3439 166,549 167,1119
168,119 180,80 181,7789 182,9999
183,3489 184,3289 185,329 186,40
##END=
