##TITLE=1,4-Hexadiene, 2,3-dimethyl-
##JCAMP-DX=4.24
##DATA TYPE=MASS SPECTRUM
##ORIGIN=W.SUCROW ORGAN. CHEM.INST., TECHNISCHEN UNIV., BERLIN, G.D.R.
##OWNER=NIST Mass Spectrometry Data Center
Collection (C) 2014 copyright by the U.S. Secretary of Commerce
on behalf of the United States of America. All rights reserved.
##CAS REGISTRY NO=18669-52-8
##$NIST MASS SPEC NO=1482
##MOLFORM=C8 H14
##MW=110
##$NIST SOURCE=MSDC
##XUNITS=M/Z
##YUNITS=RELATIVE INTENSITY
##XFACTOR=1
##YFACTOR=1
##FIRSTX=27
##LASTX=111
##FIRSTY=2200
##MAXX=111
##MINX=27
##MAXY=9999
##MINY=200
##NPOINTS=36
##PEAK TABLE=(XY..XY)
27,2200 28,400 29,1100 30,300
38,300 39,4700 40,800 41,6500
42,1400 43,600 44,400 50,300
51,800 52,400 53,2200 54,500
55,3000 56,400 65,600 67,5700
68,800 69,1200 70,300 77,900
78,200 79,1000 80,400 81,1200
91,400 93,700 95,9999 96,800
98,200 109,200 110,2700 111,200
##END=
