##TITLE=Methane, dibromofluoro-
##JCAMP-DX=4.24
##DATA TYPE=MASS SPECTRUM
##OWNER=NIST Mass Spectrometry Data Center
Collection (C) 2014 copyright by the U.S. Secretary of Commerce
on behalf of the United States of America. All rights reserved.
##CAS REGISTRY NO=1868-53-7
##$NIST MASS SPEC NO=8271
##MOLFORM=C H Br2 F
##MW=190
##$NIST SOURCE=MSDC
##XUNITS=M/Z
##YUNITS=RELATIVE INTENSITY
##XFACTOR=1
##YFACTOR=1
##FIRSTX=12
##LASTX=195
##FIRSTY=30
##MAXX=195
##MINX=12
##MAXY=9999
##MINY=10
##NPOINTS=43
##PEAK TABLE=(XY..XY)
12,30 13,50 14,10 15,30
32,540 51,20 79,881 81,871
91,691 92,601 93,721 94,591
95,40 107,50 108,10 109,40
110,160 111,9999 112,270 113,9789
114,120 117,10 118,10 119,20
158,100 159,10 160,200 161,10
162,100 163,10 170,30 171,80
172,70 173,170 174,30 175,80
189,40 190,1461 191,100 192,2853
193,70 194,1391 195,30
##END=
