##TITLE=(1S,2S,3R,5S)-(+)-Pinanediol
##JCAMP-DX=4.24
##DATA TYPE=MASS SPECTRUM
##ORIGIN=Chuck Anderson, Aldrich Chemical Co.
##OWNER=NIST Mass Spectrometry Data Center
Collection (C) 2014 copyright by the U.S. Secretary of Commerce
on behalf of the United States of America. All rights reserved.
##CAS REGISTRY NO=18680-27-8
##$NIST MASS SPEC NO=108409
##MOLFORM=C10 H18 O2
##MW=170
##$NIST SOURCE=MSDC
##XUNITS=M/Z
##YUNITS=RELATIVE INTENSITY
##XFACTOR=1
##YFACTOR=1
##FIRSTX=15
##LASTX=155
##FIRSTY=184
##MAXX=155
##MINX=15
##MAXY=9999
##MINY=9
##NPOINTS=80
##PEAK TABLE=(XY..XY)
15,184 18,113 19,83 26,110
27,2152 28,494 29,1818 30,58
31,360 38,60 39,1724 40,284
41,3796 42,374 43,9999 44,397
45,421 50,66 51,280 52,113
53,1056 54,230 55,2700 56,1015
57,705 58,621 59,190 63,40
65,357 66,162 67,1376 68,681
69,2526 70,909 71,6844 72,3582
73,280 74,1363 75,46 77,638
78,116 79,1537 80,186 81,2900
82,651 83,2593 84,655 85,337
86,37 87,497 91,477 92,103
93,1510 94,300 95,691 96,167
97,401 98,347 99,9357 100,842
101,159 105,78 107,185 108,2553
109,1350 110,167 111,4545 112,357
113,52 119,182 121,31 123,55
125,47 126,2994 127,277 134,9
135,36 137,264 152,47 155,19
##END=
