##TITLE=1,4-Benzenedicarboxylic acid, bis(2-methylpropyl) ester
##JCAMP-DX=4.24
##DATA TYPE=MASS SPECTRUM
##OWNER=NIST Mass Spectrometry Data Center
Collection (C) 2014 copyright by the U.S. Secretary of Commerce
on behalf of the United States of America. All rights reserved.
##CAS REGISTRY NO=18699-48-4
##$NIST MASS SPEC NO=23122
##MOLFORM=C16 H22 O4
##MW=278
##$NIST SOURCE=MSDC
##XUNITS=M/Z
##YUNITS=RELATIVE INTENSITY
##XFACTOR=1
##YFACTOR=1
##FIRSTX=27
##LASTX=263
##FIRSTY=270
##MAXX=263
##MINX=27
##MAXY=9999
##MINY=60
##NPOINTS=60
##PEAK TABLE=(XY..XY)
27,270 28,181 29,530 39,310
40,70 41,881 42,120 43,410
44,80 45,260 50,240 51,110
52,70 53,60 55,300 56,3883
57,2913 58,150 65,851 66,150
67,60 69,90 70,60 71,140
73,140 74,70 75,190 76,761
77,160 79,90 81,100 83,70
85,110 93,160 94,110 95,60
97,60 99,60 103,160 104,1401
105,230 121,1171 122,250 123,170
132,300 133,80 149,4844 150,520
151,90 167,4374 168,420 169,150
205,9999 206,1371 207,180 223,4434
224,611 225,80 235,70 263,70
##END=
