##TITLE=Hexahelicene
##JCAMP-DX=4.24
##DATA TYPE=MASS SPECTRUM
##OWNER=NIST Mass Spectrometry Data Center
Collection (C) 2014 copyright by the U.S. Secretary of Commerce
on behalf of the United States of America. All rights reserved.
##CAS REGISTRY NO=187-83-7
##$NIST MASS SPEC NO=33165
##MOLFORM=C26 H16
##MW=328
##$NIST SOURCE=MSDC
##XUNITS=M/Z
##YUNITS=RELATIVE INTENSITY
##XFACTOR=1
##YFACTOR=1
##FIRSTX=50
##LASTX=332
##FIRSTY=300
##MAXX=332
##MINX=50
##MAXY=9999
##MINY=100
##NPOINTS=128
##PEAK TABLE=(XY..XY)
50,300 51,500 52,200 53,200
54,200 55,900 56,1000 57,1300
58,100 60,700 61,100 62,100
63,100 64,100 65,100 66,100
67,300 68,100 69,500 70,300
71,400 73,100 74,100 75,500
76,200 77,700 78,700 79,200
80,100 81,200 82,200 83,200
84,100 85,200 89,100 91,500
92,200 93,100 94,100 95,200
96,200 97,300 98,100 100,100
104,300 105,100 106,900 107,100
108,100 109,100 110,200 111,100
112,100 113,100 115,100 117,100
118,100 119,200 120,100 121,100
122,100 123,100 124,100 125,100
127,100 128,200 129,100 131,200
133,100 135,100 136,100 137,200
138,100 141,200 142,100 143,200
144,100 145,100 147,200 148,200
149,700 150,313 151,100 152,100
153,100 154,100 155,300 156,1400
157,500 158,100 160,100 161,800
162,2000 163,1000 164,500 165,300
167,100 272,100 274,100 276,100
285,100 286,100 287,100 288,100
296,100 297,100 298,500 299,500
300,4200 301,2000 302,300 311,200
312,100 313,800 314,300 320,100
321,100 322,300 323,300 324,1800
325,1000 326,1800 327,1800 328,9999
329,2700 330,1000 331,200 332,100
##END=
