##TITLE=1-Propene, 3-chloro-2-(chloromethyl)-
##JCAMP-DX=4.24
##DATA TYPE=MASS SPECTRUM
##ORIGIN=Chuck Anderson, Aldrich Chemical Co.
##OWNER=NIST Mass Spectrometry Data Center
Collection (C) 2014 copyright by the U.S. Secretary of Commerce
on behalf of the United States of America. All rights reserved.
##CAS REGISTRY NO=1871-57-4
##$NIST MASS SPEC NO=107662
##MOLFORM=C4 H6 Cl2
##MW=124
##$NIST SOURCE=MSDC
##XUNITS=M/Z
##YUNITS=RELATIVE INTENSITY
##XFACTOR=1
##YFACTOR=1
##FIRSTX=12
##LASTX=129
##FIRSTY=5
##MAXX=129
##MINX=12
##MAXY=9999
##MINY=1
##NPOINTS=91
##PEAK TABLE=(XY..XY)
12,5 13,8 14,18 15,18
24,6 25,45 26,517 27,2844
28,401 29,89 30,3 31,1
32,3 35,137 36,162 37,643
38,937 39,4266 40,797 41,261
42,12 43,31 44,46 45,13
47,146 48,168 49,1939 50,1185
51,2338 52,721 53,8490 54,506
55,18 56,1 59,6 60,84
61,414 62,1508 63,479 64,482
65,110 66,3 70,5 71,11
72,41 73,315 74,48 75,2198
76,76 77,638 78,22 79,1
82,2 83,94 84,23 85,88
86,22 87,255 88,9999 89,6120
90,2887 91,1961 92,88 93,3
94,1 95,4 96,56 97,13
98,39 99,8 100,7 101,2
102,1 105,2 107,7 108,1
109,228 110,9 111,156 112,5
113,26 114,2 121,1 122,1
123,16 124,1702 125,76 126,1088
127,46 128,169 129,8
##END=
