##TITLE=Diphenylacetyl chloride
##JCAMP-DX=4.24
##DATA TYPE=MASS SPECTRUM
##ORIGIN=NIST Mass Spectrometry Data Center
##OWNER=NIST Mass Spectrometry Data Center
Collection (C) 2014 copyright by the U.S. Secretary of Commerce
on behalf of the United States of America. All rights reserved.
##CAS REGISTRY NO=1871-76-7
##$NIST MASS SPEC NO=342610
##MOLFORM=C14 H11 Cl O
##MW=230
##$NIST SOURCE=MSDC
##XUNITS=M/Z
##YUNITS=RELATIVE INTENSITY
##XFACTOR=1
##YFACTOR=1
##FIRSTX=18
##LASTX=196
##FIRSTY=10
##MAXX=196
##MINX=18
##MAXY=9999
##MINY=10
##NPOINTS=58
##PEAK TABLE=(XY..XY)
18,10 36,70 37,150 38,591
39,1451 40,70 50,931 51,1051
52,220 53,40 55,180 56,120
61,290 62,891 63,1601 64,180
65,200 67,30 70,611 74,160
75,530 76,290 77,220 78,40
82,1491 85,160 86,520 87,701
88,350 89,500 90,70 98,280
99,130 100,90 101,60 102,130
109,50 110,160 111,140 113,350
114,140 115,621 116,50 122,50
126,250 127,50 137,180 139,1101
140,120 150,50 161,40 163,1251
165,9999 166,4044 167,561 194,2873
195,500 196,30
##END=
