##TITLE=Tris-(2-chloroethyl)orthoformate
##JCAMP-DX=4.24
##DATA TYPE=MASS SPECTRUM
##ORIGIN=NIST Mass Spectrometry Data Center
##OWNER=NIST Mass Spectrometry Data Center
Collection (C) 2014 copyright by the U.S. Secretary of Commerce
on behalf of the United States of America. All rights reserved.
##CAS REGISTRY NO=18719-58-9
##$NIST MASS SPEC NO=343088
##MOLFORM=C7 H13 Cl3 O3
##MW=250
##$NIST SOURCE=MSDC
##XUNITS=M/Z
##YUNITS=RELATIVE INTENSITY
##XFACTOR=1
##YFACTOR=1
##FIRSTX=12
##LASTX=253
##FIRSTY=10
##MAXX=253
##MINX=12
##MAXY=9999
##MINY=10
##NPOINTS=65
##PEAK TABLE=(XY..XY)
12,10 13,30 14,180 15,631
16,30 17,10 19,140 20,20
26,751 27,6005 28,1381 29,1421
30,550 31,2002 32,40 33,10
35,70 36,100 37,30 38,20
39,30 40,10 41,20 42,180
43,500 44,160 45,801 47,661
49,841 50,210 51,300 52,60
53,10 57,10 61,170 63,9999
64,591 65,2933 66,80 73,4894
74,100 75,20 77,10 78,10
79,30 81,30 87,30 89,50
93,20 109,540 111,170 135,50
137,20 143,40 145,20 151,20
171,5525 173,3363 174,230 175,591
176,40 249,90 250,20 251,90
253,40
##END=
