##TITLE=3-Heptanol, 5-methyl-
##JCAMP-DX=4.24
##DATA TYPE=MASS SPECTRUM
##ORIGIN=NIST Mass Spectrometry Data Center, 1990.
##OWNER=NIST Mass Spectrometry Data Center
Collection (C) 2014 copyright by the U.S. Secretary of Commerce
on behalf of the United States of America. All rights reserved.
##CAS REGISTRY NO=18720-65-5
##$NIST MASS SPEC NO=114330
##MOLFORM=C8 H18 O
##MW=130
##$NIST SOURCE=MSDC
##XUNITS=M/Z
##YUNITS=RELATIVE INTENSITY
##XFACTOR=1
##YFACTOR=1
##FIRSTX=15
##LASTX=112
##FIRSTY=203
##MAXX=112
##MINX=15
##MAXY=9999
##MINY=203
##NPOINTS=30
##PEAK TABLE=(XY..XY)
15,203 26,300 27,2728 28,3691
29,386 31,2243 39,2118 40,558
41,6086 42,944 43,2286 44,507
45,1334 53,540 55,4514 56,2033
57,6339 58,1202 59,9999 60,365
67,305 69,540 70,1236 71,984
72,332 83,9705 84,809 101,3283
102,245 112,634
##END=
