##TITLE=1,1,1,3,5,5,5-Heptamethyltrisiloxane
##JCAMP-DX=4.24
##DATA TYPE=MASS SPECTRUM
##ORIGIN=M. WURST, OSTBOHMISCHE CHEM. SYNTH. VEB., FRANKFURT, W. GER.
##OWNER=NIST Mass Spectrometry Data Center
Collection (C) 2014 copyright by the U.S. Secretary of Commerce
on behalf of the United States of America. All rights reserved.
##CAS REGISTRY NO=1873-88-7
##$NIST MASS SPEC NO=104190
##MOLFORM=C7 H22 O2 Si3
##MW=222
##$NIST SOURCE=MSDC
##XUNITS=M/Z
##YUNITS=RELATIVE INTENSITY
##XFACTOR=1
##YFACTOR=1
##FIRSTX=15
##LASTX=221
##FIRSTY=500
##MAXX=221
##MINX=15
##MAXY=9999
##MINY=500
##NPOINTS=20
##PEAK TABLE=(XY..XY)
15,500 28,2100 43,500 45,1300
59,2500 73,8600 74,900 87,500
103,900 115,500 117,500 119,500
131,700 133,2700 147,900 191,900
207,9999 208,2300 209,1400 221,1100
##END=
