##TITLE=5-Nitro-2-furancarboxylic acid methyl ester
##JCAMP-DX=4.24
##DATA TYPE=MASS SPECTRUM
##ORIGIN=NIST Mass Spectrometry Data Center
##OWNER=NIST Mass Spectrometry Data Center
Collection (C) 2014 copyright by the U.S. Secretary of Commerce
on behalf of the United States of America. All rights reserved.
##CAS REGISTRY NO=1874-23-3
##$NIST MASS SPEC NO=340791
##MOLFORM=C6 H5 N O5
##MW=171
##$NIST SOURCE=MSDC
##XUNITS=M/Z
##YUNITS=RELATIVE INTENSITY
##XFACTOR=1
##YFACTOR=1
##FIRSTX=12
##LASTX=173
##FIRSTY=10
##MAXX=173
##MINX=12
##MAXY=9999
##MINY=10
##NPOINTS=76
##PEAK TABLE=(XY..XY)
12,10 13,20 14,20 15,1311
16,30 24,10 25,120 26,991
27,500 29,661 30,4344 31,150
32,30 36,120 37,1391 38,4984
39,1071 40,200 41,270 42,70
43,150 44,150 45,40 46,170
48,10 49,50 50,130 51,510
52,1191 53,1241 54,2342 55,250
56,20 57,60 59,4204 60,80
61,10 63,10 64,20 65,260
66,2262 67,561 68,1031 69,550
70,40 78,10 80,1191 81,180
82,1541 83,150 84,10 85,1361
86,50 93,190 94,591 95,440
96,2783 97,160 98,20 110,20
111,40 113,9999 114,550 115,70
124,180 125,50 126,10 127,20
140,3503 141,330 142,40 155,260
156,10 171,3743 172,270 173,40
##END=
