##TITLE=1-Octadecanol, TMS derivative
##JCAMP-DX=4.24
##DATA TYPE=MASS SPECTRUM
##ORIGIN=NIST Mass Spectrometry Data Center
##OWNER=NIST Mass Spectrometry Data Center
Collection (C) 2014 copyright by the U.S. Secretary of Commerce
on behalf of the United States of America. All rights reserved.
##CAS REGISTRY NO=18748-98-6
##$NIST MASS SPEC NO=351875
##MOLFORM=C21 H46 O Si
##MW=342
##$NIST SOURCE=MSDC
##XUNITS=M/Z
##YUNITS=RELATIVE INTENSITY
##XFACTOR=1
##YFACTOR=1
##FIRSTX=27
##LASTX=342
##FIRSTY=60
##MAXX=342
##MINX=27
##MAXY=9999
##MINY=10
##NPOINTS=145
##PEAK TABLE=(XY..XY)
27,60 28,10 29,230 30,10
31,10 39,70 41,791 42,170
43,1331 44,60 45,150 46,10
47,90 53,50 54,100 55,991
56,230 57,1191 58,130 59,260
60,40 61,420 62,30 63,20
65,10 66,10 67,230 68,140
69,921 70,170 71,581 72,110
73,2012 74,210 75,4004 76,290
77,240 78,10 79,40 80,10
81,210 82,180 83,1191 84,140
85,460 86,40 87,120 88,70
89,921 90,90 91,460 92,40
93,30 94,10 95,170 96,90
97,1201 98,130 99,250 100,40
101,480 102,60 103,1902 104,180
105,80 106,10 107,10 109,80
110,40 111,561 112,80 113,140
114,30 115,310 116,40 117,30
118,10 121,10 123,30 124,20
125,190 126,40 127,60 128,10
129,200 130,30 131,40 137,10
138,10 139,60 140,20 141,30
142,10 143,70 144,10 145,30
149,10 151,10 152,10 153,30
154,10 155,10 157,40 158,10
159,10 167,10 168,10 169,10
171,40 172,10 173,10 181,10
183,10 185,30 186,10 195,10
196,10 199,30 200,10 213,40
214,10 224,20 227,50 228,10
241,50 242,10 243,10 252,20
253,10 255,40 256,10 269,20
270,10 299,10 311,100 312,30
313,10 325,20 327,9999 328,2803
329,731 330,110 331,10 341,10
342,10
##END=
