##TITLE=Benzenemethanol, 3-amino-
##JCAMP-DX=4.24
##DATA TYPE=MASS SPECTRUM
##ORIGIN=Japan AIST/NIMC Database- Spectrum MS-NW-6272
##OWNER=NIST Mass Spectrometry Data Center
Collection (C) 2014 copyright by the U.S. Secretary of Commerce
on behalf of the United States of America. All rights reserved.
##CAS REGISTRY NO=1877-77-6
##$NIST MASS SPEC NO=234694
##MOLFORM=C7 H9 N O
##MW=123
##$NIST SOURCE=MSDC
##XUNITS=M/Z
##YUNITS=RELATIVE INTENSITY
##XFACTOR=1
##YFACTOR=1
##FIRSTX=14
##LASTX=126
##FIRSTY=20
##MAXX=126
##MINX=14
##MAXY=9999
##MINY=10
##NPOINTS=86
##PEAK TABLE=(XY..XY)
14,20 15,70 18,10 26,50
27,209 28,179 29,179 30,139
31,129 36,10 37,149 38,319
39,1029 40,209 41,519 42,229
43,60 44,60 45,50 46,109
47,40 48,10 49,40 50,259
51,629 52,499 53,289 54,239
55,60 56,40 57,10 60,50
61,249 62,199 63,389 64,239
65,1179 66,679 67,539 68,80
69,30 70,20 71,10 72,20
73,30 74,109 75,90 76,129
77,2919 78,859 79,699 80,239
81,40 82,20 83,10 84,10
85,10 86,20 87,20 88,10
89,80 90,50 91,139 92,929
93,1119 94,6919 95,629 96,40
98,30 99,10 102,40 103,30
104,899 105,1099 106,2029 107,499
108,50 118,10 119,10 120,319
121,289 122,2039 123,9999 124,919
125,60 126,10
##END=
