##TITLE=Benzoic acid, 3-cyano-
##JCAMP-DX=4.24
##DATA TYPE=MASS SPECTRUM
##ORIGIN=Japan AIST/NIMC Database- Spectrum MS-NW-2619
##OWNER=NIST Mass Spectrometry Data Center
Collection (C) 2014 copyright by the U.S. Secretary of Commerce
on behalf of the United States of America. All rights reserved.
##CAS REGISTRY NO=1877-72-1
##$NIST MASS SPEC NO=231625
##MOLFORM=C8 H5 N O2
##MW=147
##$NIST SOURCE=MSDC
##XUNITS=M/Z
##YUNITS=RELATIVE INTENSITY
##XFACTOR=1
##YFACTOR=1
##FIRSTX=12
##LASTX=149
##FIRSTY=10
##MAXX=149
##MINX=12
##MAXY=9999
##MINY=10
##NPOINTS=91
##PEAK TABLE=(XY..XY)
12,10 14,60 16,50 17,50
18,169 25,40 26,139 27,319
28,169 29,99 31,20 32,20
36,80 37,449 38,389 39,499
40,40 41,40 42,20 43,40
44,149 45,669 48,70 49,329
50,1829 51,1599 52,449 53,149
54,20 55,30 56,10 57,10
60,80 61,189 62,249 63,399
64,279 65,109 66,30 67,10
68,10 69,20 72,40 73,289
74,769 75,2189 76,2119 77,309
78,80 79,30 80,80 81,20
84,30 85,30 86,50 87,50
88,50 89,30 90,99 91,179
92,40 93,10 98,40 99,279
100,159 101,319 102,5199 103,779
104,50 105,20 106,40 107,50
108,40 109,50 115,10 116,10
117,10 118,50 119,309 120,30
121,70 123,50 128,10 129,99
130,9999 131,929 132,70 146,90
147,5859 148,559 149,80
##END=
