##TITLE=Acetic acid, (2-methylphenoxy)-
##JCAMP-DX=4.24
##DATA TYPE=MASS SPECTRUM
##ORIGIN=NIST Mass Spectrometry Data Center
##OWNER=NIST Mass Spectrometry Data Center
Collection (C) 2014 copyright by the U.S. Secretary of Commerce
on behalf of the United States of America. All rights reserved.
##CAS REGISTRY NO=1878-49-5
##$NIST MASS SPEC NO=340850
##MOLFORM=C9 H10 O3
##MW=166
##$NIST SOURCE=MSDC
##XUNITS=M/Z
##YUNITS=RELATIVE INTENSITY
##XFACTOR=1
##YFACTOR=1
##FIRSTX=14
##LASTX=168
##FIRSTY=30
##MAXX=168
##MINX=14
##MAXY=9999
##MINY=10
##NPOINTS=75
##PEAK TABLE=(XY..XY)
14,30 15,50 26,90 27,430
29,240 30,50 31,470 37,70
38,280 39,1641 40,120 41,320
42,310 43,110 44,110 45,510
49,40 50,701 51,1531 52,771
53,691 54,50 55,80 59,50
60,170 61,100 62,340 63,1051
64,330 65,2622 66,210 67,40
73,30 74,180 75,120 76,120
77,4484 78,1591 79,1762 80,290
81,70 82,120 85,30 86,70
87,50 89,991 90,721 91,9719
92,1121 93,881 94,120 103,60
104,90 105,180 106,210 107,9999
108,2442 109,340 110,30 118,30
119,500 120,851 121,4984 122,1071
123,130 133,100 134,30 135,50
137,10 148,350 149,30 154,40
166,9879 167,991 168,100
##END=
