##TITLE=Benzeneacetic acid, 4-chloro-
##JCAMP-DX=4.24
##DATA TYPE=MASS SPECTRUM
##ORIGIN=NIST Mass Spectrometry Data Center, 1994
##OWNER=NIST Mass Spectrometry Data Center
Collection (C) 2014 copyright by the U.S. Secretary of Commerce
on behalf of the United States of America. All rights reserved.
##CAS REGISTRY NO=1878-66-6
##$NIST MASS SPEC NO=135688
##MOLFORM=C8 H7 Cl O2
##MW=170
##$NIST SOURCE=MSDC
##XUNITS=M/Z
##YUNITS=RELATIVE INTENSITY
##XFACTOR=1
##YFACTOR=1
##FIRSTX=12
##LASTX=173
##FIRSTY=16
##MAXX=173
##MINX=12
##MAXY=9999
##MINY=5
##NPOINTS=85
##PEAK TABLE=(XY..XY)
12,16 14,25 16,12 17,52
18,79 25,20 26,162 27,86
28,109 32,5 35,66 36,56
37,293 38,491 39,1235 40,116
41,32 42,71 43,154 44,5
45,1107 46,23 47,68 48,24
49,201 50,752 51,734 52,101
53,81 55,29 60,78 61,371
62,868 63,1947 64,336 65,336
66,31 67,30 71,11 73,550
74,162 75,419 76,83 77,469
78,80 79,127 80,14 84,53
85,169 86,234 87,204 88,11
89,2869 90,794 91,1743 92,142
96,21 97,105 99,823 100,60
101,271 102,21 105,17 107,38
111,29 112,15 113,31 115,8
123,69 125,9999 126,854 127,3258
128,270 129,13 130,16 135,16
139,18 141,16 151,10 152,46
154,16 170,2703 171,254 172,841
173,80
##END=
