##TITLE=Cyclohexane, 1-methyl-4-(1-methylethenyl)-, cis-
##JCAMP-DX=4.24
##DATA TYPE=MASS SPECTRUM
##OWNER=NIST Mass Spectrometry Data Center
Collection (C) 2014 copyright by the U.S. Secretary of Commerce
on behalf of the United States of America. All rights reserved.
##CAS REGISTRY NO=1879-07-8
##$NIST MASS SPEC NO=3505
##MOLFORM=C10 H18
##MW=138
##$NIST SOURCE=MSDC
##XUNITS=M/Z
##YUNITS=RELATIVE INTENSITY
##XFACTOR=1
##YFACTOR=1
##FIRSTX=41
##LASTX=138
##FIRSTY=4504
##MAXX=138
##MINX=41
##MAXY=9999
##MINY=250
##NPOINTS=23
##PEAK TABLE=(XY..XY)
41,4504 43,601 53,1601 55,5305
67,5605 68,6206 69,2102 70,350
77,500 79,951 80,400 81,9999
82,3603 83,951 91,250 93,300
94,701 95,9999 96,3403 109,1601
110,500 123,2102 138,3503
##END=
