##TITLE=Pyridine, 3-(methylthio)-
##JCAMP-DX=4.24
##DATA TYPE=MASS SPECTRUM
##ORIGIN=L.BAUER UNIV. OF ILLINOIS, CHICAGO, ILLINOIS, USA
##OWNER=NIST Mass Spectrometry Data Center
Collection (C) 2014 copyright by the U.S. Secretary of Commerce
on behalf of the United States of America. All rights reserved.
##CAS REGISTRY NO=18794-33-7
##$NIST MASS SPEC NO=2449
##MOLFORM=C6 H7 N S
##MW=125
##$NIST SOURCE=MSDC
##XUNITS=M/Z
##YUNITS=RELATIVE INTENSITY
##XFACTOR=1
##YFACTOR=1
##FIRSTX=39
##LASTX=127
##FIRSTY=2400
##MAXX=127
##MINX=39
##MAXY=9999
##MINY=500
##NPOINTS=16
##PEAK TABLE=(XY..XY)
39,2400 45,800 50,800 51,1300
52,600 57,700 78,900 79,1500
80,700 83,1900 92,1000 110,2200
124,900 125,9999 126,800 127,500
##END=
