##TITLE=4'-Hydroxyacetophenone, TMS derivative
##JCAMP-DX=4.24
##DATA TYPE=MASS SPECTRUM
##ORIGIN=C. DJERASSI
##OWNER=NIST Mass Spectrometry Data Center
Collection (C) 2014 copyright by the U.S. Secretary of Commerce
on behalf of the United States of America. All rights reserved.
##CAS REGISTRY NO=18803-29-7
##$NIST MASS SPEC NO=40374
##MOLFORM=C11 H16 O2 Si
##MW=208
##$NIST SOURCE=MSDC
##XUNITS=M/Z
##YUNITS=RELATIVE INTENSITY
##XFACTOR=1
##YFACTOR=1
##FIRSTX=50
##LASTX=210
##FIRSTY=200
##MAXX=210
##MINX=50
##MAXY=9999
##MINY=100
##NPOINTS=59
##PEAK TABLE=(XY..XY)
50,200 51,150 52,150 53,100
55,150 57,100 58,100 59,250
60,150 61,200 62,100 63,100
65,150 66,500 67,100 68,100
69,100 72,100 73,2800 74,300
75,1250 76,300 77,300 79,100
81,100 82,100 83,100 85,100
89,1650 90,110 91,550 92,100
93,100 95,100 105,100 107,100
117,150 119,100 121,150 123,300
129,100 131,150 132,100 133,250
135,300 136,100 137,100 151,1300
152,200 153,100 163,100 175,100
193,9999 194,1700 195,500 196,100
208,3150 209,550 210,150
##END=
