##TITLE=Phosphine, tris[4-(trimethylsilyl)phenyl]-
##JCAMP-DX=4.24
##DATA TYPE=MASS SPECTRUM
##ORIGIN=D.HENNEBERG, MAX-PLANCK INSTITUTE, MULHEIM, WEST GERMANY
##OWNER=NIST Mass Spectrometry Data Center
Collection (C) 2014 copyright by the U.S. Secretary of Commerce
on behalf of the United States of America. All rights reserved.
##CAS REGISTRY NO=18848-96-9
##$NIST MASS SPEC NO=62535
##MOLFORM=C27 H39 P Si3
##MW=478
##$NIST SOURCE=MSDC
##XUNITS=M/Z
##YUNITS=RELATIVE INTENSITY
##XFACTOR=1
##YFACTOR=1
##FIRSTX=26
##LASTX=482
##FIRSTY=23
##MAXX=482
##MINX=26
##MAXY=9999
##MINY=3
##NPOINTS=315
##PEAK TABLE=(XY..XY)
26,23 27,19 28,124 29,15
30,4 31,65 32,19 39,8
41,11 43,154 44,26 45,378
46,28 47,12 50,5 51,4
53,22 54,3 55,15 56,3
57,20 58,38 59,305 60,27
61,12 67,19 68,5 69,24
70,7 71,7 72,7 73,5183
74,389 75,153 76,5 77,7
78,9 79,10 80,4 81,12
82,5 83,79 84,10 85,7
87,9 89,4 91,41 92,7
93,50 94,10 95,24 96,7
97,8 99,4 101,7 103,13
104,10 105,85 106,19 107,47
108,10 109,15 111,6 113,5
115,10 117,15 118,17 119,346
120,65 121,123 122,18 123,8
124,3 125,5 126,6 127,11
128,4 129,9 130,6 131,57
132,19 133,117 134,246 135,264
136,42 137,22 138,3 139,12
140,12 143,9 144,90 145,64
146,10 147,26 148,81 149,119
150,40 151,18 152,8 153,4
154,3 155,13 156,5 157,12
158,6 159,18 160,5 161,33
162,13 163,72 164,34 165,121
166,33 167,18 168,5 169,14
170,6 171,7 172,12 173,9
174,5 175,30 176,10 177,46
178,28 179,48 180,30 181,55
182,12 183,52 184,10 185,11
186,6 187,12 188,12 189,7
190,10 191,42 192,17 193,102
194,40 195,197 196,51 197,45
198,13 199,10 200,6 201,16
202,6 203,9 204,5 205,11
206,8 207,201 208,65 209,125
210,64 211,63 212,14 213,22
214,6 215,9 216,31 217,163
218,28 219,9 220,4 221,20
222,20 223,49 224,2616 225,565
226,57 227,21 228,6 229,4
230,3 231,25 232,126 233,18
234,5 235,17 236,9 237,56
238,29 239,78 240,89 241,120
242,37 243,11 244,3 245,3
247,4 249,10 250,6 251,37
252,16 253,52 254,17 255,88
256,34 257,17 258,4 259,3
262,4 263,5 265,10 266,6
267,44 268,21 269,71 270,27
271,28 272,7 275,3 279,4
281,17 282,16 283,263 284,86
285,35 286,16 287,7 295,4
296,4 297,17 298,13 299,25
300,28 301,19 302,6 303,3
309,3 311,6 312,12 313,24
314,218 315,75 316,38 317,28
319,21 322,5 323,4 327,21
328,8 329,184 330,59 331,24
332,9 333,5 341,19 342,8
343,13 344,9 345,8 357,5
358,7 359,7 360,6 361,4
362,3 373,6 374,5 375,13
376,8 377,3 384,3 385,4
387,5 388,6 389,38 390,250
391,97 392,33 393,8 394,3
403,11 404,9 405,51 406,25
407,10 408,4 417,26 418,15
419,8 432,3 433,9 434,3
435,5 436,3 446,3 449,98
450,53 451,27 453,7 454,7
455,6 457,6 458,4 462,29
463,1756 464,775 465,332 466,90
467,23 468,6 469,4 470,3
475,5 477,165 478,9999 479,4311
480,1727 481,450 482,109
##END=
