##TITLE=Benzonitrile, 3,4,5-trimethoxy-
##JCAMP-DX=4.24
##DATA TYPE=MASS SPECTRUM
##ORIGIN=MASS SPECTROMETRY CENTER, UNIV. OF UTAH. ALDRICH 13216-0
##OWNER=NIST Mass Spectrometry Data Center
Collection (C) 2014 copyright by the U.S. Secretary of Commerce
on behalf of the United States of America. All rights reserved.
##CAS REGISTRY NO=1885-35-4
##$NIST MASS SPEC NO=52803
##MOLFORM=C10 H11 N O3
##MW=193
##$NIST SOURCE=MSDC
##XUNITS=M/Z
##YUNITS=RELATIVE INTENSITY
##XFACTOR=1
##YFACTOR=1
##FIRSTX=14
##LASTX=195
##FIRSTY=75
##MAXX=195
##MINX=14
##MAXY=9999
##MINY=4
##NPOINTS=96
##PEAK TABLE=(XY..XY)
14,75 15,1220 25,13 26,105
27,408 29,359 30,195 31,245
35,5 36,291 37,539 38,466
39,222 41,119 42,111 44,24
45,180 49,133 50,309 51,231
52,285 53,1097 54,96 56,47
58,18 59,4 61,189 62,324
63,670 64,3206 65,770 66,259
67,195 68,6 69,73 75,280
76,1076 77,681 78,396 79,541
80,183 81,94 82,89 87,27
88,110 89,346 90,1322 91,323
92,466 93,169 94,129 95,386
101,131 102,17 103,73 104,651
105,185 106,153 107,1279 108,129
109,6 114,11 116,728 117,592
118,3597 119,404 120,2554 121,238
122,262 123,148 131,46 132,953
133,1054 134,146 135,4279 136,380
145,17 146,125 147,228 148,167
149,71 150,3481 151,361 160,17
162,339 163,877 164,203 176,197
177,427 178,9333 179,1104 180,134
185,12 193,9999 194,1484 195,222
##END=
