##TITLE=Isoxathion
##JCAMP-DX=4.24
##DATA TYPE=MASS SPECTRUM
##ORIGIN=NIST Mass Spectrometry Data Center
##OWNER=NIST Mass Spectrometry Data Center
Collection (C) 2014 copyright by the U.S. Secretary of Commerce
on behalf of the United States of America. All rights reserved.
##CAS REGISTRY NO=18854-01-8
##$NIST MASS SPEC NO=333667
##MOLFORM=C13 H16 N O4 P S
##MW=313
##$NIST SOURCE=MSDC
##XUNITS=M/Z
##YUNITS=RELATIVE INTENSITY
##XFACTOR=1
##YFACTOR=1
##FIRSTX=15
##LASTX=317
##FIRSTY=10
##MAXX=317
##MINX=15
##MAXY=9999
##MINY=10
##NPOINTS=211
##PEAK TABLE=(XY..XY)
15,10 26,40 27,290 28,80
29,781 30,30 31,20 35,10
37,10 38,20 39,110 40,20
41,10 42,20 43,100 44,20
45,310 46,30 47,170 48,30
49,10 50,300 51,951 52,140
53,20 54,10 55,10 56,20
58,10 59,50 60,120 61,220
62,100 63,340 64,80 65,871
66,30 67,30 68,80 69,200
70,20 71,20 72,10 73,20
74,160 75,220 76,460 77,3553
78,370 79,140 80,100 81,641
82,30 83,30 84,10 85,10
86,20 87,40 88,60 89,621
90,250 91,400 92,60 93,460
94,50 95,20 96,160 97,2212
98,50 99,390 100,40 101,90
102,1461 103,300 104,400 105,9999
106,881 107,80 108,50 109,1021
110,120 111,60 113,951 114,160
115,230 116,1301 117,200 118,70
119,30 120,50 121,440 122,100
123,80 124,40 125,751 126,60
127,280 128,210 129,641 130,2542
131,410 132,250 133,120 134,150
135,50 136,781 137,200 138,60
139,70 140,10 141,831 142,70
143,140 144,130 145,340 146,180
147,240 148,220 149,530 150,150
151,50 152,20 153,220 154,40
155,30 156,10 157,60 158,100
159,2082 160,310 161,891 162,721
163,80 164,380 165,50 166,30
167,20 169,350 170,60 171,80
172,290 173,50 174,290 175,50
177,7186 178,811 179,400 180,120
181,10 182,10 185,10 186,100
187,20 188,180 189,30 190,40
191,10 192,130 193,40 194,10
197,20 198,10 199,10 200,10
204,20 205,90 206,20 207,60
208,1011 209,110 210,10 211,50
212,10 213,20 214,10 217,10
218,10 223,10 224,70 225,30
226,10 228,90 229,10 230,30
236,80 237,10 239,40 240,180
241,40 242,20 252,20 256,50
257,90 258,30 259,10 267,10
268,30 269,20 270,30 271,10
284,90 285,470 286,80 287,30
298,10 312,130 313,3653 314,611
315,240 316,30 317,10
##END=
