##TITLE=4-Ethylphenyl isothiocyanate
##JCAMP-DX=4.24
##DATA TYPE=MASS SPECTRUM
##ORIGIN=NIST Mass Spectrometry Data Center, 1994
##OWNER=NIST Mass Spectrometry Data Center
Collection (C) 2014 copyright by the U.S. Secretary of Commerce
on behalf of the United States of America. All rights reserved.
##CAS REGISTRY NO=18856-63-8
##$NIST MASS SPEC NO=134571
##MOLFORM=C9 H9 N S
##MW=163
##$NIST SOURCE=MSDC
##XUNITS=M/Z
##YUNITS=RELATIVE INTENSITY
##XFACTOR=1
##YFACTOR=1
##FIRSTX=15
##LASTX=166
##FIRSTY=198
##MAXX=166
##MINX=15
##MAXY=9999
##MINY=20
##NPOINTS=101
##PEAK TABLE=(XY..XY)
15,198 26,186 27,941 28,20
29,56 32,90 37,173 38,319
39,1179 40,134 41,91 44,208
45,581 46,30 47,36 49,98
50,949 51,1489 52,332 53,181
54,55 56,32 57,40 58,113
59,71 61,168 62,441 63,1255
64,484 65,286 66,94 67,99
69,154 70,302 71,54 72,83
73,32 74,456 75,467 76,426
77,1984 78,628 79,251 80,87
81,108 82,253 83,103 84,73
85,35 86,78 87,90 88,35
89,1211 90,676 91,167 92,20
93,31 94,40 95,99 96,102
97,21 98,39 99,38 100,24
101,95 102,286 103,484 104,739
105,1021 106,103 107,60 108,73
109,43 116,406 117,84 118,50
119,25 120,25 121,700 122,169
123,46 128,332 129,60 130,86
131,88 132,22 133,33 134,67
135,192 136,87 146,50 148,9999
149,983 150,470 151,49 160,30
161,43 163,5880 164,681 165,308
166,30
##END=
