##TITLE=7-Butylbenz[a]anthracene
##JCAMP-DX=4.24
##DATA TYPE=MASS SPECTRUM
##ORIGIN=Organic Synthesis Lab, MSU, Moscow.TRC 475
##OWNER=NIST Mass Spectrometry Data Center
Collection (C) 2014 copyright by the U.S. Secretary of Commerce
on behalf of the United States of America. All rights reserved.
##CAS REGISTRY NO=18868-65-0
##$NIST MASS SPEC NO=326170
##MOLFORM=C22 H20
##MW=284
##$NIST SOURCE=MSDC
##XUNITS=M/Z
##YUNITS=RELATIVE INTENSITY
##XFACTOR=1
##YFACTOR=1
##FIRSTX=27
##LASTX=286
##FIRSTY=120
##MAXX=286
##MINX=27
##MAXY=9999
##MINY=10
##NPOINTS=108
##PEAK TABLE=(XY..XY)
27,120 29,40 39,40 41,100
42,10 43,90 51,10 55,10
63,10 75,10 87,10 88,10
94,60 95,10 100,30 101,40
106,100 107,110 108,20 112,50
113,190 114,140 115,10 118,110
119,350 120,210 121,110 124,20
125,110 126,210 127,40 131,60
132,40 133,30 134,10 137,10
138,10 139,10 142,120 150,10
151,10 152,10 162,10 163,20
165,10 174,10 175,10 176,20
187,40 188,20 189,50 190,10
198,10 199,10 200,60 201,30
202,90 203,10 204,10 211,40
212,20 213,150 214,40 215,310
216,60 222,10 223,10 224,100
225,70 226,410 227,110 228,280
229,100 230,10 235,20 236,20
237,280 238,160 239,2242 240,901
241,9999 242,2112 243,220 244,20
248,20 249,20 250,140 251,50
252,360 253,280 254,120 255,60
256,10 259,10 261,10 263,40
264,10 265,80 266,20 267,20
268,10 269,10 276,10 282,10
283,50 284,5675 285,1381 286,160
##END=
