##TITLE=Benz(a)anthracene, 12-ethyl-
##JCAMP-DX=4.24
##DATA TYPE=MASS SPECTRUM
##ORIGIN=Organic Synthesis Lab, MSU, Moscow.TRC 431
##OWNER=NIST Mass Spectrometry Data Center
Collection (C) 2014 copyright by the U.S. Secretary of Commerce
on behalf of the United States of America. All rights reserved.
##CAS REGISTRY NO=18868-66-1
##$NIST MASS SPEC NO=326130
##MOLFORM=C20 H16
##MW=256
##$NIST SOURCE=MSDC
##XUNITS=M/Z
##YUNITS=RELATIVE INTENSITY
##XFACTOR=1
##YFACTOR=1
##FIRSTX=26
##LASTX=258
##FIRSTY=20
##MAXX=258
##MINX=26
##MAXY=9999
##MINY=10
##NPOINTS=136
##PEAK TABLE=(XY..XY)
26,20 27,200 29,40 38,30
39,180 40,20 41,20 42,10
43,180 44,10 50,90 51,120
52,20 53,10 57,10 58,40
61,10 62,70 63,170 64,10
65,10 74,110 75,120 76,60
77,40 78,10 79,10 83,10
84,10 85,10 86,70 87,150
88,120 89,40 91,10 93,20
94,50 95,30 98,70 99,110
100,270 101,300 102,20 105,20
106,110 107,120 108,90 110,40
111,90 112,400 113,951 114,731
115,60 117,10 118,150 119,571
120,1621 121,140 122,30 123,30
124,140 125,400 126,641 127,220
128,801 129,20 134,10 135,20
137,20 138,10 139,50 146,10
149,20 150,90 151,50 152,40
161,20 162,20 163,90 164,20
165,40 174,70 175,40 176,70
177,10 178,20 185,20 186,30
187,140 188,50 189,110 190,20
198,60 199,60 200,200 201,90
202,180 203,30 210,10 211,110
212,70 213,260 214,60 215,230
216,40 222,40 223,60 224,320
225,200 226,941 227,270 228,310
229,160 230,20 235,60 236,60
237,661 238,360 239,5405 240,3473
241,9999 242,2172 243,210 244,10
247,10 248,80 249,50 250,330
251,100 252,631 253,350 254,160
255,390 256,8528 257,1922 258,190
##END=
