##TITLE=3-Hexanone, 2,5-dimethyl-
##JCAMP-DX=4.24
##DATA TYPE=MASS SPECTRUM
##ORIGIN=CONTINENTAL OIL CO., PONCA CITY, OKLA, USA
##OWNER=NIST Mass Spectrometry Data Center
Collection (C) 2014 copyright by the U.S. Secretary of Commerce
on behalf of the United States of America. All rights reserved.
##CAS REGISTRY NO=1888-57-9
##$NIST MASS SPEC NO=35109
##MOLFORM=C8 H16 O
##MW=128
##$NIST SOURCE=MSDC
##XUNITS=M/Z
##YUNITS=RELATIVE INTENSITY
##XFACTOR=1
##YFACTOR=1
##FIRSTX=14
##LASTX=130
##FIRSTY=171
##MAXX=130
##MINX=14
##MAXY=9999
##MINY=1
##NPOINTS=63
##PEAK TABLE=(XY..XY)
14,171 15,953 16,1 17,9
18,21 19,7 25,12 26,266
27,3714 28,618 29,2280 30,62
31,42 38,7 39,75 40,210
41,2399 42,406 43,5028 44,1320
45,268 46,36 49,28 50,55
51,85 52,31 53,179 54,41
55,310 56,212 57,9999 58,491
59,27 62,7 63,13 65,19
66,11 67,69 68,43 69,304
70,81 71,2208 72,112 73,10
77,15 78,6 79,13 81,12
83,32 84,114 85,5178 86,526
87,38 91,8 95,13 97,11
112,5 113,71 114,7 126,7
128,1179 129,110 130,9
##END=
