##TITLE=Cholestan-3-ol, (3.beta.,5.alpha.)-, TMS derivative
##JCAMP-DX=4.24
##DATA TYPE=MASS SPECTRUM
##ORIGIN=STER CHOL TMSI L 00 0000 E M.HORN
##OWNER=NIST Mass Spectrometry Data Center
Collection (C) 2014 copyright by the U.S. Secretary of Commerce
on behalf of the United States of America. All rights reserved.
##CAS REGISTRY NO=18880-51-8
##$NIST MASS SPEC NO=43381
##MOLFORM=C30 H56 O Si
##MW=460
##$NIST SOURCE=MSDC
##XUNITS=M/Z
##YUNITS=RELATIVE INTENSITY
##XFACTOR=1
##YFACTOR=1
##FIRSTX=41
##LASTX=463
##FIRSTY=1900
##MAXX=463
##MINX=41
##MAXY=9999
##MINY=100
##NPOINTS=228
##PEAK TABLE=(XY..XY)
41,1900 42,250 43,2800 44,150
45,350 47,150 53,250 54,150
55,3700 56,600 57,2600 58,200
59,350 60,100 61,500 65,150
66,100 67,2500 68,450 69,2250
70,350 71,1350 72,150 73,3800
74,650 75,9999 76,1200 77,1200
78,250 79,2300 80,450 81,4000
82,600 83,1800 84,150 85,300
89,450 91,1500 92,400 93,2500
94,800 95,3600 96,450 97,1300
98,150 99,150 101,350 103,250
104,350 105,2200 106,3500 107,5300
108,2000 109,2700 110,700 111,1200
112,150 113,150 115,300 116,200
117,550 118,350 119,1700 120,1200
121,2500 122,750 123,1300 124,250
125,400 127,250 128,100 129,1400
130,550 131,1300 132,300 133,1600
134,850 135,2400 136,850 137,700
138,750 139,200 141,100 142,1900
143,550 144,200 145,1500 146,500
147,2800 148,1500 149,2000 150,300
151,300 152,300 153,150 155,1200
156,250 157,150 158,100 159,1100
160,750 161,1700 162,550 163,450
164,100 165,350 166,150 167,100
169,150 173,600 174,400 175,800
176,300 177,300 179,200 180,150
181,300 182,200 183,250 185,100
187,450 188,350 189,550 190,650
191,450 193,200 196,600 197,450
198,100 199,150 201,2300 202,450
203,400 204,150 205,200 206,100
207,900 208,200 209,300 210,100
213,100 214,150 215,9999 216,4700
217,3200 218,750 219,250 220,100
221,300 222,150 223,150 229,550
230,2700 231,700 232,100 233,100
235,100 237,800 238,400 239,100
241,150 243,150 244,100 245,150
247,150 249,100 255,150 257,550
258,150 259,100 261,150 262,1200
263,500 264,150 275,100 276,150
277,100 281,300 285,200 287,150
288,150 289,150 291,200 292,100
304,200 305,2700 306,2600 307,550
308,150 313,200 315,350 316,200
317,100 319,250 320,500 321,150
328,150 329,200 330,250 331,600
332,200 341,150 344,300 345,150
353,100 354,250 355,2800 356,950
357,200 368,100 369,750 370,2100
371,550 372,150 403,1300 404,400
405,100 444,350 445,4700 446,1700
447,700 448,200 458,150 459,300
460,3700 461,1400 462,350 463,150
##END=
