##TITLE=2-Propenoic acid, 2-methyl-, 2-chloroethyl ester
##JCAMP-DX=4.24
##DATA TYPE=MASS SPECTRUM
##ORIGIN=NIST Mass Spectrometry Data Center
##OWNER=NIST Mass Spectrometry Data Center
Collection (C) 2014 copyright by the U.S. Secretary of Commerce
on behalf of the United States of America. All rights reserved.
##CAS REGISTRY NO=1888-94-4
##$NIST MASS SPEC NO=340439
##MOLFORM=C6 H9 Cl O2
##MW=148
##$NIST SOURCE=MSDC
##XUNITS=M/Z
##YUNITS=RELATIVE INTENSITY
##XFACTOR=1
##YFACTOR=1
##FIRSTX=14
##LASTX=150
##FIRSTY=10
##MAXX=150
##MINX=14
##MAXY=9999
##MINY=10
##NPOINTS=80
##PEAK TABLE=(XY..XY)
14,10 15,110 25,20 26,290
27,1581 29,230 30,70 31,70
35,10 36,20 37,190 38,490
39,4174 40,1001 41,8177 42,550
43,230 44,80 45,100 47,20
48,40 49,400 50,80 51,140
52,20 53,160 54,30 55,80
56,130 57,100 58,240 59,50
60,20 61,70 62,500 63,1321
64,180 65,410 66,30 67,140
68,450 69,9999 70,500 71,100
73,10 75,50 76,10 77,20
79,10 81,10 83,10 84,791
85,170 86,3543 87,330 88,20
92,10 94,40 95,120 97,120
99,651 100,30 102,50 103,40
104,20 105,10 111,150 112,350
113,1852 114,120 115,10 118,10
130,50 132,10 133,80 135,20
147,10 148,80 149,20 150,20
##END=
