##TITLE=[1,2]Azaborino[1,2-a][1,2]azaborine, octahydro-
##JCAMP-DX=4.24
##DATA TYPE=MASS SPECTRUM
##OWNER=NIST Mass Spectrometry Data Center
Collection (C) 2014 copyright by the U.S. Secretary of Commerce
on behalf of the United States of America. All rights reserved.
##CAS REGISTRY NO=18903-54-3
##$NIST MASS SPEC NO=3462
##MOLFORM=C8 H16 B N
##MW=137
##$NIST SOURCE=MSDC
##XUNITS=M/Z
##YUNITS=RELATIVE INTENSITY
##XFACTOR=1
##YFACTOR=1
##FIRSTX=37
##LASTX=137
##FIRSTY=1501
##MAXX=137
##MINX=37
##MAXY=9999
##MINY=500
##NPOINTS=27
##PEAK TABLE=(XY..XY)
37,1501 38,1001 39,6506 40,2002
41,2803 42,1001 50,801 51,1802
52,2102 53,6506 54,7407 65,1001
66,2102 67,1401 68,801 78,500
79,1001 80,2803 81,2602 94,3003
95,1301 96,4004 108,1601 109,3103
135,2002 136,9999 137,5305
##END=
