##TITLE=Tetracosamethyl-cyclododecasiloxane
##JCAMP-DX=4.24
##DATA TYPE=MASS SPECTRUM
##ORIGIN=ASES Database, Dalian Institute, P.R. China
##OWNER=NIST Mass Spectrometry Data Center
Collection (C) 2014 copyright by the U.S. Secretary of Commerce
on behalf of the United States of America. All rights reserved.
##CAS REGISTRY NO=18919-94-3
##$NIST MASS SPEC NO=146517
##MOLFORM=C24 H72 O12 Si12
##MW=888
##$NIST SOURCE=MSDC
##XUNITS=M/Z
##YUNITS=RELATIVE INTENSITY
##XFACTOR=1
##YFACTOR=1
##FIRSTX=59
##LASTX=875
##FIRSTY=420
##MAXX=875
##MINX=59
##MAXY=9999
##MINY=130
##NPOINTS=39
##PEAK TABLE=(XY..XY)
59,420 73,1111 74,1791 75,560
147,9999 148,1791 149,540 207,3092
208,750 221,9198 222,2392 223,1261
267,840 281,6155 282,2222 283,1111
295,2812 325,560 327,550 341,2222
355,9928 356,3653 357,2242 369,1111
399,540 401,1131 415,1391 429,9508
430,4464 431,2812 475,410 489,410
503,1671 563,130 577,140 651,380
873,550 874,370 875,270
##END=
