##TITLE=3,5-Dichloro-4-hydroxybenzonitrile
##JCAMP-DX=4.24
##DATA TYPE=MASS SPECTRUM
##ORIGIN=Japan AIST/NIMC Database- Spectrum MS-NW-9916
##OWNER=NIST Mass Spectrometry Data Center
Collection (C) 2014 copyright by the U.S. Secretary of Commerce
on behalf of the United States of America. All rights reserved.
##CAS REGISTRY NO=1891-95-8
##$NIST MASS SPEC NO=239073
##MOLFORM=C7 H3 Cl2 N O
##MW=187
##$NIST SOURCE=MSDC
##XUNITS=M/Z
##YUNITS=RELATIVE INTENSITY
##XFACTOR=1
##YFACTOR=1
##FIRSTX=14
##LASTX=192
##FIRSTY=10
##MAXX=192
##MINX=14
##MAXY=9999
##MINY=10
##NPOINTS=123
##PEAK TABLE=(XY..XY)
14,10 25,40 26,50 27,40
28,10 29,30 35,30 36,279
37,489 38,459 39,189 40,20
41,20 42,10 43,80 44,179
45,40 47,189 48,169 49,289
50,169 51,90 52,80 53,549
54,30 55,20 57,30 58,20
59,20 60,149 61,699 62,1379
63,799 64,299 65,80 66,80
67,40 68,10 69,10 71,60
72,389 73,419 74,229 75,199
76,149 77,50 78,30 79,219
80,139 81,20 82,10 83,80
84,80 85,60 86,129 87,359
88,4589 89,1849 90,489 91,119
92,20 93,279 94,169 95,40
96,80 97,349 98,399 99,229
100,169 101,20 102,10 106,10
107,70 108,20 109,60 110,20
111,80 112,40 113,10 115,10
116,30 117,629 118,99 119,209
120,20 121,10 122,70 123,2149
124,959 125,1039 126,349 127,119
128,30 131,20 132,30 133,20
134,30 135,10 136,40 137,10
139,30 140,10 146,70 148,20
151,2149 152,279 153,740 154,99
157,10 158,169 159,269 160,139
161,169 162,30 163,30 172,10
186,30 187,9999 188,869 189,6409
190,539 191,1049 192,90
##END=
