##TITLE=Ethanol, 2-(4-chlorophenoxy)-
##JCAMP-DX=4.24
##DATA TYPE=MASS SPECTRUM
##ORIGIN=Japan AIST/NIMC Database- Spectrum MS-NW-3418
##OWNER=NIST Mass Spectrometry Data Center
Collection (C) 2014 copyright by the U.S. Secretary of Commerce
on behalf of the United States of America. All rights reserved.
##CAS REGISTRY NO=1892-43-9
##$NIST MASS SPEC NO=231824
##MOLFORM=C8 H9 Cl O2
##MW=172
##$NIST SOURCE=MSDC
##XUNITS=M/Z
##YUNITS=RELATIVE INTENSITY
##XFACTOR=1
##YFACTOR=1
##FIRSTX=14
##LASTX=175
##FIRSTY=30
##MAXX=175
##MINX=14
##MAXY=9999
##MINY=10
##NPOINTS=97
##PEAK TABLE=(XY..XY)
14,30 15,109 17,10 18,30
19,129 25,10 26,60 27,399
28,80 29,299 30,20 31,229
32,10 36,20 37,90 38,169
39,379 40,20 41,10 42,40
43,269 44,80 45,1569 46,40
47,20 49,50 50,369 51,219
52,20 53,70 55,30 60,20
61,99 62,169 63,459 64,299
65,979 66,70 67,10 68,10
72,40 73,349 74,189 75,799
76,179 77,259 78,40 79,20
80,10 84,20 85,90 86,10
87,30 89,30 91,30 92,80
93,159 94,40 97,10 98,30
99,419 100,369 101,159 102,129
103,10 107,20 109,20 110,20
111,1089 112,109 113,479 114,40
115,50 125,30 126,30 127,159
128,9999 129,799 130,3149 131,259
132,10 133,10 136,50 137,20
141,319 142,40 143,99 144,10
145,10 153,20 154,10 155,10
170,10 172,2709 173,259 174,889
175,90
##END=
