##TITLE=Benzeneacetamide, N,N-dimethyl-
##JCAMP-DX=4.24
##DATA TYPE=MASS SPECTRUM
##ORIGIN=Zaikin V.G., TIPS RAS, Moscow, Russia
##OWNER=NIST Mass Spectrometry Data Center
Collection (C) 2014 copyright by the U.S. Secretary of Commerce
on behalf of the United States of America. All rights reserved.
##CAS REGISTRY NO=18925-69-4
##$NIST MASS SPEC NO=340357
##MOLFORM=C10 H13 N O
##MW=163
##$NIST SOURCE=MSDC
##XUNITS=M/Z
##YUNITS=RELATIVE INTENSITY
##XFACTOR=1
##YFACTOR=1
##FIRSTX=39
##LASTX=164
##FIRSTY=150
##MAXX=164
##MINX=39
##MAXY=9999
##MINY=20
##NPOINTS=32
##PEAK TABLE=(XY..XY)
39,150 41,50 42,150 43,40
44,240 45,40 50,30 51,90
52,20 56,50 58,20 62,30
63,130 64,40 65,440 66,20
72,9999 73,310 74,20 77,20
80,20 81,100 89,210 90,320
91,1331 92,120 106,30 118,310
119,30 162,40 163,1992 164,200
##END=
