##TITLE=Methyl-2-heptynoate
##JCAMP-DX=4.24
##DATA TYPE=MASS SPECTRUM
##ORIGIN=NIST Mass Spectrometry Data Center, 1990.
##OWNER=NIST Mass Spectrometry Data Center
Collection (C) 2014 copyright by the U.S. Secretary of Commerce
on behalf of the United States of America. All rights reserved.
##CAS REGISTRY NO=18937-78-5
##$NIST MASS SPEC NO=114630
##MOLFORM=C8 H12 O2
##MW=140
##$NIST SOURCE=MSDC
##XUNITS=M/Z
##YUNITS=RELATIVE INTENSITY
##XFACTOR=1
##YFACTOR=1
##FIRSTX=14
##LASTX=139
##FIRSTY=183
##MAXX=139
##MINX=14
##MAXY=9999
##MINY=99
##NPOINTS=67
##PEAK TABLE=(XY..XY)
14,183 15,1835 16,119 18,160
25,99 26,713 27,5120 28,1665
29,2220 30,225 31,376 32,120
37,817 38,2102 39,5691 40,1149
41,6806 42,2166 43,4166 44,475
45,272 49,229 50,1468 51,2114
52,1840 53,5785 54,1068 55,2013
56,461 57,164 58,164 59,2796
61,160 62,229 63,360 64,134
65,1109 66,4133 67,2434 68,2312
69,1938 70,306 71,157 73,112
74,253 77,1429 79,6553 80,2721
81,5391 82,673 83,454 84,132
85,465 93,653 95,235 97,1551
98,1743 99,1776 100,210 107,444
109,9999 110,899 111,1267 112,950
125,5218 126,332 139,361
##END=
