##TITLE=Tris(trimethylsilyl)ethylene
##JCAMP-DX=4.24
##DATA TYPE=MASS SPECTRUM
##ORIGIN=V.G. Zaikin, R.S.Borisov, TIPS RAS, Moscow, Russia
##OWNER=NIST Mass Spectrometry Data Center
Collection (C) 2014 copyright by the U.S. Secretary of Commerce
on behalf of the United States of America. All rights reserved.
##CAS REGISTRY NO=18938-24-4
##$NIST MASS SPEC NO=390538
##MOLFORM=C11 H28 Si3
##MW=244
##$NIST SOURCE=MSDC
##XUNITS=M/Z
##YUNITS=RELATIVE INTENSITY
##XFACTOR=1
##YFACTOR=1
##FIRSTX=27
##LASTX=247
##FIRSTY=10
##MAXX=247
##MINX=27
##MAXY=9999
##MINY=10
##NPOINTS=81
##PEAK TABLE=(XY..XY)
27,10 28,30 29,80 31,40
41,10 42,40 43,801 44,370
45,1922 46,130 47,60 53,50
55,240 56,40 57,170 58,210
59,290 60,20 61,10 66,10
67,90 68,20 69,170 70,80
71,100 72,400 73,9999 74,761
75,370 79,10 81,70 82,20
83,591 84,50 85,90 86,10
87,10 93,10 95,40 96,20
97,260 98,30 99,100 100,10
101,30 109,30 111,70 112,10
113,30 114,10 115,60 116,40
117,10 123,10 125,120 126,20
127,20 129,40 131,30 139,30
140,50 141,1481 142,250 143,120
144,10 155,791 156,1311 157,300
158,80 159,10 170,20 171,150
172,30 173,10 229,130 230,40
231,20 244,360 245,100 246,50
247,10
##END=
