##TITLE=(R)-(+)-Citronellic acid
##JCAMP-DX=4.24
##DATA TYPE=MASS SPECTRUM
##ORIGIN=NIST Mass Spectrometry Data Center
##OWNER=NIST Mass Spectrometry Data Center
Collection (C) 2014 copyright by the U.S. Secretary of Commerce
on behalf of the United States of America. All rights reserved.
##CAS REGISTRY NO=18951-85-4
##$NIST MASS SPEC NO=333590
##MOLFORM=C10 H18 O2
##MW=170
##$NIST SOURCE=MSDC
##XUNITS=M/Z
##YUNITS=RELATIVE INTENSITY
##XFACTOR=1
##YFACTOR=1
##FIRSTX=15
##LASTX=172
##FIRSTY=20
##MAXX=172
##MINX=15
##MAXY=9999
##MINY=10
##NPOINTS=106
##PEAK TABLE=(XY..XY)
15,20 26,30 27,761 28,140
29,651 30,20 31,90 37,20
38,70 39,1952 40,420 41,7727
42,931 43,1261 44,60 45,1051
46,30 47,20 50,100 51,330
52,170 53,1491 54,440 55,6075
56,3523 57,781 58,130 59,1081
60,761 61,60 62,30 63,80
64,20 65,360 66,140 67,2012
68,1311 69,9999 70,2202 71,540
72,320 73,741 74,50 75,10
77,290 78,60 79,380 80,110
81,831 82,1481 83,1061 84,180
85,340 86,70 87,480 88,60
89,10 91,170 92,30 93,230
94,991 95,5505 96,751 97,380
98,50 99,100 100,210 101,250
102,30 103,10 105,30 106,10
107,60 108,90 109,1151 110,4884
111,571 112,40 113,190 114,410
115,571 116,40 117,10 119,130
120,10 121,50 122,10 123,130
124,60 125,10 126,10 127,280
128,50 129,10 134,70 135,20
137,220 138,20 141,10 152,1311
153,170 154,10 155,20 170,1401
171,160 172,10
##END=
