##TITLE=Benzene, 1-chloro-2-(isothiocyanatomethyl)-
##JCAMP-DX=4.24
##DATA TYPE=MASS SPECTRUM
##ORIGIN=NIST Mass Spectrometry Data Center, 1994
##OWNER=NIST Mass Spectrometry Data Center
Collection (C) 2014 copyright by the U.S. Secretary of Commerce
on behalf of the United States of America. All rights reserved.
##CAS REGISTRY NO=18967-44-7
##$NIST MASS SPEC NO=134467
##MOLFORM=C8 H6 Cl N S
##MW=183
##$NIST SOURCE=MSDC
##XUNITS=M/Z
##YUNITS=RELATIVE INTENSITY
##XFACTOR=1
##YFACTOR=1
##FIRSTX=25
##LASTX=187
##FIRSTY=19
##MAXX=187
##MINX=25
##MAXY=9999
##MINY=17
##NPOINTS=96
##PEAK TABLE=(XY..XY)
25,19 26,138 27,194 32,253
33,21 35,36 36,62 37,293
38,527 39,1318 40,141 41,51
43,84 44,317 45,409 46,46
47,54 48,32 49,238 50,997
51,794 52,130 58,441 59,87
60,172 61,410 62,866 63,2146
64,390 65,216 69,76 70,223
71,152 72,373 73,746 74,582
75,777 76,219 77,270 78,33
79,22 81,18 82,21 83,20
84,92 85,179 86,212 87,198
88,18 89,3384 90,722 91,86
92,33 93,39 94,46 95,22
96,40 97,76 98,18 99,914
100,76 101,278 102,128 103,46
104,26 108,30 111,63 112,21
114,53 115,48 116,269 117,18
119,76 120,110 121,152 122,24
123,84 124,18 125,9999 126,845
127,3257 128,237 137,21 138,30
146,43 148,22 151,30 153,17
155,104 156,19 157,38 183,1795
184,203 185,700 186,68 187,24
##END=
