##TITLE=3-Buten-2-one, 4-phenyl-, (E)-
##JCAMP-DX=4.24
##DATA TYPE=MASS SPECTRUM
##ORIGIN=Japan AIST/NIMC Database- Spectrum MS-NW-1696
##OWNER=NIST Mass Spectrometry Data Center
Collection (C) 2014 copyright by the U.S. Secretary of Commerce
on behalf of the United States of America. All rights reserved.
##CAS REGISTRY NO=1896-62-4
##$NIST MASS SPEC NO=228458
##MOLFORM=C10 H10 O
##MW=146
##$NIST SOURCE=MSDC
##XUNITS=M/Z
##YUNITS=RELATIVE INTENSITY
##XFACTOR=1
##YFACTOR=1
##FIRSTX=14
##LASTX=148
##FIRSTY=60
##MAXX=148
##MINX=14
##MAXY=9999
##MINY=10
##NPOINTS=85
##PEAK TABLE=(XY..XY)
14,60 15,509 16,10 17,20
18,70 26,99 27,469 28,249
29,40 32,10 37,119 38,289
39,939 40,60 41,60 42,99
43,3809 44,109 45,10 49,90
50,1469 51,4189 52,619 53,179
54,10 55,20 56,10 57,129
58,239 59,40 60,10 61,139
62,409 63,909 64,119 65,349
66,50 72,30 73,159 74,659
75,639 76,769 77,5679 78,579
79,30 81,10 82,30 83,10
85,30 86,80 87,109 88,30
89,139 90,30 91,269 92,20
97,20 98,90 99,40 100,10
101,189 102,1159 103,9999 104,969
105,60 107,10 113,20 114,10
115,399 116,90 117,309 118,70
126,20 127,80 128,70 129,50
130,20 131,9459 132,929 133,60
144,60 145,4009 146,5889 147,659
148,40
##END=
