##TITLE=8-Aminoquinaldine
##JCAMP-DX=4.24
##DATA TYPE=MASS SPECTRUM
##ORIGIN=Japan AIST/NIMC Database- Spectrum MS-NW-2586
##OWNER=NIST Mass Spectrometry Data Center
Collection (C) 2014 copyright by the U.S. Secretary of Commerce
on behalf of the United States of America. All rights reserved.
##CAS REGISTRY NO=18978-78-4
##$NIST MASS SPEC NO=234284
##MOLFORM=C10 H10 N2
##MW=158
##$NIST SOURCE=MSDC
##XUNITS=M/Z
##YUNITS=RELATIVE INTENSITY
##XFACTOR=1
##YFACTOR=1
##FIRSTX=15
##LASTX=160
##FIRSTY=10
##MAXX=160
##MINX=15
##MAXY=9999
##MINY=10
##NPOINTS=76
##PEAK TABLE=(XY..XY)
15,10 26,10 27,80 28,20
37,30 38,70 39,219 40,30
41,50 42,40 49,10 50,119
51,229 52,189 53,70 54,30
57,10 58,10 61,30 62,99
63,249 64,129 65,259 66,99
67,10 71,30 74,60 75,90
76,119 77,359 78,209 79,399
80,20 86,20 87,30 88,60
89,359 90,159 91,80 92,20
93,20 98,10 99,10 100,10
101,60 102,139 103,389 104,179
105,40 106,40 107,10 113,20
114,99 115,139 116,399 117,109
118,60 119,10 127,20 128,109
129,289 130,1249 131,1509 132,229
133,10 140,179 141,80 142,279
143,179 144,20 155,239 156,249
157,1629 158,9999 159,1159 160,60
##END=
