##TITLE=Phenol, 4-(pentyloxy)-
##JCAMP-DX=4.24
##DATA TYPE=MASS SPECTRUM
##ORIGIN=RADIAN CORP
##OWNER=NIST Mass Spectrometry Data Center
Collection (C) 2014 copyright by the U.S. Secretary of Commerce
on behalf of the United States of America. All rights reserved.
##CAS REGISTRY NO=18979-53-8
##$NIST MASS SPEC NO=70425
##MOLFORM=C11 H16 O2
##MW=180
##$NIST SOURCE=MSDC
##XUNITS=M/Z
##YUNITS=RELATIVE INTENSITY
##XFACTOR=1
##YFACTOR=1
##FIRSTX=14
##LASTX=181
##FIRSTY=30
##MAXX=181
##MINX=14
##MAXY=9999
##MINY=10
##NPOINTS=60
##PEAK TABLE=(XY..XY)
14,30 15,10 16,20 26,100
27,740 29,960 30,30 37,10
38,90 39,980 40,100 41,1010
42,210 43,620 44,20 50,120
51,230 52,230 53,1010 54,430
55,530 56,30 61,20 62,100
63,250 64,120 65,530 66,100
67,90 68,20 69,60 71,40
74,20 75,20 77,60 78,10
79,70 80,50 81,1850 82,820
83,40 91,20 92,20 93,260
94,40 95,130 107,70 108,20
109,1060 110,9999 111,680 112,50
121,10 123,220 124,10 136,20
137,20 150,10 180,1170 181,150
##END=
