##TITLE=Phenol, 3-butoxy-
##JCAMP-DX=4.24
##DATA TYPE=MASS SPECTRUM
##ORIGIN=Japan AIST/NIMC Database- Spectrum MS-NW-3622
##OWNER=NIST Mass Spectrometry Data Center
Collection (C) 2014 copyright by the U.S. Secretary of Commerce
on behalf of the United States of America. All rights reserved.
##CAS REGISTRY NO=18979-72-1
##$NIST MASS SPEC NO=232314
##MOLFORM=C10 H14 O2
##MW=166
##$NIST SOURCE=MSDC
##XUNITS=M/Z
##YUNITS=RELATIVE INTENSITY
##XFACTOR=1
##YFACTOR=1
##FIRSTX=15
##LASTX=168
##FIRSTY=30
##MAXX=168
##MINX=15
##MAXY=9999
##MINY=10
##NPOINTS=68
##PEAK TABLE=(XY..XY)
15,30 18,10 26,60 27,529
28,80 29,1179 30,30 31,10
37,20 38,80 39,599 40,70
41,829 42,50 43,80 50,60
51,99 52,90 53,279 54,99
55,179 56,60 57,399 58,20
61,10 62,40 63,159 64,149
65,389 66,50 67,50 68,80
69,189 70,10 71,30 74,10
75,10 77,40 78,10 79,30
80,10 81,459 82,559 83,30
91,20 92,60 93,259 94,70
95,70 97,10 107,30 108,10
109,50 110,9999 111,779 112,70
121,10 122,10 123,519 124,80
135,10 136,10 137,40 149,10
165,10 166,2189 167,259 168,20
##END=
