##TITLE=1,3,6,10-Cyclotetradecatetraene, 3,7,11-trimethyl-14-(1-methylethyl)-, [S-(E,Z,E,E)]-
##JCAMP-DX=4.24
##DATA TYPE=MASS SPECTRUM
##ORIGIN=R RYHAGE MS-LAB KAROLINSKA INSTITUTET STOCKHOLM SWEDEN
##OWNER=NIST Mass Spectrometry Data Center
Collection (C) 2014 copyright by the U.S. Secretary of Commerce
on behalf of the United States of America. All rights reserved.
##CAS REGISTRY NO=1898-13-1
##$NIST MASS SPEC NO=42570
##MOLFORM=C20 H32
##MW=272
##$NIST SOURCE=MSDC
##XUNITS=M/Z
##YUNITS=RELATIVE INTENSITY
##XFACTOR=1
##YFACTOR=1
##FIRSTX=15
##LASTX=274
##FIRSTY=230
##MAXX=274
##MINX=15
##MAXY=9999
##MINY=100
##NPOINTS=162
##PEAK TABLE=(XY..XY)
15,230 26,280 27,2800 29,2430
37,130 38,230 39,3000 40,840
41,9900 42,990 43,8190 44,460
50,280 51,720 52,450 53,3620
54,610 55,6660 56,770 57,1110
58,100 63,310 64,130 65,1770
66,760 67,5900 68,2230 69,4190
70,450 71,460 75,110 76,100
77,4760 78,1430 79,6760 80,2230
81,8850 82,1110 83,1100 84,160
85,300 89,210 90,120 91,9330
92,2260 93,9999 94,1710 95,3710
96,510 97,620 98,110 99,100
102,160 103,990 104,590 105,8760
106,2230 107,7520 108,2000 109,2800
110,430 111,380 112,120 113,110
114,160 115,1290 116,700 117,2170
118,700 119,8280 120,2910 121,550
122,1370 123,2000 124,310 125,150
127,290 128,860 129,1060 130,590
131,2860 132,970 133,5900 134,2940
135,3080 136,2030 137,750 138,130
139,100 141,380 142,310 143,560
144,370 145,3060 146,900 147,3140
148,1910 149,2290 150,660 151,220
152,120 153,140 154,100 155,210
156,140 157,360 158,240 159,2570
160,830 161,3460 162,1140 163,650
164,370 165,260 167,110 169,230
170,120 171,240 172,120 173,2090
174,590 175,1110 176,450 177,480
178,250 179,110 183,110 185,150
186,110 187,1910 188,740 189,2140
190,640 191,460 192,220 193,100
199,100 201,990 202,580 203,470
204,430 205,110 207,120 215,510
216,330 217,350 227,110 229,5240
230,1110 231,170 243,450 244,230
253,160 255,110 257,1740 258,410
268,110 270,140 271,100 272,5050
273,1200 274,150
##END=
