##TITLE=Ovalene
##JCAMP-DX=4.24
##DATA TYPE=MASS SPECTRUM
##ORIGIN=M M BURSEY
##OWNER=NIST Mass Spectrometry Data Center
Collection (C) 2014 copyright by the U.S. Secretary of Commerce
on behalf of the United States of America. All rights reserved.
##CAS REGISTRY NO=190-26-1
##$NIST MASS SPEC NO=39924
##MOLFORM=C32 H14
##MW=398
##$NIST SOURCE=MSDC
##XUNITS=M/Z
##YUNITS=RELATIVE INTENSITY
##XFACTOR=1
##YFACTOR=1
##FIRSTX=45
##LASTX=400
##FIRSTY=400
##MAXX=400
##MINX=45
##MAXY=9999
##MINY=400
##NPOINTS=26
##PEAK TABLE=(XY..XY)
45,400 55,700 56,400 57,900
70,700 72,500 81,400 83,500
95,500 185,400 186,400 187,700
196,500 197,400 198,1100 199,4900
200,400 375,1300 376,400 394,700
395,500 396,1800 397,1100 398,9999
399,3900 400,800
##END=
