##TITLE=Cyclohexanol, 4-(1,1-dimethylethyl)-, acetate, trans-
##JCAMP-DX=4.24
##DATA TYPE=MASS SPECTRUM
##ORIGIN=W.Jennings, T.Shibamoto
##OWNER=NIST Mass Spectrometry Data Center
Collection (C) 2014 copyright by the U.S. Secretary of Commerce
on behalf of the United States of America. All rights reserved.
##CAS REGISTRY NO=1900-69-2
##$NIST MASS SPEC NO=285046
##MOLFORM=C12 H22 O2
##MW=198
##$NIST SOURCE=MSDC
##XUNITS=M/Z
##YUNITS=RELATIVE INTENSITY
##XFACTOR=1
##YFACTOR=1
##FIRSTX=29
##LASTX=143
##FIRSTY=190
##MAXX=143
##MINX=29
##MAXY=9999
##MINY=70
##NPOINTS=29
##PEAK TABLE=(XY..XY)
29,190 41,751 43,1752 54,420
55,751 56,2052 57,9999 58,420
61,1722 67,2752 68,80 69,320
70,80 79,70 80,2923 81,2312
82,4754 83,1341 84,70 95,320
96,190 99,70 110,80 123,1461
124,80 138,581 141,80 142,80
143,80
##END=
