##TITLE=4-t-Butylcyclohexanone diethyl ketal
##JCAMP-DX=4.24
##DATA TYPE=MASS SPECTRUM
##ORIGIN=NIST Mass Spectrometry Data Center, 1994
##OWNER=NIST Mass Spectrometry Data Center
Collection (C) 2014 copyright by the U.S. Secretary of Commerce
on behalf of the United States of America. All rights reserved.
##CAS REGISTRY NO=1900-58-9
##$NIST MASS SPEC NO=135157
##MOLFORM=C14 H28 O2
##MW=228
##$NIST SOURCE=MSDC
##XUNITS=M/Z
##YUNITS=RELATIVE INTENSITY
##XFACTOR=1
##YFACTOR=1
##FIRSTX=12
##LASTX=228
##FIRSTY=29
##MAXX=228
##MINX=12
##MAXY=9999
##MINY=17
##NPOINTS=110
##PEAK TABLE=(XY..XY)
12,29 13,32 14,123 15,518
16,43 17,49 18,80 19,185
25,36 26,307 27,2597 28,833
29,7203 30,290 31,1142 39,1090
41,4918 42,863 43,4148 44,183
45,829 46,127 47,65 50,26
51,125 52,84 53,644 54,26
55,3670 56,482 57,3293 58,224
59,195 60,482 61,332 63,22
65,156 66,92 67,1228 68,301
69,1610 70,970 71,211 72,22
73,3885 74,154 75,38 76,22
77,313 78,22 79,779 80,198
81,1407 82,330 83,1283 84,128
85,144 86,65 87,265 88,138
89,478 90,30 91,104 93,190
95,811 97,1325 98,882 99,122
100,30 101,3700 102,241 103,28
105,29 107,79 109,101 110,66
111,238 112,27 115,160 116,240
117,17 121,178 122,28 123,60
124,17 125,388 126,143 127,61
128,17 129,9999 130,728 131,60
137,400 138,59 139,151 140,20
143,38 153,51 155,306 156,63
157,313 158,30 167,794 168,102
171,261 172,44 183,2399 184,313
185,39 228,24
##END=
