##TITLE=Pentanedioic acid, 3-methyl-, dimethyl ester
##JCAMP-DX=4.24
##DATA TYPE=MASS SPECTRUM
##ORIGIN=INST.OF CLINICAL BIOCHEM,RIKSHOSP,UNIV.OF OSLO,E.JELLUM,ET.A
##OWNER=NIST Mass Spectrometry Data Center
Collection (C) 2014 copyright by the U.S. Secretary of Commerce
on behalf of the United States of America. All rights reserved.
##CAS REGISTRY NO=19013-37-7
##$NIST MASS SPEC NO=24606
##MOLFORM=C8 H14 O4
##MW=174
##$NIST SOURCE=MSDC
##XUNITS=M/Z
##YUNITS=RELATIVE INTENSITY
##XFACTOR=1
##YFACTOR=1
##FIRSTX=27
##LASTX=144
##FIRSTY=2600
##MAXX=144
##MINX=27
##MAXY=9999
##MINY=500
##NPOINTS=35
##PEAK TABLE=(XY..XY)
27,2600 29,3400 31,1400 39,4000
40,800 41,6100 42,4200 43,4700
44,600 45,1400 53,900 54,700
55,5500 56,2100 57,1300 59,9999
69,7600 70,600 71,2400 72,800
73,5800 74,3400 82,2600 83,2000
85,900 86,1300 99,1400 101,7900
102,500 114,9000 115,5000 127,600
142,3200 143,8200 144,700
##END=
