##TITLE=Quinoline, 4-ethyl-
##JCAMP-DX=4.24
##DATA TYPE=MASS SPECTRUM
##OWNER=NIST Mass Spectrometry Data Center
Collection (C) 2014 copyright by the U.S. Secretary of Commerce
on behalf of the United States of America. All rights reserved.
##CAS REGISTRY NO=19020-26-9
##$NIST MASS SPEC NO=5414
##MOLFORM=C11 H11 N
##MW=157
##$NIST SOURCE=MSDC
##XUNITS=M/Z
##YUNITS=RELATIVE INTENSITY
##XFACTOR=1
##YFACTOR=1
##FIRSTX=61
##LASTX=158
##FIRSTY=333
##MAXX=158
##MINX=61
##MAXY=9999
##MINY=267
##NPOINTS=37
##PEAK TABLE=(XY..XY)
61,333 62,733 63,1333 64,1067
65,667 73,1000 74,1333 75,1000
76,1600 77,500 87,500 88,333
89,1067 90,300 101,1000 102,733
103,333 104,500 114,333 115,3333
116,1000 117,267 126,267 127,600
128,1000 129,1333 130,1000 131,400
140,367 141,267 142,5999 143,1000
154,733 155,500 156,4400 157,9999
158,1333
##END=
