##TITLE=2-Propanone, 2-propenylhydrazone
##JCAMP-DX=4.24
##DATA TYPE=MASS SPECTRUM
##ORIGIN=ATLAS OF MASS SPECTRA OF ORGANIC COMPOUNDS, V. A. KOPTYUG, ED.
##OWNER=NIST Mass Spectrometry Data Center
Collection (C) 2014 copyright by the U.S. Secretary of Commerce
on behalf of the United States of America. All rights reserved.
##CAS REGISTRY NO=19031-79-9
##$NIST MASS SPEC NO=64524
##MOLFORM=C6 H12 N2
##MW=112
##$NIST SOURCE=MSDC
##XUNITS=M/Z
##YUNITS=RELATIVE INTENSITY
##XFACTOR=1
##YFACTOR=1
##FIRSTX=27
##LASTX=113
##FIRSTY=2270
##MAXX=113
##MINX=27
##MAXY=9999
##MINY=150
##NPOINTS=32
##PEAK TABLE=(XY..XY)
27,2270 28,6000 29,2000 30,5340
31,530 39,3600 40,870 41,5070
42,4600 43,1200 44,870 54,1140
55,1340 56,9999 57,1140 58,600
68,670 69,800 70,1340 71,8670
72,670 80,170 81,150 82,190
83,3740 84,670 85,3070 96,250
97,1340 111,1070 112,8000 113,930
##END=
