##TITLE=Carbamodithioic acid, dibutyl-, propyl ester
##JCAMP-DX=4.24
##DATA TYPE=MASS SPECTRUM
##ORIGIN=F.I.ONUSKA CANADA CENTRE FOR INLAND WATERS, ONTARIO, CANADA
##OWNER=NIST Mass Spectrometry Data Center
Collection (C) 2014 copyright by the U.S. Secretary of Commerce
on behalf of the United States of America. All rights reserved.
##CAS REGISTRY NO=19047-84-8
##$NIST MASS SPEC NO=38065
##MOLFORM=C12 H25 N S2
##MW=247
##$NIST SOURCE=MSDC
##XUNITS=M/Z
##YUNITS=RELATIVE INTENSITY
##XFACTOR=1
##YFACTOR=1
##FIRSTX=29
##LASTX=249
##FIRSTY=3180
##MAXX=249
##MINX=29
##MAXY=9999
##MINY=12
##NPOINTS=26
##PEAK TABLE=(XY..XY)
29,3180 30,1170 39,1170 41,5410
42,1200 43,5110 44,900 55,2130
60,2580 72,1110 102,1020 116,4750
144,123 149,210 172,9999 173,1200
177,510 204,2010 205,3450 206,630
207,390 219,45 220,12 247,3000
248,720 249,390
##END=
