##TITLE=Carbamodithioic acid, diethyl-, propyl ester
##JCAMP-DX=4.24
##DATA TYPE=MASS SPECTRUM
##ORIGIN=F.I.ONUSKA CANADA CENTRE FOR INLAND WATERS, ONTARIO, CANADA
##OWNER=NIST Mass Spectrometry Data Center
Collection (C) 2014 copyright by the U.S. Secretary of Commerce
on behalf of the United States of America. All rights reserved.
##CAS REGISTRY NO=19047-77-9
##$NIST MASS SPEC NO=38063
##MOLFORM=C8 H17 N S2
##MW=191
##$NIST SOURCE=MSDC
##XUNITS=M/Z
##YUNITS=RELATIVE INTENSITY
##XFACTOR=1
##YFACTOR=1
##FIRSTX=27
##LASTX=193
##FIRSTY=3800
##MAXX=193
##MINX=27
##MAXY=9999
##MINY=120
##NPOINTS=28
##PEAK TABLE=(XY..XY)
27,3800 29,3760 41,120 42,1100
43,2220 44,3690 56,1280 57,180
58,330 59,1100 60,6200 61,690
72,2630 73,220 76,370 88,6240
90,400 91,190 116,9999 117,840
119,260 120,180 148,660 149,3400
150,400 191,2740 192,1100 193,400
##END=
