##TITLE=Beryllium acetate, basic
##JCAMP-DX=4.24
##DATA TYPE=MASS SPECTRUM
##ORIGIN=ORMSBG, 13(9)491(1978); V. A. SIPACHEV ET AL
##OWNER=NIST Mass Spectrometry Data Center
Collection (C) 2014 copyright by the U.S. Secretary of Commerce
on behalf of the United States of America. All rights reserved.
##CAS REGISTRY NO=19049-40-2
##$NIST MASS SPEC NO=65700
##MOLFORM=C12 H18 Be4 O13
##MW=406
##$NIST SOURCE=MSDC
##XUNITS=M/Z
##YUNITS=RELATIVE INTENSITY
##XFACTOR=1
##YFACTOR=1
##FIRSTX=76
##LASTX=347
##FIRSTY=33
##MAXX=347
##MINX=76
##MAXY=9999
##MINY=33
##NPOINTS=12
##PEAK TABLE=(XY..XY)
76,33 93,84 101,252 118,84
136,84 143,420 161,588 178,420
203,1344 220,8403 245,1680 347,9999
##END=
