##TITLE=Oryzalin
##JCAMP-DX=4.24
##DATA TYPE=MASS SPECTRUM
##ORIGIN=NIST Mass Spectrometry Data Center, 1990.
##OWNER=NIST Mass Spectrometry Data Center
Collection (C) 2014 copyright by the U.S. Secretary of Commerce
on behalf of the United States of America. All rights reserved.
##CAS REGISTRY NO=19044-88-3
##$NIST MASS SPEC NO=119006
##MOLFORM=C12 H18 N4 O6 S
##MW=346
##$NIST SOURCE=MSDC
##XUNITS=M/Z
##YUNITS=RELATIVE INTENSITY
##XFACTOR=1
##YFACTOR=1
##FIRSTX=13
##LASTX=348
##FIRSTY=22
##MAXX=348
##MINX=13
##MAXY=9999
##MINY=6
##NPOINTS=219
##PEAK TABLE=(XY..XY)
13,22 14,41 15,26 16,40
17,75 18,49 27,618 28,239
29,211 30,97 31,47 32,36
38,41 39,228 40,75 41,1014
42,170 43,1499 44,86 46,31
48,29 50,65 51,169 52,102
53,77 54,80 55,50 56,85
57,205 58,17 61,35 62,119
63,176 64,348 65,154 66,71
67,63 68,45 69,32 70,36
72,18 73,37 74,85 75,413
76,283 77,259 78,198 79,119
80,134 81,51 82,41 85,21
88,78 89,157 90,203 91,209
92,115 93,81 94,47 95,21
96,35 101,29 102,135 103,271
104,183 105,172 106,75 107,69
108,55 110,30 114,17 115,58
116,102 117,137 118,162 119,125
120,94 121,63 122,55 123,28
128,49 129,63 130,218 131,98
132,95 133,110 134,60 135,67
136,42 137,40 139,38 142,49
143,124 144,125 145,140 146,79
147,71 148,109 149,145 150,42
151,36 153,39 154,79 155,32
156,46 157,33 158,90 159,47
160,41 161,37 162,37 164,30
165,67 169,25 170,167 171,104
172,36 173,38 174,36 175,23
176,32 177,27 178,49 179,27
180,32 181,36 182,33 183,89
184,27 185,60 186,21 190,43
191,24 194,248 195,72 196,59
197,87 198,106 199,36 200,58
201,244 202,39 203,23 207,23
209,63 210,305 211,58 212,37
213,198 214,45 217,296 218,39
219,31 222,27 223,71 224,107
225,94 226,58 227,45 228,124
229,103 230,47 236,34 237,154
238,133 239,48 240,29 241,27
242,106 243,110 244,34 245,45
252,28 253,57 254,140 255,268
256,74 257,27 258,1324 259,953
260,135 261,57 263,26 269,76
270,118 271,158 272,36 273,31
274,26 275,6273 276,623 277,392
278,88 279,55 281,6 282,24
283,62 285,30 286,28 287,28
289,58 295,35 301,1483 302,185
303,86 304,19 312,234 313,54
315,26 317,9999 318,1233 319,639
320,77 329,386 330,60 331,34
346,593 347,102 348,34
##END=
