##TITLE=2,6-Diaminopurine
##JCAMP-DX=4.24
##DATA TYPE=MASS SPECTRUM
##ORIGIN=Leung Pu, NIH, Bethesda, Maryland, U.S.
##OWNER=NIST Mass Spectrometry Data Center
Collection (C) 2014 copyright by the U.S. Secretary of Commerce
on behalf of the United States of America. All rights reserved.
##CAS REGISTRY NO=1904-98-9
##$NIST MASS SPEC NO=211573
##MOLFORM=C5 H6 N6
##MW=150
##$NIST SOURCE=MSDC
##XUNITS=M/Z
##YUNITS=RELATIVE INTENSITY
##XFACTOR=1
##YFACTOR=1
##FIRSTX=42
##LASTX=151
##FIRSTY=311
##MAXX=151
##MINX=42
##MAXY=9999
##MINY=21
##NPOINTS=35
##PEAK TABLE=(XY..XY)
42,311 43,1046 44,53 49,45
53,460 54,294 55,102 65,26
66,109 67,73 68,321 69,167
75,136 77,21 78,21 79,21
80,120 81,236 82,43 84,46
92,93 95,118 96,109 105,81
106,172 107,183 108,1195 109,541
122,355 123,116 133,789 134,273
149,135 150,9999 151,829
##END=
