##TITLE=2,6-Difluorobenzoic acid, ethyl ester
##JCAMP-DX=4.24
##DATA TYPE=MASS SPECTRUM
##ORIGIN=Zaikin V.G., TIPS RAS, Moscow, Russia
##OWNER=NIST Mass Spectrometry Data Center
Collection (C) 2014 copyright by the U.S. Secretary of Commerce
on behalf of the United States of America. All rights reserved.
##CAS REGISTRY NO=19064-14-3
##$NIST MASS SPEC NO=292388
##MOLFORM=C9 H8 F2 O2
##MW=186
##$NIST SOURCE=MSDC
##XUNITS=M/Z
##YUNITS=RELATIVE INTENSITY
##XFACTOR=1
##YFACTOR=1
##FIRSTX=27
##LASTX=187
##FIRSTY=110
##MAXX=187
##MINX=27
##MAXY=9999
##MINY=10
##NPOINTS=32
##PEAK TABLE=(XY..XY)
27,110 28,10 29,170 44,30
45,250 50,40 57,40 62,70
63,591 64,30 68,60 69,40
74,50 75,30 81,40 87,40
93,130 94,110 112,90 113,1221
114,250 127,30 140,30 141,9999
142,791 143,150 158,2202 159,240
167,70 185,30 186,661 187,60
##END=
