##TITLE=3,7-Diazaadamantan-9-one, 1,5-diphenyl-
##JCAMP-DX=4.24
##DATA TYPE=MASS SPECTRUM
##ORIGIN=A.S.Moskovkin,I.M.Karnaukh, Russian Center on Disaster Medicine
##OWNER=NIST Mass Spectrometry Data Center
Collection (C) 2014 copyright by the U.S. Secretary of Commerce
on behalf of the United States of America. All rights reserved.
##CAS REGISTRY NO=19066-35-4
##$NIST MASS SPEC NO=216364
##MOLFORM=C20 H20 N2 O
##MW=304
##$NIST SOURCE=MSDC
##XUNITS=M/Z
##YUNITS=RELATIVE INTENSITY
##XFACTOR=1
##YFACTOR=1
##FIRSTX=38
##LASTX=307
##FIRSTY=150
##MAXX=307
##MINX=38
##MAXY=9999
##MINY=10
##NPOINTS=201
##PEAK TABLE=(XY..XY)
38,150 39,1331 40,160 41,1741
42,5504 43,840 44,330 45,320
46,100 49,40 50,440 51,1621
52,350 53,270 54,220 55,1221
56,690 57,1901 58,980 59,40
60,260 61,80 62,110 63,590
64,770 65,890 66,210 67,590
68,400 69,1070 70,420 71,750
72,80 73,190 74,120 75,200
76,420 77,3833 78,930 79,350
80,10 81,690 82,250 83,650
84,210 85,380 86,30 87,70
88,20 89,310 90,120 91,5605
92,1191 93,330 94,130 95,560
96,250 97,470 98,120 99,100
100,30 101,150 102,800 103,9999
104,1371 105,990 106,160 107,300
108,990 109,390 110,140 111,280
112,60 113,80 114,40 115,1761
116,550 117,1741 118,1801 119,330
120,140 121,180 122,370 123,250
124,90 125,160 126,50 127,1291
128,1761 129,360 130,1341 131,4704
132,740 133,170 134,40 135,120
136,90 137,130 138,60 139,50
140,30 141,110 142,70 143,380
144,2191 145,550 146,1311 147,180
149,150 150,30 151,30 152,370
153,130 154,150 155,50 156,250
157,160 158,600 159,1781 160,430
161,80 163,90 165,160 166,50
167,430 168,80 169,40 170,100
171,120 172,320 173,550 174,120
175,40 176,30 177,70 178,120
179,60 180,70 181,40 182,270
183,1781 184,500 185,420 186,120
187,130 188,30 189,70 190,60
191,170 192,40 195,40 199,210
200,30 201,690 202,250 203,130
204,130 205,370 206,150 211,20
212,30 213,90 214,10 215,90
216,20 217,60 218,120 219,190
220,120 221,40 227,170 228,70
230,30 231,80 232,850 233,1881
234,1231 235,260 236,30 245,40
246,160 247,1331 248,480 249,50
259,40 260,1631 261,9008 262,6335
263,1211 274,220 275,900 276,460
277,1000 278,320 279,40 287,80
303,540 304,3963 305,890 306,100
307,10
##END=
