##TITLE=2,2-Dimethyl-3-heptanone
##JCAMP-DX=4.24
##DATA TYPE=MASS SPECTRUM
##ORIGIN=NIST Mass Spectrometry Data Center, 1990.
##OWNER=NIST Mass Spectrometry Data Center
Collection (C) 2014 copyright by the U.S. Secretary of Commerce
on behalf of the United States of America. All rights reserved.
##CAS REGISTRY NO=19078-97-8
##$NIST MASS SPEC NO=113729
##MOLFORM=C9 H18 O
##MW=142
##$NIST SOURCE=MSDC
##XUNITS=M/Z
##YUNITS=RELATIVE INTENSITY
##XFACTOR=1
##YFACTOR=1
##FIRSTX=15
##LASTX=142
##FIRSTY=115
##MAXX=142
##MINX=15
##MAXY=9999
##MINY=77
##NPOINTS=21
##PEAK TABLE=(XY..XY)
15,115 26,120 27,1063 28,752
29,2009 39,1129 41,3649 42,450
43,455 53,122 55,447 57,9999
58,476 67,83 69,77 71,172
84,910 85,4708 86,272 100,88
142,140
##END=
