##TITLE=2-Methoxy-4-nitrophenyl isothiocyanate
##JCAMP-DX=4.24
##DATA TYPE=MASS SPECTRUM
##ORIGIN=NIST Mass Spectrometry Data Center, 1994
##OWNER=NIST Mass Spectrometry Data Center
Collection (C) 2014 copyright by the U.S. Secretary of Commerce
on behalf of the United States of America. All rights reserved.
##CAS REGISTRY NO=190774-55-1
##$NIST MASS SPEC NO=134990
##MOLFORM=C8 H6 N2 O3 S
##MW=210
##$NIST SOURCE=MSDC
##XUNITS=M/Z
##YUNITS=RELATIVE INTENSITY
##XFACTOR=1
##YFACTOR=1
##FIRSTX=14
##LASTX=212
##FIRSTY=282
##MAXX=212
##MINX=14
##MAXY=9999
##MINY=105
##NPOINTS=125
##PEAK TABLE=(XY..XY)
14,282 15,2433 16,167 26,636
27,356 28,638 29,559 30,1804
31,221 32,549 36,181 37,783
38,1270 39,1654 40,388 41,421
42,260 43,380 44,1916 45,1467
46,636 48,460 49,310 50,1931
51,2231 52,1651 53,1352 54,1746
55,317 56,144 57,157 58,497
59,258 60,416 61,1330 62,3090
63,7604 64,1528 65,4433 66,1601
67,581 68,860 69,2439 70,5316
71,805 72,573 73,314 74,1447
75,2159 76,1483 77,3902 78,1243
79,1916 80,3001 81,455 82,1005
83,901 84,392 85,326 86,501
87,346 88,605 89,670 90,2280
91,954 92,1301 93,975 94,1963
95,2034 96,938 97,439 98,260
99,181 102,158 103,423 104,2683
105,1741 106,796 107,1260 108,654
109,2355 110,421 111,327 112,121
117,218 118,105 120,8996 121,4206
122,781 123,4668 124,561 125,224
132,131 133,689 134,5894 135,928
136,6694 137,2362 138,456 139,565
140,188 147,326 149,2193 150,893
151,1963 152,700 153,193 154,192
162,402 163,250 164,649 165,442
166,2061 167,670 168,1605 169,183
178,160 180,1605 181,176 182,661
194,156 195,322 210,9999 211,1126
212,594
##END=
