##TITLE=Tricyclo[3.2.1.0(1,5)]octane
##JCAMP-DX=4.24
##DATA TYPE=MASS SPECTRUM
##ORIGIN=R.C. DOUGHERTY
##OWNER=NIST Mass Spectrometry Data Center
Collection (C) 2014 copyright by the U.S. Secretary of Commerce
on behalf of the United States of America. All rights reserved.
##CAS REGISTRY NO=19074-25-0
##$NIST MASS SPEC NO=37243
##MOLFORM=C8 H12
##MW=108
##$NIST SOURCE=MSDC
##XUNITS=M/Z
##YUNITS=RELATIVE INTENSITY
##XFACTOR=1
##YFACTOR=1
##FIRSTX=26
##LASTX=109
##FIRSTY=300
##MAXX=109
##MINX=26
##MAXY=9999
##MINY=100
##NPOINTS=38
##PEAK TABLE=(XY..XY)
26,300 27,851 28,450 29,500
37,150 38,450 39,5405 40,801
41,2803 42,250 49,100 50,701
51,1401 52,901 53,1752 54,851
55,400 62,200 63,400 65,1501
66,901 67,2402 68,500 74,100
75,100 77,6406 78,1101 79,9809
80,2903 81,450 91,4504 92,601
93,9999 94,751 105,400 107,851
108,3904 109,350
##END=
