##TITLE=3-Ethyl-5-hexen-3-ol
##JCAMP-DX=4.24
##DATA TYPE=MASS SPECTRUM
##ORIGIN=NIST Mass Spectrometry Data Center, 1990.
##OWNER=NIST Mass Spectrometry Data Center
Collection (C) 2014 copyright by the U.S. Secretary of Commerce
on behalf of the United States of America. All rights reserved.
##CAS REGISTRY NO=1907-46-6
##$NIST MASS SPEC NO=113770
##MOLFORM=C8 H16 O
##MW=128
##$NIST SOURCE=MSDC
##XUNITS=M/Z
##YUNITS=RELATIVE INTENSITY
##XFACTOR=1
##YFACTOR=1
##FIRSTX=15
##LASTX=110
##FIRSTY=195
##MAXX=110
##MINX=15
##MAXY=9999
##MINY=131
##NPOINTS=33
##PEAK TABLE=(XY..XY)
15,195 26,236 27,1920 28,1072
29,3539 30,131 31,681 32,137
39,1685 40,357 41,2991 42,496
43,1596 45,5846 46,142 51,208
53,500 55,753 57,9999 58,404
59,137 65,151 67,369 69,2158
70,176 77,155 79,233 81,389
87,5910 88,373 95,139 99,873
110,149
##END=
