##TITLE=Pyrazole, 3,4,4,5-tetramethyl-
##JCAMP-DX=4.24
##DATA TYPE=MASS SPECTRUM
##ORIGIN=V.A. KOPTYUG, VOL.4, ATLAS OF MASS SPECTRA OF ORGANIC COMPOUNDS
##OWNER=NIST Mass Spectrometry Data Center
Collection (C) 2014 copyright by the U.S. Secretary of Commerce
on behalf of the United States of America. All rights reserved.
##CAS REGISTRY NO=19078-32-1
##$NIST MASS SPEC NO=73064
##MOLFORM=C7 H12 N2
##MW=124
##$NIST SOURCE=MSDC
##XUNITS=M/Z
##YUNITS=RELATIVE INTENSITY
##XFACTOR=1
##YFACTOR=1
##FIRSTX=27
##LASTX=125
##FIRSTY=170
##MAXX=125
##MINX=27
##MAXY=9999
##MINY=70
##NPOINTS=39
##PEAK TABLE=(XY..XY)
27,170 28,1010 29,350 30,190
38,190 39,2020 40,890 41,3430
42,9999 43,560 50,120 51,290
52,290 53,640 54,350 55,370
56,170 57,150 65,190 66,220
67,240 68,2110 69,260 70,120
77,160 79,350 80,80 81,1210
82,3300 83,3830 84,250 95,680
96,260 97,70 109,1590 110,131
123,110 124,2870 125,250
##END=
