##TITLE=Stannane, (acetyloxy)triethyl-
##JCAMP-DX=4.24
##DATA TYPE=MASS SPECTRUM
##ORIGIN=B HOLMSTEDT
##OWNER=NIST Mass Spectrometry Data Center
Collection (C) 2014 copyright by the U.S. Secretary of Commerce
on behalf of the United States of America. All rights reserved.
##CAS REGISTRY NO=1907-13-7
##$NIST MASS SPEC NO=36751
##MOLFORM=C8 H18 O2 Sn
##MW=266
##$NIST SOURCE=MSDC
##XUNITS=M/Z
##YUNITS=RELATIVE INTENSITY
##XFACTOR=1
##YFACTOR=1
##FIRSTX=26
##LASTX=242
##FIRSTY=60
##MAXX=242
##MINX=26
##MAXY=9999
##MINY=60
##NPOINTS=77
##PEAK TABLE=(XY..XY)
26,60 27,294 28,504 29,764
30,344 31,70 42,108 43,80
44,456 45,88 46,328 58,64
61,240 96,64 117,182 118,334
119,368 120,534 121,490 122,660
124,152 126,84 133,362 135,676
136,226 137,812 139,192 141,202
146,396 147,720 148,256 149,1261
150,152 151,568 153,358 154,88
155,270 157,64 161,74 167,132
171,98 173,64 174,98 175,1369
176,924 177,2385 178,974 179,6085
180,124 181,500 182,74 183,642
184,118 203,142 204,220 205,396
206,344 207,548 208,358 209,318
210,176 211,396 212,148 213,446
215,206 222,70 229,142 231,118
233,2229 234,1261 235,7614 236,1475
237,9999 238,304 239,774 241,870
242,64
##END=
