##TITLE=1,4-Dithiane-1-oxide
##JCAMP-DX=4.24
##DATA TYPE=MASS SPECTRUM
##ORIGIN=A.A.Kutin, Moscow, Russia
##OWNER=NIST Mass Spectrometry Data Center
Collection (C) 2014 copyright by the U.S. Secretary of Commerce
on behalf of the United States of America. All rights reserved.
##CAS REGISTRY NO=19087-70-8
##$NIST MASS SPEC NO=273383
##MOLFORM=C4 H8 O S2
##MW=136
##$NIST SOURCE=MSDC
##XUNITS=M/Z
##YUNITS=RELATIVE INTENSITY
##XFACTOR=1
##YFACTOR=1
##FIRSTX=25
##LASTX=139
##FIRSTY=70
##MAXX=139
##MINX=25
##MAXY=9999
##MINY=40
##NPOINTS=65
##PEAK TABLE=(XY..XY)
25,70 26,881 27,3273 29,350
31,100 32,130 33,210 34,250
35,220 39,140 41,661 43,300
45,6696 46,3443 47,1341 48,1051
49,230 50,240 51,70 53,270
54,40 55,50 56,150 57,811
58,2732 59,6266 60,9038 61,2192
62,460 63,1441 64,821 65,60
66,90 68,160 73,2752 74,1381
75,200 76,1161 77,7036 78,260
79,360 80,300 81,120 82,50
85,450 86,150 87,5125 88,360
89,230 90,200 91,390 92,1141
93,80 94,110 103,170 105,50
108,460 118,150 119,741 120,340
121,80 136,9999 137,611 138,1021
139,60
##END=
