##TITLE=Cholesteryl laurate
##JCAMP-DX=4.24
##DATA TYPE=MASS SPECTRUM
##ORIGIN=Organic Synthesis Lab, MSU, Moscow.TRC 804
##OWNER=NIST Mass Spectrometry Data Center
Collection (C) 2014 copyright by the U.S. Secretary of Commerce
on behalf of the United States of America. All rights reserved.
##CAS REGISTRY NO=1908-11-8
##$NIST MASS SPEC NO=326315
##MOLFORM=C39 H68 O2
##MW=568
##$NIST SOURCE=MSDC
##XUNITS=M/Z
##YUNITS=RELATIVE INTENSITY
##XFACTOR=1
##YFACTOR=1
##FIRSTX=27
##LASTX=371
##FIRSTY=189
##MAXX=371
##MINX=27
##MAXY=9999
##MINY=29
##NPOINTS=96
##PEAK TABLE=(XY..XY)
27,189 29,459 39,139 41,1019
42,139 43,2208 44,49 53,59
55,1228 56,169 57,1629 60,319
67,519 68,59 69,809 70,79
71,669 73,279 77,59 79,389
81,1249 82,79 83,499 85,209
91,469 92,89 93,689 94,129
95,939 96,49 97,259 105,679
106,209 107,759 108,249 109,509
111,89 117,159 118,99 119,459
120,489 121,589 122,89 123,169
129,119 131,309 132,49 133,509
134,99 135,419 137,39 143,339
144,79 145,899 146,279 147,1139
148,209 149,239 157,199 158,149
159,439 160,259 161,389 162,59
163,109 171,79 173,129 175,69
185,59 187,39 199,79 200,69
201,89 205,89 206,39 213,359
214,79 215,79 228,79 245,39
246,29 247,669 248,109 255,549
256,89 260,529 261,139 326,49
353,779 354,189 366,199 367,139
368,9999 369,3389 370,579 371,29
##END=
