##TITLE=2H-Thiopyran-3(4H)-one, dihydro-
##JCAMP-DX=4.24
##DATA TYPE=MASS SPECTRUM
##ORIGIN=CARL DJERASSI DEPT OF CHEM STANFORD UNIV STANFORD CALIF 94305
##OWNER=NIST Mass Spectrometry Data Center
Collection (C) 2014 copyright by the U.S. Secretary of Commerce
on behalf of the United States of America. All rights reserved.
##CAS REGISTRY NO=19090-03-0
##$NIST MASS SPEC NO=46377
##MOLFORM=C5 H8 O S
##MW=116
##$NIST SOURCE=MSDC
##XUNITS=M/Z
##YUNITS=RELATIVE INTENSITY
##XFACTOR=1
##YFACTOR=1
##FIRSTX=41
##LASTX=118
##FIRSTY=1200
##MAXX=118
##MINX=41
##MAXY=9999
##MINY=100
##NPOINTS=26
##PEAK TABLE=(XY..XY)
41,1200 42,2900 43,600 45,1600
46,2500 47,1000 48,100 54,300
55,2100 58,100 59,600 60,3800
61,2600 62,200 63,100 68,400
69,300 70,800 73,200 74,100
87,400 88,700 102,200 116,9999
117,600 118,500
##END=
