##TITLE=Ethanesulfonic acid, methyl ester
##JCAMP-DX=4.24
##DATA TYPE=MASS SPECTRUM
##OWNER=NIST Mass Spectrometry Data Center
Collection (C) 2014 copyright by the U.S. Secretary of Commerce
on behalf of the United States of America. All rights reserved.
##CAS REGISTRY NO=1912-28-3
##$NIST MASS SPEC NO=2410
##MOLFORM=C3 H8 O3 S
##MW=124
##$NIST SOURCE=MSDC
##XUNITS=M/Z
##YUNITS=RELATIVE INTENSITY
##XFACTOR=1
##YFACTOR=1
##FIRSTX=14
##LASTX=125
##FIRSTY=127
##MAXX=125
##MINX=14
##MAXY=9999
##MINY=127
##NPOINTS=35
##PEAK TABLE=(XY..XY)
14,127 15,3934 26,2092 27,8327
28,2888 29,9999 30,1211 31,5985
32,1103 33,338 45,5555 46,240
47,210 48,1401 49,370 50,861
57,190 58,240 59,711 60,370
64,621 65,931 66,1381 79,2092
80,991 81,260 93,470 94,190
95,280 96,2883 97,370 109,410
110,130 124,220 125,130
##END=
