##TITLE=9-Methoxyfluorene
##JCAMP-DX=4.24
##DATA TYPE=MASS SPECTRUM
##ORIGIN=ASES Database, Dalian Institute, P.R. China
##OWNER=NIST Mass Spectrometry Data Center
Collection (C) 2014 copyright by the U.S. Secretary of Commerce
on behalf of the United States of America. All rights reserved.
##CAS REGISTRY NO=19126-15-9
##$NIST MASS SPEC NO=146908
##MOLFORM=C14 H12 O
##MW=196
##$NIST SOURCE=MSDC
##XUNITS=M/Z
##YUNITS=RELATIVE INTENSITY
##XFACTOR=1
##YFACTOR=1
##FIRSTX=51
##LASTX=198
##FIRSTY=360
##MAXX=198
##MINX=51
##MAXY=9999
##MINY=190
##NPOINTS=35
##PEAK TABLE=(XY..XY)
51,360 63,740 74,370 75,430
76,830 77,310 89,340 91,280
101,220 102,220 113,320 115,550
126,500 127,310 137,280 138,270
139,740 150,420 151,840 152,2812
153,1861 154,310 162,310 163,1581
164,1271 165,9999 166,1681 167,280
180,1611 181,3543 182,840 195,3282
196,6485 197,1211 198,190
##END=
