##TITLE=1,3-Dioxane, 2,4,6-trimethyl-, (2.alpha.,4.alpha.,6.alpha.)-
##JCAMP-DX=4.24
##DATA TYPE=MASS SPECTRUM
##ORIGIN=K. PIHLAJA
##OWNER=NIST Mass Spectrometry Data Center
Collection (C) 2014 copyright by the U.S. Secretary of Commerce
on behalf of the United States of America. All rights reserved.
##CAS REGISTRY NO=19145-91-6
##$NIST MASS SPEC NO=40824
##MOLFORM=C7 H14 O2
##MW=130
##$NIST SOURCE=MSDC
##XUNITS=M/Z
##YUNITS=RELATIVE INTENSITY
##XFACTOR=1
##YFACTOR=1
##FIRSTX=41
##LASTX=129
##FIRSTY=500
##MAXX=129
##MINX=41
##MAXY=9999
##MINY=500
##NPOINTS=15
##PEAK TABLE=(XY..XY)
41,500 42,1600 43,1900 44,600
45,5600 68,600 69,6200 71,1300
73,600 86,600 87,1100 101,500
115,9999 116,900 129,1200
##END=
