##TITLE=Trisulfide, bis(2-chloroethyl)-
##JCAMP-DX=4.24
##DATA TYPE=MASS SPECTRUM
##ORIGIN=A.A.Kutin, Moscow, Russia
##OWNER=NIST Mass Spectrometry Data Center
Collection (C) 2014 copyright by the U.S. Secretary of Commerce
on behalf of the United States of America. All rights reserved.
##CAS REGISTRY NO=19149-77-0
##$NIST MASS SPEC NO=273330
##MOLFORM=C4 H8 Cl2 S3
##MW=222
##$NIST SOURCE=MSDC
##XUNITS=M/Z
##YUNITS=RELATIVE INTENSITY
##XFACTOR=1
##YFACTOR=1
##FIRSTX=9
##LASTX=226
##FIRSTY=540
##MAXX=226
##MINX=9
##MAXY=9999
##MINY=110
##NPOINTS=67
##PEAK TABLE=(XY..XY)
9,540 26,530 27,6646 35,110
36,611 38,240 41,110 43,150
45,2532 46,891 47,661 48,120
51,160 55,150 57,390 58,1171
59,3033 60,1651 61,3393 62,470
63,9999 64,2562 65,3313 66,340
73,120 79,330 91,230 92,300
93,320 94,300 95,2132 96,661
97,2392 98,280 99,1651 101,571
109,1151 111,681 123,190 124,190
125,410 126,811 127,1151 128,1031
129,530 130,470 131,200 132,110
157,891 158,561 159,2833 160,921
161,1201 162,330 163,160 173,170
187,330 189,160 190,260 192,160
194,330 196,290 222,5945 223,450
224,4464 225,280 226,1061
##END=
