##TITLE=(Z)-Styrylthioacetic acid
##JCAMP-DX=4.24
##DATA TYPE=MASS SPECTRUM
##ORIGIN=NIST Mass Spectrometry Data Center, 1994
##OWNER=NIST Mass Spectrometry Data Center
Collection (C) 2014 copyright by the U.S. Secretary of Commerce
on behalf of the United States of America. All rights reserved.
##CAS REGISTRY NO=1914-61-0
##$NIST MASS SPEC NO=136300
##MOLFORM=C10 H10 O2 S
##MW=194
##$NIST SOURCE=MSDC
##XUNITS=M/Z
##YUNITS=RELATIVE INTENSITY
##XFACTOR=1
##YFACTOR=1
##FIRSTX=12
##LASTX=197
##FIRSTY=48
##MAXX=197
##MINX=12
##MAXY=9999
##MINY=3
##NPOINTS=102
##PEAK TABLE=(XY..XY)
12,48 13,116 14,594 16,44
17,206 18,611 25,26 33,49
34,69 37,145 38,447 39,1742
40,140 41,3 42,886 43,3
44,361 45,4016 46,733 47,455
48,69 49,122 50,1829 51,3937
52,646 53,200 55,38 57,161
58,386 60,347 61,224 62,638
63,1695 64,257 65,1718 66,127
67,86 68,35 69,668 70,89
71,179 72,39 73,103 74,255
75,906 76,1072 77,3257 78,507
79,168 81,141 82,236 83,76
84,107 85,49 86,96 87,125
88,39 89,1402 90,812 91,9783
92,788 93,187 94,38 95,102
97,63 98,95 99,47 102,2044
103,1204 104,439 105,501 106,77
107,88 108,407 109,132 110,32
115,3355 116,1829 117,229 119,35
120,276 121,206 122,33 123,42
131,40 132,78 134,5391 135,9999
136,1254 137,567 138,41 145,22
147,522 149,1092 150,149 151,80
183,42 185,46 194,6823 195,877
196,399 197,54
##END=
