##TITLE=Spiro[4.4]nonane, 1-methylene-
##JCAMP-DX=4.24
##DATA TYPE=MASS SPECTRUM
##OWNER=NIST Mass Spectrometry Data Center
Collection (C) 2014 copyright by the U.S. Secretary of Commerce
on behalf of the United States of America. All rights reserved.
##CAS REGISTRY NO=19144-06-0
##$NIST MASS SPEC NO=3322
##MOLFORM=C10 H16
##MW=136
##$NIST SOURCE=MSDC
##XUNITS=M/Z
##YUNITS=RELATIVE INTENSITY
##XFACTOR=1
##YFACTOR=1
##FIRSTX=39
##LASTX=137
##FIRSTY=2600
##MAXX=137
##MINX=39
##MAXY=9999
##MINY=80
##NPOINTS=32
##PEAK TABLE=(XY..XY)
39,2600 40,480 41,2460 50,340
51,920 52,480 53,1340 54,200
55,920 66,1000 67,400 68,1600
69,400 77,3140 78,740 79,7719
80,1880 81,1400 91,3880 92,800
93,9799 94,9999 95,2260 105,600
106,160 107,8399 108,1160 121,1960
134,80 135,80 136,3280 137,340
##END=
