##TITLE=trans-3-Decene
##JCAMP-DX=4.24
##DATA TYPE=MASS SPECTRUM
##ORIGIN=NIST Mass Spectrometry Data Center, 1990.
##OWNER=NIST Mass Spectrometry Data Center
Collection (C) 2014 copyright by the U.S. Secretary of Commerce
on behalf of the United States of America. All rights reserved.
##CAS REGISTRY NO=19150-21-1
##$NIST MASS SPEC NO=113881
##MOLFORM=C10 H20
##MW=140
##$NIST SOURCE=MSDC
##XUNITS=M/Z
##YUNITS=RELATIVE INTENSITY
##XFACTOR=1
##YFACTOR=1
##FIRSTX=15
##LASTX=141
##FIRSTY=91
##MAXX=141
##MINX=15
##MAXY=9999
##MINY=59
##NPOINTS=42
##PEAK TABLE=(XY..XY)
15,91 27,2636 28,1145 29,2731
30,66 39,3204 40,883 41,9999
42,3110 43,4836 44,246 50,107
51,292 52,219 53,1168 54,1331
55,8684 56,6309 57,1626 58,70
65,305 66,186 67,1605 68,902
69,6917 70,4823 71,783 77,164
79,185 81,225 82,407 83,1352
84,1267 85,312 96,165 97,1190
98,421 110,59 111,476 112,240
140,1622 141,186
##END=
