##TITLE=Pyrrolo[1,2-a]pyrazine-1,4-dione, hexahydro-
##JCAMP-DX=4.24
##DATA TYPE=MASS SPECTRUM
##ORIGIN=NIST Mass Spectrometry Data Center
##OWNER=NIST Mass Spectrometry Data Center
Collection (C) 2014 copyright by the U.S. Secretary of Commerce
on behalf of the United States of America. All rights reserved.
##CAS REGISTRY NO=19179-12-5
##$NIST MASS SPEC NO=333685
##MOLFORM=C7 H10 N2 O2
##MW=154
##$NIST SOURCE=MSDC
##XUNITS=M/Z
##YUNITS=RELATIVE INTENSITY
##XFACTOR=1
##YFACTOR=1
##FIRSTX=14
##LASTX=156
##FIRSTY=30
##MAXX=156
##MINX=14
##MAXY=9999
##MINY=10
##NPOINTS=86
##PEAK TABLE=(XY..XY)
14,30 15,80 25,10 26,150
27,901 28,2142 29,731 30,1151
31,30 33,10 34,10 35,10
37,90 38,260 39,1902 40,941
41,5705 42,3353 43,1051 44,260
45,10 49,30 50,50 51,110
52,170 53,290 54,701 55,4254
56,1702 57,581 58,60 59,10
62,10 63,20 64,60 65,40
66,130 67,350 68,3463 69,4204
70,5795 71,380 72,30 73,20
74,10 75,40 76,10 78,20
79,10 80,100 81,160 82,631
83,9999 84,891 85,130 86,300
87,20 92,10 93,10 94,20
95,30 96,290 97,621 98,2893
99,170 100,10 101,10 107,10
108,10 109,20 111,8548 112,801
113,60 123,10 124,10 125,440
126,861 127,70 128,10 137,10
143,10 151,10 152,10 154,5805
155,480 156,40
##END=
