##TITLE=3,5-Dihydroxybenzonitrile
##JCAMP-DX=4.24
##DATA TYPE=MASS SPECTRUM
##ORIGIN=NIST Mass Spectrometry Data Center, 1994
##OWNER=NIST Mass Spectrometry Data Center
Collection (C) 2014 copyright by the U.S. Secretary of Commerce
on behalf of the United States of America. All rights reserved.
##CAS REGISTRY NO=19179-36-3
##$NIST MASS SPEC NO=136636
##MOLFORM=C7 H5 N O2
##MW=135
##$NIST SOURCE=MSDC
##XUNITS=M/Z
##YUNITS=RELATIVE INTENSITY
##XFACTOR=1
##YFACTOR=1
##FIRSTX=12
##LASTX=137
##FIRSTY=87
##MAXX=137
##MINX=12
##MAXY=9999
##MINY=29
##NPOINTS=65
##PEAK TABLE=(XY..XY)
12,87 13,66 14,220 15,96
17,77 18,279 25,130 26,355
27,663 28,383 29,942 32,55
36,111 37,840 38,1022 39,691
40,146 41,552 42,468 43,140
44,29 45,81 48,66 49,270
50,781 51,1977 52,3239 53,1226
54,29 55,351 60,91 61,336
62,755 63,554 64,474 65,240
66,433 67,849 68,335 69,747
74,77 75,261 76,308 77,269
78,537 79,2116 80,815 81,97
84,61 87,103 88,154 89,300
90,65 91,88 93,145 94,215
95,43 105,135 106,665 107,749
108,253 117,87 135,9999 136,861
137,78
##END=
