##TITLE=Pentanedioic acid, 3,3-dimethyl-, dimethyl ester
##JCAMP-DX=4.24
##DATA TYPE=MASS SPECTRUM
##ORIGIN=INST.OF CLINICAL BIOCHEM,RIKSHOSP,UNIV.OF OSLO,E.JELLUM,ET.A
##OWNER=NIST Mass Spectrometry Data Center
Collection (C) 2014 copyright by the U.S. Secretary of Commerce
on behalf of the United States of America. All rights reserved.
##CAS REGISTRY NO=19184-67-9
##$NIST MASS SPEC NO=24676
##MOLFORM=C9 H16 O4
##MW=188
##$NIST SOURCE=MSDC
##XUNITS=M/Z
##YUNITS=RELATIVE INTENSITY
##XFACTOR=1
##YFACTOR=1
##FIRSTX=27
##LASTX=158
##FIRSTY=1600
##MAXX=158
##MINX=27
##MAXY=9999
##MINY=500
##NPOINTS=30
##PEAK TABLE=(XY..XY)
27,1600 29,2600 31,600 39,1800
41,3700 42,1400 43,2900 45,800
53,1000 55,5300 56,1600 59,3700
69,2300 73,9999 74,2900 81,600
82,700 83,4900 87,800 97,1600
109,700 113,1200 114,700 115,5400
128,3100 129,1400 141,1700 156,1400
157,4600 158,500
##END=
