##TITLE=Dibenzo[fg,op]naphthacene
##JCAMP-DX=4.24
##DATA TYPE=MASS SPECTRUM
##ORIGIN=P. C. GOODLEY, C. H. MIDGETT, M. GORDON, MURRAY STATE UNIV., MURRAY, KY. USA.
##OWNER=NIST Mass Spectrometry Data Center
Collection (C) 2014 copyright by the U.S. Secretary of Commerce
on behalf of the United States of America. All rights reserved.
##CAS REGISTRY NO=192-51-8
##$NIST MASS SPEC NO=58949
##MOLFORM=C24 H14
##MW=302
##$NIST SOURCE=MSDC
##XUNITS=M/Z
##YUNITS=RELATIVE INTENSITY
##XFACTOR=1
##YFACTOR=1
##FIRSTX=136
##LASTX=304
##FIRSTY=260
##MAXX=304
##MINX=136
##MAXY=9999
##MINY=260
##NPOINTS=11
##PEAK TABLE=(XY..XY)
136,260 137,460 138,360 149,650
150,960 151,1520 298,690 300,2110
302,9999 303,2620 304,370
##END=
