##TITLE=Benzene, (1,3-dimethylbutyl)-
##JCAMP-DX=4.24
##DATA TYPE=MASS SPECTRUM
##OWNER=NIST Mass Spectrometry Data Center
Collection (C) 2014 copyright by the U.S. Secretary of Commerce
on behalf of the United States of America. All rights reserved.
##CAS REGISTRY NO=19219-84-2
##$NIST MASS SPEC NO=5842
##MOLFORM=C12 H18
##MW=162
##$NIST SOURCE=MSDC
##XUNITS=M/Z
##YUNITS=RELATIVE INTENSITY
##XFACTOR=1
##YFACTOR=1
##FIRSTX=26
##LASTX=163
##FIRSTY=10
##MAXX=163
##MINX=26
##MAXY=9999
##MINY=10
##NPOINTS=61
##PEAK TABLE=(XY..XY)
26,10 27,300 29,150 37,10
38,20 39,270 40,30 41,530
42,40 43,250 44,100 50,60
51,260 52,70 53,70 54,10
55,40 56,20 57,180 58,20
62,10 63,80 64,40 65,150
66,20 67,20 69,60 70,10
71,10 74,20 75,30 76,40
77,701 78,270 79,681 80,50
89,40 90,20 91,1952 92,170
101,20 102,60 103,460 104,330
105,9999 106,3593 107,270 115,100
116,30 117,60 118,30 119,120
120,20 127,10 128,30 129,20
131,30 145,10 147,40 162,731
163,100
##END=
