##TITLE=(S)-(+)-2-Chloro-1-propanol
##JCAMP-DX=4.24
##DATA TYPE=MASS SPECTRUM
##ORIGIN=Chuck Anderson, Aldrich Chemical Co.
##OWNER=NIST Mass Spectrometry Data Center
Collection (C) 2014 copyright by the U.S. Secretary of Commerce
on behalf of the United States of America. All rights reserved.
##CAS REGISTRY NO=19210-21-0
##$NIST MASS SPEC NO=108417
##MOLFORM=C3 H7 Cl O
##MW=94
##$NIST SOURCE=MSDC
##XUNITS=M/Z
##YUNITS=RELATIVE INTENSITY
##XFACTOR=1
##YFACTOR=1
##FIRSTX=15
##LASTX=94
##FIRSTY=15
##MAXX=94
##MINX=15
##MAXY=9999
##MINY=8
##NPOINTS=36
##PEAK TABLE=(XY..XY)
15,15 26,225 27,890 28,410
29,944 30,131 31,9999 32,155
33,42 36,57 37,88 38,150
39,555 40,81 41,772 42,121
43,370 44,37 48,38 49,107
51,40 53,18 55,72 57,474
58,1394 59,158 60,19 61,91
62,901 63,836 64,292 65,718
67,149 76,33 78,8 94,62
##END=
