##TITLE=4,5,6,7-Tetrafluorobenzo-2,1,3-selenazole
##JCAMP-DX=4.24
##DATA TYPE=MASS SPECTRUM
##ORIGIN=Institute of Organic Chemistry, USSR, 1990
##OWNER=NIST Mass Spectrometry Data Center
Collection (C) 2014 copyright by the U.S. Secretary of Commerce
on behalf of the United States of America. All rights reserved.
##CAS REGISTRY NO=19227-22-6
##$NIST MASS SPEC NO=110881
##MOLFORM=C6 F4 N2 Se
##MW=256
##$NIST SOURCE=MSDC
##XUNITS=M/Z
##YUNITS=RELATIVE INTENSITY
##XFACTOR=1
##YFACTOR=1
##FIRSTX=50
##LASTX=259
##FIRSTY=140
##MAXX=259
##MINX=50
##MAXY=9999
##MINY=60
##NPOINTS=40
##PEAK TABLE=(XY..XY)
50,140 55,180 57,100 62,190
69,700 74,370 76,1140 77,750
78,2290 80,4890 81,340 82,830
86,60 88,160 93,580 94,60
100,1610 101,60 107,550 109,80
111,160 116,60 118,110 124,90
126,60 127,60 128,140 131,330
145,60 150,430 176,440 250,150
252,1770 253,1590 254,4890 255,320
256,9999 257,680 258,1690 259,100
##END=
