##TITLE=2,6-Dichloroiodobenzene
##JCAMP-DX=4.24
##DATA TYPE=MASS SPECTRUM
##ORIGIN=NIST Mass Spectrometry Data Center, 1994
##OWNER=NIST Mass Spectrometry Data Center
Collection (C) 2014 copyright by the U.S. Secretary of Commerce
on behalf of the United States of America. All rights reserved.
##CAS REGISTRY NO=19230-28-5
##$NIST MASS SPEC NO=134921
##MOLFORM=C6 H3 Cl2 I
##MW=272
##$NIST SOURCE=MSDC
##XUNITS=M/Z
##YUNITS=RELATIVE INTENSITY
##XFACTOR=1
##YFACTOR=1
##FIRSTX=25
##LASTX=277
##FIRSTY=62
##MAXX=277
##MINX=25
##MAXY=9999
##MINY=29
##NPOINTS=57
##PEAK TABLE=(XY..XY)
25,62 26,81 27,49 35,280
36,259 37,912 38,416 39,113
47,117 48,130 49,774 50,790
51,135 55,29 60,161 61,306
62,141 63,93 71,91 72,271
73,1235 74,4134 75,3104 76,197
84,1690 85,510 86,610 87,148
106,38 109,3944 110,1370 111,1271
112,423 118,45 119,105 120,55
121,75 127,1912 136,576 137,338
138,65 145,4872 146,472 147,3054
148,256 149,435 150,39 162,132
164,81 176,96 237,53 272,9999
273,769 274,6452 275,412 276,1101
277,77
##END=
