##TITLE=Isothiocyanic acid, 5-chloro-o-tolyl ester
##JCAMP-DX=4.24
##DATA TYPE=MASS SPECTRUM
##ORIGIN=NIST Mass Spectrometry Data Center
##OWNER=NIST Mass Spectrometry Data Center
Collection (C) 2014 copyright by the U.S. Secretary of Commerce
on behalf of the United States of America. All rights reserved.
##CAS REGISTRY NO=19241-36-2
##$NIST MASS SPEC NO=342912
##MOLFORM=C8 H6 Cl N S
##MW=183
##$NIST SOURCE=MSDC
##XUNITS=M/Z
##YUNITS=RELATIVE INTENSITY
##XFACTOR=1
##YFACTOR=1
##FIRSTX=15
##LASTX=187
##FIRSTY=110
##MAXX=187
##MINX=15
##MAXY=9999
##MINY=20
##NPOINTS=127
##PEAK TABLE=(XY..XY)
15,110 17,20 18,70 25,30
26,330 27,591 32,641 33,60
34,30 35,100 36,110 37,621
38,901 39,2082 40,150 41,50
43,100 44,811 45,1882 46,110
47,220 48,50 49,460 50,1491
51,1641 52,370 53,60 54,20
56,40 57,70 58,370 59,290
60,440 61,761 62,1251 63,3353
64,761 65,230 66,30 68,40
69,320 70,751 71,130 72,340
73,1091 74,881 75,1121 76,581
77,731 78,220 79,150 80,20
81,90 82,140 83,150 84,220
85,270 86,370 87,460 89,4084
90,651 92,540 93,230 94,120
95,100 96,160 97,250 98,110
99,731 100,100 101,210 102,370
103,280 104,1261 105,110 106,50
107,70 108,80 109,40 110,30
111,170 112,130 113,70 114,240
115,90 116,330 117,50 118,20
119,160 120,320 121,931 122,180
123,390 124,330 125,941 126,160
127,310 128,20 130,30 131,20
132,50 133,40 137,40 138,300
139,60 140,90 141,20 142,30
144,20 146,230 148,9999 149,1071
150,1061 151,1291 152,310 153,420
155,641 156,150 157,230 158,60
167,50 180,30 183,8518 184,1341
185,3073 186,330 187,130
##END=
