##TITLE=2-Bromo-4-methylphenyl isothiocyanate
##JCAMP-DX=4.24
##DATA TYPE=MASS SPECTRUM
##ORIGIN=NIST Mass Spectrometry Data Center, 1994
##OWNER=NIST Mass Spectrometry Data Center
Collection (C) 2014 copyright by the U.S. Secretary of Commerce
on behalf of the United States of America. All rights reserved.
##CAS REGISTRY NO=19241-39-5
##$NIST MASS SPEC NO=134690
##MOLFORM=C8 H6 Br N S
##MW=227
##$NIST SOURCE=MSDC
##XUNITS=M/Z
##YUNITS=RELATIVE INTENSITY
##XFACTOR=1
##YFACTOR=1
##FIRSTX=15
##LASTX=231
##FIRSTY=66
##MAXX=231
##MINX=15
##MAXY=9999
##MINY=66
##NPOINTS=93
##PEAK TABLE=(XY..XY)
15,66 26,260 27,657 28,369
32,490 37,479 38,729 39,1982
40,171 41,74 44,659 45,1670
46,77 47,104 48,74 49,325
50,1586 51,1778 52,471 53,159
58,326 59,104 61,802 62,1462
63,3256 64,923 65,284 69,443
70,725 71,100 72,188 73,100
74,1788 75,824 76,828 77,1404
78,401 79,113 81,142 82,159
83,169 84,145 85,221 86,440
87,431 88,475 89,2913 90,1945
91,122 93,117 94,150 95,245
96,206 99,69 100,86 101,66
102,265 103,711 104,1569 105,145
106,93 107,118 108,135 114,412
115,288 116,474 117,176 119,165
120,404 121,1735 122,289 123,304
125,221 133,136 143,85 146,566
147,581 148,6788 149,759 150,329
169,1599 170,148 171,1511 172,131
195,78 199,84 201,74 226,1470
227,9651 228,2377 229,9999 230,1021
231,474
##END=
