##TITLE=2,4,5-Trimethylphenyl isothiocyanate
##JCAMP-DX=4.24
##DATA TYPE=MASS SPECTRUM
##ORIGIN=NIST Mass Spectrometry Data Center, 1994
##OWNER=NIST Mass Spectrometry Data Center
Collection (C) 2014 copyright by the U.S. Secretary of Commerce
on behalf of the United States of America. All rights reserved.
##CAS REGISTRY NO=19241-18-0
##$NIST MASS SPEC NO=134899
##MOLFORM=C10 H11 N S
##MW=177
##$NIST SOURCE=MSDC
##XUNITS=M/Z
##YUNITS=RELATIVE INTENSITY
##XFACTOR=1
##YFACTOR=1
##FIRSTX=15
##LASTX=180
##FIRSTY=469
##MAXX=180
##MINX=15
##MAXY=9999
##MINY=37
##NPOINTS=120
##PEAK TABLE=(XY..XY)
15,469 26,243 27,1786 28,513
29,175 32,279 33,46 34,46
37,208 38,652 39,3908 40,456
41,1376 42,79 44,278 45,737
46,61 47,55 50,1248 51,2786
52,860 53,918 54,109 55,57
56,37 57,153 58,343 59,455
60,158 61,261 62,563 63,1664
64,616 65,1620 66,282 67,152
68,58 69,166 70,426 71,155
72,237 73,130 74,557 75,729
76,549 77,2730 78,1154 79,464
80,140 81,159 82,100 83,180
84,251 85,88 86,202 87,281
88,88 89,872 90,399 91,2972
92,430 93,180 94,69 95,108
96,138 97,52 98,115 100,44
101,178 102,656 103,1279 104,688
105,212 106,69 107,62 108,69
109,103 110,49 113,43 115,1840
116,870 117,1422 118,986 119,4555
120,493 121,191 122,97 123,64
127,71 128,423 129,213 130,1088
131,207 132,337 133,94 134,332
135,416 136,153 137,49 140,62
141,57 142,271 143,621 144,4425
145,856 146,122 147,96 148,179
149,316 150,127 160,123 162,6447
163,719 164,313 165,46 176,2223
177,9999 178,1321 179,465 180,51
##END=
