##TITLE=Benzene, 4-bromo-1-isothiocyanato-2-methyl-
##JCAMP-DX=4.24
##DATA TYPE=MASS SPECTRUM
##ORIGIN=NIST Mass Spectrometry Data Center, 1994
##OWNER=NIST Mass Spectrometry Data Center
Collection (C) 2014 copyright by the U.S. Secretary of Commerce
on behalf of the United States of America. All rights reserved.
##CAS REGISTRY NO=19241-38-4
##$NIST MASS SPEC NO=134963
##MOLFORM=C8 H6 Br N S
##MW=227
##$NIST SOURCE=MSDC
##XUNITS=M/Z
##YUNITS=RELATIVE INTENSITY
##XFACTOR=1
##YFACTOR=1
##FIRSTX=4
##LASTX=231
##FIRSTY=21
##MAXX=231
##MINX=4
##MAXY=9999
##MINY=21
##NPOINTS=118
##PEAK TABLE=(XY..XY)
4,21 14,42 15,85 17,27
18,48 26,213 27,412 28,294
32,412 36,79 37,513 38,898
39,2016 40,218 41,64 43,94
44,546 45,1741 46,72 47,87
48,45 49,269 50,1512 51,1636
52,420 53,73 56,50 57,81
58,251 59,160 60,45 61,745
62,1541 63,3581 64,969 65,209
66,46 68,52 69,327 70,601
71,120 72,193 73,46 74,1727
75,876 76,650 77,1083 78,342
79,121 80,67 81,145 82,176
83,172 84,159 85,254 86,445
87,491 88,551 89,3495 90,1623
91,131 92,32 93,145 94,131
95,144 96,179 99,100 100,80
101,49 102,243 103,451 104,2837
105,250 106,91 107,111 108,99
113,445 114,478 115,490 116,566
117,216 118,55 119,290 120,540
121,1978 122,281 123,153 133,58
143,90 145,65 146,368 148,9999
149,1015 150,433 151,45 156,51
157,34 167,36 168,42 169,327
170,58 171,281 182,79 184,69
194,155 195,250 196,153 197,218
198,49 199,221 200,49 201,221
202,35 227,7166 228,1178 229,7069
230,696 231,333
##END=
