##TITLE=Hexanal, 3-methyl-
##JCAMP-DX=4.24
##DATA TYPE=MASS SPECTRUM
##OWNER=NIST Mass Spectrometry Data Center
Collection (C) 2014 copyright by the U.S. Secretary of Commerce
on behalf of the United States of America. All rights reserved.
##CAS REGISTRY NO=19269-28-4
##$NIST MASS SPEC NO=1755
##MOLFORM=C7 H14 O
##MW=114
##$NIST SOURCE=MSDC
##XUNITS=M/Z
##YUNITS=RELATIVE INTENSITY
##XFACTOR=1
##YFACTOR=1
##FIRSTX=14
##LASTX=114
##FIRSTY=20
##MAXX=114
##MINX=14
##MAXY=9999
##MINY=20
##NPOINTS=46
##PEAK TABLE=(XY..XY)
14,20 15,220 26,180 27,2472
28,420 29,2422 30,50 31,130
37,40 38,140 39,1972 40,330
41,4324 42,3904 43,7427 44,2152
45,621 50,70 51,110 52,30
53,360 54,180 55,5485 56,410
57,1501 58,721 59,40 65,30
67,140 68,170 69,520 70,9999
71,3283 72,611 73,30 79,40
81,621 82,30 83,30 85,110
86,230 95,30 96,180 97,30
99,20 114,30
##END=
