##TITLE=Phenol, 4-bromo-, acetate
##JCAMP-DX=4.24
##DATA TYPE=MASS SPECTRUM
##ORIGIN=NIST Mass Spectrometry Data Center
##OWNER=NIST Mass Spectrometry Data Center
Collection (C) 2014 copyright by the U.S. Secretary of Commerce
on behalf of the United States of America. All rights reserved.
##CAS REGISTRY NO=1927-95-3
##$NIST MASS SPEC NO=364919
##MOLFORM=C8 H7 Br O2
##MW=214
##$NIST SOURCE=MSDC
##XUNITS=M/Z
##YUNITS=RELATIVE INTENSITY
##XFACTOR=1
##YFACTOR=1
##FIRSTX=13
##LASTX=218
##FIRSTY=10
##MAXX=218
##MINX=13
##MAXY=9999
##MINY=10
##NPOINTS=86
##PEAK TABLE=(XY..XY)
13,10 14,30 15,160 17,10
18,10 25,10 26,30 27,20
28,30 29,20 31,20 36,10
37,120 38,350 39,380 40,10
41,20 42,110 43,2632 44,50
45,10 46,10 49,30 50,270
51,70 52,10 53,80 55,20
60,20 61,140 62,320 63,1001
64,571 65,1431 66,120 67,10
73,40 74,190 75,280 76,180
77,50 78,20 79,10 81,10
87,10 91,10 92,170 93,1541
94,100 95,30 104,10 105,10
106,10 107,10 115,10 116,20
117,250 118,30 119,220 120,10
129,10 130,10 131,10 133,10
135,10 143,440 144,50 145,420
146,50 155,110 156,10 157,120
158,10 169,20 171,110 172,9999
173,761 174,9779 175,651 176,30
213,10 214,1021 215,100 216,1001
217,90 218,10
##END=
