##TITLE=Naphtho[2,3-d]-1,2,3-triazin-4(3H)-one, 3-phenyl-
##JCAMP-DX=4.24
##DATA TYPE=MASS SPECTRUM
##OWNER=NIST Mass Spectrometry Data Center
Collection (C) 2014 copyright by the U.S. Secretary of Commerce
on behalf of the United States of America. All rights reserved.
##CAS REGISTRY NO=19275-09-3
##$NIST MASS SPEC NO=13231
##MOLFORM=C17 H11 N3 O
##MW=273
##$NIST SOURCE=MSDC
##XUNITS=M/Z
##YUNITS=RELATIVE INTENSITY
##XFACTOR=1
##YFACTOR=1
##FIRSTX=38
##LASTX=275
##FIRSTY=166
##MAXX=275
##MINX=38
##MAXY=9999
##MINY=5
##NPOINTS=69
##PEAK TABLE=(XY..XY)
38,166 39,554 41,55 47,37
50,554 51,1479 52,296 62,185
63,739 64,388 65,166 74,554
75,554 76,776 77,1904 78,277
86,166 87,370 88,351 89,166
95,610 96,166 98,166 99,240
100,277 101,92 107,388 108,185
109,333 113,554 114,2643 115,351
119,166 122,370 123,111 125,185
126,2588 127,610 139,148 140,739
141,92 142,1571 143,148 152,92
155,111 164,14 165,9 166,18
188,18 189,92 190,55 191,18
192,9 193,5 214,554 215,610
216,2680 217,5545 218,1109 219,166
220,166 243,222 244,1035 245,9999
246,2033 247,296 273,4953 274,943
275,166
##END=
