##TITLE=2H-Pyran, tetrahydro-2-(1-methylethoxy)-
##JCAMP-DX=4.24
##DATA TYPE=MASS SPECTRUM
##ORIGIN=CARL DJERASSI DEPT OF CHEM STANFORD UNIV STANFORD CALIF 94305
##OWNER=NIST Mass Spectrometry Data Center
Collection (C) 2014 copyright by the U.S. Secretary of Commerce
on behalf of the United States of America. All rights reserved.
##CAS REGISTRY NO=1927-70-4
##$NIST MASS SPEC NO=46661
##MOLFORM=C8 H16 O2
##MW=144
##$NIST SOURCE=MSDC
##XUNITS=M/Z
##YUNITS=RELATIVE INTENSITY
##XFACTOR=1
##YFACTOR=1
##FIRSTX=41
##LASTX=144
##FIRSTY=9999
##MAXX=144
##MINX=41
##MAXY=9999
##MINY=100
##NPOINTS=29
##PEAK TABLE=(XY..XY)
41,9999 42,2200 43,8500 44,2400
45,6300 50,400 51,400 52,100
53,900 54,700 55,4900 56,5900
57,2700 58,400 59,200 67,800
68,100 69,300 74,100 75,200
83,400 84,800 85,4400 86,300
101,1100 102,400 129,100 143,200
144,300
##END=
