##TITLE=Diborane
##JCAMP-DX=4.24
##DATA TYPE=MASS SPECTRUM
##ORIGIN=API 0333
##OWNER=NIST Mass Spectrometry Data Center
Collection (C) 2014 copyright by the U.S. Secretary of Commerce
on behalf of the United States of America. All rights reserved.
##CAS REGISTRY NO=19287-45-7
##$NIST MASS SPEC NO=20
##MOLFORM=B2 H6
##MW=28
##$NIST SOURCE=MSDC
##XUNITS=M/Z
##YUNITS=RELATIVE INTENSITY
##XFACTOR=1
##YFACTOR=1
##FIRSTX=10
##LASTX=28
##FIRSTY=631
##MAXX=28
##MINX=10
##MAXY=9999
##MINY=10
##NPOINTS=14
##PEAK TABLE=(XY..XY)
10,631 11,2843 12,1812 13,2442
14,70 15,10 21,190 22,1121
23,4574 24,8968 25,5675 26,9999
27,9749 28,30
##END=
