##TITLE=Nitrapyrin
##JCAMP-DX=4.24
##DATA TYPE=MASS SPECTRUM
##ORIGIN=NIST Mass Spectrometry Data Center, 1998.
##OWNER=NIST Mass Spectrometry Data Center
Collection (C) 2014 copyright by the U.S. Secretary of Commerce
on behalf of the United States of America. All rights reserved.
##CAS REGISTRY NO=1929-82-4
##$NIST MASS SPEC NO=291129
##MOLFORM=C6 H3 Cl4 N
##MW=229
##$NIST SOURCE=MSDC
##XUNITS=M/Z
##YUNITS=RELATIVE INTENSITY
##XFACTOR=1
##YFACTOR=1
##FIRSTX=24
##LASTX=235
##FIRSTY=10
##MAXX=235
##MINX=24
##MAXY=9999
##MINY=10
##NPOINTS=119
##PEAK TABLE=(XY..XY)
24,10 25,20 26,70 27,20
31,10 35,180 36,60 37,390
38,280 39,190 40,20 44,20
47,320 48,120 49,460 50,560
51,430 52,130 53,10 59,30
60,230 61,570 62,780 63,600
64,300 65,20 66,30 67,20
71,80 72,460 73,810 74,250
75,410 76,690 77,60 78,20
79,660 80,430 82,200 83,180
84,330 85,370 86,250 87,280
88,530 89,60 90,10 94,30
95,40 96,150 97,1040 98,660
99,350 100,170 101,10 102,20
106,20 107,350 108,80 109,290
110,70 111,90 112,460 113,30
114,150 115,10 117,100 119,110
120,40 121,50 122,70 123,50
124,1520 125,120 126,480 127,40
129,10 131,90 132,60 133,1500
134,280 135,950 136,160 137,160
138,30 141,10 143,20 145,10
147,10 149,10 158,710 159,570
160,570 161,370 162,150 163,60
164,10 167,230 168,30 169,220
170,30 171,70 172,10 173,10
194,9999 195,740 196,9409 197,680
198,3070 199,210 200,340 201,20
229,360 230,30 231,460 232,30
233,210 234,20 235,50
##END=
