##TITLE=Methyl p-methoxycinnamate, cis
##JCAMP-DX=4.24
##DATA TYPE=MASS SPECTRUM
##ORIGIN=Mark Whitten, Florida Museum of Natural History, U. of Florida
##OWNER=NIST Mass Spectrometry Data Center
Collection (C) 2014 copyright by the U.S. Secretary of Commerce
on behalf of the United States of America. All rights reserved.
##CAS REGISTRY NO=19310-29-3
##$NIST MASS SPEC NO=141098
##MOLFORM=C11 H12 O3
##MW=192
##$NIST SOURCE=MSDC
##XUNITS=M/Z
##YUNITS=RELATIVE INTENSITY
##XFACTOR=1
##YFACTOR=1
##FIRSTX=41
##LASTX=194
##FIRSTY=230
##MAXX=194
##MINX=41
##MAXY=9999
##MINY=26
##NPOINTS=80
##PEAK TABLE=(XY..XY)
41,230 43,167 44,65 45,91
50,539 51,840 52,226 53,271
54,53 55,209 59,191 61,126
62,497 63,1462 64,801 65,292
66,139 67,76 68,42 69,205
71,64 74,263 75,340 76,347
77,1312 78,338 79,724 80,280
82,124 83,28 86,57 87,83
89,1937 90,1344 91,515 92,579
93,142 94,38 95,41 96,46
98,52 101,237 102,414 103,732
104,116 105,201 106,96 107,110
108,73 109,56 115,87 117,479
118,1511 119,421 120,65 121,398
122,51 129,34 132,971 133,3793
134,1617 135,232 136,49 145,103
146,295 147,218 148,84 149,242
150,26 151,93 159,68 161,9999
162,1124 163,123 164,49 176,59
177,175 192,6734 193,814 194,83
##END=
