##TITLE=Nonanoic acid, 9-oxo-, methyl ester
##JCAMP-DX=4.24
##DATA TYPE=MASS SPECTRUM
##ORIGIN=W.K.ROHWEDDER US DEPT. OF AGRICULT., PEORIA, ILLINOIS, USA
##OWNER=NIST Mass Spectrometry Data Center
Collection (C) 2014 copyright by the U.S. Secretary of Commerce
on behalf of the United States of America. All rights reserved.
##CAS REGISTRY NO=1931-63-1
##$NIST MASS SPEC NO=58119
##MOLFORM=C10 H18 O3
##MW=186
##$NIST SOURCE=MSDC
##XUNITS=M/Z
##YUNITS=RELATIVE INTENSITY
##XFACTOR=1
##YFACTOR=1
##FIRSTX=14
##LASTX=185
##FIRSTY=18
##MAXX=185
##MINX=14
##MAXY=9999
##MINY=13
##NPOINTS=120
##PEAK TABLE=(XY..XY)
14,18 15,759 16,17 17,39
18,176 26,55 27,1366 28,1156
29,1571 30,50 31,266 32,364
33,37 38,33 39,1182 40,27
41,4348 42,1003 43,3915 44,1082
45,616 46,32 47,21 48,42
49,24 50,22 51,69 52,36
53,413 54,435 55,6074 56,604
57,1570 58,223 59,2878 60,193
61,119 63,45 65,98 66,91
67,1912 68,973 69,2856 70,473
71,511 72,131 73,377 74,9999
75,748 76,66 77,110 78,42
79,493 80,345 81,755 82,827
83,3936 84,1037 85,240 86,35
87,6138 88,565 89,58 91,80
92,68 93,258 94,712 95,596
96,117 97,644 98,965 99,148
100,69 101,782 102,72 105,13
107,214 108,246 109,946 110,381
111,3464 112,362 113,100 114,36
115,756 116,69 117,20 118,35
119,39 121,33 123,25 124,118
125,215 126,209 127,59 128,17
129,247 130,95 135,63 136,551
137,87 139,19 140,38 141,41
142,25 143,2914 144,227 145,24
152,136 153,40 154,261 155,1689
156,170 157,30 158,1026 159,104
168,38 171,148 172,20 185,13
##END=
