##TITLE=Isoamyl lactate
##JCAMP-DX=4.24
##DATA TYPE=MASS SPECTRUM
##ORIGIN=Japan AIST/NIMC Database- Spectrum MS-NW-5733
##OWNER=NIST Mass Spectrometry Data Center
Collection (C) 2014 copyright by the U.S. Secretary of Commerce
on behalf of the United States of America. All rights reserved.
##CAS REGISTRY NO=19329-89-6
##$NIST MASS SPEC NO=234783
##MOLFORM=C8 H16 O3
##MW=160
##$NIST SOURCE=MSDC
##XUNITS=M/Z
##YUNITS=RELATIVE INTENSITY
##XFACTOR=1
##YFACTOR=1
##FIRSTX=14
##LASTX=145
##FIRSTY=40
##MAXX=145
##MINX=14
##MAXY=9999
##MINY=10
##NPOINTS=67
##PEAK TABLE=(XY..XY)
14,40 15,299 16,10 17,30
18,109 25,10 26,119 27,1269
28,319 29,1209 30,50 31,389
32,50 37,20 38,30 39,569
40,99 41,1889 42,1059 43,6779
44,299 45,9999 46,299 47,30
50,20 51,30 52,10 53,99
54,60 55,2539 56,429 57,509
58,40 59,239 60,20 61,50
63,109 67,20 68,20 69,349
70,3469 71,2499 72,159 73,129
74,139 75,349 76,20 85,20
86,10 87,179 88,30 89,209
90,50 91,189 99,60 100,10
101,10 102,20 103,10 104,10
115,159 116,20 117,40 118,10
135,10 144,20 145,40
##END=
