##TITLE=Cyclobutane, 1,2-diethyl-, trans-
##JCAMP-DX=4.24
##DATA TYPE=MASS SPECTRUM
##ORIGIN=D.HENNEBERG, MAX-PLANCK INSTITUTE, MULHEIM, WEST GERMANY
##OWNER=NIST Mass Spectrometry Data Center
Collection (C) 2014 copyright by the U.S. Secretary of Commerce
on behalf of the United States of America. All rights reserved.
##CAS REGISTRY NO=19341-98-1
##$NIST MASS SPEC NO=60559
##MOLFORM=C8 H16
##MW=112
##$NIST SOURCE=MSDC
##XUNITS=M/Z
##YUNITS=RELATIVE INTENSITY
##XFACTOR=1
##YFACTOR=1
##FIRSTX=27
##LASTX=113
##FIRSTY=3003
##MAXX=113
##MINX=27
##MAXY=9999
##MINY=10
##NPOINTS=39
##PEAK TABLE=(XY..XY)
27,3003 28,1721 29,2232 30,10
38,40 39,2652 40,410 41,9869
42,3523 43,1301 44,290 50,40
51,140 52,30 53,570 54,600
55,6486 56,9999 57,2032 58,20
63,20 65,20 66,10 67,320
68,130 69,1911 70,2472 71,280
77,20 78,20 79,20 81,668
82,170 83,1551 84,2012 85,70
97,20 112,170 113,20
##END=
