##TITLE=6-Chlorohexanoyl chloride
##JCAMP-DX=4.24
##DATA TYPE=MASS SPECTRUM
##ORIGIN=NIST Mass Spectrometry Data Center, 1994
##OWNER=NIST Mass Spectrometry Data Center
Collection (C) 2014 copyright by the U.S. Secretary of Commerce
on behalf of the United States of America. All rights reserved.
##CAS REGISTRY NO=19347-73-0
##$NIST MASS SPEC NO=136723
##MOLFORM=C6 H10 Cl2 O
##MW=168
##$NIST SOURCE=MSDC
##XUNITS=M/Z
##YUNITS=RELATIVE INTENSITY
##XFACTOR=1
##YFACTOR=1
##FIRSTX=12
##LASTX=136
##FIRSTY=27
##MAXX=136
##MINX=12
##MAXY=9999
##MINY=27
##NPOINTS=73
##PEAK TABLE=(XY..XY)
12,27 13,83 14,188 15,409
18,46 25,85 26,991 27,6011
28,1452 29,1152 30,73 33,55
34,52 35,246 36,560 37,293
38,784 39,5079 40,815 41,9797
42,4109 43,2274 44,76 47,73
48,283 49,1303 50,308 51,828
52,130 53,941 54,1150 55,9999
56,823 57,118 60,725 61,178
62,254 63,1794 64,120 65,627
66,58 67,725 68,2223 69,6697
70,510 71,43 73,144 75,261
76,140 77,310 78,3620 79,397
80,1122 81,151 83,52 87,53
88,357 89,99 90,311 91,1324
92,139 93,458 96,274 97,1376
98,98 104,858 105,304 106,289
107,76 133,2962 134,293 135,983
136,86
##END=
