##TITLE=4-Dimethylaminobenzhydrazide
##JCAMP-DX=4.24
##DATA TYPE=MASS SPECTRUM
##ORIGIN=NIST Mass Spectrometry Data Center, 1994
##OWNER=NIST Mass Spectrometry Data Center
Collection (C) 2014 copyright by the U.S. Secretary of Commerce
on behalf of the United States of America. All rights reserved.
##CAS REGISTRY NO=19353-92-5
##$NIST MASS SPEC NO=134796
##MOLFORM=C9 H13 N3 O
##MW=179
##$NIST SOURCE=MSDC
##XUNITS=M/Z
##YUNITS=RELATIVE INTENSITY
##XFACTOR=1
##YFACTOR=1
##FIRSTX=15
##LASTX=180
##FIRSTY=126
##MAXX=180
##MINX=15
##MAXY=9999
##MINY=32
##NPOINTS=68
##PEAK TABLE=(XY..XY)
15,126 16,35 27,66 28,73
29,89 30,66 31,264 38,53
39,170 40,41 41,41 42,1192
43,72 44,132 50,275 51,286
52,118 53,64 59,49 60,65
62,59 63,270 64,147 65,224
66,64 67,57 68,106 69,54
74,184 75,176 76,281 77,1018
78,454 79,623 80,124 81,37
89,71 90,160 91,570 92,228
93,197 94,70 102,84 103,190
104,643 105,756 106,102 117,99
118,383 119,391 120,451 121,55
129,37 130,32 132,199 133,41
135,53 145,158 146,196 148,9999
149,1062 150,83 161,43 163,283
164,809 165,116 179,1353 180,175
##END=
