##TITLE=2,2-Dimethylthiazolidine
##JCAMP-DX=4.24
##DATA TYPE=MASS SPECTRUM
##ORIGIN=NIST Mass Spectrometry Data Center, 1994
##OWNER=NIST Mass Spectrometry Data Center
Collection (C) 2014 copyright by the U.S. Secretary of Commerce
on behalf of the United States of America. All rights reserved.
##CAS REGISTRY NO=19351-18-9
##$NIST MASS SPEC NO=135372
##MOLFORM=C5 H11 N S
##MW=117
##$NIST SOURCE=MSDC
##XUNITS=M/Z
##YUNITS=RELATIVE INTENSITY
##XFACTOR=1
##YFACTOR=1
##FIRSTX=13
##LASTX=119
##FIRSTY=63
##MAXX=119
##MINX=13
##MAXY=9999
##MINY=40
##NPOINTS=70
##PEAK TABLE=(XY..XY)
13,63 14,339 15,2175 16,57
17,49 18,549 26,707 27,2436
28,3150 29,454 30,4377 32,236
33,201 34,163 35,368 36,47
37,204 38,431 39,3052 40,830
41,3761 42,9999 43,724 44,1387
45,1819 46,1238 47,566 48,156
49,96 50,72 51,118 52,179
53,81 54,545 55,635 56,1910
57,743 58,6768 59,2657 60,999
61,2235 62,132 63,112 65,48
67,120 68,403 70,7146 71,4134
72,268 73,241 74,275 75,61
76,40 80,43 82,136 84,877
85,103 86,94 87,67 88,244
89,60 99,169 100,138 102,5218
103,303 104,260 115,260 117,4424
118,318 119,209
##END=
