##TITLE=Iron, tricarbonylbis(hexamethylphosphorous triamide-P)-
##JCAMP-DX=4.24
##DATA TYPE=MASS SPECTRUM
##ORIGIN=R.B.KING DEPT. CHEM., UNIV. OF GEORGIA, ATHENS, GEORGIA, USA
##OWNER=NIST Mass Spectrometry Data Center
Collection (C) 2014 copyright by the U.S. Secretary of Commerce
on behalf of the United States of America. All rights reserved.
##CAS REGISTRY NO=19372-46-4
##$NIST MASS SPEC NO=58291
##MOLFORM=C15 H36 Fe N6 O3 P2
##MW=466
##$NIST SOURCE=MSDC
##XUNITS=M/Z
##YUNITS=RELATIVE INTENSITY
##XFACTOR=1
##YFACTOR=1
##FIRSTX=60
##LASTX=466
##FIRSTY=269
##MAXX=466
##MINX=60
##MAXY=9999
##MINY=161
##NPOINTS=26
##PEAK TABLE=(XY..XY)
60,269 76,2581 100,538 119,4839
132,215 142,1075 143,645 163,484
174,215 175,269 176,1075 219,2151
247,161 251,161 252,215 263,1129
294,161 295,269 296,430 339,1505
366,161 382,9999 410,1075 422,430
438,215 466,4301
##END=
