##TITLE=1,2-Ethanediol, 1-(2-furanyl)-
##JCAMP-DX=4.24
##DATA TYPE=MASS SPECTRUM
##ORIGIN=R.C. DOUGHERTY
##OWNER=NIST Mass Spectrometry Data Center
Collection (C) 2014 copyright by the U.S. Secretary of Commerce
on behalf of the United States of America. All rights reserved.
##CAS REGISTRY NO=19377-75-4
##$NIST MASS SPEC NO=36914
##MOLFORM=C6 H8 O3
##MW=128
##$NIST SOURCE=MSDC
##XUNITS=M/Z
##YUNITS=RELATIVE INTENSITY
##XFACTOR=1
##YFACTOR=1
##FIRSTX=28
##LASTX=129
##FIRSTY=2702
##MAXX=129
##MINX=28
##MAXY=9999
##MINY=300
##NPOINTS=24
##PEAK TABLE=(XY..XY)
28,2702 29,1952 31,1401 38,801
39,3904 40,601 41,6606 42,500
43,701 50,400 51,1001 52,500
53,1301 55,500 69,1201 81,1601
94,801 95,1601 96,601 97,9999
98,1501 110,601 128,4204 129,300
##END=
