##TITLE=11-Octadecenoic acid, methyl ester, (Z)-
##JCAMP-DX=4.24
##DATA TYPE=MASS SPECTRUM
##ORIGIN=R.T.HOLMAN,UNIVERSITY OF MINNESOTA
##OWNER=NIST Mass Spectrometry Data Center
Collection (C) 2014 copyright by the U.S. Secretary of Commerce
on behalf of the United States of America. All rights reserved.
##CAS REGISTRY NO=1937-63-9
##$NIST MASS SPEC NO=36214
##MOLFORM=C19 H36 O2
##MW=296
##$NIST SOURCE=MSDC
##XUNITS=M/Z
##YUNITS=RELATIVE INTENSITY
##XFACTOR=1
##YFACTOR=1
##FIRSTX=26
##LASTX=299
##FIRSTY=60
##MAXX=299
##MINX=26
##MAXY=9999
##MINY=10
##NPOINTS=233
##PEAK TABLE=(XY..XY)
26,60 27,1200 28,900 29,2900
30,80 31,130 32,120 33,30
36,30 37,20 38,20 39,1000
40,230 41,7500 42,1500 43,5400
44,240 45,280 46,10 49,10
50,20 51,50 52,60 53,740
54,2200 55,9999 56,2400 57,2400
58,130 59,1800 60,80 61,30
62,20 63,20 64,10 65,160
66,170 67,2800 68,1800 69,7000
70,1700 71,920 72,100 73,460
74,5800 75,850 76,60 77,180
78,70 79,520 80,340 81,2400
82,1700 83,4600 84,3500 85,800
86,70 87,4000 88,370 89,40
90,10 91,160 92,50 93,300
94,370 95,1900 96,3200 97,3700
98,2700 99,380 100,90 101,610
102,80 103,20 104,20 105,90
106,50 107,250 108,260 109,1100
110,1700 111,1800 112,600 113,280
114,400 115,650 116,110 117,30
118,20 119,210 120,80 121,320
122,150 123,1100 124,900 125,1000
126,210 127,270 128,450 129,470
130,140 131,30 132,20 133,200
134,180 135,320 136,120 137,700
138,730 139,650 140,120 141,520
142,140 143,430 144,70 145,30
146,20 147,160 148,140 149,220
150,100 151,460 152,550 153,380
154,70 155,150 156,50 157,170
158,40 159,20 160,10 161,130
162,60 163,140 164,100 165,300
166,430 167,230 168,60 169,210
170,40 171,130 172,40 173,20
174,10 175,110 176,40 177,70
178,50 179,190 180,900 181,260
182,60 183,120 184,30 185,110
186,40 187,20 189,60 190,20
191,30 192,20 193,140 194,190
195,80 196,30 197,40 198,20
199,110 200,60 201,20 203,30
204,20 205,30 206,30 207,140
208,120 209,60 210,30 211,30
212,10 213,90 214,50 215,20
216,10 217,30 218,20 219,10
220,340 221,260 222,1300 223,260
224,30 225,20 226,10 227,40
228,40 229,20 231,10 233,10
235,180 236,180 237,40 238,10
239,20 240,10 241,20 242,10
245,20 246,140 247,70 248,20
249,30 250,10 253,80 254,20
255,30 256,10 262,20 263,50
264,2800 265,1600 266,260 267,60
268,10 278,30 279,10 294,20
295,10 296,524 297,110 298,50
299,20
##END=
