##TITLE=2H,8H-Benzo[1,2-b:3,4-b']dipyran-2-one, 9,10-dihydro-9-hydroxy-8,8-dimethyl-, (R)-
##JCAMP-DX=4.24
##DATA TYPE=MASS SPECTRUM
##OWNER=NIST Mass Spectrometry Data Center
Collection (C) 2014 copyright by the U.S. Secretary of Commerce
on behalf of the United States of America. All rights reserved.
##CAS REGISTRY NO=19380-05-3
##$NIST MASS SPEC NO=11927
##MOLFORM=C14 H14 O4
##MW=246
##$NIST SOURCE=MSDC
##XUNITS=M/Z
##YUNITS=RELATIVE INTENSITY
##XFACTOR=1
##YFACTOR=1
##FIRSTX=76
##LASTX=247
##FIRSTY=400
##MAXX=247
##MINX=76
##MAXY=9999
##MINY=80
##NPOINTS=28
##PEAK TABLE=(XY..XY)
76,400 77,1280 78,400 89,680
90,680 91,1720 92,400 102,400
103,400 118,520 119,480 131,920
133,360 146,760 147,1200 148,800
159,320 160,440 175,6879 176,9999
177,1200 187,800 188,1160 203,400
213,1080 228,80 246,3600 247,560
##END=
