##TITLE=3'-Trifluoromethylisobutyranilide
##JCAMP-DX=4.24
##DATA TYPE=MASS SPECTRUM
##ORIGIN=NIST Mass Spectrometry Data Center, 1994
##OWNER=NIST Mass Spectrometry Data Center
Collection (C) 2014 copyright by the U.S. Secretary of Commerce
on behalf of the United States of America. All rights reserved.
##CAS REGISTRY NO=1939-27-1
##$NIST MASS SPEC NO=135647
##MOLFORM=C11 H12 F3 N O
##MW=231
##$NIST SOURCE=MSDC
##XUNITS=M/Z
##YUNITS=RELATIVE INTENSITY
##XFACTOR=1
##YFACTOR=1
##FIRSTX=14
##LASTX=233
##FIRSTY=19
##MAXX=233
##MINX=14
##MAXY=9999
##MINY=2
##NPOINTS=129
##PEAK TABLE=(XY..XY)
14,19 15,260 16,8 18,38
20,20 26,121 27,1915 28,421
30,10 32,2 33,8 37,67
38,252 39,1194 40,217 41,2344
42,699 43,9999 44,362 46,18
50,174 51,136 52,100 53,45
54,36 55,249 56,57 57,160
58,10 61,29 62,125 63,504
64,294 65,200 66,32 67,11
69,287 70,850 71,2144 72,102
73,15 74,21 75,326 76,80
77,38 78,11 80,13 81,38
82,32 83,267 84,43 85,14
87,32 88,166 89,45 90,99
91,196 92,45 93,48 94,45
95,255 96,39 99,51 100,40
101,23 102,31 104,11 106,13
107,32 108,19 109,68 111,234
112,64 113,438 114,571 115,69
116,8 117,16 118,28 119,63
120,165 121,35 122,27 125,144
126,40 127,41 128,13 130,7
132,96 133,198 134,52 137,19
138,16 139,86 140,409 141,137
142,286 143,44 144,7 145,613
146,66 147,7 148,15 151,7
152,10 158,20 161,5761 162,499
163,21 166,14 168,39 169,9
170,7 172,33 173,12 174,28
187,129 188,377 189,37 196,12
202,55 212,485 213,68 214,27
215,11 216,21 231,881 232,110
233,7
##END=
