##TITLE=Pentane, 2,4-dibromo-
##JCAMP-DX=4.24
##DATA TYPE=MASS SPECTRUM
##ORIGIN=Japan AIST/NIMC Database- Spectrum MS-NW-2963
##OWNER=NIST Mass Spectrometry Data Center
Collection (C) 2014 copyright by the U.S. Secretary of Commerce
on behalf of the United States of America. All rights reserved.
##CAS REGISTRY NO=19398-53-9
##$NIST MASS SPEC NO=231218
##MOLFORM=C5 H10 Br2
##MW=228
##$NIST SOURCE=MSDC
##XUNITS=M/Z
##YUNITS=RELATIVE INTENSITY
##XFACTOR=1
##YFACTOR=1
##FIRSTX=14
##LASTX=232
##FIRSTY=10
##MAXX=232
##MINX=14
##MAXY=9999
##MINY=10
##NPOINTS=63
##PEAK TABLE=(XY..XY)
14,10 15,80 25,10 26,139
27,1549 28,40 29,699 30,20
36,10 37,40 38,90 39,1009
40,199 41,5919 42,579 43,789
44,20 45,10 50,40 51,70
52,30 53,559 54,70 55,339
56,10 57,10 61,10 62,10
63,20 65,40 66,20 67,269
68,119 69,9999 70,559 71,20
79,60 80,139 81,60 82,139
93,20 95,20 105,10 106,10
107,669 108,20 109,639 110,10
113,10 119,10 121,109 122,10
123,99 133,70 135,60 148,50
149,2209 150,169 151,2179 152,119
228,60 230,109 232,50
##END=
