##TITLE=3'-Trifluoromethyl-o-toluanilide
##JCAMP-DX=4.24
##DATA TYPE=MASS SPECTRUM
##ORIGIN=NIST Mass Spectrometry Data Center, 1994
##OWNER=NIST Mass Spectrometry Data Center
Collection (C) 2014 copyright by the U.S. Secretary of Commerce
on behalf of the United States of America. All rights reserved.
##CAS REGISTRY NO=1939-22-6
##$NIST MASS SPEC NO=135815
##MOLFORM=C15 H12 F3 N O
##MW=279
##$NIST SOURCE=MSDC
##XUNITS=M/Z
##YUNITS=RELATIVE INTENSITY
##XFACTOR=1
##YFACTOR=1
##FIRSTX=18
##LASTX=281
##FIRSTY=25
##MAXX=281
##MINX=18
##MAXY=9999
##MINY=2
##NPOINTS=109
##PEAK TABLE=(XY..XY)
18,25 26,2 27,2 28,67
37,34 38,187 39,1073 40,116
41,240 42,7 44,11 45,18
50,222 51,412 52,131 53,58
54,12 57,105 61,36 62,231
63,859 64,389 65,2426 66,145
67,9 69,130 70,13 74,25
75,188 76,78 77,113 78,22
79,11 81,37 83,194 84,18
85,8 86,28 87,43 88,98
89,670 90,8 91,5482 92,436
93,25 94,15 95,97 96,15
99,29 100,24 101,17 102,18
103,8 104,26 105,35 106,11
107,22 108,13 109,25 110,9
111,15 113,284 114,172 115,28
116,29 119,9999 120,992 121,72
122,9 125,52 126,13 127,17
128,10 129,9 132,64 133,144
134,15 139,39 140,169 141,26
142,15 145,116 146,15 151,11
152,17 153,9 159,18 160,144
161,35 165,18 166,11 168,71
169,9 178,7 180,38 181,12
201,7 208,10 210,22 235,14
248,18 250,9 258,9 260,253
261,46 262,27 279,1041 280,187
281,17
##END=
