##TITLE=cis-4-Decene
##JCAMP-DX=4.24
##DATA TYPE=MASS SPECTRUM
##ORIGIN=NIST Mass Spectrometry Data Center, 1990.
##OWNER=NIST Mass Spectrometry Data Center
Collection (C) 2014 copyright by the U.S. Secretary of Commerce
on behalf of the United States of America. All rights reserved.
##CAS REGISTRY NO=19398-88-0
##$NIST MASS SPEC NO=113560
##MOLFORM=C10 H20
##MW=140
##$NIST SOURCE=MSDC
##XUNITS=M/Z
##YUNITS=RELATIVE INTENSITY
##XFACTOR=1
##YFACTOR=1
##FIRSTX=15
##LASTX=141
##FIRSTY=93
##MAXX=141
##MINX=15
##MAXY=9999
##MINY=93
##NPOINTS=39
##PEAK TABLE=(XY..XY)
15,93 26,223 27,2557 28,841
29,2759 39,2819 41,7324 42,1897
43,2030 44,130 50,103 51,327
52,193 53,1074 54,1841 55,9999
56,4984 57,1325 65,331 66,171
67,1350 68,683 69,5801 70,3947
71,585 77,244 79,244 81,261
82,407 83,1530 84,1211 85,292
96,169 97,1198 98,396 111,406
112,217 140,2115 141,232
##END=
