##TITLE=2,2,2-Trichloro-3'-(trifluoromethyl)acetanilide
##JCAMP-DX=4.24
##DATA TYPE=MASS SPECTRUM
##ORIGIN=NIST Mass Spectrometry Data Center, 1994
##OWNER=NIST Mass Spectrometry Data Center
Collection (C) 2014 copyright by the U.S. Secretary of Commerce
on behalf of the United States of America. All rights reserved.
##CAS REGISTRY NO=1939-29-3
##$NIST MASS SPEC NO=135919
##MOLFORM=C9 H5 Cl3 F3 N O
##MW=305
##$NIST SOURCE=MSDC
##XUNITS=M/Z
##YUNITS=RELATIVE INTENSITY
##XFACTOR=1
##YFACTOR=1
##FIRSTX=12
##LASTX=311
##FIRSTY=37
##MAXX=311
##MINX=12
##MAXY=9999
##MINY=3
##NPOINTS=155
##PEAK TABLE=(XY..XY)
12,37 13,32 18,59 20,20
26,17 28,75 35,289 36,177
37,275 38,620 39,553 40,170
41,89 44,8 46,40 47,815
48,121 49,315 50,579 51,378
52,251 53,27 54,30 56,63
57,381 58,25 60,25 61,149
62,517 63,1354 64,706 65,264
66,27 69,550 70,66 73,48
74,146 75,921 76,298 77,74
78,34 79,16 80,30 82,947
83,1061 84,627 85,376 86,121
87,171 88,321 89,86 90,209
91,363 92,50 93,81 94,115
95,718 96,78 99,151 100,97
101,57 102,67 103,18 106,35
107,78 108,54 109,231 110,576
111,18 112,490 113,909 114,612
115,43 116,18 117,578 118,18
119,639 120,352 121,276 122,18
123,31 124,18 125,410 126,153
127,33 131,25 132,253 133,338
134,24 137,58 138,58 139,244
140,947 141,164 142,32 143,59
144,24 145,3917 146,360 147,13
151,17 152,89 158,47 160,4068
161,439 162,39 166,68 168,199
170,84 171,35 172,182 173,27
179,25 181,26 184,25 186,121
188,9999 189,899 190,54 199,16
200,104 201,47 206,277 207,36
208,120 215,42 222,57 224,39
227,25 229,20 234,720 235,89
236,255 237,30 242,167 243,23
244,124 252,25 270,241 271,100
272,190 273,74 274,36 286,314
287,37 288,287 289,36 290,90
305,916 306,96 307,903 308,94
309,302 310,30 311,3
##END=
