##TITLE=3'-Trifluoromethyl-2-phenylacetanilide
##JCAMP-DX=4.24
##DATA TYPE=MASS SPECTRUM
##ORIGIN=NIST Mass Spectrometry Data Center, 1994
##OWNER=NIST Mass Spectrometry Data Center
Collection (C) 2014 copyright by the U.S. Secretary of Commerce
on behalf of the United States of America. All rights reserved.
##CAS REGISTRY NO=1939-21-5
##$NIST MASS SPEC NO=135681
##MOLFORM=C15 H12 F3 N O
##MW=279
##$NIST SOURCE=MSDC
##XUNITS=M/Z
##YUNITS=RELATIVE INTENSITY
##XFACTOR=1
##YFACTOR=1
##FIRSTX=14
##LASTX=281
##FIRSTY=2
##MAXX=281
##MINX=14
##MAXY=9999
##MINY=1
##NPOINTS=126
##PEAK TABLE=(XY..XY)
14,2 17,7 18,10 20,27
26,9 27,56 28,93 32,1
33,8 37,63 38,300 39,1434
40,155 41,317 42,24 44,13
46,50 50,318 51,643 52,202
53,45 54,13 56,12 57,121
60,9 61,59 62,265 63,1079
64,494 65,2631 66,152 67,9
68,12 69,149 70,18 74,6
75,279 76,93 77,104 78,37
79,15 80,11 81,37 83,214
84,21 85,9 86,28 87,51
88,133 89,827 90,1422 91,9999
92,2090 93,144 94,37 95,219
96,22 99,37 100,26 101,21
102,21 104,13 105,11 106,15
107,34 108,18 109,55 110,13
111,61 112,39 113,387 114,308
115,48 116,22 117,11 118,5787
119,505 120,169 121,18 122,13
125,131 126,46 127,18 131,11
132,93 133,187 134,25 137,12
138,12 139,73 140,356 141,83
142,129 143,25 144,11 145,643
146,57 152,13 158,14 160,679
161,2073 162,167 165,12 168,37
172,42 174,28 175,5 179,5
180,21 181,12 183,11 187,102
188,205 189,17 200,14 201,9
210,9 235,7 248,14 250,25
258,8 260,305 261,64 279,1446
280,245 281,23
##END=
