##TITLE=Dihydrocapsaicin
##JCAMP-DX=4.24
##DATA TYPE=MASS SPECTRUM
##ORIGIN=NIST Mass Spectrometry Data Center
##OWNER=NIST Mass Spectrometry Data Center
Collection (C) 2014 copyright by the U.S. Secretary of Commerce
on behalf of the United States of America. All rights reserved.
##CAS REGISTRY NO=19408-84-5
##$NIST MASS SPEC NO=353105
##MOLFORM=C18 H29 N O3
##MW=307
##$NIST SOURCE=MSDC
##XUNITS=M/Z
##YUNITS=RELATIVE INTENSITY
##XFACTOR=1
##YFACTOR=1
##FIRSTX=15
##LASTX=309
##FIRSTY=20
##MAXX=309
##MINX=15
##MAXY=9999
##MINY=10
##NPOINTS=165
##PEAK TABLE=(XY..XY)
15,20 17,10 18,40 20,10
26,20 27,200 28,150 29,300
30,80 31,20 37,10 38,10
39,240 40,40 41,881 42,160
43,1331 44,120 45,70 46,10
50,30 51,110 52,80 53,130
54,70 55,490 56,120 57,300
58,30 59,150 60,10 62,10
63,40 64,30 65,210 66,120
67,100 68,40 69,260 70,40
71,140 72,100 73,40 74,10
75,10 76,10 77,160 78,90
79,90 80,90 81,130 82,100
83,90 84,60 85,70 86,50
87,10 89,20 90,30 91,90
92,50 93,190 94,390 95,110
96,50 97,60 98,30 99,10
100,50 101,10 103,10 104,30
105,140 106,100 107,210 108,90
109,160 110,340 111,60 112,20
114,40 115,10 116,10 117,10
118,30 119,110 120,60 121,100
122,851 123,130 124,160 125,140
126,20 127,20 128,70 131,40
132,20 133,30 134,60 135,150
136,520 137,9999 138,1411 139,130
140,30 142,10 144,10 145,10
146,10 147,30 148,30 149,20
150,290 151,1171 152,1141 153,310
154,50 155,20 156,30 160,10
161,10 162,50 163,40 164,80
165,20 168,20 169,10 170,30
171,10 172,10 175,10 176,10
177,20 178,160 179,40 180,40
181,10 184,10 189,10 190,20
192,20 193,10 194,150 195,741
196,90 197,10 206,10 207,10
208,80 209,30 220,10 222,10
223,10 234,10 248,10 250,10
251,10 264,20 265,10 290,10
292,10 306,10 307,1001 308,210
309,40
##END=
