##TITLE=9H-Fluorene, 9-bromo-
##JCAMP-DX=4.24
##DATA TYPE=MASS SPECTRUM
##ORIGIN=Japan AIST/NIMC Database- Spectrum MS-NW-4252
##OWNER=NIST Mass Spectrometry Data Center
Collection (C) 2014 copyright by the U.S. Secretary of Commerce
on behalf of the United States of America. All rights reserved.
##CAS REGISTRY NO=1940-57-4
##$NIST MASS SPEC NO=232082
##MOLFORM=C13 H9 Br
##MW=244
##$NIST SOURCE=MSDC
##XUNITS=M/Z
##YUNITS=RELATIVE INTENSITY
##XFACTOR=1
##YFACTOR=1
##FIRSTX=26
##LASTX=247
##FIRSTY=10
##MAXX=247
##MINX=26
##MAXY=9999
##MINY=10
##NPOINTS=69
##PEAK TABLE=(XY..XY)
26,10 27,10 37,10 38,10
39,60 50,60 51,40 52,10
55,10 56,10 61,20 62,70
63,129 64,10 65,20 67,10
68,20 69,209 70,20 74,70
75,50 76,30 77,10 79,10
80,40 81,179 82,569 83,90
85,20 86,70 87,80 88,30
89,60 91,10 98,30 99,20
100,10 102,10 104,10 109,10
110,20 111,30 112,10 113,60
114,20 115,169 116,20 122,20
123,20 126,30 137,60 138,50
139,279 140,30 150,10 157,20
158,30 161,30 162,90 163,819
164,649 165,9999 166,1719 167,139
243,10 244,249 245,40 246,249
247,30
##END=
