##TITLE=Phenol, 4-bromo-2,5-dichloro-
##JCAMP-DX=4.24
##DATA TYPE=MASS SPECTRUM
##ORIGIN=J. SHAW, BORRISTON RESEARCH, ROCKVILLE, MD, USA
##OWNER=NIST Mass Spectrometry Data Center
Collection (C) 2014 copyright by the U.S. Secretary of Commerce
on behalf of the United States of America. All rights reserved.
##CAS REGISTRY NO=1940-42-7
##$NIST MASS SPEC NO=60307
##MOLFORM=C6 H3 Br Cl2 O
##MW=240
##$NIST SOURCE=MSDC
##XUNITS=M/Z
##YUNITS=RELATIVE INTENSITY
##XFACTOR=1
##YFACTOR=1
##FIRSTX=12
##LASTX=247
##FIRSTY=330
##MAXX=247
##MINX=12
##MAXY=9999
##MINY=10
##NPOINTS=140
##PEAK TABLE=(XY..XY)
12,330 13,190 14,280 15,50
16,150 17,960 18,2772 19,60
24,250 25,930 26,710 29,5095
31,500 35,1921 36,2342 37,5615
38,1871 39,350 40,70 41,240
42,210 43,60 45,300 47,1521
48,1981 49,3013 50,1821 51,390
53,4484 54,210 55,60 56,10
57,20 60,3563 61,9129 62,9999
63,5165 64,410 65,270 66,830
67,310 71,830 72,1871 73,3003
74,1481 75,650 76,210 77,200
79,1861 81,2492 82,360 83,560
84,600 85,450 86,210 87,580
88,280 89,710 90,620 91,400
93,150 95,350 96,1301 97,9769
98,1141 99,3133 100,280 102,190
103,190 104,110 105,30 106,120
107,500 108,270 109,430 110,80
111,90 114,70 116,410 117,210
118,290 119,140 120,300 121,440
122,210 123,40 124,60 125,350
126,340 127,220 128,170 129,160
130,50 131,200 132,230 133,2492
135,1721 136,90 137,240 138,30
139,20 140,90 141,310 142,70
143,290 144,40 145,10 146,20
149,10 150,20 151,190 152,40
153,230 155,70 160,300 161,260
162,220 163,170 164,60 165,30
169,10 171,10 187,10 204,110
205,40 206,140 207,50 208,30
209,10 211,130 213,220 215,100
217,10 240,2552 242,4144 243,280
244,1721 245,110 246,230 247,10
##END=
