##TITLE=1,5-Cyclododecadiene, (E,Z)-
##JCAMP-DX=4.24
##DATA TYPE=MASS SPECTRUM
##ORIGIN=D.HENNEBERG, MAX-PLANCK INSTITUTE, MULHEIM, WEST GERMANY
##OWNER=NIST Mass Spectrometry Data Center
Collection (C) 2014 copyright by the U.S. Secretary of Commerce
on behalf of the United States of America. All rights reserved.
##CAS REGISTRY NO=19428-99-0
##$NIST MASS SPEC NO=61498
##MOLFORM=C12 H20
##MW=164
##$NIST SOURCE=MSDC
##XUNITS=M/Z
##YUNITS=RELATIVE INTENSITY
##XFACTOR=1
##YFACTOR=1
##FIRSTX=25
##LASTX=165
##FIRSTY=18
##MAXX=165
##MINX=25
##MAXY=9999
##MINY=2
##NPOINTS=82
##PEAK TABLE=(XY..XY)
25,18 26,70 27,1543 28,248
29,1205 30,20 35,15 37,60
38,64 39,3217 40,512 41,6203
42,409 43,423 46,7 50,93
51,357 52,269 53,1790 54,8904
55,4453 56,335 57,91 60,3
62,13 63,122 64,50 65,706
66,925 67,9999 68,4048 69,1250
70,63 71,26 74,44 75,56
76,23 77,827 78,556 79,3877
80,4024 81,6898 82,3067 83,761
84,42 89,38 90,14 91,525
92,147 93,2533 94,2440 95,2367
96,1054 97,346 98,21 103,16
104,6 105,75 106,40 107,1723
108,954 109,827 110,388 111,40
113,2 117,5 119,10 120,77
121,3929 122,963 123,285 124,16
133,5 134,15 135,1428 136,996
137,94 149,288 150,25 163,4
164,599 165,68
##END=
