##TITLE=4a.alpha.,4b.beta.-Gibbane-1.alpha.,10.beta.-dicarboxylic acid, 4a-formyl-1-methyl-8-methylene-, dimethyl ester
##JCAMP-DX=4.24
##DATA TYPE=MASS SPECTRUM
##ORIGIN=J.MACMILLAN UNIVERSITY OF BRISTOL, UK
##OWNER=NIST Mass Spectrometry Data Center
Collection (C) 2014 copyright by the U.S. Secretary of Commerce
on behalf of the United States of America. All rights reserved.
##CAS REGISTRY NO=19427-33-9
##$NIST MASS SPEC NO=16516
##MOLFORM=C22 H30 O5
##MW=374
##$NIST SOURCE=MSDC
##XUNITS=M/Z
##YUNITS=RELATIVE INTENSITY
##XFACTOR=1
##YFACTOR=1
##FIRSTX=40
##LASTX=375
##FIRSTY=200
##MAXX=375
##MINX=40
##MAXY=9999
##MINY=200
##NPOINTS=206
##PEAK TABLE=(XY..XY)
40,200 41,4000 42,400 43,800
44,1800 45,400 50,300 51,300
52,200 53,1200 54,300 55,2400
56,300 57,500 59,1500 65,800
66,200 67,1500 68,200 69,900
71,300 73,400 74,200 77,2000
78,700 79,2500 80,400 81,1700
82,500 83,300 85,300 91,4400
92,1000 93,2100 94,900 95,1400
96,200 97,300 98,200 99,500
101,1000 102,200 103,700 104,800
105,2900 106,700 107,900 108,300
109,400 111,200 113,400 114,200
115,1500 116,700 117,1900 118,1100
119,2900 120,1400 121,1800 122,500
123,300 124,200 127,500 128,1500
129,2700 130,900 131,2000 132,900
133,2100 134,2900 135,1000 136,200
137,200 141,1300 142,900 143,1500
144,900 145,1800 146,2100 147,1900
148,300 149,2400 150,400 151,1000
152,800 153,700 154,400 155,1500
156,700 157,700 158,1400 159,900
160,2000 161,400 162,200 163,200
164,300 165,900 166,500 167,900
168,400 169,1100 170,500 171,1700
172,700 173,700 174,200 175,200
176,200 177,200 178,1700 179,600
180,200 181,600 182,300 183,1800
184,700 185,1400 186,600 187,400
188,200 189,400 190,300 191,1000
192,300 193,200 194,300 195,400
196,200 197,1400 198,800 199,800
200,300 201,300 202,200 203,300
205,200 207,200 209,500 211,1200
212,400 213,400 214,200 215,200
216,400 217,1200 218,700 219,200
220,200 221,200 223,300 224,200
225,7800 226,8700 227,7000 228,1200
229,300 230,600 231,500 232,200
237,1000 238,300 239,500 240,200
241,200 243,1200 244,400 245,400
253,800 254,1600 255,1900 256,400
257,600 258,400 259,200 264,200
265,200 268,200 271,600 282,3500
283,2700 284,900 285,6400 286,7700
287,2200 288,300 296,800 297,500
298,800 299,300 300,200 310,1600
311,600 312,200 313,200 314,9999
315,2700 316,400 325,400 342,4300
343,1300 344,200 346,1300 347,400
374,400 375,200
##END=
