##TITLE=Hexanenitrile, 5-methyl-
##JCAMP-DX=4.24
##DATA TYPE=MASS SPECTRUM
##OWNER=NIST Mass Spectrometry Data Center
Collection (C) 2014 copyright by the U.S. Secretary of Commerce
on behalf of the United States of America. All rights reserved.
##CAS REGISTRY NO=19424-34-1
##$NIST MASS SPEC NO=32952
##MOLFORM=C7 H13 N
##MW=111
##$NIST SOURCE=MSDC
##XUNITS=M/Z
##YUNITS=RELATIVE INTENSITY
##XFACTOR=1
##YFACTOR=1
##FIRSTX=41
##LASTX=112
##FIRSTY=9999
##MAXX=112
##MINX=41
##MAXY=9999
##MINY=77
##NPOINTS=26
##PEAK TABLE=(XY..XY)
41,9999 42,1441 43,5353 44,180
50,129 51,180 52,167 53,373
54,811 55,3449 56,322 57,463
67,77 68,515 69,3706 70,232
71,193 79,193 82,180 83,1596
84,77 85,77 96,2342 97,180
110,193 112,90
##END=
