##TITLE=Methane, chlorotrinitro-
##JCAMP-DX=4.24
##DATA TYPE=MASS SPECTRUM
##ORIGIN=J.T.LARKINS U.S. DEPT. OF COMMERCE, WASHINGTON, D.C., USA
##OWNER=NIST Mass Spectrometry Data Center
Collection (C) 2014 copyright by the U.S. Secretary of Commerce
on behalf of the United States of America. All rights reserved.
##CAS REGISTRY NO=1943-16-4
##$NIST MASS SPEC NO=38927
##MOLFORM=C Cl N3 O6
##MW=185
##$NIST SOURCE=MSDC
##XUNITS=M/Z
##YUNITS=RELATIVE INTENSITY
##XFACTOR=1
##YFACTOR=1
##FIRSTX=30
##LASTX=150
##FIRSTY=130
##MAXX=150
##MINX=30
##MAXY=9999
##MINY=43
##NPOINTS=15
##PEAK TABLE=(XY..XY)
30,130 35,9999 37,3247 42,649
46,5238 51,87 53,43 61,43
63,43 93,2468 95,823 104,476
139,7576 141,2338 150,173
##END=
