##TITLE=2-Nonyne
##JCAMP-DX=4.24
##DATA TYPE=MASS SPECTRUM
##ORIGIN=NIST Mass Spectrometry Data Center, 1990.
##OWNER=NIST Mass Spectrometry Data Center
Collection (C) 2014 copyright by the U.S. Secretary of Commerce
on behalf of the United States of America. All rights reserved.
##CAS REGISTRY NO=19447-29-1
##$NIST MASS SPEC NO=113901
##MOLFORM=C9 H16
##MW=124
##$NIST SOURCE=MSDC
##XUNITS=M/Z
##YUNITS=RELATIVE INTENSITY
##XFACTOR=1
##YFACTOR=1
##FIRSTX=14
##LASTX=124
##FIRSTY=166
##MAXX=124
##MINX=14
##MAXY=9999
##MINY=53
##NPOINTS=50
##PEAK TABLE=(XY..XY)
14,166 15,87 16,88 26,323
27,3337 28,153 29,1769 37,80
38,358 39,4582 40,1010 41,5990
42,1242 43,3649 44,213 50,622
51,1355 52,913 53,3600 54,3346
55,3669 56,605 57,98 62,139
63,335 64,103 65,1117 66,759
67,7242 68,3619 69,1490 70,291
71,78 77,786 78,211 79,2015
80,525 81,3561 82,986 83,200
91,291 92,70 93,528 94,70
95,9999 96,1010 97,53 109,784
110,74 124,83
##END=
