##TITLE=Stigmastanol
##JCAMP-DX=4.24
##DATA TYPE=MASS SPECTRUM
##ORIGIN=NIST Mass Spectrometry Data Center
##OWNER=NIST Mass Spectrometry Data Center
Collection (C) 2014 copyright by the U.S. Secretary of Commerce
on behalf of the United States of America. All rights reserved.
##CAS REGISTRY NO=19466-47-8
##$NIST MASS SPEC NO=352391
##MOLFORM=C29 H52 O
##MW=416
##$NIST SOURCE=MSDC
##XUNITS=M/Z
##YUNITS=RELATIVE INTENSITY
##XFACTOR=1
##YFACTOR=1
##FIRSTX=15
##LASTX=419
##FIRSTY=40
##MAXX=419
##MINX=15
##MAXY=9999
##MINY=10
##NPOINTS=317
##PEAK TABLE=(XY..XY)
15,40 17,10 18,20 25,10
26,60 27,470 28,190 29,1011
30,50 31,100 32,10 33,10
36,10 37,30 38,40 39,500
40,140 41,4164 42,751 43,9999
44,420 45,170 46,10 47,10
49,10 50,30 51,70 52,40
53,661 54,270 55,6676 56,811
57,5745 58,380 59,210 60,10
61,10 62,10 63,30 64,10
65,310 66,180 67,4134 68,1311
69,4864 70,681 71,2222 72,150
73,140 74,30 75,60 76,10
77,1011 78,280 79,4284 80,861
81,6406 82,1351 83,2332 84,711
85,2172 86,160 87,80 88,30
89,70 91,3173 92,781 93,5395
94,1822 95,6566 96,901 97,2062
98,871 99,380 100,60 101,90
102,30 103,160 104,160 105,3133
106,1651 107,7166 108,5395 109,4154
110,811 111,1521 112,190 113,70
114,30 115,210 116,110 117,611
118,330 119,2542 120,1712 121,4564
122,2843 123,3063 124,1942 125,801
126,100 127,80 128,410 129,240
130,110 131,931 132,330 133,2572
134,1581 135,3183 136,1591 137,1191
138,711 139,230 140,40 141,90
142,110 143,180 144,120 145,1521
146,550 147,3533 148,1752 149,2672
150,500 151,561 152,120 153,70
154,60 155,50 156,30 157,130
158,90 159,1071 160,671 161,1882
162,861 163,1001 164,460 165,5445
166,2102 167,400 168,70 169,30
170,20 171,120 172,60 173,891
174,420 175,951 176,360 177,480
178,480 179,240 180,100 181,30
182,20 183,20 184,10 185,100
186,60 187,601 188,400 189,530
190,951 191,661 192,320 193,170
194,50 195,20 196,10 197,20
198,10 199,150 200,70 201,1181
202,320 203,350 204,180 205,250
206,360 207,80 208,10 209,10
211,10 212,10 213,70 214,50
215,7036 216,3003 217,2312 218,420
219,821 220,250 221,50 222,10
223,10 225,10 227,40 228,20
229,210 230,490 231,400 232,290
233,5595 234,4094 235,701 236,160
237,30 238,10 240,10 241,80
242,30 243,120 244,40 245,40
246,30 247,80 248,621 249,120
250,20 255,60 256,50 257,430
258,110 259,60 260,30 261,70
262,90 263,30 264,10 269,20
270,20 271,50 272,30 273,80
274,130 275,130 276,40 277,10
278,10 281,10 283,20 284,10
285,210 286,50 287,40 288,20
289,40 290,751 291,200 292,60
293,10 295,10 297,10 298,10
299,30 300,30 301,90 302,40
303,240 304,120 305,30 306,10
313,30 314,20 315,30 316,230
317,140 318,120 319,40 328,10
329,30 330,20 331,30 332,10
339,10 341,20 342,20 343,50
344,60 345,20 346,10 355,70
356,30 357,30 358,20 359,420
360,120 361,20 369,40 370,20
371,10 372,30 373,20 374,10
381,10 383,861 384,270 385,50
386,10 387,40 388,20 397,40
398,160 399,60 400,20 401,2192
402,711 403,110 404,10 414,40
415,20 416,4334 417,1321 418,230
419,30
##END=
