##TITLE=2-Bromophenylacetonitrile
##JCAMP-DX=4.24
##DATA TYPE=MASS SPECTRUM
##ORIGIN=Chuck Anderson, Aldrich Chemical Co.
##OWNER=NIST Mass Spectrometry Data Center
Collection (C) 2014 copyright by the U.S. Secretary of Commerce
on behalf of the United States of America. All rights reserved.
##CAS REGISTRY NO=19472-74-3
##$NIST MASS SPEC NO=117892
##MOLFORM=C8 H6 Br N
##MW=195
##$NIST SOURCE=MSDC
##XUNITS=M/Z
##YUNITS=RELATIVE INTENSITY
##XFACTOR=1
##YFACTOR=1
##FIRSTX=25
##LASTX=198
##FIRSTY=11
##MAXX=198
##MINX=25
##MAXY=9999
##MINY=2
##NPOINTS=77
##PEAK TABLE=(XY..XY)
25,11 26,107 27,117 28,60
36,35 37,210 38,363 39,696
40,100 41,43 43,83 44,107
45,29 48,4 49,106 50,738
51,367 52,102 53,9 55,5
56,39 57,7 58,636 60,27
61,280 62,624 63,984 64,291
65,170 66,23 73,66 74,314
75,359 76,242 77,49 79,64
80,27 81,59 82,23 84,33
85,89 86,148 87,295 88,685
89,2469 90,473 91,34 93,16
95,4 97,69 98,59 99,53
100,4 106,4 110,4 111,22
112,15 114,784 115,1681 116,9999
117,761 118,22 119,40 128,6
141,9 143,24 155,5 157,3
167,29 168,2 169,65 171,34
194,58 195,1999 196,208 197,2045
198,162
##END=
