##TITLE=o-Toluic acid, octyl ester
##JCAMP-DX=4.24
##DATA TYPE=MASS SPECTRUM
##ORIGIN=Zaikin V.G., TIPS RAS, Moscow, Russia
##OWNER=NIST Mass Spectrometry Data Center
Collection (C) 2014 copyright by the U.S. Secretary of Commerce
on behalf of the United States of America. All rights reserved.
##CAS REGISTRY NO=194725-26-3
##$NIST MASS SPEC NO=292380
##MOLFORM=C16 H24 O2
##MW=248
##$NIST SOURCE=MSDC
##XUNITS=M/Z
##YUNITS=RELATIVE INTENSITY
##XFACTOR=1
##YFACTOR=1
##FIRSTX=27
##LASTX=249
##FIRSTY=150
##MAXX=249
##MINX=27
##MAXY=9999
##MINY=10
##NPOINTS=52
##PEAK TABLE=(XY..XY)
27,150 28,10 29,110 39,260
40,40 41,791 42,220 43,911
44,60 50,30 51,80 53,60
54,50 55,520 56,320 57,1051
58,40 62,30 63,140 64,50
65,701 66,40 67,70 68,70
69,320 70,350 71,751 72,40
77,170 79,110 82,70 83,270
84,200 89,320 90,550 91,3183
92,340 93,200 97,30 105,60
112,230 118,5145 119,5745 120,470
121,40 135,300 136,9999 137,4044
138,330 149,40 248,1331 249,260
##END=
