##TITLE=dl-2,3-Dibromo-1,4-butanediol
##JCAMP-DX=4.24
##DATA TYPE=MASS SPECTRUM
##ORIGIN=Chuck Anderson, Aldrich Chemical Co.
##OWNER=NIST Mass Spectrometry Data Center
Collection (C) 2014 copyright by the U.S. Secretary of Commerce
on behalf of the United States of America. All rights reserved.
##CAS REGISTRY NO=1947-58-6
##$NIST MASS SPEC NO=108424
##MOLFORM=C4 H8 Br2 O2
##MW=246
##$NIST SOURCE=MSDC
##XUNITS=M/Z
##YUNITS=RELATIVE INTENSITY
##XFACTOR=1
##YFACTOR=1
##FIRSTX=15
##LASTX=202
##FIRSTY=211
##MAXX=202
##MINX=15
##MAXY=9999
##MINY=17
##NPOINTS=73
##PEAK TABLE=(XY..XY)
15,211 18,68 19,91 26,488
27,2252 28,594 29,5989 30,402
31,9306 32,151 36,335 37,264
38,798 39,5593 40,711 41,9999
42,1243 43,2252 44,374 45,476
47,171 50,137 51,140 53,173
55,773 56,102 57,8019 58,267
59,157 68,105 69,2450 70,283
79,218 80,174 81,290 82,146
87,1020 93,125 95,100 104,20
105,343 106,218 107,624 108,173
109,338 111,81 118,439 119,4900
120,451 121,5692 122,293 123,736
124,17 135,433 136,215 137,1571
138,242 139,1014 149,5123 150,213
151,5964 152,163 167,1732 168,61
169,2103 170,34 184,40 186,159
187,17 188,86 198,314 200,693
202,334
##END=
