##TITLE=L-Alanine, N-L-alanyl-
##JCAMP-DX=4.24
##DATA TYPE=MASS SPECTRUM
##OWNER=NIST Mass Spectrometry Data Center
Collection (C) 2014 copyright by the U.S. Secretary of Commerce
on behalf of the United States of America. All rights reserved.
##CAS REGISTRY NO=1948-31-8
##$NIST MASS SPEC NO=30518
##MOLFORM=C6 H12 N2 O3
##MW=160
##$NIST SOURCE=MSDC
##XUNITS=M/Z
##YUNITS=RELATIVE INTENSITY
##XFACTOR=1
##YFACTOR=1
##FIRSTX=15
##LASTX=143
##FIRSTY=695
##MAXX=143
##MINX=15
##MAXY=9999
##MINY=116
##NPOINTS=24
##PEAK TABLE=(XY..XY)
15,695 27,618 28,4710 29,309
40,232 41,425 42,1313 43,965
44,9999 45,347 54,116 55,193
56,1158 57,232 58,154 70,386
71,1004 72,154 98,154 99,4633
100,386 114,386 142,4517 143,270
##END=
