##TITLE=Diazene, bis[4-(pentyloxy)phenyl]-, 1-oxide
##JCAMP-DX=4.24
##DATA TYPE=MASS SPECTRUM
##ORIGIN=Japan AIST/NIMC Database- Spectrum MS-NW-5865
##OWNER=NIST Mass Spectrometry Data Center
Collection (C) 2014 copyright by the U.S. Secretary of Commerce
on behalf of the United States of America. All rights reserved.
##CAS REGISTRY NO=19482-05-4
##$NIST MASS SPEC NO=233015
##MOLFORM=C22 H30 N2 O3
##MW=370
##$NIST SOURCE=MSDC
##XUNITS=M/Z
##YUNITS=RELATIVE INTENSITY
##XFACTOR=1
##YFACTOR=1
##FIRSTX=15
##LASTX=373
##FIRSTY=60
##MAXX=373
##MINX=15
##MAXY=9999
##MINY=10
##NPOINTS=216
##PEAK TABLE=(XY..XY)
15,60 17,20 18,70 25,10
26,139 27,1549 28,229 29,3009
30,60 31,10 37,30 38,109
39,1159 40,139 41,3399 42,509
43,9999 44,329 45,20 50,209
51,199 52,559 53,319 54,80
55,1049 56,70 57,70 58,10
62,60 63,399 64,539 65,1809
66,159 67,70 68,50 69,749
70,119 71,2469 72,119 74,20
75,70 76,559 77,279 78,229
79,829 80,409 81,409 82,50
83,10 87,10 88,20 89,30
90,119 91,189 92,179 93,2999
94,609 95,159 96,80 97,30
101,10 102,20 103,60 104,30
105,90 106,339 107,4759 108,1359
109,779 110,209 111,30 114,20
115,60 116,40 117,80 118,40
119,80 120,99 121,499 122,209
123,2039 124,1029 125,70 126,20
127,60 128,90 129,40 130,30
131,90 132,60 133,109 134,109
135,70 136,80 137,99 138,10
139,60 140,30 141,20 142,10
143,30 144,50 145,50 146,50
147,40 148,50 149,30 150,20
151,10 152,10 153,10 154,20
155,30 156,40 157,99 158,50
159,40 160,20 161,99 162,30
163,3269 164,539 165,50 166,10
167,10 168,30 169,20 170,50
171,20 172,30 173,99 174,90
175,20 176,10 177,649 178,169
179,99 180,40 182,20 183,30
184,70 185,139 186,109 187,40
188,10 189,10 190,60 191,409
192,99 193,429 194,149 195,30
196,20 197,10 198,20 199,50
200,50 201,569 202,389 203,50
204,10 205,10 207,10 210,10
212,50 213,399 214,99 215,20
225,10 228,20 229,289 230,219
231,40 241,10 242,20 243,30
244,10 247,10 254,10 255,40
256,10 257,10 259,10 269,10
270,10 271,80 272,329 273,60
281,20 282,10 283,90 284,90
285,30 299,369 300,569 301,129
302,20 312,10 313,40 314,10
324,10 338,10 341,10 342,30
343,10 352,50 353,20 354,639
355,169 356,20 368,20 369,70
370,4159 371,989 372,169 373,30
##END=
