##TITLE=cis-1-Ethyl-3-methyl-cyclohexane
##JCAMP-DX=4.24
##DATA TYPE=MASS SPECTRUM
##ORIGIN=NIST Mass Spectrometry Data Center, 1990.
##OWNER=NIST Mass Spectrometry Data Center
Collection (C) 2014 copyright by the U.S. Secretary of Commerce
on behalf of the United States of America. All rights reserved.
##CAS REGISTRY NO=19489-10-2
##$NIST MASS SPEC NO=113505
##MOLFORM=C9 H18
##MW=126
##$NIST SOURCE=MSDC
##XUNITS=M/Z
##YUNITS=RELATIVE INTENSITY
##XFACTOR=1
##YFACTOR=1
##FIRSTX=27
##LASTX=127
##FIRSTY=880
##MAXX=127
##MINX=27
##MAXY=9999
##MINY=61
##NPOINTS=35
##PEAK TABLE=(XY..XY)
27,880 28,370 29,944 39,1600
40,344 41,2930 42,549 43,624
50,76 51,231 52,118 53,714
54,76 55,8293 56,1030 57,221
65,203 66,88 67,760 68,322
69,2430 70,326 77,186 79,228
81,981 82,130 83,246 84,61
91,69 96,2010 97,9999 98,793
111,286 126,2289 127,229
##END=
