##TITLE=t-Butylhydroquinone
##JCAMP-DX=4.24
##DATA TYPE=MASS SPECTRUM
##ORIGIN=NIST Mass Spectrometry Data Center, 1998.
##OWNER=NIST Mass Spectrometry Data Center
Collection (C) 2014 copyright by the U.S. Secretary of Commerce
on behalf of the United States of America. All rights reserved.
##CAS REGISTRY NO=1948-33-0
##$NIST MASS SPEC NO=290941
##MOLFORM=C10 H14 O2
##MW=166
##$NIST SOURCE=MSDC
##XUNITS=M/Z
##YUNITS=RELATIVE INTENSITY
##XFACTOR=1
##YFACTOR=1
##FIRSTX=15
##LASTX=168
##FIRSTY=50
##MAXX=168
##MINX=15
##MAXY=9999
##MINY=10
##NPOINTS=112
##PEAK TABLE=(XY..XY)
15,50 26,60 27,340 29,230
30,10 31,20 37,20 38,80
39,770 40,110 41,830 42,70
43,320 44,20 45,30 46,20
47,30 49,10 50,180 51,590
52,330 53,840 54,260 55,920
56,50 57,140 58,10 59,30
60,50 62,120 63,340 64,90
65,540 66,220 67,560 68,70
69,220 70,10 71,10 72,10
74,300 75,130 77,1460 78,330
79,990 80,110 81,350 82,130
83,30 84,10 86,20 87,20
88,10 89,150 90,50 91,430
92,60 93,260 94,190 95,460
96,40 97,20 98,10 101,20
102,60 103,430 104,80 105,540
106,70 107,810 108,210 109,270
110,630 111,400 112,20 114,10
115,280 116,40 117,20 118,40
119,40 120,20 121,210 122,290
123,9999 124,860 125,100 126,10
127,20 128,20 129,10 130,10
131,240 132,80 133,80 134,50
135,260 136,140 137,90 138,10
147,60 148,10 149,160 150,180
151,9779 152,980 153,80 164,10
165,60 166,4600 167,510 168,40
##END=
