##TITLE=Phenanthro[4,3-b]thiophene
##JCAMP-DX=4.24
##DATA TYPE=MASS SPECTRUM
##ORIGIN=Organic Synthesis Lab, MSU, Moscow.TRC 350
##OWNER=NIST Mass Spectrometry Data Center
Collection (C) 2014 copyright by the U.S. Secretary of Commerce
on behalf of the United States of America. All rights reserved.
##CAS REGISTRY NO=195-68-6
##$NIST MASS SPEC NO=326067
##MOLFORM=C16 H10 S
##MW=234
##$NIST SOURCE=MSDC
##XUNITS=M/Z
##YUNITS=RELATIVE INTENSITY
##XFACTOR=1
##YFACTOR=1
##FIRSTX=45
##LASTX=236
##FIRSTY=30
##MAXX=236
##MINX=45
##MAXY=9999
##MINY=10
##NPOINTS=103
##PEAK TABLE=(XY..XY)
45,30 50,20 51,20 61,20
62,50 63,110 69,90 71,20
73,20 74,140 75,110 76,40
77,70 78,60 79,30 85,40
86,140 87,210 88,70 89,60
90,50 91,250 97,30 98,160
99,120 100,120 101,50 103,420
104,2212 106,30 109,40 110,110
111,120 112,30 113,100 114,40
116,1421 117,1782 119,20 122,70
123,50 124,20 125,30 126,50
127,20 132,20 133,20 134,50
135,30 137,150 138,90 139,140
140,20 141,30 145,10 146,30
149,60 150,190 151,80 152,40
158,20 161,210 162,300 163,721
164,230 165,50 169,40 170,10
173,20 174,130 175,70 176,120
177,20 179,20 182,20 184,20
185,80 186,170 187,931 188,550
189,1401 190,230 191,20 193,20
195,60 198,60 199,80 200,250
201,140 202,310 203,50 206,220
207,280 208,821 209,140 210,40
219,40 230,50 232,1882 233,1331
234,9999 235,1902 236,621
##END=
