##TITLE=Acetic acid, methoxy-, anhydride
##JCAMP-DX=4.24
##DATA TYPE=MASS SPECTRUM
##OWNER=NIST Mass Spectrometry Data Center
Collection (C) 2014 copyright by the U.S. Secretary of Commerce
on behalf of the United States of America. All rights reserved.
##CAS REGISTRY NO=19500-95-9
##$NIST MASS SPEC NO=5977
##MOLFORM=C6 H10 O5
##MW=162
##$NIST SOURCE=MSDC
##XUNITS=M/Z
##YUNITS=RELATIVE INTENSITY
##XFACTOR=1
##YFACTOR=1
##FIRSTX=13
##LASTX=100
##FIRSTY=40
##MAXX=100
##MINX=13
##MAXY=9999
##MINY=20
##NPOINTS=29
##PEAK TABLE=(XY..XY)
13,40 14,160 15,1431 16,50
17,50 18,80 27,20 28,320
29,1882 30,130 31,841 32,60
33,50 36,20 41,50 42,400
43,90 44,210 45,9999 46,280
47,30 56,20 57,30 59,110
60,2232 61,80 72,20 75,20
100,20
##END=
