##TITLE=n-Butylethylenediamine
##JCAMP-DX=4.24
##DATA TYPE=MASS SPECTRUM
##ORIGIN=NIST Mass Spectrometry Data Center
##OWNER=NIST Mass Spectrometry Data Center
Collection (C) 2014 copyright by the U.S. Secretary of Commerce
on behalf of the United States of America. All rights reserved.
##CAS REGISTRY NO=19522-69-1
##$NIST MASS SPEC NO=342415
##MOLFORM=C6 H16 N2
##MW=116
##$NIST SOURCE=MSDC
##XUNITS=M/Z
##YUNITS=RELATIVE INTENSITY
##XFACTOR=1
##YFACTOR=1
##FIRSTX=11
##LASTX=117
##FIRSTY=20
##MAXX=117
##MINX=11
##MAXY=9999
##MINY=10
##NPOINTS=41
##PEAK TABLE=(XY..XY)
11,20 15,220 16,10 17,70
18,450 25,20 26,150 27,1121
28,1772 29,1922 30,6116 38,60
39,561 40,170 41,2022 42,1211
43,1091 44,9999 45,250 50,30
51,30 52,20 53,80 54,80
55,250 56,490 57,941 58,80
68,40 69,50 70,100 71,60
72,150 73,380 83,20 84,80
86,4844 87,330 99,40 116,190
117,20
##END=
