##TITLE=N-Isopropylethylenediamine
##JCAMP-DX=4.24
##DATA TYPE=MASS SPECTRUM
##ORIGIN=Japan AIST/NIMC Database- Spectrum MS-NW-8528
##OWNER=NIST Mass Spectrometry Data Center
Collection (C) 2014 copyright by the U.S. Secretary of Commerce
on behalf of the United States of America. All rights reserved.
##CAS REGISTRY NO=19522-67-9
##$NIST MASS SPEC NO=236727
##MOLFORM=C5 H14 N2
##MW=102
##$NIST SOURCE=MSDC
##XUNITS=M/Z
##YUNITS=RELATIVE INTENSITY
##XFACTOR=1
##YFACTOR=1
##FIRSTX=14
##LASTX=103
##FIRSTY=10
##MAXX=103
##MINX=14
##MAXY=9999
##MINY=10
##NPOINTS=46
##PEAK TABLE=(XY..XY)
14,10 15,199 16,10 17,40
18,59 26,40 27,559 28,759
29,189 30,9999 31,189 32,10
37,10 38,20 39,259 40,80
41,909 42,689 43,1519 44,2409
45,90 51,10 52,10 53,10
54,60 55,40 56,269 57,109
58,1039 59,139 68,40 69,20
70,289 71,129 72,5739 73,299
81,30 82,10 83,20 84,40
85,40 86,30 87,90 101,10
102,60 103,40
##END=
