##TITLE=1-Naphthalenecarboxaldehyde, 2-ethoxy-
##JCAMP-DX=4.24
##DATA TYPE=MASS SPECTRUM
##ORIGIN=NIST Mass Spectrometry Data Center
##OWNER=NIST Mass Spectrometry Data Center
Collection (C) 2014 copyright by the U.S. Secretary of Commerce
on behalf of the United States of America. All rights reserved.
##CAS REGISTRY NO=19523-57-0
##$NIST MASS SPEC NO=340832
##MOLFORM=C13 H12 O2
##MW=200
##$NIST SOURCE=MSDC
##XUNITS=M/Z
##YUNITS=RELATIVE INTENSITY
##XFACTOR=1
##YFACTOR=1
##FIRSTX=15
##LASTX=202
##FIRSTY=30
##MAXX=202
##MINX=15
##MAXY=9999
##MINY=10
##NPOINTS=100
##PEAK TABLE=(XY..XY)
15,30 26,130 27,791 29,931
30,20 37,20 38,80 39,470
40,10 41,40 42,10 43,210
44,10 45,10 49,10 50,340
51,490 52,80 53,70 55,20
57,70 61,100 62,611 63,1361
64,240 65,631 66,40 71,50
73,20 74,490 75,601 76,320
77,460 78,50 79,10 85,70
86,330 87,540 88,751 89,1541
90,160 91,30 97,10 98,150
99,140 100,120 101,290 102,100
103,20 109,10 110,40 111,40
112,10 113,1041 114,1922 115,9999
116,2132 117,160 118,10 122,30
125,90 126,2602 127,1221 128,1151
129,350 130,30 131,10 139,50
140,10 141,110 142,310 143,1601
144,7227 145,791 146,50 152,40
153,160 154,851 155,811 156,140
157,300 158,40 165,30 168,10
169,30 170,130 171,8768 172,1972
173,200 174,10 181,210 182,320
183,1932 184,270 185,140 186,10
199,380 200,4624 201,621 202,50
##END=
