##TITLE=Crotarbital
##JCAMP-DX=4.24
##DATA TYPE=MASS SPECTRUM
##ORIGIN=H.Maurer,J.Chromatogr.,530,307(1990)
##OWNER=NIST Mass Spectrometry Data Center
Collection (C) 2014 copyright by the U.S. Secretary of Commerce
on behalf of the United States of America. All rights reserved.
##CAS REGISTRY NO=1952-67-6
##$NIST MASS SPEC NO=281565
##MOLFORM=C10 H14 N2 O3
##MW=210
##$NIST SOURCE=MSDC
##XUNITS=M/Z
##YUNITS=RELATIVE INTENSITY
##XFACTOR=1
##YFACTOR=1
##FIRSTX=51
##LASTX=210
##FIRSTY=410
##MAXX=210
##MINX=51
##MAXY=9999
##MINY=70
##NPOINTS=56
##PEAK TABLE=(XY..XY)
51,410 52,300 53,1371 54,671
55,9999 56,931 57,300 65,480
66,300 67,891 68,190 69,410
70,410 71,110 73,110 77,961
78,150 79,561 80,370 81,440
82,190 83,220 85,150 91,150
92,330 93,300 94,811 95,561
96,150 97,70 98,811 105,370
106,110 109,190 110,440 111,70
112,330 113,150 120,520 121,1441
122,410 123,150 124,260 138,2813
139,300 141,3934 142,300 153,150
155,330 156,9338 157,671 167,190
181,8528 182,1151 195,150 210,631
##END=
