##TITLE=1,2-Cyclohexanediol, 1-methyl-, trans-
##JCAMP-DX=4.24
##DATA TYPE=MASS SPECTRUM
##ORIGIN=CARL DJERASSI DEPT OF CHEM STANFORD UNIV STANFORD CALIF 94305
##OWNER=NIST Mass Spectrometry Data Center
Collection (C) 2014 copyright by the U.S. Secretary of Commerce
on behalf of the United States of America. All rights reserved.
##CAS REGISTRY NO=19534-08-8
##$NIST MASS SPEC NO=46506
##MOLFORM=C7 H14 O2
##MW=130
##$NIST SOURCE=MSDC
##XUNITS=M/Z
##YUNITS=RELATIVE INTENSITY
##XFACTOR=1
##YFACTOR=1
##FIRSTX=39
##LASTX=131
##FIRSTY=1200
##MAXX=131
##MINX=39
##MAXY=9999
##MINY=100
##NPOINTS=42
##PEAK TABLE=(XY..XY)
39,1200 41,3000 42,900 43,8500
44,1400 45,700 51,100 53,300
54,200 55,2300 56,1200 57,1900
58,4400 59,200 67,600 68,1100
69,1700 70,4300 71,9999 72,400
73,100 74,100 77,100 79,400
81,200 83,1500 84,1100 85,300
87,400 88,100 91,100 94,500
95,100 97,1800 98,100 100,100
111,100 112,2100 113,100 115,500
130,1000 131,100
##END=
