##TITLE=1,2-Benzenedicarbonitrile, 3,4,5,6-tetrachloro-
##JCAMP-DX=4.24
##DATA TYPE=MASS SPECTRUM
##ORIGIN=MASS SPECTROMETRY CENTER, UNIV. OF UTAH ALDRICH 15880-1
##OWNER=NIST Mass Spectrometry Data Center
Collection (C) 2014 copyright by the U.S. Secretary of Commerce
on behalf of the United States of America. All rights reserved.
##CAS REGISTRY NO=1953-99-7
##$NIST MASS SPEC NO=52469
##MOLFORM=C8 Cl4 N2
##MW=264
##$NIST SOURCE=MSDC
##XUNITS=M/Z
##YUNITS=RELATIVE INTENSITY
##XFACTOR=1
##YFACTOR=1
##FIRSTX=14
##LASTX=273
##FIRSTY=6
##MAXX=273
##MINX=14
##MAXY=9999
##MINY=6
##NPOINTS=80
##PEAK TABLE=(XY..XY)
14,6 35,213 36,793 38,200
47,518 48,170 49,35 60,290
62,619 71,338 72,197 73,159
74,317 83,252 84,219 85,274
86,381 87,38 88,76 94,372
95,143 96,260 97,385 98,822
99,223 100,186 101,191 106,217
107,114 108,159 109,1462 110,189
111,513 112,45 118,39 120,440
121,139 122,48 124,1171 125,156
130,121 132,522 133,1239 134,457
135,306 144,267 146,125 147,57
153,115 155,89 159,363 161,91
168,1104 170,642 172,118 175,28
179,198 181,112 190,44 194,703
196,501 198,42 203,334 205,295
207,50 229,1228 230,174 231,1166
232,146 233,413 264,7954 265,793
266,9999 267,1002 268,4938 269,496
270,1048 271,93 272,72 273,41
##END=
