##TITLE=2,4-Dimethyl-1-heptene
##JCAMP-DX=4.24
##DATA TYPE=MASS SPECTRUM
##ORIGIN=Japan AIST/NIMC Database- Spectrum MS-NW-3198
##OWNER=NIST Mass Spectrometry Data Center
Collection (C) 2014 copyright by the U.S. Secretary of Commerce
on behalf of the United States of America. All rights reserved.
##CAS REGISTRY NO=19549-87-2
##$NIST MASS SPEC NO=227611
##MOLFORM=C9 H18
##MW=126
##$NIST SOURCE=MSDC
##XUNITS=M/Z
##YUNITS=RELATIVE INTENSITY
##XFACTOR=1
##YFACTOR=1
##FIRSTX=15
##LASTX=127
##FIRSTY=50
##MAXX=127
##MINX=15
##MAXY=9999
##MINY=10
##NPOINTS=55
##PEAK TABLE=(XY..XY)
15,50 26,40 27,1149 28,40
29,1639 30,30 37,10 38,60
39,1339 40,279 41,3119 42,1309
43,9999 44,329 50,50 51,119
52,60 53,469 54,139 55,4469
56,3099 57,3249 58,139 62,10
63,30 65,80 66,30 67,379
68,1079 69,1609 70,7199 71,2069
72,99 77,70 78,10 79,70
80,10 81,99 82,80 83,1909
84,469 85,99 91,20 93,10
95,109 96,10 97,70 98,10
109,119 110,10 111,119 112,10
124,20 126,789 127,80
##END=
