##TITLE=3,3-Dimethyl-4-heptanol
##JCAMP-DX=4.24
##DATA TYPE=MASS SPECTRUM
##ORIGIN=NIST Mass Spectrometry Data Center, 1990.
##OWNER=NIST Mass Spectrometry Data Center
Collection (C) 2014 copyright by the U.S. Secretary of Commerce
on behalf of the United States of America. All rights reserved.
##CAS REGISTRY NO=19549-78-1
##$NIST MASS SPEC NO=114543
##MOLFORM=C9 H20 O
##MW=144
##$NIST SOURCE=MSDC
##XUNITS=M/Z
##YUNITS=RELATIVE INTENSITY
##XFACTOR=1
##YFACTOR=1
##FIRSTX=27
##LASTX=129
##FIRSTY=1307
##MAXX=129
##MINX=27
##MAXY=9999
##MINY=80
##NPOINTS=42
##PEAK TABLE=(XY..XY)
27,1307 28,151 29,1445 30,151
31,585 39,1410 40,370 41,3194
42,836 43,7262 44,651 45,2120
51,159 52,83 53,631 54,83
55,9999 56,790 57,1739 58,83
59,1505 65,136 67,402 69,1629
70,7223 71,5910 72,2744 73,5568
74,235 77,88 79,101 81,107
83,834 84,594 85,188 97,685
98,80 101,1343 102,119 115,191
126,214 129,122
##END=
