##TITLE=3-Heptanol, 2,3-dimethyl-
##JCAMP-DX=4.24
##DATA TYPE=MASS SPECTRUM
##ORIGIN=NIST Mass Spectrometry Data Center, 1990.
##OWNER=NIST Mass Spectrometry Data Center
Collection (C) 2014 copyright by the U.S. Secretary of Commerce
on behalf of the United States of America. All rights reserved.
##CAS REGISTRY NO=19549-71-4
##$NIST MASS SPEC NO=113771
##MOLFORM=C9 H20 O
##MW=144
##$NIST SOURCE=MSDC
##XUNITS=M/Z
##YUNITS=RELATIVE INTENSITY
##XFACTOR=1
##YFACTOR=1
##FIRSTX=15
##LASTX=130
##FIRSTY=364
##MAXX=130
##MINX=15
##MAXY=9999
##MINY=80
##NPOINTS=53
##PEAK TABLE=(XY..XY)
15,364 16,82 17,97 18,324
27,2985 28,716 29,2251 30,81
31,534 38,151 39,2209 41,7282
42,904 43,6713 44,81 45,6859
46,162 51,208 52,132 53,797
54,132 55,7564 56,872 57,2345
58,686 59,2109 60,102 65,199
66,90 67,715 68,90 69,7483
70,1269 71,1129 72,108 73,324
77,163 79,185 81,175 83,4305
84,1081 85,595 86,108 87,9999
88,567 97,253 101,7223 102,458
111,150 126,784 127,97 129,727
130,80
##END=
