##TITLE=3-Heptanol, 2,4-dimethyl-
##JCAMP-DX=4.24
##DATA TYPE=MASS SPECTRUM
##OWNER=NIST Mass Spectrometry Data Center
Collection (C) 2014 copyright by the U.S. Secretary of Commerce
on behalf of the United States of America. All rights reserved.
##CAS REGISTRY NO=19549-72-5
##$NIST MASS SPEC NO=4022
##MOLFORM=C9 H20 O
##MW=144
##$NIST SOURCE=MSDC
##XUNITS=M/Z
##YUNITS=RELATIVE INTENSITY
##XFACTOR=1
##YFACTOR=1
##FIRSTX=12
##LASTX=144
##FIRSTY=10
##MAXX=144
##MINX=12
##MAXY=9999
##MINY=10
##NPOINTS=104
##PEAK TABLE=(XY..XY)
12,10 13,10 14,40 15,350
16,20 17,20 18,70 19,50
25,10 26,310 27,3954 28,611
29,2592 30,170 31,1021 32,20
33,10 36,30 37,50 38,120
39,1702 40,310 41,3613 42,701
43,5505 44,270 45,2793 46,60
47,10 49,10 50,40 51,100
52,40 53,330 54,100 55,4524
56,651 57,1962 58,561 59,1581
60,60 61,10 62,10 63,20
64,10 65,40 66,20 67,140
68,60 69,530 70,490 71,1702
72,1011 73,9999 74,450 75,40
76,10 77,30 78,10 79,30
80,10 81,60 82,50 83,3703
84,310 85,190 86,40 87,50
88,10 89,20 91,10 93,10
95,30 96,10 97,340 98,60
99,150 100,510 101,3043 102,200
103,20 104,10 105,10 107,10
109,10 110,10 111,140 112,30
113,20 114,10 115,30 116,10
117,10 119,10 123,10 124,10
125,20 126,40 127,40 128,30
129,90 130,10 143,30 144,10
##END=
