##TITLE=4-Heptanol, 3,5-dimethyl-
##JCAMP-DX=4.24
##DATA TYPE=MASS SPECTRUM
##ORIGIN=NIST Mass Spectrometry Data Center, 1990.
##OWNER=NIST Mass Spectrometry Data Center
Collection (C) 2014 copyright by the U.S. Secretary of Commerce
on behalf of the United States of America. All rights reserved.
##CAS REGISTRY NO=19549-79-2
##$NIST MASS SPEC NO=113706
##MOLFORM=C9 H20 O
##MW=144
##$NIST SOURCE=MSDC
##XUNITS=M/Z
##YUNITS=RELATIVE INTENSITY
##XFACTOR=1
##YFACTOR=1
##FIRSTX=26
##LASTX=88
##FIRSTY=127
##MAXX=88
##MINX=26
##MAXY=9999
##MINY=127
##NPOINTS=27
##PEAK TABLE=(XY..XY)
26,127 27,1343 28,959 29,2839
30,175 31,627 32,135 39,1076
41,3705 42,323 43,1543 45,9999
46,232 53,302 55,821 56,478
57,2602 58,823 59,242 67,182
69,4717 70,450 71,741 85,242
86,1518 87,7320 88,430
##END=
