##TITLE=3-Heptanol, 3,5-dimethyl-
##JCAMP-DX=4.24
##DATA TYPE=MASS SPECTRUM
##ORIGIN=NIST Mass Spectrometry Data Center, 1990.
##OWNER=NIST Mass Spectrometry Data Center
Collection (C) 2014 copyright by the U.S. Secretary of Commerce
on behalf of the United States of America. All rights reserved.
##CAS REGISTRY NO=19549-74-7
##$NIST MASS SPEC NO=113764
##MOLFORM=C9 H20 O
##MW=144
##$NIST SOURCE=MSDC
##XUNITS=M/Z
##YUNITS=RELATIVE INTENSITY
##XFACTOR=1
##YFACTOR=1
##FIRSTX=15
##LASTX=129
##FIRSTY=187
##MAXX=129
##MINX=15
##MAXY=9999
##MINY=77
##NPOINTS=36
##PEAK TABLE=(XY..XY)
15,187 18,115 27,1320 28,785
29,2382 30,115 31,379 32,106
39,992 41,2897 42,510 43,2850
44,154 45,852 51,101 53,360
55,3968 56,597 57,2256 58,349
59,1997 67,237 69,875 70,1091
71,2137 72,237 73,9999 74,421
79,77 85,186 97,1264 98,99
115,1642 116,141 126,223 129,404
##END=
