##TITLE=4-Heptanol, 2,4-dimethyl-
##JCAMP-DX=4.24
##DATA TYPE=MASS SPECTRUM
##OWNER=NIST Mass Spectrometry Data Center
Collection (C) 2014 copyright by the U.S. Secretary of Commerce
on behalf of the United States of America. All rights reserved.
##CAS REGISTRY NO=19549-77-0
##$NIST MASS SPEC NO=4016
##MOLFORM=C9 H20 O
##MW=144
##$NIST SOURCE=MSDC
##XUNITS=M/Z
##YUNITS=RELATIVE INTENSITY
##XFACTOR=1
##YFACTOR=1
##FIRSTX=12
##LASTX=143
##FIRSTY=10
##MAXX=143
##MINX=12
##MAXY=9999
##MINY=10
##NPOINTS=101
##PEAK TABLE=(XY..XY)
12,10 13,20 14,80 15,811
16,40 17,100 18,350 19,60
25,10 26,340 27,4584 28,641
29,2592 30,80 31,611 32,30
33,10 36,10 37,70 38,180
39,2512 40,460 41,5655 42,761
43,7707 44,320 45,6926 46,160
47,30 48,10 49,10 50,80
51,180 52,80 53,500 54,120
55,2823 56,1872 57,3133 58,1031
59,2963 60,100 61,20 62,10
63,50 64,10 65,110 66,50
67,410 68,140 69,3163 70,550
71,671 72,50 73,340 74,20
75,10 77,90 78,30 79,80
80,20 81,100 82,110 83,2312
84,611 85,400 86,120 87,9999
88,550 89,40 91,30 92,10
93,10 94,10 95,50 96,10
97,60 98,30 99,20 100,70
101,5355 102,350 103,20 107,10
109,20 110,10 111,140 112,20
113,20 115,20 123,10 124,10
125,20 126,671 127,100 128,10
129,1131 130,100 131,10 140,10
143,10
##END=
