##TITLE=2-Heptanone, 4,6-dimethyl-
##JCAMP-DX=4.24
##DATA TYPE=MASS SPECTRUM
##ORIGIN=NIST Mass Spectrometry Data Center, 1990.
##OWNER=NIST Mass Spectrometry Data Center
Collection (C) 2014 copyright by the U.S. Secretary of Commerce
on behalf of the United States of America. All rights reserved.
##CAS REGISTRY NO=19549-80-5
##$NIST MASS SPEC NO=113731
##MOLFORM=C9 H18 O
##MW=142
##$NIST SOURCE=MSDC
##XUNITS=M/Z
##YUNITS=RELATIVE INTENSITY
##XFACTOR=1
##YFACTOR=1
##FIRSTX=15
##LASTX=127
##FIRSTY=463
##MAXX=127
##MINX=15
##MAXY=9999
##MINY=152
##NPOINTS=27
##PEAK TABLE=(XY..XY)
15,463 27,1179 28,606 29,820
39,1427 40,312 41,2902 43,9999
44,296 53,247 55,755 56,537
57,1671 58,5244 59,1712 67,383
69,3132 70,218 71,628 82,201
83,782 84,2990 85,3149 86,214
99,152 109,524 127,163
##END=
