##TITLE=3-Hexanone, 4,4-dimethyl-
##JCAMP-DX=4.24
##DATA TYPE=MASS SPECTRUM
##ORIGIN=NIST Mass Spectrometry Data Center, 1990.
##OWNER=NIST Mass Spectrometry Data Center
Collection (C) 2014 copyright by the U.S. Secretary of Commerce
on behalf of the United States of America. All rights reserved.
##CAS REGISTRY NO=19550-14-2
##$NIST MASS SPEC NO=113812
##MOLFORM=C8 H16 O
##MW=128
##$NIST SOURCE=MSDC
##XUNITS=M/Z
##YUNITS=RELATIVE INTENSITY
##XFACTOR=1
##YFACTOR=1
##FIRSTX=14
##LASTX=129
##FIRSTY=114
##MAXX=129
##MINX=14
##MAXY=9999
##MINY=93
##NPOINTS=25
##PEAK TABLE=(XY..XY)
14,114 15,194 26,265 27,2394
28,1203 29,3325 32,134 39,1553
40,292 41,2329 42,134 43,9971
44,401 51,140 53,375 55,1780
57,3132 58,112 70,2764 71,9999
72,602 99,233 100,841 128,850
129,93
##END=
