##TITLE=2-Hexanone, 3,4-dimethyl-
##JCAMP-DX=4.24
##DATA TYPE=MASS SPECTRUM
##ORIGIN=CONTINENTAL OIL CO., PONCA CITY, OKLA, USA
##OWNER=NIST Mass Spectrometry Data Center
Collection (C) 2014 copyright by the U.S. Secretary of Commerce
on behalf of the United States of America. All rights reserved.
##CAS REGISTRY NO=19550-10-8
##$NIST MASS SPEC NO=35105
##MOLFORM=C8 H16 O
##MW=128
##$NIST SOURCE=MSDC
##XUNITS=M/Z
##YUNITS=RELATIVE INTENSITY
##XFACTOR=1
##YFACTOR=1
##FIRSTX=18
##LASTX=129
##FIRSTY=37
##MAXX=129
##MINX=18
##MAXY=9999
##MINY=5
##NPOINTS=71
##PEAK TABLE=(XY..XY)
18,37 19,6 25,8 26,162
27,1518 28,414 29,1441 30,37
31,27 32,9 37,24 38,64
39,841 40,119 41,1648 42,243
43,9999 44,293 45,95 49,7
50,54 51,92 52,35 53,195
54,67 55,470 56,249 57,1249
58,69 59,28 62,8 63,15
65,21 66,11 67,50 68,14
69,227 70,36 71,193 72,4090
73,214 74,18 77,14 78,6
79,14 80,5 81,25 82,6
83,34 84,77 85,654 86,47
87,16 93,5 95,21 97,14
98,5 99,207 100,18 104,8
105,35 106,6 110,8 111,6
113,59 114,6 117,19 118,6
119,18 128,23 129,8
##END=
