##TITLE=trans-4,4-Dimethyl-2-hexene
##JCAMP-DX=4.24
##DATA TYPE=MASS SPECTRUM
##ORIGIN=NIST Mass Spectrometry Data Center, 1990.
##OWNER=NIST Mass Spectrometry Data Center
Collection (C) 2014 copyright by the U.S. Secretary of Commerce
on behalf of the United States of America. All rights reserved.
##CAS REGISTRY NO=19550-83-5
##$NIST MASS SPEC NO=113435
##MOLFORM=C8 H16
##MW=112
##$NIST SOURCE=MSDC
##XUNITS=M/Z
##YUNITS=RELATIVE INTENSITY
##XFACTOR=1
##YFACTOR=1
##FIRSTX=15
##LASTX=113
##FIRSTY=132
##MAXX=113
##MINX=15
##MAXY=9999
##MINY=62
##NPOINTS=36
##PEAK TABLE=(XY..XY)
15,132 26,114 27,931 28,344
29,790 39,1897 40,392 41,2945
42,246 43,851 44,94 50,172
51,368 52,163 53,858 54,94
55,9068 56,528 57,129 63,124
65,377 66,147 67,1073 68,262
69,1176 70,315 71,107 77,222
78,62 79,322 81,270 83,9999
84,719 97,819 112,1599 113,157
##END=
