##TITLE=2-Hexanol, 2,3-dimethyl-
##JCAMP-DX=4.24
##DATA TYPE=MASS SPECTRUM
##ORIGIN=CHEMICAL SAMPLES COMPANY
##OWNER=NIST Mass Spectrometry Data Center
Collection (C) 2014 copyright by the U.S. Secretary of Commerce
on behalf of the United States of America. All rights reserved.
##CAS REGISTRY NO=19550-03-9
##$NIST MASS SPEC NO=31033
##MOLFORM=C8 H18 O
##MW=130
##$NIST SOURCE=MSDC
##XUNITS=M/Z
##YUNITS=RELATIVE INTENSITY
##XFACTOR=1
##YFACTOR=1
##FIRSTX=12
##LASTX=130
##FIRSTY=4
##MAXX=130
##MINX=12
##MAXY=9999
##MINY=2
##NPOINTS=79
##PEAK TABLE=(XY..XY)
12,4 13,28 14,52 15,437
16,19 17,17 18,52 19,16
24,2 25,15 26,84 27,1171
28,270 29,859 30,31 31,409
32,30 37,20 38,48 39,705
40,120 41,1421 42,336 43,2293
44,82 45,393 46,16 47,8
50,22 51,49 52,20 53,133
54,31 55,811 56,99 57,283
58,327 59,9999 60,337 61,29
62,6 63,11 65,20 66,11
67,51 68,22 69,312 70,300
71,776 72,61 73,106 74,327
75,44 77,11 79,10 81,14
82,16 83,151 84,19 85,32
86,9 87,109 88,9 89,12
95,6 97,96 98,12 99,159
100,13 101,13 112,15 113,7
115,440 116,121 117,178 118,14
120,3 129,11 130,2
##END=
