##TITLE=trans-3,4-Dimethylcyclopentanone
##JCAMP-DX=4.24
##DATA TYPE=MASS SPECTRUM
##ORIGIN=NIST Mass Spectrometry Data Center, 1990.
##OWNER=NIST Mass Spectrometry Data Center
Collection (C) 2014 copyright by the U.S. Secretary of Commerce
on behalf of the United States of America. All rights reserved.
##CAS REGISTRY NO=19550-73-3
##$NIST MASS SPEC NO=113665
##MOLFORM=C7 H12 O
##MW=112
##$NIST SOURCE=MSDC
##XUNITS=M/Z
##YUNITS=RELATIVE INTENSITY
##XFACTOR=1
##YFACTOR=1
##FIRSTX=15
##LASTX=112
##FIRSTY=349
##MAXX=112
##MINX=15
##MAXY=9999
##MINY=304
##NPOINTS=19
##PEAK TABLE=(XY..XY)
15,349 27,1320 28,1112 29,478
38,443 39,3099 40,803 41,4191
42,8224 43,825 53,537 54,304
55,2532 56,421 67,309 69,9999
70,2602 83,341 112,3958
##END=
