##TITLE=2,2-Dimethyl-5-hexen-3-ol
##JCAMP-DX=4.24
##DATA TYPE=MASS SPECTRUM
##ORIGIN=NIST Mass Spectrometry Data Center, 1990.
##OWNER=NIST Mass Spectrometry Data Center
Collection (C) 2014 copyright by the U.S. Secretary of Commerce
on behalf of the United States of America. All rights reserved.
##CAS REGISTRY NO=19550-89-1
##$NIST MASS SPEC NO=113798
##MOLFORM=C8 H16 O
##MW=128
##$NIST SOURCE=MSDC
##XUNITS=M/Z
##YUNITS=RELATIVE INTENSITY
##XFACTOR=1
##YFACTOR=1
##FIRSTX=14
##LASTX=95
##FIRSTY=152
##MAXX=95
##MINX=14
##MAXY=9999
##MINY=140
##NPOINTS=32
##PEAK TABLE=(XY..XY)
14,152 15,416 26,196 27,2026
28,1310 29,2253 31,504 32,233
39,2940 41,8027 42,905 43,6657
44,455 45,2877 51,270 53,581
54,182 55,673 56,864 57,4666
58,229 59,318 67,404 69,5286
70,1091 71,3405 72,237 77,140
85,148 87,9999 88,531 95,276
##END=
