##TITLE=3-Hexene, 3,4-dimethyl-, (Z)-
##JCAMP-DX=4.24
##DATA TYPE=MASS SPECTRUM
##ORIGIN=NIST Mass Spectrometry Data Center, 1990.
##OWNER=NIST Mass Spectrometry Data Center
Collection (C) 2014 copyright by the U.S. Secretary of Commerce
on behalf of the United States of America. All rights reserved.
##CAS REGISTRY NO=19550-87-9
##$NIST MASS SPEC NO=118862
##MOLFORM=C8 H16
##MW=112
##$NIST SOURCE=MSDC
##XUNITS=M/Z
##YUNITS=RELATIVE INTENSITY
##XFACTOR=1
##YFACTOR=1
##FIRSTX=14
##LASTX=113
##FIRSTY=17
##MAXX=113
##MINX=14
##MAXY=9999
##MINY=4
##NPOINTS=55
##PEAK TABLE=(XY..XY)
14,17 15,234 16,4 17,27
25,13 26,145 27,1527 28,447
29,1121 30,32 37,33 39,1758
40,367 41,3342 42,262 43,667
44,28 46,12 50,177 51,403
52,189 53,912 54,12 55,9999
56,807 57,267 62,39 63,107
64,32 65,249 66,91 67,684
68,150 69,1648 70,224 71,18
74,18 77,233 78,57 79,317
80,70 81,310 82,18 83,7058
84,599 85,23 91,50 93,24
94,15 95,116 96,15 97,636
98,54 112,2369 113,223
##END=
