##TITLE=trans-3,4-Dimethyl-2-hexene
##JCAMP-DX=4.24
##DATA TYPE=MASS SPECTRUM
##ORIGIN=NIST Mass Spectrometry Data Center, 1990.
##OWNER=NIST Mass Spectrometry Data Center
Collection (C) 2014 copyright by the U.S. Secretary of Commerce
on behalf of the United States of America. All rights reserved.
##CAS REGISTRY NO=19550-82-4
##$NIST MASS SPEC NO=113434
##MOLFORM=C8 H16
##MW=112
##$NIST SOURCE=MSDC
##XUNITS=M/Z
##YUNITS=RELATIVE INTENSITY
##XFACTOR=1
##YFACTOR=1
##FIRSTX=15
##LASTX=113
##FIRSTY=120
##MAXX=113
##MINX=15
##MAXY=9999
##MINY=57
##NPOINTS=38
##PEAK TABLE=(XY..XY)
15,120 26,152 27,1233 28,423
29,1109 39,1858 40,378 41,3239
42,281 43,774 44,74 50,252
51,493 52,225 53,1088 54,74
55,9999 56,766 57,192 63,119
65,362 66,143 67,1146 68,225
69,1088 70,164 77,261 78,74
79,310 80,57 81,303 82,57
83,9732 84,875 95,79 97,529
112,2340 113,221
##END=
