##TITLE=2-Quinolinecarboxylic acid, methyl ester
##JCAMP-DX=4.24
##DATA TYPE=MASS SPECTRUM
##ORIGIN=NIST Mass Spectrometry Data Center
##OWNER=NIST Mass Spectrometry Data Center
Collection (C) 2014 copyright by the U.S. Secretary of Commerce
on behalf of the United States of America. All rights reserved.
##CAS REGISTRY NO=19575-07-6
##$NIST MASS SPEC NO=352547
##MOLFORM=C11 H9 N O2
##MW=187
##$NIST SOURCE=MSDC
##XUNITS=M/Z
##YUNITS=RELATIVE INTENSITY
##XFACTOR=1
##YFACTOR=1
##FIRSTX=15
##LASTX=189
##FIRSTY=90
##MAXX=189
##MINX=15
##MAXY=9999
##MINY=10
##NPOINTS=68
##PEAK TABLE=(XY..XY)
15,90 26,10 27,30 28,20
29,60 30,20 31,10 37,20
38,50 39,90 40,10 44,10
49,20 50,340 51,520 52,110
53,30 59,140 60,10 61,50
62,120 63,190 64,270 73,30
74,310 75,811 76,340 77,721
78,120 85,10 86,30 87,50
88,50 89,60 90,20 97,10
98,50 99,110 100,280 101,1661
102,831 103,150 104,10 112,10
113,10 114,20 115,110 116,30
117,10 123,10 126,30 127,410
128,4204 129,9999 130,1171 131,60
140,10 141,10 142,30 143,40
144,10 156,220 157,1591 158,200
159,10 187,621 188,80 189,10
##END=
