##TITLE=1,3-Diphenyl-2,4-pentanedione
##JCAMP-DX=4.24
##DATA TYPE=MASS SPECTRUM
##ORIGIN=Japan AIST/NIMC Database- Spectrum MS-NW-6951
##OWNER=NIST Mass Spectrometry Data Center
Collection (C) 2014 copyright by the U.S. Secretary of Commerce
on behalf of the United States of America. All rights reserved.
##CAS REGISTRY NO=19588-08-0
##$NIST MASS SPEC NO=235968
##MOLFORM=C17 H16 O2
##MW=252
##$NIST SOURCE=MSDC
##XUNITS=M/Z
##YUNITS=RELATIVE INTENSITY
##XFACTOR=1
##YFACTOR=1
##FIRSTX=15
##LASTX=254
##FIRSTY=60
##MAXX=254
##MINX=15
##MAXY=9999
##MINY=10
##NPOINTS=113
##PEAK TABLE=(XY..XY)
15,60 18,10 27,359 28,50
29,10 31,10 38,30 39,379
40,40 41,80 43,1099 44,20
50,60 51,289 52,60 53,60
55,3609 56,119 57,10 61,10
62,70 63,299 64,99 65,629
66,40 74,30 75,50 76,50
77,619 78,119 79,239 80,10
82,10 83,10 86,20 87,40
88,30 89,419 90,339 91,1919
92,289 93,10 94,10 101,20
102,70 103,379 104,99 105,519
106,40 107,20 110,10 113,20
114,20 115,509 116,80 117,40
118,319 119,119 126,20 127,20
128,20 129,10 130,10 131,119
132,30 133,2449 134,1329 135,129
136,10 139,20 141,10 145,20
150,20 151,20 152,40 153,10
159,20 160,109 161,9999 162,1139
163,129 164,20 165,129 166,50
167,10 173,10 175,10 176,20
177,20 178,90 179,60 180,10
181,40 188,10 189,99 190,40
191,259 192,70 193,10 194,10
202,10 203,10 205,10 207,10
208,10 209,10 210,269 211,40
234,10 237,10 252,2769 253,539
254,60
##END=
