##TITLE=Pyridine, 1-acetyl-1,2,3,4-tetrahydro-
##JCAMP-DX=4.24
##DATA TYPE=MASS SPECTRUM
##ORIGIN=CARL DJERASSI DEPT OF CHEM STANFORD UNIV STANFORD CALIF 94305
##OWNER=NIST Mass Spectrometry Data Center
Collection (C) 2014 copyright by the U.S. Secretary of Commerce
on behalf of the United States of America. All rights reserved.
##CAS REGISTRY NO=19615-27-1
##$NIST MASS SPEC NO=46422
##MOLFORM=C7 H11 N O
##MW=125
##$NIST SOURCE=MSDC
##XUNITS=M/Z
##YUNITS=RELATIVE INTENSITY
##XFACTOR=1
##YFACTOR=1
##FIRSTX=41
##LASTX=126
##FIRSTY=594
##MAXX=126
##MINX=41
##MAXY=9999
##MINY=396
##NPOINTS=14
##PEAK TABLE=(XY..XY)
41,594 42,396 43,3960 53,594
54,1980 55,1188 67,396 68,3663
80,891 82,9999 83,9405 84,594
125,7029 126,594
##END=
