##TITLE=1H-Indene, 1-phenyl-
##JCAMP-DX=4.24
##DATA TYPE=MASS SPECTRUM
##ORIGIN=D.HENNEBERG, MAX-PLANCK INSTITUTE, MULHEIM, WEST GERMANY
##OWNER=NIST Mass Spectrometry Data Center
Collection (C) 2014 copyright by the U.S. Secretary of Commerce
on behalf of the United States of America. All rights reserved.
##CAS REGISTRY NO=1961-96-2
##$NIST MASS SPEC NO=63151
##MOLFORM=C15 H12
##MW=192
##$NIST SOURCE=MSDC
##XUNITS=M/Z
##YUNITS=RELATIVE INTENSITY
##XFACTOR=1
##YFACTOR=1
##FIRSTX=28
##LASTX=195
##FIRSTY=360
##MAXX=195
##MINX=28
##MAXY=9999
##MINY=2
##NPOINTS=68
##PEAK TABLE=(XY..XY)
28,360 29,11 32,73 36,7
39,63 41,24 43,26 44,30
50,13 51,56 57,2 63,68
64,19 65,74 70,10 75,17
76,33 77,68 81,9 83,40
87,14 88,49 89,174 90,17
91,13 95,86 96,319 97,11
101,11 102,29 103,12 113,67
114,139 115,720 116,81 117,9
126,44 127,18 128,20 132,12
138,13 139,120 140,17 142,17
150,50 151,68 152,162 153,39
162,19 163,232 164,176 165,1297
166,196 167,23 175,17 176,109
177,31 178,23 186,14 187,138
188,199 189,2100 190,872 191,4346
192,9999 193,1480 194,120 195,12
##END=
