##TITLE=Pentaborane(9)
##JCAMP-DX=4.24
##DATA TYPE=MASS SPECTRUM
##ORIGIN=API 0334
##OWNER=NIST Mass Spectrometry Data Center
Collection (C) 2014 copyright by the U.S. Secretary of Commerce
on behalf of the United States of America. All rights reserved.
##CAS REGISTRY NO=19624-22-7
##$NIST MASS SPEC NO=190
##MOLFORM=B5 H9
##MW=64
##$NIST SOURCE=MSDC
##XUNITS=M/Z
##YUNITS=RELATIVE INTENSITY
##XFACTOR=1
##YFACTOR=1
##FIRSTX=10
##LASTX=64
##FIRSTY=611
##MAXX=64
##MINX=10
##MAXY=9999
##MINY=10
##NPOINTS=48
##PEAK TABLE=(XY..XY)
10,611 11,2342 12,721 13,1621
21,20 22,90 23,300 24,380
25,230 26,110 27,180 28,40
29,30 30,10 31,20 32,90
33,310 34,741 35,1091 36,741
37,340 38,130 39,80 40,10
41,30 42,150 43,561 44,1321
45,2202 46,3203 47,3974 48,3263
49,861 50,330 51,30 52,230
53,991 54,2512 55,3703 56,3894
57,4714 58,6866 59,9999 60,9709
61,6786 62,7647 63,6156 64,4914
##END=
