##TITLE=L-Valine, N-glycyl-
##JCAMP-DX=4.24
##DATA TYPE=MASS SPECTRUM
##ORIGIN=Japan AIST/NIMC Database- Spectrum MS-NW-2143
##OWNER=NIST Mass Spectrometry Data Center
Collection (C) 2014 copyright by the U.S. Secretary of Commerce
on behalf of the United States of America. All rights reserved.
##CAS REGISTRY NO=1963-21-9
##$NIST MASS SPEC NO=230546
##MOLFORM=C7 H14 N2 O3
##MW=174
##$NIST SOURCE=MSDC
##XUNITS=M/Z
##YUNITS=RELATIVE INTENSITY
##XFACTOR=1
##YFACTOR=1
##FIRSTX=14
##LASTX=175
##FIRSTY=20
##MAXX=175
##MINX=14
##MAXY=9999
##MINY=10
##NPOINTS=92
##PEAK TABLE=(XY..XY)
14,20 15,80 16,20 17,149
18,679 19,10 26,50 27,449
28,1129 29,409 30,9999 31,799
32,80 37,20 38,40 39,349
40,70 41,609 42,209 43,479
44,209 45,60 46,20 50,10
51,20 52,30 53,50 54,90
55,449 56,379 57,299 58,50
59,159 60,10 64,10 66,20
67,50 68,70 69,139 70,239
71,99 72,949 73,80 74,109
75,109 80,10 81,30 82,50
83,80 84,80 85,289 86,80
87,60 89,10 91,10 94,10
95,30 96,10 97,10 98,80
99,30 100,30 101,40 102,50
103,40 109,10 110,10 111,30
112,10 113,169 114,659 115,50
116,50 117,10 118,40 119,20
126,10 127,20 128,99 129,139
130,99 131,70 132,50 139,10
140,10 141,10 145,10 154,10
156,20 157,10 174,159 175,10
##END=
