##TITLE=Magnesium hexafluoroacetylacetonate
##JCAMP-DX=4.24
##DATA TYPE=MASS SPECTRUM
##ORIGIN=Japan AIST/NIMC Database- Spectrum MS-IW-1360
##OWNER=NIST Mass Spectrometry Data Center
Collection (C) 2014 copyright by the U.S. Secretary of Commerce
on behalf of the United States of America. All rights reserved.
##CAS REGISTRY NO=19648-85-2
##$NIST MASS SPEC NO=236045
##MOLFORM=C10 H2 F12 Mg O4
##MW=438
##$NIST SOURCE=MSDC
##XUNITS=M/Z
##YUNITS=RELATIVE INTENSITY
##XFACTOR=1
##YFACTOR=1
##FIRSTX=24
##LASTX=441
##FIRSTY=70
##MAXX=441
##MINX=24
##MAXY=9999
##MINY=10
##NPOINTS=111
##PEAK TABLE=(XY..XY)
24,70 25,10 28,40 31,70
41,109 42,20 44,60 47,20
50,50 51,20 53,90 56,10
63,50 68,10 69,2449 70,80
71,109 72,80 74,10 75,99
84,50 85,20 87,30 89,10
90,10 91,309 92,10 93,10
94,10 97,10 100,10 102,10
103,10 111,10 112,30 113,10
119,469 120,40 121,20 122,30
131,80 132,10 133,10 137,30
138,20 139,479 140,20 141,10
150,199 151,30 153,10 161,30
162,289 163,60 164,50 165,10
169,70 175,10 181,5989 182,1079
183,919 184,50 185,10 187,10
193,10 203,10 208,99 209,10
212,129 213,80 214,20 230,30
231,669 232,119 233,99 243,30
246,20 259,10 263,10 273,10
278,10 280,10 287,20 293,30
299,269 300,119 301,60 302,10
307,10 319,2079 320,459 321,349
322,30 350,139 351,40 352,20
369,9999 370,2239 371,1629 372,169
373,20 387,30 391,10 401,50
419,209 420,70 421,40 438,3039
439,719 440,509 441,70
##END=
