##TITLE=Benzo[b]thiophene, 3,5-dimethyl-
##JCAMP-DX=4.24
##DATA TYPE=MASS SPECTRUM
##ORIGIN=Organic Synthesis Lab, MSU, Moscow.TRC 320
##OWNER=NIST Mass Spectrometry Data Center
Collection (C) 2014 copyright by the U.S. Secretary of Commerce
on behalf of the United States of America. All rights reserved.
##CAS REGISTRY NO=1964-45-0
##$NIST MASS SPEC NO=326048
##MOLFORM=C10 H10 S
##MW=162
##$NIST SOURCE=MSDC
##XUNITS=M/Z
##YUNITS=RELATIVE INTENSITY
##XFACTOR=1
##YFACTOR=1
##FIRSTX=40
##LASTX=164
##FIRSTY=100
##MAXX=164
##MINX=40
##MAXY=9999
##MINY=80
##NPOINTS=32
##PEAK TABLE=(XY..XY)
40,100 63,120 67,110 69,180
77,170 79,170 80,290 81,180
89,130 91,170 93,80 102,200
103,90 115,991 116,200 117,130
121,170 127,210 128,1141 129,380
134,210 135,100 145,150 147,2292
148,260 149,120 159,270 160,460
161,9999 162,8127 163,1301 164,430
##END=
