##TITLE=Phenol, 4,4'-oxybis-
##JCAMP-DX=4.24
##DATA TYPE=MASS SPECTRUM
##ORIGIN=Japan AIST/NIMC Database- Spectrum MS-IW-3631
##OWNER=NIST Mass Spectrometry Data Center
Collection (C) 2014 copyright by the U.S. Secretary of Commerce
on behalf of the United States of America. All rights reserved.
##CAS REGISTRY NO=1965-09-9
##$NIST MASS SPEC NO=237101
##MOLFORM=C12 H10 O3
##MW=202
##$NIST SOURCE=MSDC
##XUNITS=M/Z
##YUNITS=RELATIVE INTENSITY
##XFACTOR=1
##YFACTOR=1
##FIRSTX=26
##LASTX=205
##FIRSTY=50
##MAXX=205
##MINX=26
##MAXY=9999
##MINY=10
##NPOINTS=99
##PEAK TABLE=(XY..XY)
26,50 27,169 28,40 29,30
37,20 38,99 39,679 40,40
42,10 43,20 50,80 51,129
52,80 53,349 54,90 55,149
58,10 61,20 62,90 63,309
64,169 65,859 66,149 67,20
68,10 69,10 71,20 72,30
73,10 74,30 75,40 76,20
77,40 78,40 79,30 80,10
81,519 82,90 84,10 86,10
87,40 89,20 90,10 91,109
92,109 93,199 94,1199 95,80
101,259 102,20 103,30 105,10
107,50 108,20 109,1209 110,489
111,30 115,129 116,70 117,189
118,99 119,90 120,129 121,99
122,10 126,10 127,199 128,119
129,80 130,10 131,249 132,60
133,40 144,30 145,479 146,80
147,239 148,30 155,40 156,40
157,149 158,20 159,10 160,20
161,10 171,10 173,559 174,80
183,20 184,30 185,40 186,10
199,10 200,40 201,309 202,9999
203,1329 204,139 205,10
##END=
