##TITLE=Quinoline, 8-ethyl-
##JCAMP-DX=4.24
##DATA TYPE=MASS SPECTRUM
##OWNER=NIST Mass Spectrometry Data Center
Collection (C) 2014 copyright by the U.S. Secretary of Commerce
on behalf of the United States of America. All rights reserved.
##CAS REGISTRY NO=19655-56-2
##$NIST MASS SPEC NO=5418
##MOLFORM=C11 H11 N
##MW=157
##$NIST SOURCE=MSDC
##XUNITS=M/Z
##YUNITS=RELATIVE INTENSITY
##XFACTOR=1
##YFACTOR=1
##FIRSTX=62
##LASTX=158
##FIRSTY=345
##MAXX=158
##MINX=62
##MAXY=9999
##MINY=172
##NPOINTS=29
##PEAK TABLE=(XY..XY)
62,345 63,862 64,345 65,345
74,276 75,621 76,345 77,1034
78,414 87,276 89,414 101,276
102,690 103,414 114,276 115,517
116,345 117,172 127,345 128,862
129,3448 130,862 141,276 142,1034
154,1552 155,690 156,9999 157,6896
158,862
##END=
