##TITLE=Quinoline, 6-ethyl-
##JCAMP-DX=4.24
##DATA TYPE=MASS SPECTRUM
##OWNER=NIST Mass Spectrometry Data Center
Collection (C) 2014 copyright by the U.S. Secretary of Commerce
on behalf of the United States of America. All rights reserved.
##CAS REGISTRY NO=19655-60-8
##$NIST MASS SPEC NO=5416
##MOLFORM=C11 H11 N
##MW=157
##$NIST SOURCE=MSDC
##XUNITS=M/Z
##YUNITS=RELATIVE INTENSITY
##XFACTOR=1
##YFACTOR=1
##FIRSTX=62
##LASTX=158
##FIRSTY=397
##MAXX=158
##MINX=62
##MAXY=9999
##MINY=265
##NPOINTS=29
##PEAK TABLE=(XY..XY)
62,397 63,993 64,397 65,397
70,265 73,497 74,728 75,497
76,927 77,265 87,331 88,662
101,331 102,397 103,265 114,265
115,728 116,662 127,397 128,596
129,728 130,497 140,265 141,828
142,9999 143,993 156,1324 157,5297
158,728
##END=
