##TITLE=Oxadiazon
##JCAMP-DX=4.24
##DATA TYPE=MASS SPECTRUM
##ORIGIN=ACCUSTANDARD Chemicals / NIST MS Data Center.
##OWNER=NIST Mass Spectrometry Data Center
Collection (C) 2014 copyright by the U.S. Secretary of Commerce
on behalf of the United States of America. All rights reserved.
##CAS REGISTRY NO=19666-30-9
##$NIST MASS SPEC NO=125608
##MOLFORM=C15 H18 Cl2 N2 O3
##MW=344
##$NIST SOURCE=MSDC
##XUNITS=M/Z
##YUNITS=RELATIVE INTENSITY
##XFACTOR=1
##YFACTOR=1
##FIRSTX=12
##LASTX=349
##FIRSTY=18
##MAXX=349
##MINX=12
##MAXY=9999
##MINY=12
##NPOINTS=230
##PEAK TABLE=(XY..XY)
12,18 14,62 15,601 27,3700
29,2814 30,64 35,41 36,60
37,95 38,41 39,2302 40,41
41,8113 42,1304 43,5448 44,202
45,29 47,29 48,14 49,63
50,172 51,188 52,233 53,377
54,159 55,481 56,14 57,4539
58,235 59,37 60,126 61,184
62,443 63,278 64,92 65,86
66,78 67,152 68,280 69,192
70,68 71,57 72,154 73,283
74,182 75,392 76,939 77,167
78,53 79,22 80,23 81,12
82,82 83,125 84,299 85,334
86,177 87,176 88,242 89,89
90,39 91,36 92,19 93,14
94,45 95,56 96,97 97,562
98,189 99,219 100,82 101,76
102,72 103,46 104,116 105,29
106,47 107,205 108,213 109,347
110,1313 111,886 112,2426 113,496
114,708 115,249 116,137 117,55
118,48 119,140 120,171 121,133
122,162 123,88 124,119 125,90
126,76 127,96 128,74 129,40
130,29 131,65 132,109 133,271
134,183 135,247 136,130 137,103
138,83 139,235 140,908 141,215
142,319 143,65 144,125 145,214
146,704 147,1286 148,749 149,913
150,304 151,247 152,85 153,51
154,38 155,34 156,107 157,34
158,306 159,114 160,210 161,167
162,263 163,219 164,165 165,130
166,53 167,69 168,23 169,21
171,17 173,213 175,9999 176,1437
177,6522 178,601 179,1136 180,179
181,84 182,67 183,114 184,268
185,89 186,108 187,54 188,43
189,75 190,268 191,61 192,169
193,47 194,46 195,38 196,26
197,17 198,17 199,32 202,1401
203,531 204,870 205,333 206,175
207,78 208,31 209,14 210,15
211,13 213,20 214,23 215,76
216,46 217,113 218,51 219,51
220,50 221,26 222,35 223,79
224,33 225,43 226,13 227,16
228,28 229,91 230,36 231,72
232,22 242,36 243,136 244,37
245,87 246,39 247,19 248,14
258,5390 259,1132 260,3417 261,504
262,611 263,75 286,15 287,20
289,13 302,2761 303,663 304,1755
305,281 306,297 307,48 329,108
330,25 331,65 332,13 333,15
344,1707 345,485 346,1144 347,208
348,178 349,28
##END=
