##TITLE=4-Decene
##JCAMP-DX=4.24
##DATA TYPE=MASS SPECTRUM
##ORIGIN=CARL DJERASSI DEPT OF CHEM STANFORD UNIV STANFORD CALIF 94305
##OWNER=NIST Mass Spectrometry Data Center
Collection (C) 2014 copyright by the U.S. Secretary of Commerce
on behalf of the United States of America. All rights reserved.
##CAS REGISTRY NO=19689-18-0
##$NIST MASS SPEC NO=46583
##MOLFORM=C10 H20
##MW=140
##$NIST SOURCE=MSDC
##XUNITS=M/Z
##YUNITS=RELATIVE INTENSITY
##XFACTOR=1
##YFACTOR=1
##FIRSTX=41
##LASTX=141
##FIRSTY=5400
##MAXX=141
##MINX=41
##MAXY=9999
##MINY=100
##NPOINTS=36
##PEAK TABLE=(XY..XY)
41,5400 42,2600 43,3100 44,300
50,100 51,100 52,100 53,500
54,1000 55,9999 56,6000 57,1800
58,100 65,100 66,100 67,800
68,500 69,5800 70,4700 71,700
77,100 79,100 81,200 82,400
83,2000 84,2000 85,500 95,100
96,100 97,1800 98,700 99,100
111,600 112,400 140,3200 141,400
##END=
