##TITLE=Benzene, 1-(chloromethyl)-4-(1,1-dimethylethyl)-
##JCAMP-DX=4.24
##DATA TYPE=MASS SPECTRUM
##ORIGIN=Japan AIST/NIMC Database- Spectrum MS-NW-7776
##OWNER=NIST Mass Spectrometry Data Center
Collection (C) 2014 copyright by the U.S. Secretary of Commerce
on behalf of the United States of America. All rights reserved.
##CAS REGISTRY NO=19692-45-6
##$NIST MASS SPEC NO=234959
##MOLFORM=C11 H15 Cl
##MW=182
##$NIST SOURCE=MSDC
##XUNITS=M/Z
##YUNITS=RELATIVE INTENSITY
##XFACTOR=1
##YFACTOR=1
##FIRSTX=14
##LASTX=186
##FIRSTY=10
##MAXX=186
##MINX=14
##MAXY=9999
##MINY=10
##NPOINTS=131
##PEAK TABLE=(XY..XY)
14,10 15,139 26,40 27,369
28,40 29,309 31,10 35,20
36,70 37,20 38,90 39,879
40,80 41,1209 42,50 43,60
44,20 49,40 50,219 51,559
52,149 53,259 54,20 55,139
56,40 57,149 58,90 59,20
60,10 61,40 62,169 63,529
64,459 65,649 66,159 67,20
68,10 69,20 70,10 71,60
72,40 73,40 74,90 75,139
76,99 77,529 78,219 79,149
80,20 81,10 82,40 83,40
84,20 85,20 86,50 87,80
88,30 89,389 90,129 91,2509
92,259 93,60 97,10 98,10
99,50 101,40 102,129 103,419
104,399 105,439 106,60 107,50
111,10 113,30 114,50 115,1059
116,489 117,1269 118,209 119,149
120,20 121,40 122,10 124,10
125,80 126,30 127,129 128,239
129,209 130,60 131,2239 132,1039
133,279 134,30 137,10 138,30
139,1799 140,189 141,599 142,60
143,10 144,10 145,40 146,10
147,1099 148,189 149,379 150,50
151,159 152,20 153,60 154,10
155,10 157,10 161,10 162,10
164,90 165,20 166,70 167,9999
168,1149 169,3209 170,369 171,20
180,10 181,20 182,2349 183,289
184,779 185,119 186,10
##END=
