##TITLE=Heptane, 1-ethoxy-
##JCAMP-DX=4.24
##DATA TYPE=MASS SPECTRUM
##ORIGIN=CARL DJERASSI DEPT OF CHEM STANFORD UNIV STANFORD CALIF 94305
##OWNER=NIST Mass Spectrometry Data Center
Collection (C) 2014 copyright by the U.S. Secretary of Commerce
on behalf of the United States of America. All rights reserved.
##CAS REGISTRY NO=1969-43-3
##$NIST MASS SPEC NO=46662
##MOLFORM=C9 H20 O
##MW=144
##$NIST SOURCE=MSDC
##XUNITS=M/Z
##YUNITS=RELATIVE INTENSITY
##XFACTOR=1
##YFACTOR=1
##FIRSTX=29
##LASTX=144
##FIRSTY=2500
##MAXX=144
##MINX=29
##MAXY=9999
##MINY=100
##NPOINTS=25
##PEAK TABLE=(XY..XY)
29,2500 31,7800 39,400 41,2900
42,1400 43,1800 45,200 47,2400
54,100 55,2000 56,2600 57,2800
58,100 59,9999 60,300 68,600
69,1500 70,4500 71,200 83,300
97,200 98,1200 99,100 129,100
144,100
##END=
