##TITLE=4a(2H)-Naphthalenol, octahydro-4,8a-dimethyl-,(4.alpha.,4a.alpha.,8a.beta.)-
##JCAMP-DX=4.24
##DATA TYPE=MASS SPECTRUM
##ORIGIN=MASS SPECTRA OF ORGANIC COMPOUNDS, V. 6, B. H. KENNETT ET AL, DIV. OF FOOD RESEARCH, CSIRO, AUSTRALIA
##OWNER=NIST Mass Spectrometry Data Center
Collection (C) 2014 copyright by the U.S. Secretary of Commerce
on behalf of the United States of America. All rights reserved.
##CAS REGISTRY NO=19700-21-1
##$NIST MASS SPEC NO=57758
##MOLFORM=C12 H22 O
##MW=182
##$NIST SOURCE=MSDC
##XUNITS=M/Z
##YUNITS=RELATIVE INTENSITY
##XFACTOR=1
##YFACTOR=1
##FIRSTX=27
##LASTX=183
##FIRSTY=900
##MAXX=183
##MINX=27
##MAXY=9999
##MINY=100
##NPOINTS=73
##PEAK TABLE=(XY..XY)
27,900 29,1400 30,100 31,200
39,1100 40,300 41,3000 42,500
43,2500 45,200 51,200 52,100
53,900 54,300 55,2800 56,700
57,800 58,200 65,300 66,200
67,1600 68,700 69,1400 70,500
71,700 72,500 73,200 77,500
78,200 79,800 80,200 81,1300
82,800 83,1200 84,900 85,900
91,500 92,100 93,800 94,300
95,1000 96,900 97,1300 98,400
99,300 105,300 106,100 107,500
108,600 109,500 110,400 111,2300
112,9999 113,1000 114,200 119,100
121,400 122,200 123,300 124,100
125,1400 126,1300 127,100 135,200
138,100 139,200 149,1000 150,200
164,600 165,100 167,200 182,700
183,200
##END=
