##TITLE=Carbonodithioic acid, O,S-dimethyl ester
##JCAMP-DX=4.24
##DATA TYPE=MASS SPECTRUM
##OWNER=NIST Mass Spectrometry Data Center
Collection (C) 2014 copyright by the U.S. Secretary of Commerce
on behalf of the United States of America. All rights reserved.
##CAS REGISTRY NO=19708-81-7
##$NIST MASS SPEC NO=32175
##MOLFORM=C3 H6 O S2
##MW=122
##$NIST SOURCE=MSDC
##XUNITS=M/Z
##YUNITS=RELATIVE INTENSITY
##XFACTOR=1
##YFACTOR=1
##FIRSTX=27
##LASTX=124
##FIRSTY=337
##MAXX=124
##MINX=27
##MAXY=9999
##MINY=56
##NPOINTS=35
##PEAK TABLE=(XY..XY)
27,337 28,2303 29,4662 30,730
31,7640 32,5000 33,449 34,393
35,337 43,449 44,899 45,4101
46,3090 47,7078 48,506 49,393
58,281 59,562 60,786 61,730
62,1236 64,899 75,9999 76,2696
77,1348 78,393 79,449 91,2303
92,112 93,393 106,56 107,112
122,8651 123,562 124,899
##END=
