##TITLE=2,4-Dichlorophenylacetic acid
##JCAMP-DX=4.24
##DATA TYPE=MASS SPECTRUM
##ORIGIN=NIST Mass Spectrometry Data Center, 1994
##OWNER=NIST Mass Spectrometry Data Center
Collection (C) 2014 copyright by the U.S. Secretary of Commerce
on behalf of the United States of America. All rights reserved.
##CAS REGISTRY NO=19719-28-9
##$NIST MASS SPEC NO=134956
##MOLFORM=C8 H6 Cl2 O2
##MW=204
##$NIST SOURCE=MSDC
##XUNITS=M/Z
##YUNITS=RELATIVE INTENSITY
##XFACTOR=1
##YFACTOR=1
##FIRSTX=17
##LASTX=208
##FIRSTY=46
##MAXX=208
##MINX=17
##MAXY=9999
##MINY=23
##NPOINTS=105
##PEAK TABLE=(XY..XY)
17,46 18,48 26,139 27,137
28,99 29,164 35,99 36,171
37,364 38,509 39,877 40,49
41,26 42,26 43,498 44,482
45,1395 47,113 48,48 49,335
50,757 51,681 52,116 53,72
55,50 60,190 61,844 62,1554
63,2235 64,163 65,54 71,43
72,219 73,1299 74,396 75,802
76,127 77,916 78,174 79,358
80,231 81,43 83,79 84,217
85,490 86,624 87,692 88,43
89,3310 90,363 91,88 94,40
95,26 96,109 97,522 98,116
99,633 100,48 101,176 102,23
105,63 106,49 107,91 108,47
109,123 110,54 111,219 112,98
113,145 114,43 115,42 120,41
123,2164 124,1504 125,4377 126,755
127,1156 128,100 133,407 134,71
135,347 136,27 137,60 139,29
140,23 141,161 143,56 152,33
153,169 155,53 159,9999 160,1010
161,5992 162,608 163,1004 164,129
169,1814 170,352 171,614 172,119
204,2701 205,261 206,1695 207,164
208,281
##END=
