##TITLE=4'-Nitroflavone
##JCAMP-DX=4.24
##DATA TYPE=MASS SPECTRUM
##ORIGIN=Div. of Experiment Therapeutics WRAIR, WRAMC, Washington DC 20307
##OWNER=NIST Mass Spectrometry Data Center
Collection (C) 2014 copyright by the U.S. Secretary of Commerce
on behalf of the United States of America. All rights reserved.
##CAS REGISTRY NO=19725-49-6
##$NIST MASS SPEC NO=227035
##MOLFORM=C15 H9 N O4
##MW=267
##$NIST SOURCE=MSDC
##XUNITS=M/Z
##YUNITS=RELATIVE INTENSITY
##XFACTOR=1
##YFACTOR=1
##FIRSTX=46
##LASTX=270
##FIRSTY=38
##MAXX=270
##MINX=46
##MAXY=9999
##MINY=11
##NPOINTS=102
##PEAK TABLE=(XY..XY)
46,38 50,113 51,132 52,15
53,41 61,31 62,178 63,644
64,391 65,58 66,18 69,184
73,16 74,296 75,570 76,361
77,121 79,25 81,65 82,73
85,17 86,85 87,143 89,852
90,115 92,2403 93,133 94,14
96,32 98,170 99,71 100,67
101,266 102,39 104,304 105,31
110,31 111,44 113,91 115,358
117,68 119,59 120,2464 121,274
124,15 126,196 128,79 129,14
131,17 133,20 134,14 137,56
139,485 140,42 142,70 145,32
147,12 149,13 150,99 151,144
152,438 153,49 155,27 161,26
162,88 163,753 164,515 165,1697
166,184 167,25 169,35 174,15
175,29 176,27 177,12 179,29
181,865 192,171 193,575 194,82
195,12 206,19 207,11 209,1162
210,142 211,19 219,12 220,490
221,714 222,129 223,20 226,17
238,34 239,2557 240,440 241,45
251,86 266,176 267,9999 268,1803
269,214 270,17
##END=
