##TITLE=Benzene, 1-bromo-2-ethyl-
##JCAMP-DX=4.24
##DATA TYPE=MASS SPECTRUM
##ORIGIN=NIST Mass Spectrometry Data Center, 1990.
##OWNER=NIST Mass Spectrometry Data Center
Collection (C) 2014 copyright by the U.S. Secretary of Commerce
on behalf of the United States of America. All rights reserved.
##CAS REGISTRY NO=1973-22-4
##$NIST MASS SPEC NO=113153
##MOLFORM=C8 H9 Br
##MW=184
##$NIST SOURCE=MSDC
##XUNITS=M/Z
##YUNITS=RELATIVE INTENSITY
##XFACTOR=1
##YFACTOR=1
##FIRSTX=15
##LASTX=187
##FIRSTY=261
##MAXX=187
##MINX=15
##MAXY=9999
##MINY=34
##NPOINTS=49
##PEAK TABLE=(XY..XY)
15,261 26,188 27,591 28,34
37,228 38,444 39,1182 40,153
49,261 50,2036 51,3484 52,744
53,230 61,364 62,993 63,2319
64,417 65,259 73,243 74,1113
75,1107 76,857 77,4224 78,1674
79,1846 80,194 81,109 85,86
86,164 87,176 88,86 89,2319
90,2025 91,239 98,125 101,178
102,712 103,1965 104,1526 105,9999
106,781 169,6447 170,635 171,6224
172,496 184,3668 185,407 186,3599
187,332
##END=
