##TITLE=Heptane, 3-bromo-
##JCAMP-DX=4.24
##DATA TYPE=MASS SPECTRUM
##OWNER=NIST Mass Spectrometry Data Center
Collection (C) 2014 copyright by the U.S. Secretary of Commerce
on behalf of the United States of America. All rights reserved.
##CAS REGISTRY NO=1974-05-6
##$NIST MASS SPEC NO=22172
##MOLFORM=C7 H15 Br
##MW=178
##$NIST SOURCE=MSDC
##XUNITS=M/Z
##YUNITS=RELATIVE INTENSITY
##XFACTOR=1
##YFACTOR=1
##FIRSTX=12
##LASTX=163
##FIRSTY=10
##MAXX=163
##MINX=12
##MAXY=9999
##MINY=10
##NPOINTS=91
##PEAK TABLE=(XY..XY)
12,10 13,10 14,130 15,440
16,40 24,10 25,10 26,270
27,2692 28,971 29,2692 30,70
36,20 37,50 38,150 39,1772
40,350 41,4424 42,951 43,3773
44,130 45,20 46,10 47,10
48,10 49,10 50,80 51,140
52,70 53,330 54,160 55,1581
56,1051 57,9999 58,410 59,20
61,10 62,10 63,30 64,10
65,40 66,20 67,100 68,40
69,550 70,200 71,140 72,20
73,10 74,10 75,10 77,20
78,10 79,30 80,30 81,40
82,30 83,50 84,10 85,110
86,10 87,10 93,40 94,10
95,40 96,10 97,20 98,60
99,1201 100,100 101,10 106,30
107,70 108,30 109,50 111,10
112,10 113,10 114,10 117,10
121,30 122,10 123,10 133,10
134,10 135,50 136,10 137,50
138,10 149,10 163,10
##END=
