##TITLE=Benzene, 1-bromo-3,5-dichloro-
##JCAMP-DX=4.24
##DATA TYPE=MASS SPECTRUM
##OWNER=NIST Mass Spectrometry Data Center
Collection (C) 2014 copyright by the U.S. Secretary of Commerce
on behalf of the United States of America. All rights reserved.
##CAS REGISTRY NO=19752-55-7
##$NIST MASS SPEC NO=10686
##MOLFORM=C6 H3 Br Cl2
##MW=224
##$NIST SOURCE=MSDC
##XUNITS=M/Z
##YUNITS=RELATIVE INTENSITY
##XFACTOR=1
##YFACTOR=1
##FIRSTX=35
##LASTX=231
##FIRSTY=380
##MAXX=231
##MINX=35
##MAXY=9999
##MINY=10
##NPOINTS=113
##PEAK TABLE=(XY..XY)
35,380 36,520 37,1722 38,741
39,70 47,260 48,190 49,881
50,1782 51,150 54,150 55,480
56,140 59,20 60,330 61,440
62,280 63,130 64,10 71,100
72,661 73,1521 74,4294 75,2833
76,190 77,80 78,30 79,200
80,50 81,190 82,60 83,40
84,751 85,370 86,260 87,160
91,30 92,10 93,40 94,240
95,310 96,90 97,40 98,10
99,20 100,20 104,30 105,10
106,40 107,50 108,270 109,2392
110,1031 111,811 112,731 113,821
114,370 115,60 116,20 117,20
118,30 119,60 120,10 121,30
128,60 129,30 130,60 131,30
139,10 140,10 141,20 142,10
143,20 144,120 145,4674 146,390
147,2973 148,210 149,480 150,40
151,10 152,30 153,90 154,40
155,80 156,20 162,10 163,10
164,10 165,10 166,10 175,10
177,10 179,10 180,100 181,10
182,100 183,10 184,30 188,10
189,210 190,30 191,270 192,20
193,60 224,6186 225,430 226,9999
227,671 228,4464 229,300 230,611
231,40
##END=
