##TITLE=3,5-Dimethyl-2-octanone
##JCAMP-DX=4.24
##DATA TYPE=MASS SPECTRUM
##ORIGIN=NIST Mass Spectrometry Data Center, 1990.
##OWNER=NIST Mass Spectrometry Data Center
Collection (C) 2014 copyright by the U.S. Secretary of Commerce
on behalf of the United States of America. All rights reserved.
##CAS REGISTRY NO=19781-14-7
##$NIST MASS SPEC NO=113809
##MOLFORM=C10 H20 O
##MW=156
##$NIST SOURCE=MSDC
##XUNITS=M/Z
##YUNITS=RELATIVE INTENSITY
##XFACTOR=1
##YFACTOR=1
##FIRSTX=15
##LASTX=113
##FIRSTY=335
##MAXX=113
##MINX=15
##MAXY=9999
##MINY=104
##NPOINTS=24
##PEAK TABLE=(XY..XY)
15,335 27,1019 28,664 29,1014
39,978 41,2441 43,9999 44,272
45,104 53,306 55,1375 57,2873
58,169 67,193 69,610 70,287
71,2074 72,9813 73,518 83,132
84,552 85,1480 86,138 113,186
##END=
