##TITLE=Cyclohexane, 1,3-dimethyl-2-methylene-, cis-
##JCAMP-DX=4.24
##DATA TYPE=MASS SPECTRUM
##ORIGIN=NIST Mass Spectrometry Data Center, 1990.
##OWNER=NIST Mass Spectrometry Data Center
Collection (C) 2014 copyright by the U.S. Secretary of Commerce
on behalf of the United States of America. All rights reserved.
##CAS REGISTRY NO=19781-47-6
##$NIST MASS SPEC NO=114533
##MOLFORM=C9 H16
##MW=124
##$NIST SOURCE=MSDC
##XUNITS=M/Z
##YUNITS=RELATIVE INTENSITY
##XFACTOR=1
##YFACTOR=1
##FIRSTX=27
##LASTX=125
##FIRSTY=1297
##MAXX=125
##MINX=27
##MAXY=9999
##MINY=88
##NPOINTS=45
##PEAK TABLE=(XY..XY)
27,1297 28,151 29,675 39,3059
40,717 41,3709 42,573 43,511
50,350 51,931 52,458 53,2179
54,778 55,2294 56,256 57,88
62,90 63,272 64,108 65,936
66,88 67,9999 68,8137 69,1666
70,489 77,1205 78,295 79,1822
80,582 81,4983 82,5362 83,617
91,786 92,127 93,458 94,127
95,3238 96,1415 97,113 105,195
107,235 109,8092 110,705 124,1797
125,177
##END=
