##TITLE=4-Heptanol, 3-ethyl-
##JCAMP-DX=4.24
##DATA TYPE=MASS SPECTRUM
##ORIGIN=NIST Mass Spectrometry Data Center, 1990.
##OWNER=NIST Mass Spectrometry Data Center
Collection (C) 2014 copyright by the U.S. Secretary of Commerce
on behalf of the United States of America. All rights reserved.
##CAS REGISTRY NO=19780-42-8
##$NIST MASS SPEC NO=113790
##MOLFORM=C9 H20 O
##MW=144
##$NIST SOURCE=MSDC
##XUNITS=M/Z
##YUNITS=RELATIVE INTENSITY
##XFACTOR=1
##YFACTOR=1
##FIRSTX=15
##LASTX=101
##FIRSTY=118
##MAXX=101
##MINX=15
##MAXY=9999
##MINY=115
##NPOINTS=28
##PEAK TABLE=(XY..XY)
15,118 27,1709 28,730 29,1906
31,1005 39,1022 41,2369 42,560
43,4222 44,574 45,699 53,360
55,9999 56,608 57,1327 59,2394
67,169 69,385 70,1436 71,1219
72,2213 73,6222 74,268 83,954
84,181 97,195 99,115 101,1177
##END=
