##TITLE=2-Pentanol, 3-ethyl-2-methyl-
##JCAMP-DX=4.24
##DATA TYPE=MASS SPECTRUM
##ORIGIN=NIST Mass Spectrometry Data Center, 1990.
##OWNER=NIST Mass Spectrometry Data Center
Collection (C) 2014 copyright by the U.S. Secretary of Commerce
on behalf of the United States of America. All rights reserved.
##CAS REGISTRY NO=19780-63-3
##$NIST MASS SPEC NO=113774
##MOLFORM=C8 H18 O
##MW=130
##$NIST SOURCE=MSDC
##XUNITS=M/Z
##YUNITS=RELATIVE INTENSITY
##XFACTOR=1
##YFACTOR=1
##FIRSTX=14
##LASTX=115
##FIRSTY=58
##MAXX=115
##MINX=14
##MAXY=9999
##MINY=58
##NPOINTS=35
##PEAK TABLE=(XY..XY)
14,58 15,136 26,68 27,686
28,500 29,707 30,58 31,774
32,88 39,659 40,140 41,1348
42,212 43,1527 44,83 45,530
51,71 53,174 55,1419 56,111
57,279 58,71 59,9999 60,340
67,120 69,340 70,120 71,410
72,111 73,410 83,558 84,226
97,131 112,79 115,583
##END=
