##TITLE=5-Ethyl-3-nonanol
##JCAMP-DX=4.24
##DATA TYPE=MASS SPECTRUM
##ORIGIN=NIST Mass Spectrometry Data Center, 1990.
##OWNER=NIST Mass Spectrometry Data Center
Collection (C) 2014 copyright by the U.S. Secretary of Commerce
on behalf of the United States of America. All rights reserved.
##CAS REGISTRY NO=19780-71-3
##$NIST MASS SPEC NO=114104
##MOLFORM=C11 H24 O
##MW=172
##$NIST SOURCE=MSDC
##XUNITS=M/Z
##YUNITS=RELATIVE INTENSITY
##XFACTOR=1
##YFACTOR=1
##FIRSTX=27
##LASTX=154
##FIRSTY=1344
##MAXX=154
##MINX=27
##MAXY=9999
##MINY=169
##NPOINTS=42
##PEAK TABLE=(XY..XY)
27,1344 28,1396 29,2285 31,1068
32,338 39,1311 41,4861 42,799
43,3123 44,449 45,223 51,169
53,815 55,5433 56,2486 57,9999
58,1245 59,5845 60,182 65,221
67,868 69,6071 70,2512 71,819
72,386 73,350 77,189 79,232
81,394 83,2809 84,819 85,730
96,178 97,1095 98,3315 99,384
111,204 112,644 113,205 125,384
143,1014 154,426
##END=
