##TITLE=2,4-Dimethyl-4-penten-2-ol
##JCAMP-DX=4.24
##DATA TYPE=MASS SPECTRUM
##ORIGIN=NIST Mass Spectrometry Data Center, 1990.
##OWNER=NIST Mass Spectrometry Data Center
Collection (C) 2014 copyright by the U.S. Secretary of Commerce
on behalf of the United States of America. All rights reserved.
##CAS REGISTRY NO=19781-53-4
##$NIST MASS SPEC NO=114550
##MOLFORM=C7 H14 O
##MW=114
##$NIST SOURCE=MSDC
##XUNITS=M/Z
##YUNITS=RELATIVE INTENSITY
##XFACTOR=1
##YFACTOR=1
##FIRSTX=15
##LASTX=99
##FIRSTY=89
##MAXX=99
##MINX=15
##MAXY=9999
##MINY=78
##NPOINTS=35
##PEAK TABLE=(XY..XY)
15,89 26,81 27,619 28,222
29,434 30,81 31,1112 38,166
39,1443 40,353 41,1769 42,81
43,4191 44,127 50,199 51,257
52,105 53,457 54,157 55,887
56,1648 57,309 58,105 59,9999
60,342 65,106 67,185 69,174
77,135 79,418 81,986 82,78
96,229 97,123 99,339
##END=
