##TITLE=4-Ethyl-3-octanol
##JCAMP-DX=4.24
##DATA TYPE=MASS SPECTRUM
##ORIGIN=NIST Mass Spectrometry Data Center, 1990.
##OWNER=NIST Mass Spectrometry Data Center
Collection (C) 2014 copyright by the U.S. Secretary of Commerce
on behalf of the United States of America. All rights reserved.
##CAS REGISTRY NO=19781-26-1
##$NIST MASS SPEC NO=113767
##MOLFORM=C10 H22 O
##MW=158
##$NIST SOURCE=MSDC
##XUNITS=M/Z
##YUNITS=RELATIVE INTENSITY
##XFACTOR=1
##YFACTOR=1
##FIRSTX=27
##LASTX=140
##FIRSTY=1188
##MAXX=140
##MINX=27
##MAXY=9999
##MINY=74
##NPOINTS=35
##PEAK TABLE=(XY..XY)
27,1188 28,670 29,2097 30,670
31,1758 39,764 41,3109 42,524
43,1772 44,138 45,198 53,238
55,1897 56,1037 57,2835 58,2812
59,9999 60,358 67,169 69,2767
70,718 71,343 72,208 73,176
83,191 84,122 85,181 87,150
98,1066 99,133 100,158 111,463
129,855 130,74 140,98
##END=
