##TITLE=2,3-Dimethyl-2-octene
##JCAMP-DX=4.24
##DATA TYPE=MASS SPECTRUM
##ORIGIN=NIST Mass Spectrometry Data Center, 1990.
##OWNER=NIST Mass Spectrometry Data Center
Collection (C) 2014 copyright by the U.S. Secretary of Commerce
on behalf of the United States of America. All rights reserved.
##CAS REGISTRY NO=19781-18-1
##$NIST MASS SPEC NO=113568
##MOLFORM=C10 H20
##MW=140
##$NIST SOURCE=MSDC
##XUNITS=M/Z
##YUNITS=RELATIVE INTENSITY
##XFACTOR=1
##YFACTOR=1
##FIRSTX=26
##LASTX=141
##FIRSTY=118
##MAXX=141
##MINX=26
##MAXY=9999
##MINY=118
##NPOINTS=34
##PEAK TABLE=(XY..XY)
26,118 27,1342 28,547 29,1457
39,2041 40,482 41,4339 42,493
43,1008 51,287 52,143 53,927
55,9999 56,813 57,295 65,341
66,159 67,1425 68,381 69,3708
70,1948 71,222 77,248 79,288
81,460 83,8094 84,2677 85,357
95,136 96,304 97,1729 98,320
140,2543 141,270
##END=
