##TITLE=11-Heneicosanone
##JCAMP-DX=4.24
##DATA TYPE=MASS SPECTRUM
##ORIGIN=Japan AIST/NIMC Database- Spectrum MS-IW-3465
##OWNER=NIST Mass Spectrometry Data Center
Collection (C) 2014 copyright by the U.S. Secretary of Commerce
on behalf of the United States of America. All rights reserved.
##CAS REGISTRY NO=19781-72-7
##$NIST MASS SPEC NO=233002
##MOLFORM=C21 H42 O
##MW=310
##$NIST SOURCE=MSDC
##XUNITS=M/Z
##YUNITS=RELATIVE INTENSITY
##XFACTOR=1
##YFACTOR=1
##FIRSTX=26
##LASTX=312
##FIRSTY=10
##MAXX=312
##MINX=26
##MAXY=9999
##MINY=10
##NPOINTS=149
##PEAK TABLE=(XY..XY)
26,10 27,269 28,109 29,819
30,10 31,10 39,189 40,50
41,1859 42,409 43,3859 44,129
45,30 51,20 52,10 53,119
54,169 55,1919 56,409 57,3489
58,2789 59,1149 60,40 65,40
66,40 67,589 68,289 69,1049
70,329 71,3399 72,389 73,40
77,30 78,20 79,99 80,60
81,809 82,1109 83,949 84,319
85,2119 86,299 87,50 91,30
92,10 93,80 94,40 95,1439
96,1309 97,609 98,329 99,359
100,469 101,70 105,10 107,30
108,30 109,579 110,509 111,239
112,70 113,369 114,339 115,40
121,20 122,40 123,139 124,1849
125,249 126,679 127,679 128,289
129,30 135,20 136,10 137,99
138,80 139,80 140,50 141,469
142,269 143,30 149,40 150,10
151,179 152,70 153,20 154,10
155,179 156,90 157,10 164,10
165,10 166,509 167,159 168,149
169,9999 170,1269 171,99 179,10
180,20 181,10 182,10 183,40
184,3139 185,2609 186,329 187,20
194,20 195,20 196,10 197,1109
198,189 199,20 207,10 208,70
209,10 211,329 212,90 213,10
221,10 222,40 223,20 224,10
225,229 226,169 227,20 237,30
239,80 240,60 241,10 251,40
252,10 253,139 254,50 267,99
268,60 269,10 281,80 282,20
292,80 293,10 295,30 296,10
308,20 309,80 310,949 311,239
312,30
##END=
