##TITLE=2-Dodecen-1-yl(-)succinic anhydride
##JCAMP-DX=4.24
##DATA TYPE=MASS SPECTRUM
##ORIGIN=RADIAN CORP
##OWNER=NIST Mass Spectrometry Data Center
Collection (C) 2014 copyright by the U.S. Secretary of Commerce
on behalf of the United States of America. All rights reserved.
##CAS REGISTRY NO=19780-11-1
##$NIST MASS SPEC NO=76110
##MOLFORM=C16 H26 O3
##MW=266
##$NIST SOURCE=MSDC
##XUNITS=M/Z
##YUNITS=RELATIVE INTENSITY
##XFACTOR=1
##YFACTOR=1
##FIRSTX=27
##LASTX=266
##FIRSTY=2160
##MAXX=266
##MINX=27
##MAXY=9999
##MINY=10
##NPOINTS=120
##PEAK TABLE=(XY..XY)
27,2160 28,740 29,3540 30,40
32,160 39,2340 40,490 41,9999
42,870 43,8990 44,450 45,170
51,380 52,250 53,2270 54,510
55,9710 56,1340 57,5610 58,270
63,30 65,1000 66,350 67,3740
68,730 69,8220 70,1920 71,2920
72,260 73,160 77,1780 78,330
79,2800 80,460 81,3500 82,1650
83,5300 84,1520 85,1940 86,130
91,1720 92,260 93,2130 94,480
95,3510 96,2410 97,3870 98,910
99,830 100,270 103,10 105,670
106,150 107,1940 108,590 109,3340
110,1670 111,2230 112,370 113,130
115,20 117,120 119,360 120,10
121,1600 122,620 123,2580 124,910
125,860 126,190 127,230 131,180
133,240 135,1310 136,570 137,2170
138,470 139,540 140,190 141,240
145,240 147,160 149,960 150,410
151,930 152,270 153,320 154,270
155,220 156,20 159,200 163,760
164,480 165,760 166,890 167,680
168,510 169,150 173,110 177,490
178,280 179,270 180,190 181,660
182,570 183,120 191,350 192,130
193,110 195,600 196,420 197,10
205,210 209,610 210,240 219,100
221,20 223,370 237,220 266,150
##END=
