##TITLE=4-Ethyl-2-octanol
##JCAMP-DX=4.24
##DATA TYPE=MASS SPECTRUM
##ORIGIN=NIST Mass Spectrometry Data Center, 1990.
##OWNER=NIST Mass Spectrometry Data Center
Collection (C) 2014 copyright by the U.S. Secretary of Commerce
on behalf of the United States of America. All rights reserved.
##CAS REGISTRY NO=19780-78-0
##$NIST MASS SPEC NO=113791
##MOLFORM=C10 H22 O
##MW=158
##$NIST SOURCE=MSDC
##XUNITS=M/Z
##YUNITS=RELATIVE INTENSITY
##XFACTOR=1
##YFACTOR=1
##FIRSTX=15
##LASTX=143
##FIRSTY=268
##MAXX=143
##MINX=15
##MAXY=9999
##MINY=174
##NPOINTS=30
##PEAK TABLE=(XY..XY)
15,268 19,280 27,2357 28,1278
29,3321 31,343 39,1722 41,6120
42,1217 43,6220 45,9999 53,539
55,5270 56,4184 57,6254 58,1073
59,920 67,418 69,5430 70,3525
71,1296 81,174 83,2074 84,1958
85,1704 98,6675 99,734 111,784
112,393 143,188
##END=
