##TITLE=Ethylidenecyclooctane
##JCAMP-DX=4.24
##DATA TYPE=MASS SPECTRUM
##ORIGIN=NIST Mass Spectrometry Data Center, 1990.
##OWNER=NIST Mass Spectrometry Data Center
Collection (C) 2014 copyright by the U.S. Secretary of Commerce
on behalf of the United States of America. All rights reserved.
##CAS REGISTRY NO=19780-51-9
##$NIST MASS SPEC NO=113937
##MOLFORM=C10 H18
##MW=138
##$NIST SOURCE=MSDC
##XUNITS=M/Z
##YUNITS=RELATIVE INTENSITY
##XFACTOR=1
##YFACTOR=1
##FIRSTX=14
##LASTX=139
##FIRSTY=139
##MAXX=139
##MINX=14
##MAXY=9999
##MINY=81
##NPOINTS=49
##PEAK TABLE=(XY..XY)
14,139 15,124 16,81 26,259
27,2214 28,198 29,1564 39,4495
40,1043 41,6291 42,982 43,685
50,309 51,905 52,548 53,2699
54,2178 55,5147 56,764 57,139
63,254 65,1141 67,9999 68,2834
69,1743 70,1497 71,380 77,1153
78,325 79,2097 80,1083 81,8337
82,2936 83,927 84,150 91,526
92,93 93,437 94,93 95,3246
96,1383 97,164 107,118 109,3936
110,3300 111,301 123,128 138,2131
139,251
##END=
