##TITLE=Isoxazole, 4-(chloromethyl)-3,5-dimethyl-
##JCAMP-DX=4.24
##DATA TYPE=MASS SPECTRUM
##ORIGIN=Japan AIST/NIMC Database- Spectrum MS-NW-9776
##OWNER=NIST Mass Spectrometry Data Center
Collection (C) 2014 copyright by the U.S. Secretary of Commerce
on behalf of the United States of America. All rights reserved.
##CAS REGISTRY NO=19788-37-5
##$NIST MASS SPEC NO=239155
##MOLFORM=C6 H8 Cl N O
##MW=145
##$NIST SOURCE=MSDC
##XUNITS=M/Z
##YUNITS=RELATIVE INTENSITY
##XFACTOR=1
##YFACTOR=1
##FIRSTX=14
##LASTX=148
##FIRSTY=40
##MAXX=148
##MINX=14
##MAXY=9999
##MINY=10
##NPOINTS=67
##PEAK TABLE=(XY..XY)
14,40 15,399 25,10 26,179
27,189 28,90 29,20 30,10
35,10 36,99 37,50 38,119
39,349 40,169 41,359 42,1289
43,3869 44,90 45,10 49,80
50,80 51,179 52,209 53,199
54,159 55,50 60,10 61,80
62,20 63,60 64,30 65,40
66,459 67,249 68,5909 69,569
70,40 73,20 74,10 75,30
76,99 77,60 78,30 79,20
80,20 81,10 82,30 83,10
87,10 88,10 89,40 91,10
95,10 96,10 102,80 104,20
109,70 110,9999 111,709 112,40
124,10 125,10 130,10 145,1589
146,169 147,529 148,50
##END=
