##TITLE=2,4-Dimethyl-1-penten-3-ol
##JCAMP-DX=4.24
##DATA TYPE=MASS SPECTRUM
##ORIGIN=NIST Mass Spectrometry Data Center, 1990.
##OWNER=NIST Mass Spectrometry Data Center
Collection (C) 2014 copyright by the U.S. Secretary of Commerce
on behalf of the United States of America. All rights reserved.
##CAS REGISTRY NO=19781-54-5
##$NIST MASS SPEC NO=114545
##MOLFORM=C7 H14 O
##MW=114
##$NIST SOURCE=MSDC
##XUNITS=M/Z
##YUNITS=RELATIVE INTENSITY
##XFACTOR=1
##YFACTOR=1
##FIRSTX=26
##LASTX=114
##FIRSTY=109
##MAXX=114
##MINX=26
##MAXY=9999
##MINY=76
##NPOINTS=35
##PEAK TABLE=(XY..XY)
26,109 27,893 28,268 29,502
31,216 38,249 39,1887 40,368
41,2714 42,539 43,5615 44,271
45,269 50,131 51,201 52,131
53,582 54,236 55,862 56,211
57,1258 58,130 65,113 67,212
69,276 71,9999 72,1328 73,189
77,139 79,365 81,788 82,76
96,218 99,266 114,353
##END=
