##TITLE=3-Hexanol, 4-ethyl-
##JCAMP-DX=4.24
##DATA TYPE=MASS SPECTRUM
##ORIGIN=NIST Mass Spectrometry Data Center, 1990.
##OWNER=NIST Mass Spectrometry Data Center
Collection (C) 2014 copyright by the U.S. Secretary of Commerce
on behalf of the United States of America. All rights reserved.
##CAS REGISTRY NO=19780-44-0
##$NIST MASS SPEC NO=113776
##MOLFORM=C8 H18 O
##MW=130
##$NIST SOURCE=MSDC
##XUNITS=M/Z
##YUNITS=RELATIVE INTENSITY
##XFACTOR=1
##YFACTOR=1
##FIRSTX=15
##LASTX=102
##FIRSTY=109
##MAXX=102
##MINX=15
##MAXY=9999
##MINY=84
##NPOINTS=28
##PEAK TABLE=(XY..XY)
15,109 27,1307 28,669 29,1625
30,109 31,1918 32,110 39,810
41,2257 42,413 43,1787 44,139
45,512 53,233 55,1882 56,206
57,1169 58,2075 59,9999 60,334
69,175 70,1293 71,473 72,142
83,925 84,96 101,961 102,84
##END=
