##TITLE=3,3-Dimethyl-2-pentanol
##JCAMP-DX=4.24
##DATA TYPE=MASS SPECTRUM
##ORIGIN=NIST Mass Spectrometry Data Center, 1990.
##OWNER=NIST Mass Spectrometry Data Center
Collection (C) 2014 copyright by the U.S. Secretary of Commerce
on behalf of the United States of America. All rights reserved.
##CAS REGISTRY NO=19781-24-9
##$NIST MASS SPEC NO=114537
##MOLFORM=C7 H16 O
##MW=116
##$NIST SOURCE=MSDC
##XUNITS=M/Z
##YUNITS=RELATIVE INTENSITY
##XFACTOR=1
##YFACTOR=1
##FIRSTX=15
##LASTX=101
##FIRSTY=151
##MAXX=101
##MINX=15
##MAXY=9999
##MINY=108
##NPOINTS=30
##PEAK TABLE=(XY..XY)
15,151 27,1396 28,242 29,1356
31,248 39,1889 40,417 41,3924
42,1145 43,9999 44,708 45,6105
46,151 50,143 51,232 53,604
55,3849 56,459 57,1305 59,1344
65,108 67,235 69,2248 70,8923
71,8590 72,525 83,913 87,1177
98,272 101,544
##END=
