##TITLE=Tridecane, 3-methylene-
##JCAMP-DX=4.24
##DATA TYPE=MASS SPECTRUM
##OWNER=NIST Mass Spectrometry Data Center
Collection (C) 2014 copyright by the U.S. Secretary of Commerce
on behalf of the United States of America. All rights reserved.
##CAS REGISTRY NO=19780-34-8
##$NIST MASS SPEC NO=8619
##MOLFORM=C14 H28
##MW=196
##$NIST SOURCE=MSDC
##XUNITS=M/Z
##YUNITS=RELATIVE INTENSITY
##XFACTOR=1
##YFACTOR=1
##FIRSTX=13
##LASTX=198
##FIRSTY=10
##MAXX=198
##MINX=13
##MAXY=9999
##MINY=10
##NPOINTS=107
##PEAK TABLE=(XY..XY)
13,10 14,90 15,130 16,20
24,10 25,10 26,80 27,1782
28,841 29,2622 30,60 37,20
38,40 39,1181 40,280 41,4774
42,1311 43,2662 44,120 45,10
46,10 47,10 50,30 51,80
52,60 53,520 54,440 55,4914
56,1171 57,1111 58,50 59,10
61,10 62,10 63,20 64,10
65,80 66,60 67,561 68,240
69,1702 70,9999 71,2602 72,130
73,10 74,10 75,10 76,10
77,60 78,30 79,80 80,30
81,210 82,210 83,1611 84,410
85,220 86,20 89,10 91,50
92,10 93,10 94,10 95,70
96,60 97,520 98,120 99,20
103,10 104,10 105,20 106,10
107,10 109,30 110,10 111,270
112,50 113,10 115,10 117,10
119,10 123,10 124,10 125,70
126,80 127,10 133,10 138,10
139,20 140,20 141,10 143,10
145,10 147,10 153,10 154,10
155,10 166,30 167,130 168,50
169,10 181,10 193,10 194,10
196,270 197,40 198,10
##END=
