##TITLE=3-Octanol, 2,3-dimethyl-
##JCAMP-DX=4.24
##DATA TYPE=MASS SPECTRUM
##ORIGIN=NIST Mass Spectrometry Data Center, 1990.
##OWNER=NIST Mass Spectrometry Data Center
Collection (C) 2014 copyright by the U.S. Secretary of Commerce
on behalf of the United States of America. All rights reserved.
##CAS REGISTRY NO=19781-10-3
##$NIST MASS SPEC NO=113724
##MOLFORM=C10 H22 O
##MW=158
##$NIST SOURCE=MSDC
##XUNITS=M/Z
##YUNITS=RELATIVE INTENSITY
##XFACTOR=1
##YFACTOR=1
##FIRSTX=15
##LASTX=143
##FIRSTY=221
##MAXX=143
##MINX=15
##MAXY=9999
##MINY=202
##NPOINTS=32
##PEAK TABLE=(XY..XY)
15,221 27,1856 28,927 29,1980
31,315 39,1371 41,4540 42,666
43,5158 45,3138 53,410 55,5812
56,575 57,1444 58,1132 59,1111
67,393 69,4729 70,810 71,1734
73,329 83,1242 84,627 85,263
87,9999 88,600 97,2120 98,202
115,5506 116,395 140,405 143,641
##END=
