##TITLE=Dimethyl 2-methyladipate
##JCAMP-DX=4.24
##DATA TYPE=MASS SPECTRUM
##ORIGIN=NIST Mass Spectrometry Data Center, 1990.
##OWNER=NIST Mass Spectrometry Data Center
Collection (C) 2014 copyright by the U.S. Secretary of Commerce
on behalf of the United States of America. All rights reserved.
##CAS REGISTRY NO=19780-94-0
##$NIST MASS SPEC NO=114627
##MOLFORM=C9 H16 O4
##MW=188
##$NIST SOURCE=MSDC
##XUNITS=M/Z
##YUNITS=RELATIVE INTENSITY
##XFACTOR=1
##YFACTOR=1
##FIRSTX=14
##LASTX=158
##FIRSTY=285
##MAXX=158
##MINX=14
##MAXY=9999
##MINY=176
##NPOINTS=61
##PEAK TABLE=(XY..XY)
14,285 15,773 26,184 27,1265
28,290 29,1411 30,176 31,602
39,2071 40,697 41,5063 42,2778
43,2145 44,205 45,1086 48,275
49,285 51,179 53,851 55,5388
56,1675 57,2229 59,9918 60,333
65,205 67,732 68,3081 69,9999
70,795 71,510 72,183 73,821
74,3379 75,183 81,311 82,373
83,465 85,636 87,2998 88,9471
89,432 95,218 96,1182 97,4808
98,397 99,228 100,462 101,1832
102,355 113,1569 114,1322 115,3342
116,239 124,278 125,515 128,6071
129,3462 130,282 156,663 157,2638
158,241
##END=
