##TITLE=3-Ethyl-4-methyl-2-pentene
##JCAMP-DX=4.24
##DATA TYPE=MASS SPECTRUM
##ORIGIN=NIST Mass Spectrometry Data Center, 1990.
##OWNER=NIST Mass Spectrometry Data Center
Collection (C) 2014 copyright by the U.S. Secretary of Commerce
on behalf of the United States of America. All rights reserved.
##CAS REGISTRY NO=19780-68-8
##$NIST MASS SPEC NO=113448
##MOLFORM=C8 H16
##MW=112
##$NIST SOURCE=MSDC
##XUNITS=M/Z
##YUNITS=RELATIVE INTENSITY
##XFACTOR=1
##YFACTOR=1
##FIRSTX=15
##LASTX=113
##FIRSTY=204
##MAXX=113
##MINX=15
##MAXY=9999
##MINY=64
##NPOINTS=40
##PEAK TABLE=(XY..XY)
15,204 27,977 28,405 29,622
39,2288 40,502 41,4023 42,430
43,898 44,95 50,220 51,522
52,250 53,1132 54,95 55,9999
56,744 57,381 62,81 63,188
65,478 66,213 67,1154 68,371
69,3195 70,938 77,306 78,94
79,443 80,93 81,367 82,93
83,7049 84,578 91,64 95,81
97,1539 98,122 112,2621 113,261
##END=
