##TITLE=8-Hexadecyne
##JCAMP-DX=4.24
##DATA TYPE=MASS SPECTRUM
##ORIGIN=Japan AIST/NIMC Database- Spectrum MS-NW-5315
##OWNER=NIST Mass Spectrometry Data Center
Collection (C) 2014 copyright by the U.S. Secretary of Commerce
on behalf of the United States of America. All rights reserved.
##CAS REGISTRY NO=19781-86-3
##$NIST MASS SPEC NO=233099
##MOLFORM=C16 H30
##MW=222
##$NIST SOURCE=MSDC
##XUNITS=M/Z
##YUNITS=RELATIVE INTENSITY
##XFACTOR=1
##YFACTOR=1
##FIRSTX=14
##LASTX=223
##FIRSTY=20
##MAXX=223
##MINX=14
##MAXY=9999
##MINY=10
##NPOINTS=144
##PEAK TABLE=(XY..XY)
14,20 15,40 25,10 26,90
27,1849 28,209 29,2909 30,70
31,10 36,10 37,10 38,50
39,1519 40,329 41,6159 42,869
43,5569 44,189 45,20 50,70
51,319 52,559 53,1429 54,6249
55,6799 56,1179 57,1349 58,70
59,10 60,30 61,10 62,20
63,90 64,30 65,629 66,669
67,9999 68,3129 69,3309 70,479
71,269 72,20 73,20 74,10
75,10 76,10 77,829 78,249
79,1719 80,719 81,9879 82,4119
83,2489 84,329 85,129 86,10
87,10 89,20 90,10 91,569
92,119 93,689 94,249 95,6359
96,2499 97,1229 98,159 99,30
101,10 102,10 103,30 104,20
105,139 106,30 107,259 108,119
109,3119 110,1849 111,409 112,40
113,40 115,40 116,10 117,40
118,10 119,40 120,10 121,119
122,60 123,2109 124,619 125,90
126,10 127,20 128,20 129,20
130,10 131,10 133,30 134,10
135,60 136,30 137,569 138,269
139,60 140,10 141,10 143,10
145,10 147,10 149,20 150,10
151,329 152,139 153,60 154,20
155,10 161,10 163,30 164,10
165,299 166,80 167,30 168,10
177,10 178,20 179,429 180,169
181,30 191,20 192,10 193,109
194,20 195,10 202,10 203,10
204,10 207,20 208,10 218,10
220,20 221,10 222,40 223,10
##END=
