##TITLE=3-Ethyl-3-phenyl-1-pentene
##JCAMP-DX=4.24
##DATA TYPE=MASS SPECTRUM
##ORIGIN=NIST Mass Spectrometry Data Center, 1990.
##OWNER=NIST Mass Spectrometry Data Center
Collection (C) 2014 copyright by the U.S. Secretary of Commerce
on behalf of the United States of America. All rights reserved.
##CAS REGISTRY NO=19781-34-1
##$NIST MASS SPEC NO=113606
##MOLFORM=C13 H18
##MW=174
##$NIST SOURCE=MSDC
##XUNITS=M/Z
##YUNITS=RELATIVE INTENSITY
##XFACTOR=1
##YFACTOR=1
##FIRSTX=26
##LASTX=175
##FIRSTY=127
##MAXX=175
##MINX=26
##MAXY=9999
##MINY=103
##NPOINTS=48
##PEAK TABLE=(XY..XY)
26,127 27,1027 28,645 29,810
32,129 39,1047 40,151 41,1088
50,239 51,808 52,206 53,288
55,247 62,121 63,465 64,145
65,855 66,103 67,563 74,118
75,138 76,208 77,1067 78,358
79,320 89,426 91,3446 92,257
102,348 103,763 104,376 105,1353
106,139 115,2401 116,726 117,4022
118,451 127,412 128,1226 129,1197
130,1253 131,386 141,130 143,642
145,9999 146,1291 174,1230 175,180
##END=
