##TITLE=Methyl ethyl cyclopentene
##JCAMP-DX=4.24
##DATA TYPE=MASS SPECTRUM
##ORIGIN=NIST Mass Spectrometry Data Center, 1990.
##OWNER=NIST Mass Spectrometry Data Center
Collection (C) 2014 copyright by the U.S. Secretary of Commerce
on behalf of the United States of America. All rights reserved.
##CAS REGISTRY NO=19780-56-4
##$NIST MASS SPEC NO=113475
##MOLFORM=C8 H14
##MW=110
##$NIST SOURCE=MSDC
##XUNITS=M/Z
##YUNITS=RELATIVE INTENSITY
##XFACTOR=1
##YFACTOR=1
##FIRSTX=15
##LASTX=111
##FIRSTY=176
##MAXX=111
##MINX=15
##MAXY=9999
##MINY=53
##NPOINTS=42
##PEAK TABLE=(XY..XY)
15,176 26,106 27,829 28,367
29,373 32,56 39,1899 40,377
41,1644 42,132 43,139 44,65
50,346 51,801 52,366 53,1416
54,310 55,1291 56,118 62,116
63,290 65,764 67,4292 68,836
69,377 74,60 77,1237 78,331
79,2359 80,60 81,9999 82,1074
83,53 91,649 92,94 93,684
94,53 95,5162 96,382 109,442
110,3119 111,251
##END=
