##TITLE=N-(.beta.-Hydroxyethyl)-4-(.gamma.-hydroxypropyl)piperidine
##JCAMP-DX=4.24
##DATA TYPE=MASS SPECTRUM
##ORIGIN=NIST Mass Spectrometry Data Center
##OWNER=NIST Mass Spectrometry Data Center
Collection (C) 2014 copyright by the U.S. Secretary of Commerce
on behalf of the United States of America. All rights reserved.
##CAS REGISTRY NO=19780-85-9
##$NIST MASS SPEC NO=341025
##MOLFORM=C10 H21 N O2
##MW=187
##$NIST SOURCE=MSDC
##XUNITS=M/Z
##YUNITS=RELATIVE INTENSITY
##XFACTOR=1
##YFACTOR=1
##FIRSTX=27
##LASTX=188
##FIRSTY=90
##MAXX=188
##MINX=27
##MAXY=9999
##MINY=10
##NPOINTS=80
##PEAK TABLE=(XY..XY)
27,90 29,150 30,80 31,310
39,150 40,10 41,550 42,871
43,260 44,2162 45,240 51,20
52,10 53,180 54,140 55,801
56,440 57,150 58,170 65,60
66,20 67,731 68,200 69,340
70,1021 71,90 72,50 73,20
74,160 77,50 78,10 79,120
80,80 81,130 82,230 83,60
84,70 85,10 86,10 88,40
91,40 92,10 93,140 94,60
95,310 96,470 97,170 98,60
99,10 100,230 101,10 105,10
106,10 107,10 108,40 109,40
110,150 111,20 112,90 113,10
122,10 123,10 124,110 125,60
126,90 127,10 128,80 136,10
138,40 140,10 142,180 143,10
154,80 156,9999 157,1091 158,70
170,20 186,150 187,90 188,20
##END=
