##TITLE=6-Hepten-3-ol
##JCAMP-DX=4.24
##DATA TYPE=MASS SPECTRUM
##ORIGIN=NIST Mass Spectrometry Data Center, 1990.
##OWNER=NIST Mass Spectrometry Data Center
Collection (C) 2014 copyright by the U.S. Secretary of Commerce
on behalf of the United States of America. All rights reserved.
##CAS REGISTRY NO=19781-77-2
##$NIST MASS SPEC NO=113756
##MOLFORM=C7 H14 O
##MW=114
##$NIST SOURCE=MSDC
##XUNITS=M/Z
##YUNITS=RELATIVE INTENSITY
##XFACTOR=1
##YFACTOR=1
##FIRSTX=14
##LASTX=97
##FIRSTY=95
##MAXX=97
##MINX=14
##MAXY=9999
##MINY=91
##NPOINTS=49
##PEAK TABLE=(XY..XY)
14,95 15,398 16,100 18,280
19,108 26,619 27,4734 28,2014
29,5896 30,489 31,5723 32,91
37,121 38,410 39,4864 40,1103
41,9999 42,1089 43,4890 44,979
45,356 50,375 51,515 52,253
53,1279 54,4747 55,4864 56,2599
57,5262 58,721 59,8182 60,293
65,494 67,6465 68,708 69,143
71,191 72,1453 73,115 77,211
79,440 81,4387 82,296 83,201
84,115 85,1954 86,115 96,1551
97,133
##END=
