##TITLE=Ethyl 2,3-epoxybutyrate
##JCAMP-DX=4.24
##DATA TYPE=MASS SPECTRUM
##ORIGIN=Japan AIST/NIMC Database- Spectrum MS-NW-8944
##OWNER=NIST Mass Spectrometry Data Center
Collection (C) 2014 copyright by the U.S. Secretary of Commerce
on behalf of the United States of America. All rights reserved.
##CAS REGISTRY NO=19780-35-9
##$NIST MASS SPEC NO=238383
##MOLFORM=C6 H10 O3
##MW=130
##$NIST SOURCE=MSDC
##XUNITS=M/Z
##YUNITS=RELATIVE INTENSITY
##XFACTOR=1
##YFACTOR=1
##FIRSTX=14
##LASTX=131
##FIRSTY=50
##MAXX=131
##MINX=14
##MAXY=9999
##MINY=10
##NPOINTS=59
##PEAK TABLE=(XY..XY)
14,50 15,199 18,20 26,289
27,1869 28,929 29,5969 30,339
31,779 32,50 38,30 39,239
40,99 41,379 42,309 43,1669
44,149 45,9999 46,289 47,70
53,20 54,10 55,279 56,169
57,3259 58,1359 59,139 60,30
61,60 68,40 69,579 70,80
71,449 72,30 73,1729 74,1799
75,199 76,139 83,20 84,839
85,1229 86,129 87,399 88,60
89,20 99,70 100,10 101,50
102,3349 103,209 104,70 113,20
114,10 115,199 116,20 128,10
129,20 130,10 131,20
##END=
