##TITLE=3-Ethyl-3-heptanol
##JCAMP-DX=4.24
##DATA TYPE=MASS SPECTRUM
##ORIGIN=NIST Mass Spectrometry Data Center, 1990.
##OWNER=NIST Mass Spectrometry Data Center
Collection (C) 2014 copyright by the U.S. Secretary of Commerce
on behalf of the United States of America. All rights reserved.
##CAS REGISTRY NO=19780-41-7
##$NIST MASS SPEC NO=113793
##MOLFORM=C9 H20 O
##MW=144
##$NIST SOURCE=MSDC
##XUNITS=M/Z
##YUNITS=RELATIVE INTENSITY
##XFACTOR=1
##YFACTOR=1
##FIRSTX=15
##LASTX=126
##FIRSTY=219
##MAXX=126
##MINX=15
##MAXY=9999
##MINY=162
##NPOINTS=35
##PEAK TABLE=(XY..XY)
15,219 26,306 27,3060 28,1454
29,4346 30,162 31,1012 32,173
39,1895 41,4910 42,704 43,3534
45,5060 51,256 53,804 55,9999
56,1127 57,3347 59,5046 65,216
67,585 69,3984 70,459 71,660
72,280 73,974 83,242 84,1310
85,502 87,9142 88,580 97,2040
115,8382 116,662 126,732
##END=
