##TITLE=Perylene
##JCAMP-DX=4.24
##DATA TYPE=MASS SPECTRUM
##ORIGIN=R. C. LAO, R. S. THOMAS, J. L. MONKMAN
##OWNER=NIST Mass Spectrometry Data Center
Collection (C) 2014 copyright by the U.S. Secretary of Commerce
on behalf of the United States of America. All rights reserved.
##CAS REGISTRY NO=198-55-0
##$NIST MASS SPEC NO=27346
##MOLFORM=C20 H12
##MW=252
##$NIST SOURCE=MSDC
##XUNITS=M/Z
##YUNITS=RELATIVE INTENSITY
##XFACTOR=1
##YFACTOR=1
##FIRSTX=37
##LASTX=255
##FIRSTY=14
##MAXX=255
##MINX=37
##MAXY=9999
##MINY=3
##NPOINTS=131
##PEAK TABLE=(XY..XY)
37,14 39,36 40,7 41,21
42,14 43,14 50,28 51,40
52,10 53,7 54,3 55,11
56,10 57,9 61,4 62,21
63,50 64,9 65,9 67,9
68,9 69,10 70,10 73,7
74,50 75,48 76,27 77,71
78,15 79,7 80,7 81,5
82,4 83,46 84,97 85,7
86,35 87,83 88,25 89,10
91,7 93,5 96,7 97,4
98,43 99,148 100,93 103,16
104,7 105,160 106,23 107,7
108,7 109,7 110,27 111,204
112,532 113,480 114,15 117,8
118,10 119,14 120,5 122,31
123,106 124,723 125,1704 126,2182
127,59 134,21 135,21 136,7
137,7 146,16 147,14 148,13
149,19 150,34 151,14 154,7
158,10 159,7 161,14 162,11
163,17 173,10 174,44 175,17
176,13 184,4 185,14 186,14
187,23 188,16 189,9 190,7
197,14 198,57 199,38 200,67
201,33 202,20 209,7 210,7
211,28 212,9 213,16 220,9
221,24 222,114 223,100 224,235
225,135 226,135 227,24 230,14
231,11 235,11 236,7 237,17
245,21 246,90 247,151 248,580
249,410 250,2180 251,690 252,9999
253,2240 254,234 255,17
##END=
