##TITLE=4-Cyano-4'-hydroxybiphenyl
##JCAMP-DX=4.24
##DATA TYPE=MASS SPECTRUM
##ORIGIN=NIST Mass Spectrometry Data Center, 1994
##OWNER=NIST Mass Spectrometry Data Center
Collection (C) 2014 copyright by the U.S. Secretary of Commerce
on behalf of the United States of America. All rights reserved.
##CAS REGISTRY NO=19812-93-2
##$NIST MASS SPEC NO=135434
##MOLFORM=C13 H9 N O
##MW=195
##$NIST SOURCE=MSDC
##XUNITS=M/Z
##YUNITS=RELATIVE INTENSITY
##XFACTOR=1
##YFACTOR=1
##FIRSTX=11
##LASTX=197
##FIRSTY=10
##MAXX=197
##MINX=11
##MAXY=9999
##MINY=10
##NPOINTS=114
##PEAK TABLE=(XY..XY)
11,10 12,10 14,30 15,12
17,24 18,56 26,145 27,314
28,166 29,149 37,135 38,251
39,822 40,103 41,17 42,45
43,44 44,24 49,39 50,458
51,488 52,150 53,242 54,17
55,572 56,63 57,56 61,145
62,468 63,840 64,273 65,184
66,80 67,27 68,77 69,27
70,354 71,299 73,55 74,338
75,479 76,265 77,226 78,32
79,32 83,126 84,184 85,97
86,228 87,319 88,299 89,318
90,80 91,33 92,24 94,68
98,393 99,134 100,136 101,141
102,123 103,48 104,16 109,18
110,53 111,101 112,91 113,450
114,297 115,326 116,100 118,48
122,17 123,33 124,34 125,58
126,87 127,179 128,73 129,16
130,15 131,15 136,15 137,113
138,239 139,1081 140,1710 141,330
142,51 143,13 144,37 149,29
150,88 151,98 152,85 153,71
154,34 155,25 156,19 164,403
166,2044 167,460 168,102 169,91
170,10 175,28 176,68 177,123
178,75 180,53 193,131 195,9999
196,1481 197,113
##END=
