##TITLE=1,14-Tetradecanediol
##JCAMP-DX=4.24
##DATA TYPE=MASS SPECTRUM
##ORIGIN=RADIAN CORP
##OWNER=NIST Mass Spectrometry Data Center
Collection (C) 2014 copyright by the U.S. Secretary of Commerce
on behalf of the United States of America. All rights reserved.
##CAS REGISTRY NO=19812-64-7
##$NIST MASS SPEC NO=73582
##MOLFORM=C14 H30 O2
##MW=230
##$NIST SOURCE=MSDC
##XUNITS=M/Z
##YUNITS=RELATIVE INTENSITY
##XFACTOR=1
##YFACTOR=1
##FIRSTX=27
##LASTX=124
##FIRSTY=440
##MAXX=124
##MINX=27
##MAXY=9999
##MINY=120
##NPOINTS=36
##PEAK TABLE=(XY..XY)
27,440 29,1440 31,3980 39,720
41,5790 42,1280 43,2950 44,290
45,300 53,380 54,2080 55,9999
56,2090 57,2240 66,350 67,5240
68,4730 69,5740 70,1430 71,940
73,450 79,210 81,4390 82,6720
83,3550 84,640 85,390 95,3040
96,2930 97,1600 98,160 109,1100
110,780 111,380 123,290 124,120
##END=
