##TITLE=Urea, N-(2-methylcyclohexyl)-N'-phenyl-
##JCAMP-DX=4.24
##DATA TYPE=MASS SPECTRUM
##ORIGIN=MASS SPECTROMETRY CENTER, UNIV. OF UTAH. EPA-PTSEL, 6100
##OWNER=NIST Mass Spectrometry Data Center
Collection (C) 2014 copyright by the U.S. Secretary of Commerce
on behalf of the United States of America. All rights reserved.
##CAS REGISTRY NO=1982-49-6
##$NIST MASS SPEC NO=52349
##MOLFORM=C14 H20 N2 O
##MW=232
##$NIST SOURCE=MSDC
##XUNITS=M/Z
##YUNITS=RELATIVE INTENSITY
##XFACTOR=1
##YFACTOR=1
##FIRSTX=14
##LASTX=233
##FIRSTY=57
##MAXX=233
##MINX=14
##MAXY=9999
##MINY=7
##NPOINTS=61
##PEAK TABLE=(XY..XY)
14,57 15,57 16,32 18,58
26,51 27,587 28,600 29,548
30,487 37,47 38,151 39,837
40,197 41,1247 42,444 43,1087
44,198 45,7 50,133 51,394
52,148 53,216 54,219 55,1653
56,1601 57,253 63,156 64,217
65,623 66,548 67,264 68,133
69,215 70,515 71,8 76,25
77,789 78,82 79,34 81,149
82,93 83,17 84,33 91,265
92,442 93,9999 94,1237 95,141
96,40 97,254 98,28 112,121
113,34 119,347 120,154 135,201
136,200 137,207 160,13 232,474
233,61
##END=
