##TITLE=1(2H)-Naphthalenone, 3,4-dihydro-4-methyl-
##JCAMP-DX=4.24
##DATA TYPE=MASS SPECTRUM
##OWNER=NIST Mass Spectrometry Data Center
Collection (C) 2014 copyright by the U.S. Secretary of Commerce
on behalf of the United States of America. All rights reserved.
##CAS REGISTRY NO=19832-98-5
##$NIST MASS SPEC NO=5683
##MOLFORM=C11 H12 O
##MW=160
##$NIST SOURCE=MSDC
##XUNITS=M/Z
##YUNITS=RELATIVE INTENSITY
##XFACTOR=1
##YFACTOR=1
##FIRSTX=12
##LASTX=162
##FIRSTY=40
##MAXX=162
##MINX=12
##MAXY=9999
##MINY=10
##NPOINTS=100
##PEAK TABLE=(XY..XY)
12,40 13,40 14,190 15,831
16,50 17,70 18,230 25,20
26,430 27,2202 28,871 29,410
30,10 37,130 38,410 39,2322
40,200 41,350 42,140 43,160
44,70 45,60 49,90 50,1491
51,2823 52,651 53,540 54,60
55,320 56,60 57,300 58,410
59,90 61,140 62,550 63,1551
64,510 65,1011 66,330 70,30
71,120 72,70 73,80 74,621
75,661 76,761 77,2562 78,2132
79,280 81,50 85,60 86,140
87,220 88,120 89,771 90,460
91,1822 92,140 97,10 98,120
99,50 100,10 101,230 102,1161
103,3063 104,8438 105,1191 106,60
110,10 113,110 114,160 115,3123
116,991 117,3153 118,5295 119,540
120,20 126,60 127,340 128,611
129,470 130,310 131,1992 132,9999
133,1001 134,60 139,10 141,100
142,130 143,80 144,150 145,6606
146,741 147,40 157,50 158,120
159,210 160,9549 161,1161 162,70
##END=
