##TITLE=Benzene, 1-isocyano-4-nitro-
##JCAMP-DX=4.24
##DATA TYPE=MASS SPECTRUM
##OWNER=NIST Mass Spectrometry Data Center
Collection (C) 2014 copyright by the U.S. Secretary of Commerce
on behalf of the United States of America. All rights reserved.
##CAS REGISTRY NO=1984-23-2
##$NIST MASS SPEC NO=4536
##MOLFORM=C7 H4 N2 O2
##MW=148
##$NIST SOURCE=MSDC
##XUNITS=M/Z
##YUNITS=RELATIVE INTENSITY
##XFACTOR=1
##YFACTOR=1
##FIRSTX=50
##LASTX=149
##FIRSTY=4104
##MAXX=149
##MINX=50
##MAXY=9999
##MINY=100
##NPOINTS=16
##PEAK TABLE=(XY..XY)
50,4104 51,4804 52,500 74,1902
75,6906 76,3904 77,400 90,2702
91,300 102,9999 103,1201 104,100
118,2702 119,300 148,9208 149,801
##END=
