##TITLE=3-Methoxy-2,5-dimethylpyrazine
##JCAMP-DX=4.24
##DATA TYPE=MASS SPECTRUM
##ORIGIN=W.V. BROWN, CSIRO, BLACK MOUNTAIN, CANBERRA CITY, AUSTRALIA
##OWNER=NIST Mass Spectrometry Data Center
Collection (C) 2014 copyright by the U.S. Secretary of Commerce
on behalf of the United States of America. All rights reserved.
##CAS REGISTRY NO=19846-22-1
##$NIST MASS SPEC NO=99177
##MOLFORM=C7 H10 N2 O
##MW=138
##$NIST SOURCE=MSDC
##XUNITS=M/Z
##YUNITS=RELATIVE INTENSITY
##XFACTOR=1
##YFACTOR=1
##FIRSTX=37
##LASTX=139
##FIRSTY=172
##MAXX=139
##MINX=37
##MAXY=9999
##MINY=69
##NPOINTS=43
##PEAK TABLE=(XY..XY)
37,172 38,448 39,1793 40,345
41,655 42,3103 43,172 50,69
51,310 52,1379 53,1000 54,3793
55,966 56,690 58,241 64,172
65,103 66,310 67,414 68,655
69,172 70,207 78,69 79,414
80,414 81,345 82,931 83,69
93,241 94,103 95,1310 96,172
105,69 106,138 107,1759 108,1655
109,3793 110,310 123,3793 124,276
137,3966 138,9999 139,828
##END=
