##TITLE=(3Z,5E)-1,3,5-Undecatriene
##JCAMP-DX=4.24
##DATA TYPE=MASS SPECTRUM
##ORIGIN=E.GIRAUDI, CENT. RECHERCHE, ROURE BERTRAND DUPONT, GRASSE, FR.
##OWNER=NIST Mass Spectrometry Data Center
Collection (C) 2014 copyright by the U.S. Secretary of Commerce
on behalf of the United States of America. All rights reserved.
##CAS REGISTRY NO=19883-27-3
##$NIST MASS SPEC NO=100751
##MOLFORM=C11 H18
##MW=150
##$NIST SOURCE=MSDC
##XUNITS=M/Z
##YUNITS=RELATIVE INTENSITY
##XFACTOR=1
##YFACTOR=1
##FIRSTX=39
##LASTX=151
##FIRSTY=1540
##MAXX=151
##MINX=39
##MAXY=9999
##MINY=4
##NPOINTS=30
##PEAK TABLE=(XY..XY)
39,1540 40,315 41,1891 42,13
43,135 50,12 51,425 52,279
53,520 54,64 55,278 63,62
65,852 66,777 67,679 68,4
77,4138 78,1468 79,9999 80,4411
81,379 91,3175 92,351 93,1278
94,256 96,10 105,9 107,18
150,1974 151,181
##END=
