##TITLE=Phenol, 4-(1-phenylethyl)-
##JCAMP-DX=4.24
##DATA TYPE=MASS SPECTRUM
##ORIGIN=V.G.Zaikin, TIPS, Russian Acad. Sci.
##OWNER=NIST Mass Spectrometry Data Center
Collection (C) 2014 copyright by the U.S. Secretary of Commerce
on behalf of the United States of America. All rights reserved.
##CAS REGISTRY NO=1988-89-2
##$NIST MASS SPEC NO=215449
##MOLFORM=C14 H14 O
##MW=198
##$NIST SOURCE=MSDC
##XUNITS=M/Z
##YUNITS=RELATIVE INTENSITY
##XFACTOR=1
##YFACTOR=1
##FIRSTX=51
##LASTX=200
##FIRSTY=500
##MAXX=200
##MINX=51
##MAXY=9999
##MINY=41
##NPOINTS=14
##PEAK TABLE=(XY..XY)
51,500 55,600 77,900 91,800
120,200 121,500 152,500 153,600
165,1401 181,700 183,9999 198,4003
199,620 200,41
##END=
