##TITLE=Nitroscanate
##JCAMP-DX=4.24
##DATA TYPE=MASS SPECTRUM
##ORIGIN=NIST Mass Spectrometry Data Center, 1994
##OWNER=NIST Mass Spectrometry Data Center
Collection (C) 2014 copyright by the U.S. Secretary of Commerce
on behalf of the United States of America. All rights reserved.
##CAS REGISTRY NO=19881-18-6
##$NIST MASS SPEC NO=134992
##MOLFORM=C13 H8 N2 O3 S
##MW=272
##$NIST SOURCE=MSDC
##XUNITS=M/Z
##YUNITS=RELATIVE INTENSITY
##XFACTOR=1
##YFACTOR=1
##FIRSTX=17
##LASTX=275
##FIRSTY=35
##MAXX=275
##MINX=17
##MAXY=9999
##MINY=25
##NPOINTS=133
##PEAK TABLE=(XY..XY)
17,35 18,78 26,89 27,127
28,203 29,35 30,578 32,83
37,178 38,550 39,760 40,50
44,73 45,403 46,78 47,28
50,2357 51,639 52,254 53,133
54,67 57,37 58,49 61,110
62,465 63,2004 64,1308 65,214
66,45 69,267 70,346 71,49
72,109 73,75 74,697 75,1167
76,1266 77,218 78,299 79,67
80,90 81,49 82,91 83,107
84,168 85,25 86,114 87,81
88,89 89,164 90,1385 91,157
92,459 93,104 94,88 95,252
96,289 97,36 98,41 99,49
101,91 102,225 107,395 108,210
109,42 113,155 114,155 115,305
116,56 120,30 122,1458 123,155
124,71 125,28 126,71 127,329
128,491 129,59 134,1121 135,104
136,139 137,53 138,28 139,1502
140,1298 141,150 142,25 148,52
150,820 151,162 152,165 153,87
154,341 155,93 156,127 159,65
164,77 165,40 166,134 167,40
168,2103 169,287 170,79 171,190
172,544 173,97 174,41 182,50
184,52 186,372 187,67 188,42
193,40 196,84 198,1997 199,341
200,115 210,72 214,170 215,36
225,85 226,527 227,107 228,37
240,141 241,38 242,137 243,35
256,120 272,9999 273,1612 274,651
275,90
##END=
