##TITLE=(E,E)-1,3,5-Undecatriene
##JCAMP-DX=4.24
##DATA TYPE=MASS SPECTRUM
##ORIGIN=E.GIRAUDI, CENT. RECHERCHE, ROURE BERTRAND DUPONT, GRASSE, FR.
##OWNER=NIST Mass Spectrometry Data Center
Collection (C) 2014 copyright by the U.S. Secretary of Commerce
on behalf of the United States of America. All rights reserved.
##CAS REGISTRY NO=19883-29-5
##$NIST MASS SPEC NO=100747
##MOLFORM=C11 H18
##MW=150
##$NIST SOURCE=MSDC
##XUNITS=M/Z
##YUNITS=RELATIVE INTENSITY
##XFACTOR=1
##YFACTOR=1
##FIRSTX=38
##LASTX=151
##FIRSTY=12
##MAXX=151
##MINX=38
##MAXY=9999
##MINY=1
##NPOINTS=54
##PEAK TABLE=(XY..XY)
38,12 39,1491 40,332 41,2277
42,77 43,170 44,47 50,59
51,294 52,178 53,429 54,142
55,370 56,14 57,58 58,1
62,3 63,74 64,3 65,800
66,1058 67,1127 68,104 69,28
77,4069 78,1564 79,9999 80,6299
81,597 82,38 83,1 89,9
91,3010 92,207 93,2202 94,354
95,69 96,135 97,1 103,23
104,1 105,105 106,11 107,131
108,25 109,21 115,8 117,4
119,10 121,43 135,1 148,33
150,2545 151,175
##END=
