##TITLE=Longifolenaldehyde
##JCAMP-DX=4.24
##DATA TYPE=MASS SPECTRUM
##ORIGIN=D.HENNEBERG, MAX-PLANCK INSTITUTE, MULHEIM, WEST GERMANY
##OWNER=NIST Mass Spectrometry Data Center
Collection (C) 2014 copyright by the U.S. Secretary of Commerce
on behalf of the United States of America. All rights reserved.
##CAS REGISTRY NO=19890-84-7
##$NIST MASS SPEC NO=62257
##MOLFORM=C15 H24 O
##MW=220
##$NIST SOURCE=MSDC
##XUNITS=M/Z
##YUNITS=RELATIVE INTENSITY
##XFACTOR=1
##YFACTOR=1
##FIRSTX=26
##LASTX=222
##FIRSTY=422
##MAXX=222
##MINX=26
##MAXY=9999
##MINY=19
##NPOINTS=157
##PEAK TABLE=(XY..XY)
26,422 27,541 28,1100 29,1648
30,35 32,76 37,32 38,27
39,626 40,226 41,6113 42,392
43,3347 44,61 45,71 49,28
50,61 51,125 52,83 53,1203
54,355 55,6066 56,842 57,1327
58,152 59,475 63,28 64,29
65,535 66,783 67,6417 68,1029
69,5409 70,1054 71,1209 72,163
73,50 75,58 77,1916 78,479
79,5308 80,1960 81,8632 82,3897
83,2488 84,2416 85,553 86,49
87,22 89,40 90,31 91,3669
92,979 93,6366 94,2932 95,9999
96,1715 97,3285 98,704 99,115
100,37 101,27 102,32 103,202
104,265 105,3225 106,1639 107,7185
108,4276 109,9395 110,3369 111,1211
112,287 113,91 114,21 115,161
116,87 117,635 118,472 119,2431
120,1579 121,4028 122,1691 123,1909
124,637 125,313 126,74 127,94
128,47 129,158 130,122 131,1603
132,665 133,2668 134,1239 135,5418
136,2071 137,4492 138,1085 139,314
140,55 141,58 142,43 143,124
144,91 145,963 146,862 147,1509
148,599 149,3630 150,1759 151,993
152,254 153,542 154,123 155,71
157,74 158,56 159,1679 160,437
161,1135 162,1049 163,2925 164,982
165,220 166,63 167,19 171,65
172,41 173,375 174,314 175,905
176,1840 177,1790 178,476 179,209
186,75 187,2668 188,473 189,1174
190,249 191,680 192,350 193,64
200,29 201,22 202,1028 203,238
204,71 205,4780 206,761 207,65
218,43 219,39 220,3657 221,533
222,56
##END=
