##TITLE=(-)-Myrtenol
##JCAMP-DX=4.24
##DATA TYPE=MASS SPECTRUM
##ORIGIN=NIST Mass Spectrometry Data Center
##OWNER=NIST Mass Spectrometry Data Center
Collection (C) 2014 copyright by the U.S. Secretary of Commerce
on behalf of the United States of America. All rights reserved.
##CAS REGISTRY NO=19894-97-4
##$NIST MASS SPEC NO=334014
##MOLFORM=C10 H16 O
##MW=152
##$NIST SOURCE=MSDC
##XUNITS=M/Z
##YUNITS=RELATIVE INTENSITY
##XFACTOR=1
##YFACTOR=1
##FIRSTX=15
##LASTX=153
##FIRSTY=30
##MAXX=153
##MINX=15
##MAXY=9999
##MINY=10
##NPOINTS=100
##PEAK TABLE=(XY..XY)
15,30 19,10 26,40 27,641
28,80 29,480 30,20 31,440
37,20 38,90 39,1471 40,240
41,1972 42,180 43,1071 44,50
45,20 49,10 50,220 51,721
52,310 53,1031 54,190 55,1161
56,150 57,170 58,40 59,200
60,30 61,20 62,70 63,260
64,80 65,861 66,400 67,1411
68,320 69,460 70,150 71,40
72,10 73,10 74,50 75,40
77,2552 78,761 79,9999 80,951
81,901 82,230 83,260 84,30
85,230 86,20 87,10 89,80
91,5445 92,1001 93,2092 94,360
95,621 96,310 97,60 98,80
99,10 101,10 102,50 103,340
104,140 105,1211 106,601 107,1551
108,3523 109,861 110,130 111,30
115,180 116,50 117,360 118,60
119,1651 120,210 121,841 122,110
123,100 124,20 128,10 129,10
131,20 132,10 133,50 134,110
135,140 136,20 137,90 138,10
149,10 150,10 152,300 153,30
##END=
