##TITLE=Methoxymethyl isothiocyanate
##JCAMP-DX=4.24
##DATA TYPE=MASS SPECTRUM
##ORIGIN=NIST Mass Spectrometry Data Center, 1994
##OWNER=NIST Mass Spectrometry Data Center
Collection (C) 2014 copyright by the U.S. Secretary of Commerce
on behalf of the United States of America. All rights reserved.
##CAS REGISTRY NO=19900-84-6
##$NIST MASS SPEC NO=134754
##MOLFORM=C3 H5 N O S
##MW=103
##$NIST SOURCE=MSDC
##XUNITS=M/Z
##YUNITS=RELATIVE INTENSITY
##XFACTOR=1
##YFACTOR=1
##FIRSTX=15
##LASTX=105
##FIRSTY=1028
##MAXX=105
##MINX=15
##MAXY=9999
##MINY=12
##NPOINTS=37
##PEAK TABLE=(XY..XY)
15,1028 26,40 27,99 28,700
29,2426 30,199 31,77 32,505
33,63 34,30 35,49 38,99
39,114 40,222 41,49 42,87
43,30 44,859 45,9999 46,428
47,136 48,12 54,16 58,402
59,436 60,95 61,25 70,270
71,279 72,3331 73,183 74,207
75,12 86,72 103,3919 104,187
105,182
##END=
