##TITLE=1H-1,2,4-Triazole, 3-propyl-
##JCAMP-DX=4.24
##DATA TYPE=MASS SPECTRUM
##ORIGIN=J. H. BOWIE
##OWNER=NIST Mass Spectrometry Data Center
Collection (C) 2014 copyright by the U.S. Secretary of Commerce
on behalf of the United States of America. All rights reserved.
##CAS REGISTRY NO=19932-60-6
##$NIST MASS SPEC NO=41843
##MOLFORM=C5 H9 N3
##MW=111
##$NIST SOURCE=MSDC
##XUNITS=M/Z
##YUNITS=RELATIVE INTENSITY
##XFACTOR=1
##YFACTOR=1
##FIRSTX=27
##LASTX=111
##FIRSTY=1400
##MAXX=111
##MINX=27
##MAXY=9999
##MINY=200
##NPOINTS=16
##PEAK TABLE=(XY..XY)
27,1400 28,1200 29,800 39,900
41,900 42,1000 43,1200 54,600
55,1000 56,600 69,200 71,500
83,9999 96,2800 110,1000 111,500
##END=
