##TITLE=Metoxuron
##JCAMP-DX=4.24
##DATA TYPE=MASS SPECTRUM
##ORIGIN=J. SHAW, BORRISTON RESEARCH, ROCKVILLE, MD, USA
##OWNER=NIST Mass Spectrometry Data Center
Collection (C) 2014 copyright by the U.S. Secretary of Commerce
on behalf of the United States of America. All rights reserved.
##CAS REGISTRY NO=19937-59-8
##$NIST MASS SPEC NO=60214
##MOLFORM=C10 H13 Cl N2 O2
##MW=228
##$NIST SOURCE=MSDC
##XUNITS=M/Z
##YUNITS=RELATIVE INTENSITY
##XFACTOR=1
##YFACTOR=1
##FIRSTX=12
##LASTX=231
##FIRSTY=10
##MAXX=231
##MINX=12
##MAXY=9999
##MINY=10
##NPOINTS=154
##PEAK TABLE=(XY..XY)
12,10 13,10 15,2232 16,150
26,60 27,220 28,620 29,250
30,120 31,30 32,20 35,20
36,20 37,30 38,70 39,150
40,60 41,310 42,670 43,470
44,980 45,1011 46,60 47,30
48,10 49,20 50,110 51,270
52,300 53,210 54,30 55,180
56,340 57,260 58,160 59,20
60,70 61,170 62,150 63,290
64,90 65,120 66,30 67,30
68,20 69,40 72,9999 73,560
74,90 75,100 76,250 77,120
78,320 79,170 80,400 81,50
82,20 83,120 84,60 85,70
86,120 87,220 88,80 89,60
90,90 91,60 92,30 93,30
94,10 95,10 96,40 97,90
98,70 99,90 100,50 101,20
103,10 104,20 106,420 107,40
108,10 109,30 110,20 111,50
112,150 113,60 114,140 115,270
116,40 117,10 118,10 119,10
120,40 121,20 122,20 124,50
125,50 126,60 127,20 128,60
129,60 130,20 131,20 132,10
133,20 134,10 135,20 140,310
141,40 142,190 143,200 144,60
145,40 146,10 147,20 149,90
150,20 153,10 155,110 156,360
157,90 158,260 159,30 160,50
161,40 162,30 163,20 164,20
168,600 170,320 171,30 172,70
175,30 176,20 177,70 178,10
180,20 181,10 183,1801 185,740
186,50 187,10 192,110 193,10
194,10 196,20 197,10 211,20
213,40 214,10 215,10 228,2312
230,960 231,60
##END=
