##TITLE=2-Propanamine, N-ethyl-
##JCAMP-DX=4.24
##DATA TYPE=MASS SPECTRUM
##ORIGIN=Japan AIST/NIMC Database- Spectrum MS-NW-3231
##OWNER=NIST Mass Spectrometry Data Center
Collection (C) 2014 copyright by the U.S. Secretary of Commerce
on behalf of the United States of America. All rights reserved.
##CAS REGISTRY NO=19961-27-4
##$NIST MASS SPEC NO=230798
##MOLFORM=C5 H13 N
##MW=87
##$NIST SOURCE=MSDC
##XUNITS=M/Z
##YUNITS=RELATIVE INTENSITY
##XFACTOR=1
##YFACTOR=1
##FIRSTX=14
##LASTX=88
##FIRSTY=30
##MAXX=88
##MINX=14
##MAXY=9999
##MINY=10
##NPOINTS=41
##PEAK TABLE=(XY..XY)
14,30 15,379 16,10 26,99
27,869 28,819 29,589 30,3199
31,50 32,20 33,10 34,20
36,10 37,20 38,50 39,399
40,109 41,809 42,1079 43,759
44,6419 45,189 52,20 53,10
54,50 55,20 56,309 57,109
58,519 59,20 68,30 70,189
71,80 72,9999 73,489 74,10
84,20 85,20 86,549 87,789
88,50
##END=
