##TITLE=2-Ethyl-5-methylthiazole
##JCAMP-DX=4.24
##DATA TYPE=MASS SPECTRUM
##ORIGIN=R. TABACCHI, INST. CHIM., UNIV. NEUCHATEL, BASEL, SWITZ.
##OWNER=NIST Mass Spectrometry Data Center
Collection (C) 2014 copyright by the U.S. Secretary of Commerce
on behalf of the United States of America. All rights reserved.
##CAS REGISTRY NO=19961-53-6
##$NIST MASS SPEC NO=104212
##MOLFORM=C6 H9 N S
##MW=127
##$NIST SOURCE=MSDC
##XUNITS=M/Z
##YUNITS=RELATIVE INTENSITY
##XFACTOR=1
##YFACTOR=1
##FIRSTX=14
##LASTX=129
##FIRSTY=500
##MAXX=129
##MINX=14
##MAXY=9999
##MINY=220
##NPOINTS=29
##PEAK TABLE=(XY..XY)
14,500 15,220 16,220 26,390
27,1060 28,3530 29,303 39,3250
40,290 41,1000 45,2350 57,470
58,590 59,940 68,1090 69,440
70,290 71,3530 72,4710 73,1470
74,470 85,350 99,410 100,290
112,3420 126,6470 127,9999 128,1350
129,530
##END=
