##TITLE=Tungsten, tetracarbonylbis(hexamethylphosphorous triamide-P)-
##JCAMP-DX=4.24
##DATA TYPE=MASS SPECTRUM
##ORIGIN=R.B.KING, UNIVERSITY OF GEORGIA, ATHENS, GEORGIA, USA
##OWNER=NIST Mass Spectrometry Data Center
Collection (C) 2014 copyright by the U.S. Secretary of Commerce
on behalf of the United States of America. All rights reserved.
##CAS REGISTRY NO=19976-86-4
##$NIST MASS SPEC NO=18549
##MOLFORM=C16 H36 N6 O4 P2 W
##MW=622
##$NIST SOURCE=MSDC
##XUNITS=M/Z
##YUNITS=RELATIVE INTENSITY
##XFACTOR=1
##YFACTOR=1
##FIRSTX=60
##LASTX=622
##FIRSTY=2793
##MAXX=622
##MINX=60
##MAXY=9999
##MINY=6
##NPOINTS=30
##PEAK TABLE=(XY..XY)
60,2793 76,9999 119,9999 163,4586
195,31 301,255 304,6 333,41
347,344 359,18 375,37 378,33
387,6 391,168 404,11 415,11
422,58 432,14 443,14 459,18
466,182 487,22 510,344 522,14
538,22 550,103 566,14 578,551
594,31 622,448
##END=
