##TITLE=Tungsten, pentacarbonyl(hexamethylphosphorous triamide-P)-, (OC-6-22)-
##JCAMP-DX=4.24
##DATA TYPE=MASS SPECTRUM
##ORIGIN=R.B.KING DEPT. CHEM., UNIV. OF GEORGIA, ATHENS, GEORGIA, USA
##OWNER=NIST Mass Spectrometry Data Center
Collection (C) 2014 copyright by the U.S. Secretary of Commerce
on behalf of the United States of America. All rights reserved.
##CAS REGISTRY NO=19976-82-0
##$NIST MASS SPEC NO=58292
##MOLFORM=C11 H18 N3 O5 P W
##MW=487
##$NIST SOURCE=MSDC
##XUNITS=M/Z
##YUNITS=RELATIVE INTENSITY
##XFACTOR=1
##YFACTOR=1
##FIRSTX=60
##LASTX=487
##FIRSTY=690
##MAXX=487
##MINX=60
##MAXY=9999
##MINY=69
##NPOINTS=28
##PEAK TABLE=(XY..XY)
60,690 76,4276 119,9999 163,172
212,69 215,172 228,483 240,172
242,724 256,1034 257,1034 270,1034
272,724 285,862 287,310 299,1552
301,3103 331,241 347,6379 359,1310
375,414 387,448 403,138 415,793
431,345 443,1172 459,1103 487,2931
##END=
