##TITLE=Thiazole, 4,5-dihydro-2-(methylthio)-
##JCAMP-DX=4.24
##DATA TYPE=MASS SPECTRUM
##ORIGIN=J.E. WILKINSON S-CUBED, SAN DIEGO, CA.
##OWNER=NIST Mass Spectrometry Data Center
Collection (C) 2014 copyright by the U.S. Secretary of Commerce
on behalf of the United States of America. All rights reserved.
##CAS REGISTRY NO=19975-56-5
##$NIST MASS SPEC NO=91170
##MOLFORM=C4 H7 N S2
##MW=133
##$NIST SOURCE=MSDC
##XUNITS=M/Z
##YUNITS=RELATIVE INTENSITY
##XFACTOR=1
##YFACTOR=1
##FIRSTX=40
##LASTX=135
##FIRSTY=6
##MAXX=135
##MINX=40
##MAXY=9999
##MINY=1
##NPOINTS=38
##PEAK TABLE=(XY..XY)
40,6 41,165 42,75 45,4020
46,1165 47,666 52,21 56,26
57,203 58,901 59,3462 60,7795
61,344 62,140 64,127 70,65
72,2801 73,20 74,1151 76,185
77,6 78,7 79,30 84,14
86,67 87,1185 88,21 90,144
91,196 92,1 93,37 100,43
105,222 117,65 118,75 133,9999
134,556 135,753
##END=
