##TITLE=Chromium, tetracarbonylbis(hexamethylphosphorous triamide-P)-, (OC-6-22)-
##JCAMP-DX=4.24
##DATA TYPE=MASS SPECTRUM
##ORIGIN=R.B.KING, UNIVERSITY OF GEORGIA, ATHENS, GEORGIA, USA
##OWNER=NIST Mass Spectrometry Data Center
Collection (C) 2014 copyright by the U.S. Secretary of Commerce
on behalf of the United States of America. All rights reserved.
##CAS REGISTRY NO=19976-85-3
##$NIST MASS SPEC NO=23743
##MOLFORM=C16 H36 Cr N6 O4 P2
##MW=490
##$NIST SOURCE=MSDC
##XUNITS=M/Z
##YUNITS=RELATIVE INTENSITY
##XFACTOR=1
##YFACTOR=1
##FIRSTX=60
##LASTX=490
##FIRSTY=1746
##MAXX=490
##MINX=60
##MAXY=9999
##MINY=1
##NPOINTS=25
##PEAK TABLE=(XY..XY)
60,1746 76,9999 119,8095 163,2380
169,4 172,79 195,84 201,1
215,158 227,1 243,22 246,1
255,1 259,61 272,3 290,1
291,4 327,6 334,19 355,2
378,19 418,6 446,4 462,25
490,44
##END=
