##TITLE=2-Bromomethyl-2,3-dihydrobenzofuran
##JCAMP-DX=4.24
##DATA TYPE=MASS SPECTRUM
##ORIGIN=NIST Mass Spectrometry Data Center, 1994
##OWNER=NIST Mass Spectrometry Data Center
Collection (C) 2014 copyright by the U.S. Secretary of Commerce
on behalf of the United States of America. All rights reserved.
##CAS REGISTRY NO=19997-53-6
##$NIST MASS SPEC NO=134482
##MOLFORM=C9 H9 Br O
##MW=212
##$NIST SOURCE=MSDC
##XUNITS=M/Z
##YUNITS=RELATIVE INTENSITY
##XFACTOR=1
##YFACTOR=1
##FIRSTX=4
##LASTX=215
##FIRSTY=38
##MAXX=215
##MINX=4
##MAXY=9999
##MINY=13
##NPOINTS=72
##PEAK TABLE=(XY..XY)
4,38 14,45 15,146 18,13
26,405 27,1556 28,186 29,185
37,243 38,840 39,2408 40,212
41,232 42,72 43,151 44,58
49,175 50,1450 51,3629 52,1290
53,532 54,92 55,840 56,39
57,130 61,212 62,658 63,1523
64,424 65,1340 66,906 73,77
74,438 75,394 76,414 77,3204
78,1814 79,1767 80,159 81,107
82,43 86,64 87,133 88,77
89,897 90,618 91,5573 92,478
93,152 94,54 95,121 101,81
102,273 103,1339 104,457 105,3690
106,384 107,198 108,37 115,605
116,78 119,9999 120,904 121,61
131,1202 132,341 133,3058 134,336
212,2697 213,305 214,2583 215,310
##END=
