##TITLE=4-Bromodesoxybenzoin
##JCAMP-DX=4.24
##DATA TYPE=MASS SPECTRUM
##ORIGIN=NIST Mass Spectrometry Data Center, 1994
##OWNER=NIST Mass Spectrometry Data Center
Collection (C) 2014 copyright by the U.S. Secretary of Commerce
on behalf of the United States of America. All rights reserved.
##CAS REGISTRY NO=2001-29-8
##$NIST MASS SPEC NO=136711
##MOLFORM=C14 H11 Br O
##MW=274
##$NIST SOURCE=MSDC
##XUNITS=M/Z
##YUNITS=RELATIVE INTENSITY
##XFACTOR=1
##YFACTOR=1
##FIRSTX=17
##LASTX=277
##FIRSTY=8
##MAXX=277
##MINX=17
##MAXY=9999
##MINY=8
##NPOINTS=63
##PEAK TABLE=(XY..XY)
17,8 18,44 37,110 38,393
39,1800 40,142 41,218 45,25
50,2595 51,1066 52,278 53,122
61,105 62,377 63,1063 64,320
65,2666 66,159 70,44 73,47
74,459 75,2518 76,3111 77,286
78,38 79,39 80,38 81,54
82,101 86,79 87,86 88,68
89,708 90,382 91,2666 92,199
98,37 101,30 102,40 104,668
105,99 115,62 128,29 129,86
131,70 139,69 152,71 155,2860
157,2784 158,169 163,68 164,80
165,295 166,76 181,46 183,9575
185,9999 186,714 187,49 274,175
275,36 276,151 277,39
##END=
