##TITLE=o-Nitrocinnamide
##JCAMP-DX=4.24
##DATA TYPE=MASS SPECTRUM
##ORIGIN=Japan AIST/NIMC Database- Spectrum MS-IW-6115
##OWNER=NIST Mass Spectrometry Data Center
Collection (C) 2014 copyright by the U.S. Secretary of Commerce
on behalf of the United States of America. All rights reserved.
##CAS REGISTRY NO=2001-33-4
##$NIST MASS SPEC NO=243030
##MOLFORM=C9 H8 N2 O3
##MW=192
##$NIST SOURCE=MSDC
##XUNITS=M/Z
##YUNITS=RELATIVE INTENSITY
##XFACTOR=1
##YFACTOR=1
##FIRSTX=15
##LASTX=194
##FIRSTY=20
##MAXX=194
##MINX=15
##MAXY=9999
##MINY=10
##NPOINTS=132
##PEAK TABLE=(XY..XY)
15,20 16,30 17,70 18,10
26,60 27,289 28,569 29,219
30,179 31,109 32,10 37,99
38,279 39,1229 40,129 41,259
42,109 43,279 44,2559 45,239
46,70 49,90 50,1589 51,3329
52,749 53,259 54,70 55,50
56,10 57,20 58,239 59,60
60,20 61,149 62,519 63,1669
64,779 65,5319 66,1419 67,269
68,60 69,389 70,30 71,20
72,10 73,129 74,1039 75,1939
76,2359 77,4079 78,849 79,509
80,90 81,40 82,10 83,10
85,30 86,149 87,189 88,149
89,2079 90,1429 91,4059 92,5829
93,3329 94,319 95,50 96,10
97,30 98,169 99,80 100,80
101,1479 102,3059 103,1539 104,1779
105,769 106,299 107,179 108,30
109,10 110,10 114,70 115,289
116,619 117,999 118,939 119,999
120,4309 121,1009 122,80 123,10
127,30 128,369 129,349 130,4379
131,609 132,2669 133,669 134,149
135,40 136,10 137,10 141,10
142,249 143,159 144,90 145,189
146,9999 147,2099 148,3399 149,429
150,40 151,10 157,30 158,179
159,129 160,129 161,40 162,30
163,50 164,10 165,10 174,40
175,529 176,759 177,80 178,10
191,60 192,70 193,369 194,40
##END=
