##TITLE=Naphthalene, 1,2,3,4-tetrahydro-5,6-dimethyl-
##JCAMP-DX=4.24
##DATA TYPE=MASS SPECTRUM
##ORIGIN=G.A.M.S., PARIS, FRANCE.
##OWNER=NIST Mass Spectrometry Data Center
Collection (C) 2014 copyright by the U.S. Secretary of Commerce
on behalf of the United States of America. All rights reserved.
##CAS REGISTRY NO=20027-77-4
##$NIST MASS SPEC NO=5667
##MOLFORM=C12 H16
##MW=160
##$NIST SOURCE=MSDC
##XUNITS=M/Z
##YUNITS=RELATIVE INTENSITY
##XFACTOR=1
##YFACTOR=1
##FIRSTX=15
##LASTX=162
##FIRSTY=10
##MAXX=162
##MINX=15
##MAXY=9999
##MINY=10
##NPOINTS=91
##PEAK TABLE=(XY..XY)
15,10 26,30 27,250 28,100
29,50 38,20 39,410 40,40
41,230 42,10 43,10 44,10
50,100 51,400 52,110 53,240
54,10 55,20 57,30 58,60
62,50 63,250 64,310 65,390
66,70 67,70 69,30 70,100
71,290 72,30 74,40 75,80
76,160 77,560 78,310 79,470
80,100 86,10 87,30 88,10
89,110 90,20 91,740 92,80
93,20 98,10 101,30 102,100
103,180 104,80 105,560 106,60
113,10 114,20 115,970 116,300
117,1200 118,190 119,1070 120,110
125,10 126,30 127,310 128,1030
129,970 130,620 131,420 132,2410
133,280 134,10 139,60 140,20
141,520 142,240 143,490 144,390
145,9999 146,1210 147,70 151,20
152,60 153,50 154,20 155,50
156,150 157,70 158,110 159,650
160,5070 161,660 162,40
##END=
