##TITLE=2-Methyl-4-bromo-1-butene
##JCAMP-DX=4.24
##DATA TYPE=MASS SPECTRUM
##ORIGIN=J. MADSEN,DEP. ORG. CHEM.,TECH. UNIV. DENMARK,LYNGBY,DENMARK
##OWNER=NIST Mass Spectrometry Data Center
Collection (C) 2014 copyright by the U.S. Secretary of Commerce
on behalf of the United States of America. All rights reserved.
##CAS REGISTRY NO=20038-12-4
##$NIST MASS SPEC NO=99452
##MOLFORM=C5 H9 Br
##MW=148
##$NIST SOURCE=MSDC
##XUNITS=M/Z
##YUNITS=RELATIVE INTENSITY
##XFACTOR=1
##YFACTOR=1
##FIRSTX=26
##LASTX=150
##FIRSTY=130
##MAXX=150
##MINX=26
##MAXY=9999
##MINY=100
##NPOINTS=24
##PEAK TABLE=(XY..XY)
26,130 27,1120 29,960 31,100
38,190 39,1900 40,138 41,6010
42,380 43,120 44,100 50,120
51,220 52,110 53,1020 54,170
55,2510 56,120 67,640 68,280
69,9999 70,550 148,1290 150,1260
##END=
