##TITLE=2-Bromo-4-methyl-6-nitrophenol
##JCAMP-DX=4.24
##DATA TYPE=MASS SPECTRUM
##ORIGIN=NIST Mass Spectrometry Data Center, 1994
##OWNER=NIST Mass Spectrometry Data Center
Collection (C) 2014 copyright by the U.S. Secretary of Commerce
on behalf of the United States of America. All rights reserved.
##CAS REGISTRY NO=20039-91-2
##$NIST MASS SPEC NO=134594
##MOLFORM=C7 H6 Br N O3
##MW=231
##$NIST SOURCE=MSDC
##XUNITS=M/Z
##YUNITS=RELATIVE INTENSITY
##XFACTOR=1
##YFACTOR=1
##FIRSTX=14
##LASTX=235
##FIRSTY=93
##MAXX=235
##MINX=14
##MAXY=9999
##MINY=66
##NPOINTS=101
##PEAK TABLE=(XY..XY)
14,93 15,114 17,88 18,139
26,267 27,891 29,278 30,1857
31,101 37,570 38,853 39,1987
40,271 41,176 42,101 43,388
44,101 45,156 46,288 48,76
49,456 50,3542 51,8522 52,2036
53,3401 54,230 55,229 60,85
61,563 62,1007 63,1105 64,477
65,1740 66,1151 67,269 73,284
74,991 75,1384 76,1458 77,9999
78,5570 79,891 80,143 85,84
86,145 87,126 88,89 89,84
90,388 91,265 92,102 93,347
94,1582 95,163 104,123 105,1502
106,1411 107,565 108,66 116,171
117,210 119,157 121,342 122,221
131,267 133,250 135,1297 136,127
143,106 145,341 147,265 152,389
155,207 156,191 157,695 158,196
159,470 160,81 173,872 174,100
175,893 183,597 184,872 185,788
186,1029 187,320 188,162 201,898
202,130 203,999 204,83 213,139
214,230 215,187 216,215 217,85
231,9295 232,883 233,9168 234,786
235,111
##END=
