##TITLE=1-Isopropyl-3-tert-butylbenzene
##JCAMP-DX=4.24
##DATA TYPE=MASS SPECTRUM
##ORIGIN=Philip Morris R&D
##OWNER=NIST Mass Spectrometry Data Center
Collection (C) 2014 copyright by the U.S. Secretary of Commerce
on behalf of the United States of America. All rights reserved.
##CAS REGISTRY NO=20033-12-9
##$NIST MASS SPEC NO=109790
##MOLFORM=C13 H20
##MW=176
##$NIST SOURCE=MSDC
##XUNITS=M/Z
##YUNITS=RELATIVE INTENSITY
##XFACTOR=1
##YFACTOR=1
##FIRSTX=38
##LASTX=178
##FIRSTY=23
##MAXX=178
##MINX=38
##MAXY=9999
##MINY=1
##NPOINTS=91
##PEAK TABLE=(XY..XY)
38,23 39,291 40,26 41,871
42,32 43,968 44,30 45,1
49,5 50,55 51,169 52,43
53,76 55,99 56,3 57,764
58,92 59,157 60,8 62,21
63,103 64,127 65,282 66,41
67,17 69,8 70,12 71,112
72,148 73,254 74,34 75,30
76,35 77,338 78,138 79,239
80,11 81,21 83,1 87,5
88,2 89,63 90,18 91,1392
92,128 93,28 101,4 102,94
103,230 104,45 105,770 106,84
107,1 114,1 115,407 116,151
117,370 118,105 119,845 120,84
121,3 126,1 127,72 128,211
129,149 130,53 131,138 132,31
133,650 134,77 138,1 139,5
141,17 142,2 143,23 144,3
145,198 146,51 147,27 151,2
153,1 159,15 160,25 161,9999
162,1308 163,80 164,2 175,12
176,1967 177,322 178,15
##END=
