##TITLE=1H-Purine, 6-methyl-
##JCAMP-DX=4.24
##DATA TYPE=MASS SPECTRUM
##OWNER=NIST Mass Spectrometry Data Center
Collection (C) 2014 copyright by the U.S. Secretary of Commerce
on behalf of the United States of America. All rights reserved.
##CAS REGISTRY NO=2004-03-7
##$NIST MASS SPEC NO=3229
##MOLFORM=C6 H6 N4
##MW=134
##$NIST SOURCE=MSDC
##XUNITS=M/Z
##YUNITS=RELATIVE INTENSITY
##XFACTOR=1
##YFACTOR=1
##FIRSTX=41
##LASTX=135
##FIRSTY=200
##MAXX=135
##MINX=41
##MAXY=9999
##MINY=100
##NPOINTS=22
##PEAK TABLE=(XY..XY)
41,200 42,300 51,300 52,500
53,801 54,300 64,100 65,500
66,1001 67,300 70,500 77,100
79,400 80,1001 81,200 106,701
107,1702 108,300 119,601 133,200
134,9999 135,901
##END=
