##TITLE=4-Chlorophenyl benzoate
##JCAMP-DX=4.24
##DATA TYPE=MASS SPECTRUM
##ORIGIN=NIST Mass Spectrometry Data Center
##OWNER=NIST Mass Spectrometry Data Center
Collection (C) 2014 copyright by the U.S. Secretary of Commerce
on behalf of the United States of America. All rights reserved.
##CAS REGISTRY NO=2005-08-5
##$NIST MASS SPEC NO=343010
##MOLFORM=C13 H9 Cl O2
##MW=232
##$NIST SOURCE=MSDC
##XUNITS=M/Z
##YUNITS=RELATIVE INTENSITY
##XFACTOR=1
##YFACTOR=1
##FIRSTX=18
##LASTX=235
##FIRSTY=20
##MAXX=235
##MINX=18
##MAXY=9999
##MINY=10
##NPOINTS=52
##PEAK TABLE=(XY..XY)
18,20 26,40 27,130 28,10
29,10 35,10 36,10 37,80
38,240 39,260 40,10 47,20
49,90 50,731 51,1802 52,80
53,40 61,60 62,160 63,440
64,110 65,60 66,10 73,440
74,230 75,360 77,4314 78,270
79,10 85,20 87,10 89,10
92,10 99,430 100,50 101,140
102,10 105,9999 106,721 107,40
111,20 113,10 115,20 127,90
128,30 129,20 130,10 139,20
232,220 233,40 234,90 235,10
##END=
