##TITLE=Benzene, 1,1'-(1,2-ethenediyl)bis[2,4,6-trinitro-
##JCAMP-DX=4.24
##DATA TYPE=MASS SPECTRUM
##ORIGIN=Japan AIST/NIMC Database- Spectrum MS-IW-3315
##OWNER=NIST Mass Spectrometry Data Center
Collection (C) 2014 copyright by the U.S. Secretary of Commerce
on behalf of the United States of America. All rights reserved.
##CAS REGISTRY NO=20062-22-0
##$NIST MASS SPEC NO=237177
##MOLFORM=C14 H6 N6 O12
##MW=450
##$NIST SOURCE=MSDC
##XUNITS=M/Z
##YUNITS=RELATIVE INTENSITY
##XFACTOR=1
##YFACTOR=1
##FIRSTX=12
##LASTX=420
##FIRSTY=20
##MAXX=420
##MINX=12
##MAXY=9999
##MINY=10
##NPOINTS=259
##PEAK TABLE=(XY..XY)
12,20 14,20 16,70 26,40
27,159 28,1089 29,299 30,9999
31,60 32,40 37,99 38,259
39,259 40,50 41,90 42,99
43,169 44,2919 45,119 46,619
47,90 48,30 49,30 50,669
51,379 52,199 53,609 54,139
55,179 56,60 57,179 58,10
60,30 61,339 62,1589 63,1469
64,639 65,889 66,469 67,369
68,279 69,629 70,60 71,119
72,20 73,229 74,4169 75,4419
76,1399 77,789 78,249 79,269
80,199 81,349 82,60 83,90
84,30 85,149 86,1089 87,1639
88,1069 89,559 90,1089 91,1879
92,659 93,659 94,159 95,90
96,50 97,99 98,859 99,799
100,499 101,229 102,219 103,1589
104,579 105,199 106,119 107,309
108,80 109,139 110,529 111,769
112,479 113,129 114,109 115,109
116,439 117,179 118,139 119,8169
120,3189 121,3929 122,719 123,579
124,429 125,169 126,129 127,109
128,60 129,30 130,50 131,40
132,99 133,349 134,439 135,609
136,409 137,529 138,199 139,119
140,60 141,30 142,20 143,30
144,70 145,30 146,149 147,169
148,1819 149,1349 150,619 151,539
152,439 153,70 154,30 155,20
156,10 157,10 158,50 159,60
160,70 161,1349 162,639 163,349
164,309 165,6709 166,599 167,7579
168,629 169,109 170,70 171,40
172,20 173,189 174,559 175,259
176,109 177,189 178,409 179,339
180,169 181,70 182,50 183,70
184,20 186,20 187,10 188,30
189,119 190,99 191,119 192,90
193,199 194,2159 195,389 196,70
197,219 198,50 199,10 201,10
202,40 203,249 204,60 205,40
206,50 207,80 208,169 209,829
210,519 211,70 212,20 213,80
214,10 217,10 218,30 219,60
220,30 221,40 222,30 223,60
224,789 225,899 226,169 227,30
233,10 234,20 235,99 236,40
237,50 238,109 239,20 240,1369
241,269 242,40 248,10 249,129
250,40 251,20 252,20 253,30
254,20 255,10 265,80 266,30
267,20 268,20 269,30 270,40
271,20 278,10 281,90 282,20
283,40 284,20 294,20 295,389
296,99 297,20 298,10 299,20
300,20 310,10 311,60 312,20
314,30 315,20 316,20 329,20
330,20 341,119 342,50 343,10
345,30 346,20 357,60 358,20
359,30 360,30 362,10 371,40
372,10 387,729 388,159 389,30
390,10 392,10 420,10
##END=
