##TITLE=2-Decene, (E)-
##JCAMP-DX=4.24
##DATA TYPE=MASS SPECTRUM
##ORIGIN=D.HENNEBERG, MAX-PLANCK INSTITUTE, MULHEIM, WEST GERMANY
##OWNER=NIST Mass Spectrometry Data Center
Collection (C) 2014 copyright by the U.S. Secretary of Commerce
on behalf of the United States of America. All rights reserved.
##CAS REGISTRY NO=20063-97-2
##$NIST MASS SPEC NO=61921
##MOLFORM=C10 H20
##MW=140
##$NIST SOURCE=MSDC
##XUNITS=M/Z
##YUNITS=RELATIVE INTENSITY
##XFACTOR=1
##YFACTOR=1
##FIRSTX=23
##LASTX=141
##FIRSTY=5
##MAXX=141
##MINX=23
##MAXY=9999
##MINY=5
##NPOINTS=53
##PEAK TABLE=(XY..XY)
23,5 24,11 26,101 27,2653
29,4021 30,112 36,22 37,84
38,66 39,2060 40,250 41,6375
42,3511 43,8478 44,218 49,10
50,57 51,145 52,78 53,763
54,971 55,9999 56,8301 57,2189
58,99 63,25 65,115 66,84
67,698 68,623 69,4625 70,4066
71,577 72,17 77,56 79,51
80,8 81,139 82,276 83,1180
84,1408 85,389 91,14 95,14
96,106 97,1044 98,463 99,27
110,23 111,397 112,204 140,1181
141,126
##END=
