##TITLE=3-Nonene
##JCAMP-DX=4.24
##DATA TYPE=MASS SPECTRUM
##ORIGIN=NIST Mass Spectrometry Data Center, 1990.
##OWNER=NIST Mass Spectrometry Data Center
Collection (C) 2014 copyright by the U.S. Secretary of Commerce
on behalf of the United States of America. All rights reserved.
##CAS REGISTRY NO=20063-77-8
##$NIST MASS SPEC NO=114742
##MOLFORM=C9 H18
##MW=126
##$NIST SOURCE=MSDC
##XUNITS=M/Z
##YUNITS=RELATIVE INTENSITY
##XFACTOR=1
##YFACTOR=1
##FIRSTX=26
##LASTX=127
##FIRSTY=168
##MAXX=127
##MINX=26
##MAXY=9999
##MINY=86
##NPOINTS=35
##PEAK TABLE=(XY..XY)
26,168 27,1701 28,230 29,1763
39,2850 41,7877 42,2488 43,2008
50,151 51,403 52,247 53,1248
54,1399 55,9999 56,5691 57,1293
63,86 65,355 66,161 67,1325
68,724 69,4996 70,4458 71,760
77,238 79,169 81,196 82,393
83,1506 84,1195 85,205 97,1493
98,465 126,2627 127,284
##END=
