##TITLE=3-Nonene, (E)-
##JCAMP-DX=4.24
##DATA TYPE=MASS SPECTRUM
##ORIGIN=NIST Mass Spectrometry Data Center, 1990.
##OWNER=NIST Mass Spectrometry Data Center
Collection (C) 2014 copyright by the U.S. Secretary of Commerce
on behalf of the United States of America. All rights reserved.
##CAS REGISTRY NO=20063-92-7
##$NIST MASS SPEC NO=113517
##MOLFORM=C9 H18
##MW=126
##$NIST SOURCE=MSDC
##XUNITS=M/Z
##YUNITS=RELATIVE INTENSITY
##XFACTOR=1
##YFACTOR=1
##FIRSTX=15
##LASTX=127
##FIRSTY=110
##MAXX=127
##MINX=15
##MAXY=9999
##MINY=110
##NPOINTS=35
##PEAK TABLE=(XY..XY)
15,110 27,2250 28,781 29,2495
39,3894 41,9916 42,2773 43,2166
44,132 50,207 51,518 52,299
53,1620 54,1629 55,9999 56,5768
57,1289 65,403 66,211 67,1696
68,930 69,6173 70,4557 71,768
77,279 79,249 81,231 82,382
83,1564 84,1364 85,205 97,1585
98,522 126,3264 127,310
##END=
