##TITLE=Kaur-16-ene, (8.beta.,13.beta.)-
##JCAMP-DX=4.24
##DATA TYPE=MASS SPECTRUM
##ORIGIN=R RYHAGE MS-LAB KAROLINSKA INSTITUTET STOCKHOLM SWEDEN
##OWNER=NIST Mass Spectrometry Data Center
Collection (C) 2014 copyright by the U.S. Secretary of Commerce
on behalf of the United States of America. All rights reserved.
##CAS REGISTRY NO=20070-61-5
##$NIST MASS SPEC NO=42564
##MOLFORM=C20 H32
##MW=272
##$NIST SOURCE=MSDC
##XUNITS=M/Z
##YUNITS=RELATIVE INTENSITY
##XFACTOR=1
##YFACTOR=1
##FIRSTX=17
##LASTX=274
##FIRSTY=120
##MAXX=274
##MINX=17
##MAXY=9999
##MINY=110
##NPOINTS=126
##PEAK TABLE=(XY..XY)
17,120 18,480 27,560 29,850
39,900 40,270 41,4310 42,340
43,1180 51,240 52,170 53,1320
54,250 55,3530 56,620 57,850
65,760 66,380 67,600 68,910
69,3920 70,290 77,2110 78,680
79,3230 80,1540 81,3770 82,1320
83,1100 84,110 85,110 91,5050
92,1960 93,3330 94,1530 95,2940
96,750 97,880 103,410 104,540
105,3040 106,3040 107,2740 108,2110
109,2700 110,490 111,470 115,500
116,240 117,1220 118,590 119,2890
120,2740 121,1840 122,1040 123,3580
124,1060 125,1220 126,140 127,110
128,300 129,420 130,210 131,1410
132,540 133,2400 134,1860 135,1190
136,930 137,1740 138,310 141,140
142,120 143,260 144,140 145,1310
146,810 147,2110 148,2160 149,1400
150,440 151,130 157,160 158,120
159,1690 160,560 161,1320 162,910
163,880 164,180 165,130 171,120
173,790 174,420 175,1510 176,850
177,510 178,160 187,2220 188,930
189,840 190,970 191,370 192,230
201,930 202,660 203,720 204,400
213,250 215,660 216,630 217,220
228,1030 229,5930 230,2210 231,810
232,130 243,490 244,590 245,120
257,5290 258,1130 259,130 272,9999
273,2300 274,220
##END=
