##TITLE=1,3,7-Cyclodecatriene, 1,7-dimethyl-, (Z,E,E,)-
##JCAMP-DX=4.24
##DATA TYPE=MASS SPECTRUM
##ORIGIN=N.W. Davies, Centr. Sci. Lab., Univ. Tasmania, Hobart, Australia
##OWNER=NIST Mass Spectrometry Data Center
Collection (C) 2014 copyright by the U.S. Secretary of Commerce
on behalf of the United States of America. All rights reserved.
##CAS REGISTRY NO=20082-17-1
##$NIST MASS SPEC NO=107024
##MOLFORM=C12 H18
##MW=162
##$NIST SOURCE=MSDC
##XUNITS=M/Z
##YUNITS=RELATIVE INTENSITY
##XFACTOR=1
##YFACTOR=1
##FIRSTX=37
##LASTX=162
##FIRSTY=550
##MAXX=162
##MINX=37
##MAXY=9999
##MINY=220
##NPOINTS=40
##PEAK TABLE=(XY..XY)
37,550 38,550 45,960 50,220
51,2060 52,660 53,3600 54,800
55,2560 56,690 63,720 64,610
65,2970 66,850 67,1840 70,1570
74,720 75,520 77,9999 78,2560
80,4310 81,1570 89,830 91,6790
92,1350 93,7120 103,1700 105,3300
106,1920 107,2360 109,440 115,550
119,2030 120,1810 121,580 133,940
134,580 147,3710 148,1150 162,2470
##END=
