##TITLE=Seychellene
##JCAMP-DX=4.24
##DATA TYPE=MASS SPECTRUM
##ORIGIN=NIST Mass Spectrometry Data Center
##OWNER=NIST Mass Spectrometry Data Center
Collection (C) 2014 copyright by the U.S. Secretary of Commerce
on behalf of the United States of America. All rights reserved.
##CAS REGISTRY NO=20085-93-2
##$NIST MASS SPEC NO=412437
##MOLFORM=C15 H24
##MW=204
##$NIST SOURCE=MSDC
##XUNITS=M/Z
##YUNITS=RELATIVE INTENSITY
##XFACTOR=1
##YFACTOR=1
##FIRSTX=39
##LASTX=206
##FIRSTY=120
##MAXX=206
##MINX=39
##MAXY=9999
##MINY=10
##NPOINTS=112
##PEAK TABLE=(XY..XY)
39,120 40,50 41,661 42,70
43,120 50,30 51,160 52,80
53,440 54,50 55,741 56,50
57,60 58,20 59,10 62,10
63,70 64,40 65,400 66,110
67,651 68,90 69,290 70,50
71,30 72,20 73,10 74,10
75,10 76,20 77,1181 78,280
79,1551 80,290 81,1031 82,150
83,90 84,10 85,10 88,10
89,40 90,10 91,2092 92,380
93,1952 94,1001 95,1621 96,160
97,50 98,30 101,10 102,30
103,260 104,120 105,2192 106,611
107,2152 108,1441 109,901 110,100
111,30 112,10 115,290 116,110
117,370 118,100 119,1702 120,961
121,1672 122,9999 123,1441 124,120
125,10 127,30 128,110 129,110
130,50 131,210 132,60 133,1121
134,661 135,751 136,230 137,30
141,30 142,20 143,30 144,10
145,130 146,50 147,1051 148,360
149,360 150,50 157,10 159,30
160,30 161,651 162,170 163,30
173,10 174,10 175,611 176,210
177,20 189,1271 190,190 191,10
203,10 204,2652 205,430 206,30
##END=
