##TITLE=Benzamide, 2,6-dichloro-
##JCAMP-DX=4.24
##DATA TYPE=MASS SPECTRUM
##ORIGIN=NIST Mass Spectrometry Data Center, 1994
##OWNER=NIST Mass Spectrometry Data Center
Collection (C) 2014 copyright by the U.S. Secretary of Commerce
on behalf of the United States of America. All rights reserved.
##CAS REGISTRY NO=2008-58-4
##$NIST MASS SPEC NO=135804
##MOLFORM=C7 H5 Cl2 N O
##MW=189
##$NIST SOURCE=MSDC
##XUNITS=M/Z
##YUNITS=RELATIVE INTENSITY
##XFACTOR=1
##YFACTOR=1
##FIRSTX=12
##LASTX=194
##FIRSTY=41
##MAXX=194
##MINX=12
##MAXY=9999
##MINY=10
##NPOINTS=92
##PEAK TABLE=(XY..XY)
12,41 16,407 25,54 26,18
28,150 32,14 35,178 36,210
37,916 38,490 39,219 42,10
43,123 44,2580 47,201 48,107
49,704 50,1238 51,442 52,132
53,85 55,186 56,60 60,175
61,435 62,364 63,537 64,125
65,71 69,39 71,67 72,244
73,1155 74,2998 75,2962 76,320
77,144 80,102 81,69 84,1153
85,520 86,476 87,273 89,62
90,376 91,75 95,40 96,63
97,92 98,66 99,184 100,163
101,79 106,38 107,45 109,2266
110,908 111,1484 112,319 113,260
118,98 119,87 120,43 121,61
124,147 125,47 126,72 133,72
135,56 136,112 138,108 145,2644
146,583 147,1766 148,354 149,313
150,68 160,34 162,28 171,153
173,9999 174,951 175,6482 176,557
177,1126 178,86 189,3523 190,287
191,2310 192,188 193,385 194,30
##END=
