##TITLE=Benzene, 1,2,3-trichloro-5-nitro-
##JCAMP-DX=4.24
##DATA TYPE=MASS SPECTRUM
##ORIGIN=NIST Mass Spectrometry Data Center, 1998.
##OWNER=NIST Mass Spectrometry Data Center
Collection (C) 2014 copyright by the U.S. Secretary of Commerce
on behalf of the United States of America. All rights reserved.
##CAS REGISTRY NO=20098-48-0
##$NIST MASS SPEC NO=291050
##MOLFORM=C6 H2 Cl3 N O2
##MW=225
##$NIST SOURCE=MSDC
##XUNITS=M/Z
##YUNITS=RELATIVE INTENSITY
##XFACTOR=1
##YFACTOR=1
##FIRSTX=16
##LASTX=232
##FIRSTY=10
##MAXX=232
##MINX=16
##MAXY=9999
##MINY=10
##NPOINTS=134
##PEAK TABLE=(XY..XY)
16,10 25,10 30,3170 31,10
35,200 36,180 37,720 38,240
39,10 46,440 47,250 48,40
49,480 50,390 51,20 53,10
54,30 59,10 60,370 61,840
62,560 63,80 64,10 65,10
70,10 71,280 72,670 73,2560
74,5519 75,480 76,20 77,10
82,20 83,360 84,1970 85,490
86,770 87,300 88,150 89,10
90,10 94,150 95,50 96,410
97,890 98,230 99,290 100,20
106,60 107,980 108,4240 109,5879
110,1760 111,1860 112,50 117,30
118,440 119,470 120,260 121,260
122,50 123,30 124,30 125,20
126,10 129,10 130,10 131,200
132,60 133,150 134,80 135,30
136,10 137,10 141,30 143,7669
144,3890 145,5159 146,2460 147,950
148,400 149,10 153,20 155,20
156,10 157,10 158,140 159,30
160,240 161,20 162,120 164,10
167,7059 168,430 169,6809 170,380
171,2210 172,60 173,210 174,10
179,9999 180,820 181,9489 182,690
183,3100 184,190 185,310 186,10
190,20 192,10 195,2680 196,200
197,2570 198,170 199,830 200,30
201,80 202,10 205,20 207,20
209,210 210,10 211,200 212,10
213,60 215,10 225,9209 226,660
227,8839 228,640 229,2880 230,190
231,300 232,10
##END=
