##TITLE=1-Hexanol, 6-chloro-
##JCAMP-DX=4.24
##DATA TYPE=MASS SPECTRUM
##ORIGIN=Japan AIST/NIMC Database- Spectrum MS-NW-3056
##OWNER=NIST Mass Spectrometry Data Center
Collection (C) 2014 copyright by the U.S. Secretary of Commerce
on behalf of the United States of America. All rights reserved.
##CAS REGISTRY NO=2009-83-8
##$NIST MASS SPEC NO=231329
##MOLFORM=C6 H13 Cl O
##MW=136
##$NIST SOURCE=MSDC
##XUNITS=M/Z
##YUNITS=RELATIVE INTENSITY
##XFACTOR=1
##YFACTOR=1
##FIRSTX=14
##LASTX=137
##FIRSTY=20
##MAXX=137
##MINX=14
##MAXY=9999
##MINY=10
##NPOINTS=89
##PEAK TABLE=(XY..XY)
14,20 15,139 16,10 18,20
26,189 27,2169 28,499 29,1759
30,80 31,4799 32,50 33,30
35,20 36,129 37,40 38,119
39,1669 40,369 41,7559 42,6659
43,2409 44,519 45,459 46,20
47,20 48,10 49,419 50,80
51,149 52,50 53,589 54,2299
55,9999 56,4309 57,1419 58,109
59,70 61,50 62,189 63,569
64,60 65,189 66,50 67,3969
68,659 69,7549 70,1049 71,129
72,90 73,60 75,229 76,599
77,269 78,209 79,109 80,189
81,649 82,4139 83,1519 84,99
85,40 86,30 88,20 89,119
90,3859 91,329 92,1239 93,99
97,20 98,139 99,60 100,30
101,10 103,40 104,40 105,70
106,30 107,20 108,10 116,20
117,40 118,229 119,40 120,80
121,10 134,10 135,30 136,10
137,10
##END=
