##TITLE=trans-Chrysanthemal
##JCAMP-DX=4.24
##DATA TYPE=MASS SPECTRUM
##ORIGIN=W.Epstein ET AL.J.Chem.Eng.Data,21,500(1976)
##OWNER=NIST Mass Spectrometry Data Center
Collection (C) 2014 copyright by the U.S. Secretary of Commerce
on behalf of the United States of America. All rights reserved.
##CAS REGISTRY NO=20104-05-6
##$NIST MASS SPEC NO=281693
##MOLFORM=C10 H16 O
##MW=152
##$NIST SOURCE=MSDC
##XUNITS=M/Z
##YUNITS=RELATIVE INTENSITY
##XFACTOR=1
##YFACTOR=1
##FIRSTX=41
##LASTX=152
##FIRSTY=9629
##MAXX=152
##MINX=41
##MAXY=9999
##MINY=60
##NPOINTS=51
##PEAK TABLE=(XY..XY)
41,9629 42,300 43,4794 45,60
50,170 51,571 52,270 53,1992
54,210 55,2823 56,250 57,1001
61,80 62,110 63,170 65,971
66,150 67,3503 68,400 69,2012
77,1421 78,250 79,2372 80,170
81,7827 82,591 83,340 84,110
85,80 91,1291 92,440 93,1211
94,250 95,1932 96,360 97,80
105,300 106,490 107,490 108,470
109,1101 110,190 111,60 119,250
121,250 122,190 123,9999 124,1101
134,80 137,550 152,190
##END=
