##TITLE=2-Thiazolamine, 4-phenyl-
##JCAMP-DX=4.24
##DATA TYPE=MASS SPECTRUM
##ORIGIN=NIST Mass Spectrometry Data Center, 1994
##OWNER=NIST Mass Spectrometry Data Center
Collection (C) 2014 copyright by the U.S. Secretary of Commerce
on behalf of the United States of America. All rights reserved.
##CAS REGISTRY NO=2010-06-2
##$NIST MASS SPEC NO=136882
##MOLFORM=C9 H8 N2 S
##MW=176
##$NIST SOURCE=MSDC
##XUNITS=M/Z
##YUNITS=RELATIVE INTENSITY
##XFACTOR=1
##YFACTOR=1
##FIRSTX=26
##LASTX=180
##FIRSTY=116
##MAXX=180
##MINX=26
##MAXY=9999
##MINY=2
##NPOINTS=106
##PEAK TABLE=(XY..XY)
26,116 27,235 28,151 33,56
37,211 38,421 39,1090 40,137
41,8 42,702 43,450 44,102
45,1536 46,235 47,112 48,32
49,115 50,1221 51,1819 52,379
53,141 54,49 55,19 57,94
58,195 60,319 61,238 62,577
63,1414 64,309 65,127 66,114
67,137 68,19 69,986 70,194
71,182 72,52 73,342 74,417
75,550 76,776 77,1255 78,143
79,32 81,233 82,349 83,74
84,234 85,83 86,130 87,202
88,545 89,2821 90,2163 91,231
92,41 93,404 94,84 95,139
96,27 98,71 99,44 100,29
101,60 102,550 103,321 104,1501
105,236 106,106 107,27 108,904
109,99 110,43 114,34 115,47
116,93 117,194 118,39 119,36
120,39 121,253 122,107 123,27
129,144 130,37 131,291 132,348
133,27 134,7921 135,934 136,420
137,45 142,28 146,70 147,34
148,129 149,383 150,54 159,56
160,27 176,9999 177,1150 178,501
179,50 180,2
##END=
