##TITLE=1,2-Benzenedicarboxylic acid, 4-methyl-, dimethyl ester
##JCAMP-DX=4.24
##DATA TYPE=MASS SPECTRUM
##ORIGIN=CARL DJERASSI DEPT OF CHEM STANFORD UNIV STANFORD CALIF 94305
##OWNER=NIST Mass Spectrometry Data Center
Collection (C) 2014 copyright by the U.S. Secretary of Commerce
on behalf of the United States of America. All rights reserved.
##CAS REGISTRY NO=20116-65-8
##$NIST MASS SPEC NO=47437
##MOLFORM=C11 H12 O4
##MW=208
##$NIST SOURCE=MSDC
##XUNITS=M/Z
##YUNITS=RELATIVE INTENSITY
##XFACTOR=1
##YFACTOR=1
##FIRSTX=45
##LASTX=208
##FIRSTY=100
##MAXX=208
##MINX=45
##MAXY=9999
##MINY=100
##NPOINTS=19
##PEAK TABLE=(XY..XY)
45,100 51,100 63,200 65,200
77,100 78,100 89,200 90,300
91,1200 105,100 106,300 118,200
119,100 134,100 147,100 149,600
177,9999 178,800 208,1500
##END=
