##TITLE=2-(p-Chlorophenyl)-3-methylbutyric acid
##JCAMP-DX=4.24
##DATA TYPE=MASS SPECTRUM
##ORIGIN=NIST Mass Spectrometry Data Center, 1994
##OWNER=NIST Mass Spectrometry Data Center
Collection (C) 2014 copyright by the U.S. Secretary of Commerce
on behalf of the United States of America. All rights reserved.
##CAS REGISTRY NO=2012-74-0
##$NIST MASS SPEC NO=135734
##MOLFORM=C11 H13 Cl O2
##MW=212
##$NIST SOURCE=MSDC
##XUNITS=M/Z
##YUNITS=RELATIVE INTENSITY
##XFACTOR=1
##YFACTOR=1
##FIRSTX=15
##LASTX=215
##FIRSTY=452
##MAXX=215
##MINX=15
##MAXY=9999
##MINY=14
##NPOINTS=118
##PEAK TABLE=(XY..XY)
15,452 16,14 17,47 18,67
19,32 26,53 27,1871 28,227
29,353 35,44 36,51 37,111
38,291 39,2290 40,240 41,2267
42,227 43,4101 44,186 45,1207
46,63 47,30 49,79 50,620
51,1132 52,187 53,320 54,30
55,798 56,85 57,228 60,34
61,182 62,593 63,1453 64,224
65,399 66,54 67,30 69,49
71,32 73,337 74,137 75,826
76,30 77,2891 78,459 79,621
80,76 81,30 84,35 85,139
86,200 87,300 88,30 89,2538
90,456 91,896 92,81 96,20
97,104 98,40 99,387 100,78
101,342 102,281 103,351 104,60
105,116 106,20 107,507 108,40
110,25 111,140 112,161 113,536
114,25 115,2071 116,683 117,631
118,87 124,1135 125,6642 126,949
127,2182 128,388 129,138 130,106
131,144 132,43 133,27 134,27
135,1293 136,166 137,74 138,48
139,246 140,27 141,592 142,48
143,207 144,27 149,113 152,3630
153,402 154,1114 155,122 165,33
166,58 167,338 170,9999 171,1029
172,3293 173,289 212,1854 213,258
214,647 215,75
##END=
