##TITLE=2-Pentane isothiocyanate
##JCAMP-DX=4.24
##DATA TYPE=MASS SPECTRUM
##ORIGIN=NIST Mass Spectrometry Data Center, 1994
##OWNER=NIST Mass Spectrometry Data Center
Collection (C) 2014 copyright by the U.S. Secretary of Commerce
on behalf of the United States of America. All rights reserved.
##CAS REGISTRY NO=201224-94-4
##$NIST MASS SPEC NO=134758
##MOLFORM=C6 H11 N S
##MW=129
##$NIST SOURCE=MSDC
##XUNITS=M/Z
##YUNITS=RELATIVE INTENSITY
##XFACTOR=1
##YFACTOR=1
##FIRSTX=4
##LASTX=132
##FIRSTY=18
##MAXX=132
##MINX=4
##MAXY=9999
##MINY=13
##NPOINTS=66
##PEAK TABLE=(XY..XY)
4,18 14,63 15,319 16,13
26,378 27,2972 28,751 29,2064
30,55 32,209 33,36 34,26
37,81 38,220 39,2102 40,412
41,3438 42,1371 43,9999 44,509
45,217 46,32 47,25 50,96
51,165 52,120 53,288 54,225
55,2156 56,145 57,150 58,457
59,857 60,979 61,71 62,65
63,28 64,23 65,34 67,47
68,43 69,185 70,1815 71,1670
72,977 73,54 74,56 82,17
83,29 84,137 85,17 86,2883
87,193 88,141 96,97 98,33
99,13 100,116 101,21 114,296
115,20 116,21 129,3271 130,267
131,152 132,16
##END=
