##TITLE=3-Pentane isothiocyanate
##JCAMP-DX=4.24
##DATA TYPE=MASS SPECTRUM
##ORIGIN=NIST Mass Spectrometry Data Center, 1994
##OWNER=NIST Mass Spectrometry Data Center
Collection (C) 2014 copyright by the U.S. Secretary of Commerce
on behalf of the United States of America. All rights reserved.
##CAS REGISTRY NO=201224-89-7
##$NIST MASS SPEC NO=134546
##MOLFORM=C6 H11 N S
##MW=129
##$NIST SOURCE=MSDC
##XUNITS=M/Z
##YUNITS=RELATIVE INTENSITY
##XFACTOR=1
##YFACTOR=1
##FIRSTX=14
##LASTX=131
##FIRSTY=46
##MAXX=131
##MINX=14
##MAXY=9999
##MINY=26
##NPOINTS=58
##PEAK TABLE=(XY..XY)
14,46 15,201 26,392 27,2417
28,655 29,2118 30,61 32,184
37,105 38,270 39,2438 40,477
41,6157 42,1163 43,9999 44,528
45,329 46,42 47,26 50,90
51,171 52,123 53,292 54,206
55,2027 56,185 57,127 58,416
59,510 60,316 61,45 62,40
63,35 64,28 66,28 67,82
68,49 69,28 70,2187 71,1829
72,2884 73,140 74,132 82,29
83,37 84,118 85,96 86,375
87,30 96,65 98,69 100,1864
101,131 102,93 114,229 129,4509
130,323 131,226
##END=
