##TITLE=2-(p-Chlorophenyl)-3-methylbutyronitrile
##JCAMP-DX=4.24
##DATA TYPE=MASS SPECTRUM
##ORIGIN=NIST Mass Spectrometry Data Center, 1994
##OWNER=NIST Mass Spectrometry Data Center
Collection (C) 2014 copyright by the U.S. Secretary of Commerce
on behalf of the United States of America. All rights reserved.
##CAS REGISTRY NO=2012-81-9
##$NIST MASS SPEC NO=135129
##MOLFORM=C11 H12 Cl N
##MW=193
##$NIST SOURCE=MSDC
##XUNITS=M/Z
##YUNITS=RELATIVE INTENSITY
##XFACTOR=1
##YFACTOR=1
##FIRSTX=7
##LASTX=196
##FIRSTY=11
##MAXX=196
##MINX=7
##MAXY=9999
##MINY=1
##NPOINTS=121
##PEAK TABLE=(XY..XY)
7,11 9,6 10,9 11,8
13,18 15,344 17,17 18,26
24,8 27,1635 28,202 29,95
30,3 32,1 35,19 36,8
37,167 38,406 39,1617 40,1
41,2482 42,1 43,3975 44,164
47,27 49,128 50,714 51,667
52,138 53,136 54,27 55,33
56,15 57,53 60,32 61,214
62,605 63,1101 64,302 65,191
66,50 67,13 68,1 69,6
71,39 73,459 74,333 75,799
76,222 77,306 78,42 79,9
80,15 84,64 85,97 86,187
87,415 88,600 89,1784 90,213
91,93 92,9 95,11 97,92
98,68 99,213 100,76 101,178
102,116 103,80 104,16 109,10
110,27 111,97 112,94 113,147
114,664 115,781 116,1850 117,221
118,13 119,7 121,13 123,736
124,714 125,481 126,277 127,128
128,98 129,41 130,26 131,16
136,31 137,35 138,46 139,32
140,110 141,34 142,40 143,33
144,10 147,15 151,9999 152,1211
153,3163 154,326 155,16 157,9
162,12 163,26 164,8 165,9
177,12 178,58 179,12 180,19
191,2 193,705 194,102 195,246
196,37
##END=
