##TITLE=Benzene, 1,3-dichloro-2-(chloromethyl)-
##JCAMP-DX=4.24
##DATA TYPE=MASS SPECTRUM
##ORIGIN=Japan AIST/NIMC Database- Spectrum MS-NW-8759
##OWNER=NIST Mass Spectrometry Data Center
Collection (C) 2014 copyright by the U.S. Secretary of Commerce
on behalf of the United States of America. All rights reserved.
##CAS REGISTRY NO=2014-83-7
##$NIST MASS SPEC NO=235626
##MOLFORM=C7 H5 Cl3
##MW=194
##$NIST SOURCE=MSDC
##XUNITS=M/Z
##YUNITS=RELATIVE INTENSITY
##XFACTOR=1
##YFACTOR=1
##FIRSTX=26
##LASTX=200
##FIRSTY=20
##MAXX=200
##MINX=26
##MAXY=9999
##MINY=10
##NPOINTS=81
##PEAK TABLE=(XY..XY)
26,20 27,10 28,10 35,50
36,149 37,129 38,149 39,319
40,10 43,359 44,339 47,30
48,20 49,119 50,239 51,169
60,109 61,869 62,909 63,1009
64,60 71,10 72,70 73,619
74,139 75,259 76,10 77,10
78,20 79,429 80,289 81,50
83,40 84,80 85,159 86,229
87,269 88,109 89,1039 90,80
96,50 97,309 98,90 99,309
100,10 101,70 107,60 108,10
109,70 110,10 111,20 120,10
121,20 122,10 123,1439 124,519
125,599 126,169 127,40 131,10
133,249 134,10 135,159 136,10
137,20 157,40 158,80 159,9999
160,869 161,6449 162,529 163,1049
164,80 193,50 194,1869 195,189
196,1799 197,149 198,569 199,40
200,60
##END=
