##TITLE=1-Decanamine, N-(phenylmethylene)-
##JCAMP-DX=4.24
##DATA TYPE=MASS SPECTRUM
##ORIGIN=CARL DJERASSI DEPT OF CHEM STANFORD UNIV STANFORD CALIF 94305
##OWNER=NIST Mass Spectrometry Data Center
Collection (C) 2014 copyright by the U.S. Secretary of Commerce
on behalf of the United States of America. All rights reserved.
##CAS REGISTRY NO=20172-41-2
##$NIST MASS SPEC NO=47705
##MOLFORM=C17 H27 N
##MW=245
##$NIST SOURCE=MSDC
##XUNITS=M/Z
##YUNITS=RELATIVE INTENSITY
##XFACTOR=1
##YFACTOR=1
##FIRSTX=41
##LASTX=246
##FIRSTY=2079
##MAXX=246
##MINX=41
##MAXY=9999
##MINY=99
##NPOINTS=72
##PEAK TABLE=(XY..XY)
41,2079 42,297 43,1287 44,99
50,198 51,297 52,198 53,99
54,99 55,1188 56,198 57,297
63,198 64,99 65,396 67,99
68,99 69,297 70,297 71,99
74,99 75,99 76,198 77,792
78,297 79,396 81,99 82,99
83,297 84,198 89,396 90,495
91,4851 92,594 96,198 97,99
103,297 104,1683 105,891 106,1386
107,198 117,1188 118,4554 119,2574
120,1485 121,297 130,198 131,396
132,3168 133,1089 134,198 144,198
146,891 147,396 154,198 160,9999
161,1485 162,297 168,495 174,1881
175,396 188,891 189,198 202,594
203,198 216,396 217,198 229,99
230,297 244,693 245,495 246,297
##END=
