##TITLE=4-Nonyne
##JCAMP-DX=4.24
##DATA TYPE=MASS SPECTRUM
##ORIGIN=NIST Mass Spectrometry Data Center, 1990.
##OWNER=NIST Mass Spectrometry Data Center
Collection (C) 2014 copyright by the U.S. Secretary of Commerce
on behalf of the United States of America. All rights reserved.
##CAS REGISTRY NO=20184-91-2
##$NIST MASS SPEC NO=114734
##MOLFORM=C9 H16
##MW=124
##$NIST SOURCE=MSDC
##XUNITS=M/Z
##YUNITS=RELATIVE INTENSITY
##XFACTOR=1
##YFACTOR=1
##FIRSTX=14
##LASTX=125
##FIRSTY=5
##MAXX=125
##MINX=14
##MAXY=9999
##MINY=5
##NPOINTS=45
##PEAK TABLE=(XY..XY)
14,5 15,46 26,131 27,1153
28,61 29,666 38,177 39,1741
40,446 41,2366 42,275 43,597
50,389 51,928 52,922 53,2054
54,2234 55,1853 56,188 62,134
63,309 64,104 65,886 66,104
67,9999 68,1172 69,286 74,53
77,767 78,209 79,1464 80,444
81,3136 82,1009 83,107 91,270
92,40 93,363 94,40 95,2761
96,395 109,453 110,50 124,832
125,80
##END=
