##TITLE=1H-Pyrrole-2,5-dione, 3-ethyl-4-methyl-
##JCAMP-DX=4.24
##DATA TYPE=MASS SPECTRUM
##ORIGIN=NIST Mass Spectrometry Data Center
##OWNER=NIST Mass Spectrometry Data Center
Collection (C) 2014 copyright by the U.S. Secretary of Commerce
on behalf of the United States of America. All rights reserved.
##CAS REGISTRY NO=20189-42-8
##$NIST MASS SPEC NO=412808
##MOLFORM=C7 H9 N O2
##MW=139
##$NIST SOURCE=MSDC
##XUNITS=M/Z
##YUNITS=RELATIVE INTENSITY
##XFACTOR=1
##YFACTOR=1
##FIRSTX=26
##LASTX=140
##FIRSTY=130
##MAXX=140
##MINX=26
##MAXY=9999
##MINY=60
##NPOINTS=54
##PEAK TABLE=(XY..XY)
26,130 27,661 29,110 30,130
31,60 37,150 38,571 39,2302
40,1081 41,1812 42,450 43,440
44,761 45,70 49,70 50,611
51,1091 52,891 53,4444 54,400
60,100 61,120 62,200 63,510
64,200 65,1001 66,1321 67,9368
68,3373 69,390 70,450 71,160
73,90 77,190 78,270 81,561
82,300 92,270 93,520 94,430
95,601 96,1792 106,751 107,80
109,80 110,1091 111,490 120,150
121,520 124,3233 125,130 138,350
139,9999 140,921
##END=
