##TITLE=1-Propanamine, N-ethyl-
##JCAMP-DX=4.24
##DATA TYPE=MASS SPECTRUM
##ORIGIN=CARL DJERASSI DEPT OF CHEM STANFORD UNIV STANFORD CALIF 94305
##OWNER=NIST Mass Spectrometry Data Center
Collection (C) 2014 copyright by the U.S. Secretary of Commerce
on behalf of the United States of America. All rights reserved.
##CAS REGISTRY NO=20193-20-8
##$NIST MASS SPEC NO=51530
##MOLFORM=C5 H13 N
##MW=87
##$NIST SOURCE=MSDC
##XUNITS=M/Z
##YUNITS=RELATIVE INTENSITY
##XFACTOR=1
##YFACTOR=1
##FIRSTX=15
##LASTX=87
##FIRSTY=100
##MAXX=87
##MINX=15
##MAXY=9999
##MINY=100
##NPOINTS=27
##PEAK TABLE=(XY..XY)
15,100 27,800 28,900 29,600
30,5200 31,100 41,800 42,400
43,700 44,1100 45,100 46,100
55,100 56,300 57,100 58,9999
59,400 60,100 69,100 70,100
71,100 72,1000 73,100 84,100
85,100 86,500 87,1600
##END=
