##TITLE=1-Butanamine, N-propyl-
##JCAMP-DX=4.24
##DATA TYPE=MASS SPECTRUM
##OWNER=NIST Mass Spectrometry Data Center
Collection (C) 2014 copyright by the U.S. Secretary of Commerce
on behalf of the United States of America. All rights reserved.
##CAS REGISTRY NO=20193-21-9
##$NIST MASS SPEC NO=1854
##MOLFORM=C7 H17 N
##MW=115
##$NIST SOURCE=MSDC
##XUNITS=M/Z
##YUNITS=RELATIVE INTENSITY
##XFACTOR=1
##YFACTOR=1
##FIRSTX=15
##LASTX=115
##FIRSTY=100
##MAXX=115
##MINX=15
##MAXY=9999
##MINY=10
##NPOINTS=35
##PEAK TABLE=(XY..XY)
15,100 27,1000 28,900 29,1300
30,7499 31,100 41,1900 42,700
43,1500 44,3600 45,100 55,200
56,500 57,900 58,2500 59,100
60,10 69,30 70,400 71,60
72,9999 73,500 83,100 84,100
85,70 86,4300 87,300 98,40
99,10 100,700 101,300 112,30
113,10 114,700 115,1800
##END=
