##TITLE=3-(4-Chlorophenyl)propionic acid
##JCAMP-DX=4.24
##DATA TYPE=MASS SPECTRUM
##ORIGIN=NIST Mass Spectrometry Data Center, 1994
##OWNER=NIST Mass Spectrometry Data Center
Collection (C) 2014 copyright by the U.S. Secretary of Commerce
on behalf of the United States of America. All rights reserved.
##CAS REGISTRY NO=2019-34-3
##$NIST MASS SPEC NO=134809
##MOLFORM=C9 H9 Cl O2
##MW=184
##$NIST SOURCE=MSDC
##XUNITS=M/Z
##YUNITS=RELATIVE INTENSITY
##XFACTOR=1
##YFACTOR=1
##FIRSTX=4
##LASTX=187
##FIRSTY=32
##MAXX=187
##MINX=4
##MAXY=9999
##MINY=12
##NPOINTS=93
##PEAK TABLE=(XY..XY)
4,32 14,73 15,59 17,26
18,36 26,111 27,655 28,256
29,138 31,95 32,12 36,47
37,117 38,220 39,667 40,58
41,50 42,142 43,155 44,12
45,952 46,40 47,38 49,142
50,1057 51,1705 52,259 53,113
54,24 55,138 60,55 61,153
62,394 63,980 64,137 65,194
68,36 69,73 70,31 72,42
73,367 74,576 75,1171 76,400
77,2208 78,416 79,371 80,33
84,60 85,141 86,117 87,129
88,33 89,1435 90,404 91,121
97,73 98,84 99,469 100,74
101,527 102,589 103,1849 104,333
105,142 106,73 107,1445 108,118
111,163 112,538 113,150 114,183
115,33 121,37 123,43 125,9999
126,856 127,3326 128,238 131,77
136,49 138,2762 139,520 140,886
141,205 149,201 150,31 165,26
167,41 184,2597 185,310 186,775
187,78
##END=
