##TITLE=Benzene, (1-butylpentyl)-
##JCAMP-DX=4.24
##DATA TYPE=MASS SPECTRUM
##OWNER=NIST Mass Spectrometry Data Center
Collection (C) 2014 copyright by the U.S. Secretary of Commerce
on behalf of the United States of America. All rights reserved.
##CAS REGISTRY NO=20216-88-0
##$NIST MASS SPEC NO=9264
##MOLFORM=C15 H24
##MW=204
##$NIST SOURCE=MSDC
##XUNITS=M/Z
##YUNITS=RELATIVE INTENSITY
##XFACTOR=1
##YFACTOR=1
##FIRSTX=27
##LASTX=205
##FIRSTY=608
##MAXX=205
##MINX=27
##MAXY=9999
##MINY=177
##NPOINTS=34
##PEAK TABLE=(XY..XY)
27,608 28,1772 29,759 39,683
40,203 41,1190 42,203 43,962
44,203 51,228 55,557 56,405
57,405 65,557 69,405 70,203
71,203 77,557 78,430 79,203
85,177 91,9999 92,1164 103,405
104,759 105,2152 106,177 115,354
116,177 117,405 147,4354 148,582
204,1190 205,203
##END=
