##TITLE=Benzenepropanoic acid, ethyl ester
##JCAMP-DX=4.24
##DATA TYPE=MASS SPECTRUM
##ORIGIN=NIST Mass Spectrometry Data Center, 1994
##OWNER=NIST Mass Spectrometry Data Center
Collection (C) 2014 copyright by the U.S. Secretary of Commerce
on behalf of the United States of America. All rights reserved.
##CAS REGISTRY NO=2021-28-5
##$NIST MASS SPEC NO=133451
##MOLFORM=C11 H14 O2
##MW=178
##$NIST SOURCE=MSDC
##XUNITS=M/Z
##YUNITS=RELATIVE INTENSITY
##XFACTOR=1
##YFACTOR=1
##FIRSTX=14
##LASTX=180
##FIRSTY=55
##MAXX=180
##MINX=14
##MAXY=9999
##MINY=3
##NPOINTS=65
##PEAK TABLE=(XY..XY)
14,55 15,162 26,205 27,1194
28,333 29,1364 30,102 31,60
32,3 38,101 39,656 40,60
41,118 42,247 43,301 44,26
45,139 50,447 51,1409 52,327
53,151 54,15 55,120 61,20
62,103 63,393 64,126 65,988
66,171 73,34 74,115 75,128
76,226 77,2069 78,1408 79,1868
80,133 87,24 89,240 91,5603
92,563 93,31 101,34 102,233
103,1520 104,9999 105,4048 106,31
107,4081 108,303 115,20 117,29
118,49 119,56 131,187 132,190
133,1069 134,119 135,15 147,27
149,127 150,55 178,2689 179,309
180,29
##END=
