##TITLE=Bicyclo[2.2.1]hept-5-ene-2,3-diol-, (exo,exo)-
##JCAMP-DX=4.24
##DATA TYPE=MASS SPECTRUM
##ORIGIN=F. TURECEK,HEYROVSKY INST PHYS CHEM & ELECTROCHEM,PRAGUE,CZECH
##OWNER=NIST Mass Spectrometry Data Center
Collection (C) 2014 copyright by the U.S. Secretary of Commerce
on behalf of the United States of America. All rights reserved.
##CAS REGISTRY NO=20224-38-8
##$NIST MASS SPEC NO=105254
##MOLFORM=C7 H10 O2
##MW=126
##$NIST SOURCE=MSDC
##XUNITS=M/Z
##YUNITS=RELATIVE INTENSITY
##XFACTOR=1
##YFACTOR=1
##FIRSTX=14
##LASTX=126
##FIRSTY=150
##MAXX=126
##MINX=14
##MAXY=9999
##MINY=20
##NPOINTS=58
##PEAK TABLE=(XY..XY)
14,150 15,320 25,40 26,350
27,1690 28,370 29,1450 30,220
31,1100 32,80 37,260 38,650
39,3760 40,1390 41,1860 42,1030
43,420 44,100 45,40 47,60
48,60 49,20 50,500 51,1000
52,390 53,730 54,170 55,510
56,40 60,7320 61,260 62,240
63,390 64,120 65,1750 66,9660
67,9999 68,640 69,200 70,250
71,50 73,70 76,1720 77,430
78,2400 79,310 80,270 81,60
82,90 90,120 91,60 94,420
95,70 96,50 106,200 107,130
108,60 126,80
##END=
