##TITLE=cis-3-Nonene
##JCAMP-DX=4.24
##DATA TYPE=MASS SPECTRUM
##ORIGIN=NIST Mass Spectrometry Data Center, 1990.
##OWNER=NIST Mass Spectrometry Data Center
Collection (C) 2014 copyright by the U.S. Secretary of Commerce
on behalf of the United States of America. All rights reserved.
##CAS REGISTRY NO=20237-46-1
##$NIST MASS SPEC NO=113523
##MOLFORM=C9 H18
##MW=126
##$NIST SOURCE=MSDC
##XUNITS=M/Z
##YUNITS=RELATIVE INTENSITY
##XFACTOR=1
##YFACTOR=1
##FIRSTX=27
##LASTX=127
##FIRSTY=1855
##MAXX=127
##MINX=27
##MAXY=9999
##MINY=127
##NPOINTS=35
##PEAK TABLE=(XY..XY)
27,1855 28,795 29,2013 32,127
39,3345 41,8804 42,2592 43,2109
44,134 50,203 51,452 52,293
53,1453 54,1563 55,9999 56,5600
57,1217 65,391 66,210 67,1567
68,824 69,4917 70,4472 71,763
77,255 79,252 81,235 82,423
83,1598 84,1421 85,229 97,1738
98,562 126,3327 127,329
##END=
