##TITLE=Hydrazine, 1-butyl-1-methyl-
##JCAMP-DX=4.24
##DATA TYPE=MASS SPECTRUM
##ORIGIN=ATLAS OF MASS SPECTRA OF ORGANIC COMPOUNDS, V. A. KOPTYUG, ED.
##OWNER=NIST Mass Spectrometry Data Center
Collection (C) 2014 copyright by the U.S. Secretary of Commerce
on behalf of the United States of America. All rights reserved.
##CAS REGISTRY NO=20240-62-4
##$NIST MASS SPEC NO=64427
##MOLFORM=C5 H14 N2
##MW=102
##$NIST SOURCE=MSDC
##XUNITS=M/Z
##YUNITS=RELATIVE INTENSITY
##XFACTOR=1
##YFACTOR=1
##FIRSTX=27
##LASTX=103
##FIRSTY=710
##MAXX=103
##MINX=27
##MAXY=9999
##MINY=100
##NPOINTS=22
##PEAK TABLE=(XY..XY)
27,710 29,1110 30,1080 31,1530
39,310 40,780 41,610 42,2040
43,790 44,1050 45,850 46,180
55,120 56,160 57,450 58,130
59,9999 60,320 71,770 72,100
102,1530 103,100
##END=
