##TITLE=2,4,6-Tribromo-2,5-cyclohexadienone
##JCAMP-DX=4.24
##DATA TYPE=MASS SPECTRUM
##ORIGIN=NIST Mass Spectrometry Data Center
##OWNER=NIST Mass Spectrometry Data Center
Collection (C) 2014 copyright by the U.S. Secretary of Commerce
on behalf of the United States of America. All rights reserved.
##CAS REGISTRY NO=20244-61-5
##$NIST MASS SPEC NO=342616
##MOLFORM=C6 H3 Br3 O
##MW=328
##$NIST SOURCE=MSDC
##XUNITS=M/Z
##YUNITS=RELATIVE INTENSITY
##XFACTOR=1
##YFACTOR=1
##FIRSTX=15
##LASTX=335
##FIRSTY=40
##MAXX=335
##MINX=15
##MAXY=9999
##MINY=10
##NPOINTS=97
##PEAK TABLE=(XY..XY)
15,40 18,40 25,110 26,70
29,40 30,50 32,20 36,160
37,561 38,230 39,70 44,10
49,160 50,170 53,480 54,30
60,250 61,1211 62,1682 63,811
64,50 66,40 70,170 71,160
72,70 73,210 74,140 77,50
79,280 80,100 81,210 82,160
85,80 90,330 91,400 93,70
94,80 104,50 110,130 111,230
112,110 116,110 117,150 118,110
119,140 124,70 125,90 131,70
133,50 135,80 139,80 140,150
141,1001 142,210 143,1191 144,130
152,80 165,130 166,180 167,70
169,120 170,260 171,150 172,300
173,80 195,50 197,90 199,50
207,80 220,350 221,350 222,651
223,591 224,370 225,230 248,400
249,170 250,861 251,320 252,520
253,200 265,70 267,150 269,70
280,70 282,180 284,100 299,40
301,160 303,200 328,3303 330,9999
331,791 332,9519 333,621 334,2973
335,210
##END=
