##TITLE=1,3-Dioxane, 2,2,4,6-tetramethyl-, trans-
##JCAMP-DX=4.24
##DATA TYPE=MASS SPECTRUM
##OWNER=NIST Mass Spectrometry Data Center
Collection (C) 2014 copyright by the U.S. Secretary of Commerce
on behalf of the United States of America. All rights reserved.
##CAS REGISTRY NO=20268-00-2
##$NIST MASS SPEC NO=4113
##MOLFORM=C8 H16 O2
##MW=144
##$NIST SOURCE=MSDC
##XUNITS=M/Z
##YUNITS=RELATIVE INTENSITY
##XFACTOR=1
##YFACTOR=1
##FIRSTX=41
##LASTX=130
##FIRSTY=701
##MAXX=130
##MINX=41
##MAXY=9999
##MINY=601
##NPOINTS=13
##PEAK TABLE=(XY..XY)
41,701 42,1401 43,4504 44,601
45,1001 58,1301 59,7006 67,801
68,1101 69,5805 87,2002 129,9999
130,801
##END=
