##TITLE=Heptane, 2,3,5-trimethyl-
##JCAMP-DX=4.24
##DATA TYPE=MASS SPECTRUM
##ORIGIN=D.HENNEBERG, MAX-PLANCK INSTITUTE, MULHEIM, WEST GERMANY
##OWNER=NIST Mass Spectrometry Data Center
Collection (C) 2014 copyright by the U.S. Secretary of Commerce
on behalf of the United States of America. All rights reserved.
##CAS REGISTRY NO=20278-85-7
##$NIST MASS SPEC NO=61400
##MOLFORM=C10 H22
##MW=142
##$NIST SOURCE=MSDC
##XUNITS=M/Z
##YUNITS=RELATIVE INTENSITY
##XFACTOR=1
##YFACTOR=1
##FIRSTX=24
##LASTX=142
##FIRSTY=4
##MAXX=142
##MINX=24
##MAXY=9999
##MINY=2
##NPOINTS=51
##PEAK TABLE=(XY..XY)
24,4 25,8 26,32 27,574
28,77 29,1031 30,31 33,8
38,14 39,423 40,73 41,1916
42,333 43,3659 44,101 45,2
48,3 49,3 50,21 51,26
52,12 53,109 54,32 55,663
56,627 57,9999 58,387 59,8
63,3 65,13 66,5 67,40
68,37 69,646 70,643 71,1331
72,71 77,8 78,3 79,9
81,6 83,95 84,40 85,185
86,10 97,7 98,689 99,588
100,49 113,15 142,14
##END=
