##TITLE=Phenyl isobutyrate
##JCAMP-DX=4.24
##DATA TYPE=MASS SPECTRUM
##ORIGIN=Japan AIST/NIMC Database- Spectrum MS-IW-8105
##OWNER=NIST Mass Spectrometry Data Center
Collection (C) 2014 copyright by the U.S. Secretary of Commerce
on behalf of the United States of America. All rights reserved.
##CAS REGISTRY NO=20279-29-2
##$NIST MASS SPEC NO=237726
##MOLFORM=C10 H12 O2
##MW=164
##$NIST SOURCE=MSDC
##XUNITS=M/Z
##YUNITS=RELATIVE INTENSITY
##XFACTOR=1
##YFACTOR=1
##FIRSTX=15
##LASTX=166
##FIRSTY=20
##MAXX=166
##MINX=15
##MAXY=9999
##MINY=10
##NPOINTS=55
##PEAK TABLE=(XY..XY)
15,20 26,40 27,479 28,30
37,30 38,129 39,929 40,219
41,829 42,509 43,8149 44,309
47,10 50,99 51,329 52,30
53,40 54,10 55,279 56,30
61,10 62,40 63,179 64,80
65,849 66,719 67,40 68,20
69,50 70,7719 71,6319 72,289
73,20 74,30 75,10 76,20
77,759 78,60 79,20 91,50
92,20 93,139 94,9999 95,819
96,50 105,30 107,20 109,10
121,109 122,10 135,20 147,10
164,2859 165,459 166,40
##END=
