##TITLE=Heptane, 3,3,4-trimethyl-
##JCAMP-DX=4.24
##DATA TYPE=MASS SPECTRUM
##ORIGIN=D.HENNEBERG, MAX-PLANCK INSTITUTE, MULHEIM, WEST GERMANY
##OWNER=NIST Mass Spectrometry Data Center
Collection (C) 2014 copyright by the U.S. Secretary of Commerce
on behalf of the United States of America. All rights reserved.
##CAS REGISTRY NO=20278-87-9
##$NIST MASS SPEC NO=62067
##MOLFORM=C10 H22
##MW=142
##$NIST SOURCE=MSDC
##XUNITS=M/Z
##YUNITS=RELATIVE INTENSITY
##XFACTOR=1
##YFACTOR=1
##FIRSTX=25
##LASTX=128
##FIRSTY=53
##MAXX=128
##MINX=25
##MAXY=9999
##MINY=3
##NPOINTS=45
##PEAK TABLE=(XY..XY)
25,53 26,155 27,1114 28,1276
29,1743 30,49 32,31 35,42
36,14 37,35 38,45 39,650
40,84 41,2256 42,714 43,9999
44,21 45,24 50,10 51,49
52,31 53,141 54,35 55,1896
56,116 57,4202 58,205 66,31
67,74 68,3 69,191 70,6338
71,9717 72,505 73,28 83,67
84,10 85,279 86,21 95,38
97,24 113,307 114,35 127,70
128,17
##END=
