##TITLE=Pentanoic acid, 4-oxo-, pentyl ester
##JCAMP-DX=4.24
##DATA TYPE=MASS SPECTRUM
##ORIGIN=W.Jennings, T.Shibamoto
##OWNER=NIST Mass Spectrometry Data Center
Collection (C) 2014 copyright by the U.S. Secretary of Commerce
on behalf of the United States of America. All rights reserved.
##CAS REGISTRY NO=20279-49-6
##$NIST MASS SPEC NO=284971
##MOLFORM=C10 H18 O3
##MW=186
##$NIST SOURCE=MSDC
##XUNITS=M/Z
##YUNITS=RELATIVE INTENSITY
##XFACTOR=1
##YFACTOR=1
##FIRSTX=28
##LASTX=141
##FIRSTY=190
##MAXX=141
##MINX=28
##MAXY=9999
##MINY=80
##NPOINTS=27
##PEAK TABLE=(XY..XY)
28,190 29,190 39,390 40,80
41,6126 42,420 43,9999 44,90
54,90 55,1151 56,540 57,851
58,751 60,731 68,621 69,80
70,80 71,1141 72,520 73,190
81,90 98,90 99,6346 100,520
101,190 114,110 141,90
##END=
