##TITLE=5-Imidazolic acid, 4-nitro-, methyl ester
##JCAMP-DX=4.24
##DATA TYPE=MASS SPECTRUM
##ORIGIN=L. Cohen, LC, NIDDK, NIH, Bethesda, MD 20892
##OWNER=NIST Mass Spectrometry Data Center
Collection (C) 2014 copyright by the U.S. Secretary of Commerce
on behalf of the United States of America. All rights reserved.
##CAS REGISTRY NO=20271-20-9
##$NIST MASS SPEC NO=116932
##MOLFORM=C5 H5 N3 O4
##MW=171
##$NIST SOURCE=MSDC
##XUNITS=M/Z
##YUNITS=RELATIVE INTENSITY
##XFACTOR=1
##YFACTOR=1
##FIRSTX=41
##LASTX=173
##FIRSTY=455
##MAXX=173
##MINX=41
##MAXY=9999
##MINY=50
##NPOINTS=42
##PEAK TABLE=(XY..XY)
41,455 42,2888 43,378 44,315
45,591 46,600 52,96 53,764
54,744 55,550 59,1799 60,146
65,659 66,1102 67,1158 68,461
69,3471 70,529 78,115 81,226
82,54 83,230 86,5275 87,137
93,239 94,858 95,155 96,1674
97,493 110,445 113,638 114,113
123,3058 124,886 125,109 139,104
140,4717 141,449 155,178 171,9999
172,764 173,50
##END=
