##TITLE=Butanoic acid, 2-octyl ester
##JCAMP-DX=4.24
##DATA TYPE=MASS SPECTRUM
##ORIGIN=V.Zaikin,Topchiev Inst.Petrochem.Synth.,Moscow
##OWNER=NIST Mass Spectrometry Data Center
Collection (C) 2014 copyright by the U.S. Secretary of Commerce
on behalf of the United States of America. All rights reserved.
##CAS REGISTRY NO=20286-44-6
##$NIST MASS SPEC NO=282599
##MOLFORM=C12 H24 O2
##MW=200
##$NIST SOURCE=MSDC
##XUNITS=M/Z
##YUNITS=RELATIVE INTENSITY
##XFACTOR=1
##YFACTOR=1
##FIRSTX=25
##LASTX=185
##FIRSTY=20
##MAXX=185
##MINX=25
##MAXY=9999
##MINY=10
##NPOINTS=80
##PEAK TABLE=(XY..XY)
25,20 26,120 27,911 28,220
29,831 30,10 31,20 35,20
36,160 37,20 38,50 39,601
40,120 41,2202 42,801 43,4014
44,150 45,250 50,40 51,60
52,60 53,120 54,110 55,1291
56,1131 57,1591 58,160 59,20
60,380 61,10 63,20 65,30
66,20 67,130 68,160 69,671
70,1461 71,9999 72,420 73,190
77,30 78,20 79,110 81,50
82,180 83,891 84,530 85,90
86,300 87,80 88,530 89,1241
90,50 91,50 93,30 95,20
97,120 98,10 99,40 100,10
102,10 105,20 111,30 112,1231
113,420 114,50 115,1401 116,110
117,230 118,20 128,10 129,130
130,70 140,10 143,10 152,40
154,10 156,40 157,20 185,20
##END=
