##TITLE=3-Butyn-2-ol
##JCAMP-DX=4.24
##DATA TYPE=MASS SPECTRUM
##ORIGIN=Japan AIST/NIMC Database- Spectrum MS-NW-2822
##OWNER=NIST Mass Spectrometry Data Center
Collection (C) 2014 copyright by the U.S. Secretary of Commerce
on behalf of the United States of America. All rights reserved.
##CAS REGISTRY NO=2028-63-9
##$NIST MASS SPEC NO=227605
##MOLFORM=C4 H6 O
##MW=70
##$NIST SOURCE=MSDC
##XUNITS=M/Z
##YUNITS=RELATIVE INTENSITY
##XFACTOR=1
##YFACTOR=1
##FIRSTX=12
##LASTX=70
##FIRSTY=20
##MAXX=70
##MINX=12
##MAXY=9999
##MINY=10
##NPOINTS=41
##PEAK TABLE=(XY..XY)
12,20 13,30 14,99 15,369
16,10 17,20 18,60 24,40
25,189 26,499 27,2249 28,519
29,1559 30,30 31,80 32,109
36,60 37,299 38,329 39,799
40,339 41,769 42,1289 43,3179
44,349 45,139 48,50 49,279
50,839 51,829 52,549 53,909
54,169 55,9999 56,329 57,20
66,20 67,30 68,40 69,1649
70,99
##END=
