##TITLE=[4.4.2]Propella-3,8,11-triene
##JCAMP-DX=4.24
##DATA TYPE=MASS SPECTRUM
##ORIGIN=R.C. DOUGHERTY
##OWNER=NIST Mass Spectrometry Data Center
Collection (C) 2014 copyright by the U.S. Secretary of Commerce
on behalf of the United States of America. All rights reserved.
##CAS REGISTRY NO=20295-17-4
##$NIST MASS SPEC NO=37023
##MOLFORM=C12 H14
##MW=158
##$NIST SOURCE=MSDC
##XUNITS=M/Z
##YUNITS=RELATIVE INTENSITY
##XFACTOR=1
##YFACTOR=1
##FIRSTX=27
##LASTX=159
##FIRSTY=1401
##MAXX=159
##MINX=27
##MAXY=9999
##MINY=200
##NPOINTS=50
##PEAK TABLE=(XY..XY)
27,1401 28,400 29,350 38,300
39,2602 40,300 41,1201 42,601
43,1001 50,701 51,2202 52,1001
53,901 54,1001 55,200 63,1251
64,701 65,1601 66,400 67,1001
75,300 76,400 77,2803 78,4404
79,2502 80,2002 89,500 91,7006
92,1802 102,901 103,2402 104,9999
105,1301 115,5005 116,2502 117,6105
118,601 127,1151 128,5105 129,8207
130,7307 131,1902 132,500 141,851
142,1151 143,3803 144,601 157,601
158,3003 159,350
##END=
