##TITLE=Hexane, 1-(methylthio)-
##JCAMP-DX=4.24
##DATA TYPE=MASS SPECTRUM
##OWNER=NIST Mass Spectrometry Data Center
Collection (C) 2014 copyright by the U.S. Secretary of Commerce
on behalf of the United States of America. All rights reserved.
##CAS REGISTRY NO=20291-60-5
##$NIST MASS SPEC NO=3029
##MOLFORM=C7 H16 S
##MW=132
##$NIST SOURCE=MSDC
##XUNITS=M/Z
##YUNITS=RELATIVE INTENSITY
##XFACTOR=1
##YFACTOR=1
##FIRSTX=2
##LASTX=135
##FIRSTY=80
##MAXX=135
##MINX=2
##MAXY=9999
##MINY=10
##NPOINTS=95
##PEAK TABLE=(XY..XY)
2,80 12,40 13,70 14,250
15,1251 16,40 24,10 25,30
26,651 27,6346 28,1251 29,4224
30,110 31,10 32,80 33,60
34,80 35,1021 36,20 37,130
38,210 39,3093 40,450 41,6045
42,2893 43,4404 44,210 45,2412
46,1401 47,2512 48,4064 49,1852
50,320 51,280 52,80 53,480
54,350 55,4044 56,7277 57,721
58,290 59,621 60,310 61,9999
62,1361 63,550 64,60 65,60
66,20 67,170 68,80 69,1952
70,140 71,120 72,50 73,130
74,110 75,1281 76,360 77,90
78,20 79,20 80,10 81,30
82,40 83,520 84,2312 85,390
86,30 87,80 88,20 89,330
90,40 91,20 92,10 93,10
97,10 98,10 99,10 100,10
101,40 102,10 103,631 104,40
105,30 115,10 117,2272 118,100
119,90 120,10 131,220 132,4644
133,180 134,120 135,10
##END=
