##TITLE=1H-Phenalene
##JCAMP-DX=4.24
##DATA TYPE=MASS SPECTRUM
##OWNER=NIST Mass Spectrometry Data Center
Collection (C) 2014 copyright by the U.S. Secretary of Commerce
on behalf of the United States of America. All rights reserved.
##CAS REGISTRY NO=203-80-5
##$NIST MASS SPEC NO=33161
##MOLFORM=C13 H10
##MW=166
##$NIST SOURCE=MSDC
##XUNITS=M/Z
##YUNITS=RELATIVE INTENSITY
##XFACTOR=1
##YFACTOR=1
##FIRSTX=39
##LASTX=167
##FIRSTY=303
##MAXX=167
##MINX=39
##MAXY=9999
##MINY=65
##NPOINTS=33
##PEAK TABLE=(XY..XY)
39,303 50,260 51,260 62,325
63,606 64,151 69,108 70,108
73,173 75,173 77,87 81,281
82,1385 83,1190 84,173 86,173
87,260 88,151 89,195 110,65
111,65 113,238 115,714 116,65
137,151 139,714 140,108 162,173
163,1558 164,996 165,9999 166,5129
167,498
##END=
