##TITLE=Aminocarb
##JCAMP-DX=4.24
##DATA TYPE=MASS SPECTRUM
##ORIGIN=NIST Mass Spectrometry Data Center, 1990.
##OWNER=NIST Mass Spectrometry Data Center
Collection (C) 2014 copyright by the U.S. Secretary of Commerce
on behalf of the United States of America. All rights reserved.
##CAS REGISTRY NO=2032-59-9
##$NIST MASS SPEC NO=118974
##MOLFORM=C11 H16 N2 O2
##MW=208
##$NIST SOURCE=MSDC
##XUNITS=M/Z
##YUNITS=RELATIVE INTENSITY
##XFACTOR=1
##YFACTOR=1
##FIRSTX=14
##LASTX=210
##FIRSTY=48
##MAXX=210
##MINX=14
##MAXY=9999
##MINY=10
##NPOINTS=101
##PEAK TABLE=(XY..XY)
14,48 15,991 25,10 26,129
27,791 28,523 29,222 30,146
37,50 38,198 39,840 40,164
41,265 42,835 43,184 44,723
45,27 46,11 50,219 51,630
52,403 53,481 54,138 55,425
56,579 57,1391 58,735 60,12
61,30 62,114 63,309 64,147
65,570 66,605 67,481 69,46
70,18 72,12 74,95 75,152
76,166 77,1619 78,434 79,887
80,299 81,236 82,129 83,19
86,11 87,17 88,20 89,105
90,89 91,391 92,242 93,168
94,159 95,63 96,54 98,15
102,25 103,29 104,102 105,216
106,621 107,997 108,919 109,235
110,22 116,255 117,146 118,179
119,22 120,1910 121,1111 122,522
123,62 130,20 131,23 132,51
133,219 134,1593 135,1461 136,6025
137,613 138,37 145,11 146,21
147,33 148,188 149,11 150,8204
151,9999 152,1013 153,67 162,29
163,11 164,13 208,989 209,134
210,19
##END=
