##TITLE=Propionylecgonine methyl ester
##JCAMP-DX=4.24
##DATA TYPE=MASS SPECTRUM
##ORIGIN=J.F.Casale ET AL.J.Forensic SCI,43,125,(1998)
##OWNER=NIST Mass Spectrometry Data Center
Collection (C) 2014 copyright by the U.S. Secretary of Commerce
on behalf of the United States of America. All rights reserved.
##CAS REGISTRY NO=203320-37-0
##$NIST MASS SPEC NO=281257
##MOLFORM=C13 H21 N O4
##MW=255
##$NIST SOURCE=MSDC
##XUNITS=M/Z
##YUNITS=RELATIVE INTENSITY
##XFACTOR=1
##YFACTOR=1
##FIRSTX=41
##LASTX=256
##FIRSTY=581
##MAXX=256
##MINX=41
##MAXY=9999
##MINY=50
##NPOINTS=46
##PEAK TABLE=(XY..XY)
41,581 42,2592 43,70 44,510
45,70 53,260 54,220 55,731
56,400 57,1752 58,70 59,330
65,70 67,400 68,510 69,110
70,220 79,140 80,260 81,691
82,9999 83,3873 84,400 91,260
93,220 94,3693 95,290 96,3283
97,1131 108,260 110,110 119,220
122,510 140,110 150,70 152,220
155,140 166,180 168,691 182,8698
183,881 198,771 224,510 240,50
255,1091 256,110
##END=
