##TITLE=Acetamide, N-[4-(1,1-dimethylethyl)phenyl]-
##JCAMP-DX=4.24
##DATA TYPE=MASS SPECTRUM
##ORIGIN=NIST Mass Spectrometry Data Center, 1994
##OWNER=NIST Mass Spectrometry Data Center
Collection (C) 2014 copyright by the U.S. Secretary of Commerce
on behalf of the United States of America. All rights reserved.
##CAS REGISTRY NO=20330-45-4
##$NIST MASS SPEC NO=135838
##MOLFORM=C12 H17 N O
##MW=191
##$NIST SOURCE=MSDC
##XUNITS=M/Z
##YUNITS=RELATIVE INTENSITY
##XFACTOR=1
##YFACTOR=1
##FIRSTX=14
##LASTX=193
##FIRSTY=122
##MAXX=193
##MINX=14
##MAXY=9999
##MINY=12
##NPOINTS=82
##PEAK TABLE=(XY..XY)
14,122 15,1333 18,80 27,328
28,288 29,180 30,33 38,125
39,994 40,164 41,1096 42,437
43,3728 44,99 50,196 51,453
52,334 53,255 54,100 55,135
56,62 57,217 58,12 59,19
62,128 63,429 64,265 65,858
66,288 67,111 75,93 76,125
77,1049 78,519 79,436 80,89
81,24 87,20 89,329 90,198
91,1505 92,280 93,854 94,1096
95,93 101,45 102,106 103,238
104,179 105,471 106,1973 107,284
108,107 115,242 116,184 117,481
118,863 119,481 120,130 121,36
128,22 129,24 130,137 131,22
132,557 133,22 134,9999 135,1844
136,121 146,31 147,30 148,124
149,160 150,20 160,85 174,43
176,5960 177,753 178,62 191,2199
192,330 193,23
##END=
