##TITLE=Triethyl .gamma.-phosphonocrotonate
##JCAMP-DX=4.24
##DATA TYPE=MASS SPECTRUM
##ORIGIN=NIST Mass Spectrometry Data Center, 1990.
##OWNER=NIST Mass Spectrometry Data Center
Collection (C) 2014 copyright by the U.S. Secretary of Commerce
on behalf of the United States of America. All rights reserved.
##CAS REGISTRY NO=20345-62-4
##$NIST MASS SPEC NO=118342
##MOLFORM=C10 H19 O5 P
##MW=250
##$NIST SOURCE=MSDC
##XUNITS=M/Z
##YUNITS=RELATIVE INTENSITY
##XFACTOR=1
##YFACTOR=1
##FIRSTX=14
##LASTX=251
##FIRSTY=79
##MAXX=251
##MINX=14
##MAXY=9999
##MINY=30
##NPOINTS=126
##PEAK TABLE=(XY..XY)
14,79 15,212 18,56 19,30
26,365 27,1996 28,339 29,5274
30,244 31,316 38,248 39,2428
40,1360 41,1022 42,571 43,475
44,174 45,711 46,174 47,538
48,101 49,51 53,191 54,126
55,593 56,208 57,1830 58,133
65,1444 66,197 68,9999 69,989
70,115 71,237 73,58 75,86
78,141 79,111 80,394 81,3714
82,432 83,269 84,235 85,1003
86,1271 87,265 91,1705 92,154
93,356 94,154 95,250 96,597
97,1042 98,154 99,2299 102,233
103,1210 104,551 105,216 106,72
107,147 108,72 109,3872 110,287
111,262 112,390 113,412 114,364
115,61 119,259 120,1563 121,2841
122,1484 123,374 124,490 125,418
126,61 127,2348 128,111 131,1320
132,127 133,78 134,177 135,620
136,75 137,449 138,216 140,279
141,428 142,211 148,1766 149,6040
150,709 151,228 152,112 153,70
154,70 155,1922 156,136 161,105
163,1131 164,70 165,172 167,60
175,405 176,2256 177,4605 178,1149
179,172 183,745 184,63 191,117
193,91 194,37 195,94 203,237
204,2343 205,2148 206,539 207,104
221,53 222,114 223,215 249,95
250,753 251,118
##END=
