##TITLE=2-Decene, (Z)-
##JCAMP-DX=4.24
##DATA TYPE=MASS SPECTRUM
##ORIGIN=NIST Mass Spectrometry Data Center, 1990.
##OWNER=NIST Mass Spectrometry Data Center
Collection (C) 2014 copyright by the U.S. Secretary of Commerce
on behalf of the United States of America. All rights reserved.
##CAS REGISTRY NO=20348-51-0
##$NIST MASS SPEC NO=114151
##MOLFORM=C10 H20
##MW=140
##$NIST SOURCE=MSDC
##XUNITS=M/Z
##YUNITS=RELATIVE INTENSITY
##XFACTOR=1
##YFACTOR=1
##FIRSTX=14
##LASTX=141
##FIRSTY=112
##MAXX=141
##MINX=14
##MAXY=9999
##MINY=54
##NPOINTS=49
##PEAK TABLE=(XY..XY)
14,112 15,63 27,2430 28,170
29,3161 30,86 39,3948 40,1014
41,8137 42,2490 43,5346 44,229
50,149 51,485 52,316 53,1956
54,1868 55,9999 56,7146 57,1994
58,76 63,105 65,449 66,278
67,2010 68,1397 69,6447 70,5177
71,718 77,289 78,71 79,281
80,54 81,350 82,509 83,1750
84,1789 85,500 91,67 95,56
96,295 97,1873 98,637 99,54
110,110 111,756 112,390 140,2552
141,268
##END=
