##TITLE=Phenol, 2-[(phenylimino)methyl]-, N-oxide
##JCAMP-DX=4.24
##DATA TYPE=MASS SPECTRUM
##ORIGIN=J.H.BOWIE UNIVERSITY OF ADELAIDE, AUSTRALIA
##OWNER=NIST Mass Spectrometry Data Center
Collection (C) 2014 copyright by the U.S. Secretary of Commerce
on behalf of the United States of America. All rights reserved.
##CAS REGISTRY NO=20357-59-9
##$NIST MASS SPEC NO=9903
##MOLFORM=C13 H11 N O2
##MW=213
##$NIST SOURCE=MSDC
##XUNITS=M/Z
##YUNITS=RELATIVE INTENSITY
##XFACTOR=1
##YFACTOR=1
##FIRSTX=28
##LASTX=214
##FIRSTY=700
##MAXX=214
##MINX=28
##MAXY=9999
##MINY=600
##NPOINTS=30
##PEAK TABLE=(XY..XY)
28,700 39,1200 50,900 51,3800
52,800 55,900 64,1500 65,1700
66,800 76,600 77,8600 78,1400
91,9999 92,1600 93,2400 94,1200
104,1100 105,700 120,1000 121,1500
141,600 167,1500 168,1200 184,1300
185,1900 196,7600 197,4100 212,600
213,6100 214,1400
##END=
