##TITLE=Formaldehyde, dimethylhydrazone
##JCAMP-DX=4.24
##DATA TYPE=MASS SPECTRUM
##ORIGIN=ATLAS OF MASS SPECTRA OF ORGANIC COMPOUNDS, V. A. KOPTYUG, ED.
##OWNER=NIST Mass Spectrometry Data Center
Collection (C) 2014 copyright by the U.S. Secretary of Commerce
on behalf of the United States of America. All rights reserved.
##CAS REGISTRY NO=2035-89-4
##$NIST MASS SPEC NO=64489
##MOLFORM=C3 H8 N2
##MW=72
##$NIST SOURCE=MSDC
##XUNITS=M/Z
##YUNITS=RELATIVE INTENSITY
##XFACTOR=1
##YFACTOR=1
##FIRSTX=27
##LASTX=73
##FIRSTY=880
##MAXX=73
##MINX=27
##MAXY=9999
##MINY=70
##NPOINTS=14
##PEAK TABLE=(XY..XY)
27,880 28,220 29,430 30,3600
40,340 41,500 42,9780 43,1860
44,420 57,2660 58,70 71,5170
72,9999 73,460
##END=
