##TITLE=Pyrimidine, 5-methyl-
##JCAMP-DX=4.24
##DATA TYPE=MASS SPECTRUM
##ORIGIN=TAT 0755
##OWNER=NIST Mass Spectrometry Data Center
Collection (C) 2014 copyright by the U.S. Secretary of Commerce
on behalf of the United States of America. All rights reserved.
##CAS REGISTRY NO=2036-41-1
##$NIST MASS SPEC NO=810
##MOLFORM=C5 H6 N2
##MW=94
##$NIST SOURCE=MSDC
##XUNITS=M/Z
##YUNITS=RELATIVE INTENSITY
##XFACTOR=1
##YFACTOR=1
##FIRSTX=41
##LASTX=95
##FIRSTY=400
##MAXX=95
##MINX=41
##MAXY=9999
##MINY=100
##NPOINTS=17
##PEAK TABLE=(XY..XY)
41,400 42,200 50,200 51,601
52,300 63,200 64,300 65,400
66,1001 67,801 68,100 77,801
78,200 79,300 93,400 94,9999
95,601
##END=
