##TITLE=Cyclopentanol, 2-bromo-, trans-
##JCAMP-DX=4.24
##DATA TYPE=MASS SPECTRUM
##ORIGIN=J. M. PECHINE
##OWNER=NIST Mass Spectrometry Data Center
Collection (C) 2014 copyright by the U.S. Secretary of Commerce
on behalf of the United States of America. All rights reserved.
##CAS REGISTRY NO=20377-79-1
##$NIST MASS SPEC NO=42200
##MOLFORM=C5 H9 Br O
##MW=164
##$NIST SOURCE=MSDC
##XUNITS=M/Z
##YUNITS=RELATIVE INTENSITY
##XFACTOR=1
##YFACTOR=1
##FIRSTX=27
##LASTX=166
##FIRSTY=1390
##MAXX=166
##MINX=27
##MAXY=9999
##MINY=135
##NPOINTS=33
##PEAK TABLE=(XY..XY)
27,1390 28,500 29,1745 30,220
31,445 38,145 39,1160 40,240
41,1840 42,295 43,935 44,470
53,220 55,1320 56,410 57,9999
58,760 65,180 67,2805 68,210
71,455 83,290 84,270 85,2330
86,145 135,135 136,370 137,145
138,360 146,255 148,250 164,2260
166,2210
##END=
