##TITLE=2,3,4,5,6-Pentamethylbenzophenone
##JCAMP-DX=4.24
##DATA TYPE=MASS SPECTRUM
##ORIGIN=NIST Mass Spectrometry Data Center, 1994
##OWNER=NIST Mass Spectrometry Data Center
Collection (C) 2014 copyright by the U.S. Secretary of Commerce
on behalf of the United States of America. All rights reserved.
##CAS REGISTRY NO=20386-33-8
##$NIST MASS SPEC NO=136337
##MOLFORM=C18 H20 O
##MW=252
##$NIST SOURCE=MSDC
##XUNITS=M/Z
##YUNITS=RELATIVE INTENSITY
##XFACTOR=1
##YFACTOR=1
##FIRSTX=17
##LASTX=254
##FIRSTY=125
##MAXX=254
##MINX=17
##MAXY=9999
##MINY=53
##NPOINTS=96
##PEAK TABLE=(XY..XY)
17,125 18,281 27,553 39,1506
40,187 41,1393 43,53 50,491
51,2564 52,403 53,838 54,53
55,604 62,109 63,436 64,146
65,922 66,150 67,195 75,208
76,463 77,6607 78,777 79,712
81,83 82,79 89,424 91,2850
92,242 93,225 95,92 96,80
101,135 102,219 103,506 104,80
105,3580 106,320 107,300 111,172
115,1767 116,809 117,1598 118,357
119,1086 120,114 126,109 127,326
128,693 129,599 130,277 131,1138
132,376 133,125 141,148 145,177
147,2537 148,296 152,214 165,491
166,125 174,324 175,3947 176,617
177,126 178,787 179,534 180,98
189,184 190,160 191,323 192,275
193,588 194,332 195,183 202,122
203,145 205,151 206,121 207,326
208,137 209,357 219,814 220,1399
221,843 222,2003 223,375 234,2714
235,1801 236,5584 237,4557 238,823
251,9811 252,9999 253,1781 254,162
##END=
