##TITLE=4-Chlorobenzyl benzoate
##JCAMP-DX=4.24
##DATA TYPE=MASS SPECTRUM
##ORIGIN=NIST Mass Spectrometry Data Center
##OWNER=NIST Mass Spectrometry Data Center
Collection (C) 2014 copyright by the U.S. Secretary of Commerce
on behalf of the United States of America. All rights reserved.
##CAS REGISTRY NO=20386-93-0
##$NIST MASS SPEC NO=343169
##MOLFORM=C14 H11 Cl O2
##MW=246
##$NIST SOURCE=MSDC
##XUNITS=M/Z
##YUNITS=RELATIVE INTENSITY
##XFACTOR=1
##YFACTOR=1
##FIRSTX=27
##LASTX=249
##FIRSTY=10
##MAXX=249
##MINX=27
##MAXY=9999
##MINY=10
##NPOINTS=81
##PEAK TABLE=(XY..XY)
27,10 35,10 36,20 37,50
38,170 39,520 40,50 45,20
50,991 51,2392 52,170 53,30
60,10 61,70 62,220 63,741
64,160 65,100 66,10 73,220
74,140 75,540 77,3763 78,370
79,30 84,20 85,50 86,40
87,60 89,2252 90,530 91,40
96,10 97,20 99,440 100,30
101,160 102,20 105,9999 106,841
107,60 109,10 111,280 112,60
113,280 114,30 115,50 122,10
125,4244 126,490 127,1471 128,110
133,20 139,170 141,490 142,50
143,130 144,10 151,10 152,50
165,150 166,130 167,160 168,30
193,450 194,90 201,320 202,40
203,100 204,10 211,140 212,20
228,260 229,40 230,90 231,10
244,10 246,1832 247,290 248,591
249,90
##END=
