##TITLE=N,N-Diisopropylbenzamide
##JCAMP-DX=4.24
##DATA TYPE=MASS SPECTRUM
##ORIGIN=NIST Mass Spectrometry Data Center
##OWNER=NIST Mass Spectrometry Data Center
Collection (C) 2014 copyright by the U.S. Secretary of Commerce
on behalf of the United States of America. All rights reserved.
##CAS REGISTRY NO=20383-28-2
##$NIST MASS SPEC NO=341062
##MOLFORM=C13 H19 N O
##MW=205
##$NIST SOURCE=MSDC
##XUNITS=M/Z
##YUNITS=RELATIVE INTENSITY
##XFACTOR=1
##YFACTOR=1
##FIRSTX=27
##LASTX=207
##FIRSTY=100
##MAXX=207
##MINX=27
##MAXY=9999
##MINY=10
##NPOINTS=50
##PEAK TABLE=(XY..XY)
27,100 30,10 39,100 40,10
41,280 42,200 43,260 44,40
50,110 51,530 52,50 53,10
54,10 56,30 58,60 63,10
65,10 68,10 70,110 74,30
75,40 76,130 77,2863 78,240
79,20 84,110 85,10 86,10
91,30 92,10 103,20 104,160
105,9999 106,951 107,60 120,10
134,10 146,10 148,490 149,50
162,2462 163,300 164,20 176,10
190,591 191,70 204,400 205,1111
206,170 207,10
##END=
