##TITLE=9-Aza-1-methylbicyclo[3.3.1]nonan-3-ol
##JCAMP-DX=4.24
##DATA TYPE=MASS SPECTRUM
##ORIGIN=W.V. BROWN, CSIRO, BLACK MOUNTAIN, CANBERRA CITY, AUSTRALIA
##OWNER=NIST Mass Spectrometry Data Center
Collection (C) 2014 copyright by the U.S. Secretary of Commerce
on behalf of the United States of America. All rights reserved.
##CAS REGISTRY NO=2038-40-6
##$NIST MASS SPEC NO=99151
##MOLFORM=C9 H17 N O
##MW=155
##$NIST SOURCE=MSDC
##XUNITS=M/Z
##YUNITS=RELATIVE INTENSITY
##XFACTOR=1
##YFACTOR=1
##FIRSTX=38
##LASTX=157
##FIRSTY=67
##MAXX=157
##MINX=38
##MAXY=9999
##MINY=45
##NPOINTS=82
##PEAK TABLE=(XY..XY)
38,67 39,1438 41,3146 42,4494
43,2360 44,1348 45,449 46,67
50,45 51,157 52,135 53,652
54,652 55,2067 56,1438 57,2404
58,1056 59,135 63,45 65,225
66,157 67,809 68,1528 69,899
70,1506 71,449 72,427 73,90
75,45 77,270 78,112 79,360
80,337 81,697 82,2652 83,1618
84,1483 85,315 86,292 87,45
89,45 91,135 92,67 93,404
94,1393 95,764 96,6629 97,4382
98,742 99,270 100,45 103,90
106,67 107,67 108,966 109,202
110,9999 111,2135 112,2809 113,3708
114,337 119,45 120,45 121,45
122,180 124,292 125,67 126,6404
127,787 128,67 134,45 136,270
137,90 138,6629 139,719 140,652
141,90 153,67 154,562 155,4270
156,494 157,45
##END=
