##TITLE=Benzene, 1-bromo-3-ethenyl-
##JCAMP-DX=4.24
##DATA TYPE=MASS SPECTRUM
##ORIGIN=NIST Mass Spectrometry Data Center, 1994
##OWNER=NIST Mass Spectrometry Data Center
Collection (C) 2014 copyright by the U.S. Secretary of Commerce
on behalf of the United States of America. All rights reserved.
##CAS REGISTRY NO=2039-86-3
##$NIST MASS SPEC NO=134470
##MOLFORM=C8 H7 Br
##MW=182
##$NIST SOURCE=MSDC
##XUNITS=M/Z
##YUNITS=RELATIVE INTENSITY
##XFACTOR=1
##YFACTOR=1
##FIRSTX=14
##LASTX=185
##FIRSTY=6
##MAXX=185
##MINX=14
##MAXY=9999
##MINY=6
##NPOINTS=59
##PEAK TABLE=(XY..XY)
14,6 15,72 25,48 26,352
27,853 36,52 37,488 38,933
39,1066 40,63 49,495 50,3700
51,5525 52,694 53,225 60,65
61,419 62,881 63,1376 64,149
65,54 72,41 73,378 74,1844
75,2106 76,1869 77,7564 78,550
79,146 80,66 81,176 82,64
85,89 86,142 87,252 88,75
89,38 90,71 91,249 92,224
93,34 97,73 98,238 99,93
100,34 101,520 102,3110 103,9999
104,900 105,54 117,47 119,50
156,174 157,41 158,198 182,6258
183,641 184,6009 185,531
##END=
