##TITLE=3-Methoxyphenethylamine
##JCAMP-DX=4.24
##DATA TYPE=MASS SPECTRUM
##ORIGIN=NIST Mass Spectrometry Data Center, 1994
##OWNER=NIST Mass Spectrometry Data Center
Collection (C) 2014 copyright by the U.S. Secretary of Commerce
on behalf of the United States of America. All rights reserved.
##CAS REGISTRY NO=2039-67-0
##$NIST MASS SPEC NO=134532
##MOLFORM=C9 H13 N O
##MW=151
##$NIST SOURCE=MSDC
##XUNITS=M/Z
##YUNITS=RELATIVE INTENSITY
##XFACTOR=1
##YFACTOR=1
##FIRSTX=4
##LASTX=152
##FIRSTY=48
##MAXX=152
##MINX=4
##MAXY=9999
##MINY=7
##NPOINTS=78
##PEAK TABLE=(XY..XY)
4,48 14,21 15,180 16,8
17,14 18,27 26,30 27,143
28,435 29,8 30,9999 31,165
37,24 38,133 39,498 40,59
41,115 42,116 43,82 44,15
45,12 50,209 51,425 52,285
53,129 54,32 55,29 58,26
60,14 61,28 62,100 63,296
64,128 65,420 66,53 67,25
68,9 73,8 74,48 75,49
76,72 77,566 78,557 79,325
80,66 81,14 86,16 87,16
89,204 90,146 91,776 92,250
93,65 94,13 102,13 103,29
104,34 105,37 106,83 107,224
108,60 109,11 117,26 118,68
119,40 120,11 121,344 122,2238
123,217 124,14 133,7 134,41
135,28 136,7 148,8 149,23
151,388 152,45
##END=
