##TITLE=Benzene, 1-chloro-3-ethenyl-
##JCAMP-DX=4.24
##DATA TYPE=MASS SPECTRUM
##ORIGIN=Japan AIST/NIMC Database- Spectrum MS-NW-1587
##OWNER=NIST Mass Spectrometry Data Center
Collection (C) 2014 copyright by the U.S. Secretary of Commerce
on behalf of the United States of America. All rights reserved.
##CAS REGISTRY NO=2039-85-2
##$NIST MASS SPEC NO=230838
##MOLFORM=C8 H7 Cl
##MW=138
##$NIST SOURCE=MSDC
##XUNITS=M/Z
##YUNITS=RELATIVE INTENSITY
##XFACTOR=1
##YFACTOR=1
##FIRSTX=26
##LASTX=143
##FIRSTY=70
##MAXX=143
##MINX=26
##MAXY=9999
##MINY=10
##NPOINTS=71
##PEAK TABLE=(XY..XY)
26,70 27,249 36,30 37,139
38,219 39,329 40,10 41,10
43,40 44,10 47,10 48,10
49,159 50,1129 51,2179 52,249
53,90 55,10 60,40 61,159
62,249 63,479 64,40 65,30
68,119 69,289 70,80 72,30
73,219 74,589 75,1119 76,489
77,2459 78,239 79,20 84,60
85,109 86,80 87,90 88,20
89,40 91,20 96,10 97,60
98,99 99,99 100,50 101,849
102,1569 103,7529 104,689 105,70
110,20 111,109 112,699 113,99
114,229 115,30 117,20 123,50
125,70 126,10 127,20 136,109
137,429 138,9999 139,1029 140,3209
141,329 142,20 143,10
##END=
