##TITLE=4'-tert-Butyl-2',6'-dimethylacetophenone
##JCAMP-DX=4.24
##DATA TYPE=MASS SPECTRUM
##ORIGIN=NIST Mass Spectrometry Data Center
##OWNER=NIST Mass Spectrometry Data Center
Collection (C) 2014 copyright by the U.S. Secretary of Commerce
on behalf of the United States of America. All rights reserved.
##CAS REGISTRY NO=2040-10-0
##$NIST MASS SPEC NO=343202
##MOLFORM=C14 H20 O
##MW=204
##$NIST SOURCE=MSDC
##XUNITS=M/Z
##YUNITS=RELATIVE INTENSITY
##XFACTOR=1
##YFACTOR=1
##FIRSTX=15
##LASTX=206
##FIRSTY=360
##MAXX=206
##MINX=15
##MAXY=9999
##MINY=10
##NPOINTS=95
##PEAK TABLE=(XY..XY)
15,360 27,250 29,170 39,520
40,80 41,621 43,3763 44,70
50,70 51,350 52,100 53,250
55,200 57,90 58,70 62,50
63,240 64,170 65,320 66,50
67,50 69,40 70,20 71,80
72,20 73,100 75,70 76,70
77,601 78,220 79,300 80,30
81,10 85,80 86,140 87,100
88,20 89,130 91,911 92,90
93,60 94,10 101,20 102,110
103,280 104,90 105,450 106,50
107,130 113,10 115,791 116,310
117,290 118,100 119,631 120,70
121,180 122,10 126,20 127,190
128,500 129,470 130,220 131,550
132,100 133,480 134,50 139,20
141,70 142,40 143,70 144,40
145,260 146,581 147,260 148,30
155,10 156,20 157,10 159,100
160,40 161,661 162,80 171,20
173,230 174,410 175,70 185,10
187,100 189,9999 190,1331 191,120
204,1832 205,240 206,20
##END=
