##TITLE=Ethanone, 1-(2,4,5-trimethylphenyl)-
##JCAMP-DX=4.24
##DATA TYPE=MASS SPECTRUM
##ORIGIN=L.E. Slivon, Battelle Columbus Laboratories, Columbus, Ohio 43201
##OWNER=NIST Mass Spectrometry Data Center
Collection (C) 2014 copyright by the U.S. Secretary of Commerce
on behalf of the United States of America. All rights reserved.
##CAS REGISTRY NO=2040-07-5
##$NIST MASS SPEC NO=70714
##MOLFORM=C11 H14 O
##MW=162
##$NIST SOURCE=MSDC
##XUNITS=M/Z
##YUNITS=RELATIVE INTENSITY
##XFACTOR=1
##YFACTOR=1
##FIRSTX=40
##LASTX=164
##FIRSTY=31
##MAXX=164
##MINX=40
##MAXY=9999
##MINY=1
##NPOINTS=79
##PEAK TABLE=(XY..XY)
40,31 41,572 42,21 43,624
51,307 52,123 53,200 54,15
55,26 57,50 58,60 59,14
63,106 65,169 67,35 68,2
69,6 70,3 71,4 72,27
73,26 74,25 75,55 77,425
78,149 79,202 80,79 84,3
85,4 86,16 87,29 88,11
89,111 91,1975 92,63 93,120
99,5 100,1 101,25 102,123
103,503 104,244 105,123 106,11
114,3 115,745 116,184 117,868
118,120 119,4357 120,506 126,2
127,34 128,83 129,50 130,8
131,60 132,27 133,100 134,15
139,3 141,9 142,3 143,11
144,6 145,67 146,169 147,9999
148,1197 149,89 150,4 154,6
157,1 159,6 160,12 161,59
162,3956 163,510 164,43
##END=
