##TITLE=Tetradecanoic acid, dodecyl ester
##JCAMP-DX=4.24
##DATA TYPE=MASS SPECTRUM
##ORIGIN=Mark Whitten, Florida Museum of Natural History, U. of Florida
##OWNER=NIST Mass Spectrometry Data Center
Collection (C) 2014 copyright by the U.S. Secretary of Commerce
on behalf of the United States of America. All rights reserved.
##CAS REGISTRY NO=2040-64-4
##$NIST MASS SPEC NO=140950
##MOLFORM=C26 H52 O2
##MW=396
##$NIST SOURCE=MSDC
##XUNITS=M/Z
##YUNITS=RELATIVE INTENSITY
##XFACTOR=1
##YFACTOR=1
##FIRSTX=41
##LASTX=398
##FIRSTY=6060
##MAXX=398
##MINX=41
##MAXY=9999
##MINY=13
##NPOINTS=131
##PEAK TABLE=(XY..XY)
41,6060 42,1787 43,9999 44,380
45,118 51,14 53,274 54,630
55,5558 56,2480 57,7405 58,384
59,131 60,853 61,1856 62,53
63,14 65,43 66,84 67,835
68,966 69,3732 70,2018 71,3071
72,212 73,1378 74,196 75,30
77,32 79,140 80,63 81,615
82,1621 83,3096 84,1670 85,1730
86,138 87,450 88,61 89,163
91,21 93,91 94,44 95,505
96,1009 97,2653 98,1284 99,484
100,67 101,282 102,80 103,156
107,60 108,24 109,247 110,455
111,1683 112,623 113,264 114,48
115,382 116,381 117,108 121,83
122,16 123,119 124,202 125,910
126,353 127,132 129,930 130,138
131,41 135,83 137,61 138,107
139,325 140,739 141,104 143,272
144,39 145,24 149,45 151,17
152,15 153,59 154,29 157,114
158,29 159,22 163,17 166,79
168,2734 169,469 170,38 171,234
172,38 173,20 183,22 185,524
186,70 187,18 191,55 199,107
200,22 208,29 209,54 210,39
211,795 212,132 213,415 214,65
226,14 227,56 228,1599 229,5558
230,799 231,75 241,63 255,28
269,28 283,25 284,79 286,14
297,94 298,30 353,43 354,13
396,1213 397,372 398,63
##END=
