##TITLE=Cyclopentane, butyl-
##JCAMP-DX=4.24
##DATA TYPE=MASS SPECTRUM
##ORIGIN=NIST Mass Spectrometry Data Center, 1990.
##OWNER=NIST Mass Spectrometry Data Center
Collection (C) 2014 copyright by the U.S. Secretary of Commerce
on behalf of the United States of America. All rights reserved.
##CAS REGISTRY NO=2040-95-1
##$NIST MASS SPEC NO=114172
##MOLFORM=C9 H18
##MW=126
##$NIST SOURCE=MSDC
##XUNITS=M/Z
##YUNITS=RELATIVE INTENSITY
##XFACTOR=1
##YFACTOR=1
##FIRSTX=14
##LASTX=127
##FIRSTY=224
##MAXX=127
##MINX=14
##MAXY=9999
##MINY=47
##NPOINTS=50
##PEAK TABLE=(XY..XY)
14,224 15,90 16,99 26,286
27,2431 28,183 29,2398 30,50
37,50 39,4811 40,1092 41,9999
42,2163 43,1428 44,118 50,170
51,497 52,298 53,1588 54,1804
55,7835 56,5614 57,1217 62,47
63,140 65,552 66,364 67,3680
68,8340 69,9295 70,4824 71,589
77,333 78,74 79,318 80,55
81,303 82,1889 83,3884 84,2049
85,270 91,79 95,65 96,511
97,2899 98,1667 99,107 111,123
126,1278 127,133
##END=
