##TITLE=Cyclopentane, propyl-
##JCAMP-DX=4.24
##DATA TYPE=MASS SPECTRUM
##ORIGIN=S.A. Rang et al., IR & MS of Unsatd. Hydrocarbons, 1977
##OWNER=NIST Mass Spectrometry Data Center
Collection (C) 2014 copyright by the U.S. Secretary of Commerce
on behalf of the United States of America. All rights reserved.
##CAS REGISTRY NO=2040-96-2
##$NIST MASS SPEC NO=142655
##MOLFORM=C8 H16
##MW=112
##$NIST SOURCE=MSDC
##XUNITS=M/Z
##YUNITS=RELATIVE INTENSITY
##XFACTOR=1
##YFACTOR=1
##FIRSTX=15
##LASTX=113
##FIRSTY=99
##MAXX=113
##MINX=15
##MAXY=9999
##MINY=11
##NPOINTS=54
##PEAK TABLE=(XY..XY)
15,99 26,170 27,2451 28,392
29,2012 30,66 31,11 37,11
38,93 39,2635 40,543 41,9412
42,3922 43,2512 44,196 45,22
50,66 51,186 52,115 53,770
54,735 55,5490 56,6078 57,945
58,66 64,27 65,192 66,230
67,1593 68,7255 69,9999 70,3922
71,420 72,22 77,115 78,38
79,126 80,38 81,153 82,928
83,3726 84,2635 85,230 86,27
91,27 93,11 95,27 96,16
97,236 98,27 110,33 111,66
112,1532 113,137
##END=
