##TITLE=Benzonitrile, 2-bromo-
##JCAMP-DX=4.24
##DATA TYPE=MASS SPECTRUM
##ORIGIN=Japan AIST/NIMC Database- Spectrum MS-NW-6333
##OWNER=NIST Mass Spectrometry Data Center
Collection (C) 2014 copyright by the U.S. Secretary of Commerce
on behalf of the United States of America. All rights reserved.
##CAS REGISTRY NO=2042-37-7
##$NIST MASS SPEC NO=229513
##MOLFORM=C7 H4 Br N
##MW=181
##$NIST SOURCE=MSDC
##XUNITS=M/Z
##YUNITS=RELATIVE INTENSITY
##XFACTOR=1
##YFACTOR=1
##FIRSTX=12
##LASTX=185
##FIRSTY=20
##MAXX=185
##MINX=12
##MAXY=9999
##MINY=10
##NPOINTS=76
##PEAK TABLE=(XY..XY)
12,20 24,10 25,40 26,129
27,309 28,10 36,90 37,499
38,479 39,429 40,10 43,10
48,70 49,419 50,1709 51,1819
52,319 53,10 57,10 60,50
61,169 62,209 63,199 64,90
65,10 72,50 73,269 74,829
75,2799 76,1429 77,99 78,50
79,109 80,50 81,109 82,50
84,20 85,30 86,40 87,50
88,20 90,299 91,309 92,30
93,10 98,40 99,339 100,319
101,229 102,9179 103,749 104,30
105,20 106,40 107,10 116,10
117,30 118,20 119,20 128,20
129,20 130,30 131,30 141,10
142,10 143,10 144,10 155,20
156,10 157,10 180,20 181,9999
182,789 183,9659 184,749 185,30
##END=
