##TITLE=Cyclohexanecarboxaldehyde
##JCAMP-DX=4.24
##DATA TYPE=MASS SPECTRUM
##ORIGIN=Japan AIST/NIMC Database- Spectrum MS-NW-3068
##OWNER=NIST Mass Spectrometry Data Center
Collection (C) 2014 copyright by the U.S. Secretary of Commerce
on behalf of the United States of America. All rights reserved.
##CAS REGISTRY NO=2043-61-0
##$NIST MASS SPEC NO=231496
##MOLFORM=C7 H12 O
##MW=112
##$NIST SOURCE=MSDC
##XUNITS=M/Z
##YUNITS=RELATIVE INTENSITY
##XFACTOR=1
##YFACTOR=1
##FIRSTX=15
##LASTX=113
##FIRSTY=60
##MAXX=113
##MINX=15
##MAXY=9999
##MINY=10
##NPOINTS=66
##PEAK TABLE=(XY..XY)
15,60 26,129 27,1189 28,70
29,879 30,20 31,50 36,50
37,40 38,109 39,1479 40,199
41,4839 42,379 43,549 44,50
45,159 49,10 50,129 51,229
52,99 53,559 54,429 55,9999
56,1049 57,1009 58,80 60,10
61,10 62,20 63,30 65,109
66,339 67,679 68,3419 69,329
70,2049 71,539 72,20 73,40
74,10 75,10 77,179 78,50
79,1019 80,129 81,749 82,299
83,5939 84,549 85,60 86,10
87,10 91,60 92,10 93,109
94,1759 95,149 96,20 97,209
98,20 99,10 110,30 111,30
112,749 113,70
##END=
