##TITLE=Cyclohexanol, 2-(dimethylamino)-, cis-
##JCAMP-DX=4.24
##DATA TYPE=MASS SPECTRUM
##OWNER=NIST Mass Spectrometry Data Center
Collection (C) 2014 copyright by the U.S. Secretary of Commerce
on behalf of the United States of America. All rights reserved.
##CAS REGISTRY NO=20431-82-7
##$NIST MASS SPEC NO=3983
##MOLFORM=C8 H17 N O
##MW=143
##$NIST SOURCE=MSDC
##XUNITS=M/Z
##YUNITS=RELATIVE INTENSITY
##XFACTOR=1
##YFACTOR=1
##FIRSTX=30
##LASTX=144
##FIRSTY=200
##MAXX=144
##MINX=30
##MAXY=9999
##MINY=100
##NPOINTS=41
##PEAK TABLE=(XY..XY)
30,200 31,200 38,300 40,100
41,500 42,901 43,300 44,701
45,300 46,300 53,200 54,200
55,300 56,601 57,200 58,2302
59,200 67,200 68,200 69,200
70,400 71,3003 72,300 79,200
81,200 82,200 84,9999 85,701
86,200 87,200 97,100 98,300
100,500 101,200 112,200 114,300
126,200 128,200 142,200 143,2502
144,200
##END=
