##TITLE=Propanamide, 2-hydroxy-
##JCAMP-DX=4.24
##DATA TYPE=MASS SPECTRUM
##ORIGIN=Japan AIST/NIMC Database- Spectrum MS-NW-1529
##OWNER=NIST Mass Spectrometry Data Center
Collection (C) 2014 copyright by the U.S. Secretary of Commerce
on behalf of the United States of America. All rights reserved.
##CAS REGISTRY NO=2043-43-8
##$NIST MASS SPEC NO=230270
##MOLFORM=C3 H7 N O2
##MW=89
##$NIST SOURCE=MSDC
##XUNITS=M/Z
##YUNITS=RELATIVE INTENSITY
##XFACTOR=1
##YFACTOR=1
##FIRSTX=12
##LASTX=90
##FIRSTY=10
##MAXX=90
##MINX=12
##MAXY=9999
##MINY=10
##NPOINTS=43
##PEAK TABLE=(XY..XY)
12,10 13,30 14,179 15,589
16,289 17,519 18,1649 19,109
25,50 26,419 27,1849 28,1449
29,1369 30,119 31,169 37,10
38,20 39,20 40,30 41,70
42,319 43,1859 44,3559 45,9999
46,1899 47,50 51,30 52,40
53,50 54,50 55,199 56,60
57,10 58,20 59,30 61,1809
62,50 71,20 72,40 74,369
75,10 89,129 90,20
##END=
