##TITLE=2(1H)-Pyridinethione, 1-methyl-
##JCAMP-DX=4.24
##DATA TYPE=MASS SPECTRUM
##ORIGIN=James Little,Eastman Chem.Co.,Kingsport,TN
##OWNER=NIST Mass Spectrometry Data Center
Collection (C) 2014 copyright by the U.S. Secretary of Commerce
on behalf of the United States of America. All rights reserved.
##CAS REGISTRY NO=2044-27-1
##$NIST MASS SPEC NO=288668
##MOLFORM=C6 H7 N S
##MW=125
##$NIST SOURCE=MSDC
##XUNITS=M/Z
##YUNITS=RELATIVE INTENSITY
##XFACTOR=1
##YFACTOR=1
##FIRSTX=27
##LASTX=127
##FIRSTY=460
##MAXX=127
##MINX=27
##MAXY=9999
##MINY=170
##NPOINTS=31
##PEAK TABLE=(XY..XY)
27,460 39,1872 41,571 42,1231
45,981 51,981 52,741 53,500
57,370 58,480 63,550 65,961
66,500 69,731 78,1461 79,1081
80,4414 81,5185 82,671 84,550
92,430 93,310 95,190 96,190
97,681 109,170 110,220 124,2172
125,9999 126,951 127,510
##END=
