##TITLE=m-Anisic acid, 3-methylbut-2-enyl ester
##JCAMP-DX=4.24
##DATA TYPE=MASS SPECTRUM
##ORIGIN=Zaikin V.G., TIPS RAS, Moscow, Russia
##OWNER=NIST Mass Spectrometry Data Center
Collection (C) 2014 copyright by the U.S. Secretary of Commerce
on behalf of the United States of America. All rights reserved.
##CAS REGISTRY NO=204454-03-5
##$NIST MASS SPEC NO=292592
##MOLFORM=C13 H16 O3
##MW=220
##$NIST SOURCE=MSDC
##XUNITS=M/Z
##YUNITS=RELATIVE INTENSITY
##XFACTOR=1
##YFACTOR=1
##FIRSTX=27
##LASTX=221
##FIRSTY=210
##MAXX=221
##MINX=27
##MAXY=9999
##MINY=30
##NPOINTS=70
##PEAK TABLE=(XY..XY)
27,210 28,50 29,130 36,30
38,90 39,450 40,130 41,2342
42,140 43,60 44,60 50,160
51,180 52,50 53,540 54,60
55,60 62,60 63,460 64,681
65,240 66,50 67,751 68,410
69,4344 70,240 74,50 75,60
76,230 77,1371 78,250 79,140
81,90 83,30 85,370 91,50
92,1331 93,140 94,40 104,40
105,220 106,40 107,1291 108,450
109,150 119,40 121,100 122,90
133,40 135,7867 136,911 137,110
145,30 146,40 151,120 152,9999
153,891 154,90 159,30 161,210
164,120 165,120 175,130 177,110
178,30 187,80 191,40 202,50
220,1531 221,210
##END=
