##TITLE=Benzenebutanenitrile
##JCAMP-DX=4.24
##DATA TYPE=MASS SPECTRUM
##ORIGIN=Japan AIST/NIMC Database- Spectrum MS-NW-9356
##OWNER=NIST Mass Spectrometry Data Center
Collection (C) 2014 copyright by the U.S. Secretary of Commerce
on behalf of the United States of America. All rights reserved.
##CAS REGISTRY NO=2046-18-6
##$NIST MASS SPEC NO=236852
##MOLFORM=C10 H11 N
##MW=145
##$NIST SOURCE=MSDC
##XUNITS=M/Z
##YUNITS=RELATIVE INTENSITY
##XFACTOR=1
##YFACTOR=1
##FIRSTX=26
##LASTX=147
##FIRSTY=30
##MAXX=147
##MINX=26
##MAXY=9999
##MINY=10
##NPOINTS=65
##PEAK TABLE=(XY..XY)
26,30 27,239 28,90 37,20
38,80 39,679 40,70 41,349
42,10 43,10 44,10 49,10
50,279 51,729 52,189 53,70
54,399 55,20 57,30 58,10
61,30 62,109 63,369 64,99
65,1189 66,90 73,10 74,80
75,80 76,90 77,659 78,459
79,289 80,20 86,20 87,30
88,10 89,259 90,99 91,9999
92,1589 93,90 100,10 101,10
102,80 103,369 104,2169 105,1829
106,139 113,10 114,10 115,189
116,90 117,159 118,30 127,10
128,10 130,50 140,20 142,20
143,20 144,70 145,2389 146,279
147,10
##END=
