##TITLE=Ethyl 1,3-dithiane-2-carboxylate
##JCAMP-DX=4.24
##DATA TYPE=MASS SPECTRUM
##ORIGIN=NIST Mass Spectrometry Data Center
##OWNER=NIST Mass Spectrometry Data Center
Collection (C) 2014 copyright by the U.S. Secretary of Commerce
on behalf of the United States of America. All rights reserved.
##CAS REGISTRY NO=20462-00-4
##$NIST MASS SPEC NO=342965
##MOLFORM=C7 H12 O2 S2
##MW=192
##$NIST SOURCE=MSDC
##XUNITS=M/Z
##YUNITS=RELATIVE INTENSITY
##XFACTOR=1
##YFACTOR=1
##FIRSTX=13
##LASTX=195
##FIRSTY=10
##MAXX=195
##MINX=13
##MAXY=9999
##MINY=10
##NPOINTS=78
##PEAK TABLE=(XY..XY)
13,10 14,20 15,180 16,10
18,20 19,10 25,10 26,220
27,1321 28,200 29,1782 30,80
31,60 32,10 33,30 34,20
35,10 37,20 38,50 39,701
41,1271 42,170 43,210 45,3623
46,821 47,661 48,50 49,20
53,10 55,80 56,10 57,40
58,190 59,430 60,50 61,70
63,30 64,40 66,20 69,30
71,160 72,80 73,621 74,210
75,801 76,120 77,350 78,80
79,60 80,10 83,10 85,601
86,90 87,60 88,10 89,20
91,550 92,50 93,40 94,20
99,30 103,30 104,30 105,80
106,60 107,10 113,10 117,40
119,9999 120,621 121,841 122,50
123,20 146,10 192,1471 193,150
194,150 195,10
##END=
