##TITLE=Benzenebutanoic acid, methyl ester
##JCAMP-DX=4.24
##DATA TYPE=MASS SPECTRUM
##ORIGIN=NIST Mass Spectrometry Data Center, 1994
##OWNER=NIST Mass Spectrometry Data Center
Collection (C) 2014 copyright by the U.S. Secretary of Commerce
on behalf of the United States of America. All rights reserved.
##CAS REGISTRY NO=2046-17-5
##$NIST MASS SPEC NO=135200
##MOLFORM=C11 H14 O2
##MW=178
##$NIST SOURCE=MSDC
##XUNITS=M/Z
##YUNITS=RELATIVE INTENSITY
##XFACTOR=1
##YFACTOR=1
##FIRSTX=4
##LASTX=180
##FIRSTY=42
##MAXX=180
##MINX=4
##MAXY=9999
##MINY=3
##NPOINTS=109
##PEAK TABLE=(XY..XY)
4,42 6,10 10,5 12,14
13,35 15,3011 16,50 18,57
19,5 21,4 24,13 25,12
26,196 27,1087 28,833 29,626
30,148 31,414 32,12 33,25
37,61 38,274 39,2384 40,228
41,1024 42,478 43,4782 44,259
45,169 50,637 51,1542 52,425
53,163 54,61 55,495 56,63
57,61 58,357 59,881 61,73
62,270 63,882 64,63 65,3202
66,193 67,14 68,11 69,18
71,18 72,17 74,9999 75,401
76,243 77,1044 78,1024 79,378
80,23 81,4 85,21 86,53
87,204 88,4 89,676 90,4
91,8242 92,728 93,29 94,4
95,3 97,4 98,8 99,4
100,8 101,32 102,208 103,3
104,7120 105,2905 106,201 107,34
108,8 113,12 115,802 116,192
117,674 118,269 119,66 120,16
121,24 122,6 127,33 129,290
130,39 131,15 133,14 134,6
135,18 136,3 144,15 146,2558
147,2139 148,204 149,18 163,3
174,3 176,9 178,1632 179,199
180,22
##END=
