##TITLE=Tricyclo[4.4.0.0(2,7)]decane, 1-methyl-3-methylene-8-(1-methylethyl)-, stereoisomer
##JCAMP-DX=4.24
##DATA TYPE=MASS SPECTRUM
##ORIGIN=NIST Mass Spectrometry Data Center
##OWNER=NIST Mass Spectrometry Data Center
Collection (C) 2014 copyright by the U.S. Secretary of Commerce
on behalf of the United States of America. All rights reserved.
##CAS REGISTRY NO=20479-06-5
##$NIST MASS SPEC NO=414669
##MOLFORM=C15 H24
##MW=204
##$NIST SOURCE=MSDC
##XUNITS=M/Z
##YUNITS=RELATIVE INTENSITY
##XFACTOR=1
##YFACTOR=1
##FIRSTX=27
##LASTX=207
##FIRSTY=220
##MAXX=207
##MINX=27
##MAXY=9999
##MINY=20
##NPOINTS=75
##PEAK TABLE=(XY..XY)
27,220 28,370 29,110 39,911
40,70 41,1511 42,210 43,1131
50,80 51,150 52,120 53,430
54,60 55,661 56,110 57,420
58,60 63,180 64,40 65,701
66,170 67,1321 68,140 70,571
71,430 75,30 77,1962 78,691
79,1732 80,691 81,1501 83,290
85,70 89,80 90,30 91,3473
92,581 93,1541 94,280 95,841
98,801 99,60 100,30 103,440
104,210 105,6506 106,941 107,1631
108,701 109,250 116,210 117,1161
118,380 119,3103 120,9999 121,2092
122,60 128,430 129,150 131,420
132,220 133,771 138,50 145,300
147,601 148,310 150,110 159,110
160,180 161,9428 162,1451 189,390
204,1371 205,150 207,20
##END=
