##TITLE=Urea, (phenylmethoxy)-
##JCAMP-DX=4.24
##DATA TYPE=MASS SPECTRUM
##ORIGIN=Japan AIST/NIMC Database- Spectrum MS-NW-7124
##OWNER=NIST Mass Spectrometry Data Center
Collection (C) 2014 copyright by the U.S. Secretary of Commerce
on behalf of the United States of America. All rights reserved.
##CAS REGISTRY NO=2048-50-2
##$NIST MASS SPEC NO=235771
##MOLFORM=C8 H10 N2 O2
##MW=166
##$NIST SOURCE=MSDC
##XUNITS=M/Z
##YUNITS=RELATIVE INTENSITY
##XFACTOR=1
##YFACTOR=1
##FIRSTX=15
##LASTX=149
##FIRSTY=20
##MAXX=149
##MINX=15
##MAXY=9999
##MINY=10
##NPOINTS=53
##PEAK TABLE=(XY..XY)
15,20 16,70 17,129 18,339
26,20 27,109 28,60 29,119
30,10 31,60 32,10 37,30
38,70 39,349 40,30 41,80
42,40 43,239 44,389 45,10
49,20 50,229 51,609 52,149
53,70 60,119 61,30 62,60
63,149 64,50 65,829 66,50
73,10 74,70 75,40 76,40
77,939 78,179 79,509 80,50
81,10 89,139 90,109 91,9999
92,799 93,30 105,349 106,279
107,339 108,399 109,40 123,10
149,10
##END=
