##TITLE=1,2,3,4,4a,9,10,10a-Octahydrophenanthrene (trans)
##JCAMP-DX=4.24
##DATA TYPE=MASS SPECTRUM
##ORIGIN=R.A.HITES, INDIANA UNIV., BLOOMINGTON, IN
##OWNER=NIST Mass Spectrometry Data Center
Collection (C) 2014 copyright by the U.S. Secretary of Commerce
on behalf of the United States of America. All rights reserved.
##CAS REGISTRY NO=20480-67-5
##$NIST MASS SPEC NO=80148
##MOLFORM=C14 H18
##MW=186
##$NIST SOURCE=MSDC
##XUNITS=M/Z
##YUNITS=RELATIVE INTENSITY
##XFACTOR=1
##YFACTOR=1
##FIRSTX=53
##LASTX=188
##FIRSTY=400
##MAXX=188
##MINX=53
##MAXY=9999
##MINY=100
##NPOINTS=44
##PEAK TABLE=(XY..XY)
53,400 63,500 65,700 66,200
67,700 76,400 77,1000 78,600
79,800 91,2700 92,600 93,200
94,900 95,1700 101,100 102,300
103,400 104,3800 105,1300 106,100
115,3800 116,1200 117,3600 118,600
119,300 126,400 127,1200 128,4500
129,9000 130,2800 131,600 132,100
141,1100 142,700 143,7600 144,1200
145,200 157,300 158,3300 159,200
185,100 186,9999 187,1400 188,200
##END=
