##TITLE=2,3-Diamino-2,3-Dimethylbutane
##JCAMP-DX=4.24
##DATA TYPE=MASS SPECTRUM
##ORIGIN=MUS325 A. Mujsce, AT&T Bell Labs., Murray Hill, N.J., USA
##OWNER=NIST Mass Spectrometry Data Center
Collection (C) 2014 copyright by the U.S. Secretary of Commerce
on behalf of the United States of America. All rights reserved.
##CAS REGISTRY NO=20485-44-3
##$NIST MASS SPEC NO=115849
##MOLFORM=C6 H16 N2
##MW=116
##$NIST SOURCE=MSDC
##XUNITS=M/Z
##YUNITS=RELATIVE INTENSITY
##XFACTOR=1
##YFACTOR=1
##FIRSTX=14
##LASTX=117
##FIRSTY=29
##MAXX=117
##MINX=14
##MAXY=9999
##MINY=10
##NPOINTS=44
##PEAK TABLE=(XY..XY)
14,29 15,140 16,27 17,19
18,255 25,27 26,13 27,120
28,204 30,757 31,25 38,36
39,447 41,1281 42,2228 43,654
44,157 46,19 47,18 49,10
51,22 52,60 53,33 54,113
56,157 58,9999 59,336 62,16
64,24 66,20 67,55 68,60
69,41 70,104 71,24 82,33
84,886 85,121 86,45 100,129
101,65 102,15 116,116 117,14
##END=
