##TITLE=Benzene, (1,1-dimethylpropyl)-
##JCAMP-DX=4.24
##DATA TYPE=MASS SPECTRUM
##OWNER=NIST Mass Spectrometry Data Center
Collection (C) 2014 copyright by the U.S. Secretary of Commerce
on behalf of the United States of America. All rights reserved.
##CAS REGISTRY NO=2049-95-8
##$NIST MASS SPEC NO=4434
##MOLFORM=C11 H16
##MW=148
##$NIST SOURCE=MSDC
##XUNITS=M/Z
##YUNITS=RELATIVE INTENSITY
##XFACTOR=1
##YFACTOR=1
##FIRSTX=12
##LASTX=150
##FIRSTY=10
##MAXX=150
##MINX=12
##MAXY=9999
##MINY=10
##NPOINTS=90
##PEAK TABLE=(XY..XY)
12,10 13,10 14,50 15,320
16,10 25,10 26,160 27,1091
28,160 29,671 30,10 37,20
38,90 39,971 40,80 41,1651
42,80 43,120 44,10 49,10
50,300 51,801 52,200 53,200
54,20 55,490 56,30 57,20
58,40 59,10 61,20 62,80
63,250 64,80 65,330 66,30
67,10 68,10 69,20 70,20
71,20 73,10 74,80 75,90
76,80 77,861 78,380 79,701
80,50 81,10 83,10 85,10
86,20 87,30 88,10 89,90
90,30 91,4764 92,380 93,20
98,10 99,10 100,10 101,20
102,120 103,470 104,150 105,340
106,30 113,10 114,30 115,340
116,110 117,280 118,200 119,9999
120,991 121,40 126,10 127,20
128,40 129,20 130,10 131,30
132,40 133,260 134,30 148,1261
149,150 150,10
##END=
