##TITLE=Propanedioic acid, 2-propenyl-, diethyl ester
##JCAMP-DX=4.24
##DATA TYPE=MASS SPECTRUM
##ORIGIN=Japan AIST/NIMC Database- Spectrum MS-NW-5795
##OWNER=NIST Mass Spectrometry Data Center
Collection (C) 2014 copyright by the U.S. Secretary of Commerce
on behalf of the United States of America. All rights reserved.
##CAS REGISTRY NO=2049-80-1
##$NIST MASS SPEC NO=228272
##MOLFORM=C10 H16 O4
##MW=200
##$NIST SOURCE=MSDC
##XUNITS=M/Z
##YUNITS=RELATIVE INTENSITY
##XFACTOR=1
##YFACTOR=1
##FIRSTX=14
##LASTX=201
##FIRSTY=30
##MAXX=201
##MINX=14
##MAXY=9999
##MINY=10
##NPOINTS=135
##PEAK TABLE=(XY..XY)
14,30 15,279 16,10 17,10
18,50 19,10 25,20 26,419
27,3619 28,749 29,9999 30,219
31,419 32,99 37,20 38,70
39,1459 40,119 41,1849 42,549
43,1759 44,229 45,719 46,50
47,169 48,10 49,10 50,119
51,289 52,239 53,1589 54,1419
55,2009 56,289 57,639 58,399
59,60 60,60 61,10 62,10
63,20 64,10 65,30 66,30
67,709 68,99 69,469 70,1089
71,489 72,80 73,309 74,30
75,20 76,20 77,30 78,10
79,50 80,369 81,4559 82,2359
83,829 84,169 85,439 86,309
87,199 88,129 89,30 91,30
92,10 93,60 94,10 95,60
96,40 97,1349 98,6459 99,3409
100,959 101,169 102,20 103,20
104,80 105,60 106,10 107,10
108,2959 109,7139 110,519 111,319
112,80 113,40 114,139 115,109
116,10 117,10 119,10 120,20
121,20 122,10 123,10 124,10
125,209 126,4299 127,5849 128,1109
129,139 130,10 131,10 132,129
133,159 134,10 137,10 138,10
139,20 141,20 143,20 144,10
145,10 146,10 148,20 149,20
153,80 154,989 155,1229 156,139
157,30 158,10 160,359 161,40
171,10 172,20 173,10 197,10
199,30 200,179 201,40
##END=
