##TITLE=1,3-Diethoxybenzene
##JCAMP-DX=4.24
##DATA TYPE=MASS SPECTRUM
##ORIGIN=Japan AIST/NIMC Database- Spectrum MS-NW-3687
##OWNER=NIST Mass Spectrometry Data Center
Collection (C) 2014 copyright by the U.S. Secretary of Commerce
on behalf of the United States of America. All rights reserved.
##CAS REGISTRY NO=2049-73-2
##$NIST MASS SPEC NO=232317
##MOLFORM=C10 H14 O2
##MW=166
##$NIST SOURCE=MSDC
##XUNITS=M/Z
##YUNITS=RELATIVE INTENSITY
##XFACTOR=1
##YFACTOR=1
##FIRSTX=15
##LASTX=168
##FIRSTY=60
##MAXX=168
##MINX=15
##MAXY=9999
##MINY=10
##NPOINTS=86
##PEAK TABLE=(XY..XY)
15,60 26,139 27,1079 28,70
29,1319 30,30 31,10 37,30
38,179 39,619 40,80 41,159
42,60 43,179 45,20 49,10
50,149 51,229 52,239 53,469
54,129 55,169 56,10 57,30
61,20 62,80 63,429 64,479
65,589 66,199 67,99 68,169
69,359 70,20 71,30 74,30
75,30 76,50 77,259 78,50
79,99 80,129 81,909 82,1159
83,70 84,20 87,10 89,10
90,10 91,169 92,219 93,109
94,949 95,289 96,30 97,10
103,20 105,20 107,119 108,90
109,119 110,9999 111,699 112,60
114,10 115,10 119,30 120,10
121,169 122,70 123,429 124,40
133,10 135,50 136,40 137,209
138,1919 139,189 140,10 149,20
151,349 152,40 165,80 166,4459
167,509 168,50
##END=
