##TITLE=Carbonic acid, dipentyl ester
##JCAMP-DX=4.24
##DATA TYPE=MASS SPECTRUM
##OWNER=NIST Mass Spectrometry Data Center
Collection (C) 2014 copyright by the U.S. Secretary of Commerce
on behalf of the United States of America. All rights reserved.
##CAS REGISTRY NO=2050-94-4
##$NIST MASS SPEC NO=9112
##MOLFORM=C11 H22 O3
##MW=202
##$NIST SOURCE=MSDC
##XUNITS=M/Z
##YUNITS=RELATIVE INTENSITY
##XFACTOR=1
##YFACTOR=1
##FIRSTX=15
##LASTX=202
##FIRSTY=30
##MAXX=202
##MINX=15
##MAXY=9999
##MINY=10
##NPOINTS=65
##PEAK TABLE=(XY..XY)
15,30 18,50 26,30 27,651
28,440 29,1181 30,50 31,200
32,50 36,20 38,20 39,420
40,100 41,1892 42,2182 43,7767
44,370 45,170 50,20 51,20
52,20 53,110 54,80 55,1722
56,220 57,270 58,50 59,80
60,20 63,1722 64,30 65,30
67,140 68,210 69,1421 70,4954
71,9999 72,550 73,40 76,50
77,50 78,30 81,20 83,30
84,20 85,50 86,30 87,290
88,50 89,240 90,90 91,40
97,20 99,20 103,330 104,40
105,20 115,30 117,80 131,20
132,80 133,390 134,30 135,10
202,10
##END=
