##TITLE=2,4-Dibromo-1-naphthol
##JCAMP-DX=4.24
##DATA TYPE=MASS SPECTRUM
##ORIGIN=Japan AIST/NIMC Database- Spectrum MS-NW-2391
##OWNER=NIST Mass Spectrometry Data Center
Collection (C) 2014 copyright by the U.S. Secretary of Commerce
on behalf of the United States of America. All rights reserved.
##CAS REGISTRY NO=2050-49-9
##$NIST MASS SPEC NO=234202
##MOLFORM=C10 H6 Br2 O
##MW=300
##$NIST SOURCE=MSDC
##XUNITS=M/Z
##YUNITS=RELATIVE INTENSITY
##XFACTOR=1
##YFACTOR=1
##FIRSTX=25
##LASTX=306
##FIRSTY=20
##MAXX=306
##MINX=25
##MAXY=9999
##MINY=10
##NPOINTS=140
##PEAK TABLE=(XY..XY)
25,20 26,90 27,119 28,229
29,99 31,10 36,60 37,299
38,299 39,849 40,40 41,20
43,229 44,119 48,20 49,149
50,529 51,369 52,30 53,289
54,70 55,459 56,1369 57,1159
58,40 60,80 61,639 62,1359
63,2569 64,399 65,50 66,60
67,20 69,30 70,70 71,509
72,40 73,249 74,949 75,539
76,90 77,129 78,20 79,139
80,179 81,129 82,179 83,60
84,119 85,499 86,1379 87,1629
88,1369 89,249 90,40 91,20
93,10 94,10 95,30 96,1699
97,1609 98,339 99,129 100,20
101,60 102,20 103,10 106,10
108,30 109,169 110,429 111,329
112,379 113,8949 114,5229 115,1029
116,109 117,60 118,30 119,50
120,20 121,30 122,70 123,40
124,40 125,70 126,20 128,30
129,20 130,20 131,20 135,20
136,60 137,109 138,40 140,50
141,409 142,2089 143,259 144,70
150,289 151,559 152,279 153,20
154,20 155,20 164,20 165,129
166,20 167,129 168,20 169,20
191,139 192,2949 193,6149 194,3339
195,5729 196,559 197,30 219,10
220,159 221,349 222,659 223,349
224,409 225,50 271,199 272,30
273,399 274,40 275,169 276,20
299,50 300,5189 301,629 302,9999
303,1109 304,4699 305,539 306,30
##END=
