##TITLE=Trisulfide, di-2-propenyl
##JCAMP-DX=4.24
##DATA TYPE=MASS SPECTRUM
##ORIGIN=J. MADSEN,DEP. ORG. CHEM.,TECH. UNIV. DENMARK,LYNGBY,DENMARK
##OWNER=NIST Mass Spectrometry Data Center
Collection (C) 2014 copyright by the U.S. Secretary of Commerce
on behalf of the United States of America. All rights reserved.
##CAS REGISTRY NO=2050-87-5
##$NIST MASS SPEC NO=99488
##MOLFORM=C6 H10 S3
##MW=178
##$NIST SOURCE=MSDC
##XUNITS=M/Z
##YUNITS=RELATIVE INTENSITY
##XFACTOR=1
##YFACTOR=1
##FIRSTX=26
##LASTX=180
##FIRSTY=70
##MAXX=180
##MINX=26
##MAXY=9999
##MINY=20
##NPOINTS=58
##PEAK TABLE=(XY..XY)
26,70 27,470 29,210 37,80
38,220 39,3170 40,280 41,8760
42,300 44,30 45,3910 46,270
47,630 49,30 53,30 54,30
55,50 57,30 58,130 59,160
60,70 61,100 64,430 65,40
66,50 67,290 68,130 69,100
71,610 72,690 73,9999 74,480
75,450 77,20 78,30 79,310
80,140 81,230 85,190 86,50
87,30 91,150 96,30 99,190
103,280 104,380 105,340 106,110
107,30 113,6030 114,590 115,290
116,30 137,110 146,20 178,530
179,50 180,70
##END=
