##TITLE=Naphthalene, 1,2-dichloro-
##JCAMP-DX=4.24
##DATA TYPE=MASS SPECTRUM
##ORIGIN=EP-1353
##OWNER=NIST Mass Spectrometry Data Center
Collection (C) 2014 copyright by the U.S. Secretary of Commerce
on behalf of the United States of America. All rights reserved.
##CAS REGISTRY NO=2050-69-3
##$NIST MASS SPEC NO=43777
##MOLFORM=C10 H6 Cl2
##MW=196
##$NIST SOURCE=MSDC
##XUNITS=M/Z
##YUNITS=RELATIVE INTENSITY
##XFACTOR=1
##YFACTOR=1
##FIRSTX=50
##LASTX=201
##FIRSTY=50
##MAXX=201
##MINX=50
##MAXY=9999
##MINY=50
##NPOINTS=24
##PEAK TABLE=(XY..XY)
50,50 51,200 52,150 73,100
74,380 75,380 76,150 108,250
109,200 110,100 125,550 126,1800
127,200 160,500 161,1100 162,400
163,450 164,55 196,9999 197,1200
198,6400 199,800 200,1100 201,120
##END=
