##TITLE=Propanoic acid, 2-methyl-, 3-methylbutyl ester
##JCAMP-DX=4.24
##DATA TYPE=MASS SPECTRUM
##ORIGIN=Japan AIST/NIMC Database- Spectrum MS-NW-5747
##OWNER=NIST Mass Spectrometry Data Center
Collection (C) 2014 copyright by the U.S. Secretary of Commerce
on behalf of the United States of America. All rights reserved.
##CAS REGISTRY NO=2050-01-3
##$NIST MASS SPEC NO=228634
##MOLFORM=C9 H18 O2
##MW=158
##$NIST SOURCE=MSDC
##XUNITS=M/Z
##YUNITS=RELATIVE INTENSITY
##XFACTOR=1
##YFACTOR=1
##FIRSTX=14
##LASTX=157
##FIRSTY=20
##MAXX=157
##MINX=14
##MAXY=9999
##MINY=10
##NPOINTS=66
##PEAK TABLE=(XY..XY)
14,20 15,139 17,10 18,80
19,10 25,10 26,90 27,1189
28,309 29,799 30,20 31,129
37,30 38,60 39,649 40,169
41,1929 42,1169 43,9999 44,389
45,179 46,10 50,20 51,20
53,90 54,60 55,2389 56,249
57,359 58,99 59,369 60,30
61,10 66,10 67,40 68,40
69,409 70,5909 71,6409 72,319
73,159 74,30 75,10 84,20
85,219 86,40 87,90 88,169
89,1129 90,60 91,10 97,10
99,10 100,10 101,269 102,40
103,10 113,10 114,10 115,289
116,60 117,10 128,10 129,20
143,10 157,10
##END=
