##TITLE=1-Pentanamine, N-pentyl-
##JCAMP-DX=4.24
##DATA TYPE=MASS SPECTRUM
##ORIGIN=Japan AIST/NIMC Database- Spectrum MS-NW-8360
##OWNER=NIST Mass Spectrometry Data Center
Collection (C) 2014 copyright by the U.S. Secretary of Commerce
on behalf of the United States of America. All rights reserved.
##CAS REGISTRY NO=2050-92-2
##$NIST MASS SPEC NO=238182
##MOLFORM=C10 H23 N
##MW=157
##$NIST SOURCE=MSDC
##XUNITS=M/Z
##YUNITS=RELATIVE INTENSITY
##XFACTOR=1
##YFACTOR=1
##FIRSTX=15
##LASTX=158
##FIRSTY=40
##MAXX=158
##MINX=15
##MAXY=9999
##MINY=10
##NPOINTS=49
##PEAK TABLE=(XY..XY)
15,40 26,20 27,519 28,409
29,859 30,3709 31,60 39,279
40,40 41,1129 42,389 43,3099
44,7989 45,259 53,50 54,40
55,229 56,329 57,159 58,90
59,10 67,30 68,50 69,189
70,289 71,249 72,60 73,20
75,20 82,10 84,70 86,199
87,90 88,10 98,139 99,10
100,9999 101,699 102,20 112,20
113,10 114,50 126,30 128,30
142,30 154,10 156,99 157,539
158,99
##END=
