##TITLE=Naphthalene, 2,3-dichloro-
##JCAMP-DX=4.24
##DATA TYPE=MASS SPECTRUM
##ORIGIN=EP-1351
##OWNER=NIST Mass Spectrometry Data Center
Collection (C) 2014 copyright by the U.S. Secretary of Commerce
on behalf of the United States of America. All rights reserved.
##CAS REGISTRY NO=2050-75-1
##$NIST MASS SPEC NO=43775
##MOLFORM=C10 H6 Cl2
##MW=196
##$NIST SOURCE=MSDC
##XUNITS=M/Z
##YUNITS=RELATIVE INTENSITY
##XFACTOR=1
##YFACTOR=1
##FIRSTX=50
##LASTX=201
##FIRSTY=200
##MAXX=201
##MINX=50
##MAXY=9999
##MINY=30
##NPOINTS=27
##PEAK TABLE=(XY..XY)
50,200 51,400 52,250 72,250
73,500 74,1700 75,1350 76,500
108,200 109,200 110,150 111,200
124,100 125,1400 126,4100 127,400
160,750 161,2300 162,500 163,650
164,30 196,9999 197,1200 198,6500
199,700 200,1100 201,120
##END=
