##TITLE=Acetamide, N-(2,4-dimethylphenyl)-
##JCAMP-DX=4.24
##DATA TYPE=MASS SPECTRUM
##ORIGIN=Japan AIST/NIMC Database- Spectrum MS-IW-4348
##OWNER=NIST Mass Spectrometry Data Center
Collection (C) 2014 copyright by the U.S. Secretary of Commerce
on behalf of the United States of America. All rights reserved.
##CAS REGISTRY NO=2050-43-3
##$NIST MASS SPEC NO=244384
##MOLFORM=C10 H13 N O
##MW=163
##$NIST SOURCE=MSDC
##XUNITS=M/Z
##YUNITS=RELATIVE INTENSITY
##XFACTOR=1
##YFACTOR=1
##FIRSTX=15
##LASTX=165
##FIRSTY=99
##MAXX=165
##MINX=15
##MAXY=9999
##MINY=10
##NPOINTS=71
##PEAK TABLE=(XY..XY)
15,99 26,10 27,129 28,129
29,10 30,60 38,30 39,279
40,50 41,149 42,129 43,1289
44,30 50,60 51,229 52,159
53,179 54,60 55,10 58,20
62,30 63,99 64,40 65,299
66,70 67,30 68,10 74,10
75,20 76,30 77,869 78,229
79,209 80,90 81,20 89,60
90,40 91,659 92,149 93,259
94,60 102,40 103,209 104,169
105,119 106,3889 107,359 108,10
116,20 117,80 118,289 119,219
120,4119 121,9999 122,1129 123,50
130,10 132,40 133,10 134,20
142,10 144,10 146,40 147,50
148,60 149,10 161,10 162,30
163,6209 164,729 165,50
##END=
