##TITLE=1-Butanol, 3-methyl-, carbonate (2:1)
##JCAMP-DX=4.24
##DATA TYPE=MASS SPECTRUM
##OWNER=NIST Mass Spectrometry Data Center
Collection (C) 2014 copyright by the U.S. Secretary of Commerce
on behalf of the United States of America. All rights reserved.
##CAS REGISTRY NO=2050-95-5
##$NIST MASS SPEC NO=9126
##MOLFORM=C11 H22 O3
##MW=202
##$NIST SOURCE=MSDC
##XUNITS=M/Z
##YUNITS=RELATIVE INTENSITY
##XFACTOR=1
##YFACTOR=1
##FIRSTX=15
##LASTX=203
##FIRSTY=40
##MAXX=203
##MINX=15
##MAXY=9999
##MINY=10
##NPOINTS=63
##PEAK TABLE=(XY..XY)
15,40 18,30 19,20 26,30
27,681 28,480 29,931 30,40
31,170 32,40 38,20 39,470
40,90 41,1722 42,1221 43,7667
44,320 45,220 46,20 50,10
51,30 52,10 53,130 54,120
55,3873 56,310 57,330 58,30
59,40 63,220 65,30 66,20
67,50 68,80 69,1021 70,9999
71,9829 72,550 73,40 76,30
77,50 85,20 87,160 88,10
89,430 90,220 91,30 94,70
103,30 105,30 107,100 109,90
115,20 117,520 118,30 131,20
132,100 133,170 134,20 159,30
160,20 202,50 203,20
##END=
