##TITLE=1,2-Diethoxybenzene
##JCAMP-DX=4.24
##DATA TYPE=MASS SPECTRUM
##ORIGIN=Japan AIST/NIMC Database- Spectrum MS-NW-4279
##OWNER=NIST Mass Spectrometry Data Center
Collection (C) 2014 copyright by the U.S. Secretary of Commerce
on behalf of the United States of America. All rights reserved.
##CAS REGISTRY NO=2050-46-6
##$NIST MASS SPEC NO=232318
##MOLFORM=C10 H14 O2
##MW=166
##$NIST SOURCE=MSDC
##XUNITS=M/Z
##YUNITS=RELATIVE INTENSITY
##XFACTOR=1
##YFACTOR=1
##FIRSTX=14
##LASTX=168
##FIRSTY=10
##MAXX=168
##MINX=14
##MAXY=9999
##MINY=10
##NPOINTS=76
##PEAK TABLE=(XY..XY)
14,10 15,30 18,10 26,149
27,819 28,60 29,799 30,20
31,10 37,20 38,90 39,279
40,20 41,30 42,10 43,209
44,10 45,109 49,10 50,139
51,329 52,489 53,389 54,70
55,90 57,40 61,10 62,50
63,249 64,419 65,489 66,60
67,20 68,10 69,10 74,10
75,10 76,20 77,189 78,30
79,70 80,109 81,1439 82,229
83,10 88,10 91,99 92,239
93,159 94,60 95,99 96,10
103,10 105,10 107,40 108,20
109,2649 110,9999 111,679 112,60
119,10 120,10 121,209 122,30
123,30 135,10 136,20 137,119
138,1069 139,109 140,10 151,20
165,10 166,3939 167,439 168,40
##END=
