##TITLE=Cyanamide, dibutyl-
##JCAMP-DX=4.24
##DATA TYPE=MASS SPECTRUM
##ORIGIN=ASES Database, Dalian Institute, P.R. China
##OWNER=NIST Mass Spectrometry Data Center
Collection (C) 2014 copyright by the U.S. Secretary of Commerce
on behalf of the United States of America. All rights reserved.
##CAS REGISTRY NO=2050-54-6
##$NIST MASS SPEC NO=144080
##MOLFORM=C9 H18 N2
##MW=154
##$NIST SOURCE=MSDC
##XUNITS=M/Z
##YUNITS=RELATIVE INTENSITY
##XFACTOR=1
##YFACTOR=1
##FIRSTX=41
##LASTX=155
##FIRSTY=3753
##MAXX=155
##MINX=41
##MAXY=9999
##MINY=430
##NPOINTS=23
##PEAK TABLE=(XY..XY)
41,3753 42,630 43,950 44,1251
55,6575 56,1251 57,5805 58,440
69,9999 70,1261 83,630 84,1121
86,810 98,1000 99,1251 100,490
111,6255 112,1561 125,1251 139,940
153,430 154,3323 155,630
##END=
