##TITLE=Octane, 2,6-dimethyl-
##JCAMP-DX=4.24
##DATA TYPE=MASS SPECTRUM
##ORIGIN=Japan AIST/NIMC Database- Spectrum MS-NW-4601
##OWNER=NIST Mass Spectrometry Data Center
Collection (C) 2014 copyright by the U.S. Secretary of Commerce
on behalf of the United States of America. All rights reserved.
##CAS REGISTRY NO=2051-30-1
##$NIST MASS SPEC NO=227526
##MOLFORM=C10 H22
##MW=142
##$NIST SOURCE=MSDC
##XUNITS=M/Z
##YUNITS=RELATIVE INTENSITY
##XFACTOR=1
##YFACTOR=1
##FIRSTX=15
##LASTX=143
##FIRSTY=40
##MAXX=143
##MINX=15
##MAXY=9999
##MINY=10
##NPOINTS=52
##PEAK TABLE=(XY..XY)
15,40 26,30 27,799 28,50
29,1569 30,30 38,20 39,569
40,109 41,2699 42,639 43,5649
44,199 50,10 51,30 52,10
53,139 54,50 55,869 56,2989
57,9999 58,459 59,10 65,20
67,50 68,40 69,409 70,449
71,5539 72,319 77,10 79,10
81,20 83,70 84,229 85,799
86,50 95,10 96,20 97,119
98,70 99,99 100,10 111,10
112,609 113,1349 114,119 126,10
127,80 128,10 142,70 143,10
##END=
