##TITLE=Quinoline, decahydro-
##JCAMP-DX=4.24
##DATA TYPE=MASS SPECTRUM
##ORIGIN=NIST Mass Spectrometry Data Center, 1994
##OWNER=NIST Mass Spectrometry Data Center
Collection (C) 2014 copyright by the U.S. Secretary of Commerce
on behalf of the United States of America. All rights reserved.
##CAS REGISTRY NO=2051-28-7
##$NIST MASS SPEC NO=133283
##MOLFORM=C9 H17 N
##MW=139
##$NIST SOURCE=MSDC
##XUNITS=M/Z
##YUNITS=RELATIVE INTENSITY
##XFACTOR=1
##YFACTOR=1
##FIRSTX=14
##LASTX=141
##FIRSTY=12
##MAXX=141
##MINX=14
##MAXY=9999
##MINY=3
##NPOINTS=78
##PEAK TABLE=(XY..XY)
14,12 15,147 16,6 17,3
18,53 27,945 28,955 29,533
30,801 37,17 39,863 41,1313
42,365 43,270 44,185 45,14
46,7 48,6 50,46 51,130
52,118 53,337 54,448 55,399
56,468 57,112 58,23 60,5
61,4 62,7 63,28 65,119
67,473 68,673 69,181 70,175
71,13 74,4 75,5 77,150
78,57 79,300 80,209 81,335
82,892 83,594 84,80 85,10
88,4 91,52 93,115 94,154
96,9999 97,707 98,45 103,5
104,5 105,12 106,20 108,64
109,64 110,227 111,22 112,4
118,4 119,6 120,5 121,17
122,15 124,20 125,3 132,3
134,6 136,49 138,487 139,1137
140,115 141,7
##END=
