##TITLE=1-Hexanol, 5-methyl-2-(1-methylethyl)-
##JCAMP-DX=4.24
##DATA TYPE=MASS SPECTRUM
##ORIGIN=Japan AIST/NIMC Database- Spectrum MS-IW-2196
##OWNER=NIST Mass Spectrometry Data Center
Collection (C) 2014 copyright by the U.S. Secretary of Commerce
on behalf of the United States of America. All rights reserved.
##CAS REGISTRY NO=2051-33-4
##$NIST MASS SPEC NO=233885
##MOLFORM=C10 H22 O
##MW=158
##$NIST SOURCE=MSDC
##XUNITS=M/Z
##YUNITS=RELATIVE INTENSITY
##XFACTOR=1
##YFACTOR=1
##FIRSTX=15
##LASTX=143
##FIRSTY=40
##MAXX=143
##MINX=15
##MAXY=9999
##MINY=10
##NPOINTS=76
##PEAK TABLE=(XY..XY)
15,40 17,10 18,30 26,30
27,1229 28,179 29,1679 30,50
31,689 32,10 33,10 37,10
38,30 39,899 40,159 41,5059
42,799 43,9259 44,469 45,399
46,10 50,20 51,60 52,20
53,359 54,249 55,6869 56,6329
57,9979 58,549 59,199 61,10
63,10 65,50 66,20 67,319
68,339 69,6199 70,3409 71,9999
72,639 73,139 77,40 78,10
79,60 80,10 81,319 82,379
83,1749 84,3009 85,4629 86,349
87,40 91,10 93,10 95,50
96,409 97,2689 98,479 99,50
101,10 109,10 111,139 112,419
113,50 115,359 116,20 123,10
125,329 126,379 127,679 128,70
129,10 140,479 141,60 143,10
##END=
