##TITLE=Benzene, 1,1'-(dichloromethylene)bis-
##JCAMP-DX=4.24
##DATA TYPE=MASS SPECTRUM
##ORIGIN=Japan AIST/NIMC Database- Spectrum MS-IW-3356
##OWNER=NIST Mass Spectrometry Data Center
Collection (C) 2014 copyright by the U.S. Secretary of Commerce
on behalf of the United States of America. All rights reserved.
##CAS REGISTRY NO=2051-90-3
##$NIST MASS SPEC NO=229217
##MOLFORM=C13 H10 Cl2
##MW=236
##$NIST SOURCE=MSDC
##XUNITS=M/Z
##YUNITS=RELATIVE INTENSITY
##XFACTOR=1
##YFACTOR=1
##FIRSTX=26
##LASTX=241
##FIRSTY=20
##MAXX=241
##MINX=26
##MAXY=9999
##MINY=10
##NPOINTS=122
##PEAK TABLE=(XY..XY)
26,20 27,60 28,10 35,30
36,209 37,20 38,99 39,379
40,10 49,10 50,249 51,409
52,80 53,10 55,30 56,20
57,10 61,60 62,269 63,599
64,80 65,109 67,20 68,20
69,469 70,99 73,70 74,269
75,249 76,159 77,299 78,40
81,509 82,1879 83,979 84,10
85,60 86,219 87,289 88,159
89,349 90,30 91,30 93,20
97,30 98,119 99,129 100,139
101,90 102,60 103,10 105,249
106,20 109,20 110,60 111,70
112,30 113,229 114,119 115,419
116,40 118,40 119,20 121,40
122,20 123,40 124,20 125,40
126,189 127,80 128,20 134,10
135,10 136,10 137,109 138,139
139,719 140,99 141,10 144,10
145,10 149,50 150,60 151,80
152,99 153,20 154,10 157,10
159,40 161,50 162,109 163,939
164,999 165,9219 166,3169 167,709
168,80 173,20 175,10 176,20
177,10 178,30 181,10 182,99
183,10 186,20 188,10 197,10
198,40 199,179 200,70 201,9999
202,1449 203,3309 204,469 205,30
236,50 237,10 238,40 239,40
240,30 241,50
##END=
