##TITLE=Disulfide, bis(3-methylbutyl)
##JCAMP-DX=4.24
##DATA TYPE=MASS SPECTRUM
##ORIGIN=Japan AIST/NIMC Database- Spectrum MS-NW-5232
##OWNER=NIST Mass Spectrometry Data Center
Collection (C) 2014 copyright by the U.S. Secretary of Commerce
on behalf of the United States of America. All rights reserved.
##CAS REGISTRY NO=2051-04-9
##$NIST MASS SPEC NO=232415
##MOLFORM=C10 H22 S2
##MW=206
##$NIST SOURCE=MSDC
##XUNITS=M/Z
##YUNITS=RELATIVE INTENSITY
##XFACTOR=1
##YFACTOR=1
##FIRSTX=15
##LASTX=210
##FIRSTY=40
##MAXX=210
##MINX=15
##MAXY=9999
##MINY=10
##NPOINTS=83
##PEAK TABLE=(XY..XY)
15,40 26,50 27,919 28,139
29,1229 30,30 32,30 33,10
34,10 35,30 37,10 38,20
39,549 40,80 41,1939 42,369
43,9999 44,349 45,249 46,119
47,299 48,10 49,10 50,20
51,30 52,10 53,149 54,40
55,1179 56,179 57,309 58,40
59,209 60,119 61,269 62,20
63,10 64,50 65,10 66,20
67,80 68,70 69,439 70,789
71,6249 72,359 73,50 74,40
75,20 76,20 78,20 79,229
80,10 81,20 85,20 87,269
88,20 89,20 93,70 101,329
102,329 103,339 104,80 105,20
107,10 108,10 117,10 120,10
121,20 122,10 131,10 135,10
136,1019 137,80 138,109 163,10
174,60 175,10 206,2359 207,329
208,249 209,30 210,10
##END=
