##TITLE=2-Octanol, acetate
##JCAMP-DX=4.24
##DATA TYPE=MASS SPECTRUM
##OWNER=NIST Mass Spectrometry Data Center
Collection (C) 2014 copyright by the U.S. Secretary of Commerce
on behalf of the United States of America. All rights reserved.
##CAS REGISTRY NO=2051-50-5
##$NIST MASS SPEC NO=6788
##MOLFORM=C10 H20 O2
##MW=172
##$NIST SOURCE=MSDC
##XUNITS=M/Z
##YUNITS=RELATIVE INTENSITY
##XFACTOR=1
##YFACTOR=1
##FIRSTX=15
##LASTX=172
##FIRSTY=190
##MAXX=172
##MINX=15
##MAXY=9999
##MINY=20
##NPOINTS=61
##PEAK TABLE=(XY..XY)
15,190 18,40 26,20 27,450
28,120 29,611 30,20 31,30
39,310 40,60 41,1221 42,681
43,9999 44,300 45,731 46,20
51,20 53,90 54,90 55,1361
56,1141 57,831 58,1191 59,420
60,20 61,440 67,90 68,160
69,731 70,1611 71,591 72,80
73,20 81,40 82,250 83,921
84,601 85,180 86,70 87,3733
88,170 89,20 95,20 97,420
98,50 99,20 100,20 101,30
102,460 103,60 110,20 111,30
112,1672 113,290 114,20 115,60
128,190 129,140 130,30 157,30
172,20
##END=
