##TITLE=Hexanoic acid, anhydride
##JCAMP-DX=4.24
##DATA TYPE=MASS SPECTRUM
##ORIGIN=NIST Mass Spectrometry Data Center, 1992
##OWNER=NIST Mass Spectrometry Data Center
Collection (C) 2014 copyright by the U.S. Secretary of Commerce
on behalf of the United States of America. All rights reserved.
##CAS REGISTRY NO=2051-49-2
##$NIST MASS SPEC NO=125101
##MOLFORM=C12 H22 O3
##MW=214
##$NIST SOURCE=MSDC
##XUNITS=M/Z
##YUNITS=RELATIVE INTENSITY
##XFACTOR=1
##YFACTOR=1
##FIRSTX=15
##LASTX=185
##FIRSTY=99
##MAXX=185
##MINX=15
##MAXY=9999
##MINY=2
##NPOINTS=79
##PEAK TABLE=(XY..XY)
15,99 17,18 18,95 19,4
26,159 27,1527 28,671 29,1630
30,44 31,29 36,3 37,16
39,833 40,234 41,2077 42,1525
43,5488 44,196 45,120 46,6
47,4 48,8 49,3 50,14
51,32 52,20 53,115 54,3
55,1163 56,205 57,77 58,24
60,291 61,34 62,4 63,6
65,11 66,7 67,24 68,31
69,196 70,417 71,2878 72,169
73,169 74,25 75,5 77,2
79,7 80,60 81,47 83,54
84,5 85,14 86,6 87,44
88,3 89,5 95,4 97,73
99,9999 100,700 101,51 111,3
112,5 113,2 114,18 115,35
116,8 117,36 118,2 127,4
130,7 140,16 141,3 143,20
158,7 183,4 185,4
##END=
