##TITLE=4-Bromo-N,N-diethylaniline
##JCAMP-DX=4.24
##DATA TYPE=MASS SPECTRUM
##ORIGIN=NIST Mass Spectrometry Data Center
##OWNER=NIST Mass Spectrometry Data Center
Collection (C) 2014 copyright by the U.S. Secretary of Commerce
on behalf of the United States of America. All rights reserved.
##CAS REGISTRY NO=2052-06-4
##$NIST MASS SPEC NO=340543
##MOLFORM=C10 H14 Br N
##MW=227
##$NIST SOURCE=MSDC
##XUNITS=M/Z
##YUNITS=RELATIVE INTENSITY
##XFACTOR=1
##YFACTOR=1
##FIRSTX=15
##LASTX=231
##FIRSTY=120
##MAXX=231
##MINX=15
##MAXY=9999
##MINY=10
##NPOINTS=124
##PEAK TABLE=(XY..XY)
15,120 25,10 26,230 27,1712
29,2472 30,120 37,110 38,350
39,621 40,90 41,310 42,540
43,30 44,140 49,60 50,1431
51,1261 52,470 53,120 54,160
55,50 56,240 57,20 58,110
61,120 62,400 63,1361 64,771
65,741 66,120 67,50 68,30
70,30 73,80 74,671 75,1932
76,2452 77,2272 78,911 79,350
80,70 81,30 82,20 86,20
87,50 88,110 89,530 90,991
91,1521 92,470 93,170 94,30
95,10 98,10 99,20 100,10
101,10 102,230 103,450 104,2712
105,4514 106,470 107,80 108,10
113,270 114,260 116,150 117,881
118,3974 119,1601 120,250 121,20
128,30 129,90 130,260 131,170
132,1932 133,2953 134,340 135,10
141,10 142,10 143,100 144,40
145,100 146,110 147,190 148,140
149,30 155,2272 156,210 157,2142
158,170 159,10 168,10 169,160
170,60 171,170 172,50 173,10
182,1561 183,951 184,4954 185,1171
186,3403 187,260 196,160 197,140
198,370 199,160 200,200 201,10
210,30 212,9999 213,1061 214,9288
215,941 216,40 226,210 227,2943
228,530 229,2843 230,320 231,10
##END=
