##TITLE=2-Butenal, 2-ethenyl-
##JCAMP-DX=4.24
##DATA TYPE=MASS SPECTRUM
##ORIGIN=James Little,Eastman Chem.Corp.,Kingsport,TN
##OWNER=NIST Mass Spectrometry Data Center
Collection (C) 2014 copyright by the U.S. Secretary of Commerce
on behalf of the United States of America. All rights reserved.
##CAS REGISTRY NO=20521-42-0
##$NIST MASS SPEC NO=245697
##MOLFORM=C6 H8 O
##MW=96
##$NIST SOURCE=MSDC
##XUNITS=M/Z
##YUNITS=RELATIVE INTENSITY
##XFACTOR=1
##YFACTOR=1
##FIRSTX=26
##LASTX=97
##FIRSTY=300
##MAXX=97
##MINX=26
##MAXY=9999
##MINY=60
##NPOINTS=25
##PEAK TABLE=(XY..XY)
26,300 27,2682 29,880 38,870
39,8657 40,2342 41,9999 42,1161
51,1070 52,510 53,3202 55,290
63,620 65,3403 66,2091 67,9958
68,900 77,210 78,330 79,200
81,1321 82,60 95,3583 96,4323
97,280
##END=
