##TITLE=Bicyclo[2.2.1]heptane, 2,2,3-trimethyl-, endo-
##JCAMP-DX=4.24
##DATA TYPE=MASS SPECTRUM
##OWNER=NIST Mass Spectrometry Data Center
Collection (C) 2014 copyright by the U.S. Secretary of Commerce
on behalf of the United States of America. All rights reserved.
##CAS REGISTRY NO=20536-40-7
##$NIST MASS SPEC NO=3528
##MOLFORM=C10 H18
##MW=138
##$NIST SOURCE=MSDC
##XUNITS=M/Z
##YUNITS=RELATIVE INTENSITY
##XFACTOR=1
##YFACTOR=1
##FIRSTX=41
##LASTX=138
##FIRSTY=6005
##MAXX=138
##MINX=41
##MAXY=9999
##MINY=150
##NPOINTS=23
##PEAK TABLE=(XY..XY)
41,6005 43,1802 53,1301 55,7106
67,5005 68,2002 69,4704 70,4204
77,601 79,751 80,150 81,2702
82,3103 83,1501 91,350 93,250
94,901 95,9999 96,1802 109,6706
110,651 123,1401 138,1601
##END=
