##TITLE=Bicyclo[2.2.1]heptane, 2,2,3-trimethyl-, exo-
##JCAMP-DX=4.24
##DATA TYPE=MASS SPECTRUM
##OWNER=NIST Mass Spectrometry Data Center
Collection (C) 2014 copyright by the U.S. Secretary of Commerce
on behalf of the United States of America. All rights reserved.
##CAS REGISTRY NO=20536-41-8
##$NIST MASS SPEC NO=3529
##MOLFORM=C10 H18
##MW=138
##$NIST SOURCE=MSDC
##XUNITS=M/Z
##YUNITS=RELATIVE INTENSITY
##XFACTOR=1
##YFACTOR=1
##FIRSTX=41
##LASTX=138
##FIRSTY=5305
##MAXX=138
##MINX=41
##MAXY=9999
##MINY=200
##NPOINTS=23
##PEAK TABLE=(XY..XY)
41,5305 43,1702 53,1201 55,6506
67,4704 68,2002 69,4304 70,4404
77,500 79,601 80,200 81,2402
82,3003 83,1401 91,350 93,250
94,901 95,9999 96,1902 109,6706
110,651 123,1501 138,1802
##END=
