##TITLE=1,4-Cyclohexanedione, 2,2,6-trimethyl-
##JCAMP-DX=4.24
##DATA TYPE=MASS SPECTRUM
##ORIGIN=NIST Mass Spectrometry Data Center
##OWNER=NIST Mass Spectrometry Data Center
Collection (C) 2014 copyright by the U.S. Secretary of Commerce
on behalf of the United States of America. All rights reserved.
##CAS REGISTRY NO=20547-99-3
##$NIST MASS SPEC NO=413455
##MOLFORM=C9 H14 O2
##MW=154
##$NIST SOURCE=MSDC
##XUNITS=M/Z
##YUNITS=RELATIVE INTENSITY
##XFACTOR=1
##YFACTOR=1
##FIRSTX=26
##LASTX=156
##FIRSTY=60
##MAXX=156
##MINX=26
##MAXY=9999
##MINY=10
##NPOINTS=58
##PEAK TABLE=(XY..XY)
26,60 27,470 28,230 29,360
38,130 39,2282 40,631 41,4244
42,6636 43,741 48,10 50,90
51,170 52,70 53,480 54,180
55,2202 56,9999 57,961 63,50
65,110 66,50 67,661 68,180
69,5605 70,4524 71,561 77,130
78,30 79,90 81,140 82,160
83,1381 84,350 85,510 86,30
91,50 93,100 95,831 96,90
97,170 98,250 99,60 109,90
110,701 111,851 112,190 113,50
125,40 126,50 136,30 139,8297
140,751 141,60 153,30 154,4764
155,500 156,40
##END=
