##TITLE=Pyridine, 4-(3-phenylpropyl)-
##JCAMP-DX=4.24
##DATA TYPE=MASS SPECTRUM
##ORIGIN=Japan AIST/NIMC Database- Spectrum MS-NW-5283
##OWNER=NIST Mass Spectrometry Data Center
Collection (C) 2014 copyright by the U.S. Secretary of Commerce
on behalf of the United States of America. All rights reserved.
##CAS REGISTRY NO=2057-49-0
##$NIST MASS SPEC NO=232805
##MOLFORM=C14 H15 N
##MW=197
##$NIST SOURCE=MSDC
##XUNITS=M/Z
##YUNITS=RELATIVE INTENSITY
##XFACTOR=1
##YFACTOR=1
##FIRSTX=26
##LASTX=199
##FIRSTY=50
##MAXX=199
##MINX=26
##MAXY=9999
##MINY=10
##NPOINTS=107
##PEAK TABLE=(XY..XY)
26,50 27,369 28,50 29,20
37,10 38,90 39,1059 40,109
41,269 42,20 43,10 44,10
49,10 50,279 51,1049 52,349
53,239 54,119 55,20 57,10
61,20 62,80 63,399 64,139
65,1859 66,279 67,99 69,10
70,10 71,10 74,60 75,70
76,90 77,1379 78,639 79,749
80,109 81,10 82,10 83,20
84,10 86,10 87,20 88,10
89,239 90,109 91,9209 92,4979
93,9999 94,679 95,20 96,10
98,30 99,10 101,20 102,80
103,489 104,1319 105,2549 106,4009
107,379 108,20 113,10 114,10
115,159 116,50 117,139 118,279
119,99 120,60 121,10 126,10
127,20 128,40 129,20 130,10
139,30 140,20 141,30 142,20
143,10 151,10 152,40 153,40
154,50 155,20 156,10 165,30
166,20 167,70 168,80 169,60
170,30 178,10 179,10 180,40
181,10 182,10 191,10 192,10
193,20 194,50 195,20 196,239
197,4519 198,729 199,60
##END=
