##TITLE=Pentanoic acid, 2,4-dioxo-, methyl ester
##JCAMP-DX=4.24
##DATA TYPE=MASS SPECTRUM
##ORIGIN=NIST Mass Spectrometry Data Center, 1994
##OWNER=NIST Mass Spectrometry Data Center
Collection (C) 2014 copyright by the U.S. Secretary of Commerce
on behalf of the United States of America. All rights reserved.
##CAS REGISTRY NO=20577-61-1
##$NIST MASS SPEC NO=135748
##MOLFORM=C6 H8 O4
##MW=144
##$NIST SOURCE=MSDC
##XUNITS=M/Z
##YUNITS=RELATIVE INTENSITY
##XFACTOR=1
##YFACTOR=1
##FIRSTX=4
##LASTX=146
##FIRSTY=13
##MAXX=146
##MINX=4
##MAXY=9999
##MINY=3
##NPOINTS=63
##PEAK TABLE=(XY..XY)
4,13 12,52 13,126 14,635
15,3379 16,60 17,11 18,35
24,10 25,99 26,361 27,1003
28,427 29,1837 30,222 31,808
32,38 33,78 36,21 37,143
38,264 39,768 40,151 41,1170
42,1673 43,9999 44,256 45,170
46,5 48,5 49,14 50,26
51,10 52,25 53,210 54,37
55,277 56,42 57,55 58,5
59,450 60,16 61,8 66,22
67,63 69,1546 70,92 71,68
72,95 73,3 75,6 77,6
85,8046 86,359 87,40 101,73
102,29 116,297 117,17 129,13
144,342 145,32 146,5
##END=
