##TITLE=Propanal, 2-methyl-, (2,4-dinitrophenyl)hydrazone
##JCAMP-DX=4.24
##DATA TYPE=MASS SPECTRUM
##ORIGIN=Japan AIST/NIMC Database- Spectrum MS-IW-6576
##OWNER=NIST Mass Spectrometry Data Center
Collection (C) 2014 copyright by the U.S. Secretary of Commerce
on behalf of the United States of America. All rights reserved.
##CAS REGISTRY NO=2057-82-1
##$NIST MASS SPEC NO=241907
##MOLFORM=C10 H12 N4 O4
##MW=252
##$NIST SOURCE=MSDC
##XUNITS=M/Z
##YUNITS=RELATIVE INTENSITY
##XFACTOR=1
##YFACTOR=1
##FIRSTX=15
##LASTX=255
##FIRSTY=60
##MAXX=255
##MINX=15
##MAXY=9999
##MINY=10
##NPOINTS=196
##PEAK TABLE=(XY..XY)
15,60 26,90 27,1089 28,1219
29,749 30,3299 31,30 32,10
37,90 38,349 39,1579 40,259
41,2929 42,969 43,3069 44,169
45,50 46,40 49,10 50,339
51,1139 52,789 53,459 54,319
55,3009 56,1349 57,679 58,60
59,50 61,129 62,639 63,1489
64,1029 65,399 66,299 67,119
68,319 69,209 70,409 71,109
72,90 73,3339 74,399 75,1979
76,859 77,1799 78,2189 79,3099
80,399 81,70 82,60 83,60
84,20 86,10 87,50 88,169
89,359 90,699 91,1229 92,1389
93,379 94,119 95,70 96,20
98,10 101,20 102,99 103,309
104,319 105,439 106,409 107,319
108,109 109,10 110,10 111,20
114,20 115,519 116,379 117,429
118,529 119,439 120,169 121,139
122,2969 123,239 124,20 126,10
127,50 128,149 129,209 130,409
131,269 132,119 133,139 134,189
135,319 136,169 137,229 138,219
139,20 140,10 141,10 142,99
143,429 144,449 145,329 146,139
147,259 148,259 149,239 150,60
151,99 152,4469 153,579 154,70
155,30 156,80 157,99 158,119
159,179 160,139 161,60 162,30
163,219 164,529 165,259 166,169
167,449 168,269 169,60 170,219
171,719 172,239 173,90 174,60
175,129 176,169 177,299 178,60
179,119 180,2809 181,789 182,109
183,649 184,209 185,20 186,10
187,20 188,70 189,189 190,269
191,249 192,179 193,719 194,90
195,70 196,50 197,80 198,10
200,10 202,149 203,129 204,50
205,80 206,149 207,30 208,10
209,149 210,479 211,50 215,40
216,30 217,929 218,229 219,70
220,80 221,10 222,129 223,20
224,20 225,20 233,20 234,20
235,70 236,329 237,599 238,80
239,10 247,10 250,99 251,20
252,9999 253,1719 254,209 255,20
##END=
