##TITLE=1,2-Propanediol, 3,3'-oxydi-, tetranitrate
##JCAMP-DX=4.24
##DATA TYPE=MASS SPECTRUM
##ORIGIN=MINISTRY OF TECH. E.R.D.E., WALTHAM ABBEY, UK
##OWNER=NIST Mass Spectrometry Data Center
Collection (C) 2014 copyright by the U.S. Secretary of Commerce
on behalf of the United States of America. All rights reserved.
##CAS REGISTRY NO=20600-96-8
##$NIST MASS SPEC NO=15837
##MOLFORM=C6 H10 N4 O13
##MW=346
##$NIST SOURCE=MSDC
##XUNITS=M/Z
##YUNITS=RELATIVE INTENSITY
##XFACTOR=1
##YFACTOR=1
##FIRSTX=12
##LASTX=123
##FIRSTY=40
##MAXX=123
##MINX=12
##MAXY=9999
##MINY=10
##NPOINTS=25
##PEAK TABLE=(XY..XY)
12,40 13,10 14,320 15,210
26,30 27,80 28,770 29,820
30,7830 31,270 41,70 42,100
43,290 44,620 45,280 46,9999
47,50 55,20 57,20 60,70
73,20 76,100 77,10 105,10
123,10
##END=
