##TITLE=Acetic acid, (2-propenylthio)-
##JCAMP-DX=4.24
##DATA TYPE=MASS SPECTRUM
##ORIGIN=Japan AIST/NIMC Database- Spectrum MS-NW-6799
##OWNER=NIST Mass Spectrometry Data Center
Collection (C) 2014 copyright by the U.S. Secretary of Commerce
on behalf of the United States of America. All rights reserved.
##CAS REGISTRY NO=20600-63-9
##$NIST MASS SPEC NO=234682
##MOLFORM=C5 H8 O2 S
##MW=132
##$NIST SOURCE=MSDC
##XUNITS=M/Z
##YUNITS=RELATIVE INTENSITY
##XFACTOR=1
##YFACTOR=1
##FIRSTX=12
##LASTX=135
##FIRSTY=10
##MAXX=135
##MINX=12
##MAXY=9999
##MINY=10
##NPOINTS=93
##PEAK TABLE=(XY..XY)
12,10 13,30 14,139 15,179
16,20 17,60 18,219 19,10
20,30 25,20 26,109 27,459
28,279 29,149 30,20 31,199
32,60 33,40 34,50 35,20
36,20 37,179 38,379 39,3019
40,379 41,6449 42,579 43,149
44,429 45,4329 46,1079 47,1489
48,90 49,70 50,10 51,20
52,10 53,429 54,50 55,50
56,10 57,229 58,129 59,279
60,769 61,109 62,10 63,70
64,20 67,10 68,30 69,129
70,30 71,509 72,779 73,9999
74,559 75,499 76,90 77,199
78,10 79,20 80,10 81,20
82,10 83,10 84,20 85,409
86,249 87,1549 88,109 89,90
90,80 91,40 92,30 97,20
98,10 99,50 100,20 101,10
103,30 104,10 105,20 111,10
113,10 114,99 115,20 130,10
131,20 132,4729 133,349 134,259
135,20
##END=
