##TITLE=Methyl-2,3,3,3-tetrachloropropanoate
##JCAMP-DX=4.24
##DATA TYPE=MASS SPECTRUM
##ORIGIN=ORMSBG, 17(10) 461(1982);I.O.O.KORHONEN
##OWNER=NIST Mass Spectrometry Data Center
Collection (C) 2014 copyright by the U.S. Secretary of Commerce
on behalf of the United States of America. All rights reserved.
##CAS REGISTRY NO=20618-10-4
##$NIST MASS SPEC NO=77389
##MOLFORM=C4 H4 Cl4 O2
##MW=224
##$NIST SOURCE=MSDC
##XUNITS=M/Z
##YUNITS=RELATIVE INTENSITY
##XFACTOR=1
##YFACTOR=1
##FIRSTX=59
##LASTX=224
##FIRSTY=9999
##MAXX=224
##MINX=59
##MAXY=9999
##MINY=30
##NPOINTS=18
##PEAK TABLE=(XY..XY)
59,9999 63,1400 95,900 113,100
117,1800 119,100 123,1200 129,300
130,4200 145,300 153,200 154,100
157,300 161,100 165,500 189,100
193,100 224,30
##END=
