##TITLE=Methyl 2,3,3-trichloropropanoate
##JCAMP-DX=4.24
##DATA TYPE=MASS SPECTRUM
##ORIGIN=ASES Database, Dalian Institute, P.R. China
##OWNER=NIST Mass Spectrometry Data Center
Collection (C) 2014 copyright by the U.S. Secretary of Commerce
on behalf of the United States of America. All rights reserved.
##CAS REGISTRY NO=20618-07-9
##$NIST MASS SPEC NO=143982
##MOLFORM=C4 H5 Cl3 O2
##MW=190
##$NIST SOURCE=MSDC
##XUNITS=M/Z
##YUNITS=RELATIVE INTENSITY
##XFACTOR=1
##YFACTOR=1
##FIRSTX=59
##LASTX=161
##FIRSTY=9999
##MAXX=161
##MINX=59
##MAXY=9999
##MINY=90
##NPOINTS=28
##PEAK TABLE=(XY..XY)
59,9999 60,1301 61,3082 62,400
63,1301 79,300 83,1090 85,890
89,1591 91,500 95,1911 96,8717
97,1191 98,5414 100,900 111,200
119,500 121,290 123,700 125,390
131,1101 133,1000 135,290 154,100
155,500 157,300 159,200 161,90
##END=
