##TITLE=1-(3-Chlorophenyl)-3-methyl-2-pyrazolin-5-one
##JCAMP-DX=4.24
##DATA TYPE=MASS SPECTRUM
##ORIGIN=NIST Mass Spectrometry Data Center
##OWNER=NIST Mass Spectrometry Data Center
Collection (C) 2014 copyright by the U.S. Secretary of Commerce
on behalf of the United States of America. All rights reserved.
##CAS REGISTRY NO=20629-90-7
##$NIST MASS SPEC NO=343240
##MOLFORM=C10 H9 Cl N2 O
##MW=208
##$NIST SOURCE=MSDC
##XUNITS=M/Z
##YUNITS=RELATIVE INTENSITY
##XFACTOR=1
##YFACTOR=1
##FIRSTX=14
##LASTX=211
##FIRSTY=190
##MAXX=211
##MINX=14
##MAXY=9999
##MINY=30
##NPOINTS=89
##PEAK TABLE=(XY..XY)
14,190 15,731 16,150 26,440
27,851 28,1011 29,130 35,120
37,581 38,1301 39,5105 40,1191
41,4604 42,2022 43,200 45,130
49,240 50,1932 51,1451 52,370
53,160 54,1041 55,210 60,80
61,530 62,961 63,3003 64,1061
65,270 67,170 68,150 69,1181
72,230 73,721 74,1081 75,4184
76,1151 77,701 78,140 82,150
84,210 85,480 86,330 87,300
88,320 89,891 90,3623 91,540
97,180 98,360 99,380 100,150
101,280 102,300 104,230 105,230
111,8638 112,1051 113,2712 114,330
115,70 116,30 117,150 125,8778
126,771 127,3163 128,410 129,150
131,350 139,4744 140,550 141,1601
145,1621 146,200 153,140 165,300
166,2312 167,300 168,671 169,90
179,390 180,651 181,270 182,240
188,40 208,9999 209,1672 210,3783
211,440
##END=
