##TITLE=4-Trifluoromethylcinnamic acid
##JCAMP-DX=4.24
##DATA TYPE=MASS SPECTRUM
##ORIGIN=NIST Mass Spectrometry Data Center, 1994
##OWNER=NIST Mass Spectrometry Data Center
Collection (C) 2014 copyright by the U.S. Secretary of Commerce
on behalf of the United States of America. All rights reserved.
##CAS REGISTRY NO=2062-26-2
##$NIST MASS SPEC NO=136330
##MOLFORM=C10 H7 F3 O2
##MW=216
##$NIST SOURCE=MSDC
##XUNITS=M/Z
##YUNITS=RELATIVE INTENSITY
##XFACTOR=1
##YFACTOR=1
##FIRSTX=18
##LASTX=217
##FIRSTY=96
##MAXX=217
##MINX=18
##MAXY=9999
##MINY=78
##NPOINTS=43
##PEAK TABLE=(XY..XY)
18,96 44,115 45,1119 50,1429
51,1326 62,282 63,743 69,1071
74,1142 75,2077 76,890 77,109
91,1600 95,716 98,120 99,300
100,78 101,916 102,1816 103,715
109,120 119,1044 120,747 125,608
127,172 145,863 146,90 147,3846
148,105 151,6961 152,744 159,1126
169,890 170,1902 171,3748 172,170
188,413 197,2133 198,948 199,2898
215,9999 216,9768 217,955
##END=
