##TITLE=1,2-Cyclopentanedione, 3,3,5,5-tetramethyl-
##JCAMP-DX=4.24
##DATA TYPE=MASS SPECTRUM
##OWNER=NIST Mass Spectrometry Data Center
Collection (C) 2014 copyright by the U.S. Secretary of Commerce
on behalf of the United States of America. All rights reserved.
##CAS REGISTRY NO=20633-06-1
##$NIST MASS SPEC NO=5144
##MOLFORM=C9 H14 O2
##MW=154
##$NIST SOURCE=MSDC
##XUNITS=M/Z
##YUNITS=RELATIVE INTENSITY
##XFACTOR=1
##YFACTOR=1
##FIRSTX=26
##LASTX=155
##FIRSTY=304
##MAXX=155
##MINX=26
##MAXY=9999
##MINY=93
##NPOINTS=27
##PEAK TABLE=(XY..XY)
26,304 27,1916 28,164 29,701
38,280 39,2103 40,467 41,3224
42,4579 43,280 53,397 54,140
55,1729 56,374 68,93 69,304
70,9999 71,654 72,187 82,164
83,1402 84,234 98,164 126,561
127,164 154,1448 155,187
##END=
