##TITLE=Nitric acid, hexyl ester
##JCAMP-DX=4.24
##DATA TYPE=MASS SPECTRUM
##ORIGIN=MINISTRY OF TECH. E.R.D.E., WALTHAM ABBEY, UK
##OWNER=NIST Mass Spectrometry Data Center
Collection (C) 2014 copyright by the U.S. Secretary of Commerce
on behalf of the United States of America. All rights reserved.
##CAS REGISTRY NO=20633-11-8
##$NIST MASS SPEC NO=4422
##MOLFORM=C6 H13 N O3
##MW=147
##$NIST SOURCE=MSDC
##XUNITS=M/Z
##YUNITS=RELATIVE INTENSITY
##XFACTOR=1
##YFACTOR=1
##FIRSTX=12
##LASTX=85
##FIRSTY=40
##MAXX=85
##MINX=12
##MAXY=9999
##MINY=10
##NPOINTS=44
##PEAK TABLE=(XY..XY)
12,40 13,60 14,50 15,280
26,190 27,1920 28,800 29,3080
30,720 31,510 39,980 40,180
41,2930 42,1140 43,9999 44,490
45,90 46,2430 47,10 52,40
53,80 54,110 55,720 56,890
57,1000 58,210 59,30 64,20
65,30 66,20 67,290 68,50
69,320 70,130 71,1010 72,40
73,20 76,2030 77,30 81,80
82,40 83,290 84,210 85,540
##END=
