##TITLE=Benzenebutanoic acid, 4-amino-, methyl ester
##JCAMP-DX=4.24
##DATA TYPE=MASS SPECTRUM
##OWNER=NIST Mass Spectrometry Data Center
Collection (C) 2014 copyright by the U.S. Secretary of Commerce
on behalf of the United States of America. All rights reserved.
##CAS REGISTRY NO=20637-09-6
##$NIST MASS SPEC NO=8409
##MOLFORM=C11 H15 N O2
##MW=193
##$NIST SOURCE=MSDC
##XUNITS=M/Z
##YUNITS=RELATIVE INTENSITY
##XFACTOR=1
##YFACTOR=1
##FIRSTX=74
##LASTX=195
##FIRSTY=40
##MAXX=195
##MINX=74
##MAXY=9999
##MINY=10
##NPOINTS=27
##PEAK TABLE=(XY..XY)
74,40 85,10 86,100 87,20
93,60 100,20 101,20 105,10
106,9999 107,1001 108,30 118,70
119,3213 120,540 121,30 131,20
132,180 133,180 134,160 135,10
144,20 162,1001 163,120 192,10
193,5795 194,841 195,50
##END=
