##TITLE=Di-N-propylethylamine
##JCAMP-DX=4.24
##DATA TYPE=MASS SPECTRUM
##ORIGIN=AIR PRODUCTS & CHEMICALS, INC BOX 538, ALLENTOWN, PA 18105, D M PAREES
##OWNER=NIST Mass Spectrometry Data Center
Collection (C) 2014 copyright by the U.S. Secretary of Commerce
on behalf of the United States of America. All rights reserved.
##CAS REGISTRY NO=20634-92-8
##$NIST MASS SPEC NO=79729
##MOLFORM=C8 H19 N
##MW=129
##$NIST SOURCE=MSDC
##XUNITS=M/Z
##YUNITS=RELATIVE INTENSITY
##XFACTOR=1
##YFACTOR=1
##FIRSTX=27
##LASTX=130
##FIRSTY=480
##MAXX=130
##MINX=27
##MAXY=9999
##MINY=20
##NPOINTS=37
##PEAK TABLE=(XY..XY)
27,480 29,320 30,780 39,190
40,30 41,710 42,600 43,760
44,770 54,70 55,50 56,320
57,110 58,2280 59,100 68,40
70,140 71,80 72,930 73,60
82,20 84,220 85,40 86,300
87,30 98,170 99,30 100,9999
101,770 102,30 112,20 114,520
115,50 127,30 128,180 129,1240
130,130
##END=
