##TITLE=Benzoic acid, 2,6-dimethoxy-, methyl ester
##JCAMP-DX=4.24
##DATA TYPE=MASS SPECTRUM
##ORIGIN=NIST Mass Spectrometry Data Center
##OWNER=NIST Mass Spectrometry Data Center
Collection (C) 2014 copyright by the U.S. Secretary of Commerce
on behalf of the United States of America. All rights reserved.
##CAS REGISTRY NO=2065-27-2
##$NIST MASS SPEC NO=352804
##MOLFORM=C10 H12 O4
##MW=196
##$NIST SOURCE=MSDC
##XUNITS=M/Z
##YUNITS=RELATIVE INTENSITY
##XFACTOR=1
##YFACTOR=1
##FIRSTX=14
##LASTX=198
##FIRSTY=10
##MAXX=198
##MINX=14
##MAXY=9999
##MINY=10
##NPOINTS=105
##PEAK TABLE=(XY..XY)
14,10 15,180 26,10 27,40
28,50 29,130 30,40 31,30
37,70 38,90 39,300 40,30
41,40 42,10 43,30 44,10
45,230 46,10 49,30 50,310
51,601 52,140 53,310 54,30
55,160 56,10 59,110 60,10
61,80 62,210 63,450 64,340
65,260 66,120 67,30 68,20
69,50 73,10 74,90 75,120
76,360 77,881 78,260 79,530
80,70 81,40 82,80 84,10
89,10 90,100 91,210 92,530
93,120 94,170 95,120 96,10
98,10 103,10 104,90 105,200
106,90 107,2823 108,280 109,150
110,60 118,320 119,360 120,100
121,230 122,1001 123,110 124,20
125,70 126,10 132,10 133,150
134,50 135,1041 136,711 137,170
138,100 139,10 145,30 146,20
147,20 148,20 149,110 150,2432
151,330 152,40 153,130 154,10
163,390 164,661 165,9999 166,981
167,100 168,10 179,80 180,20
181,90 182,10 196,2332 197,250
198,30
##END=
