##TITLE=Acetic acid, phenoxy-, methyl ester
##JCAMP-DX=4.24
##DATA TYPE=MASS SPECTRUM
##ORIGIN=Japan AIST/NIMC Database- Spectrum MS-IW-8016
##OWNER=NIST Mass Spectrometry Data Center
Collection (C) 2014 copyright by the U.S. Secretary of Commerce
on behalf of the United States of America. All rights reserved.
##CAS REGISTRY NO=2065-23-8
##$NIST MASS SPEC NO=229492
##MOLFORM=C9 H10 O3
##MW=166
##$NIST SOURCE=MSDC
##XUNITS=M/Z
##YUNITS=RELATIVE INTENSITY
##XFACTOR=1
##YFACTOR=1
##FIRSTX=14
##LASTX=168
##FIRSTY=20
##MAXX=168
##MINX=14
##MAXY=9999
##MINY=10
##NPOINTS=63
##PEAK TABLE=(XY..XY)
14,20 15,199 26,10 27,80
28,20 29,149 30,20 31,90
32,10 37,30 38,129 39,569
40,30 41,10 42,159 43,40
44,10 45,719 46,10 49,10
50,359 51,1349 52,99 53,70
54,10 55,20 57,10 59,239
60,10 61,20 62,60 63,219
64,129 65,709 66,99 73,80
74,109 75,90 76,149 77,7089
78,609 79,2329 80,149 91,139
92,80 93,109 94,269 95,30
105,99 106,30 107,9999 108,929
109,60 121,20 133,30 134,50
135,40 136,10 137,10 165,10
166,7859 167,789 168,80
##END=
