##TITLE=Oxazole, 4,5-dimethyl-
##JCAMP-DX=4.24
##DATA TYPE=MASS SPECTRUM
##OWNER=NIST Mass Spectrometry Data Center
Collection (C) 2014 copyright by the U.S. Secretary of Commerce
on behalf of the United States of America. All rights reserved.
##CAS REGISTRY NO=20662-83-3
##$NIST MASS SPEC NO=903
##MOLFORM=C5 H7 N O
##MW=97
##$NIST SOURCE=MSDC
##XUNITS=M/Z
##YUNITS=RELATIVE INTENSITY
##XFACTOR=1
##YFACTOR=1
##FIRSTX=15
##LASTX=98
##FIRSTY=1071
##MAXX=98
##MINX=15
##MAXY=9999
##MINY=110
##NPOINTS=30
##PEAK TABLE=(XY..XY)
15,1071 26,1181 27,2462 28,2522
29,601 37,240 38,240 39,861
40,581 41,2142 42,2612 43,8297
44,1371 45,320 46,180 50,180
51,320 52,651 53,500 54,3984
55,6886 56,430 68,861 69,1011
70,1071 82,1031 95,110 96,1201
97,9999 98,651
##END=
