##TITLE=Ethyl 3-isothiocyanatobutyrate
##JCAMP-DX=4.24
##DATA TYPE=MASS SPECTRUM
##ORIGIN=NIST Mass Spectrometry Data Center, 1994
##OWNER=NIST Mass Spectrometry Data Center
Collection (C) 2014 copyright by the U.S. Secretary of Commerce
on behalf of the United States of America. All rights reserved.
##CAS REGISTRY NO=206750-29-0
##$NIST MASS SPEC NO=134748
##MOLFORM=C7 H11 N O2 S
##MW=173
##$NIST SOURCE=MSDC
##XUNITS=M/Z
##YUNITS=RELATIVE INTENSITY
##XFACTOR=1
##YFACTOR=1
##FIRSTX=4
##LASTX=175
##FIRSTY=47
##MAXX=175
##MINX=4
##MAXY=9999
##MINY=37
##NPOINTS=69
##PEAK TABLE=(XY..XY)
4,47 14,181 15,650 26,553
27,3669 28,1472 29,9269 30,387
31,361 32,347 34,45 37,74
38,295 39,2687 40,825 41,4838
42,3311 43,4619 44,404 45,3438
46,104 47,54 51,70 52,157
53,95 54,155 55,301 56,93
57,307 58,1104 59,3383 60,2146
61,230 62,95 67,47 68,184
69,1140 70,253 71,171 72,1110
73,2477 74,184 83,61 84,315
86,9999 87,1649 88,600 89,37
96,165 98,995 99,7087 100,825
101,767 102,261 103,39 112,57
113,55 115,132 116,121 126,1037
128,2277 129,752 130,183 131,41
144,179 145,79 173,5347 174,491
175,316
##END=
