##TITLE=3-Methylhexyl isothiocyanate
##JCAMP-DX=4.24
##DATA TYPE=MASS SPECTRUM
##ORIGIN=NIST Mass Spectrometry Data Center, 1994
##OWNER=NIST Mass Spectrometry Data Center
Collection (C) 2014 copyright by the U.S. Secretary of Commerce
on behalf of the United States of America. All rights reserved.
##CAS REGISTRY NO=206761-72-0
##$NIST MASS SPEC NO=134616
##MOLFORM=C8 H15 N S
##MW=157
##$NIST SOURCE=MSDC
##XUNITS=M/Z
##YUNITS=RELATIVE INTENSITY
##XFACTOR=1
##YFACTOR=1
##FIRSTX=14
##LASTX=158
##FIRSTY=85
##MAXX=158
##MINX=14
##MAXY=9999
##MINY=41
##NPOINTS=92
##PEAK TABLE=(XY..XY)
14,85 15,302 26,433 27,5220
28,1618 29,4424 30,657 31,85
32,307 36,56 37,55 39,3821
40,843 41,9095 42,1605 43,9999
44,657 45,930 46,123 47,71
50,158 51,344 52,173 53,814
54,459 55,5630 56,2005 57,4111
58,547 59,732 60,757 61,85
62,95 63,60 64,41 65,122
66,58 67,286 68,367 69,1809
70,1516 71,855 72,6660 73,738
74,662 75,306 76,61 77,79
78,60 79,113 80,78 81,483
82,653 83,553 84,227 85,311
86,488 87,256 88,176 89,42
94,74 95,146 96,311 97,266
98,148 99,179 100,1107 101,344
102,102 107,131 108,79 109,86
110,72 111,52 112,47 113,47
114,5377 115,2163 116,359 117,93
124,1746 125,203 128,592 129,5107
130,441 131,225 142,558 143,57
144,43 156,473 157,440 158,87
##END=
