##TITLE=(2-Methoxy-5-phenyl)phenylisothiocyanate
##JCAMP-DX=4.24
##DATA TYPE=MASS SPECTRUM
##ORIGIN=NIST Mass Spectrometry Data Center, 1994
##OWNER=NIST Mass Spectrometry Data Center
Collection (C) 2014 copyright by the U.S. Secretary of Commerce
on behalf of the United States of America. All rights reserved.
##CAS REGISTRY NO=206761-68-4
##$NIST MASS SPEC NO=135004
##MOLFORM=C14 H11 N O S
##MW=241
##$NIST SOURCE=MSDC
##XUNITS=M/Z
##YUNITS=RELATIVE INTENSITY
##XFACTOR=1
##YFACTOR=1
##FIRSTX=14
##LASTX=244
##FIRSTY=41
##MAXX=244
##MINX=14
##MAXY=9999
##MINY=17
##NPOINTS=131
##PEAK TABLE=(XY..XY)
14,41 15,780 16,22 18,46
26,56 27,125 28,17 29,55
32,44 37,42 38,99 39,426
40,29 44,136 45,246 46,32
47,41 50,394 51,545 52,148
53,78 56,23 57,42 58,37
59,53 61,96 62,362 63,760
64,200 65,170 66,23 69,309
70,389 72,80 73,50 74,332
75,389 76,395 77,408 78,73
79,36 82,36 83,64 84,100
85,174 86,236 87,335 88,285
89,383 90,71 91,116 92,33
93,48 94,33 95,59 96,281
97,41 98,172 99,148 100,122
101,142 102,267 103,62 104,38
105,22 106,19 110,37 111,71
112,62 113,366 114,376 115,1146
116,123 119,21 121,576 124,27
125,83 126,278 127,658 128,310
129,39 137,94 139,2107 140,1222
141,142 145,44 146,43 149,21
150,91 151,202 152,402 153,275
154,225 155,38 158,44 164,157
165,85 166,314 167,138 168,178
169,62 170,75 171,427 172,296
173,55 177,43 180,41 181,26
182,74 183,40 194,149 195,181
196,275 197,26 198,5915 199,840
200,340 201,32 208,619 209,209
210,46 212,28 224,27 226,6825
227,1072 228,407 229,50 241,9999
242,1614 243,588 244,82
##END=
