##TITLE=Propane, 1-(1-ethoxyethoxy)-
##JCAMP-DX=4.24
##DATA TYPE=MASS SPECTRUM
##ORIGIN=J.Little, Eastman Chem. Comp.,Kingsport
##OWNER=NIST Mass Spectrometry Data Center
Collection (C) 2014 copyright by the U.S. Secretary of Commerce
on behalf of the United States of America. All rights reserved.
##CAS REGISTRY NO=20680-10-8
##$NIST MASS SPEC NO=279768
##MOLFORM=C7 H16 O2
##MW=132
##$NIST SOURCE=MSDC
##XUNITS=M/Z
##YUNITS=RELATIVE INTENSITY
##XFACTOR=1
##YFACTOR=1
##FIRSTX=15
##LASTX=118
##FIRSTY=190
##MAXX=118
##MINX=15
##MAXY=9999
##MINY=30
##NPOINTS=24
##PEAK TABLE=(XY..XY)
15,190 27,1141 28,981 29,1141
31,460 39,260 41,801 43,3103
44,340 45,9999 47,1141 58,140
59,50 61,260 72,30 73,6085
74,230 75,1121 87,1792 88,70
89,70 103,70 117,1521 118,70
##END=
