##TITLE=11-Tetradecen-1-ol, acetate, (Z)-
##JCAMP-DX=4.24
##DATA TYPE=MASS SPECTRUM
##ORIGIN=NIST Mass Spectrometry Data Center, 2011
##OWNER=NIST Mass Spectrometry Data Center
Collection (C) 2014 copyright by the U.S. Secretary of Commerce
on behalf of the United States of America. All rights reserved.
##CAS REGISTRY NO=20711-10-8
##$NIST MASS SPEC NO=385714
##MOLFORM=C16 H30 O2
##MW=254
##$NIST SOURCE=MSDC
##XUNITS=M/Z
##YUNITS=RELATIVE INTENSITY
##XFACTOR=1
##YFACTOR=1
##FIRSTX=14
##LASTX=211
##FIRSTY=10
##MAXX=211
##MINX=14
##MAXY=9999
##MINY=10
##NPOINTS=108
##PEAK TABLE=(XY..XY)
14,10 15,70 26,20 27,350
28,120 29,741 30,20 31,50
38,20 39,791 40,180 41,5185
42,1031 43,6786 44,200 45,50
50,20 51,70 52,50 53,701
54,2412 55,6616 56,1111 57,701
58,70 59,20 60,20 61,1361
62,30 63,20 65,200 66,420
67,6396 68,8648 69,4594 70,701
71,300 72,40 73,340 74,10
77,160 78,40 79,581 80,370
81,5895 82,9999 83,2582 84,280
85,100 86,50 87,30 88,10
91,80 92,10 93,180 94,220
95,4564 96,5725 97,1251 98,160
99,30 100,40 101,20 105,10
107,60 108,90 109,2182 110,2142
111,440 112,110 113,20 114,20
115,10 116,20 121,40 122,90
123,1111 124,1151 125,180 126,40
127,10 128,20 129,10 135,20
136,50 137,631 138,721 139,90
140,10 141,10 142,20 143,10
149,10 150,10 151,220 152,250
153,40 154,10 156,10 165,120
166,240 167,40 168,10 179,10
194,1161 195,170 196,10 211,10
##END=
