##TITLE=1,2,4,5-Tetrazine, hexahydro-1,2,4,5-tetramethyl-
##JCAMP-DX=4.24
##DATA TYPE=MASS SPECTRUM
##ORIGIN=D.HENNEBERG, MAX-PLANCK INSTITUTE, MULHEIM, WEST GERMANY
##OWNER=NIST Mass Spectrometry Data Center
Collection (C) 2014 copyright by the U.S. Secretary of Commerce
on behalf of the United States of America. All rights reserved.
##CAS REGISTRY NO=20717-38-8
##$NIST MASS SPEC NO=63382
##MOLFORM=C6 H16 N4
##MW=144
##$NIST SOURCE=MSDC
##XUNITS=M/Z
##YUNITS=RELATIVE INTENSITY
##XFACTOR=1
##YFACTOR=1
##FIRSTX=23
##LASTX=146
##FIRSTY=7
##MAXX=146
##MINX=23
##MAXY=9999
##MINY=4
##NPOINTS=58
##PEAK TABLE=(XY..XY)
23,7 24,9 25,29 26,206
27,1377 28,2625 29,450 30,2002
31,120 32,43 33,5 34,13
35,15 36,10 37,12 38,71
39,147 40,404 41,702 42,8256
43,9999 44,9282 45,1002 46,133
47,4 52,4 53,16 54,18
55,102 56,115 57,1757 58,1506
59,1007 60,486 61,14 68,5
69,23 70,96 71,2414 72,1908
73,701 74,30 83,13 84,24
85,46 86,162 87,23 98,26
100,4 101,22 102,200 103,4
128,5 142,5 143,10 144,1421
145,108 146,4
##END=
