##TITLE=2-Octyn-1-ol
##JCAMP-DX=4.24
##DATA TYPE=MASS SPECTRUM
##ORIGIN=NIST Mass Spectrometry Data Center, 1990.
##OWNER=NIST Mass Spectrometry Data Center
Collection (C) 2014 copyright by the U.S. Secretary of Commerce
on behalf of the United States of America. All rights reserved.
##CAS REGISTRY NO=20739-58-6
##$NIST MASS SPEC NO=113247
##MOLFORM=C8 H14 O
##MW=126
##$NIST SOURCE=MSDC
##XUNITS=M/Z
##YUNITS=RELATIVE INTENSITY
##XFACTOR=1
##YFACTOR=1
##FIRSTX=14
##LASTX=111
##FIRSTY=26
##MAXX=111
##MINX=14
##MAXY=9999
##MINY=26
##NPOINTS=53
##PEAK TABLE=(XY..XY)
14,26 15,324 18,144 26,712
27,5258 28,1745 29,7009 30,285
31,1208 32,123 37,252 38,992
39,7645 40,2151 41,9999 42,3351
43,2667 44,389 50,879 51,1744
52,2360 53,2689 54,1217 55,8754
56,1652 57,1688 58,198 59,172
62,223 63,441 65,1042 66,899
67,5581 68,1502 69,3351 70,4873
71,595 77,1411 78,327 79,2733
80,689 81,1265 82,997 83,3378
84,570 91,914 93,3306 94,448
95,3351 96,322 97,808 107,163
111,548
##END=
