##TITLE=1H-Pyrazole, 4-bromo-
##JCAMP-DX=4.24
##DATA TYPE=MASS SPECTRUM
##ORIGIN=J. VAN THUIJL
##OWNER=NIST Mass Spectrometry Data Center
Collection (C) 2014 copyright by the U.S. Secretary of Commerce
on behalf of the United States of America. All rights reserved.
##CAS REGISTRY NO=2075-45-8
##$NIST MASS SPEC NO=39514
##MOLFORM=C3 H3 Br N2
##MW=146
##$NIST SOURCE=MSDC
##XUNITS=M/Z
##YUNITS=RELATIVE INTENSITY
##XFACTOR=1
##YFACTOR=1
##FIRSTX=26
##LASTX=149
##FIRSTY=180
##MAXX=149
##MINX=26
##MAXY=9999
##MINY=30
##NPOINTS=49
##PEAK TABLE=(XY..XY)
26,180 27,500 28,4090 29,360
36,250 37,1270 38,2680 39,1500
40,6360 41,430 42,160 50,100
51,290 52,160 53,40 54,30
55,30 64,80 65,130 66,450
67,1410 68,90 73,110 74,110
79,430 80,200 81,430 82,200
91,680 92,2050 93,700 94,1980
95,110 96,80 103,30 104,100
105,60 106,110 117,200 118,360
119,2230 120,450 121,1980 122,60
145,70 146,9999 147,500 148,9770
149,430
##END=
