##TITLE=Benzene, 1-chloro-2-(1-methylethyl)-
##JCAMP-DX=4.24
##DATA TYPE=MASS SPECTRUM
##OWNER=NIST Mass Spectrometry Data Center
Collection (C) 2014 copyright by the U.S. Secretary of Commerce
on behalf of the United States of America. All rights reserved.
##CAS REGISTRY NO=2077-13-6
##$NIST MASS SPEC NO=5157
##MOLFORM=C9 H11 Cl
##MW=154
##$NIST SOURCE=MSDC
##XUNITS=M/Z
##YUNITS=RELATIVE INTENSITY
##XFACTOR=1
##YFACTOR=1
##FIRSTX=15
##LASTX=158
##FIRSTY=30
##MAXX=158
##MINX=15
##MAXY=9999
##MINY=10
##NPOINTS=112
##PEAK TABLE=(XY..XY)
15,30 17,10 18,20 26,10
27,180 28,60 29,10 32,10
37,20 38,60 39,350 40,30
41,240 42,20 43,70 44,20
45,10 47,10 49,30 50,300
51,1111 52,150 53,60 54,10
55,10 56,10 57,80 58,150
59,20 60,10 61,40 62,90
63,240 64,30 65,120 66,10
67,10 68,40 69,100 70,40
71,10 72,10 73,80 74,160
75,400 76,270 77,1702 78,230
79,60 80,10 84,20 85,40
86,40 87,50 88,20 89,150
90,30 91,410 92,30 93,10
94,10 96,10 97,20 98,20
99,60 100,20 101,230 102,350
103,4404 104,520 105,30 106,10
107,10 108,10 109,10 110,10
111,30 112,80 113,60 114,40
115,280 116,70 117,90 118,20
119,561 120,60 121,10 122,10
123,10 124,10 125,270 126,20
127,90 128,10 129,10 136,20
137,40 138,10 139,9999 140,911
141,3233 142,290 143,10 149,10
151,10 152,10 153,10 154,2973
155,340 156,971 157,110 158,10
##END=
