##TITLE=4-Hydroxybenzoic acid, 2TMS derivative
##JCAMP-DX=4.24
##DATA TYPE=MASS SPECTRUM
##ORIGIN=NIST Mass Spectrometry Data Center
##OWNER=NIST Mass Spectrometry Data Center
Collection (C) 2014 copyright by the U.S. Secretary of Commerce
on behalf of the United States of America. All rights reserved.
##CAS REGISTRY NO=2078-13-9
##$NIST MASS SPEC NO=352451
##MOLFORM=C13 H22 O3 Si2
##MW=282
##$NIST SOURCE=MSDC
##XUNITS=M/Z
##YUNITS=RELATIVE INTENSITY
##XFACTOR=1
##YFACTOR=1
##FIRSTX=15
##LASTX=286
##FIRSTY=10
##MAXX=286
##MINX=15
##MAXY=9999
##MINY=10
##NPOINTS=178
##PEAK TABLE=(XY..XY)
15,10 27,10 29,60 31,30
38,20 39,60 41,10 42,30
43,470 44,240 45,1842 46,130
47,230 48,10 49,10 50,180
51,90 52,60 53,100 54,20
55,120 56,20 57,120 58,130
59,450 60,110 61,210 62,40
63,210 64,210 65,180 66,100
67,100 68,30 69,90 70,50
71,90 72,180 73,9729 74,931
75,1121 76,470 77,340 78,90
79,160 80,20 81,90 82,70
83,170 84,60 85,190 86,20
87,40 88,30 89,611 90,240
91,971 92,450 93,220 94,30
95,190 96,110 97,80 98,40
99,50 100,10 101,20 102,20
103,370 104,380 105,410 106,70
107,150 108,20 109,120 110,20
111,220 112,20 113,10 115,100
116,20 117,120 118,220 119,330
120,220 121,380 122,220 123,120
124,20 126,1982 128,10 129,10
130,10 131,170 132,40 133,571
134,140 135,991 136,150 137,110
138,10 139,10 141,10 143,20
144,10 145,50 146,20 147,591
148,170 149,811 150,240 151,711
152,90 153,40 155,10 157,20
159,10 161,30 162,20 163,160
164,50 165,120 166,90 167,30
168,10 175,10 176,10 177,150
178,50 179,631 180,100 181,120
182,20 183,10 189,10 190,10
191,210 192,100 193,7227 194,1281
195,490 196,60 197,10 205,10
206,10 207,581 208,120 209,120
210,20 211,10 219,10 220,10
221,90 223,8748 224,1932 225,791
226,110 227,20 237,100 238,20
239,10 251,30 252,10 253,10
263,10 264,10 265,30 267,9999
268,2372 269,971 270,140 271,30
281,270 282,2452 283,601 284,260
285,40 286,10
##END=
