##TITLE=Phthalic acid, 2TMS derivative
##JCAMP-DX=4.24
##DATA TYPE=MASS SPECTRUM
##ORIGIN=O A MAMER, MCGILL UNIVERSITY, MONTREAL, CANADA
##OWNER=NIST Mass Spectrometry Data Center
Collection (C) 2014 copyright by the U.S. Secretary of Commerce
on behalf of the United States of America. All rights reserved.
##CAS REGISTRY NO=2078-22-0
##$NIST MASS SPEC NO=78990
##MOLFORM=C14 H22 O4 Si2
##MW=310
##$NIST SOURCE=MSDC
##XUNITS=M/Z
##YUNITS=RELATIVE INTENSITY
##XFACTOR=1
##YFACTOR=1
##FIRSTX=15
##LASTX=310
##FIRSTY=127
##MAXX=310
##MINX=15
##MAXY=9999
##MINY=94
##NPOINTS=44
##PEAK TABLE=(XY..XY)
15,127 18,341 28,302 29,111
43,381 44,372 45,1700 46,128
47,186 50,199 57,108 59,254
72,263 73,6254 74,606 75,677
76,604 77,358 89,170 91,266
103,180 104,223 105,438 119,420
126,142 131,208 133,361 135,308
140,757 141,653 147,9999 148,1634
149,878 150,110 163,372 193,189
220,390 221,632 222,135 265,94
295,1612 296,419 297,184 310,199
##END=
