##TITLE=Veratric acid, TMS derivative
##JCAMP-DX=4.24
##DATA TYPE=MASS SPECTRUM
##ORIGIN=NIST Mass Spectrometry Data Center, 2009
##OWNER=NIST Mass Spectrometry Data Center
Collection (C) 2014 copyright by the U.S. Secretary of Commerce
on behalf of the United States of America. All rights reserved.
##CAS REGISTRY NO=2078-16-2
##$NIST MASS SPEC NO=373190
##MOLFORM=C12 H18 O4 Si
##MW=254
##$NIST SOURCE=MSDC
##XUNITS=M/Z
##YUNITS=RELATIVE INTENSITY
##XFACTOR=1
##YFACTOR=1
##FIRSTX=15
##LASTX=257
##FIRSTY=160
##MAXX=257
##MINX=15
##MAXY=9999
##MINY=10
##NPOINTS=143
##PEAK TABLE=(XY..XY)
15,160 26,10 27,20 28,20
29,90 30,20 31,60 37,10
38,20 39,80 40,10 41,60
42,30 43,230 44,90 45,581
46,40 47,130 48,10 49,10
50,210 51,621 52,70 53,230
54,30 55,90 56,10 57,40
58,70 59,250 60,40 61,90
62,110 63,300 64,160 65,180
66,290 67,50 68,30 69,90
70,20 71,20 72,70 73,1141
74,190 75,651 76,490 77,1191
78,210 79,1591 80,110 81,40
83,170 84,20 85,30 87,10
89,230 90,60 91,240 92,691
93,210 94,470 95,90 96,30
97,40 98,90 99,40 101,10
103,130 104,280 105,220 106,90
107,851 108,90 109,200 110,30
111,130 112,320 117,10 119,981
121,651 122,781 123,110 124,20
125,20 131,10 133,100 134,80
135,250 136,90 137,1121 138,120
139,30 145,10 147,50 148,50
149,460 150,150 151,220 152,60
153,80 154,10 161,20 162,10
163,140 165,9999 166,1001 167,150
168,10 176,10 177,20 178,190
179,230 180,130 181,430 182,70
183,40 184,10 191,10 192,10
193,80 195,9449 196,1521 197,460
198,40 206,10 207,30 208,10
209,30 210,10 211,10 223,150
224,50 225,20 237,30 239,6316
240,1081 241,350 242,40 254,4274
255,791 256,240 257,30
##END=
