##TITLE=Propofol
##JCAMP-DX=4.24
##DATA TYPE=MASS SPECTRUM
##ORIGIN=Japan AIST/NIMC Database- Spectrum MS-NW-5163
##OWNER=NIST Mass Spectrometry Data Center
Collection (C) 2014 copyright by the U.S. Secretary of Commerce
on behalf of the United States of America. All rights reserved.
##CAS REGISTRY NO=2078-54-8
##$NIST MASS SPEC NO=227977
##MOLFORM=C12 H18 O
##MW=178
##$NIST SOURCE=MSDC
##XUNITS=M/Z
##YUNITS=RELATIVE INTENSITY
##XFACTOR=1
##YFACTOR=1
##FIRSTX=15
##LASTX=180
##FIRSTY=50
##MAXX=180
##MINX=15
##MAXY=9999
##MINY=10
##NPOINTS=106
##PEAK TABLE=(XY..XY)
15,50 17,10 18,30 26,10
27,339 28,30 29,80 38,30
39,419 40,60 41,709 42,30
43,679 44,20 45,10 50,70
51,279 52,99 53,179 54,10
55,70 57,50 58,90 59,90
60,30 62,40 63,169 64,90
65,289 66,70 67,129 68,10
69,20 70,10 71,10 72,20
73,129 74,449 75,50 76,40
77,569 78,129 79,209 80,20
81,50 83,10 87,20 89,80
90,30 91,1039 92,99 93,119
94,50 95,70 96,10 101,20
102,80 103,409 104,90 105,379
106,40 107,559 108,50 109,10
115,449 116,129 117,1649 118,169
119,139 120,50 121,1499 122,139
123,30 126,10 127,109 128,329
129,209 130,229 131,109 132,30
133,189 134,60 135,609 136,259
137,30 141,40 142,20 143,50
144,20 145,109 146,30 147,339
148,80 149,129 150,10 159,20
161,129 162,50 163,9999 164,1209
165,90 176,20 177,50 178,2939
179,399 180,30
##END=
