##TITLE=Vanillic Acid, 2TMS derivative
##JCAMP-DX=4.24
##DATA TYPE=MASS SPECTRUM
##ORIGIN=S. MARKEY UNIV. OF COLO. MED. CTR., DENVER, COLORADO, USA
##OWNER=NIST Mass Spectrometry Data Center
Collection (C) 2014 copyright by the U.S. Secretary of Commerce
on behalf of the United States of America. All rights reserved.
##CAS REGISTRY NO=2078-15-1
##$NIST MASS SPEC NO=14789
##MOLFORM=C14 H24 O4 Si2
##MW=312
##$NIST SOURCE=MSDC
##XUNITS=M/Z
##YUNITS=RELATIVE INTENSITY
##XFACTOR=1
##YFACTOR=1
##FIRSTX=39
##LASTX=315
##FIRSTY=50
##MAXX=315
##MINX=39
##MAXY=9999
##MINY=20
##NPOINTS=106
##PEAK TABLE=(XY..XY)
39,50 43,730 44,470 45,2780
46,140 47,230 51,220 53,90
55,100 57,80 58,270 59,1750
60,110 61,200 63,260 65,50
69,130 71,90 72,220 73,9999
74,780 75,1190 76,250 77,360
78,40 79,360 83,520 85,90
89,920 90,180 91,530 92,170
93,130 95,80 98,260 99,40
103,40 104,140 105,200 106,30
107,280 109,200 111,20 117,20
119,440 120,230 121,530 122,210
123,110 126,1250 127,50 133,650
134,120 135,560 136,100 137,990
138,110 141,280 147,160 148,120
149,640 150,250 151,220 163,270
164,160 165,900 166,170 167,50
178,220 179,380 180,280 181,100
191,60 193,1770 194,330 195,180
207,270 209,70 211,20 215,70
216,480 221,60 223,2900 224,590
225,200 237,140 239,80 253,2940
254,820 255,220 256,20 267,4830
268,20 269,40 280,100 282,3510
283,20 284,50 297,4150 298,970
299,410 300,20 312,3220 313,840
314,320 315,20
##END=
