##TITLE=2,6-Dimethoxybenzylamine
##JCAMP-DX=4.24
##DATA TYPE=MASS SPECTRUM
##ORIGIN=NIST Mass Spectrometry Data Center
##OWNER=NIST Mass Spectrometry Data Center
Collection (C) 2014 copyright by the U.S. Secretary of Commerce
on behalf of the United States of America. All rights reserved.
##CAS REGISTRY NO=20781-22-0
##$NIST MASS SPEC NO=342731
##MOLFORM=C9 H13 N O2
##MW=167
##$NIST SOURCE=MSDC
##XUNITS=M/Z
##YUNITS=RELATIVE INTENSITY
##XFACTOR=1
##YFACTOR=1
##FIRSTX=12
##LASTX=169
##FIRSTY=40
##MAXX=169
##MINX=12
##MAXY=9999
##MINY=20
##NPOINTS=109
##PEAK TABLE=(XY..XY)
12,40 14,561 15,6496 16,210
17,230 18,330 25,20 26,220
27,671 28,5075 29,1371 30,6186
31,170 32,350 33,160 37,310
38,961 39,3383 40,591 41,1071
42,520 43,390 44,210 46,280
50,1411 51,2302 52,1321 53,1541
54,731 55,410 56,40 57,30
58,20 60,350 61,300 62,701
63,1852 64,1391 65,3233 66,1351
67,641 68,320 69,280 70,260
71,20 73,70 74,290 75,470
76,811 77,2752 78,2772 79,1641
80,1361 81,611 82,180 83,210
85,30 86,40 87,40 88,50
89,280 90,761 91,3883 92,1682
93,1872 94,1041 95,601 96,180
97,60 102,100 103,270 104,1361
105,1261 106,2122 107,2793 108,1201
109,2362 110,550 111,60 116,180
117,190 118,520 119,1061 120,701
121,1591 122,400 123,510 124,631
125,530 126,50 132,100 134,4264
135,2192 136,7257 137,2562 138,1962
139,751 140,70 149,861 150,3753
151,4064 152,1882 153,180 163,30
164,110 166,9999 167,6496 168,731
169,80
##END=
