##TITLE=Cholest-14-en-3-ol, (3.beta.,5.alpha.)-
##JCAMP-DX=4.24
##DATA TYPE=MASS SPECTRUM
##ORIGIN=T.IIDA NIHON UNIVERSITY, KORIYAMA, FUKUSHIMA-KEN, JAPAN
##OWNER=NIST Mass Spectrometry Data Center
Collection (C) 2014 copyright by the U.S. Secretary of Commerce
on behalf of the United States of America. All rights reserved.
##CAS REGISTRY NO=20780-35-2
##$NIST MASS SPEC NO=67289
##MOLFORM=C27 H46 O
##MW=386
##$NIST SOURCE=MSDC
##XUNITS=M/Z
##YUNITS=RELATIVE INTENSITY
##XFACTOR=1
##YFACTOR=1
##FIRSTX=18
##LASTX=387
##FIRSTY=100
##MAXX=387
##MINX=18
##MAXY=9999
##MINY=100
##NPOINTS=166
##PEAK TABLE=(XY..XY)
18,100 27,300 28,200 29,900
39,300 41,2300 42,200 43,3600
44,200 45,100 53,300 54,100
55,2600 56,300 57,2100 58,100
65,200 66,100 67,1500 68,200
69,1400 70,200 71,800 77,800
78,200 79,1900 80,300 81,2600
82,300 83,800 84,100 85,100
91,2300 92,500 93,3800 94,4300
95,2300 96,600 97,500 103,100
104,100 105,2600 106,500 107,4200
108,700 109,1000 110,100 111,200
115,200 116,100 117,600 118,200
119,1600 120,400 121,1700 122,300
123,600 124,100 125,100 127,100
128,200 129,300 130,200 131,900
132,200 133,1600 134,400 135,1400
136,200 137,300 138,100 141,100
142,100 143,300 144,100 145,1300
146,400 147,2600 148,400 149,1300
150,200 151,200 152,100 153,100
155,100 156,100 157,200 158,100
159,1400 160,300 161,4500 162,600
163,600 164,100 165,200 166,100
167,100 169,100 171,200 172,100
173,700 174,100 175,400 176,100
177,200 178,100 179,200 181,100
182,100 183,100 185,300 186,100
187,400 188,100 189,200 191,200
193,100 195,200 197,300 199,500
200,100 201,300 202,100 203,100
205,200 206,400 207,100 209,100
213,400 214,100 215,300 216,100
217,100 218,300 219,200 227,200
229,200 231,200 233,100 239,100
241,200 245,100 247,100 253,200
255,4900 256,1100 257,100 258,400
259,100 269,100 271,300 272,400
273,9999 274,3200 275,500 298,100
300,100 301,200 328,100 353,200
354,100 371,600 372,200 385,100
386,300 387,100
##END=
