##TITLE=2-Fluoro-3-(trifluoromethyl)benzamide
##JCAMP-DX=4.24
##DATA TYPE=MASS SPECTRUM
##ORIGIN=NIST Mass Spectrometry Data Center, 1994
##OWNER=NIST Mass Spectrometry Data Center
Collection (C) 2014 copyright by the U.S. Secretary of Commerce
on behalf of the United States of America. All rights reserved.
##CAS REGISTRY NO=207853-60-9
##$NIST MASS SPEC NO=136809
##MOLFORM=C8 H5 F4 N O
##MW=207
##$NIST SOURCE=MSDC
##XUNITS=M/Z
##YUNITS=RELATIVE INTENSITY
##XFACTOR=1
##YFACTOR=1
##FIRSTX=16
##LASTX=209
##FIRSTY=431
##MAXX=209
##MINX=16
##MAXY=9999
##MINY=16
##NPOINTS=120
##PEAK TABLE=(XY..XY)
16,431 17,42 18,52 19,26
20,50 26,50 27,73 28,73
29,65 30,26 31,595 33,25
37,196 38,220 39,147 40,24
44,3630 45,94 46,33 47,43
49,115 50,804 51,373 52,85
53,36 54,16 55,38 56,169
57,289 58,23 61,235 62,515
63,642 64,71 65,25 68,710
69,1481 70,103 71,40 72,98
73,180 74,868 75,1597 76,123
79,61 80,99 81,204 82,42
83,34 84,19 85,57 86,187
87,80 88,102 89,31 90,20
91,28 92,252 93,702 94,856
95,282 96,22 99,463 100,127
101,162 102,20 103,22 104,44
105,46 106,30 108,41 109,40
110,22 111,63 112,274 113,1205
114,280 117,81 118,67 119,67
120,100 121,23 122,50 123,121
124,40 125,340 126,31 131,29
132,87 137,87 138,124 139,76
140,70 141,33 142,29 143,1248
144,632 145,307 146,29 148,44
150,30 151,133 158,71 161,74
163,5135 164,453 165,20 168,334
169,34 170,160 178,30 186,36
188,1021 189,203 191,9999 192,791
193,53 207,4570 208,398 209,29
##END=
