##TITLE=Benzene, (epoxyethyl)-, (R)-
##JCAMP-DX=4.24
##DATA TYPE=MASS SPECTRUM
##ORIGIN=Chuck Anderson, Aldrich Chemical Co.
##OWNER=NIST Mass Spectrometry Data Center
Collection (C) 2014 copyright by the U.S. Secretary of Commerce
on behalf of the United States of America. All rights reserved.
##CAS REGISTRY NO=20780-53-4
##$NIST MASS SPEC NO=108243
##MOLFORM=C8 H8 O
##MW=120
##$NIST SOURCE=MSDC
##XUNITS=M/Z
##YUNITS=RELATIVE INTENSITY
##XFACTOR=1
##YFACTOR=1
##FIRSTX=14
##LASTX=121
##FIRSTY=49
##MAXX=121
##MINX=14
##MAXY=9999
##MINY=7
##NPOINTS=56
##PEAK TABLE=(XY..XY)
14,49 15,50 18,7 26,103
27,275 28,77 29,308 30,42
31,28 36,17 37,255 38,689
39,2499 40,294 41,314 42,48
43,99 44,32 45,81 46,37
49,105 50,900 51,1436 52,263
53,68 59,42 60,22 61,251
62,738 63,1947 64,722 65,2142
66,150 73,57 74,249 75,148
76,78 77,482 78,142 84,16
85,52 86,101 87,83 89,5031
90,4415 91,9999 92,2889 93,200
98,20 102,63 103,127 104,154
105,107 119,2662 120,2272 121,198
##END=
