##TITLE=3,7-Dimethyloctyl acetate
##JCAMP-DX=4.24
##DATA TYPE=MASS SPECTRUM
##ORIGIN=NIST Mass Spectrometry Data Center
##OWNER=NIST Mass Spectrometry Data Center
Collection (C) 2014 copyright by the U.S. Secretary of Commerce
on behalf of the United States of America. All rights reserved.
##CAS REGISTRY NO=20780-49-8
##$NIST MASS SPEC NO=413862
##MOLFORM=C12 H24 O2
##MW=200
##$NIST SOURCE=MSDC
##XUNITS=M/Z
##YUNITS=RELATIVE INTENSITY
##XFACTOR=1
##YFACTOR=1
##FIRSTX=27
##LASTX=185
##FIRSTY=250
##MAXX=185
##MINX=27
##MAXY=9999
##MINY=10
##NPOINTS=55
##PEAK TABLE=(XY..XY)
27,250 29,460 30,10 39,530
40,110 41,2672 42,971 43,8888
44,250 45,60 53,250 54,280
55,5815 56,6366 57,3593 58,250
60,30 61,1702 62,50 67,550
68,510 69,6176 70,9999 71,2572
72,170 73,360 81,380 82,400
83,2592 84,2292 85,691 86,50
87,571 88,250 95,120 96,561
97,1922 98,410 99,70 110,130
111,1682 112,1631 113,150 114,50
115,550 116,100 125,801 126,90
128,30 130,170 140,520 141,50
143,30 156,30 185,50
##END=
