##TITLE=N-Tritylformamide
##JCAMP-DX=4.24
##DATA TYPE=MASS SPECTRUM
##ORIGIN=NIST Mass Spectrometry Data Center, 1994
##OWNER=NIST Mass Spectrometry Data Center
Collection (C) 2014 copyright by the U.S. Secretary of Commerce
on behalf of the United States of America. All rights reserved.
##CAS REGISTRY NO=20799-66-0
##$NIST MASS SPEC NO=135798
##MOLFORM=C20 H17 N O
##MW=287
##$NIST SOURCE=MSDC
##XUNITS=M/Z
##YUNITS=RELATIVE INTENSITY
##XFACTOR=1
##YFACTOR=1
##FIRSTX=16
##LASTX=289
##FIRSTY=11
##MAXX=289
##MINX=16
##MAXY=9999
##MINY=11
##NPOINTS=124
##PEAK TABLE=(XY..XY)
16,11 17,19 18,99 27,108
28,338 38,110 39,748 40,57
46,66 49,32 50,690 51,3111
52,461 53,74 62,121 63,489
64,107 65,322 66,50 75,289
77,6465 78,888 79,212 81,57
83,37 86,86 87,148 88,183
89,292 90,109 91,277 94,272
98,58 99,60 100,105 101,228
102,210 103,58 104,9999 105,1116
106,177 107,203 108,173 111,41
113,384 114,152 115,622 116,171
117,34 119,184 120,444 122,42
125,56 126,178 127,175 128,178
129,70 130,56 137,54 138,74
139,457 140,91 141,53 150,165
151,261 152,552 153,280 154,151
155,164 162,73 163,426 165,5134
166,940 167,303 168,42 175,36
176,129 177,65 178,150 179,36
180,1306 181,36 182,5975 183,1207
184,109 187,121 188,79 189,204
190,62 193,1685 194,2860 195,410
200,127 201,90 202,308 203,82
208,148 210,3894 211,695 212,100
213,208 214,65 215,493 216,126
226,344 227,223 228,414 229,113
237,200 239,977 240,317 241,1023
242,1168 243,1390 244,372 245,46
256,59 258,226 259,74 269,38
270,53 287,4657 288,974 289,113
##END=
