##TITLE=2-Fluoro-5-(trifluoromethyl)benzyl alcohol
##JCAMP-DX=4.24
##DATA TYPE=MASS SPECTRUM
##ORIGIN=NIST Mass Spectrometry Data Center, 1994
##OWNER=NIST Mass Spectrometry Data Center
Collection (C) 2014 copyright by the U.S. Secretary of Commerce
on behalf of the United States of America. All rights reserved.
##CAS REGISTRY NO=207974-09-2
##$NIST MASS SPEC NO=136594
##MOLFORM=C8 H6 F4 O
##MW=194
##$NIST SOURCE=MSDC
##XUNITS=M/Z
##YUNITS=RELATIVE INTENSITY
##XFACTOR=1
##YFACTOR=1
##FIRSTX=17
##LASTX=195
##FIRSTY=55
##MAXX=195
##MINX=17
##MAXY=9999
##MINY=9
##NPOINTS=109
##PEAK TABLE=(XY..XY)
17,55 18,47 19,33 20,114
26,12 29,2729 30,700 31,2133
33,82 37,262 38,478 39,548
40,9 44,27 47,42 48,28
49,310 50,1525 51,1365 52,137
53,105 55,94 56,301 57,1054
58,64 61,397 62,634 63,894
64,72 66,37 68,545 69,2241
70,286 71,92 72,71 73,138
74,505 75,2458 76,353 77,1623
78,181 79,129 80,205 81,654
82,105 83,80 84,30 85,142
86,226 87,590 88,191 89,73
92,200 93,487 94,572 95,1804
96,954 97,2836 98,235 99,404
100,85 101,366 103,36 104,77
105,415 106,128 107,795 108,186
111,32 112,153 113,445 114,520
115,67 117,131 118,66 119,176
123,313 125,3750 126,688 127,2117
128,162 132,121 137,287 138,89
139,30 143,590 145,9999 146,933
147,94 151,48 155,97 156,137
157,102 158,104 163,943 164,430
165,1529 166,222 173,3812 174,936
175,2140 176,350 177,993 178,110
191,590 192,134 193,1244 194,3430
195,327
##END=
