##TITLE=3-Ethyl-5-methyl-1-heptyn-3-ol
##JCAMP-DX=4.24
##DATA TYPE=MASS SPECTRUM
##ORIGIN=NIST Mass Spectrometry Data Center, 1994
##OWNER=NIST Mass Spectrometry Data Center
Collection (C) 2014 copyright by the U.S. Secretary of Commerce
on behalf of the United States of America. All rights reserved.
##CAS REGISTRY NO=207974-16-1
##$NIST MASS SPEC NO=136540
##MOLFORM=C10 H18 O
##MW=154
##$NIST SOURCE=MSDC
##XUNITS=M/Z
##YUNITS=RELATIVE INTENSITY
##XFACTOR=1
##YFACTOR=1
##FIRSTX=14
##LASTX=127
##FIRSTY=17
##MAXX=127
##MINX=14
##MAXY=9999
##MINY=17
##NPOINTS=64
##PEAK TABLE=(XY..XY)
14,17 15,166 18,46 26,241
27,2376 28,318 29,4368 30,130
37,39 38,114 39,2123 40,425
41,3119 42,463 43,3344 44,67
45,64 50,185 51,539 52,181
53,1571 54,222 55,2868 56,434
57,3127 58,139 62,46 63,130
64,45 65,325 66,107 67,290
68,337 69,3821 70,275 71,289
72,95 73,89 77,435 78,97
79,761 80,194 81,729 82,661
83,9999 84,631 85,74 91,508
92,65 93,156 94,54 95,216
96,75 97,128 98,557 99,96
105,200 107,343 108,41 109,46
121,90 125,2946 126,277 127,30
##END=
