##TITLE=4-Fluoro-2-(trifluoromethyl)benzamide
##JCAMP-DX=4.24
##DATA TYPE=MASS SPECTRUM
##ORIGIN=NIST Mass Spectrometry Data Center, 1994
##OWNER=NIST Mass Spectrometry Data Center
Collection (C) 2014 copyright by the U.S. Secretary of Commerce
on behalf of the United States of America. All rights reserved.
##CAS REGISTRY NO=207919-06-0
##$NIST MASS SPEC NO=136605
##MOLFORM=C8 H5 F4 N O
##MW=207
##$NIST SOURCE=MSDC
##XUNITS=M/Z
##YUNITS=RELATIVE INTENSITY
##XFACTOR=1
##YFACTOR=1
##FIRSTX=16
##LASTX=208
##FIRSTY=176
##MAXX=208
##MINX=16
##MAXY=9999
##MINY=36
##NPOINTS=68
##PEAK TABLE=(XY..XY)
16,176 17,55 18,83 37,151
38,122 40,42 44,2639 47,88
49,99 50,687 51,276 55,68
56,138 57,334 61,183 62,414
63,633 68,441 69,902 70,73
71,37 72,83 75,899 76,81
80,125 81,154 82,67 86,110
87,91 88,75 89,104 92,168
93,577 94,695 95,163 99,337
100,160 101,77 104,36 112,191
113,1140 114,382 117,72 118,58
120,314 123,79 125,253 132,92
137,53 138,71 139,156 143,1197
144,511 145,265 148,661 158,74
161,63 163,6241 164,557 168,78
170,209 186,70 188,84 189,286
191,9999 192,873 207,3429 208,392
##END=
