##TITLE=4-Octanone, 7-methyl-
##JCAMP-DX=4.24
##DATA TYPE=MASS SPECTRUM
##OWNER=NIST Mass Spectrometry Data Center
Collection (C) 2014 copyright by the U.S. Secretary of Commerce
on behalf of the United States of America. All rights reserved.
##CAS REGISTRY NO=20809-46-5
##$NIST MASS SPEC NO=3847
##MOLFORM=C9 H18 O
##MW=142
##$NIST SOURCE=MSDC
##XUNITS=M/Z
##YUNITS=RELATIVE INTENSITY
##XFACTOR=1
##YFACTOR=1
##FIRSTX=27
##LASTX=142
##FIRSTY=4094
##MAXX=142
##MINX=27
##MAXY=9999
##MINY=10
##NPOINTS=32
##PEAK TABLE=(XY..XY)
27,4094 28,951 29,2122 30,50
31,70 39,1942 41,3473 42,1091
43,9999 44,320 45,70 55,911
56,290 57,901 58,3753 59,170
69,140 70,160 71,6696 72,380
73,30 84,10 85,40 86,1812
87,360 99,2132 100,170 101,30
113,170 114,20 127,30 142,741
##END=
