##TITLE=1,3-Dithiolan-2-one
##JCAMP-DX=4.24
##DATA TYPE=MASS SPECTRUM
##ORIGIN=James Little,Eastman Chem.Co.,Kingsport,TN
##OWNER=NIST Mass Spectrometry Data Center
Collection (C) 2014 copyright by the U.S. Secretary of Commerce
on behalf of the United States of America. All rights reserved.
##CAS REGISTRY NO=2080-58-2
##$NIST MASS SPEC NO=288598
##MOLFORM=C3 H4 O S2
##MW=120
##$NIST SOURCE=MSDC
##XUNITS=M/Z
##YUNITS=RELATIVE INTENSITY
##XFACTOR=1
##YFACTOR=1
##FIRSTX=27
##LASTX=125
##FIRSTY=2883
##MAXX=125
##MINX=27
##MAXY=9999
##MINY=40
##NPOINTS=30
##PEAK TABLE=(XY..XY)
27,2883 28,2342 32,1451 33,390
34,701 35,130 44,1501 45,9999
46,3503 47,1141 48,260 57,761
58,1782 59,5955 60,4294 61,581
64,3113 76,721 77,90 78,90
91,200 92,7216 93,450 94,721
120,6496 121,671 122,711 123,140
124,80 125,40
##END=
