##TITLE=2,3-Difluorobenzophenone
##JCAMP-DX=4.24
##DATA TYPE=MASS SPECTRUM
##ORIGIN=NIST Mass Spectrometry Data Center, 1994
##OWNER=NIST Mass Spectrometry Data Center
Collection (C) 2014 copyright by the U.S. Secretary of Commerce
on behalf of the United States of America. All rights reserved.
##CAS REGISTRY NO=208173-20-0
##$NIST MASS SPEC NO=136733
##MOLFORM=C13 H8 F2 O
##MW=218
##$NIST SOURCE=MSDC
##XUNITS=M/Z
##YUNITS=RELATIVE INTENSITY
##XFACTOR=1
##YFACTOR=1
##FIRSTX=17
##LASTX=220
##FIRSTY=110
##MAXX=220
##MINX=17
##MAXY=9999
##MINY=4
##NPOINTS=66
##PEAK TABLE=(XY..XY)
17,110 18,473 37,103 38,109
39,226 44,6 49,58 50,982
51,2891 52,145 53,85 56,42
57,132 61,110 62,305 63,1713
64,101 68,180 69,125 72,29
73,4 74,28 75,336 76,4
77,5863 78,364 80,44 81,132
82,62 85,159 86,73 87,109
88,45 92,67 93,252 94,239
95,292 98,49 99,67 101,26
105,9999 106,725 107,64 109,74
111,50 113,2211 114,154 123,49
141,3084 142,239 143,38 151,43
162,36 168,76 169,90 170,122
187,30 188,189 189,90 190,85
198,257 199,100 201,42 218,4532
219,629 220,58
##END=
