##TITLE=2,3,6-Trifluoroacetophenone
##JCAMP-DX=4.24
##DATA TYPE=MASS SPECTRUM
##ORIGIN=NIST Mass Spectrometry Data Center, 1994
##OWNER=NIST Mass Spectrometry Data Center
Collection (C) 2014 copyright by the U.S. Secretary of Commerce
on behalf of the United States of America. All rights reserved.
##CAS REGISTRY NO=208173-22-2
##$NIST MASS SPEC NO=136732
##MOLFORM=C8 H5 F3 O
##MW=174
##$NIST SOURCE=MSDC
##XUNITS=M/Z
##YUNITS=RELATIVE INTENSITY
##XFACTOR=1
##YFACTOR=1
##FIRSTX=13
##LASTX=175
##FIRSTY=61
##MAXX=175
##MINX=13
##MAXY=9999
##MINY=10
##NPOINTS=64
##PEAK TABLE=(XY..XY)
13,61 14,131 15,565 17,44
18,203 20,47 33,36 37,153
38,85 39,51 42,539 43,4613
44,94 50,166 51,199 55,72
56,180 57,418 60,10 61,383
62,462 63,238 68,303 69,175
75,547 76,36 80,402 81,2837
82,185 85,75 86,180 87,159
88,69 92,132 93,156 94,75
95,134 98,58 99,287 100,50
101,54 104,33 105,106 106,59
107,43 110,34 111,113 112,257
119,130 123,36 125,276 126,49
127,50 131,4078 132,617 137,41
143,83 144,47 145,206 159,9999
160,771 161,57 174,3204 175,269
##END=
