##TITLE=4,22-Stigmastadiene-3-one
##JCAMP-DX=4.24
##DATA TYPE=MASS SPECTRUM
##ORIGIN=LAC, NIDDK, NIH, Bethesda, MD 20892
##OWNER=NIST Mass Spectrometry Data Center
Collection (C) 2014 copyright by the U.S. Secretary of Commerce
on behalf of the United States of America. All rights reserved.
##CAS REGISTRY NO=20817-72-5
##$NIST MASS SPEC NO=255385
##MOLFORM=C29 H46 O
##MW=410
##$NIST SOURCE=MSDC
##XUNITS=M/Z
##YUNITS=RELATIVE INTENSITY
##XFACTOR=1
##YFACTOR=1
##FIRSTX=41
##LASTX=413
##FIRSTY=4734
##MAXX=413
##MINX=41
##MAXY=9999
##MINY=5
##NPOINTS=189
##PEAK TABLE=(XY..XY)
41,4734 43,7750 44,150 49,66
51,68 53,913 55,9999 57,1171
58,10 65,412 67,2895 69,5645
70,107 71,595 77,1270 79,3068
81,4106 83,3512 84,587 85,300
86,49 91,2534 93,2670 95,3321
96,331 97,2924 98,223 99,64
100,5 103,170 105,1955 107,2050
108,143 109,1718 110,381 111,408
112,49 113,48 115,214 116,74
117,609 119,1312 121,1839 122,119
123,2431 124,1071 125,154 127,25
128,207 129,290 130,74 131,813
133,1485 134,479 135,1061 136,295
137,887 138,170 139,113 140,23
141,131 142,112 143,304 144,121
145,813 146,236 147,1701 148,389
149,1390 150,31 151,335 152,46
153,23 154,10 155,138 156,27
157,378 158,89 159,652 160,79
161,953 162,201 163,422 164,30
165,117 166,205 167,30 168,10
169,117 170,54 171,252 172,130
173,474 174,255 175,645 176,102
177,319 178,30 179,11 180,36
181,34 183,113 184,37 185,251
186,70 187,340 188,87 189,206
190,36 191,105 192,23 195,17
197,118 198,28 199,172 200,70
201,274 202,46 203,337 204,42
205,34 209,38 211,126 212,33
213,187 214,46 215,268 216,37
217,135 218,19 223,5 225,99
226,17 227,348 228,117 229,491
230,95 231,343 232,48 239,32
241,108 242,87 243,324 244,123
245,892 246,144 251,26 252,29
253,469 254,99 255,133 256,341
257,296 258,31 259,34 268,347
269,1224 270,745 271,1427 272,319
273,57 274,5 280,39 281,100
283,325 284,91 285,94 286,21
287,5 297,475 298,891 299,341
300,54 311,33 312,194 313,140
314,24 325,24 327,33 349,89
350,6 367,484 368,129 381,11
395,35 410,823 411,306 412,93
413,19
##END=
