##TITLE=O-Ethyl S-2-dimethylaminoethyl methylphosphonothiolate
##JCAMP-DX=4.24
##DATA TYPE=MASS SPECTRUM
##ORIGIN=VERIFIN - Methodology B1-1979
##OWNER=NIST Mass Spectrometry Data Center
Collection (C) 2014 copyright by the U.S. Secretary of Commerce
on behalf of the United States of America. All rights reserved.
##CAS REGISTRY NO=20820-80-8
##$NIST MASS SPEC NO=226153
##MOLFORM=C7 H18 N O2 P S
##MW=211
##$NIST SOURCE=MSDC
##XUNITS=M/Z
##YUNITS=RELATIVE INTENSITY
##XFACTOR=1
##YFACTOR=1
##FIRSTX=26
##LASTX=210
##FIRSTY=60
##MAXX=210
##MINX=26
##MAXY=9999
##MINY=10
##NPOINTS=29
##PEAK TABLE=(XY..XY)
26,60 27,200 28,100 29,100
30,100 41,60 42,800 43,500
44,300 45,60 47,200 56,500
57,200 58,9999 59,300 61,100
63,50 70,300 71,5104 72,500
79,700 95,60 96,50 102,200
107,100 139,80 166,100 167,70
210,10
##END=
