##TITLE=Allyl dimethyldithiocarbamate
##JCAMP-DX=4.24
##DATA TYPE=MASS SPECTRUM
##ORIGIN=Japan AIST/NIMC Database- Spectrum MS-NW-9479
##OWNER=NIST Mass Spectrometry Data Center
Collection (C) 2014 copyright by the U.S. Secretary of Commerce
on behalf of the United States of America. All rights reserved.
##CAS REGISTRY NO=20821-66-3
##$NIST MASS SPEC NO=236947
##MOLFORM=C6 H11 N S2
##MW=161
##$NIST SOURCE=MSDC
##XUNITS=M/Z
##YUNITS=RELATIVE INTENSITY
##XFACTOR=1
##YFACTOR=1
##FIRSTX=14
##LASTX=164
##FIRSTY=10
##MAXX=164
##MINX=14
##MAXY=9999
##MINY=10
##NPOINTS=70
##PEAK TABLE=(XY..XY)
14,10 15,249 26,20 27,80
28,50 29,10 30,50 32,30
33,10 34,20 37,20 38,60
39,569 40,90 41,759 42,909
43,189 44,2769 45,379 46,70
47,249 48,10 49,10 54,10
55,30 56,209 57,10 58,30
59,30 61,80 64,80 69,20
70,20 71,80 72,279 73,649
74,719 75,50 76,229 77,769
78,40 79,70 82,20 84,10
85,20 87,10 88,9999 89,619
90,469 91,20 94,20 105,20
114,30 117,20 120,1519 121,109
122,139 128,139 129,10 132,80
133,10 134,10 146,709 147,50
148,60 160,10 161,3029 162,269
163,279 164,20
##END=
