##TITLE=Valeric anhydride
##JCAMP-DX=4.24
##DATA TYPE=MASS SPECTRUM
##ORIGIN=NIST Mass Spectrometry Data Center
##OWNER=NIST Mass Spectrometry Data Center
Collection (C) 2014 copyright by the U.S. Secretary of Commerce
on behalf of the United States of America. All rights reserved.
##CAS REGISTRY NO=2082-59-9
##$NIST MASS SPEC NO=333891
##MOLFORM=C10 H18 O3
##MW=186
##$NIST SOURCE=MSDC
##XUNITS=M/Z
##YUNITS=RELATIVE INTENSITY
##XFACTOR=1
##YFACTOR=1
##FIRSTX=15
##LASTX=144
##FIRSTY=10
##MAXX=144
##MINX=15
##MAXY=9999
##MINY=10
##NPOINTS=40
##PEAK TABLE=(XY..XY)
15,10 26,40 27,380 28,310
29,971 30,20 31,10 37,10
38,10 39,370 40,50 41,1571
42,290 43,130 44,10 45,40
50,20 51,30 52,10 53,60
54,30 55,500 56,390 57,4524
58,200 59,20 60,80 69,10
73,30 75,10 83,30 85,9999
86,561 87,40 100,10 101,10
103,30 126,10 129,10 144,10
##END=
