##TITLE=2,2-Dimethylindene, 2,3-dihydro-
##JCAMP-DX=4.24
##DATA TYPE=MASS SPECTRUM
##ORIGIN=V.G.Zaikin, TIPS, Russian Acad. Sci.
##OWNER=NIST Mass Spectrometry Data Center
Collection (C) 2014 copyright by the U.S. Secretary of Commerce
on behalf of the United States of America. All rights reserved.
##CAS REGISTRY NO=20836-11-7
##$NIST MASS SPEC NO=214909
##MOLFORM=C11 H14
##MW=146
##$NIST SOURCE=MSDC
##XUNITS=M/Z
##YUNITS=RELATIVE INTENSITY
##XFACTOR=1
##YFACTOR=1
##FIRSTX=51
##LASTX=148
##FIRSTY=600
##MAXX=148
##MINX=51
##MAXY=9999
##MINY=31
##NPOINTS=31
##PEAK TABLE=(XY..XY)
51,600 52,170 53,300 63,450
64,350 65,500 75,100 76,100
77,600 78,300 79,200 89,300
91,2001 92,350 102,170 103,400
104,420 105,570 115,1501 116,1000
117,550 127,400 128,800 129,900
130,350 131,9999 132,1151 145,600
146,5404 147,650 148,31
##END=
