##TITLE=2-Bromo-4,6-di-tert-butylphenol
##JCAMP-DX=4.24
##DATA TYPE=MASS SPECTRUM
##ORIGIN=NIST Mass Spectrometry Data Center
##OWNER=NIST Mass Spectrometry Data Center
Collection (C) 2014 copyright by the U.S. Secretary of Commerce
on behalf of the United States of America. All rights reserved.
##CAS REGISTRY NO=20834-61-1
##$NIST MASS SPEC NO=341149
##MOLFORM=C14 H21 Br O
##MW=284
##$NIST SOURCE=MSDC
##XUNITS=M/Z
##YUNITS=RELATIVE INTENSITY
##XFACTOR=1
##YFACTOR=1
##FIRSTX=15
##LASTX=288
##FIRSTY=10
##MAXX=288
##MINX=15
##MAXY=9999
##MINY=10
##NPOINTS=158
##PEAK TABLE=(XY..XY)
15,10 27,80 29,210 38,10
39,200 41,671 42,30 43,80
45,10 50,30 51,170 52,40
53,170 54,10 55,160 57,2202
58,150 59,50 62,30 63,160
64,100 65,180 67,60 69,40
70,10 71,20 72,240 73,260
75,60 76,50 77,400 78,140
79,180 80,30 81,30 86,20
87,40 88,20 89,140 90,60
91,510 92,80 93,50 94,30
95,20 98,10 99,140 100,140
101,30 102,110 103,210 104,100
105,340 106,100 107,120 108,20
111,10 112,130 113,631 114,520
115,671 116,240 117,270 118,150
119,220 120,70 121,90 122,30
127,430 128,611 129,290 130,100
131,410 132,160 133,260 134,200
135,60 139,40 140,10 141,260
142,180 143,80 144,100 145,270
146,110 147,230 148,130 149,40
152,20 153,30 154,10 155,50
156,40 157,110 158,80 159,280
160,180 161,80 162,80 163,40
169,20 171,30 172,20 173,60
174,250 175,240 176,30 177,10
183,10 184,10 185,120 186,20
187,110 188,20 189,70 190,100
191,40 197,50 198,30 199,150
200,30 201,100 202,10 205,60
206,10 209,20 211,100 212,30
213,130 214,30 215,50 223,10
225,190 226,70 227,240 228,80
229,50 239,110 241,1061 242,130
243,921 244,100 253,250 254,40
255,250 256,30 257,10 267,10
269,9999 270,1561 271,9679 272,1441
273,110 284,1732 285,260 286,1702
287,250 288,20
##END=
