##TITLE=Cyclohexane glycidate
##JCAMP-DX=4.24
##DATA TYPE=MASS SPECTRUM
##ORIGIN=W.Jennings, T.Shibamoto
##OWNER=NIST Mass Spectrometry Data Center
Collection (C) 2014 copyright by the U.S. Secretary of Commerce
on behalf of the United States of America. All rights reserved.
##CAS REGISTRY NO=208524-95-2
##$NIST MASS SPEC NO=285130
##MOLFORM=C9 H14 O3
##MW=170
##$NIST SOURCE=MSDC
##XUNITS=M/Z
##YUNITS=RELATIVE INTENSITY
##XFACTOR=1
##YFACTOR=1
##FIRSTX=27
##LASTX=167
##FIRSTY=70
##MAXX=167
##MINX=27
##MAXY=9999
##MINY=70
##NPOINTS=65
##PEAK TABLE=(XY..XY)
27,70 29,2212 31,190 39,70
40,270 41,1391 42,270 43,4684
45,190 51,70 53,711 54,2392
55,5345 56,190 57,1311 58,190
59,70 60,591 61,190 63,70
65,190 66,931 67,9188 68,1231
69,1231 70,591 71,190 75,270
76,490 77,1922 78,490 79,3433
80,711 81,9999 82,1922 83,1631
84,190 86,280 87,70 88,280
89,70 91,490 92,190 93,4094
94,591 95,70 97,3883 98,490
99,9489 100,1621 109,1621 110,1191
111,7617 112,1281 113,290 127,9839
128,2422 129,70 137,70 138,1131
139,490 141,70 156,621 166,70
167,290
##END=
