##TITLE=3,4-Methylenedioxybenzyl chloride
##JCAMP-DX=4.24
##DATA TYPE=MASS SPECTRUM
##ORIGIN=NIST Mass Spectrometry Data Center, 1994
##OWNER=NIST Mass Spectrometry Data Center
Collection (C) 2014 copyright by the U.S. Secretary of Commerce
on behalf of the United States of America. All rights reserved.
##CAS REGISTRY NO=20850-43-5
##$NIST MASS SPEC NO=134655
##MOLFORM=C8 H7 Cl O2
##MW=170
##$NIST SOURCE=MSDC
##XUNITS=M/Z
##YUNITS=RELATIVE INTENSITY
##XFACTOR=1
##YFACTOR=1
##FIRSTX=4
##LASTX=173
##FIRSTY=17
##MAXX=173
##MINX=4
##MAXY=9999
##MINY=17
##NPOINTS=74
##PEAK TABLE=(XY..XY)
4,17 14,165 15,28 25,39
26,188 27,330 28,124 29,461
30,175 31,111 32,80 35,87
36,75 37,328 38,710 39,909
40,47 41,36 42,78 43,27
47,77 48,27 49,252 50,1819
51,3621 52,374 53,562 54,50
55,50 56,125 57,47 60,41
61,194 62,310 63,481 64,101
65,246 66,80 67,760 70,238
71,96 72,30 73,175 74,466
75,656 76,515 77,3959 78,567
79,939 80,74 84,96 85,200
86,83 87,40 89,22 92,27
93,26 99,21 105,779 106,169
107,36 111,123 112,54 113,66
133,32 135,9999 136,911 137,86
139,34 141,25 170,2485 171,248
172,800 173,78
##END=
