##TITLE=.alpha.-D-Xylofuranose, 1,2:3,5-bis-O-(1-methylethylidene)-
##JCAMP-DX=4.24
##DATA TYPE=MASS SPECTRUM
##ORIGIN=J.Little
##OWNER=NIST Mass Spectrometry Data Center
Collection (C) 2014 copyright by the U.S. Secretary of Commerce
on behalf of the United States of America. All rights reserved.
##CAS REGISTRY NO=20881-04-3
##$NIST MASS SPEC NO=292813
##MOLFORM=C11 H18 O5
##MW=230
##$NIST SOURCE=MSDC
##XUNITS=M/Z
##YUNITS=RELATIVE INTENSITY
##XFACTOR=1
##YFACTOR=1
##FIRSTX=36
##LASTX=217
##FIRSTY=10
##MAXX=217
##MINX=36
##MAXY=9999
##MINY=10
##NPOINTS=111
##PEAK TABLE=(XY..XY)
36,10 37,30 38,40 39,270
40,60 41,480 42,330 43,9999
44,110 45,60 47,10 50,10
51,20 52,10 53,70 54,130
55,1121 56,220 57,480 58,1421
59,2853 60,160 61,160 62,10
63,10 64,10 65,20 66,20
67,40 68,200 69,1351 70,90
71,260 72,130 73,751 74,40
77,10 79,30 80,20 81,130
82,50 83,210 84,360 85,2462
86,210 87,100 89,70 90,10
91,10 93,30 94,20 95,100
96,110 97,981 98,90 99,100
100,2963 101,831 102,50 103,10
105,10 107,10 108,50 109,20
110,10 111,50 112,40 113,1581
114,440 115,1101 116,100 117,10
119,10 122,20 123,20 124,20
125,10 126,20 127,360 128,80
129,3653 130,140 131,20 135,10
136,30 137,20 139,40 140,10
141,40 142,100 143,40 144,30
152,10 154,10 155,160 156,30
157,971 158,70 159,10 169,10
171,30 172,70 173,10 185,10
187,90 188,10 201,10 214,50
215,5665 216,270 217,30
##END=
