##TITLE=Naphtho[1,8-cd]-1,2-dithiole
##JCAMP-DX=4.24
##DATA TYPE=MASS SPECTRUM
##ORIGIN=J. Little, Eastman chemical company.
##OWNER=NIST Mass Spectrometry Data Center
Collection (C) 2014 copyright by the U.S. Secretary of Commerce
on behalf of the United States of America. All rights reserved.
##CAS REGISTRY NO=209-22-3
##$NIST MASS SPEC NO=403186
##MOLFORM=C10 H6 S2
##MW=190
##$NIST SOURCE=MSDC
##XUNITS=M/Z
##YUNITS=RELATIVE INTENSITY
##XFACTOR=1
##YFACTOR=1
##FIRSTX=38
##LASTX=193
##FIRSTY=190
##MAXX=193
##MINX=38
##MAXY=9999
##MINY=50
##NPOINTS=39
##PEAK TABLE=(XY..XY)
38,190 39,340 45,460 50,390
51,290 61,270 62,460 63,591
69,911 74,591 75,450 76,320
82,380 87,310 88,260 93,490
94,260 95,1281 98,210 101,190
102,611 113,510 114,1401 115,160
117,130 120,140 126,370 144,100
145,1171 146,601 147,110 157,50
158,320 188,70 189,430 190,9999
191,1441 192,1111 193,130
##END=
