##TITLE=Chrysene, octadecahydro-
##JCAMP-DX=4.24
##DATA TYPE=MASS SPECTRUM
##ORIGIN=GULF R. ' D. CO., PITTSBURGH, PA, USA
##OWNER=NIST Mass Spectrometry Data Center
Collection (C) 2014 copyright by the U.S. Secretary of Commerce
on behalf of the United States of America. All rights reserved.
##CAS REGISTRY NO=2090-14-4
##$NIST MASS SPEC NO=34712
##MOLFORM=C18 H30
##MW=246
##$NIST SOURCE=MSDC
##XUNITS=M/Z
##YUNITS=RELATIVE INTENSITY
##XFACTOR=1
##YFACTOR=1
##FIRSTX=17
##LASTX=249
##FIRSTY=67
##MAXX=249
##MINX=17
##MAXY=9999
##MINY=1
##NPOINTS=202
##PEAK TABLE=(XY..XY)
17,67 18,244 20,22 25,7
26,37 27,964 28,1187 29,1226
30,28 34,7 37,7 38,16
39,1011 40,218 41,4559 42,262
43,418 44,77 48,7 49,2
50,17 51,121 52,99 53,1041
54,846 55,2645 56,143 57,134
58,18 59,14 60,18 61,19
62,6 63,31 64,26 65,380
66,264 67,4406 68,815 69,855
70,59 71,39 72,9 73,14
74,70 75,22 76,10 77,708
78,229 79,4017 80,1469 81,6800
82,1248 83,785 84,58 85,18
86,2 87,11 88,87 89,57
90,37 91,2141 92,546 93,2891
94,1734 95,4868 96,1394 97,514
98,40 99,11 100,9 101,17
102,91 103,138 104,111 105,647
106,276 107,1411 108,1654 109,1265
110,344 111,207 112,18 113,4
114,4 115,160 116,70 117,204
118,58 119,320 120,298 121,4699
122,2727 123,1237 124,128 125,23
126,9 127,33 128,86 129,74
130,28 131,91 132,39 133,352
134,723 135,8816 136,2204 137,525
138,54 139,9 140,3 141,29
142,14 143,20 144,13 145,60
146,47 147,288 148,787 149,802
150,2733 151,761 152,87 153,12
154,5 155,7 156,3 157,5
158,3 159,19 160,16 161,293
162,147 163,334 164,162 165,46
166,6 167,4 173,18 174,27
175,993 176,473 177,626 178,112
179,14 180,9 181,6 182,2
183,4 184,2 185,5 186,4
187,25 188,41 189,2320 190,422
191,57 192,11 193,2 197,5
198,2 199,4 200,1 201,18
202,14 203,109 204,351 205,72
206,11 207,3 214,1 215,8
216,9 217,202 218,161 219,26
220,6 221,1 226,3 227,2
228,5 229,4 230,4 231,24
232,26 233,5 234,4 235,1
236,5 237,3 238,5 239,2
240,12 241,5 242,15 243,7
244,68 245,107 246,9999 247,1972
248,189 249,11
##END=
