##TITLE=Trimethylene borate
##JCAMP-DX=4.24
##DATA TYPE=MASS SPECTRUM
##ORIGIN=NIST Mass Spectrometry Data Center
##OWNER=NIST Mass Spectrometry Data Center
Collection (C) 2014 copyright by the U.S. Secretary of Commerce
on behalf of the United States of America. All rights reserved.
##CAS REGISTRY NO=20905-35-5
##$NIST MASS SPEC NO=342756
##MOLFORM=C9 H18 B2 O6
##MW=244
##$NIST SOURCE=MSDC
##XUNITS=M/Z
##YUNITS=RELATIVE INTENSITY
##XFACTOR=1
##YFACTOR=1
##FIRSTX=12
##LASTX=214
##FIRSTY=10
##MAXX=214
##MINX=12
##MAXY=9999
##MINY=10
##NPOINTS=115
##PEAK TABLE=(XY..XY)
12,10 15,130 18,60 19,20
25,10 26,340 27,1141 28,2622
29,1471 30,200 31,891 37,10
39,911 41,6816 42,811 43,440
44,811 45,2542 47,30 52,10
53,90 54,200 55,380 56,330
57,1431 58,751 59,500 60,20
61,10 66,30 67,250 68,110
69,260 70,370 71,1011 72,410
73,120 74,80 75,470 77,10
79,130 80,100 81,20 82,90
83,871 84,1511 85,2422 86,420
87,601 88,410 89,771 96,50
97,230 98,651 99,1732 100,671
101,1191 102,280 103,651 104,20
109,40 110,60 111,100 112,631
113,2352 114,1641 115,4164 116,260
117,140 118,20 119,60 123,10
124,40 125,90 126,260 127,781
128,1191 129,1712 130,260 131,100
136,10 137,20 138,20 141,3713
142,9999 143,901 144,100 145,40
146,10 147,20 153,30 154,130
155,300 156,140 157,100 158,440
159,771 160,40 161,20 166,10
167,100 168,170 169,30 170,20
171,40 182,10 183,40 184,130
185,390 186,911 187,1651 188,100
189,20 213,10 214,30
##END=
