##TITLE=Heptane, 1,1-dicyclohexyl-
##JCAMP-DX=4.24
##DATA TYPE=MASS SPECTRUM
##OWNER=NIST Mass Spectrometry Data Center
Collection (C) 2014 copyright by the U.S. Secretary of Commerce
on behalf of the United States of America. All rights reserved.
##CAS REGISTRY NO=2090-15-5
##$NIST MASS SPEC NO=12800
##MOLFORM=C19 H36
##MW=264
##$NIST SOURCE=MSDC
##XUNITS=M/Z
##YUNITS=RELATIVE INTENSITY
##XFACTOR=1
##YFACTOR=1
##FIRSTX=29
##LASTX=266
##FIRSTY=3563
##MAXX=266
##MINX=29
##MAXY=9999
##MINY=10
##NPOINTS=143
##PEAK TABLE=(XY..XY)
29,3563 30,70 31,10 36,10
37,10 38,20 39,1111 40,190
41,8338 42,681 43,3423 44,100
45,10 50,10 51,60 52,60
53,751 54,1722 55,9999 56,751
57,2762 58,100 59,10 60,10
61,10 62,10 63,10 64,10
65,160 66,160 67,3513 68,781
69,4394 70,320 71,821 72,40
77,220 78,60 79,430 80,200
81,2162 82,4194 83,9599 84,661
85,751 86,50 87,10 89,10
90,10 91,130 92,20 93,120
94,60 95,821 96,3563 97,6876
98,581 99,270 100,20 101,10
102,10 103,10 104,10 105,20
106,10 107,40 108,70 109,1151
110,330 111,3063 112,240 113,50
114,10 115,10 116,10 117,10
118,10 119,10 120,10 121,20
122,20 123,210 124,180 125,1451
126,130 127,10 128,10 131,10
133,10 134,10 135,20 136,10
137,100 138,110 139,220 140,30
141,10 147,10 148,10 149,10
150,10 151,50 152,120 153,30
154,10 163,10 164,10 165,30
166,20 167,30 168,10 169,10
175,10 176,10 177,10 178,110
179,500 180,4494 181,3063 182,350
183,30 191,10 192,10 193,30
194,10 195,10 196,10 198,20
199,30 200,40 201,20 202,50
204,10 206,10 207,10 208,10
209,10 210,10 262,10 263,10
264,50 265,10 266,10
##END=
