##TITLE=9-Hexadecenoic acid
##JCAMP-DX=4.24
##DATA TYPE=MASS SPECTRUM
##ORIGIN=EP-1277
##OWNER=NIST Mass Spectrometry Data Center
Collection (C) 2014 copyright by the U.S. Secretary of Commerce
on behalf of the United States of America. All rights reserved.
##CAS REGISTRY NO=2091-29-4
##$NIST MASS SPEC NO=43703
##MOLFORM=C16 H30 O2
##MW=254
##$NIST SOURCE=MSDC
##XUNITS=M/Z
##YUNITS=RELATIVE INTENSITY
##XFACTOR=1
##YFACTOR=1
##FIRSTX=16
##LASTX=257
##FIRSTY=70
##MAXX=257
##MINX=16
##MAXY=9999
##MINY=20
##NPOINTS=227
##PEAK TABLE=(XY..XY)
16,70 25,60 26,280 27,2100
28,3330 29,3420 30,140 31,370
32,150 35,50 36,190 37,80
38,110 39,1920 40,420 41,8419
42,1920 43,5429 44,540 45,880
46,60 47,50 49,40 50,100
51,170 52,440 53,1140 54,2710
55,9999 56,3240 57,2630 58,220
59,520 60,1570 61,260 62,60
63,80 64,50 65,310 66,260
67,3240 68,2360 69,6919 70,2800
71,1400 72,140 73,1840 74,210
75,90 76,50 77,310 78,150
79,650 80,360 81,2630 82,2190
83,4380 84,2800 85,840 86,130
87,620 88,90 89,60 90,40
91,290 92,100 93,350 94,370
95,1570 96,2100 97,2980 98,2190
99,420 100,450 101,650 102,110
103,50 104,50 105,160 106,90
107,260 108,280 109,900 110,1310
111,1400 112,730 113,330 114,780
115,420 116,140 117,80 118,60
119,210 120,80 121,230 122,220
123,770 124,710 125,640 126,340
127,460 128,190 129,350 130,90
131,70 132,60 133,210 134,170
135,210 136,150 137,500 138,550
139,380 140,190 141,220 142,90
143,140 144,70 145,50 146,40
147,190 148,130 149,160 150,90
151,350 152,490 153,280 154,110
155,130 156,60 157,100 158,80
159,60 160,30 161,110 162,70
163,80 164,60 165,280 166,200
167,140 168,70 170,60 171,110
172,60 173,40 174,30 175,70
176,50 177,50 178,60 179,180
180,90 181,70 182,70 183,60
184,40 185,140 186,60 187,40
188,30 189,60 190,50 191,60
192,320 193,190 194,360 195,130
196,50 197,50 198,30 199,50
200,30 201,30 202,40 203,40
204,30 205,40 206,40 207,120
208,110 209,60 210,100 211,70
212,40 213,60 214,40 215,40
216,50 217,100 218,170 219,330
220,120 221,60 222,50 223,40
224,40 225,40 226,30 227,40
228,30 229,20 230,20 233,30
234,50 235,40 236,780 237,180
238,60 239,50 240,30 241,50
242,30 243,20 244,20 245,20
246,20 247,20 248,20 250,30
251,30 252,60 253,50 254,380
255,100 256,100 257,40
##END=
