##TITLE=4,4'-Bis[2-hydroxyhexafluoroisopropyl]diphenyl ether
##JCAMP-DX=4.24
##DATA TYPE=MASS SPECTRUM
##ORIGIN=NIST Mass Spectrometry Data Center
##OWNER=NIST Mass Spectrometry Data Center
Collection (C) 2014 copyright by the U.S. Secretary of Commerce
on behalf of the United States of America. All rights reserved.
##CAS REGISTRY NO=2093-04-1
##$NIST MASS SPEC NO=342584
##MOLFORM=C18 H10 F12 O3
##MW=502
##$NIST SOURCE=MSDC
##XUNITS=M/Z
##YUNITS=RELATIVE INTENSITY
##XFACTOR=1
##YFACTOR=1
##FIRSTX=16
##LASTX=504
##FIRSTY=50
##MAXX=504
##MINX=16
##MAXY=9999
##MINY=20
##NPOINTS=225
##PEAK TABLE=(XY..XY)
16,50 17,90 18,270 19,961
20,80 28,50 33,20 36,50
37,60 38,300 39,881 40,70
47,90 48,30 50,1531 51,1601
52,100 53,370 54,40 55,70
56,30 57,280 61,50 62,290
63,801 64,811 65,851 66,290
67,210 69,4244 70,1071 73,110
74,280 75,991 76,1772 77,2042
78,240 79,90 80,40 81,150
82,100 83,340 84,1131 86,140
87,170 88,140 89,90 90,40
92,1091 93,611 94,330 95,761
96,300 97,470 98,581 99,250
100,120 101,120 102,70 104,1141
105,510 106,120 107,370 108,140
109,240 112,5225 114,250 115,520
116,70 117,40 118,60 119,230
120,240 121,851 122,350 123,1221
125,380 126,240 127,160 128,40
129,50 130,60 131,40 132,120
133,180 134,100 135,40 137,280
138,270 139,791 140,410 141,931
142,250 143,300 145,1151 147,1381
151,80 152,90 153,60 154,140
155,60 156,130 157,140 158,40
159,50 160,60 161,80 162,180
163,160 166,40 168,2813 169,761
170,510 171,130 172,40 173,110
174,120 175,150 176,40 182,550
186,20 187,80 188,60 189,70
190,60 191,100 193,70 195,410
196,861 197,2222 198,360 199,120
200,40 201,150 202,40 203,40
204,120 205,40 207,50 210,30
211,30 213,20 214,40 215,30
217,150 219,200 220,50 221,40
223,80 224,20 225,30 228,30
231,40 237,60 238,180 239,50
241,20 243,30 247,30 249,480
250,100 251,40 259,30 265,250
266,1081 267,1491 268,250 269,60
271,50 275,160 276,50 277,80
281,40 285,20 289,30 290,60
293,581 294,110 295,30 296,100
297,70 300,30 307,280 308,50
315,30 316,90 317,200 318,130
319,50 327,150 328,30 334,40
335,220 336,120 337,20 345,130
346,190 347,60 363,9999 364,1762
365,250 366,30 381,60 385,40
397,60 413,30 415,1051 416,220
417,40 433,9368 434,1772 435,210
436,20 451,50 453,20 463,571
464,130 465,100 466,40 483,310
484,60 485,50 502,2402 503,500
504,50
##END=
