##TITLE=1,3,6-Dioxathiocane
##JCAMP-DX=4.24
##DATA TYPE=MASS SPECTRUM
##ORIGIN=J. E. CALIN
##OWNER=NIST Mass Spectrometry Data Center
Collection (C) 2014 copyright by the U.S. Secretary of Commerce
on behalf of the United States of America. All rights reserved.
##CAS REGISTRY NO=2094-92-0
##$NIST MASS SPEC NO=40964
##MOLFORM=C5 H10 O2 S
##MW=134
##$NIST SOURCE=MSDC
##XUNITS=M/Z
##YUNITS=RELATIVE INTENSITY
##XFACTOR=1
##YFACTOR=1
##FIRSTX=27
##LASTX=134
##FIRSTY=1132
##MAXX=134
##MINX=27
##MAXY=9999
##MINY=566
##NPOINTS=17
##PEAK TABLE=(XY..XY)
27,1132 28,4906 29,2956 30,2201
31,943 45,2138 46,9999 47,818
59,1384 60,4528 61,6478 74,3019
75,881 76,566 90,692 104,3145
134,2956
##END=
