##TITLE=1,3-Oxathiolane
##JCAMP-DX=4.24
##DATA TYPE=MASS SPECTRUM
##ORIGIN=D.J.PASTO DEPT. OF CHEM., UNIV. OF NOTRE DAME, INDIANA, USA
##OWNER=NIST Mass Spectrometry Data Center
Collection (C) 2014 copyright by the U.S. Secretary of Commerce
on behalf of the United States of America. All rights reserved.
##CAS REGISTRY NO=2094-97-5
##$NIST MASS SPEC NO=746
##MOLFORM=C3 H6 O S
##MW=90
##$NIST SOURCE=MSDC
##XUNITS=M/Z
##YUNITS=RELATIVE INTENSITY
##XFACTOR=1
##YFACTOR=1
##FIRSTX=28
##LASTX=90
##FIRSTY=1100
##MAXX=90
##MINX=28
##MAXY=9999
##MINY=400
##NPOINTS=13
##PEAK TABLE=(XY..XY)
28,1100 29,1500 42,400 43,400
44,700 45,3800 46,800 47,800
59,3700 60,7800 61,2000 89,1700
90,9999
##END=
