##TITLE=Methylselenoacetate
##JCAMP-DX=4.24
##DATA TYPE=MASS SPECTRUM
##ORIGIN=J.Tsai ET AL.J.Agr.Food Chem.,46,254(1998)
##OWNER=NIST Mass Spectrometry Data Center
Collection (C) 2014 copyright by the U.S. Secretary of Commerce
on behalf of the United States of America. All rights reserved.
##CAS REGISTRY NO=209530-82-5
##$NIST MASS SPEC NO=281425
##MOLFORM=C3 H6 O Se
##MW=138
##$NIST SOURCE=MSDC
##XUNITS=M/Z
##YUNITS=RELATIVE INTENSITY
##XFACTOR=1
##YFACTOR=1
##FIRSTX=35
##LASTX=140
##FIRSTY=160
##MAXX=140
##MINX=35
##MAXY=9999
##MINY=20
##NPOINTS=23
##PEAK TABLE=(XY..XY)
35,160 36,100 39,130 40,100
41,400 42,661 43,9999 44,170
68,110 84,20 90,170 91,430
92,370 93,1511 94,691 95,1011
96,460 133,190 134,390 135,340
136,991 138,1882 140,420
##END=
