##TITLE=Oxirane, 2,2'-[methylenebis(4,1-phenyleneoxymethylene)]bis-
##JCAMP-DX=4.24
##DATA TYPE=MASS SPECTRUM
##ORIGIN=A. Musjce, AT&T Bell Labs., Murray Hill, N.J., USA
##OWNER=NIST Mass Spectrometry Data Center
Collection (C) 2014 copyright by the U.S. Secretary of Commerce
on behalf of the United States of America. All rights reserved.
##CAS REGISTRY NO=2095-03-6
##$NIST MASS SPEC NO=142856
##MOLFORM=C19 H20 O4
##MW=312
##$NIST SOURCE=MSDC
##XUNITS=M/Z
##YUNITS=RELATIVE INTENSITY
##XFACTOR=1
##YFACTOR=1
##FIRSTX=26
##LASTX=315
##FIRSTY=9
##MAXX=315
##MINX=26
##MAXY=9999
##MINY=7
##NPOINTS=169
##PEAK TABLE=(XY..XY)
26,9 27,419 28,29 29,496
31,477 39,152 41,61 42,9
43,53 51,61 53,20 55,105
57,348 63,143 65,113 74,7
75,35 76,70 77,372 78,203
79,132 87,17 89,280 90,72
91,346 92,28 93,8 94,87
101,16 102,136 103,151 104,17
105,246 106,31 107,976 108,66
113,34 114,40 115,1060 116,214
117,61 118,93 119,224 120,121
121,228 126,101 127,355 128,528
129,197 131,633 132,151 133,412
134,42 135,9 139,360 140,137
141,854 142,238 143,84 144,234
145,166 147,74 148,8 149,72
150,236 151,465 152,1780 153,1429
154,419 155,314 156,24 157,202
158,8 159,15 161,24 163,538
164,214 165,962 166,391 167,272
168,907 169,1048 170,361 171,269
172,8 175,8 176,37 177,195
178,272 179,241 180,269 181,3583
182,890 183,888 184,212 185,47
189,38 190,84 191,107 192,17
193,136 194,249 195,340 196,2683
197,4600 198,1419 199,1376 200,291
201,29 202,35 203,28 205,119
206,40 207,277 208,280 209,568
210,328 211,419 212,157 213,123
215,8 218,35 219,317 220,81
221,613 222,163 223,589 224,410
225,473 226,150 227,42 231,16
234,8 235,393 236,559 237,750
238,242 239,1052 240,237 241,21
249,47 251,98 252,9 253,1116
254,1251 255,1808 256,393 257,100
263,24 264,80 265,9 266,96
267,229 268,105 269,54 270,31
279,250 280,51 281,210 282,143
285,46 293,314 294,68 296,36
311,242 312,9999 313,2141 314,272
315,18
##END=
