##TITLE=4-Methylphenyl acetone
##JCAMP-DX=4.24
##DATA TYPE=MASS SPECTRUM
##ORIGIN=NIST Mass Spectrometry Data Center, 1994
##OWNER=NIST Mass Spectrometry Data Center
Collection (C) 2014 copyright by the U.S. Secretary of Commerce
on behalf of the United States of America. All rights reserved.
##CAS REGISTRY NO=2096-86-8
##$NIST MASS SPEC NO=134636
##MOLFORM=C10 H12 O
##MW=148
##$NIST SOURCE=MSDC
##XUNITS=M/Z
##YUNITS=RELATIVE INTENSITY
##XFACTOR=1
##YFACTOR=1
##FIRSTX=14
##LASTX=149
##FIRSTY=84
##MAXX=149
##MINX=14
##MAXY=9999
##MINY=10
##NPOINTS=53
##PEAK TABLE=(XY..XY)
14,84 15,361 26,61 27,559
28,121 29,40 32,10 37,26
38,104 39,785 40,82 41,132
42,10 43,4958 44,113 49,34
50,387 51,1005 52,323 53,331
61,44 62,168 63,506 64,128
65,344 66,51 73,22 74,106
75,110 76,22 77,2078 78,744
79,1723 80,125 86,33 87,40
89,167 91,615 92,50 98,23
101,30 102,177 103,1016 104,23
105,9999 106,2567 107,208 115,72
116,17 117,32 131,29 148,2094
149,216
##END=
