##TITLE=3-Benzyloxyphenylacetonitrile
##JCAMP-DX=4.24
##DATA TYPE=MASS SPECTRUM
##ORIGIN=NIST Mass Spectrometry Data Center, 1994
##OWNER=NIST Mass Spectrometry Data Center
Collection (C) 2014 copyright by the U.S. Secretary of Commerce
on behalf of the United States of America. All rights reserved.
##CAS REGISTRY NO=20967-96-8
##$NIST MASS SPEC NO=133946
##MOLFORM=C15 H13 N O
##MW=223
##$NIST SOURCE=MSDC
##XUNITS=M/Z
##YUNITS=RELATIVE INTENSITY
##XFACTOR=1
##YFACTOR=1
##FIRSTX=26
##LASTX=224
##FIRSTY=53
##MAXX=224
##MINX=26
##MAXY=9999
##MINY=6
##NPOINTS=62
##PEAK TABLE=(XY..XY)
26,53 27,144 28,26 29,25
37,59 38,226 39,1023 40,81
41,218 42,11 46,11 50,344
51,761 52,192 53,44 54,10
55,9 61,41 62,202 63,675
64,340 65,1799 66,119 73,9
74,66 75,93 76,184 77,749
78,194 79,22 82,6 86,22
87,24 89,412 91,9999 92,821
93,35 97,12 98,10 102,57
103,64 104,133 105,61 111,7
114,8 115,17 116,30 128,9
132,71 133,10 151,8 152,23
153,15 154,22 165,15 166,8
167,10 181,22 182,7 183,10
223,299 224,53
##END=
