##TITLE=Stannane, triethylmethyl-
##JCAMP-DX=4.24
##DATA TYPE=MASS SPECTRUM
##ORIGIN=M.GEILEN UNIVERSITE LIBRE DE BRUXELLES, BELGIUM
##OWNER=NIST Mass Spectrometry Data Center
Collection (C) 2014 copyright by the U.S. Secretary of Commerce
on behalf of the United States of America. All rights reserved.
##CAS REGISTRY NO=2097-60-1
##$NIST MASS SPEC NO=10530
##MOLFORM=C7 H18 Sn
##MW=222
##$NIST SOURCE=MSDC
##XUNITS=M/Z
##YUNITS=RELATIVE INTENSITY
##XFACTOR=1
##YFACTOR=1
##FIRSTX=14
##LASTX=226
##FIRSTY=40
##MAXX=226
##MINX=14
##MAXY=9999
##MINY=20
##NPOINTS=106
##PEAK TABLE=(XY..XY)
14,40 15,40 25,40 26,190
27,590 28,170 29,300 111,20
112,40 113,70 114,40 115,40
116,630 117,1330 118,1440 119,2070
120,1920 121,2370 122,220 123,370
124,260 125,440 127,110 129,190
130,190 131,1440 132,930 133,3630
134,1850 135,5500 136,1070 137,3950
138,70 139,1040 141,740 142,40
143,220 144,110 145,130 146,440
147,1660 148,670 149,2150 150,370
151,1200 152,40 153,370 154,40
155,190 156,40 157,300 158,40
159,220 160,260 161,4100 162,2500
163,6500 164,2800 165,8300 166,330
167,1260 168,110 169,1500 170,40
171,40 173,40 174,40 175,520
176,330 177,890 178,400 179,1140
180,40 181,190 182,40 183,220
185,330 187,220 188,110 189,4450
190,2600 191,7400 192,3150 193,9999
194,480 195,1400 196,70 197,1670
198,110 199,40 203,260 204,150
205,410 206,180 207,560 208,40
209,70 211,110 218,220 219,150
220,370 221,180 222,520 223,40
224,70 226,70
##END=
