##TITLE=2H-1,4-Benzodiazepin-2-one, 1,3-dihydro-7-chloro-5-(2-fluorophenyl)-1-(2-hydroxyethyl)-
##JCAMP-DX=4.24
##DATA TYPE=MASS SPECTRUM
##ORIGIN=Patti Price, Georgia Bureau of Investigation, Decatur, Georgia
##OWNER=NIST Mass Spectrometry Data Center
Collection (C) 2014 copyright by the U.S. Secretary of Commerce
on behalf of the United States of America. All rights reserved.
##CAS REGISTRY NO=20971-53-3
##$NIST MASS SPEC NO=247873
##MOLFORM=C17 H14 Cl F N2 O2
##MW=332
##$NIST SOURCE=MSDC
##XUNITS=M/Z
##YUNITS=RELATIVE INTENSITY
##XFACTOR=1
##YFACTOR=1
##FIRSTX=42
##LASTX=335
##FIRSTY=160
##MAXX=335
##MINX=42
##MAXY=9999
##MINY=10
##NPOINTS=221
##PEAK TABLE=(XY..XY)
42,160 43,350 44,80 45,350
50,130 51,210 52,80 57,90
62,140 63,390 64,80 65,80
68,80 69,80 70,80 73,140
74,250 75,1101 76,270 77,210
78,80 81,380 82,140 84,90
86,120 87,130 88,140 89,860
90,320 91,290 93,70 94,230
95,450 97,100 98,120 99,340
100,240 101,160 102,620 103,170
105,240 106,130 107,550 108,290
109,1641 110,310 111,560 112,220
113,200 114,170 115,120 116,240
117,980 118,290 120,110 121,160
122,220 123,470 124,250 125,600
126,220 127,320 128,80 129,90
131,220 132,140 133,260 134,380
135,250 136,430 137,490 138,480
139,280 140,210 141,60 142,110
143,100 144,270 145,130 146,70
149,160 150,530 151,390 152,1020
153,220 154,260 155,200 156,150
157,330 158,100 161,80 162,150
163,880 164,440 165,420 166,410
167,190 168,460 169,500 170,390
171,130 175,140 176,310 177,870
178,210 179,320 180,410 181,1020
182,1010 183,3012 184,670 185,110
188,90 189,120 190,520 191,310
192,130 193,100 194,140 195,570
196,430 197,270 198,150 199,180
201,70 202,90 203,130 204,120
205,150 206,130 207,10 208,770
209,580 210,1000 211,3022 212,520
213,110 214,130 215,60 216,110
217,470 218,390 219,280 220,90
221,100 222,190 223,510 224,310
225,320 226,190 227,70 231,150
232,220 233,120 234,190 235,120
236,190 237,370 238,320 239,510
240,230 241,230 242,110 243,70
244,240 245,2672 246,1201 247,1040
248,530 249,80 250,70 251,110
252,320 253,730 254,190 255,250
256,180 257,260 258,280 259,2171
260,1391 261,960 262,490 263,100
267,80 268,240 269,2051 270,520
271,980 272,250 273,6656 274,1661
275,2422 276,550 277,60 278,170
285,280 286,240 287,4754 288,9999
289,3142 290,3523 291,590 296,90
301,390 302,280 303,410 304,2372
305,660 306,860 307,190 312,80
313,1030 314,290 315,400 316,80
331,2712 332,1711 333,1151 334,640
335,110
##END=
