##TITLE=Ethyl 5-bromonicotinate
##JCAMP-DX=4.24
##DATA TYPE=MASS SPECTRUM
##ORIGIN=NIST Mass Spectrometry Data Center
##OWNER=NIST Mass Spectrometry Data Center
Collection (C) 2014 copyright by the U.S. Secretary of Commerce
on behalf of the United States of America. All rights reserved.
##CAS REGISTRY NO=20986-40-7
##$NIST MASS SPEC NO=342749
##MOLFORM=C8 H8 Br N O2
##MW=229
##$NIST SOURCE=MSDC
##XUNITS=M/Z
##YUNITS=RELATIVE INTENSITY
##XFACTOR=1
##YFACTOR=1
##FIRSTX=13
##LASTX=233
##FIRSTY=60
##MAXX=233
##MINX=13
##MAXY=9999
##MINY=20
##NPOINTS=101
##PEAK TABLE=(XY..XY)
13,60 14,360 15,891 16,130
17,60 18,100 19,40 25,160
26,1201 27,4004 28,2132 29,6526
30,731 31,120 32,210 36,50
37,460 38,861 39,400 40,90
41,80 42,190 43,731 45,2943
46,80 49,1952 50,9999 51,1722
52,450 53,681 54,30 61,60
62,90 63,90 64,70 65,80
66,220 67,100 75,1211 76,4594
77,2332 78,841 79,310 80,60
81,140 82,40 91,70 92,70
93,80 94,280 95,30 104,530
105,561 106,480 107,140 108,200
116,20 117,80 118,30 119,80
122,180 123,20 127,30 128,310
129,1601 130,410 131,1411 132,150
144,20 145,40 146,20 147,40
150,721 151,70 156,5585 157,1491
158,5585 159,1021 160,80 172,80
173,40 174,80 175,40 183,1912
184,8107 185,2813 186,8197 187,931
188,100 201,8217 203,8358 204,651
205,40 210,20 212,40 228,971
229,4134 230,1311 231,3573 232,360
233,30
##END=
