##TITLE=5.alpha.-Cholestan-3.alpha.-ol, 4.alpha.-methyl-, acetate
##JCAMP-DX=4.24
##DATA TYPE=MASS SPECTRUM
##ORIGIN=CARL DJERASSI DEPT OF CHEM STANFORD UNIV STANFORD CALIF 94305
##OWNER=NIST Mass Spectrometry Data Center
Collection (C) 2014 copyright by the U.S. Secretary of Commerce
on behalf of the United States of America. All rights reserved.
##CAS REGISTRY NO=20997-65-3
##$NIST MASS SPEC NO=49038
##MOLFORM=C30 H52 O2
##MW=444
##$NIST SOURCE=MSDC
##XUNITS=M/Z
##YUNITS=RELATIVE INTENSITY
##XFACTOR=1
##YFACTOR=1
##FIRSTX=41
##LASTX=446
##FIRSTY=2600
##MAXX=446
##MINX=41
##MAXY=9999
##MINY=100
##NPOINTS=115
##PEAK TABLE=(XY..XY)
41,2600 42,400 43,3200 44,300
45,1000 46,100 51,200 52,100
54,2500 55,600 56,2900 58,100
59,200 60,100 67,900 68,300
69,2400 70,500 71,1400 72,200
73,200 77,200 78,900 79,600
80,100 81,1600 82,1400 91,300
93,800 94,100 95,1600 96,200
97,900 101,200 105,500 106,200
107,800 108,300 109,1000 110,200
111,500 112,200 113,100 117,400
118,600 119,500 120,600 121,700
122,400 123,600 124,100 125,200
133,300 134,100 135,500 136,100
137,200 147,600 148,200 149,400
151,100 159,100 161,500 162,200
163,200 173,200 174,100 175,400
176,200 177,200 187,100 189,200
191,100 193,100 201,200 202,100
203,200 215,400 221,100 229,1600
230,900 231,700 244,600 245,200
247,100 256,100 257,100 260,100
261,100 262,100 271,200 274,100
275,100 279,100 289,500 290,500
291,100 299,100 315,100 316,200
343,400 344,100 355,500 356,100
369,2600 370,700 371,100 384,9999
385,3100 386,500 429,400 430,100
444,2300 445,700 446,100
##END=
