##TITLE=Benzene, 2-chloro-1,4-dimethoxy-
##JCAMP-DX=4.24
##DATA TYPE=MASS SPECTRUM
##ORIGIN=NIST Mass Spectrometry Data Center
##OWNER=NIST Mass Spectrometry Data Center
Collection (C) 2014 copyright by the U.S. Secretary of Commerce
on behalf of the United States of America. All rights reserved.
##CAS REGISTRY NO=2100-42-7
##$NIST MASS SPEC NO=352904
##MOLFORM=C8 H9 Cl O2
##MW=172
##$NIST SOURCE=MSDC
##XUNITS=M/Z
##YUNITS=RELATIVE INTENSITY
##XFACTOR=1
##YFACTOR=1
##FIRSTX=14
##LASTX=176
##FIRSTY=40
##MAXX=176
##MINX=14
##MAXY=9999
##MINY=10
##NPOINTS=115
##PEAK TABLE=(XY..XY)
14,40 15,540 16,10 18,10
25,20 26,120 27,40 28,70
29,180 30,40 31,20 35,10
36,20 37,100 38,130 39,240
40,20 41,70 42,10 43,30
47,10 48,10 49,80 50,330
51,711 52,70 53,761 54,220
55,30 56,10 59,10 60,180
61,270 62,621 63,1461 64,290
65,1221 66,190 67,20 68,10
69,70 71,10 72,110 73,210
74,300 75,400 76,80 77,571
78,90 79,1742 80,100 81,10
82,90 83,10 84,60 85,140
86,320 87,150 88,220 89,80
90,50 91,50 92,300 93,110
94,60 95,10 96,30 97,130
98,310 99,230 100,120 101,70
102,10 103,40 105,20 107,1331
108,140 109,30 110,20 111,140
112,30 113,200 114,450 115,80
116,150 117,10 121,20 122,100
123,10 126,410 127,60 128,190
129,2352 130,160 131,781 132,50
135,10 136,10 139,10 141,100
142,50 143,60 144,20 145,10
157,9999 158,851 159,3503 160,270
161,20 169,20 172,5915 173,530
174,1962 175,170 176,10
##END=
