##TITLE=Benzene, 1-azido-4-bromo-
##JCAMP-DX=4.24
##DATA TYPE=MASS SPECTRUM
##ORIGIN=MINISTRY OF DEFENCE ERDE, WALTHAM ABBEY, ESSEX, UK
##OWNER=NIST Mass Spectrometry Data Center
Collection (C) 2014 copyright by the U.S. Secretary of Commerce
on behalf of the United States of America. All rights reserved.
##CAS REGISTRY NO=2101-88-4
##$NIST MASS SPEC NO=39086
##MOLFORM=C6 H4 Br N3
##MW=197
##$NIST SOURCE=MSDC
##XUNITS=M/Z
##YUNITS=RELATIVE INTENSITY
##XFACTOR=1
##YFACTOR=1
##FIRSTX=14
##LASTX=200
##FIRSTY=100
##MAXX=200
##MINX=14
##MAXY=9999
##MINY=100
##NPOINTS=48
##PEAK TABLE=(XY..XY)
14,100 25,100 26,700 27,500
28,1100 36,500 37,2800 38,3300
39,5000 40,400 44,200 45,900
49,600 50,2400 51,900 52,600
60,200 61,2300 62,8200 64,3000
65,300 73,300 74,700 75,600
76,400 77,100 79,300 80,400
81,300 82,400 86,100 87,300
88,500 89,400 90,9999 91,900
92,100 117,200 118,100 119,200
169,5100 170,500 171,5000 172,500
197,1500 198,100 199,1400 200,100
##END=
