##TITLE=Benzene, 1-azido-4-methyl-
##JCAMP-DX=4.24
##DATA TYPE=MASS SPECTRUM
##ORIGIN=TEXAS A&M UNIVERSITY, COLLEGE STATION, TEXAS, USA
##OWNER=NIST Mass Spectrometry Data Center
Collection (C) 2014 copyright by the U.S. Secretary of Commerce
on behalf of the United States of America. All rights reserved.
##CAS REGISTRY NO=2101-86-2
##$NIST MASS SPEC NO=27399
##MOLFORM=C7 H7 N3
##MW=133
##$NIST SOURCE=MSDC
##XUNITS=M/Z
##YUNITS=RELATIVE INTENSITY
##XFACTOR=1
##YFACTOR=1
##FIRSTX=26
##LASTX=134
##FIRSTY=632
##MAXX=134
##MINX=26
##MAXY=9999
##MINY=158
##NPOINTS=39
##PEAK TABLE=(XY..XY)
26,632 27,1105 28,1368 37,579
38,947 39,2474 40,211 41,632
49,421 50,2105 51,2842 52,2947
53,632 54,211 61,421 62,737
63,1526 64,737 65,2263 66,368
69,684 74,368 75,579 76,632
77,2737 78,5789 79,1211 90,526
91,737 103,368 104,5789 105,9999
106,1632 107,632 119,263 120,158
131,211 133,3684 134,316
##END=
