##TITLE=Hydroxylamine, 3TMS derivative
##JCAMP-DX=4.24
##DATA TYPE=MASS SPECTRUM
##ORIGIN=NIST Mass Spectrometry Data Center, 2008
##OWNER=NIST Mass Spectrometry Data Center
Collection (C) 2014 copyright by the U.S. Secretary of Commerce
on behalf of the United States of America. All rights reserved.
##CAS REGISTRY NO=21023-20-1
##$NIST MASS SPEC NO=366588
##MOLFORM=C9 H27 N O Si3
##MW=249
##$NIST SOURCE=MSDC
##XUNITS=M/Z
##YUNITS=RELATIVE INTENSITY
##XFACTOR=1
##YFACTOR=1
##FIRSTX=15
##LASTX=253
##FIRSTY=30
##MAXX=253
##MINX=15
##MAXY=9999
##MINY=10
##NPOINTS=122
##PEAK TABLE=(XY..XY)
15,30 27,20 28,10 29,50
30,10 31,80 42,30 43,280
44,110 45,1111 46,80 47,90
52,10 53,10 55,40 56,50
57,90 58,340 59,1651 60,160
61,80 64,10 65,30 69,10
70,170 71,80 72,741 73,9999
74,951 75,550 76,30 77,10
79,30 80,10 83,10 84,40
85,120 86,1571 87,460 88,450
89,80 90,20 91,10 94,110
98,10 99,110 100,1251 101,220
102,280 103,180 104,60 105,80
106,10 107,10 110,10 111,10
112,10 113,300 114,320 115,280
116,370 117,510 118,160 119,4854
120,671 121,370 122,30 123,10
127,30 128,40 129,100 130,2672
131,1111 132,611 133,9989 134,1491
135,771 136,70 137,20 142,20
143,20 144,100 146,5615 147,3924
148,911 149,280 150,30 151,10
158,60 159,20 160,210 161,470
162,120 163,40 164,10 171,60
172,40 173,30 174,50 175,20
176,20 177,20 187,50 188,160
189,50 190,50 191,70 192,20
193,10 204,210 205,190 206,60
207,20 218,10 234,90 235,20
236,10 249,2692 250,701 251,350
252,60 253,10
##END=
