##TITLE=Methanimidamide, N'-(4-chlorophenyl)-N,N-dimethyl-
##JCAMP-DX=4.24
##DATA TYPE=MASS SPECTRUM
##ORIGIN=H.F.GRUTZMACHER HAMBURG UNIVERSITY, HAMBURG, F.R.G
##OWNER=NIST Mass Spectrometry Data Center
Collection (C) 2014 copyright by the U.S. Secretary of Commerce
on behalf of the United States of America. All rights reserved.
##CAS REGISTRY NO=2103-46-0
##$NIST MASS SPEC NO=26227
##MOLFORM=C9 H11 Cl N2
##MW=182
##$NIST SOURCE=MSDC
##XUNITS=M/Z
##YUNITS=RELATIVE INTENSITY
##XFACTOR=1
##YFACTOR=1
##FIRSTX=28
##LASTX=185
##FIRSTY=140
##MAXX=185
##MINX=28
##MAXY=9999
##MINY=50
##NPOINTS=64
##PEAK TABLE=(XY..XY)
28,140 30,530 39,60 41,70
42,640 45,500 50,230 51,170
57,240 58,230 63,70 64,50
73,1010 74,110 75,710 76,190
77,170 85,80 90,110 91,290
92,110 99,60 102,70 104,70
105,50 106,60 111,1790 112,200
113,650 114,60 125,290 126,50
127,140 128,190 131,100 132,90
136,50 138,1530 139,300 140,2300
141,250 142,640 143,60 146,60
152,60 153,80 154,780 155,100
156,260 163,60 165,100 166,220
167,2310 168,290 169,770 170,70
177,130 178,350 179,50 181,2860
182,9999 183,1910 184,3200 185,360
##END=
