##TITLE=2-Propen-1-ol, 3-phenyl-, acetate, (E)-
##JCAMP-DX=4.24
##DATA TYPE=MASS SPECTRUM
##ORIGIN=Japan AIST/NIMC Database- Spectrum MS-NW-3828
##OWNER=NIST Mass Spectrometry Data Center
Collection (C) 2014 copyright by the U.S. Secretary of Commerce
on behalf of the United States of America. All rights reserved.
##CAS REGISTRY NO=21040-45-9
##$NIST MASS SPEC NO=232452
##MOLFORM=C11 H12 O2
##MW=176
##$NIST SOURCE=MSDC
##XUNITS=M/Z
##YUNITS=RELATIVE INTENSITY
##XFACTOR=1
##YFACTOR=1
##FIRSTX=13
##LASTX=178
##FIRSTY=10
##MAXX=178
##MINX=13
##MAXY=9999
##MINY=10
##NPOINTS=99
##PEAK TABLE=(XY..XY)
13,10 14,90 15,459 16,10
17,10 18,30 26,40 27,289
28,149 29,119 31,30 32,10
37,30 38,99 39,659 40,50
41,99 42,99 43,9999 44,229
45,40 49,20 50,309 51,789
52,189 53,70 54,10 55,299
56,70 57,229 58,60 59,10
60,20 61,50 62,149 63,399
64,80 65,349 66,30 69,10
73,20 74,129 75,129 76,149
77,1109 78,859 79,559 80,40
81,10 83,10 85,20 86,40
87,60 88,50 89,289 90,90
91,1349 92,2369 93,189 94,10
98,10 100,10 101,50 102,269
103,609 104,259 105,2869 106,429
107,80 108,10 111,10 113,30
114,90 115,5069 116,3429 117,2779
118,339 119,40 120,10 128,10
129,20 130,20 131,239 132,90
133,2709 134,3759 135,359 136,30
141,10 142,10 143,10 145,10
147,90 148,99 149,30 150,10
176,2219 177,289 178,30
##END=
