##TITLE=Thiazole, 2-amino-4-(p-methoxyphenyl)-
##JCAMP-DX=4.24
##DATA TYPE=MASS SPECTRUM
##ORIGIN=A.A.Kutin, Moscow, Russia
##OWNER=NIST Mass Spectrometry Data Center
Collection (C) 2014 copyright by the U.S. Secretary of Commerce
on behalf of the United States of America. All rights reserved.
##CAS REGISTRY NO=2104-04-3
##$NIST MASS SPEC NO=261979
##MOLFORM=C10 H10 N2 O S
##MW=206
##$NIST SOURCE=MSDC
##XUNITS=M/Z
##YUNITS=RELATIVE INTENSITY
##XFACTOR=1
##YFACTOR=1
##FIRSTX=33
##LASTX=209
##FIRSTY=595
##MAXX=209
##MINX=33
##MAXY=9999
##MINY=3
##NPOINTS=133
##PEAK TABLE=(XY..XY)
33,595 34,80 35,23 37,981
38,2030 39,3112 40,668 41,819
42,3622 43,5716 45,9999 47,1009
49,526 50,2920 51,3019 52,743
53,1028 54,199 55,223 56,112
57,727 58,339 59,335 60,1431
61,779 62,2188 63,3993 64,1681
65,690 66,302 67,173 69,2210
70,577 71,583 72,197 73,368
74,1449 75,1307 76,1585 77,4370
78,475 79,245 81,740 82,668
83,119 84,90 85,272 86,328
87,436 88,350 89,1452 90,913
91,875 92,644 93,1693 94,861
95,816 96,162 97,92 98,132
99,80 100,39 101,80 102,320
103,572 104,328 105,230 106,193
107,125 108,196 109,172 110,39
112,17 114,49 115,82 116,83
117,221 118,192 119,607 120,825
121,4221 122,462 123,229 124,68
126,3 127,29 128,53 129,58
130,60 131,79 132,190 133,244
134,755 135,384 136,443 137,70
139,19 141,5 142,5 143,3
145,7 146,231 147,155 148,330
149,2729 150,393 151,217 152,33
159,17 160,7 161,88 163,766
164,707 165,76 166,39 167,7
173,6 174,50 175,59 176,6
178,12 179,11 181,8 189,48
191,1343 192,117 193,56 203,44
204,81 206,3276 207,346 208,160
209,12
##END=
