##TITLE=Methyl 2-isothiocyanato-4-(methylthio)butyrate
##JCAMP-DX=4.24
##DATA TYPE=MASS SPECTRUM
##ORIGIN=NIST Mass Spectrometry Data Center, 1994
##OWNER=NIST Mass Spectrometry Data Center
Collection (C) 2014 copyright by the U.S. Secretary of Commerce
on behalf of the United States of America. All rights reserved.
##CAS REGISTRY NO=21055-47-0
##$NIST MASS SPEC NO=134552
##MOLFORM=C7 H11 N O2 S2
##MW=205
##$NIST SOURCE=MSDC
##XUNITS=M/Z
##YUNITS=RELATIVE INTENSITY
##XFACTOR=1
##YFACTOR=1
##FIRSTX=14
##LASTX=207
##FIRSTY=131
##MAXX=207
##MINX=14
##MAXY=9999
##MINY=39
##NPOINTS=102
##PEAK TABLE=(XY..XY)
14,131 15,2484 16,47 18,39
26,236 27,2033 28,558 29,549
30,118 31,115 32,134 33,70
34,39 35,1147 37,130 38,292
39,2169 40,440 41,2328 42,419
43,145 44,461 45,2739 46,1104
47,1623 48,229 49,288 51,61
52,75 53,167 54,370 55,634
56,166 57,158 58,837 59,2372
60,61 61,9999 62,956 63,502
64,56 66,41 67,227 68,255
69,282 70,429 71,1101 72,1234
73,277 74,784 75,1723 76,193
77,99 80,39 82,45 83,134
84,898 85,663 86,282 87,848
88,207 89,69 90,186 91,73
97,751 98,1789 99,2334 100,2954
101,314 102,445 103,392 104,120
105,61 112,961 113,69 114,494
115,51 116,97 117,60 125,599
126,279 127,183 128,64 129,51
130,677 131,713 132,91 142,80
144,835 145,443 146,419 147,57
157,209 159,6413 160,479 161,342
173,609 174,75 175,68 205,626
206,58 207,57
##END=
