##TITLE=5-Hexadecanol
##JCAMP-DX=4.24
##DATA TYPE=MASS SPECTRUM
##ORIGIN=NIST Mass Spectrometry Data Center, 1994
##OWNER=NIST Mass Spectrometry Data Center
Collection (C) 2014 copyright by the U.S. Secretary of Commerce
on behalf of the United States of America. All rights reserved.
##CAS REGISTRY NO=21078-87-5
##$NIST MASS SPEC NO=136464
##MOLFORM=C16 H34 O
##MW=242
##$NIST SOURCE=MSDC
##XUNITS=M/Z
##YUNITS=RELATIVE INTENSITY
##XFACTOR=1
##YFACTOR=1
##FIRSTX=15
##LASTX=225
##FIRSTY=44
##MAXX=225
##MINX=15
##MAXY=9999
##MINY=22
##NPOINTS=73
##PEAK TABLE=(XY..XY)
15,44 17,22 18,59 19,53
27,1695 28,566 29,4025 30,129
31,533 32,69 39,1002 41,7096
42,1242 43,5340 44,774 45,658
46,27 51,39 52,27 53,307
54,387 55,3981 56,952 57,3927
58,789 59,31 65,59 66,57
67,662 68,27 69,9999 70,989
71,1093 72,128 77,36 79,78
80,33 81,335 82,334 83,2425
84,308 85,936 86,849 87,5451
88,328 89,22 95,228 96,219
97,2588 98,304 99,89 100,114
101,97 109,98 110,119 111,1542
112,225 113,93 123,32 124,66
125,354 126,70 127,37 138,60
139,62 140,41 154,29 167,25
183,90 185,882 186,118 224,103
225,25
##END=
