##TITLE=Cyclohexane, 1,1-dichloro-
##JCAMP-DX=4.24
##DATA TYPE=MASS SPECTRUM
##ORIGIN=A.CAMBON LAB. OF STRUCTURAL CHEM., UNIV. OF NICE, NICE, FRANCE
##OWNER=NIST Mass Spectrometry Data Center
Collection (C) 2014 copyright by the U.S. Secretary of Commerce
on behalf of the United States of America. All rights reserved.
##CAS REGISTRY NO=2108-92-1
##$NIST MASS SPEC NO=4925
##MOLFORM=C6 H10 Cl2
##MW=152
##$NIST SOURCE=MSDC
##XUNITS=M/Z
##YUNITS=RELATIVE INTENSITY
##XFACTOR=1
##YFACTOR=1
##FIRSTX=28
##LASTX=119
##FIRSTY=400
##MAXX=119
##MINX=28
##MAXY=9999
##MINY=200
##NPOINTS=18
##PEAK TABLE=(XY..XY)
28,400 29,200 39,1600 41,5200
53,900 54,700 55,700 56,700
65,700 80,900 81,9999 82,1400
88,700 90,200 116,700 117,3000
118,700 119,1100
##END=
