##TITLE=3-Hepten-1-ol, (E)-
##JCAMP-DX=4.24
##DATA TYPE=MASS SPECTRUM
##ORIGIN=NIST Mass Spectrometry Data Center, 1990.
##OWNER=NIST Mass Spectrometry Data Center
Collection (C) 2014 copyright by the U.S. Secretary of Commerce
on behalf of the United States of America. All rights reserved.
##CAS REGISTRY NO=2108-05-6
##$NIST MASS SPEC NO=113241
##MOLFORM=C7 H14 O
##MW=114
##$NIST SOURCE=MSDC
##XUNITS=M/Z
##YUNITS=RELATIVE INTENSITY
##XFACTOR=1
##YFACTOR=1
##FIRSTX=14
##LASTX=114
##FIRSTY=129
##MAXX=114
##MINX=14
##MAXY=9999
##MINY=44
##NPOINTS=45
##PEAK TABLE=(XY..XY)
14,129 26,222 27,1663 28,583
29,1525 30,126 31,1742 32,44
38,286 39,2912 40,667 41,5105
42,1356 43,1233 44,494 45,130
50,269 51,470 52,274 53,1324
54,2549 55,9999 56,1650 57,1253
58,140 63,111 65,427 66,299
67,2655 68,1820 69,1062 70,409
71,327 77,186 79,627 81,5959
82,511 83,697 84,251 85,127
86,277 95,289 96,2057 97,195
114,258
##END=
