##TITLE=1,2,4-Oxadiazol-3(2H)-one, 5-phenyl-
##JCAMP-DX=4.24
##DATA TYPE=MASS SPECTRUM
##ORIGIN=A. SHOEB
##OWNER=NIST Mass Spectrometry Data Center
Collection (C) 2014 copyright by the U.S. Secretary of Commerce
on behalf of the United States of America. All rights reserved.
##CAS REGISTRY NO=21084-84-4
##$NIST MASS SPEC NO=42138
##MOLFORM=C8 H6 N2 O2
##MW=162
##$NIST SOURCE=MSDC
##XUNITS=M/Z
##YUNITS=RELATIVE INTENSITY
##XFACTOR=1
##YFACTOR=1
##FIRSTX=51
##LASTX=162
##FIRSTY=3000
##MAXX=162
##MINX=51
##MAXY=9999
##MINY=900
##NPOINTS=8
##PEAK TABLE=(XY..XY)
51,3000 77,6000 91,900 103,4000
104,9999 105,4300 119,2600 162,9800
##END=
