##TITLE=Metribuzin
##JCAMP-DX=4.24
##DATA TYPE=MASS SPECTRUM
##ORIGIN=ACCUSTANDARD Chemicals / NIST MS Data Center.
##OWNER=NIST Mass Spectrometry Data Center
Collection (C) 2014 copyright by the U.S. Secretary of Commerce
on behalf of the United States of America. All rights reserved.
##CAS REGISTRY NO=21087-64-9
##$NIST MASS SPEC NO=125494
##MOLFORM=C8 H14 N4 O S
##MW=214
##$NIST SOURCE=MSDC
##XUNITS=M/Z
##YUNITS=RELATIVE INTENSITY
##XFACTOR=1
##YFACTOR=1
##FIRSTX=15
##LASTX=216
##FIRSTY=407
##MAXX=216
##MINX=15
##MAXY=9999
##MINY=13
##NPOINTS=151
##PEAK TABLE=(XY..XY)
15,407 17,29 18,41 26,99
27,930 28,618 29,1168 30,495
31,106 32,29 37,57 38,191
39,1362 40,268 41,2700 42,515
43,1451 44,116 45,708 46,573
47,1563 48,536 49,151 50,137
51,188 52,203 53,456 54,210
55,410 56,463 57,2164 58,340
59,241 60,116 61,1472 62,161
63,126 64,55 65,45 66,168
67,702 68,500 69,853 70,101
71,38 72,164 73,371 74,1534
75,111 76,92 77,29 78,16
79,24 80,65 81,217 82,1220
83,225 84,308 85,76 86,97
87,101 88,760 89,827 90,74
91,51 93,17 94,57 95,107
96,230 97,260 98,72 99,49
100,16 101,62 102,16 103,1475
104,147 105,85 106,20 107,53
108,156 109,101 110,492 111,178
112,52 113,50 114,146 115,529
116,127 117,67 121,20 122,52
123,35 124,70 125,77 126,113
127,87 128,186 129,54 130,63
131,17 134,13 135,34 136,67
137,36 138,17 139,30 140,26
141,57 142,40 143,13 144,1405
145,87 146,71 148,13 149,18
150,95 151,169 152,100 153,251
154,264 155,93 156,52 157,93
158,30 159,20 163,28 164,84
165,16 166,22 167,24 168,53
169,42 170,169 171,827 172,174
173,56 182,783 183,125 184,204
185,257 186,61 187,19 196,172
198,9999 199,1902 200,568 201,114
214,399 215,60 216,28
##END=
