##TITLE=2(1H)-Naphthalenone, octahydro-1-methyl-, (1.alpha.,4a.beta.,8a.alpha.)-
##JCAMP-DX=4.24
##DATA TYPE=MASS SPECTRUM
##ORIGIN=CARL DJERASSI DEPT OF CHEM STANFORD UNIV STANFORD CALIF 94305
##OWNER=NIST Mass Spectrometry Data Center
Collection (C) 2014 copyright by the U.S. Secretary of Commerce
on behalf of the United States of America. All rights reserved.
##CAS REGISTRY NO=21102-88-5
##$NIST MASS SPEC NO=46938
##MOLFORM=C11 H18 O
##MW=166
##$NIST SOURCE=MSDC
##XUNITS=M/Z
##YUNITS=RELATIVE INTENSITY
##XFACTOR=1
##YFACTOR=1
##FIRSTX=38
##LASTX=167
##FIRSTY=200
##MAXX=167
##MINX=38
##MAXY=9999
##MINY=100
##NPOINTS=67
##PEAK TABLE=(XY..XY)
38,200 39,5900 40,1300 41,9999
42,2200 43,3200 44,200 45,300
50,300 51,900 52,600 53,3300
54,2400 55,7700 56,1000 57,900
63,100 65,1000 66,600 67,7300
68,2600 69,4800 70,800 71,500
72,100 73,100 77,1000 78,300
79,2300 80,800 81,5800 82,1900
83,1000 84,400 85,100 91,900
92,200 93,2000 94,2600 95,5900
96,2600 97,900 98,200 105,200
106,300 107,1100 108,1600 109,3300
110,2200 111,900 119,1000 120,300
121,100 122,4100 123,1200 124,600
125,300 133,500 137,1600 138,1900
139,200 148,900 149,100 151,300
152,100 166,4300 167,600
##END=
