##TITLE=1-Cyclohexene-1-carboxaldehyde, 4-(1-methylethenyl)-
##JCAMP-DX=4.24
##DATA TYPE=MASS SPECTRUM
##OWNER=NIST Mass Spectrometry Data Center
Collection (C) 2014 copyright by the U.S. Secretary of Commerce
on behalf of the United States of America. All rights reserved.
##CAS REGISTRY NO=2111-75-3
##$NIST MASS SPEC NO=4623
##MOLFORM=C10 H14 O
##MW=150
##$NIST SOURCE=MSDC
##XUNITS=M/Z
##YUNITS=RELATIVE INTENSITY
##XFACTOR=1
##YFACTOR=1
##FIRSTX=14
##LASTX=151
##FIRSTY=50
##MAXX=151
##MINX=14
##MAXY=9999
##MINY=50
##NPOINTS=88
##PEAK TABLE=(XY..XY)
14,50 15,110 16,50 18,190
26,160 27,3113 28,1151 29,1842
31,110 37,70 38,310 39,4764
40,1351 41,4224 42,611 43,931
44,60 45,60 50,611 51,1802
52,961 53,4564 54,611 55,1531
56,150 57,130 58,150 59,190
60,60 61,70 62,160 63,490
64,120 65,1281 66,1762 67,5425
68,9999 69,941 70,100 71,70
74,120 75,170 76,130 77,3673
78,1071 79,6005 80,1371 81,1722
82,440 83,190 89,150 90,140
91,3023 92,1031 93,3513 94,1511
95,1832 96,230 102,50 103,310
104,240 105,1722 106,1792 107,4384
108,2062 109,841 110,70 115,300
116,70 117,921 118,130 119,470
120,130 121,2222 122,2833 123,290
131,150 132,450 133,310 134,80
135,2252 136,190 145,170 146,130
148,170 149,110 150,3283 151,290
##END=
