##TITLE=1,1'-Biphenyl, 2-iodo-
##JCAMP-DX=4.24
##DATA TYPE=MASS SPECTRUM
##ORIGIN=RADIAN CORP
##OWNER=NIST Mass Spectrometry Data Center
Collection (C) 2014 copyright by the U.S. Secretary of Commerce
on behalf of the United States of America. All rights reserved.
##CAS REGISTRY NO=2113-51-1
##$NIST MASS SPEC NO=73172
##MOLFORM=C12 H9 I
##MW=280
##$NIST SOURCE=MSDC
##XUNITS=M/Z
##YUNITS=RELATIVE INTENSITY
##XFACTOR=1
##YFACTOR=1
##FIRSTX=27
##LASTX=282
##FIRSTY=40
##MAXX=282
##MINX=27
##MAXY=9999
##MINY=10
##NPOINTS=53
##PEAK TABLE=(XY..XY)
27,40 38,40 39,120 50,200
51,200 52,40 61,40 62,140
63,280 64,10 73,30 74,340
75,360 76,620 77,180 78,30
85,40 86,140 87,180 88,60
89,40 97,10 98,170 99,120
100,70 101,120 102,120 103,20
110,40 111,40 113,70 114,20
115,10 122,40 123,10 125,90
126,550 127,820 128,110 140,310
149,50 150,630 151,1840 152,6200
153,3650 154,450 155,30 184,20
188,20 216,20 280,9999 281,1310
282,80
##END=
