##TITLE=Lycoramine
##JCAMP-DX=4.24
##DATA TYPE=MASS SPECTRUM
##ORIGIN=NIST Mass Spectrometry Data Center
##OWNER=NIST Mass Spectrometry Data Center
Collection (C) 2014 copyright by the U.S. Secretary of Commerce
on behalf of the United States of America. All rights reserved.
##CAS REGISTRY NO=21133-52-8
##$NIST MASS SPEC NO=413484
##MOLFORM=C17 H23 N O3
##MW=289
##$NIST SOURCE=MSDC
##XUNITS=M/Z
##YUNITS=RELATIVE INTENSITY
##XFACTOR=1
##YFACTOR=1
##FIRSTX=27
##LASTX=292
##FIRSTY=40
##MAXX=292
##MINX=27
##MAXY=9999
##MINY=10
##NPOINTS=222
##PEAK TABLE=(XY..XY)
27,40 28,20 29,80 30,20
31,40 39,110 40,20 41,140
42,480 43,220 44,721 45,40
46,10 50,30 51,140 52,60
53,130 54,30 55,310 56,60
57,230 58,150 59,40 62,20
63,160 64,80 65,280 66,80
67,130 68,30 69,40 70,120
71,60 72,40 73,20 74,30
75,60 76,90 77,611 78,200
79,230 80,60 81,80 82,40
83,60 84,30 85,30 87,70
88,30 89,190 90,90 91,601
92,130 93,110 94,130 95,70
96,40 97,20 98,30 100,100
101,120 102,260 103,591 104,160
105,240 106,100 107,210 108,140
109,80 110,20 111,10 112,10
113,50 115,1872 116,470 117,380
118,180 119,130 120,90 121,140
122,100 123,70 124,20 125,10
126,60 127,520 128,971 129,701
130,240 131,641 132,240 133,110
134,200 135,160 136,100 137,200
138,50 139,90 140,60 141,430
142,180 143,360 144,490 145,430
146,270 147,230 148,130 149,90
150,320 151,160 152,220 153,270
154,120 155,210 156,180 157,520
158,320 159,781 160,480 161,601
162,220 163,130 164,130 165,210
166,180 167,240 168,120 169,250
170,180 171,310 172,360 173,571
174,821 175,751 176,300 177,130
178,220 179,110 180,50 181,290
182,130 183,150 184,140 185,490
186,370 187,1221 188,991 189,961
190,360 191,80 192,20 193,20
194,30 195,280 196,180 197,200
198,180 199,330 200,350 201,440
202,1391 203,370 204,450 205,80
206,10 208,20 209,40 210,50
211,150 212,120 213,941 214,741
215,320 216,631 217,250 218,190
219,30 220,10 222,10 224,10
225,30 226,60 227,220 228,350
229,190 230,240 231,350 232,1001
233,410 234,60 238,10 240,30
241,20 242,50 243,30 244,160
245,160 246,260 247,100 248,20
252,10 254,30 256,50 257,20
258,320 259,60 260,230 261,250
262,40 270,80 271,30 272,100
273,60 274,290 275,60 276,10
286,30 288,9999 289,5875 290,981
291,110 292,10
##END=
