##TITLE=.alpha.,para-Dichloroanisole
##JCAMP-DX=4.24
##DATA TYPE=MASS SPECTRUM
##ORIGIN=Japan AIST/NIMC Database- Spectrum MS-IW-2394
##OWNER=NIST Mass Spectrometry Data Center
Collection (C) 2014 copyright by the U.S. Secretary of Commerce
on behalf of the United States of America. All rights reserved.
##CAS REGISTRY NO=21151-56-4
##$NIST MASS SPEC NO=238985
##MOLFORM=C7 H6 Cl2 O
##MW=176
##$NIST SOURCE=MSDC
##XUNITS=M/Z
##YUNITS=RELATIVE INTENSITY
##XFACTOR=1
##YFACTOR=1
##FIRSTX=14
##LASTX=181
##FIRSTY=20
##MAXX=181
##MINX=14
##MAXY=9999
##MINY=10
##NPOINTS=103
##PEAK TABLE=(XY..XY)
14,20 26,40 27,40 28,70
29,90 30,20 31,30 35,40
36,149 37,219 38,399 39,289
40,10 41,10 47,70 48,40
49,669 50,1239 51,659 52,40
53,90 55,20 56,50 57,10
60,60 61,279 62,369 63,1009
64,429 65,159 66,20 70,309
71,99 72,119 73,1069 74,879
75,2739 76,519 77,839 78,119
79,20 83,40 84,109 85,349
86,50 87,109 88,10 89,20
91,10 92,199 93,30 97,30
98,60 99,4229 100,299 101,1359
102,90 105,40 106,20 108,20
109,50 110,70 111,3749 112,379
113,2519 114,199 115,449 116,30
126,80 127,6089 128,979 129,2029
130,309 131,20 133,50 135,40
139,50 140,40 141,9999 142,859
143,3299 144,279 145,40 146,119
147,30 148,80 149,10 150,10
155,10 156,60 158,20 161,99
162,10 163,60 164,10 165,10
175,119 176,6639 177,589 178,4279
179,339 180,699 181,50
##END=
