##TITLE=Hydroquinone, 2TMS derivative
##JCAMP-DX=4.24
##DATA TYPE=MASS SPECTRUM
##ORIGIN=NIST Mass Spectrometry Data Center
##OWNER=NIST Mass Spectrometry Data Center
Collection (C) 2014 copyright by the U.S. Secretary of Commerce
on behalf of the United States of America. All rights reserved.
##CAS REGISTRY NO=2117-24-0
##$NIST MASS SPEC NO=352776
##MOLFORM=C12 H22 O2 Si2
##MW=254
##$NIST SOURCE=MSDC
##XUNITS=M/Z
##YUNITS=RELATIVE INTENSITY
##XFACTOR=1
##YFACTOR=1
##FIRSTX=15
##LASTX=258
##FIRSTY=10
##MAXX=258
##MINX=15
##MAXY=9999
##MINY=10
##NPOINTS=167
##PEAK TABLE=(XY..XY)
15,10 27,10 29,40 31,10
39,20 42,20 43,270 44,100
45,841 46,60 47,80 50,30
51,30 52,10 53,40 54,10
55,70 56,10 57,60 58,90
59,180 60,30 61,70 62,20
63,70 64,50 65,70 66,20
67,50 68,30 69,80 70,30
71,50 72,80 73,4624 74,450
75,651 76,120 77,160 78,70
79,80 80,20 81,50 82,80
83,210 84,50 85,100 86,10
87,20 88,10 89,110 90,80
91,420 92,70 93,110 94,20
95,220 96,70 97,561 98,190
99,60 100,10 101,10 102,10
103,120 104,200 105,510 106,70
107,100 108,20 109,120 110,110
111,90 112,2132 115,70 116,10
117,90 118,20 119,160 120,80
121,170 122,50 123,210 124,30
125,20 127,20 129,30 130,10
131,100 132,20 133,701 134,120
135,480 136,80 137,130 138,110
139,70 140,10 141,20 143,80
144,10 145,50 146,10 147,380
148,90 149,490 150,100 151,190
152,30 153,20 155,20 157,40
158,10 159,10 161,70 162,20
163,230 164,100 165,120 166,190
167,110 168,20 169,20 171,20
175,10 177,30 178,10 179,220
180,60 181,150 182,30 183,20
191,10 193,70 194,20 195,100
196,20 197,10 205,10 207,30
208,10 209,140 210,30 211,90
212,20 213,10 219,10 221,30
222,10 223,460 224,100 225,60
226,10 235,10 236,10 237,160
239,9999 240,2672 241,1151 242,180
243,40 252,10 254,7707 255,2062
256,951 257,160 258,30
##END=
