##TITLE=Silane, triethylmethoxy-
##JCAMP-DX=4.24
##DATA TYPE=MASS SPECTRUM
##ORIGIN=D.HENNEBERG, MAX-PLANCK INSTITUTE, MULHEIM, WEST GERMANY
##OWNER=NIST Mass Spectrometry Data Center
Collection (C) 2014 copyright by the U.S. Secretary of Commerce
on behalf of the United States of America. All rights reserved.
##CAS REGISTRY NO=2117-34-2
##$NIST MASS SPEC NO=61962
##MOLFORM=C7 H18 O Si
##MW=146
##$NIST SOURCE=MSDC
##XUNITS=M/Z
##YUNITS=RELATIVE INTENSITY
##XFACTOR=1
##YFACTOR=1
##FIRSTX=26
##LASTX=148
##FIRSTY=54
##MAXX=148
##MINX=26
##MAXY=9999
##MINY=3
##NPOINTS=62
##PEAK TABLE=(XY..XY)
26,54 29,365 30,50 33,21
34,3 39,9 40,34 41,11
42,12 43,60 44,36 45,110
46,5 47,41 52,3 55,10
56,12 57,104 58,124 59,1037
60,79 61,2496 62,151 63,87
67,3 68,91 69,4 70,7
71,10 72,18 73,51 74,23
75,136 76,11 77,10 78,4
83,8 85,33 86,34 87,270
88,223 89,7077 90,606 91,254
92,10 94,4 102,3 103,19
104,7 105,11 114,8 115,42
116,43 117,9999 118,1050 119,378
120,22 131,8 133,3 146,235
147,39 148,10
##END=
