##TITLE=3-Chlorobenzo(b)thiophene-2-carboxylic acid
##JCAMP-DX=4.24
##DATA TYPE=MASS SPECTRUM
##ORIGIN=NIST Mass Spectrometry Data Center, 1994
##OWNER=NIST Mass Spectrometry Data Center
Collection (C) 2014 copyright by the U.S. Secretary of Commerce
on behalf of the United States of America. All rights reserved.
##CAS REGISTRY NO=21211-22-3
##$NIST MASS SPEC NO=136383
##MOLFORM=C9 H5 Cl O2 S
##MW=212
##$NIST SOURCE=MSDC
##XUNITS=M/Z
##YUNITS=RELATIVE INTENSITY
##XFACTOR=1
##YFACTOR=1
##FIRSTX=12
##LASTX=217
##FIRSTY=141
##MAXX=217
##MINX=12
##MAXY=9999
##MINY=15
##NPOINTS=109
##PEAK TABLE=(XY..XY)
12,141 14,85 16,147 17,124
18,104 26,194 27,230 28,554
29,85 32,153 35,127 36,143
37,439 38,725 39,741 41,130
43,159 44,728 45,1776 47,189
48,83 49,352 50,757 51,526
52,153 53,172 57,281 58,212
60,209 61,859 62,1300 63,1215
64,190 65,172 66,420 68,139
69,1451 70,173 71,222 72,123
73,608 74,658 75,389 76,198
77,381 78,40 79,233 80,141
81,503 82,756 83,236 84,553
85,571 86,620 87,811 88,527
89,2497 90,318 91,72 92,298
93,1727 94,280 95,208 96,173
97,382 98,287 99,230 103,41
105,510 106,481 107,235 108,174
117,152 118,99 119,84 120,544
121,525 122,84 123,1998 124,262
125,592 130,89 131,212 132,2230
133,1816 134,331 135,194 136,103
155,102 167,1715 168,5850 169,1293
170,1952 171,284 172,157 177,135
184,402 186,163 195,4788 196,632
197,2035 198,275 199,260 212,9999
213,1071 214,3755 215,395 216,165
217,15
##END=
