##TITLE=Benzamide, 2-fluoro-N-(4-methoxyphenyl)-
##JCAMP-DX=4.24
##DATA TYPE=MASS SPECTRUM
##ORIGIN=Zaikin V.G., TIPS RAS, Moscow, Russia
##OWNER=NIST Mass Spectrometry Data Center
Collection (C) 2014 copyright by the U.S. Secretary of Commerce
on behalf of the United States of America. All rights reserved.
##CAS REGISTRY NO=212209-96-6
##$NIST MASS SPEC NO=307082
##MOLFORM=C14 H12 F N O2
##MW=245
##$NIST SOURCE=MSDC
##XUNITS=M/Z
##YUNITS=RELATIVE INTENSITY
##XFACTOR=1
##YFACTOR=1
##FIRSTX=28
##LASTX=247
##FIRSTY=10
##MAXX=247
##MINX=28
##MAXY=9999
##MINY=10
##NPOINTS=33
##PEAK TABLE=(XY..XY)
28,10 39,30 41,60 50,40
51,50 52,100 53,60 63,40
64,30 65,50 69,30 75,250
76,30 77,30 78,30 79,50
80,60 94,70 95,1471 96,140
106,30 107,60 108,50 109,60
122,530 123,9999 124,971 125,60
134,20 244,30 245,5475 246,751
247,70
##END=
