##TITLE=T-2 Mycotoxin
##JCAMP-DX=4.24
##DATA TYPE=MASS SPECTRUM
##ORIGIN=VERIFIN - Methodology B3-1982
##OWNER=NIST Mass Spectrometry Data Center
Collection (C) 2014 copyright by the U.S. Secretary of Commerce
on behalf of the United States of America. All rights reserved.
##CAS REGISTRY NO=21259-20-1
##$NIST MASS SPEC NO=226251
##MOLFORM=C24 H34 O9
##MW=466
##$NIST SOURCE=MSDC
##XUNITS=M/Z
##YUNITS=RELATIVE INTENSITY
##XFACTOR=1
##YFACTOR=1
##FIRSTX=41
##LASTX=364
##FIRSTY=2302
##MAXX=364
##MINX=41
##MAXY=9999
##MINY=200
##NPOINTS=46
##PEAK TABLE=(XY..XY)
41,2302 43,9999 44,700 57,6005
58,800 60,1000 69,900 77,1101
79,1201 82,1101 83,800 85,5004
91,2001 93,800 95,1501 96,900
97,900 105,2602 107,800 119,900
120,1301 121,5004 122,2902 123,1201
124,1901 125,1901 135,900 138,1401
142,700 145,900 147,800 157,1000
161,800 173,1501 175,700 180,1201
185,900 189,600 203,500 213,500
231,800 262,400 278,400 304,400
305,300 364,200
##END=
