##TITLE=p-Toluenesulfonamide, alpha-(purin-6-ylamino)-
##JCAMP-DX=4.24
##DATA TYPE=MASS SPECTRUM
##ORIGIN=Div. of Experiment Therapeutics WRAIR, WRAMC, Washington DC 20307
##OWNER=NIST Mass Spectrometry Data Center
Collection (C) 2014 copyright by the U.S. Secretary of Commerce
on behalf of the United States of America. All rights reserved.
##CAS REGISTRY NO=21266-66-0
##$NIST MASS SPEC NO=256798
##MOLFORM=C12 H12 N6 O2 S
##MW=304
##$NIST SOURCE=MSDC
##XUNITS=M/Z
##YUNITS=RELATIVE INTENSITY
##XFACTOR=1
##YFACTOR=1
##FIRSTX=41
##LASTX=305
##FIRSTY=71
##MAXX=305
##MINX=41
##MAXY=9999
##MINY=13
##NPOINTS=93
##PEAK TABLE=(XY..XY)
41,71 42,55 43,295 44,78
45,44 47,14 48,656 49,143
50,272 51,365 52,122 53,634
54,783 55,149 56,122 62,32
63,154 64,2526 65,469 66,750
67,386 68,61 69,63 70,264
74,108 75,265 76,278 77,556
78,130 79,164 80,383 81,941
82,65 84,167 86,111 89,156
90,111 91,648 92,297 93,403
94,127 95,26 98,25 99,15
102,760 103,402 104,272 105,511
106,1246 107,366 108,2809 109,241
112,145 113,42 118,339 119,656
120,581 121,374 122,105 123,57
134,307 135,9999 136,904 137,199
138,171 139,34 146,13 148,206
153,33 166,224 167,15 168,28
169,73 170,26 182,251 183,61
184,245 185,575 186,68 195,24
197,46 200,13 209,58 222,64
223,166 224,462 225,875 226,140
239,13 257,85 303,66 304,307
305,62
##END=
