##TITLE=Cubenol
##JCAMP-DX=4.24
##DATA TYPE=MASS SPECTRUM
##ORIGIN=Mark Whitten, Florida Museum of Natural History, U. of Florida
##OWNER=NIST Mass Spectrometry Data Center
Collection (C) 2014 copyright by the U.S. Secretary of Commerce
on behalf of the United States of America. All rights reserved.
##CAS REGISTRY NO=21284-22-0
##$NIST MASS SPEC NO=140968
##MOLFORM=C15 H26 O
##MW=222
##$NIST SOURCE=MSDC
##XUNITS=M/Z
##YUNITS=RELATIVE INTENSITY
##XFACTOR=1
##YFACTOR=1
##FIRSTX=41
##LASTX=207
##FIRSTY=9373
##MAXX=207
##MINX=41
##MAXY=9999
##MINY=164
##NPOINTS=82
##PEAK TABLE=(XY..XY)
41,9373 43,9196 44,360 45,549
51,663 53,2640 54,461 55,5280
56,688 57,1206 59,6145 60,277
65,1364 66,511 67,4004 68,1370
69,3234 70,600 71,1522 72,461
77,2735 78,682 79,4206 80,1219
81,4857 82,2602 83,1067 84,473
85,353 91,3928 92,1528 93,6348
94,1844 95,4067 96,720 97,682
103,246 105,5868 106,1004 107,4048
108,1471 109,2362 110,1130 111,915
115,334 117,486 118,505 119,9999
120,2128 121,2886 122,1534 123,1977
124,303 128,176 131,372 133,1718
134,884 135,1819 136,574 137,637
139,202 145,296 147,1212 148,701
149,928 150,183 151,208 153,284
159,322 161,9095 162,1724 163,707
164,360 175,277 176,164 179,1673
180,271 189,1844 190,290 204,4061
205,859 207,328
##END=
