##TITLE=(+)-Camphor-10-sulfonyl chloride
##JCAMP-DX=4.24
##DATA TYPE=MASS SPECTRUM
##ORIGIN=Japan AIST/NIMC Database- Spectrum MS-NW-7156
##OWNER=NIST Mass Spectrometry Data Center
Collection (C) 2014 copyright by the U.S. Secretary of Commerce
on behalf of the United States of America. All rights reserved.
##CAS REGISTRY NO=21286-54-4
##$NIST MASS SPEC NO=235821
##MOLFORM=C10 H15 Cl O3 S
##MW=250
##$NIST SOURCE=MSDC
##XUNITS=M/Z
##YUNITS=RELATIVE INTENSITY
##XFACTOR=1
##YFACTOR=1
##FIRSTX=15
##LASTX=234
##FIRSTY=60
##MAXX=234
##MINX=15
##MAXY=9999
##MINY=10
##NPOINTS=144
##PEAK TABLE=(XY..XY)
15,60 17,10 18,40 26,80
27,849 28,199 29,609 30,20
31,50 32,30 34,10 35,20
36,139 37,20 38,90 39,1459
40,439 41,2819 42,219 43,1069
44,50 45,50 46,20 48,239
49,20 50,129 51,379 52,299
53,1319 54,379 55,1589 56,99
57,379 58,60 59,80 60,40
61,30 62,30 63,129 64,649
65,499 66,209 67,2849 68,509
69,1419 70,109 71,50 72,10
73,10 74,30 75,20 76,20
77,929 78,219 79,1679 80,369
81,5159 82,549 83,269 84,70
85,259 86,20 87,10 89,30
90,30 91,1049 92,189 93,2459
94,429 95,1129 96,149 97,239
98,30 99,40 100,10 102,10
103,50 104,30 105,269 106,469
107,2649 108,1579 109,9999 110,919
111,60 112,10 115,60 116,20
117,90 118,20 119,60 120,20
121,219 122,259 123,3989 124,449
125,40 126,10 127,20 128,30
129,20 130,20 131,30 132,40
133,759 134,99 135,449 136,50
137,80 138,20 139,10 140,10
141,10 143,10 145,10 146,10
147,10 148,50 149,40 150,879
151,6959 152,1819 153,659 154,70
155,10 161,40 162,10 163,50
167,20 168,519 169,80 175,119
176,20 177,10 186,10 188,129
189,129 190,30 191,10 200,10
214,20 232,239 233,40 234,10
##END=
