##TITLE=1H-Indole, 2,3,5-trimethyl-
##JCAMP-DX=4.24
##DATA TYPE=MASS SPECTRUM
##ORIGIN=R.S.BANDURSKI MICHIGAN STATE UNIV., EAST LANSING, MICH., USA
##OWNER=NIST Mass Spectrometry Data Center
Collection (C) 2014 copyright by the U.S. Secretary of Commerce
on behalf of the United States of America. All rights reserved.
##CAS REGISTRY NO=21296-92-4
##$NIST MASS SPEC NO=68475
##MOLFORM=C11 H13 N
##MW=159
##$NIST SOURCE=MSDC
##XUNITS=M/Z
##YUNITS=RELATIVE INTENSITY
##XFACTOR=1
##YFACTOR=1
##FIRSTX=31
##LASTX=161
##FIRSTY=100
##MAXX=161
##MINX=31
##MAXY=9999
##MINY=20
##NPOINTS=66
##PEAK TABLE=(XY..XY)
31,100 38,120 39,490 40,70
41,230 50,110 51,390 52,330
53,200 54,70 56,160 59,180
62,110 63,380 64,90 67,90
68,20 70,60 71,300 74,110
76,90 77,240 78,700 79,360
80,90 83,50 84,20 86,60
88,20 89,350 90,130 91,430
92,30 101,90 102,230 103,100
104,40 105,90 113,100 114,60
115,1030 116,400 117,230 118,100
119,70 126,20 127,150 128,270
129,140 137,30 138,20 141,190
142,410 143,990 144,4320 145,430
146,30 148,40 154,130 155,60
156,780 157,880 158,9999 159,8110
160,780 161,20
##END=
