##TITLE=Phosphine oxide, methyldiphenyl-
##JCAMP-DX=4.24
##DATA TYPE=MASS SPECTRUM
##ORIGIN=H. Luftmann, Org. Chem. Inst., Westfalisch Wilhelms Univ., Munster, Germany
##OWNER=NIST Mass Spectrometry Data Center
Collection (C) 2014 copyright by the U.S. Secretary of Commerce
on behalf of the United States of America. All rights reserved.
##CAS REGISTRY NO=2129-89-7
##$NIST MASS SPEC NO=115163
##MOLFORM=C13 H13 O P
##MW=216
##$NIST SOURCE=MSDC
##XUNITS=M/Z
##YUNITS=RELATIVE INTENSITY
##XFACTOR=1
##YFACTOR=1
##FIRSTX=39
##LASTX=218
##FIRSTY=200
##MAXX=218
##MINX=39
##MAXY=9999
##MINY=100
##NPOINTS=49
##PEAK TABLE=(XY..XY)
39,200 44,100 47,400 50,200
51,1400 52,100 63,200 65,200
74,100 75,100 76,100 77,2100
78,300 89,100 91,600 95,300
98,100 99,300 106,200 107,600
108,100 109,200 115,100 121,300
123,300 124,100 125,200 128,200
129,100 133,100 139,800 151,100
152,500 153,400 154,400 165,100
171,200 173,300 183,600 199,400
200,200 201,6500 202,800 203,100
214,100 215,9999 216,2900 217,500
218,200
##END=
