##TITLE=5,12-Dimethylbenz[a]anthracene
##JCAMP-DX=4.24
##DATA TYPE=MASS SPECTRUM
##ORIGIN=Organic Synthesis Lab, MSU, Moscow.TRC 423
##OWNER=NIST Mass Spectrometry Data Center
Collection (C) 2014 copyright by the U.S. Secretary of Commerce
on behalf of the United States of America. All rights reserved.
##CAS REGISTRY NO=21297-22-3
##$NIST MASS SPEC NO=326124
##MOLFORM=C20 H16
##MW=256
##$NIST SOURCE=MSDC
##XUNITS=M/Z
##YUNITS=RELATIVE INTENSITY
##XFACTOR=1
##YFACTOR=1
##FIRSTX=27
##LASTX=258
##FIRSTY=40
##MAXX=258
##MINX=27
##MAXY=9999
##MINY=10
##NPOINTS=108
##PEAK TABLE=(XY..XY)
27,40 39,40 41,10 50,20
51,40 52,10 62,10 63,50
65,10 74,20 75,40 76,20
77,20 84,20 85,10 86,10
87,40 88,70 89,20 94,20
95,10 98,10 99,30 100,130
101,240 102,10 106,40 107,60
108,60 110,10 111,20 112,180
113,571 114,390 115,40 118,70
119,330 120,1121 121,90 123,10
124,70 125,320 126,691 127,390
128,721 129,20 139,20 150,30
151,20 152,20 161,10 162,10
163,40 164,10 165,20 174,20
175,10 176,30 177,10 178,20
185,10 186,10 187,50 188,20
189,50 190,10 198,10 199,20
200,80 201,30 202,100 203,20
210,10 211,40 212,20 213,130
214,30 215,180 216,40 222,10
223,20 224,110 225,70 226,340
227,130 228,180 229,280 230,50
235,20 236,30 237,260 238,160
239,2372 240,1742 241,2002 242,420
243,50 248,50 249,40 250,300
251,120 252,651 253,561 254,310
255,1682 256,9999 257,2122 258,220
##END=
