##TITLE=Picene
##JCAMP-DX=4.24
##DATA TYPE=MASS SPECTRUM
##ORIGIN=Japan AIST/NIMC Database- Spectrum MS-IW-6946
##OWNER=NIST Mass Spectrometry Data Center
Collection (C) 2014 copyright by the U.S. Secretary of Commerce
on behalf of the United States of America. All rights reserved.
##CAS REGISTRY NO=213-46-7
##$NIST MASS SPEC NO=240891
##MOLFORM=C22 H14
##MW=278
##$NIST SOURCE=MSDC
##XUNITS=M/Z
##YUNITS=RELATIVE INTENSITY
##XFACTOR=1
##YFACTOR=1
##FIRSTX=28
##LASTX=281
##FIRSTY=20
##MAXX=281
##MINX=28
##MAXY=9999
##MINY=10
##NPOINTS=92
##PEAK TABLE=(XY..XY)
28,20 41,10 43,20 55,20
57,30 63,10 69,20 71,30
75,10 81,10 83,20 84,20
85,20 87,20 88,10 91,30
92,60 93,10 95,10 97,20
98,10 99,20 100,40 101,20
105,10 106,10 111,50 112,159
113,239 117,10 118,30 119,10
123,40 124,249 125,529 126,369
127,10 129,10 130,30 131,129
132,30 135,20 136,149 137,699
138,1609 139,1969 140,50 141,20
142,60 144,10 145,10 146,20
149,10 150,10 174,10 187,10
198,10 200,20 202,10 211,10
213,10 222,10 223,20 224,50
225,20 226,20 235,10 237,30
238,10 239,20 246,10 247,10
248,90 249,60 250,139 251,40
252,90 253,20 261,20 262,10
263,40 271,10 272,80 273,80
274,619 275,309 276,2329 277,1119
278,9999 279,2379 280,279 281,20
##END=
