##TITLE=Naphthalene, 1,4,6-trimethyl-
##JCAMP-DX=4.24
##DATA TYPE=MASS SPECTRUM
##ORIGIN=L.E. Slivon, Battelle Columbus Laboratories, Columbus, Ohio 43201
##OWNER=NIST Mass Spectrometry Data Center
Collection (C) 2014 copyright by the U.S. Secretary of Commerce
on behalf of the United States of America. All rights reserved.
##CAS REGISTRY NO=2131-42-2
##$NIST MASS SPEC NO=70673
##MOLFORM=C13 H14
##MW=170
##$NIST SOURCE=MSDC
##XUNITS=M/Z
##YUNITS=RELATIVE INTENSITY
##XFACTOR=1
##YFACTOR=1
##FIRSTX=40
##LASTX=172
##FIRSTY=46
##MAXX=172
##MINX=40
##MAXY=9999
##MINY=1
##NPOINTS=97
##PEAK TABLE=(XY..XY)
40,46 44,2 50,282 51,652
52,157 53,97 58,31 61,19
62,212 63,737 64,266 65,265
66,24 67,22 69,179 70,126
71,160 74,145 75,271 76,681
77,715 78,149 79,28 81,54
82,338 83,356 84,496 85,338
86,119 87,213 88,83 89,368
90,36 91,221 92,17 93,2
94,6 95,6 96,4 97,40
98,81 99,24 101,33 102,251
103,88 104,11 105,13 106,8
110,7 113,132 114,68 115,1791
116,210 117,18 118,14 121,1
122,21 123,20 124,4 125,32
126,244 127,742 128,1946 129,567
130,80 131,4 132,10 137,19
138,50 139,660 140,136 141,926
142,267 143,66 144,17 146,21
149,2 150,147 151,517 152,1946
153,2450 154,1112 155,9999 156,1293
157,98 158,18 162,7 163,59
164,105 165,510 166,120 167,265
168,110 169,1613 170,7307 171,1015
172,71
##END=
