##TITLE=Benzene, 1-isothiocyanato-4-nitro-
##JCAMP-DX=4.24
##DATA TYPE=MASS SPECTRUM
##ORIGIN=RADIAN CORP
##OWNER=NIST Mass Spectrometry Data Center
Collection (C) 2014 copyright by the U.S. Secretary of Commerce
on behalf of the United States of America. All rights reserved.
##CAS REGISTRY NO=2131-61-5
##$NIST MASS SPEC NO=73440
##MOLFORM=C7 H4 N2 O2 S
##MW=180
##$NIST SOURCE=MSDC
##XUNITS=M/Z
##YUNITS=RELATIVE INTENSITY
##XFACTOR=1
##YFACTOR=1
##FIRSTX=16
##LASTX=183
##FIRSTY=10
##MAXX=183
##MINX=16
##MAXY=9999
##MINY=10
##NPOINTS=66
##PEAK TABLE=(XY..XY)
16,10 25,20 26,90 30,1770
32,140 36,30 37,470 38,560
39,800 40,40 45,20 46,450
48,30 49,190 50,2560 51,640
52,240 56,10 57,60 58,160
59,10 61,260 62,500 63,2080
64,1160 68,30 69,230 70,490
74,1280 75,730 76,860 78,180
80,30 81,80 82,140 83,460
84,260 86,80 87,60 90,3850
93,60 94,140 95,250 96,280
97,20 102,100 106,60 107,1480
108,470 109,110 122,2970 123,280
124,180 133,620 134,3930 135,270
136,200 150,4240 151,420 152,220
163,20 164,230 180,9999 181,990
182,570 183,30
##END=
