##TITLE=Benzoic acid, 4-isothiocyanato-
##JCAMP-DX=4.24
##DATA TYPE=MASS SPECTRUM
##ORIGIN=NIST Mass Spectrometry Data Center, 1994
##OWNER=NIST Mass Spectrometry Data Center
Collection (C) 2014 copyright by the U.S. Secretary of Commerce
on behalf of the United States of America. All rights reserved.
##CAS REGISTRY NO=2131-62-6
##$NIST MASS SPEC NO=136665
##MOLFORM=C8 H5 N O2 S
##MW=179
##$NIST SOURCE=MSDC
##XUNITS=M/Z
##YUNITS=RELATIVE INTENSITY
##XFACTOR=1
##YFACTOR=1
##FIRSTX=18
##LASTX=181
##FIRSTY=72
##MAXX=181
##MINX=18
##MAXY=9999
##MINY=51
##NPOINTS=48
##PEAK TABLE=(XY..XY)
18,72 37,507 38,679 39,1089
44,247 49,196 50,2063 51,1204
52,261 53,222 58,154 61,291
62,341 63,1159 64,760 65,733
67,245 69,186 70,306 72,91
73,51 75,1350 77,368 78,94
81,276 82,148 83,268 84,183
88,132 90,1449 91,234 93,154
102,314 106,115 107,469 108,230
134,3779 135,365 136,249 137,80
146,87 151,241 162,7795 163,961
164,429 179,9999 180,966 181,573
##END=
