##TITLE=4-Acetylphenylisothiocyanate
##JCAMP-DX=4.24
##DATA TYPE=MASS SPECTRUM
##ORIGIN=NIST Mass Spectrometry Data Center, 1994
##OWNER=NIST Mass Spectrometry Data Center
Collection (C) 2014 copyright by the U.S. Secretary of Commerce
on behalf of the United States of America. All rights reserved.
##CAS REGISTRY NO=2131-57-9
##$NIST MASS SPEC NO=133927
##MOLFORM=C9 H7 N O S
##MW=177
##$NIST SOURCE=MSDC
##XUNITS=M/Z
##YUNITS=RELATIVE INTENSITY
##XFACTOR=1
##YFACTOR=1
##FIRSTX=13
##LASTX=180
##FIRSTY=56
##MAXX=180
##MINX=13
##MAXY=9999
##MINY=18
##NPOINTS=94
##PEAK TABLE=(XY..XY)
13,56 14,307 15,1409 16,27
18,33 26,199 27,277 28,79
29,147 32,517 33,27 34,44
37,424 38,629 39,953 40,79
41,115 42,675 43,3957 44,755
45,277 46,48 50,2239 51,1134
52,237 53,99 54,26 56,68
57,102 58,229 59,106 60,75
61,378 62,626 63,1848 64,869
65,140 66,26 67,356 68,53
69,276 70,408 71,65 72,71
73,231 74,1092 75,1303 76,898
77,355 78,76 81,383 82,154
83,332 84,191 85,55 86,103
87,132 88,134 89,353 90,2277
91,208 92,20 93,85 94,70
95,67 96,75 98,39 99,58
100,29 101,64 102,397 103,57
104,85 107,648 108,252 109,62
120,42 121,60 122,34 130,139
134,6461 135,628 136,321 137,33
145,18 148,104 162,9999 163,1051
164,549 165,46 177,4799 178,557
179,263 180,32
##END=
