##TITLE=2,2-Bis(p-methoxyphenyl)-1,1-dichloroethylene
##JCAMP-DX=4.24
##DATA TYPE=MASS SPECTRUM
##ORIGIN=S.M. Lee, CA Export Lab. Services, CA, USA
##OWNER=NIST Mass Spectrometry Data Center
Collection (C) 2014 copyright by the U.S. Secretary of Commerce
on behalf of the United States of America. All rights reserved.
##CAS REGISTRY NO=2132-70-9
##$NIST MASS SPEC NO=289983
##MOLFORM=C16 H14 Cl2 O2
##MW=308
##$NIST SOURCE=MSDC
##XUNITS=M/Z
##YUNITS=RELATIVE INTENSITY
##XFACTOR=1
##YFACTOR=1
##FIRSTX=51
##LASTX=314
##FIRSTY=140
##MAXX=314
##MINX=51
##MAXY=9999
##MINY=10
##NPOINTS=232
##PEAK TABLE=(XY..XY)
51,140 52,30 53,60 54,10
55,20 56,10 57,10 60,10
61,40 62,180 63,400 64,150
65,40 66,10 67,10 68,20
69,40 71,10 72,10 73,130
74,250 75,360 76,190 77,110
78,40 79,80 80,30 82,150
84,50 85,70 86,170 87,320
88,140 89,150 90,20 91,20
92,70 93,70 94,20 96,60
97,210 98,210 99,380 100,110
101,100 102,90 103,40 104,40
105,20 106,10 107,40 108,40
109,70 110,80 111,170 112,50
113,230 114,110 115,130 116,30
117,40 119,601 121,120 122,70
123,370 124,70 125,320 126,510
127,130 128,40 129,80 130,30
131,30 132,50 133,40 134,30
135,70 136,380 137,300 138,130
139,280 140,90 141,60 142,50
143,20 144,20 145,30 147,40
148,30 149,100 150,520 151,1141
152,2502 153,430 154,170 155,130
156,50 157,60 158,20 159,30
160,100 161,110 162,170 163,781
164,410 165,420 166,581 167,140
168,220 169,90 170,40 171,10
172,20 173,80 174,40 175,60
176,100 177,40 178,60 179,130
180,520 181,100 182,100 183,40
184,20 185,60 186,681 187,360
188,270 189,130 190,30 191,40
192,50 193,110 194,150 195,1862
196,310 197,60 198,80 199,561
200,120 201,210 202,40 203,30
204,10 205,20 206,30 207,80
208,120 209,70 210,440 211,140
212,50 213,30 214,200 215,310
216,110 217,110 218,20 220,20
221,50 222,140 223,2282 224,400
225,651 226,130 227,220 228,60
229,781 230,340 231,270 232,100
233,70 234,30 235,50 236,40
238,6025 239,1001 240,110 241,30
242,340 243,180 244,130 245,60
246,20 247,10 248,10 249,20
250,20 251,20 252,10 253,10
254,10 255,10 257,280 258,450
259,180 260,160 261,30 262,10
263,20 264,10 265,70 266,10
267,40 268,10 269,10 270,10
272,260 273,971 274,250 275,340
276,60 277,50 278,20 279,30
280,10 281,10 291,10 293,190
294,30 295,120 296,20 297,20
298,10 308,9999 309,1782 310,6486
311,1101 312,1121 313,190 314,20
##END=
