##TITLE=Cobalt, dicarbonylhydrobis(phosphorus trifluoride)-
##JCAMP-DX=4.24
##DATA TYPE=MASS SPECTRUM
##ORIGIN=F.E.SAALFELD NAVAL RESEARCH LAB, WASHINGTON D.C., USA
##OWNER=NIST Mass Spectrometry Data Center
Collection (C) 2014 copyright by the U.S. Secretary of Commerce
on behalf of the United States of America. All rights reserved.
##CAS REGISTRY NO=21329-73-7
##$NIST MASS SPEC NO=14038
##MOLFORM=C2 H Co F6 O2 P2
##MW=292
##$NIST SOURCE=MSDC
##XUNITS=M/Z
##YUNITS=RELATIVE INTENSITY
##XFACTOR=1
##YFACTOR=1
##FIRSTX=28
##LASTX=292
##FIRSTY=3242
##MAXX=292
##MINX=28
##MAXY=9999
##MINY=91
##NPOINTS=21
##PEAK TABLE=(XY..XY)
28,3242 59,9999 60,822 69,1781
71,548 78,731 87,7215 88,1781
115,3196 116,913 147,3973 149,868
175,3425 176,1684 203,502 204,1598
236,91 238,137 263,91 264,1553
292,1416
##END=
