##TITLE=Cobalt, tricarbonylhydro(phosphorus trifluoride)-
##JCAMP-DX=4.24
##DATA TYPE=MASS SPECTRUM
##ORIGIN=F.E.SAALFELD NAVAL RESEARCH LAB, WASHINGTON D.C., USA
##OWNER=NIST Mass Spectrometry Data Center
Collection (C) 2014 copyright by the U.S. Secretary of Commerce
on behalf of the United States of America. All rights reserved.
##CAS REGISTRY NO=21329-74-8
##$NIST MASS SPEC NO=11177
##MOLFORM=C3 H Co F3 O3 P
##MW=232
##$NIST SOURCE=MSDC
##XUNITS=M/Z
##YUNITS=RELATIVE INTENSITY
##XFACTOR=1
##YFACTOR=1
##FIRSTX=28
##LASTX=232
##FIRSTY=7603
##MAXX=232
##MINX=28
##MAXY=9999
##MINY=276
##NPOINTS=19
##PEAK TABLE=(XY..XY)
28,7603 59,9999 60,737 69,1797
71,737 78,506 87,7834 88,1935
115,4792 116,1382 143,506 144,414
147,1889 148,460 175,1751 176,783
203,276 204,1797 232,921
##END=
