##TITLE=Benzenepropanenitrile, .alpha.,3-dichloro-2-methyl-
##JCAMP-DX=4.24
##DATA TYPE=MASS SPECTRUM
##ORIGIN=J.E. WILKINSON S-CUBED, SAN DIEGO, CA.
##OWNER=NIST Mass Spectrometry Data Center
Collection (C) 2014 copyright by the U.S. Secretary of Commerce
on behalf of the United States of America. All rights reserved.
##CAS REGISTRY NO=21342-85-8
##$NIST MASS SPEC NO=90765
##MOLFORM=C10 H9 Cl2 N
##MW=213
##$NIST SOURCE=MSDC
##XUNITS=M/Z
##YUNITS=RELATIVE INTENSITY
##XFACTOR=1
##YFACTOR=1
##FIRSTX=41
##LASTX=218
##FIRSTY=39
##MAXX=218
##MINX=41
##MAXY=9999
##MINY=1
##NPOINTS=85
##PEAK TABLE=(XY..XY)
41,39 43,2 47,26 48,3
49,63 50,488 51,998 52,248
53,91 54,4 55,1 56,25
57,269 60,2 61,126 62,397
63,1058 64,205 65,205 66,5
70,1 71,80 72,6 74,440
75,494 76,274 77,1617 78,374
79,7 84,6 85,44 86,94
87,172 88,95 89,693 90,136
91,100 97,20 98,16 99,210
100,42 101,195 102,377 103,1801
104,462 105,13 110,2 111,13
112,28 113,147 114,196 115,1047
116,358 117,25 123,19 124,2
125,85 126,24 127,45 128,26
136,7 138,326 139,9999 140,1245
141,3457 142,526 143,138 144,1
149,85 150,204 151,141 152,66
153,17 164,23 176,7 177,42
178,291 179,31 180,72 213,1496
214,155 215,946 216,81 217,131
218,1
##END=
