##TITLE=[1,1'-Biphenyl-3-ol], 6-chloro-
##JCAMP-DX=4.24
##DATA TYPE=MASS SPECTRUM
##ORIGIN=J.E. WILKINSON S-CUBED, SAN DIEGO, CA.
##OWNER=NIST Mass Spectrometry Data Center
Collection (C) 2014 copyright by the U.S. Secretary of Commerce
on behalf of the United States of America. All rights reserved.
##CAS REGISTRY NO=21345-13-1
##$NIST MASS SPEC NO=77752
##MOLFORM=C12 H9 Cl O
##MW=204
##$NIST SOURCE=MSDC
##XUNITS=M/Z
##YUNITS=RELATIVE INTENSITY
##XFACTOR=1
##YFACTOR=1
##FIRSTX=50
##LASTX=207
##FIRSTY=66
##MAXX=207
##MINX=50
##MAXY=9999
##MINY=4
##NPOINTS=42
##PEAK TABLE=(XY..XY)
50,66 51,128 52,8 55,4
62,46 63,139 69,8 70,12
73,15 74,46 75,46 76,12
77,15 84,39 86,15 87,43
88,8 89,50 99,4 101,4
102,58 113,50 114,27 115,449
126,12 138,4 139,1145 140,124
141,964 142,23 149,27 150,8
151,43 152,27 168,341 169,77
175,43 203,8 204,9999 205,983
206,3026 207,159
##END=
