##TITLE=Benzene, 1-chloro-2-(trichloromethyl)-
##JCAMP-DX=4.24
##DATA TYPE=MASS SPECTRUM
##ORIGIN=Japan AIST/NIMC Database- Spectrum MS-NW-1073
##OWNER=NIST Mass Spectrometry Data Center
Collection (C) 2014 copyright by the U.S. Secretary of Commerce
on behalf of the United States of America. All rights reserved.
##CAS REGISTRY NO=2136-89-2
##$NIST MASS SPEC NO=229515
##MOLFORM=C7 H4 Cl4
##MW=228
##$NIST SOURCE=MSDC
##XUNITS=M/Z
##YUNITS=RELATIVE INTENSITY
##XFACTOR=1
##YFACTOR=1
##FIRSTX=14
##LASTX=234
##FIRSTY=40
##MAXX=234
##MINX=14
##MAXY=9999
##MINY=10
##NPOINTS=123
##PEAK TABLE=(XY..XY)
14,40 25,10 26,50 27,20
35,129 36,279 37,169 38,149
39,339 40,30 41,10 43,349
44,60 47,80 48,40 49,149
50,349 51,149 52,10 58,10
60,209 61,1029 62,679 63,469
64,30 71,40 72,129 73,769
74,169 75,279 76,30 77,10
78,229 79,419 80,219 81,50
82,30 83,40 84,179 85,209
86,289 87,429 88,169 89,60
92,10 93,10 95,30 96,619
97,619 98,189 99,219 100,20
101,20 105,70 106,30 107,159
108,30 109,129 110,30 111,70
112,10 113,10 117,10 119,20
120,30 121,70 122,70 123,2199
124,229 125,689 126,60 127,10
131,70 132,10 133,239 134,10
135,139 136,10 137,30 139,50
140,30 141,40 142,10 143,20
144,10 145,10 146,20 148,10
149,20 150,20 155,60 156,10
157,409 158,739 159,719 160,539
161,339 162,99 163,50 167,70
169,70 170,20 171,20 172,10
190,10 191,10 192,30 193,9999
194,829 195,9569 196,809 197,3109
198,259 199,349 200,30 227,60
228,679 229,119 230,859 231,99
232,409 233,40 234,80
##END=
