##TITLE=Ethanol, 2-(hexadecyloxy)-
##JCAMP-DX=4.24
##DATA TYPE=MASS SPECTRUM
##ORIGIN=R.T.HOLMAN,UNIVERSITY OF MINNESOTA
##OWNER=NIST Mass Spectrometry Data Center
Collection (C) 2014 copyright by the U.S. Secretary of Commerce
on behalf of the United States of America. All rights reserved.
##CAS REGISTRY NO=2136-71-2
##$NIST MASS SPEC NO=36204
##MOLFORM=C18 H38 O2
##MW=286
##$NIST SOURCE=MSDC
##XUNITS=M/Z
##YUNITS=RELATIVE INTENSITY
##XFACTOR=1
##YFACTOR=1
##FIRSTX=26
##LASTX=287
##FIRSTY=40
##MAXX=287
##MINX=26
##MAXY=9999
##MINY=10
##NPOINTS=167
##PEAK TABLE=(XY..XY)
26,40 27,710 28,1230 29,2160
30,60 31,370 32,240 33,50
39,380 40,120 41,4440 42,1170
43,7960 44,400 45,4560 46,120
47,20 51,10 52,10 53,200
54,450 55,5120 56,1970 57,9999
58,500 59,60 60,40 61,60
62,60 63,4810 64,110 65,50
66,70 67,640 68,1350 69,3640
70,1600 71,6970 72,400 73,80
74,10 75,1720 76,60 77,60
78,10 79,60 80,30 81,360
82,1720 83,3580 84,1080 85,4690
86,300 87,20 88,10 89,20
90,30 91,30 92,10 93,20
94,10 95,240 96,540 97,2710
98,660 99,1350 100,100 101,40
102,10 103,10 104,10 105,10
106,10 107,10 108,10 109,120
110,220 111,1480 112,460 113,770
114,70 115,10 116,70 117,250
118,30 119,20 120,10 121,10
122,10 123,60 124,130 125,740
126,320 127,530 128,60 129,10
130,10 131,30 132,10 133,10
134,10 135,10 136,10 137,30
138,90 139,330 140,230 141,420
142,50 143,10 145,10 147,10
148,10 149,10 151,10 152,50
153,190 154,160 155,320 156,40
157,10 165,10 166,30 167,110
168,120 169,200 170,30 179,10
180,10 181,50 182,50 183,90
184,10 191,10 194,20 195,30
196,550 197,90 198,10 207,10
208,10 209,10 210,10 211,10
212,10 221,10 222,20 223,10
224,520 225,390 226,70 227,10
238,10 239,60 240,10 241,30
242,10 243,30 244,10 255,570
256,110 257,10 280,10 281,10
285,10 286,14 287,10
##END=
