##TITLE=(Triphenylphosphoranylidene)acetaldehyde
##JCAMP-DX=4.24
##DATA TYPE=MASS SPECTRUM
##ORIGIN=Insect Chem. Ecol. Lab., USDA, Beltsville, MD 20705
##OWNER=NIST Mass Spectrometry Data Center
Collection (C) 2014 copyright by the U.S. Secretary of Commerce
on behalf of the United States of America. All rights reserved.
##CAS REGISTRY NO=2136-75-6
##$NIST MASS SPEC NO=132320
##MOLFORM=C20 H17 O P
##MW=304
##$NIST SOURCE=MSDC
##XUNITS=M/Z
##YUNITS=RELATIVE INTENSITY
##XFACTOR=1
##YFACTOR=1
##FIRSTX=41
##LASTX=306
##FIRSTY=15
##MAXX=306
##MINX=41
##MAXY=9999
##MINY=7
##NPOINTS=142
##PEAK TABLE=(XY..XY)
41,15 42,103 43,26 45,24
47,109 49,279 50,225 51,1007
52,108 53,8 56,31 57,122
62,25 63,150 64,30 65,244
69,76 71,23 72,32 74,57
75,71 76,98 77,1222 78,498
79,66 80,27 81,101 82,35
83,78 84,168 86,148 88,26
89,133 90,46 91,542 92,43
93,15 94,33 95,164 98,26
99,9 102,94 103,55 105,196
107,588 108,381 109,103 113,81
115,260 116,20 118,7 119,48
120,186 121,231 123,43 124,8
125,16 126,51 127,45 128,105
129,44 131,43 133,227 139,124
141,105 143,11 144,33 149,115
150,40 151,105 152,638 153,183
154,130 155,56 157,202 159,12
163,27 164,47 165,1045 166,273
167,134 169,53 170,193 171,86
173,18 178,161 179,178 180,147
181,98 182,13 183,3357 184,343
185,1027 186,126 194,141 195,163
196,246 197,280 198,98 199,152
200,33 201,402 202,303 203,44
207,42 209,7 213,8 215,37
220,8 225,43 226,179 227,262
228,206 229,48 233,49 239,17
241,16 255,9 257,115 258,18
259,201 260,110 261,193 262,169
263,19 270,8 271,24 273,50
274,35 275,3316 276,734 277,483
278,207 279,36 287,187 288,42
289,79 301,35 303,9999 304,7054
305,1502 306,165
##END=
