##TITLE=4-Anilino-N-Phenethylpiperidine
##JCAMP-DX=4.24
##DATA TYPE=MASS SPECTRUM
##ORIGIN=Drug Lab
##OWNER=NIST Mass Spectrometry Data Center
Collection (C) 2014 copyright by the U.S. Secretary of Commerce
on behalf of the United States of America. All rights reserved.
##CAS REGISTRY NO=21409-26-7
##$NIST MASS SPEC NO=335007
##MOLFORM=C19 H24 N2
##MW=280
##$NIST SOURCE=MSDC
##XUNITS=M/Z
##YUNITS=RELATIVE INTENSITY
##XFACTOR=1
##YFACTOR=1
##FIRSTX=40
##LASTX=281
##FIRSTY=40
##MAXX=281
##MINX=40
##MAXY=9999
##MINY=10
##NPOINTS=84
##PEAK TABLE=(XY..XY)
40,40 41,380 42,1932 43,190
44,3273 45,80 50,60 51,300
52,110 53,110 54,160 55,260
56,320 57,140 58,40 62,10
63,110 64,60 65,591 66,180
67,100 68,210 69,120 70,701
71,50 72,10 73,10 74,10
75,20 77,1301 78,310 79,540
80,100 81,40 82,150 83,30
84,60 89,80 91,1431 92,290
93,380 95,691 96,1601 97,210
98,20 102,50 103,450 104,651
105,1802 106,530 107,40 115,100
116,40 117,480 118,1842 119,390
120,120 128,20 129,40 130,591
131,410 132,1251 133,160 134,90
143,20 144,180 146,9999 147,1151
148,160 149,10 158,50 159,30
160,340 161,50 173,10 184,30
185,30 186,40 187,90 189,6186
190,831 191,40 280,360 281,80
##END=
