##TITLE=Pimaric acid, TMS derivative
##JCAMP-DX=4.24
##DATA TYPE=MASS SPECTRUM
##ORIGIN=M.ENDE, STAATLICHES CHEM. UNTERSUCHUNGS AMT, OLDENBURG, W.GE4
##OWNER=NIST Mass Spectrometry Data Center
Collection (C) 2014 copyright by the U.S. Secretary of Commerce
on behalf of the United States of America. All rights reserved.
##CAS REGISTRY NO=21414-46-0
##$NIST MASS SPEC NO=90664
##MOLFORM=C23 H38 O2 Si
##MW=374
##$NIST SOURCE=MSDC
##XUNITS=M/Z
##YUNITS=RELATIVE INTENSITY
##XFACTOR=1
##YFACTOR=1
##FIRSTX=41
##LASTX=375
##FIRSTY=1796
##MAXX=375
##MINX=41
##MAXY=9999
##MINY=60
##NPOINTS=121
##PEAK TABLE=(XY..XY)
41,1796 43,539 44,120 45,539
46,60 47,60 53,599 54,120
55,1796 56,150 58,299 59,120
60,90 65,240 66,120 67,1198
68,120 69,898 72,180 73,9999
74,838 75,2096 76,120 77,539
78,180 79,1497 80,180 81,1796
82,180 83,60 91,1737 92,479
93,1198 94,299 95,599 96,60
97,599 99,60 103,120 104,120
105,1317 106,299 107,1078 108,299
109,1377 110,60 115,120 116,160
117,1198 118,120 119,1317 120,2994
121,6287 122,838 123,1078 124,120
125,120 128,60 129,180 130,120
131,539 132,120 133,1198 134,479
135,599 136,60 141,60 142,60
143,719 144,180 145,479 146,180
147,599 148,838 149,479 150,180
151,120 157,120 158,120 159,479
160,120 161,719 162,120 163,60
171,120 172,299 173,359 174,120
175,299 176,60 185,240 186,120
187,299 188,120 189,60 199,150
201,150 213,180 214,120 215,120
225,120 226,180 227,299 228,180
229,120 237,120 238,1078 239,1138
240,120 241,719 242,120 250,120
251,599 252,180 256,120 257,2395
258,479 359,1497 360,419 374,1078
375,240
##END=
