##TITLE=Dehydroabietic acid, TMS derivative
##JCAMP-DX=4.24
##DATA TYPE=MASS SPECTRUM
##ORIGIN=O A MAMER, MCGILL UNIVERSITY, MONTRE
##OWNER=NIST Mass Spectrometry Data Center
Collection (C) 2014 copyright by the U.S. Secretary of Commerce
on behalf of the United States of America. All rights reserved.
##CAS REGISTRY NO=21414-49-3
##$NIST MASS SPEC NO=79558
##MOLFORM=C23 H36 O2 Si
##MW=372
##$NIST SOURCE=MSDC
##XUNITS=M/Z
##YUNITS=RELATIVE INTENSITY
##XFACTOR=1
##YFACTOR=1
##FIRSTX=16
##LASTX=376
##FIRSTY=46
##MAXX=376
##MINX=16
##MAXY=9999
##MINY=7
##NPOINTS=226
##PEAK TABLE=(XY..XY)
16,46 17,30 18,51 26,44
27,217 28,161 29,251 39,165
40,24 41,1162 42,62 43,1621
44,167 45,542 47,127 50,7
51,29 53,232 55,877 56,86
57,249 58,108 59,108 60,65
61,111 65,120 67,291 68,80
69,848 70,120 71,254 72,144
73,5434 74,458 75,1241 76,93
77,184 78,108 79,246 80,89
81,390 82,153 83,356 84,79
85,124 89,96 91,713 92,136
93,277 94,94 95,282 96,65
97,190 98,66 99,91 103,243
104,89 105,514 106,232 107,296
108,124 109,547 110,75 111,94
112,83 113,85 114,62 115,401
116,296 117,458 118,133 119,409
120,159 121,420 122,119 123,266
125,79 127,155 128,564 129,913
130,330 131,775 132,58 133,513
134,117 135,263 136,93 137,77
139,68 141,503 142,289 143,1089
144,227 145,432 146,310 147,446
148,275 149,206 150,213 151,117
152,137 153,224 154,266 155,600
156,412 157,558 158,252 159,882
160,198 161,170 162,94 163,142
164,82 165,262 166,119 167,330
168,213 169,462 170,142 171,1386
172,334 173,1193 174,370 175,116
176,72 177,125 178,120 179,173
180,108 181,176 182,122 183,438
184,131 185,948 186,463 187,367
188,119 189,125 190,69 191,137
192,69 193,207 194,83 195,217
196,133 197,547 198,127 199,431
200,198 201,448 202,106 203,86
205,82 207,283 208,68 209,198
210,97 211,328 212,105 213,358
214,119 215,255 216,86 217,72
219,85 221,452 222,148 223,316
224,133 225,401 226,139 227,145
228,79 229,91 230,89 231,195
232,66 233,72 235,72 237,396
239,9999 240,2124 241,765 242,184
243,671 244,170 245,150 249,77
250,407 251,289 252,137 253,167
254,378 255,1120 256,700 257,255
258,311 259,372 260,99 265,69
267,190 268,62 269,63 271,68
281,203 283,100 295,294 297,63
329,63 333,72 341,145 343,110
344,62 355,151 357,1179 358,418
359,395 361,221 362,165 369,156
370,106 372,1083 373,434 374,251
375,110 376,144
##END=
