##TITLE=3-Chloro-4-methylbenzonitrile
##JCAMP-DX=4.24
##DATA TYPE=MASS SPECTRUM
##ORIGIN=Japan AIST/NIMC Database- Spectrum MS-IW- 661
##OWNER=NIST Mass Spectrometry Data Center
Collection (C) 2014 copyright by the U.S. Secretary of Commerce
on behalf of the United States of America. All rights reserved.
##CAS REGISTRY NO=21423-81-4
##$NIST MASS SPEC NO=239405
##MOLFORM=C8 H6 Cl N
##MW=151
##$NIST SOURCE=MSDC
##XUNITS=M/Z
##YUNITS=RELATIVE INTENSITY
##XFACTOR=1
##YFACTOR=1
##FIRSTX=26
##LASTX=154
##FIRSTY=10
##MAXX=154
##MINX=26
##MAXY=9999
##MINY=10
##NPOINTS=64
##PEAK TABLE=(XY..XY)
26,10 27,40 28,40 36,30
37,70 38,99 39,279 40,20
41,10 43,60 44,60 47,10
49,50 50,159 51,149 52,40
55,10 56,50 57,389 58,50
60,20 61,129 62,279 63,429
64,169 65,80 66,10 72,20
73,119 74,60 75,119 76,70
77,10 84,20 85,40 86,60
87,149 88,429 89,1049 90,179
91,10 97,40 98,30 99,60
100,50 101,10 110,10 111,10
112,10 114,559 115,1049 116,9999
117,919 118,30 123,319 124,129
125,119 126,40 149,10 150,619
151,4569 152,619 153,1459 154,129
##END=
