##TITLE=1,1'-Biphenyl, 3-chloro-4-methoxy-
##JCAMP-DX=4.24
##DATA TYPE=MASS SPECTRUM
##ORIGIN=D. KUEHL AND G. VEITH, EPA- DULUTH, USA
##OWNER=NIST Mass Spectrometry Data Center
Collection (C) 2014 copyright by the U.S. Secretary of Commerce
on behalf of the United States of America. All rights reserved.
##CAS REGISTRY NO=21424-83-9
##$NIST MASS SPEC NO=58854
##MOLFORM=C13 H11 Cl O
##MW=218
##$NIST SOURCE=MSDC
##XUNITS=M/Z
##YUNITS=RELATIVE INTENSITY
##XFACTOR=1
##YFACTOR=1
##FIRSTX=63
##LASTX=220
##FIRSTY=1120
##MAXX=220
##MINX=63
##MAXY=9999
##MINY=501
##NPOINTS=26
##PEAK TABLE=(XY..XY)
63,1120 73,858 75,745 87,501
89,850 102,547 113,635 114,560
115,1507 138,716 139,6284 140,1915
149,1203 150,708 151,1038 152,1777
153,545 175,6366 176,529 177,2220
203,9999 204,1563 205,2867 218,9139
219,1294 220,3253
##END=
