##TITLE=Dispiro[2.0.2.2]octane
##JCAMP-DX=4.24
##DATA TYPE=MASS SPECTRUM
##ORIGIN=D.HENNEBERG, MAX-PLANCK INSTITUTE, MULHEIM, WEST GERMANY
##OWNER=NIST Mass Spectrometry Data Center
Collection (C) 2014 copyright by the U.S. Secretary of Commerce
on behalf of the United States of America. All rights reserved.
##CAS REGISTRY NO=21426-37-9
##$NIST MASS SPEC NO=61512
##MOLFORM=C8 H12
##MW=108
##$NIST SOURCE=MSDC
##XUNITS=M/Z
##YUNITS=RELATIVE INTENSITY
##XFACTOR=1
##YFACTOR=1
##FIRSTX=26
##LASTX=109
##FIRSTY=263
##MAXX=109
##MINX=26
##MAXY=9999
##MINY=8
##NPOINTS=55
##PEAK TABLE=(XY..XY)
26,263 27,1698 28,620 29,430
30,15 31,59 32,30 34,8
37,9 38,120 39,3292 40,1041
41,2115 42,181 43,52 44,87
45,19 50,230 51,1089 52,1590
53,1756 54,1690 55,321 56,70
57,12 62,35 63,182 64,77
65,1447 66,1038 67,1494 68,166
69,53 71,9 75,57 76,31
77,4977 78,1124 79,9999 80,8581
81,665 82,61 89,23 91,3294
92,331 93,4021 94,339 95,42
103,55 104,12 105,190 106,29
107,262 108,313 109,33
##END=
