##TITLE=1-(4-Fluorophenyl)imidazole
##JCAMP-DX=4.24
##DATA TYPE=MASS SPECTRUM
##ORIGIN=NIST Mass Spectrometry Data Center, 1994
##OWNER=NIST Mass Spectrometry Data Center
Collection (C) 2014 copyright by the U.S. Secretary of Commerce
on behalf of the United States of America. All rights reserved.
##CAS REGISTRY NO=21441-24-7
##$NIST MASS SPEC NO=134586
##MOLFORM=C9 H7 F N2
##MW=162
##$NIST SOURCE=MSDC
##XUNITS=M/Z
##YUNITS=RELATIVE INTENSITY
##XFACTOR=1
##YFACTOR=1
##FIRSTX=14
##LASTX=164
##FIRSTY=22
##MAXX=164
##MINX=14
##MAXY=9999
##MINY=9
##NPOINTS=64
##PEAK TABLE=(XY..XY)
14,22 25,38 26,470 27,201
28,9 31,418 33,96 37,174
38,387 39,512 40,538 41,823
44,54 45,104 49,93 50,839
51,644 52,404 53,75 55,59
56,319 57,1106 58,165 61,235
62,380 63,545 64,190 65,68
66,61 67,59 68,510 69,664
70,103 73,89 74,565 75,4112
76,375 81,796 82,514 83,431
84,76 87,94 88,129 89,181
92,43 93,103 95,4707 96,459
107,1848 108,7127 109,722 110,53
114,65 115,109 122,680 123,73
132,43 134,1006 135,4707 136,490
160,63 162,9999 163,1025 164,74
##END=
