##TITLE=3-(trifluoromethyl)phenoxyacetonitrile
##JCAMP-DX=4.24
##DATA TYPE=MASS SPECTRUM
##ORIGIN=NIST Mass Spectrometry Data Center
##OWNER=NIST Mass Spectrometry Data Center
Collection (C) 2014 copyright by the U.S. Secretary of Commerce
on behalf of the United States of America. All rights reserved.
##CAS REGISTRY NO=2145-31-5
##$NIST MASS SPEC NO=342737
##MOLFORM=C9 H6 F3 N O
##MW=201
##$NIST SOURCE=MSDC
##XUNITS=M/Z
##YUNITS=RELATIVE INTENSITY
##XFACTOR=1
##YFACTOR=1
##FIRSTX=12
##LASTX=203
##FIRSTY=60
##MAXX=203
##MINX=12
##MAXY=9999
##MINY=10
##NPOINTS=115
##PEAK TABLE=(XY..XY)
12,60 13,210 14,140 18,60
20,30 24,10 25,70 26,220
27,110 28,621 29,320 30,60
31,200 32,20 33,30 37,440
38,1692 39,1742 40,2853 41,170
48,10 49,110 50,1081 51,450
52,50 53,130 54,80 55,100
56,150 57,1291 58,30 60,30
61,390 62,871 63,2973 64,931
65,100 66,120 67,20 68,130
69,891 70,40 71,20 73,90
74,360 75,1351 76,290 77,100
78,20 79,30 80,60 81,280
83,3023 84,180 85,20 86,20
87,180 88,601 89,40 91,30
92,200 93,100 94,120 95,561
96,110 99,230 100,70 101,40
102,20 104,360 105,40 106,70
107,200 110,10 113,5285 114,1812
115,110 119,110 120,20 121,50
122,10 123,30 125,360 126,120
127,170 128,20 132,3883 133,9999
134,631 135,20 141,120 142,230
143,80 145,871 146,300 147,50
150,10 151,30 152,60 153,20
154,20 161,6276 162,581 163,40
170,50 172,210 173,270 174,30
175,20 182,1491 183,150 184,10
201,6876 202,681 203,50
##END=
