##TITLE=1,2,3,4-Tetramethoxybenzene
##JCAMP-DX=4.24
##DATA TYPE=MASS SPECTRUM
##ORIGIN=A. Brossi, LC, NIDDK, NIH, Bethesda, MD 20892
##OWNER=NIST Mass Spectrometry Data Center
Collection (C) 2014 copyright by the U.S. Secretary of Commerce
on behalf of the United States of America. All rights reserved.
##CAS REGISTRY NO=21450-56-6
##$NIST MASS SPEC NO=124915
##MOLFORM=C10 H14 O4
##MW=198
##$NIST SOURCE=MSDC
##XUNITS=M/Z
##YUNITS=RELATIVE INTENSITY
##XFACTOR=1
##YFACTOR=1
##FIRSTX=41
##LASTX=201
##FIRSTY=126
##MAXX=201
##MINX=41
##MAXY=9999
##MINY=3
##NPOINTS=100
##PEAK TABLE=(XY..XY)
41,126 42,48 43,244 44,23
45,82 49,63 50,271 51,278
52,163 53,673 54,657 55,184
56,39 57,38 59,106 60,4
61,51 62,75 63,111 64,78
65,339 66,532 67,167 68,133
69,227 70,105 71,37 73,3
74,34 75,35 76,62 77,543
78,210 79,343 80,106 81,183
82,471 83,121 84,14 85,30
89,3 91,29 92,171 93,246
94,414 95,981 96,129 97,1121
98,68 99,82 105,28 106,46
107,231 108,254 109,369 110,106
111,144 112,77 113,4 120,11
121,66 122,174 123,993 124,411
125,607 126,55 127,64 135,28
136,33 137,519 138,323 139,125
140,3829 141,295 142,41 149,19
150,27 151,76 152,120 153,570
154,68 155,1379 156,118 157,19
165,26 166,18 167,168 168,1194
169,119 170,23 181,50 182,299
183,5043 184,491 185,71 197,3
198,9999 199,1058 200,143 201,3
##END=
