##TITLE=Bicyclo[2.2.1]heptane, 2-ethyl-
##JCAMP-DX=4.24
##DATA TYPE=MASS SPECTRUM
##ORIGIN=D.HENNEBERG, MAX-PLANCK INSTITUTE, MULHEIM, WEST GERMANY
##OWNER=NIST Mass Spectrometry Data Center
Collection (C) 2014 copyright by the U.S. Secretary of Commerce
on behalf of the United States of America. All rights reserved.
##CAS REGISTRY NO=2146-41-0
##$NIST MASS SPEC NO=60638
##MOLFORM=C9 H16
##MW=124
##$NIST SOURCE=MSDC
##XUNITS=M/Z
##YUNITS=RELATIVE INTENSITY
##XFACTOR=1
##YFACTOR=1
##FIRSTX=27
##LASTX=124
##FIRSTY=249
##MAXX=124
##MINX=27
##MAXY=9999
##MINY=9
##NPOINTS=28
##PEAK TABLE=(XY..XY)
27,249 29,129 39,748 40,39
41,1506 42,59 53,389 54,638
55,1377 56,39 65,159 66,488
67,4281 68,1766 69,359 70,269
77,149 78,39 79,249 81,1117
82,1407 83,269 93,39 94,9
95,9999 96,1706 109,209 124,518
##END=
