##TITLE=Propanoic acid, 3-chloro-2,2-dimethyl-, methyl ester
##JCAMP-DX=4.24
##DATA TYPE=MASS SPECTRUM
##OWNER=NIST Mass Spectrometry Data Center
Collection (C) 2014 copyright by the U.S. Secretary of Commerce
on behalf of the United States of America. All rights reserved.
##CAS REGISTRY NO=21491-96-3
##$NIST MASS SPEC NO=4717
##MOLFORM=C6 H11 Cl O2
##MW=150
##$NIST SOURCE=MSDC
##XUNITS=M/Z
##YUNITS=RELATIVE INTENSITY
##XFACTOR=1
##YFACTOR=1
##FIRSTX=12
##LASTX=152
##FIRSTY=80
##MAXX=152
##MINX=12
##MAXY=9999
##MINY=10
##NPOINTS=90
##PEAK TABLE=(XY..XY)
12,80 13,140 14,540 15,6426
16,90 24,10 25,50 26,410
27,2913 28,821 29,3543 30,250
31,200 32,30 33,90 35,50
36,80 37,230 38,510 39,3944
40,631 41,4164 42,601 43,480
44,60 45,320 46,10 47,60
48,60 49,851 50,250 51,530
52,120 53,751 54,460 55,9999
56,5955 57,370 58,20 59,2853
60,120 61,581 62,100 63,1361
64,60 65,440 66,20 67,20
68,20 69,500 70,220 71,130
72,70 73,1852 74,120 75,280
76,30 77,100 78,10 79,80
81,50 82,380 83,561 84,40
85,30 87,40 88,20 89,50
90,2272 91,4684 92,761 93,1511
94,70 95,20 97,10 113,30
114,661 115,3353 116,230 117,30
119,671 120,40 121,220 122,20
135,140 136,10 137,50 138,10
150,10 152,10
##END=
