##TITLE=Benzo[b]triphenylene
##JCAMP-DX=4.24
##DATA TYPE=MASS SPECTRUM
##ORIGIN=Japan AIST/NIMC Database- Spectrum MS-IW-3108
##OWNER=NIST Mass Spectrometry Data Center
Collection (C) 2014 copyright by the U.S. Secretary of Commerce
on behalf of the United States of America. All rights reserved.
##CAS REGISTRY NO=215-58-7
##$NIST MASS SPEC NO=229722
##MOLFORM=C22 H14
##MW=278
##$NIST SOURCE=MSDC
##XUNITS=M/Z
##YUNITS=RELATIVE INTENSITY
##XFACTOR=1
##YFACTOR=1
##FIRSTX=39
##LASTX=281
##FIRSTY=10
##MAXX=281
##MINX=39
##MAXY=9999
##MINY=10
##NPOINTS=82
##PEAK TABLE=(XY..XY)
39,10 50,10 51,10 63,20
74,10 75,10 78,20 83,10
84,10 86,10 87,30 88,10
91,40 92,50 93,30 98,10
99,40 100,40 101,10 105,10
106,10 110,10 111,50 112,169
113,159 117,10 118,30 122,10
123,50 124,269 125,479 126,199
130,30 131,90 132,20 135,20
136,159 137,689 138,1359 139,1569
140,40 150,10 174,10 187,20
198,10 199,10 200,30 202,10
211,20 213,10 222,30 223,30
224,80 225,30 226,40 235,20
236,10 237,60 238,20 239,30
246,20 247,20 248,129 249,80
250,209 251,50 252,109 253,20
261,30 262,10 263,30 271,10
272,90 273,90 274,629 275,309
276,2139 277,779 278,9999 279,2389
280,289 281,20
##END=
