##TITLE=Benzoic acid, 3,4-dihydroxy-, methyl ester
##JCAMP-DX=4.24
##DATA TYPE=MASS SPECTRUM
##ORIGIN=NIST Mass Spectrometry Data Center
##OWNER=NIST Mass Spectrometry Data Center
Collection (C) 2014 copyright by the U.S. Secretary of Commerce
on behalf of the United States of America. All rights reserved.
##CAS REGISTRY NO=2150-43-8
##$NIST MASS SPEC NO=352468
##MOLFORM=C8 H8 O4
##MW=168
##$NIST SOURCE=MSDC
##XUNITS=M/Z
##YUNITS=RELATIVE INTENSITY
##XFACTOR=1
##YFACTOR=1
##FIRSTX=15
##LASTX=170
##FIRSTY=80
##MAXX=170
##MINX=15
##MAXY=9999
##MINY=10
##NPOINTS=101
##PEAK TABLE=(XY..XY)
15,80 25,10 26,50 27,230
28,30 29,200 30,30 31,60
36,10 37,70 38,130 39,240
40,40 41,40 42,40 43,30
44,10 45,40 46,10 48,10
49,90 50,520 51,881 52,841
53,1091 54,190 55,741 56,30
57,10 58,10 59,80 60,10
61,110 62,350 63,641 64,90
65,70 66,60 67,30 68,60
69,90 70,20 71,10 73,10
74,20 75,20 76,10 77,100
78,50 79,290 80,190 81,1191
82,90 83,10 85,40 90,20
91,200 92,40 93,30 94,10
95,20 96,50 97,20 105,10
106,20 107,270 108,380 109,2542
110,250 111,200 112,10 119,30
120,10 121,40 122,40 123,100
124,30 125,50 126,10 127,10
128,10 133,10 134,10 135,30
136,260 137,9999 138,801 139,170
140,10 149,20 150,30 151,40
152,20 153,20 163,10 165,20
166,10 167,220 168,4004 169,370
170,40
##END=
