##TITLE=Benzoic acid, 2,3-dimethoxy-, methyl ester
##JCAMP-DX=4.24
##DATA TYPE=MASS SPECTRUM
##ORIGIN=NIST Mass Spectrometry Data Center
##OWNER=NIST Mass Spectrometry Data Center
Collection (C) 2014 copyright by the U.S. Secretary of Commerce
on behalf of the United States of America. All rights reserved.
##CAS REGISTRY NO=2150-42-7
##$NIST MASS SPEC NO=332765
##MOLFORM=C10 H12 O4
##MW=196
##$NIST SOURCE=MSDC
##XUNITS=M/Z
##YUNITS=RELATIVE INTENSITY
##XFACTOR=1
##YFACTOR=1
##FIRSTX=14
##LASTX=199
##FIRSTY=20
##MAXX=199
##MINX=14
##MAXY=9999
##MINY=10
##NPOINTS=116
##PEAK TABLE=(XY..XY)
14,20 15,340 16,10 26,30
27,60 28,30 29,270 30,50
31,70 33,10 37,140 38,170
39,581 40,80 41,140 42,10
43,100 45,1812 46,40 47,20
49,120 50,1221 51,3043 52,581
53,1451 54,140 55,731 56,30
57,10 59,871 60,30 61,280
62,591 63,1231 64,591 65,1812
66,430 67,140 68,30 69,130
70,10 73,30 74,300 75,290
76,891 77,3303 78,601 79,1732
80,340 81,110 82,170 85,10
89,20 90,150 91,701 92,1521
93,781 94,390 95,751 96,50
97,40 98,10 99,20 103,60
104,320 105,611 106,220 107,4594
108,1031 109,641 110,470 111,40
118,320 119,1131 120,761 121,1742
122,3873 123,1291 124,120 125,1031
126,80 127,10 132,90 133,480
134,160 135,2502 136,741 137,390
138,140 139,10 145,10 146,20
147,80 149,2853 150,1151 151,490
152,70 153,821 154,70 155,10
163,9999 164,1271 165,8257 166,861
167,1461 168,140 169,20 177,10
179,130 180,30 181,300 182,30
196,5595 197,621 198,80 199,10
##END=
