##TITLE=2-Mercaptoethyl ether
##JCAMP-DX=4.24
##DATA TYPE=MASS SPECTRUM
##ORIGIN=NIST Mass Spectrometry Data Center, 1994
##OWNER=NIST Mass Spectrometry Data Center
Collection (C) 2014 copyright by the U.S. Secretary of Commerce
on behalf of the United States of America. All rights reserved.
##CAS REGISTRY NO=2150-02-9
##$NIST MASS SPEC NO=134134
##MOLFORM=C4 H10 O S2
##MW=138
##$NIST SOURCE=MSDC
##XUNITS=M/Z
##YUNITS=RELATIVE INTENSITY
##XFACTOR=1
##YFACTOR=1
##FIRSTX=12
##LASTX=138
##FIRSTY=14
##MAXX=138
##MINX=12
##MAXY=9999
##MINY=2
##NPOINTS=65
##PEAK TABLE=(XY..XY)
12,14 13,32 14,114 15,299
16,5 19,29 26,428 27,2518
28,374 29,474 30,57 31,276
32,97 33,333 34,293 35,1837
36,32 37,78 42,71 44,243
45,1818 46,598 47,1495 48,197
49,88 50,16 58,498 59,1031
60,2977 61,9999 62,443 63,509
64,105 65,22 66,18 67,2
74,12 75,22 76,139 77,34
78,2 79,1116 80,69 81,50
82,19 86,113 87,66 88,8
89,43 90,82 91,169 92,466
93,48 94,217 95,19 96,22
104,332 105,202 106,28 107,18
110,91 120,129 122,11 136,19
138,29
##END=
