##TITLE=Benzoic acid, 3,5-dimethoxy-, methyl ester
##JCAMP-DX=4.24
##DATA TYPE=MASS SPECTRUM
##ORIGIN=NIST Mass Spectrometry Data Center
##OWNER=NIST Mass Spectrometry Data Center
Collection (C) 2014 copyright by the U.S. Secretary of Commerce
on behalf of the United States of America. All rights reserved.
##CAS REGISTRY NO=2150-37-0
##$NIST MASS SPEC NO=352807
##MOLFORM=C10 H12 O4
##MW=196
##$NIST SOURCE=MSDC
##XUNITS=M/Z
##YUNITS=RELATIVE INTENSITY
##XFACTOR=1
##YFACTOR=1
##FIRSTX=14
##LASTX=199
##FIRSTY=10
##MAXX=199
##MINX=14
##MAXY=9999
##MINY=10
##NPOINTS=109
##PEAK TABLE=(XY..XY)
14,10 15,340 26,20 27,60
28,100 29,220 30,60 31,80
32,10 37,60 38,200 39,310
40,60 41,120 42,30 43,70
44,10 45,70 49,40 50,420
51,1241 52,370 53,450 54,70
55,100 56,10 57,20 59,781
60,30 61,170 62,681 63,1952
64,571 65,340 66,480 67,140
68,60 69,1081 70,40 71,10
73,40 74,240 75,270 76,110
77,1611 78,540 79,1431 80,210
81,80 82,160 85,20 89,10
90,90 91,340 92,711 93,300
94,550 95,420 96,30 97,10
98,150 102,20 103,20 104,10
105,170 106,520 107,2722 108,831
109,1231 110,230 111,20 119,120
120,60 121,210 122,4534 123,721
124,70 125,490 126,40 131,10
133,20 134,100 135,1752 136,230
137,4494 138,4984 139,460 140,40
149,50 150,480 151,270 152,50
153,190 154,20 163,130 165,8958
166,1001 167,150 168,10 180,30
181,130 182,20 193,10 194,10
195,160 196,9999 197,1071 198,140
199,10
##END=
