##TITLE=Benzoic acid, 3,4-dimethoxy-, methyl ester
##JCAMP-DX=4.24
##DATA TYPE=MASS SPECTRUM
##ORIGIN=Japan AIST/NIMC Database- Spectrum MS-IW-7824
##OWNER=NIST Mass Spectrometry Data Center
Collection (C) 2014 copyright by the U.S. Secretary of Commerce
on behalf of the United States of America. All rights reserved.
##CAS REGISTRY NO=2150-38-1
##$NIST MASS SPEC NO=229149
##MOLFORM=C10 H12 O4
##MW=196
##$NIST SOURCE=MSDC
##XUNITS=M/Z
##YUNITS=RELATIVE INTENSITY
##XFACTOR=1
##YFACTOR=1
##FIRSTX=14
##LASTX=199
##FIRSTY=10
##MAXX=199
##MINX=14
##MAXY=9999
##MINY=10
##NPOINTS=99
##PEAK TABLE=(XY..XY)
14,10 15,269 26,10 27,20
28,139 29,60 30,10 31,60
37,30 38,50 39,149 40,20
41,80 42,10 43,60 44,10
45,60 49,20 50,279 51,719
52,139 53,219 54,20 55,60
59,609 60,20 61,50 62,159
63,299 64,139 65,219 66,159
67,50 68,10 69,119 73,10
74,90 75,149 76,249 77,879
78,129 79,1069 80,139 81,149
82,109 83,20 85,10 91,279
92,379 93,349 94,579 95,219
96,10 97,10 98,70 103,90
104,90 105,109 106,30 107,459
108,99 109,219 110,129 111,50
119,429 120,219 121,679 122,649
123,239 124,20 125,689 126,50
133,20 134,10 135,219 136,249
137,1109 138,179 139,80 149,429
150,70 151,149 152,20 153,319
154,30 163,20 165,8989 166,909
167,109 179,20 180,60 181,1179
182,119 183,10 195,80 196,9999
197,1099 198,129 199,10
##END=
