##TITLE=Benzoic acid, 2,6-dihydroxy-, methyl ester
##JCAMP-DX=4.24
##DATA TYPE=MASS SPECTRUM
##ORIGIN=Japan AIST/NIMC Database- Spectrum MS-NW-5870
##OWNER=NIST Mass Spectrometry Data Center
Collection (C) 2014 copyright by the U.S. Secretary of Commerce
on behalf of the United States of America. All rights reserved.
##CAS REGISTRY NO=2150-45-0
##$NIST MASS SPEC NO=233233
##MOLFORM=C8 H8 O4
##MW=168
##$NIST SOURCE=MSDC
##XUNITS=M/Z
##YUNITS=RELATIVE INTENSITY
##XFACTOR=1
##YFACTOR=1
##FIRSTX=14
##LASTX=170
##FIRSTY=30
##MAXX=170
##MINX=14
##MAXY=9999
##MINY=10
##NPOINTS=78
##PEAK TABLE=(XY..XY)
14,30 15,229 25,10 26,90
27,329 28,70 29,209 30,20
31,90 32,10 33,10 37,99
38,199 39,699 40,70 41,99
42,80 43,20 44,20 45,40
49,40 50,219 51,549 52,949
53,369 54,129 55,369 56,10
59,40 60,10 61,60 62,109
63,259 64,50 65,50 66,70
67,90 68,80 69,319 70,60
71,10 74,10 77,50 78,30
79,349 80,799 81,519 82,40
84,50 85,10 90,10 91,109
92,40 93,10 95,70 96,10
106,20 107,649 108,4899 109,379
110,40 111,10 119,10 122,10
125,10 134,10 135,30 136,9999
137,2079 138,219 139,30 150,50
151,10 153,10 165,60 168,4959
169,459 170,60
##END=
