##TITLE=N-Allyl-N,N-dimethylamine
##JCAMP-DX=4.24
##DATA TYPE=MASS SPECTRUM
##ORIGIN=Japan AIST/NIMC Database- Spectrum MS-NW-3224
##OWNER=NIST Mass Spectrometry Data Center
Collection (C) 2014 copyright by the U.S. Secretary of Commerce
on behalf of the United States of America. All rights reserved.
##CAS REGISTRY NO=2155-94-4
##$NIST MASS SPEC NO=231225
##MOLFORM=C5 H11 N
##MW=85
##$NIST SOURCE=MSDC
##XUNITS=M/Z
##YUNITS=RELATIVE INTENSITY
##XFACTOR=1
##YFACTOR=1
##FIRSTX=14
##LASTX=87
##FIRSTY=50
##MAXX=87
##MINX=14
##MAXY=9999
##MINY=10
##NPOINTS=46
##PEAK TABLE=(XY..XY)
14,50 15,799 16,10 26,99
27,309 28,279 29,239 30,739
31,10 36,20 37,80 38,179
39,1049 40,199 41,2349 42,4189
43,769 44,1159 45,90 50,40
51,60 52,80 53,20 54,60
55,99 56,129 57,139 58,9999
59,409 63,10 64,10 65,10
66,50 67,50 68,319 69,129
70,1129 71,60 80,10 81,10
82,249 83,159 84,2459 85,4049
86,249 87,20
##END=
