##TITLE=2-Propenoic acid, 2-methyl-, octyl ester
##JCAMP-DX=4.24
##DATA TYPE=MASS SPECTRUM
##ORIGIN=NIST Mass Spectrometry Data Center
##OWNER=NIST Mass Spectrometry Data Center
Collection (C) 2014 copyright by the U.S. Secretary of Commerce
on behalf of the United States of America. All rights reserved.
##CAS REGISTRY NO=2157-01-9
##$NIST MASS SPEC NO=341352
##MOLFORM=C12 H22 O2
##MW=198
##$NIST SOURCE=MSDC
##XUNITS=M/Z
##YUNITS=RELATIVE INTENSITY
##XFACTOR=1
##YFACTOR=1
##FIRSTX=15
##LASTX=169
##FIRSTY=10
##MAXX=169
##MINX=15
##MAXY=9999
##MINY=10
##NPOINTS=81
##PEAK TABLE=(XY..XY)
15,10 26,30 27,530 28,40
29,991 30,20 31,50 37,10
38,70 39,1842 40,410 41,6025
42,821 43,1561 44,60 45,50
50,10 51,40 52,20 53,290
54,270 55,3253 56,2082 57,2873
58,160 59,160 65,40 66,10
67,230 68,300 69,9609 70,9999
71,1451 72,100 73,40 74,20
77,20 79,40 81,90 82,641
83,2843 84,1822 85,380 86,90
87,1601 88,100 89,10 93,10
95,70 96,40 97,480 98,140
99,691 100,240 101,100 109,30
110,60 111,240 112,4084 113,380
114,20 121,10 123,30 124,40
125,110 126,30 127,20 128,30
129,30 137,10 138,40 139,60
140,20 141,30 142,20 151,50
152,10 155,10 156,30 165,10
169,70
##END=
