##TITLE=Leptophos
##JCAMP-DX=4.24
##DATA TYPE=MASS SPECTRUM
##ORIGIN=ACCUSTANDARD Chemicals / NIST MS Data Center.
##OWNER=NIST Mass Spectrometry Data Center
Collection (C) 2014 copyright by the U.S. Secretary of Commerce
on behalf of the United States of America. All rights reserved.
##CAS REGISTRY NO=21609-90-5
##$NIST MASS SPEC NO=125600
##MOLFORM=C13 H10 Br Cl2 O2 P S
##MW=410
##$NIST SOURCE=MSDC
##XUNITS=M/Z
##YUNITS=RELATIVE INTENSITY
##XFACTOR=1
##YFACTOR=1
##FIRSTX=15
##LASTX=416
##FIRSTY=133
##MAXX=416
##MINX=15
##MAXY=9999
##MINY=24
##NPOINTS=162
##PEAK TABLE=(XY..XY)
15,133 35,90 36,164 37,118
38,121 39,177 41,32 43,42
44,25 45,409 46,286 47,1883
48,95 49,116 50,607 51,2031
52,115 53,56 57,50 58,38
60,60 61,285 62,621 63,540
64,53 65,200 68,57 69,165
71,40 72,142 73,206 74,419
75,148 76,40 77,3319 78,506
79,118 80,84 81,80 82,70
83,95 84,79 85,49 86,35
89,32 90,41 91,328 92,99
93,67 94,35 95,114 96,275
97,919 98,118 99,276 106,31
107,198 108,190 109,523 110,96
111,71 113,57 118,24 123,216
124,1164 125,470 126,85 127,40
128,36 129,61 131,64 132,97
133,81 134,61 135,34 137,34
138,62 139,311 140,69 141,150
142,34 143,441 144,175 145,147
146,119 151,90 152,32 153,133
154,29 155,128 156,50 157,45
159,102 160,30 161,48 171,9999
172,887 173,488 174,49 175,39
176,48 177,24 178,52 180,27
186,33 187,29 189,35 190,28
201,27 202,85 204,49 206,50
207,36 211,346 213,589 214,87
215,272 217,52 220,55 222,25
223,35 225,70 227,37 239,88
240,123 241,162 242,141 243,66
244,74 249,52 251,206 252,60
253,165 254,38 255,69 282,41
283,45 286,29 318,27 327,54
329,79 330,24 331,34 363,224
364,81 365,299 366,70 367,144
368,29 369,29 375,2565 376,787
377,3248 378,621 379,875 380,163
381,54 410,177 412,326 413,62
414,170 416,30
##END=
