##TITLE=1-Methoxy-1,3-cyclohexadiene
##JCAMP-DX=4.24
##DATA TYPE=MASS SPECTRUM
##ORIGIN=Chuck Anderson, Aldrich Chemical Co.
##OWNER=NIST Mass Spectrometry Data Center
Collection (C) 2014 copyright by the U.S. Secretary of Commerce
on behalf of the United States of America. All rights reserved.
##CAS REGISTRY NO=2161-90-2
##$NIST MASS SPEC NO=108336
##MOLFORM=C7 H10 O
##MW=110
##$NIST SOURCE=MSDC
##XUNITS=M/Z
##YUNITS=RELATIVE INTENSITY
##XFACTOR=1
##YFACTOR=1
##FIRSTX=14
##LASTX=111
##FIRSTY=93
##MAXX=111
##MINX=14
##MAXY=9999
##MINY=23
##NPOINTS=52
##PEAK TABLE=(XY..XY)
14,93 15,412 26,389 27,2132
28,318 29,407 31,222 32,106
37,389 38,1175 39,6329 40,1353
41,6604 42,573 43,682 45,739
49,157 50,1198 51,1972 52,1083
53,963 54,239 55,573 61,111
62,268 63,642 64,278 65,3164
66,1857 67,7980 68,561 69,120
73,23 74,212 75,91 76,197
77,3898 78,1742 79,4311 80,1003
81,372 91,156 92,51 93,213
94,2774 95,6604 96,447 107,149
108,693 109,7430 110,9999 111,762
##END=
