##TITLE=1,10-Dichlorodecane
##JCAMP-DX=4.24
##DATA TYPE=MASS SPECTRUM
##ORIGIN=Japan AIST/NIMC Database- Spectrum MS-NW-5169
##OWNER=NIST Mass Spectrometry Data Center
Collection (C) 2014 copyright by the U.S. Secretary of Commerce
on behalf of the United States of America. All rights reserved.
##CAS REGISTRY NO=2162-98-3
##$NIST MASS SPEC NO=232385
##MOLFORM=C10 H20 Cl2
##MW=210
##$NIST SOURCE=MSDC
##XUNITS=M/Z
##YUNITS=RELATIVE INTENSITY
##XFACTOR=1
##YFACTOR=1
##FIRSTX=15
##LASTX=176
##FIRSTY=40
##MAXX=176
##MINX=15
##MAXY=9999
##MINY=10
##NPOINTS=97
##PEAK TABLE=(XY..XY)
15,40 17,10 18,50 26,60
27,1519 28,169 29,1709 30,40
31,10 32,10 35,20 36,109
37,10 38,40 39,1029 40,189
41,4859 42,1149 43,3489 44,119
49,269 50,20 51,90 52,30
53,419 54,499 55,7939 56,1389
57,1529 58,70 61,30 62,60
63,499 64,30 65,159 66,50
67,619 68,739 69,4799 70,979
71,299 72,20 73,10 74,10
75,99 76,60 77,339 78,30
79,99 80,10 81,349 82,539
83,2249 84,479 85,60 89,40
90,129 91,9999 92,499 93,3159
94,149 95,209 96,249 97,1019
98,139 99,10 103,30 104,919
105,1359 106,369 107,449 108,30
109,189 110,99 111,99 112,30
117,50 118,269 119,199 120,99
121,60 123,10 125,20 130,20
131,50 132,129 133,70 134,50
135,20 138,10 144,10 145,40
146,139 147,30 148,50 174,30
176,10
##END=
