##TITLE=Hexane, 1,2-dichloro-
##JCAMP-DX=4.24
##DATA TYPE=MASS SPECTRUM
##ORIGIN=NIST Mass Spectrometry Data Center, 1990.
##OWNER=NIST Mass Spectrometry Data Center
Collection (C) 2014 copyright by the U.S. Secretary of Commerce
on behalf of the United States of America. All rights reserved.
##CAS REGISTRY NO=2162-92-7
##$NIST MASS SPEC NO=114602
##MOLFORM=C6 H12 Cl2
##MW=154
##$NIST SOURCE=MSDC
##XUNITS=M/Z
##YUNITS=RELATIVE INTENSITY
##XFACTOR=1
##YFACTOR=1
##FIRSTX=15
##LASTX=127
##FIRSTY=153
##MAXX=127
##MINX=15
##MAXY=9999
##MINY=79
##NPOINTS=54
##PEAK TABLE=(XY..XY)
15,153 26,452 27,2811 28,152
29,1825 36,99 37,171 38,497
39,3968 40,948 41,9999 42,3697
43,2508 44,132 49,1303 50,430
51,1036 52,257 53,2220 54,1003
55,4177 56,2920 57,2063 61,834
62,993 63,1307 64,311 65,628
66,250 67,8336 68,250 69,8134
70,429 73,118 75,1201 76,1624
77,905 78,550 79,271 82,6376
83,2619 84,169 89,818 90,843
91,340 92,235 96,79 97,207
99,139 103,106 105,91 118,175
125,629 127,415
##END=
