##TITLE=Diethyl propylmalonate
##JCAMP-DX=4.24
##DATA TYPE=MASS SPECTRUM
##ORIGIN=Japan AIST/NIMC Database- Spectrum MS-NW-8380
##OWNER=NIST Mass Spectrometry Data Center
Collection (C) 2014 copyright by the U.S. Secretary of Commerce
on behalf of the United States of America. All rights reserved.
##CAS REGISTRY NO=2163-48-6
##$NIST MASS SPEC NO=238626
##MOLFORM=C10 H18 O4
##MW=202
##$NIST SOURCE=MSDC
##XUNITS=M/Z
##YUNITS=RELATIVE INTENSITY
##XFACTOR=1
##YFACTOR=1
##FIRSTX=14
##LASTX=204
##FIRSTY=30
##MAXX=204
##MINX=14
##MAXY=9999
##MINY=10
##NPOINTS=104
##PEAK TABLE=(XY..XY)
14,30 15,169 16,10 17,20
18,70 25,10 26,249 27,3009
28,879 29,9999 30,289 31,479
32,20 38,30 39,579 40,90
41,1229 42,499 43,2219 44,169
45,1329 46,50 47,139 50,20
51,40 52,20 53,269 54,199
55,5749 56,1069 57,1579 58,469
59,769 60,189 61,99 65,10
67,249 68,90 69,439 70,159
71,149 72,40 73,5989 74,239
75,50 79,10 81,90 82,229
83,2619 84,799 85,349 86,1769
87,929 88,2269 89,149 90,10
91,10 96,60 97,20 98,20
99,909 100,779 101,8759 102,539
103,80 104,769 105,759 106,30
109,70 110,159 111,50 112,10
113,99 114,1449 115,599 116,50
117,20 127,559 128,539 129,1239
130,409 131,119 132,1669 133,3619
134,219 135,30 141,40 142,10
143,10 145,90 155,20 156,139
157,6149 158,559 159,70 160,8459
161,679 162,90 173,549 174,60
175,90 187,10 203,179 204,20
##END=
