##TITLE=Cycluron
##JCAMP-DX=4.24
##DATA TYPE=MASS SPECTRUM
##ORIGIN=NIST Mass Spectrometry Data Center, 1998.
##OWNER=NIST Mass Spectrometry Data Center
Collection (C) 2014 copyright by the U.S. Secretary of Commerce
on behalf of the United States of America. All rights reserved.
##CAS REGISTRY NO=2163-69-1
##$NIST MASS SPEC NO=291912
##MOLFORM=C11 H22 N2 O
##MW=198
##$NIST SOURCE=MSDC
##XUNITS=M/Z
##YUNITS=RELATIVE INTENSITY
##XFACTOR=1
##YFACTOR=1
##FIRSTX=15
##LASTX=200
##FIRSTY=70
##MAXX=200
##MINX=15
##MAXY=9999
##MINY=10
##NPOINTS=101
##PEAK TABLE=(XY..XY)
15,70 26,10 27,190 28,320
29,250 30,150 31,10 38,10
39,380 40,80 41,1160 42,630
43,540 44,2180 45,2280 46,780
47,20 50,10 51,40 52,30
53,200 54,290 55,740 56,630
57,120 58,120 59,10 63,10
64,10 65,50 66,30 67,380
68,140 69,450 70,120 71,60
72,9999 73,440 74,30 77,50
78,10 79,70 80,30 81,150
82,250 83,70 84,90 85,20
86,20 87,30 88,700 89,2680
90,110 91,20 93,10 94,10
95,40 96,60 97,50 98,120
99,930 100,80 101,270 102,90
103,10 108,10 109,20 110,110
111,30 112,20 113,220 114,230
115,150 116,40 124,20 125,30
126,610 127,1460 128,200 129,60
130,20 138,10 140,10 141,450
142,120 143,40 144,10 152,10
153,10 154,430 155,260 156,50
157,40 169,390 170,50 183,50
184,10 197,20 198,820 199,110
200,10
##END=
