##TITLE=Lenacil
##JCAMP-DX=4.24
##DATA TYPE=MASS SPECTRUM
##ORIGIN=NIST Mass Spectrometry Data Center, 1998.
##OWNER=NIST Mass Spectrometry Data Center
Collection (C) 2014 copyright by the U.S. Secretary of Commerce
on behalf of the United States of America. All rights reserved.
##CAS REGISTRY NO=2164-08-1
##$NIST MASS SPEC NO=291788
##MOLFORM=C13 H18 N2 O2
##MW=234
##$NIST SOURCE=MSDC
##XUNITS=M/Z
##YUNITS=RELATIVE INTENSITY
##XFACTOR=1
##YFACTOR=1
##FIRSTX=27
##LASTX=234
##FIRSTY=220
##MAXX=234
##MINX=27
##MAXY=9999
##MINY=30
##NPOINTS=50
##PEAK TABLE=(XY..XY)
27,220 28,180 29,140 30,80
39,380 40,80 41,670 42,230
43,70 44,50 51,90 52,230
53,900 54,630 55,500 56,140
65,190 66,100 67,300 68,70
69,60 70,70 77,70 78,60
79,150 80,500 81,480 82,550
83,70 96,40 107,60 108,410
109,580 110,840 111,80 124,120
135,270 136,660 137,30 150,40
151,260 152,500 153,9999 154,860
155,30 163,100 177,80 191,30
217,40 234,100
##END=
