##TITLE=cis-4-Decenal
##JCAMP-DX=4.24
##DATA TYPE=MASS SPECTRUM
##ORIGIN=NIST Mass Spectrometry Data Center, 1994
##OWNER=NIST Mass Spectrometry Data Center
Collection (C) 2014 copyright by the U.S. Secretary of Commerce
on behalf of the United States of America. All rights reserved.
##CAS REGISTRY NO=21662-09-9
##$NIST MASS SPEC NO=136408
##MOLFORM=C10 H18 O
##MW=154
##$NIST SOURCE=MSDC
##XUNITS=M/Z
##YUNITS=RELATIVE INTENSITY
##XFACTOR=1
##YFACTOR=1
##FIRSTX=14
##LASTX=137
##FIRSTY=60
##MAXX=137
##MINX=14
##MAXY=9999
##MINY=27
##NPOINTS=65
##PEAK TABLE=(XY..XY)
14,60 15,463 18,33 26,276
27,4588 28,1267 29,5960 30,139
31,134 32,88 37,52 38,205
39,4681 40,725 41,9999 42,1732
43,2210 44,279 50,181 51,536
52,288 53,1529 54,3195 55,5288
56,1645 57,1012 58,87 62,35
63,101 65,461 66,341 67,2806
68,1618 69,2049 70,1444 71,327
72,36 77,506 78,171 79,1214
80,411 81,1677 82,797 83,2945
84,4719 85,283 86,59 91,153
92,27 93,226 94,146 95,506
96,106 97,1018 98,1107 99,279
107,89 108,32 110,996 111,329
112,115 121,39 125,74 136,252
137,27
##END=
