##TITLE=2,4-Dodecadienal, (E,E)-
##JCAMP-DX=4.24
##DATA TYPE=MASS SPECTRUM
##ORIGIN=FOOD RESEARCH REPORT 122, K.E. MURRAY & COLLEAGUES, DIV OF FOOD RESEARCH, CSIRO, AUSTRALIA
##OWNER=NIST Mass Spectrometry Data Center
Collection (C) 2014 copyright by the U.S. Secretary of Commerce
on behalf of the United States of America. All rights reserved.
##CAS REGISTRY NO=21662-16-8
##$NIST MASS SPEC NO=53578
##MOLFORM=C12 H20 O
##MW=180
##$NIST SOURCE=MSDC
##XUNITS=M/Z
##YUNITS=RELATIVE INTENSITY
##XFACTOR=1
##YFACTOR=1
##FIRSTX=26
##LASTX=180
##FIRSTY=200
##MAXX=180
##MINX=26
##MAXY=9999
##MINY=100
##NPOINTS=57
##PEAK TABLE=(XY..XY)
26,200 27,1900 29,2300 31,100
38,100 39,1600 40,400 41,4000
42,600 43,2800 50,100 51,300
52,200 53,900 54,900 55,2000
56,800 57,600 63,100 65,500
66,600 67,2100 68,900 69,700
70,800 71,100 77,500 78,300
79,800 80,500 81,9999 82,1800
83,1600 84,300 85,100 91,500
92,300 93,200 94,300 95,1100
96,800 97,500 98,300 105,200
107,200 108,100 109,400 110,200
111,100 112,100 119,100 121,100
123,400 124,100 137,200 151,100
180,200
##END=
