##TITLE=1H-Pyrrole-2-carboxaldehyde, 1-ethyl-
##JCAMP-DX=4.24
##DATA TYPE=MASS SPECTRUM
##ORIGIN=GEORGE R. WALLER AND BOBBY R. JOHNSON, OKLAHOMA STATE UNIV, USA
##OWNER=NIST Mass Spectrometry Data Center
Collection (C) 2014 copyright by the U.S. Secretary of Commerce
on behalf of the United States of America. All rights reserved.
##CAS REGISTRY NO=2167-14-8
##$NIST MASS SPEC NO=51886
##MOLFORM=C7 H9 N O
##MW=123
##$NIST SOURCE=MSDC
##XUNITS=M/Z
##YUNITS=RELATIVE INTENSITY
##XFACTOR=1
##YFACTOR=1
##FIRSTX=27
##LASTX=125
##FIRSTY=2100
##MAXX=125
##MINX=27
##MAXY=9999
##MINY=100
##NPOINTS=59
##PEAK TABLE=(XY..XY)
27,2100 28,1100 29,1100 37,400
38,1100 39,3700 40,1000 41,1900
42,700 43,900 46,100 50,600
51,1100 52,200 53,1800 54,700
55,600 58,100 59,100 61,100
63,200 64,300 65,1100 66,2100
67,1900 68,1100 69,100 72,100
74,100 75,100 78,700 79,200
80,1400 81,300 82,300 83,200
92,700 93,900 94,7900 95,1100
96,300 97,300 99,100 100,100
103,100 104,100 106,2000 107,200
108,2400 110,200 111,300 113,100
118,100 120,100 121,200 122,3000
123,9999 124,1900 125,700
##END=
