##TITLE=Butane, 1,1'-sulfinylbis-
##JCAMP-DX=4.24
##DATA TYPE=MASS SPECTRUM
##OWNER=NIST Mass Spectrometry Data Center
Collection (C) 2014 copyright by the U.S. Secretary of Commerce
on behalf of the United States of America. All rights reserved.
##CAS REGISTRY NO=2168-93-6
##$NIST MASS SPEC NO=5942
##MOLFORM=C8 H18 O S
##MW=162
##$NIST SOURCE=MSDC
##XUNITS=M/Z
##YUNITS=RELATIVE INTENSITY
##XFACTOR=1
##YFACTOR=1
##FIRSTX=25
##LASTX=164
##FIRSTY=100
##MAXX=164
##MINX=25
##MAXY=9999
##MINY=20
##NPOINTS=61
##PEAK TABLE=(XY..XY)
25,100 26,701 27,4304 28,2302
29,9999 30,200 31,100 32,200
33,100 34,100 35,100 37,100
38,100 39,2602 40,300 41,9709
42,400 43,701 44,300 45,601
46,300 47,601 48,100 49,100
50,300 51,300 52,100 53,400
54,100 55,2502 56,2202 57,5505
58,400 59,300 60,100 61,500
62,100 63,2702 64,801 65,100
73,100 76,100 77,400 78,100
87,100 88,100 89,4104 90,300
91,200 103,300 105,300 106,3003
107,200 108,100 133,20 145,941
146,100 147,40 162,400 163,80
164,20
##END=
