##TITLE=Naphthalene, 1,2,3,4-tetrahydro-1,5,7-trimethyl-
##JCAMP-DX=4.24
##DATA TYPE=MASS SPECTRUM
##ORIGIN=CONTINENTAL OIL CO., PONCA CITY, OKLA, USA
##OWNER=NIST Mass Spectrometry Data Center
Collection (C) 2014 copyright by the U.S. Secretary of Commerce
on behalf of the United States of America. All rights reserved.
##CAS REGISTRY NO=21693-55-0
##$NIST MASS SPEC NO=27664
##MOLFORM=C13 H18
##MW=174
##$NIST SOURCE=MSDC
##XUNITS=M/Z
##YUNITS=RELATIVE INTENSITY
##XFACTOR=1
##YFACTOR=1
##FIRSTX=13
##LASTX=176
##FIRSTY=8
##MAXX=176
##MINX=13
##MAXY=9999
##MINY=5
##NPOINTS=126
##PEAK TABLE=(XY..XY)
13,8 14,178 15,734 16,24
26,71 27,910 28,272 29,514
30,12 37,12 38,62 39,1002
40,167 41,751 42,63 43,105
44,17 50,152 51,582 52,163
53,411 54,48 55,238 56,31
57,67 58,63 59,8 61,11
62,82 63,377 64,296 65,420
66,57 67,207 68,51 69,113
70,137 71,477 72,118 73,20
74,60 75,116 76,201 77,768
78,305 79,248 81,152 82,89
83,68 84,25 85,33 86,46
87,60 89,130 90,36 91,840
92,76 93,42 94,14 95,128
96,60 97,31 98,20 99,15
101,43 102,129 103,197 104,86
105,353 106,91 107,30 108,18
109,168 110,44 111,25 113,30
114,43 115,1058 116,378 117,461
118,118 119,479 120,58 121,16
123,41 124,26 125,24 126,53
127,363 128,1215 129,1176 130,417
131,903 132,1320 133,227 134,28
137,31 138,21 139,86 140,57
141,579 142,446 143,639 144,941
145,536 146,1263 147,172 151,42
152,83 153,79 154,40 155,96
156,78 157,213 158,246 159,9999
160,1296 161,82 165,13 166,5
171,18 172,29 173,307 174,3392
175,483 176,32
##END=
