##TITLE=Cyanazine
##JCAMP-DX=4.24
##DATA TYPE=MASS SPECTRUM
##ORIGIN=NIST Mass Spectrometry Data Center, 1995
##OWNER=NIST Mass Spectrometry Data Center
Collection (C) 2014 copyright by the U.S. Secretary of Commerce
on behalf of the United States of America. All rights reserved.
##CAS REGISTRY NO=21725-46-2
##$NIST MASS SPEC NO=245221
##MOLFORM=C9 H13 Cl N6
##MW=240
##$NIST SOURCE=MSDC
##XUNITS=M/Z
##YUNITS=RELATIVE INTENSITY
##XFACTOR=1
##YFACTOR=1
##FIRSTX=13
##LASTX=243
##FIRSTY=101
##MAXX=243
##MINX=13
##MAXY=9999
##MINY=94
##NPOINTS=151
##PEAK TABLE=(XY..XY)
13,101 14,94 15,909 18,389
26,604 27,3338 28,3566 29,877
30,1056 36,155 37,110 38,227
39,1980 40,1130 41,5421 42,4734
43,6292 44,7245 45,237 52,901
53,1646 54,748 55,2897 56,492
57,767 58,388 62,2219 63,235
64,833 65,235 66,528 67,2447
68,9999 69,2536 70,534 71,1371
78,351 79,569 80,1368 81,682
82,389 83,1791 84,191 85,243
86,191 87,2119 88,311 89,716
90,271 91,2040 92,191 93,2447
94,1525 95,981 96,2849 97,407
98,123 99,137 102,196 104,1709
105,1121 106,1008 107,426 108,947
109,481 110,1891 111,497 113,150
116,144 117,184 118,95 119,503
120,197 121,422 122,394 123,631
128,147 129,1444 130,742 131,782
132,833 133,256 134,378 135,454
136,1016 137,1943 138,4111 139,346
141,251 142,115 143,280 144,115
145,4111 146,347 147,1724 148,422
149,238 150,358 151,213 155,611
156,294 157,1500 158,1781 159,687
160,707 161,1140 162,628 163,137
164,230 169,239 170,465 172,5865
173,4850 174,2461 175,2119 176,658
177,363 178,172 182,459 184,663
185,255 186,1610 187,210 188,558
189,2125 190,217 196,157 198,5993
199,730 200,2219 201,265 202,142
203,178 204,261 205,417 209,112
210,139 212,4532 213,2434 214,2256
215,795 216,216 223,135 225,8783
226,1143 227,2849 228,306 240,4582
241,701 242,1576 243,178
##END=
