##TITLE=2-Bromo-5-chlorobenzoic acid
##JCAMP-DX=4.24
##DATA TYPE=MASS SPECTRUM
##ORIGIN=NIST Mass Spectrometry Data Center, 1994
##OWNER=NIST Mass Spectrometry Data Center
Collection (C) 2014 copyright by the U.S. Secretary of Commerce
on behalf of the United States of America. All rights reserved.
##CAS REGISTRY NO=21739-93-5
##$NIST MASS SPEC NO=136318
##MOLFORM=C7 H4 Br Cl O2
##MW=234
##$NIST SOURCE=MSDC
##XUNITS=M/Z
##YUNITS=RELATIVE INTENSITY
##XFACTOR=1
##YFACTOR=1
##FIRSTX=17
##LASTX=239
##FIRSTY=140
##MAXX=239
##MINX=17
##MAXY=9999
##MINY=57
##NPOINTS=110
##PEAK TABLE=(XY..XY)
17,140 18,167 25,78 35,113
36,253 37,1170 38,629 39,346
42,64 44,121 45,1325 46,74
47,166 48,117 49,787 50,2015
51,527 52,64 53,374 54,64
55,314 56,120 60,219 61,469
62,432 63,1005 64,187 65,129
66,83 69,64 72,241 73,1956
74,3843 75,4400 76,507 77,391
78,64 79,318 80,106 81,329
82,139 83,64 84,564 85,285
86,246 87,113 89,96 90,100
91,520 92,207 93,67 94,107
95,134 97,66 98,131 99,1047
100,98 101,360 102,139 103,125
104,88 105,86 108,180 109,774
110,2020 111,957 112,725 113,283
115,228 116,129 117,88 118,71
119,65 126,88 127,207 128,155
129,101 130,138 131,73 134,258
135,548 136,74 143,97 145,100
149,57 153,234 154,100 155,496
156,118 157,110 189,1888 190,261
191,2614 192,255 193,657 194,558
195,62 206,100 208,161 217,5783
219,6991 220,638 221,1644 222,143
234,7262 235,766 236,9999 237,785
238,2496 239,197
##END=
