##TITLE=O-Ethyl S-2-diethylaminoethyl ethylphosphonothiolate
##JCAMP-DX=4.24
##DATA TYPE=MASS SPECTRUM
##ORIGIN=VERIFIN - Methodology B1-1979
##OWNER=NIST Mass Spectrometry Data Center
Collection (C) 2014 copyright by the U.S. Secretary of Commerce
on behalf of the United States of America. All rights reserved.
##CAS REGISTRY NO=21738-25-0
##$NIST MASS SPEC NO=226159
##MOLFORM=C10 H24 N O2 P S
##MW=253
##$NIST SOURCE=MSDC
##XUNITS=M/Z
##YUNITS=RELATIVE INTENSITY
##XFACTOR=1
##YFACTOR=1
##FIRSTX=27
##LASTX=181
##FIRSTY=200
##MAXX=181
##MINX=27
##MAXY=9999
##MINY=50
##NPOINTS=27
##PEAK TABLE=(XY..XY)
27,200 28,200 29,300 30,200
42,300 43,80 44,200 56,400
57,80 58,500 59,50 61,100
65,300 70,300 71,700 72,200
84,700 85,50 86,9999 87,500
93,500 98,50 99,2702 100,400
121,200 130,50 181,60
##END=
