##TITLE=N-n-Propylmaleimide
##JCAMP-DX=4.24
##DATA TYPE=MASS SPECTRUM
##ORIGIN=NIST Mass Spectrometry Data Center, 1994
##OWNER=NIST Mass Spectrometry Data Center
Collection (C) 2014 copyright by the U.S. Secretary of Commerce
on behalf of the United States of America. All rights reserved.
##CAS REGISTRY NO=21746-40-7
##$NIST MASS SPEC NO=134743
##MOLFORM=C7 H9 N O2
##MW=139
##$NIST SOURCE=MSDC
##XUNITS=M/Z
##YUNITS=RELATIVE INTENSITY
##XFACTOR=1
##YFACTOR=1
##FIRSTX=12
##LASTX=141
##FIRSTY=16
##MAXX=141
##MINX=12
##MAXY=9999
##MINY=8
##NPOINTS=55
##PEAK TABLE=(XY..XY)
12,16 13,31 14,97 15,318
18,22 24,20 25,246 26,2949
27,2083 28,1900 29,813 30,128
31,19 32,8 37,102 38,189
39,882 40,335 41,1038 42,506
43,125 44,117 50,27 51,98
52,340 53,1300 54,3280 55,1465
56,1854 57,139 58,695 59,37
65,34 66,91 67,81 68,114
69,128 70,186 71,36 78,36
80,1126 82,4125 83,924 84,66
96,179 98,1084 99,63 110,9999
111,1313 112,113 124,981 125,75
139,3258 140,271 141,9
##END=
