##TITLE=6,6-Diphenylfulvene
##JCAMP-DX=4.24
##DATA TYPE=MASS SPECTRUM
##OWNER=NIST Mass Spectrometry Data Center
Collection (C) 2014 copyright by the U.S. Secretary of Commerce
on behalf of the United States of America. All rights reserved.
##CAS REGISTRY NO=2175-90-8
##$NIST MASS SPEC NO=10990
##MOLFORM=C18 H14
##MW=230
##$NIST SOURCE=MSDC
##XUNITS=M/Z
##YUNITS=RELATIVE INTENSITY
##XFACTOR=1
##YFACTOR=1
##FIRSTX=26
##LASTX=232
##FIRSTY=100
##MAXX=232
##MINX=26
##MAXY=9999
##MINY=50
##NPOINTS=110
##PEAK TABLE=(XY..XY)
26,100 27,300 28,200 29,100
38,100 39,801 40,100 41,200
43,100 44,200 50,400 51,1001
52,300 53,100 61,100 62,200
63,701 64,100 65,300 69,100
74,400 75,601 76,601 77,701
78,300 81,100 82,50 83,50
85,100 86,100 87,500 88,901
89,500 90,50 91,100 94,100
95,100 98,100 99,100 100,801
101,3203 102,300 103,100 104,200
105,50 106,50 107,200 108,200
110,100 111,100 112,300 113,1702
114,1301 115,1101 116,50 124,100
125,400 126,300 127,701 128,100
137,100 138,50 139,200 140,50
149,100 150,400 151,801 152,3503
153,1501 154,100 162,100 163,300
164,200 165,601 166,100 174,200
175,200 176,300 177,200 178,200
179,50 187,300 188,200 189,601
190,200 191,200 198,50 199,100
200,601 201,400 202,2502 203,1201
204,200 205,50 211,100 212,50
213,400 214,100 215,4804 216,1001
217,100 224,300 225,300 226,2102
227,1702 228,3503 229,7807 230,9999
231,2002 232,200
##END=
