##TITLE=Butanoic acid, 2-methylene-, methyl ester
##JCAMP-DX=4.24
##DATA TYPE=MASS SPECTRUM
##ORIGIN=James Little,Eastman Chem.Co.,Kingsport,TN
##OWNER=NIST Mass Spectrometry Data Center
Collection (C) 2014 copyright by the U.S. Secretary of Commerce
on behalf of the United States of America. All rights reserved.
##CAS REGISTRY NO=2177-67-5
##$NIST MASS SPEC NO=288531
##MOLFORM=C6 H10 O2
##MW=114
##$NIST SOURCE=MSDC
##XUNITS=M/Z
##YUNITS=RELATIVE INTENSITY
##XFACTOR=1
##YFACTOR=1
##FIRSTX=27
##LASTX=115
##FIRSTY=3033
##MAXX=115
##MINX=27
##MAXY=9999
##MINY=130
##NPOINTS=28
##PEAK TABLE=(XY..XY)
27,3033 29,3143 39,2983 40,631
41,811 43,821 51,671 53,2002
54,1862 55,9999 56,691 59,2482
66,280 68,150 69,400 71,420
72,130 81,480 82,2102 83,7086
84,490 85,350 86,140 99,2712
100,200 113,240 114,4774 115,671
##END=
