##TITLE=2-Propenoic acid, ethenyl ester
##JCAMP-DX=4.24
##DATA TYPE=MASS SPECTRUM
##ORIGIN=Japan AIST/NIMC Database- Spectrum MS-NW-4201
##OWNER=NIST Mass Spectrometry Data Center
Collection (C) 2014 copyright by the U.S. Secretary of Commerce
on behalf of the United States of America. All rights reserved.
##CAS REGISTRY NO=2177-18-6
##$NIST MASS SPEC NO=230236
##MOLFORM=C5 H6 O2
##MW=98
##$NIST SOURCE=MSDC
##XUNITS=M/Z
##YUNITS=RELATIVE INTENSITY
##XFACTOR=1
##YFACTOR=1
##FIRSTX=12
##LASTX=99
##FIRSTY=10
##MAXX=99
##MINX=12
##MAXY=9999
##MINY=10
##NPOINTS=30
##PEAK TABLE=(XY..XY)
12,10 13,30 14,109 15,339
16,10 18,10 24,10 25,90
26,579 27,4189 28,109 29,159
32,10 37,10 38,10 39,30
41,30 42,199 43,629 44,239
45,20 53,90 54,60 55,9999
56,319 57,30 70,239 71,10
98,319 99,20
##END=
