##TITLE=Benzene, [2-methyl-1-(1-methylethyl)propyl]-
##JCAMP-DX=4.24
##DATA TYPE=MASS SPECTRUM
##OWNER=NIST Mass Spectrometry Data Center
Collection (C) 2014 copyright by the U.S. Secretary of Commerce
on behalf of the United States of America. All rights reserved.
##CAS REGISTRY NO=21777-84-4
##$NIST MASS SPEC NO=7089
##MOLFORM=C13 H20
##MW=176
##$NIST SOURCE=MSDC
##XUNITS=M/Z
##YUNITS=RELATIVE INTENSITY
##XFACTOR=1
##YFACTOR=1
##FIRSTX=2
##LASTX=177
##FIRSTY=60
##MAXX=177
##MINX=2
##MAXY=9999
##MINY=10
##NPOINTS=82
##PEAK TABLE=(XY..XY)
2,60 12,10 13,10 14,40
15,260 16,30 26,40 27,1411
28,400 29,771 30,30 31,20
32,40 37,10 38,50 39,981
40,100 41,1101 42,90 43,821
44,50 50,100 51,400 52,100
53,210 54,30 55,1832 56,150
57,40 58,20 62,30 63,200
64,60 65,380 66,30 67,30
68,10 69,10 70,10 71,20
72,10 73,10 74,20 75,40
76,40 77,380 78,190 79,210
80,10 81,10 83,10 84,20
85,10 86,10 87,10 88,10
89,10 90,100 91,9999 92,851
93,40 103,10 104,50 105,1261
106,110 115,420 116,140 117,500
118,180 119,50 127,20 128,50
129,40 130,10 131,50 132,130
133,5825 134,821 135,50 145,30
176,1001 177,40
##END=
