##TITLE=2,4-Dimethylbenzonitrile
##JCAMP-DX=4.24
##DATA TYPE=MASS SPECTRUM
##ORIGIN=M. NELSON, RES. DEP., IMPERIAL TOBACCO LTD., BRISTOL
##OWNER=NIST Mass Spectrometry Data Center
Collection (C) 2014 copyright by the U.S. Secretary of Commerce
on behalf of the United States of America. All rights reserved.
##CAS REGISTRY NO=21789-36-6
##$NIST MASS SPEC NO=72089
##MOLFORM=C9 H9 N
##MW=131
##$NIST SOURCE=MSDC
##XUNITS=M/Z
##YUNITS=RELATIVE INTENSITY
##XFACTOR=1
##YFACTOR=1
##FIRSTX=28
##LASTX=132
##FIRSTY=930
##MAXX=132
##MINX=28
##MAXY=9999
##MINY=120
##NPOINTS=33
##PEAK TABLE=(XY..XY)
28,930 32,300 38,350 39,1230
41,220 49,130 51,1200 52,260
61,230 63,820 64,540 66,130
74,250 75,410 77,1510 78,600
86,120 87,190 89,880 90,270
101,260 102,520 103,1460 104,810
105,190 115,140 116,9999 117,1100
128,270 129,270 130,2560 131,7560
132,850
##END=
