##TITLE=Disulfide, methyl 2-propenyl
##JCAMP-DX=4.24
##DATA TYPE=MASS SPECTRUM
##ORIGIN=NIST Mass Spectrometry Data Center
##OWNER=NIST Mass Spectrometry Data Center
Collection (C) 2014 copyright by the U.S. Secretary of Commerce
on behalf of the United States of America. All rights reserved.
##CAS REGISTRY NO=2179-58-0
##$NIST MASS SPEC NO=413584
##MOLFORM=C4 H8 S2
##MW=120
##$NIST SOURCE=MSDC
##XUNITS=M/Z
##YUNITS=RELATIVE INTENSITY
##XFACTOR=1
##YFACTOR=1
##FIRSTX=26
##LASTX=124
##FIRSTY=40
##MAXX=124
##MINX=26
##MAXY=9999
##MINY=10
##NPOINTS=72
##PEAK TABLE=(XY..XY)
26,40 27,140 28,10 29,20
32,60 33,20 34,10 35,10
36,10 37,150 38,360 39,3043
40,220 41,8458 42,290 44,90
45,2722 46,721 47,851 48,90
49,60 50,10 51,10 53,10
55,40 56,10 57,70 58,170
59,100 60,20 61,160 62,10
63,10 64,1061 65,90 66,100
67,10 68,40 69,280 70,50
71,691 72,440 73,871 74,240
75,90 76,30 77,40 78,130
79,1351 80,851 81,150 82,70
83,10 85,20 86,50 87,250
88,20 89,10 91,10 93,70
95,10 103,80 104,40 105,60
106,10 107,10 119,10 120,9999
121,591 122,911 123,50 124,20
##END=
