##TITLE=Disulfide, methyl propyl
##JCAMP-DX=4.24
##DATA TYPE=MASS SPECTRUM
##OWNER=NIST Mass Spectrometry Data Center
Collection (C) 2014 copyright by the U.S. Secretary of Commerce
on behalf of the United States of America. All rights reserved.
##CAS REGISTRY NO=2179-60-4
##$NIST MASS SPEC NO=2285
##MOLFORM=C4 H10 S2
##MW=122
##$NIST SOURCE=MSDC
##XUNITS=M/Z
##YUNITS=RELATIVE INTENSITY
##XFACTOR=1
##YFACTOR=1
##FIRSTX=12
##LASTX=126
##FIRSTY=50
##MAXX=126
##MINX=12
##MAXY=9999
##MINY=10
##NPOINTS=73
##PEAK TABLE=(XY..XY)
12,50 13,80 14,240 15,1131
16,20 26,310 27,4774 28,270
29,631 30,10 32,160 33,90
34,60 35,50 36,10 37,90
38,210 39,1812 40,170 41,5165
42,360 43,6866 44,310 45,3984
46,1752 47,1932 48,350 49,210
50,20 51,10 54,10 55,40
56,10 57,130 58,220 59,230
60,60 61,240 62,10 63,10
64,1411 65,160 66,210 67,20
68,20 69,60 70,10 71,90
72,20 73,230 74,430 75,120
76,70 77,40 78,170 79,1581
80,9999 81,420 82,901 83,20
84,20 89,10 91,10 93,420
94,971 95,70 96,90 107,10
122,7006 123,340 124,671 125,30
126,40
##END=
