##TITLE=Naphtho(2,1-f)quinoline
##JCAMP-DX=4.24
##DATA TYPE=MASS SPECTRUM
##ORIGIN=Organic Synthesis Lab, MSU, Moscow.TRC 202q
##OWNER=NIST Mass Spectrometry Data Center
Collection (C) 2014 copyright by the U.S. Secretary of Commerce
on behalf of the United States of America. All rights reserved.
##CAS REGISTRY NO=218-08-6
##$NIST MASS SPEC NO=326019
##MOLFORM=C17 H11 N
##MW=229
##$NIST SOURCE=MSDC
##XUNITS=M/Z
##YUNITS=RELATIVE INTENSITY
##XFACTOR=1
##YFACTOR=1
##FIRSTX=74
##LASTX=231
##FIRSTY=130
##MAXX=231
##MINX=74
##MAXY=9999
##MINY=90
##NPOINTS=30
##PEAK TABLE=(XY..XY)
74,130 75,230 81,90 87,400
88,671 100,1301 101,1271 114,1111
150,170 151,110 174,180 175,180
176,160 189,150 198,130 199,240
200,981 201,921 202,480 203,170
216,110 217,550 218,110 225,160
226,230 227,1151 228,2132 229,9999
230,1842 231,160
##END=
