##TITLE=3-Chlorobenzo[b]thiophene-2-carbonyl chloride
##JCAMP-DX=4.24
##DATA TYPE=MASS SPECTRUM
##ORIGIN=NIST Mass Spectrometry Data Center, 1994
##OWNER=NIST Mass Spectrometry Data Center
Collection (C) 2014 copyright by the U.S. Secretary of Commerce
on behalf of the United States of America. All rights reserved.
##CAS REGISTRY NO=21815-91-8
##$NIST MASS SPEC NO=136676
##MOLFORM=C9 H4 Cl2 O S
##MW=230
##$NIST SOURCE=MSDC
##XUNITS=M/Z
##YUNITS=RELATIVE INTENSITY
##XFACTOR=1
##YFACTOR=1
##FIRSTX=18
##LASTX=235
##FIRSTY=57
##MAXX=235
##MINX=18
##MAXY=9999
##MINY=24
##NPOINTS=94
##PEAK TABLE=(XY..XY)
18,57 25,40 35,260 36,300
37,593 38,581 39,743 44,95
47,96 48,71 49,365 50,696
51,223 53,155 56,72 57,240
58,188 60,135 61,959 62,1049
63,628 66,1554 68,137 69,1285
70,138 71,158 72,127 73,553
75,285 76,48 77,194 79,75
80,181 81,491 82,601 83,48
84,685 85,363 86,486 87,735
88,555 89,65 91,141 92,183
93,1610 94,138 95,147 96,124
97,930 98,402 101,429 102,241
103,133 104,65 105,431 106,393
107,66 108,91 110,34 115,47
116,45 117,123 118,38 121,64
123,2539 124,238 125,851 126,82
127,51 129,45 130,63 131,226
132,2505 133,244 134,131 144,24
167,2978 168,356 169,1204 170,120
171,60 195,9999 196,1141 197,3780
198,456 199,172 202,163 204,130
230,1756 231,201 232,1138 233,130
234,234 235,33
##END=
