##TITLE=Silanediol, dimethyl-, diacetate
##JCAMP-DX=4.24
##DATA TYPE=MASS SPECTRUM
##ORIGIN=RADIAN CORP
##OWNER=NIST Mass Spectrometry Data Center
Collection (C) 2014 copyright by the U.S. Secretary of Commerce
on behalf of the United States of America. All rights reserved.
##CAS REGISTRY NO=2182-66-3
##$NIST MASS SPEC NO=73208
##MOLFORM=C6 H12 O4 Si
##MW=176
##$NIST SOURCE=MSDC
##XUNITS=M/Z
##YUNITS=RELATIVE INTENSITY
##XFACTOR=1
##YFACTOR=1
##FIRSTX=29
##LASTX=162
##FIRSTY=20
##MAXX=162
##MINX=29
##MAXY=9999
##MINY=20
##NPOINTS=30
##PEAK TABLE=(XY..XY)
29,20 42,200 43,600 44,70
45,1380 46,100 47,390 58,80
59,520 60,130 61,500 62,160
63,390 74,540 75,4280 76,980
77,7260 78,470 79,290 91,80
103,70 116,1360 117,3330 118,420
119,9999 120,840 121,410 134,170
161,900 162,80
##END=
