##TITLE=Nifedipine
##JCAMP-DX=4.24
##DATA TYPE=MASS SPECTRUM
##ORIGIN=NIST Mass Spectrometry Data Center
##OWNER=NIST Mass Spectrometry Data Center
Collection (C) 2014 copyright by the U.S. Secretary of Commerce
on behalf of the United States of America. All rights reserved.
##CAS REGISTRY NO=21829-25-4
##$NIST MASS SPEC NO=341371
##MOLFORM=C17 H18 N2 O6
##MW=346
##$NIST SOURCE=MSDC
##XUNITS=M/Z
##YUNITS=RELATIVE INTENSITY
##XFACTOR=1
##YFACTOR=1
##FIRSTX=15
##LASTX=348
##FIRSTY=370
##MAXX=348
##MINX=15
##MAXY=9999
##MINY=10
##NPOINTS=245
##PEAK TABLE=(XY..XY)
15,370 17,10 26,10 27,70
29,150 30,170 31,140 32,70
33,20 37,10 38,50 39,390
40,40 41,120 42,1091 43,300
44,130 45,60 46,60 50,360
51,440 52,210 53,220 54,100
55,70 56,70 57,60 59,721
60,20 61,20 62,120 63,571
64,260 65,320 66,160 67,621
68,90 69,60 70,70 71,70
73,10 74,180 75,340 76,601
77,1011 78,310 79,250 80,110
81,30 83,310 86,90 87,150
88,160 89,440 90,340 91,310
92,200 93,210 94,80 95,30
97,160 98,190 99,180 100,100
101,300 102,360 103,220 104,500
105,400 106,450 107,160 108,50
109,20 111,110 112,140 113,290
114,280 115,1211 116,310 117,130
118,180 119,140 120,180 121,490
122,130 123,30 124,30 125,160
126,550 127,1171 128,1071 129,370
130,260 131,100 132,510 133,240
134,550 136,60 137,80 138,140
139,961 140,721 141,591 142,380
143,581 144,210 145,50 146,40
147,10 148,70 149,1061 150,611
151,330 152,1121 153,821 154,901
155,530 156,340 157,110 158,140
159,70 160,581 161,70 162,40
163,50 164,731 165,530 166,490
167,861 168,931 169,480 170,290
171,110 172,70 173,20 174,10
175,100 176,110 177,50 178,230
179,350 180,981 181,681 182,480
183,380 184,150 185,80 186,70
187,10 188,10 190,110 191,80
192,971 193,530 194,591 195,1121
196,1041 197,490 198,310 199,80
200,80 201,20 202,20 203,10
205,10 206,60 207,50 208,611
209,500 210,530 211,490 212,220
213,110 214,80 215,30 216,10
218,10 220,30 221,100 222,140
223,831 224,6916 225,1261 226,901
227,180 228,60 229,40 230,10
234,10 235,100 236,320 237,140
238,110 239,270 240,340 241,120
242,160 243,20 249,10 250,10
251,120 252,631 253,971 254,1471
255,821 256,480 257,110 258,20
265,20 266,50 267,210 268,4774
269,1051 270,1672 271,310 272,50
280,20 281,140 282,130 283,140
284,9999 285,1742 286,240 287,130
288,20 296,30 297,50 298,280
299,220 300,50 301,10 312,130
313,50 314,300 315,370 316,60
317,10 329,9529 330,1852 331,270
332,20 345,30 346,591 347,110
348,10
##END=
