##TITLE=5-Methyl-2-phenyl-2-hexenal
##JCAMP-DX=4.24
##DATA TYPE=MASS SPECTRUM
##ORIGIN=Chuck Anderson, Aldrich Chemical Co.
##OWNER=NIST Mass Spectrometry Data Center
Collection (C) 2014 copyright by the U.S. Secretary of Commerce
on behalf of the United States of America. All rights reserved.
##CAS REGISTRY NO=21834-92-4
##$NIST MASS SPEC NO=117826
##MOLFORM=C13 H16 O
##MW=188
##$NIST SOURCE=MSDC
##XUNITS=M/Z
##YUNITS=RELATIVE INTENSITY
##XFACTOR=1
##YFACTOR=1
##FIRSTX=15
##LASTX=189
##FIRSTY=114
##MAXX=189
##MINX=15
##MAXY=9999
##MINY=7
##NPOINTS=96
##PEAK TABLE=(XY..XY)
15,114 18,7 26,90 27,1530
28,234 29,829 38,114 39,1551
40,172 41,2154 42,138 43,2930
44,136 50,325 51,964 52,261
53,274 55,366 56,441 57,332
58,47 62,246 63,948 64,254
65,1039 66,114 67,223 68,102
69,316 70,67 71,53 74,231
75,316 76,490 77,1680 78,915
79,366 81,199 83,219 84,102
85,14 86,106 87,157 88,102
89,975 90,138 91,4870 92,393
95,452 97,115 101,109 102,1298
103,3275 104,8016 105,1917 106,146
113,113 114,75 115,7671 116,3060
117,9999 118,1853 119,161 120,732
121,42 126,73 127,1131 128,1680
129,1136 130,452 131,1486 132,2456
133,1109 134,102 139,44 141,293
142,137 143,338 144,284 145,2823
146,818 147,70 153,96 154,30
155,425 156,15 157,227 158,54
159,344 160,13 170,441 171,140
173,1767 174,212 188,3060 189,436
##END=
