##TITLE=2-Hydroxy-3,5-dimethylcyclopent-2-en-1-one
##JCAMP-DX=4.24
##DATA TYPE=MASS SPECTRUM
##ORIGIN=J.A. ENZELL, RES. DEP., SWED. TOB. CO., STOCKHOLM, SWEDEN
##OWNER=NIST Mass Spectrometry Data Center
Collection (C) 2014 copyright by the U.S. Secretary of Commerce
on behalf of the United States of America. All rights reserved.
##CAS REGISTRY NO=21834-98-0
##$NIST MASS SPEC NO=112930
##MOLFORM=C7 H10 O2
##MW=126
##$NIST SOURCE=MSDC
##XUNITS=M/Z
##YUNITS=RELATIVE INTENSITY
##XFACTOR=1
##YFACTOR=1
##FIRSTX=41
##LASTX=126
##FIRSTY=4900
##MAXX=126
##MINX=41
##MAXY=9999
##MINY=2000
##NPOINTS=10
##PEAK TABLE=(XY..XY)
41,4900 43,9000 53,2500 55,9999
69,2400 70,2000 83,6000 98,2900
111,5200 126,4600
##END=
