##TITLE=2-Cyclopenten-1-one, 2-hydroxy-3,4-dimethyl-
##JCAMP-DX=4.24
##DATA TYPE=MASS SPECTRUM
##ORIGIN=J.A. ENZELL, RES. DEP., SWED. TOB. CO., STOCKHOLM, SWEDEN
##OWNER=NIST Mass Spectrometry Data Center
Collection (C) 2014 copyright by the U.S. Secretary of Commerce
on behalf of the United States of America. All rights reserved.
##CAS REGISTRY NO=21835-00-7
##$NIST MASS SPEC NO=112931
##MOLFORM=C7 H10 O2
##MW=126
##$NIST SOURCE=MSDC
##XUNITS=M/Z
##YUNITS=RELATIVE INTENSITY
##XFACTOR=1
##YFACTOR=1
##FIRSTX=41
##LASTX=126
##FIRSTY=2300
##MAXX=126
##MINX=41
##MAXY=9999
##MINY=1300
##NPOINTS=10
##PEAK TABLE=(XY..XY)
41,2300 43,1600 55,2400 56,2300
69,3700 83,2800 97,1300 98,1400
111,4400 126,9999
##END=
