##TITLE=Cyclohexanol, 4-(1,1-dimethylethyl)-, trans-
##JCAMP-DX=4.24
##DATA TYPE=MASS SPECTRUM
##ORIGIN=Japan AIST/NIMC Database- Spectrum MS-NW-8836
##OWNER=NIST Mass Spectrometry Data Center
Collection (C) 2014 copyright by the U.S. Secretary of Commerce
on behalf of the United States of America. All rights reserved.
##CAS REGISTRY NO=21862-63-5
##$NIST MASS SPEC NO=233274
##MOLFORM=C10 H20 O
##MW=156
##$NIST SOURCE=MSDC
##XUNITS=M/Z
##YUNITS=RELATIVE INTENSITY
##XFACTOR=1
##YFACTOR=1
##FIRSTX=15
##LASTX=155
##FIRSTY=20
##MAXX=155
##MINX=15
##MAXY=9999
##MINY=10
##NPOINTS=64
##PEAK TABLE=(XY..XY)
15,20 17,20 18,80 27,329
28,109 29,1139 30,30 31,119
39,429 40,90 41,2709 42,179
43,929 44,179 45,50 51,40
52,20 53,339 54,689 55,1599
56,3709 57,9999 58,459 59,50
65,70 66,60 67,2999 68,239
69,549 70,169 71,90 72,20
77,99 78,30 79,449 80,1379
81,4649 82,2439 83,2169 84,169
85,20 91,40 93,40 94,99
95,629 96,209 97,80 98,90
99,1159 100,90 101,129 105,10
107,30 108,10 109,70 110,249
111,20 121,20 123,1569 124,149
137,20 138,799 139,109 155,20
##END=
