##TITLE=Nortricyclyl formate
##JCAMP-DX=4.24
##DATA TYPE=MASS SPECTRUM
##ORIGIN=P. Vainiotalo, Dep. Chem., Joensuu Univ., Joensuu, Finland
##OWNER=NIST Mass Spectrometry Data Center
Collection (C) 2014 copyright by the U.S. Secretary of Commerce
on behalf of the United States of America. All rights reserved.
##CAS REGISTRY NO=21892-95-5
##$NIST MASS SPEC NO=142760
##MOLFORM=C8 H10 O2
##MW=138
##$NIST SOURCE=MSDC
##XUNITS=M/Z
##YUNITS=RELATIVE INTENSITY
##XFACTOR=1
##YFACTOR=1
##FIRSTX=26
##LASTX=139
##FIRSTY=140
##MAXX=139
##MINX=26
##MAXY=9999
##MINY=100
##NPOINTS=40
##PEAK TABLE=(XY..XY)
26,140 27,810 29,400 38,160
39,1700 41,1470 42,100 43,330
44,500 50,230 51,530 52,250
53,1070 54,870 55,1530 57,200
63,220 65,1180 66,9999 67,2220
68,680 69,240 72,100 77,2590
78,760 79,3560 80,520 81,2020
82,560 83,210 91,9780 92,9230
93,1660 94,210 95,1520 96,130
109,720 110,540 138,2120 139,220
##END=
