##TITLE=Benzene, octyl-
##JCAMP-DX=4.24
##DATA TYPE=MASS SPECTRUM
##ORIGIN=CONTINENTAL OIL CO., PONCA CITY, OKLA, USA
##OWNER=NIST Mass Spectrometry Data Center
Collection (C) 2014 copyright by the U.S. Secretary of Commerce
on behalf of the United States of America. All rights reserved.
##CAS REGISTRY NO=2189-60-8
##$NIST MASS SPEC NO=34755
##MOLFORM=C14 H22
##MW=190
##$NIST SOURCE=MSDC
##XUNITS=M/Z
##YUNITS=RELATIVE INTENSITY
##XFACTOR=1
##YFACTOR=1
##FIRSTX=27
##LASTX=192
##FIRSTY=699
##MAXX=192
##MINX=27
##MAXY=9999
##MINY=5
##NPOINTS=92
##PEAK TABLE=(XY..XY)
27,699 28,147 29,829 30,18
37,5 38,28 39,578 40,70
41,1067 42,145 43,858 44,34
50,66 51,255 52,79 53,100
54,31 55,291 56,134 57,1211
58,56 62,19 63,127 64,41
65,661 66,50 67,38 68,15
69,105 70,72 71,28 72,9
74,13 75,21 76,28 77,411
78,537 79,302 80,58 81,15
82,9 83,26 84,16 85,7
86,5 87,10 88,11 89,183
90,147 91,9999 92,9153 93,743
94,56 95,7 96,7 97,6
98,21 101,11 102,62 103,284
104,631 105,1117 106,186 107,19
115,166 116,58 117,203 118,69
119,198 120,50 124,6 127,12
128,30 129,20 130,7 131,15
132,15 133,464 134,108 135,11
136,19 147,98 148,25 149,5
161,19 162,9 175,7 188,31
189,11 190,2552 191,392 192,26
##END=
