##TITLE=Benzene, 1,1'-methylenebis[3-methyl-
##JCAMP-DX=4.24
##DATA TYPE=MASS SPECTRUM
##ORIGIN=R.EVANS LOUISIANA STATE UNIV., NEW ORLEANS, LOUISIANA, USA
##OWNER=NIST Mass Spectrometry Data Center
Collection (C) 2014 copyright by the U.S. Secretary of Commerce
on behalf of the United States of America. All rights reserved.
##CAS REGISTRY NO=21895-14-7
##$NIST MASS SPEC NO=68086
##MOLFORM=C15 H16
##MW=196
##$NIST SOURCE=MSDC
##XUNITS=M/Z
##YUNITS=RELATIVE INTENSITY
##XFACTOR=1
##YFACTOR=1
##FIRSTX=27
##LASTX=197
##FIRSTY=550
##MAXX=197
##MINX=27
##MAXY=9999
##MINY=200
##NPOINTS=56
##PEAK TABLE=(XY..XY)
27,550 39,700 41,250 50,200
51,600 52,200 53,400 63,650
65,700 75,250 76,600 77,1150
78,550 79,800 82,400 83,700
88,250 89,1250 90,450 91,550
96,1450 97,850 98,400 100,200
102,400 103,700 104,2750 105,1700
106,500 115,550 116,250 127,400
128,500 129,350 139,500 141,500
151,400 152,900 153,550 154,200
155,250 164,500 165,2900 166,2250
167,850 168,400 176,350 177,400
178,1000 179,1200 180,1200 181,9999
182,2750 195,1500 196,9200 197,1750
##END=
