##TITLE=Benzene, 1-methyl-2-[(4-methylphenyl)methyl]-
##JCAMP-DX=4.24
##DATA TYPE=MASS SPECTRUM
##ORIGIN=R.EVANS LOUISIANA STATE UNIV., NEW ORLEANS, LOUISIANA, USA
##OWNER=NIST Mass Spectrometry Data Center
Collection (C) 2014 copyright by the U.S. Secretary of Commerce
on behalf of the United States of America. All rights reserved.
##CAS REGISTRY NO=21895-17-0
##$NIST MASS SPEC NO=68087
##MOLFORM=C15 H16
##MW=196
##$NIST SOURCE=MSDC
##XUNITS=M/Z
##YUNITS=RELATIVE INTENSITY
##XFACTOR=1
##YFACTOR=1
##FIRSTX=27
##LASTX=197
##FIRSTY=450
##MAXX=197
##MINX=27
##MAXY=9999
##MINY=100
##NPOINTS=58
##PEAK TABLE=(XY..XY)
27,450 38,150 39,450 41,200
50,160 51,550 52,250 53,260
63,340 64,280 65,700 75,160
76,660 77,950 78,500 79,750
80,180 81,150 82,250 83,350
84,200 89,1200 90,250 91,350
96,850 97,830 98,420 102,250
103,980 104,8000 105,2140 106,300
115,450 116,190 127,210 128,380
129,100 139,210 141,450 151,250
152,440 153,430 154,200 155,150
164,200 165,2900 166,2000 167,650
176,350 177,350 178,1150 179,1100
180,750 181,9900 182,1690 195,920
196,9999 197,1790
##END=
