##TITLE=Phenol, o-(o-methoxyphenoxy)-
##JCAMP-DX=4.24
##DATA TYPE=MASS SPECTRUM
##OWNER=NIST Mass Spectrometry Data Center
Collection (C) 2014 copyright by the U.S. Secretary of Commerce
on behalf of the United States of America. All rights reserved.
##CAS REGISTRY NO=21905-60-2
##$NIST MASS SPEC NO=10088
##MOLFORM=C13 H12 O3
##MW=216
##$NIST SOURCE=MSDC
##XUNITS=M/Z
##YUNITS=RELATIVE INTENSITY
##XFACTOR=1
##YFACTOR=1
##FIRSTX=39
##LASTX=218
##FIRSTY=2002
##MAXX=218
##MINX=39
##MAXY=9999
##MINY=100
##NPOINTS=29
##PEAK TABLE=(XY..XY)
39,2002 40,200 50,701 51,1501
52,1601 53,601 55,701 63,1101
64,1201 65,1702 66,200 77,1601
78,1001 79,100 80,500 81,1101
82,100 92,1101 93,601 107,701
108,9999 109,1001 110,100 184,1001
185,100 201,500 216,9008 217,1301
218,100
##END=
