##TITLE=(Z,Z)-3,6-Nonadienal
##JCAMP-DX=4.24
##DATA TYPE=MASS SPECTRUM
##ORIGIN=C.Milo ET.AL.J.Agric.Food Chem.,41,2076(1993)
##OWNER=NIST Mass Spectrometry Data Center
Collection (C) 2014 copyright by the U.S. Secretary of Commerce
on behalf of the United States of America. All rights reserved.
##CAS REGISTRY NO=21944-83-2
##$NIST MASS SPEC NO=293062
##MOLFORM=C9 H14 O
##MW=138
##$NIST SOURCE=MSDC
##XUNITS=M/Z
##YUNITS=RELATIVE INTENSITY
##XFACTOR=1
##YFACTOR=1
##FIRSTX=38
##LASTX=138
##FIRSTY=230
##MAXX=138
##MINX=38
##MAXY=9999
##MINY=150
##NPOINTS=43
##PEAK TABLE=(XY..XY)
38,230 39,3934 40,571 41,5955
42,400 43,881 50,240 51,841
52,360 53,2142 54,1641 55,4654
56,350 57,250 63,180 65,1391
66,550 67,9999 68,1451 69,671
70,540 77,1521 78,450 79,4194
80,821 81,2332 82,1401 83,671
84,2332 91,911 92,320 93,330
94,631 95,2052 96,601 97,460
105,450 109,791 110,741 120,300
123,861 137,150 138,250
##END=
