##TITLE=1,13-Tetradecadiene
##JCAMP-DX=4.24
##DATA TYPE=MASS SPECTRUM
##ORIGIN=D.HENNEBERG, MAX-PLANCK INSTITUTE, MULHEIM, WEST GERMANY
##OWNER=NIST Mass Spectrometry Data Center
Collection (C) 2014 copyright by the U.S. Secretary of Commerce
on behalf of the United States of America. All rights reserved.
##CAS REGISTRY NO=21964-49-8
##$NIST MASS SPEC NO=62224
##MOLFORM=C14 H26
##MW=194
##$NIST SOURCE=MSDC
##XUNITS=M/Z
##YUNITS=RELATIVE INTENSITY
##XFACTOR=1
##YFACTOR=1
##FIRSTX=26
##LASTX=195
##FIRSTY=554
##MAXX=195
##MINX=26
##MAXY=9999
##MINY=10
##NPOINTS=77
##PEAK TABLE=(XY..XY)
26,554 27,608 28,409 29,1618
30,45 35,25 36,60 37,25
38,52 39,914 40,201 41,6434
42,941 43,2495 44,82 49,23
50,32 51,25 52,60 53,512
54,4086 55,9999 56,1260 57,1111
58,79 60,27 65,92 66,442
67,5234 68,4158 69,4738 70,646
71,285 74,23 77,82 78,35
79,302 80,337 81,5395 82,6170
83,2963 84,360 85,85 91,52
92,24 93,81 94,157 95,3447
96,4099 97,1551 98,144 104,10
105,20 107,44 108,75 109,1729
110,1452 111,280 112,40 122,41
123,768 124,687 125,72 128,49
135,15 137,314 138,255 139,14
151,118 152,122 153,27 165,104
166,253 167,31 179,27 194,155
195,44
##END=
