##TITLE=1,12-Tridecadiene
##JCAMP-DX=4.24
##DATA TYPE=MASS SPECTRUM
##OWNER=NIST Mass Spectrometry Data Center
Collection (C) 2014 copyright by the U.S. Secretary of Commerce
on behalf of the United States of America. All rights reserved.
##CAS REGISTRY NO=21964-48-7
##$NIST MASS SPEC NO=7380
##MOLFORM=C13 H24
##MW=180
##$NIST SOURCE=MSDC
##XUNITS=M/Z
##YUNITS=RELATIVE INTENSITY
##XFACTOR=1
##YFACTOR=1
##FIRSTX=2
##LASTX=181
##FIRSTY=80
##MAXX=181
##MINX=2
##MAXY=9999
##MINY=10
##NPOINTS=141
##PEAK TABLE=(XY..XY)
2,80 14,60 15,290 16,30
17,70 18,170 20,10 25,10
26,200 27,2823 28,861 29,3243
30,90 31,60 32,130 36,20
37,50 38,130 39,3343 40,550
41,9519 42,1201 43,2302 44,150
45,60 49,10 50,90 51,270
52,170 53,1251 54,4514 55,9999
56,1361 57,1571 58,120 59,30
61,10 62,20 63,80 64,30
65,270 66,440 67,5175 68,3813
69,4164 70,831 71,390 72,180
73,40 74,20 75,30 76,20
77,340 78,220 79,631 80,470
81,5445 82,4974 83,2732 84,380
85,140 86,60 87,110 88,10
89,30 91,360 92,120 93,340
94,300 95,3183 96,3153 97,1281
98,220 99,40 100,10 101,20
102,20 103,50 104,60 105,280
106,100 107,200 108,150 109,1712
110,1081 111,250 112,60 113,20
114,10 115,100 116,40 117,90
118,60 119,230 120,70 121,150
122,100 123,530 124,300 125,70
126,30 127,30 128,60 129,70
130,30 131,140 132,50 133,130
134,30 135,140 136,60 137,220
138,210 139,50 140,10 141,50
142,50 143,40 144,40 145,70
146,60 147,60 148,30 149,60
150,30 151,110 152,300 153,60
154,10 158,20 159,20 160,50
161,20 162,90 163,30 174,10
176,20 178,40 179,10 180,150
181,20
##END=
