##TITLE=1-Propanamine, N-(1-methylethyl)-
##JCAMP-DX=4.24
##DATA TYPE=MASS SPECTRUM
##ORIGIN=AIR PRODUCTS & CHEMICALS, INC BOX 538, ALLENTOWN, PA 18105, D M PAREES
##OWNER=NIST Mass Spectrometry Data Center
Collection (C) 2014 copyright by the U.S. Secretary of Commerce
on behalf of the United States of America. All rights reserved.
##CAS REGISTRY NO=21968-17-2
##$NIST MASS SPEC NO=79722
##MOLFORM=C6 H15 N
##MW=101
##$NIST SOURCE=MSDC
##XUNITS=M/Z
##YUNITS=RELATIVE INTENSITY
##XFACTOR=1
##YFACTOR=1
##FIRSTX=27
##LASTX=102
##FIRSTY=1480
##MAXX=102
##MINX=27
##MAXY=9999
##MINY=110
##NPOINTS=25
##PEAK TABLE=(XY..XY)
27,1480 29,470 30,8290 31,140
39,860 40,180 41,2280 42,1120
43,2390 44,7240 45,200 54,130
56,720 57,260 58,1670 70,380
71,110 72,8450 73,470 84,160
86,9999 87,650 100,660 101,2010
102,300
##END=
