##TITLE=1-Ethyl-2-(4-methylpentyl)cyclopentane
##JCAMP-DX=4.24
##DATA TYPE=MASS SPECTRUM
##ORIGIN=NIST Mass Spectrometry Data Center, 1990.
##OWNER=NIST Mass Spectrometry Data Center
Collection (C) 2014 copyright by the U.S. Secretary of Commerce
on behalf of the United States of America. All rights reserved.
##CAS REGISTRY NO=219726-60-0
##$NIST MASS SPEC NO=113604
##MOLFORM=C13 H26
##MW=182
##$NIST SOURCE=MSDC
##XUNITS=M/Z
##YUNITS=RELATIVE INTENSITY
##XFACTOR=1
##YFACTOR=1
##FIRSTX=14
##LASTX=113
##FIRSTY=436
##MAXX=113
##MINX=14
##MAXY=9999
##MINY=67
##NPOINTS=50
##PEAK TABLE=(XY..XY)
14,436 15,404 16,167 26,453
27,3456 28,2836 29,3101 30,206
31,789 32,273 37,98 39,4364
40,991 41,7709 42,3382 43,1129
44,681 45,438 50,274 51,462
52,308 53,1462 54,98 55,9999
56,5754 57,1129 58,274 59,639
63,146 64,67 65,407 66,181
67,1586 68,717 69,3561 70,5247
71,488 73,113 74,508 77,309
78,73 79,345 82,3283 83,9320
84,4179 85,253 97,745 98,70
112,1519 113,145
##END=
