##TITLE=Propanamide, 2,2,3,3,3-pentafluoro-N-1-naphthalenyl-
##JCAMP-DX=4.24
##DATA TYPE=MASS SPECTRUM
##ORIGIN=NIST Mass Spectrometry Data Center, 2010
##OWNER=NIST Mass Spectrometry Data Center
Collection (C) 2014 copyright by the U.S. Secretary of Commerce
on behalf of the United States of America. All rights reserved.
##CAS REGISTRY NO=21970-67-2
##$NIST MASS SPEC NO=417424
##MOLFORM=C13 H8 F5 N O
##MW=289
##$NIST SOURCE=MSDC
##XUNITS=M/Z
##YUNITS=RELATIVE INTENSITY
##XFACTOR=1
##YFACTOR=1
##FIRSTX=26
##LASTX=291
##FIRSTY=10
##MAXX=291
##MINX=26
##MAXY=9999
##MINY=10
##NPOINTS=115
##PEAK TABLE=(XY..XY)
26,10 27,40 28,30 29,10
31,90 37,20 38,80 39,320
40,20 41,20 43,10 44,10
49,10 50,300 51,320 52,120
53,20 54,10 55,10 57,500
61,70 62,310 63,801 64,170
65,290 66,20 69,681 71,641
74,240 75,340 76,210 77,340
78,50 81,20 85,490 86,170
87,290 88,390 89,741 90,100
91,20 98,60 99,80 100,210
101,220 102,60 103,20 104,10
109,30 110,20 111,30 112,30
113,671 114,1091 115,9999 116,1491
117,90 119,761 120,20 122,10
123,10 125,70 126,571 127,3103
128,460 129,30 133,10 138,20
140,1101 141,611 142,5255 143,681
144,2242 145,270 146,40 147,20
151,10 152,140 153,90 154,20
157,10 164,20 169,510 170,1682
171,220 172,110 173,20 177,70
178,10 182,10 190,10 191,10
192,10 195,10 200,30 201,20
202,50 203,10 204,10 218,20
219,20 220,10 222,20 227,80
228,10 230,10 241,30 242,10
250,20 270,100 271,20 287,10
289,7487 290,1091 291,90
##END=
