##TITLE=Acetamide, N-(2,6-dimethylphenyl)-
##JCAMP-DX=4.24
##DATA TYPE=MASS SPECTRUM
##ORIGIN=NIST Mass Spectrometry Data Center, 1994
##OWNER=NIST Mass Spectrometry Data Center
Collection (C) 2014 copyright by the U.S. Secretary of Commerce
on behalf of the United States of America. All rights reserved.
##CAS REGISTRY NO=2198-53-0
##$NIST MASS SPEC NO=135491
##MOLFORM=C10 H13 N O
##MW=163
##$NIST SOURCE=MSDC
##XUNITS=M/Z
##YUNITS=RELATIVE INTENSITY
##XFACTOR=1
##YFACTOR=1
##FIRSTX=13
##LASTX=164
##FIRSTY=73
##MAXX=164
##MINX=13
##MAXY=9999
##MINY=33
##NPOINTS=61
##PEAK TABLE=(XY..XY)
13,73 14,338 15,1788 17,71
18,33 26,74 27,524 28,619
30,295 37,87 38,266 39,1924
40,273 41,648 42,926 43,4570
44,174 50,413 51,1233 52,780
53,645 54,242 59,47 61,56
62,196 63,717 64,302 65,1233
66,318 67,98 74,100 75,132
77,2410 78,851 79,654 80,268
81,63 89,306 91,2252 92,578
93,577 94,148 102,254 103,555
104,626 105,148 106,6843 107,702
116,78 117,235 118,638 119,78
120,5768 121,9999 122,1127 130,59
146,87 147,95 148,414 163,4825
164,500
##END=
