##TITLE=Isopentyl hexanoate
##JCAMP-DX=4.24
##DATA TYPE=MASS SPECTRUM
##ORIGIN=Japan AIST/NIMC Database- Spectrum MS-NW-8472
##OWNER=NIST Mass Spectrometry Data Center
Collection (C) 2014 copyright by the U.S. Secretary of Commerce
on behalf of the United States of America. All rights reserved.
##CAS REGISTRY NO=2198-61-0
##$NIST MASS SPEC NO=228613
##MOLFORM=C11 H22 O2
##MW=186
##$NIST SOURCE=MSDC
##XUNITS=M/Z
##YUNITS=RELATIVE INTENSITY
##XFACTOR=1
##YFACTOR=1
##FIRSTX=15
##LASTX=171
##FIRSTY=30
##MAXX=171
##MINX=15
##MAXY=9999
##MINY=10
##NPOINTS=67
##PEAK TABLE=(XY..XY)
15,30 18,40 26,30 27,829
28,339 29,1279 30,30 31,60
38,10 39,489 40,90 41,1889
42,1389 43,7299 44,269 45,189
51,20 52,10 53,119 54,99
55,3169 56,349 57,299 58,40
59,40 60,529 61,159 67,40
68,50 69,599 70,9999 71,4589
72,259 73,449 74,60 75,50
80,20 81,40 82,10 83,60
84,20 85,159 86,20 87,329
88,50 89,119 97,70 98,60
99,4379 100,319 101,90 102,10
113,219 114,30 115,139 116,129
117,1009 118,60 127,20 129,40
130,70 131,60 143,199 144,20
156,10 157,20 171,20
##END=
