##TITLE=4-Nonene
##JCAMP-DX=4.24
##DATA TYPE=MASS SPECTRUM
##ORIGIN=Japan AIST/NIMC Database- Spectrum MS-NW-3543
##OWNER=NIST Mass Spectrometry Data Center
Collection (C) 2014 copyright by the U.S. Secretary of Commerce
on behalf of the United States of America. All rights reserved.
##CAS REGISTRY NO=2198-23-4
##$NIST MASS SPEC NO=232152
##MOLFORM=C9 H18
##MW=126
##$NIST SOURCE=MSDC
##XUNITS=M/Z
##YUNITS=RELATIVE INTENSITY
##XFACTOR=1
##YFACTOR=1
##FIRSTX=15
##LASTX=128
##FIRSTY=50
##MAXX=128
##MINX=15
##MAXY=9999
##MINY=10
##NPOINTS=54
##PEAK TABLE=(XY..XY)
15,50 26,60 27,1249 28,50
29,1159 30,30 37,10 38,50
39,1109 40,169 41,4859 42,2269
43,2049 44,70 50,50 51,119
52,60 53,449 54,619 55,9999
56,4249 57,809 58,40 62,10
63,30 65,99 66,50 67,609
68,299 69,2489 70,2859 71,539
72,20 77,70 78,20 79,90
80,20 81,159 82,219 83,1469
84,1159 85,159 86,10 91,20
93,10 95,50 96,60 97,1039
98,299 99,20 111,30 126,2159
127,219 128,10
##END=
