##TITLE=3-Acetyl-6-bromocoumarin
##JCAMP-DX=4.24
##DATA TYPE=MASS SPECTRUM
##ORIGIN=Japan AIST/NIMC Database- Spectrum MS-IW-2753
##OWNER=NIST Mass Spectrometry Data Center
Collection (C) 2014 copyright by the U.S. Secretary of Commerce
on behalf of the United States of America. All rights reserved.
##CAS REGISTRY NO=2199-93-1
##$NIST MASS SPEC NO=234635
##MOLFORM=C11 H7 Br O3
##MW=266
##$NIST SOURCE=MSDC
##XUNITS=M/Z
##YUNITS=RELATIVE INTENSITY
##XFACTOR=1
##YFACTOR=1
##FIRSTX=14
##LASTX=270
##FIRSTY=20
##MAXX=270
##MINX=14
##MAXY=9999
##MINY=10
##NPOINTS=145
##PEAK TABLE=(XY..XY)
14,20 15,149 26,20 27,20
28,50 29,20 31,10 37,109
38,209 39,159 41,20 42,80
43,4979 44,309 45,30 46,10
49,90 50,409 51,339 52,40
53,199 54,10 55,60 56,20
57,30 58,169 60,20 61,319
62,1229 63,759 64,60 65,50
66,30 67,20 69,10 71,10
72,119 73,80 74,369 75,239
76,129 77,159 78,10 79,50
80,40 81,20 82,40 83,60
84,60 85,219 86,569 87,789
88,1579 89,969 90,99 91,20
93,10 97,30 98,119 99,169
100,219 101,90 102,159 103,70
104,10 105,10 109,10 110,10
111,60 112,60 113,40 114,60
115,40 116,90 117,559 118,60
119,229 120,10 125,119 126,109
127,20 128,10 129,10 130,50
131,119 132,10 141,50 142,10
143,50 144,70 145,20 155,10
157,10 159,60 166,20 167,1269
168,179 169,1249 170,149 171,20
172,70 173,40 179,269 180,30
181,279 182,30 183,10 187,99
188,30 189,10 193,10 194,20
195,60 196,1319 197,159 198,1299
199,139 200,50 201,20 202,30
207,20 209,139 210,70 211,109
212,60 222,20 223,1179 224,509
225,1219 226,489 227,60 237,10
238,80 240,90 251,9999 252,1099
253,9869 254,1099 255,119 256,10
266,7469 267,939 268,7369 269,909
270,99
##END=
