##TITLE=1H-Pyrrole-2-carboxylic acid, 4,5-dimethyl-, ethyl ester
##JCAMP-DX=4.24
##DATA TYPE=MASS SPECTRUM
##ORIGIN=D. GAMES, M. HEWLINS, A. JACKSON, CHEM DEPT, UNIV COLL, CARDIFF, U.K.
##OWNER=NIST Mass Spectrometry Data Center
Collection (C) 2014 copyright by the U.S. Secretary of Commerce
on behalf of the United States of America. All rights reserved.
##CAS REGISTRY NO=2199-45-3
##$NIST MASS SPEC NO=51961
##MOLFORM=C9 H13 N O2
##MW=167
##$NIST SOURCE=MSDC
##XUNITS=M/Z
##YUNITS=RELATIVE INTENSITY
##XFACTOR=1
##YFACTOR=1
##FIRSTX=46
##LASTX=169
##FIRSTY=36
##MAXX=169
##MINX=46
##MAXY=9999
##MINY=26
##NPOINTS=47
##PEAK TABLE=(XY..XY)
46,36 47,36 50,115 51,427
52,472 53,515 54,195 55,26
61,53 63,71 64,143 65,1049
66,3377 67,2063 68,142 77,71
78,266 79,258 80,80 82,53
91,125 92,1289 93,5164 94,2143
95,1440 96,124 106,311 107,27
108,62 110,133 119,115 120,2088
121,9999 122,6720 123,737 124,133
134,36 137,27 138,400 139,1405
140,80 152,186 165,53 166,293
167,9805 168,1013 169,62
##END=
