##TITLE=1H-Pyrrole, 2,3,5-trimethyl-
##JCAMP-DX=4.24
##DATA TYPE=MASS SPECTRUM
##ORIGIN=D. GAMES, M. HEWLINS, A. JACKSON, CHEM DEPT, UNIV COLL, CARDIFF, U.K.
##OWNER=NIST Mass Spectrometry Data Center
Collection (C) 2014 copyright by the U.S. Secretary of Commerce
on behalf of the United States of America. All rights reserved.
##CAS REGISTRY NO=2199-41-9
##$NIST MASS SPEC NO=51951
##MOLFORM=C7 H11 N
##MW=109
##$NIST SOURCE=MSDC
##XUNITS=M/Z
##YUNITS=RELATIVE INTENSITY
##XFACTOR=1
##YFACTOR=1
##FIRSTX=41
##LASTX=110
##FIRSTY=460
##MAXX=110
##MINX=41
##MAXY=9999
##MINY=32
##NPOINTS=36
##PEAK TABLE=(XY..XY)
41,460 42,1271 47,126 50,154
51,252 52,232 53,648 54,525
55,134 57,150 62,69 63,171
64,118 65,725 66,391 67,1112
68,142 69,85 70,93 71,273
77,32 79,236 80,187 81,150
83,48 85,61 91,122 92,326
93,1288 94,2600 95,256 106,350
107,864 108,9999 109,6343 110,485
##END=
