##TITLE=1,3,6-Octatriene, (E,E)-
##JCAMP-DX=4.24
##DATA TYPE=MASS SPECTRUM
##ORIGIN=D.HENNEBERG, MAX-PLANCK INSTITUTE, MULHEIM, WEST GERMANY
##OWNER=NIST Mass Spectrometry Data Center
Collection (C) 2014 copyright by the U.S. Secretary of Commerce
on behalf of the United States of America. All rights reserved.
##CAS REGISTRY NO=22038-69-3
##$NIST MASS SPEC NO=61484
##MOLFORM=C8 H12
##MW=108
##$NIST SOURCE=MSDC
##XUNITS=M/Z
##YUNITS=RELATIVE INTENSITY
##XFACTOR=1
##YFACTOR=1
##FIRSTX=25
##LASTX=110
##FIRSTY=13
##MAXX=110
##MINX=25
##MAXY=9999
##MINY=1
##NPOINTS=76
##PEAK TABLE=(XY..XY)
25,13 26,176 27,1975 28,236
29,776 30,17 32,4 34,7
35,10 36,1 37,119 38,282
39,3537 40,583 41,2885 42,160
43,77 44,4 45,22 46,10
48,6 49,58 50,499 51,1184
52,646 53,1522 54,561 55,533
56,62 57,7 58,16 59,13
60,7 61,47 62,127 63,382
64,127 65,1623 66,2560 67,1403
68,162 69,20 70,4 71,2
73,21 74,99 75,290 76,81
77,7675 78,2083 79,9999 80,1839
81,375 82,26 85,7 86,9
87,23 88,6 89,168 90,51
91,5046 92,617 93,5364 94,422
95,11 98,6 101,3 102,14
103,91 104,34 105,305 106,119
107,307 108,2732 109,255 110,12
##END=
