##TITLE=Acetylpyrazine
##JCAMP-DX=4.24
##DATA TYPE=MASS SPECTRUM
##ORIGIN=NIST Mass Spectrometry Data Center, 1994
##OWNER=NIST Mass Spectrometry Data Center
Collection (C) 2014 copyright by the U.S. Secretary of Commerce
on behalf of the United States of America. All rights reserved.
##CAS REGISTRY NO=22047-25-2
##$NIST MASS SPEC NO=136071
##MOLFORM=C6 H6 N2 O
##MW=122
##$NIST SOURCE=MSDC
##XUNITS=M/Z
##YUNITS=RELATIVE INTENSITY
##XFACTOR=1
##YFACTOR=1
##FIRSTX=12
##LASTX=124
##FIRSTY=93
##MAXX=124
##MINX=12
##MAXY=9999
##MINY=3
##NPOINTS=53
##PEAK TABLE=(XY..XY)
12,93 13,215 14,662 15,2100
16,20 18,27 24,77 25,455
26,2182 27,348 28,2290 29,145
32,3 36,79 37,527 38,704
39,877 40,558 41,296 42,1361
43,9999 44,251 48,26 49,125
50,367 51,1935 52,5581 53,4121
54,232 55,11 62,49 63,75
64,85 65,48 66,140 67,199
68,86 69,13 75,42 76,74
77,108 78,13 79,2805 80,4421
81,503 82,21 94,2993 95,197
107,369 108,32 122,4022 123,319
124,22
##END=
