##TITLE=1-(5-Methyl-2-pyrazinyl)-1-ethanone
##JCAMP-DX=4.24
##DATA TYPE=MASS SPECTRUM
##ORIGIN=Philip Morris R&D
##OWNER=NIST Mass Spectrometry Data Center
Collection (C) 2014 copyright by the U.S. Secretary of Commerce
on behalf of the United States of America. All rights reserved.
##CAS REGISTRY NO=22047-27-4
##$NIST MASS SPEC NO=108948
##MOLFORM=C7 H8 N2 O
##MW=136
##$NIST SOURCE=MSDC
##XUNITS=M/Z
##YUNITS=RELATIVE INTENSITY
##XFACTOR=1
##YFACTOR=1
##FIRSTX=38
##LASTX=137
##FIRSTY=255
##MAXX=137
##MINX=38
##MAXY=9999
##MINY=22
##NPOINTS=29
##PEAK TABLE=(XY..XY)
38,255 39,383 40,652 41,181
42,154 43,1299 44,326 47,22
49,370 51,92 52,31 53,379
54,44 55,22 64,75 66,1246
67,991 68,150 77,35 84,225
86,132 93,2893 94,5455 95,476
108,1686 109,123 121,462 136,9999
137,920
##END=
