##TITLE=3-Methylbenzo[b]thiophene-2-carboxaldehyde
##JCAMP-DX=4.24
##DATA TYPE=MASS SPECTRUM
##ORIGIN=NIST Mass Spectrometry Data Center, 1994
##OWNER=NIST Mass Spectrometry Data Center
Collection (C) 2014 copyright by the U.S. Secretary of Commerce
on behalf of the United States of America. All rights reserved.
##CAS REGISTRY NO=22053-74-3
##$NIST MASS SPEC NO=136826
##MOLFORM=C10 H8 O S
##MW=176
##$NIST SOURCE=MSDC
##XUNITS=M/Z
##YUNITS=RELATIVE INTENSITY
##XFACTOR=1
##YFACTOR=1
##FIRSTX=18
##LASTX=179
##FIRSTY=34
##MAXX=179
##MINX=18
##MAXY=9999
##MINY=29
##NPOINTS=77
##PEAK TABLE=(XY..XY)
18,34 26,83 27,125 29,533
37,170 38,362 39,1006 40,58
45,1966 46,60 47,113 49,98
50,886 51,1204 52,174 53,106
57,117 58,162 61,293 62,558
63,985 64,146 65,144 69,2181
70,287 71,331 72,217 73,718
74,730 75,716 76,461 77,1695
78,185 81,192 82,321 83,68
84,54 85,93 86,165 87,263
88,634 89,473 90,51 91,29
92,29 93,447 94,111 95,108
97,65 98,108 99,50 101,223
102,956 103,1645 104,180 105,86
106,112 108,124 113,102 114,108
115,1137 116,109 117,76 119,78
120,117 121,543 122,42 132,61
145,617 147,7604 148,1220 149,421
175,8226 176,9999 177,1512 178,540
179,51
##END=
