##TITLE=4-Dodecyne
##JCAMP-DX=4.24
##DATA TYPE=MASS SPECTRUM
##ORIGIN=S.A. Rang et al., IR & MS of Unsatd. Hydrocarbons, 1977
##OWNER=NIST Mass Spectrometry Data Center
Collection (C) 2014 copyright by the U.S. Secretary of Commerce
on behalf of the United States of America. All rights reserved.
##CAS REGISTRY NO=22058-01-1
##$NIST MASS SPEC NO=142639
##MOLFORM=C12 H22
##MW=166
##$NIST SOURCE=MSDC
##XUNITS=M/Z
##YUNITS=RELATIVE INTENSITY
##XFACTOR=1
##YFACTOR=1
##FIRSTX=15
##LASTX=168
##FIRSTY=23
##MAXX=168
##MINX=15
##MAXY=9999
##MINY=3
##NPOINTS=113
##PEAK TABLE=(XY..XY)
15,23 24,3 25,13 26,143
27,2187 29,2691 30,68 31,23
36,3 37,16 38,55 39,1598
40,386 41,5383 42,925 43,4289
44,140 45,88 46,3 47,3
49,7 50,84 51,352 52,546
53,1514 54,3364 55,4710 56,925
57,1262 58,140 59,33 60,568
61,62 62,16 63,78 64,36
65,466 66,443 67,9999 68,1682
69,1346 70,330 71,477 72,37
73,250 74,36 75,36 76,10
77,523 78,140 79,1009 80,296
81,6308 82,2103 83,841 84,159
85,318 86,46 87,78 88,13
89,13 90,3 91,214 92,39
93,250 94,88 95,2523 96,1009
97,166 98,59 99,42 100,16
101,26 102,7 103,10 104,7
105,39 106,7 107,65 108,36
109,1430 110,637 111,71 112,23
113,33 114,7 115,10 116,3
117,7 119,10 120,3 121,20
122,26 123,2019 124,673 125,65
126,10 127,29 128,13 135,88
136,3 137,455 138,62 139,10
149,10 151,117 152,16 153,3
162,3 165,7 166,33 167,7
168,3
##END=
