##TITLE=Benzene, (cyclohexyloxy)-
##JCAMP-DX=4.24
##DATA TYPE=MASS SPECTRUM
##OWNER=NIST Mass Spectrometry Data Center
Collection (C) 2014 copyright by the U.S. Secretary of Commerce
on behalf of the United States of America. All rights reserved.
##CAS REGISTRY NO=2206-38-4
##$NIST MASS SPEC NO=7106
##MOLFORM=C12 H16 O
##MW=176
##$NIST SOURCE=MSDC
##XUNITS=M/Z
##YUNITS=RELATIVE INTENSITY
##XFACTOR=1
##YFACTOR=1
##FIRSTX=15
##LASTX=178
##FIRSTY=10
##MAXX=178
##MINX=15
##MAXY=9999
##MINY=10
##NPOINTS=119
##PEAK TABLE=(XY..XY)
15,10 18,10 26,10 27,190
28,30 29,170 30,10 31,10
32,10 37,10 38,30 39,420
40,70 41,681 50,50 51,230
52,40 53,130 54,200 55,851
56,40 57,10 58,10 61,10
62,10 63,60 64,30 65,240
66,200 67,601 68,40 69,10
70,10 71,10 72,10 73,10
74,10 75,10 76,20 77,390
78,50 79,130 80,30 81,190
82,110 83,150 84,10 89,10
90,10 91,180 92,30 93,40
94,9999 95,771 96,50 97,10
98,10 100,10 101,10 102,10
103,20 104,10 105,50 106,20
107,110 108,20 109,10 110,10
115,40 116,10 117,10 118,10
119,20 120,140 121,40 122,10
127,10 128,10 129,10 130,10
131,120 132,30 133,70 134,10
135,10 136,10 139,10 141,30
142,20 143,10 144,40 145,80
146,30 147,50 148,10 149,10
150,10 151,10 152,10 153,10
154,10 155,10 157,10 158,10
159,60 160,10 161,20 162,10
168,10 169,10 170,60 171,10
172,20 173,10 174,190 175,30
176,1341 177,130 178,10
##END=
