##TITLE=3-Penten-1-yne
##JCAMP-DX=4.24
##DATA TYPE=MASS SPECTRUM
##ORIGIN=NIST Mass Spectrometry Data Center, 1990.
##OWNER=NIST Mass Spectrometry Data Center
Collection (C) 2014 copyright by the U.S. Secretary of Commerce
on behalf of the United States of America. All rights reserved.
##CAS REGISTRY NO=2206-23-7
##$NIST MASS SPEC NO=118199
##MOLFORM=C5 H6
##MW=66
##$NIST SOURCE=MSDC
##XUNITS=M/Z
##YUNITS=RELATIVE INTENSITY
##XFACTOR=1
##YFACTOR=1
##FIRSTX=12
##LASTX=67
##FIRSTY=61
##MAXX=67
##MINX=12
##MAXY=9999
##MINY=10
##NPOINTS=30
##PEAK TABLE=(XY..XY)
12,61 13,53 14,112 15,167
24,74 25,189 26,597 27,1004
28,10 31,650 32,172 36,338
37,1496 38,2622 39,8168 40,4935
41,205 48,114 49,511 50,1375
51,1338 52,58 60,425 61,1335
62,1618 63,2366 64,746 65,5718
66,9999 67,552
##END=
