##TITLE=Ketoprofen
##JCAMP-DX=4.24
##DATA TYPE=MASS SPECTRUM
##ORIGIN=Patti Price, Georgia Bureau of Investigation, Decatur, Georgia
##OWNER=NIST Mass Spectrometry Data Center
Collection (C) 2014 copyright by the U.S. Secretary of Commerce
on behalf of the United States of America. All rights reserved.
##CAS REGISTRY NO=22071-15-4
##$NIST MASS SPEC NO=248419
##MOLFORM=C16 H14 O3
##MW=254
##$NIST SOURCE=MSDC
##XUNITS=M/Z
##YUNITS=RELATIVE INTENSITY
##XFACTOR=1
##YFACTOR=1
##FIRSTX=43
##LASTX=256
##FIRSTY=390
##MAXX=256
##MINX=43
##MAXY=9999
##MINY=10
##NPOINTS=56
##PEAK TABLE=(XY..XY)
43,390 50,520 51,2572 53,180
57,10 61,30 62,160 63,590
65,220 67,70 74,270 75,360
76,760 77,9758 78,1881 79,390
87,80 88,100 89,210 91,350
103,2622 104,1000 105,9999 106,590
111,30 127,90 128,110 130,30
131,610 132,90 133,120 139,100
147,70 149,320 151,230 152,310
153,110 162,20 165,580 166,270
176,120 177,3713 178,720 179,120
181,1471 182,250 191,110 194,620
207,70 208,270 209,3453 210,1331
211,120 254,3232 255,480 256,70
##END=
