##TITLE=Cyclohexane, 1,4-dimethyl-, trans-
##JCAMP-DX=4.24
##DATA TYPE=MASS SPECTRUM
##OWNER=NIST Mass Spectrometry Data Center
Collection (C) 2014 copyright by the U.S. Secretary of Commerce
on behalf of the United States of America. All rights reserved.
##CAS REGISTRY NO=2207-04-7
##$NIST MASS SPEC NO=1623
##MOLFORM=C8 H16
##MW=112
##$NIST SOURCE=MSDC
##XUNITS=M/Z
##YUNITS=RELATIVE INTENSITY
##XFACTOR=1
##YFACTOR=1
##FIRSTX=14
##LASTX=114
##FIRSTY=10
##MAXX=114
##MINX=14
##MAXY=9999
##MINY=10
##NPOINTS=65
##PEAK TABLE=(XY..XY)
14,10 15,310 16,10 26,100
27,2092 28,611 29,1852 30,40
37,20 38,50 39,1862 40,380
41,4324 42,1712 43,971 44,30
45,10 46,20 47,10 50,30
51,140 52,80 53,591 54,390
55,9999 56,2462 57,711 58,30
62,10 63,20 64,10 65,90
66,60 67,410 68,230 69,1611
70,1161 71,140 72,10 75,10
77,90 78,20 79,70 80,10
81,180 82,230 83,1041 84,671
85,60 89,10 91,30 92,10
93,10 94,10 95,50 96,561
97,9298 98,701 99,20 109,10
110,10 111,140 112,3483 113,300
114,10
##END=
