##TITLE=1,3-Cyclopentadiene, 1,2,3,4-tetrachloro-5,5-dimethoxy-
##JCAMP-DX=4.24
##DATA TYPE=MASS SPECTRUM
##ORIGIN=Japan AIST/NIMC Database- Spectrum MS-NW-6612
##OWNER=NIST Mass Spectrometry Data Center
Collection (C) 2014 copyright by the U.S. Secretary of Commerce
on behalf of the United States of America. All rights reserved.
##CAS REGISTRY NO=2207-27-4
##$NIST MASS SPEC NO=235942
##MOLFORM=C7 H6 Cl4 O2
##MW=262
##$NIST SOURCE=MSDC
##XUNITS=M/Z
##YUNITS=RELATIVE INTENSITY
##XFACTOR=1
##YFACTOR=1
##FIRSTX=15
##LASTX=271
##FIRSTY=1559
##MAXX=271
##MINX=15
##MAXY=9999
##MINY=10
##NPOINTS=233
##PEAK TABLE=(XY..XY)
15,1559 17,40 18,159 24,20
26,30 27,60 28,249 29,1029
30,219 31,169 32,10 35,149
36,429 37,80 38,149 39,70
40,10 41,10 42,20 43,139
44,90 45,129 46,10 47,649
48,209 49,319 50,90 51,90
52,50 53,30 55,30 59,2509
60,349 61,229 62,99 63,469
64,30 65,179 66,30 67,20
71,419 72,99 73,599 74,50
75,169 76,60 77,60 78,10
79,20 80,10 82,50 83,1239
84,289 85,579 86,60 87,959
88,40 89,289 90,20 91,10
92,10 93,10 94,349 95,479
96,319 97,309 98,99 99,99
100,20 101,30 103,20 105,109
106,349 107,259 108,239 109,209
110,70 111,989 112,70 113,349
114,20 115,30 117,30 118,2859
119,319 120,1909 121,319 122,349
123,99 124,20 125,20 127,50
129,30 130,359 131,269 132,249
133,489 134,179 135,239 136,109
137,80 138,20 139,20 141,589
142,30 143,569 144,30 145,199
146,30 147,179 148,99 149,279
150,70 151,149 152,20 153,1839
154,249 155,2039 156,289 157,789
158,119 159,159 160,30 161,70
162,30 163,80 164,50 165,309
166,50 167,569 168,199 169,879
170,199 171,599 172,90 173,199
174,20 175,20 176,90 177,369
178,149 179,249 180,80 181,1859
182,259 183,1779 184,369 185,629
186,239 187,109 188,1429 189,289
190,1879 191,389 192,929 193,179
194,209 195,70 196,50 197,469
198,60 199,469 200,80 201,189
202,60 203,139 204,469 205,149
206,599 207,90 208,279 209,30
210,80 211,30 212,2919 213,239
214,2759 215,229 216,4869 217,349
218,5249 219,3109 220,2749 221,3529
222,739 223,1669 224,149 225,409
226,50 227,9999 228,799 229,9489
230,769 231,5869 232,519 233,4559
234,419 235,2089 236,209 237,529
238,70 239,109 240,30 241,30
242,10 243,50 244,20 245,50
246,10 247,2969 248,229 249,3739
250,299 251,1799 252,149 253,429
254,50 255,40 256,10 257,10
258,10 259,10 260,20 262,3819
263,329 264,4859 265,429 266,2399
267,249 268,549 269,60 270,70
271,20
##END=
