##TITLE=Benzoic acid, 2-(dimethylamino)ethyl ester
##JCAMP-DX=4.24
##DATA TYPE=MASS SPECTRUM
##ORIGIN=Japan AIST/NIMC Database- Spectrum MS-NW-7591
##OWNER=NIST Mass Spectrometry Data Center
Collection (C) 2014 copyright by the U.S. Secretary of Commerce
on behalf of the United States of America. All rights reserved.
##CAS REGISTRY NO=2208-05-1
##$NIST MASS SPEC NO=238549
##MOLFORM=C11 H15 N O2
##MW=193
##$NIST SOURCE=MSDC
##XUNITS=M/Z
##YUNITS=RELATIVE INTENSITY
##XFACTOR=1
##YFACTOR=1
##FIRSTX=15
##LASTX=150
##FIRSTY=70
##MAXX=150
##MINX=15
##MAXY=9999
##MINY=10
##NPOINTS=40
##PEAK TABLE=(XY..XY)
15,70 18,10 27,60 28,80
29,60 30,199 38,10 39,30
41,40 42,469 43,159 44,139
45,30 50,109 51,369 52,20
53,10 54,20 55,30 56,229
57,149 58,9999 59,359 70,70
71,1789 72,159 73,10 74,30
75,30 76,50 77,779 78,60
86,20 88,10 91,10 105,609
106,50 122,20 149,90 150,10
##END=
