##TITLE=3-(2-Methylphenyl)propionic acid
##JCAMP-DX=4.24
##DATA TYPE=MASS SPECTRUM
##ORIGIN=NIST Mass Spectrometry Data Center, 1994
##OWNER=NIST Mass Spectrometry Data Center
Collection (C) 2014 copyright by the U.S. Secretary of Commerce
on behalf of the United States of America. All rights reserved.
##CAS REGISTRY NO=22084-89-5
##$NIST MASS SPEC NO=134827
##MOLFORM=C10 H12 O2
##MW=164
##$NIST SOURCE=MSDC
##XUNITS=M/Z
##YUNITS=RELATIVE INTENSITY
##XFACTOR=1
##YFACTOR=1
##FIRSTX=14
##LASTX=166
##FIRSTY=46
##MAXX=166
##MINX=14
##MAXY=9999
##MINY=24
##NPOINTS=73
##PEAK TABLE=(XY..XY)
14,46 15,81 18,32 26,74
27,627 28,232 29,110 31,87
32,60 37,42 38,181 39,1252
40,118 41,385 42,137 43,83
44,42 45,671 46,27 50,394
51,894 52,258 53,265 55,85
58,228 60,31 61,55 62,211
63,647 64,163 65,1049 66,98
67,32 72,30 73,45 74,135
75,148 76,30 77,1895 78,919
79,1509 80,90 81,77 86,42
87,69 89,344 91,2354 92,1485
93,260 101,31 102,246 103,1208
104,3069 105,9999 106,875 107,424
108,35 115,772 116,215 117,1238
118,1628 119,681 120,63 121,69
131,202 132,24 145,67 146,532
147,107 149,28 164,2963 165,313
166,27
##END=
