##TITLE=4(1H)-Pyrimidinone, 6-amino-2-methyl-5-nitroso-
##JCAMP-DX=4.24
##DATA TYPE=MASS SPECTRUM
##ORIGIN=LAC, NIDDK, NIH, Bethesda, MD 20892
##OWNER=NIST Mass Spectrometry Data Center
Collection (C) 2014 copyright by the U.S. Secretary of Commerce
on behalf of the United States of America. All rights reserved.
##CAS REGISTRY NO=2209-72-5
##$NIST MASS SPEC NO=257510
##MOLFORM=C5 H6 N4 O2
##MW=154
##$NIST SOURCE=MSDC
##XUNITS=M/Z
##YUNITS=RELATIVE INTENSITY
##XFACTOR=1
##YFACTOR=1
##FIRSTX=41
##LASTX=155
##FIRSTY=1552
##MAXX=155
##MINX=41
##MAXY=9999
##MINY=166
##NPOINTS=18
##PEAK TABLE=(XY..XY)
41,1552 42,9999 43,2250 44,891
53,1525 54,1353 55,3539 68,1203
69,1079 70,1600 81,1348 82,166
96,301 137,1869 138,220 153,2261
154,7121 155,639
##END=
