##TITLE=2-Nonen-1-ol
##JCAMP-DX=4.24
##DATA TYPE=MASS SPECTRUM
##ORIGIN=NIST Mass Spectrometry Data Center, 1994
##OWNER=NIST Mass Spectrometry Data Center
Collection (C) 2014 copyright by the U.S. Secretary of Commerce
on behalf of the United States of America. All rights reserved.
##CAS REGISTRY NO=22104-79-6
##$NIST MASS SPEC NO=134071
##MOLFORM=C9 H18 O
##MW=142
##$NIST SOURCE=MSDC
##XUNITS=M/Z
##YUNITS=RELATIVE INTENSITY
##XFACTOR=1
##YFACTOR=1
##FIRSTX=14
##LASTX=142
##FIRSTY=21
##MAXX=142
##MINX=14
##MAXY=9999
##MINY=21
##NPOINTS=59
##PEAK TABLE=(XY..XY)
14,21 15,346 16,26 19,59
27,5320 28,788 29,6470 30,292
31,1887 39,3944 41,8019 42,2260
43,5679 44,1557 45,378 50,166
51,386 52,212 53,1016 54,2055
55,4210 56,2334 57,9999 58,750
59,102 63,75 65,282 66,382
67,2235 68,2198 69,2107 70,1459
71,1018 72,390 73,88 77,163
79,281 81,1909 82,2027 83,660
84,167 85,309 86,102 91,32
93,45 95,1704 96,1062 97,133
98,138 99,295 100,44 109,165
110,23 111,29 113,67 114,30
124,187 125,21 142,33
##END=
