##TITLE=2H-Azepin-2-one, hexahydro-5-methyl-
##JCAMP-DX=4.24
##DATA TYPE=MASS SPECTRUM
##ORIGIN=V.KUBELKA INST. OF CHEM. TECH., PRAGUE, CZECHOSLOVAKIA
##OWNER=NIST Mass Spectrometry Data Center
Collection (C) 2014 copyright by the U.S. Secretary of Commerce
on behalf of the United States of America. All rights reserved.
##CAS REGISTRY NO=2210-07-3
##$NIST MASS SPEC NO=26287
##MOLFORM=C7 H13 N O
##MW=127
##$NIST SOURCE=MSDC
##XUNITS=M/Z
##YUNITS=RELATIVE INTENSITY
##XFACTOR=1
##YFACTOR=1
##FIRSTX=14
##LASTX=128
##FIRSTY=100
##MAXX=128
##MINX=14
##MAXY=9999
##MINY=100
##NPOINTS=67
##PEAK TABLE=(XY..XY)
14,100 15,500 16,100 17,380
18,1390 25,100 26,400 27,1900
28,3850 29,1670 30,9999 31,250
37,100 38,200 39,1450 40,263
41,3300 42,2100 43,1800 44,900
45,250 46,110 50,190 51,290
52,280 53,600 54,410 55,4100
56,3800 57,500 58,200 59,100
60,100 65,100 66,100 67,550
68,250 69,4500 70,1800 71,260
72,260 73,110 77,100 78,100
79,120 80,130 81,600 82,400
83,800 84,550 85,300 86,200
95,100 96,200 97,200 98,1700
99,2790 100,200 108,100 109,100
110,2200 111,150 112,200 125,110
126,200 127,1700 128,300
##END=
