##TITLE=2-Decen-1-ol
##JCAMP-DX=4.24
##DATA TYPE=MASS SPECTRUM
##ORIGIN=NIST Mass Spectrometry Data Center, 1994
##OWNER=NIST Mass Spectrometry Data Center
Collection (C) 2014 copyright by the U.S. Secretary of Commerce
on behalf of the United States of America. All rights reserved.
##CAS REGISTRY NO=22104-80-9
##$NIST MASS SPEC NO=136260
##MOLFORM=C10 H20 O
##MW=156
##$NIST SOURCE=MSDC
##XUNITS=M/Z
##YUNITS=RELATIVE INTENSITY
##XFACTOR=1
##YFACTOR=1
##FIRSTX=4
##LASTX=156
##FIRSTY=13
##MAXX=156
##MINX=4
##MAXY=9999
##MINY=13
##NPOINTS=72
##PEAK TABLE=(XY..XY)
4,13 15,312 17,31 18,96
19,71 26,284 27,5153 28,840
29,6845 30,188 31,1483 37,31
38,165 39,3421 40,642 41,8873
42,2112 43,6587 44,1709 45,305
46,19 47,90 50,101 51,282
52,144 53,1008 54,1984 55,4559
56,2140 57,9999 58,730 63,40
65,225 66,360 67,2512 68,2315
69,2039 70,1449 71,1373 72,373
73,69 75,49 77,143 78,37
79,336 80,140 81,1900 82,2022
83,1027 84,433 85,299 86,90
91,47 93,59 95,1248 96,914
97,294 98,81 99,148 100,26
103,127 108,21 109,471 110,471
111,81 112,90 113,52 123,34
127,25 128,21 138,90 156,20
##END=
