##TITLE=2,3-Epoxypropyl p-methoxyphenyl ether
##JCAMP-DX=4.24
##DATA TYPE=MASS SPECTRUM
##ORIGIN=NIST Mass Spectrometry Data Center, 1990.
##OWNER=NIST Mass Spectrometry Data Center
Collection (C) 2014 copyright by the U.S. Secretary of Commerce
on behalf of the United States of America. All rights reserved.
##CAS REGISTRY NO=2211-94-1
##$NIST MASS SPEC NO=118335
##MOLFORM=C10 H12 O3
##MW=180
##$NIST SOURCE=MSDC
##XUNITS=M/Z
##YUNITS=RELATIVE INTENSITY
##XFACTOR=1
##YFACTOR=1
##FIRSTX=14
##LASTX=182
##FIRSTY=164
##MAXX=182
##MINX=14
##MAXY=9999
##MINY=23
##NPOINTS=77
##PEAK TABLE=(XY..XY)
14,164 15,569 18,23 26,944
27,2546 28,522 29,4478 30,245
31,2418 32,88 37,159 38,654
39,1447 40,261 41,2354 42,261
43,193 44,50 49,67 50,707
51,1055 52,1495 53,1516 54,1102
55,504 56,129 57,1439 58,69
61,109 62,409 63,1308 64,1305
65,1366 66,335 67,389 68,58
69,163 74,146 75,127 76,223
77,2106 78,345 79,881 80,851
81,2106 82,450 83,63 90,42
91,338 92,1072 93,165 94,600
95,4125 96,375 105,325 107,1750
109,8769 110,665 111,120 119,67
121,595 123,9102 124,9999 125,806
126,106 135,520 137,1920 138,184
150,1920 151,191 161,53 164,326
177,48 178,53 180,8931 181,1055
182,110
##END=
