##TITLE=Bromoacetyl chloride
##JCAMP-DX=4.24
##DATA TYPE=MASS SPECTRUM
##ORIGIN=V.Zaikin,Topchiev Inst.Petrochem.Synth.,Moscow
##OWNER=NIST Mass Spectrometry Data Center
Collection (C) 2014 copyright by the U.S. Secretary of Commerce
on behalf of the United States of America. All rights reserved.
##CAS REGISTRY NO=22118-09-8
##$NIST MASS SPEC NO=281840
##MOLFORM=C2 H2 Br Cl O
##MW=156
##$NIST SOURCE=MSDC
##XUNITS=M/Z
##YUNITS=RELATIVE INTENSITY
##XFACTOR=1
##YFACTOR=1
##FIRSTX=27
##LASTX=160
##FIRSTY=50
##MAXX=160
##MINX=27
##MAXY=9999
##MINY=20
##NPOINTS=52
##PEAK TABLE=(XY..XY)
27,50 28,50 29,310 35,821
36,320 37,300 38,110 39,30
40,220 41,921 42,4524 43,150
44,150 45,30 47,240 48,150
49,1181 50,80 51,400 55,40
59,20 60,120 61,60 63,821
65,280 68,20 69,20 76,20
77,110 79,1561 80,110 81,1551
82,90 91,370 92,470 93,3643
94,510 95,3413 96,40 105,30
114,50 116,50 120,330 121,9609
122,601 123,9999 124,210 127,40
129,40 156,80 158,140 160,40
##END=
