##TITLE=Cyclohexanamine, N-(phenylmethylene)-
##JCAMP-DX=4.24
##DATA TYPE=MASS SPECTRUM
##ORIGIN=D.HENNEBERG, MAX-PLANCK INSTITUTE, MULHEIM, WEST GERMANY
##OWNER=NIST Mass Spectrometry Data Center
Collection (C) 2014 copyright by the U.S. Secretary of Commerce
on behalf of the United States of America. All rights reserved.
##CAS REGISTRY NO=2211-66-7
##$NIST MASS SPEC NO=61455
##MOLFORM=C13 H17 N
##MW=187
##$NIST SOURCE=MSDC
##XUNITS=M/Z
##YUNITS=RELATIVE INTENSITY
##XFACTOR=1
##YFACTOR=1
##FIRSTX=24
##LASTX=189
##FIRSTY=5
##MAXX=189
##MINX=24
##MAXY=9999
##MINY=3
##NPOINTS=151
##PEAK TABLE=(XY..XY)
24,5 25,22 26,116 27,1310
28,1176 29,1082 30,358 33,6
35,4 36,4 37,44 38,134
39,1901 40,240 41,4333 42,339
43,475 44,87 45,26 48,17
49,27 50,348 51,1138 52,362
53,816 54,1187 55,4496 56,587
57,256 58,38 59,159 60,25
61,34 62,173 63,637 64,314
65,509 66,133 67,1526 68,623
69,277 70,131 72,35 73,27
74,79 75,210 76,308 77,2344
78,823 79,1592 80,244 81,760
82,1078 83,1228 84,115 85,27
86,28 87,49 88,121 89,1818
90,2130 91,2767 92,303 93,70
94,90 95,50 96,385 97,30
98,11 99,5 100,11 101,46
102,140 103,1047 104,9999 105,1759
106,3765 107,297 108,65 109,555
110,1638 111,165 112,36 114,21
115,360 116,343 117,2141 118,912
119,433 120,180 121,18 122,3
123,3 124,4 125,23 126,39
127,77 128,150 129,490 130,2273
131,894 132,4018 133,1134 134,204
135,8 136,18 137,12 138,11
139,4 140,8 141,208 142,148
143,350 144,7735 145,2056 146,810
147,87 148,8 149,6 150,7
151,8 152,13 153,22 154,46
155,69 156,119 157,125 158,7771
159,1411 160,135 161,8 162,3
167,71 168,6 169,35 170,127
171,28 172,767 173,106 174,6
179,16 180,9 181,11 182,9
183,11 184,28 185,92 186,4115
187,7037 188,1021 189,94
##END=
