##TITLE=1-Undecyn-4-ol
##JCAMP-DX=4.24
##DATA TYPE=MASS SPECTRUM
##ORIGIN=D.HENNEBERG, MAX-PLANCK INSTITUTE, MULHEIM, WEST GERMANY
##OWNER=NIST Mass Spectrometry Data Center
Collection (C) 2014 copyright by the U.S. Secretary of Commerce
on behalf of the United States of America. All rights reserved.
##CAS REGISTRY NO=22127-86-2
##$NIST MASS SPEC NO=62336
##MOLFORM=C11 H20 O
##MW=168
##$NIST SOURCE=MSDC
##XUNITS=M/Z
##YUNITS=RELATIVE INTENSITY
##XFACTOR=1
##YFACTOR=1
##FIRSTX=22
##LASTX=141
##FIRSTY=6
##MAXX=141
##MINX=22
##MAXY=9999
##MINY=3
##NPOINTS=90
##PEAK TABLE=(XY..XY)
22,6 23,5 24,13 25,26
26,75 27,1116 28,347 29,1748
30,66 31,351 34,16 36,26
37,132 38,187 39,1481 40,640
41,4010 42,637 43,3736 44,783
45,263 46,5 48,3 49,3
50,28 51,91 52,52 53,214
54,170 55,4864 56,738 57,1603
58,118 59,54 62,3 63,24
64,8 65,109 66,82 67,415
68,289 69,9999 70,653 71,122
72,27 73,17 74,4 75,10
76,4 77,152 78,77 79,318
80,94 81,250 82,145 83,541
84,243 85,107 86,6 89,6
91,103 92,18 93,125 94,32
95,88 96,39 97,36 98,13
99,8 100,24 103,7 104,9
105,20 106,4 107,46 108,10
109,29 110,33 111,1520 112,141
113,4 115,5 117,5 121,20
127,21 128,5 129,720 130,67
131,3 141,4
##END=
