##TITLE=Butalamine
##JCAMP-DX=4.24
##DATA TYPE=MASS SPECTRUM
##ORIGIN=Finnigan MAT: Toxicological Library (LIBR-TX)
##OWNER=NIST Mass Spectrometry Data Center
Collection (C) 2014 copyright by the U.S. Secretary of Commerce
on behalf of the United States of America. All rights reserved.
##CAS REGISTRY NO=22131-35-7
##$NIST MASS SPEC NO=120540
##MOLFORM=C18 H28 N4 O
##MW=316
##$NIST SOURCE=MSDC
##XUNITS=M/Z
##YUNITS=RELATIVE INTENSITY
##XFACTOR=1
##YFACTOR=1
##FIRSTX=41
##LASTX=273
##FIRSTY=306
##MAXX=273
##MINX=41
##MAXY=9999
##MINY=87
##NPOINTS=22
##PEAK TABLE=(XY..XY)
41,306 44,389 56,87 57,392
58,216 70,90 77,191 84,203
86,199 98,200 100,786 103,190
112,394 127,99 140,202 142,9999
143,1129 145,195 155,577 156,94
188,195 273,103
##END=
