##TITLE=2,4,6-Tribromophenyl isothiocyanate
##JCAMP-DX=4.24
##DATA TYPE=MASS SPECTRUM
##ORIGIN=NIST Mass Spectrometry Data Center, 1994
##OWNER=NIST Mass Spectrometry Data Center
Collection (C) 2014 copyright by the U.S. Secretary of Commerce
on behalf of the United States of America. All rights reserved.
##CAS REGISTRY NO=22134-11-8
##$NIST MASS SPEC NO=134881
##MOLFORM=C7 H2 Br3 N S
##MW=369
##$NIST SOURCE=MSDC
##XUNITS=M/Z
##YUNITS=RELATIVE INTENSITY
##XFACTOR=1
##YFACTOR=1
##FIRSTX=25
##LASTX=377
##FIRSTY=48
##MAXX=377
##MINX=25
##MAXY=9999
##MINY=28
##NPOINTS=126
##PEAK TABLE=(XY..XY)
25,48 28,60 32,215 36,164
37,645 38,254 44,437 45,63
48,56 49,243 50,218 51,74
58,148 60,151 61,747 62,365
63,200 66,506 68,61 69,134
70,258 72,154 73,837 74,1968
75,254 76,40 79,148 80,95
81,194 82,125 83,39 86,159
87,546 88,1254 89,100 91,64
92,32 93,80 94,81 95,39
98,68 99,450 100,394 101,32
104,80 106,430 115,46 116,66
117,102 118,62 119,82 123,150
125,165 127,29 128,95 129,39
130,96 131,154 132,810 133,83
134,40 141,81 142,80 143,50
144,66 145,168 146,358 147,172
152,126 153,276 154,162 155,282
160,38 161,31 162,31 163,34
166,56 168,51 169,28 171,32
173,72 175,33 178,44 179,85
180,40 181,81 185,295 186,301
187,97 197,39 211,2082 212,228
213,1983 214,179 215,100 232,60
234,131 235,34 236,65 246,123
248,202 250,116 258,39 260,71
262,33 290,177 291,44 292,364
293,50 294,180 295,29 313,63
315,65 337,40 339,94 341,94
343,39 369,3321 370,305 371,9908
372,883 373,9999 374,883 375,3562
376,320 377,182
##END=
