##TITLE=Methyl 3-chloro-4-methylcarbanilate
##JCAMP-DX=4.24
##DATA TYPE=MASS SPECTRUM
##ORIGIN=NIST Mass Spectrometry Data Center, 1994
##OWNER=NIST Mass Spectrometry Data Center
Collection (C) 2014 copyright by the U.S. Secretary of Commerce
on behalf of the United States of America. All rights reserved.
##CAS REGISTRY NO=22133-20-6
##$NIST MASS SPEC NO=135394
##MOLFORM=C9 H10 Cl N O2
##MW=199
##$NIST SOURCE=MSDC
##XUNITS=M/Z
##YUNITS=RELATIVE INTENSITY
##XFACTOR=1
##YFACTOR=1
##FIRSTX=12
##LASTX=202
##FIRSTY=138
##MAXX=202
##MINX=12
##MAXY=9999
##MINY=58
##NPOINTS=115
##PEAK TABLE=(XY..XY)
12,138 13,113 14,501 15,6607
16,208 17,142 18,131 25,75
26,651 27,1182 28,1209 29,2057
30,465 31,1414 32,626 35,130
36,138 37,678 38,891 39,1726
40,343 41,181 42,190 43,177
44,310 45,86 47,126 49,552
50,2958 51,5821 52,2446 53,572
54,207 59,3976 60,320 61,809
62,1047 63,1781 64,603 65,653
66,162 69,105 71,58 72,163
73,626 74,764 75,1881 76,2535
77,9059 78,2688 79,454 80,140
84,147 85,331 86,372 87,469
88,328 89,1048 90,382 91,977
92,201 93,505 97,186 99,591
100,172 101,197 102,1334 103,883
104,3621 105,950 106,218 107,138
111,258 112,708 113,1493 114,371
115,431 116,99 118,276 119,323
120,1701 121,257 124,101 125,764
126,147 127,327 128,94 130,138
132,9761 133,935 138,609 139,483
140,3075 141,859 142,1580 143,305
144,170 148,127 154,4474 155,644
156,1534 157,179 163,155 164,352
166,2031 167,9999 168,2149 169,3383
170,503 184,196 186,90 199,9232
200,1107 201,3056 202,319
##END=
