##TITLE=Alclofenac
##JCAMP-DX=4.24
##DATA TYPE=MASS SPECTRUM
##ORIGIN=RP-438-4
##OWNER=NIST Mass Spectrometry Data Center
Collection (C) 2014 copyright by the U.S. Secretary of Commerce
on behalf of the United States of America. All rights reserved.
##CAS REGISTRY NO=22131-79-9
##$NIST MASS SPEC NO=30148
##MOLFORM=C11 H11 Cl O3
##MW=226
##$NIST SOURCE=MSDC
##XUNITS=M/Z
##YUNITS=RELATIVE INTENSITY
##XFACTOR=1
##YFACTOR=1
##FIRSTX=39
##LASTX=228
##FIRSTY=1596
##MAXX=228
##MINX=39
##MAXY=9999
##MINY=140
##NPOINTS=23
##PEAK TABLE=(XY..XY)
39,1596 41,9999 51,1316 52,140
77,560 78,168 89,448 90,224
105,224 113,420 115,308 117,308
131,560 141,5434 142,448 143,2381
145,1288 163,280 181,1512 183,504
191,560 226,2689 228,924
##END=
