##TITLE=Benzoic acid, 4-phenoxy-
##JCAMP-DX=4.24
##DATA TYPE=MASS SPECTRUM
##ORIGIN=NIST Mass Spectrometry Data Center, 1994
##OWNER=NIST Mass Spectrometry Data Center
Collection (C) 2014 copyright by the U.S. Secretary of Commerce
on behalf of the United States of America. All rights reserved.
##CAS REGISTRY NO=2215-77-2
##$NIST MASS SPEC NO=134775
##MOLFORM=C13 H10 O3
##MW=214
##$NIST SOURCE=MSDC
##XUNITS=M/Z
##YUNITS=RELATIVE INTENSITY
##XFACTOR=1
##YFACTOR=1
##FIRSTX=14
##LASTX=216
##FIRSTY=4
##MAXX=216
##MINX=14
##MAXY=9999
##MINY=4
##NPOINTS=84
##PEAK TABLE=(XY..XY)
14,4 18,72 26,99 27,706
28,731 29,96 32,73 37,210
38,920 39,3093 40,211 41,63
45,945 50,2573 51,5705 52,351
53,547 54,55 55,166 56,55
57,324 61,126 62,625 63,1676
64,927 65,2088 66,427 67,48
68,72 69,48 70,315 73,98
74,814 75,900 76,958 77,5661
78,500 79,86 81,243 84,228
86,53 87,88 88,60 89,217
90,56 91,200 92,606 93,221
94,393 95,52 98,363 102,90
103,105 104,74 105,78 109,69
113,116 115,2615 116,303 120,161
121,293 127,64 128,121 129,152
139,790 140,501 141,4034 142,836
143,79 157,68 158,48 168,1056
169,2065 170,297 185,87 186,697
187,122 195,173 197,3811 198,579
199,56 214,9999 215,1356 216,169
##END=
