##TITLE=Cyclohexanol, 5-methyl-2-(1-methylethyl)-, [1S-(1.alpha.,2.alpha.,5.beta.)]-
##JCAMP-DX=4.24
##DATA TYPE=MASS SPECTRUM
##ORIGIN=Chuck Anderson, Aldrich Chemical Co.
##OWNER=NIST Mass Spectrometry Data Center
Collection (C) 2014 copyright by the U.S. Secretary of Commerce
on behalf of the United States of America. All rights reserved.
##CAS REGISTRY NO=2216-52-6
##$NIST MASS SPEC NO=108354
##MOLFORM=C10 H20 O
##MW=156
##$NIST SOURCE=MSDC
##XUNITS=M/Z
##YUNITS=RELATIVE INTENSITY
##XFACTOR=1
##YFACTOR=1
##FIRSTX=26
##LASTX=156
##FIRSTY=8
##MAXX=156
##MINX=26
##MAXY=9999
##MINY=8
##NPOINTS=67
##PEAK TABLE=(XY..XY)
26,8 27,1049 28,136 29,1627
30,40 31,368 38,57 39,1945
40,406 41,7829 42,1108 43,5895
44,695 45,456 50,59 51,256
52,131 53,1438 54,642 55,5942
56,2370 57,3301 58,333 59,165
63,10 65,212 66,92 67,2912
68,1214 69,2806 70,1120 71,9999
72,477 73,95 77,303 78,59
79,683 80,707 81,6414 82,2912
83,1084 84,297 85,1025 86,312
87,38 91,152 92,11 93,339
94,966 95,4716 96,1556 97,280
98,18 99,280 100,40 109,919
110,675 111,262 112,235 113,156
123,3018 124,268 125,28 138,3348
139,359 141,53 156,37
##END=
