##TITLE=N,N-Diethyl-3-nitroaniline
##JCAMP-DX=4.24
##DATA TYPE=MASS SPECTRUM
##ORIGIN=NIST Mass Spectrometry Data Center, 1994
##OWNER=NIST Mass Spectrometry Data Center
Collection (C) 2014 copyright by the U.S. Secretary of Commerce
on behalf of the United States of America. All rights reserved.
##CAS REGISTRY NO=2216-16-2
##$NIST MASS SPEC NO=133261
##MOLFORM=C10 H14 N2 O2
##MW=194
##$NIST SOURCE=MSDC
##XUNITS=M/Z
##YUNITS=RELATIVE INTENSITY
##XFACTOR=1
##YFACTOR=1
##FIRSTX=12
##LASTX=196
##FIRSTY=2
##MAXX=196
##MINX=12
##MAXY=9999
##MINY=1
##NPOINTS=112
##PEAK TABLE=(XY..XY)
12,2 14,21 15,130 16,1
17,2 18,19 27,1003 28,277
29,1268 30,441 37,44 38,168
39,421 40,68 41,243 42,212
43,27 44,62 46,123 50,468
51,538 52,216 53,87 54,76
55,27 56,91 57,5 58,6
61,30 62,129 63,476 64,582
65,505 66,105 67,42 68,20
69,5 70,16 71,3 72,13
74,149 75,265 76,572 77,792
78,511 79,207 80,72 81,15
82,10 86,4 87,9 88,27
89,138 90,225 91,890 92,255
93,223 94,65 95,11 97,24
100,4 102,78 103,232 104,984
105,1366 106,168 107,39 108,18
109,4 115,24 116,80 117,375
118,679 119,420 120,203 121,125
122,39 123,2 128,6 130,49
131,69 133,1921 134,219 135,24
136,30 143,4 144,4 145,12
146,62 147,253 148,181 149,177
150,4 151,1664 152,136 153,11
158,2 161,4 163,250 164,102
165,87 166,6 174,3 175,5
176,9 179,9999 180,1076 181,100
182,5 194,2236 195,260 196,29
##END=
