##TITLE=Octane, 4-methyl-
##JCAMP-DX=4.24
##DATA TYPE=MASS SPECTRUM
##OWNER=NIST Mass Spectrometry Data Center
Collection (C) 2014 copyright by the U.S. Secretary of Commerce
on behalf of the United States of America. All rights reserved.
##CAS REGISTRY NO=2216-34-4
##$NIST MASS SPEC NO=2662
##MOLFORM=C9 H20
##MW=128
##$NIST SOURCE=MSDC
##XUNITS=M/Z
##YUNITS=RELATIVE INTENSITY
##XFACTOR=1
##YFACTOR=1
##FIRSTX=26
##LASTX=129
##FIRSTY=60
##MAXX=129
##MINX=26
##MAXY=9999
##MINY=10
##NPOINTS=55
##PEAK TABLE=(XY..XY)
26,60 27,1752 28,260 29,2082
30,50 38,10 39,771 40,150
41,2562 42,961 43,9999 44,330
45,10 50,10 51,20 52,10
53,160 54,70 55,1241 56,811
57,2532 58,110 59,10 63,10
65,20 66,10 67,40 68,20
69,270 70,2082 71,2762 72,150
73,10 77,10 78,10 79,10
80,10 81,10 82,10 83,20
84,1832 85,2853 86,180 87,10
97,10 98,310 99,140 100,10
111,10 112,40 113,80 114,10
127,10 128,240 129,20
##END=
