##TITLE=p-Methylbenzyl acetate
##JCAMP-DX=4.24
##DATA TYPE=MASS SPECTRUM
##ORIGIN=NIST Mass Spectrometry Data Center
##OWNER=NIST Mass Spectrometry Data Center
Collection (C) 2014 copyright by the U.S. Secretary of Commerce
on behalf of the United States of America. All rights reserved.
##CAS REGISTRY NO=2216-45-7
##$NIST MASS SPEC NO=364462
##MOLFORM=C10 H12 O2
##MW=164
##$NIST SOURCE=MSDC
##XUNITS=M/Z
##YUNITS=RELATIVE INTENSITY
##XFACTOR=1
##YFACTOR=1
##FIRSTX=14
##LASTX=166
##FIRSTY=40
##MAXX=166
##MINX=14
##MAXY=9999
##MINY=10
##NPOINTS=78
##PEAK TABLE=(XY..XY)
14,40 15,230 26,30 27,330
28,30 29,110 30,10 31,20
37,30 38,130 39,1061 40,110
41,260 42,170 43,3954 44,130
45,40 49,20 50,490 51,1291
52,420 53,400 54,20 55,20
57,20 61,60 62,270 63,841
64,210 65,1551 66,130 67,20
73,10 74,130 75,120 76,160
77,3353 78,3573 79,1912 80,120
81,10 85,20 86,50 87,50
88,20 89,601 90,210 91,2813
92,310 93,1481 94,130 95,10
98,10 101,30 102,310 103,4084
104,6296 105,9849 106,861 107,5675
108,440 109,30 115,10 117,30
118,10 119,671 120,150 121,751
122,9999 123,901 124,60 133,10
135,10 149,10 162,20 164,5545
165,611 166,50
##END=
