##TITLE=2-Bromononane
##JCAMP-DX=4.24
##DATA TYPE=MASS SPECTRUM
##ORIGIN=NIST Mass Spectrometry Data Center, 1994
##OWNER=NIST Mass Spectrometry Data Center
Collection (C) 2014 copyright by the U.S. Secretary of Commerce
on behalf of the United States of America. All rights reserved.
##CAS REGISTRY NO=2216-35-5
##$NIST MASS SPEC NO=136443
##MOLFORM=C9 H19 Br
##MW=206
##$NIST SOURCE=MSDC
##XUNITS=M/Z
##YUNITS=RELATIVE INTENSITY
##XFACTOR=1
##YFACTOR=1
##FIRSTX=4
##LASTX=151
##FIRSTY=5
##MAXX=151
##MINX=4
##MAXY=9999
##MINY=5
##NPOINTS=57
##PEAK TABLE=(XY..XY)
4,5 15,260 18,54 26,310
27,4376 28,1356 29,4945 30,127
32,65 37,29 38,142 39,3307
40,694 41,9013 42,2759 43,9999
44,357 50,82 51,203 52,97
53,683 54,409 55,4019 56,1675
57,6388 58,302 63,40 65,90
66,45 67,328 68,132 69,1345
70,638 71,8129 72,474 77,67
79,109 80,68 81,72 82,85
83,274 84,67 85,4729 86,335
91,17 93,38 95,48 97,177
98,46 107,184 109,152 121,57
123,49 127,792 128,68 149,32
151,30
##END=
