##TITLE=Naphthalene, 1-methoxy-
##JCAMP-DX=4.24
##DATA TYPE=MASS SPECTRUM
##ORIGIN=Japan AIST/NIMC Database- Spectrum MS-NW-5217
##OWNER=NIST Mass Spectrometry Data Center
Collection (C) 2014 copyright by the U.S. Secretary of Commerce
on behalf of the United States of America. All rights reserved.
##CAS REGISTRY NO=2216-69-5
##$NIST MASS SPEC NO=228327
##MOLFORM=C11 H10 O
##MW=158
##$NIST SOURCE=MSDC
##XUNITS=M/Z
##YUNITS=RELATIVE INTENSITY
##XFACTOR=1
##YFACTOR=1
##FIRSTX=14
##LASTX=160
##FIRSTY=10
##MAXX=160
##MINX=14
##MAXY=9999
##MINY=10
##NPOINTS=81
##PEAK TABLE=(XY..XY)
14,10 15,159 18,10 26,20
27,40 28,109 29,30 30,10
37,30 38,90 39,429 40,20
41,30 43,20 44,10 49,20
50,269 51,339 52,50 53,30
55,20 56,10 57,70 61,90
62,349 63,809 64,149 65,409
66,20 71,10 73,20 74,299
75,369 76,149 77,269 78,50
79,239 85,50 86,149 87,209
88,219 89,679 90,60 91,10
93,10 97,10 98,80 99,50
100,40 101,139 102,70 103,10
109,10 110,20 111,10 113,239
114,399 115,7969 116,809 117,40
120,10 122,10 125,20 126,269
127,539 128,489 129,219 130,50
131,10 139,10 141,10 142,40
143,3559 144,429 145,30 155,20
156,20 157,199 158,9999 159,1169
160,90
##END=
