##TITLE=Heptane, 4-ethyl-
##JCAMP-DX=4.24
##DATA TYPE=MASS SPECTRUM
##ORIGIN=Japan AIST/NIMC Database- Spectrum MS-NW-3490
##OWNER=NIST Mass Spectrometry Data Center
Collection (C) 2014 copyright by the U.S. Secretary of Commerce
on behalf of the United States of America. All rights reserved.
##CAS REGISTRY NO=2216-32-2
##$NIST MASS SPEC NO=227575
##MOLFORM=C9 H20
##MW=128
##$NIST SOURCE=MSDC
##XUNITS=M/Z
##YUNITS=RELATIVE INTENSITY
##XFACTOR=1
##YFACTOR=1
##FIRSTX=15
##LASTX=129
##FIRSTY=50
##MAXX=129
##MINX=15
##MAXY=9999
##MINY=10
##NPOINTS=47
##PEAK TABLE=(XY..XY)
15,50 26,50 27,1109 28,30
29,1289 30,30 38,30 39,709
40,109 41,2509 42,679 43,9999
44,349 50,30 51,60 52,30
53,179 54,99 55,1299 56,1119
57,8269 58,369 59,10 62,10
63,10 65,30 66,10 67,70
68,40 69,619 70,429 71,339
72,20 73,30 77,10 79,10
81,10 83,60 84,2559 85,3769
86,239 97,10 98,1719 99,749
100,60 128,129 129,10
##END=
