##TITLE=N,N-Di-(n-propyl)benzenamine
##JCAMP-DX=4.24
##DATA TYPE=MASS SPECTRUM
##ORIGIN=Japan AIST/NIMC Database- Spectrum MS-NW-9297
##OWNER=NIST Mass Spectrometry Data Center
Collection (C) 2014 copyright by the U.S. Secretary of Commerce
on behalf of the United States of America. All rights reserved.
##CAS REGISTRY NO=2217-07-4
##$NIST MASS SPEC NO=229275
##MOLFORM=C12 H19 N
##MW=177
##$NIST SOURCE=MSDC
##XUNITS=M/Z
##YUNITS=RELATIVE INTENSITY
##XFACTOR=1
##YFACTOR=1
##FIRSTX=15
##LASTX=179
##FIRSTY=20
##MAXX=179
##MINX=15
##MAXY=9999
##MINY=10
##NPOINTS=73
##PEAK TABLE=(XY..XY)
15,20 18,30 26,10 27,489
28,109 29,40 30,60 38,20
39,219 40,20 41,759 42,109
43,1079 44,40 50,60 51,419
52,60 53,20 54,20 55,10
56,30 63,40 64,40 65,149
66,60 67,10 70,10 74,20
75,20 76,50 77,1459 78,259
79,539 80,40 89,20 90,20
91,329 92,90 93,50 94,20
103,20 104,509 105,239 106,6919
107,549 108,20 115,20 116,10
117,70 118,179 119,90 120,989
121,80 130,50 131,20 132,109
133,40 134,269 135,30 144,10
146,99 147,40 148,9999 149,1129
150,50 160,10 162,20 174,10
175,10 176,70 177,1969 178,279
179,20
##END=
