##TITLE=Benzene, 1,1'-thiobis[2,4,6-trinitro-
##JCAMP-DX=4.24
##DATA TYPE=MASS SPECTRUM
##ORIGIN=V.G.Zaikin, TIPS, Russian Acad. Sci.
##OWNER=NIST Mass Spectrometry Data Center
Collection (C) 2014 copyright by the U.S. Secretary of Commerce
on behalf of the United States of America. All rights reserved.
##CAS REGISTRY NO=2217-06-3
##$NIST MASS SPEC NO=215825
##MOLFORM=C12 H4 N6 O12 S
##MW=456
##$NIST SOURCE=MSDC
##XUNITS=M/Z
##YUNITS=RELATIVE INTENSITY
##XFACTOR=1
##YFACTOR=1
##FIRSTX=30
##LASTX=458
##FIRSTY=9999
##MAXX=458
##MINX=30
##MAXY=9999
##MINY=30
##NPOINTS=28
##PEAK TABLE=(XY..XY)
30,9999 46,500 50,300 53,600
80,700 106,600 120,2001 150,1000
168,600 180,400 228,300 229,400
230,300 244,500 254,400 258,300
270,500 287,200 299,500 316,1101
332,100 362,100 364,60 379,100
410,160 456,500 457,80 458,30
##END=
