##TITLE=Phenol, 2-ethyl-4,5-dimethyl-
##JCAMP-DX=4.24
##DATA TYPE=MASS SPECTRUM
##ORIGIN=J.MACAK, DEP. GAS COKE TECH., PRAGUE INST. CHEM. TECH., CZECth
##OWNER=NIST Mass Spectrometry Data Center
Collection (C) 2014 copyright by the U.S. Secretary of Commerce
on behalf of the United States of America. All rights reserved.
##CAS REGISTRY NO=2219-78-5
##$NIST MASS SPEC NO=72167
##MOLFORM=C10 H14 O
##MW=150
##$NIST SOURCE=MSDC
##XUNITS=M/Z
##YUNITS=RELATIVE INTENSITY
##XFACTOR=1
##YFACTOR=1
##FIRSTX=38
##LASTX=151
##FIRSTY=200
##MAXX=151
##MINX=38
##MAXY=9999
##MINY=100
##NPOINTS=44
##PEAK TABLE=(XY..XY)
38,200 39,1600 40,300 41,900
43,300 50,300 51,800 52,300
53,700 55,300 58,100 62,100
63,400 64,200 65,800 66,300
67,200 68,200 74,100 75,100
77,1100 78,300 79,1100 80,100
89,100 91,2300 92,300 93,200
103,300 105,700 106,200 107,700
115,400 116,200 117,300 119,100
121,700 131,200 133,200 135,9999
136,1100 149,400 150,3800 151,500
##END=
