##TITLE=Phenol, 4-ethyl-2-methyl-
##JCAMP-DX=4.24
##DATA TYPE=MASS SPECTRUM
##ORIGIN=MC-80
##OWNER=NIST Mass Spectrometry Data Center
Collection (C) 2014 copyright by the U.S. Secretary of Commerce
on behalf of the United States of America. All rights reserved.
##CAS REGISTRY NO=2219-73-0
##$NIST MASS SPEC NO=30259
##MOLFORM=C9 H12 O
##MW=136
##$NIST SOURCE=MSDC
##XUNITS=M/Z
##YUNITS=RELATIVE INTENSITY
##XFACTOR=1
##YFACTOR=1
##FIRSTX=26
##LASTX=137
##FIRSTY=287
##MAXX=137
##MINX=26
##MAXY=9999
##MINY=47
##NPOINTS=62
##PEAK TABLE=(XY..XY)
26,287 27,1209 28,222 29,366
37,104 38,283 39,1351 40,182
41,449 42,64 43,222 49,47
50,460 51,979 52,397 53,655
54,86 55,261 57,58 59,48
60,58 61,72 62,166 63,439
64,112 65,568 66,269 67,284
68,47 74,144 75,116 76,76
77,1525 78,403 79,532 80,99
81,63 89,163 90,206 91,1290
92,204 93,105 94,100 102,61
103,203 105,137 106,54 107,1226
108,709 109,88 115,129 117,70
119,171 120,222 121,9999 122,1257
123,87 133,61 134,75 135,311
136,2655 137,278
##END=
