##TITLE=Bicyclo[2.2.2]oct-5-en-2-one
##JCAMP-DX=4.24
##DATA TYPE=MASS SPECTRUM
##ORIGIN=D.HENNEBERG, MAX-PLANCK INSTITUTE, MULHEIM, WEST GERMANY
##OWNER=NIST Mass Spectrometry Data Center
Collection (C) 2014 copyright by the U.S. Secretary of Commerce
on behalf of the United States of America. All rights reserved.
##CAS REGISTRY NO=2220-40-8
##$NIST MASS SPEC NO=63828
##MOLFORM=C8 H10 O
##MW=122
##$NIST SOURCE=MSDC
##XUNITS=M/Z
##YUNITS=RELATIVE INTENSITY
##XFACTOR=1
##YFACTOR=1
##FIRSTX=26
##LASTX=123
##FIRSTY=297
##MAXX=123
##MINX=26
##MAXY=9999
##MINY=3
##NPOINTS=85
##PEAK TABLE=(XY..XY)
26,297 27,1435 28,170 29,96
31,20 32,8 33,4 35,3
36,6 37,79 38,253 39,1811
40,432 41,602 42,139 43,164
44,30 45,68 46,45 49,30
50,293 51,563 52,358 53,1267
54,209 55,189 56,11 57,15
58,3 59,15 60,6 61,32
62,78 63,174 64,51 65,438
66,689 67,186 68,524 69,32
70,7 71,8 73,9 74,32
75,56 76,21 77,1216 78,574
79,4769 80,9999 81,1104 82,68
83,9 84,3 85,7 86,7
87,7 88,33 89,23 90,8
91,351 92,54 93,246 94,558
95,54 96,7 97,5 98,3
99,10 101,4 102,3 103,15
104,19 105,12 107,140 108,11
113,5 114,8 115,6 117,3
119,4 120,7 121,151 122,1208
123,115
##END=
