##TITLE=3,5-Bis(trifluoromethyl)benzamide
##JCAMP-DX=4.24
##DATA TYPE=MASS SPECTRUM
##ORIGIN=NIST Mass Spectrometry Data Center, 1994
##OWNER=NIST Mass Spectrometry Data Center
Collection (C) 2014 copyright by the U.S. Secretary of Commerce
on behalf of the United States of America. All rights reserved.
##CAS REGISTRY NO=22227-26-5
##$NIST MASS SPEC NO=135027
##MOLFORM=C9 H5 F6 N O
##MW=257
##$NIST SOURCE=MSDC
##XUNITS=M/Z
##YUNITS=RELATIVE INTENSITY
##XFACTOR=1
##YFACTOR=1
##FIRSTX=4
##LASTX=259
##FIRSTY=10
##MAXX=259
##MINX=4
##MAXY=9999
##MINY=3
##NPOINTS=107
##PEAK TABLE=(XY..XY)
4,10 16,71 17,19 18,17
28,119 31,82 32,3 37,42
38,71 39,24 44,1419 45,22
49,26 50,222 51,120 52,28
53,31 56,35 57,106 61,46
62,83 63,78 68,58 69,500
70,18 73,74 74,415 75,785
76,69 77,19 79,21 80,54
81,67 85,39 86,36 87,88
88,46 92,57 93,138 94,170
95,77 97,85 99,243 100,57
101,59 103,18 104,34 105,61
106,34 107,24 111,85 112,50
113,145 114,36 117,42 118,41
119,44 120,24 123,167 124,76
125,365 126,52 132,27 137,20
139,25 140,25 143,805 144,682
145,223 146,23 150,28 161,34
162,223 163,1529 164,162 168,25
170,124 171,24 174,38 181,25
188,95 189,26 190,107 191,43
193,290 194,458 195,108 196,21
208,32 209,22 210,14 213,5497
214,538 215,20 218,104 219,17
220,39 228,36 236,32 238,1998
239,241 241,9999 242,1019 243,71
257,5252 258,580 259,42
##END=
