##TITLE=Fenamiphos
##JCAMP-DX=4.24
##DATA TYPE=MASS SPECTRUM
##ORIGIN=ACCUSTANDARD Chemicals / NIST MS Data Center.
##OWNER=NIST Mass Spectrometry Data Center
Collection (C) 2014 copyright by the U.S. Secretary of Commerce
on behalf of the United States of America. All rights reserved.
##CAS REGISTRY NO=22224-92-6
##$NIST MASS SPEC NO=125556
##MOLFORM=C13 H22 N O3 P S
##MW=303
##$NIST SOURCE=MSDC
##XUNITS=M/Z
##YUNITS=RELATIVE INTENSITY
##XFACTOR=1
##YFACTOR=1
##FIRSTX=13
##LASTX=306
##FIRSTY=27
##MAXX=306
##MINX=13
##MAXY=9999
##MINY=10
##NPOINTS=211
##PEAK TABLE=(XY..XY)
13,27 14,20 15,404 16,11
17,77 18,610 26,139 27,1275
28,602 29,1493 30,157 31,46
37,16 38,79 39,593 40,125
41,1045 42,1029 43,2276 44,3776
45,1703 46,192 47,390 48,35
49,39 50,155 51,521 52,212
53,233 54,40 55,99 56,163
57,136 58,1347 59,225 60,33
61,99 62,120 63,420 64,249
65,744 66,428 67,159 68,33
69,340 70,239 71,146 72,62
73,46 74,46 75,62 76,33
77,1277 78,763 79,891 80,3515
81,186 82,112 83,101 84,200
85,209 86,62 87,41 88,92
89,326 90,207 91,811 92,177
93,188 94,159 95,457 96,95
97,249 98,111 99,60 100,21
101,34 102,42 103,82 104,230
105,266 106,534 107,487 108,383
109,884 110,793 111,194 112,65
113,87 115,45 116,51 117,85
118,69 119,62 120,251 121,839
122,2357 124,251 125,537 126,68
127,37 130,1379 132,83 133,123
134,155 135,191 136,137 137,461
138,1023 139,1373 140,229 141,116
143,17 144,73 145,15 146,24
147,39 148,56 149,84 150,269
151,190 152,15 153,2848 154,7016
155,1012 156,404 157,44 158,12
162,16 163,88 164,397 165,213
166,301 167,84 168,32 169,146
170,40 171,58 172,29 174,12
179,660 180,987 181,229 182,142
183,52 184,73 185,233 186,56
187,36 188,17 193,25 195,2427
196,364 197,152 198,74 199,77
200,260 201,174 202,412 203,46
204,26 210,10 211,21 212,51
213,88 214,84 215,401 216,819
217,3949 218,511 219,226 220,33
225,140 226,31 227,47 228,46
229,15 230,46 231,20 232,113
233,198 234,24 240,17 241,40
243,1281 244,203 245,439 246,152
247,30 255,32 256,39 257,29
258,83 259,29 260,3450 261,498
262,221 263,35 271,12 274,166
275,131 276,31 288,3919 289,593
290,223 291,32 292,13 303,9999
304,1642 305,627 306,74
##END=
