##TITLE=Carbimazole
##JCAMP-DX=4.24
##DATA TYPE=MASS SPECTRUM
##ORIGIN=N.W. Davies, Centr. Sci. Lab., Univ. Tasmania, Hobart, Australia
##OWNER=NIST Mass Spectrometry Data Center
Collection (C) 2014 copyright by the U.S. Secretary of Commerce
on behalf of the United States of America. All rights reserved.
##CAS REGISTRY NO=22232-54-8
##$NIST MASS SPEC NO=107111
##MOLFORM=C7 H10 N2 O2 S
##MW=186
##$NIST SOURCE=MSDC
##XUNITS=M/Z
##YUNITS=RELATIVE INTENSITY
##XFACTOR=1
##YFACTOR=1
##FIRSTX=26
##LASTX=189
##FIRSTY=640
##MAXX=189
##MINX=26
##MAXY=9999
##MINY=50
##NPOINTS=62
##PEAK TABLE=(XY..XY)
26,640 27,3190 29,7750 30,450
31,220 34,70 38,50 39,100
40,60 41,760 42,4810 43,400
44,700 45,980 46,180 47,70
52,200 53,190 54,920 55,1480
56,1430 57,250 58,270 59,270
60,230 61,70 67,60 68,470
69,1620 70,140 71,470 72,4480
73,380 74,280 79,120 80,100
81,2030 82,700 83,230 84,180
85,110 86,720 87,130 88,60
95,50 97,80 99,170 107,80
109,1590 110,180 113,3050 114,6760
115,690 116,290 127,590 141,500
142,120 143,50 186,9999 187,920
188,470 189,50
##END=
