##TITLE=Tetrachlorvinphos
##JCAMP-DX=4.24
##DATA TYPE=MASS SPECTRUM
##ORIGIN=ACCUSTANDARD Chemicals / NIST MS Data Center.
##OWNER=NIST Mass Spectrometry Data Center
Collection (C) 2014 copyright by the U.S. Secretary of Commerce
on behalf of the United States of America. All rights reserved.
##CAS REGISTRY NO=22248-79-9
##$NIST MASS SPEC NO=125563
##MOLFORM=C10 H9 Cl4 O4 P
##MW=364
##$NIST SOURCE=MSDC
##XUNITS=M/Z
##YUNITS=RELATIVE INTENSITY
##XFACTOR=1
##YFACTOR=1
##FIRSTX=13
##LASTX=370
##FIRSTY=7
##MAXX=370
##MINX=13
##MAXY=9999
##MINY=2
##NPOINTS=239
##PEAK TABLE=(XY..XY)
13,7 15,1944 16,16 17,4
18,26 28,135 29,188 30,48
31,309 32,22 33,12 35,19
36,36 37,37 38,20 39,9
43,10 45,40 47,317 48,101
49,85 50,82 51,23 53,15
60,28 61,99 62,109 63,106
64,14 65,66 66,29 67,8
71,13 72,52 73,168 74,348
75,84 76,122 77,45 78,8
79,1343 80,36 81,33 83,50
84,190 85,125 86,161 87,126
88,16 89,8 93,548 94,26
95,125 96,75 97,189 98,314
99,168 100,20 101,13 102,21
103,16 104,5 105,6 107,135
109,7140 110,307 111,148 112,10
113,31 115,14 118,36 119,39
120,60 121,110 122,46 123,41
124,18 125,18 126,15 127,115
128,6 130,7 131,46 132,103
133,303 134,120 135,114 136,45
137,17 139,5 141,11 143,266
144,157 145,201 146,108 147,46
148,16 149,11 150,7 154,8
155,10 157,418 158,57 159,271
160,36 161,42 163,6 164,18
165,28 167,171 168,148 169,303
170,121 171,163 172,54 173,43
174,9 175,8 179,260 181,261
182,41 183,90 184,22 185,23
186,16 187,12 188,8 189,8
191,109 192,105 193,157 194,107
195,93 196,39 197,8 199,57
200,16 201,53 203,190 204,512
205,233 206,471 207,257 208,166
209,185 210,28 211,49 212,11
213,15 215,9 216,8 217,21
218,9 219,28 220,46 221,28
222,39 223,72 224,21 225,51
226,8 227,319 228,8 229,367
230,48 231,174 232,20 233,56
234,14 235,36 236,13 238,546
239,194 240,696 241,202 242,343
243,105 244,73 245,23 246,11
247,4 251,16 253,16 254,6
255,9 256,2 257,10 258,7
259,16 260,6 261,13 266,39
267,25 268,34 269,35 270,13
271,24 273,13 278,20 279,9
280,13 281,7 284,11 286,7
293,12 294,27 295,19 296,21
297,14 298,12 299,16 300,6
301,21 302,14 303,25 305,8
314,159 315,29 316,137 317,17
318,63 319,9 320,14 324,4
326,10 329,9840 330,1797 331,9999
332,1327 333,3152 334,390 335,389
336,47 364,73 366,118 367,19
368,60 369,11 370,11
##END=
