##TITLE=Ethylene glycol diglycidyl ether
##JCAMP-DX=4.24
##DATA TYPE=MASS SPECTRUM
##ORIGIN=Japan AIST/NIMC Database- Spectrum MS-NW-1363
##OWNER=NIST Mass Spectrometry Data Center
Collection (C) 2014 copyright by the U.S. Secretary of Commerce
on behalf of the United States of America. All rights reserved.
##CAS REGISTRY NO=2224-15-9
##$NIST MASS SPEC NO=230669
##MOLFORM=C8 H14 O4
##MW=174
##$NIST SOURCE=MSDC
##XUNITS=M/Z
##YUNITS=RELATIVE INTENSITY
##XFACTOR=1
##YFACTOR=1
##FIRSTX=13
##LASTX=159
##FIRSTY=10
##MAXX=159
##MINX=13
##MAXY=9999
##MINY=10
##NPOINTS=123
##PEAK TABLE=(XY..XY)
13,10 14,109 15,1039 16,30
17,50 18,259 19,109 25,20
26,249 27,2779 28,899 29,8289
30,299 31,8669 32,149 33,40
36,40 37,10 38,30 39,419
40,129 41,1449 42,649 43,1809
44,1099 45,6119 46,249 47,20
49,90 50,20 51,30 52,10
53,20 54,70 55,359 56,529
57,9999 58,799 59,759 60,70
61,80 62,10 63,80 65,40
67,40 68,20 69,409 70,789
71,1519 72,369 73,1539 74,139
75,319 76,60 77,90 78,20
79,269 80,10 81,99 82,20
83,169 84,70 85,129 86,119
87,1319 88,99 89,60 90,20
91,40 92,70 93,479 94,40
95,169 96,10 97,20 98,10
99,479 100,4099 101,909 102,70
103,30 104,10 105,60 106,20
107,60 108,10 109,20 111,10
112,10 113,169 114,30 115,70
116,10 117,60 118,60 119,40
120,20 121,99 122,10 123,60
125,20 127,10 129,20 130,10
131,30 133,20 134,60 135,119
136,50 137,70 138,20 139,20
143,20 144,30 145,10 147,50
148,90 149,60 150,30 151,10
157,159 158,20 159,10
##END=
