##TITLE=Formetanate
##JCAMP-DX=4.24
##DATA TYPE=MASS SPECTRUM
##ORIGIN=NIST Mass Spectrometry Data Center, 1998.
##OWNER=NIST Mass Spectrometry Data Center
Collection (C) 2014 copyright by the U.S. Secretary of Commerce
on behalf of the United States of America. All rights reserved.
##CAS REGISTRY NO=22259-30-9
##$NIST MASS SPEC NO=291885
##MOLFORM=C11 H15 N3 O2
##MW=221
##$NIST SOURCE=MSDC
##XUNITS=M/Z
##YUNITS=RELATIVE INTENSITY
##XFACTOR=1
##YFACTOR=1
##FIRSTX=14
##LASTX=223
##FIRSTY=80
##MAXX=223
##MINX=14
##MAXY=9999
##MINY=10
##NPOINTS=96
##PEAK TABLE=(XY..XY)
14,80 15,820 26,110 27,880
28,2590 29,510 30,990 32,60
37,100 38,580 39,2280 40,330
41,490 42,4610 43,460 44,9399
45,1950 46,220 50,400 51,540
52,550 53,610 54,270 55,430
56,1180 57,3610 58,1950 59,70
60,30 61,100 62,420 63,1730
64,1510 65,4400 66,710 67,380
68,160 69,100 71,120 73,130
74,140 75,160 76,220 77,670
78,260 79,250 80,250 81,400
82,180 83,190 90,120 91,450
92,860 93,4070 94,2150 95,730
96,90 102,10 103,20 104,190
105,80 106,180 107,450 108,170
109,110 118,140 119,1480 120,3430
121,830 122,8039 123,720 124,20
131,130 132,330 133,170 134,420
135,1800 136,2480 137,250 145,70
146,150 147,3880 148,960 149,4690
150,440 161,110 163,9999 164,9879
165,990 166,70 177,100 206,70
220,200 221,4090 222,530 223,20
##END=
