##TITLE=Methyl 3-bromo-2-(bromomethyl)propionate
##JCAMP-DX=4.24
##DATA TYPE=MASS SPECTRUM
##ORIGIN=Chuck Anderson, Aldrich Chemical Co.
##OWNER=NIST Mass Spectrometry Data Center
Collection (C) 2014 copyright by the U.S. Secretary of Commerce
on behalf of the United States of America. All rights reserved.
##CAS REGISTRY NO=22262-60-8
##$NIST MASS SPEC NO=107590
##MOLFORM=C5 H8 Br2 O2
##MW=258
##$NIST SOURCE=MSDC
##XUNITS=M/Z
##YUNITS=RELATIVE INTENSITY
##XFACTOR=1
##YFACTOR=1
##FIRSTX=14
##LASTX=262
##FIRSTY=77
##MAXX=262
##MINX=14
##MAXY=9999
##MINY=5
##NPOINTS=109
##PEAK TABLE=(XY..XY)
14,77 15,3137 16,40 25,22
26,217 27,737 28,68 29,505
30,80 31,111 32,5 33,24
36,30 37,277 38,718 39,6568
40,638 41,9999 42,425 43,159
44,39 45,757 46,10 50,14
51,8 53,104 54,20 55,1010
56,46 57,65 58,14 59,4175
60,108 61,18 67,8 68,45
69,154 71,280 72,21 79,70
80,29 81,81 82,29 83,11
85,12 91,25 92,30 93,870
94,108 95,884 96,78 97,34
99,1675 100,217 101,14 104,11
105,94 106,18 107,119 109,30
117,50 118,14 119,2606 120,315
121,2499 122,304 123,39 125,29
133,438 134,8 135,445 136,13
137,136 139,144 141,17 146,10
147,171 148,18 149,166 151,191
153,192 165,5664 166,187 167,5504
168,209 169,21 171,23 173,54
175,24 178,38 179,6807 180,315
181,6488 182,287 183,26 198,21
199,605 200,46 201,1163 202,44
203,545 204,10 227,144 229,297
231,141 258,93 260,181 261,8
262,90
##END=
