##TITLE=Benzenecarbothioamide
##JCAMP-DX=4.24
##DATA TYPE=MASS SPECTRUM
##ORIGIN=Japan AIST/NIMC Database- Spectrum MS-NW-8131
##OWNER=NIST Mass Spectrometry Data Center
Collection (C) 2014 copyright by the U.S. Secretary of Commerce
on behalf of the United States of America. All rights reserved.
##CAS REGISTRY NO=2227-79-4
##$NIST MASS SPEC NO=231440
##MOLFORM=C7 H7 N S
##MW=137
##$NIST SOURCE=MSDC
##XUNITS=M/Z
##YUNITS=RELATIVE INTENSITY
##XFACTOR=1
##YFACTOR=1
##FIRSTX=26
##LASTX=140
##FIRSTY=40
##MAXX=140
##MINX=26
##MAXY=9999
##MINY=10
##NPOINTS=84
##PEAK TABLE=(XY..XY)
26,40 27,119 28,209 32,99
33,80 34,219 36,10 37,70
38,119 39,359 40,20 41,20
44,30 45,129 46,10 49,60
50,709 51,1459 52,469 53,50
54,30 55,10 57,20 58,30
59,50 60,1499 61,70 62,129
63,149 64,50 65,239 66,119
67,30 68,379 69,269 70,40
71,30 72,10 73,50 74,229
75,299 76,869 77,2519 78,1409
79,90 81,30 82,50 83,20
84,40 85,10 86,10 87,10
88,10 90,10 91,20 92,40
93,99 94,40 95,20 99,20
100,10 102,129 103,1639 104,4219
105,389 106,20 108,50 109,499
110,259 111,40 112,10 117,10
119,40 120,109 121,2929 122,249
123,139 134,10 135,40 136,1319
137,9999 138,949 139,479 140,30
##END=
