##TITLE=Dienochlor
##JCAMP-DX=4.24
##DATA TYPE=MASS SPECTRUM
##ORIGIN=MASS SPECTROMETRY CENTER, UNIV. OF UTAH, EPA-PTSEL 5360
##OWNER=NIST Mass Spectrometry Data Center
Collection (C) 2014 copyright by the U.S. Secretary of Commerce
on behalf of the United States of America. All rights reserved.
##CAS REGISTRY NO=2227-17-0
##$NIST MASS SPEC NO=52388
##MOLFORM=C10 Cl10
##MW=470
##$NIST SOURCE=MSDC
##XUNITS=M/Z
##YUNITS=RELATIVE INTENSITY
##XFACTOR=1
##YFACTOR=1
##FIRSTX=28
##LASTX=482
##FIRSTY=54
##MAXX=482
##MINX=28
##MAXY=9999
##MINY=12
##NPOINTS=127
##PEAK TABLE=(XY..XY)
28,54 35,452 37,151 47,257
49,87 59,24 60,642 65,126
66,68 70,44 71,387 72,125
73,137 77,31 82,12 83,178
84,380 94,150 95,1123 96,488
97,304 101,19 106,300 107,111
108,359 112,180 113,181 114,23
117,529 118,278 119,768 120,452
121,256 130,885 131,476 132,564
133,49 134,42 141,979 142,247
143,1137 144,167 145,386 147,188
148,322 149,196 150,60 154,188
155,142 156,120 165,1009 166,973
167,1192 168,412 169,273 178,63
183,92 184,94 189,46 190,448
191,104 192,290 200,126 201,370
202,377 203,285 204,101 223,14
225,283 227,247 235,6194 236,406
237,9999 238,623 239,6423 240,383
241,2037 242,100 243,322 260,523
261,95 262,710 263,76 264,340
266,35 295,162 297,267 299,154
308,87 310,41 330,925 331,91
332,1754 333,189 334,1460 335,159
336,599 337,12 338,124 365,15
367,134 369,142 371,50 400,658
401,44 402,1696 403,186 404,1937
405,201 406,1245 407,126 408,522
409,12 410,112 470,117 471,19
472,456 473,50 474,645 475,72
476,571 477,60 478,319 479,35
480,115 481,15 482,33
##END=
