##TITLE=Cyclohexene, 4-(1,1-dimethylethyl)-
##JCAMP-DX=4.24
##DATA TYPE=MASS SPECTRUM
##ORIGIN=CONTINENTAL OIL CO., PONCA CITY, OKLA, USA
##OWNER=NIST Mass Spectrometry Data Center
Collection (C) 2014 copyright by the U.S. Secretary of Commerce
on behalf of the United States of America. All rights reserved.
##CAS REGISTRY NO=2228-98-0
##$NIST MASS SPEC NO=27670
##MOLFORM=C10 H18
##MW=138
##$NIST SOURCE=MSDC
##XUNITS=M/Z
##YUNITS=RELATIVE INTENSITY
##XFACTOR=1
##YFACTOR=1
##FIRSTX=12
##LASTX=139
##FIRSTY=7
##MAXX=139
##MINX=12
##MAXY=9999
##MINY=7
##NPOINTS=82
##PEAK TABLE=(XY..XY)
12,7 13,16 14,147 15,434
16,45 26,133 27,1643 28,345
29,1590 30,43 37,37 38,110
39,1831 40,291 41,3785 42,260
43,712 44,37 50,160 51,444
52,244 53,988 54,963 55,1080
56,577 57,9999 58,459 59,33
61,31 62,33 63,101 64,28
65,305 66,217 67,3601 68,410
69,1793 70,380 71,184 74,25
75,30 77,671 78,291 79,1367
80,2632 81,3210 82,3065 83,735
84,445 85,41 87,18 89,38
91,505 92,107 93,213 94,204
95,971 96,574 97,181 98,33
102,19 103,55 104,25 105,140
106,34 107,98 108,33 109,191
110,183 111,29 115,30 117,28
118,22 119,34 120,28 121,39
122,39 123,986 124,137 135,25
138,1014 139,121
##END=
