##TITLE=Cyclohexanol, 5-methyl-2-(1-methylethyl)-, acetate, (1.alpha.,2.alpha.,5.beta.)-
##JCAMP-DX=4.24
##DATA TYPE=MASS SPECTRUM
##ORIGIN=Dr. Jiri Zamecnik, DCIEM, North York, Canada, GP Library
##OWNER=NIST Mass Spectrometry Data Center
Collection (C) 2014 copyright by the U.S. Secretary of Commerce
on behalf of the United States of America. All rights reserved.
##CAS REGISTRY NO=2230-87-7
##$NIST MASS SPEC NO=122164
##MOLFORM=C12 H22 O2
##MW=198
##$NIST SOURCE=MSDC
##XUNITS=M/Z
##YUNITS=RELATIVE INTENSITY
##XFACTOR=1
##YFACTOR=1
##FIRSTX=39
##LASTX=139
##FIRSTY=860
##MAXX=139
##MINX=39
##MAXY=9999
##MINY=100
##NPOINTS=35
##PEAK TABLE=(XY..XY)
39,860 41,2760 42,360 43,8820
53,490 54,350 55,2500 56,440
57,830 67,1500 68,1080 69,1720
70,320 71,1490 79,360 80,390
81,5100 82,2080 83,960 85,290
93,140 94,950 95,9999 96,2160
97,280 99,120 109,700 110,310
111,130 113,340 123,2600 124,250
137,100 138,4810 139,610
##END=
