##TITLE=4-Methyl-2-phenyl-2H-1,2,3-triazole-5-carboxylic acid
##JCAMP-DX=4.24
##DATA TYPE=MASS SPECTRUM
##ORIGIN=NIST Mass Spectrometry Data Center, 1994
##OWNER=NIST Mass Spectrometry Data Center
Collection (C) 2014 copyright by the U.S. Secretary of Commerce
on behalf of the United States of America. All rights reserved.
##CAS REGISTRY NO=22300-56-7
##$NIST MASS SPEC NO=136127
##MOLFORM=C10 H9 N3 O2
##MW=203
##$NIST SOURCE=MSDC
##XUNITS=M/Z
##YUNITS=RELATIVE INTENSITY
##XFACTOR=1
##YFACTOR=1
##FIRSTX=15
##LASTX=210
##FIRSTY=146
##MAXX=210
##MINX=15
##MAXY=9999
##MINY=17
##NPOINTS=58
##PEAK TABLE=(XY..XY)
15,146 17,63 18,78 26,358
27,375 28,167 37,250 38,791
39,1206 40,375 41,595 42,320
44,80 45,754 46,63 49,77
50,1036 51,3561 52,978 53,318
54,246 61,79 62,257 63,1405
64,3002 65,907 66,122 73,48
74,17 75,233 76,17 77,5599
78,423 88,75 89,69 91,9999
92,774 93,88 98,72 102,101
103,400 105,2339 106,168 117,138
128,93 130,79 132,199 158,60
163,52 165,180 166,102 185,4134
186,702 187,76 203,7420 204,912
205,72 210,60
##END=
