##TITLE=Carbonothioic dihydrazide
##JCAMP-DX=4.24
##DATA TYPE=MASS SPECTRUM
##ORIGIN=Japan AIST/NIMC Database- Spectrum MS-NW-7930
##OWNER=NIST Mass Spectrometry Data Center
Collection (C) 2014 copyright by the U.S. Secretary of Commerce
on behalf of the United States of America. All rights reserved.
##CAS REGISTRY NO=2231-57-4
##$NIST MASS SPEC NO=236709
##MOLFORM=C H6 N4 S
##MW=106
##$NIST SOURCE=MSDC
##XUNITS=M/Z
##YUNITS=RELATIVE INTENSITY
##XFACTOR=1
##YFACTOR=1
##FIRSTX=12
##LASTX=109
##FIRSTY=10
##MAXX=109
##MINX=12
##MAXY=9999
##MINY=10
##NPOINTS=54
##PEAK TABLE=(XY..XY)
12,10 13,30 14,20 15,20
16,40 26,40 27,199 28,1099
29,669 30,489 31,2319 32,5039
33,319 34,139 35,20 36,20
41,60 42,269 43,1199 44,149
45,779 46,159 47,269 48,479
49,20 50,40 54,10 55,20
56,60 57,80 58,149 59,1039
60,2149 61,149 62,119 63,10
64,10 69,20 71,20 72,40
73,30 74,559 75,2209 76,159
77,99 83,10 89,269 90,70
91,40 105,10 106,9999 107,369
108,449 109,20
##END=
