##TITLE=1H-1,5-Benzodiazepine-2,4(3H,5H)-dione, 8-chloro-1-phenyl-
##JCAMP-DX=4.24
##DATA TYPE=MASS SPECTRUM
##ORIGIN=AAFS Toxicology Section MS DB Committee, U. Alberta, Canada
##OWNER=NIST Mass Spectrometry Data Center
Collection (C) 2014 copyright by the U.S. Secretary of Commerce
on behalf of the United States of America. All rights reserved.
##CAS REGISTRY NO=22316-55-8
##$NIST MASS SPEC NO=247216
##MOLFORM=C15 H11 Cl N2 O2
##MW=286
##$NIST SOURCE=MSDC
##XUNITS=M/Z
##YUNITS=RELATIVE INTENSITY
##XFACTOR=1
##YFACTOR=1
##FIRSTX=36
##LASTX=290
##FIRSTY=20
##MAXX=290
##MINX=36
##MAXY=9999
##MINY=10
##NPOINTS=196
##PEAK TABLE=(XY..XY)
36,20 37,70 38,160 39,550
40,90 41,320 42,1701 43,120
45,30 46,10 47,10 48,10
49,50 50,1050 51,4023 52,890
53,220 54,30 55,110 56,30
59,20 60,90 61,110 62,510
63,1000 64,510 65,570 66,720
67,80 68,30 69,1401 70,70
71,40 72,80 73,320 74,380
75,690 76,1721 77,5324 78,1821
79,210 80,50 81,140 82,120
83,170 84,20 85,110 86,160
87,220 88,250 89,330 90,800
91,270 92,150 93,70 94,50
95,40 96,30 97,40 98,130
99,270 100,180 101,250 102,230
103,940 104,700 105,180 106,100
107,30 108,80 109,40 110,80
111,160 112,370 113,280 114,410
115,200 116,180 117,220 118,10
119,20 120,30 121,10 122,90
123,100 124,380 125,180 126,410
127,610 128,320 129,150 130,70
131,10 132,10 133,10 135,20
136,40 137,70 138,130 139,440
140,510 141,210 142,150 143,120
144,170 145,30 147,10 148,20
150,60 151,190 152,510 153,610
154,1080 155,240 156,40 157,10
161,20 162,50 163,90 164,230
165,260 166,590 167,2041 168,380
169,140 170,20 173,10 175,20
176,30 177,110 178,130 179,1020
180,790 181,1040 182,1111 183,270
188,90 189,50 190,190 191,70
192,130 193,80 194,120 195,30
197,10 200,70 201,120 202,180
203,1421 204,270 205,630 206,140
207,60 208,530 209,230 210,50
213,60 214,30 215,3863 216,3082
217,3483 218,3823 219,1101 220,850
221,130 227,40 228,30 229,360
230,40 231,110 233,10 234,10
239,80 240,130 241,1751 242,720
243,1101 244,7827 245,1531 246,2672
247,470 254,10 255,40 257,40
261,10 267,60 268,180 269,820
270,220 271,250 272,40 286,9999
287,1771 288,3433 289,620 290,40
##END=
