##TITLE=1,3-Dioxolane-4-methanol, 2,2-dimethyl-, (S)-
##JCAMP-DX=4.24
##DATA TYPE=MASS SPECTRUM
##ORIGIN=NIST Mass Spectrometry Data Center, 1994
##OWNER=NIST Mass Spectrometry Data Center
Collection (C) 2014 copyright by the U.S. Secretary of Commerce
on behalf of the United States of America. All rights reserved.
##CAS REGISTRY NO=22323-82-6
##$NIST MASS SPEC NO=133585
##MOLFORM=C6 H12 O3
##MW=132
##$NIST SOURCE=MSDC
##XUNITS=M/Z
##YUNITS=RELATIVE INTENSITY
##XFACTOR=1
##YFACTOR=1
##FIRSTX=14
##LASTX=119
##FIRSTY=76
##MAXX=119
##MINX=14
##MAXY=9999
##MINY=25
##NPOINTS=43
##PEAK TABLE=(XY..XY)
14,76 15,581 16,26 19,49
26,126 27,606 28,220 29,1162
30,152 31,1383 32,46 37,25
38,92 39,763 40,176 41,1066
42,1393 43,9999 44,354 45,190
47,42 53,25 55,274 57,2912
58,261 59,1753 60,25 61,1591
62,38 72,1103 73,1034 74,66
75,155 83,383 85,115 86,74
99,90 101,2865 102,122 115,35
117,4948 118,265 119,36
##END=
