##TITLE=5-Methyltricosane
##JCAMP-DX=4.24
##DATA TYPE=MASS SPECTRUM
##ORIGIN=J. Klune, Insect Chem. Ecol. Lab., USDA, Beltsville, MD 20705
##OWNER=NIST Mass Spectrometry Data Center
Collection (C) 2014 copyright by the U.S. Secretary of Commerce
on behalf of the United States of America. All rights reserved.
##CAS REGISTRY NO=22331-09-5
##$NIST MASS SPEC NO=131179
##MOLFORM=C24 H50
##MW=338
##$NIST SOURCE=MSDC
##XUNITS=M/Z
##YUNITS=RELATIVE INTENSITY
##XFACTOR=1
##YFACTOR=1
##FIRSTX=41
##LASTX=340
##FIRSTY=2574
##MAXX=340
##MINX=41
##MAXY=9999
##MINY=12
##NPOINTS=135
##PEAK TABLE=(XY..XY)
41,2574 42,822 43,6872 44,200
51,13 53,139 54,207 55,2092
56,1348 57,4984 58,195 65,23
66,18 67,266 68,219 69,1358
70,668 71,2848 72,138 74,19
77,21 79,41 80,17 81,166
82,306 83,1079 84,7045 85,7053
86,421 87,24 91,98 93,36
95,92 96,207 97,941 98,444
99,1052 100,63 105,32 107,20
109,45 110,108 111,510 112,294
113,662 114,48 119,20 121,12
123,34 124,84 125,279 126,218
127,522 128,36 133,14 135,138
137,146 138,67 139,136 140,193
141,489 142,43 149,37 151,33
152,54 153,94 154,133 155,398
156,42 166,45 167,59 168,101
169,344 170,37 180,38 181,53
182,78 183,301 184,36 189,14
194,31 195,38 196,73 197,278
198,33 208,26 209,30 210,64
211,231 212,31 222,20 223,24
224,196 225,247 226,36 237,16
238,97 239,145 240,29 241,13
250,13 251,14 252,2402 253,1726
254,320 255,21 266,217 267,249
268,63 279,13 280,5838 281,9999
282,2124 283,223 284,14 288,55
289,13 290,15 294,509 295,769
296,186 297,20 308,644 309,1162
310,378 311,60 322,213 323,1179
324,323 325,36 336,48 337,186
338,1597 339,400 340,47
##END=
