##TITLE=Benzeneethanamine, 4-methoxy-N,.alpha.-dimethyl-
##JCAMP-DX=4.24
##DATA TYPE=MASS SPECTRUM
##ORIGIN=Humboldt-Universitat zu Berlin, Department of Chemistry, Analytical Group
##OWNER=NIST Mass Spectrometry Data Center
Collection (C) 2014 copyright by the U.S. Secretary of Commerce
on behalf of the United States of America. All rights reserved.
##CAS REGISTRY NO=22331-70-0
##$NIST MASS SPEC NO=286399
##MOLFORM=C11 H17 N O
##MW=179
##$NIST SOURCE=MSDC
##XUNITS=M/Z
##YUNITS=RELATIVE INTENSITY
##XFACTOR=1
##YFACTOR=1
##FIRSTX=14
##LASTX=180
##FIRSTY=24
##MAXX=180
##MINX=14
##MAXY=9999
##MINY=5
##NPOINTS=117
##PEAK TABLE=(XY..XY)
14,24 15,353 16,39 17,316
18,1205 26,33 27,179 28,481
29,268 30,1127 31,34 32,56
37,10 38,46 39,258 40,41
41,233 42,516 43,310 44,101
45,31 50,94 51,241 52,176
53,89 54,41 55,82 56,502
58,9999 59,366 60,20 61,13
62,34 63,129 64,64 65,165
66,29 67,24 68,14 69,21
70,41 71,64 72,29 73,10
74,26 75,25 76,38 77,405
78,377 79,97 80,24 82,46
83,47 84,17 86,803 87,51
88,20 89,102 90,59 91,261
92,67 93,52 94,30 95,12
97,21 99,10 100,43 101,9
102,22 103,59 104,31 105,51
106,65 107,82 108,38 109,26
112,13 114,9 115,56 116,27
117,56 118,34 119,39 120,50
121,803 122,241 123,30 130,17
131,24 132,39 133,56 134,61
135,114 136,29 137,13 144,8
146,21 147,59 148,473 149,112
150,30 151,22 152,24 160,12
161,9 162,93 163,26 164,51
165,13 166,13 174,5 175,17
176,10 177,14 178,22 179,43
180,8
##END=
