##TITLE=(R)-Alpha-(2-pyrrolidinyl)benzhydryl alcohol
##JCAMP-DX=4.24
##DATA TYPE=MASS SPECTRUM
##ORIGIN=NIST Mass Spectrometry Data Center
##OWNER=NIST Mass Spectrometry Data Center
Collection (C) 2014 copyright by the U.S. Secretary of Commerce
on behalf of the United States of America. All rights reserved.
##CAS REGISTRY NO=22348-32-9
##$NIST MASS SPEC NO=342407
##MOLFORM=C17 H19 N O
##MW=253
##$NIST SOURCE=MSDC
##XUNITS=M/Z
##YUNITS=RELATIVE INTENSITY
##XFACTOR=1
##YFACTOR=1
##FIRSTX=18
##LASTX=251
##FIRSTY=40
##MAXX=251
##MINX=18
##MAXY=9999
##MINY=10
##NPOINTS=101
##PEAK TABLE=(XY..XY)
18,40 27,30 28,701 30,160
37,10 38,20 39,260 40,70
41,510 42,180 43,691 44,60
50,140 51,661 52,60 53,50
54,20 55,30 56,20 62,20
63,80 64,30 65,60 66,20
68,550 70,9999 71,500 72,10
75,30 77,1882 78,230 79,40
81,10 82,20 83,10 86,10
87,10 88,20 89,70 90,30
91,90 92,10 98,10 101,10
102,40 103,50 105,1732 106,130
107,10 113,10 115,80 116,20
117,20 118,20 119,10 126,20
127,40 128,50 129,20 130,60
131,20 139,30 144,10 146,30
150,20 151,40 152,140 153,70
154,30 155,10 156,10 158,40
163,20 164,30 165,170 166,30
167,50 168,10 174,30 175,10
176,50 177,20 178,40 179,30
180,20 181,150 182,200 183,480
184,70 189,10 191,20 193,10
203,10 206,50 207,10 232,10
233,10 234,60 235,50 239,20
251,20
##END=
