##TITLE=Ethanone, 1-(2,4-dichlorophenyl)-
##JCAMP-DX=4.24
##DATA TYPE=MASS SPECTRUM
##ORIGIN=Japan AIST/NIMC Database- Spectrum MS-NW-2852
##OWNER=NIST Mass Spectrometry Data Center
Collection (C) 2014 copyright by the U.S. Secretary of Commerce
on behalf of the United States of America. All rights reserved.
##CAS REGISTRY NO=2234-16-4
##$NIST MASS SPEC NO=229661
##MOLFORM=C8 H6 Cl2 O
##MW=188
##$NIST SOURCE=MSDC
##XUNITS=M/Z
##YUNITS=RELATIVE INTENSITY
##XFACTOR=1
##YFACTOR=1
##FIRSTX=14
##LASTX=193
##FIRSTY=40
##MAXX=193
##MINX=14
##MAXY=9999
##MINY=10
##NPOINTS=102
##PEAK TABLE=(XY..XY)
14,40 15,289 18,10 26,10
27,20 28,139 29,10 35,20
36,80 37,139 38,90 39,80
40,10 42,119 43,2779 44,99
47,20 48,10 49,119 50,439
51,139 53,20 54,50 55,50
56,10 60,50 61,139 62,159
63,189 64,20 69,10 71,10
72,60 73,259 74,949 75,1069
76,90 77,20 80,20 81,10
83,10 84,239 85,209 86,119
87,90 88,20 89,179 90,30
95,10 96,10 97,50 98,30
99,70 100,10 101,30 102,20
103,10 107,10 108,50 109,1139
110,489 111,529 112,169 113,50
118,10 119,30 121,20 123,80
124,30 125,109 126,10 127,30
133,20 135,20 136,10 137,20
138,99 139,20 140,30 144,30
145,2469 146,289 147,1569 148,169
149,249 150,30 159,60 161,40
170,10 172,20 173,9999 174,769
175,6409 176,499 177,1039 178,80
188,1609 189,149 190,1039 191,90
192,159 193,10
##END=
