##TITLE=2,4,6-Tri-isopropylacetophenone
##JCAMP-DX=4.24
##DATA TYPE=MASS SPECTRUM
##ORIGIN=NIST Mass Spectrometry Data Center, 1994
##OWNER=NIST Mass Spectrometry Data Center
Collection (C) 2014 copyright by the U.S. Secretary of Commerce
on behalf of the United States of America. All rights reserved.
##CAS REGISTRY NO=2234-14-2
##$NIST MASS SPEC NO=134868
##MOLFORM=C17 H26 O
##MW=246
##$NIST SOURCE=MSDC
##XUNITS=M/Z
##YUNITS=RELATIVE INTENSITY
##XFACTOR=1
##YFACTOR=1
##FIRSTX=4
##LASTX=248
##FIRSTY=10
##MAXX=248
##MINX=4
##MAXY=9999
##MINY=10
##NPOINTS=119
##PEAK TABLE=(XY..XY)
4,10 15,189 27,453 28,179
29,336 32,56 39,299 41,1208
43,4485 44,127 51,174 52,48
53,231 55,204 57,55 59,55
63,95 64,85 65,189 67,72
69,72 70,45 71,91 75,42
76,98 77,428 78,128 79,187
80,36 81,22 82,43 83,97
84,106 85,148 86,48 87,28
89,108 91,970 92,152 93,74
94,41 99,77 101,33 102,72
103,129 104,28 105,382 106,36
107,33 108,78 115,657 116,213
117,404 118,57 119,237 120,39
127,218 128,654 129,870 130,247
131,364 132,62 133,170 139,42
141,334 142,244 143,657 144,135
145,280 146,72 147,311 148,42
152,93 153,175 154,109 155,259
156,201 157,234 158,66 159,129
160,39 161,89 165,52 167,62
168,37 169,121 170,110 171,595
172,115 173,283 174,59 175,96
183,50 184,40 185,151 186,51
187,120 188,112 189,213 197,31
198,49 199,67 200,49 201,144
202,54 203,279 204,80 213,784
214,155 215,419 216,220 217,129
229,73 231,9999 232,1799 233,196
246,1915 247,374 248,41
##END=
