##TITLE=2-Pentanone, 5-phenyl-
##JCAMP-DX=4.24
##DATA TYPE=MASS SPECTRUM
##OWNER=NIST Mass Spectrometry Data Center
Collection (C) 2014 copyright by the U.S. Secretary of Commerce
on behalf of the United States of America. All rights reserved.
##CAS REGISTRY NO=2235-83-8
##$NIST MASS SPEC NO=5867
##MOLFORM=C11 H14 O
##MW=162
##$NIST SOURCE=MSDC
##XUNITS=M/Z
##YUNITS=RELATIVE INTENSITY
##XFACTOR=1
##YFACTOR=1
##FIRSTX=41
##LASTX=163
##FIRSTY=320
##MAXX=163
##MINX=41
##MAXY=9999
##MINY=80
##NPOINTS=27
##PEAK TABLE=(XY..XY)
41,320 43,2692 44,130 50,160
51,480 52,130 58,540 63,270
64,80 65,731 71,130 77,350
78,480 79,130 89,220 90,80
91,2282 92,320 103,300 104,9999
105,1261 106,130 115,220 117,130
119,130 162,891 163,110
##END=
