##TITLE=Cyclohexanecarboxylic acid, 2-hydroxy-, methyl ester
##JCAMP-DX=4.24
##DATA TYPE=MASS SPECTRUM
##OWNER=NIST Mass Spectrometry Data Center
Collection (C) 2014 copyright by the U.S. Secretary of Commerce
on behalf of the United States of America. All rights reserved.
##CAS REGISTRY NO=2236-11-5
##$NIST MASS SPEC NO=5566
##MOLFORM=C8 H14 O3
##MW=158
##$NIST SOURCE=MSDC
##XUNITS=M/Z
##YUNITS=RELATIVE INTENSITY
##XFACTOR=1
##YFACTOR=1
##FIRSTX=14
##LASTX=159
##FIRSTY=40
##MAXX=159
##MINX=14
##MAXY=9999
##MINY=10
##NPOINTS=118
##PEAK TABLE=(XY..XY)
14,40 15,581 16,20 17,70
18,330 19,10 26,60 27,881
28,681 29,781 30,40 31,400
32,170 33,130 36,70 37,20
38,90 39,821 40,140 41,1251
42,440 43,951 44,340 45,180
47,20 50,90 51,240 52,100
53,450 54,320 55,3573 56,260
57,851 58,70 59,571 60,60
61,110 62,40 63,140 64,60
65,250 66,110 67,400 68,140
69,731 70,921 71,310 72,70
73,170 74,891 75,250 76,40
77,450 78,120 79,611 80,1371
81,3093 82,310 83,851 84,270
85,100 86,40 87,9999 88,591
89,180 90,70 91,450 92,180
93,90 94,20 95,50 96,30
97,641 98,1521 99,380 100,60
101,781 102,140 103,40 104,10
105,50 106,30 107,540 108,1321
109,731 110,60 111,170 112,60
113,50 114,20 115,671 119,50
120,390 121,450 122,70 123,20
124,20 125,450 126,771 127,741
128,80 129,70 130,3023 131,240
132,30 133,20 134,50 135,30
138,220 139,70 140,561 141,591
142,280 143,200 144,22 157,90
158,110 159,20
##END=
