##TITLE=Naphthalene, 1,8-di-1-propynyl-
##JCAMP-DX=4.24
##DATA TYPE=MASS SPECTRUM
##ORIGIN=R.C. DOUGHERTY
##OWNER=NIST Mass Spectrometry Data Center
Collection (C) 2014 copyright by the U.S. Secretary of Commerce
on behalf of the United States of America. All rights reserved.
##CAS REGISTRY NO=22360-77-6
##$NIST MASS SPEC NO=37071
##MOLFORM=C16 H12
##MW=204
##$NIST SOURCE=MSDC
##XUNITS=M/Z
##YUNITS=RELATIVE INTENSITY
##XFACTOR=1
##YFACTOR=1
##FIRSTX=27
##LASTX=206
##FIRSTY=100
##MAXX=206
##MINX=27
##MAXY=9999
##MINY=100
##NPOINTS=52
##PEAK TABLE=(XY..XY)
27,100 28,100 39,250 50,150
51,150 62,300 63,350 74,400
75,601 76,500 77,150 86,300
87,500 88,801 89,500 94,450
98,250 99,250 100,1101 101,1651
102,350 110,100 111,100 126,100
139,100 149,150 150,450 151,450
152,400 162,100 163,601 164,150
165,500 174,350 175,300 176,701
177,250 178,300 179,300 187,500
188,300 189,3303 190,601 191,651
199,200 200,2002 201,1601 202,9999
203,9809 204,9809 205,1702 206,601
##END=
