##TITLE=2-Methylbenzyl cyanide
##JCAMP-DX=4.24
##DATA TYPE=MASS SPECTRUM
##ORIGIN=Chuck Anderson, Aldrich Chemical Co.
##OWNER=NIST Mass Spectrometry Data Center
Collection (C) 2014 copyright by the U.S. Secretary of Commerce
on behalf of the United States of America. All rights reserved.
##CAS REGISTRY NO=22364-68-7
##$NIST MASS SPEC NO=118069
##MOLFORM=C9 H9 N
##MW=131
##$NIST SOURCE=MSDC
##XUNITS=M/Z
##YUNITS=RELATIVE INTENSITY
##XFACTOR=1
##YFACTOR=1
##FIRSTX=15
##LASTX=133
##FIRSTY=24
##MAXX=133
##MINX=15
##MAXY=9999
##MINY=12
##NPOINTS=56
##PEAK TABLE=(XY..XY)
15,24 26,52 27,161 28,43
37,28 38,69 39,288 40,49
41,49 49,14 50,195 51,406
52,171 53,58 61,52 62,146
63,402 64,151 65,563 66,38
73,17 74,130 75,186 76,210
77,1009 78,786 79,105 84,15
85,19 86,59 87,80 88,46
89,690 90,63 91,3024 92,175
98,25 99,31 100,39 101,98
102,371 103,1520 104,9999 105,655
106,31 114,29 115,26 116,2307
117,139 127,13 128,127 129,18
130,533 131,3740 132,279 133,12
##END=
