##TITLE=1-Undecene, 10-methyl-
##JCAMP-DX=4.24
##DATA TYPE=MASS SPECTRUM
##ORIGIN=D.HENNEBERG, MAX-PLANCK INSTITUTE, MULHEIM, WEST GERMANY
##OWNER=NIST Mass Spectrometry Data Center
Collection (C) 2014 copyright by the U.S. Secretary of Commerce
on behalf of the United States of America. All rights reserved.
##CAS REGISTRY NO=22370-55-4
##$NIST MASS SPEC NO=61824
##MOLFORM=C12 H24
##MW=168
##$NIST SOURCE=MSDC
##XUNITS=M/Z
##YUNITS=RELATIVE INTENSITY
##XFACTOR=1
##YFACTOR=1
##FIRSTX=24
##LASTX=169
##FIRSTY=17
##MAXX=169
##MINX=24
##MAXY=9999
##MINY=1
##NPOINTS=79
##PEAK TABLE=(XY..XY)
24,17 25,27 26,68 27,1244
28,159 29,2005 30,27 31,20
32,32 33,3 34,14 35,11
36,1 37,77 38,34 39,1100
40,212 41,4955 42,1056 43,7037
44,100 45,2 46,5 47,10
49,13 50,24 51,55 52,55
53,353 54,595 55,4846 56,9999
57,5877 58,278 60,3 62,5
63,17 64,7 65,56 66,58
67,542 68,734 69,5423 70,2461
71,907 72,45 75,3 77,55
79,44 80,18 81,204 82,445
83,2285 84,1281 85,419 86,20
91,4 93,12 95,88 96,55
97,992 98,330 99,10 110,81
111,471 112,452 113,43 117,3
124,36 125,132 126,88 139,6
140,203 141,8 153,77 154,8
167,9 168,127 169,25
##END=
