##TITLE=Dodecanedioic acid, 2TMS derivative
##JCAMP-DX=4.24
##DATA TYPE=MASS SPECTRUM
##ORIGIN=NIST Mass Spectrometry Data Center
##OWNER=NIST Mass Spectrometry Data Center
Collection (C) 2014 copyright by the U.S. Secretary of Commerce
on behalf of the United States of America. All rights reserved.
##CAS REGISTRY NO=22396-19-6
##$NIST MASS SPEC NO=332827
##MOLFORM=C18 H38 O4 Si2
##MW=374
##$NIST SOURCE=MSDC
##XUNITS=M/Z
##YUNITS=RELATIVE INTENSITY
##XFACTOR=1
##YFACTOR=1
##FIRSTX=15
##LASTX=376
##FIRSTY=10
##MAXX=376
##MINX=15
##MAXY=9999
##MINY=10
##NPOINTS=253
##PEAK TABLE=(XY..XY)
15,10 26,10 27,60 28,30
29,140 30,10 31,20 39,90
41,530 42,140 43,510 44,140
45,821 46,60 47,380 48,20
49,10 52,10 53,70 55,1862
56,190 57,250 58,210 59,260
60,100 61,470 62,30 63,20
65,20 67,591 68,90 69,951
70,110 71,180 72,500 73,8047
74,1001 75,7046 76,550 77,360
78,20 79,270 80,50 81,761
82,90 83,951 84,240 85,210
86,140 87,80 88,80 89,170
90,30 91,160 92,30 93,550
94,80 95,430 96,160 97,701
98,611 99,290 100,40 101,160
102,30 103,60 104,10 105,150
106,30 107,360 108,70 109,240
110,100 111,380 112,340 113,70
114,20 115,100 116,831 117,3293
118,350 119,230 120,30 121,160
122,40 123,150 124,110 125,120
126,50 127,30 129,4194 130,621
131,761 132,470 133,591 134,160
135,811 136,90 137,70 138,170
139,50 140,30 141,40 142,40
143,350 144,60 145,530 146,90
147,1872 148,400 149,1491 150,230
151,200 152,130 153,500 154,60
155,120 156,280 157,290 158,70
159,390 160,60 161,30 162,30
163,30 164,10 165,80 166,370
167,140 168,20 169,140 170,751
171,500 172,280 173,390 174,90
175,80 176,60 177,50 178,10
179,10 181,20 182,10 183,80
184,340 185,390 186,80 187,741
188,140 189,110 190,50 191,30
192,10 193,40 194,330 195,140
196,20 197,40 198,20 199,160
200,30 201,320 202,70 203,210
204,3403 205,811 206,320 207,50
208,10 209,20 211,30 213,821
214,150 215,90 217,4034 218,931
219,400 220,60 221,20 223,10
225,90 226,30 227,550 228,250
229,90 230,190 231,230 232,60
233,40 234,10 239,70 241,651
242,270 243,4834 244,961 245,290
246,60 247,10 248,10 249,10
251,180 252,40 253,10 255,10
256,20 257,20 259,130 260,40
261,20 266,30 267,40 268,10
269,60 270,10 271,10 273,140
274,40 275,20 283,30 284,30
285,190 286,40 287,200 288,50
289,20 299,10 301,60 302,30
303,10 313,10 315,761 316,210
317,90 318,20 325,10 329,20
330,20 331,30 332,10 341,90
343,1061 344,300 345,120 346,20
359,9999 360,3243 361,1261 362,240
363,40 373,20 374,120 375,50
376,20
##END=
