##TITLE=3-Diethylamino-1-phenylpropyne
##JCAMP-DX=4.24
##DATA TYPE=MASS SPECTRUM
##ORIGIN=NIST Mass Spectrometry Data Center, 1994
##OWNER=NIST Mass Spectrometry Data Center
Collection (C) 2014 copyright by the U.S. Secretary of Commerce
on behalf of the United States of America. All rights reserved.
##CAS REGISTRY NO=22396-72-1
##$NIST MASS SPEC NO=135376
##MOLFORM=C13 H17 N
##MW=187
##$NIST SOURCE=MSDC
##XUNITS=M/Z
##YUNITS=RELATIVE INTENSITY
##XFACTOR=1
##YFACTOR=1
##FIRSTX=14
##LASTX=188
##FIRSTY=12
##MAXX=188
##MINX=14
##MAXY=9999
##MINY=2
##NPOINTS=88
##PEAK TABLE=(XY..XY)
14,12 15,183 17,2 18,83
26,106 27,743 28,1025 29,1096
30,282 37,33 38,58 39,429
40,50 41,193 42,675 43,50
44,133 49,17 50,210 51,305
52,87 53,30 54,119 55,67
56,551 57,142 58,101 61,49
62,231 63,742 64,100 65,429
66,32 68,20 70,120 71,55
72,64 74,151 75,229 76,129
77,227 78,43 80,18 82,33
84,23 85,37 86,250 87,178
88,206 89,947 90,79 91,151
98,24 100,19 101,40 102,115
103,142 104,143 105,32 110,63
111,16 113,220 115,9999 116,1127
117,166 118,15 127,63 128,116
129,71 130,65 131,23 132,106
141,17 142,30 143,118 144,170
145,21 156,40 157,32 158,85
170,25 172,3029 173,400 174,26
184,18 186,223 187,549 188,84
##END=
