##TITLE=Phosphonic acid, 1,3-propanediylbis-, tetraethyl ester
##JCAMP-DX=4.24
##DATA TYPE=MASS SPECTRUM
##ORIGIN=J.WHELAN DEFENCE STANDARDS LAB., ASCOT VALE, AUSTRALIA
##OWNER=NIST Mass Spectrometry Data Center
Collection (C) 2014 copyright by the U.S. Secretary of Commerce
on behalf of the United States of America. All rights reserved.
##CAS REGISTRY NO=22401-25-8
##$NIST MASS SPEC NO=26441
##MOLFORM=C11 H26 O6 P2
##MW=316
##$NIST SOURCE=MSDC
##XUNITS=M/Z
##YUNITS=RELATIVE INTENSITY
##XFACTOR=1
##YFACTOR=1
##FIRSTX=65
##LASTX=316
##FIRSTY=800
##MAXX=316
##MINX=65
##MAXY=9999
##MINY=100
##NPOINTS=27
##PEAK TABLE=(XY..XY)
65,800 81,1500 82,500 91,1800
97,1200 108,800 109,2700 123,2700
125,3400 137,2600 138,1100 151,1100
152,3600 153,1000 165,9999 166,1500
169,800 179,6000 180,1500 187,2800
192,1400 203,500 215,500 243,500
271,700 301,100 316,200
##END=
