##TITLE=3,3,3-Trifluoro-1-propanol
##JCAMP-DX=4.24
##DATA TYPE=MASS SPECTRUM
##ORIGIN=A. Musjce, AT&T Bell Labs., Murray Hill, N.J., USA
##OWNER=NIST Mass Spectrometry Data Center
Collection (C) 2014 copyright by the U.S. Secretary of Commerce
on behalf of the United States of America. All rights reserved.
##CAS REGISTRY NO=2240-88-2
##$NIST MASS SPEC NO=142848
##MOLFORM=C3 H5 F3 O
##MW=114
##$NIST SOURCE=MSDC
##XUNITS=M/Z
##YUNITS=RELATIVE INTENSITY
##XFACTOR=1
##YFACTOR=1
##FIRSTX=14
##LASTX=116
##FIRSTY=75
##MAXX=116
##MINX=14
##MAXY=9999
##MINY=4
##NPOINTS=73
##PEAK TABLE=(XY..XY)
14,75 15,115 16,22 17,44
18,44 19,73 20,15 21,27
24,32 25,77 26,377 27,688
29,2158 31,9999 32,181 33,383
34,11 36,34 37,56 38,55
39,37 40,24 41,80 42,298
43,632 44,485 45,1162 46,249
47,296 49,634 50,230 51,575
52,22 53,32 54,4 55,62
56,93 57,78 58,10 59,153
60,26 61,8 64,4670 65,4547
66,129 67,178 69,1961 70,33
71,100 72,8 73,141 74,101
75,432 77,549 78,39 79,6
80,13 81,11 82,19 83,138
84,46 85,9 91,359 94,3486
95,531 96,86 97,39 98,7
111,62 113,154 114,195 115,27
116,5
##END=
