##TITLE=1-Propene, 3-methoxy-2-methyl-
##JCAMP-DX=4.24
##DATA TYPE=MASS SPECTRUM
##OWNER=NIST Mass Spectrometry Data Center
Collection (C) 2014 copyright by the U.S. Secretary of Commerce
on behalf of the United States of America. All rights reserved.
##CAS REGISTRY NO=22418-49-1
##$NIST MASS SPEC NO=586
##MOLFORM=C5 H10 O
##MW=86
##$NIST SOURCE=MSDC
##XUNITS=M/Z
##YUNITS=RELATIVE INTENSITY
##XFACTOR=1
##YFACTOR=1
##FIRSTX=14
##LASTX=87
##FIRSTY=150
##MAXX=87
##MINX=14
##MAXY=9999
##MINY=23
##NPOINTS=50
##PEAK TABLE=(XY..XY)
14,150 15,1141 16,70 26,250
27,2132 28,1555 29,3393 30,270
31,911 32,48 33,23 36,60
37,150 38,330 39,3193 40,450
41,6656 42,561 43,4484 44,530
45,5305 46,170 47,100 49,120
50,270 51,310 52,130 53,1341
54,791 55,4974 56,981 57,1311
58,591 59,911 60,200 61,120
62,120 63,60 64,40 65,60
67,300 68,110 69,1241 70,320
71,9999 72,961 84,140 85,2402
86,4314 87,741
##END=
