##TITLE=Eicosanoic acid, tetradecyl ester
##JCAMP-DX=4.24
##DATA TYPE=MASS SPECTRUM
##ORIGIN=R.T.HOLMAN,UNIVERSITY OF MINNESOTA
##OWNER=NIST Mass Spectrometry Data Center
Collection (C) 2014 copyright by the U.S. Secretary of Commerce
on behalf of the United States of America. All rights reserved.
##CAS REGISTRY NO=22413-04-3
##$NIST MASS SPEC NO=36111
##MOLFORM=C34 H68 O2
##MW=508
##$NIST SOURCE=MSDC
##XUNITS=M/Z
##YUNITS=RELATIVE INTENSITY
##XFACTOR=1
##YFACTOR=1
##FIRSTX=26
##LASTX=512
##FIRSTY=80
##MAXX=512
##MINX=26
##MAXY=9999
##MINY=10
##NPOINTS=324
##PEAK TABLE=(XY..XY)
26,80 27,630 28,460 29,1800
30,60 31,50 32,100 36,20
37,20 38,30 39,440 40,130
41,4300 42,1300 43,9999 44,390
45,90 50,30 51,40 52,30
53,220 54,680 55,5800 56,2500
57,9900 58,520 59,130 60,1000
61,1400 62,60 63,40 64,20
65,50 66,70 67,1000 68,1200
69,4600 70,2200 71,5100 72,300
73,1600 74,150 75,30 76,10
77,60 78,30 79,150 80,100
81,760 82,1700 83,4200 84,1800
85,3000 86,2200 87,4000 88,50
89,50 91,60 92,30 93,110
94,60 95,610 96,930 97,3400
98,1500 99,680 100,110 101,340
102,100 103,60 104,20 105,40
106,20 107,90 108,40 109,330
110,390 111,1900 112,840 113,420
114,70 115,400 116,320 117,70
118,20 119,40 120,20 121,120
122,40 123,170 124,240 125,1100
126,520 127,310 128,70 129,800
130,110 131,40 132,10 133,30
134,20 135,110 136,30 137,100
138,160 139,520 140,360 141,240
142,60 143,150 144,30 145,30
146,10 147,20 148,20 149,100
150,20 151,50 152,100 153,300
154,230 155,130 156,40 157,140
158,40 159,20 161,10 162,10
163,60 164,20 165,40 166,70
167,210 168,800 169,160 170,40
171,190 172,50 173,30 174,10
175,20 176,10 177,50 178,20
179,30 180,30 181,90 182,40
183,40 184,20 185,230 186,50
187,20 188,10 189,10 190,10
191,40 192,20 193,20 194,70
195,70 196,3600 197,720 198,90
199,90 200,30 201,30 202,10
203,10 204,10 205,30 206,10
207,30 208,50 209,60 210,40
211,70 212,20 213,200 214,60
215,30 216,10 217,10 218,10
219,30 220,20 221,30 222,30
223,50 224,50 225,20 226,10
227,150 228,80 229,200 230,40
231,10 232,10 233,20 234,10
235,20 236,20 237,40 238,30
239,30 240,20 241,570 242,120
243,30 244,10 247,10 248,30
249,20 250,70 251,40 252,70
253,40 254,20 255,70 256,110
257,440 258,90 259,20 263,20
264,20 265,30 266,30 267,20
268,10 269,470 270,120 271,30
272,10 274,20 275,50 276,40
277,30 278,20 279,10 280,10
281,10 282,10 283,100 284,40
285,50 286,20 292,140 293,140
294,70 295,1100 296,210 297,60
298,30 299,40 300,10 310,30
311,130 312,2000 313,7600 314,1700
315,190 316,300 321,10 322,10
323,10 324,10 325,60 326,20
337,10 338,10 339,30 340,20
341,10 349,10 350,20 351,10
352,20 353,40 354,20 355,10
363,20 364,10 365,10 367,20
368,100 369,40 370,10 377,10
380,20 381,30 382,30 383,20
384,10 395,10 396,10 397,10
409,20 410,10 423,10 424,20
436,10 437,10 438,10 451,10
452,20 453,10 465,30 466,20
467,10 479,20 480,50 481,30
482,10 490,20 491,10 493,10
494,20 495,10 507,40 508,3104
509,1200 510,210 511,40 512,10
##END=
