##TITLE=2,6-Octadien-1-ol, 2,7-dimethyl-
##JCAMP-DX=4.24
##DATA TYPE=MASS SPECTRUM
##ORIGIN=D.HENNEBERG, MAX-PLANCK INSTITUTE, MULHEIM, WEST GERMANY
##OWNER=NIST Mass Spectrometry Data Center
Collection (C) 2014 copyright by the U.S. Secretary of Commerce
on behalf of the United States of America. All rights reserved.
##CAS REGISTRY NO=22410-74-8
##$NIST MASS SPEC NO=61713
##MOLFORM=C10 H18 O
##MW=154
##$NIST SOURCE=MSDC
##XUNITS=M/Z
##YUNITS=RELATIVE INTENSITY
##XFACTOR=1
##YFACTOR=1
##FIRSTX=22
##LASTX=155
##FIRSTY=12
##MAXX=155
##MINX=22
##MAXY=9999
##MINY=4
##NPOINTS=110
##PEAK TABLE=(XY..XY)
22,12 24,18 26,85 27,1621
28,540 29,1719 30,42 31,379
32,33 36,36 37,114 38,100
39,2435 40,458 41,9880 42,700
43,5421 44,151 45,140 50,148
51,485 52,196 53,1288 54,212
55,1598 56,345 57,570 58,93
59,127 61,17 62,59 63,189
64,56 65,505 66,232 67,1510
68,2059 69,9999 70,1183 71,564
72,454 73,29 74,43 75,59
76,21 77,832 78,243 79,986
80,688 81,512 82,676 83,415
84,859 85,245 86,109 87,23
89,82 90,28 91,1163 92,690
93,2142 94,390 95,224 96,264
97,242 98,253 99,4 102,33
103,105 104,50 105,326 106,117
107,306 108,91 109,60 110,35
111,243 112,184 113,26 115,176
116,33 117,227 118,26 119,589
120,81 121,578 122,52 123,109
124,25 125,36 126,8 128,36
129,17 130,15 131,37 132,112
133,50 134,185 135,45 136,259
137,36 139,128 140,12 144,4
145,36 146,33 148,28 150,14
154,207 155,12
##END=
