##TITLE=2,3-Naphthalenediol diacetate
##JCAMP-DX=4.24
##DATA TYPE=MASS SPECTRUM
##ORIGIN=NIST Mass Spectrometry Data Center
##OWNER=NIST Mass Spectrometry Data Center
Collection (C) 2014 copyright by the U.S. Secretary of Commerce
on behalf of the United States of America. All rights reserved.
##CAS REGISTRY NO=22426-46-6
##$NIST MASS SPEC NO=352823
##MOLFORM=C14 H12 O4
##MW=244
##$NIST SOURCE=MSDC
##XUNITS=M/Z
##YUNITS=RELATIVE INTENSITY
##XFACTOR=1
##YFACTOR=1
##FIRSTX=14
##LASTX=246
##FIRSTY=10
##MAXX=246
##MINX=14
##MAXY=9999
##MINY=10
##NPOINTS=69
##PEAK TABLE=(XY..XY)
14,10 15,40 28,10 38,10
39,30 41,10 42,50 43,1281
44,30 50,70 51,90 52,50
53,20 61,10 62,50 63,120
64,20 65,10 74,90 75,130
76,230 77,420 78,40 86,20
87,40 88,100 89,30 91,10
98,10 99,10 100,10 101,50
102,681 103,270 104,40 113,180
114,911 115,200 116,20 126,10
127,10 128,10 129,20 130,20
131,1431 132,160 133,10 141,10
142,50 143,10 144,10 145,10
157,10 158,10 159,460 160,9999
161,1291 162,110 163,10 171,10
173,10 185,20 201,20 202,771
203,100 204,10 244,440 245,70
246,10
##END=
