##TITLE=2-Naphthalenecarbonyl chloride
##JCAMP-DX=4.24
##DATA TYPE=MASS SPECTRUM
##ORIGIN=Japan AIST/NIMC Database- Spectrum MS-NW-9285
##OWNER=NIST Mass Spectrometry Data Center
Collection (C) 2014 copyright by the U.S. Secretary of Commerce
on behalf of the United States of America. All rights reserved.
##CAS REGISTRY NO=2243-83-6
##$NIST MASS SPEC NO=232423
##MOLFORM=C11 H7 Cl O
##MW=190
##$NIST SOURCE=MSDC
##XUNITS=M/Z
##YUNITS=RELATIVE INTENSITY
##XFACTOR=1
##YFACTOR=1
##FIRSTX=27
##LASTX=193
##FIRSTY=40
##MAXX=193
##MINX=27
##MAXY=9999
##MINY=10
##NPOINTS=73
##PEAK TABLE=(XY..XY)
27,40 28,90 35,80 36,1009
37,30 38,319 39,90 44,60
49,30 50,369 51,429 52,60
53,20 61,90 62,199 63,1439
64,179 68,50 69,20 73,40
74,449 75,579 76,339 77,929
78,149 81,269 82,90 83,20
85,40 86,119 87,159 88,20
89,30 95,20 97,20 98,159
99,139 100,129 101,529 102,60
103,20 104,20 110,10 111,10
113,10 115,20 121,10 122,30
123,10 125,139 126,1499 127,7659
128,939 129,50 133,10 139,10
141,10 142,10 154,70 155,9999
156,1229 157,90 161,60 162,949
163,119 164,299 165,30 172,209
173,20 190,2229 191,269 192,729
193,80
##END=
