##TITLE=1,5-Naphthalenediamine
##JCAMP-DX=4.24
##DATA TYPE=MASS SPECTRUM
##ORIGIN=NIST Mass Spectrometry Data Center, 1998.
##OWNER=NIST Mass Spectrometry Data Center
Collection (C) 2014 copyright by the U.S. Secretary of Commerce
on behalf of the United States of America. All rights reserved.
##CAS REGISTRY NO=2243-62-1
##$NIST MASS SPEC NO=291224
##MOLFORM=C10 H10 N2
##MW=158
##$NIST SOURCE=MSDC
##XUNITS=M/Z
##YUNITS=RELATIVE INTENSITY
##XFACTOR=1
##YFACTOR=1
##FIRSTX=26
##LASTX=160
##FIRSTY=10
##MAXX=160
##MINX=26
##MAXY=9999
##MINY=10
##NPOINTS=86
##PEAK TABLE=(XY..XY)
26,10 27,40 28,40 29,10
30,10 37,20 38,70 39,150
40,20 41,60 42,20 43,20
49,10 50,170 51,350 52,310
53,90 54,70 55,10 56,10
57,20 58,10 61,50 62,140
63,260 64,10 65,390 67,20
70,30 71,10 73,20 74,150
75,220 76,260 77,760 78,410
79,870 85,20 86,60 87,80
88,100 89,150 90,90 91,160
92,30 93,30 98,40 99,40
100,50 101,210 102,500 103,1100
104,320 105,40 106,200 107,20
110,10 111,10 112,10 113,120
114,300 115,340 116,200 117,380
118,710 119,80 126,10 127,40
128,300 129,190 130,3240 131,710
132,170 133,10 140,320 141,570
142,200 143,240 144,20 153,10
155,220 156,100 157,1130 158,9999
159,1260 160,70
##END=
