##TITLE=Ethanone, 2-(acetyloxy)-1-phenyl-
##JCAMP-DX=4.24
##DATA TYPE=MASS SPECTRUM
##ORIGIN=Japan AIST/NIMC Database- Spectrum MS-IW-7017
##OWNER=NIST Mass Spectrometry Data Center
Collection (C) 2014 copyright by the U.S. Secretary of Commerce
on behalf of the United States of America. All rights reserved.
##CAS REGISTRY NO=2243-35-8
##$NIST MASS SPEC NO=240901
##MOLFORM=C10 H10 O3
##MW=178
##$NIST SOURCE=MSDC
##XUNITS=M/Z
##YUNITS=RELATIVE INTENSITY
##XFACTOR=1
##YFACTOR=1
##FIRSTX=15
##LASTX=179
##FIRSTY=60
##MAXX=179
##MINX=15
##MAXY=9999
##MINY=10
##NPOINTS=42
##PEAK TABLE=(XY..XY)
15,60 18,10 27,20 28,20
29,10 38,10 39,60 41,10
42,40 43,1139 44,20 45,20
50,179 51,599 52,40 58,10
62,10 63,40 65,80 73,30
74,50 75,40 76,99 77,2679
78,199 79,20 89,20 90,10
91,169 92,10 102,10 104,30
105,9999 106,809 107,50 118,689
119,70 120,20 136,179 137,20
178,399 179,50
##END=
