##TITLE=1-Naphthamide
##JCAMP-DX=4.24
##DATA TYPE=MASS SPECTRUM
##ORIGIN=NIST Mass Spectrometry Data Center
##OWNER=NIST Mass Spectrometry Data Center
Collection (C) 2014 copyright by the U.S. Secretary of Commerce
on behalf of the United States of America. All rights reserved.
##CAS REGISTRY NO=2243-81-4
##$NIST MASS SPEC NO=340737
##MOLFORM=C11 H9 N O
##MW=171
##$NIST SOURCE=MSDC
##XUNITS=M/Z
##YUNITS=RELATIVE INTENSITY
##XFACTOR=1
##YFACTOR=1
##FIRSTX=16
##LASTX=173
##FIRSTY=20
##MAXX=173
##MINX=16
##MAXY=9999
##MINY=10
##NPOINTS=73
##PEAK TABLE=(XY..XY)
16,20 26,20 27,70 37,40
38,90 39,230 41,10 43,20
44,430 49,40 50,571 51,761
52,140 53,40 57,70 58,130
61,130 62,340 63,1151 65,60
66,10 70,140 71,230 73,60
74,791 75,971 76,500 77,1191
85,400 87,320 88,100 89,170
90,20 91,10 97,30 98,330
99,260 100,220 101,861 102,320
103,30 110,10 111,20 113,90
114,120 115,861 116,190 117,20
121,20 122,70 123,20 124,10
125,280 126,2742 127,9999 128,1521
129,90 140,80 141,30 142,130
143,230 144,20 151,20 152,150
153,370 154,711 155,7477 156,921
157,60 170,2602 171,7206 172,901
173,60
##END=
