##TITLE=1,2-Nonadiene
##JCAMP-DX=4.24
##DATA TYPE=MASS SPECTRUM
##ORIGIN=JACSAT, 99(2) 532(1977); C. DJERASSI, STAMFORD UNIVERSITY, USA
##OWNER=NIST Mass Spectrometry Data Center
Collection (C) 2014 copyright by the U.S. Secretary of Commerce
on behalf of the United States of America. All rights reserved.
##CAS REGISTRY NO=22433-33-6
##$NIST MASS SPEC NO=54086
##MOLFORM=C9 H16
##MW=124
##$NIST SOURCE=MSDC
##XUNITS=M/Z
##YUNITS=RELATIVE INTENSITY
##XFACTOR=1
##YFACTOR=1
##FIRSTX=39
##LASTX=124
##FIRSTY=2000
##MAXX=124
##MINX=39
##MAXY=9999
##MINY=3
##NPOINTS=30
##PEAK TABLE=(XY..XY)
39,2000 40,200 41,3800 42,1100
43,1900 50,100 51,300 52,300
53,1900 54,9999 55,2400 56,200
57,200 65,200 66,200 67,2700
68,1400 69,600 70,200 79,200
80,100 81,1300 82,1100 83,100
95,900 96,1000 109,100 110,3
123,3 124,3
##END=
