##TITLE=Nonanenitrile
##JCAMP-DX=4.24
##DATA TYPE=MASS SPECTRUM
##ORIGIN=Japan AIST/NIMC Database- Spectrum MS-NW-3984
##OWNER=NIST Mass Spectrometry Data Center
Collection (C) 2014 copyright by the U.S. Secretary of Commerce
on behalf of the United States of America. All rights reserved.
##CAS REGISTRY NO=2243-27-8
##$NIST MASS SPEC NO=232145
##MOLFORM=C9 H17 N
##MW=139
##$NIST SOURCE=MSDC
##XUNITS=M/Z
##YUNITS=RELATIVE INTENSITY
##XFACTOR=1
##YFACTOR=1
##FIRSTX=15
##LASTX=140
##FIRSTY=189
##MAXX=140
##MINX=15
##MAXY=9999
##MINY=10
##NPOINTS=89
##PEAK TABLE=(XY..XY)
15,189 16,10 25,10 26,269
27,3439 28,889 29,4669 30,369
31,179 32,119 37,50 38,149
39,2549 40,509 41,9999 42,2249
43,7589 44,409 45,40 46,10
47,40 49,10 50,80 51,199
52,219 53,679 54,7689 55,5929
56,2049 57,4609 58,259 59,249
60,10 61,10 62,20 63,40
64,50 65,119 66,149 67,669
68,1389 69,8069 70,1159 71,849
72,60 73,20 74,10 75,10
76,10 77,129 78,30 79,299
80,219 81,479 82,8659 83,7279
84,1079 85,209 86,10 87,10
88,10 91,109 92,20 93,399
94,159 95,179 96,8459 97,5049
98,449 99,30 105,20 106,10
107,99 108,80 109,50 110,4899
111,1349 112,159 113,40 121,20
122,30 123,10 124,939 125,99
126,10 136,10 138,359 139,40
140,20
##END=
