##TITLE=Benzene, 1-iodo-3,5-dimethyl-
##JCAMP-DX=4.24
##DATA TYPE=MASS SPECTRUM
##ORIGIN=NIST Mass Spectrometry Data Center, 1994
##OWNER=NIST Mass Spectrometry Data Center
Collection (C) 2014 copyright by the U.S. Secretary of Commerce
on behalf of the United States of America. All rights reserved.
##CAS REGISTRY NO=22445-41-6
##$NIST MASS SPEC NO=134539
##MOLFORM=C8 H9 I
##MW=232
##$NIST SOURCE=MSDC
##XUNITS=M/Z
##YUNITS=RELATIVE INTENSITY
##XFACTOR=1
##YFACTOR=1
##FIRSTX=15
##LASTX=233
##FIRSTY=204
##MAXX=233
##MINX=15
##MAXY=9999
##MINY=49
##NPOINTS=49
##PEAK TABLE=(XY..XY)
15,204 18,49 26,198 27,1775
29,95 37,332 38,988 39,3302
40,355 41,278 50,1504 51,2484
52,736 53,745 54,58 61,445
62,1241 63,2505 64,624 65,799
66,130 73,150 74,594 75,470
76,573 77,6042 78,2347 79,7464
80,503 85,124 86,190 87,195
88,124 89,614 90,290 91,62
98,122 101,65 102,596 103,3750
104,1159 105,8031 106,799 116,211
127,1563 128,170 217,83 232,9999
233,905
##END=
