##TITLE=1,3-Oxathiane, 4,6-dimethyl-, trans-
##JCAMP-DX=4.24
##DATA TYPE=MASS SPECTRUM
##ORIGIN=J.JALONEN DEPT. CHEM., UNIV. OF TURKU, TURKU, FINLAND
##OWNER=NIST Mass Spectrometry Data Center
Collection (C) 2014 copyright by the U.S. Secretary of Commerce
on behalf of the United States of America. All rights reserved.
##CAS REGISTRY NO=22452-26-2
##$NIST MASS SPEC NO=68013
##MOLFORM=C6 H12 O S
##MW=132
##$NIST SOURCE=MSDC
##XUNITS=M/Z
##YUNITS=RELATIVE INTENSITY
##XFACTOR=1
##YFACTOR=1
##FIRSTX=41
##LASTX=134
##FIRSTY=600
##MAXX=134
##MINX=41
##MAXY=9999
##MINY=200
##NPOINTS=36
##PEAK TABLE=(XY..XY)
41,600 42,600 43,1500 45,200
46,1000 47,300 48,300 53,200
54,400 55,500 59,700 60,5400
61,1200 62,300 67,400 68,900
69,3100 70,500 71,500 72,900
73,700 74,800 75,600 85,700
86,400 87,800 88,5100 89,1100
90,700 99,900 102,800 117,600
131,200 132,9999 133,900 134,600
##END=
