##TITLE=3,3-Dimethyl-1,2-epoxybutane
##JCAMP-DX=4.24
##DATA TYPE=MASS SPECTRUM
##ORIGIN=NIST Mass Spectrometry Data Center
##OWNER=NIST Mass Spectrometry Data Center
Collection (C) 2014 copyright by the U.S. Secretary of Commerce
on behalf of the United States of America. All rights reserved.
##CAS REGISTRY NO=2245-30-9
##$NIST MASS SPEC NO=342328
##MOLFORM=C6 H12 O
##MW=100
##$NIST SOURCE=MSDC
##XUNITS=M/Z
##YUNITS=RELATIVE INTENSITY
##XFACTOR=1
##YFACTOR=1
##FIRSTX=12
##LASTX=99
##FIRSTY=10
##MAXX=99
##MINX=12
##MAXY=9999
##MINY=10
##NPOINTS=41
##PEAK TABLE=(XY..XY)
12,10 13,60 14,310 15,1441
16,30 18,10 26,330 27,2933
28,561 29,4004 30,200 31,120
37,120 38,410 39,3543 40,500
41,3783 42,2642 43,1211 44,30
49,30 50,260 51,330 52,120
53,831 55,9999 56,651 57,1241
58,60 62,10 63,20 65,30
66,10 67,110 70,4694 71,250
72,10 83,20 85,831 86,40
99,10
##END=
