##TITLE=Naphthalene, 1,6,7-trimethyl-
##JCAMP-DX=4.24
##DATA TYPE=MASS SPECTRUM
##ORIGIN=Japan AIST/NIMC Database- Spectrum MS-IW-1413
##OWNER=NIST Mass Spectrometry Data Center
Collection (C) 2014 copyright by the U.S. Secretary of Commerce
on behalf of the United States of America. All rights reserved.
##CAS REGISTRY NO=2245-38-7
##$NIST MASS SPEC NO=229746
##MOLFORM=C13 H14
##MW=170
##$NIST SOURCE=MSDC
##XUNITS=M/Z
##YUNITS=RELATIVE INTENSITY
##XFACTOR=1
##YFACTOR=1
##FIRSTX=27
##LASTX=172
##FIRSTY=20
##MAXX=172
##MINX=27
##MAXY=9999
##MINY=10
##NPOINTS=69
##PEAK TABLE=(XY..XY)
27,20 39,70 41,20 50,30
51,109 52,10 53,20 57,30
58,10 62,30 63,129 64,99
65,40 69,70 70,50 71,90
74,40 75,60 76,249 77,209
78,30 81,40 82,139 83,179
84,209 85,189 86,20 87,30
88,10 89,60 91,40 98,10
99,10 101,20 102,50 103,20
113,20 114,10 115,419 116,50
126,60 127,249 128,559 129,369
130,40 138,10 139,229 140,60
141,279 142,90 143,30 150,60
151,249 152,1119 153,1589 154,759
155,7479 156,999 157,60 163,60
164,80 165,389 166,109 167,319
168,119 169,1689 170,9999 171,1419
172,90
##END=
