##TITLE=2-Heptene, 5-methyl-
##JCAMP-DX=4.24
##DATA TYPE=MASS SPECTRUM
##ORIGIN=NIST Mass Spectrometry Data Center, 1990.
##OWNER=NIST Mass Spectrometry Data Center
Collection (C) 2014 copyright by the U.S. Secretary of Commerce
on behalf of the United States of America. All rights reserved.
##CAS REGISTRY NO=22487-87-2
##$NIST MASS SPEC NO=113480
##MOLFORM=C8 H16
##MW=112
##$NIST SOURCE=MSDC
##XUNITS=M/Z
##YUNITS=RELATIVE INTENSITY
##XFACTOR=1
##YFACTOR=1
##FIRSTX=27
##LASTX=113
##FIRSTY=1944
##MAXX=113
##MINX=27
##MAXY=9999
##MINY=178
##NPOINTS=33
##PEAK TABLE=(XY..XY)
27,1944 28,1246 29,2948 39,3368
40,799 41,8093 42,811 43,456
44,214 50,339 51,652 52,273
53,1440 54,1267 55,7983 56,9999
57,7420 58,317 65,325 66,178
67,1148 68,303 69,714 70,3207
71,378 77,285 79,277 81,228
82,214 83,1563 84,826 112,2964
113,255
##END=
