##TITLE=2H-Isoindole-2-carboxylic acid, 1,3-dihydro-1,3-dioxo-, ethyl ester
##JCAMP-DX=4.24
##DATA TYPE=MASS SPECTRUM
##ORIGIN=NIST Mass Spectrometry Data Center, 1994
##OWNER=NIST Mass Spectrometry Data Center
Collection (C) 2014 copyright by the U.S. Secretary of Commerce
on behalf of the United States of America. All rights reserved.
##CAS REGISTRY NO=22509-74-6
##$NIST MASS SPEC NO=135653
##MOLFORM=C11 H9 N O4
##MW=219
##$NIST SOURCE=MSDC
##XUNITS=M/Z
##YUNITS=RELATIVE INTENSITY
##XFACTOR=1
##YFACTOR=1
##FIRSTX=12
##LASTX=220
##FIRSTY=60
##MAXX=220
##MINX=12
##MAXY=9999
##MINY=5
##NPOINTS=68
##PEAK TABLE=(XY..XY)
12,60 14,129 15,620 16,116
25,57 26,540 27,2695 28,821
29,4267 30,399 32,5 37,313
38,460 39,1440 40,103 42,139
43,284 44,150 49,234 50,3905
51,574 52,281 53,180 61,142
62,368 63,1471 64,1134 65,104
66,218 70,1368 71,58 73,154
74,1152 75,1554 76,5896 77,1479
78,120 87,48 88,112 90,6641
91,597 92,141 102,1112 103,2768
104,3991 105,8923 106,639 117,100
118,442 119,86 130,1609 131,160
132,107 133,191 146,466 147,2891
148,3476 149,409 160,2464 161,323
174,9999 175,5976 176,684 177,83
192,1925 193,194 219,236 220,29
##END=
