##TITLE=Pentafluoroaniline, TMS derivative
##JCAMP-DX=4.24
##DATA TYPE=MASS SPECTRUM
##ORIGIN=J.M. MILLER,BROCK UNIVERSITY,ONTARIO,CANADA
##OWNER=NIST Mass Spectrometry Data Center
Collection (C) 2014 copyright by the U.S. Secretary of Commerce
on behalf of the United States of America. All rights reserved.
##CAS REGISTRY NO=22529-97-1
##$NIST MASS SPEC NO=54109
##MOLFORM=C9 H10 F5 N Si
##MW=255
##$NIST SOURCE=MSDC
##XUNITS=M/Z
##YUNITS=RELATIVE INTENSITY
##XFACTOR=1
##YFACTOR=1
##FIRSTX=31
##LASTX=257
##FIRSTY=1332
##MAXX=257
##MINX=31
##MAXY=9999
##MINY=44
##NPOINTS=83
##PEAK TABLE=(XY..XY)
31,1332 42,266 43,2601 45,1620
47,1706 49,1396 51,362 52,437
55,362 56,181 57,320 58,1833
59,672 63,1151 66,1450 69,1034
70,576 73,9999 74,1045 75,266
77,500 78,48 79,53 81,300
82,44 83,330 85,682 86,362
87,522 91,831 93,1162 94,501
95,224 98,384 99,565 100,469
101,203 105,416 106,810 108,235
111,256 112,224 113,2665 117,1961
120,1002 124,373 127,256 131,650
132,405 133,778 136,1738 137,1023
140,597 143,266 144,2068 145,821
147,1065 148,207 149,102 152,544
155,1876 156,970 157,171 158,1865
159,245 160,192 163,1354 164,330
165,181 168,672 174,224 179,416
182,672 183,7995 184,672 213,192
220,341 240,1450 241,362 242,139
255,6065 256,1802 257,437
##END=
