##TITLE=1-(p-Fluorophenyl)piperazine
##JCAMP-DX=4.24
##DATA TYPE=MASS SPECTRUM
##ORIGIN=NIST Mass Spectrometry Data Center
##OWNER=NIST Mass Spectrometry Data Center
Collection (C) 2014 copyright by the U.S. Secretary of Commerce
on behalf of the United States of America. All rights reserved.
##CAS REGISTRY NO=2252-63-3
##$NIST MASS SPEC NO=343359
##MOLFORM=C10 H13 F N2
##MW=180
##$NIST SOURCE=MSDC
##XUNITS=M/Z
##YUNITS=RELATIVE INTENSITY
##XFACTOR=1
##YFACTOR=1
##FIRSTX=14
##LASTX=182
##FIRSTY=30
##MAXX=182
##MINX=14
##MAXY=9999
##MINY=10
##NPOINTS=103
##PEAK TABLE=(XY..XY)
14,30 15,200 16,10 17,20
18,90 26,90 27,500 28,1832
29,1141 30,741 31,70 32,10
33,20 37,20 38,50 39,140
40,70 41,250 42,571 43,150
44,80 45,30 46,10 49,20
50,230 51,220 52,80 53,20
54,150 56,1371 57,781 58,60
59,20 61,40 62,50 63,130
64,40 65,10 67,10 68,110
69,180 70,70 71,10 74,130
75,921 76,110 77,120 78,20
81,90 82,70 83,240 84,30
85,10 89,50 90,100 91,90
92,20 93,40 95,1842 96,310
97,140 98,10 100,10 101,30
102,20 103,30 104,20 107,40
109,621 110,130 111,40 112,10
116,10 117,40 118,40 119,20
120,40 122,2032 123,1621 124,500
125,130 131,10 134,10 135,80
136,190 138,9999 139,891 140,30
148,50 149,40 150,120 151,20
152,10 162,10 163,10 165,10
175,20 176,10 177,20 178,60
180,2322 181,280 182,10
##END=
