##TITLE=1,3-Oxathiane, 2,4,6-trimethyl-, (2.alpha.,4.alpha.,6.alpha.)-
##JCAMP-DX=4.24
##DATA TYPE=MASS SPECTRUM
##OWNER=NIST Mass Spectrometry Data Center
Collection (C) 2014 copyright by the U.S. Secretary of Commerce
on behalf of the United States of America. All rights reserved.
##CAS REGISTRY NO=22521-88-6
##$NIST MASS SPEC NO=29847
##MOLFORM=C7 H14 O S
##MW=146
##$NIST SOURCE=MSDC
##XUNITS=M/Z
##YUNITS=RELATIVE INTENSITY
##XFACTOR=1
##YFACTOR=1
##FIRSTX=41
##LASTX=148
##FIRSTY=603
##MAXX=148
##MINX=41
##MAXY=9999
##MINY=201
##NPOINTS=26
##PEAK TABLE=(XY..XY)
41,603 42,603 43,678 44,729
45,201 59,327 60,8969 61,2311
62,703 67,754 68,1834 69,7235
70,1507 73,678 74,1005 86,1583
102,6482 103,754 104,553 113,201
131,6080 132,553 133,301 146,9999
147,879 148,502
##END=
