##TITLE=meso-3,4-Hexanediol
##JCAMP-DX=4.24
##DATA TYPE=MASS SPECTRUM
##ORIGIN=R.ERRA BALSELLS,DEP. QUIM. ORG.,CITY UNIV. BUENOS AIRES,ARGENT
##OWNER=NIST Mass Spectrometry Data Center
Collection (C) 2014 copyright by the U.S. Secretary of Commerce
on behalf of the United States of America. All rights reserved.
##CAS REGISTRY NO=22520-39-4
##$NIST MASS SPEC NO=99068
##MOLFORM=C6 H14 O2
##MW=118
##$NIST SOURCE=MSDC
##XUNITS=M/Z
##YUNITS=RELATIVE INTENSITY
##XFACTOR=1
##YFACTOR=1
##FIRSTX=27
##LASTX=71
##FIRSTY=2000
##MAXX=71
##MINX=27
##MAXY=9999
##MINY=200
##NPOINTS=11
##PEAK TABLE=(XY..XY)
27,2000 29,1800 30,600 41,3100
43,2100 55,900 57,1300 58,4000
59,9999 69,800 71,200
##END=
