##TITLE=Isopropyl isothiocyanate
##JCAMP-DX=4.24
##DATA TYPE=MASS SPECTRUM
##ORIGIN=NIST Mass Spectrometry Data Center
##OWNER=NIST Mass Spectrometry Data Center
Collection (C) 2014 copyright by the U.S. Secretary of Commerce
on behalf of the United States of America. All rights reserved.
##CAS REGISTRY NO=2253-73-8
##$NIST MASS SPEC NO=342688
##MOLFORM=C4 H7 N S
##MW=101
##$NIST SOURCE=MSDC
##XUNITS=M/Z
##YUNITS=RELATIVE INTENSITY
##XFACTOR=1
##YFACTOR=1
##FIRSTX=12
##LASTX=104
##FIRSTY=50
##MAXX=104
##MINX=12
##MAXY=9999
##MINY=10
##NPOINTS=60
##PEAK TABLE=(XY..XY)
12,50 13,70 14,270 15,1221
16,30 18,10 24,10 25,110
26,871 27,4864 28,851 30,10
32,821 33,80 34,60 36,50
37,360 38,731 39,3193 40,941
41,7247 42,3113 43,4844 44,631
45,370 46,80 47,30 48,10
49,10 50,40 51,200 52,230
53,10 54,40 55,20 56,90
57,370 58,1121 59,2072 60,2652
61,160 62,150 63,10 64,20
68,30 70,520 71,220 72,651
73,30 82,40 83,80 84,330
86,2853 87,120 88,130 98,10
101,9999 102,540 103,420 104,20
##END=
