##TITLE=Sulfide, bis(2-chloropropyl)
##JCAMP-DX=4.24
##DATA TYPE=MASS SPECTRUM
##ORIGIN=A.A.Kutin, Moscow, Russia
##OWNER=NIST Mass Spectrometry Data Center
Collection (C) 2014 copyright by the U.S. Secretary of Commerce
on behalf of the United States of America. All rights reserved.
##CAS REGISTRY NO=22535-54-2
##$NIST MASS SPEC NO=273273
##MOLFORM=C6 H12 Cl2 S
##MW=186
##$NIST SOURCE=MSDC
##XUNITS=M/Z
##YUNITS=RELATIVE INTENSITY
##XFACTOR=1
##YFACTOR=1
##FIRSTX=8
##LASTX=190
##FIRSTY=170
##MAXX=190
##MINX=8
##MAXY=9999
##MINY=130
##NPOINTS=60
##PEAK TABLE=(XY..XY)
8,170 26,200 27,1651 36,480
37,240 39,3243 41,9999 42,1151
44,180 45,2873 46,1491 47,3443
48,170 49,681 53,180 57,150
58,240 59,991 60,190 61,1231
63,500 65,170 69,180 71,370
72,260 73,951 74,1832 75,2392
76,611 77,3813 78,220 79,1171
81,510 83,240 85,240 87,3773
89,250 95,440 97,230 101,430
109,130 110,2002 111,260 112,721
115,390 123,9499 124,540 125,3763
126,210 137,1611 139,771 150,280
151,1381 152,230 153,470 186,2913
187,200 188,2202 189,200 190,390
##END=
