##TITLE=3,4-Furandiol, tetrahydro-, trans-
##JCAMP-DX=4.24
##DATA TYPE=MASS SPECTRUM
##ORIGIN=Chuck Anderson, Aldrich Chemical Co.
##OWNER=NIST Mass Spectrometry Data Center
Collection (C) 2014 copyright by the U.S. Secretary of Commerce
on behalf of the United States of America. All rights reserved.
##CAS REGISTRY NO=22554-74-1
##$NIST MASS SPEC NO=108477
##MOLFORM=C4 H8 O3
##MW=104
##$NIST SOURCE=MSDC
##XUNITS=M/Z
##YUNITS=RELATIVE INTENSITY
##XFACTOR=1
##YFACTOR=1
##FIRSTX=14
##LASTX=86
##FIRSTY=181
##MAXX=86
##MINX=14
##MAXY=9999
##MINY=26
##NPOINTS=31
##PEAK TABLE=(XY..XY)
14,181 15,972 18,152 19,833
26,426 27,1427 28,2654 29,3394
30,401 31,2345 32,187 36,489
38,241 39,277 41,196 42,887
43,5709 44,9999 45,2438 46,120
47,316 55,2438 56,1728 57,941
58,156 60,1789 61,3981 69,26
73,1188 74,640 86,152
##END=
