##TITLE=2H-Pyran-3-ol, tetrahydro-2,2,6-trimethyl-6-(4-methyl-3-cyclohexen-1-yl)-, [3S-[3.alpha.,6.alpha.(R*)]]-
##JCAMP-DX=4.24
##DATA TYPE=MASS SPECTRUM
##ORIGIN=NIST Mass Spectrometry Data Center, 2010
##OWNER=NIST Mass Spectrometry Data Center
Collection (C) 2014 copyright by the U.S. Secretary of Commerce
on behalf of the United States of America. All rights reserved.
##CAS REGISTRY NO=22567-36-8
##$NIST MASS SPEC NO=384031
##MOLFORM=C15 H26 O2
##MW=238
##$NIST SOURCE=MSDC
##XUNITS=M/Z
##YUNITS=RELATIVE INTENSITY
##XFACTOR=1
##YFACTOR=1
##FIRSTX=15
##LASTX=238
##FIRSTY=20
##MAXX=238
##MINX=15
##MAXY=9999
##MINY=10
##NPOINTS=140
##PEAK TABLE=(XY..XY)
15,20 26,10 27,260 28,50
29,460 30,10 31,200 38,10
39,571 40,200 41,1611 42,210
43,5235 44,440 45,190 46,10
50,30 51,140 52,90 53,1021
54,130 55,1702 56,120 57,641
58,100 59,1982 60,60 61,20
62,10 63,40 64,10 65,390
66,160 67,2352 68,2402 69,601
70,90 71,2742 72,420 73,651
74,60 75,10 77,1101 78,250
79,1651 80,691 81,1361 82,220
83,961 84,200 85,1591 86,160
87,50 88,10 89,20 91,1241
92,1441 93,3914 94,1842 95,1271
96,120 97,731 98,70 99,170
100,20 101,20 102,731 103,200
104,40 105,851 106,270 107,2722
108,561 109,230 110,50 111,90
112,10 113,30 115,70 116,20
117,100 118,50 119,1001 120,320
121,2452 122,390 123,150 125,3513
126,330 127,240 128,30 129,50
130,10 131,260 132,1822 133,470
134,1702 135,290 136,691 137,260
138,110 139,200 140,20 141,20
143,9999 144,871 145,310 146,80
147,150 148,60 149,60 150,10
151,30 152,20 155,20 158,10
159,210 160,40 161,60 162,50
163,20 165,10 173,10 174,10
177,30 178,20 179,180 180,210
181,30 187,60 188,10 202,40
203,10 205,50 206,10 220,60
221,10 223,50 224,10 238,20
##END=
