##TITLE=Azulene, 1,2,3,3a,4,5,6,7-octahydro-1,4-dimethyl-7-(1-methylethenyl)-, [1R-(1.alpha.,3a.beta.,4.alpha.,7.beta.)]-
##JCAMP-DX=4.24
##DATA TYPE=MASS SPECTRUM
##OWNER=NIST Mass Spectrometry Data Center
Collection (C) 2014 copyright by the U.S. Secretary of Commerce
on behalf of the United States of America. All rights reserved.
##CAS REGISTRY NO=22567-17-5
##$NIST MASS SPEC NO=9243
##MOLFORM=C15 H24
##MW=204
##$NIST SOURCE=MSDC
##XUNITS=M/Z
##YUNITS=RELATIVE INTENSITY
##XFACTOR=1
##YFACTOR=1
##FIRSTX=27
##LASTX=206
##FIRSTY=1912
##MAXX=206
##MINX=27
##MAXY=9999
##MINY=40
##NPOINTS=129
##PEAK TABLE=(XY..XY)
27,1912 28,430 29,2462 30,70
32,70 37,40 38,90 39,2783
40,460 41,7247 42,591 43,1982
44,90 46,130 47,761 48,370
49,2332 50,260 51,761 52,370
53,2332 54,260 55,4964 56,611
57,781 58,130 59,70 62,70
63,300 64,200 65,1481 66,430
67,3373 68,520 69,2412 70,220
71,220 72,110 73,90 74,90
75,170 76,110 77,3393 78,1001
79,5245 80,1301 81,9749 82,1091
83,571 84,90 85,70 86,70
87,70 88,90 89,170 90,90
91,6546 92,1281 93,6266 94,1832
95,3173 96,480 97,240 101,70
102,110 103,571 104,330 105,8137
106,2042 107,9208 108,3263 109,2853
110,460 111,70 115,761 116,370
117,1071 118,350 119,5155 120,2092
121,6396 122,5155 123,1221 124,130
127,260 128,430 129,390 130,220
131,851 132,260 133,4154 134,1672
135,1481 136,480 137,90 141,110
142,110 143,110 144,90 145,520
146,260 147,4094 148,2042 149,1371
150,200 151,40 157,70 158,40
159,260 160,220 161,9999 162,2132
163,410 164,70 173,70 174,90
175,1481 176,611 177,110 187,70
188,90 189,4804 190,721 191,70
202,90 203,130 204,5965 205,981
206,90
##END=
