##TITLE=Hydrazine, (1-methylethyl)-
##JCAMP-DX=4.24
##DATA TYPE=MASS SPECTRUM
##ORIGIN=ATLAS OF MASS SPECTRA OF ORGANIC COMPOUNDS, V. A. KOPTYUG, ED.
##OWNER=NIST Mass Spectrometry Data Center
Collection (C) 2014 copyright by the U.S. Secretary of Commerce
on behalf of the United States of America. All rights reserved.
##CAS REGISTRY NO=2257-52-5
##$NIST MASS SPEC NO=64413
##MOLFORM=C3 H10 N2
##MW=74
##$NIST SOURCE=MSDC
##XUNITS=M/Z
##YUNITS=RELATIVE INTENSITY
##XFACTOR=1
##YFACTOR=1
##FIRSTX=26
##LASTX=75
##FIRSTY=190
##MAXX=75
##MINX=26
##MAXY=9999
##MINY=130
##NPOINTS=24
##PEAK TABLE=(XY..XY)
26,190 27,1870 28,510 29,640
30,900 31,2380 32,6610 33,130
38,130 39,870 40,270 41,2200
42,3560 43,1510 44,220 45,290
56,510 57,130 58,150 59,9999
60,320 73,170 74,3400 75,270
##END=
