##TITLE=p-tert-Butylpivalophenone
##JCAMP-DX=4.24
##DATA TYPE=MASS SPECTRUM
##ORIGIN=NIST Mass Spectrometry Data Center, 1994
##OWNER=NIST Mass Spectrometry Data Center
Collection (C) 2014 copyright by the U.S. Secretary of Commerce
on behalf of the United States of America. All rights reserved.
##CAS REGISTRY NO=22583-66-0
##$NIST MASS SPEC NO=135787
##MOLFORM=C15 H22 O
##MW=218
##$NIST SOURCE=MSDC
##XUNITS=M/Z
##YUNITS=RELATIVE INTENSITY
##XFACTOR=1
##YFACTOR=1
##FIRSTX=4
##LASTX=219
##FIRSTY=19
##MAXX=219
##MINX=4
##MAXY=9999
##MINY=3
##NPOINTS=93
##PEAK TABLE=(XY..XY)
4,19 5,6 12,8 14,24
15,220 16,12 17,3 18,26
26,8 27,391 28,128 29,1239
30,17 39,848 41,2007 42,128
43,59 50,185 51,357 52,80
53,138 55,249 57,1158 58,117
62,29 63,135 64,58 65,230
66,33 67,19 69,31 70,11
71,38 72,58 73,9 75,72
76,192 77,552 78,206 79,124
80,21 83,7 86,11 87,15
88,18 89,187 90,354 91,1014
92,106 93,85 94,16 101,26
102,130 103,343 104,86 105,432
106,44 107,23 113,10 115,568
116,150 117,561 118,1064 119,166
120,14 126,6 127,27 128,56
129,44 130,18 131,128 132,29
133,196 134,25 141,14 143,11
145,188 146,859 147,211 148,18
153,5 157,9 158,12 161,9999
162,1252 163,100 164,6 175,184
176,23 203,61 204,13 218,53
219,8
##END=
