##TITLE=Cyclothiazide
##JCAMP-DX=4.24
##DATA TYPE=MASS SPECTRUM
##ORIGIN=R.E.Ardrey ET AL.Pharmaceutical Mass Spectra,L.,1985
##OWNER=NIST Mass Spectrometry Data Center
Collection (C) 2014 copyright by the U.S. Secretary of Commerce
on behalf of the United States of America. All rights reserved.
##CAS REGISTRY NO=2259-96-3
##$NIST MASS SPEC NO=298640
##MOLFORM=C14 H16 Cl N3 O4 S2
##MW=389
##$NIST SOURCE=MSDC
##XUNITS=M/Z
##YUNITS=RELATIVE INTENSITY
##XFACTOR=1
##YFACTOR=1
##FIRSTX=37
##LASTX=391
##FIRSTY=400
##MAXX=391
##MINX=37
##MAXY=9999
##MINY=100
##NPOINTS=107
##PEAK TABLE=(XY..XY)
37,400 38,601 39,2803 40,2102
41,601 43,601 48,200 50,100
51,200 52,500 54,200 55,100
56,701 58,300 60,100 61,400
62,801 63,901 64,801 65,2502
66,9999 67,300 73,200 74,200
75,200 76,100 77,1001 78,701
79,801 80,300 81,100 88,200
89,300 90,400 97,300 98,100
100,100 101,100 103,300 104,901
106,100 109,100 110,100 112,100
113,200 114,300 116,100 117,300
118,1001 119,200 120,7807 121,801
124,601 125,801 126,400 127,200
131,100 132,100 134,100 140,300
142,300 143,200 144,200 156,200
157,300 158,300 159,100 160,100
172,100 188,200 189,100 190,200
204,100 205,1201 206,500 207,400
208,100 221,901 223,300 232,100
242,100 243,200 244,100 253,100
257,100 258,100 259,200 268,601
269,1301 270,400 271,601 285,901
286,100 287,400 296,701 297,100
298,300 307,300 308,200 309,200
310,300 311,100 322,100 324,601
389,500 390,100 391,200
##END=
