##TITLE=Phosphorodithioic acid, O,S,S-trimethyl ester
##JCAMP-DX=4.24
##DATA TYPE=MASS SPECTRUM
##ORIGIN=E.SANTORO MONTECATINI EDISON RES. CENTRE, MILAN, ITALY
##OWNER=NIST Mass Spectrometry Data Center
Collection (C) 2014 copyright by the U.S. Secretary of Commerce
on behalf of the United States of America. All rights reserved.
##CAS REGISTRY NO=22608-53-3
##$NIST MASS SPEC NO=38731
##MOLFORM=C3 H9 O2 P S2
##MW=172
##$NIST SOURCE=MSDC
##XUNITS=M/Z
##YUNITS=RELATIVE INTENSITY
##XFACTOR=1
##YFACTOR=1
##FIRSTX=15
##LASTX=172
##FIRSTY=810
##MAXX=172
##MINX=15
##MAXY=9999
##MINY=200
##NPOINTS=22
##PEAK TABLE=(XY..XY)
15,810 31,590 44,1010 45,3980
46,2410 47,8930 48,2770 61,680
62,1300 63,500 64,290 77,380
79,9710 94,1460 95,650 111,200
125,9999 126,4480 141,1350 142,680
157,1250 172,5980
##END=
