##TITLE=Chromium, tetracarbonylbis(phosphorous acid)-, hexamethyl ester
##JCAMP-DX=4.24
##DATA TYPE=MASS SPECTRUM
##ORIGIN=D.HENNEBERG, MAX-PLANCK INSTITUTE, MULHEIM, WEST GERMANY
##OWNER=NIST Mass Spectrometry Data Center
Collection (C) 2014 copyright by the U.S. Secretary of Commerce
on behalf of the United States of America. All rights reserved.
##CAS REGISTRY NO=22614-53-5
##$NIST MASS SPEC NO=61208
##MOLFORM=C10 H18 Cr O10 P2
##MW=412
##$NIST SOURCE=MSDC
##XUNITS=M/Z
##YUNITS=RELATIVE INTENSITY
##XFACTOR=1
##YFACTOR=1
##FIRSTX=26
##LASTX=414
##FIRSTY=64
##MAXX=414
##MINX=26
##MAXY=9999
##MINY=3
##NPOINTS=230
##PEAK TABLE=(XY..XY)
26,64 28,2221 29,109 30,58
31,82 32,17 33,6 34,4
36,4 39,19 40,8 41,63
42,18 43,89 44,38 45,108
46,3 47,160 48,20 49,10
50,14 51,7 52,311 53,34
54,9 55,53 56,53 57,121
58,20 59,6 60,3 61,6
62,60 63,511 64,8 65,8
66,7 67,12 68,7 69,35
70,34 71,47 72,5 73,4
74,4 77,24 78,10 79,159
80,8 81,16 82,53 83,57
84,19 85,31 86,4 89,3
91,15 92,12 93,1829 94,288
95,20 96,6 97,13 98,8
99,10 100,3 101,91 102,13
103,16 104,11 105,20 106,5
107,4 109,446 110,23 111,11
112,32 113,27 114,131 115,97
116,67 117,9 119,9 120,7
121,8 122,4 123,4 124,355
125,14 126,6 127,6 128,17
129,62 130,406 131,619 132,76
133,21 134,5 135,3 140,3
141,3 143,26 144,23 145,375
146,452 147,114 148,28 149,35
150,123 151,11 152,5 155,3
158,3 159,69 160,38 161,998
162,140 163,44 164,3 167,13
168,3 169,3 170,3 171,3
173,27 174,408 175,268 176,8170
177,1896 178,401 179,43 180,7
188,3 189,9 190,11 191,28
192,117 193,63 194,25 195,4
200,3 201,4 202,9 204,137
205,104 206,28 207,1603 208,259
209,101 210,6 213,4 221,16
222,7 223,34 224,55 225,42
226,11 232,8 235,3 236,3
237,28 238,55 239,515 240,91
241,24 252,12 253,5 254,152
255,87 256,18 257,5 260,3
266,8 267,59 268,27 269,1188
270,195 271,61 272,8 282,3
283,16 285,286 286,47 287,16
294,5 295,3 296,4 297,30
298,519 299,45 300,9999 301,1842
302,490 303,43 304,6 313,3
314,5 316,9 322,6 323,22
324,3 325,351 326,87 327,32
328,363 329,83 330,20 331,3
350,3 351,16 352,4 353,239
354,61 355,19 356,211 357,44
358,19 379,55 380,10 381,1143
382,238 383,71 384,99 385,25
386,7 410,83 411,8 412,1689
413,378 414,109
##END=
