##TITLE=Isobutyl ethylphosphonofluoridate
##JCAMP-DX=4.24
##DATA TYPE=MASS SPECTRUM
##ORIGIN=VERIFIN - Methodology B1-1979
##OWNER=NIST Mass Spectrometry Data Center
Collection (C) 2014 copyright by the U.S. Secretary of Commerce
on behalf of the United States of America. All rights reserved.
##CAS REGISTRY NO=2261-83-8
##$NIST MASS SPEC NO=226135
##MOLFORM=C6 H14 F O2 P
##MW=168
##$NIST SOURCE=MSDC
##XUNITS=M/Z
##YUNITS=RELATIVE INTENSITY
##XFACTOR=1
##YFACTOR=1
##FIRSTX=27
##LASTX=153
##FIRSTY=200
##MAXX=153
##MINX=27
##MAXY=9999
##MINY=50
##NPOINTS=28
##PEAK TABLE=(XY..XY)
27,200 29,400 39,300 40,50
41,1101 42,80 43,400 55,300
56,800 57,300 67,400 68,100
73,60 84,300 85,300 93,70
95,400 96,1401 97,80 98,2602
111,200 112,400 113,9999 114,200
125,600 126,4203 127,300 153,200
##END=
