##TITLE=Phenol, 3,4-dimethyl-, acetate
##JCAMP-DX=4.24
##DATA TYPE=MASS SPECTRUM
##ORIGIN=Japan AIST/NIMC Database- Spectrum MS-NW-8418
##OWNER=NIST Mass Spectrometry Data Center
Collection (C) 2014 copyright by the U.S. Secretary of Commerce
on behalf of the United States of America. All rights reserved.
##CAS REGISTRY NO=22618-23-1
##$NIST MASS SPEC NO=241561
##MOLFORM=C10 H12 O2
##MW=164
##$NIST SOURCE=MSDC
##XUNITS=M/Z
##YUNITS=RELATIVE INTENSITY
##XFACTOR=1
##YFACTOR=1
##FIRSTX=14
##LASTX=165
##FIRSTY=40
##MAXX=165
##MINX=14
##MAXY=9999
##MINY=10
##NPOINTS=66
##PEAK TABLE=(XY..XY)
14,40 15,289 17,10 18,40
26,20 27,309 28,90 29,30
30,10 37,10 38,60 39,549
40,90 41,279 42,90 43,1589
44,40 45,20 50,129 51,389
52,219 53,349 54,30 55,90
60,10 61,10 62,40 63,149
64,40 65,339 66,80 67,70
68,10 74,20 75,20 76,20
77,1159 78,299 79,379 80,30
81,30 87,10 89,40 90,10
91,749 92,109 93,179 94,129
95,20 102,20 103,119 104,109
105,139 106,20 107,5989 108,469
109,20 119,40 120,119 121,1999
122,9999 123,889 124,50 135,10
164,879 165,99
##END=
