##TITLE=Pentanoic acid, 2-propyl-, methyl ester
##JCAMP-DX=4.24
##DATA TYPE=MASS SPECTRUM
##ORIGIN=D.HENNEBERG, MAX-PLANCK INSTITUTE, MULHEIM, WEST GERMANY
##OWNER=NIST Mass Spectrometry Data Center
Collection (C) 2014 copyright by the U.S. Secretary of Commerce
on behalf of the United States of America. All rights reserved.
##CAS REGISTRY NO=22632-59-3
##$NIST MASS SPEC NO=62447
##MOLFORM=C9 H18 O2
##MW=158
##$NIST SOURCE=MSDC
##XUNITS=M/Z
##YUNITS=RELATIVE INTENSITY
##XFACTOR=1
##YFACTOR=1
##FIRSTX=26
##LASTX=130
##FIRSTY=210
##MAXX=130
##MINX=26
##MAXY=9999
##MINY=130
##NPOINTS=40
##PEAK TABLE=(XY..XY)
26,210 27,2665 28,611 29,2254
30,160 31,290 39,1262 40,240
41,2805 42,651 43,2054 45,390
51,180 53,270 54,210 55,2995
56,621 57,4008 58,260 59,1132
65,190 66,190 67,300 69,581
70,270 73,400 74,210 83,501
84,260 87,9999 88,1005 97,210
99,400 101,190 115,1022 116,4378
117,370 127,591 129,911 130,130
##END=
