##TITLE=Spiro[3.3]hepta-1,5-diene
##JCAMP-DX=4.24
##DATA TYPE=MASS SPECTRUM
##OWNER=NIST Mass Spectrometry Data Center
Collection (C) 2014 copyright by the U.S. Secretary of Commerce
on behalf of the United States of America. All rights reserved.
##CAS REGISTRY NO=22635-78-5
##$NIST MASS SPEC NO=29594
##MOLFORM=C7 H8
##MW=92
##$NIST SOURCE=MSDC
##XUNITS=M/Z
##YUNITS=RELATIVE INTENSITY
##XFACTOR=1
##YFACTOR=1
##FIRSTX=26
##LASTX=93
##FIRSTY=100
##MAXX=93
##MINX=26
##MAXY=9999
##MINY=70
##NPOINTS=28
##PEAK TABLE=(XY..XY)
26,100 27,390 31,210 37,140
38,330 39,1700 40,550 41,180
43,100 45,180 50,290 51,520
52,210 53,230 58,100 61,120
62,250 63,560 64,160 65,1750
66,730 77,120 86,130 89,220
90,100 91,9999 92,3100 93,70
##END=
