##TITLE=4-tert-Butyl-benzophenone
##JCAMP-DX=4.24
##DATA TYPE=MASS SPECTRUM
##ORIGIN=NIST Mass Spectrometry Data Center
##OWNER=NIST Mass Spectrometry Data Center
Collection (C) 2014 copyright by the U.S. Secretary of Commerce
on behalf of the United States of America. All rights reserved.
##CAS REGISTRY NO=22679-54-5
##$NIST MASS SPEC NO=343200
##MOLFORM=C17 H18 O
##MW=238
##$NIST SOURCE=MSDC
##XUNITS=M/Z
##YUNITS=RELATIVE INTENSITY
##XFACTOR=1
##YFACTOR=1
##FIRSTX=15
##LASTX=240
##FIRSTY=110
##MAXX=240
##MINX=15
##MAXY=9999
##MINY=10
##NPOINTS=110
##PEAK TABLE=(XY..XY)
15,110 17,10 18,30 27,230
28,20 29,220 39,591 40,70
41,661 42,30 43,20 44,10
50,420 51,1361 52,160 53,120
55,80 57,160 58,10 62,50
63,250 64,50 65,240 66,30
67,10 74,100 75,190 76,510
77,4714 78,490 79,70 82,80
86,20 87,40 88,40 89,290
90,380 91,761 92,70 93,30
94,10 97,30 98,10 99,10
101,60 102,220 103,340 105,5375
106,420 107,20 112,40 113,20
115,801 116,170 117,450 118,621
119,100 125,10 126,40 127,40
128,60 129,30 131,70 132,20
133,50 139,30 141,10 145,400
146,240 147,20 150,40 151,90
152,310 153,80 154,30 155,60
156,10 159,20 161,1181 162,150
163,30 165,350 166,110 167,901
168,130 169,10 176,40 177,30
178,190 179,120 180,70 181,150
182,20 189,20 190,10 193,20
195,711 196,110 197,10 207,40
208,30 209,20 220,30 223,9999
224,1631 225,170 236,20 238,3213
239,591 240,50
##END=
