##TITLE=Pregn-4-ene-3,20-dione, 11.alpha.-hydroxy-, acetate
##JCAMP-DX=4.24
##DATA TYPE=MASS SPECTRUM
##ORIGIN=V.G.Zaikin, TIPS, Russian Acad. Sci.
##OWNER=NIST Mass Spectrometry Data Center
Collection (C) 2014 copyright by the U.S. Secretary of Commerce
on behalf of the United States of America. All rights reserved.
##CAS REGISTRY NO=2268-98-6
##$NIST MASS SPEC NO=215577
##MOLFORM=C23 H32 O4
##MW=372
##$NIST SOURCE=MSDC
##XUNITS=M/Z
##YUNITS=RELATIVE INTENSITY
##XFACTOR=1
##YFACTOR=1
##FIRSTX=51
##LASTX=374
##FIRSTY=120
##MAXX=374
##MINX=51
##MAXY=9999
##MINY=20
##NPOINTS=175
##PEAK TABLE=(XY..XY)
51,120 52,120 53,820 54,200
55,2522 56,390 57,780 58,190
59,110 60,260 65,410 66,220
67,1521 68,290 69,1070 70,220
71,1181 72,80 77,1431 78,360
79,2091 80,370 81,1861 82,290
83,550 84,370 85,750 91,2622
92,510 93,1611 94,460 95,1601
96,390 97,660 98,150 99,80
103,250 104,180 105,2061 106,580
107,1401 108,520 109,1321 110,540
111,390 112,130 113,120 115,440
116,220 117,730 118,250 119,1601
120,590 121,1381 122,1991 123,2101
124,2802 125,510 127,80 128,250
129,550 130,290 131,1221 132,430
133,1101 134,570 135,730 136,520
137,1101 138,480 139,60 141,180
142,520 143,640 144,320 145,1681
146,520 147,1581 148,970 149,870
150,90 151,80 155,200 156,110
157,390 158,150 159,610 160,290
161,780 162,430 163,1321 164,220
165,90 169,230 170,180 171,460
172,190 173,650 174,760 175,860
176,410 177,180 178,40 179,120
181,80 182,40 183,200 184,110
185,460 186,300 187,330 188,330
189,900 190,400 191,290 192,80
193,50 194,80 196,220 197,180
198,80 199,410 200,120 201,60
202,80 203,80 209,370 210,80
211,250 212,80 213,230 214,50
215,40 216,50 223,90 224,60
225,200 226,220 227,1711 228,400
229,230 230,60 237,110 239,200
241,390 242,820 243,250 244,110
251,400 252,120 253,220 254,270
256,220 269,1111 270,610 271,120
272,300 279,250 284,520 285,180
290,190 294,620 295,260 296,130
297,1080 298,250 302,270 312,9999
313,2061 314,430 330,900 331,200
372,720 373,181 374,20
##END=
