##TITLE=1,3-Dichloro-2-fluorobenzene
##JCAMP-DX=4.24
##DATA TYPE=MASS SPECTRUM
##ORIGIN=NIST Mass Spectrometry Data Center, 1994
##OWNER=NIST Mass Spectrometry Data Center
Collection (C) 2014 copyright by the U.S. Secretary of Commerce
on behalf of the United States of America. All rights reserved.
##CAS REGISTRY NO=2268-05-5
##$NIST MASS SPEC NO=134478
##MOLFORM=C6 H3 Cl2 F
##MW=164
##$NIST SOURCE=MSDC
##XUNITS=M/Z
##YUNITS=RELATIVE INTENSITY
##XFACTOR=1
##YFACTOR=1
##FIRSTX=24
##LASTX=169
##FIRSTY=29
##MAXX=169
##MINX=24
##MAXY=9999
##MINY=1
##NPOINTS=86
##PEAK TABLE=(XY..XY)
24,29 25,60 26,154 29,27
31,730 32,1 33,40 34,1
35,521 36,287 37,1004 38,408
39,131 44,49 47,330 48,151
49,501 50,981 51,136 55,139
56,256 57,129 59,29 60,311
61,817 62,738 63,610 64,639
65,169 66,39 67,29 68,1391
69,422 70,53 71,109 72,286
73,796 74,1686 75,561 76,37
78,48 79,51 80,79 81,113
82,656 83,458 84,475 85,138
86,144 87,54 90,65 91,254
92,660 93,1835 94,1057 95,112
96,121 97,230 98,55 99,71
102,111 103,246 104,187 105,90
106,61 107,55 108,55 109,1289
110,135 111,409 115,45 117,34
127,106 128,696 129,4133 130,488
131,1281 132,71 133,39 138,52
164,9999 165,762 166,6146 167,443
168,945 169,72
##END=
