##TITLE=1H-Isoindole-1,3(2H)-dione, 2-(2-chlorophenyl)-
##JCAMP-DX=4.24
##DATA TYPE=MASS SPECTRUM
##ORIGIN=J.L.COTTER MINISTRY OF AVIATION SUPPLY, RAE, FARNBOROUGH, UK
##OWNER=NIST Mass Spectrometry Data Center
Collection (C) 2014 copyright by the U.S. Secretary of Commerce
on behalf of the United States of America. All rights reserved.
##CAS REGISTRY NO=22698-95-9
##$NIST MASS SPEC NO=12520
##MOLFORM=C14 H8 Cl N O2
##MW=257
##$NIST SOURCE=MSDC
##XUNITS=M/Z
##YUNITS=RELATIVE INTENSITY
##XFACTOR=1
##YFACTOR=1
##FIRSTX=38
##LASTX=259
##FIRSTY=100
##MAXX=259
##MINX=38
##MAXY=9999
##MINY=100
##NPOINTS=35
##PEAK TABLE=(XY..XY)
38,100 39,100 50,600 51,100
62,100 63,200 64,100 65,100
74,200 75,400 76,1800 77,200
90,100 97,100 104,600 110,100
111,100 125,100 127,300 129,100
139,200 140,100 151,100 166,300
167,100 178,200 193,100 194,300
213,100 222,9999 223,1300 224,100
257,300 258,100 259,100
##END=
