##TITLE=Anthra(1,2-b)thiophene
##JCAMP-DX=4.24
##DATA TYPE=MASS SPECTRUM
##ORIGIN=Organic Synthesis Lab, MSU, Moscow.TRC 346
##OWNER=NIST Mass Spectrometry Data Center
Collection (C) 2014 copyright by the U.S. Secretary of Commerce
on behalf of the United States of America. All rights reserved.
##CAS REGISTRY NO=227-86-1
##$NIST MASS SPEC NO=326063
##MOLFORM=C16 H10 S
##MW=234
##$NIST SOURCE=MSDC
##XUNITS=M/Z
##YUNITS=RELATIVE INTENSITY
##XFACTOR=1
##YFACTOR=1
##FIRSTX=40
##LASTX=236
##FIRSTY=80
##MAXX=236
##MINX=40
##MAXY=9999
##MINY=40
##NPOINTS=46
##PEAK TABLE=(XY..XY)
40,80 44,40 74,40 86,40
87,70 91,80 98,60 100,40
101,40 103,140 104,361 110,50
111,40 115,100 116,531 117,1272
137,60 139,90 149,50 150,100
151,50 161,70 162,130 163,341
164,130 165,70 174,70 175,40
176,90 179,90 186,90 187,551
188,351 189,1072 190,160 198,50
199,50 201,160 202,511 203,90
208,190 228,60 232,952 234,9999
235,1763 236,601
##END=
