##TITLE=6-Octenoic acid, 3,7-dimethyl-, methyl ester
##JCAMP-DX=4.24
##DATA TYPE=MASS SPECTRUM
##ORIGIN=NIST Mass Spectrometry Data Center
##OWNER=NIST Mass Spectrometry Data Center
Collection (C) 2014 copyright by the U.S. Secretary of Commerce
on behalf of the United States of America. All rights reserved.
##CAS REGISTRY NO=2270-60-2
##$NIST MASS SPEC NO=413759
##MOLFORM=C11 H20 O2
##MW=184
##$NIST SOURCE=MSDC
##XUNITS=M/Z
##YUNITS=RELATIVE INTENSITY
##XFACTOR=1
##YFACTOR=1
##FIRSTX=29
##LASTX=184
##FIRSTY=1241
##MAXX=184
##MINX=29
##MAXY=9999
##MINY=90
##NPOINTS=35
##PEAK TABLE=(XY..XY)
29,1241 30,90 39,2562 41,8247
42,1141 45,350 53,1651 54,821
55,4824 56,1501 67,2512 68,1561
69,9999 73,1421 74,1762 75,260
81,1281 82,2432 86,220 87,811
94,1561 95,4044 96,881 101,781
109,2172 110,4154 111,871 112,450
113,170 114,210 124,170 137,330
152,1882 153,510 184,370
##END=
