##TITLE=5-Bromo-2-methyl-2-pentene
##JCAMP-DX=4.24
##DATA TYPE=MASS SPECTRUM
##ORIGIN=Chuck Anderson, Aldrich Chemical Co.
##OWNER=NIST Mass Spectrometry Data Center
Collection (C) 2014 copyright by the U.S. Secretary of Commerce
on behalf of the United States of America. All rights reserved.
##CAS REGISTRY NO=2270-59-9
##$NIST MASS SPEC NO=108101
##MOLFORM=C6 H11 Br
##MW=162
##$NIST SOURCE=MSDC
##XUNITS=M/Z
##YUNITS=RELATIVE INTENSITY
##XFACTOR=1
##YFACTOR=1
##FIRSTX=13
##LASTX=166
##FIRSTY=1
##MAXX=166
##MINX=13
##MAXY=9999
##MINY=1
##NPOINTS=97
##PEAK TABLE=(XY..XY)
13,1 14,6 15,54 24,2
25,9 26,200 27,2042 28,411
29,1348 30,30 31,12 32,15
33,5 34,1 35,4 36,26
37,163 38,483 39,4023 40,716
41,9999 42,480 43,853 44,30
45,1 48,3 49,33 50,301
51,482 52,215 53,1196 54,232
55,7407 56,563 57,24 58,1
60,5 61,37 62,82 63,137
64,28 65,373 66,123 67,1219
68,259 69,5243 70,264 71,7
72,1 73,7 74,22 75,8
76,3 77,98 78,18 79,281
80,50 81,240 82,161 83,9145
84,548 85,16 91,10 92,8
93,144 94,11 95,139 96,4
104,3 105,12 106,15 107,57
108,14 109,47 110,1 116,1
117,10 118,5 119,75 120,7
121,76 122,6 123,14 131,2
133,13 134,8 135,11 136,8
145,1 147,7 148,1 149,7
162,1638 163,99 164,1554 165,88
166,3
##END=
