##TITLE=Benzoic acid, 2-hydroxy-5-methyl-, methyl ester
##JCAMP-DX=4.24
##DATA TYPE=MASS SPECTRUM
##ORIGIN=RADIAN CORP
##OWNER=NIST Mass Spectrometry Data Center
Collection (C) 2014 copyright by the U.S. Secretary of Commerce
on behalf of the United States of America. All rights reserved.
##CAS REGISTRY NO=22717-57-3
##$NIST MASS SPEC NO=71263
##MOLFORM=C9 H10 O3
##MW=166
##$NIST SOURCE=MSDC
##XUNITS=M/Z
##YUNITS=RELATIVE INTENSITY
##XFACTOR=1
##YFACTOR=1
##FIRSTX=14
##LASTX=168
##FIRSTY=20
##MAXX=168
##MINX=14
##MAXY=9999
##MINY=10
##NPOINTS=73
##PEAK TABLE=(XY..XY)
14,20 15,180 26,40 27,240
28,170 29,170 30,30 31,80
32,50 37,30 38,90 39,510
40,60 41,70 42,10 43,130
44,10 45,50 49,30 50,440
51,1120 52,650 53,880 54,60
55,160 59,50 61,40 62,140
63,340 64,50 65,100 66,100
67,130 68,10 69,20 73,20
74,90 75,70 76,150 77,2330
78,2260 79,440 80,30 81,40
83,20 86,20 87,10 89,50
90,20 91,40 92,10 94,20
95,20 104,10 105,2390 106,2660
107,660 108,50 109,20 123,10
132,10 133,270 134,9999 135,2220
136,190 137,20 149,10 151,50
164,10 165,20 166,4110 167,410
168,40
##END=
