##TITLE=Ethanedione, (4-methoxyphenyl)phenyl-
##JCAMP-DX=4.24
##DATA TYPE=MASS SPECTRUM
##ORIGIN=Humboldt-Universitat zu Berlin, Department of Chemistry, Analytical Group
##OWNER=NIST Mass Spectrometry Data Center
Collection (C) 2014 copyright by the U.S. Secretary of Commerce
on behalf of the United States of America. All rights reserved.
##CAS REGISTRY NO=22711-21-3
##$NIST MASS SPEC NO=287941
##MOLFORM=C15 H12 O3
##MW=240
##$NIST SOURCE=MSDC
##XUNITS=M/Z
##YUNITS=RELATIVE INTENSITY
##XFACTOR=1
##YFACTOR=1
##FIRSTX=12
##LASTX=242
##FIRSTY=7
##MAXX=242
##MINX=12
##MAXY=9999
##MINY=2
##NPOINTS=114
##PEAK TABLE=(XY..XY)
12,7 14,14 15,78 16,12
17,71 18,301 25,4 26,24
27,149 28,95 29,45 30,8
31,5 32,7 36,5 37,39
38,210 39,180 40,9 41,27
42,9 43,30 44,8 45,5
49,24 50,599 51,1358 52,80
53,98 54,8 55,21 56,9
57,23 61,23 62,98 63,495
64,779 65,72 66,39 67,9
68,4 69,15 70,7 71,12
73,21 74,146 75,120 76,254
77,3741 78,285 79,119 80,10
81,8 82,5 83,8 84,5
85,9 86,10 87,11 88,4
89,11 90,5 92,1124 93,100
94,11 95,5 96,4 97,9
98,7 99,5 101,5 102,5
103,7 105,2031 106,181 107,1172
108,91 109,11 110,4 111,7
112,4 113,8 114,4 115,11
119,10 120,12 121,7 122,6
125,5 126,7 127,6 133,15
135,9999 136,933 137,88 138,7
139,16 140,5 141,5 149,5
150,4 151,8 152,27 153,8
163,3 165,4 168,5 171,3
196,3 210,21 211,5 240,62
241,11 242,2
##END=
