##TITLE=1-Cyclopentylacetonitrile
##JCAMP-DX=4.24
##DATA TYPE=MASS SPECTRUM
##ORIGIN=NIST Mass Spectrometry Data Center
##OWNER=NIST Mass Spectrometry Data Center
Collection (C) 2014 copyright by the U.S. Secretary of Commerce
on behalf of the United States of America. All rights reserved.
##CAS REGISTRY NO=22734-04-9
##$NIST MASS SPEC NO=342685
##MOLFORM=C7 H9 N
##MW=107
##$NIST SOURCE=MSDC
##XUNITS=M/Z
##YUNITS=RELATIVE INTENSITY
##XFACTOR=1
##YFACTOR=1
##FIRSTX=12
##LASTX=108
##FIRSTY=10
##MAXX=108
##MINX=12
##MAXY=9999
##MINY=10
##NPOINTS=46
##PEAK TABLE=(XY..XY)
12,10 13,10 14,30 15,90
25,20 26,330 27,1121 28,290
30,10 37,260 38,540 39,2392
40,550 41,1852 42,120 49,110
50,621 51,891 52,681 53,440
54,130 55,20 60,20 61,70
62,160 63,280 64,200 65,931
66,1141 67,9999 68,571 69,10
75,140 76,180 77,881 78,270
79,1351 80,360 81,40 91,10
92,40 102,10 104,80 105,40
107,1792 108,150
##END=
