##TITLE=Hydroxylamine, 2TMS derivative
##JCAMP-DX=4.24
##DATA TYPE=MASS SPECTRUM
##ORIGIN=NIST Mass Spectrometry Data Center, 1994
##OWNER=NIST Mass Spectrometry Data Center
Collection (C) 2014 copyright by the U.S. Secretary of Commerce
on behalf of the United States of America. All rights reserved.
##CAS REGISTRY NO=22737-37-7
##$NIST MASS SPEC NO=135964
##MOLFORM=C6 H19 N O Si2
##MW=177
##$NIST SOURCE=MSDC
##XUNITS=M/Z
##YUNITS=RELATIVE INTENSITY
##XFACTOR=1
##YFACTOR=1
##FIRSTX=13
##LASTX=180
##FIRSTY=14
##MAXX=180
##MINX=13
##MAXY=9999
##MINY=7
##NPOINTS=88
##PEAK TABLE=(XY..XY)
13,14 14,47 15,655 16,28
17,23 18,65 26,24 27,144
28,383 29,510 30,450 31,523
32,52 33,19 41,7 42,198
43,1361 44,1198 45,3109 46,339
47,437 48,24 49,15 51,25
52,33 53,54 54,29 55,147
56,353 57,241 58,675 59,1658
60,472 61,224 62,21 66,40
69,15 70,77 71,130 72,15
73,6293 74,890 75,650 76,63
77,16 85,16 86,71 87,162
88,308 89,322 90,66 91,21
99,15 100,83 101,54 102,384
103,110 104,52 105,39 113,17
114,52 115,459 116,210 117,228
118,208 119,198 120,33 121,15
129,13 130,183 132,9999 133,3358
134,1164 135,245 136,36 144,10
145,14 146,107 147,395 148,69
149,37 162,777 163,144 164,64
177,1287 178,235 179,105 180,11
##END=
