##TITLE=1-Acetamidopyrene
##JCAMP-DX=4.24
##DATA TYPE=MASS SPECTRUM
##ORIGIN=J.E. WILKINSON S-CUBED, SAN DIEGO, CA.
##OWNER=NIST Mass Spectrometry Data Center
Collection (C) 2014 copyright by the U.S. Secretary of Commerce
on behalf of the United States of America. All rights reserved.
##CAS REGISTRY NO=22755-15-3
##$NIST MASS SPEC NO=80562
##MOLFORM=C18 H13 N O
##MW=259
##$NIST SOURCE=MSDC
##XUNITS=M/Z
##YUNITS=RELATIVE INTENSITY
##XFACTOR=1
##YFACTOR=1
##FIRSTX=63
##LASTX=261
##FIRSTY=1
##MAXX=261
##MINX=63
##MAXY=9999
##MINY=1
##NPOINTS=39
##PEAK TABLE=(XY..XY)
63,1 73,14 87,6 94,165
99,1 100,8 111,1 150,1
161,16 162,9 163,174 164,11
165,15 185,4 186,46 187,1224
188,942 189,5127 190,879 191,11
199,1 200,77 201,19 202,5
212,38 213,11 214,974 215,267
216,2615 217,9999 218,2208 219,83
223,10 243,6 257,43 258,1
259,3908 260,618 261,2
##END=
