##TITLE=Anilinoacetaldehyde diethyl acetal
##JCAMP-DX=4.24
##DATA TYPE=MASS SPECTRUM
##ORIGIN=NIST Mass Spectrometry Data Center, 1994
##OWNER=NIST Mass Spectrometry Data Center
Collection (C) 2014 copyright by the U.S. Secretary of Commerce
on behalf of the United States of America. All rights reserved.
##CAS REGISTRY NO=22758-34-5
##$NIST MASS SPEC NO=135938
##MOLFORM=C12 H19 N O2
##MW=209
##$NIST SOURCE=MSDC
##XUNITS=M/Z
##YUNITS=RELATIVE INTENSITY
##XFACTOR=1
##YFACTOR=1
##FIRSTX=13
##LASTX=210
##FIRSTY=221
##MAXX=210
##MINX=13
##MAXY=9999
##MINY=2
##NPOINTS=64
##PEAK TABLE=(XY..XY)
13,221 15,283 16,177 17,300
18,165 19,490 25,30 26,704
27,2492 28,1361 29,4562 30,1383
31,1184 32,258 37,70 38,562
40,118 41,151 43,937 44,179
45,820 46,70 47,8949 48,111
49,70 50,991 51,1972 54,94
55,168 59,2 60,63 61,28
63,235 65,912 67,64 72,326
73,68 75,9233 76,387 77,5642
78,512 79,137 80,433 90,46
91,629 92,626 93,234 94,90
103,6456 104,1379 106,9999 107,624
117,157 118,3601 119,531 121,77
132,250 134,347 135,139 136,24
164,1043 165,275 209,267 210,237
##END=
