##TITLE=2,4-Hexanedione, 1,1,1-trifluoro-5,5-dimethyl-
##JCAMP-DX=4.24
##DATA TYPE=MASS SPECTRUM
##ORIGIN=RADIAN CORP
##OWNER=NIST Mass Spectrometry Data Center
Collection (C) 2014 copyright by the U.S. Secretary of Commerce
on behalf of the United States of America. All rights reserved.
##CAS REGISTRY NO=22767-90-4
##$NIST MASS SPEC NO=73441
##MOLFORM=C8 H11 F3 O2
##MW=196
##$NIST SOURCE=MSDC
##XUNITS=M/Z
##YUNITS=RELATIVE INTENSITY
##XFACTOR=1
##YFACTOR=1
##FIRSTX=14
##LASTX=197
##FIRSTY=20
##MAXX=197
##MINX=14
##MAXY=9999
##MINY=10
##NPOINTS=89
##PEAK TABLE=(XY..XY)
14,20 15,490 19,20 26,120
27,1060 29,3070 30,60 31,60
33,50 37,70 38,200 39,2310
40,320 41,6020 42,1000 43,1700
44,60 45,90 47,30 50,210
51,210 52,80 53,410 54,90
55,740 56,510 57,9999 58,500
59,160 60,10 61,40 62,30
63,170 64,70 65,110 66,90
67,130 68,30 69,4900 70,260
71,200 72,10 75,80 77,60
78,40 79,120 80,20 81,200
82,40 83,790 85,180 87,20
89,120 90,20 91,460 92,20
93,50 94,20 95,90 97,350
98,20 99,80 109,120 111,210
112,120 113,210 114,20 115,80
117,10 119,460 125,50 127,920
128,70 133,20 135,20 139,1520
140,40 141,140 143,10 153,540
154,40 163,50 168,860 169,60
176,10 179,30 181,60 196,340
197,70
##END=
