##TITLE=Cyclobutane, 1,2-dipropenyl-
##JCAMP-DX=4.24
##DATA TYPE=MASS SPECTRUM
##OWNER=NIST Mass Spectrometry Data Center
Collection (C) 2014 copyright by the U.S. Secretary of Commerce
on behalf of the United States of America. All rights reserved.
##CAS REGISTRY NO=22769-00-2
##$NIST MASS SPEC NO=34012
##MOLFORM=C10 H16
##MW=136
##$NIST SOURCE=MSDC
##XUNITS=M/Z
##YUNITS=RELATIVE INTENSITY
##XFACTOR=1
##YFACTOR=1
##FIRSTX=27
##LASTX=136
##FIRSTY=500
##MAXX=136
##MINX=27
##MAXY=9999
##MINY=100
##NPOINTS=29
##PEAK TABLE=(XY..XY)
27,500 28,300 29,200 39,900
40,500 41,900 42,300 51,200
52,100 53,1000 55,200 65,300
66,200 67,3200 68,9999 69,500
77,300 78,100 79,300 80,100
81,200 91,300 92,200 93,800
94,400 95,100 107,200 121,100
136,400
##END=
