##TITLE=Bendiocarb
##JCAMP-DX=4.24
##DATA TYPE=MASS SPECTRUM
##ORIGIN=ACCUSTANDARD Chemicals / NIST MS Data Center.
##OWNER=NIST Mass Spectrometry Data Center
Collection (C) 2014 copyright by the U.S. Secretary of Commerce
on behalf of the United States of America. All rights reserved.
##CAS REGISTRY NO=22781-23-3
##$NIST MASS SPEC NO=125591
##MOLFORM=C11 H13 N O4
##MW=223
##$NIST SOURCE=MSDC
##XUNITS=M/Z
##YUNITS=RELATIVE INTENSITY
##XFACTOR=1
##YFACTOR=1
##FIRSTX=13
##LASTX=225
##FIRSTY=23
##MAXX=225
##MINX=13
##MAXY=9999
##MINY=3
##NPOINTS=107
##PEAK TABLE=(XY..XY)
13,23 14,77 15,1016 16,3
25,12 26,101 27,397 28,577
29,210 30,35 31,98 37,79
38,212 39,1310 40,172 41,700
42,174 43,955 44,54 45,8
50,438 51,1567 52,702 53,588
54,87 55,375 56,179 57,377
58,1206 59,134 60,11 61,24
62,77 63,90 64,23 65,70
66,53 67,72 68,166 69,56
70,14 74,5 76,15 77,140
78,99 79,785 80,533 81,132
82,16 83,23 89,6 91,72
92,39 93,88 94,24 95,130
96,79 97,359 98,43 103,17
105,31 107,407 108,634 109,124
110,32 111,8 118,6 119,31
120,29 121,97 122,6 123,672
124,136 125,727 126,4438 127,289
128,31 133,13 134,11 135,18
136,25 137,67 138,18 139,9
147,64 149,205 151,9999 152,860
153,90 160,5 161,6 162,20
163,49 164,96 165,5 166,4190
167,399 168,45 176,9 178,5
179,11 182,6 193,6 220,5
223,1053 224,139 225,18
##END=
