##TITLE=Benzoic acid, 2,4,6-trimethyl-, methyl ester
##JCAMP-DX=4.24
##DATA TYPE=MASS SPECTRUM
##ORIGIN=L.E. Slivon, Battelle Columbus Laboratories, Columbus, Ohio 43201
##OWNER=NIST Mass Spectrometry Data Center
Collection (C) 2014 copyright by the U.S. Secretary of Commerce
on behalf of the United States of America. All rights reserved.
##CAS REGISTRY NO=2282-84-0
##$NIST MASS SPEC NO=70647
##MOLFORM=C11 H14 O2
##MW=178
##$NIST SOURCE=MSDC
##XUNITS=M/Z
##YUNITS=RELATIVE INTENSITY
##XFACTOR=1
##YFACTOR=1
##FIRSTX=40
##LASTX=180
##FIRSTY=88
##MAXX=180
##MINX=40
##MAXY=9999
##MINY=3
##NPOINTS=114
##PEAK TABLE=(XY..XY)
40,88 41,544 42,28 43,93
44,192 45,1546 46,52 47,47
48,8 49,10 50,298 51,764
52,283 53,334 54,31 55,49
56,3 57,41 58,114 59,145
60,36 61,521 62,161 63,604
64,148 65,842 66,179 67,86
68,13 69,18 71,8 72,13
73,88 74,482 75,821 76,207
77,2027 78,847 79,699 80,75
81,16 83,3 85,18 86,36
87,75 88,10 89,949 90,166
91,4391 92,448 93,238 94,23
95,13 97,10 98,36 99,13
100,8 101,34 102,331 103,1485
104,674 105,689 106,65 107,192
108,44 109,5 110,31 113,34
114,13 115,1622 116,350 117,2328
118,2545 119,5233 120,552 121,44
122,3 123,3 127,5 128,3
129,13 131,23 132,62 133,117
134,10 135,73 137,23 139,23
141,8 142,5 143,36 145,75
146,8056 147,9999 148,1013 149,153
150,26 152,23 153,26 155,5
161,104 162,34 163,539 164,80
165,26 166,18 167,3 168,13
169,3 171,5 177,70 178,3497
179,425 180,44
##END=
