##TITLE=Phosphorous triamide, hexaethyl-
##JCAMP-DX=4.24
##DATA TYPE=MASS SPECTRUM
##ORIGIN=Japan AIST/NIMC Database- Spectrum MS-NW-9548
##OWNER=NIST Mass Spectrometry Data Center
Collection (C) 2014 copyright by the U.S. Secretary of Commerce
on behalf of the United States of America. All rights reserved.
##CAS REGISTRY NO=2283-11-6
##$NIST MASS SPEC NO=238710
##MOLFORM=C12 H30 N3 P
##MW=247
##$NIST SOURCE=MSDC
##XUNITS=M/Z
##YUNITS=RELATIVE INTENSITY
##XFACTOR=1
##YFACTOR=1
##FIRSTX=15
##LASTX=248
##FIRSTY=70
##MAXX=248
##MINX=15
##MAXY=9999
##MINY=10
##NPOINTS=76
##PEAK TABLE=(XY..XY)
15,70 26,50 27,289 28,579
29,499 30,1599 31,20 32,20
39,10 40,40 41,109 42,479
43,90 44,929 45,20 46,439
47,40 48,90 49,40 52,10
54,20 55,10 56,529 57,60
58,2399 59,99 60,129 61,20
62,80 64,10 68,10 70,159
71,339 72,1179 73,669 74,1089
75,80 76,429 77,10 86,20
88,20 89,20 90,60 91,20
100,10 102,109 103,259 104,9999
105,489 106,20 117,10 118,20
119,119 120,50 122,40 123,50
124,40 133,10 137,10 138,80
140,20 145,40 147,30 161,10
163,10 174,20 175,5719 176,579
177,60 190,10 191,99 192,20
218,50 246,30 247,899 248,129
##END=
