##TITLE=Diazene, bis(pentafluorophenyl)-
##JCAMP-DX=4.24
##DATA TYPE=MASS SPECTRUM
##ORIGIN=J.M. MILLER,BROCK UNIVERSITY,ONTARIO,CANADA
##OWNER=NIST Mass Spectrometry Data Center
Collection (C) 2014 copyright by the U.S. Secretary of Commerce
on behalf of the United States of America. All rights reserved.
##CAS REGISTRY NO=2285-06-5
##$NIST MASS SPEC NO=54125
##MOLFORM=C12 F10 N2
##MW=362
##$NIST SOURCE=MSDC
##XUNITS=M/Z
##YUNITS=RELATIVE INTENSITY
##XFACTOR=1
##YFACTOR=1
##FIRSTX=31
##LASTX=364
##FIRSTY=990
##MAXX=364
##MINX=31
##MAXY=9999
##MINY=1
##NPOINTS=61
##PEAK TABLE=(XY..XY)
31,990 55,71 56,2 62,53
63,1 69,208 70,3 74,204
75,6 76,40 79,252 80,13
81,95 86,174 87,7 93,1619
94,50 98,763 99,40 100,173
101,8 105,53 106,2 110,40
111,2 112,60 113,3 117,4340
118,260 124,53 125,3 129,45
130,3 131,338 132,20 136,53
148,368 149,20 150,18 155,26
156,1 162,55 163,3 167,9999
168,670 169,20 176,18 181,108
183,18 195,2780 196,196 197,5
257,18 258,2 296,13 297,1
343,42 344,6 362,3050 363,420
364,20
##END=
