##TITLE=Benzene, 1-isocyanato-2-(trifluoromethyl)-
##JCAMP-DX=4.24
##DATA TYPE=MASS SPECTRUM
##ORIGIN=Japan AIST/NIMC Database- Spectrum MS-IW-2192
##OWNER=NIST Mass Spectrometry Data Center
Collection (C) 2014 copyright by the U.S. Secretary of Commerce
on behalf of the United States of America. All rights reserved.
##CAS REGISTRY NO=2285-12-3
##$NIST MASS SPEC NO=235638
##MOLFORM=C8 H4 F3 N O
##MW=187
##$NIST SOURCE=MSDC
##XUNITS=M/Z
##YUNITS=RELATIVE INTENSITY
##XFACTOR=1
##YFACTOR=1
##FIRSTX=20
##LASTX=189
##FIRSTY=20
##MAXX=189
##MINX=20
##MAXY=9999
##MINY=10
##NPOINTS=107
##PEAK TABLE=(XY..XY)
20,20 26,40 27,60 28,129
31,119 32,10 33,10 36,10
37,219 38,299 39,429 40,40
41,10 42,10 44,20 45,20
47,109 49,40 50,279 51,299
52,99 53,10 54,30 55,10
56,70 57,149 58,10 60,10
61,129 62,239 63,779 64,449
65,60 66,10 68,40 69,549
70,109 73,20 74,99 75,379
76,80 77,20 79,119 80,30
81,139 82,159 83,40 84,109
86,20 87,99 88,309 89,129
90,529 91,40 92,30 93,169
94,70 95,209 96,10 99,90
100,50 101,50 102,60 106,50
107,20 108,209 109,1299 110,90
111,20 112,149 113,219 114,179
115,10 118,10 119,70 120,139
121,60 123,10 125,40 126,30
131,60 132,659 133,99 137,639
138,139 139,869 140,289 141,80
142,10 143,10 144,10 145,809
146,60 148,20 152,10 157,10
158,159 159,1079 160,90 161,109
168,1589 169,149 170,10 186,239
187,9999 188,919 189,50
##END=
