##TITLE=2,5-Dimethylpyrimidine
##JCAMP-DX=4.24
##DATA TYPE=MASS SPECTRUM
##ORIGIN=A.J. MACLEOD, DEP. CHEM., QUEEN ELIZ. COLL., UNIV. LONDON, U&
##OWNER=NIST Mass Spectrometry Data Center
Collection (C) 2014 copyright by the U.S. Secretary of Commerce
on behalf of the United States of America. All rights reserved.
##CAS REGISTRY NO=22868-76-4
##$NIST MASS SPEC NO=74959
##MOLFORM=C6 H8 N2
##MW=108
##$NIST SOURCE=MSDC
##XUNITS=M/Z
##YUNITS=RELATIVE INTENSITY
##XFACTOR=1
##YFACTOR=1
##FIRSTX=39
##LASTX=109
##FIRSTY=2500
##MAXX=109
##MINX=39
##MAXY=9999
##MINY=50
##NPOINTS=13
##PEAK TABLE=(XY..XY)
39,2500 40,1000 41,1200 42,9999
51,100 52,300 66,50 67,100
81,800 93,100 107,50 108,4300
109,50
##END=
