##TITLE=Bis(2-ethylhexyl) methylenesuccinate
##JCAMP-DX=4.24
##DATA TYPE=MASS SPECTRUM
##ORIGIN=Japan AIST/NIMC Database- Spectrum MS-NW-5327
##OWNER=NIST Mass Spectrometry Data Center
Collection (C) 2014 copyright by the U.S. Secretary of Commerce
on behalf of the United States of America. All rights reserved.
##CAS REGISTRY NO=2287-83-4
##$NIST MASS SPEC NO=230880
##MOLFORM=C21 H38 O4
##MW=354
##$NIST SOURCE=MSDC
##XUNITS=M/Z
##YUNITS=RELATIVE INTENSITY
##XFACTOR=1
##YFACTOR=1
##FIRSTX=14
##LASTX=325
##FIRSTY=10
##MAXX=325
##MINX=14
##MAXY=9999
##MINY=10
##NPOINTS=132
##PEAK TABLE=(XY..XY)
14,10 15,20 17,10 18,40
26,30 27,589 28,369 29,1679
30,40 31,90 32,30 37,20
38,40 39,589 40,659 41,3119
42,639 43,4559 44,159 45,30
50,10 51,20 52,10 53,179
54,199 55,2459 56,1389 57,9999
58,439 59,50 61,10 63,10
65,20 66,20 67,179 68,589
69,1199 70,5029 71,7359 72,459
73,30 74,10 77,20 79,30
80,10 81,70 82,289 83,1659
84,929 85,779 86,809 87,80
91,10 93,10 95,40 96,30
97,189 98,99 99,119 100,20
101,10 104,10 107,10 109,10
110,50 111,189 112,3279 113,5299
114,609 115,90 116,10 118,30
119,10 123,10 124,30 125,50
126,459 127,99 128,20 129,60
130,269 131,3059 132,239 133,50
137,10 138,10 139,10 140,10
141,10 142,10 143,10 144,289
145,40 146,10 149,10 151,10
153,10 154,20 155,20 156,10
157,20 164,10 165,10 167,30
168,30 169,10 173,10 178,10
179,10 181,10 182,10 183,10
185,20 186,10 195,50 196,40
197,10 198,10 206,40 207,10
213,30 223,20 224,50 225,169
226,30 238,10 242,60 243,189
244,40 256,10 297,20 325,10
##END=
