##TITLE=Benzonitrile, 3,4-dimethyl-
##JCAMP-DX=4.24
##DATA TYPE=MASS SPECTRUM
##ORIGIN=M. NELSON, RES. DEP., IMPERIAL TOBACCO LTD., BRISTOL
##OWNER=NIST Mass Spectrometry Data Center
Collection (C) 2014 copyright by the U.S. Secretary of Commerce
on behalf of the United States of America. All rights reserved.
##CAS REGISTRY NO=22884-95-3
##$NIST MASS SPEC NO=72087
##MOLFORM=C9 H9 N
##MW=131
##$NIST SOURCE=MSDC
##XUNITS=M/Z
##YUNITS=RELATIVE INTENSITY
##XFACTOR=1
##YFACTOR=1
##FIRSTX=28
##LASTX=132
##FIRSTY=800
##MAXX=132
##MINX=28
##MAXY=9999
##MINY=100
##NPOINTS=47
##PEAK TABLE=(XY..XY)
28,800 32,260 37,200 38,300
39,1050 40,160 41,200 49,120
50,640 51,1140 52,480 53,240
61,190 62,350 63,770 66,110
73,120 74,240 75,430 76,510
77,1210 78,410 79,130 86,100
87,160 88,210 89,1030 90,300
91,370 99,100 100,110 101,260
102,460 103,1270 104,690 105,150
114,130 115,120 116,9999 117,1040
118,100 127,110 128,260 129,270
130,2120 131,6540 132,760
##END=
