##TITLE=Benzene, (1-methylene-2-propenyl)-
##JCAMP-DX=4.24
##DATA TYPE=MASS SPECTRUM
##ORIGIN=D.HENNEBERG, MAX-PLANCK INSTITUTE, MULHEIM, WEST GERMANY
##OWNER=NIST Mass Spectrometry Data Center
Collection (C) 2014 copyright by the U.S. Secretary of Commerce
on behalf of the United States of America. All rights reserved.
##CAS REGISTRY NO=2288-18-8
##$NIST MASS SPEC NO=61603
##MOLFORM=C10 H10
##MW=130
##$NIST SOURCE=MSDC
##XUNITS=M/Z
##YUNITS=RELATIVE INTENSITY
##XFACTOR=1
##YFACTOR=1
##FIRSTX=25
##LASTX=132
##FIRSTY=11
##MAXX=132
##MINX=25
##MAXY=9999
##MINY=3
##NPOINTS=90
##PEAK TABLE=(XY..XY)
25,11 26,137 27,865 28,464
29,14 31,4 33,5 36,5
37,86 38,192 39,1106 40,58
41,147 42,9 43,17 44,79
45,13 46,16 47,19 48,20
49,102 50,1191 51,2887 52,747
53,270 54,15 55,16 58,19
60,13 61,134 62,395 63,1217
64,1219 65,793 66,48 67,17
68,26 69,128 70,14 72,7
73,74 74,515 75,535 76,682
77,2095 78,679 79,82 80,31
82,13 84,13 85,40 86,79
87,127 88,49 89,480 90,53
91,1652 92,127 93,3 97,11
98,80 99,36 100,27 101,240
102,1911 103,630 104,110 105,14
109,7 111,15 113,65 114,85
115,6630 116,672 117,183 118,42
119,4 120,3 121,6 122,18
123,40 124,77 125,281 126,445
127,2726 128,5484 129,9999 130,9340
131,1003 132,107
##END=
