##TITLE=4a.alpha.,4b.beta.-Gibbane-1.alpha.,10.beta.-dicarboxylic acid, 1,4a-dimethyl-8-methylene-, dimethyl ester
##JCAMP-DX=4.24
##DATA TYPE=MASS SPECTRUM
##ORIGIN=J.MACMILLAN UNIVERSITY OF BRISTOL, UK
##OWNER=NIST Mass Spectrometry Data Center
Collection (C) 2014 copyright by the U.S. Secretary of Commerce
on behalf of the United States of America. All rights reserved.
##CAS REGISTRY NO=22882-62-8
##$NIST MASS SPEC NO=16179
##MOLFORM=C22 H32 O4
##MW=360
##$NIST SOURCE=MSDC
##XUNITS=M/Z
##YUNITS=RELATIVE INTENSITY
##XFACTOR=1
##YFACTOR=1
##FIRSTX=30
##LASTX=360
##FIRSTY=200
##MAXX=360
##MINX=30
##MAXY=9999
##MINY=100
##NPOINTS=182
##PEAK TABLE=(XY..XY)
30,200 31,1000 32,1700 33,100
36,100 37,100 38,100 39,800
40,200 41,3300 42,400 43,2400
44,900 45,300 50,300 51,300
52,100 53,800 54,300 55,3000
56,700 57,1900 58,200 59,1100
65,600 66,200 67,1400 68,400
69,2100 70,700 71,1000 73,400
74,200 75,100 76,100 77,1200
78,600 79,1700 80,400 81,1600
82,500 83,1200 84,300 85,700
91,1900 92,500 93,1300 94,400
95,1500 96,500 97,1000 98,300
99,300 101,200 103,200 104,300
105,1500 106,500 107,700 108,300
109,1300 110,300 111,600 112,200
113,200 114,100 115,500 116,300
117,700 118,300 119,900 120,300
121,500 122,300 123,400 124,300
125,400 126,100 127,300 128,700
129,800 130,300 131,800 132,400
133,500 134,200 135,400 136,200
137,400 138,100 139,200 140,100
141,500 142,400 143,800 144,400
145,800 146,300 147,500 148,200
149,500 150,200 151,300 152,200
153,200 154,200 155,400 156,200
157,700 158,300 159,700 160,200
161,300 162,100 163,300 164,200
165,400 166,100 167,100 168,100
169,600 170,200 171,700 172,400
173,500 174,100 181,200 182,100
183,500 184,300 185,1200 186,400
187,200 188,100 191,200 192,100
193,200 197,700 198,300 199,500
200,200 201,100 203,300 207,200
211,400 212,300 213,300 215,200
224,1600 225,300 226,100 229,300
230,200 231,300 232,200 238,300
239,2300 240,3200 241,600 242,500
243,500 244,400 253,200 257,400
258,200 259,100 268,500 269,700
270,200 271,300 272,300 273,100
285,1900 286,400 287,100 300,9999
301,2400 302,400 328,2200 329,700
330,200 360,200
##END=
