##TITLE=6H-Dibenzo[b,d]-pyran
##JCAMP-DX=4.24
##DATA TYPE=MASS SPECTRUM
##ORIGIN=F.Guidugli ET AL, Org.Mass Spectrom.,27,1299(1992)
##OWNER=NIST Mass Spectrometry Data Center
Collection (C) 2014 copyright by the U.S. Secretary of Commerce
on behalf of the United States of America. All rights reserved.
##CAS REGISTRY NO=229-95-8
##$NIST MASS SPEC NO=280928
##MOLFORM=C13 H10 O
##MW=182
##$NIST SOURCE=MSDC
##XUNITS=M/Z
##YUNITS=RELATIVE INTENSITY
##XFACTOR=1
##YFACTOR=1
##FIRSTX=51
##LASTX=184
##FIRSTY=571
##MAXX=184
##MINX=51
##MAXY=9999
##MINY=80
##NPOINTS=44
##PEAK TABLE=(XY..XY)
51,571 52,90 62,220 63,861
64,430 65,90 74,360 75,470
76,2512 77,510 78,190 86,180
87,230 89,230 90,190 91,80
98,180 99,140 100,140 101,220
102,210 103,90 113,180 114,140
115,330 116,90 125,90 126,470
127,510 128,220 129,230 139,190
150,280 151,861 152,2903 153,1291
154,330 155,190 164,90 165,80
181,9999 182,6075 183,901 184,90
##END=
