##TITLE=1,4-Diisopropyl cyclohexane
##JCAMP-DX=4.24
##DATA TYPE=MASS SPECTRUM
##ORIGIN=NIST Mass Spectrometry Data Center, 1994
##OWNER=NIST Mass Spectrometry Data Center
Collection (C) 2014 copyright by the U.S. Secretary of Commerce
on behalf of the United States of America. All rights reserved.
##CAS REGISTRY NO=22907-72-8
##$NIST MASS SPEC NO=133241
##MOLFORM=C12 H24
##MW=168
##$NIST SOURCE=MSDC
##XUNITS=M/Z
##YUNITS=RELATIVE INTENSITY
##XFACTOR=1
##YFACTOR=1
##FIRSTX=14
##LASTX=170
##FIRSTY=7
##MAXX=170
##MINX=14
##MAXY=9999
##MINY=4
##NPOINTS=62
##PEAK TABLE=(XY..XY)
14,7 15,160 27,2259 29,1397
30,43 39,1663 41,5643 42,765
43,3293 44,86 50,46 51,160
53,836 54,1032 55,3948 56,566
57,2656 58,115 59,5 62,8
63,27 65,263 66,518 67,1833
68,5 69,9999 70,662 71,173
72,11 75,5 77,254 79,457
80,482 81,1505 82,1831 83,4290
84,309 85,29 89,5 91,101
92,16 93,43 95,228 96,157
97,315 98,34 103,9 105,12
106,4 107,13 109,429 110,47
111,127 112,18 124,2759 125,2786
126,742 127,52 153,17 168,1200
169,162 170,10
##END=
