##TITLE=Miconazole
##JCAMP-DX=4.24
##DATA TYPE=MASS SPECTRUM
##ORIGIN=N.W. Davies, Centr. Sci. Lab., Univ. Tasmania, Hobart, Australia
##OWNER=NIST Mass Spectrometry Data Center
Collection (C) 2014 copyright by the U.S. Secretary of Commerce
on behalf of the United States of America. All rights reserved.
##CAS REGISTRY NO=22916-47-8
##$NIST MASS SPEC NO=107110
##MOLFORM=C18 H14 Cl4 N2 O
##MW=414
##$NIST SOURCE=MSDC
##XUNITS=M/Z
##YUNITS=RELATIVE INTENSITY
##XFACTOR=1
##YFACTOR=1
##FIRSTX=26
##LASTX=418
##FIRSTY=230
##MAXX=418
##MINX=26
##MAXY=9999
##MINY=50
##NPOINTS=78
##PEAK TABLE=(XY..XY)
26,230 27,740 30,80 34,50
39,150 41,190 42,100 43,70
45,70 50,130 51,150 52,180
53,110 54,920 55,80 56,50
57,90 62,100 63,320 69,60
71,50 73,170 74,90 75,400
76,70 81,4210 82,170 87,60
89,780 90,60 99,200 101,160
102,220 109,100 111,140 113,60
123,460 124,290 125,300 126,130
127,60 133,120 135,110 136,60
137,200 138,90 140,60 145,90
147,90 149,130 159,9999 160,660
161,6240 162,440 163,1020 164,110
167,50 172,320 173,310 174,250
175,200 176,80 177,80 203,130
205,510 206,110 207,110 240,230
242,180 333,560 334,120 335,720
336,140 337,310 338,80 414,110
416,180 418,80
##END=
