##TITLE=Nortrimipramine
##JCAMP-DX=4.24
##DATA TYPE=MASS SPECTRUM
##ORIGIN=R.E.Ardrey ET AL.Pharmaceutical Mass Spectra,L.,1985
##OWNER=NIST Mass Spectrometry Data Center
Collection (C) 2014 copyright by the U.S. Secretary of Commerce
on behalf of the United States of America. All rights reserved.
##CAS REGISTRY NO=2293-21-2
##$NIST MASS SPEC NO=298652
##MOLFORM=C19 H24 N2
##MW=280
##$NIST SOURCE=MSDC
##XUNITS=M/Z
##YUNITS=RELATIVE INTENSITY
##XFACTOR=1
##YFACTOR=1
##FIRSTX=26
##LASTX=280
##FIRSTY=2002
##MAXX=280
##MINX=26
##MAXY=9999
##MINY=100
##NPOINTS=77
##PEAK TABLE=(XY..XY)
26,2002 27,601 29,200 30,500
39,400 40,200 41,300 42,601
43,300 44,7707 45,200 51,300
53,100 54,1001 55,300 56,100
57,200 63,200 65,400 70,2102
71,300 72,300 77,400 78,200
84,100 85,1902 86,300 89,400
90,200 91,901 98,200 102,100
103,100 105,100 106,200 115,200
116,200 117,300 118,200 128,200
129,100 130,400 131,100 143,200
144,200 152,200 165,500 166,200
167,400 177,100 178,500 179,601
190,100 192,901 193,5005 194,2702
195,3403 196,500 204,300 205,100
206,601 207,300 208,9999 209,1802
210,100 218,200 219,100 220,500
221,100 232,100 234,1802 235,500
236,300 248,1401 249,4004 250,701
280,300
##END=
