##TITLE=Dimethametryn
##JCAMP-DX=4.24
##DATA TYPE=MASS SPECTRUM
##ORIGIN=NIST Mass Spectrometry Data Center, 1998.
##OWNER=NIST Mass Spectrometry Data Center
Collection (C) 2014 copyright by the U.S. Secretary of Commerce
on behalf of the United States of America. All rights reserved.
##CAS REGISTRY NO=22936-75-0
##$NIST MASS SPEC NO=291791
##MOLFORM=C11 H21 N5 S
##MW=255
##$NIST SOURCE=MSDC
##XUNITS=M/Z
##YUNITS=RELATIVE INTENSITY
##XFACTOR=1
##YFACTOR=1
##FIRSTX=15
##LASTX=257
##FIRSTY=40
##MAXX=257
##MINX=15
##MAXY=9999
##MINY=10
##NPOINTS=141
##PEAK TABLE=(XY..XY)
15,40 26,10 27,240 28,170
29,320 30,70 39,120 40,30
41,420 42,390 43,1240 44,510
45,70 46,40 47,90 48,20
49,20 52,10 53,100 54,60
55,360 56,70 57,30 58,20
59,30 60,20 61,20 67,70
68,830 69,880 70,150 71,820
72,60 73,30 74,420 75,40
76,20 78,20 80,30 81,40
82,30 83,20 84,30 85,170
86,60 87,20 89,10 91,30
92,10 93,140 94,210 95,100
96,450 97,120 99,200 100,40
101,20 102,30 103,20 106,90
107,10 108,20 109,30 110,80
111,80 112,30 113,40 114,20
115,10 116,80 117,90 118,10
119,10 120,10 121,30 122,530
123,110 124,20 125,10 126,20
127,40 128,40 130,10 135,10
136,30 137,40 138,100 139,70
140,30 141,30 142,160 143,20
144,150 145,10 150,70 151,30
152,30 153,40 154,30 155,140
156,30 157,50 158,20 164,70
165,60 166,20 167,30 168,40
169,30 170,280 171,30 172,10
178,10 182,50 183,20 184,190
185,360 186,220 187,40 188,10
196,160 197,100 198,50 199,10
209,10 210,110 212,9999 213,1230
214,540 215,50 224,30 226,20
238,30 240,430 241,60 242,30
253,10 254,50 255,810 256,100
257,30
##END=
