##TITLE=Pyridine, 2-pentyl-
##JCAMP-DX=4.24
##DATA TYPE=MASS SPECTRUM
##OWNER=NIST Mass Spectrometry Data Center
Collection (C) 2014 copyright by the U.S. Secretary of Commerce
on behalf of the United States of America. All rights reserved.
##CAS REGISTRY NO=2294-76-0
##$NIST MASS SPEC NO=4584
##MOLFORM=C10 H15 N
##MW=149
##$NIST SOURCE=MSDC
##XUNITS=M/Z
##YUNITS=RELATIVE INTENSITY
##XFACTOR=1
##YFACTOR=1
##FIRSTX=26
##LASTX=149
##FIRSTY=290
##MAXX=149
##MINX=26
##MAXY=9999
##MINY=20
##NPOINTS=42
##PEAK TABLE=(XY..XY)
26,290 27,1621 28,257 29,1071
38,180 39,1371 40,190 41,190
42,80 43,80 50,200 51,711
52,510 53,290 54,90 55,50
63,140 64,100 65,881 66,390
67,100 77,190 78,701 79,490
80,150 91,110 92,591 93,9999
94,711 104,100 105,80 106,2302
107,631 117,190 118,270 119,100
120,2152 121,260 134,140 135,20
148,160 149,150
##END=
