##TITLE=1,1,3-Trimethyl-1-silacyclobutane
##JCAMP-DX=4.24
##DATA TYPE=MASS SPECTRUM
##ORIGIN=L.E.GUSEL'NIKOV, TOPCHIEV INST. PETROCHEM. SYNTH., MOSCOW,USSR
##OWNER=NIST Mass Spectrometry Data Center
Collection (C) 2014 copyright by the U.S. Secretary of Commerce
on behalf of the United States of America. All rights reserved.
##CAS REGISTRY NO=2295-13-8
##$NIST MASS SPEC NO=98625
##MOLFORM=C6 H14 Si
##MW=114
##$NIST SOURCE=MSDC
##XUNITS=M/Z
##YUNITS=RELATIVE INTENSITY
##XFACTOR=1
##YFACTOR=1
##FIRSTX=39
##LASTX=115
##FIRSTY=100
##MAXX=115
##MINX=39
##MAXY=9999
##MINY=100
##NPOINTS=23
##PEAK TABLE=(XY..XY)
39,100 41,100 42,200 43,1000
44,1400 45,400 53,100 55,200
56,100 57,200 58,200 59,1000
70,300 71,600 72,9999 73,1400
74,300 86,1600 87,200 88,100
99,400 114,500 115,100
##END=
