##TITLE=1,1-Dimethyl-1-silacyclobutane
##JCAMP-DX=4.24
##DATA TYPE=MASS SPECTRUM
##ORIGIN=GUSELNIKOV, TOPCHIEV INST. PETROCHEM. SYNTH., MOSCOW,USSR
##OWNER=NIST Mass Spectrometry Data Center
Collection (C) 2014 copyright by the U.S. Secretary of Commerce
on behalf of the United States of America. All rights reserved.
##CAS REGISTRY NO=2295-12-7
##$NIST MASS SPEC NO=98624
##MOLFORM=C5 H12 Si
##MW=100
##$NIST SOURCE=MSDC
##XUNITS=M/Z
##YUNITS=RELATIVE INTENSITY
##XFACTOR=1
##YFACTOR=1
##FIRSTX=53
##LASTX=101
##FIRSTY=300
##MAXX=101
##MINX=53
##MAXY=9999
##MINY=300
##NPOINTS=12
##PEAK TABLE=(XY..XY)
53,300 55,600 57,600 59,2500
70,600 71,700 72,9999 73,3500
74,700 85,800 100,2400 101,600
##END=
