##TITLE=p-Anisaldehyde, azine
##JCAMP-DX=4.24
##DATA TYPE=MASS SPECTRUM
##OWNER=NIST Mass Spectrometry Data Center
Collection (C) 2014 copyright by the U.S. Secretary of Commerce
on behalf of the United States of America. All rights reserved.
##CAS REGISTRY NO=2299-73-2
##$NIST MASS SPEC NO=13008
##MOLFORM=C16 H16 N2 O2
##MW=268
##$NIST SOURCE=MSDC
##XUNITS=M/Z
##YUNITS=RELATIVE INTENSITY
##XFACTOR=1
##YFACTOR=1
##FIRSTX=51
##LASTX=270
##FIRSTY=601
##MAXX=270
##MINX=51
##MAXY=9999
##MINY=100
##NPOINTS=23
##PEAK TABLE=(XY..XY)
51,601 64,601 77,1702 78,200
91,701 92,1101 93,100 133,701
134,2502 135,1301 136,100 161,6005
162,601 225,500 240,1101 241,1201
242,100 253,1101 254,100 267,5205
268,9999 269,1802 270,100
##END=
