##TITLE=1,7-Phenanthroline
##JCAMP-DX=4.24
##DATA TYPE=MASS SPECTRUM
##ORIGIN=GFS Chemicals / NIST MS Data Center.
##OWNER=NIST Mass Spectrometry Data Center
Collection (C) 2014 copyright by the U.S. Secretary of Commerce
on behalf of the United States of America. All rights reserved.
##CAS REGISTRY NO=230-46-6
##$NIST MASS SPEC NO=125320
##MOLFORM=C12 H8 N2
##MW=180
##$NIST SOURCE=MSDC
##XUNITS=M/Z
##YUNITS=RELATIVE INTENSITY
##XFACTOR=1
##YFACTOR=1
##FIRSTX=18
##LASTX=182
##FIRSTY=18
##MAXX=182
##MINX=18
##MAXY=9999
##MINY=2
##NPOINTS=78
##PEAK TABLE=(XY..XY)
18,18 25,6 26,75 27,95
28,244 29,12 32,30 37,57
38,120 39,182 40,15 41,9
44,2 49,87 50,480 51,342
52,145 53,17 55,7 61,144
62,314 63,901 65,20 66,8
72,8 73,77 74,444 75,563
76,732 78,63 79,28 84,8
85,45 86,104 87,179 88,88
89,8 90,529 97,35 98,195
99,346 100,328 101,244 102,160
103,87 104,17 109,8 110,15
111,28 112,23 113,37 114,33
115,7 121,8 122,26 123,49
124,98 125,584 126,1042 127,421
128,87 129,31 138,10 139,8
140,19 141,6 142,5 150,48
151,289 152,1564 153,5205 154,692
155,49 177,90 179,2091 180,9999
181,1417 182,86
##END=
