##TITLE=Benzo[c]cinnoline
##JCAMP-DX=4.24
##DATA TYPE=MASS SPECTRUM
##ORIGIN=D.HENNEBERG, MAX-PLANCK INSTITUTE, MULHEIM, WEST GERMANY
##OWNER=NIST Mass Spectrometry Data Center
Collection (C) 2014 copyright by the U.S. Secretary of Commerce
on behalf of the United States of America. All rights reserved.
##CAS REGISTRY NO=230-17-1
##$NIST MASS SPEC NO=63392
##MOLFORM=C12 H8 N2
##MW=180
##$NIST SOURCE=MSDC
##XUNITS=M/Z
##YUNITS=RELATIVE INTENSITY
##XFACTOR=1
##YFACTOR=1
##FIRSTX=27
##LASTX=182
##FIRSTY=71
##MAXX=182
##MINX=27
##MAXY=9999
##MINY=3
##NPOINTS=112
##PEAK TABLE=(XY..XY)
27,71 28,51 29,11 31,9
32,4 37,12 38,36 39,442
40,61 41,21 42,10 43,29
44,8 45,3 50,256 51,335
52,149 53,36 54,28 55,18
56,9 57,18 61,16 62,118
63,784 64,58 65,114 66,119
67,11 69,5 71,9 73,4
74,388 75,626 76,1411 77,259
78,127 79,11 80,3 81,6
82,40 83,7 85,5 86,94
87,326 88,67 89,41 90,89
91,25 92,8 95,3 97,5
98,132 99,274 100,230 101,154
102,371 103,38 104,4 109,4
110,21 111,50 112,14 113,87
114,30 115,32 116,5 117,23
118,6 119,3 122,11 123,17
124,52 125,326 126,1408 127,167
128,26 129,17 130,19 131,6
135,6 136,3 137,10 138,3
139,25 140,14 141,4 143,7
145,4 146,11 147,4 148,13
149,214 150,2181 151,4247 152,9999
153,1263 154,93 155,9 156,4
164,6 165,5 166,55 167,132
168,77 169,17 177,3 178,5
179,16 180,8709 181,1245 182,109
##END=
