##TITLE=3'-Trifluoromethylpropionanilide
##JCAMP-DX=4.24
##DATA TYPE=MASS SPECTRUM
##ORIGIN=NIST Mass Spectrometry Data Center, 1994
##OWNER=NIST Mass Spectrometry Data Center
Collection (C) 2014 copyright by the U.S. Secretary of Commerce
on behalf of the United States of America. All rights reserved.
##CAS REGISTRY NO=2300-88-1
##$NIST MASS SPEC NO=135831
##MOLFORM=C10 H10 F3 N O
##MW=217
##$NIST SOURCE=MSDC
##XUNITS=M/Z
##YUNITS=RELATIVE INTENSITY
##XFACTOR=1
##YFACTOR=1
##FIRSTX=13
##LASTX=218
##FIRSTY=5
##MAXX=218
##MINX=13
##MAXY=9999
##MINY=1
##NPOINTS=128
##PEAK TABLE=(XY..XY)
13,5 14,71 15,168 16,1
17,19 18,46 19,13 20,26
26,395 27,2385 28,903 29,6730
30,164 33,11 37,82 38,297
39,440 40,103 41,87 42,135
43,33 44,38 46,21 47,12
49,15 50,293 51,197 52,174
53,53 54,46 55,278 56,12
57,5663 58,215 61,63 62,201
63,746 64,410 65,265 66,49
67,11 68,31 69,265 70,42
72,15 73,20 74,41 75,437
76,122 77,52 78,17 80,21
81,72 82,55 83,350 84,61
85,13 86,11 87,51 88,252
89,69 90,117 91,250 92,71
93,55 94,47 95,304 96,49
99,89 100,64 101,37 102,41
103,11 104,20 105,19 106,18
107,37 108,29 109,84 110,11
111,446 112,91 113,589 114,830
115,94 116,11 117,10 118,17
119,67 120,204 121,35 122,34
123,11 125,203 126,37 127,68
128,14 132,127 133,241 134,81
137,12 138,19 139,109 140,453
141,219 142,469 143,78 144,12
145,641 146,73 147,9 148,11
154,12 161,9999 162,855 163,33
168,61 172,30 173,16 174,53
187,77 188,199 189,17 196,11
198,641 199,79 217,1127 218,119
##END=
