##TITLE=3-Pyridinol, 6-methyl-2-(methylthio)-
##JCAMP-DX=4.24
##DATA TYPE=MASS SPECTRUM
##OWNER=NIST Mass Spectrometry Data Center
Collection (C) 2014 copyright by the U.S. Secretary of Commerce
on behalf of the United States of America. All rights reserved.
##CAS REGISTRY NO=23003-25-0
##$NIST MASS SPEC NO=33212
##MOLFORM=C7 H9 N O S
##MW=155
##$NIST SOURCE=MSDC
##XUNITS=M/Z
##YUNITS=RELATIVE INTENSITY
##XFACTOR=1
##YFACTOR=1
##FIRSTX=26
##LASTX=157
##FIRSTY=389
##MAXX=157
##MINX=26
##MAXY=9999
##MINY=69
##NPOINTS=40
##PEAK TABLE=(XY..XY)
26,389 27,1762 28,984 37,183
38,275 39,801 40,183 41,229
42,755 43,160 44,183 45,755
50,458 51,1327 52,1785 53,3341
54,366 55,275 70,458 78,389
79,275 80,1762 81,1373 82,481
93,686 94,1602 95,412 96,320
106,206 108,412 109,503 110,618
112,778 122,9152 123,869 140,69
154,1670 155,9999 156,984 157,412
##END=
