##TITLE=1-Butene, 1-chloro-3-methyl-
##JCAMP-DX=4.24
##DATA TYPE=MASS SPECTRUM
##ORIGIN=COMPAGNIE FRANCAISE DE RAFFINAGE, FRANCE.
##OWNER=NIST Mass Spectrometry Data Center
Collection (C) 2014 copyright by the U.S. Secretary of Commerce
on behalf of the United States of America. All rights reserved.
##CAS REGISTRY NO=23010-00-6
##$NIST MASS SPEC NO=1299
##MOLFORM=C5 H9 Cl
##MW=104
##$NIST SOURCE=MSDC
##XUNITS=M/Z
##YUNITS=RELATIVE INTENSITY
##XFACTOR=1
##YFACTOR=1
##FIRSTX=26
##LASTX=106
##FIRSTY=556
##MAXX=106
##MINX=26
##MAXY=9999
##MINY=9
##NPOINTS=47
##PEAK TABLE=(XY..XY)
26,556 27,2965 28,310 29,442
30,12 31,75 35,47 36,213
37,214 38,426 39,2207 40,462
41,6175 42,933 43,744 49,408
50,584 51,1163 52,265 53,7531
54,409 55,585 56,37 61,349
62,281 63,402 64,81 65,230
66,67 67,571 68,218 69,9999
70,606 71,17 75,393 76,177
77,124 78,9 87,73 88,102
89,5019 90,258 91,1588 103,65
104,2717 105,173 106,887
##END=
