##TITLE=Butylphosphonic dichloride
##JCAMP-DX=4.24
##DATA TYPE=MASS SPECTRUM
##ORIGIN=NIST Mass Spectrometry Data Center, 1994
##OWNER=NIST Mass Spectrometry Data Center
Collection (C) 2014 copyright by the U.S. Secretary of Commerce
on behalf of the United States of America. All rights reserved.
##CAS REGISTRY NO=2302-80-9
##$NIST MASS SPEC NO=133173
##MOLFORM=C4 H9 Cl2 O P
##MW=174
##$NIST SOURCE=MSDC
##XUNITS=M/Z
##YUNITS=RELATIVE INTENSITY
##XFACTOR=1
##YFACTOR=1
##FIRSTX=12
##LASTX=177
##FIRSTY=15
##MAXX=177
##MINX=12
##MAXY=9999
##MINY=6
##NPOINTS=112
##PEAK TABLE=(XY..XY)
12,15 14,197 15,827 16,14
26,1890 27,7494 28,3950 29,6709
30,146 31,98 33,65 35,199
36,118 37,270 38,736 39,3923
40,65 41,8801 42,459 43,353
44,7 45,181 46,7 47,2936
48,198 49,247 50,320 51,401
52,152 53,528 54,7 55,3466
56,7563 57,2841 58,129 59,19
60,26 61,98 62,72 63,165
64,21 65,78 66,278 67,93
68,167 69,75 70,19 71,21
72,8 73,12 74,28 75,52
76,38 77,16 78,16 79,42
80,44 81,74 82,310 83,713
84,111 85,250 86,31 87,19
89,12 91,11 93,15 94,10
96,259 97,639 98,110 99,206
100,10 101,306 103,213 104,15
105,36 107,15 109,252 110,194
111,99 112,75 113,9 115,14
117,1211 118,1802 119,1019 120,1112
121,334 122,200 123,62 132,9999
134,6680 136,1048 137,66 139,366
140,34 141,118 142,6 145,1371
146,559 147,885 148,350 149,154
150,50 159,231 161,142 162,9
163,24 173,17 175,53 177,30
##END=
