##TITLE=Tris(3-fluorophenyl)phosphine
##JCAMP-DX=4.24
##DATA TYPE=MASS SPECTRUM
##ORIGIN=NIST Mass Spectrometry Data Center, 1994
##OWNER=NIST Mass Spectrometry Data Center
Collection (C) 2014 copyright by the U.S. Secretary of Commerce
on behalf of the United States of America. All rights reserved.
##CAS REGISTRY NO=23039-94-3
##$NIST MASS SPEC NO=136928
##MOLFORM=C18 H12 F3 P
##MW=316
##$NIST SOURCE=MSDC
##XUNITS=M/Z
##YUNITS=RELATIVE INTENSITY
##XFACTOR=1
##YFACTOR=1
##FIRSTX=16
##LASTX=318
##FIRSTY=39
##MAXX=318
##MINX=16
##MAXY=9999
##MINY=19
##NPOINTS=102
##PEAK TABLE=(XY..XY)
16,39 17,53 18,176 27,68
28,222 31,81 32,55 38,31
39,227 44,32 45,61 50,471
51,448 52,32 56,92 57,450
59,19 62,82 63,175 68,146
69,619 70,89 74,327 75,1894
76,311 77,90 80,211 81,189
83,210 86,50 87,74 88,36
92,56 93,67 94,128 95,303
96,301 98,68 99,395 100,294
101,258 102,46 104,73 105,81
106,74 107,186 109,27 110,23
112,43 113,47 120,95 123,118
125,1859 126,6008 127,460 128,27
131,54 132,27 133,103 138,58
143,38 144,123 145,237 146,65
149,111 150,672 151,626 152,441
153,56 157,103 158,40 164,41
168,117 169,316 170,1035 171,179
175,227 177,40 181,151 187,42
188,257 189,93 190,163 191,39
193,73 195,42 199,245 201,1406
202,191 217,44 219,4436 220,916
221,711 222,100 244,27 266,40
293,32 295,29 315,1691 316,9999
317,1978 318,175
##END=
