##TITLE=1,2-Cyclohexanedicarboxylic acid, trans-
##JCAMP-DX=4.24
##DATA TYPE=MASS SPECTRUM
##OWNER=NIST Mass Spectrometry Data Center
Collection (C) 2014 copyright by the U.S. Secretary of Commerce
on behalf of the United States of America. All rights reserved.
##CAS REGISTRY NO=2305-32-0
##$NIST MASS SPEC NO=6850
##MOLFORM=C8 H12 O4
##MW=172
##$NIST SOURCE=MSDC
##XUNITS=M/Z
##YUNITS=RELATIVE INTENSITY
##XFACTOR=1
##YFACTOR=1
##FIRSTX=53
##LASTX=155
##FIRSTY=3000
##MAXX=155
##MINX=53
##MAXY=9999
##MINY=548
##NPOINTS=34
##PEAK TABLE=(XY..XY)
53,3000 54,4452 55,4000 56,1666
57,1786 65,714 66,1071 67,7618
68,2333 69,2024 70,1190 71,1143
73,2476 74,667 77,1476 78,786
79,3714 80,3952 81,9999 82,7856
83,1905 97,1309 98,548 99,2214
100,667 108,4357 109,1428 110,1190
126,5523 127,1190 128,4999 129,1143
154,1857 155,595
##END=
