##TITLE=4,4-Dimethyl-2-imidazoline
##JCAMP-DX=4.24
##DATA TYPE=MASS SPECTRUM
##ORIGIN=Chuck Anderson, Aldrich Chemical Co.
##OWNER=NIST Mass Spectrometry Data Center
Collection (C) 2014 copyright by the U.S. Secretary of Commerce
on behalf of the United States of America. All rights reserved.
##CAS REGISTRY NO=2305-59-1
##$NIST MASS SPEC NO=108450
##MOLFORM=C5 H10 N2
##MW=98
##$NIST SOURCE=MSDC
##XUNITS=M/Z
##YUNITS=RELATIVE INTENSITY
##XFACTOR=1
##YFACTOR=1
##FIRSTX=15
##LASTX=99
##FIRSTY=330
##MAXX=99
##MINX=15
##MAXY=9999
##MINY=74
##NPOINTS=31
##PEAK TABLE=(XY..XY)
15,330 18,259 26,303 27,973
28,3633 29,683 30,2325 38,194
39,1424 40,632 41,3691 42,4737
43,457 52,148 53,80 54,319
55,156 56,2121 57,317 58,3633
59,94 68,79 69,3924 70,465
81,290 82,74 83,9999 84,479
97,784 98,4127 99,261
##END=
