##TITLE=Benzene, 1-(dichloromethyl)-4-methyl-
##JCAMP-DX=4.24
##DATA TYPE=MASS SPECTRUM
##OWNER=NIST Mass Spectrometry Data Center
Collection (C) 2014 copyright by the U.S. Secretary of Commerce
on behalf of the United States of America. All rights reserved.
##CAS REGISTRY NO=23063-36-7
##$NIST MASS SPEC NO=7027
##MOLFORM=C8 H8 Cl2
##MW=174
##$NIST SOURCE=MSDC
##XUNITS=M/Z
##YUNITS=RELATIVE INTENSITY
##XFACTOR=1
##YFACTOR=1
##FIRSTX=18
##LASTX=179
##FIRSTY=10
##MAXX=179
##MINX=18
##MAXY=9999
##MINY=10
##NPOINTS=123
##PEAK TABLE=(XY..XY)
18,10 26,30 27,210 28,420
29,60 32,110 35,20 36,20
37,70 38,170 39,611 40,60
41,200 42,30 43,90 44,20
45,30 49,80 50,510 51,1501
52,400 53,130 54,20 55,160
56,90 57,50 59,40 60,30
61,130 62,260 63,591 64,100
65,611 66,50 67,70 68,140
69,320 70,80 71,20 72,10
73,150 74,200 75,310 76,170
77,1371 78,330 79,80 80,20
81,90 82,40 83,100 84,40
85,50 86,200 87,170 88,40
89,340 90,130 91,2372 92,240
93,30 95,50 96,20 97,70
98,40 99,60 100,20 101,180
102,370 103,1922 104,1251 105,220
106,30 107,50 108,20 109,90
110,20 111,40 112,40 113,30
114,20 115,30 116,30 117,40
118,50 119,26 120,22 121,10
122,10 123,10 124,30 125,170
126,20 127,50 129,20 131,20
133,20 135,20 136,50 137,90
138,270 139,9999 140,991 141,3263
142,300 143,60 144,10 145,30
153,20 157,30 158,20 159,120
160,30 161,70 163,10 172,30
173,70 174,1661 175,190 176,1100
177,110 178,180 179,30
##END=
