##TITLE=Ethanethioic acid, S-propyl ester
##JCAMP-DX=4.24
##DATA TYPE=MASS SPECTRUM
##ORIGIN=W. UTILIZATION R & D DIV., U.S. DEPT. OF AGRIC., ALBANY, CAL.
##OWNER=NIST Mass Spectrometry Data Center
Collection (C) 2014 copyright by the U.S. Secretary of Commerce
on behalf of the United States of America. All rights reserved.
##CAS REGISTRY NO=2307-10-0
##$NIST MASS SPEC NO=25794
##MOLFORM=C5 H10 O S
##MW=118
##$NIST SOURCE=MSDC
##XUNITS=M/Z
##YUNITS=RELATIVE INTENSITY
##XFACTOR=1
##YFACTOR=1
##FIRSTX=27
##LASTX=120
##FIRSTY=503
##MAXX=120
##MINX=27
##MAXY=9999
##MINY=20
##NPOINTS=30
##PEAK TABLE=(XY..XY)
27,503 29,139 35,20 39,618
40,75 41,1247 42,954 43,9999
44,281 45,491 46,313 47,653
48,79 49,55 57,20 58,166
59,226 60,91 61,166 71,51
74,1041 75,333 76,491 77,226
85,119 89,48 103,28 118,1714
119,79 120,79
##END=
