##TITLE=Acetic acid, thio-, S-hexyl ester
##JCAMP-DX=4.24
##DATA TYPE=MASS SPECTRUM
##ORIGIN=W. UTILIZATION R & D DIV., U.S. DEPT. OF AGRIC., ALBANY, CAL.
##OWNER=NIST Mass Spectrometry Data Center
Collection (C) 2014 copyright by the U.S. Secretary of Commerce
on behalf of the United States of America. All rights reserved.
##CAS REGISTRY NO=2307-12-2
##$NIST MASS SPEC NO=25817
##MOLFORM=C8 H16 O S
##MW=160
##$NIST SOURCE=MSDC
##XUNITS=M/Z
##YUNITS=RELATIVE INTENSITY
##XFACTOR=1
##YFACTOR=1
##FIRSTX=27
##LASTX=162
##FIRSTY=357
##MAXX=162
##MINX=27
##MAXY=9999
##MINY=33
##NPOINTS=53
##PEAK TABLE=(XY..XY)
27,357 29,492 35,43 39,393
40,62 41,1551 42,433 43,9999
44,269 45,266 46,121 47,374
53,148 54,82 55,1554 56,1207
57,171 58,138 59,197 60,157
61,305 67,171 68,49 69,439
70,33 71,344 72,203 73,236
76,344 77,371 82,95 83,600
84,1725 85,328 86,128 87,213
88,167 89,108 99,59 100,908
101,92 103,66 109,95 113,141
116,210 117,1590 118,279 119,92
127,82 142,56 160,744 161,56
162,43
##END=
