##TITLE=2,5-Piperazinedione, 3,6-bis(phenylmethyl)-
##JCAMP-DX=4.24
##DATA TYPE=MASS SPECTRUM
##ORIGIN=K.JANKOWSKI UNIV. OF MONCTON, NEW BRUNSWICK, CANADA
##OWNER=NIST Mass Spectrometry Data Center
Collection (C) 2014 copyright by the U.S. Secretary of Commerce
on behalf of the United States of America. All rights reserved.
##CAS REGISTRY NO=2308-61-4
##$NIST MASS SPEC NO=57875
##MOLFORM=C18 H18 N2 O2
##MW=294
##$NIST SOURCE=MSDC
##XUNITS=M/Z
##YUNITS=RELATIVE INTENSITY
##XFACTOR=1
##YFACTOR=1
##FIRSTX=27
##LASTX=296
##FIRSTY=120
##MAXX=296
##MINX=27
##MAXY=9999
##MINY=20
##NPOINTS=51
##PEAK TABLE=(XY..XY)
27,120 28,910 29,230 30,110
39,410 41,170 42,190 43,46
44,37 50,75 51,340 52,100
55,100 56,20 57,540 63,190
65,1010 66,70 77,710 78,260
79,63 84,72 89,220 90,190
91,9999 92,1440 93,210 103,83
104,330 105,81 112,250 113,95
117,150 118,260 119,170 120,1410
121,140 128,200 130,260 131,270
132,170 146,89 147,300 148,49
175,2870 176,360 203,1540 204,220
294,2554 295,549 296,75
##END=
