##TITLE=Benzene, 4-hexenyl-
##JCAMP-DX=4.24
##DATA TYPE=MASS SPECTRUM
##ORIGIN=NIST Mass Spectrometry Data Center, 1990.
##OWNER=NIST Mass Spectrometry Data Center
Collection (C) 2014 copyright by the U.S. Secretary of Commerce
on behalf of the United States of America. All rights reserved.
##CAS REGISTRY NO=23086-43-3
##$NIST MASS SPEC NO=113586
##MOLFORM=C12 H16
##MW=160
##$NIST SOURCE=MSDC
##XUNITS=M/Z
##YUNITS=RELATIVE INTENSITY
##XFACTOR=1
##YFACTOR=1
##FIRSTX=26
##LASTX=161
##FIRSTY=100
##MAXX=161
##MINX=26
##MAXY=9999
##MINY=69
##NPOINTS=51
##PEAK TABLE=(XY..XY)
26,100 27,1032 28,512 29,679
32,101 39,1817 40,292 41,2197
42,113 50,345 51,1075 52,303
53,505 54,138 55,801 62,125
63,508 65,2025 66,177 67,808
68,337 69,842 74,103 75,104
76,165 77,1552 78,860 79,1030
80,88 82,101 89,339 91,7223
92,4067 93,294 102,176 103,1136
104,9999 105,2828 106,210 115,518
116,182 117,1578 118,360 127,69
128,183 129,154 130,69 131,830
132,145 160,1490 161,207
##END=
