##TITLE=2-Propenoic acid, 3-(4-hydroxy-3-methoxyphenyl)-, methyl ester
##JCAMP-DX=4.24
##DATA TYPE=MASS SPECTRUM
##ORIGIN=NIST Mass Spectrometry Data Center
##OWNER=NIST Mass Spectrometry Data Center
Collection (C) 2014 copyright by the U.S. Secretary of Commerce
on behalf of the United States of America. All rights reserved.
##CAS REGISTRY NO=2309-07-1
##$NIST MASS SPEC NO=352566
##MOLFORM=C11 H12 O4
##MW=208
##$NIST SOURCE=MSDC
##XUNITS=M/Z
##YUNITS=RELATIVE INTENSITY
##XFACTOR=1
##YFACTOR=1
##FIRSTX=14
##LASTX=211
##FIRSTY=10
##MAXX=211
##MINX=14
##MAXY=9999
##MINY=10
##NPOINTS=141
##PEAK TABLE=(XY..XY)
14,10 15,240 26,50 27,100
28,30 29,210 30,40 31,130
32,10 33,10 37,40 38,200
39,631 40,50 41,120 42,30
43,100 44,20 45,90 46,30
49,50 50,731 51,1902 52,1031
53,921 54,100 55,350 56,10
57,20 59,540 60,30 61,120
62,460 63,1151 64,230 65,591
66,250 67,300 68,30 69,140
70,10 71,10 73,30 74,220
75,180 76,290 77,1722 78,1521
79,530 80,150 81,150 82,30
83,10 84,10 85,70 86,80
87,110 89,2412 90,350 91,671
92,160 93,120 94,180 95,70
96,10 97,10 98,30 99,20
100,10 101,60 102,80 103,260
104,160 105,1551 106,731 107,290
108,250 109,140 110,50 111,10
115,30 117,2602 118,661 119,320
120,90 121,430 122,200 123,70
124,60 125,30 129,20 130,60
131,210 132,80 133,2112 134,1682
135,591 136,100 137,530 138,50
139,20 143,10 145,5615 146,701
147,460 148,1241 149,1091 150,1521
151,210 152,30 157,10 158,20
159,20 160,20 161,230 162,190
163,80 164,60 165,320 166,40
167,90 168,10 175,90 177,7697
178,891 179,120 180,40 189,10
190,10 191,40 192,70 193,500
194,60 195,10 205,10 206,10
207,440 208,9999 209,1221 210,140
211,10
##END=
