##TITLE=1,3,7,9-Tetramethyluric acid
##JCAMP-DX=4.24
##DATA TYPE=MASS SPECTRUM
##ORIGIN=U. LANGENBECK, INST. HUMAN GENETICS, UNIV. GOTTINGEN, W. GER.
##OWNER=NIST Mass Spectrometry Data Center
Collection (C) 2014 copyright by the U.S. Secretary of Commerce
on behalf of the United States of America. All rights reserved.
##CAS REGISTRY NO=2309-49-1
##$NIST MASS SPEC NO=105047
##MOLFORM=C9 H12 N4 O3
##MW=224
##$NIST SOURCE=MSDC
##XUNITS=M/Z
##YUNITS=RELATIVE INTENSITY
##XFACTOR=1
##YFACTOR=1
##FIRSTX=15
##LASTX=226
##FIRSTY=2280
##MAXX=226
##MINX=15
##MAXY=9999
##MINY=110
##NPOINTS=51
##PEAK TABLE=(XY..XY)
15,2280 18,170 26,110 27,360
28,1900 29,140 30,110 40,310
41,500 42,1670 43,140 52,170
53,200 54,420 55,560 56,780
57,200 58,170 66,280 67,4040
68,330 69,860 70,1950 71,220
80,140 81,390 82,5930 83,1560
84,170 97,170 98,220 109,140
110,250 111,470 112,640 124,220
138,170 139,2150 140,610 152,200
165,170 166,1160 167,2180 168,310
181,140 195,140 209,220 223,200
224,9999 225,1170 226,140
##END=
