##TITLE=Benzoic acid, 4-(dodecyloxy)-
##JCAMP-DX=4.24
##DATA TYPE=MASS SPECTRUM
##ORIGIN=Japan AIST/NIMC Database- Spectrum MS-IW- 718
##OWNER=NIST Mass Spectrometry Data Center
Collection (C) 2014 copyright by the U.S. Secretary of Commerce
on behalf of the United States of America. All rights reserved.
##CAS REGISTRY NO=2312-15-4
##$NIST MASS SPEC NO=239380
##MOLFORM=C19 H30 O3
##MW=306
##$NIST SOURCE=MSDC
##XUNITS=M/Z
##YUNITS=RELATIVE INTENSITY
##XFACTOR=1
##YFACTOR=1
##FIRSTX=18
##LASTX=309
##FIRSTY=20
##MAXX=309
##MINX=18
##MAXY=9999
##MINY=10
##NPOINTS=97
##PEAK TABLE=(XY..XY)
18,20 27,99 28,80 29,369
39,139 40,20 41,1129 42,269
43,2609 44,99 50,10 51,20
53,70 54,109 55,1739 56,1159
57,3709 58,159 60,10 63,20
64,10 65,239 66,50 67,219
68,179 69,1739 70,1359 71,1949
72,99 75,10 76,30 77,109
78,20 79,70 80,10 81,179
82,429 83,1429 84,889 85,1039
86,60 91,20 92,20 93,139
94,119 95,269 96,339 97,1199
98,539 99,219 100,10 103,10
104,10 105,30 107,50 108,10
109,30 110,199 111,819 112,329
113,129 114,10 119,10 120,10
121,1399 122,129 123,40 124,90
125,479 126,199 127,50 133,10
135,10 137,20 138,9999 139,7609
140,709 141,70 149,20 151,129
152,10 153,10 164,10 165,10
166,10 168,449 169,60 179,50
180,10 278,40 279,10 289,50
290,10 306,3859 307,889 308,119
309,10
##END=
