##TITLE=1-tert-Butyl-3-nitrobenzene
##JCAMP-DX=4.24
##DATA TYPE=MASS SPECTRUM
##ORIGIN=Japan AIST/NIMC Database- Spectrum MS-IW-2840
##OWNER=NIST Mass Spectrometry Data Center
Collection (C) 2014 copyright by the U.S. Secretary of Commerce
on behalf of the United States of America. All rights reserved.
##CAS REGISTRY NO=23132-52-7
##$NIST MASS SPEC NO=245085
##MOLFORM=C10 H13 N O2
##MW=179
##$NIST SOURCE=MSDC
##XUNITS=M/Z
##YUNITS=RELATIVE INTENSITY
##XFACTOR=1
##YFACTOR=1
##FIRSTX=15
##LASTX=181
##FIRSTY=10
##MAXX=181
##MINX=15
##MAXY=9999
##MINY=10
##NPOINTS=85
##PEAK TABLE=(XY..XY)
15,10 27,90 28,50 29,139
30,40 38,20 39,269 40,30
41,419 42,20 43,20 46,10
50,149 51,249 52,60 53,70
55,80 56,20 57,229 58,70
61,10 62,40 63,139 64,40
65,159 66,20 67,10 74,60
75,90 76,109 77,429 78,179
79,70 81,10 82,10 86,10
87,20 89,129 90,379 91,639
92,70 93,40 94,50 101,20
102,149 103,289 104,40 105,129
106,60 107,30 111,10 113,20
114,10 115,529 116,169 117,849
118,879 119,109 120,10 121,10
124,60 127,10 128,20 129,10
130,10 131,20 132,20 133,139
134,119 135,10 136,2639 137,219
138,20 147,30 148,70 149,40
150,10 162,10 163,70 164,9999
165,1029 166,90 179,1149 180,139
181,10
##END=
