##TITLE=Propanoic acid, 2,2-dimethyl-, pentyl ester
##JCAMP-DX=4.24
##DATA TYPE=MASS SPECTRUM
##ORIGIN=V.G. Zaikin, TIPS RAS, Moscow, Russia
##OWNER=NIST Mass Spectrometry Data Center
Collection (C) 2014 copyright by the U.S. Secretary of Commerce
on behalf of the United States of America. All rights reserved.
##CAS REGISTRY NO=2313-68-0
##$NIST MASS SPEC NO=278930
##MOLFORM=C10 H20 O2
##MW=172
##$NIST SOURCE=MSDC
##XUNITS=M/Z
##YUNITS=RELATIVE INTENSITY
##XFACTOR=1
##YFACTOR=1
##FIRSTX=26
##LASTX=129
##FIRSTY=80
##MAXX=129
##MINX=26
##MAXY=9999
##MINY=30
##NPOINTS=31
##PEAK TABLE=(XY..XY)
26,80 27,971 28,150 29,1742
30,60 31,30 39,1281 40,330
41,2883 42,911 43,1521 44,270
45,60 50,80 51,160 52,210
53,160 55,671 56,881 57,9999
58,390 59,310 69,180 70,1171
71,681 85,2262 86,130 87,210
103,2392 104,130 129,110
##END=
