##TITLE=4-Ethylphenyl isocyanate
##JCAMP-DX=4.24
##DATA TYPE=MASS SPECTRUM
##ORIGIN=NIST Mass Spectrometry Data Center
##OWNER=NIST Mass Spectrometry Data Center
Collection (C) 2014 copyright by the U.S. Secretary of Commerce
on behalf of the United States of America. All rights reserved.
##CAS REGISTRY NO=23138-50-3
##$NIST MASS SPEC NO=343274
##MOLFORM=C9 H9 N O
##MW=147
##$NIST SOURCE=MSDC
##XUNITS=M/Z
##YUNITS=RELATIVE INTENSITY
##XFACTOR=1
##YFACTOR=1
##FIRSTX=12
##LASTX=149
##FIRSTY=10
##MAXX=149
##MINX=12
##MAXY=9999
##MINY=10
##NPOINTS=77
##PEAK TABLE=(XY..XY)
12,10 13,10 15,290 18,10
26,250 27,811 28,270 29,140
32,10 37,230 38,440 39,1201
40,210 41,180 42,30 43,20
44,40 45,20 49,60 50,641
51,1221 52,520 53,150 54,60
55,10 56,20 57,30 58,170
59,70 61,140 62,340 63,791
64,520 65,390 66,140 67,30
68,10 73,30 74,110 75,190
76,350 77,1591 78,561 79,120
80,30 81,10 85,10 86,30
87,70 88,80 89,320 90,340
91,561 92,100 93,20 99,10
102,170 103,180 104,611 105,200
106,60 114,10 116,110 117,110
118,220 119,200 120,30 128,250
129,30 132,9999 133,941 134,60
144,10 145,30 147,2873 148,300
149,10
##END=
