##TITLE=2-Hexanol, 3-methyl-
##JCAMP-DX=4.24
##DATA TYPE=MASS SPECTRUM
##ORIGIN=M.C. HAMMING CONTINENTAL OIL CO., PONCA CITY, OKLA, USA
##OWNER=NIST Mass Spectrometry Data Center
Collection (C) 2014 copyright by the U.S. Secretary of Commerce
on behalf of the United States of America. All rights reserved.
##CAS REGISTRY NO=2313-65-7
##$NIST MASS SPEC NO=20300
##MOLFORM=C7 H16 O
##MW=116
##$NIST SOURCE=MSDC
##XUNITS=M/Z
##YUNITS=RELATIVE INTENSITY
##XFACTOR=1
##YFACTOR=1
##FIRSTX=12
##LASTX=116
##FIRSTY=8
##MAXX=116
##MINX=12
##MAXY=9999
##MINY=2
##NPOINTS=78
##PEAK TABLE=(XY..XY)
12,8 13,11 14,51 15,362
16,17 17,11 18,31 19,41
25,5 26,208 27,1965 28,300
29,1420 30,48 31,248 32,8
33,2 36,5 37,28 38,74
39,865 40,142 41,1420 42,637
43,3008 44,934 45,9999 46,242
47,62 48,5 49,5 50,40
51,65 52,25 53,151 54,48
55,1205 56,285 57,454 58,51
59,282 60,11 61,2 62,8
63,14 64,2 65,17 66,8
67,40 68,17 69,331 70,1785
71,397 72,134 73,48 74,11
77,8 78,2 79,5 81,11
83,294 84,45 85,45 86,8
87,22 88,2 95,2 97,17
98,111 99,22 100,5 101,202
102,14 112,2 113,5 114,5
115,20 116,2
##END=
