##TITLE=Carbonotrithioic acid, dimethyl ester
##JCAMP-DX=4.24
##DATA TYPE=MASS SPECTRUM
##ORIGIN=CARL DJERASSI DEPT OF CHEM STANFORD UNIV STANFORD CALIF 94305
##OWNER=NIST Mass Spectrometry Data Center
Collection (C) 2014 copyright by the U.S. Secretary of Commerce
on behalf of the United States of America. All rights reserved.
##CAS REGISTRY NO=2314-48-9
##$NIST MASS SPEC NO=46553
##MOLFORM=C3 H6 S3
##MW=138
##$NIST SOURCE=MSDC
##XUNITS=M/Z
##YUNITS=RELATIVE INTENSITY
##XFACTOR=1
##YFACTOR=1
##FIRSTX=32
##LASTX=140
##FIRSTY=244
##MAXX=140
##MINX=32
##MAXY=9999
##MINY=101
##NPOINTS=20
##PEAK TABLE=(XY..XY)
32,244 44,606 45,3232 46,1111
47,2424 48,202 58,101 59,909
64,404 76,3535 77,606 78,202
79,303 91,9999 92,303 93,808
94,101 138,6161 139,101 140,707
##END=
