##TITLE=Methane, trifluoroiodo-
##JCAMP-DX=4.24
##DATA TYPE=MASS SPECTRUM
##OWNER=NIST Mass Spectrometry Data Center
Collection (C) 2014 copyright by the U.S. Secretary of Commerce
on behalf of the United States of America. All rights reserved.
##CAS REGISTRY NO=2314-97-8
##$NIST MASS SPEC NO=8741
##MOLFORM=C F3 I
##MW=196
##$NIST SOURCE=MSDC
##XUNITS=M/Z
##YUNITS=RELATIVE INTENSITY
##XFACTOR=1
##YFACTOR=1
##FIRSTX=12
##LASTX=196
##FIRSTY=500
##MAXX=196
##MINX=12
##MAXY=9999
##MINY=10
##NPOINTS=13
##PEAK TABLE=(XY..XY)
12,500 19,240 31,1161 50,731
69,7747 73,10 79,10 127,9569
139,90 146,120 158,30 177,3123
196,9999
##END=
