##TITLE=Benzene, 1,2,4-trichloro-5-isothiocyanato-
##JCAMP-DX=4.24
##DATA TYPE=MASS SPECTRUM
##ORIGIN=NIST Mass Spectrometry Data Center, 1994
##OWNER=NIST Mass Spectrometry Data Center
Collection (C) 2014 copyright by the U.S. Secretary of Commerce
on behalf of the United States of America. All rights reserved.
##CAS REGISTRY NO=23165-46-0
##$NIST MASS SPEC NO=134875
##MOLFORM=C7 H2 Cl3 N S
##MW=237
##$NIST SOURCE=MSDC
##XUNITS=M/Z
##YUNITS=RELATIVE INTENSITY
##XFACTOR=1
##YFACTOR=1
##FIRSTX=12
##LASTX=243
##FIRSTY=86
##MAXX=243
##MINX=12
##MAXY=9999
##MINY=39
##NPOINTS=134
##PEAK TABLE=(XY..XY)
12,86 14,51 18,57 25,78
26,39 32,923 35,524 36,558
37,1683 38,491 39,58 44,1325
45,288 46,131 47,661 48,264
49,1021 50,753 51,277 54,67
56,111 58,604 59,163 60,780
61,1651 62,1154 63,360 64,120
66,72 67,84 68,110 69,348
70,1969 71,446 72,1113 73,2057
74,2974 75,686 76,114 79,1160
80,86 81,559 82,294 83,717
84,1501 85,546 86,858 87,1038
88,967 89,95 91,60 92,60
93,94 94,405 95,315 96,453
97,662 98,903 99,913 100,484
101,245 102,112 103,107 105,220
106,246 107,881 108,1674 109,1906
110,723 111,534 112,81 116,90
117,174 119,744 120,325 122,387
123,84 124,124 130,90 131,380
132,453 133,212 134,421 135,106
136,121 141,77 143,1332 144,657
145,810 146,417 147,168 158,894
159,95 160,579 161,66 162,86
167,2318 168,235 169,1129 170,325
171,228 172,153 175,47 176,106
177,47 178,47 179,1328 180,157
181,1090 182,127 183,390 193,163
194,50 195,123 197,61 201,158
202,1087 203,195 204,784 205,1215
206,257 207,1244 208,117 209,410
210,105 211,53 212,61 237,9499
238,870 239,9999 240,889 241,3570
242,315 243,451
##END=
