##TITLE=4-Methoxy-2-nitrophenyl isothiocyanate
##JCAMP-DX=4.24
##DATA TYPE=MASS SPECTRUM
##ORIGIN=NIST Mass Spectrometry Data Center, 1994
##OWNER=NIST Mass Spectrometry Data Center
Collection (C) 2014 copyright by the U.S. Secretary of Commerce
on behalf of the United States of America. All rights reserved.
##CAS REGISTRY NO=23165-60-8
##$NIST MASS SPEC NO=135018
##MOLFORM=C8 H6 N2 O3 S
##MW=210
##$NIST SOURCE=MSDC
##XUNITS=M/Z
##YUNITS=RELATIVE INTENSITY
##XFACTOR=1
##YFACTOR=1
##FIRSTX=14
##LASTX=213
##FIRSTY=90
##MAXX=213
##MINX=14
##MAXY=9999
##MINY=20
##NPOINTS=128
##PEAK TABLE=(XY..XY)
14,90 15,512 16,29 18,54
26,141 27,80 28,272 29,164
30,926 31,27 32,152 37,256
38,499 39,348 40,55 41,32
42,31 43,49 44,201 45,261
46,224 47,43 48,22 49,136
50,921 51,656 52,177 53,293
54,54 55,24 56,46 57,49
58,139 59,138 60,22 61,400
62,887 63,2491 64,338 65,356
66,191 67,39 68,24 69,500
70,1296 71,169 72,139 73,101
74,501 75,720 76,589 77,1148
78,911 79,326 80,109 81,74
82,210 83,339 84,94 85,37
86,103 87,111 88,215 89,169
90,685 91,173 92,353 93,325
94,973 95,561 96,425 97,147
98,32 99,39 100,22 102,80
103,48 104,96 105,80 106,138
107,557 108,264 109,1041 110,154
111,294 112,33 117,74 118,165
119,166 120,807 121,2106 122,246
123,139 124,57 131,29 132,52
133,191 134,1144 135,205 136,386
137,718 138,157 139,42 147,162
149,1399 150,147 151,119 152,921
153,108 154,38 162,43 164,2094
165,693 166,140 167,20 177,565
178,106 180,785 181,95 182,50
194,123 195,343 196,43 197,24
210,9999 211,1075 212,590 213,54
##END=
