##TITLE=4-Chloro-3-trifluoromethylphenyl isothiocyanate
##JCAMP-DX=4.24
##DATA TYPE=MASS SPECTRUM
##ORIGIN=NIST Mass Spectrometry Data Center, 1994
##OWNER=NIST Mass Spectrometry Data Center
Collection (C) 2014 copyright by the U.S. Secretary of Commerce
on behalf of the United States of America. All rights reserved.
##CAS REGISTRY NO=23163-86-2
##$NIST MASS SPEC NO=136489
##MOLFORM=C8 H3 Cl F3 N S
##MW=237
##$NIST SOURCE=MSDC
##XUNITS=M/Z
##YUNITS=RELATIVE INTENSITY
##XFACTOR=1
##YFACTOR=1
##FIRSTX=26
##LASTX=242
##FIRSTY=13
##MAXX=242
##MINX=26
##MAXY=9999
##MINY=5
##NPOINTS=146
##PEAK TABLE=(XY..XY)
26,13 31,131 32,511 33,42
34,30 35,87 36,81 37,487
38,327 39,112 44,484 45,5
46,37 47,76 48,36 49,244
50,763 51,243 52,72 55,27
56,140 57,278 58,232 60,98
61,450 62,465 63,554 64,195
67,74 68,210 69,1718 70,715
71,84 72,153 73,469 74,1029
75,1610 76,189 79,141 80,105
81,229 82,166 83,255 84,194
85,282 86,142 87,314 88,398
89,72 90,29 91,148 92,118
93,429 94,328 95,121 96,38
97,143 98,141 99,636 100,331
101,975 103,54 104,55 105,88
106,150 107,92 108,249 109,444
110,118 111,144 112,85 113,91
115,38 117,77 119,334 120,144
123,117 124,321 125,497 126,128
128,37 129,301 130,59 131,174
132,256 133,396 135,44 137,24
138,137 139,92 142,64 143,635
144,1002 145,104 148,84 150,93
151,72 152,46 153,44 155,128
156,32 157,166 158,150 159,226
160,129 161,73 166,48 167,33
168,77 169,31 170,331 171,30
173,180 174,33 175,132 179,2694
180,209 181,846 182,395 183,39
186,163 187,708 188,114 189,283
190,35 193,179 195,59 202,2083
203,214 204,142 205,169 206,30
207,47 210,36 217,72 218,808
219,114 220,305 221,98 235,23
237,9999 238,1004 239,3749 240,370
241,162 242,14
##END=
