##TITLE=Ethene, 1-chloro-1-fluoro-
##JCAMP-DX=4.24
##DATA TYPE=MASS SPECTRUM
##ORIGIN=THE M.W. KELLOGG CO., JERSEY CITY, N.J., USA
##OWNER=NIST Mass Spectrometry Data Center
Collection (C) 2014 copyright by the U.S. Secretary of Commerce
on behalf of the United States of America. All rights reserved.
##CAS REGISTRY NO=2317-91-1
##$NIST MASS SPEC NO=35029
##MOLFORM=C2 H2 Cl F
##MW=80
##$NIST SOURCE=MSDC
##XUNITS=M/Z
##YUNITS=RELATIVE INTENSITY
##XFACTOR=1
##YFACTOR=1
##FIRSTX=20
##LASTX=83
##FIRSTY=16
##MAXX=83
##MINX=20
##MAXY=9999
##MINY=2
##NPOINTS=39
##PEAK TABLE=(XY..XY)
20,16 24,421 25,943 26,1314
27,31 30,30 31,997 32,55
33,62 34,2 35,806 36,113
37,251 38,37 43,148 44,1970
45,9999 46,225 47,401 48,69
49,246 50,24 51,40 59,135
60,135 61,460 62,563 63,165
64,5 66,83 67,11 68,27
69,5 78,67 79,256 80,7130
81,243 82,2270 83,49
##END=
