##TITLE=Renardine
##JCAMP-DX=4.24
##DATA TYPE=MASS SPECTRUM
##ORIGIN=E. Roeder, Pharm. Inst., Univ. Bonn, Bonn, W. Ger.
##OWNER=NIST Mass Spectrometry Data Center
Collection (C) 2014 copyright by the U.S. Secretary of Commerce
on behalf of the United States of America. All rights reserved.
##CAS REGISTRY NO=2318-18-5
##$NIST MASS SPEC NO=112357
##MOLFORM=C19 H27 N O6
##MW=365
##$NIST SOURCE=MSDC
##XUNITS=M/Z
##YUNITS=RELATIVE INTENSITY
##XFACTOR=1
##YFACTOR=1
##FIRSTX=43
##LASTX=365
##FIRSTY=9999
##MAXX=365
##MINX=43
##MAXY=9999
##MINY=293
##NPOINTS=35
##PEAK TABLE=(XY..XY)
43,9999 44,5482 58,4792 70,3660
82,2092 94,2490 96,3365 100,3338
110,6889 112,1037 123,882 124,1195
125,367 128,1737 136,565 140,2319
149,293 150,1574 151,9271 166,2122
167,2090 168,7024 169,1118 184,565
221,717 222,2052 249,853 250,1654
254,1005 266,3045 278,341 294,1875
321,2279 337,879 365,634
##END=
