##TITLE=Butachlor
##JCAMP-DX=4.24
##DATA TYPE=MASS SPECTRUM
##ORIGIN=ACCUSTANDARD Chemicals / NIST MS Data Center.
##OWNER=NIST Mass Spectrometry Data Center
Collection (C) 2014 copyright by the U.S. Secretary of Commerce
on behalf of the United States of America. All rights reserved.
##CAS REGISTRY NO=23184-66-9
##$NIST MASS SPEC NO=125603
##MOLFORM=C17 H26 Cl N O2
##MW=311
##$NIST SOURCE=MSDC
##XUNITS=M/Z
##YUNITS=RELATIVE INTENSITY
##XFACTOR=1
##YFACTOR=1
##FIRSTX=12
##LASTX=314
##FIRSTY=38
##MAXX=314
##MINX=12
##MAXY=9999
##MINY=1
##NPOINTS=190
##PEAK TABLE=(XY..XY)
12,38 14,117 15,340 16,22
17,9 18,46 19,1 25,54
27,2456 29,6308 30,296 31,511
35,46 36,74 37,53 38,198
39,1312 40,46 41,5771 42,897
43,938 44,208 45,314 46,28
49,1097 50,225 51,819 52,256
53,364 54,181 55,676 56,28
57,9676 58,468 59,34 63,266
64,152 65,753 66,128 67,93
69,48 70,35 71,169 72,58
73,33 74,55 75,114 76,33
77,2788 78,583 79,1168 80,112
81,27 85,62 86,100 87,760
88,116 89,350 90,618 91,2054
92,335 93,315 94,165 95,62
101,100 102,286 103,876 104,476
105,981 106,357 107,111 108,23
113,29 115,1062 116,712 117,2256
118,2162 119,678 120,569 121,318
122,188 123,57 125,21 126,24
127,172 128,484 129,379 130,1835
131,1441 132,2077 133,640 134,774
135,148 140,41 141,64 142,231
143,403 144,758 145,588 146,2939
147,1742 148,1353 149,498 150,346
151,50 153,25 154,81 155,35
156,152 157,25 158,665 159,25
160,8590 161,2079 162,2230 163,273
164,27 168,56 169,35 170,137
171,114 172,482 173,239 174,796
175,27 176,9999 177,1545 178,805
179,107 180,65 182,47 183,25
184,32 186,481 188,4867 189,824
190,1028 191,142 192,68 193,56
194,263 195,89 196,315 197,64
198,156 199,28 200,81 201,28
202,1274 203,212 204,94 205,28
206,408 207,303 208,317 209,180
210,180 211,42 212,42 218,41
220,329 221,71 222,165 223,41
224,1187 225,422 226,1106 227,231
228,245 229,47 232,47 233,55
237,2751 238,1852 239,1146 240,682
241,84 254,175 255,30 256,56
258,29 262,223 263,51 276,883
277,178 278,20 311,809 312,216
313,292 314,41
##END=
