##TITLE=Cyclohexane, 1,1'-ethylidenebis-
##JCAMP-DX=4.24
##DATA TYPE=MASS SPECTRUM
##OWNER=NIST Mass Spectrometry Data Center
Collection (C) 2014 copyright by the U.S. Secretary of Commerce
on behalf of the United States of America. All rights reserved.
##CAS REGISTRY NO=2319-61-1
##$NIST MASS SPEC NO=22365
##MOLFORM=C14 H26
##MW=194
##$NIST SOURCE=MSDC
##XUNITS=M/Z
##YUNITS=RELATIVE INTENSITY
##XFACTOR=1
##YFACTOR=1
##FIRSTX=29
##LASTX=196
##FIRSTY=3273
##MAXX=196
##MINX=29
##MAXY=9999
##MINY=10
##NPOINTS=102
##PEAK TABLE=(XY..XY)
29,3273 30,60 37,10 38,10
39,2262 40,390 41,8748 42,861
43,1221 44,40 45,10 46,10
49,10 50,30 51,170 52,120
53,1191 54,1431 55,9729 56,711
57,530 58,20 59,10 61,10
62,10 63,30 64,10 65,200
66,190 67,3283 68,1241 69,9999
70,621 71,40 72,10 73,10
74,10 75,10 76,10 77,250
78,60 79,330 80,200 81,3193
82,6466 83,4004 84,250 85,10
89,10 90,10 91,110 92,20
93,70 94,20 95,621 96,90
97,300 98,30 99,10 102,10
103,10 104,10 105,20 106,10
107,20 108,10 109,180 110,7096
111,9939 112,831 113,30 114,10
115,10 116,10 117,10 119,10
121,10 122,10 123,60 124,20
125,10 126,10 127,10 128,10
129,10 135,10 136,10 137,10
138,10 150,10 151,10 152,10
164,10 165,20 166,10 178,10
179,20 180,10 193,10 194,530
195,80 196,10
##END=
