##TITLE=Benzenethanamine,4-methoxy-.alpha.-methyl-(.+/-.)-
##JCAMP-DX=4.24
##DATA TYPE=MASS SPECTRUM
##ORIGIN=Drug Lab
##OWNER=NIST Mass Spectrometry Data Center
Collection (C) 2014 copyright by the U.S. Secretary of Commerce
on behalf of the United States of America. All rights reserved.
##CAS REGISTRY NO=23239-32-9
##$NIST MASS SPEC NO=379343
##MOLFORM=C10 H15 N O
##MW=165
##$NIST SOURCE=MSDC
##XUNITS=M/Z
##YUNITS=RELATIVE INTENSITY
##XFACTOR=1
##YFACTOR=1
##FIRSTX=41
##LASTX=166
##FIRSTY=80
##MAXX=166
##MINX=41
##MAXY=9999
##MINY=10
##NPOINTS=64
##PEAK TABLE=(XY..XY)
41,80 42,270 43,120 44,9999
45,270 50,90 51,250 52,210
53,100 54,20 55,30 56,20
57,10 59,20 60,20 62,40
63,140 64,60 65,170 66,20
67,20 75,90 76,30 77,520
78,631 79,170 80,50 81,10
89,150 90,70 91,360 92,80
93,30 94,10 102,10 103,40
104,30 105,40 106,120 107,240
108,40 115,40 116,10 117,40
118,60 119,30 120,20 121,1181
122,2532 123,220 124,10 131,10
132,20 133,20 134,110 135,40
147,10 148,40 149,20 150,70
163,10 164,20 165,80 166,10
##END=
