##TITLE=Pentanoic acid, 5-chloro-, ethyl ester
##JCAMP-DX=4.24
##DATA TYPE=MASS SPECTRUM
##ORIGIN=Zaikin V.G., TIPS RAS, Moscow, Russia
##OWNER=NIST Mass Spectrometry Data Center
Collection (C) 2014 copyright by the U.S. Secretary of Commerce
on behalf of the United States of America. All rights reserved.
##CAS REGISTRY NO=2323-81-1
##$NIST MASS SPEC NO=292308
##MOLFORM=C7 H13 Cl O2
##MW=164
##$NIST SOURCE=MSDC
##XUNITS=M/Z
##YUNITS=RELATIVE INTENSITY
##XFACTOR=1
##YFACTOR=1
##FIRSTX=26
##LASTX=165
##FIRSTY=380
##MAXX=165
##MINX=26
##MAXY=9999
##MINY=10
##NPOINTS=79
##PEAK TABLE=(XY..XY)
26,380 27,2772 28,10 29,5165
30,190 31,170 35,40 36,210
38,120 39,1211 40,200 41,1952
42,1201 43,1361 44,260 45,1712
46,40 49,460 50,70 51,290
52,80 53,591 54,611 55,9999
56,1621 57,490 58,170 59,550
60,821 61,390 62,280 63,571
64,100 65,160 68,30 69,390
70,250 71,70 73,2692 74,360
75,180 77,50 79,50 81,30
82,220 83,1732 84,120 85,50
86,40 87,601 88,1271 89,130
90,110 91,4304 92,230 93,1421
94,60 99,100 100,320 101,8888
102,731 103,50 115,691 116,40
118,100 119,7947 120,500 121,2582
122,120 128,1061 129,4154 130,330
135,40 136,120 137,931 138,90
139,300 164,90 165,40
##END=
