##TITLE=Furan, 3-(4,8-dimethyl-3,7-nonadienyl)-, (E)-
##JCAMP-DX=4.24
##DATA TYPE=MASS SPECTRUM
##ORIGIN=NIST Mass Spectrometry Data Center
##OWNER=NIST Mass Spectrometry Data Center
Collection (C) 2014 copyright by the U.S. Secretary of Commerce
on behalf of the United States of America. All rights reserved.
##CAS REGISTRY NO=23262-34-2
##$NIST MASS SPEC NO=413096
##MOLFORM=C15 H22 O
##MW=218
##$NIST SOURCE=MSDC
##XUNITS=M/Z
##YUNITS=RELATIVE INTENSITY
##XFACTOR=1
##YFACTOR=1
##FIRSTX=26
##LASTX=219
##FIRSTY=10
##MAXX=219
##MINX=26
##MAXY=9999
##MINY=10
##NPOINTS=86
##PEAK TABLE=(XY..XY)
26,10 27,440 28,40 29,240
30,10 37,10 38,20 39,671
40,170 41,3563 42,180 50,80
51,290 52,180 53,1862 54,130
55,581 56,30 57,150 62,10
63,50 64,20 65,270 66,80
67,861 68,420 69,9999 70,540
75,10 76,10 77,410 78,100
79,380 80,180 81,6346 82,1111
83,70 89,10 91,300 92,70
93,350 94,360 95,591 96,50
102,10 103,60 104,20 105,290
106,60 108,60 115,70 116,40
117,60 119,140 121,370 122,150
123,591 124,250 128,20 129,40
130,10 131,220 132,170 133,230
134,120 135,370 136,681 137,270
147,140 148,60 149,190 150,90
151,10 159,10 162,50 174,40
175,681 176,100 177,10 185,10
189,20 190,10 203,721 204,100
218,200 219,30
##END=
