##TITLE=1,2:5,6-Dianhydrogalactitol
##JCAMP-DX=4.24
##DATA TYPE=MASS SPECTRUM
##ORIGIN=OGDEN BioServices Corp., NCI, Rockville, MD 20852
##OWNER=NIST Mass Spectrometry Data Center
Collection (C) 2014 copyright by the U.S. Secretary of Commerce
on behalf of the United States of America. All rights reserved.
##CAS REGISTRY NO=23261-20-3
##$NIST MASS SPEC NO=131610
##MOLFORM=C6 H10 O4
##MW=146
##$NIST SOURCE=MSDC
##XUNITS=M/Z
##YUNITS=RELATIVE INTENSITY
##XFACTOR=1
##YFACTOR=1
##FIRSTX=41
##LASTX=147
##FIRSTY=967
##MAXX=147
##MINX=41
##MAXY=9999
##MINY=6
##NPOINTS=80
##PEAK TABLE=(XY..XY)
41,967 42,2807 43,5182 44,1536
45,5189 46,473 47,434 48,23
49,100 50,118 51,152 52,46
53,236 54,257 55,5432 56,9999
57,4218 58,368 59,458 60,1261
61,199 62,18 63,13 64,23
65,16 66,27 67,36 68,226
69,578 70,175 71,928 72,204
73,6054 74,6577 75,294 76,34
77,34 78,24 79,7 81,52
82,17 83,87 84,139 85,218
86,119 87,34 88,10 89,11
91,107 94,7 95,7 96,7
97,62 98,10 99,64 103,25
105,49 106,15 108,7 109,15
111,656 112,131 113,29 114,8
115,76 116,24 117,16 118,8
119,12 120,12 121,18 122,33
123,16 128,11 129,36 130,23
144,6 145,21 146,72 147,6
##END=
