##TITLE=Triethyl 4-phosphonobutanoate
##JCAMP-DX=4.24
##DATA TYPE=MASS SPECTRUM
##ORIGIN=NIST Mass Spectrometry Data Center
##OWNER=NIST Mass Spectrometry Data Center
Collection (C) 2014 copyright by the U.S. Secretary of Commerce
on behalf of the United States of America. All rights reserved.
##CAS REGISTRY NO=2327-69-7
##$NIST MASS SPEC NO=343686
##MOLFORM=C10 H21 O5 P
##MW=252
##$NIST SOURCE=MSDC
##XUNITS=M/Z
##YUNITS=RELATIVE INTENSITY
##XFACTOR=1
##YFACTOR=1
##FIRSTX=14
##LASTX=252
##FIRSTY=100
##MAXX=252
##MINX=14
##MAXY=9999
##MINY=30
##NPOINTS=106
##PEAK TABLE=(XY..XY)
14,100 15,390 18,30 19,130
26,310 27,2702 28,691 29,5965
30,240 31,631 39,881 40,290
41,3633 42,3243 43,1531 44,270
45,1301 46,60 47,480 48,120
53,80 54,120 55,701 56,60
57,200 59,120 60,270 61,240
62,80 63,60 65,2032 67,100
68,310 69,410 70,360 71,60
73,150 76,80 77,70 78,831
79,460 80,951 81,2963 82,1121
83,601 85,70 86,110 87,270
88,691 89,60 90,90 91,931
92,140 93,310 94,140 95,100
96,971 97,2933 99,350 103,160
105,2102 106,591 107,300 108,1812
109,4554 110,751 111,2342 112,60
115,100 116,50 121,260 122,550
123,6216 124,851 125,5985 126,200
127,160 133,300 134,691 135,130
137,2302 138,2522 139,210 149,510
150,510 151,7867 152,8578 153,611
154,70 155,90 162,90 163,90
165,9999 166,701 167,70 177,170
178,1501 179,5745 180,1091 181,110
205,100 206,270 207,4544 208,530
209,80 252,140
##END=
