##TITLE=Benzoic acid, 2-hydroxy-3-methyl-, methyl ester
##JCAMP-DX=4.24
##DATA TYPE=MASS SPECTRUM
##ORIGIN=NIST Mass Spectrometry Data Center, 1994
##OWNER=NIST Mass Spectrometry Data Center
Collection (C) 2014 copyright by the U.S. Secretary of Commerce
on behalf of the United States of America. All rights reserved.
##CAS REGISTRY NO=23287-26-5
##$NIST MASS SPEC NO=135307
##MOLFORM=C9 H10 O3
##MW=166
##$NIST SOURCE=MSDC
##XUNITS=M/Z
##YUNITS=RELATIVE INTENSITY
##XFACTOR=1
##YFACTOR=1
##FIRSTX=12
##LASTX=168
##FIRSTY=44
##MAXX=168
##MINX=12
##MAXY=9999
##MINY=12
##NPOINTS=82
##PEAK TABLE=(XY..XY)
12,44 13,57 15,2418 16,60
17,22 18,38 19,14 25,25
26,177 27,1026 28,292 29,859
30,201 31,298 32,41 33,23
37,201 38,506 39,1724 40,173
41,165 42,57 43,145 44,35
45,171 50,1151 51,2997 52,1336
53,1664 54,129 55,229 59,71
60,16 61,88 62,300 63,693
64,138 65,281 66,282 67,206
68,46 69,54 73,68 74,289
75,218 76,16 77,4204 78,3155
79,947 80,67 81,35 82,12
83,18 85,41 86,33 87,30
89,107 90,58 91,76 92,44
93,24 94,30 95,18 103,24
105,3259 106,9999 107,952 108,69
119,29 121,19 122,25 134,9146
135,2335 136,218 137,15 149,17
150,18 151,80 164,36 166,4015
167,401 168,47
##END=
