##TITLE=Methyl 2-butynoate
##JCAMP-DX=4.24
##DATA TYPE=MASS SPECTRUM
##ORIGIN=Japan AIST/NIMC Database- Spectrum MS-NW-7282
##OWNER=NIST Mass Spectrometry Data Center
Collection (C) 2014 copyright by the U.S. Secretary of Commerce
on behalf of the United States of America. All rights reserved.
##CAS REGISTRY NO=23326-27-4
##$NIST MASS SPEC NO=238091
##MOLFORM=C5 H6 O2
##MW=98
##$NIST SOURCE=MSDC
##XUNITS=M/Z
##YUNITS=RELATIVE INTENSITY
##XFACTOR=1
##YFACTOR=1
##FIRSTX=15
##LASTX=99
##FIRSTY=90
##MAXX=99
##MINX=15
##MAXY=9999
##MINY=10
##NPOINTS=47
##PEAK TABLE=(XY..XY)
15,90 18,10 25,20 26,50
27,119 28,119 29,179 30,30
31,30 32,20 36,70 37,479
38,649 39,1549 40,99 41,60
42,80 43,80 44,30 45,60
49,10 50,40 51,30 52,20
53,119 54,109 55,119 56,60
57,20 59,80 60,10 65,30
66,389 67,9999 68,549 69,259
70,1009 71,50 73,10 77,70
78,10 80,20 81,10 83,20
97,40 98,369 99,30
##END=
