##TITLE=Naphthalene, 1,2,3,4-tetrahydro-2,2,5,7-tetramethyl-
##JCAMP-DX=4.24
##DATA TYPE=MASS SPECTRUM
##ORIGIN=ASES Database, Dalian Institute, P.R. China
##OWNER=NIST Mass Spectrometry Data Center
Collection (C) 2014 copyright by the U.S. Secretary of Commerce
on behalf of the United States of America. All rights reserved.
##CAS REGISTRY NO=23342-25-8
##$NIST MASS SPEC NO=146114
##MOLFORM=C14 H20
##MW=188
##$NIST SOURCE=MSDC
##XUNITS=M/Z
##YUNITS=RELATIVE INTENSITY
##XFACTOR=1
##YFACTOR=1
##FIRSTX=27
##LASTX=189
##FIRSTY=860
##MAXX=189
##MINX=27
##MAXY=9999
##MINY=280
##NPOINTS=27
##PEAK TABLE=(XY..XY)
27,860 29,710 39,910 41,830
51,480 53,390 63,280 65,400
77,680 78,280 91,850 115,1151
116,450 117,1080 128,960 129,830
131,780 132,9999 133,1911 141,580
142,480 143,540 145,520 173,2602
174,390 188,4103 189,610
##END=
