##TITLE=Propionic acid, 3-(allylthio)-
##JCAMP-DX=4.24
##DATA TYPE=MASS SPECTRUM
##ORIGIN=J.H.BOWIE UNIVERSITY OF ADELAIDE, ADELAIDE, AUSTRALIA
##OWNER=NIST Mass Spectrometry Data Center
Collection (C) 2014 copyright by the U.S. Secretary of Commerce
on behalf of the United States of America. All rights reserved.
##CAS REGISTRY NO=23349-98-6
##$NIST MASS SPEC NO=4363
##MOLFORM=C6 H10 O2 S
##MW=146
##$NIST SOURCE=MSDC
##XUNITS=M/Z
##YUNITS=RELATIVE INTENSITY
##XFACTOR=1
##YFACTOR=1
##FIRSTX=27
##LASTX=146
##FIRSTY=1100
##MAXX=146
##MINX=27
##MAXY=9999
##MINY=100
##NPOINTS=28
##PEAK TABLE=(XY..XY)
27,1100 39,3800 41,6600 43,800
45,7400 46,1300 47,1800 55,700
58,1300 59,2500 60,800 61,1300
63,600 71,1100 72,3300 73,9999
74,1800 75,600 77,500 85,1200
86,600 87,6200 89,1600 100,1000
104,1000 105,3000 119,100 146,4000
##END=
