##TITLE=Butanoic acid, 2,2-dimethylpropyl ester
##JCAMP-DX=4.24
##DATA TYPE=MASS SPECTRUM
##ORIGIN=V.Zaikin,Topchiev Inst.Petrochem.Synth.,Moscow
##OWNER=NIST Mass Spectrometry Data Center
Collection (C) 2014 copyright by the U.S. Secretary of Commerce
on behalf of the United States of America. All rights reserved.
##CAS REGISTRY NO=23361-69-5
##$NIST MASS SPEC NO=282450
##MOLFORM=C9 H18 O2
##MW=158
##$NIST SOURCE=MSDC
##XUNITS=M/Z
##YUNITS=RELATIVE INTENSITY
##XFACTOR=1
##YFACTOR=1
##FIRSTX=25
##LASTX=158
##FIRSTY=30
##MAXX=158
##MINX=25
##MAXY=9999
##MINY=10
##NPOINTS=60
##PEAK TABLE=(XY..XY)
25,30 26,240 27,350 28,90
29,280 30,10 31,20 35,90
36,671 37,80 38,230 39,530
40,80 41,881 42,170 43,2692
44,90 45,40 48,20 49,150
55,490 56,520 57,2662 58,120
60,80 61,10 62,10 63,10
64,20 65,10 66,30 67,20
69,80 70,821 71,9999 72,380
73,80 74,170 75,110 76,90
77,30 82,10 85,50 87,530
88,140 89,130 92,20 93,100
101,360 102,430 103,2242 104,120
105,10 128,100 129,10 130,140
131,10 143,130 144,10 158,20
##END=
