##TITLE=Pentanoic acid 1-methylpropyl ester
##JCAMP-DX=4.24
##DATA TYPE=MASS SPECTRUM
##ORIGIN=V.Zaikin,Topchiev Inst.Petrochem.Synth.,Moscow
##OWNER=NIST Mass Spectrometry Data Center
Collection (C) 2014 copyright by the U.S. Secretary of Commerce
on behalf of the United States of America. All rights reserved.
##CAS REGISTRY NO=23361-74-2
##$NIST MASS SPEC NO=282730
##MOLFORM=C9 H18 O2
##MW=158
##$NIST SOURCE=MSDC
##XUNITS=M/Z
##YUNITS=RELATIVE INTENSITY
##XFACTOR=1
##YFACTOR=1
##FIRSTX=22
##LASTX=143
##FIRSTY=10
##MAXX=143
##MINX=22
##MAXY=9999
##MINY=10
##NPOINTS=56
##PEAK TABLE=(XY..XY)
22,10 26,120 27,591 28,180
29,1351 30,40 31,40 35,60
36,360 37,20 38,130 39,510
40,90 41,2122 42,200 43,420
44,90 45,240 49,20 54,40
55,571 56,2622 57,5965 58,290
59,70 60,2012 61,230 62,10
67,10 69,10 72,90 73,1501
74,120 75,180 76,20 81,30
82,80 83,80 84,50 85,9999
86,611 87,130 100,10 101,70
102,1201 103,3313 104,200 105,20
114,50 115,10 116,270 117,30
118,10 129,651 130,50 143,130
##END=
