##TITLE=1H-Benzimidazole, 5,6-dichloro-2-(trifluoromethyl)-
##JCAMP-DX=4.24
##DATA TYPE=MASS SPECTRUM
##ORIGIN=J. SHAW, BORRISTON RESEARCH, ROCKVILLE, MD, USA
##OWNER=NIST Mass Spectrometry Data Center
Collection (C) 2014 copyright by the U.S. Secretary of Commerce
on behalf of the United States of America. All rights reserved.
##CAS REGISTRY NO=2338-25-2
##$NIST MASS SPEC NO=60432
##MOLFORM=C8 H3 Cl2 F3 N2
##MW=254
##$NIST SOURCE=MSDC
##XUNITS=M/Z
##YUNITS=RELATIVE INTENSITY
##XFACTOR=1
##YFACTOR=1
##FIRSTX=12
##LASTX=259
##FIRSTY=18
##MAXX=259
##MINX=12
##MAXY=9999
##MINY=18
##NPOINTS=171
##PEAK TABLE=(XY..XY)
12,18 14,18 15,18 16,36
17,126 18,432 19,18 20,36
26,108 27,378 28,261 29,27
31,81 32,18 35,54 36,135
37,243 38,657 39,4027 40,144
41,36 42,18 43,18 44,81
45,18 47,81 48,18 49,198
50,972 51,3910 52,198 53,63
54,18 55,18 57,18 60,90
61,243 62,315 63,657 64,486
65,3161 66,216 67,18 69,3910
70,54 71,36 72,198 74,333
75,252 77,9999 78,810 79,27
81,18 83,324 84,180 85,342
86,198 87,630 88,2000 89,198
90,18 91,36 92,72 93,648
94,180 95,72 96,378 97,324
98,756 99,180 100,288 101,36
102,18 105,18 107,486 108,90
109,324 110,72 111,90 112,54
113,144 114,72 115,36 116,90
118,18 121,2594 122,504 123,288
124,144 125,90 126,18 127,36
131,126 132,108 133,90 134,90
135,18 136,18 137,18 138,54
139,72 140,36 142,18 143,162
144,18 145,522 147,18 149,684
150,108 151,342 152,90 153,126
154,54 155,18 156,36 158,3622
160,2414 161,162 162,342 163,90
164,198 165,126 166,18 172,252
173,72 174,36 175,18 183,18
184,90 185,18 186,54 187,54
188,54 189,18 190,18 191,54
192,18 198,18 199,144 200,198
201,72 202,54 203,18 208,18
209,18 210,18 211,18 212,54
214,36 215,18 218,108 219,18
220,36 225,36 226,198 227,72
228,72 229,36 235,2036 236,234
237,1296 238,144 239,198 240,18
241,54 254,630 255,360 256,396
257,198 258,72 259,36
##END=
