##TITLE=3,4-Difluoropropiophenone
##JCAMP-DX=4.24
##DATA TYPE=MASS SPECTRUM
##ORIGIN=NIST Mass Spectrometry Data Center, 1994
##OWNER=NIST Mass Spectrometry Data Center
Collection (C) 2014 copyright by the U.S. Secretary of Commerce
on behalf of the United States of America. All rights reserved.
##CAS REGISTRY NO=23384-72-7
##$NIST MASS SPEC NO=136639
##MOLFORM=C9 H8 F2 O
##MW=170
##$NIST SOURCE=MSDC
##XUNITS=M/Z
##YUNITS=RELATIVE INTENSITY
##XFACTOR=1
##YFACTOR=1
##FIRSTX=13
##LASTX=171
##FIRSTY=17
##MAXX=171
##MINX=13
##MAXY=9999
##MINY=10
##NPOINTS=81
##PEAK TABLE=(XY..XY)
13,17 14,51 15,153 17,14
18,17 20,25 26,318 27,1292
28,123 29,776 30,39 37,140
38,104 39,134 42,69 49,51
50,359 51,174 53,79 54,15
55,236 56,165 57,448 58,19
60,21 61,190 62,512 63,2681
64,160 65,12 67,14 68,308
69,175 70,38 71,25 73,44
74,128 75,281 76,33 77,53
79,22 80,49 81,189 82,19
83,20 84,11 85,29 86,44
87,175 88,75 92,116 93,381
94,214 95,62 96,10 98,15
99,55 100,19 101,132 105,20
107,48 110,11 113,5601 114,417
115,49 119,34 121,13 122,49
123,30 125,55 126,14 127,111
128,11 138,22 141,9999 142,769
143,48 150,16 151,69 170,1186
171,131
##END=
