##TITLE=4-(Trifluoromethyl)phenylacetonitrile
##JCAMP-DX=4.24
##DATA TYPE=MASS SPECTRUM
##ORIGIN=NIST Mass Spectrometry Data Center, 1994
##OWNER=NIST Mass Spectrometry Data Center
Collection (C) 2014 copyright by the U.S. Secretary of Commerce
on behalf of the United States of America. All rights reserved.
##CAS REGISTRY NO=2338-75-2
##$NIST MASS SPEC NO=134885
##MOLFORM=C9 H6 F3 N
##MW=185
##$NIST SOURCE=MSDC
##XUNITS=M/Z
##YUNITS=RELATIVE INTENSITY
##XFACTOR=1
##YFACTOR=1
##FIRSTX=14
##LASTX=187
##FIRSTY=28
##MAXX=187
##MINX=14
##MAXY=9999
##MINY=14
##NPOINTS=105
##PEAK TABLE=(XY..XY)
14,28 20,17 25,14 26,100
27,134 28,85 31,152 33,24
37,236 38,367 39,630 40,120
41,58 43,43 44,34 45,19
49,94 50,772 51,523 52,110
56,75 57,310 60,27 61,265
62,582 63,857 64,247 65,128
66,25 68,95 69,684 70,69
73,74 74,329 75,770 76,245
77,68 78,21 79,22 80,45
81,164 83,251 84,42 85,92
86,160 87,375 88,498 89,1368
90,214 91,17 92,38 93,57
94,69 95,250 96,31 99,203
100,72 101,56 102,24 105,29
106,63 107,349 108,228 109,241
110,25 111,35 112,73 113,102
114,271 115,24 116,9999 117,960
118,74 119,208 120,47 123,31
124,35 125,183 126,113 127,74
132,140 134,484 135,91 136,22
137,142 138,306 139,115 140,40
143,29 144,97 145,247 146,43
152,17 156,35 157,89 158,242
159,111 163,37 164,71 165,537
166,1019 167,103 185,2835 186,298
187,21
##END=
