##TITLE=2-Decene, 2-methyl-
##JCAMP-DX=4.24
##DATA TYPE=MASS SPECTRUM
##ORIGIN=D.HENNEBERG, MAX-PLANCK INSTITUTE, MULHEIM, WEST GERMANY
##OWNER=NIST Mass Spectrometry Data Center
Collection (C) 2014 copyright by the U.S. Secretary of Commerce
on behalf of the United States of America. All rights reserved.
##CAS REGISTRY NO=23381-92-2
##$NIST MASS SPEC NO=61988
##MOLFORM=C11 H22
##MW=154
##$NIST SOURCE=MSDC
##XUNITS=M/Z
##YUNITS=RELATIVE INTENSITY
##XFACTOR=1
##YFACTOR=1
##FIRSTX=25
##LASTX=155
##FIRSTY=30
##MAXX=155
##MINX=25
##MAXY=9999
##MINY=2
##NPOINTS=67
##PEAK TABLE=(XY..XY)
25,30 26,92 27,1130 28,521
29,1101 30,38 31,43 34,25
37,52 38,28 39,795 40,135
41,6348 42,912 43,1994 45,9
47,24 50,35 51,84 52,20
53,434 54,275 55,2998 56,6870
57,2260 58,92 59,6 60,16
61,5 62,10 65,81 66,109
67,661 68,915 69,9999 70,1929
71,184 75,18 76,17 77,45
78,10 79,86 80,18 81,91
82,243 83,801 84,468 85,88
89,8 94,13 95,80 96,80
97,300 98,317 99,20 106,2
109,35 111,215 112,40 113,3
126,111 139,37 140,11 144,2
152,14 154,682 155,82
##END=
