##TITLE=Naphtho[1,2-b]thiophene
##JCAMP-DX=4.24
##DATA TYPE=MASS SPECTRUM
##ORIGIN=Organic Synthesis Lab, MSU, Moscow.TRC 325
##OWNER=NIST Mass Spectrometry Data Center
Collection (C) 2014 copyright by the U.S. Secretary of Commerce
on behalf of the United States of America. All rights reserved.
##CAS REGISTRY NO=234-41-3
##$NIST MASS SPEC NO=326050
##MOLFORM=C12 H8 S
##MW=184
##$NIST SOURCE=MSDC
##XUNITS=M/Z
##YUNITS=RELATIVE INTENSITY
##XFACTOR=1
##YFACTOR=1
##FIRSTX=40
##LASTX=186
##FIRSTY=30
##MAXX=186
##MINX=40
##MAXY=9999
##MINY=10
##NPOINTS=93
##PEAK TABLE=(XY..XY)
40,30 45,40 50,50 51,40
57,10 58,20 61,40 62,100
63,150 64,20 65,30 66,30
69,170 70,30 71,10 73,20
74,180 75,130 76,50 77,40
78,40 79,510 81,40 82,60
83,10 84,10 85,60 86,150
87,190 88,80 89,210 90,30
91,240 92,661 93,220 94,20
95,20 97,20 98,130 99,70
100,30 101,40 102,20 105,30
106,40 107,10 108,30 109,30
110,50 111,50 112,20 113,320
114,200 115,90 116,10 117,50
118,10 119,20 120,10 121,20
122,30 123,10 125,30 126,90
127,30 130,10 132,40 133,10
134,80 135,10 137,180 138,290
139,2262 140,440 141,40 145,70
146,10 149,20 150,220 151,270
152,1281 153,160 156,20 157,30
158,180 159,20 160,10 169,10
181,10 182,170 184,9999 185,1561
186,550
##END=
