##TITLE=L-Threonine, N-(trifluoroacetyl)-, butyl ester
##JCAMP-DX=4.24
##DATA TYPE=MASS SPECTRUM
##ORIGIN=CARL DJERASSI DEPT OF CHEM STANFORD UNIV STANFORD CALIF 94305
##OWNER=NIST Mass Spectrometry Data Center
Collection (C) 2014 copyright by the U.S. Secretary of Commerce
on behalf of the United States of America. All rights reserved.
##CAS REGISTRY NO=23403-41-0
##$NIST MASS SPEC NO=47887
##MOLFORM=C10 H16 F3 N O4
##MW=271
##$NIST SOURCE=MSDC
##XUNITS=M/Z
##YUNITS=RELATIVE INTENSITY
##XFACTOR=1
##YFACTOR=1
##FIRSTX=15
##LASTX=266
##FIRSTY=100
##MAXX=266
##MINX=15
##MAXY=9999
##MINY=100
##NPOINTS=49
##PEAK TABLE=(XY..XY)
15,100 18,300 26,100 27,1600
29,7300 30,200 39,1000 40,300
41,7400 42,400 43,900 44,200
45,600 47,500 50,100 51,200
53,100 54,600 55,1200 56,1700
57,9999 58,500 59,200 69,3700
78,100 82,100 83,100 84,1500
85,100 96,200 97,200 100,100
113,200 126,100 132,200 138,300
141,400 151,100 152,3000 153,5300
154,400 170,100 171,200 179,400
180,300 198,200 227,100 254,100
266,100
##END=
