##TITLE=3-Chlorohexane
##JCAMP-DX=4.24
##DATA TYPE=MASS SPECTRUM
##ORIGIN=NIST Mass Spectrometry Data Center, 1990.
##OWNER=NIST Mass Spectrometry Data Center
Collection (C) 2014 copyright by the U.S. Secretary of Commerce
on behalf of the United States of America. All rights reserved.
##CAS REGISTRY NO=2346-81-8
##$NIST MASS SPEC NO=114687
##MOLFORM=C6 H13 Cl
##MW=120
##$NIST SOURCE=MSDC
##XUNITS=M/Z
##YUNITS=RELATIVE INTENSITY
##XFACTOR=1
##YFACTOR=1
##FIRSTX=14
##LASTX=93
##FIRSTY=15
##MAXX=93
##MINX=14
##MAXY=9999
##MINY=15
##NPOINTS=40
##PEAK TABLE=(XY..XY)
14,15 15,231 26,362 27,2388
28,123 29,1584 37,145 38,389
39,3176 40,718 41,6224 42,3282
43,4877 44,210 49,348 50,332
51,618 52,169 53,962 55,9999
56,9196 57,965 61,158 62,849
63,630 64,268 65,308 67,255
69,5262 70,269 75,236 76,420
77,453 78,166 79,150 84,4317
85,1171 90,122 91,365 93,171
##END=
