##TITLE=Hexadecanoic acid, 2-hydroxy-1-(hydroxymethyl)ethyl ester
##JCAMP-DX=4.24
##DATA TYPE=MASS SPECTRUM
##OWNER=NIST Mass Spectrometry Data Center
Collection (C) 2014 copyright by the U.S. Secretary of Commerce
on behalf of the United States of America. All rights reserved.
##CAS REGISTRY NO=23470-00-0
##$NIST MASS SPEC NO=15400
##MOLFORM=C19 H38 O4
##MW=330
##$NIST SOURCE=MSDC
##XUNITS=M/Z
##YUNITS=RELATIVE INTENSITY
##XFACTOR=1
##YFACTOR=1
##FIRSTX=26
##LASTX=330
##FIRSTY=100
##MAXX=330
##MINX=26
##MAXY=9999
##MINY=100
##NPOINTS=141
##PEAK TABLE=(XY..XY)
26,100 27,1902 28,801 29,4804
30,200 31,1401 32,100 39,901
40,200 41,7407 42,1902 43,9999
44,1301 45,1301 46,100 47,100
53,400 54,500 55,6906 56,2602
57,8500 58,601 59,300 60,1401
61,1301 62,100 65,100 66,100
67,1201 68,601 69,3904 70,100
71,3703 72,300 73,2202 74,6306
75,1902 76,100 77,100 79,300
80,200 81,1301 82,601 83,3103
84,4804 85,2502 86,300 87,1401
88,200 89,100 91,100 93,500
94,200 95,1401 96,500 97,2302
98,7106 99,1001 100,200 101,500
102,100 103,100 105,100 107,200
108,100 109,701 110,300 111,1201
112,2202 113,400 114,100 115,400
116,1501 117,300 121,300 122,100
123,400 124,200 125,500 126,400
127,200 128,100 129,1301 130,200
134,3003 135,400 136,100 137,200
138,100 139,300 140,300 141,200
142,100 143,400 144,100 147,500
148,100 149,100 151,100 152,100
153,100 154,601 155,100 157,200
158,100 163,100 165,100 167,100
168,300 169,100 171,200 176,100
177,100 181,100 182,300 183,100
185,300 194,100 195,100 196,100
199,100 209,100 213,200 221,100
227,200 237,100 238,400 239,3803
240,601 241,100 256,400 257,901
258,200 269,100 270,300 271,100
299,400 300,100 311,100 312,200
330,100
##END=
