##TITLE=2,3,5,6-Tetrabromo-p-xylene
##JCAMP-DX=4.24
##DATA TYPE=MASS SPECTRUM
##ORIGIN=Japan AIST/NIMC Database- Spectrum MS-NW-8296
##OWNER=NIST Mass Spectrometry Data Center
Collection (C) 2014 copyright by the U.S. Secretary of Commerce
on behalf of the United States of America. All rights reserved.
##CAS REGISTRY NO=23488-38-2
##$NIST MASS SPEC NO=238305
##MOLFORM=C8 H6 Br4
##MW=418
##$NIST SOURCE=MSDC
##XUNITS=M/Z
##YUNITS=RELATIVE INTENSITY
##XFACTOR=1
##YFACTOR=1
##FIRSTX=15
##LASTX=427
##FIRSTY=20
##MAXX=427
##MINX=15
##MAXY=9999
##MINY=10
##NPOINTS=148
##PEAK TABLE=(XY..XY)
15,20 26,40 27,169 28,50
36,40 37,169 38,169 39,189
40,10 42,10 43,50 48,20
49,389 50,1919 51,1309 52,249
53,259 54,10 60,60 61,389
62,349 63,349 64,30 72,30
73,209 74,1119 75,1269 76,769
77,149 78,50 79,80 80,129
81,80 82,139 83,30 84,99
85,369 86,449 87,359 88,50
89,249 90,1649 91,1429 92,10
93,30 95,10 96,10 97,90
98,399 99,409 100,509 101,1559
102,2839 103,259 104,10 105,20
106,10 107,20 115,10 116,40
117,159 118,80 119,119 128,80
129,409 130,879 131,889 132,259
133,10 139,20 140,119 141,139
142,119 143,119 144,10 152,50
153,60 154,80 155,90 156,50
157,60 158,30 164,40 165,119
166,99 167,119 168,60 169,289
170,759 171,719 172,239 173,20
178,30 179,169 180,1029 181,1099
182,1069 183,909 184,80 195,10
197,20 199,10 208,10 209,50
210,169 211,229 212,139 213,30
221,10 223,10 233,10 234,20
235,20 236,20 237,10 238,10
245,20 247,30 249,10 258,50
259,629 260,989 261,1299 262,1789
263,769 264,859 265,90 278,10
338,249 339,1219 340,839 341,3539
342,1039 343,3439 344,569 345,1129
346,119 417,20 418,1769 419,239
420,6859 421,709 422,9999 423,949
424,6499 425,589 426,1599 427,139
##END=
