##TITLE=2-Hexanone, (2,4-dinitrophenyl)hydrazone
##JCAMP-DX=4.24
##DATA TYPE=MASS SPECTRUM
##ORIGIN=Japan AIST/NIMC Database- Spectrum MS-IW-6632
##OWNER=NIST Mass Spectrometry Data Center
Collection (C) 2014 copyright by the U.S. Secretary of Commerce
on behalf of the United States of America. All rights reserved.
##CAS REGISTRY NO=2348-17-6
##$NIST MASS SPEC NO=241970
##MOLFORM=C12 H16 N4 O4
##MW=280
##$NIST SOURCE=MSDC
##XUNITS=M/Z
##YUNITS=RELATIVE INTENSITY
##XFACTOR=1
##YFACTOR=1
##FIRSTX=15
##LASTX=283
##FIRSTY=189
##MAXX=283
##MINX=15
##MAXY=9999
##MINY=10
##NPOINTS=230
##PEAK TABLE=(XY..XY)
15,189 26,90 27,1299 28,1029
29,3969 30,1829 31,30 32,10
37,60 38,299 39,1759 40,299
41,7849 42,6029 43,9999 44,379
45,249 46,20 50,339 51,1019
52,659 53,679 54,459 55,5479
56,959 57,2419 58,249 59,229
60,10 61,90 62,579 63,1389
64,779 65,649 66,269 67,369
68,1049 69,399 70,329 71,209
72,139 73,40 74,249 75,1289
76,1059 77,1879 78,1599 79,1659
80,429 81,609 82,489 83,4409
84,449 85,169 86,30 87,40
88,159 89,429 90,789 91,999
92,1339 93,569 94,219 95,189
96,229 97,119 98,349 99,189
100,70 101,669 102,229 103,1419
104,2779 105,849 106,539 107,349
108,149 109,70 110,20 111,40
112,20 113,20 114,30 115,639
116,1039 117,1509 118,499 119,509
120,759 121,219 122,1899 123,239
124,20 125,20 126,10 127,80
128,229 129,339 130,459 131,709
132,739 133,769 134,279 135,719
136,279 137,259 138,199 139,30
140,20 141,40 142,60 143,169
144,399 145,709 146,389 147,209
148,169 149,2399 150,1489 151,299
152,1929 153,509 154,60 155,50
156,90 157,209 158,399 159,229
160,129 161,1069 162,569 163,569
164,329 165,939 166,419 167,239
168,90 169,40 170,119 171,189
172,99 173,219 174,119 175,179
176,159 177,529 178,8609 179,909
180,2149 181,2399 182,329 183,699
184,179 185,70 186,70 187,80
188,70 189,80 190,429 191,1339
192,389 193,99 194,30 195,20
196,809 197,99 198,179 199,289
200,70 201,50 203,339 204,249
205,189 206,80 207,1059 208,209
209,30 210,80 211,10 212,20
215,50 216,219 217,219 218,129
219,359 220,729 221,369 222,80
223,60 224,30 225,10 228,20
229,90 230,80 231,99 232,50
233,129 234,80 237,209 238,5289
239,619 240,80 241,10 242,10
243,20 244,30 245,599 246,159
247,80 248,40 249,119 250,199
251,289 252,60 253,10 261,40
262,20 263,40 264,299 265,129
266,20 275,20 276,20 277,10
278,30 279,50 280,9669 281,2929
282,399 283,40
##END=
