##TITLE=Propanoic acid, 2-methyl-, hexyl ester
##JCAMP-DX=4.24
##DATA TYPE=MASS SPECTRUM
##ORIGIN=V.G.Zaikin, Petrochem. Synth. Inst., Moscow
##OWNER=NIST Mass Spectrometry Data Center
Collection (C) 2014 copyright by the U.S. Secretary of Commerce
on behalf of the United States of America. All rights reserved.
##CAS REGISTRY NO=2349-07-7
##$NIST MASS SPEC NO=280487
##MOLFORM=C10 H20 O2
##MW=172
##$NIST SOURCE=MSDC
##XUNITS=M/Z
##YUNITS=RELATIVE INTENSITY
##XFACTOR=1
##YFACTOR=1
##FIRSTX=26
##LASTX=172
##FIRSTY=150
##MAXX=172
##MINX=26
##MAXY=9999
##MINY=10
##NPOINTS=41
##PEAK TABLE=(XY..XY)
26,150 27,1231 28,240 29,791
30,60 31,120 36,150 38,110
39,991 40,150 41,2552 42,1752
43,9999 44,480 45,80 51,190
53,150 54,170 55,1421 56,2662
57,891 69,871 70,380 71,4064
72,150 73,180 77,110 80,70
82,70 83,350 84,1922 85,480
86,60 89,4024 90,210 101,110
102,10 115,60 129,120 130,20
172,30
##END=
