##TITLE=Disiloxane, 1,3-bis(bromomethyl)-1,1,3,3-tetramethyl-
##JCAMP-DX=4.24
##DATA TYPE=MASS SPECTRUM
##ORIGIN=RADIAN CORP
##OWNER=NIST Mass Spectrometry Data Center
Collection (C) 2014 copyright by the U.S. Secretary of Commerce
on behalf of the United States of America. All rights reserved.
##CAS REGISTRY NO=2351-13-5
##$NIST MASS SPEC NO=73310
##MOLFORM=C6 H16 Br2 O Si2
##MW=318
##$NIST SOURCE=MSDC
##XUNITS=M/Z
##YUNITS=RELATIVE INTENSITY
##XFACTOR=1
##YFACTOR=1
##FIRSTX=15
##LASTX=307
##FIRSTY=160
##MAXX=307
##MINX=15
##MAXY=9999
##MINY=10
##NPOINTS=121
##PEAK TABLE=(XY..XY)
15,160 26,50 27,510 29,830
31,50 39,30 41,40 42,170
43,730 44,250 45,700 46,30
47,50 51,120 52,160 53,90
55,140 56,10 57,150 58,190
59,1120 60,80 61,90 66,710
69,20 70,20 71,160 72,390
73,1570 74,170 75,180 83,40
84,60 85,90 86,70 87,420
88,60 89,50 91,170 92,180
93,570 95,540 98,70 99,100
101,160 102,190 103,250 104,10
105,250 106,130 107,430 108,20
109,640 110,40 111,230 113,40
115,700 116,120 117,1010 118,130
119,70 121,70 122,100 123,1030
124,180 125,980 126,30 127,20
131,630 132,90 133,20 136,220
137,1500 138,350 139,1580 140,110
141,50 149,20 151,500 152,40
153,340 154,30 155,20 165,40
166,20 167,430 168,80 169,420
170,10 171,20 179,90 180,60
181,1430 182,280 183,1700 184,200
185,270 187,40 189,110 191,20
195,430 197,9999 198,1570 199,9980
200,1410 201,810 202,50 203,210
205,70 211,20 215,20 217,60
225,6100 226,1080 227,6550 228,1000
229,460 230,20 303,10 305,30
307,10
##END=
