##TITLE=Gingerol
##JCAMP-DX=4.24
##DATA TYPE=MASS SPECTRUM
##ORIGIN=NIST Mass Spectrometry Data Center, 1998.
##OWNER=NIST Mass Spectrometry Data Center
Collection (C) 2014 copyright by the U.S. Secretary of Commerce
on behalf of the United States of America. All rights reserved.
##CAS REGISTRY NO=23513-14-6
##$NIST MASS SPEC NO=291923
##MOLFORM=C17 H26 O4
##MW=294
##$NIST SOURCE=MSDC
##XUNITS=M/Z
##YUNITS=RELATIVE INTENSITY
##XFACTOR=1
##YFACTOR=1
##FIRSTX=15
##LASTX=295
##FIRSTY=70
##MAXX=295
##MINX=15
##MAXY=9999
##MINY=20
##NPOINTS=100
##PEAK TABLE=(XY..XY)
15,70 26,40 27,500 29,720
30,20 31,60 38,80 39,790
40,140 41,1600 42,280 43,2590
44,1480 45,350 50,180 51,430
52,280 53,410 54,120 55,1630
56,1420 57,920 58,190 62,80
63,200 64,70 65,500 66,220
67,250 68,80 69,110 71,210
72,280 75,70 77,800 78,220
79,430 80,130 81,160 82,300
83,160 89,150 90,80 91,1350
92,170 93,90 94,470 95,100
96,40 97,60 103,140 105,220
106,130 107,480 108,180 109,160
110,30 115,100 117,70 118,40
119,1310 120,180 121,90 122,850
123,190 124,610 125,160 127,30
131,100 133,130 134,30 135,480
136,350 137,9999 138,1000 139,140
143,30 145,130 147,140 149,70
150,1770 151,1160 152,170 161,190
162,60 163,120 175,90 177,150
178,140 179,290 180,60 192,80
194,2490 195,300 205,820 206,180
276,510 277,120 294,590 295,100
##END=
