##TITLE=Silacyclobutane,1-chloro-1-methyl-
##JCAMP-DX=4.24
##DATA TYPE=MASS SPECTRUM
##ORIGIN=V.G.Zaikin, TIPS, Russian Acad. Sci.
##OWNER=NIST Mass Spectrometry Data Center
Collection (C) 2014 copyright by the U.S. Secretary of Commerce
on behalf of the United States of America. All rights reserved.
##CAS REGISTRY NO=2351-34-0
##$NIST MASS SPEC NO=215014
##MOLFORM=C4 H9 Cl Si
##MW=120
##$NIST SOURCE=MSDC
##XUNITS=M/Z
##YUNITS=RELATIVE INTENSITY
##XFACTOR=1
##YFACTOR=1
##FIRSTX=63
##LASTX=124
##FIRSTY=4003
##MAXX=124
##MINX=63
##MAXY=9999
##MINY=30
##NPOINTS=14
##PEAK TABLE=(XY..XY)
63,4003 64,400 65,1501 92,9999
93,1101 94,3603 95,450 105,600
107,200 120,2201 121,210 122,800
123,70 124,30
##END=
