##TITLE=Benzenesulfonamide, N,N'-(dithiodi-2,1-ethanediyl)bis[4-methyl-
##JCAMP-DX=4.24
##DATA TYPE=MASS SPECTRUM
##ORIGIN=Div. of Experiment Therapeutics WRAIR, WRAMC, Washington DC 20307
##OWNER=NIST Mass Spectrometry Data Center
Collection (C) 2014 copyright by the U.S. Secretary of Commerce
on behalf of the United States of America. All rights reserved.
##CAS REGISTRY NO=23516-74-7
##$NIST MASS SPEC NO=253555
##MOLFORM=C18 H24 N2 O4 S4
##MW=460
##$NIST SOURCE=MSDC
##XUNITS=M/Z
##YUNITS=RELATIVE INTENSITY
##XFACTOR=1
##YFACTOR=1
##FIRSTX=41
##LASTX=461
##FIRSTY=620
##MAXX=461
##MINX=41
##MAXY=9999
##MINY=15
##NPOINTS=105
##PEAK TABLE=(XY..XY)
41,620 42,367 43,392 45,1248
47,711 48,88 49,50 51,969
52,42 53,248 55,151 56,147
57,166 58,79 59,238 60,189
61,173 63,1050 65,3030 66,50
67,167 69,233 70,74 71,101
73,26 74,420 75,340 77,650
78,62 79,423 80,94 81,17
82,71 84,27 85,28 86,21
89,930 91,9999 92,715 93,108
95,69 96,19 97,60 98,48
100,134 102,59 103,18 104,52
106,559 107,147 108,170 109,36
111,101 117,16 118,48 120,155
121,130 123,361 124,316 125,52
126,19 132,80 133,44 134,15
135,57 137,207 138,225 139,575
140,69 141,46 150,125 151,16
152,36 155,4358 156,326 157,244
159,15 165,53 167,348 168,25
171,213 172,81 182,38 184,2887
185,288 186,163 188,16 198,1492
199,134 200,56 230,78 231,251
232,60 259,338 260,16 263,149
264,17 277,71 289,275 290,16
291,18 321,58 353,36 460,144
461,42
##END=
