##TITLE=4-t-Butyl pyridine, 1-oxide
##JCAMP-DX=4.24
##DATA TYPE=MASS SPECTRUM
##ORIGIN=James Little,Eastman Chem.Co.,Kingsport,TN
##OWNER=NIST Mass Spectrometry Data Center
Collection (C) 2014 copyright by the U.S. Secretary of Commerce
on behalf of the United States of America. All rights reserved.
##CAS REGISTRY NO=23569-17-7
##$NIST MASS SPEC NO=289196
##MOLFORM=C9 H13 N O
##MW=151
##$NIST SOURCE=MSDC
##XUNITS=M/Z
##YUNITS=RELATIVE INTENSITY
##XFACTOR=1
##YFACTOR=1
##FIRSTX=27
##LASTX=153
##FIRSTY=651
##MAXX=153
##MINX=27
##MAXY=9999
##MINY=70
##NPOINTS=42
##PEAK TABLE=(XY..XY)
27,651 28,300 29,410 39,1661
41,1411 43,310 50,360 51,961
52,450 53,621 55,290 63,561
64,250 65,801 66,330 67,330
77,661 78,410 79,701 80,240
81,270 89,150 91,611 92,460
93,260 96,931 103,140 104,170
106,130 108,2983 109,260 118,260
119,190 120,460 121,571 135,270
136,9999 137,851 138,70 151,3273
152,611 153,160
##END=
