##TITLE=Phosphoric acid, 7-chlorobicyclo[3.2.0]hepta-2,6-dien-6-yl dimethyl ester
##JCAMP-DX=4.24
##DATA TYPE=MASS SPECTRUM
##ORIGIN=NIST Mass Spectrometry Data Center, 1998.
##OWNER=NIST Mass Spectrometry Data Center
Collection (C) 2014 copyright by the U.S. Secretary of Commerce
on behalf of the United States of America. All rights reserved.
##CAS REGISTRY NO=23560-59-0
##$NIST MASS SPEC NO=291860
##MOLFORM=C9 H12 Cl O4 P
##MW=250
##$NIST SOURCE=MSDC
##XUNITS=M/Z
##YUNITS=RELATIVE INTENSITY
##XFACTOR=1
##YFACTOR=1
##FIRSTX=14
##LASTX=253
##FIRSTY=20
##MAXX=253
##MINX=14
##MAXY=9999
##MINY=10
##NPOINTS=152
##PEAK TABLE=(XY..XY)
14,20 15,690 16,10 26,60
27,310 28,40 29,180 30,30
31,240 32,10 33,30 35,10
36,10 37,70 38,190 39,890
40,190 41,50 42,10 43,10
45,50 47,530 48,80 49,160
50,680 51,2080 52,560 53,210
54,20 55,60 60,40 61,170
62,360 63,1020 64,130 65,490
66,880 67,50 68,10 71,10
72,50 73,390 74,160 75,370
76,140 77,3020 78,890 79,1950
80,400 81,70 83,10 84,50
85,110 86,100 87,160 88,10
89,7669 90,740 91,410 92,50
93,650 94,40 95,520 96,80
97,100 98,10 99,230 100,20
101,90 102,70 103,310 104,40
105,360 106,80 107,220 108,10
109,4330 110,530 111,100 112,200
113,220 114,80 115,80 116,10
117,20 119,30 120,20 121,290
122,60 123,480 124,9999 125,1350
126,3330 127,2440 128,70 129,20
135,90 136,20 137,50 138,130
139,50 140,80 141,830 142,170
143,280 144,50 145,10 153,40
154,10 155,140 156,20 157,30
159,10 161,20 165,10 167,10
169,40 170,20 171,10 175,10
183,70 184,10 185,100 186,20
187,50 188,10 189,30 190,10
197,10 199,580 200,590 201,60
202,10 203,50 204,20 205,40
206,10 207,10 213,10 215,1310
216,130 217,20 219,40 221,20
224,40 226,10 235,10 249,40
250,940 251,110 252,300 253,30
##END=
