##TITLE=2,5-Hexanediamine, 2,5-dimethyl-
##JCAMP-DX=4.24
##DATA TYPE=MASS SPECTRUM
##ORIGIN=Chuck Anderson, Aldrich Chemical Co.
##OWNER=NIST Mass Spectrometry Data Center
Collection (C) 2014 copyright by the U.S. Secretary of Commerce
on behalf of the United States of America. All rights reserved.
##CAS REGISTRY NO=23578-35-0
##$NIST MASS SPEC NO=108301
##MOLFORM=C8 H20 N2
##MW=144
##$NIST SOURCE=MSDC
##XUNITS=M/Z
##YUNITS=RELATIVE INTENSITY
##XFACTOR=1
##YFACTOR=1
##FIRSTX=15
##LASTX=145
##FIRSTY=79
##MAXX=145
##MINX=15
##MAXY=9999
##MINY=4
##NPOINTS=54
##PEAK TABLE=(XY..XY)
15,79 17,9 18,376 26,16
27,139 28,222 29,140 30,464
31,8 38,4 39,162 40,34
41,668 42,950 43,264 44,96
51,13 52,11 53,73 54,48
55,327 56,169 57,41 58,9999
59,380 60,4 65,12 67,259
68,30 69,165 70,451 71,59
72,25 77,26 79,31 80,52
81,52 82,63 83,17 84,17
87,369 88,40 91,11 93,77
94,14 95,827 96,116 97,72
110,15 111,22 112,1311 113,101
129,49 145,5
##END=
