##TITLE=Benzenamine, 4-fluoro-3-(trifluoromethyl)-
##JCAMP-DX=4.24
##DATA TYPE=MASS SPECTRUM
##ORIGIN=Japan AIST/NIMC Database- Spectrum MS-NW-6053
##OWNER=NIST Mass Spectrometry Data Center
Collection (C) 2014 copyright by the U.S. Secretary of Commerce
on behalf of the United States of America. All rights reserved.
##CAS REGISTRY NO=2357-47-3
##$NIST MASS SPEC NO=235727
##MOLFORM=C7 H5 F4 N
##MW=179
##$NIST SOURCE=MSDC
##XUNITS=M/Z
##YUNITS=RELATIVE INTENSITY
##XFACTOR=1
##YFACTOR=1
##FIRSTX=14
##LASTX=181
##FIRSTY=10
##MAXX=181
##MINX=14
##MAXY=9999
##MINY=10
##NPOINTS=134
##PEAK TABLE=(XY..XY)
14,10 20,30 26,30 27,40
28,339 29,20 31,249 32,30
33,40 36,10 37,90 38,109
39,129 40,60 41,159 42,10
44,30 45,20 46,40 48,10
49,20 50,109 51,129 52,209
53,30 54,70 55,60 56,189
57,479 58,40 59,30 60,20
61,139 62,199 63,459 64,109
65,99 66,60 67,20 68,60
69,269 70,70 71,20 72,30
73,20 74,60 75,279 76,80
77,30 78,20 79,99 80,259
81,449 82,269 83,999 84,119
85,40 86,10 87,50 88,149
89,289 90,169 91,40 92,30
93,99 94,99 95,50 96,20
98,10 99,90 100,50 101,629
102,199 103,30 104,10 105,10
106,60 107,30 108,139 109,359
110,169 111,20 112,90 113,239
114,60 115,20 116,10 117,10
118,10 119,30 120,119 121,20
122,10 123,10 125,30 126,20
127,20 128,40 129,1289 130,109
131,139 132,2719 133,339 134,20
136,10 137,10 138,139 139,119
140,319 141,30 142,10 143,99
144,10 146,10 148,10 149,10
150,60 151,519 152,209 153,20
157,50 158,589 159,379 160,2479
161,229 162,30 163,229 164,20
176,10 177,20 178,609 179,9999
180,839 181,40
##END=
