##TITLE=2,3,6-Trifluorobenzoic acid
##JCAMP-DX=4.24
##DATA TYPE=MASS SPECTRUM
##ORIGIN=NIST Mass Spectrometry Data Center, 1994
##OWNER=NIST Mass Spectrometry Data Center
Collection (C) 2014 copyright by the U.S. Secretary of Commerce
on behalf of the United States of America. All rights reserved.
##CAS REGISTRY NO=2358-29-4
##$NIST MASS SPEC NO=136615
##MOLFORM=C7 H3 F3 O2
##MW=176
##$NIST SOURCE=MSDC
##XUNITS=M/Z
##YUNITS=RELATIVE INTENSITY
##XFACTOR=1
##YFACTOR=1
##FIRSTX=12
##LASTX=178
##FIRSTY=60
##MAXX=178
##MINX=12
##MAXY=9999
##MINY=36
##NPOINTS=75
##PEAK TABLE=(XY..XY)
12,60 16,36 17,162 18,136
19,36 20,67 31,968 36,137
37,526 38,276 39,73 44,768
45,1075 48,52 49,168 50,584
51,330 53,55 55,313 56,491
57,769 60,102 61,1368 62,1575
63,1659 64,260 66,117 67,72
68,757 69,271 70,62 71,117
73,57 74,134 75,961 76,50
77,74 80,1140 81,6900 82,540
86,389 87,276 88,327 91,110
92,425 93,295 94,56 98,80
99,835 100,460 101,561 105,131
106,296 107,51 110,82 111,302
112,2027 113,224 119,132 120,145
128,790 129,118 131,5661 132,2484
133,150 148,165 152,80 156,511
157,186 159,9999 160,738 161,55
176,8900 177,709 178,53
##END=
