##TITLE=p-Toluic acid, 2-methylphenyl ester
##JCAMP-DX=4.24
##DATA TYPE=MASS SPECTRUM
##ORIGIN=Zaikin V.G., TIPS RAS, Moscow, Russia
##OWNER=NIST Mass Spectrometry Data Center
Collection (C) 2014 copyright by the U.S. Secretary of Commerce
on behalf of the United States of America. All rights reserved.
##CAS REGISTRY NO=23597-29-7
##$NIST MASS SPEC NO=292642
##MOLFORM=C15 H14 O2
##MW=226
##$NIST SOURCE=MSDC
##XUNITS=M/Z
##YUNITS=RELATIVE INTENSITY
##XFACTOR=1
##YFACTOR=1
##FIRSTX=28
##LASTX=227
##FIRSTY=10
##MAXX=227
##MINX=28
##MAXY=9999
##MINY=10
##NPOINTS=21
##PEAK TABLE=(XY..XY)
28,10 39,40 51,50 63,70
65,350 77,110 78,40 79,30
89,140 90,120 91,1601 92,140
107,70 108,40 118,40 119,9999
120,761 121,40 136,30 226,350
227,50
##END=
