##TITLE=Benzoic acid, 2-(1-oxopropyl)-
##JCAMP-DX=4.24
##DATA TYPE=MASS SPECTRUM
##ORIGIN=NIST Mass Spectrometry Data Center, 1994
##OWNER=NIST Mass Spectrometry Data Center
Collection (C) 2014 copyright by the U.S. Secretary of Commerce
on behalf of the United States of America. All rights reserved.
##CAS REGISTRY NO=2360-45-4
##$NIST MASS SPEC NO=135553
##MOLFORM=C10 H10 O3
##MW=178
##$NIST SOURCE=MSDC
##XUNITS=M/Z
##YUNITS=RELATIVE INTENSITY
##XFACTOR=1
##YFACTOR=1
##FIRSTX=4
##LASTX=178
##FIRSTY=22
##MAXX=178
##MINX=4
##MAXY=9999
##MINY=5
##NPOINTS=91
##PEAK TABLE=(XY..XY)
4,22 14,38 15,110 16,12
17,12 18,68 19,16 25,15
26,180 27,902 28,289 29,685
30,32 31,27 32,6 37,68
38,158 39,839 40,43 41,27
42,36 43,73 44,25 45,145
49,75 50,1133 51,830 52,133
53,210 54,20 55,206 56,58
57,137 60,9 61,54 62,123
63,213 64,124 65,1673 66,175
67,28 73,77 74,423 75,361
76,951 77,912 78,116 79,103
80,9 85,18 86,25 87,29
88,18 89,78 90,29 91,112
92,111 93,1122 94,81 98,9
101,21 102,31 103,135 104,555
105,543 106,43 107,12 115,84
116,13 117,9 118,13 119,55
120,9 121,874 122,87 123,20
131,80 132,71 133,225 134,35
135,28 137,23 146,5 149,9999
150,882 151,102 159,17 160,142
161,43 162,11 178,18
##END=
