##TITLE=Disiloxane, 1,3-bis(chloromethyl)-1,1,3,3-tetramethyl-
##JCAMP-DX=4.24
##DATA TYPE=MASS SPECTRUM
##ORIGIN=Japan AIST/NIMC Database- Spectrum MS-NW-1229
##OWNER=NIST Mass Spectrometry Data Center
Collection (C) 2014 copyright by the U.S. Secretary of Commerce
on behalf of the United States of America. All rights reserved.
##CAS REGISTRY NO=2362-10-9
##$NIST MASS SPEC NO=233656
##MOLFORM=C6 H16 Cl2 O Si2
##MW=230
##$NIST SOURCE=MSDC
##XUNITS=M/Z
##YUNITS=RELATIVE INTENSITY
##XFACTOR=1
##YFACTOR=1
##FIRSTX=14
##LASTX=217
##FIRSTY=10
##MAXX=217
##MINX=14
##MAXY=9999
##MINY=10
##NPOINTS=146
##PEAK TABLE=(XY..XY)
14,10 15,40 26,10 27,90
28,70 29,99 31,70 32,20
36,30 39,20 41,30 42,80
43,409 44,149 45,329 46,20
47,40 49,50 51,109 52,279
53,50 55,60 56,10 57,60
58,80 59,639 60,50 61,60
62,20 63,209 64,20 65,189
66,1049 67,80 69,90 70,40
71,70 72,70 73,819 74,70
75,99 76,60 77,50 78,40
79,589 80,50 81,229 82,10
83,40 84,10 85,20 86,20
87,109 88,20 89,20 90,20
91,20 92,129 93,919 94,109
95,359 96,20 97,20 99,40
101,50 102,50 103,70 105,60
107,149 108,20 109,70 110,10
111,10 112,10 113,90 114,10
115,219 116,40 117,249 118,30
119,20 121,30 122,30 123,189
124,30 125,109 126,10 127,50
129,40 130,10 131,249 132,40
133,20 135,50 136,40 137,639
138,90 139,359 140,40 141,70
142,10 143,30 144,10 145,40
147,10 149,10 151,209 152,50
153,9999 154,1409 155,4089 156,519
157,279 158,30 159,1249 160,139
161,849 162,99 163,189 164,20
165,20 167,20 169,10 171,80
172,10 173,379 174,50 175,259
176,30 177,50 179,10 180,10
181,5669 182,869 183,2229 184,329
185,149 186,20 187,589 188,80
189,409 190,60 191,90 192,10
215,50 217,30
##END=
