##TITLE=2',4',5'-Trichloroacetanilide
##JCAMP-DX=4.24
##DATA TYPE=MASS SPECTRUM
##ORIGIN=NIST Mass Spectrometry Data Center
##OWNER=NIST Mass Spectrometry Data Center
Collection (C) 2014 copyright by the U.S. Secretary of Commerce
on behalf of the United States of America. All rights reserved.
##CAS REGISTRY NO=23627-24-9
##$NIST MASS SPEC NO=343139
##MOLFORM=C8 H6 Cl3 N O
##MW=237
##$NIST SOURCE=MSDC
##XUNITS=M/Z
##YUNITS=RELATIVE INTENSITY
##XFACTOR=1
##YFACTOR=1
##FIRSTX=11
##LASTX=243
##FIRSTY=10
##MAXX=243
##MINX=11
##MAXY=9999
##MINY=10
##NPOINTS=130
##PEAK TABLE=(XY..XY)
11,10 12,40 13,120 14,520
15,2132 16,70 18,90 19,20
28,120 35,160 36,170 37,410
38,160 39,80 40,110 41,100
43,9999 44,240 46,10 47,150
48,80 49,250 50,210 51,150
52,350 60,270 61,941 62,1001
63,310 64,90 65,70 66,20
71,130 72,450 73,540 74,260
75,250 76,100 77,20 79,60
80,60 81,30 83,290 84,190
85,220 86,220 87,310 88,490
89,150 90,110 95,70 96,310
97,1171 98,320 99,500 100,120
101,40 107,420 108,200 109,420
110,100 111,100 112,20 113,20
117,30 118,20 119,30 120,10
121,30 122,100 123,130 124,831
125,240 126,300 127,70 131,170
132,220 133,571 134,150 135,370
136,50 137,80 139,10 141,10
143,100 144,60 145,60 146,60
147,30 158,290 159,390 160,691
161,300 162,340 163,80 164,50
167,871 168,150 169,811 170,110
171,310 172,50 173,50 174,30
179,20 181,20 195,8037 197,7327
198,721 199,2542 200,190 201,300
202,1481 204,951 205,90 206,160
207,20 208,40 210,30 221,20
222,20 223,20 224,20 237,961
238,180 239,921 240,110 241,300
242,30 243,20
##END=
