##TITLE=L-Phenylalanine, N-(trifluoroacetyl)-, methyl ester
##JCAMP-DX=4.24
##DATA TYPE=MASS SPECTRUM
##ORIGIN=KC70-118
##OWNER=NIST Mass Spectrometry Data Center
Collection (C) 2014 copyright by the U.S. Secretary of Commerce
on behalf of the United States of America. All rights reserved.
##CAS REGISTRY NO=23635-30-5
##$NIST MASS SPEC NO=13314
##MOLFORM=C12 H12 F3 N O3
##MW=275
##$NIST SOURCE=MSDC
##XUNITS=M/Z
##YUNITS=RELATIVE INTENSITY
##XFACTOR=1
##YFACTOR=1
##FIRSTX=65
##LASTX=275
##FIRSTY=5909
##MAXX=275
##MINX=65
##MAXY=9999
##MINY=152
##NPOINTS=23
##PEAK TABLE=(XY..XY)
65,5909 69,4363 77,3636 91,9999
97,576 103,2394 119,1212 129,424
131,3091 146,303 150,152 161,939
162,9575 175,152 177,152 178,394
184,242 198,333 200,152 216,1212
244,182 250,152 275,152
##END=
