##TITLE=Nitrosothymol
##JCAMP-DX=4.24
##DATA TYPE=MASS SPECTRUM
##ORIGIN=NIST Mass Spectrometry Data Center, 1994
##OWNER=NIST Mass Spectrometry Data Center
Collection (C) 2014 copyright by the U.S. Secretary of Commerce
on behalf of the United States of America. All rights reserved.
##CAS REGISTRY NO=2364-54-7
##$NIST MASS SPEC NO=135406
##MOLFORM=C10 H13 N O2
##MW=179
##$NIST SOURCE=MSDC
##XUNITS=M/Z
##YUNITS=RELATIVE INTENSITY
##XFACTOR=1
##YFACTOR=1
##FIRSTX=12
##LASTX=181
##FIRSTY=67
##MAXX=181
##MINX=12
##MAXY=9999
##MINY=52
##NPOINTS=123
##PEAK TABLE=(XY..XY)
12,67 14,160 15,1782 16,149
17,218 18,252 19,114 26,548
27,3945 28,1665 29,979 30,732
37,430 38,1607 39,9999 40,2475
41,4560 42,1407 43,1782 44,299
45,52 47,123 49,114 50,1336
51,3363 52,2700 53,4167 54,810
55,1138 56,161 57,124 58,52
59,417 60,67 61,213 62,547
63,1634 64,1123 65,3151 66,2020
67,2897 68,1176 69,559 70,140
73,86 74,220 75,491 76,581
77,3437 78,1647 79,2003 80,1272
81,562 82,274 83,116 84,78
85,78 86,80 87,119 88,143
89,724 90,78 91,5176 92,1351
93,2628 94,2977 95,664 96,233
97,70 99,74 101,118 102,326
103,964 104,918 105,1498 106,1329
107,1607 108,1111 109,680 110,376
115,1634 116,1242 117,1807 118,1510
119,1123 120,2036 121,1510 122,1807
123,426 124,95 127,313 128,551
129,407 130,714 131,352 132,805
133,1215 134,1430 135,1415 136,1163
137,258 138,466 142,233 143,470
144,1058 145,321 146,1621 147,2332
148,4423 149,780 150,841 151,2442
152,239 160,600 161,327 162,2227
163,1918 164,3026 165,581 166,87
179,7855 180,917 181,52
##END=
