##TITLE=4-Amino-2-chloro-6,7-dimethoxyquinazoline
##JCAMP-DX=4.24
##DATA TYPE=MASS SPECTRUM
##ORIGIN=NIST Mass Spectrometry Data Center, 1994
##OWNER=NIST Mass Spectrometry Data Center
Collection (C) 2014 copyright by the U.S. Secretary of Commerce
on behalf of the United States of America. All rights reserved.
##CAS REGISTRY NO=23680-84-4
##$NIST MASS SPEC NO=136118
##MOLFORM=C10 H10 Cl N3 O2
##MW=239
##$NIST SOURCE=MSDC
##XUNITS=M/Z
##YUNITS=RELATIVE INTENSITY
##XFACTOR=1
##YFACTOR=1
##FIRSTX=15
##LASTX=242
##FIRSTY=2071
##MAXX=242
##MINX=15
##MAXY=9999
##MINY=160
##NPOINTS=85
##PEAK TABLE=(XY..XY)
15,2071 37,218 39,231 50,806
51,545 52,1052 53,1313 62,674
63,408 64,631 65,453 66,355
68,478 75,407 76,784 77,833
78,643 79,253 80,305 87,170
88,342 89,199 90,559 91,308
92,649 93,278 103,341 104,607
105,539 117,499 118,287 119,374
120,258 126,200 130,220 131,229
132,406 133,880 134,225 135,1856
136,191 143,270 144,186 145,268
146,301 147,344 150,160 153,482
154,902 155,231 156,352 158,207
159,724 160,2769 161,497 166,220
168,566 169,559 170,255 171,171
177,795 178,211 179,325 180,235
181,388 188,612 193,327 194,695
196,1132 197,189 198,403 202,171
204,782 208,338 210,448 223,255
224,4407 225,560 226,1598 227,184
238,1375 239,9999 240,1624 241,3323
242,373
##END=
