##TITLE=1,3-Dichloro-2,4,6-trifluorobenzene
##JCAMP-DX=4.24
##DATA TYPE=MASS SPECTRUM
##ORIGIN=Chuck Anderson, Aldrich Chemical Co.
##OWNER=NIST Mass Spectrometry Data Center
Collection (C) 2014 copyright by the U.S. Secretary of Commerce
on behalf of the United States of America. All rights reserved.
##CAS REGISTRY NO=2368-53-8
##$NIST MASS SPEC NO=107597
##MOLFORM=C6 H Cl2 F3
##MW=200
##$NIST SOURCE=MSDC
##XUNITS=M/Z
##YUNITS=RELATIVE INTENSITY
##XFACTOR=1
##YFACTOR=1
##FIRSTX=24
##LASTX=205
##FIRSTY=2
##MAXX=205
##MINX=24
##MAXY=9999
##MINY=2
##NPOINTS=122
##PEAK TABLE=(XY..XY)
24,2 25,2 31,516 32,8
35,130 36,71 37,174 38,4
43,8 44,29 47,85 48,32
49,66 50,10 51,18 55,109
56,95 57,10 58,2 59,3
60,105 61,452 62,25 65,15
66,21 67,36 68,144 69,25
71,104 72,77 73,86 74,134
75,190 76,18 78,27 79,416
80,760 81,39 82,24 83,18
84,73 85,71 86,244 87,53
90,96 91,283 92,235 93,95
95,98 96,183 97,39 98,176
99,751 100,500 101,317 102,181
103,17 104,43 105,9 106,25
107,8 108,10 109,226 110,139
111,237 112,10 115,1820 116,106
117,545 118,32 121,24 122,22
123,7 124,6 125,28 126,24
127,31 128,7 129,63 130,294
131,131 132,11 133,163 134,16
135,37 136,2 140,24 142,7
145,29 146,75 147,14 148,23
149,56 150,5 151,36 152,3
153,29 155,6 156,15 158,8
164,126 165,1594 166,120 167,534
168,27 169,176 170,6 171,115
172,4 173,17 180,31 181,43
182,29 183,25 185,3 199,101
200,9999 201,527 202,6267 203,298
204,1059 205,55
##END=
