##TITLE=2,6-Dimethoxyamphetamine
##JCAMP-DX=4.24
##DATA TYPE=MASS SPECTRUM
##ORIGIN=Finnigan MAT: Toxicological Library (LIBR-TX)
##OWNER=NIST Mass Spectrometry Data Center
Collection (C) 2014 copyright by the U.S. Secretary of Commerce
on behalf of the United States of America. All rights reserved.
##CAS REGISTRY NO=23690-14-4
##$NIST MASS SPEC NO=120210
##MOLFORM=C11 H17 N O2
##MW=195
##$NIST SOURCE=MSDC
##XUNITS=M/Z
##YUNITS=RELATIVE INTENSITY
##XFACTOR=1
##YFACTOR=1
##FIRSTX=44
##LASTX=196
##FIRSTY=9999
##MAXX=196
##MINX=44
##MAXY=9999
##MINY=36
##NPOINTS=26
##PEAK TABLE=(XY..XY)
44,9999 45,315 56,426 65,431
77,534 78,269 79,189 91,1353
92,146 93,267 105,165 106,254
107,242 121,431 122,122 123,155
133,61 137,237 151,771 152,4435
153,444 176,305 177,36 180,96
195,68 196,38
##END=
