##TITLE=Phenethylamine, 2-methoxy-.alpha.-methyl-4,5-(methylenedioxy)-
##JCAMP-DX=4.24
##DATA TYPE=MASS SPECTRUM
##ORIGIN=Patti Price, Georgia Bureau of Investigation, Decatur, Georgia
##OWNER=NIST Mass Spectrometry Data Center
Collection (C) 2014 copyright by the U.S. Secretary of Commerce
on behalf of the United States of America. All rights reserved.
##CAS REGISTRY NO=23693-18-7
##$NIST MASS SPEC NO=247807
##MOLFORM=C11 H15 N O3
##MW=209
##$NIST SOURCE=MSDC
##XUNITS=M/Z
##YUNITS=RELATIVE INTENSITY
##XFACTOR=1
##YFACTOR=1
##FIRSTX=41
##LASTX=209
##FIRSTY=110
##MAXX=209
##MINX=41
##MAXY=9999
##MINY=70
##NPOINTS=73
##PEAK TABLE=(XY..XY)
41,110 42,290 43,110 44,3663
45,110 50,120 51,200 52,90
53,450 54,80 55,110 62,80
63,290 64,310 65,340 66,170
67,180 68,70 69,320 70,70
74,80 75,90 76,150 77,1060
78,220 79,650 80,130 81,120
87,80 89,120 91,170 92,250
93,230 94,90 95,70 97,80
103,70 104,100 105,300 106,110
107,280 108,140 118,90 119,90
120,70 121,430 122,120 123,90
132,150 133,140 134,70 135,970
136,260 137,150 146,80 147,100
149,150 150,180 151,3903 152,470
162,120 163,100 164,70 165,1751
166,9999 167,1311 168,140 175,80
176,80 177,70 178,100 194,80
209,410
##END=
