##TITLE=2-Ethoxyethyl methacrylate
##JCAMP-DX=4.24
##DATA TYPE=MASS SPECTRUM
##ORIGIN=Japan AIST/NIMC Database- Spectrum MS-IW-2356
##OWNER=NIST Mass Spectrometry Data Center
Collection (C) 2014 copyright by the U.S. Secretary of Commerce
on behalf of the United States of America. All rights reserved.
##CAS REGISTRY NO=2370-63-0
##$NIST MASS SPEC NO=238469
##MOLFORM=C8 H14 O3
##MW=158
##$NIST SOURCE=MSDC
##XUNITS=M/Z
##YUNITS=RELATIVE INTENSITY
##XFACTOR=1
##YFACTOR=1
##FIRSTX=14
##LASTX=116
##FIRSTY=20
##MAXX=116
##MINX=14
##MAXY=9999
##MINY=10
##NPOINTS=61
##PEAK TABLE=(XY..XY)
14,20 15,219 16,10 19,90
25,10 26,139 27,839 28,469
29,1699 30,70 31,4239 32,40
33,10 37,40 38,139 39,1899
40,539 41,7059 42,379 43,1859
44,3869 45,2099 46,50 53,60
54,60 55,319 56,199 57,169
58,129 59,6689 60,249 61,60
66,10 67,20 68,229 69,9919
70,609 71,149 72,9999 73,659
74,40 81,10 82,80 83,20
84,199 85,219 86,499 87,269
88,10 89,389 90,20 96,90
97,30 99,909 100,559 101,40
112,30 113,1059 114,839 115,529
116,40
##END=
