##TITLE=Cyclotetrasiloxane, 2,4,6,8-tetramethyl-
##JCAMP-DX=4.24
##DATA TYPE=MASS SPECTRUM
##ORIGIN=RADIAN CORP
##OWNER=NIST Mass Spectrometry Data Center
Collection (C) 2014 copyright by the U.S. Secretary of Commerce
on behalf of the United States of America. All rights reserved.
##CAS REGISTRY NO=2370-88-9
##$NIST MASS SPEC NO=76317
##MOLFORM=C4 H16 O4 Si4
##MW=240
##$NIST SOURCE=MSDC
##XUNITS=M/Z
##YUNITS=RELATIVE INTENSITY
##XFACTOR=1
##YFACTOR=1
##FIRSTX=15
##LASTX=242
##FIRSTY=660
##MAXX=242
##MINX=15
##MAXY=9999
##MINY=20
##NPOINTS=70
##PEAK TABLE=(XY..XY)
15,660 27,30 28,60 29,120
31,270 43,520 45,2540 46,70
47,250 49,20 59,1620 60,40
61,660 73,1950 74,170 75,1280
77,60 88,40 89,470 91,50
96,90 97,100 103,640 104,360
105,990 107,50 111,100 112,380
117,30 119,1640 121,480 133,1030
134,90 135,690 147,360 149,800
150,50 151,320 163,1200 164,130
165,1850 166,310 167,120 177,810
178,70 179,2720 180,480 181,260
191,270 193,1280 194,150 195,130
207,500 208,40 209,570 210,50
211,40 221,530 223,1790 224,40
225,9999 226,2390 227,1610 228,210
235,210 237,1000 239,6810 240,1720
241,1130 242,110
##END=
