##TITLE=[1,1'-Biphenyl-4-ol], 2-chloro-
##JCAMP-DX=4.24
##DATA TYPE=MASS SPECTRUM
##ORIGIN=NIST Mass Spectrometry Data Center, 1998.
##OWNER=NIST Mass Spectrometry Data Center
Collection (C) 2014 copyright by the U.S. Secretary of Commerce
on behalf of the United States of America. All rights reserved.
##CAS REGISTRY NO=23719-22-4
##$NIST MASS SPEC NO=291878
##MOLFORM=C12 H9 Cl O
##MW=204
##$NIST SOURCE=MSDC
##XUNITS=M/Z
##YUNITS=RELATIVE INTENSITY
##XFACTOR=1
##YFACTOR=1
##FIRSTX=26
##LASTX=208
##FIRSTY=40
##MAXX=208
##MINX=26
##MAXY=9999
##MINY=10
##NPOINTS=133
##PEAK TABLE=(XY..XY)
26,40 27,100 28,10 29,50
35,10 36,10 37,40 38,100
39,320 40,20 41,10 42,10
43,20 44,10 49,40 50,320
51,440 52,90 53,130 54,10
55,130 56,50 57,130 60,20
61,140 62,420 63,770 64,110
65,150 66,30 67,20 68,20
70,470 72,20 73,130 74,360
75,410 76,170 77,180 78,30
79,10 80,10 84,520 86,280
87,390 88,240 89,600 90,90
91,80 92,20 93,30 94,20
96,10 97,50 98,140 99,130
100,50 101,170 102,560 103,150
105,10 108,10 109,40 110,80
111,90 112,40 113,450 114,350
115,1530 116,160 117,10 118,10
120,10 121,10 122,20 123,40
124,10 125,50 126,110 127,60
128,30 129,50 130,10 131,10
134,10 135,10 136,30 137,100
138,160 139,2680 140,730 141,2100
142,290 143,30 144,30 147,10
149,290 150,160 151,370 152,310
153,40 154,20 155,20 160,10
161,10 162,20 163,10 164,10
165,60 166,10 167,90 168,1000
169,470 170,60 171,10 173,20
175,250 176,50 177,90 178,70
179,10 180,10 186,20 187,10
188,10 189,20 191,10 202,20
204,9999 205,1400 206,3330 207,430
208,30
##END=
