##TITLE=2-Buten-1-one, 1-(2,6,6-trimethyl-1,3-cyclohexadien-1-yl)-, (E)-
##JCAMP-DX=4.24
##DATA TYPE=MASS SPECTRUM
##OWNER=NIST Mass Spectrometry Data Center
Collection (C) 2014 copyright by the U.S. Secretary of Commerce
on behalf of the United States of America. All rights reserved.
##CAS REGISTRY NO=23726-93-4
##$NIST MASS SPEC NO=32276
##MOLFORM=C13 H18 O
##MW=190
##$NIST SOURCE=MSDC
##XUNITS=M/Z
##YUNITS=RELATIVE INTENSITY
##XFACTOR=1
##YFACTOR=1
##FIRSTX=27
##LASTX=191
##FIRSTY=126
##MAXX=191
##MINX=27
##MAXY=9999
##MINY=40
##NPOINTS=50
##PEAK TABLE=(XY..XY)
27,126 29,109 39,1000 40,140
41,2060 42,100 43,200 44,140
51,270 52,100 53,320 55,250
63,140 65,350 66,80 67,130
69,9999 70,480 77,800 78,180
79,670 80,100 81,100 91,1000
92,90 93,320 103,230 105,1800
106,160 115,140 117,70 119,400
120,900 121,6000 122,600 128,60
129,60 131,100 133,180 142,70
145,80 147,160 149,170 157,100
159,40 161,80 175,650 176,80
190,1600 191,230
##END=
