##TITLE=Chloromethylmethyl sulfide
##JCAMP-DX=4.24
##DATA TYPE=MASS SPECTRUM
##ORIGIN=NIST Mass Spectrometry Data Center
##OWNER=NIST Mass Spectrometry Data Center
Collection (C) 2014 copyright by the U.S. Secretary of Commerce
on behalf of the United States of America. All rights reserved.
##CAS REGISTRY NO=2373-51-5
##$NIST MASS SPEC NO=340440
##MOLFORM=C2 H5 Cl S
##MW=96
##$NIST SOURCE=MSDC
##XUNITS=M/Z
##YUNITS=RELATIVE INTENSITY
##XFACTOR=1
##YFACTOR=1
##FIRSTX=12
##LASTX=100
##FIRSTY=10
##MAXX=100
##MINX=12
##MAXY=9999
##MINY=10
##NPOINTS=42
##PEAK TABLE=(XY..XY)
12,10 13,40 14,120 15,200
26,30 27,1712 32,110 33,60
34,40 35,1732 36,40 37,110
38,10 44,430 45,4084 46,2512
47,981 48,320 49,941 50,70
51,270 56,30 57,190 58,260
59,460 60,80 61,9999 62,370
63,480 64,10 67,10 79,110
80,70 81,220 82,30 83,60
95,80 96,4404 97,180 98,1661
99,50 100,60
##END=
