##TITLE=2,4,6(1H,3H,5H)-Pyrimidinetrione, 5-ethyl-5-(2-propenyl)-
##JCAMP-DX=4.24
##DATA TYPE=MASS SPECTRUM
##ORIGIN=H. Fales, LC, NHLBI, NIH, Bethesda, MD 20892
##OWNER=NIST Mass Spectrometry Data Center
Collection (C) 2014 copyright by the U.S. Secretary of Commerce
on behalf of the United States of America. All rights reserved.
##CAS REGISTRY NO=2373-84-4
##$NIST MASS SPEC NO=116498
##MOLFORM=C9 H12 N2 O3
##MW=196
##$NIST SOURCE=MSDC
##XUNITS=M/Z
##YUNITS=RELATIVE INTENSITY
##XFACTOR=1
##YFACTOR=1
##FIRSTX=41
##LASTX=198
##FIRSTY=4186
##MAXX=198
##MINX=41
##MAXY=9999
##MINY=4
##NPOINTS=113
##PEAK TABLE=(XY..XY)
41,4186 42,489 43,768 44,933
45,56 47,50 48,14 49,115
50,147 51,399 52,395 53,1315
54,531 55,632 56,239 57,82
58,11 59,5 61,18 62,25
63,69 64,23 65,300 66,247
67,1032 68,395 69,378 70,512
71,41 72,5 73,8 74,5
75,5 76,12 77,231 78,204
79,488 80,467 81,427 82,238
83,241 84,127 85,93 86,60
87,19 88,5 89,5 91,50
92,34 93,41 94,165 95,221
96,674 97,413 98,372 99,49
100,7 101,4 104,6 105,5
106,641 107,106 108,164 109,97
110,247 111,36 112,374 113,91
114,5 120,17 121,18 122,112
123,43 124,2621 125,304 126,84
127,15 128,17 129,14 135,16
136,27 137,13 138,71 139,105
140,57 141,1263 142,81 143,7
149,47 150,124 151,58 152,20
153,488 154,557 155,981 156,70
158,7 163,5 165,115 166,194
167,9999 168,2158 169,199 170,16
179,56 180,20 181,446 182,40
183,5 193,57 196,582 197,132
198,9
##END=
