##TITLE=Benzaldehyde, 5-(chloromethyl)-2-hydroxy-
##JCAMP-DX=4.24
##DATA TYPE=MASS SPECTRUM
##OWNER=NIST Mass Spectrometry Data Center
Collection (C) 2014 copyright by the U.S. Secretary of Commerce
on behalf of the United States of America. All rights reserved.
##CAS REGISTRY NO=23731-06-8
##$NIST MASS SPEC NO=6697
##MOLFORM=C8 H7 Cl O2
##MW=170
##$NIST SOURCE=MSDC
##XUNITS=M/Z
##YUNITS=RELATIVE INTENSITY
##XFACTOR=1
##YFACTOR=1
##FIRSTX=14
##LASTX=173
##FIRSTY=10
##MAXX=173
##MINX=14
##MAXY=9999
##MINY=10
##NPOINTS=110
##PEAK TABLE=(XY..XY)
14,10 17,50 18,210 25,10
26,90 27,230 28,490 29,160
30,10 31,20 32,80 35,150
36,1331 37,120 38,571 39,470
40,40 41,60 42,30 43,120
44,70 45,20 49,80 50,520
51,1141 52,550 53,540 54,60
55,200 56,50 57,30 60,20
61,80 62,160 63,310 64,50
65,80 66,70 67,200 68,20
69,80 71,10 73,70 74,130
75,110 76,140 77,1531 78,861
79,260 80,140 81,70 82,130
83,10 84,30 85,60 86,40
87,90 88,30 89,250 90,70
91,60 92,20 93,20 94,10
95,20 97,10 99,10 101,10
103,20 104,30 105,991 106,1441
107,480 108,60 109,10 111,20
113,10 115,10 117,10 118,30
119,20 121,60 122,50 123,40
124,20 133,2162 134,440 135,9999
136,1141 137,110 138,10 139,40
140,10 141,100 142,10 143,30
149,60 150,60 151,150 152,70
153,10 165,20 166,20 167,60
168,20 169,140 170,1441 171,170
172,480 173,40
##END=
