##TITLE=S-Methyl 3-methylbutanethioate
##JCAMP-DX=4.24
##DATA TYPE=MASS SPECTRUM
##ORIGIN=J. MADSEN,DEP. ORG. CHEM.,TECH. UNIV. DENMARK,LYNGBY,DENMARK
##OWNER=NIST Mass Spectrometry Data Center
Collection (C) 2014 copyright by the U.S. Secretary of Commerce
on behalf of the United States of America. All rights reserved.
##CAS REGISTRY NO=23747-45-7
##$NIST MASS SPEC NO=99433
##MOLFORM=C6 H12 O S
##MW=132
##$NIST SOURCE=MSDC
##XUNITS=M/Z
##YUNITS=RELATIVE INTENSITY
##XFACTOR=1
##YFACTOR=1
##FIRSTX=29
##LASTX=132
##FIRSTY=3600
##MAXX=132
##MINX=29
##MAXY=9999
##MINY=200
##NPOINTS=10
##PEAK TABLE=(XY..XY)
29,3600 39,1100 41,4600 43,2500
47,900 57,9999 75,1700 85,7800
117,200 132,300
##END=
