##TITLE=5H-5-Methyl-6,7-dihydrocyclopentapyrazine
##JCAMP-DX=4.24
##DATA TYPE=MASS SPECTRUM
##ORIGIN=Japan AIST/NIMC Database- Spectrum MS-IW-4190
##OWNER=NIST Mass Spectrometry Data Center
Collection (C) 2014 copyright by the U.S. Secretary of Commerce
on behalf of the United States of America. All rights reserved.
##CAS REGISTRY NO=23747-48-0
##$NIST MASS SPEC NO=237290
##MOLFORM=C8 H10 N2
##MW=134
##$NIST SOURCE=MSDC
##XUNITS=M/Z
##YUNITS=RELATIVE INTENSITY
##XFACTOR=1
##YFACTOR=1
##FIRSTX=15
##LASTX=136
##FIRSTY=10
##MAXX=136
##MINX=15
##MAXY=9999
##MINY=10
##NPOINTS=63
##PEAK TABLE=(XY..XY)
15,10 18,10 26,119 27,199
28,209 29,50 30,20 37,30
38,90 39,469 40,149 41,339
42,90 50,70 51,189 52,409
53,289 54,269 55,99 56,20
59,50 61,10 62,20 63,70
64,99 65,499 66,239 67,119
68,40 69,10 74,10 75,20
76,30 77,219 78,1479 79,599
80,389 81,70 82,20 90,20
91,70 92,899 93,199 94,90
95,10 103,10 104,60 105,129
106,139 107,229 108,30 116,20
117,80 118,489 119,9999 120,939
121,40 131,229 132,229 133,3089
134,5779 135,569 136,20
##END=
