##TITLE=Phenol, 4-bromo-2,6-dimethyl-
##JCAMP-DX=4.24
##DATA TYPE=MASS SPECTRUM
##ORIGIN=Japan AIST/NIMC Database- Spectrum MS-NW-9131
##OWNER=NIST Mass Spectrometry Data Center
Collection (C) 2014 copyright by the U.S. Secretary of Commerce
on behalf of the United States of America. All rights reserved.
##CAS REGISTRY NO=2374-05-2
##$NIST MASS SPEC NO=234931
##MOLFORM=C8 H9 Br O
##MW=200
##$NIST SOURCE=MSDC
##XUNITS=M/Z
##YUNITS=RELATIVE INTENSITY
##XFACTOR=1
##YFACTOR=1
##FIRSTX=15
##LASTX=204
##FIRSTY=20
##MAXX=204
##MINX=15
##MAXY=9999
##MINY=10
##NPOINTS=90
##PEAK TABLE=(XY..XY)
15,20 26,50 27,349 28,30
29,50 36,20 37,50 38,169
39,909 40,109 49,30 50,329
51,939 52,309 53,569 54,40
59,149 60,219 61,99 62,219
63,519 64,149 65,1099 66,169
67,129 68,10 69,20 73,30
74,109 75,139 76,109 77,3929
78,789 79,159 80,50 88,10
89,199 90,139 91,3909 92,1659
93,1029 94,109 95,20 98,10
99,109 100,259 101,179 102,259
103,1669 104,209 105,80 106,90
107,219 108,20 117,20 118,10
119,119 120,179 121,9999 122,1089
123,70 131,30 133,30 143,10
145,10 156,10 157,50 158,20
159,40 169,20 170,20 171,99
172,30 173,80 181,10 182,109
183,60 184,109 185,379 186,70
187,329 188,60 197,10 198,20
199,649 200,9349 201,1439 202,9089
203,799 204,50
##END=
