##TITLE=2,5,8,11,14-Pentaoxahexadecan-16-ol
##JCAMP-DX=4.24
##DATA TYPE=MASS SPECTRUM
##ORIGIN=NIST Mass Spectrometry Data Center, 2007
##OWNER=NIST Mass Spectrometry Data Center
Collection (C) 2014 copyright by the U.S. Secretary of Commerce
on behalf of the United States of America. All rights reserved.
##CAS REGISTRY NO=23778-52-1
##$NIST MASS SPEC NO=352039
##MOLFORM=C11 H24 O6
##MW=252
##$NIST SOURCE=MSDC
##XUNITS=M/Z
##YUNITS=RELATIVE INTENSITY
##XFACTOR=1
##YFACTOR=1
##FIRSTX=14
##LASTX=209
##FIRSTY=10
##MAXX=209
##MINX=14
##MAXY=9999
##MINY=10
##NPOINTS=83
##PEAK TABLE=(XY..XY)
14,10 15,230 16,10 17,10
19,120 26,50 27,390 28,771
29,1471 30,150 31,1331 32,30
33,50 39,20 40,10 41,190
42,250 43,1561 44,1121 45,9999
46,240 47,30 55,10 56,30
57,260 58,2873 59,8468 60,330
61,100 62,10 69,20 70,190
71,160 72,480 73,711 74,70
75,310 76,30 77,140 83,10
85,20 86,150 87,1982 88,801
89,4054 90,210 91,50 99,20
100,40 101,410 102,460 103,2442
104,160 105,40 107,30 113,10
114,20 115,60 116,30 117,120
118,20 119,140 120,10 121,180
122,10 131,300 132,40 133,851
134,60 135,10 145,10 146,10
147,140 148,20 149,10 151,10
163,100 164,10 165,50 175,30
177,60 207,20 209,20
##END=
