##TITLE=Benzeneacetic acid, 4-methoxy-, methyl ester
##JCAMP-DX=4.24
##DATA TYPE=MASS SPECTRUM
##ORIGIN=Japan AIST/NIMC Database- Spectrum MS-NW-8953
##OWNER=NIST Mass Spectrometry Data Center
Collection (C) 2014 copyright by the U.S. Secretary of Commerce
on behalf of the United States of America. All rights reserved.
##CAS REGISTRY NO=23786-14-3
##$NIST MASS SPEC NO=237905
##MOLFORM=C10 H12 O3
##MW=180
##$NIST SOURCE=MSDC
##XUNITS=M/Z
##YUNITS=RELATIVE INTENSITY
##XFACTOR=1
##YFACTOR=1
##FIRSTX=15
##LASTX=182
##FIRSTY=90
##MAXX=182
##MINX=15
##MAXY=9999
##MINY=10
##NPOINTS=62
##PEAK TABLE=(XY..XY)
15,90 27,20 28,50 29,10
38,10 39,109 41,40 43,10
50,70 51,249 52,179 53,60
55,40 59,80 60,30 61,10
62,30 63,109 64,40 65,149
66,10 67,10 74,10 75,10
76,30 77,769 78,669 79,80
80,10 89,189 90,119 91,489
92,60 93,30 103,10 104,10
105,70 106,149 107,60 108,20
109,10 116,10 117,10 119,20
120,50 121,9999 122,889 123,60
132,20 133,20 135,50 136,10
137,10 146,20 147,70 148,30
149,20 151,10 165,10 180,2509
181,279 182,30
##END=
