##TITLE=Phosphamidon, (Z)-
##JCAMP-DX=4.24
##DATA TYPE=MASS SPECTRUM
##ORIGIN=S.M. Lee, CA Export Lab. Services, CA, USA
##OWNER=NIST Mass Spectrometry Data Center
Collection (C) 2014 copyright by the U.S. Secretary of Commerce
on behalf of the United States of America. All rights reserved.
##CAS REGISTRY NO=23783-98-4
##$NIST MASS SPEC NO=290351
##MOLFORM=C10 H19 Cl N O5 P
##MW=299
##$NIST SOURCE=MSDC
##XUNITS=M/Z
##YUNITS=RELATIVE INTENSITY
##XFACTOR=1
##YFACTOR=1
##FIRSTX=51
##LASTX=299
##FIRSTY=80
##MAXX=299
##MINX=51
##MAXY=9999
##MINY=10
##NPOINTS=157
##PEAK TABLE=(XY..XY)
51,80 52,20 53,80 54,110
55,170 56,731 57,220 58,500
59,20 61,60 62,30 63,60
64,30 65,80 66,110 67,1051
68,90 69,70 70,681 71,230
72,3493 73,470 74,40 75,180
76,80 77,60 78,80 79,851
80,100 81,120 82,140 83,100
84,20 85,10 86,20 87,20
88,40 89,30 90,30 91,40
92,90 93,410 94,70 95,320
96,100 97,20 98,20 99,40
100,410 101,390 102,130 103,290
104,70 105,40 106,20 107,10
109,2973 110,601 111,70 112,40
113,150 115,30 116,20 117,90
118,60 119,80 120,110 121,40
122,60 124,30 125,40 127,9999
128,250 129,90 130,140 131,100
132,50 133,50 134,20 135,20
136,50 137,80 138,2212 139,180
140,30 141,10 142,20 143,20
144,90 145,120 146,90 147,40
148,10 149,30 150,10 151,10
152,20 153,50 154,10 158,961
159,80 160,340 161,50 162,20
164,200 165,180 166,60 170,30
172,440 173,440 174,230 175,150
176,30 177,30 179,10 181,20
183,10 184,10 190,10 191,30
192,470 193,801 194,80 195,20
197,10 198,120 199,20 200,30
201,10 207,10 208,20 217,20
219,20 220,10 221,20 222,20
224,10 225,10 226,90 227,741
228,90 229,310 230,20 232,10
234,10 236,30 244,10 248,50
262,20 264,5305 265,621 266,90
267,10 284,30 285,20 286,10
299,10
##END=
