##TITLE=Benzo[c]phenanthrene, 3-methyl-
##JCAMP-DX=4.24
##DATA TYPE=MASS SPECTRUM
##OWNER=NIST Mass Spectrometry Data Center
Collection (C) 2014 copyright by the U.S. Secretary of Commerce
on behalf of the United States of America. All rights reserved.
##CAS REGISTRY NO=2381-19-3
##$NIST MASS SPEC NO=11676
##MOLFORM=C19 H14
##MW=242
##$NIST SOURCE=MSDC
##XUNITS=M/Z
##YUNITS=RELATIVE INTENSITY
##XFACTOR=1
##YFACTOR=1
##FIRSTX=38
##LASTX=245
##FIRSTY=30
##MAXX=245
##MINX=38
##MAXY=9999
##MINY=10
##NPOINTS=198
##PEAK TABLE=(XY..XY)
38,30 39,140 40,160 41,70
42,20 43,40 44,190 45,10
46,10 47,10 48,10 49,10
50,80 51,90 52,20 53,10
54,10 55,30 56,30 57,20
58,10 59,10 60,10 61,10
62,50 63,130 64,10 65,10
66,10 67,10 68,10 69,10
70,10 71,10 72,10 73,10
74,80 75,80 76,30 77,20
78,10 79,50 80,40 81,30
82,20 83,10 84,10 85,10
86,50 87,100 88,50 89,20
90,10 91,10 92,10 93,50
94,120 95,100 96,10 97,10
98,50 99,70 100,160 101,140
102,10 103,10 104,10 105,40
106,170 107,200 108,140 109,10
110,20 111,50 112,260 113,981
114,80 115,10 116,10 117,30
118,210 119,681 120,1071 121,671
122,50 123,30 124,10 125,10
126,30 127,10 128,10 139,40
140,10 141,10 142,10 143,10
144,10 145,10 146,10 147,10
148,10 149,20 150,70 151,40
152,30 153,10 154,10 155,10
156,10 157,10 158,10 159,10
160,10 161,30 162,30 163,30
164,20 165,30 166,10 167,10
168,10 169,10 170,10 171,10
172,10 173,10 174,60 175,40
176,50 177,10 178,10 179,10
180,10 181,10 182,10 183,10
184,10 185,20 186,40 187,160
188,70 189,180 190,40 191,10
192,10 193,10 194,10 195,10
196,10 197,10 198,40 199,40
200,150 201,70 202,280 203,60
204,10 205,10 206,10 207,10
208,10 209,10 210,20 211,110
212,60 213,280 214,70 215,270
216,60 217,10 218,10 219,10
220,10 221,10 222,30 223,50
224,270 225,260 226,2042 227,1081
228,200 229,30 230,10 231,10
232,10 233,10 234,10 235,60
236,70 237,460 238,270 239,1651
240,801 241,1201 242,9999 243,2082
244,220 245,20
##END=
