##TITLE=2-Mercapto-1,3-benzoxazole
##JCAMP-DX=4.24
##DATA TYPE=MASS SPECTRUM
##ORIGIN=Japan AIST/NIMC Database- Spectrum MS-NW-3269
##OWNER=NIST Mass Spectrometry Data Center
Collection (C) 2014 copyright by the U.S. Secretary of Commerce
on behalf of the United States of America. All rights reserved.
##CAS REGISTRY NO=2382-96-9
##$NIST MASS SPEC NO=231390
##MOLFORM=C7 H5 N O S
##MW=151
##$NIST SOURCE=MSDC
##XUNITS=M/Z
##YUNITS=RELATIVE INTENSITY
##XFACTOR=1
##YFACTOR=1
##FIRSTX=12
##LASTX=154
##FIRSTY=10
##MAXX=154
##MINX=12
##MAXY=9999
##MINY=10
##NPOINTS=90
##PEAK TABLE=(XY..XY)
12,10 18,10 25,30 26,179
27,169 28,109 29,30 31,20
32,139 33,20 34,10 36,40
37,349 38,809 39,909 40,119
41,399 42,10 43,10 44,149
45,449 46,20 47,20 48,30
49,90 50,409 51,619 52,949
53,219 54,30 55,30 56,10
57,20 58,40 59,139 60,70
61,249 62,489 63,1769 64,2459
65,979 66,70 67,10 68,20
69,149 70,239 71,50 72,50
73,20 74,70 75,399 76,139
77,60 78,529 79,769 80,50
81,20 82,40 83,40 84,20
86,10 87,20 88,20 89,10
90,169 91,4569 92,549 93,50
94,40 95,209 96,969 97,90
98,40 106,489 107,329 108,30
117,10 118,30 119,159 120,20
122,799 123,359 124,90 125,20
135,10 150,189 151,9999 152,869
153,489 154,30
##END=
