##TITLE=1-Hepten-3-yne
##JCAMP-DX=4.24
##DATA TYPE=MASS SPECTRUM
##ORIGIN=D.HENNEBERG, MAX-PLANCK INSTITUTE, MULHEIM, WEST GERMANY
##OWNER=NIST Mass Spectrometry Data Center
Collection (C) 2014 copyright by the U.S. Secretary of Commerce
on behalf of the United States of America. All rights reserved.
##CAS REGISTRY NO=2384-73-8
##$NIST MASS SPEC NO=63072
##MOLFORM=C7 H10
##MW=94
##$NIST SOURCE=MSDC
##XUNITS=M/Z
##YUNITS=RELATIVE INTENSITY
##XFACTOR=1
##YFACTOR=1
##FIRSTX=22
##LASTX=96
##FIRSTY=6
##MAXX=96
##MINX=22
##MAXY=9999
##MINY=3
##NPOINTS=71
##PEAK TABLE=(XY..XY)
22,6 23,57 24,17 25,33
26,372 27,2507 28,181 29,1335
30,28 31,22 32,17 33,28
34,37 35,31 36,37 37,400
38,1035 39,8102 40,1709 41,1368
42,846 43,216 44,30 45,93
46,28 47,20 48,32 49,151
50,1078 51,1805 52,2190 53,1693
54,557 55,590 56,32 59,21
60,49 61,360 62,816 63,1906
64,673 65,7169 66,2305 67,632
68,67 69,5 70,3 71,6
72,10 73,50 74,222 75,653
76,122 77,9236 78,1160 79,9999
80,676 81,20 84,16 85,38
86,68 87,42 88,18 89,133
90,35 91,2250 92,318 93,1285
94,7937 95,576 96,15
##END=
