##TITLE=4-Decyne
##JCAMP-DX=4.24
##DATA TYPE=MASS SPECTRUM
##ORIGIN=NIST Mass Spectrometry Data Center, 1990.
##OWNER=NIST Mass Spectrometry Data Center
Collection (C) 2014 copyright by the U.S. Secretary of Commerce
on behalf of the United States of America. All rights reserved.
##CAS REGISTRY NO=2384-86-3
##$NIST MASS SPEC NO=113883
##MOLFORM=C10 H18
##MW=138
##$NIST SOURCE=MSDC
##XUNITS=M/Z
##YUNITS=RELATIVE INTENSITY
##XFACTOR=1
##YFACTOR=1
##FIRSTX=15
##LASTX=138
##FIRSTY=50
##MAXX=138
##MINX=15
##MAXY=9999
##MINY=31
##NPOINTS=50
##PEAK TABLE=(XY..XY)
15,50 26,188 27,1941 28,244
29,1905 30,45 39,2265 40,280
41,3873 42,424 43,557 44,72
50,357 51,891 52,980 53,1780
54,2471 55,3257 56,377 57,262
62,82 63,254 64,72 65,872
66,72 67,9999 68,1141 69,301
70,52 74,40 75,31 77,835
78,193 79,1342 80,371 81,3581
82,959 83,191 91,262 92,41
93,254 94,41 95,2970 96,974
97,85 107,57 109,1131 110,138
123,113 138,169
##END=
