##TITLE=Furethidine
##JCAMP-DX=4.24
##DATA TYPE=MASS SPECTRUM
##ORIGIN=HOME OFFICE, CENTRAL RES. EST., ALDERMASTON, BERKS., U.K.
##OWNER=NIST Mass Spectrometry Data Center
Collection (C) 2014 copyright by the U.S. Secretary of Commerce
on behalf of the United States of America. All rights reserved.
##CAS REGISTRY NO=2385-81-1
##$NIST MASS SPEC NO=58792
##MOLFORM=C21 H31 N O4
##MW=361
##$NIST SOURCE=MSDC
##XUNITS=M/Z
##YUNITS=RELATIVE INTENSITY
##XFACTOR=1
##YFACTOR=1
##FIRSTX=39
##LASTX=288
##FIRSTY=200
##MAXX=288
##MINX=39
##MAXY=9999
##MINY=100
##NPOINTS=30
##PEAK TABLE=(XY..XY)
39,200 41,500 42,1400 43,1000
44,200 55,200 56,400 57,400
59,100 70,200 71,1000 72,300
85,100 91,400 99,100 103,300
115,300 117,100 129,200 131,200
158,300 172,300 174,100 218,200
232,400 233,200 246,9999 247,1700
248,100 288,100
##END=
