##TITLE=6-Octenal, 3,7-dimethyl-, (R)-
##JCAMP-DX=4.24
##DATA TYPE=MASS SPECTRUM
##ORIGIN=Chuck Anderson, Aldrich Chemical Co.
##OWNER=NIST Mass Spectrometry Data Center
Collection (C) 2014 copyright by the U.S. Secretary of Commerce
on behalf of the United States of America. All rights reserved.
##CAS REGISTRY NO=2385-77-5
##$NIST MASS SPEC NO=108479
##MOLFORM=C10 H18 O
##MW=154
##$NIST SOURCE=MSDC
##XUNITS=M/Z
##YUNITS=RELATIVE INTENSITY
##XFACTOR=1
##YFACTOR=1
##FIRSTX=15
##LASTX=155
##FIRSTY=121
##MAXX=155
##MINX=15
##MAXY=9999
##MINY=5
##NPOINTS=80
##PEAK TABLE=(XY..XY)
15,121 18,6 26,82 27,1978
28,328 29,2166 30,41 31,74
35,29 36,138 37,28 38,145
39,2437 40,453 41,9999 42,911
43,1958 44,191 45,39 50,77
51,253 52,111 53,1197 54,272
55,4562 56,2583 57,999 58,61
59,238 62,11 63,67 65,338
66,102 67,2791 68,989 69,9249
70,1281 71,1223 72,273 73,8
77,298 78,47 79,619 80,239
81,1374 82,484 83,1437 84,1562
85,308 86,37 91,230 92,73
93,968 94,156 95,4937 96,515
97,1015 98,744 99,72 105,75
107,273 108,67 109,1354 110,1098
111,1895 112,770 113,51 119,10
121,2291 122,188 123,278 124,5
125,51 126,17 136,619 137,64
139,687 140,50 154,520 155,41
##END=
