##TITLE=Ethanone, 1-(2,4-dimethyl-1H-pyrrol-3-yl)-
##JCAMP-DX=4.24
##DATA TYPE=MASS SPECTRUM
##ORIGIN=Japan AIST/NIMC Database- Spectrum MS-NW-6221
##OWNER=NIST Mass Spectrometry Data Center
Collection (C) 2014 copyright by the U.S. Secretary of Commerce
on behalf of the United States of America. All rights reserved.
##CAS REGISTRY NO=2386-25-6
##$NIST MASS SPEC NO=234659
##MOLFORM=C8 H11 N O
##MW=137
##$NIST SOURCE=MSDC
##XUNITS=M/Z
##YUNITS=RELATIVE INTENSITY
##XFACTOR=1
##YFACTOR=1
##FIRSTX=14
##LASTX=139
##FIRSTY=20
##MAXX=139
##MINX=14
##MAXY=9999
##MINY=10
##NPOINTS=79
##PEAK TABLE=(XY..XY)
14,20 15,159 17,20 18,70
26,40 27,219 28,70 29,30
30,30 37,40 38,109 39,689
40,229 41,579 42,379 43,689
44,30 45,40 46,249 47,40
49,20 50,109 51,269 52,289
53,1079 54,129 55,40 56,10
58,99 59,20 60,749 61,219
62,80 63,189 64,80 65,459
66,379 67,719 68,139 69,20
72,10 73,10 74,20 75,20
76,20 77,119 78,80 79,70
80,70 81,249 82,20 89,10
90,10 91,70 92,80 93,419
94,929 95,90 104,40 105,10
106,80 107,40 108,139 109,30
110,10 117,20 118,119 119,70
120,80 121,159 122,9999 123,809
124,60 134,10 135,10 136,219
137,5699 138,569 139,30
##END=
