##TITLE=3H-3a,7-Methanoazulene, 2,4,5,6,7,8-hexahydro-1,4,9,9-tetramethyl-, [3aR-(3a.alpha.,4.beta.,7.alpha.)]-
##JCAMP-DX=4.24
##DATA TYPE=MASS SPECTRUM
##OWNER=NIST Mass Spectrometry Data Center
Collection (C) 2014 copyright by the U.S. Secretary of Commerce
on behalf of the United States of America. All rights reserved.
##CAS REGISTRY NO=2387-78-2
##$NIST MASS SPEC NO=9207
##MOLFORM=C15 H24
##MW=204
##$NIST SOURCE=MSDC
##XUNITS=M/Z
##YUNITS=RELATIVE INTENSITY
##XFACTOR=1
##YFACTOR=1
##FIRSTX=27
##LASTX=206
##FIRSTY=951
##MAXX=206
##MINX=27
##MAXY=9999
##MINY=20
##NPOINTS=132
##PEAK TABLE=(XY..XY)
27,951 28,170 29,1191 30,50
32,20 37,50 38,50 39,1051
40,140 41,3363 42,741 43,1712
44,70 50,70 51,290 52,120
53,741 54,100 55,1571 56,811
57,1141 58,70 62,50 63,120
64,100 65,520 66,100 67,671
68,100 69,831 70,120 71,310
72,100 73,50 74,50 75,100
76,70 77,1191 78,360 79,1241
80,140 81,791 82,100 83,140
84,70 85,70 86,120 87,50
88,50 89,100 90,50 91,2402
92,380 93,1291 94,430 95,901
96,100 97,70 102,70 103,240
104,120 105,3003 106,520 107,1191
108,290 109,380 110,100 111,50
113,50 114,50 115,520 116,240
117,691 118,170 119,3123 120,641
121,671 122,360 123,100 126,50
127,170 128,380 129,380 130,190
131,861 132,210 133,1882 134,400
135,380 136,70 137,50 139,50
140,50 141,100 142,100 143,140
144,120 145,931 146,290 147,1672
148,430 149,240 150,70 151,50
152,50 153,50 154,50 155,50
156,50 157,70 158,70 159,1071
160,260 161,3293 162,480 163,90
174,100 175,1621 176,330 177,120
178,50 187,691 188,120 189,5715
190,861 191,70 192,70 202,520
203,240 204,9999 205,1601 206,100
##END=
