##TITLE=Benzene, 1-methoxy-3-(methylthio)-
##JCAMP-DX=4.24
##DATA TYPE=MASS SPECTRUM
##ORIGIN=NIST Mass Spectrometry Data Center
##OWNER=NIST Mass Spectrometry Data Center
Collection (C) 2014 copyright by the U.S. Secretary of Commerce
on behalf of the United States of America. All rights reserved.
##CAS REGISTRY NO=2388-74-1
##$NIST MASS SPEC NO=352994
##MOLFORM=C8 H10 O S
##MW=154
##$NIST SOURCE=MSDC
##XUNITS=M/Z
##YUNITS=RELATIVE INTENSITY
##XFACTOR=1
##YFACTOR=1
##FIRSTX=14
##LASTX=157
##FIRSTY=20
##MAXX=157
##MINX=14
##MAXY=9999
##MINY=10
##NPOINTS=99
##PEAK TABLE=(XY..XY)
14,20 15,190 26,20 27,40
28,10 29,60 30,10 31,10
37,50 38,210 39,340 40,20
41,90 42,10 43,10 45,731
46,110 47,110 48,20 49,30
50,300 51,280 52,130 53,120
54,20 55,50 56,10 57,70
58,100 59,40 60,20 61,110
62,250 63,951 64,621 65,661
66,140 67,370 68,40 69,651
70,440 71,160 72,50 73,40
74,180 75,120 76,150 77,1451
78,1201 79,460 80,60 81,90
82,200 83,40 84,60 85,190
86,20 87,10 89,20 90,30
91,1111 92,601 93,320 94,110
95,1371 96,1231 97,180 98,70
99,10 105,60 106,90 107,250
108,1141 109,1151 110,260 111,1051
112,90 113,50 114,10 119,10
121,6756 122,671 123,490 124,1011
125,390 126,80 127,20 136,10
137,110 138,350 139,540 140,70
141,30 151,30 152,20 154,9999
155,1101 156,581 157,50
##END=
