##TITLE=1,2,4-Trioxolane, 3,5-diphenyl-
##JCAMP-DX=4.24
##DATA TYPE=MASS SPECTRUM
##OWNER=NIST Mass Spectrometry Data Center
Collection (C) 2014 copyright by the U.S. Secretary of Commerce
on behalf of the United States of America. All rights reserved.
##CAS REGISTRY NO=23888-15-5
##$NIST MASS SPEC NO=10900
##MOLFORM=C14 H12 O3
##MW=228
##$NIST SOURCE=MSDC
##XUNITS=M/Z
##YUNITS=RELATIVE INTENSITY
##XFACTOR=1
##YFACTOR=1
##FIRSTX=26
##LASTX=197
##FIRSTY=178
##MAXX=197
##MINX=26
##MAXY=9999
##MINY=44
##NPOINTS=39
##PEAK TABLE=(XY..XY)
26,178 27,555 28,44 29,267
37,222 38,400 39,800 41,222
43,133 44,289 45,222 49,178
50,1822 51,3644 52,711 53,222
61,178 62,222 63,267 64,311
65,222 73,222 74,667 75,333
76,489 77,8577 78,1378 79,222
89,178 91,555 94,311 105,9999
106,6110 107,378 108,133 122,3511
123,222 196,222 197,267
##END=
