##TITLE=Benzene, 1-(1-methylethenyl)-4-(1-methylethyl)-
##JCAMP-DX=4.24
##DATA TYPE=MASS SPECTRUM
##OWNER=NIST Mass Spectrometry Data Center
Collection (C) 2014 copyright by the U.S. Secretary of Commerce
on behalf of the United States of America. All rights reserved.
##CAS REGISTRY NO=2388-14-9
##$NIST MASS SPEC NO=5654
##MOLFORM=C12 H16
##MW=160
##$NIST SOURCE=MSDC
##XUNITS=M/Z
##YUNITS=RELATIVE INTENSITY
##XFACTOR=1
##YFACTOR=1
##FIRSTX=15
##LASTX=161
##FIRSTY=20
##MAXX=161
##MINX=15
##MAXY=9999
##MINY=10
##NPOINTS=110
##PEAK TABLE=(XY..XY)
15,20 17,10 18,20 26,10
27,180 28,40 29,40 31,10
32,10 37,10 38,20 39,460
40,40 41,1111 42,40 43,440
44,10 45,20 50,120 51,400
52,80 53,110 54,10 55,30
57,40 58,70 59,30 60,10
61,10 62,40 63,240 64,240
65,360 67,100 68,10 69,30
70,60 71,150 72,40 73,60
74,70 75,100 76,90 77,561
78,180 79,290 80,50 81,10
82,20 83,90 84,10 85,10
86,20 87,40 88,10 89,110
90,30 91,1111 92,90 93,20
98,10 99,10 100,10 101,50
102,140 103,390 104,120 105,1621
106,140 107,10 110,10 111,10
113,20 114,10 115,751 116,220
117,1331 118,170 119,460 120,50
121,50 122,10 123,10 125,10
126,30 127,220 128,631 129,460
130,460 131,210 132,10 133,30
136,10 137,10 138,10 139,30
140,10 141,90 142,30 143,170
144,90 145,9999 146,1211 147,891
148,100 149,10 158,20 159,90
160,4264 161,631
##END=
