##TITLE=13H-Dibenzo[a,i]carbazole
##JCAMP-DX=4.24
##DATA TYPE=MASS SPECTRUM
##ORIGIN=Japan AIST/NIMC Database- Spectrum MS-NW-3214
##OWNER=NIST Mass Spectrometry Data Center
Collection (C) 2014 copyright by the U.S. Secretary of Commerce
on behalf of the United States of America. All rights reserved.
##CAS REGISTRY NO=239-64-5
##$NIST MASS SPEC NO=229724
##MOLFORM=C20 H13 N
##MW=267
##$NIST SOURCE=MSDC
##XUNITS=M/Z
##YUNITS=RELATIVE INTENSITY
##XFACTOR=1
##YFACTOR=1
##FIRSTX=27
##LASTX=270
##FIRSTY=40
##MAXX=270
##MINX=27
##MAXY=9999
##MINY=10
##NPOINTS=137
##PEAK TABLE=(XY..XY)
27,40 38,20 39,119 41,20
43,30 44,10 50,90 51,109
52,40 55,20 56,10 57,40
61,10 62,80 63,179 64,30
65,20 67,10 69,20 71,20
74,99 75,109 76,60 77,60
78,139 79,20 80,20 81,30
82,10 83,10 85,10 86,70
87,119 88,60 89,109 90,10
92,10 93,119 94,50 95,10
97,10 98,60 99,70 100,50
101,20 102,10 105,149 106,199
107,70 108,10 110,40 111,50
112,30 113,70 114,30 115,40
116,10 117,70 118,409 119,459
120,159 121,30 122,30 123,20
124,10 125,20 126,50 127,30
128,10 130,10 131,219 132,1049
133,1719 134,369 135,20 136,10
137,30 138,30 139,129 140,40
149,20 150,70 151,40 152,20
161,30 162,40 163,139 164,60
165,70 166,10 174,30 175,30
176,20 177,20 185,20 186,30
187,80 188,60 189,40 190,30
198,20 199,20 200,30 201,20
202,10 210,10 211,60 212,60
213,99 214,60 215,50 216,10
224,10 225,20 226,30 227,30
228,10 235,30 236,50 237,189
238,179 239,369 240,159 241,30
250,10 251,30 252,10 261,10
262,99 263,139 264,609 265,879
266,2069 267,9999 268,2189 269,229
270,10
##END=
