##TITLE=Benzo[b]naphtho[2,1-d]thiophene
##JCAMP-DX=4.24
##DATA TYPE=MASS SPECTRUM
##ORIGIN=W. RIEPE, INST. SPEKTROCHEM. ANGEW. SPEKTROSC., DORTMUND, GE
##OWNER=NIST Mass Spectrometry Data Center
Collection (C) 2014 copyright by the U.S. Secretary of Commerce
on behalf of the United States of America. All rights reserved.
##CAS REGISTRY NO=239-35-0
##$NIST MASS SPEC NO=75461
##MOLFORM=C16 H10 S
##MW=234
##$NIST SOURCE=MSDC
##XUNITS=M/Z
##YUNITS=RELATIVE INTENSITY
##XFACTOR=1
##YFACTOR=1
##FIRSTX=32
##LASTX=237
##FIRSTY=290
##MAXX=237
##MINX=32
##MAXY=9999
##MINY=110
##NPOINTS=52
##PEAK TABLE=(XY..XY)
32,290 39,270 44,230 45,150
50,170 51,210 62,190 63,300
69,250 74,180 75,180 82,140
86,150 87,160 91,180 93,130
94,110 95,110 98,120 99,110
101,130 103,130 104,360 116,300
117,790 118,110 137,120 139,140
150,110 151,110 162,130 163,330
164,120 187,410 188,320 189,960
190,190 200,260 201,160 202,840
203,140 206,110 208,150 215,150
230,170 231,120 232,960 233,530
234,9999 235,1890 236,610 237,110
##END=
