##TITLE=Bis(3-chlorophenylsulphonyl)methane
##JCAMP-DX=4.24
##DATA TYPE=MASS SPECTRUM
##ORIGIN=NIST Mass Spectrometry Data Center
##OWNER=NIST Mass Spectrometry Data Center
Collection (C) 2014 copyright by the U.S. Secretary of Commerce
on behalf of the United States of America. All rights reserved.
##CAS REGISTRY NO=2394-03-8
##$NIST MASS SPEC NO=342726
##MOLFORM=C13 H10 Cl2 O4 S2
##MW=364
##$NIST SOURCE=MSDC
##XUNITS=M/Z
##YUNITS=RELATIVE INTENSITY
##XFACTOR=1
##YFACTOR=1
##FIRSTX=15
##LASTX=368
##FIRSTY=40
##MAXX=368
##MINX=15
##MAXY=9999
##MINY=30
##NPOINTS=87
##PEAK TABLE=(XY..XY)
15,40 27,100 28,100 29,40
32,80 38,140 39,270 44,60
45,380 46,70 47,30 48,150
50,1912 51,1031 52,80 53,40
61,210 62,180 63,731 64,280
65,140 69,140 70,60 73,420
74,1031 75,5825 76,1081 77,480
78,80 79,120 81,60 82,50
84,170 85,661 86,100 87,360
89,851 90,290 95,150 96,130
99,711 100,70 101,190 107,60
108,220 109,80 111,9999 112,961
113,3353 114,300 115,240 121,50
123,50 125,3894 126,400 127,1301
128,140 131,761 132,90 133,260
139,50 141,6986 142,701 143,2352
144,260 150,40 151,60 152,100
157,80 159,1081 160,180 161,400
162,60 165,100 166,60 173,861
175,3473 176,240 177,1161 178,100
179,50 189,40 364,410 365,50
366,400 367,50 368,70
##END=
