##TITLE=Ethirimol
##JCAMP-DX=4.24
##DATA TYPE=MASS SPECTRUM
##ORIGIN=J. SHAW, BORRISTON RESEARCH, ROCKVILLE, MD, USA
##OWNER=NIST Mass Spectrometry Data Center
Collection (C) 2014 copyright by the U.S. Secretary of Commerce
on behalf of the United States of America. All rights reserved.
##CAS REGISTRY NO=23947-60-6
##$NIST MASS SPEC NO=60198
##MOLFORM=C11 H19 N3 O
##MW=209
##$NIST SOURCE=MSDC
##XUNITS=M/Z
##YUNITS=RELATIVE INTENSITY
##XFACTOR=1
##YFACTOR=1
##FIRSTX=14
##LASTX=211
##FIRSTY=20
##MAXX=211
##MINX=14
##MAXY=9999
##MINY=10
##NPOINTS=109
##PEAK TABLE=(XY..XY)
14,20 15,160 16,50 26,70
27,640 28,360 29,480 30,120
31,10 32,20 38,20 39,270
40,100 41,550 42,1001 43,910
44,520 45,30 50,20 51,70
52,120 53,410 54,180 55,1201
56,110 57,70 58,40 63,10
64,10 65,80 66,110 67,280
68,290 69,550 70,130 71,800
72,40 73,10 76,40 77,70
78,30 79,70 80,110 81,110
82,110 83,80 84,60 85,10
86,10 90,10 91,30 92,30
93,120 94,90 96,3743 97,350
98,60 99,10 104,10 105,30
106,20 107,30 108,50 109,90
110,270 111,50 112,40 119,20
120,20 121,110 122,70 123,120
124,130 125,60 126,10 133,10
134,10 135,20 136,40 137,60
138,500 139,170 140,40 147,10
149,110 150,80 151,70 152,100
153,50 154,10 159,10 161,10
162,10 164,180 166,9999 167,1021
168,70 175,20 177,10 178,20
180,190 181,110 182,10 192,80
194,350 195,30 209,1541 210,200
211,10
##END=
