##TITLE=Bis(4-Chlorophenylsulfonyl)methane
##JCAMP-DX=4.24
##DATA TYPE=MASS SPECTRUM
##ORIGIN=NIST Mass Spectrometry Data Center, 1994
##OWNER=NIST Mass Spectrometry Data Center
Collection (C) 2014 copyright by the U.S. Secretary of Commerce
on behalf of the United States of America. All rights reserved.
##CAS REGISTRY NO=2394-02-7
##$NIST MASS SPEC NO=136681
##MOLFORM=C13 H10 Cl2 O4 S2
##MW=364
##$NIST SOURCE=MSDC
##XUNITS=M/Z
##YUNITS=RELATIVE INTENSITY
##XFACTOR=1
##YFACTOR=1
##FIRSTX=17
##LASTX=366
##FIRSTY=98
##MAXX=366
##MINX=17
##MAXY=9999
##MINY=78
##NPOINTS=57
##PEAK TABLE=(XY..XY)
17,98 18,489 27,139 38,190
39,353 44,218 45,403 48,113
50,1826 51,1040 61,183 62,185
63,727 64,236 69,140 73,469
74,748 75,5038 76,969 77,289
84,133 85,508 86,78 87,267
88,78 89,678 90,224 95,139
99,638 101,221 108,218 111,9999
112,800 113,3160 114,273 115,143
125,4045 126,379 127,1481 131,560
133,233 141,6075 142,566 143,2214
144,230 159,1042 161,403 173,1228
175,6590 176,577 177,2203 178,150
179,115 300,181 302,143 364,166
366,161
##END=
