##TITLE=1,8-Nonadiyne
##JCAMP-DX=4.24
##DATA TYPE=MASS SPECTRUM
##ORIGIN=NIST Mass Spectrometry Data Center, 1990.
##OWNER=NIST Mass Spectrometry Data Center
Collection (C) 2014 copyright by the U.S. Secretary of Commerce
on behalf of the United States of America. All rights reserved.
##CAS REGISTRY NO=2396-65-8
##$NIST MASS SPEC NO=114114
##MOLFORM=C9 H12
##MW=120
##$NIST SOURCE=MSDC
##XUNITS=M/Z
##YUNITS=RELATIVE INTENSITY
##XFACTOR=1
##YFACTOR=1
##FIRSTX=14
##LASTX=120
##FIRSTY=47
##MAXX=120
##MINX=14
##MAXY=9999
##MINY=31
##NPOINTS=50
##PEAK TABLE=(XY..XY)
14,47 25,38 26,255 27,1517
28,123 29,302 37,294 38,865
39,4734 40,812 41,2702 42,190
44,57 49,117 50,1191 51,2111
52,1150 53,3659 54,575 55,832
56,42 61,112 62,274 63,619
64,161 65,1521 66,1004 67,911
68,369 73,31 74,168 75,84
76,31 77,3346 78,1869 79,5960
80,865 81,901 82,60 89,101
91,9999 92,2546 93,350 103,442
105,2181 106,172 115,114 117,177
119,227 120,42
##END=
