##TITLE=Diazene, (4-methoxyphenyl)phenyl-
##JCAMP-DX=4.24
##DATA TYPE=MASS SPECTRUM
##ORIGIN=Japan AIST/NIMC Database- Spectrum MS-NW-5814
##OWNER=NIST Mass Spectrometry Data Center
Collection (C) 2014 copyright by the U.S. Secretary of Commerce
on behalf of the United States of America. All rights reserved.
##CAS REGISTRY NO=2396-60-3
##$NIST MASS SPEC NO=232688
##MOLFORM=C13 H12 N2 O
##MW=212
##$NIST SOURCE=MSDC
##XUNITS=M/Z
##YUNITS=RELATIVE INTENSITY
##XFACTOR=1
##YFACTOR=1
##FIRSTX=14
##LASTX=215
##FIRSTY=20
##MAXX=215
##MINX=14
##MAXY=9999
##MINY=10
##NPOINTS=105
##PEAK TABLE=(XY..XY)
14,20 15,90 26,50 27,179
28,10 29,40 31,10 32,10
37,70 38,299 39,359 40,30
41,40 42,10 43,10 44,70
49,20 50,429 51,1339 52,279
53,119 54,20 55,30 57,10
58,10 61,50 62,129 63,659
64,1309 65,219 66,40 67,10
73,20 74,90 75,109 76,279
77,8759 78,709 79,309 80,119
81,10 85,10 86,30 87,10
88,20 89,40 90,30 91,119
92,2569 93,229 94,30 100,10
101,10 102,30 103,10 104,20
105,459 106,129 107,9999 108,799
109,60 114,20 115,509 116,80
117,10 120,20 121,30 123,10
126,20 127,20 128,10 130,10
135,3729 136,349 137,30 139,99
140,40 141,459 142,70 145,10
150,10 151,30 152,80 153,40
154,20 165,10 167,10 168,60
169,50 170,10 180,10 181,10
182,10 184,20 194,10 195,10
196,40 197,60 198,10 210,10
211,10 212,6109 213,1019 214,109
215,10
##END=
