##TITLE=1,6-Heptadiyne
##JCAMP-DX=4.24
##DATA TYPE=MASS SPECTRUM
##ORIGIN=NIST Mass Spectrometry Data Center, 1990.
##OWNER=NIST Mass Spectrometry Data Center
Collection (C) 2014 copyright by the U.S. Secretary of Commerce
on behalf of the United States of America. All rights reserved.
##CAS REGISTRY NO=2396-63-6
##$NIST MASS SPEC NO=118158
##MOLFORM=C7 H8
##MW=92
##$NIST SOURCE=MSDC
##XUNITS=M/Z
##YUNITS=RELATIVE INTENSITY
##XFACTOR=1
##YFACTOR=1
##FIRSTX=12
##LASTX=93
##FIRSTY=21
##MAXX=93
##MINX=12
##MAXY=9999
##MINY=16
##NPOINTS=50
##PEAK TABLE=(XY..XY)
12,21 13,31 14,18 15,36
24,27 25,103 26,570 27,3611
28,135 36,77 37,644 38,1252
39,3496 40,1157 41,221 42,30
43,55 44,16 45,23 48,49
49,278 50,1492 51,2112 52,1314
53,1795 54,74 60,49 61,288
62,533 63,937 64,418 65,1645
66,373 67,22 73,30 74,70
75,40 76,27 77,127 78,17
84,38 85,77 86,108 87,46
88,28 89,243 90,17 91,9999
92,752 93,33
##END=
