##TITLE=Oxiniacic acid
##JCAMP-DX=4.24
##DATA TYPE=MASS SPECTRUM
##ORIGIN=NIST Mass Spectrometry Data Center, 1998.
##OWNER=NIST Mass Spectrometry Data Center
Collection (C) 2014 copyright by the U.S. Secretary of Commerce
on behalf of the United States of America. All rights reserved.
##CAS REGISTRY NO=2398-81-4
##$NIST MASS SPEC NO=292105
##MOLFORM=C6 H5 N O3
##MW=139
##$NIST SOURCE=MSDC
##XUNITS=M/Z
##YUNITS=RELATIVE INTENSITY
##XFACTOR=1
##YFACTOR=1
##FIRSTX=25
##LASTX=142
##FIRSTY=60
##MAXX=142
##MINX=25
##MAXY=9999
##MINY=10
##NPOINTS=74
##PEAK TABLE=(XY..XY)
25,60 26,200 27,290 28,390
29,270 30,250 36,60 37,470
38,1400 39,3690 40,510 41,390
42,320 43,80 44,120 45,860
46,30 48,50 49,490 50,1790
51,2460 52,980 53,1810 54,580
55,840 56,190 57,30 60,30
61,440 62,870 63,2250 64,680
65,860 66,1740 67,620 68,300
69,140 70,60 71,50 72,20
74,50 75,240 76,280 77,780
78,1560 79,240 80,30 81,260
82,190 83,90 84,360 85,60
91,40 92,220 93,770 94,1100
95,1400 96,120 105,1330 106,680
109,30 110,60 111,50 112,70
120,110 121,40 122,340 123,1760
124,110 134,30 139,9999 140,770
141,100 142,10
##END=
