##TITLE=Benzene, (1-octyldodecyl)-
##JCAMP-DX=4.24
##DATA TYPE=MASS SPECTRUM
##ORIGIN=CONTINENTAL OIL CO., PONCA CITY, OKLA, USA
##OWNER=NIST Mass Spectrometry Data Center
Collection (C) 2014 copyright by the U.S. Secretary of Commerce
on behalf of the United States of America. All rights reserved.
##CAS REGISTRY NO=2398-65-4
##$NIST MASS SPEC NO=34750
##MOLFORM=C26 H46
##MW=358
##$NIST SOURCE=MSDC
##XUNITS=M/Z
##YUNITS=RELATIVE INTENSITY
##XFACTOR=1
##YFACTOR=1
##FIRSTX=26
##LASTX=360
##FIRSTY=19
##MAXX=360
##MINX=26
##MAXY=9999
##MINY=2
##NPOINTS=157
##PEAK TABLE=(XY..XY)
26,19 27,323 28,78 29,734
30,17 36,4 37,3 38,6
39,121 40,27 41,923 42,151
43,1352 44,52 45,2 50,6
51,18 52,8 53,50 54,41
55,546 56,101 57,727 58,34
62,2 63,7 64,4 65,40
66,8 67,71 68,25 69,281
70,48 71,365 72,23 73,6
74,8 75,15 76,5 77,139
78,160 79,111 80,17 81,65
82,24 83,185 84,28 85,217
86,17 87,11 88,28 89,44
90,118 91,9999 92,931 93,52
94,6 95,26 96,9 97,90
98,13 99,59 100,8 101,13
102,34 103,168 104,1128 105,1505
106,142 107,16 108,10 109,9
110,4 111,47 112,8 113,17
114,11 115,168 116,86 117,761
118,274 119,637 120,67 121,4
123,3 124,2 125,12 126,7
127,21 128,45 129,63 130,39
131,161 132,42 133,463 134,54
135,4 139,3 141,29 142,8
143,14 144,8 145,40 146,21
147,376 148,49 149,4 151,2
153,4 154,3 155,4 157,4
158,4 159,16 160,13 161,228
162,31 163,3 167,5 168,8
169,9 173,7 174,10 175,126
176,21 177,2 187,4 188,8
189,66 190,12 201,4 202,136
203,2092 204,448 205,44 206,3
207,5 216,6 217,8 218,6
231,6 243,10 244,100 245,1411
246,357 247,42 248,3 259,4
260,3 273,12 274,4 287,4
301,3 356,8 358,698 359,205
360,28
##END=
