##TITLE=Germacrene D
##JCAMP-DX=4.24
##DATA TYPE=MASS SPECTRUM
##ORIGIN=P.A. Leclercq, Lab. Instrum. Anal., Tech. Univ. Eindhoven, Netherlands
##OWNER=NIST Mass Spectrometry Data Center
Collection (C) 2014 copyright by the U.S. Secretary of Commerce
on behalf of the United States of America. All rights reserved.
##CAS REGISTRY NO=23986-74-5
##$NIST MASS SPEC NO=221563
##MOLFORM=C15 H24
##MW=204
##$NIST SOURCE=MSDC
##XUNITS=M/Z
##YUNITS=RELATIVE INTENSITY
##XFACTOR=1
##YFACTOR=1
##FIRSTX=15
##LASTX=205
##FIRSTY=369
##MAXX=205
##MINX=15
##MAXY=9999
##MINY=249
##NPOINTS=57
##PEAK TABLE=(XY..XY)
15,369 27,3159 28,249 29,1659
39,2979 40,869 41,6190 42,499
43,1869 51,739 52,569 53,1659
54,289 55,2409 56,309 57,379
63,399 65,1579 66,379 67,2129
68,339 69,1359 77,3469 78,1219
79,4159 80,1009 81,4149 82,669
83,259 91,6850 92,1419 93,3599
94,659 95,959 103,369 105,7750
106,1399 107,1849 108,389 109,309
115,659 116,339 117,1049 119,6040
120,2709 121,1029 128,629 129,369
131,719 133,2509 134,559 145,359
147,769 161,9999 162,1219 204,1709
205,281
##END=
