##TITLE=Benzene, (1-methylnonadecyl)-
##JCAMP-DX=4.24
##DATA TYPE=MASS SPECTRUM
##ORIGIN=CONTINENTAL OIL CO., PONCA CITY, OKLA, USA
##OWNER=NIST Mass Spectrometry Data Center
Collection (C) 2014 copyright by the U.S. Secretary of Commerce
on behalf of the United States of America. All rights reserved.
##CAS REGISTRY NO=2398-66-5
##$NIST MASS SPEC NO=34746
##MOLFORM=C26 H46
##MW=358
##$NIST SOURCE=MSDC
##XUNITS=M/Z
##YUNITS=RELATIVE INTENSITY
##XFACTOR=1
##YFACTOR=1
##FIRSTX=27
##LASTX=360
##FIRSTY=133
##MAXX=360
##MINX=27
##MAXY=9999
##MINY=1
##NPOINTS=105
##PEAK TABLE=(XY..XY)
27,133 28,52 29,276 30,7
39,60 40,14 41,471 42,98
43,739 44,27 50,4 51,22
52,7 53,28 54,31 55,317
56,106 57,336 58,17 63,6
64,2 65,18 66,5 67,35
68,21 69,142 70,57 71,183
72,12 74,4 75,7 76,10
77,220 78,106 79,233 80,20
81,27 82,18 83,109 84,33
85,79 86,7 89,13 90,10
91,964 92,121 93,12 94,3
95,12 96,8 97,51 98,13
99,10 100,1 101,10 102,21
103,154 104,454 105,9999 106,1371
107,84 108,6 109,5 110,4
111,16 112,5 113,6 114,1
115,37 116,19 117,90 118,111
119,95 120,25 121,4 125,5
127,6 128,10 129,12 130,7
131,52 132,14 133,25 134,5
141,4 143,4 144,1 145,10
146,4 147,33 148,6 160,11
167,3 169,4 174,5 188,4
301,7 315,4 316,5 343,33
344,12 356,9 358,773 359,222
360,32
##END=
