##TITLE=Benzene, (1-hexylheptyl)-
##JCAMP-DX=4.24
##DATA TYPE=MASS SPECTRUM
##ORIGIN=D.HENNEBERG, MAX-PLANCK INSTITUTE, MULHEIM, WEST GERMANY
##OWNER=NIST Mass Spectrometry Data Center
Collection (C) 2014 copyright by the U.S. Secretary of Commerce
on behalf of the United States of America. All rights reserved.
##CAS REGISTRY NO=2400-01-3
##$NIST MASS SPEC NO=61131
##MOLFORM=C19 H32
##MW=260
##$NIST SOURCE=MSDC
##XUNITS=M/Z
##YUNITS=RELATIVE INTENSITY
##XFACTOR=1
##YFACTOR=1
##FIRSTX=22
##LASTX=261
##FIRSTY=1
##MAXX=261
##MINX=22
##MAXY=9999
##MINY=1
##NPOINTS=105
##PEAK TABLE=(XY..XY)
22,1 27,197 29,458 37,18
38,21 39,131 41,573 42,62
43,607 47,8 48,1 51,59
53,19 54,41 55,566 56,60
57,129 58,34 62,42 63,49
64,29 65,126 66,29 67,22
68,11 69,118 70,1 71,164
74,1 75,19 76,27 77,160
78,101 79,190 81,67 82,29
83,85 84,19 85,41 86,27
87,24 88,3 89,18 90,39
91,9999 92,906 93,75 97,50
100,26 101,29 102,50 103,165
104,607 105,1969 106,149 107,13
111,16 115,111 116,19 117,149
118,67 119,1006 120,93 121,19
129,6 132,49 133,382 134,45
135,3 137,13 139,4 142,21
145,8 146,24 147,29 148,42
150,6 161,152 164,16 167,24
171,6 172,14 173,18 174,75
175,1693 176,266 177,16 180,16
189,131 190,62 191,19 194,19
203,6 209,52 214,6 217,14
224,9 235,13 246,1 248,8
251,11 257,8 259,11 260,321
261,77
##END=
