##TITLE=Benzene, (1-propylheptadecyl)-
##JCAMP-DX=4.24
##DATA TYPE=MASS SPECTRUM
##ORIGIN=CONTINENTAL OIL CO., PONCA CITY, OKLA, USA
##OWNER=NIST Mass Spectrometry Data Center
Collection (C) 2014 copyright by the U.S. Secretary of Commerce
on behalf of the United States of America. All rights reserved.
##CAS REGISTRY NO=2400-03-5
##$NIST MASS SPEC NO=27549
##MOLFORM=C26 H46
##MW=358
##$NIST SOURCE=MSDC
##XUNITS=M/Z
##YUNITS=RELATIVE INTENSITY
##XFACTOR=1
##YFACTOR=1
##FIRSTX=25
##LASTX=360
##FIRSTY=4
##MAXX=360
##MINX=25
##MAXY=9999
##MINY=1
##NPOINTS=172
##PEAK TABLE=(XY..XY)
25,4 26,15 27,281 28,68
29,562 30,15 36,5 37,4
38,7 39,118 40,27 41,866
42,174 43,1363 44,56 45,2
50,9 51,27 52,11 53,52
54,49 55,626 56,145 57,726
58,35 62,11 63,15 64,5
65,55 66,10 67,70 68,30
69,262 70,71 71,457 72,28
73,5 74,8 75,12 76,19
77,166 78,154 79,107 80,16
81,60 82,26 83,215 84,42
85,256 86,20 87,7 88,35
89,55 90,133 91,9999 92,917
93,48 94,7 95,28 96,11
97,113 98,18 99,50 100,7
101,11 102,33 103,147 104,705
105,737 106,75 107,8 108,5
109,11 110,6 111,40 112,10
113,36 114,12 115,139 116,67
117,484 118,157 119,262 120,31
121,5 122,5 123,5 124,4
125,14 126,7 127,35 128,39
129,51 130,30 131,197 132,228
133,4459 134,670 135,47 136,5
139,5 140,4 141,23 142,8
143,15 144,7 145,35 146,31
147,147 148,24 149,4 150,2
152,3 153,5 154,4 155,15
156,4 157,7 158,5 159,17
160,9 161,109 162,16 165,4
167,5 168,4 169,15 170,6
171,6 173,7 175,86 176,14
181,3 183,7 184,1 187,4
189,63 190,12 191,2 197,5
198,2 201,2 203,50 204,13
211,15 212,5 217,41 218,8
231,33 232,7 244,6 245,25
246,6 258,5 259,17 260,5
272,4 273,13 274,4 287,6
288,5 313,15 314,60 315,1031
316,300 317,43 329,6 354,4
356,13 358,663 359,193 360,28
##END=
