##TITLE=Disiloxane, 1,3-dichloro-1,1,3,3-tetramethyl-
##JCAMP-DX=4.24
##DATA TYPE=MASS SPECTRUM
##ORIGIN=Japan AIST/NIMC Database- Spectrum MS-IW-7543
##OWNER=NIST Mass Spectrometry Data Center
Collection (C) 2014 copyright by the U.S. Secretary of Commerce
on behalf of the United States of America. All rights reserved.
##CAS REGISTRY NO=2401-73-2
##$NIST MASS SPEC NO=237654
##MOLFORM=C4 H12 Cl2 O Si2
##MW=202
##$NIST SOURCE=MSDC
##XUNITS=M/Z
##YUNITS=RELATIVE INTENSITY
##XFACTOR=1
##YFACTOR=1
##FIRSTX=15
##LASTX=193
##FIRSTY=20
##MAXX=193
##MINX=15
##MAXY=9999
##MINY=10
##NPOINTS=119
##PEAK TABLE=(XY..XY)
15,20 27,20 28,20 29,20
36,50 38,10 42,20 43,90
44,20 45,119 47,20 51,10
52,10 53,10 55,10 57,20
58,10 59,40 61,50 62,50
63,249 64,20 65,259 66,20
67,70 69,10 71,10 72,20
73,419 74,30 75,40 76,329
77,169 78,30 79,159 80,20
81,50 85,30 86,969 87,719
88,149 89,10 91,10 92,80
93,979 94,99 95,389 96,30
97,20 98,10 99,60 100,10
101,40 103,10 105,10 107,209
108,20 109,90 110,10 111,10
112,60 113,359 114,60 115,279
116,20 117,50 121,30 122,30
123,60 124,20 125,40 127,50
129,30 131,20 133,10 135,99
136,30 137,239 138,30 139,90
140,10 141,10 142,40 143,50
144,30 145,40 146,10 147,10
151,469 152,70 153,189 154,20
155,20 156,40 157,209 158,50
159,209 160,30 161,80 163,10
166,30 167,2059 168,309 169,829
170,109 171,319 172,40 173,249
174,30 175,70 176,10 177,10
187,9999 188,1359 189,7149 190,929
191,1529 192,179 193,80
##END=
