##TITLE=Triazophos
##JCAMP-DX=4.24
##DATA TYPE=MASS SPECTRUM
##ORIGIN=J. SHAW, BORRISTON RESEARCH, ROCKVILLE, MD, USA
##OWNER=NIST Mass Spectrometry Data Center
Collection (C) 2014 copyright by the U.S. Secretary of Commerce
on behalf of the United States of America. All rights reserved.
##CAS REGISTRY NO=24017-47-8
##$NIST MASS SPEC NO=60259
##MOLFORM=C12 H16 N3 O3 P S
##MW=313
##$NIST SOURCE=MSDC
##XUNITS=M/Z
##YUNITS=RELATIVE INTENSITY
##XFACTOR=1
##YFACTOR=1
##FIRSTX=33
##LASTX=315
##FIRSTY=80
##MAXX=315
##MINX=33
##MAXY=9999
##MINY=10
##NPOINTS=174
##PEAK TABLE=(XY..XY)
33,80 34,260 35,40 36,10
37,70 38,260 39,950 40,2262
41,700 42,180 43,1011 44,510
45,800 46,120 47,800 48,150
49,40 50,630 51,3523 52,410
53,180 54,60 55,500 56,310
57,490 58,70 59,150 60,240
61,120 62,130 63,820 64,1061
65,3763 66,110 67,140 68,70
69,490 70,100 71,240 72,30
73,280 74,350 75,140 76,390
77,8748 78,1071 79,340 80,350
81,830 82,110 83,170 84,50
85,130 86,20 87,60 88,20
89,50 90,380 91,4824 92,1021
93,1161 94,80 95,170 96,310
97,7487 98,120 99,400 100,20
101,10 102,30 103,60 104,1211
105,1551 106,1101 107,180 108,80
109,530 110,70 111,120 113,170
114,100 115,80 116,30 117,200
118,470 119,1241 120,270 121,490
122,160 123,170 124,150 125,1341
126,70 127,120 128,10 129,10
131,20 132,120 133,130 134,2552
135,260 136,170 137,120 138,110
139,30 140,10 141,20 142,20
143,190 144,130 145,70 146,160
147,50 149,260 150,230 151,50
153,290 154,70 155,30 161,9999
162,6556 163,600 164,170 165,50
166,20 169,20 170,90 171,520
172,3483 173,430 174,60 175,20
176,70 177,2012 178,220 179,110
180,20 181,40 182,10 188,280
189,50 190,40 192,50 193,10
197,20 199,10 205,150 206,30
208,1321 209,110 210,10 214,10
223,10 224,140 225,30 236,50
240,210 241,20 242,10 252,70
253,10 257,1281 258,100 259,50
268,40 269,60 270,10 280,60
285,710 286,80 287,30 313,360
314,110 315,20
##END=
