##TITLE=Pyridine, 3-bromo-, 1-oxide
##JCAMP-DX=4.24
##DATA TYPE=MASS SPECTRUM
##ORIGIN=A.A.Kutin, Moscow, Russia
##OWNER=NIST Mass Spectrometry Data Center
Collection (C) 2014 copyright by the U.S. Secretary of Commerce
on behalf of the United States of America. All rights reserved.
##CAS REGISTRY NO=2402-97-3
##$NIST MASS SPEC NO=300511
##MOLFORM=C5 H4 Br N O
##MW=173
##$NIST SOURCE=MSDC
##XUNITS=M/Z
##YUNITS=RELATIVE INTENSITY
##XFACTOR=1
##YFACTOR=1
##FIRSTX=33
##LASTX=177
##FIRSTY=33
##MAXX=177
##MINX=33
##MAXY=9999
##MINY=21
##NPOINTS=79
##PEAK TABLE=(XY..XY)
33,33 34,100 36,148 37,678
38,3523 39,9999 40,2298 41,1205
42,1273 43,631 44,1182 45,185
46,184 47,43 49,690 50,2244
51,2540 52,982 53,1250 54,168
55,471 56,173 57,290 58,21
59,719 60,543 62,1297 63,2852
64,1085 66,5169 67,932 68,229
69,312 70,167 71,170 72,373
73,310 74,79 75,262 76,634
77,280 78,2233 79,351 81,428
82,234 83,196 84,92 85,117
86,276 87,261 91,93 93,2884
94,886 95,174 96,96 117,960
118,455 119,984 120,452 121,67
129,616 131,319 132,24 145,332
146,886 147,146 148,812 149,136
154,23 156,161 157,946 158,203
159,973 160,43 171,45 173,8090
175,7749 176,371 177,21
##END=
