##TITLE=Cyclopropane, 1,2-dimethyl-, trans-
##JCAMP-DX=4.24
##DATA TYPE=MASS SPECTRUM
##OWNER=NIST Mass Spectrometry Data Center
Collection (C) 2014 copyright by the U.S. Secretary of Commerce
on behalf of the United States of America. All rights reserved.
##CAS REGISTRY NO=2402-06-4
##$NIST MASS SPEC NO=249
##MOLFORM=C5 H10
##MW=70
##$NIST SOURCE=MSDC
##XUNITS=M/Z
##YUNITS=RELATIVE INTENSITY
##XFACTOR=1
##YFACTOR=1
##FIRSTX=12
##LASTX=72
##FIRSTY=30
##MAXX=72
##MINX=12
##MAXY=9999
##MINY=10
##NPOINTS=48
##PEAK TABLE=(XY..XY)
12,30 13,50 14,140 15,631
16,20 24,10 25,60 26,711
27,3253 28,581 29,3053 30,70
31,110 32,60 33,20 34,10
36,20 37,220 38,470 39,3803
40,661 41,4154 42,4314 43,270
44,10 48,10 49,50 50,280
51,320 52,100 53,1031 54,310
55,9999 56,450 57,10 60,10
61,40 62,60 63,70 64,10
65,60 66,20 67,160 68,40
69,220 70,5385 71,300 72,10
##END=
