##TITLE=Phosphonamidic acid, N,N-diethyl-P-methyl-, ethyl ester
##JCAMP-DX=4.24
##DATA TYPE=MASS SPECTRUM
##ORIGIN=Dennis Rohrbaugh, CBDCOM/ERDEC, Edgewood, MD
##OWNER=NIST Mass Spectrometry Data Center
Collection (C) 2014 copyright by the U.S. Secretary of Commerce
on behalf of the United States of America. All rights reserved.
##CAS REGISTRY NO=2404-81-1
##$NIST MASS SPEC NO=226610
##MOLFORM=C7 H18 N O2 P
##MW=179
##$NIST SOURCE=MSDC
##XUNITS=M/Z
##YUNITS=RELATIVE INTENSITY
##XFACTOR=1
##YFACTOR=1
##FIRSTX=30
##LASTX=180
##FIRSTY=2817
##MAXX=180
##MINX=30
##MAXY=9999
##MINY=101
##NPOINTS=38
##PEAK TABLE=(XY..XY)
30,2817 42,2810 44,4995 45,281
47,1654 48,163 49,429 56,1725
58,9319 59,359 63,593 65,733
70,452 72,9999 73,515 78,483
79,6697 80,889 81,483 86,202
90,398 92,405 93,140 104,421
106,273 107,663 108,1865 118,101
120,1803 122,1178 134,1030 136,7805
137,351 150,694 164,5081 165,312
179,1358 180,101
##END=
