##TITLE=2,3'-Bithiophene
##JCAMP-DX=4.24
##DATA TYPE=MASS SPECTRUM
##OWNER=NIST Mass Spectrometry Data Center
Collection (C) 2014 copyright by the U.S. Secretary of Commerce
on behalf of the United States of America. All rights reserved.
##CAS REGISTRY NO=2404-89-9
##$NIST MASS SPEC NO=6333
##MOLFORM=C8 H6 S2
##MW=166
##$NIST SOURCE=MSDC
##XUNITS=M/Z
##YUNITS=RELATIVE INTENSITY
##XFACTOR=1
##YFACTOR=1
##FIRSTX=35
##LASTX=171
##FIRSTY=10
##MAXX=171
##MINX=35
##MAXY=9999
##MINY=10
##NPOINTS=128
##PEAK TABLE=(XY..XY)
35,10 36,40 37,350 38,470
39,821 40,40 41,20 42,10
43,30 44,120 45,2863 46,90
47,150 48,20 49,110 50,420
51,460 52,50 53,20 54,10
55,10 56,50 57,410 58,831
59,70 60,70 61,240 62,390
63,711 64,100 65,50 66,10
67,10 68,90 69,1291 70,240
71,240 72,30 73,70 74,240
75,170 76,100 77,480 78,90
79,10 80,30 81,270 82,470
83,611 84,100 85,60 86,90
87,110 88,40 89,280 90,280
91,30 92,50 93,390 94,130
95,370 96,250 97,100 98,40
99,20 100,50 101,50 102,80
103,10 104,10 105,40 106,60
107,30 108,671 109,110 110,40
111,10 112,20 113,10 114,10
115,20 116,20 117,40 118,10
119,50 120,150 121,2923 122,550
123,170 124,30 125,10 126,10
127,490 128,40 129,50 130,10
131,10 132,70 133,130 134,801
135,90 136,40 137,10 138,10
139,40 140,200 141,20 142,20
143,10 144,10 145,10 146,10
147,10 148,10 149,10 150,10
151,20 152,10 153,10 163,10
164,30 165,581 166,9999 167,1111
168,961 169,90 170,30 171,10
##END=
