##TITLE=Oxirane, octyl-
##JCAMP-DX=4.24
##DATA TYPE=MASS SPECTRUM
##ORIGIN=Japan AIST/NIMC Database- Spectrum MS-IW-2348
##OWNER=NIST Mass Spectrometry Data Center
Collection (C) 2014 copyright by the U.S. Secretary of Commerce
on behalf of the United States of America. All rights reserved.
##CAS REGISTRY NO=2404-44-6
##$NIST MASS SPEC NO=238275
##MOLFORM=C10 H20 O
##MW=156
##$NIST SOURCE=MSDC
##XUNITS=M/Z
##YUNITS=RELATIVE INTENSITY
##XFACTOR=1
##YFACTOR=1
##FIRSTX=14
##LASTX=155
##FIRSTY=20
##MAXX=155
##MINX=14
##MAXY=9999
##MINY=10
##NPOINTS=88
##PEAK TABLE=(XY..XY)
14,20 15,139 26,90 27,1839
28,579 29,3229 30,109 31,849
32,30 33,10 37,10 38,40
39,1629 40,339 41,7099 42,3169
43,6419 44,569 45,959 46,20
50,30 51,80 52,50 53,589
54,2229 55,7919 56,6349 57,4099
58,5499 59,909 60,50 61,10
63,20 65,90 66,279 67,3179
68,4549 69,5129 70,3459 71,9999
72,949 73,129 74,10 77,60
78,10 79,199 80,109 81,3189
82,3669 83,2249 84,859 85,1599
86,159 87,60 88,30 89,10
91,40 92,10 93,50 94,90
95,2829 96,1929 97,929 98,819
99,439 100,60 101,40 107,10
108,10 109,539 110,279 111,60
112,90 113,809 114,70 115,20
116,10 117,20 123,40 124,129
125,30 126,40 127,279 128,50
129,10 138,20 141,10 155,20
##END=
