##TITLE=Spiro[4.5]dec-7-ene, 1,8-dimethyl-4-(1-methylethenyl)-, [1S-(1.alpha.,4.beta.,5.alpha.)]-
##JCAMP-DX=4.24
##DATA TYPE=MASS SPECTRUM
##ORIGIN=TAT 1095 0
##OWNER=NIST Mass Spectrometry Data Center
Collection (C) 2014 copyright by the U.S. Secretary of Commerce
on behalf of the United States of America. All rights reserved.
##CAS REGISTRY NO=24048-44-0
##$NIST MASS SPEC NO=9228
##MOLFORM=C15 H24
##MW=204
##$NIST SOURCE=MSDC
##XUNITS=M/Z
##YUNITS=RELATIVE INTENSITY
##XFACTOR=1
##YFACTOR=1
##FIRSTX=41
##LASTX=205
##FIRSTY=3803
##MAXX=205
##MINX=41
##MAXY=9999
##MINY=500
##NPOINTS=57
##PEAK TABLE=(XY..XY)
41,3803 42,601 43,1902 44,500
51,701 52,601 53,2102 54,500
55,3203 56,1401 57,801 65,1101
66,601 67,2402 68,2402 69,2102
70,701 77,2702 78,801 79,4104
80,1201 81,2702 82,1301 83,901
91,3603 92,2002 93,7106 94,2202
95,1501 103,500 105,6806 106,1601
107,2903 108,2302 109,2402 115,601
117,601 119,9999 120,1802 121,8107
122,1702 123,701 131,701 133,1802
134,1802 135,1101 136,601 137,801
146,901 147,4604 148,1501 149,701
161,1902 162,701 189,1101 204,1802
205,500
##END=
