##TITLE=Silacyclopentane, 1,1-dichloro-
##JCAMP-DX=4.24
##DATA TYPE=MASS SPECTRUM
##ORIGIN=RADIAN CORP
##OWNER=NIST Mass Spectrometry Data Center
Collection (C) 2014 copyright by the U.S. Secretary of Commerce
on behalf of the United States of America. All rights reserved.
##CAS REGISTRY NO=2406-33-9
##$NIST MASS SPEC NO=73252
##MOLFORM=C4 H8 Cl2 Si
##MW=154
##$NIST SOURCE=MSDC
##XUNITS=M/Z
##YUNITS=RELATIVE INTENSITY
##XFACTOR=1
##YFACTOR=1
##FIRSTX=26
##LASTX=158
##FIRSTY=270
##MAXX=158
##MINX=26
##MAXY=9999
##MINY=10
##NPOINTS=52
##PEAK TABLE=(XY..XY)
26,270 27,780 28,410 29,200
38,60 39,680 40,10 41,210
42,90 50,70 51,100 52,30
53,450 54,240 55,530 56,200
63,2660 64,250 65,1090 66,100
67,70 77,110 90,180 91,100
92,20 98,3600 99,1090 100,2590
101,740 102,490 103,130 112,740
113,1910 114,610 115,1280 116,180
117,410 118,180 119,170 123,20
125,930 126,9999 127,1310 128,6940
129,620 130,1310 131,20 154,1360
155,120 156,940 157,50 158,160
##END=
