##TITLE=Acetic acid, isothiocyanato-, ethyl ester
##JCAMP-DX=4.24
##DATA TYPE=MASS SPECTRUM
##ORIGIN=NIST Mass Spectrometry Data Center, 1994
##OWNER=NIST Mass Spectrometry Data Center
Collection (C) 2014 copyright by the U.S. Secretary of Commerce
on behalf of the United States of America. All rights reserved.
##CAS REGISTRY NO=24066-82-8
##$NIST MASS SPEC NO=134713
##MOLFORM=C5 H7 N O2 S
##MW=145
##$NIST SOURCE=MSDC
##XUNITS=M/Z
##YUNITS=RELATIVE INTENSITY
##XFACTOR=1
##YFACTOR=1
##FIRSTX=4
##LASTX=147
##FIRSTY=7
##MAXX=147
##MINX=4
##MAXY=9999
##MINY=7
##NPOINTS=48
##PEAK TABLE=(XY..XY)
4,7 13,29 14,170 15,285
16,23 18,25 25,28 26,354
27,1947 28,990 29,6378 30,219
31,271 32,232 33,25 34,22
36,35 38,63 39,125 40,338
41,260 42,1132 43,724 44,703
45,1890 46,333 47,103 48,17
54,23 56,21 57,19 58,140
59,227 60,121 61,23 68,69
70,320 72,9999 73,2033 74,513
75,90 99,50 100,21 102,79
117,36 145,4497 146,313 147,214
##END=
