##TITLE=Cyclopentanol, 2-methyl-
##JCAMP-DX=4.24
##DATA TYPE=MASS SPECTRUM
##ORIGIN=NIST Mass Spectrometry Data Center, 1990.
##OWNER=NIST Mass Spectrometry Data Center
Collection (C) 2014 copyright by the U.S. Secretary of Commerce
on behalf of the United States of America. All rights reserved.
##CAS REGISTRY NO=24070-77-7
##$NIST MASS SPEC NO=114789
##MOLFORM=C6 H12 O
##MW=100
##$NIST SOURCE=MSDC
##XUNITS=M/Z
##YUNITS=RELATIVE INTENSITY
##XFACTOR=1
##YFACTOR=1
##FIRSTX=14
##LASTX=100
##FIRSTY=143
##MAXX=100
##MINX=14
##MAXY=9999
##MINY=67
##NPOINTS=40
##PEAK TABLE=(XY..XY)
14,143 26,288 27,1368 28,565
29,1602 30,195 31,551 32,67
38,333 39,2102 40,600 41,3100
42,793 43,2343 44,2202 45,680
50,260 51,388 52,184 53,780
54,755 55,1533 56,2641 57,9999
58,1757 59,168 65,246 67,5646
68,336 69,272 70,168 71,3437
72,1207 77,153 79,282 81,608
82,4270 83,392 85,211 100,560
##END=
