##TITLE=p-Dodecyloxybenzaldehyde
##JCAMP-DX=4.24
##DATA TYPE=MASS SPECTRUM
##ORIGIN=NIST Mass Spectrometry Data Center, 1994
##OWNER=NIST Mass Spectrometry Data Center
Collection (C) 2014 copyright by the U.S. Secretary of Commerce
on behalf of the United States of America. All rights reserved.
##CAS REGISTRY NO=24083-19-0
##$NIST MASS SPEC NO=135703
##MOLFORM=C19 H30 O2
##MW=290
##$NIST SOURCE=MSDC
##XUNITS=M/Z
##YUNITS=RELATIVE INTENSITY
##XFACTOR=1
##YFACTOR=1
##FIRSTX=18
##LASTX=292
##FIRSTY=43
##MAXX=292
##MINX=18
##MAXY=9999
##MINY=9
##NPOINTS=92
##PEAK TABLE=(XY..XY)
18,43 27,1348 28,434 29,3622
30,109 32,9 37,23 38,135
39,1747 40,9 41,7825 42,1419
43,7751 44,256 50,180 51,556
52,60 53,435 54,383 55,4825
56,1664 57,5928 58,259 62,52
63,233 64,186 65,1084 66,230
67,598 68,321 69,2181 70,1258
71,2444 72,138 75,66 76,187
77,1262 78,155 79,497 80,57
81,223 82,309 83,1169 84,656
85,1108 86,88 91,107 92,156
93,468 94,541 95,672 96,205
97,778 98,337 99,170 103,30
105,678 106,148 107,223 108,162
109,92 110,97 111,386 112,166
113,86 119,46 121,4696 122,6174
123,9999 124,1004 125,253 126,79
133,28 135,331 136,64 139,39
140,112 147,87 148,37 149,55
161,26 163,154 164,73 165,37
168,63 175,26 177,39 261,30
262,31 290,2334 291,509 292,70
##END=
