##TITLE=Propanoic acid, 2-propenyl ester
##JCAMP-DX=4.24
##DATA TYPE=MASS SPECTRUM
##ORIGIN=NIST Mass Spectrometry Data Center, 1990.
##OWNER=NIST Mass Spectrometry Data Center
Collection (C) 2014 copyright by the U.S. Secretary of Commerce
on behalf of the United States of America. All rights reserved.
##CAS REGISTRY NO=2408-20-0
##$NIST MASS SPEC NO=118218
##MOLFORM=C6 H10 O2
##MW=114
##$NIST SOURCE=MSDC
##XUNITS=M/Z
##YUNITS=RELATIVE INTENSITY
##XFACTOR=1
##YFACTOR=1
##FIRSTX=13
##LASTX=114
##FIRSTY=39
##MAXX=114
##MINX=13
##MAXY=9999
##MINY=1
##NPOINTS=38
##PEAK TABLE=(XY..XY)
13,39 14,82 15,239 16,3
18,1 24,15 25,79 26,602
27,1946 28,842 29,3931 30,113
31,234 37,101 38,329 39,1818
40,380 41,3590 42,255 43,90
44,24 45,58 53,50 54,34
55,306 56,24 57,9999 58,360
59,37 60,30 69,27 72,28
73,20 74,27 75,176 85,84
86,48 114,12
##END=
