##TITLE=Benzaldehyde, 4-(octyloxy)-
##JCAMP-DX=4.24
##DATA TYPE=MASS SPECTRUM
##ORIGIN=Japan AIST/NIMC Database- Spectrum MS-NW-5230
##OWNER=NIST Mass Spectrometry Data Center
Collection (C) 2014 copyright by the U.S. Secretary of Commerce
on behalf of the United States of America. All rights reserved.
##CAS REGISTRY NO=24083-13-4
##$NIST MASS SPEC NO=232886
##MOLFORM=C15 H22 O2
##MW=234
##$NIST SOURCE=MSDC
##XUNITS=M/Z
##YUNITS=RELATIVE INTENSITY
##XFACTOR=1
##YFACTOR=1
##FIRSTX=15
##LASTX=237
##FIRSTY=50
##MAXX=237
##MINX=15
##MAXY=9999
##MINY=10
##NPOINTS=105
##PEAK TABLE=(XY..XY)
15,50 17,10 18,60 26,70
27,1439 28,199 29,2899 30,60
31,10 32,10 37,30 38,139
39,1529 40,219 41,5509 42,1159
43,7679 44,279 45,10 50,239
51,739 52,80 53,289 54,179
55,3189 56,2049 57,7279 58,339
61,10 62,70 63,289 64,209
65,1259 66,199 67,249 68,229
69,1719 70,2709 71,4409 72,259
73,10 74,70 75,90 76,219
77,1279 78,129 79,329 80,40
81,50 82,259 83,1629 84,919
85,119 86,10 87,10 89,10
91,99 92,189 93,619 94,299
95,509 96,40 97,199 98,20
102,10 103,30 104,70 105,839
106,99 107,169 108,30 109,10
110,109 111,20 112,869 113,99
115,10 119,40 120,139 121,7249
122,9709 123,9999 124,789 125,70
131,10 133,20 134,10 135,399
136,40 138,30 147,80 148,20
149,30 161,20 163,30 175,10
194,10 205,30 206,10 222,10
233,30 234,4979 235,869 236,109
237,10
##END=
