##TITLE=Benzo[1,2-b:5,4-b']bis[1]benzothiophene
##JCAMP-DX=4.24
##DATA TYPE=MASS SPECTRUM
##ORIGIN=SHELL OIL CO., HOUSTON, TEXAS, USA
##OWNER=NIST Mass Spectrometry Data Center
Collection (C) 2014 copyright by the U.S. Secretary of Commerce
on behalf of the United States of America. All rights reserved.
##CAS REGISTRY NO=241-37-2
##$NIST MASS SPEC NO=27583
##MOLFORM=C18 H10 S2
##MW=290
##$NIST SOURCE=MSDC
##XUNITS=M/Z
##YUNITS=RELATIVE INTENSITY
##XFACTOR=1
##YFACTOR=1
##FIRSTX=37
##LASTX=295
##FIRSTY=31
##MAXX=295
##MINX=37
##MAXY=9999
##MINY=1
##NPOINTS=250
##PEAK TABLE=(XY..XY)
37,31 38,82 39,209 40,348
41,62 42,15 43,24 44,316
45,255 46,12 47,12 48,4
49,10 50,99 51,93 52,26
53,7 54,4 55,21 56,27
57,40 58,25 59,6 60,6
61,29 62,84 63,126 64,14
65,11 66,3 67,9 68,10
69,398 70,49 71,36 72,7
73,23 74,150 75,118 76,35
77,33 78,78 79,12 80,6
81,63 82,78 83,19 84,13
85,43 86,116 87,142 88,72
89,26 90,7 91,15 92,10
93,167 94,36 95,29 96,78
97,36 98,104 99,95 100,155
101,38 102,12 103,39 104,11
105,37 106,51 107,20 108,17
109,61 110,93 111,65 112,23
113,35 114,16 115,53 116,53
117,84 118,29 119,44 120,16
121,55 122,188 123,222 124,25
125,24 126,29 127,35 128,130
129,142 130,31 131,119 132,303
133,38 134,27 135,22 136,10
137,45 138,46 139,24 140,5
141,33 142,10 143,166 144,1636
145,929 146,99 147,13 148,7
149,26 150,57 151,25 152,10
153,7 154,5 155,3 156,10
157,6 158,12 159,6 160,6
161,40 162,46 163,65 164,15
165,12 166,6 167,7 168,12
169,47 170,21 171,13 172,5
173,16 174,78 175,43 176,31
177,8 178,6 179,4 180,7
181,8 182,18 183,6 184,6
185,31 186,35 187,84 188,22
189,14 190,3 191,4 192,6
193,39 194,24 195,31 196,7
197,10 198,45 199,42 200,80
201,23 202,6 203,3 204,3
205,9 206,52 207,32 208,19
209,12 210,15 211,85 212,33
213,82 214,20 215,3 216,5
217,36 218,42 219,125 220,33
221,25 222,11 223,8 224,28
225,13 226,20 227,3 228,3
229,3 230,32 231,26 232,69
233,14 234,7 235,1 236,3
237,2 238,4 239,4 240,4
241,31 242,55 243,405 244,196
245,345 246,83 247,22 248,5
249,14 250,14 251,53 252,11
253,5 254,17 255,18 256,200
257,69 258,606 259,129 260,53
261,11 262,27 263,27 264,80
265,18 266,10 267,3 271,3
272,3 273,5 274,6 275,57
276,14 277,10 278,5 279,4
286,90 287,152 288,3014 289,1108
290,9999 291,2069 292,1002 293,172
294,36 295,5
##END=
