##TITLE=Propanamide, N-(4-bromophenyl)-2,2-dimethyl-
##JCAMP-DX=4.24
##DATA TYPE=MASS SPECTRUM
##ORIGIN=Zaikin V.G., TIPS RAS, Moscow, Russia
##OWNER=NIST Mass Spectrometry Data Center
Collection (C) 2014 copyright by the U.S. Secretary of Commerce
on behalf of the United States of America. All rights reserved.
##CAS REGISTRY NO=24109-06-6
##$NIST MASS SPEC NO=307198
##MOLFORM=C11 H14 Br N O
##MW=255
##$NIST SOURCE=MSDC
##XUNITS=M/Z
##YUNITS=RELATIVE INTENSITY
##XFACTOR=1
##YFACTOR=1
##FIRSTX=26
##LASTX=259
##FIRSTY=30
##MAXX=259
##MINX=26
##MAXY=9999
##MINY=30
##NPOINTS=74
##PEAK TABLE=(XY..XY)
26,30 27,170 28,300 29,751
36,40 37,30 38,100 39,500
40,80 41,1551 42,200 43,30
44,50 46,30 50,130 51,70
52,70 53,40 55,130 56,90
57,9999 58,450 62,80 63,450
64,350 65,500 66,50 69,100
70,50 74,50 75,170 76,180
77,40 80,50 82,50 85,1742
86,90 90,290 91,811 92,631
93,120 117,70 119,90 120,30
132,60 143,230 145,230 146,50
155,150 157,150 161,40 169,80
170,400 171,3413 172,661 173,3273
174,250 177,30 197,200 198,130
199,230 200,120 201,30 212,230
213,40 214,230 215,30 240,30
242,30 255,4164 256,561 257,4104
258,540 259,30
##END=
