##TITLE=1-Heptanamine, N,N-diheptyl-
##JCAMP-DX=4.24
##DATA TYPE=MASS SPECTRUM
##ORIGIN=Japan AIST/NIMC Database- Spectrum MS-IW-3869
##OWNER=NIST Mass Spectrometry Data Center
Collection (C) 2014 copyright by the U.S. Secretary of Commerce
on behalf of the United States of America. All rights reserved.
##CAS REGISTRY NO=2411-36-1
##$NIST MASS SPEC NO=236465
##MOLFORM=C21 H45 N
##MW=311
##$NIST SOURCE=MSDC
##XUNITS=M/Z
##YUNITS=RELATIVE INTENSITY
##XFACTOR=1
##YFACTOR=1
##FIRSTX=27
##LASTX=312
##FIRSTY=90
##MAXX=312
##MINX=27
##MAXY=9999
##MINY=10
##NPOINTS=79
##PEAK TABLE=(XY..XY)
27,90 28,50 29,329 30,219
39,40 41,599 42,239 43,809
44,549 45,10 53,20 54,20
55,499 56,149 57,879 58,489
59,10 67,30 68,30 69,99
70,159 71,50 72,30 81,20
82,30 83,20 84,239 85,20
86,10 95,10 96,30 97,20
98,439 99,40 110,10 112,309
113,20 114,30 124,10 126,99
127,10 128,249 129,20 138,10
140,329 141,40 142,1259 143,129
154,40 156,60 168,40 170,10
182,30 184,20 196,30 198,10
210,20 212,119 213,30 214,10
224,229 225,10 226,9999 227,1699
228,129 240,30 250,10 252,149
253,30 254,10 268,30 282,40
283,10 296,20 308,10 309,20
310,159 311,239 312,50
##END=
