##TITLE=1,3,6-Trimethyladamantane
##JCAMP-DX=4.24
##DATA TYPE=MASS SPECTRUM
##ORIGIN=V.G.Zaikin, TIPS, Russian Acad. Sci.
##OWNER=NIST Mass Spectrometry Data Center
Collection (C) 2014 copyright by the U.S. Secretary of Commerce
on behalf of the United States of America. All rights reserved.
##CAS REGISTRY NO=24139-37-5
##$NIST MASS SPEC NO=214993
##MOLFORM=C13 H22
##MW=178
##$NIST SOURCE=MSDC
##XUNITS=M/Z
##YUNITS=RELATIVE INTENSITY
##XFACTOR=1
##YFACTOR=1
##FIRSTX=50
##LASTX=179
##FIRSTY=100
##MAXX=179
##MINX=50
##MAXY=9999
##MINY=71
##NPOINTS=45
##PEAK TABLE=(XY..XY)
50,100 51,300 52,200 53,900
54,350 55,2001 56,400 57,350
60,100 65,400 66,200 67,1601
68,600 69,1101 77,800 78,300
79,1101 80,400 81,2302 82,800
83,700 91,950 92,300 94,1601
95,450 96,2252 97,700 98,400
105,400 106,200 107,4303 108,800
109,1000 121,1050 122,300 123,500
135,600 136,100 149,500 150,100
163,9999 164,1401 165,100 178,500
179,71
##END=
