##TITLE=4a,8a-Ethenonaphthalene, 1,2,3,4,5,8-hexahydro-
##JCAMP-DX=4.24
##DATA TYPE=MASS SPECTRUM
##ORIGIN=R.C. DOUGHERTY
##OWNER=NIST Mass Spectrometry Data Center
Collection (C) 2014 copyright by the U.S. Secretary of Commerce
on behalf of the United States of America. All rights reserved.
##CAS REGISTRY NO=24139-32-0
##$NIST MASS SPEC NO=37091
##MOLFORM=C12 H16
##MW=160
##$NIST SOURCE=MSDC
##XUNITS=M/Z
##YUNITS=RELATIVE INTENSITY
##XFACTOR=1
##YFACTOR=1
##FIRSTX=27
##LASTX=160
##FIRSTY=1401
##MAXX=160
##MINX=27
##MAXY=9999
##MINY=200
##NPOINTS=42
##PEAK TABLE=(XY..XY)
27,1401 28,300 29,300 39,2402
40,300 41,1902 50,500 51,1301
52,801 53,901 54,200 55,200
63,801 64,300 65,1501 66,400
67,701 77,2202 78,2402 79,2002
80,400 81,300 91,9999 92,2302
93,601 103,801 104,4304 105,2202
106,801 115,1301 116,701 117,6506
118,2803 119,1451 128,500 129,500
131,2903 132,5005 133,651 134,400
145,1201 160,1001
##END=
