##TITLE=Oxazolam
##JCAMP-DX=4.24
##DATA TYPE=MASS SPECTRUM
##ORIGIN=Drug Lab
##OWNER=NIST Mass Spectrometry Data Center
Collection (C) 2014 copyright by the U.S. Secretary of Commerce
on behalf of the United States of America. All rights reserved.
##CAS REGISTRY NO=24143-17-7
##$NIST MASS SPEC NO=335144
##MOLFORM=C18 H17 Cl N2 O2
##MW=328
##$NIST SOURCE=MSDC
##XUNITS=M/Z
##YUNITS=RELATIVE INTENSITY
##XFACTOR=1
##YFACTOR=1
##FIRSTX=40
##LASTX=328
##FIRSTY=100
##MAXX=328
##MINX=40
##MAXY=9999
##MINY=20
##NPOINTS=132
##PEAK TABLE=(XY..XY)
40,100 41,1641 42,1982 43,140
44,60 50,200 51,811 52,120
54,150 55,100 56,210 57,280
58,130 62,140 63,230 64,70
65,90 68,250 70,3393 71,370
73,50 74,200 75,170 76,190
77,2162 78,200 82,100 86,80
87,90 88,80 89,290 90,200
91,340 96,260 97,230 98,80
99,170 100,90 101,140 102,350
103,120 104,210 105,1782 106,230
110,190 111,220 112,70 113,220
114,120 115,150 116,110 117,160
118,100 124,410 125,200 126,460
127,240 128,270 130,110 131,70
132,130 133,150 135,50 138,160
139,170 140,210 149,130 150,200
151,390 152,410 153,220 154,500
155,130 156,90 158,70 161,80
162,120 163,150 164,240 165,310
166,981 167,300 168,220 176,20
177,310 178,240 180,370 181,90
182,450 184,250 189,70 190,110
191,210 192,160 193,170 194,811
195,280 196,380 202,611 203,100
204,80 205,80 206,70 207,200
208,70 209,90 213,120 214,150
216,100 223,320 225,170 227,70
228,100 229,90 230,120 238,80
240,150 241,170 242,100 243,150
251,9999 252,1672 253,3533 254,430
255,80 269,70 281,30 283,420
284,140 285,260 286,80 328,70
##END=
