##TITLE=Phosphorodithioic acid, O,O-dipropyl S-(2-pipecolinocarbonylmethyl) ester
##JCAMP-DX=4.24
##DATA TYPE=MASS SPECTRUM
##ORIGIN=Richard Turcotte. Direction des laboratoires d'expertises et d'analyses alimentaires, Quebec, Canada.
##OWNER=NIST Mass Spectrometry Data Center
Collection (C) 2014 copyright by the U.S. Secretary of Commerce
on behalf of the United States of America. All rights reserved.
##CAS REGISTRY NO=24151-93-7
##$NIST MASS SPEC NO=366485
##MOLFORM=C14 H28 N O3 P S2
##MW=353
##$NIST SOURCE=MSDC
##XUNITS=M/Z
##YUNITS=RELATIVE INTENSITY
##XFACTOR=1
##YFACTOR=1
##FIRSTX=41
##LASTX=323
##FIRSTY=3013
##MAXX=323
##MINX=41
##MAXY=9999
##MINY=20
##NPOINTS=158
##PEAK TABLE=(XY..XY)
41,3013 42,1541 43,2993 44,791
45,150 46,90 47,440 48,40
50,70 51,50 52,50 53,160
54,310 55,3623 56,1641 57,350
58,290 59,220 60,120 61,50
62,100 63,140 64,40 65,1071
66,60 67,260 68,340 69,841
70,811 71,270 72,100 73,130
74,210 75,130 76,130 77,50
78,120 79,210 80,160 81,561
82,651 83,1321 84,3433 85,320
86,130 87,150 88,110 89,40
90,60 91,40 92,80 93,100
94,130 95,150 96,981 97,5845
98,3303 99,851 100,260 101,90
102,130 103,50 104,40 105,70
106,100 107,280 108,210 109,50
110,410 111,2432 112,961 113,210
114,70 115,290 116,20 117,50
119,40 120,40 121,190 122,8588
123,811 124,591 125,150 126,4204
127,400 128,130 129,1331 130,711
131,470 132,30 133,20 137,100
138,110 139,3023 140,9999 141,2282
142,440 143,911 144,200 145,190
146,40 149,80 152,40 153,60
154,390 155,1291 156,941 157,200
158,250 161,20 162,40 170,110
171,1712 172,801 173,581 174,621
175,60 177,100 178,60 181,30
182,20 185,20 186,30 188,160
190,20 192,70 193,50 194,50
205,110 210,20 213,270 214,30
220,210 221,20 236,300 237,30
251,20 252,581 253,160 254,60
255,80 262,500 263,30 264,20
267,30 269,90 271,20 278,681
279,90 280,40 294,280 295,20
296,30 311,30 320,6065 321,1021
322,340 323,50
##END=
