##TITLE=Rhodium, dicarbonyl(1-phenyl-1,3-butanedionato)-
##JCAMP-DX=4.24
##DATA TYPE=MASS SPECTRUM
##ORIGIN=S. PIGNATARO
##OWNER=NIST Mass Spectrometry Data Center
Collection (C) 2014 copyright by the U.S. Secretary of Commerce
on behalf of the United States of America. All rights reserved.
##CAS REGISTRY NO=24151-55-1
##$NIST MASS SPEC NO=41258
##MOLFORM=C12 H9 O4 Rh
##MW=320
##$NIST SOURCE=MSDC
##XUNITS=M/Z
##YUNITS=RELATIVE INTENSITY
##XFACTOR=1
##YFACTOR=1
##FIRSTX=103
##LASTX=320
##FIRSTY=3200
##MAXX=320
##MINX=103
##MAXY=9999
##MINY=1400
##NPOINTS=13
##PEAK TABLE=(XY..XY)
103,3200 131,1500 180,2600 193,2000
194,2000 195,1400 204,2200 208,3200
234,3200 236,3200 264,7800 292,5300
320,9999
##END=
