##TITLE=Cyclopropane, propyl-
##JCAMP-DX=4.24
##DATA TYPE=MASS SPECTRUM
##ORIGIN=D.HENNEBERG, MAX-PLANCK INSTITUTE, MULHEIM, WEST GERMANY
##OWNER=NIST Mass Spectrometry Data Center
Collection (C) 2014 copyright by the U.S. Secretary of Commerce
on behalf of the United States of America. All rights reserved.
##CAS REGISTRY NO=2415-72-7
##$NIST MASS SPEC NO=60624
##MOLFORM=C6 H12
##MW=84
##$NIST SOURCE=MSDC
##XUNITS=M/Z
##YUNITS=RELATIVE INTENSITY
##XFACTOR=1
##YFACTOR=1
##FIRSTX=26
##LASTX=84
##FIRSTY=129
##MAXX=84
##MINX=26
##MAXY=9999
##MINY=4
##NPOINTS=20
##PEAK TABLE=(XY..XY)
26,129 27,3320 28,1441 29,2415
38,129 39,3141 40,516 41,8697
42,4065 43,2683 50,29 51,129
53,506 54,347 55,4980 56,9999
57,318 63,4 69,1868 84,407
##END=
