##TITLE=Phenol, 2,3,6-trimethyl-
##JCAMP-DX=4.24
##DATA TYPE=MASS SPECTRUM
##ORIGIN=RADIAN CORP
##OWNER=NIST Mass Spectrometry Data Center
Collection (C) 2014 copyright by the U.S. Secretary of Commerce
on behalf of the United States of America. All rights reserved.
##CAS REGISTRY NO=2416-94-6
##$NIST MASS SPEC NO=70281
##MOLFORM=C9 H12 O
##MW=136
##$NIST SOURCE=MSDC
##XUNITS=M/Z
##YUNITS=RELATIVE INTENSITY
##XFACTOR=1
##YFACTOR=1
##FIRSTX=15
##LASTX=138
##FIRSTY=210
##MAXX=138
##MINX=15
##MAXY=9999
##MINY=10
##NPOINTS=70
##PEAK TABLE=(XY..XY)
15,210 26,110 27,520 29,40
37,30 38,140 39,960 41,390
42,40 43,360 45,40 46,20
50,440 51,900 52,380 53,670
54,90 55,270 58,110 59,30
60,50 61,60 62,180 63,490
64,120 65,990 66,330 67,500
68,120 69,30 73,10 74,130
75,110 76,90 77,2130 78,480
79,1050 80,100 81,70 82,10
87,50 89,200 90,40 91,3460
92,440 93,1290 94,220 95,60
102,110 103,660 104,90 105,390
106,80 107,410 108,240 109,40
115,420 116,90 117,740 118,180
119,210 121,9999 122,900 123,60
133,30 134,20 135,1620 136,6450
137,650 138,40
##END=
