##TITLE=[1,1'-Biphenyl]-2-ol, 3-(1,1-dimethylethyl)-
##JCAMP-DX=4.24
##DATA TYPE=MASS SPECTRUM
##OWNER=NIST Mass Spectrometry Data Center
Collection (C) 2014 copyright by the U.S. Secretary of Commerce
on behalf of the United States of America. All rights reserved.
##CAS REGISTRY NO=2416-98-0
##$NIST MASS SPEC NO=10738
##MOLFORM=C16 H18 O
##MW=226
##$NIST SOURCE=MSDC
##XUNITS=M/Z
##YUNITS=RELATIVE INTENSITY
##XFACTOR=1
##YFACTOR=1
##FIRSTX=15
##LASTX=228
##FIRSTY=10
##MAXX=228
##MINX=15
##MAXY=9999
##MINY=10
##NPOINTS=141
##PEAK TABLE=(XY..XY)
15,10 18,20 27,90 28,160
29,130 31,20 32,40 36,10
38,10 39,220 40,20 41,340
42,20 43,60 44,20 45,80
50,40 51,180 52,40 53,70
55,10 57,150 58,20 59,20
62,40 63,180 64,110 65,130
66,20 67,30 69,30 70,40
71,30 72,20 73,20 74,40
75,80 76,320 77,330 78,60
79,50 81,20 82,160 83,140
84,210 85,10 86,20 87,40
88,70 89,200 90,50 91,651
92,170 93,10 94,30 95,10
97,20 98,10 99,10 100,10
101,30 102,80 103,80 104,30
105,70 107,50 110,10 111,10
112,10 113,130 114,30 115,510
116,60 117,20 119,10 125,10
126,40 127,100 128,190 129,70
130,10 131,30 132,10 133,20
139,160 140,30 141,180 142,50
143,30 149,20 150,30 151,30
152,571 153,420 154,90 155,120
156,20 163,40 164,50 165,731
166,220 167,220 168,290 169,160
170,210 171,370 172,40 176,100
177,140 178,1271 179,230 180,20
181,210 182,130 183,2923 184,450
185,50 189,90 190,50 191,200
192,100 193,170 194,60 195,110
196,90 197,30 202,10 203,10
205,10 207,20 208,20 209,80
210,70 211,9999 212,2863 213,150
224,10 225,20 226,3563 227,631
228,60
##END=
