##TITLE=Tris(2-thienyl)phosphine
##JCAMP-DX=4.24
##DATA TYPE=MASS SPECTRUM
##ORIGIN=NIST Mass Spectrometry Data Center, 1994
##OWNER=NIST Mass Spectrometry Data Center
Collection (C) 2014 copyright by the U.S. Secretary of Commerce
on behalf of the United States of America. All rights reserved.
##CAS REGISTRY NO=24171-89-9
##$NIST MASS SPEC NO=136211
##MOLFORM=C12 H9 P S3
##MW=280
##$NIST SOURCE=MSDC
##XUNITS=M/Z
##YUNITS=RELATIVE INTENSITY
##XFACTOR=1
##YFACTOR=1
##FIRSTX=18
##LASTX=284
##FIRSTY=81
##MAXX=284
##MINX=18
##MAXY=9999
##MINY=23
##NPOINTS=140
##PEAK TABLE=(XY..XY)
18,81 26,34 37,165 38,677
39,3730 40,126 45,2664 46,85
47,151 49,42 50,328 51,494
52,43 56,234 57,1182 58,538
60,30 61,58 63,4214 64,161
65,245 68,302 69,1456 70,493
71,420 72,26 75,159 76,118
77,313 78,55 79,41 80,246
81,776 82,588 83,232 84,143
85,46 86,43 87,504 88,1546
89,761 90,496 91,56 92,104
93,228 94,98 95,315 96,104
97,121 98,36 99,39 100,54
101,55 102,385 103,42 104,60
105,60 106,48 107,199 108,901
109,254 110,52 111,159 112,79
113,36 114,9999 115,715 116,421
117,60 119,56 120,157 121,911
122,222 123,64 126,143 127,346
128,52 129,44 132,108 133,251
134,2000 135,208 136,126 137,23
138,73 139,305 140,242 141,49
145,66 146,24 151,86 152,640
153,789 154,112 155,46 158,108
163,169 164,72 165,725 166,2217
167,274 168,199 169,32 170,42
171,284 172,68 173,93 177,59
178,284 179,73 180,33 183,105
184,741 185,130 186,39 189,32
190,62 195,645 196,923 197,813
198,157 199,70 203,43 208,28
215,63 216,330 217,463 218,82
219,40 221,29 235,39 245,78
247,436 248,173 249,53 280,6535
281,1081 282,918 283,123 284,46
##END=
