##TITLE=Propanenitrile, 3-bromo-
##JCAMP-DX=4.24
##DATA TYPE=MASS SPECTRUM
##ORIGIN=NIST Mass Spectrometry Data Center, 1998.
##OWNER=NIST Mass Spectrometry Data Center
Collection (C) 2014 copyright by the U.S. Secretary of Commerce
on behalf of the United States of America. All rights reserved.
##CAS REGISTRY NO=2417-90-5
##$NIST MASS SPEC NO=292022
##MOLFORM=C3 H4 Br N
##MW=133
##$NIST SOURCE=MSDC
##XUNITS=M/Z
##YUNITS=RELATIVE INTENSITY
##XFACTOR=1
##YFACTOR=1
##FIRSTX=12
##LASTX=136
##FIRSTY=10
##MAXX=136
##MINX=12
##MAXY=9999
##MINY=10
##NPOINTS=50
##PEAK TABLE=(XY..XY)
12,10 13,10 14,40 15,10
24,40 25,170 26,1160 27,1410
28,1580 29,30 36,60 37,200
38,330 39,280 40,240 41,20
50,160 51,1430 52,2960 53,2480
54,9999 55,370 56,10 79,550
80,140 81,560 82,140 83,20
91,100 92,100 93,2430 94,130
95,2300 96,20 103,10 104,50
105,120 106,140 107,110 108,90
109,10 117,10 118,10 129,10
130,10 131,20 133,4840 134,220
135,4670 136,180
##END=
