##TITLE=Ergosta-5,7,22-trien-3-ol, acetate, (3.beta.,22E)-
##JCAMP-DX=4.24
##DATA TYPE=MASS SPECTRUM
##ORIGIN=LAC, NIDDK, NIH, Bethesda, MD 20892
##OWNER=NIST Mass Spectrometry Data Center
Collection (C) 2014 copyright by the U.S. Secretary of Commerce
on behalf of the United States of America. All rights reserved.
##CAS REGISTRY NO=2418-45-3
##$NIST MASS SPEC NO=253048
##MOLFORM=C30 H46 O2
##MW=438
##$NIST SOURCE=MSDC
##XUNITS=M/Z
##YUNITS=RELATIVE INTENSITY
##XFACTOR=1
##YFACTOR=1
##FIRSTX=41
##LASTX=440
##FIRSTY=2343
##MAXX=440
##MINX=41
##MAXY=9999
##MINY=39
##NPOINTS=231
##PEAK TABLE=(XY..XY)
41,2343 43,9999 44,187 45,595
49,204 51,210 53,531 55,4251
57,1408 58,76 59,583 60,86
61,149 65,227 67,1804 69,3388
71,1205 72,63 73,188 74,289
77,627 79,1208 81,2534 82,393
83,1320 84,59 85,609 86,134
87,235 91,1320 93,1641 95,2028
96,206 97,664 98,209 99,455
101,98 103,172 105,1478 107,1656
108,136 109,1157 110,136 111,418
113,265 115,448 116,54 117,686
118,218 119,877 121,1021 122,138
123,640 124,264 125,419 127,188
128,440 129,544 131,1021 133,949
134,162 135,606 136,100 137,363
138,39 139,198 141,475 142,169
143,849 145,1330 146,96 147,945
148,66 149,399 150,131 151,187
152,168 153,213 154,44 155,603
156,172 157,892 158,219 159,888
161,751 162,102 163,241 164,86
165,256 166,72 167,275 168,45
169,511 171,592 172,117 173,465
174,94 175,327 176,98 177,169
178,151 179,215 180,39 181,311
182,44 183,491 184,54 185,482
186,104 187,340 188,116 189,192
191,192 192,61 193,147 195,337
196,44 197,605 198,66 199,468
200,71 201,274 202,40 203,173
205,91 207,178 209,354 211,754
213,623 214,40 215,288 217,125
218,70 219,128 221,130 223,252
224,115 225,252 226,152 227,354
228,169 229,365 231,51 233,98
235,183 236,67 237,283 238,40
239,279 240,58 241,274 243,207
245,103 247,56 249,214 250,85
251,409 252,45 253,980 254,69
255,605 256,132 257,136 259,194
260,58 261,68 263,81 265,173
267,211 268,61 269,233 270,102
271,148 272,135 273,180 274,68
275,115 279,162 281,131 283,164
284,88 285,336 286,164 287,234
288,245 289,129 290,67 293,64
295,78 297,196 298,80 299,232
300,88 301,211 302,107 303,131
304,70 309,105 311,1796 312,489
313,784 314,250 315,225 316,95
325,196 326,75 327,302 328,178
329,364 330,125 335,67 337,63
339,135 340,75 341,171 342,161
343,168 344,65 345,68 351,98
353,87 356,98 363,180 365,127
379,113 395,63 410,62 437,145
438,1065 439,327 440,43
##END=
