##TITLE=1,3-Isobenzofurandione, 5,5'-carbonylbis-
##JCAMP-DX=4.24
##DATA TYPE=MASS SPECTRUM
##ORIGIN=ALPHA Chemicals / NIST MS Data Center.
##OWNER=NIST Mass Spectrometry Data Center
Collection (C) 2014 copyright by the U.S. Secretary of Commerce
on behalf of the United States of America. All rights reserved.
##CAS REGISTRY NO=2421-28-5
##$NIST MASS SPEC NO=125476
##MOLFORM=C17 H6 O7
##MW=322
##$NIST SOURCE=MSDC
##XUNITS=M/Z
##YUNITS=RELATIVE INTENSITY
##XFACTOR=1
##YFACTOR=1
##FIRSTX=37
##LASTX=324
##FIRSTY=45
##MAXX=324
##MINX=37
##MAXY=9999
##MINY=20
##NPOINTS=62
##PEAK TABLE=(XY..XY)
37,45 38,41 44,20 49,37
50,141 51,38 53,203 61,48
62,106 63,63 73,159 74,1292
75,2875 76,267 77,54 85,43
86,61 87,55 89,41 90,23
98,140 99,108 100,99 101,50
102,23 103,2573 104,170 110,32
111,48 117,436 122,69 123,61
124,39 125,20 137,32 138,56
147,42 149,152 150,722 151,98
166,54 175,1452 176,168 178,876
179,100 194,376 195,48 206,995
207,200 208,24 222,162 223,28
249,37 250,126 251,29 278,9999
279,1843 280,282 281,49 322,2241
323,426 324,73
##END=
