##TITLE=Quindoxin
##JCAMP-DX=4.24
##DATA TYPE=MASS SPECTRUM
##ORIGIN=Org.Mass.Spectrom.,22(5) 259(1987);M.Bartoszek ET AL
##OWNER=NIST Mass Spectrometry Data Center
Collection (C) 2014 copyright by the U.S. Secretary of Commerce
on behalf of the United States of America. All rights reserved.
##CAS REGISTRY NO=2423-66-7
##$NIST MASS SPEC NO=245530
##MOLFORM=C8 H6 N2 O2
##MW=162
##$NIST SOURCE=MSDC
##XUNITS=M/Z
##YUNITS=RELATIVE INTENSITY
##XFACTOR=1
##YFACTOR=1
##FIRSTX=49
##LASTX=164
##FIRSTY=70
##MAXX=164
##MINX=49
##MAXY=9999
##MINY=70
##NPOINTS=41
##PEAK TABLE=(XY..XY)
49,70 50,1191 51,1191 52,1080
53,210 55,70 61,170 62,380
63,980 64,660 65,170 73,170
74,980 75,980 76,1571 77,870
78,1851 79,700 80,100 81,100
87,100 88,170 89,170 90,1291
91,980 101,70 102,490 103,490
104,70 105,1080 106,70 116,70
117,70 118,170 128,70 129,70
130,70 146,450 162,9999 163,840
164,70
##END=
