##TITLE=Pyrazine, 1,4-dioxide
##JCAMP-DX=4.24
##DATA TYPE=MASS SPECTRUM
##OWNER=NIST Mass Spectrometry Data Center
Collection (C) 2014 copyright by the U.S. Secretary of Commerce
on behalf of the United States of America. All rights reserved.
##CAS REGISTRY NO=2423-84-9
##$NIST MASS SPEC NO=1699
##MOLFORM=C4 H4 N2 O2
##MW=112
##$NIST SOURCE=MSDC
##XUNITS=M/Z
##YUNITS=RELATIVE INTENSITY
##XFACTOR=1
##YFACTOR=1
##FIRSTX=37
##LASTX=113
##FIRSTY=200
##MAXX=113
##MINX=37
##MAXY=9999
##MINY=200
##NPOINTS=24
##PEAK TABLE=(XY..XY)
37,200 38,333 39,600 40,933
41,800 42,333 43,333 44,333
50,267 51,333 52,1400 53,667
54,333 55,267 56,600 66,200
67,200 68,200 80,533 85,267
95,200 96,800 112,9999 113,600
##END=
