##TITLE=Cyclopentene, 1-butyl-
##JCAMP-DX=4.24
##DATA TYPE=MASS SPECTRUM
##ORIGIN=NIST Mass Spectrometry Data Center, 1990.
##OWNER=NIST Mass Spectrometry Data Center
Collection (C) 2014 copyright by the U.S. Secretary of Commerce
on behalf of the United States of America. All rights reserved.
##CAS REGISTRY NO=2423-01-0
##$NIST MASS SPEC NO=113491
##MOLFORM=C9 H16
##MW=124
##$NIST SOURCE=MSDC
##XUNITS=M/Z
##YUNITS=RELATIVE INTENSITY
##XFACTOR=1
##YFACTOR=1
##FIRSTX=15
##LASTX=125
##FIRSTY=41
##MAXX=125
##MINX=15
##MAXY=9999
##MINY=39
##NPOINTS=41
##PEAK TABLE=(XY..XY)
15,41 26,99 27,801 28,256
29,433 32,43 38,135 39,1480
40,283 41,1859 42,133 43,115
50,169 51,419 52,266 53,1020
54,451 55,657 56,59 57,39
62,53 63,143 65,657 66,1131
67,9999 68,925 69,114 77,755
78,202 79,1704 80,378 81,1785
82,2630 83,333 91,219 93,189
95,1496 96,177 109,49 124,1760
125,166
##END=
