##TITLE=Phenol, 2,6-dimethyl-4-nitro-
##JCAMP-DX=4.24
##DATA TYPE=MASS SPECTRUM
##ORIGIN=Japan AIST/NIMC Database- Spectrum MS-NW-7617
##OWNER=NIST Mass Spectrometry Data Center
Collection (C) 2014 copyright by the U.S. Secretary of Commerce
on behalf of the United States of America. All rights reserved.
##CAS REGISTRY NO=2423-71-4
##$NIST MASS SPEC NO=237824
##MOLFORM=C8 H9 N O3
##MW=167
##$NIST SOURCE=MSDC
##XUNITS=M/Z
##YUNITS=RELATIVE INTENSITY
##XFACTOR=1
##YFACTOR=1
##FIRSTX=12
##LASTX=170
##FIRSTY=10
##MAXX=170
##MINX=12
##MAXY=9999
##MINY=10
##NPOINTS=123
##PEAK TABLE=(XY..XY)
12,10 14,20 15,70 16,30
18,20 25,10 26,119 27,729
28,249 29,129 30,409 31,50
32,10 37,159 38,409 39,2099
40,409 41,1009 42,80 43,889
44,159 45,50 46,80 49,50
50,479 51,1129 52,569 53,1579
54,149 55,459 56,30 57,20
58,40 59,20 60,30 61,119
62,309 63,739 64,269 65,1489
66,489 67,849 68,159 69,229
70,20 71,10 72,10 73,30
74,139 75,159 76,139 77,5739
78,949 79,729 80,269 81,939
82,80 83,30 84,10 85,40
86,70 87,60 88,20 89,189
90,139 91,4329 92,559 93,949
94,289 95,109 96,40 97,10
98,20 99,10 101,30 102,109
103,579 104,90 105,90 106,219
107,349 108,679 109,619 110,60
111,10 113,10 114,10 115,10
116,40 117,20 118,20 119,259
120,519 121,1549 122,179 123,40
124,10 125,10 126,10 129,10
131,10 132,20 133,20 134,229
135,909 136,149 137,2709 138,269
139,30 147,10 149,10 150,119
151,769 152,99 153,10 163,20
164,10 165,30 166,129 167,9999
168,979 169,119 170,10
##END=
