##TITLE=Cyclopropanemethanol, .alpha.-methyl-.alpha.-propyl-
##JCAMP-DX=4.24
##DATA TYPE=MASS SPECTRUM
##ORIGIN=CARL DJERASSI DEPT OF CHEM STANFORD UNIV STANFORD CALIF 94305
##OWNER=NIST Mass Spectrometry Data Center
Collection (C) 2014 copyright by the U.S. Secretary of Commerce
on behalf of the United States of America. All rights reserved.
##CAS REGISTRY NO=24230-08-8
##$NIST MASS SPEC NO=46472
##MOLFORM=C8 H16 O
##MW=128
##$NIST SOURCE=MSDC
##XUNITS=M/Z
##YUNITS=RELATIVE INTENSITY
##XFACTOR=1
##YFACTOR=1
##FIRSTX=41
##LASTX=113
##FIRSTY=1700
##MAXX=113
##MINX=41
##MAXY=9999
##MINY=100
##NPOINTS=25
##PEAK TABLE=(XY..XY)
41,1700 42,200 43,9999 44,300
45,900 53,400 54,100 55,500
56,100 57,300 58,200 65,200
67,1400 68,100 69,600 71,1700
72,500 81,400 82,200 85,2500
86,400 87,300 95,400 110,200
113,300
##END=
