##TITLE=Methyldiallylamine
##JCAMP-DX=4.24
##DATA TYPE=MASS SPECTRUM
##ORIGIN=V.G.Zaikin, Petrochem. Synth. Inst., Moscow
##OWNER=NIST Mass Spectrometry Data Center
Collection (C) 2014 copyright by the U.S. Secretary of Commerce
on behalf of the United States of America. All rights reserved.
##CAS REGISTRY NO=2424-01-3
##$NIST MASS SPEC NO=280470
##MOLFORM=C7 H13 N
##MW=111
##$NIST SOURCE=MSDC
##XUNITS=M/Z
##YUNITS=RELATIVE INTENSITY
##XFACTOR=1
##YFACTOR=1
##FIRSTX=25
##LASTX=112
##FIRSTY=80
##MAXX=112
##MINX=25
##MAXY=9999
##MINY=20
##NPOINTS=45
##PEAK TABLE=(XY..XY)
25,80 26,490 27,1131 28,450
29,210 30,260 31,30 37,450
38,851 39,5945 40,931 41,9999
42,9198 43,591 44,851 45,20
50,40 51,100 52,520 53,410
54,540 55,550 56,320 57,571
65,60 66,60 67,190 68,1241
69,240 70,851 71,60 79,60
80,80 81,180 82,1171 83,180
84,3914 85,190 94,180 95,60
96,450 97,30 110,310 111,631
112,60
##END=
