##TITLE=2-Propen-1-amine, N-ethyl-
##JCAMP-DX=4.24
##DATA TYPE=MASS SPECTRUM
##ORIGIN=NIST Mass Spectrometry Data Center, 1990.
##OWNER=NIST Mass Spectrometry Data Center
Collection (C) 2014 copyright by the U.S. Secretary of Commerce
on behalf of the United States of America. All rights reserved.
##CAS REGISTRY NO=2424-02-4
##$NIST MASS SPEC NO=118227
##MOLFORM=C5 H11 N
##MW=85
##$NIST SOURCE=MSDC
##XUNITS=M/Z
##YUNITS=RELATIVE INTENSITY
##XFACTOR=1
##YFACTOR=1
##FIRSTX=13
##LASTX=86
##FIRSTY=90
##MAXX=86
##MINX=13
##MAXY=9999
##MINY=35
##NPOINTS=43
##PEAK TABLE=(XY..XY)
13,90 14,193 15,860 16,35
17,83 18,321 25,116 26,963
27,3143 28,7645 29,2235 30,5645
31,120 34,167 35,95 36,35
37,206 38,616 39,3001 40,35
41,9999 42,3092 43,1744 44,834
45,63 51,103 52,276 53,123
54,488 55,194 56,1734 57,647
58,3708 59,200 67,277 68,732
70,7666 71,444 80,75 82,102
84,1007 85,2326 86,165
##END=
