##TITLE=5-Hexen-3-one
##JCAMP-DX=4.24
##DATA TYPE=MASS SPECTRUM
##ORIGIN=CARL DJERASSI DEPT OF CHEM STANFORD UNIV STANFORD CALIF 94305
##OWNER=NIST Mass Spectrometry Data Center
Collection (C) 2014 copyright by the U.S. Secretary of Commerce
on behalf of the United States of America. All rights reserved.
##CAS REGISTRY NO=24253-30-3
##$NIST MASS SPEC NO=46251
##MOLFORM=C6 H10 O
##MW=98
##$NIST SOURCE=MSDC
##XUNITS=M/Z
##YUNITS=RELATIVE INTENSITY
##XFACTOR=1
##YFACTOR=1
##FIRSTX=27
##LASTX=99
##FIRSTY=1700
##MAXX=99
##MINX=27
##MAXY=9999
##MINY=100
##NPOINTS=14
##PEAK TABLE=(XY..XY)
27,1700 28,600 29,9999 30,200
39,2000 40,300 41,3700 42,400
57,9999 58,400 69,3400 70,200
98,1400 99,100
##END=
