##TITLE=Benzenemethanol, .alpha.-(bromomethyl)-
##JCAMP-DX=4.24
##DATA TYPE=MASS SPECTRUM
##OWNER=NIST Mass Spectrometry Data Center
Collection (C) 2014 copyright by the U.S. Secretary of Commerce
on behalf of the United States of America. All rights reserved.
##CAS REGISTRY NO=2425-28-7
##$NIST MASS SPEC NO=9015
##MOLFORM=C8 H9 Br O
##MW=200
##$NIST SOURCE=MSDC
##XUNITS=M/Z
##YUNITS=RELATIVE INTENSITY
##XFACTOR=1
##YFACTOR=1
##FIRSTX=14
##LASTX=204
##FIRSTY=10
##MAXX=204
##MINX=14
##MAXY=9999
##MINY=10
##NPOINTS=114
##PEAK TABLE=(XY..XY)
14,10 15,50 16,10 17,20
18,90 25,10 26,190 27,100
28,60 29,70 30,10 31,10
32,10 36,10 37,30 38,80
39,310 40,30 41,40 42,30
43,260 44,30 45,30 46,10
47,10 49,30 50,380 51,931
52,200 53,80 54,10 55,20
59,10 60,20 61,30 62,80
63,190 64,40 65,200 66,20
67,10 68,10 73,20 74,130
75,100 76,110 77,1882 78,530
79,3383 80,230 81,20 82,10
83,10 84,10 85,10 86,10
87,10 88,10 89,100 90,60
91,510 92,90 93,80 94,10
95,70 96,10 97,10 98,10
99,10 100,10 101,20 102,100
103,571 104,681 105,540 106,70
107,9999 108,781 109,40 110,10
115,10 117,10 118,10 119,30
120,1251 121,1281 122,20 123,60
124,10 125,40 126,20 127,10
128,10 129,10 135,20 148,20
149,40 154,10 155,10 156,10
158,10 169,10 171,10 182,10
183,430 184,50 185,420 186,40
199,10 200,480 201,40 202,470
203,38 204,10
##END=
