##TITLE=2-Naphthalenol, 1-[(4-methyl-2-nitrophenyl)azo]-
##JCAMP-DX=4.24
##DATA TYPE=MASS SPECTRUM
##ORIGIN=NIST Mass Spectrometry Data Center, 1998.
##OWNER=NIST Mass Spectrometry Data Center
Collection (C) 2014 copyright by the U.S. Secretary of Commerce
on behalf of the United States of America. All rights reserved.
##CAS REGISTRY NO=2425-85-6
##$NIST MASS SPEC NO=291161
##MOLFORM=C17 H13 N3 O3
##MW=307
##$NIST SOURCE=MSDC
##XUNITS=M/Z
##YUNITS=RELATIVE INTENSITY
##XFACTOR=1
##YFACTOR=1
##FIRSTX=27
##LASTX=308
##FIRSTY=290
##MAXX=308
##MINX=27
##MAXY=9999
##MINY=40
##NPOINTS=79
##PEAK TABLE=(XY..XY)
27,290 38,70 39,860 41,130
50,620 51,1470 52,1000 53,560
62,340 63,1020 64,480 65,1530
66,390 74,390 75,930 76,930
77,2550 78,1120 79,670 87,150
88,510 89,1250 90,330 91,690
92,380 93,150 94,350 100,40
101,1920 102,1790 103,770 104,910
105,360 106,860 113,620 114,1760
115,7479 116,810 121,340 122,340
127,360 128,2840 129,2430 130,1070
131,270 142,220 143,9999 144,1270
145,80 152,1350 156,370 159,820
160,40 171,2080 172,170 189,270
191,40 202,390 203,360 204,370
216,120 217,200 218,540 219,270
231,410 232,510 233,170 234,40
246,1060 247,170 260,410 261,80
274,240 275,2610 276,400 290,1680
291,370 307,2640 308,360
##END=
