##TITLE=Hydroperoxide, 1-methylpentyl
##JCAMP-DX=4.24
##DATA TYPE=MASS SPECTRUM
##ORIGIN=J.Polzer ET AL.J.Chromatogr.,653,283(1993)
##OWNER=NIST Mass Spectrometry Data Center
Collection (C) 2014 copyright by the U.S. Secretary of Commerce
on behalf of the United States of America. All rights reserved.
##CAS REGISTRY NO=24254-55-5
##$NIST MASS SPEC NO=281599
##MOLFORM=C6 H14 O2
##MW=118
##$NIST SOURCE=MSDC
##XUNITS=M/Z
##YUNITS=RELATIVE INTENSITY
##XFACTOR=1
##YFACTOR=1
##FIRSTX=19
##LASTX=101
##FIRSTY=170
##MAXX=101
##MINX=19
##MAXY=9999
##MINY=30
##NPOINTS=49
##PEAK TABLE=(XY..XY)
19,170 26,300 27,2172 28,510
29,2632 30,80 31,320 37,80
38,190 39,2212 40,350 41,4814
42,1732 43,9999 44,1621 45,9068
46,220 47,30 49,50 50,200
51,250 52,100 53,470 54,270
55,2462 56,1381 57,1682 58,1231
59,130 60,30 61,540 62,50
63,30 65,50 67,200 69,1431
70,80 71,130 72,30 73,30
82,30 83,120 84,991 85,1842
86,120 87,400 88,30 100,250
101,50
##END=
