##TITLE=Benzaldehyde, 3-methoxy-4-(phenylmethoxy)-
##JCAMP-DX=4.24
##DATA TYPE=MASS SPECTRUM
##ORIGIN=Japan AIST/NIMC Database- Spectrum MS-IW-7823
##OWNER=NIST Mass Spectrometry Data Center
Collection (C) 2014 copyright by the U.S. Secretary of Commerce
on behalf of the United States of America. All rights reserved.
##CAS REGISTRY NO=2426-87-1
##$NIST MASS SPEC NO=241507
##MOLFORM=C15 H14 O3
##MW=242
##$NIST SOURCE=MSDC
##XUNITS=M/Z
##YUNITS=RELATIVE INTENSITY
##XFACTOR=1
##YFACTOR=1
##FIRSTX=28
##LASTX=244
##FIRSTY=20
##MAXX=244
##MINX=28
##MAXY=9999
##MINY=10
##NPOINTS=40
##PEAK TABLE=(XY..XY)
28,20 38,10 39,90 41,60
50,20 51,109 52,50 53,10
62,10 63,80 64,30 65,599
66,30 67,10 76,10 77,60
78,10 79,60 80,30 89,90
90,50 91,9999 92,859 93,30
95,40 105,30 108,10 119,30
120,10 121,10 122,10 149,20
150,10 151,30 152,20 153,10
181,10 242,2279 243,379 244,40
##END=
