##TITLE=Oxirane, 2,2'-(1,4-butanediyl)bis-
##JCAMP-DX=4.24
##DATA TYPE=MASS SPECTRUM
##ORIGIN=Chuck Anderson, Aldrich Chemical Co.
##OWNER=NIST Mass Spectrometry Data Center
Collection (C) 2014 copyright by the U.S. Secretary of Commerce
on behalf of the United States of America. All rights reserved.
##CAS REGISTRY NO=2426-07-5
##$NIST MASS SPEC NO=108137
##MOLFORM=C8 H14 O2
##MW=142
##$NIST SOURCE=MSDC
##XUNITS=M/Z
##YUNITS=RELATIVE INTENSITY
##XFACTOR=1
##YFACTOR=1
##FIRSTX=14
##LASTX=124
##FIRSTY=99
##MAXX=124
##MINX=14
##MAXY=9999
##MINY=3
##NPOINTS=76
##PEAK TABLE=(XY..XY)
14,99 15,968 16,26 17,13
18,12 19,25 25,13 26,303
27,3680 28,1174 29,4340 30,274
31,3406 32,64 33,32 37,58
38,204 39,5274 40,1188 41,9999
42,5631 43,3488 44,858 45,872
46,27 49,6 50,168 51,338
52,209 53,2087 54,3049 55,4834
56,1490 57,2966 58,1346 59,133
60,26 61,72 62,21 63,42
65,396 66,473 67,3928 68,3186
69,3241 70,1682 71,2994 72,168
73,43 74,35 77,638 78,30
79,3708 80,439 81,2719 82,250
83,1572 84,1895 85,233 86,13
87,39 91,283 92,35 93,322
94,48 95,233 96,47 97,528
98,51 99,19 109,135 111,293
112,21 113,11 123,45 124,3
##END=
