##TITLE=2-Acetylthiazole
##JCAMP-DX=4.24
##DATA TYPE=MASS SPECTRUM
##ORIGIN=Chuck Anderson, Aldrich Chemical Co.
##OWNER=NIST Mass Spectrometry Data Center
Collection (C) 2014 copyright by the U.S. Secretary of Commerce
on behalf of the United States of America. All rights reserved.
##CAS REGISTRY NO=24295-03-2
##$NIST MASS SPEC NO=117985
##MOLFORM=C5 H5 N O S
##MW=127
##$NIST SOURCE=MSDC
##XUNITS=M/Z
##YUNITS=RELATIVE INTENSITY
##XFACTOR=1
##YFACTOR=1
##FIRSTX=13
##LASTX=129
##FIRSTY=35
##MAXX=129
##MINX=13
##MAXY=9999
##MINY=4
##NPOINTS=56
##PEAK TABLE=(XY..XY)
13,35 14,156 15,729 25,62
26,280 27,99 28,127 29,49
32,221 33,72 34,4 35,12
36,37 37,120 38,245 39,241
40,399 41,140 42,792 43,9999
44,381 45,995 46,70 47,52
49,8 50,47 51,172 52,227
53,39 54,211 56,157 57,1851
58,3008 59,601 60,154 61,21
68,28 69,59 70,104 71,49
72,73 82,130 83,344 84,1226
85,1597 86,348 87,79 99,3842
100,203 101,170 112,2198 113,121
114,117 127,3425 128,241 129,186
##END=
