##TITLE=Thiocyanic acid, 2-propynyl ester
##JCAMP-DX=4.24
##DATA TYPE=MASS SPECTRUM
##ORIGIN=NIST Mass Spectrometry Data Center, 1994
##OWNER=NIST Mass Spectrometry Data Center
Collection (C) 2014 copyright by the U.S. Secretary of Commerce
on behalf of the United States of America. All rights reserved.
##CAS REGISTRY NO=24309-48-6
##$NIST MASS SPEC NO=134740
##MOLFORM=C4 H3 N S
##MW=97
##$NIST SOURCE=MSDC
##XUNITS=M/Z
##YUNITS=RELATIVE INTENSITY
##XFACTOR=1
##YFACTOR=1
##FIRSTX=4
##LASTX=100
##FIRSTY=18
##MAXX=100
##MINX=4
##MAXY=9999
##MINY=18
##NPOINTS=48
##PEAK TABLE=(XY..XY)
4,18 12,125 13,68 14,66
24,93 25,255 26,467 27,254
28,181 32,872 33,58 34,69
35,58 36,388 37,2096 38,3135
39,9999 40,393 44,785 45,2486
46,271 47,154 49,23 50,85
51,250 52,248 53,100 56,76
57,121 58,997 59,243 60,71
62,65 63,69 64,135 65,22
68,341 69,1372 70,4476 71,806
72,316 73,37 94,88 95,59
97,6103 98,412 99,262 100,19
##END=
