##TITLE=cis-5-Dodecenoic acid
##JCAMP-DX=4.24
##DATA TYPE=MASS SPECTRUM
##ORIGIN=NIST Mass Spectrometry Data Center
##OWNER=NIST Mass Spectrometry Data Center
Collection (C) 2014 copyright by the U.S. Secretary of Commerce
on behalf of the United States of America. All rights reserved.
##CAS REGISTRY NO=2430-94-6
##$NIST MASS SPEC NO=333634
##MOLFORM=C12 H22 O2
##MW=198
##$NIST SOURCE=MSDC
##XUNITS=M/Z
##YUNITS=RELATIVE INTENSITY
##XFACTOR=1
##YFACTOR=1
##FIRSTX=15
##LASTX=199
##FIRSTY=10
##MAXX=199
##MINX=15
##MAXY=9999
##MINY=10
##NPOINTS=135
##PEAK TABLE=(XY..XY)
15,10 26,50 27,1151 28,300
29,1732 30,50 31,70 37,10
38,50 39,2132 40,370 41,6886
42,1631 43,4624 44,180 45,961
46,30 47,30 50,70 51,280
52,200 53,1702 54,4604 55,9999
56,3353 57,1842 58,290 59,230
60,2032 61,190 62,20 63,60
64,20 65,691 66,430 67,4614
68,3543 69,4744 70,1692 71,1051
72,90 73,1351 74,170 75,20
76,10 77,530 78,140 79,1531
80,691 81,4144 82,2542 83,3213
84,2903 85,1121 86,160 87,631
88,80 89,30 91,250 92,70
93,290 94,380 95,2002 96,3783
97,2772 98,1762 99,540 100,711
101,681 102,150 103,20 105,90
106,50 107,170 108,150 109,1371
110,2102 111,871 112,340 113,420
114,981 115,340 116,120 117,20
118,20 119,270 120,100 121,90
122,70 123,1131 124,550 125,270
126,130 127,460 128,110 129,90
130,270 131,30 132,20 133,300
134,100 135,30 136,751 137,801
138,1571 139,270 140,30 141,70
142,20 143,10 145,30 147,50
148,20 149,20 150,10 151,400
152,170 153,20 154,10 155,100
156,10 157,10 161,20 162,420
163,100 164,10 165,40 166,10
169,40 179,20 180,741 181,110
182,20 198,180 199,30
##END=
