##TITLE=4-n-Dodecylresorcinol
##JCAMP-DX=4.24
##DATA TYPE=MASS SPECTRUM
##ORIGIN=Japan AIST/NIMC Database- Spectrum MS-NW-6338
##OWNER=NIST Mass Spectrometry Data Center
Collection (C) 2014 copyright by the U.S. Secretary of Commerce
on behalf of the United States of America. All rights reserved.
##CAS REGISTRY NO=24305-56-4
##$NIST MASS SPEC NO=235204
##MOLFORM=C18 H30 O2
##MW=278
##$NIST SOURCE=MSDC
##XUNITS=M/Z
##YUNITS=RELATIVE INTENSITY
##XFACTOR=1
##YFACTOR=1
##FIRSTX=15
##LASTX=280
##FIRSTY=20
##MAXX=280
##MINX=15
##MAXY=9999
##MINY=10
##NPOINTS=78
##PEAK TABLE=(XY..XY)
15,20 26,20 27,529 28,119
29,1069 30,20 38,10 39,429
40,90 41,1729 42,249 43,1389
44,40 50,30 51,119 52,60
53,219 54,60 55,469 56,90
57,269 58,10 63,50 64,20
65,229 66,189 67,499 68,50
69,249 70,20 71,30 75,10
76,20 77,349 78,60 79,129
80,40 81,119 82,40 83,20
85,10 89,20 90,20 91,129
92,20 93,30 94,159 95,349
96,30 97,20 103,40 104,10
105,30 106,10 107,139 108,30
109,30 110,139 111,50 112,10
115,30 119,30 120,10 121,70
122,30 123,9999 124,619 125,80
131,20 133,20 135,30 136,299
137,109 138,20 277,10 278,1479
279,229 280,40
##END=
