##TITLE=Heptanoic acid, 2-acetyl-, ethyl ester
##JCAMP-DX=4.24
##DATA TYPE=MASS SPECTRUM
##ORIGIN=Japan AIST/NIMC Database- Spectrum MS-NW-5159
##OWNER=NIST Mass Spectrometry Data Center
Collection (C) 2014 copyright by the U.S. Secretary of Commerce
on behalf of the United States of America. All rights reserved.
##CAS REGISTRY NO=24317-94-0
##$NIST MASS SPEC NO=232514
##MOLFORM=C11 H20 O3
##MW=200
##$NIST SOURCE=MSDC
##XUNITS=M/Z
##YUNITS=RELATIVE INTENSITY
##XFACTOR=1
##YFACTOR=1
##FIRSTX=14
##LASTX=201
##FIRSTY=40
##MAXX=201
##MINX=14
##MAXY=9999
##MINY=10
##NPOINTS=125
##PEAK TABLE=(XY..XY)
14,40 15,509 16,10 17,20
18,70 26,149 27,1589 28,219
29,2289 30,50 31,539 32,20
37,10 38,30 39,669 40,139
41,1579 42,319 43,9999 44,259
45,549 46,90 47,20 50,20
51,60 52,30 53,199 54,90
55,1859 56,339 57,209 58,519
59,139 60,219 61,169 62,10
63,10 65,30 66,20 67,139
68,749 69,629 70,289 71,699
72,99 73,4879 74,279 75,60
77,40 79,50 80,10 81,119
82,50 83,509 84,1069 85,729
86,209 87,639 88,419 89,109
90,10 91,20 93,60 94,80
95,70 96,30 97,689 98,80
99,259 100,40 101,7399 102,1379
103,289 104,20 105,10 107,30
108,20 109,50 110,30 111,549
112,399 113,589 114,60 115,2679
116,259 117,50 118,10 121,20
123,20 124,10 125,80 126,269
127,50 128,50 129,759 130,4249
131,439 132,40 136,20 137,10
139,99 140,10 141,20 143,679
144,90 145,10 146,10 153,30
154,50 155,929 156,119 157,159
158,2899 159,309 160,30 171,129
172,50 173,20 174,70 185,40
186,10 197,10 199,10 200,99
201,20
##END=
