##TITLE=Propanethioic acid, S-propyl ester
##JCAMP-DX=4.24
##DATA TYPE=MASS SPECTRUM
##ORIGIN=W. UTILIZATION R & D DIV., U.S. DEPT. OF AGRIC., ALBANY, CAL.
##OWNER=NIST Mass Spectrometry Data Center
Collection (C) 2014 copyright by the U.S. Secretary of Commerce
on behalf of the United States of America. All rights reserved.
##CAS REGISTRY NO=2432-43-1
##$NIST MASS SPEC NO=25804
##MOLFORM=C6 H12 O S
##MW=132
##$NIST SOURCE=MSDC
##XUNITS=M/Z
##YUNITS=RELATIVE INTENSITY
##XFACTOR=1
##YFACTOR=1
##FIRSTX=27
##LASTX=134
##FIRSTY=888
##MAXX=134
##MINX=27
##MAXY=9999
##MINY=38
##NPOINTS=32
##PEAK TABLE=(XY..XY)
27,888 28,448 29,2911 30,87
39,478 40,71 41,1132 42,331
43,1121 44,38 45,384 46,218
47,523 55,109 56,433 57,9999
58,489 59,150 60,71 61,173
71,38 72,90 73,49 74,489
75,147 90,128 91,102 99,38
103,71 132,2211 133,135 134,105
##END=
