##TITLE=Butanethioic acid, S-methyl ester
##JCAMP-DX=4.24
##DATA TYPE=MASS SPECTRUM
##ORIGIN=W. UTILIZATION R & D DIV., U.S. DEPT. OF AGRIC., ALBANY, CAL.
##OWNER=NIST Mass Spectrometry Data Center
Collection (C) 2014 copyright by the U.S. Secretary of Commerce
on behalf of the United States of America. All rights reserved.
##CAS REGISTRY NO=2432-51-1
##$NIST MASS SPEC NO=25797
##MOLFORM=C5 H10 O S
##MW=118
##$NIST SOURCE=MSDC
##XUNITS=M/Z
##YUNITS=RELATIVE INTENSITY
##XFACTOR=1
##YFACTOR=1
##FIRSTX=27
##LASTX=120
##FIRSTY=1803
##MAXX=120
##MINX=27
##MAXY=9999
##MINY=27
##NPOINTS=35
##PEAK TABLE=(XY..XY)
27,1803 28,190 29,144 35,51
39,793 40,93 41,3644 42,517
43,9999 44,268 45,501 46,214
47,754 48,346 49,117 55,404
56,31 57,35 58,51 59,47
60,27 61,167 69,43 70,70
71,3644 72,128 75,548 76,27
77,35 103,839 104,39 105,47
118,1535 119,51 120,51
##END=
