##TITLE=Propanethioic acid, S-butyl ester
##JCAMP-DX=4.24
##DATA TYPE=MASS SPECTRUM
##ORIGIN=W. UTILIZATION R & D DIV., U.S. DEPT. OF AGRIC., ALBANY, CAL.
##OWNER=NIST Mass Spectrometry Data Center
Collection (C) 2014 copyright by the U.S. Secretary of Commerce
on behalf of the United States of America. All rights reserved.
##CAS REGISTRY NO=2432-44-2
##$NIST MASS SPEC NO=25811
##MOLFORM=C7 H14 O S
##MW=146
##$NIST SOURCE=MSDC
##XUNITS=M/Z
##YUNITS=RELATIVE INTENSITY
##XFACTOR=1
##YFACTOR=1
##FIRSTX=27
##LASTX=148
##FIRSTY=597
##MAXX=148
##MINX=27
##MAXY=9999
##MINY=23
##NPOINTS=35
##PEAK TABLE=(XY..XY)
27,597 28,106 29,2669 30,76
35,40 39,278 40,23 41,859
42,99 43,152 45,215 46,133
47,368 53,73 54,46 55,365
56,607 57,9999 58,411 59,126
60,93 61,149 71,27 72,60
73,43 75,56 86,278 88,96
89,70 90,133 91,491 117,305
146,1124 147,76 148,56
##END=
