##TITLE=Ethanethioic acid, S-pentyl ester
##JCAMP-DX=4.24
##DATA TYPE=MASS SPECTRUM
##ORIGIN=W. UTILIZATION R & D DIV., U.S. DEPT. OF AGRIC., ALBANY, CAL.
##OWNER=NIST Mass Spectrometry Data Center
Collection (C) 2014 copyright by the U.S. Secretary of Commerce
on behalf of the United States of America. All rights reserved.
##CAS REGISTRY NO=2432-32-8
##$NIST MASS SPEC NO=25808
##MOLFORM=C7 H14 O S
##MW=146
##$NIST SOURCE=MSDC
##XUNITS=M/Z
##YUNITS=RELATIVE INTENSITY
##XFACTOR=1
##YFACTOR=1
##FIRSTX=27
##LASTX=148
##FIRSTY=413
##MAXX=148
##MINX=27
##MAXY=9999
##MINY=35
##NPOINTS=47
##PEAK TABLE=(XY..XY)
27,413 28,161 29,487 35,49
39,445 40,84 41,1582 42,802
43,9999 44,277 45,305 46,154
47,403 53,112 54,46 55,693
56,81 57,91 58,123 59,196
60,154 61,326 67,88 68,98
69,746 70,1670 71,284 72,368
73,70 74,60 75,67 76,312
77,487 85,98 86,774 87,130
95,81 99,112 102,245 103,1096
104,200 112,35 113,77 128,74
146,837 147,74 148,49
##END=
