##TITLE=Ethanethioic acid, S-(1-methylpropyl) ester
##JCAMP-DX=4.24
##DATA TYPE=MASS SPECTRUM
##ORIGIN=W. UTILIZATION R & D DIV., U.S. DEPT. OF AGRIC., ALBANY, CAL.
##OWNER=NIST Mass Spectrometry Data Center
Collection (C) 2014 copyright by the U.S. Secretary of Commerce
on behalf of the United States of America. All rights reserved.
##CAS REGISTRY NO=2432-39-5
##$NIST MASS SPEC NO=25803
##MOLFORM=C6 H12 O S
##MW=132
##$NIST SOURCE=MSDC
##XUNITS=M/Z
##YUNITS=RELATIVE INTENSITY
##XFACTOR=1
##YFACTOR=1
##FIRSTX=27
##LASTX=134
##FIRSTY=512
##MAXX=134
##MINX=27
##MAXY=9999
##MINY=29
##NPOINTS=41
##PEAK TABLE=(XY..XY)
27,512 29,1234 35,108 39,747
40,101 41,2819 42,267 43,9999
44,256 45,415 46,83 47,303
53,202 54,61 55,917 56,2422
57,2234 58,271 59,693 60,552
61,1332 62,76 63,65 71,79
72,155 73,97 74,94 75,346
76,819 77,1393 78,90 79,79
88,606 89,458 90,390 99,253
103,325 117,29 132,2718 133,162
134,126
##END=
