##TITLE=Ethanethioic acid, S-(2-methylpropyl) ester
##JCAMP-DX=4.24
##DATA TYPE=MASS SPECTRUM
##ORIGIN=W. UTILIZATION R & D DIV., U.S. DEPT. OF AGRIC., ALBANY, CAL.
##OWNER=NIST Mass Spectrometry Data Center
Collection (C) 2014 copyright by the U.S. Secretary of Commerce
on behalf of the United States of America. All rights reserved.
##CAS REGISTRY NO=2432-37-3
##$NIST MASS SPEC NO=25802
##MOLFORM=C6 H12 O S
##MW=132
##$NIST SOURCE=MSDC
##XUNITS=M/Z
##YUNITS=RELATIVE INTENSITY
##XFACTOR=1
##YFACTOR=1
##FIRSTX=27
##LASTX=134
##FIRSTY=321
##MAXX=134
##MINX=27
##MAXY=9999
##MINY=53
##NPOINTS=35
##PEAK TABLE=(XY..XY)
27,321 29,414 39,639 40,83
41,1593 42,229 43,9999 44,258
45,361 46,209 47,401 48,142
49,66 53,116 55,546 56,1606
57,1742 58,156 59,172 60,53
61,99 71,73 73,60 74,129
75,321 76,185 77,166 88,116
89,232 90,139 99,1093 117,73
132,1172 133,66 134,56
##END=
