##TITLE=Acetic acid, thio-, S-1-methylbutyl ester
##JCAMP-DX=4.24
##DATA TYPE=MASS SPECTRUM
##ORIGIN=W. UTILIZATION R & D DIV., U.S. DEPT. OF AGRIC., ALBANY, CAL.
##OWNER=NIST Mass Spectrometry Data Center
Collection (C) 2014 copyright by the U.S. Secretary of Commerce
on behalf of the United States of America. All rights reserved.
##CAS REGISTRY NO=2432-40-8
##$NIST MASS SPEC NO=25810
##MOLFORM=C7 H14 O S
##MW=146
##$NIST SOURCE=MSDC
##XUNITS=M/Z
##YUNITS=RELATIVE INTENSITY
##XFACTOR=1
##YFACTOR=1
##FIRSTX=27
##LASTX=148
##FIRSTY=426
##MAXX=148
##MINX=27
##MAXY=9999
##MINY=13
##NPOINTS=46
##PEAK TABLE=(XY..XY)
27,426 29,540 35,65 39,550
40,69 41,1905 42,719 43,9999
44,275 45,354 46,76 47,364
53,199 54,69 55,1702 56,107
57,76 58,117 59,388 60,251
61,894 67,69 69,358 70,3596
71,1066 72,1238 73,210 74,316
75,994 76,437 77,1526 78,72
79,79 85,100 86,96 89,110
102,158 103,499 104,189 113,117
117,196 128,13 131,17 146,1526
147,83 148,65
##END=
