##TITLE=Propanethioic acid, S-(1-methylethyl) ester
##JCAMP-DX=4.24
##DATA TYPE=MASS SPECTRUM
##ORIGIN=W. UTILIZATION R & D DIV., U.S. DEPT. OF AGRIC., ALBANY, CAL.
##OWNER=NIST Mass Spectrometry Data Center
Collection (C) 2014 copyright by the U.S. Secretary of Commerce
on behalf of the United States of America. All rights reserved.
##CAS REGISTRY NO=2432-47-5
##$NIST MASS SPEC NO=25805
##MOLFORM=C6 H12 O S
##MW=132
##$NIST SOURCE=MSDC
##XUNITS=M/Z
##YUNITS=RELATIVE INTENSITY
##XFACTOR=1
##YFACTOR=1
##FIRSTX=27
##LASTX=134
##FIRSTY=924
##MAXX=134
##MINX=27
##MAXY=9999
##MINY=21
##NPOINTS=36
##PEAK TABLE=(XY..XY)
27,924 28,334 29,2483 30,74
35,46 39,615 40,91 41,1904
42,302 43,2638 44,74 45,235
46,53 47,270 49,77 55,98
56,464 57,9999 58,499 59,509
60,214 61,404 71,60 72,277
73,74 74,450 75,221 76,81
89,49 90,509 91,140 103,42
117,21 132,2753 133,158 134,130
##END=
