##TITLE=[1,1':3',1''-Terphenyl]-2'-ol
##JCAMP-DX=4.24
##DATA TYPE=MASS SPECTRUM
##ORIGIN=Japan AIST/NIMC Database- Spectrum MS-NW-8797
##OWNER=NIST Mass Spectrometry Data Center
Collection (C) 2014 copyright by the U.S. Secretary of Commerce
on behalf of the United States of America. All rights reserved.
##CAS REGISTRY NO=2432-11-3
##$NIST MASS SPEC NO=238687
##MOLFORM=C18 H14 O
##MW=246
##$NIST SOURCE=MSDC
##XUNITS=M/Z
##YUNITS=RELATIVE INTENSITY
##XFACTOR=1
##YFACTOR=1
##FIRSTX=18
##LASTX=249
##FIRSTY=20
##MAXX=249
##MINX=18
##MAXY=9999
##MINY=10
##NPOINTS=110
##PEAK TABLE=(XY..XY)
18,20 27,10 28,20 39,60
50,20 51,70 52,20 62,20
63,90 64,10 65,50 69,10
74,20 75,40 76,60 77,109
78,20 81,30 82,50 83,10
86,10 87,30 88,70 89,109
90,10 91,30 93,20 94,209
95,90 96,20 100,30 101,159
102,70 103,40 106,90 107,179
108,109 109,50 110,10 113,70
114,40 115,329 116,50 121,40
122,60 123,309 126,20 127,10
128,10 138,10 139,179 140,50
141,119 142,10 150,20 151,30
152,50 153,10 163,40 164,20
165,90 166,10 167,10 168,149
169,149 170,20 176,40 177,20
178,50 179,10 181,20 187,30
188,30 189,159 190,50 191,70
192,20 200,30 201,50 202,779
203,349 204,50 205,20 207,10
211,10 213,119 214,50 215,709
216,259 217,709 218,419 219,80
220,30 224,20 225,30 226,359
227,549 228,139 229,80 230,30
231,99 232,20 242,20 243,40
244,169 245,1809 246,9999 247,1939
248,199 249,10
##END=
