##TITLE=Butanethioic acid, S-butyl ester
##JCAMP-DX=4.24
##DATA TYPE=MASS SPECTRUM
##ORIGIN=W. UTILIZATION R & D DIV., U.S. DEPT. OF AGRIC., ALBANY, CAL.
##OWNER=NIST Mass Spectrometry Data Center
Collection (C) 2014 copyright by the U.S. Secretary of Commerce
on behalf of the United States of America. All rights reserved.
##CAS REGISTRY NO=2432-52-2
##$NIST MASS SPEC NO=25821
##MOLFORM=C8 H16 O S
##MW=160
##$NIST SOURCE=MSDC
##XUNITS=M/Z
##YUNITS=RELATIVE INTENSITY
##XFACTOR=1
##YFACTOR=1
##FIRSTX=28
##LASTX=162
##FIRSTY=120
##MAXX=162
##MINX=28
##MAXY=9999
##MINY=22
##NPOINTS=37
##PEAK TABLE=(XY..XY)
28,120 29,531 39,441 40,49
41,2027 42,293 43,6210 44,210
45,179 46,117 47,376 53,74
54,43 55,537 56,336 57,395
58,68 59,102 60,83 61,157
69,22 70,167 71,9999 72,518
73,74 75,43 76,68 88,62
89,74 90,49 100,213 103,83
105,537 117,259 160,1465 161,114
162,62
##END=
