##TITLE=Hexanethioic acid, S-methyl ester
##JCAMP-DX=4.24
##DATA TYPE=MASS SPECTRUM
##ORIGIN=W. UTILIZATION R & D DIV., U.S. DEPT. OF AGRIC., ALBANY, CAL.
##OWNER=NIST Mass Spectrometry Data Center
Collection (C) 2014 copyright by the U.S. Secretary of Commerce
on behalf of the United States of America. All rights reserved.
##CAS REGISTRY NO=2432-77-1
##$NIST MASS SPEC NO=25815
##MOLFORM=C7 H14 O S
##MW=146
##$NIST SOURCE=MSDC
##XUNITS=M/Z
##YUNITS=RELATIVE INTENSITY
##XFACTOR=1
##YFACTOR=1
##FIRSTX=27
##LASTX=146
##FIRSTY=679
##MAXX=146
##MINX=27
##MAXY=9999
##MINY=37
##NPOINTS=32
##PEAK TABLE=(XY..XY)
27,679 28,371 29,949 35,42
39,562 40,83 41,2506 42,645
43,9999 44,237 45,258 46,100
47,612 48,117 49,67 53,133
55,1728 56,129 57,100 61,146
69,154 70,183 71,5358 72,212
75,654 81,100 90,150 99,4683
100,175 103,37 131,2094 146,54
##END=
