##TITLE=Ethanethioic acid, S-(3-methylbutyl) ester
##JCAMP-DX=4.24
##DATA TYPE=MASS SPECTRUM
##ORIGIN=W. UTILIZATION R & D DIV., U.S. DEPT. OF AGRIC., ALBANY, CAL.
##OWNER=NIST Mass Spectrometry Data Center
Collection (C) 2014 copyright by the U.S. Secretary of Commerce
on behalf of the United States of America. All rights reserved.
##CAS REGISTRY NO=2432-38-4
##$NIST MASS SPEC NO=25809
##MOLFORM=C7 H14 O S
##MW=146
##$NIST SOURCE=MSDC
##XUNITS=M/Z
##YUNITS=RELATIVE INTENSITY
##XFACTOR=1
##YFACTOR=1
##FIRSTX=27
##LASTX=148
##FIRSTY=410
##MAXX=148
##MINX=27
##MAXY=9999
##MINY=25
##NPOINTS=40
##PEAK TABLE=(XY..XY)
27,410 29,413 35,56 39,501
40,67 41,1833 42,547 43,9999
44,273 45,294 46,172 47,498
53,190 54,77 55,1808 56,245
57,420 58,119 59,235 60,168
61,806 67,81 68,91 69,1447
70,4159 71,568 72,81 76,308
77,214 86,3651 87,259 89,291
90,77 102,105 103,568 104,77
131,42 146,445 147,31 148,25
##END=
