##TITLE=s-Ethyl thiopropionate
##JCAMP-DX=4.24
##DATA TYPE=MASS SPECTRUM
##ORIGIN=NIST Mass Spectrometry Data Center
##OWNER=NIST Mass Spectrometry Data Center
Collection (C) 2014 copyright by the U.S. Secretary of Commerce
on behalf of the United States of America. All rights reserved.
##CAS REGISTRY NO=2432-42-0
##$NIST MASS SPEC NO=333666
##MOLFORM=C5 H10 O S
##MW=118
##$NIST SOURCE=MSDC
##XUNITS=M/Z
##YUNITS=RELATIVE INTENSITY
##XFACTOR=1
##YFACTOR=1
##FIRSTX=14
##LASTX=121
##FIRSTY=10
##MAXX=121
##MINX=14
##MAXY=9999
##MINY=10
##NPOINTS=56
##PEAK TABLE=(XY..XY)
14,10 15,20 25,20 26,300
27,1461 28,430 29,3193 30,80
31,10 32,30 33,40 34,40
35,220 36,10 37,20 38,10
39,30 41,30 42,90 43,40
44,20 45,611 46,300 47,440
48,20 49,20 53,40 54,10
55,190 56,581 57,9999 58,891
59,500 60,260 61,811 62,240
63,60 64,10 68,10 69,40
70,10 71,50 72,100 73,30
74,20 75,110 76,10 77,10
89,420 90,70 91,20 103,10
118,5345 119,400 120,270 121,20
##END=
