##TITLE=Decanedioic acid, didecyl ester
##JCAMP-DX=4.24
##DATA TYPE=MASS SPECTRUM
##ORIGIN=NIST Mass Spectrometry Data Center
##OWNER=NIST Mass Spectrometry Data Center
Collection (C) 2014 copyright by the U.S. Secretary of Commerce
on behalf of the United States of America. All rights reserved.
##CAS REGISTRY NO=2432-89-5
##$NIST MASS SPEC NO=341174
##MOLFORM=C30 H58 O4
##MW=482
##$NIST SOURCE=MSDC
##XUNITS=M/Z
##YUNITS=RELATIVE INTENSITY
##XFACTOR=1
##YFACTOR=1
##FIRSTX=26
##LASTX=383
##FIRSTY=10
##MAXX=383
##MINX=26
##MAXY=9999
##MINY=10
##NPOINTS=167
##PEAK TABLE=(XY..XY)
26,10 27,130 29,370 30,10
31,10 39,200 41,1942 42,721
43,3823 44,170 45,50 51,10
52,10 53,150 54,410 55,4444
56,2072 57,4524 58,230 59,100
60,210 61,230 65,30 66,30
67,621 68,571 69,2562 70,1571
71,1631 72,100 73,410 74,30
75,10 77,20 78,10 79,170
80,100 81,581 82,581 83,1982
84,1181 85,1441 86,130 87,250
88,20 91,40 92,10 93,200
94,100 95,480 96,460 97,2052
98,1942 99,340 100,90 101,480
102,50 103,10 104,10 105,20
106,20 107,130 108,30 109,160
110,230 111,841 112,561 113,110
114,60 115,260 116,100 117,20
119,210 120,90 121,761 122,110
123,100 124,420 125,1401 126,150
127,50 128,40 129,190 130,140
131,140 132,10 133,10 135,20
136,30 137,280 138,961 139,1311
140,571 141,130 142,80 143,1782
144,150 145,10 147,70 148,160
149,140 150,20 151,30 153,10
154,10 155,50 156,40 157,200
158,180 159,170 160,10 164,20
165,120 166,941 167,320 168,50
169,150 170,30 171,10 182,30
183,100 184,80 185,9999 186,1091
187,110 195,20 197,20 199,10
200,90 201,60 203,40 211,10
213,50 222,10 227,20 239,10
240,20 241,80 242,10 243,10
253,30 254,10 255,10 267,10
268,30 269,20 270,70 271,10
281,10 282,30 283,771 284,140
285,10 295,10 296,270 297,60
298,140 299,30 323,20 324,50
325,4104 326,871 327,120 328,10
343,290 344,60 383,10
##END=
