##TITLE=Propanethioic acid, S-(2-methylpropyl) ester
##JCAMP-DX=4.24
##DATA TYPE=MASS SPECTRUM
##ORIGIN=W. UTILIZATION R & D DIV., U.S. DEPT. OF AGRIC., ALBANY, CAL.
##OWNER=NIST Mass Spectrometry Data Center
Collection (C) 2014 copyright by the U.S. Secretary of Commerce
on behalf of the United States of America. All rights reserved.
##CAS REGISTRY NO=2432-48-6
##$NIST MASS SPEC NO=25812
##MOLFORM=C7 H14 O S
##MW=146
##$NIST SOURCE=MSDC
##XUNITS=M/Z
##YUNITS=RELATIVE INTENSITY
##XFACTOR=1
##YFACTOR=1
##FIRSTX=26
##LASTX=148
##FIRSTY=39
##MAXX=148
##MINX=26
##MAXY=9999
##MINY=39
##NPOINTS=37
##PEAK TABLE=(XY..XY)
26,39 27,477 28,214 29,2158
30,59 39,388 40,59 41,1046
42,125 43,437 45,204 46,118
47,234 48,53 53,79 54,39
55,359 56,559 57,9999 58,437
59,99 60,49 61,99 71,59
72,62 73,76 74,53 75,72
88,40 89,66 90,122 91,184
113,319 131,43 146,1460 147,82
148,59
##END=
