##TITLE=Tricosanoic acid, methyl ester
##JCAMP-DX=4.24
##DATA TYPE=MASS SPECTRUM
##ORIGIN=NIST Mass Spectrometry Data Center
##OWNER=NIST Mass Spectrometry Data Center
Collection (C) 2014 copyright by the U.S. Secretary of Commerce
on behalf of the United States of America. All rights reserved.
##CAS REGISTRY NO=2433-97-8
##$NIST MASS SPEC NO=352402
##MOLFORM=C24 H48 O2
##MW=368
##$NIST SOURCE=MSDC
##XUNITS=M/Z
##YUNITS=RELATIVE INTENSITY
##XFACTOR=1
##YFACTOR=1
##FIRSTX=15
##LASTX=371
##FIRSTY=40
##MAXX=371
##MINX=15
##MAXY=9999
##MINY=10
##NPOINTS=180
##PEAK TABLE=(XY..XY)
15,40 26,10 27,160 28,60
29,581 30,20 31,20 33,10
38,10 39,190 40,50 41,1992
42,470 43,4154 44,150 45,80
51,10 52,10 53,120 54,210
55,3023 56,651 57,2913 58,180
59,701 60,40 61,30 65,20
66,20 67,390 68,210 69,1872
70,380 71,1211 72,80 73,240
74,9999 75,3273 76,140 77,30
78,10 79,100 80,40 81,380
82,180 83,1341 84,440 85,671
87,7757 88,631 89,50 91,20
92,10 93,90 94,30 95,340
96,160 97,1151 98,440 99,140
100,30 101,691 102,70 103,10
105,10 107,90 108,20 109,190
110,80 111,490 112,120 113,80
114,20 115,280 116,150 117,10
119,10 121,130 122,20 123,110
124,40 125,240 126,40 127,40
129,881 130,250 131,20 133,10
135,120 136,20 137,50 138,30
139,130 140,30 141,30 143,2642
144,250 145,20 149,80 150,10
151,20 152,20 153,70 154,20
155,10 157,240 158,40 163,50
164,10 165,10 166,10 167,40
168,10 169,10 171,140 172,40
177,20 180,10 181,30 182,10
183,10 185,340 186,70 187,10
191,20 194,10 195,20 196,10
199,480 200,70 201,10 205,10
209,10 210,10 213,160 214,30
219,10 223,10 224,10 227,120
228,30 233,10 237,10 238,10
241,120 242,30 251,10 255,150
256,40 257,10 265,10 269,370
270,70 271,10 283,210 284,40
285,10 292,10 293,10 294,10
297,70 298,20 311,140 312,40
313,10 319,10 325,901 326,210
327,30 334,10 335,10 336,10
337,220 338,50 339,140 340,40
368,1792 369,470 370,70 371,10
##END=
