##TITLE=Tricosanoic acid
##JCAMP-DX=4.24
##DATA TYPE=MASS SPECTRUM
##ORIGIN=NIST Mass Spectrometry Data Center, 1994
##OWNER=NIST Mass Spectrometry Data Center
Collection (C) 2014 copyright by the U.S. Secretary of Commerce
on behalf of the United States of America. All rights reserved.
##CAS REGISTRY NO=2433-96-7
##$NIST MASS SPEC NO=136195
##MOLFORM=C23 H46 O2
##MW=354
##$NIST SOURCE=MSDC
##XUNITS=M/Z
##YUNITS=RELATIVE INTENSITY
##XFACTOR=1
##YFACTOR=1
##FIRSTX=27
##LASTX=357
##FIRSTY=252
##MAXX=357
##MINX=27
##MAXY=9999
##MINY=19
##NPOINTS=93
##PEAK TABLE=(XY..XY)
27,252 29,1644 39,874 40,345
41,6885 42,1846 43,9999 44,428
45,117 53,380 54,647 55,7087
56,1908 57,6750 58,384 59,117
60,6324 61,2048 67,789 68,639
69,3786 70,1127 71,3695 72,384
73,6222 74,336 79,288 81,626
82,658 83,2886 84,1187 85,2180
86,258 87,2340 88,371 95,509
96,608 97,2581 98,1207 99,920
100,258 101,850 102,418 109,322
110,316 111,1152 112,385 113,483
114,316 115,1342 116,1121 121,210
123,235 124,243 125,585 126,210
127,398 128,210 129,3547 130,609
135,172 139,407 141,285 143,1127
144,293 153,195 155,229 157,774
158,323 171,1106 172,494 185,2379
186,478 199,1171 200,272 211,198
213,796 227,807 228,210 241,1070
242,274 255,1773 256,299 269,785
270,171 283,424 297,761 311,2198
312,487 354,7523 355,1907 356,233
357,19
##END=
