##TITLE=[1,1'-Bicyclohexyl]-4-ol
##JCAMP-DX=4.24
##DATA TYPE=MASS SPECTRUM
##OWNER=NIST Mass Spectrometry Data Center
Collection (C) 2014 copyright by the U.S. Secretary of Commerce
on behalf of the United States of America. All rights reserved.
##CAS REGISTRY NO=2433-14-9
##$NIST MASS SPEC NO=7598
##MOLFORM=C12 H22 O
##MW=182
##$NIST SOURCE=MSDC
##XUNITS=M/Z
##YUNITS=RELATIVE INTENSITY
##XFACTOR=1
##YFACTOR=1
##FIRSTX=36
##LASTX=182
##FIRSTY=10
##MAXX=182
##MINX=36
##MAXY=9999
##MINY=10
##NPOINTS=105
##PEAK TABLE=(XY..XY)
36,10 38,20 39,941 40,160
41,3283 42,280 43,981 44,300
45,150 46,20 47,20 49,20
50,20 51,130 52,80 53,731
54,1471 55,5585 56,410 57,1061
58,110 59,80 62,10 63,60
64,10 65,240 66,310 67,5125
68,971 69,1411 70,340 71,110
72,40 73,10 74,10 75,10
76,10 77,410 78,140 79,1431
80,3173 81,9499 82,9999 83,6075
84,390 85,50 89,10 91,360
92,80 93,530 94,671 95,911
96,1952 97,1732 98,200 99,140
100,30 101,20 102,10 103,50
104,220 105,20 106,20 107,601
109,921 110,150 111,40 115,60
116,20 117,110 118,80 119,30
120,30 121,891 122,991 123,410
124,80 125,110 126,10 127,10
128,30 129,70 130,90 131,20
132,10 133,20 134,20 135,931
136,330 137,30 138,50 139,10
143,110 144,20 149,550 150,70
151,20 153,20 156,20 163,100
164,7457 165,1041 166,80 181,20
182,40
##END=
