##TITLE=1-Phenanthrenol
##JCAMP-DX=4.24
##DATA TYPE=MASS SPECTRUM
##ORIGIN=Japan AIST/NIMC Database- Spectrum MS-NW-4525
##OWNER=NIST Mass Spectrometry Data Center
Collection (C) 2014 copyright by the U.S. Secretary of Commerce
on behalf of the United States of America. All rights reserved.
##CAS REGISTRY NO=2433-56-9
##$NIST MASS SPEC NO=233421
##MOLFORM=C14 H10 O
##MW=194
##$NIST SOURCE=MSDC
##XUNITS=M/Z
##YUNITS=RELATIVE INTENSITY
##XFACTOR=1
##YFACTOR=1
##FIRSTX=27
##LASTX=197
##FIRSTY=30
##MAXX=197
##MINX=27
##MAXY=9999
##MINY=10
##NPOINTS=98
##PEAK TABLE=(XY..XY)
27,30 28,10 29,10 37,10
38,20 39,119 43,10 50,80
51,90 52,20 53,20 54,10
55,40 56,20 57,20 61,40
62,119 63,199 64,30 65,40
67,10 68,30 69,359 70,119
71,10 73,20 74,119 75,159
76,70 77,40 79,10 81,389
82,979 83,269 84,90 85,30
86,99 87,179 88,159 89,99
94,10 96,70 97,899 98,80
99,40 100,20 101,20 102,30
109,20 110,40 111,40 112,20
113,99 114,30 115,159 116,10
122,20 123,10 126,60 127,40
128,20 135,10 136,10 137,80
138,80 139,439 140,80 141,20
142,10 145,10 149,20 150,60
151,40 152,20 153,10 161,30
162,90 163,689 164,589 165,6259
166,1819 167,189 168,20 173,10
174,30 175,50 176,70 177,10
178,20 179,20 189,10 190,10
192,30 193,309 194,9999 195,1569
196,139 197,10
##END=
