##TITLE=5,6-Dihydro-6-methyluracil
##JCAMP-DX=4.24
##DATA TYPE=MASS SPECTRUM
##ORIGIN=NIST Mass Spectrometry Data Center, 1994
##OWNER=NIST Mass Spectrometry Data Center
Collection (C) 2014 copyright by the U.S. Secretary of Commerce
on behalf of the United States of America. All rights reserved.
##CAS REGISTRY NO=2434-49-3
##$NIST MASS SPEC NO=136349
##MOLFORM=C5 H8 N2 O2
##MW=128
##$NIST SOURCE=MSDC
##XUNITS=M/Z
##YUNITS=RELATIVE INTENSITY
##XFACTOR=1
##YFACTOR=1
##FIRSTX=14
##LASTX=129
##FIRSTY=191
##MAXX=129
##MINX=14
##MAXY=9999
##MINY=23
##NPOINTS=42
##PEAK TABLE=(XY..XY)
14,191 15,1185 16,222 18,63
25,51 26,563 27,1622 28,5469
30,172 35,29 37,200 38,439
39,1947 40,1529 41,3374 42,9293
43,6361 44,3162 45,78 51,100
52,188 53,93 54,200 55,80
56,511 57,503 58,36 59,151
67,39 68,244 70,8249 71,322
83,23 84,298 85,167 100,29
112,923 113,9999 114,515 115,63
128,1513 129,111
##END=
