##TITLE=Tetrabromo-1,2-benzoquinone
##JCAMP-DX=4.24
##DATA TYPE=MASS SPECTRUM
##ORIGIN=Japan AIST/NIMC Database- Spectrum MS-NW-6889
##OWNER=NIST Mass Spectrometry Data Center
Collection (C) 2014 copyright by the U.S. Secretary of Commerce
on behalf of the United States of America. All rights reserved.
##CAS REGISTRY NO=2435-54-3
##$NIST MASS SPEC NO=235577
##MOLFORM=C6 Br4 O2
##MW=420
##$NIST SOURCE=MSDC
##XUNITS=M/Z
##YUNITS=RELATIVE INTENSITY
##XFACTOR=1
##YFACTOR=1
##FIRSTX=12
##LASTX=430
##FIRSTY=269
##MAXX=430
##MINX=12
##MAXY=9999
##MINY=10
##NPOINTS=159
##PEAK TABLE=(XY..XY)
12,269 16,10 24,139 28,329
29,10 32,10 36,709 37,20
48,1679 49,90 52,199 55,10
60,439 61,30 63,10 64,20
70,10 72,20 76,709 77,50
78,60 79,819 80,309 81,769
82,309 91,1029 92,10 93,969
94,10 103,309 104,359 105,309
107,159 109,149 110,20 111,10
115,279 116,10 117,419 118,339
119,169 127,2409 128,119 129,2389
130,119 131,329 132,99 133,329
134,10 139,129 140,10 141,119
142,179 143,509 144,509 145,169
146,10 155,1789 156,99 157,1729
158,199 159,20 160,299 162,149
170,10 172,30 174,10 182,219
183,639 184,1009 185,629 186,199
194,40 196,80 197,20 198,60
199,20 206,1589 207,80 208,3159
209,149 210,1509 211,80 212,10
218,20 220,40 222,20 234,60
235,20 236,129 237,30 238,60
239,20 262,60 263,10 264,99
265,20 266,50 267,10 273,20
275,40 277,40 279,10 285,699
286,30 287,1909 288,90 289,1889
290,90 291,629 292,30 299,10
301,10 313,1269 314,80 315,3729
316,229 317,3629 318,219 319,1189
320,70 340,10 341,3439 342,259
343,9999 344,699 345,9729 346,659
347,3279 348,219 349,30 364,40
366,139 367,10 368,189 369,10
370,129 372,30 392,259 393,20
394,989 395,60 396,1439 397,90
398,939 399,60 400,249 401,20
420,169 421,20 422,639 423,50
424,979 425,70 426,659 427,40
428,199 429,10 430,20
##END=
