##TITLE=Tetrachloro-o-benzoquinone
##JCAMP-DX=4.24
##DATA TYPE=MASS SPECTRUM
##ORIGIN=Japan AIST/NIMC Database- Spectrum MS-NW-2932
##OWNER=NIST Mass Spectrometry Data Center
Collection (C) 2014 copyright by the U.S. Secretary of Commerce
on behalf of the United States of America. All rights reserved.
##CAS REGISTRY NO=2435-53-2
##$NIST MASS SPEC NO=231697
##MOLFORM=C6 Cl4 O2
##MW=244
##$NIST SOURCE=MSDC
##XUNITS=M/Z
##YUNITS=RELATIVE INTENSITY
##XFACTOR=1
##YFACTOR=1
##FIRSTX=12
##LASTX=252
##FIRSTY=499
##MAXX=252
##MINX=12
##MAXY=9999
##MINY=10
##NPOINTS=162
##PEAK TABLE=(XY..XY)
12,499 15,10 16,20 18,20
24,279 26,10 27,20 28,529
29,20 35,789 36,1409 37,229
38,279 39,40 40,50 41,60
42,20 43,60 44,80 45,119
47,2569 48,1589 49,779 50,30
51,20 52,179 53,20 54,10
55,419 56,129 57,20 59,749
60,579 61,149 63,549 64,50
65,199 66,20 67,10 69,20
70,20 71,1079 72,50 73,479
74,99 75,10 76,469 77,469
78,229 79,10 81,10 82,119
83,3879 84,239 85,1259 86,70
87,1129 88,60 89,349 90,60
91,40 92,20 94,1279 95,979
96,799 97,169 98,80 99,10
104,10 105,10 106,449 107,30
108,309 109,40 110,50 111,1639
112,90 113,539 114,30 118,5459
119,299 120,3559 121,199 122,589
123,50 124,30 129,10 130,109
131,10 132,70 133,10 134,10
141,179 142,10 143,159 144,10
145,50 146,50 147,139 148,30
149,90 150,10 151,10 153,5239
154,319 155,5159 156,299 157,1579
158,80 159,179 160,10 163,10
165,50 166,10 167,60 168,10
169,20 174,20 175,10 176,20
181,4269 182,329 183,3959 184,299
185,1259 186,99 187,149 188,6259
189,269 190,7649 191,329 192,3719
193,169 194,789 195,30 196,70
202,10 209,1779 210,159 211,1709
212,149 213,559 214,50 215,60
216,7789 217,459 218,9999 219,559
220,4869 221,279 222,1029 223,60
224,80 244,1109 245,80 246,1759
247,129 248,1119 249,80 250,369
251,20 252,50
##END=
