##TITLE=Acetic acid, (4-chloro-2-methylphenoxy)-, methyl ester
##JCAMP-DX=4.24
##DATA TYPE=MASS SPECTRUM
##ORIGIN=NIST Mass Spectrometry Data Center, 1990.
##OWNER=NIST Mass Spectrometry Data Center
Collection (C) 2014 copyright by the U.S. Secretary of Commerce
on behalf of the United States of America. All rights reserved.
##CAS REGISTRY NO=2436-73-9
##$NIST MASS SPEC NO=119007
##MOLFORM=C10 H11 Cl O3
##MW=214
##$NIST SOURCE=MSDC
##XUNITS=M/Z
##YUNITS=RELATIVE INTENSITY
##XFACTOR=1
##YFACTOR=1
##FIRSTX=12
##LASTX=218
##FIRSTY=35
##MAXX=218
##MINX=12
##MAXY=9999
##MINY=10
##NPOINTS=140
##PEAK TABLE=(XY..XY)
12,35 13,59 14,434 15,3305
16,48 25,12 26,143 27,525
28,116 29,1283 30,299 31,239
32,11 33,39 35,42 36,62
37,119 38,441 39,1372 40,152
41,163 42,1170 43,1219 44,11
45,3763 46,97 47,45 49,163
50,1326 51,3122 52,722 53,250
54,29 55,52 57,95 59,859
60,77 61,320 62,859 63,2753
64,474 65,571 66,58 67,13
71,16 72,135 73,1330 74,1688
75,1127 76,13 77,6945 78,1254
79,179 80,19 81,10 84,83
85,232 86,269 87,361 88,10
89,4755 90,1150 91,1866 92,156
93,138 94,15 96,17 97,106
99,1339 100,113 101,480 102,37
103,38 105,264 106,172 107,201
108,50 109,26 110,29 111,152
112,798 113,1213 114,333 115,450
116,31 118,36 119,340 120,78
121,176 122,42 123,120 124,26
125,6140 126,806 127,2890 128,313
129,300 130,27 135,82 136,44
137,22 138,40 139,105 140,22
141,9999 142,1057 143,3087 144,257
145,16 147,65 149,16 151,85
153,323 154,1484 155,6783 156,1069
157,2198 158,205 159,12 165,24
166,19 167,188 168,25 169,88
170,25 171,38 179,177 180,25
182,1128 183,172 184,369 185,56
199,85 200,11 201,36 214,7873
215,977 216,2484 217,267 218,25
##END=
