##TITLE=Benzo[b]naphtho[2,3-d]thiophene, 6-methyl-
##JCAMP-DX=4.24
##DATA TYPE=MASS SPECTRUM
##OWNER=NIST Mass Spectrometry Data Center
Collection (C) 2014 copyright by the U.S. Secretary of Commerce
on behalf of the United States of America. All rights reserved.
##CAS REGISTRY NO=24360-63-2
##$NIST MASS SPEC NO=11993
##MOLFORM=C17 H12 S
##MW=248
##$NIST SOURCE=MSDC
##XUNITS=M/Z
##YUNITS=RELATIVE INTENSITY
##XFACTOR=1
##YFACTOR=1
##FIRSTX=25
##LASTX=251
##FIRSTY=10
##MAXX=251
##MINX=25
##MAXY=9999
##MINY=10
##NPOINTS=215
##PEAK TABLE=(XY..XY)
25,10 26,10 27,50 28,20
29,10 31,20 32,10 33,10
34,10 36,10 37,10 38,20
39,100 40,10 41,10 42,10
43,10 44,10 45,90 46,10
47,10 49,10 50,50 51,80
52,20 53,10 57,10 58,10
59,10 61,10 62,50 63,130
64,20 65,20 66,10 67,10
68,10 69,110 70,20 71,20
73,10 74,70 75,100 76,60
77,50 78,10 79,10 80,10
81,20 82,40 83,20 84,10
85,10 86,60 87,100 88,170
89,70 90,10 91,20 92,10
93,70 94,40 95,30 96,10
97,30 98,70 99,70 100,140
101,280 102,40 103,30 104,40
105,20 106,40 107,40 108,50
109,30 110,110 111,220 112,30
113,40 114,20 115,40 116,60
117,60 118,20 119,10 120,10
121,30 122,180 123,380 124,1131
125,100 126,80 127,40 128,10
129,10 130,10 131,10 132,10
133,10 134,20 135,10 136,10
137,30 138,30 139,70 140,10
141,10 142,10 143,10 144,10
145,20 146,10 147,10 148,10
149,20 150,80 151,70 152,60
153,10 154,10 156,10 157,10
158,20 159,10 160,10 161,30
162,40 163,120 164,40 165,40
166,10 167,10 168,10 169,30
170,20 171,60 172,10 173,10
174,60 175,60 176,120 177,30
178,20 179,10 180,10 181,10
182,20 183,10 184,30 185,20
186,40 187,140 188,70 189,140
190,30 191,10 193,20 194,10
195,50 196,10 197,40 198,40
199,50 200,170 201,100 202,420
203,140 204,20 205,10 206,20
207,20 208,110 209,40 210,30
211,70 212,40 213,200 214,70
215,581 216,120 217,20 218,10
219,100 220,50 221,520 222,130
223,80 224,160 225,30 226,10
227,10 229,10 230,10 231,10
232,100 233,30 234,80 235,50
236,30 237,120 238,30 239,10
241,10 242,20 243,140 244,110
245,981 246,671 247,3873 248,9999
249,2042 250,641 251,150
##END=
