##TITLE=2-Bromo-p-cymene
##JCAMP-DX=4.24
##DATA TYPE=MASS SPECTRUM
##ORIGIN=Japan AIST/NIMC Database- Spectrum MS-NW-3997
##OWNER=NIST Mass Spectrometry Data Center
Collection (C) 2014 copyright by the U.S. Secretary of Commerce
on behalf of the United States of America. All rights reserved.
##CAS REGISTRY NO=2437-76-5
##$NIST MASS SPEC NO=232288
##MOLFORM=C10 H13 Br
##MW=212
##$NIST SOURCE=MSDC
##XUNITS=M/Z
##YUNITS=RELATIVE INTENSITY
##XFACTOR=1
##YFACTOR=1
##FIRSTX=14
##LASTX=216
##FIRSTY=30
##MAXX=216
##MINX=14
##MAXY=9999
##MINY=10
##NPOINTS=131
##PEAK TABLE=(XY..XY)
14,30 15,119 26,60 27,529
28,30 29,80 37,50 38,149
39,1139 40,129 41,1019 42,50
43,80 44,30 45,20 49,30
50,379 51,849 52,229 53,269
54,20 55,70 56,10 57,499
58,489 59,159 61,90 62,309
63,849 64,429 65,979 66,129
67,40 68,10 69,20 70,10
71,10 73,20 74,179 75,199
76,149 77,869 78,369 79,229
80,40 81,30 82,40 83,30
84,10 85,50 86,99 87,129
88,60 89,629 90,369 91,2099
92,339 93,289 94,20 95,20
96,10 97,20 98,50 99,30
100,10 101,80 102,339 103,569
104,269 105,3199 106,439 107,40
109,10 110,10 113,40 114,70
115,2269 116,879 117,3629 118,8889
119,1139 120,70 126,10 127,60
128,139 129,109 130,30 131,209
132,299 133,2329 134,449 135,30
137,10 139,10 141,10 143,20
145,10 147,30 149,30 157,10
158,10 159,50 161,10 169,129
170,30 171,129 172,40 173,10
174,10 176,10 182,20 183,369
184,50 185,379 186,40 193,10
194,10 195,60 196,70 197,9999
198,1059 199,9779 200,949 201,50
210,30 211,70 212,3939 213,529
214,3809 215,449 216,20
##END=
