##TITLE=Dodecanenitrile
##JCAMP-DX=4.24
##DATA TYPE=MASS SPECTRUM
##ORIGIN=Japan AIST/NIMC Database- Spectrum MS-NW-3162
##OWNER=NIST Mass Spectrometry Data Center
Collection (C) 2014 copyright by the U.S. Secretary of Commerce
on behalf of the United States of America. All rights reserved.
##CAS REGISTRY NO=2437-25-4
##$NIST MASS SPEC NO=232039
##MOLFORM=C12 H23 N
##MW=181
##$NIST SOURCE=MSDC
##XUNITS=M/Z
##YUNITS=RELATIVE INTENSITY
##XFACTOR=1
##YFACTOR=1
##FIRSTX=14
##LASTX=182
##FIRSTY=10
##MAXX=182
##MINX=14
##MAXY=9999
##MINY=10
##NPOINTS=95
##PEAK TABLE=(XY..XY)
14,10 15,80 26,119 27,2279
28,309 29,4069 30,389 32,10
37,10 38,50 39,1729 40,339
41,8259 42,2009 43,8749 44,519
45,20 50,30 51,109 52,119
53,629 54,4029 55,5319 56,2439
57,6339 58,399 59,20 63,20
64,20 65,99 66,119 67,789
68,989 69,4839 70,3169 71,1499
72,129 73,10 77,99 78,30
79,519 80,259 81,659 82,5619
83,5589 84,1089 85,699 86,90
91,119 92,20 93,409 94,309
95,439 96,7159 97,9999 98,1069
99,189 100,40 105,70 106,20
107,219 108,169 109,189 110,7099
111,3729 112,539 113,60 114,10
117,10 118,10 120,10 121,149
122,179 123,70 124,5009 125,1009
126,239 127,30 135,90 136,90
137,20 138,3899 139,589 140,219
141,20 149,10 150,30 152,1989
153,289 154,20 166,339 167,40
180,249 181,40 182,10
##END=
