##TITLE=Quinoline, 2,3,4-trimethyl-
##JCAMP-DX=4.24
##DATA TYPE=MASS SPECTRUM
##ORIGIN=CARL DJERASSI DEPT OF CHEM STANFORD UNIV STANFORD CALIF 94305
##OWNER=NIST Mass Spectrometry Data Center
Collection (C) 2014 copyright by the U.S. Secretary of Commerce
on behalf of the United States of America. All rights reserved.
##CAS REGISTRY NO=2437-72-1
##$NIST MASS SPEC NO=47003
##MOLFORM=C12 H13 N
##MW=171
##$NIST SOURCE=MSDC
##XUNITS=M/Z
##YUNITS=RELATIVE INTENSITY
##XFACTOR=1
##YFACTOR=1
##FIRSTX=41
##LASTX=173
##FIRSTY=50
##MAXX=173
##MINX=41
##MAXY=9999
##MINY=50
##NPOINTS=50
##PEAK TABLE=(XY..XY)
41,50 42,100 44,50 50,150
51,250 52,100 62,100 63,200
64,150 65,150 66,50 74,50
75,100 76,100 77,300 78,50
89,150 101,100 102,150 103,100
110,50 113,50 114,50 115,550
116,250 117,50 118,50 126,50
127,450 128,850 129,550 130,250
131,100 140,100 141,50 142,100
143,350 144,200 153,50 154,350
155,150 156,2150 157,300 167,100
168,250 169,150 170,3900 171,9999
172,1300 173,50
##END=
