##TITLE=2-Benzimidazolylurea
##JCAMP-DX=4.24
##DATA TYPE=MASS SPECTRUM
##ORIGIN=Chemical Sci. & Tec. Lab., NIST, Gaithersburg, MD 20899
##OWNER=NIST Mass Spectrometry Data Center
Collection (C) 2014 copyright by the U.S. Secretary of Commerce
on behalf of the United States of America. All rights reserved.
##CAS REGISTRY NO=24370-25-0
##$NIST MASS SPEC NO=254319
##MOLFORM=C8 H8 N4 O
##MW=176
##$NIST SOURCE=MSDC
##XUNITS=M/Z
##YUNITS=RELATIVE INTENSITY
##XFACTOR=1
##YFACTOR=1
##FIRSTX=41
##LASTX=178
##FIRSTY=232
##MAXX=178
##MINX=41
##MAXY=9999
##MINY=20
##NPOINTS=63
##PEAK TABLE=(XY..XY)
41,232 42,177 43,658 44,2623
45,32 47,50 48,74 49,240
50,572 51,1688 52,1580 53,795
54,261 55,77 60,85 61,102
62,262 63,888 64,836 65,585
66,157 67,43 68,24 69,117
74,20 75,139 76,337 77,774
78,1451 79,1356 80,432 81,64
84,112 86,95 88,124 90,1116
91,461 92,199 93,119 103,104
104,713 105,3552 106,2019 107,199
113,50 116,126 117,106 118,255
130,122 131,777 132,1887 133,9999
134,874 157,144 158,305 159,5518
160,1065 161,98 174,64 175,62
176,3527 177,589 178,21
##END=
