##TITLE=Phenylethyl acetoacetate
##JCAMP-DX=4.24
##DATA TYPE=MASS SPECTRUM
##ORIGIN=Insect Chem. Ecol. Lab., USDA, Beltsville, MD 20705
##OWNER=NIST Mass Spectrometry Data Center
Collection (C) 2014 copyright by the U.S. Secretary of Commerce
on behalf of the United States of America. All rights reserved.
##CAS REGISTRY NO=24370-84-1
##$NIST MASS SPEC NO=132221
##MOLFORM=C12 H14 O3
##MW=206
##$NIST SOURCE=MSDC
##XUNITS=M/Z
##YUNITS=RELATIVE INTENSITY
##XFACTOR=1
##YFACTOR=1
##FIRSTX=42
##LASTX=208
##FIRSTY=761
##MAXX=208
##MINX=42
##MAXY=9999
##MINY=2
##NPOINTS=115
##PEAK TABLE=(XY..XY)
42,761 43,4812 44,140 45,64
47,3 49,35 50,330 51,890
52,246 53,239 55,114 56,27
57,27 58,34 59,31 60,2
61,48 62,145 63,501 65,1704
66,118 67,86 68,6 69,125
70,10 71,18 73,111 74,86
75,74 76,85 77,1248 78,713
79,720 80,60 81,14 82,43
83,208 85,846 86,56 87,32
89,364 91,6241 92,3360 93,242
94,24 95,51 96,141 97,22
98,38 99,104 100,14 101,4
102,114 103,910 104,9999 105,3993
106,168 107,27 109,64 111,12
112,2 113,3 115,26 117,24
118,71 119,21 120,22 121,58
122,1990 123,179 124,71 125,106
126,14 127,4 128,5 129,41
131,9 132,3 133,170 134,266
135,225 136,29 137,3 138,3
139,49 140,63 141,20 142,3
143,3 145,9 147,5 149,7
150,28 151,73 152,3 153,40
154,10 155,3 160,3 163,12
164,52 165,21 178,7 179,6
180,3 181,6 189,3 190,35
191,118 192,32 204,5 205,6
206,84 207,8 208,2
##END=
