##TITLE=1,1'-Biphenyl, 2,2',4,4'-tetrachloro-
##JCAMP-DX=4.24
##DATA TYPE=MASS SPECTRUM
##ORIGIN=NIST Mass Spectrometry Data Center, 1998.
##OWNER=NIST Mass Spectrometry Data Center
Collection (C) 2014 copyright by the U.S. Secretary of Commerce
on behalf of the United States of America. All rights reserved.
##CAS REGISTRY NO=2437-79-8
##$NIST MASS SPEC NO=291883
##MOLFORM=C12 H6 Cl4
##MW=290
##$NIST SOURCE=MSDC
##XUNITS=M/Z
##YUNITS=RELATIVE INTENSITY
##XFACTOR=1
##YFACTOR=1
##FIRSTX=26
##LASTX=299
##FIRSTY=30
##MAXX=299
##MINX=26
##MAXY=9999
##MINY=10
##NPOINTS=172
##PEAK TABLE=(XY..XY)
26,30 27,20 35,50 36,30
37,130 38,140 39,80 43,10
47,60 48,20 49,190 50,580
51,270 52,10 55,40 56,20
60,120 61,610 62,590 63,270
64,10 66,20 67,40 68,20
71,20 72,140 73,750 74,1730
75,1330 76,110 77,10 79,170
80,120 82,10 83,40 84,340
85,620 86,640 87,400 88,40
89,10 92,1750 93,740 95,30
96,130 97,600 98,1200 99,1090
100,160 101,30 102,10 103,10
104,10 106,10 107,80 108,250
109,920 110,3210 111,2100 112,380
113,90 114,50 115,70 116,40
117,10 118,10 119,30 120,160
121,230 122,550 123,800 124,260
125,120 126,10 127,850 128,870
131,30 132,120 133,240 134,200
135,350 136,100 137,120 138,30
142,10 143,10 144,60 145,650
146,900 147,830 148,490 149,1210
150,3240 151,410 152,20 155,10
156,20 157,80 158,90 159,280
160,220 161,110 162,60 163,10
167,10 168,20 169,70 170,300
171,120 172,200 173,60 174,40
175,10 180,20 181,40 182,70
183,260 184,1730 185,1480 186,720
187,460 188,60 193,30 194,230
195,60 196,160 197,30 198,30
199,10 204,50 205,20 206,60
207,40 208,30 209,20 210,10
217,20 218,120 220,8629 221,1310
222,5629 223,750 224,940 225,110
226,10 228,10 230,30 231,10
232,20 234,10 241,20 243,20
245,10 254,250 255,1690 256,470
257,1610 258,300 259,530 260,80
261,60 262,10 290,7959 291,1160
292,9999 293,1370 294,4890 295,650
296,1060 297,140 298,90 299,10
##END=
