##TITLE=Benzoic acid, 2-(1-methylethyl)-
##JCAMP-DX=4.24
##DATA TYPE=MASS SPECTRUM
##ORIGIN=J.M. MILLER,BROCK UNIVERSITY,ONTARIO,CANADA
##OWNER=NIST Mass Spectrometry Data Center
Collection (C) 2014 copyright by the U.S. Secretary of Commerce
on behalf of the United States of America. All rights reserved.
##CAS REGISTRY NO=2438-04-2
##$NIST MASS SPEC NO=54197
##MOLFORM=C10 H12 O2
##MW=164
##$NIST SOURCE=MSDC
##XUNITS=M/Z
##YUNITS=RELATIVE INTENSITY
##XFACTOR=1
##YFACTOR=1
##FIRSTX=50
##LASTX=165
##FIRSTY=1300
##MAXX=165
##MINX=50
##MAXY=9999
##MINY=100
##NPOINTS=52
##PEAK TABLE=(XY..XY)
50,1300 51,2700 52,650 53,400
58,200 59,1200 62,400 63,1100
64,200 65,1050 66,150 67,200
75,700 76,700 77,4000 78,1400
79,1150 89,400 90,200 91,2550
92,250 93,200 101,300 102,750
103,4500 104,1000 105,1100 106,250
115,1050 116,350 117,1100 118,700
119,850 120,150 121,100 122,100
123,200 129,250 131,9999 132,1250
133,150 135,550 136,150 145,700
146,1650 147,650 148,100 149,3750
150,450 163,200 164,3650 165,500
##END=
