##TITLE=Benzoic acid, 3-bromo-, ethyl ester
##JCAMP-DX=4.24
##DATA TYPE=MASS SPECTRUM
##ORIGIN=V.Zaikin,Topchiev Inst.Petrochem.Synth.,Moscow
##OWNER=NIST Mass Spectrometry Data Center
Collection (C) 2014 copyright by the U.S. Secretary of Commerce
on behalf of the United States of America. All rights reserved.
##CAS REGISTRY NO=24398-88-7
##$NIST MASS SPEC NO=281940
##MOLFORM=C9 H9 Br O2
##MW=228
##$NIST SOURCE=MSDC
##XUNITS=M/Z
##YUNITS=RELATIVE INTENSITY
##XFACTOR=1
##YFACTOR=1
##FIRSTX=27
##LASTX=232
##FIRSTY=991
##MAXX=232
##MINX=27
##MAXY=9999
##MINY=20
##NPOINTS=119
##PEAK TABLE=(XY..XY)
27,991 28,300 29,1812 30,200
31,80 35,40 36,270 37,320
38,741 39,340 40,30 41,80
42,110 43,410 44,280 45,1121
46,40 48,60 49,480 50,5035
51,1181 52,120 53,200 55,40
56,30 60,40 61,190 62,140
63,280 64,90 65,751 66,70
67,20 68,20 69,30 72,50
73,701 74,2823 75,5495 76,6526
77,1361 78,230 79,220 80,110
81,150 82,110 85,20 89,30
90,40 91,320 92,120 93,110
94,20 101,30 102,40 103,360
104,971 105,571 106,110 107,90
115,20 116,30 117,50 118,30
119,50 121,130 122,70 128,50
129,220 130,60 131,390 132,60
133,70 139,30 143,60 145,60
148,50 149,1511 150,250 151,20
153,30 154,110 155,4374 156,530
157,4214 158,430 159,30 167,20
169,30 170,30 171,60 172,40
173,30 175,100 177,110 181,60
182,220 183,9999 184,1341 185,9859
186,1151 187,90 199,70 200,4414
201,410 202,4364 203,390 204,20
210,190 211,60 212,190 213,190
215,120 227,130 228,2322 229,380
230,2432 231,220 232,30
##END=
