##TITLE=5H-Indeno[1,2-b]pyridine
##JCAMP-DX=4.24
##DATA TYPE=MASS SPECTRUM
##ORIGIN=Japan AIST/NIMC Database- Spectrum MS-NW-6269
##OWNER=NIST Mass Spectrometry Data Center
Collection (C) 2014 copyright by the U.S. Secretary of Commerce
on behalf of the United States of America. All rights reserved.
##CAS REGISTRY NO=244-99-5
##$NIST MASS SPEC NO=230897
##MOLFORM=C12 H9 N
##MW=167
##$NIST SOURCE=MSDC
##XUNITS=M/Z
##YUNITS=RELATIVE INTENSITY
##XFACTOR=1
##YFACTOR=1
##FIRSTX=14
##LASTX=169
##FIRSTY=10
##MAXX=169
##MINX=14
##MAXY=9999
##MINY=10
##NPOINTS=82
##PEAK TABLE=(XY..XY)
14,10 26,20 27,40 37,30
38,80 39,299 40,10 41,10
43,10 44,20 49,10 50,139
51,149 52,40 55,40 56,40
57,40 61,50 62,169 63,369
64,90 65,60 66,10 67,10
68,10 69,399 70,309 71,50
73,20 74,119 75,119 76,80
77,60 78,20 81,10 82,279
83,769 84,109 85,40 86,119
87,149 88,129 89,189 90,40
91,10 98,40 99,40 100,40
101,30 102,30 103,10 104,10
109,10 110,30 111,40 112,30
113,259 114,219 115,119 116,80
117,10 118,10 125,10 126,20
127,40 128,30 137,90 138,149
139,1439 140,1289 141,189 142,10
151,10 152,10 162,10 163,10
164,209 165,159 166,2349 167,9999
168,1339 169,99
##END=
