##TITLE=Tetrabromophthalimide
##JCAMP-DX=4.24
##DATA TYPE=MASS SPECTRUM
##ORIGIN=Japan AIST/NIMC Database- Spectrum MS-NW-7366
##OWNER=NIST Mass Spectrometry Data Center
Collection (C) 2014 copyright by the U.S. Secretary of Commerce
on behalf of the United States of America. All rights reserved.
##CAS REGISTRY NO=24407-32-7
##$NIST MASS SPEC NO=235578
##MOLFORM=C8 H Br4 N O2
##MW=459
##$NIST SOURCE=MSDC
##XUNITS=M/Z
##YUNITS=RELATIVE INTENSITY
##XFACTOR=1
##YFACTOR=1
##FIRSTX=27
##LASTX=469
##FIRSTY=10
##MAXX=469
##MINX=27
##MAXY=9999
##MINY=10
##NPOINTS=278
##PEAK TABLE=(XY..XY)
27,10 28,60 29,20 36,509
37,70 38,20 42,30 43,179
44,80 48,119 49,20 50,20
51,20 52,20 57,20 60,439
61,70 62,70 63,10 64,20
70,219 72,2179 73,319 74,50
75,109 76,90 77,20 79,369
80,229 81,349 82,219 83,70
84,70 86,229 87,109 88,20
89,299 90,319 91,179 93,169
96,10 97,30 98,99 99,109
100,159 101,20 103,30 105,30
107,10 109,30 110,40 111,20
114,20 115,939 116,1299 117,939
118,20 122,40 123,90 124,50
125,10 127,99 128,10 129,179
130,169 131,149 132,10 133,60
136,20 137,40 138,20 139,249
140,20 141,239 142,20 143,10
150,10 151,2199 152,299 153,2139
154,349 155,969 156,959 157,339
158,60 160,40 161,10 162,20
163,40 164,30 165,119 166,90
167,139 168,99 169,99 170,90
171,40 172,10 175,30 176,119
177,159 178,189 179,499 180,99
181,409 182,40 184,30 186,10
190,139 191,369 192,349 193,149
194,249 195,809 196,1219 197,809
198,219 201,10 202,30 203,50
204,50 205,30 206,50 208,129
209,209 210,319 211,199 212,40
215,10 216,60 217,80 218,70
219,30 220,70 222,50 223,10
224,20 225,10 229,80 230,1829
231,379 232,3569 233,379 234,1769
235,169 236,10 244,80 245,20
246,159 247,40 248,90 249,20
250,10 256,60 257,20 258,159
259,80 260,139 261,80 262,40
263,30 272,10 273,10 274,20
275,30 276,20 277,20 297,10
299,40 300,20 301,40 302,40
303,20 304,20 305,20 309,629
310,70 311,1859 312,209 313,1799
314,209 315,609 316,70 324,20
325,10 326,50 327,30 328,50
329,20 330,20 331,10 335,20
336,299 337,609 338,949 339,1619
340,1049 341,1529 342,509 343,519
344,70 352,10 353,20 354,40
355,20 356,50 357,10 358,20
377,10 379,10 380,10 381,119
382,40 383,329 384,70 385,339
386,70 387,119 388,399 389,30
390,1389 391,99 392,2029 393,149
394,1319 395,99 396,349 397,30
398,80 399,10 400,70 401,10
402,40 403,10 404,80 405,10
406,119 407,20 408,99 409,10
410,40 412,10 415,399 416,469
417,1489 418,1719 419,2269 420,2519
421,1609 422,1629 423,489 424,419
425,40 431,10 433,30 434,10
435,40 436,10 437,30 438,10
439,10 440,10 444,10 446,10
448,10 457,10 458,10 459,1769
460,299 461,6769 462,1079 463,9999
464,1519 465,6389 466,969 467,1639
468,249 469,20
##END=
