##TITLE=Tetracosanoic acid, methyl ester
##JCAMP-DX=4.24
##DATA TYPE=MASS SPECTRUM
##ORIGIN=J-C.WILHELM FACULTY OF SCIENCE, UNIV. METZ, METZ, FRANCE
##OWNER=NIST Mass Spectrometry Data Center
Collection (C) 2014 copyright by the U.S. Secretary of Commerce
on behalf of the United States of America. All rights reserved.
##CAS REGISTRY NO=2442-49-1
##$NIST MASS SPEC NO=68657
##MOLFORM=C25 H50 O2
##MW=382
##$NIST SOURCE=MSDC
##XUNITS=M/Z
##YUNITS=RELATIVE INTENSITY
##XFACTOR=1
##YFACTOR=1
##FIRSTX=15
##LASTX=384
##FIRSTY=120
##MAXX=384
##MINX=15
##MAXY=9999
##MINY=20
##NPOINTS=151
##PEAK TABLE=(XY..XY)
15,120 16,20 17,130 18,620
20,90 25,20 26,90 27,210
28,360 29,720 30,20 31,60
32,70 39,170 40,60 41,1620
42,410 43,3900 44,160 45,100
50,30 51,20 53,70 54,190
55,2500 56,620 57,2940 58,190
59,450 60,40 61,40 65,20
66,30 67,400 68,230 69,1690
70,370 71,1290 72,80 73,210
74,9999 75,3460 76,150 77,40
79,80 80,40 81,350 82,220
83,1180 84,390 85,660 86,50
87,6180 88,590 89,50 91,20
93,90 94,40 95,320 96,170
97,900 98,400 99,140 100,20
101,540 102,70 105,20 107,70
108,30 109,170 110,70 111,400
112,120 113,70 114,30 115,230
116,130 117,30 119,20 121,80
122,20 123,100 124,50 125,210
126,50 127,50 128,20 129,590
130,190 131,30 133,20 135,90
136,20 137,60 138,30 139,120
140,30 141,30 143,1620 144,180
145,20 149,70 151,30 152,20
153,80 154,20 155,20 157,120
158,30 163,40 165,20 167,60
168,20 169,20 171,90 172,30
177,20 181,40 185,210 186,50
191,20 195,20 199,290 200,50
213,60 227,100 228,30 241,100
242,30 255,70 256,20 269,40
270,20 283,180 284,50 297,100
298,30 311,30 325,60 326,30
339,460 340,130 341,20 351,150
352,50 353,90 354,30 368,20
382,1500 383,420 384,60
##END=
