##TITLE=2-Hydroxyfluorene
##JCAMP-DX=4.24
##DATA TYPE=MASS SPECTRUM
##ORIGIN=NIST Mass Spectrometry Data Center, 1994
##OWNER=NIST Mass Spectrometry Data Center
Collection (C) 2014 copyright by the U.S. Secretary of Commerce
on behalf of the United States of America. All rights reserved.
##CAS REGISTRY NO=2443-58-5
##$NIST MASS SPEC NO=133894
##MOLFORM=C13 H10 O
##MW=182
##$NIST SOURCE=MSDC
##XUNITS=M/Z
##YUNITS=RELATIVE INTENSITY
##XFACTOR=1
##YFACTOR=1
##FIRSTX=18
##LASTX=184
##FIRSTY=15
##MAXX=184
##MINX=18
##MAXY=9999
##MINY=5
##NPOINTS=72
##PEAK TABLE=(XY..XY)
18,15 26,29 27,112 29,125
31,18 37,24 38,76 39,213
40,5 50,256 51,368 52,59
53,82 55,32 61,85 62,291
63,846 64,129 65,37 68,13
70,39 74,315 75,659 76,1828
79,19 82,524 85,45 86,138
87,206 88,69 89,109 90,19
91,1035 98,148 99,93 100,71
101,132 102,106 103,31 109,19
110,52 111,54 113,70 114,27
115,81 122,34 123,16 125,78
126,331 127,295 128,80 137,26
138,18 139,70 149,57 150,397
151,882 152,2875 153,1491 154,392
155,75 161,18 162,53 163,213
164,266 165,1208 166,199 179,27
181,5774 182,9999 183,1332 184,117
##END=
