##TITLE=Anthracene, 9-ethenyl-
##JCAMP-DX=4.24
##DATA TYPE=MASS SPECTRUM
##ORIGIN=NIST Mass Spectrometry Data Center, 1990.
##OWNER=NIST Mass Spectrometry Data Center
Collection (C) 2014 copyright by the U.S. Secretary of Commerce
on behalf of the United States of America. All rights reserved.
##CAS REGISTRY NO=2444-68-0
##$NIST MASS SPEC NO=118466
##MOLFORM=C16 H12
##MW=204
##$NIST SOURCE=MSDC
##XUNITS=M/Z
##YUNITS=RELATIVE INTENSITY
##XFACTOR=1
##YFACTOR=1
##FIRSTX=14
##LASTX=206
##FIRSTY=29
##MAXX=206
##MINX=14
##MAXY=9999
##MINY=1
##NPOINTS=88
##PEAK TABLE=(XY..XY)
14,29 15,17 26,24 27,30
28,6 29,17 38,43 39,229
40,14 44,1 50,198 51,255
52,68 61,52 62,229 63,437
64,40 65,38 67,59 68,22
74,331 75,539 76,535 77,89
81,60 85,53 86,194 87,585
88,1328 89,535 93,86 94,138
98,231 99,319 100,1383 101,3287
109,24 110,87 111,88 112,26
113,41 114,18 115,35 122,67
123,51 124,42 125,44 126,127
127,51 128,28 134,23 137,62
138,24 139,114 146,17 148,28
149,157 150,487 151,293 152,229
153,29 161,39 162,84 163,163
164,44 165,69 166,19 173,48
174,302 175,251 176,532 177,112
178,68 186,36 187,94 188,67
189,215 190,47 197,22 198,104
199,279 200,1477 201,1684 202,6646
203,9999 204,8263 205,1245 206,105
##END=
