##TITLE=2,12-Dibromocyclododecanone
##JCAMP-DX=4.24
##DATA TYPE=MASS SPECTRUM
##ORIGIN=Japan AIST/NIMC Database- Spectrum MS-IW-8019
##OWNER=NIST Mass Spectrometry Data Center
Collection (C) 2014 copyright by the U.S. Secretary of Commerce
on behalf of the United States of America. All rights reserved.
##CAS REGISTRY NO=24459-40-3
##$NIST MASS SPEC NO=241759
##MOLFORM=C12 H20 Br2 O
##MW=338
##$NIST SOURCE=MSDC
##XUNITS=M/Z
##YUNITS=RELATIVE INTENSITY
##XFACTOR=1
##YFACTOR=1
##FIRSTX=26
##LASTX=343
##FIRSTY=20
##MAXX=343
##MINX=26
##MAXY=9999
##MINY=10
##NPOINTS=162
##PEAK TABLE=(XY..XY)
26,20 27,489 28,129 29,369
39,479 40,109 41,1689 42,329
43,479 44,30 45,10 47,10
48,10 51,40 52,20 53,339
54,409 55,3329 56,399 57,269
58,30 59,30 60,40 61,129
65,80 66,60 67,1189 68,459
69,1689 70,449 71,189 72,10
77,80 78,30 79,379 80,289
81,1589 82,429 83,1589 84,1529
85,189 86,10 91,159 92,30
93,319 94,169 95,1039 96,219
97,1209 98,9999 99,799 100,50
105,139 106,50 107,209 108,99
109,359 110,119 111,1069 112,2099
113,169 114,10 117,10 119,159
120,50 121,269 122,80 123,199
124,50 125,159 126,109 127,10
131,10 132,20 133,149 134,60
135,369 136,70 137,269 138,40
139,50 145,10 146,10 147,40
148,90 149,99 150,80 151,90
152,70 153,20 159,40 160,20
161,1519 162,239 163,119 164,80
165,60 173,50 174,10 175,139
176,129 177,139 178,149 179,1589
180,289 181,169 182,20 185,10
187,40 188,10 189,80 190,60
191,70 192,50 193,10 199,30
201,40 202,10 203,30 204,30
205,20 206,20 214,10 215,30
216,20 217,50 218,10 219,20
229,10 231,20 232,10 233,10
234,10 241,389 242,50 243,369
244,50 245,10 247,10 254,10
256,10 258,40 259,1309 260,259
261,1309 262,199 263,20 266,10
268,20 270,10 294,40 295,10
296,99 297,20 298,50 299,10
338,179 339,30 340,349 341,60
342,169 343,30
##END=
