##TITLE=Bis(4-chlorothiophenyl)oxalate
##JCAMP-DX=4.24
##DATA TYPE=MASS SPECTRUM
##ORIGIN=NIST Mass Spectrometry Data Center, 1994
##OWNER=NIST Mass Spectrometry Data Center
Collection (C) 2014 copyright by the U.S. Secretary of Commerce
on behalf of the United States of America. All rights reserved.
##CAS REGISTRY NO=24455-25-2
##$NIST MASS SPEC NO=136943
##MOLFORM=C14 H8 Cl2 O2 S2
##MW=342
##$NIST SOURCE=MSDC
##XUNITS=M/Z
##YUNITS=RELATIVE INTENSITY
##XFACTOR=1
##YFACTOR=1
##FIRSTX=12
##LASTX=346
##FIRSTY=11
##MAXX=346
##MINX=12
##MAXY=9999
##MINY=1
##NPOINTS=140
##PEAK TABLE=(XY..XY)
12,11 14,6 16,4 17,7
18,50 19,4 25,8 26,14
28,93 29,10 32,7 33,14
35,30 36,19 37,61 38,166
39,230 40,13 41,11 44,51
45,323 46,14 47,29 48,20
49,79 50,369 51,186 52,15
53,38 54,51 55,11 56,14
57,131 58,185 59,17 60,55
61,92 62,222 63,759 64,79
65,19 66,7 67,6 69,712
70,36 71,67 72,6 73,481
74,234 75,593 76,87 77,16
79,43 80,16 81,165 82,396
83,60 84,49 85,54 86,35
87,24 91,12 92,19 93,50
94,10 95,13 96,7 97,20
99,810 100,73 101,253 102,15
103,23 104,8 105,58 106,47
107,7 108,3451 109,355 110,198
111,134 112,21 113,54 114,16
115,11 116,11 117,17 118,19
120,8 121,6 136,19 139,21
140,19 143,9999 144,1012 145,3526
146,309 147,161 148,18 151,8
155,9 171,1108 172,124 173,453
174,43 175,29 176,7 177,7
184,22 207,1 216,14 218,30
219,14 220,16 222,73 223,13
224,66 225,9 226,6 250,6
251,19 253,15 254,15 255,8
286,2132 287,384 288,1539 289,254
290,339 291,53 292,22 314,35
315,9 316,22 318,5 342,196
343,39 344,136 345,26 346,34
##END=
