##TITLE=2H-1-Benzopyran-2-one, 7-methyl-
##JCAMP-DX=4.24
##DATA TYPE=MASS SPECTRUM
##ORIGIN=RADIAN CORP
##OWNER=NIST Mass Spectrometry Data Center
Collection (C) 2014 copyright by the U.S. Secretary of Commerce
on behalf of the United States of America. All rights reserved.
##CAS REGISTRY NO=2445-83-2
##$NIST MASS SPEC NO=70406
##MOLFORM=C10 H8 O2
##MW=160
##$NIST SOURCE=MSDC
##XUNITS=M/Z
##YUNITS=RELATIVE INTENSITY
##XFACTOR=1
##YFACTOR=1
##FIRSTX=15
##LASTX=168
##FIRSTY=100
##MAXX=168
##MINX=15
##MAXY=9999
##MINY=10
##NPOINTS=74
##PEAK TABLE=(XY..XY)
15,100 25,20 26,320 27,540
29,130 36,10 37,250 38,720
39,1350 40,140 41,190 42,100
43,40 45,30 49,190 50,1670
51,3070 52,1020 53,490 54,70
55,40 60,40 61,500 62,1250
63,2520 64,470 65,490 66,480
67,70 68,10 69,10 73,160
74,840 75,650 76,810 77,3240
78,2800 79,320 80,60 84,40
85,160 86,300 87,320 88,90
89,540 90,90 91,70 92,40
93,20 97,30 98,130 99,30
101,100 102,790 103,2710 104,4280
105,490 106,80 109,10 113,20
114,20 115,120 116,20 129,20
131,8510 132,9999 133,980 134,70
158,20 159,60 160,9230 161,1100
162,100 168,10
##END=
