##TITLE=3-Cyclohexene-1-acetaldehyde
##JCAMP-DX=4.24
##DATA TYPE=MASS SPECTRUM
##ORIGIN=H. Luftmann, Org. Chem. Inst., Westfalisch Wilhelms Univ., Munster, Germany
##OWNER=NIST Mass Spectrometry Data Center
Collection (C) 2014 copyright by the U.S. Secretary of Commerce
on behalf of the United States of America. All rights reserved.
##CAS REGISTRY NO=24480-99-7
##$NIST MASS SPEC NO=115656
##MOLFORM=C8 H12 O
##MW=124
##$NIST SOURCE=MSDC
##XUNITS=M/Z
##YUNITS=RELATIVE INTENSITY
##XFACTOR=1
##YFACTOR=1
##FIRSTX=38
##LASTX=124
##FIRSTY=100
##MAXX=124
##MINX=38
##MAXY=9999
##MINY=100
##NPOINTS=28
##PEAK TABLE=(XY..XY)
38,100 39,1900 40,300 41,1600
42,200 50,200 51,400 52,200
53,700 54,1500 55,900 65,300
66,100 67,900 68,100 70,200
77,700 78,1000 79,4500 80,9999
81,1500 82,100 91,500 93,100
95,300 105,100 106,100 124,300
##END=
