##TITLE=Hexanedioic acid, bis(phenylmethyl) ester
##JCAMP-DX=4.24
##DATA TYPE=MASS SPECTRUM
##ORIGIN=Japan AIST/NIMC Database- Spectrum MS-NW-5771
##OWNER=NIST Mass Spectrometry Data Center
Collection (C) 2014 copyright by the U.S. Secretary of Commerce
on behalf of the United States of America. All rights reserved.
##CAS REGISTRY NO=2451-84-5
##$NIST MASS SPEC NO=232962
##MOLFORM=C20 H22 O4
##MW=326
##$NIST SOURCE=MSDC
##XUNITS=M/Z
##YUNITS=RELATIVE INTENSITY
##XFACTOR=1
##YFACTOR=1
##FIRSTX=17
##LASTX=327
##FIRSTY=10
##MAXX=327
##MINX=17
##MAXY=9999
##MINY=10
##NPOINTS=115
##PEAK TABLE=(XY..XY)
17,10 18,30 26,20 27,189
28,209 29,169 38,30 39,419
40,50 41,359 42,60 43,349
44,30 45,30 50,90 51,309
52,99 53,70 54,30 55,849
56,159 57,90 58,10 59,319
60,20 62,30 63,189 64,70
65,1009 66,60 67,30 68,30
69,20 71,20 73,30 74,20
75,20 76,20 77,509 78,119
79,439 80,30 81,10 82,10
83,869 84,319 85,149 86,10
87,20 88,10 89,289 90,469
91,9919 92,1029 93,50 95,30
99,50 100,50 101,2349 102,149
103,20 104,20 105,159 106,60
107,789 108,359 109,30 111,2419
112,459 113,40 115,20 117,30
118,10 127,20 128,10 129,9999
130,719 131,109 132,10 143,10
145,10 152,10 155,10 157,10
161,10 165,20 166,10 167,30
171,10 173,20 174,20 175,10
178,10 179,20 180,169 181,60
189,20 191,10 192,20 197,20
199,20 207,10 208,60 209,10
217,20 218,20 219,60 220,80
221,10 235,1379 236,239 237,30
298,20 326,50 327,20
##END=
