##TITLE=Nomifensine
##JCAMP-DX=4.24
##DATA TYPE=MASS SPECTRUM
##ORIGIN=AAFS Toxicology Section MS DB Committee, U. Alberta, Canada
##OWNER=NIST Mass Spectrometry Data Center
Collection (C) 2014 copyright by the U.S. Secretary of Commerce
on behalf of the United States of America. All rights reserved.
##CAS REGISTRY NO=24526-64-5
##$NIST MASS SPEC NO=247189
##MOLFORM=C16 H18 N2
##MW=238
##$NIST SOURCE=MSDC
##XUNITS=M/Z
##YUNITS=RELATIVE INTENSITY
##XFACTOR=1
##YFACTOR=1
##FIRSTX=38
##LASTX=240
##FIRSTY=10
##MAXX=240
##MINX=38
##MAXY=9999
##MINY=10
##NPOINTS=140
##PEAK TABLE=(XY..XY)
38,10 39,80 41,20 42,250
43,60 44,160 50,50 51,160
52,60 53,30 54,20 55,10
56,10 57,10 58,10 62,30
63,130 64,30 65,120 66,40
67,10 70,20 71,10 74,20
75,90 76,130 77,320 78,140
79,40 80,30 82,70 84,10
86,10 87,40 88,70 89,310
90,200 91,230 92,40 93,20
94,20 95,70 96,410 99,10
100,10 101,30 102,130 103,150
104,100 105,20 106,30 107,10
109,60 111,20 112,10 113,40
114,30 115,260 116,130 117,180
118,190 119,50 120,10 126,70
127,100 128,230 129,40 130,120
131,140 132,40 133,220 134,150
135,10 139,140 140,70 141,60
142,40 143,70 144,160 145,180
146,340 147,50 148,10 150,70
151,270 152,580 153,180 154,60
155,10 159,280 160,120 161,20
162,10 163,100 164,130 165,860
166,320 167,330 168,70 169,10
175,30 176,500 177,630 178,1691
179,830 180,780 181,110 182,10
189,40 190,90 191,130 192,240
193,1581 194,9999 195,4664 196,590
197,40 198,10 203,20 204,60
205,40 206,90 207,60 208,40
209,70 210,10 218,20 219,50
220,50 221,320 222,120 223,260
224,40 225,10 235,90 236,20
237,650 238,2492 239,450 240,30
##END=
