##TITLE=Propane, 2,2-dimethyl-1,1,1-triphenyl-
##JCAMP-DX=4.24
##DATA TYPE=MASS SPECTRUM
##OWNER=NIST Mass Spectrometry Data Center
Collection (C) 2014 copyright by the U.S. Secretary of Commerce
on behalf of the United States of America. All rights reserved.
##CAS REGISTRY NO=24523-60-2
##$NIST MASS SPEC NO=14328
##MOLFORM=C23 H24
##MW=300
##$NIST SOURCE=MSDC
##XUNITS=M/Z
##YUNITS=RELATIVE INTENSITY
##XFACTOR=1
##YFACTOR=1
##FIRSTX=29
##LASTX=246
##FIRSTY=130
##MAXX=246
##MINX=29
##MAXY=9999
##MINY=10
##NPOINTS=67
##PEAK TABLE=(XY..XY)
29,130 39,80 41,200 50,40
51,50 56,20 57,130 63,30
65,30 76,20 77,70 78,90
79,20 91,170 101,30 102,20
103,20 105,70 113,30 115,140
120,30 126,20 127,30 128,40
129,20 139,70 141,30 150,20
151,20 152,60 153,20 154,20
163,80 164,100 165,2702 166,380
167,160 176,40 178,50 179,20
187,20 188,10 189,80 190,20
191,30 200,30 201,20 202,120
203,50 213,50 214,30 215,240
216,40 226,140 227,100 228,400
229,70 237,40 238,40 239,400
240,140 241,450 242,300 243,9999
244,2302 245,240 246,10
##END=
