##TITLE=Cyclopentane, 1,3-dimethyl-
##JCAMP-DX=4.24
##DATA TYPE=MASS SPECTRUM
##ORIGIN=NIST Mass Spectrometry Data Center, 1990.
##OWNER=NIST Mass Spectrometry Data Center
Collection (C) 2014 copyright by the U.S. Secretary of Commerce
on behalf of the United States of America. All rights reserved.
##CAS REGISTRY NO=2453-00-1
##$NIST MASS SPEC NO=114239
##MOLFORM=C7 H14
##MW=98
##$NIST SOURCE=MSDC
##XUNITS=M/Z
##YUNITS=RELATIVE INTENSITY
##XFACTOR=1
##YFACTOR=1
##FIRSTX=15
##LASTX=98
##FIRSTY=633
##MAXX=98
##MINX=15
##MAXY=9999
##MINY=208
##NPOINTS=32
##PEAK TABLE=(XY..XY)
15,633 26,408 27,3076 28,1049
29,1527 38,480 39,5088 40,1052
41,6877 42,2275 43,660 50,421
51,609 52,284 53,1207 54,704
55,7983 56,6990 57,1114 63,208
65,341 67,712 68,395 69,2946
70,9999 71,464 77,297 79,349
81,280 82,297 83,2577 98,1296
##END=
