##TITLE=Bicyclo[3.1.0]hex-3-en-2-one, 4-methyl-1-(1-methylethyl)-
##JCAMP-DX=4.24
##DATA TYPE=MASS SPECTRUM
##OWNER=NIST Mass Spectrometry Data Center
Collection (C) 2014 copyright by the U.S. Secretary of Commerce
on behalf of the United States of America. All rights reserved.
##CAS REGISTRY NO=24545-81-1
##$NIST MASS SPEC NO=4630
##MOLFORM=C10 H14 O
##MW=150
##$NIST SOURCE=MSDC
##XUNITS=M/Z
##YUNITS=RELATIVE INTENSITY
##XFACTOR=1
##YFACTOR=1
##FIRSTX=15
##LASTX=151
##FIRSTY=170
##MAXX=151
##MINX=15
##MAXY=9999
##MINY=50
##NPOINTS=71
##PEAK TABLE=(XY..XY)
15,170 26,140 27,1521 28,581
29,460 38,240 39,2542 40,470
41,2232 42,250 43,1161 44,140
50,280 51,921 52,581 53,1081
54,340 55,530 56,130 62,80
63,460 64,90 65,821 66,360
67,871 68,130 69,290 70,220
71,80 74,50 75,90 76,90
77,1872 78,550 79,2342 80,1732
81,350 82,831 83,160 84,70
89,90 90,200 91,4404 92,661
93,611 94,961 95,1081 96,420
103,240 105,911 106,250 107,7627
108,9999 109,1371 110,100 115,270
116,100 117,350 118,50 119,140
120,110 121,641 122,771 123,160
133,120 134,60 135,2162 136,200
149,250 150,1732 151,170
##END=
