##TITLE=Cyclopropane, 1,1-dichloro-2,2,3-triethyl-
##JCAMP-DX=4.24
##DATA TYPE=MASS SPECTRUM
##OWNER=NIST Mass Spectrometry Data Center
Collection (C) 2014 copyright by the U.S. Secretary of Commerce
on behalf of the United States of America. All rights reserved.
##CAS REGISTRY NO=24551-90-4
##$NIST MASS SPEC NO=8538
##MOLFORM=C9 H16 Cl2
##MW=194
##$NIST SOURCE=MSDC
##XUNITS=M/Z
##YUNITS=RELATIVE INTENSITY
##XFACTOR=1
##YFACTOR=1
##FIRSTX=36
##LASTX=194
##FIRSTY=4204
##MAXX=194
##MINX=36
##MAXY=9999
##MINY=100
##NPOINTS=79
##PEAK TABLE=(XY..XY)
36,4204 38,2402 39,9999 40,1601
41,9308 42,2702 43,3003 44,100
50,1702 51,4604 52,1501 53,5705
54,500 55,9308 56,1001 57,901
63,2803 64,200 65,4704 66,1001
67,4304 68,400 69,2002 70,7407
71,701 75,1802 76,200 77,7206
78,1601 79,5405 80,901 81,6806
82,701 84,200 89,4104 90,400
91,6206 92,1001 93,6206 94,901
95,2202 96,200 101,1001 102,1001
103,1201 104,500 105,1101 106,100
107,4604 108,500 109,2002 110,200
111,1301 112,200 115,500 116,1101
117,1301 118,100 119,400 123,7206
124,701 125,2102 126,200 129,4004
130,400 131,1301 132,100 137,300
139,200 143,1101 144,100 158,4104
159,1401 160,1401 161,450 165,1101
166,100 167,701 194,300
##END=
