##TITLE=Phenyl .beta.-chloropropionate
##JCAMP-DX=4.24
##DATA TYPE=MASS SPECTRUM
##ORIGIN=Japan AIST/NIMC Database- Spectrum MS-NW-3388
##OWNER=NIST Mass Spectrometry Data Center
Collection (C) 2014 copyright by the U.S. Secretary of Commerce
on behalf of the United States of America. All rights reserved.
##CAS REGISTRY NO=24552-27-0
##$NIST MASS SPEC NO=231950
##MOLFORM=C9 H9 Cl O2
##MW=184
##$NIST SOURCE=MSDC
##XUNITS=M/Z
##YUNITS=RELATIVE INTENSITY
##XFACTOR=1
##YFACTOR=1
##FIRSTX=25
##LASTX=187
##FIRSTY=10
##MAXX=187
##MINX=25
##MAXY=9999
##MINY=10
##NPOINTS=57
##PEAK TABLE=(XY..XY)
25,10 26,129 27,909 28,129
29,10 35,10 36,40 37,50
38,159 39,809 40,119 41,10
42,30 43,10 45,10 49,40
50,139 51,269 52,20 53,40
55,1349 56,60 60,10 61,50
62,90 63,1539 64,109 65,859
66,479 67,30 68,10 73,40
74,40 75,30 76,30 77,519
78,40 79,20 89,10 91,699
92,30 93,269 94,9999 95,699
96,40 107,50 120,10 121,30
125,10 128,80 130,30 148,179
149,20 184,409 185,40 186,139
187,10
##END=
