##TITLE=Levophacetoperane
##JCAMP-DX=4.24
##DATA TYPE=MASS SPECTRUM
##ORIGIN=Finnigan MAT: Toxicological Library (LIBR-TX)
##OWNER=NIST Mass Spectrometry Data Center
Collection (C) 2014 copyright by the U.S. Secretary of Commerce
on behalf of the United States of America. All rights reserved.
##CAS REGISTRY NO=24558-01-8
##$NIST MASS SPEC NO=119315
##MOLFORM=C14 H19 N O2
##MW=233
##$NIST SOURCE=MSDC
##XUNITS=M/Z
##YUNITS=RELATIVE INTENSITY
##XFACTOR=1
##YFACTOR=1
##FIRSTX=51
##LASTX=233
##FIRSTY=328
##MAXX=233
##MINX=51
##MAXY=9999
##MINY=6
##NPOINTS=31
##PEAK TABLE=(XY..XY)
51,328 54,293 56,1263 67,173
77,1212 78,306 82,393 84,9999
89,243 91,977 104,119 105,637
106,117 118,79 121,683 128,145
129,185 130,334 141,52 149,41
155,33 170,93 172,568 173,1093
188,6 189,74 192,11 200,12
211,8 215,356 233,6
##END=
