##TITLE=Butane, 1-(2,2-dichloro-1-methylcyclopropyl)-3-methyl-
##JCAMP-DX=4.24
##DATA TYPE=MASS SPECTRUM
##OWNER=NIST Mass Spectrometry Data Center
Collection (C) 2014 copyright by the U.S. Secretary of Commerce
on behalf of the United States of America. All rights reserved.
##CAS REGISTRY NO=24551-81-3
##$NIST MASS SPEC NO=8539
##MOLFORM=C9 H16 Cl2
##MW=194
##$NIST SOURCE=MSDC
##XUNITS=M/Z
##YUNITS=RELATIVE INTENSITY
##XFACTOR=1
##YFACTOR=1
##FIRSTX=39
##LASTX=194
##FIRSTY=5105
##MAXX=194
##MINX=39
##MAXY=9999
##MINY=50
##NPOINTS=34
##PEAK TABLE=(XY..XY)
39,5105 40,1001 41,7607 42,1001
43,8508 44,400 51,1601 53,1601
54,701 55,3403 56,9999 57,2002
58,100 65,1501 67,901 69,9208
70,2102 71,400 75,500 77,701
81,601 83,701 87,601 89,701
98,1001 102,500 109,300 111,200
123,1401 124,300 125,701 126,200
165,100 194,50
##END=
