##TITLE=N-(6-Bromohexyl)phthalimide
##JCAMP-DX=4.24
##DATA TYPE=MASS SPECTRUM
##ORIGIN=NIST Mass Spectrometry Data Center, 1994
##OWNER=NIST Mass Spectrometry Data Center
Collection (C) 2014 copyright by the U.S. Secretary of Commerce
on behalf of the United States of America. All rights reserved.
##CAS REGISTRY NO=24566-79-8
##$NIST MASS SPEC NO=134591
##MOLFORM=C14 H16 Br N O2
##MW=309
##$NIST SOURCE=MSDC
##XUNITS=M/Z
##YUNITS=RELATIVE INTENSITY
##XFACTOR=1
##YFACTOR=1
##FIRSTX=15
##LASTX=314
##FIRSTY=81
##MAXX=314
##MINX=15
##MAXY=9999
##MINY=1
##NPOINTS=83
##PEAK TABLE=(XY..XY)
15,81 18,37 26,82 27,1134
28,76 29,638 30,35 38,93
39,943 40,195 41,1879 42,392
43,110 50,1034 51,639 52,125
53,253 54,212 55,721 56,229
63,89 64,77 65,110 66,133
67,180 68,56 69,151 70,58
74,343 75,668 76,2477 77,2353
78,254 79,83 81,88 82,106
83,102 89,73 90,83 91,45
92,45 93,56 95,50 101,39
102,455 103,252 104,1727 105,1066
106,136 107,75 109,69 117,439
118,58 130,1780 131,194 132,346
133,1144 134,120 146,64 147,189
148,967 149,136 158,36 160,9999
161,4918 162,594 163,49 174,688
175,257 176,37 186,49 188,294
189,44 202,275 203,55 230,694
231,127 309,2129 310,337 311,2111
312,333 313,25 314,1
##END=
