##TITLE=Benzoic acid, 4-amino-2-chloro-
##JCAMP-DX=4.24
##DATA TYPE=MASS SPECTRUM
##ORIGIN=Japan AIST/NIMC Database- Spectrum MS-NW-7340
##OWNER=NIST Mass Spectrometry Data Center
Collection (C) 2014 copyright by the U.S. Secretary of Commerce
on behalf of the United States of America. All rights reserved.
##CAS REGISTRY NO=2457-76-3
##$NIST MASS SPEC NO=235717
##MOLFORM=C7 H6 Cl N O2
##MW=171
##$NIST SOURCE=MSDC
##XUNITS=M/Z
##YUNITS=RELATIVE INTENSITY
##XFACTOR=1
##YFACTOR=1
##FIRSTX=16
##LASTX=175
##FIRSTY=10
##MAXX=175
##MINX=16
##MAXY=9999
##MINY=10
##NPOINTS=128
##PEAK TABLE=(XY..XY)
16,10 17,20 18,70 26,20
27,40 28,209 29,30 31,10
35,10 36,50 37,169 38,229
39,309 40,90 41,389 42,50
43,20 44,199 45,229 46,30
47,20 48,20 49,70 50,169
51,209 52,379 53,139 54,90
55,30 57,10 58,10 59,40
60,60 61,279 62,519 63,1229
64,449 65,469 66,109 67,20
68,70 69,10 71,659 72,249
73,339 74,139 75,139 76,60
77,269 78,169 79,189 80,219
81,40 83,10 84,30 85,30
86,60 87,70 88,80 89,189
90,1119 91,489 92,179 93,20
96,20 97,90 98,60 99,1329
100,149 101,469 102,50 103,20
105,30 106,70 107,40 108,30
109,20 110,20 111,20 112,10
113,10 114,50 115,80 116,30
117,40 118,20 119,10 120,179
121,20 123,10 124,60 125,129
126,1449 127,229 128,509 129,70
130,10 134,10 135,10 136,60
137,179 138,20 139,30 140,10
141,20 142,159 143,129 144,70
145,50 146,10 147,10 149,20
150,10 151,10 152,30 153,30
154,9999 155,859 156,3269 157,299
158,20 169,10 170,90 171,9099
172,839 173,3009 174,279 175,30
##END=
