##TITLE=Ergosta-5,22-dien-3-ol, acetate, (3.beta.,22E)-
##JCAMP-DX=4.24
##DATA TYPE=MASS SPECTRUM
##ORIGIN=H. Luftmann, Org. Chem. Inst., Westfalisch-Wilhelms Univ., Munster, Germany
##OWNER=NIST Mass Spectrometry Data Center
Collection (C) 2014 copyright by the U.S. Secretary of Commerce
on behalf of the United States of America. All rights reserved.
##CAS REGISTRY NO=2458-53-9
##$NIST MASS SPEC NO=141996
##MOLFORM=C30 H48 O2
##MW=440
##$NIST SOURCE=MSDC
##XUNITS=M/Z
##YUNITS=RELATIVE INTENSITY
##XFACTOR=1
##YFACTOR=1
##FIRSTX=37
##LASTX=382
##FIRSTY=123
##MAXX=382
##MINX=37
##MAXY=9999
##MINY=102
##NPOINTS=210
##PEAK TABLE=(XY..XY)
37,123 38,427 39,3211 40,2805
41,9966 42,1096 43,9999 44,3871
45,1129 49,110 50,173 51,516
52,326 53,1595 54,804 55,6764
56,1891 57,1481 58,427 59,140
60,140 61,203 63,173 64,254
65,943 66,846 67,3782 68,1464
69,3515 70,1138 71,470 72,224
73,745 74,313 75,254 76,317
77,1557 78,1299 79,2927 80,1252
81,3160 82,1138 83,1404 84,465
85,427 86,114 87,110 88,140
89,343 90,537 91,3393 92,1096
93,2115 94,711 95,964 96,516
97,313 98,152 101,161 102,216
103,630 104,508 105,2826 106,1028
107,1777 108,622 109,1210 110,364
111,245 112,123 113,144 114,152
115,694 116,508 117,1485 118,588
119,1341 120,609 121,694 122,588
123,317 124,254 125,161 126,161
127,343 128,986 129,1079 130,609
131,1502 132,643 133,1624 134,580
135,871 136,326 137,195 138,123
139,131 140,131 141,499 142,448
143,1451 144,948 145,2297 146,1248
147,1442 148,558 149,622 150,190
151,140 152,123 153,203 154,266
155,283 156,317 157,690 158,1197
159,1861 160,622 161,1074 162,266
163,182 164,123 165,262 166,131
167,152 169,233 170,245 171,537
172,254 173,761 174,275 175,415
176,152 177,140 181,110 183,203
184,173 185,470 186,190 187,355
188,161 189,317 190,123 191,190
193,131 194,110 195,144 196,110
197,275 198,233 199,571 200,224
201,313 202,140 203,110 204,102
207,639 208,165 209,144 210,123
211,520 212,233 213,846 214,216
215,144 217,110 225,283 226,131
227,334 228,283 229,144 239,317
240,161 241,110 250,110 251,173
252,140 253,1616 254,761 255,2466
256,499 257,195 259,216 265,140
267,436 268,165 269,110 272,102
281,745 282,478 283,305 295,262
296,173 309,131 326,102 327,326
328,110 329,131 337,203 338,152
341,203 343,110 355,182 365,943
366,262 378,110 379,114 380,1739
381,550 382,140
##END=
