##TITLE=Ethyl hydrogen fumarate
##JCAMP-DX=4.24
##DATA TYPE=MASS SPECTRUM
##ORIGIN=Japan AIST/NIMC Database- Spectrum MS-IW- 566
##OWNER=NIST Mass Spectrometry Data Center
Collection (C) 2014 copyright by the U.S. Secretary of Commerce
on behalf of the United States of America. All rights reserved.
##CAS REGISTRY NO=2459-05-4
##$NIST MASS SPEC NO=239001
##MOLFORM=C6 H8 O4
##MW=144
##$NIST SOURCE=MSDC
##XUNITS=M/Z
##YUNITS=RELATIVE INTENSITY
##XFACTOR=1
##YFACTOR=1
##FIRSTX=14
##LASTX=145
##FIRSTY=20
##MAXX=145
##MINX=14
##MAXY=9999
##MINY=10
##NPOINTS=50
##PEAK TABLE=(XY..XY)
14,20 15,119 18,20 25,30
26,569 27,1599 28,459 29,1269
30,50 31,99 39,20 41,30
42,80 43,379 44,119 45,1169
46,50 52,10 53,759 54,579
55,649 56,40 57,10 68,30
69,40 70,70 71,549 72,379
73,40 81,1229 82,1399 83,80
86,70 88,30 91,10 97,10
98,559 99,9999 100,1319 101,109
102,10 113,10 116,20 117,899
118,40 126,889 127,259 128,20
129,40 145,30
##END=
