##TITLE=2-Pyridinecarboxylic acid, methyl ester
##JCAMP-DX=4.24
##DATA TYPE=MASS SPECTRUM
##ORIGIN=Japan AIST/NIMC Database- Spectrum MS-NW-3146
##OWNER=NIST Mass Spectrometry Data Center
Collection (C) 2014 copyright by the U.S. Secretary of Commerce
on behalf of the United States of America. All rights reserved.
##CAS REGISTRY NO=2459-07-6
##$NIST MASS SPEC NO=231432
##MOLFORM=C7 H7 N O2
##MW=137
##$NIST SOURCE=MSDC
##XUNITS=M/Z
##YUNITS=RELATIVE INTENSITY
##XFACTOR=1
##YFACTOR=1
##FIRSTX=14
##LASTX=138
##FIRSTY=20
##MAXX=138
##MINX=14
##MAXY=9999
##MINY=10
##NPOINTS=48
##PEAK TABLE=(XY..XY)
14,20 15,509 25,20 26,199
27,459 28,239 29,129 30,30
31,30 32,20 36,10 37,70
38,139 39,289 40,50 41,20
42,30 44,30 48,10 49,129
50,699 51,2249 52,1039 53,119
54,10 59,269 60,10 63,20
64,20 65,90 66,129 67,30
74,10 75,119 76,219 77,189
78,6949 79,9999 80,639 81,20
92,60 93,30 106,1109 107,2949
108,229 109,10 137,339 138,30
##END=
