##TITLE=L-Ornithine, 3TMS derivative
##JCAMP-DX=4.24
##DATA TYPE=MASS SPECTRUM
##ORIGIN=NIST Mass Spectrometry Data Center
##OWNER=NIST Mass Spectrometry Data Center
Collection (C) 2014 copyright by the U.S. Secretary of Commerce
on behalf of the United States of America. All rights reserved.
##CAS REGISTRY NO=24595-70-8
##$NIST MASS SPEC NO=333140
##MOLFORM=C14 H36 N2 O2 Si3
##MW=348
##$NIST SOURCE=MSDC
##XUNITS=M/Z
##YUNITS=RELATIVE INTENSITY
##XFACTOR=1
##YFACTOR=1
##FIRSTX=26
##LASTX=352
##FIRSTY=10
##MAXX=352
##MINX=26
##MAXY=9999
##MINY=10
##NPOINTS=196
##PEAK TABLE=(XY..XY)
26,10 27,20 28,50 29,30
30,50 31,30 39,10 41,50
42,50 43,240 44,200 45,861
46,90 47,90 52,10 53,10
54,20 55,100 56,90 57,110
58,180 59,701 60,150 61,80
62,10 66,40 67,20 68,200
69,70 70,4984 71,290 72,240
73,7116 74,1601 75,821 76,90
77,20 78,10 80,20 81,10
82,30 83,20 84,80 85,70
86,160 87,80 88,160 89,240
90,80 91,10 92,10 95,10
96,30 97,140 98,140 99,80
100,941 101,180 102,1491 103,240
104,120 105,30 108,30 110,40
111,20 112,70 113,60 114,250
115,1021 116,250 117,440 118,70
119,60 120,10 124,20 125,10
126,100 127,40 128,941 129,330
130,350 131,240 132,280 133,380
134,70 135,30 136,10 137,10
138,10 139,10 140,110 142,9999
143,1451 144,981 145,120 146,170
147,1211 148,370 149,150 150,30
151,10 152,30 153,200 154,130
155,40 156,30 157,70 158,70
159,90 160,50 161,10 162,701
163,120 164,60 165,10 167,10
168,20 169,150 170,80 171,150
172,110 173,40 174,80 175,20
176,20 177,10 185,10 186,40
187,40 188,90 189,40 190,30
191,60 192,10 193,10 198,10
199,10 200,90 201,20 202,30
203,30 204,550 205,110 206,50
207,10 213,10 214,60 215,60
216,430 217,190 218,350 219,140
220,50 221,20 226,10 227,30
228,20 229,30 230,30 231,120
232,100 233,30 234,10 236,20
237,10 241,80 242,30 243,400
244,410 245,100 246,40 247,10
257,10 258,90 259,180 260,40
261,20 276,20 277,10 288,10
289,10 291,20 292,10 304,10
305,10 315,10 316,10 330,10
331,60 332,20 333,20 348,721
349,260 350,130 351,30 352,10
##END=
