##TITLE=3,5-Dinitrosalicylaldehyde
##JCAMP-DX=4.24
##DATA TYPE=MASS SPECTRUM
##ORIGIN=NIST Mass Spectrometry Data Center, 1994
##OWNER=NIST Mass Spectrometry Data Center
Collection (C) 2014 copyright by the U.S. Secretary of Commerce
on behalf of the United States of America. All rights reserved.
##CAS REGISTRY NO=2460-59-5
##$NIST MASS SPEC NO=136429
##MOLFORM=C7 H4 N2 O6
##MW=212
##$NIST SOURCE=MSDC
##XUNITS=M/Z
##YUNITS=RELATIVE INTENSITY
##XFACTOR=1
##YFACTOR=1
##FIRSTX=17
##LASTX=212
##FIRSTY=247
##MAXX=212
##MINX=17
##MAXY=9999
##MINY=112
##NPOINTS=56
##PEAK TABLE=(XY..XY)
17,247 27,819 29,1574 30,2679
37,587 39,112 42,186 44,245
45,534 46,144 50,1431 51,2140
52,1244 53,3175 54,276 55,781
61,1293 62,2962 63,4106 64,1809
65,1080 66,288 67,233 74,390
75,495 76,689 77,1916 78,915
79,839 80,2279 81,395 89,517
90,1106 91,5861 92,1369 105,2263
106,183 107,213 108,595 115,542
117,1670 118,1716 119,1486 120,1625
121,529 123,246 136,922 154,804
163,1986 165,1278 178,925 182,2118
194,9999 195,1044 196,236 212,711
##END=
