##TITLE=Thiazolo[3,2-c]pyrimidin-4-ium, 2,3-dihydro-8-hydroxy-5-methyl-, hydroxide, inner salt
##JCAMP-DX=4.24
##DATA TYPE=MASS SPECTRUM
##OWNER=NIST Mass Spectrometry Data Center
Collection (C) 2014 copyright by the U.S. Secretary of Commerce
on behalf of the United States of America. All rights reserved.
##CAS REGISTRY NO=24614-07-1
##$NIST MASS SPEC NO=6530
##MOLFORM=C7 H8 N2 O S
##MW=168
##$NIST SOURCE=MSDC
##XUNITS=M/Z
##YUNITS=RELATIVE INTENSITY
##XFACTOR=1
##YFACTOR=1
##FIRSTX=26
##LASTX=170
##FIRSTY=1101
##MAXX=170
##MINX=26
##MAXY=9999
##MINY=100
##NPOINTS=43
##PEAK TABLE=(XY..XY)
26,1101 27,2302 28,1702 40,300
41,300 42,801 44,300 45,1401
51,200 52,601 53,701 54,2602
55,300 57,400 58,1301 59,2302
60,8508 61,500 62,400 70,500
71,200 72,701 80,400 82,2602
84,400 85,1101 86,100 98,200
99,100 108,100 109,601 110,100
112,300 113,100 122,801 126,200
139,300 140,701 142,100 167,500
168,9999 169,1101 170,500
##END=
