##TITLE=1-Octen-4-yne
##JCAMP-DX=4.24
##DATA TYPE=MASS SPECTRUM
##ORIGIN=NIST Mass Spectrometry Data Center, 1990.
##OWNER=NIST Mass Spectrometry Data Center
Collection (C) 2014 copyright by the U.S. Secretary of Commerce
on behalf of the United States of America. All rights reserved.
##CAS REGISTRY NO=24612-83-7
##$NIST MASS SPEC NO=118196
##MOLFORM=C8 H12
##MW=108
##$NIST SOURCE=MSDC
##XUNITS=M/Z
##YUNITS=RELATIVE INTENSITY
##XFACTOR=1
##YFACTOR=1
##FIRSTX=14
##LASTX=109
##FIRSTY=141
##MAXX=109
##MINX=14
##MAXY=9999
##MINY=59
##NPOINTS=48
##PEAK TABLE=(XY..XY)
14,141 15,195 18,82 26,638
27,3438 28,376 29,1047 32,59
37,244 38,668 39,3959 40,763
41,2384 42,214 43,300 49,238
50,1374 51,2767 52,1487 53,1717
54,352 55,308 61,154 62,461
63,782 64,245 65,1888 66,1423
67,795 68,97 73,86 74,311
75,169 76,86 77,9999 78,1939
79,6429 80,1058 81,156 89,67
91,3600 93,4890 94,393 103,75
105,125 107,246 108,1644 109,135
##END=
