##TITLE=9-Octadecenoic acid, methyl ester
##JCAMP-DX=4.24
##DATA TYPE=MASS SPECTRUM
##ORIGIN=R.T.HOLMAN,UNIVERSITY OF MINNESOTA
##OWNER=NIST Mass Spectrometry Data Center
Collection (C) 2014 copyright by the U.S. Secretary of Commerce
on behalf of the United States of America. All rights reserved.
##CAS REGISTRY NO=2462-84-2
##$NIST MASS SPEC NO=36213
##MOLFORM=C19 H36 O2
##MW=296
##$NIST SOURCE=MSDC
##XUNITS=M/Z
##YUNITS=RELATIVE INTENSITY
##XFACTOR=1
##YFACTOR=1
##FIRSTX=26
##LASTX=299
##FIRSTY=70
##MAXX=299
##MINX=26
##MAXY=9999
##MINY=10
##NPOINTS=238
##PEAK TABLE=(XY..XY)
26,70 27,1400 28,650 29,3500
30,90 31,130 32,70 33,40
35,10 36,30 37,20 38,30
39,1300 40,260 41,8500 42,1500
43,6300 44,240 45,340 46,20
50,20 51,70 52,70 53,900
54,2700 55,9999 56,2500 57,3300
58,150 59,2100 60,90 61,40
62,20 63,20 64,10 65,200
66,220 67,3600 68,2400 69,6900
70,1900 71,1200 72,150 73,530
74,6800 75,950 76,70 77,230
78,100 79,700 80,480 81,3100
82,2100 83,5100 84,4200 85,1000
86,80 87,4500 88,440 89,50
90,20 91,210 92,70 93,380
94,440 95,2100 96,3600 97,4000
98,3200 99,460 100,110 101,740
102,90 103,20 104,20 105,130
106,70 107,280 108,310 109,1200
110,2000 111,2000 112,730 113,340
114,490 115,800 116,130 117,30
118,30 119,250 120,180 121,350
122,180 123,1500 124,1000 125,1000
126,240 127,330 128,540 129,490
130,130 131,30 132,20 133,240
134,200 135,340 136,120 137,820
138,800 139,610 140,130 141,610
142,170 143,450 144,70 145,30
146,20 147,210 148,160 149,200
150,90 151,510 152,610 153,370
154,80 155,180 156,50 157,180
158,50 159,20 160,10 161,120
162,60 163,110 164,100 165,330
166,480 167,230 168,60 169,250
170,50 171,130 172,30 173,10
175,90 176,30 177,60 178,50
179,190 180,1100 181,280 182,50
183,140 184,40 185,100 186,50
187,20 188,10 189,60 190,20
191,30 192,30 193,150 194,200
195,70 196,30 197,40 198,20
199,120 200,60 201,10 203,30
204,20 205,20 206,20 207,150
208,120 209,60 210,40 211,30
212,10 213,110 214,60 215,20
217,20 218,20 219,10 220,440
221,310 222,1600 223,320 224,40
225,20 226,10 227,40 228,40
229,20 230,10 231,10 233,10
234,10 235,200 236,210 237,50
238,10 239,20 240,10 241,20
242,10 245,20 246,160 247,100
248,20 249,30 250,20 251,10
253,90 254,20 255,20 256,10
263,50 264,3100 265,1900 266,300
267,60 268,20 269,10 278,30
279,10 280,10 281,10 282,10
294,20 295,10 296,594 297,130
298,40 299,10
##END=
