##TITLE=9,12-Hexadecadienoic acid, methyl ester
##JCAMP-DX=4.24
##DATA TYPE=MASS SPECTRUM
##ORIGIN=R.T.HOLMAN,UNIVERSITY OF MINNESOTA
##OWNER=NIST Mass Spectrometry Data Center
Collection (C) 2014 copyright by the U.S. Secretary of Commerce
on behalf of the United States of America. All rights reserved.
##CAS REGISTRY NO=2462-80-8
##$NIST MASS SPEC NO=36515
##MOLFORM=C17 H30 O2
##MW=266
##$NIST SOURCE=MSDC
##XUNITS=M/Z
##YUNITS=RELATIVE INTENSITY
##XFACTOR=1
##YFACTOR=1
##FIRSTX=26
##LASTX=271
##FIRSTY=90
##MAXX=271
##MINX=26
##MAXY=9999
##MINY=10
##NPOINTS=238
##PEAK TABLE=(XY..XY)
26,90 27,1490 28,1170 29,2150
30,80 31,140 32,100 33,30
35,10 36,50 37,20 38,50
39,1600 40,290 41,6820 42,740
43,2230 44,390 45,330 46,20
50,50 51,180 52,170 53,1290
54,4470 55,6230 56,580 57,700
58,80 59,1680 60,110 61,40
62,10 63,60 64,30 65,620
66,540 67,9999 68,3800 69,2740
70,290 71,390 72,50 73,300
74,1250 75,190 76,40 77,1090
78,380 79,2780 80,1640 81,7290
82,4350 83,1490 84,400 85,440
86,40 87,860 88,90 89,80
90,20 91,860 92,190 93,1290
94,1090 95,4070 96,3130 97,940
98,290 99,180 100,50 101,220
102,30 103,50 104,40 105,290
106,160 107,780 108,780 109,2230
110,1370 111,470 112,90 113,110
114,50 115,270 116,50 117,80
118,40 119,190 120,170 121,740
122,620 123,1050 124,540 125,220
126,60 127,110 128,60 129,180
130,40 131,120 132,50 133,220
134,100 135,660 136,700 137,470
138,280 139,150 140,100 141,140
142,30 143,120 144,30 145,90
146,50 147,130 148,50 149,470
150,740 151,360 152,140 153,120
154,100 155,60 156,10 157,40
158,10 159,90 160,30 161,70
162,30 163,280 164,390 165,160
166,60 167,80 168,100 169,30
170,10 171,30 172,10 173,100
174,20 175,40 176,10 177,140
178,170 179,70 180,40 181,70
182,70 183,20 184,10 185,50
186,10 187,70 188,20 189,20
190,60 191,100 192,350 193,100
194,50 195,60 196,70 197,20
198,10 199,30 200,10 201,10
202,10 203,10 204,10 205,90
206,130 207,50 208,20 209,60
210,50 211,20 212,10 213,10
214,10 215,10 216,10 217,30
218,10 219,10 220,10 221,10
222,10 223,50 224,40 225,20
226,10 227,10 228,10 229,10
231,10 232,10 233,20 234,540
235,900 236,180 237,70 238,20
239,20 240,10 241,10 242,10
243,10 247,10 248,10 249,10
250,10 251,10 252,10 253,10
254,10 255,10 256,10 257,10
258,10 259,10 260,10 261,10
262,10 263,10 264,30 265,30
266,1374 267,290 268,40 269,10
270,20 271,10
##END=
