##TITLE=2-Nonenal
##JCAMP-DX=4.24
##DATA TYPE=MASS SPECTRUM
##OWNER=NIST Mass Spectrometry Data Center
Collection (C) 2014 copyright by the U.S. Secretary of Commerce
on behalf of the United States of America. All rights reserved.
##CAS REGISTRY NO=2463-53-8
##$NIST MASS SPEC NO=3676
##MOLFORM=C9 H16 O
##MW=140
##$NIST SOURCE=MSDC
##XUNITS=M/Z
##YUNITS=RELATIVE INTENSITY
##XFACTOR=1
##YFACTOR=1
##FIRSTX=15
##LASTX=140
##FIRSTY=450
##MAXX=140
##MINX=15
##MAXY=9999
##MINY=200
##NPOINTS=45
##PEAK TABLE=(XY..XY)
15,450 18,200 26,430 27,5975
28,1311 29,7637 30,260 31,260
39,5345 40,821 41,9999 42,3333
43,9999 44,500 51,360 53,1381
54,1842 55,7567 56,2702 57,4714
58,1411 67,1772 68,1191 69,3793
70,7186 71,1161 72,1581 79,561
81,1461 82,691 83,4764 84,3393
85,430 93,691 94,370 95,290
96,2182 97,1081 98,1251 109,300
110,330 111,621 112,270 122,1221
140,450
##END=
