##TITLE=2-Undecenal
##JCAMP-DX=4.24
##DATA TYPE=MASS SPECTRUM
##OWNER=NIST Mass Spectrometry Data Center
Collection (C) 2014 copyright by the U.S. Secretary of Commerce
on behalf of the United States of America. All rights reserved.
##CAS REGISTRY NO=2463-77-6
##$NIST MASS SPEC NO=6431
##MOLFORM=C11 H20 O
##MW=168
##$NIST SOURCE=MSDC
##XUNITS=M/Z
##YUNITS=RELATIVE INTENSITY
##XFACTOR=1
##YFACTOR=1
##FIRSTX=15
##LASTX=168
##FIRSTY=200
##MAXX=168
##MINX=15
##MAXY=9999
##MINY=50
##NPOINTS=76
##PEAK TABLE=(XY..XY)
15,200 18,911 19,80 26,310
27,3873 29,7247 30,190 37,70
38,110 39,3053 40,410 41,9378
42,2182 43,8217 50,100 51,170
52,140 53,1021 54,1782 55,8027
56,2903 57,8928 58,370 60,80
63,60 65,210 66,290 67,2312
68,1842 69,4704 70,9999 71,1311
72,210 73,100 75,60 77,200
78,120 79,971 80,571 81,1852
82,2993 83,5735 84,2572 85,410
86,711 87,70 91,150 92,50
93,641 94,420 95,1081 96,681
97,1792 98,1581 99,140 100,621
107,390 108,320 109,290 110,120
111,1151 112,911 113,170 121,961
122,230 123,60 124,861 125,260
126,90 135,190 137,190 138,50
139,110 150,300 151,50 168,70
##END=
