##TITLE=11,14-Eicosadienoic acid, methyl ester
##JCAMP-DX=4.24
##DATA TYPE=MASS SPECTRUM
##ORIGIN=SERL
##OWNER=NIST Mass Spectrometry Data Center
Collection (C) 2014 copyright by the U.S. Secretary of Commerce
on behalf of the United States of America. All rights reserved.
##CAS REGISTRY NO=2463-02-7
##$NIST MASS SPEC NO=27789
##MOLFORM=C21 H38 O2
##MW=322
##$NIST SOURCE=MSDC
##XUNITS=M/Z
##YUNITS=RELATIVE INTENSITY
##XFACTOR=1
##YFACTOR=1
##FIRSTX=39
##LASTX=322
##FIRSTY=1300
##MAXX=322
##MINX=39
##MAXY=9999
##MINY=100
##NPOINTS=70
##PEAK TABLE=(XY..XY)
39,1300 40,400 41,8200 42,1000
43,4100 44,200 45,400 53,1000
54,4200 55,7900 56,600 57,700
59,1500 65,400 66,700 67,9999
68,4100 69,3500 70,300 71,300
73,200 74,1200 77,800 78,300
79,2600 80,1900 81,6700 82,4900
83,1900 84,200 85,300 87,700
91,600 93,900 94,1000 95,5000
96,3900 97,1200 98,200 99,100
101,100 105,100 107,500 108,400
109,2300 110,1800 111,500 115,200
121,500 122,300 123,1000 124,600
125,300 129,100 135,400 136,400
137,400 138,300 139,100 149,300
150,500 151,200 152,200 163,200
164,200 165,100 178,100 192,100
291,200 322,100
##END=
