##TITLE=Phenol, 2-[(4-hydroxyphenyl)methyl]-
##JCAMP-DX=4.24
##DATA TYPE=MASS SPECTRUM
##ORIGIN=Japan AIST/NIMC Database- Spectrum MS-NW-9460
##OWNER=NIST Mass Spectrometry Data Center
Collection (C) 2014 copyright by the U.S. Secretary of Commerce
on behalf of the United States of America. All rights reserved.
##CAS REGISTRY NO=2467-03-0
##$NIST MASS SPEC NO=236928
##MOLFORM=C13 H12 O2
##MW=200
##$NIST SOURCE=MSDC
##XUNITS=M/Z
##YUNITS=RELATIVE INTENSITY
##XFACTOR=1
##YFACTOR=1
##FIRSTX=26
##LASTX=202
##FIRSTY=10
##MAXX=202
##MINX=26
##MAXY=9999
##MINY=10
##NPOINTS=118
##PEAK TABLE=(XY..XY)
26,10 27,179 28,60 29,20
38,50 39,419 40,50 41,30
43,60 44,10 50,109 51,449
52,149 53,219 54,10 55,499
56,20 57,60 58,40 59,10
61,10 62,70 63,299 64,139
65,259 66,139 67,20 68,10
69,30 70,30 71,30 72,70
74,50 75,99 76,459 77,1059
78,569 79,359 80,20 81,70
82,239 84,70 85,40 86,60
87,40 88,20 89,129 90,159
91,339 92,40 93,30 94,3169
95,219 96,10 98,10 99,60
100,219 101,40 102,60 103,60
104,10 105,159 106,209 107,9999
108,769 109,50 113,20 114,30
115,419 116,80 117,20 118,30
119,10 121,20 125,10 126,50
127,199 128,329 129,90 130,10
131,169 132,20 139,99 140,30
141,219 142,50 143,60 144,70
145,50 150,30 151,189 152,799
153,659 154,109 155,90 156,20
157,119 158,20 163,10 164,30
165,239 166,30 168,60 169,149
170,50 171,189 172,40 181,969
182,219 183,469 184,90 185,30
197,149 198,50 199,829 200,5219
201,739 202,70
##END=
