##TITLE=2,3-Dihydroxybenzaldehyde
##JCAMP-DX=4.24
##DATA TYPE=MASS SPECTRUM
##ORIGIN=NIST Mass Spectrometry Data Center
##OWNER=NIST Mass Spectrometry Data Center
Collection (C) 2014 copyright by the U.S. Secretary of Commerce
on behalf of the United States of America. All rights reserved.
##CAS REGISTRY NO=24677-78-9
##$NIST MASS SPEC NO=343091
##MOLFORM=C7 H6 O3
##MW=138
##$NIST SOURCE=MSDC
##XUNITS=M/Z
##YUNITS=RELATIVE INTENSITY
##XFACTOR=1
##YFACTOR=1
##FIRSTX=12
##LASTX=140
##FIRSTY=50
##MAXX=140
##MINX=12
##MAXY=9999
##MINY=20
##NPOINTS=69
##PEAK TABLE=(XY..XY)
12,50 13,80 14,290 15,190
16,20 17,60 18,260 19,310
25,340 26,991 27,2983 28,631
29,3723 30,190 31,280 32,110
36,220 37,1021 38,1621 39,2032
40,310 41,270 42,410 43,110
45,130 46,270 48,150 49,731
50,2142 51,2172 52,1551 53,3883
54,951 55,2212 56,100 60,140
61,571 62,1081 63,3053 64,2412
65,420 66,270 67,80 69,360
73,50 74,140 75,80 76,70
77,350 78,100 79,450 80,520
81,3283 82,450 83,80 91,581
92,3343 93,270 107,500 108,440
109,1491 110,550 111,50 120,1762
121,150 137,7877 138,9999 139,911
140,80
##END=
