##TITLE=Pentane, 1,1,1,5-tetrachloro-
##JCAMP-DX=4.24
##DATA TYPE=MASS SPECTRUM
##OWNER=NIST Mass Spectrometry Data Center
Collection (C) 2014 copyright by the U.S. Secretary of Commerce
on behalf of the United States of America. All rights reserved.
##CAS REGISTRY NO=2467-10-9
##$NIST MASS SPEC NO=22597
##MOLFORM=C5 H8 Cl4
##MW=208
##$NIST SOURCE=MSDC
##XUNITS=M/Z
##YUNITS=RELATIVE INTENSITY
##XFACTOR=1
##YFACTOR=1
##FIRSTX=15
##LASTX=211
##FIRSTY=120
##MAXX=211
##MINX=15
##MAXY=9999
##MINY=20
##NPOINTS=159
##PEAK TABLE=(XY..XY)
15,120 25,40 26,571 27,3283
28,995 29,1892 30,70 31,70
32,340 33,20 34,40 35,120
36,340 37,280 38,510 39,3213
40,410 41,4144 42,430 43,180
44,110 45,601 46,80 47,340
48,150 49,2122 50,490 51,1331
52,120 53,721 54,80 55,8928
56,420 57,110 58,210 59,831
60,1101 61,1651 62,550 63,3403
64,370 65,2772 66,210 67,180
68,581 69,480 70,140 71,50
72,260 73,741 74,140 75,4644
76,2402 77,1792 78,741 79,140
80,70 81,40 82,220 83,921
84,140 85,731 86,80 87,921
88,90 89,601 90,140 91,5755
92,370 93,1792 94,100 95,200
96,6256 97,1091 98,4084 99,821
100,791 101,9999 102,631 103,3253
104,430 105,170 106,90 107,100
108,50 109,4624 110,500 111,3153
112,330 113,581 114,60 115,50
116,20 117,571 118,30 119,2232
120,140 121,340 122,150 123,841
124,80 125,540 126,30 127,160
128,100 129,60 130,120 131,100
132,130 133,180 134,50 135,150
136,3183 137,7267 138,2412 139,4634
140,591 141,761 142,50 143,70
144,691 145,210 146,671 147,170
148,230 149,130 150,250 151,30
152,20 155,20 157,30 159,130
161,110 162,40 163,130 164,50
165,110 166,30 167,30 169,40
170,70 171,190 172,190 173,1461
174,250 175,1291 176,150 177,400
178,20 179,70 180,100 181,20
191,40 193,60 195,20 204,70
207,50 209,60 211,20
##END=
