##TITLE=1H-Indene, 1-methylene-
##JCAMP-DX=4.24
##DATA TYPE=MASS SPECTRUM
##ORIGIN=HCACAV,60(3)1073(1977);6A; M. NEVENSCHWANDER, UNIVERSITAT BERN, SWITZERLAND
##OWNER=NIST Mass Spectrometry Data Center
Collection (C) 2014 copyright by the U.S. Secretary of Commerce
on behalf of the United States of America. All rights reserved.
##CAS REGISTRY NO=2471-84-3
##$NIST MASS SPEC NO=55613
##MOLFORM=C10 H8
##MW=128
##$NIST SOURCE=MSDC
##XUNITS=M/Z
##YUNITS=RELATIVE INTENSITY
##XFACTOR=1
##YFACTOR=1
##FIRSTX=39
##LASTX=129
##FIRSTY=600
##MAXX=129
##MINX=39
##MAXY=9999
##MINY=100
##NPOINTS=21
##PEAK TABLE=(XY..XY)
39,600 50,900 51,1900 52,300
62,300 63,1300 64,1000 74,600
75,700 76,600 77,700 78,700
87,200 89,200 101,400 102,1300
103,100 126,1100 127,1700 128,9999
129,1200
##END=
