##TITLE=2(1H)-Naphthalenone, 3,4-dihydro-6-methoxy-
##JCAMP-DX=4.24
##DATA TYPE=MASS SPECTRUM
##ORIGIN=NIST Mass Spectrometry Data Center
##OWNER=NIST Mass Spectrometry Data Center
Collection (C) 2014 copyright by the U.S. Secretary of Commerce
on behalf of the United States of America. All rights reserved.
##CAS REGISTRY NO=2472-22-2
##$NIST MASS SPEC NO=342872
##MOLFORM=C11 H12 O2
##MW=176
##$NIST SOURCE=MSDC
##XUNITS=M/Z
##YUNITS=RELATIVE INTENSITY
##XFACTOR=1
##YFACTOR=1
##FIRSTX=15
##LASTX=178
##FIRSTY=1812
##MAXX=178
##MINX=15
##MAXY=9999
##MINY=30
##NPOINTS=83
##PEAK TABLE=(XY..XY)
15,1812 18,110 26,180 27,1031
29,280 30,90 31,80 37,100
38,300 39,1672 40,80 41,500
42,470 43,150 44,30 49,90
50,1121 51,2742 52,801 53,621
54,80 55,691 57,180 61,120
62,490 63,1301 64,290 65,1271
66,200 69,30 73,120 74,390
75,350 76,641 77,2853 78,1471
79,1301 80,90 85,40 86,170
87,140 88,160 89,651 91,3373
92,340 93,40 101,80 102,661
103,1862 104,1161 105,1762 106,210
107,250 108,60 113,50 115,1752
116,621 117,3283 118,490 119,591
120,130 121,360 122,50 127,40
128,70 129,50 131,581 132,500
133,1411 134,5515 135,561 136,50
145,170 147,8748 148,4154 149,400
150,50 159,70 161,130 174,80
176,9999 177,1321 178,120
##END=
