##TITLE=Benzenepropanethiol
##JCAMP-DX=4.24
##DATA TYPE=MASS SPECTRUM
##ORIGIN=J.E. WILKINSON S-CUBED, SAN DIEGO, CA.
##OWNER=NIST Mass Spectrometry Data Center
Collection (C) 2014 copyright by the U.S. Secretary of Commerce
on behalf of the United States of America. All rights reserved.
##CAS REGISTRY NO=24734-68-7
##$NIST MASS SPEC NO=92463
##MOLFORM=C9 H12 S
##MW=152
##$NIST SOURCE=MSDC
##XUNITS=M/Z
##YUNITS=RELATIVE INTENSITY
##XFACTOR=1
##YFACTOR=1
##FIRSTX=40
##LASTX=154
##FIRSTY=101
##MAXX=154
##MINX=40
##MAXY=9999
##MINY=1
##NPOINTS=50
##PEAK TABLE=(XY..XY)
40,101 41,726 45,695 46,57
47,770 49,4 50,503 51,1364
52,305 53,95 58,221 59,96
60,85 61,1980 62,295 63,913
64,169 65,2548 66,122 73,5
74,163 75,103 76,185 77,1383
78,702 79,751 80,1 87,10
89,535 90,227 91,9999 92,3699
93,218 102,100 103,870 104,312
105,1608 106,90 109,16 110,4
115,881 116,166 117,8732 118,8316
119,691 121,3 123,191 152,3825
153,359 154,129
##END=
