##TITLE=N-(p-Ethoxybenzylidene)-p-aminobenzonitrile, (E)-
##JCAMP-DX=4.24
##DATA TYPE=MASS SPECTRUM
##ORIGIN=NIST Mass Spectrometry Data Center, 1994
##OWNER=NIST Mass Spectrometry Data Center
Collection (C) 2014 copyright by the U.S. Secretary of Commerce
on behalf of the United States of America. All rights reserved.
##CAS REGISTRY NO=24742-30-1
##$NIST MASS SPEC NO=135569
##MOLFORM=C16 H14 N2 O
##MW=250
##$NIST SOURCE=MSDC
##XUNITS=M/Z
##YUNITS=RELATIVE INTENSITY
##XFACTOR=1
##YFACTOR=1
##FIRSTX=14
##LASTX=252
##FIRSTY=10
##MAXX=252
##MINX=14
##MAXY=9999
##MINY=3
##NPOINTS=125
##PEAK TABLE=(XY..XY)
14,10 15,77 16,3 17,3
18,49 25,30 26,256 27,2132
28,439 29,3154 30,61 37,89
38,329 39,1391 40,153 41,9
42,22 43,40 44,4 50,820
51,1895 52,410 53,132 54,25
55,70 61,53 62,268 63,781
64,573 65,3011 66,435 67,34
70,30 73,28 74,135 75,1384
76,1032 77,613 78,136 79,95
80,15 83,34 86,38 87,73
88,110 89,132 90,165 91,195
92,88 93,921 94,492 95,36
96,27 97,23 99,46 100,73
102,4102 103,377 104,34 105,83
106,22 111,38 112,26 113,71
114,82 115,71 116,37 117,27
118,22 119,203 120,496 121,64
122,19 124,17 125,36 126,28
127,36 129,532 130,60 132,23
137,26 138,106 139,253 140,285
141,64 142,40 149,22 150,48
151,106 152,47 153,63 155,16
163,16 164,217 165,165 166,287
167,85 168,64 176,143 177,127
178,60 179,17 181,21 191,191
192,781 193,483 194,104 195,39
196,21 202,37 203,99 204,162
205,59 206,16 207,28 219,58
221,9999 222,5121 223,738 224,78
247,24 249,1321 250,6553 251,1307
252,120
##END=
