##TITLE=Disperse Blue 1
##JCAMP-DX=4.24
##DATA TYPE=MASS SPECTRUM
##ORIGIN=Tony Mujsce, AT&T Bell Labs
##OWNER=NIST Mass Spectrometry Data Center
Collection (C) 2014 copyright by the U.S. Secretary of Commerce
on behalf of the United States of America. All rights reserved.
##CAS REGISTRY NO=2475-45-8
##$NIST MASS SPEC NO=245765
##MOLFORM=C14 H12 N4 O2
##MW=268
##$NIST SOURCE=MSDC
##XUNITS=M/Z
##YUNITS=RELATIVE INTENSITY
##XFACTOR=1
##YFACTOR=1
##FIRSTX=36
##LASTX=270
##FIRSTY=120
##MAXX=270
##MINX=36
##MAXY=9999
##MINY=10
##NPOINTS=118
##PEAK TABLE=(XY..XY)
36,120 37,50 38,140 39,110
42,80 48,140 50,80 51,190
52,650 53,350 54,180 60,10
61,80 62,100 63,210 64,320
65,210 66,110 70,150 72,290
74,40 75,70 76,180 77,130
78,370 79,280 80,140 84,20
86,10 88,80 89,80 90,150
92,180 93,60 97,60 98,40
100,10 101,20 102,110 103,140
104,140 106,250 107,70 108,10
112,70 114,170 115,90 116,150
117,60 118,30 120,70 128,40
130,120 131,40 132,60 134,1281
135,10 140,310 141,70 142,150
143,60 144,40 152,40 154,20
155,30 156,70 157,100 158,60
160,40 166,40 167,30 168,250
170,90 178,70 179,40 182,40
183,30 184,120 185,80 186,70
187,30 188,10 193,10 194,250
195,180 196,250 197,190 198,60
199,60 205,20 206,30 207,30
210,30 211,60 212,280 213,60
215,40 221,20 222,260 223,310
224,290 225,130 226,10 227,10
237,10 238,60 239,890 240,450
241,80 250,20 251,10 252,190
253,370 254,60 267,360 268,9999
269,1811 270,210
##END=
