##TITLE=4-Hydroxybutyl acrylate
##JCAMP-DX=4.24
##DATA TYPE=MASS SPECTRUM
##ORIGIN=NIST Mass Spectrometry Data Center
##OWNER=NIST Mass Spectrometry Data Center
Collection (C) 2014 copyright by the U.S. Secretary of Commerce
on behalf of the United States of America. All rights reserved.
##CAS REGISTRY NO=2478-10-6
##$NIST MASS SPEC NO=343632
##MOLFORM=C7 H12 O3
##MW=144
##$NIST SOURCE=MSDC
##XUNITS=M/Z
##YUNITS=RELATIVE INTENSITY
##XFACTOR=1
##YFACTOR=1
##FIRSTX=13
##LASTX=116
##FIRSTY=10
##MAXX=116
##MINX=13
##MAXY=9999
##MINY=10
##NPOINTS=63
##PEAK TABLE=(XY..XY)
13,10 14,50 15,130 18,10
19,90 25,40 26,510 27,3263
28,500 29,1051 31,2422 32,30
33,10 37,20 38,50 39,550
40,140 41,1221 42,1511 43,1672
44,921 45,210 50,10 51,10
53,190 54,1641 55,9999 56,520
57,480 58,60 59,10 60,40
67,50 68,180 69,190 70,550
71,2212 72,390 73,5765 74,200
75,30 79,10 80,20 81,50
83,30 84,20 85,561 86,110
87,30 88,110 89,621 90,20
96,80 97,20 98,160 99,400
100,20 103,350 104,10 113,410
114,330 115,20 116,20
##END=
