##TITLE=Palladium,[2,3,7,8,12,13,17,18-octaethyl-21H,23H-porphinato(2-)-N<21>,N<22>,N<23>,N<24>]-(SP-4-1)-
##JCAMP-DX=4.24
##DATA TYPE=MASS SPECTRUM
##ORIGIN=A.S.Moskovkin,I.M.Karnaukh, Russian Center on Disaster Medicine
##OWNER=NIST Mass Spectrometry Data Center
Collection (C) 2014 copyright by the U.S. Secretary of Commerce
on behalf of the United States of America. All rights reserved.
##CAS REGISTRY NO=24804-00-0
##$NIST MASS SPEC NO=216453
##MOLFORM=C36 H44 N4 Pd
##MW=638
##$NIST SOURCE=MSDC
##XUNITS=M/Z
##YUNITS=RELATIVE INTENSITY
##XFACTOR=1
##YFACTOR=1
##FIRSTX=41
##LASTX=645
##FIRSTY=150
##MAXX=645
##MINX=41
##MAXY=9999
##MINY=10
##NPOINTS=169
##PEAK TABLE=(XY..XY)
41,150 43,500 44,520 55,210
56,80 57,240 60,70 61,430
67,80 69,160 70,60 71,130
77,70 81,100 82,50 83,130
84,60 85,90 91,40 95,90
96,40 97,110 98,50 99,30
105,60 109,60 110,20 111,70
119,30 121,20 123,40 125,30
129,30 133,30 135,20 137,30
139,10 141,40 145,20 147,30
149,20 151,10 153,10 155,10
159,10 161,10 163,10 165,20
167,10 169,10 171,10 175,10
181,10 183,10 184,60 185,10
193,10 207,20 213,10 223,30
224,20 238,50 239,80 240,70
245,140 246,170 247,150 252,240
253,290 254,230 258,200 259,360
260,410 261,330 266,290 267,500
268,360 269,210 274,320 275,370
276,290 281,210 282,310 283,280
289,270 290,310 291,210 296,190
297,260 298,260 303,180 304,350
305,280 306,140 311,80 312,70
317,50 318,1361 319,1811 320,1371
321,640 322,30 489,30 491,20
493,20 504,40 505,40 506,40
507,30 517,80 518,100 519,90
520,100 521,90 522,70 531,110
532,160 533,160 534,680 535,420
536,120 537,90 547,140 548,170
549,160 550,150 551,140 552,110
562,180 563,220 564,160 565,220
566,170 567,180 578,240 579,210
580,270 581,400 582,400 583,170
584,260 592,280 593,370 595,610
596,690 597,460 598,400 607,230
608,330 610,350 621,240 622,570
623,810 624,370 625,610 626,290
627,290 634,270 635,120 636,2972
637,7170 638,9999 639,3600 640,7740
641,3060 642,3730 643,1400 644,280
645,40
##END=
