##TITLE=Propanoic acid, 3-(4-benzyloxyphenyl)-, methyl ester
##JCAMP-DX=4.24
##DATA TYPE=MASS SPECTRUM
##ORIGIN=A.A.Kutin, Moscow, Russia
##OWNER=NIST Mass Spectrometry Data Center
Collection (C) 2014 copyright by the U.S. Secretary of Commerce
on behalf of the United States of America. All rights reserved.
##CAS REGISTRY NO=24807-40-7
##$NIST MASS SPEC NO=266314
##MOLFORM=C17 H18 O3
##MW=270
##$NIST SOURCE=MSDC
##XUNITS=M/Z
##YUNITS=RELATIVE INTENSITY
##XFACTOR=1
##YFACTOR=1
##FIRSTX=33
##LASTX=273
##FIRSTY=50
##MAXX=273
##MINX=33
##MAXY=9999
##MINY=2
##NPOINTS=55
##PEAK TABLE=(XY..XY)
33,50 39,210 40,122 41,70
42,11 43,14 44,12 45,10
50,24 51,99 52,44 53,13
55,15 59,65 62,15 63,92
65,652 66,41 76,16 77,77
78,91 79,14 89,160 91,9999
92,691 93,16 94,4 103,12
104,10 105,15 106,23 107,29
119,128 120,44 121,6 134,2
136,2 137,46 152,3 163,5
165,6 167,8 179,2 195,15
197,174 198,22 210,22 211,3
239,45 240,5 268,22 270,1033
271,192 272,22 273,2
##END=
