##TITLE=N,N-Bis(2-hydroxyethyl)-m-nitroaniline
##JCAMP-DX=4.24
##DATA TYPE=MASS SPECTRUM
##ORIGIN=NIST Mass Spectrometry Data Center, 1994
##OWNER=NIST Mass Spectrometry Data Center
Collection (C) 2014 copyright by the U.S. Secretary of Commerce
on behalf of the United States of America. All rights reserved.
##CAS REGISTRY NO=24812-82-6
##$NIST MASS SPEC NO=135518
##MOLFORM=C10 H14 N2 O4
##MW=226
##$NIST SOURCE=MSDC
##XUNITS=M/Z
##YUNITS=RELATIVE INTENSITY
##XFACTOR=1
##YFACTOR=1
##FIRSTX=7
##LASTX=227
##FIRSTY=29
##MAXX=227
##MINX=7
##MAXY=9999
##MINY=29
##NPOINTS=89
##PEAK TABLE=(XY..XY)
7,29 12,37 14,53 15,187
17,43 18,135 19,474 27,763
28,395 29,811 30,566 31,1030
37,50 38,159 39,539 40,97
41,209 42,495 43,444 44,223
45,3675 46,191 50,715 51,918
52,355 53,137 54,75 56,52
62,131 63,537 64,424 65,607
66,153 73,48 74,161 75,429
76,862 77,1405 78,951 79,387
80,84 89,216 90,399 91,496
92,295 93,349 94,147 102,120
103,242 104,2163 105,3019 106,446
107,90 108,39 116,61 117,277
118,342 119,240 120,275 121,356
122,71 130,105 131,142 132,78
133,64 134,101 135,68 136,434
137,42 147,114 149,1605 150,452
151,4317 152,377 153,38 160,90
163,64 164,95 165,256 177,74
179,413 180,76 193,147 195,9999
196,1098 197,130 207,53 226,1313
227,165
##END=
