##TITLE=2-Decenoic acid, methyl ester
##JCAMP-DX=4.24
##DATA TYPE=MASS SPECTRUM
##ORIGIN=R.T.HOLMAN,UNIVERSITY OF MINNESOTA
##OWNER=NIST Mass Spectrometry Data Center
Collection (C) 2014 copyright by the U.S. Secretary of Commerce
on behalf of the United States of America. All rights reserved.
##CAS REGISTRY NO=2482-39-5
##$NIST MASS SPEC NO=36105
##MOLFORM=C11 H20 O2
##MW=184
##$NIST SOURCE=MSDC
##XUNITS=M/Z
##YUNITS=RELATIVE INTENSITY
##XFACTOR=1
##YFACTOR=1
##FIRSTX=26
##LASTX=185
##FIRSTY=240
##MAXX=185
##MINX=26
##MAXY=9999
##MINY=20
##NPOINTS=135
##PEAK TABLE=(XY..XY)
26,240 27,3000 28,1000 29,3400
30,130 31,270 32,110 33,50
36,50 37,40 38,150 39,2700
40,800 41,6400 42,1600 43,7300
44,360 45,360 46,20 47,30
50,90 51,250 52,170 53,1700
54,1300 55,6300 56,260 57,1700
58,200 59,2700 60,130 61,60
62,30 63,70 64,30 65,240
66,250 67,1600 68,2500 69,3800
70,1200 71,900 72,250 73,260
74,3700 75,430 76,50 77,220
78,90 79,450 80,210 81,2800
82,1200 83,1200 84,2800 85,1100
86,120 87,9999 88,670 89,70
90,20 91,160 92,70 93,240
94,200 95,1100 96,2000 97,900
98,610 99,330 100,2200 101,1800
102,220 103,50 104,30 105,140
106,60 107,90 108,460 109,620
110,3000 111,910 112,140 113,3900
114,930 115,450 116,220 117,50
118,20 119,110 120,50 121,70
122,40 123,1100 124,510 125,140
126,60 127,620 128,1000 129,310
130,70 131,30 132,20 133,30
134,210 135,70 136,30 137,170
138,60 139,400 140,80 141,510
142,120 143,110 144,20 145,30
148,20 149,30 150,20 151,60
152,1900 153,2700 154,300 155,220
156,30 157,20 166,60 167,110
168,30 169,50 170,20 171,20
183,30 184,144 185,30
##END=
