##TITLE=Phenol, 2-[(1H-1,2,4-triazol-3-ylimino)methyl]-
##JCAMP-DX=4.24
##DATA TYPE=MASS SPECTRUM
##ORIGIN=A.A.Kutin, Moscow, Russia
##OWNER=NIST Mass Spectrometry Data Center
Collection (C) 2014 copyright by the U.S. Secretary of Commerce
on behalf of the United States of America. All rights reserved.
##CAS REGISTRY NO=24829-12-7
##$NIST MASS SPEC NO=261496
##MOLFORM=C9 H8 N4 O
##MW=188
##$NIST SOURCE=MSDC
##XUNITS=M/Z
##YUNITS=RELATIVE INTENSITY
##XFACTOR=1
##YFACTOR=1
##FIRSTX=36
##LASTX=190
##FIRSTY=88
##MAXX=190
##MINX=36
##MAXY=9999
##MINY=4
##NPOINTS=108
##PEAK TABLE=(XY..XY)
36,88 37,560 38,3029 39,4881
40,376 42,7140 43,2152 44,695
45,164 46,28 48,25 49,249
50,3462 51,7006 52,1852 53,1847
54,335 55,498 56,138 57,384
58,41 61,362 62,760 63,2430
64,1489 65,1860 66,611 67,355
68,413 69,1865 70,2446 71,187
73,133 74,868 75,1029 76,1631
77,5417 78,1401 79,622 80,279
81,56 82,31 83,65 84,313
85,69 86,127 87,108 88,143
89,169 90,390 91,2247 92,595
93,164 94,236 95,684 96,49
97,19 98,19 99,60 100,30
102,686 104,1434 105,1055 106,355
107,101 108,30 109,25 110,20
111,59 112,30 113,10 114,24
115,43 116,122 117,218 119,1404
120,1085 121,253 122,71 123,93
124,12 127,6 128,15 129,328
130,78 131,86 132,863 133,361
134,241 135,50 136,71 137,25
144,237 145,144 146,9 159,258
160,105 161,142 162,84 163,4
170,144 171,9999 172,1068 173,34
187,1636 188,2673 189,298 190,11
##END=
