##TITLE=Acetic acid, nitro-, methyl ester
##JCAMP-DX=4.24
##DATA TYPE=MASS SPECTRUM
##ORIGIN=ORMSBG,9(2)257(1974); NIBBERZNG
##OWNER=NIST Mass Spectrometry Data Center
Collection (C) 2014 copyright by the U.S. Secretary of Commerce
on behalf of the United States of America. All rights reserved.
##CAS REGISTRY NO=2483-57-0
##$NIST MASS SPEC NO=44760
##MOLFORM=C3 H5 N O4
##MW=119
##$NIST SOURCE=MSDC
##XUNITS=M/Z
##YUNITS=RELATIVE INTENSITY
##XFACTOR=1
##YFACTOR=1
##FIRSTX=26
##LASTX=89
##FIRSTY=500
##MAXX=89
##MINX=26
##MAXY=9999
##MINY=100
##NPOINTS=27
##PEAK TABLE=(XY..XY)
26,500 27,3200 28,1700 29,4300
30,6000 31,4100 32,390 41,400
42,5200 43,2900 44,9600 45,1400
46,1200 54,100 55,100 59,1700
60,100 61,100 70,100 71,300
72,100 73,9999 74,700 75,100
84,100 88,2600 89,100
##END=
