##TITLE=D-Allothreonine
##JCAMP-DX=4.24
##DATA TYPE=MASS SPECTRUM
##ORIGIN=LAC, NIDDK, NIH, Bethesda, MD 20892
##OWNER=NIST Mass Spectrometry Data Center
Collection (C) 2014 copyright by the U.S. Secretary of Commerce
on behalf of the United States of America. All rights reserved.
##CAS REGISTRY NO=24830-94-2
##$NIST MASS SPEC NO=130322
##MOLFORM=C4 H9 N O3
##MW=119
##$NIST SOURCE=MSDC
##XUNITS=M/Z
##YUNITS=RELATIVE INTENSITY
##XFACTOR=1
##YFACTOR=1
##FIRSTX=41
##LASTX=119
##FIRSTY=412
##MAXX=119
##MINX=41
##MAXY=9999
##MINY=37
##NPOINTS=32
##PEAK TABLE=(XY..XY)
41,412 42,746 43,1300 44,648
45,3670 46,548 51,199 52,158
54,291 55,275 56,2078 57,9999
58,1270 59,376 60,360 65,183
69,177 72,219 73,37 74,2403
75,8345 76,310 77,365 78,177
79,154 87,654 88,232 101,221
102,409 103,465 104,76 119,43
##END=
