##TITLE=4-Amino-3-methylbenzoic acid
##JCAMP-DX=4.24
##DATA TYPE=MASS SPECTRUM
##ORIGIN=NIST Mass Spectrometry Data Center, 1990.
##OWNER=NIST Mass Spectrometry Data Center
Collection (C) 2014 copyright by the U.S. Secretary of Commerce
on behalf of the United States of America. All rights reserved.
##CAS REGISTRY NO=2486-70-6
##$NIST MASS SPEC NO=118430
##MOLFORM=C8 H9 N O2
##MW=151
##$NIST SOURCE=MSDC
##XUNITS=M/Z
##YUNITS=RELATIVE INTENSITY
##XFACTOR=1
##YFACTOR=1
##FIRSTX=27
##LASTX=153
##FIRSTY=299
##MAXX=153
##MINX=27
##MAXY=9999
##MINY=88
##NPOINTS=49
##PEAK TABLE=(XY..XY)
27,299 28,584 29,113 30,285
37,119 38,237 39,719 40,108
41,281 42,171 43,93 44,159
45,173 49,103 50,557 51,964
52,978 53,805 54,267 55,163
61,436 63,618 64,151 65,341
66,267 67,203 68,88 74,182
75,219 76,334 77,2402 78,999
79,2064 80,329 89,234 93,134
94,258 104,937 105,1022 106,7255
107,696 122,232 132,103 134,8368
135,739 150,1901 151,9999 152,921
153,118
##END=
