##TITLE=Benz(a)anthracene, 7,9,12-trimethyl-
##JCAMP-DX=4.24
##DATA TYPE=MASS SPECTRUM
##ORIGIN=Organic Synthesis Lab, MSU, Moscow.TRC 457
##OWNER=NIST Mass Spectrometry Data Center
Collection (C) 2014 copyright by the U.S. Secretary of Commerce
on behalf of the United States of America. All rights reserved.
##CAS REGISTRY NO=24891-41-6
##$NIST MASS SPEC NO=326154
##MOLFORM=C21 H18
##MW=270
##$NIST SOURCE=MSDC
##XUNITS=M/Z
##YUNITS=RELATIVE INTENSITY
##XFACTOR=1
##YFACTOR=1
##FIRSTX=26
##LASTX=272
##FIRSTY=10
##MAXX=272
##MINX=26
##MAXY=9999
##MINY=10
##NPOINTS=138
##PEAK TABLE=(XY..XY)
26,10 27,90 29,60 39,70
41,40 42,10 43,30 44,10
50,20 51,40 52,10 53,10
55,10 56,20 57,30 62,10
63,50 65,20 74,20 75,30
76,20 77,30 86,10 87,30
88,50 89,20 90,10 91,20
94,80 95,20 98,10 99,20
100,90 101,190 102,10 105,30
106,140 107,90 108,40 111,10
112,110 113,711 114,260 115,70
116,10 117,20 118,190 119,1001
120,1001 121,180 122,10 124,40
125,330 126,1091 127,581 128,110
130,50 131,230 132,110 133,90
134,200 135,731 136,20 139,20
141,30 142,10 150,30 151,30
152,50 153,10 162,10 163,30
164,10 165,30 174,10 175,10
176,40 177,20 178,30 179,10
186,10 187,40 188,20 189,70
190,10 198,10 199,10 200,50
201,20 202,80 203,20 211,30
212,20 213,90 214,20 215,110
216,30 222,10 223,10 224,80
225,60 226,300 227,130 228,160
229,110 230,20 235,10 236,20
237,120 238,100 239,1611 240,1131
241,290 242,130 243,90 244,30
248,40 249,30 250,300 251,150
252,971 253,1231 254,1251 255,2783
256,581 257,70 261,30 262,20
263,200 264,70 265,130 266,80
267,120 268,130 269,731 270,9999
271,2322 272,250
##END=
