##TITLE=Thiourea, trimethyl-
##JCAMP-DX=4.24
##DATA TYPE=MASS SPECTRUM
##ORIGIN=Japan AIST/NIMC Database- Spectrum MS-NW-8108
##OWNER=NIST Mass Spectrometry Data Center
Collection (C) 2014 copyright by the U.S. Secretary of Commerce
on behalf of the United States of America. All rights reserved.
##CAS REGISTRY NO=2489-77-2
##$NIST MASS SPEC NO=230148
##MOLFORM=C4 H10 N2 S
##MW=118
##$NIST SOURCE=MSDC
##XUNITS=M/Z
##YUNITS=RELATIVE INTENSITY
##XFACTOR=1
##YFACTOR=1
##FIRSTX=14
##LASTX=121
##FIRSTY=20
##MAXX=121
##MINX=14
##MAXY=9999
##MINY=10
##NPOINTS=53
##PEAK TABLE=(XY..XY)
14,20 15,499 27,60 28,409
29,60 30,1759 31,30 32,30
33,20 34,20 38,10 39,20
40,70 41,119 42,1169 43,249
44,6879 45,819 46,199 47,299
48,10 49,10 53,10 54,10
55,80 56,139 57,70 58,80
59,139 60,349 61,50 62,40
69,99 70,50 71,559 72,289
73,329 74,2349 75,279 76,319
77,20 85,969 86,99 87,50
88,1459 89,369 90,80 91,10
103,10 118,9999 119,1549 120,509
121,60
##END=
