##TITLE=Hexadecanoic acid, 14-methyl-, methyl ester
##JCAMP-DX=4.24
##DATA TYPE=MASS SPECTRUM
##ORIGIN=R.T.HOLMAN,UNIVERSITY OF MINNESOTA
##OWNER=NIST Mass Spectrometry Data Center
Collection (C) 2014 copyright by the U.S. Secretary of Commerce
on behalf of the United States of America. All rights reserved.
##CAS REGISTRY NO=2490-49-5
##$NIST MASS SPEC NO=36246
##MOLFORM=C18 H36 O2
##MW=284
##$NIST SOURCE=MSDC
##XUNITS=M/Z
##YUNITS=RELATIVE INTENSITY
##XFACTOR=1
##YFACTOR=1
##FIRSTX=26
##LASTX=287
##FIRSTY=30
##MAXX=287
##MINX=26
##MAXY=9999
##MINY=10
##NPOINTS=228
##PEAK TABLE=(XY..XY)
26,30 27,250 28,350 29,830
30,30 31,40 32,70 33,20
39,250 40,60 41,2220 42,410
43,2780 44,120 45,100 50,10
51,20 52,20 53,150 54,220
55,2710 56,800 57,2540 58,160
59,660 60,60 61,30 62,10
63,10 64,40 65,40 66,30
67,410 68,220 69,1880 70,470
71,890 72,70 73,220 74,9999
75,2160 76,110 77,60 78,20
79,110 80,50 81,420 82,220
83,1390 84,510 85,460 86,40
87,6680 88,550 89,60 90,10
91,60 92,20 93,90 94,40
95,390 96,260 97,1180 98,430
99,130 100,30 101,510 102,60
103,20 104,10 105,40 106,20
107,90 108,40 109,260 110,140
111,520 112,130 113,80 114,40
115,250 116,110 117,30 118,10
119,40 120,30 121,150 122,40
123,190 124,90 125,300 126,40
127,50 128,40 129,600 130,130
131,30 132,10 133,30 134,20
135,140 136,40 137,100 138,70
139,210 140,50 141,80 142,30
143,1460 144,140 145,40 146,10
147,20 148,20 149,100 150,20
151,60 152,80 153,120 154,30
155,40 156,20 157,130 158,30
159,20 160,10 161,20 162,10
163,50 164,20 165,40 166,20
167,60 168,20 169,20 170,10
171,110 172,30 173,10 174,10
175,10 176,10 177,40 178,20
179,30 180,30 181,70 182,30
183,20 184,10 185,430 186,80
187,20 188,10 189,20 190,10
191,20 192,20 193,20 194,70
195,60 196,20 197,20 198,10
199,380 200,60 201,20 202,10
203,20 204,20 205,140 206,30
207,20 208,30 209,20 210,20
211,20 212,10 213,70 214,40
215,20 216,10 217,10 218,30
219,40 220,20 221,10 222,20
223,130 224,30 225,10 226,10
227,130 228,90 229,110 230,20
233,10 234,20 235,40 236,90
237,90 238,20 239,20 240,20
241,830 242,150 243,20 244,10
250,10 251,20 252,20 253,270
254,60 255,320 256,80 257,30
258,10 259,10 260,10 267,10
268,20 269,30 270,20 271,10
284,1564 285,290 286,40 287,10
##END=
