##TITLE=Hexadecanoic acid, 2-methyl-, methyl ester
##JCAMP-DX=4.24
##DATA TYPE=MASS SPECTRUM
##ORIGIN=R.SELF FOOD RESEARCH INSTITUTE, NORWICH, U.K.
##OWNER=NIST Mass Spectrometry Data Center
Collection (C) 2014 copyright by the U.S. Secretary of Commerce
on behalf of the United States of America. All rights reserved.
##CAS REGISTRY NO=2490-53-1
##$NIST MASS SPEC NO=68773
##MOLFORM=C18 H36 O2
##MW=284
##$NIST SOURCE=MSDC
##XUNITS=M/Z
##YUNITS=RELATIVE INTENSITY
##XFACTOR=1
##YFACTOR=1
##FIRSTX=28
##LASTX=286
##FIRSTY=315
##MAXX=286
##MINX=28
##MAXY=9999
##MINY=12
##NPOINTS=108
##PEAK TABLE=(XY..XY)
28,315 29,1286 30,39 31,68
32,80 33,23 38,19 39,327
40,112 41,2668 42,616 43,3114
44,108 45,116 50,12 51,21
53,130 54,171 55,2192 56,546
57,1482 58,79 59,507 60,26
61,30 65,30 67,207 68,107
69,1154 70,240 71,551 72,53
73,215 74,94 75,14 77,21
79,50 81,115 82,64 83,593
84,116 85,259 86,24 87,398
88,9999 89,532 90,61 91,18
93,25 95,89 96,36 97,348
98,197 99,80 100,15 101,3842
102,251 103,30 107,23 109,41
110,21 111,138 112,86 113,53
115,265 116,34 121,21 123,21
125,52 126,21 127,37 129,126
130,57 135,21 139,28 141,30
143,696 144,99 153,20 155,25
157,654 158,88 167,12 169,18
171,212 172,44 185,217 186,43
199,216 200,42 213,206 214,42
225,92 226,19 227,526 228,90
241,333 242,67 251,16 252,15
253,141 254,34 255,59 269,24
283,13 284,1214 285,234 286,31
##END=
