##TITLE=Octadecanoic acid, 16-methyl-, methyl ester
##JCAMP-DX=4.24
##DATA TYPE=MASS SPECTRUM
##OWNER=NIST Mass Spectrometry Data Center
Collection (C) 2014 copyright by the U.S. Secretary of Commerce
on behalf of the United States of America. All rights reserved.
##CAS REGISTRY NO=2490-16-6
##$NIST MASS SPEC NO=31253
##MOLFORM=C20 H40 O2
##MW=312
##$NIST SOURCE=MSDC
##XUNITS=M/Z
##YUNITS=RELATIVE INTENSITY
##XFACTOR=1
##YFACTOR=1
##FIRSTX=15
##LASTX=314
##FIRSTY=246
##MAXX=314
##MINX=15
##MAXY=9999
##MINY=16
##NPOINTS=100
##PEAK TABLE=(XY..XY)
15,246 16,33 17,82 18,82
27,1147 28,590 29,2180 31,98
37,180 38,131 39,525 40,246
41,3983 42,33 43,3934 45,131
53,229 54,459 55,3934 56,410
57,4983 58,475 59,1197 60,426
67,754 68,229 69,2295 70,934
71,852 72,197 73,672 74,9720
75,3164 76,197 78,98 81,820
82,328 83,1459 84,623 85,656
87,5672 88,590 95,393 97,1147
98,721 101,787 102,115 107,98
108,66 110,229 111,803 114,98
115,852 116,197 118,33 121,82
125,590 126,33 128,197 129,1098
130,279 139,377 141,197 143,2426
144,344 149,148 151,82 153,148
155,98 157,98 163,229 167,361
169,131 171,426 172,66 177,131
185,492 186,66 199,705 200,98
213,836 214,115 227,590 228,66
233,361 241,279 251,311 255,1459
256,197 263,262 269,1803 270,229
281,623 282,16 283,852 284,66
311,16 312,9999 313,2508 314,262
##END=
