##TITLE=Benzene, 1,2-dibromo-4,5-dimethyl-
##JCAMP-DX=4.24
##DATA TYPE=MASS SPECTRUM
##ORIGIN=NIST Mass Spectrometry Data Center
##OWNER=NIST Mass Spectrometry Data Center
Collection (C) 2014 copyright by the U.S. Secretary of Commerce
on behalf of the United States of America. All rights reserved.
##CAS REGISTRY NO=24932-48-7
##$NIST MASS SPEC NO=342836
##MOLFORM=C8 H8 Br2
##MW=262
##$NIST SOURCE=MSDC
##XUNITS=M/Z
##YUNITS=RELATIVE INTENSITY
##XFACTOR=1
##YFACTOR=1
##FIRSTX=12
##LASTX=267
##FIRSTY=20
##MAXX=267
##MINX=12
##MAXY=9999
##MINY=10
##NPOINTS=107
##PEAK TABLE=(XY..XY)
12,20 15,1091 16,10 17,70
18,100 25,60 26,651 27,2552
28,240 29,70 36,70 37,591
38,1181 39,2963 40,190 41,180
43,70 44,60 48,40 49,641
50,3653 51,6946 52,1441 53,851
54,110 60,70 61,861 62,1802
63,3153 64,520 65,260 66,30
74,1521 75,1641 76,1231 77,4324
78,2532 79,1051 80,260 81,771
82,280 83,110 84,100 85,250
86,500 87,621 88,340 89,781
90,340 91,601 92,410 93,160
95,90 97,70 98,320 99,110
100,50 101,360 102,1722 103,4044
104,6055 105,661 106,70 107,60
116,130 117,280 118,130 119,250
128,60 129,60 130,210 131,490
132,300 133,100 140,50 141,100
142,50 143,160 144,30 145,50
154,40 155,70 156,90 157,80
158,110 160,130 162,40 167,80
168,230 169,80 170,240 171,20
180,40 183,6516 184,1111 185,5935
186,561 223,30 247,540 249,1041
251,510 252,40 262,5145 264,9999
265,1351 266,5075 267,500
##END=
