##TITLE=Chlormephos
##JCAMP-DX=4.24
##DATA TYPE=MASS SPECTRUM
##ORIGIN=NIST Mass Spectrometry Data Center, 1998.
##OWNER=NIST Mass Spectrometry Data Center
Collection (C) 2014 copyright by the U.S. Secretary of Commerce
on behalf of the United States of America. All rights reserved.
##CAS REGISTRY NO=24934-91-6
##$NIST MASS SPEC NO=291835
##MOLFORM=C5 H12 Cl O2 P S2
##MW=234
##$NIST SOURCE=MSDC
##XUNITS=M/Z
##YUNITS=RELATIVE INTENSITY
##XFACTOR=1
##YFACTOR=1
##FIRSTX=13
##LASTX=239
##FIRSTY=10
##MAXX=239
##MINX=13
##MAXY=9999
##MINY=10
##NPOINTS=150
##PEAK TABLE=(XY..XY)
13,10 14,40 15,130 16,10
26,260 27,1830 28,320 29,2760
30,80 31,60 32,50 33,30
34,20 35,40 36,20 37,10
38,10 39,20 41,40 42,70
43,500 44,90 45,1990 46,1550
47,2600 48,330 49,1020 50,30
51,300 57,20 58,40 59,130
60,180 61,160 62,20 63,860
64,270 65,4040 66,40 67,30
73,30 74,10 75,110 76,90
77,120 78,270 79,600 80,880
81,890 82,130 83,280 84,20
85,60 91,110 93,3480 94,90
95,340 96,350 97,9339 98,500
99,520 100,50 101,20 102,10
107,30 108,90 109,950 110,80
111,440 112,350 113,910 114,70
115,820 116,320 117,260 118,110
119,30 120,30 121,9999 122,450
123,120 124,30 125,2690 126,740
127,180 128,80 129,1310 130,50
131,210 132,170 133,730 134,70
135,260 136,10 137,20 139,30
140,40 141,430 142,60 143,280
144,640 145,260 146,430 147,90
148,90 149,10 150,10 153,1140
154,5139 155,340 156,270 157,340
158,20 159,60 160,90 161,650
162,140 163,260 164,50 165,20
169,10 171,80 172,10 173,20
177,10 178,10 179,10 180,10
185,190 186,10 187,30 188,570
189,500 190,430 191,210 192,100
193,20 194,10 199,190 200,20
201,20 206,60 207,10 208,30
234,3590 235,280 236,1510 237,110
238,120 239,10
##END=
