##TITLE=6-Tridecene
##JCAMP-DX=4.24
##DATA TYPE=MASS SPECTRUM
##OWNER=NIST Mass Spectrometry Data Center
Collection (C) 2014 copyright by the U.S. Secretary of Commerce
on behalf of the United States of America. All rights reserved.
##CAS REGISTRY NO=24949-38-0
##$NIST MASS SPEC NO=7581
##MOLFORM=C13 H26
##MW=182
##$NIST SOURCE=MSDC
##XUNITS=M/Z
##YUNITS=RELATIVE INTENSITY
##XFACTOR=1
##YFACTOR=1
##FIRSTX=41
##LASTX=183
##FIRSTY=9609
##MAXX=183
##MINX=41
##MAXY=9999
##MINY=100
##NPOINTS=36
##PEAK TABLE=(XY..XY)
41,9609 42,2402 43,7407 44,100
53,1301 54,3503 55,9999 56,5505
57,4004 58,100 65,100 66,100
67,2102 68,1201 69,7206 70,4204
71,1301 79,100 81,601 82,801
83,3603 84,2002 85,500 96,500
97,2302 98,1001 110,200 111,1201
112,601 125,400 126,300 139,100
140,100 154,100 182,1301 183,100
##END=
