##TITLE=1-Methoxyphthalazine
##JCAMP-DX=4.24
##DATA TYPE=MASS SPECTRUM
##ORIGIN=A.M.Zyakoon
##OWNER=NIST Mass Spectrometry Data Center
Collection (C) 2014 copyright by the U.S. Secretary of Commerce
on behalf of the United States of America. All rights reserved.
##CAS REGISTRY NO=24953-56-8
##$NIST MASS SPEC NO=281076
##MOLFORM=C9 H8 N2 O
##MW=160
##$NIST SOURCE=MSDC
##XUNITS=M/Z
##YUNITS=RELATIVE INTENSITY
##XFACTOR=1
##YFACTOR=1
##FIRSTX=62
##LASTX=161
##FIRSTY=230
##MAXX=161
##MINX=62
##MAXY=9999
##MINY=100
##NPOINTS=23
##PEAK TABLE=(XY..XY)
62,230 63,641 64,210 75,190
76,621 77,230 89,3413 90,320
102,881 103,9999 104,1401 105,561
115,100 116,150 117,210 128,470
129,2382 130,2722 131,4844 132,801
159,6836 160,8097 161,1031
##END=
