##TITLE=3-Cyanobenzaldehyde
##JCAMP-DX=4.24
##DATA TYPE=MASS SPECTRUM
##ORIGIN=Chuck Anderson, Aldrich Chemical Co.
##OWNER=NIST Mass Spectrometry Data Center
Collection (C) 2014 copyright by the U.S. Secretary of Commerce
on behalf of the United States of America. All rights reserved.
##CAS REGISTRY NO=24964-64-5
##$NIST MASS SPEC NO=117882
##MOLFORM=C8 H5 N O
##MW=131
##$NIST SOURCE=MSDC
##XUNITS=M/Z
##YUNITS=RELATIVE INTENSITY
##XFACTOR=1
##YFACTOR=1
##FIRSTX=25
##LASTX=133
##FIRSTY=27
##MAXX=133
##MINX=25
##MAXY=9999
##MINY=11
##NPOINTS=46
##PEAK TABLE=(XY..XY)
25,27 26,171 27,284 28,107
29,634 36,53 37,307 38,307
39,340 40,12 43,14 48,34
49,226 50,1344 51,1093 52,369
53,84 60,34 61,151 62,178
63,188 64,98 65,42 72,25
73,149 74,539 75,1590 76,1893
77,261 78,11 84,18 85,44
86,57 87,55 88,56 98,29
99,237 100,108 101,71 102,6211
103,1003 104,67 130,9999 131,6438
132,520 133,33
##END=
