##TITLE=2-Chloro-3,5-dinitrobenzoic acid
##JCAMP-DX=4.24
##DATA TYPE=MASS SPECTRUM
##ORIGIN=LAC, NIDDK, NIH, Bethesda, MD 20892
##OWNER=NIST Mass Spectrometry Data Center
Collection (C) 2014 copyright by the U.S. Secretary of Commerce
on behalf of the United States of America. All rights reserved.
##CAS REGISTRY NO=2497-91-8
##$NIST MASS SPEC NO=130237
##MOLFORM=C7 H3 Cl N2 O6
##MW=246
##$NIST SOURCE=MSDC
##XUNITS=M/Z
##YUNITS=RELATIVE INTENSITY
##XFACTOR=1
##YFACTOR=1
##FIRSTX=41
##LASTX=250
##FIRSTY=44
##MAXX=250
##MINX=41
##MAXY=9999
##MINY=25
##NPOINTS=142
##PEAK TABLE=(XY..XY)
41,44 42,38 43,111 44,194
45,1716 46,1959 47,72 48,39
49,209 50,730 51,481 52,119
53,887 54,69 55,172 56,25
60,151 61,946 62,1800 63,2863
64,291 65,92 66,162 67,79
68,38 69,412 70,38 71,51
72,302 73,1955 74,7599 75,2378
76,359 77,274 78,180 79,819
80,129 81,37 82,31 83,25
84,687 85,174 86,679 87,618
88,371 89,243 90,436 91,1187
92,180 93,31 94,32 95,74
96,177 97,562 98,632 99,329
100,357 101,145 102,94 103,29
104,56 105,34 106,66 107,267
108,787 109,3152 110,596 111,1078
112,140 113,191 114,206 115,100
116,114 117,37 118,433 119,901
120,195 121,174 122,25 123,70
124,71 125,212 126,1655 127,212
128,580 129,51 130,35 133,117
135,150 136,119 137,346 138,105
139,167 140,37 141,136 142,256
143,90 144,111 148,267 149,33
151,581 152,162 153,2148 154,3700
155,1200 156,1207 157,200 158,30
164,363 165,32 168,84 169,64
170,200 171,88 172,75 182,66
183,834 184,183 185,362 186,72
199,26 200,107 201,130 202,79
213,74 214,367 215,116 216,1763
217,250 218,514 219,59 226,108
229,1185 230,626 231,362 232,208
245,32 246,9999 247,935 248,3385
249,301 250,56
##END=
