##TITLE=Disulfoton sulfone
##JCAMP-DX=4.24
##DATA TYPE=MASS SPECTRUM
##ORIGIN=NIST Mass Spectrometry Data Center, 1990.
##OWNER=NIST Mass Spectrometry Data Center
Collection (C) 2014 copyright by the U.S. Secretary of Commerce
on behalf of the United States of America. All rights reserved.
##CAS REGISTRY NO=2497-06-5
##$NIST MASS SPEC NO=119009
##MOLFORM=C8 H19 O4 P S3
##MW=306
##$NIST SOURCE=MSDC
##XUNITS=M/Z
##YUNITS=RELATIVE INTENSITY
##XFACTOR=1
##YFACTOR=1
##FIRSTX=12
##LASTX=307
##FIRSTY=16
##MAXX=307
##MINX=12
##MAXY=9999
##MINY=1
##NPOINTS=159
##PEAK TABLE=(XY..XY)
12,16 13,20 14,37 15,274
16,30 17,32 18,107 19,60
24,10 26,653 27,4413 28,1450
29,8598 30,217 31,96 32,47
33,49 34,70 35,280 37,15
39,22 40,1 41,104 42,1
43,501 44,90 45,1449 46,194
47,1010 48,259 49,70 50,57
51,11 53,24 54,16 55,77
56,17 57,59 58,410 59,1477
60,1439 61,4802 62,270 63,936
64,574 65,3591 66,318 67,68
68,16 73,53 75,222 76,151
77,646 78,143 79,233 80,384
81,362 82,26 83,25 85,19
87,289 88,114 89,228 90,52
91,394 92,185 93,1619 94,289
95,1619 96,19 97,7127 98,109
99,372 103,9 104,9 105,61
107,85 108,107 109,683 110,35
111,131 112,729 113,398 114,263
115,181 116,22 117,11 119,16
121,1105 122,92 123,243 124,11
125,5206 126,231 127,297 128,11
129,2731 130,203 131,296 132,16
133,13 135,41 137,138 139,391
140,186 141,515 142,743 143,151
144,67 145,22 146,39 151,85
153,8117 154,463 155,541 156,22
157,2601 158,527 159,274 160,52
161,19 162,17 167,132 168,126
169,95 170,44 171,80 173,65
174,11 179,9 183,37 185,1513
186,1093 187,227 188,111 189,30
197,30 201,67 202,11 203,9
205,14 213,9999 214,902 215,957
216,158 217,68 218,23 229,387
230,50 231,43 233,217 234,19
235,38 245,48 261,279 262,29
263,44 306,58 307,47
##END=
