##TITLE=Benz[a]anthracene, 2-methyl-
##JCAMP-DX=4.24
##DATA TYPE=MASS SPECTRUM
##OWNER=NIST Mass Spectrometry Data Center
Collection (C) 2014 copyright by the U.S. Secretary of Commerce
on behalf of the United States of America. All rights reserved.
##CAS REGISTRY NO=2498-76-2
##$NIST MASS SPEC NO=11690
##MOLFORM=C19 H14
##MW=242
##$NIST SOURCE=MSDC
##XUNITS=M/Z
##YUNITS=RELATIVE INTENSITY
##XFACTOR=1
##YFACTOR=1
##FIRSTX=35
##LASTX=245
##FIRSTY=10
##MAXX=245
##MINX=35
##MAXY=9999
##MINY=10
##NPOINTS=156
##PEAK TABLE=(XY..XY)
35,10 36,20 37,20 38,60
39,220 40,130 41,70 42,10
43,40 44,50 45,50 47,10
49,10 50,120 51,130 52,40
53,10 55,20 56,30 57,80
58,10 59,20 61,20 62,70
63,140 64,20 65,20 67,10
68,10 69,10 70,10 71,20
72,10 73,20 74,100 75,90
76,40 77,40 78,110 79,30
80,30 81,30 82,20 83,10
85,20 86,90 87,130 88,60
89,40 90,10 91,10 93,30
94,90 95,60 97,10 98,70
99,70 100,110 101,50 102,10
103,10 105,30 106,120 107,150
108,160 109,10 110,40 111,50
112,90 113,260 114,20 115,20
117,20 118,90 119,270 120,540
121,1121 122,50 123,20 124,10
125,10 126,30 127,10 128,10
133,10 134,20 135,20 136,10
137,20 138,10 139,40 140,10
146,10 147,10 149,20 150,60
151,30 152,30 159,10 161,20
162,20 163,80 164,20 165,40
166,10 173,10 174,40 175,30
176,60 177,10 178,10 185,10
186,20 187,110 188,40 189,110
190,20 191,10 194,10 197,10
198,30 199,20 200,100 201,40
202,80 203,20 209,10 210,10
211,80 212,40 213,240 214,60
215,340 216,70 217,10 219,10
222,10 223,20 224,130 225,70
226,440 227,100 228,20 229,10
234,10 235,30 236,30 237,280
238,120 239,1862 240,711 241,1561
242,9999 243,2042 244,200 245,10
##END=
