##TITLE=Benz[a]anthracene, 3-methyl-
##JCAMP-DX=4.24
##DATA TYPE=MASS SPECTRUM
##OWNER=NIST Mass Spectrometry Data Center
Collection (C) 2014 copyright by the U.S. Secretary of Commerce
on behalf of the United States of America. All rights reserved.
##CAS REGISTRY NO=2498-75-1
##$NIST MASS SPEC NO=11689
##MOLFORM=C19 H14
##MW=242
##$NIST SOURCE=MSDC
##XUNITS=M/Z
##YUNITS=RELATIVE INTENSITY
##XFACTOR=1
##YFACTOR=1
##FIRSTX=35
##LASTX=245
##FIRSTY=10
##MAXX=245
##MINX=35
##MAXY=9999
##MINY=10
##NPOINTS=149
##PEAK TABLE=(XY..XY)
35,10 36,10 37,20 38,60
39,220 40,100 41,60 42,10
43,40 44,30 45,30 49,10
50,130 51,130 52,50 53,10
55,20 56,20 57,60 58,10
59,10 61,10 62,70 63,140
64,20 65,10 68,10 69,10
70,10 71,20 72,10 73,10
74,100 75,90 76,40 77,50
78,140 79,40 80,30 81,30
82,20 83,10 85,20 86,90
87,130 88,60 89,30 91,10
93,30 94,90 95,60 98,70
99,70 100,100 101,50 102,10
103,10 105,30 106,120 107,160
108,180 109,10 110,40 111,60
112,90 113,250 114,20 115,20
117,10 118,90 119,270 120,530
121,1161 122,50 123,20 124,10
125,10 126,30 127,10 128,10
133,10 134,20 135,20 136,10
137,20 138,10 139,40 140,10
146,10 147,10 149,20 150,60
151,30 152,30 161,20 162,20
163,80 164,20 165,40 166,10
173,10 174,50 175,30 176,60
177,10 178,10 185,10 186,20
187,110 188,40 189,110 190,20
191,10 198,20 199,20 200,90
201,30 202,100 203,30 209,10
210,10 211,80 212,40 213,250
214,60 215,390 216,80 217,10
219,10 222,10 223,20 224,130
225,70 226,460 227,100 228,30
229,20 234,10 235,40 236,30
237,280 238,110 239,1812 240,651
241,1531 242,9999 243,2122 244,230
245,20
##END=
