##TITLE=Benz(a)anthracene-7,12-dione
##JCAMP-DX=4.24
##DATA TYPE=MASS SPECTRUM
##ORIGIN=Japan AIST/NIMC Database- Spectrum MS-NW-8259
##OWNER=NIST Mass Spectrometry Data Center
Collection (C) 2014 copyright by the U.S. Secretary of Commerce
on behalf of the United States of America. All rights reserved.
##CAS REGISTRY NO=2498-66-0
##$NIST MASS SPEC NO=233170
##MOLFORM=C18 H10 O2
##MW=258
##$NIST SOURCE=MSDC
##XUNITS=M/Z
##YUNITS=RELATIVE INTENSITY
##XFACTOR=1
##YFACTOR=1
##FIRSTX=17
##LASTX=261
##FIRSTY=10
##MAXX=261
##MINX=17
##MAXY=9999
##MINY=10
##NPOINTS=99
##PEAK TABLE=(XY..XY)
17,10 18,70 27,10 28,50
38,10 39,80 50,199 51,109
52,20 53,10 61,10 62,70
63,139 64,10 67,20 73,10
74,249 75,379 76,339 77,119
78,20 85,10 86,80 87,289
88,859 89,30 93,10 98,119
99,189 100,1079 101,1869 102,40
104,10 105,10 106,10 107,10
109,10 110,40 111,40 112,10
113,20 114,119 115,149 122,50
123,40 124,20 125,70 126,289
127,80 128,60 129,539 130,10
134,10 135,10 137,20 139,20
146,10 149,70 150,209 151,129
152,109 153,10 161,20 162,30
163,80 164,10 173,20 174,229
175,249 176,239 177,40 178,10
186,10 187,20 197,10 198,119
199,249 200,1999 201,2119 202,3889
203,659 204,60 205,10 208,10
211,10 213,30 214,80 215,30
228,10 229,259 230,3359 231,629
232,60 244,20 257,2059 258,9999
259,1939 260,239 261,20
##END=
