##TITLE=2-Propenoic acid, octyl ester
##JCAMP-DX=4.24
##DATA TYPE=MASS SPECTRUM
##OWNER=NIST Mass Spectrometry Data Center
Collection (C) 2014 copyright by the U.S. Secretary of Commerce
on behalf of the United States of America. All rights reserved.
##CAS REGISTRY NO=2499-59-4
##$NIST MASS SPEC NO=7792
##MOLFORM=C11 H20 O2
##MW=184
##$NIST SOURCE=MSDC
##XUNITS=M/Z
##YUNITS=RELATIVE INTENSITY
##XFACTOR=1
##YFACTOR=1
##FIRSTX=15
##LASTX=127
##FIRSTY=70
##MAXX=127
##MINX=15
##MAXY=9999
##MINY=50
##NPOINTS=51
##PEAK TABLE=(XY..XY)
15,70 17,230 18,911 26,200
27,2602 28,791 29,1992 30,70
31,671 32,90 39,801 40,190
41,3563 42,2422 43,3513 44,330
51,50 53,240 54,390 55,9999
56,4614 57,2052 58,150 62,50
67,270 68,741 69,2903 70,4014
71,661 72,120 73,2602 74,130
81,130 82,460 83,2192 84,2502
85,470 86,50 95,50 96,50
97,240 98,90 99,180 100,200
101,230 102,50 110,80 111,140
112,731 113,200 127,60
##END=
