##TITLE=Thieno[3,4-b]thiophene
##JCAMP-DX=4.24
##DATA TYPE=MASS SPECTRUM
##OWNER=NIST Mass Spectrometry Data Center
Collection (C) 2014 copyright by the U.S. Secretary of Commerce
on behalf of the United States of America. All rights reserved.
##CAS REGISTRY NO=250-65-7
##$NIST MASS SPEC NO=3765
##MOLFORM=C6 H4 S2
##MW=140
##$NIST SOURCE=MSDC
##XUNITS=M/Z
##YUNITS=RELATIVE INTENSITY
##XFACTOR=1
##YFACTOR=1
##FIRSTX=37
##LASTX=142
##FIRSTY=635
##MAXX=142
##MINX=37
##MAXY=9999
##MINY=238
##NPOINTS=23
##PEAK TABLE=(XY..XY)
37,635 38,714 39,1016 45,3333
61,286 62,635 63,984 64,555
65,238 69,2301 70,952 71,381
81,635 82,603 88,476 89,508
93,952 95,2222 96,2539 139,2222
140,9999 141,1016 142,1016
##END=
