##TITLE=Ethanone, 1-(1H-pyrazol-4-yl)-
##JCAMP-DX=4.24
##DATA TYPE=MASS SPECTRUM
##ORIGIN=J. VAN THUIJL
##OWNER=NIST Mass Spectrometry Data Center
Collection (C) 2014 copyright by the U.S. Secretary of Commerce
on behalf of the United States of America. All rights reserved.
##CAS REGISTRY NO=25016-16-4
##$NIST MASS SPEC NO=39518
##MOLFORM=C5 H6 N2 O
##MW=110
##$NIST SOURCE=MSDC
##XUNITS=M/Z
##YUNITS=RELATIVE INTENSITY
##XFACTOR=1
##YFACTOR=1
##FIRSTX=15
##LASTX=111
##FIRSTY=480
##MAXX=111
##MINX=15
##MAXY=9999
##MINY=30
##NPOINTS=32
##PEAK TABLE=(XY..XY)
15,480 25,50 26,200 27,240
28,1390 29,110 36,30 37,360
38,520 39,1540 40,890 41,230
42,260 43,1470 49,40 50,100
51,170 52,270 53,240 54,170
55,40 65,40 66,90 67,340
68,1370 69,40 81,50 95,9999
96,640 97,40 110,3290 111,260
##END=
