##TITLE=9H-Fluoren-9-ol, acetate
##JCAMP-DX=4.24
##DATA TYPE=MASS SPECTRUM
##ORIGIN=NIST Mass Spectrometry Data Center, 1994
##OWNER=NIST Mass Spectrometry Data Center
Collection (C) 2014 copyright by the U.S. Secretary of Commerce
on behalf of the United States of America. All rights reserved.
##CAS REGISTRY NO=25017-68-9
##$NIST MASS SPEC NO=135784
##MOLFORM=C15 H12 O2
##MW=224
##$NIST SOURCE=MSDC
##XUNITS=M/Z
##YUNITS=RELATIVE INTENSITY
##XFACTOR=1
##YFACTOR=1
##FIRSTX=13
##LASTX=226
##FIRSTY=23
##MAXX=226
##MINX=13
##MAXY=9999
##MINY=17
##NPOINTS=88
##PEAK TABLE=(XY..XY)
13,23 14,270 15,1408 16,27
17,28 18,41 28,109 37,24
38,97 39,462 40,23 42,191
43,2897 44,129 50,414 51,457
52,88 53,31 56,26 57,28
61,67 62,363 63,858 64,94
65,111 70,674 74,320 75,537
76,446 77,341 78,47 79,24
82,602 83,1038 85,60 86,355
87,485 88,182 89,311 90,26
91,40 98,213 99,179 100,90
101,121 102,133 103,24 105,33
109,28 110,112 111,170 112,96
113,246 114,80 115,562 116,50
122,43 123,29 124,22 125,83
126,446 127,331 128,48 135,18
137,214 138,139 139,796 140,91
150,477 151,1151 152,3467 153,1576
154,210 161,116 162,411 163,2322
164,2176 165,5976 166,892 167,78
178,17 181,7031 182,9999 183,1365
184,104 224,2747 225,496 226,52
##END=
