##TITLE=.alpha.-D-Glucopyranoside, 2,3,4,6-tetra-O-methyl-.alpha.-D-glucopyranosyl 2,3,4,6-tetra-O-methyl-
##JCAMP-DX=4.24
##DATA TYPE=MASS SPECTRUM
##OWNER=NIST Mass Spectrometry Data Center
Collection (C) 2014 copyright by the U.S. Secretary of Commerce
on behalf of the United States of America. All rights reserved.
##CAS REGISTRY NO=25018-29-5
##$NIST MASS SPEC NO=17735
##MOLFORM=C20 H38 O11
##MW=454
##$NIST SOURCE=MSDC
##XUNITS=M/Z
##YUNITS=RELATIVE INTENSITY
##XFACTOR=1
##YFACTOR=1
##FIRSTX=45
##LASTX=409
##FIRSTY=5099
##MAXX=409
##MINX=45
##MAXY=9999
##MINY=10
##NPOINTS=26
##PEAK TABLE=(XY..XY)
45,5099 59,400 71,1300 75,1300
88,650 99,450 101,9999 111,1920
115,560 127,530 129,240 131,270
143,440 145,490 155,780 159,150
187,3200 219,230 235,100 249,150
275,410 279,40 293,10 305,40
307,340 409,10
##END=
