##TITLE=p-Chlorophenylacetyl chloride
##JCAMP-DX=4.24
##DATA TYPE=MASS SPECTRUM
##ORIGIN=NIST Mass Spectrometry Data Center, 1994
##OWNER=NIST Mass Spectrometry Data Center
Collection (C) 2014 copyright by the U.S. Secretary of Commerce
on behalf of the United States of America. All rights reserved.
##CAS REGISTRY NO=25026-34-0
##$NIST MASS SPEC NO=135360
##MOLFORM=C8 H6 Cl2 O
##MW=188
##$NIST SOURCE=MSDC
##XUNITS=M/Z
##YUNITS=RELATIVE INTENSITY
##XFACTOR=1
##YFACTOR=1
##FIRSTX=12
##LASTX=190
##FIRSTY=98
##MAXX=190
##MINX=12
##MAXY=9999
##MINY=83
##NPOINTS=57
##PEAK TABLE=(XY..XY)
12,98 14,90 26,366 27,221
28,227 29,97 35,269 36,353
37,855 38,1029 39,1270 40,133
41,98 42,107 43,579 44,712
47,131 48,83 49,524 50,1482
51,647 52,89 60,284 61,1102
62,2405 63,3753 64,290 72,203
73,828 74,539 75,462 76,348
77,160 84,167 85,386 86,663
87,583 88,160 89,9999 90,1002
91,114 97,302 99,488 101,184
123,365 124,3478 125,5652 126,1478
127,1750 128,139 152,4440 153,539
154,1370 155,137 188,686 189,107
190,401
##END=
