##TITLE=Benzamide, N,N-dibutyl-
##JCAMP-DX=4.24
##DATA TYPE=MASS SPECTRUM
##ORIGIN=CARL DJERASSI DEPT OF CHEM STANFORD UNIV STANFORD CALIF 94305
##OWNER=NIST Mass Spectrometry Data Center
Collection (C) 2014 copyright by the U.S. Secretary of Commerce
on behalf of the United States of America. All rights reserved.
##CAS REGISTRY NO=25033-65-2
##$NIST MASS SPEC NO=47624
##MOLFORM=C15 H23 N O
##MW=233
##$NIST SOURCE=MSDC
##XUNITS=M/Z
##YUNITS=RELATIVE INTENSITY
##XFACTOR=1
##YFACTOR=1
##FIRSTX=41
##LASTX=234
##FIRSTY=200
##MAXX=234
##MINX=41
##MAXY=9999
##MINY=100
##NPOINTS=23
##PEAK TABLE=(XY..XY)
41,200 42,100 50,100 51,300
57,100 76,100 77,2100 78,100
84,100 91,100 105,9999 106,800
134,200 135,200 148,400 149,200
176,200 190,1300 191,300 204,100
232,600 233,1100 234,200
##END=
