##TITLE=Bentazone
##JCAMP-DX=4.24
##DATA TYPE=MASS SPECTRUM
##ORIGIN=CATALOGUE OF MASS SPECTRA OF PESTICIDES, APRIL, 1975; J. FREUDENTHAL & L. G. GRAMBERG, NAT'L INST. OF PUBLIC HEALTH, THE NETHERLANDS
##OWNER=NIST Mass Spectrometry Data Center
Collection (C) 2014 copyright by the U.S. Secretary of Commerce
on behalf of the United States of America. All rights reserved.
##CAS REGISTRY NO=25057-89-0
##$NIST MASS SPEC NO=53842
##MOLFORM=C10 H12 N2 O3 S
##MW=240
##$NIST SOURCE=MSDC
##XUNITS=M/Z
##YUNITS=RELATIVE INTENSITY
##XFACTOR=1
##YFACTOR=1
##FIRSTX=27
##LASTX=241
##FIRSTY=249
##MAXX=241
##MINX=27
##MAXY=9999
##MINY=105
##NPOINTS=50
##PEAK TABLE=(XY..XY)
27,249 38,166 39,502 41,759
42,233 43,352 44,158 50,139
51,271 52,468 63,718 64,1188
65,643 67,106 74,106 76,150
77,229 78,332 79,448 90,1062
91,758 92,3129 93,267 104,112
105,340 106,290 107,105 117,176
118,1509 119,9642 120,2705 121,137
133,196 134,239 138,269 153,119
154,181 155,113 161,3940 162,394
181,219 182,2276 183,269 198,9999
199,1436 200,554 225,2450 226,199
240,1904 241,122
##END=
