##TITLE=N-Ethyldiethanolamine, 2TMS derivative
##JCAMP-DX=4.24
##DATA TYPE=MASS SPECTRUM
##ORIGIN=NIST Mass Spectrometry Data Center, 2010
##OWNER=NIST Mass Spectrometry Data Center
Collection (C) 2014 copyright by the U.S. Secretary of Commerce
on behalf of the United States of America. All rights reserved.
##CAS REGISTRY NO=250688-29-0
##$NIST MASS SPEC NO=384254
##MOLFORM=C12 H31 N O2 Si2
##MW=277
##$NIST SOURCE=MSDC
##XUNITS=M/Z
##YUNITS=RELATIVE INTENSITY
##XFACTOR=1
##YFACTOR=1
##FIRSTX=27
##LASTX=278
##FIRSTY=10
##MAXX=278
##MINX=27
##MAXY=9999
##MINY=10
##NPOINTS=92
##PEAK TABLE=(XY..XY)
27,10 28,60 29,50 30,20
31,10 41,30 42,210 43,130
44,90 45,310 46,20 47,60
53,10 54,30 55,40 56,360
57,150 58,360 59,540 60,50
61,100 62,10 68,30 69,20
70,150 71,50 72,150 73,3103
74,280 75,420 76,30 77,20
79,30 82,10 84,160 85,40
86,70 87,50 88,70 89,90
90,10 96,30 98,110 99,20
100,100 101,200 102,50 103,90
104,10 105,10 109,20 112,10
114,30 115,40 116,100 117,681
118,80 119,50 128,70 129,30
130,370 131,60 132,30 133,90
134,10 135,10 142,20 143,20
144,210 145,30 147,781 148,120
149,60 150,10 158,60 159,20
160,10 172,80 174,9999 175,1301
176,400 177,30 186,10 188,40
189,10 233,10 262,260 263,60
264,20 276,10 277,50 278,10
##END=
