##TITLE=1,3-Diethyladamantane
##JCAMP-DX=4.24
##DATA TYPE=MASS SPECTRUM
##ORIGIN=V.G.Zaikin, TIPS, Russian Acad. Sci.
##OWNER=NIST Mass Spectrometry Data Center
Collection (C) 2014 copyright by the U.S. Secretary of Commerce
on behalf of the United States of America. All rights reserved.
##CAS REGISTRY NO=25074-51-5
##$NIST MASS SPEC NO=215108
##MOLFORM=C14 H24
##MW=192
##$NIST SOURCE=MSDC
##XUNITS=M/Z
##YUNITS=RELATIVE INTENSITY
##XFACTOR=1
##YFACTOR=1
##FIRSTX=51
##LASTX=193
##FIRSTY=100
##MAXX=193
##MINX=51
##MAXY=9999
##MINY=60
##NPOINTS=37
##PEAK TABLE=(XY..XY)
51,100 53,300 54,100 55,800
56,200 57,600 67,600 69,400
70,100 71,200 77,600 78,200
79,1401 80,200 81,600 82,200
91,400 92,200 93,1401 94,200
95,400 105,400 106,200 107,1801
108,200 109,300 111,100 117,200
121,600 133,1000 135,200 149,400
163,9999 164,1401 165,200 192,400
193,60
##END=
