##TITLE=Thieno[3,2-b]thiophene
##JCAMP-DX=4.24
##DATA TYPE=MASS SPECTRUM
##OWNER=NIST Mass Spectrometry Data Center
Collection (C) 2014 copyright by the U.S. Secretary of Commerce
on behalf of the United States of America. All rights reserved.
##CAS REGISTRY NO=251-41-2
##$NIST MASS SPEC NO=3764
##MOLFORM=C6 H4 S2
##MW=140
##$NIST SOURCE=MSDC
##XUNITS=M/Z
##YUNITS=RELATIVE INTENSITY
##XFACTOR=1
##YFACTOR=1
##FIRSTX=38
##LASTX=142
##FIRSTY=80
##MAXX=142
##MINX=38
##MAXY=9999
##MINY=80
##NPOINTS=20
##PEAK TABLE=(XY..XY)
38,80 45,941 57,130 58,80
63,270 64,300 69,1181 70,1051
71,430 81,130 82,220 88,110
93,160 95,561 96,1942 97,110
139,160 140,9999 141,831 142,911
##END=
