##TITLE=Pentadecane, 5-methyl-
##JCAMP-DX=4.24
##DATA TYPE=MASS SPECTRUM
##ORIGIN=DM6-99-U2
##OWNER=NIST Mass Spectrometry Data Center
Collection (C) 2014 copyright by the U.S. Secretary of Commerce
on behalf of the United States of America. All rights reserved.
##CAS REGISTRY NO=25117-33-3
##$NIST MASS SPEC NO=31267
##MOLFORM=C16 H34
##MW=226
##$NIST SOURCE=MSDC
##XUNITS=M/Z
##YUNITS=RELATIVE INTENSITY
##XFACTOR=1
##YFACTOR=1
##FIRSTX=15
##LASTX=226
##FIRSTY=190
##MAXX=226
##MINX=15
##MAXY=9999
##MINY=140
##NPOINTS=43
##PEAK TABLE=(XY..XY)
15,190 25,190 26,190 27,1910
28,600 29,3410 30,1010 40,1090
41,5399 42,1140 43,9999 44,460
53,330 54,220 55,2340 56,1360
57,5609 58,350 67,270 68,140
69,950 70,460 71,2780 72,330
81,140 82,140 83,330 84,2450
85,4580 86,330 97,270 98,270
99,540 111,220 112,160 113,460
127,350 140,270 141,160 168,870
169,540 211,270 226,190
##END=
