##TITLE=Benzonitrile, 3-ethoxy-
##JCAMP-DX=4.24
##DATA TYPE=MASS SPECTRUM
##OWNER=NIST Mass Spectrometry Data Center
Collection (C) 2014 copyright by the U.S. Secretary of Commerce
on behalf of the United States of America. All rights reserved.
##CAS REGISTRY NO=25117-75-3
##$NIST MASS SPEC NO=4405
##MOLFORM=C9 H9 N O
##MW=147
##$NIST SOURCE=MSDC
##XUNITS=M/Z
##YUNITS=RELATIVE INTENSITY
##XFACTOR=1
##YFACTOR=1
##FIRSTX=25
##LASTX=149
##FIRSTY=40
##MAXX=149
##MINX=25
##MAXY=9999
##MINY=20
##NPOINTS=71
##PEAK TABLE=(XY..XY)
25,40 26,370 27,1922 29,2462
30,70 31,80 36,80 37,330
38,651 39,1391 40,160 41,270
42,280 43,1561 44,160 45,1201
49,70 50,561 51,641 52,330
53,210 54,240 55,150 56,20
57,70 61,170 62,380 63,1181
64,1391 65,731 66,180 67,70
68,40 69,60 73,60 74,190
75,571 76,490 77,220 78,90
79,60 80,180 81,160 82,80
88,80 89,70 90,601 91,1531
92,340 93,270 94,370 95,40
102,480 103,90 104,80 105,60
108,70 109,70 110,310 116,40
117,30 118,160 119,9999 120,1101
121,791 122,190 132,80 146,40
147,2532 148,280 149,20
##END=
