##TITLE=1-(Phenylethynyl)-1-cyclopentanol
##JCAMP-DX=4.24
##DATA TYPE=MASS SPECTRUM
##ORIGIN=NIST Mass Spectrometry Data Center, 1990.
##OWNER=NIST Mass Spectrometry Data Center
Collection (C) 2014 copyright by the U.S. Secretary of Commerce
on behalf of the United States of America. All rights reserved.
##CAS REGISTRY NO=25118-60-9
##$NIST MASS SPEC NO=113067
##MOLFORM=C13 H14 O
##MW=186
##$NIST SOURCE=MSDC
##XUNITS=M/Z
##YUNITS=RELATIVE INTENSITY
##XFACTOR=1
##YFACTOR=1
##FIRSTX=14
##LASTX=187
##FIRSTY=27
##MAXX=187
##MINX=14
##MAXY=9999
##MINY=27
##NPOINTS=109
##PEAK TABLE=(XY..XY)
14,27 15,247 16,36 17,156
18,320 26,535 27,2408 28,1637
29,735 31,152 37,273 38,492
39,2766 40,307 41,1738 42,796
43,611 44,128 49,262 50,2018
51,2774 52,820 53,535 54,128
55,6974 56,843 57,180 61,346
62,1110 63,2120 64,480 65,847
66,1607 67,4387 68,265 69,271
71,144 73,270 74,1927 75,2670
76,2811 77,2873 78,998 79,794
80,1034 81,386 82,445 83,481
84,677 85,169 86,420 87,843
88,529 89,1300 90,356 91,1881
92,377 97,91 98,572 99,296
100,302 101,1465 102,7362 103,1477
104,447 105,330 109,135 110,124
111,109 112,81 113,522 114,81
115,6955 116,1185 117,3400 118,442
126,897 127,1767 128,3092 129,9999
130,3628 131,656 137,91 139,1062
140,231 141,845 142,346 143,1289
144,1022 145,149 151,287 152,1734
153,1538 154,271 155,138 156,138
157,4410 158,1555 159,198 163,132
165,1706 166,719 167,2873 168,2468
169,358 171,180 185,8995 186,1734
187,173
##END=
