##TITLE=Benzonitrile, 4-ethoxy-
##JCAMP-DX=4.24
##DATA TYPE=MASS SPECTRUM
##ORIGIN=Dr. Jiri Zamecnik, DCIEM, North York, Canada, GP Library
##OWNER=NIST Mass Spectrometry Data Center
Collection (C) 2014 copyright by the U.S. Secretary of Commerce
on behalf of the United States of America. All rights reserved.
##CAS REGISTRY NO=25117-74-2
##$NIST MASS SPEC NO=121355
##MOLFORM=C9 H9 N O
##MW=147
##$NIST SOURCE=MSDC
##XUNITS=M/Z
##YUNITS=RELATIVE INTENSITY
##XFACTOR=1
##YFACTOR=1
##FIRSTX=38
##LASTX=148
##FIRSTY=190
##MAXX=148
##MINX=38
##MAXY=9999
##MINY=40
##NPOINTS=22
##PEAK TABLE=(XY..XY)
38,190 39,480 50,230 51,340
52,170 63,640 64,1130 65,240
75,410 76,310 90,410 91,1190
92,260 102,410 103,60 104,40
119,9999 120,810 121,50 132,40
147,3070 148,330
##END=
