##TITLE=Tetradecane, 4-methyl-
##JCAMP-DX=4.24
##DATA TYPE=MASS SPECTRUM
##ORIGIN=W.L.MEAD BRITISH PETROLEUM CO. LTD., SUNBURY-ON-THAMES, UK
##OWNER=NIST Mass Spectrometry Data Center
Collection (C) 2014 copyright by the U.S. Secretary of Commerce
on behalf of the United States of America. All rights reserved.
##CAS REGISTRY NO=25117-24-2
##$NIST MASS SPEC NO=68895
##MOLFORM=C15 H32
##MW=212
##$NIST SOURCE=MSDC
##XUNITS=M/Z
##YUNITS=RELATIVE INTENSITY
##XFACTOR=1
##YFACTOR=1
##FIRSTX=39
##LASTX=213
##FIRSTY=530
##MAXX=213
##MINX=39
##MAXY=9999
##MINY=10
##NPOINTS=55
##PEAK TABLE=(XY..XY)
39,530 40,140 41,3380 42,1150
43,9999 44,410 53,200 54,170
55,2310 56,1130 57,9100 58,410
67,180 68,170 69,850 70,4480
71,9400 72,510 81,30 82,170
83,470 84,470 85,3880 86,250
96,120 97,410 98,230 99,1480
100,110 110,60 111,280 112,180
113,1030 114,90 125,170 126,90
127,510 128,50 139,80 140,370
141,260 142,20 154,30 155,50
168,1070 169,1380 170,180 182,80
183,110 184,20 196,20 197,120
198,10 212,100 213,20
##END=
