##TITLE=Benzoic acid, 3,5-bis(1,1-dimethylethyl)-4-hydroxy-, methyl ester
##JCAMP-DX=4.24
##DATA TYPE=MASS SPECTRUM
##ORIGIN=NIST Mass Spectrometry Data Center
##OWNER=NIST Mass Spectrometry Data Center
Collection (C) 2014 copyright by the U.S. Secretary of Commerce
on behalf of the United States of America. All rights reserved.
##CAS REGISTRY NO=2511-22-0
##$NIST MASS SPEC NO=352483
##MOLFORM=C16 H24 O3
##MW=264
##$NIST SOURCE=MSDC
##XUNITS=M/Z
##YUNITS=RELATIVE INTENSITY
##XFACTOR=1
##YFACTOR=1
##FIRSTX=15
##LASTX=266
##FIRSTY=60
##MAXX=266
##MINX=15
##MAXY=9999
##MINY=10
##NPOINTS=174
##PEAK TABLE=(XY..XY)
15,60 27,60 28,10 29,200
30,10 31,20 33,10 39,160
40,20 41,540 42,30 43,120
45,20 50,20 51,140 52,40
53,160 54,10 55,340 56,20
57,891 58,110 59,400 60,10
62,20 63,100 64,70 65,180
66,50 67,90 68,10 69,60
70,10 71,20 72,40 73,60
74,200 75,40 76,30 77,350
78,120 79,240 80,80 81,40
82,10 83,20 85,10 86,60
87,450 89,120 90,40 91,681
92,80 93,90 94,30 95,40
96,10 99,10 100,10 101,80
102,80 103,651 105,400 106,60
107,130 108,40 109,70 110,10
113,10 114,20 115,721 116,300
117,611 118,80 119,240 120,40
121,220 122,30 123,20 124,20
126,10 127,160 128,440 129,460
130,180 131,320 132,90 133,170
134,50 135,60 136,10 137,30
139,30 140,10 141,280 142,180
143,180 144,60 145,300 146,80
147,180 148,50 149,150 150,20
151,20 152,30 153,60 154,30
155,80 156,70 157,160 158,50
159,160 160,70 161,400 162,70
163,90 164,20 165,70 166,10
167,10 169,20 170,10 171,70
172,30 173,100 174,50 175,280
176,50 177,130 178,20 179,30
180,10 181,10 183,10 184,10
185,20 186,10 187,40 188,10
189,550 190,100 191,330 192,50
193,220 194,30 199,30 200,10
201,60 202,10 203,60 205,530
206,80 207,50 208,10 215,10
217,140 218,20 219,70 221,1621
222,230 223,30 231,20 233,1091
234,180 235,30 247,30 249,9999
250,1862 251,210 252,20 264,1902
265,340 266,40
##END=
