##TITLE=Cyclopropane, pentyl-
##JCAMP-DX=4.24
##DATA TYPE=MASS SPECTRUM
##ORIGIN=CARL DJERASSI DEPT OF CHEM STANFORD UNIV STANFORD CALIF 94305
##OWNER=NIST Mass Spectrometry Data Center
Collection (C) 2014 copyright by the U.S. Secretary of Commerce
on behalf of the United States of America. All rights reserved.
##CAS REGISTRY NO=2511-91-3
##$NIST MASS SPEC NO=46309
##MOLFORM=C8 H16
##MW=112
##$NIST SOURCE=MSDC
##XUNITS=M/Z
##YUNITS=RELATIVE INTENSITY
##XFACTOR=1
##YFACTOR=1
##FIRSTX=41
##LASTX=113
##FIRSTY=5500
##MAXX=113
##MINX=41
##MAXY=9999
##MINY=100
##NPOINTS=26
##PEAK TABLE=(XY..XY)
41,5500 42,5700 43,5700 44,200
50,100 51,100 52,100 53,500
54,600 55,8000 56,9999 57,1500
65,100 67,400 68,1200 69,4700
70,5300 71,600 81,100 82,600
83,3100 84,3100 85,200 97,300
112,600 113,100
##END=
