##TITLE=Thiazole, 5-ethoxy-
##JCAMP-DX=4.24
##DATA TYPE=MASS SPECTRUM
##ORIGIN=M.A.FRIEDMAN FAC. SCI. ST-JEROME, MARSEILLE, FRANCE
##OWNER=NIST Mass Spectrometry Data Center
Collection (C) 2014 copyright by the U.S. Secretary of Commerce
on behalf of the United States of America. All rights reserved.
##CAS REGISTRY NO=25115-63-3
##$NIST MASS SPEC NO=2807
##MOLFORM=C5 H7 N O S
##MW=129
##$NIST SOURCE=MSDC
##XUNITS=M/Z
##YUNITS=RELATIVE INTENSITY
##XFACTOR=1
##YFACTOR=1
##FIRSTX=26
##LASTX=131
##FIRSTY=400
##MAXX=131
##MINX=26
##MAXY=9999
##MINY=300
##NPOINTS=22
##PEAK TABLE=(XY..XY)
26,400 27,1400 28,1700 29,4400
40,400 45,1900 46,3600 56,1300
57,800 58,1300 59,1400 73,5300
75,800 85,400 86,500 100,400
101,9999 102,1200 103,1500 129,3300
130,300 131,300
##END=
