##TITLE=Octadecane, 5-methyl-
##JCAMP-DX=4.24
##DATA TYPE=MASS SPECTRUM
##ORIGIN=R.T.HOLMAN,UNIVERSITY OF MINNESOTA
##OWNER=NIST Mass Spectrometry Data Center
Collection (C) 2014 copyright by the U.S. Secretary of Commerce
on behalf of the United States of America. All rights reserved.
##CAS REGISTRY NO=25117-35-5
##$NIST MASS SPEC NO=35802
##MOLFORM=C19 H40
##MW=268
##$NIST SOURCE=MSDC
##XUNITS=M/Z
##YUNITS=RELATIVE INTENSITY
##XFACTOR=1
##YFACTOR=1
##FIRSTX=25
##LASTX=269
##FIRSTY=20
##MAXX=269
##MINX=25
##MAXY=9999
##MINY=10
##NPOINTS=168
##PEAK TABLE=(XY..XY)
25,20 26,180 27,3070 28,970
29,7840 30,160 31,40 32,40
36,20 37,20 38,40 39,120
40,260 41,9470 42,2100 43,9999
44,780 45,160 46,10 50,10
51,40 52,20 53,330 54,390
55,3890 56,3210 57,9999 58,840
59,80 60,30 61,10 62,10
63,10 64,10 65,40 66,90
67,520 68,630 69,1840 70,1100
71,9999 72,550 73,40 74,10
75,10 77,30 78,10 79,50
80,30 81,250 82,840 83,940
84,5780 85,9999 86,680 87,20
88,10 89,10 91,40 92,10
93,10 94,20 95,180 96,370
97,650 98,390 99,1440 100,110
101,10 102,10 103,10 104,10
105,10 106,10 107,10 108,10
109,80 110,130 111,310 112,200
113,840 114,80 115,10 116,10
117,10 119,10 120,10 121,10
122,10 123,40 124,70 125,180
126,130 127,650 128,60 129,10
130,10 131,10 132,10 133,10
135,10 136,10 137,20 138,40
139,80 140,80 141,470 142,50
143,10 144,10 145,10 149,10
150,10 151,10 152,20 153,50
154,70 155,290 156,30 157,10
158,10 163,10 165,10 166,10
167,30 168,40 169,150 170,20
171,10 179,10 180,10 181,10
182,210 183,120 184,10 185,10
194,10 195,10 196,30 197,40
198,10 199,10 201,10 205,10
210,680 211,890 212,130 213,10
219,10 222,20 223,10 224,50
225,60 226,10 233,10 238,50
239,90 240,20 241,10 248,10
250,10 252,20 253,100 254,30
255,10 267,10 268,24 269,10
##END=
