##TITLE=2H-1-Benzopyran, 2,2-dimethyl-
##JCAMP-DX=4.24
##DATA TYPE=MASS SPECTRUM
##OWNER=NIST Mass Spectrometry Data Center
Collection (C) 2014 copyright by the U.S. Secretary of Commerce
on behalf of the United States of America. All rights reserved.
##CAS REGISTRY NO=2513-25-9
##$NIST MASS SPEC NO=5689
##MOLFORM=C11 H12 O
##MW=160
##$NIST SOURCE=MSDC
##XUNITS=M/Z
##YUNITS=RELATIVE INTENSITY
##XFACTOR=1
##YFACTOR=1
##FIRSTX=51
##LASTX=162
##FIRSTY=522
##MAXX=162
##MINX=51
##MAXY=9999
##MINY=5
##NPOINTS=26
##PEAK TABLE=(XY..XY)
51,522 52,304 53,217 75,87
77,435 78,217 79,87 89,304
91,783 92,174 94,435 119,174
120,87 121,348 131,304 134,87
144,350 145,9999 146,1100 147,80
148,5 158,130 159,348 160,1217
161,261 162,87
##END=
