##TITLE=3-Hexen-1-ol, benzoate, (Z)-
##JCAMP-DX=4.24
##DATA TYPE=MASS SPECTRUM
##OWNER=NIST Mass Spectrometry Data Center
Collection (C) 2014 copyright by the U.S. Secretary of Commerce
on behalf of the United States of America. All rights reserved.
##CAS REGISTRY NO=25152-85-6
##$NIST MASS SPEC NO=9279
##MOLFORM=C13 H16 O2
##MW=204
##$NIST SOURCE=MSDC
##XUNITS=M/Z
##YUNITS=RELATIVE INTENSITY
##XFACTOR=1
##YFACTOR=1
##FIRSTX=26
##LASTX=124
##FIRSTY=80
##MAXX=124
##MINX=26
##MAXY=9999
##MINY=60
##NPOINTS=38
##PEAK TABLE=(XY..XY)
26,80 27,781 28,270 29,460
38,70 39,931 40,140 41,1511
42,200 43,90 50,460 51,1732
52,180 53,390 54,701 55,561
65,140 66,110 67,6996 68,490
69,60 74,80 75,120 76,310
77,5415 78,510 79,280 80,70
81,591 82,1091 83,911 104,80
105,9999 106,1021 107,60 122,60
123,550 124,60
##END=
