##TITLE=5-Chloro-2-nitrobenzoic acid
##JCAMP-DX=4.24
##DATA TYPE=MASS SPECTRUM
##ORIGIN=Japan AIST/NIMC Database- Spectrum MS-NW- 213
##OWNER=NIST Mass Spectrometry Data Center
Collection (C) 2014 copyright by the U.S. Secretary of Commerce
on behalf of the United States of America. All rights reserved.
##CAS REGISTRY NO=2516-95-2
##$NIST MASS SPEC NO=228375
##MOLFORM=C7 H4 Cl N O4
##MW=201
##$NIST SOURCE=MSDC
##XUNITS=M/Z
##YUNITS=RELATIVE INTENSITY
##XFACTOR=1
##YFACTOR=1
##FIRSTX=16
##LASTX=205
##FIRSTY=30
##MAXX=205
##MINX=16
##MAXY=9999
##MINY=10
##NPOINTS=135
##PEAK TABLE=(XY..XY)
16,30 17,20 18,70 25,20
26,70 27,90 28,50 29,90
30,3649 32,10 35,30 36,70
37,659 38,589 39,689 40,30
41,30 43,20 44,509 45,749
46,189 47,80 48,40 49,389
50,2609 51,1149 52,149 53,729
54,40 55,70 56,30 57,50
60,129 61,439 62,659 63,2679
64,489 65,80 66,119 67,60
69,40 71,40 72,169 73,3069
74,3759 75,5529 76,1019 77,199
78,99 79,139 80,30 83,20
84,609 85,519 86,239 87,379
88,90 89,109 90,139 91,469
92,269 93,219 94,20 96,20
97,119 98,319 99,8939 100,589
101,2869 102,179 103,70 104,30
106,20 107,179 108,139 109,329
110,1439 111,2069 112,729 113,729
114,99 115,1519 116,90 117,499
118,40 119,70 120,20 121,70
124,30 125,289 126,469 127,8019
128,689 129,2789 130,179 131,20
135,20 137,60 138,119 139,70
140,129 141,60 142,40 143,1269
144,109 145,439 146,30 148,30
149,40 153,449 154,80 155,1099
156,119 157,2209 158,159 159,629
160,50 168,20 169,20 171,3289
172,279 173,1099 174,99 175,20
182,20 183,40 184,259 185,279
186,90 187,109 201,9999 202,899
203,3289 204,289 205,40
##END=
