##TITLE=2-Chloro-5-nitrobenzoic acid
##JCAMP-DX=4.24
##DATA TYPE=MASS SPECTRUM
##ORIGIN=NIST Mass Spectrometry Data Center, 1992
##OWNER=NIST Mass Spectrometry Data Center
Collection (C) 2014 copyright by the U.S. Secretary of Commerce
on behalf of the United States of America. All rights reserved.
##CAS REGISTRY NO=2516-96-3
##$NIST MASS SPEC NO=125217
##MOLFORM=C7 H4 Cl N O4
##MW=201
##$NIST SOURCE=MSDC
##XUNITS=M/Z
##YUNITS=RELATIVE INTENSITY
##XFACTOR=1
##YFACTOR=1
##FIRSTX=12
##LASTX=205
##FIRSTY=65
##MAXX=205
##MINX=12
##MAXY=9999
##MINY=3
##NPOINTS=136
##PEAK TABLE=(XY..XY)
12,65 14,51 16,79 17,42
18,61 25,55 26,60 28,573
30,3433 35,89 36,176 37,713
38,607 39,509 40,31 41,63
42,47 43,31 44,762 45,834
46,289 47,116 48,68 49,575
50,1981 51,1230 52,147 53,576
54,67 55,94 59,7 60,166
61,609 62,817 63,2526 64,456
65,172 66,98 67,46 68,25
69,3 71,56 73,2775 74,4986
75,6804 76,843 77,381 78,87
79,401 80,64 81,36 84,769
85,402 86,372 87,499 88,124
89,166 90,238 91,1496 92,425
93,91 96,33 97,108 99,7646
100,582 101,2511 102,158 103,47
104,67 105,376 106,33 107,1403
108,402 109,900 110,1559 111,1184
112,566 113,332 114,47 115,1092
116,94 117,356 118,22 119,182
120,77 121,87 122,33 125,108
126,552 127,811 128,241 129,257
133,37 135,3416 136,296 137,444
138,940 139,265 140,355 141,59
142,37 143,617 144,60 145,165
146,40 148,19 149,308 150,52
151,39 152,135 153,339 154,19
155,1739 156,350 157,1188 158,106
159,262 165,31 169,51 171,3142
172,341 173,1166 174,124 181,95
182,241 183,47 184,967 185,322
186,280 187,113 198,25 201,9999
202,1041 203,3407 204,359 205,33
##END=
