##TITLE=1-Butanol, 3-methoxy-
##JCAMP-DX=4.24
##DATA TYPE=MASS SPECTRUM
##ORIGIN=Japan AIST/NIMC Database- Spectrum MS-NW-9315
##OWNER=NIST Mass Spectrometry Data Center
Collection (C) 2014 copyright by the U.S. Secretary of Commerce
on behalf of the United States of America. All rights reserved.
##CAS REGISTRY NO=2517-43-3
##$NIST MASS SPEC NO=227761
##MOLFORM=C5 H12 O2
##MW=104
##$NIST SOURCE=MSDC
##XUNITS=M/Z
##YUNITS=RELATIVE INTENSITY
##XFACTOR=1
##YFACTOR=1
##FIRSTX=14
##LASTX=105
##FIRSTY=10
##MAXX=105
##MINX=14
##MAXY=9999
##MINY=10
##NPOINTS=49
##PEAK TABLE=(XY..XY)
14,10 15,219 18,20 26,40
27,379 28,149 29,1109 30,60
31,1879 32,60 33,709 34,10
37,10 38,30 39,319 40,80
41,699 42,519 43,809 44,90
45,419 46,10 50,10 51,10
53,90 54,50 55,569 56,179
57,549 58,279 59,9999 60,399
61,60 63,20 69,20 70,30
71,459 72,239 73,129 74,40
85,70 86,209 87,30 89,689
90,30 101,10 103,30 104,10
105,10
##END=
