##TITLE=2,6-Dichlorobenzaldoxime
##JCAMP-DX=4.24
##DATA TYPE=MASS SPECTRUM
##ORIGIN=NIST Mass Spectrometry Data Center, 1994
##OWNER=NIST Mass Spectrometry Data Center
Collection (C) 2014 copyright by the U.S. Secretary of Commerce
on behalf of the United States of America. All rights reserved.
##CAS REGISTRY NO=25185-95-9
##$NIST MASS SPEC NO=135829
##MOLFORM=C7 H5 Cl2 N O
##MW=189
##$NIST SOURCE=MSDC
##XUNITS=M/Z
##YUNITS=RELATIVE INTENSITY
##XFACTOR=1
##YFACTOR=1
##FIRSTX=12
##LASTX=194
##FIRSTY=173
##MAXX=194
##MINX=12
##MAXY=9999
##MINY=26
##NPOINTS=129
##PEAK TABLE=(XY..XY)
12,173 13,85 16,1017 17,1522
18,1794 24,89 25,352 26,858
27,262 28,2817 29,81 30,2600
32,26 35,1212 36,1294 37,4570
38,2790 39,1837 40,165 42,51
43,369 44,1736 47,1287 48,737
49,3169 50,6090 51,2282 52,564
53,214 54,51 55,371 56,194
59,782 60,1344 61,3355 62,4134
63,6307 64,983 65,223 66,95
67,95 68,353 69,131 71,294
72,1540 73,6122 74,8575 75,9999
76,2186 79,111 84,3310 85,2523
86,2813 87,2127 88,1090 89,1511
90,4424 91,1322 92,123 95,124
96,462 97,1252 98,2215 99,6056
100,8949 101,2301 102,614 103,85
106,117 107,280 108,745 109,6009
110,2191 111,3239 112,739 113,401
116,71 118,3457 119,639 120,207
121,225 122,71 123,2961 124,1301
125,3780 126,6587 127,1684 128,2203
129,287 133,438 134,614 135,901
136,8250 137,1148 138,2737 139,289
145,2469 146,2203 147,1684 148,1374
149,395 150,239 153,5248 154,8591
155,2264 156,3085 157,306 158,239
159,833 160,233 161,808 162,1561
163,358 164,973 165,81 166,165
171,7362 172,1888 173,5319 174,1126
175,1099 176,231 187,68 189,9524
190,769 191,6241 192,507 193,1034
194,81
##END=
