##TITLE=[1,2]Dithiolo[1,5-b][1,2]dithiole-7-S(IV)
##JCAMP-DX=4.24
##DATA TYPE=MASS SPECTRUM
##OWNER=NIST Mass Spectrometry Data Center
Collection (C) 2014 copyright by the U.S. Secretary of Commerce
on behalf of the United States of America. All rights reserved.
##CAS REGISTRY NO=252-09-5
##$NIST MASS SPEC NO=33318
##MOLFORM=C5 H4 S3
##MW=160
##$NIST SOURCE=MSDC
##XUNITS=M/Z
##YUNITS=RELATIVE INTENSITY
##XFACTOR=1
##YFACTOR=1
##FIRSTX=50
##LASTX=162
##FIRSTY=328
##MAXX=162
##MINX=50
##MAXY=9999
##MINY=219
##NPOINTS=28
##PEAK TABLE=(XY..XY)
50,328 51,492 69,2186 70,437
71,929 76,2568 78,328 80,874
81,382 82,328 83,437 84,1585
100,273 101,874 102,492 103,382
115,437 116,2623 117,219 118,273
127,2404 128,2732 129,437 130,328
159,7431 160,9999 161,1967 162,1530
##END=
