##TITLE=Encyprate
##JCAMP-DX=4.24
##DATA TYPE=MASS SPECTRUM
##ORIGIN=Japan AIST/NIMC Database- Spectrum MS-NW-7397
##OWNER=NIST Mass Spectrometry Data Center
Collection (C) 2014 copyright by the U.S. Secretary of Commerce
on behalf of the United States of America. All rights reserved.
##CAS REGISTRY NO=2521-01-9
##$NIST MASS SPEC NO=238574
##MOLFORM=C13 H17 N O2
##MW=219
##$NIST SOURCE=MSDC
##XUNITS=M/Z
##YUNITS=RELATIVE INTENSITY
##XFACTOR=1
##YFACTOR=1
##FIRSTX=15
##LASTX=221
##FIRSTY=10
##MAXX=221
##MINX=15
##MAXY=9999
##MINY=10
##NPOINTS=105
##PEAK TABLE=(XY..XY)
15,10 26,30 27,229 28,149
29,819 30,40 31,10 38,30
39,399 40,50 41,499 42,129
43,90 44,30 45,30 50,60
51,199 52,50 53,20 54,60
55,30 56,349 57,30 58,20
59,10 62,60 63,189 64,70
65,989 66,60 67,20 68,159
69,50 70,70 73,10 74,30
75,20 76,30 77,199 78,70
79,119 80,10 82,30 83,10
84,70 86,10 87,20 88,10
89,259 90,209 91,9999 92,969
93,50 98,20 100,149 101,10
102,30 103,50 104,379 105,169
106,189 107,40 114,10 115,80
116,50 117,209 118,279 119,179
120,20 127,10 128,219 129,119
130,229 131,70 132,229 133,60
134,50 135,20 136,10 142,20
143,10 144,80 145,50 146,5029
147,619 148,40 150,40 160,20
162,30 172,10 173,10 174,80
175,10 176,10 178,40 179,10
190,739 191,119 192,40 204,20
217,30 218,889 219,1309 220,189
221,40
##END=
