##TITLE=4-tert-Butylphenol, TMS derivative
##JCAMP-DX=4.24
##DATA TYPE=MASS SPECTRUM
##ORIGIN=A.Pleshkova, Nesmeyanov Inst.Org.Elem.Cpds, Moscow
##OWNER=NIST Mass Spectrometry Data Center
Collection (C) 2014 copyright by the U.S. Secretary of Commerce
on behalf of the United States of America. All rights reserved.
##CAS REGISTRY NO=25237-79-0
##$NIST MASS SPEC NO=283547
##MOLFORM=C13 H22 O Si
##MW=222
##$NIST SOURCE=MSDC
##XUNITS=M/Z
##YUNITS=RELATIVE INTENSITY
##XFACTOR=1
##YFACTOR=1
##FIRSTX=41
##LASTX=224
##FIRSTY=761
##MAXX=224
##MINX=41
##MAXY=9999
##MINY=70
##NPOINTS=36
##PEAK TABLE=(XY..XY)
41,761 42,180 43,460 44,150
45,1001 46,180 55,260 56,140
57,821 58,120 67,290 68,400
69,170 73,3073 74,380 75,781
76,120 77,360 78,150 82,2282
83,240 91,651 92,190 96,550
97,160 151,611 152,160 179,200
191,280 207,9999 208,1712 209,571
210,180 222,1371 223,270 224,70
##END=
