##TITLE=Phosphorodichloridothioic acid, O-methyl ester
##JCAMP-DX=4.24
##DATA TYPE=MASS SPECTRUM
##OWNER=NIST Mass Spectrometry Data Center
Collection (C) 2014 copyright by the U.S. Secretary of Commerce
on behalf of the United States of America. All rights reserved.
##CAS REGISTRY NO=2523-94-6
##$NIST MASS SPEC NO=32542
##MOLFORM=C H3 Cl2 O P S
##MW=164
##$NIST SOURCE=MSDC
##XUNITS=M/Z
##YUNITS=RELATIVE INTENSITY
##XFACTOR=1
##YFACTOR=1
##FIRSTX=15
##LASTX=168
##FIRSTY=675
##MAXX=168
##MINX=15
##MAXY=9999
##MINY=164
##NPOINTS=22
##PEAK TABLE=(XY..XY)
15,675 29,435 31,594 45,493
46,687 47,6527 63,2325 66,776
67,594 79,764 97,1484 98,1726
101,1481 103,908 105,164 129,8219
131,3022 134,9657 136,6623 164,9999
166,6879 168,1474
##END=
