##TITLE=1-Bromo-2,5-dimethoxybenzene
##JCAMP-DX=4.24
##DATA TYPE=MASS SPECTRUM
##ORIGIN=NIST Mass Spectrometry Data Center
##OWNER=NIST Mass Spectrometry Data Center
Collection (C) 2014 copyright by the U.S. Secretary of Commerce
on behalf of the United States of America. All rights reserved.
##CAS REGISTRY NO=25245-34-5
##$NIST MASS SPEC NO=340404
##MOLFORM=C8 H9 Br O2
##MW=216
##$NIST SOURCE=MSDC
##XUNITS=M/Z
##YUNITS=RELATIVE INTENSITY
##XFACTOR=1
##YFACTOR=1
##FIRSTX=13
##LASTX=220
##FIRSTY=10
##MAXX=220
##MINX=13
##MAXY=9999
##MINY=10
##NPOINTS=129
##PEAK TABLE=(XY..XY)
13,10 15,871 16,10 25,70
26,310 27,110 29,390 30,90
31,50 32,10 36,20 37,360
38,420 39,721 40,70 41,170
42,40 43,90 44,10 45,10
46,10 48,10 49,220 50,1411
51,3073 52,350 53,3483 54,601
55,130 56,20 59,10 60,70
61,821 62,1982 63,4714 64,1391
65,2102 66,1912 67,130 68,40
69,130 72,10 73,180 74,771
75,631 76,410 77,2402 78,671
79,5565 80,350 81,80 82,210
83,10 85,10 90,20 91,200
92,1892 93,390 94,350 95,80
103,10 104,200 105,80 106,250
107,4574 108,500 109,160 115,10
116,110 117,110 118,110 119,170
120,10 121,120 122,981 123,160
124,10 128,30 129,160 130,120
131,260 132,170 133,150 134,90
135,90 136,160 137,20 138,60
140,10 141,100 142,280 143,250
144,280 145,190 146,10 147,40
149,30 154,20 155,170 156,30
157,340 158,390 159,190 160,360
161,20 170,460 171,40 172,450
173,2813 174,200 175,2732 176,160
177,10 185,80 186,30 187,90
188,30 189,10 201,9999 202,851
203,9779 204,761 205,60 213,10
216,6946 217,651 218,6676 219,581
220,50
##END=
