##TITLE=Myristic acid isobutyl ester
##JCAMP-DX=4.24
##DATA TYPE=MASS SPECTRUM
##ORIGIN=Japan AIST/NIMC Database- Spectrum MS-NW-5310
##OWNER=NIST Mass Spectrometry Data Center
Collection (C) 2014 copyright by the U.S. Secretary of Commerce
on behalf of the United States of America. All rights reserved.
##CAS REGISTRY NO=25263-97-2
##$NIST MASS SPEC NO=233203
##MOLFORM=C18 H36 O2
##MW=284
##$NIST SOURCE=MSDC
##XUNITS=M/Z
##YUNITS=RELATIVE INTENSITY
##XFACTOR=1
##YFACTOR=1
##FIRSTX=15
##LASTX=285
##FIRSTY=40
##MAXX=285
##MINX=15
##MAXY=9999
##MINY=10
##NPOINTS=152
##PEAK TABLE=(XY..XY)
15,40 17,10 18,40 26,50
27,779 28,229 29,2149 30,60
31,90 32,30 33,30 37,10
38,30 39,589 40,129 41,3949
42,769 43,3729 44,139 45,80
50,20 51,30 52,20 53,179
54,269 55,2369 56,7759 57,9999
58,489 59,90 60,2209 61,689
62,30 63,10 65,30 66,30
67,409 68,249 69,1329 70,419
71,1649 72,109 73,1649 74,229
75,20 77,30 78,30 79,99
80,50 81,399 82,199 83,869
84,569 85,1049 86,109 87,479
88,50 89,50 91,30 92,10
93,70 94,50 95,479 96,169
97,669 98,839 99,269 100,30
101,269 102,60 103,50 105,10
107,50 108,20 109,269 110,90
111,419 112,199 113,159 114,20
115,309 116,339 117,139 118,10
121,60 122,10 123,139 124,50
125,169 126,50 127,80 128,10
129,939 130,99 131,20 135,50
136,10 137,70 138,50 139,99
140,30 141,20 143,199 144,30
145,10 149,30 151,30 152,10
153,50 154,10 155,10 157,90
158,20 159,10 163,10 164,10
165,10 166,99 167,40 168,50
169,40 171,179 172,30 173,10
181,10 183,60 184,10 185,569
186,70 187,10 191,50 192,20
193,20 199,109 200,30 201,30
208,20 209,60 210,20 211,3019
212,499 213,50 227,10 228,909
229,1679 230,269 231,30 241,10
254,30 269,30 284,30 285,10
##END=
