##TITLE=Isophosphinoline
##JCAMP-DX=4.24
##DATA TYPE=MASS SPECTRUM
##ORIGIN=ORMSBG,10(7)515(1975); C. JONGSMA
##OWNER=NIST Mass Spectrometry Data Center
Collection (C) 2014 copyright by the U.S. Secretary of Commerce
on behalf of the United States of America. All rights reserved.
##CAS REGISTRY NO=253-37-2
##$NIST MASS SPEC NO=54459
##MOLFORM=C9 H7 P
##MW=146
##$NIST SOURCE=MSDC
##XUNITS=M/Z
##YUNITS=RELATIVE INTENSITY
##XFACTOR=1
##YFACTOR=1
##FIRSTX=102
##LASTX=147
##FIRSTY=1400
##MAXX=147
##MINX=102
##MAXY=9999
##MINY=100
##NPOINTS=12
##PEAK TABLE=(XY..XY)
102,1400 103,100 107,200 115,2600
116,300 119,200 120,1300 121,100
144,900 145,800 146,9999 147,1000
##END=
