##TITLE=Cinnoline
##JCAMP-DX=4.24
##DATA TYPE=MASS SPECTRUM
##OWNER=NIST Mass Spectrometry Data Center
Collection (C) 2014 copyright by the U.S. Secretary of Commerce
on behalf of the United States of America. All rights reserved.
##CAS REGISTRY NO=253-66-7
##$NIST MASS SPEC NO=2852
##MOLFORM=C8 H6 N2
##MW=130
##$NIST SOURCE=MSDC
##XUNITS=M/Z
##YUNITS=RELATIVE INTENSITY
##XFACTOR=1
##YFACTOR=1
##FIRSTX=39
##LASTX=131
##FIRSTY=701
##MAXX=131
##MINX=39
##MAXY=9999
##MINY=200
##NPOINTS=18
##PEAK TABLE=(XY..XY)
39,701 41,200 49,200 50,1902
51,1601 52,901 62,300 63,801
74,200 75,801 76,3003 77,300
101,300 102,6806 103,701 129,300
130,9999 131,901
##END=
