##TITLE=Quinazoline
##JCAMP-DX=4.24
##DATA TYPE=MASS SPECTRUM
##ORIGIN=NIST Mass Spectrometry Data Center, 1994
##OWNER=NIST Mass Spectrometry Data Center
Collection (C) 2014 copyright by the U.S. Secretary of Commerce
on behalf of the United States of America. All rights reserved.
##CAS REGISTRY NO=253-82-7
##$NIST MASS SPEC NO=134262
##MOLFORM=C8 H6 N2
##MW=130
##$NIST SOURCE=MSDC
##XUNITS=M/Z
##YUNITS=RELATIVE INTENSITY
##XFACTOR=1
##YFACTOR=1
##FIRSTX=12
##LASTX=132
##FIRSTY=11
##MAXX=132
##MINX=12
##MAXY=9999
##MINY=11
##NPOINTS=44
##PEAK TABLE=(XY..XY)
12,11 13,19 25,39 26,197
27,333 28,615 29,11 37,424
38,523 39,314 40,37 48,51
49,362 50,2409 51,970 52,348
53,62 60,35 61,134 62,181
63,247 64,132 65,224 72,38
73,246 74,939 75,1522 76,3985
77,371 78,19 85,18 86,29
87,33 88,24 99,129 100,97
102,1097 103,6425 104,515 105,22
129,1757 130,9999 131,951 132,40
##END=
