##TITLE=Pyrido[2,3-d]pyridazine
##JCAMP-DX=4.24
##DATA TYPE=MASS SPECTRUM
##OWNER=NIST Mass Spectrometry Data Center
Collection (C) 2014 copyright by the U.S. Secretary of Commerce
on behalf of the United States of America. All rights reserved.
##CAS REGISTRY NO=253-73-6
##$NIST MASS SPEC NO=2966
##MOLFORM=C7 H5 N3
##MW=131
##$NIST SOURCE=MSDC
##XUNITS=M/Z
##YUNITS=RELATIVE INTENSITY
##XFACTOR=1
##YFACTOR=1
##FIRSTX=25
##LASTX=133
##FIRSTY=190
##MAXX=133
##MINX=25
##MAXY=9999
##MINY=100
##NPOINTS=33
##PEAK TABLE=(XY..XY)
25,190 26,1051 27,370 28,731
29,100 37,821 38,951 39,1051
49,871 50,4934 51,2092 52,1241
53,330 55,150 57,190 62,330
63,400 64,581 65,190 66,150
74,731 75,2032 76,5475 77,8007
78,460 102,150 103,951 104,2682
105,150 130,220 131,9999 132,1451
133,150
##END=
