##TITLE=2-Propenoic acid, 2-methyl-, 3-(trimethoxysilyl)propyl ester
##JCAMP-DX=4.24
##DATA TYPE=MASS SPECTRUM
##ORIGIN=Japan AIST/NIMC Database- Spectrum MS-NW-4178
##OWNER=NIST Mass Spectrometry Data Center
Collection (C) 2014 copyright by the U.S. Secretary of Commerce
on behalf of the United States of America. All rights reserved.
##CAS REGISTRY NO=2530-85-0
##$NIST MASS SPEC NO=232397
##MOLFORM=C10 H20 O5 Si
##MW=248
##$NIST SOURCE=MSDC
##XUNITS=M/Z
##YUNITS=RELATIVE INTENSITY
##XFACTOR=1
##YFACTOR=1
##FIRSTX=15
##LASTX=233
##FIRSTY=60
##MAXX=233
##MINX=15
##MAXY=9999
##MINY=10
##NPOINTS=122
##PEAK TABLE=(XY..XY)
15,60 18,10 26,10 27,40
28,219 29,40 30,10 31,40
32,20 38,20 39,369 40,129
41,1459 42,269 43,30 44,10
45,80 46,10 47,50 54,10
55,20 57,10 58,10 59,349
60,99 61,349 62,20 63,20
67,50 68,50 69,1549 70,139
71,20 74,50 75,30 76,30
77,169 78,10 79,10 82,60
83,10 85,10 86,10 87,30
90,309 91,1659 92,139 93,70
95,10 99,10 100,50 101,10
104,50 105,40 107,269 108,30
109,30 110,10 115,60 116,30
117,179 118,30 119,20 120,119
121,9999 122,879 123,429 124,20
125,10 129,10 130,209 131,179
132,50 133,20 134,20 135,20
137,10 139,10 144,70 145,50
146,30 147,349 148,80 149,80
150,10 151,30 158,10 159,10
160,20 161,60 162,369 163,60
164,20 165,10 172,20 173,20
174,309 175,2049 176,299 177,279
178,30 179,10 183,10 184,70
185,30 186,20 187,20 188,60
189,20 190,10 191,40 201,149
202,20 203,10 205,20 207,50
215,30 216,1259 217,239 218,99
219,30 233,30
##END=
