##TITLE=Cyclopentane, 1,3-dimethyl-, cis-
##JCAMP-DX=4.24
##DATA TYPE=MASS SPECTRUM
##ORIGIN=NIST Mass Spectrometry Data Center, 1990.
##OWNER=NIST Mass Spectrometry Data Center
Collection (C) 2014 copyright by the U.S. Secretary of Commerce
on behalf of the United States of America. All rights reserved.
##CAS REGISTRY NO=2532-58-3
##$NIST MASS SPEC NO=114447
##MOLFORM=C7 H14
##MW=98
##$NIST SOURCE=MSDC
##XUNITS=M/Z
##YUNITS=RELATIVE INTENSITY
##XFACTOR=1
##YFACTOR=1
##FIRSTX=14
##LASTX=99
##FIRSTY=352
##MAXX=99
##MINX=14
##MAXY=9999
##MINY=94
##NPOINTS=37
##PEAK TABLE=(XY..XY)
14,352 15,573 16,166 26,328
27,2686 28,415 29,1661 32,95
37,101 39,4179 40,938 41,7304
42,2476 43,780 50,309 51,490
52,205 53,972 54,720 55,7543
56,8227 57,1202 63,130 65,274
66,94 67,538 68,356 69,2929
70,9999 71,497 77,188 79,199
81,201 83,2429 84,156 98,1259
99,105
##END=
