##TITLE=Butanoic acid, 4-(2,4,5-trichlorophenoxy)-, methyl ester
##JCAMP-DX=4.24
##DATA TYPE=MASS SPECTRUM
##ORIGIN=J. SHAW, BORRISTON RESEARCH, ROCKVILLE, MD, USA
##OWNER=NIST Mass Spectrometry Data Center
Collection (C) 2014 copyright by the U.S. Secretary of Commerce
on behalf of the United States of America. All rights reserved.
##CAS REGISTRY NO=25333-21-5
##$NIST MASS SPEC NO=60281
##MOLFORM=C11 H11 Cl3 O3
##MW=296
##$NIST SOURCE=MSDC
##XUNITS=M/Z
##YUNITS=RELATIVE INTENSITY
##XFACTOR=1
##YFACTOR=1
##FIRSTX=12
##LASTX=300
##FIRSTY=30
##MAXX=300
##MINX=12
##MAXY=9999
##MINY=10
##NPOINTS=168
##PEAK TABLE=(XY..XY)
12,30 13,30 15,9499 16,250
17,1271 18,4034 19,30 26,250
27,1321 28,790 29,2682 30,250
31,480 32,30 33,40 35,70
36,140 37,140 38,200 39,1741
40,440 41,4704 42,2212 43,580
44,70 45,580 46,10 47,40
48,10 49,70 50,120 51,70
52,10 53,120 55,310 56,60
57,120 59,9999 60,430 61,320
62,530 63,200 64,10 65,20
66,10 67,10 69,2472 70,130
71,160 72,180 73,390 74,590
75,190 76,20 77,30 81,10
82,20 83,170 84,120 85,190
86,50 87,70 88,10 89,30
90,10 91,10 94,10 95,20
96,140 97,880 98,120 99,350
101,9449 102,620 103,70 104,30
105,30 107,270 108,140 109,440
110,80 111,190 112,30 113,30
115,10 117,30 118,120 119,90
120,50 123,20 124,10 125,30
126,20 127,10 131,60 132,210
133,240 134,150 135,130 136,40
137,30 138,10 139,10 141,10
143,180 144,120 145,230 146,130
147,110 148,50 149,40 150,10
159,30 160,50 161,70 162,70
163,50 164,40 165,60 167,450
168,40 169,390 170,30 171,130
172,10 173,30 174,10 175,70
176,10 177,40 178,10 179,140
180,20 181,140 182,10 183,50
185,10 187,10 195,140 196,660
197,160 198,630 199,180 200,210
201,50 202,50 204,10 207,10
209,70 210,10 211,60 212,10
213,20 223,20 225,20 234,40
235,40 236,30 237,30 238,10
265,150 266,10 267,140 268,10
269,40 296,40 298,40 300,10
##END=
