##TITLE=Benzenebutanoic acid, .gamma.-oxo-, methyl ester
##JCAMP-DX=4.24
##DATA TYPE=MASS SPECTRUM
##ORIGIN=Japan AIST/NIMC Database- Spectrum MS-IW-4774
##OWNER=NIST Mass Spectrometry Data Center
Collection (C) 2014 copyright by the U.S. Secretary of Commerce
on behalf of the United States of America. All rights reserved.
##CAS REGISTRY NO=25333-24-8
##$NIST MASS SPEC NO=237320
##MOLFORM=C11 H12 O3
##MW=192
##$NIST SOURCE=MSDC
##XUNITS=M/Z
##YUNITS=RELATIVE INTENSITY
##XFACTOR=1
##YFACTOR=1
##FIRSTX=15
##LASTX=194
##FIRSTY=119
##MAXX=194
##MINX=15
##MAXY=9999
##MINY=10
##NPOINTS=76
##PEAK TABLE=(XY..XY)
15,119 26,20 27,149 28,20
29,50 30,10 31,70 38,20
39,70 41,10 42,10 43,10
44,10 45,20 50,219 51,809
52,60 53,20 54,10 55,269
56,20 57,10 58,10 59,119
62,20 63,50 64,10 65,40
66,10 68,30 74,60 75,60
76,139 77,3239 78,259 79,20
80,20 82,20 87,99 88,20
89,20 91,60 102,30 103,70
104,70 105,9999 106,789 107,50
113,20 114,90 115,239 116,60
117,50 119,10 120,10 121,10
131,109 132,90 133,239 134,20
142,70 143,10 144,40 159,10
160,289 161,1449 162,169 163,10
164,10 165,10 167,10 174,119
175,10 192,629 193,99 194,10
##END=
