##TITLE=Acetamide, N-(p-hydroxy-.alpha.-methylphenethyl)-, acetate (ester)
##JCAMP-DX=4.24
##DATA TYPE=MASS SPECTRUM
##ORIGIN=Dr. Jiri Zamecnik, DCIEM, North York, Canada, GP Library
##OWNER=NIST Mass Spectrometry Data Center
Collection (C) 2014 copyright by the U.S. Secretary of Commerce
on behalf of the United States of America. All rights reserved.
##CAS REGISTRY NO=25333-55-5
##$NIST MASS SPEC NO=123023
##MOLFORM=C13 H17 N O3
##MW=235
##$NIST SOURCE=MSDC
##XUNITS=M/Z
##YUNITS=RELATIVE INTENSITY
##XFACTOR=1
##YFACTOR=1
##FIRSTX=41
##LASTX=236
##FIRSTY=560
##MAXX=236
##MINX=41
##MAXY=9999
##MINY=20
##NPOINTS=27
##PEAK TABLE=(XY..XY)
41,560 43,2270 44,9999 57,70
77,590 78,170 86,1630 90,140
91,190 105,100 107,2820 108,610
115,50 117,40 119,40 133,760
134,2410 135,220 147,30 149,440
150,190 176,8300 177,920 178,60
192,20 235,320 236,50
##END=
