##TITLE=Pentane, 3-bromo-3-methyl-
##JCAMP-DX=4.24
##DATA TYPE=MASS SPECTRUM
##ORIGIN=RADIAN CORP
##OWNER=NIST Mass Spectrometry Data Center
Collection (C) 2014 copyright by the U.S. Secretary of Commerce
on behalf of the United States of America. All rights reserved.
##CAS REGISTRY NO=25346-31-0
##$NIST MASS SPEC NO=76319
##MOLFORM=C6 H13 Br
##MW=164
##$NIST SOURCE=MSDC
##XUNITS=M/Z
##YUNITS=RELATIVE INTENSITY
##XFACTOR=1
##YFACTOR=1
##FIRSTX=15
##LASTX=137
##FIRSTY=30
##MAXX=137
##MINX=15
##MAXY=9999
##MINY=10
##NPOINTS=47
##PEAK TABLE=(XY..XY)
15,30 26,90 27,1030 28,230
29,1050 30,20 37,30 38,110
39,1470 40,230 41,3670 42,310
43,9999 44,360 50,170 51,240
52,110 53,600 54,140 55,2150
56,410 57,1730 58,80 62,20
63,10 65,80 66,20 67,170
68,30 69,830 70,60 77,10
79,100 80,110 81,90 82,110
83,50 84,130 85,8580 86,550
95,20 107,130 109,120 134,20
135,150 136,30 137,150
##END=
