##TITLE=exo-2-Bromonorbornane
##JCAMP-DX=4.24
##DATA TYPE=MASS SPECTRUM
##ORIGIN=Chuck Anderson, Aldrich Chemical Co.
##OWNER=NIST Mass Spectrometry Data Center
Collection (C) 2014 copyright by the U.S. Secretary of Commerce
on behalf of the United States of America. All rights reserved.
##CAS REGISTRY NO=2534-77-2
##$NIST MASS SPEC NO=107645
##MOLFORM=C7 H11 Br
##MW=174
##$NIST SOURCE=MSDC
##XUNITS=M/Z
##YUNITS=RELATIVE INTENSITY
##XFACTOR=1
##YFACTOR=1
##FIRSTX=14
##LASTX=176
##FIRSTY=2
##MAXX=176
##MINX=14
##MAXY=9999
##MINY=2
##NPOINTS=90
##PEAK TABLE=(XY..XY)
14,2 15,25 25,6 26,112
27,922 28,184 29,206 30,5
31,9 32,3 33,2 36,7
37,61 38,213 39,1889 40,362
41,1435 42,75 43,26 44,4
45,116 46,97 49,15 50,156
51,329 52,169 53,662 54,498
55,580 56,26 57,5 60,2
61,25 62,64 63,126 64,27
65,565 66,729 67,3065 68,457
69,22 72,3 73,7 74,12
77,442 78,97 79,528 80,135
81,65 82,13 83,6 85,4
86,6 87,3 89,13 90,3
91,256 92,25 93,610 94,79
95,9999 96,684 97,26 104,2
105,10 106,17 107,14 108,17
109,6 117,7 119,30 120,3
121,22 122,3 130,3 131,2
132,34 133,16 134,32 135,14
136,3 138,3 139,3 144,2
145,7 146,5 147,6 148,2
174,7 176,6
##END=
