##TITLE=2-Acetyl-1,4,5,6-tetrahydropyridine
##JCAMP-DX=4.24
##DATA TYPE=MASS SPECTRUM
##ORIGIN=T.Hofmann ET AL.JAFC, 46,2721(1998)
##OWNER=NIST Mass Spectrometry Data Center
Collection (C) 2014 copyright by the U.S. Secretary of Commerce
on behalf of the United States of America. All rights reserved.
##CAS REGISTRY NO=25343-57-1
##$NIST MASS SPEC NO=281179
##MOLFORM=C7 H11 N O
##MW=125
##$NIST SOURCE=MSDC
##XUNITS=M/Z
##YUNITS=RELATIVE INTENSITY
##XFACTOR=1
##YFACTOR=1
##FIRSTX=39
##LASTX=127
##FIRSTY=440
##MAXX=127
##MINX=39
##MAXY=9999
##MINY=40
##NPOINTS=27
##PEAK TABLE=(XY..XY)
39,440 41,540 42,340 43,3493
44,40 52,360 53,651 54,5185
55,1972 56,260 65,160 67,450
68,550 70,60 79,160 80,961
81,360 82,9999 83,671 85,40
96,270 110,681 111,70 124,2202
125,9629 126,500 127,80
##END=
