##TITLE=4-Methylthiomorpholine-1,1-dioxide
##JCAMP-DX=4.24
##DATA TYPE=MASS SPECTRUM
##ORIGIN=NIST Mass Spectrometry Data Center, 1994
##OWNER=NIST Mass Spectrometry Data Center
Collection (C) 2014 copyright by the U.S. Secretary of Commerce
on behalf of the United States of America. All rights reserved.
##CAS REGISTRY NO=25343-91-3
##$NIST MASS SPEC NO=136085
##MOLFORM=C5 H11 N O2 S
##MW=149
##$NIST SOURCE=MSDC
##XUNITS=M/Z
##YUNITS=RELATIVE INTENSITY
##XFACTOR=1
##YFACTOR=1
##FIRSTX=13
##LASTX=151
##FIRSTY=22
##MAXX=151
##MINX=13
##MAXY=9999
##MINY=11
##NPOINTS=61
##PEAK TABLE=(XY..XY)
13,22 14,84 15,1613 16,22
17,20 18,80 26,685 27,1953
28,3430 29,769 30,737 32,11
33,33 34,25 38,26 39,209
40,264 41,868 42,9999 43,5575
44,359 45,90 46,67 47,56
48,370 49,75 50,53 51,39
52,100 53,68 54,842 55,657
56,1271 57,1207 58,192 60,20
63,28 64,184 65,199 66,38
67,80 68,157 69,156 70,1394
71,1169 72,97 77,38 79,25
82,2276 83,3758 84,608 85,84
86,44 88,52 107,28 120,96
132,52 148,219 149,1060 150,88
151,54
##END=
