##TITLE=Diethyl cyanomethylphosphonate
##JCAMP-DX=4.24
##DATA TYPE=MASS SPECTRUM
##ORIGIN=NIST Mass Spectrometry Data Center, 1990.
##OWNER=NIST Mass Spectrometry Data Center
Collection (C) 2014 copyright by the U.S. Secretary of Commerce
on behalf of the United States of America. All rights reserved.
##CAS REGISTRY NO=2537-48-6
##$NIST MASS SPEC NO=118345
##MOLFORM=C6 H12 N O3 P
##MW=177
##$NIST SOURCE=MSDC
##XUNITS=M/Z
##YUNITS=RELATIVE INTENSITY
##XFACTOR=1
##YFACTOR=1
##FIRSTX=14
##LASTX=162
##FIRSTY=152
##MAXX=162
##MINX=14
##MAXY=9999
##MINY=18
##NPOINTS=70
##PEAK TABLE=(XY..XY)
14,152 15,389 16,69 18,18
19,80 26,532 27,2866 28,1099
29,3991 30,159 31,516 32,52
39,142 40,772 41,3331 42,719
43,969 44,260 45,1981 46,52
47,1749 48,270 49,110 54,487
55,104 56,82 57,53 63,117
65,1706 67,68 68,236 69,285
74,249 77,561 78,155 79,138
80,68 81,5437 82,97 83,67
85,125 87,119 91,3043 92,127
93,864 95,50 96,636 97,791
103,522 104,5335 105,199 106,94
109,9999 110,217 111,58 121,1248
122,6262 123,312 124,147 125,62
132,545 134,1734 135,87 137,3018
138,180 148,868 149,535 150,2745
151,144 162,255
##END=
