##TITLE=1-(2-Trifluoromethylphenyl)imidazole
##JCAMP-DX=4.24
##DATA TYPE=MASS SPECTRUM
##ORIGIN=Tox21 Consortium/NIST Mass Spectrometry Data Center, 2012
##OWNER=NIST Mass Spectrometry Data Center
Collection (C) 2014 copyright by the U.S. Secretary of Commerce
on behalf of the United States of America. All rights reserved.
##CAS REGISTRY NO=25371-96-4
##$NIST MASS SPEC NO=408714
##MOLFORM=C10 H7 F3 N2
##MW=212
##$NIST SOURCE=MSDC
##XUNITS=M/Z
##YUNITS=RELATIVE INTENSITY
##XFACTOR=1
##YFACTOR=1
##FIRSTX=14
##LASTX=214
##FIRSTY=10
##MAXX=214
##MINX=14
##MAXY=9999
##MINY=10
##NPOINTS=155
##PEAK TABLE=(XY..XY)
14,10 25,10 26,210 27,90
28,200 31,50 33,30 37,100
38,250 39,440 40,500 41,601
42,20 44,10 45,30 46,10
49,40 50,661 51,530 52,390
53,90 54,10 55,10 56,50
57,360 58,20 59,40 60,60
61,130 62,310 63,671 64,270
65,80 66,80 68,100 69,771
70,70 71,10 72,10 73,60
74,410 75,1692 76,460 77,140
78,50 79,60 80,50 81,250
82,100 83,310 84,20 85,30
86,60 87,210 88,420 89,480
90,170 91,30 92,40 93,120
94,190 95,2042 96,190 98,10
99,430 100,170 101,120 102,110
103,140 104,20 105,30 106,100
107,390 108,250 109,100 110,10
111,20 112,100 113,250 114,430
115,220 116,1041 117,130 118,90
119,470 120,120 121,80 122,20
123,30 124,40 125,1391 126,831
127,480 128,50 129,10 130,10
131,50 132,170 133,70 134,761
135,661 136,70 137,190 138,641
139,300 140,170 141,70 142,290
143,500 144,320 145,4414 146,601
147,450 148,60 149,10 150,10
151,30 152,410 153,60 154,160
155,20 156,30 157,170 158,2692
159,260 160,20 161,20 162,20
163,30 164,270 165,2522 166,1451
167,160 168,10 170,30 171,60
172,621 173,1401 174,140 175,10
177,10 182,10 183,30 184,510
185,4164 186,430 187,20 191,721
192,160 193,500 194,50 210,10
212,9999 213,1131 214,70
##END=
