##TITLE=1-(4-Trifluoromethylphenyl)imidazole
##JCAMP-DX=4.24
##DATA TYPE=MASS SPECTRUM
##ORIGIN=NIST Mass Spectrometry Data Center, 1994
##OWNER=NIST Mass Spectrometry Data Center
Collection (C) 2014 copyright by the U.S. Secretary of Commerce
on behalf of the United States of America. All rights reserved.
##CAS REGISTRY NO=25371-98-6
##$NIST MASS SPEC NO=134766
##MOLFORM=C10 H7 F3 N2
##MW=212
##$NIST SOURCE=MSDC
##XUNITS=M/Z
##YUNITS=RELATIVE INTENSITY
##XFACTOR=1
##YFACTOR=1
##FIRSTX=13
##LASTX=214
##FIRSTY=53
##MAXX=214
##MINX=13
##MAXY=9999
##MINY=47
##NPOINTS=109
##PEAK TABLE=(XY..XY)
13,53 14,77 26,1041 27,356
28,1250 31,246 33,51 37,314
38,780 39,1030 40,1348 41,1554
42,90 44,47 45,53 49,142
50,1665 51,1132 52,835 53,179
56,122 57,872 61,274 62,768
63,1446 64,519 65,146 66,153
67,122 68,442 69,1404 70,114
73,128 74,749 75,2839 76,745
77,159 79,65 80,91 81,361
82,162 83,531 85,56 86,74
87,343 88,543 89,880 90,183
92,62 93,148 94,228 95,2735
96,333 99,482 100,221 101,99
102,109 105,58 106,152 107,475
108,432 109,120 112,108 113,303
114,265 115,197 116,1235 117,190
118,101 119,536 120,75 121,56
123,59 125,1586 126,583 127,103
132,260 133,99 134,440 135,889
136,92 137,213 138,465 139,278
140,102 141,92 142,353 143,432
144,92 145,4524 146,443 152,124
158,3917 159,396 164,173 165,558
166,832 167,81 172,463 173,82
184,696 185,6356 186,690 191,516
193,1244 194,162 212,9999 213,1242
214,77
##END=
