##TITLE=1H-Pyrazole, 4,5-dihydro-1,3-diphenyl-
##JCAMP-DX=4.24
##DATA TYPE=MASS SPECTRUM
##ORIGIN=Japan AIST/NIMC Database- Spectrum MS-NW-9846
##OWNER=NIST Mass Spectrometry Data Center
Collection (C) 2014 copyright by the U.S. Secretary of Commerce
on behalf of the United States of America. All rights reserved.
##CAS REGISTRY NO=2538-52-5
##$NIST MASS SPEC NO=239838
##MOLFORM=C15 H14 N2
##MW=222
##$NIST SOURCE=MSDC
##XUNITS=M/Z
##YUNITS=RELATIVE INTENSITY
##XFACTOR=1
##YFACTOR=1
##FIRSTX=27
##LASTX=224
##FIRSTY=40
##MAXX=224
##MINX=27
##MAXY=9999
##MINY=10
##NPOINTS=80
##PEAK TABLE=(XY..XY)
27,40 28,70 38,30 39,139
40,20 41,90 42,20 50,80
51,469 52,80 62,20 63,169
64,479 65,209 66,40 74,40
75,30 76,90 77,1919 78,169
79,10 88,10 89,119 90,159
91,2259 92,199 93,40 95,10
96,10 102,20 103,169 104,799
105,329 106,50 107,10 109,10
110,70 111,739 112,10 115,349
116,179 117,1029 118,739 119,139
120,10 128,10 130,20 131,159
132,10 143,20 144,10 145,20
151,10 152,20 154,10 165,80
166,40 167,80 168,10 177,20
178,40 179,20 180,30 182,20
190,10 191,20 192,119 193,319
194,419 195,60 204,30 205,20
206,20 218,50 219,549 220,919
221,3699 222,9999 223,1679 224,129
##END=
