##TITLE=Dispiro[2.1.2.1]octane
##JCAMP-DX=4.24
##DATA TYPE=MASS SPECTRUM
##ORIGIN=D.HENNEBERG, MAX-PLANCK INSTITUTE, MULHEIM, WEST GERMANY
##OWNER=NIST Mass Spectrometry Data Center
Collection (C) 2014 copyright by the U.S. Secretary of Commerce
on behalf of the United States of America. All rights reserved.
##CAS REGISTRY NO=25399-32-0
##$NIST MASS SPEC NO=61511
##MOLFORM=C8 H12
##MW=108
##$NIST SOURCE=MSDC
##XUNITS=M/Z
##YUNITS=RELATIVE INTENSITY
##XFACTOR=1
##YFACTOR=1
##FIRSTX=27
##LASTX=109
##FIRSTY=1942
##MAXX=109
##MINX=27
##MAXY=9999
##MINY=5
##NPOINTS=55
##PEAK TABLE=(XY..XY)
27,1942 28,777 29,605 30,11
32,92 34,12 37,21 38,99
39,3533 40,1152 41,2611 42,227
43,103 44,18 49,13 50,219
51,784 52,1127 53,2011 54,1515
55,412 56,112 57,55 62,9
63,128 64,58 65,1401 66,740
67,2096 68,341 69,86 70,26
71,12 75,5 76,21 77,5354
78,980 79,9999 80,7543 81,651
82,113 83,123 84,23 89,36
91,3650 92,310 93,4890 94,333
95,65 103,31 105,184 106,31
107,368 108,222 109,64
##END=
