##TITLE=Cyclohexene,1-propyl-
##JCAMP-DX=4.24
##DATA TYPE=MASS SPECTRUM
##ORIGIN=S.A. Rang et al., IR & MS of Unsatd. Hydrocarbons, 1977
##OWNER=NIST Mass Spectrometry Data Center
Collection (C) 2014 copyright by the U.S. Secretary of Commerce
on behalf of the United States of America. All rights reserved.
##CAS REGISTRY NO=2539-75-5
##$NIST MASS SPEC NO=142689
##MOLFORM=C9 H16
##MW=124
##$NIST SOURCE=MSDC
##XUNITS=M/Z
##YUNITS=RELATIVE INTENSITY
##XFACTOR=1
##YFACTOR=1
##FIRSTX=15
##LASTX=126
##FIRSTY=32
##MAXX=126
##MINX=15
##MAXY=9999
##MINY=4
##NPOINTS=75
##PEAK TABLE=(XY..XY)
15,32 16,4 25,8 26,61
27,1230 28,51 29,750 30,14
37,11 38,42 39,1355 40,223
41,2496 42,191 43,175 45,9
46,5 50,72 51,357 52,178
53,993 54,942 55,1640 56,96
57,42 58,11 59,4 62,15
63,79 64,25 65,407 66,255
67,4762 68,1283 69,223 70,42
71,6 73,5 74,7 75,20
76,13 77,840 78,167 79,1355
80,570 81,9999 82,4286 83,382
84,22 85,4 89,17 90,8
91,306 92,54 93,306 94,104
95,2923 96,713 97,46 98,4
99,4 105,22 106,6 107,27
108,8 109,306 110,29 111,4
120,4 121,8 122,13 123,37
124,2340 125,210 126,10
##END=
