##TITLE=1,5-Naphthyridine
##JCAMP-DX=4.24
##DATA TYPE=MASS SPECTRUM
##ORIGIN=Japan AIST/NIMC Database- Spectrum MS-IW-3467
##OWNER=NIST Mass Spectrometry Data Center
Collection (C) 2014 copyright by the U.S. Secretary of Commerce
on behalf of the United States of America. All rights reserved.
##CAS REGISTRY NO=254-79-5
##$NIST MASS SPEC NO=231768
##MOLFORM=C8 H6 N2
##MW=130
##$NIST SOURCE=MSDC
##XUNITS=M/Z
##YUNITS=RELATIVE INTENSITY
##XFACTOR=1
##YFACTOR=1
##FIRSTX=25
##LASTX=132
##FIRSTY=10
##MAXX=132
##MINX=25
##MAXY=9999
##MINY=10
##NPOINTS=51
##PEAK TABLE=(XY..XY)
25,10 26,129 27,60 28,189
36,10 37,249 38,499 39,1049
40,109 41,10 48,20 49,119
50,929 51,629 52,499 53,80
54,10 61,30 62,70 63,189
64,299 65,769 66,70 73,30
74,209 75,609 76,1489 77,689
78,129 79,1259 80,80 87,10
88,10 89,10 90,30 91,10
92,10 99,30 100,30 101,40
102,429 103,1709 104,1859 105,139
115,40 126,10 127,40 129,2379
130,9999 131,989 132,40
##END=
