##TITLE=n-Butyric acid 2-ethylhexyl ester
##JCAMP-DX=4.24
##DATA TYPE=MASS SPECTRUM
##ORIGIN=Japan AIST/NIMC Database- Spectrum MS-IW-5638
##OWNER=NIST Mass Spectrometry Data Center
Collection (C) 2014 copyright by the U.S. Secretary of Commerce
on behalf of the United States of America. All rights reserved.
##CAS REGISTRY NO=25415-84-3
##$NIST MASS SPEC NO=232050
##MOLFORM=C12 H24 O2
##MW=200
##$NIST SOURCE=MSDC
##XUNITS=M/Z
##YUNITS=RELATIVE INTENSITY
##XFACTOR=1
##YFACTOR=1
##FIRSTX=15
##LASTX=201
##FIRSTY=30
##MAXX=201
##MINX=15
##MAXY=9999
##MINY=10
##NPOINTS=78
##PEAK TABLE=(XY..XY)
15,30 26,50 27,879 28,129
29,859 30,20 31,50 36,10
37,20 38,40 39,569 40,119
41,2629 42,999 43,4539 44,169
45,50 50,20 51,40 52,20
53,169 54,159 55,3409 56,1889
57,3049 58,139 59,40 60,269
61,30 63,10 65,30 66,10
67,169 68,189 69,1289 70,8629
71,9999 72,579 73,169 74,199
77,20 79,30 81,60 82,369
83,2299 84,1239 85,99 86,70
87,519 88,379 89,1439 90,70
91,10 95,20 96,10 97,189
98,139 99,189 100,60 101,449
102,389 103,99 110,40 111,219
112,2459 113,389 114,639 115,50
127,109 128,40 129,40 139,40
143,30 153,10 157,60 171,10
200,10 201,10
##END=
