##TITLE=Naphthalene, 1,2,3,4-tetrahydro-1,8-dimethyl-
##JCAMP-DX=4.24
##DATA TYPE=MASS SPECTRUM
##ORIGIN=CONTINENTAL OIL CO., PONCA CITY, OKLA., USA
##OWNER=NIST Mass Spectrometry Data Center
Collection (C) 2014 copyright by the U.S. Secretary of Commerce
on behalf of the United States of America. All rights reserved.
##CAS REGISTRY NO=25419-33-4
##$NIST MASS SPEC NO=39302
##MOLFORM=C12 H16
##MW=160
##$NIST SOURCE=MSDC
##XUNITS=M/Z
##YUNITS=RELATIVE INTENSITY
##XFACTOR=1
##YFACTOR=1
##FIRSTX=13
##LASTX=162
##FIRSTY=75
##MAXX=162
##MINX=13
##MAXY=9999
##MINY=5
##NPOINTS=119
##PEAK TABLE=(XY..XY)
13,75 14,150 15,594 16,16
25,5 26,79 27,611 28,214
29,198 30,8 37,22 38,86
39,841 40,90 41,360 42,28
43,31 44,5 49,10 50,204
51,601 52,159 53,327 54,25
55,50 56,18 57,55 58,79
61,26 62,122 63,478 64,394
65,517 66,57 67,96 68,23
69,58 70,148 71,377 72,19
74,94 75,146 76,177 77,679
78,261 79,274 80,28 81,25
82,18 83,12 84,14 85,15
86,38 87,67 88,38 89,187
90,49 91,616 92,72 93,27
94,16 95,39 96,6 98,17
99,16 100,11 101,45 102,157
103,209 104,99 105,620 106,65
107,12 108,11 109,11 110,13
111,12 113,40 114,48 115,1216
116,386 117,694 118,435 119,104
120,21 121,17 125,24 126,56
127,333 128,1048 129,850 130,809
131,315 132,212 133,41 134,10
139,59 140,30 141,216 142,110
143,232 144,186 145,9999 146,1231
147,74 148,7 150,7 151,11
152,23 153,16 154,7 155,11
156,8 157,12 158,13 159,75
160,1952 161,263 162,15
##END=
