##TITLE=1-Pentanamine, N-methyl-
##JCAMP-DX=4.24
##DATA TYPE=MASS SPECTRUM
##OWNER=NIST Mass Spectrometry Data Center
Collection (C) 2014 copyright by the U.S. Secretary of Commerce
on behalf of the United States of America. All rights reserved.
##CAS REGISTRY NO=25419-06-1
##$NIST MASS SPEC NO=1139
##MOLFORM=C6 H15 N
##MW=101
##$NIST SOURCE=MSDC
##XUNITS=M/Z
##YUNITS=RELATIVE INTENSITY
##XFACTOR=1
##YFACTOR=1
##FIRSTX=15
##LASTX=101
##FIRSTY=90
##MAXX=101
##MINX=15
##MAXY=9999
##MINY=10
##NPOINTS=29
##PEAK TABLE=(XY..XY)
15,90 27,300 28,400 29,200
30,600 31,100 41,400 42,400
43,400 44,9999 45,300 46,10
55,70 56,100 57,100 58,700
59,50 69,30 70,200 71,50
72,100 73,20 84,20 86,100
87,70 98,20 99,40 100,100
101,900
##END=
