##TITLE=1,4,7,10-Tetrathiacyclododecane
##JCAMP-DX=4.24
##DATA TYPE=MASS SPECTRUM
##ORIGIN=R.C. DOUGHERTY
##OWNER=NIST Mass Spectrometry Data Center
Collection (C) 2014 copyright by the U.S. Secretary of Commerce
on behalf of the United States of America. All rights reserved.
##CAS REGISTRY NO=25423-56-7
##$NIST MASS SPEC NO=37237
##MOLFORM=C8 H16 S4
##MW=240
##$NIST SOURCE=MSDC
##XUNITS=M/Z
##YUNITS=RELATIVE INTENSITY
##XFACTOR=1
##YFACTOR=1
##FIRSTX=24
##LASTX=242
##FIRSTY=300
##MAXX=242
##MINX=24
##MAXY=9999
##MINY=100
##NPOINTS=122
##PEAK TABLE=(XY..XY)
24,300 25,1001 26,4804 27,6706
28,2508 29,4004 30,150 31,400
32,110 33,1201 34,3403 35,751
36,350 37,250 38,400 39,3203
40,550 41,6506 42,6706 43,8608
44,1301 45,7206 46,4004 47,2202
48,250 49,150 50,450 51,450
52,200 53,851 54,300 55,2702
56,2002 57,5405 58,2602 59,7507
60,8508 61,9909 62,851 63,801
64,4304 65,200 66,350 67,550
68,200 69,901 70,851 71,2903
72,701 73,1902 74,1501 75,751
76,701 77,400 78,2402 79,300
80,250 81,500 82,350 83,751
84,300 85,1501 86,9609 87,8608
88,951 89,450 90,250 91,1401
92,6206 93,1251 94,1051 95,500
96,200 97,550 98,150 99,100
105,4304 106,3603 107,1902 108,400
109,250 110,150 111,300 112,150
113,100 115,100 118,1702 119,2803
120,6806 121,5705 122,1001 123,500
124,801 125,601 126,100 127,150
128,300 131,100 133,350 135,150
137,100 146,100 147,651 148,150
149,200 151,100 152,350 153,1201
154,1301 155,300 156,200 164,300
165,250 178,300 179,500 180,2102
181,350 182,250 207,450 240,9999
241,1301 242,1902
##END=
