##TITLE=4-Chlorobenzoic acid, TMS derivative
##JCAMP-DX=4.24
##DATA TYPE=MASS SPECTRUM
##ORIGIN=NIST Mass Spectrometry Data Center
##OWNER=NIST Mass Spectrometry Data Center
Collection (C) 2014 copyright by the U.S. Secretary of Commerce
on behalf of the United States of America. All rights reserved.
##CAS REGISTRY NO=25436-27-5
##$NIST MASS SPEC NO=333984
##MOLFORM=C10 H13 Cl O2 Si
##MW=228
##$NIST SOURCE=MSDC
##XUNITS=M/Z
##YUNITS=RELATIVE INTENSITY
##XFACTOR=1
##YFACTOR=1
##FIRSTX=15
##LASTX=232
##FIRSTY=30
##MAXX=232
##MINX=15
##MAXY=9999
##MINY=10
##NPOINTS=144
##PEAK TABLE=(XY..XY)
15,30 26,10 27,30 28,20
29,50 30,10 31,20 37,10
38,30 39,30 41,10 42,50
43,310 44,90 45,821 46,60
47,200 48,10 49,30 50,520
51,230 52,20 53,90 54,10
55,60 56,20 57,50 58,80
59,250 60,60 61,110 62,40
63,140 64,20 65,60 66,20
67,20 69,10 70,20 71,20
72,110 73,601 74,550 75,2302
76,711 77,120 78,20 79,30
81,10 83,20 84,60 85,210
86,30 87,70 88,10 89,70
90,30 91,110 92,20 93,70
94,10 95,40 96,10 97,10
99,20 101,20 102,10 103,90
104,350 105,70 106,440 107,170
109,40 110,190 111,5135 112,410
113,1722 114,110 115,10 117,20
118,10 119,50 120,20 121,20
123,10 125,20 126,10 127,10
129,10 131,10 132,10 133,20
134,130 135,180 136,30 137,20
139,8468 140,691 141,2873 142,220
143,20 147,10 148,10 149,30
150,60 151,10 152,10 153,50
154,10 155,110 156,20 157,40
158,10 163,10 167,10 169,6676
170,961 171,2462 172,330 173,90
174,10 178,190 179,40 180,10
183,10 184,10 185,10 193,30
194,10 197,20 199,10 210,10
213,9999 214,1631 215,3853 216,550
217,160 218,10 227,80 228,681
229,140 230,250 231,40 232,10
##END=
