##TITLE=Aspirin, TMS derivative
##JCAMP-DX=4.24
##DATA TYPE=MASS SPECTRUM
##ORIGIN=John Halket,Royal Holloway, University of London, UK
##OWNER=NIST Mass Spectrometry Data Center
Collection (C) 2014 copyright by the U.S. Secretary of Commerce
on behalf of the United States of America. All rights reserved.
##CAS REGISTRY NO=25436-28-6
##$NIST MASS SPEC NO=331786
##MOLFORM=C12 H16 O4 Si
##MW=252
##$NIST SOURCE=MSDC
##XUNITS=M/Z
##YUNITS=RELATIVE INTENSITY
##XFACTOR=1
##YFACTOR=1
##FIRSTX=14
##LASTX=252
##FIRSTY=20
##MAXX=252
##MINX=14
##MAXY=9999
##MINY=10
##NPOINTS=125
##PEAK TABLE=(XY..XY)
14,20 15,130 26,10 27,20
28,10 29,50 31,20 37,20
38,80 39,180 40,10 41,20
43,2702 44,140 45,581 46,40
47,250 48,10 49,10 50,70
51,50 52,20 53,100 54,10
55,50 56,10 57,30 58,50
59,110 60,40 61,180 62,90
63,450 64,500 65,510 66,60
67,20 68,10 69,30 70,20
71,20 72,40 73,731 74,130
75,1121 76,160 77,230 78,30
79,40 80,10 81,20 83,40
85,90 86,10 87,10 89,90
90,90 91,721 92,1211 93,370
94,30 95,40 96,10 97,10
101,10 103,20 104,10 105,80
106,20 107,40 108,20 109,10
115,20 117,40 118,40 120,4094
121,1231 122,110 123,30 131,20
133,50 135,2232 136,360 137,160
138,20 145,10 147,30 148,30
149,90 150,40 151,681 152,100
153,350 154,40 155,20 159,180
160,30 161,40 162,10 163,70
164,10 165,30 166,150 167,30
168,10 175,10 177,1301 178,200
179,390 180,60 181,40 192,10
193,60 195,9999 196,1621 197,520
198,50 210,3964 211,651 212,200
213,20 237,340 238,60 239,20
252,10
##END=
