##TITLE=4-Methoxycinnamic acid, TMS derivative
##JCAMP-DX=4.24
##DATA TYPE=MASS SPECTRUM
##ORIGIN=NIST Mass Spectrometry Data Center
##OWNER=NIST Mass Spectrometry Data Center
Collection (C) 2014 copyright by the U.S. Secretary of Commerce
on behalf of the United States of America. All rights reserved.
##CAS REGISTRY NO=25436-23-1
##$NIST MASS SPEC NO=352498
##MOLFORM=C13 H18 O3 Si
##MW=250
##$NIST SOURCE=MSDC
##XUNITS=M/Z
##YUNITS=RELATIVE INTENSITY
##XFACTOR=1
##YFACTOR=1
##FIRSTX=15
##LASTX=253
##FIRSTY=60
##MAXX=253
##MINX=15
##MAXY=9999
##MINY=10
##NPOINTS=149
##PEAK TABLE=(XY..XY)
15,60 26,10 27,60 29,60
30,10 31,30 38,50 39,210
40,30 41,20 42,30 43,260
44,120 45,911 46,70 47,410
48,20 49,20 50,150 51,300
52,80 53,150 54,20 55,100
56,20 57,50 58,80 59,340
60,70 61,170 62,190 63,751
64,420 65,110 66,40 67,10
68,70 69,20 70,20 71,30
72,150 73,1321 74,290 75,1952
76,380 77,1191 78,150 79,530
80,50 82,20 83,20 85,20
86,20 87,60 88,90 89,1922
90,1411 91,240 92,490 93,50
94,20 95,10 97,10 98,20
99,50 100,10 101,270 102,651
103,741 104,110 105,110 106,20
107,50 108,70 109,20 114,10
115,130 116,150 117,901 118,1641
119,180 121,1812 122,170 123,10
127,10 128,10 129,40 130,70
131,150 132,791 133,2452 134,430
135,90 136,10 137,10 142,60
143,30 144,20 145,380 146,200
147,80 148,80 149,30 150,10
151,40 158,10 159,90 160,300
161,9999 162,1071 163,140 164,20
165,771 166,110 167,40 173,10
175,661 176,210 177,80 178,30
179,10 188,10 189,130 190,60
191,4644 192,801 193,220 194,20
203,10 204,20 205,20 206,10
207,10 209,10 219,60 220,80
221,20 222,10 231,10 233,10
235,4924 236,921 237,250 238,30
249,150 250,2853 251,550 252,160
253,20
##END=
