##TITLE=3,3-Dimethylacrylic acid, TMS derivative
##JCAMP-DX=4.24
##DATA TYPE=MASS SPECTRUM
##ORIGIN=NIST Mass Spectrometry Data Center
##OWNER=NIST Mass Spectrometry Data Center
Collection (C) 2014 copyright by the U.S. Secretary of Commerce
on behalf of the United States of America. All rights reserved.
##CAS REGISTRY NO=25436-25-3
##$NIST MASS SPEC NO=332793
##MOLFORM=C8 H16 O2 Si
##MW=172
##$NIST SOURCE=MSDC
##XUNITS=M/Z
##YUNITS=RELATIVE INTENSITY
##XFACTOR=1
##YFACTOR=1
##FIRSTX=15
##LASTX=174
##FIRSTY=50
##MAXX=174
##MINX=15
##MAXY=9999
##MINY=10
##NPOINTS=95
##PEAK TABLE=(XY..XY)
15,50 26,30 27,460 28,150
29,701 30,30 31,50 37,10
38,60 39,921 40,80 41,90
42,150 43,571 44,180 45,1641
46,110 47,941 48,40 49,40
50,70 51,140 52,80 53,651
54,631 55,1752 56,110 57,120
58,170 59,460 60,160 61,581
62,40 63,30 65,10 66,30
67,160 68,30 69,40 70,30
71,50 72,130 73,2762 74,400
75,9999 76,761 77,470 78,30
79,30 80,10 82,4454 83,3453
84,190 85,120 86,10 87,40
88,10 89,30 95,10 96,10
97,260 98,50 99,370 100,50
101,120 102,10 103,10 109,10
111,130 112,500 113,2783 114,380
115,220 116,40 117,20 127,20
128,10 129,40 138,10 139,40
140,10 141,70 142,10 143,10
144,60 145,10 146,10 156,1631
157,6116 158,851 159,240 160,20
172,1151 173,160 174,50
##END=
