##TITLE=Aceturic acid, TMS derivative
##JCAMP-DX=4.24
##DATA TYPE=MASS SPECTRUM
##ORIGIN=NIST Mass Spectrometry Data Center
##OWNER=NIST Mass Spectrometry Data Center
Collection (C) 2014 copyright by the U.S. Secretary of Commerce
on behalf of the United States of America. All rights reserved.
##CAS REGISTRY NO=25436-19-5
##$NIST MASS SPEC NO=332804
##MOLFORM=C7 H15 N O3 Si
##MW=189
##$NIST SOURCE=MSDC
##XUNITS=M/Z
##YUNITS=RELATIVE INTENSITY
##XFACTOR=1
##YFACTOR=1
##FIRSTX=15
##LASTX=176
##FIRSTY=170
##MAXX=176
##MINX=15
##MAXY=9999
##MINY=30
##NPOINTS=61
##PEAK TABLE=(XY..XY)
15,170 28,370 29,220 30,1702
31,130 42,440 43,4624 44,480
45,2122 46,150 47,831 48,50
53,60 54,90 55,370 56,1171
57,240 58,571 59,530 60,180
61,801 62,50 70,60 71,100
72,971 73,9999 74,1121 75,4234
76,320 77,190 86,320 87,290
88,310 89,90 90,30 99,120
100,140 101,310 102,440 103,110
104,2722 105,250 106,90 114,210
115,60 116,170 117,370 118,40
128,30 129,70 130,3373 131,460
132,1902 133,190 134,60 145,3493
146,490 147,160 174,3243 175,410
176,120
##END=
