##TITLE=Indan, 2-butyl-5-hexyl-
##JCAMP-DX=4.24
##DATA TYPE=MASS SPECTRUM
##ORIGIN=C.E.A., C.E.N., GRENOBLE, FRANCE
##OWNER=NIST Mass Spectrometry Data Center
Collection (C) 2014 copyright by the U.S. Secretary of Commerce
on behalf of the United States of America. All rights reserved.
##CAS REGISTRY NO=25446-32-6
##$NIST MASS SPEC NO=34640
##MOLFORM=C19 H30
##MW=258
##$NIST SOURCE=MSDC
##XUNITS=M/Z
##YUNITS=RELATIVE INTENSITY
##XFACTOR=1
##YFACTOR=1
##FIRSTX=15
##LASTX=261
##FIRSTY=10
##MAXX=261
##MINX=15
##MAXY=9999
##MINY=10
##NPOINTS=171
##PEAK TABLE=(XY..XY)
15,10 16,10 17,210 18,980
26,30 27,290 28,840 29,630
32,40 39,170 40,40 41,930
42,80 43,1630 44,160 50,10
51,40 52,10 53,90 54,10
55,420 56,380 57,260 58,10
63,30 64,10 65,70 66,10
67,110 68,10 69,90 70,10
71,30 74,10 75,10 76,10
77,150 78,70 79,120 80,10
81,80 82,110 83,170 84,10
85,90 86,10 89,30 90,10
91,720 92,80 93,40 94,10
95,70 96,10 97,30 98,10
101,10 102,40 103,100 104,300
105,550 106,90 107,20 108,10
109,40 110,10 111,10 112,10
113,30 114,10 115,890 116,360
117,1900 118,540 119,370 120,40
121,10 123,10 125,10 126,10
127,280 128,860 129,1250 130,450
131,1500 132,220 133,30 134,10
135,40 136,100 137,100 138,40
139,30 140,10 141,270 142,210
143,370 144,140 145,510 146,70
147,10 151,10 152,30 153,40
154,30 155,70 156,30 157,90
158,30 159,70 160,10 164,50
165,70 166,10 167,10 168,10
169,20 170,10 171,30 172,10
173,480 174,200 175,90 176,30
177,10 178,10 179,40 180,10
181,10 183,20 184,10 185,160
186,70 187,9999 188,1440 189,480
190,30 191,10 193,10 194,10
198,10 199,10 200,90 201,550
202,110 203,20 204,10 211,10
212,10 213,300 214,90 215,230
216,40 217,10 227,20 228,10
229,150 230,30 243,20 244,10
248,20 250,30 251,10 254,20
255,10 256,180 257,100 258,4710
259,860 260,90 261,10
##END=
