##TITLE=(2,4,5-Trichlorophenoxy)acetic acid butoxyethanol ester
##JCAMP-DX=4.24
##DATA TYPE=MASS SPECTRUM
##ORIGIN=Organic Synthesis Lab, MSU, Moscow.TRC 732
##OWNER=NIST Mass Spectrometry Data Center
Collection (C) 2014 copyright by the U.S. Secretary of Commerce
on behalf of the United States of America. All rights reserved.
##CAS REGISTRY NO=2545-59-7
##$NIST MASS SPEC NO=326290
##MOLFORM=C14 H17 Cl3 O4
##MW=354
##$NIST SOURCE=MSDC
##XUNITS=M/Z
##YUNITS=RELATIVE INTENSITY
##XFACTOR=1
##YFACTOR=1
##FIRSTX=26
##LASTX=360
##FIRSTY=42
##MAXX=360
##MINX=26
##MAXY=9999
##MINY=5
##NPOINTS=192
##PEAK TABLE=(XY..XY)
26,42 27,673 29,3905 30,122
31,245 32,337 35,16 36,145
37,17 38,49 39,259 40,50
41,3325 42,1234 43,874 44,888
45,2257 46,44 50,53 51,24
53,57 54,13 55,610 56,6261
57,9999 58,715 59,80 60,7
61,66 62,154 63,85 65,8
67,11 69,39 70,9 71,301
72,209 73,403 74,278 75,111
77,5 82,13 83,93 84,106
85,2791 86,2166 87,1295 88,51
89,112 96,40 97,349 98,24
99,141 100,933 101,425 102,22
103,602 104,29 107,121 108,123
109,418 110,56 111,163 112,21
113,41 115,24 117,32 118,6
119,14 121,7 128,14 131,27
132,84 133,64 134,51 135,39
139,16 141,21 142,11 143,364
144,290 145,1040 146,416 147,335
148,218 149,66 150,30 159,9
160,50 161,30 162,84 163,31
164,47 165,9 167,301 168,13
169,266 170,10 171,78 173,51
174,30 175,189 176,33 177,122
178,8 179,769 180,71 181,783
182,72 183,287 184,23 185,44
190,40 191,57 192,54 193,43
194,21 195,177 196,979 197,194
198,915 199,92 200,292 201,55
202,38 203,36 205,50 207,49
208,15 209,1502 210,164 211,1394
212,188 213,451 214,44 215,40
218,15 219,186 220,123 221,121
222,72 223,26 224,8 233,25
235,20 236,8 238,14 245,40
246,222 247,243 248,148 249,147
250,124 251,31 252,54 254,2487
255,230 256,2431 257,195 258,778
259,57 260,83 268,24 270,21
280,17 281,642 282,105 283,639
284,92 285,203 286,24 287,17
298,75 300,76 302,24 310,80
311,6 312,77 314,23 320,60
322,38 350,163 351,23 352,120
353,13 354,1763 355,269 356,1737
357,269 358,563 359,88 360,64
##END=
