##TITLE=cis-4a-Methyl-decahydronaphthalene
##JCAMP-DX=4.24
##DATA TYPE=MASS SPECTRUM
##ORIGIN=V.G.Zaikin, Petrochem. Synth. Inst., Moscow
##OWNER=NIST Mass Spectrometry Data Center
Collection (C) 2014 copyright by the U.S. Secretary of Commerce
on behalf of the United States of America. All rights reserved.
##CAS REGISTRY NO=2547-26-4
##$NIST MASS SPEC NO=280745
##MOLFORM=C11 H20
##MW=152
##$NIST SOURCE=MSDC
##XUNITS=M/Z
##YUNITS=RELATIVE INTENSITY
##XFACTOR=1
##YFACTOR=1
##FIRSTX=53
##LASTX=153
##FIRSTY=891
##MAXX=153
##MINX=53
##MAXY=9999
##MINY=200
##NPOINTS=30
##PEAK TABLE=(XY..XY)
53,891 54,591 55,3193 56,390
57,200 65,320 66,450 67,4284
68,1511 69,1702 77,410 79,611
80,210 81,5955 82,3023 83,1321
93,430 94,310 95,7827 96,3493
97,510 109,2712 110,1702 111,220
123,520 136,831 137,9999 138,1111
152,2292 153,300
##END=
