##TITLE=trans-4a-Methyl-decahydronaphthalene
##JCAMP-DX=4.24
##DATA TYPE=MASS SPECTRUM
##ORIGIN=V.G.Zaikin, Petrochem. Synth. Inst., Moscow
##OWNER=NIST Mass Spectrometry Data Center
Collection (C) 2014 copyright by the U.S. Secretary of Commerce
on behalf of the United States of America. All rights reserved.
##CAS REGISTRY NO=2547-27-5
##$NIST MASS SPEC NO=280744
##MOLFORM=C11 H20
##MW=152
##$NIST SOURCE=MSDC
##XUNITS=M/Z
##YUNITS=RELATIVE INTENSITY
##XFACTOR=1
##YFACTOR=1
##FIRSTX=53
##LASTX=153
##FIRSTY=991
##MAXX=153
##MINX=53
##MAXY=9999
##MINY=100
##NPOINTS=36
##PEAK TABLE=(XY..XY)
53,991 54,811 55,4194 56,561
57,210 65,310 66,510 67,5605
68,1892 69,2002 70,190 77,480
78,100 79,811 80,290 81,6406
82,3914 83,1692 84,190 93,410
94,510 95,9999 96,5525 97,711
107,120 108,210 109,4804 110,3213
111,400 123,811 124,200 136,520
137,6095 138,691 152,5815 153,821
##END=
