##TITLE=1H-3a,7-Methanoazulene, octahydro-1,4,9,9-tetramethyl-
##JCAMP-DX=4.24
##DATA TYPE=MASS SPECTRUM
##ORIGIN=R.I.REED CHEMISTRY DEPT., UNIV. OF GLASGOW
##OWNER=NIST Mass Spectrometry Data Center
Collection (C) 2014 copyright by the U.S. Secretary of Commerce
on behalf of the United States of America. All rights reserved.
##CAS REGISTRY NO=25491-20-7
##$NIST MASS SPEC NO=9378
##MOLFORM=C15 H26
##MW=206
##$NIST SOURCE=MSDC
##XUNITS=M/Z
##YUNITS=RELATIVE INTENSITY
##XFACTOR=1
##YFACTOR=1
##FIRSTX=26
##LASTX=208
##FIRSTY=118
##MAXX=208
##MINX=26
##MAXY=9999
##MINY=8
##NPOINTS=106
##PEAK TABLE=(XY..XY)
26,118 27,2546 29,4134 30,83
38,36 39,3189 40,596 41,9999
42,2210 43,1761 44,58 50,87
51,521 52,328 53,3505 54,626
55,5892 56,501 57,350 63,148
64,59 65,1542 66,575 67,4672
68,725 69,2245 70,136 71,39
77,3880 78,865 79,5169 80,817
81,3868 82,1598 83,381 84,34
89,78 90,34 91,5103 92,838
93,4409 94,846 95,2334 96,304
97,110 102,48 103,355 104,197
105,2280 106,476 107,3594 108,900
109,788 110,299 111,53 115,371
116,168 117,448 118,88 119,862
120,231 121,2190 122,820 123,524
124,79 127,52 128,128 129,146
130,60 131,208 132,52 133,365
134,108 135,809 136,173 137,68
145,82 146,36 147,180 148,64
149,361 150,144 151,46 152,11
159,13 160,13 161,148 162,64
163,572 164,131 165,34 175,20
176,12 177,64 178,16 179,10
189,60 190,11 191,598 192,88
193,10 204,93 205,42 206,254
207,45 208,8
##END=
