##TITLE=Androsta-3,5-diene, 3,17.beta.-bis(trimethylsiloxy)-
##JCAMP-DX=4.24
##DATA TYPE=MASS SPECTRUM
##ORIGIN=H. ALDERCREUTZ, UNIVERSITY OF HELSINKI, HELSINKI, FINLAND
##OWNER=NIST Mass Spectrometry Data Center
Collection (C) 2014 copyright by the U.S. Secretary of Commerce
on behalf of the United States of America. All rights reserved.
##CAS REGISTRY NO=25495-26-5
##$NIST MASS SPEC NO=54907
##MOLFORM=C25 H44 O2 Si2
##MW=432
##$NIST SOURCE=MSDC
##XUNITS=M/Z
##YUNITS=RELATIVE INTENSITY
##XFACTOR=1
##YFACTOR=1
##FIRSTX=57
##LASTX=436
##FIRSTY=70
##MAXX=436
##MINX=57
##MAXY=9999
##MINY=14
##NPOINTS=167
##PEAK TABLE=(XY..XY)
57,70 67,83 73,830 74,110
75,457 77,14 79,141 81,176
91,189 93,176 94,121 95,205
97,83 101,264 103,105 104,70
105,253 106,119 107,289 108,101
109,189 111,105 115,225 116,384
117,185 118,128 119,315 120,139
121,187 122,238 123,154 124,529
125,112 129,2331 130,450 131,443
132,145 133,494 134,229 135,198
136,207 137,108 138,105 141,94
143,459 144,247 145,287 146,395
147,842 148,399 149,260 155,183
156,88 157,178 158,147 159,194
160,136 161,163 162,253 163,83
165,70 167,79 168,119 169,300
170,103 171,205 172,165 173,145
174,397 175,145 179,110 180,83
181,262 182,269 183,227 184,150
185,459 186,145 187,172 188,72
189,77 193,229 194,258 195,388
196,1029 197,366 198,158 199,302
200,220 201,110 208,662 209,1058
210,496 211,423 212,136 213,340
214,130 215,75 219,77 221,125
222,81 223,231 224,112 225,123
226,894 227,377 228,441 229,322
230,94 231,132 232,83 233,200
234,165 235,145 236,125 237,459
238,101 239,112 241,68 242,207
243,77 246,103 247,264 248,79
251,88 252,276 253,174 255,311
256,68 260,92 268,132 269,119
270,1625 271,362 272,70 273,94
276,97 289,136 290,86 301,492
302,161 303,81 304,340 305,119
316,86 317,229 318,264 319,77
327,283 328,83 341,123 342,271
343,165 344,75 404,194 405,77
416,81 417,1042 418,443 419,174
430,185 431,706 432,9999 433,3815
434,1413 435,329 436,79
##END=
