##TITLE=Cyclohexanemethanethiol
##JCAMP-DX=4.24
##DATA TYPE=MASS SPECTRUM
##ORIGIN=STANDARD OIL CO., WHITING, IND, USA
##OWNER=NIST Mass Spectrometry Data Center
Collection (C) 2014 copyright by the U.S. Secretary of Commerce
on behalf of the United States of America. All rights reserved.
##CAS REGISTRY NO=2550-37-0
##$NIST MASS SPEC NO=34489
##MOLFORM=C7 H14 S
##MW=130
##$NIST SOURCE=MSDC
##XUNITS=M/Z
##YUNITS=RELATIVE INTENSITY
##XFACTOR=1
##YFACTOR=1
##FIRSTX=14
##LASTX=132
##FIRSTY=30
##MAXX=132
##MINX=14
##MAXY=9999
##MINY=15
##NPOINTS=73
##PEAK TABLE=(XY..XY)
14,30 15,360 26,269 27,2850
28,750 29,1570 30,45 32,45
33,150 34,105 35,105 37,30
38,165 39,2820 40,405 41,6120
42,420 43,600 44,45 45,1020
46,270 47,1330 48,105 49,120
50,135 51,270 52,135 53,930
54,1900 55,9999 56,630 57,120
58,120 59,165 60,120 61,165
62,30 63,75 64,15 65,180
66,330 67,3640 68,1590 69,240
70,15 71,90 72,15 73,120
74,75 75,30 77,165 78,45
79,195 80,60 81,3040 82,1320
83,4980 84,315 85,60 87,60
89,15 90,75 91,60 92,15
93,45 95,300 96,3400 97,1200
98,75 101,30 130,2190 131,150
132,105
##END=
