##TITLE=Silane, triethoxy-2-propenyl-
##JCAMP-DX=4.24
##DATA TYPE=MASS SPECTRUM
##ORIGIN=RADIAN CORP
##OWNER=NIST Mass Spectrometry Data Center
Collection (C) 2014 copyright by the U.S. Secretary of Commerce
on behalf of the United States of America. All rights reserved.
##CAS REGISTRY NO=2550-04-1
##$NIST MASS SPEC NO=73188
##MOLFORM=C9 H20 O3 Si
##MW=204
##$NIST SOURCE=MSDC
##XUNITS=M/Z
##YUNITS=RELATIVE INTENSITY
##XFACTOR=1
##YFACTOR=1
##FIRSTX=15
##LASTX=190
##FIRSTY=70
##MAXX=190
##MINX=15
##MAXY=9999
##MINY=10
##NPOINTS=70
##PEAK TABLE=(XY..XY)
15,70 26,80 27,740 29,1390
30,40 31,30 39,600 40,10
41,770 42,110 43,210 45,1670
46,70 47,80 55,20 59,10
61,160 62,550 63,2280 64,120
65,50 71,30 73,840 74,80
75,80 76,400 77,570 78,10
79,4700 80,300 81,170 85,240
87,260 89,450 90,150 91,1880
92,130 93,180 101,250 102,70
103,920 104,90 105,390 107,2590
108,160 109,80 113,30 115,200
117,350 118,150 119,6420 120,650
121,280 131,350 132,10 133,370
135,1540 136,120 137,20 145,580
146,30 147,200 159,530 160,60
161,230 163,9999 164,1240 165,430
189,520 190,20
##END=
