##TITLE=2-Hexanone, 3-methyl-
##JCAMP-DX=4.24
##DATA TYPE=MASS SPECTRUM
##ORIGIN=Japan AIST/NIMC Database- Spectrum MS-NW-3139
##OWNER=NIST Mass Spectrometry Data Center
Collection (C) 2014 copyright by the U.S. Secretary of Commerce
on behalf of the United States of America. All rights reserved.
##CAS REGISTRY NO=2550-21-2
##$NIST MASS SPEC NO=231729
##MOLFORM=C7 H14 O
##MW=114
##$NIST SOURCE=MSDC
##XUNITS=M/Z
##YUNITS=RELATIVE INTENSITY
##XFACTOR=1
##YFACTOR=1
##FIRSTX=14
##LASTX=115
##FIRSTY=30
##MAXX=115
##MINX=14
##MAXY=9999
##MINY=10
##NPOINTS=49
##PEAK TABLE=(XY..XY)
14,30 15,409 18,20 26,80
27,949 28,139 29,1109 30,20
31,20 32,20 37,20 38,60
39,699 40,99 41,1429 42,529
43,9999 44,259 45,299 50,40
51,50 52,20 53,119 54,50
55,1159 56,80 57,499 58,60
59,10 63,10 65,20 67,70
68,10 69,90 70,719 71,1809
72,6549 73,289 74,20 79,10
81,30 83,10 84,10 85,369
86,40 87,10 99,90 114,159
115,10
##END=
