##TITLE=Cholestan-3-ol, 4,4-dimethyl-, (3.beta.,5.alpha.)-
##JCAMP-DX=4.24
##DATA TYPE=MASS SPECTRUM
##ORIGIN=T.IIDA NIHON UNIVERSITY, KORIYAMA, FUKUSHIMA-KEN, JAPAN
##OWNER=NIST Mass Spectrometry Data Center
Collection (C) 2014 copyright by the U.S. Secretary of Commerce
on behalf of the United States of America. All rights reserved.
##CAS REGISTRY NO=2550-84-7
##$NIST MASS SPEC NO=67285
##MOLFORM=C29 H52 O
##MW=416
##$NIST SOURCE=MSDC
##XUNITS=M/Z
##YUNITS=RELATIVE INTENSITY
##XFACTOR=1
##YFACTOR=1
##FIRSTX=18
##LASTX=417
##FIRSTY=500
##MAXX=417
##MINX=18
##MAXY=9999
##MINY=100
##NPOINTS=161
##PEAK TABLE=(XY..XY)
18,500 27,500 28,500 29,1800
39,600 40,200 41,5300 42,500
43,9999 44,500 53,800 54,300
55,7800 56,900 57,6300 58,300
59,300 65,300 66,200 67,4400
68,1400 69,7500 70,800 71,3700
72,400 77,800 78,300 79,3300
80,800 81,7900 82,2500 83,3900
84,400 85,1100 91,2200 92,600
93,4800 94,1700 95,9100 96,1700
97,3200 98,500 99,300 105,2400
106,900 107,4900 108,3300 109,7900
110,1500 111,2900 112,300 113,300
117,400 118,300 119,2400 120,1300
121,5300 122,3100 123,5200 124,900
125,1000 126,200 127,500 128,100
129,100 131,600 132,300 133,2000
134,1600 135,9700 136,3200 137,2400
138,600 139,1300 140,300 145,700
146,300 147,2600 148,1400 149,3600
150,800 151,1000 152,1900 153,1100
154,200 159,2200 160,300 161,2000
162,800 163,1900 164,300 165,900
166,300 167,300 173,1100 174,500
175,2400 176,1300 177,1600 178,300
179,600 187,600 188,700 189,1300
190,600 191,700 192,300 193,4000
194,900 201,800 202,400 203,700
204,300 205,300 206,600 207,400
215,600 216,300 217,300 219,300
229,1300 230,400 231,400 233,300
243,5000 244,3000 245,2600 246,500
247,1100 248,300 257,1700 258,1700
259,700 260,300 261,3400 262,3200
263,1500 264,1600 265,300 275,200
276,1600 277,300 285,600 287,500
288,300 289,1200 290,300 305,100
313,400 355,1000 356,300 381,200
383,1900 384,500 398,1100 399,400
401,1300 402,500 414,300 416,2900
417,800
##END=
