##TITLE=2H-Pyran-2-one, tetrahydro-6-(2-pentenyl)-, (Z)-
##JCAMP-DX=4.24
##DATA TYPE=MASS SPECTRUM
##ORIGIN=NIST Mass Spectrometry Data Center
##OWNER=NIST Mass Spectrometry Data Center
Collection (C) 2014 copyright by the U.S. Secretary of Commerce
on behalf of the United States of America. All rights reserved.
##CAS REGISTRY NO=25524-95-2
##$NIST MASS SPEC NO=333341
##MOLFORM=C10 H16 O2
##MW=168
##$NIST SOURCE=MSDC
##XUNITS=M/Z
##YUNITS=RELATIVE INTENSITY
##XFACTOR=1
##YFACTOR=1
##FIRSTX=15
##LASTX=170
##FIRSTY=20
##MAXX=170
##MINX=15
##MAXY=9999
##MINY=10
##NPOINTS=103
##PEAK TABLE=(XY..XY)
15,20 26,60 27,711 28,160
29,400 30,10 31,20 37,20
38,80 39,1431 40,240 41,2903
42,1271 43,2522 44,140 45,30
49,10 50,100 51,240 52,130
53,701 54,631 55,4154 56,200
57,60 58,10 59,10 60,30
61,10 62,30 63,70 64,20
65,240 66,120 67,981 68,1081
69,510 70,410 71,8958 72,440
73,50 74,10 75,10 77,240
78,90 79,741 80,220 81,1151
82,150 83,130 84,90 85,30
86,10 87,20 89,10 91,130
92,30 93,340 94,200 95,340
96,120 97,110 99,9999 100,581
101,70 102,10 103,10 104,20
105,20 106,80 107,150 108,1141
109,190 110,20 111,20 112,50
113,100 114,30 115,10 117,30
118,10 119,10 121,130 122,170
123,50 124,10 125,10 126,120
127,20 131,10 132,60 133,10
135,140 136,10 139,40 140,10
150,701 151,90 152,10 153,10
168,601 169,80 170,10
##END=
