##TITLE=Dexchlorpheniramine
##JCAMP-DX=4.24
##DATA TYPE=MASS SPECTRUM
##ORIGIN=NIST Mass Spectrometry Data Center, 1998.
##OWNER=NIST Mass Spectrometry Data Center
Collection (C) 2014 copyright by the U.S. Secretary of Commerce
on behalf of the United States of America. All rights reserved.
##CAS REGISTRY NO=25523-97-1
##$NIST MASS SPEC NO=292049
##MOLFORM=C16 H19 Cl N2
##MW=274
##$NIST SOURCE=MSDC
##XUNITS=M/Z
##YUNITS=RELATIVE INTENSITY
##XFACTOR=1
##YFACTOR=1
##FIRSTX=15
##LASTX=276
##FIRSTY=50
##MAXX=276
##MINX=15
##MAXY=9999
##MINY=10
##NPOINTS=163
##PEAK TABLE=(XY..XY)
15,50 26,10 27,70 28,120
29,110 30,370 31,10 36,10
38,20 39,130 40,20 41,80
42,1040 43,320 44,240 45,30
49,10 50,120 51,380 52,190
53,60 54,40 55,40 56,410
57,230 58,6199 59,270 61,10
62,50 63,180 64,40 65,100
66,20 67,20 68,10 70,110
71,210 72,1710 73,110 74,50
75,170 76,80 77,200 78,390
79,150 80,50 81,20 82,20
83,40 85,20 86,30 87,50
88,50 89,200 90,80 91,80
92,40 93,130 94,20 97,20
98,10 99,50 100,20 101,110
102,110 103,200 104,80 105,10
106,60 107,10 110,10 111,30
112,40 113,80 114,100 115,240
116,100 117,200 118,160 119,40
120,10 121,30 122,10 123,20
124,10 125,180 126,50 127,100
128,50 129,20 130,20 131,10
135,10 136,30 137,50 138,160
139,310 140,230 141,80 142,20
143,20 144,10 147,10 149,50
150,30 151,70 152,130 153,50
154,60 155,10 161,10 162,10
163,20 164,70 165,120 166,560
167,2600 168,1330 169,160 170,10
173,10 174,10 175,10 176,10
177,20 178,90 179,60 180,400
181,230 182,40 188,10 190,20
191,70 192,80 193,100 194,60
195,20 196,10 200,20 201,340
202,2490 203,9999 204,2370 205,3900
206,520 207,30 214,200 215,40
216,300 217,50 218,80 219,10
221,10 227,20 228,60 229,30
230,200 231,40 232,60 233,10
274,10 275,10 276,10
##END=
