##TITLE=Bicyclo[2.2.1]heptane, 2-methyl-3-methylene-2-(4-methyl-3-pentenyl)-, (1S-endo)-
##JCAMP-DX=4.24
##DATA TYPE=MASS SPECTRUM
##ORIGIN=Mark Whitten, Florida Museum of Natural History, U. of Florida
##OWNER=NIST Mass Spectrometry Data Center
Collection (C) 2014 copyright by the U.S. Secretary of Commerce
on behalf of the United States of America. All rights reserved.
##CAS REGISTRY NO=25532-78-9
##$NIST MASS SPEC NO=141045
##MOLFORM=C15 H24
##MW=204
##$NIST SOURCE=MSDC
##XUNITS=M/Z
##YUNITS=RELATIVE INTENSITY
##XFACTOR=1
##YFACTOR=1
##FIRSTX=41
##LASTX=205
##FIRSTY=4985
##MAXX=205
##MINX=41
##MAXY=9999
##MINY=20
##NPOINTS=71
##PEAK TABLE=(XY..XY)
41,4985 42,252 43,570 44,24
50,69 51,348 52,178 53,1006
54,140 55,1466 56,90 57,80
63,97 65,645 66,240 67,1556
68,241 69,1270 70,94 77,1454
78,382 79,2323 80,271 81,616
82,372 83,170 89,37 91,2045
92,456 93,2667 94,9999 95,1036
96,83 103,120 105,789 106,292
107,857 108,164 109,138 110,25
115,99 116,36 117,120 118,38
119,500 120,273 121,678 122,2854
123,303 124,20 128,38 129,28
131,59 133,367 134,162 135,147
136,65 137,49 145,33 147,140
148,138 149,25 159,24 161,534
162,88 163,33 176,32 189,90
190,20 204,201 205,34
##END=
