##TITLE=p-Methoxybenzylidene p-biphenylamine
##JCAMP-DX=4.24
##DATA TYPE=MASS SPECTRUM
##ORIGIN=NIST Mass Spectrometry Data Center, 1994
##OWNER=NIST Mass Spectrometry Data Center
Collection (C) 2014 copyright by the U.S. Secretary of Commerce
on behalf of the United States of America. All rights reserved.
##CAS REGISTRY NO=25543-63-9
##$NIST MASS SPEC NO=135873
##MOLFORM=C20 H17 N O
##MW=287
##$NIST SOURCE=MSDC
##XUNITS=M/Z
##YUNITS=RELATIVE INTENSITY
##XFACTOR=1
##YFACTOR=1
##FIRSTX=5
##LASTX=289
##FIRSTY=1
##MAXX=289
##MINX=5
##MAXY=9999
##MINY=1
##NPOINTS=105
##PEAK TABLE=(XY..XY)
5,1 15,194 16,33 17,31
18,53 28,23 38,66 39,411
40,34 50,221 51,536 52,105
53,44 62,77 63,348 64,216
65,536 66,48 75,195 76,310
77,674 78,208 79,81 86,24
87,67 88,78 89,121 90,138
91,135 92,120 93,70 94,36
96,42 99,40 100,41 101,115
102,157 103,129 104,24 107,53
108,154 113,87 114,106 115,194
116,41 119,41 121,130 122,101
125,67 126,225 127,369 128,93
130,44 133,78 134,54 136,32
139,149 140,97 141,38 144,408
150,209 151,822 152,2616 153,870
154,138 163,24 164,34 165,43
166,90 167,126 176,37 177,77
178,189 179,218 180,150 189,47
190,26 202,55 210,92 215,80
216,50 217,59 226,48 227,50
228,61 229,21 240,42 241,153
242,192 243,598 244,247 245,40
253,55 254,100 255,83 256,54
257,27 270,78 271,168 272,102
273,22 286,6448 287,9999 288,2044
289,239
##END=
