##TITLE=Ethyl 6-bromohexanoate
##JCAMP-DX=4.24
##DATA TYPE=MASS SPECTRUM
##ORIGIN=NIST Mass Spectrometry Data Center
##OWNER=NIST Mass Spectrometry Data Center
Collection (C) 2014 copyright by the U.S. Secretary of Commerce
on behalf of the United States of America. All rights reserved.
##CAS REGISTRY NO=25542-62-5
##$NIST MASS SPEC NO=343573
##MOLFORM=C8 H15 Br O2
##MW=222
##$NIST SOURCE=MSDC
##XUNITS=M/Z
##YUNITS=RELATIVE INTENSITY
##XFACTOR=1
##YFACTOR=1
##FIRSTX=12
##LASTX=225
##FIRSTY=10
##MAXX=225
##MINX=12
##MAXY=9999
##MINY=10
##NPOINTS=104
##PEAK TABLE=(XY..XY)
12,10 14,50 15,370 16,20
18,10 19,50 26,370 27,3043
28,1001 29,4094 30,230 31,230
34,20 35,10 37,20 38,100
39,1631 40,380 41,4644 42,2032
43,1451 44,130 45,1231 46,30
47,20 48,160 49,40 50,20
51,70 52,40 53,310 54,200
55,1862 56,130 57,110 58,20
60,2522 61,1431 62,50 63,20
65,60 66,20 67,330 68,200
69,4894 70,1932 71,340 73,1471
74,60 75,10 79,30 80,20
81,30 82,10 83,50 85,10
86,20 88,9999 89,510 90,50
93,90 95,120 96,20 97,1031
98,70 99,30 101,951 102,50
105,10 106,20 107,220 108,30
109,250 113,30 115,1191 116,60
119,10 121,30 123,20 132,10
133,10 134,20 135,10 137,10
143,1131 144,100 148,40 149,130
150,60 151,140 152,10 177,1151
178,100 179,1121 180,80 181,10
194,60 195,20 196,60 197,20
222,80 223,10 224,70 225,10
##END=
