##TITLE=7-Methoxy-4-methylcoumarin
##JCAMP-DX=4.24
##DATA TYPE=MASS SPECTRUM
##ORIGIN=NIST Mass Spectrometry Data Center, 1994
##OWNER=NIST Mass Spectrometry Data Center
Collection (C) 2014 copyright by the U.S. Secretary of Commerce
on behalf of the United States of America. All rights reserved.
##CAS REGISTRY NO=2555-28-4
##$NIST MASS SPEC NO=136014
##MOLFORM=C11 H10 O3
##MW=190
##$NIST SOURCE=MSDC
##XUNITS=M/Z
##YUNITS=RELATIVE INTENSITY
##XFACTOR=1
##YFACTOR=1
##FIRSTX=13
##LASTX=192
##FIRSTY=40
##MAXX=192
##MINX=13
##MAXY=9999
##MINY=10
##NPOINTS=81
##PEAK TABLE=(XY..XY)
13,40 15,1666 16,10 26,101
27,214 29,65 30,48 37,187
38,455 39,1663 40,155 41,330
42,73 43,304 44,73 45,111
49,114 50,987 51,1941 52,491
53,422 54,56 55,122 61,216
62,784 63,1452 64,415 65,2211
66,220 67,89 68,56 69,825
73,77 74,327 75,431 76,569
77,1214 78,292 79,327 80,63
81,180 85,70 86,156 87,183
88,130 89,846 90,533 91,2979
92,341 93,120 98,49 101,97
102,304 103,576 104,175 105,171
107,61 108,30 115,52 117,62
118,347 119,705 120,98 130,28
131,301 132,103 133,155 134,132
145,88 147,9999 148,974 149,111
151,76 159,65 161,1251 162,8592
163,943 164,92 190,6917 191,834
192,47
##END=
