##TITLE=1-(3-Aminopropyl)-2-pipecoline
##JCAMP-DX=4.24
##DATA TYPE=MASS SPECTRUM
##ORIGIN=Chuck Anderson, Aldrich Chemical Co.
##OWNER=NIST Mass Spectrometry Data Center
Collection (C) 2014 copyright by the U.S. Secretary of Commerce
on behalf of the United States of America. All rights reserved.
##CAS REGISTRY NO=25560-00-3
##$NIST MASS SPEC NO=108313
##MOLFORM=C9 H20 N2
##MW=156
##$NIST SOURCE=MSDC
##XUNITS=M/Z
##YUNITS=RELATIVE INTENSITY
##XFACTOR=1
##YFACTOR=1
##FIRSTX=15
##LASTX=157
##FIRSTY=51
##MAXX=157
##MINX=15
##MAXY=9999
##MINY=5
##NPOINTS=70
##PEAK TABLE=(XY..XY)
15,51 26,35 27,261 28,521
29,378 30,1484 31,38 38,16
39,378 40,95 41,1393 42,1151
43,469 44,2030 45,65 51,20
52,25 53,142 54,310 55,1424
56,969 57,556 58,344 59,28
65,20 66,15 67,111 68,211
69,371 70,999 71,233 72,88
73,45 77,18 79,48 80,57
81,113 82,265 83,420 84,1151
85,207 86,21 93,16 94,44
95,32 96,488 97,321 98,9999
99,670 100,359 101,25 108,9
109,18 110,173 111,416 112,6181
113,522 114,30 123,5 124,125
125,63 126,287 127,42 139,40
140,24 141,287 142,21 155,13
156,112 157,16
##END=
