##TITLE=Methyl 3-trifluoromethylbenzoate
##JCAMP-DX=4.24
##DATA TYPE=MASS SPECTRUM
##ORIGIN=NIST Mass Spectrometry Data Center, 1994
##OWNER=NIST Mass Spectrometry Data Center
Collection (C) 2014 copyright by the U.S. Secretary of Commerce
on behalf of the United States of America. All rights reserved.
##CAS REGISTRY NO=2557-13-3
##$NIST MASS SPEC NO=135343
##MOLFORM=C9 H7 F3 O2
##MW=204
##$NIST SOURCE=MSDC
##XUNITS=M/Z
##YUNITS=RELATIVE INTENSITY
##XFACTOR=1
##YFACTOR=1
##FIRSTX=12
##LASTX=206
##FIRSTY=13
##MAXX=206
##MINX=12
##MAXY=9999
##MINY=8
##NPOINTS=109
##PEAK TABLE=(XY..XY)
12,13 13,46 14,194 15,1892
16,34 18,36 20,36 26,57
27,109 28,158 29,824 30,263
31,334 32,14 37,123 38,279
39,182 41,10 44,26 45,31
47,8 49,124 50,1549 51,497
52,31 53,96 54,15 55,14
56,40 57,275 59,265 60,17
61,77 62,162 63,326 64,27
65,21 67,13 68,87 69,626
70,32 73,148 74,795 75,1897
76,547 77,232 79,32 80,55
81,135 82,11 83,33 85,31
86,39 87,52 88,48 91,59
92,48 93,100 94,11 95,1515
96,124 97,10 98,10 99,369
100,126 101,53 103,16 104,35
105,39 106,30 107,117 108,14
109,21 113,40 114,31 118,38
119,213 120,18 123,64 125,1215
126,532 127,182 128,11 132,40
133,17 135,323 136,29 140,15
141,20 143,157 145,7237 146,555
147,16 154,12 155,57 158,15
159,45 160,30 173,9999 174,845
175,59 183,11 185,964 186,109
187,36 203,870 204,2061 205,205
206,15
##END=
