##TITLE=N-Desmethylflunitrazepam
##JCAMP-DX=4.24
##DATA TYPE=MASS SPECTRUM
##ORIGIN=NIST Mass Spectrometry Data Center, 2013
##OWNER=NIST Mass Spectrometry Data Center
Collection (C) 2014 copyright by the U.S. Secretary of Commerce
on behalf of the United States of America. All rights reserved.
##CAS REGISTRY NO=2558-30-7
##$NIST MASS SPEC NO=417081
##MOLFORM=C15 H10 F N3 O3
##MW=299
##$NIST SOURCE=MSDC
##XUNITS=M/Z
##YUNITS=RELATIVE INTENSITY
##XFACTOR=1
##YFACTOR=1
##FIRSTX=15
##LASTX=302
##FIRSTY=20
##MAXX=302
##MINX=15
##MAXY=9999
##MINY=10
##NPOINTS=255
##PEAK TABLE=(XY..XY)
15,20 17,70 18,180 26,60
27,210 28,741 29,70 30,661
31,50 33,40 35,10 36,50
37,70 38,260 39,651 40,130
41,160 42,180 43,70 44,60
45,40 46,110 47,10 48,10
49,20 50,641 51,1421 52,771
53,220 54,120 55,80 56,80
57,390 58,20 59,40 60,10
61,130 62,581 63,1251 64,350
65,390 66,100 67,50 68,150
69,210 70,200 71,40 72,180
73,70 74,661 75,1932 76,1081
77,1541 78,681 79,140 80,320
81,490 82,140 83,410 84,200
85,761 86,460 87,350 88,430
89,701 90,300 91,280 92,270
93,170 94,520 95,751 96,260
97,90 98,510 99,781 100,310
101,340 102,1501 103,801 104,621
105,390 106,320 107,1061 108,300
109,1081 110,270 111,300 112,771
114,100 115,130 116,160 117,260
118,260 119,200 120,721 121,470
122,791 123,440 124,140 125,360
126,651 128,120 129,380 130,450
131,631 132,450 133,651 134,861
135,390 136,210 137,120 138,110
139,150 140,140 141,150 142,80
143,130 144,1081 145,410 146,370
147,130 148,100 149,651 150,611
151,781 152,280 153,100 154,30
155,160 156,170 157,711 158,480
159,120 160,90 161,80 162,100
163,130 164,190 165,120 166,150
167,180 168,621 169,1081 170,1531
171,440 172,110 173,40 174,50
175,240 176,821 177,761 178,440
179,390 180,120 181,370 182,350
183,350 184,390 185,520 186,160
187,40 188,30 189,50 190,170
191,90 192,130 193,140 194,170
195,811 196,871 197,1882 198,671
199,100 200,20 201,20 202,60
203,350 204,290 205,651 206,230
207,90 208,200 209,120 210,170
211,450 212,470 213,270 214,60
215,20 218,10 219,20 220,60
221,100 222,190 223,2482 224,5195
225,1882 226,350 227,60 228,30
232,10 233,180 234,921 235,200
236,40 237,20 238,60 239,90
240,691 241,310 242,110 243,310
244,50 245,10 249,20 250,60
251,210 252,3253 253,741 254,290
255,90 256,30 257,80 258,10
259,20 260,20 261,20 262,10
263,10 264,10 265,10 266,20
267,30 268,100 269,530 270,5365
271,6366 272,6436 273,971 274,110
279,120 280,2582 281,550 282,520
283,140 284,30 287,10 288,10
296,10 297,20 298,9999 299,5915
300,941 301,110 302,10
##END=
