##TITLE=5H-Dibenzo[a,d]cycloheptene
##JCAMP-DX=4.24
##DATA TYPE=MASS SPECTRUM
##ORIGIN=Dmitri Zagorevskii, University of Ottawa, Ontario, Canada
##OWNER=NIST Mass Spectrometry Data Center
Collection (C) 2014 copyright by the U.S. Secretary of Commerce
on behalf of the United States of America. All rights reserved.
##CAS REGISTRY NO=256-81-5
##$NIST MASS SPEC NO=284382
##MOLFORM=C15 H12
##MW=192
##$NIST SOURCE=MSDC
##XUNITS=M/Z
##YUNITS=RELATIVE INTENSITY
##XFACTOR=1
##YFACTOR=1
##FIRSTX=26
##LASTX=194
##FIRSTY=20
##MAXX=194
##MINX=26
##MAXY=9999
##MINY=20
##NPOINTS=70
##PEAK TABLE=(XY..XY)
26,20 27,130 28,320 29,260
31,100 39,270 40,50 41,90
42,70 43,160 44,80 45,30
50,90 51,220 52,20 57,20
62,90 63,300 64,70 65,190
66,70 69,220 70,20 71,30
74,80 75,120 76,100 77,200
78,20 81,70 82,240 83,260
86,20 87,120 88,120 89,190
91,70 93,20 96,901 102,30
113,80 115,290 119,120 120,50
126,80 127,30 128,50 139,270
150,120 151,140 152,270 153,20
161,50 162,90 163,440 164,250
165,1551 166,210 176,210 177,50
178,70 186,30 187,350 188,290
189,3003 190,1081 191,8728 192,9999
193,1471 194,100
##END=
