##TITLE=9-Phenyl-9-fluorenol
##JCAMP-DX=4.24
##DATA TYPE=MASS SPECTRUM
##ORIGIN=NIST Mass Spectrometry Data Center, 1994
##OWNER=NIST Mass Spectrometry Data Center
Collection (C) 2014 copyright by the U.S. Secretary of Commerce
on behalf of the United States of America. All rights reserved.
##CAS REGISTRY NO=25603-67-2
##$NIST MASS SPEC NO=135391
##MOLFORM=C19 H14 O
##MW=258
##$NIST SOURCE=MSDC
##XUNITS=M/Z
##YUNITS=RELATIVE INTENSITY
##XFACTOR=1
##YFACTOR=1
##FIRSTX=4
##LASTX=260
##FIRSTY=7
##MAXX=260
##MINX=4
##MAXY=9999
##MINY=7
##NPOINTS=128
##PEAK TABLE=(XY..XY)
4,7 15,12 16,26 17,89
18,304 26,60 27,495 28,106
38,128 39,782 40,57 41,41
50,998 51,2739 52,297 53,90
55,41 62,276 63,697 64,62
65,74 74,473 75,725 76,670
77,2553 78,396 79,45 80,42
81,36 82,78 85,41 86,264
87,431 88,350 89,238 90,34
91,26 94,276 95,286 98,285
99,272 100,430 101,659 102,243
104,32 105,396 107,476 108,188
110,118 111,164 112,278 113,786
114,354 115,172 120,1054 122,83
123,56 124,44 125,169 126,581
127,531 128,286 129,596 137,97
138,50 139,149 150,951 151,2055
152,6207 153,2837 154,305 161,76
162,119 163,379 164,179 165,317
166,56 174,103 175,73 176,126
177,41 178,37 179,37 180,2217
181,9999 182,1492 183,126 185,56
186,83 187,311 188,163 189,263
190,36 198,50 199,94 200,313
201,230 202,557 203,140 210,35
211,155 212,93 213,311 214,107
215,411 216,85 224,178 225,174
226,1080 227,548 228,830 229,1086
230,346 231,125 235,78 236,142
237,709 238,397 239,2553 240,953
241,3188 242,1328 243,230 255,154
257,4056 258,9319 259,1899 260,198
##END=
