##TITLE=1,2-Diphenylethylamine
##JCAMP-DX=4.24
##DATA TYPE=MASS SPECTRUM
##ORIGIN=NIST Mass Spectrometry Data Center, 1990.
##OWNER=NIST Mass Spectrometry Data Center
Collection (C) 2014 copyright by the U.S. Secretary of Commerce
on behalf of the United States of America. All rights reserved.
##CAS REGISTRY NO=25611-78-3
##$NIST MASS SPEC NO=118248
##MOLFORM=C14 H15 N
##MW=197
##$NIST SOURCE=MSDC
##XUNITS=M/Z
##YUNITS=RELATIVE INTENSITY
##XFACTOR=1
##YFACTOR=1
##FIRSTX=17
##LASTX=196
##FIRSTY=27
##MAXX=196
##MINX=17
##MAXY=9999
##MINY=18
##NPOINTS=67
##PEAK TABLE=(XY..XY)
17,27 18,30 26,28 27,173
28,1497 29,54 30,46 38,66
39,351 40,38 41,110 42,44
49,23 50,165 51,575 52,204
53,84 54,30 61,27 62,73
63,246 64,75 65,495 66,46
74,69 75,65 76,183 77,1354
78,365 79,2551 80,169 81,18
87,20 88,29 89,207 90,113
91,839 92,133 102,67 103,150
104,521 105,29 106,9999 107,761
108,35 115,43 117,47 118,62
120,21 127,25 139,22 150,23
151,43 152,54 153,26 165,85
166,27 167,27 176,59 177,52
178,152 179,100 180,56 181,21
194,36 195,32 196,39
##END=
