##TITLE=1-Triethylsilyloxydecane
##JCAMP-DX=4.24
##DATA TYPE=MASS SPECTRUM
##ORIGIN=V.G. Zaikin, TIPS RAS, Moscow, Russia
##OWNER=NIST Mass Spectrometry Data Center
Collection (C) 2014 copyright by the U.S. Secretary of Commerce
on behalf of the United States of America. All rights reserved.
##CAS REGISTRY NO=256235-78-6
##$NIST MASS SPEC NO=278948
##MOLFORM=C16 H36 O Si
##MW=272
##$NIST SOURCE=MSDC
##XUNITS=M/Z
##YUNITS=RELATIVE INTENSITY
##XFACTOR=1
##YFACTOR=1
##FIRSTX=27
##LASTX=246
##FIRSTY=1151
##MAXX=246
##MINX=27
##MAXY=9999
##MINY=40
##NPOINTS=118
##PEAK TABLE=(XY..XY)
27,1151 28,90 29,1892 30,80
31,250 33,40 36,40 37,40
38,80 39,671 40,80 41,2162
42,450 43,2472 44,350 45,871
46,60 47,1381 48,90 49,80
50,80 51,160 52,120 53,190
54,90 55,1491 56,480 57,1161
58,290 59,1351 60,110 61,390
62,40 63,90 64,40 65,120
66,60 67,180 68,120 69,1011
70,250 71,390 72,90 73,520
74,130 75,4594 76,390 77,170
78,80 79,180 81,120 82,120
83,1061 84,150 85,290 86,120
87,1782 88,180 89,1091 90,80
91,80 93,180 94,40 95,180
96,60 97,420 98,420 99,280
100,80 101,520 102,80 103,2392
104,190 105,190 109,60 110,40
111,80 112,40 113,160 114,60
115,891 116,90 117,450 118,60
119,40 121,240 123,60 125,60
126,40 127,60 128,40 129,611
130,80 131,80 140,40 141,60
143,220 144,60 145,40 157,170
158,40 159,40 171,230 172,40
173,40 185,40 187,40 190,40
213,90 214,40 215,80 240,40
241,110 242,150 243,9999 244,1892
245,561 246,60
##END=
