##TITLE=3-Pyridinecarboxylic acid, 2-propenyl ester
##JCAMP-DX=4.24
##DATA TYPE=MASS SPECTRUM
##ORIGIN=Zaikin V.G., TIPS RAS, Moscow, Russia
##OWNER=NIST Mass Spectrometry Data Center
Collection (C) 2014 copyright by the U.S. Secretary of Commerce
on behalf of the United States of America. All rights reserved.
##CAS REGISTRY NO=25635-12-5
##$NIST MASS SPEC NO=308332
##MOLFORM=C9 H9 N O2
##MW=163
##$NIST SOURCE=MSDC
##XUNITS=M/Z
##YUNITS=RELATIVE INTENSITY
##XFACTOR=1
##YFACTOR=1
##FIRSTX=26
##LASTX=164
##FIRSTY=80
##MAXX=164
##MINX=26
##MAXY=9999
##MINY=30
##NPOINTS=31
##PEAK TABLE=(XY..XY)
26,80 27,180 29,80 38,80
39,661 40,80 41,981 44,40
49,50 50,510 51,1611 52,250
53,90 57,150 75,30 76,70
77,160 78,3403 79,440 80,40
105,130 106,9999 107,691 108,40
118,70 123,100 124,100 144,100
162,390 163,310 164,30
##END=
