##TITLE=.alpha.,.alpha.,.alpha.',.alpha.'-Tetrachloro-o-xylene
##JCAMP-DX=4.24
##DATA TYPE=MASS SPECTRUM
##ORIGIN=Japan AIST/NIMC Database- Spectrum MS-NW-7756
##OWNER=NIST Mass Spectrometry Data Center
Collection (C) 2014 copyright by the U.S. Secretary of Commerce
on behalf of the United States of America. All rights reserved.
##CAS REGISTRY NO=25641-99-0
##$NIST MASS SPEC NO=238175
##MOLFORM=C8 H6 Cl4
##MW=242
##$NIST SOURCE=MSDC
##XUNITS=M/Z
##YUNITS=RELATIVE INTENSITY
##XFACTOR=1
##YFACTOR=1
##FIRSTX=26
##LASTX=250
##FIRSTY=50
##MAXX=250
##MINX=26
##MAXY=9999
##MINY=10
##NPOINTS=133
##PEAK TABLE=(XY..XY)
26,50 27,80 28,20 35,80
36,60 37,149 38,70 39,299
40,10 43,10 47,30 48,20
49,199 50,1209 51,1139 52,169
53,20 54,10 55,50 56,20
57,10 60,50 61,219 62,359
63,509 64,40 65,10 66,20
67,139 68,1259 69,469 70,10
71,10 72,70 73,299 74,569
75,1089 76,359 77,219 78,20
82,10 83,30 84,119 85,499
86,1269 87,789 88,159 89,149
90,20 91,10 95,10 96,40
97,139 98,169 99,349 100,159
101,1549 102,1319 103,299 104,219
105,70 106,10 107,20 108,30
109,119 110,50 111,99 112,40
113,20 114,10 118,20 119,10
120,10 121,30 122,10 123,70
124,10 125,70 127,20 131,10
132,10 133,30 134,30 135,259
136,999 137,2019 138,599 139,659
140,90 141,10 142,10 144,10
145,10 146,30 147,10 148,10
157,10 159,169 160,20 161,109
162,10 163,20 169,10 170,70
171,589 172,3259 173,1029 174,2139
175,529 176,389 177,90 178,10
180,10 205,20 206,479 207,9999
208,1389 209,9599 210,1089 211,3059
212,309 213,379 214,40 241,139
242,1459 243,279 244,1829 245,229
246,909 247,99 248,199 249,30
250,20
##END=
