##TITLE=Cyclopropaneethanol
##JCAMP-DX=4.24
##DATA TYPE=MASS SPECTRUM
##ORIGIN=NIST Mass Spectrometry Data Center
##OWNER=NIST Mass Spectrometry Data Center
Collection (C) 2014 copyright by the U.S. Secretary of Commerce
on behalf of the United States of America. All rights reserved.
##CAS REGISTRY NO=2566-44-1
##$NIST MASS SPEC NO=342765
##MOLFORM=C5 H10 O
##MW=86
##$NIST SOURCE=MSDC
##XUNITS=M/Z
##YUNITS=RELATIVE INTENSITY
##XFACTOR=1
##YFACTOR=1
##FIRSTX=11
##LASTX=86
##FIRSTY=60
##MAXX=86
##MINX=11
##MAXY=9999
##MINY=10
##NPOINTS=45
##PEAK TABLE=(XY..XY)
11,60 12,30 13,40 14,190
15,410 16,40 17,10 18,40
19,250 26,1091 27,5995 28,2502
29,7227 30,801 31,5815 32,140
37,571 38,1071 39,7767 40,1912
41,5625 42,1301 43,1762 44,3543
45,430 49,140 50,711 51,881
52,340 53,4134 54,901 55,6476
56,2442 57,5705 58,751 61,40
62,80 63,110 65,240 67,9999
68,6496 69,420 71,230 85,50
86,190
##END=
