##TITLE=1-Propene, 1,1,3-trichloro-
##JCAMP-DX=4.24
##DATA TYPE=MASS SPECTRUM
##ORIGIN=A. A. POLYAKOVA MOSCOW LOMONOSOV STATE UNIV., MOSCOW, USSR
##OWNER=NIST Mass Spectrometry Data Center
Collection (C) 2014 copyright by the U.S. Secretary of Commerce
on behalf of the United States of America. All rights reserved.
##CAS REGISTRY NO=2567-14-8
##$NIST MASS SPEC NO=4171
##MOLFORM=C3 H3 Cl3
##MW=144
##$NIST SOURCE=MSDC
##XUNITS=M/Z
##YUNITS=RELATIVE INTENSITY
##XFACTOR=1
##YFACTOR=1
##FIRSTX=26
##LASTX=148
##FIRSTY=4240
##MAXX=148
##MINX=26
##MAXY=9999
##MINY=20
##NPOINTS=33
##PEAK TABLE=(XY..XY)
26,4240 27,6300 35,4040 37,1370
39,4850 43,1290 49,1740 51,520
73,2660 75,950 83,1740 85,790
101,48 105,180 107,320 108,180
109,9999 110,370 111,5950 112,222
113,460 114,20 119,48 123,51
124,48 125,37 142,65 143,80
144,840 145,72 146,820 147,190
148,290
##END=
