##TITLE=Aminocaproic acid, 3TMS derivative
##JCAMP-DX=4.24
##DATA TYPE=MASS SPECTRUM
##OWNER=NIST Mass Spectrometry Data Center
Collection (C) 2014 copyright by the U.S. Secretary of Commerce
on behalf of the United States of America. All rights reserved.
##CAS REGISTRY NO=25688-76-0
##$NIST MASS SPEC NO=28672
##MOLFORM=C15 H37 N O2 Si3
##MW=347
##$NIST SOURCE=MSDC
##XUNITS=M/Z
##YUNITS=RELATIVE INTENSITY
##XFACTOR=1
##YFACTOR=1
##FIRSTX=30
##LASTX=347
##FIRSTY=340
##MAXX=347
##MINX=30
##MAXY=9999
##MINY=160
##NPOINTS=34
##PEAK TABLE=(XY..XY)
30,340 44,220 45,480 55,320
59,760 69,360 72,180 73,4180
74,540 75,1040 86,880 96,960
100,480 102,540 117,180 129,260
130,220 131,220 133,280 145,240
146,220 147,1240 148,220 149,160
168,200 170,380 172,180 174,9999
188,240 242,260 332,1520 333,560
334,240 347,180
##END=
