##TITLE=Methyl aminoacetate, 2TMS derivative
##JCAMP-DX=4.24
##DATA TYPE=MASS SPECTRUM
##ORIGIN=NIST Mass Spectrometry Data Center
##OWNER=NIST Mass Spectrometry Data Center
Collection (C) 2014 copyright by the U.S. Secretary of Commerce
on behalf of the United States of America. All rights reserved.
##CAS REGISTRY NO=25688-73-7
##$NIST MASS SPEC NO=333953
##MOLFORM=C9 H23 N O2 Si2
##MW=233
##$NIST SOURCE=MSDC
##XUNITS=M/Z
##YUNITS=RELATIVE INTENSITY
##XFACTOR=1
##YFACTOR=1
##FIRSTX=15
##LASTX=233
##FIRSTY=120
##MAXX=233
##MINX=15
##MAXY=9999
##MINY=10
##NPOINTS=107
##PEAK TABLE=(XY..XY)
15,120 27,10 28,10 29,70
30,10 31,70 41,10 42,50
43,350 44,170 45,1121 46,80
47,60 53,20 54,10 55,80
56,100 57,130 58,280 59,2692
60,200 61,120 66,10 67,10
68,10 69,30 70,100 71,80
72,210 73,5995 74,540 75,561
76,30 77,10 81,10 83,20
84,90 85,60 86,5235 87,500
88,230 89,2042 90,170 91,80
93,10 97,10 98,30 99,70
100,1501 102,641 103,160 104,30
105,20 113,60 114,230 115,110
116,310 117,460 118,90 119,110
120,10 121,10 128,20 129,40
130,500 131,230 132,90 133,631
134,90 135,40 142,10 143,10
144,140 145,30 146,100 147,250
148,40 149,20 157,10 158,130
159,50 160,1431 161,250 162,110
163,20 172,150 174,9999 175,1982
176,871 177,100 178,20 187,10
188,170 190,2783 191,520 192,230
193,30 194,10 202,40 203,10
204,10 218,3193 219,631 220,280
221,40 222,10 233,10
##END=
