##TITLE=Butane, 2,2'-[methylenebis(oxy)]bis-
##JCAMP-DX=4.24
##DATA TYPE=MASS SPECTRUM
##OWNER=NIST Mass Spectrometry Data Center
Collection (C) 2014 copyright by the U.S. Secretary of Commerce
on behalf of the United States of America. All rights reserved.
##CAS REGISTRY NO=2568-92-5
##$NIST MASS SPEC NO=5712
##MOLFORM=C9 H20 O2
##MW=160
##$NIST SOURCE=MSDC
##XUNITS=M/Z
##YUNITS=RELATIVE INTENSITY
##XFACTOR=1
##YFACTOR=1
##FIRSTX=12
##LASTX=160
##FIRSTY=20
##MAXX=160
##MINX=12
##MAXY=9999
##MINY=10
##NPOINTS=65
##PEAK TABLE=(XY..XY)
12,20 13,20 14,110 15,671
16,40 17,30 18,80 19,80
26,300 27,2292 28,1121 29,4354
30,170 31,711 32,20 37,30
38,50 39,921 40,140 41,2823
42,300 43,1261 44,130 45,5345
46,130 47,40 51,50 52,20
53,120 54,50 55,450 56,621
57,9999 58,1081 59,1581 60,70
61,10 69,50 70,10 71,110
72,80 73,350 74,30 75,861
76,30 83,210 84,20 85,30
86,90 87,5445 88,290 89,100
90,10 97,10 101,761 102,40
103,130 104,10 115,60 117,10
131,951 132,50 145,40 159,10
160,10
##END=
