##TITLE=m-Trifluoromethylbenzyl mercaptan
##JCAMP-DX=4.24
##DATA TYPE=MASS SPECTRUM
##ORIGIN=NIST Mass Spectrometry Data Center, 1994
##OWNER=NIST Mass Spectrometry Data Center
Collection (C) 2014 copyright by the U.S. Secretary of Commerce
on behalf of the United States of America. All rights reserved.
##CAS REGISTRY NO=25697-55-6
##$NIST MASS SPEC NO=136564
##MOLFORM=C8 H7 F3 S
##MW=192
##$NIST SOURCE=MSDC
##XUNITS=M/Z
##YUNITS=RELATIVE INTENSITY
##XFACTOR=1
##YFACTOR=1
##FIRSTX=17
##LASTX=194
##FIRSTY=37
##MAXX=194
##MINX=17
##MAXY=9999
##MINY=23
##NPOINTS=102
##PEAK TABLE=(XY..XY)
17,37 18,93 20,31 32,40
33,394 34,73 37,121 38,332
39,802 40,45 45,2037 46,223
47,297 48,27 49,60 50,540
51,585 52,82 56,46 57,297
58,67 60,59 61,216 62,481
63,988 64,197 65,63 68,75
69,804 70,230 71,50 75,519
76,120 77,241 78,80 79,45
80,49 81,173 82,55 83,352
84,40 85,111 86,190 87,205
88,175 89,663 90,199 91,83
92,34 93,127 94,97 95,279
96,98 99,323 100,56 101,89
105,27 106,29 107,281 108,27
109,2724 110,214 112,49 113,186
114,190 115,33 117,32 119,847
120,196 121,162 122,50 123,81
124,24 125,178 126,108 127,414
128,34 132,84 133,70 137,77
138,206 139,463 140,296 141,34
145,255 146,33 153,24 156,23
157,97 159,9999 160,941 161,44
170,49 171,263 173,720 174,80
175,44 189,213 190,49 192,3365
193,320 194,153
##END=
