##TITLE=3,4-Dimethylbenzophenone
##JCAMP-DX=4.24
##DATA TYPE=MASS SPECTRUM
##ORIGIN=Japan AIST/NIMC Database- Spectrum MS-IW- 6
##OWNER=NIST Mass Spectrometry Data Center
Collection (C) 2014 copyright by the U.S. Secretary of Commerce
on behalf of the United States of America. All rights reserved.
##CAS REGISTRY NO=2571-39-3
##$NIST MASS SPEC NO=239184
##MOLFORM=C15 H14 O
##MW=210
##$NIST SOURCE=MSDC
##XUNITS=M/Z
##YUNITS=RELATIVE INTENSITY
##XFACTOR=1
##YFACTOR=1
##FIRSTX=27
##LASTX=212
##FIRSTY=159
##MAXX=212
##MINX=27
##MAXY=9999
##MINY=10
##NPOINTS=79
##PEAK TABLE=(XY..XY)
27,159 28,10 29,10 38,10
39,199 40,10 41,30 50,119
51,549 52,70 53,119 62,30
63,149 64,40 65,129 66,10
74,40 75,60 76,139 77,2539
78,319 79,739 80,50 82,30
83,20 86,10 87,20 88,10
89,129 90,109 91,229 97,10
98,10 101,10 102,60 103,479
104,199 105,3579 106,299 107,10
113,10 115,50 126,10 127,10
128,20 131,10 132,40 133,9999
134,989 135,60 139,30 141,20
150,10 151,20 152,90 153,30
163,20 164,20 165,309 166,139
167,129 168,20 176,10 177,10
178,60 179,30 180,10 181,80
182,50 193,10 194,20 195,959
196,149 197,10 208,20 209,119
210,4649 211,749 212,70
##END=
