##TITLE=4,4'-Bis(octyloxy)azoxybenzene
##JCAMP-DX=4.24
##DATA TYPE=MASS SPECTRUM
##ORIGIN=Japan AIST/NIMC Database- Spectrum MS-NW-6234
##OWNER=NIST Mass Spectrometry Data Center
Collection (C) 2014 copyright by the U.S. Secretary of Commerce
on behalf of the United States of America. All rights reserved.
##CAS REGISTRY NO=25729-12-8
##$NIST MASS SPEC NO=233110
##MOLFORM=C28 H42 N2 O3
##MW=454
##$NIST SOURCE=MSDC
##XUNITS=M/Z
##YUNITS=RELATIVE INTENSITY
##XFACTOR=1
##YFACTOR=1
##FIRSTX=15
##LASTX=458
##FIRSTY=20
##MAXX=458
##MINX=15
##MAXY=9999
##MINY=10
##NPOINTS=286
##PEAK TABLE=(XY..XY)
15,20 16,10 26,60 27,719
28,189 29,2159 30,50 37,20
38,40 39,549 40,99 41,4159
42,469 43,6509 44,229 45,20
50,90 51,99 52,219 53,249
54,109 55,3799 56,389 57,4089
58,209 59,10 61,10 62,20
63,139 64,239 65,929 66,99
67,319 68,90 69,5099 70,469
71,2449 72,159 74,10 75,40
76,299 77,259 78,169 79,579
80,289 81,319 82,80 83,409
84,129 85,99 86,10 89,20
90,99 91,209 92,149 93,2209
94,579 95,669 96,90 97,80
98,10 99,20 100,10 101,10
102,20 103,50 104,50 105,119
106,309 107,7299 108,1609 109,1319
110,259 111,80 112,50 113,30
114,20 115,50 116,20 117,50
118,30 119,99 120,109 121,1089
122,199 123,1849 124,909 125,80
126,20 127,80 128,80 129,50
130,30 131,99 132,50 133,219
134,80 135,119 136,80 137,90
138,20 139,50 140,20 141,30
142,20 143,20 144,40 145,60
146,50 147,99 148,50 149,60
150,30 151,10 152,10 153,10
154,20 155,30 156,30 157,99
158,40 159,30 160,30 161,90
162,40 163,40 164,20 165,10
167,20 168,40 169,20 170,30
171,20 172,20 173,70 174,70
175,40 176,40 177,20 178,10
181,10 182,10 183,30 184,80
185,139 186,159 187,50 188,20
189,10 190,20 191,10 194,10
195,10 196,30 197,30 198,20
199,60 200,50 201,459 202,359
203,80 204,20 205,60 206,40
207,10 209,10 210,10 211,10
212,60 213,749 214,279 215,60
216,10 217,10 218,30 219,289
220,90 221,239 222,70 223,10
224,10 225,20 226,20 227,20
228,20 229,329 230,419 231,70
232,60 233,299 234,99 235,219
236,119 237,20 241,10 242,20
243,10 247,10 254,10 257,20
258,30 259,10 261,10 273,20
278,20 281,10 285,10 286,10
288,10 289,10 290,10 295,10
296,10 297,30 298,30 299,10
309,10 310,10 311,20 312,20
313,60 314,349 315,90 316,20
323,20 324,30 325,149 326,409
327,139 328,30 336,10 337,10
338,30 339,30 340,20 341,289
342,999 343,279 344,50 345,10
352,10 354,10 355,40 356,10
366,10 367,10 368,10 370,10
380,10 381,10 382,10 394,20
395,10 396,10 408,10 409,20
410,20 411,10 412,10 421,10
422,10 423,20 424,20 425,20
426,50 427,10 432,10 434,20
435,20 436,219 437,149 438,3829
439,1199 440,249 441,40 442,10
449,10 450,10 451,10 452,90
453,149 454,9999 455,3019 456,509
457,80 458,10
##END=
