##TITLE=Cyclopenta(cd)pyrene, 3,4-dihydro-
##JCAMP-DX=4.24
##DATA TYPE=MASS SPECTRUM
##ORIGIN=L.WALLCAVE, EPPLEY INST. CANCER, NEBRASKA MED. UNIV. OMAHA U.
##OWNER=NIST Mass Spectrometry Data Center
Collection (C) 2014 copyright by the U.S. Secretary of Commerce
on behalf of the United States of America. All rights reserved.
##CAS REGISTRY NO=25732-74-5
##$NIST MASS SPEC NO=74738
##MOLFORM=C18 H12
##MW=228
##$NIST SOURCE=MSDC
##XUNITS=M/Z
##YUNITS=RELATIVE INTENSITY
##XFACTOR=1
##YFACTOR=1
##FIRSTX=74
##LASTX=230
##FIRSTY=60
##MAXX=230
##MINX=74
##MAXY=9999
##MINY=50
##NPOINTS=26
##PEAK TABLE=(XY..XY)
74,60 75,80 87,120 88,80
98,60 99,150 100,400 101,360
111,130 112,1040 114,1080 150,50
174,70 198,110 199,90 200,190
201,70 222,180 223,250 224,1090
225,990 226,4500 227,5140 228,9999
229,1790 230,160
##END=
