##TITLE=Phosphoramidous difluoride
##JCAMP-DX=4.24
##DATA TYPE=MASS SPECTRUM
##OWNER=NIST Mass Spectrometry Data Center
Collection (C) 2014 copyright by the U.S. Secretary of Commerce
on behalf of the United States of America. All rights reserved.
##CAS REGISTRY NO=25757-74-8
##$NIST MASS SPEC NO=30073
##MOLFORM=F2 H2 N P
##MW=85
##$NIST SOURCE=MSDC
##XUNITS=M/Z
##YUNITS=RELATIVE INTENSITY
##XFACTOR=1
##YFACTOR=1
##FIRSTX=31
##LASTX=86
##FIRSTY=400
##MAXX=86
##MINX=31
##MAXY=9999
##MINY=100
##NPOINTS=11
##PEAK TABLE=(XY..XY)
31,400 46,200 47,1900 50,200
64,100 65,200 66,600 69,3800
84,2900 85,9999 86,100
##END=
