##TITLE=Glycine, N-(N-glycyl-L-leucyl)-
##JCAMP-DX=4.24
##DATA TYPE=MASS SPECTRUM
##ORIGIN=Japan AIST/NIMC Database- Spectrum MS-NW-2057
##OWNER=NIST Mass Spectrometry Data Center
Collection (C) 2014 copyright by the U.S. Secretary of Commerce
on behalf of the United States of America. All rights reserved.
##CAS REGISTRY NO=2576-67-2
##$NIST MASS SPEC NO=230529
##MOLFORM=C10 H19 N3 O4
##MW=245
##$NIST SOURCE=MSDC
##XUNITS=M/Z
##YUNITS=RELATIVE INTENSITY
##XFACTOR=1
##YFACTOR=1
##FIRSTX=12
##LASTX=227
##FIRSTY=119
##MAXX=227
##MINX=12
##MAXY=9999
##MINY=10
##NPOINTS=200
##PEAK TABLE=(XY..XY)
12,119 13,60 14,269 15,439
16,279 17,309 18,1439 24,20
25,70 26,639 27,2869 28,3669
29,1339 30,9999 31,229 32,60
33,30 34,80 36,40 37,139
38,289 39,1399 40,739 41,3549
42,1869 43,4909 44,3039 45,159
46,30 48,10 49,30 50,129
51,269 52,289 53,499 54,669
55,1039 56,999 57,639 58,209
59,129 60,60 61,20 62,20
63,70 64,99 65,159 66,239
67,409 68,539 69,419 70,919
71,229 72,129 73,70 74,60
75,119 76,159 77,149 78,109
79,109 80,239 81,329 82,349
83,229 84,969 85,1959 86,7879
87,489 88,40 89,30 90,20
91,109 92,99 93,229 94,209
95,189 96,319 97,409 98,339
99,389 100,109 101,40 102,10
103,70 104,80 105,70 106,90
107,119 108,169 109,179 110,239
111,209 112,189 113,849 114,3459
115,209 116,50 117,109 118,50
119,179 120,60 121,90 122,139
123,139 124,249 125,419 126,159
127,459 128,70 129,20 130,30
131,30 132,40 133,80 134,60
135,99 136,90 137,159 138,149
139,99 140,90 141,199 142,70
143,60 144,20 145,20 146,30
147,20 148,50 149,80 150,80
151,139 152,139 153,849 154,129
155,109 156,70 157,30 158,30
159,20 160,40 161,20 162,50
163,50 164,129 165,119 166,239
167,90 168,219 169,169 170,70
171,90 172,20 173,10 174,10
175,20 176,20 177,30 178,30
179,40 180,50 181,50 182,50
183,30 184,40 185,20 187,10
188,30 189,20 190,30 191,30
192,60 193,40 194,50 195,139
196,30 197,30 198,20 201,10
202,20 204,20 205,10 206,20
207,90 208,50 209,119 210,289
211,50 212,30 213,20 218,10
220,20 221,20 222,50 223,20
224,20 225,20 226,40 227,30
##END=
