##TITLE=Benzene, 1-ethoxy-3-methoxy-
##JCAMP-DX=4.24
##DATA TYPE=MASS SPECTRUM
##OWNER=NIST Mass Spectrometry Data Center
Collection (C) 2014 copyright by the U.S. Secretary of Commerce
on behalf of the United States of America. All rights reserved.
##CAS REGISTRY NO=25783-45-3
##$NIST MASS SPEC NO=4869
##MOLFORM=C9 H12 O2
##MW=152
##$NIST SOURCE=MSDC
##XUNITS=M/Z
##YUNITS=RELATIVE INTENSITY
##XFACTOR=1
##YFACTOR=1
##FIRSTX=15
##LASTX=154
##FIRSTY=811
##MAXX=154
##MINX=15
##MAXY=9999
##MINY=20
##NPOINTS=78
##PEAK TABLE=(XY..XY)
15,811 26,601 27,3003 29,2322
30,80 31,60 36,20 37,190
38,921 39,2322 40,270 41,1241
42,180 43,390 44,50 45,50
47,190 48,100 49,100 50,841
51,1191 52,1692 53,1531 54,230
55,530 56,60 61,150 62,500
63,1842 64,1651 65,1401 66,1371
67,310 68,180 69,681 70,30
71,30 74,210 75,160 76,230
77,1181 78,631 79,470 80,611
81,2612 82,240 83,470 85,310
87,50 91,260 92,1151 93,390
94,5955 95,3733 96,1271 97,130
105,150 106,50 107,500 108,651
109,791 110,480 111,60 119,50
121,240 122,190 123,681 124,9999
125,771 126,60 135,30 136,50
137,320 138,30 151,270 152,7267
153,711 154,60
##END=
