##TITLE=Cholesta-8,24-dien-3-ol, acetate, (3.beta.,5.alpha.)-
##JCAMP-DX=4.24
##DATA TYPE=MASS SPECTRUM
##ORIGIN=C.J.W.BROOKS GLASGOW UNIV., UK
##OWNER=NIST Mass Spectrometry Data Center
Collection (C) 2014 copyright by the U.S. Secretary of Commerce
on behalf of the United States of America. All rights reserved.
##CAS REGISTRY NO=2579-07-9
##$NIST MASS SPEC NO=17406
##MOLFORM=C29 H46 O2
##MW=426
##$NIST SOURCE=MSDC
##XUNITS=M/Z
##YUNITS=RELATIVE INTENSITY
##XFACTOR=1
##YFACTOR=1
##FIRSTX=41
##LASTX=428
##FIRSTY=300
##MAXX=428
##MINX=41
##MAXY=9999
##MINY=230
##NPOINTS=132
##PEAK TABLE=(XY..XY)
41,300 42,240 43,450 44,300
55,350 57,420 67,450 69,2150
70,250 71,290 79,250 81,3500
82,1210 83,900 91,380 92,260
93,1000 94,600 95,2150 96,360
97,510 105,1080 106,550 107,2000
108,950 109,2380 110,440 111,490
118,400 119,1550 120,840 121,1710
122,1550 123,1200 124,250 125,250
131,850 132,1150 133,1560 134,1200
135,2000 136,1660 137,1600 138,310
143,400 145,1100 146,580 147,2060
148,590 149,1300 150,700 151,250
157,450 158,270 159,950 160,400
161,1250 162,400 163,600 171,400
173,720 174,480 175,500 176,250
177,300 185,530 186,250 187,700
189,390 197,340 199,600 200,490
201,1140 202,380 203,360 204,350
205,1050 206,250 211,850 212,300
213,3800 214,940 215,1030 216,250
217,250 227,1220 228,1150 229,3400
230,750 231,300 239,250 241,450
243,490 245,300 251,300 253,600
255,950 256,250 257,450 258,500
259,590 260,650 261,370 273,780
274,340 288,1080 289,250 297,250
299,250 311,1000 312,500 313,1450
314,550 315,550 341,450 342,550
349,250 351,2000 352,600 364,300
366,2200 367,850 382,230 383,250
409,230 411,4300 412,1350 422,300
424,900 426,9999 427,3400 428,650
##END=
