##TITLE=8-Heptadecene
##JCAMP-DX=4.24
##DATA TYPE=MASS SPECTRUM
##ORIGIN=NIST Mass Spectrometry Data Center, 1990.
##OWNER=NIST Mass Spectrometry Data Center
Collection (C) 2014 copyright by the U.S. Secretary of Commerce
on behalf of the United States of America. All rights reserved.
##CAS REGISTRY NO=2579-04-6
##$NIST MASS SPEC NO=113620
##MOLFORM=C17 H34
##MW=238
##$NIST SOURCE=MSDC
##XUNITS=M/Z
##YUNITS=RELATIVE INTENSITY
##XFACTOR=1
##YFACTOR=1
##FIRSTX=27
##LASTX=239
##FIRSTY=2168
##MAXX=239
##MINX=27
##MAXY=9999
##MINY=165
##NPOINTS=48
##PEAK TABLE=(XY..XY)
27,2168 28,1514 29,4704 39,1892
41,9972 42,1965 43,8406 44,347
53,998 54,3138 55,9999 56,5446
57,6934 58,295 65,314 66,364
67,2594 68,1559 69,8027 70,5103
71,2754 72,165 77,216 79,506
80,174 81,1167 82,1927 83,7202
84,2861 85,1555 95,482 96,1288
97,5735 98,1620 99,454 110,650
111,3207 112,969 113,208 124,386
125,1468 126,524 138,202 139,450
140,325 153,194 238,1651 239,318
##END=
