##TITLE=Pent-2-ynal, 4,4-dimethyl-
##JCAMP-DX=4.24
##DATA TYPE=MASS SPECTRUM
##ORIGIN=A.Pleshkova, Nesmeyanov Inst.Org.Elem.Cpds, Moscow
##OWNER=NIST Mass Spectrometry Data Center
Collection (C) 2014 copyright by the U.S. Secretary of Commerce
on behalf of the United States of America. All rights reserved.
##CAS REGISTRY NO=2579-21-7
##$NIST MASS SPEC NO=283675
##MOLFORM=C7 H10 O
##MW=110
##$NIST SOURCE=MSDC
##XUNITS=M/Z
##YUNITS=RELATIVE INTENSITY
##XFACTOR=1
##YFACTOR=1
##FIRSTX=15
##LASTX=110
##FIRSTY=1702
##MAXX=110
##MINX=15
##MAXY=9999
##MINY=20
##NPOINTS=35
##PEAK TABLE=(XY..XY)
15,1702 16,20 26,400 28,200
29,1301 37,500 38,1101 39,7006
40,1301 41,9999 42,500 49,500
50,2402 51,3103 52,801 53,2702
54,300 55,500 61,300 62,901
63,1201 65,2803 66,1001 67,9008
68,801 77,801 79,2102 80,300
81,5405 82,400 93,300 95,1301
96,300 109,200 110,50
##END=
