##TITLE=4-Piperidyl benzilate
##JCAMP-DX=4.24
##DATA TYPE=MASS SPECTRUM
##ORIGIN=VERIFINN
##OWNER=NIST Mass Spectrometry Data Center
Collection (C) 2014 copyright by the U.S. Secretary of Commerce
on behalf of the United States of America. All rights reserved.
##CAS REGISTRY NO=25811-48-7
##$NIST MASS SPEC NO=289563
##MOLFORM=C19 H21 N O3
##MW=311
##$NIST SOURCE=MSDC
##XUNITS=M/Z
##YUNITS=RELATIVE INTENSITY
##XFACTOR=1
##YFACTOR=1
##FIRSTX=27
##LASTX=267
##FIRSTY=320
##MAXX=267
##MINX=27
##MAXY=9999
##MINY=50
##NPOINTS=43
##PEAK TABLE=(XY..XY)
27,320 28,621 29,701 30,1001
39,280 41,190 42,1001 43,510
44,230 51,480 53,180 54,200
55,1561 56,1181 57,280 67,140
68,310 76,90 77,3203 78,270
82,1541 83,420 84,3543 85,4354
86,210 91,70 100,150 101,160
105,5795 106,400 115,110 128,260
129,510 151,50 152,180 153,80
165,260 181,220 182,130 183,9999
184,1211 185,70 267,70
##END=
