##TITLE=Myo-Inositol, 6TMS derivative
##JCAMP-DX=4.24
##DATA TYPE=MASS SPECTRUM
##ORIGIN=NIST Mass Spectrometry Data Center, 2010
##OWNER=NIST Mass Spectrometry Data Center
Collection (C) 2014 copyright by the U.S. Secretary of Commerce
on behalf of the United States of America. All rights reserved.
##CAS REGISTRY NO=2582-79-8
##$NIST MASS SPEC NO=380339
##MOLFORM=C24 H60 O6 Si6
##MW=612
##$NIST SOURCE=MSDC
##XUNITS=M/Z
##YUNITS=RELATIVE INTENSITY
##XFACTOR=1
##YFACTOR=1
##FIRSTX=29
##LASTX=614
##FIRSTY=10
##MAXX=614
##MINX=29
##MAXY=9999
##MINY=10
##NPOINTS=239
##PEAK TABLE=(XY..XY)
29,10 39,10 41,20 43,40
44,50 45,380 46,30 47,30
53,50 54,30 55,90 56,10
57,10 58,20 59,170 60,20
61,20 65,10 66,10 67,20
68,10 69,20 70,10 71,10
72,130 73,9999 74,831 75,530
76,30 77,20 79,10 81,50
82,10 83,40 85,30 86,10
87,30 88,10 89,20 97,10
98,10 99,30 100,10 101,80
102,40 103,751 104,70 105,50
109,20 111,40 112,10 113,60
114,10 115,30 116,60 117,120
118,20 119,70 120,10 121,10
125,10 126,10 127,70 128,20
129,1311 130,150 131,470 132,70
133,1301 134,180 135,110 136,10
137,10 139,10 141,30 142,30
143,290 144,40 145,50 146,30
147,6836 148,1051 149,601 150,60
151,30 153,20 154,10 155,30
156,20 157,90 158,10 159,30
160,10 161,130 162,20 163,40
164,10 167,10 169,20 171,10
173,30 174,10 175,60 176,10
177,60 178,10 179,10 181,10
183,10 185,10 187,10 189,170
190,180 191,3573 192,641 193,300
194,40 195,10 199,10 201,30
202,10 203,70 204,1531 205,360
206,150 207,140 208,30 209,20
213,10 215,50 217,5655 218,1121
219,490 220,70 221,370 222,80
223,40 224,10 227,10 228,10
229,20 230,100 231,60 232,20
233,10 235,10 239,10 241,10
243,60 244,10 245,20 246,10
249,10 255,10 257,10 263,10
264,10 265,1161 266,290 267,150
268,30 269,10 271,20 277,30
278,30 279,20 280,10 289,10
290,10 291,510 292,160 293,220
294,50 295,20 303,20 304,80
305,5415 306,1581 307,791 308,160
309,40 310,10 316,10 317,50
318,3113 319,1291 320,550 321,140
322,30 323,10 327,10 329,10
331,30 332,10 343,70 344,20
345,30 346,10 365,10 367,430
368,150 369,80 370,20 371,10
378,10 379,40 380,10 381,10
391,10 392,30 393,280 394,100
395,60 396,10 404,10 405,10
406,20 407,20 408,10 417,30
418,10 419,80 420,30 421,20
432,641 433,510 434,240 435,90
436,20 437,10 507,170 508,80
509,50 510,10 511,10 522,10
612,20 613,10 614,10
##END=
