##TITLE=Diazene, dimethyl-, 1-oxide
##JCAMP-DX=4.24
##DATA TYPE=MASS SPECTRUM
##ORIGIN=RADIAN CORP
##OWNER=NIST Mass Spectrometry Data Center
Collection (C) 2014 copyright by the U.S. Secretary of Commerce
on behalf of the United States of America. All rights reserved.
##CAS REGISTRY NO=25843-45-2
##$NIST MASS SPEC NO=76325
##MOLFORM=C2 H6 N2 O
##MW=74
##$NIST SOURCE=MSDC
##XUNITS=M/Z
##YUNITS=RELATIVE INTENSITY
##XFACTOR=1
##YFACTOR=1
##FIRSTX=15
##LASTX=74
##FIRSTY=270
##MAXX=74
##MINX=15
##MAXY=9999
##MINY=110
##NPOINTS=16
##PEAK TABLE=(XY..XY)
15,270 27,540 28,2800 29,400
30,7310 31,110 42,2360 43,1380
44,1170 45,4750 46,870 57,9999
58,440 59,3780 73,120 74,3450
##END=
