##TITLE=3-Methyl,2-butenoic acid, isopropyl ester
##JCAMP-DX=4.24
##DATA TYPE=MASS SPECTRUM
##ORIGIN=V.G.Zaikin, TIPS RAS, Moscow, Russia
##OWNER=NIST Mass Spectrometry Data Center
Collection (C) 2014 copyright by the U.S. Secretary of Commerce
on behalf of the United States of America. All rights reserved.
##CAS REGISTRY NO=25859-51-2
##$NIST MASS SPEC NO=279220
##MOLFORM=C8 H14 O2
##MW=142
##$NIST SOURCE=MSDC
##XUNITS=M/Z
##YUNITS=RELATIVE INTENSITY
##XFACTOR=1
##YFACTOR=1
##FIRSTX=25
##LASTX=142
##FIRSTY=70
##MAXX=142
##MINX=25
##MAXY=9999
##MINY=30
##NPOINTS=47
##PEAK TABLE=(XY..XY)
25,70 26,490 27,3383 28,380
29,2312 30,70 31,110 36,70
37,290 38,550 39,3653 40,691
41,2152 42,791 43,3213 44,881
45,250 49,120 50,470 51,581
52,510 53,1021 54,611 55,2923
56,390 57,280 58,110 59,911
60,60 67,210 68,30 69,120
72,90 78,60 79,410 82,2612
83,9999 84,731 85,1551 86,90
97,40 99,70 100,4754 101,611
113,70 127,450 142,270
##END=
