##TITLE=Diazene, bis[4-(hexyloxy)phenyl]-, 1-oxide
##JCAMP-DX=4.24
##DATA TYPE=MASS SPECTRUM
##ORIGIN=NIST Mass Spectrometry Data Center, 1994
##OWNER=NIST Mass Spectrometry Data Center
Collection (C) 2014 copyright by the U.S. Secretary of Commerce
on behalf of the United States of America. All rights reserved.
##CAS REGISTRY NO=2587-42-0
##$NIST MASS SPEC NO=135863
##MOLFORM=C24 H34 N2 O3
##MW=398
##$NIST SOURCE=MSDC
##XUNITS=M/Z
##YUNITS=RELATIVE INTENSITY
##XFACTOR=1
##YFACTOR=1
##FIRSTX=27
##LASTX=400
##FIRSTY=589
##MAXX=400
##MINX=27
##MAXY=9999
##MINY=81
##NPOINTS=85
##PEAK TABLE=(XY..XY)
27,589 28,128 29,1258 39,720
41,3606 43,9999 44,329 50,123
51,149 52,440 53,337 54,123
55,2867 56,229 57,998 63,195
64,284 65,1419 66,153 67,131
69,201 76,429 77,218 78,239
79,710 80,469 81,407 83,135
85,752 90,88 91,178 93,2565
94,600 95,430 96,109 104,81
105,83 107,5179 108,1591 109,843
110,158 119,97 121,543 122,266
123,2234 124,1072 125,98 127,118
128,118 131,117 133,136 157,100
173,134 174,117 177,2943 178,470
184,109 185,207 186,181 191,542
192,136 201,1057 202,647 203,116
204,116 205,575 206,114 207,326
208,145 213,428 214,142 229,471
230,582 285,110 286,397 297,126
298,188 313,479 314,996 315,262
382,1447 383,436 398,6194 399,1883
400,247
##END=
