##TITLE=1,3,5-Tribenzoylbenzene
##JCAMP-DX=4.24
##DATA TYPE=MASS SPECTRUM
##ORIGIN=NIST Mass Spectrometry Data Center, 1994
##OWNER=NIST Mass Spectrometry Data Center
Collection (C) 2014 copyright by the U.S. Secretary of Commerce
on behalf of the United States of America. All rights reserved.
##CAS REGISTRY NO=25871-69-6
##$NIST MASS SPEC NO=135868
##MOLFORM=C27 H18 O3
##MW=390
##$NIST SOURCE=MSDC
##XUNITS=M/Z
##YUNITS=RELATIVE INTENSITY
##XFACTOR=1
##YFACTOR=1
##FIRSTX=50
##LASTX=392
##FIRSTY=176
##MAXX=392
##MINX=50
##MAXY=9999
##MINY=54
##NPOINTS=29
##PEAK TABLE=(XY..XY)
50,176 51,984 75,189 77,5203
78,352 105,9999 106,774 150,79
151,116 152,153 180,68 207,106
226,73 228,101 229,74 257,194
267,84 285,1754 286,383 287,58
311,54 313,2636 314,631 315,92
361,128 362,90 390,3364 391,965
392,162
##END=
