##TITLE=1-Pentanone, 1-(4-hydroxyphenyl)-
##JCAMP-DX=4.24
##DATA TYPE=MASS SPECTRUM
##ORIGIN=Japan AIST/NIMC Database- Spectrum MS-NW-8734
##OWNER=NIST Mass Spectrometry Data Center
Collection (C) 2014 copyright by the U.S. Secretary of Commerce
on behalf of the United States of America. All rights reserved.
##CAS REGISTRY NO=2589-71-1
##$NIST MASS SPEC NO=238653
##MOLFORM=C11 H14 O2
##MW=178
##$NIST SOURCE=MSDC
##XUNITS=M/Z
##YUNITS=RELATIVE INTENSITY
##XFACTOR=1
##YFACTOR=1
##FIRSTX=26
##LASTX=179
##FIRSTY=10
##MAXX=179
##MINX=26
##MAXY=9999
##MINY=10
##NPOINTS=55
##PEAK TABLE=(XY..XY)
26,10 27,169 28,60 29,189
38,50 39,569 40,30 41,129
42,20 43,40 50,30 51,60
52,10 53,99 55,169 56,10
57,50 62,30 63,139 64,119
65,1109 66,99 67,10 74,20
75,20 76,10 77,90 78,10
79,30 85,10 89,10 91,30
92,129 93,1369 94,199 95,20
103,30 107,90 108,10 119,10
120,70 121,9999 122,779 123,70
131,20 135,30 136,5069 137,449
138,40 149,289 150,40 161,10
177,40 178,619 179,90
##END=
