##TITLE=Urea, N,N-dibutyl-N'-phenyl-
##JCAMP-DX=4.24
##DATA TYPE=MASS SPECTRUM
##OWNER=NIST Mass Spectrometry Data Center
Collection (C) 2014 copyright by the U.S. Secretary of Commerce
on behalf of the United States of America. All rights reserved.
##CAS REGISTRY NO=2589-21-1
##$NIST MASS SPEC NO=12015
##MOLFORM=C15 H24 N2 O
##MW=248
##$NIST SOURCE=MSDC
##XUNITS=M/Z
##YUNITS=RELATIVE INTENSITY
##XFACTOR=1
##YFACTOR=1
##FIRSTX=27
##LASTX=249
##FIRSTY=225
##MAXX=249
##MINX=27
##MAXY=9999
##MINY=50
##NPOINTS=33
##PEAK TABLE=(XY..XY)
27,225 28,1400 29,9999 39,250
41,1150 43,225 44,725 51,150
55,200 57,5549 58,325 59,150
64,250 65,250 66,50 72,100
77,450 84,75 86,2525 87,225
91,250 92,225 93,550 100,775
119,675 120,225 128,150 129,225
156,1775 157,200 205,325 248,1325
249,250
##END=
