##TITLE=2-Cyclohexylamino-5-nitropyridine
##JCAMP-DX=4.24
##DATA TYPE=MASS SPECTRUM
##ORIGIN=N.SBARBATI NUDELMAN,DEP. QUIM. ORG.,UNIV. BUENOS AIRES,ARGENT.
##OWNER=NIST Mass Spectrometry Data Center
Collection (C) 2014 copyright by the U.S. Secretary of Commerce
on behalf of the United States of America. All rights reserved.
##CAS REGISTRY NO=25948-14-5
##$NIST MASS SPEC NO=103711
##MOLFORM=C11 H15 N3 O2
##MW=221
##$NIST SOURCE=MSDC
##XUNITS=M/Z
##YUNITS=RELATIVE INTENSITY
##XFACTOR=1
##YFACTOR=1
##FIRSTX=41
##LASTX=222
##FIRSTY=1470
##MAXX=222
##MINX=41
##MAXY=9999
##MINY=100
##NPOINTS=63
##PEAK TABLE=(XY..XY)
41,1470 42,220 43,220 46,100
50,270 51,630 52,330 53,480
54,560 55,1540 56,410 64,160
65,460 67,1040 68,620 69,280
77,100 78,410 79,1260 80,430
81,170 82,600 83,210 84,170
91,120 92,260 93,700 94,350
98,480 104,110 105,110 106,470
109,710 118,1770 119,400 120,230
123,630 124,280 131,1000 132,2410
133,300 139,9999 140,2180 141,140
145,190 146,390 148,100 152,610
153,130 164,9900 165,870 166,250
174,190 175,130 178,2690 179,360
192,480 204,160 205,310 206,120
220,490 221,2890 222,400
##END=
