##TITLE=Ethylmercurichlorendimide
##JCAMP-DX=4.24
##DATA TYPE=MASS SPECTRUM
##ORIGIN=J. SHAW, BORRISTON RESEARCH, ROCKVILLE, MD, USA
##OWNER=NIST Mass Spectrometry Data Center
Collection (C) 2014 copyright by the U.S. Secretary of Commerce
on behalf of the United States of America. All rights reserved.
##CAS REGISTRY NO=2597-93-5
##$NIST MASS SPEC NO=60497
##MOLFORM=C11 H7 Cl6 Hg N O2
##MW=597
##$NIST SOURCE=MSDC
##XUNITS=M/Z
##YUNITS=RELATIVE INTENSITY
##XFACTOR=1
##YFACTOR=1
##FIRSTX=12
##LASTX=338
##FIRSTY=60
##MAXX=338
##MINX=12
##MAXY=9999
##MINY=10
##NPOINTS=226
##PEAK TABLE=(XY..XY)
12,60 14,250 15,350 16,100
17,400 18,1291 19,10 24,10
26,1761 27,5285 28,1791 29,9999
30,240 31,10 32,10 35,200
36,180 37,140 38,100 39,60
40,210 41,100 42,90 43,270
44,120 45,50 47,110 48,20
49,110 50,100 51,80 52,50
53,140 54,250 55,70 56,40
57,40 58,10 59,20 60,150
61,170 62,110 63,280 64,10
65,90 68,40 70,5535 71,210
72,150 73,220 74,130 75,70
76,10 77,190 78,50 79,20
80,50 82,80 83,160 84,200
85,300 86,250 87,60 88,10
89,110 90,60 91,30 92,10
94,50 95,210 96,380 97,210
98,80 99,70 100,40 101,20
106,110 107,340 108,170 109,280
110,60 111,60 112,20 113,50
114,40 115,20 117,140 118,50
119,180 120,180 121,270 122,70
123,80 124,130 125,10 126,50
127,10 128,20 129,10 130,210
131,200 132,170 133,130 134,50
135,30 136,10 141,290 142,20
143,250 144,30 145,100 146,20
147,20 149,20 154,10 155,80
156,40 157,60 158,20 159,10
164,70 165,100 166,50 167,150
168,30 169,80 170,20 171,20
172,10 177,10 178,10 179,40
180,20 181,30 182,10 183,10
191,560 192,50 193,500 194,40
195,150 196,10 197,10 198,70
199,90 200,140 201,130 202,150
203,80 204,40 205,60 206,10
207,40 208,10 209,20 211,10
212,10 213,20 214,30 215,20
216,40 217,20 218,20 219,20
221,10 225,50 226,140 227,140
228,260 229,170 230,170 231,140
232,30 233,40 234,30 235,200
236,50 237,300 238,50 239,190
240,30 241,60 242,20 243,10
244,10 252,40 253,10 254,80
255,10 256,50 257,10 258,20
261,770 262,80 263,1061 264,100
265,650 266,70 267,190 268,100
269,40 270,130 271,10 272,80
274,30 288,10 290,30 291,10
292,10 295,10 296,280 297,50
298,370 299,50 300,190 301,20
302,40 303,10 331,120 332,50
333,190 334,70 335,110 336,40
337,30 338,10
##END=
