##TITLE=Phenthoate
##JCAMP-DX=4.24
##DATA TYPE=MASS SPECTRUM
##ORIGIN=NIST Mass Spectrometry Data Center, 1998.
##OWNER=NIST Mass Spectrometry Data Center
Collection (C) 2014 copyright by the U.S. Secretary of Commerce
on behalf of the United States of America. All rights reserved.
##CAS REGISTRY NO=2597-03-7
##$NIST MASS SPEC NO=291905
##MOLFORM=C12 H17 O4 P S2
##MW=320
##$NIST SOURCE=MSDC
##XUNITS=M/Z
##YUNITS=RELATIVE INTENSITY
##XFACTOR=1
##YFACTOR=1
##FIRSTX=15
##LASTX=323
##FIRSTY=60
##MAXX=323
##MINX=15
##MAXY=9999
##MINY=10
##NPOINTS=175
##PEAK TABLE=(XY..XY)
15,60 26,20 27,220 29,700
30,30 31,70 32,10 33,10
37,10 38,40 39,230 40,40
41,20 42,10 43,40 44,10
45,520 46,50 47,910 48,30
49,50 50,110 51,450 52,80
53,60 55,10 57,10 58,10
59,20 60,10 61,40 62,500
63,1960 64,440 65,220 66,30
67,10 69,90 70,20 71,20
74,20 75,40 76,40 77,1900
78,550 79,4140 80,250 81,30
82,20 83,10 84,10 85,10
86,20 87,30 88,20 89,1480
90,1740 91,3200 92,270 93,6029
94,210 95,260 96,160 97,30
98,20 102,10 103,30 104,20
105,130 106,10 107,3870 108,310
109,100 110,20 111,200 112,30
113,10 115,10 116,10 117,30
118,1280 119,170 120,10 121,6529
122,900 123,500 124,10 125,6489
126,300 127,410 128,20 129,10
133,30 134,80 135,2960 136,310
137,110 138,20 139,140 140,10
141,10 142,10 143,280 144,10
145,20 147,10 148,10 149,80
150,70 151,70 152,20 153,80
154,20 155,20 156,10 157,1680
158,70 159,150 160,10 161,10
162,30 163,1040 164,140 165,20
166,10 167,10 169,10 170,10
171,50 174,30 178,90 179,20
180,20 181,10 182,10 183,10
193,10 194,10 195,70 196,10
197,10 199,10 201,10 202,10
210,20 211,10 214,10 215,10
216,10 217,10 231,50 232,10
233,10 242,10 246,2870 247,1640
248,420 249,160 250,20 259,10
260,10 261,100 262,10 263,10
274,9999 275,1400 276,1050 277,130
278,30 288,10 291,10 320,430
321,70 322,50 323,10
##END=
