##TITLE=Cyclobutane, ethenyl-
##JCAMP-DX=4.24
##DATA TYPE=MASS SPECTRUM
##ORIGIN=D.HENNEBERG, MAX-PLANCK INSTITUTE, MULHEIM, WEST GERMANY
##OWNER=NIST Mass Spectrometry Data Center
Collection (C) 2014 copyright by the U.S. Secretary of Commerce
on behalf of the United States of America. All rights reserved.
##CAS REGISTRY NO=2597-49-1
##$NIST MASS SPEC NO=61253
##MOLFORM=C6 H10
##MW=82
##$NIST SOURCE=MSDC
##XUNITS=M/Z
##YUNITS=RELATIVE INTENSITY
##XFACTOR=1
##YFACTOR=1
##FIRSTX=26
##LASTX=83
##FIRSTY=101
##MAXX=83
##MINX=26
##MAXY=9999
##MINY=5
##NPOINTS=40
##PEAK TABLE=(XY..XY)
26,101 27,1174 28,239 35,8
37,74 38,198 39,2753 40,420
41,3327 42,254 43,88 45,86
49,45 50,441 51,710 52,365
53,1027 54,7432 55,504 56,40
59,7 60,5 62,13 63,113
65,371 66,176 67,9999 68,421
69,7 73,20 74,75 75,56
76,14 77,581 78,259 79,658
80,128 81,982 82,3644 83,215
##END=
