##TITLE=Hexadecanoic acid, octadecyl ester
##JCAMP-DX=4.24
##DATA TYPE=MASS SPECTRUM
##ORIGIN=R.T.HOLMAN,UNIVERSITY OF MINNESOTA
##OWNER=NIST Mass Spectrometry Data Center
Collection (C) 2014 copyright by the U.S. Secretary of Commerce
on behalf of the United States of America. All rights reserved.
##CAS REGISTRY NO=2598-99-4
##$NIST MASS SPEC NO=36251
##MOLFORM=C34 H68 O2
##MW=508
##$NIST SOURCE=MSDC
##XUNITS=M/Z
##YUNITS=RELATIVE INTENSITY
##XFACTOR=1
##YFACTOR=1
##FIRSTX=26
##LASTX=510
##FIRSTY=100
##MAXX=510
##MINX=26
##MAXY=9999
##MINY=20
##NPOINTS=311
##PEAK TABLE=(XY..XY)
26,100 27,360 28,1200 29,910
30,60 31,50 32,300 33,60
34,30 35,30 36,60 37,50
38,70 39,380 40,130 41,2500
42,850 43,6200 44,390 45,100
49,40 50,70 51,70 52,60
53,210 54,660 55,4700 56,2100
57,7800 58,440 59,120 60,800
61,1200 62,80 63,60 64,370
65,90 66,240 67,1000 68,1300
69,4300 70,2100 71,4700 72,280
73,1400 74,190 75,60 76,50
77,110 78,70 79,200 80,160
81,860 82,2000 83,4600 84,1900
85,3100 86,250 87,420 88,80
89,90 90,30 91,140 92,70
93,150 94,110 95,710 96,1100
97,4200 98,1700 99,740 100,130
101,370 102,110 103,100 104,50
105,80 106,50 107,90 108,70
109,370 110,520 111,2400 112,940
113,460 114,120 115,440 116,390
117,120 118,40 119,60 120,40
121,120 122,60 123,220 124,320
125,1200 126,560 127,310 128,100
129,850 130,170 131,80 132,40
133,70 134,50 135,120 136,50
137,130 138,240 139,580 140,410
141,250 142,80 143,160 144,60
145,60 146,30 147,40 148,30
149,150 150,50 151,80 152,200
153,360 154,310 155,190 156,60
157,240 158,70 159,50 160,30
161,30 162,30 163,60 164,30
165,60 166,130 167,260 168,280
169,130 170,50 171,230 172,60
173,50 174,30 175,30 176,30
177,50 178,40 179,50 180,100
181,170 182,200 183,120 184,40
185,250 186,50 187,50 188,30
189,30 190,30 191,40 192,50
193,40 194,160 195,140 196,240
197,120 198,50 199,110 200,60
201,150 202,50 203,50 204,50
205,40 206,30 207,50 208,60
209,80 210,130 211,80 212,40
213,420 214,90 215,40 216,30
217,40 218,50 219,120 220,70
221,50 222,60 223,70 224,570
225,140 226,40 227,120 228,70
229,160 230,40 231,20 232,20
233,20 234,20 235,30 236,120
237,120 238,90 239,1100 240,210
241,60 242,30 243,30 244,30
245,20 246,20 247,20 248,30
250,70 251,60 252,1500 253,420
254,100 255,150 256,2000 257,9999
258,1900 259,210 260,40 261,30
262,30 263,30 264,30 265,30
266,30 267,50 268,30 269,50
270,30 271,30 272,20 273,20
274,20 275,20 276,20 277,20
278,20 279,30 280,30 281,30
282,30 283,40 284,50 285,70
286,30 287,30 288,20 289,20
293,30 294,40 295,30 296,20
297,360 298,100 299,30 300,20
307,30 308,20 309,20 310,20
311,30 312,130 313,120 314,40
315,20 322,20 323,20 324,20
325,80 326,40 327,30 330,20
331,20 338,30 339,20 340,20
352,20 353,30 354,20 355,30
367,30 368,20 381,40 382,30
424,40 425,30 426,20 437,30
438,20 452,30 453,20 465,30
466,20 480,40 481,30 494,30
508,744 509,320 510,90
##END=
