##TITLE=Tetradecanoic acid, hexadecyl ester
##JCAMP-DX=4.24
##DATA TYPE=MASS SPECTRUM
##ORIGIN=R.T.HOLMAN,UNIVERSITY OF MINNESOTA
##OWNER=NIST Mass Spectrometry Data Center
Collection (C) 2014 copyright by the U.S. Secretary of Commerce
on behalf of the United States of America. All rights reserved.
##CAS REGISTRY NO=2599-01-1
##$NIST MASS SPEC NO=36250
##MOLFORM=C30 H60 O2
##MW=452
##$NIST SOURCE=MSDC
##XUNITS=M/Z
##YUNITS=RELATIVE INTENSITY
##XFACTOR=1
##YFACTOR=1
##FIRSTX=26
##LASTX=455
##FIRSTY=50
##MAXX=455
##MINX=26
##MAXY=9999
##MINY=10
##NPOINTS=255
##PEAK TABLE=(XY..XY)
26,50 27,270 28,360 29,830
30,40 31,30 32,70 33,30
36,20 37,10 38,30 39,240
40,70 41,2300 42,740 43,5600
44,250 45,80 46,10 50,40
51,30 52,20 53,130 54,510
55,4100 56,1900 57,6600 58,340
59,90 60,700 61,1200 62,50
63,30 64,130 65,30 66,80
67,710 68,1100 69,3700 70,2000
71,3800 72,230 73,1300 74,150
75,40 76,20 77,50 78,30
79,110 80,80 81,600 82,1800
83,4000 84,1800 85,2600 86,190
87,360 88,60 89,70 90,10
91,50 92,20 93,70 94,50
95,490 96,910 97,3500 98,1600
99,550 100,80 101,280 102,70
103,80 104,20 105,40 106,20
107,60 108,40 109,260 110,410
111,2000 112,840 113,340 114,80
115,350 116,340 117,80 118,20
119,30 120,20 121,70 122,30
123,130 124,260 125,1100 126,540
127,210 128,50 129,770 130,120
131,40 132,10 133,20 134,10
135,60 136,20 137,70 138,170
139,450 140,410 141,140 142,40
143,190 144,30 145,30 146,10
147,20 148,10 149,80 150,30
151,40 152,110 153,250 154,280
155,110 156,20 157,80 158,30
159,20 160,10 161,10 162,10
163,20 164,30 165,30 166,180
167,190 168,260 169,100 170,60
171,150 172,40 173,30 177,30
178,20 179,20 180,50 181,100
182,130 183,60 184,20 185,520
186,80 187,30 188,10 189,10
190,10 191,60 192,50 193,20
194,40 195,70 196,670 197,130
198,20 199,100 200,30 201,30
202,10 203,10 204,10 205,10
206,10 207,20 208,60 209,100
210,60 211,1400 212,210 213,40
214,10 216,10 217,20 218,20
219,40 220,20 221,20 222,50
223,40 224,1800 225,400 226,70
227,110 228,1700 229,9999 230,1600
231,170 232,20 233,10 234,10
236,10 237,10 238,10 239,30
240,10 241,30 242,10 251,10
252,10 253,10 254,10 255,30
256,20 257,20 258,10 263,20
264,10 265,10 266,20 267,20
268,10 269,350 270,80 271,20
279,20 280,10 281,10 282,10
283,10 284,130 285,100 286,20
287,10 297,70 298,30 299,10
311,20 312,10 325,20 326,10
339,20 340,10 353,30 354,20
367,10 368,10 380,10 409,20
410,10 424,10 434,10 452,654
453,230 454,50 455,10
##END=
