##TITLE=Benzo[g]quinoline
##JCAMP-DX=4.24
##DATA TYPE=MASS SPECTRUM
##ORIGIN=TRC, TEXAS A&M UNIV., COLLEGE STATION, TEXAS, USA
##OWNER=NIST Mass Spectrometry Data Center
Collection (C) 2014 copyright by the U.S. Secretary of Commerce
on behalf of the United States of America. All rights reserved.
##CAS REGISTRY NO=260-36-6
##$NIST MASS SPEC NO=138123
##MOLFORM=C13 H9 N
##MW=179
##$NIST SOURCE=MSDC
##XUNITS=M/Z
##YUNITS=RELATIVE INTENSITY
##XFACTOR=1
##YFACTOR=1
##FIRSTX=50
##LASTX=181
##FIRSTY=79
##MAXX=181
##MINX=50
##MAXY=9999
##MINY=9
##NPOINTS=56
##PEAK TABLE=(XY..XY)
50,79 51,60 52,19 61,40
62,109 63,280 64,29 65,9
73,19 74,229 75,459 78,19
85,29 86,89 87,130 98,130
99,130 100,79 101,89 102,79
103,19 109,9 110,29 111,40
112,9 113,60 114,19 115,50
121,19 122,29 123,29 124,29
125,159 126,399 127,120 128,99
129,29 137,19 138,9 139,70
140,99 141,9 149,109 150,810
151,1420 152,990 153,370 154,40
164,29 175,40 176,109 177,580
178,1859 179,9999 180,1239 181,99
##END=
