##TITLE=Hexanoic acid, 2-methylbutyl ester
##JCAMP-DX=4.24
##DATA TYPE=MASS SPECTRUM
##ORIGIN=V.G. Zaikin, R.S.Borisov, TIPS RAS, Moscow, Russia
##OWNER=NIST Mass Spectrometry Data Center
Collection (C) 2014 copyright by the U.S. Secretary of Commerce
on behalf of the United States of America. All rights reserved.
##CAS REGISTRY NO=2601-13-0
##$NIST MASS SPEC NO=330928
##MOLFORM=C11 H22 O2
##MW=186
##$NIST SOURCE=MSDC
##XUNITS=M/Z
##YUNITS=RELATIVE INTENSITY
##XFACTOR=1
##YFACTOR=1
##FIRSTX=26
##LASTX=157
##FIRSTY=20
##MAXX=157
##MINX=26
##MAXY=9999
##MINY=20
##NPOINTS=49
##PEAK TABLE=(XY..XY)
26,20 27,350 29,651 31,40
39,270 40,50 41,971 42,571
43,3473 44,110 45,130 53,70
54,40 55,1321 56,240 57,250
59,20 60,701 61,160 67,20
68,20 69,270 70,7477 71,3954
72,290 73,460 74,100 75,20
81,30 83,40 85,100 87,500
88,30 89,60 97,70 98,90
99,9999 100,671 101,100 115,120
116,380 117,1071 118,60 128,20
129,160 130,160 131,20 156,130
157,60
##END=
