##TITLE=2,3,5,6-Tetramethylbenzoic acid
##JCAMP-DX=4.24
##DATA TYPE=MASS SPECTRUM
##ORIGIN=NIST Mass Spectrometry Data Center
##OWNER=NIST Mass Spectrometry Data Center
Collection (C) 2014 copyright by the U.S. Secretary of Commerce
on behalf of the United States of America. All rights reserved.
##CAS REGISTRY NO=2604-45-7
##$NIST MASS SPEC NO=343076
##MOLFORM=C11 H14 O2
##MW=178
##$NIST SOURCE=MSDC
##XUNITS=M/Z
##YUNITS=RELATIVE INTENSITY
##XFACTOR=1
##YFACTOR=1
##FIRSTX=12
##LASTX=180
##FIRSTY=40
##MAXX=180
##MINX=12
##MAXY=9999
##MINY=10
##NPOINTS=99
##PEAK TABLE=(XY..XY)
12,40 15,460 17,10 18,100
19,10 25,50 27,1792 28,200
30,60 37,150 38,751 39,4954
40,731 41,2342 42,100 43,751
45,751 46,60 50,1131 51,2772
52,791 53,1541 54,150 55,571
56,40 57,611 58,470 59,160
61,110 62,601 63,1802 64,1181
65,2482 66,550 67,350 68,70
69,60 71,100 72,270 73,200
74,140 75,430 76,500 77,3083
78,981 79,1631 80,821 81,280
82,150 85,50 86,120 87,190
89,861 91,5315 92,761 93,500
94,140 98,80 99,30 101,120
102,500 103,1041 105,2262 106,320
107,490 108,50 115,3623 116,1822
117,9519 118,1471 119,2242 120,230
121,140 126,50 127,290 128,571
129,430 131,1982 132,4824 133,7066
134,941 135,410 136,30 143,40
145,691 146,90 147,170 148,60
149,40 160,9829 161,2282 163,2382
164,300 170,50 171,80 175,30
178,9999 179,1211 180,120
##END=
