##TITLE=Hept-3-yn-2-one
##JCAMP-DX=4.24
##DATA TYPE=MASS SPECTRUM
##ORIGIN=A.Pleshkova, Nesmeyanov Inst.Org.Elem.Cpds, Moscow
##OWNER=NIST Mass Spectrometry Data Center
Collection (C) 2014 copyright by the U.S. Secretary of Commerce
on behalf of the United States of America. All rights reserved.
##CAS REGISTRY NO=26059-43-8
##$NIST MASS SPEC NO=283687
##MOLFORM=C7 H10 O
##MW=110
##$NIST SOURCE=MSDC
##XUNITS=M/Z
##YUNITS=RELATIVE INTENSITY
##XFACTOR=1
##YFACTOR=1
##FIRSTX=15
##LASTX=110
##FIRSTY=1301
##MAXX=110
##MINX=15
##MAXY=9999
##MINY=10
##NPOINTS=36
##PEAK TABLE=(XY..XY)
15,1301 16,20 26,601 27,2702
28,400 29,1401 30,30 37,701
38,1301 39,3904 40,500 41,3904
42,701 43,4904 44,170 49,300
50,1101 51,1201 52,500 53,3503
54,200 61,400 62,500 63,601
65,1702 66,1101 67,3103 68,300
77,300 79,500 82,300 95,9999
96,901 97,10 109,400 110,100
##END=
