##TITLE=Benzo[c]phenanthrene, 2-methyl-
##JCAMP-DX=4.24
##DATA TYPE=MASS SPECTRUM
##OWNER=NIST Mass Spectrometry Data Center
Collection (C) 2014 copyright by the U.S. Secretary of Commerce
on behalf of the United States of America. All rights reserved.
##CAS REGISTRY NO=2606-85-1
##$NIST MASS SPEC NO=11675
##MOLFORM=C19 H14
##MW=242
##$NIST SOURCE=MSDC
##XUNITS=M/Z
##YUNITS=RELATIVE INTENSITY
##XFACTOR=1
##YFACTOR=1
##FIRSTX=37
##LASTX=245
##FIRSTY=10
##MAXX=245
##MINX=37
##MAXY=9999
##MINY=10
##NPOINTS=139
##PEAK TABLE=(XY..XY)
37,10 38,60 39,190 40,20
41,20 43,10 50,110 51,110
52,20 53,10 55,10 56,10
57,10 61,10 62,70 63,140
64,20 65,10 67,10 68,10
69,10 70,10 71,10 74,100
75,90 76,110 77,30 78,10
79,50 80,30 81,30 82,10
85,20 86,110 87,170 88,70
89,40 93,40 94,100 95,70
97,10 98,100 99,100 100,180
101,120 102,10 105,40 106,150
107,170 108,140 109,10 110,50
111,80 112,290 113,1091 114,90
115,20 117,20 118,160 119,540
120,1001 121,621 122,50 123,30
124,10 125,20 126,40 127,10
128,10 134,20 135,20 136,10
137,30 138,10 139,40 140,10
146,10 147,10 148,10 149,20
150,70 151,40 152,20 158,10
159,10 161,30 162,30 163,80
164,20 165,20 173,10 174,60
175,40 176,50 177,10 178,10
185,20 186,30 187,160 188,60
189,190 190,30 191,10 198,40
199,40 200,100 201,50 202,150
203,50 204,10 209,10 210,10
211,110 212,50 213,280 214,70
215,260 216,60 217,10 222,30
223,40 224,330 225,260 226,2462
227,1571 228,320 229,50 230,10
235,60 236,40 237,430 238,200
239,1942 240,631 241,1201 242,9999
243,2102 244,240 245,20
##END=
