##TITLE=Propanoyl chloride, 2,2-dichloro-
##JCAMP-DX=4.24
##DATA TYPE=MASS SPECTRUM
##OWNER=NIST Mass Spectrometry Data Center
Collection (C) 2014 copyright by the U.S. Secretary of Commerce
on behalf of the United States of America. All rights reserved.
##CAS REGISTRY NO=26073-26-7
##$NIST MASS SPEC NO=5799
##MOLFORM=C3 H3 Cl3 O
##MW=160
##$NIST SOURCE=MSDC
##XUNITS=M/Z
##YUNITS=RELATIVE INTENSITY
##XFACTOR=1
##YFACTOR=1
##FIRSTX=25
##LASTX=125
##FIRSTY=170
##MAXX=125
##MINX=25
##MAXY=9999
##MINY=80
##NPOINTS=34
##PEAK TABLE=(XY..XY)
25,170 26,591 27,981 28,100
29,130 35,280 36,550 37,140
38,220 43,190 44,130 47,160
48,80 49,110 60,200 61,2813
62,751 63,2252 64,280 65,450
77,110 82,110 83,280 85,180
89,100 90,100 91,320 93,100
97,9999 98,290 99,6536 100,160
101,1021 125,100
##END=
