##TITLE=2,6-Dimethyl-2-trans-6-octadiene
##JCAMP-DX=4.24
##DATA TYPE=MASS SPECTRUM
##ORIGIN=F. JUTTNER, INST. CHEM., UNIV. TUBINGEN, TUBINGEN, W. GERMAN
##OWNER=NIST Mass Spectrometry Data Center
Collection (C) 2014 copyright by the U.S. Secretary of Commerce
on behalf of the United States of America. All rights reserved.
##CAS REGISTRY NO=2609-23-6
##$NIST MASS SPEC NO=74037
##MOLFORM=C10 H18
##MW=138
##$NIST SOURCE=MSDC
##XUNITS=M/Z
##YUNITS=RELATIVE INTENSITY
##XFACTOR=1
##YFACTOR=1
##FIRSTX=27
##LASTX=138
##FIRSTY=700
##MAXX=138
##MINX=27
##MAXY=9999
##MINY=100
##NPOINTS=30
##PEAK TABLE=(XY..XY)
27,700 29,500 39,800 41,6600
42,300 43,200 51,200 52,100
53,500 54,100 55,500 56,100
57,100 65,100 67,700 68,400
69,9999 70,1500 77,100 79,100
81,300 82,200 91,100 94,300
95,2500 96,200 109,100 123,800
124,100 138,300
##END=
