##TITLE=2H-1-Benzopyran-2-one, 7-amino-4-methyl-
##JCAMP-DX=4.24
##DATA TYPE=MASS SPECTRUM
##ORIGIN=Japan AIST/NIMC Database- Spectrum MS-NW-2029
##OWNER=NIST Mass Spectrometry Data Center
Collection (C) 2014 copyright by the U.S. Secretary of Commerce
on behalf of the United States of America. All rights reserved.
##CAS REGISTRY NO=26093-31-2
##$NIST MASS SPEC NO=233959
##MOLFORM=C10 H9 N O2
##MW=175
##$NIST SOURCE=MSDC
##XUNITS=M/Z
##YUNITS=RELATIVE INTENSITY
##XFACTOR=1
##YFACTOR=1
##FIRSTX=14
##LASTX=177
##FIRSTY=10
##MAXX=177
##MINX=14
##MAXY=9999
##MINY=10
##NPOINTS=98
##PEAK TABLE=(XY..XY)
14,10 15,40 17,10 18,30
26,30 27,149 28,309 29,20
30,20 32,20 37,60 38,139
39,499 40,129 41,239 42,80
43,60 44,60 45,50 46,149
47,10 49,30 50,239 51,519
52,459 53,149 54,129 55,20
57,20 58,509 59,119 60,20
61,60 62,149 63,299 64,109
65,469 66,109 67,50 68,129
69,10 72,10 73,589 74,139
75,109 76,139 77,379 78,259
79,129 80,109 81,10 85,10
86,30 87,50 88,20 89,209
90,149 91,739 92,149 93,159
94,20 97,10 98,10 99,10
100,10 101,40 102,99 103,99
104,329 105,70 106,50 107,30
108,10 115,10 116,99 117,409
118,1429 119,2479 120,229 121,10
128,30 129,20 130,90 131,30
132,10 133,40 134,10 136,80
145,20 146,1549 147,8109 148,839
149,50 160,10 174,159 175,9999
176,1149 177,90
##END=
