##TITLE=2H-Pyran, tetrahydro-3-methyl-
##JCAMP-DX=4.24
##DATA TYPE=MASS SPECTRUM
##ORIGIN=Japan AIST/NIMC Database- Spectrum MS-NW-8500
##OWNER=NIST Mass Spectrometry Data Center
Collection (C) 2014 copyright by the U.S. Secretary of Commerce
on behalf of the United States of America. All rights reserved.
##CAS REGISTRY NO=26093-63-0
##$NIST MASS SPEC NO=238281
##MOLFORM=C6 H12 O
##MW=100
##$NIST SOURCE=MSDC
##XUNITS=M/Z
##YUNITS=RELATIVE INTENSITY
##XFACTOR=1
##YFACTOR=1
##FIRSTX=14
##LASTX=102
##FIRSTY=10
##MAXX=102
##MINX=14
##MAXY=9999
##MINY=10
##NPOINTS=61
##PEAK TABLE=(XY..XY)
14,10 15,169 16,10 17,10
18,50 19,10 26,159 27,1449
28,479 29,1649 30,80 31,389
32,10 36,10 37,50 38,129
39,1849 40,439 41,3239 42,9999
43,1609 44,389 45,4529 46,109
47,10 50,70 51,109 52,40
53,369 54,349 55,5569 56,389
57,609 58,309 59,70 60,10
61,10 62,10 63,20 65,40
66,20 67,319 68,3909 69,499
70,1359 71,309 72,139 73,109
74,10 79,30 81,219 82,60
83,50 84,20 85,169 86,20
87,20 99,579 100,2479 101,239
102,20
##END=
