##TITLE=Thioxanthene
##JCAMP-DX=4.24
##DATA TYPE=MASS SPECTRUM
##ORIGIN=NIST Mass Spectrometry Data Center, 1990.
##OWNER=NIST Mass Spectrometry Data Center
Collection (C) 2014 copyright by the U.S. Secretary of Commerce
on behalf of the United States of America. All rights reserved.
##CAS REGISTRY NO=261-31-4
##$NIST MASS SPEC NO=113423
##MOLFORM=C13 H10 S
##MW=198
##$NIST SOURCE=MSDC
##XUNITS=M/Z
##YUNITS=RELATIVE INTENSITY
##XFACTOR=1
##YFACTOR=1
##FIRSTX=27
##LASTX=200
##FIRSTY=99
##MAXX=200
##MINX=27
##MAXY=9999
##MINY=37
##NPOINTS=68
##PEAK TABLE=(XY..XY)
27,99 28,175 32,76 38,73
39,239 45,209 50,261 51,281
52,59 61,69 62,242 63,554
64,76 65,66 69,504 70,70
71,62 73,86 74,267 75,255
76,394 77,254 78,60 81,91
82,181 86,326 87,191 88,75
89,182 93,171 94,42 95,59
98,554 99,589 101,94 102,110
110,44 111,49 113,101 114,137
115,185 117,51 121,117 125,49
126,195 127,185 138,53 139,219
145,107 150,185 151,385 152,1082
153,314 158,67 162,66 163,403
164,379 165,2157 166,320 169,104
170,92 171,330 194,37 195,377
197,9999 198,5721 199,1181 200,304
##END=
