##TITLE=3,5-Bis(trifluoromethyl)benzhydrazide
##JCAMP-DX=4.24
##DATA TYPE=MASS SPECTRUM
##ORIGIN=NIST Mass Spectrometry Data Center, 1994
##OWNER=NIST Mass Spectrometry Data Center
Collection (C) 2014 copyright by the U.S. Secretary of Commerce
on behalf of the United States of America. All rights reserved.
##CAS REGISTRY NO=26107-82-4
##$NIST MASS SPEC NO=134597
##MOLFORM=C9 H6 F6 N2 O
##MW=272
##$NIST SOURCE=MSDC
##XUNITS=M/Z
##YUNITS=RELATIVE INTENSITY
##XFACTOR=1
##YFACTOR=1
##FIRSTX=16
##LASTX=273
##FIRSTY=61
##MAXX=273
##MINX=16
##MAXY=9999
##MINY=23
##NPOINTS=71
##PEAK TABLE=(XY..XY)
16,61 29,335 30,204 31,1235
37,33 38,60 44,70 50,205
51,100 52,32 57,97 61,29
62,74 63,79 68,62 69,448
73,52 74,378 75,837 76,61
81,74 85,32 86,34 87,52
88,40 92,35 93,122 94,164
95,46 99,233 100,41 101,50
105,61 106,34 112,31 113,103
117,29 118,33 123,94 124,56
125,382 126,44 143,727 144,830
145,131 162,149 163,1492 164,127
170,38 174,44 175,23 193,228
194,729 195,89 213,6880 214,593
215,36 222,54 223,27 233,102
236,80 238,38 239,53 241,9999
242,908 243,66 253,1195 254,139
257,83 272,2525 273,276
##END=
