##TITLE=2H-Pyran-2-one, tetrahydro-6,6-dimethyl-
##JCAMP-DX=4.24
##DATA TYPE=MASS SPECTRUM
##OWNER=NIST Mass Spectrometry Data Center
Collection (C) 2014 copyright by the U.S. Secretary of Commerce
on behalf of the United States of America. All rights reserved.
##CAS REGISTRY NO=2610-95-9
##$NIST MASS SPEC NO=32330
##MOLFORM=C7 H12 O2
##MW=128
##$NIST SOURCE=MSDC
##XUNITS=M/Z
##YUNITS=RELATIVE INTENSITY
##XFACTOR=1
##YFACTOR=1
##FIRSTX=37
##LASTX=128
##FIRSTY=511
##MAXX=128
##MINX=37
##MAXY=9999
##MINY=58
##NPOINTS=25
##PEAK TABLE=(XY..XY)
37,511 38,1022 39,7466 41,9021
42,6888 43,9999 45,933 50,311
51,400 52,178 53,600 54,222
55,1711 56,5777 57,444 59,222
60,200 67,311 68,200 69,400
70,356 84,133 85,444 113,58
128,133
##END=
