##TITLE=1,3,5-Hexatriene, (Z)-
##JCAMP-DX=4.24
##DATA TYPE=MASS SPECTRUM
##ORIGIN=D.HENNEBERG, MAX-PLANCK INSTITUTE, MULHEIM, WEST GERMANY
##OWNER=NIST Mass Spectrometry Data Center
Collection (C) 2014 copyright by the U.S. Secretary of Commerce
on behalf of the United States of America. All rights reserved.
##CAS REGISTRY NO=2612-46-6
##$NIST MASS SPEC NO=60714
##MOLFORM=C6 H8
##MW=80
##$NIST SOURCE=MSDC
##XUNITS=M/Z
##YUNITS=RELATIVE INTENSITY
##XFACTOR=1
##YFACTOR=1
##FIRSTX=24
##LASTX=83
##FIRSTY=4
##MAXX=83
##MINX=24
##MAXY=9999
##MINY=1
##NPOINTS=55
##PEAK TABLE=(XY..XY)
24,4 25,21 26,314 27,1684
28,844 29,45 30,1 31,37
32,124 34,1 36,25 37,236
38,434 39,2327 40,604 41,614
42,29 43,20 44,29 45,11
48,12 49,124 50,902 51,1402
52,1288 53,746 54,275 55,27
56,6 57,6 59,10 60,15
61,51 62,83 63,193 64,33
65,750 66,56 67,16 68,5
69,12 70,3 71,2 72,7
73,69 74,203 75,249 76,76
77,4283 78,1024 79,9999 80,5282
81,336 82,15 83,4
##END=
