##TITLE=Cyclopentane, 1-ethyl-3-methyl-, cis-
##JCAMP-DX=4.24
##DATA TYPE=MASS SPECTRUM
##OWNER=NIST Mass Spectrometry Data Center
Collection (C) 2014 copyright by the U.S. Secretary of Commerce
on behalf of the United States of America. All rights reserved.
##CAS REGISTRY NO=2613-66-3
##$NIST MASS SPEC NO=1614
##MOLFORM=C8 H16
##MW=112
##$NIST SOURCE=MSDC
##XUNITS=M/Z
##YUNITS=RELATIVE INTENSITY
##XFACTOR=1
##YFACTOR=1
##FIRSTX=2
##LASTX=113
##FIRSTY=30
##MAXX=113
##MINX=2
##MAXY=9999
##MINY=10
##NPOINTS=65
##PEAK TABLE=(XY..XY)
2,30 12,10 13,10 14,30
15,460 16,10 26,220 27,3073
28,721 29,2602 30,60 37,30
38,130 39,2602 40,500 41,6606
42,3543 43,1301 44,70 45,20
46,10 49,10 50,110 51,250
52,110 53,691 54,500 55,9999
56,4884 57,1411 58,80 61,10
62,20 63,40 64,10 65,120
66,70 67,1371 68,280 69,1601
70,2903 71,450 72,30 74,10
75,10 77,100 78,30 79,100
80,20 81,210 82,3263 83,8708
84,2973 85,180 86,10 91,30
92,10 93,10 95,30 96,30
97,571 98,50 111,50 112,641
113,60
##END=
