##TITLE=3-Chloro-4-fluorophenol
##JCAMP-DX=4.24
##DATA TYPE=MASS SPECTRUM
##ORIGIN=NIST Mass Spectrometry Data Center
##OWNER=NIST Mass Spectrometry Data Center
Collection (C) 2014 copyright by the U.S. Secretary of Commerce
on behalf of the United States of America. All rights reserved.
##CAS REGISTRY NO=2613-23-2
##$NIST MASS SPEC NO=343611
##MOLFORM=C6 H4 Cl F O
##MW=146
##$NIST SOURCE=MSDC
##XUNITS=M/Z
##YUNITS=RELATIVE INTENSITY
##XFACTOR=1
##YFACTOR=1
##FIRSTX=12
##LASTX=150
##FIRSTY=10
##MAXX=150
##MINX=12
##MAXY=9999
##MINY=10
##NPOINTS=100
##PEAK TABLE=(XY..XY)
12,10 13,10 14,40 18,10
24,10 25,40 26,90 27,50
28,150 29,220 31,671 32,30
33,30 35,50 36,80 37,300
38,150 39,150 40,10 41,80
42,30 44,20 45,30 47,30
48,60 49,170 50,240 51,140
52,20 53,230 54,20 55,220
56,470 57,1411 58,90 60,130
61,450 62,400 63,911 64,80
65,10 66,40 67,200 68,120
69,100 71,30 72,70 73,550
74,220 75,70 76,10 77,10
78,10 79,50 80,160 81,851
82,1341 83,4894 84,330 85,20
86,50 87,40 89,30 90,30
91,300 92,70 93,220 94,50
96,10 97,40 98,180 99,50
100,60 101,10 102,10 104,20
106,10 107,40 108,10 109,40
110,140 111,180 112,20 115,20
116,20 117,641 118,601 119,210
120,200 126,110 127,10 128,90
129,20 130,10 144,20 146,9999
147,741 148,2933 149,210 150,10
##END=
