##TITLE=Hexaethylene glycol
##JCAMP-DX=4.24
##DATA TYPE=MASS SPECTRUM
##ORIGIN=NIST Mass Spectrometry Data Center, 2007
##OWNER=NIST Mass Spectrometry Data Center
Collection (C) 2014 copyright by the U.S. Secretary of Commerce
on behalf of the United States of America. All rights reserved.
##CAS REGISTRY NO=2615-15-8
##$NIST MASS SPEC NO=352129
##MOLFORM=C12 H26 O7
##MW=282
##$NIST SOURCE=MSDC
##XUNITS=M/Z
##YUNITS=RELATIVE INTENSITY
##XFACTOR=1
##YFACTOR=1
##FIRSTX=14
##LASTX=252
##FIRSTY=10
##MAXX=252
##MINX=14
##MAXY=9999
##MINY=10
##NPOINTS=91
##PEAK TABLE=(XY..XY)
14,10 15,130 16,10 19,170
25,10 26,40 27,380 28,611
29,641 30,110 31,611 32,30
33,10 39,10 40,10 41,120
42,180 43,1131 44,1031 45,9999
46,230 47,30 55,10 56,20
57,170 58,671 59,801 60,60
61,80 62,10 63,10 69,20
70,110 71,130 72,370 73,540
74,50 75,360 76,30 77,120
78,10 80,10 83,10 85,10
86,130 87,1381 88,761 89,3934
90,210 91,30 99,10 100,20
101,290 102,150 103,350 104,50
105,30 107,40 113,10 114,10
115,20 116,20 117,100 118,20
119,130 120,10 121,180 122,10
131,250 132,50 133,961 134,60
135,20 145,10 147,20 148,10
149,20 151,50 161,10 163,100
164,40 165,30 175,60 176,10
177,70 179,20 195,100 196,10
207,30 239,20 252,10
##END=
