##TITLE=Cholan-24-oic acid, 3,7-bis(acetyloxy)-, methyl ester, (3.alpha.,5.beta.,7.alpha.)-
##JCAMP-DX=4.24
##DATA TYPE=MASS SPECTRUM
##ORIGIN=LAC, NIDDK, NIH, Bethesda, MD 20892
##OWNER=NIST Mass Spectrometry Data Center
Collection (C) 2014 copyright by the U.S. Secretary of Commerce
on behalf of the United States of America. All rights reserved.
##CAS REGISTRY NO=2616-71-9
##$NIST MASS SPEC NO=252018
##MOLFORM=C29 H46 O6
##MW=490
##$NIST SOURCE=MSDC
##XUNITS=M/Z
##YUNITS=RELATIVE INTENSITY
##XFACTOR=1
##YFACTOR=1
##FIRSTX=41
##LASTX=431
##FIRSTY=1178
##MAXX=431
##MINX=41
##MAXY=9999
##MINY=27
##NPOINTS=123
##PEAK TABLE=(XY..XY)
41,1178 43,9999 44,333 45,149
53,259 54,123 55,2309 56,129
57,381 59,464 60,149 61,585
65,65 66,29 67,1086 68,278
69,644 70,195 71,122 73,372
74,304 77,305 79,1213 80,139
81,1608 82,69 83,617 85,250
87,209 88,252 91,868 92,170
93,1085 94,425 95,1098 96,158
97,184 99,140 101,240 105,1090
106,335 107,971 108,303 109,560
110,92 111,28 115,251 117,336
118,235 119,572 120,291 121,486
122,212 123,223 127,120 129,228
130,29 131,552 132,267 133,560
134,229 135,331 137,124 141,124
143,246 144,127 145,580 146,164
147,435 148,87 149,202 154,120
155,152 157,297 158,142 159,520
160,258 161,274 162,111 163,99
168,119 169,110 171,312 172,149
173,236 174,156 175,133 177,69
185,246 186,72 187,172 197,70
199,293 200,142 201,230 202,29
208,41 211,56 213,748 214,292
215,257 216,148 222,73 227,110
228,408 229,321 241,114 253,67
254,61 255,1367 256,323 288,27
297,33 315,483 316,149 339,96
355,290 356,98 369,264 370,813
371,263 430,611 431,227
##END=
