##TITLE=Tolmetin
##JCAMP-DX=4.24
##DATA TYPE=MASS SPECTRUM
##ORIGIN=USAF ACADEMY, COLORADO SPRINGS, COLORADO 80840, J LLOYD PFLUG
##OWNER=NIST Mass Spectrometry Data Center
Collection (C) 2014 copyright by the U.S. Secretary of Commerce
on behalf of the United States of America. All rights reserved.
##CAS REGISTRY NO=26171-23-3
##$NIST MASS SPEC NO=80024
##MOLFORM=C15 H15 N O3
##MW=257
##$NIST SOURCE=MSDC
##XUNITS=M/Z
##YUNITS=RELATIVE INTENSITY
##XFACTOR=1
##YFACTOR=1
##FIRSTX=12
##LASTX=257
##FIRSTY=86
##MAXX=257
##MINX=12
##MAXY=9999
##MINY=7
##NPOINTS=114
##PEAK TABLE=(XY..XY)
12,86 15,317 26,151 27,512
29,757 30,100 31,793 37,79
38,144 39,858 40,137 41,295
42,793 43,771 44,1782 45,187
46,201 50,223 51,548 52,591
53,2207 54,317 55,65 56,201
57,122 58,79 62,144 63,476
64,201 65,1522 66,324 67,555
68,137 69,7 70,57 72,72
74,100 75,108 76,130 77,396
78,404 79,396 81,72 82,14
84,122 85,144 86,108 89,432
90,310 91,2272 92,1031 94,771
95,108 96,7 97,35 98,165
99,28 102,86 103,122 105,829
106,367 107,93 108,122 110,93
114,72 115,108 116,79 117,79
118,93 119,923 120,534 121,108
122,3643 123,367 124,79 126,130
127,165 128,295 139,100 140,79
141,144 142,86 143,93 152,130
153,72 154,158 155,100 166,86
167,194 168,230 169,122 170,144
180,137 181,324 182,216 183,324
184,721 185,216 194,165 195,252
196,1140 197,1262 198,3578 199,577
200,72 210,252 211,223 212,9999
213,7222 214,1053 215,108 242,86
256,108 257,108
##END=
