##TITLE=(S)-(+)-2-Pentanol
##JCAMP-DX=4.24
##DATA TYPE=MASS SPECTRUM
##ORIGIN=NIST Mass Spectrometry Data Center
##OWNER=NIST Mass Spectrometry Data Center
Collection (C) 2014 copyright by the U.S. Secretary of Commerce
on behalf of the United States of America. All rights reserved.
##CAS REGISTRY NO=26184-62-3
##$NIST MASS SPEC NO=342770
##MOLFORM=C5 H12 O
##MW=88
##$NIST SOURCE=MSDC
##XUNITS=M/Z
##YUNITS=RELATIVE INTENSITY
##XFACTOR=1
##YFACTOR=1
##FIRSTX=14
##LASTX=87
##FIRSTY=50
##MAXX=87
##MINX=14
##MAXY=9999
##MINY=10
##NPOINTS=37
##PEAK TABLE=(XY..XY)
14,50 15,450 16,20 19,260
26,180 27,1311 28,340 29,1041
31,611 32,30 35,10 37,50
38,120 39,761 40,100 41,751
42,360 43,1822 44,1001 45,9999
46,200 47,30 50,20 51,40
52,10 53,60 55,1732 56,80
57,140 58,40 67,10 69,30
70,180 71,60 73,741 74,10
87,40
##END=
