##TITLE=Benzenesulfonamide, N-(phenylsulfonyl)-
##JCAMP-DX=4.24
##DATA TYPE=MASS SPECTRUM
##ORIGIN=MASS SPECTROMETRY CENTER, UNIV. OF UTAH ALDRICH 10192-3
##OWNER=NIST Mass Spectrometry Data Center
Collection (C) 2014 copyright by the U.S. Secretary of Commerce
on behalf of the United States of America. All rights reserved.
##CAS REGISTRY NO=2618-96-4
##$NIST MASS SPEC NO=52472
##MOLFORM=C12 H11 N O4 S2
##MW=297
##$NIST SOURCE=MSDC
##XUNITS=M/Z
##YUNITS=RELATIVE INTENSITY
##XFACTOR=1
##YFACTOR=1
##FIRSTX=26
##LASTX=298
##FIRSTY=150
##MAXX=298
##MINX=26
##MAXY=9999
##MINY=5
##NPOINTS=67
##PEAK TABLE=(XY..XY)
26,150 27,563 35,84 36,238
37,142 38,397 39,1190 41,23
45,79 46,92 48,233 49,113
50,1730 51,6494 52,454 53,209
57,5 59,13 62,46 63,265
64,566 65,1371 66,329 67,92
68,164 69,212 71,29 74,356
75,332 76,595 77,9999 78,1795
79,116 81,92 89,28 91,149
92,1778 93,415 94,1850 95,168
97,299 100,67 108,402 109,174
110,301 112,41 115,89 125,505
126,181 127,65 140,6804 141,5931
142,900 143,337 152,149 153,112
154,110 157,191 167,165 168,554
169,172 173,256 233,2133 234,209
235,67 297,539 298,98
##END=
