##TITLE=Dibenzo-p-dioxin
##JCAMP-DX=4.24
##DATA TYPE=MASS SPECTRUM
##ORIGIN=Japan AIST/NIMC Database- Spectrum MS-IW-1130
##OWNER=NIST Mass Spectrometry Data Center
Collection (C) 2014 copyright by the U.S. Secretary of Commerce
on behalf of the United States of America. All rights reserved.
##CAS REGISTRY NO=262-12-4
##$NIST MASS SPEC NO=230898
##MOLFORM=C12 H8 O2
##MW=184
##$NIST SOURCE=MSDC
##XUNITS=M/Z
##YUNITS=RELATIVE INTENSITY
##XFACTOR=1
##YFACTOR=1
##FIRSTX=26
##LASTX=186
##FIRSTY=20
##MAXX=186
##MINX=26
##MAXY=9999
##MINY=10
##NPOINTS=49
##PEAK TABLE=(XY..XY)
26,20 28,20 32,60 37,10
38,30 39,30 50,149 51,249
52,149 53,30 54,10 55,10
61,10 62,30 63,199 64,209
65,10 74,80 75,99 76,139
77,99 78,50 79,60 80,20
89,10 91,10 92,1009 93,10
101,60 102,379 103,30 104,40
105,10 107,20 126,90 127,389
128,1329 129,149 130,60 139,50
145,20 155,389 156,269 157,30
158,10 183,80 184,9999 185,1319
186,119
##END=
