##TITLE=Phenoxathiin
##JCAMP-DX=4.24
##DATA TYPE=MASS SPECTRUM
##ORIGIN=Japan AIST/NIMC Database- Spectrum MS-IW-1066
##OWNER=NIST Mass Spectrometry Data Center
Collection (C) 2014 copyright by the U.S. Secretary of Commerce
on behalf of the United States of America. All rights reserved.
##CAS REGISTRY NO=262-20-4
##$NIST MASS SPEC NO=240287
##MOLFORM=C12 H8 O S
##MW=200
##$NIST SOURCE=MSDC
##XUNITS=M/Z
##YUNITS=RELATIVE INTENSITY
##XFACTOR=1
##YFACTOR=1
##FIRSTX=28
##LASTX=204
##FIRSTY=109
##MAXX=204
##MINX=28
##MAXY=9999
##MINY=10
##NPOINTS=93
##PEAK TABLE=(XY..XY)
28,109 31,10 32,40 37,10
38,30 39,90 44,30 45,90
50,80 51,99 52,30 53,20
58,30 61,10 62,40 63,169
64,109 65,20 69,299 70,129
71,30 72,60 73,50 74,60
75,70 76,50 77,109 78,40
81,10 82,60 84,30 85,259
86,119 87,149 88,20 89,80
90,10 92,10 93,50 94,20
95,99 96,50 97,10 98,10
99,10 100,609 101,90 102,129
103,10 108,50 113,40 114,40
115,60 120,20 121,30 123,10
125,10 126,99 127,469 128,229
129,20 131,10 134,10 137,20
138,30 139,649 140,129 141,40
142,30 145,119 146,109 147,20
155,189 156,119 157,10 161,10
166,10 167,10 168,3309 169,509
170,239 171,2369 172,1109 173,229
174,90 175,10 198,10 199,419
200,9999 201,1409 202,549 203,60
204,10
##END=
