##TITLE=N6,N6-Dimethyladenosine
##JCAMP-DX=4.24
##DATA TYPE=MASS SPECTRUM
##OWNER=NIST Mass Spectrometry Data Center
Collection (C) 2014 copyright by the U.S. Secretary of Commerce
on behalf of the United States of America. All rights reserved.
##CAS REGISTRY NO=2620-62-4
##$NIST MASS SPEC NO=14100
##MOLFORM=C12 H17 N5 O4
##MW=295
##$NIST SOURCE=MSDC
##XUNITS=M/Z
##YUNITS=RELATIVE INTENSITY
##XFACTOR=1
##YFACTOR=1
##FIRSTX=41
##LASTX=296
##FIRSTY=300
##MAXX=296
##MINX=41
##MAXY=9999
##MINY=100
##NPOINTS=85
##PEAK TABLE=(XY..XY)
41,300 42,601 43,500 44,1101
45,300 51,100 52,200 53,200
54,100 55,300 56,100 57,300
58,100 59,100 60,100 61,200
65,100 66,300 67,300 68,100
69,200 70,100 71,200 73,300
74,100 75,100 77,100 78,100
79,300 80,200 81,200 82,100
83,100 85,100 91,100 92,200
93,701 94,400 95,100 96,100
97,100 105,100 106,200 107,200
108,100 118,100 119,601 120,1101
121,500 122,200 123,100 133,200
134,9999 135,1001 136,100 145,100
147,100 148,2803 149,400 160,100
161,100 162,701 163,5305 164,4904
165,400 174,100 176,701 177,200
190,300 191,200 192,5605 193,701
204,100 205,200 206,2702 207,400
218,100 222,100 248,100 264,100
265,300 266,100 278,100 295,2002
296,300
##END=
