##TITLE=N-.alpha.-Acetylglycinamide
##JCAMP-DX=4.24
##DATA TYPE=MASS SPECTRUM
##ORIGIN=Japan AIST/NIMC Database- Spectrum MS-IW- 32
##OWNER=NIST Mass Spectrometry Data Center
Collection (C) 2014 copyright by the U.S. Secretary of Commerce
on behalf of the United States of America. All rights reserved.
##CAS REGISTRY NO=2620-63-5
##$NIST MASS SPEC NO=239262
##MOLFORM=C4 H8 N2 O2
##MW=116
##$NIST SOURCE=MSDC
##XUNITS=M/Z
##YUNITS=RELATIVE INTENSITY
##XFACTOR=1
##YFACTOR=1
##FIRSTX=13
##LASTX=118
##FIRSTY=10
##MAXX=118
##MINX=13
##MAXY=9999
##MINY=10
##NPOINTS=45
##PEAK TABLE=(XY..XY)
13,10 14,119 15,719 16,80
17,20 18,99 26,30 27,99
28,1169 29,339 30,8169 31,989
32,129 38,10 39,20 40,60
41,119 42,659 43,6879 44,1369
45,289 46,30 51,10 52,10
53,10 54,70 55,80 56,369
57,169 58,499 59,50 71,30
72,4199 73,9999 74,519 75,50
83,10 87,10 98,20 99,40
100,90 101,40 116,40 117,119
118,20
##END=
