##TITLE=1,3-Benzodioxole, 5-nitro-
##JCAMP-DX=4.24
##DATA TYPE=MASS SPECTRUM
##ORIGIN=Japan AIST/NIMC Database- Spectrum MS-NW-7900
##OWNER=NIST Mass Spectrometry Data Center
Collection (C) 2014 copyright by the U.S. Secretary of Commerce
on behalf of the United States of America. All rights reserved.
##CAS REGISTRY NO=2620-44-2
##$NIST MASS SPEC NO=236636
##MOLFORM=C7 H5 N O4
##MW=167
##$NIST SOURCE=MSDC
##XUNITS=M/Z
##YUNITS=RELATIVE INTENSITY
##XFACTOR=1
##YFACTOR=1
##FIRSTX=14
##LASTX=170
##FIRSTY=30
##MAXX=170
##MINX=14
##MAXY=9999
##MINY=10
##NPOINTS=74
##PEAK TABLE=(XY..XY)
14,30 25,40 26,90 27,50
28,309 29,189 30,229 31,30
32,10 36,20 37,309 38,269
39,1029 40,30 41,30 42,70
43,10 46,40 48,20 49,119
50,449 51,689 52,99 53,929
54,70 55,80 60,40 61,469
62,1319 63,2769 64,289 65,3149
66,189 67,20 68,10 69,50
73,10 74,50 75,40 76,60
77,99 78,40 79,739 80,60
81,20 90,40 91,1289 92,179
93,20 105,30 106,10 107,1209
108,129 109,119 110,10 119,109
120,779 121,2889 122,219 123,20
135,10 136,20 137,1359 138,119
139,10 150,10 151,169 152,20
165,10 166,629 167,9999 168,839
169,119 170,10
##END=
