##TITLE=4-Tridecanone
##JCAMP-DX=4.24
##DATA TYPE=MASS SPECTRUM
##ORIGIN=NIST Mass Spectrometry Data Center, 1990.
##OWNER=NIST Mass Spectrometry Data Center
Collection (C) 2014 copyright by the U.S. Secretary of Commerce
on behalf of the United States of America. All rights reserved.
##CAS REGISTRY NO=26215-90-7
##$NIST MASS SPEC NO=114083
##MOLFORM=C13 H26 O
##MW=198
##$NIST SOURCE=MSDC
##XUNITS=M/Z
##YUNITS=RELATIVE INTENSITY
##XFACTOR=1
##YFACTOR=1
##FIRSTX=14
##LASTX=198
##FIRSTY=122
##MAXX=198
##MINX=14
##MAXY=9999
##MINY=97
##NPOINTS=46
##PEAK TABLE=(XY..XY)
14,122 27,1266 28,1272 29,1293
32,300 39,1104 41,4785 42,1552
43,8072 44,302 45,127 53,438
55,2693 56,728 57,2828 58,5248
59,262 67,560 68,283 69,966
70,262 71,9999 72,473 79,118
81,771 82,189 83,364 84,250
85,1897 86,7107 87,2383 88,149
95,876 96,160 97,140 98,140
99,1882 100,184 110,314 112,97
113,330 128,127 137,137 155,2890
156,315 198,157
##END=
