##TITLE=Carbamic acid, (4-nitrophenyl)-, ethyl ester
##JCAMP-DX=4.24
##DATA TYPE=MASS SPECTRUM
##ORIGIN=Japan AIST/NIMC Database- Spectrum MS-IW-6722
##OWNER=NIST Mass Spectrometry Data Center
Collection (C) 2014 copyright by the U.S. Secretary of Commerce
on behalf of the United States of America. All rights reserved.
##CAS REGISTRY NO=2621-73-0
##$NIST MASS SPEC NO=242016
##MOLFORM=C9 H10 N2 O4
##MW=210
##$NIST SOURCE=MSDC
##XUNITS=M/Z
##YUNITS=RELATIVE INTENSITY
##XFACTOR=1
##YFACTOR=1
##FIRSTX=13
##LASTX=212
##FIRSTY=10
##MAXX=212
##MINX=13
##MAXY=9999
##MINY=10
##NPOINTS=103
##PEAK TABLE=(XY..XY)
13,10 14,40 15,80 17,50
18,209 19,60 24,10 25,30
26,229 27,639 28,359 29,1039
30,519 31,2399 32,30 36,20
37,389 38,439 39,1029 40,119
41,50 42,109 43,309 44,159
45,1639 46,789 47,30 49,70
50,469 51,529 52,369 53,80
54,50 56,10 60,20 61,279
62,659 63,2049 64,1019 65,289
66,40 67,30 68,20 73,50
74,209 75,199 76,159 77,109
78,689 79,99 80,129 81,30
86,20 87,99 88,189 89,239
90,5719 91,539 92,329 93,40
99,10 103,10 104,50 105,269
106,1309 107,99 108,349 109,30
116,10 117,60 118,1299 119,139
120,30 121,50 122,40 132,10
134,3499 135,329 136,70 137,10
138,1189 139,80 144,10 148,479
149,50 150,10 151,1209 152,99
153,10 160,10 163,10 164,9999
165,1129 166,129 181,10 182,80
183,10 193,10 194,40 195,10
210,4059 211,459 212,60
##END=
