##TITLE=Carbamic acid, (2-nitrophenyl)-, ethyl ester
##JCAMP-DX=4.24
##DATA TYPE=MASS SPECTRUM
##OWNER=NIST Mass Spectrometry Data Center
Collection (C) 2014 copyright by the U.S. Secretary of Commerce
on behalf of the United States of America. All rights reserved.
##CAS REGISTRY NO=2621-84-3
##$NIST MASS SPEC NO=32685
##MOLFORM=C9 H10 N2 O4
##MW=210
##$NIST SOURCE=MSDC
##XUNITS=M/Z
##YUNITS=RELATIVE INTENSITY
##XFACTOR=1
##YFACTOR=1
##FIRSTX=26
##LASTX=212
##FIRSTY=385
##MAXX=212
##MINX=26
##MAXY=9999
##MINY=77
##NPOINTS=59
##PEAK TABLE=(XY..XY)
26,385 27,1423 28,615 29,6480
30,346 37,115 38,308 39,846
40,115 41,173 42,96 43,231
44,500 45,154 50,288 51,500
52,865 53,250 62,154 63,885
64,942 65,2538 66,423 76,154
77,538 78,596 79,423 80,1115
90,1461 91,1154 92,7307 93,1038
94,115 103,231 104,346 105,538
106,442 107,154 108,1038 109,115
117,77 118,288 119,192 120,250
121,1884 122,346 132,115 135,96
136,2500 137,231 138,9538 139,692
148,250 149,96 164,1077 165,577
210,9999 211,1000 212,135
##END=
