##TITLE=Carbamic acid, (4-chlorophenyl)-, ethyl ester
##JCAMP-DX=4.24
##DATA TYPE=MASS SPECTRUM
##ORIGIN=R.S.Borisov, V.G.Zaikin, Russian Friendship University, Moscow
##OWNER=NIST Mass Spectrometry Data Center
Collection (C) 2014 copyright by the U.S. Secretary of Commerce
on behalf of the United States of America. All rights reserved.
##CAS REGISTRY NO=2621-80-9
##$NIST MASS SPEC NO=343971
##MOLFORM=C9 H10 Cl N O2
##MW=199
##$NIST SOURCE=MSDC
##XUNITS=M/Z
##YUNITS=RELATIVE INTENSITY
##XFACTOR=1
##YFACTOR=1
##FIRSTX=26
##LASTX=202
##FIRSTY=30
##MAXX=202
##MINX=26
##MAXY=9999
##MINY=20
##NPOINTS=78
##PEAK TABLE=(XY..XY)
26,30 27,450 29,2672 30,60
31,30 36,20 37,20 38,110
39,200 41,30 43,20 44,60
45,300 49,20 50,120 51,100
52,50 61,40 62,150 63,561
64,310 65,430 66,40 73,370
74,80 75,490 76,90 77,190
78,50 85,30 88,20 89,80
90,550 91,470 92,591 93,110
98,30 99,1531 100,540 101,510
102,160 103,20 104,70 105,180
111,490 112,100 113,210 114,40
118,40 119,70 120,180 125,460
126,2532 127,9769 128,1541 129,3293
130,210 135,20 136,20 138,60
139,60 140,6746 141,581 142,2292
143,160 153,1191 154,961 155,470
156,310 157,20 170,80 171,861
172,90 173,290 199,9999 200,1051
201,3453 202,330
##END=
