##TITLE=Benzene, 1-chloro-4-(1-methylethyl)-
##JCAMP-DX=4.24
##DATA TYPE=MASS SPECTRUM
##OWNER=NIST Mass Spectrometry Data Center
Collection (C) 2014 copyright by the U.S. Secretary of Commerce
on behalf of the United States of America. All rights reserved.
##CAS REGISTRY NO=2621-46-7
##$NIST MASS SPEC NO=5158
##MOLFORM=C9 H11 Cl
##MW=154
##$NIST SOURCE=MSDC
##XUNITS=M/Z
##YUNITS=RELATIVE INTENSITY
##XFACTOR=1
##YFACTOR=1
##FIRSTX=14
##LASTX=158
##FIRSTY=10
##MAXX=158
##MINX=14
##MAXY=9999
##MINY=10
##NPOINTS=105
##PEAK TABLE=(XY..XY)
14,10 15,70 17,10 18,30
26,30 27,571 28,50 32,10
37,60 38,160 39,831 40,60
41,901 42,50 47,10 49,80
50,861 51,2502 52,300 53,130
54,10 55,30 56,30 57,180
58,320 59,40 60,20 61,120
62,230 63,561 64,70 65,210
66,20 67,10 68,140 69,270
70,100 71,10 72,20 73,260
74,430 75,1171 76,480 77,3343
78,550 79,200 80,10 84,50
85,140 86,100 87,140 88,40
89,330 90,80 91,1091 92,90
93,10 94,10 96,10 97,50
98,50 99,190 100,50 101,671
102,861 103,9999 104,1441 105,100
108,10 109,10 110,20 111,200
112,270 113,260 114,130 115,440
116,110 117,160 118,40 119,1982
120,240 121,20 123,40 124,10
125,691 126,60 127,220 128,20
136,80 137,220 138,390 139,7737
140,1000 141,2737 142,691 143,30
149,20 151,10 152,30 153,140
154,7206 155,781 156,2352 157,240
158,10
##END=
