##TITLE=4-sec-Butyl-2-(.alpha.-methylbenzyl)phenol
##JCAMP-DX=4.24
##DATA TYPE=MASS SPECTRUM
##ORIGIN=NIST Mass Spectrometry Data Center, 1994
##OWNER=NIST Mass Spectrometry Data Center
Collection (C) 2014 copyright by the U.S. Secretary of Commerce
on behalf of the United States of America. All rights reserved.
##CAS REGISTRY NO=2622-83-5
##$NIST MASS SPEC NO=135287
##MOLFORM=C18 H22 O
##MW=254
##$NIST SOURCE=MSDC
##XUNITS=M/Z
##YUNITS=RELATIVE INTENSITY
##XFACTOR=1
##YFACTOR=1
##FIRSTX=15
##LASTX=256
##FIRSTY=166
##MAXX=256
##MINX=15
##MAXY=9999
##MINY=19
##NPOINTS=149
##PEAK TABLE=(XY..XY)
15,166 17,30 18,140 19,33
27,1817 28,212 29,1877 30,59
39,1018 40,152 41,1372 42,79
43,302 44,27 50,208 51,967
52,276 53,538 54,27 55,787
56,59 57,381 58,34 62,84
63,398 64,154 65,729 66,134
67,92 69,83 70,40 71,19
74,42 75,156 76,429 77,2181
78,714 79,1202 80,100 81,67
82,207 84,75 85,28 86,27
87,65 88,19 89,590 90,19
91,2680 92,254 93,106 95,153
96,89 97,362 98,299 101,132
102,265 103,1215 104,959 105,3720
106,315 107,714 108,77 111,29
113,285 115,1041 116,234 117,421
118,29 119,723 120,181 121,156
126,105 127,448 128,725 129,328
130,82 131,297 132,421 133,487
134,80 135,23 139,171 141,230
142,58 143,31 144,42 145,135
146,23 147,8094 148,909 149,162
150,66 151,180 152,608 153,377
154,140 155,128 156,32 157,27
161,209 162,36 163,95 164,27
165,1166 166,364 167,197 168,66
169,102 175,41 176,144 177,199
178,432 179,234 180,41 181,529
182,179 183,250 184,36 189,157
190,110 191,163 192,78 193,57
194,153 195,200 196,53 197,146
198,39 202,64 203,60 204,22
205,32 207,109 209,202 210,74
211,66 221,22 223,126 225,9999
226,1785 227,172 237,34 239,868
240,186 241,21 254,2884 255,592
256,65
##END=
