##TITLE=Benzenamine, 4-butyl-N-[(4-methoxyphenyl)methylene]-
##JCAMP-DX=4.24
##DATA TYPE=MASS SPECTRUM
##ORIGIN=NIST Mass Spectrometry Data Center, 1994
##OWNER=NIST Mass Spectrometry Data Center
Collection (C) 2014 copyright by the U.S. Secretary of Commerce
on behalf of the United States of America. All rights reserved.
##CAS REGISTRY NO=26227-73-6
##$NIST MASS SPEC NO=135819
##MOLFORM=C18 H21 N O
##MW=267
##$NIST SOURCE=MSDC
##XUNITS=M/Z
##YUNITS=RELATIVE INTENSITY
##XFACTOR=1
##YFACTOR=1
##FIRSTX=15
##LASTX=269
##FIRSTY=660
##MAXX=269
##MINX=15
##MAXY=9999
##MINY=13
##NPOINTS=120
##PEAK TABLE=(XY..XY)
15,660 17,16 18,41 27,843
28,111 29,207 38,60 39,600
41,720 42,41 43,364 50,157
51,587 52,113 53,91 54,19
55,74 56,37 57,21 62,61
63,385 64,249 65,543 66,54
75,84 76,249 77,949 78,287
79,110 80,15 82,28 83,79
87,18 89,965 90,997 91,684
92,141 93,43 96,64 97,127
98,14 101,45 102,134 103,311
104,111 105,63 106,29 107,26
108,27 112,132 114,31 115,208
116,211 117,91 118,38 119,67
120,17 121,94 126,29 127,82
128,94 129,42 130,88 131,24
133,57 134,43 135,15 138,16
139,84 140,63 141,36 142,30
146,44 151,79 152,232 153,154
154,148 155,41 158,21 163,17
164,36 165,99 166,199 167,152
168,55 177,27 178,92 180,1329
181,897 182,135 190,24 191,63
192,65 193,100 194,65 195,39
196,35 197,100 198,15 206,19
207,23 208,139 209,404 210,149
211,51 220,16 221,24 222,76
223,16 224,9999 225,1840 226,182
235,33 236,101 237,31 238,32
250,13 267,3357 268,673 269,73
##END=
