##TITLE=4-Bromobutyric acid
##JCAMP-DX=4.24
##DATA TYPE=MASS SPECTRUM
##ORIGIN=Japan AIST/NIMC Database- Spectrum MS-NW-9336
##OWNER=NIST Mass Spectrometry Data Center
Collection (C) 2014 copyright by the U.S. Secretary of Commerce
on behalf of the United States of America. All rights reserved.
##CAS REGISTRY NO=2623-87-2
##$NIST MASS SPEC NO=236803
##MOLFORM=C4 H7 Br O2
##MW=166
##$NIST SOURCE=MSDC
##XUNITS=M/Z
##YUNITS=RELATIVE INTENSITY
##XFACTOR=1
##YFACTOR=1
##FIRSTX=13
##LASTX=169
##FIRSTY=10
##MAXX=169
##MINX=13
##MAXY=9999
##MINY=10
##NPOINTS=75
##PEAK TABLE=(XY..XY)
13,10 14,109 15,519 16,10
17,10 18,30 25,30 26,339
27,1489 28,2319 29,1089 30,50
31,189 32,10 34,10 35,10
36,10 37,70 38,149 39,859
40,289 41,2159 42,2549 43,3379
44,139 45,1729 46,30 53,40
54,20 55,319 56,729 57,209
58,999 59,99 60,9999 61,229
62,40 68,50 69,119 71,20
73,70 79,149 80,459 81,159
82,449 85,329 86,829 87,1749
88,80 89,10 93,90 94,10
95,90 96,10 99,70 100,10
105,10 106,20 107,80 108,20
109,70 119,10 121,40 122,10
123,30 127,10 128,20 148,40
149,60 150,40 151,60 166,10
167,20 168,10 169,20
##END=
