##TITLE=Diacetamate
##JCAMP-DX=4.24
##DATA TYPE=MASS SPECTRUM
##ORIGIN=Japan AIST/NIMC Database- Spectrum MS-NW-4224
##OWNER=NIST Mass Spectrometry Data Center
Collection (C) 2014 copyright by the U.S. Secretary of Commerce
on behalf of the United States of America. All rights reserved.
##CAS REGISTRY NO=2623-33-8
##$NIST MASS SPEC NO=232261
##MOLFORM=C10 H11 N O3
##MW=193
##$NIST SOURCE=MSDC
##XUNITS=M/Z
##YUNITS=RELATIVE INTENSITY
##XFACTOR=1
##YFACTOR=1
##FIRSTX=13
##LASTX=195
##FIRSTY=10
##MAXX=195
##MINX=13
##MAXY=9999
##MINY=10
##NPOINTS=80
##PEAK TABLE=(XY..XY)
13,10 14,90 15,529 16,30
17,20 18,70 26,80 27,129
28,60 29,50 30,10 31,30
37,30 38,90 39,179 40,30
41,50 42,199 43,3339 44,99
45,10 49,10 50,90 51,169
52,489 53,559 54,109 55,50
61,30 62,60 63,169 64,90
65,159 66,30 67,10 68,20
74,30 75,20 76,30 77,70
78,70 79,119 80,779 81,459
82,60 89,10 90,20 91,60
92,40 93,30 94,20 102,50
103,40 104,90 105,90 106,20
107,80 108,1059 109,9999 110,809
111,50 120,30 121,10 122,60
128,20 129,119 130,10 132,70
133,40 134,40 135,80 149,10
150,159 151,4999 152,489 153,40
178,30 193,789 194,80 195,10
##END=
