##TITLE=7-Dehydrocholesterin, TMS derivative
##JCAMP-DX=4.24
##DATA TYPE=MASS SPECTRUM
##ORIGIN=BROOKS/HORNING, INST. LIPID RES., BAYLOR U.C., HOUSTON TEXAS
##OWNER=NIST Mass Spectrometry Data Center
Collection (C) 2014 copyright by the U.S. Secretary of Commerce
on behalf of the United States of America. All rights reserved.
##CAS REGISTRY NO=2625-44-7
##$NIST MASS SPEC NO=17750
##MOLFORM=C30 H52 O Si
##MW=456
##$NIST SOURCE=MSDC
##XUNITS=M/Z
##YUNITS=RELATIVE INTENSITY
##XFACTOR=1
##YFACTOR=1
##FIRSTX=75
##LASTX=458
##FIRSTY=1000
##MAXX=458
##MINX=75
##MAXY=9999
##MINY=300
##NPOINTS=29
##PEAK TABLE=(XY..XY)
75,1000 83,500 97,500 119,1550
129,650 131,2200 143,900 144,2000
145,1300 157,700 158,1000 159,1000
169,600 171,700 185,700 199,1250
211,1000 227,700 253,1000 325,8000
326,2400 351,9999 352,2900 364,2900
366,1000 441,300 456,3700 457,1500
458,500
##END=
