##TITLE=D-Mannonic acid, .gamma.-lactone
##JCAMP-DX=4.24
##DATA TYPE=MASS SPECTRUM
##ORIGIN=Japan AIST/NIMC Database- Spectrum MS-IW- 835
##OWNER=NIST Mass Spectrometry Data Center
Collection (C) 2014 copyright by the U.S. Secretary of Commerce
on behalf of the United States of America. All rights reserved.
##CAS REGISTRY NO=26301-79-1
##$NIST MASS SPEC NO=237042
##MOLFORM=C6 H10 O6
##MW=178
##$NIST SOURCE=MSDC
##XUNITS=M/Z
##YUNITS=RELATIVE INTENSITY
##XFACTOR=1
##YFACTOR=1
##FIRSTX=14
##LASTX=180
##FIRSTY=40
##MAXX=180
##MINX=14
##MAXY=9999
##MINY=10
##NPOINTS=121
##PEAK TABLE=(XY..XY)
14,40 15,339 17,80 18,509
19,99 26,119 27,419 28,539
29,1039 30,359 31,1359 32,90
33,10 37,20 38,30 39,309
40,80 41,419 42,719 43,2749
44,1599 45,1079 46,40 47,90
49,20 50,20 51,30 52,30
53,60 54,339 55,679 56,569
57,1249 58,709 59,239 60,2329
61,5609 62,189 63,40 65,20
66,20 67,20 68,129 69,479
70,259 71,3459 72,3119 73,9999
74,739 75,109 76,979 77,50
78,10 79,70 80,30 81,40
82,40 83,499 84,179 85,2309
86,459 87,199 88,50 89,539
90,209 91,479 92,30 93,20
94,20 95,40 96,60 97,129
98,80 99,40 100,3149 101,689
102,139 103,1519 104,90 105,20
107,10 108,10 109,20 110,20
111,30 112,50 113,80 114,779
115,80 116,20 117,20 118,229
119,1069 120,60 121,70 123,10
124,10 125,30 126,10 127,10
129,30 131,30 132,129 133,179
134,10 136,10 137,10 138,10
139,10 141,20 142,569 143,40
147,689 148,119 149,50 160,639
161,50 162,10 178,219 179,99
180,10
##END=
