##TITLE=Phenol, 2-(1-methylethyl)-, methylcarbamate
##JCAMP-DX=4.24
##DATA TYPE=MASS SPECTRUM
##ORIGIN=NIST Mass Spectrometry Data Center, 1998.
##OWNER=NIST Mass Spectrometry Data Center
Collection (C) 2014 copyright by the U.S. Secretary of Commerce
on behalf of the United States of America. All rights reserved.
##CAS REGISTRY NO=2631-40-5
##$NIST MASS SPEC NO=291663
##MOLFORM=C11 H15 N O2
##MW=193
##$NIST SOURCE=MSDC
##XUNITS=M/Z
##YUNITS=RELATIVE INTENSITY
##XFACTOR=1
##YFACTOR=1
##FIRSTX=15
##LASTX=194
##FIRSTY=90
##MAXX=194
##MINX=15
##MAXY=9999
##MINY=10
##NPOINTS=81
##PEAK TABLE=(XY..XY)
15,90 26,10 27,120 28,180
29,60 30,20 37,10 38,40
39,390 40,60 41,250 42,20
43,40 44,10 45,10 50,100
51,310 52,100 53,150 54,20
55,100 56,110 57,220 58,630
59,20 61,10 62,60 63,210
64,70 65,490 66,100 67,40
68,10 74,40 75,70 76,50
77,1180 78,220 79,160 80,10
81,10 86,10 87,10 89,130
90,50 91,1720 92,230 93,350
94,100 95,120 96,10 101,40
102,150 103,1050 104,130 105,120
106,20 107,460 108,40 115,250
116,50 117,80 118,40 119,180
120,220 121,9999 122,950 123,60
131,10 132,10 133,40 134,30
135,90 136,4170 137,420 138,30
146,10 150,10 162,30 193,70
194,10
##END=
