##TITLE=Benzoic acid, 4-pentyl-
##JCAMP-DX=4.24
##DATA TYPE=MASS SPECTRUM
##ORIGIN=NIST Mass Spectrometry Data Center, 1994
##OWNER=NIST Mass Spectrometry Data Center
Collection (C) 2014 copyright by the U.S. Secretary of Commerce
on behalf of the United States of America. All rights reserved.
##CAS REGISTRY NO=26311-45-5
##$NIST MASS SPEC NO=135547
##MOLFORM=C12 H16 O2
##MW=192
##$NIST SOURCE=MSDC
##XUNITS=M/Z
##YUNITS=RELATIVE INTENSITY
##XFACTOR=1
##YFACTOR=1
##FIRSTX=15
##LASTX=194
##FIRSTY=56
##MAXX=194
##MINX=15
##MAXY=9999
##MINY=21
##NPOINTS=111
##PEAK TABLE=(XY..XY)
15,56 17,21 24,35 27,2883
29,3053 30,35 35,74 36,50
37,70 38,232 39,2340 40,59
41,3309 42,368 43,231 44,35
45,438 46,52 50,516 51,1398
52,332 53,591 54,85 55,439
56,149 57,953 58,54 59,32
61,74 62,311 63,1364 64,468
65,1268 66,159 67,96 69,75
70,91 71,48 73,73 74,119
75,439 76,399 77,3710 78,790
79,1224 80,83 81,129 82,58
83,71 86,51 87,132 89,2187
90,2552 91,8615 92,8093 93,766
94,147 96,62 98,43 101,119
102,408 103,969 104,353 105,1685
106,43 107,5304 108,504 109,59
111,60 113,51 114,67 115,1063
116,262 117,576 118,1676 119,688
120,121 121,90 122,220 123,172
124,77 126,61 127,92 128,126
129,70 130,51 131,730 132,136
133,80 134,61 135,8615 136,9999
137,1045 138,187 145,60 146,128
147,883 148,327 149,948 150,172
151,30 156,109 159,32 163,272
164,66 174,82 175,267 177,135
192,5080 193,675 194,40
##END=
