##TITLE=Benzene, (1,1,2-trimethylpropyl)-
##JCAMP-DX=4.24
##DATA TYPE=MASS SPECTRUM
##OWNER=NIST Mass Spectrometry Data Center
Collection (C) 2014 copyright by the U.S. Secretary of Commerce
on behalf of the United States of America. All rights reserved.
##CAS REGISTRY NO=26356-11-6
##$NIST MASS SPEC NO=5838
##MOLFORM=C12 H18
##MW=162
##$NIST SOURCE=MSDC
##XUNITS=M/Z
##YUNITS=RELATIVE INTENSITY
##XFACTOR=1
##YFACTOR=1
##FIRSTX=26
##LASTX=164
##FIRSTY=110
##MAXX=164
##MINX=26
##MAXY=9999
##MINY=10
##NPOINTS=113
##PEAK TABLE=(XY..XY)
26,110 27,1321 28,170 29,340
30,10 32,10 37,20 38,100
39,1211 40,1271 41,2442 42,150
43,520 44,20 45,10 49,10
50,230 51,691 52,170 53,200
54,20 55,100 56,20 57,380
58,40 59,10 60,10 61,10
62,60 63,220 64,90 65,280
66,30 67,20 68,10 69,110
70,10 71,10 72,10 73,10
74,60 75,90 76,80 77,861
78,400 79,711 80,40 81,10
83,10 84,10 85,10 86,10
87,20 88,10 89,80 90,30
91,3653 92,290 93,20 94,10
95,10 97,10 98,10 99,10
100,10 101,20 102,120 103,530
104,230 105,871 106,350 107,30
108,10 109,10 110,10 111,10
112,10 113,10 114,10 115,310
116,120 117,290 118,1061 119,9999
120,1041 121,40 125,10 126,10
127,30 128,60 129,40 130,10
131,60 132,10 133,70 134,60
135,10 139,10 140,10 141,10
142,10 143,10 144,10 145,10
146,10 147,60 148,10 159,10
160,10 161,10 162,390 163,50
164,10
##END=
