##TITLE=N-(2-Chloroethyl)benzamide
##JCAMP-DX=4.24
##DATA TYPE=MASS SPECTRUM
##ORIGIN=Japan AIST/NIMC Database- Spectrum MS-NW-8077
##OWNER=NIST Mass Spectrometry Data Center
Collection (C) 2014 copyright by the U.S. Secretary of Commerce
on behalf of the United States of America. All rights reserved.
##CAS REGISTRY NO=26385-07-9
##$NIST MASS SPEC NO=238891
##MOLFORM=C9 H10 Cl N O
##MW=183
##$NIST SOURCE=MSDC
##XUNITS=M/Z
##YUNITS=RELATIVE INTENSITY
##XFACTOR=1
##YFACTOR=1
##FIRSTX=15
##LASTX=186
##FIRSTY=30
##MAXX=186
##MINX=15
##MAXY=9999
##MINY=10
##NPOINTS=63
##PEAK TABLE=(XY..XY)
15,30 26,10 27,179 28,80
30,40 35,20 36,249 37,20
38,99 39,80 40,10 41,20
42,30 43,40 44,20 49,40
50,349 51,1109 52,90 53,20
58,30 61,10 62,20 63,109
64,20 65,50 66,10 67,40
73,20 74,99 75,99 76,219
77,3709 78,299 79,20 89,50
90,80 91,90 92,10 102,10
103,30 104,119 105,9999 106,779
107,40 116,30 117,859 118,109
119,10 120,10 121,189 122,40
134,929 135,90 146,60 147,679
148,559 149,50 182,209 183,2039
184,279 185,669 186,70
##END=
