##TITLE=Diphenylphosphoryl azide
##JCAMP-DX=4.24
##DATA TYPE=MASS SPECTRUM
##ORIGIN=NIST Mass Spectrometry Data Center
##OWNER=NIST Mass Spectrometry Data Center
Collection (C) 2014 copyright by the U.S. Secretary of Commerce
on behalf of the United States of America. All rights reserved.
##CAS REGISTRY NO=26386-88-9
##$NIST MASS SPEC NO=342990
##MOLFORM=C12 H10 N3 O3 P
##MW=275
##$NIST SOURCE=MSDC
##XUNITS=M/Z
##YUNITS=RELATIVE INTENSITY
##XFACTOR=1
##YFACTOR=1
##FIRSTX=12
##LASTX=277
##FIRSTY=10
##MAXX=277
##MINX=12
##MAXY=9999
##MINY=10
##NPOINTS=137
##PEAK TABLE=(XY..XY)
12,10 18,60 26,160 27,500
29,30 30,30 31,20 36,20
37,190 38,1081 39,5555 40,260
41,120 42,60 43,30 44,10
47,3543 48,30 49,90 50,1111
51,3883 52,1541 53,791 54,110
55,150 57,40 58,20 61,100
62,420 63,1571 64,1181 65,4994
66,631 67,50 68,30 69,20
70,30 71,50 73,70 74,310
75,290 77,6766 78,1081 79,951
80,210 81,791 82,40 83,110
84,200 86,30 90,230 91,921
92,350 93,711 94,2282 95,150
96,40 97,20 98,80 99,240
100,120 101,20 102,40 104,20
106,681 107,160 108,80 109,110
110,40 112,120 115,210 116,30
121,30 124,20 126,1842 127,230
128,200 129,110 131,40 139,1061
140,1882 141,400 142,200 143,40
144,30 151,70 152,230 153,420
154,1692 155,410 156,240 157,50
158,30 164,20 166,1561 167,4084
168,871 169,500 170,771 171,290
172,80 173,50 174,80 182,581
183,250 184,100 185,20 186,60
187,100 198,20 199,40 200,60
201,100 202,70 203,50 211,70
215,921 216,120 217,20 218,40
219,20 221,641 222,70 228,250
229,400 230,40 232,360 233,340
234,40 246,250 247,150 248,60
249,50 274,4124 275,9999 276,1401
277,150
##END=
