##TITLE=N-Isopropylcyclopropanecarboxamide
##JCAMP-DX=4.24
##DATA TYPE=MASS SPECTRUM
##ORIGIN=Japan AIST/NIMC Database- Spectrum MS-NW-8830
##OWNER=NIST Mass Spectrometry Data Center
Collection (C) 2014 copyright by the U.S. Secretary of Commerce
on behalf of the United States of America. All rights reserved.
##CAS REGISTRY NO=26389-62-8
##$NIST MASS SPEC NO=238340
##MOLFORM=C7 H13 N O
##MW=127
##$NIST SOURCE=MSDC
##XUNITS=M/Z
##YUNITS=RELATIVE INTENSITY
##XFACTOR=1
##YFACTOR=1
##FIRSTX=14
##LASTX=129
##FIRSTY=10
##MAXX=129
##MINX=14
##MAXY=9999
##MINY=10
##NPOINTS=62
##PEAK TABLE=(XY..XY)
14,10 15,169 17,10 18,159
26,30 27,559 28,329 29,60
30,109 37,10 38,70 39,1299
40,269 41,3929 42,789 43,1789
44,3689 45,99 48,50 52,10
53,20 54,80 55,369 56,179
57,159 58,2129 59,489 60,30
66,10 67,40 68,339 69,9999
70,579 71,169 72,349 73,20
81,10 82,20 83,70 84,839
85,109 86,239 87,10 91,20
94,10 95,10 96,10 97,10
98,459 99,329 100,20 106,10
109,10 110,30 111,10 112,4809
113,339 114,20 126,349 127,909
128,149 129,10
##END=
