##TITLE=Butanoic acid, hexyl ester
##JCAMP-DX=4.24
##DATA TYPE=MASS SPECTRUM
##ORIGIN=V.G.Zaikin, Petrochem. Synth. Inst., Moscow
##OWNER=NIST Mass Spectrometry Data Center
Collection (C) 2014 copyright by the U.S. Secretary of Commerce
on behalf of the United States of America. All rights reserved.
##CAS REGISTRY NO=2639-63-6
##$NIST MASS SPEC NO=280431
##MOLFORM=C10 H20 O2
##MW=172
##$NIST SOURCE=MSDC
##XUNITS=M/Z
##YUNITS=RELATIVE INTENSITY
##XFACTOR=1
##YFACTOR=1
##FIRSTX=26
##LASTX=130
##FIRSTY=150
##MAXX=130
##MINX=26
##MAXY=9999
##MINY=30
##NPOINTS=51
##PEAK TABLE=(XY..XY)
26,150 27,1872 28,941 29,1431
30,60 31,110 39,971 40,290
41,3063 42,2512 43,9999 44,410
45,150 51,150 52,120 53,150
54,190 55,2482 56,4654 57,761
58,90 60,971 61,420 67,70
68,70 69,1521 70,310 71,9098
72,390 73,450 78,70 79,130
82,80 83,390 84,3593 85,581
86,180 87,80 88,591 89,6045
90,340 91,30 92,30 93,110
99,170 100,50 101,390 102,70
115,70 129,190 130,50
##END=
