##TITLE=Butanoic acid, nonyl ester
##JCAMP-DX=4.24
##DATA TYPE=MASS SPECTRUM
##ORIGIN=Insect Chem. Ecol. Lab., USDA, Beltsville, MD 20705
##OWNER=NIST Mass Spectrometry Data Center
Collection (C) 2014 copyright by the U.S. Secretary of Commerce
on behalf of the United States of America. All rights reserved.
##CAS REGISTRY NO=2639-64-7
##$NIST MASS SPEC NO=131881
##MOLFORM=C13 H26 O2
##MW=214
##$NIST SOURCE=MSDC
##XUNITS=M/Z
##YUNITS=RELATIVE INTENSITY
##XFACTOR=1
##YFACTOR=1
##FIRSTX=41
##LASTX=216
##FIRSTY=5361
##MAXX=216
##MINX=41
##MAXY=9999
##MINY=3
##NPOINTS=89
##PEAK TABLE=(XY..XY)
41,5361 42,2331 43,9999 44,412
45,166 47,18 49,7 51,23
52,17 53,230 54,542 55,4141
56,5312 57,2917 58,193 59,8
60,627 61,580 62,14 65,33
66,42 67,471 68,1061 69,3366
70,4727 71,9036 72,440 73,379
74,19 77,19 78,3 79,39
80,7 81,147 82,1266 83,2797
84,3025 85,1009 86,198 87,139
88,1049 89,9935 90,453 91,58
95,54 96,570 97,3206 98,2476
99,247 100,46 101,199 102,36
103,19 109,3 110,12 111,173
112,47 113,31 114,19 115,86
116,54 117,16 123,8 124,42
125,83 126,3663 127,403 128,37
129,128 130,32 131,3 139,25
140,59 141,94 142,36 143,55
144,409 145,38 153,14 155,7
157,15 158,19 171,297 172,32
186,8 213,24 214,637 215,94
216,4
##END=
