##TITLE=Benzene, 1,1'-ethenylidenebis[4-chloro-
##JCAMP-DX=4.24
##DATA TYPE=MASS SPECTRUM
##OWNER=NIST Mass Spectrometry Data Center
Collection (C) 2014 copyright by the U.S. Secretary of Commerce
on behalf of the United States of America. All rights reserved.
##CAS REGISTRY NO=2642-81-1
##$NIST MASS SPEC NO=12037
##MOLFORM=C14 H10 Cl2
##MW=248
##$NIST SOURCE=MSDC
##XUNITS=M/Z
##YUNITS=RELATIVE INTENSITY
##XFACTOR=1
##YFACTOR=1
##FIRSTX=32
##LASTX=252
##FIRSTY=200
##MAXX=252
##MINX=32
##MAXY=9999
##MINY=100
##NPOINTS=74
##PEAK TABLE=(XY..XY)
32,200 35,100 36,300 38,300
39,500 49,100 50,1300 51,1800
52,200 61,100 62,500 63,1000
73,400 74,1100 75,3500 76,1400
77,700 85,200 86,300 87,700
88,4300 89,700 93,900 94,200
97,100 98,300 99,400 100,200
101,1700 102,1100 103,100 105,100
106,1300 107,400 110,100 111,300
112,100 113,300 114,200 123,100
124,100 125,200 126,300 127,100
136,600 137,400 138,200 139,200
149,200 150,500 151,900 152,700
153,100 163,200 174,200 175,300
176,2700 177,2700 178,9999 179,1400
180,100 211,100 212,1300 213,3000
214,800 215,900 216,100 233,300
235,200 248,3800 249,600 250,2800
251,400 252,400
##END=
