##TITLE=6-Chrysenamine
##JCAMP-DX=4.24
##DATA TYPE=MASS SPECTRUM
##ORIGIN=Japan AIST/NIMC Database- Spectrum MS-NW-6129
##OWNER=NIST Mass Spectrometry Data Center
Collection (C) 2014 copyright by the U.S. Secretary of Commerce
on behalf of the United States of America. All rights reserved.
##CAS REGISTRY NO=2642-98-0
##$NIST MASS SPEC NO=234702
##MOLFORM=C18 H13 N
##MW=243
##$NIST SOURCE=MSDC
##XUNITS=M/Z
##YUNITS=RELATIVE INTENSITY
##XFACTOR=1
##YFACTOR=1
##FIRSTX=17
##LASTX=246
##FIRSTY=70
##MAXX=246
##MINX=17
##MAXY=9999
##MINY=10
##NPOINTS=147
##PEAK TABLE=(XY..XY)
17,70 18,219 27,30 28,10
38,20 39,60 41,10 43,20
44,20 50,40 51,60 52,30
56,10 57,10 61,10 62,60
63,109 64,10 65,20 67,10
68,10 69,10 71,10 74,80
75,60 76,40 77,40 78,10
79,10 80,20 81,70 82,30
83,10 85,10 86,50 87,90
88,50 89,40 90,10 91,20
93,159 94,289 95,80 96,10
97,10 98,50 99,50 100,50
101,30 102,20 103,10 105,99
106,359 107,499 108,259 109,20
110,30 111,50 112,60 113,60
114,50 115,50 116,10 119,40
120,249 121,609 122,159 123,20
124,10 125,10 126,20 127,20
128,10 134,20 135,10 136,10
137,30 138,20 139,50 140,30
141,50 142,10 146,10 147,10
149,20 150,50 151,30 152,30
153,10 161,20 162,30 163,90
164,50 165,50 166,30 174,30
175,30 176,50 177,20 178,10
185,20 186,40 187,129 188,90
189,189 190,70 191,20 192,10
198,20 199,20 200,60 201,40
202,60 203,40 204,10 209,10
210,10 211,80 212,80 213,579
214,249 215,2049 216,529 217,90
218,20 219,10 221,20 222,10
223,20 224,109 225,99 226,139
227,139 228,70 229,10 230,10
236,10 237,10 238,70 239,50
240,329 241,509 242,649 243,9999
244,2089 245,199 246,10
##END=
