##TITLE=2,5-Difluorobenzaldehyde
##JCAMP-DX=4.24
##DATA TYPE=MASS SPECTRUM
##ORIGIN=Chuck Anderson, Aldrich Chemical Co.
##OWNER=NIST Mass Spectrometry Data Center
Collection (C) 2014 copyright by the U.S. Secretary of Commerce
on behalf of the United States of America. All rights reserved.
##CAS REGISTRY NO=2646-90-4
##$NIST MASS SPEC NO=108204
##MOLFORM=C7 H4 F2 O
##MW=142
##$NIST SOURCE=MSDC
##XUNITS=M/Z
##YUNITS=RELATIVE INTENSITY
##XFACTOR=1
##YFACTOR=1
##FIRSTX=25
##LASTX=144
##FIRSTY=15
##MAXX=144
##MINX=25
##MAXY=9999
##MINY=3
##NPOINTS=85
##PEAK TABLE=(XY..XY)
25,15 26,30 27,23 28,33
29,779 30,12 31,652 32,3
33,17 36,67 37,503 38,349
39,211 40,11 43,22 44,69
45,87 46,18 47,18 48,42
49,217 50,1244 51,247 52,17
53,50 55,62 56,313 57,918
58,33 60,72 61,580 62,1045
63,4468 64,359 65,14 67,45
68,790 69,497 70,337 71,53
72,41 73,230 74,835 75,674
76,53 77,21 79,56 80,138
81,514 82,46 83,46 84,26
85,50 86,125 87,244 88,757
89,35 91,14 92,342 93,608
94,1039 95,189 96,14 98,10
99,55 100,17 103,11 104,20
105,36 107,23 110,28 111,72
112,624 113,6548 114,1769 115,102
122,15 123,22 124,10 125,69
126,15 141,9999 142,8229 143,669
144,43
##END=
