##TITLE=1,3-Propanediol, 2,2-dimethyl-, dinitrate
##JCAMP-DX=4.24
##DATA TYPE=MASS SPECTRUM
##ORIGIN=MINISTRY OF TECH. E.R.D.E., WALTHAM ABBEY, UK
##OWNER=NIST Mass Spectrometry Data Center
Collection (C) 2014 copyright by the U.S. Secretary of Commerce
on behalf of the United States of America. All rights reserved.
##CAS REGISTRY NO=26482-65-5
##$NIST MASS SPEC NO=8564
##MOLFORM=C5 H10 N2 O6
##MW=194
##$NIST SOURCE=MSDC
##XUNITS=M/Z
##YUNITS=RELATIVE INTENSITY
##XFACTOR=1
##YFACTOR=1
##FIRSTX=15
##LASTX=193
##FIRSTY=140
##MAXX=193
##MINX=15
##MAXY=9999
##MINY=10
##NPOINTS=27
##PEAK TABLE=(XY..XY)
15,140 27,1040 28,560 29,1400
30,1320 31,380 39,1110 40,390
41,1760 42,800 43,5250 44,400
45,120 46,9999 55,420 56,890
57,980 58,620 71,490 72,1020
73,120 76,780 85,40 86,40
118,20 132,10 193,10
##END=
