##TITLE=4-Tetradecanone
##JCAMP-DX=4.24
##DATA TYPE=MASS SPECTRUM
##ORIGIN=V.G.Zaikin, TIPS, Russian Acad. Sci.
##OWNER=NIST Mass Spectrometry Data Center
Collection (C) 2014 copyright by the U.S. Secretary of Commerce
on behalf of the United States of America. All rights reserved.
##CAS REGISTRY NO=26496-20-8
##$NIST MASS SPEC NO=215208
##MOLFORM=C14 H28 O
##MW=212
##$NIST SOURCE=MSDC
##XUNITS=M/Z
##YUNITS=RELATIVE INTENSITY
##XFACTOR=1
##YFACTOR=1
##FIRSTX=41
##LASTX=213
##FIRSTY=3903
##MAXX=213
##MINX=41
##MAXY=9999
##MINY=40
##NPOINTS=36
##PEAK TABLE=(XY..XY)
41,3903 42,1000 43,7907 44,600
53,300 54,500 55,3002 56,700
57,400 58,800 59,1401 68,300
69,800 70,600 71,9999 72,1201
73,2402 74,300 82,200 83,1101
84,600 85,1901 86,1601 87,200
98,300 99,1101 100,200 113,400
114,200 127,300 141,300 155,200
169,2402 170,400 212,280 213,40
##END=
