##TITLE=4-Nonanol, 2-methyl-
##JCAMP-DX=4.24
##DATA TYPE=MASS SPECTRUM
##ORIGIN=NIST Mass Spectrometry Data Center, 1990.
##OWNER=NIST Mass Spectrometry Data Center
Collection (C) 2014 copyright by the U.S. Secretary of Commerce
on behalf of the United States of America. All rights reserved.
##CAS REGISTRY NO=26533-31-3
##$NIST MASS SPEC NO=113748
##MOLFORM=C10 H22 O
##MW=158
##$NIST SOURCE=MSDC
##XUNITS=M/Z
##YUNITS=RELATIVE INTENSITY
##XFACTOR=1
##YFACTOR=1
##FIRSTX=15
##LASTX=141
##FIRSTY=138
##MAXX=141
##MINX=15
##MAXY=9999
##MINY=27
##NPOINTS=51
##PEAK TABLE=(XY..XY)
15,138 16,27 17,96 18,237
19,67 27,2859 28,534 29,3327
30,137 31,551 32,87 39,1887
41,6696 42,1061 43,6257 44,1812
45,3177 51,143 53,594 55,8407
56,2251 57,2969 58,920 59,233
65,92 67,450 69,9999 70,991
71,877 72,152 77,98 79,101
81,163 83,6860 84,728 85,666
86,424 87,3790 88,251 95,71
97,192 98,96 99,334 100,325
101,2270 102,193 111,90 112,118
125,106 140,312 141,95
##END=
