##TITLE=Phenol, 2,3,5-trimethyl-, methylcarbamate
##JCAMP-DX=4.24
##DATA TYPE=MASS SPECTRUM
##ORIGIN=NIST Mass Spectrometry Data Center, 2009
##OWNER=NIST Mass Spectrometry Data Center
Collection (C) 2014 copyright by the U.S. Secretary of Commerce
on behalf of the United States of America. All rights reserved.
##CAS REGISTRY NO=2655-15-4
##$NIST MASS SPEC NO=372992
##MOLFORM=C11 H15 N O2
##MW=193
##$NIST SOURCE=MSDC
##XUNITS=M/Z
##YUNITS=RELATIVE INTENSITY
##XFACTOR=1
##YFACTOR=1
##FIRSTX=15
##LASTX=194
##FIRSTY=100
##MAXX=194
##MINX=15
##MAXY=9999
##MINY=10
##NPOINTS=81
##PEAK TABLE=(XY..XY)
15,100 26,10 27,170 28,210
29,110 30,20 38,30 39,410
40,80 41,320 42,20 43,90
44,10 50,100 51,310 52,140
53,270 54,30 55,130 56,110
57,190 58,741 59,20 61,10
62,40 63,160 64,50 65,490
66,100 67,180 68,20 69,20
74,20 75,30 76,30 77,851
78,220 79,490 80,50 81,30
82,10 86,10 87,10 89,80
91,2212 92,300 93,530 94,90
95,30 96,10 101,10 102,60
103,280 104,90 105,340 106,70
107,190 108,180 109,20 115,270
116,50 117,300 118,200 119,300
121,7757 122,671 123,50 131,10
132,10 133,50 134,60 135,1401
136,9999 137,1001 138,60 146,10
147,10 148,20 149,30 193,250
194,30
##END=
