##TITLE=Phenol, 3,5-dimethyl-, methylcarbamate
##JCAMP-DX=4.24
##DATA TYPE=MASS SPECTRUM
##OWNER=NIST Mass Spectrometry Data Center
Collection (C) 2014 copyright by the U.S. Secretary of Commerce
on behalf of the United States of America. All rights reserved.
##CAS REGISTRY NO=2655-14-3
##$NIST MASS SPEC NO=7355
##MOLFORM=C10 H13 N O2
##MW=179
##$NIST SOURCE=MSDC
##XUNITS=M/Z
##YUNITS=RELATIVE INTENSITY
##XFACTOR=1
##YFACTOR=1
##FIRSTX=15
##LASTX=179
##FIRSTY=200
##MAXX=179
##MINX=15
##MAXY=9999
##MINY=100
##NPOINTS=23
##PEAK TABLE=(XY..XY)
15,200 27,200 39,400 40,200
41,200 43,100 44,100 51,300
53,400 55,200 57,200 58,500
63,200 65,300 77,1200 78,400
79,600 91,700 107,3300 121,1200
122,9999 123,1200 179,1200
##END=
