##TITLE=Pyrazole, 3-nitro-
##JCAMP-DX=4.24
##DATA TYPE=MASS SPECTRUM
##ORIGIN=W. LUIJTEN, GORLAEUS LAB., LEIDEN UNIV., NETHERL> ;
##OWNER=NIST Mass Spectrometry Data Center
Collection (C) 2014 copyright by the U.S. Secretary of Commerce
on behalf of the United States of America. All rights reserved.
##CAS REGISTRY NO=26621-44-3
##$NIST MASS SPEC NO=75827
##MOLFORM=C3 H3 N3 O2
##MW=113
##$NIST SOURCE=MSDC
##XUNITS=M/Z
##YUNITS=RELATIVE INTENSITY
##XFACTOR=1
##YFACTOR=1
##FIRSTX=37
##LASTX=114
##FIRSTY=200
##MAXX=114
##MINX=37
##MAXY=9999
##MINY=100
##NPOINTS=24
##PEAK TABLE=(XY..XY)
37,200 38,600 39,600 40,3200
41,600 42,200 43,200 44,200
46,800 50,100 51,300 52,400
53,200 54,300 55,100 66,800
67,100 68,300 83,2600 84,100
96,200 97,400 113,9999 114,600
##END=
