##TITLE=Phenol, 4-(1-methylethyl)-, acetate
##JCAMP-DX=4.24
##DATA TYPE=MASS SPECTRUM
##ORIGIN=Japan AIST/NIMC Database- Spectrum MS-IW-3560
##OWNER=NIST Mass Spectrometry Data Center
Collection (C) 2014 copyright by the U.S. Secretary of Commerce
on behalf of the United States of America. All rights reserved.
##CAS REGISTRY NO=2664-32-6
##$NIST MASS SPEC NO=236376
##MOLFORM=C11 H14 O2
##MW=178
##$NIST SOURCE=MSDC
##XUNITS=M/Z
##YUNITS=RELATIVE INTENSITY
##XFACTOR=1
##YFACTOR=1
##FIRSTX=14
##LASTX=180
##FIRSTY=10
##MAXX=180
##MINX=14
##MAXY=9999
##MINY=10
##NPOINTS=71
##PEAK TABLE=(XY..XY)
14,10 15,99 26,10 27,109
28,50 29,30 38,30 39,319
40,50 41,249 42,40 43,909
44,20 45,10 50,60 51,169
52,60 53,90 55,70 60,10
61,10 62,40 63,139 64,50
65,349 66,70 67,30 74,20
75,20 76,20 77,639 78,99
79,109 80,10 81,10 89,40
90,20 91,799 92,159 93,179
94,70 95,80 101,10 102,30
103,439 104,50 105,60 106,10
107,219 108,20 115,30 116,10
117,30 118,10 119,129 120,209
121,9999 122,949 123,60 133,20
134,30 135,189 136,4439 137,449
138,20 163,169 164,20 177,10
178,799 179,99 180,10
##END=
