##TITLE=2-Butene, 1,4-dimethoxy-
##JCAMP-DX=4.24
##DATA TYPE=MASS SPECTRUM
##ORIGIN=NIST Mass Spectrometry Data Center
##OWNER=NIST Mass Spectrometry Data Center
Collection (C) 2014 copyright by the U.S. Secretary of Commerce
on behalf of the United States of America. All rights reserved.
##CAS REGISTRY NO=26649-86-5
##$NIST MASS SPEC NO=352691
##MOLFORM=C6 H12 O2
##MW=116
##$NIST SOURCE=MSDC
##XUNITS=M/Z
##YUNITS=RELATIVE INTENSITY
##XFACTOR=1
##YFACTOR=1
##FIRSTX=14
##LASTX=116
##FIRSTY=20
##MAXX=116
##MINX=14
##MAXY=9999
##MINY=10
##NPOINTS=57
##PEAK TABLE=(XY..XY)
14,20 15,320 16,10 25,10
26,140 27,881 28,480 29,1702
30,180 31,280 32,10 33,120
37,70 38,230 39,2722 40,330
41,5705 42,500 43,1101 45,4794
46,110 47,220 48,10 49,20
50,230 51,360 52,190 53,2172
54,1201 55,3113 56,691 57,240
58,1131 59,130 60,10 65,20
66,10 67,20 68,310 69,5145
70,330 71,6346 72,320 73,30
75,801 76,30 81,10 83,190
84,9999 85,1461 86,90 99,40
100,40 101,30 114,10 115,40
116,10
##END=
