##TITLE=Phenol, 4,4'-thiobis-
##JCAMP-DX=4.24
##DATA TYPE=MASS SPECTRUM
##ORIGIN=Japan AIST/NIMC Database- Spectrum MS-NW-4407
##OWNER=NIST Mass Spectrometry Data Center
Collection (C) 2014 copyright by the U.S. Secretary of Commerce
on behalf of the United States of America. All rights reserved.
##CAS REGISTRY NO=2664-63-3
##$NIST MASS SPEC NO=232582
##MOLFORM=C12 H10 O2 S
##MW=218
##$NIST SOURCE=MSDC
##XUNITS=M/Z
##YUNITS=RELATIVE INTENSITY
##XFACTOR=1
##YFACTOR=1
##FIRSTX=14
##LASTX=221
##FIRSTY=10
##MAXX=221
##MINX=14
##MAXY=9999
##MINY=10
##NPOINTS=171
##PEAK TABLE=(XY..XY)
14,10 15,10 16,20 26,40
27,249 28,40 29,80 31,10
32,20 34,10 37,70 38,239
39,1339 40,80 41,30 42,20
43,50 44,50 45,709 46,20
47,40 49,20 50,129 51,209
52,60 53,489 54,40 55,239
56,10 57,30 58,40 59,30
61,70 62,189 63,549 64,259
65,689 66,129 67,60 68,30
69,369 70,259 71,189 72,40
73,30 74,60 75,70 76,30
77,119 78,50 79,50 80,30
81,499 82,109 83,20 84,30
85,149 86,279 87,60 88,10
89,60 90,30 91,139 92,70
93,80 94,239 95,139 96,119
97,599 98,99 99,50 100,269
101,40 102,70 103,60 104,10
105,30 106,20 107,50 108,50
109,259 110,30 111,20 113,10
114,20 115,229 116,70 117,90
118,279 119,80 120,20 121,60
122,20 123,20 124,80 125,589
126,169 127,269 128,389 129,139
130,30 131,249 132,60 133,30
134,60 135,30 137,109 138,30
139,90 140,20 141,20 142,10
143,20 144,139 145,179 146,40
147,60 148,10 149,20 150,99
151,20 152,10 155,109 156,70
157,1489 158,219 159,50 160,40
161,80 162,40 163,319 164,60
165,20 166,10 167,40 168,30
169,20 170,30 171,329 172,99
173,229 174,70 175,40 176,80
177,40 178,10 182,10 183,199
184,99 185,1049 186,1499 187,359
188,139 189,609 190,139 191,60
192,20 199,469 200,239 201,529
202,90 203,149 204,20 205,10
215,10 216,139 217,1539 218,9999
219,1409 220,579 221,70
##END=
