##TITLE=2-Oxazolidinone,4,4-dimethyl-
##JCAMP-DX=4.24
##DATA TYPE=MASS SPECTRUM
##ORIGIN=James Little,Eastman Chem.Co.,Kingsport,TN
##OWNER=NIST Mass Spectrometry Data Center
Collection (C) 2014 copyright by the U.S. Secretary of Commerce
on behalf of the United States of America. All rights reserved.
##CAS REGISTRY NO=26654-39-7
##$NIST MASS SPEC NO=288546
##MOLFORM=C5 H9 N O2
##MW=115
##$NIST SOURCE=MSDC
##XUNITS=M/Z
##YUNITS=RELATIVE INTENSITY
##XFACTOR=1
##YFACTOR=1
##FIRSTX=27
##LASTX=116
##FIRSTY=1351
##MAXX=116
##MINX=27
##MAXY=9999
##MINY=50
##NPOINTS=28
##PEAK TABLE=(XY..XY)
27,1351 29,2182 30,300 39,1091
40,400 41,1692 42,5595 43,821
44,500 53,60 54,260 55,170
56,7687 57,1591 58,230 69,60
70,80 71,50 72,140 84,210
85,90 86,470 99,60 100,9999
101,581 102,60 115,140 116,140
##END=
