##TITLE=Cholesta-5,24-dien-3-ol, acetate, (3.beta.)-
##JCAMP-DX=4.24
##DATA TYPE=MASS SPECTRUM
##ORIGIN=LAC, NIDDK, NIH, Bethesda, MD 20892
##OWNER=NIST Mass Spectrometry Data Center
Collection (C) 2014 copyright by the U.S. Secretary of Commerce
on behalf of the United States of America. All rights reserved.
##CAS REGISTRY NO=2665-04-5
##$NIST MASS SPEC NO=128100
##MOLFORM=C29 H46 O2
##MW=426
##$NIST SOURCE=MSDC
##XUNITS=M/Z
##YUNITS=RELATIVE INTENSITY
##XFACTOR=1
##YFACTOR=1
##FIRSTX=41
##LASTX=428
##FIRSTY=3684
##MAXX=428
##MINX=41
##MAXY=9999
##MINY=18
##NPOINTS=232
##PEAK TABLE=(XY..XY)
41,3684 42,476 43,8508 44,449
45,272 53,514 55,4115 56,568
57,972 58,458 59,2390 60,161
65,244 66,112 67,2595 68,400
69,4342 70,412 71,1067 72,153
73,161 77,791 78,234 79,2383
80,383 81,4663 82,757 83,1005
84,307 85,631 86,111 91,3095
92,712 93,2982 94,694 95,2799
96,322 97,630 98,188 99,455
100,106 101,231 103,225 104,229
105,3600 106,1032 107,3074 108,970
109,2087 110,312 111,591 112,431
113,200 115,371 116,196 117,1296
118,631 119,2127 120,1771 121,2079
122,614 123,837 124,180 125,290
126,126 127,394 128,397 129,867
130,448 131,2017 132,606 133,2503
134,697 135,1367 136,290 137,386
141,438 142,336 143,2105 144,857
145,4042 146,1462 147,3084 148,869
149,987 150,163 151,161 153,105
155,334 156,228 157,1409 158,1584
159,2248 160,1182 161,1698 162,472
163,572 164,113 165,127 169,287
170,143 171,694 172,364 173,1065
174,442 175,736 176,284 177,266
179,108 183,374 184,187 185,659
186,251 187,774 188,232 189,514
190,147 191,169 193,108 197,498
198,216 199,901 200,377 201,521
202,172 203,365 204,131 205,187
211,677 212,439 213,1915 214,631
215,488 216,161 217,188 219,370
225,244 226,272 227,498 228,667
229,336 231,104 239,347 240,157
241,372 242,135 243,526 244,185
245,831 246,231 247,175 251,135
253,3176 254,925 255,1904 256,702
257,303 258,328 259,295 260,151
261,118 267,311 268,115 269,160
270,107 271,135 281,795 282,645
283,726 284,270 285,112 295,229
296,371 297,241 298,291 299,153
300,121 309,126 310,148 311,120
312,235 313,222 314,165 324,291
325,182 326,242 327,211 328,355
329,114 338,259 339,221 340,808
341,344 342,630 343,184 349,315
351,1679 352,585 353,325 354,859
355,356 356,711 357,191 364,278
366,9063 367,3194 368,2423 369,968
370,314 380,906 382,9999 383,2931
384,3304 385,1010 386,215 394,145
396,390 398,1718 399,503 400,1498
401,859 402,142 408,359 409,125
412,18 414,36 421,25 424,25
425,178 426,2441 427,707 428,124
##END=
