##TITLE=[1,1'-Biphenyl]-4-ol, 3,5-bis(1,1-dimethylethyl)-
##JCAMP-DX=4.24
##DATA TYPE=MASS SPECTRUM
##ORIGIN=V.G.Zaikin, TIPS, Russian Acad. Sci.
##OWNER=NIST Mass Spectrometry Data Center
Collection (C) 2014 copyright by the U.S. Secretary of Commerce
on behalf of the United States of America. All rights reserved.
##CAS REGISTRY NO=2668-47-5
##$NIST MASS SPEC NO=215364
##MOLFORM=C20 H26 O
##MW=282
##$NIST SOURCE=MSDC
##XUNITS=M/Z
##YUNITS=RELATIVE INTENSITY
##XFACTOR=1
##YFACTOR=1
##FIRSTX=57
##LASTX=285
##FIRSTY=4383
##MAXX=285
##MINX=57
##MAXY=9999
##MINY=10
##NPOINTS=25
##PEAK TABLE=(XY..XY)
57,4383 58,350 77,570 91,670
105,340 128,520 165,1481 167,810
178,1000 179,870 181,450 189,390
191,620 192,450 193,390 195,430
207,850 239,480 251,460 267,9999
268,2332 282,7957 283,1750 284,180
285,10
##END=
