##TITLE=1-Octenylsuccinic anhydride
##JCAMP-DX=4.24
##DATA TYPE=MASS SPECTRUM
##ORIGIN=NIST Mass Spectrometry Data Center, 1990.
##OWNER=NIST Mass Spectrometry Data Center
Collection (C) 2014 copyright by the U.S. Secretary of Commerce
on behalf of the United States of America. All rights reserved.
##CAS REGISTRY NO=26680-54-6
##$NIST MASS SPEC NO=113020
##MOLFORM=C12 H18 O3
##MW=210
##$NIST SOURCE=MSDC
##XUNITS=M/Z
##YUNITS=RELATIVE INTENSITY
##XFACTOR=1
##YFACTOR=1
##FIRSTX=14
##LASTX=211
##FIRSTY=12
##MAXX=211
##MINX=14
##MAXY=9999
##MINY=12
##NPOINTS=108
##PEAK TABLE=(XY..XY)
14,12 15,200 17,75 18,254
26,445 27,4917 28,1645 29,4734
30,87 32,72 39,4851 40,1000
41,9999 42,1739 43,1607 44,234
45,179 50,281 51,628 52,554
53,2351 54,4984 55,6716 56,1020
57,1040 58,78 60,88 63,152
64,100 65,1037 66,943 67,4364
68,2945 69,2269 70,956 71,809
72,443 73,162 77,1172 78,382
79,3355 80,1293 81,3873 82,2294
83,3447 84,500 85,195 86,182
91,718 92,200 93,1032 94,878
95,2251 96,971 97,1350 98,292
99,1279 100,1944 101,123 105,274
106,122 107,823 108,762 109,969
110,1015 111,313 112,200 113,108
117,445 119,170 120,156 121,923
122,446 123,1185 124,287 125,242
126,160 127,179 128,758 129,97
131,158 135,420 136,353 137,651
138,211 139,174 140,207 141,773
142,148 145,121 146,159 147,829
148,164 149,545 150,253 153,95
154,339 155,148 163,483 164,359
165,441 166,95 167,2064 168,297
181,205 192,275 210,956 211,152
##END=
