##TITLE=1,2,3-Benzenetricarboxylic acid, trimethyl ester
##JCAMP-DX=4.24
##DATA TYPE=MASS SPECTRUM
##ORIGIN=NIST Mass Spectrometry Data Center
##OWNER=NIST Mass Spectrometry Data Center
Collection (C) 2014 copyright by the U.S. Secretary of Commerce
on behalf of the United States of America. All rights reserved.
##CAS REGISTRY NO=2672-57-3
##$NIST MASS SPEC NO=334035
##MOLFORM=C12 H12 O6
##MW=252
##$NIST SOURCE=MSDC
##XUNITS=M/Z
##YUNITS=RELATIVE INTENSITY
##XFACTOR=1
##YFACTOR=1
##FIRSTX=15
##LASTX=253
##FIRSTY=190
##MAXX=253
##MINX=15
##MAXY=9999
##MINY=10
##NPOINTS=99
##PEAK TABLE=(XY..XY)
15,190 27,10 28,20 29,130
30,40 31,40 37,20 38,30
39,70 40,10 41,10 43,10
44,10 45,561 46,10 49,30
50,160 51,80 52,40 53,60
55,10 59,180 60,10 61,20
62,60 63,220 64,60 65,60
66,30 73,60 74,510 75,1011
76,1211 77,460 78,70 79,50
80,10 81,10 86,10 87,10
88,20 89,60 90,40 91,270
92,220 93,30 94,10 95,30
101,10 102,10 103,530 104,1621
105,230 106,50 107,160 108,10
109,10 111,10 117,10 118,30
119,681 120,561 121,70 122,120
123,10 131,70 132,280 133,90
134,30 135,160 136,20 147,190
148,80 149,701 150,270 151,20
159,10 161,70 162,80 163,230
164,30 165,30 175,470 176,50
177,20 178,10 190,30 191,120
192,10 193,80 194,10 207,40
219,10 221,9999 222,1361 223,200
224,20 252,70 253,10
##END=
