##TITLE=Propanamide, N,2-dimethyl-
##JCAMP-DX=4.24
##DATA TYPE=MASS SPECTRUM
##ORIGIN=A.E.WILLIAMS ICI DYESTUFFS DIVISION. BLACKLEY
##OWNER=NIST Mass Spectrometry Data Center
Collection (C) 2014 copyright by the U.S. Secretary of Commerce
on behalf of the United States of America. All rights reserved.
##CAS REGISTRY NO=2675-88-9
##$NIST MASS SPEC NO=1147
##MOLFORM=C5 H11 N O
##MW=101
##$NIST SOURCE=MSDC
##XUNITS=M/Z
##YUNITS=RELATIVE INTENSITY
##XFACTOR=1
##YFACTOR=1
##FIRSTX=15
##LASTX=102
##FIRSTY=964
##MAXX=102
##MINX=15
##MAXY=9999
##MINY=45
##NPOINTS=41
##PEAK TABLE=(XY..XY)
15,964 16,45 17,293 18,249
26,349 27,2546 28,872 29,446
30,950 31,667 32,872 37,73
38,99 39,575 40,177 41,1990
42,1511 43,9586 44,936 45,76
52,56 53,88 54,204 55,1077
56,163 57,102 58,9999 59,990
60,308 68,326 69,161 70,530
71,1833 72,187 73,3287 74,172
86,1735 87,88 100,410 101,3744
102,390
##END=
