##TITLE=6,9,12-Octadecatrienoic acid, methyl ester
##JCAMP-DX=4.24
##DATA TYPE=MASS SPECTRUM
##ORIGIN=R.T.HOLMAN,UNIVERSITY OF MINNESOTA
##OWNER=NIST Mass Spectrometry Data Center
Collection (C) 2014 copyright by the U.S. Secretary of Commerce
on behalf of the United States of America. All rights reserved.
##CAS REGISTRY NO=2676-41-7
##$NIST MASS SPEC NO=36064
##MOLFORM=C19 H32 O2
##MW=292
##$NIST SOURCE=MSDC
##XUNITS=M/Z
##YUNITS=RELATIVE INTENSITY
##XFACTOR=1
##YFACTOR=1
##FIRSTX=26
##LASTX=298
##FIRSTY=120
##MAXX=298
##MINX=26
##MAXY=9999
##MINY=10
##NPOINTS=265
##PEAK TABLE=(XY..XY)
26,120 27,1900 28,1000 29,4100
30,120 31,410 32,210 33,40
35,60 36,40 37,40 38,70
39,2000 40,370 41,8200 42,950
43,4200 44,270 45,2700 46,80
47,100 48,10 49,40 50,80
51,320 52,250 53,1600 54,2400
55,6600 56,750 57,4000 58,300
59,2300 60,330 61,230 62,30
63,120 64,70 65,1000 66,1500
67,9999 68,2100 69,3300 70,550
71,1200 72,150 73,3400 74,2100
75,260 76,50 77,2600 78,1500
79,8500 80,7300 81,6600 82,2000
83,1600 84,840 85,1400 86,150
87,3900 88,1200 89,200 90,80
91,4000 92,1200 93,5500 94,3300
95,4100 96,1600 97,1200 98,430
99,380 100,80 101,760 102,150
103,220 104,230 105,1900 106,1000
107,2900 108,1100 109,1300 110,850
111,590 112,150 113,210 114,90
115,460 116,160 117,600 118,360
119,1200 120,1600 121,2100 122,680
123,990 124,480 125,250 126,110
127,300 128,150 129,360 130,220
131,570 132,150 133,810 134,510
135,1100 136,910 137,1000 138,310
139,220 140,150 141,540 142,120
143,230 144,240 145,330 146,100
147,710 148,280 149,1200 150,2400
151,520 152,190 153,110 154,200
155,220 156,50 157,300 158,80
159,150 160,70 161,660 162,730
163,1500 164,570 165,250 166,120
167,100 168,150 169,130 170,40
171,200 172,50 173,140 174,70
175,810 176,230 177,600 178,290
179,140 180,140 181,160 182,120
183,100 184,40 185,110 186,40
187,100 188,40 189,300 190,90
191,250 192,100 193,120 194,1400
195,310 196,100 197,80 198,30
199,50 200,30 201,50 202,30
203,110 204,50 205,270 206,110
207,230 208,180 209,90 210,60
211,50 212,20 213,40 214,20
215,30 216,30 217,60 218,120
219,90 220,40 221,60 222,240
223,80 224,70 225,40 226,30
227,40 228,50 229,30 230,20
231,40 232,40 233,50 234,40
235,250 236,90 237,30 238,110
239,30 240,20 241,30 242,30
243,190 244,40 245,40 246,20
247,30 248,20 249,100 250,50
251,80 252,50 253,30 254,20
255,20 256,30 257,20 258,20
259,40 260,60 261,150 262,80
263,100 264,120 265,70 266,30
267,20 268,20 269,10 270,20
272,10 273,10 274,10 276,10
277,20 278,20 279,10 280,10
281,20 282,10 283,10 284,20
290,50 291,40 292,2304 293,500
294,260 295,60 296,40 297,10
298,20
##END=
