##TITLE=Butane, 2-ethoxy-
##JCAMP-DX=4.24
##DATA TYPE=MASS SPECTRUM
##OWNER=NIST Mass Spectrometry Data Center
Collection (C) 2014 copyright by the U.S. Secretary of Commerce
on behalf of the United States of America. All rights reserved.
##CAS REGISTRY NO=2679-87-0
##$NIST MASS SPEC NO=1185
##MOLFORM=C6 H14 O
##MW=102
##$NIST SOURCE=MSDC
##XUNITS=M/Z
##YUNITS=RELATIVE INTENSITY
##XFACTOR=1
##YFACTOR=1
##FIRSTX=12
##LASTX=103
##FIRSTY=20
##MAXX=103
##MINX=12
##MAXY=9999
##MINY=10
##NPOINTS=50
##PEAK TABLE=(XY..XY)
12,20 13,50 14,230 15,991
16,40 17,10 18,10 25,20
26,420 27,2632 28,621 29,3383
30,140 31,831 32,10 33,10
36,10 37,30 38,60 39,641
40,90 41,1211 42,200 43,1011
44,190 45,9999 46,220 47,30
53,80 54,20 55,300 56,270
57,1001 58,120 59,1942 60,60
61,10 69,10 71,20 72,170
73,5065 74,220 75,10 85,10
86,10 87,390 88,20 101,40
102,100 103,10
##END=
