##TITLE=1-Chloro-4-decyne
##JCAMP-DX=4.24
##DATA TYPE=MASS SPECTRUM
##ORIGIN=NIST Mass Spectrometry Data Center, 1990.
##OWNER=NIST Mass Spectrometry Data Center
Collection (C) 2014 copyright by the U.S. Secretary of Commerce
on behalf of the United States of America. All rights reserved.
##CAS REGISTRY NO=26817-65-2
##$NIST MASS SPEC NO=114688
##MOLFORM=C10 H17 Cl
##MW=172
##$NIST SOURCE=MSDC
##XUNITS=M/Z
##YUNITS=RELATIVE INTENSITY
##XFACTOR=1
##YFACTOR=1
##FIRSTX=26
##LASTX=157
##FIRSTY=304
##MAXX=157
##MINX=26
##MAXY=9999
##MINY=107
##NPOINTS=64
##PEAK TABLE=(XY..XY)
26,304 27,2446 28,107 29,2118
38,358 39,3444 40,752 41,4995
42,568 43,657 49,310 50,758
51,2393 52,2039 53,3343 54,2810
55,3454 56,600 57,798 61,118
62,218 63,938 64,272 65,2604
66,1136 67,9999 68,1839 69,547
74,128 75,666 77,4315 78,1052
79,5492 80,1236 81,9446 82,1427
83,115 88,4914 89,661 90,1614
91,2050 92,294 93,1312 95,6731
96,568 101,266 102,657 103,559
104,249 105,462 107,913 108,535
109,4165 110,421 115,225 116,259
117,216 121,139 129,138 137,554
143,648 144,232 145,208 157,162
##END=
