##TITLE=5-Diethylamino-1-pentanol
##JCAMP-DX=4.24
##DATA TYPE=MASS SPECTRUM
##ORIGIN=NIST Mass Spectrometry Data Center, 1994
##OWNER=NIST Mass Spectrometry Data Center
Collection (C) 2014 copyright by the U.S. Secretary of Commerce
on behalf of the United States of America. All rights reserved.
##CAS REGISTRY NO=2683-57-0
##$NIST MASS SPEC NO=133230
##MOLFORM=C9 H21 N O
##MW=159
##$NIST SOURCE=MSDC
##XUNITS=M/Z
##YUNITS=RELATIVE INTENSITY
##XFACTOR=1
##YFACTOR=1
##FIRSTX=12
##LASTX=161
##FIRSTY=4
##MAXX=161
##MINX=12
##MAXY=9999
##MINY=2
##NPOINTS=75
##PEAK TABLE=(XY..XY)
12,4 14,21 15,203 16,2
18,167 19,33 27,907 28,746
29,1522 30,2051 31,1097 33,4
37,4 39,246 41,990 42,1062
43,356 44,496 45,67 46,20
50,6 51,15 52,18 53,68
54,126 55,258 56,629 57,452
58,2194 59,96 60,19 65,13
67,78 68,67 69,290 70,169
71,13 72,1059 73,71 74,41
77,2 78,2 80,9 81,7
82,27 84,189 86,9999 87,629
88,14 94,3 95,3 96,14
98,101 99,18 100,22 101,6
109,2 110,8 112,64 113,6
114,14 126,7 128,41 129,10
130,27 131,6 140,3 142,66
144,436 145,38 146,2 156,4
159,477 160,54 161,4
##END=
