##TITLE=Diflunisal di-methyl derivative
##JCAMP-DX=4.24
##DATA TYPE=MASS SPECTRUM
##ORIGIN=Association of Official Racing Chemists
##OWNER=NIST Mass Spectrometry Data Center
Collection (C) 2014 copyright by the U.S. Secretary of Commerce
on behalf of the United States of America. All rights reserved.
##CAS REGISTRY NO=268746-73-2
##$NIST MASS SPEC NO=137047
##MOLFORM=C15 H12 F2 O3
##MW=278
##$NIST SOURCE=MSDC
##XUNITS=M/Z
##YUNITS=RELATIVE INTENSITY
##XFACTOR=1
##YFACTOR=1
##FIRSTX=50
##LASTX=281
##FIRSTY=187
##MAXX=281
##MINX=50
##MAXY=9999
##MINY=16
##NPOINTS=150
##PEAK TABLE=(XY..XY)
50,187 51,195 53,223 55,73
56,48 57,191 59,412 61,75
62,244 63,265 64,31 65,61
66,34 67,35 68,183 69,45
70,33 73,24 74,214 75,310
76,57 77,92 78,321 80,66
81,232 82,43 83,53 84,64
85,106 86,125 87,206 88,233
89,60 90,32 91,56 92,68
93,99 94,217 95,50 98,125
99,242 100,87 101,189 102,285
104,75 105,170 106,86 107,100
109,68 110,96 111,87 112,95
113,50 114,42 116,70 117,77
118,87 119,108 120,43 123,587
125,372 126,95 127,130 129,85
130,43 131,177 132,51 133,53
134,46 135,73 138,979 139,206
141,127 142,49 143,203 144,105
145,43 147,53 149,470 150,395
151,651 152,73 155,285 156,763
157,601 158,88 159,70 162,221
163,168 164,703 165,322 166,59
167,115 168,338 169,724 170,558
171,607 172,108 173,162 175,3673
176,1746 177,514 178,90 183,132
184,68 185,293 186,189 187,347
188,3367 189,3524 190,657 191,328
192,139 193,30 199,40 201,773
202,189 203,329 204,3581 205,767
206,83 207,375 208,67 217,2126
218,863 219,393 220,86 230,35
231,91 232,1125 233,690 234,115
235,43 243,28 245,7151 246,1371
247,9999 248,1781 249,643 250,83
259,39 261,153 262,47 263,94
264,39 267,18 278,7366 279,1274
280,189 281,16
##END=
