##TITLE=1-Ethyl-2-pyrrolidinone
##JCAMP-DX=4.24
##DATA TYPE=MASS SPECTRUM
##ORIGIN=NIST Mass Spectrometry Data Center, 1994
##OWNER=NIST Mass Spectrometry Data Center
Collection (C) 2014 copyright by the U.S. Secretary of Commerce
on behalf of the United States of America. All rights reserved.
##CAS REGISTRY NO=2687-91-4
##$NIST MASS SPEC NO=133595
##MOLFORM=C6 H11 N O
##MW=113
##$NIST SOURCE=MSDC
##XUNITS=M/Z
##YUNITS=RELATIVE INTENSITY
##XFACTOR=1
##YFACTOR=1
##FIRSTX=13
##LASTX=115
##FIRSTY=26
##MAXX=115
##MINX=13
##MAXY=9999
##MINY=26
##NPOINTS=52
##PEAK TABLE=(XY..XY)
13,26 14,149 15,696 16,36
26,745 27,2447 28,3891 29,1315
30,969 31,28 32,53 34,49
35,88 37,88 38,249 39,1526
40,650 41,4232 42,3802 43,2269
44,762 45,30 49,44 51,61
52,150 53,149 54,511 55,563
56,1540 57,1499 58,1218 59,57
66,57 67,93 68,1088 69,2587
70,6951 71,488 72,78 80,127
82,101 84,1379 85,980 86,168
96,51 98,9999 99,552 100,29
112,1572 113,8289 114,575 115,38
##END=
