##TITLE=Neodecanoic acid
##JCAMP-DX=4.24
##DATA TYPE=MASS SPECTRUM
##ORIGIN=NIST Mass Spectrometry Data Center, 1994
##OWNER=NIST Mass Spectrometry Data Center
Collection (C) 2014 copyright by the U.S. Secretary of Commerce
on behalf of the United States of America. All rights reserved.
##CAS REGISTRY NO=26896-20-8
##$NIST MASS SPEC NO=134062
##MOLFORM=C10 H20 O2
##MW=172
##$NIST SOURCE=MSDC
##XUNITS=M/Z
##YUNITS=RELATIVE INTENSITY
##XFACTOR=1
##YFACTOR=1
##FIRSTX=14
##LASTX=157
##FIRSTY=41
##MAXX=157
##MINX=14
##MAXY=9999
##MINY=13
##NPOINTS=82
##PEAK TABLE=(XY..XY)
14,41 15,318 16,13 19,30
27,3346 28,375 29,3914 30,122
31,264 39,2272 41,5883 42,931
43,5198 44,227 45,1464 46,64
50,51 51,184 52,97 53,694
54,51 55,2650 56,574 57,2392
58,51 59,1201 60,129 63,32
65,130 66,60 67,313 68,32
69,1336 70,536 71,1976 72,32
73,1630 74,156 75,26 77,76
79,102 80,28 81,96 82,93
83,371 84,227 85,1172 86,26
87,9999 88,5151 89,264 90,22
91,32 94,33 95,53 96,38
97,178 98,109 99,80 100,22
101,1704 102,3239 103,203 104,20
109,26 111,95 112,65 113,37
114,20 115,490 116,1756 117,126
125,60 127,583 128,74 129,300
130,1641 131,211 132,22 143,171
144,82 157,35
##END=
