##TITLE=Benzene,1,2,3,4-tetrachloro-5-fluoro-
##JCAMP-DX=4.24
##DATA TYPE=MASS SPECTRUM
##ORIGIN=A.Pleshkova, Nesmeyanov Inst.Org.Elem.Cpds, Moscow
##OWNER=NIST Mass Spectrometry Data Center
Collection (C) 2014 copyright by the U.S. Secretary of Commerce
on behalf of the United States of America. All rights reserved.
##CAS REGISTRY NO=2691-93-2
##$NIST MASS SPEC NO=283964
##MOLFORM=C6 H Cl4 F
##MW=232
##$NIST SOURCE=MSDC
##XUNITS=M/Z
##YUNITS=RELATIVE INTENSITY
##XFACTOR=1
##YFACTOR=1
##FIRSTX=44
##LASTX=240
##FIRSTY=40
##MAXX=240
##MINX=44
##MAXY=9999
##MINY=30
##NPOINTS=73
##PEAK TABLE=(XY..XY)
44,40 47,230 48,90 49,150
60,240 61,661 62,50 71,270
72,290 73,350 74,60 81,240
82,170 83,140 84,270 90,190
91,270 92,1381 93,140 94,80
95,320 96,490 97,100 98,280
99,100 102,400 103,90 104,140
105,30 106,130 107,220 108,430
109,130 110,140 114,50 115,170
116,440 117,641 118,581 119,70
120,150 125,120 126,470 127,1551
128,240 129,490 130,150 131,320
132,50 133,180 161,310 162,1872
163,310 164,1181 165,120 166,180
167,50 196,150 197,2212 198,300
199,2372 200,200 201,781 202,70
232,7297 233,460 234,9999 235,671
236,4694 237,330 238,1031 239,90
240,60
##END=
