##TITLE=4H-1,3-Oxazine, 5,6-dihydro-2,4,4,6-tetramethyl-
##JCAMP-DX=4.24
##DATA TYPE=MASS SPECTRUM
##ORIGIN=RADIAN CORP
##OWNER=NIST Mass Spectrometry Data Center
Collection (C) 2014 copyright by the U.S. Secretary of Commerce
on behalf of the United States of America. All rights reserved.
##CAS REGISTRY NO=26939-18-4
##$NIST MASS SPEC NO=72918
##MOLFORM=C8 H15 N O
##MW=141
##$NIST SOURCE=MSDC
##XUNITS=M/Z
##YUNITS=RELATIVE INTENSITY
##XFACTOR=1
##YFACTOR=1
##FIRSTX=14
##LASTX=142
##FIRSTY=20
##MAXX=142
##MINX=14
##MAXY=9999
##MINY=10
##NPOINTS=50
##PEAK TABLE=(XY..XY)
14,20 15,610 18,20 26,50
27,540 28,380 29,440 30,120
31,50 38,60 39,1140 40,300
41,1600 42,3040 43,9999 44,820
45,60 51,50 52,40 53,130
54,110 55,330 56,1020 57,1090
58,1420 59,60 65,20 67,120
68,90 69,30 70,130 71,1420
72,60 81,10 82,350 83,70
84,1470 85,150 86,290 87,10
98,390 99,1520 100,230 110,90
113,30 126,530 127,30 140,10
141,1370 142,130
##END=
