##TITLE=1-Hexene, 6-bromo-
##JCAMP-DX=4.24
##DATA TYPE=MASS SPECTRUM
##ORIGIN=NIST Mass Spectrometry Data Center, 1990.
##OWNER=NIST Mass Spectrometry Data Center
Collection (C) 2014 copyright by the U.S. Secretary of Commerce
on behalf of the United States of America. All rights reserved.
##CAS REGISTRY NO=2695-47-8
##$NIST MASS SPEC NO=113223
##MOLFORM=C6 H11 Br
##MW=162
##$NIST SOURCE=MSDC
##XUNITS=M/Z
##YUNITS=RELATIVE INTENSITY
##XFACTOR=1
##YFACTOR=1
##FIRSTX=14
##LASTX=164
##FIRSTY=73
##MAXX=164
##MINX=14
##MAXY=9999
##MINY=28
##NPOINTS=51
##PEAK TABLE=(XY..XY)
14,73 15,279 16,28 18,79
26,648 27,3842 28,1511 29,1812
32,59 37,208 38,638 39,5943
40,1114 41,8877 42,1507 43,252
50,485 51,694 52,353 53,1326
54,2664 55,9999 56,889 63,107
65,237 67,3699 68,240 69,745
77,138 78,62 79,288 80,89
81,467 82,2693 83,6376 84,413
93,221 95,276 106,91 107,227
108,64 109,151 119,80 120,267
121,239 122,281 123,187 134,259
136,274 162,194 164,172
##END=
