##TITLE=2-Pyrazoline, 1-isopropyl-5-methyl-
##JCAMP-DX=4.24
##DATA TYPE=MASS SPECTRUM
##ORIGIN=ATLAS OF MASS SPECTRA OF ORGANIC COMPOUNDS, V. A. KOPTYUG, ED.
##OWNER=NIST Mass Spectrometry Data Center
Collection (C) 2014 copyright by the U.S. Secretary of Commerce
on behalf of the United States of America. All rights reserved.
##CAS REGISTRY NO=26964-54-5
##$NIST MASS SPEC NO=64571
##MOLFORM=C7 H14 N2
##MW=126
##$NIST SOURCE=MSDC
##XUNITS=M/Z
##YUNITS=RELATIVE INTENSITY
##XFACTOR=1
##YFACTOR=1
##FIRSTX=26
##LASTX=127
##FIRSTY=80
##MAXX=127
##MINX=26
##MAXY=9999
##MINY=40
##NPOINTS=31
##PEAK TABLE=(XY..XY)
26,80 27,830 29,230 30,90
38,40 39,530 40,150 41,1040
42,3190 43,680 44,660 52,40
53,70 54,170 55,110 56,260
57,40 58,50 67,50 68,340
69,7660 70,420 81,50 82,80
83,360 84,90 111,9999 112,550
125,90 126,2660 127,210
##END=
