##TITLE=2-Pyrazoline, 1-isobutyl-3-methyl-
##JCAMP-DX=4.24
##DATA TYPE=MASS SPECTRUM
##ORIGIN=ATLAS OF MASS SPECTRA OF ORGANIC COMPOUNDS, V. A. KOPTYUG, ED.
##OWNER=NIST Mass Spectrometry Data Center
Collection (C) 2014 copyright by the U.S. Secretary of Commerce
on behalf of the United States of America. All rights reserved.
##CAS REGISTRY NO=26964-53-4
##$NIST MASS SPEC NO=64576
##MOLFORM=C8 H16 N2
##MW=140
##$NIST SOURCE=MSDC
##XUNITS=M/Z
##YUNITS=RELATIVE INTENSITY
##XFACTOR=1
##YFACTOR=1
##FIRSTX=26
##LASTX=141
##FIRSTY=40
##MAXX=141
##MINX=26
##MAXY=9999
##MINY=20
##NPOINTS=30
##PEAK TABLE=(XY..XY)
26,40 27,320 28,600 29,310
30,30 39,220 41,430 42,1160
43,130 53,50 54,110 55,140
56,310 57,60 58,30 68,160
69,680 70,50 82,30 83,310
84,70 95,70 96,80 97,9999
98,470 99,20 125,60 139,30
140,770 141,80
##END=
