##TITLE=N,N-Diisopropylformamide
##JCAMP-DX=4.24
##DATA TYPE=MASS SPECTRUM
##ORIGIN=NIST Mass Spectrometry Data Center
##OWNER=NIST Mass Spectrometry Data Center
Collection (C) 2014 copyright by the U.S. Secretary of Commerce
on behalf of the United States of America. All rights reserved.
##CAS REGISTRY NO=2700-30-3
##$NIST MASS SPEC NO=343616
##MOLFORM=C7 H15 N O
##MW=129
##$NIST SOURCE=MSDC
##XUNITS=M/Z
##YUNITS=RELATIVE INTENSITY
##XFACTOR=1
##YFACTOR=1
##FIRSTX=14
##LASTX=131
##FIRSTY=20
##MAXX=131
##MINX=14
##MAXY=9999
##MINY=10
##NPOINTS=47
##PEAK TABLE=(XY..XY)
14,20 15,500 16,10 17,10
18,701 26,100 27,1401 28,981
29,561 30,340 31,30 37,20
38,80 39,841 40,180 41,1922
42,1692 43,1621 44,5545 45,140
46,200 51,10 52,20 54,80
55,20 56,120 57,70 58,1712
59,120 68,50 69,20 70,270
72,9999 73,380 74,20 84,140
86,1912 87,140 88,50 98,110
100,180 101,10 114,1912 115,120
129,2622 130,240 131,10
##END=
