##TITLE=Propanedinitrile, (phenylmethylene)-
##JCAMP-DX=4.24
##DATA TYPE=MASS SPECTRUM
##ORIGIN=Japan AIST/NIMC Database- Spectrum MS-NW-3878
##OWNER=NIST Mass Spectrometry Data Center
Collection (C) 2014 copyright by the U.S. Secretary of Commerce
on behalf of the United States of America. All rights reserved.
##CAS REGISTRY NO=2700-22-3
##$NIST MASS SPEC NO=232201
##MOLFORM=C10 H6 N2
##MW=154
##$NIST SOURCE=MSDC
##XUNITS=M/Z
##YUNITS=RELATIVE INTENSITY
##XFACTOR=1
##YFACTOR=1
##FIRSTX=25
##LASTX=156
##FIRSTY=10
##MAXX=156
##MINX=25
##MAXY=9999
##MINY=10
##NPOINTS=70
##PEAK TABLE=(XY..XY)
25,10 26,119 27,219 28,50
31,10 36,20 37,189 38,309
39,779 40,40 41,10 43,10
48,20 49,119 50,1179 51,1229
52,479 53,50 60,30 61,199
62,339 63,639 64,219 65,70
66,10 72,10 73,99 74,449
75,689 76,1149 77,649 78,99
79,20 84,10 85,40 86,80
87,169 88,209 89,179 90,50
91,20 97,20 98,60 99,349
100,769 101,459 102,259 103,5209
104,439 105,40 110,10 111,10
112,40 113,20 114,40 115,20
122,10 123,30 124,30 125,40
126,469 127,5399 128,829 129,60
139,10 152,50 153,859 154,9999
155,1139 156,70
##END=
