##TITLE=Methyl 3,5-dinitrobenzoate
##JCAMP-DX=4.24
##DATA TYPE=MASS SPECTRUM
##ORIGIN=NIST Mass Spectrometry Data Center, 1994
##OWNER=NIST Mass Spectrometry Data Center
Collection (C) 2014 copyright by the U.S. Secretary of Commerce
on behalf of the United States of America. All rights reserved.
##CAS REGISTRY NO=2702-58-1
##$NIST MASS SPEC NO=135552
##MOLFORM=C8 H6 N2 O6
##MW=226
##$NIST SOURCE=MSDC
##XUNITS=M/Z
##YUNITS=RELATIVE INTENSITY
##XFACTOR=1
##YFACTOR=1
##FIRSTX=12
##LASTX=227
##FIRSTY=40
##MAXX=227
##MINX=12
##MAXY=9999
##MINY=3
##NPOINTS=103
##PEAK TABLE=(XY..XY)
12,40 15,1864 17,19 18,91
26,32 27,54 29,548 30,2907
31,183 37,299 38,361 39,276
40,3 41,24 42,23 43,18
44,34 46,477 48,17 49,105
50,440 51,297 52,146 53,259
54,25 55,27 59,983 60,65
61,300 62,718 63,1304 64,202
65,69 66,100 67,31 68,21
69,129 70,18 73,567 74,4318
75,8051 76,852 77,204 78,134
79,171 80,38 82,19 86,50
87,71 88,88 89,109 90,127
91,342 92,139 93,53 94,27
101,216 102,843 103,1096 104,188
105,103 106,182 107,237 108,33
109,19 116,18 118,365 119,556
120,543 121,144 122,184 123,19
133,1235 134,845 135,293 136,133
137,95 138,18 148,540 149,3524
150,397 151,69 152,39 162,27
163,32 164,52 165,186 166,520
167,87 179,146 180,450 181,1710
182,160 183,24 191,17 195,9999
196,6956 197,674 198,101 209,60
210,146 226,794 227,83
##END=
