##TITLE=Cyclohexanepropanoic acid, 2-propenyl ester
##JCAMP-DX=4.24
##DATA TYPE=MASS SPECTRUM
##ORIGIN=Japan AIST/NIMC Database- Spectrum MS-IW- 996
##OWNER=NIST Mass Spectrometry Data Center
Collection (C) 2014 copyright by the U.S. Secretary of Commerce
on behalf of the United States of America. All rights reserved.
##CAS REGISTRY NO=2705-87-5
##$NIST MASS SPEC NO=233253
##MOLFORM=C12 H20 O2
##MW=196
##$NIST SOURCE=MSDC
##XUNITS=M/Z
##YUNITS=RELATIVE INTENSITY
##XFACTOR=1
##YFACTOR=1
##FIRSTX=15
##LASTX=197
##FIRSTY=70
##MAXX=197
##MINX=15
##MAXY=9999
##MINY=10
##NPOINTS=132
##PEAK TABLE=(XY..XY)
15,70 17,10 18,30 26,60
27,739 28,199 29,1039 30,50
31,90 32,10 36,70 37,10
38,60 39,1519 40,259 41,7149
42,569 43,2499 44,109 45,159
46,10 47,10 50,20 51,80
52,50 53,509 54,1929 55,9169
56,1569 57,1439 58,1479 59,179
60,699 61,179 62,10 63,10
65,139 66,119 67,3119 68,699
69,2909 70,469 71,869 72,209
73,719 74,449 75,90 76,20
77,209 78,70 79,1309 80,279
81,1999 82,1749 83,1959 84,159
85,719 86,60 87,459 88,139
89,30 91,819 92,119 93,2889
94,1209 95,9999 96,3359 97,7429
98,579 99,689 100,7909 101,2459
102,199 103,30 104,10 105,60
106,10 107,159 108,90 109,2279
110,459 111,249 112,40 113,7099
114,589 115,109 116,20 117,50
118,20 119,3549 120,619 121,8029
122,839 123,99 124,20 125,30
126,30 127,139 128,20 129,60
130,10 131,20 133,10 134,10
135,80 136,279 137,3309 138,919
139,3519 140,369 141,80 142,10
143,30 149,99 150,30 151,30
152,10 153,40 154,129 155,409
156,60 157,109 158,10 167,849
168,99 169,20 178,10 181,40
194,10 195,30 196,209 197,30
##END=
