##TITLE=2-Pyridineethanamine
##JCAMP-DX=4.24
##DATA TYPE=MASS SPECTRUM
##ORIGIN=Japan AIST/NIMC Database- Spectrum MS-NW-5768
##OWNER=NIST Mass Spectrometry Data Center
Collection (C) 2014 copyright by the U.S. Secretary of Commerce
on behalf of the United States of America. All rights reserved.
##CAS REGISTRY NO=2706-56-1
##$NIST MASS SPEC NO=234719
##MOLFORM=C7 H10 N2
##MW=122
##$NIST SOURCE=MSDC
##XUNITS=M/Z
##YUNITS=RELATIVE INTENSITY
##XFACTOR=1
##YFACTOR=1
##FIRSTX=26
##LASTX=123
##FIRSTY=90
##MAXX=123
##MINX=26
##MAXY=9999
##MINY=10
##NPOINTS=64
##PEAK TABLE=(XY..XY)
26,90 27,209 28,489 29,60
30,2819 31,50 32,10 37,60
38,139 39,599 40,159 41,169
42,179 43,139 44,90 45,10
46,10 49,20 50,189 51,449
52,389 53,199 54,80 55,10
56,10 57,10 60,10 61,30
62,50 63,139 64,99 65,579
66,949 67,269 68,20 69,10
70,10 73,10 74,10 75,20
76,30 77,80 78,549 79,799
80,539 81,30 83,10 90,10
91,50 92,609 93,9999 94,1139
95,60 103,10 104,309 105,939
106,689 107,99 118,60 119,109
120,30 121,579 122,179 123,20
##END=
