##TITLE=Perfluoro-n-pentanoic acid
##JCAMP-DX=4.24
##DATA TYPE=MASS SPECTRUM
##ORIGIN=NIST Mass Spectrometry Data Center, 1994
##OWNER=NIST Mass Spectrometry Data Center
Collection (C) 2014 copyright by the U.S. Secretary of Commerce
on behalf of the United States of America. All rights reserved.
##CAS REGISTRY NO=2706-90-3
##$NIST MASS SPEC NO=136727
##MOLFORM=C5 H F9 O2
##MW=264
##$NIST SOURCE=MSDC
##XUNITS=M/Z
##YUNITS=RELATIVE INTENSITY
##XFACTOR=1
##YFACTOR=1
##FIRSTX=17
##LASTX=245
##FIRSTY=119
##MAXX=245
##MINX=17
##MAXY=9999
##MINY=33
##NPOINTS=51
##PEAK TABLE=(XY..XY)
17,119 20,57 31,497 32,93
36,90 39,50 44,334 45,9999
46,129 47,237 50,688 51,1609
52,47 62,148 63,50 67,440
69,9289 70,110 71,59 75,74
77,47 78,102 79,33 80,33
81,322 82,66 93,452 95,365
97,693 98,47 100,3851 101,104
106,62 109,287 112,150 117,68
119,1302 120,147 131,6896 132,237
147,38 150,447 169,1409 170,63
181,615 182,35 197,55 200,730
201,49 219,481 245,33
##END=
