##TITLE=2,1-Benzisoxazole
##JCAMP-DX=4.24
##DATA TYPE=MASS SPECTRUM
##ORIGIN=M.H. PALMER, UNIV. EDINBURGH, EDINBURGH, SCOTLAND
##OWNER=NIST Mass Spectrometry Data Center
Collection (C) 2014 copyright by the U.S. Secretary of Commerce
on behalf of the United States of America. All rights reserved.
##CAS REGISTRY NO=271-58-9
##$NIST MASS SPEC NO=105003
##MOLFORM=C7 H5 N O
##MW=119
##$NIST SOURCE=MSDC
##XUNITS=M/Z
##YUNITS=RELATIVE INTENSITY
##XFACTOR=1
##YFACTOR=1
##FIRSTX=29
##LASTX=119
##FIRSTY=700
##MAXX=119
##MINX=29
##MAXY=9999
##MINY=100
##NPOINTS=30
##PEAK TABLE=(XY..XY)
29,700 30,200 36,200 37,1000
38,1500 39,1800 40,400 41,700
43,100 49,200 50,600 51,700
52,1100 53,300 61,600 62,700
63,3000 64,5000 65,900 66,300
74,300 75,500 76,300 77,200
90,700 91,2400 92,7700 93,1000
118,300 119,9999
##END=
