##TITLE=.alpha.-Bromomesitylene
##JCAMP-DX=4.24
##DATA TYPE=MASS SPECTRUM
##ORIGIN=NIST Mass Spectrometry Data Center
##OWNER=NIST Mass Spectrometry Data Center
Collection (C) 2014 copyright by the U.S. Secretary of Commerce
on behalf of the United States of America. All rights reserved.
##CAS REGISTRY NO=27129-86-8
##$NIST MASS SPEC NO=341158
##MOLFORM=C9 H11 Br
##MW=198
##$NIST SOURCE=MSDC
##XUNITS=M/Z
##YUNITS=RELATIVE INTENSITY
##XFACTOR=1
##YFACTOR=1
##FIRSTX=26
##LASTX=201
##FIRSTY=10
##MAXX=201
##MINX=26
##MAXY=9999
##MINY=10
##NPOINTS=62
##PEAK TABLE=(XY..XY)
26,10 27,70 37,10 38,50
39,340 40,30 41,230 49,10
50,200 51,400 52,170 53,140
54,10 58,230 59,150 61,30
62,110 63,310 64,70 65,310
66,30 67,10 73,10 74,90
75,80 76,80 77,651 78,400
79,240 80,20 81,20 85,10
86,20 87,30 88,10 89,140
90,40 91,1722 92,150 93,150
94,10 98,60 99,50 101,10
102,170 103,741 104,671 105,90
115,671 116,130 117,841 118,290
119,9999 120,1071 121,40 183,30
185,30 197,20 198,931 199,110
200,911 201,80
##END=
