##TITLE=Benzenemethanol, 3,5-dimethyl-
##JCAMP-DX=4.24
##DATA TYPE=MASS SPECTRUM
##ORIGIN=NIST Mass Spectrometry Data Center, 1994
##OWNER=NIST Mass Spectrometry Data Center
Collection (C) 2014 copyright by the U.S. Secretary of Commerce
on behalf of the United States of America. All rights reserved.
##CAS REGISTRY NO=27129-87-9
##$NIST MASS SPEC NO=134439
##MOLFORM=C9 H12 O
##MW=136
##$NIST SOURCE=MSDC
##XUNITS=M/Z
##YUNITS=RELATIVE INTENSITY
##XFACTOR=1
##YFACTOR=1
##FIRSTX=14
##LASTX=138
##FIRSTY=39
##MAXX=138
##MINX=14
##MAXY=9999
##MINY=25
##NPOINTS=75
##PEAK TABLE=(XY..XY)
14,39 15,300 26,170 27,1272
28,132 29,951 30,157 31,795
37,106 38,354 39,2159 40,268
41,719 42,59 43,155 44,44
45,37 46,27 50,692 51,1595
52,477 53,660 54,77 55,183
57,86 59,54 60,255 61,129
62,423 63,1099 64,249 65,1609
66,315 67,483 74,282 75,219
77,4235 78,1014 79,1841 80,150
81,41 85,32 86,90 87,113
88,32 89,373 90,32 91,7946
92,1148 93,6654 94,553 95,42
98,46 102,287 103,1135 104,468
105,2388 106,42 107,4790 108,463
109,25 115,599 116,163 117,1077
118,2125 119,1184 120,25 121,8966
122,755 123,54 133,519 134,272
136,9999 137,1002 138,92
##END=
