##TITLE=3,5-Bis(trifluoromethyl)benzonitrile
##JCAMP-DX=4.24
##DATA TYPE=MASS SPECTRUM
##ORIGIN=Japan AIST/NIMC Database- Spectrum MS-NW-9962
##OWNER=NIST Mass Spectrometry Data Center
Collection (C) 2014 copyright by the U.S. Secretary of Commerce
on behalf of the United States of America. All rights reserved.
##CAS REGISTRY NO=27126-93-8
##$NIST MASS SPEC NO=239045
##MOLFORM=C9 H3 F6 N
##MW=239
##$NIST SOURCE=MSDC
##XUNITS=M/Z
##YUNITS=RELATIVE INTENSITY
##XFACTOR=1
##YFACTOR=1
##FIRSTX=20
##LASTX=241
##FIRSTY=30
##MAXX=241
##MINX=20
##MAXY=9999
##MINY=10
##NPOINTS=125
##PEAK TABLE=(XY..XY)
20,30 26,10 27,10 28,119
31,269 32,10 33,10 37,90
38,109 39,30 49,60 50,459
51,199 52,20 55,10 56,60
57,189 60,10 61,90 62,90
63,70 64,50 68,90 69,1329
70,20 72,10 73,90 74,279
75,1119 76,159 77,10 79,40
80,70 81,80 82,80 84,10
85,70 86,50 87,139 88,109
89,10 92,40 93,199 94,99
95,60 98,30 99,579 100,639
101,149 102,10 103,20 104,30
105,60 106,80 107,10 108,10
109,30 110,40 111,20 112,50
113,50 117,50 118,80 119,169
120,499 121,40 123,99 124,159
125,109 126,30 130,30 131,20
132,60 136,10 137,30 138,30
139,709 140,50 142,20 143,459
144,149 145,10 148,20 149,20
150,589 151,329 152,20 156,10
161,30 162,50 163,139 164,10
168,119 169,409 170,6429 171,589
172,20 173,10 174,10 180,60
181,30 182,10 187,10 188,469
189,2719 190,249 191,10 193,40
194,30 195,10 199,20 200,80
201,40 212,40 213,199 214,20
218,20 219,179 220,5749 221,589
222,20 238,559 239,9999 240,1009
241,50
##END=
