##TITLE=3,5-Difluorophenol
##JCAMP-DX=4.24
##DATA TYPE=MASS SPECTRUM
##ORIGIN=NIST Mass Spectrometry Data Center
##OWNER=NIST Mass Spectrometry Data Center
Collection (C) 2014 copyright by the U.S. Secretary of Commerce
on behalf of the United States of America. All rights reserved.
##CAS REGISTRY NO=2713-34-0
##$NIST MASS SPEC NO=340549
##MOLFORM=C6 H4 F2 O
##MW=130
##$NIST SOURCE=MSDC
##XUNITS=M/Z
##YUNITS=RELATIVE INTENSITY
##XFACTOR=1
##YFACTOR=1
##FIRSTX=25
##LASTX=132
##FIRSTY=20
##MAXX=132
##MINX=25
##MAXY=9999
##MINY=10
##NPOINTS=76
##PEAK TABLE=(XY..XY)
25,20 26,30 27,20 29,200
31,591 32,20 33,20 36,50
37,280 38,320 39,140 41,60
42,30 43,10 44,160 45,130
47,10 48,30 49,140 50,500
51,1141 52,510 53,180 54,10
55,140 56,450 57,1191 58,70
60,90 61,500 62,500 63,1161
64,90 65,370 66,60 67,10
68,210 69,140 70,60 71,170
72,50 73,140 74,150 75,921
76,370 77,40 79,110 80,170
81,1371 82,2012 83,601 84,50
86,70 87,40 88,70 91,80
92,70 93,60 94,20 97,20
98,10 99,330 100,190 101,5355
102,4894 103,260 104,20 110,90
111,50 112,210 113,110 128,40
129,260 130,9999 131,811 132,40
##END=
