##TITLE=4,4'-Dimethoxy-N-methyldiphenylamine
##JCAMP-DX=4.24
##DATA TYPE=MASS SPECTRUM
##ORIGIN=NIST Mass Spectrometry Data Center, 1994
##OWNER=NIST Mass Spectrometry Data Center
Collection (C) 2014 copyright by the U.S. Secretary of Commerce
on behalf of the United States of America. All rights reserved.
##CAS REGISTRY NO=27151-57-1
##$NIST MASS SPEC NO=136156
##MOLFORM=C15 H17 N O2
##MW=243
##$NIST SOURCE=MSDC
##XUNITS=M/Z
##YUNITS=RELATIVE INTENSITY
##XFACTOR=1
##YFACTOR=1
##FIRSTX=7
##LASTX=245
##FIRSTY=21
##MAXX=245
##MINX=7
##MAXY=9999
##MINY=2
##NPOINTS=131
##PEAK TABLE=(XY..XY)
7,21 9,11 10,2 11,6
12,10 15,1298 17,13 18,8
38,128 39,353 40,31 41,9
42,49 44,3 50,239 51,313
52,200 53,129 54,38 55,33
58,15 61,12 62,102 63,567
64,502 65,310 66,185 67,101
68,26 72,15 75,83 76,167
77,473 78,224 79,77 80,58
82,11 83,45 84,44 86,15
87,31 88,43 89,157 90,221
91,122 92,427 94,39 95,16
99,37 100,47 101,72 102,79
103,117 104,54 105,44 106,181
107,159 108,40 114,238 115,471
116,332 117,99 118,78 119,23
120,143 121,207 122,199 126,63
127,189 128,196 129,95 130,44
131,49 132,34 133,72 134,155
135,29 136,26 139,50 140,127
141,189 142,228 143,140 144,147
145,38 151,20 152,43 153,90
154,295 155,170 156,273 157,124
158,51 159,92 160,35 166,66
167,116 168,233 169,222 170,499
171,137 172,59 180,23 181,48
182,171 183,97 184,175 185,284
186,55 196,97 197,218 198,2830
199,495 200,144 201,22 210,23
211,39 213,2205 214,1493 215,237
216,25 226,109 228,9999 229,2170
230,294 231,17 240,18 241,46
243,5929 244,1139 245,137
##END=
