##TITLE=Bicyclo[2.2.2]octanone
##JCAMP-DX=4.24
##DATA TYPE=MASS SPECTRUM
##ORIGIN=CARL DJERASSI DEPT OF CHEM STANFORD UNIV STANFORD CALIF 94305
##OWNER=NIST Mass Spectrometry Data Center
Collection (C) 2014 copyright by the U.S. Secretary of Commerce
on behalf of the United States of America. All rights reserved.
##CAS REGISTRY NO=2716-23-6
##$NIST MASS SPEC NO=46409
##MOLFORM=C8 H12 O
##MW=124
##$NIST SOURCE=MSDC
##XUNITS=M/Z
##YUNITS=RELATIVE INTENSITY
##XFACTOR=1
##YFACTOR=1
##FIRSTX=40
##LASTX=125
##FIRSTY=200
##MAXX=125
##MINX=40
##MAXY=9999
##MINY=100
##NPOINTS=31
##PEAK TABLE=(XY..XY)
40,200 41,1800 42,100 44,200
50,100 51,200 52,100 53,700
54,2900 55,1600 56,100 63,100
65,100 66,200 67,2700 68,1100
69,100 70,200 77,200 78,500
79,800 80,9999 81,2100 82,500
83,100 91,200 92,100 95,400
96,100 124,3000 125,200
##END=
