##TITLE=Naphthalene, 1,2-dihydro-6-methyl-
##JCAMP-DX=4.24
##DATA TYPE=MASS SPECTRUM
##ORIGIN=M.C. HAMMING CONTINENTAL OIL CO., PONCA CITY, OKLA., USA
##OWNER=NIST Mass Spectrometry Data Center
Collection (C) 2014 copyright by the U.S. Secretary of Commerce
on behalf of the United States of America. All rights reserved.
##CAS REGISTRY NO=2717-47-7
##$NIST MASS SPEC NO=4004
##MOLFORM=C11 H12
##MW=144
##$NIST SOURCE=MSDC
##XUNITS=M/Z
##YUNITS=RELATIVE INTENSITY
##XFACTOR=1
##YFACTOR=1
##FIRSTX=13
##LASTX=146
##FIRSTY=14
##MAXX=146
##MINX=13
##MAXY=9999
##MINY=4
##NPOINTS=96
##PEAK TABLE=(XY..XY)
13,14 14,53 15,742 16,4
25,9 26,199 27,861 28,193
29,50 37,73 38,247 39,1364
40,137 41,183 42,17 43,40
49,34 50,626 51,1247 52,320
53,183 54,18 55,38 56,39
57,139 61,111 62,418 63,1187
64,552 65,622 66,70 67,18
69,172 70,53 71,1338 72,261
73,54 74,421 75,455 76,254
77,724 78,284 79,70 84,16
85,63 86,158 87,232 88,108
89,481 90,79 91,403 92,48
95,20 97,21 98,92 99,48
100,33 101,124 102,426 103,220
104,79 105,60 106,10 109,18
110,34 111,34 112,20 113,137
114,110 115,2042 116,527 117,258
118,197 119,79 121,46 122,44
125,110 126,266 127,1543 128,4835
129,9999 130,1338 131,133 132,47
133,30 134,28 137,31 138,46
139,361 140,154 141,1220 142,618
143,2793 144,7281 145,1085 146,117
##END=
