##TITLE=Cyclohexanecarbonyl chloride
##JCAMP-DX=4.24
##DATA TYPE=MASS SPECTRUM
##ORIGIN=Japan AIST/NIMC Database- Spectrum MS-NW-4877
##OWNER=NIST Mass Spectrometry Data Center
Collection (C) 2014 copyright by the U.S. Secretary of Commerce
on behalf of the United States of America. All rights reserved.
##CAS REGISTRY NO=2719-27-9
##$NIST MASS SPEC NO=230516
##MOLFORM=C7 H11 Cl O
##MW=146
##$NIST SOURCE=MSDC
##XUNITS=M/Z
##YUNITS=RELATIVE INTENSITY
##XFACTOR=1
##YFACTOR=1
##FIRSTX=15
##LASTX=148
##FIRSTY=60
##MAXX=148
##MINX=15
##MAXY=9999
##MINY=10
##NPOINTS=80
##PEAK TABLE=(XY..XY)
15,60 18,10 26,159 27,1069
28,159 29,629 30,20 32,10
35,40 36,299 37,50 38,109
39,1229 40,279 41,3269 42,359
43,279 44,30 45,10 49,20
50,119 51,209 52,109 53,559
54,969 55,5899 56,679 57,40
60,30 61,20 62,10 63,80
64,10 65,99 66,109 67,1459
68,779 69,149 70,20 73,99
74,20 75,40 76,20 77,109
78,40 79,219 80,50 81,599
82,499 83,9999 84,719 85,20
86,10 87,10 89,20 91,149
92,30 93,50 95,20 96,20
97,40 99,30 102,20 104,179
105,40 106,60 107,10 109,99
110,549 111,1039 112,90 113,10
117,40 118,40 119,10 120,10
128,20 146,80 147,10 148,30
##END=
