##TITLE=Benzene, (1-methylbutyl)-
##JCAMP-DX=4.24
##DATA TYPE=MASS SPECTRUM
##ORIGIN=Japan AIST/NIMC Database- Spectrum MS-IW-2821
##OWNER=NIST Mass Spectrometry Data Center
Collection (C) 2014 copyright by the U.S. Secretary of Commerce
on behalf of the United States of America. All rights reserved.
##CAS REGISTRY NO=2719-52-0
##$NIST MASS SPEC NO=245071
##MOLFORM=C11 H16
##MW=148
##$NIST SOURCE=MSDC
##XUNITS=M/Z
##YUNITS=RELATIVE INTENSITY
##XFACTOR=1
##YFACTOR=1
##FIRSTX=27
##LASTX=150
##FIRSTY=139
##MAXX=150
##MINX=27
##MAXY=9999
##MINY=10
##NPOINTS=55
##PEAK TABLE=(XY..XY)
27,139 28,10 29,50 38,10
39,149 40,10 41,159 42,10
43,30 50,60 51,199 52,50
53,40 55,50 57,10 62,10
63,70 64,20 65,119 66,10
70,10 74,20 75,20 76,20
77,569 78,199 79,489 80,30
87,10 89,40 90,10 91,1439
92,119 94,10 101,10 102,40
103,359 104,289 105,9999 106,1099
107,60 115,90 116,30 117,60
118,20 119,99 120,10 128,10
129,10 131,10 133,109 134,10
148,1969 149,239 150,10
##END=
