##TITLE=2-Acetamidothiazole
##JCAMP-DX=4.24
##DATA TYPE=MASS SPECTRUM
##ORIGIN=NIST Mass Spectrometry Data Center
##OWNER=NIST Mass Spectrometry Data Center
Collection (C) 2014 copyright by the U.S. Secretary of Commerce
on behalf of the United States of America. All rights reserved.
##CAS REGISTRY NO=2719-23-5
##$NIST MASS SPEC NO=340924
##MOLFORM=C5 H6 N2 O S
##MW=142
##$NIST SOURCE=MSDC
##XUNITS=M/Z
##YUNITS=RELATIVE INTENSITY
##XFACTOR=1
##YFACTOR=1
##FIRSTX=13
##LASTX=144
##FIRSTY=10
##MAXX=144
##MINX=13
##MAXY=9999
##MINY=10
##NPOINTS=56
##PEAK TABLE=(XY..XY)
13,10 14,60 15,370 25,10
26,70 27,90 28,190 29,40
32,60 33,10 38,60 39,100
40,150 41,160 42,350 43,5125
44,220 45,1231 46,310 47,80
48,20 51,30 52,30 53,100
54,60 55,1031 56,80 57,370
58,2062 59,210 60,120 61,10
66,20 67,10 69,10 70,110
71,140 72,70 73,1411 74,60
75,60 82,20 83,30 85,10
86,20 98,20 99,140 100,9999
101,510 102,470 103,20 113,30
127,100 142,2532 143,180 144,120
##END=
