##TITLE=3-Chloro-4-methylbenzyl chloride
##JCAMP-DX=4.24
##DATA TYPE=MASS SPECTRUM
##ORIGIN=NIST Mass Spectrometry Data Center, 1994
##OWNER=NIST Mass Spectrometry Data Center
Collection (C) 2014 copyright by the U.S. Secretary of Commerce
on behalf of the United States of America. All rights reserved.
##CAS REGISTRY NO=2719-40-6
##$NIST MASS SPEC NO=135377
##MOLFORM=C8 H8 Cl2
##MW=174
##$NIST SOURCE=MSDC
##XUNITS=M/Z
##YUNITS=RELATIVE INTENSITY
##XFACTOR=1
##YFACTOR=1
##FIRSTX=14
##LASTX=179
##FIRSTY=50
##MAXX=179
##MINX=14
##MAXY=9999
##MINY=13
##NPOINTS=91
##PEAK TABLE=(XY..XY)
14,50 15,358 25,29 26,308
27,695 28,51 29,14 35,205
36,125 37,323 38,540 39,1094
40,90 41,24 43,31 44,24
47,46 48,49 49,362 50,1462
51,2951 52,460 53,199 54,18
56,14 60,74 61,345 62,634
63,1150 64,170 65,120 66,16
68,193 69,154 70,29 72,69
73,395 74,569 75,802 76,451
77,2864 78,704 79,61 84,65
85,151 86,339 87,355 88,78
89,282 90,37 91,13 96,16
97,99 98,95 99,166 100,13
101,366 102,856 103,2989 104,856
105,95 109,22 110,18 111,61
112,84 113,53 114,33 123,73
124,26 125,118 127,39 133,17
135,15 136,39 137,104 138,15
139,9999 140,994 141,3113 142,272
159,223 160,24 161,140 162,13
163,26 172,22 174,1806 176,1117
177,109 178,201 179,18
##END=
