##TITLE=Benzo[b]tellurophene
##JCAMP-DX=4.24
##DATA TYPE=MASS SPECTRUM
##OWNER=NIST Mass Spectrometry Data Center
Collection (C) 2014 copyright by the U.S. Secretary of Commerce
on behalf of the United States of America. All rights reserved.
##CAS REGISTRY NO=272-35-5
##$NIST MASS SPEC NO=11168
##MOLFORM=C8 H6 Te
##MW=232
##$NIST SOURCE=MSDC
##XUNITS=M/Z
##YUNITS=RELATIVE INTENSITY
##XFACTOR=1
##YFACTOR=1
##FIRSTX=63
##LASTX=233
##FIRSTY=444
##MAXX=233
##MINX=63
##MAXY=9999
##MINY=133
##NPOINTS=27
##PEAK TABLE=(XY..XY)
63,444 74,1000 75,1555 76,2311
89,178 90,222 101,889 102,9999
103,1000 114,133 115,133 116,178
124,133 125,133 126,400 128,667
130,822 224,444 225,289 226,889
227,1333 228,2755 229,400 230,4577
231,622 232,4888 233,622
##END=
