##TITLE=1,2-Benzisothiazole
##JCAMP-DX=4.24
##DATA TYPE=MASS SPECTRUM
##OWNER=NIST Mass Spectrometry Data Center
Collection (C) 2014 copyright by the U.S. Secretary of Commerce
on behalf of the United States of America. All rights reserved.
##CAS REGISTRY NO=272-16-2
##$NIST MASS SPEC NO=29691
##MOLFORM=C7 H5 N S
##MW=135
##$NIST SOURCE=MSDC
##XUNITS=M/Z
##YUNITS=RELATIVE INTENSITY
##XFACTOR=1
##YFACTOR=1
##FIRSTX=39
##LASTX=137
##FIRSTY=500
##MAXX=137
##MINX=39
##MAXY=9999
##MINY=50
##NPOINTS=31
##PEAK TABLE=(XY..XY)
39,500 45,600 50,400 51,300
54,500 58,500 61,200 62,300
63,900 64,300 69,1600 74,200
75,200 76,200 77,200 81,300
82,700 84,300 90,100 91,1300
92,100 93,100 107,150 108,2500
109,300 110,100 133,50 134,300
135,9999 136,900 137,500
##END=
