##TITLE=Carbamic acid, dimethyl-, 2-(formylmethylamino)-5,6-dimethyl-4-pyrimidinyl ester
##JCAMP-DX=4.24
##DATA TYPE=MASS SPECTRUM
##ORIGIN=J. SHAW, BORRISTON RESEARCH, ROCKVILLE, MD, USA
##OWNER=NIST Mass Spectrometry Data Center
Collection (C) 2014 copyright by the U.S. Secretary of Commerce
on behalf of the United States of America. All rights reserved.
##CAS REGISTRY NO=27218-04-8
##$NIST MASS SPEC NO=60471
##MOLFORM=C11 H16 N4 O3
##MW=252
##$NIST SOURCE=MSDC
##XUNITS=M/Z
##YUNITS=RELATIVE INTENSITY
##XFACTOR=1
##YFACTOR=1
##FIRSTX=12
##LASTX=253
##FIRSTY=20
##MAXX=253
##MINX=12
##MAXY=9999
##MINY=10
##NPOINTS=121
##PEAK TABLE=(XY..XY)
12,20 13,10 14,110 15,4504
16,210 17,800 18,4664 19,20
20,10 26,200 27,1441 28,2082
29,490 30,470 31,40 32,90
36,10 37,10 38,50 39,400
40,220 41,790 42,2822 43,650
44,480 45,120 46,240 47,10
50,40 51,130 52,260 53,720
54,370 55,740 56,910 57,770
58,80 59,10 60,10 61,10
63,10 64,20 65,30 66,120
67,250 68,350 69,520 70,110
72,9999 73,800 74,70 75,10
77,20 78,20 79,70 80,90
81,80 82,110 83,410 84,30
85,30 87,10 90,10 91,10
92,10 93,70 94,60 95,280
96,170 97,190 98,330 99,20
105,10 107,30 108,20 109,110
110,40 111,20 112,10 120,30
121,10 122,20 123,120 124,370
125,90 127,320 128,200 129,10
134,30 135,80 136,70 137,110
138,170 139,40 140,30 141,30
149,20 150,10 151,90 152,1661
153,660 154,440 155,40 156,10
165,20 166,70 167,30 171,10
179,90 180,150 181,70 182,60
194,10 207,90 208,50 209,20
224,1071 225,120 226,10 252,110
253,20
##END=
