##TITLE=2H-Pyran-2-one, tetrahydro-6-nonyl-
##JCAMP-DX=4.24
##DATA TYPE=MASS SPECTRUM
##ORIGIN=Japan AIST/NIMC Database- Spectrum MS-NW-9636
##OWNER=NIST Mass Spectrometry Data Center
Collection (C) 2014 copyright by the U.S. Secretary of Commerce
on behalf of the United States of America. All rights reserved.
##CAS REGISTRY NO=2721-22-4
##$NIST MASS SPEC NO=236703
##MOLFORM=C14 H26 O2
##MW=226
##$NIST SOURCE=MSDC
##XUNITS=M/Z
##YUNITS=RELATIVE INTENSITY
##XFACTOR=1
##YFACTOR=1
##FIRSTX=14
##LASTX=227
##FIRSTY=10
##MAXX=227
##MINX=14
##MAXY=9999
##MINY=10
##NPOINTS=146
##PEAK TABLE=(XY..XY)
14,10 15,10 16,10 17,80
18,419 26,20 27,389 28,219
29,629 30,10 31,20 32,80
38,10 39,309 40,70 41,1739
42,1639 43,1959 44,129 45,50
50,10 51,20 52,10 53,129
54,309 55,2719 56,1179 57,989
58,159 59,50 60,209 61,20
65,40 66,40 67,589 68,799
69,1839 70,3079 71,2849 72,179
73,419 74,30 77,40 78,20
79,129 80,80 81,629 82,669
83,1429 84,959 85,309 86,369
87,159 88,20 91,80 92,20
93,90 94,109 95,519 96,869
97,1169 98,709 99,9999 100,1129
101,229 102,30 105,40 106,20
107,70 108,109 109,239 110,489
111,469 112,359 113,379 114,1139
115,249 116,40 117,10 118,10
119,149 120,50 121,80 122,50
123,249 124,339 125,229 126,90
127,169 128,90 129,50 130,20
131,10 133,149 134,269 135,99
136,30 137,249 138,159 139,90
140,20 141,90 142,80 143,40
144,20 147,99 148,109 149,30
150,20 151,189 152,99 153,40
154,40 155,209 156,30 157,20
158,10 161,80 162,20 164,409
165,159 166,219 167,50 168,10
169,30 170,30 171,10 175,10
179,60 180,30 181,10 183,50
184,10 189,10 190,60 191,40
193,10 197,20 198,10 199,10
208,129 209,90 210,10 225,30
226,209 227,30
##END=
