##TITLE=6-Nitrocoumarin
##JCAMP-DX=4.24
##DATA TYPE=MASS SPECTRUM
##ORIGIN=J. Little, Eastman chemical company.
##OWNER=NIST Mass Spectrometry Data Center
Collection (C) 2014 copyright by the U.S. Secretary of Commerce
on behalf of the United States of America. All rights reserved.
##CAS REGISTRY NO=2725-81-7
##$NIST MASS SPEC NO=403188
##MOLFORM=C9 H5 N O4
##MW=191
##$NIST SOURCE=MSDC
##XUNITS=M/Z
##YUNITS=RELATIVE INTENSITY
##XFACTOR=1
##YFACTOR=1
##FIRSTX=28
##LASTX=194
##FIRSTY=330
##MAXX=194
##MINX=28
##MAXY=9999
##MINY=10
##NPOINTS=41
##PEAK TABLE=(XY..XY)
28,330 30,170 38,320 39,641
43,430 45,270 50,440 51,891
53,150 61,290 62,951 63,2292
64,170 69,80 74,250 75,140
77,591 79,420 87,360 88,370
89,2833 90,270 98,60 105,601
106,60 116,110 117,2913 118,330
133,1021 134,100 145,440 146,120
161,1041 162,110 163,1722 164,160
175,160 191,9999 192,1101 193,150
194,10
##END=
