##TITLE=2-Acetyl-3,4,5,6-tetrahydropyridine
##JCAMP-DX=4.24
##DATA TYPE=MASS SPECTRUM
##ORIGIN=T.Hofmann ET AL.JAFC, 46,2721(1998)
##OWNER=NIST Mass Spectrometry Data Center
Collection (C) 2014 copyright by the U.S. Secretary of Commerce
on behalf of the United States of America. All rights reserved.
##CAS REGISTRY NO=27300-27-2
##$NIST MASS SPEC NO=281178
##MOLFORM=C7 H11 N O
##MW=125
##$NIST SOURCE=MSDC
##XUNITS=M/Z
##YUNITS=RELATIVE INTENSITY
##XFACTOR=1
##YFACTOR=1
##FIRSTX=39
##LASTX=127
##FIRSTY=961
##MAXX=127
##MINX=39
##MAXY=9999
##MINY=70
##NPOINTS=29
##PEAK TABLE=(XY..XY)
39,961 40,170 41,1862 42,861
43,9999 44,180 52,270 53,571
54,6786 55,7977 56,470 58,70
68,180 70,571 71,70 80,170
82,7977 83,7176 84,390 85,70
96,270 97,2472 98,70 110,180
122,70 124,490 125,8187 126,490
127,80
##END=
