##TITLE=Norflurazon
##JCAMP-DX=4.24
##DATA TYPE=MASS SPECTRUM
##ORIGIN=ACCUSTANDARD Chemicals / NIST MS Data Center.
##OWNER=NIST Mass Spectrometry Data Center
Collection (C) 2014 copyright by the U.S. Secretary of Commerce
on behalf of the United States of America. All rights reserved.
##CAS REGISTRY NO=27314-13-2
##$NIST MASS SPEC NO=125577
##MOLFORM=C12 H9 Cl F3 N3 O
##MW=303
##$NIST SOURCE=MSDC
##XUNITS=M/Z
##YUNITS=RELATIVE INTENSITY
##XFACTOR=1
##YFACTOR=1
##FIRSTX=14
##LASTX=307
##FIRSTY=22
##MAXX=307
##MINX=14
##MAXY=9999
##MINY=2
##NPOINTS=208
##PEAK TABLE=(XY..XY)
14,22 15,271 18,20 26,73
27,235 28,759 29,95 30,79
31,62 32,117 36,26 37,105
38,148 39,378 40,86 41,99
42,664 43,33 44,2 47,76
48,13 49,72 50,242 51,267
52,650 53,195 54,102 55,46
56,30 57,153 58,110 59,13
60,39 61,254 62,205 63,451
64,199 65,83 66,356 67,320
68,106 69,353 72,149 73,289
74,239 75,631 76,190 77,116
78,53 79,38 80,90 81,127
82,315 83,56 85,25 86,190
87,222 88,596 89,397 90,319
91,96 93,28 94,71 95,562
96,67 97,11 99,102 100,151
102,4307 103,296 104,1573 105,87
106,33 107,55 108,43 109,115
110,28 112,49 113,99 114,96
115,72 116,275 117,66 118,97
119,98 120,67 121,101 123,19
125,363 126,173 127,45 128,24
129,19 130,520 131,744 132,306
133,271 134,27 137,22 138,29
139,143 140,144 141,64 143,110
145,7127 146,540 147,34 150,20
151,62 152,93 153,18 156,23
157,25 158,55 159,173 160,101
161,47 164,35 165,25 167,22
168,39 169,31 170,111 171,127
172,425 173,2583 174,259 175,23
176,20 177,18 178,28 179,98
180,24 181,29 182,37 183,97
184,38 185,42 186,68 187,47
188,19 191,26 192,56 193,56
194,19 196,26 197,52 198,58
199,165 200,49 201,16 202,25
205,54 206,251 207,57 208,97
209,35 210,29 211,61 212,174
213,140 214,22 218,20 219,31
220,51 221,24 223,28 224,38
225,123 226,33 227,22 233,109
234,164 235,66 236,64 237,25
238,133 239,78 240,148 241,29
246,23 247,47 248,148 249,34
250,38 255,14 260,51 261,23
266,23 268,242 269,33 273,17
274,60 275,122 276,39 277,31
282,65 284,845 285,163 286,314
287,61 300,31 302,3678 303,9999
304,2603 305,3321 306,490 307,35
##END=
