##TITLE=3-Trifluoromethylbenzoylacetonitrile
##JCAMP-DX=4.24
##DATA TYPE=MASS SPECTRUM
##ORIGIN=NIST Mass Spectrometry Data Center, 1994
##OWNER=NIST Mass Spectrometry Data Center
Collection (C) 2014 copyright by the U.S. Secretary of Commerce
on behalf of the United States of America. All rights reserved.
##CAS REGISTRY NO=27328-86-5
##$NIST MASS SPEC NO=136970
##MOLFORM=C10 H6 F3 N O
##MW=213
##$NIST SOURCE=MSDC
##XUNITS=M/Z
##YUNITS=RELATIVE INTENSITY
##XFACTOR=1
##YFACTOR=1
##FIRSTX=12
##LASTX=213
##FIRSTY=20
##MAXX=213
##MINX=12
##MAXY=9999
##MINY=9
##NPOINTS=93
##PEAK TABLE=(XY..XY)
12,20 13,53 14,21 17,9
18,38 20,25 26,60 27,112
29,38 31,158 37,114 38,258
39,353 40,532 41,103 42,109
43,32 44,21 49,72 50,1262
51,462 52,38 53,90 56,27
57,315 58,29 61,91 62,194
63,417 64,37 67,42 68,189
69,607 70,29 72,72 73,95
74,590 75,1593 76,445 77,223
79,17 80,31 81,133 83,32
85,48 86,49 87,79 88,88
89,62 92,33 93,84 94,148
95,1426 96,134 99,338 100,116
101,47 104,31 105,30 106,32
107,119 108,31 109,73 112,15
113,24 114,26 118,37 119,197
120,25 123,51 125,919 126,474
127,60 134,50 137,30 138,26
143,145 145,7244 146,579 147,24
154,48 159,39 165,18 171,36
173,9999 174,919 175,54 184,39
185,18 186,20 194,639 195,72
213,95
##END=
