##TITLE=trans-7-Oxabicyclo[4.3.0]nonane
##JCAMP-DX=4.24
##DATA TYPE=MASS SPECTRUM
##ORIGIN=F. TURECEK,HEYROVSKY INST PHYS CHEM & ELECTROCHEM,PRAGUE,CZECH
##OWNER=NIST Mass Spectrometry Data Center
Collection (C) 2014 copyright by the U.S. Secretary of Commerce
on behalf of the United States of America. All rights reserved.
##CAS REGISTRY NO=27345-70-6
##$NIST MASS SPEC NO=99199
##MOLFORM=C8 H14 O
##MW=126
##$NIST SOURCE=MSDC
##XUNITS=M/Z
##YUNITS=RELATIVE INTENSITY
##XFACTOR=1
##YFACTOR=1
##FIRSTX=38
##LASTX=127
##FIRSTY=100
##MAXX=127
##MINX=38
##MAXY=9999
##MINY=50
##NPOINTS=42
##PEAK TABLE=(XY..XY)
38,100 39,1000 40,200 41,1400
42,500 43,300 50,50 51,100
52,100 53,400 54,700 55,2600
56,200 57,200 65,100 66,200
67,1900 68,500 69,400 70,400
71,100 77,100 78,100 79,500
80,100 81,800 82,100 83,9999
84,600 85,50 91,100 93,200
95,200 96,100 97,400 98,200
107,70 108,100 111,50 125,1200
126,2300 127,200
##END=
