##TITLE=Benzenamine, 2,4-dimethoxy-
##JCAMP-DX=4.24
##DATA TYPE=MASS SPECTRUM
##ORIGIN=Japan AIST/NIMC Database- Spectrum MS-IW- 653
##OWNER=NIST Mass Spectrometry Data Center
Collection (C) 2014 copyright by the U.S. Secretary of Commerce
on behalf of the United States of America. All rights reserved.
##CAS REGISTRY NO=2735-04-8
##$NIST MASS SPEC NO=237021
##MOLFORM=C8 H11 N O2
##MW=153
##$NIST SOURCE=MSDC
##XUNITS=M/Z
##YUNITS=RELATIVE INTENSITY
##XFACTOR=1
##YFACTOR=1
##FIRSTX=15
##LASTX=155
##FIRSTY=40
##MAXX=155
##MINX=15
##MAXY=9999
##MINY=10
##NPOINTS=73
##PEAK TABLE=(XY..XY)
15,40 26,10 27,40 28,179
29,30 30,20 37,10 38,40
39,139 40,50 41,169 42,40
43,20 44,10 50,60 51,159
52,449 53,199 54,90 55,70
59,10 61,20 62,30 63,60
64,30 65,179 66,109 67,339
68,60 69,90 75,10 76,159
77,90 78,149 79,219 80,199
81,30 82,40 83,10 90,40
91,20 92,159 93,279 94,60
95,1239 96,80 97,10 106,70
107,109 108,209 109,90 110,1349
111,99 120,10 122,209 123,249
124,90 125,30 133,10 135,10
136,10 137,10 138,9019 139,749
140,60 142,20 144,10 150,10
151,10 152,90 153,9999 154,949
155,80
##END=
