##TITLE=2-Ethylbutyryl chloride
##JCAMP-DX=4.24
##DATA TYPE=MASS SPECTRUM
##ORIGIN=NIST Mass Spectrometry Data Center
##OWNER=NIST Mass Spectrometry Data Center
Collection (C) 2014 copyright by the U.S. Secretary of Commerce
on behalf of the United States of America. All rights reserved.
##CAS REGISTRY NO=2736-40-5
##$NIST MASS SPEC NO=333192
##MOLFORM=C6 H11 Cl O
##MW=134
##$NIST SOURCE=MSDC
##XUNITS=M/Z
##YUNITS=RELATIVE INTENSITY
##XFACTOR=1
##YFACTOR=1
##FIRSTX=14
##LASTX=121
##FIRSTY=10
##MAXX=121
##MINX=14
##MAXY=9999
##MINY=10
##NPOINTS=71
##PEAK TABLE=(XY..XY)
14,10 15,50 25,10 26,160
27,1231 28,180 29,1161 30,30
31,10 35,20 36,30 37,90
38,220 39,1862 40,260 41,2863
42,711 43,9338 44,330 45,10
47,10 48,10 49,90 50,160
51,240 52,70 53,460 54,140
55,3733 56,310 57,50 60,10
61,50 62,50 63,490 64,20
65,190 66,20 67,70 68,30
69,340 70,771 71,9999 72,591
73,30 75,20 76,10 77,30
78,20 79,20 80,20 81,10
83,70 84,10 87,10 89,10
91,410 92,40 93,140 94,10
98,60 99,1682 100,110 101,10
105,190 106,2022 107,150 108,671
109,30 119,20 121,10
##END=
