##TITLE=Perhydrophenanthrene, (4a.alpha., 4b.beta., 8a.beta., 10a.alpha.)-
##JCAMP-DX=4.24
##DATA TYPE=MASS SPECTRUM
##OWNER=NIST Mass Spectrometry Data Center
Collection (C) 2014 copyright by the U.S. Secretary of Commerce
on behalf of the United States of America. All rights reserved.
##CAS REGISTRY NO=27389-74-8
##$NIST MASS SPEC NO=215314
##MOLFORM=C14 H24
##MW=192
##$NIST SOURCE=MSDC
##XUNITS=M/Z
##YUNITS=RELATIVE INTENSITY
##XFACTOR=1
##YFACTOR=1
##FIRSTX=53
##LASTX=194
##FIRSTY=1000
##MAXX=194
##MINX=53
##MAXY=9999
##MINY=110
##NPOINTS=37
##PEAK TABLE=(XY..XY)
53,1000 54,690 55,4303 56,580
57,930 67,8507 68,3202 69,1901
77,2602 79,2402 80,1501 81,9608
82,3302 83,1101 91,1201 93,2101
94,1101 95,4403 96,9999 97,4303
107,640 108,590 109,1601 110,890
111,940 121,3703 122,2702 123,2502
135,8107 136,1201 149,770 150,1101
163,570 164,550 192,9808 193,1510
194,110
##END=
