##TITLE=Oxphenbutazone di-methyl derivative
##JCAMP-DX=4.24
##DATA TYPE=MASS SPECTRUM
##ORIGIN=Association of Official Racing Chemists
##OWNER=NIST Mass Spectrometry Data Center
Collection (C) 2014 copyright by the U.S. Secretary of Commerce
on behalf of the United States of America. All rights reserved.
##CAS REGISTRY NO=27383-21-7
##$NIST MASS SPEC NO=137127
##MOLFORM=C21 H24 N2 O3
##MW=352
##$NIST SOURCE=MSDC
##XUNITS=M/Z
##YUNITS=RELATIVE INTENSITY
##XFACTOR=1
##YFACTOR=1
##FIRSTX=46
##LASTX=355
##FIRSTY=63
##MAXX=355
##MINX=46
##MAXY=9999
##MINY=1
##NPOINTS=146
##PEAK TABLE=(XY..XY)
46,63 50,132 51,314 52,123
53,131 55,933 56,133 57,36
59,75 62,57 63,198 64,430
65,61 66,117 67,78 68,113
69,587 70,33 71,30 74,59
75,52 77,2949 78,415 79,135
80,124 81,86 83,1037 84,111
85,68 89,79 90,89 91,262
92,911 93,243 94,157 95,153
96,1 97,49 99,73 100,6
102,54 103,80 104,141 105,181
106,405 107,2094 108,1231 109,169
110,58 111,272 114,4 115,156
117,121 118,1245 119,828 120,254
121,281 122,774 123,277 124,82
126,35 129,66 130,74 131,22
132,592 133,608 134,816 135,1181
136,101 137,46 139,99 140,68
141,25 143,65 144,85 146,220
147,145 148,1638 149,1508 150,176
151,66 152,88 153,57 160,180
161,107 162,187 163,725 164,136
165,61 168,59 169,67 174,163
175,102 176,285 177,119 178,66
179,25 181,84 182,71 184,95
185,49 186,53 188,166 189,2
190,301 191,32 192,36 195,54
197,58 198,52 199,12 202,91
203,80 204,101 205,72 206,51
208,4 210,225 211,160 213,4751
214,1086 215,97 218,107 221,4
225,97 232,101 237,79 239,73
240,124 241,71 251,235 252,96
264,18 265,54 267,21 268,18
281,15 283,11 295,74 296,530
297,139 341,45 352,9999 353,1925
354,280 355,23
##END=
