##TITLE=Perhydrophenanthrene, (4a.alpha., 4b.beta., 8a.alpha., 10a.alpha)-
##JCAMP-DX=4.24
##DATA TYPE=MASS SPECTRUM
##OWNER=NIST Mass Spectrometry Data Center
Collection (C) 2014 copyright by the U.S. Secretary of Commerce
on behalf of the United States of America. All rights reserved.
##CAS REGISTRY NO=27389-73-7
##$NIST MASS SPEC NO=215313
##MOLFORM=C14 H24
##MW=192
##$NIST SOURCE=MSDC
##XUNITS=M/Z
##YUNITS=RELATIVE INTENSITY
##XFACTOR=1
##YFACTOR=1
##FIRSTX=53
##LASTX=194
##FIRSTY=1201
##MAXX=194
##MINX=53
##MAXY=9999
##MINY=100
##NPOINTS=37
##PEAK TABLE=(XY..XY)
53,1201 54,1301 55,4103 56,860
57,1101 67,7506 68,1701 69,2001
77,1401 79,2201 80,1101 81,6906
82,2902 83,1101 91,900 93,1801
94,2101 95,3603 96,9108 97,3903
107,1201 108,920 109,1601 110,2001
111,560 121,4504 122,1601 123,1101
135,9999 136,1501 149,920 150,990
163,870 164,580 192,9208 193,1420
194,100
##END=
