##TITLE=4-Fluorobenzyl isothiocyanate
##JCAMP-DX=4.24
##DATA TYPE=MASS SPECTRUM
##ORIGIN=NIST Mass Spectrometry Data Center, 1994
##OWNER=NIST Mass Spectrometry Data Center
Collection (C) 2014 copyright by the U.S. Secretary of Commerce
on behalf of the United States of America. All rights reserved.
##CAS REGISTRY NO=2740-88-7
##$NIST MASS SPEC NO=134560
##MOLFORM=C8 H6 F N S
##MW=167
##$NIST SOURCE=MSDC
##XUNITS=M/Z
##YUNITS=RELATIVE INTENSITY
##XFACTOR=1
##YFACTOR=1
##FIRSTX=12
##LASTX=169
##FIRSTY=18
##MAXX=169
##MINX=12
##MAXY=9999
##MINY=4
##NPOINTS=86
##PEAK TABLE=(XY..XY)
12,18 14,4 26,96 27,133
28,158 31,321 32,292 33,85
34,16 36,19 37,156 38,244
39,602 40,64 41,21 44,239
45,289 46,46 47,14 48,13
49,96 50,573 51,419 52,71
55,20 56,155 57,1162 58,356
59,314 60,72 61,200 62,406
63,705 64,109 65,32 68,159
69,219 70,253 71,149 72,161
73,86 74,227 75,371 76,90
77,34 78,15 79,17 80,70
81,420 82,15 83,2531 84,172
85,60 86,88 87,97 88,75
89,353 90,38 92,31 93,50
94,97 95,165 96,100 100,12
102,14 103,12 104,18 105,43
107,744 109,9999 110,779 111,24
115,15 119,16 120,21 121,51
122,28 134,97 135,68 138,23
139,286 140,23 141,14 167,931
168,98 169,44
##END=
