##TITLE=3-(Dimethylamino)propyl isothiocyanate
##JCAMP-DX=4.24
##DATA TYPE=MASS SPECTRUM
##ORIGIN=NIST Mass Spectrometry Data Center, 1994
##OWNER=NIST Mass Spectrometry Data Center
Collection (C) 2014 copyright by the U.S. Secretary of Commerce
on behalf of the United States of America. All rights reserved.
##CAS REGISTRY NO=27421-70-1
##$NIST MASS SPEC NO=134449
##MOLFORM=C6 H12 N2 S
##MW=144
##$NIST SOURCE=MSDC
##XUNITS=M/Z
##YUNITS=RELATIVE INTENSITY
##XFACTOR=1
##YFACTOR=1
##FIRSTX=4
##LASTX=145
##FIRSTY=21
##MAXX=145
##MINX=4
##MAXY=9999
##MINY=8
##NPOINTS=62
##PEAK TABLE=(XY..XY)
4,21 14,34 15,524 16,13
17,8 18,109 26,85 27,411
28,470 29,214 30,786 31,13
32,65 33,9 37,18 38,55
39,347 40,135 41,534 42,1750
43,392 44,762 45,199 46,30
47,11 51,15 52,29 53,12
54,63 55,56 56,296 57,11
58,9999 59,483 60,99 61,9
66,15 67,15 68,57 69,30
70,260 71,214 72,508 73,22
74,22 82,22 83,39 84,274
85,46 86,15 89,8 98,19
99,13 101,1222 102,64 103,59
111,19 113,24 114,21 143,17
144,166 145,15
##END=
