##TITLE=Perhydrophenanthrene, (4a.alpha., 4b.alpha., 8a.alpha., 10a.beta.)-
##JCAMP-DX=4.24
##DATA TYPE=MASS SPECTRUM
##OWNER=NIST Mass Spectrometry Data Center
Collection (C) 2014 copyright by the U.S. Secretary of Commerce
on behalf of the United States of America. All rights reserved.
##CAS REGISTRY NO=27425-35-0
##$NIST MASS SPEC NO=215315
##MOLFORM=C14 H24
##MW=192
##$NIST SOURCE=MSDC
##XUNITS=M/Z
##YUNITS=RELATIVE INTENSITY
##XFACTOR=1
##YFACTOR=1
##FIRSTX=53
##LASTX=194
##FIRSTY=1101
##MAXX=194
##MINX=53
##MAXY=9999
##MINY=100
##NPOINTS=37
##PEAK TABLE=(XY..XY)
53,1101 54,1201 55,3903 56,390
57,780 67,6906 68,1401 69,1601
77,1101 79,2802 80,1601 81,7206
82,2302 83,1201 91,1101 93,1801
94,1501 95,3302 96,7706 97,4403
107,940 108,810 109,1101 110,1201
111,510 121,3102 122,1501 123,1301
135,9999 136,1601 149,810 150,1301
163,920 164,530 192,9108 193,1400
194,100
##END=
