##TITLE=1,3,4-Thiadiazole, 2,5-dimethyl-
##JCAMP-DX=4.24
##DATA TYPE=MASS SPECTRUM
##ORIGIN=RADIAN CORP
##OWNER=NIST Mass Spectrometry Data Center
Collection (C) 2014 copyright by the U.S. Secretary of Commerce
on behalf of the United States of America. All rights reserved.
##CAS REGISTRY NO=27464-82-0
##$NIST MASS SPEC NO=73029
##MOLFORM=C4 H6 N2 S
##MW=114
##$NIST SOURCE=MSDC
##XUNITS=M/Z
##YUNITS=RELATIVE INTENSITY
##XFACTOR=1
##YFACTOR=1
##FIRSTX=12
##LASTX=117
##FIRSTY=20
##MAXX=117
##MINX=12
##MAXY=9999
##MINY=10
##NPOINTS=60
##PEAK TABLE=(XY..XY)
12,20 13,40 15,400 24,80
25,640 26,2320 27,2350 29,120
32,480 33,270 34,70 35,20
37,50 38,780 39,1210 40,2420
41,780 42,460 43,10 44,500
45,1980 46,2910 47,630 48,160
49,20 50,60 51,90 52,70
53,200 54,90 55,30 56,450
57,2600 58,5380 59,9070 60,550
61,430 62,10 66,10 67,30
68,50 69,390 70,660 71,650
72,4550 73,9999 74,620 75,520
76,20 81,50 82,30 83,20
84,30 85,150 86,10 99,70
114,9810 115,970 116,510 117,40
##END=
