##TITLE=1-Methylcyclopropanemethanol
##JCAMP-DX=4.24
##DATA TYPE=MASS SPECTRUM
##ORIGIN=Japan AIST/NIMC Database- Spectrum MS-NW-9933
##OWNER=NIST Mass Spectrometry Data Center
Collection (C) 2014 copyright by the U.S. Secretary of Commerce
on behalf of the United States of America. All rights reserved.
##CAS REGISTRY NO=2746-14-7
##$NIST MASS SPEC NO=239056
##MOLFORM=C5 H10 O
##MW=86
##$NIST SOURCE=MSDC
##XUNITS=M/Z
##YUNITS=RELATIVE INTENSITY
##XFACTOR=1
##YFACTOR=1
##FIRSTX=14
##LASTX=86
##FIRSTY=10
##MAXX=86
##MINX=14
##MAXY=9999
##MINY=10
##NPOINTS=47
##PEAK TABLE=(XY..XY)
14,10 15,90 18,20 25,10
26,229 27,1699 28,849 29,2299
30,879 31,1489 32,20 37,80
38,199 39,1979 40,789 41,2949
42,319 43,1319 44,589 45,309
49,40 50,219 51,289 52,99
53,1119 54,369 55,2409 56,4609
57,4929 58,9999 59,409 60,30
61,30 62,20 63,30 65,90
66,40 67,679 68,879 69,259
70,40 71,1149 72,50 83,30
84,30 85,40 86,40
##END=
