##TITLE=Benzeneacetonitrile, 3,4-diethoxy-
##JCAMP-DX=4.24
##DATA TYPE=MASS SPECTRUM
##ORIGIN=NIST Mass Spectrometry Data Center, 1994
##OWNER=NIST Mass Spectrometry Data Center
Collection (C) 2014 copyright by the U.S. Secretary of Commerce
on behalf of the United States of America. All rights reserved.
##CAS REGISTRY NO=27472-21-5
##$NIST MASS SPEC NO=134458
##MOLFORM=C12 H15 N O2
##MW=205
##$NIST SOURCE=MSDC
##XUNITS=M/Z
##YUNITS=RELATIVE INTENSITY
##XFACTOR=1
##YFACTOR=1
##FIRSTX=14
##LASTX=207
##FIRSTY=22
##MAXX=207
##MINX=14
##MAXY=9999
##MINY=14
##NPOINTS=88
##PEAK TABLE=(XY..XY)
14,22 15,141 26,417 27,2894
28,266 29,3756 30,86 31,44
37,117 38,342 39,1137 40,149
41,222 42,67 43,637 44,14
45,204 49,42 50,584 51,1320
52,434 53,366 54,107 55,387
56,54 57,118 61,59 62,219
63,820 64,943 65,2536 66,622
67,135 68,52 74,85 75,313
76,724 77,1312 78,319 79,353
80,82 81,96 82,51 87,35
88,80 89,224 90,163 91,632
92,1232 93,649 94,671 95,70
102,344 103,2377 104,359 105,462
106,169 107,129 108,151 109,81
116,54 118,41 119,181 120,843
121,418 122,1467 123,333 130,145
131,1488 132,379 133,86 134,44
135,81 136,96 137,44 146,36
148,2533 149,9999 150,965 151,118
160,269 161,61 162,38 177,1218
178,147 205,3294 206,452 207,27
##END=
