##TITLE=Benzene, 1-methyl-4-(1-propynyl)-
##JCAMP-DX=4.24
##DATA TYPE=MASS SPECTRUM
##ORIGIN=EP-1330
##OWNER=NIST Mass Spectrometry Data Center
Collection (C) 2014 copyright by the U.S. Secretary of Commerce
on behalf of the United States of America. All rights reserved.
##CAS REGISTRY NO=2749-93-1
##$NIST MASS SPEC NO=43755
##MOLFORM=C10 H10
##MW=130
##$NIST SOURCE=MSDC
##XUNITS=M/Z
##YUNITS=RELATIVE INTENSITY
##XFACTOR=1
##YFACTOR=1
##FIRSTX=50
##LASTX=131
##FIRSTY=260
##MAXX=131
##MINX=50
##MAXY=9999
##MINY=50
##NPOINTS=35
##PEAK TABLE=(XY..XY)
50,260 51,600 52,100 53,70
61,100 62,270 63,680 64,600
65,300 74,300 75,300 76,150
77,350 78,150 85,50 86,150
87,200 88,100 89,350 90,50
91,450 101,150 102,430 103,200
113,150 114,300 115,8700 116,850
117,50 126,270 127,1400 128,3150
129,4800 130,9999 131,1500
##END=
