##TITLE=1-Propanol, 2-amino-, (S)-
##JCAMP-DX=4.24
##DATA TYPE=MASS SPECTRUM
##ORIGIN=Japan AIST/NIMC Database- Spectrum MS-NW-6786
##OWNER=NIST Mass Spectrometry Data Center
Collection (C) 2014 copyright by the U.S. Secretary of Commerce
on behalf of the United States of America. All rights reserved.
##CAS REGISTRY NO=2749-11-3
##$NIST MASS SPEC NO=234759
##MOLFORM=C3 H9 N O
##MW=75
##$NIST SOURCE=MSDC
##XUNITS=M/Z
##YUNITS=RELATIVE INTENSITY
##XFACTOR=1
##YFACTOR=1
##FIRSTX=13
##LASTX=76
##FIRSTY=10
##MAXX=76
##MINX=13
##MAXY=9999
##MINY=10
##NPOINTS=44
##PEAK TABLE=(XY..XY)
13,10 14,40 15,379 16,20
17,119 18,429 25,20 26,109
27,459 28,849 29,279 30,449
31,389 32,20 37,20 38,50
39,169 40,159 41,439 42,1429
43,409 44,9999 45,349 46,10
51,20 52,40 53,20 54,80
55,70 56,399 57,239 58,339
59,50 60,339 61,10 68,20
69,10 70,70 71,20 72,90
73,20 74,50 75,30 76,10
##END=
