##TITLE=1-Pentanol, 2-ethyl-
##JCAMP-DX=4.24
##DATA TYPE=MASS SPECTRUM
##ORIGIN=NIST Mass Spectrometry Data Center, 1990.
##OWNER=NIST Mass Spectrometry Data Center
Collection (C) 2014 copyright by the U.S. Secretary of Commerce
on behalf of the United States of America. All rights reserved.
##CAS REGISTRY NO=27522-11-8
##$NIST MASS SPEC NO=114889
##MOLFORM=C7 H16 O
##MW=116
##$NIST SOURCE=MSDC
##XUNITS=M/Z
##YUNITS=RELATIVE INTENSITY
##XFACTOR=1
##YFACTOR=1
##FIRSTX=14
##LASTX=98
##FIRSTY=9
##MAXX=98
##MINX=14
##MAXY=9999
##MINY=9
##NPOINTS=35
##PEAK TABLE=(XY..XY)
14,9 26,193 27,1790 28,403
29,1592 30,119 31,1338 32,70
39,2029 40,516 41,5553 42,1360
43,9999 44,452 45,302 50,127
51,265 53,603 54,466 55,3627
56,4822 57,3617 58,162 59,179
65,94 67,256 69,4693 70,2959
71,189 72,133 83,793 84,2311
85,3210 86,199 98,904
##END=
