##TITLE=2-Methylenebornane
##JCAMP-DX=4.24
##DATA TYPE=MASS SPECTRUM
##ORIGIN=J.Martin, J.Agr.Food Chem.,36,1257(1988)
##OWNER=NIST Mass Spectrometry Data Center
Collection (C) 2014 copyright by the U.S. Secretary of Commerce
on behalf of the United States of America. All rights reserved.
##CAS REGISTRY NO=27538-47-2
##$NIST MASS SPEC NO=281445
##MOLFORM=C11 H18
##MW=150
##$NIST SOURCE=MSDC
##XUNITS=M/Z
##YUNITS=RELATIVE INTENSITY
##XFACTOR=1
##YFACTOR=1
##FIRSTX=42
##LASTX=150
##FIRSTY=460
##MAXX=150
##MINX=42
##MAXY=9999
##MINY=460
##NPOINTS=32
##PEAK TABLE=(XY..XY)
42,460 43,941 50,661 52,641
53,1301 54,460 55,1121 57,571
58,460 63,571 65,941 67,1531
68,641 69,1511 77,1461 79,2652
80,520 81,1191 82,871 83,460
91,2032 92,591 93,2282 94,681
95,681 105,911 106,1121 107,9999
108,1581 121,1922 135,1321 150,1992
##END=
