##TITLE=Chlorocarbonylsulfenyl chloride
##JCAMP-DX=4.24
##DATA TYPE=MASS SPECTRUM
##ORIGIN=Japan AIST/NIMC Database- Spectrum MS-IW-3729
##OWNER=NIST Mass Spectrometry Data Center
Collection (C) 2014 copyright by the U.S. Secretary of Commerce
on behalf of the United States of America. All rights reserved.
##CAS REGISTRY NO=2757-23-5
##$NIST MASS SPEC NO=238636
##MOLFORM=C Cl2 O S
##MW=130
##$NIST SOURCE=MSDC
##XUNITS=M/Z
##YUNITS=RELATIVE INTENSITY
##XFACTOR=1
##YFACTOR=1
##FIRSTX=12
##LASTX=134
##FIRSTY=50
##MAXX=134
##MINX=12
##MAXY=9999
##MINY=10
##NPOINTS=58
##PEAK TABLE=(XY..XY)
12,50 16,10 18,20 27,10
28,739 29,10 30,429 31,20
32,3439 33,30 34,159 35,589
36,3009 37,199 38,999 43,10
44,589 45,10 46,20 47,30
48,20 49,10 60,9999 61,239
62,569 63,2439 64,109 65,789
66,10 67,1829 68,10 69,679
70,30 71,20 72,10 76,80
77,10 79,40 80,50 81,30
82,50 95,1789 96,30 97,669
98,10 99,30 102,329 104,219
106,40 111,20 113,20 127,139
128,30 130,1059 131,20 132,739
133,10 134,149
##END=
