##TITLE=2-Chloropropionanilide
##JCAMP-DX=4.24
##DATA TYPE=MASS SPECTRUM
##ORIGIN=M. ODA, MIN. AGRIC. CHEM. INSP. STN., TOKYO, JAPAN
##OWNER=NIST Mass Spectrometry Data Center
Collection (C) 2014 copyright by the U.S. Secretary of Commerce
on behalf of the United States of America. All rights reserved.
##CAS REGISTRY NO=2760-32-9
##$NIST MASS SPEC NO=98032
##MOLFORM=C9 H10 Cl N O
##MW=183
##$NIST SOURCE=MSDC
##XUNITS=M/Z
##YUNITS=RELATIVE INTENSITY
##XFACTOR=1
##YFACTOR=1
##FIRSTX=29
##LASTX=185
##FIRSTY=2900
##MAXX=185
##MINX=29
##MAXY=9999
##MINY=100
##NPOINTS=24
##PEAK TABLE=(XY..XY)
29,2900 57,1900 63,500 64,400
65,500 73,300 75,300 90,400
91,300 92,500 99,600 100,200
101,200 102,100 111,100 126,300
127,9999 128,100 129,3300 148,2000
153,100 154,200 183,2100 185,700
##END=
