##TITLE=Silane, triethoxypentyl-
##JCAMP-DX=4.24
##DATA TYPE=MASS SPECTRUM
##ORIGIN=Japan AIST/NIMC Database- Spectrum MS-NW-5214
##OWNER=NIST Mass Spectrometry Data Center
Collection (C) 2014 copyright by the U.S. Secretary of Commerce
on behalf of the United States of America. All rights reserved.
##CAS REGISTRY NO=2761-24-2
##$NIST MASS SPEC NO=232540
##MOLFORM=C11 H26 O3 Si
##MW=234
##$NIST SOURCE=MSDC
##XUNITS=M/Z
##YUNITS=RELATIVE INTENSITY
##XFACTOR=1
##YFACTOR=1
##FIRSTX=14
##LASTX=235
##FIRSTY=70
##MAXX=235
##MINX=14
##MAXY=9999
##MINY=10
##NPOINTS=113
##PEAK TABLE=(XY..XY)
14,70 15,30 26,30 27,269
28,209 29,309 30,10 31,30
39,90 40,30 41,189 42,40
43,99 44,10 45,609 46,40
47,109 53,10 55,50 58,10
59,20 60,30 61,80 62,269
63,1049 64,60 65,40 67,10
69,20 71,20 72,10 73,279
74,50 75,129 76,90 77,209
78,10 79,1069 80,60 81,40
85,10 87,50 88,50 89,199
90,119 91,759 92,70 93,70
97,20 99,20 101,40 102,20
103,149 104,30 105,149 106,10
107,679 108,50 109,30 113,10
115,30 116,20 117,149 118,149
119,2789 120,289 121,149 122,10
127,10 129,10 131,40 132,50
133,129 134,20 135,839 136,80
137,40 141,10 143,30 144,10
145,90 146,30 147,90 148,10
149,579 150,70 151,40 159,10
160,30 161,50 162,10 163,9999
164,1209 165,479 166,40 175,70
176,10 177,20 178,10 179,10
181,20 188,30 189,469 190,80
191,30 193,90 194,20 205,10
207,10 219,20 233,10 234,50
235,20
##END=
