##TITLE=3-Methyl-2,8,9-trioxa-5-azonia-1-boratatricyclo[3.3.3.0(1,5)]undecane
##JCAMP-DX=4.24
##DATA TYPE=MASS SPECTRUM
##ORIGIN=I. MAZHEIKA, INST. ORG. SYNTH. ACAD. SCI. LATV. SSR, RIGA,US
##OWNER=NIST Mass Spectrometry Data Center
Collection (C) 2014 copyright by the U.S. Secretary of Commerce
on behalf of the United States of America. All rights reserved.
##CAS REGISTRY NO=27664-61-5
##$NIST MASS SPEC NO=75655
##MOLFORM=C7 H14 B N O3
##MW=171
##$NIST SOURCE=MSDC
##XUNITS=M/Z
##YUNITS=RELATIVE INTENSITY
##XFACTOR=1
##YFACTOR=1
##FIRSTX=41
##LASTX=171
##FIRSTY=1700
##MAXX=171
##MINX=41
##MAXY=9999
##MINY=200
##NPOINTS=28
##PEAK TABLE=(XY..XY)
41,1700 42,2800 43,1400 44,3000
45,1200 55,1700 56,2100 59,600
68,500 70,500 71,300 72,600
73,300 85,300 86,400 99,1100
100,260 112,800 114,400 125,2400
126,9999 127,4400 139,400 140,1400
141,300 155,200 156,700 171,800
##END=
