##TITLE=Bicyclo[2.2.1]heptane-2,3-dione, 1,7,7-trimethyl-, (1S)-
##JCAMP-DX=4.24
##DATA TYPE=MASS SPECTRUM
##ORIGIN=NIST Mass Spectrometry Data Center
##OWNER=NIST Mass Spectrometry Data Center
Collection (C) 2014 copyright by the U.S. Secretary of Commerce
on behalf of the United States of America. All rights reserved.
##CAS REGISTRY NO=2767-84-2
##$NIST MASS SPEC NO=343160
##MOLFORM=C10 H14 O2
##MW=166
##$NIST SOURCE=MSDC
##XUNITS=M/Z
##YUNITS=RELATIVE INTENSITY
##XFACTOR=1
##YFACTOR=1
##FIRSTX=14
##LASTX=167
##FIRSTY=60
##MAXX=167
##MINX=14
##MAXY=9999
##MINY=60
##NPOINTS=50
##PEAK TABLE=(XY..XY)
14,60 15,611 16,210 17,70
26,300 27,2933 28,270 29,711
37,110 38,430 39,4174 40,771
41,6196 42,420 43,500 50,310
51,881 52,330 53,1561 54,370
55,6186 56,330 62,140 63,250
65,490 67,3083 68,410 69,4614
70,310 77,831 78,210 79,761
80,320 81,390 83,4914 84,330
91,350 93,510 95,9999 96,1151
97,160 109,280 110,931 111,100
123,1812 124,120 138,2292 139,240
166,1111 167,90
##END=
