##TITLE=2-Propenoic acid, 3-methoxybutyl ester
##JCAMP-DX=4.24
##DATA TYPE=MASS SPECTRUM
##ORIGIN=NIST Mass Spectrometry Data Center
##OWNER=NIST Mass Spectrometry Data Center
Collection (C) 2014 copyright by the U.S. Secretary of Commerce
on behalf of the United States of America. All rights reserved.
##CAS REGISTRY NO=2768-07-2
##$NIST MASS SPEC NO=343326
##MOLFORM=C8 H14 O3
##MW=158
##$NIST SOURCE=MSDC
##XUNITS=M/Z
##YUNITS=RELATIVE INTENSITY
##XFACTOR=1
##YFACTOR=1
##FIRSTX=12
##LASTX=130
##FIRSTY=10
##MAXX=130
##MINX=12
##MAXY=9999
##MINY=10
##NPOINTS=52
##PEAK TABLE=(XY..XY)
12,10 14,20 15,550 16,30
18,10 26,490 27,2672 28,450
29,1692 30,90 31,1371 33,190
37,10 39,540 40,120 41,1161
42,430 43,1181 44,60 45,380
46,10 50,10 51,20 53,210
55,4524 56,470 57,130 59,9999
60,320 61,40 68,10 69,50
71,2803 72,220 73,350 81,10
82,40 83,10 84,50 85,380
86,1161 87,230 97,10 98,10
99,90 100,50 103,60 112,10
113,30 126,10 127,20 130,10
##END=
