##TITLE=Butane, 1-isocyano-
##JCAMP-DX=4.24
##DATA TYPE=MASS SPECTRUM
##ORIGIN=W HEERMA
##OWNER=NIST Mass Spectrometry Data Center
Collection (C) 2014 copyright by the U.S. Secretary of Commerce
on behalf of the United States of America. All rights reserved.
##CAS REGISTRY NO=2769-64-4
##$NIST MASS SPEC NO=36736
##MOLFORM=C5 H9 N
##MW=83
##$NIST SOURCE=MSDC
##XUNITS=M/Z
##YUNITS=RELATIVE INTENSITY
##XFACTOR=1
##YFACTOR=1
##FIRSTX=14
##LASTX=82
##FIRSTY=73
##MAXX=82
##MINX=14
##MAXY=9999
##MINY=46
##NPOINTS=26
##PEAK TABLE=(XY..XY)
14,73 15,275 25,46 26,693
27,4508 28,2543 29,1992 37,188
38,358 39,2135 40,762 41,9999
42,606 43,8126 50,174 51,294
52,376 53,303 54,1483 55,6221
56,2470 57,239 64,78 66,110
68,275 82,358
##END=
