##TITLE=Butane, 2-methoxy-2,3,3-trimethyl-
##JCAMP-DX=4.24
##DATA TYPE=MASS SPECTRUM
##ORIGIN=D.HENNEBERG, MAX-PLANCK INSTITUTE, MULHEIM, WEST GERMANY
##OWNER=NIST Mass Spectrometry Data Center
Collection (C) 2014 copyright by the U.S. Secretary of Commerce
on behalf of the United States of America. All rights reserved.
##CAS REGISTRY NO=27705-21-1
##$NIST MASS SPEC NO=62451
##MOLFORM=C8 H18 O
##MW=130
##$NIST SOURCE=MSDC
##XUNITS=M/Z
##YUNITS=RELATIVE INTENSITY
##XFACTOR=1
##YFACTOR=1
##FIRSTX=23
##LASTX=117
##FIRSTY=4
##MAXX=117
##MINX=23
##MAXY=9999
##MINY=1
##NPOINTS=68
##PEAK TABLE=(XY..XY)
23,4 24,4 25,6 26,15
27,206 28,515 29,599 30,41
31,284 32,78 33,37 34,1
35,2 36,4 37,18 38,42
39,707 40,116 41,1877 42,274
43,1633 44,48 45,303 46,7
50,28 51,54 52,21 53,134
54,26 55,1697 56,188 57,1244
58,64 59,91 60,29 61,6
62,3 63,11 65,257 66,11
67,112 68,15 69,151 70,16
71,9 72,82 73,9999 74,461
75,30 77,11 78,1 79,10
81,20 82,9 83,1692 84,135
85,140 86,7 91,7 92,5
97,10 98,79 99,101 100,38
101,1 115,756 116,57 117,4
##END=
