##TITLE=4-Chlorobenzoic acid, octyl ester
##JCAMP-DX=4.24
##DATA TYPE=MASS SPECTRUM
##ORIGIN=V.G.Zaikin, Petrochem. Synth. Inst., Moscow
##OWNER=NIST Mass Spectrometry Data Center
Collection (C) 2014 copyright by the U.S. Secretary of Commerce
on behalf of the United States of America. All rights reserved.
##CAS REGISTRY NO=27703-70-4
##$NIST MASS SPEC NO=280373
##MOLFORM=C15 H21 Cl O2
##MW=268
##$NIST SOURCE=MSDC
##XUNITS=M/Z
##YUNITS=RELATIVE INTENSITY
##XFACTOR=1
##YFACTOR=1
##FIRSTX=26
##LASTX=270
##FIRSTY=230
##MAXX=270
##MINX=26
##MAXY=9999
##MINY=10
##NPOINTS=86
##PEAK TABLE=(XY..XY)
26,230 27,1651 28,661 29,2322
30,130 31,80 35,50 36,450
37,90 38,290 39,991 40,210
41,3894 42,2572 43,3633 44,1551
45,130 47,20 48,20 49,50
50,811 51,530 52,70 53,290
54,581 55,3783 56,5075 57,1551
58,50 61,80 63,80 64,100
65,180 66,30 67,450 68,861
69,3013 70,4814 71,661 72,40
73,110 74,390 75,1852 76,661
77,530 78,50 79,20 81,210
82,691 83,2712 84,3153 85,210
87,40 88,20 91,40 93,20
95,60 96,110 97,250 98,20
104,280 105,120 106,20 110,160
111,3683 112,2913 113,1621 114,80
115,50 119,20 138,50 139,9999
140,1011 141,3643 142,290 143,20
155,80 156,4994 157,6616 158,2112
159,2132 160,190 169,30 171,10
268,30 270,10
##END=
