##TITLE=Benzene, 1,2-dichloro-4,5-dimethoxy-,
##JCAMP-DX=4.24
##DATA TYPE=MASS SPECTRUM
##ORIGIN=ASES Database, Dalian Institute, P.R. China
##OWNER=NIST Mass Spectrometry Data Center
Collection (C) 2014 copyright by the U.S. Secretary of Commerce
on behalf of the United States of America. All rights reserved.
##CAS REGISTRY NO=2772-46-5
##$NIST MASS SPEC NO=147623
##MOLFORM=C8 H8 Cl2 O2
##MW=206
##$NIST SOURCE=MSDC
##XUNITS=M/Z
##YUNITS=RELATIVE INTENSITY
##XFACTOR=1
##YFACTOR=1
##FIRSTX=43
##LASTX=210
##FIRSTY=180
##MAXX=210
##MINX=43
##MAXY=9999
##MINY=180
##NPOINTS=34
##PEAK TABLE=(XY..XY)
43,180 50,1511 62,810 63,1201
75,600 84,290 85,1080 87,190
97,1291 99,3192 100,410 109,580
111,390 113,2212 120,510 127,3182
128,5414 129,1101 130,1591 133,1000
135,390 141,200 145,1191 148,490
160,400 163,2181 165,1281 167,190
191,6966 193,4403 195,700 206,9999
208,6515 210,980
##END=
