##TITLE=10-Undecyn-1-ol
##JCAMP-DX=4.24
##DATA TYPE=MASS SPECTRUM
##ORIGIN=NIST Mass Spectrometry Data Center, 1990.
##OWNER=NIST Mass Spectrometry Data Center
Collection (C) 2014 copyright by the U.S. Secretary of Commerce
on behalf of the United States of America. All rights reserved.
##CAS REGISTRY NO=2774-84-7
##$NIST MASS SPEC NO=113281
##MOLFORM=C11 H20 O
##MW=168
##$NIST SOURCE=MSDC
##XUNITS=M/Z
##YUNITS=RELATIVE INTENSITY
##XFACTOR=1
##YFACTOR=1
##FIRSTX=14
##LASTX=135
##FIRSTY=47
##MAXX=135
##MINX=14
##MAXY=9999
##MINY=47
##NPOINTS=57
##PEAK TABLE=(XY..XY)
14,47 15,121 16,138 18,133
26,296 27,3049 28,637 29,3091
31,3717 32,297 39,3820 40,1133
41,9999 42,1537 43,2362 44,378
45,349 50,195 51,543 52,462
53,2171 54,2826 55,7031 56,860
57,1053 58,149 63,110 65,821
66,952 67,8117 68,2720 69,2362
70,466 71,1085 77,1047 79,5863
80,2012 81,5831 82,1805 83,504
84,189 85,283 91,740 93,2912
94,1030 95,1927 96,458 97,299
98,124 105,140 107,1094 108,235
109,543 111,156 121,305 122,115
135,144
##END=
