##TITLE=4-Hydroxybenzeneacetic acid, 2TMS derivative
##JCAMP-DX=4.24
##DATA TYPE=MASS SPECTRUM
##ORIGIN=M.G.HORNING,INST.FOR LIPID RES,BAYLOR COLL.OF MED,HOUSTON,TEX
##OWNER=NIST Mass Spectrometry Data Center
Collection (C) 2014 copyright by the U.S. Secretary of Commerce
on behalf of the United States of America. All rights reserved.
##CAS REGISTRY NO=27750-57-8
##$NIST MASS SPEC NO=24412
##MOLFORM=C14 H24 O3 Si2
##MW=296
##$NIST SOURCE=MSDC
##XUNITS=M/Z
##YUNITS=RELATIVE INTENSITY
##XFACTOR=1
##YFACTOR=1
##FIRSTX=40
##LASTX=298
##FIRSTY=179
##MAXX=298
##MINX=40
##MAXY=9999
##MINY=60
##NPOINTS=77
##PEAK TABLE=(XY..XY)
40,179 41,64 43,269 44,192
45,871 46,64 47,205 51,71
52,83 55,171 57,87 58,67
59,135 61,166 69,84 72,182
73,9999 74,897 75,1846 76,153
77,184 78,76 79,166 83,66
85,70 89,269 90,161 91,92
93,123 95,79 103,76 104,74
105,105 117,215 129,92 131,76
133,371 134,64 135,123 147,615
148,120 149,358 150,83 161,93
163,435 164,1282 165,230 166,76
169,128 177,282 178,153 179,2561
180,435 181,133 187,83 191,205
193,94 206,74 223,69 225,79
237,100 249,60 250,79 251,87
252,1205 253,423 254,153 267,110
280,64 281,1205 282,312 283,153
294,61 295,92 296,1435 297,410
298,179
##END=
