##TITLE=3-(4-Methoxyphenyl)propionic acid, TMS derivative
##JCAMP-DX=4.24
##DATA TYPE=MASS SPECTRUM
##ORIGIN=G.S. KING, CHEM. PATHOL. DEP., QUEEN CHARLOTTE'S HOSP., LONDON,
##OWNER=NIST Mass Spectrometry Data Center
Collection (C) 2014 copyright by the U.S. Secretary of Commerce
on behalf of the United States of America. All rights reserved.
##CAS REGISTRY NO=27750-58-9
##$NIST MASS SPEC NO=72006
##MOLFORM=C13 H20 O3 Si
##MW=252
##$NIST SOURCE=MSDC
##XUNITS=M/Z
##YUNITS=RELATIVE INTENSITY
##XFACTOR=1
##YFACTOR=1
##FIRSTX=40
##LASTX=254
##FIRSTY=160
##MAXX=254
##MINX=40
##MAXY=9999
##MINY=80
##NPOINTS=42
##PEAK TABLE=(XY..XY)
40,160 41,400 43,160 44,120
45,680 47,280 51,160 55,160
58,80 59,120 61,160 63,120
65,280 72,120 73,1960 74,200
75,1960 76,160 77,720 78,400
79,120 89,160 90,80 91,640
92,120 103,120 105,160 106,80
108,160 116,80 119,360 120,80
121,9999 122,800 134,8360 135,1000
161,80 237,1040 238,160 252,1800
253,320 254,120
##END=
