##TITLE=4-Hydroxyphenyllactic acid, 3TMS derivative
##JCAMP-DX=4.24
##DATA TYPE=MASS SPECTRUM
##ORIGIN=Diagnosis of Organic Acidemias by GC/MS
##OWNER=NIST Mass Spectrometry Data Center
Collection (C) 2014 copyright by the U.S. Secretary of Commerce
on behalf of the United States of America. All rights reserved.
##CAS REGISTRY NO=27750-67-0
##$NIST MASS SPEC NO=292706
##MOLFORM=C18 H34 O4 Si3
##MW=398
##$NIST SOURCE=MSDC
##XUNITS=M/Z
##YUNITS=RELATIVE INTENSITY
##XFACTOR=1
##YFACTOR=1
##FIRSTX=43
##LASTX=398
##FIRSTY=160
##MAXX=398
##MINX=43
##MAXY=9999
##MINY=20
##NPOINTS=40
##PEAK TABLE=(XY..XY)
43,160 44,180 45,1401 46,20
47,691 58,20 59,200 72,20
73,9999 74,871 75,871 91,160
105,20 117,20 119,220 131,100
133,370 135,60 147,2372 148,360
149,340 151,20 163,160 177,140
179,8448 180,1321 181,340 193,180
219,100 281,390 292,120 293,330
294,60 308,1551 309,330 310,100
355,270 383,140 384,40 398,60
##END=
