##TITLE=2-Thiophenemethanamine
##JCAMP-DX=4.24
##DATA TYPE=MASS SPECTRUM
##ORIGIN=J.E. WILKINSON S-CUBED, SAN DIEGO, CA.
##OWNER=NIST Mass Spectrometry Data Center
Collection (C) 2014 copyright by the U.S. Secretary of Commerce
on behalf of the United States of America. All rights reserved.
##CAS REGISTRY NO=27757-85-3
##$NIST MASS SPEC NO=92219
##MOLFORM=C5 H7 N S
##MW=113
##$NIST SOURCE=MSDC
##XUNITS=M/Z
##YUNITS=RELATIVE INTENSITY
##XFACTOR=1
##YFACTOR=1
##FIRSTX=41
##LASTX=116
##FIRSTY=760
##MAXX=116
##MINX=41
##MAXY=9999
##MINY=1
##NPOINTS=66
##PEAK TABLE=(XY..XY)
41,760 42,194 43,89 44,35
45,3214 46,190 47,212 48,54
49,202 50,627 51,716 52,626
53,1248 54,482 56,332 57,1040
58,1261 59,294 60,187 61,136
62,168 63,222 64,78 65,82
66,83 67,186 68,484 69,839
70,367 71,263 72,48 73,68
74,14 75,61 76,91 77,13
78,314 79,60 80,1170 81,390
82,321 83,283 84,870 85,5113
86,431 87,256 88,17 92,17
93,92 94,14 95,192 96,385
97,4665 98,318 99,224 100,9
107,1 108,4 109,198 110,516
111,391 112,9245 113,9999 114,1127
115,477 116,28
##END=
