##TITLE=Sinapinic acid, 2TMS derivative
##JCAMP-DX=4.24
##DATA TYPE=MASS SPECTRUM
##ORIGIN=NIST Mass Spectrometry Data Center, 2010
##OWNER=NIST Mass Spectrometry Data Center
Collection (C) 2014 copyright by the U.S. Secretary of Commerce
on behalf of the United States of America. All rights reserved.
##CAS REGISTRY NO=27750-80-7
##$NIST MASS SPEC NO=374255
##MOLFORM=C17 H28 O5 Si2
##MW=368
##$NIST SOURCE=MSDC
##XUNITS=M/Z
##YUNITS=RELATIVE INTENSITY
##XFACTOR=1
##YFACTOR=1
##FIRSTX=15
##LASTX=373
##FIRSTY=30
##MAXX=373
##MINX=15
##MAXY=9999
##MINY=10
##NPOINTS=259
##PEAK TABLE=(XY..XY)
15,30 27,10 28,30 29,40
31,20 32,10 39,10 41,10
42,10 43,150 44,130 45,881
46,60 47,140 48,10 49,10
50,20 51,40 52,10 53,50
54,10 55,40 56,10 57,40
58,110 59,661 60,70 61,120
62,30 63,70 64,40 65,50
66,20 67,20 68,10 69,40
70,30 71,40 72,140 73,5025
74,480 75,1301 76,200 77,230
78,40 79,60 80,10 81,20
82,10 83,90 84,20 85,40
86,10 87,30 88,60 89,550
90,80 91,210 92,100 93,50
94,10 95,40 96,50 97,20
98,10 99,70 100,10 101,40
102,80 103,200 104,100 105,130
106,30 107,50 108,10 109,40
110,20 111,40 112,10 113,10
114,10 115,200 116,90 117,260
118,80 119,240 120,150 121,80
122,30 123,20 124,70 126,20
127,20 128,40 129,80 130,100
131,140 132,210 133,290 134,70
135,290 136,50 137,70 138,10
140,80 142,20 143,60 144,30
145,130 146,70 147,460 148,120
149,160 150,60 151,50 152,20
153,20 154,210 156,10 157,10
158,20 159,80 160,140 161,1301
163,230 164,40 165,60 166,30
167,30 169,601 172,10 173,100
174,80 175,360 176,200 177,561
178,190 179,130 180,40 181,30
182,10 183,10 185,10 186,10
187,50 188,60 189,140 190,270
191,320 192,120 193,130 194,40
195,40 196,50 197,20 198,10
199,10 201,30 202,30 203,210
204,180 205,450 206,370 207,120
208,40 209,360 210,70 211,30
212,10 215,10 216,20 217,70
218,550 219,480 220,540 221,320
222,280 223,90 224,30 225,10
229,10 230,10 231,40 232,60
233,260 234,240 235,180 236,70
237,60 238,20 239,120 240,30
241,10 245,10 246,10 247,160
248,270 249,1621 250,370 251,200
252,50 253,30 254,10 261,40
262,30 263,240 264,130 265,70
266,60 267,20 268,10 275,10
277,60 278,80 279,1792 280,460
281,160 282,30 283,10 291,20
292,20 293,190 294,90 295,140
296,40 297,20 305,10 306,10
307,50 308,50 309,300 310,90
311,40 312,10 321,40 323,1912
324,510 325,220 326,40 327,10
335,10 336,20 338,8368 339,2302
340,961 341,180 342,30 351,20
353,4324 354,1221 355,500 356,100
357,20 368,9999 369,2953 370,1191
371,230 372,50 373,10
##END=
