##TITLE=2-Propenoic acid, 2-[(trimethylsilyl)oxy]-3-[4-[(trimethylsilyl)oxy]phenyl]-, trimethylsilyl ester
##JCAMP-DX=4.24
##DATA TYPE=MASS SPECTRUM
##ORIGIN=S. MARKEY UNIV. OF COLO. MED. CTR., DENVER, COLORADO, USA
##OWNER=NIST Mass Spectrometry Data Center
Collection (C) 2014 copyright by the U.S. Secretary of Commerce
on behalf of the United States of America. All rights reserved.
##CAS REGISTRY NO=27750-74-9
##$NIST MASS SPEC NO=16928
##MOLFORM=C18 H32 O4 Si3
##MW=396
##$NIST SOURCE=MSDC
##XUNITS=M/Z
##YUNITS=RELATIVE INTENSITY
##XFACTOR=1
##YFACTOR=1
##FIRSTX=27
##LASTX=399
##FIRSTY=10
##MAXX=399
##MINX=27
##MAXY=9999
##MINY=10
##NPOINTS=140
##PEAK TABLE=(XY..XY)
27,10 29,50 38,10 39,70
40,210 41,150 43,190 44,230
45,1530 46,110 47,140 55,10
57,70 58,90 59,170 61,40
63,20 69,10 70,30 72,160
73,8180 74,720 75,700 76,40
77,90 83,20 89,160 90,10
91,70 93,40 95,20 99,20
103,70 104,50 105,70 115,150
116,10 117,190 118,20 119,100
121,30 129,20 131,370 132,50
133,610 134,80 135,250 136,20
137,50 143,20 145,150 146,10
147,9999 148,1670 149,910 150,90
151,50 159,50 161,140 162,30
163,300 164,40 165,20 175,100
176,20 177,110 178,160 179,80
189,50 190,30 191,270 192,40
193,110 194,20 195,20 203,50
204,20 205,70 206,310 207,110
208,20 209,240 210,30 211,10
215,30 217,30 219,100 220,10
221,110 222,30 223,120 224,10
231,10 233,50 234,10 235,50
236,30 237,40 247,30 249,110
250,30 251,80 265,160 266,40
267,80 268,10 276,10 277,130
278,200 279,50 281,10 293,160
294,40 295,50 305,10 308,200
309,60 310,10 315,30 324,10
325,3430 326,1100 327,520 328,130
329,20 353,20 365,10 366,220
367,210 368,30 369,20 380,20
381,3050 382,1200 383,510 384,110
396,900 397,290 398,120 399,20
##END=
