##TITLE=3-Phenyllactic acid, 2TMS derivative
##JCAMP-DX=4.24
##DATA TYPE=MASS SPECTRUM
##ORIGIN=NIST Mass Spectrometry Data Center
##OWNER=NIST Mass Spectrometry Data Center
Collection (C) 2014 copyright by the U.S. Secretary of Commerce
on behalf of the United States of America. All rights reserved.
##CAS REGISTRY NO=27750-45-4
##$NIST MASS SPEC NO=352588
##MOLFORM=C15 H26 O3 Si2
##MW=310
##$NIST SOURCE=MSDC
##XUNITS=M/Z
##YUNITS=RELATIVE INTENSITY
##XFACTOR=1
##YFACTOR=1
##FIRSTX=14
##LASTX=297
##FIRSTY=20
##MAXX=297
##MINX=14
##MAXY=9999
##MINY=10
##NPOINTS=116
##PEAK TABLE=(XY..XY)
14,20 18,150 27,20 28,30
29,80 30,10 31,50 39,110
41,40 43,310 44,170 45,1041
46,100 47,300 50,60 51,60
52,80 54,20 55,80 56,30
57,100 58,120 59,270 60,80
62,20 63,20 64,30 65,160
66,60 67,30 70,40 72,270
73,9999 74,831 75,1501 76,20
77,330 79,50 84,20 85,40
88,10 89,80 90,100 91,1601
100,10 101,100 102,70 103,621
104,230 105,30 106,10 111,10
113,20 116,70 117,190 118,110
119,10 120,60 121,130 122,40
123,10 128,20 129,20 130,10
131,400 132,70 133,611 135,270
136,20 137,50 138,10 144,20
147,6476 148,961 149,651 150,20
157,10 159,70 161,140 162,10
163,340 165,50 175,40 176,40
177,90 179,100 180,10 189,20
190,190 191,190 192,40 193,7707
194,1111 195,370 196,50 197,20
204,40 205,190 206,60 208,20
209,20 218,10 219,671 220,1491
221,160 222,50 223,50 235,40
251,10 253,20 267,581 268,130
269,40 295,500 296,60 297,40
##END=
