##TITLE=Phloretic acid, 2TMS derivative
##JCAMP-DX=4.24
##DATA TYPE=MASS SPECTRUM
##ORIGIN=NIST Mass Spectrometry Data Center
##OWNER=NIST Mass Spectrometry Data Center
Collection (C) 2014 copyright by the U.S. Secretary of Commerce
on behalf of the United States of America. All rights reserved.
##CAS REGISTRY NO=27750-62-5
##$NIST MASS SPEC NO=352427
##MOLFORM=C15 H26 O3 Si2
##MW=310
##$NIST SOURCE=MSDC
##XUNITS=M/Z
##YUNITS=RELATIVE INTENSITY
##XFACTOR=1
##YFACTOR=1
##FIRSTX=27
##LASTX=314
##FIRSTY=50
##MAXX=314
##MINX=27
##MAXY=9999
##MINY=10
##NPOINTS=169
##PEAK TABLE=(XY..XY)
27,50 29,30 31,10 38,10
39,30 41,10 42,30 43,270
44,160 45,1131 46,80 47,290
48,10 49,10 50,30 51,80
52,20 53,30 54,10 55,1231
56,50 57,80 58,110 59,240
60,50 61,190 62,10 63,60
64,30 65,80 66,10 67,20
68,20 69,20 70,30 71,30
72,200 73,5715 74,571 75,1912
76,170 77,350 78,120 79,50
80,10 81,20 82,30 83,40
85,50 86,10 87,50 88,60
89,210 90,100 91,270 92,30
93,20 95,30 96,10 97,10
99,50 100,10 101,100 102,80
103,240 104,130 105,130 106,20
107,70 109,30 110,10 111,10
113,10 115,130 116,290 117,160
118,30 119,80 121,90 122,10
123,30 124,10 125,10 128,10
129,40 130,10 131,200 132,30
133,150 134,30 135,270 136,30
137,50 139,10 140,420 143,20
144,10 145,60 146,10 147,310
148,80 149,320 150,80 151,310
152,40 153,10 157,10 159,10
160,10 161,200 162,80 163,561
164,110 165,50 166,70 167,10
168,10 169,10 171,10 173,10
174,10 175,80 176,50 177,1762
178,380 179,9999 180,1631 181,500
182,50 183,10 185,10 186,10
187,20 188,10 189,20 190,20
192,6806 193,1311 194,370 195,50
196,10 202,10 203,20 204,10
205,140 206,20 207,10 209,10
219,30 220,10 221,10 222,20
223,30 224,10 225,10 236,10
237,10 251,10 267,10 293,10
295,500 296,140 297,60 298,10
310,1591 311,460 312,180 313,40
314,10
##END=
