##TITLE=3-Hydroxyphenylacetic acid, 2TMS derivative
##JCAMP-DX=4.24
##DATA TYPE=MASS SPECTRUM
##ORIGIN=NIST Mass Spectrometry Data Center
##OWNER=NIST Mass Spectrometry Data Center
Collection (C) 2014 copyright by the U.S. Secretary of Commerce
on behalf of the United States of America. All rights reserved.
##CAS REGISTRY NO=27750-55-6
##$NIST MASS SPEC NO=332870
##MOLFORM=C14 H24 O3 Si2
##MW=296
##$NIST SOURCE=MSDC
##XUNITS=M/Z
##YUNITS=RELATIVE INTENSITY
##XFACTOR=1
##YFACTOR=1
##FIRSTX=27
##LASTX=300
##FIRSTY=10
##MAXX=300
##MINX=27
##MAXY=9999
##MINY=10
##NPOINTS=165
##PEAK TABLE=(XY..XY)
27,10 29,20 31,10 39,40
42,20 43,230 44,110 45,851
46,60 47,260 48,10 49,10
50,10 51,60 52,30 53,40
54,10 55,50 56,10 57,60
58,140 59,250 60,60 61,240
62,40 63,130 64,40 65,40
66,10 67,40 68,40 69,30
70,30 71,40 73,9999 74,1091
75,2863 76,220 77,280 78,120
79,90 80,10 81,30 82,60
83,60 84,10 85,50 86,10
87,30 88,30 89,571 90,330
91,180 92,20 93,30 94,10
95,60 96,20 97,20 98,10
99,40 101,20 102,40 103,200
104,100 105,731 106,80 107,90
108,10 109,50 110,10 111,20
113,10 115,70 116,30 117,220
118,50 119,130 120,30 121,140
122,20 123,30 125,10 129,10
130,10 131,140 132,30 133,721
134,140 135,410 136,60 137,90
138,10 139,10 143,20 145,70
147,2953 148,530 149,1191 150,160
151,90 152,10 159,20 161,320
162,70 163,480 164,4404 165,801
166,210 167,30 175,40 176,10
177,310 178,60 179,480 180,230
181,70 182,10 189,10 191,641
192,110 193,120 194,20 195,50
196,10 205,10 206,50 207,60
208,40 209,100 210,20 211,10
219,20 221,50 222,10 223,40
224,10 225,60 226,10 233,10
235,20 236,20 237,230 238,50
239,20 249,20 250,10 252,951
253,250 254,100 255,20 265,100
266,20 267,20 279,10 281,2682
282,671 283,270 284,40 285,10
296,2813 297,731 298,290 299,50
300,10
##END=
