##TITLE=1,4-Ethenoanthracene, 1,4-dihydro-
##JCAMP-DX=4.24
##DATA TYPE=MASS SPECTRUM
##ORIGIN=TAT 0881
##OWNER=NIST Mass Spectrometry Data Center
Collection (C) 2014 copyright by the U.S. Secretary of Commerce
on behalf of the United States of America. All rights reserved.
##CAS REGISTRY NO=27765-96-4
##$NIST MASS SPEC NO=9204
##MOLFORM=C16 H12
##MW=204
##$NIST SOURCE=MSDC
##XUNITS=M/Z
##YUNITS=RELATIVE INTENSITY
##XFACTOR=1
##YFACTOR=1
##FIRSTX=39
##LASTX=206
##FIRSTY=300
##MAXX=206
##MINX=39
##MAXY=9999
##MINY=100
##NPOINTS=39
##PEAK TABLE=(XY..XY)
39,300 50,300 51,300 62,200
63,400 74,400 75,500 76,901
77,200 86,200 87,300 88,1101
89,1101 90,100 98,200 99,200
100,701 101,2903 102,801 126,200
127,200 128,300 139,200 150,300
151,300 152,300 175,200 176,601
177,200 178,801 179,200 189,200
200,601 201,701 202,4004 203,8007
204,9999 205,1702 206,100
##END=
