##TITLE=Benzenepropanoic acid, 3,4-dimethoxy-, methyl ester
##JCAMP-DX=4.24
##DATA TYPE=MASS SPECTRUM
##ORIGIN=NIST Mass Spectrometry Data Center
##OWNER=NIST Mass Spectrometry Data Center
Collection (C) 2014 copyright by the U.S. Secretary of Commerce
on behalf of the United States of America. All rights reserved.
##CAS REGISTRY NO=27798-73-8
##$NIST MASS SPEC NO=332776
##MOLFORM=C12 H16 O4
##MW=224
##$NIST SOURCE=MSDC
##XUNITS=M/Z
##YUNITS=RELATIVE INTENSITY
##XFACTOR=1
##YFACTOR=1
##FIRSTX=15
##LASTX=226
##FIRSTY=110
##MAXX=226
##MINX=15
##MAXY=9999
##MINY=10
##NPOINTS=118
##PEAK TABLE=(XY..XY)
15,110 26,10 27,50 28,10
29,50 30,10 31,20 33,10
37,10 38,30 39,230 40,20
41,50 42,60 43,40 45,70
49,10 50,140 51,430 52,200
53,230 54,20 55,140 56,10
57,20 59,240 60,10 61,20
62,70 63,220 64,90 65,450
66,90 67,40 68,10 69,20
74,40 75,60 76,70 77,921
78,550 79,490 80,80 81,30
82,120 86,10 87,10 89,210
90,220 91,891 92,160 93,140
94,60 95,60 96,30 101,10
102,60 103,390 104,90 105,450
106,350 107,851 108,260 109,50
110,10 112,10 115,10 117,30
118,120 119,260 120,170 121,771
122,150 123,60 124,30 125,10
131,30 132,20 133,110 134,150
135,340 136,100 137,30 138,70
139,100 140,10 145,10 146,10
147,30 148,20 149,1221 150,190
151,9999 152,1071 153,100 154,10
161,20 162,10 164,1371 165,390
166,60 167,170 168,20 177,20
178,10 181,80 182,10 191,30
192,10 193,210 194,30 207,10
208,20 209,60 210,10 224,3243
225,430 226,50
##END=
