##TITLE=Tetracyclo[3.2.0.0(2,7).0(4,6)]heptane
##JCAMP-DX=4.24
##DATA TYPE=MASS SPECTRUM
##ORIGIN=Japan AIST/NIMC Database- Spectrum MS-NW-7278
##OWNER=NIST Mass Spectrometry Data Center
Collection (C) 2014 copyright by the U.S. Secretary of Commerce
on behalf of the United States of America. All rights reserved.
##CAS REGISTRY NO=278-06-8
##$NIST MASS SPEC NO=237789
##MOLFORM=C7 H8
##MW=92
##$NIST SOURCE=MSDC
##XUNITS=M/Z
##YUNITS=RELATIVE INTENSITY
##XFACTOR=1
##YFACTOR=1
##FIRSTX=25
##LASTX=94
##FIRSTY=10
##MAXX=94
##MINX=25
##MAXY=9999
##MINY=10
##NPOINTS=44
##PEAK TABLE=(XY..XY)
25,10 26,90 27,249 31,10
36,10 37,139 38,329 39,1309
40,469 41,149 42,10 43,50
44,30 45,139 46,10 49,50
50,299 51,529 52,189 53,179
60,10 61,109 62,239 63,579
64,159 65,2369 66,2659 67,159
73,10 74,50 75,30 76,20
77,129 78,20 84,10 85,30
86,40 87,30 89,329 90,109
91,9999 92,3019 93,199 94,10
##END=
