##TITLE=1,2-Naphthalenedione, 4-(phenylamino)-
##JCAMP-DX=4.24
##DATA TYPE=MASS SPECTRUM
##ORIGIN=R.W.A.OLIVER UNIV. OF SALFORD, SALFORD, LANCASHIRE, UK
##OWNER=NIST Mass Spectrometry Data Center
Collection (C) 2014 copyright by the U.S. Secretary of Commerce
on behalf of the United States of America. All rights reserved.
##CAS REGISTRY NO=27828-56-4
##$NIST MASS SPEC NO=58056
##MOLFORM=C16 H11 N O2
##MW=249
##$NIST SOURCE=MSDC
##XUNITS=M/Z
##YUNITS=RELATIVE INTENSITY
##XFACTOR=1
##YFACTOR=1
##FIRSTX=50
##LASTX=250
##FIRSTY=3000
##MAXX=250
##MINX=50
##MAXY=9999
##MINY=300
##NPOINTS=34
##PEAK TABLE=(XY..XY)
50,3000 51,9999 52,1200 62,1200
63,2500 64,1200 65,1200 74,1700
75,3000 76,3100 77,8200 78,800
87,500 88,600 89,2400 90,1100
101,1600 102,3200 103,600 105,500
115,600 116,700 130,800 165,2000
190,600 191,800 192,600 193,1600
203,1900 204,9000 220,2600 221,800
249,1600 250,300
##END=
