##TITLE=Ethyl 2-hexenoate, trans-
##JCAMP-DX=4.24
##DATA TYPE=MASS SPECTRUM
##ORIGIN=NIST Mass Spectrometry Data Center
##OWNER=NIST Mass Spectrometry Data Center
Collection (C) 2014 copyright by the U.S. Secretary of Commerce
on behalf of the United States of America. All rights reserved.
##CAS REGISTRY NO=27829-72-7
##$NIST MASS SPEC NO=343420
##MOLFORM=C8 H14 O2
##MW=142
##$NIST SOURCE=MSDC
##XUNITS=M/Z
##YUNITS=RELATIVE INTENSITY
##XFACTOR=1
##YFACTOR=1
##FIRSTX=13
##LASTX=143
##FIRSTY=20
##MAXX=143
##MINX=13
##MAXY=9999
##MINY=10
##NPOINTS=70
##PEAK TABLE=(XY..XY)
13,20 15,591 17,10 18,60
19,30 21,10 26,681 27,4824
29,5795 30,190 31,240 36,10
37,110 38,430 39,3763 40,1271
41,4714 42,1692 43,1211 44,80
45,661 49,30 50,10 51,150
52,290 53,130 55,891 56,9999
57,611 58,621 59,100 60,420
61,430 62,90 63,50 64,60
65,10 66,210 67,110 68,591
69,2843 70,1692 71,360 73,651
74,3433 75,160 77,20 79,10
81,30 82,651 83,130 85,150
86,390 87,330 88,160 89,340
90,10 95,10 97,200 99,6796
100,5545 101,460 102,691 109,40
111,10 114,370 115,951 127,190
128,160 143,280
##END=
