##TITLE=Benzene, 4-ethenyl-1,2-dimethyl-
##JCAMP-DX=4.24
##DATA TYPE=MASS SPECTRUM
##OWNER=NIST Mass Spectrometry Data Center
Collection (C) 2014 copyright by the U.S. Secretary of Commerce
on behalf of the United States of America. All rights reserved.
##CAS REGISTRY NO=27831-13-6
##$NIST MASS SPEC NO=2980
##MOLFORM=C10 H12
##MW=132
##$NIST SOURCE=MSDC
##XUNITS=M/Z
##YUNITS=RELATIVE INTENSITY
##XFACTOR=1
##YFACTOR=1
##FIRSTX=78
##LASTX=134
##FIRSTY=310
##MAXX=134
##MINX=78
##MAXY=9999
##MINY=60
##NPOINTS=19
##PEAK TABLE=(XY..XY)
78,310 91,1832 92,190 103,330
104,160 105,711 106,90 115,2853
116,1221 117,9348 118,931 127,280
128,621 129,530 130,160 131,2692
132,9999 133,1091 134,60
##END=
