##TITLE=L-Methionine, 2TMS derivative
##JCAMP-DX=4.24
##DATA TYPE=MASS SPECTRUM
##ORIGIN=NIST Mass Spectrometry Data Center
##OWNER=NIST Mass Spectrometry Data Center
Collection (C) 2014 copyright by the U.S. Secretary of Commerce
on behalf of the United States of America. All rights reserved.
##CAS REGISTRY NO=27844-10-6
##$NIST MASS SPEC NO=333292
##MOLFORM=C11 H27 N O2 S Si2
##MW=293
##$NIST SOURCE=MSDC
##XUNITS=M/Z
##YUNITS=RELATIVE INTENSITY
##XFACTOR=1
##YFACTOR=1
##FIRSTX=15
##LASTX=297
##FIRSTY=10
##MAXX=297
##MINX=15
##MAXY=9999
##MINY=10
##NPOINTS=162
##PEAK TABLE=(XY..XY)
15,10 27,50 28,60 29,50
30,10 31,30 35,60 39,20
41,80 42,60 43,270 44,230
45,1121 46,120 47,230 48,40
49,30 51,10 52,20 53,20
54,50 55,110 56,470 57,460
58,200 59,721 60,130 61,2492
62,80 63,110 66,30 67,10
68,10 69,10 70,70 71,60
72,190 73,5845 74,631 75,1031
76,80 77,80 78,10 79,10
82,30 83,30 84,60 85,70
86,150 87,70 88,50 89,30
90,20 91,70 92,10 93,10
96,20 97,20 98,110 99,40
100,781 101,180 102,170 103,220
104,80 105,280 106,30 107,40
110,10 111,10 112,90 113,40
114,470 115,150 116,90 117,140
118,40 119,60 120,10 121,20
126,30 128,5985 129,831 130,410
131,250 132,220 133,350 134,70
135,30 140,10 141,20 142,30
143,20 144,100 145,20 146,80
147,1992 148,330 149,180 150,20
151,20 154,10 155,10 156,30
157,60 158,50 159,30 160,370
161,50 162,40 163,20 164,10
165,10 172,40 173,30 174,110
176,9999 177,1421 178,901 179,100
180,20 186,10 188,280 189,50
190,30 191,10 200,10 202,390
203,180 204,60 205,20 214,10
216,10 217,10 218,470 219,831
220,190 221,80 222,10 230,50
231,20 232,150 233,30 234,20
244,10 245,10 246,10 250,550
251,130 252,80 253,10 263,60
264,10 265,10 278,40 279,10
280,10 293,651 294,150 295,90
296,20 297,10
##END=
