##TITLE=Tridecane, 2-methyl-2-phenyl-
##JCAMP-DX=4.24
##DATA TYPE=MASS SPECTRUM
##OWNER=NIST Mass Spectrometry Data Center
Collection (C) 2014 copyright by the U.S. Secretary of Commerce
on behalf of the United States of America. All rights reserved.
##CAS REGISTRY NO=27854-41-7
##$NIST MASS SPEC NO=13244
##MOLFORM=C20 H34
##MW=274
##$NIST SOURCE=MSDC
##XUNITS=M/Z
##YUNITS=RELATIVE INTENSITY
##XFACTOR=1
##YFACTOR=1
##FIRSTX=12
##LASTX=276
##FIRSTY=10
##MAXX=276
##MINX=12
##MAXY=9999
##MINY=10
##NPOINTS=130
##PEAK TABLE=(XY..XY)
12,10 13,10 14,20 15,40
16,20 20,10 22,10 25,10
26,20 27,420 28,270 29,771
30,20 37,10 38,10 39,280
40,50 41,1621 42,200 43,851
44,190 45,10 49,10 50,20
51,90 52,30 53,90 54,40
55,390 56,120 57,270 58,20
62,10 63,20 64,10 65,70
66,10 67,40 68,20 69,130
70,60 71,100 72,10 74,10
75,10 76,20 77,210 78,140
79,310 80,20 81,20 82,10
83,30 84,10 85,50 86,10
89,20 90,30 91,1832 92,160
93,10 94,10 95,10 96,10
97,10 98,10 99,10 101,10
102,30 103,200 104,70 105,691
106,70 107,10 109,10 111,10
112,10 113,10 114,10 115,110
116,60 117,180 118,400 119,9999
120,1011 121,50 125,10 126,10
127,10 128,30 129,30 130,10
131,90 132,20 133,30 134,10
139,10 141,10 142,10 143,10
144,10 145,50 146,20 147,10
148,10 152,10 153,10 154,10
155,10 157,10 159,10 160,10
161,10 175,10 181,10 182,10
183,10 189,10 203,10 217,10
231,10 257,10 259,20 260,10
266,10 272,10 273,10 274,170
275,40 276,10
##END=
