##TITLE=2,5-Dimethoxybenzoic acid
##JCAMP-DX=4.24
##DATA TYPE=MASS SPECTRUM
##ORIGIN=NIST Mass Spectrometry Data Center, 1990.
##OWNER=NIST Mass Spectrometry Data Center
Collection (C) 2014 copyright by the U.S. Secretary of Commerce
on behalf of the United States of America. All rights reserved.
##CAS REGISTRY NO=2785-98-0
##$NIST MASS SPEC NO=118938
##MOLFORM=C9 H10 O4
##MW=182
##$NIST SOURCE=MSDC
##XUNITS=M/Z
##YUNITS=RELATIVE INTENSITY
##XFACTOR=1
##YFACTOR=1
##FIRSTX=12
##LASTX=185
##FIRSTY=23
##MAXX=185
##MINX=12
##MAXY=9999
##MINY=4
##NPOINTS=119
##PEAK TABLE=(XY..XY)
12,23 13,44 14,126 15,1610
16,10 17,61 18,136 25,58
26,344 27,261 28,382 29,536
30,77 31,227 32,110 33,16
36,32 37,257 38,385 39,718
40,172 41,639 42,119 43,191
44,78 45,383 46,24 47,16
48,15 49,109 50,901 51,1829
52,941 53,2483 54,565 55,654
56,34 57,17 59,164 61,391
62,1014 63,2095 64,850 65,1035
66,265 67,355 68,401 69,439
70,92 71,24 73,86 74,434
75,274 76,298 77,1133 78,329
79,3012 80,695 81,227 82,173
83,90 84,23 85,40 88,23
91,85 92,757 93,568 94,512
95,2881 96,462 97,54 98,73
99,22 103,20 104,32 105,146
106,20 107,3771 108,1759 109,2546
110,272 111,1400 112,99 113,57
118,24 119,100 120,63 121,167
122,556 123,2197 124,233 125,45
126,14 133,236 135,5718 136,1187
137,451 138,100 139,322 140,36
145,13 149,429 150,615 151,325
152,180 153,823 154,73 155,4
157,14 163,581 164,297 165,788
166,4 167,5072 168,499 182,9999
183,915 184,128 185,11
##END=
