##TITLE=4-Methoxybenzenamide, N-(4-methoxyphenyl)-
##JCAMP-DX=4.24
##DATA TYPE=MASS SPECTRUM
##ORIGIN=Zaikin V.G., TIPS RAS, Moscow, Russia
##OWNER=NIST Mass Spectrometry Data Center
Collection (C) 2014 copyright by the U.S. Secretary of Commerce
on behalf of the United States of America. All rights reserved.
##CAS REGISTRY NO=27865-44-7
##$NIST MASS SPEC NO=307497
##MOLFORM=C15 H15 N O3
##MW=257
##$NIST SOURCE=MSDC
##XUNITS=M/Z
##YUNITS=RELATIVE INTENSITY
##XFACTOR=1
##YFACTOR=1
##FIRSTX=28
##LASTX=259
##FIRSTY=20
##MAXX=259
##MINX=28
##MAXY=9999
##MINY=20
##NPOINTS=38
##PEAK TABLE=(XY..XY)
28,20 39,50 41,70 50,50
51,70 52,90 53,70 63,150
64,280 65,80 75,30 76,110
77,1031 78,120 79,100 80,70
92,801 93,60 95,150 104,60
106,40 107,641 108,120 109,50
122,170 123,110 124,30 135,9999
136,841 137,70 183,30 198,30
199,50 228,30 256,40 257,3113
258,550 259,50
##END=
