##TITLE=1,3-Pentadiene, 3-methyl-, (Z)-
##JCAMP-DX=4.24
##DATA TYPE=MASS SPECTRUM
##ORIGIN=NIST Mass Spectrometry Data Center, 1990.
##OWNER=NIST Mass Spectrometry Data Center
Collection (C) 2014 copyright by the U.S. Secretary of Commerce
on behalf of the United States of America. All rights reserved.
##CAS REGISTRY NO=2787-45-3
##$NIST MASS SPEC NO=114425
##MOLFORM=C6 H10
##MW=82
##$NIST SOURCE=MSDC
##XUNITS=M/Z
##YUNITS=RELATIVE INTENSITY
##XFACTOR=1
##YFACTOR=1
##FIRSTX=15
##LASTX=83
##FIRSTY=276
##MAXX=83
##MINX=15
##MAXY=9999
##MINY=98
##NPOINTS=36
##PEAK TABLE=(XY..XY)
15,276 26,441 27,2258 28,196
29,420 37,176 38,415 39,3513
40,797 41,3494 42,655 43,161
49,158 50,986 51,1232 52,508
53,1652 54,1206 55,537 56,104
61,121 62,180 63,300 64,104
65,1898 66,104 67,9999 68,537
74,98 77,412 78,100 79,1151
80,206 81,1093 82,3729 83,258
##END=
