##TITLE=9H-Carbazole, 9-nitroso-
##JCAMP-DX=4.24
##DATA TYPE=MASS SPECTRUM
##ORIGIN=W.T.RAINEY OAK RIDGE NATIONAL LABORATORY,OAK RIDGE,TN.USA
##OWNER=NIST Mass Spectrometry Data Center
Collection (C) 2014 copyright by the U.S. Secretary of Commerce
on behalf of the United States of America. All rights reserved.
##CAS REGISTRY NO=2788-23-0
##$NIST MASS SPEC NO=25587
##MOLFORM=C12 H8 N2 O
##MW=196
##$NIST SOURCE=MSDC
##XUNITS=M/Z
##YUNITS=RELATIVE INTENSITY
##XFACTOR=1
##YFACTOR=1
##FIRSTX=30
##LASTX=169
##FIRSTY=3308
##MAXX=169
##MINX=30
##MAXY=9999
##MINY=73
##NPOINTS=52
##PEAK TABLE=(XY..XY)
30,3308 31,110 37,73 38,110
39,441 40,110 50,183 51,257
52,147 61,73 62,367 64,110
65,73 67,73 68,110 69,220
70,183 71,73 74,183 75,183
76,110 77,110 86,147 87,183
88,147 89,183 90,73 98,73
99,73 100,73 101,73 102,73
111,73 112,183 113,257 114,183
115,183 116,110 126,73 127,73
128,73 137,110 138,183 139,1102
140,845 141,147 164,294 165,257
166,2242 167,9999 168,1396 169,110
##END=
