##TITLE=di-p-Tolylacetylene
##JCAMP-DX=4.24
##DATA TYPE=MASS SPECTRUM
##ORIGIN=Japan AIST/NIMC Database- Spectrum MS-IW-1141
##OWNER=NIST Mass Spectrometry Data Center
Collection (C) 2014 copyright by the U.S. Secretary of Commerce
on behalf of the United States of America. All rights reserved.
##CAS REGISTRY NO=2789-88-0
##$NIST MASS SPEC NO=240353
##MOLFORM=C16 H14
##MW=206
##$NIST SOURCE=MSDC
##XUNITS=M/Z
##YUNITS=RELATIVE INTENSITY
##XFACTOR=1
##YFACTOR=1
##FIRSTX=27
##LASTX=208
##FIRSTY=30
##MAXX=208
##MINX=27
##MAXY=9999
##MINY=10
##NPOINTS=81
##PEAK TABLE=(XY..XY)
27,30 39,90 40,10 50,30
51,70 52,10 53,10 62,40
63,129 64,20 65,60 74,50
75,80 76,169 77,70 78,20
81,20 82,30 86,40 87,60
88,109 89,359 90,50 91,50
94,80 95,50 98,30 99,30
100,30 101,269 102,389 103,339
110,20 111,20 113,40 114,20
115,159 116,10 122,10 125,10
126,50 127,70 128,70 129,20
137,10 138,10 139,169 140,30
141,10 150,60 151,90 152,139
153,40 162,10 163,109 164,60
165,329 166,50 174,10 175,20
176,129 177,80 178,299 179,149
180,20 187,60 188,80 189,1119
190,599 191,1379 192,219 193,20
200,60 201,90 202,589 203,459
204,309 205,2289 206,9999 207,1719
208,149
##END=
