##TITLE=Benzaldehyde, 4-(heptyloxy)-
##JCAMP-DX=4.24
##DATA TYPE=MASS SPECTRUM
##ORIGIN=Japan AIST/NIMC Database- Spectrum MS-IW-1904
##OWNER=NIST Mass Spectrometry Data Center
Collection (C) 2014 copyright by the U.S. Secretary of Commerce
on behalf of the United States of America. All rights reserved.
##CAS REGISTRY NO=27893-41-0
##$NIST MASS SPEC NO=227695
##MOLFORM=C14 H20 O2
##MW=220
##$NIST SOURCE=MSDC
##XUNITS=M/Z
##YUNITS=RELATIVE INTENSITY
##XFACTOR=1
##YFACTOR=1
##FIRSTX=15
##LASTX=222
##FIRSTY=10
##MAXX=222
##MINX=15
##MAXY=9999
##MINY=10
##NPOINTS=93
##PEAK TABLE=(XY..XY)
15,10 26,30 27,789 28,139
29,1809 30,40 31,10 37,20
38,99 39,1079 40,149 41,3689
42,719 43,4229 44,149 45,10
46,20 50,199 51,639 52,60
53,229 54,179 55,2349 56,2789
57,8699 58,409 61,10 62,60
63,249 64,179 65,1099 66,159
67,159 68,149 69,1919 70,1279
71,199 72,10 73,10 74,80
75,80 76,209 77,1139 78,109
79,229 80,40 81,40 82,10
83,289 84,20 85,10 89,10
91,90 92,149 93,609 94,279
95,459 96,30 97,70 98,1019
99,90 102,10 103,30 104,70
105,799 106,80 107,149 108,30
109,10 110,329 111,20 115,10
119,30 121,8809 122,9999 123,8809
124,679 125,60 133,10 135,369
136,30 138,40 139,10 147,70
148,10 149,30 150,10 161,10
163,20 219,10 220,4969 221,779
222,70
##END=
