##TITLE=7-Oxabicyclo[2.2.1]heptane
##JCAMP-DX=4.24
##DATA TYPE=MASS SPECTRUM
##ORIGIN=Japan AIST/NIMC Database- Spectrum MS-NW-3430
##OWNER=NIST Mass Spectrometry Data Center
Collection (C) 2014 copyright by the U.S. Secretary of Commerce
on behalf of the United States of America. All rights reserved.
##CAS REGISTRY NO=279-49-2
##$NIST MASS SPEC NO=235010
##MOLFORM=C6 H10 O
##MW=98
##$NIST SOURCE=MSDC
##XUNITS=M/Z
##YUNITS=RELATIVE INTENSITY
##XFACTOR=1
##YFACTOR=1
##FIRSTX=13
##LASTX=100
##FIRSTY=20
##MAXX=100
##MINX=13
##MAXY=9999
##MINY=10
##NPOINTS=67
##PEAK TABLE=(XY..XY)
13,20 14,99 15,519 16,20
18,20 25,40 26,519 27,2829
28,689 29,1159 30,30 31,209
32,20 36,20 37,219 38,499
39,4569 40,689 41,5529 42,3859
43,1339 44,1339 45,70 48,10
49,70 50,379 51,519 52,239
53,949 54,9999 55,3899 56,699
57,1499 58,99 60,10 61,40
62,60 63,109 64,20 65,269
66,80 67,709 68,469 69,2869
70,1699 71,159 72,30 73,20
74,40 75,20 76,10 77,529
78,159 79,1609 80,2299 81,229
82,139 83,2249 84,129 85,10
94,10 95,30 96,20 97,439
98,3029 99,209 100,20
##END=
