##TITLE=7-Thiabicyclo[2.2.1]heptane
##JCAMP-DX=4.24
##DATA TYPE=MASS SPECTRUM
##OWNER=NIST Mass Spectrometry Data Center
Collection (C) 2014 copyright by the U.S. Secretary of Commerce
on behalf of the United States of America. All rights reserved.
##CAS REGISTRY NO=279-59-4
##$NIST MASS SPEC NO=1822
##MOLFORM=C6 H10 S
##MW=114
##$NIST SOURCE=MSDC
##XUNITS=M/Z
##YUNITS=RELATIVE INTENSITY
##XFACTOR=1
##YFACTOR=1
##FIRSTX=24
##LASTX=117
##FIRSTY=10
##MAXX=117
##MINX=24
##MAXY=9999
##MINY=10
##NPOINTS=84
##PEAK TABLE=(XY..XY)
24,10 25,50 26,801 27,4284
28,791 29,1021 30,20 31,10
32,210 33,170 34,100 35,40
36,20 37,210 38,520 39,4564
40,490 41,2833 42,170 43,20
44,70 45,4134 46,290 47,761
48,40 49,100 50,591 51,951
52,420 53,1561 54,1672 55,951
56,70 57,210 58,1361 59,1131
60,3433 61,200 62,200 63,120
64,20 65,480 66,220 67,991
68,170 69,170 70,40 71,851
72,320 73,1621 74,150 75,100
76,30 77,721 78,210 79,2282
80,5635 81,3233 82,230 83,30
84,771 85,9999 86,6095 87,751
88,270 89,20 90,10 91,10
92,10 93,10 94,10 95,10
96,10 97,120 98,20 99,520
100,40 101,30 112,10 113,90
114,5715 115,450 116,270 117,20
##END=
