##TITLE=Norbornane
##JCAMP-DX=4.24
##DATA TYPE=MASS SPECTRUM
##ORIGIN=Japan AIST/NIMC Database- Spectrum MS-NW-9198
##OWNER=NIST Mass Spectrometry Data Center
Collection (C) 2014 copyright by the U.S. Secretary of Commerce
on behalf of the United States of America. All rights reserved.
##CAS REGISTRY NO=279-23-2
##$NIST MASS SPEC NO=235491
##MOLFORM=C7 H12
##MW=96
##$NIST SOURCE=MSDC
##XUNITS=M/Z
##YUNITS=RELATIVE INTENSITY
##XFACTOR=1
##YFACTOR=1
##FIRSTX=15
##LASTX=97
##FIRSTY=40
##MAXX=97
##MINX=15
##MAXY=9999
##MINY=10
##NPOINTS=50
##PEAK TABLE=(XY..XY)
15,40 26,80 27,949 28,159
29,859 30,10 37,40 38,139
39,2119 40,479 41,1769 42,269
43,40 44,10 45,50 46,20
49,10 50,129 51,279 52,129
53,1189 54,4539 55,2769 56,159
57,10 61,20 62,40 63,90
64,20 65,399 66,1079 67,9999
68,7459 69,419 70,10 74,10
77,249 78,50 79,319 80,70
81,7269 82,489 83,10 91,80
92,10 93,30 94,20 95,459
96,1499 97,109
##END=
