##TITLE=Bicyclo[2.2.1]heptan-2-one, 1,7,7-trimethyl-, oxime, (1R)-
##JCAMP-DX=4.24
##DATA TYPE=MASS SPECTRUM
##ORIGIN=Japan AIST/NIMC Database- Spectrum MS-NW-2785
##OWNER=NIST Mass Spectrometry Data Center
Collection (C) 2014 copyright by the U.S. Secretary of Commerce
on behalf of the United States of America. All rights reserved.
##CAS REGISTRY NO=2792-42-9
##$NIST MASS SPEC NO=234331
##MOLFORM=C10 H17 N O
##MW=167
##$NIST SOURCE=MSDC
##XUNITS=M/Z
##YUNITS=RELATIVE INTENSITY
##XFACTOR=1
##YFACTOR=1
##FIRSTX=14
##LASTX=169
##FIRSTY=30
##MAXX=169
##MINX=14
##MAXY=9999
##MINY=10
##NPOINTS=128
##PEAK TABLE=(XY..XY)
14,30 15,289 16,20 17,20
18,70 26,209 27,3039 28,419
29,2189 30,329 31,179 37,70
38,249 39,4359 40,839 41,9979
42,1969 43,2739 44,299 45,179
46,99 49,20 50,329 51,1079
52,649 53,3229 54,1349 55,5199
56,949 57,1029 58,689 59,599
60,60 61,40 62,99 63,309
64,169 65,1429 66,1129 67,5999
68,2969 69,6309 70,1189 71,859
72,169 73,329 74,60 75,60
76,60 77,2729 78,699 79,5469
80,2389 81,4069 82,3709 83,2359
84,959 85,419 86,109 87,80
88,10 89,80 90,60 91,2509
92,1459 93,9769 94,5949 95,4129
96,1819 97,849 98,1029 99,609
100,70 101,10 102,30 103,119
104,179 105,799 106,2219 107,3619
108,5919 109,4639 110,5649 111,3639
112,1549 113,129 114,20 115,70
116,70 117,279 118,189 119,399
120,739 121,679 122,1369 123,809
124,9999 125,2469 126,469 127,70
128,10 130,40 131,50 132,189
133,479 134,9469 135,1789 136,589
137,129 138,1929 139,1109 140,119
141,10 146,20 147,10 148,669
149,1409 150,3839 151,779 152,3689
153,359 154,20 164,10 165,20
166,689 167,7979 168,949 169,60
##END=
