##TITLE=Cyclohexanecarboxylic acid, hexyl ester
##JCAMP-DX=4.24
##DATA TYPE=MASS SPECTRUM
##ORIGIN=V.G.Zaikin, TIPS RAS, Moscow, Russia
##OWNER=NIST Mass Spectrometry Data Center
Collection (C) 2014 copyright by the U.S. Secretary of Commerce
on behalf of the United States of America. All rights reserved.
##CAS REGISTRY NO=27948-10-3
##$NIST MASS SPEC NO=279535
##MOLFORM=C13 H24 O2
##MW=212
##$NIST SOURCE=MSDC
##XUNITS=M/Z
##YUNITS=RELATIVE INTENSITY
##XFACTOR=1
##YFACTOR=1
##FIRSTX=26
##LASTX=212
##FIRSTY=290
##MAXX=212
##MINX=26
##MAXY=9999
##MINY=20
##NPOINTS=76
##PEAK TABLE=(XY..XY)
26,290 27,1591 28,430 29,1962
30,80 31,40 38,110 39,1591
40,410 41,5015 42,1882 43,5975
44,611 45,140 47,90 50,40
51,190 52,80 53,591 54,911
55,7026 56,4084 57,2672 58,170
59,20 60,490 61,390 65,150
66,120 67,1431 68,1381 69,2472
70,791 71,851 72,70 73,1692
74,110 77,150 78,60 79,290
80,80 81,1091 82,1311 83,8187
84,4314 85,1151 86,250 87,370
89,90 91,60 93,390 95,170
96,350 97,1061 98,450 99,450
100,90 101,270 109,210 110,951
111,3493 112,450 113,210 115,80
116,60 124,70 125,320 126,210
127,821 128,1281 129,9999 130,1081
131,90 157,290 158,30 212,30
##END=
