##TITLE=L-Proline, 1-methyl-, methyl ester
##JCAMP-DX=4.24
##DATA TYPE=MASS SPECTRUM
##ORIGIN=INST.OF CLINICAL BIOCHEM,RIKSHOSP,UNIV.OF OSLO,E.JELLUM,ET.A
##OWNER=NIST Mass Spectrometry Data Center
Collection (C) 2014 copyright by the U.S. Secretary of Commerce
on behalf of the United States of America. All rights reserved.
##CAS REGISTRY NO=27957-91-1
##$NIST MASS SPEC NO=24600
##MOLFORM=C7 H13 N O2
##MW=143
##$NIST SOURCE=MSDC
##XUNITS=M/Z
##YUNITS=RELATIVE INTENSITY
##XFACTOR=1
##YFACTOR=1
##FIRSTX=27
##LASTX=143
##FIRSTY=1500
##MAXX=143
##MINX=27
##MAXY=9999
##MINY=300
##NPOINTS=17
##PEAK TABLE=(XY..XY)
27,1500 29,2900 30,700 31,4500
39,500 40,500 41,1000 42,3500
44,700 45,1100 55,700 59,1100
74,600 82,1100 84,9999 85,700
143,300
##END=
