##TITLE=3-Chloropropyl isothiocyanate
##JCAMP-DX=4.24
##DATA TYPE=MASS SPECTRUM
##ORIGIN=NIST Mass Spectrometry Data Center, 1994
##OWNER=NIST Mass Spectrometry Data Center
Collection (C) 2014 copyright by the U.S. Secretary of Commerce
on behalf of the United States of America. All rights reserved.
##CAS REGISTRY NO=2799-72-6
##$NIST MASS SPEC NO=134727
##MOLFORM=C4 H6 Cl N S
##MW=135
##$NIST SOURCE=MSDC
##XUNITS=M/Z
##YUNITS=RELATIVE INTENSITY
##XFACTOR=1
##YFACTOR=1
##FIRSTX=12
##LASTX=140
##FIRSTY=36
##MAXX=140
##MINX=12
##MAXY=9999
##MINY=3
##NPOINTS=81
##PEAK TABLE=(XY..XY)
12,36 13,53 14,105 15,331
25,93 26,1065 27,2919 28,1364
29,83 30,52 31,52 32,715
33,63 34,71 35,158 36,169
37,487 38,885 39,4055 40,1074
41,9999 42,514 43,52 44,868
45,1818 46,270 47,198 48,174
49,1801 50,145 51,670 52,163
53,27 54,102 56,48 57,144
58,697 59,1255 60,912 61,285
62,141 63,265 64,77 65,56
66,19 67,90 68,124 69,85
70,636 71,19 72,9081 73,968
74,450 75,332 76,2719 77,984
78,862 79,334 82,27 83,33
84,116 85,141 86,917 87,43
88,66 98,209 99,203 100,1433
101,90 102,106 106,102 107,208
108,73 109,82 110,24 135,5328
136,300 137,1979 138,108 139,80
140,3
##END=
