##TITLE=8-Azabicyclo[3.2.1]octane
##JCAMP-DX=4.24
##DATA TYPE=MASS SPECTRUM
##ORIGIN=R.C. DOUGHERTY
##OWNER=NIST Mass Spectrometry Data Center
Collection (C) 2014 copyright by the U.S. Secretary of Commerce
on behalf of the United States of America. All rights reserved.
##CAS REGISTRY NO=280-05-7
##$NIST MASS SPEC NO=37206
##MOLFORM=C7 H13 N
##MW=111
##$NIST SOURCE=MSDC
##XUNITS=M/Z
##YUNITS=RELATIVE INTENSITY
##XFACTOR=1
##YFACTOR=1
##FIRSTX=38
##LASTX=113
##FIRSTY=306
##MAXX=113
##MINX=38
##MAXY=9999
##MINY=102
##NPOINTS=46
##PEAK TABLE=(XY..XY)
38,306 39,1939 40,2857 41,2754
42,817 43,1428 44,1735 50,408
51,613 52,510 53,613 54,1326
55,1122 56,1326 57,408 58,204
63,204 65,204 66,153 67,1224
68,9999 69,2347 70,408 74,306
75,102 76,306 77,408 78,1632
79,408 80,918 81,408 82,8775
83,6938 84,408 91,306 92,102
93,153 94,204 95,102 96,408
108,204 109,306 110,510 111,5917
112,510 113,102
##END=
