##TITLE=4,5-Thiepanedione, 3,3,6,6-tetramethyl-
##JCAMP-DX=4.24
##DATA TYPE=MASS SPECTRUM
##ORIGIN=R.F.EVANS UNIV. QUEENSLAND, ST. LUCIA, QUEENSLAND, AUSTRALIA
##OWNER=NIST Mass Spectrometry Data Center
Collection (C) 2014 copyright by the U.S. Secretary of Commerce
on behalf of the United States of America. All rights reserved.
##CAS REGISTRY NO=2800-87-5
##$NIST MASS SPEC NO=67873
##MOLFORM=C10 H16 O2 S
##MW=200
##$NIST SOURCE=MSDC
##XUNITS=M/Z
##YUNITS=RELATIVE INTENSITY
##XFACTOR=1
##YFACTOR=1
##FIRSTX=39
##LASTX=200
##FIRSTY=1000
##MAXX=200
##MINX=39
##MAXY=9999
##MINY=80
##NPOINTS=28
##PEAK TABLE=(XY..XY)
39,1000 40,200 41,2100 42,400
43,600 44,1000 45,500 47,200
53,200 54,700 55,2300 56,9999
57,900 59,300 60,400 61,300
69,200 70,300 73,300 88,900
89,400 97,400 99,300 117,1800
119,80 144,400 172,1100 200,800
##END=
