##TITLE=Decane, 2,4-dimethyl-
##JCAMP-DX=4.24
##DATA TYPE=MASS SPECTRUM
##ORIGIN=D.HENNEBERG, MAX-PLANCK INSTITUTE, MULHEIM, WEST GERMANY
##OWNER=NIST Mass Spectrometry Data Center
Collection (C) 2014 copyright by the U.S. Secretary of Commerce
on behalf of the United States of America. All rights reserved.
##CAS REGISTRY NO=2801-84-5
##$NIST MASS SPEC NO=61109
##MOLFORM=C12 H26
##MW=170
##$NIST SOURCE=MSDC
##XUNITS=M/Z
##YUNITS=RELATIVE INTENSITY
##XFACTOR=1
##YFACTOR=1
##FIRSTX=25
##LASTX=155
##FIRSTY=8
##MAXX=155
##MINX=25
##MAXY=9999
##MINY=6
##NPOINTS=39
##PEAK TABLE=(XY..XY)
25,8 26,61 27,895 28,140
29,1417 30,37 39,463 40,89
41,2268 42,591 43,9999 44,263
53,90 54,35 55,691 56,1340
57,6922 58,280 65,6 67,39
68,25 69,547 70,328 71,3842
72,189 82,52 83,235 84,873
85,3010 86,190 97,30 98,28
99,74 111,12 112,381 113,214
126,77 127,130 155,16
##END=
