##TITLE=1H-Pyrazole, 4,5-dihydro-4,5-dimethyl-
##JCAMP-DX=4.24
##DATA TYPE=MASS SPECTRUM
##ORIGIN=ATLAS OF MASS SPECTRA OF ORGANIC COMPOUNDS, V. A. KOPTYUG, ED.
##OWNER=NIST Mass Spectrometry Data Center
Collection (C) 2014 copyright by the U.S. Secretary of Commerce
on behalf of the United States of America. All rights reserved.
##CAS REGISTRY NO=28019-94-5
##$NIST MASS SPEC NO=64555
##MOLFORM=C5 H10 N2
##MW=98
##$NIST SOURCE=MSDC
##XUNITS=M/Z
##YUNITS=RELATIVE INTENSITY
##XFACTOR=1
##YFACTOR=1
##FIRSTX=26
##LASTX=99
##FIRSTY=320
##MAXX=99
##MINX=26
##MAXY=9999
##MINY=40
##NPOINTS=32
##PEAK TABLE=(XY..XY)
26,320 27,1210 28,4410 29,780
30,350 38,120 39,880 40,150
41,1440 42,4410 43,880 44,1150
51,120 52,120 53,240 54,500
55,260 56,2600 57,170 66,60
67,70 68,140 69,410 70,220
81,170 82,90 83,9999 84,520
95,40 97,560 98,4710 99,290
##END=
