##TITLE=2-Phenethyl-.beta.-phenylpropionate
##JCAMP-DX=4.24
##DATA TYPE=MASS SPECTRUM
##ORIGIN=V.Zaikin,Topchiev Inst.Petrochem.Synth.,Moscow
##OWNER=NIST Mass Spectrometry Data Center
Collection (C) 2014 copyright by the U.S. Secretary of Commerce
on behalf of the United States of America. All rights reserved.
##CAS REGISTRY NO=28049-10-7
##$NIST MASS SPEC NO=282283
##MOLFORM=C17 H18 O2
##MW=254
##$NIST SOURCE=MSDC
##XUNITS=M/Z
##YUNITS=RELATIVE INTENSITY
##XFACTOR=1
##YFACTOR=1
##FIRSTX=25
##LASTX=195
##FIRSTY=10
##MAXX=195
##MINX=25
##MAXY=9999
##MINY=10
##NPOINTS=87
##PEAK TABLE=(XY..XY)
25,10 26,70 27,170 28,30
29,50 30,20 36,40 37,10
38,30 39,260 40,40 41,80
42,50 43,40 49,20 50,170
51,540 52,160 53,80 55,50
57,10 61,10 62,50 63,210
64,60 65,761 66,60 67,10
69,20 73,20 74,70 75,70
76,110 77,1742 78,961 79,1141
80,70 83,10 87,10 89,210
90,120 91,7257 92,701 93,40
96,10 97,10 101,20 102,210
103,1682 104,9999 105,8698 106,1131
107,460 108,40 115,30 116,10
117,60 118,20 120,30 121,40
122,20 128,10 131,140 132,120
133,661 134,80 135,20 147,20
148,10 149,40 150,240 151,30
152,20 162,20 163,180 164,20
165,60 166,30 167,40 178,80
179,40 180,20 191,20 192,10
193,60 194,40 195,10
##END=
