##TITLE=L-Ornithine, N2,N5-bis(trifluoroacetyl)-, butyl ester
##JCAMP-DX=4.24
##DATA TYPE=MASS SPECTRUM
##ORIGIN=JACSAT, 99(26)8469(1977); K. L. RINEHART,JR.
##OWNER=NIST Mass Spectrometry Data Center
Collection (C) 2014 copyright by the U.S. Secretary of Commerce
on behalf of the United States of America. All rights reserved.
##CAS REGISTRY NO=2804-68-4
##$NIST MASS SPEC NO=59376
##MOLFORM=C13 H18 F6 N2 O4
##MW=380
##$NIST SOURCE=MSDC
##XUNITS=M/Z
##YUNITS=RELATIVE INTENSITY
##XFACTOR=1
##YFACTOR=1
##FIRSTX=39
##LASTX=307
##FIRSTY=1100
##MAXX=307
##MINX=39
##MAXY=9999
##MINY=200
##NPOINTS=44
##PEAK TABLE=(XY..XY)
39,1100 41,8400 42,800 43,2000
53,1500 54,600 56,2200 57,8600
58,600 68,800 70,1200 71,2800
72,900 78,800 86,700 96,1500
98,600 114,1100 126,3100 127,500
128,700 138,400 139,2700 140,700
141,700 148,400 152,600 153,1700
154,1200 164,700 165,1500 166,9999
167,7100 168,500 171,1000 181,600
193,400 209,400 211,600 227,300
259,700 279,700 306,1600 307,200
##END=
