##TITLE=3-Hexen-1-yne
##JCAMP-DX=4.24
##DATA TYPE=MASS SPECTRUM
##ORIGIN=A.G. HARRISON, UNIV. OF TORONTO, TORONTO 5, ONTARIO, CANADA
##OWNER=NIST Mass Spectrometry Data Center
Collection (C) 2014 copyright by the U.S. Secretary of Commerce
on behalf of the United States of America. All rights reserved.
##CAS REGISTRY NO=2806-56-6
##$NIST MASS SPEC NO=418
##MOLFORM=C6 H8
##MW=80
##$NIST SOURCE=MSDC
##XUNITS=M/Z
##YUNITS=RELATIVE INTENSITY
##XFACTOR=1
##YFACTOR=1
##FIRSTX=39
##LASTX=80
##FIRSTY=5598
##MAXX=80
##MINX=39
##MAXY=9999
##MINY=493
##NPOINTS=12
##PEAK TABLE=(XY..XY)
39,5598 50,1794 51,2474 52,2957
53,1263 54,493 63,981 65,3038
77,3809 78,842 79,9999 80,7225
##END=
