##TITLE=trans-anti-trans-Tetra-decahydroanthracene
##JCAMP-DX=4.24
##DATA TYPE=MASS SPECTRUM
##OWNER=NIST Mass Spectrometry Data Center
Collection (C) 2014 copyright by the U.S. Secretary of Commerce
on behalf of the United States of America. All rights reserved.
##CAS REGISTRY NO=28071-99-0
##$NIST MASS SPEC NO=215310
##MOLFORM=C14 H24
##MW=192
##$NIST SOURCE=MSDC
##XUNITS=M/Z
##YUNITS=RELATIVE INTENSITY
##XFACTOR=1
##YFACTOR=1
##FIRSTX=53
##LASTX=194
##FIRSTY=1701
##MAXX=194
##MINX=53
##MAXY=9999
##MINY=110
##NPOINTS=36
##PEAK TABLE=(XY..XY)
53,1701 54,1901 55,3803 56,530
57,600 67,8807 68,1901 69,1201
77,1201 79,3302 80,1401 81,6205
82,1701 83,670 91,900 93,2302
94,1401 95,3803 96,3102 97,900
107,1101 108,1000 109,730 110,1501
121,3603 122,3903 123,3102 135,9999
136,1501 149,630 150,2602 163,350
164,330 192,9808 193,1510 194,110
##END=
