##TITLE=10-Undecenoic acid, octyl ester
##JCAMP-DX=4.24
##DATA TYPE=MASS SPECTRUM
##OWNER=NIST Mass Spectrometry Data Center
Collection (C) 2014 copyright by the U.S. Secretary of Commerce
on behalf of the United States of America. All rights reserved.
##CAS REGISTRY NO=28080-85-5
##$NIST MASS SPEC NO=14124
##MOLFORM=C19 H36 O2
##MW=296
##$NIST SOURCE=MSDC
##XUNITS=M/Z
##YUNITS=RELATIVE INTENSITY
##XFACTOR=1
##YFACTOR=1
##FIRSTX=13
##LASTX=296
##FIRSTY=20
##MAXX=296
##MINX=13
##MAXY=9999
##MINY=10
##NPOINTS=140
##PEAK TABLE=(XY..XY)
13,20 14,70 15,300 16,30
17,30 18,100 25,20 26,190
27,3133 28,1101 29,5175 30,140
31,260 36,20 37,50 38,90
39,2252 40,510 41,9999 42,3353
43,8438 44,540 45,270 50,40
51,110 52,80 53,721 54,1271
55,9038 56,3413 57,6646 58,390
59,160 60,661 61,1141 62,60
63,50 65,110 66,140 67,1511
68,1481 69,4234 70,2793 71,4144
72,270 73,971 74,120 75,30
77,90 78,50 79,250 80,210
81,1211 82,1631 83,3563 84,3253
85,671 86,90 87,350 88,60
91,170 92,40 93,150 94,130
95,420 96,871 97,1031 98,791
99,190 100,280 101,400 102,80
103,20 105,50 106,30 107,120
108,60 109,190 110,400 111,400
112,1481 113,280 114,390 115,190
116,110 117,20 119,50 120,30
121,80 122,390 123,460 124,1021
125,490 126,80 127,150 128,70
129,100 130,20 131,20 133,60
135,40 136,30 137,190 138,180
139,70 140,50 141,110 142,60
143,100 144,20 147,110 148,230
149,540 150,90 151,60 152,40
153,30 154,20 155,50 156,20
157,70 164,30 165,180 166,771
167,661 168,90 169,40 172,20
173,20 182,40 183,70 184,80
185,240 186,30 187,40 211,20
225,20 240,20 278,10 296,20
##END=
