##TITLE=Cyclohexene, 3-ethyl-
##JCAMP-DX=4.24
##DATA TYPE=MASS SPECTRUM
##ORIGIN=S.A. Rang et al., IR & MS of Unsatd. Hydrocarbons, 1977
##OWNER=NIST Mass Spectrometry Data Center
Collection (C) 2014 copyright by the U.S. Secretary of Commerce
on behalf of the United States of America. All rights reserved.
##CAS REGISTRY NO=2808-71-1
##$NIST MASS SPEC NO=142678
##MOLFORM=C8 H14
##MW=110
##$NIST SOURCE=MSDC
##XUNITS=M/Z
##YUNITS=RELATIVE INTENSITY
##XFACTOR=1
##YFACTOR=1
##FIRSTX=25
##LASTX=112
##FIRSTY=9
##MAXX=112
##MINX=25
##MAXY=9999
##MINY=4
##NPOINTS=68
##PEAK TABLE=(XY..XY)
25,9 26,104 27,1496 28,267
29,648 30,23 31,55 37,14
38,66 39,1709 40,253 41,2724
42,215 43,178 44,107 45,32
46,5 49,4 50,104 51,389
52,215 53,1282 54,801 55,748
56,128 57,405 58,32 59,6
62,18 63,75 64,20 65,405
66,308 67,2885 68,855 69,550
70,79 71,48 72,25 73,9
74,10 75,29 76,18 77,748
78,182 79,1816 80,583 81,9999
82,1816 83,128 84,13 85,16
87,4 91,207 92,28 93,87
94,25 95,855 96,157 97,124
105,14 106,29 107,15 108,33
109,145 110,1656 111,128 112,10
##END=
