##TITLE=Cyclohexane, 1-methyl-4-methylene-
##JCAMP-DX=4.24
##DATA TYPE=MASS SPECTRUM
##OWNER=NIST Mass Spectrometry Data Center
Collection (C) 2014 copyright by the U.S. Secretary of Commerce
on behalf of the United States of America. All rights reserved.
##CAS REGISTRY NO=2808-80-2
##$NIST MASS SPEC NO=1493
##MOLFORM=C8 H14
##MW=110
##$NIST SOURCE=MSDC
##XUNITS=M/Z
##YUNITS=RELATIVE INTENSITY
##XFACTOR=1
##YFACTOR=1
##FIRSTX=15
##LASTX=111
##FIRSTY=330
##MAXX=111
##MINX=15
##MAXY=9999
##MINY=40
##NPOINTS=44
##PEAK TABLE=(XY..XY)
15,330 26,240 27,2492 29,1091
37,70 39,2592 40,791 41,2722
42,470 43,250 45,80 46,60
50,230 51,540 52,260 53,1732
54,831 55,3263 56,470 63,120
65,340 66,210 67,5145 68,9999
69,1081 70,80 77,520 78,110
79,661 80,200 81,2722 82,641
83,80 91,280 92,90 93,230
95,4774 96,460 97,120 107,40
108,50 109,160 110,2032 111,180
##END=
