##TITLE=Tricyclo[4.3.1.1(3,8)]undecane
##JCAMP-DX=4.24
##DATA TYPE=MASS SPECTRUM
##OWNER=NIST Mass Spectrometry Data Center
Collection (C) 2014 copyright by the U.S. Secretary of Commerce
on behalf of the United States of America. All rights reserved.
##CAS REGISTRY NO=281-46-9
##$NIST MASS SPEC NO=4621
##MOLFORM=C11 H18
##MW=150
##$NIST SOURCE=MSDC
##XUNITS=M/Z
##YUNITS=RELATIVE INTENSITY
##XFACTOR=1
##YFACTOR=1
##FIRSTX=39
##LASTX=152
##FIRSTY=200
##MAXX=152
##MINX=39
##MAXY=9999
##MINY=100
##NPOINTS=46
##PEAK TABLE=(XY..XY)
39,200 41,300 43,300 44,500
53,200 54,300 55,500 56,200
57,200 65,200 66,400 67,2002
68,701 69,200 70,200 77,300
78,400 79,2903 80,2402 81,2102
82,400 83,100 91,400 92,1001
93,4804 94,3203 95,1501 96,400
105,200 106,300 107,3203 108,1902
109,901 110,200 111,1902 112,801
113,200 120,200 135,4504 136,500
137,200 148,200 149,1702 150,9999
151,1301 152,200
##END=
