##TITLE=3-Methylbenzoyl isothiocyanate
##JCAMP-DX=4.24
##DATA TYPE=MASS SPECTRUM
##ORIGIN=NIST Mass Spectrometry Data Center, 1994
##OWNER=NIST Mass Spectrometry Data Center
Collection (C) 2014 copyright by the U.S. Secretary of Commerce
on behalf of the United States of America. All rights reserved.
##CAS REGISTRY NO=28115-86-8
##$NIST MASS SPEC NO=134697
##MOLFORM=C9 H7 N O S
##MW=177
##$NIST SOURCE=MSDC
##XUNITS=M/Z
##YUNITS=RELATIVE INTENSITY
##XFACTOR=1
##YFACTOR=1
##FIRSTX=4
##LASTX=177
##FIRSTY=43
##MAXX=177
##MINX=4
##MAXY=9999
##MINY=15
##NPOINTS=58
##PEAK TABLE=(XY..XY)
4,43 14,22 15,46 25,19
26,95 27,232 28,128 32,289
37,162 38,437 39,2071 40,170
41,420 42,20 43,87 44,128
45,139 49,100 50,798 51,810
52,205 53,121 54,28 58,741
59,232 60,72 61,227 62,658
63,1586 64,506 65,3745 66,204
69,19 70,36 72,15 73,60
74,232 75,187 76,129 77,72
78,18 84,22 85,76 86,226
87,101 88,15 89,1029 90,15
91,8075 92,646 93,22 116,31
117,59 119,9999 120,908 121,74
145,18 177,52
##END=
