##TITLE=2-Methylbenzoyl isothiocyanate
##JCAMP-DX=4.24
##DATA TYPE=MASS SPECTRUM
##ORIGIN=NIST Mass Spectrometry Data Center, 1994
##OWNER=NIST Mass Spectrometry Data Center
Collection (C) 2014 copyright by the U.S. Secretary of Commerce
on behalf of the United States of America. All rights reserved.
##CAS REGISTRY NO=28115-85-7
##$NIST MASS SPEC NO=134695
##MOLFORM=C9 H7 N O S
##MW=177
##$NIST SOURCE=MSDC
##XUNITS=M/Z
##YUNITS=RELATIVE INTENSITY
##XFACTOR=1
##YFACTOR=1
##FIRSTX=4
##LASTX=177
##FIRSTY=43
##MAXX=177
##MINX=4
##MAXY=9999
##MINY=18
##NPOINTS=58
##PEAK TABLE=(XY..XY)
4,43 14,29 15,40 18,18
26,110 27,245 28,123 29,38
32,300 34,22 37,193 38,517
39,2267 40,185 41,412 43,80
44,125 45,114 49,102 50,740
51,917 52,223 53,115 54,31
58,843 59,212 60,74 61,282
62,756 63,1834 64,569 65,4038
66,223 69,25 70,48 73,59
74,222 75,202 76,132 77,102
78,20 84,22 85,81 86,211
87,106 88,20 89,1224 90,20
91,8561 92,657 93,34 104,18
116,47 117,66 119,9999 120,899
121,82 177,109
##END=
