##TITLE=4-Nitrobenzoyl isothiocyanate
##JCAMP-DX=4.24
##DATA TYPE=MASS SPECTRUM
##ORIGIN=NIST Mass Spectrometry Data Center, 1994
##OWNER=NIST Mass Spectrometry Data Center
Collection (C) 2014 copyright by the U.S. Secretary of Commerce
on behalf of the United States of America. All rights reserved.
##CAS REGISTRY NO=28115-92-6
##$NIST MASS SPEC NO=134893
##MOLFORM=C8 H4 N2 O3 S
##MW=208
##$NIST SOURCE=MSDC
##XUNITS=M/Z
##YUNITS=RELATIVE INTENSITY
##XFACTOR=1
##YFACTOR=1
##FIRSTX=4
##LASTX=152
##FIRSTY=12
##MAXX=152
##MINX=4
##MAXY=9999
##MINY=12
##NPOINTS=61
##PEAK TABLE=(XY..XY)
4,12 16,27 26,62 27,48
28,182 29,27 30,583 32,197
37,255 38,440 39,166 40,18
44,68 45,33 46,145 48,23
50,3337 51,303 52,62 53,188
54,32 58,399 59,110 60,50
61,142 62,206 63,481 64,660
65,47 66,41 69,22 70,36
73,253 74,1423 75,1864 76,4550
77,322 78,20 86,176 87,35
88,31 89,14 90,64 91,14
92,2286 93,160 94,31 99,14
102,58 104,4564 105,363 106,28
107,17 120,1187 121,102 122,99
134,135 148,26 150,9999 151,783
152,97
##END=
