##TITLE=.beta.(3,4-Methylenedioxyphenyl)propionic acid
##JCAMP-DX=4.24
##DATA TYPE=MASS SPECTRUM
##ORIGIN=NIST Mass Spectrometry Data Center, 1994
##OWNER=NIST Mass Spectrometry Data Center
Collection (C) 2014 copyright by the U.S. Secretary of Commerce
on behalf of the United States of America. All rights reserved.
##CAS REGISTRY NO=2815-95-4
##$NIST MASS SPEC NO=134905
##MOLFORM=C10 H10 O4
##MW=194
##$NIST SOURCE=MSDC
##XUNITS=M/Z
##YUNITS=RELATIVE INTENSITY
##XFACTOR=1
##YFACTOR=1
##FIRSTX=14
##LASTX=196
##FIRSTY=76
##MAXX=196
##MINX=14
##MAXY=9999
##MINY=14
##NPOINTS=78
##PEAK TABLE=(XY..XY)
14,76 15,26 18,19 26,68
27,292 28,232 29,218 30,44
31,90 32,36 37,73 38,199
39,796 40,90 41,111 42,97
43,72 44,36 45,479 46,25
49,38 50,391 51,1196 52,189
53,320 54,37 55,107 59,21
60,50 61,90 62,342 63,766
64,226 65,904 66,109 67,59
68,18 69,25 73,89 74,254
77,1860 78,224 79,620 80,53
81,19 86,30 87,50 89,511
90,136 91,859 92,110 93,76
94,31 95,14 97,22 102,14
105,581 106,64 107,44 117,34
119,277 120,55 121,168 122,116
123,32 135,9999 136,873 137,82
145,15 147,352 148,443 149,109
150,14 151,59 163,14 194,2492
195,259 196,35
##END=
