##TITLE=Cyclopentane, 1,2,3-trimethyl-
##JCAMP-DX=4.24
##DATA TYPE=MASS SPECTRUM
##ORIGIN=N.W. Davies, Centr. Sci. Lab., Univ. Tasmania, Hobart, Australia
##OWNER=NIST Mass Spectrometry Data Center
Collection (C) 2014 copyright by the U.S. Secretary of Commerce
on behalf of the United States of America. All rights reserved.
##CAS REGISTRY NO=2815-57-8
##$NIST MASS SPEC NO=107149
##MOLFORM=C8 H16
##MW=112
##$NIST SOURCE=MSDC
##XUNITS=M/Z
##YUNITS=RELATIVE INTENSITY
##XFACTOR=1
##YFACTOR=1
##FIRSTX=27
##LASTX=112
##FIRSTY=910
##MAXX=112
##MINX=27
##MAXY=9999
##MINY=120
##NPOINTS=25
##PEAK TABLE=(XY..XY)
27,910 29,240 32,170 38,120
39,960 41,3020 42,1780 43,500
53,390 54,220 55,7820 56,8830
57,2690 65,150 67,280 68,190
69,3160 70,9999 71,840 77,170
78,170 83,920 84,2220 97,590
112,1700
##END=
