##TITLE=endo-(2s,7R)-Tricyclo[6.2.2.0(2,7)]-4,9-dodecadiene-3,6-dione
##JCAMP-DX=4.24
##DATA TYPE=MASS SPECTRUM
##ORIGIN=F. TURECEK,HEYROVSKY INST PHYS CHEM & ELECTROCHEM,PRAGUE,CZECH
##OWNER=NIST Mass Spectrometry Data Center
Collection (C) 2014 copyright by the U.S. Secretary of Commerce
on behalf of the United States of America. All rights reserved.
##CAS REGISTRY NO=2816-25-3
##$NIST MASS SPEC NO=99275
##MOLFORM=C12 H12 O2
##MW=188
##$NIST SOURCE=MSDC
##XUNITS=M/Z
##YUNITS=RELATIVE INTENSITY
##XFACTOR=1
##YFACTOR=1
##FIRSTX=26
##LASTX=190
##FIRSTY=400
##MAXX=190
##MINX=26
##MAXY=9999
##MINY=80
##NPOINTS=81
##PEAK TABLE=(XY..XY)
26,400 27,1100 29,200 39,1500
40,200 41,900 43,260 50,300
51,350 52,800 53,600 54,600
55,500 57,200 63,300 64,100
65,700 66,300 67,300 68,100
69,200 71,200 76,200 77,2700
78,3900 79,4600 80,9999 81,1200
82,700 83,100 89,100 91,1800
92,1300 93,300 94,120 95,200
97,700 98,100 104,400 105,400
106,900 107,500 108,300 109,200
110,1200 111,200 115,340 116,200
117,340 118,200 119,200 120,120
121,100 122,80 123,140 128,220
129,260 130,100 131,400 132,260
133,400 134,300 135,100 141,200
142,160 143,200 144,300 145,300
146,200 147,200 148,200 159,300
160,2000 161,400 162,100 170,400
186,200 187,200 188,1250 189,400
190,120
##END=
