##TITLE=Digermane, hexaphenyl-
##JCAMP-DX=4.24
##DATA TYPE=MASS SPECTRUM
##ORIGIN=D.HENNEBERG, MAX-PLANCK INSTITUTE, MULHEIM, WEST GERMANY
##OWNER=NIST Mass Spectrometry Data Center
Collection (C) 2014 copyright by the U.S. Secretary of Commerce
on behalf of the United States of America. All rights reserved.
##CAS REGISTRY NO=2816-39-9
##$NIST MASS SPEC NO=62867
##MOLFORM=C36 H30 Ge2
##MW=610
##$NIST SOURCE=MSDC
##XUNITS=M/Z
##YUNITS=RELATIVE INTENSITY
##XFACTOR=1
##YFACTOR=1
##FIRSTX=147
##LASTX=610
##FIRSTY=1318
##MAXX=610
##MINX=147
##MAXY=9999
##MINY=109
##NPOINTS=40
##PEAK TABLE=(XY..XY)
147,1318 149,3516 150,643 151,2558
152,612 153,455 154,313 155,251
156,204 161,266 176,188 178,313
199,643 201,298 202,643 205,156
207,439 222,235 223,722 224,408
225,1067 226,722 227,941 228,423
229,502 230,219 281,156 301,5824
302,1271 303,7598 304,3720 305,9999
306,1993 307,2433 308,518 356,109
604,345 605,266 609,596 610,737
##END=
