##TITLE=Benzonitrile, 3-(bromomethyl)-
##JCAMP-DX=4.24
##DATA TYPE=MASS SPECTRUM
##ORIGIN=Japan AIST/NIMC Database- Spectrum MS-NW-6823
##OWNER=NIST Mass Spectrometry Data Center
Collection (C) 2014 copyright by the U.S. Secretary of Commerce
on behalf of the United States of America. All rights reserved.
##CAS REGISTRY NO=28188-41-2
##$NIST MASS SPEC NO=234950
##MOLFORM=C8 H6 Br N
##MW=195
##$NIST SOURCE=MSDC
##XUNITS=M/Z
##YUNITS=RELATIVE INTENSITY
##XFACTOR=1
##YFACTOR=1
##FIRSTX=26
##LASTX=198
##FIRSTY=40
##MAXX=198
##MINX=26
##MAXY=9999
##MINY=10
##NPOINTS=57
##PEAK TABLE=(XY..XY)
26,40 27,50 28,20 36,10
37,109 38,189 39,459 40,30
41,20 43,20 44,20 49,40
50,229 51,199 52,80 53,10
56,10 57,139 58,119 60,10
61,119 62,279 63,549 64,209
65,109 66,20 73,10 74,40
75,99 76,99 77,30 78,10
79,50 80,40 81,50 82,40
84,10 85,30 86,40 87,90
88,219 89,1469 90,359 91,20
97,40 98,50 99,10 114,129
115,179 116,9999 117,979 118,40
194,99 195,369 196,129 197,359
198,30
##END=
