##TITLE=Benzene, 1,1',1'',1'''-(1,6-hexanediylidene)tetrakis-
##JCAMP-DX=4.24
##DATA TYPE=MASS SPECTRUM
##OWNER=NIST Mass Spectrometry Data Center
Collection (C) 2014 copyright by the U.S. Secretary of Commerce
on behalf of the United States of America. All rights reserved.
##CAS REGISTRY NO=2819-41-2
##$NIST MASS SPEC NO=23603
##MOLFORM=C30 H30
##MW=390
##$NIST SOURCE=MSDC
##XUNITS=M/Z
##YUNITS=RELATIVE INTENSITY
##XFACTOR=1
##YFACTOR=1
##FIRSTX=36
##LASTX=395
##FIRSTY=10
##MAXX=395
##MINX=36
##MAXY=9999
##MINY=10
##NPOINTS=230
##PEAK TABLE=(XY..XY)
36,10 37,10 38,20 39,220
40,20 41,130 42,10 43,30
44,10 49,10 50,60 51,200
52,50 53,40 54,10 55,30
56,10 57,10 58,10 61,10
62,20 63,90 64,20 65,130
66,10 67,20 68,10 69,10
70,10 71,10 73,10 74,20
75,30 76,40 77,230 78,90
79,30 80,10 81,10 82,10
83,20 84,10 85,10 86,10
87,10 88,10 89,70 90,20
91,861 92,70 93,10 94,10
95,10 96,10 97,10 98,10
99,10 100,10 101,20 102,60
103,200 104,70 105,90 106,10
107,10 108,10 109,10 110,10
111,10 112,10 113,10 114,10
115,240 116,60 117,90 118,10
119,20 120,10 121,10 122,10
123,10 124,10 125,10 126,20
127,30 128,130 129,50 130,10
131,60 132,10 133,10 134,10
135,10 136,10 137,10 138,10
139,60 140,10 141,80 142,10
143,10 144,10 145,80 146,10
147,10 148,10 149,10 150,10
151,60 152,701 153,110 154,10
155,10 156,10 157,10 158,10
159,10 161,10 162,10 163,30
164,40 165,1151 166,450 167,9999
168,1531 169,110 170,10 171,30
172,10 173,10 174,10 175,10
176,10 177,20 178,100 179,80
180,90 181,50 182,10 183,10
184,10 185,10 186,10 187,10
188,10 189,10 190,10 191,10
192,10 193,60 194,10 195,10
196,10 197,10 198,10 199,20
200,20 201,20 202,30 203,10
204,10 205,10 206,10 207,10
208,10 209,10 210,10 211,10
212,10 213,10 214,10 215,10
216,10 217,10 218,10 219,10
220,10 221,10 222,20 223,10
224,10 225,10 226,10 227,10
228,10 229,10 230,10 231,10
232,10 233,10 234,10 235,10
236,10 237,10 238,10 239,10
240,10 241,10 242,10 243,10
244,10 245,10 246,10 247,10
248,10 249,10 250,10 251,10
252,10 253,10 254,10 255,10
256,10 257,10 258,10 269,10
270,10 299,10 300,10 312,30
313,10 314,10 388,10 389,10
390,540 391,170 392,30 393,10
394,10 395,10
##END=
