##TITLE=Pyridine, 3-(1-methyl-2-pyrrolidinyl)-, 1-oxide, (S)-
##JCAMP-DX=4.24
##DATA TYPE=MASS SPECTRUM
##ORIGIN=Philip Morris R&D
##OWNER=NIST Mass Spectrometry Data Center
Collection (C) 2014 copyright by the U.S. Secretary of Commerce
on behalf of the United States of America. All rights reserved.
##CAS REGISTRY NO=2820-55-5
##$NIST MASS SPEC NO=109007
##MOLFORM=C10 H14 N2 O
##MW=178
##$NIST SOURCE=MSDC
##XUNITS=M/Z
##YUNITS=RELATIVE INTENSITY
##XFACTOR=1
##YFACTOR=1
##FIRSTX=37
##LASTX=179
##FIRSTY=15
##MAXX=179
##MINX=37
##MAXY=9999
##MINY=5
##NPOINTS=83
##PEAK TABLE=(XY..XY)
37,15 38,130 39,732 40,133
41,419 42,2100 43,165 44,273
50,173 51,529 52,218 53,183
54,128 55,378 56,100 57,100
58,5 60,18 61,5 62,38
63,253 64,150 65,439 66,123
67,125 68,90 69,43 70,23
74,10 75,30 76,53 77,253
78,346 79,190 80,168 81,203
82,386 83,78 84,9999 85,574
89,78 90,70 91,200 92,398
93,113 94,85 95,20 102,20
103,40 104,138 105,193 106,173
107,105 108,78 109,60 117,296
118,519 119,536 120,175 121,48
122,130 123,8 128,8 130,388
131,120 132,313 133,2012 134,263
135,90 136,23 144,30 145,50
147,23 149,90 150,18 158,30
159,348 161,1489 163,1165 164,143
177,183 178,1050 179,103
##END=
