##TITLE=Benzene, 1-dimethylamino-4-(2,2-dicyanoethenyl)
##JCAMP-DX=4.24
##DATA TYPE=MASS SPECTRUM
##ORIGIN=Humboldt-Universitat zu Berlin, Department of Chemistry, Analytical Group
##OWNER=NIST Mass Spectrometry Data Center
Collection (C) 2014 copyright by the U.S. Secretary of Commerce
on behalf of the United States of America. All rights reserved.
##CAS REGISTRY NO=2826-28-0
##$NIST MASS SPEC NO=286800
##MOLFORM=C12 H11 N3
##MW=197
##$NIST SOURCE=MSDC
##XUNITS=M/Z
##YUNITS=RELATIVE INTENSITY
##XFACTOR=1
##YFACTOR=1
##FIRSTX=12
##LASTX=200
##FIRSTY=27
##MAXX=200
##MINX=12
##MAXY=9999
##MINY=6
##NPOINTS=140
##PEAK TABLE=(XY..XY)
12,27 13,30 14,185 15,4088
16,73 17,112 18,397 19,13
25,20 26,280 27,760 28,1446
29,205 30,229 31,194 32,24
36,11 37,222 38,540 39,1065
40,263 41,397 42,2443 43,374
44,525 45,140 46,73 48,13
49,90 50,1073 51,1327 52,811
53,148 54,88 55,54 56,19
57,21 58,46 60,16 61,262
62,592 63,897 64,538 65,299
66,243 67,44 68,77 69,26
71,79 72,31 73,81 74,454
75,871 76,826 77,846 78,198
79,81 80,33 81,14 83,20
85,430 86,164 87,376 88,498
89,335 90,214 91,175 92,70
93,31 94,28 95,11 99,874
100,777 101,542 102,554 103,317
104,165 105,60 106,17 110,16
111,41 112,108 113,263 114,478
115,400 116,219 117,115 118,157
119,94 120,68 121,10 122,11
123,73 124,75 125,154 126,1720
127,817 128,641 129,209 130,206
131,41 132,23 134,20 138,24
139,158 140,380 141,211 142,196
143,138 144,124 145,48 146,17
151,40 152,259 153,1748 154,594
155,373 156,77 157,16 165,28
166,38 167,154 168,218 169,231
170,78 171,54 172,17 177,7
178,21 179,188 180,1344 181,1090
182,199 183,24 194,196 196,9999
197,7767 198,999 199,81 200,6
##END=
