##TITLE=2-Hexanamine, 5-methyl-
##JCAMP-DX=4.24
##DATA TYPE=MASS SPECTRUM
##ORIGIN=RADIAN CORP
##OWNER=NIST Mass Spectrometry Data Center
Collection (C) 2014 copyright by the U.S. Secretary of Commerce
on behalf of the United States of America. All rights reserved.
##CAS REGISTRY NO=28292-43-5
##$NIST MASS SPEC NO=71231
##MOLFORM=C7 H17 N
##MW=115
##$NIST SOURCE=MSDC
##XUNITS=M/Z
##YUNITS=RELATIVE INTENSITY
##XFACTOR=1
##YFACTOR=1
##FIRSTX=15
##LASTX=114
##FIRSTY=50
##MAXX=114
##MINX=15
##MAXY=9999
##MINY=20
##NPOINTS=25
##PEAK TABLE=(XY..XY)
15,50 18,270 27,390 28,230
29,280 30,370 39,450 40,70
41,950 42,670 43,520 44,9999
45,270 51,30 53,80 54,60
55,750 56,400 57,200 58,100
69,30 70,80 83,380 100,150
114,20
##END=
