##TITLE=Disperse yellow 3
##JCAMP-DX=4.24
##DATA TYPE=MASS SPECTRUM
##ORIGIN=NIST Mass Spectrometry Data Center
##OWNER=NIST Mass Spectrometry Data Center
Collection (C) 2014 copyright by the U.S. Secretary of Commerce
on behalf of the United States of America. All rights reserved.
##CAS REGISTRY NO=2832-40-8
##$NIST MASS SPEC NO=341138
##MOLFORM=C15 H15 N3 O2
##MW=269
##$NIST SOURCE=MSDC
##XUNITS=M/Z
##YUNITS=RELATIVE INTENSITY
##XFACTOR=1
##YFACTOR=1
##FIRSTX=15
##LASTX=271
##FIRSTY=30
##MAXX=271
##MINX=15
##MAXY=9999
##MINY=10
##NPOINTS=156
##PEAK TABLE=(XY..XY)
15,30 26,10 27,100 29,20
30,10 37,20 38,110 39,841
40,70 41,220 42,210 43,3954
44,90 45,10 49,10 50,210
51,641 52,891 53,1251 54,220
55,250 56,20 57,20 59,10
61,20 62,120 63,761 64,811
65,3984 66,801 67,170 68,30
69,20 74,30 75,70 76,200
77,3153 78,901 79,1391 80,761
81,140 82,10 83,10 86,10
87,10 88,20 89,110 90,350
91,550 92,3093 93,2282 94,260
95,20 98,10 101,10 102,30
103,40 104,110 105,711 106,701
107,7987 108,1001 109,280 110,20
111,10 112,10 114,10 115,120
116,80 117,190 118,190 119,90
120,751 121,90 122,170 123,150
124,10 125,10 126,10 127,100
128,250 129,100 130,90 131,40
132,40 133,100 134,9999 135,2522
136,190 137,10 139,30 140,30
141,80 142,40 143,70 144,40
145,20 146,30 147,270 148,70
149,40 150,160 151,60 152,130
153,110 154,130 155,100 156,160
157,30 158,20 159,10 162,921
163,90 164,10 165,20 166,20
167,70 168,80 169,60 170,150
171,100 172,10 178,10 179,10
180,70 181,140 182,1001 183,400
184,150 185,20 196,90 197,70
198,490 199,1301 200,200 201,10
208,10 209,10 210,20 222,20
223,10 224,10 226,370 227,110
228,20 240,1682 241,280 242,30
251,10 253,10 254,10 267,10
268,40 269,5265 270,911 271,90
##END=
