##TITLE=11-Bromoundecanoic acid
##JCAMP-DX=4.24
##DATA TYPE=MASS SPECTRUM
##ORIGIN=Japan AIST/NIMC Database- Spectrum MS-NW-4480
##OWNER=NIST Mass Spectrometry Data Center
Collection (C) 2014 copyright by the U.S. Secretary of Commerce
on behalf of the United States of America. All rights reserved.
##CAS REGISTRY NO=2834-05-1
##$NIST MASS SPEC NO=232520
##MOLFORM=C11 H21 Br O2
##MW=264
##$NIST SOURCE=MSDC
##XUNITS=M/Z
##YUNITS=RELATIVE INTENSITY
##XFACTOR=1
##YFACTOR=1
##FIRSTX=14
##LASTX=267
##FIRSTY=70
##MAXX=267
##MINX=14
##MAXY=9999
##MINY=10
##NPOINTS=185
##PEAK TABLE=(XY..XY)
14,70 15,80 16,10 17,60
18,219 26,109 27,1879 28,99
29,2059 30,70 31,159 32,60
37,10 38,50 39,1429 40,269
41,5599 42,1019 43,2429 44,99
45,659 46,20 47,20 50,40
51,119 52,60 53,509 54,579
55,6429 56,869 57,1789 58,109
59,439 60,9999 61,1229 62,80
63,50 64,30 65,99 66,60
67,779 68,759 69,4609 70,569
71,749 72,50 73,8559 74,669
75,70 76,10 77,99 78,40
79,179 80,109 81,709 82,659
83,2749 84,759 85,249 86,60
87,959 88,99 89,30 90,10
91,139 92,60 93,119 94,99
95,459 96,499 97,959 98,539
99,129 100,159 101,549 102,129
103,30 104,10 105,40 106,20
107,189 108,40 109,209 110,159
111,339 112,99 113,70 114,169
115,679 116,119 117,30 118,10
119,40 120,20 121,80 122,159
123,209 124,339 125,639 126,70
127,90 128,50 129,999 130,90
131,20 133,30 134,10 135,339
136,70 137,289 138,99 139,229
140,30 141,70 142,20 143,90
144,30 147,20 148,249 149,319
150,249 151,249 152,20 153,10
154,10 155,109 156,50 157,50
158,20 160,10 161,10 162,139
163,169 164,149 165,169 166,139
167,669 168,90 169,10 170,10
171,239 172,259 173,30 174,10
175,20 176,30 177,20 178,50
179,30 180,10 181,30 182,10
183,10 184,40 185,2289 186,289
187,30 193,20 195,20 202,109
203,20 204,299 205,379 206,239
207,389 208,40 209,40 212,40
221,309 222,30 223,309 224,30
227,10 228,20 230,20 235,90
236,20 237,90 238,10 247,30
249,30 264,129 265,20 266,119
267,20
##END=
