##TITLE=Methyl 4-(p-nitrophenoxy)butyrate
##JCAMP-DX=4.24
##DATA TYPE=MASS SPECTRUM
##ORIGIN=NIST Mass Spectrometry Data Center, 1994
##OWNER=NIST Mass Spectrometry Data Center
Collection (C) 2014 copyright by the U.S. Secretary of Commerce
on behalf of the United States of America. All rights reserved.
##CAS REGISTRY NO=28341-53-9
##$NIST MASS SPEC NO=135410
##MOLFORM=C11 H13 N O5
##MW=239
##$NIST SOURCE=MSDC
##XUNITS=M/Z
##YUNITS=RELATIVE INTENSITY
##XFACTOR=1
##YFACTOR=1
##FIRSTX=12
##LASTX=239
##FIRSTY=15
##MAXX=239
##MINX=12
##MAXY=9999
##MINY=9
##NPOINTS=107
##PEAK TABLE=(XY..XY)
12,15 13,14 15,1939 16,41
17,18 18,35 26,143 27,538
28,312 29,1191 30,1019 31,220
32,17 33,19 37,57 38,396
39,1369 40,259 41,2555 42,1173
43,439 44,61 45,241 46,83
50,775 51,299 52,176 53,252
54,93 55,216 56,31 57,62
58,31 59,9999 60,289 61,86
62,223 63,919 64,639 65,615
66,122 67,65 68,31 69,1392
70,89 71,80 74,552 75,481
76,716 77,272 78,179 79,130
80,109 81,213 82,47 85,39
87,14 89,34 91,208 92,343
93,256 94,83 95,66 96,29
99,28 101,6993 102,441 103,62
104,26 105,70 106,140 107,44
108,69 109,517 110,54 115,17
118,27 119,150 120,23 121,32
122,216 123,159 124,18 131,82
132,22 133,52 134,100 135,25
136,16 139,73 140,82 141,9
148,11 149,75 150,13 152,248
153,22 162,20 163,23 164,10
166,224 167,21 192,14 208,678
209,109 210,11 239,54
##END=
