##TITLE=Phenol, 2-amino-5-methyl-
##JCAMP-DX=4.24
##DATA TYPE=MASS SPECTRUM
##ORIGIN=Japan AIST/NIMC Database- Spectrum MS-NW-7736
##OWNER=NIST Mass Spectrometry Data Center
Collection (C) 2014 copyright by the U.S. Secretary of Commerce
on behalf of the United States of America. All rights reserved.
##CAS REGISTRY NO=2835-98-5
##$NIST MASS SPEC NO=238996
##MOLFORM=C7 H9 N O
##MW=123
##$NIST SOURCE=MSDC
##XUNITS=M/Z
##YUNITS=RELATIVE INTENSITY
##XFACTOR=1
##YFACTOR=1
##FIRSTX=14
##LASTX=125
##FIRSTY=10
##MAXX=125
##MINX=14
##MAXY=9999
##MINY=10
##NPOINTS=77
##PEAK TABLE=(XY..XY)
14,10 15,40 26,60 27,289
28,419 29,60 30,60 31,70
32,10 33,10 37,90 38,199
39,689 40,159 41,389 42,209
43,50 44,30 45,50 46,239
47,129 48,50 49,40 50,279
51,709 52,529 53,309 54,339
55,109 56,20 57,10 60,30
61,219 62,119 63,199 64,70
65,329 66,409 67,419 68,90
69,20 70,20 73,20 74,60
75,70 76,109 77,1209 78,1469
79,229 80,339 81,50 82,20
83,10 86,10 87,10 89,10
90,10 91,20 92,99 93,519
94,1269 95,209 96,50 97,10
102,30 103,10 104,259 105,249
106,1749 107,319 108,70 120,30
121,80 122,7289 123,9999 124,819
125,50
##END=
