##TITLE=2-Phenylglycine
##JCAMP-DX=4.24
##DATA TYPE=MASS SPECTRUM
##ORIGIN=Japan AIST/NIMC Database- Spectrum MS-NW-3907
##OWNER=NIST Mass Spectrometry Data Center
Collection (C) 2014 copyright by the U.S. Secretary of Commerce
on behalf of the United States of America. All rights reserved.
##CAS REGISTRY NO=2835-06-5
##$NIST MASS SPEC NO=231835
##MOLFORM=C8 H9 N O2
##MW=151
##$NIST SOURCE=MSDC
##XUNITS=M/Z
##YUNITS=RELATIVE INTENSITY
##XFACTOR=1
##YFACTOR=1
##FIRSTX=16
##LASTX=118
##FIRSTY=10
##MAXX=118
##MINX=16
##MAXY=9999
##MINY=10
##NPOINTS=57
##PEAK TABLE=(XY..XY)
16,10 17,90 18,199 26,30
27,129 28,1769 29,80 30,40
37,50 38,80 39,249 40,30
41,30 42,10 43,10 44,119
45,90 46,10 49,30 50,279
51,619 52,229 53,329 54,50
55,10 59,10 61,30 62,70
63,139 64,40 65,40 66,10
67,20 73,20 74,99 75,70
76,119 77,1439 78,389 79,2869
80,209 81,10 85,10 86,10
87,10 89,109 90,99 91,60
92,20 102,10 103,149 104,679
105,269 106,9999 107,939 108,40
118,30
##END=
