##TITLE=3-Methyldiadamantane
##JCAMP-DX=4.24
##DATA TYPE=MASS SPECTRUM
##ORIGIN=V.G.Zaikin, TIPS, Russian Acad. Sci.
##OWNER=NIST Mass Spectrometry Data Center
Collection (C) 2014 copyright by the U.S. Secretary of Commerce
on behalf of the United States of America. All rights reserved.
##CAS REGISTRY NO=28375-86-2
##$NIST MASS SPEC NO=215619
##MOLFORM=C15 H22
##MW=202
##$NIST SOURCE=MSDC
##XUNITS=M/Z
##YUNITS=RELATIVE INTENSITY
##XFACTOR=1
##YFACTOR=1
##FIRSTX=51
##LASTX=204
##FIRSTY=1141
##MAXX=204
##MINX=51
##MAXY=9999
##MINY=31
##NPOINTS=47
##PEAK TABLE=(XY..XY)
51,1141 52,440 53,830 54,580
55,3142 56,580 57,1000 65,550
67,2422 68,650 69,1901 70,380
77,2732 78,1241 79,3072 80,1141
81,2622 82,790 83,1101 91,2422
92,760 93,1971 94,1381 95,2692
96,1281 97,1341 105,1551 106,480
107,1000 108,720 109,1661 110,270
115,340 117,830 118,200 119,310
131,830 132,480 133,310 145,310
146,240 159,380 187,9999 188,1901
202,2732 203,450 204,31
##END=
