##TITLE=3-Amino-4-chlorobenzoic acid
##JCAMP-DX=4.24
##DATA TYPE=MASS SPECTRUM
##ORIGIN=NIST Mass Spectrometry Data Center
##OWNER=NIST Mass Spectrometry Data Center
Collection (C) 2014 copyright by the U.S. Secretary of Commerce
on behalf of the United States of America. All rights reserved.
##CAS REGISTRY NO=2840-28-0
##$NIST MASS SPEC NO=341126
##MOLFORM=C7 H6 Cl N O2
##MW=171
##$NIST SOURCE=MSDC
##XUNITS=M/Z
##YUNITS=RELATIVE INTENSITY
##XFACTOR=1
##YFACTOR=1
##FIRSTX=26
##LASTX=175
##FIRSTY=10
##MAXX=175
##MINX=26
##MAXY=9999
##MINY=10
##NPOINTS=103
##PEAK TABLE=(XY..XY)
26,10 27,30 29,10 36,30
37,170 38,300 39,380 40,40
41,200 42,60 43,10 45,410
47,30 48,30 49,130 50,200
51,370 52,1081 53,350 54,130
55,40 58,10 59,20 60,90
61,500 62,901 63,2332 64,741
65,791 66,130 68,440 72,90
73,480 74,250 75,300 76,80
77,270 78,180 79,80 80,410
81,70 82,10 84,30 86,80
87,120 88,140 89,270 90,3073
91,530 92,170 93,30 94,20
95,10 96,30 97,120 98,100
99,931 100,170 101,330 102,60
106,50 107,60 108,180 109,30
110,20 111,10 113,10 114,90
115,140 116,40 117,60 118,250
119,20 120,10 121,10 122,10
123,10 124,110 125,901 126,3183
127,601 128,1011 129,100 135,10
136,100 137,20 142,50 143,260
144,40 145,80 152,30 153,140
154,4754 155,440 156,1561 157,120
164,60 170,100 171,9999 172,841
173,3323 174,250 175,20
##END=
