##TITLE=6,8-Dioxabicyclo[3.2.1]octane, 1,5-dimethyl-, (1S)-
##JCAMP-DX=4.24
##DATA TYPE=MASS SPECTRUM
##ORIGIN=Mark Whitten, Florida Museum of Natural History, U. of Florida
##OWNER=NIST Mass Spectrometry Data Center
Collection (C) 2014 copyright by the U.S. Secretary of Commerce
on behalf of the United States of America. All rights reserved.
##CAS REGISTRY NO=28401-39-0
##$NIST MASS SPEC NO=141220
##MOLFORM=C8 H14 O2
##MW=142
##$NIST SOURCE=MSDC
##XUNITS=M/Z
##YUNITS=RELATIVE INTENSITY
##XFACTOR=1
##YFACTOR=1
##FIRSTX=41
##LASTX=143
##FIRSTY=1355
##MAXX=143
##MINX=41
##MAXY=9999
##MINY=6
##NPOINTS=53
##PEAK TABLE=(XY..XY)
41,1355 43,9999 44,299 45,99
50,50 51,91 53,321 54,538
55,640 56,92 57,535 58,422
59,59 61,112 62,15 63,23
65,68 67,601 68,155 69,508
71,1344 72,3478 73,182 74,24
77,29 79,82 80,19 81,113
82,293 83,148 84,218 85,309
86,30 91,10 93,21 94,20
95,54 97,233 99,284 100,1633
101,123 108,14 109,31 110,9
111,104 112,529 113,49 114,191
115,15 126,6 127,12 142,482
143,50
##END=
