##TITLE=Ethinyl estradiol, 2TMS derivative
##JCAMP-DX=4.24
##DATA TYPE=MASS SPECTRUM
##ORIGIN=NIST Mass Spectrometry Data Center
##OWNER=NIST Mass Spectrometry Data Center
Collection (C) 2014 copyright by the U.S. Secretary of Commerce
on behalf of the United States of America. All rights reserved.
##CAS REGISTRY NO=28426-35-9
##$NIST MASS SPEC NO=333325
##MOLFORM=C26 H40 O2 Si2
##MW=440
##$NIST SOURCE=MSDC
##XUNITS=M/Z
##YUNITS=RELATIVE INTENSITY
##XFACTOR=1
##YFACTOR=1
##FIRSTX=27
##LASTX=444
##FIRSTY=20
##MAXX=444
##MINX=27
##MAXY=9999
##MINY=10
##NPOINTS=357
##PEAK TABLE=(XY..XY)
27,20 28,10 29,40 31,10
39,50 40,10 41,190 42,20
43,190 44,90 45,751 46,50
47,130 48,10 50,10 51,30
52,10 53,200 54,20 55,360
56,30 57,50 58,50 59,310
60,40 61,170 62,10 63,30
64,10 65,120 66,30 67,300
68,40 69,180 70,30 71,50
73,9999 74,881 75,2052 76,140
77,380 78,90 79,410 80,50
81,380 82,60 83,1301 84,120
85,150 86,20 87,20 88,10
89,50 90,30 91,741 92,100
93,290 94,70 95,250 96,40
97,120 98,30 99,70 100,20
101,70 102,50 103,210 104,70
105,500 106,70 107,350 108,110
109,230 110,30 111,150 112,20
113,40 114,50 115,901 116,200
117,340 118,90 119,230 120,50
121,210 122,30 123,50 124,20
125,430 126,110 127,290 128,561
129,550 130,110 131,210 132,50
133,200 134,70 135,180 136,30
137,70 138,10 139,260 140,170
141,540 142,170 143,240 144,70
145,230 146,50 147,240 148,60
149,230 150,50 151,210 152,140
153,1081 154,540 155,781 156,140
157,210 158,60 159,170 160,40
161,340 162,80 163,651 164,160
165,400 166,140 167,921 168,400
169,841 170,150 171,140 172,30
173,110 174,30 175,160 176,70
177,651 178,200 179,791 180,360
181,410 182,200 183,170 184,50
185,230 186,50 187,220 188,90
189,631 190,190 191,280 192,190
193,971 194,300 195,400 196,2512
197,530 198,160 199,190 200,100
201,510 202,170 203,661 204,240
205,1972 206,420 207,320 208,1061
209,611 210,150 211,80 213,110
214,80 215,440 216,230 217,891
218,1001 219,921 220,210 221,150
222,160 223,80 224,20 225,50
226,20 227,100 228,50 229,831
230,470 231,1872 232,2092 233,500
234,130 235,120 236,30 237,50
238,20 239,70 240,30 241,90
242,190 243,420 244,821 245,651
246,180 247,80 248,20 249,20
250,10 251,50 252,20 253,100
254,60 255,180 256,150 257,480
258,370 259,170 260,60 261,50
262,10 263,10 264,10 265,40
266,30 267,130 268,120 269,240
270,240 271,410 272,691 273,180
274,60 275,20 276,10 277,20
278,10 279,70 280,100 281,200
282,180 283,601 284,370 285,3093
286,851 287,420 288,90 289,30
290,10 291,30 292,20 293,110
294,80 295,150 296,270 297,190
298,601 299,300 300,1842 301,490
302,110 303,40 304,10 305,30
306,30 307,140 308,140 309,160
310,70 311,90 312,30 313,20
314,10 315,10 317,20 318,10
319,20 320,20 321,200 322,310
323,140 324,60 325,230 326,70
327,40 328,10 329,10 330,10
331,10 332,10 333,20 334,10
335,210 336,70 337,40 338,10
339,10 340,10 341,20 342,100
343,50 344,20 345,10 346,10
349,70 350,350 351,130 352,50
353,20 354,10 355,30 356,30
357,70 358,30 359,10 367,20
368,10 369,30 370,30 371,30
372,10 381,10 383,80 384,40
385,30 386,10 395,10 396,10
397,140 398,70 399,30 400,10
407,30 408,10 409,10 411,210
412,180 413,60 414,30 415,10
423,10 425,4284 426,1601 427,581
428,140 429,20 438,10 439,20
440,1341 441,540 442,190 443,40
444,10
##END=
