##TITLE=Cyclopentanol, 2-bromo-, cis-
##JCAMP-DX=4.24
##DATA TYPE=MASS SPECTRUM
##ORIGIN=J. M. PECHINE
##OWNER=NIST Mass Spectrometry Data Center
Collection (C) 2014 copyright by the U.S. Secretary of Commerce
on behalf of the United States of America. All rights reserved.
##CAS REGISTRY NO=28435-62-3
##$NIST MASS SPEC NO=42199
##MOLFORM=C5 H9 Br O
##MW=164
##$NIST SOURCE=MSDC
##XUNITS=M/Z
##YUNITS=RELATIVE INTENSITY
##XFACTOR=1
##YFACTOR=1
##FIRSTX=27
##LASTX=166
##FIRSTY=1385
##MAXX=166
##MINX=27
##MAXY=9999
##MINY=110
##NPOINTS=33
##PEAK TABLE=(XY..XY)
27,1385 28,620 29,1750 30,210
31,445 38,145 39,1160 40,240
41,1840 42,295 43,935 44,470
53,220 55,1320 56,410 57,9999
58,780 65,110 67,2025 68,120
71,490 83,225 84,370 85,2565
86,170 135,150 136,440 137,165
138,430 146,205 148,195 164,1865
166,1840
##END=
