##TITLE=2- Bromopropionic acid, hexyl ester
##JCAMP-DX=4.24
##DATA TYPE=MASS SPECTRUM
##ORIGIN=Zaikin V.G., TIPS RAS, Moscow, Russia
##OWNER=NIST Mass Spectrometry Data Center
Collection (C) 2014 copyright by the U.S. Secretary of Commerce
on behalf of the United States of America. All rights reserved.
##CAS REGISTRY NO=28456-82-8
##$NIST MASS SPEC NO=292434
##MOLFORM=C9 H17 Br O2
##MW=236
##$NIST SOURCE=MSDC
##XUNITS=M/Z
##YUNITS=RELATIVE INTENSITY
##XFACTOR=1
##YFACTOR=1
##FIRSTX=26
##LASTX=155
##FIRSTY=300
##MAXX=155
##MINX=26
##MAXY=9999
##MINY=20
##NPOINTS=57
##PEAK TABLE=(XY..XY)
26,300 27,2232 28,20 29,1451
30,40 31,130 35,40 36,260
38,120 39,751 40,190 41,2963
42,1762 43,9999 44,450 45,110
50,30 51,60 52,80 53,190
54,220 55,2953 56,5615 57,1832
58,70 67,120 68,40 69,1561
70,110 71,70 73,190 74,140
75,100 79,140 80,80 81,40
82,80 83,430 84,5015 85,1221
86,60 93,30 99,30 101,50
106,30 107,1231 108,70 109,1191
110,30 129,130 134,30 135,731
136,50 137,701 153,721 154,30
155,701
##END=
