##TITLE=2-Tridecyne
##JCAMP-DX=4.24
##DATA TYPE=MASS SPECTRUM
##ORIGIN=S.A. Rang et al., IR & MS of Unsatd. Hydrocarbons, 1977
##OWNER=NIST Mass Spectrometry Data Center
Collection (C) 2014 copyright by the U.S. Secretary of Commerce
on behalf of the United States of America. All rights reserved.
##CAS REGISTRY NO=28467-75-6
##$NIST MASS SPEC NO=142643
##MOLFORM=C13 H24
##MW=180
##$NIST SOURCE=MSDC
##XUNITS=M/Z
##YUNITS=RELATIVE INTENSITY
##XFACTOR=1
##YFACTOR=1
##FIRSTX=15
##LASTX=180
##FIRSTY=91
##MAXX=180
##MINX=15
##MAXY=9999
##MINY=12
##NPOINTS=118
##PEAK TABLE=(XY..XY)
15,91 24,18 25,54 26,226
27,3906 28,156 29,5313 30,145
31,145 37,181 38,302 39,3281
40,1436 41,9531 42,1985 43,9999
44,1093 45,338 46,18 47,18
49,12 50,115 51,368 52,374
53,2703 54,4688 55,7813 56,2238
57,3478 58,1014 59,380 60,612
61,109 62,18 63,54 64,36
65,465 66,760 67,7178 68,5938
69,4375 70,1267 71,1119 72,133
73,410 74,824 75,115 76,18
77,440 78,115 79,1140 80,549
81,8281 82,3438 83,1900 84,570
85,416 86,48 87,477 88,78
89,12 91,211 92,36 93,398
94,392 95,9844 96,3750 97,739
98,253 99,66 100,24 101,163
102,24 103,12 105,36 106,12
107,109 108,121 109,3125 110,1140
111,211 112,109 113,42 114,24
115,48 116,12 121,42 122,30
123,356 124,151 125,42 126,54
127,30 128,18 129,60 135,30
136,12 137,91 138,121 139,24
140,18 141,24 142,18 143,72
144,12 149,24 150,12 151,175
152,36 153,12 154,60 155,18
156,18 163,12 165,54 166,12
179,18 180,24
##END=
