##TITLE=Decane, 4-methyl-
##JCAMP-DX=4.24
##DATA TYPE=MASS SPECTRUM
##ORIGIN=NIST Mass Spectrometry Data Center, 1990.
##OWNER=NIST Mass Spectrometry Data Center
Collection (C) 2014 copyright by the U.S. Secretary of Commerce
on behalf of the United States of America. All rights reserved.
##CAS REGISTRY NO=2847-72-5
##$NIST MASS SPEC NO=113875
##MOLFORM=C11 H24
##MW=156
##$NIST SOURCE=MSDC
##XUNITS=M/Z
##YUNITS=RELATIVE INTENSITY
##XFACTOR=1
##YFACTOR=1
##FIRSTX=15
##LASTX=156
##FIRSTY=54
##MAXX=156
##MINX=15
##MAXY=9999
##MINY=42
##NPOINTS=41
##PEAK TABLE=(XY..XY)
15,54 27,1920 28,1050 29,2637
30,65 39,1394 40,440 41,4811
42,1780 43,9999 44,433 51,56
52,42 53,323 54,181 55,2027
56,1364 57,7751 58,370 65,54
67,137 68,79 69,563 70,3710
71,8592 72,500 82,179 83,459
84,536 85,799 86,55 97,82
98,103 99,91 112,1285 113,684
114,57 126,101 127,56 141,66
156,123
##END=
