##TITLE=2-Propenoic acid, 2-methyl-, pentyl ester
##JCAMP-DX=4.24
##DATA TYPE=MASS SPECTRUM
##OWNER=NIST Mass Spectrometry Data Center
Collection (C) 2014 copyright by the U.S. Secretary of Commerce
on behalf of the United States of America. All rights reserved.
##CAS REGISTRY NO=2849-98-1
##$NIST MASS SPEC NO=5322
##MOLFORM=C9 H16 O2
##MW=156
##$NIST SOURCE=MSDC
##XUNITS=M/Z
##YUNITS=RELATIVE INTENSITY
##XFACTOR=1
##YFACTOR=1
##FIRSTX=15
##LASTX=156
##FIRSTY=530
##MAXX=156
##MINX=15
##MAXY=9999
##MINY=10
##NPOINTS=70
##PEAK TABLE=(XY..XY)
15,530 25,30 26,240 27,1692
28,1021 29,2192 30,100 31,701
33,30 37,120 38,280 39,3343
40,841 41,9999 42,3974 43,3633
44,320 45,1071 46,30 50,30
51,50 52,30 53,220 54,110
55,3523 56,540 57,701 58,200
59,681 60,30 65,10 66,20
67,120 68,280 69,9999 70,5995
71,1161 72,80 73,140 74,110
75,10 82,70 83,220 84,80
85,130 86,270 87,4914 88,260
89,30 96,30 97,50 98,50
99,190 100,360 101,50 102,20
109,20 110,20 111,30 112,10
113,130 114,30 115,100 117,20
127,20 128,10 129,40 138,10
141,10 156,10
##END=
