##TITLE=Anthra[1,2-e]acephenanthrylene
##JCAMP-DX=4.24
##DATA TYPE=MASS SPECTRUM
##OWNER=NIST Mass Spectrometry Data Center
Collection (C) 2014 copyright by the U.S. Secretary of Commerce
on behalf of the United States of America. All rights reserved.
##CAS REGISTRY NO=28512-55-2
##$NIST MASS SPEC NO=31758
##MOLFORM=C28 H16
##MW=352
##$NIST SOURCE=MSDC
##XUNITS=M/Z
##YUNITS=RELATIVE INTENSITY
##XFACTOR=1
##YFACTOR=1
##FIRSTX=77
##LASTX=354
##FIRSTY=518
##MAXX=354
##MINX=77
##MAXY=9999
##MINY=52
##NPOINTS=43
##PEAK TABLE=(XY..XY)
77,518 78,596 79,207 80,78
81,337 91,311 92,155 93,414
94,207 95,466 96,155 97,337
146,466 147,155 148,414 149,725
150,363 159,259 160,725 161,311
162,984 163,311 164,414 171,699
172,363 173,1373 175,2720 176,4041
177,984 178,311 321,52 322,130
323,78 324,181 325,52 326,52
348,777 349,337 350,1710 351,622
352,9999 353,2979 354,622
##END=
