##TITLE=Cyclohexane, 1,2,4-triethenyl-
##JCAMP-DX=4.24
##DATA TYPE=MASS SPECTRUM
##ORIGIN=Japan AIST/NIMC Database- Spectrum MS-NW-3964
##OWNER=NIST Mass Spectrometry Data Center
Collection (C) 2014 copyright by the U.S. Secretary of Commerce
on behalf of the United States of America. All rights reserved.
##CAS REGISTRY NO=2855-27-8
##$NIST MASS SPEC NO=232635
##MOLFORM=C12 H18
##MW=162
##$NIST SOURCE=MSDC
##XUNITS=M/Z
##YUNITS=RELATIVE INTENSITY
##XFACTOR=1
##YFACTOR=1
##FIRSTX=14
##LASTX=164
##FIRSTY=20
##MAXX=164
##MINX=14
##MAXY=9999
##MINY=10
##NPOINTS=116
##PEAK TABLE=(XY..XY)
14,20 15,70 26,139 27,2149
28,60 29,879 30,20 31,10
37,30 38,139 39,3869 40,569
41,5369 42,299 43,339 44,40
45,10 49,10 50,239 51,829
52,549 53,2169 54,6959 55,1999
56,149 57,80 58,30 59,10
61,20 62,70 63,259 64,90
65,1389 66,1519 67,8189 68,839
69,269 70,139 71,70 72,10
73,20 74,50 75,50 76,40
77,3629 78,1469 79,9999 80,5019
81,1449 82,259 83,239 84,40
85,20 86,10 87,10 89,60
90,30 91,5949 92,2679 93,8509
94,2389 95,2529 96,319 97,50
98,10 99,10 101,30 102,40
103,189 104,209 105,3329 106,2259
107,1549 108,4049 109,449 110,40
111,10 115,119 116,50 117,269
118,109 119,3009 120,1829 121,989
122,149 123,40 124,20 125,10
126,10 127,20 128,40 129,50
130,40 131,179 132,129 133,6709
134,2699 135,319 136,30 137,10
141,20 143,20 144,10 145,60
146,30 147,1609 148,229 149,40
150,10 158,10 159,20 160,50
161,209 162,119 163,40 164,10
##END=
