##TITLE=2,6-Dimethylphenyl isocyanate
##JCAMP-DX=4.24
##DATA TYPE=MASS SPECTRUM
##ORIGIN=NIST Mass Spectrometry Data Center, 1994
##OWNER=NIST Mass Spectrometry Data Center
Collection (C) 2014 copyright by the U.S. Secretary of Commerce
on behalf of the United States of America. All rights reserved.
##CAS REGISTRY NO=28556-81-2
##$NIST MASS SPEC NO=134558
##MOLFORM=C9 H9 N O
##MW=147
##$NIST SOURCE=MSDC
##XUNITS=M/Z
##YUNITS=RELATIVE INTENSITY
##XFACTOR=1
##YFACTOR=1
##FIRSTX=15
##LASTX=149
##FIRSTY=309
##MAXX=149
##MINX=15
##MAXY=9999
##MINY=10
##NPOINTS=69
##PEAK TABLE=(XY..XY)
15,309 18,10 26,401 27,1504
28,404 29,111 37,413 38,876
39,3709 40,587 41,578 42,129
43,91 44,44 46,121 47,180
49,159 50,1342 51,2694 52,1545
53,668 54,141 56,49 58,1537
60,299 61,242 62,697 63,1828
64,850 65,1915 66,452 67,74
68,55 73,214 74,373 75,438
76,671 77,2504 78,1119 79,455
80,103 85,50 86,80 87,100
88,122 89,734 90,532 91,3770
92,2484 93,555 94,41 101,52
102,306 103,788 104,1257 105,1306
106,142 116,390 117,644 118,6041
119,6500 120,607 128,93 132,4169
133,393 146,1405 147,9999 148,1040
149,82
##END=
