##TITLE=Modaline
##JCAMP-DX=4.24
##DATA TYPE=MASS SPECTRUM
##ORIGIN=Finnigan MAT: Toxicological Library (LIBR-TX)
##OWNER=NIST Mass Spectrometry Data Center
Collection (C) 2014 copyright by the U.S. Secretary of Commerce
on behalf of the United States of America. All rights reserved.
##CAS REGISTRY NO=2856-74-8
##$NIST MASS SPEC NO=120835
##MOLFORM=C10 H15 N3
##MW=177
##$NIST SOURCE=MSDC
##XUNITS=M/Z
##YUNITS=RELATIVE INTENSITY
##XFACTOR=1
##YFACTOR=1
##FIRSTX=41
##LASTX=178
##FIRSTY=4224
##MAXX=178
##MINX=41
##MAXY=9999
##MINY=800
##NPOINTS=27
##PEAK TABLE=(XY..XY)
41,4224 42,6885 52,1722 54,1763
56,1599 67,2470 81,1478 82,2666
84,9999 93,4348 94,8664 95,2394
107,1001 108,881 109,3710 120,1379
121,2734 122,3979 134,4282 135,1010
136,1003 148,6829 149,1010 162,800
176,1759 177,8033 178,973
##END=
