##TITLE=4-Acetoxy-2-azetidinone
##JCAMP-DX=4.24
##DATA TYPE=MASS SPECTRUM
##ORIGIN=Chuck Anderson, Aldrich Chemical Co.
##OWNER=NIST Mass Spectrometry Data Center
Collection (C) 2014 copyright by the U.S. Secretary of Commerce
on behalf of the United States of America. All rights reserved.
##CAS REGISTRY NO=28562-53-0
##$NIST MASS SPEC NO=108386
##MOLFORM=C5 H7 N O3
##MW=129
##$NIST SOURCE=MSDC
##XUNITS=M/Z
##YUNITS=RELATIVE INTENSITY
##XFACTOR=1
##YFACTOR=1
##FIRSTX=13
##LASTX=86
##FIRSTY=369
##MAXX=86
##MINX=13
##MAXY=9999
##MINY=32
##NPOINTS=40
##PEAK TABLE=(XY..XY)
13,369 14,1751 15,1222 16,236
17,195 18,515 20,119 24,128
25,333 26,1103 27,2809 28,1587
29,2061 30,108 31,111 35,198
36,1240 37,120 38,967 39,784
40,2536 41,2682 42,9999 43,7006
44,1897 45,2518 46,69 50,32
51,134 52,93 53,34 54,111
59,32 60,2408 61,71 67,152
68,157 69,821 70,337 86,556
##END=
