##TITLE=Bromotrimethylsilane
##JCAMP-DX=4.24
##DATA TYPE=MASS SPECTRUM
##ORIGIN=NIST Mass Spectrometry Data Center
##OWNER=NIST Mass Spectrometry Data Center
Collection (C) 2014 copyright by the U.S. Secretary of Commerce
on behalf of the United States of America. All rights reserved.
##CAS REGISTRY NO=2857-97-8
##$NIST MASS SPEC NO=342350
##MOLFORM=C3 H9 Br Si
##MW=152
##$NIST SOURCE=MSDC
##XUNITS=M/Z
##YUNITS=RELATIVE INTENSITY
##XFACTOR=1
##YFACTOR=1
##FIRSTX=12
##LASTX=155
##FIRSTY=60
##MAXX=155
##MINX=12
##MAXY=9999
##MINY=10
##NPOINTS=66
##PEAK TABLE=(XY..XY)
12,60 13,50 14,170 15,941
16,40 26,150 27,290 28,701
29,911 30,140 31,110 32,70
39,60 40,70 41,380 42,1101
43,2412 44,621 45,2072 46,170
47,40 52,10 53,671 54,240
55,540 56,100 57,210 58,100
63,110 65,70 67,70 70,110
71,120 73,7417 74,671 75,360
77,20 78,40 79,100 80,90
81,100 82,50 93,290 94,50
95,170 107,2062 109,3984 110,460
111,2092 112,100 113,50 120,100
121,340 122,400 123,661 124,280
125,360 137,9949 138,1041 139,9999
140,731 141,340 152,2012 153,270
154,1752 155,180
##END=
