##TITLE=Bicyclo[4.1.0]heptane
##JCAMP-DX=4.24
##DATA TYPE=MASS SPECTRUM
##ORIGIN=CONTINENTAL OIL CO., PONCA CITY, OKLA, USA
##OWNER=NIST Mass Spectrometry Data Center
Collection (C) 2014 copyright by the U.S. Secretary of Commerce
on behalf of the United States of America. All rights reserved.
##CAS REGISTRY NO=286-08-8
##$NIST MASS SPEC NO=27633
##MOLFORM=C7 H12
##MW=96
##$NIST SOURCE=MSDC
##XUNITS=M/Z
##YUNITS=RELATIVE INTENSITY
##XFACTOR=1
##YFACTOR=1
##FIRSTX=13
##LASTX=97
##FIRSTY=46
##MAXX=97
##MINX=13
##MAXY=9999
##MINY=9
##NPOINTS=60
##PEAK TABLE=(XY..XY)
13,46 14,187 15,1219 16,37
25,37 26,798 27,5108 28,1270
29,2460 30,56 36,11 37,255
38,722 39,7202 40,1476 41,4222
42,771 43,118 44,20 45,78
46,71 49,61 50,511 51,932
52,484 53,3184 54,7892 55,5976
56,321 57,96 61,67 62,146
63,302 64,76 65,648 66,1251
67,9999 68,5772 69,421 72,9
73,13 74,35 75,40 77,584
78,199 79,765 80,208 81,7700
82,511 83,20 85,12 86,17
87,17 89,29 91,137 92,18
93,44 95,489 96,2060 97,159
##END=
