##TITLE=7-Oxabicyclo[4.1.0]heptane
##JCAMP-DX=4.24
##DATA TYPE=MASS SPECTRUM
##ORIGIN=Japan AIST/NIMC Database- Spectrum MS-NW- 833
##OWNER=NIST Mass Spectrometry Data Center
Collection (C) 2014 copyright by the U.S. Secretary of Commerce
on behalf of the United States of America. All rights reserved.
##CAS REGISTRY NO=286-20-4
##$NIST MASS SPEC NO=228303
##MOLFORM=C6 H10 O
##MW=98
##$NIST SOURCE=MSDC
##XUNITS=M/Z
##YUNITS=RELATIVE INTENSITY
##XFACTOR=1
##YFACTOR=1
##FIRSTX=14
##LASTX=99
##FIRSTY=40
##MAXX=99
##MINX=14
##MAXY=9999
##MINY=10
##NPOINTS=62
##PEAK TABLE=(XY..XY)
14,40 15,309 17,10 18,30
25,20 26,459 27,3319 28,809
29,1789 30,50 31,299 32,20
37,189 38,479 39,4909 40,1029
41,8759 42,7919 43,1939 44,1909
45,90 49,60 50,349 51,479
52,219 53,1039 54,5839 55,3259
56,1669 57,4119 58,189 59,10
61,30 62,60 63,90 64,10
65,229 66,80 67,1009 68,1229
69,2599 70,2699 71,369 72,20
73,20 74,40 75,10 76,10
77,439 78,179 79,1229 80,849
81,179 82,109 83,9999 84,569
85,30 95,20 96,20 97,1539
98,1609 99,119
##END=
