##TITLE=.delta.-Selinene
##JCAMP-DX=4.24
##DATA TYPE=MASS SPECTRUM
##ORIGIN=N.W. DAVIES, UNIVERSITY OF TASMANIA, TASMANIA, AUSTRALIA
##OWNER=NIST Mass Spectrometry Data Center
Collection (C) 2014 copyright by the U.S. Secretary of Commerce
on behalf of the United States of America. All rights reserved.
##CAS REGISTRY NO=28624-23-9
##$NIST MASS SPEC NO=70257
##MOLFORM=C15 H24
##MW=204
##$NIST SOURCE=MSDC
##XUNITS=M/Z
##YUNITS=RELATIVE INTENSITY
##XFACTOR=1
##YFACTOR=1
##FIRSTX=27
##LASTX=206
##FIRSTY=1340
##MAXX=206
##MINX=27
##MAXY=9999
##MINY=170
##NPOINTS=83
##PEAK TABLE=(XY..XY)
27,1340 29,1120 39,1700 40,270
41,4030 42,270 43,1520 50,270
51,760 52,400 53,1250 55,2240
57,270 63,450 64,270 65,940
66,220 67,1430 68,220 69,980
71,170 73,220 77,1970 78,1430
79,1610 80,270 81,2420 82,270
83,310 87,270 91,4030 92,580
93,1650 94,220 95,2420 96,270
103,450 104,270 105,3900 106,490
107,1650 108,350 109,630 115,980
116,450 117,1030 118,310 119,2330
120,450 121,980 122,490 123,220
127,310 128,710 129,760 130,400
131,980 132,220 133,2820 134,630
135,400 141,270 143,310 145,1160
146,350 147,1340 148,580 149,400
159,400 160,310 161,9999 162,1390
163,270 173,270 175,980 176,310
188,270 189,9820 190,1470 191,310
204,9410 205,1520 206,270
##END=
