##TITLE=2,3,4-Trimethyl-5-hexen-3-ol
##JCAMP-DX=4.24
##DATA TYPE=MASS SPECTRUM
##ORIGIN=NIST Mass Spectrometry Data Center, 1990.
##OWNER=NIST Mass Spectrometry Data Center
Collection (C) 2014 copyright by the U.S. Secretary of Commerce
on behalf of the United States of America. All rights reserved.
##CAS REGISTRY NO=28638-29-1
##$NIST MASS SPEC NO=114088
##MOLFORM=C9 H18 O
##MW=142
##$NIST SOURCE=MSDC
##XUNITS=M/Z
##YUNITS=RELATIVE INTENSITY
##XFACTOR=1
##YFACTOR=1
##FIRSTX=27
##LASTX=124
##FIRSTY=1207
##MAXX=124
##MINX=27
##MAXY=9999
##MINY=105
##NPOINTS=42
##PEAK TABLE=(XY..XY)
27,1207 28,819 29,782 31,156
32,121 39,1641 40,368 41,3530
43,9166 44,400 45,1996 50,213
51,405 52,186 53,1000 54,304
55,1943 56,392 57,432 59,337
63,105 65,343 67,1795 69,4849
70,406 71,1124 77,428 78,122
79,577 80,129 81,831 82,216
83,328 87,9999 88,505 91,274
93,150 95,296 99,1233 109,1217
110,117 124,327
##END=
