##TITLE=Bicyclo[3.1.0]hex-2-ene, 4-methyl-1-(1-methylethyl)-
##JCAMP-DX=4.24
##DATA TYPE=MASS SPECTRUM
##OWNER=NIST Mass Spectrometry Data Center
Collection (C) 2014 copyright by the U.S. Secretary of Commerce
on behalf of the United States of America. All rights reserved.
##CAS REGISTRY NO=28634-89-1
##$NIST MASS SPEC NO=20969
##MOLFORM=C10 H16
##MW=136
##$NIST SOURCE=MSDC
##XUNITS=M/Z
##YUNITS=RELATIVE INTENSITY
##XFACTOR=1
##YFACTOR=1
##FIRSTX=15
##LASTX=137
##FIRSTY=350
##MAXX=137
##MINX=15
##MAXY=9999
##MINY=60
##NPOINTS=41
##PEAK TABLE=(XY..XY)
15,350 26,100 27,1882 28,230
29,520 38,120 39,1752 40,260
41,1782 42,100 43,831 50,190
51,671 52,280 53,731 54,60
55,300 58,70 62,60 63,210
65,571 66,110 67,220 68,60
77,3633 78,571 79,1161 80,330
81,150 91,3523 92,3083 93,9999
94,1021 103,100 105,360 106,100
107,130 119,90 121,290 136,661
137,70
##END=
