##TITLE=2(3H)-Furanone, 5-ethyldihydro-5-methyl-
##JCAMP-DX=4.24
##DATA TYPE=MASS SPECTRUM
##ORIGIN=D.HENNEBERG, MAX-PLANCK INSTITUTE, MULHEIM, WEST GERMANY
##OWNER=NIST Mass Spectrometry Data Center
Collection (C) 2014 copyright by the U.S. Secretary of Commerce
on behalf of the United States of America. All rights reserved.
##CAS REGISTRY NO=2865-82-9
##$NIST MASS SPEC NO=61077
##MOLFORM=C7 H12 O2
##MW=128
##$NIST SOURCE=MSDC
##XUNITS=M/Z
##YUNITS=RELATIVE INTENSITY
##XFACTOR=1
##YFACTOR=1
##FIRSTX=26
##LASTX=129
##FIRSTY=843
##MAXX=129
##MINX=26
##MAXY=9999
##MINY=1
##NPOINTS=74
##PEAK TABLE=(XY..XY)
26,843 27,3044 28,2483 29,2143
30,34 31,97 32,129 33,2
37,45 38,126 39,1326 40,213
41,2124 42,587 43,8285 44,218
45,106 46,4 47,12 49,13
50,149 51,179 52,78 53,389
54,214 55,2030 56,2039 57,1742
58,69 59,28 60,16 61,9
62,10 63,30 64,12 65,57
66,22 67,336 68,76 69,1454
70,121 71,1390 72,173 73,2072
74,97 75,12 77,17 78,13
79,36 80,12 81,166 82,81
83,55 84,609 85,314 86,12
91,8 94,11 95,332 96,20
97,18 98,63 99,9999 100,497
101,63 105,10 107,1 110,34
111,11 113,1391 114,85 115,18
128,26 129,1
##END=
