##TITLE=Cyclopentane
##JCAMP-DX=4.24
##DATA TYPE=MASS SPECTRUM
##ORIGIN=Japan AIST/NIMC Database- Spectrum MS-NW-1334
##OWNER=NIST Mass Spectrometry Data Center
Collection (C) 2014 copyright by the U.S. Secretary of Commerce
on behalf of the United States of America. All rights reserved.
##CAS REGISTRY NO=287-92-3
##$NIST MASS SPEC NO=228237
##MOLFORM=C5 H10
##MW=70
##$NIST SOURCE=MSDC
##XUNITS=M/Z
##YUNITS=RELATIVE INTENSITY
##XFACTOR=1
##YFACTOR=1
##FIRSTX=14
##LASTX=71
##FIRSTY=10
##MAXX=71
##MINX=14
##MAXY=9999
##MINY=10
##NPOINTS=35
##PEAK TABLE=(XY..XY)
14,10 15,90 26,119 27,759
28,259 29,369 31,50 37,70
38,159 39,1359 40,509 41,2479
42,9999 43,409 44,10 49,10
50,50 51,80 52,20 53,139
54,99 55,3269 56,149 57,30
60,10 61,20 62,30 63,40
65,60 66,20 67,159 68,40
69,119 70,3009 71,189
##END=
