##TITLE=Cyclobutane
##JCAMP-DX=4.24
##DATA TYPE=MASS SPECTRUM
##OWNER=NIST Mass Spectrometry Data Center
Collection (C) 2014 copyright by the U.S. Secretary of Commerce
on behalf of the United States of America. All rights reserved.
##CAS REGISTRY NO=287-23-0
##$NIST MASS SPEC NO=107
##MOLFORM=C4 H8
##MW=56
##$NIST SOURCE=MSDC
##XUNITS=M/Z
##YUNITS=RELATIVE INTENSITY
##XFACTOR=1
##YFACTOR=1
##FIRSTX=1
##LASTX=58
##FIRSTY=260
##MAXX=58
##MINX=1
##MAXY=9999
##MINY=10
##NPOINTS=31
##PEAK TABLE=(XY..XY)
1,260 2,20 12,50 13,80
14,210 15,300 24,20 25,160
26,2262 27,4204 28,9999 29,1111
36,30 37,240 38,330 39,1982
40,621 41,8938 42,310 43,10
48,30 49,170 50,500 51,370
52,100 53,470 54,340 55,1932
56,6226 57,270 58,10
##END=
