##TITLE=Benzene, 2-ethyl-1,3-dimethyl-
##JCAMP-DX=4.24
##DATA TYPE=MASS SPECTRUM
##OWNER=NIST Mass Spectrometry Data Center
Collection (C) 2014 copyright by the U.S. Secretary of Commerce
on behalf of the United States of America. All rights reserved.
##CAS REGISTRY NO=2870-04-4
##$NIST MASS SPEC NO=3144
##MOLFORM=C10 H14
##MW=134
##$NIST SOURCE=MSDC
##XUNITS=M/Z
##YUNITS=RELATIVE INTENSITY
##XFACTOR=1
##YFACTOR=1
##FIRSTX=1
##LASTX=136
##FIRSTY=10
##MAXX=136
##MINX=1
##MAXY=9999
##MINY=10
##NPOINTS=89
##PEAK TABLE=(XY..XY)
1,10 2,30 12,10 13,10
14,10 15,240 16,10 23,10
25,10 26,40 27,591 28,60
29,100 30,10 37,10 38,70
39,881 40,110 41,581 42,20
43,10 44,10 45,10 46,10
49,10 50,130 51,520 52,180
53,310 54,10 55,40 56,10
57,40 58,110 59,30 60,10
61,10 62,60 63,290 64,210
65,561 66,200 67,50 73,10
74,30 75,70 76,60 77,811
78,290 79,290 80,20 81,10
82,10 85,10 86,10 87,20
88,10 89,110 90,50 91,1151
92,120 93,110 94,10 95,10
98,10 99,10 100,10 101,50
102,60 103,380 104,260 105,651
106,110 107,20 113,30 114,60
115,540 116,260 117,540 118,220
119,9999 120,891 121,30 131,60
132,10 133,100 134,2903 135,340
136,20
##END=
