##TITLE=Pentanedioyl dichloride
##JCAMP-DX=4.24
##DATA TYPE=MASS SPECTRUM
##ORIGIN=RADIAN CORP
##OWNER=NIST Mass Spectrometry Data Center
Collection (C) 2014 copyright by the U.S. Secretary of Commerce
on behalf of the United States of America. All rights reserved.
##CAS REGISTRY NO=2873-74-7
##$NIST MASS SPEC NO=75273
##MOLFORM=C5 H6 Cl2 O2
##MW=168
##$NIST SOURCE=MSDC
##XUNITS=M/Z
##YUNITS=RELATIVE INTENSITY
##XFACTOR=1
##YFACTOR=1
##FIRSTX=12
##LASTX=136
##FIRSTY=10
##MAXX=136
##MINX=12
##MAXY=9999
##MINY=10
##NPOINTS=90
##PEAK TABLE=(XY..XY)
12,10 13,50 14,230 15,430
16,10 20,20 24,10 25,120
26,1010 27,2960 28,460 29,580
30,30 31,70 33,30 34,200
35,870 36,250 37,670 38,990
39,4390 40,700 41,9999 42,8550
43,670 44,140 45,80 47,80
48,100 49,1320 50,230 51,380
52,50 53,230 54,80 55,8250
56,320 57,50 58,60 59,1350
60,110 61,230 62,80 63,4820
64,120 65,1590 66,50 67,30
68,350 69,860 70,510 71,50
72,70 73,60 74,130 75,200
76,680 77,2740 78,540 79,890
80,130 81,20 85,80 86,10
87,90 89,110 91,190 92,30
93,60 95,30 96,50 97,3630
98,230 99,50 100,880 101,790
102,60 104,2930 105,6350 106,1240
107,2080 108,100 128,60 129,390
130,30 132,250 133,7760 134,510
135,2520 136,150
##END=
