##TITLE=5-Bromo-2-chlorothiophene
##JCAMP-DX=4.24
##DATA TYPE=MASS SPECTRUM
##ORIGIN=NIST Mass Spectrometry Data Center
##OWNER=NIST Mass Spectrometry Data Center
Collection (C) 2014 copyright by the U.S. Secretary of Commerce
on behalf of the United States of America. All rights reserved.
##CAS REGISTRY NO=2873-18-9
##$NIST MASS SPEC NO=342363
##MOLFORM=C4 H2 Br Cl S
##MW=196
##$NIST SOURCE=MSDC
##XUNITS=M/Z
##YUNITS=RELATIVE INTENSITY
##XFACTOR=1
##YFACTOR=1
##FIRSTX=12
##LASTX=202
##FIRSTY=320
##MAXX=202
##MINX=12
##MAXY=9999
##MINY=10
##NPOINTS=97
##PEAK TABLE=(XY..XY)
12,320 13,60 17,10 18,40
24,180 25,520 26,140 32,941
33,50 34,60 35,430 36,691
37,2582 38,2012 39,60 41,290
44,951 45,1521 46,70 47,621
48,380 49,1041 50,540 51,20
56,520 57,2612 58,410 60,330
61,40 62,110 68,350 69,1071
70,80 71,180 73,4844 74,10
75,1531 76,60 79,1742 80,681
81,3163 82,2382 83,270 84,240
85,40 86,50 87,10 91,370
92,330 93,250 94,130 98,340
99,440 100,110 103,40 104,110
105,30 106,120 111,40 113,70
115,120 117,4354 118,450 119,2032
120,90 121,40 123,300 125,260
126,10 127,10 128,30 129,10
130,20 136,450 137,70 138,470
139,20 140,20 151,60 152,10
153,70 159,20 161,861 162,140
163,891 164,70 165,40 170,10
172,10 193,20 196,7477 197,399
198,9999 199,581 200,2652 201,130
202,110
##END=
