##TITLE=Pyridine, 2,3,5,6-tetrafluoro-
##JCAMP-DX=4.24
##DATA TYPE=MASS SPECTRUM
##OWNER=NIST Mass Spectrometry Data Center
Collection (C) 2014 copyright by the U.S. Secretary of Commerce
on behalf of the United States of America. All rights reserved.
##CAS REGISTRY NO=2875-18-5
##$NIST MASS SPEC NO=4786
##MOLFORM=C5 H F4 N
##MW=151
##$NIST SOURCE=MSDC
##XUNITS=M/Z
##YUNITS=RELATIVE INTENSITY
##XFACTOR=1
##YFACTOR=1
##FIRSTX=31
##LASTX=152
##FIRSTY=1401
##MAXX=152
##MINX=31
##MAXY=9999
##MINY=200
##NPOINTS=16
##PEAK TABLE=(XY..XY)
31,1401 37,200 56,500 69,801
75,1201 82,1702 86,300 87,300
93,300 98,500 99,300 105,200
106,1501 132,701 151,9999 152,701
##END=
