##TITLE=Naphthalene, 2-hexyl-
##JCAMP-DX=4.24
##DATA TYPE=MASS SPECTRUM
##ORIGIN=D.HENNEBERG, MAX-PLANCK INSTITUTE, MULHEIM, WEST GERMANY
##OWNER=NIST Mass Spectrometry Data Center
Collection (C) 2014 copyright by the U.S. Secretary of Commerce
on behalf of the United States of America. All rights reserved.
##CAS REGISTRY NO=2876-46-2
##$NIST MASS SPEC NO=62230
##MOLFORM=C16 H20
##MW=212
##$NIST SOURCE=MSDC
##XUNITS=M/Z
##YUNITS=RELATIVE INTENSITY
##XFACTOR=1
##YFACTOR=1
##FIRSTX=22
##LASTX=215
##FIRSTY=4
##MAXX=215
##MINX=22
##MAXY=9999
##MINY=1
##NPOINTS=167
##PEAK TABLE=(XY..XY)
22,4 25,5 26,37 27,398
28,33 29,466 30,9 33,12
34,4 35,5 36,4 37,12
38,12 39,327 40,25 41,553
42,48 43,266 44,17 45,6
46,4 47,7 48,3 49,6
50,57 51,158 52,35 53,48
54,10 55,203 56,28 58,10
59,4 60,3 61,12 62,54
63,229 64,45 65,102 66,13
67,24 69,87 70,13 71,9
72,5 73,11 74,48 75,98
76,156 77,219 78,50 79,10
80,7 82,32 83,49 84,5
85,4 86,15 87,51 88,41
89,176 90,30 91,152 92,66
93,147 94,170 95,171 96,71
97,25 98,23 99,23 100,20
101,69 102,88 103,33 104,14
105,12 106,13 107,13 108,16
109,9 110,15 111,25 112,23
113,83 114,88 115,2133 116,260
117,29 118,9 119,4 120,10
121,7 122,10 123,10 124,14
125,29 126,124 127,337 128,780
129,394 130,69 131,15 134,25
135,60 139,648 140,472 141,9999
142,9187 143,1403 144,101 145,15
146,16 147,212 148,144 149,36
150,49 151,110 152,361 153,396
154,389 155,900 156,137 157,16
158,16 159,8 160,7 161,23
162,14 163,22 164,21 165,159
166,53 167,94 168,32 169,232
170,41 171,10 172,4 173,4
174,4 175,8 176,8 177,6
178,18 179,13 180,5 181,7
182,8 183,285 184,52 185,6
189,7 190,3 191,1 201,2
202,2 204,13 205,4 207,5
208,1 209,11 210,20 212,3343
213,631 214,54 215,5
##END=
