##TITLE=1-Naphthaleneacetic acid, methyl ester
##JCAMP-DX=4.24
##DATA TYPE=MASS SPECTRUM
##ORIGIN=Japan AIST/NIMC Database- Spectrum MS-NW-5866
##OWNER=NIST Mass Spectrometry Data Center
Collection (C) 2014 copyright by the U.S. Secretary of Commerce
on behalf of the United States of America. All rights reserved.
##CAS REGISTRY NO=2876-78-0
##$NIST MASS SPEC NO=234994
##MOLFORM=C13 H12 O2
##MW=200
##$NIST SOURCE=MSDC
##XUNITS=M/Z
##YUNITS=RELATIVE INTENSITY
##XFACTOR=1
##YFACTOR=1
##FIRSTX=14
##LASTX=202
##FIRSTY=10
##MAXX=202
##MINX=14
##MAXY=9999
##MINY=10
##NPOINTS=89
##PEAK TABLE=(XY..XY)
14,10 15,299 26,10 27,30
28,50 29,50 30,20 31,10
32,10 37,10 38,30 39,199
40,10 41,10 43,10 44,10
50,99 51,139 52,30 55,10
56,20 57,259 58,30 59,139
61,30 62,139 63,309 64,50
65,109 69,109 70,289 71,40
73,10 74,99 75,109 76,50
77,50 78,10 84,10 85,20
86,50 87,99 88,60 89,189
90,20 91,80 92,10 98,30
99,20 100,20 101,20 102,60
103,10 110,10 111,20 112,10
113,109 114,90 115,1609 116,169
117,10 126,40 127,70 128,99
129,40 130,10 137,20 138,40
139,739 140,299 141,9999 142,1159
143,80 147,10 153,10 154,10
155,70 156,40 157,20 158,30
168,90 169,50 171,20 172,10
185,30 199,10 200,4559 201,669
202,80
##END=
