##TITLE=Naphthalene, 1-hexyl-
##JCAMP-DX=4.24
##DATA TYPE=MASS SPECTRUM
##ORIGIN=D.HENNEBERG, MAX-PLANCK INSTITUTE, MULHEIM, WEST GERMANY
##OWNER=NIST Mass Spectrometry Data Center
Collection (C) 2014 copyright by the U.S. Secretary of Commerce
on behalf of the United States of America. All rights reserved.
##CAS REGISTRY NO=2876-53-1
##$NIST MASS SPEC NO=62229
##MOLFORM=C16 H20
##MW=212
##$NIST SOURCE=MSDC
##XUNITS=M/Z
##YUNITS=RELATIVE INTENSITY
##XFACTOR=1
##YFACTOR=1
##FIRSTX=22
##LASTX=215
##FIRSTY=1
##MAXX=215
##MINX=22
##MAXY=9999
##MINY=1
##NPOINTS=155
##PEAK TABLE=(XY..XY)
22,1 25,3 26,20 27,257
28,26 29,296 30,7 33,3
34,3 35,5 37,32 38,7
39,214 40,15 41,376 42,40
43,183 44,38 45,6 46,4
48,3 49,4 50,42 51,95
52,25 53,35 54,8 55,127
56,21 58,10 59,3 60,4
61,9 62,31 63,164 64,28
65,73 66,7 67,11 68,7
69,12 71,9 72,4 74,40
75,85 76,98 77,153 78,33
79,9 80,9 81,8 82,39
83,33 84,4 86,12 87,31
88,35 89,126 90,21 91,104
92,45 94,156 95,126 96,31
97,16 98,14 99,18 100,14
101,67 102,65 103,12 104,5
106,5 107,5 108,9 109,12
110,16 112,17 113,57 114,57
115,1595 116,171 117,16 118,6
119,5 120,3 121,9 122,5
123,7 124,6 125,24 126,103
127,234 128,661 129,266 130,61
131,24 132,10 134,17 139,455
140,285 141,9999 142,4935 143,485
144,45 145,6 146,6 147,4
149,14 150,42 151,112 152,330
153,411 154,212 155,465 156,104
157,11 158,10 159,4 161,6
163,28 164,28 165,120 166,45
167,72 168,24 169,130 170,40
171,12 172,3 175,4 177,5
178,19 179,11 180,4 181,5
182,9 183,72 184,14 185,5
189,4 193,4 197,6 200,7
201,5 202,15 203,21 204,28
205,6 206,4 209,32 212,3123
213,568 214,49 215,7
##END=
