##TITLE=2-Cyclopenten-1-one, 2,3,4-trimethyl-
##JCAMP-DX=4.24
##DATA TYPE=MASS SPECTRUM
##ORIGIN=G.S. KING, CHEM. PATHOL. DEP., QUEEN CHARLOTTE'S HOSP., LONDON
##OWNER=NIST Mass Spectrometry Data Center
Collection (C) 2014 copyright by the U.S. Secretary of Commerce
on behalf of the United States of America. All rights reserved.
##CAS REGISTRY NO=28790-86-5
##$NIST MASS SPEC NO=71937
##MOLFORM=C8 H12 O
##MW=124
##$NIST SOURCE=MSDC
##XUNITS=M/Z
##YUNITS=RELATIVE INTENSITY
##XFACTOR=1
##YFACTOR=1
##FIRSTX=40
##LASTX=125
##FIRSTY=120
##MAXX=125
##MINX=40
##MAXY=9999
##MINY=120
##NPOINTS=29
##PEAK TABLE=(XY..XY)
40,120 41,440 42,120 43,240
44,120 45,120 53,440 54,440
55,440 56,320 57,120 67,840
68,320 69,120 79,1320 80,240
81,5320 82,520 83,120 91,120
93,120 95,240 96,1240 97,120
109,9999 110,840 123,240 124,4120
125,440
##END=
