##TITLE=Phenol, pentachloro-, trichloroacetate
##JCAMP-DX=4.24
##DATA TYPE=MASS SPECTRUM
##ORIGIN=Japan AIST/NIMC Database- Spectrum MS-NW-3708
##OWNER=NIST Mass Spectrometry Data Center
Collection (C) 2014 copyright by the U.S. Secretary of Commerce
on behalf of the United States of America. All rights reserved.
##CAS REGISTRY NO=2879-60-9
##$NIST MASS SPEC NO=231752
##MOLFORM=C8 Cl8 O2
##MW=408
##$NIST SOURCE=MSDC
##XUNITS=M/Z
##YUNITS=RELATIVE INTENSITY
##XFACTOR=1
##YFACTOR=1
##FIRSTX=24
##LASTX=418
##FIRSTY=10
##MAXX=418
##MINX=24
##MAXY=9999
##MINY=10
##NPOINTS=170
##PEAK TABLE=(XY..XY)
24,10 28,119 35,129 37,40
44,20 47,569 48,20 49,179
51,10 59,30 60,269 61,30
63,129 65,109 66,30 71,179
72,40 73,50 75,10 76,10
77,30 78,20 82,749 83,249
84,499 85,159 86,80 87,90
89,20 94,40 95,479 96,60
97,169 98,20 100,30 101,40
102,20 105,60 106,149 107,109
108,99 109,40 110,709 111,40
112,399 113,20 114,60 115,10
117,9999 118,199 119,9269 120,149
121,2839 122,40 123,299 129,10
130,569 131,60 132,389 133,60
134,70 141,359 142,169 143,369
144,109 145,189 146,20 147,90
149,20 153,10 158,10 165,829
166,50 167,759 168,50 169,229
170,20 171,30 177,90 179,90
181,30 193,10 200,90 201,30
202,119 203,50 204,60 205,20
206,10 212,179 213,30 214,249
215,30 216,119 217,10 218,20
228,60 229,20 230,80 231,20
232,50 233,10 234,10 235,779
236,40 237,1259 238,70 239,869
240,40 241,269 242,10 243,40
247,599 248,40 249,979 250,60
251,659 252,50 253,199 254,10
255,30 259,10 263,269 264,159
265,439 266,229 267,259 268,139
269,90 270,40 271,10 277,10
282,10 284,30 286,20 288,10
291,149 292,10 293,249 294,20
295,149 296,10 297,50 299,10
319,10 321,10 338,10 340,20
342,20 344,10 345,10 347,10
349,20 351,10 373,20 375,40
376,10 377,50 378,10 379,20
380,10 408,60 410,169 411,20
412,199 413,10 414,119 415,10
416,40 418,10
##END=
