##TITLE=Selenophene
##JCAMP-DX=4.24
##DATA TYPE=MASS SPECTRUM
##ORIGIN=F.Fringuelli ET AL.J.Heterocycl.Chem.,15,137(1978)
##OWNER=NIST Mass Spectrometry Data Center
Collection (C) 2014 copyright by the U.S. Secretary of Commerce
on behalf of the United States of America. All rights reserved.
##CAS REGISTRY NO=288-05-1
##$NIST MASS SPEC NO=281119
##MOLFORM=C4 H4 Se
##MW=132
##$NIST SOURCE=MSDC
##XUNITS=M/Z
##YUNITS=RELATIVE INTENSITY
##XFACTOR=1
##YFACTOR=1
##FIRSTX=37
##LASTX=134
##FIRSTY=240
##MAXX=134
##MINX=37
##MAXY=9999
##MINY=30
##NPOINTS=46
##PEAK TABLE=(XY..XY)
37,240 38,170 39,1541 40,30
41,50 48,50 49,390 50,1381
51,2722 52,60 55,50 65,60
66,150 67,30 69,80 76,130
77,80 78,490 80,971 81,60
82,130 89,150 90,180 91,490
93,1041 95,120 102,821 103,841
104,1782 105,991 106,3533 107,200
108,490 113,30 115,150 117,420
118,30 126,240 127,100 128,2022
129,1641 130,5145 131,540 132,9999
133,440 134,1922
##END=
