##TITLE=1,2,5-Oxadiazole
##JCAMP-DX=4.24
##DATA TYPE=MASS SPECTRUM
##ORIGIN=C.L. PEDERSEN, DEP. GEN. ORG. CHEM., UNIV. COPENHAGEN, DENMA
##OWNER=NIST Mass Spectrometry Data Center
Collection (C) 2014 copyright by the U.S. Secretary of Commerce
on behalf of the United States of America. All rights reserved.
##CAS REGISTRY NO=288-37-9
##$NIST MASS SPEC NO=90621
##MOLFORM=C2 H2 N2 O
##MW=70
##$NIST SOURCE=MSDC
##XUNITS=M/Z
##YUNITS=RELATIVE INTENSITY
##XFACTOR=1
##YFACTOR=1
##FIRSTX=26
##LASTX=71
##FIRSTY=290
##MAXX=71
##MINX=26
##MAXY=9999
##MINY=170
##NPOINTS=13
##PEAK TABLE=(XY..XY)
26,290 27,1700 28,3000 29,440
30,2000 38,520 39,570 40,9999
41,280 42,530 43,9000 70,3300
71,170
##END=
