##TITLE=Tellurophene
##JCAMP-DX=4.24
##DATA TYPE=MASS SPECTRUM
##ORIGIN=F.Fringuelli ET AL.J.Heterocycl.Chem.,15,137(1978)
##OWNER=NIST Mass Spectrometry Data Center
Collection (C) 2014 copyright by the U.S. Secretary of Commerce
on behalf of the United States of America. All rights reserved.
##CAS REGISTRY NO=288-08-4
##$NIST MASS SPEC NO=281120
##MOLFORM=C4 H4 Te
##MW=182
##$NIST SOURCE=MSDC
##XUNITS=M/Z
##YUNITS=RELATIVE INTENSITY
##XFACTOR=1
##YFACTOR=1
##FIRSTX=29
##LASTX=183
##FIRSTY=80
##MAXX=183
##MINX=29
##MAXY=9999
##MINY=10
##NPOINTS=67
##PEAK TABLE=(XY..XY)
29,80 37,180 38,200 39,240
41,30 43,60 47,250 48,80
49,410 50,1922 51,4564 52,2642
53,150 54,10 55,120 56,10
57,100 61,10 69,10 70,30
71,60 81,10 82,30 83,801
84,30 85,681 87,130 89,100
90,220 91,100 122,410 123,150
124,661 125,1131 126,3033 127,250
128,4644 129,420 130,5025 131,420
132,120 138,60 139,120 141,240
142,50 143,270 148,130 149,120
150,250 151,611 152,490 153,681
154,841 155,681 156,961 165,60
167,120 174,891 175,460 176,1561
177,2642 178,5985 179,390 180,9438
181,370 182,9999 183,390
##END=
