##TITLE=Isothiazole
##JCAMP-DX=4.24
##DATA TYPE=MASS SPECTRUM
##ORIGIN=B.J.MILLARD SCHOOL OF PHARMACY, UNIV. OF LONDON, LONDON, UK
##OWNER=NIST Mass Spectrometry Data Center
Collection (C) 2014 copyright by the U.S. Secretary of Commerce
on behalf of the United States of America. All rights reserved.
##CAS REGISTRY NO=288-16-4
##$NIST MASS SPEC NO=561
##MOLFORM=C3 H3 N S
##MW=85
##$NIST SOURCE=MSDC
##XUNITS=M/Z
##YUNITS=RELATIVE INTENSITY
##XFACTOR=1
##YFACTOR=1
##FIRSTX=39
##LASTX=85
##FIRSTY=300
##MAXX=85
##MINX=39
##MAXY=9999
##MINY=150
##NPOINTS=10
##PEAK TABLE=(XY..XY)
39,300 44,300 45,700 51,150
52,200 57,800 58,4000 59,1000
84,300 85,9999
##END=
