##TITLE=Benzaldehyde, 3-methyl-, (2,4-dinitrophenyl)hydrazone
##JCAMP-DX=4.24
##DATA TYPE=MASS SPECTRUM
##OWNER=NIST Mass Spectrometry Data Center
Collection (C) 2014 copyright by the U.S. Secretary of Commerce
on behalf of the United States of America. All rights reserved.
##CAS REGISTRY NO=2880-05-9
##$NIST MASS SPEC NO=14379
##MOLFORM=C14 H12 N4 O4
##MW=300
##$NIST SOURCE=MSDC
##XUNITS=M/Z
##YUNITS=RELATIVE INTENSITY
##XFACTOR=1
##YFACTOR=1
##FIRSTX=51
##LASTX=302
##FIRSTY=1001
##MAXX=302
##MINX=51
##MAXY=9999
##MINY=100
##NPOINTS=95
##PEAK TABLE=(XY..XY)
51,1001 52,400 53,100 62,500
63,1301 64,701 65,2002 66,200
74,200 75,701 76,701 77,1201
78,2002 79,2202 80,200 87,100
88,200 89,1001 90,901 91,3803
92,701 93,2202 94,200 102,200
103,1301 104,400 105,100 106,100
115,200 116,601 117,400 118,1702
119,1201 120,200 121,3803 122,601
127,100 128,200 129,100 135,100
139,200 140,100 146,200 150,300
151,200 152,1001 153,400 154,200
155,100 163,200 164,500 165,400
166,400 167,200 168,200 176,200
177,400 178,1802 179,801 180,1201
181,300 191,100 192,801 193,300
194,100 195,200 196,100 205,500
206,801 207,801 208,400 209,400
219,500 220,100 221,200 222,100
223,200 236,200 237,100 238,200
239,100 240,100 252,200 253,400
254,100 255,100 265,500 266,200
267,400 268,100 270,100 285,100
300,9999 301,1702 302,200
##END=
