##TITLE=Pyrazine, 2-methoxy-6-methyl-
##JCAMP-DX=4.24
##DATA TYPE=MASS SPECTRUM
##ORIGIN=Philip Morris R&D
##OWNER=NIST Mass Spectrometry Data Center
Collection (C) 2014 copyright by the U.S. Secretary of Commerce
on behalf of the United States of America. All rights reserved.
##CAS REGISTRY NO=2882-21-5
##$NIST MASS SPEC NO=108602
##MOLFORM=C6 H8 N2 O
##MW=124
##$NIST SOURCE=MSDC
##XUNITS=M/Z
##YUNITS=RELATIVE INTENSITY
##XFACTOR=1
##YFACTOR=1
##FIRSTX=36
##LASTX=126
##FIRSTY=66
##MAXX=126
##MINX=36
##MAXY=9999
##MINY=20
##NPOINTS=48
##PEAK TABLE=(XY..XY)
36,66 37,450 38,940 39,2937
40,2963 41,1877 42,1377 43,128
44,35 50,55 51,418 52,754
53,896 54,2919 55,442 56,3446
57,139 58,374 63,74 64,247
65,213 66,1404 67,1458 68,1166
69,112 77,27 79,98 80,67
81,343 82,338 83,42 88,35
92,26 93,733 94,3347 95,3843
96,277 97,26 105,20 106,29
107,24 109,161 121,28 122,20
123,6667 124,9999 125,741 126,38
##END=
