##TITLE=Cyclohexane, (3-cyclopentylpropyl)-
##JCAMP-DX=4.24
##DATA TYPE=MASS SPECTRUM
##OWNER=NIST Mass Spectrometry Data Center
Collection (C) 2014 copyright by the U.S. Secretary of Commerce
on behalf of the United States of America. All rights reserved.
##CAS REGISTRY NO=2883-07-0
##$NIST MASS SPEC NO=8449
##MOLFORM=C14 H26
##MW=194
##$NIST SOURCE=MSDC
##XUNITS=M/Z
##YUNITS=RELATIVE INTENSITY
##XFACTOR=1
##YFACTOR=1
##FIRSTX=37
##LASTX=196
##FIRSTY=20
##MAXX=196
##MINX=37
##MAXY=9999
##MINY=10
##NPOINTS=82
##PEAK TABLE=(XY..XY)
37,20 38,60 39,2793 40,510
41,9609 42,1531 43,891 44,30
50,40 51,170 52,120 53,1151
54,1491 55,8598 56,591 57,190
58,10 62,10 63,30 64,10
65,230 66,320 67,3833 68,2943
69,3383 70,240 71,40 77,200
78,60 79,300 80,140 81,1571
82,8037 83,9999 84,641 85,30
91,130 92,200 93,60 94,70
95,721 96,3333 97,1171 98,110
99,10 103,10 104,10 105,20
106,10 107,10 108,40 109,581
110,310 111,180 112,70 113,10
121,10 122,10 123,120 124,160
125,110 126,20 127,10 135,10
136,10 137,110 138,120 139,10
151,60 152,80 153,10 165,10
166,190 167,30 179,10 188,30
189,10 192,10 193,10 194,2042
195,320 196,30
##END=
