##TITLE=Pyrazine, 2-methyl-6-(methylthio)-
##JCAMP-DX=4.24
##DATA TYPE=MASS SPECTRUM
##OWNER=NIST Mass Spectrometry Data Center
Collection (C) 2014 copyright by the U.S. Secretary of Commerce
on behalf of the United States of America. All rights reserved.
##CAS REGISTRY NO=2884-13-1
##$NIST MASS SPEC NO=3759
##MOLFORM=C6 H8 N2 S
##MW=140
##$NIST SOURCE=MSDC
##XUNITS=M/Z
##YUNITS=RELATIVE INTENSITY
##XFACTOR=1
##YFACTOR=1
##FIRSTX=37
##LASTX=142
##FIRSTY=200
##MAXX=142
##MINX=37
##MAXY=9999
##MINY=100
##NPOINTS=57
##PEAK TABLE=(XY..XY)
37,200 38,500 39,2002 40,601
41,200 42,300 44,200 45,901
46,400 47,300 52,200 53,300
54,300 55,200 56,100 57,200
58,1001 59,200 60,200 63,100
64,300 65,200 66,2502 67,801
69,100 70,300 71,500 72,1902
73,400 74,500 75,100 76,100
77,100 80,200 81,100 82,200
83,400 84,300 85,100 93,500
94,2302 95,1101 96,300 97,200
98,801 99,200 100,200 107,801
108,300 112,100 113,200 120,100
125,400 139,3703 140,9999 141,801
142,601
##END=
