##TITLE=Norfludiazepam
##JCAMP-DX=4.24
##DATA TYPE=MASS SPECTRUM
##ORIGIN=NIST Mass Spectrometry Data Center
##OWNER=NIST Mass Spectrometry Data Center
Collection (C) 2014 copyright by the U.S. Secretary of Commerce
on behalf of the United States of America. All rights reserved.
##CAS REGISTRY NO=2886-65-9
##$NIST MASS SPEC NO=352190
##MOLFORM=C15 H10 Cl F N2 O
##MW=288
##$NIST SOURCE=MSDC
##XUNITS=M/Z
##YUNITS=RELATIVE INTENSITY
##XFACTOR=1
##YFACTOR=1
##FIRSTX=14
##LASTX=292
##FIRSTY=10
##MAXX=292
##MINX=14
##MAXY=9999
##MINY=10
##NPOINTS=250
##PEAK TABLE=(XY..XY)
14,10 15,10 26,30 27,80
28,350 29,30 30,20 31,40
33,30 35,10 36,20 37,60
38,170 39,360 40,70 41,80
42,130 43,30 45,30 46,20
47,20 49,100 50,611 51,961
52,450 53,70 54,50 55,40
56,70 57,460 58,30 59,40
60,30 61,230 62,651 63,1121
64,270 65,160 66,30 67,40
68,200 69,220 70,170 71,70
72,270 73,350 74,821 75,2542
76,881 77,1211 78,270 80,130
81,520 82,130 83,390 84,550
85,1361 86,490 87,430 89,1081
90,330 91,230 92,180 93,300
94,571 95,691 96,200 98,1221
99,1171 100,500 101,320 102,2963
104,330 105,290 106,370 107,1031
108,320 109,911 110,480 111,1231
112,2542 113,681 114,320 115,140
116,641 117,370 118,200 119,270
120,961 121,490 122,761 123,591
124,450 125,430 126,450 127,160
128,70 129,440 130,420 131,390
132,250 133,230 134,881 135,280
136,430 137,320 138,1672 139,340
140,571 141,120 142,80 143,150
144,751 145,280 146,190 147,90
148,60 149,480 150,731 151,711
152,270 153,110 154,80 155,160
156,160 157,360 158,220 159,50
160,20 161,60 162,150 163,1371
164,380 165,651 166,370 167,280
168,821 169,1281 170,1331 171,320
172,70 173,20 174,70 175,230
176,721 177,1461 178,571 179,330
180,140 181,430 182,330 183,350
184,150 185,80 186,80 187,40
188,60 189,40 190,70 191,110
192,90 193,100 194,150 195,981
196,991 197,981 198,621 199,100
200,20 201,20 202,70 203,140
204,260 205,370 206,190 207,40
208,180 209,90 210,120 211,520
212,190 213,240 214,300 215,120
216,100 217,110 218,40 219,60
220,20 221,30 222,40 223,621
224,520 225,1141 226,240 227,40
228,10 229,20 230,40 231,260
232,1281 233,320 234,550 235,80
236,10 237,10 238,30 239,651
240,270 241,350 242,130 243,60
244,50 245,70 246,200 247,60
248,70 249,10 250,10 251,40
252,440 253,540 254,100 255,20
256,10 257,150 258,140 259,9999
260,9368 261,5825 262,3263 263,861
264,110 265,10 267,20 268,230
269,2222 270,470 271,731 272,140
273,20 283,10 284,10 286,80
287,6386 288,7257 289,3203 290,2382
291,360 292,40
##END=
