##TITLE=Delorazepam
##JCAMP-DX=4.24
##DATA TYPE=MASS SPECTRUM
##ORIGIN=Patti Price, Georgia Bureau of Investigation, Decatur, Georgia
##OWNER=NIST Mass Spectrometry Data Center
Collection (C) 2014 copyright by the U.S. Secretary of Commerce
on behalf of the United States of America. All rights reserved.
##CAS REGISTRY NO=2894-67-9
##$NIST MASS SPEC NO=248215
##MOLFORM=C15 H10 Cl2 N2 O
##MW=304
##$NIST SOURCE=MSDC
##XUNITS=M/Z
##YUNITS=RELATIVE INTENSITY
##XFACTOR=1
##YFACTOR=1
##FIRSTX=41
##LASTX=309
##FIRSTY=30
##MAXX=309
##MINX=41
##MAXY=9999
##MINY=10
##NPOINTS=154
##PEAK TABLE=(XY..XY)
41,30 42,70 43,10 49,140
50,750 51,1040 52,700 53,60
55,80 60,10 61,150 62,960
63,1571 64,270 65,30 68,180
69,60 70,20 72,20 73,410
74,1151 75,3292 76,1911 77,1371
79,50 80,150 81,540 83,50
84,30 85,190 86,370 87,570
88,480 89,2612 91,270 92,170
93,830 94,340 95,140 97,230
98,560 99,1090 100,420 101,320
102,3012 103,1211 104,220 105,30
106,360 107,810 108,290 109,50
110,130 111,1341 112,920 113,490
114,520 115,160 116,460 117,130
119,90 120,2222 121,1010 122,300
123,720 124,310 125,1141 126,210
127,280 128,110 131,80 134,80
135,60 136,460 137,420 138,2222
139,660 140,620 144,60 148,50
149,700 150,1781 151,1771 152,1131
153,150 161,120 162,50 163,1381
164,550 165,570 166,240 167,110
175,280 176,590 177,2462 178,1531
179,420 180,50 186,250 187,70
188,160 190,180 191,130 192,110
193,100 199,80 201,60 203,300
204,70 205,1351 206,490 207,40
211,230 212,380 213,980 214,990
215,480 227,160 228,100 233,80
234,290 239,1351 240,1331 241,3423
242,910 243,1050 244,210 247,60
248,810 249,80 250,480 252,90
261,20 262,150 264,60 268,1791
269,9848 270,2031 271,3413 272,430
275,9999 276,6515 277,8427 278,3913
279,2232 280,750 281,160 303,6836
304,9588 305,5875 306,6255 307,1521
308,1060 309,110
##END=
