##TITLE=1,3-Benzenediol, 4-ethyl-
##JCAMP-DX=4.24
##DATA TYPE=MASS SPECTRUM
##ORIGIN=NIST Mass Spectrometry Data Center, 1990.
##OWNER=NIST Mass Spectrometry Data Center
Collection (C) 2014 copyright by the U.S. Secretary of Commerce
on behalf of the United States of America. All rights reserved.
##CAS REGISTRY NO=2896-60-8
##$NIST MASS SPEC NO=113388
##MOLFORM=C8 H10 O2
##MW=138
##$NIST SOURCE=MSDC
##XUNITS=M/Z
##YUNITS=RELATIVE INTENSITY
##XFACTOR=1
##YFACTOR=1
##FIRSTX=15
##LASTX=139
##FIRSTY=78
##MAXX=139
##MINX=15
##MAXY=9999
##MINY=40
##NPOINTS=62
##PEAK TABLE=(XY..XY)
15,78 26,59 27,231 28,156
29,155 37,53 38,164 39,682
40,148 41,420 42,155 43,274
48,55 49,40 50,357 51,610
52,245 53,620 54,148 55,589
57,69 61,125 62,238 63,463
64,155 65,866 66,440 67,1095
68,215 69,820 74,95 75,72
77,850 78,145 79,389 80,87
81,350 82,84 89,123 90,62
91,551 92,72 93,100 94,294
95,848 96,68 105,50 107,165
109,135 110,115 111,47 119,78
120,74 121,158 122,47 123,9999
124,771 125,71 135,41 136,76
138,3145 139,302
##END=
