##TITLE=2-Methoxy-6-methylphenol
##JCAMP-DX=4.24
##DATA TYPE=MASS SPECTRUM
##ORIGIN=NIST Mass Spectrometry Data Center, 1994
##OWNER=NIST Mass Spectrometry Data Center
Collection (C) 2014 copyright by the U.S. Secretary of Commerce
on behalf of the United States of America. All rights reserved.
##CAS REGISTRY NO=2896-67-5
##$NIST MASS SPEC NO=135426
##MOLFORM=C8 H10 O2
##MW=138
##$NIST SOURCE=MSDC
##XUNITS=M/Z
##YUNITS=RELATIVE INTENSITY
##XFACTOR=1
##YFACTOR=1
##FIRSTX=12
##LASTX=140
##FIRSTY=35
##MAXX=140
##MINX=12
##MAXY=9999
##MINY=6
##NPOINTS=82
##PEAK TABLE=(XY..XY)
12,35 13,67 14,286 15,2868
16,37 17,6 18,44 19,15
25,42 26,325 27,1038 28,252
29,781 30,118 31,187 33,54
36,21 37,284 38,748 39,3094
40,871 41,1835 42,160 43,325
44,29 46,26 47,32 48,17
49,110 50,866 51,1979 52,646
53,1005 54,165 55,1269 56,58
60,19 61,115 62,330 63,666
64,211 65,1637 66,1501 67,2574
68,214 69,153 73,32 74,153
75,102 76,19 77,3086 78,829
79,497 80,54 81,168 82,17
85,14 86,26 89,76 90,63
91,267 92,59 93,114 94,624
95,2666 96,194 97,19 105,273
106,271 107,216 108,53 109,181
110,25 119,13 121,65 123,9999
124,748 125,71 135,37 138,5928
139,527 140,22
##END=
