##TITLE=1,2,4,5-Tetrazine
##JCAMP-DX=4.24
##DATA TYPE=MASS SPECTRUM
##ORIGIN=J.MOLLER, UNIV. OF COPENHAGEN, DENMARK
##OWNER=NIST Mass Spectrometry Data Center
Collection (C) 2014 copyright by the U.S. Secretary of Commerce
on behalf of the United States of America. All rights reserved.
##CAS REGISTRY NO=290-96-0
##$NIST MASS SPEC NO=472
##MOLFORM=C2 H2 N4
##MW=82
##$NIST SOURCE=MSDC
##XUNITS=M/Z
##YUNITS=RELATIVE INTENSITY
##XFACTOR=1
##YFACTOR=1
##FIRSTX=12
##LASTX=82
##FIRSTY=480
##MAXX=82
##MINX=12
##MAXY=9999
##MINY=230
##NPOINTS=10
##PEAK TABLE=(XY..XY)
12,480 13,1110 14,230 26,930
27,7550 28,9999 29,310 53,910
54,680 82,4340
##END=
