##TITLE=1,2,4-Triazine
##JCAMP-DX=4.24
##DATA TYPE=MASS SPECTRUM
##OWNER=NIST Mass Spectrometry Data Center
Collection (C) 2014 copyright by the U.S. Secretary of Commerce
on behalf of the United States of America. All rights reserved.
##CAS REGISTRY NO=290-38-0
##$NIST MASS SPEC NO=19069
##MOLFORM=C3 H3 N3
##MW=81
##$NIST SOURCE=MSDC
##XUNITS=M/Z
##YUNITS=RELATIVE INTENSITY
##XFACTOR=1
##YFACTOR=1
##FIRSTX=25
##LASTX=82
##FIRSTY=731
##MAXX=82
##MINX=25
##MAXY=9999
##MINY=330
##NPOINTS=12
##PEAK TABLE=(XY..XY)
25,731 26,6506 27,2682 28,9999
38,731 39,831 40,701 51,731
52,901 53,5005 81,2883 82,330
##END=
