##TITLE=1,3,5-Triazine
##JCAMP-DX=4.24
##DATA TYPE=MASS SPECTRUM
##ORIGIN=NIST Mass Spectrometry Data Center, 1990.
##OWNER=NIST Mass Spectrometry Data Center
Collection (C) 2014 copyright by the U.S. Secretary of Commerce
on behalf of the United States of America. All rights reserved.
##CAS REGISTRY NO=290-87-9
##$NIST MASS SPEC NO=118737
##MOLFORM=C3 H3 N3
##MW=81
##$NIST SOURCE=MSDC
##XUNITS=M/Z
##YUNITS=RELATIVE INTENSITY
##XFACTOR=1
##YFACTOR=1
##FIRSTX=12
##LASTX=83
##FIRSTY=177
##MAXX=83
##MINX=12
##MAXY=9999
##MINY=2
##NPOINTS=29
##PEAK TABLE=(XY..XY)
12,177 13,217 14,58 15,17
18,15 24,142 25,206 26,506
27,4155 28,6274 29,115 31,17
32,2 33,12 38,461 39,428
40,299 41,35 45,11 52,379
53,2316 54,7504 55,204 59,14
64,12 78,13 81,9999 82,417
83,8
##END=
