##TITLE=[1,2,3,4]Tetrathiane
##JCAMP-DX=4.24
##DATA TYPE=MASS SPECTRUM
##ORIGIN=A.A.Kutin, Moscow, Russia
##OWNER=NIST Mass Spectrometry Data Center
Collection (C) 2014 copyright by the U.S. Secretary of Commerce
on behalf of the United States of America. All rights reserved.
##CAS REGISTRY NO=290-81-3
##$NIST MASS SPEC NO=273582
##MOLFORM=C2 H4 S4
##MW=156
##$NIST SOURCE=MSDC
##XUNITS=M/Z
##YUNITS=RELATIVE INTENSITY
##XFACTOR=1
##YFACTOR=1
##FIRSTX=43
##LASTX=162
##FIRSTY=4
##MAXX=162
##MINX=43
##MAXY=9999
##MINY=1
##NPOINTS=83
##PEAK TABLE=(XY..XY)
43,4 45,1796 46,948 47,358
48,51 49,16 50,1 55,20
56,54 57,340 58,901 59,992
60,533 61,68 62,22 64,6634
65,250 66,651 67,22 68,24
69,4 70,5 71,1 72,2
73,1 76,28 77,16 78,74
79,45 80,8 81,18 82,14
83,33 84,6 85,19 86,1
87,2 88,19 89,4 90,10
91,336 92,1486 93,92 94,138
96,534 97,57 98,72 99,1
100,7 103,13 104,1 105,36
106,1 107,9 108,2 110,295
111,14 112,33 116,4 117,14
118,4 119,9 121,6 122,5
123,31 124,105 125,5 126,25
128,6219 129,219 130,1128 131,40
132,83 133,1 134,1 154,23
156,9999 157,584 158,1863 159,104
160,126 161,15 162,8
##END=
