##TITLE=Dichloroacetic acid butyl ester
##JCAMP-DX=4.24
##DATA TYPE=MASS SPECTRUM
##ORIGIN=V.G.Zaikin, Petrochem. Synth. Inst., Moscow
##OWNER=NIST Mass Spectrometry Data Center
Collection (C) 2014 copyright by the U.S. Secretary of Commerce
on behalf of the United States of America. All rights reserved.
##CAS REGISTRY NO=29003-73-4
##$NIST MASS SPEC NO=280477
##MOLFORM=C6 H10 Cl2 O2
##MW=184
##$NIST SOURCE=MSDC
##XUNITS=M/Z
##YUNITS=RELATIVE INTENSITY
##XFACTOR=1
##YFACTOR=1
##FIRSTX=26
##LASTX=115
##FIRSTY=130
##MAXX=115
##MINX=26
##MAXY=9999
##MINY=40
##NPOINTS=44
##PEAK TABLE=(XY..XY)
26,130 27,1251 28,360 29,4224
30,130 31,60 35,110 36,150
37,60 38,150 39,1011 40,230
41,5195 42,350 43,480 44,561
47,190 48,591 49,130 50,280
51,170 52,60 53,90 54,60
55,881 56,2232 57,9999 58,480
59,40 65,40 69,40 73,60
76,771 77,100 78,210 79,100
83,1311 84,50 85,951 86,60
87,120 111,250 113,200 115,50
##END=
