##TITLE=2-Nitro-1-propanol
##JCAMP-DX=4.24
##DATA TYPE=MASS SPECTRUM
##ORIGIN=Chuck Anderson, Aldrich Chemical Co.
##OWNER=NIST Mass Spectrometry Data Center
Collection (C) 2014 copyright by the U.S. Secretary of Commerce
on behalf of the United States of America. All rights reserved.
##CAS REGISTRY NO=2902-96-7
##$NIST MASS SPEC NO=107813
##MOLFORM=C3 H7 N O3
##MW=105
##$NIST SOURCE=MSDC
##XUNITS=M/Z
##YUNITS=RELATIVE INTENSITY
##XFACTOR=1
##YFACTOR=1
##FIRSTX=13
##LASTX=87
##FIRSTY=104
##MAXX=87
##MINX=13
##MAXY=9999
##MINY=49
##NPOINTS=34
##PEAK TABLE=(XY..XY)
13,104 14,305 15,725 16,125
17,386 18,1679 19,49 25,129
26,799 27,3359 28,2419 29,9999
30,6881 31,3763 32,89 36,92
37,163 38,547 39,2997 40,1115
41,5160 42,715 43,927 44,1169
45,147 46,225 55,60 57,705
58,530 59,2526 60,94 73,93
75,430 87,53
##END=
