##TITLE=Bicyclo[3.1.1]heptane-2-methanol, 6,6-dimethyl-, acetate
##JCAMP-DX=4.24
##DATA TYPE=MASS SPECTRUM
##ORIGIN=N.W. Davies, Centr. Sci. Lab., Univ. Tasmania, Hobart, Australia
##OWNER=NIST Mass Spectrometry Data Center
Collection (C) 2014 copyright by the U.S. Secretary of Commerce
on behalf of the United States of America. All rights reserved.
##CAS REGISTRY NO=29021-36-1
##$NIST MASS SPEC NO=107029
##MOLFORM=C12 H20 O2
##MW=196
##$NIST SOURCE=MSDC
##XUNITS=M/Z
##YUNITS=RELATIVE INTENSITY
##XFACTOR=1
##YFACTOR=1
##FIRSTX=25
##LASTX=137
##FIRSTY=80
##MAXX=137
##MINX=25
##MAXY=9999
##MINY=70
##NPOINTS=64
##PEAK TABLE=(XY..XY)
25,80 26,90 27,940 38,70
39,1330 40,360 41,4350 42,450
43,9999 44,210 45,110 51,270
52,150 53,1080 54,780 55,2590
56,340 57,420 59,70 61,70
63,80 65,370 66,370 67,4410
68,1470 69,5310 70,400 71,160
73,230 77,800 78,330 79,2600
80,2900 81,3110 82,7080 83,750
84,380 85,70 89,80 91,920
92,830 93,9430 94,1890 95,3770
96,380 97,100 99,240 104,70
105,280 106,110 107,1680 108,700
109,240 110,70 111,80 119,270
121,4530 122,460 123,1210 124,100
134,70 135,200 136,2430 137,270
##END=
