##TITLE=2-Nonen-4-one, 2-methyl-
##JCAMP-DX=4.24
##DATA TYPE=MASS SPECTRUM
##ORIGIN=CARL DJERASSI DEPT OF CHEM STANFORD UNIV STANFORD CALIF 94305
##OWNER=NIST Mass Spectrometry Data Center
Collection (C) 2014 copyright by the U.S. Secretary of Commerce
on behalf of the United States of America. All rights reserved.
##CAS REGISTRY NO=2903-23-3
##$NIST MASS SPEC NO=46767
##MOLFORM=C10 H18 O
##MW=154
##$NIST SOURCE=MSDC
##XUNITS=M/Z
##YUNITS=RELATIVE INTENSITY
##XFACTOR=1
##YFACTOR=1
##FIRSTX=27
##LASTX=154
##FIRSTY=900
##MAXX=154
##MINX=27
##MAXY=9999
##MINY=100
##NPOINTS=33
##PEAK TABLE=(XY..XY)
27,900 29,900 39,900 40,200
41,1000 43,1900 51,100 53,500
54,200 55,2500 56,200 57,100
58,400 59,100 67,100 69,500
71,100 77,100 79,100 81,100
82,300 83,9999 84,600 85,100
93,100 96,100 97,100 98,2900
99,300 111,900 112,100 139,700
154,300
##END=
