##TITLE=Benzenemethanol, 2-(methylamino)-
##JCAMP-DX=4.24
##DATA TYPE=MASS SPECTRUM
##ORIGIN=ORMSBG,9(1)125(1974); ECKHARDT
##OWNER=NIST Mass Spectrometry Data Center
Collection (C) 2014 copyright by the U.S. Secretary of Commerce
on behalf of the United States of America. All rights reserved.
##CAS REGISTRY NO=29055-08-1
##$NIST MASS SPEC NO=44587
##MOLFORM=C8 H11 N O
##MW=137
##$NIST SOURCE=MSDC
##XUNITS=M/Z
##YUNITS=RELATIVE INTENSITY
##XFACTOR=1
##YFACTOR=1
##FIRSTX=51
##LASTX=138
##FIRSTY=1040
##MAXX=138
##MINX=51
##MAXY=9999
##MINY=520
##NPOINTS=17
##PEAK TABLE=(XY..XY)
51,1040 63,630 65,1040 66,520
77,2090 78,1720 91,3660 92,650
93,1190 94,900 106,960 117,750
118,9999 119,2090 120,1420 137,6160
138,620
##END=
