##TITLE=(+)-4-Carene
##JCAMP-DX=4.24
##DATA TYPE=MASS SPECTRUM
##ORIGIN=Philip Morris R&D
##OWNER=NIST Mass Spectrometry Data Center
Collection (C) 2014 copyright by the U.S. Secretary of Commerce
on behalf of the United States of America. All rights reserved.
##CAS REGISTRY NO=29050-33-7
##$NIST MASS SPEC NO=109273
##MOLFORM=C10 H16
##MW=136
##$NIST SOURCE=MSDC
##XUNITS=M/Z
##YUNITS=RELATIVE INTENSITY
##XFACTOR=1
##YFACTOR=1
##FIRSTX=36
##LASTX=138
##FIRSTY=63
##MAXX=138
##MINX=36
##MAXY=9999
##MINY=1
##NPOINTS=75
##PEAK TABLE=(XY..XY)
36,63 37,18 38,122 39,1406
40,237 41,1962 42,120 43,1852
44,93 45,35 46,10 47,1
49,13 50,128 51,570 52,268
53,830 54,73 55,820 56,36
57,67 58,182 59,195 60,89
61,136 62,51 63,149 64,79
65,635 66,125 67,661 68,187
69,97 70,6 74,22 75,20
76,7 77,3066 78,447 79,3429
80,771 81,310 82,23 86,11
87,2 88,8 89,46 90,14
91,3714 92,1160 93,9999 94,950
95,119 102,19 103,246 104,55
105,1870 106,473 107,1277 108,444
109,33 115,62 116,10 117,69
118,2 119,387 120,73 121,8797
122,854 123,37 134,2 135,69
136,6225 137,643 138,21
##END=
