##TITLE=N,N-Dimethyl-4-t-butylbenzeneamine
##JCAMP-DX=4.24
##DATA TYPE=MASS SPECTRUM
##ORIGIN=Chuck Anderson, Aldrich Chemical Co.
##OWNER=NIST Mass Spectrometry Data Center
Collection (C) 2014 copyright by the U.S. Secretary of Commerce
on behalf of the United States of America. All rights reserved.
##CAS REGISTRY NO=2909-79-7
##$NIST MASS SPEC NO=107854
##MOLFORM=C12 H19 N
##MW=177
##$NIST SOURCE=MSDC
##XUNITS=M/Z
##YUNITS=RELATIVE INTENSITY
##XFACTOR=1
##YFACTOR=1
##FIRSTX=15
##LASTX=179
##FIRSTY=53
##MAXX=179
##MINX=15
##MAXY=9999
##MINY=3
##NPOINTS=88
##PEAK TABLE=(XY..XY)
15,53 27,89 28,69 29,69
30,3 38,11 39,189 40,23
41,211 42,189 43,28 44,64
50,51 51,153 52,47 53,50
54,7 55,29 56,11 57,34
58,51 59,7 62,22 63,114
64,56 65,187 66,29 67,632
68,7 70,38 71,13 72,19
73,223 74,59 75,51 76,62
77,408 78,162 79,206 80,136
81,244 89,92 90,63 91,396
92,55 93,27 94,11 101,32
102,117 103,180 104,146 105,108
106,113 107,119 108,12 115,251
116,113 117,271 118,338 119,81
120,408 121,373 122,235 123,17
128,46 129,34 130,223 131,144
132,177 133,34 134,640 135,67
143,7 144,133 145,126 146,892
147,1430 148,178 158,20 160,495
161,283 162,9999 163,1116 164,63
176,118 177,2389 178,306 179,17
##END=
