##TITLE=2-Amino-5,6-dimethylbenzimidazole
##JCAMP-DX=4.24
##DATA TYPE=MASS SPECTRUM
##ORIGIN=Japan AIST/NIMC Database- Spectrum MS-NW-6212
##OWNER=NIST Mass Spectrometry Data Center
Collection (C) 2014 copyright by the U.S. Secretary of Commerce
on behalf of the United States of America. All rights reserved.
##CAS REGISTRY NO=29096-75-1
##$NIST MASS SPEC NO=234708
##MOLFORM=C9 H11 N3
##MW=161
##$NIST SOURCE=MSDC
##XUNITS=M/Z
##YUNITS=RELATIVE INTENSITY
##XFACTOR=1
##YFACTOR=1
##FIRSTX=15
##LASTX=163
##FIRSTY=30
##MAXX=163
##MINX=15
##MAXY=9999
##MINY=10
##NPOINTS=100
##PEAK TABLE=(XY..XY)
15,30 17,10 18,30 26,30
27,169 28,289 29,40 30,10
37,60 38,159 39,569 40,129
41,219 42,80 43,329 44,30
49,20 50,159 51,339 52,259
53,159 54,80 55,30 56,10
57,10 58,20 59,30 60,20
61,40 62,80 63,229 64,179
65,469 66,239 67,189 68,40
69,10 71,10 72,50 73,149
74,40 75,70 76,129 77,369
78,189 79,279 80,299 81,50
82,10 84,10 86,10 87,20
88,30 89,189 90,159 91,649
92,319 93,129 94,40 95,10
100,10 101,10 102,70 103,80
104,209 105,129 106,289 107,99
108,30 114,10 115,20 116,279
117,249 118,589 119,319 120,169
121,30 129,50 130,20 131,129
132,149 133,459 134,159 135,30
136,10 141,10 142,30 143,90
144,70 145,60 146,3979 147,439
148,20 157,20 158,129 159,309
160,5799 161,9999 162,1149 163,60
##END=
