##TITLE=1,3-Benzenediamine, 2,4-dinitro-N3,N3-dipropyl-6-(trifluoromethyl)-
##JCAMP-DX=4.24
##DATA TYPE=MASS SPECTRUM
##ORIGIN=NIST Mass Spectrometry Data Center, 2009
##OWNER=NIST Mass Spectrometry Data Center
Collection (C) 2014 copyright by the U.S. Secretary of Commerce
on behalf of the United States of America. All rights reserved.
##CAS REGISTRY NO=29091-21-2
##$NIST MASS SPEC NO=373000
##MOLFORM=C13 H17 F3 N4 O4
##MW=350
##$NIST SOURCE=MSDC
##XUNITS=M/Z
##YUNITS=RELATIVE INTENSITY
##XFACTOR=1
##YFACTOR=1
##FIRSTX=15
##LASTX=352
##FIRSTY=20
##MAXX=352
##MINX=15
##MAXY=9999
##MINY=10
##NPOINTS=294
##PEAK TABLE=(XY..XY)
15,20 26,30 27,1141 28,280
29,571 30,210 31,40 33,10
37,10 38,30 39,520 40,100
41,3633 42,520 43,5135 44,390
45,30 46,40 47,20 48,10
50,50 51,120 52,380 53,230
54,180 55,170 56,270 57,981
58,160 59,60 60,30 61,20
62,50 63,150 64,160 65,210
66,210 67,200 68,150 69,370
70,160 71,30 72,90 73,10
74,30 75,220 76,260 77,250
78,230 79,150 80,90 81,160
82,100 83,50 84,40 85,50
86,20 87,140 88,180 89,240
90,310 91,280 92,150 93,140
94,80 95,120 96,90 97,50
98,50 99,70 100,150 101,200
102,240 103,260 104,140 105,200
106,130 107,160 108,150 109,160
110,70 111,50 112,100 113,290
114,380 115,180 116,180 117,290
118,210 119,210 120,490 121,290
122,310 123,120 124,50 125,90
126,601 127,540 128,571 129,270
130,140 131,230 132,380 133,340
134,270 135,250 136,100 137,50
138,140 139,470 140,751 141,1281
142,320 143,200 144,190 145,370
146,691 147,811 148,1321 149,270
150,70 151,110 152,190 153,601
154,550 155,581 156,290 157,130
158,260 159,480 160,961 161,390
162,260 163,250 164,110 165,180
166,480 167,420 168,621 169,420
170,150 171,300 172,290 173,410
174,470 175,550 176,260 177,80
178,240 179,130 180,330 181,370
182,320 183,480 184,330 185,200
186,851 187,661 188,721 189,290
190,460 191,160 192,90 193,150
194,200 195,150 196,310 197,200
198,120 199,90 200,330 201,581
202,380 203,1181 204,230 205,1141
206,150 207,90 208,200 209,310
210,140 211,200 212,130 213,410
214,250 215,180 216,1251 217,611
218,180 219,180 220,70 221,350
222,100 223,40 224,40 225,390
226,120 227,270 228,430 229,460
230,280 231,460 232,520 233,170
234,581 235,460 236,90 237,170
238,40 239,60 240,120 241,90
242,120 243,360 244,160 245,90
246,681 247,440 248,70 249,30
250,40 251,150 252,40 253,20
254,30 255,240 256,60 257,60
258,250 259,300 260,80 261,60
262,100 263,370 264,40 265,10
266,10 267,10 269,30 270,40
271,60 272,30 273,90 274,270
275,2092 276,270 277,60 278,70
279,2793 280,290 281,40 282,10
283,10 284,10 285,30 286,20
287,30 288,861 289,150 290,30
291,40 292,10 293,60 294,10
297,20 299,10 300,10 301,20
302,10 303,50 304,30 305,961
306,130 307,30 313,10 314,10
315,10 316,110 317,90 318,20
319,30 321,9999 322,1361 323,160
324,20 331,440 332,70 333,1742
334,270 335,40 349,20 350,290
351,50 352,10
##END=
