##TITLE=Cycloheptane
##JCAMP-DX=4.24
##DATA TYPE=MASS SPECTRUM
##ORIGIN=Japan AIST/NIMC Database- Spectrum MS-NW-3926
##OWNER=NIST Mass Spectrometry Data Center
Collection (C) 2014 copyright by the U.S. Secretary of Commerce
on behalf of the United States of America. All rights reserved.
##CAS REGISTRY NO=291-64-5
##$NIST MASS SPEC NO=231525
##MOLFORM=C7 H14
##MW=98
##$NIST SOURCE=MSDC
##XUNITS=M/Z
##YUNITS=RELATIVE INTENSITY
##XFACTOR=1
##YFACTOR=1
##FIRSTX=14
##LASTX=100
##FIRSTY=20
##MAXX=100
##MINX=14
##MAXY=9999
##MINY=10
##NPOINTS=59
##PEAK TABLE=(XY..XY)
14,20 15,169 26,239 27,2319
28,329 29,2389 30,80 37,60
38,219 39,3089 40,619 41,7759
42,7539 43,1409 44,40 45,30
46,30 49,20 50,159 51,289
52,129 53,849 54,1839 55,9679
56,9999 57,1789 58,80 61,30
62,60 63,99 64,20 65,199
66,169 67,1319 68,2719 69,6169
70,8569 71,509 72,10 74,20
77,109 78,30 79,149 80,40
81,749 82,459 83,4859 84,369
85,10 89,10 91,199 92,139
93,30 95,109 96,339 97,169
98,6289 99,499 100,20
##END=
