##TITLE=1,3,5-Trithiane
##JCAMP-DX=4.24
##DATA TYPE=MASS SPECTRUM
##ORIGIN=Japan AIST/NIMC Database- Spectrum MS-NW-6848
##OWNER=NIST Mass Spectrometry Data Center
Collection (C) 2014 copyright by the U.S. Secretary of Commerce
on behalf of the United States of America. All rights reserved.
##CAS REGISTRY NO=291-21-4
##$NIST MASS SPEC NO=236249
##MOLFORM=C3 H6 S3
##MW=138
##$NIST SOURCE=MSDC
##XUNITS=M/Z
##YUNITS=RELATIVE INTENSITY
##XFACTOR=1
##YFACTOR=1
##FIRSTX=12
##LASTX=142
##FIRSTY=10
##MAXX=142
##MINX=12
##MAXY=9999
##MINY=10
##NPOINTS=64
##PEAK TABLE=(XY..XY)
12,10 13,20 14,30 15,10
26,20 27,209 28,70 29,30
30,20 32,129 33,60 34,99
35,20 44,379 45,4609 46,7029
47,1549 48,369 49,70 56,20
57,90 58,279 59,919 60,1399
61,669 62,289 63,40 64,1759
65,30 66,179 68,10 73,1449
74,259 75,80 76,229 77,239
78,349 79,90 80,30 88,10
90,60 91,1099 92,3099 93,299
94,309 95,20 96,10 103,10
105,249 106,20 107,20 110,519
111,20 112,70 122,50 123,139
124,10 125,20 137,30 138,9999
139,619 140,1419 141,90 142,80
##END=
