##TITLE=1,2,4,5-Tetrathiane
##JCAMP-DX=4.24
##DATA TYPE=MASS SPECTRUM
##ORIGIN=PYTCAS 20(11) 2521(1981); R GMELIN ET AL
##OWNER=NIST Mass Spectrometry Data Center
Collection (C) 2014 copyright by the U.S. Secretary of Commerce
on behalf of the United States of America. All rights reserved.
##CAS REGISTRY NO=291-22-5
##$NIST MASS SPEC NO=77892
##MOLFORM=C2 H4 S4
##MW=156
##$NIST SOURCE=MSDC
##XUNITS=M/Z
##YUNITS=RELATIVE INTENSITY
##XFACTOR=1
##YFACTOR=1
##FIRSTX=45
##LASTX=158
##FIRSTY=9999
##MAXX=158
##MINX=45
##MAXY=9999
##MINY=400
##NPOINTS=14
##PEAK TABLE=(XY..XY)
45,9999 46,7400 47,600 48,600
64,3800 66,400 76,700 77,500
78,2100 110,5900 112,700 124,600
156,6900 158,1200
##END=
