##TITLE=4'-Fluorovalerophenone
##JCAMP-DX=4.24
##DATA TYPE=MASS SPECTRUM
##ORIGIN=NIST Mass Spectrometry Data Center
##OWNER=NIST Mass Spectrometry Data Center
Collection (C) 2014 copyright by the U.S. Secretary of Commerce
on behalf of the United States of America. All rights reserved.
##CAS REGISTRY NO=29114-66-7
##$NIST MASS SPEC NO=343368
##MOLFORM=C11 H13 F O
##MW=180
##$NIST SOURCE=MSDC
##XUNITS=M/Z
##YUNITS=RELATIVE INTENSITY
##XFACTOR=1
##YFACTOR=1
##FIRSTX=14
##LASTX=181
##FIRSTY=10
##MAXX=181
##MINX=14
##MAXY=9999
##MINY=10
##NPOINTS=78
##PEAK TABLE=(XY..XY)
14,10 15,110 18,10 26,120
27,931 28,180 29,721 30,10
31,10 37,10 38,60 39,500
40,50 41,420 42,110 43,100
45,10 50,320 51,250 52,20
53,60 55,290 56,30 57,190
58,10 61,20 62,40 63,90
64,10 65,10 68,120 69,240
70,60 73,20 74,220 75,1491
76,140 77,50 81,30 82,10
83,100 85,10 87,10 89,10
92,20 93,60 95,4084 96,510
97,40 99,10 101,40 102,10
103,30 104,10 107,40 109,170
110,50 115,10 119,10 120,30
121,50 123,9999 124,721 125,50
133,70 134,10 135,10 138,4394
139,380 140,20 146,20 147,10
149,10 151,290 152,30 179,10
180,110 181,10
##END=
