##TITLE=.alpha.-Chlorophenylacetyl chloride
##JCAMP-DX=4.24
##DATA TYPE=MASS SPECTRUM
##ORIGIN=NIST Mass Spectrometry Data Center
##OWNER=NIST Mass Spectrometry Data Center
Collection (C) 2014 copyright by the U.S. Secretary of Commerce
on behalf of the United States of America. All rights reserved.
##CAS REGISTRY NO=2912-62-1
##$NIST MASS SPEC NO=340954
##MOLFORM=C8 H6 Cl2 O
##MW=188
##$NIST SOURCE=MSDC
##XUNITS=M/Z
##YUNITS=RELATIVE INTENSITY
##XFACTOR=1
##YFACTOR=1
##FIRSTX=26
##LASTX=192
##FIRSTY=20
##MAXX=192
##MINX=26
##MAXY=9999
##MINY=10
##NPOINTS=62
##PEAK TABLE=(XY..XY)
26,20 27,20 35,30 36,10
37,90 38,160 39,330 40,30
43,70 44,110 48,10 49,70
50,340 51,330 52,40 53,10
59,30 60,30 61,220 62,581
63,1391 64,300 65,120 72,10
73,150 74,110 75,140 76,30
77,40 84,30 85,80 86,130
87,110 88,40 89,2392 90,1211
91,90 97,50 98,10 99,410
100,20 101,140 102,10 112,10
118,470 119,40 123,40 124,170
125,9999 126,861 127,3443 128,260
152,90 153,10 154,30 159,10
161,10 188,520 189,40 190,330
191,20 192,50
##END=
