##TITLE=Pentadecane, 2-methyl-2-phenyl-
##JCAMP-DX=4.24
##DATA TYPE=MASS SPECTRUM
##OWNER=NIST Mass Spectrometry Data Center
Collection (C) 2014 copyright by the U.S. Secretary of Commerce
on behalf of the United States of America. All rights reserved.
##CAS REGISTRY NO=29138-94-1
##$NIST MASS SPEC NO=14412
##MOLFORM=C22 H38
##MW=302
##$NIST SOURCE=MSDC
##XUNITS=M/Z
##YUNITS=RELATIVE INTENSITY
##XFACTOR=1
##YFACTOR=1
##FIRSTX=12
##LASTX=303
##FIRSTY=10
##MAXX=303
##MINX=12
##MAXY=9999
##MINY=10
##NPOINTS=111
##PEAK TABLE=(XY..XY)
12,10 13,10 14,10 15,20
16,10 26,20 27,330 28,140
29,701 30,20 37,10 38,10
39,220 40,40 41,1531 42,220
43,1021 44,80 45,10 50,10
51,60 52,20 53,70 54,40
55,440 56,140 57,330 58,20
62,10 63,10 64,10 65,50
66,10 67,40 68,20 69,150
70,70 71,100 72,10 74,10
75,10 76,10 77,150 78,90
79,270 80,20 81,10 82,10
83,40 84,10 85,50 86,10
89,20 90,20 91,1601 92,140
93,10 95,10 96,10 97,20
98,10 99,10 101,10 102,20
103,160 104,60 105,661 106,60
107,10 111,10 112,10 113,10
115,80 116,40 117,140 118,390
119,9999 120,971 121,40 122,10
125,10 127,10 128,20 129,20
130,10 131,60 132,20 133,20
134,10 141,10 142,10 143,10
144,10 145,20 146,10 147,10
153,20 154,10 155,10 159,10
161,10 175,10 210,10 211,10
231,10 245,10 285,10 287,20
288,10 302,130 303,40
##END=
