##TITLE=1-Pyrrolidinylacetonitrile
##JCAMP-DX=4.24
##DATA TYPE=MASS SPECTRUM
##ORIGIN=NIST Mass Spectrometry Data Center
##OWNER=NIST Mass Spectrometry Data Center
Collection (C) 2014 copyright by the U.S. Secretary of Commerce
on behalf of the United States of America. All rights reserved.
##CAS REGISTRY NO=29134-29-0
##$NIST MASS SPEC NO=342539
##MOLFORM=C6 H10 N2
##MW=110
##$NIST SOURCE=MSDC
##XUNITS=M/Z
##YUNITS=RELATIVE INTENSITY
##XFACTOR=1
##YFACTOR=1
##FIRSTX=12
##LASTX=111
##FIRSTY=140
##MAXX=111
##MINX=12
##MAXY=9999
##MINY=10
##NPOINTS=42
##PEAK TABLE=(XY..XY)
12,140 13,110 14,280 15,891
16,10 25,130 26,801 27,2232
28,2742 30,270 35,40 37,220
38,671 39,2803 40,2973 41,4064
42,9999 43,1261 50,130 51,220
52,330 53,510 54,741 55,1021
56,210 57,751 64,60 65,70
67,2142 68,601 69,520 70,260
78,40 79,30 80,280 82,4524
83,390 84,470 107,110 109,3783
110,2182 111,130
##END=
