##TITLE=Ethanol, 2-(trimethylsilyl)-
##JCAMP-DX=4.24
##DATA TYPE=MASS SPECTRUM
##ORIGIN=Japan AIST/NIMC Database- Spectrum MS-NW-6417
##OWNER=NIST Mass Spectrometry Data Center
Collection (C) 2014 copyright by the U.S. Secretary of Commerce
on behalf of the United States of America. All rights reserved.
##CAS REGISTRY NO=2916-68-9
##$NIST MASS SPEC NO=236244
##MOLFORM=C5 H14 O Si
##MW=118
##$NIST SOURCE=MSDC
##XUNITS=M/Z
##YUNITS=RELATIVE INTENSITY
##XFACTOR=1
##YFACTOR=1
##FIRSTX=15
##LASTX=101
##FIRSTY=50
##MAXX=101
##MINX=15
##MAXY=9999
##MINY=10
##NPOINTS=43
##PEAK TABLE=(XY..XY)
15,50 16,10 18,10 26,20
27,80 28,60 29,149 30,10
31,99 32,10 39,10 41,10
42,90 43,449 44,149 45,449
46,30 47,579 48,30 49,10
53,50 54,10 55,70 56,10
57,50 58,50 59,179 60,50
61,139 62,10 66,10 70,10
71,20 72,80 73,1549 74,149
75,9999 76,749 77,369 78,10
85,10 87,10 101,20
##END=
