##TITLE=1,3-Dioxolane, 2,2-dimethyl-
##JCAMP-DX=4.24
##DATA TYPE=MASS SPECTRUM
##ORIGIN=Japan AIST/NIMC Database- Spectrum MS-NW-1054
##OWNER=NIST Mass Spectrometry Data Center
Collection (C) 2014 copyright by the U.S. Secretary of Commerce
on behalf of the United States of America. All rights reserved.
##CAS REGISTRY NO=2916-31-6
##$NIST MASS SPEC NO=230699
##MOLFORM=C5 H10 O2
##MW=102
##$NIST SOURCE=MSDC
##XUNITS=M/Z
##YUNITS=RELATIVE INTENSITY
##XFACTOR=1
##YFACTOR=1
##FIRSTX=13
##LASTX=101
##FIRSTY=10
##MAXX=101
##MINX=13
##MAXY=9999
##MINY=10
##NPOINTS=39
##PEAK TABLE=(XY..XY)
13,10 14,109 15,679 16,30
17,30 18,109 25,10 26,119
27,429 28,359 29,429 30,40
31,349 32,20 37,20 38,70
39,589 40,229 41,1099 42,2589
43,9999 44,399 45,279 53,10
55,20 57,119 58,319 59,449
60,20 61,139 72,1519 73,119
83,20 85,10 86,20 87,7449
88,339 89,40 101,40
##END=
