##TITLE=Methanol, (trimethylsilyl)-, acetate
##JCAMP-DX=4.24
##DATA TYPE=MASS SPECTRUM
##ORIGIN=Japan AIST/NIMC Database- Spectrum MS-IW-1290
##OWNER=NIST Mass Spectrometry Data Center
Collection (C) 2014 copyright by the U.S. Secretary of Commerce
on behalf of the United States of America. All rights reserved.
##CAS REGISTRY NO=2917-65-9
##$NIST MASS SPEC NO=239638
##MOLFORM=C6 H14 O2 Si
##MW=146
##$NIST SOURCE=MSDC
##XUNITS=M/Z
##YUNITS=RELATIVE INTENSITY
##XFACTOR=1
##YFACTOR=1
##FIRSTX=14
##LASTX=147
##FIRSTY=10
##MAXX=147
##MINX=14
##MAXY=9999
##MINY=10
##NPOINTS=56
##PEAK TABLE=(XY..XY)
14,10 15,149 27,20 28,99
29,239 30,20 31,159 39,10
41,20 42,149 43,2749 44,359
45,1309 46,90 47,209 53,60
54,10 55,109 56,30 57,109
58,279 59,589 60,129 61,5099
62,319 63,179 70,30 71,50
72,489 73,9999 74,979 75,789
76,40 77,20 87,50 88,50
89,2469 90,209 91,119 101,909
102,90 103,1359 104,959 105,189
106,40 107,10 115,10 116,969
117,109 118,40 119,10 131,3099
132,329 133,139 146,50 147,20
##END=
