##TITLE=Ethyl loflazepate
##JCAMP-DX=4.24
##DATA TYPE=MASS SPECTRUM
##ORIGIN=Dr. Jiri Zamecnik, DCIEM, North York, Canada, GP Library
##OWNER=NIST Mass Spectrometry Data Center
Collection (C) 2014 copyright by the U.S. Secretary of Commerce
on behalf of the United States of America. All rights reserved.
##CAS REGISTRY NO=29177-84-2
##$NIST MASS SPEC NO=122591
##MOLFORM=C18 H14 Cl F N2 O3
##MW=360
##$NIST SOURCE=MSDC
##XUNITS=M/Z
##YUNITS=RELATIVE INTENSITY
##XFACTOR=1
##YFACTOR=1
##FIRSTX=40
##LASTX=362
##FIRSTY=850
##MAXX=362
##MINX=40
##MAXY=9999
##MINY=150
##NPOINTS=48
##PEAK TABLE=(XY..XY)
40,850 43,790 44,820 59,360
73,270 75,770 81,260 83,660
95,290 98,200 102,1370 109,9460
111,540 120,180 122,230 123,470
135,320 137,330 138,330 151,400
166,9999 168,2800 170,440 177,280
180,210 183,210 193,270 195,670
197,390 207,410 223,500 231,200
239,310 241,200 252,370 259,690
260,600 269,150 275,1550 277,600
286,340 287,7050 289,2720 315,470
317,230 332,170 360,4220 362,1240
##END=
