##TITLE=6-Octen-1-yn-3-ol, 3,7-dimethyl-
##JCAMP-DX=4.24
##DATA TYPE=MASS SPECTRUM
##ORIGIN=V.Zaikin,Inst.Petrochem.Synth.,RAS,Moscow
##OWNER=NIST Mass Spectrometry Data Center
Collection (C) 2014 copyright by the U.S. Secretary of Commerce
on behalf of the United States of America. All rights reserved.
##CAS REGISTRY NO=29171-20-8
##$NIST MASS SPEC NO=293647
##MOLFORM=C10 H16 O
##MW=152
##$NIST SOURCE=MSDC
##XUNITS=M/Z
##YUNITS=RELATIVE INTENSITY
##XFACTOR=1
##YFACTOR=1
##FIRSTX=25
##LASTX=151
##FIRSTY=50
##MAXX=151
##MINX=25
##MAXY=9999
##MINY=30
##NPOINTS=89
##PEAK TABLE=(XY..XY)
25,50 26,260 27,1291 28,260
29,791 31,60 37,70 38,190
39,2642 40,721 41,7427 42,520
43,6156 44,180 45,130 49,30
50,290 51,711 52,280 53,1702
54,320 55,6486 56,1161 57,280
58,520 59,240 61,40 62,80
63,230 64,60 65,671 66,500
67,2893 68,1231 69,9969 70,621
71,1822 72,190 74,40 75,30
77,1011 78,360 79,2172 80,370
81,1191 82,761 83,1872 84,520
85,80 86,100 89,40 90,30
91,3843 92,1411 93,1251 94,1151
95,1491 96,190 97,160 102,40
103,420 104,410 105,1131 106,500
107,360 108,370 109,2602 110,370
111,180 115,180 116,50 117,691
118,150 119,9999 120,921 121,270
122,90 123,601 124,150 126,30
131,30 133,510 134,601 135,150
136,40 137,4694 138,470 139,30
151,50
##END=
