##TITLE=2-Propenamide, N-cyclohexyl-2-methyl-
##JCAMP-DX=4.24
##DATA TYPE=MASS SPECTRUM
##ORIGIN=NIST Mass Spectrometry Data Center
##OWNER=NIST Mass Spectrometry Data Center
Collection (C) 2014 copyright by the U.S. Secretary of Commerce
on behalf of the United States of America. All rights reserved.
##CAS REGISTRY NO=2918-67-4
##$NIST MASS SPEC NO=343317
##MOLFORM=C10 H17 N O
##MW=167
##$NIST SOURCE=MSDC
##XUNITS=M/Z
##YUNITS=RELATIVE INTENSITY
##XFACTOR=1
##YFACTOR=1
##FIRSTX=15
##LASTX=169
##FIRSTY=290
##MAXX=169
##MINX=15
##MAXY=9999
##MINY=10
##NPOINTS=76
##PEAK TABLE=(XY..XY)
15,290 17,10 18,80 26,140
27,1201 28,2022 29,861 30,440
32,10 37,60 39,4044 41,9999
42,1041 43,991 44,350 46,10
50,40 51,130 52,90 53,430
54,761 55,1461 56,621 58,1351
59,50 63,10 65,90 67,1111
69,9008 70,681 71,70 72,20
73,280 74,10 76,20 77,100
78,20 79,180 80,70 81,340
82,871 83,571 84,120 86,9879
87,500 88,30 92,20 93,20
94,50 95,80 96,370 97,350
98,1111 99,130 107,10 108,20
110,1161 111,140 112,100 113,10
121,10 122,20 124,1491 125,170
126,70 135,10 136,10 138,100
139,110 140,10 150,10 152,200
153,10 167,2052 168,250 169,10
##END=
