##TITLE=1,1-di-o-Tolylethylene
##JCAMP-DX=4.24
##DATA TYPE=MASS SPECTRUM
##ORIGIN=NIST Mass Spectrometry Data Center, 1994
##OWNER=NIST Mass Spectrometry Data Center
Collection (C) 2014 copyright by the U.S. Secretary of Commerce
on behalf of the United States of America. All rights reserved.
##CAS REGISTRY NO=2919-19-9
##$NIST MASS SPEC NO=135181
##MOLFORM=C16 H16
##MW=208
##$NIST SOURCE=MSDC
##XUNITS=M/Z
##YUNITS=RELATIVE INTENSITY
##XFACTOR=1
##YFACTOR=1
##FIRSTX=15
##LASTX=210
##FIRSTY=429
##MAXX=210
##MINX=15
##MAXY=9999
##MINY=25
##NPOINTS=93
##PEAK TABLE=(XY..XY)
15,429 26,131 27,1034 28,117
29,147 38,243 39,2133 40,220
41,340 50,529 51,1250 52,303
53,167 57,29 61,42 62,343
63,1264 64,265 65,1378 66,89
70,112 74,296 75,397 76,717
77,698 78,258 79,111 83,536
86,131 87,230 88,362 89,2065
90,201 91,1232 92,129 95,504
96,737 98,67 99,58 100,72
101,350 102,731 103,506 104,134
105,90 111,43 113,144 115,2988
116,622 117,109 125,34 126,165
127,263 128,437 129,148 137,27
139,350 140,56 141,113 142,47
149,30 150,160 151,316 152,755
153,181 154,30 163,214 164,239
165,1110 166,229 167,44 174,32
176,384 178,9999 179,1726 180,138
187,59 189,793 190,436 191,1077
192,59 193,8609 194,1324 195,104
200,48 201,43 202,145 203,93
204,36 205,49 208,1639 209,314
210,25
##END=
