##TITLE=Cyclooctane
##JCAMP-DX=4.24
##DATA TYPE=MASS SPECTRUM
##ORIGIN=Japan AIST/NIMC Database- Spectrum MS-NW- 826
##OWNER=NIST Mass Spectrometry Data Center
Collection (C) 2014 copyright by the U.S. Secretary of Commerce
on behalf of the United States of America. All rights reserved.
##CAS REGISTRY NO=292-64-8
##$NIST MASS SPEC NO=228916
##MOLFORM=C8 H16
##MW=112
##$NIST SOURCE=MSDC
##XUNITS=M/Z
##YUNITS=RELATIVE INTENSITY
##XFACTOR=1
##YFACTOR=1
##FIRSTX=15
##LASTX=114
##FIRSTY=99
##MAXX=114
##MINX=15
##MAXY=9999
##MINY=10
##NPOINTS=57
##PEAK TABLE=(XY..XY)
15,99 26,149 27,2219 28,559
29,2069 30,50 37,20 38,119
39,2849 40,559 41,8279 42,5859
43,4339 44,139 45,10 46,10
50,109 51,249 52,109 53,709
54,969 55,8229 56,9999 57,1629
58,60 62,20 63,50 64,10
65,129 66,60 67,1109 68,2179
69,5839 70,6579 71,839 72,30
74,10 77,99 78,30 79,99
80,10 81,149 82,1139 83,5349
84,3929 85,259 86,10 91,60
95,20 96,20 97,959 98,80
110,10 111,30 112,5859 113,539
114,20
##END=
