##TITLE=3-tert-Butyl-2-pyrazolin-5-one
##JCAMP-DX=4.24
##DATA TYPE=MASS SPECTRUM
##ORIGIN=Pu Leung, NIH, Bethesda, MD
##OWNER=NIST Mass Spectrometry Data Center
Collection (C) 2014 copyright by the U.S. Secretary of Commerce
on behalf of the United States of America. All rights reserved.
##CAS REGISTRY NO=29211-68-5
##$NIST MASS SPEC NO=211693
##MOLFORM=C7 H12 N2 O
##MW=140
##$NIST SOURCE=MSDC
##XUNITS=M/Z
##YUNITS=RELATIVE INTENSITY
##XFACTOR=1
##YFACTOR=1
##FIRSTX=41
##LASTX=142
##FIRSTY=1077
##MAXX=142
##MINX=41
##MAXY=9999
##MINY=20
##NPOINTS=46
##PEAK TABLE=(XY..XY)
41,1077 42,353 43,193 44,71
50,126 51,230 52,120 53,332
54,89 55,538 56,184 57,244
62,20 63,89 65,171 66,113
67,522 68,159 69,80 70,21
71,24 77,80 79,119 80,165
81,142 82,568 83,1005 84,105
85,622 95,158 96,55 97,1543
98,174 99,22 108,21 109,112
110,50 123,21 124,27 125,9999
126,757 127,22 139,90 140,5403
141,651 142,23
##END=
