##TITLE=Chlorpyrifos
##JCAMP-DX=4.24
##DATA TYPE=MASS SPECTRUM
##ORIGIN=MASS SPECTROMETRY CENTER, UNIV. OF UTAH EPA-PTSEL 2900
##OWNER=NIST Mass Spectrometry Data Center
Collection (C) 2014 copyright by the U.S. Secretary of Commerce
on behalf of the United States of America. All rights reserved.
##CAS REGISTRY NO=2921-88-2
##$NIST MASS SPEC NO=52493
##MOLFORM=C9 H11 Cl3 N O3 P S
##MW=349
##$NIST SOURCE=MSDC
##XUNITS=M/Z
##YUNITS=RELATIVE INTENSITY
##XFACTOR=1
##YFACTOR=1
##FIRSTX=15
##LASTX=353
##FIRSTY=462
##MAXX=353
##MINX=15
##MAXY=9999
##MINY=24
##NPOINTS=167
##PEAK TABLE=(XY..XY)
15,462 26,557 27,3578 29,7336
30,197 31,77 34,25 35,98
36,358 37,313 38,154 42,62
43,607 44,125 45,950 47,2115
48,234 49,297 53,179 59,178
60,424 61,169 62,373 63,1279
64,101 65,2663 69,24 71,170
72,496 73,207 74,269 75,322
76,65 79,379 80,560 81,828
82,70 83,198 84,197 85,151
86,120 91,184 93,764 94,63
96,467 97,9999 98,1737 99,810
100,599 101,27 106,77 107,1205
108,343 109,2135 110,424 111,217
112,61 113,103 114,390 115,183
119,171 121,547 123,122 125,3086
126,144 127,210 130,164 132,115
133,595 134,553 135,447 136,348
137,182 141,161 142,517 144,391
145,175 146,259 147,112 148,24
153,628 161,532 162,345 163,361
164,243 165,137 166,131 168,891
169,956 170,894 171,934 172,349
173,320 178,41 180,693 182,593
184,198 194,124 196,133 197,9052
198,1123 199,8843 200,1121 201,2836
202,423 203,356 204,25 207,428
208,2246 209,685 210,2201 211,403
212,994 213,1626 214,422 215,1631
216,192 217,585 219,61 224,146
226,121 228,102 240,30 241,142
242,27 243,193 244,814 245,142
246,677 248,292 257,373 258,2600
259,444 260,1952 261,234 262,552
272,61 274,31 276,708 277,131
278,681 279,30 280,264 285,144
286,2062 287,313 288,1735 289,192
290,602 292,434 294,380 296,166
304,328 306,332 308,124 314,4744
315,638 316,3453 317,406 318,850
319,107 320,111 349,651 350,63
351,674 352,33 353,246
##END=
