##TITLE=3-n-Propyl-2-pyrazolin-5-one
##JCAMP-DX=4.24
##DATA TYPE=MASS SPECTRUM
##ORIGIN=NIST Mass Spectrometry Data Center
##OWNER=NIST Mass Spectrometry Data Center
Collection (C) 2014 copyright by the U.S. Secretary of Commerce
on behalf of the United States of America. All rights reserved.
##CAS REGISTRY NO=29211-70-9
##$NIST MASS SPEC NO=341261
##MOLFORM=C6 H10 N2 O
##MW=126
##$NIST SOURCE=MSDC
##XUNITS=M/Z
##YUNITS=RELATIVE INTENSITY
##XFACTOR=1
##YFACTOR=1
##FIRSTX=15
##LASTX=127
##FIRSTY=50
##MAXX=127
##MINX=15
##MAXY=9999
##MINY=30
##NPOINTS=56
##PEAK TABLE=(XY..XY)
15,50 26,160 27,1011 29,891
30,130 31,130 32,80 37,120
38,320 39,2833 40,661 41,3553
42,611 43,550 44,260 45,50
50,220 51,340 52,260 53,671
54,340 55,1161 56,470 57,80
58,40 61,40 62,60 63,100
64,30 65,170 66,190 67,1641
68,370 69,811 70,260 71,40
75,30 77,50 79,70 80,90
81,190 82,100 83,280 84,210
85,80 95,80 97,7857 98,9999
99,530 109,90 110,60 111,1351
112,80 125,220 126,5385 127,390
##END=
