##TITLE=Mequitazine
##JCAMP-DX=4.24
##DATA TYPE=MASS SPECTRUM
##ORIGIN=Finnigan MAT: Toxicological Library (LIBR-TX)
##OWNER=NIST Mass Spectrometry Data Center
Collection (C) 2014 copyright by the U.S. Secretary of Commerce
on behalf of the United States of America. All rights reserved.
##CAS REGISTRY NO=29216-28-2
##$NIST MASS SPEC NO=120802
##MOLFORM=C20 H22 N2 S
##MW=322
##$NIST SOURCE=MSDC
##XUNITS=M/Z
##YUNITS=RELATIVE INTENSITY
##XFACTOR=1
##YFACTOR=1
##FIRSTX=41
##LASTX=324
##FIRSTY=707
##MAXX=324
##MINX=41
##MAXY=9999
##MINY=89
##NPOINTS=24
##PEAK TABLE=(XY..XY)
41,707 42,1180 44,1217 53,415
55,400 65,95 67,223 69,89
70,527 79,217 81,712 82,102
124,9999 125,928 154,97 166,103
167,102 180,407 198,585 199,289
212,619 322,2093 323,499 324,98
##END=
