##TITLE=3-Chloro-4-fluoroacetophenone
##JCAMP-DX=4.24
##DATA TYPE=MASS SPECTRUM
##ORIGIN=NIST Mass Spectrometry Data Center, 1994
##OWNER=NIST Mass Spectrometry Data Center
Collection (C) 2014 copyright by the U.S. Secretary of Commerce
on behalf of the United States of America. All rights reserved.
##CAS REGISTRY NO=2923-66-2
##$NIST MASS SPEC NO=136730
##MOLFORM=C8 H6 Cl F O
##MW=172
##$NIST SOURCE=MSDC
##XUNITS=M/Z
##YUNITS=RELATIVE INTENSITY
##XFACTOR=1
##YFACTOR=1
##FIRSTX=13
##LASTX=175
##FIRSTY=45
##MAXX=175
##MINX=13
##MAXY=9999
##MINY=3
##NPOINTS=81
##PEAK TABLE=(XY..XY)
13,45 14,244 15,1023 18,32
33,36 35,90 36,67 37,350
38,246 39,181 40,3 41,3
42,325 43,4392 44,134 47,87
49,201 50,1147 51,213 53,80
54,57 55,57 56,149 57,354
60,79 61,461 62,388 63,569
65,200 67,77 68,839 69,275
70,41 71,39 72,93 73,276
74,758 75,551 78,314 79,118
81,257 83,106 84,179 85,165
86,123 87,87 89,28 91,162
92,311 93,1387 94,1533 95,305
96,66 97,47 98,57 99,73
103,129 104,51 105,87 106,51
107,289 108,154 109,1113 110,96
111,316 117,85 119,47 122,170
129,5539 130,578 131,1910 132,168
143,108 157,9999 158,808 159,3319
160,262 172,2837 173,286 174,967
175,73
##END=
