##TITLE=Allo-Inositol, 6TMS derivative
##JCAMP-DX=4.24
##DATA TYPE=MASS SPECTRUM
##OWNER=NIST Mass Spectrometry Data Center
Collection (C) 2014 copyright by the U.S. Secretary of Commerce
on behalf of the United States of America. All rights reserved.
##CAS REGISTRY NO=29267-02-5
##$NIST MASS SPEC NO=18522
##MOLFORM=C24 H60 O6 Si6
##MW=612
##$NIST SOURCE=MSDC
##XUNITS=M/Z
##YUNITS=RELATIVE INTENSITY
##XFACTOR=1
##YFACTOR=1
##FIRSTX=73
##LASTX=612
##FIRSTY=9999
##MAXX=612
##MINX=73
##MAXY=9999
##MINY=10
##NPOINTS=39
##PEAK TABLE=(XY..XY)
73,9999 74,310 103,581 104,40
129,841 130,90 133,671 134,40
147,3733 148,360 189,130 191,2272
192,270 204,841 205,90 217,3513
218,400 221,340 265,1511 266,180
291,360 293,210 305,2582 306,310
318,4444 319,530 320,90 343,130
367,530 368,90 393,270 417,60
419,50 432,250 433,360 434,40
507,290 597,10 612,10
##END=
