##TITLE=2-Methoxyresorcinol
##JCAMP-DX=4.24
##DATA TYPE=MASS SPECTRUM
##ORIGIN=NIST Mass Spectrometry Data Center, 1990.
##OWNER=NIST Mass Spectrometry Data Center
Collection (C) 2014 copyright by the U.S. Secretary of Commerce
on behalf of the United States of America. All rights reserved.
##CAS REGISTRY NO=29267-67-2
##$NIST MASS SPEC NO=113401
##MOLFORM=C7 H8 O3
##MW=140
##$NIST SOURCE=MSDC
##XUNITS=M/Z
##YUNITS=RELATIVE INTENSITY
##XFACTOR=1
##YFACTOR=1
##FIRSTX=14
##LASTX=141
##FIRSTY=78
##MAXX=141
##MINX=14
##MAXY=9999
##MINY=70
##NPOINTS=48
##PEAK TABLE=(XY..XY)
14,78 15,354 27,166 28,204
29,368 37,252 38,553 39,1482
40,302 41,408 42,393 43,144
49,159 50,707 51,2585 52,535
53,1021 54,170 55,694 61,107
62,169 63,303 64,90 65,432
66,284 67,275 68,1255 69,314
70,70 71,81 77,135 79,2042
80,195 81,307 93,237 94,91
95,266 96,91 97,8849 98,500
107,1145 108,117 111,336 125,9999
126,657 127,86 140,6290 141,462
##END=
