##TITLE=1-(4-Fluorophenyl)-2-methyl-2-propanol
##JCAMP-DX=4.24
##DATA TYPE=MASS SPECTRUM
##ORIGIN=NIST Mass Spectrometry Data Center, 1994
##OWNER=NIST Mass Spectrometry Data Center
Collection (C) 2014 copyright by the U.S. Secretary of Commerce
on behalf of the United States of America. All rights reserved.
##CAS REGISTRY NO=2928-17-8
##$NIST MASS SPEC NO=136589
##MOLFORM=C10 H13 F O
##MW=168
##$NIST SOURCE=MSDC
##XUNITS=M/Z
##YUNITS=RELATIVE INTENSITY
##XFACTOR=1
##YFACTOR=1
##FIRSTX=13
##LASTX=168
##FIRSTY=11
##MAXX=168
##MINX=13
##MAXY=9999
##MINY=8
##NPOINTS=89
##PEAK TABLE=(XY..XY)
13,11 14,21 15,597 16,10
17,8 18,48 19,32 20,21
26,13 27,278 29,287 31,2348
33,66 37,30 38,119 39,771
40,70 41,953 42,165 43,3321
44,114 50,203 51,324 52,52
53,63 55,113 57,1064 59,9999
60,329 61,73 62,180 63,459
64,69 65,70 67,80 68,39
69,74 70,95 71,19 75,214
77,128 78,22 79,18 80,20
81,187 82,18 83,1373 84,74
85,19 86,32 87,39 88,21
89,193 90,44 91,299 92,26
94,35 95,87 96,130 97,52
100,11 101,64 102,19 103,42
105,32 107,350 109,3339 110,5646
111,415 112,17 115,122 116,14
120,30 121,23 122,20 123,49
125,13 127,9 133,209 134,99
135,326 136,40 149,16 150,27
151,66 152,16 153,766 154,58
168,17
##END=
