##TITLE=1,3,5,7-Tetroxane
##JCAMP-DX=4.24
##DATA TYPE=MASS SPECTRUM
##ORIGIN=Organic Synthesis Lab, MSU, Moscow.TRC 1463
##OWNER=NIST Mass Spectrometry Data Center
Collection (C) 2014 copyright by the U.S. Secretary of Commerce
on behalf of the United States of America. All rights reserved.
##CAS REGISTRY NO=293-30-1
##$NIST MASS SPEC NO=326794
##MOLFORM=C4 H8 O4
##MW=120
##$NIST SOURCE=MSDC
##XUNITS=M/Z
##YUNITS=RELATIVE INTENSITY
##XFACTOR=1
##YFACTOR=1
##FIRSTX=37
##LASTX=121
##FIRSTY=59
##MAXX=121
##MINX=37
##MAXY=9999
##MINY=59
##NPOINTS=9
##PEAK TABLE=(XY..XY)
37,59 43,119 44,389 61,9999
62,119 72,99 89,219 91,1189
121,129
##END=
