##TITLE=Cyclodecane
##JCAMP-DX=4.24
##DATA TYPE=MASS SPECTRUM
##ORIGIN=NIST Mass Spectrometry Data Center, 1992
##OWNER=NIST Mass Spectrometry Data Center
Collection (C) 2014 copyright by the U.S. Secretary of Commerce
on behalf of the United States of America. All rights reserved.
##CAS REGISTRY NO=293-96-9
##$NIST MASS SPEC NO=125074
##MOLFORM=C10 H20
##MW=140
##$NIST SOURCE=MSDC
##XUNITS=M/Z
##YUNITS=RELATIVE INTENSITY
##XFACTOR=1
##YFACTOR=1
##FIRSTX=13
##LASTX=141
##FIRSTY=21
##MAXX=141
##MINX=13
##MAXY=9999
##MINY=13
##NPOINTS=64
##PEAK TABLE=(XY..XY)
13,21 14,27 15,191 16,32
26,273 27,3210 28,1130 29,3372
30,65 37,36 39,3870 40,879
41,9726 42,3912 43,3879 44,136
45,20 46,16 50,76 51,221
52,130 53,958 54,1323 55,9999
56,6546 57,2239 58,93 62,13
63,37 65,208 66,185 67,1491
68,2389 69,5857 70,5906 71,786
72,35 76,15 77,119 78,39
79,139 80,15 81,475 82,2025
83,4491 84,2677 85,468 86,24
91,42 93,22 95,137 96,621
97,2967 98,1085 99,88 107,13
110,219 111,1587 112,1140 113,101
125,41 138,14 140,1887 141,190
##END=
