##TITLE=Phenol, 2,4-bis(1-methylethyl)-
##JCAMP-DX=4.24
##DATA TYPE=MASS SPECTRUM
##ORIGIN=Japan AIST/NIMC Database- Spectrum MS-IW-3810
##OWNER=NIST Mass Spectrometry Data Center
Collection (C) 2014 copyright by the U.S. Secretary of Commerce
on behalf of the United States of America. All rights reserved.
##CAS REGISTRY NO=2934-05-6
##$NIST MASS SPEC NO=236408
##MOLFORM=C12 H18 O
##MW=178
##$NIST SOURCE=MSDC
##XUNITS=M/Z
##YUNITS=RELATIVE INTENSITY
##XFACTOR=1
##YFACTOR=1
##FIRSTX=15
##LASTX=180
##FIRSTY=10
##MAXX=180
##MINX=15
##MAXY=9999
##MINY=10
##NPOINTS=101
##PEAK TABLE=(XY..XY)
15,10 27,139 28,10 29,30
38,10 39,199 40,20 41,369
42,10 43,739 44,20 50,40
51,209 52,50 53,109 54,10
55,90 57,30 58,40 59,10
60,30 62,20 63,99 64,60
65,189 66,80 67,99 69,20
70,10 71,10 72,30 73,119
74,379 75,40 76,20 77,489
78,90 79,129 80,10 81,40
87,10 89,50 90,20 91,499
92,50 93,99 94,30 95,70
101,20 102,50 103,429 104,70
105,159 106,20 107,629 108,50
109,10 115,319 116,80 117,189
118,30 119,109 120,70 121,1259
122,109 123,10 126,10 127,90
128,219 129,149 130,129 131,60
132,50 133,109 134,40 135,769
136,80 137,10 139,10 141,119
142,70 143,20 144,10 145,99
146,30 147,349 148,99 149,99
150,10 161,90 162,40 163,9999
164,1229 165,90 169,50 170,259
171,30 177,70 178,2249 179,299
180,20
##END=
