##TITLE=Bicyclo[2.2.1]heptane, 2-chloro-
##JCAMP-DX=4.24
##DATA TYPE=MASS SPECTRUM
##ORIGIN=D.HENNEBERG, MAX-PLANCK INSTITUTE, MULHEIM, WEST GERMANY
##OWNER=NIST Mass Spectrometry Data Center
Collection (C) 2014 copyright by the U.S. Secretary of Commerce
on behalf of the United States of America. All rights reserved.
##CAS REGISTRY NO=29342-53-8
##$NIST MASS SPEC NO=62379
##MOLFORM=C7 H11 Cl
##MW=130
##$NIST SOURCE=MSDC
##XUNITS=M/Z
##YUNITS=RELATIVE INTENSITY
##XFACTOR=1
##YFACTOR=1
##FIRSTX=25
##LASTX=132
##FIRSTY=15
##MAXX=132
##MINX=25
##MAXY=9999
##MINY=10
##NPOINTS=67
##PEAK TABLE=(XY..XY)
25,15 26,137 27,1084 28,258
29,348 35,40 36,197 37,98
38,260 39,1913 40,424 41,1463
42,333 43,154 44,13 45,109
46,35 47,23 49,72 50,128
51,350 52,136 53,968 54,877
55,657 56,69 57,115 58,16
59,29 61,37 62,133 63,215
64,82 65,636 66,2325 67,9843
68,9999 69,474 70,35 73,21
75,171 76,18 77,556 78,122
79,1435 80,97 81,557 82,39
85,192 87,16 88,436 89,187
90,117 91,289 92,25 93,231
94,475 95,2020 96,168 101,73
102,83 104,27 113,118 114,10
130,846 131,47 132,269
##END=
