##TITLE=Hexane, 2-chloro-2,5-dimethyl-
##JCAMP-DX=4.24
##DATA TYPE=MASS SPECTRUM
##ORIGIN=NIST Mass Spectrometry Data Center, 1990.
##OWNER=NIST Mass Spectrometry Data Center
Collection (C) 2014 copyright by the U.S. Secretary of Commerce
on behalf of the United States of America. All rights reserved.
##CAS REGISTRY NO=29342-44-7
##$NIST MASS SPEC NO=114683
##MOLFORM=C8 H17 Cl
##MW=148
##$NIST SOURCE=MSDC
##XUNITS=M/Z
##YUNITS=RELATIVE INTENSITY
##XFACTOR=1
##YFACTOR=1
##FIRSTX=15
##LASTX=113
##FIRSTY=220
##MAXX=113
##MINX=15
##MAXY=9999
##MINY=88
##NPOINTS=46
##PEAK TABLE=(XY..XY)
15,220 26,213 27,1860 28,200
29,1206 35,275 36,615 37,195
38,530 39,3758 40,968 41,9317
42,1264 43,3228 44,136 49,128
50,238 51,512 52,238 53,1444
54,128 55,6499 56,9444 57,8029
58,414 62,94 63,260 65,314
66,109 67,1025 68,1673 69,9999
70,2501 71,1771 75,88 76,628
77,1795 78,317 79,776 81,215
83,203 84,300 91,164 97,1203
112,2286 113,628
##END=
