##TITLE=2,5-Hexanediol
##JCAMP-DX=4.24
##DATA TYPE=MASS SPECTRUM
##OWNER=NIST Mass Spectrometry Data Center
Collection (C) 2014 copyright by the U.S. Secretary of Commerce
on behalf of the United States of America. All rights reserved.
##CAS REGISTRY NO=2935-44-6
##$NIST MASS SPEC NO=2039
##MOLFORM=C6 H14 O2
##MW=118
##$NIST SOURCE=MSDC
##XUNITS=M/Z
##YUNITS=RELATIVE INTENSITY
##XFACTOR=1
##YFACTOR=1
##FIRSTX=14
##LASTX=119
##FIRSTY=10
##MAXX=119
##MINX=14
##MAXY=9999
##MINY=10
##NPOINTS=76
##PEAK TABLE=(XY..XY)
14,10 15,130 16,10 17,130
18,611 19,150 26,30 27,380
28,280 29,721 30,30 31,220
32,10 36,10 37,10 38,20
39,220 40,100 41,2232 42,170
43,1882 44,260 45,9999 46,90
47,80 49,10 50,10 51,40
52,10 53,60 54,40 55,611
56,5075 57,981 58,981 59,120
60,10 61,10 62,10 63,70
65,20 66,10 67,530 68,30
69,30 70,10 71,90 72,20
73,10 74,20 75,10 76,10
77,10 79,10 81,10 82,10
83,100 84,10 85,2362 86,140
87,20 88,10 89,10 97,10
98,10 99,70 100,20 101,20
102,10 103,50 104,10 114,10
115,10 117,10 118,10 119,10
##END=
