##TITLE=Propanoic acid, 3-mercapto-, methyl ester
##JCAMP-DX=4.24
##DATA TYPE=MASS SPECTRUM
##ORIGIN=Japan AIST/NIMC Database- Spectrum MS-NW-8371
##OWNER=NIST Mass Spectrometry Data Center
Collection (C) 2014 copyright by the U.S. Secretary of Commerce
on behalf of the United States of America. All rights reserved.
##CAS REGISTRY NO=2935-90-2
##$NIST MASS SPEC NO=236078
##MOLFORM=C4 H8 O2 S
##MW=120
##$NIST SOURCE=MSDC
##XUNITS=M/Z
##YUNITS=RELATIVE INTENSITY
##XFACTOR=1
##YFACTOR=1
##FIRSTX=12
##LASTX=123
##FIRSTY=10
##MAXX=123
##MINX=12
##MAXY=9999
##MINY=10
##NPOINTS=74
##PEAK TABLE=(XY..XY)
12,10 13,20 14,109 15,2859
16,50 25,40 26,439 27,3119
28,6989 29,679 30,139 31,1189
32,379 33,349 34,309 35,1699
36,40 37,90 38,20 39,99
40,10 41,299 42,619 43,3839
44,369 45,1809 46,1159 47,3069
48,219 49,199 50,10 53,70
54,50 55,3439 56,209 57,279
58,729 59,4429 60,5959 61,9249
62,549 63,519 64,20 65,10
66,20 68,10 69,20 71,30
72,30 73,30 74,679 75,70
76,119 77,189 78,20 79,20
81,30 85,70 86,30 87,1539
88,8469 89,3489 90,529 91,179
92,1159 93,60 94,60 103,10
118,60 119,70 120,9999 121,669
122,509 123,30
##END=
