##TITLE=Cyclododecane
##JCAMP-DX=4.24
##DATA TYPE=MASS SPECTRUM
##ORIGIN=Japan AIST/NIMC Database- Spectrum MS-NW-3626
##OWNER=NIST Mass Spectrometry Data Center
Collection (C) 2014 copyright by the U.S. Secretary of Commerce
on behalf of the United States of America. All rights reserved.
##CAS REGISTRY NO=294-62-2
##$NIST MASS SPEC NO=229170
##MOLFORM=C12 H24
##MW=168
##$NIST SOURCE=MSDC
##XUNITS=M/Z
##YUNITS=RELATIVE INTENSITY
##XFACTOR=1
##YFACTOR=1
##FIRSTX=15
##LASTX=170
##FIRSTY=80
##MAXX=170
##MINX=15
##MAXY=9999
##MINY=10
##NPOINTS=76
##PEAK TABLE=(XY..XY)
15,80 26,80 27,1739 28,399
29,2899 30,80 31,10 36,10
37,10 38,30 39,1769 40,349
41,7529 42,2769 43,5479 44,199
50,30 51,99 52,60 53,609
54,1109 55,9999 56,7599 57,4729
58,229 63,20 64,10 65,99
66,119 67,1379 68,2989 69,8199
70,6509 71,1589 72,90 74,10
77,60 78,20 79,90 80,30
81,539 82,3269 83,7439 84,4109
85,989 86,70 91,20 93,10
94,10 95,149 96,1279 97,4869
98,2429 99,269 100,20 109,50
110,499 111,2629 112,1379 113,149
114,10 115,10 123,10 124,179
125,1099 126,649 127,80 137,10
138,70 139,339 140,1219 141,149
153,10 168,1549 169,209 170,10
##END=
