##TITLE=12-Crown-4
##JCAMP-DX=4.24
##DATA TYPE=MASS SPECTRUM
##ORIGIN=NIST Mass Spectrometry Data Center, 1990.
##OWNER=NIST Mass Spectrometry Data Center
Collection (C) 2014 copyright by the U.S. Secretary of Commerce
on behalf of the United States of America. All rights reserved.
##CAS REGISTRY NO=294-93-9
##$NIST MASS SPEC NO=118817
##MOLFORM=C8 H16 O4
##MW=176
##$NIST SOURCE=MSDC
##XUNITS=M/Z
##YUNITS=RELATIVE INTENSITY
##XFACTOR=1
##YFACTOR=1
##FIRSTX=14
##LASTX=134
##FIRSTY=120
##MAXX=134
##MINX=14
##MAXY=9999
##MINY=5
##NPOINTS=67
##PEAK TABLE=(XY..XY)
14,120 15,1248 16,77 17,7
18,24 19,340 25,17 26,403
27,1626 28,3831 29,2982 30,571
31,1556 32,31 33,26 35,5
39,43 41,509 42,1495 43,5750
44,3715 45,9999 46,219 47,28
51,13 53,7 54,11 55,42
56,158 57,958 58,1491 59,1016
60,90 61,251 62,29 63,8
69,56 70,375 71,415 72,876
73,1648 74,242 75,346 76,25
83,20 86,371 87,1304 88,945
89,2318 90,109 91,11 99,41
100,46 101,395 102,170 103,120
104,90 105,48 113,7 114,6
115,19 117,93 118,8 119,11
131,12 133,355 134,21
##END=
