##TITLE=2H-Thiopyran-3(4H)-one
##JCAMP-DX=4.24
##DATA TYPE=MASS SPECTRUM
##OWNER=NIST Mass Spectrometry Data Center
Collection (C) 2014 copyright by the U.S. Secretary of Commerce
on behalf of the United States of America. All rights reserved.
##CAS REGISTRY NO=29431-28-5
##$NIST MASS SPEC NO=1833
##MOLFORM=C5 H6 O S
##MW=114
##$NIST SOURCE=MSDC
##XUNITS=M/Z
##YUNITS=RELATIVE INTENSITY
##XFACTOR=1
##YFACTOR=1
##FIRSTX=18
##LASTX=116
##FIRSTY=1200
##MAXX=116
##MINX=18
##MAXY=9999
##MINY=165
##NPOINTS=45
##PEAK TABLE=(XY..XY)
18,1200 25,320 26,1200 27,2800
28,2080 29,400 32,165 33,280
34,280 36,200 37,1200 38,2080
39,8519 40,3200 41,1200 42,3200
43,720 44,640 45,9999 46,2560
47,1040 48,200 49,200 50,400
51,400 52,200 53,1200 57,560
58,960 59,640 60,400 68,4480
69,1120 70,320 71,4600 72,5039
73,480 74,320 84,280 85,5599
86,2400 87,400 114,4680 115,400
116,400
##END=
