##TITLE=Dibenzo[b,e][1,4]dioxin, 2,3-dichloro-
##JCAMP-DX=4.24
##DATA TYPE=MASS SPECTRUM
##ORIGIN=MASS SPECTROMETRY CENTER, UNIV. OF UTAH T.ELWOOD UU 1-14
##OWNER=NIST Mass Spectrometry Data Center
Collection (C) 2014 copyright by the U.S. Secretary of Commerce
on behalf of the United States of America. All rights reserved.
##CAS REGISTRY NO=29446-15-9
##$NIST MASS SPEC NO=52352
##MOLFORM=C12 H6 Cl2 O2
##MW=252
##$NIST SOURCE=MSDC
##XUNITS=M/Z
##YUNITS=RELATIVE INTENSITY
##XFACTOR=1
##YFACTOR=1
##FIRSTX=17
##LASTX=257
##FIRSTY=69
##MAXX=257
##MINX=17
##MAXY=9999
##MINY=14
##NPOINTS=115
##PEAK TABLE=(XY..XY)
17,69 18,111 25,27 26,343
27,91 28,87 29,94 35,109
36,513 37,475 38,650 39,310
40,36 47,35 48,39 49,361
50,2264 51,893 52,1086 53,524
54,93 55,21 60,222 61,496
62,828 63,1597 64,535 65,88
67,18 71,14 72,122 73,336
74,1372 75,844 76,703 77,306
79,81 80,812 81,228 84,264
85,587 86,254 87,316 91,169
92,238 94,111 95,20 96,69
97,660 98,283 99,544 100,85
101,69 104,125 107,20 108,172
109,343 110,77 111,151 113,651
114,53 115,182 120,111 121,14
122,56 124,14 125,724 126,3962
127,1375 128,226 132,68 134,54
135,71 136,73 144,102 146,45
147,23 153,116 154,87 159,14
160,549 161,1162 162,299 163,367
170,172 172,145 173,113 174,21
175,23 182,296 183,24 189,4024
190,468 191,1281 192,157 195,39
196,451 197,77 198,312 199,15
200,70 217,596 218,94 219,204
223,272 224,100 225,181 226,62
251,75 252,9999 253,1881 254,8373
255,1178 256,1515 257,190
##END=
