##TITLE=Pyrazine, (2-methylpropyl)-
##JCAMP-DX=4.24
##DATA TYPE=MASS SPECTRUM
##ORIGIN=Philip Morris R&D
##OWNER=NIST Mass Spectrometry Data Center
Collection (C) 2014 copyright by the U.S. Secretary of Commerce
on behalf of the United States of America. All rights reserved.
##CAS REGISTRY NO=29460-92-2
##$NIST MASS SPEC NO=108597
##MOLFORM=C8 H12 N2
##MW=136
##$NIST SOURCE=MSDC
##XUNITS=M/Z
##YUNITS=RELATIVE INTENSITY
##XFACTOR=1
##YFACTOR=1
##FIRSTX=38
##LASTX=137
##FIRSTY=282
##MAXX=137
##MINX=38
##MAXY=9999
##MINY=21
##NPOINTS=51
##PEAK TABLE=(XY..XY)
38,282 39,1324 40,453 41,1517
42,408 43,879 44,72 46,21
47,44 50,60 51,182 52,462
53,444 54,99 55,50 56,28
57,28 60,65 61,25 62,24
63,48 64,74 65,143 66,477
67,967 68,293 69,44 77,31
78,75 79,152 80,131 81,107
82,27 91,21 92,45 93,1010
94,9999 95,673 96,21 106,60
107,110 108,84 118,31 119,208
120,59 121,1432 122,139 133,43
135,356 136,1412 137,153
##END=
