##TITLE=3-Methylbenzyl cyanide
##JCAMP-DX=4.24
##DATA TYPE=MASS SPECTRUM
##ORIGIN=NIST Mass Spectrometry Data Center, 1994
##OWNER=NIST Mass Spectrometry Data Center
Collection (C) 2014 copyright by the U.S. Secretary of Commerce
on behalf of the United States of America. All rights reserved.
##CAS REGISTRY NO=2947-60-6
##$NIST MASS SPEC NO=134116
##MOLFORM=C9 H9 N
##MW=131
##$NIST SOURCE=MSDC
##XUNITS=M/Z
##YUNITS=RELATIVE INTENSITY
##XFACTOR=1
##YFACTOR=1
##FIRSTX=12
##LASTX=133
##FIRSTY=28
##MAXX=133
##MINX=12
##MAXY=9999
##MINY=15
##NPOINTS=63
##PEAK TABLE=(XY..XY)
12,28 13,38 14,101 15,453
26,599 27,1568 29,49 37,576
38,1167 39,3446 40,955 41,534
42,20 43,38 50,1593 51,2535
52,983 53,330 54,60 61,510
62,1112 63,2144 64,882 65,1814
66,170 67,15 73,129 74,538
75,670 76,861 77,2144 78,1228
79,208 80,20 84,26 85,101
86,191 87,268 88,268 89,1413
90,20 91,9999 92,796 97,21
98,76 99,79 100,69 101,210
102,840 103,2359 104,5336 105,677
106,39 114,82 116,6548 117,612
118,23 127,54 128,214 130,2055
131,7037 132,702 133,36
##END=
