##TITLE=.alpha.,.alpha.,.alpha.',.alpha.'-Tetramethyl-1,4-benzenedimethanol
##JCAMP-DX=4.24
##DATA TYPE=MASS SPECTRUM
##ORIGIN=NIST Mass Spectrometry Data Center, 1994
##OWNER=NIST Mass Spectrometry Data Center
Collection (C) 2014 copyright by the U.S. Secretary of Commerce
on behalf of the United States of America. All rights reserved.
##CAS REGISTRY NO=2948-46-1
##$NIST MASS SPEC NO=135680
##MOLFORM=C12 H18 O2
##MW=194
##$NIST SOURCE=MSDC
##XUNITS=M/Z
##YUNITS=RELATIVE INTENSITY
##XFACTOR=1
##YFACTOR=1
##FIRSTX=12
##LASTX=195
##FIRSTY=10
##MAXX=195
##MINX=12
##MAXY=9999
##MINY=4
##NPOINTS=116
##PEAK TABLE=(XY..XY)
12,10 13,9 15,647 16,12
17,24 18,73 19,59 27,210
28,66 29,265 30,9 31,511
32,5 37,9 38,40 39,460
40,58 41,493 42,5 43,9999
44,228 45,26 46,32 50,168
51,433 52,91 53,90 54,10
55,60 57,113 59,3031 60,152
61,30 62,46 63,175 64,58
65,247 66,47 67,137 69,16
70,12 71,9 72,22 73,52
74,76 75,101 76,115 77,607
78,139 79,144 80,37 81,9
82,515 85,8 86,11 87,30
88,16 89,106 90,8 91,973
92,81 93,88 94,12 95,43
98,8 101,28 102,64 103,127
104,43 105,289 106,30 107,32
108,4 109,9 113,6 115,262
116,63 117,140 118,4 119,1542
120,261 121,606 122,52 127,32
128,68 129,29 130,7 131,20
133,171 134,30 135,33 137,67
138,8 139,6 141,12 142,13
143,53 144,9 145,23 147,47
148,16 149,13 158,81 159,15
161,472 162,107 163,171 164,298
165,27 176,31 177,72 179,4225
180,486 181,48 194,175 195,25
##END=
