##TITLE=Benzamide, 2,6-difluoro-N-(1-naphthyl)-
##JCAMP-DX=4.24
##DATA TYPE=MASS SPECTRUM
##ORIGIN=Zaikin V.G., TIPS RAS, Moscow, Russia
##OWNER=NIST Mass Spectrometry Data Center
Collection (C) 2014 copyright by the U.S. Secretary of Commerce
on behalf of the United States of America. All rights reserved.
##CAS REGISTRY NO=294852-77-0
##$NIST MASS SPEC NO=307435
##MOLFORM=C17 H11 F2 N O
##MW=283
##$NIST SOURCE=MSDC
##XUNITS=M/Z
##YUNITS=RELATIVE INTENSITY
##XFACTOR=1
##YFACTOR=1
##FIRSTX=28
##LASTX=285
##FIRSTY=10
##MAXX=285
##MINX=28
##MAXY=9999
##MINY=10
##NPOINTS=35
##PEAK TABLE=(XY..XY)
28,10 39,40 50,30 51,30
62,40 63,270 64,20 65,40
74,30 75,40 87,30 88,50
89,110 93,30 112,40 113,981
114,230 115,1091 116,160 126,30
127,50 139,20 140,220 141,9999
142,701 143,260 144,1131 145,120
169,30 234,20 235,30 282,30
283,4324 284,761 285,70
##END=
