##TITLE=S-Methyl methanethiosulphonate
##JCAMP-DX=4.24
##DATA TYPE=MASS SPECTRUM
##ORIGIN=Japan AIST/NIMC Database- Spectrum MS-NW-6027
##OWNER=NIST Mass Spectrometry Data Center
Collection (C) 2014 copyright by the U.S. Secretary of Commerce
on behalf of the United States of America. All rights reserved.
##CAS REGISTRY NO=2949-92-0
##$NIST MASS SPEC NO=236079
##MOLFORM=C2 H6 O2 S2
##MW=126
##$NIST SOURCE=MSDC
##XUNITS=M/Z
##YUNITS=RELATIVE INTENSITY
##XFACTOR=1
##YFACTOR=1
##FIRSTX=12
##LASTX=130
##FIRSTY=30
##MAXX=130
##MINX=12
##MAXY=9999
##MINY=10
##NPOINTS=77
##PEAK TABLE=(XY..XY)
12,30 13,60 14,279 15,4529
16,70 17,30 18,159 26,10
27,319 28,489 29,329 30,40
31,259 32,269 33,189 34,169
35,329 36,10 37,10 39,30
41,60 42,10 43,60 44,509
45,5829 46,3429 47,9999 48,1339
49,549 50,99 51,20 52,10
53,10 55,60 56,20 57,70
58,20 59,60 60,30 61,569
62,319 63,7279 64,3809 65,1159
66,209 67,50 69,10 71,20
74,10 75,10 76,159 77,30
78,80 79,6839 80,469 81,8679
82,209 83,459 85,10 87,10
93,10 94,639 95,529 96,80
97,50 101,10 105,20 110,20
111,569 112,20 113,70 125,20
126,6599 127,299 128,669 129,20
130,10
##END=
