##TITLE=1,3,4-Thiadiazole-2(3H)-thione, 5-methyl-
##JCAMP-DX=4.24
##DATA TYPE=MASS SPECTRUM
##ORIGIN=NIST Mass Spectrometry Data Center
##OWNER=NIST Mass Spectrometry Data Center
Collection (C) 2014 copyright by the U.S. Secretary of Commerce
on behalf of the United States of America. All rights reserved.
##CAS REGISTRY NO=29490-19-5
##$NIST MASS SPEC NO=340944
##MOLFORM=C3 H4 N2 S2
##MW=132
##$NIST SOURCE=MSDC
##XUNITS=M/Z
##YUNITS=RELATIVE INTENSITY
##XFACTOR=1
##YFACTOR=1
##FIRSTX=26
##LASTX=135
##FIRSTY=230
##MAXX=135
##MINX=26
##MAXY=9999
##MINY=30
##NPOINTS=45
##PEAK TABLE=(XY..XY)
26,230 27,500 29,210 32,430
33,70 34,30 38,70 39,100
40,240 41,260 42,741 44,310
45,721 46,300 47,320 53,50
54,30 55,601 56,9999 57,550
58,851 59,2502 60,130 61,110
64,1641 65,50 66,330 69,30
70,60 71,30 72,310 73,210
74,60 76,711 77,180 78,70
88,40 90,70 91,240 99,150
100,70 132,7977 133,450 134,731
135,30
##END=
