##TITLE=Cyclotridecane
##JCAMP-DX=4.24
##DATA TYPE=MASS SPECTRUM
##ORIGIN=NIST Mass Spectrometry Data Center, 1990.
##OWNER=NIST Mass Spectrometry Data Center
Collection (C) 2014 copyright by the U.S. Secretary of Commerce
on behalf of the United States of America. All rights reserved.
##CAS REGISTRY NO=295-02-3
##$NIST MASS SPEC NO=113605
##MOLFORM=C13 H26
##MW=182
##$NIST SOURCE=MSDC
##XUNITS=M/Z
##YUNITS=RELATIVE INTENSITY
##XFACTOR=1
##YFACTOR=1
##FIRSTX=27
##LASTX=182
##FIRSTY=2287
##MAXX=182
##MINX=27
##MAXY=9999
##MINY=174
##NPOINTS=40
##PEAK TABLE=(XY..XY)
27,2287 28,1014 29,3497 39,2722
41,9999 42,2730 43,3995 44,234
53,988 54,1201 55,9343 56,4766
57,3653 66,221 67,1645 68,2244
69,6461 70,4311 71,1431 79,174
81,732 82,3019 83,5907 84,2383
85,655 95,230 96,1495 97,4028
98,1407 99,191 110,736 111,2441
112,900 124,330 125,1289 126,555
139,311 140,199 154,532 182,789
##END=
