##TITLE=Cyclopentadecane
##JCAMP-DX=4.24
##DATA TYPE=MASS SPECTRUM
##ORIGIN=Japan AIST/NIMC Database- Spectrum MS-IW-2161
##OWNER=NIST Mass Spectrometry Data Center
Collection (C) 2014 copyright by the U.S. Secretary of Commerce
on behalf of the United States of America. All rights reserved.
##CAS REGISTRY NO=295-48-7
##$NIST MASS SPEC NO=234421
##MOLFORM=C15 H30
##MW=210
##$NIST SOURCE=MSDC
##XUNITS=M/Z
##YUNITS=RELATIVE INTENSITY
##XFACTOR=1
##YFACTOR=1
##FIRSTX=15
##LASTX=212
##FIRSTY=10
##MAXX=212
##MINX=15
##MAXY=9999
##MINY=10
##NPOINTS=101
##PEAK TABLE=(XY..XY)
15,10 26,50 27,879 28,269
29,2119 30,50 36,10 38,10
39,989 40,209 41,6679 42,1859
43,5699 44,189 45,10 50,10
51,50 52,40 53,509 54,1069
55,9069 56,5829 57,6129 58,289
59,10 63,10 65,80 66,129
67,1529 68,3359 69,8559 70,5719
71,3039 72,169 73,10 77,70
78,20 79,109 80,60 81,779
82,4959 83,9999 84,4059 85,1789
86,109 87,10 91,30 92,10
93,20 94,20 95,359 96,2139
97,7629 98,2679 99,449 100,30
105,10 107,10 108,10 109,139
110,879 111,4199 112,1959 113,299
114,20 115,10 122,10 123,60
124,539 125,2149 126,1349 127,219
128,20 133,10 137,50 138,369
139,1029 140,929 141,169 142,10
151,10 152,209 153,619 154,589
155,90 156,10 158,10 166,119
167,329 168,339 169,60 180,70
181,169 182,1279 183,199 184,10
195,10 208,20 210,7229 211,1209
212,99
##END=
