##TITLE=Propanenitrile, 3-(octylamino)-
##JCAMP-DX=4.24
##DATA TYPE=MASS SPECTRUM
##ORIGIN=NIST Mass Spectrometry Data Center, 1994
##OWNER=NIST Mass Spectrometry Data Center
Collection (C) 2014 copyright by the U.S. Secretary of Commerce
on behalf of the United States of America. All rights reserved.
##CAS REGISTRY NO=29504-89-0
##$NIST MASS SPEC NO=134669
##MOLFORM=C11 H22 N2
##MW=182
##$NIST SOURCE=MSDC
##XUNITS=M/Z
##YUNITS=RELATIVE INTENSITY
##XFACTOR=1
##YFACTOR=1
##FIRSTX=14
##LASTX=183
##FIRSTY=7
##MAXX=183
##MINX=14
##MAXY=9999
##MINY=7
##NPOINTS=58
##PEAK TABLE=(XY..XY)
14,7 15,53 18,25 26,50
27,555 28,572 29,820 30,1011
31,18 32,19 39,329 40,104
41,1180 42,2236 43,1003 44,1733
45,99 51,24 52,38 53,109
54,912 55,480 56,485 57,331
58,27 65,13 66,9 67,58
68,88 69,254 70,196 71,147
72,24 79,14 80,16 81,67
82,9 83,9999 84,591 85,22
86,11 96,33 97,133 98,64
109,17 111,13 112,19 125,15
126,12 128,41 139,35 140,28
142,645 143,71 153,19 181,19
182,115 183,25
##END=
