##TITLE=Benzene, 2-ethoxy-1,3-dimethoxy-
##JCAMP-DX=4.24
##DATA TYPE=MASS SPECTRUM
##ORIGIN=P. BRUCK, MAGYAR TUDOMANYOS AKADEMIA, HUNGARY
##OWNER=NIST Mass Spectrometry Data Center
Collection (C) 2014 copyright by the U.S. Secretary of Commerce
on behalf of the United States of America. All rights reserved.
##CAS REGISTRY NO=29515-37-5
##$NIST MASS SPEC NO=60360
##MOLFORM=C10 H14 O3
##MW=182
##$NIST SOURCE=MSDC
##XUNITS=M/Z
##YUNITS=RELATIVE INTENSITY
##XFACTOR=1
##YFACTOR=1
##FIRSTX=39
##LASTX=183
##FIRSTY=757
##MAXX=183
##MINX=39
##MAXY=9999
##MINY=54
##NPOINTS=26
##PEAK TABLE=(XY..XY)
39,757 51,462 54,319 65,3287
77,458 79,335 92,207 93,227
94,257 95,1195 107,695 108,498
109,733 110,1275 124,924 125,1291
139,4503 140,319 153,2072 154,9999
155,896 162,63 167,54 180,275
182,7451 183,849
##END=
