##TITLE=Phosphorodithioic acid, O,O,S-trimethyl ester
##JCAMP-DX=4.24
##DATA TYPE=MASS SPECTRUM
##ORIGIN=E.SANTORO MONTECATINI EDISON RES. CENTRE, MILAN, ITALY
##OWNER=NIST Mass Spectrometry Data Center
Collection (C) 2014 copyright by the U.S. Secretary of Commerce
on behalf of the United States of America. All rights reserved.
##CAS REGISTRY NO=2953-29-9
##$NIST MASS SPEC NO=38732
##MOLFORM=C3 H9 O2 P S2
##MW=172
##$NIST SOURCE=MSDC
##XUNITS=M/Z
##YUNITS=RELATIVE INTENSITY
##XFACTOR=1
##YFACTOR=1
##FIRSTX=15
##LASTX=172
##FIRSTY=880
##MAXX=172
##MINX=15
##MAXY=9999
##MINY=230
##NPOINTS=23
##PEAK TABLE=(XY..XY)
15,880 31,750 44,510 45,1860
46,1040 47,4820 48,440 61,300
62,1170 63,2730 64,1010 77,710
79,3290 93,9999 94,950 95,630
109,2510 125,7800 126,2250 141,900
142,620 157,230 172,9680
##END=
