##TITLE=1,3,6-Heptatriene, 2,5,5-trimethyl-
##JCAMP-DX=4.24
##DATA TYPE=MASS SPECTRUM
##ORIGIN=D.HENNEBERG, MAX-PLANCK INSTITUTE, MULHEIM, WEST GERMANY
##OWNER=NIST Mass Spectrometry Data Center
Collection (C) 2014 copyright by the U.S. Secretary of Commerce
on behalf of the United States of America. All rights reserved.
##CAS REGISTRY NO=29548-02-5
##$NIST MASS SPEC NO=61693
##MOLFORM=C10 H16
##MW=136
##$NIST SOURCE=MSDC
##XUNITS=M/Z
##YUNITS=RELATIVE INTENSITY
##XFACTOR=1
##YFACTOR=1
##FIRSTX=26
##LASTX=137
##FIRSTY=186
##MAXX=137
##MINX=26
##MAXY=9999
##MINY=18
##NPOINTS=68
##PEAK TABLE=(XY..XY)
26,186 27,2111 28,119 29,2180
33,31 35,55 37,130 38,175
39,3061 40,489 41,3912 42,186
43,2122 44,53 47,53 50,268
51,917 52,412 53,1885 54,183
55,2175 56,98 57,199 59,18
61,53 62,74 63,351 65,1082
66,420 67,1970 68,164 72,55
73,45 74,69 75,247 76,101
77,4430 78,1082 79,5207 80,1473
81,667 82,79 84,42 89,313
90,127 91,4981 92,1143 93,9999
94,1699 95,98 101,61 102,61
103,481 104,127 105,2957 106,800
107,3250 108,1034 109,106 115,53
117,106 119,582 120,106 121,5638
122,521 135,93 136,1074 137,125
##END=
