##TITLE=Propane, 1,1,2-trichloro-2-methyl-
##JCAMP-DX=4.24
##DATA TYPE=MASS SPECTRUM
##ORIGIN=Japan AIST/NIMC Database- Spectrum MS-NW-8592
##OWNER=NIST Mass Spectrometry Data Center
Collection (C) 2014 copyright by the U.S. Secretary of Commerce
on behalf of the United States of America. All rights reserved.
##CAS REGISTRY NO=29559-52-2
##$NIST MASS SPEC NO=236774
##MOLFORM=C4 H7 Cl3
##MW=160
##$NIST SOURCE=MSDC
##XUNITS=M/Z
##YUNITS=RELATIVE INTENSITY
##XFACTOR=1
##YFACTOR=1
##FIRSTX=14
##LASTX=149
##FIRSTY=10
##MAXX=149
##MINX=14
##MAXY=9999
##MINY=10
##NPOINTS=69
##PEAK TABLE=(XY..XY)
14,10 15,50 25,10 26,99
27,709 28,70 29,159 35,40
36,109 37,119 38,209 39,979
40,70 41,2659 42,99 43,10
47,70 48,60 49,429 50,159
51,339 52,60 53,1169 54,90
55,229 56,10 59,30 60,20
61,189 62,70 63,399 64,20
65,99 72,20 73,129 74,20
75,199 76,80 77,9999 78,369
79,3219 80,109 82,10 83,339
84,10 85,229 87,70 88,10
89,1009 90,99 91,329 92,30
96,10 97,50 99,30 109,289
110,40 111,179 112,30 113,30
124,10 125,789 126,40 127,509
128,20 129,80 145,90 147,80
149,20
##END=
