##TITLE=N-n-Butylpropionamide
##JCAMP-DX=4.24
##DATA TYPE=MASS SPECTRUM
##ORIGIN=NIST Mass Spectrometry Data Center, 2009
##OWNER=NIST Mass Spectrometry Data Center
Collection (C) 2014 copyright by the U.S. Secretary of Commerce
on behalf of the United States of America. All rights reserved.
##CAS REGISTRY NO=2955-67-1
##$NIST MASS SPEC NO=372949
##MOLFORM=C7 H15 N O
##MW=129
##$NIST SOURCE=MSDC
##XUNITS=M/Z
##YUNITS=RELATIVE INTENSITY
##XFACTOR=1
##YFACTOR=1
##FIRSTX=14
##LASTX=131
##FIRSTY=10
##MAXX=131
##MINX=14
##MAXY=9999
##MINY=10
##NPOINTS=61
##PEAK TABLE=(XY..XY)
14,10 15,60 18,70 25,10
26,180 27,1501 28,1141 29,4084
30,7727 31,160 32,100 37,20
38,50 39,651 40,120 41,1992
42,420 43,470 44,4484 45,190
46,30 50,20 51,40 52,50
53,120 54,160 55,661 56,931
57,9999 58,1621 59,190 60,10
67,10 68,30 69,20 70,50
71,90 72,591 73,110 74,1411
75,50 82,10 83,10 84,50
86,3563 87,3733 88,180 89,10
96,10 98,20 100,2803 101,300
102,20 111,10 112,10 114,631
115,50 128,60 129,1111 130,120
131,10
##END=
