##TITLE=Hydrazine, 2-ethyl-1,1-dimethyl-
##JCAMP-DX=4.24
##DATA TYPE=MASS SPECTRUM
##ORIGIN=ATLAS OF MASS SPECTRA OF ORGANIC COMPOUNDS, V. A. KOPTYUG, ED.
##OWNER=NIST Mass Spectrometry Data Center
Collection (C) 2014 copyright by the U.S. Secretary of Commerce
on behalf of the United States of America. All rights reserved.
##CAS REGISTRY NO=29559-82-8
##$NIST MASS SPEC NO=64452
##MOLFORM=C4 H12 N2
##MW=88
##$NIST SOURCE=MSDC
##XUNITS=M/Z
##YUNITS=RELATIVE INTENSITY
##XFACTOR=1
##YFACTOR=1
##FIRSTX=29
##LASTX=89
##FIRSTY=750
##MAXX=89
##MINX=29
##MAXY=9999
##MINY=60
##NPOINTS=22
##PEAK TABLE=(XY..XY)
29,750 30,1300 31,460 32,320
36,230 40,90 41,210 42,1480
43,1170 44,2220 45,1820 46,330
57,160 58,130 59,9999 60,370
71,80 73,980 74,190 87,60
88,4640 89,300
##END=
