##TITLE=3-Eicosanone
##JCAMP-DX=4.24
##DATA TYPE=MASS SPECTRUM
##ORIGIN=COC 7216
##OWNER=NIST Mass Spectrometry Data Center
Collection (C) 2014 copyright by the U.S. Secretary of Commerce
on behalf of the United States of America. All rights reserved.
##CAS REGISTRY NO=2955-56-8
##$NIST MASS SPEC NO=14110
##MOLFORM=C20 H40 O
##MW=296
##$NIST SOURCE=MSDC
##XUNITS=M/Z
##YUNITS=RELATIVE INTENSITY
##XFACTOR=1
##YFACTOR=1
##FIRSTX=13
##LASTX=297
##FIRSTY=20
##MAXX=297
##MINX=13
##MAXY=9999
##MINY=10
##NPOINTS=122
##PEAK TABLE=(XY..XY)
13,20 14,90 15,20 16,80
17,260 26,70 27,1301 28,550
29,5055 30,120 31,60 38,20
39,520 40,140 41,3883 42,921
43,6426 44,260 45,60 51,20
52,20 53,240 54,310 55,3093
56,881 57,9999 58,641 59,250
60,30 65,30 66,40 67,520
68,290 69,1221 70,430 71,2142
72,9999 73,5585 74,260 75,20
77,40 79,80 80,50 81,450
82,290 83,831 84,260 85,3103
86,250 87,20 88,40 91,60
92,10 93,20 94,20 95,400
96,60 97,400 98,60 99,400
100,30 101,10 102,10 105,70
106,10 107,20 108,10 109,20
110,20 111,30 112,30 113,30
114,30 115,20 117,10 119,10
121,20 123,30 124,30 125,30
126,20 127,70 128,30 131,10
135,10 137,60 138,20 139,20
140,10 141,60 151,20 152,10
153,10 155,10 165,10 166,20
169,10 180,30 183,10 193,10
194,20 207,10 208,10 211,20
222,120 223,20 224,50 225,30
239,30 240,10 242,20 249,20
253,30 265,30 267,1882 268,370
269,40 278,50 281,10 295,10
296,190 297,40
##END=
