##TITLE=Hexanoic acid, 4-oxo-, methyl ester
##JCAMP-DX=4.24
##DATA TYPE=MASS SPECTRUM
##OWNER=NIST Mass Spectrometry Data Center
Collection (C) 2014 copyright by the U.S. Secretary of Commerce
on behalf of the United States of America. All rights reserved.
##CAS REGISTRY NO=2955-62-6
##$NIST MASS SPEC NO=4139
##MOLFORM=C7 H12 O3
##MW=144
##$NIST SOURCE=MSDC
##XUNITS=M/Z
##YUNITS=RELATIVE INTENSITY
##XFACTOR=1
##YFACTOR=1
##FIRSTX=15
##LASTX=144
##FIRSTY=435
##MAXX=144
##MINX=15
##MAXY=9999
##MINY=87
##NPOINTS=25
##PEAK TABLE=(XY..XY)
15,435 16,130 17,130 18,174
19,391 26,130 27,500 28,999
29,739 31,283 41,87 42,104
43,113 44,104 45,87 55,5655
56,1301 57,9999 58,350 59,3483
87,871 113,2612 115,7837 117,430
144,1091
##END=
