##TITLE=N,N'-Ethylenebis-acrylamide
##JCAMP-DX=4.24
##DATA TYPE=MASS SPECTRUM
##ORIGIN=NIST Mass Spectrometry Data Center
##OWNER=NIST Mass Spectrometry Data Center
Collection (C) 2014 copyright by the U.S. Secretary of Commerce
on behalf of the United States of America. All rights reserved.
##CAS REGISTRY NO=2956-58-3
##$NIST MASS SPEC NO=342729
##MOLFORM=C8 H12 N2 O2
##MW=168
##$NIST SOURCE=MSDC
##XUNITS=M/Z
##YUNITS=RELATIVE INTENSITY
##XFACTOR=1
##YFACTOR=1
##FIRSTX=12
##LASTX=151
##FIRSTY=20
##MAXX=151
##MINX=12
##MAXY=9999
##MINY=20
##NPOINTS=45
##PEAK TABLE=(XY..XY)
12,20 14,120 15,90 16,60
17,20 18,100 25,50 26,480
27,3043 28,1742 29,310 30,931
31,70 32,240 39,70 40,70
41,210 42,360 43,310 44,420
51,20 52,50 53,190 55,9999
56,460 57,150 58,40 59,50
67,70 68,380 69,691 70,70
72,450 82,40 84,4984 85,2212
86,110 87,160 95,50 97,3984
98,240 111,110 112,20 113,60
151,20
##END=
