##TITLE=Naphthalene, decahydro-2-methyl-
##JCAMP-DX=4.24
##DATA TYPE=MASS SPECTRUM
##OWNER=NIST Mass Spectrometry Data Center
Collection (C) 2014 copyright by the U.S. Secretary of Commerce
on behalf of the United States of America. All rights reserved.
##CAS REGISTRY NO=2958-76-1
##$NIST MASS SPEC NO=4796
##MOLFORM=C11 H20
##MW=152
##$NIST SOURCE=MSDC
##XUNITS=M/Z
##YUNITS=RELATIVE INTENSITY
##XFACTOR=1
##YFACTOR=1
##FIRSTX=25
##LASTX=155
##FIRSTY=10
##MAXX=155
##MINX=25
##MAXY=9999
##MINY=10
##NPOINTS=107
##PEAK TABLE=(XY..XY)
25,10 26,350 27,4784 28,1391
29,4204 30,90 31,50 37,60
38,180 39,4934 40,1201 41,9138
42,1651 43,1481 44,60 45,10
46,10 47,10 48,10 49,10
50,160 51,621 52,370 53,2262
54,2222 55,5875 56,961 57,1161
58,70 59,10 60,10 61,10
62,30 63,150 64,50 65,651
66,581 67,7126 68,3773 69,2192
70,641 71,601 72,50 74,10
75,30 76,10 77,901 78,250
79,1261 80,731 81,9268 82,3563
83,1461 84,180 85,180 86,10
87,10 89,20 90,10 91,460
92,80 93,420 94,641 95,9999
96,4644 97,1001 98,100 99,30
100,10 102,10 103,30 104,10
105,60 106,10 107,100 108,190
109,2362 110,2512 111,290 112,50
113,30 115,20 116,10 117,10
119,10 121,30 122,60 123,1682
124,440 125,50 126,30 127,40
128,10 129,10 133,10 135,40
136,40 137,1111 138,130 139,10
141,10 150,20 151,80 152,6686
153,871 154,60 155,30
##END=
