##TITLE=Pentacyclo[5.4.0.0(2,6).0(3,10).0(5,9)]undecane-8,11-dione
##JCAMP-DX=4.24
##DATA TYPE=MASS SPECTRUM
##ORIGIN=Chuck Anderson, Aldrich Chemical Co.
##OWNER=NIST Mass Spectrometry Data Center
Collection (C) 2014 copyright by the U.S. Secretary of Commerce
on behalf of the United States of America. All rights reserved.
##CAS REGISTRY NO=2958-72-7
##$NIST MASS SPEC NO=108439
##MOLFORM=C11 H10 O2
##MW=174
##$NIST SOURCE=MSDC
##XUNITS=M/Z
##YUNITS=RELATIVE INTENSITY
##XFACTOR=1
##YFACTOR=1
##FIRSTX=18
##LASTX=176
##FIRSTY=6
##MAXX=176
##MINX=18
##MAXY=9999
##MINY=6
##NPOINTS=82
##PEAK TABLE=(XY..XY)
18,6 26,628 27,1196 28,181
29,21 37,94 38,376 39,2244
40,477 41,228 42,33 45,109
46,31 50,574 51,1249 52,1061
53,735 54,202 55,792 57,319
58,1034 59,44 61,75 62,275
63,839 64,241 65,1679 66,5752
67,393 68,584 69,38 72,91
73,67 74,148 75,121 76,123
77,1034 78,1061 79,376 80,913
81,749 82,189 86,30 87,38
89,453 90,221 91,3548 92,752
93,137 94,940 95,197 96,211
102,194 103,927 104,530 105,265
106,9 108,430 109,356 115,2486
116,833 117,9999 118,2849 119,493
120,112 127,372 128,581 129,682
130,71 131,2029 132,456 133,78
145,2835 146,1881 147,349 156,149
157,105 159,21 173,409 174,8278
175,887 176,76
##END=
