##TITLE=(CH3)2CHP(C6H5)2=O
##JCAMP-DX=4.24
##DATA TYPE=MASS SPECTRUM
##ORIGIN=NIST Mass Spectrometry Data Center
##OWNER=NIST Mass Spectrometry Data Center
Collection (C) 2014 copyright by the U.S. Secretary of Commerce
on behalf of the United States of America. All rights reserved.
##CAS REGISTRY NO=2959-75-3
##$NIST MASS SPEC NO=342615
##MOLFORM=C15 H17 O P
##MW=244
##$NIST SOURCE=MSDC
##XUNITS=M/Z
##YUNITS=RELATIVE INTENSITY
##XFACTOR=1
##YFACTOR=1
##FIRSTX=27
##LASTX=245
##FIRSTY=761
##MAXX=245
##MINX=27
##MAXY=9999
##MINY=10
##NPOINTS=102
##PEAK TABLE=(XY..XY)
27,761 37,20 39,751 41,881
42,110 43,661 47,2722 50,691
51,2622 52,280 53,50 55,10
56,30 57,80 61,10 62,40
63,120 64,50 65,110 68,30
69,150 70,40 71,30 75,160
77,3223 78,641 79,80 80,40
81,70 82,20 83,40 86,10
87,30 89,40 91,110 92,30
95,380 96,170 97,20 98,10
101,40 102,50 103,50 104,40
105,70 107,320 108,140 109,110
113,10 114,10 115,140 116,20
117,10 119,20 120,40 121,30
123,220 124,270 125,410 126,90
127,80 128,270 129,190 130,20
131,10 133,190 139,60 140,20
141,50 145,30 147,60 149,10
150,60 151,130 152,530 153,460
154,450 155,621 156,90 157,80
165,10 170,130 171,300 172,60
173,240 174,20 181,30 183,681
184,120 185,50 186,10 197,30
199,230 201,9999 202,5875 203,731
204,50 229,10 241,10 243,90
244,100 245,20
##END=
