##TITLE=(S)-(-)-2-Chloropropionic acid
##JCAMP-DX=4.24
##DATA TYPE=MASS SPECTRUM
##ORIGIN=NIST Mass Spectrometry Data Center, 1994
##OWNER=NIST Mass Spectrometry Data Center
Collection (C) 2014 copyright by the U.S. Secretary of Commerce
on behalf of the United States of America. All rights reserved.
##CAS REGISTRY NO=29617-66-1
##$NIST MASS SPEC NO=136952
##MOLFORM=C3 H5 Cl O2
##MW=108
##$NIST SOURCE=MSDC
##XUNITS=M/Z
##YUNITS=RELATIVE INTENSITY
##XFACTOR=1
##YFACTOR=1
##FIRSTX=12
##LASTX=111
##FIRSTY=134
##MAXX=111
##MINX=12
##MAXY=9999
##MINY=2
##NPOINTS=47
##PEAK TABLE=(XY..XY)
12,134 13,158 14,299 15,323
16,128 17,220 18,60 24,111
25,547 26,3826 27,8150 28,9999
29,4346 30,109 31,125 32,596
35,317 36,366 37,162 38,142
40,130 41,108 42,179 43,431
44,991 45,4039 46,187 47,151
48,223 49,221 53,211 55,1111
56,370 60,134 61,350 62,725
63,4195 64,4977 65,1524 66,1528
73,506 76,82 91,105 108,218
109,7 110,73 111,2
##END=
