##TITLE=4-(1-Butylpentyl)pyridine
##JCAMP-DX=4.24
##DATA TYPE=MASS SPECTRUM
##ORIGIN=Japan AIST/NIMC Database- Spectrum MS-NW-6637
##OWNER=NIST Mass Spectrometry Data Center
Collection (C) 2014 copyright by the U.S. Secretary of Commerce
on behalf of the United States of America. All rights reserved.
##CAS REGISTRY NO=2961-47-9
##$NIST MASS SPEC NO=236614
##MOLFORM=C14 H23 N
##MW=205
##$NIST SOURCE=MSDC
##XUNITS=M/Z
##YUNITS=RELATIVE INTENSITY
##XFACTOR=1
##YFACTOR=1
##FIRSTX=14
##LASTX=207
##FIRSTY=10
##MAXX=207
##MINX=14
##MAXY=9999
##MINY=10
##NPOINTS=124
##PEAK TABLE=(XY..XY)
14,10 15,30 26,70 27,1069
28,70 29,1509 30,50 37,10
38,40 39,849 40,99 41,1859
42,139 43,1079 44,50 45,10
50,129 51,569 52,399 53,289
54,169 55,469 56,129 57,709
58,50 59,10 62,30 63,169
64,70 65,1009 66,129 67,109
68,80 69,119 70,20 71,40
74,10 75,30 76,60 77,659
78,599 79,439 80,329 81,109
82,30 83,40 84,10 85,10
89,90 90,90 91,449 92,3029
93,3059 94,389 95,119 96,30
97,10 99,10 101,10 102,40
103,70 104,409 105,1219 106,9149
107,1289 108,139 109,50 110,10
111,20 114,10 115,40 116,50
117,519 118,1119 119,879 120,1099
121,679 122,209 123,30 124,10
125,10 127,10 128,10 129,10
130,159 131,90 132,409 133,559
134,479 135,99 136,30 137,40
138,30 139,10 140,10 141,10
142,10 143,20 144,50 145,20
146,159 147,289 148,9999 149,9079
150,1069 151,80 152,10 160,30
161,10 162,1509 163,569 164,90
174,10 176,239 177,60 178,10
188,10 190,149 191,30 203,10
204,179 205,4089 206,709 207,60
##END=
