##TITLE=1,4-Dichloro-2-iodobenzene
##JCAMP-DX=4.24
##DATA TYPE=MASS SPECTRUM
##ORIGIN=Japan AIST/NIMC Database- Spectrum MS-NW-3297
##OWNER=NIST Mass Spectrometry Data Center
Collection (C) 2014 copyright by the U.S. Secretary of Commerce
on behalf of the United States of America. All rights reserved.
##CAS REGISTRY NO=29682-41-5
##$NIST MASS SPEC NO=231256
##MOLFORM=C6 H3 Cl2 I
##MW=272
##$NIST SOURCE=MSDC
##XUNITS=M/Z
##YUNITS=RELATIVE INTENSITY
##XFACTOR=1
##YFACTOR=1
##FIRSTX=12
##LASTX=277
##FIRSTY=10
##MAXX=277
##MINX=12
##MAXY=9999
##MINY=10
##NPOINTS=85
##PEAK TABLE=(XY..XY)
12,10 24,10 25,10 26,20
35,50 36,90 37,379 38,169
39,30 44,10 47,50 48,50
49,299 50,859 51,90 54,10
55,10 60,90 61,149 62,70
63,40 71,20 72,119 73,599
74,2369 75,1959 76,129 77,10
82,10 83,30 84,699 85,359
86,239 87,109 95,20 96,10
97,10 100,10 107,20 108,159
109,3089 110,1189 111,1069 112,389
113,30 118,40 119,80 120,30
121,50 123,10 127,659 128,50
136,499 137,319 138,50 139,10
144,90 145,6009 146,459 147,3879
148,269 149,629 150,40 151,10
152,20 161,10 162,20 163,10
164,20 176,70 177,10 186,10
199,10 200,20 201,10 237,40
238,10 239,10 271,10 272,9999
273,669 274,6089 275,419 276,969
277,70
##END=
