##TITLE=2,6-Dichloro-3-nitrotoluene
##JCAMP-DX=4.24
##DATA TYPE=MASS SPECTRUM
##ORIGIN=NIST Mass Spectrometry Data Center
##OWNER=NIST Mass Spectrometry Data Center
Collection (C) 2014 copyright by the U.S. Secretary of Commerce
on behalf of the United States of America. All rights reserved.
##CAS REGISTRY NO=29682-46-0
##$NIST MASS SPEC NO=343068
##MOLFORM=C7 H5 Cl2 N O2
##MW=205
##$NIST SOURCE=MSDC
##XUNITS=M/Z
##YUNITS=RELATIVE INTENSITY
##XFACTOR=1
##YFACTOR=1
##FIRSTX=16
##LASTX=209
##FIRSTY=170
##MAXX=209
##MINX=16
##MAXY=9999
##MINY=50
##NPOINTS=99
##PEAK TABLE=(XY..XY)
16,170 17,110 18,280 25,60
30,7377 32,50 35,500 36,741
37,1732 38,1431 39,2482 40,200
43,90 44,170 46,1291 47,400
48,230 49,1001 50,2772 51,2492
52,350 53,120 54,70 60,581
61,2262 62,4314 63,6966 64,791
65,160 71,170 72,921 73,3964
74,851 75,2923 76,701 77,1131
78,180 83,330 84,701 85,1812
86,2242 87,2402 88,1101 89,5685
90,631 96,601 97,2112 98,370
99,2002 100,240 101,520 102,270
104,160 105,240 107,410 108,280
109,581 111,7537 112,2562 113,2522
114,751 120,120 121,210 123,7857
124,2843 125,2933 126,881 133,1471
134,160 135,1151 136,80 137,200
138,130 139,260 140,581 141,210
142,200 147,4404 148,591 149,2522
150,210 151,390 159,4004 160,641
161,2412 162,230 163,400 175,9999
177,6306 178,561 179,1011 189,440
190,80 191,270 205,7617 206,1061
207,4614 208,390 209,831
##END=
