##TITLE=Racemorphan
##JCAMP-DX=4.24
##DATA TYPE=MASS SPECTRUM
##ORIGIN=HOME OFFICE, CENTRAL RES. EST., ALDERMASTON, BERKS., U.K.
##OWNER=NIST Mass Spectrometry Data Center
Collection (C) 2014 copyright by the U.S. Secretary of Commerce
on behalf of the United States of America. All rights reserved.
##CAS REGISTRY NO=297-90-5
##$NIST MASS SPEC NO=58679
##MOLFORM=C17 H23 N O
##MW=257
##$NIST SOURCE=MSDC
##XUNITS=M/Z
##YUNITS=RELATIVE INTENSITY
##XFACTOR=1
##YFACTOR=1
##FIRSTX=29
##LASTX=258
##FIRSTY=300
##MAXX=258
##MINX=29
##MAXY=9999
##MINY=200
##NPOINTS=54
##PEAK TABLE=(XY..XY)
29,300 30,900 31,1800 32,300
41,1000 42,2800 43,400 44,1900
55,400 56,400 57,500 58,1500
59,9999 60,300 65,300 67,400
70,1400 77,600 79,1900 80,3200
81,1300 82,2700 91,1100 94,700
95,300 96,300 107,400 115,1500
116,300 124,500 127,700 128,1100
129,500 131,400 141,1100 142,400
143,300 144,800 145,700 146,300
147,400 148,600 150,3400 151,500
157,1200 200,2200 201,200 212,200
214,700 228,700 242,500 256,6000
257,7500 258,1000
##END=
