##TITLE=Isobenzan
##JCAMP-DX=4.24
##DATA TYPE=MASS SPECTRUM
##ORIGIN=MASS SPECTROMETRY CENTER, UNIV. OF UTAH. EPA-PTSEL 1137
##OWNER=NIST Mass Spectrometry Data Center
Collection (C) 2014 copyright by the U.S. Secretary of Commerce
on behalf of the United States of America. All rights reserved.
##CAS REGISTRY NO=297-78-9
##$NIST MASS SPEC NO=52342
##MOLFORM=C9 H4 Cl8 O
##MW=408
##$NIST SOURCE=MSDC
##XUNITS=M/Z
##YUNITS=RELATIVE INTENSITY
##XFACTOR=1
##YFACTOR=1
##FIRSTX=17
##LASTX=416
##FIRSTY=75
##MAXX=416
##MINX=17
##MAXY=9999
##MINY=14
##NPOINTS=166
##PEAK TABLE=(XY..XY)
17,75 18,111 26,45 28,600
29,1410 35,373 36,1487 37,501
38,737 39,2363 40,340 42,21
47,325 48,108 49,1068 50,319
51,276 60,348 61,632 62,215
63,269 65,27 68,334 69,205
71,162 72,208 73,726 74,490
75,3422 76,77 77,1049 83,525
84,580 85,889 86,303 87,89
95,290 96,258 97,412 98,465
99,235 102,351 103,9999 104,501
105,3135 106,207 107,392 108,545
109,2040 110,218 111,1059 112,236
113,120 114,69 117,339 118,93
119,754 120,645 121,465 122,76
130,239 131,147 132,293 133,536
134,146 135,156 137,1765 138,1062
139,1250 140,346 141,577 142,19
143,670 144,48 145,379 147,28
155,40 157,143 159,29 165,214
167,459 168,197 169,556 170,432
171,299 172,163 179,20 180,107
182,22 191,208 193,231 195,43
201,54 203,330 204,1205 205,440
206,1145 207,244 208,360 216,51
227,606 228,64 229,737 230,14
231,324 233,54 235,1103 236,301
237,1784 238,1036 239,1777 240,1081
241,1099 242,518 243,417 244,73
248,112 250,201 251,47 252,116
261,466 263,751 265,493 267,155
269,29 270,673 271,46 272,1316
273,1107 274,1659 275,1840 276,1477
277,1256 278,755 279,484 280,181
281,76 309,2426 310,291 311,4764
312,463 313,3805 314,365 315,1581
316,103 317,363 339,75 341,46
345,139 347,347 349,336 351,141
373,747 374,91 375,1666 376,165
377,1597 378,148 379,875 380,16
381,258 408,103 410,337 412,389
414,247 416,54
##END=
