##TITLE=Phosphoric acid, 2-chloro-3-(diethylamino)-1-methyl-3-oxo-1-propenyl dimethyl ester, (E)-
##JCAMP-DX=4.24
##DATA TYPE=MASS SPECTRUM
##ORIGIN=S.M. Lee, CA Export Lab. Services, CA, USA
##OWNER=NIST Mass Spectrometry Data Center
Collection (C) 2014 copyright by the U.S. Secretary of Commerce
on behalf of the United States of America. All rights reserved.
##CAS REGISTRY NO=297-99-4
##$NIST MASS SPEC NO=290350
##MOLFORM=C10 H19 Cl N O5 P
##MW=299
##$NIST SOURCE=MSDC
##XUNITS=M/Z
##YUNITS=RELATIVE INTENSITY
##XFACTOR=1
##YFACTOR=1
##FIRSTX=51
##LASTX=300
##FIRSTY=30
##MAXX=300
##MINX=51
##MAXY=9999
##MINY=10
##NPOINTS=154
##PEAK TABLE=(XY..XY)
51,30 52,10 53,50 54,130
55,230 56,781 57,290 58,480
59,40 61,40 62,50 63,90
64,50 65,100 66,150 67,1191
68,120 69,60 70,911 71,190
72,4424 73,571 74,50 75,170
76,170 77,50 78,60 79,841
80,80 81,90 82,130 83,20
84,20 85,50 86,30 87,20
88,50 89,50 90,60 91,30
92,70 93,330 94,100 95,350
96,140 97,20 98,20 99,30
100,260 101,370 102,170 103,260
104,80 105,80 106,30 107,20
109,2652 110,601 111,60 113,190
114,20 115,10 116,50 117,80
118,70 119,130 120,100 121,20
122,70 123,20 124,80 125,50
127,9999 128,210 129,70 130,130
131,50 132,80 133,30 134,40
135,20 136,70 137,40 138,2252
139,210 140,30 141,10 143,10
144,100 145,100 146,50 147,60
148,20 149,30 150,10 151,20
152,10 153,50 154,10 155,10
156,10 157,10 158,901 159,60
160,210 161,20 162,20 163,10
164,100 165,180 166,40 168,10
170,10 171,20 172,340 173,300
174,230 175,80 176,60 177,10
190,20 191,20 192,230 193,651
194,50 195,20 196,20 198,50
199,10 200,10 220,20 221,10
222,10 224,20 226,70 227,671
228,30 229,180 230,20 236,10
248,20 261,20 262,30 264,3223
265,390 266,40 268,20 269,10
270,10 277,20 278,10 285,10
298,10 300,10
##END=
