##TITLE=Cyclotriacontane
##JCAMP-DX=4.24
##DATA TYPE=MASS SPECTRUM
##ORIGIN=D.HENNEBERG, MAX-PLANCK INSTITUTE, MULHEIM, WEST GERMANY
##OWNER=NIST Mass Spectrometry Data Center
Collection (C) 2014 copyright by the U.S. Secretary of Commerce
on behalf of the United States of America. All rights reserved.
##CAS REGISTRY NO=297-35-8
##$NIST MASS SPEC NO=61729
##MOLFORM=C30 H60
##MW=420
##$NIST SOURCE=MSDC
##XUNITS=M/Z
##YUNITS=RELATIVE INTENSITY
##XFACTOR=1
##YFACTOR=1
##FIRSTX=26
##LASTX=423
##FIRSTY=6
##MAXX=423
##MINX=26
##MAXY=9999
##MINY=2
##NPOINTS=233
##PEAK TABLE=(XY..XY)
26,6 27,14 29,117 33,8
34,3 37,3 39,29 40,2
41,728 42,341 43,4582 44,88
47,3 49,3 51,4 52,7
53,14 54,311 55,3864 56,3587
57,9999 58,431 61,3 62,4
65,4 66,102 67,709 68,1520
69,4988 70,3157 71,5495 72,293
73,9 74,5 75,4 78,9
79,20 80,71 81,719 82,2749
83,6529 84,1982 85,3273 86,206
87,8 88,3 90,4 91,8
92,4 93,10 94,45 95,457
96,1960 97,6944 98,1290 99,1043
100,77 101,5 105,11 106,4
107,5 108,20 109,246 110,746
111,3912 112,938 113,673 114,61
117,3 118,7 119,6 120,4
121,5 122,51 123,223 124,625
125,2344 126,650 127,473 128,42
130,3 133,7 134,4 135,6
136,37 137,174 138,510 139,1496
140,518 141,371 142,39 143,3
148,3 149,5 150,9 151,63
152,386 153,1082 154,423 155,288
156,34 157,3 164,3 165,33
166,320 167,875 168,387 169,244
170,31 178,3 179,24 180,283
181,706 182,318 183,176 184,26
185,7 186,5 187,4 193,18
194,269 195,599 196,283 197,143
198,21 199,3 203,4 204,6
205,7 206,5 207,17 208,264
209,502 210,255 211,125 212,18
220,3 221,15 222,268 223,434
224,230 225,111 226,23 235,14
236,241 237,379 238,224 239,95
240,16 244,5 245,6 246,5
247,3 249,14 250,260 251,359
252,202 253,89 254,12 263,12
264,259 265,331 266,198 267,78
268,18 269,4 277,9 278,254
279,315 280,175 281,68 282,12
289,6 291,16 292,258 293,316
294,172 295,58 296,9 305,7
306,242 307,311 308,159 309,50
310,9 312,4 313,7 314,8
315,5 316,4 319,5 320,241
321,301 322,162 323,48 324,7
333,5 334,233 335,316 336,163
337,50 338,16 347,4 348,211
349,325 350,152 351,47 352,8
362,184 363,344 364,160 365,43
366,25 376,94 377,226 378,109
379,32 380,4 390,66 391,131
392,417 393,117 394,17 405,12
406,3 408,3 416,4 417,5
418,45 420,5432 421,1803 422,294
423,31
##END=
