##TITLE=5,6-Dibromovanillin
##JCAMP-DX=4.24
##DATA TYPE=MASS SPECTRUM
##ORIGIN=NIST Mass Spectrometry Data Center, 1994
##OWNER=NIST Mass Spectrometry Data Center
Collection (C) 2014 copyright by the U.S. Secretary of Commerce
on behalf of the United States of America. All rights reserved.
##CAS REGISTRY NO=2973-75-3
##$NIST MASS SPEC NO=136468
##MOLFORM=C8 H6 Br2 O3
##MW=308
##$NIST SOURCE=MSDC
##XUNITS=M/Z
##YUNITS=RELATIVE INTENSITY
##XFACTOR=1
##YFACTOR=1
##FIRSTX=15
##LASTX=313
##FIRSTY=182
##MAXX=313
##MINX=15
##MAXY=9999
##MINY=48
##NPOINTS=114
##PEAK TABLE=(XY..XY)
15,182 26,66 27,92 37,218
38,132 39,147 43,90 49,598
50,962 51,585 52,90 53,555
55,59 60,131 61,551 62,511
63,279 64,73 65,261 66,135
67,56 74,72 76,94 77,1370
78,463 79,566 80,76 81,106
82,58 90,173 91,306 92,79
93,116 105,240 106,182 107,142
117,87 119,65 120,149 121,121
128,201 129,385 130,261 131,462
132,93 133,156 135,152 140,121
141,135 142,90 143,219 144,74
145,85 157,770 158,150 159,840
160,111 170,70 171,52 172,224
173,160 174,184 175,117 185,152
186,109 187,156 188,97 197,48
199,80 200,223 201,70 202,259
209,94 211,80 213,111 214,98
215,87 216,99 223,59 228,135
230,144 235,49 237,466 238,127
239,1047 240,87 241,513 251,96
253,196 255,80 264,144 265,677
266,225 267,1341 268,223 269,611
279,155 280,121 281,207 282,173
283,106 292,85 293,249 294,171
295,572 296,116 297,279 307,3292
308,4424 309,7688 310,9999 311,4002
312,4838 313,432
##END=
