##TITLE=4-Butyl-N-(4-ethoxybenzylidene)aniline
##JCAMP-DX=4.24
##DATA TYPE=MASS SPECTRUM
##ORIGIN=NIST Mass Spectrometry Data Center, 1994
##OWNER=NIST Mass Spectrometry Data Center
Collection (C) 2014 copyright by the U.S. Secretary of Commerce
on behalf of the United States of America. All rights reserved.
##CAS REGISTRY NO=29743-08-6
##$NIST MASS SPEC NO=135444
##MOLFORM=C19 H23 N O
##MW=281
##$NIST SOURCE=MSDC
##XUNITS=M/Z
##YUNITS=RELATIVE INTENSITY
##XFACTOR=1
##YFACTOR=1
##FIRSTX=14
##LASTX=283
##FIRSTY=18
##MAXX=283
##MINX=14
##MAXY=9999
##MINY=15
##NPOINTS=120
##PEAK TABLE=(XY..XY)
14,18 15,41 27,1335 28,209
29,2105 30,53 38,48 39,498
40,76 41,660 42,50 43,302
44,18 50,117 51,438 52,115
53,84 54,19 55,118 56,29
57,115 62,44 63,279 64,152
65,660 66,108 67,15 75,74
76,161 77,880 78,298 79,104
82,18 84,42 87,23 89,818
90,1192 91,796 92,103 93,82
94,63 96,51 97,19 101,53
102,139 103,288 104,219 105,284
106,126 107,69 112,17 113,17
115,302 116,233 117,117 118,39
119,60 120,47 127,117 128,127
129,60 130,106 131,54 132,100
133,27 135,25 139,100 140,83
141,53 142,48 150,19 151,80
152,290 153,180 154,139 155,56
156,16 158,29 163,23 165,179
166,187 167,272 168,206 169,31
177,34 178,102 180,934 181,433
182,95 183,192 184,31 190,31
191,81 192,89 193,121 194,70
195,40 196,173 197,42 207,27
208,135 210,3004 211,430 212,41
222,139 223,59 224,38 225,29
235,62 236,69 238,9999 239,1775
240,143 250,25 251,28 252,92
253,25 281,3792 282,738 283,90
##END=
