##TITLE=p-Butoxybenzylidene p-butylaniline
##JCAMP-DX=4.24
##DATA TYPE=MASS SPECTRUM
##ORIGIN=NIST Mass Spectrometry Data Center, 1994
##OWNER=NIST Mass Spectrometry Data Center
Collection (C) 2014 copyright by the U.S. Secretary of Commerce
on behalf of the United States of America. All rights reserved.
##CAS REGISTRY NO=29743-09-7
##$NIST MASS SPEC NO=135882
##MOLFORM=C21 H27 N O
##MW=309
##$NIST SOURCE=MSDC
##XUNITS=M/Z
##YUNITS=RELATIVE INTENSITY
##XFACTOR=1
##YFACTOR=1
##FIRSTX=17
##LASTX=312
##FIRSTY=62
##MAXX=312
##MINX=17
##MAXY=9999
##MINY=5
##NPOINTS=125
##PEAK TABLE=(XY..XY)
17,62 18,81 26,17 27,1072
28,364 29,3963 30,50 32,5
38,46 39,870 41,3047 42,101
43,101 44,41 50,109 51,439
52,102 53,121 54,41 55,302
56,57 57,872 58,47 62,41
63,231 64,117 65,879 66,104
75,61 76,161 77,943 78,335
79,151 82,37 83,97 89,906
90,1464 91,1100 92,140 93,163
94,77 96,102 97,68 101,50
102,158 103,346 104,225 105,255
106,160 107,102 112,70 115,327
116,273 117,166 118,56 119,55
120,48 126,35 127,125 128,165
129,69 130,184 131,97 132,123
133,46 139,112 140,86 141,99
142,76 144,34 151,99 152,327
153,201 154,152 155,77 156,30
158,60 159,35 160,74 163,35
164,62 165,296 166,236 167,431
168,478 169,73 177,44 178,137
179,149 180,1107 181,533 182,134
183,304 184,45 190,45 191,121
192,146 193,211 194,143 195,45
196,448 197,99 204,32 207,36
208,152 210,8339 211,1437 212,122
222,236 223,123 224,101 235,118
236,120 237,31 252,266 253,572
254,115 264,50 266,9999 267,2106
268,240 309,7205 310,1700 311,195
312,12
##END=
