##TITLE=1H-Inden-2-amine, 2,3-dihydro-
##JCAMP-DX=4.24
##DATA TYPE=MASS SPECTRUM
##ORIGIN=NIST Mass Spectrometry Data Center
##OWNER=NIST Mass Spectrometry Data Center
Collection (C) 2014 copyright by the U.S. Secretary of Commerce
on behalf of the United States of America. All rights reserved.
##CAS REGISTRY NO=2975-41-9
##$NIST MASS SPEC NO=340867
##MOLFORM=C9 H11 N
##MW=133
##$NIST SOURCE=MSDC
##XUNITS=M/Z
##YUNITS=RELATIVE INTENSITY
##XFACTOR=1
##YFACTOR=1
##FIRSTX=15
##LASTX=135
##FIRSTY=40
##MAXX=135
##MINX=15
##MAXY=9999
##MINY=10
##NPOINTS=61
##PEAK TABLE=(XY..XY)
15,40 17,10 26,50 27,330
29,80 30,330 37,60 38,140
39,881 40,130 41,230 42,390
43,130 50,440 51,931 52,360
53,310 54,180 56,60 57,40
58,50 61,80 62,300 63,861
65,891 74,170 75,190 76,190
77,1381 78,731 79,540 80,120
86,80 87,80 88,40 89,741
90,300 91,5145 92,490 93,70
101,50 102,300 103,1021 104,641
105,1531 106,1381 107,140 113,50
114,70 115,3333 116,5615 117,2272
118,2732 119,250 128,40 130,1221
131,400 132,3743 133,9999 134,1031
135,50
##END=
