##TITLE=Butane, 1-(ethylsulfinyl)-
##JCAMP-DX=4.24
##DATA TYPE=MASS SPECTRUM
##OWNER=NIST Mass Spectrometry Data Center
Collection (C) 2014 copyright by the U.S. Secretary of Commerce
on behalf of the United States of America. All rights reserved.
##CAS REGISTRY NO=2976-99-0
##$NIST MASS SPEC NO=3214
##MOLFORM=C6 H14 O S
##MW=134
##$NIST SOURCE=MSDC
##XUNITS=M/Z
##YUNITS=RELATIVE INTENSITY
##XFACTOR=1
##YFACTOR=1
##FIRSTX=25
##LASTX=135
##FIRSTY=100
##MAXX=135
##MINX=25
##MAXY=9999
##MINY=100
##NPOINTS=57
##PEAK TABLE=(XY..XY)
25,100 26,901 27,4304 28,3703
29,9999 30,200 31,100 32,300
33,100 34,200 35,200 37,100
38,200 39,1301 40,300 41,6706
42,300 43,400 44,400 45,500
46,300 47,500 48,200 49,200
50,1101 51,200 52,100 53,200
54,100 55,1501 56,1501 57,4004
58,400 59,400 60,100 61,400
62,200 63,4004 64,500 65,200
75,500 76,300 77,601 78,8508
79,400 80,400 89,500 90,200
91,100 92,200 105,100 106,500
117,1001 118,200 119,100 134,701
135,100
##END=
