##TITLE=Cyclohexane, 1-(1,5-dimethylhexyl)-4-methyl-
##JCAMP-DX=4.24
##DATA TYPE=MASS SPECTRUM
##ORIGIN=J. MINYARD STATE COLLEGE, MISSISSIPPI, USA
##OWNER=NIST Mass Spectrometry Data Center
Collection (C) 2014 copyright by the U.S. Secretary of Commerce
on behalf of the United States of America. All rights reserved.
##CAS REGISTRY NO=29799-19-7
##$NIST MASS SPEC NO=9654
##MOLFORM=C15 H30
##MW=210
##$NIST SOURCE=MSDC
##XUNITS=M/Z
##YUNITS=RELATIVE INTENSITY
##XFACTOR=1
##YFACTOR=1
##FIRSTX=39
##LASTX=211
##FIRSTY=200
##MAXX=211
##MINX=39
##MAXY=9999
##MINY=100
##NPOINTS=37
##PEAK TABLE=(XY..XY)
39,200 41,2700 42,300 43,1700
53,300 54,400 55,8200 56,2200
57,3400 65,100 66,100 67,1000
68,600 69,4600 70,800 71,1200
79,100 80,100 81,3400 82,300
83,1500 95,600 96,8300 97,9999
98,600 111,200 112,1300 113,500
123,600 124,1600 125,2200 126,200
137,100 139,100 208,100 210,900
211,100
##END=
