##TITLE=Methyl parathion
##JCAMP-DX=4.24
##DATA TYPE=MASS SPECTRUM
##ORIGIN=NIST Mass Spectrometry Data Center, 1990.
##OWNER=NIST Mass Spectrometry Data Center
Collection (C) 2014 copyright by the U.S. Secretary of Commerce
on behalf of the United States of America. All rights reserved.
##CAS REGISTRY NO=298-00-0
##$NIST MASS SPEC NO=118979
##MOLFORM=C8 H10 N O5 P S
##MW=263
##$NIST SOURCE=MSDC
##XUNITS=M/Z
##YUNITS=RELATIVE INTENSITY
##XFACTOR=1
##YFACTOR=1
##FIRSTX=15
##LASTX=266
##FIRSTY=905
##MAXX=266
##MINX=15
##MAXY=9999
##MINY=7
##NPOINTS=154
##PEAK TABLE=(XY..XY)
15,905 17,18 18,37 25,11
26,85 29,112 30,1228 31,210
33,20 36,8 37,104 38,550
39,213 41,18 42,13 43,14
44,13 45,333 46,247 47,2451
48,70 49,153 50,847 51,276
52,202 53,125 54,108 55,25
56,11 57,41 58,40 59,11
60,18 61,165 62,1248 63,2939
64,1142 65,237 66,71 67,32
68,101 69,153 70,77 71,23
73,44 74,336 75,578 76,613
77,313 78,23 79,3661 80,245
81,102 82,127 83,89 84,19
85,13 86,8 87,12 88,7
89,74 90,79 91,55 92,360
93,2027 94,215 95,491 96,610
97,85 98,28 99,27 104,20
105,28 106,196 107,397 108,20
109,9999 110,322 111,298 112,139
113,33 114,16 115,35 119,9
120,16 121,73 122,169 123,474
124,9 125,8272 126,303 127,513
128,20 129,10 134,8 135,93
136,527 137,818 138,296 139,325
140,53 141,23 142,29 143,31
149,26 150,24 151,130 152,96
153,303 154,260 155,370 156,52
157,37 167,43 168,188 169,119
170,98 171,69 172,257 173,37
174,18 175,9 183,20 184,20
185,87 186,99 187,31 188,18
200,754 201,164 202,188 203,28
204,24 205,99 206,10 215,68
216,333 217,161 218,90 219,12
230,37 231,87 232,370 233,517
234,77 235,30 246,740 247,177
248,89 249,16 263,8685 264,877
265,490 266,42
##END=
