##TITLE=Phosphorothioic acid, O,O-diethyl O-[2-(ethylthio)ethyl] ester
##JCAMP-DX=4.24
##DATA TYPE=MASS SPECTRUM
##ORIGIN=NIST Mass Spectrometry Data Center, 1990.
##OWNER=NIST Mass Spectrometry Data Center
Collection (C) 2014 copyright by the U.S. Secretary of Commerce
on behalf of the United States of America. All rights reserved.
##CAS REGISTRY NO=298-03-3
##$NIST MASS SPEC NO=118986
##MOLFORM=C8 H19 O3 P S2
##MW=258
##$NIST SOURCE=MSDC
##XUNITS=M/Z
##YUNITS=RELATIVE INTENSITY
##XFACTOR=1
##YFACTOR=1
##FIRSTX=13
##LASTX=260
##FIRSTY=16
##MAXX=260
##MINX=13
##MAXY=9999
##MINY=2
##NPOINTS=129
##PEAK TABLE=(XY..XY)
13,16 14,39 15,102 16,2
17,7 18,15 19,21 26,218
27,1536 28,566 29,2342 30,63
31,70 32,118 33,15 34,42
35,365 36,17 37,15 39,28
40,14 41,112 42,34 43,201
44,78 45,1097 46,274 47,830
48,55 49,49 53,27 54,37
55,202 56,16 57,46 58,289
59,1368 60,4507 61,2429 62,280
63,171 64,153 65,574 66,35
73,250 75,504 76,38 77,59
78,30 79,80 80,30 81,1137
82,90 83,55 85,41 88,9999
89,3780 90,650 91,526 92,136
93,721 94,44 95,45 96,148
97,908 98,99 99,86 100,7
105,25 106,10 107,41 109,643
110,38 111,52 113,196 114,862
115,1451 116,76 117,68 119,13
121,127 122,24 123,56 124,36
125,224 126,751 127,87 128,53
129,12 137,108 138,44 139,221
140,42 141,420 142,539 143,1077
144,57 145,92 146,14 147,8
153,109 154,19 155,49 156,14
157,66 158,10 167,11 169,98
170,819 171,1200 172,124 173,349
174,18 175,24 183,7 185,48
187,23 197,48 198,15 201,59
203,11 213,140 214,14 215,19
229,46 231,7 258,193 259,26
260,25
##END=
