##TITLE=Carbamazepine
##JCAMP-DX=4.24
##DATA TYPE=MASS SPECTRUM
##ORIGIN=Japan AIST/NIMC Database- Spectrum MS-IW-6351
##OWNER=NIST Mass Spectrometry Data Center
Collection (C) 2014 copyright by the U.S. Secretary of Commerce
on behalf of the United States of America. All rights reserved.
##CAS REGISTRY NO=298-46-4
##$NIST MASS SPEC NO=236284
##MOLFORM=C15 H12 N2 O
##MW=236
##$NIST SOURCE=MSDC
##XUNITS=M/Z
##YUNITS=RELATIVE INTENSITY
##XFACTOR=1
##YFACTOR=1
##FIRSTX=18
##LASTX=238
##FIRSTY=40
##MAXX=238
##MINX=18
##MAXY=9999
##MINY=10
##NPOINTS=90
##PEAK TABLE=(XY..XY)
18,40 27,10 28,20 29,20
38,10 39,70 42,50 43,299
44,40 50,40 51,70 52,20
62,40 63,119 64,30 65,20
69,90 70,50 74,40 75,70
76,60 77,60 78,10 81,109
82,169 83,369 84,50 86,20
87,40 88,40 89,149 90,80
91,20 94,50 95,489 96,479
97,70 98,10 99,10 100,10
101,40 102,30 111,10 113,50
114,30 115,70 116,20 117,30
125,10 126,40 127,30 128,60
129,10 137,20 138,30 139,159
140,129 141,20 150,30 151,50
152,99 153,50 154,20 162,20
163,219 164,269 165,1069 166,399
167,479 168,60 176,40 177,119
178,199 179,90 180,20 188,40
189,99 190,689 191,1409 192,2839
193,9999 194,1539 195,119 218,50
219,10 234,10 235,10 236,2149
237,369 238,30
##END=
