##TITLE=Acetic acid, oxo-
##JCAMP-DX=4.24
##DATA TYPE=MASS SPECTRUM
##ORIGIN=Japan AIST/NIMC Database- Spectrum MS-NW-6289
##OWNER=NIST Mass Spectrometry Data Center
Collection (C) 2014 copyright by the U.S. Secretary of Commerce
on behalf of the United States of America. All rights reserved.
##CAS REGISTRY NO=298-12-4
##$NIST MASS SPEC NO=234871
##MOLFORM=C2 H2 O3
##MW=74
##$NIST SOURCE=MSDC
##XUNITS=M/Z
##YUNITS=RELATIVE INTENSITY
##XFACTOR=1
##YFACTOR=1
##FIRSTX=12
##LASTX=75
##FIRSTY=239
##MAXX=75
##MINX=12
##MAXY=9999
##MINY=10
##NPOINTS=38
##PEAK TABLE=(XY..XY)
12,239 13,139 14,50 15,10
16,509 17,999 18,3209 19,20
24,20 25,30 26,20 27,20
28,5149 29,7209 30,4499 31,179
32,50 36,20 38,10 39,10
40,80 41,119 42,30 43,50
44,9999 45,3779 46,1659 47,50
48,10 50,20 51,40 55,10
56,489 57,30 58,30 73,20
74,119 75,10
##END=
