##TITLE=Bis(2-ethylhexyl)hydrogen phosphate
##JCAMP-DX=4.24
##DATA TYPE=MASS SPECTRUM
##ORIGIN=Japan AIST/NIMC Database- Spectrum MS-NW-5325
##OWNER=NIST Mass Spectrometry Data Center
Collection (C) 2014 copyright by the U.S. Secretary of Commerce
on behalf of the United States of America. All rights reserved.
##CAS REGISTRY NO=298-07-7
##$NIST MASS SPEC NO=233125
##MOLFORM=C16 H35 O4 P
##MW=322
##$NIST SOURCE=MSDC
##XUNITS=M/Z
##YUNITS=RELATIVE INTENSITY
##XFACTOR=1
##YFACTOR=1
##FIRSTX=15
##LASTX=293
##FIRSTY=10
##MAXX=293
##MINX=15
##MAXY=9999
##MINY=10
##NPOINTS=60
##PEAK TABLE=(XY..XY)
15,10 18,10 26,10 27,279
28,60 29,619 30,10 31,60
39,219 40,40 41,1369 42,309
43,979 44,40 45,40 51,20
52,10 53,119 54,119 55,1499
56,569 57,1949 58,90 65,20
66,10 67,129 68,80 69,669
70,1329 71,1399 72,80 77,20
79,20 81,99 82,199 83,759
84,299 85,20 95,30 97,80
98,10 99,9999 100,20 101,80
110,20 111,50 112,1609 113,1609
114,139 125,20 137,10 139,10
149,30 152,10 153,50 167,20
181,50 211,239 212,20 293,10
##END=
