##TITLE=2-Cyclohexen-1-ol, 1-methyl-4-(1-methylethyl)-, cis-
##JCAMP-DX=4.24
##DATA TYPE=MASS SPECTRUM
##ORIGIN=N.W. Davies, Centr. Sci. Lab., Univ. Tasmania, Hobart, Australia
##OWNER=NIST Mass Spectrometry Data Center
Collection (C) 2014 copyright by the U.S. Secretary of Commerce
on behalf of the United States of America. All rights reserved.
##CAS REGISTRY NO=29803-82-5
##$NIST MASS SPEC NO=107168
##MOLFORM=C10 H18 O
##MW=154
##$NIST SOURCE=MSDC
##XUNITS=M/Z
##YUNITS=RELATIVE INTENSITY
##XFACTOR=1
##YFACTOR=1
##FIRSTX=26
##LASTX=155
##FIRSTY=100
##MAXX=155
##MINX=26
##MAXY=9999
##MINY=50
##NPOINTS=81
##PEAK TABLE=(XY..XY)
26,100 27,1830 29,400 31,330
33,80 38,170 39,2050 41,3600
42,270 43,9999 45,300 50,250
51,640 52,210 53,840 54,290
55,2670 56,230 57,520 58,700
59,140 62,80 63,310 64,50
65,850 66,400 67,1570 68,420
69,3540 70,300 71,2450 72,140
73,130 77,1900 78,350 79,1950
80,520 81,2400 82,460 83,2220
84,1570 85,160 86,250 88,70
91,1820 92,1170 93,4480 94,1450
95,1440 96,670 97,900 98,200
99,90 101,100 102,90 103,110
104,70 105,260 106,160 107,620
108,320 109,340 110,400 111,2720
112,310 115,140 117,50 119,470
120,90 121,2960 122,370 123,120
125,240 126,220 134,120 136,1870
137,340 139,3850 140,440 154,680
155,100
##END=
