##TITLE=2-Methyl-1-nonene
##JCAMP-DX=4.24
##DATA TYPE=MASS SPECTRUM
##ORIGIN=NIST Mass Spectrometry Data Center, 1990.
##OWNER=NIST Mass Spectrometry Data Center
Collection (C) 2014 copyright by the U.S. Secretary of Commerce
on behalf of the United States of America. All rights reserved.
##CAS REGISTRY NO=2980-71-4
##$NIST MASS SPEC NO=113561
##MOLFORM=C10 H20
##MW=140
##$NIST SOURCE=MSDC
##XUNITS=M/Z
##YUNITS=RELATIVE INTENSITY
##XFACTOR=1
##YFACTOR=1
##FIRSTX=27
##LASTX=141
##FIRSTY=1647
##MAXX=141
##MINX=27
##MAXY=9999
##MINY=83
##NPOINTS=39
##PEAK TABLE=(XY..XY)
27,1647 28,656 29,2047 39,2442
40,644 41,5204 42,1040 43,1955
44,95 50,83 51,213 52,126
53,855 54,479 55,3619 56,9999
57,2789 58,125 65,140 66,85
67,740 68,459 69,3160 70,928
71,117 77,95 79,109 81,132
82,215 83,461 84,808 85,132
97,304 98,154 111,120 112,350
125,283 140,782 141,89
##END=
