##TITLE=Hexanoic acid, 2-ethyl-, ethyl ester
##JCAMP-DX=4.24
##DATA TYPE=MASS SPECTRUM
##ORIGIN=NIST Mass Spectrometry Data Center, 2010
##OWNER=NIST Mass Spectrometry Data Center
Collection (C) 2014 copyright by the U.S. Secretary of Commerce
on behalf of the United States of America. All rights reserved.
##CAS REGISTRY NO=2983-37-1
##$NIST MASS SPEC NO=375981
##MOLFORM=C10 H20 O2
##MW=172
##$NIST SOURCE=MSDC
##XUNITS=M/Z
##YUNITS=RELATIVE INTENSITY
##XFACTOR=1
##YFACTOR=1
##FIRSTX=15
##LASTX=172
##FIRSTY=30
##MAXX=172
##MINX=15
##MAXY=9999
##MINY=10
##NPOINTS=88
##PEAK TABLE=(XY..XY)
15,30 19,10 25,10 26,70
27,991 28,230 29,2122 30,70
31,60 37,10 38,20 39,741
40,130 41,2602 42,601 43,1892
44,80 45,420 46,20 47,30
50,20 51,50 52,20 53,260
54,130 55,2352 56,731 57,6996
58,360 59,170 60,60 61,10
63,10 65,40 66,20 67,120
68,90 69,741 70,771 71,360
72,60 73,2963 74,150 75,30
77,20 79,40 80,20 81,50
82,30 83,220 84,40 85,50
86,50 87,851 88,1651 89,290
90,20 93,10 95,20 96,20
97,250 98,280 99,1131 100,130
101,8287 102,581 103,50 109,10
111,30 113,20 114,10 115,2202
116,9999 117,631 118,50 125,10
127,1852 128,150 129,1171 130,120
131,10 141,20 143,671 144,1561
145,210 146,20 157,60 172,60
##END=
