##TITLE=2-Methyl-5-nonanol
##JCAMP-DX=4.24
##DATA TYPE=MASS SPECTRUM
##ORIGIN=NIST Mass Spectrometry Data Center, 1990.
##OWNER=NIST Mass Spectrometry Data Center
Collection (C) 2014 copyright by the U.S. Secretary of Commerce
on behalf of the United States of America. All rights reserved.
##CAS REGISTRY NO=29843-62-7
##$NIST MASS SPEC NO=113765
##MOLFORM=C10 H22 O
##MW=158
##$NIST SOURCE=MSDC
##XUNITS=M/Z
##YUNITS=RELATIVE INTENSITY
##XFACTOR=1
##YFACTOR=1
##FIRSTX=15
##LASTX=140
##FIRSTY=183
##MAXX=140
##MINX=15
##MAXY=9999
##MINY=134
##NPOINTS=37
##PEAK TABLE=(XY..XY)
15,183 27,2105 28,1230 29,3305
30,197 31,739 32,144 39,1568
41,6568 42,807 43,3644 44,827
45,943 53,430 55,5612 56,1661
57,3654 58,1289 59,364 67,340
69,9999 70,816 71,370 72,161
81,366 83,9522 84,850 85,447
87,4781 88,291 99,134 100,358
101,2168 102,174 112,192 125,188
140,204
##END=
