##TITLE=Thiourea, N,N'-bis(1-methylethyl)-
##JCAMP-DX=4.24
##DATA TYPE=MASS SPECTRUM
##ORIGIN=Japan AIST/NIMC Database- Spectrum MS-NW- 196
##OWNER=NIST Mass Spectrometry Data Center
Collection (C) 2014 copyright by the U.S. Secretary of Commerce
on behalf of the United States of America. All rights reserved.
##CAS REGISTRY NO=2986-17-6
##$NIST MASS SPEC NO=228392
##MOLFORM=C7 H16 N2 S
##MW=160
##$NIST SOURCE=MSDC
##XUNITS=M/Z
##YUNITS=RELATIVE INTENSITY
##XFACTOR=1
##YFACTOR=1
##FIRSTX=15
##LASTX=163
##FIRSTY=149
##MAXX=163
##MINX=15
##MAXY=9999
##MINY=10
##NPOINTS=73
##PEAK TABLE=(XY..XY)
15,149 26,20 27,639 28,279
29,40 30,159 32,30 34,10
38,30 39,399 40,80 41,1279
42,709 43,1429 44,1169 45,70
46,10 47,40 48,30 52,10
54,40 55,30 56,80 57,139
58,9999 59,369 60,1049 61,70
62,99 64,129 65,20 66,20
67,20 68,40 69,239 70,309
71,60 72,30 73,30 74,30
75,169 76,90 77,30 83,80
84,10 85,469 86,60 87,10
88,40 90,109 93,20 96,30
100,70 101,70 102,99 103,109
104,20 111,30 113,30 115,20
117,329 118,30 119,20 126,30
127,70 128,70 130,10 145,10
159,269 160,4209 161,429 162,209
163,10
##END=
