##TITLE=Cyclododecyl methyl ether
##JCAMP-DX=4.24
##DATA TYPE=MASS SPECTRUM
##ORIGIN=Chuck Anderson, Aldrich Chemical Co.
##OWNER=NIST Mass Spectrometry Data Center
Collection (C) 2014 copyright by the U.S. Secretary of Commerce
on behalf of the United States of America. All rights reserved.
##CAS REGISTRY NO=2986-54-1
##$NIST MASS SPEC NO=108247
##MOLFORM=C13 H26 O
##MW=198
##$NIST SOURCE=MSDC
##XUNITS=M/Z
##YUNITS=RELATIVE INTENSITY
##XFACTOR=1
##YFACTOR=1
##FIRSTX=15
##LASTX=198
##FIRSTY=193
##MAXX=198
##MINX=15
##MAXY=9999
##MINY=5
##NPOINTS=84
##PEAK TABLE=(XY..XY)
15,193 18,8 26,71 27,1185
28,827 29,2692 30,82 31,186
32,29 33,153 38,29 39,1559
40,336 41,8204 42,1303 43,2264
45,3888 46,83 47,6 50,5
51,62 52,37 53,544 54,1025
55,2713 56,448 57,427 58,2008
59,368 60,5 65,102 66,507
67,2606 68,2435 69,1073 71,9999
72,646 73,65 77,74 78,5
79,233 80,249 81,1965 82,4444
83,908 84,168 85,1057 86,65
87,16 91,15 93,47 94,58
95,1073 96,1388 97,357 98,106
99,97 100,31 108,26 109,689
110,817 111,113 112,9 113,241
114,58 122,48 123,438 124,438
125,56 127,264 128,17 129,6
136,16 137,237 138,357 139,35
141,104 151,11 155,105 166,1078
167,138 169,12 197,15 198,83
##END=
