##TITLE=Cyclohexane, 1,2-dimethoxy-, trans-
##JCAMP-DX=4.24
##DATA TYPE=MASS SPECTRUM
##OWNER=NIST Mass Spectrometry Data Center
Collection (C) 2014 copyright by the U.S. Secretary of Commerce
on behalf of the United States of America. All rights reserved.
##CAS REGISTRY NO=29887-60-3
##$NIST MASS SPEC NO=4095
##MOLFORM=C8 H16 O2
##MW=144
##$NIST SOURCE=MSDC
##XUNITS=M/Z
##YUNITS=RELATIVE INTENSITY
##XFACTOR=1
##YFACTOR=1
##FIRSTX=39
##LASTX=145
##FIRSTY=1101
##MAXX=145
##MINX=39
##MAXY=9999
##MINY=200
##NPOINTS=46
##PEAK TABLE=(XY..XY)
39,1101 41,3904 42,200 43,801
45,3303 46,300 47,200 51,200
53,601 54,601 55,1301 56,400
57,500 58,2702 59,1501 67,1401
68,300 69,1301 70,300 71,8808
72,801 73,400 75,300 77,300
79,701 80,400 81,1501 82,1401
83,300 84,9999 85,1001 86,300
87,500 89,300 97,1702 98,300
99,500 101,300 103,300 110,200
111,901 112,2302 113,801 129,200
144,5005 145,500
##END=
