##TITLE=Cyclopentane, 1,2,3,4,5-pentamethoxy-, stereoisomer
##JCAMP-DX=4.24
##DATA TYPE=MASS SPECTRUM
##OWNER=NIST Mass Spectrometry Data Center
Collection (C) 2014 copyright by the U.S. Secretary of Commerce
on behalf of the United States of America. All rights reserved.
##CAS REGISTRY NO=29887-59-0
##$NIST MASS SPEC NO=10348
##MOLFORM=C10 H20 O5
##MW=220
##$NIST SOURCE=MSDC
##XUNITS=M/Z
##YUNITS=RELATIVE INTENSITY
##XFACTOR=1
##YFACTOR=1
##FIRSTX=41
##LASTX=220
##FIRSTY=300
##MAXX=220
##MINX=41
##MAXY=9999
##MINY=100
##NPOINTS=29
##PEAK TABLE=(XY..XY)
41,300 42,100 43,200 45,1201
47,100 53,100 55,100 56,100
57,100 58,100 59,200 69,100
71,100 73,300 74,200 75,901
85,200 86,100 88,500 89,100
95,100 101,9999 102,601 103,100
114,300 117,100 131,300 157,200
220,200
##END=
