##TITLE=1,2-Diphenylcyclopropane
##JCAMP-DX=4.24
##DATA TYPE=MASS SPECTRUM
##ORIGIN=NIST Mass Spectrometry Data Center, 1994
##OWNER=NIST Mass Spectrometry Data Center
Collection (C) 2014 copyright by the U.S. Secretary of Commerce
on behalf of the United States of America. All rights reserved.
##CAS REGISTRY NO=29881-14-9
##$NIST MASS SPEC NO=135351
##MOLFORM=C15 H14
##MW=194
##$NIST SOURCE=MSDC
##XUNITS=M/Z
##YUNITS=RELATIVE INTENSITY
##XFACTOR=1
##YFACTOR=1
##FIRSTX=15
##LASTX=196
##FIRSTY=61
##MAXX=196
##MINX=15
##MAXY=9999
##MINY=39
##NPOINTS=86
##PEAK TABLE=(XY..XY)
15,61 17,42 18,87 26,140
27,833 28,39 37,117 38,470
39,2986 40,330 41,272 50,1250
51,3144 52,660 53,178 57,48
61,164 62,714 63,2417 64,622
65,2145 66,155 69,68 70,99
74,387 75,497 76,841 77,2629
78,1271 79,174 83,389 86,187
87,261 88,261 89,2145 90,174
91,3852 92,521 94,71 95,357
96,103 97,90 98,105 99,56
101,140 102,830 103,2424 104,346
113,188 115,9999 116,5769 117,2216
118,192 126,148 127,153 128,361
129,82 139,312 140,53 141,118
150,115 151,295 152,969 153,304
154,60 162,41 163,244 165,1972
166,605 167,600 168,87 176,299
178,4771 179,4996 180,682 181,51
187,59 188,80 189,546 190,253
191,641 192,51 193,5707 194,8567
195,1324 196,122
##END=
