##TITLE=2,4-Dichloroiodobenzene
##JCAMP-DX=4.24
##DATA TYPE=MASS SPECTRUM
##ORIGIN=Japan AIST/NIMC Database- Spectrum MS-NW-3074
##OWNER=NIST Mass Spectrometry Data Center
Collection (C) 2014 copyright by the U.S. Secretary of Commerce
on behalf of the United States of America. All rights reserved.
##CAS REGISTRY NO=29898-32-6
##$NIST MASS SPEC NO=231255
##MOLFORM=C6 H3 Cl2 I
##MW=272
##$NIST SOURCE=MSDC
##XUNITS=M/Z
##YUNITS=RELATIVE INTENSITY
##XFACTOR=1
##YFACTOR=1
##FIRSTX=25
##LASTX=277
##FIRSTY=10
##MAXX=277
##MINX=25
##MAXY=9999
##MINY=10
##NPOINTS=82
##PEAK TABLE=(XY..XY)
25,10 26,20 35,40 36,80
37,329 38,149 39,20 43,10
44,10 47,40 48,30 49,229
50,749 51,80 54,10 55,10
60,70 61,119 62,60 63,40
71,20 72,99 73,499 74,2039
75,1719 76,99 83,20 84,509
85,289 86,179 87,90 90,10
95,10 96,10 97,10 98,10
99,10 100,10 107,10 108,129
109,2649 110,1009 111,949 112,319
113,20 118,10 119,60 120,10
121,30 127,469 128,30 136,319
137,209 138,30 139,10 144,60
145,4609 146,349 147,2949 148,199
149,479 150,30 152,20 161,60
162,20 163,40 164,20 165,10
176,50 177,10 186,10 200,10
201,10 237,40 238,20 239,10
272,9999 273,639 274,6099 275,409
276,989 277,60
##END=
