##TITLE=Crufomate
##JCAMP-DX=4.24
##DATA TYPE=MASS SPECTRUM
##ORIGIN=ACCUSTANDARD Chemicals / NIST MS Data Center.
##OWNER=NIST Mass Spectrometry Data Center
Collection (C) 2014 copyright by the U.S. Secretary of Commerce
on behalf of the United States of America. All rights reserved.
##CAS REGISTRY NO=299-86-5
##$NIST MASS SPEC NO=125585
##MOLFORM=C12 H19 Cl N O3 P
##MW=291
##$NIST SOURCE=MSDC
##XUNITS=M/Z
##YUNITS=RELATIVE INTENSITY
##XFACTOR=1
##YFACTOR=1
##FIRSTX=14
##LASTX=294
##FIRSTY=49
##MAXX=294
##MINX=14
##MAXY=9999
##MINY=5
##NPOINTS=204
##PEAK TABLE=(XY..XY)
14,49 15,669 16,16 17,10
18,54 27,278 28,716 29,313
30,1036 31,103 32,69 36,5
38,56 39,396 40,89 41,967
42,93 43,98 44,295 45,253
47,229 48,22 49,81 50,89
51,312 52,93 53,155 54,19
55,133 57,230 58,21 59,56
60,146 61,38 62,87 63,348
64,95 65,264 66,41 67,31
69,16 72,20 73,68 74,75
75,179 76,108 77,840 78,397
79,706 80,54 81,18 85,21
86,22 87,47 89,329 90,92
91,345 92,420 93,73 94,69
95,44 96,70 97,39 98,47
99,142 100,30 101,90 102,144
103,353 104,163 105,671 106,188
107,30 108,4189 109,146 111,37
112,107 113,56 114,78 115,357
116,122 117,131 118,96 119,114
120,46 121,34 124,92 125,251
126,64 127,106 128,95 129,189
130,51 131,123 132,99 133,209
134,117 135,46 136,34 137,31
138,24 139,71 140,262 141,638
142,157 143,350 144,59 145,74
146,71 147,202 148,75 149,38
151,31 152,105 153,161 154,132
155,202 156,61 157,44 162,30
163,31 164,17 165,40 166,61
167,91 168,17 169,3660 170,458
171,1189 172,120 173,16 175,20
179,31 180,125 182,8751 183,1288
184,3024 185,345 186,59 187,70
188,14 189,31 190,19 193,43
195,29 196,51 197,251 198,104
199,170 200,98 202,47 203,71
204,49 205,56 206,19 207,17
208,19 209,11 210,36 211,61
212,32 213,46 214,18 215,83
216,35 217,31 218,19 219,23
224,40 225,72 226,244 227,33
229,18 230,33 231,99 232,36
233,42 234,139 235,27 236,75
240,313 241,68 244,83 245,31
246,37 250,23 252,18 254,130
256,9999 257,1450 258,173 259,32
260,118 261,55 262,39 263,19
276,4892 277,682 278,1582 279,229
291,1911 292,281 293,637 294,95
##END=
