##TITLE=1H-Indole-3-ethanamine, .alpha.-methyl-
##JCAMP-DX=4.24
##DATA TYPE=MASS SPECTRUM
##ORIGIN=Drug Lab
##OWNER=NIST Mass Spectrometry Data Center
Collection (C) 2014 copyright by the U.S. Secretary of Commerce
on behalf of the United States of America. All rights reserved.
##CAS REGISTRY NO=299-26-3
##$NIST MASS SPEC NO=335432
##MOLFORM=C11 H14 N2
##MW=174
##$NIST SOURCE=MSDC
##XUNITS=M/Z
##YUNITS=RELATIVE INTENSITY
##XFACTOR=1
##YFACTOR=1
##FIRSTX=40
##LASTX=175
##FIRSTY=30
##MAXX=175
##MINX=40
##MAXY=9999
##MINY=10
##NPOINTS=72
##PEAK TABLE=(XY..XY)
40,30 41,70 42,340 43,70
44,9308 45,240 50,180 51,420
52,190 53,50 54,30 56,10
59,10 61,10 62,90 63,240
64,80 65,130 66,30 71,10
73,10 74,120 75,200 76,280
77,1391 78,180 79,110 85,10
86,20 87,40 88,30 89,160
90,90 91,50 98,20 99,10
100,10 101,160 102,681 103,981
104,140 105,10 113,20 114,30
115,130 116,50 117,190 118,30
126,20 127,70 128,561 129,430
130,7817 131,9999 132,1051 133,50
140,20 141,10 142,40 143,50
144,20 154,60 155,30 156,70
157,60 158,90 159,70 171,10
172,20 173,10 174,250 175,30
##END=
