##TITLE=Zytron
##JCAMP-DX=4.24
##DATA TYPE=MASS SPECTRUM
##OWNER=NIST Mass Spectrometry Data Center
Collection (C) 2014 copyright by the U.S. Secretary of Commerce
on behalf of the United States of America. All rights reserved.
##CAS REGISTRY NO=299-85-4
##$NIST MASS SPEC NO=14819
##MOLFORM=C10 H14 Cl2 N O2 P S
##MW=313
##$NIST SOURCE=MSDC
##XUNITS=M/Z
##YUNITS=RELATIVE INTENSITY
##XFACTOR=1
##YFACTOR=1
##FIRSTX=35
##LASTX=300
##FIRSTY=100
##MAXX=300
##MINX=35
##MAXY=9999
##MINY=100
##NPOINTS=85
##PEAK TABLE=(XY..XY)
35,100 36,400 37,100 38,200
39,500 40,100 41,2100 42,1900
43,2800 44,300 45,300 46,2000
47,1700 48,200 49,100 50,100
51,100 56,300 57,300 58,6299
59,200 61,100 62,400 63,3100
64,2300 65,100 72,200 73,600
74,300 75,400 76,100 77,200
78,1800 79,500 83,100 85,100
87,100 88,300 90,200 92,100
94,1700 95,300 97,200 98,200
99,100 104,300 106,100 107,100
109,400 110,9999 111,400 112,400
118,200 120,500 133,600 135,400
136,1200 152,2200 153,100 154,100
161,500 162,600 163,400 164,400
173,100 221,100 223,1900 224,100
225,1200 226,100 227,200 236,600
238,200 240,100 242,100 255,500
257,300 278,6499 279,800 280,3600
281,400 282,800 284,100 298,200
300,200
##END=
