##TITLE=p,p'-Dibromodiphenyl trichloroethane
##JCAMP-DX=4.24
##DATA TYPE=MASS SPECTRUM
##ORIGIN=NIST Mass Spectrometry Data Center
##OWNER=NIST Mass Spectrometry Data Center
Collection (C) 2014 copyright by the U.S. Secretary of Commerce
on behalf of the United States of America. All rights reserved.
##CAS REGISTRY NO=2990-17-2
##$NIST MASS SPEC NO=342727
##MOLFORM=C14 H9 Br2 Cl3
##MW=440
##$NIST SOURCE=MSDC
##XUNITS=M/Z
##YUNITS=RELATIVE INTENSITY
##XFACTOR=1
##YFACTOR=1
##FIRSTX=17
##LASTX=407
##FIRSTY=20
##MAXX=407
##MINX=17
##MAXY=9999
##MINY=10
##NPOINTS=157
##PEAK TABLE=(XY..XY)
17,20 18,110 26,40 27,190
28,80 35,90 36,130 37,90
38,230 39,400 40,30 47,100
50,1481 51,681 52,70 60,20
61,90 62,360 63,651 64,80
68,50 69,180 72,20 73,130
74,901 75,1381 76,701 77,230
79,60 80,70 83,1481 84,100
85,170 86,250 87,550 88,1191
89,230 90,30 93,100 94,30
97,80 98,270 99,540 100,200
101,420 102,120 105,150 106,801
107,290 108,50 109,150 110,150
111,240 112,70 113,230 114,170
115,270 117,561 119,530 121,180
122,150 123,110 124,50 125,110
126,210 127,100 128,170 129,120
131,40 134,80 135,310 136,791
137,260 138,400 139,370 140,50
143,30 145,70 146,50 147,40
149,90 150,240 151,190 152,70
155,50 157,60 158,30 161,80
163,981 165,7387 166,991 167,90
170,60 171,30 172,70 173,60
174,170 175,260 176,1001 177,260
178,30 179,30 180,100 181,40
182,100 186,30 190,30 195,30
205,20 206,30 210,60 212,601
213,100 214,200 215,160 216,90
217,150 218,30 219,50 230,20
243,230 244,410 245,290 246,230
247,50 249,10 250,110 251,20
252,150 253,20 254,110 256,370
257,50 258,320 259,80 290,40
291,20 292,90 293,30 294,30
295,20 323,5145 325,9999 326,1611
327,4824 328,781 329,30 330,20
334,40 335,40 336,60 337,30
338,50 339,20 371,30 376,20
407,10
##END=
