##TITLE=Propyl Ethylphosphonofluoridate
##JCAMP-DX=4.24
##DATA TYPE=MASS SPECTRUM
##ORIGIN=VERIFIN - Methodology B1-1979
##OWNER=NIST Mass Spectrometry Data Center
Collection (C) 2014 copyright by the U.S. Secretary of Commerce
on behalf of the United States of America. All rights reserved.
##CAS REGISTRY NO=2992-95-2
##$NIST MASS SPEC NO=226133
##MOLFORM=C5 H12 F O2 P
##MW=154
##$NIST SOURCE=MSDC
##XUNITS=M/Z
##YUNITS=RELATIVE INTENSITY
##XFACTOR=1
##YFACTOR=1
##FIRSTX=26
##LASTX=153
##FIRSTY=50
##MAXX=153
##MINX=26
##MAXY=9999
##MINY=20
##NPOINTS=31
##PEAK TABLE=(XY..XY)
26,50 27,300 28,200 29,500
31,100 39,300 40,50 41,600
42,400 43,300 47,50 59,60
65,100 67,400 68,50 84,600
85,400 93,100 95,1000 96,500
97,80 98,100 111,300 112,800
113,9999 114,200 125,1301 126,70
127,50 139,200 153,20
##END=
