##TITLE=2-Ethoxy-2-cyclohexen-1-one
##JCAMP-DX=4.24
##DATA TYPE=MASS SPECTRUM
##ORIGIN=NIST Mass Spectrometry Data Center, 1994
##OWNER=NIST Mass Spectrometry Data Center
Collection (C) 2014 copyright by the U.S. Secretary of Commerce
on behalf of the United States of America. All rights reserved.
##CAS REGISTRY NO=29941-82-0
##$NIST MASS SPEC NO=136249
##MOLFORM=C8 H12 O2
##MW=140
##$NIST SOURCE=MSDC
##XUNITS=M/Z
##YUNITS=RELATIVE INTENSITY
##XFACTOR=1
##YFACTOR=1
##FIRSTX=12
##LASTX=142
##FIRSTY=21
##MAXX=142
##MINX=12
##MAXY=9999
##MINY=9
##NPOINTS=66
##PEAK TABLE=(XY..XY)
12,21 13,39 14,176 15,661
16,9 18,45 26,1563 27,9999
28,1869 29,5412 30,153 37,185
38,557 39,4386 40,795 41,2713
42,1672 43,1951 44,99 49,45
50,375 51,534 52,285 53,1448
54,582 55,9465 56,3018 57,603
58,86 61,33 62,65 63,121
64,39 65,411 66,663 67,1409
68,2128 69,936 70,2378 71,1092
72,63 77,88 78,180 79,226
80,39 81,625 82,39 83,3688
84,2076 85,132 93,41 95,3212
96,4292 97,1361 98,224 99,112
111,713 112,446 113,54 121,20
122,87 125,463 126,42 140,2882
141,255 142,10
##END=
