##TITLE=Tris(3-chlorophenyl)phosphine
##JCAMP-DX=4.24
##DATA TYPE=MASS SPECTRUM
##ORIGIN=HD Science, UK
##OWNER=NIST Mass Spectrometry Data Center
Collection (C) 2014 copyright by the U.S. Secretary of Commerce
on behalf of the United States of America. All rights reserved.
##CAS REGISTRY NO=29949-85-7
##$NIST MASS SPEC NO=298044
##MOLFORM=C18 H12 Cl3 P
##MW=364
##$NIST SOURCE=MSDC
##XUNITS=M/Z
##YUNITS=RELATIVE INTENSITY
##XFACTOR=1
##YFACTOR=1
##FIRSTX=26
##LASTX=372
##FIRSTY=30
##MAXX=372
##MINX=26
##MAXY=9999
##MINY=10
##NPOINTS=233
##PEAK TABLE=(XY..XY)
26,30 27,130 35,40 36,20
37,40 38,90 39,390 45,10
50,1722 51,1051 52,70 53,10
56,190 57,430 58,10 60,20
61,150 62,150 63,490 64,30
65,30 66,70 67,20 68,90
69,100 70,10 73,330 74,891
75,3283 76,761 77,410 78,50
80,530 81,731 82,60 84,110
85,400 86,150 87,240 88,60
89,80 91,510 92,100 93,230
94,30 95,10 96,20 97,50
98,100 99,300 100,70 101,230
102,70 103,90 104,170 105,240
107,4714 108,380 109,40 111,631
112,581 113,400 114,270 115,260
116,80 117,150 118,20 119,90
120,20 121,20 122,30 123,80
125,160 126,180 127,190 128,410
131,250 132,100 133,60 134,20
136,60 137,60 138,90 139,160
141,891 142,4464 143,641 144,1451
145,120 146,60 149,240 150,420
151,651 152,1061 153,140 154,40
155,120 156,190 157,340 158,40
159,10 160,40 161,20 162,40
163,30 164,20 165,30 166,40
167,140 168,50 169,60 170,10
171,10 173,120 174,30 175,50
177,170 178,40 179,190 181,2642
182,1081 183,2923 184,380 185,70
186,480 187,100 188,170 189,50
191,250 192,40 193,90 194,20
195,10 196,10 198,10 199,10
200,20 201,40 202,20 203,30
204,20 205,30 206,20 207,20
208,10 209,20 210,10 211,20
212,10 213,30 215,230 217,5035
218,811 219,1601 220,250 221,30
222,220 223,30 224,150 225,40
226,110 227,40 228,50 229,30
230,10 231,40 232,10 233,20
236,10 238,10 240,10 241,10
242,10 243,10 244,10 245,10
246,10 247,10 249,30 251,1712
252,370 253,1672 254,320 255,611
256,110 257,400 258,130 259,210
260,50 262,50 263,10 264,20
265,10 267,20 289,10 291,70
292,30 293,240 294,70 295,90
296,30 298,150 299,40 300,100
301,30 302,30 303,10 327,80
328,40 329,330 330,80 331,200
332,40 333,30 334,10 351,10
352,10 354,10 355,10 356,10
357,20 358,20 360,30 363,1151
364,9999 365,3023 366,9368 367,2172
368,3233 369,621 370,380 371,80
372,10
##END=
