##TITLE=Silane, trimethoxyphenyl-
##JCAMP-DX=4.24
##DATA TYPE=MASS SPECTRUM
##ORIGIN=Japan AIST/NIMC Database- Spectrum MS-NW-4021
##OWNER=NIST Mass Spectrometry Data Center
Collection (C) 2014 copyright by the U.S. Secretary of Commerce
on behalf of the United States of America. All rights reserved.
##CAS REGISTRY NO=2996-92-1
##$NIST MASS SPEC NO=232112
##MOLFORM=C9 H14 O3 Si
##MW=198
##$NIST SOURCE=MSDC
##XUNITS=M/Z
##YUNITS=RELATIVE INTENSITY
##XFACTOR=1
##YFACTOR=1
##FIRSTX=14
##LASTX=201
##FIRSTY=10
##MAXX=201
##MINX=14
##MAXY=9999
##MINY=10
##NPOINTS=85
##PEAK TABLE=(XY..XY)
14,10 15,139 27,40 28,119
29,80 30,40 31,50 32,10
38,20 39,90 45,399 46,30
47,60 50,159 51,379 52,50
53,70 54,10 55,40 58,60
59,1579 60,319 61,539 62,50
63,50 64,10 65,70 66,10
67,10 68,50 71,20 74,40
75,40 76,70 77,319 78,299
79,60 81,70 83,80 84,10
85,40 87,10 89,30 90,3419
91,3309 92,409 93,129 94,30
95,10 103,10 104,10 105,149
106,60 107,2729 108,259 109,129
119,10 120,9999 121,4169 122,739
123,259 124,20 125,10 134,10
135,30 136,439 137,849 138,119
139,40 151,20 153,50 154,10
165,70 166,99 167,1759 168,349
169,90 170,10 180,10 181,10
197,30 198,3239 199,529 200,159
201,10
##END=
