##TITLE=Estazolam
##JCAMP-DX=4.24
##DATA TYPE=MASS SPECTRUM
##ORIGIN=Tox21 Consortium/NIST Mass Spectrometry Data Center, 2012
##OWNER=NIST Mass Spectrometry Data Center
Collection (C) 2014 copyright by the U.S. Secretary of Commerce
on behalf of the United States of America. All rights reserved.
##CAS REGISTRY NO=29975-16-4
##$NIST MASS SPEC NO=408732
##MOLFORM=C16 H11 Cl N4
##MW=294
##$NIST SOURCE=MSDC
##XUNITS=M/Z
##YUNITS=RELATIVE INTENSITY
##XFACTOR=1
##YFACTOR=1
##FIRSTX=26
##LASTX=298
##FIRSTY=120
##MAXX=298
##MINX=26
##MAXY=9999
##MINY=10
##NPOINTS=235
##PEAK TABLE=(XY..XY)
26,120 27,310 28,290 29,40
35,20 36,50 37,80 38,260
39,701 40,290 41,150 42,40
43,30 44,20 45,10 47,30
49,140 50,1321 51,3333 52,811
53,300 54,60 55,110 56,40
57,10 60,40 61,250 62,801
63,1471 64,581 65,520 66,100
67,60 68,80 69,90 70,50
71,10 72,40 73,561 74,1141
75,3053 76,1912 77,5465 78,721
79,70 80,70 81,250 82,120
83,30 84,110 85,200 86,460
87,751 88,1021 89,1972 90,370
91,480 92,140 93,290 94,120
95,80 96,70 97,210 98,500
99,801 100,1411 101,1511 102,3683
103,1802 104,1021 105,150 106,190
107,50 108,100 109,210 110,761
111,861 112,500 113,711 114,460
116,1161 117,140 118,30 120,741
121,170 122,130 123,290 124,1161
125,490 126,1031 127,701 128,921
129,2152 131,30 132,100 133,140
134,70 135,190 136,1371 137,5105
138,1251 139,1862 140,430 141,70
142,70 143,40 145,10 146,50
147,200 148,140 149,330 150,1051
151,1441 152,821 153,200 154,70
155,20 156,340 157,40 158,10
159,20 160,50 161,150 162,550
163,2452 164,1231 165,861 166,210
167,50 168,10 171,30 172,10
173,70 174,180 175,510 176,1521
177,2292 178,801 179,200 180,30
181,10 182,20 183,10 184,10
185,50 186,100 187,90 188,270
189,350 190,1131 191,470 192,280
193,80 194,10 197,40 198,120
199,270 200,130 201,350 202,701
203,2172 204,3123 205,8077 206,1221
207,70 209,10 211,110 212,170
213,170 214,160 215,110 216,80
217,80 218,70 219,30 220,10
223,30 224,160 225,70 226,110
227,60 228,80 229,300 230,410
231,1882 232,1381 233,200 234,20
235,10 236,10 237,180 238,661
239,5025 240,1061 241,1601 242,290
243,30 244,10 245,10 246,10
249,20 250,20 251,40 252,70
253,50 254,30 255,30 256,20
257,80 258,420 259,9999 260,1842
261,150 262,20 263,30 264,60
265,2192 266,701 267,721 268,250
269,50 277,20 278,30 279,80
280,20 281,30 289,10 291,10
292,40 293,5955 294,6696 295,3083
296,2222 297,380 298,30
##END=
