##TITLE=11-Dodecenoic acid, methyl ester
##JCAMP-DX=4.24
##DATA TYPE=MASS SPECTRUM
##ORIGIN=H. Fales, LC, NHLBI, NIH, Bethesda, MD 20892
##OWNER=NIST Mass Spectrometry Data Center
Collection (C) 2014 copyright by the U.S. Secretary of Commerce
on behalf of the United States of America. All rights reserved.
##CAS REGISTRY NO=29972-79-0
##$NIST MASS SPEC NO=132770
##MOLFORM=C13 H24 O2
##MW=212
##$NIST SOURCE=MSDC
##XUNITS=M/Z
##YUNITS=RELATIVE INTENSITY
##XFACTOR=1
##YFACTOR=1
##FIRSTX=41
##LASTX=214
##FIRSTY=5107
##MAXX=214
##MINX=41
##MAXY=9999
##MINY=12
##NPOINTS=119
##PEAK TABLE=(XY..XY)
41,5107 42,1573 43,2978 45,929
47,31 49,99 51,187 53,927
54,768 55,9999 56,1153 57,1148
59,2614 60,421 61,80 63,25
65,202 67,2450 68,1088 69,3494
70,643 71,721 73,761 74,5374
77,170 79,640 81,2178 82,1615
83,2677 84,1871 85,560 87,2895
88,302 89,29 91,176 92,22
93,441 94,211 95,1057 96,2128
97,1513 98,1464 99,320 101,611
102,92 103,12 105,129 107,445
109,681 110,614 111,555 112,147
113,346 114,306 115,361 116,28
117,23 119,233 121,329 122,538
123,777 124,1464 125,635 127,306
128,167 129,149 130,88 131,44
133,148 135,279 137,627 138,270
139,136 140,24 141,283 143,218
144,17 145,74 147,214 148,284
149,672 150,86 151,151 152,134
153,112 155,277 156,17 157,119
158,50 159,39 161,22 163,66
164,379 166,1171 167,274 169,328
171,134 172,13 173,83 175,14
178,32 179,45 180,24 181,612
182,164 183,170 185,253 187,134
191,12 194,58 196,348 197,262
198,28 209,38 210,48 211,130
212,997 213,175 214,83
##END=
