##TITLE=2-Propenoic acid, pentyl ester
##JCAMP-DX=4.24
##DATA TYPE=MASS SPECTRUM
##ORIGIN=Vladimir Zaikin,TIPS RAS, Moscow, Russia
##OWNER=NIST Mass Spectrometry Data Center
Collection (C) 2014 copyright by the U.S. Secretary of Commerce
on behalf of the United States of America. All rights reserved.
##CAS REGISTRY NO=2998-23-4
##$NIST MASS SPEC NO=245634
##MOLFORM=C8 H14 O2
##MW=142
##$NIST SOURCE=MSDC
##XUNITS=M/Z
##YUNITS=RELATIVE INTENSITY
##XFACTOR=1
##YFACTOR=1
##FIRSTX=39
##LASTX=114
##FIRSTY=600
##MAXX=114
##MINX=39
##MAXY=9999
##MINY=10
##NPOINTS=27
##PEAK TABLE=(XY..XY)
39,600 40,190 41,1401 42,1951
43,1131 44,610 45,450 51,80
53,100 54,120 55,9999 56,530
57,220 58,30 69,700 70,3653
71,270 72,920 73,2712 74,60
82,60 83,120 85,380 86,60
87,40 113,60 114,10
##END=
