##TITLE=3,5-Diiodo-L-tyrosine
##JCAMP-DX=4.24
##DATA TYPE=MASS SPECTRUM
##ORIGIN=Japan AIST/NIMC Database- Spectrum MS-NW- 307
##OWNER=NIST Mass Spectrometry Data Center
Collection (C) 2014 copyright by the U.S. Secretary of Commerce
on behalf of the United States of America. All rights reserved.
##CAS REGISTRY NO=300-39-0
##$NIST MASS SPEC NO=228100
##MOLFORM=C9 H9 I2 N O3
##MW=433
##$NIST SOURCE=MSDC
##XUNITS=M/Z
##YUNITS=RELATIVE INTENSITY
##XFACTOR=1
##YFACTOR=1
##FIRSTX=15
##LASTX=434
##FIRSTY=20
##MAXX=434
##MINX=15
##MAXY=9999
##MINY=10
##NPOINTS=203
##PEAK TABLE=(XY..XY)
15,20 16,40 17,60 18,199
19,10 26,40 27,199 28,1149
29,189 30,1119 31,40 32,20
36,50 37,60 38,90 39,319
40,50 41,409 42,189 43,499
44,699 45,90 46,339 49,50
50,539 51,989 52,299 53,529
54,149 55,509 56,159 57,439
58,40 59,30 60,119 61,129
62,279 63,339 64,90 65,99
66,129 67,289 68,159 69,409
70,149 71,229 73,149 74,4839
75,959 76,849 77,1079 78,689
79,299 80,159 81,239 82,209
83,329 84,129 85,129 86,50
87,80 88,70 89,189 90,109
91,149 92,80 93,70 94,60
95,169 96,159 97,239 98,149
99,40 100,30 101,50 102,40
103,60 104,359 105,1109 106,1069
107,1099 108,199 109,99 110,90
111,129 112,50 113,30 114,30
115,50 116,90 117,80 118,90
119,50 120,50 121,50 122,20
123,80 124,60 125,60 126,30
127,1169 128,2079 129,70 130,129
131,129 132,80 133,289 134,469
135,249 136,60 137,50 138,50
139,40 140,20 141,20 143,20
145,30 146,20 147,30 149,20
151,30 152,60 153,30 157,20
159,20 161,20 164,20 165,30
166,30 167,20 169,20 171,20
176,20 177,20 178,30 179,20
180,20 181,40 185,30 189,20
192,20 194,309 195,20 199,20
202,30 203,80 204,109 205,20
208,30 211,20 213,30 218,20
220,20 222,20 227,20 229,20
231,169 232,1239 233,4789 234,949
235,70 236,90 237,40 239,20
243,20 244,30 245,20 246,50
247,20 250,20 254,179 255,40
256,30 257,30 258,20 259,70
260,149 261,549 262,189 263,30
264,30 272,20 278,30 305,20
307,239 308,20 346,20 358,109
359,9999 360,2749 361,199 368,60
369,20 372,50 385,40 386,40
387,359 388,509 389,99 415,50
416,30 433,979 434,109
##END=
