##TITLE=Naled
##JCAMP-DX=4.24
##DATA TYPE=MASS SPECTRUM
##ORIGIN=J. SHAW, BORRISTON RESEARCH, ROCKVILLE, MD, USA
##OWNER=NIST Mass Spectrometry Data Center
Collection (C) 2014 copyright by the U.S. Secretary of Commerce
on behalf of the United States of America. All rights reserved.
##CAS REGISTRY NO=300-76-5
##$NIST MASS SPEC NO=60217
##MOLFORM=C4 H7 Br2 Cl2 O4 P
##MW=378
##$NIST SOURCE=MSDC
##XUNITS=M/Z
##YUNITS=RELATIVE INTENSITY
##XFACTOR=1
##YFACTOR=1
##FIRSTX=33
##LASTX=382
##FIRSTY=60
##MAXX=382
##MINX=33
##MAXY=9999
##MINY=10
##NPOINTS=140
##PEAK TABLE=(XY..XY)
33,60 34,20 35,170 36,120
37,50 38,40 39,50 40,220
41,190 42,70 43,370 44,60
45,280 47,3893 48,880 49,630
50,200 51,50 53,10 55,50
56,20 57,40 58,10 59,80
60,920 61,90 62,360 63,310
64,100 65,490 66,110 67,30
68,10 69,20 70,20 71,20
72,10 73,10 75,10 76,160
77,260 79,4924 80,290 81,470
82,540 83,1071 84,240 85,660
86,110 87,110 89,10 91,120
92,80 93,850 94,160 95,1511
96,260 97,410 98,20 99,110
101,10 103,20 104,100 105,20
106,90 107,30 109,9999 110,570
111,640 112,100 113,670 114,60
115,160 116,10 119,10 120,10
121,10 122,10 123,10 126,230
127,880 128,290 129,790 130,60
131,190 138,50 139,140 140,60
141,250 143,90 145,6956 147,2512
148,50 149,40 151,10 155,340
157,610 158,30 159,270 161,130
163,190 164,20 165,70 166,10
167,10 170,10 171,10 173,70
174,200 176,340 178,150 179,20
185,430 187,160 189,860 191,830
192,20 193,10 195,10 203,30
204,10 207,10 217,40 218,10
219,40 220,50 221,50 223,10
235,80 253,10 254,30 256,20
273,10 299,380 301,620 303,290
304,40 378,10 380,20 382,20
##END=
