##TITLE=.gamma.-Muurolene
##JCAMP-DX=4.24
##DATA TYPE=MASS SPECTRUM
##OWNER=NIST Mass Spectrometry Data Center
Collection (C) 2014 copyright by the U.S. Secretary of Commerce
on behalf of the United States of America. All rights reserved.
##CAS REGISTRY NO=30021-74-0
##$NIST MASS SPEC NO=9234
##MOLFORM=C15 H24
##MW=204
##$NIST SOURCE=MSDC
##XUNITS=M/Z
##YUNITS=RELATIVE INTENSITY
##XFACTOR=1
##YFACTOR=1
##FIRSTX=26
##LASTX=206
##FIRSTY=50
##MAXX=206
##MINX=26
##MAXY=9999
##MINY=50
##NPOINTS=84
##PEAK TABLE=(XY..XY)
26,50 27,480 39,611 40,80
41,2082 42,150 43,651 51,200
52,110 53,651 54,80 55,1221
56,110 57,150 63,70 64,60
65,430 66,140 67,1001 68,180
69,1221 70,120 77,1301 78,340
79,2222 80,430 81,1962 82,220
83,140 89,50 91,2442 92,1221
93,3353 94,1221 95,741 96,100
103,190 104,170 105,3823 106,781
107,961 108,250 109,310 110,50
115,310 116,130 117,410 118,220
119,3483 120,1001 121,1001 122,270
123,150 124,50 127,130 128,160
129,160 130,90 131,310 132,140
133,1832 134,1001 135,741 136,701
137,70 143,60 145,270 146,90
147,611 148,611 149,210 150,140
159,200 160,270 161,9999 162,1431
163,140 175,210 176,160 189,1131
190,160 204,3303 205,510 206,50
##END=
