##TITLE=Octanoic acid, 2-methyl-
##JCAMP-DX=4.24
##DATA TYPE=MASS SPECTRUM
##ORIGIN=James Little, Eastman Chemical Co.
##OWNER=NIST Mass Spectrometry Data Center
Collection (C) 2014 copyright by the U.S. Secretary of Commerce
on behalf of the United States of America. All rights reserved.
##CAS REGISTRY NO=3004-93-1
##$NIST MASS SPEC NO=368495
##MOLFORM=C9 H18 O2
##MW=158
##$NIST SOURCE=MSDC
##XUNITS=M/Z
##YUNITS=RELATIVE INTENSITY
##XFACTOR=1
##YFACTOR=1
##FIRSTX=29
##LASTX=158
##FIRSTY=921
##MAXX=158
##MINX=29
##MAXY=9999
##MINY=10
##NPOINTS=71
##PEAK TABLE=(XY..XY)
29,921 30,170 31,110 35,20
36,110 37,10 38,70 39,901
40,190 41,2923 42,731 43,2642
44,150 45,971 46,30 47,30
49,40 50,10 51,50 52,20
53,190 54,80 55,1381 56,641
57,731 58,70 59,320 65,20
66,10 67,90 68,50 69,490
70,110 71,240 72,40 73,1221
74,9999 75,360 76,50 77,20
79,20 80,30 81,30 82,40
83,200 84,50 85,90 86,100
87,3013 88,190 89,20 95,10
96,20 97,80 98,190 99,40
100,30 101,821 102,50 103,10
111,30 112,20 113,10 114,10
115,460 116,40 128,10 129,380
130,30 143,40 158,40
##END=
