##TITLE=N,N-Dimethyldodecanamide
##JCAMP-DX=4.24
##DATA TYPE=MASS SPECTRUM
##ORIGIN=NIST Mass Spectrometry Data Center
##OWNER=NIST Mass Spectrometry Data Center
Collection (C) 2014 copyright by the U.S. Secretary of Commerce
on behalf of the United States of America. All rights reserved.
##CAS REGISTRY NO=3007-53-2
##$NIST MASS SPEC NO=343579
##MOLFORM=C14 H29 N O
##MW=227
##$NIST SOURCE=MSDC
##XUNITS=M/Z
##YUNITS=RELATIVE INTENSITY
##XFACTOR=1
##YFACTOR=1
##FIRSTX=15
##LASTX=228
##FIRSTY=190
##MAXX=228
##MINX=15
##MAXY=9999
##MINY=10
##NPOINTS=74
##PEAK TABLE=(XY..XY)
15,190 18,300 26,20 27,520
28,240 29,971 30,150 31,10
39,300 40,80 41,1621 42,691
43,1491 44,1341 45,3803 46,1131
47,20 51,10 53,100 54,80
55,1081 56,260 57,520 58,230
59,40 65,10 66,10 67,100
68,50 69,210 70,90 71,170
72,2843 73,140 74,20 77,10
79,30 80,10 81,50 82,20
83,100 84,70 85,60 87,9999
88,530 89,20 95,40 97,50
98,80 100,1812 101,360 102,20
109,10 111,10 112,10 114,370
115,50 126,10 128,120 129,50
142,200 143,40 156,120 157,20
170,70 171,10 183,20 184,100
185,10 198,50 212,20 226,40
227,470 228,80
##END=
