##TITLE=Oxirane, 2-ethyl-2-methyl-
##JCAMP-DX=4.24
##DATA TYPE=MASS SPECTRUM
##ORIGIN=SHELL RESEARCH LIMITED THORNTON RESEARCH CENTRE
##OWNER=NIST Mass Spectrometry Data Center
Collection (C) 2014 copyright by the U.S. Secretary of Commerce
on behalf of the United States of America. All rights reserved.
##CAS REGISTRY NO=30095-63-7
##$NIST MASS SPEC NO=595
##MOLFORM=C5 H10 O
##MW=86
##$NIST SOURCE=MSDC
##XUNITS=M/Z
##YUNITS=RELATIVE INTENSITY
##XFACTOR=1
##YFACTOR=1
##FIRSTX=26
##LASTX=87
##FIRSTY=772
##MAXX=87
##MINX=26
##MAXY=9999
##MINY=195
##NPOINTS=28
##PEAK TABLE=(XY..XY)
26,772 27,3621 28,3631 29,5353
30,307 31,493 37,251 38,391
39,3640 40,1033 41,9999 42,996
43,3324 50,381 51,381 52,195
53,763 54,810 55,4767 56,5325
57,2374 58,996 59,670 71,6368
72,400 85,2607 86,5521 87,409
##END=
