##TITLE=9,12,15-Octadecatrienoic acid, methyl ester, (Z,Z,Z)-
##JCAMP-DX=4.24
##DATA TYPE=MASS SPECTRUM
##ORIGIN=NIST Mass Spectrometry Data Center
##OWNER=NIST Mass Spectrometry Data Center
Collection (C) 2014 copyright by the U.S. Secretary of Commerce
on behalf of the United States of America. All rights reserved.
##CAS REGISTRY NO=301-00-8
##$NIST MASS SPEC NO=333199
##MOLFORM=C19 H32 O2
##MW=292
##$NIST SOURCE=MSDC
##XUNITS=M/Z
##YUNITS=RELATIVE INTENSITY
##XFACTOR=1
##YFACTOR=1
##FIRSTX=15
##LASTX=294
##FIRSTY=90
##MAXX=294
##MINX=15
##MAXY=9999
##MINY=10
##NPOINTS=203
##PEAK TABLE=(XY..XY)
15,90 26,20 27,330 28,90
29,591 30,20 31,40 33,10
39,881 40,170 41,3543 42,380
43,1341 44,60 45,170 50,40
51,190 52,150 53,1051 54,891
55,4144 56,290 57,430 59,1531
60,50 61,20 62,10 63,50
64,10 65,851 66,901 67,6035
68,1211 69,1692 70,120 71,200
72,20 73,220 74,1021 75,90
77,2332 78,1431 79,9999 80,4304
81,4224 82,1081 83,841 84,150
85,290 87,1321 88,120 89,40
91,3323 92,741 93,5675 94,2562
95,5835 96,951 97,631 98,150
99,150 100,20 101,310 102,50
103,170 104,100 105,1211 106,450
107,2742 108,4574 109,1571 110,270
111,250 112,40 113,60 114,30
115,350 116,70 117,390 118,80
119,641 120,310 121,2252 122,1311
123,591 124,100 125,120 126,20
127,70 128,60 129,310 130,50
131,420 132,80 133,410 134,190
135,1621 136,1071 137,270 138,50
139,60 140,40 141,100 142,20
143,200 144,40 145,170 146,50
147,380 148,130 149,1351 150,611
151,120 152,20 153,40 154,40
155,30 156,10 157,100 158,20
159,90 160,40 161,190 162,120
163,460 164,300 165,70 166,20
167,40 168,50 169,10 171,70
172,20 173,440 174,70 175,170
176,50 177,140 178,130 179,40
180,20 181,40 182,30 183,10
185,50 186,20 187,40 188,10
189,90 190,20 191,240 192,80
193,30 194,20 195,20 196,20
197,10 199,40 200,10 201,10
203,50 204,40 205,30 206,30
207,40 208,10 209,20 210,30
211,10 213,30 214,10 216,10
217,70 218,20 219,10 221,30
222,40 223,130 224,60 225,10
231,50 232,20 233,10 235,50
236,530 237,110 238,50 239,10
243,30 244,10 249,90 250,40
251,30 260,20 261,370 262,80
263,210 264,50 265,10 277,10
292,641 293,140 294,20
##END=
