##TITLE=1-Piperidineacetonitrile
##JCAMP-DX=4.24
##DATA TYPE=MASS SPECTRUM
##ORIGIN=NIST Mass Spectrometry Data Center, 1994
##OWNER=NIST Mass Spectrometry Data Center
Collection (C) 2014 copyright by the U.S. Secretary of Commerce
on behalf of the United States of America. All rights reserved.
##CAS REGISTRY NO=3010-03-5
##$NIST MASS SPEC NO=136781
##MOLFORM=C7 H12 N2
##MW=124
##$NIST SOURCE=MSDC
##XUNITS=M/Z
##YUNITS=RELATIVE INTENSITY
##XFACTOR=1
##YFACTOR=1
##FIRSTX=12
##LASTX=125
##FIRSTY=44
##MAXX=125
##MINX=12
##MAXY=9999
##MINY=22
##NPOINTS=63
##PEAK TABLE=(XY..XY)
12,44 13,89 14,215 15,1600
16,32 18,80 25,59 26,837
27,3947 28,4636 29,1495 30,737
37,127 38,410 39,3553 40,2954
41,8484 42,7254 43,4316 44,264
47,30 49,27 50,184 51,327
52,382 53,723 54,1176 55,2444
56,1737 57,1096 58,54 63,44
64,37 65,101 66,348 67,2594
68,1728 69,1493 70,382 71,102
78,32 79,84 80,265 81,286
82,3094 83,4124 84,2039 85,125
93,65 94,121 95,1029 96,1921
97,369 98,532 99,30 107,68
109,358 110,23 119,22 121,60
123,9999 124,3761 125,327
##END=
