##TITLE=Thiocyanic acid, phenylmethyl ester
##JCAMP-DX=4.24
##DATA TYPE=MASS SPECTRUM
##ORIGIN=Japan AIST/NIMC Database- Spectrum MS-NW-4246
##OWNER=NIST Mass Spectrometry Data Center
Collection (C) 2014 copyright by the U.S. Secretary of Commerce
on behalf of the United States of America. All rights reserved.
##CAS REGISTRY NO=3012-37-1
##$NIST MASS SPEC NO=231789
##MOLFORM=C8 H7 N S
##MW=149
##$NIST SOURCE=MSDC
##XUNITS=M/Z
##YUNITS=RELATIVE INTENSITY
##XFACTOR=1
##YFACTOR=1
##FIRSTX=26
##LASTX=151
##FIRSTY=30
##MAXX=151
##MINX=26
##MAXY=9999
##MINY=10
##NPOINTS=50
##PEAK TABLE=(XY..XY)
26,30 27,60 28,60 32,40
37,40 38,119 39,629 40,50
41,139 43,10 44,20 45,239
46,10 47,10 49,20 50,159
51,309 52,99 53,20 58,80
59,10 60,10 61,50 62,139
63,389 64,109 65,1279 66,80
69,30 74,30 75,20 76,30
77,119 78,30 79,30 85,10
86,30 87,20 89,299 90,149
91,9999 92,809 93,30 104,10
121,80 122,10 123,20 149,319
150,30 151,20
##END=
