##TITLE=Desethylterbutylazine
##JCAMP-DX=4.24
##DATA TYPE=MASS SPECTRUM
##ORIGIN=NIST Mass Spectrometry Data Center, 1998.
##OWNER=NIST Mass Spectrometry Data Center
Collection (C) 2014 copyright by the U.S. Secretary of Commerce
on behalf of the United States of America. All rights reserved.
##CAS REGISTRY NO=30125-63-4
##$NIST MASS SPEC NO=291904
##MOLFORM=C7 H12 Cl N5
##MW=201
##$NIST SOURCE=MSDC
##XUNITS=M/Z
##YUNITS=RELATIVE INTENSITY
##XFACTOR=1
##YFACTOR=1
##FIRSTX=15
##LASTX=204
##FIRSTY=60
##MAXX=204
##MINX=15
##MAXY=9999
##MINY=10
##NPOINTS=108
##PEAK TABLE=(XY..XY)
15,60 26,20 27,220 28,310
29,540 30,50 35,10 36,20
37,10 38,30 39,680 40,220
41,1730 42,1450 43,2560 44,60
47,10 50,20 51,30 52,40
53,290 54,110 55,510 56,510
57,980 58,250 59,10 61,20
62,390 63,10 64,120 66,30
67,270 68,2150 69,210 70,40
72,20 75,10 76,10 77,10
78,20 79,390 80,40 81,160
82,80 83,2870 84,150 85,70
87,280 88,20 89,90 91,10
93,220 94,50 95,100 96,30
97,70 102,40 103,50 104,1720
105,80 106,570 107,40 108,410
109,80 110,1360 111,80 118,10
119,160 120,10 121,60 122,30
123,110 124,20 125,30 129,90
130,30 131,30 136,20 142,10
144,120 145,2420 146,1310 147,810
148,440 149,30 150,190 151,50
158,110 159,110 160,50 161,30
162,10 169,80 170,40 171,30
172,30 184,260 186,9999 187,850
188,3190 189,270 190,10 200,40
201,1780 202,180 203,560 204,60
##END=
