##TITLE=Phenol, 2,5-dichloro-, acetate
##JCAMP-DX=4.24
##DATA TYPE=MASS SPECTRUM
##ORIGIN=NIST Mass Spectrometry Data Center
##OWNER=NIST Mass Spectrometry Data Center
Collection (C) 2014 copyright by the U.S. Secretary of Commerce
on behalf of the United States of America. All rights reserved.
##CAS REGISTRY NO=30124-46-0
##$NIST MASS SPEC NO=364917
##MOLFORM=C8 H6 Cl2 O2
##MW=204
##$NIST SOURCE=MSDC
##XUNITS=M/Z
##YUNITS=RELATIVE INTENSITY
##XFACTOR=1
##YFACTOR=1
##FIRSTX=13
##LASTX=209
##FIRSTY=10
##MAXX=209
##MINX=13
##MAXY=9999
##MINY=10
##NPOINTS=97
##PEAK TABLE=(XY..XY)
13,10 14,20 15,240 25,20
26,20 27,10 28,30 29,30
31,10 35,10 36,10 37,130
38,160 39,70 41,30 42,210
43,6976 44,130 45,20 47,50
48,50 49,60 50,110 51,40
53,100 54,10 55,20 60,50
61,260 62,510 63,1321 64,100
65,20 66,60 67,10 71,20
72,110 73,701 74,220 75,280
76,20 77,30 83,150 84,50
85,100 86,20 87,50 89,20
90,10 91,90 92,10 96,40
97,220 98,691 99,550 100,260
101,170 102,20 107,110 108,20
109,190 110,50 111,70 112,20
113,10 119,10 125,10 126,200
127,80 128,70 129,30 130,10
133,661 134,80 135,440 136,50
137,70 145,130 146,10 147,90
148,10 149,20 160,10 161,50
162,9999 163,711 164,6396 165,440
166,1021 167,70 168,10 204,1041
205,100 206,631 207,70 208,130
209,10
##END=
