##TITLE=Sulfide, phenyl 3-phenylpropyl,
##JCAMP-DX=4.24
##DATA TYPE=MASS SPECTRUM
##ORIGIN=NIST Mass Spectrometry Data Center
##OWNER=NIST Mass Spectrometry Data Center
Collection (C) 2014 copyright by the U.S. Secretary of Commerce
on behalf of the United States of America. All rights reserved.
##CAS REGISTRY NO=30134-12-4
##$NIST MASS SPEC NO=343314
##MOLFORM=C15 H16 S
##MW=228
##$NIST SOURCE=MSDC
##XUNITS=M/Z
##YUNITS=RELATIVE INTENSITY
##XFACTOR=1
##YFACTOR=1
##FIRSTX=15
##LASTX=231
##FIRSTY=50
##MAXX=231
##MINX=15
##MAXY=9999
##MINY=10
##NPOINTS=102
##PEAK TABLE=(XY..XY)
15,50 17,10 18,60 25,10
27,681 28,100 32,10 37,70
39,3283 40,230 41,1211 42,40
45,2482 46,110 47,250 50,861
51,2793 52,430 53,150 57,90
58,210 59,440 60,30 61,70
62,230 63,971 65,5065 66,701
69,671 70,50 71,110 72,20
73,30 74,190 75,200 77,2132
78,961 79,611 80,30 81,20
82,200 83,90 84,180 85,20
86,30 87,30 89,550 91,8848
92,971 93,80 94,10 95,20
97,50 98,10 99,10 101,20
102,140 103,671 104,310 105,340
106,30 109,3033 110,4034 111,420
112,180 113,30 115,991 117,8177
118,9999 119,951 120,40 121,100
123,841 124,160 125,40 126,10
135,681 136,180 137,1031 138,100
139,60 147,10 149,20 150,40
151,10 152,30 153,10 154,10
165,60 166,40 167,40 168,10
179,10 184,40 185,30 186,20
194,10 197,10 228,4024 229,701
230,240 231,30
##END=
