##TITLE=Acetonitrile, dichloro-
##JCAMP-DX=4.24
##DATA TYPE=MASS SPECTRUM
##ORIGIN=NIST Mass Spectrometry Data Center, 1998.
##OWNER=NIST Mass Spectrometry Data Center
Collection (C) 2014 copyright by the U.S. Secretary of Commerce
on behalf of the United States of America. All rights reserved.
##CAS REGISTRY NO=3018-12-0
##$NIST MASS SPEC NO=291331
##MOLFORM=C2 H Cl2 N
##MW=109
##$NIST SOURCE=MSDC
##XUNITS=M/Z
##YUNITS=RELATIVE INTENSITY
##XFACTOR=1
##YFACTOR=1
##FIRSTX=12
##LASTX=113
##FIRSTY=90
##MAXX=113
##MINX=12
##MAXY=9999
##MINY=10
##NPOINTS=44
##PEAK TABLE=(XY..XY)
12,90 13,40 14,10 24,60
25,100 26,130 27,90 35,1110
36,90 37,390 38,1030 39,780
40,20 41,10 47,3080 48,980
49,1080 50,330 51,10 59,60
60,60 61,60 62,60 63,10
64,10 70,40 72,30 73,750
74,9999 75,520 76,3460 77,90
82,5159 83,120 84,3360 85,80
86,550 87,10 108,140 109,100
110,90 111,60 112,20 113,10
##END=
