##TITLE=Sulfide, isopropyl phenyl
##JCAMP-DX=4.24
##DATA TYPE=MASS SPECTRUM
##ORIGIN=J.E.DOOLEY ENERGY RES. CENTRE, BARTLESVILLE, OKLA., USA
##OWNER=NIST Mass Spectrometry Data Center
Collection (C) 2014 copyright by the U.S. Secretary of Commerce
on behalf of the United States of America. All rights reserved.
##CAS REGISTRY NO=3019-20-3
##$NIST MASS SPEC NO=58445
##MOLFORM=C9 H12 S
##MW=152
##$NIST SOURCE=MSDC
##XUNITS=M/Z
##YUNITS=RELATIVE INTENSITY
##XFACTOR=1
##YFACTOR=1
##FIRSTX=24
##LASTX=156
##FIRSTY=2
##MAXX=156
##MINX=24
##MAXY=9999
##MINY=1
##NPOINTS=112
##PEAK TABLE=(XY..XY)
24,2 25,18 26,199 27,1590
28,81 29,18 32,26 33,15
34,16 35,4 36,8 37,136
38,324 39,1954 40,155 41,1269
42,103 43,1768 44,63 45,674
46,27 47,64 48,4 49,40
50,401 51,840 52,90 53,28
54,7 55,3 56,5 57,146
58,222 59,407 60,49 61,59
62,62 63,222 64,45 65,1201
66,920 67,56 68,14 69,697
70,61 71,108 72,9 73,64
74,128 75,108 76,75 77,601
78,144 79,28 80,12 81,92
82,183 83,106 84,396 85,27
86,19 87,2 89,8 90,4
91,76 92,9 93,28 94,4
95,21 96,2 97,10 101,2
102,8 103,86 104,81 105,21
106,10 107,18 108,209 109,1527
110,9999 111,831 112,459 113,31
114,3 115,14 116,6 117,12
118,5 119,5 121,25 122,6
123,109 124,13 125,5 133,7
134,26 135,95 136,19 137,481
138,63 139,24 140,3 141,2
149,8 150,3 151,22 152,3989
153,421 154,195 155,18 156,1
##END=
