##TITLE=Ethanone, 1-cyclobutyl-
##JCAMP-DX=4.24
##DATA TYPE=MASS SPECTRUM
##ORIGIN=CARL DJERASSI DEPT OF CHEM STANFORD UNIV STANFORD CALIF 94305
##OWNER=NIST Mass Spectrometry Data Center
Collection (C) 2014 copyright by the U.S. Secretary of Commerce
on behalf of the United States of America. All rights reserved.
##CAS REGISTRY NO=3019-25-8
##$NIST MASS SPEC NO=46245
##MOLFORM=C6 H10 O
##MW=98
##$NIST SOURCE=MSDC
##XUNITS=M/Z
##YUNITS=RELATIVE INTENSITY
##XFACTOR=1
##YFACTOR=1
##FIRSTX=15
##LASTX=98
##FIRSTY=714
##MAXX=98
##MINX=15
##MAXY=9999
##MINY=102
##NPOINTS=16
##PEAK TABLE=(XY..XY)
15,714 26,306 27,2245 28,408
29,1633 39,1122 41,204 42,204
43,9999 44,102 53,510 55,7959
56,408 59,408 83,1837 98,816
##END=
