##TITLE=Estra-1,3,5(10)-triene-3,17-diol, 17-methyl-, (17.beta.)-
##JCAMP-DX=4.24
##DATA TYPE=MASS SPECTRUM
##OWNER=NIST Mass Spectrometry Data Center
Collection (C) 2014 copyright by the U.S. Secretary of Commerce
on behalf of the United States of America. All rights reserved.
##CAS REGISTRY NO=302-76-1
##$NIST MASS SPEC NO=13770
##MOLFORM=C19 H26 O2
##MW=286
##$NIST SOURCE=MSDC
##XUNITS=M/Z
##YUNITS=RELATIVE INTENSITY
##XFACTOR=1
##YFACTOR=1
##FIRSTX=65
##LASTX=287
##FIRSTY=640
##MAXX=287
##MINX=65
##MAXY=9999
##MINY=70
##NPOINTS=108
##PEAK TABLE=(XY..XY)
65,640 66,210 67,1060 68,150
69,780 71,2400 72,360 76,100
77,1370 78,380 79,1020 80,220
81,980 83,450 85,350 89,180
91,1570 92,150 93,700 94,260
95,830 96,80 97,160 102,130
103,450 104,160 105,1080 106,80
107,3090 108,870 109,460 115,1530
116,670 117,730 119,390 120,1060
121,1520 122,410 125,80 127,980
128,910 129,550 130,130 131,1880
132,850 133,6709 134,950 141,640
142,180 144,1770 145,3120 146,2640
147,1370 148,170 152,220 153,290
154,120 155,160 157,1810 158,2640
159,6279 160,9259 161,140 165,370
167,90 169,150 170,420 171,1110
172,2080 173,1260 174,250 178,70
179,120 181,150 182,160 183,250
184,220 185,870 188,140 195,100
196,100 197,480 198,310 199,930
200,2120 201,330 209,120 210,70
211,1760 212,690 213,9999 214,1730
215,1430 216,490 226,970 227,370
228,3710 229,1280 239,120 240,150
253,650 267,140 268,810 270,100
271,250 284,100 286,9329 287,2000
##END=
