##TITLE=Proadifen
##JCAMP-DX=4.24
##DATA TYPE=MASS SPECTRUM
##ORIGIN=Patti Price, Georgia Bureau of Investigation, Decatur, Georgia
##OWNER=NIST Mass Spectrometry Data Center
Collection (C) 2014 copyright by the U.S. Secretary of Commerce
on behalf of the United States of America. All rights reserved.
##CAS REGISTRY NO=302-33-0
##$NIST MASS SPEC NO=248006
##MOLFORM=C23 H31 N O2
##MW=353
##$NIST SOURCE=MSDC
##XUNITS=M/Z
##YUNITS=RELATIVE INTENSITY
##XFACTOR=1
##YFACTOR=1
##FIRSTX=41
##LASTX=338
##FIRSTY=150
##MAXX=338
##MINX=41
##MAXY=9999
##MINY=10
##NPOINTS=61
##PEAK TABLE=(XY..XY)
41,150 42,540 43,240 44,750
51,70 53,30 55,30 56,400
57,170 58,640 63,20 65,50
70,130 71,290 72,160 73,30
77,140 78,20 79,20 84,180
86,9999 87,670 89,20 91,890
92,50 99,2171 100,340 101,20
102,40 103,100 105,330 106,20
115,120 116,50 117,20 127,20
128,50 129,50 131,90 139,20
149,50 151,20 152,140 153,20
163,20 164,40 165,520 166,200
167,340 168,40 176,10 177,10
178,120 179,70 180,20 193,10
194,40 209,90 210,10 281,10
338,20
##END=
