##TITLE=Chloral Hydrate
##JCAMP-DX=4.24
##DATA TYPE=MASS SPECTRUM
##ORIGIN=NIST Mass Spectrometry Data Center, 1990.
##OWNER=NIST Mass Spectrometry Data Center
Collection (C) 2014 copyright by the U.S. Secretary of Commerce
on behalf of the United States of America. All rights reserved.
##CAS REGISTRY NO=302-17-0
##$NIST MASS SPEC NO=118677
##MOLFORM=C2 H3 Cl3 O2
##MW=164
##$NIST SOURCE=MSDC
##XUNITS=M/Z
##YUNITS=RELATIVE INTENSITY
##XFACTOR=1
##YFACTOR=1
##FIRSTX=12
##LASTX=150
##FIRSTY=312
##MAXX=150
##MINX=12
##MAXY=9999
##MINY=14
##NPOINTS=55
##PEAK TABLE=(XY..XY)
12,312 13,391 14,14 16,65
17,46 18,33 24,199 25,339
28,728 29,4923 30,49 32,97
35,1883 36,234 37,586 38,98
40,180 41,106 42,38 44,21
47,5176 48,1609 49,1721 50,502
59,141 60,349 61,49 62,103
63,30 70,88 72,39 82,9999
83,4448 84,6464 85,2621 86,1103
87,394 110,1330 111,4179 112,907
113,2768 114,190 115,466 116,190
117,1115 118,1112 119,1079 120,1070
121,336 122,313 123,34 124,37
146,412 148,398 150,124
##END=
