##TITLE=4a(2H)-Naphthalenecarboxylic acid, octahydro-, cis-
##JCAMP-DX=4.24
##DATA TYPE=MASS SPECTRUM
##ORIGIN=Japan AIST/NIMC Database- Spectrum MS-IW-2490
##OWNER=NIST Mass Spectrometry Data Center
Collection (C) 2014 copyright by the U.S. Secretary of Commerce
on behalf of the United States of America. All rights reserved.
##CAS REGISTRY NO=3021-73-6
##$NIST MASS SPEC NO=243536
##MOLFORM=C11 H18 O2
##MW=182
##$NIST SOURCE=MSDC
##XUNITS=M/Z
##YUNITS=RELATIVE INTENSITY
##XFACTOR=1
##YFACTOR=1
##FIRSTX=15
##LASTX=184
##FIRSTY=10
##MAXX=184
##MINX=15
##MAXY=9999
##MINY=10
##NPOINTS=135
##PEAK TABLE=(XY..XY)
15,10 16,10 17,179 18,20
26,20 27,479 28,109 29,499
30,10 31,30 38,20 39,769
40,129 41,2019 42,179 43,399
44,80 45,209 46,10 47,30
48,10 50,30 51,169 52,119
53,659 54,259 55,1569 56,129
57,189 58,40 59,30 60,30
61,10 62,20 63,60 64,20
65,299 66,199 67,2349 68,369
69,1679 70,139 71,90 72,30
73,189 74,20 75,10 76,20
77,559 78,159 79,1089 80,529
81,7659 82,809 83,379 84,50
85,50 86,159 87,50 88,20
89,50 91,429 92,90 93,689
94,669 95,6149 96,889 97,209
98,70 99,80 100,30 101,40
102,10 103,30 104,30 105,80
106,30 107,409 108,379 109,379
110,579 111,149 112,50 113,99
114,80 115,30 116,10 117,30
118,10 119,30 120,99 121,329
122,839 123,169 124,30 125,149
126,419 127,3149 128,269 129,30
131,20 132,10 133,80 134,70
135,559 136,1429 137,9999 138,1099
139,279 140,579 141,70 145,10
146,70 147,20 148,20 149,60
150,10 151,50 152,80 153,109
154,30 161,10 162,20 163,20
164,1459 165,219 166,20 167,50
168,10 178,10 180,50 181,60
182,6389 183,789 184,70
##END=
