##TITLE=2-Nonenal, 2-pentyl-
##JCAMP-DX=4.24
##DATA TYPE=MASS SPECTRUM
##ORIGIN=D.HENNEBERG, MAX-PLANCK INSTITUTE, MULHEIM, WEST GERMANY
##OWNER=NIST Mass Spectrometry Data Center
Collection (C) 2014 copyright by the U.S. Secretary of Commerce
on behalf of the United States of America. All rights reserved.
##CAS REGISTRY NO=3021-89-4
##$NIST MASS SPEC NO=61178
##MOLFORM=C14 H26 O
##MW=210
##$NIST SOURCE=MSDC
##XUNITS=M/Z
##YUNITS=RELATIVE INTENSITY
##XFACTOR=1
##YFACTOR=1
##FIRSTX=26
##LASTX=211
##FIRSTY=406
##MAXX=211
##MINX=26
##MAXY=9999
##MINY=10
##NPOINTS=156
##PEAK TABLE=(XY..XY)
26,406 27,1198 28,2127 29,4128
30,93 31,16 32,137 36,63
37,33 38,25 39,664 40,170
41,7447 42,1363 43,8128 44,1027
45,375 46,36 47,57 48,10
49,20 50,47 51,80 52,45
53,595 54,839 55,9999 56,2040
57,5733 58,631 59,431 60,412
61,148 62,11 64,47 65,177
66,241 67,4908 68,1153 69,6519
70,2226 71,4980 72,433 73,321
74,61 75,120 76,60 77,445
78,160 79,3744 80,558 81,6985
82,2011 83,6979 84,2653 85,1603
86,213 87,138 88,83 89,59
90,42 91,552 92,147 93,3719
94,1029 95,4082 96,2201 97,4829
98,1582 99,1093 100,141 101,88
102,52 103,132 106,33 107,2721
108,487 109,3338 110,587 111,2939
112,2032 113,399 114,168 115,121
116,43 117,20 118,19 119,73
120,27 121,1182 122,229 123,593
124,193 125,6628 126,1318 127,554
128,142 129,119 130,18 131,41
133,62 134,33 135,1664 136,724
137,269 138,458 139,4105 140,811
141,208 142,69 143,116 145,10
147,24 149,370 150,95 151,140
152,248 153,6026 154,732 155,230
156,71 157,43 159,31 161,23
163,510 164,84 165,67 166,29
167,511 168,93 169,22 171,69
173,11 177,50 178,18 179,240
180,72 181,963 182,158 183,23
184,44 190,11 192,61 193,42
194,40 195,93 196,29 198,23
199,281 200,77 201,25 207,29
208,42 209,95 210,4965 211,790
##END=
