##TITLE=2,5-Dimethylhexane-2,5-dihydroperoxide
##JCAMP-DX=4.24
##DATA TYPE=MASS SPECTRUM
##ORIGIN=Leung Pu, NIH, Bethesda, Maryland, U.S.
##OWNER=NIST Mass Spectrometry Data Center
Collection (C) 2014 copyright by the U.S. Secretary of Commerce
on behalf of the United States of America. All rights reserved.
##CAS REGISTRY NO=3025-88-5
##$NIST MASS SPEC NO=127727
##MOLFORM=C8 H18 O4
##MW=178
##$NIST SOURCE=MSDC
##XUNITS=M/Z
##YUNITS=RELATIVE INTENSITY
##XFACTOR=1
##YFACTOR=1
##FIRSTX=41
##LASTX=179
##FIRSTY=2246
##MAXX=179
##MINX=41
##MAXY=9999
##MINY=3
##NPOINTS=94
##PEAK TABLE=(XY..XY)
41,2246 42,648 43,9999 44,258
45,322 46,23 47,38 48,29
49,47 50,29 51,54 52,27
53,369 54,21 55,3346 56,457
57,593 58,1939 59,1862 60,123
61,81 62,3 63,13 64,7
65,47 66,5 67,818 68,107
69,5338 70,1093 71,757 72,325
73,352 75,3120 76,107 77,84
78,48 79,77 80,49 81,70
82,28 83,225 84,35 85,250
86,51 87,64 88,6 89,66
90,3 91,48 92,6 93,213
95,2556 96,223 97,361 98,30
99,53 100,16 101,56 102,38
103,12 104,3 105,12 106,24
107,15 108,3 109,39 111,3773
112,442 113,514 114,57 115,21
117,12 119,14 121,11 122,3
123,13 124,26 125,15 126,3
127,275 128,31 129,75 130,16
131,26 144,55 145,45 146,3
147,17 149,38 150,3 163,4
178,13 179,4
##END=
