##TITLE=Thiazolo[3,2-a]pyridinium, 8-hydroxy-3-methyl-, hydroxide, inner salt
##JCAMP-DX=4.24
##DATA TYPE=MASS SPECTRUM
##OWNER=NIST Mass Spectrometry Data Center
Collection (C) 2014 copyright by the U.S. Secretary of Commerce
on behalf of the United States of America. All rights reserved.
##CAS REGISTRY NO=30276-99-4
##$NIST MASS SPEC NO=33265
##MOLFORM=C8 H7 N O S
##MW=165
##$NIST SOURCE=MSDC
##XUNITS=M/Z
##YUNITS=RELATIVE INTENSITY
##XFACTOR=1
##YFACTOR=1
##FIRSTX=39
##LASTX=167
##FIRSTY=4300
##MAXX=167
##MINX=39
##MAXY=9999
##MINY=200
##NPOINTS=30
##PEAK TABLE=(XY..XY)
39,4300 44,675 45,725 51,450
52,625 67,325 68,250 69,300
70,675 71,1200 72,850 92,450
93,200 94,200 95,350 96,200
97,400 104,1125 105,1300 109,450
110,500 136,2575 137,5674 138,675
139,425 148,250 164,400 165,9999
166,1200 167,400
##END=
