##TITLE=3-Methoxyphenyl acetone
##JCAMP-DX=4.24
##DATA TYPE=MASS SPECTRUM
##ORIGIN=NIST Mass Spectrometry Data Center, 1994
##OWNER=NIST Mass Spectrometry Data Center
Collection (C) 2014 copyright by the U.S. Secretary of Commerce
on behalf of the United States of America. All rights reserved.
##CAS REGISTRY NO=3027-13-2
##$NIST MASS SPEC NO=134489
##MOLFORM=C10 H12 O2
##MW=164
##$NIST SOURCE=MSDC
##XUNITS=M/Z
##YUNITS=RELATIVE INTENSITY
##XFACTOR=1
##YFACTOR=1
##FIRSTX=13
##LASTX=166
##FIRSTY=15
##MAXX=166
##MINX=13
##MAXY=9999
##MINY=10
##NPOINTS=64
##PEAK TABLE=(XY..XY)
13,15 14,103 15,862 18,28
26,70 27,228 29,107 30,22
31,20 37,54 38,216 39,921
40,92 41,178 42,20 43,9999
44,218 45,33 50,463 51,966
52,653 53,196 54,27 55,83
61,67 62,225 63,578 64,207
65,852 66,79 67,33 74,97
75,86 76,129 77,1321 78,1257
79,289 80,33 86,42 87,35
89,399 90,394 91,2195 92,300
93,69 102,20 103,55 104,19
105,120 106,182 107,362 108,34
115,16 118,14 119,20 121,3183
122,1613 123,159 124,10 148,12
149,30 164,2344 165,265 166,27
##END=
