##TITLE=3-Methylcinnamic acid
##JCAMP-DX=4.24
##DATA TYPE=MASS SPECTRUM
##ORIGIN=NIST Mass Spectrometry Data Center
##OWNER=NIST Mass Spectrometry Data Center
Collection (C) 2014 copyright by the U.S. Secretary of Commerce
on behalf of the United States of America. All rights reserved.
##CAS REGISTRY NO=3029-79-6
##$NIST MASS SPEC NO=343022
##MOLFORM=C10 H10 O2
##MW=162
##$NIST SOURCE=MSDC
##XUNITS=M/Z
##YUNITS=RELATIVE INTENSITY
##XFACTOR=1
##YFACTOR=1
##FIRSTX=10
##LASTX=164
##FIRSTY=20
##MAXX=164
##MINX=10
##MAXY=9999
##MINY=10
##NPOINTS=79
##PEAK TABLE=(XY..XY)
10,20 11,20 14,60 15,470
16,310 17,280 19,60 24,20
25,10 26,280 27,1181 28,330
29,290 32,90 36,20 37,40
38,561 39,3053 40,320 41,390
43,40 44,1131 45,1982 46,10
50,1491 51,2432 52,641 53,270
55,20 57,821 58,651 61,80
62,1211 63,2692 64,591 65,2772
66,300 69,20 73,20 74,651
75,761 76,320 77,1441 78,460
79,490 80,881 86,50 87,120
88,10 89,1882 90,180 91,5165
92,611 93,110 101,40 102,961
103,1361 104,20 105,1672 106,10
113,20 115,8538 116,3163 117,2883
118,290 119,1191 120,10 121,60
133,400 134,60 144,440 145,2322
147,9168 148,1041 149,280 161,7857
162,9999 163,1231 164,420
##END=
