##TITLE=Benzoic acid, 2,6-dihydroxy-
##JCAMP-DX=4.24
##DATA TYPE=MASS SPECTRUM
##ORIGIN=Japan AIST/NIMC Database- Spectrum MS-NW-3568
##OWNER=NIST Mass Spectrometry Data Center
Collection (C) 2014 copyright by the U.S. Secretary of Commerce
on behalf of the United States of America. All rights reserved.
##CAS REGISTRY NO=303-07-1
##$NIST MASS SPEC NO=229709
##MOLFORM=C7 H6 O4
##MW=154
##$NIST SOURCE=MSDC
##XUNITS=M/Z
##YUNITS=RELATIVE INTENSITY
##XFACTOR=1
##YFACTOR=1
##FIRSTX=12
##LASTX=156
##FIRSTY=30
##MAXX=156
##MINX=12
##MAXY=9999
##MINY=10
##NPOINTS=91
##PEAK TABLE=(XY..XY)
12,30 13,20 14,50 15,70
16,50 17,199 18,979 19,40
24,10 25,70 26,269 27,689
28,549 29,419 30,20 31,90
32,20 36,50 37,369 38,619
39,1579 40,289 41,299 42,229
43,109 44,759 45,339 46,30
48,40 49,179 50,559 51,1189
52,2579 53,899 54,539 55,599
56,40 57,10 59,70 60,60
61,199 62,319 63,629 64,189
65,119 66,179 67,119 68,199
69,739 70,50 71,60 73,10
74,30 75,10 77,169 78,60
79,759 80,2029 81,729 82,319
83,30 84,10 85,10 86,10
87,10 90,50 91,119 92,60
93,30 95,179 96,20 97,40
107,789 108,9069 109,659 110,1599
111,119 112,10 119,50 120,20
125,40 126,20 131,30 135,60
136,9999 137,1019 138,109 140,40
154,5839 155,479 156,70
##END=
