##TITLE=Cholest-5-en-3-ol (3.beta.)-, 9-octadecenoate, (Z)-
##JCAMP-DX=4.24
##DATA TYPE=MASS SPECTRUM
##ORIGIN=Japan AIST/NIMC Database- Spectrum MS-NW-9604
##OWNER=NIST Mass Spectrometry Data Center
Collection (C) 2014 copyright by the U.S. Secretary of Commerce
on behalf of the United States of America. All rights reserved.
##CAS REGISTRY NO=303-43-5
##$NIST MASS SPEC NO=237909
##MOLFORM=C45 H78 O2
##MW=650
##$NIST SOURCE=MSDC
##XUNITS=M/Z
##YUNITS=RELATIVE INTENSITY
##XFACTOR=1
##YFACTOR=1
##FIRSTX=15
##LASTX=650
##FIRSTY=10
##MAXX=650
##MINX=15
##MAXY=9999
##MINY=10
##NPOINTS=312
##PEAK TABLE=(XY..XY)
15,10 17,50 18,259 26,10
27,159 28,109 29,449 30,10
31,10 32,10 39,199 40,40
41,1529 42,219 43,1549 44,60
45,70 51,20 52,10 53,199
54,439 55,2669 56,699 57,1669
58,90 59,50 60,249 61,50
63,10 64,10 65,119 66,80
67,1629 68,629 69,2449 70,769
71,1039 72,60 73,409 74,40
75,10 76,10 77,289 78,119
79,979 80,279 81,3129 82,1009
83,2079 84,829 85,479 86,40
87,159 88,20 89,10 91,1179
92,319 93,1319 94,479 95,2199
96,949 97,1679 98,809 99,209
100,109 101,189 102,40 103,80
104,119 105,1609 106,629 107,1559
108,729 109,1499 110,629 111,969
112,339 113,159 114,219 115,289
116,119 117,599 118,369 119,949
120,889 121,1549 122,479 123,839
124,389 125,469 126,169 127,229
128,259 129,559 130,219 131,999
132,269 133,1219 134,489 135,1249
136,319 137,549 138,279 139,259
140,99 141,279 142,229 143,859
144,399 145,2559 146,1019 147,2889
148,959 149,949 150,189 151,439
152,229 153,189 154,80 155,159
156,109 157,549 158,429 159,1229
160,1229 161,1229 162,399 163,919
164,169 165,359 166,169 167,119
168,60 169,129 170,70 171,359
172,189 173,509 174,259 175,399
176,139 177,289 178,90 179,209
180,159 181,109 182,50 183,119
184,70 185,439 186,159 187,229
188,70 189,169 190,60 191,309
192,109 193,319 194,139 195,90
196,40 197,289 198,109 199,439
200,289 201,439 202,109 203,119
204,70 205,279 206,369 207,239
208,99 209,60 210,40 211,179
212,109 213,1209 214,379 215,349
216,129 217,109 218,70 219,219
220,189 221,139 222,149 223,50
224,20 225,40 226,50 227,219
228,359 229,339 230,99 231,119
232,50 233,90 234,30 235,109
236,90 237,70 238,30 239,99
240,40 241,159 242,80 243,99
244,50 245,259 246,499 247,2609
248,559 249,90 250,70 251,40
252,30 253,209 254,109 255,1979
256,499 257,259 258,119 259,259
260,1989 261,579 262,109 263,30
264,539 265,139 266,20 267,20
268,10 269,30 270,20 271,40
272,20 273,70 274,239 275,129
276,30 277,30 278,70 279,30
280,70 281,50 282,139 283,219
284,109 285,50 286,20 287,50
288,30 289,10 292,10 295,10
296,10 297,80 298,30 299,40
300,20 301,60 302,20 310,10
311,50 312,30 313,40 314,149
315,40 316,10 324,10 325,50
326,289 327,99 328,20 329,10
331,10 335,10 337,10 339,80
340,50 341,20 342,10 344,10
346,30 347,10 348,60 349,30
350,60 351,109 352,119 353,1999
354,579 355,219 356,50 357,10
360,10 362,20 364,30 365,20
366,369 367,239 368,9999 369,3679
370,859 371,149 372,20 382,20
384,20 385,10 386,20 650,10
##END=
