##TITLE=2-Butene, 2,3-dichloro-1,1,1,4,4,4-hexafluoro-
##JCAMP-DX=4.24
##DATA TYPE=MASS SPECTRUM
##ORIGIN=Japan AIST/NIMC Database- Spectrum MS-NW-6808
##OWNER=NIST Mass Spectrometry Data Center
Collection (C) 2014 copyright by the U.S. Secretary of Commerce
on behalf of the United States of America. All rights reserved.
##CAS REGISTRY NO=303-04-8
##$NIST MASS SPEC NO=238763
##MOLFORM=C4 Cl2 F6
##MW=232
##$NIST SOURCE=MSDC
##XUNITS=M/Z
##YUNITS=RELATIVE INTENSITY
##XFACTOR=1
##YFACTOR=1
##FIRSTX=12
##LASTX=237
##FIRSTY=20
##MAXX=237
##MINX=12
##MAXY=9999
##MINY=10
##NPOINTS=131
##PEAK TABLE=(XY..XY)
12,20 19,10 24,30 31,1089
32,50 35,179 36,149 37,60
43,40 47,259 49,90 50,259
55,559 56,30 57,10 59,129
61,50 62,90 66,119 67,10
68,40 69,9999 70,119 71,60
72,30 73,40 74,1049 75,60
77,40 78,129 79,10 80,50
81,10 82,20 83,10 84,10
85,999 86,60 87,319 89,20
90,229 91,10 92,80 93,3289
94,269 95,10 96,139 97,90
98,50 99,30 100,10 101,50
103,40 105,50 106,10 109,2299
110,99 111,719 112,479 113,50
114,10 115,30 116,50 117,20
118,20 119,10 124,269 125,80
126,10 127,50 128,199 129,20
130,70 131,90 132,50 134,30
135,30 136,10 137,10 140,10
143,299 144,50 145,20 146,40
147,3579 148,139 149,1159 150,50
151,40 153,30 155,10 159,20
161,10 162,90 163,9539 164,349
165,6129 166,259 167,1009 168,60
169,10 175,20 177,10 178,20
180,10 182,369 183,10 184,259
185,10 186,50 191,10 194,40
196,20 197,2349 198,139 199,779
200,40 210,20 212,20 213,1599
214,99 215,1069 216,50 217,199
218,10 232,5369 233,269 234,3439
235,179 236,599 237,30
##END=
