##TITLE=Norchlorcyclizine
##JCAMP-DX=4.24
##DATA TYPE=MASS SPECTRUM
##ORIGIN=J.E. WILKINSON S-CUBED, SAN DIEGO, CA.
##OWNER=NIST Mass Spectrometry Data Center
Collection (C) 2014 copyright by the U.S. Secretary of Commerce
on behalf of the United States of America. All rights reserved.
##CAS REGISTRY NO=303-26-4
##$NIST MASS SPEC NO=92376
##MOLFORM=C17 H19 Cl N2
##MW=286
##$NIST SOURCE=MSDC
##XUNITS=M/Z
##YUNITS=RELATIVE INTENSITY
##XFACTOR=1
##YFACTOR=1
##FIRSTX=41
##LASTX=288
##FIRSTY=351
##MAXX=288
##MINX=41
##MAXY=9999
##MINY=4
##NPOINTS=79
##PEAK TABLE=(XY..XY)
41,351 42,2019 43,568 44,488
50,41 51,250 54,262 56,9999
57,610 58,1618 59,4 62,4
63,302 65,176 71,43 75,130
76,17 77,231 82,95 83,238
85,7588 86,217 87,31 89,341
91,599 99,12 104,97 113,27
114,4 115,279 117,8 118,17
125,372 126,25 127,107 137,4
138,114 139,384 140,31 146,27
147,35 151,23 152,105 162,10
163,607 164,698 165,7488 166,3907
167,337 175,314 179,157 180,43
181,66 199,161 201,8387 202,1043
203,2558 204,97 206,260 209,289
211,33 216,238 218,8 228,938
229,465 230,1527 231,120 232,397
240,438 241,3907 242,779 243,1079
244,176 256,234 258,33 271,99
286,514 287,54 288,132
##END=
