##TITLE=Phosphonous acid, phenyl-, dibutyl ester
##JCAMP-DX=4.24
##DATA TYPE=MASS SPECTRUM
##ORIGIN=D.HENNEBERG, MAX-PLANCK INSTITUTE, MULHEIM, WEST GERMANY
##OWNER=NIST Mass Spectrometry Data Center
Collection (C) 2014 copyright by the U.S. Secretary of Commerce
on behalf of the United States of America. All rights reserved.
##CAS REGISTRY NO=3030-90-8
##$NIST MASS SPEC NO=62632
##MOLFORM=C14 H23 O2 P
##MW=254
##$NIST SOURCE=MSDC
##XUNITS=M/Z
##YUNITS=RELATIVE INTENSITY
##XFACTOR=1
##YFACTOR=1
##FIRSTX=26
##LASTX=255
##FIRSTY=311
##MAXX=255
##MINX=26
##MAXY=9999
##MINY=5
##NPOINTS=124
##PEAK TABLE=(XY..XY)
26,311 27,953 28,991 29,2434
30,59 31,81 36,5 37,23
38,31 39,545 40,80 41,1949
42,66 43,93 44,265 45,26
47,1248 48,13 49,20 50,147
51,594 52,99 53,84 54,43
55,294 56,128 57,989 62,48
63,25 64,10 65,276 66,16
67,13 68,8 69,29 70,8
71,28 72,30 74,25 75,28
76,70 77,1846 78,1746 79,723
80,49 81,28 82,16 83,17
91,107 92,27 93,6 94,7
95,21 96,60 97,9 99,6
101,5 102,11 103,37 104,22
105,67 106,7 107,158 108,139
109,70 110,7 112,6 113,5
117,31 118,11 119,8 121,35
122,9 123,21 124,262 125,1345
126,195 127,84 128,6 132,73
133,17 139,20 140,37 141,1904
142,2416 143,9999 144,651 145,58
147,7 149,10 151,10 152,7
154,8 155,35 156,52 157,93
158,14 160,13 161,15 163,7
165,14 167,13 169,44 170,20
171,50 175,43 176,6 178,19
179,14 181,321 182,37 183,21
185,9 197,83 198,50 199,2047
200,230 201,31 207,13 216,8
231,23 239,7 254,198 255,52
##END=
