##TITLE=5-Hexenenitrile, 2-methyl-
##JCAMP-DX=4.24
##DATA TYPE=MASS SPECTRUM
##ORIGIN=A.E.WILLIAMS ICI DYESTUFFS DIVISION. BLACKLEY
##OWNER=NIST Mass Spectrometry Data Center
Collection (C) 2014 copyright by the U.S. Secretary of Commerce
on behalf of the United States of America. All rights reserved.
##CAS REGISTRY NO=30316-00-8
##$NIST MASS SPEC NO=1454
##MOLFORM=C7 H11 N
##MW=109
##$NIST SOURCE=MSDC
##XUNITS=M/Z
##YUNITS=RELATIVE INTENSITY
##XFACTOR=1
##YFACTOR=1
##FIRSTX=15
##LASTX=110
##FIRSTY=84
##MAXX=110
##MINX=15
##MAXY=9999
##MINY=29
##NPOINTS=38
##PEAK TABLE=(XY..XY)
15,84 26,108 27,1042 28,675
29,1012 38,86 39,1450 40,225
41,1833 42,550 43,89 44,106
51,183 52,233 53,542 54,908
55,9999 56,442 57,84 63,29
64,492 65,100 66,141 67,625
68,608 69,107 71,492 77,56
79,59 80,108 81,250 82,128
92,47 94,433 95,138 108,107
109,112 110,102
##END=
