##TITLE=3-Hexyne-2,5-diol
##JCAMP-DX=4.24
##DATA TYPE=MASS SPECTRUM
##ORIGIN=RADIAN CORP
##OWNER=NIST Mass Spectrometry Data Center
Collection (C) 2014 copyright by the U.S. Secretary of Commerce
on behalf of the United States of America. All rights reserved.
##CAS REGISTRY NO=3031-66-1
##$NIST MASS SPEC NO=69649
##MOLFORM=C6 H10 O2
##MW=114
##$NIST SOURCE=MSDC
##XUNITS=M/Z
##YUNITS=RELATIVE INTENSITY
##XFACTOR=1
##YFACTOR=1
##FIRSTX=15
##LASTX=100
##FIRSTY=240
##MAXX=100
##MINX=15
##MAXY=9999
##MINY=10
##NPOINTS=56
##PEAK TABLE=(XY..XY)
15,240 25,50 26,240 27,820
29,1530 30,20 31,120 37,70
38,190 39,890 40,130 41,1670
42,620 43,9999 44,1530 45,1330
46,20 47,10 48,20 49,100
50,550 51,720 52,510 53,3660
54,330 55,1630 56,110 57,190
58,20 61,130 62,70 63,130
64,20 65,200 66,90 67,490
68,80 69,730 70,620 71,2810
72,150 74,30 77,200 78,30
79,120 80,20 81,1980 82,160
83,40 84,150 85,330 95,210
96,80 97,50 99,1030 100,40
##END=
