##TITLE=1,3-Propanediol, 2-methyl-2-[(nitrooxy)methyl]-, dinitrate (ester)
##JCAMP-DX=4.24
##DATA TYPE=MASS SPECTRUM
##ORIGIN=MINISTRY OF TECH. E.R.D.E., WALTHAM ABBEY, UK
##OWNER=NIST Mass Spectrometry Data Center
Collection (C) 2014 copyright by the U.S. Secretary of Commerce
on behalf of the United States of America. All rights reserved.
##CAS REGISTRY NO=3032-55-1
##$NIST MASS SPEC NO=12434
##MOLFORM=C5 H9 N3 O9
##MW=255
##$NIST SOURCE=MSDC
##XUNITS=M/Z
##YUNITS=RELATIVE INTENSITY
##XFACTOR=1
##YFACTOR=1
##FIRSTX=15
##LASTX=90
##FIRSTY=130
##MAXX=90
##MINX=15
##MAXY=9999
##MINY=20
##NPOINTS=27
##PEAK TABLE=(XY..XY)
15,130 27,390 28,730 29,1110
30,1500 31,710 39,250 40,70
41,570 42,230 43,1170 44,180
45,120 46,9999 50,20 51,20
55,150 56,190 57,340 58,150
59,70 62,60 71,100 72,150
73,50 76,1160 90,20
##END=
