##TITLE=8-Chloro-2-methylquinoline
##JCAMP-DX=4.24
##DATA TYPE=MASS SPECTRUM
##ORIGIN=NIST Mass Spectrometry Data Center, 1994
##OWNER=NIST Mass Spectrometry Data Center
Collection (C) 2014 copyright by the U.S. Secretary of Commerce
on behalf of the United States of America. All rights reserved.
##CAS REGISTRY NO=3033-82-7
##$NIST MASS SPEC NO=136052
##MOLFORM=C10 H8 Cl N
##MW=177
##$NIST SOURCE=MSDC
##XUNITS=M/Z
##YUNITS=RELATIVE INTENSITY
##XFACTOR=1
##YFACTOR=1
##FIRSTX=13
##LASTX=181
##FIRSTY=24
##MAXX=181
##MINX=13
##MAXY=9999
##MINY=14
##NPOINTS=105
##PEAK TABLE=(XY..XY)
13,24 14,19 15,436 25,28
26,377 27,619 28,281 35,94
36,76 37,395 38,579 39,1314
40,209 41,105 42,284 43,14
44,41 47,57 48,27 49,241
50,1354 51,1238 52,376 53,69
54,19 55,71 56,132 57,14
58,396 60,90 61,430 62,856
63,1407 64,389 65,212 66,39
68,146 71,931 72,87 73,397
74,1195 75,1686 76,576 77,147
78,44 84,184 85,252 86,381
87,592 88,697 89,752 90,169
91,44 96,39 97,158 98,351
99,1019 100,590 101,313 102,194
103,37 108,42 109,115 110,284
111,154 112,173 113,764 114,2106
115,2360 116,487 117,39 121,27
123,186 124,86 125,87 126,552
127,523 128,85 134,18 135,129
136,94 137,68 138,77 139,18
140,2830 141,1533 142,1414 143,181
147,28 148,29 149,294 150,153
151,268 152,60 153,59 162,660
163,90 164,211 165,22 174,42
177,9999 178,1307 179,3285 180,324
181,16
##END=
