##TITLE=Thiazole, 2-bromo-
##JCAMP-DX=4.24
##DATA TYPE=MASS SPECTRUM
##ORIGIN=Japan AIST/NIMC Database- Spectrum MS-NW-8645
##OWNER=NIST Mass Spectrometry Data Center
Collection (C) 2014 copyright by the U.S. Secretary of Commerce
on behalf of the United States of America. All rights reserved.
##CAS REGISTRY NO=3034-53-5
##$NIST MASS SPEC NO=234948
##MOLFORM=C3 H2 Br N S
##MW=163
##$NIST SOURCE=MSDC
##XUNITS=M/Z
##YUNITS=RELATIVE INTENSITY
##XFACTOR=1
##YFACTOR=1
##FIRSTX=12
##LASTX=168
##FIRSTY=30
##MAXX=168
##MINX=12
##MAXY=9999
##MINY=10
##NPOINTS=59
##PEAK TABLE=(XY..XY)
12,30 13,10 24,10 25,60
26,269 27,30 28,10 32,239
33,50 34,10 37,10 38,119
39,90 40,189 44,249 45,549
46,40 47,20 50,30 51,129
52,70 56,139 57,1229 58,9999
59,369 60,459 61,10 70,50
76,30 79,139 80,30 81,169
82,149 83,249 84,60 85,50
91,80 92,10 93,80 94,10
105,30 106,80 107,30 108,70
111,20 113,20 119,20 123,80
125,90 137,10 139,10 156,10
162,20 163,5869 164,289 165,5969
166,259 167,259 168,10
##END=
