##TITLE=1H-Imidazole, 1-methyl-5-nitro-
##JCAMP-DX=4.24
##DATA TYPE=MASS SPECTRUM
##ORIGIN=W. LUIJTEN, GORLAEUS LAB., LEIDEN UNIV., NETHERL NET
##OWNER=NIST Mass Spectrometry Data Center
Collection (C) 2014 copyright by the U.S. Secretary of Commerce
on behalf of the United States of America. All rights reserved.
##CAS REGISTRY NO=3034-42-2
##$NIST MASS SPEC NO=75822
##MOLFORM=C4 H5 N3 O2
##MW=127
##$NIST SOURCE=MSDC
##XUNITS=M/Z
##YUNITS=RELATIVE INTENSITY
##XFACTOR=1
##YFACTOR=1
##FIRSTX=38
##LASTX=128
##FIRSTY=100
##MAXX=128
##MINX=38
##MAXY=9999
##MINY=100
##NPOINTS=25
##PEAK TABLE=(XY..XY)
38,100 39,200 40,300 41,200
42,900 43,200 51,100 52,300
53,400 54,900 55,200 66,200
67,100 80,100 81,200 82,100
83,100 84,100 94,100 97,100
98,300 110,200 111,200 127,9999
128,600
##END=
