##TITLE=Cyclobutaneethanol, 1-methyl-2-(1-methylethenyl)-, trans-
##JCAMP-DX=4.24
##DATA TYPE=MASS SPECTRUM
##ORIGIN=NIST Mass Spectrometry Data Center
##OWNER=NIST Mass Spectrometry Data Center
Collection (C) 2014 copyright by the U.S. Secretary of Commerce
on behalf of the United States of America. All rights reserved.
##CAS REGISTRY NO=30346-21-5
##$NIST MASS SPEC NO=414197
##MOLFORM=C10 H18 O
##MW=154
##$NIST SOURCE=MSDC
##XUNITS=M/Z
##YUNITS=RELATIVE INTENSITY
##XFACTOR=1
##YFACTOR=1
##FIRSTX=26
##LASTX=140
##FIRSTY=30
##MAXX=140
##MINX=26
##MAXY=9999
##MINY=10
##NPOINTS=78
##PEAK TABLE=(XY..XY)
26,30 27,571 28,130 29,561
30,30 31,791 37,10 38,90
39,1922 40,651 41,2682 42,390
43,561 44,100 45,60 50,140
51,440 52,260 53,2252 54,180
55,1361 56,1561 57,290 58,40
59,20 61,10 62,40 63,140
64,30 65,591 66,280 67,7597
68,9999 69,1611 70,340 71,380
72,30 75,10 77,751 78,150
79,921 80,250 81,891 82,220
83,360 84,180 85,330 86,60
89,10 91,561 92,110 93,1041
94,300 95,450 96,140 97,140
98,60 99,20 103,30 105,150
106,40 107,1001 108,1121 109,2913
110,390 111,1071 112,110 113,10
119,30 121,801 122,90 123,190
124,30 125,40 126,40 136,60
139,190 140,20
##END=
