##TITLE=1H-Imidazole, 4-nitro-
##JCAMP-DX=4.24
##DATA TYPE=MASS SPECTRUM
##ORIGIN=Japan AIST/NIMC Database- Spectrum MS-NW-6756
##OWNER=NIST Mass Spectrometry Data Center
Collection (C) 2014 copyright by the U.S. Secretary of Commerce
on behalf of the United States of America. All rights reserved.
##CAS REGISTRY NO=3034-38-6
##$NIST MASS SPEC NO=235477
##MOLFORM=C3 H3 N3 O2
##MW=113
##$NIST SOURCE=MSDC
##XUNITS=M/Z
##YUNITS=RELATIVE INTENSITY
##XFACTOR=1
##YFACTOR=1
##FIRSTX=14
##LASTX=115
##FIRSTY=28
##MAXX=115
##MINX=14
##MAXY=9999
##MINY=14
##NPOINTS=50
##PEAK TABLE=(XY..XY)
14,28 16,55 24,55 25,83
26,206 27,1226 28,1378 29,564
30,3185 31,28 37,14 38,1130
39,2399 40,5447 41,468 42,371
43,178 44,69 45,14 46,261
50,28 51,55 52,124 53,564
54,261 55,3102 56,274 57,41
58,14 64,55 65,83 66,606
67,3254 68,164 69,454 70,399
71,28 77,14 79,14 81,28
83,606 84,28 85,14 96,28
97,799 98,41 111,14 113,9999
114,523 115,55
##END=
