##TITLE=1-Butanamine, 4-(diethoxymethylsilyl)-
##JCAMP-DX=4.24
##DATA TYPE=MASS SPECTRUM
##ORIGIN=RADIAN CORP
##OWNER=NIST Mass Spectrometry Data Center
Collection (C) 2014 copyright by the U.S. Secretary of Commerce
on behalf of the United States of America. All rights reserved.
##CAS REGISTRY NO=3037-72-7
##$NIST MASS SPEC NO=73579
##MOLFORM=C9 H23 N O2 Si
##MW=205
##$NIST SOURCE=MSDC
##XUNITS=M/Z
##YUNITS=RELATIVE INTENSITY
##XFACTOR=1
##YFACTOR=1
##FIRSTX=15
##LASTX=204
##FIRSTY=160
##MAXX=204
##MINX=15
##MAXY=9999
##MINY=20
##NPOINTS=73
##PEAK TABLE=(XY..XY)
15,160 18,370 26,80 27,800
29,910 30,8810 39,160 41,280
42,480 43,1180 44,710 45,3580
46,110 47,230 55,150 56,200
58,340 59,670 60,440 61,2680
62,450 63,500 70,50 71,90
72,900 73,870 74,430 75,760
76,970 77,5870 78,710 79,200
85,180 86,700 87,940 88,900
89,3190 90,510 91,270 98,40
100,510 101,200 102,1030 103,470
104,1910 105,2990 106,490 107,120
112,70 113,120 114,1460 115,310
116,1920 117,570 118,1420 119,410
120,40 130,270 131,150 133,9999
134,1830 135,470 144,3650 145,470
146,110 158,140 159,1160 160,610
161,130 162,1200 163,110 190,120
204,20
##END=
