##TITLE=3-Amino-1H-quinazoline-2,4-dione
##JCAMP-DX=4.24
##DATA TYPE=MASS SPECTRUM
##ORIGIN=NIST Mass Spectrometry Data Center
##OWNER=NIST Mass Spectrometry Data Center
Collection (C) 2014 copyright by the U.S. Secretary of Commerce
on behalf of the United States of America. All rights reserved.
##CAS REGISTRY NO=30386-01-7
##$NIST MASS SPEC NO=342877
##MOLFORM=C8 H7 N3 O2
##MW=177
##$NIST SOURCE=MSDC
##XUNITS=M/Z
##YUNITS=RELATIVE INTENSITY
##XFACTOR=1
##YFACTOR=1
##FIRSTX=10
##LASTX=178
##FIRSTY=10
##MAXX=178
##MINX=10
##MAXY=9999
##MINY=10
##NPOINTS=60
##PEAK TABLE=(XY..XY)
10,10 12,50 13,50 17,781
19,20 20,10 26,80 27,150
28,40 29,951 30,651 31,130
32,160 37,611 38,1041 39,1241
40,230 41,290 42,20 43,190
45,380 46,20 50,991 51,791
52,911 53,230 61,310 62,711
63,1882 64,2082 65,1041 66,20
67,20 70,100 73,60 74,460
75,430 76,651 77,591 78,90
89,40 90,2913 91,1141 92,3313
93,280 102,70 104,140 105,20
106,20 118,741 119,2432 120,400
133,40 146,9999 147,981 148,300
162,1541 163,170 177,6045 178,711
##END=
