##TITLE=2-Hydroxy-3-phenylbenzoic acid
##JCAMP-DX=4.24
##DATA TYPE=MASS SPECTRUM
##ORIGIN=Japan AIST/NIMC Database- Spectrum MS-NW-2674
##OWNER=NIST Mass Spectrometry Data Center
Collection (C) 2014 copyright by the U.S. Secretary of Commerce
on behalf of the United States of America. All rights reserved.
##CAS REGISTRY NO=304-06-3
##$NIST MASS SPEC NO=231588
##MOLFORM=C13 H10 O3
##MW=214
##$NIST SOURCE=MSDC
##XUNITS=M/Z
##YUNITS=RELATIVE INTENSITY
##XFACTOR=1
##YFACTOR=1
##FIRSTX=16
##LASTX=216
##FIRSTY=10
##MAXX=216
##MINX=16
##MAXY=9999
##MINY=10
##NPOINTS=124
##PEAK TABLE=(XY..XY)
16,10 17,30 18,109 26,30
27,99 28,319 29,30 32,60
36,10 37,40 38,109 39,419
40,20 41,30 42,10 43,20
44,139 45,90 49,20 50,229
51,389 52,119 53,139 55,60
56,40 57,99 58,20 61,60
62,249 63,559 64,109 65,179
66,40 67,20 68,10 69,699
70,909 71,90 72,10 73,20
74,189 75,219 76,139 77,249
78,269 79,30 83,90 84,619
85,50 86,119 87,189 88,179
89,339 90,50 91,70 92,20
97,129 98,739 99,50 100,20
101,50 102,169 103,40 105,20
107,249 109,10 110,30 111,30
112,20 113,269 114,589 115,939
116,109 117,10 118,10 119,10
122,10 125,10 126,50 127,70
128,109 129,50 130,10 137,50
138,139 139,5069 140,1819 141,739
142,109 143,20 144,20 145,10
149,10 150,30 151,60 152,70
153,20 155,20 157,20 166,10
167,189 168,9999 169,1719 170,509
171,60 179,30 180,10 181,20
182,10 184,10 185,10 186,10
188,10 194,20 195,2019 196,9779
197,1629 198,169 199,10 212,10
213,90 214,6459 215,929 216,99
##END=
