##TITLE=Harmaline
##JCAMP-DX=4.24
##DATA TYPE=MASS SPECTRUM
##ORIGIN=NIST Mass Spectrometry Data Center
##OWNER=NIST Mass Spectrometry Data Center
Collection (C) 2014 copyright by the U.S. Secretary of Commerce
on behalf of the United States of America. All rights reserved.
##CAS REGISTRY NO=304-21-2
##$NIST MASS SPEC NO=352408
##MOLFORM=C13 H14 N2 O
##MW=214
##$NIST SOURCE=MSDC
##XUNITS=M/Z
##YUNITS=RELATIVE INTENSITY
##XFACTOR=1
##YFACTOR=1
##FIRSTX=15
##LASTX=216
##FIRSTY=40
##MAXX=216
##MINX=15
##MAXY=9999
##MINY=10
##NPOINTS=117
##PEAK TABLE=(XY..XY)
15,40 29,20 30,20 40,10
41,20 42,60 50,70 51,140
52,80 53,40 54,100 55,80
56,50 57,20 58,50 61,40
62,170 63,440 64,150 65,150
66,30 67,20 68,30 70,80
72,50 73,30 74,170 75,260
76,220 77,440 78,160 79,40
80,20 81,10 85,310 87,110
88,180 89,400 90,160 91,320
93,50 98,60 100,230 101,260
102,350 103,260 104,80 105,20
107,450 111,10 112,10 113,100
114,280 115,781 116,350 117,270
118,90 119,20 125,30 126,80
127,290 128,410 129,220 130,470
131,120 132,40 133,10 138,10
139,20 140,280 141,390 142,671
143,851 144,701 145,110 146,30
147,20 151,10 152,50 153,90
154,270 155,380 156,290 157,60
158,300 159,60 160,40 166,20
167,70 168,110 169,711 170,2142
171,971 172,1161 173,871 174,170
175,20 179,10 180,10 181,60
182,230 183,150 184,240 185,370
186,751 187,330 188,40 196,10
197,60 198,2582 199,1611 200,160
211,40 213,9999 214,9649 215,1331
216,100
##END=
