##TITLE=Malononitrile, phenyl-
##JCAMP-DX=4.24
##DATA TYPE=MASS SPECTRUM
##ORIGIN=James Little,Eastman Chem.Co.,Kingsport,TN
##OWNER=NIST Mass Spectrometry Data Center
Collection (C) 2014 copyright by the U.S. Secretary of Commerce
on behalf of the United States of America. All rights reserved.
##CAS REGISTRY NO=3041-40-5
##$NIST MASS SPEC NO=288946
##MOLFORM=C9 H6 N2
##MW=142
##$NIST SOURCE=MSDC
##XUNITS=M/Z
##YUNITS=RELATIVE INTENSITY
##XFACTOR=1
##YFACTOR=1
##FIRSTX=27
##LASTX=143
##FIRSTY=1291
##MAXX=143
##MINX=27
##MAXY=9999
##MINY=210
##NPOINTS=33
##PEAK TABLE=(XY..XY)
27,1291 28,3753 37,681 38,1291
39,2472 41,270 49,340 50,2602
51,3733 52,641 61,781 62,1371
63,2182 64,971 65,480 74,751
75,721 76,641 77,2863 78,510
87,691 88,1311 89,1902 90,651
91,240 113,210 114,1561 115,9999
116,2522 117,691 141,941 142,7637
143,871
##END=
