##TITLE=1H-Pyrrole, 2-phenyl-
##JCAMP-DX=4.24
##DATA TYPE=MASS SPECTRUM
##ORIGIN=James Little,Eastman Chem.Co.,Kingsport,TN
##OWNER=NIST Mass Spectrometry Data Center
Collection (C) 2014 copyright by the U.S. Secretary of Commerce
on behalf of the United States of America. All rights reserved.
##CAS REGISTRY NO=3042-22-6
##$NIST MASS SPEC NO=288971
##MOLFORM=C10 H9 N
##MW=143
##$NIST SOURCE=MSDC
##XUNITS=M/Z
##YUNITS=RELATIVE INTENSITY
##XFACTOR=1
##YFACTOR=1
##FIRSTX=38
##LASTX=145
##FIRSTY=200
##MAXX=145
##MINX=38
##MAXY=9999
##MINY=80
##NPOINTS=36
##PEAK TABLE=(XY..XY)
38,200 39,691 41,160 44,310
50,380 51,571 59,671 62,370
63,811 65,340 71,360 72,921
74,240 76,270 77,530 86,160
87,220 88,230 89,931 90,300
91,140 102,150 103,220 104,540
113,230 114,390 115,5365 116,2702
117,961 118,90 140,190 141,320
142,871 143,9999 144,1271 145,80
##END=
