##TITLE=2-Butenoic acid, 3-methyl-, 2-methylpropyl ester
##JCAMP-DX=4.24
##DATA TYPE=MASS SPECTRUM
##ORIGIN=V.G.Zaikin, TIPS RAS, Moscow, Russia
##OWNER=NIST Mass Spectrometry Data Center
Collection (C) 2014 copyright by the U.S. Secretary of Commerce
on behalf of the United States of America. All rights reserved.
##CAS REGISTRY NO=30434-54-9
##$NIST MASS SPEC NO=279221
##MOLFORM=C9 H16 O2
##MW=156
##$NIST SOURCE=MSDC
##XUNITS=M/Z
##YUNITS=RELATIVE INTENSITY
##XFACTOR=1
##YFACTOR=1
##FIRSTX=26
##LASTX=157
##FIRSTY=350
##MAXX=157
##MINX=26
##MAXY=9999
##MINY=30
##NPOINTS=48
##PEAK TABLE=(XY..XY)
26,350 27,2582 28,711 29,3053
30,170 31,190 36,60 37,190
38,450 39,3013 40,561 41,2382
42,390 43,951 44,390 45,160
48,30 49,70 50,350 51,430
52,290 53,951 54,390 55,2853
56,1081 57,1722 58,180 59,150
67,190 68,60 69,170 70,70
72,60 78,40 79,190 82,1021
83,9999 84,681 85,550 86,30
98,30 99,30 100,3013 101,1321
102,70 113,60 156,210 157,30
##END=
