##TITLE=Cyclobutanecarboxylic acid, phenyl ester
##JCAMP-DX=4.24
##DATA TYPE=MASS SPECTRUM
##ORIGIN=Zaikin V.G., TIPS RAS, Moscow, Russia
##OWNER=NIST Mass Spectrometry Data Center
Collection (C) 2014 copyright by the U.S. Secretary of Commerce
on behalf of the United States of America. All rights reserved.
##CAS REGISTRY NO=30466-31-0
##$NIST MASS SPEC NO=299071
##MOLFORM=C11 H12 O2
##MW=176
##$NIST SOURCE=MSDC
##XUNITS=M/Z
##YUNITS=RELATIVE INTENSITY
##XFACTOR=1
##YFACTOR=1
##FIRSTX=26
##LASTX=177
##FIRSTY=160
##MAXX=177
##MINX=26
##MAXY=9999
##MINY=20
##NPOINTS=35
##PEAK TABLE=(XY..XY)
26,160 27,941 28,20 29,691
38,100 39,951 40,130 41,30
50,110 51,300 52,40 53,350
54,270 55,9999 56,400 62,40
63,150 64,70 65,641 66,350
77,470 78,40 79,60 82,290
83,4264 84,230 91,50 93,100
94,1592 95,120 107,170 120,140
148,50 176,941 177,120
##END=
