##TITLE=4-Chlorocyclohexanol
##JCAMP-DX=4.24
##DATA TYPE=MASS SPECTRUM
##ORIGIN=NIST Mass Spectrometry Data Center, 1994
##OWNER=NIST Mass Spectrometry Data Center
Collection (C) 2014 copyright by the U.S. Secretary of Commerce
on behalf of the United States of America. All rights reserved.
##CAS REGISTRY NO=30485-71-3
##$NIST MASS SPEC NO=135281
##MOLFORM=C6 H11 Cl O
##MW=134
##$NIST SOURCE=MSDC
##XUNITS=M/Z
##YUNITS=RELATIVE INTENSITY
##XFACTOR=1
##YFACTOR=1
##FIRSTX=12
##LASTX=136
##FIRSTY=22
##MAXX=136
##MINX=12
##MAXY=9999
##MINY=7
##NPOINTS=82
##PEAK TABLE=(XY..XY)
12,22 13,17 14,91 15,649
16,26 17,42 18,26 19,76
26,596 27,3218 28,817 29,3114
30,184 31,921 32,26 35,59
36,62 37,178 38,466 39,3402
40,565 41,3240 42,1593 43,2777
44,2247 45,144 47,44 48,58
49,269 50,378 51,603 52,218
53,1007 54,2491 55,2328 56,44
57,9999 58,494 61,119 62,275
63,205 64,110 65,301 66,87
67,380 68,87 69,1195 70,1069
71,194 72,36 73,51 74,7
75,177 76,68 77,401 78,138
79,936 80,3053 81,2067 82,181
83,991 84,55 85,35 88,100
89,47 90,74 91,337 92,41
93,129 97,409 98,1809 99,571
100,46 105,28 107,28 116,403
117,38 118,103 133,39 134,76
135,26 136,27
##END=
