##TITLE=Bicyclo[2.2.1]hept-2-ene, 5-ethenyl-
##JCAMP-DX=4.24
##DATA TYPE=MASS SPECTRUM
##ORIGIN=Japan AIST/NIMC Database- Spectrum MS-IW-2207
##OWNER=NIST Mass Spectrometry Data Center
Collection (C) 2014 copyright by the U.S. Secretary of Commerce
on behalf of the United States of America. All rights reserved.
##CAS REGISTRY NO=3048-64-4
##$NIST MASS SPEC NO=235659
##MOLFORM=C9 H12
##MW=120
##$NIST SOURCE=MSDC
##XUNITS=M/Z
##YUNITS=RELATIVE INTENSITY
##XFACTOR=1
##YFACTOR=1
##FIRSTX=26
##LASTX=121
##FIRSTY=20
##MAXX=121
##MINX=26
##MAXY=9999
##MINY=10
##NPOINTS=48
##PEAK TABLE=(XY..XY)
26,20 27,259 28,60 29,20
37,10 38,60 39,679 40,299
41,229 42,10 50,90 51,229
52,90 53,189 54,149 55,40
57,10 58,20 61,10 62,40
63,109 64,30 65,549 66,9999
67,659 68,20 74,10 75,10
76,10 77,429 78,239 79,489
80,50 89,20 91,409 92,169
93,30 102,10 103,50 104,20
105,169 106,10 115,50 116,10
117,30 119,20 120,689 121,70
##END=
