##TITLE=Esculetin
##JCAMP-DX=4.24
##DATA TYPE=MASS SPECTRUM
##ORIGIN=Japan AIST/NIMC Database- Spectrum MS-NW-9897
##OWNER=NIST Mass Spectrometry Data Center
Collection (C) 2014 copyright by the U.S. Secretary of Commerce
on behalf of the United States of America. All rights reserved.
##CAS REGISTRY NO=305-01-1
##$NIST MASS SPEC NO=239091
##MOLFORM=C9 H6 O4
##MW=178
##$NIST SOURCE=MSDC
##XUNITS=M/Z
##YUNITS=RELATIVE INTENSITY
##XFACTOR=1
##YFACTOR=1
##FIRSTX=14
##LASTX=181
##FIRSTY=40
##MAXX=181
##MINX=14
##MAXY=9999
##MINY=10
##NPOINTS=89
##PEAK TABLE=(XY..XY)
14,40 15,50 18,10 25,20
26,80 27,129 28,459 29,119
31,20 32,20 33,20 36,10
37,99 38,349 39,509 40,179
41,139 42,299 43,139 44,40
45,60 46,70 47,339 48,10
49,99 50,709 51,969 52,459
53,659 54,129 55,129 60,70
61,199 62,149 63,199 64,90
65,399 66,589 67,70 68,40
69,1259 70,139 71,50 73,20
74,129 75,1039 76,809 77,169
78,60 79,539 80,339 81,249
82,30 85,10 86,20 87,20
88,10 89,199 90,10 91,10
92,50 93,99 94,789 95,90
96,10 103,30 104,559 105,80
106,10 107,40 108,119 109,99
110,10 120,20 121,499 122,319
123,30 132,319 133,30 134,10
149,189 150,5969 151,539 152,60
177,239 178,9999 179,1349 180,159
181,10
##END=
