##TITLE=2,6-Diiodo-4-nitrophenol
##JCAMP-DX=4.24
##DATA TYPE=MASS SPECTRUM
##ORIGIN=Japan AIST/NIMC Database- Spectrum MS-IW- 591
##OWNER=NIST Mass Spectrometry Data Center
Collection (C) 2014 copyright by the U.S. Secretary of Commerce
on behalf of the United States of America. All rights reserved.
##CAS REGISTRY NO=305-85-1
##$NIST MASS SPEC NO=239398
##MOLFORM=C6 H3 I2 N O3
##MW=391
##$NIST SOURCE=MSDC
##XUNITS=M/Z
##YUNITS=RELATIVE INTENSITY
##XFACTOR=1
##YFACTOR=1
##FIRSTX=28
##LASTX=393
##FIRSTY=80
##MAXX=393
##MINX=28
##MAXY=9999
##MINY=10
##NPOINTS=81
##PEAK TABLE=(XY..XY)
28,80 29,10 30,99 37,60
38,30 39,60 44,10 49,10
50,60 51,60 52,20 53,349
54,10 60,20 61,269 62,709
63,819 64,90 65,10 66,10
73,20 74,40 75,10 77,10
78,10 79,129 80,10 89,10
90,319 91,1179 92,159 93,10
107,70 108,20 126,30 127,159
128,179 137,20 152,10 164,20
165,10 177,40 178,50 179,70
181,10 188,30 189,189 190,209
191,20 195,20 205,129 206,80
207,10 217,299 218,1919 219,139
233,139 234,139 235,90 247,10
254,109 265,329 266,20 269,20
299,129 301,40 305,30 315,10
316,10 317,139 333,329 334,20
344,70 345,429 346,30 361,1269
362,80 375,70 391,9999 392,699
393,80
##END=
