##TITLE=2-Propanamine, N-methyl-N-nitroso-
##JCAMP-DX=4.24
##DATA TYPE=MASS SPECTRUM
##ORIGIN=W.T.RAINEY OAK RIDGE NATIONAL LABORATORY,OAK RIDGE,TN.USA
##OWNER=NIST Mass Spectrometry Data Center
Collection (C) 2014 copyright by the U.S. Secretary of Commerce
on behalf of the United States of America. All rights reserved.
##CAS REGISTRY NO=30533-08-5
##$NIST MASS SPEC NO=25545
##MOLFORM=C4 H10 N2 O
##MW=102
##$NIST SOURCE=MSDC
##XUNITS=M/Z
##YUNITS=RELATIVE INTENSITY
##XFACTOR=1
##YFACTOR=1
##FIRSTX=30
##LASTX=103
##FIRSTY=2203
##MAXX=103
##MINX=30
##MAXY=9999
##MINY=84
##NPOINTS=32
##PEAK TABLE=(XY..XY)
30,2203 31,169 32,338 37,254
38,423 39,2372 40,677 41,4236
42,9999 43,8558 44,1271 45,84
51,84 52,169 53,84 54,593
55,423 56,7626 57,6355 58,677
59,169 60,593 61,254 70,508
71,762 72,338 73,84 85,338
87,423 88,84 102,6863 103,423
##END=
