##TITLE=Dodecane, 4,9-dipropyl-
##JCAMP-DX=4.24
##DATA TYPE=MASS SPECTRUM
##ORIGIN=CONTINENTAL OIL CO., PONCA CITY, OKLA, USA
##OWNER=NIST Mass Spectrometry Data Center
Collection (C) 2014 copyright by the U.S. Secretary of Commerce
on behalf of the United States of America. All rights reserved.
##CAS REGISTRY NO=3054-63-5
##$NIST MASS SPEC NO=34729
##MOLFORM=C18 H38
##MW=254
##$NIST SOURCE=MSDC
##XUNITS=M/Z
##YUNITS=RELATIVE INTENSITY
##XFACTOR=1
##YFACTOR=1
##FIRSTX=26
##LASTX=254
##FIRSTY=42
##MAXX=254
##MINX=26
##MAXY=9999
##MINY=1
##NPOINTS=111
##PEAK TABLE=(XY..XY)
26,42 27,1228 28,168 29,1885
30,45 37,8 38,14 39,461
40,110 41,3602 42,676 43,5195
44,176 50,9 51,22 52,18
53,223 54,205 55,2324 56,1092
57,9999 58,446 59,9 63,8
65,40 66,26 67,257 68,172
69,1238 70,593 71,3934 72,220
73,7 75,4 76,8 77,72
78,20 79,81 80,21 81,158
82,93 83,615 84,470 85,2871
86,191 87,7 91,25 92,5
93,13 94,7 95,57 96,37
97,319 98,1965 99,1092 100,82
101,5 103,2 105,4 107,4
108,5 109,17 110,29 111,202
112,528 113,512 114,59 115,1
119,2 123,8 124,12 125,82
126,46 127,350 128,37 129,4
132,3 133,11 138,9 139,20
140,25 141,283 142,32 152,6
153,15 154,67 155,693 156,85
157,7 166,27 167,199 168,67
169,133 170,17 181,6 182,18
183,21 184,4 196,13 197,36
198,7 210,902 211,2490 212,411
213,31 224,8 225,28 226,6
252,3 253,3 254,5
##END=
