##TITLE=Ethanimidothioic acid, 2-(dimethylamino)-N-hydroxy-2-oxo-, methyl ester
##JCAMP-DX=4.24
##DATA TYPE=MASS SPECTRUM
##ORIGIN=J. SHAW, BORRISTON RESEARCH, ROCKVILLE, MD, USA
##OWNER=NIST Mass Spectrometry Data Center
Collection (C) 2014 copyright by the U.S. Secretary of Commerce
on behalf of the United States of America. All rights reserved.
##CAS REGISTRY NO=30558-43-1
##$NIST MASS SPEC NO=60223
##MOLFORM=C5 H10 N2 O2 S
##MW=162
##$NIST SOURCE=MSDC
##XUNITS=M/Z
##YUNITS=RELATIVE INTENSITY
##XFACTOR=1
##YFACTOR=1
##FIRSTX=12
##LASTX=165
##FIRSTY=30
##MAXX=165
##MINX=12
##MAXY=9999
##MINY=10
##NPOINTS=112
##PEAK TABLE=(XY..XY)
12,30 13,40 14,290 15,4324
16,160 17,480 18,2772 19,10
26,50 27,290 28,1161 29,250
30,260 31,70 32,90 33,30
34,10 35,20 38,30 39,90
40,200 41,580 42,2652 43,1011
44,6486 45,1821 46,850 47,1431
48,220 49,80 50,10 51,20
52,10 53,30 54,390 55,390
56,890 57,340 58,800 59,170
60,120 61,660 62,40 63,70
64,20 65,20 66,20 67,100
69,590 70,180 72,9999 73,1151
74,810 75,180 76,110 77,30
78,10 79,20 80,10 81,40
82,20 83,220 84,90 85,90
86,80 87,220 88,250 89,460
90,470 91,60 92,20 93,10
94,30 95,10 97,310 98,260
99,2022 100,130 101,30 102,20
104,140 105,20 106,10 107,10
108,10 109,20 110,10 111,80
112,10 113,20 115,2772 116,190
117,160 118,120 119,20 120,10
123,10 125,30 127,10 128,50
129,30 130,70 144,50 145,2262
146,150 147,180 148,10 149,10
162,2552 163,340 164,130 165,20
##END=
