##TITLE=Diethylene glycol monododecyl ether
##JCAMP-DX=4.24
##DATA TYPE=MASS SPECTRUM
##ORIGIN=Japan AIST/NIMC Database- Spectrum MS-NW-5369
##OWNER=NIST Mass Spectrometry Data Center
Collection (C) 2014 copyright by the U.S. Secretary of Commerce
on behalf of the United States of America. All rights reserved.
##CAS REGISTRY NO=3055-93-4
##$NIST MASS SPEC NO=233122
##MOLFORM=C16 H34 O3
##MW=274
##$NIST SOURCE=MSDC
##XUNITS=M/Z
##YUNITS=RELATIVE INTENSITY
##XFACTOR=1
##YFACTOR=1
##FIRSTX=14
##LASTX=256
##FIRSTY=20
##MAXX=256
##MINX=14
##MAXY=9999
##MINY=10
##NPOINTS=150
##PEAK TABLE=(XY..XY)
14,20 15,149 16,10 17,10
18,40 25,10 26,109 27,999
28,469 29,1899 30,99 31,529
32,30 33,149 38,10 39,469
40,109 41,3829 42,1159 43,7309
44,799 45,7819 46,199 47,90
50,10 51,20 52,20 53,199
54,369 55,3769 56,1889 57,9999
58,549 59,1059 60,449 61,459
62,659 63,339 64,10 65,40
66,99 67,549 68,1049 69,2529
70,1499 71,5669 72,459 73,769
74,60 75,1739 76,269 77,2369
78,90 79,70 80,40 81,399
82,1529 83,2249 84,959 85,3519
86,259 87,449 88,229 89,1619
90,409 91,279 92,20 93,20
94,30 95,369 96,849 97,1819
98,659 99,859 100,90 101,269
102,40 103,99 104,40 105,30
106,10 107,739 108,50 109,279
110,389 111,1059 112,369 113,589
114,60 115,30 116,20 117,20
118,40 119,199 120,10 121,10
122,10 123,169 124,229 125,359
126,169 127,269 128,40 129,99
130,10 131,20 135,30 137,99
138,209 139,99 140,349 141,80
142,10 143,20 145,10 151,20
152,10 154,10 155,20 156,20
157,10 165,40 166,499 167,129
168,319 169,229 170,30 171,10
179,10 183,229 184,40 185,70
186,10 194,40 195,10 197,90
198,30 199,239 200,40 201,20
202,10 211,10 212,40 213,30
227,30 228,10 241,10 243,80
244,20 256,10
##END=
