##TITLE=Heptaethylene glycol monododecyl ether
##JCAMP-DX=4.24
##DATA TYPE=MASS SPECTRUM
##ORIGIN=Japan AIST/NIMC Database- Spectrum MS-NW-2876
##OWNER=NIST Mass Spectrometry Data Center
Collection (C) 2014 copyright by the U.S. Secretary of Commerce
on behalf of the United States of America. All rights reserved.
##CAS REGISTRY NO=3055-97-8
##$NIST MASS SPEC NO=231645
##MOLFORM=C26 H54 O8
##MW=494
##$NIST SOURCE=MSDC
##XUNITS=M/Z
##YUNITS=RELATIVE INTENSITY
##XFACTOR=1
##YFACTOR=1
##FIRSTX=12
##LASTX=407
##FIRSTY=20
##MAXX=407
##MINX=12
##MAXY=9999
##MINY=10
##NPOINTS=238
##PEAK TABLE=(XY..XY)
12,20 13,50 14,189 15,719
16,80 17,109 18,379 24,10
25,60 26,329 27,899 28,1289
29,1839 30,199 31,759 32,40
33,30 37,10 38,20 39,319
40,80 41,1839 42,699 43,3689
44,2539 45,9999 46,249 47,30
50,10 51,30 52,20 53,119
54,239 55,1899 56,1109 57,4309
58,1279 59,1839 60,119 61,129
62,20 63,90 65,30 66,80
67,389 68,619 69,1489 70,1039
71,2429 72,2119 73,2009 74,129
75,439 76,50 77,229 78,20
79,70 80,70 81,299 82,1059
83,1279 84,599 85,1499 86,349
87,2909 88,1849 89,6669 90,399
91,269 92,20 93,40 94,40
95,249 96,619 97,999 98,389
99,529 100,99 101,629 102,329
103,1269 104,139 105,159 106,20
107,129 108,30 109,169 110,279
111,559 112,239 113,359 114,109
115,159 116,289 117,839 118,99
119,239 120,20 121,219 122,30
123,109 124,159 125,189 126,90
127,159 128,40 129,70 130,30
131,719 132,179 133,2949 134,209
135,229 136,30 137,80 138,119
139,70 140,139 141,60 142,20
143,30 144,10 145,60 146,30
147,329 148,40 149,50 150,10
151,119 152,20 153,10 154,10
155,20 156,10 157,30 158,40
159,70 160,40 161,139 162,30
163,219 164,80 165,90 166,699
167,369 168,209 169,319 170,40
171,10 172,10 173,20 174,10
175,429 176,50 177,909 178,90
179,80 180,10 181,10 182,20
183,109 184,30 185,90 186,10
187,10 189,30 190,10 191,70
192,20 193,30 194,60 195,119
196,20 197,90 198,20 199,30
200,10 201,20 202,20 203,40
204,10 205,50 206,10 207,139
208,30 209,40 210,60 211,90
212,90 213,299 214,50 218,10
219,129 220,20 221,199 222,30
223,30 227,70 228,20 229,30
231,10 233,10 235,20 236,10
239,60 241,10 242,10 243,30
249,10 251,60 252,60 253,10
254,10 255,20 256,20 257,169
258,30 263,10 264,10 265,30
267,20 271,20 272,10 273,40
275,10 283,20 287,10 295,30
300,10 301,40 302,10 315,10
317,20 319,10 327,20 361,10
363,10 407,10
##END=
