##TITLE=Benzonitrile, 4-iodo-
##JCAMP-DX=4.24
##DATA TYPE=MASS SPECTRUM
##ORIGIN=RADIAN CORP
##OWNER=NIST Mass Spectrometry Data Center
Collection (C) 2014 copyright by the U.S. Secretary of Commerce
on behalf of the United States of America. All rights reserved.
##CAS REGISTRY NO=3058-39-7
##$NIST MASS SPEC NO=73484
##MOLFORM=C7 H4 I N
##MW=229
##$NIST SOURCE=MSDC
##XUNITS=M/Z
##YUNITS=RELATIVE INTENSITY
##XFACTOR=1
##YFACTOR=1
##FIRSTX=25
##LASTX=230
##FIRSTY=30
##MAXX=230
##MINX=25
##MAXY=9999
##MINY=30
##NPOINTS=33
##PEAK TABLE=(XY..XY)
25,30 26,120 27,270 36,70
37,660 38,660 39,240 48,60
49,500 50,2850 51,2030 52,440
60,40 61,250 62,320 63,160
64,80 72,30 73,410 74,1230
75,3830 76,1800 77,60 99,410
100,170 102,9999 103,790 114,120
115,130 127,3260 128,50 229,7970
230,240
##END=
