##TITLE=Ethane, 2,2-dichloro-1,1,1-trifluoro-
##JCAMP-DX=4.24
##DATA TYPE=MASS SPECTRUM
##ORIGIN=Thomas J.Bruno
##OWNER=NIST Mass Spectrometry Data Center
Collection (C) 2014 copyright by the U.S. Secretary of Commerce
on behalf of the United States of America. All rights reserved.
##CAS REGISTRY NO=306-83-2
##$NIST MASS SPEC NO=215699
##MOLFORM=C2 H Cl2 F3
##MW=152
##$NIST SOURCE=MSDC
##XUNITS=M/Z
##YUNITS=RELATIVE INTENSITY
##XFACTOR=1
##YFACTOR=1
##FIRSTX=31
##LASTX=154
##FIRSTY=4273
##MAXX=154
##MINX=31
##MAXY=9999
##MINY=10
##NPOINTS=32
##PEAK TABLE=(XY..XY)
31,4273 35,3593 37,1131 43,270
44,870 47,2272 48,2742 49,830
50,2031 51,1000 63,290 64,10
66,320 67,2222 69,4003 78,100
83,9999 85,6535 87,1050 97,170
98,590 100,180 101,90 116,60
117,330 119,90 133,1381 135,880
137,120 152,590 153,10 154,360
##END=
