##TITLE=Perfluorodecalin
##JCAMP-DX=4.24
##DATA TYPE=MASS SPECTRUM
##ORIGIN=Japan AIST/NIMC Database- Spectrum MS-NW-4896
##OWNER=NIST Mass Spectrometry Data Center
Collection (C) 2014 copyright by the U.S. Secretary of Commerce
on behalf of the United States of America. All rights reserved.
##CAS REGISTRY NO=306-94-5
##$NIST MASS SPEC NO=227559
##MOLFORM=C10 F18
##MW=462
##$NIST SOURCE=MSDC
##XUNITS=M/Z
##YUNITS=RELATIVE INTENSITY
##XFACTOR=1
##YFACTOR=1
##FIRSTX=31
##LASTX=462
##FIRSTY=499
##MAXX=462
##MINX=31
##MAXY=9999
##MINY=10
##NPOINTS=90
##PEAK TABLE=(XY..XY)
31,499 32,10 50,109 55,30
62,20 69,9999 70,109 74,109
79,20 81,70 86,30 93,1079
94,40 98,40 100,1409 101,30
105,90 112,229 117,219 118,10
119,1379 120,30 124,279 125,10
129,10 131,7749 132,259 136,40
141,10 143,619 144,30 148,30
150,70 155,449 156,30 162,479
163,20 167,50 169,599 170,20
174,80 179,20 181,929 182,40
186,119 187,10 193,709 194,40
198,10 200,50 205,409 206,30
212,119 213,10 217,70 219,139
224,80 231,219 232,10 236,70
243,2259 244,159 255,249 256,20
262,40 267,50 274,40 281,80
286,20 293,2839 294,249 305,139
306,20 324,10 331,80 332,10
343,489 344,40 355,179 356,20
362,20 374,40 381,20 393,639
394,60 412,50 413,10 443,179
444,20 462,20
##END=
