##TITLE=Metobromuron
##JCAMP-DX=4.24
##DATA TYPE=MASS SPECTRUM
##ORIGIN=P.A. Leclercq, Lab. Instrum. Anal., Tech. Univ. Eindhoven, Netherlands
##OWNER=NIST Mass Spectrometry Data Center
Collection (C) 2014 copyright by the U.S. Secretary of Commerce
on behalf of the United States of America. All rights reserved.
##CAS REGISTRY NO=3060-89-7
##$NIST MASS SPEC NO=221589
##MOLFORM=C9 H11 Br N2 O2
##MW=258
##$NIST SOURCE=MSDC
##XUNITS=M/Z
##YUNITS=RELATIVE INTENSITY
##XFACTOR=1
##YFACTOR=1
##FIRSTX=28
##LASTX=261
##FIRSTY=99
##MAXX=261
##MINX=28
##MAXY=9999
##MINY=99
##NPOINTS=45
##PEAK TABLE=(XY..XY)
28,99 29,99 30,149 32,1319
33,319 38,259 39,459 40,109
45,699 46,2159 50,339 51,129
52,99 59,119 60,799 61,9999
62,429 63,929 64,649 65,169
75,249 76,409 90,729 91,1359
92,199 117,119 119,139 143,309
145,339 148,129 155,159 157,269
169,159 170,979 171,319 172,999
197,309 198,199 199,299 200,209
212,109 258,1419 259,149 260,1299
261,169
##END=
