##TITLE=2-(1-Methylvinyl)thiophene
##JCAMP-DX=4.24
##DATA TYPE=MASS SPECTRUM
##ORIGIN=V. KADENTSEV,ZELINSKII INST. ORG. CHEM.,ACAD. SCI.,MOSCOW,USSR
##OWNER=NIST Mass Spectrometry Data Center
Collection (C) 2014 copyright by the U.S. Secretary of Commerce
on behalf of the United States of America. All rights reserved.
##CAS REGISTRY NO=30616-73-0
##$NIST MASS SPEC NO=100032
##MOLFORM=C7 H8 S
##MW=124
##$NIST SOURCE=MSDC
##XUNITS=M/Z
##YUNITS=RELATIVE INTENSITY
##XFACTOR=1
##YFACTOR=1
##FIRSTX=39
##LASTX=124
##FIRSTY=2900
##MAXX=124
##MINX=39
##MAXY=9999
##MINY=200
##NPOINTS=18
##PEAK TABLE=(XY..XY)
39,2900 43,300 45,3200 51,800
53,600 58,800 59,200 65,2400
77,800 78,400 79,1200 84,2400
91,900 97,1800 109,8400 111,600
123,2400 124,9999
##END=
