##TITLE=2-Pyridinecarboxylic acid, 5-nitro-
##JCAMP-DX=4.24
##DATA TYPE=MASS SPECTRUM
##OWNER=NIST Mass Spectrometry Data Center
Collection (C) 2014 copyright by the U.S. Secretary of Commerce
on behalf of the United States of America. All rights reserved.
##CAS REGISTRY NO=30651-24-2
##$NIST MASS SPEC NO=6539
##MOLFORM=C6 H4 N2 O4
##MW=168
##$NIST SOURCE=MSDC
##XUNITS=M/Z
##YUNITS=RELATIVE INTENSITY
##XFACTOR=1
##YFACTOR=1
##FIRSTX=41
##LASTX=151
##FIRSTY=205
##MAXX=151
##MINX=41
##MAXY=9999
##MINY=173
##NPOINTS=24
##PEAK TABLE=(XY..XY)
41,205 44,274 45,1337 46,584
49,616 50,2602 51,4667 52,1096
53,342 66,411 75,649 76,1027
77,991 78,2602 79,342 94,274
104,447 105,176 122,616 123,479
124,9999 125,685 126,173 151,274
##END=
