##TITLE=o,p'-Methoxychlor
##JCAMP-DX=4.24
##DATA TYPE=MASS SPECTRUM
##ORIGIN=S.M. Lee, CA Export Lab. Services, CA, USA
##OWNER=NIST Mass Spectrometry Data Center
Collection (C) 2014 copyright by the U.S. Secretary of Commerce
on behalf of the United States of America. All rights reserved.
##CAS REGISTRY NO=30667-99-3
##$NIST MASS SPEC NO=289802
##MOLFORM=C16 H15 Cl3 O2
##MW=344
##$NIST SOURCE=MSDC
##XUNITS=M/Z
##YUNITS=RELATIVE INTENSITY
##XFACTOR=1
##YFACTOR=1
##FIRSTX=51
##LASTX=348
##FIRSTY=160
##MAXX=348
##MINX=51
##MAXY=9999
##MINY=30
##NPOINTS=138
##PEAK TABLE=(XY..XY)
51,160 62,60 63,270 64,80
65,100 69,40 70,40 73,60
74,60 75,170 76,240 77,270
78,170 79,30 82,120 85,40
86,60 87,100 88,80 89,240
90,80 91,280 92,120 93,30
97,60 98,120 99,140 101,80
102,80 103,70 104,60 105,40
106,160 107,40 108,50 109,30
111,40 112,130 114,631 115,280
116,40 117,100 118,60 119,170
121,177 122,30 124,50 125,110
126,130 127,120 128,80 129,40
131,120 132,70 133,50 134,60
135,40 137,70 138,60 139,180
140,70 141,150 142,30 150,80
151,200 152,721 153,380 154,120
155,370 156,50 157,80 159,90
161,70 162,40 163,190 164,120
165,520 166,180 167,90 168,200
169,110 177,40 178,60 179,50
180,70 181,470 182,130 183,50
184,40 186,30 187,100 189,90
193,80 194,100 195,180 196,110
197,380 198,60 199,140 201,70
202,70 204,40 207,40 208,50
209,280 210,80 211,250 212,80
215,90 217,30 223,70 224,310
225,180 227,9999 228,1682 229,190
237,70 238,90 243,190 244,50
245,90 258,591 259,130 260,200
261,40 274,220 275,50 276,70
308,200 309,90 310,170 311,90
312,60 344,410 345,60 346,390
347,70 348,120
##END=
