##TITLE=Butyl caprate
##JCAMP-DX=4.24
##DATA TYPE=MASS SPECTRUM
##ORIGIN=Japan AIST/NIMC Database- Spectrum MS-NW-1883
##OWNER=NIST Mass Spectrometry Data Center
Collection (C) 2014 copyright by the U.S. Secretary of Commerce
on behalf of the United States of America. All rights reserved.
##CAS REGISTRY NO=30673-36-0
##$NIST MASS SPEC NO=228833
##MOLFORM=C14 H28 O2
##MW=228
##$NIST SOURCE=MSDC
##XUNITS=M/Z
##YUNITS=RELATIVE INTENSITY
##XFACTOR=1
##YFACTOR=1
##FIRSTX=14
##LASTX=229
##FIRSTY=10
##MAXX=229
##MINX=14
##MAXY=9999
##MINY=10
##NPOINTS=114
##PEAK TABLE=(XY..XY)
14,10 15,50 17,20 18,70
26,70 27,1209 28,359 29,3399
30,70 31,199 32,90 38,20
39,699 40,159 41,4519 42,849
43,3749 44,119 45,159 50,20
51,30 52,20 53,189 54,199
55,2149 56,9999 57,4349 58,189
59,109 60,2739 61,1189 62,40
63,10 65,20 66,10 67,259
68,229 69,1079 70,269 71,1449
72,99 73,2079 74,249 75,50
77,20 79,50 80,20 81,319
82,109 83,509 84,399 85,629
86,80 87,499 88,50 89,229
90,10 91,10 93,40 94,20
95,279 96,40 97,299 98,309
99,60 100,20 101,559 102,50
103,189 104,10 107,30 108,10
109,40 110,119 111,139 112,99
113,40 114,10 115,269 116,739
117,219 118,10 121,10 123,10
125,40 126,20 127,10 129,1099
130,109 131,20 135,60 136,20
137,50 139,20 143,199 144,20
152,20 153,80 154,20 155,2419
156,269 157,40 171,50 172,459
173,3489 174,399 175,30 178,10
185,149 186,20 199,40 201,10
228,149 229,30
##END=
