##TITLE=2-Oxetanone, 4-methyl-
##JCAMP-DX=4.24
##DATA TYPE=MASS SPECTRUM
##ORIGIN=NIST Mass Spectrometry Data Center
##OWNER=NIST Mass Spectrometry Data Center
Collection (C) 2014 copyright by the U.S. Secretary of Commerce
on behalf of the United States of America. All rights reserved.
##CAS REGISTRY NO=3068-88-0
##$NIST MASS SPEC NO=340502
##MOLFORM=C4 H6 O2
##MW=86
##$NIST SOURCE=MSDC
##XUNITS=M/Z
##YUNITS=RELATIVE INTENSITY
##XFACTOR=1
##YFACTOR=1
##FIRSTX=12
##LASTX=71
##FIRSTY=10
##MAXX=71
##MINX=12
##MAXY=9999
##MINY=10
##NPOINTS=30
##PEAK TABLE=(XY..XY)
12,10 13,50 14,270 15,571
16,20 19,10 20,10 24,10
25,70 26,380 27,961 29,751
30,10 31,30 35,10 36,40
37,270 38,430 39,1411 40,601
41,2232 42,9999 43,4814 44,370
45,100 53,20 55,10 68,20
69,20 71,180
##END=
