##TITLE=1-Octanol, 2,2,3,3,4,4,5,5,6,6,7,7,8,8,8-pentadecafluoro-
##JCAMP-DX=4.24
##DATA TYPE=MASS SPECTRUM
##ORIGIN=RADIAN CORP
##OWNER=NIST Mass Spectrometry Data Center
Collection (C) 2014 copyright by the U.S. Secretary of Commerce
on behalf of the United States of America. All rights reserved.
##CAS REGISTRY NO=307-30-2
##$NIST MASS SPEC NO=70837
##MOLFORM=C8 H3 F15 O
##MW=400
##$NIST SOURCE=MSDC
##XUNITS=M/Z
##YUNITS=RELATIVE INTENSITY
##XFACTOR=1
##YFACTOR=1
##FIRSTX=29
##LASTX=381
##FIRSTY=1110
##MAXX=381
##MINX=29
##MAXY=9999
##MINY=20
##NPOINTS=72
##PEAK TABLE=(XY..XY)
29,1110 30,150 31,9999 32,110
33,390 42,70 44,20 45,60
47,30 49,1410 50,130 51,610
57,20 60,50 61,870 62,160
63,60 64,120 67,60 69,3610
70,40 71,30 74,30 75,100
79,80 80,170 81,460 82,50
83,80 91,70 93,360 94,40
95,180 97,70 99,70 100,1400
101,70 109,40 111,260 112,110
113,280 117,30 119,1090 120,20
124,30 125,20 131,3010 132,100
133,50 141,30 143,70 144,30
145,20 150,40 161,50 162,80
163,50 169,290 175,30 181,290
193,30 213,30 219,20 225,20
231,100 243,30 263,20 269,20
311,20 313,70 350,20 381,20
##END=
