##TITLE=1,6-Heptadiene
##JCAMP-DX=4.24
##DATA TYPE=MASS SPECTRUM
##ORIGIN=Japan AIST/NIMC Database- Spectrum MS-NW-3001
##OWNER=NIST Mass Spectrometry Data Center
Collection (C) 2014 copyright by the U.S. Secretary of Commerce
on behalf of the United States of America. All rights reserved.
##CAS REGISTRY NO=3070-53-9
##$NIST MASS SPEC NO=234007
##MOLFORM=C7 H12
##MW=96
##$NIST SOURCE=MSDC
##XUNITS=M/Z
##YUNITS=RELATIVE INTENSITY
##XFACTOR=1
##YFACTOR=1
##FIRSTX=14
##LASTX=97
##FIRSTY=10
##MAXX=97
##MINX=14
##MAXY=9999
##MINY=10
##NPOINTS=45
##PEAK TABLE=(XY..XY)
14,10 15,109 26,169 27,1989
28,189 29,3309 30,70 37,60
38,189 39,3639 40,529 41,2029
42,379 43,30 44,40 49,10
50,149 51,259 52,129 53,1779
54,9999 55,7139 56,329 57,10
61,20 62,40 63,60 64,10
65,179 66,249 67,3919 68,2199
69,119 74,10 77,119 78,30
79,209 80,30 81,3739 82,239
91,40 93,20 95,209 96,279
97,20
##END=
