##TITLE=1-Ethyl-3-pyrrolidinol
##JCAMP-DX=4.24
##DATA TYPE=MASS SPECTRUM
##ORIGIN=Chuck Anderson, Aldrich Chemical Co.
##OWNER=NIST Mass Spectrometry Data Center
Collection (C) 2014 copyright by the U.S. Secretary of Commerce
on behalf of the United States of America. All rights reserved.
##CAS REGISTRY NO=30727-14-1
##$NIST MASS SPEC NO=108521
##MOLFORM=C6 H13 N O
##MW=115
##$NIST SOURCE=MSDC
##XUNITS=M/Z
##YUNITS=RELATIVE INTENSITY
##XFACTOR=1
##YFACTOR=1
##FIRSTX=14
##LASTX=116
##FIRSTY=32
##MAXX=116
##MINX=14
##MAXY=9999
##MINY=5
##NPOINTS=58
##PEAK TABLE=(XY..XY)
14,32 15,460 26,267 27,1677
28,2220 29,1924 30,1743 31,419
32,24 36,5 37,18 38,55
39,448 40,203 41,1513 42,5262
43,9999 44,1545 45,75 50,70
51,46 52,59 53,123 54,308
55,341 56,1085 57,538 58,1513
59,75 60,48 65,5 67,75
68,493 69,127 70,497 71,5723
72,542 73,19 80,92 81,11
82,686 83,53 84,83 85,30
86,136 87,15 94,35 95,18
96,501 97,35 98,186 100,8222
101,382 102,22 112,39 114,756
115,2960 116,181
##END=
