##TITLE=Oxazole, 2,2'-(1,4-phenylene)bis[4-methyl-5-phenyl-
##JCAMP-DX=4.24
##DATA TYPE=MASS SPECTRUM
##ORIGIN=RADIAN CORP
##OWNER=NIST Mass Spectrometry Data Center
Collection (C) 2014 copyright by the U.S. Secretary of Commerce
on behalf of the United States of America. All rights reserved.
##CAS REGISTRY NO=3073-87-8
##$NIST MASS SPEC NO=70854
##MOLFORM=C26 H20 N2 O2
##MW=392
##$NIST SOURCE=MSDC
##XUNITS=M/Z
##YUNITS=RELATIVE INTENSITY
##XFACTOR=1
##YFACTOR=1
##FIRSTX=51
##LASTX=394
##FIRSTY=220
##MAXX=394
##MINX=51
##MAXY=9999
##MINY=10
##NPOINTS=53
##PEAK TABLE=(XY..XY)
51,220 63,100 76,140 77,1570
78,630 88,170 89,210 102,210
103,720 104,300 105,870 106,50
114,40 115,150 116,80 127,40
129,140 130,120 131,220 151,150
162,180 164,190 165,230 176,310
178,10 190,780 191,390 192,240
196,500 217,20 218,200 219,60
231,20 246,230 252,240 253,1100
254,440 255,10 260,260 261,280
287,60 294,150 308,20 322,330
323,680 324,170 351,100 363,250
364,260 391,80 392,9999 393,2910
394,480
##END=
