##TITLE=Butane, 1-propoxy-
##JCAMP-DX=4.24
##DATA TYPE=MASS SPECTRUM
##OWNER=NIST Mass Spectrometry Data Center
Collection (C) 2014 copyright by the U.S. Secretary of Commerce
on behalf of the United States of America. All rights reserved.
##CAS REGISTRY NO=3073-92-5
##$NIST MASS SPEC NO=1904
##MOLFORM=C7 H16 O
##MW=116
##$NIST SOURCE=MSDC
##XUNITS=M/Z
##YUNITS=RELATIVE INTENSITY
##XFACTOR=1
##YFACTOR=1
##FIRSTX=12
##LASTX=117
##FIRSTY=10
##MAXX=117
##MINX=12
##MAXY=9999
##MINY=10
##NPOINTS=54
##PEAK TABLE=(XY..XY)
12,10 13,20 14,110 15,641
16,30 19,10 25,20 26,430
27,3934 28,1201 29,4044 30,240
31,751 32,10 33,10 37,10
38,110 39,1501 40,220 41,4214
42,641 43,9999 44,591 45,350
46,10 50,30 51,40 52,20
53,80 54,40 55,761 56,1441
57,8478 58,470 59,330 60,10
61,30 69,30 70,10 71,50
72,20 73,2362 74,110 75,30
87,1341 88,70 89,40 91,30
92,20 101,20 102,10 115,20
116,310 117,20
##END=
