##TITLE=Hexane, 3-ethyl-3-methyl-
##JCAMP-DX=4.24
##DATA TYPE=MASS SPECTRUM
##OWNER=NIST Mass Spectrometry Data Center
Collection (C) 2014 copyright by the U.S. Secretary of Commerce
on behalf of the United States of America. All rights reserved.
##CAS REGISTRY NO=3074-76-8
##$NIST MASS SPEC NO=2644
##MOLFORM=C9 H20
##MW=128
##$NIST SOURCE=MSDC
##XUNITS=M/Z
##YUNITS=RELATIVE INTENSITY
##XFACTOR=1
##YFACTOR=1
##FIRSTX=25
##LASTX=128
##FIRSTY=10
##MAXX=128
##MINX=25
##MAXY=9999
##MINY=10
##NPOINTS=58
##PEAK TABLE=(XY..XY)
25,10 26,110 27,2152 28,280
29,2542 30,60 37,20 38,40
39,1041 40,140 41,3103 42,330
43,6176 44,210 45,10 49,10
50,30 51,90 52,40 53,300
54,70 55,1161 56,260 57,9999
58,440 59,10 62,10 63,20
64,10 65,40 66,20 67,90
68,30 69,661 70,350 71,681
72,40 77,20 78,10 79,20
80,10 81,20 82,10 83,70
84,791 85,2853 86,180 87,10
91,10 97,10 98,811 99,1912
100,140 101,10 112,10 113,150
114,10 128,10
##END=
