##TITLE=1-Heptene, 2,6-dimethyl-
##JCAMP-DX=4.24
##DATA TYPE=MASS SPECTRUM
##ORIGIN=Japan AIST/NIMC Database- Spectrum MS-NW-3489
##OWNER=NIST Mass Spectrometry Data Center
Collection (C) 2014 copyright by the U.S. Secretary of Commerce
on behalf of the United States of America. All rights reserved.
##CAS REGISTRY NO=3074-78-0
##$NIST MASS SPEC NO=227610
##MOLFORM=C9 H18
##MW=126
##$NIST SOURCE=MSDC
##XUNITS=M/Z
##YUNITS=RELATIVE INTENSITY
##XFACTOR=1
##YFACTOR=1
##FIRSTX=15
##LASTX=127
##FIRSTY=70
##MAXX=127
##MINX=15
##MAXY=9999
##MINY=10
##NPOINTS=56
##PEAK TABLE=(XY..XY)
15,70 26,50 27,1009 28,30
29,1189 30,30 37,20 38,60
39,1229 40,289 41,3589 42,939
43,3169 44,109 50,60 51,119
52,60 53,449 54,189 55,4429
56,9999 57,1849 58,90 59,30
62,10 63,30 65,70 66,30
67,379 68,279 69,3399 70,2649
71,319 72,20 77,60 78,20
79,60 80,10 81,80 82,70
83,639 84,239 85,40 91,30
93,20 95,60 97,20 98,179
99,20 108,10 109,20 110,20
111,209 112,20 126,1229 127,119
##END=
