##TITLE=2,3-Dimethyl-2-heptene
##JCAMP-DX=4.24
##DATA TYPE=MASS SPECTRUM
##ORIGIN=NIST Mass Spectrometry Data Center, 1990.
##OWNER=NIST Mass Spectrometry Data Center
Collection (C) 2014 copyright by the U.S. Secretary of Commerce
on behalf of the United States of America. All rights reserved.
##CAS REGISTRY NO=3074-64-4
##$NIST MASS SPEC NO=113495
##MOLFORM=C9 H18
##MW=126
##$NIST SOURCE=MSDC
##XUNITS=M/Z
##YUNITS=RELATIVE INTENSITY
##XFACTOR=1
##YFACTOR=1
##FIRSTX=15
##LASTX=127
##FIRSTY=84
##MAXX=127
##MINX=15
##MAXY=9999
##MINY=52
##NPOINTS=39
##PEAK TABLE=(XY..XY)
15,84 27,1036 28,358 29,800
39,2071 40,450 41,4112 42,454
43,852 50,131 51,351 52,188
53,929 54,131 55,9999 56,730
57,177 63,86 65,344 67,1356
69,3710 70,1424 71,138 77,253
78,57 79,298 80,52 81,386
82,52 83,8073 84,2192 85,153
91,93 95,74 96,76 97,471
111,159 126,2477 127,260
##END=
