##TITLE=Hexane, 4-ethyl-2-methyl-
##JCAMP-DX=4.24
##DATA TYPE=MASS SPECTRUM
##OWNER=NIST Mass Spectrometry Data Center
Collection (C) 2014 copyright by the U.S. Secretary of Commerce
on behalf of the United States of America. All rights reserved.
##CAS REGISTRY NO=3074-75-7
##$NIST MASS SPEC NO=2655
##MOLFORM=C9 H20
##MW=128
##$NIST SOURCE=MSDC
##XUNITS=M/Z
##YUNITS=RELATIVE INTENSITY
##XFACTOR=1
##YFACTOR=1
##FIRSTX=25
##LASTX=129
##FIRSTY=10
##MAXX=129
##MINX=25
##MAXY=9999
##MINY=10
##NPOINTS=59
##PEAK TABLE=(XY..XY)
25,10 26,130 27,2662 28,380
29,2612 30,60 36,10 37,30
38,60 39,1381 40,200 41,3493
42,691 43,7527 44,250 45,10
49,10 50,40 51,80 52,40
53,270 54,100 55,1381 56,1091
57,9999 58,440 59,10 62,10
63,20 64,10 65,30 66,20
67,80 68,50 69,500 70,1321
71,1461 72,80 73,10 77,20
78,10 79,20 80,10 81,10
82,10 83,110 84,260 85,420
86,30 91,10 97,20 98,881
99,1221 100,90 101,10 113,10
127,10 128,90 129,10
##END=
