##TITLE=1,2-Dimethylaziridine
##JCAMP-DX=4.24
##DATA TYPE=MASS SPECTRUM
##ORIGIN=A.Pleshkova, Nesmeyanov Inst.Org.Elem.Cpds, Moscow
##OWNER=NIST Mass Spectrometry Data Center
Collection (C) 2014 copyright by the U.S. Secretary of Commerce
on behalf of the United States of America. All rights reserved.
##CAS REGISTRY NO=30757-96-1
##$NIST MASS SPEC NO=283444
##MOLFORM=C4 H9 N
##MW=71
##$NIST SOURCE=MSDC
##XUNITS=M/Z
##YUNITS=RELATIVE INTENSITY
##XFACTOR=1
##YFACTOR=1
##FIRSTX=26
##LASTX=73
##FIRSTY=100
##MAXX=73
##MINX=26
##MAXY=9999
##MINY=40
##NPOINTS=23
##PEAK TABLE=(XY..XY)
26,100 27,1491 28,3703 29,2202
30,1551 31,110 39,771 40,140
41,1722 42,8338 43,1992 44,1171
45,90 54,1011 55,540 56,9999
57,891 58,90 68,220 70,2963
71,7056 72,651 73,40
##END=
