##TITLE=2-Butanone, 3-methyl-, (2,4-dinitrophenyl)hydrazone
##JCAMP-DX=4.24
##DATA TYPE=MASS SPECTRUM
##ORIGIN=NIST Mass Spectrometry Data Center, 1998.
##OWNER=NIST Mass Spectrometry Data Center
Collection (C) 2014 copyright by the U.S. Secretary of Commerce
on behalf of the United States of America. All rights reserved.
##CAS REGISTRY NO=3077-97-2
##$NIST MASS SPEC NO=292161
##MOLFORM=C11 H14 N4 O4
##MW=266
##$NIST SOURCE=MSDC
##XUNITS=M/Z
##YUNITS=RELATIVE INTENSITY
##XFACTOR=1
##YFACTOR=1
##FIRSTX=14
##LASTX=269
##FIRSTY=10
##MAXX=269
##MINX=14
##MAXY=9999
##MINY=10
##NPOINTS=211
##PEAK TABLE=(XY..XY)
14,10 15,90 16,10 18,20
26,90 27,1680 28,470 29,890
30,3300 31,20 36,10 37,120
38,520 39,2190 40,440 41,8009
42,9999 43,7679 44,320 45,230
46,100 47,10 48,10 49,20
50,580 51,1520 52,1060 53,1120
54,370 55,2260 56,220 57,770
58,130 59,50 60,10 61,210
62,1100 63,2300 64,1210 65,470
66,330 67,530 68,1030 69,2780
70,1280 71,280 72,170 73,40
74,640 75,2470 76,1270 77,2020
78,2000 79,2060 80,400 81,60
82,300 83,340 84,440 85,100
86,80 87,2890 88,420 89,480
90,760 91,900 92,1080 93,440
94,160 95,100 96,30 97,30
98,10 99,10 100,20 101,40
102,180 103,440 104,590 105,500
106,500 107,330 108,110 109,20
111,40 112,10 113,10 114,30
115,540 116,460 117,580 118,340
119,290 120,220 121,130 122,1630
123,140 124,20 126,10 127,150
128,410 129,570 130,980 131,830
132,380 133,260 134,200 135,460
136,200 137,160 138,150 139,10
140,10 141,40 142,60 143,160
144,450 145,290 146,160 147,130
148,70 149,280 150,80 151,50
152,1090 153,310 154,50 155,40
156,90 157,180 158,270 159,330
160,230 161,220 162,530 163,360
164,240 165,1030 166,210 167,160
168,210 169,50 170,70 171,60
172,100 173,170 174,60 175,40
176,60 177,180 178,210 179,80
180,300 181,1230 182,210 183,300
184,270 185,780 186,160 187,100
188,50 189,150 190,350 191,480
192,120 193,110 194,30 195,50
196,110 197,20 201,20 202,50
203,90 204,70 205,150 206,130
207,390 208,50 209,10 210,250
211,30 214,20 215,30 216,120
217,60 218,40 219,280 220,70
221,20 222,10 223,80 224,10
229,60 230,20 231,670 232,170
233,790 234,110 235,30 236,90
237,20 238,10 249,50 250,110
251,110 252,20 264,10 266,4680
267,650 268,80 269,10
##END=
