##TITLE=Benzamide, N-cyclohexyl-N-[(cyclohexylamino)carbonyl]-
##JCAMP-DX=4.24
##DATA TYPE=MASS SPECTRUM
##ORIGIN=LAC, NIDDK, NIH, Bethesda, MD 20892
##OWNER=NIST Mass Spectrometry Data Center
Collection (C) 2014 copyright by the U.S. Secretary of Commerce
on behalf of the United States of America. All rights reserved.
##CAS REGISTRY NO=3080-42-0
##$NIST MASS SPEC NO=130002
##MOLFORM=C20 H28 N2 O2
##MW=328
##$NIST SOURCE=MSDC
##XUNITS=M/Z
##YUNITS=RELATIVE INTENSITY
##XFACTOR=1
##YFACTOR=1
##FIRSTX=41
##LASTX=330
##FIRSTY=1560
##MAXX=330
##MINX=41
##MAXY=9999
##MINY=10
##NPOINTS=106
##PEAK TABLE=(XY..XY)
41,1560 43,1263 44,275 45,16
47,316 48,52 53,318 54,571
55,2038 56,1769 57,161 58,13
60,14 61,46 63,19 65,80
67,713 68,134 69,266 70,515
71,118 73,26 74,13 75,11
77,3692 78,89 79,596 80,22
81,422 82,565 83,698 88,131
90,12 91,63 93,114 95,35
96,97 97,176 98,2470 99,318
100,299 101,19 103,25 104,1437
105,9999 106,723 107,53 110,39
111,15 112,14 115,13 117,17
118,26 119,20 120,38 122,3685
123,911 124,60 126,187 127,14
128,31 129,12 130,17 132,22
133,45 134,89 135,46 136,13
140,13 141,41 143,59 146,250
148,359 149,88 151,13 158,21
160,458 161,467 162,98 163,58
165,963 166,81 167,10 169,11
174,160 175,59 185,46 186,93
188,61 202,2008 203,1013 204,298
205,41 207,15 223,313 224,60
230,20 245,52 247,6088 248,827
249,80 251,41 327,74 328,1203
329,326 330,52
##END=
