##TITLE=Oxirane, (trichloromethyl)-
##JCAMP-DX=4.24
##DATA TYPE=MASS SPECTRUM
##ORIGIN=NIST Mass Spectrometry Data Center, 1998.
##OWNER=NIST Mass Spectrometry Data Center
Collection (C) 2014 copyright by the U.S. Secretary of Commerce
on behalf of the United States of America. All rights reserved.
##CAS REGISTRY NO=3083-23-6
##$NIST MASS SPEC NO=290879
##MOLFORM=C3 H3 Cl3 O
##MW=160
##$NIST SOURCE=MSDC
##XUNITS=M/Z
##YUNITS=RELATIVE INTENSITY
##XFACTOR=1
##YFACTOR=1
##FIRSTX=12
##LASTX=162
##FIRSTY=30
##MAXX=162
##MINX=12
##MAXY=9999
##MINY=10
##NPOINTS=106
##PEAK TABLE=(XY..XY)
12,30 13,60 14,210 15,310
16,10 24,110 25,680 26,1010
27,620 28,10 29,3180 30,510
31,660 32,10 35,1160 36,430
37,1020 38,570 39,440 40,50
41,120 42,590 43,2940 44,90
45,20 46,10 47,2150 48,640
49,2900 50,240 51,710 52,60
53,120 54,10 55,50 59,470
60,6749 61,6999 62,2950 63,4060
64,270 65,590 66,10 70,60
71,60 72,240 73,380 74,90
75,120 76,80 77,110 78,30
79,40 82,2000 83,1430 84,1310
85,920 86,220 87,230 88,20
89,60 90,10 91,40 93,10
94,370 95,9469 96,3000 97,7869
98,1840 99,3260 100,320 101,980
102,10 103,130 107,40 109,80
110,200 111,1730 112,170 113,1100
114,40 115,180 116,10 117,9219
118,10 119,8889 120,90 121,2860
122,30 123,500 124,30 125,8869
126,310 127,5599 128,190 129,930
130,9999 131,320 132,9629 133,270
134,3090 135,80 136,330 137,10
160,30 162,30
##END=
