##TITLE=Aldrin
##JCAMP-DX=4.24
##DATA TYPE=MASS SPECTRUM
##ORIGIN=NIST Mass Spectrometry Data Center, 1990.
##OWNER=NIST Mass Spectrometry Data Center
Collection (C) 2014 copyright by the U.S. Secretary of Commerce
on behalf of the United States of America. All rights reserved.
##CAS REGISTRY NO=309-00-2
##$NIST MASS SPEC NO=118956
##MOLFORM=C12 H8 Cl6
##MW=362
##$NIST SOURCE=MSDC
##XUNITS=M/Z
##YUNITS=RELATIVE INTENSITY
##XFACTOR=1
##YFACTOR=1
##FIRSTX=14
##LASTX=370
##FIRSTY=50
##MAXX=370
##MINX=14
##MAXY=9999
##MINY=18
##NPOINTS=281
##PEAK TABLE=(XY..XY)
14,50 15,53 18,162 26,181
27,1068 28,788 29,47 32,67
35,107 36,186 37,150 38,507
39,3170 40,1221 41,414 42,26
43,28 47,122 49,201 50,674
51,1112 52,371 53,228 60,92
61,365 62,528 63,947 64,92
65,3801 66,9999 67,788 68,56
69,32 70,26 71,86 72,192
73,628 74,653 75,1149 76,230
77,1130 78,396 79,4112 80,447
81,73 82,115 83,298 84,427
85,680 86,651 87,368 88,72
89,255 90,72 91,5121 92,1575
93,550 94,253 95,211 96,383
97,625 98,616 99,551 100,459
101,3222 102,467 103,1165 104,118
105,21 106,154 107,687 108,482
109,796 110,963 111,880 112,264
113,544 114,222 115,416 116,196
117,366 118,151 119,399 120,355
121,539 122,318 123,358 124,112
125,366 126,326 127,498 128,323
129,282 130,275 131,297 132,342
133,488 134,216 135,325 136,112
137,254 138,119 139,157 140,112
141,393 142,82 143,663 144,160
145,425 146,210 147,477 148,165
149,389 150,762 151,662 152,611
153,97 154,62 155,200 156,123
157,254 158,116 159,261 160,383
161,227 162,166 163,98 165,226
166,46 167,374 168,101 169,309
170,222 171,167 172,156 173,147
174,52 175,101 176,27 177,70
178,88 179,249 180,143 181,358
182,204 183,349 184,309 185,440
186,1338 187,573 188,515 189,178
190,27 191,1295 192,236 193,1271
194,392 195,592 196,285 197,151
198,121 199,34 200,38 201,205
203,268 204,181 205,203 206,157
207,181 208,108 209,160 210,53
211,52 212,36 213,34 214,623
215,232 216,859 217,1009 218,673
219,920 220,1587 221,1504 222,1271
223,857 224,430 225,342 226,397
227,662 228,585 229,790 230,625
231,377 232,363 233,143 234,140
235,505 236,140 237,785 238,124
239,516 240,109 241,275 242,71
243,192 244,98 245,94 246,104
247,71 248,620 249,410 250,1000
251,883 252,700 253,775 254,489
255,2852 256,1893 257,2716 258,1731
259,1295 260,94 261,5991 262,1364
263,8802 264,1676 265,6305 266,1140
267,2397 268,475 269,485 270,97
271,77 272,32 274,27 276,25
277,84 278,34 279,96 280,42
281,86 283,31 286,18 287,105
288,31 289,108 290,18 291,3842
292,888 293,4545 294,935 295,2296
296,1930 297,790 298,3420 299,423
300,2731 301,311 302,1267 303,125
304,315 306,62 326,347 327,770
328,635 329,1233 330,526 331,764
332,239 333,253 334,68 335,46
362,186 363,38 364,349 365,100
366,305 367,43 368,144 369,28
370,30
##END=
