##TITLE=2-Pyrrolidinone, 1-ethyl-4-[2-(4-morpholinyl)ethyl]-3,3-diphenyl-
##JCAMP-DX=4.24
##DATA TYPE=MASS SPECTRUM
##ORIGIN=Tox21 Consortium/NIST Mass Spectrometry Data Center, 2012
##OWNER=NIST Mass Spectrometry Data Center
Collection (C) 2014 copyright by the U.S. Secretary of Commerce
on behalf of the United States of America. All rights reserved.
##CAS REGISTRY NO=309-29-5
##$NIST MASS SPEC NO=408263
##MOLFORM=C24 H30 N2 O2
##MW=378
##$NIST SOURCE=MSDC
##XUNITS=M/Z
##YUNITS=RELATIVE INTENSITY
##XFACTOR=1
##YFACTOR=1
##FIRSTX=15
##LASTX=380
##FIRSTY=10
##MAXX=380
##MINX=15
##MAXY=9999
##MINY=10
##NPOINTS=196
##PEAK TABLE=(XY..XY)
15,10 27,30 28,190 29,160
30,70 31,10 39,30 40,10
41,120 42,440 43,180 44,180
45,30 50,10 51,40 52,10
53,20 54,80 55,220 56,961
57,240 58,130 59,10 63,20
64,10 65,50 67,10 68,50
69,40 70,230 71,140 72,150
73,10 74,10 75,10 76,20
77,100 78,30 79,30 80,30
81,20 82,90 83,40 84,120
85,60 86,170 87,751 88,60
89,50 91,721 92,60 94,20
95,20 96,60 97,70 98,200
100,9999 101,911 102,290 103,100
104,80 105,100 106,10 108,20
109,20 110,30 111,20 112,40
113,1281 114,310 115,571 116,100
117,60 118,20 119,10 120,10
124,20 125,10 126,70 127,110
128,260 129,320 130,90 131,30
132,30 133,10 134,10 136,10
137,10 138,10 139,100 140,50
141,70 142,30 143,70 144,30
145,10 146,10 147,10 150,10
151,30 152,160 153,80 155,30
156,20 157,10 158,40 159,10
160,20 163,50 164,80 165,801
166,460 167,230 168,40 169,10
170,10 171,10 172,30 173,10
174,10 175,10 176,180 177,50
178,260 179,100 180,30 181,20
182,10 183,10 184,10 186,30
187,200 188,190 189,150 190,70
191,230 192,140 193,80 194,540
195,100 196,10 200,30 201,10
202,60 203,70 204,70 205,90
206,80 207,20 208,10 211,10
214,10 215,10 216,20 217,20
218,10 219,50 220,20 221,10
232,10 234,60 235,20 236,10
237,10 238,10 248,30 249,10
250,20 259,20 260,10 262,60
263,180 264,370 265,100 266,10
276,10 277,20 278,80 279,10
290,10 291,90 292,80 293,20
294,10 301,10 335,10 347,320
348,90 349,20 363,10 376,40
377,30 378,350 379,90 380,10
##END=
