##TITLE=2-Hydroxyethyl vinyl sulfide
##JCAMP-DX=4.24
##DATA TYPE=MASS SPECTRUM
##ORIGIN=Dennis Rohrbaugh, CBDCOM/ERDEC, Edgewood, MD
##OWNER=NIST Mass Spectrometry Data Center
Collection (C) 2014 copyright by the U.S. Secretary of Commerce
on behalf of the United States of America. All rights reserved.
##CAS REGISTRY NO=3090-56-0
##$NIST MASS SPEC NO=226829
##MOLFORM=C4 H8 O S
##MW=104
##$NIST SOURCE=MSDC
##XUNITS=M/Z
##YUNITS=RELATIVE INTENSITY
##XFACTOR=1
##YFACTOR=1
##FIRSTX=41
##LASTX=106
##FIRSTY=899
##MAXX=106
##MINX=41
##MAXY=9999
##MINY=80
##NPOINTS=23
##PEAK TABLE=(XY..XY)
41,899 42,499 43,1329 44,1059
45,9999 46,1359 47,2339 57,1339
58,2869 59,3079 60,4339 61,1469
62,239 71,149 73,4059 74,499
75,549 76,90 85,229 86,80
104,2819 105,169 106,139
##END=
