##TITLE=Hydrazine, (1-methylpropyl)-
##JCAMP-DX=4.24
##DATA TYPE=MASS SPECTRUM
##ORIGIN=ATLAS OF MASS SPECTRA OF ORGANIC COMPOUNDS, V. A. KOPTYUG, ED.
##OWNER=NIST Mass Spectrometry Data Center
Collection (C) 2014 copyright by the U.S. Secretary of Commerce
on behalf of the United States of America. All rights reserved.
##CAS REGISTRY NO=30924-14-2
##$NIST MASS SPEC NO=64415
##MOLFORM=C4 H12 N2
##MW=88
##$NIST SOURCE=MSDC
##XUNITS=M/Z
##YUNITS=RELATIVE INTENSITY
##XFACTOR=1
##YFACTOR=1
##FIRSTX=26
##LASTX=89
##FIRSTY=210
##MAXX=89
##MINX=26
##MAXY=9999
##MINY=60
##NPOINTS=34
##PEAK TABLE=(XY..XY)
26,210 27,1420 28,1770 29,2920
30,920 31,1690 32,4300 33,220
38,80 39,770 40,150 41,1920
42,3000 43,640 44,450 45,3690
46,80 51,70 53,110 54,140
55,260 56,770 57,550 58,250
59,9999 60,480 70,130 71,80
72,80 73,1080 74,60 87,60
88,2000 89,500
##END=
