##TITLE=3-Methylsalicylhydrazide
##JCAMP-DX=4.24
##DATA TYPE=MASS SPECTRUM
##ORIGIN=NIST Mass Spectrometry Data Center, 1994
##OWNER=NIST Mass Spectrometry Data Center
Collection (C) 2014 copyright by the U.S. Secretary of Commerce
on behalf of the United States of America. All rights reserved.
##CAS REGISTRY NO=30991-42-5
##$NIST MASS SPEC NO=135457
##MOLFORM=C8 H10 N2 O2
##MW=166
##$NIST SOURCE=MSDC
##XUNITS=M/Z
##YUNITS=RELATIVE INTENSITY
##XFACTOR=1
##YFACTOR=1
##FIRSTX=14
##LASTX=167
##FIRSTY=51
##MAXX=167
##MINX=14
##MAXY=9999
##MINY=29
##NPOINTS=63
##PEAK TABLE=(XY..XY)
14,51 16,116 17,139 18,84
26,85 27,477 28,269 29,314
30,138 31,522 32,120 33,48
37,106 38,264 39,1095 40,97
41,35 42,59 43,96 44,128
49,55 50,614 51,1296 52,616
53,959 54,81 55,152 61,63
62,194 63,475 64,134 65,214
66,175 67,121 68,45 73,36
74,107 75,138 76,36 77,3812
78,906 79,1905 80,178 81,47
87,29 89,148 90,129 91,67
92,59 94,31 104,109 105,493
106,529 107,526 108,72 132,38
133,200 135,9999 136,1077 137,110
151,63 166,1952 167,189
##END=
