##TITLE=endo-2-Aminonorbornane
##JCAMP-DX=4.24
##DATA TYPE=MASS SPECTRUM
##ORIGIN=Japan AIST/NIMC Database- Spectrum MS-NW-9711
##OWNER=NIST Mass Spectrometry Data Center
Collection (C) 2014 copyright by the U.S. Secretary of Commerce
on behalf of the United States of America. All rights reserved.
##CAS REGISTRY NO=31002-73-0
##$NIST MASS SPEC NO=239345
##MOLFORM=C7 H13 N
##MW=111
##$NIST SOURCE=MSDC
##XUNITS=M/Z
##YUNITS=RELATIVE INTENSITY
##XFACTOR=1
##YFACTOR=1
##FIRSTX=15
##LASTX=113
##FIRSTY=40
##MAXX=113
##MINX=15
##MAXY=9999
##MINY=10
##NPOINTS=59
##PEAK TABLE=(XY..XY)
15,40 26,20 27,289 28,789
29,169 30,1619 31,30 39,689
40,139 41,879 42,739 43,3359
44,779 45,1559 46,50 47,10
48,20 50,70 51,149 52,99
53,359 54,369 55,309 56,5029
57,1429 58,50 62,20 63,60
64,10 65,509 66,1729 67,1749
68,499 69,1289 70,2769 71,139
74,10 77,529 78,249 79,5689
80,699 81,309 82,9999 83,1859
84,99 91,309 92,50 93,469
94,4759 95,439 96,1069 97,80
106,10 108,30 109,20 110,869
111,4589 112,489 113,20
##END=
