##TITLE=Manganese, [5,10,15,20-tetraphenyl-21H,23H-porphinato(2-)-N21,N22,N23,N24]-, (SP-4-1)-
##JCAMP-DX=4.24
##DATA TYPE=MASS SPECTRUM
##ORIGIN=ORMSBG,9(1)72(1974); ADLER
##OWNER=NIST Mass Spectrometry Data Center
Collection (C) 2014 copyright by the U.S. Secretary of Commerce
on behalf of the United States of America. All rights reserved.
##CAS REGISTRY NO=31004-82-7
##$NIST MASS SPEC NO=44564
##MOLFORM=C44 H28 Mn N4
##MW=667
##$NIST SOURCE=MSDC
##XUNITS=M/Z
##YUNITS=RELATIVE INTENSITY
##XFACTOR=1
##YFACTOR=1
##FIRSTX=256
##LASTX=669
##FIRSTY=350
##MAXX=669
##MINX=256
##MAXY=9999
##MINY=90
##NPOINTS=26
##PEAK TABLE=(XY..XY)
256,350 293,350 294,450 295,350
330,90 331,90 332,120 333,240
334,620 511,190 512,90 513,230
514,130 585,160 586,110 587,350
588,160 589,590 590,250 663,180
664,110 665,350 666,230 667,9999
668,5050 669,1180
##END=
