##TITLE=1-Methylcyclopropene
##JCAMP-DX=4.24
##DATA TYPE=MASS SPECTRUM
##ORIGIN=Randolph Beaudry, Michigan State University, MI
##OWNER=NIST Mass Spectrometry Data Center
Collection (C) 2014 copyright by the U.S. Secretary of Commerce
on behalf of the United States of America. All rights reserved.
##CAS REGISTRY NO=3100-04-7
##$NIST MASS SPEC NO=334525
##MOLFORM=C4 H6
##MW=54
##$NIST SOURCE=MSDC
##XUNITS=M/Z
##YUNITS=RELATIVE INTENSITY
##XFACTOR=1
##YFACTOR=1
##FIRSTX=12
##LASTX=70
##FIRSTY=50
##MAXX=70
##MINX=12
##MAXY=9999
##MINY=20
##NPOINTS=26
##PEAK TABLE=(XY..XY)
12,50 13,60 14,90 15,110
18,40 24,40 25,350 26,1852
27,8037 28,2803 29,60 36,160
37,881 38,1091 39,9999 40,340
41,50 48,150 49,831 50,2562
51,2813 52,891 53,4314 54,7056
55,310 70,20
##END=
