##TITLE=2,3,5,6-Tetramethyl-para-phenylenediamine
##JCAMP-DX=4.24
##DATA TYPE=MASS SPECTRUM
##ORIGIN=Japan AIST/NIMC Database- Spectrum MS-IW-5662
##OWNER=NIST Mass Spectrometry Data Center
Collection (C) 2014 copyright by the U.S. Secretary of Commerce
on behalf of the United States of America. All rights reserved.
##CAS REGISTRY NO=3102-87-2
##$NIST MASS SPEC NO=239695
##MOLFORM=C10 H16 N2
##MW=164
##$NIST SOURCE=MSDC
##XUNITS=M/Z
##YUNITS=RELATIVE INTENSITY
##XFACTOR=1
##YFACTOR=1
##FIRSTX=27
##LASTX=166
##FIRSTY=40
##MAXX=166
##MINX=27
##MAXY=9999
##MINY=10
##NPOINTS=92
##PEAK TABLE=(XY..XY)
27,40 28,20 29,10 39,80
40,10 41,70 42,109 43,20
44,10 46,10 50,10 51,50
52,50 53,99 54,90 55,30
56,10 58,40 59,40 60,20
61,40 63,20 64,20 65,99
66,119 67,159 68,90 71,40
72,50 73,90 74,229 75,20
76,10 77,129 78,40 79,90
80,99 81,199 82,879 89,20
90,10 91,149 92,40 93,90
94,70 95,30 96,10 102,10
103,60 104,50 105,109 106,169
107,139 108,309 109,119 110,99
115,60 116,40 117,109 118,70
119,149 120,289 121,339 122,399
123,149 124,10 127,10 128,40
129,40 130,179 131,199 132,549
133,119 134,199 135,179 136,419
137,70 143,10 144,50 145,60
146,509 147,269 148,409 149,2199
150,229 151,10 161,30 162,80
163,2309 164,9999 165,1159 166,60
##END=
