##TITLE=2,4,6-Trimethyl-1,3-phenylenediamine
##JCAMP-DX=4.24
##DATA TYPE=MASS SPECTRUM
##ORIGIN=NIST Mass Spectrometry Data Center, 1994
##OWNER=NIST Mass Spectrometry Data Center
Collection (C) 2014 copyright by the U.S. Secretary of Commerce
on behalf of the United States of America. All rights reserved.
##CAS REGISTRY NO=3102-70-3
##$NIST MASS SPEC NO=133309
##MOLFORM=C9 H14 N2
##MW=150
##$NIST SOURCE=MSDC
##XUNITS=M/Z
##YUNITS=RELATIVE INTENSITY
##XFACTOR=1
##YFACTOR=1
##FIRSTX=15
##LASTX=152
##FIRSTY=149
##MAXX=152
##MINX=15
##MAXY=9999
##MINY=4
##NPOINTS=95
##PEAK TABLE=(XY..XY)
15,149 16,4 17,64 18,108
27,550 28,371 29,175 30,253
37,35 38,177 39,824 40,196
41,472 42,517 43,98 44,29
45,14 47,41 48,29 50,120
51,436 52,536 53,507 54,632
55,152 56,71 57,14 59,78
60,80 61,295 62,108 63,266
64,14 65,529 66,444 67,607
69,22 70,5 73,106 74,367
75,658 76,134 77,716 78,293
79,429 80,285 81,119 82,47
83,13 86,13 87,21 89,148
90,134 91,558 92,220 93,415
94,403 95,130 96,23 100,8
101,21 102,70 103,237 104,245
105,576 106,926 107,1010 108,636
109,269 110,102 111,11 115,163
116,182 117,536 118,861 119,227
120,448 121,345 122,1107 123,175
124,9 128,19 130,284 132,1176
133,1040 135,5634 136,564 137,24
144,8 145,41 147,169 149,8364
150,9999 151,1026 152,43
##END=
