##TITLE=Ethyl 5-amino-1-methylpyrazole-4-carboxylate
##JCAMP-DX=4.24
##DATA TYPE=MASS SPECTRUM
##ORIGIN=NIST Mass Spectrometry Data Center, 1994
##OWNER=NIST Mass Spectrometry Data Center
Collection (C) 2014 copyright by the U.S. Secretary of Commerce
on behalf of the United States of America. All rights reserved.
##CAS REGISTRY NO=31037-02-2
##$NIST MASS SPEC NO=136587
##MOLFORM=C7 H11 N3 O2
##MW=169
##$NIST SOURCE=MSDC
##XUNITS=M/Z
##YUNITS=RELATIVE INTENSITY
##XFACTOR=1
##YFACTOR=1
##FIRSTX=15
##LASTX=170
##FIRSTY=964
##MAXX=170
##MINX=15
##MAXY=9999
##MINY=52
##NPOINTS=48
##PEAK TABLE=(XY..XY)
15,964 18,52 26,69 27,517
30,1070 38,165 39,475 40,657
41,1432 42,986 43,964 44,101
51,299 52,3457 53,1852 54,1323
55,495 56,221 57,892 58,79
65,124 66,203 67,389 68,2636
69,4812 70,277 79,100 80,261
81,559 82,105 94,614 95,1466
96,1019 97,698 98,177 108,79
109,78 122,2227 123,9999 124,8684
125,655 126,89 136,91 140,99
141,638 142,67 169,6861 170,609
##END=
