##TITLE=9-Nonadecene
##JCAMP-DX=4.24
##DATA TYPE=MASS SPECTRUM
##ORIGIN=NIST Mass Spectrometry Data Center, 1990.
##OWNER=NIST Mass Spectrometry Data Center
Collection (C) 2014 copyright by the U.S. Secretary of Commerce
on behalf of the United States of America. All rights reserved.
##CAS REGISTRY NO=31035-07-1
##$NIST MASS SPEC NO=113627
##MOLFORM=C19 H38
##MW=266
##$NIST SOURCE=MSDC
##XUNITS=M/Z
##YUNITS=RELATIVE INTENSITY
##XFACTOR=1
##YFACTOR=1
##FIRSTX=14
##LASTX=267
##FIRSTY=27
##MAXX=267
##MINX=14
##MAXY=9999
##MINY=6
##NPOINTS=71
##PEAK TABLE=(XY..XY)
14,27 16,6 18,195 27,1528
28,512 29,3991 30,53 32,57
39,1203 41,9070 42,1685 43,8431
44,331 51,52 53,890 54,3060
55,9999 56,4558 57,6937 58,282
65,277 66,320 67,2768 68,1541
69,6937 70,4318 71,2922 72,164
77,226 79,512 80,226 81,1323
82,2021 83,7167 84,2545 85,1713
86,80 91,136 93,101 95,542
96,1253 97,6258 98,1532 99,435
100,51 109,186 110,635 111,3102
112,883 113,241 123,138 124,408
125,1424 126,533 127,105 137,84
138,209 139,486 140,323 141,65
152,130 153,262 154,181 166,95
167,138 168,125 181,80 182,75
238,64 266,813 267,171
##END=
