##TITLE=Phosphoric acid, bis(trimethylsilyl) 2,3-bis[(trimethylsilyl)oxy]propyl ester
##JCAMP-DX=4.24
##DATA TYPE=MASS SPECTRUM
##ORIGIN=O A MAMER, MCGILL UNIVERSITY, MONTRE
##OWNER=NIST Mass Spectrometry Data Center
Collection (C) 2014 copyright by the U.S. Secretary of Commerce
on behalf of the United States of America. All rights reserved.
##CAS REGISTRY NO=31038-11-6
##$NIST MASS SPEC NO=79108
##MOLFORM=C15 H41 O6 P Si4
##MW=460
##$NIST SOURCE=MSDC
##XUNITS=M/Z
##YUNITS=RELATIVE INTENSITY
##XFACTOR=1
##YFACTOR=1
##FIRSTX=14
##LASTX=448
##FIRSTY=239
##MAXX=448
##MINX=14
##MAXY=9999
##MINY=49
##NPOINTS=145
##PEAK TABLE=(XY..XY)
14,239 15,629 16,122 17,100
18,418 26,122 27,144 28,314
29,121 30,53 31,59 32,57
39,108 41,464 42,96 43,323
44,375 45,1040 46,75 47,137
51,55 52,88 55,145 56,90
57,121 58,142 59,924 60,91
61,149 69,57 71,72 72,268
73,9999 74,876 75,1202 76,81
77,90 79,103 85,102 87,81
88,53 89,104 99,81 101,1286
102,144 103,1511 104,152 105,99
113,329 115,216 116,453 117,282
118,54 119,106 121,49 129,1062
130,207 131,732 132,96 133,952
134,127 135,243 137,70 145,55
147,2223 148,358 149,313 151,66
163,78 179,51 181,57 189,63
191,142 193,175 195,157 196,55
197,67 203,211 204,75 205,224
206,53 207,411 208,96 209,91
211,932 212,147 213,101 217,109
218,514 219,313 220,87 221,85
225,263 226,132 227,430 228,79
241,242 242,61 243,359 244,70
256,650 257,134 258,63 269,95
283,122 285,299 286,80 287,51
299,4385 300,1111 301,644 302,126
303,49 313,112 314,213 315,1205
316,326 317,178 327,87 328,407
329,136 330,72 341,273 342,91
343,76 357,4425 358,1337 359,669
360,154 361,51 370,988 371,306
372,169 373,231 374,81 387,467
388,172 389,213 390,67 415,83
417,64 445,1144 446,419 447,239
448,68
##END=
