##TITLE=Selenophene, 2-(methylthio)-
##JCAMP-DX=4.24
##DATA TYPE=MASS SPECTRUM
##OWNER=NIST Mass Spectrometry Data Center
Collection (C) 2014 copyright by the U.S. Secretary of Commerce
on behalf of the United States of America. All rights reserved.
##CAS REGISTRY NO=31053-54-0
##$NIST MASS SPEC NO=7337
##MOLFORM=C5 H6 S Se
##MW=178
##$NIST SOURCE=MSDC
##XUNITS=M/Z
##YUNITS=RELATIVE INTENSITY
##XFACTOR=1
##YFACTOR=1
##FIRSTX=41
##LASTX=182
##FIRSTY=200
##MAXX=182
##MINX=41
##MAXY=9999
##MINY=100
##NPOINTS=98
##PEAK TABLE=(XY..XY)
41,200 43,100 44,1501 45,901
46,100 47,200 48,100 50,100
51,400 52,100 53,100 55,100
56,100 57,300 58,200 59,200
60,100 61,100 65,100 66,100
69,300 70,200 71,3103 72,300
73,200 76,100 78,100 79,200
80,400 81,200 82,1201 83,300
84,300 85,100 89,100 91,300
92,100 93,500 94,300 95,200
97,801 98,300 99,100 100,100
101,100 102,100 103,200 104,200
105,300 106,400 107,100 108,100
110,100 111,100 112,100 114,100
115,500 116,400 117,1101 118,100
119,1802 120,100 121,400 122,100
124,300 126,100 127,200 128,100
129,100 130,400 131,100 132,300
133,100 134,100 135,100 136,200
137,300 145,100 158,200 159,1601
160,1501 161,4004 162,400 163,8207
164,500 165,1702 166,100 167,100
173,200 174,1802 175,1601 176,4604
177,601 178,9999 179,601 180,2002
181,100 182,100
##END=
