##TITLE=Benzenaminium, 2-hydroxy-N,N,N-trimethyl-, hydroxide, inner salt
##JCAMP-DX=4.24
##DATA TYPE=MASS SPECTRUM
##OWNER=NIST Mass Spectrometry Data Center
Collection (C) 2014 copyright by the U.S. Secretary of Commerce
on behalf of the United States of America. All rights reserved.
##CAS REGISTRY NO=31061-58-2
##$NIST MASS SPEC NO=4750
##MOLFORM=C9 H13 N O
##MW=151
##$NIST SOURCE=MSDC
##XUNITS=M/Z
##YUNITS=RELATIVE INTENSITY
##XFACTOR=1
##YFACTOR=1
##FIRSTX=30
##LASTX=152
##FIRSTY=701
##MAXX=152
##MINX=30
##MAXY=9999
##MINY=100
##NPOINTS=45
##PEAK TABLE=(XY..XY)
30,701 39,1301 42,7807 44,4804
45,1501 50,500 51,1001 52,901
53,400 58,4304 59,901 60,500
63,701 64,500 65,2202 66,1101
67,901 68,500 76,701 77,901
78,701 79,701 80,500 91,500
92,901 93,1101 94,500 95,400
106,300 107,2002 108,2602 109,300
117,100 118,100 119,100 120,3003
121,701 122,500 134,1301 135,601
136,6105 137,901 150,1001 151,9999
152,1301
##END=
