##TITLE=(R)-(-)-2-Pentanol
##JCAMP-DX=4.24
##DATA TYPE=MASS SPECTRUM
##ORIGIN=Japan AIST/NIMC Database- Spectrum MS-NW-5345
##OWNER=NIST Mass Spectrometry Data Center
Collection (C) 2014 copyright by the U.S. Secretary of Commerce
on behalf of the United States of America. All rights reserved.
##CAS REGISTRY NO=31087-44-2
##$NIST MASS SPEC NO=231234
##MOLFORM=C5 H12 O
##MW=88
##$NIST SOURCE=MSDC
##XUNITS=M/Z
##YUNITS=RELATIVE INTENSITY
##XFACTOR=1
##YFACTOR=1
##FIRSTX=14
##LASTX=87
##FIRSTY=20
##MAXX=87
##MINX=14
##MAXY=9999
##MINY=10
##NPOINTS=41
##PEAK TABLE=(XY..XY)
14,20 15,199 17,30 18,109
19,10 26,80 27,879 28,119
29,449 30,10 31,529 32,10
35,10 37,30 38,60 39,459
40,60 41,619 42,279 43,1059
44,719 45,9999 46,229 47,30
50,20 51,30 52,10 53,50
54,10 55,1969 56,90 57,80
58,30 59,30 69,30 70,149
71,60 72,10 73,769 74,40
87,50
##END=
