##TITLE=Nonane, 3-methyl-5-propyl-
##JCAMP-DX=4.24
##DATA TYPE=MASS SPECTRUM
##ORIGIN=D.HENNEBERG, MAX-PLANCK INSTITUTE, MULHEIM, WEST GERMANY
##OWNER=NIST Mass Spectrometry Data Center
Collection (C) 2014 copyright by the U.S. Secretary of Commerce
on behalf of the United States of America. All rights reserved.
##CAS REGISTRY NO=31081-18-2
##$NIST MASS SPEC NO=61467
##MOLFORM=C13 H28
##MW=184
##$NIST SOURCE=MSDC
##XUNITS=M/Z
##YUNITS=RELATIVE INTENSITY
##XFACTOR=1
##YFACTOR=1
##FIRSTX=26
##LASTX=184
##FIRSTY=73
##MAXX=184
##MINX=26
##MAXY=9999
##MINY=5
##NPOINTS=59
##PEAK TABLE=(XY..XY)
26,73 27,800 28,170 29,1766
30,46 31,13 32,91 33,5
38,39 39,453 40,79 41,2868
42,580 43,6219 45,10 52,6
53,239 54,73 55,1739 56,1076
57,9999 58,469 63,10 65,18
67,129 68,97 69,539 70,1201
71,8068 72,423 74,26 77,14
79,34 81,28 82,143 83,376
84,403 85,4095 86,248 87,33
95,8 96,76 97,286 98,126
99,511 100,15 110,26 111,290
112,691 113,240 114,9 126,431
127,670 128,46 140,328 141,650
142,78 155,66 184,19
##END=
