##TITLE=Tetra-n-butylammonium iodide
##JCAMP-DX=4.24
##DATA TYPE=MASS SPECTRUM
##ORIGIN=Japan AIST/NIMC Database- Spectrum MS-NW-5946
##OWNER=NIST Mass Spectrometry Data Center
Collection (C) 2014 copyright by the U.S. Secretary of Commerce
on behalf of the United States of America. All rights reserved.
##CAS REGISTRY NO=311-28-4
##$NIST MASS SPEC NO=233127
##MOLFORM=C16 H36 I N
##MW=369
##$NIST SOURCE=MSDC
##XUNITS=M/Z
##YUNITS=RELATIVE INTENSITY
##XFACTOR=1
##YFACTOR=1
##FIRSTX=15
##LASTX=368
##FIRSTY=70
##MAXX=368
##MINX=15
##MAXY=9999
##MINY=10
##NPOINTS=121
##PEAK TABLE=(XY..XY)
15,70 26,90 27,779 28,349
29,2569 30,519 31,10 37,20
38,40 39,409 40,60 41,2249
42,479 43,259 44,619 45,20
49,20 50,40 51,40 52,30
53,90 54,50 55,439 56,229
57,4069 58,489 59,20 67,20
68,40 69,70 70,149 71,90
72,99 73,10 74,10 75,10
76,10 77,40 78,149 79,20
80,10 81,30 82,50 83,40
84,239 85,80 86,319 87,30
91,10 93,10 94,10 95,10
96,30 97,40 98,269 99,60
100,2039 101,169 102,10 109,10
110,10 111,20 112,50 113,20
114,40 119,10 124,10 125,10
126,40 127,139 128,139 129,30
130,20 131,10 132,10 136,10
137,10 138,20 139,10 140,139
141,40 142,9999 143,1069 144,70
152,10 153,10 154,30 155,99
156,70 157,50 158,10 168,40
169,20 170,40 171,20 181,20
182,20 183,40 184,1199 185,989
186,229 187,20 196,10 197,10
206,10 207,10 212,10 225,10
226,10 228,10 229,10 239,10
240,60 241,20 242,2439 243,499
244,50 253,10 340,20 354,10
368,10
##END=
