##TITLE=Pyrimidine, 2,4,6-tris[(trimethylsilyl)oxy]-
##JCAMP-DX=4.24
##DATA TYPE=MASS SPECTRUM
##ORIGIN=D.HENNEBERG, MAX-PLANCK INSTITUTE, MULHEIM, WEST GERMANY
##OWNER=NIST Mass Spectrometry Data Center
Collection (C) 2014 copyright by the U.S. Secretary of Commerce
on behalf of the United States of America. All rights reserved.
##CAS REGISTRY NO=31111-39-4
##$NIST MASS SPEC NO=63495
##MOLFORM=C13 H28 N2 O3 Si3
##MW=344
##$NIST SOURCE=MSDC
##XUNITS=M/Z
##YUNITS=RELATIVE INTENSITY
##XFACTOR=1
##YFACTOR=1
##FIRSTX=25
##LASTX=348
##FIRSTY=21
##MAXX=348
##MINX=25
##MAXY=9999
##MINY=1
##NPOINTS=261
##PEAK TABLE=(XY..XY)
25,21 26,11 27,49 28,193
29,86 31,28 32,90 34,6
35,17 38,18 39,7 40,26
41,22 42,40 43,333 44,386
45,2276 46,169 47,169 48,11
49,49 50,9 52,10 53,20
54,29 55,50 56,38 57,107
58,140 59,419 60,65 61,83
62,29 63,40 64,32 65,58
66,78 67,68 68,48 69,474
70,163 71,135 72,525 73,9999
74,941 75,881 76,59 77,323
78,17 79,4 80,20 81,25
82,11 83,56 84,60 85,101
86,186 87,64 88,24 89,29
90,12 91,26 93,99 94,18
95,46 96,23 97,47 98,50
99,487 100,815 101,159 102,85
103,93 104,35 105,32 106,8
107,18 108,24 109,13 110,24
111,21 112,21 113,103 114,31
115,113 116,87 117,348 118,63
119,86 120,4 121,20 122,13
123,15 124,33 125,35 126,54
127,35 128,28 129,49 130,115
131,976 132,279 133,585 134,106
135,57 136,24 138,15 139,23
140,58 141,23 142,30 143,50
144,39 145,21 146,60 147,5329
148,853 149,457 150,47 151,27
153,11 154,37 155,25 156,98
157,92 158,88 159,52 160,36
161,51 162,15 166,5 167,32
168,18 171,106 172,50 173,143
174,151 175,43 177,5 178,16
180,20 181,23 182,31 183,16
184,95 185,47 186,54 187,33
188,65 189,27 190,19 191,21
192,15 193,15 194,13 195,14
196,21 197,43 198,59 199,11
200,31 201,22 202,22 203,12
204,34 205,36 206,30 207,20
208,28 209,14 211,21 212,111
213,37 214,66 215,31 216,32
217,7 218,11 219,3 220,10
221,10 222,8 223,14 225,16
226,17 227,13 229,30 230,37
231,38 233,10 234,9 237,12
240,43 241,169 242,43 243,14
244,17 245,144 246,33 247,17
248,6 249,10 251,13 252,21
253,40 254,58 255,63 256,39
257,50 259,10 261,53 262,25
263,13 264,17 265,9 267,12
268,21 270,455 271,125 272,77
276,14 277,8 280,9 281,9
282,17 287,16 290,15 293,4
295,1 296,26 298,11 299,34
301,11 303,5 304,8 306,15
307,19 308,19 309,50 313,167
314,162 315,146 317,40 319,22
323,27 325,33 327,208 329,4917
330,1509 331,786 332,183 333,64
336,24 338,41 339,67 343,2980
344,3141 345,1166 346,462 347,132
348,43
##END=
