##TITLE=Orotic Acid, 3TMS derivative
##JCAMP-DX=4.24
##DATA TYPE=MASS SPECTRUM
##ORIGIN=Tox21 Consortium/NIST Mass Spectrometry Data Center, 2012
##OWNER=NIST Mass Spectrometry Data Center
Collection (C) 2014 copyright by the U.S. Secretary of Commerce
on behalf of the United States of America. All rights reserved.
##CAS REGISTRY NO=31111-36-1
##$NIST MASS SPEC NO=408189
##MOLFORM=C14 H28 N2 O4 Si3
##MW=372
##$NIST SOURCE=MSDC
##XUNITS=M/Z
##YUNITS=RELATIVE INTENSITY
##XFACTOR=1
##YFACTOR=1
##FIRSTX=27
##LASTX=375
##FIRSTY=20
##MAXX=375
##MINX=27
##MAXY=9999
##MINY=10
##NPOINTS=229
##PEAK TABLE=(XY..XY)
27,20 28,60 29,60 31,30
39,10 42,10 43,320 44,270
45,1792 46,120 47,130 49,10
52,20 53,50 54,10 55,60
56,30 57,90 58,160 59,290
60,30 61,70 65,30 66,30
67,30 68,30 69,20 70,150
71,90 72,470 73,8998 74,801
75,771 76,60 77,60 79,10
82,20 83,80 84,90 85,50
86,200 87,40 88,10 89,30
91,10 93,30 94,10 95,20
96,10 97,110 98,70 99,270
100,1601 101,190 102,100 103,70
104,10 105,40 107,10 109,20
110,50 111,50 112,30 113,60
114,100 115,110 116,50 117,220
118,30 119,60 123,70 124,50
125,60 126,60 127,30 128,30
129,40 130,50 131,731 132,180
133,671 134,110 135,50 136,10
137,10 138,10 139,20 140,210
141,50 142,80 143,30 144,50
145,40 146,10 147,2823 148,450
149,250 150,40 151,10 152,10
153,20 154,30 155,50 156,150
157,100 158,130 159,60 160,90
161,20 162,10 165,20 166,20
167,120 168,40 169,10 170,60
171,50 172,80 173,80 174,741
175,130 176,60 178,10 180,40
181,70 182,50 183,20 184,40
185,30 186,30 187,10 188,10
189,30 190,10 191,10 192,10
195,60 196,30 197,50 198,60
199,30 200,20 201,30 203,10
204,10 205,50 206,10 207,30
208,10 210,10 211,60 212,30
213,30 214,90 215,20 216,10
217,10 218,10 221,10 223,10
224,10 225,60 226,50 227,40
228,10 229,10 230,10 231,20
232,20 237,10 239,320 240,110
241,50 242,20 245,40 246,10
247,10 251,10 253,801 254,9999
255,2462 256,921 257,160 258,20
259,20 261,30 267,10 268,10
269,781 270,591 271,180 272,70
273,10 281,10 282,50 283,60
284,20 285,50 286,10 287,10
299,20 300,20 313,70 314,20
315,10 326,10 327,160 328,90
329,220 330,70 331,30 341,20
342,10 343,120 344,50 345,20
346,10 355,50 356,20 357,5115
358,1581 359,771 360,170 361,50
371,280 372,340 373,120 374,40
375,10
##END=
