##TITLE=Benzyl phenyl sulfone
##JCAMP-DX=4.24
##DATA TYPE=MASS SPECTRUM
##ORIGIN=NIST Mass Spectrometry Data Center
##OWNER=NIST Mass Spectrometry Data Center
Collection (C) 2014 copyright by the U.S. Secretary of Commerce
on behalf of the United States of America. All rights reserved.
##CAS REGISTRY NO=3112-88-7
##$NIST MASS SPEC NO=343158
##MOLFORM=C13 H12 O2 S
##MW=232
##$NIST SOURCE=MSDC
##XUNITS=M/Z
##YUNITS=RELATIVE INTENSITY
##XFACTOR=1
##YFACTOR=1
##FIRSTX=13
##LASTX=233
##FIRSTY=10
##MAXX=233
##MINX=13
##MAXY=9999
##MINY=10
##NPOINTS=40
##PEAK TABLE=(XY..XY)
13,10 16,20 27,100 28,10
37,30 38,100 39,811 40,50
41,180 44,30 45,60 50,410
51,1261 52,100 53,40 62,90
63,430 64,140 65,1641 66,90
69,40 74,100 75,70 77,801
78,80 89,360 91,9999 92,761
93,30 97,40 115,30 125,30
152,120 153,70 165,180 166,70
167,210 168,40 232,350 233,50
##END=
