##TITLE=Benzene, 1,1'-(2-cyclohexen-1-ylidene)bis-
##JCAMP-DX=4.24
##DATA TYPE=MASS SPECTRUM
##ORIGIN=CARL DJERASSI DEPT OF CHEM STANFORD UNIV STANFORD CALIF 94305
##OWNER=NIST Mass Spectrometry Data Center
Collection (C) 2014 copyright by the U.S. Secretary of Commerce
on behalf of the United States of America. All rights reserved.
##CAS REGISTRY NO=31158-25-5
##$NIST MASS SPEC NO=47628
##MOLFORM=C18 H18
##MW=234
##$NIST SOURCE=MSDC
##XUNITS=M/Z
##YUNITS=RELATIVE INTENSITY
##XFACTOR=1
##YFACTOR=1
##FIRSTX=28
##LASTX=237
##FIRSTY=1100
##MAXX=237
##MINX=28
##MAXY=9999
##MINY=10
##NPOINTS=61
##PEAK TABLE=(XY..XY)
28,1100 39,100 41,100 43,100
44,100 51,100 77,200 89,100
91,1100 92,100 101,100 102,100
103,100 104,100 115,700 116,100
117,300 123,100 124,300 127,100
128,500 129,400 130,500 141,100
142,100 143,900 144,100 152,200
153,100 156,200 157,300 165,1300
166,200 167,500 168,100 176,100
178,900 179,100 180,460 181,60
182,10 191,60 192,10 193,150
194,100 202,200 203,200 204,100
205,1300 206,1500 207,200 228,100
229,300 230,160 231,100 232,200
233,300 234,9999 235,2000 236,260
237,40
##END=
