##TITLE=5-Hepten-2-one, 4,6-dimethyl-
##JCAMP-DX=4.24
##DATA TYPE=MASS SPECTRUM
##ORIGIN=D.HENNEBERG, MAX-PLANCK INSTITUTE, MULHEIM, WEST GERMANY
##OWNER=NIST Mass Spectrometry Data Center
Collection (C) 2014 copyright by the U.S. Secretary of Commerce
on behalf of the United States of America. All rights reserved.
##CAS REGISTRY NO=31162-48-8
##$NIST MASS SPEC NO=63345
##MOLFORM=C9 H16 O
##MW=140
##$NIST SOURCE=MSDC
##XUNITS=M/Z
##YUNITS=RELATIVE INTENSITY
##XFACTOR=1
##YFACTOR=1
##FIRSTX=25
##LASTX=141
##FIRSTY=9
##MAXX=141
##MINX=25
##MAXY=9999
##MINY=2
##NPOINTS=95
##PEAK TABLE=(XY..XY)
25,9 26,39 27,766 28,246
29,610 30,15 31,19 32,10
33,3 34,3 35,9 36,7
37,45 38,64 39,1058 40,203
41,2393 42,223 43,9999 44,264
45,95 46,2 47,6 48,4
49,12 50,57 51,165 52,65
53,426 54,149 55,5966 56,493
57,171 58,146 59,46 60,3
61,5 62,12 63,46 64,9
65,137 66,62 67,1525 68,127
69,667 70,55 71,38 72,37
73,5 74,6 75,11 76,4
77,123 78,29 79,191 80,43
81,417 82,2249 83,3127 84,223
85,768 86,41 87,3 91,73
92,17 93,31 94,62 95,61
96,110 97,684 98,97 99,17
103,9 105,96 107,817 108,81
109,36 110,10 111,44 112,11
115,3 119,13 120,49 121,22
122,826 123,117 124,9 125,704
126,72 127,3 136,4 138,5
139,6 140,356 141,34
##END=
