##TITLE=Bicyclo[3.1.0]hexan-3-ol, 4-methyl-1-(1-methylethyl)-, (1.alpha.,3.beta.,4.beta.,5.alpha.)-
##JCAMP-DX=4.24
##DATA TYPE=MASS SPECTRUM
##OWNER=NIST Mass Spectrometry Data Center
Collection (C) 2014 copyright by the U.S. Secretary of Commerce
on behalf of the United States of America. All rights reserved.
##CAS REGISTRY NO=31187-53-8
##$NIST MASS SPEC NO=5077
##MOLFORM=C10 H18 O
##MW=154
##$NIST SOURCE=MSDC
##XUNITS=M/Z
##YUNITS=RELATIVE INTENSITY
##XFACTOR=1
##YFACTOR=1
##FIRSTX=29
##LASTX=154
##FIRSTY=420
##MAXX=154
##MINX=29
##MAXY=9999
##MINY=80
##NPOINTS=65
##PEAK TABLE=(XY..XY)
29,420 41,601 42,170 43,3753
45,170 53,170 54,210 55,2332
56,330 57,460 58,791 59,130
66,80 67,1712 68,1421 69,1752
70,1541 71,961 72,130 77,881
78,170 79,2712 80,1131 81,3543
82,671 83,961 84,500 85,130
91,1581 92,2132 93,9999 94,1832
95,4004 96,751 97,601 98,100
99,350 105,751 106,250 107,2752
108,791 109,711 110,3423 111,1001
112,170 115,80 117,210 119,921
120,130 121,7507 122,901 123,130
124,200 125,80 132,210 133,130
134,420 135,581 136,5425 137,751
138,130 148,130 150,400 152,170
154,80
##END=
