##TITLE=Benzene, 1-fluoro-4-(phenylsulfonyl)-
##JCAMP-DX=4.24
##DATA TYPE=MASS SPECTRUM
##ORIGIN=MASS SPECTROMETRY CENTER, UNIV. OF UTAH ALDRICH 12444-3
##OWNER=NIST Mass Spectrometry Data Center
Collection (C) 2014 copyright by the U.S. Secretary of Commerce
on behalf of the United States of America. All rights reserved.
##CAS REGISTRY NO=312-31-2
##$NIST MASS SPEC NO=52673
##MOLFORM=C12 H9 F O2 S
##MW=236
##$NIST SOURCE=MSDC
##XUNITS=M/Z
##YUNITS=RELATIVE INTENSITY
##XFACTOR=1
##YFACTOR=1
##FIRSTX=26
##LASTX=238
##FIRSTY=33
##MAXX=238
##MINX=26
##MAXY=9999
##MINY=30
##NPOINTS=66
##PEAK TABLE=(XY..XY)
26,33 27,925 31,93 37,96
38,490 39,1874 45,626 48,32
49,105 50,4140 51,9999 52,616
53,422 57,942 61,37 62,288
63,624 64,45 65,996 66,31
68,429 69,1360 70,135 71,203
73,187 74,1085 75,3797 76,839
77,7243 78,726 81,359 82,45
83,1099 84,34 85,43 86,544
93,225 94,360 95,4035 96,543
97,1750 98,50 99,348 109,221
111,374 115,1488 116,34 120,30
125,6914 126,782 127,707 141,42
143,8114 144,680 145,554 146,35
151,39 159,203 169,43 170,790
171,644 172,323 235,99 236,2687
237,552 238,101
##END=
