##TITLE=Silane, difluorodiphenyl-
##JCAMP-DX=4.24
##DATA TYPE=MASS SPECTRUM
##ORIGIN=Japan AIST/NIMC Database- Spectrum MS-NW-8403
##OWNER=NIST Mass Spectrometry Data Center
Collection (C) 2014 copyright by the U.S. Secretary of Commerce
on behalf of the United States of America. All rights reserved.
##CAS REGISTRY NO=312-40-3
##$NIST MASS SPEC NO=241581
##MOLFORM=C12 H10 F2 Si
##MW=220
##$NIST SOURCE=MSDC
##XUNITS=M/Z
##YUNITS=RELATIVE INTENSITY
##XFACTOR=1
##YFACTOR=1
##FIRSTX=26
##LASTX=223
##FIRSTY=30
##MAXX=223
##MINX=26
##MAXY=9999
##MINY=10
##NPOINTS=109
##PEAK TABLE=(XY..XY)
26,30 27,139 28,10 37,20
38,70 39,219 47,389 48,20
49,30 50,769 51,1929 52,219
53,20 61,20 62,80 63,199
64,209 65,40 66,20 67,30
69,10 73,40 74,299 75,329
76,1349 77,4989 78,509 79,20
81,90 85,20 86,40 87,60
88,30 89,80 90,10 91,329
92,20 93,20 96,10 97,20
98,40 99,40 100,219 101,90
102,229 103,30 104,60 105,10
109,20 110,80 111,10 113,40
114,40 115,289 116,40 117,99
118,10 121,10 122,10 123,20
124,10 125,30 126,189 127,169
128,249 129,40 131,10 132,30
139,109 140,10 141,20 142,179
143,2849 144,339 145,109 146,10
149,10 150,90 151,329 152,1109
153,2459 154,9399 155,1229 156,70
162,10 167,30 168,10 173,30
180,10 181,20 192,10 193,30
194,10 197,10 199,1749 200,349
201,259 202,40 203,10 205,249
206,40 207,10 217,20 218,99
219,2019 220,9999 221,1859 222,479
223,50
##END=
