##TITLE=1-Naphthyl butyrate
##JCAMP-DX=4.24
##DATA TYPE=MASS SPECTRUM
##ORIGIN=NIST Mass Spectrometry Data Center, 1994
##OWNER=NIST Mass Spectrometry Data Center
Collection (C) 2014 copyright by the U.S. Secretary of Commerce
on behalf of the United States of America. All rights reserved.
##CAS REGISTRY NO=3121-70-8
##$NIST MASS SPEC NO=134092
##MOLFORM=C14 H14 O2
##MW=214
##$NIST SOURCE=MSDC
##XUNITS=M/Z
##YUNITS=RELATIVE INTENSITY
##XFACTOR=1
##YFACTOR=1
##FIRSTX=4
##LASTX=216
##FIRSTY=38
##MAXX=216
##MINX=4
##MAXY=9999
##MINY=9
##NPOINTS=69
##PEAK TABLE=(XY..XY)
4,38 14,48 15,213 26,323
27,1696 29,256 37,51 38,199
39,1087 40,51 41,1525 42,550
43,3371 44,116 50,181 51,180
52,38 53,38 55,109 56,16
57,37 61,50 62,303 63,677
64,120 65,317 66,17 68,10
69,31 71,960 72,48 74,168
75,197 76,87 77,146 78,15
85,25 86,124 87,195 88,300
89,866 90,83 91,11 98,30
99,27 100,20 101,59 102,15
110,9 111,14 113,266 115,4307
116,1602 117,153 118,13 126,155
127,351 128,68 129,16 141,24
144,9999 145,1103 146,81 155,32
157,19 171,26 214,707 215,112
216,13
##END=
