##TITLE=3-Methoxycarbonylphenyl isothiocyanate
##JCAMP-DX=4.24
##DATA TYPE=MASS SPECTRUM
##ORIGIN=NIST Mass Spectrometry Data Center, 1994
##OWNER=NIST Mass Spectrometry Data Center
Collection (C) 2014 copyright by the U.S. Secretary of Commerce
on behalf of the United States of America. All rights reserved.
##CAS REGISTRY NO=3125-66-4
##$NIST MASS SPEC NO=134680
##MOLFORM=C9 H7 N O2 S
##MW=193
##$NIST SOURCE=MSDC
##XUNITS=M/Z
##YUNITS=RELATIVE INTENSITY
##XFACTOR=1
##YFACTOR=1
##FIRSTX=14
##LASTX=196
##FIRSTY=64
##MAXX=196
##MINX=14
##MAXY=9999
##MINY=32
##NPOINTS=88
##PEAK TABLE=(XY..XY)
14,64 15,941 26,82 27,151
28,265 29,516 30,157 31,79
32,231 37,362 38,491 39,853
40,84 44,261 45,224 49,218
50,2372 51,780 52,191 53,149
54,44 57,117 58,118 59,310
60,44 61,192 62,407 63,1709
64,925 65,132 66,44 67,555
69,251 70,248 71,63 72,33
73,216 74,1134 75,1597 76,1131
77,367 78,76 81,652 83,232
84,192 86,37 87,98 88,111
89,33 90,2424 91,254 92,106
93,78 94,83 95,62 97,164
99,76 102,782 103,103 104,49
106,90 107,745 108,264 109,64
117,41 119,120 120,57 121,38
130,434 131,48 134,7710 135,879
136,401 137,47 147,120 148,118
149,32 160,48 162,9999 163,1086
164,498 165,42 175,45 177,36
193,9020 194,1023 195,511 196,68
##END=
