##TITLE=Dibutyl isophthalate
##JCAMP-DX=4.24
##DATA TYPE=MASS SPECTRUM
##ORIGIN=R.S.Borisov, V.G.Zaikin, Russian Friendship University, Moscow
##OWNER=NIST Mass Spectrometry Data Center
Collection (C) 2014 copyright by the U.S. Secretary of Commerce
on behalf of the United States of America. All rights reserved.
##CAS REGISTRY NO=3126-90-7
##$NIST MASS SPEC NO=343987
##MOLFORM=C16 H22 O4
##MW=278
##$NIST SOURCE=MSDC
##XUNITS=M/Z
##YUNITS=RELATIVE INTENSITY
##XFACTOR=1
##YFACTOR=1
##FIRSTX=27
##LASTX=279
##FIRSTY=80
##MAXX=279
##MINX=27
##MAXY=9999
##MINY=20
##NPOINTS=49
##PEAK TABLE=(XY..XY)
27,80 29,270 39,70 41,390
50,70 51,20 52,20 55,170
56,1501 57,440 65,450 66,110
73,20 75,90 76,591 77,100
79,90 93,100 103,100 104,641
105,180 121,991 122,430 123,160
132,30 133,30 135,20 148,60
149,2662 150,220 151,40 167,9348
168,731 169,90 176,20 177,20
178,100 179,30 205,9999 206,1191
207,120 221,30 223,9038 224,1091
225,120 235,100 249,20 278,140
279,50
##END=
