##TITLE=Heptanoic acid, 6-oxo-
##JCAMP-DX=4.24
##DATA TYPE=MASS SPECTRUM
##ORIGIN=NIST Mass Spectrometry Data Center
##OWNER=NIST Mass Spectrometry Data Center
Collection (C) 2014 copyright by the U.S. Secretary of Commerce
on behalf of the United States of America. All rights reserved.
##CAS REGISTRY NO=3128-07-2
##$NIST MASS SPEC NO=342700
##MOLFORM=C7 H12 O3
##MW=144
##$NIST SOURCE=MSDC
##XUNITS=M/Z
##YUNITS=RELATIVE INTENSITY
##XFACTOR=1
##YFACTOR=1
##FIRSTX=13
##LASTX=144
##FIRSTY=30
##MAXX=144
##MINX=13
##MAXY=9999
##MINY=10
##NPOINTS=69
##PEAK TABLE=(XY..XY)
13,30 14,110 15,811 16,30
17,20 18,30 26,230 27,1291
28,731 29,841 30,70 31,290
36,20 37,50 38,90 39,991
40,180 41,991 42,861 43,9999
44,270 45,1241 46,30 47,30
49,40 50,30 51,110 52,60
53,200 55,2622 56,651 57,250
58,2182 59,621 60,170 61,10
65,10 66,20 67,50 68,160
69,340 70,30 71,430 72,60
73,611 74,70 79,30 81,90
83,761 84,681 85,170 86,40
87,160 93,10 97,40 98,651
99,50 101,230 102,30 108,70
109,30 111,290 112,40 126,911
127,70 129,60 135,10 143,20
144,70
##END=
