##TITLE=Hexane, 3-iodo-
##JCAMP-DX=4.24
##DATA TYPE=MASS SPECTRUM
##OWNER=NIST Mass Spectrometry Data Center
Collection (C) 2014 copyright by the U.S. Secretary of Commerce
on behalf of the United States of America. All rights reserved.
##CAS REGISTRY NO=31294-91-4
##$NIST MASS SPEC NO=9876
##MOLFORM=C6 H13 I
##MW=212
##$NIST SOURCE=MSDC
##XUNITS=M/Z
##YUNITS=RELATIVE INTENSITY
##XFACTOR=1
##YFACTOR=1
##FIRSTX=26
##LASTX=213
##FIRSTY=100
##MAXX=213
##MINX=26
##MAXY=9999
##MINY=10
##NPOINTS=48
##PEAK TABLE=(XY..XY)
26,100 27,1461 29,1601 30,40
36,10 37,30 38,80 39,1041
40,210 41,3633 42,1221 43,9999
44,340 49,10 50,60 51,100
52,40 53,250 54,140 55,2342
56,761 57,1151 58,50 62,10
63,20 64,70 65,30 66,10
67,90 68,20 69,490 70,30
77,20 79,10 83,20 84,601
85,8217 86,540 87,20 127,701
128,1281 129,50 141,20 155,70
169,20 183,10 212,310 213,20
##END=
