##TITLE=Dodecane, 2,6,11-trimethyl-
##JCAMP-DX=4.24
##DATA TYPE=MASS SPECTRUM
##ORIGIN=NIST Mass Spectrometry Data Center, 1990.
##OWNER=NIST Mass Spectrometry Data Center
Collection (C) 2014 copyright by the U.S. Secretary of Commerce
on behalf of the United States of America. All rights reserved.
##CAS REGISTRY NO=31295-56-4
##$NIST MASS SPEC NO=114223
##MOLFORM=C15 H32
##MW=212
##$NIST SOURCE=MSDC
##XUNITS=M/Z
##YUNITS=RELATIVE INTENSITY
##XFACTOR=1
##YFACTOR=1
##FIRSTX=14
##LASTX=212
##FIRSTY=57
##MAXX=212
##MINX=14
##MAXY=9999
##MINY=15
##NPOINTS=62
##PEAK TABLE=(XY..XY)
14,57 15,23 16,35 27,777
28,130 29,1192 30,26 39,861
41,5080 42,1259 43,7668 44,311
51,36 52,38 53,382 54,230
55,2838 56,3078 57,9999 58,465
65,66 66,31 67,298 68,271
69,1477 70,1505 71,9891 72,594
77,46 78,15 79,60 81,64
82,120 83,502 84,1019 85,3751
86,241 95,19 96,31 97,313
98,541 99,1286 100,95 111,553
112,807 113,942 114,73 126,494
127,708 128,67 140,46 141,110
154,25 155,35 168,59 169,476
170,63 182,27 183,36 196,23
197,68 212,39
##END=
