##TITLE=Naphtho(2,1,8-def)quinoline
##JCAMP-DX=4.24
##DATA TYPE=MASS SPECTRUM
##ORIGIN=Organic Synthesis Lab, MSU, Moscow.TRC 195q
##OWNER=NIST Mass Spectrometry Data Center
Collection (C) 2014 copyright by the U.S. Secretary of Commerce
on behalf of the United States of America. All rights reserved.
##CAS REGISTRY NO=313-80-4
##$NIST MASS SPEC NO=326016
##MOLFORM=C15 H9 N
##MW=203
##$NIST SOURCE=MSDC
##XUNITS=M/Z
##YUNITS=RELATIVE INTENSITY
##XFACTOR=1
##YFACTOR=1
##FIRSTX=50
##LASTX=205
##FIRSTY=10
##MAXX=205
##MINX=50
##MAXY=9999
##MINY=10
##NPOINTS=64
##PEAK TABLE=(XY..XY)
50,10 51,10 61,10 62,30
63,30 73,10 74,140 75,230
76,40 77,10 85,30 86,70
87,571 88,811 97,10 98,150
99,120 109,10 110,60 111,60
112,10 113,10 114,10 121,10
122,60 123,70 124,40 125,40
126,60 127,10 133,10 134,10
135,10 136,10 137,10 138,10
139,10 140,10 146,10 147,10
148,30 149,220 150,320 151,140
152,60 153,10 161,10 162,10
163,10 164,10 173,60 174,520
175,801 176,621 177,200 178,10
188,10 199,60 200,80 201,1011
202,2242 203,9999 204,1481 205,120
##END=
