##TITLE=Benz[a]anthracene, 1,12-dimethyl-
##JCAMP-DX=4.24
##DATA TYPE=MASS SPECTRUM
##OWNER=NIST Mass Spectrometry Data Center
Collection (C) 2014 copyright by the U.S. Secretary of Commerce
on behalf of the United States of America. All rights reserved.
##CAS REGISTRY NO=313-74-6
##$NIST MASS SPEC NO=12440
##MOLFORM=C20 H16
##MW=256
##$NIST SOURCE=MSDC
##XUNITS=M/Z
##YUNITS=RELATIVE INTENSITY
##XFACTOR=1
##YFACTOR=1
##FIRSTX=37
##LASTX=259
##FIRSTY=10
##MAXX=259
##MINX=37
##MAXY=9999
##MINY=10
##NPOINTS=163
##PEAK TABLE=(XY..XY)
37,10 38,60 39,300 40,60
41,90 42,20 43,110 44,50
45,10 48,10 49,10 50,160
51,210 52,50 53,20 54,10
55,30 56,20 57,90 58,10
61,20 62,110 63,250 64,30
65,40 66,10 71,60 72,10
74,160 75,190 76,90 77,70
78,20 79,20 80,20 81,20
82,10 83,30 84,50 85,40
86,110 87,210 88,200 89,80
90,10 93,40 94,90 95,60
96,10 97,10 98,100 99,140
100,370 101,410 102,40 103,10
104,10 105,30 106,180 107,210
108,150 109,10 110,60 111,110
112,440 113,1401 114,651 115,100
116,10 117,20 118,250 119,1001
120,2853 121,200 122,40 123,40
124,180 125,550 126,1001 127,681
128,1251 129,30 130,10 134,20
135,30 136,10 137,40 138,20
139,100 140,10 149,30 150,130
151,90 152,90 153,20 154,10
161,40 162,50 163,170 164,50
165,80 166,10 174,90 175,60
176,110 177,30 178,30 179,20
180,10 185,30 186,40 187,220
188,80 189,200 190,40 191,10
198,60 199,70 200,220 201,100
202,240 203,50 204,10 210,20
211,160 212,80 213,340 214,80
215,240 216,60 217,10 222,30
223,40 224,190 225,120 226,691
227,200 228,220 229,120 230,20
231,10 235,70 236,70 237,821
238,310 239,5875 240,3583 241,7487
242,1541 243,160 244,10 248,70
249,40 250,290 251,90 252,400
253,210 254,110 255,571 256,9999
257,2152 258,220 259,20
##END=
