##TITLE=Estradiol Cypionate
##JCAMP-DX=4.24
##DATA TYPE=MASS SPECTRUM
##ORIGIN=Organic Synthesis Lab, MSU, Moscow.TRC 875
##OWNER=NIST Mass Spectrometry Data Center
Collection (C) 2014 copyright by the U.S. Secretary of Commerce
on behalf of the United States of America. All rights reserved.
##CAS REGISTRY NO=313-06-4
##$NIST MASS SPEC NO=326346
##MOLFORM=C26 H36 O3
##MW=396
##$NIST SOURCE=MSDC
##XUNITS=M/Z
##YUNITS=RELATIVE INTENSITY
##XFACTOR=1
##YFACTOR=1
##FIRSTX=27
##LASTX=398
##FIRSTY=109
##MAXX=398
##MINX=27
##MAXY=9999
##MINY=29
##NPOINTS=81
##PEAK TABLE=(XY..XY)
27,109 29,249 39,189 41,1239
43,348 53,149 54,59 55,3109
56,79 57,39 67,559 69,759
77,179 79,969 80,69 81,1109
82,49 83,229 91,299 93,289
94,59 95,569 97,549 105,219
107,1749 108,109 109,239 115,219
116,39 117,69 121,119 125,1199
126,29 127,99 128,69 129,79
131,239 132,129 133,1909 134,209
141,109 144,369 145,689 146,1949
147,519 157,639 158,709 159,2779
160,1589 161,169 170,99 171,229
172,1479 173,479 183,109 184,59
185,209 186,99 197,319 198,129
199,169 211,529 212,149 213,759
214,159 215,59 225,689 226,889
227,209 228,89 239,209 252,59
253,709 254,1339 255,1369 256,219
271,349 272,169 396,9999 397,2679
398,389
##END=
