##TITLE=Oxirane, (bromomethyl)-
##JCAMP-DX=4.24
##DATA TYPE=MASS SPECTRUM
##ORIGIN=NIST Mass Spectrometry Data Center, 1992
##OWNER=NIST Mass Spectrometry Data Center
Collection (C) 2014 copyright by the U.S. Secretary of Commerce
on behalf of the United States of America. All rights reserved.
##CAS REGISTRY NO=3132-64-7
##$NIST MASS SPEC NO=125289
##MOLFORM=C3 H5 Br O
##MW=136
##$NIST SOURCE=MSDC
##XUNITS=M/Z
##YUNITS=RELATIVE INTENSITY
##XFACTOR=1
##YFACTOR=1
##FIRSTX=12
##LASTX=138
##FIRSTY=52
##MAXX=138
##MINX=12
##MAXY=9999
##MINY=7
##NPOINTS=52
##PEAK TABLE=(XY..XY)
12,52 13,92 14,351 15,356
16,7 17,14 18,29 24,59
25,267 26,1608 27,4941 28,1070
29,4691 30,405 31,2985 32,104
36,47 37,224 38,313 39,541
40,58 41,132 42,370 43,197
44,27 53,37 54,21 55,166
56,21 57,9999 58,328 59,30
79,343 80,162 81,435 82,139
83,25 91,79 92,102 93,649
94,114 95,600 96,35 103,11
104,68 105,152 106,279 107,208
108,231 109,38 136,21 138,18
##END=
