##TITLE=Benzaldehyde, 3-bromo-
##JCAMP-DX=4.24
##DATA TYPE=MASS SPECTRUM
##ORIGIN=RADIAN CORP
##OWNER=NIST Mass Spectrometry Data Center
Collection (C) 2014 copyright by the U.S. Secretary of Commerce
on behalf of the United States of America. All rights reserved.
##CAS REGISTRY NO=3132-99-8
##$NIST MASS SPEC NO=69591
##MOLFORM=C7 H5 Br O
##MW=184
##$NIST SOURCE=MSDC
##XUNITS=M/Z
##YUNITS=RELATIVE INTENSITY
##XFACTOR=1
##YFACTOR=1
##FIRSTX=25
##LASTX=188
##FIRSTY=50
##MAXX=188
##MINX=25
##MAXY=9999
##MINY=10
##NPOINTS=61
##PEAK TABLE=(XY..XY)
25,50 26,90 27,80 29,640
36,100 37,600 38,720 39,220
48,90 49,610 50,4450 51,2630
52,190 53,110 60,110 61,350
62,310 63,150 72,70 73,760
74,2910 75,3290 76,3420 77,3980
78,300 79,430 80,50 81,370
82,60 84,40 85,100 86,90
87,40 89,40 91,50 92,10
103,30 104,210 105,90 106,50
107,60 116,20 117,40 118,30
119,40 128,70 129,140 130,80
131,140 154,20 155,5170 156,620
157,5120 158,610 159,30 183,9730
184,7500 185,9999 186,7390 187,570
188,30
##END=
