##TITLE=3-Nonyn-1-ol
##JCAMP-DX=4.24
##DATA TYPE=MASS SPECTRUM
##ORIGIN=Japan AIST/NIMC Database- Spectrum MS-NW-3657
##OWNER=NIST Mass Spectrometry Data Center
Collection (C) 2014 copyright by the U.S. Secretary of Commerce
on behalf of the United States of America. All rights reserved.
##CAS REGISTRY NO=31333-13-8
##$NIST MASS SPEC NO=232125
##MOLFORM=C9 H16 O
##MW=140
##$NIST SOURCE=MSDC
##XUNITS=M/Z
##YUNITS=RELATIVE INTENSITY
##XFACTOR=1
##YFACTOR=1
##FIRSTX=15
##LASTX=141
##FIRSTY=159
##MAXX=141
##MINX=15
##MAXY=9999
##MINY=10
##NPOINTS=100
##PEAK TABLE=(XY..XY)
15,159 18,10 25,10 26,269
27,3789 28,529 29,5019 30,129
31,3609 32,99 33,10 37,70
38,279 39,4009 40,1019 41,8809
42,1419 43,2089 44,299 45,149
46,10 49,30 50,539 51,1269
52,1719 53,4639 54,9999 55,8339
56,2389 57,1339 58,149 59,40
60,20 61,40 62,139 63,379
64,129 65,1709 66,2059 67,9399
68,3399 69,4799 70,649 71,269
72,40 73,40 74,60 75,50
76,30 77,1969 78,379 79,3389
80,1019 81,5369 82,1009 83,2359
84,5139 85,439 86,40 87,20
89,30 90,20 91,1169 92,229
93,4059 94,1259 95,2329 96,1039
97,3059 98,669 99,139 100,10
101,10 103,30 104,10 105,179
106,40 107,2779 108,369 109,3279
110,349 111,559 112,169 113,20
115,10 117,10 119,20 120,10
121,119 122,179 123,60 124,10
125,129 126,20 127,10 137,10
138,40 139,40 140,50 141,10
##END=
