##TITLE=Butanal, O-methyloxime
##JCAMP-DX=4.24
##DATA TYPE=MASS SPECTRUM
##OWNER=NIST Mass Spectrometry Data Center
Collection (C) 2014 copyright by the U.S. Secretary of Commerce
on behalf of the United States of America. All rights reserved.
##CAS REGISTRY NO=31376-98-4
##$NIST MASS SPEC NO=1155
##MOLFORM=C5 H11 N O
##MW=101
##$NIST SOURCE=MSDC
##XUNITS=M/Z
##YUNITS=RELATIVE INTENSITY
##XFACTOR=1
##YFACTOR=1
##FIRSTX=14
##LASTX=102
##FIRSTY=79
##MAXX=102
##MINX=14
##MAXY=9999
##MINY=79
##NPOINTS=42
##PEAK TABLE=(XY..XY)
14,79 15,1053 26,421 27,3868
28,3894 29,2368 30,842 31,1184
32,316 33,842 37,132 38,184
39,1895 40,632 41,5368 42,3368
43,4999 44,579 45,974 47,342
51,79 52,105 53,105 54,1000
55,1263 56,421 57,211 58,1579
59,1842 60,1105 68,342 69,263
70,447 72,211 73,9999 74,447
84,79 86,2631 87,211 100,184
101,1316 102,105
##END=
