##TITLE=2-Pentanone, O-methyloxime
##JCAMP-DX=4.24
##DATA TYPE=MASS SPECTRUM
##OWNER=NIST Mass Spectrometry Data Center
Collection (C) 2014 copyright by the U.S. Secretary of Commerce
on behalf of the United States of America. All rights reserved.
##CAS REGISTRY NO=31377-00-1
##$NIST MASS SPEC NO=1868
##MOLFORM=C6 H13 N O
##MW=115
##$NIST SOURCE=MSDC
##XUNITS=M/Z
##YUNITS=RELATIVE INTENSITY
##XFACTOR=1
##YFACTOR=1
##FIRSTX=15
##LASTX=116
##FIRSTY=800
##MAXX=116
##MINX=15
##MAXY=9999
##MINY=75
##NPOINTS=40
##PEAK TABLE=(XY..XY)
15,800 26,200 27,1825 28,800
29,875 30,300 31,175 32,175
38,200 39,1200 40,300 41,3300
42,9999 43,1600 44,75 45,500
52,125 53,125 54,300 55,625
56,300 57,800 58,200 59,150
67,150 68,650 69,400 70,100
72,500 73,75 82,125 83,75
84,300 87,4625 88,175 100,2425
101,100 114,200 115,1700 116,200
##END=
