##TITLE=3-Ethoxycarbonylphenyl isothiocyanate
##JCAMP-DX=4.24
##DATA TYPE=MASS SPECTRUM
##ORIGIN=NIST Mass Spectrometry Data Center, 1994
##OWNER=NIST Mass Spectrometry Data Center
Collection (C) 2014 copyright by the U.S. Secretary of Commerce
on behalf of the United States of America. All rights reserved.
##CAS REGISTRY NO=3137-84-6
##$NIST MASS SPEC NO=134567
##MOLFORM=C10 H9 N O2 S
##MW=207
##$NIST SOURCE=MSDC
##XUNITS=M/Z
##YUNITS=RELATIVE INTENSITY
##XFACTOR=1
##YFACTOR=1
##FIRSTX=14
##LASTX=209
##FIRSTY=122
##MAXX=209
##MINX=14
##MAXY=9999
##MINY=27
##NPOINTS=96
##PEAK TABLE=(XY..XY)
14,122 15,383 18,40 26,460
27,2208 28,536 29,2691 30,225
32,151 37,290 38,417 39,1030
40,68 42,69 43,282 44,252
45,922 46,44 50,2758 51,1127
52,189 53,151 54,27 57,94
58,83 59,72 60,56 61,182
62,346 63,1735 64,992 65,446
66,27 67,457 69,276 70,227
71,55 72,37 73,160 74,1019
75,1831 76,1511 77,557 78,95
81,640 82,227 83,242 84,198
86,61 87,58 88,134 89,37
90,2685 91,289 92,37 93,104
94,94 95,76 96,61 99,53
102,832 103,168 104,83 105,42
106,113 107,696 108,295 109,69
118,37 121,36 122,43 128,44
130,537 131,105 134,6258 135,1344
136,391 137,47 147,302 148,79
160,37 162,9999 163,1552 164,566
165,91 174,131 175,135 179,3074
180,381 181,155 189,80 192,369
193,41 207,6142 208,766 209,319
##END=
