##TITLE=Thiophene, 3,4-dibromo-
##JCAMP-DX=4.24
##DATA TYPE=MASS SPECTRUM
##ORIGIN=Japan AIST/NIMC Database- Spectrum MS-NW-7778
##OWNER=NIST Mass Spectrometry Data Center
Collection (C) 2014 copyright by the U.S. Secretary of Commerce
on behalf of the United States of America. All rights reserved.
##CAS REGISTRY NO=3141-26-2
##$NIST MASS SPEC NO=231270
##MOLFORM=C4 H2 Br2 S
##MW=240
##$NIST SOURCE=MSDC
##XUNITS=M/Z
##YUNITS=RELATIVE INTENSITY
##XFACTOR=1
##YFACTOR=1
##FIRSTX=12
##LASTX=247
##FIRSTY=40
##MAXX=247
##MINX=12
##MAXY=9999
##MINY=10
##NPOINTS=87
##PEAK TABLE=(XY..XY)
12,40 13,10 18,30 24,30
25,60 26,20 32,60 33,10
36,139 37,799 38,899 39,30
41,129 44,159 45,1379 46,30
47,60 48,80 49,359 50,359
51,20 56,70 57,339 58,20
59,20 68,40 69,139 70,10
76,10 79,219 80,209 81,1079
82,4979 83,299 84,229 85,10
91,50 92,10 93,50 94,10
103,10 104,40 105,10 106,50
111,40 113,40 115,30 116,139
117,689 118,169 119,659 120,169
121,319 122,169 123,40 125,40
128,30 129,20 130,20 131,10
135,50 136,60 137,50 138,60
147,10 149,10 158,10 159,10
160,80 161,1879 162,159 163,1869
164,99 165,80 195,60 196,10
197,129 198,10 199,70 240,4989
241,269 242,9999 243,539 244,5149
245,279 246,229 247,10
##END=
