##TITLE=Arsenous acid, triethyl ester
##JCAMP-DX=4.24
##DATA TYPE=MASS SPECTRUM
##ORIGIN=O7-75-1B
##OWNER=NIST Mass Spectrometry Data Center
Collection (C) 2014 copyright by the U.S. Secretary of Commerce
on behalf of the United States of America. All rights reserved.
##CAS REGISTRY NO=3141-12-6
##$NIST MASS SPEC NO=32245
##MOLFORM=C6 H15 As O3
##MW=210
##$NIST SOURCE=MSDC
##XUNITS=M/Z
##YUNITS=RELATIVE INTENSITY
##XFACTOR=1
##YFACTOR=1
##FIRSTX=44
##LASTX=210
##FIRSTY=316
##MAXX=210
##MINX=44
##MAXY=9999
##MINY=198
##NPOINTS=21
##PEAK TABLE=(XY..XY)
44,316 45,1660 46,711 91,2055
92,1897 93,474 109,4229 119,395
120,1937 121,4901 122,277 123,474
135,356 137,2608 155,277 164,3873
165,9999 166,3320 167,237 195,869
210,198
##END=
