##TITLE=2-Pentenoic acid, 2-methyl-
##JCAMP-DX=4.24
##DATA TYPE=MASS SPECTRUM
##ORIGIN=NIST Mass Spectrometry Data Center
##OWNER=NIST Mass Spectrometry Data Center
Collection (C) 2014 copyright by the U.S. Secretary of Commerce
on behalf of the United States of America. All rights reserved.
##CAS REGISTRY NO=3142-72-1
##$NIST MASS SPEC NO=343720
##MOLFORM=C6 H10 O2
##MW=114
##$NIST SOURCE=MSDC
##XUNITS=M/Z
##YUNITS=RELATIVE INTENSITY
##XFACTOR=1
##YFACTOR=1
##FIRSTX=14
##LASTX=115
##FIRSTY=20
##MAXX=115
##MINX=14
##MAXY=9999
##MINY=20
##NPOINTS=62
##PEAK TABLE=(XY..XY)
14,20 15,470 17,40 18,140
19,30 25,50 26,540 27,2843
28,2012 29,1131 30,120 31,230
32,90 36,40 37,200 38,440
39,3833 40,751 41,9999 42,1381
43,1531 44,460 45,1551 46,70
47,50 49,30 50,140 51,210
52,90 53,911 54,230 55,1211
56,1211 57,711 58,180 59,50
60,190 61,40 62,40 63,60
65,130 66,60 67,731 68,851
69,6396 70,631 71,490 72,190
73,470 74,300 81,230 85,70
86,100 87,60 95,60 96,140
97,70 99,1051 100,70 113,50
114,581 115,30
##END=
