##TITLE=3-Methyl-3-oxetanemethanol
##JCAMP-DX=4.24
##DATA TYPE=MASS SPECTRUM
##ORIGIN=Chuck Anderson, Aldrich Chemical Co.
##OWNER=NIST Mass Spectrometry Data Center
Collection (C) 2014 copyright by the U.S. Secretary of Commerce
on behalf of the United States of America. All rights reserved.
##CAS REGISTRY NO=3143-02-0
##$NIST MASS SPEC NO=108213
##MOLFORM=C5 H10 O2
##MW=102
##$NIST SOURCE=MSDC
##XUNITS=M/Z
##YUNITS=RELATIVE INTENSITY
##XFACTOR=1
##YFACTOR=1
##FIRSTX=14
##LASTX=103
##FIRSTY=32
##MAXX=103
##MINX=14
##MAXY=9999
##MINY=3
##NPOINTS=50
##PEAK TABLE=(XY..XY)
14,32 15,180 16,12 17,7
18,5 19,29 25,11 26,119
27,1033 28,297 29,2957 30,170
31,1675 32,30 33,23 36,8
37,103 38,271 39,2787 40,415
41,2578 42,471 43,3507 44,778
45,392 46,12 47,4 49,15
50,81 51,93 52,44 53,435
54,755 55,356 57,9999 58,327
59,29 61,7 67,5 68,4
69,82 70,31 71,638 72,3507
73,175 74,13 83,8 84,8
85,3 103,20
##END=
