##TITLE=Silane, (chloromethyl)dimethyl-
##JCAMP-DX=4.24
##DATA TYPE=MASS SPECTRUM
##ORIGIN=J.VOTH UNIV. OF CALIFORNIA, DAVIS, CALIFORNIA, 95616, USA
##OWNER=NIST Mass Spectrometry Data Center
Collection (C) 2014 copyright by the U.S. Secretary of Commerce
on behalf of the United States of America. All rights reserved.
##CAS REGISTRY NO=3144-74-9
##$NIST MASS SPEC NO=26717
##MOLFORM=C3 H9 Cl Si
##MW=108
##$NIST SOURCE=MSDC
##XUNITS=M/Z
##YUNITS=RELATIVE INTENSITY
##XFACTOR=1
##YFACTOR=1
##FIRSTX=12
##LASTX=111
##FIRSTY=41
##MAXX=111
##MINX=12
##MAXY=9999
##MINY=7
##NPOINTS=79
##PEAK TABLE=(XY..XY)
12,41 13,78 14,248 15,498
16,23 18,10 25,12 26,75
27,269 28,718 29,1197 30,150
31,1272 32,57 33,38 35,34
36,35 37,17 38,16 39,23
40,43 41,291 42,858 43,2021
44,290 45,539 46,34 47,37
48,27 49,16 50,16 51,53
52,51 53,365 54,80 55,210
56,34 57,380 58,353 59,9999
60,736 61,347 62,12 63,1234
64,211 65,2876 66,212 67,874
68,44 69,30 71,12 72,21
73,66 74,39 75,18 76,58
77,182 78,189 79,1367 80,138
81,464 82,33 83,18 90,8
91,24 92,76 93,1435 94,130
95,506 96,37 97,18 99,10
101,7 106,16 107,266 108,246
109,113 110,86 111,11
##END=
