##TITLE=Methane sulfonamide
##JCAMP-DX=4.24
##DATA TYPE=MASS SPECTRUM
##ORIGIN=Japan AIST/NIMC Database- Spectrum MS-IW-3906
##OWNER=NIST Mass Spectrometry Data Center
Collection (C) 2014 copyright by the U.S. Secretary of Commerce
on behalf of the United States of America. All rights reserved.
##CAS REGISTRY NO=3144-09-0
##$NIST MASS SPEC NO=236505
##MOLFORM=C H5 N O2 S
##MW=95
##$NIST SOURCE=MSDC
##XUNITS=M/Z
##YUNITS=RELATIVE INTENSITY
##XFACTOR=1
##YFACTOR=1
##FIRSTX=13
##LASTX=97
##FIRSTY=10
##MAXX=97
##MINX=13
##MAXY=9999
##MINY=10
##NPOINTS=43
##PEAK TABLE=(XY..XY)
13,10 14,80 15,3039 16,189
17,199 18,229 27,20 28,79
29,40 30,2489 31,749 32,819
33,119 34,90 35,10 43,169
44,189 45,349 46,539 47,269
48,1099 49,229 50,109 51,20
60,20 61,20 62,80 63,259
64,999 65,379 66,50 67,10
70,10 76,20 77,20 78,189
79,4139 80,9999 81,339 82,539
95,5819 96,179 97,269
##END=
