##TITLE=Glycine, N-(N-L-alanylglycyl)-
##JCAMP-DX=4.24
##DATA TYPE=MASS SPECTRUM
##ORIGIN=Japan AIST/NIMC Database- Spectrum MS-NW-2400
##OWNER=NIST Mass Spectrometry Data Center
Collection (C) 2014 copyright by the U.S. Secretary of Commerce
on behalf of the United States of America. All rights reserved.
##CAS REGISTRY NO=3146-40-5
##$NIST MASS SPEC NO=234193
##MOLFORM=C7 H13 N3 O4
##MW=203
##$NIST SOURCE=MSDC
##XUNITS=M/Z
##YUNITS=RELATIVE INTENSITY
##XFACTOR=1
##YFACTOR=1
##FIRSTX=12
##LASTX=203
##FIRSTY=10
##MAXX=203
##MINX=12
##MAXY=9999
##MINY=10
##NPOINTS=119
##PEAK TABLE=(XY..XY)
12,10 13,10 14,70 15,219
16,70 17,40 18,129 25,10
26,99 27,369 28,1559 29,409
30,3379 31,99 32,20 37,10
38,40 39,90 40,179 41,349
42,769 43,459 44,9999 45,299
46,10 51,20 52,50 53,50
54,179 55,259 56,499 57,429
58,80 59,139 60,30 65,10
66,20 67,80 68,159 69,109
70,90 71,99 72,40 73,90
74,40 75,60 76,70 77,10
79,10 80,20 81,50 82,60
83,40 84,60 85,1339 86,90
87,10 88,10 89,10 91,20
92,10 93,10 94,30 95,30
96,70 97,40 98,30 99,129
100,50 101,60 102,10 107,10
108,10 109,10 110,60 111,30
112,30 113,139 114,60 115,10
117,30 122,30 123,20 124,80
125,20 126,30 127,20 128,289
129,60 132,20 133,10 136,10
137,10 138,20 139,80 140,20
141,10 142,30 143,10 146,40
149,10 150,10 152,10 153,20
155,10 159,10 160,129 161,10
164,10 165,20 166,10 167,159
168,60 170,10 171,10 172,10
181,20 185,10 203,10
##END=
