##TITLE=Benzoic acid, 3,5-dibromo-2-hydroxy-
##JCAMP-DX=4.24
##DATA TYPE=MASS SPECTRUM
##ORIGIN=Japan AIST/NIMC Database- Spectrum MS-NW-3236
##OWNER=NIST Mass Spectrometry Data Center
Collection (C) 2014 copyright by the U.S. Secretary of Commerce
on behalf of the United States of America. All rights reserved.
##CAS REGISTRY NO=3147-55-5
##$NIST MASS SPEC NO=231359
##MOLFORM=C7 H4 Br2 O3
##MW=294
##$NIST SOURCE=MSDC
##XUNITS=M/Z
##YUNITS=RELATIVE INTENSITY
##XFACTOR=1
##YFACTOR=1
##FIRSTX=16
##LASTX=300
##FIRSTY=10
##MAXX=300
##MINX=16
##MAXY=9999
##MINY=10
##NPOINTS=164
##PEAK TABLE=(XY..XY)
16,10 18,20 25,50 26,50
27,40 28,159 29,149 31,80
36,99 37,499 38,329 39,149
40,10 41,20 42,30 44,159
45,509 46,20 48,30 49,159
50,309 51,479 52,159 53,779
54,199 55,60 60,229 61,1209
62,2359 63,1499 64,179 65,60
66,90 67,10 68,20 69,50
70,90 71,99 72,50 73,139
74,269 75,30 77,90 78,30
79,219 80,189 81,129 82,189
84,99 85,209 86,119 88,10
89,70 90,539 91,369 92,119
93,50 94,30 98,70 99,70
100,20 104,20 105,20 106,20
107,90 108,199 109,20 110,90
111,169 112,90 115,40 116,109
117,169 118,109 119,159 120,10
124,279 125,559 126,259 127,10
128,40 129,70 130,50 131,119
132,20 133,80 135,20 136,30
138,239 139,509 140,319 141,1469
142,209 143,1469 144,159 145,60
146,10 147,30 148,60 149,30
152,10 153,40 154,10 155,40
157,20 158,10 159,219 160,20
161,189 162,10 168,10 169,309
170,239 171,309 172,219 173,30
175,10 185,10 186,20 187,30
188,20 189,20 195,20 197,1039
198,179 199,999 200,179 201,10
211,10 215,20 216,50 217,20
218,40 220,399 221,109 222,759
223,199 224,379 225,99 237,20
239,30 241,10 248,649 249,50
250,1279 251,99 252,699 253,60
254,50 267,10 276,5169 277,439
278,9999 279,829 280,4869 281,419
282,30 294,1679 295,139 296,3239
297,269 298,1619 299,129 300,20
##END=
