##TITLE=1.2-diacetylhydrazine
##JCAMP-DX=4.24
##DATA TYPE=MASS SPECTRUM
##ORIGIN=NIST Mass Spectrometry Data Center
##OWNER=NIST Mass Spectrometry Data Center
Collection (C) 2014 copyright by the U.S. Secretary of Commerce
on behalf of the United States of America. All rights reserved.
##CAS REGISTRY NO=3148-73-0
##$NIST MASS SPEC NO=342653
##MOLFORM=C4 H8 N2 O2
##MW=116
##$NIST SOURCE=MSDC
##XUNITS=M/Z
##YUNITS=RELATIVE INTENSITY
##XFACTOR=1
##YFACTOR=1
##FIRSTX=12
##LASTX=116
##FIRSTY=100
##MAXX=116
##MINX=12
##MAXY=9999
##MINY=10
##NPOINTS=33
##PEAK TABLE=(XY..XY)
12,100 13,130 14,530 15,2142
16,90 17,70 18,10 24,10
25,20 26,190 27,280 28,360
29,621 30,200 31,240 32,3293
36,10 38,150 39,200 40,130
41,300 42,1031 43,9999 44,500
45,80 55,120 56,170 70,30
73,30 74,4514 75,120 101,10
116,921
##END=
