##TITLE=Pyrazine, methoxy-
##JCAMP-DX=4.24
##DATA TYPE=MASS SPECTRUM
##ORIGIN=NIST Mass Spectrometry Data Center, 1990.
##OWNER=NIST Mass Spectrometry Data Center
Collection (C) 2014 copyright by the U.S. Secretary of Commerce
on behalf of the United States of America. All rights reserved.
##CAS REGISTRY NO=3149-28-8
##$NIST MASS SPEC NO=118573
##MOLFORM=C5 H6 N2 O
##MW=110
##$NIST SOURCE=MSDC
##XUNITS=M/Z
##YUNITS=RELATIVE INTENSITY
##XFACTOR=1
##YFACTOR=1
##FIRSTX=12
##LASTX=112
##FIRSTY=95
##MAXX=112
##MINX=12
##MAXY=9999
##MINY=17
##NPOINTS=52
##PEAK TABLE=(XY..XY)
12,95 13,235 14,315 15,1709
16,17 18,95 24,65 25,345
26,1609 27,861 28,2410 29,674
30,111 31,42 32,47 34,44
37,80 38,710 39,1994 40,8384
41,1213 42,529 43,89 44,38
50,177 51,1338 52,2553 53,3668
54,965 55,494 56,1564 57,157
58,114 65,129 66,380 67,868
68,4041 69,142 76,42 77,69
79,992 80,5074 81,4108 82,342
83,98 92,90 95,754 107,247
109,5965 110,9999 111,719 112,45
##END=
