##TITLE=2-Butanone, 4-(2,6,6-trimethyl-2-cyclohexen-1-yl)-
##JCAMP-DX=4.24
##DATA TYPE=MASS SPECTRUM
##ORIGIN=NIST Mass Spectrometry Data Center, 2010
##OWNER=NIST Mass Spectrometry Data Center
Collection (C) 2014 copyright by the U.S. Secretary of Commerce
on behalf of the United States of America. All rights reserved.
##CAS REGISTRY NO=31499-72-6
##$NIST MASS SPEC NO=374425
##MOLFORM=C13 H22 O
##MW=194
##$NIST SOURCE=MSDC
##XUNITS=M/Z
##YUNITS=RELATIVE INTENSITY
##XFACTOR=1
##YFACTOR=1
##FIRSTX=15
##LASTX=195
##FIRSTY=80
##MAXX=195
##MINX=15
##MAXY=9999
##MINY=10
##NPOINTS=117
##PEAK TABLE=(XY..XY)
15,80 26,20 27,340 28,130
29,340 30,10 31,10 32,10
38,40 39,721 40,140 41,1651
42,190 43,4644 44,140 45,80
50,50 51,210 52,110 53,811
54,110 55,1071 56,150 57,290
58,150 59,40 62,20 63,80
64,20 65,530 66,160 67,1221
68,430 69,520 70,50 71,801
72,50 73,10 74,10 75,10
77,1361 78,280 79,2282 80,1051
81,3083 82,360 83,130 84,40
85,20 89,30 91,1832 92,831
93,3783 94,1231 95,7627 96,1031
97,140 98,20 99,10 102,20
103,120 104,50 105,1231 106,270
107,1752 108,1001 109,1411 110,160
111,110 112,10 113,10 115,60
116,20 117,60 119,921 120,611
121,9999 122,1171 123,2182 124,801
125,100 126,10 127,10 128,20
129,10 130,10 131,20 132,30
133,200 134,90 136,9669 137,1261
138,561 139,60 140,10 141,10
145,10 146,10 147,40 148,10
149,10 151,30 152,10 153,10
159,20 161,861 162,120 163,10
165,10 176,2542 177,410 178,30
179,270 180,40 192,10 194,110
195,20
##END=
