##TITLE=Testosterone enanthate
##JCAMP-DX=4.24
##DATA TYPE=MASS SPECTRUM
##ORIGIN=Dr. P.K. Shah, NYC Police Laboratory, NY
##OWNER=NIST Mass Spectrometry Data Center
Collection (C) 2014 copyright by the U.S. Secretary of Commerce
on behalf of the United States of America. All rights reserved.
##CAS REGISTRY NO=315-37-7
##$NIST MASS SPEC NO=312424
##MOLFORM=C26 H40 O3
##MW=400
##$NIST SOURCE=MSDC
##XUNITS=M/Z
##YUNITS=RELATIVE INTENSITY
##XFACTOR=1
##YFACTOR=1
##FIRSTX=38
##LASTX=402
##FIRSTY=20
##MAXX=402
##MINX=38
##MAXY=9999
##MINY=10
##NPOINTS=252
##PEAK TABLE=(XY..XY)
38,20 39,350 40,80 41,2082
42,440 43,6666 44,280 45,110
50,10 51,70 52,70 53,500
54,110 55,2702 56,310 57,1261
58,80 59,30 60,240 61,20
63,20 64,20 65,290 66,130
67,1271 68,220 69,701 70,110
71,160 72,20 73,180 74,20
75,10 77,1031 78,250 79,1912
80,310 81,1381 82,170 83,520
84,130 85,1581 86,180 87,100
89,30 91,2442 92,430 93,1882
94,991 95,1852 96,651 97,621
98,60 99,50 101,90 102,30
103,190 104,220 105,2172 106,561
107,1682 108,540 109,1431 110,360
111,561 113,5665 114,470 115,350
116,160 117,751 118,360 119,1481
120,611 121,1311 122,1011 123,1882
124,9999 125,1211 126,90 127,80
128,250 129,460 130,220 131,1531
132,550 133,1712 134,1601 135,1031
136,530 137,791 138,320 139,50
141,150 142,170 143,480 144,681
145,1321 146,2943 147,8358 148,1962
149,1291 150,210 151,130 152,60
153,50 154,30 155,180 156,100
157,470 158,340 159,901 160,490
161,901 162,540 163,420 164,160
165,260 166,50 167,70 168,30
169,140 170,110 171,430 172,360
173,490 174,480 175,430 176,270
177,210 178,50 179,40 180,20
181,70 182,40 183,150 184,80
185,1401 186,390 187,400 188,190
189,210 190,70 191,30 192,10
193,30 194,10 195,90 196,40
197,180 198,70 199,370 200,250
201,210 202,100 203,120 204,40
205,20 207,120 208,40 209,100
210,50 211,170 212,80 213,801
214,210 215,170 216,60 217,50
218,20 223,40 224,60 225,90
226,110 227,440 228,2012 229,621
230,1882 231,430 232,70 237,220
238,60 239,20 240,10 241,140
242,190 243,160 244,130 245,500
246,210 247,30 251,70 252,270
253,430 254,90 255,530 256,110
257,100 258,40 259,50 260,320
261,60 268,30 269,120 270,941
271,881 272,170 273,611 274,120
275,10 276,30 277,30 281,40
283,10 285,10 286,30 287,170
288,1211 289,290 290,40 291,20
295,30 301,20 302,30 309,10
313,20 315,230 316,140 317,30
318,20 327,20 328,180 329,50
330,30 340,20 341,20 342,20
343,10 344,20 357,20 358,841
359,210 360,30 371,10 372,50
373,10 382,30 383,10 385,130
386,30 400,1141 401,340 402,50
##END=
