##TITLE=Allopurinol
##JCAMP-DX=4.24
##DATA TYPE=MASS SPECTRUM
##ORIGIN=Japan AIST/NIMC Database- Spectrum MS-NW-3779
##OWNER=NIST Mass Spectrometry Data Center
Collection (C) 2014 copyright by the U.S. Secretary of Commerce
on behalf of the United States of America. All rights reserved.
##CAS REGISTRY NO=315-30-0
##$NIST MASS SPEC NO=230398
##MOLFORM=C5 H4 N4 O
##MW=136
##$NIST SOURCE=MSDC
##XUNITS=M/Z
##YUNITS=RELATIVE INTENSITY
##XFACTOR=1
##YFACTOR=1
##FIRSTX=12
##LASTX=138
##FIRSTY=30
##MAXX=138
##MINX=12
##MAXY=9999
##MINY=10
##NPOINTS=59
##PEAK TABLE=(XY..XY)
12,30 13,20 16,10 17,50
18,259 24,30 25,70 26,70
27,239 28,1699 29,1719 30,80
32,10 36,30 37,149 38,319
39,309 40,139 41,50 42,129
43,419 44,40 50,50 51,459
52,1929 53,679 54,179 55,99
57,10 62,10 63,20 64,109
65,109 66,99 67,449 68,289
69,20 70,20 77,40 78,50
79,189 80,249 81,159 82,10
92,10 93,60 94,149 95,10
106,10 107,20 108,90 109,599
110,30 120,209 121,20 135,1109
136,9999 137,699 138,40
##END=
