##TITLE=Mexacarbate
##JCAMP-DX=4.24
##DATA TYPE=MASS SPECTRUM
##ORIGIN=NIST Mass Spectrometry Data Center, 1990.
##OWNER=NIST Mass Spectrometry Data Center
Collection (C) 2014 copyright by the U.S. Secretary of Commerce
on behalf of the United States of America. All rights reserved.
##CAS REGISTRY NO=315-18-4
##$NIST MASS SPEC NO=118995
##MOLFORM=C12 H18 N2 O2
##MW=222
##$NIST SOURCE=MSDC
##XUNITS=M/Z
##YUNITS=RELATIVE INTENSITY
##XFACTOR=1
##YFACTOR=1
##FIRSTX=12
##LASTX=224
##FIRSTY=52
##MAXX=224
##MINX=12
##MAXY=9999
##MINY=18
##NPOINTS=102
##PEAK TABLE=(XY..XY)
12,52 13,84 15,684 17,57
18,34 26,121 27,836 28,727
29,202 30,37 38,185 39,968
40,153 41,416 42,695 43,214
44,778 45,40 49,30 50,199
51,535 52,301 53,557 54,128
55,547 56,794 57,1804 58,606
59,58 60,26 61,34 62,77
63,245 64,134 65,592 66,389
67,319 68,114 69,147 70,30
72,168 74,326 77,1627 78,364
79,584 80,327 81,241 82,272
87,34 88,28 89,121 90,28
91,1250 92,217 93,326 94,229
95,148 96,284 102,55 103,236
104,163 105,302 106,326 107,426
108,199 109,67 110,25 112,29
115,44 116,74 117,105 118,162
119,187 120,617 121,1168 122,971
123,226 124,32 128,18 130,163
131,60 132,225 133,1020 134,3885
135,1596 136,384 137,43 146,148
147,225 148,1609 149,2065 150,7858
151,807 152,59 162,186 164,7921
165,9999 166,1137 167,83 222,1368
223,197 224,25
##END=
