##TITLE=Monocrotaline
##JCAMP-DX=4.24
##DATA TYPE=MASS SPECTRUM
##ORIGIN=Japan AIST/NIMC Database- Spectrum MS-NW-9106
##OWNER=NIST Mass Spectrometry Data Center
Collection (C) 2014 copyright by the U.S. Secretary of Commerce
on behalf of the United States of America. All rights reserved.
##CAS REGISTRY NO=315-22-0
##$NIST MASS SPEC NO=234999
##MOLFORM=C16 H23 N O6
##MW=325
##$NIST SOURCE=MSDC
##XUNITS=M/Z
##YUNITS=RELATIVE INTENSITY
##XFACTOR=1
##YFACTOR=1
##FIRSTX=14
##LASTX=326
##FIRSTY=20
##MAXX=326
##MINX=14
##MAXY=9999
##MINY=10
##NPOINTS=186
##PEAK TABLE=(XY..XY)
14,20 15,169 16,10 17,70
18,220 26,60 27,419 28,509
29,399 30,70 31,60 37,10
38,20 39,269 40,80 41,619
42,299 43,3129 44,449 45,339
46,10 50,30 51,99 52,129
53,649 54,259 55,429 56,229
57,589 58,50 59,70 60,20
61,20 62,10 63,40 64,30
65,219 66,219 67,609 68,279
69,129 70,129 71,109 72,199
73,70 74,40 75,10 77,269
78,149 79,309 80,1489 81,379
82,359 83,239 84,40 85,40
86,40 87,199 88,80 89,99
90,159 91,289 92,309 93,4879
94,3049 95,1969 96,199 97,80
98,219 99,499 100,30 101,40
103,80 104,299 105,119 106,839
107,219 108,979 109,569 110,99
111,139 112,20 113,30 114,20
115,179 116,40 117,399 118,909
119,7299 120,9999 121,2349 122,509
123,299 124,119 125,90 126,40
127,20 128,20 129,20 130,10
131,10 132,20 133,20 134,70
135,70 136,4859 137,1829 138,1189
139,229 140,379 141,40 142,10
143,60 144,20 145,20 146,80
147,30 148,109 149,50 150,40
151,10 152,20 153,20 154,90
155,30 156,10 157,789 158,80
159,10 161,10 162,30 163,80
164,229 165,199 166,159 167,30
168,10 170,10 171,10 174,10
176,10 178,20 179,10 180,40
181,40 182,20 183,219 184,60
185,10 189,10 190,10 191,20
192,139 193,239 194,279 195,99
196,10 201,10 207,20 208,20
209,90 210,30 218,10 225,70
226,30 227,20 234,20 235,40
236,5009 237,1599 238,479 239,60
250,10 251,20 252,20 253,30
254,249 255,40 264,10 266,20
280,50 281,70 282,20 283,10
325,159 326,40
##END=
