##TITLE=Hexanoic acid, 3-hexenyl ester, (Z)-
##JCAMP-DX=4.24
##DATA TYPE=MASS SPECTRUM
##ORIGIN=Japan AIST/NIMC Database- Spectrum MS-NW-3454
##OWNER=NIST Mass Spectrometry Data Center
Collection (C) 2014 copyright by the U.S. Secretary of Commerce
on behalf of the United States of America. All rights reserved.
##CAS REGISTRY NO=31501-11-8
##$NIST MASS SPEC NO=232029
##MOLFORM=C12 H22 O2
##MW=198
##$NIST SOURCE=MSDC
##XUNITS=M/Z
##YUNITS=RELATIVE INTENSITY
##XFACTOR=1
##YFACTOR=1
##FIRSTX=14
##LASTX=143
##FIRSTY=10
##MAXX=143
##MINX=14
##MAXY=9999
##MINY=10
##NPOINTS=77
##PEAK TABLE=(XY..XY)
14,10 15,50 17,20 18,70
26,80 27,1019 28,189 29,929
30,30 31,40 32,20 37,20
38,60 39,1019 40,189 41,2369
42,559 43,3119 44,109 45,50
49,10 50,60 51,119 52,60
53,419 54,619 55,2019 56,239
57,99 58,40 59,20 60,179
61,30 62,20 63,30 64,10
65,139 66,90 67,5869 68,429
69,289 70,129 71,1759 72,109
73,139 74,30 75,20 77,50
78,20 79,149 80,80 81,569
82,9999 83,1259 84,90 85,20
86,20 87,80 88,10 89,20
95,10 96,20 97,60 98,209
99,3429 100,239 101,40 105,10
114,40 115,40 116,30 117,169
118,10 127,10 129,10 142,10
143,10
##END=
