##TITLE=6-Nonen-1-ol, (E)-
##JCAMP-DX=4.24
##DATA TYPE=MASS SPECTRUM
##OWNER=NIST Mass Spectrometry Data Center
Collection (C) 2014 copyright by the U.S. Secretary of Commerce
on behalf of the United States of America. All rights reserved.
##CAS REGISTRY NO=31502-19-9
##$NIST MASS SPEC NO=3861
##MOLFORM=C9 H18 O
##MW=142
##$NIST SOURCE=MSDC
##XUNITS=M/Z
##YUNITS=RELATIVE INTENSITY
##XFACTOR=1
##YFACTOR=1
##FIRSTX=15
##LASTX=142
##FIRSTY=120
##MAXX=142
##MINX=15
##MAXY=9999
##MINY=40
##NPOINTS=66
##PEAK TABLE=(XY..XY)
15,120 17,70 18,290 19,130
26,140 27,2202 28,581 29,2823
30,100 31,2793 37,60 38,90
39,2552 40,490 41,9999 42,1802
43,2142 44,611 45,440 50,80
51,260 52,160 53,1401 54,3443
55,5985 56,1341 57,2092 58,190
59,210 63,70 65,300 66,611
67,8558 68,5465 69,3443 70,781
71,440 72,150 73,110 74,90
77,250 78,60 79,510 80,250
81,3823 82,5355 83,931 84,140
85,150 91,120 93,240 94,190
95,6055 96,1742 97,230 98,180
99,120 107,40 109,340 111,40
114,60 122,110 123,50 124,1281
125,140 142,100
##END=
