##TITLE=5-Hydroxymethyluracil, 3TMS derivative
##JCAMP-DX=4.24
##DATA TYPE=MASS SPECTRUM
##ORIGIN=E.HOLME DEPT. CHEM., GOTHENBURG UNIV., GOTHENBURG, SWEDEN
##OWNER=NIST Mass Spectrometry Data Center
Collection (C) 2014 copyright by the U.S. Secretary of Commerce
on behalf of the United States of America. All rights reserved.
##CAS REGISTRY NO=31517-04-1
##$NIST MASS SPEC NO=38977
##MOLFORM=C14 H30 N2 O3 Si3
##MW=358
##$NIST SOURCE=MSDC
##XUNITS=M/Z
##YUNITS=RELATIVE INTENSITY
##XFACTOR=1
##YFACTOR=1
##FIRSTX=37
##LASTX=361
##FIRSTY=240
##MAXX=361
##MINX=37
##MAXY=9999
##MINY=110
##NPOINTS=150
##PEAK TABLE=(XY..XY)
37,240 38,360 39,1000 40,240
41,680 42,320 43,1900 44,1580
45,4840 46,360 47,2160 48,190
49,1000 50,1600 51,2220 52,4780
53,730 54,140 55,1780 56,350
57,720 58,470 59,1170 60,210
61,390 62,110 63,330 65,120
66,230 67,210 68,120 69,540
70,450 71,370 72,890 73,9999
74,2000 75,9150 76,920 77,5280
78,1170 79,6320 80,470 81,200
82,120 83,340 84,550 85,330
86,290 87,140 89,160 91,110
92,140 93,380 95,240 96,160
97,240 98,150 99,290 100,2820
101,360 102,220 103,310 105,150
107,1140 108,110 109,110 110,250
111,160 113,170 115,170 116,190
117,560 119,170 120,320 121,110
125,110 127,490 128,120 129,210
131,890 132,280 133,1050 134,180
135,140 141,110 143,260 145,150
147,4850 148,1080 149,540 154,290
155,130 156,130 157,170 158,490
159,130 160,110 170,350 171,180
172,120 174,610 175,140 181,350
184,170 185,220 188,670 189,220
191,130 192,640 193,170 195,140
205,110 207,320 211,140 217,170
221,170 225,240 239,250 241,140
242,170 253,270 254,140 255,1330
256,320 257,360 269,890 270,290
271,230 281,120 283,120 285,680
286,220 299,180 313,140 327,230
328,130 329,130 341,170 342,240
343,5400 344,1750 345,850 346,200
356,140 357,530 358,9450 359,3560
360,1670 361,360
##END=
