##TITLE=Vanadyl bis(acetylacetonate)
##JCAMP-DX=4.24
##DATA TYPE=MASS SPECTRUM
##ORIGIN=Japan AIST/NIMC Database- Spectrum MS-NW-9180
##OWNER=NIST Mass Spectrometry Data Center
Collection (C) 2014 copyright by the U.S. Secretary of Commerce
on behalf of the United States of America. All rights reserved.
##CAS REGISTRY NO=3153-26-2
##$NIST MASS SPEC NO=230423
##MOLFORM=C10 H14 O5 V
##MW=265
##$NIST SOURCE=MSDC
##XUNITS=M/Z
##YUNITS=RELATIVE INTENSITY
##XFACTOR=1
##YFACTOR=1
##FIRSTX=14
##LASTX=268
##FIRSTY=20
##MAXX=268
##MINX=14
##MAXY=9999
##MINY=10
##NPOINTS=153
##PEAK TABLE=(XY..XY)
14,20 15,109 17,40 18,139
26,20 27,80 28,409 29,30
31,10 37,10 38,30 39,189
40,40 41,129 42,50 43,2609
44,70 45,20 50,10 51,40
52,10 53,50 54,10 55,40
57,10 58,10 60,10 63,10
64,30 65,50 66,40 67,989
68,129 69,50 72,10 76,10
77,10 78,20 79,10 80,20
81,20 82,229 83,99 84,559
85,239 86,10 90,10 91,10
92,20 93,10 94,40 95,149
96,20 97,40 98,10 99,40
100,119 101,20 105,20 106,509
107,179 108,109 109,40 110,159
111,109 112,10 113,10 118,10
119,30 120,80 121,30 122,30
123,769 124,319 125,159 126,739
127,159 128,10 131,10 132,40
133,20 134,10 135,10 136,40
137,129 138,10 139,40 140,10
141,139 142,10 143,60 145,20
146,10 147,20 148,799 149,199
150,1059 151,619 152,50 153,20
158,80 159,10 161,40 162,10
163,40 164,30 165,759 166,8759
167,2629 168,219 169,20 179,20
180,10 181,70 182,20 183,5859
184,389 185,60 187,30 188,10
190,20 192,20 193,179 194,20
195,199 196,10 205,40 206,10
207,50 208,70 209,359 210,30
219,40 222,609 223,1709 224,159
225,20 231,10 232,30 236,159
237,50 242,70 247,30 248,20
249,679 250,3079 251,319 252,40
264,40 265,9999 266,1159 267,159
268,10
##END=
