##TITLE=2,Beta-dinitrostyrene
##JCAMP-DX=4.24
##DATA TYPE=MASS SPECTRUM
##ORIGIN=NIST Mass Spectrometry Data Center
##OWNER=NIST Mass Spectrometry Data Center
Collection (C) 2014 copyright by the U.S. Secretary of Commerce
on behalf of the United States of America. All rights reserved.
##CAS REGISTRY NO=3156-39-6
##$NIST MASS SPEC NO=342495
##MOLFORM=C8 H6 N2 O4
##MW=194
##$NIST SOURCE=MSDC
##XUNITS=M/Z
##YUNITS=RELATIVE INTENSITY
##XFACTOR=1
##YFACTOR=1
##FIRSTX=17
##LASTX=194
##FIRSTY=40
##MAXX=194
##MINX=17
##MAXY=9999
##MINY=30
##NPOINTS=70
##PEAK TABLE=(XY..XY)
17,40 18,70 26,90 27,260
29,370 30,4354 37,400 38,851
39,3413 40,290 41,170 42,150
44,70 46,991 50,3883 51,4924
52,1551 53,280 54,50 55,60
61,440 62,1311 63,4084 64,2252
65,9999 66,1031 67,70 68,60
69,30 73,240 74,2002 75,3613
76,3643 77,2482 78,691 79,340
80,80 81,30 85,100 86,210
87,300 89,5105 90,1942 92,9569
93,1031 94,60 97,50 98,270
99,130 101,1081 102,2142 103,370
104,270 105,240 106,60 114,40
115,80 116,170 118,1722 119,290
120,190 130,120 131,70 132,130
133,50 135,50 146,160 148,861
149,110 194,40
##END=
