##TITLE=Benzene, 4-iodo-1,2-dimethyl-
##JCAMP-DX=4.24
##DATA TYPE=MASS SPECTRUM
##ORIGIN=NIST Mass Spectrometry Data Center, 1994
##OWNER=NIST Mass Spectrometry Data Center
Collection (C) 2014 copyright by the U.S. Secretary of Commerce
on behalf of the United States of America. All rights reserved.
##CAS REGISTRY NO=31599-61-8
##$NIST MASS SPEC NO=134588
##MOLFORM=C8 H9 I
##MW=232
##$NIST SOURCE=MSDC
##XUNITS=M/Z
##YUNITS=RELATIVE INTENSITY
##XFACTOR=1
##YFACTOR=1
##FIRSTX=14
##LASTX=233
##FIRSTY=4
##MAXX=233
##MINX=14
##MAXY=9999
##MINY=4
##NPOINTS=53
##PEAK TABLE=(XY..XY)
14,4 15,170 26,184 27,1440
29,46 37,240 38,627 39,2271
40,263 41,187 49,204 50,1484
51,2525 52,738 53,595 54,58
55,37 61,351 62,853 63,1978
64,491 65,578 66,81 73,117
74,583 75,437 76,530 77,5065
78,2038 79,5348 80,334 85,93
86,173 87,116 88,93 89,614
90,475 91,91 98,97 101,81
102,483 103,3205 104,1207 105,7793
106,636 107,36 115,51 116,151
127,1159 128,150 217,349 232,9999
233,872
##END=
