##TITLE=3,9-Dimethylbenz[a]anthracene
##JCAMP-DX=4.24
##DATA TYPE=MASS SPECTRUM
##ORIGIN=Organic Synthesis Lab, MSU, Moscow.TRC 420
##OWNER=NIST Mass Spectrometry Data Center
Collection (C) 2014 copyright by the U.S. Secretary of Commerce
on behalf of the United States of America. All rights reserved.
##CAS REGISTRY NO=316-51-8
##$NIST MASS SPEC NO=326121
##MOLFORM=C20 H16
##MW=256
##$NIST SOURCE=MSDC
##XUNITS=M/Z
##YUNITS=RELATIVE INTENSITY
##XFACTOR=1
##YFACTOR=1
##FIRSTX=26
##LASTX=258
##FIRSTY=60
##MAXX=258
##MINX=26
##MAXY=9999
##MINY=20
##NPOINTS=71
##PEAK TABLE=(XY..XY)
26,60 27,200 29,120 38,80
39,180 40,60 41,100 42,80
43,1181 44,90 50,40 51,60
55,50 57,60 58,260 62,30
63,140 74,50 75,60 76,30
87,70 88,110 99,40 100,160
101,410 107,50 112,140 113,550
114,370 115,30 119,110 120,310
121,80 124,70 125,130 126,250
127,490 128,741 150,20 163,80
176,40 187,60 189,100 200,70
201,30 202,90 211,50 213,160
214,20 215,90 224,150 225,60
226,390 227,180 228,140 229,140
237,160 238,80 239,1411 240,520
241,470 242,100 250,170 251,100
252,310 253,300 254,260 255,1401
256,9999 257,2222 258,250
##END=
