##TITLE=Thioproperazine
##JCAMP-DX=4.24
##DATA TYPE=MASS SPECTRUM
##ORIGIN=AAFS Toxicology Section MS DB Committee, U. Alberta, Canada
##OWNER=NIST Mass Spectrometry Data Center
Collection (C) 2014 copyright by the U.S. Secretary of Commerce
on behalf of the United States of America. All rights reserved.
##CAS REGISTRY NO=316-81-4
##$NIST MASS SPEC NO=247143
##MOLFORM=C22 H30 N4 O2 S2
##MW=446
##$NIST SOURCE=MSDC
##XUNITS=M/Z
##YUNITS=RELATIVE INTENSITY
##XFACTOR=1
##YFACTOR=1
##FIRSTX=30
##LASTX=448
##FIRSTY=720
##MAXX=448
##MINX=30
##MAXY=9999
##MINY=10
##NPOINTS=222
##PEAK TABLE=(XY..XY)
30,720 33,10 34,50 36,20
37,10 39,380 41,1471 42,6565
43,6235 44,2001 45,380 47,180
50,430 52,170 54,340 55,370
56,2592 57,1251 58,1241 59,390
63,290 64,60 65,170 66,60
67,160 68,330 69,690 70,9999
71,2912 72,850 73,190 74,200
75,150 77,80 79,150 81,280
82,530 83,710 84,1121 85,1201
86,280 88,50 89,150 91,60
92,160 93,270 95,480 96,690
97,1401 98,1501 99,1431 101,140
102,10 103,10 105,140 107,50
108,240 109,300 110,110 111,1371
113,8017 114,1611 115,330 116,100
119,50 121,140 122,170 123,30
124,80 126,430 127,5454 128,950
129,150 131,110 132,160 134,280
135,200 136,190 139,910 140,540
141,3433 142,350 144,10 146,50
148,90 149,30 151,130 152,370
153,550 154,570 155,120 156,30
157,50 158,120 160,60 163,70
164,240 165,220 166,280 167,590
168,100 169,290 170,350 171,460
173,120 175,120 176,70 177,180
178,530 179,920 180,800 181,240
183,300 184,290 185,330 186,150
188,20 189,70 191,200 193,240
194,270 196,2372 197,2031 198,2572
199,1131 200,300 201,180 202,110
203,80 205,120 206,330 207,270
208,470 210,1811 211,1721 212,3953
213,760 214,980 215,150 216,190
222,520 223,1301 224,1111 225,650
226,270 228,210 233,40 236,360
237,420 238,1421 239,550 240,290
241,70 243,100 246,60 249,50
252,70 253,120 254,70 255,10
256,60 259,50 262,80 264,50
265,180 267,260 269,120 276,50
280,120 281,120 285,60 287,600
288,50 289,120 292,40 296,50
303,50 305,370 306,760 307,210
308,10 309,40 313,60 314,50
315,50 319,1080 320,3353 321,750
322,430 323,50 329,120 330,110
332,1321 334,320 335,100 337,60
338,1311 339,320 340,110 341,50
345,760 346,470 356,70 358,100
361,50 369,60 375,50 388,130
393,50 395,50 399,50 402,180
403,170 404,60 412,60 417,50
418,80 431,50 444,110 446,1060
447,330 448,230
##END=
