##TITLE=3-Buten-2-one, 4-(4-chlorophenyl)-
##JCAMP-DX=4.24
##DATA TYPE=MASS SPECTRUM
##ORIGIN=Japan AIST/NIMC Database- Spectrum MS-IW-5401
##OWNER=NIST Mass Spectrometry Data Center
Collection (C) 2014 copyright by the U.S. Secretary of Commerce
on behalf of the United States of America. All rights reserved.
##CAS REGISTRY NO=3160-40-5
##$NIST MASS SPEC NO=242453
##MOLFORM=C10 H9 Cl O
##MW=180
##$NIST SOURCE=MSDC
##XUNITS=M/Z
##YUNITS=RELATIVE INTENSITY
##XFACTOR=1
##YFACTOR=1
##FIRSTX=15
##LASTX=184
##FIRSTY=80
##MAXX=184
##MINX=15
##MAXY=9999
##MINY=10
##NPOINTS=97
##PEAK TABLE=(XY..XY)
15,80 27,30 28,20 36,10
37,20 38,50 39,99 41,10
42,30 43,1159 44,30 49,30
50,409 51,999 52,70 53,20
55,10 57,90 58,199 61,60
62,109 63,209 64,20 65,30
68,189 69,60 72,159 73,90
74,299 75,1069 76,349 77,119
78,10 82,299 83,90 84,30
85,70 86,50 87,70 88,20
89,70 90,60 91,40 97,20
98,70 99,90 100,70 101,2019
102,2149 103,229 104,10 109,10
110,20 111,189 112,30 113,80
114,50 115,259 116,119 117,149
118,10 125,30 126,20 127,70
128,30 129,20 130,20 135,10
136,209 137,3619 138,409 139,1199
140,99 141,10 144,50 145,2849
146,309 147,20 149,20 151,20
152,20 153,10 162,10 163,20
164,10 165,9999 166,989 167,3289
168,329 169,10 178,10 179,1749
180,5459 181,1209 182,1779 183,219
184,10
##END=
