##TITLE=2-Aminononadecane
##JCAMP-DX=4.24
##DATA TYPE=MASS SPECTRUM
##ORIGIN=NIST Mass Spectrometry Data Center, 1990.
##OWNER=NIST Mass Spectrometry Data Center
Collection (C) 2014 copyright by the U.S. Secretary of Commerce
on behalf of the United States of America. All rights reserved.
##CAS REGISTRY NO=31604-55-4
##$NIST MASS SPEC NO=118363
##MOLFORM=C19 H41 N
##MW=283
##$NIST SOURCE=MSDC
##XUNITS=M/Z
##YUNITS=RELATIVE INTENSITY
##XFACTOR=1
##YFACTOR=1
##FIRSTX=15
##LASTX=284
##FIRSTY=15
##MAXX=284
##MINX=15
##MAXY=9999
##MINY=2
##NPOINTS=76
##PEAK TABLE=(XY..XY)
15,15 18,390 19,2 27,151
28,121 29,455 30,350 31,4
32,3 39,107 41,956 42,385
43,1776 44,9999 45,311 46,3
51,3 52,7 53,47 54,75
55,650 56,394 57,571 58,68
59,23 65,8 66,9 67,78
68,39 69,281 70,195 71,139
72,10 73,6 77,5 79,14
80,5 81,34 82,30 83,138
84,40 85,51 86,11 93,3
95,19 96,13 97,68 98,17
99,7 100,15 109,6 110,5
111,21 112,12 113,3 114,5
124,2 125,6 126,8 128,2
139,3 140,7 154,5 156,3
168,7 182,5 196,2 198,2
254,3 266,3 268,355 269,78
270,6 282,66 283,18 284,5
##END=
