##TITLE=3,4-Methylenedioxybenzylidene acetone
##JCAMP-DX=4.24
##DATA TYPE=MASS SPECTRUM
##ORIGIN=NIST Mass Spectrometry Data Center
##OWNER=NIST Mass Spectrometry Data Center
Collection (C) 2014 copyright by the U.S. Secretary of Commerce
on behalf of the United States of America. All rights reserved.
##CAS REGISTRY NO=3160-37-0
##$NIST MASS SPEC NO=340739
##MOLFORM=C11 H10 O3
##MW=190
##$NIST SOURCE=MSDC
##XUNITS=M/Z
##YUNITS=RELATIVE INTENSITY
##XFACTOR=1
##YFACTOR=1
##FIRSTX=14
##LASTX=192
##FIRSTY=20
##MAXX=192
##MINX=14
##MAXY=9999
##MINY=10
##NPOINTS=101
##PEAK TABLE=(XY..XY)
14,20 15,260 26,90 27,150
29,330 30,70 31,40 37,140
38,390 39,1371 40,60 41,60
42,190 43,2983 44,140 49,80
50,811 51,1241 52,220 53,641
54,40 55,60 57,10 58,20
59,20 60,10 61,350 62,1712
63,4074 64,420 65,771 66,170
67,50 68,10 69,10 73,981
74,370 75,310 76,240 77,811
78,200 79,210 80,60 81,40
84,10 85,90 86,300 87,1331
88,540 89,7537 90,761 91,721
92,130 93,10 94,20 95,40
98,50 99,10 100,10 101,110
102,250 103,621 104,190 105,130
106,20 107,10 113,30 114,20
115,140 116,100 117,5255 118,591
119,110 120,80 121,90 122,20
129,20 130,30 131,490 132,360
133,70 134,20 135,70 143,30
145,9999 146,1201 147,1301 148,130
149,30 159,60 160,290 161,250
162,70 173,50 175,7867 176,821
177,80 189,2803 190,7627 191,911
192,90
##END=
