##TITLE=1-(4-Hydroxybenzylidene)acetone
##JCAMP-DX=4.24
##DATA TYPE=MASS SPECTRUM
##ORIGIN=NIST Mass Spectrometry Data Center
##OWNER=NIST Mass Spectrometry Data Center
Collection (C) 2014 copyright by the U.S. Secretary of Commerce
on behalf of the United States of America. All rights reserved.
##CAS REGISTRY NO=3160-35-8
##$NIST MASS SPEC NO=340735
##MOLFORM=C10 H10 O2
##MW=162
##$NIST SOURCE=MSDC
##XUNITS=M/Z
##YUNITS=RELATIVE INTENSITY
##XFACTOR=1
##YFACTOR=1
##FIRSTX=15
##LASTX=164
##FIRSTY=160
##MAXX=164
##MINX=15
##MAXY=9999
##MINY=10
##NPOINTS=86
##PEAK TABLE=(XY..XY)
15,160 26,60 27,190 29,90
31,10 37,60 38,230 39,1161
40,100 41,140 42,110 43,1631
44,50 45,150 49,30 50,360
51,701 52,130 53,380 54,30
55,170 57,10 58,10 59,250
61,130 62,420 63,1041 64,370
65,1992 66,320 67,100 68,20
72,10 74,230 75,270 76,90
77,420 78,90 79,180 80,10
81,60 85,30 86,60 87,70
88,30 89,991 90,380 91,3313
92,360 93,60 94,50 98,30
99,10 101,210 102,110 103,150
104,20 105,210 106,20 107,110
108,10 113,10 114,10 115,170
116,30 117,40 118,581 119,4214
120,400 121,40 127,30 131,110
132,30 133,270 134,50 143,30
144,20 145,701 146,200 147,9999
148,1031 149,90 161,2352 162,4154
163,450 164,30
##END=
