##TITLE=Decyl 4-nitrophenyl ether
##JCAMP-DX=4.24
##DATA TYPE=MASS SPECTRUM
##ORIGIN=NIST Mass Spectrometry Data Center, 1994
##OWNER=NIST Mass Spectrometry Data Center
Collection (C) 2014 copyright by the U.S. Secretary of Commerce
on behalf of the United States of America. All rights reserved.
##CAS REGISTRY NO=31657-37-1
##$NIST MASS SPEC NO=135564
##MOLFORM=C16 H25 N O3
##MW=279
##$NIST SOURCE=MSDC
##XUNITS=M/Z
##YUNITS=RELATIVE INTENSITY
##XFACTOR=1
##YFACTOR=1
##FIRSTX=12
##LASTX=281
##FIRSTY=26
##MAXX=281
##MINX=12
##MAXY=9999
##MINY=13
##NPOINTS=100
##PEAK TABLE=(XY..XY)
12,26 15,52 17,18 18,64
26,124 27,2047 29,4573 30,696
37,31 38,219 39,1657 40,31
41,7868 42,1570 43,9999 44,351
45,16 50,365 51,202 52,132
53,579 54,365 55,4141 56,1919
57,7156 58,267 61,16 62,94
63,535 64,466 65,782 66,159
67,399 68,265 69,1960 70,1459
71,2781 72,138 74,83 75,419
76,583 77,196 78,220 79,155
80,128 81,319 82,323 83,1764
84,891 85,2351 86,125 89,13
90,19 91,120 92,299 93,451
94,168 95,54 96,240 97,1359
98,490 99,308 100,23 103,20
105,54 106,247 107,185 108,20
109,1455 110,198 111,623 112,347
113,27 118,16 119,30 120,23
122,375 123,1285 124,588 125,85
131,51 133,71 135,24 136,29
139,1128 140,1104 141,650 142,46
152,273 153,29 165,16 166,13
249,68 250,20 262,214 263,88
264,13 279,1098 280,214 281,31
##END=
