##TITLE=9,12-Tetradecadien-1-ol, acetate, (Z,E)-
##JCAMP-DX=4.24
##DATA TYPE=MASS SPECTRUM
##ORIGIN=NIST Mass Spectrometry Data Center, 1998.
##OWNER=NIST Mass Spectrometry Data Center
Collection (C) 2014 copyright by the U.S. Secretary of Commerce
on behalf of the United States of America. All rights reserved.
##CAS REGISTRY NO=31654-77-0
##$NIST MASS SPEC NO=291634
##MOLFORM=C16 H28 O2
##MW=252
##$NIST SOURCE=MSDC
##XUNITS=M/Z
##YUNITS=RELATIVE INTENSITY
##XFACTOR=1
##YFACTOR=1
##FIRSTX=14
##LASTX=253
##FIRSTY=10
##MAXX=253
##MINX=14
##MAXY=9999
##MINY=10
##NPOINTS=126
##PEAK TABLE=(XY..XY)
14,10 15,100 26,30 27,560
28,140 29,1000 30,30 31,80
37,10 38,40 39,1550 40,310
41,4550 42,650 43,9129 44,270
45,70 50,50 51,240 52,190
53,2090 54,1520 55,6539 56,440
57,480 58,40 59,10 60,20
61,710 62,20 63,60 64,20
65,800 66,1000 67,9999 68,7819
69,2150 70,160 71,180 72,20
73,330 74,20 75,10 76,10
77,1490 78,610 79,9309 80,3820
81,9019 82,5869 83,940 84,70
85,150 86,20 87,20 89,10
91,1150 92,340 93,4290 94,3670
95,5079 96,2750 97,480 98,60
99,20 100,10 101,10 102,10
103,30 104,10 105,230 106,100
107,2200 108,1380 109,1240 110,1730
111,310 112,30 113,10 114,10
115,20 116,10 117,20 119,50
120,70 121,2420 122,860 123,420
124,600 125,110 126,10 127,10
128,10 129,10 131,10 133,30
134,30 135,1520 136,620 137,130
138,40 139,10 140,10 141,10
143,10 147,10 148,10 149,690
150,260 151,70 153,10 155,10
161,10 163,340 164,260 165,30
167,10 177,40 178,10 191,50
192,1070 193,160 209,50 210,10
252,50 253,10
##END=
