##TITLE=Ethanone, 1-(2-methyl-1-cyclopenten-1-yl)-
##JCAMP-DX=4.24
##DATA TYPE=MASS SPECTRUM
##ORIGIN=Chuck Anderson, Aldrich Chemical Co.
##OWNER=NIST Mass Spectrometry Data Center
Collection (C) 2014 copyright by the U.S. Secretary of Commerce
on behalf of the United States of America. All rights reserved.
##CAS REGISTRY NO=3168-90-9
##$NIST MASS SPEC NO=108222
##MOLFORM=C8 H12 O
##MW=124
##$NIST SOURCE=MSDC
##XUNITS=M/Z
##YUNITS=RELATIVE INTENSITY
##XFACTOR=1
##YFACTOR=1
##FIRSTX=14
##LASTX=126
##FIRSTY=17
##MAXX=126
##MINX=14
##MAXY=9999
##MINY=1
##NPOINTS=83
##PEAK TABLE=(XY..XY)
14,17 15,230 16,5 25,1
26,69 27,733 28,83 29,183
30,5 31,11 32,2 33,6
37,54 38,185 39,1612 40,298
41,1603 42,176 43,5071 44,118
45,54 46,8 47,7 49,31
50,423 51,824 52,489 53,2644
54,178 55,480 56,26 57,8
58,22 59,5 60,4 61,36
62,95 63,219 64,53 65,606
66,375 67,375 68,35 69,41
70,7 71,13 73,13 74,66
75,31 76,4 77,1041 78,127
79,5216 80,473 81,3586 82,246
83,23 84,2 85,1 86,4
87,3 89,8 91,138 92,20
93,40 94,19 95,73 96,15
97,2 102,1 103,14 105,36
106,12 107,37 109,9999 110,679
111,44 121,2 122,2 123,1
124,4782 125,391 126,26
##END=
