##TITLE=1-Naphthol, 5,7-dimethyl-
##JCAMP-DX=4.24
##DATA TYPE=MASS SPECTRUM
##ORIGIN=CONTINENTAL OIL CO., PONCA CITY, OKLA, USA
##OWNER=NIST Mass Spectrometry Data Center
Collection (C) 2014 copyright by the U.S. Secretary of Commerce
on behalf of the United States of America. All rights reserved.
##CAS REGISTRY NO=31706-76-0
##$NIST MASS SPEC NO=35131
##MOLFORM=C12 H12 O
##MW=172
##$NIST SOURCE=MSDC
##XUNITS=M/Z
##YUNITS=RELATIVE INTENSITY
##XFACTOR=1
##YFACTOR=1
##FIRSTX=13
##LASTX=174
##FIRSTY=6
##MAXX=174
##MINX=13
##MAXY=9999
##MINY=4
##NPOINTS=94
##PEAK TABLE=(XY..XY)
13,6 14,12 15,61 16,21
25,18 26,62 27,236 28,80
29,228 30,4 37,43 38,124
39,533 40,77 41,82 42,13
43,40 44,22 50,327 51,650
52,142 53,159 54,14 55,80
56,10 57,126 58,145 61,72
62,246 63,644 64,341 65,232
66,4 69,94 70,145 71,99
72,337 73,23 74,238 75,335
76,445 77,502 78,170 79,582
80,28 84,165 85,200 86,691
87,167 88,81 89,246 90,66
91,206 98,112 99,72 101,127
102,271 103,181 104,8 113,106
114,131 115,1420 116,354 117,107
126,195 127,808 128,2145 129,2352
130,283 131,185 139,313 140,118
141,598 142,277 143,755 144,739
145,188 146,80 148,67 151,131
152,313 153,217 154,112 155,313
156,121 157,3041 158,843 159,103
169,96 170,118 171,1311 172,9999
173,1294 174,103
##END=
