##TITLE=4,5-Dimethyl-ortho-phenylenediamine
##JCAMP-DX=4.24
##DATA TYPE=MASS SPECTRUM
##ORIGIN=Japan AIST/NIMC Database- Spectrum MS-NW-3606
##OWNER=NIST Mass Spectrometry Data Center
Collection (C) 2014 copyright by the U.S. Secretary of Commerce
on behalf of the United States of America. All rights reserved.
##CAS REGISTRY NO=3171-45-7
##$NIST MASS SPEC NO=231865
##MOLFORM=C8 H12 N2
##MW=136
##$NIST SOURCE=MSDC
##XUNITS=M/Z
##YUNITS=RELATIVE INTENSITY
##XFACTOR=1
##YFACTOR=1
##FIRSTX=15
##LASTX=138
##FIRSTY=50
##MAXX=138
##MINX=15
##MAXY=9999
##MINY=10
##NPOINTS=84
##PEAK TABLE=(XY..XY)
15,50 26,20 27,149 28,299
29,40 30,109 37,50 38,139
39,589 40,129 41,399 42,299
43,70 44,20 45,10 46,20
47,50 48,20 49,10 50,99
51,249 52,249 53,249 54,389
55,60 56,50 58,40 59,40
60,139 61,30 62,50 63,139
64,80 65,439 66,349 67,269
68,449 69,30 73,10 74,30
75,40 76,70 77,349 78,179
79,199 80,209 81,159 82,40
86,10 87,10 88,10 89,90
90,90 91,629 92,639 93,869
94,659 95,169 96,40 102,30
103,40 104,249 105,80 106,379
107,279 108,1549 109,229 110,10
116,70 117,149 118,719 119,669
120,849 121,3379 122,299 123,20
131,30 132,40 133,99 134,179
135,4439 136,9999 137,919 138,40
##END=
