##TITLE=Thiophene, 2,5-dichloro-
##JCAMP-DX=4.24
##DATA TYPE=MASS SPECTRUM
##ORIGIN=Japan AIST/NIMC Database- Spectrum MS-NW-1143
##OWNER=NIST Mass Spectrometry Data Center
Collection (C) 2014 copyright by the U.S. Secretary of Commerce
on behalf of the United States of America. All rights reserved.
##CAS REGISTRY NO=3172-52-9
##$NIST MASS SPEC NO=230407
##MOLFORM=C4 H2 Cl2 S
##MW=152
##$NIST SOURCE=MSDC
##XUNITS=M/Z
##YUNITS=RELATIVE INTENSITY
##XFACTOR=1
##YFACTOR=1
##FIRSTX=12
##LASTX=158
##FIRSTY=30
##MAXX=158
##MINX=12
##MAXY=9999
##MINY=10
##NPOINTS=81
##PEAK TABLE=(XY..XY)
12,30 14,20 24,20 25,50
26,40 28,10 32,40 33,10
35,99 36,129 37,669 38,489
39,20 40,60 41,139 43,20
44,309 45,1009 46,30 47,299
48,70 49,189 50,129 55,10
56,149 57,979 58,369 59,159
60,139 61,20 62,40 67,10
68,129 69,1029 70,50 71,119
72,249 73,3659 74,179 75,1139
76,359 77,219 78,50 79,1659
80,149 81,979 82,669 83,109
84,129 85,30 86,30 91,119
92,999 93,80 94,359 95,20
96,20 103,50 105,20 107,229
108,20 109,139 110,10 111,20
115,50 116,289 117,2649 118,279
119,989 120,70 121,50 126,40
128,30 151,40 152,9999 153,579
154,6749 155,359 156,1279 157,70
158,50
##END=
