##TITLE=Cyclohexane, isocyanato-
##JCAMP-DX=4.24
##DATA TYPE=MASS SPECTRUM
##ORIGIN=NIST Mass Spectrometry Data Center, 1998.
##OWNER=NIST Mass Spectrometry Data Center
Collection (C) 2014 copyright by the U.S. Secretary of Commerce
on behalf of the United States of America. All rights reserved.
##CAS REGISTRY NO=3173-53-3
##$NIST MASS SPEC NO=291520
##MOLFORM=C7 H11 N O
##MW=125
##$NIST SOURCE=MSDC
##XUNITS=M/Z
##YUNITS=RELATIVE INTENSITY
##XFACTOR=1
##YFACTOR=1
##FIRSTX=14
##LASTX=126
##FIRSTY=10
##MAXX=126
##MINX=14
##MAXY=9999
##MINY=10
##NPOINTS=67
##PEAK TABLE=(XY..XY)
14,10 15,110 26,380 27,2200
28,1270 29,840 30,90 33,20
37,130 38,380 39,3930 40,1200
41,8199 42,3580 43,1720 44,150
46,80 47,10 49,40 50,330
51,620 52,480 53,1380 54,6159
55,3950 56,5509 57,270 58,230
59,40 60,10 61,30 62,50
63,120 64,80 65,280 66,300
67,9999 68,1910 69,6359 70,1050
71,180 74,20 75,20 76,10
77,240 78,110 79,620 80,710
81,1160 82,8919 83,2130 84,260
85,150 92,10 93,10 94,40
95,40 96,2540 97,9019 98,630
99,170 108,60 110,440 111,30
124,560 125,960 126,80
##END=
