##TITLE=3-Hydroxy-2,2,4-trimethyl-3-pentenoic acid .beta.-lactone
##JCAMP-DX=4.24
##DATA TYPE=MASS SPECTRUM
##ORIGIN=Chuck Anderson, Aldrich Chemical Co.
##OWNER=NIST Mass Spectrometry Data Center
Collection (C) 2014 copyright by the U.S. Secretary of Commerce
on behalf of the United States of America. All rights reserved.
##CAS REGISTRY NO=3173-79-3
##$NIST MASS SPEC NO=107735
##MOLFORM=C8 H12 O2
##MW=140
##$NIST SOURCE=MSDC
##XUNITS=M/Z
##YUNITS=RELATIVE INTENSITY
##XFACTOR=1
##YFACTOR=1
##FIRSTX=14
##LASTX=143
##FIRSTY=6
##MAXX=143
##MINX=14
##MAXY=9999
##MINY=1
##NPOINTS=84
##PEAK TABLE=(XY..XY)
14,6 15,115 16,4 25,7
26,121 27,942 28,148 29,233
30,6 31,22 32,1 36,6
37,104 38,328 39,3999 40,921
41,5582 42,6832 43,895 44,53
45,29 46,17 47,3 48,1
49,9 50,104 51,179 52,70
53,562 54,175 55,401 56,170
57,32 58,3 59,4 61,12
62,34 63,78 64,15 65,180
66,97 67,354 68,131 69,2145
70,9999 71,510 72,32 73,5
74,19 75,7 76,3 77,225
78,37 79,874 80,83 81,3228
82,239 83,56 84,578 85,43
86,2 89,1 91,42 92,4
93,43 94,8 95,170 96,1156
97,259 98,18 99,1 101,4
109,9 110,4 111,37 112,45
113,6 123,12 124,2 125,3
140,3124 141,277 142,24 143,1
##END=
