##TITLE=Heptane, 4-propyl-
##JCAMP-DX=4.24
##DATA TYPE=MASS SPECTRUM
##ORIGIN=NIST Mass Spectrometry Data Center, 1990.
##OWNER=NIST Mass Spectrometry Data Center
Collection (C) 2014 copyright by the U.S. Secretary of Commerce
on behalf of the United States of America. All rights reserved.
##CAS REGISTRY NO=3178-29-8
##$NIST MASS SPEC NO=113938
##MOLFORM=C10 H22
##MW=142
##$NIST SOURCE=MSDC
##XUNITS=M/Z
##YUNITS=RELATIVE INTENSITY
##XFACTOR=1
##YFACTOR=1
##FIRSTX=15
##LASTX=142
##FIRSTY=42
##MAXX=142
##MINX=15
##MAXY=9999
##MINY=35
##NPOINTS=33
##PEAK TABLE=(XY..XY)
15,42 27,1077 28,256 29,1237
39,1051 41,3543 42,1009 43,2532
44,98 51,87 52,44 53,324
54,168 55,1436 56,1320 57,9999
58,462 65,77 67,143 68,112
69,589 70,1009 71,475 77,48
83,140 84,113 85,114 98,2963
99,564 100,35 112,123 113,44
142,155
##END=
