##TITLE=4-Methoxy-.beta.-nitrostyrene
##JCAMP-DX=4.24
##DATA TYPE=MASS SPECTRUM
##ORIGIN=NIST Mass Spectrometry Data Center, 1994
##OWNER=NIST Mass Spectrometry Data Center
Collection (C) 2014 copyright by the U.S. Secretary of Commerce
on behalf of the United States of America. All rights reserved.
##CAS REGISTRY NO=3179-10-0
##$NIST MASS SPEC NO=135043
##MOLFORM=C9 H9 N O3
##MW=179
##$NIST SOURCE=MSDC
##XUNITS=M/Z
##YUNITS=RELATIVE INTENSITY
##XFACTOR=1
##YFACTOR=1
##FIRSTX=15
##LASTX=181
##FIRSTY=873
##MAXX=181
##MINX=15
##MAXY=9999
##MINY=3
##NPOINTS=98
##PEAK TABLE=(XY..XY)
15,873 16,3 18,72 26,141
27,425 28,326 29,284 30,1362
31,85 32,40 37,194 38,638
39,1293 40,226 41,192 42,42
43,132 44,39 46,265 50,1581
51,1786 52,618 53,556 54,87
55,269 59,109 61,324 62,1284
63,3396 64,1739 65,781 66,317
67,125 68,109 69,274 73,84
74,689 75,887 76,1010 77,3727
78,1381 79,1426 80,274 81,310
82,73 85,69 86,158 87,184
88,69 89,4558 90,3218 91,1072
92,1546 93,258 94,212 95,363
96,1517 97,142 98,173 99,42
100,42 101,435 102,953 103,1108
104,261 105,241 106,247 107,243
108,919 109,252 110,44 111,69
115,87 117,2205 118,1996 119,358
120,300 121,2163 122,245 123,151
124,174 130,57 132,9999 133,1648
134,511 135,443 136,230 137,33
146,150 147,102 148,222 149,154
150,48 162,585 163,96 179,5310
180,559 181,63
##END=
