##TITLE=Cyclohexane, (1,1-dimethylpropyl)-
##JCAMP-DX=4.24
##DATA TYPE=MASS SPECTRUM
##ORIGIN=NIST Mass Spectrometry Data Center, 1990.
##OWNER=NIST Mass Spectrometry Data Center
Collection (C) 2014 copyright by the U.S. Secretary of Commerce
on behalf of the United States of America. All rights reserved.
##CAS REGISTRY NO=31797-64-5
##$NIST MASS SPEC NO=113923
##MOLFORM=C11 H22
##MW=154
##$NIST SOURCE=MSDC
##XUNITS=M/Z
##YUNITS=RELATIVE INTENSITY
##XFACTOR=1
##YFACTOR=1
##FIRSTX=27
##LASTX=139
##FIRSTY=1077
##MAXX=139
##MINX=27
##MAXY=9999
##MINY=46
##NPOINTS=42
##PEAK TABLE=(XY..XY)
27,1077 28,137 29,1480 39,1516
40,337 41,3811 42,900 43,4329
44,170 50,50 51,185 52,111
53,759 54,617 55,4682 56,381
57,990 58,46 65,218 67,1592
69,3811 70,9999 71,5615 72,266
77,228 78,55 79,307 80,73
81,506 82,985 83,2100 84,129
91,76 95,77 97,309 109,65
110,62 111,90 124,541 125,1690
126,140 139,69
##END=
