##TITLE=4-Pyridinamine, 3,5-dinitro-
##JCAMP-DX=4.24
##DATA TYPE=MASS SPECTRUM
##ORIGIN=A.A.Kutin, Moscow, Russia
##OWNER=NIST Mass Spectrometry Data Center
Collection (C) 2014 copyright by the U.S. Secretary of Commerce
on behalf of the United States of America. All rights reserved.
##CAS REGISTRY NO=31793-29-0
##$NIST MASS SPEC NO=258220
##MOLFORM=C5 H4 N4 O4
##MW=184
##$NIST SOURCE=MSDC
##XUNITS=M/Z
##YUNITS=RELATIVE INTENSITY
##XFACTOR=1
##YFACTOR=1
##FIRSTX=33
##LASTX=187
##FIRSTY=4
##MAXX=187
##MINX=33
##MAXY=9999
##MINY=1
##NPOINTS=105
##PEAK TABLE=(XY..XY)
33,4 34,7 36,40 37,882
38,1893 39,381 40,103 41,279
44,47 46,5024 48,26 49,57
50,102 51,482 52,2581 53,1333
54,105 55,196 56,44 57,18
59,22 60,7 62,69 63,354
64,1454 65,4338 66,411 67,395
68,1989 69,158 70,63 71,65
72,48 73,2 74,6 75,72
76,201 77,247 78,159 79,130
80,190 81,150 82,62 83,163
84,15 85,6 86,1 87,2
88,3 89,14 90,109 91,149
92,395 93,175 94,156 95,56
96,41 97,10 99,14 100,3
104,72 106,45 107,26 108,41
109,36 110,17 111,5 112,4
119,2 120,14 121,128 122,46
123,17 124,12 126,133 127,7
128,3 134,2 136,14 138,1256
139,129 140,11 141,1 150,29
151,3 152,5 154,545 155,28
156,3 165,1 166,71 167,60
168,82 169,7 171,2 172,1
173,4 174,1 175,1 179,1
180,4 184,9999 185,732 186,118
187,7
##END=
