##TITLE=1-Propanamine, 3-(diethoxymethylsilyl)-
##JCAMP-DX=4.24
##DATA TYPE=MASS SPECTRUM
##ORIGIN=Japan AIST/NIMC Database- Spectrum MS-IW- 655
##OWNER=NIST Mass Spectrometry Data Center
Collection (C) 2014 copyright by the U.S. Secretary of Commerce
on behalf of the United States of America. All rights reserved.
##CAS REGISTRY NO=3179-76-8
##$NIST MASS SPEC NO=237020
##MOLFORM=C8 H21 N O2 Si
##MW=191
##$NIST SOURCE=MSDC
##XUNITS=M/Z
##YUNITS=RELATIVE INTENSITY
##XFACTOR=1
##YFACTOR=1
##FIRSTX=14
##LASTX=193
##FIRSTY=30
##MAXX=193
##MINX=14
##MAXY=9999
##MINY=10
##NPOINTS=134
##PEAK TABLE=(XY..XY)
14,30 15,90 25,10 26,109
27,459 28,299 29,329 30,1989
31,2719 32,30 33,10 34,30
35,279 36,269 37,40 38,10
39,50 40,10 41,90 42,119
43,489 44,419 45,2389 46,819
47,329 48,10 49,20 50,40
51,20 52,10 53,10 54,30
55,60 56,249 57,90 58,469
59,179 60,249 61,1029 62,199
63,159 64,199 65,30 67,10
69,10 70,80 71,159 72,159
73,2449 74,539 75,299 76,719
77,2499 78,339 79,129 80,10
82,80 83,30 84,179 85,70
86,369 87,269 88,1159 89,2679
90,529 91,219 92,30 93,10
95,20 96,90 97,40 98,1079
99,289 100,2589 101,729 102,2949
103,509 104,6699 105,3149 106,579
107,139 108,10 112,10 113,10
114,60 115,119 116,2969 117,2859
118,1339 119,359 120,139 121,20
122,10 123,10 126,10 128,60
129,20 130,2749 131,379 132,159
133,9999 134,1559 135,499 136,50
137,10 138,30 142,10 143,20
144,1319 145,4379 146,1619 147,419
148,649 149,139 150,139 151,20
153,50 158,30 159,189 160,40
161,40 162,1169 163,249 164,70
165,10 174,40 175,20 176,529
177,70 178,20 190,20 191,40
192,60 193,10
##END=
