##TITLE=1,3-Bis-(methylthio)-2-methoxypropane
##JCAMP-DX=4.24
##DATA TYPE=MASS SPECTRUM
##ORIGIN=Japan AIST/NIMC Database- Spectrum MS-IW-7594
##OWNER=NIST Mass Spectrometry Data Center
Collection (C) 2014 copyright by the U.S. Secretary of Commerce
on behalf of the United States of America. All rights reserved.
##CAS REGISTRY NO=31805-84-2
##$NIST MASS SPEC NO=237670
##MOLFORM=C6 H14 O S2
##MW=166
##$NIST SOURCE=MSDC
##XUNITS=M/Z
##YUNITS=RELATIVE INTENSITY
##XFACTOR=1
##YFACTOR=1
##FIRSTX=14
##LASTX=169
##FIRSTY=10
##MAXX=169
##MINX=14
##MAXY=9999
##MINY=10
##NPOINTS=89
##PEAK TABLE=(XY..XY)
14,10 15,109 26,20 27,379
28,169 29,139 30,20 31,119
32,50 33,10 34,10 35,339
37,20 38,20 39,299 40,40
41,659 42,119 43,439 44,50
45,1099 46,289 47,579 48,159
49,50 50,10 53,99 54,10
55,40 56,40 57,139 58,519
59,249 60,99 61,4239 62,1049
63,409 64,60 65,10 67,10
69,30 70,10 71,319 72,239
73,529 74,90 75,1119 76,90
77,70 78,10 79,40 85,60
86,10 87,2529 88,229 89,519
90,1059 91,99 92,50 93,70
94,50 99,40 101,30 103,149
104,149 105,9999 106,549 107,499
108,90 115,10 117,20 118,99
119,60 120,10 121,60 134,3929
135,319 136,369 137,20 138,10
146,10 148,10 151,219 152,10
153,20 166,1499 167,119 168,139
169,10
##END=
