##TITLE=Benzoic acid, 2,4-dihydroxy-6-methyl-, methyl ester
##JCAMP-DX=4.24
##DATA TYPE=MASS SPECTRUM
##ORIGIN=NIST Mass Spectrometry Data Center
##OWNER=NIST Mass Spectrometry Data Center
Collection (C) 2014 copyright by the U.S. Secretary of Commerce
on behalf of the United States of America. All rights reserved.
##CAS REGISTRY NO=3187-58-4
##$NIST MASS SPEC NO=413039
##MOLFORM=C9 H10 O4
##MW=182
##$NIST SOURCE=MSDC
##XUNITS=M/Z
##YUNITS=RELATIVE INTENSITY
##XFACTOR=1
##YFACTOR=1
##FIRSTX=15
##LASTX=184
##FIRSTY=10
##MAXX=184
##MINX=15
##MAXY=9999
##MINY=10
##NPOINTS=78
##PEAK TABLE=(XY..XY)
15,10 26,30 27,170 28,70
29,190 30,30 31,100 33,20
37,70 38,210 39,1161 40,270
41,571 42,170 43,370 45,70
46,30 47,60 49,50 50,410
51,861 52,300 53,1181 54,180
55,611 56,20 59,70 61,100
62,190 63,350 64,160 65,1371
66,2022 67,821 68,100 69,2142
70,90 71,40 73,30 74,110
75,110 76,80 77,500 78,70
79,180 80,40 81,150 82,60
83,50 91,90 92,70 93,320
94,1882 95,310 96,20 97,30
106,40 109,300 110,50 111,80
120,40 121,1101 122,7507 123,641
124,100 125,60 137,70 139,80
149,50 150,9999 151,2913 152,280
153,110 167,50 181,30 182,4004
183,480 184,60
##END=
