##TITLE=Fenoprofen
##JCAMP-DX=4.24
##DATA TYPE=MASS SPECTRUM
##ORIGIN=AAFS Toxicology Section MS DB Committee, U. Alberta, Canada
##OWNER=NIST Mass Spectrometry Data Center
Collection (C) 2014 copyright by the U.S. Secretary of Commerce
on behalf of the United States of America. All rights reserved.
##CAS REGISTRY NO=31879-05-7
##$NIST MASS SPEC NO=246389
##MOLFORM=C15 H14 O3
##MW=242
##$NIST SOURCE=MSDC
##XUNITS=M/Z
##YUNITS=RELATIVE INTENSITY
##XFACTOR=1
##YFACTOR=1
##FIRSTX=38
##LASTX=244
##FIRSTY=120
##MAXX=244
##MINX=38
##MAXY=9999
##MINY=20
##NPOINTS=122
##PEAK TABLE=(XY..XY)
38,120 39,730 40,70 41,110
43,160 45,670 50,570 51,1841
52,280 53,230 54,30 55,320
56,20 57,30 60,30 61,30
62,230 63,930 64,330 65,2312
66,470 67,60 68,40 69,70
71,40 73,90 74,390 75,470
76,650 77,5384 78,2071 79,400
80,40 81,90 82,110 84,80
85,50 86,40 87,90 88,50
89,520 91,6205 92,1060 93,830
94,310 95,120 96,20 97,70
98,470 101,90 102,600 103,2842
104,2632 105,1000 106,130 107,60
109,30 111,20 113,30 114,50
115,820 116,100 117,40 118,30
119,1271 120,350 121,220 122,30
126,50 127,130 128,370 129,230
130,40 131,230 132,30 133,60
134,50 135,20 137,30 138,20
139,290 140,70 141,760 142,150
143,30 147,20 149,20 150,30
151,100 152,550 153,550 154,500
155,240 156,20 157,20 163,30
164,40 165,360 166,80 167,290
168,490 169,720 170,180 171,50
176,50 177,150 178,820 179,600
180,100 181,1030 182,770 183,600
184,90 194,40 195,230 197,9999
198,1761 199,180 224,30 242,6986
243,1181 244,120
##END=
