##TITLE=1H-Indole, 6-methoxy-
##JCAMP-DX=4.24
##DATA TYPE=MASS SPECTRUM
##ORIGIN=J.E. WILKINSON S-CUBED, SAN DIEGO, CA.
##OWNER=NIST Mass Spectrometry Data Center
Collection (C) 2014 copyright by the U.S. Secretary of Commerce
on behalf of the United States of America. All rights reserved.
##CAS REGISTRY NO=3189-13-7
##$NIST MASS SPEC NO=97051
##MOLFORM=C9 H9 N O
##MW=147
##$NIST SOURCE=MSDC
##XUNITS=M/Z
##YUNITS=RELATIVE INTENSITY
##XFACTOR=1
##YFACTOR=1
##FIRSTX=41
##LASTX=149
##FIRSTY=90
##MAXX=149
##MINX=41
##MAXY=9999
##MINY=1
##NPOINTS=62
##PEAK TABLE=(XY..XY)
41,90 42,18 43,30 44,67
49,103 50,1619 51,2441 52,753
53,254 54,59 55,4 57,1
59,274 60,7 61,223 62,765
63,1351 64,287 65,316 66,40
67,7 68,46 74,934 75,462
76,1501 77,2254 78,921 79,64
80,1 84,1 85,50 86,136
87,182 88,225 89,941 90,249
91,225 92,20 99,2 100,1
102,203 103,886 104,5778 105,491
106,7 114,67 115,104 116,524
117,274 118,141 119,167 120,5
130,5 131,224 132,9999 133,954
134,46 144,2 146,783 147,8814
148,928 149,45
##END=
