##TITLE=Tetroquinone
##JCAMP-DX=4.24
##DATA TYPE=MASS SPECTRUM
##ORIGIN=Japan AIST/NIMC Database- Spectrum MS-NW-6980
##OWNER=NIST Mass Spectrometry Data Center
Collection (C) 2014 copyright by the U.S. Secretary of Commerce
on behalf of the United States of America. All rights reserved.
##CAS REGISTRY NO=319-89-1
##$NIST MASS SPEC NO=236192
##MOLFORM=C6 H4 O6
##MW=172
##$NIST SOURCE=MSDC
##XUNITS=M/Z
##YUNITS=RELATIVE INTENSITY
##XFACTOR=1
##YFACTOR=1
##FIRSTX=12
##LASTX=175
##FIRSTY=90
##MAXX=175
##MINX=12
##MAXY=9999
##MINY=10
##NPOINTS=116
##PEAK TABLE=(XY..XY)
12,90 13,99 14,129 15,129
16,20 17,40 18,179 19,20
24,109 25,139 26,40 27,60
28,1169 29,3669 30,419 31,399
32,80 35,70 36,80 37,40
38,10 39,20 40,379 41,1959
42,2369 43,189 44,119 45,149
46,80 47,10 48,10 49,60
50,10 51,20 52,299 53,509
54,99 55,30 56,179 57,30
58,1609 59,639 60,70 61,10
62,10 63,10 64,20 65,20
66,10 67,10 68,399 69,3709
70,8209 71,449 72,189 73,10
74,10 75,10 77,20 78,10
79,20 80,329 81,50 82,40
83,20 85,80 86,60 87,1779
88,109 89,20 91,10 92,10
93,10 96,10 97,20 98,569
99,80 100,30 101,10 105,10
107,10 108,20 109,10 110,20
111,10 115,1069 116,339 117,20
120,20 121,10 124,10 125,10
126,40 127,30 128,20 129,10
136,30 137,10 138,10 142,10
143,80 144,7649 145,499 146,99
147,10 149,10 153,10 154,20
155,10 156,20 170,10 171,10
172,9999 173,779 174,369 175,30
##END=
