##TITLE=1-Propanone, 1-(2-furanyl)-
##JCAMP-DX=4.24
##DATA TYPE=MASS SPECTRUM
##ORIGIN=MASS SPECTRA OF ORGANIC COMPOUNDS, V. 5, B. H. KENNETT ET AL, DIV. OF FOOD RESEARCH, CSIRO, AUSTRALIA
##OWNER=NIST Mass Spectrometry Data Center
Collection (C) 2014 copyright by the U.S. Secretary of Commerce
on behalf of the United States of America. All rights reserved.
##CAS REGISTRY NO=3194-15-8
##$NIST MASS SPEC NO=57703
##MOLFORM=C7 H8 O2
##MW=124
##$NIST SOURCE=MSDC
##XUNITS=M/Z
##YUNITS=RELATIVE INTENSITY
##XFACTOR=1
##YFACTOR=1
##FIRSTX=26
##LASTX=125
##FIRSTY=300
##MAXX=125
##MINX=26
##MAXY=9999
##MINY=100
##NPOINTS=32
##PEAK TABLE=(XY..XY)
26,300 27,1400 29,1500 30,100
37,300 38,800 39,3000 40,300
41,200 42,200 43,100 50,100
51,300 52,100 53,300 55,300
56,100 57,200 63,100 65,100
66,100 67,400 68,200 77,100
81,100 94,100 95,9999 96,900
97,100 123,100 124,3300 125,300
##END=
