##TITLE=.alpha.-Muurolene
##JCAMP-DX=4.24
##DATA TYPE=MASS SPECTRUM
##OWNER=NIST Mass Spectrometry Data Center
Collection (C) 2014 copyright by the U.S. Secretary of Commerce
on behalf of the United States of America. All rights reserved.
##CAS REGISTRY NO=31983-22-9
##$NIST MASS SPEC NO=9233
##MOLFORM=C15 H24
##MW=204
##$NIST SOURCE=MSDC
##XUNITS=M/Z
##YUNITS=RELATIVE INTENSITY
##XFACTOR=1
##YFACTOR=1
##FIRSTX=27
##LASTX=206
##FIRSTY=440
##MAXX=206
##MINX=27
##MAXY=9999
##MINY=50
##NPOINTS=89
##PEAK TABLE=(XY..XY)
27,440 29,390 39,661 40,50
41,2002 42,110 43,1001 51,170
52,80 53,621 54,70 55,1111
56,100 57,220 63,80 64,60
65,430 66,120 67,591 68,90
69,861 70,100 75,60 77,1241
78,290 79,1411 80,330 81,2142
82,180 83,90 89,80 91,2042
92,831 93,3523 94,3523 95,971
96,70 102,60 103,200 104,160
105,9999 106,1551 107,971 108,350
109,230 110,150 115,360 116,170
117,450 118,190 119,2102 120,480
121,1171 122,300 123,931 124,90
127,120 128,260 129,280 130,150
131,360 132,140 133,1281 134,731
135,400 136,420 141,70 142,70
143,70 144,70 145,420 146,120
147,1071 148,731 149,480 150,70
157,60 159,210 160,430 161,6556
162,1071 163,110 175,240 176,70
189,1211 190,190 204,3904 205,691
206,80
##END=
