##TITLE=Benzoic acid, 3,5-dichloro-2-hydroxy-
##JCAMP-DX=4.24
##DATA TYPE=MASS SPECTRUM
##ORIGIN=Japan AIST/NIMC Database- Spectrum MS-NW-3245
##OWNER=NIST Mass Spectrometry Data Center
Collection (C) 2014 copyright by the U.S. Secretary of Commerce
on behalf of the United States of America. All rights reserved.
##CAS REGISTRY NO=320-72-9
##$NIST MASS SPEC NO=231367
##MOLFORM=C7 H4 Cl2 O3
##MW=206
##$NIST SOURCE=MSDC
##XUNITS=M/Z
##YUNITS=RELATIVE INTENSITY
##XFACTOR=1
##YFACTOR=1
##FIRSTX=18
##LASTX=211
##FIRSTY=20
##MAXX=211
##MINX=18
##MAXY=9999
##MINY=10
##NPOINTS=127
##PEAK TABLE=(XY..XY)
18,20 25,20 26,30 27,20
28,149 29,90 31,70 35,30
36,109 37,249 38,129 39,80
41,10 42,10 44,60 45,249
46,10 47,60 48,229 49,179
50,169 51,179 52,20 53,429
54,50 55,20 60,129 61,549
62,909 63,699 64,60 65,30
66,119 67,70 68,20 69,20
71,80 72,189 73,409 74,139
75,119 76,20 77,70 78,10
79,60 80,479 81,309 82,50
83,60 84,40 85,90 86,30
87,80 88,10 89,50 90,99
91,50 92,10 94,399 95,299
96,179 97,1879 98,259 99,659
100,90 101,30 103,50 104,30
106,10 107,80 108,30 109,80
110,10 111,20 113,40 115,129
116,10 117,40 118,10 124,20
125,209 126,329 127,99 128,109
129,10 131,20 132,1519 133,399
134,979 135,249 136,169 137,40
141,20 143,20 144,20 146,10
149,40 151,20 153,459 154,719
155,209 156,239 157,20 160,1789
161,139 162,1129 163,90 164,199
165,10 171,10 172,279 173,30
174,90 177,10 188,9999 189,909
190,6389 191,579 192,1069 193,99
205,10 206,3229 207,259 208,2099
209,159 210,349 211,20
##END=
