##TITLE=Benzenamine, 4-chloro-3-(trifluoromethyl)-
##JCAMP-DX=4.24
##DATA TYPE=MASS SPECTRUM
##ORIGIN=Japan AIST/NIMC Database- Spectrum MS-NW-7104
##OWNER=NIST Mass Spectrometry Data Center
Collection (C) 2014 copyright by the U.S. Secretary of Commerce
on behalf of the United States of America. All rights reserved.
##CAS REGISTRY NO=320-51-4
##$NIST MASS SPEC NO=235719
##MOLFORM=C7 H5 Cl F3 N
##MW=195
##$NIST SOURCE=MSDC
##XUNITS=M/Z
##YUNITS=RELATIVE INTENSITY
##XFACTOR=1
##YFACTOR=1
##FIRSTX=14
##LASTX=199
##FIRSTY=10
##MAXX=199
##MINX=14
##MAXY=9999
##MINY=10
##NPOINTS=153
##PEAK TABLE=(XY..XY)
14,10 15,10 20,30 26,20
27,40 28,379 29,10 31,119
35,20 36,50 37,179 38,209
39,259 40,90 41,379 42,40
44,109 45,109 46,60 47,20
48,10 49,60 50,139 51,109
52,329 53,40 54,60 55,20
56,50 57,129 58,10 59,10
60,40 61,229 62,389 63,839
64,249 65,189 66,80 67,30
68,30 69,209 70,169 71,30
72,80 73,209 74,149 75,279
76,60 77,20 78,20 79,70
80,829 81,149 82,40 83,239
84,40 85,30 86,30 87,90
88,299 89,179 90,389 91,209
92,30 93,70 94,40 95,90
96,30 97,269 98,90 99,499
100,90 101,149 102,30 103,20
104,10 106,30 107,30 108,40
109,70 110,109 111,40 112,90
113,549 114,179 115,30 116,10
117,90 118,50 119,50 120,289
121,40 122,30 123,20 124,20
125,119 126,80 127,50 128,30
129,30 130,20 131,90 132,559
133,369 134,40 135,20 136,30
137,10 138,70 139,149 140,769
141,99 142,10 143,109 144,30
145,879 146,70 147,359 148,1739
149,159 150,569 151,40 154,20
155,30 156,80 157,30 158,90
159,109 160,1159 161,109 162,10
166,20 167,169 168,70 169,60
170,30 173,20 174,249 175,389
176,1389 177,249 178,449 179,109
180,10 181,20 193,10 194,269
195,9999 196,909 197,3329 198,289
199,10
##END=
