##TITLE=Diethyl 3-chlorophenyl phosphate
##JCAMP-DX=4.24
##DATA TYPE=MASS SPECTRUM
##ORIGIN=ASES Database, Dalian Institute, P.R. China
##OWNER=NIST Mass Spectrometry Data Center
Collection (C) 2014 copyright by the U.S. Secretary of Commerce
on behalf of the United States of America. All rights reserved.
##CAS REGISTRY NO=32019-36-6
##$NIST MASS SPEC NO=146035
##MOLFORM=C10 H14 Cl O4 P
##MW=264
##$NIST SOURCE=MSDC
##XUNITS=M/Z
##YUNITS=RELATIVE INTENSITY
##XFACTOR=1
##YFACTOR=1
##FIRSTX=81
##LASTX=266
##FIRSTY=3112
##MAXX=266
##MINX=81
##MAXY=9999
##MINY=200
##NPOINTS=19
##PEAK TABLE=(XY..XY)
81,3112 99,390 109,2702 127,2972
128,9999 130,3212 138,9488 140,3272
201,1191 208,1301 210,400 221,2181
223,590 236,1691 238,590 249,590
251,200 264,3493 266,1090
##END=
