##TITLE=Thiazolo[3,2-a]pyridinium, 3-hydroxy-2-phenyl-, hydroxide, inner salt
##JCAMP-DX=4.24
##DATA TYPE=MASS SPECTRUM
##ORIGIN=K. UNDHEIM
##OWNER=NIST Mass Spectrometry Data Center
Collection (C) 2014 copyright by the U.S. Secretary of Commerce
on behalf of the United States of America. All rights reserved.
##CAS REGISTRY NO=32044-03-4
##$NIST MASS SPEC NO=41604
##MOLFORM=C13 H9 N O S
##MW=227
##$NIST SOURCE=MSDC
##XUNITS=M/Z
##YUNITS=RELATIVE INTENSITY
##XFACTOR=1
##YFACTOR=1
##FIRSTX=39
##LASTX=229
##FIRSTY=700
##MAXX=229
##MINX=39
##MAXY=9999
##MINY=200
##NPOINTS=23
##PEAK TABLE=(XY..XY)
39,700 45,300 50,400 51,2000
52,400 62,300 63,500 69,600
77,3600 78,800 89,200 93,200
121,9999 122,900 123,500 127,300
167,700 198,4100 199,1200 200,300
227,8800 228,1300 229,500
##END=
