##TITLE=3-Decen-5-one, 2-methyl-
##JCAMP-DX=4.24
##DATA TYPE=MASS SPECTRUM
##ORIGIN=CARL DJERASSI DEPT OF CHEM STANFORD UNIV STANFORD CALIF 94305
##OWNER=NIST Mass Spectrometry Data Center
Collection (C) 2014 copyright by the U.S. Secretary of Commerce
on behalf of the United States of America. All rights reserved.
##CAS REGISTRY NO=32064-75-8
##$NIST MASS SPEC NO=46963
##MOLFORM=C11 H20 O
##MW=168
##$NIST SOURCE=MSDC
##XUNITS=M/Z
##YUNITS=RELATIVE INTENSITY
##XFACTOR=1
##YFACTOR=1
##FIRSTX=27
##LASTX=168
##FIRSTY=1300
##MAXX=168
##MINX=27
##MAXY=9999
##MINY=100
##NPOINTS=36
##PEAK TABLE=(XY..XY)
27,1300 28,300 29,1100 39,900
40,200 41,5000 42,400 43,4800
44,200 51,100 53,600 54,200
55,1000 56,100 67,400 68,200
69,2100 70,300 71,2700 72,200
77,100 79,300 80,200 81,100
83,200 95,200 97,9999 98,700
99,3900 100,300 112,3600 113,300
125,1900 126,200 153,100 168,400
##END=
