##TITLE=3-Decen-5-one
##JCAMP-DX=4.24
##DATA TYPE=MASS SPECTRUM
##OWNER=NIST Mass Spectrometry Data Center
Collection (C) 2014 copyright by the U.S. Secretary of Commerce
on behalf of the United States of America. All rights reserved.
##CAS REGISTRY NO=32064-73-6
##$NIST MASS SPEC NO=5114
##MOLFORM=C10 H18 O
##MW=154
##$NIST SOURCE=MSDC
##XUNITS=M/Z
##YUNITS=RELATIVE INTENSITY
##XFACTOR=1
##YFACTOR=1
##FIRSTX=39
##LASTX=154
##FIRSTY=1501
##MAXX=154
##MINX=39
##MAXY=9999
##MINY=200
##NPOINTS=34
##PEAK TABLE=(XY..XY)
39,1501 40,300 41,1702 42,400
43,1401 51,200 53,701 54,300
55,3703 56,300 57,200 65,200
67,400 69,200 70,200 71,300
77,300 79,300 81,200 83,9999
84,601 86,400 91,200 95,400
97,300 98,3503 99,601 111,1201
112,500 113,400 121,400 125,1501
126,200 154,200
##END=
