##TITLE=Tetrahydrofuran, 2-hexyl-
##JCAMP-DX=4.24
##DATA TYPE=MASS SPECTRUM
##ORIGIN=P.Dagaut ET AL.Chromatographia,40,147,(1995)
##OWNER=NIST Mass Spectrometry Data Center
Collection (C) 2014 copyright by the U.S. Secretary of Commerce
on behalf of the United States of America. All rights reserved.
##CAS REGISTRY NO=3208-32-0
##$NIST MASS SPEC NO=292992
##MOLFORM=C10 H20 O
##MW=156
##$NIST SOURCE=MSDC
##XUNITS=M/Z
##YUNITS=RELATIVE INTENSITY
##XFACTOR=1
##YFACTOR=1
##FIRSTX=37
##LASTX=155
##FIRSTY=60
##MAXX=155
##MINX=37
##MAXY=9999
##MINY=20
##NPOINTS=51
##PEAK TABLE=(XY..XY)
37,60 38,130 39,1481 40,240
41,2813 42,741 43,2722 44,100
45,70 50,90 51,140 53,230
54,190 55,691 56,350 57,320
58,40 65,100 67,350 68,260
69,280 70,591 71,9999 72,480
73,70 77,80 79,120 81,230
82,160 83,210 84,180 85,290
87,210 95,130 96,240 97,240
98,200 99,30 100,30 105,60
108,40 109,160 110,70 111,70
120,30 125,30 127,591 128,50
138,330 139,20 155,20
##END=
