##TITLE=Benzene, 1,2-dichloro-3-nitro-
##JCAMP-DX=4.24
##DATA TYPE=MASS SPECTRUM
##ORIGIN=KONINKLIJKE SHELL LABORATORIUM AMSTERDAM
##OWNER=NIST Mass Spectrometry Data Center
Collection (C) 2014 copyright by the U.S. Secretary of Commerce
on behalf of the United States of America. All rights reserved.
##CAS REGISTRY NO=3209-22-1
##$NIST MASS SPEC NO=8298
##MOLFORM=C6 H3 Cl2 N O2
##MW=191
##$NIST SOURCE=MSDC
##XUNITS=M/Z
##YUNITS=RELATIVE INTENSITY
##XFACTOR=1
##YFACTOR=1
##FIRSTX=14
##LASTX=197
##FIRSTY=87
##MAXX=197
##MINX=14
##MAXY=9999
##MINY=2
##NPOINTS=176
##PEAK TABLE=(XY..XY)
14,87 15,8 16,53 17,25
18,110 20,5 24,12 25,37
26,121 27,92 28,7 29,49
30,4921 31,37 34,250 35,375
36,819 37,496 38,253 39,65
40,42 41,15 42,31 43,100
44,17 46,224 47,202 48,110
49,661 50,956 51,359 52,66
53,32 54,44 55,107 56,39
57,25 58,5 59,22 60,192
61,613 62,432 63,825 64,117
65,54 66,15 67,12 68,8
69,14 70,20 71,107 72,418
73,1491 74,4208 75,3732 76,282
77,34 78,14 79,19 80,8
81,29 82,78 83,250 84,1932
85,1168 86,734 87,455 88,134
89,54 90,149 91,104 92,22
93,10 94,42 95,63 96,92
97,275 98,222 99,175 100,87
101,36 102,14 103,7 104,5
105,7 106,29 107,354 108,325
109,8231 110,1780 111,2713 112,576
113,73 114,31 115,20 116,14
117,8 118,49 119,251 120,48
121,180 122,27 123,37 124,119
125,78 126,326 127,92 128,139
129,32 130,20 131,14 132,24
133,6228 134,382 135,3919 136,275
137,671 138,75 139,36 140,15
141,19 142,14 143,27 144,146
145,9999 146,819 147,6483 148,493
149,1041 150,95 151,14 152,71
153,17 154,25 155,12 156,46
157,10 158,19 159,14 160,32
161,2629 162,309 163,1729 164,197
165,301 166,36 167,7 168,2
170,3 171,7 172,7 173,51
174,14 175,466 176,41 177,292
178,25 179,54 180,95 181,5
182,90 183,90 184,8 185,29
186,17 187,8 188,5 189,2
190,10 191,9420 192,659 193,6143
194,427 195,1005 196,75 197,17
##END=
