##TITLE=4H-Pyrido[1,2-a]pyrimidin-4-one, 6,7,8,9-tetrahydro-6-methyl-
##JCAMP-DX=4.24
##DATA TYPE=MASS SPECTRUM
##ORIGIN=P. BRUCK, MAGYAR TUDOMANYOS AKADEMIA, HUNGARY
##OWNER=NIST Mass Spectrometry Data Center
Collection (C) 2014 copyright by the U.S. Secretary of Commerce
on behalf of the United States of America. All rights reserved.
##CAS REGISTRY NO=32092-29-8
##$NIST MASS SPEC NO=52229
##MOLFORM=C9 H12 N2 O
##MW=164
##$NIST SOURCE=MSDC
##XUNITS=M/Z
##YUNITS=RELATIVE INTENSITY
##XFACTOR=1
##YFACTOR=1
##FIRSTX=51
##LASTX=165
##FIRSTY=700
##MAXX=165
##MINX=51
##MAXY=9999
##MINY=600
##NPOINTS=17
##PEAK TABLE=(XY..XY)
51,700 52,600 53,600 66,700
67,600 69,1500 93,600 94,600
110,6000 121,600 122,700 123,1400
135,2000 149,5200 163,5000 164,9999
165,1100
##END=
