##TITLE=Benzoic acid, 5-chloro-2-hydroxy-
##JCAMP-DX=4.24
##DATA TYPE=MASS SPECTRUM
##ORIGIN=RADIAN CORP
##OWNER=NIST Mass Spectrometry Data Center
Collection (C) 2014 copyright by the U.S. Secretary of Commerce
on behalf of the United States of America. All rights reserved.
##CAS REGISTRY NO=321-14-2
##$NIST MASS SPEC NO=70818
##MOLFORM=C7 H5 Cl O3
##MW=172
##$NIST SOURCE=MSDC
##XUNITS=M/Z
##YUNITS=RELATIVE INTENSITY
##XFACTOR=1
##YFACTOR=1
##FIRSTX=36
##LASTX=174
##FIRSTY=154
##MAXX=174
##MINX=36
##MAXY=9999
##MINY=38
##NPOINTS=62
##PEAK TABLE=(XY..XY)
36,154 38,154 40,846 41,154
42,154 43,615 44,615 45,346
46,77 50,154 51,77 55,154
57,192 58,38 59,192 60,615
63,1538 64,346 65,77 66,115
68,77 69,115 71,77 72,77
73,461 74,538 75,308 76,154
77,192 78,115 79,115 83,38
84,461 85,77 86,77 90,38
91,154 97,231 98,1692 99,692
100,615 101,154 108,154 115,77
116,692 117,1346 118,38 119,115
120,231 126,5653 127,500 128,2115
129,269 133,423 150,500 154,9999
155,1000 156,3192 157,615 172,3653
173,461 174,1115
##END=
