##TITLE=Benzene, 1-fluoro-2-methoxy-
##JCAMP-DX=4.24
##DATA TYPE=MASS SPECTRUM
##ORIGIN=Japan AIST/NIMC Database- Spectrum MS-NW-6650
##OWNER=NIST Mass Spectrometry Data Center
Collection (C) 2014 copyright by the U.S. Secretary of Commerce
on behalf of the United States of America. All rights reserved.
##CAS REGISTRY NO=321-28-8
##$NIST MASS SPEC NO=236572
##MOLFORM=C7 H7 F O
##MW=126
##$NIST SOURCE=MSDC
##XUNITS=M/Z
##YUNITS=RELATIVE INTENSITY
##XFACTOR=1
##YFACTOR=1
##FIRSTX=13
##LASTX=128
##FIRSTY=10
##MAXX=128
##MINX=13
##MAXY=9999
##MINY=10
##NPOINTS=85
##PEAK TABLE=(XY..XY)
13,10 14,40 15,209 18,10
20,10 25,10 26,70 27,80
28,129 29,109 30,20 31,309
32,20 33,60 36,20 37,149
38,259 39,369 40,20 41,20
42,10 43,30 44,30 45,40
46,10 48,10 49,70 50,439
51,309 52,60 53,80 54,10
55,50 56,249 57,1759 58,80
59,20 60,20 61,149 62,189
63,489 64,179 65,40 66,10
68,189 69,279 70,139 71,20
72,10 73,50 74,219 75,739
76,99 77,229 78,90 79,30
80,60 81,399 82,309 83,6039
84,339 85,10 92,119 93,60
94,119 95,679 96,859 97,659
98,80 99,20 105,20 106,10
107,10 108,10 109,10 110,80
111,5259 112,419 113,30 123,30
124,10 125,149 126,9999 127,779
128,50
##END=
