##TITLE=3-(Methylthio)penta-2,4-dione
##JCAMP-DX=4.24
##DATA TYPE=MASS SPECTRUM
##ORIGIN=C. OFFEN, MAFF, FOOD SCI. LAB., NORWICH, U.K.
##OWNER=NIST Mass Spectrometry Data Center
Collection (C) 2014 copyright by the U.S. Secretary of Commerce
on behalf of the United States of America. All rights reserved.
##CAS REGISTRY NO=32113-68-1
##$NIST MASS SPEC NO=112535
##MOLFORM=C6 H10 O2 S
##MW=146
##$NIST SOURCE=MSDC
##XUNITS=M/Z
##YUNITS=RELATIVE INTENSITY
##XFACTOR=1
##YFACTOR=1
##FIRSTX=41
##LASTX=148
##FIRSTY=900
##MAXX=148
##MINX=41
##MAXY=9999
##MINY=300
##NPOINTS=26
##PEAK TABLE=(XY..XY)
41,900 42,500 43,9999 45,1800
47,800 53,600 55,1600 59,700
61,1200 67,500 71,600 75,800
85,1100 86,900 88,1500 89,2100
100,500 103,3700 104,5400 105,500
113,1400 128,500 131,1100 146,6000
147,700 148,300
##END=
