##TITLE=2-(Trimethylsilyl)benzothiazole
##JCAMP-DX=4.24
##DATA TYPE=MASS SPECTRUM
##ORIGIN=NIST Mass Spectrometry Data Center, 1994
##OWNER=NIST Mass Spectrometry Data Center
Collection (C) 2014 copyright by the U.S. Secretary of Commerce
on behalf of the United States of America. All rights reserved.
##CAS REGISTRY NO=32137-73-8
##$NIST MASS SPEC NO=136597
##MOLFORM=C10 H13 N S Si
##MW=207
##$NIST SOURCE=MSDC
##XUNITS=M/Z
##YUNITS=RELATIVE INTENSITY
##XFACTOR=1
##YFACTOR=1
##FIRSTX=15
##LASTX=210
##FIRSTY=259
##MAXX=210
##MINX=15
##MAXY=9999
##MINY=28
##NPOINTS=118
##PEAK TABLE=(XY..XY)
15,259 18,59 29,167 30,101
37,123 38,347 39,1065 40,28
41,28 42,391 43,3276 44,1058
45,4481 46,346 47,177 50,734
51,664 52,177 53,508 54,463
55,427 56,610 57,746 58,1006
60,54 61,297 62,349 63,1432
64,493 65,322 66,108 67,111
68,166 69,1843 70,447 71,244
72,881 73,5333 74,288 75,1615
76,662 77,635 78,121 79,100
80,51 81,320 82,746 83,163
84,746 85,151 86,289 87,70
88,51 89,503 90,910 91,883
92,135 93,199 94,104 95,51
96,328 98,72 101,79 102,979
103,245 104,154 105,269 106,126
107,318 108,518 109,111 114,42
115,112 116,515 117,388 118,79
119,80 121,117 130,234 131,135
132,96 133,291 134,691 135,308
136,210 137,250 138,59 139,39
146,124 148,100 149,310 151,1508
152,235 153,136 160,63 162,531
163,124 164,168 165,691 166,1268
167,243 168,127 174,308 176,2253
177,389 178,229 179,41 190,163
192,9999 193,1667 194,971 195,115
205,400 206,2043 207,5451 208,1074
209,525 210,72
##END=
