##TITLE=4-Methylcyclohexanol, (E)-, TMS derivative
##JCAMP-DX=4.24
##DATA TYPE=MASS SPECTRUM
##ORIGIN=NIST Mass Spectrometry Data Center
##OWNER=NIST Mass Spectrometry Data Center
Collection (C) 2014 copyright by the U.S. Secretary of Commerce
on behalf of the United States of America. All rights reserved.
##CAS REGISTRY NO=32147-24-3
##$NIST MASS SPEC NO=364136
##MOLFORM=C10 H22 O Si
##MW=186
##$NIST SOURCE=MSDC
##XUNITS=M/Z
##YUNITS=RELATIVE INTENSITY
##XFACTOR=1
##YFACTOR=1
##FIRSTX=15
##LASTX=189
##FIRSTY=20
##MAXX=189
##MINX=15
##MAXY=9999
##MINY=10
##NPOINTS=104
##PEAK TABLE=(XY..XY)
15,20 26,10 27,160 28,40
29,330 30,10 31,30 39,280
40,40 41,550 42,100 43,310
44,110 45,751 46,50 47,340
48,20 49,10 50,10 51,40
52,20 53,180 54,80 55,671
56,70 57,130 58,110 59,540
60,120 61,510 62,40 63,30
64,50 65,60 66,20 67,240
68,50 69,70 70,70 71,100
73,4044 74,490 75,7337 76,550
77,370 78,80 79,120 80,20
81,210 82,20 83,20 84,10
85,160 86,30 87,70 88,20
89,40 91,50 92,10 93,50
94,50 95,871 96,601 97,100
98,20 99,320 100,40 101,791
102,100 103,50 109,10 111,50
112,10 113,230 114,50 115,160
116,310 117,40 118,10 125,20
127,160 129,9999 130,1231 131,430
132,30 141,30 142,10 143,10
153,10 155,20 156,10 157,240
158,50 159,10 169,20 171,6226
172,971 173,290 174,30 185,100
186,1161 187,190 188,60 189,10
##END=
