##TITLE=2,5-Octanedione
##JCAMP-DX=4.24
##DATA TYPE=MASS SPECTRUM
##ORIGIN=NIST Mass Spectrometry Data Center, 1994
##OWNER=NIST Mass Spectrometry Data Center
Collection (C) 2014 copyright by the U.S. Secretary of Commerce
on behalf of the United States of America. All rights reserved.
##CAS REGISTRY NO=3214-41-3
##$NIST MASS SPEC NO=135353
##MOLFORM=C8 H14 O2
##MW=142
##$NIST SOURCE=MSDC
##XUNITS=M/Z
##YUNITS=RELATIVE INTENSITY
##XFACTOR=1
##YFACTOR=1
##FIRSTX=12
##LASTX=143
##FIRSTY=12
##MAXX=143
##MINX=12
##MAXY=9999
##MINY=7
##NPOINTS=62
##PEAK TABLE=(XY..XY)
12,12 13,19 14,122 15,895
16,20 17,8 18,7 19,11
26,261 27,1964 28,759 29,392
30,14 31,39 37,30 38,94
39,769 40,127 41,1333 42,823
43,9999 44,270 45,38 50,42
51,54 52,24 53,143 54,48
55,368 56,142 57,360 58,65
65,20 66,8 67,36 68,13
69,118 70,8 71,3496 72,321
73,38 77,13 79,23 81,189
82,20 83,22 84,76 85,96
95,25 96,7 97,24 99,3215
100,174 101,17 109,33 114,868
115,53 124,135 125,13 127,47
142,243 143,22
##END=
