##TITLE=Acetonitrile, (2,6-dichlorophenyl)-
##JCAMP-DX=4.24
##DATA TYPE=MASS SPECTRUM
##ORIGIN=Japan AIST/NIMC Database- Spectrum MS-NW-6520
##OWNER=NIST Mass Spectrometry Data Center
Collection (C) 2014 copyright by the U.S. Secretary of Commerce
on behalf of the United States of America. All rights reserved.
##CAS REGISTRY NO=3215-64-3
##$NIST MASS SPEC NO=235095
##MOLFORM=C8 H5 Cl2 N
##MW=185
##$NIST SOURCE=MSDC
##XUNITS=M/Z
##YUNITS=RELATIVE INTENSITY
##XFACTOR=1
##YFACTOR=1
##FIRSTX=14
##LASTX=190
##FIRSTY=20
##MAXX=190
##MINX=14
##MAXY=9999
##MINY=10
##NPOINTS=113
##PEAK TABLE=(XY..XY)
14,20 25,10 26,60 27,40
28,10 35,40 36,149 37,259
38,279 39,429 40,50 41,20
42,10 43,259 44,119 47,70
48,40 49,209 50,399 51,229
52,50 55,50 56,299 57,189
58,20 60,149 61,609 62,699
63,769 64,279 65,50 66,10
71,20 72,139 73,619 74,529
75,669 76,179 77,30 78,10
79,40 80,30 83,30 84,229
85,219 86,289 87,669 88,599
89,339 90,60 92,239 93,149
94,20 95,10 96,50 97,229
98,119 99,219 100,80 101,50
102,20 107,50 108,40 109,189
110,90 111,129 112,90 113,70
114,3619 115,599 116,40 118,10
119,20 120,20 121,70 122,99
123,1459 124,369 125,549 126,109
127,10 131,10 133,70 134,10
135,50 136,10 137,10 138,10
144,10 145,20 146,20 147,20
148,159 149,1669 150,9999 151,1409
152,3319 153,329 154,20 157,129
158,219 159,329 160,169 161,179
162,40 163,30 184,219 185,6719
186,769 187,4449 188,439 189,729
190,80
##END=
