##TITLE=1-Acetyl-4-piperidone
##JCAMP-DX=4.24
##DATA TYPE=MASS SPECTRUM
##ORIGIN=NIST Mass Spectrometry Data Center
##OWNER=NIST Mass Spectrometry Data Center
Collection (C) 2014 copyright by the U.S. Secretary of Commerce
on behalf of the United States of America. All rights reserved.
##CAS REGISTRY NO=32161-06-1
##$NIST MASS SPEC NO=340557
##MOLFORM=C7 H11 N O2
##MW=141
##$NIST SOURCE=MSDC
##XUNITS=M/Z
##YUNITS=RELATIVE INTENSITY
##XFACTOR=1
##YFACTOR=1
##FIRSTX=13
##LASTX=143
##FIRSTY=10
##MAXX=143
##MINX=13
##MAXY=9999
##MINY=10
##NPOINTS=61
##PEAK TABLE=(XY..XY)
13,10 14,80 15,711 16,10
18,10 25,10 26,250 27,1051
28,1101 29,520 30,571 31,20
37,20 38,60 39,270 40,260
41,681 42,4034 43,9999 44,530
45,30 50,30 51,50 52,80
53,110 54,380 55,821 56,3653
57,4034 58,180 59,30 67,20
68,150 69,110 70,791 71,671
72,651 73,20 80,20 81,10
82,90 83,10 84,110 85,1361
86,100 87,10 96,20 97,20
98,2692 99,520 100,30 112,320
113,4774 114,320 115,20 126,70
139,10 140,10 141,2863 142,220
143,20
##END=
