##TITLE=Cyclohexanemethylamine
##JCAMP-DX=4.24
##DATA TYPE=MASS SPECTRUM
##ORIGIN=NIST Mass Spectrometry Data Center
##OWNER=NIST Mass Spectrometry Data Center
Collection (C) 2014 copyright by the U.S. Secretary of Commerce
on behalf of the United States of America. All rights reserved.
##CAS REGISTRY NO=3218-02-8
##$NIST MASS SPEC NO=343173
##MOLFORM=C7 H15 N
##MW=113
##$NIST SOURCE=MSDC
##XUNITS=M/Z
##YUNITS=RELATIVE INTENSITY
##XFACTOR=1
##YFACTOR=1
##FIRSTX=15
##LASTX=114
##FIRSTY=90
##MAXX=114
##MINX=15
##MAXY=9999
##MINY=10
##NPOINTS=51
##PEAK TABLE=(XY..XY)
15,90 17,30 18,170 26,100
27,921 28,1141 29,841 30,9999
31,270 32,861 33,10 37,20
39,1241 40,220 41,1421 42,390
43,200 44,70 45,10 50,80
51,150 52,90 53,340 54,581
55,881 56,310 57,30 62,10
63,30 65,70 66,90 67,821
68,190 69,40 70,80 77,90
78,20 79,110 80,60 81,370
82,140 83,50 84,10 91,20
93,20 94,10 95,100 96,350
97,20 113,851 114,70
##END=
