##TITLE=[1,1'-Biphenyl]-4-carboxaldehyde
##JCAMP-DX=4.24
##DATA TYPE=MASS SPECTRUM
##ORIGIN=Japan AIST/NIMC Database- Spectrum MS-NW-2335
##OWNER=NIST Mass Spectrometry Data Center
Collection (C) 2014 copyright by the U.S. Secretary of Commerce
on behalf of the United States of America. All rights reserved.
##CAS REGISTRY NO=3218-36-8
##$NIST MASS SPEC NO=234118
##MOLFORM=C13 H10 O
##MW=182
##$NIST SOURCE=MSDC
##XUNITS=M/Z
##YUNITS=RELATIVE INTENSITY
##XFACTOR=1
##YFACTOR=1
##FIRSTX=18
##LASTX=184
##FIRSTY=10
##MAXX=184
##MINX=18
##MAXY=9999
##MINY=10
##NPOINTS=65
##PEAK TABLE=(XY..XY)
18,10 26,10 27,50 28,30
29,70 37,10 38,40 39,159
49,10 50,259 51,509 52,80
53,10 61,40 62,129 63,369
64,179 65,40 73,20 74,239
75,309 76,1159 77,779 78,60
85,20 86,70 87,99 88,40
89,70 90,219 91,40 98,80
99,60 100,30 101,119 102,189
103,30 110,20 111,20 113,40
114,20 115,129 116,10 122,10
125,50 126,279 127,409 128,99
129,10 139,40 141,10 149,20
150,249 151,939 152,3749 153,2929
154,869 155,90 165,10 179,10
180,70 181,8149 182,9999 183,1369
184,109
##END=
