##TITLE=Trimethylsilylmethanol
##JCAMP-DX=4.24
##DATA TYPE=MASS SPECTRUM
##ORIGIN=NIST Mass Spectrometry Data Center, 1994
##OWNER=NIST Mass Spectrometry Data Center
Collection (C) 2014 copyright by the U.S. Secretary of Commerce
on behalf of the United States of America. All rights reserved.
##CAS REGISTRY NO=3219-63-4
##$NIST MASS SPEC NO=136226
##MOLFORM=C4 H12 O Si
##MW=104
##$NIST SOURCE=MSDC
##XUNITS=M/Z
##YUNITS=RELATIVE INTENSITY
##XFACTOR=1
##YFACTOR=1
##FIRSTX=13
##LASTX=106
##FIRSTY=24
##MAXX=106
##MINX=13
##MAXY=9999
##MINY=10
##NPOINTS=54
##PEAK TABLE=(XY..XY)
13,24 14,88 15,348 16,11
18,29 26,45 27,182 28,547
29,1399 30,167 31,1158 32,58
33,10 39,34 40,19 41,149
42,636 43,2527 44,546 45,4986
46,292 47,714 48,36 49,18
52,21 53,363 54,99 55,338
56,71 57,201 58,416 59,459
60,18 61,6227 62,380 63,218
65,31 66,36 67,22 70,58
71,79 72,546 73,9999 74,880
75,690 76,39 77,21 88,49
89,771 90,52 91,29 104,271
105,31 106,14
##END=
