##TITLE=Octane, 2-methyl-
##JCAMP-DX=4.24
##DATA TYPE=MASS SPECTRUM
##OWNER=NIST Mass Spectrometry Data Center
Collection (C) 2014 copyright by the U.S. Secretary of Commerce
on behalf of the United States of America. All rights reserved.
##CAS REGISTRY NO=3221-61-2
##$NIST MASS SPEC NO=20669
##MOLFORM=C9 H20
##MW=128
##$NIST SOURCE=MSDC
##XUNITS=M/Z
##YUNITS=RELATIVE INTENSITY
##XFACTOR=1
##YFACTOR=1
##FIRSTX=26
##LASTX=128
##FIRSTY=100
##MAXX=128
##MINX=26
##MAXY=9999
##MINY=100
##NPOINTS=30
##PEAK TABLE=(XY..XY)
26,100 27,2102 28,400 29,2302
30,100 39,1001 40,200 41,3503
42,2803 43,9999 44,300 51,100
53,200 54,100 55,901 56,1501
57,5105 58,200 69,400 70,200
71,2803 72,100 84,1301 85,1702
86,100 99,100 112,200 113,701
114,100 128,200
##END=
