##TITLE=Tribromoacetic acid, methyl ester
##JCAMP-DX=4.24
##DATA TYPE=MASS SPECTRUM
##ORIGIN=Y. Xie ET AL, Org.Mass Spectrom.,27,807(1992)
##OWNER=NIST Mass Spectrometry Data Center
Collection (C) 2014 copyright by the U.S. Secretary of Commerce
on behalf of the United States of America. All rights reserved.
##CAS REGISTRY NO=3222-05-7
##$NIST MASS SPEC NO=280931
##MOLFORM=C3 H3 Br3 O2
##MW=308
##$NIST SOURCE=MSDC
##XUNITS=M/Z
##YUNITS=RELATIVE INTENSITY
##XFACTOR=1
##YFACTOR=1
##FIRSTX=59
##LASTX=312
##FIRSTY=440
##MAXX=312
##MINX=59
##MAXY=9999
##MINY=20
##NPOINTS=35
##PEAK TABLE=(XY..XY)
59,440 79,390 81,300 91,941
93,1081 105,50 107,500 109,360
170,1501 172,2903 173,220 174,1391
175,160 185,270 187,751 189,330
198,190 200,550 201,550 202,250
203,1221 205,550 229,1111 231,2172
233,971 249,3403 251,9779 253,9999
255,3103 277,20 279,50 281,70
308,20 310,50 312,60
##END=
