##TITLE=Tetradecyl isothiocyanate
##JCAMP-DX=4.24
##DATA TYPE=MASS SPECTRUM
##ORIGIN=NIST Mass Spectrometry Data Center, 1994
##OWNER=NIST Mass Spectrometry Data Center
Collection (C) 2014 copyright by the U.S. Secretary of Commerce
on behalf of the United States of America. All rights reserved.
##CAS REGISTRY NO=3224-48-4
##$NIST MASS SPEC NO=134634
##MOLFORM=C15 H29 N S
##MW=255
##$NIST SOURCE=MSDC
##XUNITS=M/Z
##YUNITS=RELATIVE INTENSITY
##XFACTOR=1
##YFACTOR=1
##FIRSTX=15
##LASTX=255
##FIRSTY=59
##MAXX=255
##MINX=15
##MAXY=9999
##MINY=29
##NPOINTS=104
##PEAK TABLE=(XY..XY)
15,59 27,1983 28,1017 29,4485
30,441 32,175 39,1579 41,9999
42,1770 43,7898 44,538 45,214
51,59 52,64 53,630 54,864
55,7462 56,1894 57,3495 58,295
59,217 60,272 62,91 65,116
67,1107 68,584 69,3266 70,1191
71,1131 72,2477 73,182 74,328
75,236 76,90 77,87 79,191
80,91 81,427 82,920 83,1271
84,501 85,451 86,275 87,78
88,80 89,58 93,158 94,86
95,284 96,2151 97,612 98,242
99,136 100,600 101,1034 102,125
103,73 107,77 108,83 109,147
110,836 111,132 112,210 113,73
114,1083 115,8204 116,610 117,410
121,96 122,73 123,135 124,322
125,54 126,104 127,54 128,1062
129,1101 130,152 136,45 137,54
138,204 139,51 140,111 142,235
143,68 144,29 150,37 152,201
153,34 154,57 156,125 166,230
170,63 180,313 181,45 194,206
195,50 212,55 222,7402 223,1230
224,99 226,48 254,131 255,49
##END=
