##TITLE=Propanedioic acid, bis(1-methylpropyl) ester
##JCAMP-DX=4.24
##DATA TYPE=MASS SPECTRUM
##ORIGIN=L.N.Kulikova, V.G. Zaikin, RPFU, Moscow, Russia
##OWNER=NIST Mass Spectrometry Data Center
Collection (C) 2014 copyright by the U.S. Secretary of Commerce
on behalf of the United States of America. All rights reserved.
##CAS REGISTRY NO=32260-07-4
##$NIST MASS SPEC NO=349085
##MOLFORM=C11 H20 O4
##MW=216
##$NIST SOURCE=MSDC
##XUNITS=M/Z
##YUNITS=RELATIVE INTENSITY
##XFACTOR=1
##YFACTOR=1
##FIRSTX=26
##LASTX=217
##FIRSTY=40
##MAXX=217
##MINX=26
##MAXY=9999
##MINY=20
##NPOINTS=55
##PEAK TABLE=(XY..XY)
26,40 27,811 29,2372 30,60
39,510 41,2602 42,1631 43,1021
45,470 53,20 54,40 55,480
56,2272 57,9999 58,430 59,370
60,621 61,80 69,300 71,30
72,100 73,2823 74,120 83,2722
84,80 86,40 87,8568 88,280
89,110 97,20 99,60 101,260
105,7277 106,250 107,60 113,20
114,20 116,420 117,190 125,4054
126,320 127,50 131,3303 132,370
133,50 143,4504 144,360 145,711
146,40 160,140 161,210 187,330
188,30 201,20 217,20
##END=
