##TITLE=Thiazole, 4-ethyl-2-methyl-
##JCAMP-DX=4.24
##DATA TYPE=MASS SPECTRUM
##ORIGIN=HB-20
##OWNER=NIST Mass Spectrometry Data Center
Collection (C) 2014 copyright by the U.S. Secretary of Commerce
on behalf of the United States of America. All rights reserved.
##CAS REGISTRY NO=32272-48-3
##$NIST MASS SPEC NO=30776
##MOLFORM=C6 H9 N S
##MW=127
##$NIST SOURCE=MSDC
##XUNITS=M/Z
##YUNITS=RELATIVE INTENSITY
##XFACTOR=1
##YFACTOR=1
##FIRSTX=15
##LASTX=130
##FIRSTY=28
##MAXX=130
##MINX=15
##MAXY=9999
##MINY=7
##NPOINTS=68
##PEAK TABLE=(XY..XY)
15,28 17,7 18,74 26,138
27,576 28,815 29,11 32,189
33,18 34,18 37,74 38,151
39,675 40,198 41,641 42,951
43,37 44,58 45,1309 46,182
47,111 49,36 50,195 51,363
52,207 53,855 54,99 55,12
56,14 57,175 58,695 59,1667
60,119 61,83 63,15 64,28
65,19 66,72 67,21 68,338
69,399 70,152 71,6626 72,308
73,314 74,8 76,9 81,18
82,55 83,34 84,75 85,2706
86,7318 87,469 88,326 89,10
94,45 96,8 99,84 112,290
113,19 114,9 125,31 126,898
127,9999 128,810 129,426 130,22
##END=
