##TITLE=1-Ethyl-2-methylcyclohexanol
##JCAMP-DX=4.24
##DATA TYPE=MASS SPECTRUM
##ORIGIN=NIST Mass Spectrometry Data Center, 1990.
##OWNER=NIST Mass Spectrometry Data Center
Collection (C) 2014 copyright by the U.S. Secretary of Commerce
on behalf of the United States of America. All rights reserved.
##CAS REGISTRY NO=32296-45-0
##$NIST MASS SPEC NO=114886
##MOLFORM=C9 H18 O
##MW=142
##$NIST SOURCE=MSDC
##XUNITS=M/Z
##YUNITS=RELATIVE INTENSITY
##XFACTOR=1
##YFACTOR=1
##FIRSTX=14
##LASTX=125
##FIRSTY=127
##MAXX=125
##MINX=14
##MAXY=9999
##MINY=115
##NPOINTS=54
##PEAK TABLE=(XY..XY)
14,127 26,162 27,1581 28,322
29,1938 31,306 39,2040 40,492
41,3618 42,805 43,5405 44,265
45,1296 50,133 51,497 52,220
53,1383 54,441 55,2928 56,661
57,4339 58,214 59,213 63,119
65,530 67,4223 68,1369 69,1835
70,315 71,963 72,2641 73,592
77,676 78,142 79,827 80,212
81,1449 82,621 83,528 85,7482
86,1207 91,390 93,424 95,9999
96,900 97,169 99,2137 100,457
105,136 109,617 113,8589 114,715
124,902 125,115
##END=
