##TITLE=Naphthalene, 2-fluoro-
##JCAMP-DX=4.24
##DATA TYPE=MASS SPECTRUM
##ORIGIN=NIST Mass Spectrometry Data Center, 1990.
##OWNER=NIST Mass Spectrometry Data Center
Collection (C) 2014 copyright by the U.S. Secretary of Commerce
on behalf of the United States of America. All rights reserved.
##CAS REGISTRY NO=323-09-1
##$NIST MASS SPEC NO=113326
##MOLFORM=C10 H7 F
##MW=146
##$NIST SOURCE=MSDC
##XUNITS=M/Z
##YUNITS=RELATIVE INTENSITY
##XFACTOR=1
##YFACTOR=1
##FIRSTX=26
##LASTX=148
##FIRSTY=40
##MAXX=148
##MINX=26
##MAXY=9999
##MINY=31
##NPOINTS=64
##PEAK TABLE=(XY..XY)
26,40 28,63 31,73 37,48
38,92 39,115 49,58 50,369
51,228 52,38 56,35 57,181
60,337 61,196 62,301 63,368
64,31 68,112 69,92 70,136
72,191 73,638 74,659 75,604
76,155 77,50 80,46 81,193
85,123 86,185 87,219 89,45
92,110 93,182 94,295 95,104
96,272 97,67 98,309 99,526
100,189 101,44 102,44 105,81
107,98 110,35 111,43 115,183
116,42 117,47 118,93 119,35
120,1040 121,115 122,69 123,54
124,35 125,918 126,730 127,149
144,460 146,9999 147,1074 148,52
##END=
