##TITLE=Diacetyl sulphide
##JCAMP-DX=4.24
##DATA TYPE=MASS SPECTRUM
##ORIGIN=Japan AIST/NIMC Database- Spectrum MS-NW-8556
##OWNER=NIST Mass Spectrometry Data Center
Collection (C) 2014 copyright by the U.S. Secretary of Commerce
on behalf of the United States of America. All rights reserved.
##CAS REGISTRY NO=3232-39-1
##$NIST MASS SPEC NO=238825
##MOLFORM=C4 H6 O2 S
##MW=118
##$NIST SOURCE=MSDC
##XUNITS=M/Z
##YUNITS=RELATIVE INTENSITY
##XFACTOR=1
##YFACTOR=1
##FIRSTX=13
##LASTX=118
##FIRSTY=30
##MAXX=118
##MINX=13
##MAXY=9999
##MINY=10
##NPOINTS=29
##PEAK TABLE=(XY..XY)
13,30 14,169 15,989 16,10
26,10 27,10 28,10 32,50
33,30 34,10 40,10 41,60
42,419 43,9999 44,269 45,199
46,30 47,40 56,10 57,60
58,119 59,179 60,99 61,119
76,179 77,10 93,20 103,10
118,30
##END=
