##TITLE=Oxirane, dodecyl-
##JCAMP-DX=4.24
##DATA TYPE=MASS SPECTRUM
##ORIGIN=NIST Mass Spectrometry Data Center
##OWNER=NIST Mass Spectrometry Data Center
Collection (C) 2014 copyright by the U.S. Secretary of Commerce
on behalf of the United States of America. All rights reserved.
##CAS REGISTRY NO=3234-28-4
##$NIST MASS SPEC NO=342336
##MOLFORM=C14 H28 O
##MW=212
##$NIST SOURCE=MSDC
##XUNITS=M/Z
##YUNITS=RELATIVE INTENSITY
##XFACTOR=1
##YFACTOR=1
##FIRSTX=14
##LASTX=169
##FIRSTY=19
##MAXX=169
##MINX=14
##MAXY=9999
##MINY=8
##NPOINTS=82
##PEAK TABLE=(XY..XY)
14,19 15,229 16,15 18,49
27,2785 28,778 29,5397 30,162
31,638 32,11 33,12 39,2206
41,9999 42,2313 43,7166 44,561
45,410 46,17 50,29 51,84
53,794 54,1855 55,6824 56,2630
57,4180 58,2485 59,271 60,10
63,19 65,172 66,420 67,3534
68,3179 69,3630 70,1979 71,5692
72,428 73,25 77,90 79,384
81,2762 82,3650 83,2546 84,852
85,1269 86,100 87,33 91,42
93,106 95,1805 96,1757 97,1332
98,378 99,136 100,32 101,10
107,24 109,713 110,519 111,445
112,194 113,157 114,12 123,301
124,243 125,136 126,105 127,107
128,12 137,155 138,112 139,20
140,25 141,32 151,35 152,58
154,63 155,30 165,8 166,25
168,17 169,20
##END=
