##TITLE=Isoferulic acid, 2TMS derivative
##JCAMP-DX=4.24
##DATA TYPE=MASS SPECTRUM
##ORIGIN=NIST Mass Spectrometry Data Center
##OWNER=NIST Mass Spectrometry Data Center
Collection (C) 2014 copyright by the U.S. Secretary of Commerce
on behalf of the United States of America. All rights reserved.
##CAS REGISTRY NO=32342-04-4
##$NIST MASS SPEC NO=332784
##MOLFORM=C16 H26 O4 Si2
##MW=338
##$NIST SOURCE=MSDC
##XUNITS=M/Z
##YUNITS=RELATIVE INTENSITY
##XFACTOR=1
##YFACTOR=1
##FIRSTX=15
##LASTX=343
##FIRSTY=30
##MAXX=343
##MINX=15
##MAXY=9999
##MINY=10
##NPOINTS=233
##PEAK TABLE=(XY..XY)
15,30 27,10 29,40 31,20
39,30 42,20 43,200 44,120
45,941 46,60 47,210 48,10
49,10 50,30 51,100 52,10
53,50 54,10 55,50 56,10
57,60 58,100 59,651 60,70
61,160 62,40 63,120 64,20
65,30 66,10 67,20 68,10
69,30 70,30 71,40 73,4964
74,500 75,1842 76,200 77,270
78,40 79,60 80,10 81,20
82,10 83,110 84,20 85,40
86,10 87,40 88,260 89,771
90,100 91,170 92,30 93,30
94,20 95,40 96,10 97,10
98,10 99,40 100,20 101,70
102,330 103,190 104,70 105,130
106,20 107,60 108,10 109,80
111,30 113,20 114,20 115,390
116,140 117,591 118,180 119,160
120,40 121,60 122,20 123,20
125,110 127,40 128,60 129,100
130,60 131,190 132,80 133,290
134,60 135,290 136,50 137,180
139,821 141,20 142,50 143,80
144,30 145,350 146,2172 148,290
149,180 150,50 151,50 152,10
154,1071 157,20 158,10 159,120
160,571 161,400 162,100 163,230
164,50 165,90 166,70 167,20
168,10 169,10 171,30 172,20
173,160 174,110 175,921 176,190
177,160 178,70 179,731 180,130
181,60 182,10 185,50 186,30
187,80 188,90 189,260 190,861
191,1441 192,581 193,170 194,40
195,20 196,20 197,10 199,10
200,10 201,50 203,731 204,420
205,450 206,160 207,100 208,20
209,500 210,90 211,30 215,10
216,50 217,150 218,741 219,2482
220,561 221,430 222,140 223,110
224,30 225,10 229,10 230,10
231,50 232,70 233,811 234,180
235,100 236,80 237,30 238,10
239,10 245,10 246,10 247,80
249,4404 250,961 251,330 252,50
253,30 254,10 261,10 262,10
263,150 264,771 265,290 266,110
267,30 268,10 275,10 277,20
278,20 279,210 280,80 281,30
282,10 289,10 290,10 291,30
293,3663 294,921 295,400 296,70
297,20 305,10 307,240 308,5795
309,1541 310,641 311,110 312,20
321,20 323,5205 324,1421 325,581
326,110 327,20 335,10 338,9999
339,3003 340,1201 341,220 342,40
343,10
##END=
