##TITLE=Benzaldehyde, 4-methoxy-, oxime
##JCAMP-DX=4.24
##DATA TYPE=MASS SPECTRUM
##ORIGIN=Humboldt-Universitat zu Berlin, Department of Chemistry, Analytical Group
##OWNER=NIST Mass Spectrometry Data Center
Collection (C) 2014 copyright by the U.S. Secretary of Commerce
on behalf of the United States of America. All rights reserved.
##CAS REGISTRY NO=3235-04-9
##$NIST MASS SPEC NO=286871
##MOLFORM=C8 H9 N O2
##MW=151
##$NIST SOURCE=MSDC
##XUNITS=M/Z
##YUNITS=RELATIVE INTENSITY
##XFACTOR=1
##YFACTOR=1
##FIRSTX=12
##LASTX=153
##FIRSTY=41
##MAXX=153
##MINX=12
##MAXY=9999
##MINY=12
##NPOINTS=116
##PEAK TABLE=(XY..XY)
12,41 13,49 14,222 15,2574
16,206 17,356 18,800 19,25
25,41 26,292 27,865 28,660
29,666 30,407 31,255 32,31
36,33 37,637 38,1357 39,1756
40,158 41,360 42,121 43,265
44,292 45,47 46,21 48,14
49,177 50,2068 51,2442 52,709
53,1776 54,197 55,302 56,60
57,111 58,31 59,16 60,49
61,391 62,1081 63,3437 64,3026
65,1287 66,489 67,169 68,101
69,125 70,53 71,53 72,21
73,150 74,711 75,791 76,931
77,5115 78,2089 79,734 80,444
81,1307 82,119 83,49 84,37
85,47 86,76 87,64 88,74
89,405 90,1221 91,1579 92,2656
93,567 94,643 95,656 96,167
97,43 98,19 99,43 100,27
101,16 102,290 103,596 104,222
105,175 106,156 107,1784 108,8749
109,1118 110,86 111,23 112,31
113,14 117,51 118,222 119,571
120,177 121,140 122,86 123,95
124,199 125,23 129,12 132,72
133,670 134,1077 135,329 136,545
137,60 147,12 148,14 149,25
150,504 151,9999 152,964 153,93
##END=
