##TITLE=2-Chlorobenzoic acid, 2-methylpropyl ester
##JCAMP-DX=4.24
##DATA TYPE=MASS SPECTRUM
##ORIGIN=V.Zaikin,Inst.Petrochem.Synth.,RAS,Moscow
##OWNER=NIST Mass Spectrometry Data Center
Collection (C) 2014 copyright by the U.S. Secretary of Commerce
on behalf of the United States of America. All rights reserved.
##CAS REGISTRY NO=32357-17-8
##$NIST MASS SPEC NO=293504
##MOLFORM=C11 H13 Cl O2
##MW=212
##$NIST SOURCE=MSDC
##XUNITS=M/Z
##YUNITS=RELATIVE INTENSITY
##XFACTOR=1
##YFACTOR=1
##FIRSTX=25
##LASTX=171
##FIRSTY=20
##MAXX=171
##MINX=25
##MAXY=9999
##MINY=10
##NPOINTS=90
##PEAK TABLE=(XY..XY)
25,20 26,140 27,801 28,150
29,941 30,70 39,841 40,180
41,1611 42,180 43,530 44,50
50,1041 51,711 52,170 53,110
54,30 55,220 56,4354 57,450
58,40 59,30 60,20 61,80
62,30 63,80 64,40 65,110
67,30 69,50 70,20 72,50
73,360 74,440 75,1962 76,761
77,450 78,100 79,180 82,20
83,30 84,120 85,260 86,40
87,100 88,40 89,20 90,20
91,100 92,40 93,60 94,30
99,40 102,30 104,170 105,170
106,20 107,30 108,20 110,90
111,2402 112,270 113,821 114,70
119,30 121,40 122,80 123,30
128,20 130,70 133,20 135,50
136,30 137,20 138,120 139,9999
140,881 141,3293 142,300 147,20
152,60 156,1421 157,3833 158,691
159,1181 160,110 161,20 168,40
169,30 171,10
##END=
