##TITLE=Naphthalene, 2-ethyl-1,2,3,4-tetrahydro-
##JCAMP-DX=4.24
##DATA TYPE=MASS SPECTRUM
##ORIGIN=CONTINENTAL OIL CO., PONCA CITY, OKLA., USA
##OWNER=NIST Mass Spectrometry Data Center
Collection (C) 2014 copyright by the U.S. Secretary of Commerce
on behalf of the United States of America. All rights reserved.
##CAS REGISTRY NO=32367-54-7
##$NIST MASS SPEC NO=39305
##MOLFORM=C12 H16
##MW=160
##$NIST SOURCE=MSDC
##XUNITS=M/Z
##YUNITS=RELATIVE INTENSITY
##XFACTOR=1
##YFACTOR=1
##FIRSTX=25
##LASTX=162
##FIRSTY=23
##MAXX=162
##MINX=25
##MAXY=9999
##MINY=1
##NPOINTS=109
##PEAK TABLE=(XY..XY)
25,23 26,142 27,1510 28,371
29,1028 30,19 36,5 37,17
38,124 39,1306 40,144 41,628
42,38 43,89 44,1 49,6
50,336 51,982 52,294 53,461
54,35 55,124 56,15 57,48
58,15 61,24 62,155 63,664
64,338 65,655 66,57 67,81
68,260 69,302 70,62 71,42
72,2 73,6 74,120 75,187
76,203 77,1035 78,926 79,212
80,14 81,14 82,12 83,2
86,34 87,66 88,40 89,302
90,80 91,3321 92,390 93,19
94,2 97,1 98,30 99,19
100,11 101,105 102,458 103,1126
104,9999 105,2032 106,175 107,48
108,45 112,3 113,45 114,85
115,2224 116,1080 117,1824 118,474
119,71 120,8 125,11 126,110
127,614 128,1489 129,1399 130,820
131,6511 132,952 133,60 138,9
139,28 140,7 141,135 142,39
143,53 144,19 145,407 146,57
147,11 151,5 152,22 153,11
154,3 155,3 156,14 157,4
158,17 159,127 160,5508 161,719
162,37
##END=
