##TITLE=1,1'-Biphenyl, 4-fluoro-
##JCAMP-DX=4.24
##DATA TYPE=MASS SPECTRUM
##OWNER=NIST Mass Spectrometry Data Center
Collection (C) 2014 copyright by the U.S. Secretary of Commerce
on behalf of the United States of America. All rights reserved.
##CAS REGISTRY NO=324-74-3
##$NIST MASS SPEC NO=6768
##MOLFORM=C12 H9 F
##MW=172
##$NIST SOURCE=MSDC
##XUNITS=M/Z
##YUNITS=RELATIVE INTENSITY
##XFACTOR=1
##YFACTOR=1
##FIRSTX=27
##LASTX=175
##FIRSTY=20
##MAXX=175
##MINX=27
##MAXY=9999
##MINY=10
##NPOINTS=88
##PEAK TABLE=(XY..XY)
27,20 28,80 39,100 50,150
51,200 52,50 57,70 60,80
61,30 62,80 63,210 64,10
65,10 68,30 69,30 70,50
72,120 73,490 74,160 75,250
76,340 77,70 78,30 79,10
80,30 81,70 83,90 84,40
85,911 86,550 87,70 89,20
90,10 91,10 92,20 93,30
94,90 95,40 96,60 98,60
99,80 100,30 101,40 102,40
103,10 104,10 105,80 106,40
107,70 108,10 109,40 110,20
111,20 112,10 113,20 114,10
115,40 120,190 121,30 122,20
123,20 124,10 125,130 126,80
127,20 131,40 132,30 133,340
134,30 139,40 144,140 145,100
146,340 147,40 149,40 150,150
151,340 152,310 153,130 154,20
168,100 169,320 170,1872 171,2853
172,9999 173,1291 174,80 175,10
##END=
