##TITLE=Acetonitrile, dibromo-
##JCAMP-DX=4.24
##DATA TYPE=MASS SPECTRUM
##ORIGIN=RADIAN CORP
##OWNER=NIST Mass Spectrometry Data Center
Collection (C) 2014 copyright by the U.S. Secretary of Commerce
on behalf of the United States of America. All rights reserved.
##CAS REGISTRY NO=3252-43-5
##$NIST MASS SPEC NO=71205
##MOLFORM=C2 H Br2 N
##MW=197
##$NIST SOURCE=MSDC
##XUNITS=M/Z
##YUNITS=RELATIVE INTENSITY
##XFACTOR=1
##YFACTOR=1
##FIRSTX=12
##LASTX=202
##FIRSTY=130
##MAXX=202
##MINX=12
##MAXY=9999
##MINY=10
##NPOINTS=63
##PEAK TABLE=(XY..XY)
12,130 13,60 14,50 24,70
25,120 26,130 27,120 28,160
29,60 36,20 38,860 39,1370
41,60 42,70 43,70 44,150
45,200 46,80 50,10 51,120
52,30 55,30 59,80 60,70
66,20 70,140 71,60 74,150
76,70 77,80 78,120 79,2910
80,130 81,2900 82,130 86,80
91,1850 92,170 93,1850 94,170
103,60 104,20 105,50 106,20
117,280 118,9920 119,560 120,9999
121,270 127,30 145,20 158,170
160,340 162,170 170,20 172,60
174,20 197,2050 198,80 199,4260
200,130 201,2160 202,50
##END=
