##TITLE=4-Stilbene carboxaldehyde
##JCAMP-DX=4.24
##DATA TYPE=MASS SPECTRUM
##ORIGIN=Japan AIST/NIMC Database- Spectrum MS-NW-8999
##OWNER=NIST Mass Spectrometry Data Center
Collection (C) 2014 copyright by the U.S. Secretary of Commerce
on behalf of the United States of America. All rights reserved.
##CAS REGISTRY NO=32555-96-7
##$NIST MASS SPEC NO=238203
##MOLFORM=C15 H12 O
##MW=208
##$NIST SOURCE=MSDC
##XUNITS=M/Z
##YUNITS=RELATIVE INTENSITY
##XFACTOR=1
##YFACTOR=1
##FIRSTX=27
##LASTX=211
##FIRSTY=20
##MAXX=211
##MINX=27
##MAXY=9999
##MINY=10
##NPOINTS=77
##PEAK TABLE=(XY..XY)
27,20 28,30 39,70 50,70
51,219 52,50 53,10 62,40
63,179 64,30 65,40 69,10
74,60 75,139 76,659 77,229
78,80 81,10 82,30 86,20
87,40 88,329 89,1099 90,109
91,20 96,20 98,20 99,10
100,10 101,60 102,139 103,179
104,90 105,10 113,20 114,10
115,80 125,10 126,60 127,70
128,70 129,50 139,80 140,10
141,10 149,10 150,90 151,269
152,479 153,109 154,20 163,40
164,40 165,499 166,70 174,20
175,40 176,509 177,559 178,3919
179,6039 180,1069 181,99 189,40
190,30 191,80 192,20 193,50
194,10 204,40 205,90 206,30
207,1639 208,9999 209,1629 210,159
211,10
##END=
