##TITLE=Acetanilide, N-(1-phenethyl-4-piperidyl)-
##JCAMP-DX=4.24
##DATA TYPE=MASS SPECTRUM
##ORIGIN=Patti Price, Georgia Bureau of Investigation, Decatur, Georgia
##OWNER=NIST Mass Spectrometry Data Center
Collection (C) 2014 copyright by the U.S. Secretary of Commerce
on behalf of the United States of America. All rights reserved.
##CAS REGISTRY NO=3258-84-2
##$NIST MASS SPEC NO=248278
##MOLFORM=C21 H26 N2 O
##MW=322
##$NIST SOURCE=MSDC
##XUNITS=M/Z
##YUNITS=RELATIVE INTENSITY
##XFACTOR=1
##YFACTOR=1
##FIRSTX=42
##LASTX=322
##FIRSTY=720
##MAXX=322
##MINX=42
##MAXY=9999
##MINY=10
##NPOINTS=113
##PEAK TABLE=(XY..XY)
42,720 43,700 50,20 51,100
52,30 53,40 54,40 55,110
56,120 57,60 63,40 64,20
65,240 66,70 67,120 68,120
69,130 70,210 71,30 72,10
73,10 74,10 75,10 76,20
77,880 78,150 79,370 80,80
81,30 82,120 83,20 84,30
86,10 89,20 90,20 91,640
92,70 93,420 94,170 95,110
96,740 97,70 98,10 102,10
103,320 104,340 105,960 106,240
107,10 111,10 115,50 116,10
117,210 118,670 119,110 120,50
126,10 128,20 129,20 130,450
131,300 132,640 133,100 134,50
135,110 136,50 137,10 139,30
141,10 142,10 143,10 144,120
145,70 146,5264 147,610 148,60
149,10 156,10 157,10 158,1391
159,190 160,130 161,20 162,10
165,10 168,10 170,10 172,30
174,10 175,10 180,10 185,40
186,150 187,70 188,3272 189,1471
190,200 191,10 202,60 203,10
208,10 220,10 228,10 229,10
230,10 231,9999 232,1491 233,130
234,10 256,10 279,10 320,30
322,10
##END=
