##TITLE=Cyclopropanecarbonitrile, 2-[p-(dimethylamino)phenyl]-1-p-tolyl-
##JCAMP-DX=4.24
##DATA TYPE=MASS SPECTRUM
##OWNER=NIST Mass Spectrometry Data Center
Collection (C) 2014 copyright by the U.S. Secretary of Commerce
on behalf of the United States of America. All rights reserved.
##CAS REGISTRY NO=32589-51-8
##$NIST MASS SPEC NO=13325
##MOLFORM=C19 H20 N2
##MW=276
##$NIST SOURCE=MSDC
##XUNITS=M/Z
##YUNITS=RELATIVE INTENSITY
##XFACTOR=1
##YFACTOR=1
##FIRSTX=39
##LASTX=278
##FIRSTY=400
##MAXX=278
##MINX=39
##MAXY=9999
##MINY=200
##NPOINTS=36
##PEAK TABLE=(XY..XY)
39,400 42,300 63,300 65,400
77,500 89,400 91,500 103,300
104,400 115,300 117,500 118,601
120,500 121,300 129,300 130,500
131,300 132,300 134,2002 135,200
137,300 138,500 140,300 146,500
147,400 154,400 183,300 185,601
260,300 261,1201 262,400 274,300
275,2702 276,9999 277,2502 278,300
##END=
