##TITLE=Propanamide, 2,2-dimethyl-N-(3-methylphenyl)-
##JCAMP-DX=4.24
##DATA TYPE=MASS SPECTRUM
##ORIGIN=Zaikin V.G., TIPS RAS, Moscow, Russia
##OWNER=NIST Mass Spectrometry Data Center
Collection (C) 2014 copyright by the U.S. Secretary of Commerce
on behalf of the United States of America. All rights reserved.
##CAS REGISTRY NO=32597-29-8
##$NIST MASS SPEC NO=307195
##MOLFORM=C12 H17 N O
##MW=191
##$NIST SOURCE=MSDC
##XUNITS=M/Z
##YUNITS=RELATIVE INTENSITY
##XFACTOR=1
##YFACTOR=1
##FIRSTX=26
##LASTX=193
##FIRSTY=40
##MAXX=193
##MINX=26
##MAXY=9999
##MINY=30
##NPOINTS=60
##PEAK TABLE=(XY..XY)
26,40 27,200 28,280 29,711
30,30 36,30 38,40 39,500
40,90 41,1351 42,160 44,30
50,70 51,170 52,130 53,130
54,30 55,130 56,90 57,8007
58,360 63,120 64,70 65,410
66,60 69,100 70,30 76,30
77,801 78,340 79,540 80,230
85,520 86,30 89,130 90,100
91,1051 92,110 93,40 104,220
105,110 106,2532 107,9388 108,901
109,40 120,40 132,190 133,611
134,851 135,460 136,50 143,50
148,871 149,180 160,40 176,80
190,110 191,9999 192,1411 193,110
##END=
