##TITLE=Propanamide, 2,2-dimethyl-N-(3-nitrophenyl)-
##JCAMP-DX=4.24
##DATA TYPE=MASS SPECTRUM
##ORIGIN=Zaikin V.G., TIPS RAS, Moscow, Russia
##OWNER=NIST Mass Spectrometry Data Center
Collection (C) 2014 copyright by the U.S. Secretary of Commerce
on behalf of the United States of America. All rights reserved.
##CAS REGISTRY NO=32597-30-1
##$NIST MASS SPEC NO=307200
##MOLFORM=C11 H14 N2 O3
##MW=222
##$NIST SOURCE=MSDC
##XUNITS=M/Z
##YUNITS=RELATIVE INTENSITY
##XFACTOR=1
##YFACTOR=1
##FIRSTX=26
##LASTX=224
##FIRSTY=30
##MAXX=224
##MINX=26
##MAXY=9999
##MINY=30
##NPOINTS=65
##PEAK TABLE=(XY..XY)
26,30 27,170 28,340 29,871
30,90 36,30 38,80 39,470
40,80 41,1692 42,180 43,30
44,40 50,130 51,90 52,120
53,70 54,60 55,160 56,110
57,9999 58,440 62,40 63,250
64,320 65,400 66,50 69,110
70,40 74,30 75,130 76,280
77,50 78,40 79,70 80,160
83,30 85,1942 86,110 90,130
91,280 92,831 93,110 106,40
108,180 111,30 117,30 118,40
119,40 122,50 133,80 134,30
137,150 138,1692 139,130 163,30
164,30 165,150 179,340 180,40
192,90 207,90 222,2082 223,320
224,30
##END=
