##TITLE=1,1'-Biphenyl, 2,3,3',4,4'-pentachloro-
##JCAMP-DX=4.24
##DATA TYPE=MASS SPECTRUM
##ORIGIN=Organic Synthesis Lab, MSU, Moscow.TRC 1282
##OWNER=NIST Mass Spectrometry Data Center
Collection (C) 2014 copyright by the U.S. Secretary of Commerce
on behalf of the United States of America. All rights reserved.
##CAS REGISTRY NO=32598-14-4
##$NIST MASS SPEC NO=326654
##MOLFORM=C12 H5 Cl5
##MW=324
##$NIST SOURCE=MSDC
##XUNITS=M/Z
##YUNITS=RELATIVE INTENSITY
##XFACTOR=1
##YFACTOR=1
##FIRSTX=41
##LASTX=334
##FIRSTY=7
##MAXX=334
##MINX=41
##MAXY=9999
##MINY=7
##NPOINTS=145
##PEAK TABLE=(XY..XY)
41,7 43,19 44,77 47,38
48,12 49,85 50,140 51,49
57,13 60,43 61,192 62,113
63,47 67,13 71,27 72,69
73,248 74,414 75,167 79,67
83,28 84,161 85,180 86,155
87,45 92,262 93,85 95,20
96,70 97,161 98,285 99,181
100,22 104,9 107,58 108,157
109,667 110,465 111,152 112,15
114,36 115,39 118,13 119,23
120,65 121,112 122,140 123,119
124,27 125,13 127,774 128,611
129,248 130,35 131,24 132,66
133,133 134,58 135,81 136,31
137,27 142,11 143,31 144,168
145,257 146,343 147,195 148,144
149,184 150,24 154,10 155,13
156,30 157,46 158,61 159,45
160,29 162,126 163,223 164,116
165,48 166,13 168,18 169,65
170,62 171,42 172,45 180,15
181,47 182,103 183,202 184,800
185,191 186,253 187,37 192,17
193,36 194,54 195,28 196,29
197,13 204,74 205,19 206,59
207,21 208,19 216,8 217,34
218,310 219,322 220,274 221,200
222,61 223,29 228,33 229,14
230,38 232,16 252,18 253,84
254,2588 255,332 256,2444 257,298
258,856 259,94 260,93 288,86
289,62 290,153 291,68 292,87
293,29 294,22 324,6057 325,789
326,9999 327,1189 328,6499 329,831
330,1968 331,270 332,288 333,58
334,28
##END=
