##TITLE=1,3-Butanedione, 4,4,4-trifluoro-1-phenyl-
##JCAMP-DX=4.24
##DATA TYPE=MASS SPECTRUM
##ORIGIN=Japan AIST/NIMC Database- Spectrum MS-IW-3459
##OWNER=NIST Mass Spectrometry Data Center
Collection (C) 2014 copyright by the U.S. Secretary of Commerce
on behalf of the United States of America. All rights reserved.
##CAS REGISTRY NO=326-06-7
##$NIST MASS SPEC NO=232208
##MOLFORM=C10 H7 F3 O2
##MW=216
##$NIST SOURCE=MSDC
##XUNITS=M/Z
##YUNITS=RELATIVE INTENSITY
##XFACTOR=1
##YFACTOR=1
##FIRSTX=20
##LASTX=218
##FIRSTY=10
##MAXX=218
##MINX=20
##MAXY=9999
##MINY=10
##NPOINTS=92
##PEAK TABLE=(XY..XY)
20,10 26,20 27,159 28,50
29,40 31,30 32,10 33,10
37,60 38,139 39,479 40,30
41,139 42,99 43,30 44,20
45,109 46,20 47,10 49,60
50,979 51,2429 52,299 53,119
55,10 58,10 59,329 60,20
61,70 62,179 63,429 64,109
65,609 66,70 67,10 69,9999
70,399 71,70 73,969 74,529
75,399 76,359 77,5059 78,779
79,169 80,10 83,20 84,10
85,20 86,30 87,30 88,10
89,359 90,249 91,579 92,50
93,10 95,10 97,10 98,30
99,20 101,119 102,159 103,369
104,50 105,4389 106,339 107,20
108,20 109,149 110,10 117,10
118,139 119,179 120,60 121,20
129,40 139,289 140,10 145,10
146,20 147,9079 148,909 149,90
151,10 159,20 167,20 169,10
215,699 216,6639 217,749 218,60
##END=
