##TITLE=2-(p-Tolyl)ethylamine
##JCAMP-DX=4.24
##DATA TYPE=MASS SPECTRUM
##ORIGIN=Chuck Anderson, Aldrich Chemical Co.
##OWNER=NIST Mass Spectrometry Data Center
Collection (C) 2014 copyright by the U.S. Secretary of Commerce
on behalf of the United States of America. All rights reserved.
##CAS REGISTRY NO=3261-62-9
##$NIST MASS SPEC NO=107801
##MOLFORM=C9 H13 N
##MW=135
##$NIST SOURCE=MSDC
##XUNITS=M/Z
##YUNITS=RELATIVE INTENSITY
##XFACTOR=1
##YFACTOR=1
##FIRSTX=26
##LASTX=136
##FIRSTY=27
##MAXX=136
##MINX=26
##MAXY=9999
##MINY=25
##NPOINTS=49
##PEAK TABLE=(XY..XY)
26,27 27,340 28,365 29,92
30,9999 31,156 38,54 39,423
40,43 41,89 42,94 43,47
50,151 51,385 52,151 53,166
62,95 63,303 64,75 65,438
66,75 74,59 75,58 76,63
77,1078 78,421 79,573 80,41
89,175 90,55 91,2294 92,194
102,111 103,624 104,368 105,1575
106,4554 107,398 115,214 116,57
117,250 118,188 119,93 130,35
132,72 133,86 134,25 135,1010
136,102
##END=
