##TITLE=Rhodium, [(1,2,5,6-.eta.)-1,5-cyclooctadiene](.eta.5-2,4-cyclopentadien-1-yl)-
##JCAMP-DX=4.24
##DATA TYPE=MASS SPECTRUM
##ORIGIN=D.HENNEBERG, MAX-PLANCK INSTITUTE, MULHEIM, WEST GERMANY
##OWNER=NIST Mass Spectrometry Data Center
Collection (C) 2014 copyright by the U.S. Secretary of Commerce
on behalf of the United States of America. All rights reserved.
##CAS REGISTRY NO=32610-45-0
##$NIST MASS SPEC NO=62832
##MOLFORM=C13 H17 Rh
##MW=276
##$NIST SOURCE=MSDC
##XUNITS=M/Z
##YUNITS=RELATIVE INTENSITY
##XFACTOR=1
##YFACTOR=1
##FIRSTX=26
##LASTX=279
##FIRSTY=339
##MAXX=279
##MINX=26
##MAXY=9999
##MINY=2
##NPOINTS=185
##PEAK TABLE=(XY..XY)
26,339 27,96 28,114 29,35
32,5 37,9 38,27 39,229
40,66 41,96 42,13 43,10
44,15 50,56 51,37 52,33
53,51 54,133 55,18 56,9
57,6 62,13 63,30 64,13
65,149 66,156 67,124 68,16
70,2 71,5 73,6 74,5
76,9 77,93 78,114 79,126
80,76 81,9 89,9 91,107
92,13 93,33 94,6 101,3
102,14 103,1129 104,28 105,53
106,31 107,13 108,20 109,4
111,8 113,6 114,14 115,169
116,9 117,11 120,5 123,61
126,17 128,7 129,135 130,138
131,24 132,3 137,29 138,29
139,6 140,65 141,147 142,1115
143,170 144,104 145,5 152,11
153,54 154,258 155,215 156,225
157,160 158,153 159,8 163,6
164,18 165,32 166,56 167,91
168,9999 169,1145 170,78 171,17
177,13 178,68 179,130 180,972
181,660 182,2050 183,159 184,51
185,6 188,6 189,4 191,11
192,150 193,105 194,208 195,143
196,23 197,3 200,7 201,6
202,13 203,178 204,665 205,1442
206,1344 207,369 208,1680 209,189
210,131 211,39 216,10 217,43
218,61 219,60 220,47 221,48
222,947 223,104 224,16 225,15
226,52 227,19 228,133 229,36
230,18 231,28 232,29 233,1358
234,153 235,238 236,39 237,7
239,7 240,6 241,21 242,32
243,76 244,21 245,82 246,4360
247,2150 248,224 249,26 250,55
251,17 252,186 253,53 254,17
255,40 256,8 257,68 258,17
259,836 260,221 261,1055 262,131
263,11 264,4 265,11 266,19
267,56 268,94 269,60 270,361
271,622 272,834 273,2396 274,1302
275,1364 276,9716 277,1379 278,104
279,7
##END=
