##TITLE=Thiodiglycolic anhydride
##JCAMP-DX=4.24
##DATA TYPE=MASS SPECTRUM
##ORIGIN=NIST Mass Spectrometry Data Center
##OWNER=NIST Mass Spectrometry Data Center
Collection (C) 2014 copyright by the U.S. Secretary of Commerce
on behalf of the United States of America. All rights reserved.
##CAS REGISTRY NO=3261-87-8
##$NIST MASS SPEC NO=343296
##MOLFORM=C4 H4 O3 S
##MW=132
##$NIST SOURCE=MSDC
##XUNITS=M/Z
##YUNITS=RELATIVE INTENSITY
##XFACTOR=1
##YFACTOR=1
##FIRSTX=12
##LASTX=134
##FIRSTY=190
##MAXX=134
##MINX=12
##MAXY=9999
##MINY=10
##NPOINTS=32
##PEAK TABLE=(XY..XY)
12,190 13,611 14,1792 15,120
17,10 25,170 27,380 28,591
29,500 32,140 33,200 34,150
40,150 41,540 42,5355 43,2052
44,1361 45,5855 46,9999 47,581
48,540 56,90 57,190 58,510
59,1581 60,8358 61,430 62,460
88,240 132,5265 133,270 134,310
##END=
