##TITLE=3-Pyridinol, 2-(methylthio)-
##JCAMP-DX=4.24
##DATA TYPE=MASS SPECTRUM
##ORIGIN=K. UNDHEIM
##OWNER=NIST Mass Spectrometry Data Center
Collection (C) 2014 copyright by the U.S. Secretary of Commerce
on behalf of the United States of America. All rights reserved.
##CAS REGISTRY NO=32637-37-9
##$NIST MASS SPEC NO=41602
##MOLFORM=C6 H7 N O S
##MW=141
##$NIST SOURCE=MSDC
##XUNITS=M/Z
##YUNITS=RELATIVE INTENSITY
##XFACTOR=1
##YFACTOR=1
##FIRSTX=39
##LASTX=143
##FIRSTY=7900
##MAXX=143
##MINX=39
##MAXY=9999
##MINY=200
##NPOINTS=41
##PEAK TABLE=(XY..XY)
39,7900 40,900 41,900 42,300
44,700 45,1900 46,500 47,600
50,300 51,400 52,500 53,1100
54,800 55,400 57,200 58,200
63,200 64,700 65,1500 66,1000
67,4400 68,1100 69,500 70,600
71,600 72,200 79,800 80,2400
81,400 82,300 94,500 95,900
96,900 98,1300 108,7600 109,700
125,200 140,1800 141,9999 142,900
143,500
##END=
