##TITLE=(+)-di-O-4-Toluoyl-D-tartaric acid
##JCAMP-DX=4.24
##DATA TYPE=MASS SPECTRUM
##ORIGIN=Japan AIST/NIMC Database- Spectrum MS-NW-8640
##OWNER=NIST Mass Spectrometry Data Center
Collection (C) 2014 copyright by the U.S. Secretary of Commerce
on behalf of the United States of America. All rights reserved.
##CAS REGISTRY NO=32634-68-7
##$NIST MASS SPEC NO=232959
##MOLFORM=C20 H18 O8
##MW=386
##$NIST SOURCE=MSDC
##XUNITS=M/Z
##YUNITS=RELATIVE INTENSITY
##XFACTOR=1
##YFACTOR=1
##FIRSTX=14
##LASTX=386
##FIRSTY=10
##MAXX=386
##MINX=14
##MAXY=9999
##MINY=10
##NPOINTS=71
##PEAK TABLE=(XY..XY)
14,10 15,10 17,30 18,109
26,10 27,40 28,20 29,30
30,10 31,20 37,20 38,50
39,369 40,40 41,129 42,40
43,50 44,80 45,70 50,109
51,169 52,40 53,50 54,10
55,10 58,10 59,60 61,30
62,90 63,279 64,80 65,999
66,60 69,40 70,20 71,30
74,30 75,30 76,30 77,80
78,10 79,20 85,10 86,20
87,20 88,10 89,289 90,239
91,3589 92,469 93,30 105,20
107,70 108,10 118,90 119,9999
120,879 121,60 135,50 136,1839
137,179 138,10 161,10 176,20
233,30 250,70 251,10 255,30
368,169 369,40 386,10
##END=
