##TITLE=Ethyl nerate
##JCAMP-DX=4.24
##DATA TYPE=MASS SPECTRUM
##ORIGIN=Philip Morris R&D
##OWNER=NIST Mass Spectrometry Data Center
Collection (C) 2014 copyright by the U.S. Secretary of Commerce
on behalf of the United States of America. All rights reserved.
##CAS REGISTRY NO=32659-20-4
##$NIST MASS SPEC NO=108569
##MOLFORM=C12 H20 O2
##MW=196
##$NIST SOURCE=MSDC
##XUNITS=M/Z
##YUNITS=RELATIVE INTENSITY
##XFACTOR=1
##YFACTOR=1
##FIRSTX=38
##LASTX=197
##FIRSTY=37
##MAXX=197
##MINX=38
##MAXY=9999
##MINY=21
##NPOINTS=94
##PEAK TABLE=(XY..XY)
38,37 39,889 40,255 41,3919
42,277 43,774 44,71 45,114
50,27 51,154 52,87 53,660
54,301 55,424 56,142 57,143
58,45 59,214 60,31 63,45
65,189 66,72 67,726 68,392
69,9999 70,659 71,151 72,44
73,28 77,272 78,65 79,331
80,142 81,498 82,1923 83,1512
84,222 85,527 86,37 87,74
91,395 92,57 93,244 94,70
95,354 96,134 97,178 98,58
99,154 100,3476 101,210 102,32
103,23 105,189 106,58 107,780
108,529 109,737 110,93 111,371
112,386 113,549 114,53 115,44
116,45 119,39 121,317 122,1376
123,2795 124,311 125,150 126,24
127,24 128,5241 129,427 130,42
133,50 135,316 136,40 137,25
139,273 140,117 141,176 142,30
150,870 152,1931 153,299 154,685
155,21 163,25 168,37 181,98
196,1442 197,203
##END=
