##TITLE=Benzhydryl 2-chloroethyl ether
##JCAMP-DX=4.24
##DATA TYPE=MASS SPECTRUM
##ORIGIN=NIST Mass Spectrometry Data Center, 1994
##OWNER=NIST Mass Spectrometry Data Center
Collection (C) 2014 copyright by the U.S. Secretary of Commerce
on behalf of the United States of America. All rights reserved.
##CAS REGISTRY NO=32669-06-0
##$NIST MASS SPEC NO=135284
##MOLFORM=C15 H15 Cl O
##MW=246
##$NIST SOURCE=MSDC
##XUNITS=M/Z
##YUNITS=RELATIVE INTENSITY
##XFACTOR=1
##YFACTOR=1
##FIRSTX=12
##LASTX=250
##FIRSTY=27
##MAXX=250
##MINX=12
##MAXY=9999
##MINY=18
##NPOINTS=102
##PEAK TABLE=(XY..XY)
12,27 13,23 14,143 15,556
16,28 17,21 18,79 27,3582
28,385 29,583 30,308 35,31
36,43 37,41 38,189 39,1272
40,88 41,61 42,104 43,62
44,19 47,20 49,582 50,1135
51,3153 52,450 53,113 55,41
58,173 61,66 63,4068 64,214
65,1399 66,71 70,296 71,243
73,39 74,305 75,364 76,691
77,5191 78,863 79,1829 80,151
83,1526 86,107 87,201 88,133
89,590 90,87 91,187 92,37
98,54 99,50 100,35 101,66
102,207 103,133 104,35 105,7186
106,687 107,1361 108,113 110,31
111,31 113,148 114,99 115,779
116,93 126,153 127,199 128,407
129,84 133,114 134,23 137,45
139,577 140,87 141,135 152,2366
153,508 154,136 155,422 156,62
163,446 165,5012 166,2386 167,9999
168,2141 169,3320 170,391 171,1024
172,113 181,41 183,499 184,72
194,29 246,3275 247,712 248,1093
249,177 250,18
##END=
