##TITLE=2,3-Epoxybutane
##JCAMP-DX=4.24
##DATA TYPE=MASS SPECTRUM
##ORIGIN=Japan AIST/NIMC Database- Spectrum MS-NW-2959
##OWNER=NIST Mass Spectrometry Data Center
Collection (C) 2014 copyright by the U.S. Secretary of Commerce
on behalf of the United States of America. All rights reserved.
##CAS REGISTRY NO=3266-23-7
##$NIST MASS SPEC NO=231153
##MOLFORM=C4 H8 O
##MW=72
##$NIST SOURCE=MSDC
##XUNITS=M/Z
##YUNITS=RELATIVE INTENSITY
##XFACTOR=1
##YFACTOR=1
##FIRSTX=12
##LASTX=73
##FIRSTY=10
##MAXX=73
##MINX=12
##MAXY=9999
##MINY=10
##NPOINTS=40
##PEAK TABLE=(XY..XY)
12,10 13,30 14,149 15,729
16,50 17,60 18,239 19,159
25,50 26,979 27,2569 28,1759
29,1889 30,30 31,90 32,10
36,10 37,40 38,60 39,329
40,30 41,709 42,199 43,9999
44,7349 45,4619 46,119 47,10
49,30 50,70 51,50 52,20
53,99 54,70 55,70 56,50
57,219 71,70 72,559 73,20
##END=
