##TITLE=Chloromethyl thiocyanate
##JCAMP-DX=4.24
##DATA TYPE=MASS SPECTRUM
##ORIGIN=NIST Mass Spectrometry Data Center
##OWNER=NIST Mass Spectrometry Data Center
Collection (C) 2014 copyright by the U.S. Secretary of Commerce
on behalf of the United States of America. All rights reserved.
##CAS REGISTRY NO=3268-79-9
##$NIST MASS SPEC NO=340773
##MOLFORM=C2 H2 Cl N S
##MW=107
##$NIST SOURCE=MSDC
##XUNITS=M/Z
##YUNITS=RELATIVE INTENSITY
##XFACTOR=1
##YFACTOR=1
##FIRSTX=12
##LASTX=111
##FIRSTY=310
##MAXX=111
##MINX=12
##MAXY=9999
##MINY=10
##NPOINTS=40
##PEAK TABLE=(XY..XY)
12,310 13,260 14,530 24,10
26,250 32,1221 33,100 34,70
35,581 36,120 37,180 38,70
39,10 40,30 44,891 45,2452
46,1361 47,791 49,9999 50,280
51,3023 52,30 56,30 58,1271
60,20 61,10 67,40 70,260
72,4174 73,40 79,180 80,60
81,100 82,30 83,10 107,3463
108,180 109,1371 110,30 111,50
##END=
