##TITLE=1,4-Dibromo-2,5-difluorobenzene
##JCAMP-DX=4.24
##DATA TYPE=MASS SPECTRUM
##ORIGIN=NIST Mass Spectrometry Data Center
##OWNER=NIST Mass Spectrometry Data Center
Collection (C) 2014 copyright by the U.S. Secretary of Commerce
on behalf of the United States of America. All rights reserved.
##CAS REGISTRY NO=327-51-5
##$NIST MASS SPEC NO=340896
##MOLFORM=C6 H2 Br2 F2
##MW=270
##$NIST SOURCE=MSDC
##XUNITS=M/Z
##YUNITS=RELATIVE INTENSITY
##XFACTOR=1
##YFACTOR=1
##FIRSTX=24
##LASTX=275
##FIRSTY=10
##MAXX=275
##MINX=24
##MAXY=9999
##MINY=10
##NPOINTS=112
##PEAK TABLE=(XY..XY)
24,10 25,30 26,10 31,1051
32,10 36,180 37,530 38,90
43,10 44,50 48,70 49,240
50,240 51,40 55,230 56,1041
57,150 60,250 61,2182 62,2983
63,150 67,60 68,991 69,70
72,90 73,330 74,701 75,120
79,631 80,651 81,1892 82,100
86,330 87,120 91,190 92,1311
93,891 94,50 95,340 96,320
99,10 100,10 103,10 104,50
105,10 106,50 110,210 111,1311
112,9999 113,641 114,20 115,30
116,40 117,40 118,40 119,10
122,30 123,10 124,30 125,10
126,10 127,10 128,60 129,20
130,60 131,10 134,50 135,631
136,901 137,601 139,30 140,80
141,190 142,90 143,160 144,10
146,50 147,20 148,50 149,10
152,20 153,10 154,10 155,10
158,10 159,70 160,30 161,70
162,10 166,10 168,10 170,10
171,50 172,60 173,50 174,50
179,10 181,10 190,140 191,2302
192,280 193,2192 194,140 239,10
241,30 243,10 253,10 270,3353
272,6366 273,440 274,3123 275,190
##END=
