##TITLE=Benzene, 1,2,4,5-tetrafluoro-
##JCAMP-DX=4.24
##DATA TYPE=MASS SPECTRUM
##ORIGIN=NIST Mass Spectrometry Data Center, 1990.
##OWNER=NIST Mass Spectrometry Data Center
Collection (C) 2014 copyright by the U.S. Secretary of Commerce
on behalf of the United States of America. All rights reserved.
##CAS REGISTRY NO=327-54-8
##$NIST MASS SPEC NO=118783
##MOLFORM=C6 H2 F4
##MW=150
##$NIST SOURCE=MSDC
##XUNITS=M/Z
##YUNITS=RELATIVE INTENSITY
##XFACTOR=1
##YFACTOR=1
##FIRSTX=13
##LASTX=151
##FIRSTY=32
##MAXX=151
##MINX=13
##MAXY=9999
##MINY=8
##NPOINTS=56
##PEAK TABLE=(XY..XY)
13,32 17,13 18,75 19,37
27,32 29,8 31,1627 32,57
36,100 37,360 38,134 44,41
45,63 48,54 49,95 50,350
51,166 55,189 56,433 57,211
60,131 61,690 62,285 67,62
68,360 69,418 73,55 74,245
75,1740 76,52 79,391 80,856
81,4811 82,290 86,179 87,135
88,55 92,93 93,276 99,2104
100,911 101,59 105,46 106,376
110,47 111,53 112,37 117,88
119,1219 120,72 124,126 130,683
131,530 132,49 150,9999 151,696
##END=
