##TITLE=3,5-Bis(trifluoromethyl)benzyl alcohol
##JCAMP-DX=4.24
##DATA TYPE=MASS SPECTRUM
##ORIGIN=NIST Mass Spectrometry Data Center
##OWNER=NIST Mass Spectrometry Data Center
Collection (C) 2014 copyright by the U.S. Secretary of Commerce
on behalf of the United States of America. All rights reserved.
##CAS REGISTRY NO=32707-89-4
##$NIST MASS SPEC NO=342458
##MOLFORM=C9 H6 F6 O
##MW=244
##$NIST SOURCE=MSDC
##XUNITS=M/Z
##YUNITS=RELATIVE INTENSITY
##XFACTOR=1
##YFACTOR=1
##FIRSTX=17
##LASTX=245
##FIRSTY=20
##MAXX=245
##MINX=17
##MAXY=9999
##MINY=10
##NPOINTS=131
##PEAK TABLE=(XY..XY)
17,20 18,50 19,30 28,170
29,1982 30,300 31,1091 33,40
37,60 38,150 39,300 40,10
49,100 50,530 51,571 52,60
53,80 55,40 56,70 57,310
61,120 62,290 63,380 64,50
66,20 69,2112 70,70 73,40
74,330 75,1501 76,160 77,400
78,210 79,70 80,90 81,280
82,40 83,70 84,20 85,80
86,140 87,310 88,400 89,90
91,20 92,50 93,210 94,200
95,430 96,210 97,60 99,470
100,100 101,190 102,60 104,50
105,160 106,90 107,300 108,100
109,20 111,50 112,220 113,130
114,120 115,20 117,70 118,50
119,200 121,10 123,160 124,70
125,901 127,7126 128,500 129,20
131,20 132,130 133,20 137,250
138,280 139,70 143,601 144,811
145,2252 146,260 147,931 148,80
150,30 151,20 155,1852 156,380
157,270 158,240 159,40 161,20
163,821 164,230 165,30 169,50
173,200 175,5115 176,931 177,510
178,50 181,50 187,410 188,40
193,120 195,9999 196,2282 197,150
204,20 205,190 206,90 207,150
208,90 213,1221 214,320 215,320
216,120 223,571 225,4704 226,561
227,641 228,40 241,621 242,200
243,911 244,3223 245,270
##END=
