##TITLE=3-Methyl-p-anisaldehyde
##JCAMP-DX=4.24
##DATA TYPE=MASS SPECTRUM
##ORIGIN=Chuck Anderson, Aldrich Chemical Co.
##OWNER=NIST Mass Spectrometry Data Center
Collection (C) 2014 copyright by the U.S. Secretary of Commerce
on behalf of the United States of America. All rights reserved.
##CAS REGISTRY NO=32723-67-4
##$NIST MASS SPEC NO=108147
##MOLFORM=C9 H10 O2
##MW=150
##$NIST SOURCE=MSDC
##XUNITS=M/Z
##YUNITS=RELATIVE INTENSITY
##XFACTOR=1
##YFACTOR=1
##FIRSTX=14
##LASTX=153
##FIRSTY=6
##MAXX=153
##MINX=14
##MAXY=9999
##MINY=1
##NPOINTS=81
##PEAK TABLE=(XY..XY)
14,6 15,61 26,36 27,204
28,29 29,147 30,7 31,9
36,6 37,66 38,202 39,809
40,60 41,109 42,13 43,66
44,10 45,22 49,31 50,454
51,1015 52,532 53,346 54,27
55,63 56,1 59,12 60,53
61,110 62,260 63,639 64,140
65,774 66,79 67,63 68,4
69,6 73,37 74,184 75,109
76,100 77,2300 78,887 79,351
80,25 81,8 84,4 85,33
86,69 87,51 88,12 89,497
90,156 91,3636 92,298 93,98
94,8 102,1 103,28 104,2
105,314 106,449 107,255 108,19
117,39 118,31 119,94 120,26
121,745 122,110 123,7 133,32
134,28 135,147 136,12 147,34
149,9999 150,6334 151,596 152,49
153,1
##END=
