##TITLE=Heliosupine
##JCAMP-DX=4.24
##DATA TYPE=MASS SPECTRUM
##OWNER=NIST Mass Spectrometry Data Center
Collection (C) 2014 copyright by the U.S. Secretary of Commerce
on behalf of the United States of America. All rights reserved.
##CAS REGISTRY NO=32728-78-2
##$NIST MASS SPEC NO=16937
##MOLFORM=C20 H31 N O7
##MW=397
##$NIST SOURCE=MSDC
##XUNITS=M/Z
##YUNITS=RELATIVE INTENSITY
##XFACTOR=1
##YFACTOR=1
##FIRSTX=35
##LASTX=397
##FIRSTY=200
##MAXX=397
##MINX=35
##MAXY=9999
##MINY=100
##NPOINTS=163
##PEAK TABLE=(XY..XY)
35,200 36,400 37,200 38,400
39,1301 40,500 41,1601 42,801
43,3503 44,3003 45,1301 46,200
47,200 48,100 49,200 50,200
51,100 52,300 53,701 54,701
55,4304 56,701 57,701 58,601
59,300 60,300 61,100 62,100
63,200 64,200 65,300 66,300
67,801 70,1101 71,300 72,200
73,200 74,200 75,100 76,100
77,500 78,300 79,400 80,2102
81,500 82,601 83,3003 84,300
85,500 86,200 88,200 89,200
90,300 91,300 92,300 93,3503
94,2502 95,1001 96,300 97,300
98,200 99,200 100,801 101,200
102,300 103,200 104,300 105,300
106,1001 107,400 108,500 109,300
110,300 111,701 112,100 114,100
115,100 116,400 117,500 118,801
119,2502 120,5005 121,2502 122,500
123,200 124,500 125,100 126,100
127,100 128,100 129,100 130,200
131,100 132,200 133,200 134,500
135,300 136,4004 137,1001 138,801
139,200 140,100 141,601 142,200
143,100 144,100 145,100 146,100
147,100 148,100 149,100 150,200
151,200 152,200 153,100 154,200
155,100 156,100 160,100 161,100
162,100 163,100 164,100 165,100
166,100 167,100 168,100 169,100
174,200 175,100 176,100 177,100
178,100 179,100 180,100 181,100
190,200 191,200 192,200 193,200
194,100 195,200 209,100 218,300
219,1001 220,9999 221,3003 222,601
223,200 235,300 236,200 237,200
238,300 239,200 297,1401 298,300
321,100 335,200 337,100 338,100
352,100 382,100 397,100
##END=
