##TITLE=Pyrazine, 2,5-dimethyl-3-(2-methylpropyl)-
##JCAMP-DX=4.24
##DATA TYPE=MASS SPECTRUM
##OWNER=NIST Mass Spectrometry Data Center
Collection (C) 2014 copyright by the U.S. Secretary of Commerce
on behalf of the United States of America. All rights reserved.
##CAS REGISTRY NO=32736-94-0
##$NIST MASS SPEC NO=6061
##MOLFORM=C10 H16 N2
##MW=164
##$NIST SOURCE=MSDC
##XUNITS=M/Z
##YUNITS=RELATIVE INTENSITY
##XFACTOR=1
##YFACTOR=1
##FIRSTX=14
##LASTX=166
##FIRSTY=20
##MAXX=166
##MINX=14
##MAXY=9999
##MINY=10
##NPOINTS=138
##PEAK TABLE=(XY..XY)
14,20 15,410 16,20 17,30
18,90 25,10 26,130 27,1141
28,571 29,160 30,20 31,10
32,70 35,10 36,10 37,40
38,180 39,1732 40,460 41,891
42,1611 43,390 44,30 45,10
46,10 47,10 48,10 49,10
50,80 51,230 52,370 53,881
54,260 55,100 56,40 57,50
58,10 59,10 60,10 61,10
62,10 63,30 64,60 65,80
66,160 67,160 68,70 69,20
70,10 71,10 72,10 73,20
74,30 75,20 76,30 77,110
78,80 79,110 80,370 81,160
82,50 83,10 84,10 85,10
86,10 87,10 88,10 89,10
90,10 91,30 92,20 93,30
94,70 95,60 96,90 97,10
98,10 99,10 100,10 101,10
102,10 103,10 104,10 105,20
106,40 107,260 108,240 109,70
110,10 111,10 112,10 113,10
114,10 115,10 116,10 117,10
118,10 119,20 120,130 121,701
122,9999 123,831 124,30 125,10
126,10 127,10 128,10 129,10
130,10 131,10 132,20 133,110
134,20 135,20 136,10 137,10
138,10 139,10 140,10 141,10
142,10 143,10 144,10 145,20
146,20 147,80 148,20 149,1141
150,120 151,10 159,10 160,10
161,10 162,10 163,400 164,480
165,60 166,10
##END=
