##TITLE=Cycloheptyl cyanide
##JCAMP-DX=4.24
##DATA TYPE=MASS SPECTRUM
##ORIGIN=NIST Mass Spectrometry Data Center, 1992
##OWNER=NIST Mass Spectrometry Data Center
Collection (C) 2014 copyright by the U.S. Secretary of Commerce
on behalf of the United States of America. All rights reserved.
##CAS REGISTRY NO=32730-85-1
##$NIST MASS SPEC NO=125281
##MOLFORM=C8 H13 N
##MW=123
##$NIST SOURCE=MSDC
##XUNITS=M/Z
##YUNITS=RELATIVE INTENSITY
##XFACTOR=1
##YFACTOR=1
##FIRSTX=14
##LASTX=124
##FIRSTY=61
##MAXX=124
##MINX=14
##MAXY=9999
##MINY=16
##NPOINTS=68
##PEAK TABLE=(XY..XY)
14,61 15,420 18,165 26,910
27,4811 28,2551 29,2225 30,420
32,79 37,259 38,857 39,6676
40,1675 41,7677 42,5342 43,934
44,221 45,21 46,16 50,412
51,910 52,905 53,2116 54,6472
55,9999 56,5136 57,158 58,59
61,52 62,129 63,242 64,337
65,585 66,883 67,3679 68,1795
69,1596 70,1398 74,39 75,63
76,92 77,340 78,464 79,684
80,3979 81,4607 82,2417 83,719
84,42 89,25 91,630 92,161
94,7177 95,5010 96,1605 97,184
103,21 104,33 105,156 106,216
107,21 108,2327 109,182 117,25
120,48 122,2821 123,251 124,31
##END=
