##TITLE=Iron, tricarbonyl[(1,2,3,4-.eta.)-2-methyl-1,3-butadiene]-, stereoisomer
##JCAMP-DX=4.24
##DATA TYPE=MASS SPECTRUM
##OWNER=NIST Mass Spectrometry Data Center
Collection (C) 2014 copyright by the U.S. Secretary of Commerce
on behalf of the United States of America. All rights reserved.
##CAS REGISTRY NO=32731-93-4
##$NIST MASS SPEC NO=9590
##MOLFORM=C8 H8 Fe O3
##MW=208
##$NIST SOURCE=MSDC
##XUNITS=M/Z
##YUNITS=RELATIVE INTENSITY
##XFACTOR=1
##YFACTOR=1
##FIRSTX=56
##LASTX=209
##FIRSTY=6005
##MAXX=209
##MINX=56
##MAXY=9999
##MINY=100
##NPOINTS=15
##PEAK TABLE=(XY..XY)
56,6005 82,5805 83,200 96,3303
97,100 108,3303 109,100 124,9999
125,601 152,7307 153,400 180,7407
181,400 208,3203 209,200
##END=
