##TITLE=Heptanoic acid, 2-ethyl-
##JCAMP-DX=4.24
##DATA TYPE=MASS SPECTRUM
##ORIGIN=F.M.TRENT RES. DIV., U.S. IND. CHEM. CO., CINCINNATI, USA
##OWNER=NIST Mass Spectrometry Data Center
Collection (C) 2014 copyright by the U.S. Secretary of Commerce
on behalf of the United States of America. All rights reserved.
##CAS REGISTRY NO=3274-29-1
##$NIST MASS SPEC NO=5503
##MOLFORM=C9 H18 O2
##MW=158
##$NIST SOURCE=MSDC
##XUNITS=M/Z
##YUNITS=RELATIVE INTENSITY
##XFACTOR=1
##YFACTOR=1
##FIRSTX=27
##LASTX=158
##FIRSTY=870
##MAXX=158
##MINX=27
##MAXY=9999
##MINY=70
##NPOINTS=33
##PEAK TABLE=(XY..XY)
27,870 28,210 29,1210 40,140
41,2470 42,430 43,2430 44,150
45,890 46,150 53,240 55,1930
56,450 57,1630 59,260 60,320
67,100 68,120 69,800 70,350
71,910 73,8610 74,430 83,350
84,330 85,100 87,1680 88,9999
89,470 97,140 101,3530 102,250
158,70
##END=
