##TITLE=1H-Pyrrole, 2,4-diphenyl-
##JCAMP-DX=4.24
##DATA TYPE=MASS SPECTRUM
##ORIGIN=A.PADWA STATE UNIV. OF NEW YORK, BUFFALO, USA
##OWNER=NIST Mass Spectrometry Data Center
Collection (C) 2014 copyright by the U.S. Secretary of Commerce
on behalf of the United States of America. All rights reserved.
##CAS REGISTRY NO=3274-56-4
##$NIST MASS SPEC NO=10257
##MOLFORM=C16 H13 N
##MW=219
##$NIST SOURCE=MSDC
##XUNITS=M/Z
##YUNITS=RELATIVE INTENSITY
##XFACTOR=1
##YFACTOR=1
##FIRSTX=51
##LASTX=221
##FIRSTY=300
##MAXX=221
##MINX=51
##MAXY=9999
##MINY=200
##NPOINTS=16
##PEAK TABLE=(XY..XY)
51,300 77,300 89,400 115,1400
116,500 117,400 165,300 189,800
190,300 191,1000 192,200 217,700
218,700 219,9999 220,1900 221,200
##END=
