##TITLE=Pentanal, 2,3-dimethyl-
##JCAMP-DX=4.24
##DATA TYPE=MASS SPECTRUM
##ORIGIN=NIST Mass Spectrometry Data Center, 1990.
##OWNER=NIST Mass Spectrometry Data Center
Collection (C) 2014 copyright by the U.S. Secretary of Commerce
on behalf of the United States of America. All rights reserved.
##CAS REGISTRY NO=32749-94-3
##$NIST MASS SPEC NO=118167
##MOLFORM=C7 H14 O
##MW=114
##$NIST SOURCE=MSDC
##XUNITS=M/Z
##YUNITS=RELATIVE INTENSITY
##XFACTOR=1
##YFACTOR=1
##FIRSTX=14
##LASTX=114
##FIRSTY=71
##MAXX=114
##MINX=14
##MAXY=9999
##MINY=40
##NPOINTS=40
##PEAK TABLE=(XY..XY)
14,71 15,243 18,67 26,462
27,3319 28,875 29,4877 30,375
31,128 37,59 38,265 39,2315
40,536 41,5723 42,719 43,8139
44,298 45,55 50,180 51,251
52,97 53,461 54,140 55,1141
56,1217 57,4365 58,9999 59,399
65,78 67,167 69,176 70,140
71,59 72,65 79,40 81,82
83,43 85,874 86,79 114,133
##END=
