##TITLE=Benzene, 1,2-dichloro-3-methyl-
##JCAMP-DX=4.24
##DATA TYPE=MASS SPECTRUM
##ORIGIN=Japan AIST/NIMC Database- Spectrum MS-NW-8530
##OWNER=NIST Mass Spectrometry Data Center
Collection (C) 2014 copyright by the U.S. Secretary of Commerce
on behalf of the United States of America. All rights reserved.
##CAS REGISTRY NO=32768-54-0
##$NIST MASS SPEC NO=236722
##MOLFORM=C7 H6 Cl2
##MW=160
##$NIST SOURCE=MSDC
##XUNITS=M/Z
##YUNITS=RELATIVE INTENSITY
##XFACTOR=1
##YFACTOR=1
##FIRSTX=15
##LASTX=165
##FIRSTY=10
##MAXX=165
##MINX=15
##MAXY=9999
##MINY=10
##NPOINTS=77
##PEAK TABLE=(XY..XY)
15,10 26,30 27,70 28,10
35,30 36,90 37,149 38,199
39,599 40,40 41,20 43,299
44,779 45,10 47,30 48,20
49,149 50,329 51,269 52,30
53,10 60,80 61,369 62,1169
63,1519 64,189 65,99 71,10
72,90 73,569 74,239 75,339
76,20 77,20 79,20 80,99
81,60 82,10 83,30 84,149
85,199 86,219 87,239 88,90
89,3049 90,439 91,30 96,50
97,219 98,40 99,569 100,30
101,169 102,10 107,50 108,20
109,90 110,20 111,40 121,10
122,10 123,379 124,619 125,9999
126,959 127,3159 128,239 133,99
135,60 137,10 159,659 160,4169
161,719 162,2649 163,269 164,429
165,30
##END=
