##TITLE=Benzene, 1,2,4-tribromo-5-methyl-
##JCAMP-DX=4.24
##DATA TYPE=MASS SPECTRUM
##ORIGIN=NIST Mass Spectrometry Data Center
##OWNER=NIST Mass Spectrometry Data Center
Collection (C) 2014 copyright by the U.S. Secretary of Commerce
on behalf of the United States of America. All rights reserved.
##CAS REGISTRY NO=3278-88-4
##$NIST MASS SPEC NO=342852
##MOLFORM=C7 H5 Br3
##MW=326
##$NIST SOURCE=MSDC
##XUNITS=M/Z
##YUNITS=RELATIVE INTENSITY
##XFACTOR=1
##YFACTOR=1
##FIRSTX=13
##LASTX=333
##FIRSTY=80
##MAXX=333
##MINX=13
##MAXY=9999
##MINY=10
##NPOINTS=82
##PEAK TABLE=(XY..XY)
13,80 15,10 25,90 26,350
36,290 37,1201 38,1131 39,2232
43,601 44,1361 48,150 49,651
50,1631 51,611 52,110 60,280
61,1792 62,3944 63,4564 64,390
73,510 74,811 75,160 79,1091
80,601 81,1121 82,520 83,1221
84,1802 85,1631 86,1682 87,2102
88,2122 89,5505 90,470 91,100
93,140 97,120 104,80 106,110
111,90 116,330 117,641 118,310
119,430 123,941 124,1531 125,661
128,220 129,100 130,270 140,160
141,390 142,170 143,290 144,90
153,70 154,110 160,90 164,230
165,250 167,1441 168,2542 169,1912
170,2412 171,180 197,100 223,60
246,380 247,4244 248,1111 249,7997
250,1091 251,3944 252,240 326,3543
328,9999 329,1421 330,9308 331,931
332,3273 333,220
##END=
