##TITLE=3,5-Bis(trifluoromethyl)bromobenzene
##JCAMP-DX=4.24
##DATA TYPE=MASS SPECTRUM
##ORIGIN=Japan AIST/NIMC Database- Spectrum MS-IW-8120
##OWNER=NIST Mass Spectrometry Data Center
Collection (C) 2014 copyright by the U.S. Secretary of Commerce
on behalf of the United States of America. All rights reserved.
##CAS REGISTRY NO=328-70-1
##$NIST MASS SPEC NO=237712
##MOLFORM=C8 H3 Br F6
##MW=292
##$NIST SOURCE=MSDC
##XUNITS=M/Z
##YUNITS=RELATIVE INTENSITY
##XFACTOR=1
##YFACTOR=1
##FIRSTX=20
##LASTX=296
##FIRSTY=10
##MAXX=296
##MINX=20
##MAXY=9999
##MINY=10
##NPOINTS=122
##PEAK TABLE=(XY..XY)
20,10 28,60 31,119 37,80
38,80 39,10 44,20 49,60
50,289 51,90 56,40 57,99
61,70 62,109 63,40 68,80
69,629 70,10 72,20 73,129
74,669 75,1069 76,50 79,40
80,70 81,70 82,20 84,10
85,70 86,40 87,109 88,30
92,90 93,229 94,289 95,40
96,30 97,90 98,10 99,349
100,40 101,40 103,30 104,60
105,70 106,50 107,10 111,10
112,60 113,169 114,10 117,50
118,60 119,50 122,10 123,229
124,99 125,629 126,50 127,40
128,50 129,10 130,10 131,10
135,10 136,90 137,90 138,10
141,10 142,30 143,1269 144,1659
145,169 146,10 153,20 154,10
155,30 156,10 161,50 162,419
163,2289 164,189 173,20 174,80
175,30 181,10 192,50 193,569
194,959 195,139 203,10 204,10
205,10 206,10 211,10 212,219
213,7839 214,759 215,30 222,10
223,589 224,50 225,589 226,40
241,20 242,529 243,70 244,509
245,40 248,10 270,10 272,40
273,2259 274,229 275,2219 276,199
291,119 292,9999 293,989 294,9719
295,859 296,30
##END=
