##TITLE=Butanoic acid, 4-chloro-3-oxo-, methyl ester
##JCAMP-DX=4.24
##DATA TYPE=MASS SPECTRUM
##ORIGIN=Japan AIST/NIMC Database- Spectrum MS-NW-4200
##OWNER=NIST Mass Spectrometry Data Center
Collection (C) 2014 copyright by the U.S. Secretary of Commerce
on behalf of the United States of America. All rights reserved.
##CAS REGISTRY NO=32807-28-6
##$NIST MASS SPEC NO=230285
##MOLFORM=C5 H7 Cl O3
##MW=150
##$NIST SOURCE=MSDC
##XUNITS=M/Z
##YUNITS=RELATIVE INTENSITY
##XFACTOR=1
##YFACTOR=1
##FIRSTX=12
##LASTX=153
##FIRSTY=20
##MAXX=153
##MINX=12
##MAXY=9999
##MINY=10
##NPOINTS=94
##PEAK TABLE=(XY..XY)
12,20 13,60 14,339 15,2619
16,30 18,20 25,50 26,259
27,1089 28,339 29,869 30,90
31,419 32,139 33,90 35,30
36,80 37,60 38,99 39,199
40,30 41,219 42,2239 43,1629
44,219 45,299 47,40 48,99
49,1479 50,70 51,489 52,20
53,50 54,10 55,339 56,60
57,1369 58,60 59,4599 60,109
61,50 62,40 63,40 64,20
65,10 66,10 67,20 68,20
69,1649 70,60 71,20 72,10
73,50 74,129 75,10 76,169
77,2359 78,109 79,799 80,20
83,99 84,60 85,20 87,40
89,20 90,40 91,20 92,90
93,10 94,30 96,10 100,20
101,9999 102,489 103,80 105,50
107,10 114,60 115,40 118,299
119,1479 120,159 121,499 122,30
123,70 125,30 132,40 133,70
134,10 135,20 150,769 151,50
152,269 153,20
##END=
