##TITLE=2-Methyl-5-hexen-3-ol
##JCAMP-DX=4.24
##DATA TYPE=MASS SPECTRUM
##ORIGIN=NIST Mass Spectrometry Data Center, 1990.
##OWNER=NIST Mass Spectrometry Data Center
Collection (C) 2014 copyright by the U.S. Secretary of Commerce
on behalf of the United States of America. All rights reserved.
##CAS REGISTRY NO=32815-70-6
##$NIST MASS SPEC NO=113745
##MOLFORM=C7 H14 O
##MW=114
##$NIST SOURCE=MSDC
##XUNITS=M/Z
##YUNITS=RELATIVE INTENSITY
##XFACTOR=1
##YFACTOR=1
##FIRSTX=15
##LASTX=81
##FIRSTY=340
##MAXX=81
##MINX=15
##MAXY=9999
##MINY=148
##NPOINTS=26
##PEAK TABLE=(XY..XY)
15,340 26,217 27,2093 28,811
29,1313 31,903 32,148 38,300
39,2553 40,392 41,3029 42,871
43,5271 44,386 45,1590 51,211
53,429 55,6639 56,346 57,721
69,255 70,327 71,1572 73,9999
74,446 81,192
##END=
