##TITLE=3-Morpholinopropyl isothiocyanate
##JCAMP-DX=4.24
##DATA TYPE=MASS SPECTRUM
##ORIGIN=NIST Mass Spectrometry Data Center, 1994
##OWNER=NIST Mass Spectrometry Data Center
Collection (C) 2014 copyright by the U.S. Secretary of Commerce
on behalf of the United States of America. All rights reserved.
##CAS REGISTRY NO=32813-50-6
##$NIST MASS SPEC NO=134650
##MOLFORM=C8 H14 N2 O S
##MW=186
##$NIST SOURCE=MSDC
##XUNITS=M/Z
##YUNITS=RELATIVE INTENSITY
##XFACTOR=1
##YFACTOR=1
##FIRSTX=14
##LASTX=188
##FIRSTY=97
##MAXX=188
##MINX=14
##MAXY=9999
##MINY=17
##NPOINTS=86
##PEAK TABLE=(XY..XY)
14,97 15,899 16,17 18,57
19,26 26,301 27,1489 28,3281
29,1344 30,772 31,183 32,126
33,26 34,23 37,23 38,67
39,856 40,343 41,2980 42,3834
43,6200 44,667 45,437 46,51
47,19 51,24 52,90 54,676
55,722 56,2498 57,438 58,287
59,288 60,222 61,20 64,53
66,38 67,92 68,512 69,401
70,1223 71,712 72,1849 73,127
74,82 78,90 80,34 82,176
83,108 84,485 85,359 86,1377
87,100 88,40 94,17 95,40
96,138 97,449 98,824 99,17
100,9999 101,1653 102,126 103,58
109,19 111,17 112,95 113,49
114,41 124,27 125,29 126,117
127,107 128,35 131,20 141,145
142,108 143,42 153,91 155,68
156,127 157,28 185,44 186,437
187,52 188,28
##END=
