##TITLE=1-tert-Butyl-4-nitrobenzene
##JCAMP-DX=4.24
##DATA TYPE=MASS SPECTRUM
##ORIGIN=NIST Mass Spectrometry Data Center, 1994
##OWNER=NIST Mass Spectrometry Data Center
Collection (C) 2014 copyright by the U.S. Secretary of Commerce
on behalf of the United States of America. All rights reserved.
##CAS REGISTRY NO=3282-56-2
##$NIST MASS SPEC NO=135308
##MOLFORM=C10 H13 N O2
##MW=179
##$NIST SOURCE=MSDC
##XUNITS=M/Z
##YUNITS=RELATIVE INTENSITY
##XFACTOR=1
##YFACTOR=1
##FIRSTX=12
##LASTX=181
##FIRSTY=20
##MAXX=181
##MINX=12
##MAXY=9999
##MINY=9
##NPOINTS=94
##PEAK TABLE=(XY..XY)
12,20 15,763 16,31 26,95
27,773 28,273 29,704 30,1752
37,43 38,199 39,1655 40,224
41,1463 42,69 43,68 44,15
45,15 46,465 50,873 51,1276
52,323 53,321 54,38 55,192
56,57 57,432 58,106 61,51
62,213 63,762 64,198 65,699
66,100 67,47 68,11 74,281
75,381 76,473 77,1343 78,1225
79,298 80,35 85,14 86,51
87,94 88,14 89,632 90,650
91,2254 92,252 93,104 94,97
95,13 98,24 100,10 102,343
103,701 104,138 105,466 106,1830
107,189 108,12 109,17 113,19
115,1206 116,327 117,1373 118,1547
119,343 120,54 121,227 122,26
124,66 127,18 128,36 129,23
130,21 131,36 132,51 133,226
134,560 135,18 136,1830 137,154
138,14 147,103 148,134 149,68
164,9999 165,1022 166,89 179,1228
180,138 181,9
##END=
