##TITLE=1-Chloro-3-pentanone
##JCAMP-DX=4.24
##DATA TYPE=MASS SPECTRUM
##ORIGIN=Chuck Anderson, Aldrich Chemical Co.
##OWNER=NIST Mass Spectrometry Data Center
Collection (C) 2014 copyright by the U.S. Secretary of Commerce
on behalf of the United States of America. All rights reserved.
##CAS REGISTRY NO=32830-97-0
##$NIST MASS SPEC NO=108053
##MOLFORM=C5 H9 Cl O
##MW=120
##$NIST SOURCE=MSDC
##XUNITS=M/Z
##YUNITS=RELATIVE INTENSITY
##XFACTOR=1
##YFACTOR=1
##FIRSTX=14
##LASTX=122
##FIRSTY=50
##MAXX=122
##MINX=14
##MAXY=9999
##MINY=2
##NPOINTS=59
##PEAK TABLE=(XY..XY)
14,50 15,73 17,2 18,9
25,46 26,645 27,3410 28,992
29,4719 30,110 31,41 32,2
35,15 36,17 37,44 38,66
39,239 40,33 41,195 42,306
43,248 44,21 45,3 47,7
48,14 49,154 50,54 51,88
52,15 53,159 54,25 55,1728
56,309 57,9999 58,309 59,27
60,23 61,129 62,86 63,3737
64,105 65,1273 66,31 67,18
71,20 77,8 83,79 84,189
85,1413 86,75 89,21 90,7
91,2768 92,68 93,911 94,24
120,467 121,23 122,161
##END=
