##TITLE=3-Phenoxyphenylacetic acid
##JCAMP-DX=4.24
##DATA TYPE=MASS SPECTRUM
##ORIGIN=NIST Mass Spectrometry Data Center, 1994
##OWNER=NIST Mass Spectrometry Data Center
Collection (C) 2014 copyright by the U.S. Secretary of Commerce
on behalf of the United States of America. All rights reserved.
##CAS REGISTRY NO=32852-81-6
##$NIST MASS SPEC NO=134876
##MOLFORM=C14 H12 O3
##MW=228
##$NIST SOURCE=MSDC
##XUNITS=M/Z
##YUNITS=RELATIVE INTENSITY
##XFACTOR=1
##YFACTOR=1
##FIRSTX=14
##LASTX=230
##FIRSTY=60
##MAXX=230
##MINX=14
##MAXY=9999
##MINY=34
##NPOINTS=94
##PEAK TABLE=(XY..XY)
14,60 18,84 26,101 27,637
28,342 29,134 32,34 37,112
38,501 39,2595 40,297 41,160
42,80 43,65 44,34 45,1275
50,1210 51,4344 52,732 53,492
54,42 55,529 60,49 61,82
62,531 63,1812 64,781 65,1178
66,328 67,142 73,52 74,286
75,332 76,784 77,4632 78,2006
79,542 80,48 81,69 86,85
87,112 89,2588 90,1151 91,2698
93,77 94,267 95,85 101,54
102,118 103,88 105,216 106,433
107,475 108,86 115,1143 116,208
123,69 126,113 127,613 128,898
129,714 130,94 131,81 139,309
140,114 141,561 142,103 144,60
150,49 151,203 152,786 153,1505
154,956 155,1505 156,340 157,96
165,1184 166,201 168,3730 169,1771
170,255 171,44 181,1160 182,814
183,6913 184,1080 185,121 199,67
200,143 201,42 210,100 228,9999
229,1528 230,134
##END=
