##TITLE=(.alpha.,.alpha.,.alpha.-Trifluoro-p-tolyl)-acetic acid
##JCAMP-DX=4.24
##DATA TYPE=MASS SPECTRUM
##ORIGIN=Japan AIST/NIMC Database- Spectrum MS-NW-8979
##OWNER=NIST Mass Spectrometry Data Center
Collection (C) 2014 copyright by the U.S. Secretary of Commerce
on behalf of the United States of America. All rights reserved.
##CAS REGISTRY NO=32857-62-8
##$NIST MASS SPEC NO=238017
##MOLFORM=C9 H7 F3 O2
##MW=204
##$NIST SOURCE=MSDC
##XUNITS=M/Z
##YUNITS=RELATIVE INTENSITY
##XFACTOR=1
##YFACTOR=1
##FIRSTX=27
##LASTX=206
##FIRSTY=50
##MAXX=206
##MINX=27
##MAXY=9999
##MINY=10
##NPOINTS=103
##PEAK TABLE=(XY..XY)
27,50 28,40 29,20 38,50
39,249 40,20 41,30 42,20
43,30 44,10 45,219 50,109
51,219 52,40 53,20 55,10
56,20 57,129 59,20 61,20
62,149 63,479 64,109 65,129
68,10 69,90 70,50 71,10
74,40 75,179 76,30 77,119
78,40 79,40 80,10 81,70
82,10 83,249 84,20 86,40
87,99 88,109 89,509 90,239
91,3849 92,309 93,30 94,20
95,90 96,30 99,129 100,20
101,80 102,10 105,10 106,10
107,239 108,139 109,2169 110,169
111,10 112,40 113,149 114,139
115,20 118,10 119,719 120,99
121,30 125,40 126,10 127,189
128,10 132,80 133,90 134,10
135,10 137,70 138,169 139,309
140,519 141,109 143,109 144,10
145,80 146,10 156,20 157,70
158,399 159,9999 160,2329 161,179
162,90 167,30 173,10 175,20
176,10 185,859 186,209 187,30
204,4299 205,429 206,30
##END=
