##TITLE=3-Bromocinnamic acid
##JCAMP-DX=4.24
##DATA TYPE=MASS SPECTRUM
##ORIGIN=Japan AIST/NIMC Database- Spectrum MS-NW-9714
##OWNER=NIST Mass Spectrometry Data Center
Collection (C) 2014 copyright by the U.S. Secretary of Commerce
on behalf of the United States of America. All rights reserved.
##CAS REGISTRY NO=32862-97-8
##$NIST MASS SPEC NO=239337
##MOLFORM=C9 H7 Br O2
##MW=226
##$NIST SOURCE=MSDC
##XUNITS=M/Z
##YUNITS=RELATIVE INTENSITY
##XFACTOR=1
##YFACTOR=1
##FIRSTX=17
##LASTX=230
##FIRSTY=10
##MAXX=230
##MINX=17
##MAXY=9999
##MINY=10
##NPOINTS=138
##PEAK TABLE=(XY..XY)
17,10 18,30 26,60 27,129
28,80 29,30 36,10 37,99
38,229 39,419 40,30 41,80
42,30 43,99 44,70 45,329
46,20 49,189 50,1809 51,3229
52,619 53,149 54,60 55,99
56,20 57,50 59,479 60,40
61,189 62,399 63,799 64,139
65,849 66,60 67,20 68,10
69,219 70,40 71,179 72,20
73,929 74,1429 75,2819 76,2239
77,1249 78,209 79,449 80,40
81,30 82,30 83,20 84,20
85,40 86,70 87,129 88,40
89,409 90,439 91,3299 92,279
93,50 94,10 95,20 96,10
97,60 98,249 99,159 100,149
101,2059 102,8139 103,2689 104,219
105,90 106,20 107,20 109,10
110,10 111,20 115,10 117,50
118,849 119,979 120,90 121,10
125,10 128,40 129,179 130,809
131,119 132,10 135,10 141,10
143,20 145,20 146,99 147,6239
148,729 149,90 150,10 154,10
155,209 156,139 157,309 158,119
159,109 169,209 170,40 171,209
172,109 174,70 179,20 180,1009
181,1599 182,1139 183,1639 184,259
185,219 186,80 187,109 197,90
198,219 199,99 200,219 201,20
207,30 208,539 209,1769 210,709
211,1699 212,169 213,10 224,20
225,6269 226,9999 227,7109 228,9799
229,989 230,90
##END=
