##TITLE=2-Methoxyphenyl isothiocyanate
##JCAMP-DX=4.24
##DATA TYPE=MASS SPECTRUM
##ORIGIN=Chuck Anderson, Aldrich Chemical Co.
##OWNER=NIST Mass Spectrometry Data Center
Collection (C) 2014 copyright by the U.S. Secretary of Commerce
on behalf of the United States of America. All rights reserved.
##CAS REGISTRY NO=3288-04-8
##$NIST MASS SPEC NO=118094
##MOLFORM=C8 H7 N O S
##MW=165
##$NIST SOURCE=MSDC
##XUNITS=M/Z
##YUNITS=RELATIVE INTENSITY
##XFACTOR=1
##YFACTOR=1
##FIRSTX=14
##LASTX=168
##FIRSTY=21
##MAXX=168
##MINX=14
##MAXY=9999
##MINY=2
##NPOINTS=100
##PEAK TABLE=(XY..XY)
14,21 15,176 18,2 26,100
27,170 28,62 29,72 32,71
36,24 37,224 38,454 39,880
40,53 41,25 42,5 43,17
44,157 45,477 46,42 47,42
49,77 50,704 51,954 52,352
53,150 54,42 55,23 56,22
57,41 58,123 59,90 60,39
61,196 62,363 63,1749 64,1028
65,163 66,65 68,25 69,326
70,499 71,102 72,204 73,70
74,339 75,386 76,392 77,647
78,1090 79,360 80,78 81,28
82,232 83,274 84,61 86,20
87,38 88,60 89,15 90,494
91,296 92,443 93,133 94,143
95,647 96,528 97,61 98,33
99,5 102,52 103,55 104,326
105,109 106,50 107,113 108,177
109,46 110,30 119,653 120,806
121,87 122,7635 123,534 124,357
125,25 132,3590 133,443 134,180
135,14 136,203 137,38 149,36
150,3158 151,255 152,166 164,482
165,9999 166,943 167,511 168,41
##END=
