##TITLE=2,4-di(Trifluoromethyl)benzoic acid
##JCAMP-DX=4.24
##DATA TYPE=MASS SPECTRUM
##ORIGIN=NIST Mass Spectrometry Data Center, 1994
##OWNER=NIST Mass Spectrometry Data Center
Collection (C) 2014 copyright by the U.S. Secretary of Commerce
on behalf of the United States of America. All rights reserved.
##CAS REGISTRY NO=32890-87-2
##$NIST MASS SPEC NO=136884
##MOLFORM=C9 H4 F6 O2
##MW=258
##$NIST SOURCE=MSDC
##XUNITS=M/Z
##YUNITS=RELATIVE INTENSITY
##XFACTOR=1
##YFACTOR=1
##FIRSTX=17
##LASTX=260
##FIRSTY=36
##MAXX=260
##MINX=17
##MAXY=9999
##MINY=28
##NPOINTS=93
##PEAK TABLE=(XY..XY)
17,36 18,85 27,70 28,28
29,117 30,28 31,384 37,131
38,177 39,85 45,1227 49,93
50,651 51,359 53,86 56,108
57,261 61,105 62,221 63,249
68,179 69,1257 73,203 74,871
75,1925 76,144 77,131 79,78
80,114 81,155 85,90 86,131
87,117 88,95 92,111 93,297
94,401 95,206 97,176 99,606
100,101 101,107 103,48 104,87
105,121 106,75 111,63 112,145
113,412 114,165 117,103 118,88
119,82 123,239 124,118 125,859
126,99 132,153 141,88 143,1448
144,1894 145,848 150,38 161,145
162,482 163,2346 164,490 165,79
181,136 182,220 189,116 190,145
191,401 192,63 193,253 194,2277
195,600 205,44 209,99 210,212
213,4201 214,480 218,577 219,1267
220,116 238,166 239,1397 241,9999
242,974 243,129 258,6447 259,640
260,30
##END=
