##TITLE=6-Aminonicotinamide
##JCAMP-DX=4.24
##DATA TYPE=MASS SPECTRUM
##ORIGIN=NIST Mass Spectrometry Data Center, 1998.
##OWNER=NIST Mass Spectrometry Data Center
Collection (C) 2014 copyright by the U.S. Secretary of Commerce
on behalf of the United States of America. All rights reserved.
##CAS REGISTRY NO=329-89-5
##$NIST MASS SPEC NO=291067
##MOLFORM=C6 H7 N3 O
##MW=137
##$NIST SOURCE=MSDC
##XUNITS=M/Z
##YUNITS=RELATIVE INTENSITY
##XFACTOR=1
##YFACTOR=1
##FIRSTX=25
##LASTX=138
##FIRSTY=20
##MAXX=138
##MINX=25
##MAXY=9999
##MINY=10
##NPOINTS=58
##PEAK TABLE=(XY..XY)
25,20 26,20 28,200 29,60
32,40 36,10 37,280 38,430
39,1080 40,150 41,220 42,90
43,90 44,450 45,40 46,30
48,20 50,430 51,360 52,520
53,290 54,260 56,10 61,10
62,40 63,240 64,340 65,660
66,4110 67,410 69,50 70,20
74,30 75,70 76,90 77,120
78,50 80,60 82,80 83,10
89,40 90,50 91,30 92,580
93,2320 94,280 95,20 108,130
109,40 110,30 118,50 119,80
120,350 121,9999 122,750 123,110
137,6019 138,450
##END=
