##TITLE=1,3-Propanediol, 2,2-bis(bromomethyl)-
##JCAMP-DX=4.24
##DATA TYPE=MASS SPECTRUM
##ORIGIN=Japan AIST/NIMC Database- Spectrum MS-NW-8180
##OWNER=NIST Mass Spectrometry Data Center
Collection (C) 2014 copyright by the U.S. Secretary of Commerce
on behalf of the United States of America. All rights reserved.
##CAS REGISTRY NO=3296-90-0
##$NIST MASS SPEC NO=236768
##MOLFORM=C5 H10 Br2 O2
##MW=260
##$NIST SOURCE=MSDC
##XUNITS=M/Z
##YUNITS=RELATIVE INTENSITY
##XFACTOR=1
##YFACTOR=1
##FIRSTX=14
##LASTX=265
##FIRSTY=20
##MAXX=265
##MINX=14
##MAXY=9999
##MINY=10
##NPOINTS=117
##PEAK TABLE=(XY..XY)
14,20 15,119 18,20 26,109
27,1259 28,289 29,1329 30,90
31,3579 32,60 33,20 37,70
38,209 39,2349 40,349 41,4719
42,559 43,4499 44,239 45,80
47,30 49,179 50,99 51,259
52,99 53,4389 54,439 55,2909
56,189 57,1339 58,50 61,20
65,60 66,40 67,10 68,10
69,859 70,399 71,6999 72,319
73,50 74,20 79,50 80,149
81,70 82,149 83,689 84,40
85,10 87,10 91,10 92,10
93,249 94,10 95,239 101,739
102,40 105,30 106,10 107,99
108,10 109,99 111,30 117,30
119,289 120,20 121,469 122,20
123,269 125,60 131,60 132,729
133,4119 134,899 135,4119 136,199
137,189 138,20 145,10 147,20
149,259 150,1079 151,4809 152,1259
153,4449 154,199 155,10 163,579
164,30 165,569 166,30 168,10
181,1089 182,60 183,1069 184,60
212,5119 213,239 214,9999 215,439
216,4859 217,219 230,10 231,10
232,30 234,10 242,10 243,10
244,20 245,40 246,10 247,10
261,30 262,20 263,70 264,10
265,30
##END=
