##TITLE=Isoquinoline, 1-phenyl-
##JCAMP-DX=4.24
##DATA TYPE=MASS SPECTRUM
##ORIGIN=L.K. DYALL, DEP. CHEM., NEWCASTLE UNIV., N.S.W., AUSTRALD
##OWNER=NIST Mass Spectrometry Data Center
Collection (C) 2014 copyright by the U.S. Secretary of Commerce
on behalf of the United States of America. All rights reserved.
##CAS REGISTRY NO=3297-72-1
##$NIST MASS SPEC NO=74748
##MOLFORM=C15 H11 N
##MW=205
##$NIST SOURCE=MSDC
##XUNITS=M/Z
##YUNITS=RELATIVE INTENSITY
##XFACTOR=1
##YFACTOR=1
##FIRSTX=39
##LASTX=207
##FIRSTY=210
##MAXX=207
##MINX=39
##MAXY=9999
##MINY=10
##NPOINTS=39
##PEAK TABLE=(XY..XY)
39,210 50,470 51,650 52,140
62,220 63,350 74,540 75,740
76,580 77,420 86,160 87,280
88,370 89,220 98,220 99,160
100,120 102,790 103,120 126,170
127,140 128,160 139,120 150,300
151,450 152,230 174,160 175,210
176,840 177,480 178,160 188,10
201,150 202,330 203,1160 204,9999
205,5350 206,880 207,90
##END=
