##TITLE=Plumbane, (1,1-dimethylethyl)trimethyl-
##JCAMP-DX=4.24
##DATA TYPE=MASS SPECTRUM
##ORIGIN=API 1302
##OWNER=NIST Mass Spectrometry Data Center
Collection (C) 2014 copyright by the U.S. Secretary of Commerce
on behalf of the United States of America. All rights reserved.
##CAS REGISTRY NO=32997-03-8
##$NIST MASS SPEC NO=14713
##MOLFORM=C7 H18 Pb
##MW=310
##$NIST SOURCE=MSDC
##XUNITS=M/Z
##YUNITS=RELATIVE INTENSITY
##XFACTOR=1
##YFACTOR=1
##FIRSTX=12
##LASTX=310
##FIRSTY=70
##MAXX=310
##MINX=12
##MAXY=9999
##MINY=10
##NPOINTS=69
##PEAK TABLE=(XY..XY)
12,70 13,140 14,530 15,2332
24,10 25,10 26,70 27,50
28,30 29,60 30,30 36,10
37,10 38,10 39,100 40,20
41,430 42,20 43,591 44,50
48,10 49,10 50,20 51,10
52,10 53,10 54,10 55,50
56,110 57,530 204,160 205,10
206,3113 207,2873 208,6806 209,561
217,10 218,60 219,390 220,530
221,4504 222,3934 223,8618 224,90
231,10 232,10 233,20 234,60
235,30 236,1181 237,1061 238,2382
239,70 248,260 249,50 250,4824
251,4274 252,9999 253,330 262,10
263,20 264,20 265,30 278,10
279,10 280,10 308,10 309,10
310,10
##END=
