##TITLE=4-(Trifluoromethoxy)benzoic acid
##JCAMP-DX=4.24
##DATA TYPE=MASS SPECTRUM
##ORIGIN=NIST Mass Spectrometry Data Center, 1994
##OWNER=NIST Mass Spectrometry Data Center
Collection (C) 2014 copyright by the U.S. Secretary of Commerce
on behalf of the United States of America. All rights reserved.
##CAS REGISTRY NO=330-12-1
##$NIST MASS SPEC NO=136959
##MOLFORM=C8 H5 F3 O3
##MW=206
##$NIST SOURCE=MSDC
##XUNITS=M/Z
##YUNITS=RELATIVE INTENSITY
##XFACTOR=1
##YFACTOR=1
##FIRSTX=25
##LASTX=208
##FIRSTY=48
##MAXX=208
##MINX=25
##MAXY=9999
##MINY=28
##NPOINTS=57
##PEAK TABLE=(XY..XY)
25,48 28,166 36,56 37,460
38,1227 39,1121 40,116 47,118
49,147 50,1017 51,368 52,216
53,752 54,77 55,90 57,113
60,54 61,312 62,724 63,2093
64,1690 65,1520 66,209 67,45
68,45 69,2986 70,85 73,36
75,1112 76,431 77,104 81,693
83,203 85,76 91,109 92,984
93,274 94,76 95,5234 96,460
103,39 109,134 119,103 121,1143
122,110 123,80 133,93 161,3457
162,305 178,181 187,60 189,9999
190,947 191,99 206,8204 207,730
208,28
##END=
