##TITLE=Diuron
##JCAMP-DX=4.24
##DATA TYPE=MASS SPECTRUM
##ORIGIN=MASS SPECTROMETRY CENTER, UNIV. OF UTAH EPA-PTSEL 2740
##OWNER=NIST Mass Spectrometry Data Center
Collection (C) 2014 copyright by the U.S. Secretary of Commerce
on behalf of the United States of America. All rights reserved.
##CAS REGISTRY NO=330-54-1
##$NIST MASS SPEC NO=52481
##MOLFORM=C9 H10 Cl2 N2 O
##MW=232
##$NIST SOURCE=MSDC
##XUNITS=M/Z
##YUNITS=RELATIVE INTENSITY
##XFACTOR=1
##YFACTOR=1
##FIRSTX=15
##LASTX=237
##FIRSTY=2050
##MAXX=237
##MINX=15
##MAXY=9999
##MINY=15
##NPOINTS=86
##PEAK TABLE=(XY..XY)
15,2050 26,79 27,213 29,94
30,100 35,78 36,151 37,265
38,323 39,166 40,112 41,178
42,1342 43,535 44,2563 45,652
47,59 49,192 50,210 51,126
52,89 56,547 60,95 61,324
62,479 63,540 64,156 65,49
71,96 72,9999 73,1545 74,469
75,354 76,65 83,47 84,99
85,104 86,81 87,107 88,228
89,115 90,145 97,266 98,167
99,181 100,62 107,80 109,259
110,44 111,113 112,22 124,683
125,291 126,260 127,122 133,367
134,40 135,251 136,15 137,26
145,147 147,92 153,17 159,305
160,179 161,341 162,156 163,121
164,23 174,89 181,17 187,1071
188,153 189,703 190,100 191,126
196,182 197,27 198,36 231,25
232,3757 233,451 234,2570 235,295
236,442 237,33
##END=
