##TITLE=4-Fluorodiphenyl ether
##JCAMP-DX=4.24
##DATA TYPE=MASS SPECTRUM
##ORIGIN=NIST Mass Spectrometry Data Center, 1994
##OWNER=NIST Mass Spectrometry Data Center
Collection (C) 2014 copyright by the U.S. Secretary of Commerce
on behalf of the United States of America. All rights reserved.
##CAS REGISTRY NO=330-84-7
##$NIST MASS SPEC NO=134487
##MOLFORM=C12 H9 F O
##MW=188
##$NIST SOURCE=MSDC
##XUNITS=M/Z
##YUNITS=RELATIVE INTENSITY
##XFACTOR=1
##YFACTOR=1
##FIRSTX=26
##LASTX=191
##FIRSTY=110
##MAXX=191
##MINX=26
##MAXY=9999
##MINY=2
##NPOINTS=71
##PEAK TABLE=(XY..XY)
26,110 27,370 29,47 31,198
33,48 37,148 38,501 39,1408
40,131 50,1478 51,4633 52,278
53,83 55,119 56,198 57,1113
58,68 61,139 62,329 63,808
64,290 65,571 66,199 68,264
69,466 70,751 73,134 74,548
75,1342 76,134 77,5827 78,426
79,203 80,315 81,322 82,155
83,1135 84,284 86,67 92,76
93,127 94,616 95,438 105,33
107,94 109,70 111,229 112,538
113,77 115,156 120,60 131,68
133,1092 134,175 138,68 139,374
140,240 141,191 147,46 157,275
159,5182 160,3831 161,421 168,131
169,77 186,194 187,1382 188,9999
189,1310 190,80 191,2
##END=
