##TITLE=Bis(4-fluorophenyl)ether
##JCAMP-DX=4.24
##DATA TYPE=MASS SPECTRUM
##ORIGIN=NIST Mass Spectrometry Data Center, 1994
##OWNER=NIST Mass Spectrometry Data Center
Collection (C) 2014 copyright by the U.S. Secretary of Commerce
on behalf of the United States of America. All rights reserved.
##CAS REGISTRY NO=330-93-8
##$NIST MASS SPEC NO=136242
##MOLFORM=C12 H8 F2 O
##MW=206
##$NIST SOURCE=MSDC
##XUNITS=M/Z
##YUNITS=RELATIVE INTENSITY
##XFACTOR=1
##YFACTOR=1
##FIRSTX=17
##LASTX=208
##FIRSTY=28
##MAXX=208
##MINX=17
##MAXY=9999
##MINY=26
##NPOINTS=100
##PEAK TABLE=(XY..XY)
17,28 18,56 26,130 27,62
31,818 33,178 37,221 38,457
39,654 40,27 45,99 49,163
50,1542 51,1010 52,45 53,104
55,92 56,528 57,3905 58,160
61,257 62,494 63,983 64,302
65,45 67,28 68,568 69,1452
70,153 73,195 74,965 75,5039
76,417 77,45 78,68 79,424
80,88 81,721 82,489 83,3916
84,545 85,41 86,118 87,43
88,72 89,253 92,119 93,242
94,468 95,3320 96,290 99,39
100,32 101,61 102,27 103,243
105,43 106,35 107,126 110,96
111,1214 112,1368 113,91 120,108
123,47 125,56 127,75 128,83
131,85 132,88 133,388 134,46
138,158 139,49 144,35 145,26
146,36 149,37 150,69 151,1147
152,151 155,40 156,63 157,810
158,484 159,571 160,78 164,48
173,31 175,239 177,6678 178,2532
179,263 186,222 187,100 188,40
204,189 206,9999 207,1343 208,97
##END=
