##TITLE=Hexanoic acid, 3,5,5-trimethyl-
##JCAMP-DX=4.24
##DATA TYPE=MASS SPECTRUM
##OWNER=NIST Mass Spectrometry Data Center
Collection (C) 2014 copyright by the U.S. Secretary of Commerce
on behalf of the United States of America. All rights reserved.
##CAS REGISTRY NO=3302-10-1
##$NIST MASS SPEC NO=5502
##MOLFORM=C9 H18 O2
##MW=158
##$NIST SOURCE=MSDC
##XUNITS=M/Z
##YUNITS=RELATIVE INTENSITY
##XFACTOR=1
##YFACTOR=1
##FIRSTX=27
##LASTX=159
##FIRSTY=2272
##MAXX=159
##MINX=27
##MAXY=9999
##MINY=10
##NPOINTS=73
##PEAK TABLE=(XY..XY)
27,2272 28,470 29,2793 30,70
31,180 32,10 41,4474 42,651
43,2412 44,100 45,1121 53,290
54,90 55,1732 56,2372 57,9999
58,460 59,811 60,2883 61,270
67,120 68,30 69,500 70,80
71,150 72,30 73,751 74,100
81,50 82,60 83,3493 84,410
85,260 86,20 87,220 88,20
89,10 94,10 95,10 96,10
97,370 98,70 102,530 103,1311
104,80 105,20 109,10 110,30
111,20 112,20 113,10 114,10
115,10 122,10 123,10 124,10
125,370 126,40 127,10 128,10
129,20 135,10 136,10 138,10
139,10 140,10 141,30 142,10
143,400 144,50 145,10 158,20
159,10
##END=
