##TITLE=1,1'-Biphenyl, 2,3,4,4'-tetrachloro-
##JCAMP-DX=4.24
##DATA TYPE=MASS SPECTRUM
##ORIGIN=N. Todua, WGM, MMES
##OWNER=NIST Mass Spectrometry Data Center
Collection (C) 2014 copyright by the U.S. Secretary of Commerce
on behalf of the United States of America. All rights reserved.
##CAS REGISTRY NO=33025-41-1
##$NIST MASS SPEC NO=334711
##MOLFORM=C12 H6 Cl4
##MW=290
##$NIST SOURCE=MSDC
##XUNITS=M/Z
##YUNITS=RELATIVE INTENSITY
##XFACTOR=1
##YFACTOR=1
##FIRSTX=41
##LASTX=298
##FIRSTY=127
##MAXX=298
##MINX=41
##MAXY=9999
##MINY=64
##NPOINTS=133
##PEAK TABLE=(XY..XY)
41,127 43,127 44,191 47,127
49,191 50,455 51,392 52,127
55,127 56,127 57,127 60,127
61,392 62,328 63,265 64,127
66,64 67,127 71,127 72,191
73,392 74,784 75,720 76,191
77,127 78,191 79,127 81,127
83,127 84,265 85,328 86,328
87,191 88,127 92,847 93,392
96,127 97,392 98,593 99,519
100,127 101,265 105,64 106,64
107,127 108,265 109,519 110,1441
111,974 112,265 113,191 114,191
115,191 116,191 119,191 120,191
121,265 122,328 123,392 124,127
125,127 127,593 128,593 131,64
132,127 133,191 134,127 135,127
136,191 137,127 138,127 141,127
144,127 145,392 146,593 147,392
148,191 149,519 150,1239 151,265
157,191 159,191 160,191 161,191
169,191 170,191 171,191 172,191
173,191 181,191 182,191 183,191
184,784 185,720 186,392 187,328
188,127 193,191 194,191 195,191
196,191 197,127 204,191 206,191
207,191 217,191 218,191 219,328
220,3983 221,657 222,2415 223,392
224,455 225,127 228,127 230,127
232,127 254,328 255,127 256,328
257,127 258,127 259,64 288,64
290,7383 291,1049 292,9999 293,1303
294,4512 295,657 296,1176 297,191
298,127
##END=
