##TITLE=3-Octen-2-one, 7-methyl-
##JCAMP-DX=4.24
##DATA TYPE=MASS SPECTRUM
##ORIGIN=CARL DJERASSI DEPT OF CHEM STANFORD UNIV STANFORD CALIF 94305
##OWNER=NIST Mass Spectrometry Data Center
Collection (C) 2014 copyright by the U.S. Secretary of Commerce
on behalf of the United States of America. All rights reserved.
##CAS REGISTRY NO=33046-81-0
##$NIST MASS SPEC NO=46590
##MOLFORM=C9 H16 O
##MW=140
##$NIST SOURCE=MSDC
##XUNITS=M/Z
##YUNITS=RELATIVE INTENSITY
##XFACTOR=1
##YFACTOR=1
##FIRSTX=41
##LASTX=140
##FIRSTY=2900
##MAXX=140
##MINX=41
##MAXY=9999
##MINY=100
##NPOINTS=30
##PEAK TABLE=(XY..XY)
41,2900 42,400 43,9999 44,200
51,200 53,600 54,200 55,7700
56,800 57,1300 67,400 68,200
69,1800 70,1800 71,2100 72,100
77,100 79,200 81,400 82,2200
83,500 84,1600 85,1200 95,200
97,2200 98,200 122,200 125,1300
126,100 140,300
##END=
