##TITLE=Benzoic acid, 1-methylpropyl ester
##JCAMP-DX=4.24
##DATA TYPE=MASS SPECTRUM
##ORIGIN=Japan AIST/NIMC Database- Spectrum MS-NW-5797
##OWNER=NIST Mass Spectrometry Data Center
Collection (C) 2014 copyright by the U.S. Secretary of Commerce
on behalf of the United States of America. All rights reserved.
##CAS REGISTRY NO=3306-36-3
##$NIST MASS SPEC NO=234815
##MOLFORM=C11 H14 O2
##MW=178
##$NIST SOURCE=MSDC
##XUNITS=M/Z
##YUNITS=RELATIVE INTENSITY
##XFACTOR=1
##YFACTOR=1
##FIRSTX=14
##LASTX=179
##FIRSTY=10
##MAXX=179
##MINX=14
##MAXY=9999
##MINY=10
##NPOINTS=66
##PEAK TABLE=(XY..XY)
14,10 15,60 17,10 18,40
26,40 27,429 28,59 29,889
30,30 31,10 37,10 38,40
39,309 40,50 41,949 42,50
43,99 44,50 45,30 49,20
50,349 51,1119 52,80 53,40
54,10 55,199 56,1959 57,599
58,30 62,10 63,20 65,40
72,20 73,839 74,80 75,70
76,169 77,3119 78,269 79,359
80,30 91,20 93,10 94,20
103,10 104,40 105,9999 106,819
107,70 121,20 122,319 123,4629
124,359 125,30 131,10 134,20
139,10 145,10 149,239 150,30
160,10 161,10 163,10 177,10
178,80 179,10
##END=
