##TITLE=N-Acetylnorvaline methylamide
##JCAMP-DX=4.24
##DATA TYPE=MASS SPECTRUM
##ORIGIN=Japan AIST/NIMC Database- Spectrum MS-IW-1968
##OWNER=NIST Mass Spectrometry Data Center
Collection (C) 2014 copyright by the U.S. Secretary of Commerce
on behalf of the United States of America. All rights reserved.
##CAS REGISTRY NO=33067-46-8
##$NIST MASS SPEC NO=240668
##MOLFORM=C8 H16 N2 O2
##MW=172
##$NIST SOURCE=MSDC
##XUNITS=M/Z
##YUNITS=RELATIVE INTENSITY
##XFACTOR=1
##YFACTOR=1
##FIRSTX=14
##LASTX=172
##FIRSTY=10
##MAXX=172
##MINX=14
##MAXY=9999
##MINY=10
##NPOINTS=61
##PEAK TABLE=(XY..XY)
14,10 15,249 26,10 27,159
28,459 29,139 30,1259 31,40
32,209 39,70 40,20 41,139
42,269 43,1659 44,1209 45,40
53,30 54,40 55,239 56,309
57,90 58,609 59,70 60,70
68,40 69,99 70,209 71,90
72,9999 73,619 74,10 81,10
82,10 83,60 84,60 85,50
86,989 87,739 88,99 97,10
98,30 99,50 100,50 101,30
112,80 113,90 114,4249 115,2789
116,199 117,10 125,40 126,10
128,50 129,80 130,789 131,50
142,20 143,30 154,10 157,10
172,30
##END=
