##TITLE=Lilac alcohol A
##JCAMP-DX=4.24
##DATA TYPE=MASS SPECTRUM
##ORIGIN=Mark Whitten, Florida Museum of Natural History, U. of Florida
##OWNER=NIST Mass Spectrometry Data Center
Collection (C) 2014 copyright by the U.S. Secretary of Commerce
on behalf of the United States of America. All rights reserved.
##CAS REGISTRY NO=33081-34-4
##$NIST MASS SPEC NO=141223
##MOLFORM=C10 H18 O2
##MW=170
##$NIST SOURCE=MSDC
##XUNITS=M/Z
##YUNITS=RELATIVE INTENSITY
##XFACTOR=1
##YFACTOR=1
##FIRSTX=41
##LASTX=170
##FIRSTY=6125
##MAXX=170
##MINX=41
##MAXY=9999
##MINY=45
##NPOINTS=66
##PEAK TABLE=(XY..XY)
41,6125 43,9394 44,348 45,395
50,150 51,444 52,250 53,1851
55,9999 56,643 57,1461 58,418
59,455 61,45 63,65 65,567
67,4748 68,1151 69,1969 70,414
71,2310 72,365 73,71 77,872
78,130 79,894 80,267 81,2386
82,916 83,1523 84,484 85,390
86,57 87,292 91,1156 93,6880
94,995 95,670 96,162 97,291
98,65 99,54 100,71 101,49
102,215 105,70 107,355 108,74
109,784 111,6697 112,509 113,160
119,139 121,122 122,54 123,77
124,51 125,475 126,58 137,308
139,89 143,165 152,67 155,1404
156,141 170,128
##END=
