##TITLE=Lilac alcohol D
##JCAMP-DX=4.24
##DATA TYPE=MASS SPECTRUM
##ORIGIN=Mark Whitten, Florida Museum of Natural History, U. of Florida
##OWNER=NIST Mass Spectrometry Data Center
Collection (C) 2014 copyright by the U.S. Secretary of Commerce
on behalf of the United States of America. All rights reserved.
##CAS REGISTRY NO=33081-37-7
##$NIST MASS SPEC NO=141222
##MOLFORM=C10 H18 O2
##MW=170
##$NIST SOURCE=MSDC
##XUNITS=M/Z
##YUNITS=RELATIVE INTENSITY
##XFACTOR=1
##YFACTOR=1
##FIRSTX=41
##LASTX=170
##FIRSTY=5882
##MAXX=170
##MINX=41
##MAXY=9999
##MINY=67
##NPOINTS=54
##PEAK TABLE=(XY..XY)
41,5882 42,1073 43,8615 44,326
45,367 50,183 51,402 53,1752
55,9999 56,663 57,1229 58,389
59,419 63,75 65,543 67,4013
68,1086 69,1860 70,399 71,2419
72,359 77,812 78,110 79,834
80,274 81,2177 82,769 83,1295
84,422 85,271 87,223 91,1119
93,6395 94,965 95,601 96,193
97,228 102,115 105,70 107,331
108,67 109,638 111,6224 112,533
113,163 119,120 121,118 123,75
125,497 137,243 143,88 155,1471
156,155 170,110
##END=
