##TITLE=15-Crown-5
##JCAMP-DX=4.24
##DATA TYPE=MASS SPECTRUM
##ORIGIN=NIST Mass Spectrometry Data Center, 1994
##OWNER=NIST Mass Spectrometry Data Center
Collection (C) 2014 copyright by the U.S. Secretary of Commerce
on behalf of the United States of America. All rights reserved.
##CAS REGISTRY NO=33100-27-5
##$NIST MASS SPEC NO=133312
##MOLFORM=C10 H20 O5
##MW=220
##$NIST SOURCE=MSDC
##XUNITS=M/Z
##YUNITS=RELATIVE INTENSITY
##XFACTOR=1
##YFACTOR=1
##FIRSTX=15
##LASTX=177
##FIRSTY=869
##MAXX=177
##MINX=15
##MAXY=9999
##MINY=6
##NPOINTS=72
##PEAK TABLE=(XY..XY)
15,869 16,51 18,23 19,225
26,227 27,1166 28,3030 29,2219
30,434 31,1479 32,28 33,19
39,53 41,510 42,1256 43,5548
44,3650 45,9999 46,232 47,37
51,16 54,16 55,66 56,200
57,974 58,1618 59,1270 60,101
61,105 62,9 67,11 68,14
69,88 70,407 71,634 72,1079
73,2283 74,125 75,288 76,25
77,23 83,38 84,18 85,69
86,472 87,2127 88,1522 89,3786
90,187 91,41 99,62 100,82
101,524 102,108 103,117 104,40
105,74 112,6 113,16 114,48
115,92 116,49 117,256 118,68
119,41 131,209 133,1216 134,72
135,8 145,17 147,7 177,66
##END=
