##TITLE=3-Thujen-2-ol, stereoisomer
##JCAMP-DX=4.24
##DATA TYPE=MASS SPECTRUM
##ORIGIN=ORMSBG,9(12)1173(1974); WHEELER
##OWNER=NIST Mass Spectrometry Data Center
Collection (C) 2014 copyright by the U.S. Secretary of Commerce
on behalf of the United States of America. All rights reserved.
##CAS REGISTRY NO=3310-03-0
##$NIST MASS SPEC NO=44680
##MOLFORM=C10 H16 O
##MW=152
##$NIST SOURCE=MSDC
##XUNITS=M/Z
##YUNITS=RELATIVE INTENSITY
##XFACTOR=1
##YFACTOR=1
##FIRSTX=39
##LASTX=137
##FIRSTY=1400
##MAXX=137
##MINX=39
##MAXY=9999
##MINY=100
##NPOINTS=45
##PEAK TABLE=(XY..XY)
39,1400 40,200 41,1700 42,100
43,1600 44,500 45,200 47,300
48,100 49,100 50,300 51,800
52,200 53,500 55,300 62,100
63,500 64,200 65,1400 66,200
67,400 77,1100 78,400 79,600
81,200 83,1300 85,800 89,200
90,200 91,9999 92,5300 94,800
96,300 103,400 104,300 105,500
107,200 109,1400 115,500 117,600
119,3100 120,300 133,200 134,800
137,200
##END=
