##TITLE=1,1'-Biphenyl, 2,6-dichloro-
##JCAMP-DX=4.24
##DATA TYPE=MASS SPECTRUM
##ORIGIN=T.L.Hayes, Battelle Columbus Laboratories, Columbus, OH 43221
##OWNER=NIST Mass Spectrometry Data Center
Collection (C) 2014 copyright by the U.S. Secretary of Commerce
on behalf of the United States of America. All rights reserved.
##CAS REGISTRY NO=33146-45-1
##$NIST MASS SPEC NO=80788
##MOLFORM=C12 H8 Cl2
##MW=222
##$NIST SOURCE=MSDC
##XUNITS=M/Z
##YUNITS=RELATIVE INTENSITY
##XFACTOR=1
##YFACTOR=1
##FIRSTX=34
##LASTX=227
##FIRSTY=10
##MAXX=227
##MINX=34
##MAXY=9999
##MINY=7
##NPOINTS=113
##PEAK TABLE=(XY..XY)
34,10 35,57 36,119 37,130
38,227 39,460 40,245 41,16
42,14 43,29 44,52 45,20
47,7 49,164 50,755 51,877
52,139 53,10 55,32 56,28
57,37 60,48 61,403 62,807
63,855 64,59 65,39 67,46
68,56 71,8 72,38 73,395
74,1134 75,3163 76,1892 77,413
78,53 79,15 80,466 81,176
84,127 85,305 86,445 87,394
88,63 89,45 91,18 92,44
93,2500 94,998 96,46 97,175
98,653 99,697 100,206 101,190
102,150 103,7 108,49 109,147
110,198 111,788 112,443 113,266
114,66 120,27 121,55 122,140
123,210 124,107 125,408 126,609
127,93 133,26 134,27 135,107
136,88 137,84 138,37 146,20
147,108 148,108 149,259 150,1786
151,2449 152,9999 153,1250 154,64
159,30 160,99 161,72 162,78
163,11 170,78 172,65 173,16
183,33 185,46 186,930 187,563
188,341 189,161 196,21 197,7
198,14 207,14 209,9 222,8487
223,1146 224,5143 225,665 226,817
227,83
##END=
