##TITLE=6-[(Z)-1-Butenyl]-1,4-cycloheptadiene
##JCAMP-DX=4.24
##DATA TYPE=MASS SPECTRUM
##ORIGIN=W. BOLAND, INST. BIOCHEM. UNIV. COLOGNE, COLOGNE, W. GER.
##OWNER=NIST Mass Spectrometry Data Center
Collection (C) 2014 copyright by the U.S. Secretary of Commerce
on behalf of the United States of America. All rights reserved.
##CAS REGISTRY NO=33156-93-3
##$NIST MASS SPEC NO=99051
##MOLFORM=C11 H16
##MW=148
##$NIST SOURCE=MSDC
##XUNITS=M/Z
##YUNITS=RELATIVE INTENSITY
##XFACTOR=1
##YFACTOR=1
##FIRSTX=37
##LASTX=150
##FIRSTY=19
##MAXX=150
##MINX=37
##MAXY=9999
##MINY=1
##NPOINTS=97
##PEAK TABLE=(XY..XY)
37,19 38,166 39,3435 40,476
41,5312 42,337 43,114 44,6
45,10 46,3 50,355 51,1367
52,605 53,1546 54,287 55,1419
56,57 57,74 58,237 59,102
60,22 61,14 62,125 63,583
64,211 65,2009 66,4517 67,3061
68,269 69,180 70,607 71,33
72,4 73,6 74,56 75,64
76,67 77,3988 78,2519 79,9999
80,1663 81,826 82,3259 83,214
84,5 85,3 86,11 87,17
88,6 89,177 90,40 91,9782
92,2874 93,967 94,652 95,50
96,2 98,4 99,2 101,9
102,78 103,571 104,304 105,3610
106,867 107,944 108,64 109,3
113,3 114,4 115,503 116,147
117,668 118,133 119,2496 120,405
121,26 122,1 126,4 127,28
128,86 129,46 130,9 131,66
132,7 133,413 134,33 135,1
139,1 141,4 143,1 145,3
146,1 147,16 148,792 149,84
150,3
##END=
