##TITLE=Benzene, 1-methoxy-2-(2-nitroethenyl)-
##JCAMP-DX=4.24
##DATA TYPE=MASS SPECTRUM
##ORIGIN=NIST Mass Spectrometry Data Center, 1994
##OWNER=NIST Mass Spectrometry Data Center
Collection (C) 2014 copyright by the U.S. Secretary of Commerce
on behalf of the United States of America. All rights reserved.
##CAS REGISTRY NO=3316-24-3
##$NIST MASS SPEC NO=135042
##MOLFORM=C9 H9 N O3
##MW=179
##$NIST SOURCE=MSDC
##XUNITS=M/Z
##YUNITS=RELATIVE INTENSITY
##XFACTOR=1
##YFACTOR=1
##FIRSTX=15
##LASTX=181
##FIRSTY=2068
##MAXX=181
##MINX=15
##MAXY=9999
##MINY=11
##NPOINTS=106
##PEAK TABLE=(XY..XY)
15,2068 17,75 18,157 26,334
27,1272 28,606 29,846 30,2943
31,180 32,11 37,469 38,1418
39,3739 40,589 41,378 42,121
43,349 44,73 45,100 46,621
49,278 50,2988 51,5148 52,1179
53,1228 54,185 55,511 59,209
60,89 61,537 62,2252 63,6285
64,2153 65,2663 66,592 67,244
68,342 69,159 71,49 73,224
74,1607 75,2250 76,1811 77,9999
78,3264 79,3333 80,707 81,951
82,176 83,103 85,189 86,380
87,450 88,49 89,8812 90,5691
91,7829 92,1518 93,1066 94,645
95,1099 96,1325 97,146 98,256
99,142 100,103 101,540 102,1697
103,3277 104,1175 105,4312 106,921
107,641 108,609 109,560 110,133
111,110 114,52 115,247 116,311
117,52 118,6287 119,1072 120,526
121,1641 122,395 123,132 124,172
126,106 131,6215 132,5655 133,1274
134,657 135,392 136,385 137,55
146,103 148,1179 149,433 150,106
162,3759 163,444 164,156 179,7741
180,821 181,112
##END=
