##TITLE=5-Fluoro-2-methylbenzoic acid
##JCAMP-DX=4.24
##DATA TYPE=MASS SPECTRUM
##ORIGIN=NIST Mass Spectrometry Data Center, 1994
##OWNER=NIST Mass Spectrometry Data Center
Collection (C) 2014 copyright by the U.S. Secretary of Commerce
on behalf of the United States of America. All rights reserved.
##CAS REGISTRY NO=33184-16-6
##$NIST MASS SPEC NO=136577
##MOLFORM=C8 H7 F O2
##MW=154
##$NIST SOURCE=MSDC
##XUNITS=M/Z
##YUNITS=RELATIVE INTENSITY
##XFACTOR=1
##YFACTOR=1
##FIRSTX=17
##LASTX=156
##FIRSTY=77
##MAXX=156
##MINX=17
##MAXY=9999
##MINY=50
##NPOINTS=67
##PEAK TABLE=(XY..XY)
17,77 18,142 33,120 36,77
37,228 38,507 39,1127 40,50
44,665 46,69 49,171 50,978
51,1130 52,142 53,274 54,533
56,293 57,2116 58,114 60,73
61,464 62,885 63,1455 64,184
68,1016 69,227 70,179 71,91
75,500 76,157 77,687 78,109
79,106 80,227 81,1222 82,385
83,3195 84,256 85,193 86,248
87,206 88,124 89,555 90,81
91,83 92,64 93,92 94,123
95,546 96,194 97,519 105,279
107,2524 108,9999 109,8339 110,761
111,53 123,180 125,141 136,5830
137,2076 138,193 139,70 151,87
154,5493 155,534 156,54
##END=
