##TITLE=Furan, 2,5-dihydro-2,5-dimethoxy-
##JCAMP-DX=4.24
##DATA TYPE=MASS SPECTRUM
##ORIGIN=Japan AIST/NIMC Database- Spectrum MS-NW-8898
##OWNER=NIST Mass Spectrometry Data Center
Collection (C) 2014 copyright by the U.S. Secretary of Commerce
on behalf of the United States of America. All rights reserved.
##CAS REGISTRY NO=332-77-4
##$NIST MASS SPEC NO=235145
##MOLFORM=C6 H10 O3
##MW=130
##$NIST SOURCE=MSDC
##XUNITS=M/Z
##YUNITS=RELATIVE INTENSITY
##XFACTOR=1
##YFACTOR=1
##FIRSTX=14
##LASTX=130
##FIRSTY=20
##MAXX=130
##MINX=14
##MAXY=9999
##MINY=10
##NPOINTS=52
##PEAK TABLE=(XY..XY)
14,20 15,459 16,10 26,99
27,619 28,219 29,719 30,50
31,179 32,30 33,40 37,30
38,99 39,779 40,319 41,2389
42,529 43,179 44,20 45,429
47,20 53,99 54,40 55,599
56,229 57,40 58,10 59,529
60,10 61,10 67,50 68,209
69,549 70,289 71,3459 72,159
73,10 75,60 83,179 84,70
85,40 87,10 88,10 98,119
99,9999 100,569 101,649 102,30
113,10 115,20 129,779 130,50
##END=
