##TITLE=Acetamide, N-(4-methoxyphenyl)-2,2,2-trifluoro-
##JCAMP-DX=4.24
##DATA TYPE=MASS SPECTRUM
##ORIGIN=Zaikin V.G., TIPS RAS, Moscow, Russia
##OWNER=NIST Mass Spectrometry Data Center
Collection (C) 2014 copyright by the U.S. Secretary of Commerce
on behalf of the United States of America. All rights reserved.
##CAS REGISTRY NO=332-34-3
##$NIST MASS SPEC NO=307311
##MOLFORM=C9 H8 F3 N O2
##MW=219
##$NIST SOURCE=MSDC
##XUNITS=M/Z
##YUNITS=RELATIVE INTENSITY
##XFACTOR=1
##YFACTOR=1
##FIRSTX=26
##LASTX=221
##FIRSTY=30
##MAXX=221
##MINX=26
##MAXY=9999
##MINY=20
##NPOINTS=64
##PEAK TABLE=(XY..XY)
26,30 27,30 28,60 38,40
39,90 41,140 44,30 50,80
51,160 52,390 53,210 54,120
61,40 62,50 63,190 64,210
65,150 67,60 69,721 75,160
76,60 77,170 78,190 79,210
80,130 81,210 83,70 90,70
91,130 92,140 93,20 95,611
96,110 97,40 102,50 106,260
107,150 108,50 109,1311 110,90
121,40 122,4364 123,370 124,210
128,150 134,470 135,50 148,60
149,561 150,240 156,60 157,120
168,30 171,140 172,50 176,40
188,30 200,50 204,1421 205,160
218,30 219,9999 220,1011 221,80
##END=
