##TITLE=.beta.-Endosulfan
##JCAMP-DX=4.24
##DATA TYPE=MASS SPECTRUM
##ORIGIN=ACCUSTANDARD Chemicals / NIST MS Data Center.
##OWNER=NIST Mass Spectrometry Data Center
Collection (C) 2014 copyright by the U.S. Secretary of Commerce
on behalf of the United States of America. All rights reserved.
##CAS REGISTRY NO=33213-65-9
##$NIST MASS SPEC NO=125484
##MOLFORM=C9 H6 Cl6 O3 S
##MW=404
##$NIST SOURCE=MSDC
##XUNITS=M/Z
##YUNITS=RELATIVE INTENSITY
##XFACTOR=1
##YFACTOR=1
##FIRSTX=13
##LASTX=410
##FIRSTY=141
##MAXX=410
##MINX=13
##MAXY=9999
##MINY=10
##NPOINTS=294
##PEAK TABLE=(XY..XY)
13,141 15,409 18,10 26,337
27,1589 28,1032 29,4265 30,805
31,865 32,69 35,255 36,250
37,479 38,474 39,2987 40,383
41,2201 42,654 43,812 44,249
47,461 48,1693 49,1378 50,1744
51,1185 52,187 53,707 54,396
55,423 57,118 60,494 61,1308
62,788 63,2836 64,982 65,1287
66,279 67,352 68,290 69,2382
70,246 71,302 72,618 73,2231
74,1693 75,2461 76,230 77,548
78,1505 79,636 81,142 82,359
83,1360 84,1702 85,3546 86,1581
87,1125 88,142 89,2207 90,296
91,897 92,133 93,133 94,323
95,873 96,1085 97,1925 98,1198
99,2231 100,354 101,689 102,2938
103,2708 104,932 105,224 106,433
107,2011 108,1546 109,2454 110,739
111,1134 112,263 113,451 114,190
117,1480 118,788 119,2693 120,2578
121,2613 122,922 123,1424 124,250
125,567 127,194 129,202 130,932
131,994 132,632 133,2028 134,961
135,1768 136,1301 137,1496 138,830
139,792 140,194 141,1803 142,194
143,2522 144,345 145,1899 146,745
147,830 148,489 149,371 150,489
151,159 152,254 153,270 154,251
155,567 156,332 157,2147 158,856
159,6625 160,5783 161,3910 162,3320
163,805 164,667 165,877 166,159
167,1559 168,572 169,1984 170,5360
171,2165 172,3488 173,1070 174,794
175,210 177,203 178,284 179,437
180,756 181,1091 182,917 183,1016
184,462 185,499 186,234 187,291
188,217 189,302 190,203 191,2153
192,828 193,5419 194,2723 195,9999
196,2421 197,6734 198,1201 199,2039
200,342 201,1131 202,286 203,1238
204,4129 205,4901 206,5008 207,7095
208,2382 209,4151 210,858 211,1242
212,178 213,381 214,625 215,729
216,1061 217,956 218,814 219,551
220,618 221,514 222,387 223,770
224,198 225,953 226,641 227,2671
228,1808 229,4980 230,2147 231,4163
232,1030 233,2585 234,1337 235,5831
236,1488 237,7806 238,1280 239,7486
240,3011 241,8553 242,3846 243,7091
244,2249 245,3179 246,890 247,779
248,380 249,296 250,641 251,625
252,781 253,648 254,721 255,593
256,567 257,652 258,705 259,442
260,667 261,2585 262,781 263,4018
264,296 265,5419 266,661 267,5538
268,442 269,5448 270,2318 271,4410
272,3878 273,2101 274,3085 275,3222
276,1920 277,5767 278,1188 279,3711
280,533 281,1735 282,225 283,436
286,195 287,138 288,215 289,215
291,288 293,1076 294,318 295,1386
296,138 297,1326 298,243 299,553
300,115 301,248 305,1651 307,2613
308,345 309,1904 310,244 311,812
312,220 313,357 315,165 321,964
323,1598 324,266 325,1118 326,139
327,422 337,3868 339,6058 340,961
341,3921 342,687 343,1521 344,313
345,246 356,221 358,383 360,285
362,172 373,150 404,471 406,930
408,861 410,300
##END=
