##TITLE=3,5-Dichloro-2-hydroxyacetophenone
##JCAMP-DX=4.24
##DATA TYPE=MASS SPECTRUM
##ORIGIN=NIST Mass Spectrometry Data Center, 1994
##OWNER=NIST Mass Spectrometry Data Center
Collection (C) 2014 copyright by the U.S. Secretary of Commerce
on behalf of the United States of America. All rights reserved.
##CAS REGISTRY NO=3321-92-4
##$NIST MASS SPEC NO=136647
##MOLFORM=C8 H6 Cl2 O2
##MW=204
##$NIST SOURCE=MSDC
##XUNITS=M/Z
##YUNITS=RELATIVE INTENSITY
##XFACTOR=1
##YFACTOR=1
##FIRSTX=12
##LASTX=209
##FIRSTY=34
##MAXX=209
##MINX=12
##MAXY=9999
##MINY=23
##NPOINTS=115
##PEAK TABLE=(XY..XY)
12,34 13,70 14,316 15,1792
17,55 18,45 19,64 25,58
26,138 27,115 29,297 35,186
36,226 37,738 38,673 39,356
41,53 42,609 43,9700 44,260
47,183 49,501 50,784 51,790
52,150 53,1156 54,93 55,178
56,97 60,348 61,1623 62,2272
63,2100 64,184 65,91 66,224
67,100 69,76 70,67 71,160
72,457 73,1278 74,637 75,969
76,139 77,612 78,91 79,53
80,77 81,38 83,252 84,284
85,514 86,223 87,327 88,53
89,170 90,185 91,192 95,248
96,281 97,2111 98,418 99,823
100,147 101,92 102,69 103,62
105,46 106,37 107,303 108,87
109,307 110,64 111,336 112,118
113,160 114,53 123,420 124,84
125,543 126,368 127,149 128,103
133,2580 134,282 135,1718 136,138
137,317 141,45 158,23 159,51
160,131 161,318 162,212 163,229
164,110 165,49 175,55 185,31
186,217 187,77 188,31 189,9999
190,923 191,6697 192,569 193,1074
194,83 204,3669 205,346 206,2169
207,221 208,385 209,39
##END=
