##TITLE=Glycine, N,N-dimethyl-, ethyl ester
##JCAMP-DX=4.24
##DATA TYPE=MASS SPECTRUM
##ORIGIN=Japan AIST/NIMC Database- Spectrum MS-NW-1038
##OWNER=NIST Mass Spectrometry Data Center
Collection (C) 2014 copyright by the U.S. Secretary of Commerce
on behalf of the United States of America. All rights reserved.
##CAS REGISTRY NO=33229-89-9
##$NIST MASS SPEC NO=230671
##MOLFORM=C6 H13 N O2
##MW=131
##$NIST SOURCE=MSDC
##XUNITS=M/Z
##YUNITS=RELATIVE INTENSITY
##XFACTOR=1
##YFACTOR=1
##FIRSTX=14
##LASTX=132
##FIRSTY=30
##MAXX=132
##MINX=14
##MAXY=9999
##MINY=10
##NPOINTS=29
##PEAK TABLE=(XY..XY)
14,30 15,319 18,20 19,10
26,30 27,179 28,80 29,279
30,449 31,70 40,30 41,90
42,849 43,169 44,309 45,50
55,10 56,70 57,229 58,9999
59,399 60,20 72,70 74,60
100,30 102,40 130,20 131,669
132,50
##END=
