##TITLE=4-N-Hexylaniline
##JCAMP-DX=4.24
##DATA TYPE=MASS SPECTRUM
##ORIGIN=NIST Mass Spectrometry Data Center, 1994
##OWNER=NIST Mass Spectrometry Data Center
Collection (C) 2014 copyright by the U.S. Secretary of Commerce
on behalf of the United States of America. All rights reserved.
##CAS REGISTRY NO=33228-45-4
##$NIST MASS SPEC NO=135385
##MOLFORM=C12 H19 N
##MW=177
##$NIST SOURCE=MSDC
##XUNITS=M/Z
##YUNITS=RELATIVE INTENSITY
##XFACTOR=1
##YFACTOR=1
##FIRSTX=14
##LASTX=179
##FIRSTY=8
##MAXX=179
##MINX=14
##MAXY=9999
##MINY=2
##NPOINTS=76
##PEAK TABLE=(XY..XY)
14,8 15,76 16,8 17,2
27,730 28,362 29,709 30,133
37,7 38,48 39,528 40,85
41,594 42,125 43,282 44,12
47,4 50,50 51,213 52,198
53,183 54,103 55,70 56,16
59,12 61,5 62,23 63,108
64,44 65,290 66,129 67,54
68,7 71,6 74,3 75,17
77,769 78,329 79,420 80,132
81,10 89,93 90,39 91,176
92,157 93,170 94,56 95,6
101,9 102,24 103,70 104,162
105,6 106,9999 107,930 108,45
115,51 116,19 117,76 118,146
119,196 120,110 121,12 127,8
128,6 130,45 131,17 132,65
133,17 134,14 135,9 144,6
147,6 177,895 178,116 179,8
##END=
