##TITLE=9-Octadecenamide
##JCAMP-DX=4.24
##DATA TYPE=MASS SPECTRUM
##ORIGIN=R.T.HOLMAN,UNIVERSITY OF MINNESOTA
##OWNER=NIST Mass Spectrometry Data Center
Collection (C) 2014 copyright by the U.S. Secretary of Commerce
on behalf of the United States of America. All rights reserved.
##CAS REGISTRY NO=3322-62-1
##$NIST MASS SPEC NO=36703
##MOLFORM=C18 H35 N O
##MW=281
##$NIST SOURCE=MSDC
##XUNITS=M/Z
##YUNITS=RELATIVE INTENSITY
##XFACTOR=1
##YFACTOR=1
##FIRSTX=36
##LASTX=283
##FIRSTY=270
##MAXX=283
##MINX=36
##MAXY=9999
##MINY=50
##NPOINTS=181
##PEAK TABLE=(XY..XY)
36,270 37,480 38,120 39,1800
40,350 41,9999 42,1600 43,5900
44,2300 45,180 46,70 47,2600
49,840 50,450 51,100 52,150
53,1100 54,2300 55,7500 56,2100
57,2700 58,230 59,7100 60,830
61,90 62,50 63,70 64,50
65,290 66,230 67,2400 68,1000
69,3900 70,1500 71,630 72,4300
73,700 74,70 75,120 76,50
77,320 78,90 79,530 80,390
81,1400 82,870 83,6300 84,1000
85,4300 86,550 87,670 88,50
89,60 91,230 92,60 93,230
94,470 95,790 96,720 97,1400
98,930 99,220 100,420 101,170
105,100 106,50 107,150 108,400
109,440 110,580 111,550 112,690
113,230 114,470 115,140 116,50
117,110 118,110 119,120 120,140
121,160 122,1700 123,500 124,520
125,230 126,520 127,140 128,290
129,90 130,50 131,50 132,50
133,100 134,130 135,120 136,1300
137,420 138,350 139,130 140,260
141,100 142,140 143,70 147,90
148,80 149,90 150,530 151,230
152,320 153,100 154,210 155,70
156,110 157,60 161,90 162,70
163,70 164,360 165,150 166,200
167,80 168,120 169,50 170,90
171,50 175,70 176,50 177,50
178,270 179,110 180,170 181,60
182,80 183,50 184,100 185,50
189,50 192,240 193,120 194,110
195,50 196,70 198,70 199,50
200,50 201,50 202,50 203,50
206,290 207,130 208,120 209,60
210,70 212,60 213,60 220,380
221,140 222,140 223,50 224,60
225,50 226,50 234,250 235,120
236,60 237,50 238,100 239,50
240,50 248,100 249,50 252,90
253,50 262,80 263,360 264,210
265,90 266,50 281,454 282,120
283,50
##END=
