##TITLE=Benzeneethanamine, .alpha.-methyl-N-(1-methylethyl)-
##JCAMP-DX=4.24
##DATA TYPE=MASS SPECTRUM
##ORIGIN=Drug Lab
##OWNER=NIST Mass Spectrometry Data Center
Collection (C) 2014 copyright by the U.S. Secretary of Commerce
on behalf of the United States of America. All rights reserved.
##CAS REGISTRY NO=33236-69-0
##$NIST MASS SPEC NO=379043
##MOLFORM=C12 H19 N
##MW=177
##$NIST SOURCE=MSDC
##XUNITS=M/Z
##YUNITS=RELATIVE INTENSITY
##XFACTOR=1
##YFACTOR=1
##FIRSTX=36
##LASTX=176
##FIRSTY=10
##MAXX=176
##MINX=36
##MAXY=9999
##MINY=10
##NPOINTS=100
##PEAK TABLE=(XY..XY)
36,10 37,10 38,30 39,400
40,50 41,671 42,540 43,581
44,6576 45,200 47,10 50,70
51,200 52,50 53,40 54,70
55,160 56,180 57,100 58,150
60,10 61,10 62,20 63,130
64,30 65,530 66,30 67,120
68,80 69,100 70,320 71,90
72,30 73,10 74,10 75,10
76,30 77,250 78,110 79,100
80,30 81,90 82,50 83,60
84,190 86,9999 87,621 88,10
89,140 90,50 91,2292 92,230
93,50 94,10 95,50 96,50
97,50 98,40 99,10 102,30
103,160 104,50 105,30 107,10
108,20 109,30 110,20 111,20
113,10 115,300 116,60 117,280
118,160 119,240 120,400 121,70
122,10 125,10 126,10 127,10
128,10 129,30 130,30 131,20
132,10 133,10 134,90 135,20
136,10 142,10 144,10 145,20
146,30 147,10 160,20 161,10
162,250 163,40 164,10 176,50
##END=
