##TITLE=3,7-Bis[(trimethylsilyl)oxy]cholest-5-ene, (3.beta.,7.beta.)-
##JCAMP-DX=4.24
##DATA TYPE=MASS SPECTRUM
##ORIGIN=NIST Mass Spectrometry Data Center
##OWNER=NIST Mass Spectrometry Data Center
Collection (C) 2014 copyright by the U.S. Secretary of Commerce
on behalf of the United States of America. All rights reserved.
##CAS REGISTRY NO=33287-26-2
##$NIST MASS SPEC NO=333332
##MOLFORM=C33 H62 O2 Si2
##MW=546
##$NIST SOURCE=MSDC
##XUNITS=M/Z
##YUNITS=RELATIVE INTENSITY
##XFACTOR=1
##YFACTOR=1
##FIRSTX=15
##LASTX=548
##FIRSTY=50
##MAXX=548
##MINX=15
##MAXY=9999
##MINY=30
##NPOINTS=199
##PEAK TABLE=(XY..XY)
15,50 29,120 39,80 40,80
41,320 42,170 43,1371 44,490
45,791 46,40 47,520 53,90
55,831 56,140 57,1111 58,120
59,180 60,120 61,180 65,50
66,50 67,460 68,60 69,851
70,100 71,721 72,70 73,4694
74,490 75,6786 76,530 77,450
78,60 79,500 80,110 81,1121
82,80 83,450 85,110 90,60
91,711 92,250 93,861 94,40
95,1161 96,120 97,260 101,120
103,220 104,90 105,821 106,180
107,651 108,130 109,470 110,70
111,100 115,240 116,120 117,591
118,260 119,1061 120,220 121,490
122,70 123,240 127,150 128,230
129,1251 130,250 131,601 132,140
133,460 134,150 135,480 136,110
137,60 139,40 141,130 142,230
143,811 144,310 145,851 146,200
147,961 148,130 149,260 150,30
151,120 152,50 153,50 154,50
155,340 156,130 157,611 158,340
159,651 160,160 161,200 162,40
163,110 165,120 167,190 168,100
169,360 170,100 171,280 172,60
173,220 174,100 175,80 177,70
179,160 180,80 181,250 182,150
183,230 185,210 186,90 187,100
189,50 191,140 193,190 194,140
195,210 196,170 197,170 198,70
199,210 200,30 203,50 205,110
206,80 207,230 208,230 209,290
210,120 211,200 213,160 214,40
215,60 217,80 218,50 219,210
220,100 221,70 223,50 226,70
227,70 229,50 231,70 232,70
233,410 234,120 235,50 236,60
237,60 239,50 243,50 246,30
247,330 248,90 249,100 253,130
255,80 257,40 261,30 287,70
296,30 297,90 325,140 326,70
327,60 328,80 329,100 343,40
345,50 349,70 351,210 352,80
353,90 362,40 365,80 366,210
367,300 368,180 387,40 414,30
441,210 442,130 454,60 455,310
456,9999 457,3413 458,1211 459,210
531,40 546,160 548,60
##END=
