##TITLE=1,1'-Biphenyl, 2,3,4,5-tetrachloro-
##JCAMP-DX=4.24
##DATA TYPE=MASS SPECTRUM
##ORIGIN=T.L.Hayes, Battelle Columbus Laboratories, Columbus, OH 43221
##OWNER=NIST Mass Spectrometry Data Center
Collection (C) 2014 copyright by the U.S. Secretary of Commerce
on behalf of the United States of America. All rights reserved.
##CAS REGISTRY NO=33284-53-6
##$NIST MASS SPEC NO=80758
##MOLFORM=C12 H6 Cl4
##MW=290
##$NIST SOURCE=MSDC
##XUNITS=M/Z
##YUNITS=RELATIVE INTENSITY
##XFACTOR=1
##YFACTOR=1
##FIRSTX=33
##LASTX=298
##FIRSTY=26
##MAXX=298
##MINX=33
##MAXY=9999
##MINY=6
##NPOINTS=197
##PEAK TABLE=(XY..XY)
33,26 34,13 35,144 36,321
37,271 38,291 39,584 40,308
41,19 43,20 44,94 47,13
48,24 49,209 50,846 51,1014
52,224 53,16 55,74 56,18
57,22 58,31 60,145 61,790
62,627 63,476 64,41 66,72
67,51 68,23 70,7 71,100
72,203 73,668 74,1318 75,1769
76,423 77,41 78,202 79,341
80,235 81,13 82,13 83,104
84,421 85,635 86,608 87,288
88,61 89,57 91,34 92,2629
93,1240 95,71 96,362 97,956
98,1328 99,626 100,211 101,155
102,254 103,81 104,28 105,13
106,72 107,168 108,676 109,1265
110,5312 111,3328 112,627 113,141
114,415 115,375 116,148 118,155
119,157 120,394 121,353 122,567
123,534 124,176 125,163 126,170
127,1799 128,2043 129,831 130,118
131,120 132,372 133,372 134,208
135,158 136,145 137,83 138,96
141,43 142,54 143,95 144,158
145,858 146,998 147,611 148,298
149,1174 150,3640 151,455 152,7
153,7 154,22 155,42 156,92
157,141 158,154 159,129 160,140
161,36 162,30 163,31 167,75
168,63 169,87 170,84 171,35
172,36 173,34 177,6 178,30
179,48 180,41 181,150 182,74
183,254 184,1748 185,1160 186,701
187,359 188,68 190,22 191,23
192,102 193,38 194,204 195,51
196,105 197,20 198,45 203,80
204,28 205,67 207,56 208,24
209,21 214,6 215,35 216,59
217,44 218,171 219,227 220,6531
221,990 222,4109 223,550 224,636
225,78 227,10 228,36 229,27
230,55 231,9 232,22 238,37
240,53 241,14 242,23 251,19
253,61 254,431 255,41 256,436
257,128 258,174 259,31 260,21
264,12 266,21 267,7 282,11
290,8062 291,1039 292,9999 293,1346
294,4945 295,655 296,1049 297,118
298,82
##END=
