##TITLE=Thiophene, 2,4-diphenyl-
##JCAMP-DX=4.24
##DATA TYPE=MASS SPECTRUM
##OWNER=NIST Mass Spectrometry Data Center
Collection (C) 2014 copyright by the U.S. Secretary of Commerce
on behalf of the United States of America. All rights reserved.
##CAS REGISTRY NO=3328-86-7
##$NIST MASS SPEC NO=11342
##MOLFORM=C16 H12 S
##MW=236
##$NIST SOURCE=MSDC
##XUNITS=M/Z
##YUNITS=RELATIVE INTENSITY
##XFACTOR=1
##YFACTOR=1
##FIRSTX=39
##LASTX=238
##FIRSTY=1301
##MAXX=238
##MINX=39
##MAXY=9999
##MINY=300
##NPOINTS=24
##PEAK TABLE=(XY..XY)
39,1301 45,801 50,801 51,1301
63,1001 69,500 77,1101 89,1101
102,601 115,901 118,601 121,1401
134,1001 139,300 165,500 189,801
191,1201 202,1001 203,500 234,1301
235,801 236,9999 237,2002 238,601
##END=
