##TITLE=1,1'-Biphenyl, 2,3,5,6-tetrachloro-
##JCAMP-DX=4.24
##DATA TYPE=MASS SPECTRUM
##ORIGIN=T.L.Hayes, Battelle Columbus Laboratories, Columbus, OH 43221
##OWNER=NIST Mass Spectrometry Data Center
Collection (C) 2014 copyright by the U.S. Secretary of Commerce
on behalf of the United States of America. All rights reserved.
##CAS REGISTRY NO=33284-54-7
##$NIST MASS SPEC NO=80792
##MOLFORM=C12 H6 Cl4
##MW=290
##$NIST SOURCE=MSDC
##XUNITS=M/Z
##YUNITS=RELATIVE INTENSITY
##XFACTOR=1
##YFACTOR=1
##FIRSTX=34
##LASTX=298
##FIRSTY=54
##MAXX=298
##MINX=34
##MAXY=9999
##MINY=10
##NPOINTS=169
##PEAK TABLE=(XY..XY)
34,54 35,137 36,370 37,283
38,306 39,661 40,620 41,30
42,15 43,56 44,107 47,63
49,232 50,900 51,1235 52,204
55,95 56,32 57,25 60,135
61,916 62,670 63,402 66,12
67,83 69,12 71,54 72,207
73,919 74,1434 75,1647 76,283
77,328 78,232 79,339 80,213
81,24 82,11 83,58 84,404
85,609 86,665 87,321 88,36
89,21 90,29 91,73 92,2506
93,1116 94,14 95,19 96,402
97,891 98,1317 99,643 100,151
101,87 102,68 103,56 107,180
108,563 109,1196 110,4022 111,2418
112,508 113,68 114,322 115,297
116,86 118,34 119,110 120,289
121,321 122,562 123,499 124,126
125,98 126,68 127,1714 128,1929
129,847 130,59 131,82 132,282
133,288 134,168 135,150 136,89
137,55 138,35 142,14 143,86
144,89 145,758 146,919 147,661
148,329 149,1010 150,3047 151,378
156,76 157,114 158,122 159,114
160,127 167,63 168,38 169,50
170,56 171,14 172,10 180,11
181,91 182,58 183,215 184,1555
185,909 186,624 187,266 191,29
192,82 193,79 194,194 195,55
196,78 197,13 198,10 203,47
205,48 206,14 207,70 208,16
216,16 217,45 218,98 219,230
220,6316 221,952 222,4041 223,530
224,638 225,65 228,16 230,28
238,11 240,13 253,13 254,389
255,227 256,412 257,186 258,136
259,38 262,60 263,11 264,67
266,23 267,11 281,19 282,14
290,7991 291,1100 292,9999 293,1273
294,4928 295,592 296,1087 297,112
298,75
##END=
