##TITLE=Pregn-5-ene-3,20-diol, (3.beta.,20R)-, 2TMS derivative
##JCAMP-DX=4.24
##DATA TYPE=MASS SPECTRUM
##ORIGIN=STER PREG TMSI L SE30 01 2810 E M.HORN
##OWNER=NIST Mass Spectrometry Data Center
Collection (C) 2014 copyright by the U.S. Secretary of Commerce
on behalf of the United States of America. All rights reserved.
##CAS REGISTRY NO=33283-11-3
##$NIST MASS SPEC NO=43273
##MOLFORM=C27 H50 O2 Si2
##MW=462
##$NIST SOURCE=MSDC
##XUNITS=M/Z
##YUNITS=RELATIVE INTENSITY
##XFACTOR=1
##YFACTOR=1
##FIRSTX=41
##LASTX=465
##FIRSTY=150
##MAXX=465
##MINX=41
##MAXY=9999
##MINY=6
##NPOINTS=131
##PEAK TABLE=(XY..XY)
41,150 43,100 44,50 45,100
47,50 53,50 55,250 57,50
59,100 61,100 67,200 68,50
69,100 72,50 73,3050 74,250
75,1400 76,100 77,150 78,50
79,200 80,50 81,300 82,50
83,50 89,50 91,250 92,50
93,250 94,50 95,200 97,50
101,100 103,250 104,50 105,300
106,100 107,250 108,50 109,100
111,50 115,50 116,50 117,9999
118,1100 119,900 120,250 121,200
122,50 123,50 129,1050 130,200
131,200 132,50 133,200 134,50
135,100 143,300 144,50 145,200
146,50 147,150 148,50 149,50
155,100 156,50 157,100 158,50
159,200 160,100 161,200 162,50
169,50 171,50 172,50 173,100
174,50 175,50 183,50 185,50
187,50 188,50 189,100 197,50
199,50 201,50 207,50 211,50
213,50 215,50 227,50 237,6
239,18 240,12 241,25 242,18
243,250 244,50 251,6 253,31
254,18 255,37 256,31 257,6
267,143 268,25 278,6 281,37
282,150 283,43 284,6 330,25
331,25 332,125 333,56 334,12
344,18 346,12 357,93 358,25
359,6 372,375 373,118 374,31
447,50 448,18 449,6 462,200
463,75 464,25 465,6
##END=
