##TITLE=3-Methoxyphenol, TMS derivative
##JCAMP-DX=4.24
##DATA TYPE=MASS SPECTRUM
##ORIGIN=NIST Mass Spectrometry Data Center
##OWNER=NIST Mass Spectrometry Data Center
Collection (C) 2014 copyright by the U.S. Secretary of Commerce
on behalf of the United States of America. All rights reserved.
##CAS REGISTRY NO=33285-71-1
##$NIST MASS SPEC NO=352919
##MOLFORM=C10 H16 O2 Si
##MW=196
##$NIST SOURCE=MSDC
##XUNITS=M/Z
##YUNITS=RELATIVE INTENSITY
##XFACTOR=1
##YFACTOR=1
##FIRSTX=15
##LASTX=199
##FIRSTY=100
##MAXX=199
##MINX=15
##MAXY=9999
##MINY=10
##NPOINTS=128
##PEAK TABLE=(XY..XY)
15,100 26,10 27,30 28,20
29,60 30,10 31,20 37,10
38,50 39,110 40,10 41,60
42,30 43,260 44,90 45,470
46,30 47,80 48,10 49,10
50,80 51,140 52,120 53,120
54,30 55,90 56,10 57,40
58,70 59,390 60,50 61,120
62,60 63,350 64,440 65,160
66,50 67,70 68,30 69,140
70,30 71,30 72,40 73,961
74,130 75,941 76,220 77,510
78,170 79,120 80,60 81,60
82,20 83,130 84,20 85,80
86,10 87,10 89,1011 91,651
92,671 93,140 94,30 95,440
96,80 97,60 98,20 99,90
100,10 101,20 103,20 104,10
105,120 106,60 107,340 108,60
109,100 110,60 111,60 112,10
113,50 115,10 119,30 120,40
121,671 122,310 123,450 124,70
125,100 126,10 127,10 131,40
132,10 133,70 134,20 135,320
136,100 137,170 138,60 139,20
147,50 148,40 149,951 150,190
151,1641 152,250 153,110 154,10
161,20 163,70 164,30 165,340
166,300 167,90 168,20 177,10
178,10 179,130 181,9999 182,2252
183,681 184,60 185,10 193,10
196,6316 197,1101 198,330 199,30
##END=
