##TITLE=Diazinone
##JCAMP-DX=4.24
##DATA TYPE=MASS SPECTRUM
##ORIGIN=NIST Mass Spectrometry Data Center, 1990.
##OWNER=NIST Mass Spectrometry Data Center
Collection (C) 2014 copyright by the U.S. Secretary of Commerce
on behalf of the United States of America. All rights reserved.
##CAS REGISTRY NO=333-41-5
##$NIST MASS SPEC NO=118996
##MOLFORM=C12 H21 N2 O3 P S
##MW=304
##$NIST SOURCE=MSDC
##XUNITS=M/Z
##YUNITS=RELATIVE INTENSITY
##XFACTOR=1
##YFACTOR=1
##FIRSTX=12
##LASTX=307
##FIRSTY=21
##MAXX=307
##MINX=12
##MAXY=9999
##MINY=2
##NPOINTS=218
##PEAK TABLE=(XY..XY)
12,21 13,18 14,54 15,341
16,2 17,18 18,105 19,31
26,455 27,3323 28,2074 29,4804
30,173 31,142 33,21 35,39
37,50 38,265 39,2016 40,571
41,2751 42,2349 43,2737 44,204
45,667 46,67 47,541 48,74
49,15 50,18 51,77 52,499
53,314 54,1836 55,549 56,167
57,37 58,52 59,127 60,157
61,72 62,23 63,212 64,229
65,1801 66,2990 67,1191 68,1531
69,468 70,387 71,151 72,56
73,51 74,47 75,46 76,32
77,65 78,147 79,249 80,307
81,500 82,424 83,378 84,1940
85,154 86,86 87,60 88,61
89,117 90,41 91,159 92,32
93,4018 94,314 95,123 96,467
97,3397 98,378 99,215 100,203
101,32 102,90 103,25 104,21
105,113 106,67 107,151 108,243
109,568 110,399 111,147 112,42
113,183 114,241 115,131 116,47
117,30 118,21 119,491 120,135
121,481 122,85 123,30 124,2616
125,955 126,205 127,80 128,21
130,74 131,16 132,73 133,472
134,939 135,2395 136,16 137,9847
138,952 139,100 140,222 141,58
142,81 143,44 146,51 147,276
148,74 149,182 150,44 151,2871
152,7049 153,4407 154,369 155,119
156,30 157,30 160,19 162,1531
163,1427 164,544 165,172 166,118
167,818 168,365 169,112 170,55
171,28 173,26 174,13 176,19
179,9999 180,1419 181,154 182,13
183,528 184,56 185,20 188,14
189,38 190,22 191,28 192,13
195,487 196,104 197,196 198,13
199,4745 200,470 201,62 202,16
205,101 206,36 213,39 215,1127
216,1446 217,184 218,75 220,185
221,17 222,18 225,19 227,2268
228,278 229,78 230,17 231,852
232,197 233,531 234,60 235,34
243,234 244,39 245,22 246,22
247,777 248,2102 249,253 250,141
251,11 257,18 259,350 260,787
261,382 262,92 263,32 271,23
273,48 276,2276 277,309 278,150
279,18 287,15 289,857 290,132
291,53 302,17 304,4683 305,775
306,283 307,45
##END=
