##TITLE=Flurothyl
##JCAMP-DX=4.24
##DATA TYPE=MASS SPECTRUM
##ORIGIN=Chuck Anderson, Aldrich Chemical Co.
##OWNER=NIST Mass Spectrometry Data Center
Collection (C) 2014 copyright by the U.S. Secretary of Commerce
on behalf of the United States of America. All rights reserved.
##CAS REGISTRY NO=333-36-8
##$NIST MASS SPEC NO=107938
##MOLFORM=C4 H4 F6 O
##MW=182
##$NIST SOURCE=MSDC
##XUNITS=M/Z
##YUNITS=RELATIVE INTENSITY
##XFACTOR=1
##YFACTOR=1
##FIRSTX=14
##LASTX=183
##FIRSTY=8
##MAXX=183
##MINX=14
##MAXY=9999
##MINY=3
##NPOINTS=48
##PEAK TABLE=(XY..XY)
14,8 15,14 26,17 28,7
29,535 30,82 31,765 32,105
33,2152 34,22 42,8 43,47
44,149 45,133 47,16 49,35
50,130 51,352 60,30 61,1841
62,53 63,675 64,627 65,160
68,10 69,813 70,3 78,6
79,50 80,21 81,111 82,103
83,6410 84,142 93,40 101,39
111,3 112,121 113,9999 114,322
115,25 131,98 162,9 163,630
164,26 181,10 182,61 183,4
##END=
