##TITLE=Decyl trifluoroacetate
##JCAMP-DX=4.24
##DATA TYPE=MASS SPECTRUM
##ORIGIN=NIST Mass Spectrometry Data Center
##OWNER=NIST Mass Spectrometry Data Center
Collection (C) 2014 copyright by the U.S. Secretary of Commerce
on behalf of the United States of America. All rights reserved.
##CAS REGISTRY NO=333-88-0
##$NIST MASS SPEC NO=351748
##MOLFORM=C12 H21 F3 O2
##MW=254
##$NIST SOURCE=MSDC
##XUNITS=M/Z
##YUNITS=RELATIVE INTENSITY
##XFACTOR=1
##YFACTOR=1
##FIRSTX=15
##LASTX=236
##FIRSTY=20
##MAXX=236
##MINX=15
##MAXY=9999
##MINY=10
##NPOINTS=88
##PEAK TABLE=(XY..XY)
15,20 26,50 27,921 28,180
29,1972 30,60 33,40 37,10
38,30 39,1251 40,290 41,6826
42,2172 43,8037 45,30 46,10
50,40 51,100 52,50 53,601
54,951 55,9999 56,6206 57,5635
58,240 59,40 61,20 63,10
65,100 66,80 67,1181 68,2062
69,8668 70,5995 71,2032 72,100
73,10 77,60 78,80 79,120
80,30 81,390 82,2482 83,5265
84,3413 85,1531 86,90 87,10
91,20 93,10 94,10 95,110
96,641 97,4064 98,1571 99,891
100,20 101,10 109,30 110,220
111,2102 112,1661 113,160 114,10
115,30 123,10 125,60 127,140
136,10 137,20 138,60 139,20
140,490 141,70 151,10 152,30
153,10 155,40 165,10 167,30
168,10 179,10 180,10 185,380
186,50 193,20 207,10 236,10
##END=
