##TITLE=2(1H)-Pyrimidinethione, 4-amino-
##JCAMP-DX=4.24
##DATA TYPE=MASS SPECTRUM
##ORIGIN=Japan AIST/NIMC Database- Spectrum MS-NW-6836
##OWNER=NIST Mass Spectrometry Data Center
Collection (C) 2014 copyright by the U.S. Secretary of Commerce
on behalf of the United States of America. All rights reserved.
##CAS REGISTRY NO=333-49-3
##$NIST MASS SPEC NO=236213
##MOLFORM=C4 H5 N3 S
##MW=127
##$NIST SOURCE=MSDC
##XUNITS=M/Z
##YUNITS=RELATIVE INTENSITY
##XFACTOR=1
##YFACTOR=1
##FIRSTX=12
##LASTX=130
##FIRSTY=30
##MAXX=130
##MINX=12
##MAXY=9999
##MINY=10
##NPOINTS=88
##PEAK TABLE=(XY..XY)
12,30 13,20 14,80 15,129
16,20 24,10 25,50 26,169
27,229 28,1129 29,50 30,20
32,239 33,159 34,40 35,10
36,10 37,30 38,249 39,399
40,1659 41,2089 42,1789 43,759
44,169 45,289 46,90 47,30
48,10 49,10 50,40 51,189
52,809 53,379 54,50 55,349
56,40 57,319 58,359 59,509
60,529 61,30 62,20 63,60
64,20 65,80 66,549 67,1809
68,519 69,8619 70,369 71,90
72,459 73,90 74,30 75,10
76,20 77,60 78,20 79,40
80,10 82,60 83,409 84,349
85,229 86,60 87,20 91,10
92,30 93,40 94,359 95,80
97,10 98,20 99,839 100,129
101,40 102,10 109,30 110,80
111,549 112,40 125,30 126,129
127,9999 128,669 129,489 130,30
##END=
