##TITLE=Ferrocene, 1,1',2,2'-tetrachloro-
##JCAMP-DX=4.24
##DATA TYPE=MASS SPECTRUM
##OWNER=NIST Mass Spectrometry Data Center
Collection (C) 2014 copyright by the U.S. Secretary of Commerce
on behalf of the United States of America. All rights reserved.
##CAS REGISTRY NO=33306-54-6
##$NIST MASS SPEC NO=15176
##MOLFORM=C10 H6 Cl4 Fe
##MW=322
##$NIST SOURCE=MSDC
##XUNITS=M/Z
##YUNITS=RELATIVE INTENSITY
##XFACTOR=1
##YFACTOR=1
##FIRSTX=36
##LASTX=328
##FIRSTY=701
##MAXX=328
##MINX=36
##MAXY=9999
##MINY=200
##NPOINTS=56
##PEAK TABLE=(XY..XY)
36,701 37,400 38,200 39,1201
50,200 51,200 56,1301 62,701
63,9008 64,500 72,601 73,1601
74,701 75,801 76,300 81,300
83,300 91,2803 93,901 97,901
98,801 99,801 100,300 107,400
109,300 117,701 118,400 125,1201
126,4504 127,701 128,400 129,200
133,1802 135,1101 153,400 160,1501
161,3803 162,1001 163,1001 189,901
191,601 196,4304 197,500 198,2702
199,300 200,500 288,300 290,300
320,300 322,8207 323,1101 324,9999
325,1301 326,4404 327,500 328,901
##END=
