##TITLE=Ferrocene, 1,1',2,2',3,3'-hexachloro-
##JCAMP-DX=4.24
##DATA TYPE=MASS SPECTRUM
##ORIGIN=L D SMITHSON
##OWNER=NIST Mass Spectrometry Data Center
Collection (C) 2014 copyright by the U.S. Secretary of Commerce
on behalf of the United States of America. All rights reserved.
##CAS REGISTRY NO=33306-55-7
##$NIST MASS SPEC NO=39896
##MOLFORM=C10 H4 Cl6 Fe
##MW=390
##$NIST SOURCE=MSDC
##XUNITS=M/Z
##YUNITS=RELATIVE INTENSITY
##XFACTOR=1
##YFACTOR=1
##FIRSTX=56
##LASTX=398
##FIRSTY=352
##MAXX=398
##MINX=56
##MAXY=9999
##MINY=209
##NPOINTS=60
##PEAK TABLE=(XY..XY)
56,352 61,880 62,1585 72,422
73,417 83,326 91,1297 93,378
96,639 97,5319 98,600 99,1773
107,684 109,456 117,587 122,248
123,248 131,209 132,417 133,300
134,235 152,222 153,874 155,274
159,352 167,1799 169,1786 171,613
194,2660 195,378 196,1669 197,248
198,326 223,1669 225,1669 227,522
228,443 229,1134 230,522 231,1069
232,254 233,326 264,3220 265,424
266,4003 267,482 268,1995 269,261
270,456 356,222 388,365 390,5658
391,815 392,9999 393,1369 394,7901
395,1199 396,3442 397,456 398,860
##END=
