##TITLE=Ferrocene, 1,1',2,2',3,3',4,4'-octachloro-
##JCAMP-DX=4.24
##DATA TYPE=MASS SPECTRUM
##OWNER=NIST Mass Spectrometry Data Center
Collection (C) 2014 copyright by the U.S. Secretary of Commerce
on behalf of the United States of America. All rights reserved.
##CAS REGISTRY NO=33306-56-8
##$NIST MASS SPEC NO=17800
##MOLFORM=C10 H2 Cl8 Fe
##MW=458
##$NIST SOURCE=MSDC
##XUNITS=M/Z
##YUNITS=RELATIVE INTENSITY
##XFACTOR=1
##YFACTOR=1
##FIRSTX=35
##LASTX=468
##FIRSTY=300
##MAXX=468
##MINX=35
##MAXY=9999
##MINY=200
##NPOINTS=89
##PEAK TABLE=(XY..XY)
35,300 56,701 60,200 61,4304
62,300 70,500 71,300 72,300
83,901 84,200 85,500 90,2502
93,701 95,1001 96,8207 97,1001
106,400 107,1301 108,500 109,801
117,400 119,300 130,400 131,9999
132,901 133,6806 135,1001 142,701
144,300 150,200 151,400 155,300
156,200 167,400 168,300 169,400
170,200 187,701 189,601 190,200
191,500 193,300 201,3203 202,200
203,4004 204,200 206,400 227,300
228,200 230,400 231,601 232,300
233,200 256,400 257,4804 258,400
259,5805 260,400 261,3003 262,1802
263,701 264,2302 265,300 266,1001
267,200 268,200 297,300 299,300
301,300 332,2102 333,200 334,4004
335,300 336,3303 337,300 338,1301
340,300 456,200 458,3203 459,400
460,7507 461,1001 462,8007 463,1001
464,5005 465,601 466,2002 467,200
468,500
##END=
