##TITLE=m-Amino-N,N-dimethylbenzamide
##JCAMP-DX=4.24
##DATA TYPE=MASS SPECTRUM
##ORIGIN=Div. of Experiment Therapeutics WRAIR, WRAMC, Washington DC 20307
##OWNER=NIST Mass Spectrometry Data Center
Collection (C) 2014 copyright by the U.S. Secretary of Commerce
on behalf of the United States of America. All rights reserved.
##CAS REGISTRY NO=33322-60-0
##$NIST MASS SPEC NO=227462
##MOLFORM=C9 H12 N2 O
##MW=164
##$NIST SOURCE=MSDC
##XUNITS=M/Z
##YUNITS=RELATIVE INTENSITY
##XFACTOR=1
##YFACTOR=1
##FIRSTX=42
##LASTX=166
##FIRSTY=3536
##MAXX=166
##MINX=42
##MAXY=9999
##MINY=5
##NPOINTS=73
##PEAK TABLE=(XY..XY)
42,3536 43,300 44,1109 46,292
47,338 49,131 51,101 52,888
53,242 54,245 56,363 57,12
58,59 60,124 61,112 62,359
63,1363 64,1131 65,6627 66,728
68,181 70,32 72,763 73,54
74,184 75,127 76,46 77,142
78,57 79,36 80,10 81,97
82,84 84,73 86,58 88,104
89,38 90,148 91,352 92,9851
93,1500 94,52 95,13 96,10
98,44 100,24 101,25 103,7
104,49 105,28 106,234 107,72
108,6 110,12 116,5 117,6
120,9999 121,1421 122,45 130,5
131,6 132,19 133,43 134,47
135,46 136,15 146,19 147,8
148,61 163,1699 164,5673 165,995
166,81
##END=
