##TITLE=Benzene, 1-methyl-4-(2-propenyl)-
##JCAMP-DX=4.24
##DATA TYPE=MASS SPECTRUM
##ORIGIN=NIST Mass Spectrometry Data Center, 1990.
##OWNER=NIST Mass Spectrometry Data Center
Collection (C) 2014 copyright by the U.S. Secretary of Commerce
on behalf of the United States of America. All rights reserved.
##CAS REGISTRY NO=3333-13-9
##$NIST MASS SPEC NO=113549
##MOLFORM=C10 H12
##MW=132
##$NIST SOURCE=MSDC
##XUNITS=M/Z
##YUNITS=RELATIVE INTENSITY
##XFACTOR=1
##YFACTOR=1
##FIRSTX=15
##LASTX=133
##FIRSTY=118
##MAXX=133
##MINX=15
##MAXY=9999
##MINY=44
##NPOINTS=53
##PEAK TABLE=(XY..XY)
15,118 26,132 27,592 28,222
32,45 37,56 38,242 39,1342
40,145 41,225 50,651 51,1375
52,373 53,437 58,125 61,110
62,398 63,1100 64,669 65,1327
66,116 73,44 74,289 75,270
76,286 77,1813 78,754 79,766
80,50 86,107 87,126 89,581
91,3319 92,356 98,48 101,69
102,361 103,801 104,439 105,1455
106,137 115,4507 116,1765 117,9999
118,1056 126,69 127,293 128,589
129,660 130,186 131,1680 132,5303
133,587
##END=
