##TITLE=3,5-Dichloro-4-hydroxybenzoic acid
##JCAMP-DX=4.24
##DATA TYPE=MASS SPECTRUM
##ORIGIN=Japan AIST/NIMC Database- Spectrum MS-NW-3149
##OWNER=NIST Mass Spectrometry Data Center
Collection (C) 2014 copyright by the U.S. Secretary of Commerce
on behalf of the United States of America. All rights reserved.
##CAS REGISTRY NO=3336-41-2
##$NIST MASS SPEC NO=231366
##MOLFORM=C7 H4 Cl2 O3
##MW=206
##$NIST SOURCE=MSDC
##XUNITS=M/Z
##YUNITS=RELATIVE INTENSITY
##XFACTOR=1
##YFACTOR=1
##FIRSTX=18
##LASTX=212
##FIRSTY=20
##MAXX=212
##MINX=18
##MAXY=9999
##MINY=10
##NPOINTS=158
##PEAK TABLE=(XY..XY)
18,20 25,30 26,40 27,30
28,209 29,129 31,90 32,20
35,50 36,179 37,359 38,199
39,139 40,10 41,10 42,10
43,20 44,99 45,379 46,10
47,80 48,279 49,229 50,229
51,399 52,50 53,689 54,50
55,80 56,10 57,20 59,10
60,189 61,849 62,1319 63,1169
64,119 65,60 66,109 67,60
68,10 69,40 71,90 72,259
73,759 74,219 75,209 76,30
77,60 78,20 79,219 80,80
81,50 82,10 83,60 84,70
85,199 86,99 87,229 88,40
89,459 90,409 91,239 92,40
93,10 94,169 95,109 96,259
97,859 98,239 99,489 100,80
101,80 102,10 103,40 104,30
105,10 106,10 107,99 108,50
109,80 110,20 111,20 113,70
114,80 115,179 116,30 117,60
118,10 119,30 121,30 123,20
124,50 125,829 126,269 127,439
128,90 129,70 130,10 131,30
132,70 133,909 134,90 135,569
136,40 137,90 138,10 141,40
142,30 143,60 144,30 145,20
149,139 150,10 151,90 152,10
153,319 154,40 155,1359 156,109
157,409 158,30 160,169 161,879
162,199 163,539 164,70 165,90
166,10 171,30 172,1079 173,109
174,369 175,40 176,10 177,40
178,99 179,30 180,70 181,10
182,10 186,10 188,50 189,8519
190,689 191,5549 192,449 193,909
194,70 195,10 205,80 206,9999
207,819 208,6389 209,509 210,1049
211,80 212,10
##END=
