##TITLE=Thiophene, 2,4-bis(1,1-dimethylethyl)-
##JCAMP-DX=4.24
##DATA TYPE=MASS SPECTRUM
##ORIGIN=N.G. FOSTER TEXAS WOMANS UNIV., DENTON, TEXAS, USA
##OWNER=NIST Mass Spectrometry Data Center
Collection (C) 2014 copyright by the U.S. Secretary of Commerce
on behalf of the United States of America. All rights reserved.
##CAS REGISTRY NO=33369-81-2
##$NIST MASS SPEC NO=8654
##MOLFORM=C12 H20 S
##MW=196
##$NIST SOURCE=MSDC
##XUNITS=M/Z
##YUNITS=RELATIVE INTENSITY
##XFACTOR=1
##YFACTOR=1
##FIRSTX=26
##LASTX=199
##FIRSTY=51
##MAXX=199
##MINX=26
##MAXY=9999
##MINY=1
##NPOINTS=141
##PEAK TABLE=(XY..XY)
26,51 27,749 28,194 29,900
30,17 33,1 34,2 35,1
37,17 38,51 39,847 40,86
41,1549 42,101 43,217 44,17
45,470 46,21 47,70 48,2
49,3 50,57 51,234 52,51
53,222 54,20 55,269 56,84
57,1359 58,101 59,170 60,20
61,134 62,51 63,117 64,23
65,204 66,50 67,232 68,416
69,603 70,51 71,84 72,17
73,38 74,57 75,67 76,22
77,234 78,67 79,124 80,17
81,51 82,101 83,433 84,83
85,170 86,17 87,12 88,34
90,16 91,267 92,34 93,34
94,5 95,21 96,7 97,234
98,21 99,37 100,3 101,2
102,17 103,34 104,16 105,74
106,15 107,17 108,17 109,84
110,51 111,121 112,17 113,14
114,4 115,67 116,34 117,54
118,14 119,18 120,2 121,57
122,20 123,140 124,50 125,219
126,19 127,17 128,13 129,12
130,4 131,13 132,8 133,17
134,53 135,84 136,33 137,117
138,51 139,40 140,2 145,5
147,20 148,17 149,51 150,51
151,333 152,41 153,117 154,13
155,6 161,2 162,2 163,8
164,6 165,303 166,250 167,51
168,17 169,4 179,17 180,17
181,9999 182,1299 183,506 184,51
195,2 196,1568 197,217 198,84
199,4
##END=
