##TITLE=4-Imidazolidinone, 5-methyl-2-thioxo-
##JCAMP-DX=4.24
##DATA TYPE=MASS SPECTRUM
##ORIGIN=T.SUZUKI FAC. OF AGRI., TOHOKU UNIV., SENDAI, JAPAN
##OWNER=NIST Mass Spectrometry Data Center
Collection (C) 2014 copyright by the U.S. Secretary of Commerce
on behalf of the United States of America. All rights reserved.
##CAS REGISTRY NO=33368-94-4
##$NIST MASS SPEC NO=38553
##MOLFORM=C4 H6 N2 O S
##MW=130
##$NIST SOURCE=MSDC
##XUNITS=M/Z
##YUNITS=RELATIVE INTENSITY
##XFACTOR=1
##YFACTOR=1
##FIRSTX=41
##LASTX=132
##FIRSTY=1370
##MAXX=132
##MINX=41
##MAXY=9999
##MINY=380
##NPOINTS=20
##PEAK TABLE=(XY..XY)
41,1370 42,2710 43,430 44,1660
45,510 56,510 57,770 58,450
59,1780 60,2740 61,710 69,510
74,570 86,1520 89,380 102,2110
104,380 130,9999 131,770 132,700
##END=
