##TITLE=5-Methyl-7-amino-s-triazolo(1,5-a)pyrimidine
##JCAMP-DX=4.24
##DATA TYPE=MASS SPECTRUM
##ORIGIN=V.A.Korolev, Moscow, Russia
##OWNER=NIST Mass Spectrometry Data Center
Collection (C) 2014 copyright by the U.S. Secretary of Commerce
on behalf of the United States of America. All rights reserved.
##CAS REGISTRY NO=33376-96-4
##$NIST MASS SPEC NO=388118
##MOLFORM=C6 H7 N5
##MW=149
##$NIST SOURCE=MSDC
##XUNITS=M/Z
##YUNITS=RELATIVE INTENSITY
##XFACTOR=1
##YFACTOR=1
##FIRSTX=27
##LASTX=151
##FIRSTY=723
##MAXX=151
##MINX=27
##MAXY=9999
##MINY=12
##NPOINTS=63
##PEAK TABLE=(XY..XY)
27,723 28,1292 34,30 37,504
38,1481 39,4630 40,2415 41,2699
42,2484 43,938 44,254 46,12
50,122 51,595 52,1536 53,2043
54,1681 55,556 56,115 57,519
62,17 63,114 64,415 65,848
66,3167 67,1191 68,1297 69,696
70,48 75,150 76,34 77,297
78,143 79,360 80,233 81,1726
82,428 83,448 84,2565 85,105
91,47 92,161 93,726 94,99
95,1429 96,120 106,27 107,230
108,1996 109,3632 110,268 120,34
121,439 122,4043 123,460 132,40
134,1471 135,81 146,13 148,198
149,9999 150,1474 151,39
##END=
