##TITLE=Asulam
##JCAMP-DX=4.24
##DATA TYPE=MASS SPECTRUM
##ORIGIN=J. SHAW, BORRISTON RESEARCH, ROCKVILLE, MD, USA
##OWNER=NIST Mass Spectrometry Data Center
Collection (C) 2014 copyright by the U.S. Secretary of Commerce
on behalf of the United States of America. All rights reserved.
##CAS REGISTRY NO=3337-71-1
##$NIST MASS SPEC NO=60146
##MOLFORM=C8 H10 N2 O4 S
##MW=230
##$NIST SOURCE=MSDC
##XUNITS=M/Z
##YUNITS=RELATIVE INTENSITY
##XFACTOR=1
##YFACTOR=1
##FIRSTX=12
##LASTX=239
##FIRSTY=40
##MAXX=239
##MINX=12
##MAXY=9999
##MINY=10
##NPOINTS=132
##PEAK TABLE=(XY..XY)
12,40 13,60 14,220 15,2482
16,170 17,540 18,1871 19,20
26,80 27,330 28,1121 29,1681
30,360 31,2112 32,1471 33,50
34,10 36,30 37,130 38,550
39,2482 40,280 41,990 42,390
43,670 44,330 45,180 46,160
47,20 48,190 49,30 50,240
51,310 52,830 53,590 54,300
55,140 56,50 57,170 58,280
59,310 60,70 61,120 62,350
63,1031 64,1111 65,7137 66,820
67,130 68,50 69,160 70,70
71,80 72,10 73,50 74,110
75,100 76,90 77,60 78,130
79,230 80,720 81,120 82,40
83,60 84,40 85,260 86,20
87,30 88,20 90,410 92,9999
93,700 94,50 95,60 96,60
97,60 98,20 99,20 101,10
105,130 106,130 108,5985 109,4814
110,340 111,40 112,40 113,10
115,10 117,30 118,10 119,10
120,10 121,20 122,30 123,130
124,60 125,30 126,10 127,60
128,10 129,30 132,10 134,410
135,40 140,360 141,30 142,10
148,10 149,40 150,10 154,20
156,5925 157,410 158,280 159,20
161,10 166,1041 167,80 168,10
173,310 174,20 175,20 187,40
198,1711 199,140 200,80 223,40
230,1831 231,170 232,90 239,10
##END=
