##TITLE=Dodecane, 1-fluoro-
##JCAMP-DX=4.24
##DATA TYPE=MASS SPECTRUM
##ORIGIN=J.E. WILKINSON S-CUBED, SAN DIEGO, CA.
##OWNER=NIST Mass Spectrometry Data Center
Collection (C) 2014 copyright by the U.S. Secretary of Commerce
on behalf of the United States of America. All rights reserved.
##CAS REGISTRY NO=334-68-9
##$NIST MASS SPEC NO=90131
##MOLFORM=C12 H25 F
##MW=188
##$NIST SOURCE=MSDC
##XUNITS=M/Z
##YUNITS=RELATIVE INTENSITY
##XFACTOR=1
##YFACTOR=1
##FIRSTX=45
##LASTX=188
##FIRSTY=20
##MAXX=188
##MINX=45
##MAXY=9999
##MINY=1
##NPOINTS=78
##PEAK TABLE=(XY..XY)
45,20 46,21 47,782 48,8
50,4 51,49 52,5 53,417
54,425 55,5389 56,2612 57,9999
58,436 59,256 61,1018 62,23
63,1 65,39 67,349 68,310
69,3125 70,1842 71,3826 72,196
73,76 74,131 75,440 76,10
77,16 79,20 80,1 81,130
82,346 83,1419 84,1046 85,1544
86,91 87,22 88,191 89,610
90,24 95,22 96,151 97,1039
98,531 99,103 100,3 101,11
102,108 103,295 104,10 109,1
110,49 111,369 112,234 113,45
114,2 115,2 116,74 117,109
118,2 124,10 125,127 126,104
127,14 130,55 131,64 132,1
138,1 139,13 140,84 141,3
144,19 145,28 158,7 159,12
168,4 188,20
##END=
