##TITLE=Decane, 1-fluoro-
##JCAMP-DX=4.24
##DATA TYPE=MASS SPECTRUM
##ORIGIN=NIST Mass Spectrometry Data Center, 1998.
##OWNER=NIST Mass Spectrometry Data Center
Collection (C) 2014 copyright by the U.S. Secretary of Commerce
on behalf of the United States of America. All rights reserved.
##CAS REGISTRY NO=334-56-5
##$NIST MASS SPEC NO=291769
##MOLFORM=C10 H21 F
##MW=160
##$NIST SOURCE=MSDC
##XUNITS=M/Z
##YUNITS=RELATIVE INTENSITY
##XFACTOR=1
##YFACTOR=1
##FIRSTX=15
##LASTX=160
##FIRSTY=40
##MAXX=160
##MINX=15
##MAXY=9999
##MINY=10
##NPOINTS=82
##PEAK TABLE=(XY..XY)
15,40 26,100 27,1830 28,450
29,2910 30,70 31,10 33,280
37,10 39,1860 40,360 41,7339
42,2170 43,9999 44,340 45,60
46,100 47,900 48,20 50,40
51,140 52,60 53,580 54,450
55,6399 56,3350 57,7369 58,330
59,480 60,100 61,1180 62,40
63,20 65,80 66,50 67,460
68,360 69,3550 70,2670 71,2020
72,120 73,130 74,200 75,580
76,30 77,50 78,10 79,50
80,10 81,170 82,430 83,1580
84,1560 85,1690 86,110 87,40
88,260 89,560 90,30 91,10
95,30 96,230 97,1970 98,980
99,100 100,10 101,10 102,160
103,100 104,10 110,80 111,960
112,560 113,50 116,90 117,70
125,20 130,50 131,70 132,10
140,30 160,40
##END=
