##TITLE=Cyclopropane, 1,1-dimethyl-2-(2-methyl-1-propenyl)-
##JCAMP-DX=4.24
##DATA TYPE=MASS SPECTRUM
##ORIGIN=D.HENNEBERG, MAX-PLANCK INSTITUTE, MULHEIM, WEST GERMANY
##OWNER=NIST Mass Spectrometry Data Center
Collection (C) 2014 copyright by the U.S. Secretary of Commerce
on behalf of the United States of America. All rights reserved.
##CAS REGISTRY NO=33422-32-1
##$NIST MASS SPEC NO=61718
##MOLFORM=C9 H16
##MW=124
##$NIST SOURCE=MSDC
##XUNITS=M/Z
##YUNITS=RELATIVE INTENSITY
##XFACTOR=1
##YFACTOR=1
##FIRSTX=27
##LASTX=126
##FIRSTY=552
##MAXX=126
##MINX=27
##MAXY=9999
##MINY=3
##NPOINTS=77
##PEAK TABLE=(XY..XY)
27,552 28,107 29,563 30,14
31,66 37,3 38,10 39,760
40,238 41,3348 42,241 43,2558
44,73 45,7 49,3 50,23
51,88 52,65 53,983 54,150
55,2336 56,361 57,102 58,7
59,104 60,5 61,3 63,15
64,6 65,412 66,138 67,8677
68,1374 69,1854 70,114 71,28
73,8 75,4 77,558 78,93
79,1107 80,177 81,2824 82,452
83,100 84,381 85,48 87,5
89,6 91,524 92,63 93,388
94,362 95,813 96,111 97,30
98,7 99,6 103,14 104,3
105,95 106,14 107,446 108,91
109,9999 110,863 111,47 112,5
113,5 115,3 119,3 121,11
122,22 123,65 124,5079 125,515
126,26
##END=
