##TITLE=Benzoic acid, 2-(2,4,6-trichlorophenyl)hydrazide
##JCAMP-DX=4.24
##DATA TYPE=MASS SPECTRUM
##ORIGIN=J. SHAW, BORRISTON RESEARCH, ROCKVILLE, MD, USA
##OWNER=NIST Mass Spectrometry Data Center
Collection (C) 2014 copyright by the U.S. Secretary of Commerce
on behalf of the United States of America. All rights reserved.
##CAS REGISTRY NO=33422-33-2
##$NIST MASS SPEC NO=60311
##MOLFORM=C13 H9 Cl3 N2 O
##MW=314
##$NIST SOURCE=MSDC
##XUNITS=M/Z
##YUNITS=RELATIVE INTENSITY
##XFACTOR=1
##YFACTOR=1
##FIRSTX=12
##LASTX=321
##FIRSTY=20
##MAXX=321
##MINX=12
##MAXY=9999
##MINY=10
##NPOINTS=172
##PEAK TABLE=(XY..XY)
12,20 14,10 15,20 16,20
17,40 18,110 19,10 27,930
29,2602 30,130 31,20 35,110
36,240 37,380 38,440 39,1081
40,60 41,30 42,20 43,50
44,150 45,20 47,100 50,2732
51,5185 52,780 53,130 54,20
55,10 60,70 61,380 62,600
63,350 64,210 65,190 66,30
67,10 71,50 72,180 73,440
74,1411 75,960 77,8058 78,840
79,60 80,10 83,130 84,240
85,210 86,130 87,160 88,290
89,60 90,30 91,30 92,30
94,50 95,30 96,100 97,400
98,130 99,140 100,30 101,60
105,9999 106,2132 109,1121 110,250
111,300 112,120 113,20 114,20
115,10 118,10 119,30 120,20
121,20 122,40 123,30 124,80
125,20 126,20 131,60 132,30
133,60 134,20 135,20 137,40
139,40 140,10 141,10 143,120
145,490 146,190 147,210 148,100
149,40 150,40 151,10 152,20
153,10 154,10 155,10 158,100
159,70 160,70 161,40 162,20
163,10 164,10 167,200 169,190
171,70 173,30 175,40 176,30
177,20 178,30 179,50 181,130
182,20 183,10 186,10 194,540
196,590 197,100 198,170 199,30
200,20 201,10 207,10 209,150
211,140 213,50 214,10 215,10
216,10 235,50 236,10 237,20
243,10 244,10 245,10 246,10
249,10 250,10 251,10 252,10
263,80 265,60 266,10 270,40
272,50 274,20 279,290 281,200
282,30 283,20 297,20 298,30
299,20 300,20 301,10 302,10
314,2462 315,1051 316,2202 317,830
318,700 319,270 320,100 321,30
##END=
