##TITLE=Benz[j]aceanthrylen-1-ol, 1,2-dihydro-3-methyl-
##JCAMP-DX=4.24
##DATA TYPE=MASS SPECTRUM
##ORIGIN=G.TAKAHASHI CHEST DISEASE RES. INST., KYOTO UNIV., JAPAN
##OWNER=NIST Mass Spectrometry Data Center
Collection (C) 2014 copyright by the U.S. Secretary of Commerce
on behalf of the United States of America. All rights reserved.
##CAS REGISTRY NO=3342-98-1
##$NIST MASS SPEC NO=37320
##MOLFORM=C21 H16 O
##MW=284
##$NIST SOURCE=MSDC
##XUNITS=M/Z
##YUNITS=RELATIVE INTENSITY
##XFACTOR=1
##YFACTOR=1
##FIRSTX=41
##LASTX=285
##FIRSTY=270
##MAXX=285
##MINX=41
##MAXY=9999
##MINY=140
##NPOINTS=59
##PEAK TABLE=(XY..XY)
41,270 43,320 44,340 57,260
73,270 112,290 113,660 114,270
118,270 119,480 120,520 125,560
126,850 127,210 128,550 131,510
132,780 133,1370 134,340 141,630
142,410 149,230 211,160 213,220
215,180 224,230 225,150 226,470
227,140 228,270 237,520 238,230
239,1370 240,480 241,750 242,140
248,210 249,140 250,750 251,290
252,2600 253,1030 254,260 255,1480
256,750 257,140 261,520 262,290
263,2140 264,750 265,4700 266,9999
267,6060 268,1520 269,740 282,330
283,1030 284,6670 285,1360
##END=
