##TITLE=Benz[j]aceanthrylene, 3-methyl-
##JCAMP-DX=4.24
##DATA TYPE=MASS SPECTRUM
##OWNER=NIST Mass Spectrometry Data Center
Collection (C) 2014 copyright by the U.S. Secretary of Commerce
on behalf of the United States of America. All rights reserved.
##CAS REGISTRY NO=3343-10-0
##$NIST MASS SPEC NO=12881
##MOLFORM=C21 H14
##MW=266
##$NIST SOURCE=MSDC
##XUNITS=M/Z
##YUNITS=RELATIVE INTENSITY
##XFACTOR=1
##YFACTOR=1
##FIRSTX=39
##LASTX=270
##FIRSTY=470
##MAXX=270
##MINX=39
##MAXY=9999
##MINY=10
##NPOINTS=224
##PEAK TABLE=(XY..XY)
39,470 40,90 41,270 42,90
43,190 44,40 45,50 46,20
47,10 48,20 49,10 50,200
51,230 52,60 53,60 54,30
55,120 56,110 57,230 58,20
59,20 60,20 61,30 62,120
63,250 64,40 65,50 66,20
67,50 68,30 69,50 70,40
71,50 72,10 73,20 74,150
75,140 76,70 77,80 78,60
79,70 80,30 81,40 82,30
83,40 84,30 85,40 86,130
87,220 88,110 89,80 90,20
91,70 92,40 93,50 94,60
95,50 96,30 97,30 98,120
99,120 100,120 101,80 102,40
103,30 104,20 105,90 106,140
107,100 108,40 109,40 110,80
111,120 112,200 113,240 114,40
115,60 116,20 117,80 118,280
119,320 120,230 121,40 122,70
123,70 124,160 125,400 126,581
127,90 128,40 129,60 130,180
131,530 132,731 133,1702 134,390
135,50 136,20 137,40 138,30
139,50 140,30 141,40 142,20
143,20 144,20 145,20 146,30
147,20 148,10 149,20 150,70
151,40 152,40 153,20 154,10
155,20 156,20 157,20 158,20
159,20 160,10 161,40 162,40
163,80 164,30 165,60 166,20
167,20 168,20 169,30 170,30
171,20 172,20 173,20 174,60
175,40 176,50 177,20 178,40
179,30 180,20 181,20 182,20
183,20 184,20 185,40 186,50
187,110 188,50 189,90 190,30
191,40 192,40 193,30 194,20
195,20 196,20 197,20 198,90
199,100 200,160 201,80 202,170
203,30 204,40 205,50 206,70
207,50 208,40 209,30 210,50
211,130 212,60 213,120 214,40
215,60 216,20 217,20 218,20
219,30 220,60 221,40 222,90
223,70 224,150 225,70 226,130
227,40 228,30 229,20 230,20
231,20 232,20 233,40 234,50
235,130 236,130 237,330 238,140
239,350 240,110 241,60 242,40
243,30 244,30 245,30 246,40
247,50 248,170 249,110 250,410
251,160 260,110 261,510 262,330
263,1822 264,861 265,3924 266,9999
267,2772 268,2823 269,631 270,110
##END=
