##TITLE=12-Bromo-1-dodecanol
##JCAMP-DX=4.24
##DATA TYPE=MASS SPECTRUM
##ORIGIN=Japan AIST/NIMC Database- Spectrum MS-NW-9923
##OWNER=NIST Mass Spectrometry Data Center
Collection (C) 2014 copyright by the U.S. Secretary of Commerce
on behalf of the United States of America. All rights reserved.
##CAS REGISTRY NO=3344-77-2
##$NIST MASS SPEC NO=239049
##MOLFORM=C12 H25 Br O
##MW=264
##$NIST SOURCE=MSDC
##XUNITS=M/Z
##YUNITS=RELATIVE INTENSITY
##XFACTOR=1
##YFACTOR=1
##FIRSTX=14
##LASTX=249
##FIRSTY=10
##MAXX=249
##MINX=14
##MAXY=9999
##MINY=10
##NPOINTS=147
##PEAK TABLE=(XY..XY)
14,10 15,10 16,20 17,20
18,70 26,20 27,709 28,109
29,1429 30,40 31,899 34,10
36,10 38,20 39,689 40,149
41,5469 42,1499 43,3519 44,219
45,169 50,20 51,50 52,20
53,369 54,899 55,9799 56,2939
57,2769 58,139 59,40 60,10
61,10 63,20 64,10 65,119
66,109 67,1889 68,3289 69,9999
70,2389 71,779 72,50 73,239
74,10 75,10 76,10 77,70
78,20 79,149 80,119 81,1489
82,2639 83,8579 84,1299 85,399
86,30 87,30 89,10 90,10
91,50 92,40 93,50 94,30
95,829 96,849 97,7409 98,779
99,70 103,30 104,20 105,30
106,10 107,239 108,20 109,619
110,269 111,1449 112,239 113,20
115,10 117,10 118,10 119,20
120,70 121,159 122,50 123,449
124,119 125,469 126,50 128,20
129,10 131,60 132,20 133,30
134,359 135,1239 136,409 137,1199
138,149 139,139 140,30 141,10
145,10 146,30 147,40 148,3369
149,439 150,3169 151,369 152,10
153,10 154,30 161,99 162,1729
163,409 164,1699 165,159 166,20
167,10 168,10 174,20 175,90
176,429 177,129 178,399 179,50
187,10 188,20 189,60 190,159
191,80 192,129 193,20 203,30
204,50 205,109 206,40 207,10
217,10 218,249 219,40 220,259
221,30 247,10 249,10
##END=
