##TITLE=3-Hexen-1-ol, propanoate, (Z)-
##JCAMP-DX=4.24
##DATA TYPE=MASS SPECTRUM
##ORIGIN=Japan AIST/NIMC Database- Spectrum MS-NW-4018
##OWNER=NIST Mass Spectrometry Data Center
Collection (C) 2014 copyright by the U.S. Secretary of Commerce
on behalf of the United States of America. All rights reserved.
##CAS REGISTRY NO=33467-74-2
##$NIST MASS SPEC NO=232131
##MOLFORM=C9 H16 O2
##MW=156
##$NIST SOURCE=MSDC
##XUNITS=M/Z
##YUNITS=RELATIVE INTENSITY
##XFACTOR=1
##YFACTOR=1
##FIRSTX=15
##LASTX=111
##FIRSTY=60
##MAXX=111
##MINX=15
##MAXY=9999
##MINY=10
##NPOINTS=58
##PEAK TABLE=(XY..XY)
15,60 17,20 18,70 26,119
27,1119 28,269 29,3989 30,99
31,199 32,40 37,10 38,40
39,769 40,139 41,1569 42,219
43,189 44,20 45,20 50,50
51,90 52,50 53,339 54,709
55,1039 56,139 57,9999 58,349
59,30 63,20 65,90 66,90
67,7439 68,469 69,179 70,20
71,20 73,20 74,20 75,139
77,40 78,10 79,99 80,40
81,589 82,6429 83,569 84,40
85,10 87,149 88,10 91,10
96,20 97,20 98,10 99,10
101,10 111,10
##END=
