##TITLE=Phosphorodiamidous chloride, tetramethyl-
##JCAMP-DX=4.24
##DATA TYPE=MASS SPECTRUM
##ORIGIN=A.Pleshkova, Nesmeyanov Inst.Org.Elem.Cpds, Moscow
##OWNER=NIST Mass Spectrometry Data Center
Collection (C) 2014 copyright by the U.S. Secretary of Commerce
on behalf of the United States of America. All rights reserved.
##CAS REGISTRY NO=3348-44-5
##$NIST MASS SPEC NO=284304
##MOLFORM=C4 H12 Cl N2 P
##MW=154
##$NIST SOURCE=MSDC
##XUNITS=M/Z
##YUNITS=RELATIVE INTENSITY
##XFACTOR=1
##YFACTOR=1
##FIRSTX=15
##LASTX=157
##FIRSTY=5425
##MAXX=157
##MINX=15
##MAXY=9999
##MINY=20
##NPOINTS=44
##PEAK TABLE=(XY..XY)
15,5425 16,70 18,661 27,350
28,2582 29,20 30,1261 31,350
32,540 33,661 36,280 40,350
41,601 42,5985 43,941 44,5215
45,821 46,470 47,631 58,230
59,781 60,4734 61,180 67,410
69,220 74,260 75,1351 76,5885
77,260 81,310 83,100 94,611
96,210 109,540 110,9999 111,540
112,3253 113,170 119,4554 120,260
154,3563 155,190 156,1161 157,60
##END=
