##TITLE=Benzaldehyde, 4-methyl-, O-methyloxime
##JCAMP-DX=4.24
##DATA TYPE=MASS SPECTRUM
##OWNER=NIST Mass Spectrometry Data Center
Collection (C) 2014 copyright by the U.S. Secretary of Commerce
on behalf of the United States of America. All rights reserved.
##CAS REGISTRY NO=33499-39-7
##$NIST MASS SPEC NO=4596
##MOLFORM=C9 H11 N O
##MW=149
##$NIST SOURCE=MSDC
##XUNITS=M/Z
##YUNITS=RELATIVE INTENSITY
##XFACTOR=1
##YFACTOR=1
##FIRSTX=39
##LASTX=150
##FIRSTY=1702
##MAXX=150
##MINX=39
##MAXY=9999
##MINY=100
##NPOINTS=28
##PEAK TABLE=(XY..XY)
39,1702 50,801 51,1201 63,1702
64,100 65,3103 66,200 77,1702
78,1001 79,1301 89,1902 90,1702
91,9999 92,2402 103,801 107,701
116,1601 117,2002 118,2903 119,801
120,300 122,1401 123,150 133,150
134,100 148,200 149,7807 150,801
##END=
