##TITLE=Perfluoroheptyl iodide
##JCAMP-DX=4.24
##DATA TYPE=MASS SPECTRUM
##ORIGIN=NIST Mass Spectrometry Data Center, 1990.
##OWNER=NIST Mass Spectrometry Data Center
Collection (C) 2014 copyright by the U.S. Secretary of Commerce
on behalf of the United States of America. All rights reserved.
##CAS REGISTRY NO=335-58-0
##$NIST MASS SPEC NO=118317
##MOLFORM=C7 F15 I
##MW=496
##$NIST SOURCE=MSDC
##XUNITS=M/Z
##YUNITS=RELATIVE INTENSITY
##XFACTOR=1
##YFACTOR=1
##FIRSTX=14
##LASTX=497
##FIRSTY=23
##MAXX=497
##MINX=14
##MAXY=9999
##MINY=23
##NPOINTS=50
##PEAK TABLE=(XY..XY)
14,23 28,247 31,831 32,116
50,152 51,53 59,37 69,9999
70,128 74,122 81,109 93,599
100,2279 101,105 112,217 119,4843
120,96 124,68 127,2990 131,3979
132,122 143,102 150,84 158,120
162,102 169,3446 170,121 175,64
177,3264 178,37 181,1063 182,35
208,330 219,659 227,842 231,518
232,33 239,402 243,47 277,79
281,1394 282,104 289,49 331,739
332,55 369,8105 370,607 477,212
496,1963 497,144
##END=
