##TITLE=1H,1H,7H-Dodecafluoro-1-heptanol
##JCAMP-DX=4.24
##DATA TYPE=MASS SPECTRUM
##ORIGIN=NIST Mass Spectrometry Data Center, 1994
##OWNER=NIST Mass Spectrometry Data Center
Collection (C) 2014 copyright by the U.S. Secretary of Commerce
on behalf of the United States of America. All rights reserved.
##CAS REGISTRY NO=335-99-9
##$NIST MASS SPEC NO=133416
##MOLFORM=C7 H4 F12 O
##MW=332
##$NIST SOURCE=MSDC
##XUNITS=M/Z
##YUNITS=RELATIVE INTENSITY
##XFACTOR=1
##YFACTOR=1
##FIRSTX=4
##LASTX=313
##FIRSTY=4
##MAXX=313
##MINX=4
##MAXY=9999
##MINY=4
##NPOINTS=82
##PEAK TABLE=(XY..XY)
4,4 14,10 28,74 29,955
31,9999 32,186 33,324 42,58
43,17 44,26 45,44 47,25
49,893 51,2174 52,28 61,624
62,130 63,68 64,86 65,15
67,38 69,1094 70,14 71,19
74,35 75,124 79,52 80,115
81,325 82,203 83,66 91,58
93,185 94,33 95,121 97,37
100,540 101,362 109,27 111,145
112,78 113,467 114,25 117,16
119,126 124,15 125,28 129,24
131,1419 132,52 133,25 141,22
143,26 144,30 145,41 151,46
157,20 161,46 162,37 163,141
169,25 173,24 175,105 181,72
193,18 195,37 201,13 211,39
213,23 223,92 229,12 231,17
243,34 245,226 246,20 249,13
263,26 282,188 283,15 293,14
312,12 313,44
##END=
