##TITLE=1,5-Heptadiene, 2,3,6-trimethyl-
##JCAMP-DX=4.24
##DATA TYPE=MASS SPECTRUM
##ORIGIN=D.HENNEBERG, MAX-PLANCK INSTITUTE, MULHEIM, WEST GERMANY
##OWNER=NIST Mass Spectrometry Data Center
Collection (C) 2014 copyright by the U.S. Secretary of Commerce
on behalf of the United States of America. All rights reserved.
##CAS REGISTRY NO=33501-88-1
##$NIST MASS SPEC NO=61371
##MOLFORM=C10 H18
##MW=138
##$NIST SOURCE=MSDC
##XUNITS=M/Z
##YUNITS=RELATIVE INTENSITY
##XFACTOR=1
##YFACTOR=1
##FIRSTX=24
##LASTX=139
##FIRSTY=4
##MAXX=139
##MINX=24
##MAXY=9999
##MINY=3
##NPOINTS=65
##PEAK TABLE=(XY..XY)
24,4 25,19 26,52 27,954
28,473 29,672 30,18 31,138
32,73 33,4 36,4 38,57
39,1199 40,264 41,8925 42,596
43,452 44,14 45,44 49,3
50,48 51,154 52,69 53,669
54,141 55,983 56,107 57,79
59,48 62,9 63,40 64,9
65,148 66,84 67,995 68,558
69,9999 70,1436 71,125 72,6
74,26 75,3 77,132 78,24
79,122 80,27 81,295 82,363
83,60 91,88 92,11 93,55
94,291 95,2653 96,280 97,15
105,20 107,22 109,58 110,19
121,5 123,304 124,26 138,122
139,7
##END=
