##TITLE=Chrysene, 4-methyl-
##JCAMP-DX=4.24
##DATA TYPE=MASS SPECTRUM
##ORIGIN=NIST Mass Spectrometry Data Center, 1990.
##OWNER=NIST Mass Spectrometry Data Center
Collection (C) 2014 copyright by the U.S. Secretary of Commerce
on behalf of the United States of America. All rights reserved.
##CAS REGISTRY NO=3351-30-2
##$NIST MASS SPEC NO=113414
##MOLFORM=C19 H14
##MW=242
##$NIST SOURCE=MSDC
##XUNITS=M/Z
##YUNITS=RELATIVE INTENSITY
##XFACTOR=1
##YFACTOR=1
##FIRSTX=27
##LASTX=244
##FIRSTY=91
##MAXX=244
##MINX=27
##MAXY=9999
##MINY=53
##NPOINTS=64
##PEAK TABLE=(XY..XY)
27,91 28,309 32,112 39,92
51,95 62,69 63,158 74,129
75,125 80,53 82,67 86,94
87,163 88,70 94,314 95,420
98,93 99,108 100,153 101,91
107,729 108,430 111,96 112,202
113,436 120,1934 121,614 150,123
151,76 163,122 164,81 165,202
174,85 176,80 186,76 187,234
188,105 189,213 198,68 199,68
200,190 201,106 202,199 211,193
212,96 213,397 214,130 215,806
216,173 224,253 225,218 226,1252
227,543 228,83 235,117 236,124
237,790 238,494 239,4201 240,1711
241,5676 242,9999 243,1882 244,181
##END=
