##TITLE=Cyclopentyl isothiocyanate
##JCAMP-DX=4.24
##DATA TYPE=MASS SPECTRUM
##ORIGIN=NIST Mass Spectrometry Data Center, 1994
##OWNER=NIST Mass Spectrometry Data Center
Collection (C) 2014 copyright by the U.S. Secretary of Commerce
on behalf of the United States of America. All rights reserved.
##CAS REGISTRY NO=33522-03-1
##$NIST MASS SPEC NO=134722
##MOLFORM=C6 H9 N S
##MW=127
##$NIST SOURCE=MSDC
##XUNITS=M/Z
##YUNITS=RELATIVE INTENSITY
##XFACTOR=1
##YFACTOR=1
##FIRSTX=14
##LASTX=130
##FIRSTY=39
##MAXX=130
##MINX=14
##MAXY=9999
##MINY=22
##NPOINTS=63
##PEAK TABLE=(XY..XY)
14,39 15,195 25,32 26,394
27,1844 28,649 29,244 32,265
33,34 37,182 38,480 39,3801
40,820 41,9999 42,587 43,110
44,259 45,326 46,51 49,30
50,129 51,244 52,159 53,620
54,179 55,94 56,34 57,147
58,1038 59,667 60,266 61,75
62,91 63,80 64,56 65,324
66,30 67,3179 68,5066 69,7108
70,615 71,334 72,820 73,53
74,44 78,34 80,35 82,30
83,49 84,136 85,524 86,89
87,31 94,89 96,24 98,500
99,180 100,44 112,49 127,5177
128,402 129,263 130,22
##END=
