##TITLE=Pyrrolidine, 1-(1-oxobutyl)-
##JCAMP-DX=4.24
##DATA TYPE=MASS SPECTRUM
##OWNER=NIST Mass Spectrometry Data Center
Collection (C) 2014 copyright by the U.S. Secretary of Commerce
on behalf of the United States of America. All rights reserved.
##CAS REGISTRY NO=33527-93-4
##$NIST MASS SPEC NO=3795
##MOLFORM=C8 H15 N O
##MW=141
##$NIST SOURCE=MSDC
##XUNITS=M/Z
##YUNITS=RELATIVE INTENSITY
##XFACTOR=1
##YFACTOR=1
##FIRSTX=26
##LASTX=142
##FIRSTY=500
##MAXX=142
##MINX=26
##MAXY=9999
##MINY=100
##NPOINTS=44
##PEAK TABLE=(XY..XY)
26,500 27,2602 28,2106 29,1301
30,701 38,100 39,1501 40,400
41,4204 42,1802 43,9999 44,601
53,200 54,100 55,4404 56,2002
57,2602 58,100 67,200 68,1201
69,1802 70,7807 71,4804 72,801
81,100 83,200 84,300 85,1501
86,300 95,100 96,100 97,200
98,2502 99,400 111,200 112,1301
113,5505 114,300 126,1201 127,300
139,100 140,200 141,2803 142,200
##END=
