##TITLE=Phenol, 2-methyl-6-(2-propenyl)-
##JCAMP-DX=4.24
##DATA TYPE=MASS SPECTRUM
##ORIGIN=Japan AIST/NIMC Database- Spectrum MS-NW-5749
##OWNER=NIST Mass Spectrometry Data Center
Collection (C) 2014 copyright by the U.S. Secretary of Commerce
on behalf of the United States of America. All rights reserved.
##CAS REGISTRY NO=3354-58-3
##$NIST MASS SPEC NO=234680
##MOLFORM=C10 H12 O
##MW=148
##$NIST SOURCE=MSDC
##XUNITS=M/Z
##YUNITS=RELATIVE INTENSITY
##XFACTOR=1
##YFACTOR=1
##FIRSTX=13
##LASTX=150
##FIRSTY=10
##MAXX=150
##MINX=13
##MAXY=9999
##MINY=10
##NPOINTS=102
##PEAK TABLE=(XY..XY)
13,10 15,40 26,70 27,569
28,20 29,50 37,40 38,129
39,1039 40,129 41,559 42,20
43,279 44,20 45,50 46,20
49,20 50,319 51,869 52,319
53,459 54,50 55,339 56,10
57,99 58,90 59,30 60,40
61,50 62,159 63,459 64,319
65,679 66,159 67,60 68,10
69,70 70,10 71,10 72,149
73,249 74,99 75,109 76,99
77,1669 78,659 79,569 80,90
81,30 82,50 83,10 85,10
86,40 87,40 88,20 89,199
90,90 91,1929 92,489 93,209
94,50 95,10 98,20 99,10
101,40 102,159 103,629 104,329
105,3229 106,339 107,499 108,139
109,10 113,20 114,40 115,1589
116,279 117,249 118,60 119,649
120,429 121,1319 122,119 123,10
126,30 127,219 128,469 129,799
130,169 131,909 132,609 133,6239
134,669 135,60 136,10 144,10
145,379 146,189 147,1589 148,9999
149,1139 150,90
##END=
