##TITLE=3H-1,2-Dithiole-3-thione, 4-methyl-
##JCAMP-DX=4.24
##DATA TYPE=MASS SPECTRUM
##ORIGIN=J.MOLLER PHYS. LAB., UNIV. COPENHAGEN, COPENHAGEN, DENMARK
##OWNER=NIST Mass Spectrometry Data Center
Collection (C) 2014 copyright by the U.S. Secretary of Commerce
on behalf of the United States of America. All rights reserved.
##CAS REGISTRY NO=3354-41-4
##$NIST MASS SPEC NO=58190
##MOLFORM=C4 H4 S3
##MW=148
##$NIST SOURCE=MSDC
##XUNITS=M/Z
##YUNITS=RELATIVE INTENSITY
##XFACTOR=1
##YFACTOR=1
##FIRSTX=40
##LASTX=150
##FIRSTY=400
##MAXX=150
##MINX=40
##MAXY=9999
##MINY=230
##NPOINTS=27
##PEAK TABLE=(XY..XY)
40,400 43,230 44,650 45,1500
57,340 58,650 59,370 64,280
69,1300 70,340 71,1300 72,630
74,250 76,2700 77,260 78,260
83,520 84,1200 100,230 102,330
115,3500 116,300 117,350 147,580
148,9999 149,800 150,1400
##END=
