##TITLE=Trichloroacetic acid 2-methylpropyl ester
##JCAMP-DX=4.24
##DATA TYPE=MASS SPECTRUM
##ORIGIN=V.Zaikin,Topchiev Inst.Petrochem.Synth.,Moscow
##OWNER=NIST Mass Spectrometry Data Center
Collection (C) 2014 copyright by the U.S. Secretary of Commerce
on behalf of the United States of America. All rights reserved.
##CAS REGISTRY NO=33560-15-5
##$NIST MASS SPEC NO=282350
##MOLFORM=C6 H9 Cl3 O2
##MW=218
##$NIST SOURCE=MSDC
##XUNITS=M/Z
##YUNITS=RELATIVE INTENSITY
##XFACTOR=1
##YFACTOR=1
##FIRSTX=25
##LASTX=207
##FIRSTY=10
##MAXX=207
##MINX=25
##MAXY=9999
##MINY=10
##NPOINTS=107
##PEAK TABLE=(XY..XY)
25,10 26,120 27,991 28,120
29,3003 30,70 31,90 33,10
35,100 36,500 37,30 38,170
39,1051 40,190 41,5835 42,711
43,6506 44,60 45,20 47,300
48,50 49,130 50,60 51,80
52,100 53,100 54,30 55,1241
56,4014 57,9999 58,410 59,30
61,20 63,70 65,20 71,10
72,30 73,290 74,20 75,30
76,70 77,30 78,30 79,160
80,20 82,911 83,200 84,561
85,130 86,100 87,20 89,10
91,140 92,60 93,20 96,20
98,10 99,40 101,20 103,20
104,30 110,1581 111,90 112,981
113,70 114,160 115,20 117,2602
118,30 119,2432 120,30 121,741
122,20 123,80 127,230 128,20
129,150 130,20 131,30 140,40
141,110 142,110 143,80 144,50
145,100 146,120 147,120 148,110
149,60 150,40 151,10 163,20
165,20 175,30 176,601 177,130
178,571 179,110 180,180 181,30
182,20 183,110 185,70 187,10
203,20 205,20 207,10
##END=
