##TITLE=Methane, (methylsulfinyl)(methylthio)-
##JCAMP-DX=4.24
##DATA TYPE=MASS SPECTRUM
##ORIGIN=Japan AIST/NIMC Database- Spectrum MS-NW-7684
##OWNER=NIST Mass Spectrometry Data Center
Collection (C) 2014 copyright by the U.S. Secretary of Commerce
on behalf of the United States of America. All rights reserved.
##CAS REGISTRY NO=33577-16-1
##$NIST MASS SPEC NO=235986
##MOLFORM=C3 H8 O S2
##MW=124
##$NIST SOURCE=MSDC
##XUNITS=M/Z
##YUNITS=RELATIVE INTENSITY
##XFACTOR=1
##YFACTOR=1
##FIRSTX=14
##LASTX=126
##FIRSTY=40
##MAXX=126
##MINX=14
##MAXY=9999
##MINY=10
##NPOINTS=46
##PEAK TABLE=(XY..XY)
14,40 15,249 17,60 18,319
26,10 27,1559 28,109 29,129
30,30 31,40 32,50 33,50
34,70 35,2009 36,20 37,90
44,119 45,1269 46,839 47,389
48,119 49,40 50,10 57,30
58,99 59,229 60,90 61,9999
62,339 63,699 64,70 65,20
75,10 76,40 77,30 78,10
79,30 91,10 92,10 93,10
94,30 107,10 108,60 124,119
125,10 126,10
##END=
