##TITLE=Octadecanoic acid, 2,3-bis(acetyloxy)propyl ester
##JCAMP-DX=4.24
##DATA TYPE=MASS SPECTRUM
##OWNER=NIST Mass Spectrometry Data Center
Collection (C) 2014 copyright by the U.S. Secretary of Commerce
on behalf of the United States of America. All rights reserved.
##CAS REGISTRY NO=33599-07-4
##$NIST MASS SPEC NO=17629
##MOLFORM=C25 H46 O6
##MW=442
##$NIST SOURCE=MSDC
##XUNITS=M/Z
##YUNITS=RELATIVE INTENSITY
##XFACTOR=1
##YFACTOR=1
##FIRSTX=26
##LASTX=385
##FIRSTY=100
##MAXX=385
##MINX=26
##MAXY=9999
##MINY=6
##NPOINTS=197
##PEAK TABLE=(XY..XY)
26,100 27,1001 28,500 29,2702
30,100 31,200 39,801 40,200
41,5405 42,1401 43,9999 44,500
45,1702 46,100 50,100 51,100
52,100 53,400 54,601 55,5905
56,1601 57,6406 58,601 59,1201
60,300 61,300 65,200 66,100
67,1301 68,701 69,3503 70,1001
71,2903 72,601 73,2903 74,65
75,14 76,30 77,500 78,100
79,500 80,300 81,1401 82,701
83,2602 84,2302 85,1802 86,400
87,44 88,6 89,100 91,300
92,100 93,400 94,200 95,1201
96,601 97,2002 98,3103 99,1101
100,200 101,3303 102,300 103,601
104,400 105,300 106,100 107,300
108,100 109,701 110,300 111,1101
112,1201 113,400 114,400 115,601
116,1702 117,1802 118,200 119,100
120,100 121,400 122,200 123,400
124,200 125,400 126,400 127,200
128,100 129,1702 130,300 131,100
132,100 133,400 134,100 135,300
136,100 137,200 138,100 139,200
140,200 141,400 142,100 143,100
144,100 145,601 146,100 147,100
148,100 149,3103 150,300 151,200
152,100 153,200 154,200 155,300
156,100 157,200 158,1802 159,6306
160,601 161,100 163,100 164,100
165,100 166,100 167,100 168,100
169,100 170,100 171,1601 172,200
173,100 177,601 178,100 179,100
180,100 181,100 182,100 183,200
184,100 185,100 186,100 191,100
193,100 194,100 195,100 196,100
197,100 199,100 200,100 205,100
207,200 209,100 210,100 211,100
213,300 214,100 218,100 219,100
220,100 221,100 222,100 223,100
224,100 225,100 227,400 228,100
237,100 239,100 241,200 242,100
258,400 259,100 263,400 264,200
265,100 266,200 267,2102 268,400
269,200 270,100 283,100 284,100
297,200 298,100 299,100 311,100
312,100 339,200 340,300 341,200
369,100 382,200 383,2702 384,601
385,100
##END=
