##TITLE=Heptafluorobutyric anhydride
##JCAMP-DX=4.24
##DATA TYPE=MASS SPECTRUM
##ORIGIN=Japan AIST/NIMC Database- Spectrum MS-NW-3474
##OWNER=NIST Mass Spectrometry Data Center
Collection (C) 2014 copyright by the U.S. Secretary of Commerce
on behalf of the United States of America. All rights reserved.
##CAS REGISTRY NO=336-59-4
##$NIST MASS SPEC NO=231753
##MOLFORM=C8 F14 O3
##MW=410
##$NIST SOURCE=MSDC
##XUNITS=M/Z
##YUNITS=RELATIVE INTENSITY
##XFACTOR=1
##YFACTOR=1
##FIRSTX=31
##LASTX=198
##FIRSTY=559
##MAXX=198
##MINX=31
##MAXY=9999
##MINY=10
##NPOINTS=44
##PEAK TABLE=(XY..XY)
31,559 41,20 43,20 44,149
45,159 47,40 50,289 51,30
55,20 60,10 62,40 63,20
65,10 67,10 69,5509 70,80
71,20 74,20 75,70 78,70
79,10 81,99 85,10 89,20
91,20 93,50 97,10 100,979
101,30 109,189 110,10 112,10
119,779 120,20 131,109 147,10
150,149 151,10 155,10 169,9999
170,359 171,10 197,1059 198,50
##END=
