##TITLE=Butralin
##JCAMP-DX=4.24
##DATA TYPE=MASS SPECTRUM
##ORIGIN=D.G.Hayward MS, Center for Food Safety and Applied Nutrition, FDA, College Park MD.
##OWNER=NIST Mass Spectrometry Data Center
Collection (C) 2014 copyright by the U.S. Secretary of Commerce
on behalf of the United States of America. All rights reserved.
##CAS REGISTRY NO=33629-47-9
##$NIST MASS SPEC NO=378498
##MOLFORM=C14 H21 N3 O4
##MW=295
##$NIST SOURCE=MSDC
##XUNITS=M/Z
##YUNITS=RELATIVE INTENSITY
##XFACTOR=1
##YFACTOR=1
##FIRSTX=40
##LASTX=297
##FIRSTY=10
##MAXX=297
##MINX=40
##MAXY=9999
##MINY=10
##NPOINTS=223
##PEAK TABLE=(XY..XY)
40,10 41,581 42,140 43,981
45,30 50,30 51,130 52,130
53,160 54,50 55,210 56,120
57,941 58,110 59,50 60,10
62,40 63,140 64,90 65,350
66,110 67,100 68,30 69,20
70,60 71,40 72,360 73,80
74,100 75,160 76,100 77,631
78,270 79,350 80,120 81,60
82,20 83,20 84,20 85,20
86,40 87,60 88,60 89,360
90,190 91,951 92,330 93,190
94,100 95,60 96,100 97,10
98,10 99,10 100,10 101,60
102,150 103,500 104,390 105,340
106,190 107,110 108,70 109,50
110,30 111,20 113,10 114,40
115,490 116,420 117,861 118,571
119,250 120,230 121,90 122,50
123,30 124,10 125,160 127,70
128,180 129,160 130,691 131,621
132,1752 133,681 134,280 135,160
136,50 137,10 138,10 139,10
140,30 141,50 142,130 143,260
144,601 145,591 146,540 147,601
148,270 149,120 150,150 151,50
152,20 153,10 154,50 155,50
156,140 157,260 158,440 159,571
160,440 161,390 162,310 163,250
164,100 165,20 166,40 167,20
168,30 169,40 170,90 171,150
172,270 173,400 174,1041 175,621
176,310 177,100 178,1341 179,290
180,200 181,20 182,10 183,20
184,50 185,90 186,130 187,190
188,530 189,380 190,1331 191,420
192,190 193,100 194,150 195,20
196,290 197,40 198,20 199,60
200,100 201,100 202,230 203,130
204,911 205,571 206,561 207,450
208,540 209,130 210,30 211,10
212,10 213,10 214,40 215,50
216,240 217,140 218,370 219,440
220,2472 221,450 222,310 223,90
224,2742 225,300 226,40 227,10
228,10 229,10 230,60 231,50
232,300 233,120 234,831 235,120
236,1081 237,150 238,70 239,10
240,10 244,40 245,50 246,200
247,100 248,410 249,280 250,1651
251,250 252,40 259,10 260,260
261,60 262,260 263,70 264,40
266,9999 267,2182 268,290 269,20
276,10 277,1221 278,250 279,30
280,611 281,90 282,10 294,20
295,1011 296,170 297,20
##END=
