##TITLE=2-Aminophenanthrene
##JCAMP-DX=4.24
##DATA TYPE=MASS SPECTRUM
##ORIGIN=Organic Synthesis Lab, MSU, Moscow.TRC 275
##OWNER=NIST Mass Spectrometry Data Center
Collection (C) 2014 copyright by the U.S. Secretary of Commerce
on behalf of the United States of America. All rights reserved.
##CAS REGISTRY NO=3366-65-2
##$NIST MASS SPEC NO=326039
##MOLFORM=C14 H11 N
##MW=193
##$NIST SOURCE=MSDC
##XUNITS=M/Z
##YUNITS=RELATIVE INTENSITY
##XFACTOR=1
##YFACTOR=1
##FIRSTX=20
##LASTX=195
##FIRSTY=10
##MAXX=195
##MINX=20
##MAXY=9999
##MINY=10
##NPOINTS=112
##PEAK TABLE=(XY..XY)
20,10 26,20 27,80 29,60
31,10 37,10 38,40 39,170
40,20 41,100 42,30 43,160
44,30 45,30 50,120 51,140
52,50 53,10 54,10 55,100
56,40 57,110 58,10 60,20
61,40 62,140 63,270 64,60
65,40 66,10 67,30 68,30
69,180 70,80 71,40 73,40
74,140 75,140 76,60 77,50
78,10 79,10 81,150 82,380
83,160 84,80 85,50 86,100
87,150 88,110 89,90 90,10
91,20 95,40 96,150 97,270
98,90 99,60 100,20 101,20
102,20 105,10 109,20 110,40
111,50 112,20 113,90 114,30
115,140 116,20 122,20 123,20
125,20 126,60 127,30 128,20
129,10 135,10 136,10 137,60
138,60 139,340 140,80 141,50
149,20 150,110 151,120 152,130
153,50 154,20 161,20 162,70
163,651 164,430 165,3273 166,611
167,110 168,10 174,50 175,60
176,260 177,110 178,80 179,10
188,30 189,30 190,330 191,500
192,591 193,9999 194,2222 195,150
##END=
