##TITLE=Hydrazine, 1-methyl-1-(1-methylethyl)-
##JCAMP-DX=4.24
##DATA TYPE=MASS SPECTRUM
##ORIGIN=ATLAS OF MASS SPECTRA OF ORGANIC COMPOUNDS, V. A. KOPTYUG, ED.
##OWNER=NIST Mass Spectrometry Data Center
Collection (C) 2014 copyright by the U.S. Secretary of Commerce
on behalf of the United States of America. All rights reserved.
##CAS REGISTRY NO=33668-54-1
##$NIST MASS SPEC NO=64425
##MOLFORM=C4 H12 N2
##MW=88
##$NIST SOURCE=MSDC
##XUNITS=M/Z
##YUNITS=RELATIVE INTENSITY
##XFACTOR=1
##YFACTOR=1
##FIRSTX=26
##LASTX=89
##FIRSTY=150
##MAXX=89
##MINX=26
##MAXY=9999
##MINY=90
##NPOINTS=29
##PEAK TABLE=(XY..XY)
26,150 27,1230 28,2600 29,1150
30,1190 31,1150 38,100 39,780
40,180 41,1370 42,1510 43,1610
44,1510 45,4110 46,1640 54,180
55,190 56,3840 57,550 58,320
59,210 70,270 71,90 72,160
73,9999 74,510 87,140 88,4790
89,470
##END=
