##TITLE=Butanamide,N-(2-chlorophenyl)-
##JCAMP-DX=4.24
##DATA TYPE=MASS SPECTRUM
##ORIGIN=M. ODA, MIN. AGRIC. CHEM. INSP. STN., TOKYO, JAPAN
##OWNER=NIST Mass Spectrometry Data Center
Collection (C) 2014 copyright by the U.S. Secretary of Commerce
on behalf of the United States of America. All rights reserved.
##CAS REGISTRY NO=33694-15-4
##$NIST MASS SPEC NO=98033
##MOLFORM=C10 H12 Cl N O
##MW=197
##$NIST SOURCE=MSDC
##XUNITS=M/Z
##YUNITS=RELATIVE INTENSITY
##XFACTOR=1
##YFACTOR=1
##FIRSTX=43
##LASTX=199
##FIRSTY=2500
##MAXX=199
##MINX=43
##MAXY=9999
##MINY=100
##NPOINTS=24
##PEAK TABLE=(XY..XY)
43,2500 63,400 64,300 65,400
71,900 73,200 75,300 90,400
91,300 92,400 99,500 100,200
101,200 102,100 111,100 126,400
127,9999 128,100 129,3300 153,100
154,200 162,1200 197,1900 199,600
##END=
