##TITLE=Benzene, 3,5-dichloro-1-methoxy-
##JCAMP-DX=4.24
##DATA TYPE=MASS SPECTRUM
##ORIGIN=Japan AIST/NIMC Database- Spectrum MS-NW-8865
##OWNER=NIST Mass Spectrometry Data Center
Collection (C) 2014 copyright by the U.S. Secretary of Commerce
on behalf of the United States of America. All rights reserved.
##CAS REGISTRY NO=33719-74-3
##$NIST MASS SPEC NO=235074
##MOLFORM=C7 H6 Cl2 O
##MW=176
##$NIST SOURCE=MSDC
##XUNITS=M/Z
##YUNITS=RELATIVE INTENSITY
##XFACTOR=1
##YFACTOR=1
##FIRSTX=14
##LASTX=181
##FIRSTY=10
##MAXX=181
##MINX=14
##MAXY=9999
##MINY=10
##NPOINTS=112
##PEAK TABLE=(XY..XY)
14,10 15,139 26,10 27,20
28,20 29,60 30,10 31,10
35,20 36,169 37,189 38,279
39,50 43,30 47,30 48,40
49,129 50,339 51,159 52,20
53,50 54,10 55,20 56,30
60,90 61,339 62,689 63,1699
64,90 65,10 66,40 71,20
72,119 73,829 74,779 75,949
76,80 77,1049 78,129 79,10
83,249 84,149 85,259 86,60
87,99 88,90 89,70 90,20
91,159 92,10 95,10 96,40
97,339 98,379 99,149 100,119
101,10 105,10 106,10 107,139
108,50 109,629 110,239 111,2639
112,299 113,1359 114,109 115,189
116,10 119,10 121,20 123,20
125,10 126,389 127,30 128,129
129,10 132,40 133,2329 134,159
135,1499 136,90 137,249 138,10
139,20 141,259 142,20 143,90
144,10 145,469 146,6929 147,1599
148,4459 149,889 150,759 151,129
159,10 160,50 161,249 162,60
163,159 164,20 165,20 173,10
174,20 175,139 176,9999 177,849
178,6429 179,509 180,1049 181,80
##END=
