##TITLE=Benzene, p-di-tert-pentyl-
##JCAMP-DX=4.24
##DATA TYPE=MASS SPECTRUM
##ORIGIN=NIST Mass Spectrometry Data Center, 1990.
##OWNER=NIST Mass Spectrometry Data Center
Collection (C) 2014 copyright by the U.S. Secretary of Commerce
on behalf of the United States of America. All rights reserved.
##CAS REGISTRY NO=3373-10-2
##$NIST MASS SPEC NO=113619
##MOLFORM=C16 H26
##MW=218
##$NIST SOURCE=MSDC
##XUNITS=M/Z
##YUNITS=RELATIVE INTENSITY
##XFACTOR=1
##YFACTOR=1
##FIRSTX=27
##LASTX=219
##FIRSTY=382
##MAXX=219
##MINX=27
##MAXY=9999
##MINY=60
##NPOINTS=50
##PEAK TABLE=(XY..XY)
27,382 28,160 29,696 39,267
41,923 43,851 44,65 51,123
53,135 55,280 64,67 65,135
71,941 77,250 78,95 79,126
91,860 92,74 103,146 104,60
105,358 115,444 116,162 117,679
118,92 119,204 127,101 128,245
129,239 130,96 131,476 132,149
133,167 141,72 143,78 145,1018
146,203 159,540 160,2133 161,537
162,61 173,94 174,232 175,93
189,9999 190,1643 191,125 203,280
218,727 219,122
##END=
