##TITLE=Vanillyl alcohol, 2TMS derivative
##JCAMP-DX=4.24
##DATA TYPE=MASS SPECTRUM
##ORIGIN=O A MAMER, MCGILL UNIVERSITY, MONTRE
##OWNER=NIST Mass Spectrometry Data Center
Collection (C) 2014 copyright by the U.S. Secretary of Commerce
on behalf of the United States of America. All rights reserved.
##CAS REGISTRY NO=33740-07-7
##$NIST MASS SPEC NO=79073
##MOLFORM=C14 H26 O3 Si2
##MW=298
##$NIST SOURCE=MSDC
##XUNITS=M/Z
##YUNITS=RELATIVE INTENSITY
##XFACTOR=1
##YFACTOR=1
##FIRSTX=14
##LASTX=301
##FIRSTY=139
##MAXX=301
##MINX=14
##MAXY=9999
##MINY=61
##NPOINTS=93
##PEAK TABLE=(XY..XY)
14,139 15,598 16,71 26,89
27,83 28,379 29,115 31,88
32,76 39,127 43,359 44,265
45,1794 46,125 47,150 50,61
51,190 52,138 55,74 57,102
58,212 59,1047 60,98 61,131
63,64 65,154 72,144 73,9999
74,896 75,846 76,86 77,292
78,154 79,184 82,70 83,90
89,389 90,120 91,229 93,69
103,214 104,213 105,322 106,125
107,184 111,77 119,523 120,112
121,88 127,190 133,209 134,590
135,329 136,155 137,96 147,1436
148,261 149,823 150,142 151,164
161,120 162,120 163,296 164,125
165,208 166,158 167,90 177,182
179,2480 180,460 181,192 191,140
193,567 194,284 195,201 207,226
209,6121 210,1101 211,338 223,187
244,736 253,1470 255,502 267,2489
268,3572 269,1092 283,2632 284,666
285,280 298,6434 299,1765 300,679
301,129
##END=
