##TITLE=Benzaldehyde, O-methyloxime
##JCAMP-DX=4.24
##DATA TYPE=MASS SPECTRUM
##OWNER=NIST Mass Spectrometry Data Center
Collection (C) 2014 copyright by the U.S. Secretary of Commerce
on behalf of the United States of America. All rights reserved.
##CAS REGISTRY NO=3376-32-7
##$NIST MASS SPEC NO=3283
##MOLFORM=C8 H9 N O
##MW=135
##$NIST SOURCE=MSDC
##XUNITS=M/Z
##YUNITS=RELATIVE INTENSITY
##XFACTOR=1
##YFACTOR=1
##FIRSTX=37
##LASTX=136
##FIRSTY=300
##MAXX=136
##MINX=37
##MAXY=9999
##MINY=100
##NPOINTS=42
##PEAK TABLE=(XY..XY)
37,300 38,500 39,1201 41,200
42,100 43,200 49,200 50,2002
51,3503 52,701 55,200 57,200
62,300 63,801 64,300 65,1802
66,200 73,200 74,801 75,1001
76,2002 77,8007 78,3503 79,500
89,801 90,500 91,200 92,500
93,300 102,400 103,4504 104,2702
105,300 106,200 107,200 108,2302
109,200 118,200 120,200 134,200
135,9999 136,1201
##END=
