##TITLE=2-Propanone, O-methyloxime
##JCAMP-DX=4.24
##DATA TYPE=MASS SPECTRUM
##OWNER=NIST Mass Spectrometry Data Center
Collection (C) 2014 copyright by the U.S. Secretary of Commerce
on behalf of the United States of America. All rights reserved.
##CAS REGISTRY NO=3376-35-0
##$NIST MASS SPEC NO=644
##MOLFORM=C4 H9 N O
##MW=87
##$NIST SOURCE=MSDC
##XUNITS=M/Z
##YUNITS=RELATIVE INTENSITY
##XFACTOR=1
##YFACTOR=1
##FIRSTX=29
##LASTX=88
##FIRSTY=2102
##MAXX=88
##MINX=29
##MAXY=9999
##MINY=100
##NPOINTS=19
##PEAK TABLE=(XY..XY)
29,2102 30,1001 31,801 38,200
39,801 40,601 41,1101 42,1501
43,1501 45,400 54,1301 55,1101
56,7206 57,300 58,601 72,1501
73,100 87,9999 88,500
##END=
