##TITLE=Benzene, 1,4-bis(2,2-dimethylpropyl)-2,3,5,6-tetramethyl-
##JCAMP-DX=4.24
##DATA TYPE=MASS SPECTRUM
##ORIGIN=CONTINENTAL OIL CO., PONCA CITY, OKLA, USA
##OWNER=NIST Mass Spectrometry Data Center
Collection (C) 2014 copyright by the U.S. Secretary of Commerce
on behalf of the United States of America. All rights reserved.
##CAS REGISTRY NO=33770-83-1
##$NIST MASS SPEC NO=27568
##MOLFORM=C20 H34
##MW=274
##$NIST SOURCE=MSDC
##XUNITS=M/Z
##YUNITS=RELATIVE INTENSITY
##XFACTOR=1
##YFACTOR=1
##FIRSTX=12
##LASTX=276
##FIRSTY=7
##MAXX=276
##MINX=12
##MAXY=9999
##MINY=2
##NPOINTS=196
##PEAK TABLE=(XY..XY)
12,7 13,7 14,26 15,252
16,17 25,3 26,20 27,447
28,165 29,2163 30,53 32,3
36,3 37,10 38,16 39,418
40,70 41,2189 42,116 43,19
44,3 45,3 47,3 49,3
50,14 51,72 52,31 53,222
54,21 55,327 56,66 57,3592
58,158 59,6 61,2 62,3
63,30 64,25 65,121 66,22
67,76 68,9 69,84 70,21
71,450 72,18 73,10 74,8
75,23 76,31 77,266 78,82
79,123 80,17 81,41 82,12
83,21 84,12 85,12 86,8
87,8 88,7 89,39 90,17
91,421 92,57 93,58 94,8
95,11 96,26 97,7 98,3
99,7 100,3 101,45 102,30
103,86 104,41 105,299 106,47
107,39 108,13 109,5 111,4
113,8 114,14 115,305 116,137
117,170 118,50 119,250 120,97
121,54 122,14 125,8 126,12
127,106 128,330 129,395 130,240
131,289 132,73 133,234 134,46
135,28 136,10 139,24 140,24
141,209 142,186 143,216 144,141
145,475 146,126 147,485 148,93
149,26 150,10 151,16 152,49
153,70 154,47 155,152 156,164
157,326 158,127 159,213 160,1020
161,9999 162,1642 163,123 164,8
165,33 166,15 167,27 168,15
169,55 170,73 171,219 172,141
173,122 174,31 175,17 176,7
177,10 178,10 179,10 180,6
181,10 182,7 183,19 184,17
185,64 186,42 187,395 188,67
189,66 190,11 191,17 192,4
193,8 194,3 195,3 196,2
197,10 198,10 199,14 200,12
201,152 202,106 203,127 204,24
205,3 207,166 208,35 209,22
210,4 211,4 213,12 215,137
216,80 217,5006 218,1178 219,120
220,5 231,7 257,7 258,7
259,352 260,79 261,9 272,38
273,21 274,1484 275,323 276,33
##END=
