##TITLE=Hexane, 3-bromo-
##JCAMP-DX=4.24
##DATA TYPE=MASS SPECTRUM
##ORIGIN=Japan AIST/NIMC Database- Spectrum MS-NW-8664
##OWNER=NIST Mass Spectrometry Data Center
Collection (C) 2014 copyright by the U.S. Secretary of Commerce
on behalf of the United States of America. All rights reserved.
##CAS REGISTRY NO=3377-87-5
##$NIST MASS SPEC NO=236805
##MOLFORM=C6 H13 Br
##MW=164
##$NIST SOURCE=MSDC
##XUNITS=M/Z
##YUNITS=RELATIVE INTENSITY
##XFACTOR=1
##YFACTOR=1
##FIRSTX=15
##LASTX=137
##FIRSTY=60
##MAXX=137
##MINX=15
##MAXY=9999
##MINY=10
##NPOINTS=57
##PEAK TABLE=(XY..XY)
15,60 26,99 27,1269 28,219
29,1139 30,30 37,20 38,80
39,989 40,169 41,2829 42,789
43,9999 44,329 49,10 50,60
51,90 52,40 53,239 54,99
55,1739 56,569 57,1559 58,70
62,10 63,20 65,30 66,10
67,70 68,20 69,409 70,50
71,50 77,10 79,20 80,50
81,20 82,50 83,60 84,109
85,7779 86,519 87,10 93,20
95,20 105,10 106,20 107,60
108,20 109,40 112,10 113,10
119,10 121,20 123,10 135,20
137,20
##END=
