##TITLE=Benzenemethanamine, N-(1,1-dimethylethyl)-
##JCAMP-DX=4.24
##DATA TYPE=MASS SPECTRUM
##ORIGIN=Japan AIST/NIMC Database- Spectrum MS-NW-5996
##OWNER=NIST Mass Spectrometry Data Center
Collection (C) 2014 copyright by the U.S. Secretary of Commerce
on behalf of the United States of America. All rights reserved.
##CAS REGISTRY NO=3378-72-1
##$NIST MASS SPEC NO=236551
##MOLFORM=C11 H17 N
##MW=163
##$NIST SOURCE=MSDC
##XUNITS=M/Z
##YUNITS=RELATIVE INTENSITY
##XFACTOR=1
##YFACTOR=1
##FIRSTX=15
##LASTX=163
##FIRSTY=30
##MAXX=163
##MINX=15
##MAXY=9999
##MINY=10
##NPOINTS=71
##PEAK TABLE=(XY..XY)
15,30 26,10 27,109 28,100
29,249 30,229 38,30 39,349
40,30 41,459 42,249 43,30
44,10 50,90 51,249 52,80
53,30 54,20 55,50 56,70
57,379 58,40 59,10 62,30
63,149 64,50 65,739 66,60
67,10 69,10 70,40 71,10
72,20 73,30 74,169 75,20
76,30 77,319 78,119 79,229
80,20 86,20 89,179 90,99
91,9999 92,779 93,30 102,10
103,30 104,139 105,60 106,469
107,60 108,20 115,10 116,10
117,10 118,10 120,10 129,10
130,20 131,10 132,20 144,10
146,179 147,50 148,4729 149,559
150,30 162,10 163,50
##END=
