##TITLE=6-Undecylamine
##JCAMP-DX=4.24
##DATA TYPE=MASS SPECTRUM
##ORIGIN=NIST Mass Spectrometry Data Center, 1990.
##OWNER=NIST Mass Spectrometry Data Center
Collection (C) 2014 copyright by the U.S. Secretary of Commerce
on behalf of the United States of America. All rights reserved.
##CAS REGISTRY NO=33788-00-0
##$NIST MASS SPEC NO=118237
##MOLFORM=C11 H25 N
##MW=171
##$NIST SOURCE=MSDC
##XUNITS=M/Z
##YUNITS=RELATIVE INTENSITY
##XFACTOR=1
##YFACTOR=1
##FIRSTX=15
##LASTX=171
##FIRSTY=55
##MAXX=171
##MINX=15
##MAXY=9999
##MINY=11
##NPOINTS=44
##PEAK TABLE=(XY..XY)
15,55 27,516 28,462 29,1090
30,3700 31,61 32,15 39,295
41,1063 42,443 43,1195 44,512
45,13 51,23 52,18 53,88
54,149 55,1032 56,651 57,335
58,55 65,21 66,12 67,63
68,40 69,129 70,127 71,55
72,21 77,11 79,18 81,24
82,43 83,259 84,28 86,17
97,24 100,9999 101,608 102,27
114,16 126,34 170,55 171,25
##END=
