##TITLE=5-Chloro-1,3-phenylenediamine
##JCAMP-DX=4.24
##DATA TYPE=MASS SPECTRUM
##ORIGIN=Japan AIST/NIMC Database- Spectrum MS-NW-4691
##OWNER=NIST Mass Spectrometry Data Center
Collection (C) 2014 copyright by the U.S. Secretary of Commerce
on behalf of the United States of America. All rights reserved.
##CAS REGISTRY NO=33786-89-9
##$NIST MASS SPEC NO=233541
##MOLFORM=C6 H7 Cl N2
##MW=142
##$NIST SOURCE=MSDC
##XUNITS=M/Z
##YUNITS=RELATIVE INTENSITY
##XFACTOR=1
##YFACTOR=1
##FIRSTX=14
##LASTX=146
##FIRSTY=20
##MAXX=146
##MINX=14
##MAXY=9999
##MINY=10
##NPOINTS=97
##PEAK TABLE=(XY..XY)
14,20 15,40 25,10 26,40
27,109 28,209 29,60 30,80
35,20 36,70 37,159 38,329
39,429 40,259 41,329 42,369
43,119 44,70 47,20 48,10
49,70 50,259 51,609 52,719
53,869 54,209 55,40 56,20
57,20 58,20 60,30 61,109
62,219 63,429 64,129 65,279
66,399 67,309 68,30 69,50
70,40 71,479 72,189 73,129
74,70 75,99 76,159 77,189
78,1229 79,499 80,3439 81,239
82,30 84,10 85,10 86,30
87,169 88,60 89,129 90,329
91,60 92,20 93,20 94,10
95,10 97,30 98,40 99,70
100,40 101,70 102,20 103,30
104,30 105,329 106,309 107,1199
108,99 112,10 113,20 114,1489
115,649 116,549 117,209 118,20
124,50 125,319 126,60 127,119
128,10 139,20 140,20 141,409
142,9999 143,859 144,3169 145,259
146,10
##END=
