##TITLE=Benzene, 1,3-bis(2,2-dimethylpropyl)-2,4,5,6-tetramethyl-
##JCAMP-DX=4.24
##DATA TYPE=MASS SPECTRUM
##ORIGIN=CONTINENTAL OIL CO., PONCA CITY, OKLA, USA
##OWNER=NIST Mass Spectrometry Data Center
Collection (C) 2014 copyright by the U.S. Secretary of Commerce
on behalf of the United States of America. All rights reserved.
##CAS REGISTRY NO=33781-73-6
##$NIST MASS SPEC NO=27569
##MOLFORM=C20 H34
##MW=274
##$NIST SOURCE=MSDC
##XUNITS=M/Z
##YUNITS=RELATIVE INTENSITY
##XFACTOR=1
##YFACTOR=1
##FIRSTX=13
##LASTX=276
##FIRSTY=5
##MAXX=276
##MINX=13
##MAXY=9999
##MINY=1
##NPOINTS=197
##PEAK TABLE=(XY..XY)
13,5 14,18 15,191 16,13
25,3 26,15 27,341 28,112
29,1534 30,37 32,1 36,3
37,9 38,12 39,313 40,54
41,1545 42,80 43,335 44,18
45,3 47,3 49,2 50,12
51,58 52,26 53,183 54,18
55,241 56,49 57,1854 58,83
59,5 62,4 63,25 64,22
65,101 66,20 67,64 68,5
69,120 70,17 71,301 72,14
73,6 74,8 75,18 76,25
77,214 78,68 79,101 80,19
81,29 82,9 83,16 84,10
85,9 86,10 87,8 88,7
89,31 90,14 91,340 92,47
93,44 94,8 95,10 96,12
97,5 98,3 99,4 100,4
101,31 102,24 103,71 104,34
105,254 106,39 107,33 108,12
109,5 113,8 114,12 115,254
116,116 117,149 118,44 119,216
120,66 121,44 122,12 125,8
126,10 127,89 128,276 129,354
130,227 131,231 132,62 133,176
134,43 135,28 136,10 137,9
138,10 139,21 140,21 141,170
142,149 143,185 144,147 145,474
146,124 147,448 148,74 149,35
150,10 151,13 152,38 153,55
154,37 155,124 156,138 157,216
158,97 159,283 160,649 161,2252
162,566 163,57 164,9 165,28
166,14 167,23 168,14 169,49
170,64 171,187 172,102 173,100
174,26 175,23 176,8 177,7
178,8 179,8 180,5 181,9
182,7 183,14 184,16 185,55
186,43 187,238 188,43 189,50
190,10 191,9 192,4 193,5
194,3 195,3 196,4 197,7
198,5 199,10 200,12 201,134
202,60 203,127 204,24 205,4
207,70 208,16 209,10 210,3
211,4 215,142 216,75 217,9999
218,1943 219,183 220,8 229,2
231,5 243,3 257,8 258,4
259,279 260,63 261,8 270,3
272,38 273,23 274,1156 275,254
276,26
##END=
