##TITLE=Diazene, dicyclohexyl-, 1,2-dioxide
##JCAMP-DX=4.24
##DATA TYPE=MASS SPECTRUM
##ORIGIN=CARL DJERASSI DEPT OF CHEM STANFORD UNIV STANFORD CALIF 94305
##OWNER=NIST Mass Spectrometry Data Center
Collection (C) 2014 copyright by the U.S. Secretary of Commerce
on behalf of the United States of America. All rights reserved.
##CAS REGISTRY NO=3378-45-8
##$NIST MASS SPEC NO=47563
##MOLFORM=C12 H22 N2 O2
##MW=226
##$NIST SOURCE=MSDC
##XUNITS=M/Z
##YUNITS=RELATIVE INTENSITY
##XFACTOR=1
##YFACTOR=1
##FIRSTX=39
##LASTX=226
##FIRSTY=1800
##MAXX=226
##MINX=39
##MAXY=9999
##MINY=100
##NPOINTS=48
##PEAK TABLE=(XY..XY)
39,1800 40,200 41,4900 42,600
43,700 44,100 45,100 46,100
49,400 50,400 51,100 52,600
53,1400 54,9999 55,800 56,100
64,200 65,100 66,1000 67,200
68,500 69,100 71,100 73,100
74,400 75,100 76,200 78,300
80,600 81,400 82,6400 83,600
95,500 96,200 97,100 102,100
110,800 111,100 112,400 113,2400
138,1400 139,100 140,400 144,100
155,1400 157,400 196,200 226,100
##END=
