##TITLE=Ormosanine, (18.alpha.)-
##JCAMP-DX=4.24
##DATA TYPE=MASS SPECTRUM
##ORIGIN=S.MCLEAN LASH MILLER CHEM. LABS., TORONTO, CANADA
##OWNER=NIST Mass Spectrometry Data Center
Collection (C) 2014 copyright by the U.S. Secretary of Commerce
on behalf of the United States of America. All rights reserved.
##CAS REGISTRY NO=33792-80-2
##$NIST MASS SPEC NO=39064
##MOLFORM=C20 H35 N3
##MW=317
##$NIST SOURCE=MSDC
##XUNITS=M/Z
##YUNITS=RELATIVE INTENSITY
##XFACTOR=1
##YFACTOR=1
##FIRSTX=43
##LASTX=318
##FIRSTY=4700
##MAXX=318
##MINX=43
##MAXY=9999
##MINY=600
##NPOINTS=17
##PEAK TABLE=(XY..XY)
43,4700 84,9999 96,1400 98,4000
150,900 151,3800 191,1100 219,5200
220,1200 233,1500 234,3800 235,800
245,600 259,700 316,900 317,4200
318,1100
##END=
