##TITLE=Propane, 2,3-dichloro-1,1,1-trifluoro-
##JCAMP-DX=4.24
##DATA TYPE=MASS SPECTRUM
##OWNER=NIST Mass Spectrometry Data Center
Collection (C) 2014 copyright by the U.S. Secretary of Commerce
on behalf of the United States of America. All rights reserved.
##CAS REGISTRY NO=338-75-0
##$NIST MASS SPEC NO=6355
##MOLFORM=C3 H3 Cl2 F3
##MW=166
##$NIST SOURCE=MSDC
##XUNITS=M/Z
##YUNITS=RELATIVE INTENSITY
##XFACTOR=1
##YFACTOR=1
##FIRSTX=14
##LASTX=170
##FIRSTY=10
##MAXX=170
##MINX=14
##MAXY=9999
##MINY=10
##NPOINTS=96
##PEAK TABLE=(XY..XY)
14,10 15,20 24,20 25,100
26,561 27,931 28,70 31,500
32,40 33,60 35,140 36,80
37,80 38,40 43,30 44,100
45,190 46,330 47,160 48,190
49,6756 50,270 51,2983 52,40
55,90 56,130 57,60 59,30
60,280 61,2632 62,310 63,871
64,110 65,50 66,30 67,2722
68,40 69,3643 70,40 74,60
75,591 76,90 77,320 78,30
79,40 80,390 81,240 82,170
83,1962 84,40 85,2452 86,30
87,591 91,20 93,70 94,50
95,2132 96,200 97,1992 98,5035
99,1311 100,1491 101,320 103,60
109,50 111,470 112,20 113,150
114,80 116,60 117,320 118,20
119,110 121,30 129,390 130,9999
131,2883 132,3513 133,1131 134,130
135,140 136,20 137,20 145,80
147,180 149,100 151,110 153,60
163,30 164,150 165,110 166,2252
167,140 168,1361 169,60 170,220
##END=
