##TITLE=1-Bromo-3,7-dimethyloctane
##JCAMP-DX=4.24
##DATA TYPE=MASS SPECTRUM
##ORIGIN=NIST Mass Spectrometry Data Center, 1990.
##OWNER=NIST Mass Spectrometry Data Center
Collection (C) 2014 copyright by the U.S. Secretary of Commerce
on behalf of the United States of America. All rights reserved.
##CAS REGISTRY NO=3383-83-3
##$NIST MASS SPEC NO=113161
##MOLFORM=C10 H21 Br
##MW=220
##$NIST SOURCE=MSDC
##XUNITS=M/Z
##YUNITS=RELATIVE INTENSITY
##XFACTOR=1
##YFACTOR=1
##FIRSTX=15
##LASTX=179
##FIRSTY=89
##MAXX=179
##MINX=15
##MAXY=9999
##MINY=89
##NPOINTS=53
##PEAK TABLE=(XY..XY)
15,89 27,1890 28,309 29,1795
39,2577 40,747 41,7585 42,2034
43,7709 44,273 51,200 52,137
53,1056 54,137 55,8803 56,2706
57,9999 58,441 65,161 67,597
69,4544 70,2529 71,9068 72,456
79,204 81,200 82,201 83,1567
84,466 85,1302 93,132 95,167
97,1124 98,135 99,218 107,381
109,407 111,253 113,2113 114,173
125,111 135,270 137,273 140,155
149,2522 150,235 151,2461 152,138
163,306 165,267 177,797 178,99
179,789
##END=
