##TITLE=Temefos
##JCAMP-DX=4.24
##DATA TYPE=MASS SPECTRUM
##ORIGIN=MASS SPECTROMETRY CENTER, UNIV. OF UTAH EPA-PTSEL 0020
##OWNER=NIST Mass Spectrometry Data Center
Collection (C) 2014 copyright by the U.S. Secretary of Commerce
on behalf of the United States of America. All rights reserved.
##CAS REGISTRY NO=3383-96-8
##$NIST MASS SPEC NO=52724
##MOLFORM=C16 H20 O6 P2 S3
##MW=466
##$NIST SOURCE=MSDC
##XUNITS=M/Z
##YUNITS=RELATIVE INTENSITY
##XFACTOR=1
##YFACTOR=1
##FIRSTX=13
##LASTX=469
##FIRSTY=132
##MAXX=469
##MINX=13
##MAXY=9999
##MINY=39
##NPOINTS=114
##PEAK TABLE=(XY..XY)
13,132 14,515 15,2067 27,379
29,1349 30,800 31,1111 32,234
33,483 34,635 39,651 40,51
41,671 42,325 43,541 44,582
45,1781 46,560 47,3461 48,976
49,263 50,432 51,396 52,101
55,413 56,90 57,326 60,292
62,731 63,1849 64,950 65,935
66,360 67,45 68,355 69,543
70,146 71,88 73,112 74,153
75,162 76,202 77,715 78,468
79,2812 80,485 81,228 86,101
91,337 93,3768 94,650 95,289
96,366 97,733 108,42 109,3125
110,379 111,113 112,245 115,268
123,197 125,5091 126,473 127,493
139,249 142,340 155,116 159,39
160,99 170,376 171,705 172,516
173,234 184,268 185,101 186,142
187,96 200,254 201,41 202,315
203,1166 204,291 215,224 216,256
217,253 218,343 231,229 232,104
233,53 248,52 249,259 250,267
263,46 283,299 285,432 311,133
313,44 325,321 326,553 339,641
340,149 341,839 342,376 343,110
356,97 357,497 358,157 372,106
434,42 435,136 466,9999 467,910
468,1509 469,322
##END=
