##TITLE=2H-Pyran-5-carboxylic acid, 4,6-dimethyl-2-oxo-, ethyl ester
##JCAMP-DX=4.24
##DATA TYPE=MASS SPECTRUM
##ORIGIN=NIST Mass Spectrometry Data Center, 1994
##OWNER=NIST Mass Spectrometry Data Center
Collection (C) 2014 copyright by the U.S. Secretary of Commerce
on behalf of the United States of America. All rights reserved.
##CAS REGISTRY NO=3385-34-0
##$NIST MASS SPEC NO=135143
##MOLFORM=C10 H12 O4
##MW=196
##$NIST SOURCE=MSDC
##XUNITS=M/Z
##YUNITS=RELATIVE INTENSITY
##XFACTOR=1
##YFACTOR=1
##FIRSTX=15
##LASTX=198
##FIRSTY=1563
##MAXX=198
##MINX=15
##MAXY=9999
##MINY=7
##NPOINTS=87
##PEAK TABLE=(XY..XY)
15,1563 17,7 18,66 26,700
27,3655 28,749 29,3106 30,259
31,108 37,299 38,490 39,1766
40,418 41,696 42,108 43,9999
44,360 45,176 49,154 50,1126
51,1775 52,2112 53,3374 54,250
55,384 56,66 57,101 61,72
62,135 63,213 64,123 65,652
66,725 67,844 68,199 69,618
70,127 74,59 75,25 76,24
77,159 78,77 79,315 80,595
81,374 82,126 83,392 84,155
85,49 93,519 94,1038 95,696
96,507 97,751 98,1346 99,99
107,79 108,565 109,1632 110,170
111,278 112,272 122,3801 123,2152
124,381 125,1728 126,479 127,33
135,48 137,25 139,2829 140,3563
141,292 142,26 150,1024 151,3601
152,400 153,853 154,263 155,33
168,3467 169,384 170,44 181,79
196,2117 197,250 198,38
##END=
