##TITLE=Dibenzo[b,E][1,4]dioxin, 2,7-dichloro-
##JCAMP-DX=4.24
##DATA TYPE=MASS SPECTRUM
##ORIGIN=MASS SPECTROMETRY CENTER, UNIV. OF UTAH EPA-RTP
##OWNER=NIST Mass Spectrometry Data Center
Collection (C) 2014 copyright by the U.S. Secretary of Commerce
on behalf of the United States of America. All rights reserved.
##CAS REGISTRY NO=33857-26-0
##$NIST MASS SPEC NO=52355
##MOLFORM=C12 H6 Cl2 O2
##MW=252
##$NIST SOURCE=MSDC
##XUNITS=M/Z
##YUNITS=RELATIVE INTENSITY
##XFACTOR=1
##YFACTOR=1
##FIRSTX=14
##LASTX=257
##FIRSTY=47
##MAXX=257
##MINX=14
##MAXY=9999
##MINY=7
##NPOINTS=84
##PEAK TABLE=(XY..XY)
14,47 16,12 18,10 26,51
28,1396 29,47 32,310 35,10
36,179 37,191 38,188 39,62
40,7 49,178 50,892 51,1349
52,67 53,301 60,100 61,299
63,256 64,68 72,116 73,385
74,1274 75,1657 76,187 77,127
79,1189 80,637 81,297 84,181
85,208 86,431 87,176 88,131
94,109 95,61 97,95 98,428
99,417 100,161 101,11 107,35
108,66 109,138 110,308 111,113
112,97 113,130 114,58 115,22
123,50 125,613 126,3415 127,1076
128,177 135,91 136,77 138,129
154,24 160,525 161,808 162,265
163,319 173,57 189,2521 191,1369
192,170 196,96 198,52 217,984
218,179 219,313 220,16 223,86
225,30 251,15 252,9999 253,1482
254,7371 255,946 256,1195 257,145
##END=
