##TITLE=Disilathiane, hexamethyl-
##JCAMP-DX=4.24
##DATA TYPE=MASS SPECTRUM
##ORIGIN=NIST Mass Spectrometry Data Center, 2008
##OWNER=NIST Mass Spectrometry Data Center
Collection (C) 2014 copyright by the U.S. Secretary of Commerce
on behalf of the United States of America. All rights reserved.
##CAS REGISTRY NO=3385-94-2
##$NIST MASS SPEC NO=366585
##MOLFORM=C6 H18 S Si2
##MW=178
##$NIST SOURCE=MSDC
##XUNITS=M/Z
##YUNITS=RELATIVE INTENSITY
##XFACTOR=1
##YFACTOR=1
##FIRSTX=15
##LASTX=182
##FIRSTY=30
##MAXX=182
##MINX=15
##MAXY=9999
##MINY=10
##NPOINTS=80
##PEAK TABLE=(XY..XY)
15,30 27,30 28,40 29,130
30,10 31,80 41,10 42,80
43,681 44,260 45,1491 46,100
47,50 53,50 54,20 55,120
56,30 57,150 58,220 59,661
60,80 61,110 62,10 63,20
66,20 67,10 69,20 70,40
71,110 73,9999 74,921 75,821
76,60 77,140 78,10 79,10
81,10 83,10 85,60 86,10
87,20 88,20 89,40 90,190
91,50 92,20 99,10 101,20
102,10 103,30 104,10 105,20
113,40 114,10 115,10 117,60
118,20 119,30 120,10 121,10
131,140 132,40 133,140 134,20
135,20 147,420 148,70 149,60
150,10 161,10 163,9278 164,1621
165,1201 166,150 167,50 178,1491
179,260 180,180 181,20 182,10
##END=
