##TITLE=Octadecane, 1-chloro-
##JCAMP-DX=4.24
##DATA TYPE=MASS SPECTRUM
##ORIGIN=Japan AIST/NIMC Database- Spectrum MS-NW-1570
##OWNER=NIST Mass Spectrometry Data Center
Collection (C) 2014 copyright by the U.S. Secretary of Commerce
on behalf of the United States of America. All rights reserved.
##CAS REGISTRY NO=3386-33-2
##$NIST MASS SPEC NO=233989
##MOLFORM=C18 H37 Cl
##MW=288
##$NIST SOURCE=MSDC
##XUNITS=M/Z
##YUNITS=RELATIVE INTENSITY
##XFACTOR=1
##YFACTOR=1
##FIRSTX=15
##LASTX=291
##FIRSTY=10
##MAXX=291
##MINX=15
##MAXY=9999
##MINY=10
##NPOINTS=161
##PEAK TABLE=(XY..XY)
15,10 26,20 27,609 28,119
29,1709 30,40 36,70 38,20
39,389 40,80 41,3529 42,909
43,7279 44,239 49,30 51,10
52,10 53,179 54,329 55,3969
56,1609 57,9999 58,449 59,10
63,80 65,30 66,30 67,349
68,349 69,3039 70,1379 71,5959
72,339 75,20 77,99 79,30
80,10 81,179 82,409 83,2099
84,949 85,3659 86,239 89,10
90,20 91,3349 92,139 93,1079
94,50 95,90 96,209 97,1539
98,639 99,959 100,70 103,10
104,159 105,1119 106,129 107,369
108,20 109,50 110,90 111,659
112,469 113,589 114,50 117,10
118,70 119,499 120,50 121,169
122,10 123,20 124,50 125,269
126,339 127,389 128,40 131,20
132,50 133,399 134,40 135,129
136,10 137,30 138,30 139,109
140,239 141,269 142,30 145,20
146,50 147,339 148,40 149,109
150,10 152,20 153,60 154,149
155,179 156,20 159,10 160,50
161,249 162,40 163,80 164,10
166,10 167,30 168,99 169,149
170,10 173,10 174,60 175,199
176,40 177,70 178,10 181,20
182,50 183,90 184,10 188,60
189,159 190,40 191,50 195,10
196,30 197,50 202,60 203,149
204,40 205,50 209,10 210,10
211,20 216,50 217,139 218,40
219,50 224,20 230,50 231,119
232,30 233,40 244,30 245,99
246,30 247,30 252,90 253,20
258,20 259,60 260,20 261,20
286,10 288,209 289,40 290,70
291,10
##END=
