##TITLE=2,5-Dichlorophenyl isothiocyanate
##JCAMP-DX=4.24
##DATA TYPE=MASS SPECTRUM
##ORIGIN=NIST Mass Spectrometry Data Center, 1994
##OWNER=NIST Mass Spectrometry Data Center
Collection (C) 2014 copyright by the U.S. Secretary of Commerce
on behalf of the United States of America. All rights reserved.
##CAS REGISTRY NO=3386-42-3
##$NIST MASS SPEC NO=134507
##MOLFORM=C7 H3 Cl2 N S
##MW=203
##$NIST SOURCE=MSDC
##XUNITS=M/Z
##YUNITS=RELATIVE INTENSITY
##XFACTOR=1
##YFACTOR=1
##FIRSTX=14
##LASTX=209
##FIRSTY=3
##MAXX=209
##MINX=14
##MAXY=9999
##MINY=3
##NPOINTS=122
##PEAK TABLE=(XY..XY)
14,3 18,64 25,110 26,146
27,82 32,809 34,48 35,273
36,343 37,1368 38,985 39,306
44,988 45,297 46,92 47,362
48,185 49,908 50,1728 51,490
52,119 53,33 54,45 56,92
57,86 58,495 59,121 60,567
61,1125 62,1098 63,977 64,483
65,132 66,113 68,102 69,386
70,1261 71,225 72,536 73,1740
74,3699 75,2668 76,362 79,664
80,65 81,375 82,304 83,429
84,1029 85,698 86,427 87,528
88,801 89,162 93,70 94,152
95,162 96,111 97,456 98,360
99,397 100,725 101,688 102,546
103,113 105,99 106,181 107,271
108,331 109,2476 110,550 111,832
112,163 117,52 118,90 119,98
120,72 121,48 122,62 123,48
124,853 125,62 126,271 131,43
132,215 133,1780 134,193 135,277
136,248 137,68 138,75 141,46
142,87 143,57 144,43 145,1982
146,225 147,1402 148,87 149,210
158,45 159,338 160,57 161,253
167,215 168,1388 169,232 170,565
171,852 172,99 173,581 174,57
175,106 176,132 178,77 203,9999
204,900 205,6996 206,614 207,1370
208,119 209,61
##END=
