##TITLE=1-Butene, 4-isothiocyanato-
##JCAMP-DX=4.24
##DATA TYPE=MASS SPECTRUM
##ORIGIN=NIST Mass Spectrometry Data Center
##OWNER=NIST Mass Spectrometry Data Center
Collection (C) 2014 copyright by the U.S. Secretary of Commerce
on behalf of the United States of America. All rights reserved.
##CAS REGISTRY NO=3386-97-8
##$NIST MASS SPEC NO=414530
##MOLFORM=C5 H7 N S
##MW=113
##$NIST SOURCE=MSDC
##XUNITS=M/Z
##YUNITS=RELATIVE INTENSITY
##XFACTOR=1
##YFACTOR=1
##FIRSTX=26
##LASTX=116
##FIRSTY=80
##MAXX=116
##MINX=26
##MAXY=9999
##MINY=10
##NPOINTS=56
##PEAK TABLE=(XY..XY)
26,80 27,500 28,170 29,390
30,10 32,60 36,10 37,80
38,160 39,1221 40,150 41,520
42,30 43,30 44,140 45,440
49,30 50,210 51,300 52,140
53,571 54,230 55,1842 56,100
57,70 58,270 59,310 60,360
61,20 62,10 67,60 68,30
69,40 70,190 71,190 72,9999
73,380 74,450 75,20 76,10
78,50 80,50 81,10 82,10
83,30 84,110 85,901 86,70
87,40 98,30 99,20 112,460
113,7817 114,540 115,360 116,20
##END=
