##TITLE=9-(S)-Methyl-.delta.-5(10)-octalin-1,6-dione
##JCAMP-DX=4.24
##DATA TYPE=MASS SPECTRUM
##ORIGIN=NIST Mass Spectrometry Data Center, 1994
##OWNER=NIST Mass Spectrometry Data Center
Collection (C) 2014 copyright by the U.S. Secretary of Commerce
on behalf of the United States of America. All rights reserved.
##CAS REGISTRY NO=33878-99-8
##$NIST MASS SPEC NO=136923
##MOLFORM=C11 H14 O2
##MW=178
##$NIST SOURCE=MSDC
##XUNITS=M/Z
##YUNITS=RELATIVE INTENSITY
##XFACTOR=1
##YFACTOR=1
##FIRSTX=12
##LASTX=180
##FIRSTY=53
##MAXX=180
##MINX=12
##MAXY=9999
##MINY=9
##NPOINTS=92
##PEAK TABLE=(XY..XY)
12,53 13,52 14,172 15,1288
16,21 18,26 26,883 27,7213
28,1208 29,1953 30,28 37,178
38,987 39,9999 40,2183 41,4517
42,2193 43,803 46,214 47,44
50,1424 51,3810 52,2265 53,3170
54,44 55,9705 56,436 57,189
58,114 60,196 61,161 62,456
63,1364 64,448 65,2791 66,2122
67,2247 68,297 69,209 75,136
77,5391 78,1364 79,8430 80,4411
81,653 82,194 83,53 86,60
89,193 91,3571 92,699 93,5303
94,2995 95,1313 96,195 102,62
103,198 104,89 105,493 106,309
107,2672 108,4411 109,552 110,68
115,120 117,193 118,94 119,110
120,68 121,7834 122,5706 123,860
124,132 131,62 132,95 133,232
134,267 135,1904 136,2359 137,429
138,44 145,191 149,187 150,1181
151,142 160,2716 161,404 163,636
164,68 178,1631 179,200 180,9
##END=
