##TITLE=2(2-Bromoethyl)-1,3-dioxane
##JCAMP-DX=4.24
##DATA TYPE=MASS SPECTRUM
##ORIGIN=NIST Mass Spectrometry Data Center
##OWNER=NIST Mass Spectrometry Data Center
Collection (C) 2014 copyright by the U.S. Secretary of Commerce
on behalf of the United States of America. All rights reserved.
##CAS REGISTRY NO=33884-43-4
##$NIST MASS SPEC NO=342465
##MOLFORM=C6 H11 Br O2
##MW=194
##$NIST SOURCE=MSDC
##XUNITS=M/Z
##YUNITS=RELATIVE INTENSITY
##XFACTOR=1
##YFACTOR=1
##FIRSTX=12
##LASTX=196
##FIRSTY=10
##MAXX=196
##MINX=12
##MAXY=9999
##MINY=10
##NPOINTS=64
##PEAK TABLE=(XY..XY)
12,10 14,10 15,90 18,10
19,10 26,540 27,1952 28,1942
29,2452 31,2222 32,30 37,30
38,90 39,510 40,90 41,1061
42,160 43,110 44,20 47,20
53,20 54,20 55,310 56,310
57,1351 58,110 59,1431 60,60
71,10 79,50 80,50 81,70
82,40 83,20 85,20 87,9999
88,480 89,40 93,90 94,10
95,80 105,20 107,741 108,140
109,641 110,90 111,10 113,40
114,10 115,10 135,550 136,160
137,550 138,140 139,30 151,10
153,10 165,70 166,10 167,80
193,571 194,50 195,571 196,40
##END=
