##TITLE=4-Trifluoromethylbenzhydrazide
##JCAMP-DX=4.24
##DATA TYPE=MASS SPECTRUM
##ORIGIN=NIST Mass Spectrometry Data Center, 1994
##OWNER=NIST Mass Spectrometry Data Center
Collection (C) 2014 copyright by the U.S. Secretary of Commerce
on behalf of the United States of America. All rights reserved.
##CAS REGISTRY NO=339-59-3
##$NIST MASS SPEC NO=136130
##MOLFORM=C8 H7 F3 N2 O
##MW=204
##$NIST SOURCE=MSDC
##XUNITS=M/Z
##YUNITS=RELATIVE INTENSITY
##XFACTOR=1
##YFACTOR=1
##FIRSTX=16
##LASTX=205
##FIRSTY=115
##MAXX=205
##MINX=16
##MAXY=9999
##MINY=6
##NPOINTS=80
##PEAK TABLE=(XY..XY)
16,115 17,57 18,32 26,6
27,8 28,106 29,444 30,281
31,1050 37,106 38,191 39,154
43,29 44,88 49,97 50,1275
51,547 52,52 53,59 56,61
57,263 61,77 62,173 63,175
64,41 68,76 69,511 70,37
73,84 74,528 75,1534 76,481
77,164 80,48 81,115 85,26
86,33 87,74 88,49 93,63
94,157 95,1737 96,163 99,338
100,122 101,56 104,24 105,44
106,41 107,135 108,26 113,40
114,26 118,33 119,207 120,27
121,47 123,49 125,1176 126,741
127,134 143,142 145,9999 146,768
147,32 152,38 154,189 155,65
165,101 170,44 171,84 173,9892
174,1010 175,69 185,716 186,75
189,101 190,54 204,1441 205,149
##END=
