##TITLE=2,6-Dimethoxybenzaldehyde
##JCAMP-DX=4.24
##DATA TYPE=MASS SPECTRUM
##ORIGIN=Chuck Anderson, Aldrich Chemical Co.
##OWNER=NIST Mass Spectrometry Data Center
Collection (C) 2014 copyright by the U.S. Secretary of Commerce
on behalf of the United States of America. All rights reserved.
##CAS REGISTRY NO=3392-97-0
##$NIST MASS SPEC NO=108227
##MOLFORM=C9 H10 O3
##MW=166
##$NIST SOURCE=MSDC
##XUNITS=M/Z
##YUNITS=RELATIVE INTENSITY
##XFACTOR=1
##YFACTOR=1
##FIRSTX=14
##LASTX=168
##FIRSTY=72
##MAXX=168
##MINX=14
##MAXY=9999
##MINY=23
##NPOINTS=102
##PEAK TABLE=(XY..XY)
14,72 15,661 25,39 26,317
27,515 28,343 29,846 30,115
31,320 32,46 36,41 37,757
38,1653 39,4020 40,310 41,978
42,139 43,360 44,39 45,74
46,31 49,195 50,2076 51,2909
52,2248 53,1587 54,248 55,638
56,40 57,24 59,86 60,74
61,535 62,1468 63,3650 64,2169
65,3200 66,677 67,396 68,143
69,502 70,28 73,130 74,767
75,1296 76,8835 77,3967 78,1997
79,1878 80,720 81,205 82,103
83,62 84,63 85,27 89,49
90,2526 91,2446 92,1772 93,1203
94,608 95,628 96,80 97,61
103,166 104,1983 105,1811 106,965
107,3967 108,1150 109,674 110,82
111,38 112,197 117,27 118,310
119,803 120,1190 121,1335 122,1388
123,376 124,1031 125,109 131,35
132,45 133,1349 134,489 135,925
136,790 137,833 138,162 147,416
148,4020 149,3703 150,2962 151,1957
152,195 153,23 165,6189 166,9999
167,1018 168,122
##END=
