##TITLE=11-Tridecyn-1-ol
##JCAMP-DX=4.24
##DATA TYPE=MASS SPECTRUM
##ORIGIN=NIST Mass Spectrometry Data Center, 1994
##OWNER=NIST Mass Spectrometry Data Center
Collection (C) 2014 copyright by the U.S. Secretary of Commerce
on behalf of the United States of America. All rights reserved.
##CAS REGISTRY NO=33925-75-6
##$NIST MASS SPEC NO=136583
##MOLFORM=C13 H24 O
##MW=196
##$NIST SOURCE=MSDC
##XUNITS=M/Z
##YUNITS=RELATIVE INTENSITY
##XFACTOR=1
##YFACTOR=1
##FIRSTX=17
##LASTX=149
##FIRSTY=80
##MAXX=149
##MINX=17
##MAXY=9999
##MINY=36
##NPOINTS=59
##PEAK TABLE=(XY..XY)
17,80 18,246 27,1297 38,131
39,3268 40,717 41,8354 42,1115
43,2041 44,160 50,182 51,623
52,467 53,3210 54,3601 55,7574
56,855 57,1044 58,255 65,793
66,1063 67,8703 68,9999 69,3155
70,579 71,868 72,106 77,919
78,298 79,3530 80,1352 81,6008
82,2088 83,963 84,298 85,313
91,681 92,87 93,2028 94,1104
95,5100 96,1467 97,557 98,358
99,38 105,74 106,36 107,947
108,444 109,1323 110,409 111,305
112,88 121,580 122,178 123,195
135,261 136,142 149,139
##END=
