##TITLE=4'-Nitrobenzanilide
##JCAMP-DX=4.24
##DATA TYPE=MASS SPECTRUM
##ORIGIN=Japan AIST/NIMC Database- Spectrum MS-NW-4329
##OWNER=NIST Mass Spectrometry Data Center
Collection (C) 2014 copyright by the U.S. Secretary of Commerce
on behalf of the United States of America. All rights reserved.
##CAS REGISTRY NO=3393-96-2
##$NIST MASS SPEC NO=232669
##MOLFORM=C13 H10 N2 O3
##MW=242
##$NIST SOURCE=MSDC
##XUNITS=M/Z
##YUNITS=RELATIVE INTENSITY
##XFACTOR=1
##YFACTOR=1
##FIRSTX=26
##LASTX=244
##FIRSTY=10
##MAXX=244
##MINX=26
##MAXY=9999
##MINY=10
##NPOINTS=50
##PEAK TABLE=(XY..XY)
26,10 27,50 28,70 29,50
30,179 32,20 37,20 38,60
39,80 40,10 41,10 49,10
50,199 51,669 52,90 53,20
61,10 62,40 63,129 64,99
65,50 74,50 75,60 76,149
77,3699 78,269 79,10 80,10
89,10 90,30 91,30 92,10
93,10 103,10 104,40 105,9999
106,739 107,60 115,10 139,20
140,10 166,20 167,30 195,30
196,10 212,30 226,10 242,1099
243,169 244,20
##END=
