##TITLE=3-Heptene, 4-ethyl-
##JCAMP-DX=4.24
##DATA TYPE=MASS SPECTRUM
##OWNER=NIST Mass Spectrometry Data Center
Collection (C) 2014 copyright by the U.S. Secretary of Commerce
on behalf of the United States of America. All rights reserved.
##CAS REGISTRY NO=33933-74-3
##$NIST MASS SPEC NO=2462
##MOLFORM=C9 H18
##MW=126
##$NIST SOURCE=MSDC
##XUNITS=M/Z
##YUNITS=RELATIVE INTENSITY
##XFACTOR=1
##YFACTOR=1
##FIRSTX=26
##LASTX=128
##FIRSTY=30
##MAXX=128
##MINX=26
##MAXY=9999
##MINY=10
##NPOINTS=48
##PEAK TABLE=(XY..XY)
26,30 27,671 29,651 30,20
31,621 38,20 39,691 40,170
41,2122 42,400 43,601 44,70
50,40 51,100 52,50 53,370
54,130 55,9999 56,1071 57,190
58,10 65,100 66,40 67,400
68,120 69,2282 70,1441 71,110
77,90 78,20 79,120 80,20
81,190 82,120 83,2242 84,891
85,60 93,10 95,50 96,40
97,1992 98,601 99,40 111,30
112,10 126,1792 127,190 128,10
##END=
