##TITLE=2H-Pyran-3(4H)-one, 6-ethenyldihydro-2,2,6-trimethyl-
##JCAMP-DX=4.24
##DATA TYPE=MASS SPECTRUM
##OWNER=NIST Mass Spectrometry Data Center
Collection (C) 2014 copyright by the U.S. Secretary of Commerce
on behalf of the United States of America. All rights reserved.
##CAS REGISTRY NO=33933-72-1
##$NIST MASS SPEC NO=6464
##MOLFORM=C10 H16 O2
##MW=168
##$NIST SOURCE=MSDC
##XUNITS=M/Z
##YUNITS=RELATIVE INTENSITY
##XFACTOR=1
##YFACTOR=1
##FIRSTX=26
##LASTX=168
##FIRSTY=60
##MAXX=168
##MINX=26
##MAXY=9999
##MINY=10
##NPOINTS=88
##PEAK TABLE=(XY..XY)
26,60 27,811 29,290 31,130
37,10 38,40 39,881 40,380
41,1381 42,631 43,2102 44,180
45,30 50,50 51,140 52,100
53,781 54,380 55,921 56,110
57,70 58,30 59,761 60,30
61,10 62,10 63,30 64,10
65,200 66,270 67,6786 68,9999
69,711 70,581 71,150 72,10
77,140 78,30 79,370 80,100
81,631 82,1631 83,210 84,40
85,30 86,20 91,160 92,40
93,100 94,20 95,591 96,50
97,150 98,30 99,20 103,10
105,60 106,20 107,170 108,40
109,80 110,4154 111,420 112,30
113,10 115,30 116,10 117,60
119,10 121,10 122,10 123,50
125,60 126,10 131,10 132,40
133,20 134,10 135,90 136,10
141,120 148,10 149,10 150,60
151,20 153,180 154,20 168,20
##END=
