##TITLE=1,3,5-Triazine-2,4-diamine, 6-chloro-
##JCAMP-DX=4.24
##DATA TYPE=MASS SPECTRUM
##ORIGIN=Japan AIST/NIMC Database- Spectrum MS-IW-6134
##OWNER=NIST Mass Spectrometry Data Center
Collection (C) 2014 copyright by the U.S. Secretary of Commerce
on behalf of the United States of America. All rights reserved.
##CAS REGISTRY NO=3397-62-4
##$NIST MASS SPEC NO=237478
##MOLFORM=C3 H4 Cl N5
##MW=145
##$NIST SOURCE=MSDC
##XUNITS=M/Z
##YUNITS=RELATIVE INTENSITY
##XFACTOR=1
##YFACTOR=1
##FIRSTX=13
##LASTX=148
##FIRSTY=20
##MAXX=148
##MINX=13
##MAXY=9999
##MINY=10
##NPOINTS=49
##PEAK TABLE=(XY..XY)
13,20 16,10 26,20 27,179
28,409 29,20 34,10 35,30
36,209 38,80 39,20 40,30
41,159 42,1009 43,2679 44,60
47,10 52,40 53,90 56,10
61,20 62,459 63,10 64,149
66,10 67,209 68,2919 69,99
72,80 73,20 77,10 83,119
87,139 89,50 93,30 102,139
103,40 104,90 105,10 106,10
109,90 110,3069 111,159 129,139
131,40 145,9999 146,669 147,3229
148,209
##END=
