##TITLE=Trichloroacetic acid, pentyl ester
##JCAMP-DX=4.24
##DATA TYPE=MASS SPECTRUM
##ORIGIN=V.G.Zaikin, Petrochem. Synth. Inst., Moscow
##OWNER=NIST Mass Spectrometry Data Center
Collection (C) 2014 copyright by the U.S. Secretary of Commerce
on behalf of the United States of America. All rights reserved.
##CAS REGISTRY NO=33972-81-5
##$NIST MASS SPEC NO=280508
##MOLFORM=C7 H11 Cl3 O2
##MW=232
##$NIST SOURCE=MSDC
##XUNITS=M/Z
##YUNITS=RELATIVE INTENSITY
##XFACTOR=1
##YFACTOR=1
##FIRSTX=26
##LASTX=121
##FIRSTY=320
##MAXX=121
##MINX=26
##MAXY=9999
##MINY=30
##NPOINTS=41
##PEAK TABLE=(XY..XY)
26,320 27,1932 28,440 29,2212
30,120 31,80 35,90 36,230
37,110 38,160 39,1191 40,280
41,2933 42,2672 43,9999 44,350
47,450 49,150 51,110 53,150
55,1952 56,140 57,150 63,70
69,651 70,1381 71,1952 72,130
82,490 83,120 84,390 85,70
86,60 110,340 111,30 112,190
117,470 118,50 119,490 120,50
121,160
##END=
