##TITLE=Arsinous bromide, diethyl-
##JCAMP-DX=4.24
##DATA TYPE=MASS SPECTRUM
##OWNER=NIST Mass Spectrometry Data Center
Collection (C) 2014 copyright by the U.S. Secretary of Commerce
on behalf of the United States of America. All rights reserved.
##CAS REGISTRY NO=3399-96-0
##$NIST MASS SPEC NO=9881
##MOLFORM=C4 H10 As Br
##MW=212
##$NIST SOURCE=MSDC
##XUNITS=M/Z
##YUNITS=RELATIVE INTENSITY
##XFACTOR=1
##YFACTOR=1
##FIRSTX=77
##LASTX=215
##FIRSTY=467
##MAXX=215
##MINX=77
##MAXY=9999
##MINY=133
##NPOINTS=21
##PEAK TABLE=(XY..XY)
77,467 78,867 89,667 101,1133
102,1333 103,2000 104,9999 105,1866
133,467 154,2000 155,2000 156,2000
157,2000 183,2466 184,3600 185,2200
186,3333 212,3733 213,200 214,3466
215,133
##END=
