##TITLE=Mecloqualone
##JCAMP-DX=4.24
##DATA TYPE=MASS SPECTRUM
##ORIGIN=J.E. WILKINSON S-CUBED, SAN DIEGO, CA.
##OWNER=NIST Mass Spectrometry Data Center
Collection (C) 2014 copyright by the U.S. Secretary of Commerce
on behalf of the United States of America. All rights reserved.
##CAS REGISTRY NO=340-57-8
##$NIST MASS SPEC NO=90144
##MOLFORM=C15 H11 Cl N2 O
##MW=270
##$NIST SOURCE=MSDC
##XUNITS=M/Z
##YUNITS=RELATIVE INTENSITY
##XFACTOR=1
##YFACTOR=1
##FIRSTX=47
##LASTX=273
##FIRSTY=4
##MAXX=273
##MINX=47
##MAXY=9999
##MINY=1
##NPOINTS=137
##PEAK TABLE=(XY..XY)
47,4 50,2708 51,1014 52,206
53,78 54,2 58,125 59,78
60,2 61,134 62,387 63,1385
64,840 65,185 66,29 69,23
73,241 74,685 75,3307 76,3166
77,1430 78,119 79,10 82,128
83,111 85,225 86,44 87,126
88,157 89,689 90,1747 91,196
92,128 93,3 97,1213 99,118
100,118 101,77 102,736 103,331
104,259 105,45 107,64 108,3
110,137 111,3093 112,253 113,1012
114,359 116,629 117,681 118,64
119,9 120,1 123,3 124,12
125,117 126,17 127,128 128,48
129,25 130,18 131,9 132,206
133,17 135,155 136,39 137,119
138,71 139,212 140,215 141,23
142,4 143,541 144,106 145,25
150,5 151,77 152,789 153,108
154,242 155,22 157,2 159,4
163,1 164,132 165,76 166,294
167,69 168,9 173,2 174,5
175,1 176,2 177,28 178,11
179,13 180,24 190,4 191,50
192,141 193,68 194,69 195,95
196,5 200,25 201,9 202,8
203,2 205,92 206,138 207,91
208,22 217,4 218,1 220,49
221,3 226,2 227,11 228,8
229,3 233,72 234,261 235,9999
236,2523 237,224 238,5 241,2
255,932 256,143 257,292 258,35
269,6 270,671 271,118 272,205
273,26
##END=
