##TITLE=11-Hexadecen-1-ol, acetate, (Z)-
##JCAMP-DX=4.24
##DATA TYPE=MASS SPECTRUM
##ORIGIN=NIST Mass Spectrometry Data Center, 1998.
##OWNER=NIST Mass Spectrometry Data Center
Collection (C) 2014 copyright by the U.S. Secretary of Commerce
on behalf of the United States of America. All rights reserved.
##CAS REGISTRY NO=34010-21-4
##$NIST MASS SPEC NO=291651
##MOLFORM=C18 H34 O2
##MW=282
##$NIST SOURCE=MSDC
##XUNITS=M/Z
##YUNITS=RELATIVE INTENSITY
##XFACTOR=1
##YFACTOR=1
##FIRSTX=14
##LASTX=282
##FIRSTY=10
##MAXX=282
##MINX=14
##MAXY=9999
##MINY=10
##NPOINTS=122
##PEAK TABLE=(XY..XY)
14,10 15,70 26,20 27,440
28,100 29,840 30,20 31,50
37,10 38,20 39,800 40,170
41,5019 42,1070 43,8279 44,250
45,60 50,20 51,60 52,50
53,720 54,4130 55,9999 56,1660
57,1090 58,80 59,30 60,20
61,1360 62,30 63,20 65,230
66,460 67,6219 68,4130 69,4370
70,790 71,380 72,50 73,380
74,20 77,200 78,60 79,760
80,530 81,7439 82,9149 83,3290
84,390 85,170 86,30 87,30
91,110 92,20 93,220 94,270
95,5379 96,7739 97,2040 98,230
99,40 100,20 101,20 102,10
105,20 106,10 107,80 108,120
109,2840 110,3100 111,700 112,90
113,20 114,20 115,10 116,10
121,60 122,130 123,1460 124,1650
125,250 126,50 127,20 128,20
129,10 135,30 136,80 137,770
138,910 139,120 140,70 141,20
142,10 143,10 149,10 150,20
151,280 152,410 153,70 154,20
155,10 156,10 164,10 165,230
166,310 167,50 168,10 170,10
179,110 180,120 181,20 193,60
194,200 195,30 207,10 221,20
222,1220 223,220 224,20 239,20
281,10 282,10
##END=
