##TITLE=cis-11-Tetradecen-1-ol
##JCAMP-DX=4.24
##DATA TYPE=MASS SPECTRUM
##ORIGIN=NIST Mass Spectrometry Data Center, 1998.
##OWNER=NIST Mass Spectrometry Data Center
Collection (C) 2014 copyright by the U.S. Secretary of Commerce
on behalf of the United States of America. All rights reserved.
##CAS REGISTRY NO=34010-15-6
##$NIST MASS SPEC NO=291650
##MOLFORM=C14 H28 O
##MW=212
##$NIST SOURCE=MSDC
##XUNITS=M/Z
##YUNITS=RELATIVE INTENSITY
##XFACTOR=1
##YFACTOR=1
##FIRSTX=15
##LASTX=212
##FIRSTY=10
##MAXX=212
##MINX=15
##MAXY=9999
##MINY=10
##NPOINTS=93
##PEAK TABLE=(XY..XY)
15,10 26,30 27,640 28,170
29,1240 30,50 31,1600 32,10
37,10 38,30 39,1260 40,270
41,7619 42,1360 43,1940 44,200
45,170 46,10 50,30 51,110
52,80 53,1040 54,2960 55,9999
56,1850 57,1440 58,100 59,30
63,20 65,250 66,510 67,6269
68,7129 69,5359 70,1080 71,540
72,70 73,40 77,180 78,50
79,540 80,310 81,5639 82,7859
83,2460 84,410 85,310 86,40
87,10 91,70 92,10 93,150
94,170 95,4140 96,4240 97,1100
98,180 99,80 100,20 105,10
107,50 108,70 109,1920 110,1450
111,300 112,100 113,30 121,30
122,60 123,780 124,650 125,110
126,50 127,10 135,10 136,30
137,370 138,420 139,50 140,10
141,10 151,120 152,140 153,20
165,60 166,220 167,30 168,10
179,10 184,10 194,330 195,50
212,10
##END=
