##TITLE=3-Nitrophenol, TMS derivative
##JCAMP-DX=4.24
##DATA TYPE=MASS SPECTRUM
##ORIGIN=NIST Mass Spectrometry Data Center
##OWNER=NIST Mass Spectrometry Data Center
Collection (C) 2014 copyright by the U.S. Secretary of Commerce
on behalf of the United States of America. All rights reserved.
##CAS REGISTRY NO=34038-80-7
##$NIST MASS SPEC NO=333429
##MOLFORM=C9 H13 N O3 Si
##MW=211
##$NIST SOURCE=MSDC
##XUNITS=M/Z
##YUNITS=RELATIVE INTENSITY
##XFACTOR=1
##YFACTOR=1
##FIRSTX=15
##LASTX=214
##FIRSTY=30
##MAXX=214
##MINX=15
##MAXY=9999
##MINY=10
##NPOINTS=138
##PEAK TABLE=(XY..XY)
15,30 26,10 27,50 28,40
29,110 30,460 31,30 37,20
38,100 39,160 40,10 41,20
42,80 43,801 44,240 45,1241
46,160 47,170 48,20 49,10
50,410 51,170 52,70 53,290
54,70 55,260 56,40 57,100
58,160 59,220 60,90 61,230
62,150 63,621 64,520 65,230
66,110 67,240 68,60 69,180
70,60 71,60 72,110 73,4174
74,591 75,1051 76,661 77,370
78,130 79,220 80,50 81,220
82,50 83,190 84,40 85,160
86,20 87,20 88,10 89,200
90,200 91,1001 92,510 93,310
94,60 95,370 96,110 97,60
98,80 99,60 100,20 101,10
102,10 103,60 104,1121 105,410
106,190 107,330 108,120 109,140
110,90 111,40 112,10 113,10
117,20 118,20 119,210 120,220
121,591 122,641 123,170 124,40
125,20 128,10 131,20 132,10
133,60 134,60 135,1601 136,310
137,160 138,200 139,30 140,10
145,10 147,110 148,470 149,7987
150,1411 151,1001 152,140 153,40
154,10 161,10 162,10 163,40
164,40 165,380 166,2102 167,310
168,120 169,10 176,10 178,20
179,10 180,50 181,70 182,20
192,10 193,10 196,9999 197,1551
198,510 199,50 211,3613 212,561
213,180 214,20
##END=
