##TITLE=5-Methyl-2-hexene,c&t
##JCAMP-DX=4.24
##DATA TYPE=MASS SPECTRUM
##ORIGIN=Japan AIST/NIMC Database- Spectrum MS-NW-4825
##OWNER=NIST Mass Spectrometry Data Center
Collection (C) 2014 copyright by the U.S. Secretary of Commerce
on behalf of the United States of America. All rights reserved.
##CAS REGISTRY NO=3404-62-4
##$NIST MASS SPEC NO=231718
##MOLFORM=C7 H14
##MW=98
##$NIST SOURCE=MSDC
##XUNITS=M/Z
##YUNITS=RELATIVE INTENSITY
##XFACTOR=1
##YFACTOR=1
##FIRSTX=14
##LASTX=99
##FIRSTY=20
##MAXX=99
##MINX=14
##MAXY=9999
##MINY=10
##NPOINTS=55
##PEAK TABLE=(XY..XY)
14,20 15,169 26,149 27,2359
28,119 29,1639 30,40 31,10
37,50 38,139 39,2189 40,389
41,5959 42,739 43,8659 44,299
45,50 49,20 50,139 51,259
52,109 53,669 54,1119 55,6169
56,9999 57,989 58,40 59,20
61,10 62,20 63,40 65,99
66,50 67,349 68,149 69,2369
70,2129 71,169 72,10 73,10
74,20 75,10 77,70 78,10
79,90 80,10 81,159 82,40
83,809 84,60 95,10 96,20
97,99 98,1389 99,139
##END=
