##TITLE=1,1'-Binaphthalene, 3,3'-dimethyl-
##JCAMP-DX=4.24
##DATA TYPE=MASS SPECTRUM
##ORIGIN=A. G. LOUDON
##OWNER=NIST Mass Spectrometry Data Center
Collection (C) 2014 copyright by the U.S. Secretary of Commerce
on behalf of the United States of America. All rights reserved.
##CAS REGISTRY NO=34042-82-5
##$NIST MASS SPEC NO=40718
##MOLFORM=C22 H18
##MW=282
##$NIST SOURCE=MSDC
##XUNITS=M/Z
##YUNITS=RELATIVE INTENSITY
##XFACTOR=1
##YFACTOR=1
##FIRSTX=113
##LASTX=284
##FIRSTY=400
##MAXX=284
##MINX=113
##MAXY=9999
##MINY=200
##NPOINTS=36
##PEAK TABLE=(XY..XY)
113,400 115,200 118,200 119,200
125,500 126,1900 127,200 131,200
132,600 133,1000 138,300 139,300
140,200 141,700 225,200 235,200
239,500 250,400 251,200 252,2400
253,800 261,200 263,1100 264,600
265,2000 266,4700 267,4000 268,800
276,300 277,200 279,400 280,700
281,2700 282,9999 283,2300 284,300
##END=
