##TITLE=Hexane, 2-methyl-4-methylene-
##JCAMP-DX=4.24
##DATA TYPE=MASS SPECTRUM
##ORIGIN=NIST Mass Spectrometry Data Center, 1990.
##OWNER=NIST Mass Spectrometry Data Center
Collection (C) 2014 copyright by the U.S. Secretary of Commerce
on behalf of the United States of America. All rights reserved.
##CAS REGISTRY NO=3404-80-6
##$NIST MASS SPEC NO=113454
##MOLFORM=C8 H16
##MW=112
##$NIST SOURCE=MSDC
##XUNITS=M/Z
##YUNITS=RELATIVE INTENSITY
##XFACTOR=1
##YFACTOR=1
##FIRSTX=15
##LASTX=113
##FIRSTY=165
##MAXX=113
##MINX=15
##MAXY=9999
##MINY=153
##NPOINTS=34
##PEAK TABLE=(XY..XY)
15,165 26,195 27,1572 28,644
29,858 39,3194 40,763 41,5450
42,1981 43,4167 44,215 50,253
51,530 52,258 53,1181 55,8571
56,1624 57,434 63,153 65,327
66,160 67,787 68,270 69,1441
70,9999 71,844 77,254 79,276
81,217 83,1468 84,478 97,270
112,2137 113,232
##END=
