##TITLE=1,3-Butadiene, 2-ethyl-
##JCAMP-DX=4.24
##DATA TYPE=MASS SPECTRUM
##ORIGIN=NIST Mass Spectrometry Data Center, 1990.
##OWNER=NIST Mass Spectrometry Data Center
Collection (C) 2014 copyright by the U.S. Secretary of Commerce
on behalf of the United States of America. All rights reserved.
##CAS REGISTRY NO=3404-63-5
##$NIST MASS SPEC NO=118159
##MOLFORM=C6 H10
##MW=82
##$NIST SOURCE=MSDC
##XUNITS=M/Z
##YUNITS=RELATIVE INTENSITY
##XFACTOR=1
##YFACTOR=1
##FIRSTX=14
##LASTX=83
##FIRSTY=86
##MAXX=83
##MINX=14
##MAXY=9999
##MINY=86
##NPOINTS=33
##PEAK TABLE=(XY..XY)
14,86 15,353 26,750 27,3674
28,871 29,784 32,107 37,225
38,701 39,4859 40,1123 41,5021
42,761 43,244 49,227 50,1313
51,1585 52,905 53,2725 54,2289
55,1012 56,363 63,227 65,1660
67,9999 68,669 69,744 77,293
79,643 80,175 81,1096 82,3395
83,279
##END=
