##TITLE=4-Methyl-2-hexene,c&t
##JCAMP-DX=4.24
##DATA TYPE=MASS SPECTRUM
##ORIGIN=Japan AIST/NIMC Database- Spectrum MS-NW-4619
##OWNER=NIST Mass Spectrometry Data Center
Collection (C) 2014 copyright by the U.S. Secretary of Commerce
on behalf of the United States of America. All rights reserved.
##CAS REGISTRY NO=3404-55-5
##$NIST MASS SPEC NO=231716
##MOLFORM=C7 H14
##MW=98
##$NIST SOURCE=MSDC
##XUNITS=M/Z
##YUNITS=RELATIVE INTENSITY
##XFACTOR=1
##YFACTOR=1
##FIRSTX=14
##LASTX=99
##FIRSTY=10
##MAXX=99
##MINX=14
##MAXY=9999
##MINY=10
##NPOINTS=47
##PEAK TABLE=(XY..XY)
14,10 15,70 26,90 27,969
28,60 29,839 30,20 37,30
38,99 39,1289 40,229 41,7159
42,449 43,379 44,10 49,10
50,90 51,169 52,60 53,549
54,149 55,3269 56,1159 57,159
61,10 62,30 63,50 64,10
65,109 66,50 67,529 68,329
69,9999 70,1129 71,50 74,10
77,50 78,10 79,50 80,10
81,99 82,30 83,1019 84,80
97,20 98,2059 99,169
##END=
