##TITLE=1-Pentene, 2,3-dimethyl-
##JCAMP-DX=4.24
##DATA TYPE=MASS SPECTRUM
##ORIGIN=NIST Mass Spectrometry Data Center, 1990.
##OWNER=NIST Mass Spectrometry Data Center
Collection (C) 2014 copyright by the U.S. Secretary of Commerce
on behalf of the United States of America. All rights reserved.
##CAS REGISTRY NO=3404-72-6
##$NIST MASS SPEC NO=114479
##MOLFORM=C7 H14
##MW=98
##$NIST SOURCE=MSDC
##XUNITS=M/Z
##YUNITS=RELATIVE INTENSITY
##XFACTOR=1
##YFACTOR=1
##FIRSTX=15
##LASTX=99
##FIRSTY=388
##MAXX=99
##MINX=15
##MAXY=9999
##MINY=51
##NPOINTS=37
##PEAK TABLE=(XY..XY)
15,388 18,55 26,280 27,2496
28,151 29,1604 30,51 37,121
38,347 39,3811 40,783 41,9999
42,807 43,616 44,52 50,286
51,494 52,203 53,1118 54,52
55,5391 56,1528 57,190 62,70
63,109 65,264 67,965 69,8568
70,3248 71,175 77,116 79,122
81,123 83,2252 84,155 98,1226
99,102
##END=
