##TITLE=N-Methyl-N-propyl-propylamine
##JCAMP-DX=4.24
##DATA TYPE=MASS SPECTRUM
##ORIGIN=AIR PRODUCTS & CHEMICALS, INC BOX 538, ALLENTOWN, PA 18105, D M PAREES
##OWNER=NIST Mass Spectrometry Data Center
Collection (C) 2014 copyright by the U.S. Secretary of Commerce
on behalf of the United States of America. All rights reserved.
##CAS REGISTRY NO=3405-42-3
##$NIST MASS SPEC NO=79723
##MOLFORM=C7 H17 N
##MW=115
##$NIST SOURCE=MSDC
##XUNITS=M/Z
##YUNITS=RELATIVE INTENSITY
##XFACTOR=1
##YFACTOR=1
##FIRSTX=27
##LASTX=116
##FIRSTY=610
##MAXX=116
##MINX=27
##MAXY=9999
##MINY=130
##NPOINTS=20
##PEAK TABLE=(XY..XY)
27,610 29,190 30,180 39,310
41,860 42,1250 43,1140 44,4480
45,130 56,130 57,300 58,1010
70,190 72,370 84,280 86,9999
87,650 114,190 115,1710 116,150
##END=
