##TITLE=Butane, 2,3-dimethyl-2-nitro-
##JCAMP-DX=4.24
##DATA TYPE=MASS SPECTRUM
##ORIGIN=CARL DJERASSI DEPT OF CHEM STANFORD UNIV STANFORD CALIF 94305
##OWNER=NIST Mass Spectrometry Data Center
Collection (C) 2014 copyright by the U.S. Secretary of Commerce
on behalf of the United States of America. All rights reserved.
##CAS REGISTRY NO=34075-28-0
##$NIST MASS SPEC NO=46512
##MOLFORM=C6 H13 N O2
##MW=131
##$NIST SOURCE=MSDC
##XUNITS=M/Z
##YUNITS=RELATIVE INTENSITY
##XFACTOR=1
##YFACTOR=1
##FIRSTX=15
##LASTX=85
##FIRSTY=500
##MAXX=85
##MINX=15
##MAXY=9999
##MINY=100
##NPOINTS=36
##PEAK TABLE=(XY..XY)
15,500 16,400 17,700 18,2100
26,300 27,1600 28,1200 29,600
30,4000 32,400 37,200 38,400
39,2800 40,700 41,9999 42,1300
43,700 44,1500 45,100 50,300
51,400 52,200 53,1000 54,200
55,1000 56,600 57,300 65,300
67,700 68,200 69,7400 70,600
75,300 83,200 84,2400 85,300
##END=
