##TITLE=o-Ethylbenzonitrile
##JCAMP-DX=4.24
##DATA TYPE=MASS SPECTRUM
##ORIGIN=NIST Mass Spectrometry Data Center, 1990.
##OWNER=NIST Mass Spectrometry Data Center
Collection (C) 2014 copyright by the U.S. Secretary of Commerce
on behalf of the United States of America. All rights reserved.
##CAS REGISTRY NO=34136-59-9
##$NIST MASS SPEC NO=118569
##MOLFORM=C9 H9 N
##MW=131
##$NIST SOURCE=MSDC
##XUNITS=M/Z
##YUNITS=RELATIVE INTENSITY
##XFACTOR=1
##YFACTOR=1
##FIRSTX=14
##LASTX=133
##FIRSTY=37
##MAXX=133
##MINX=14
##MAXY=9999
##MINY=8
##NPOINTS=64
##PEAK TABLE=(XY..XY)
14,37 15,121 16,15 17,18
18,8 26,110 27,455 28,104
29,40 32,12 37,151 38,273
39,817 40,72 41,54 44,10
48,12 49,96 50,761 51,913
52,285 53,90 54,18 61,164
62,327 63,859 64,382 65,268
66,45 73,77 74,334 75,574
76,682 77,944 78,232 79,40
85,36 86,58 87,104 88,244
89,1865 90,366 91,225 92,17
97,11 98,35 99,74 100,81
101,205 102,373 103,1139 104,592
105,52 112,14 114,125 116,9999
117,929 118,40 127,40 128,127
130,2329 131,3178 132,345 133,13
##END=
