##TITLE=2,5-Dichlorobenzyl alcohol
##JCAMP-DX=4.24
##DATA TYPE=MASS SPECTRUM
##ORIGIN=NIST Mass Spectrometry Data Center
##OWNER=NIST Mass Spectrometry Data Center
Collection (C) 2014 copyright by the U.S. Secretary of Commerce
on behalf of the United States of America. All rights reserved.
##CAS REGISTRY NO=34145-05-6
##$NIST MASS SPEC NO=341206
##MOLFORM=C7 H6 Cl2 O
##MW=176
##$NIST SOURCE=MSDC
##XUNITS=M/Z
##YUNITS=RELATIVE INTENSITY
##XFACTOR=1
##YFACTOR=1
##FIRSTX=26
##LASTX=181
##FIRSTY=30
##MAXX=181
##MINX=26
##MAXY=9999
##MINY=10
##NPOINTS=112
##PEAK TABLE=(XY..XY)
26,30 27,60 29,340 30,40
31,280 35,30 36,40 37,250
38,310 39,260 42,10 43,120
44,40 47,60 48,40 49,290
50,1411 51,1752 52,661 53,130
55,120 56,120 57,30 60,180
61,550 62,641 63,791 64,50
65,30 66,20 67,10 70,140
71,70 72,150 73,901 74,1882
75,3303 76,510 77,9338 78,881
79,80 83,30 84,450 85,621
86,440 87,470 88,140 89,490
90,30 95,10 96,50 97,210
98,30 99,160 100,10 101,50
103,20 104,10 105,190 106,20
107,50 108,100 109,881 110,490
111,5765 112,1061 113,5035 114,510
115,1081 116,60 118,10 119,30
120,20 121,30 122,10 123,1121
124,220 125,380 126,70 133,130
135,80 137,10 139,2702 140,801
141,9999 142,941 143,2993 144,230
145,540 146,410 147,1872 148,360
149,1041 150,100 151,160 152,10
157,20 158,50 159,861 160,100
161,540 162,40 163,80 173,310
174,50 175,671 176,5845 177,761
178,3743 179,320 180,601 181,40
##END=
