##TITLE=2-Bromobenzaldoxime
##JCAMP-DX=4.24
##DATA TYPE=MASS SPECTRUM
##ORIGIN=NIST Mass Spectrometry Data Center
##OWNER=NIST Mass Spectrometry Data Center
Collection (C) 2014 copyright by the U.S. Secretary of Commerce
on behalf of the United States of America. All rights reserved.
##CAS REGISTRY NO=34158-72-0
##$NIST MASS SPEC NO=343346
##MOLFORM=C7 H6 Br N O
##MW=199
##$NIST SOURCE=MSDC
##XUNITS=M/Z
##YUNITS=RELATIVE INTENSITY
##XFACTOR=1
##YFACTOR=1
##FIRSTX=13
##LASTX=202
##FIRSTY=20
##MAXX=202
##MINX=13
##MAXY=9999
##MINY=10
##NPOINTS=106
##PEAK TABLE=(XY..XY)
13,20 15,10 16,310 17,340
18,250 19,40 25,130 26,510
27,711 28,1421 29,250 30,661
36,180 37,1371 38,1732 39,3013
40,200 41,80 42,40 43,200
44,470 46,410 49,1021 50,6656
51,3153 52,811 53,250 54,30
55,30 60,661 61,771 62,1631
63,3223 64,1641 65,6326 66,540
67,70 68,20 72,90 73,741
74,2823 75,6766 76,5115 77,1962
78,220 80,210 81,430 82,170
83,50 84,60 85,220 86,390
87,320 88,340 89,2312 90,1271
91,1441 92,4074 93,3053 94,250
98,30 99,260 100,260 102,8448
103,1972 104,440 105,120 106,90
107,70 116,70 117,130 118,160
119,1171 120,9999 121,831 122,50
128,110 129,120 130,100 131,190
143,110 144,70 145,120 146,60
153,20 155,1411 156,1171 157,1571
158,1081 159,60 169,190 170,30
171,220 172,550 173,70 174,500
181,1752 182,871 183,1962 184,861
185,500 186,50 199,4704 200,741
201,4804 202,400
##END=
