##TITLE=Bibenzyl, 3-chloro-
##JCAMP-DX=4.24
##DATA TYPE=MASS SPECTRUM
##OWNER=NIST Mass Spectrometry Data Center
Collection (C) 2014 copyright by the U.S. Secretary of Commerce
on behalf of the United States of America. All rights reserved.
##CAS REGISTRY NO=34176-92-6
##$NIST MASS SPEC NO=10079
##MOLFORM=C14 H13 Cl
##MW=216
##$NIST SOURCE=MSDC
##XUNITS=M/Z
##YUNITS=RELATIVE INTENSITY
##XFACTOR=1
##YFACTOR=1
##FIRSTX=39
##LASTX=219
##FIRSTY=480
##MAXX=219
##MINX=39
##MAXY=9999
##MINY=30
##NPOINTS=36
##PEAK TABLE=(XY..XY)
39,480 40,30 41,180 51,350
52,70 55,140 62,90 63,360
64,90 65,871 66,50 75,150
76,130 77,250 78,80 89,571
90,190 91,9999 92,771 99,120
101,90 102,70 103,120 104,60
125,841 126,290 127,310 128,120
141,100 165,90 178,130 179,90
216,1451 217,230 218,470 219,70
##END=
