##TITLE=Benzonitrile, m-phenethyl-
##JCAMP-DX=4.24
##DATA TYPE=MASS SPECTRUM
##OWNER=NIST Mass Spectrometry Data Center
Collection (C) 2014 copyright by the U.S. Secretary of Commerce
on behalf of the United States of America. All rights reserved.
##CAS REGISTRY NO=34176-91-5
##$NIST MASS SPEC NO=9475
##MOLFORM=C15 H13 N
##MW=207
##$NIST SOURCE=MSDC
##XUNITS=M/Z
##YUNITS=RELATIVE INTENSITY
##XFACTOR=1
##YFACTOR=1
##FIRSTX=39
##LASTX=209
##FIRSTY=751
##MAXX=209
##MINX=39
##MAXY=9999
##MINY=30
##NPOINTS=29
##PEAK TABLE=(XY..XY)
39,751 40,60 41,210 43,140
50,230 51,510 52,160 62,120
63,460 64,160 65,1551 66,130
75,180 76,200 77,370 78,140
89,550 90,170 91,9999 92,751
93,50 102,100 103,90 116,300
117,40 141,130 207,2042 208,380
209,30
##END=
