##TITLE=3-Acetoxybenzaldehyde
##JCAMP-DX=4.24
##DATA TYPE=MASS SPECTRUM
##ORIGIN=NIST Mass Spectrometry Data Center
##OWNER=NIST Mass Spectrometry Data Center
Collection (C) 2014 copyright by the U.S. Secretary of Commerce
on behalf of the United States of America. All rights reserved.
##CAS REGISTRY NO=34231-78-2
##$NIST MASS SPEC NO=342900
##MOLFORM=C9 H8 O3
##MW=164
##$NIST SOURCE=MSDC
##XUNITS=M/Z
##YUNITS=RELATIVE INTENSITY
##XFACTOR=1
##YFACTOR=1
##FIRSTX=11
##LASTX=166
##FIRSTY=10
##MAXX=166
##MINX=11
##MAXY=9999
##MINY=10
##NPOINTS=58
##PEAK TABLE=(XY..XY)
11,10 12,10 13,50 14,210
15,991 18,20 25,20 26,90
27,110 29,440 31,20 36,10
37,240 38,821 39,1932 40,210
41,90 43,9999 44,250 45,10
49,70 50,500 51,530 52,50
53,170 54,10 55,60 60,20
61,180 62,440 63,1241 64,721
65,1742 66,440 67,30 73,50
74,190 75,120 76,180 77,210
78,30 79,20 91,30 92,260
93,1491 94,460 95,30 105,80
106,10 107,20 119,20 121,6726
122,7457 123,611 124,50 164,1872
165,200 166,10
##END=
