##TITLE=Acetamide, 2-chloro-N-(ethoxymethyl)-N-(2-ethyl-6-methylphenyl)-
##JCAMP-DX=4.24
##DATA TYPE=MASS SPECTRUM
##ORIGIN=NIST Mass Spectrometry Data Center, 1998.
##OWNER=NIST Mass Spectrometry Data Center
Collection (C) 2014 copyright by the U.S. Secretary of Commerce
on behalf of the United States of America. All rights reserved.
##CAS REGISTRY NO=34256-82-1
##$NIST MASS SPEC NO=291852
##MOLFORM=C14 H20 Cl N O2
##MW=269
##$NIST SOURCE=MSDC
##XUNITS=M/Z
##YUNITS=RELATIVE INTENSITY
##XFACTOR=1
##YFACTOR=1
##FIRSTX=14
##LASTX=272
##FIRSTY=40
##MAXX=272
##MINX=14
##MAXY=9999
##MINY=10
##NPOINTS=197
##PEAK TABLE=(XY..XY)
14,40 15,110 16,10 25,10
26,70 27,720 28,260 29,1890
30,10 31,4230 32,50 33,10
35,10 36,20 37,10 38,70
39,810 40,120 41,1340 42,510
43,400 44,70 45,270 46,20
47,20 48,40 49,880 50,190
51,980 52,330 53,420 54,100
55,100 56,60 57,30 58,20
59,9999 60,330 61,40 62,90
63,470 64,200 65,1260 66,210
67,90 68,20 69,10 70,10
73,240 74,60 75,140 76,270
77,3120 78,780 79,1160 80,130
81,30 82,10 86,20 87,40
88,40 89,550 90,490 91,3270
92,460 93,470 94,70 95,10
98,10 99,20 100,10 101,80
102,340 103,1050 104,650 105,880
106,440 107,370 108,200 109,110
110,10 113,10 115,1170 116,580
117,3310 118,1550 119,1040 120,1050
121,260 122,30 125,10 126,10
127,50 128,190 129,140 130,1530
131,1490 132,4840 133,2150 134,1970
135,570 136,370 137,60 138,10
139,20 140,20 141,40 142,240
143,200 144,1220 145,850 146,8399
147,3560 148,3470 149,410 150,30
152,10 153,10 154,30 155,10
156,120 157,80 158,700 159,230
160,1450 161,430 162,6969 163,960
164,700 165,90 166,30 167,10
168,30 169,10 170,30 171,10
172,110 173,10 174,3990 175,630
176,930 177,120 178,70 179,10
180,110 181,30 182,130 183,20
184,160 185,20 186,70 187,60
188,840 189,130 190,540 191,240
192,350 193,210 194,550 195,130
196,220 197,30 198,30 204,60
205,10 206,40 207,10 208,310
209,50 210,1390 211,220 212,1250
213,170 214,290 215,30 216,70
217,10 218,10 220,210 221,40
223,4460 224,2260 225,1710 226,740
227,90 228,10 234,1610 235,260
236,30 240,190 241,30 242,60
243,10 269,580 270,90 271,190
272,30
##END=
