##TITLE=Phosphorodichloridous acid, phenyl ester
##JCAMP-DX=4.24
##DATA TYPE=MASS SPECTRUM
##ORIGIN=RADIAN CORP
##OWNER=NIST Mass Spectrometry Data Center
Collection (C) 2014 copyright by the U.S. Secretary of Commerce
on behalf of the United States of America. All rights reserved.
##CAS REGISTRY NO=3426-89-9
##$NIST MASS SPEC NO=73743
##MOLFORM=C6 H5 Cl2 O P
##MW=194
##$NIST SOURCE=MSDC
##XUNITS=M/Z
##YUNITS=RELATIVE INTENSITY
##XFACTOR=1
##YFACTOR=1
##FIRSTX=26
##LASTX=198
##FIRSTY=160
##MAXX=198
##MINX=26
##MAXY=9999
##MINY=10
##NPOINTS=57
##PEAK TABLE=(XY..XY)
26,160 27,250 29,40 31,610
35,270 36,110 37,520 38,1230
39,4070 40,200 41,90 47,2180
49,190 50,1780 51,3750 52,220
53,170 55,70 61,330 62,720
63,1560 64,570 65,5700 66,2220
68,680 69,170 73,160 74,610
75,390 76,350 77,8920 78,610
79,70 82,100 92,140 93,1940
94,370 95,150 96,60 101,2050
103,1350 105,230 112,570 113,20
114,180 124,90 131,140 140,10
159,9999 160,700 161,3320 162,230
194,4250 195,230 196,2780 197,200
198,460
##END=
