##TITLE=N-Acetyl-dl-alanine methylamide
##JCAMP-DX=4.24
##DATA TYPE=MASS SPECTRUM
##ORIGIN=Japan AIST/NIMC Database- Spectrum MS-IW-1964
##OWNER=NIST Mass Spectrometry Data Center
Collection (C) 2014 copyright by the U.S. Secretary of Commerce
on behalf of the United States of America. All rights reserved.
##CAS REGISTRY NO=34276-27-2
##$NIST MASS SPEC NO=240696
##MOLFORM=C6 H12 N2 O2
##MW=144
##$NIST SOURCE=MSDC
##XUNITS=M/Z
##YUNITS=RELATIVE INTENSITY
##XFACTOR=1
##YFACTOR=1
##FIRSTX=14
##LASTX=144
##FIRSTY=30
##MAXX=144
##MINX=14
##MAXY=9999
##MINY=10
##NPOINTS=45
##PEAK TABLE=(XY..XY)
14,30 15,579 16,10 26,30
27,159 28,639 29,90 30,1389
31,60 32,189 39,20 40,40
41,119 42,839 43,2539 44,9999
45,559 46,20 53,10 54,20
55,139 56,179 57,80 58,1099
59,239 60,90 68,40 69,90
70,60 71,20 72,1579 73,70
83,10 84,40 85,80 86,4329
87,8079 88,399 89,20 101,80
113,10 114,40 126,30 129,40
144,40
##END=
