##TITLE=Trimethyl(n-octyl)silane
##JCAMP-DX=4.24
##DATA TYPE=MASS SPECTRUM
##ORIGIN=V.G.Zaikin, TIPS, Russian Acad. Sci.
##OWNER=NIST Mass Spectrometry Data Center
Collection (C) 2014 copyright by the U.S. Secretary of Commerce
on behalf of the United States of America. All rights reserved.
##CAS REGISTRY NO=3429-76-3
##$NIST MASS SPEC NO=214953
##MOLFORM=C11 H26 Si
##MW=186
##$NIST SOURCE=MSDC
##XUNITS=M/Z
##YUNITS=RELATIVE INTENSITY
##XFACTOR=1
##YFACTOR=1
##FIRSTX=41
##LASTX=186
##FIRSTY=670
##MAXX=186
##MINX=41
##MAXY=9999
##MINY=10
##NPOINTS=25
##PEAK TABLE=(XY..XY)
41,670 42,180 43,850 44,480
45,540 46,120 55,240 56,60
57,180 58,200 59,1851 60,250
61,300 72,300 73,9999 74,850
75,380 85,180 87,420 99,240
101,260 171,1541 172,240 173,180
186,10
##END=
