##TITLE=D-Gluconic acid, 6TMS derivative
##JCAMP-DX=4.24
##DATA TYPE=MASS SPECTRUM
##ORIGIN=G.A.REINECCIUS UNIV. OF MINNESOTA, ST. PAUL, MINN., USA
##OWNER=NIST Mass Spectrometry Data Center
Collection (C) 2014 copyright by the U.S. Secretary of Commerce
on behalf of the United States of America. All rights reserved.
##CAS REGISTRY NO=34290-52-3
##$NIST MASS SPEC NO=58377
##MOLFORM=C24 H60 O7 Si6
##MW=628
##$NIST SOURCE=MSDC
##XUNITS=M/Z
##YUNITS=RELATIVE INTENSITY
##XFACTOR=1
##YFACTOR=1
##FIRSTX=45
##LASTX=437
##FIRSTY=280
##MAXX=437
##MINX=45
##MAXY=9999
##MINY=100
##NPOINTS=70
##PEAK TABLE=(XY..XY)
45,280 59,160 72,140 73,9999
74,800 75,780 101,100 103,1470
104,140 117,650 129,390 131,200
133,490 143,200 147,3220 148,550
149,380 157,190 189,590 190,160
191,400 204,800 205,2500 206,560
207,360 217,1750 218,400 219,470
220,160 221,350 229,220 245,130
277,700 278,210 279,130 291,240
292,2970 293,970 294,490 295,100
299,130 305,1430 306,510 307,860
308,240 309,110 319,2190 320,690
321,550 322,150 331,190 333,3310
334,1030 335,560 336,120 345,130
359,600 360,190 361,110 393,110
394,110 422,100 423,1000 424,380
425,210 433,390 434,160 435,530
436,190 437,110
##END=
