##TITLE=Benzenebutanoic acid, .alpha.,2-diamino-.gamma.-oxo-
##JCAMP-DX=4.24
##DATA TYPE=MASS SPECTRUM
##ORIGIN=A.A.Kutin, Moscow, Russia
##OWNER=NIST Mass Spectrometry Data Center
Collection (C) 2014 copyright by the U.S. Secretary of Commerce
on behalf of the United States of America. All rights reserved.
##CAS REGISTRY NO=343-65-7
##$NIST MASS SPEC NO=301570
##MOLFORM=C10 H12 N2 O3
##MW=208
##$NIST SOURCE=MSDC
##XUNITS=M/Z
##YUNITS=RELATIVE INTENSITY
##XFACTOR=1
##YFACTOR=1
##FIRSTX=33
##LASTX=210
##FIRSTY=9
##MAXX=210
##MINX=33
##MAXY=9999
##MINY=1
##NPOINTS=131
##PEAK TABLE=(XY..XY)
33,9 34,3 35,370 36,1755
37,612 38,1484 39,3686 43,147
45,1556 46,589 47,47 49,105
50,1290 51,1132 52,1393 53,931
54,458 55,54 56,13 59,730
60,285 61,274 62,596 63,1378
64,1353 65,6326 66,972 67,148
68,130 69,80 70,409 71,48
74,721 75,592 76,765 77,980
78,255 79,149 80,56 81,89
82,298 83,35 84,25 85,56
86,65 87,246 88,249 89,848
90,1198 91,1254 92,5309 93,1702
94,777 95,75 96,86 97,29
98,25 99,132 100,24 101,71
102,128 103,108 104,647 105,190
106,266 107,39 108,55 109,46
110,8 111,12 112,1 114,23
115,160 116,479 117,2543 118,1191
119,995 120,9999 121,1120 122,83
123,57 125,10 126,1 127,7
128,250 129,196 130,400 131,73
132,120 133,204 134,155 135,867
136,84 142,1 143,97 144,537
145,2490 146,7261 147,1344 148,110
150,133 151,3 155,37 156,25
157,238 158,19 159,2 160,37
161,383 162,144 163,316 164,33
165,5 171,16 172,21 173,99
174,81 175,5 176,13 177,265
178,13 185,1 188,2 189,61
190,444 191,2277 192,213 193,7
208,736 209,95 210,3
##END=
