##TITLE=2-Amino-5-bromo-3-methylpyridine
##JCAMP-DX=4.24
##DATA TYPE=MASS SPECTRUM
##ORIGIN=NIST Mass Spectrometry Data Center
##OWNER=NIST Mass Spectrometry Data Center
Collection (C) 2014 copyright by the U.S. Secretary of Commerce
on behalf of the United States of America. All rights reserved.
##CAS REGISTRY NO=3430-21-5
##$NIST MASS SPEC NO=342734
##MOLFORM=C6 H7 Br N2
##MW=186
##$NIST SOURCE=MSDC
##XUNITS=M/Z
##YUNITS=RELATIVE INTENSITY
##XFACTOR=1
##YFACTOR=1
##FIRSTX=13
##LASTX=190
##FIRSTY=20
##MAXX=190
##MINX=13
##MAXY=9999
##MINY=10
##NPOINTS=96
##PEAK TABLE=(XY..XY)
13,20 15,170 16,60 17,70
18,90 25,100 26,380 27,901
28,2512 30,330 36,60 37,581
38,1081 39,1371 40,330 41,250
42,591 43,490 44,20 48,50
49,330 50,1201 51,2162 52,2162
53,3023 54,1431 55,200 56,40
60,40 61,300 62,721 63,1481
64,631 65,711 66,250 67,200
68,30 75,200 76,340 77,130
78,831 79,1081 80,4094 81,571
82,150 83,30 86,10 87,10
88,20 90,891 91,170 92,250
93,370 94,220 95,40 104,110
105,751 106,2032 107,3053 108,260
116,50 117,180 118,70 119,190
120,30 121,20 128,30 129,30
130,50 131,290 132,70 133,210
134,80 135,20 136,40 143,50
144,50 145,60 146,60 147,40
148,20 156,20 158,1221 159,1001
160,1131 161,831 162,50 169,120
170,20 171,110 172,20 186,9679
187,1441 188,9999 189,731 190,20
##END=
