##TITLE=Furan, 2,3-dihydro-4-(1-methylethyl)-
##JCAMP-DX=4.24
##DATA TYPE=MASS SPECTRUM
##ORIGIN=C.BOTTEGHI ZURICH TECHNICAL COLLEGE, ZURICH, SWITZERLAND
##OWNER=NIST Mass Spectrometry Data Center
Collection (C) 2014 copyright by the U.S. Secretary of Commerce
on behalf of the United States of America. All rights reserved.
##CAS REGISTRY NO=34314-84-6
##$NIST MASS SPEC NO=38686
##MOLFORM=C7 H12 O
##MW=112
##$NIST SOURCE=MSDC
##XUNITS=M/Z
##YUNITS=RELATIVE INTENSITY
##XFACTOR=1
##YFACTOR=1
##FIRSTX=15
##LASTX=113
##FIRSTY=350
##MAXX=113
##MINX=15
##MAXY=9999
##MINY=100
##NPOINTS=57
##PEAK TABLE=(XY..XY)
15,350 17,500 18,2350 19,100
26,250 27,3050 28,900 29,2000
30,100 31,750 32,150 37,100
38,300 39,3100 40,600 41,9999
42,900 43,5600 44,250 45,500
47,300 50,200 51,400 52,150
53,1000 54,250 55,4200 56,1600
57,1750 58,350 59,150 65,550
66,200 67,2900 68,250 69,2200
70,300 71,2250 72,350 73,300
75,400 77,500 79,1100 80,150
81,500 82,300 83,950 84,300
85,1300 86,500 95,1800 97,9300
98,1000 110,950 111,1200 112,3800
113,850
##END=
