##TITLE=Lactic acid dimer, bis(trimethylsilyl)-
##JCAMP-DX=4.24
##DATA TYPE=MASS SPECTRUM
##ORIGIN=O A MAMER, MCGILL UNIVERSITY, MONTRE
##OWNER=NIST Mass Spectrometry Data Center
Collection (C) 2014 copyright by the U.S. Secretary of Commerce
on behalf of the United States of America. All rights reserved.
##CAS REGISTRY NO=343224-19-1
##$NIST MASS SPEC NO=79202
##MOLFORM=C12 H26 O5 Si2
##MW=306
##$NIST SOURCE=MSDC
##XUNITS=M/Z
##YUNITS=RELATIVE INTENSITY
##XFACTOR=1
##YFACTOR=1
##FIRSTX=26
##LASTX=292
##FIRSTY=160
##MAXX=292
##MINX=26
##MAXY=9999
##MINY=99
##NPOINTS=59
##PEAK TABLE=(XY..XY)
26,160 27,232 28,129 29,232
31,99 32,255 43,718 44,355
45,1247 46,114 47,347 51,110
55,1162 56,501 58,558 59,521
60,119 61,333 66,428 67,154
72,331 73,9999 74,944 75,1846
76,177 86,121 87,259 88,1068
89,136 101,304 102,307 103,175
115,111 116,165 117,8289 118,910
119,510 129,805 130,199 131,248
133,263 145,340 147,1898 148,337
149,219 162,123 185,148 191,637
192,144 215,238 218,678 219,908
220,106 221,111 227,192 233,103
262,144 291,449 292,153
##END=
