##TITLE=Nonanoic acid, 9-oxo-, ethyl ester
##JCAMP-DX=4.24
##DATA TYPE=MASS SPECTRUM
##ORIGIN=W.K.ROHWEDDER US DEPT. OF AGRICULT., PEORIA, ILLINOIS, USA
##OWNER=NIST Mass Spectrometry Data Center
Collection (C) 2014 copyright by the U.S. Secretary of Commerce
on behalf of the United States of America. All rights reserved.
##CAS REGISTRY NO=3433-16-7
##$NIST MASS SPEC NO=58123
##MOLFORM=C11 H20 O3
##MW=200
##$NIST SOURCE=MSDC
##XUNITS=M/Z
##YUNITS=RELATIVE INTENSITY
##XFACTOR=1
##YFACTOR=1
##FIRSTX=15
##LASTX=201
##FIRSTY=743
##MAXX=201
##MINX=15
##MAXY=9999
##MINY=31
##NPOINTS=130
##PEAK TABLE=(XY..XY)
15,743 16,58 17,350 18,651
19,52 26,390 27,5113 28,1716
29,9381 30,263 31,704 32,60
37,90 38,144 39,3163 40,673
41,9999 42,2603 43,6888 44,1789
45,2518 46,85 47,90 48,45
49,31 50,57 51,195 52,105
53,1046 54,1119 55,9958 56,1340
57,3527 58,1176 59,837 60,5998
61,3903 62,127 63,99 65,201
66,229 67,3994 68,1600 69,3751
70,3994 71,981 72,201 73,4791
74,608 75,127 77,192 78,68
79,865 80,526 81,1772 82,1495
83,6241 84,1764 85,676 86,201
87,933 88,9438 89,890 90,76
91,206 92,127 93,653 94,1153
95,1145 96,283 97,1461 98,2077
99,401 100,99 101,6408 102,551
103,57 105,42 107,503 108,653
109,2860 110,910 111,4963 112,695
113,161 114,57 115,1218 116,147
117,68 118,71 119,136 120,45
121,82 122,34 123,68 124,266
125,574 126,568 127,150 128,291
129,1775 130,201 135,184 136,1860
137,492 138,119 139,54 141,68
142,34 143,464 144,353 145,40
149,31 152,362 153,206 154,1402
155,5427 156,673 157,5757 158,707
159,82 169,37 170,110 171,319
172,2968 173,345 174,34 182,246
183,45 201,34
##END=
