##TITLE=Estradiol, diacetate
##JCAMP-DX=4.24
##DATA TYPE=MASS SPECTRUM
##ORIGIN=Organic Synthesis Lab, MSU, Moscow.TRC 866
##OWNER=NIST Mass Spectrometry Data Center
Collection (C) 2014 copyright by the U.S. Secretary of Commerce
on behalf of the United States of America. All rights reserved.
##CAS REGISTRY NO=3434-88-6
##$NIST MASS SPEC NO=326339
##MOLFORM=C22 H28 O4
##MW=356
##$NIST SOURCE=MSDC
##XUNITS=M/Z
##YUNITS=RELATIVE INTENSITY
##XFACTOR=1
##YFACTOR=1
##FIRSTX=27
##LASTX=358
##FIRSTY=39
##MAXX=358
##MINX=27
##MAXY=9999
##MINY=9
##NPOINTS=132
##PEAK TABLE=(XY..XY)
27,39 28,99 29,69 39,59
41,279 42,39 43,2638 44,59
51,9 53,79 55,369 57,38
65,49 67,119 68,9 69,39
71,19 77,159 78,39 79,189
80,19 81,219 83,99 85,9
89,9 91,239 92,29 93,239
94,49 95,149 97,19 102,9
103,59 104,19 105,169 106,29
107,269 108,88 109,59 111,19
115,219 116,79 117,109 119,39
120,79 121,119 122,9 127,119
128,139 129,119 130,39 131,189
132,119 133,819 134,149 135,29
141,129 142,29 143,29 144,249
145,489 146,1079 147,289 148,39
152,19 153,29 154,9 155,29
157,409 158,499 159,1049 160,849
161,129 165,29 167,9 169,9
170,89 171,199 172,1349 173,329
174,29 179,9 181,9 182,9
183,99 184,69 185,179 186,129
187,29 195,9 196,9 197,229
198,99 199,139 200,49 201,9
209,9 210,9 211,309 212,109
213,659 214,159 215,69 225,649
226,509 227,109 228,79 237,19
239,179 240,29 243,29 252,19
253,269 254,569 255,189 256,19
270,9 271,129 272,39 281,9
286,29 297,9 312,29 313,49
314,9999 315,2139 316,269 317,19
328,29 356,709 357,149 358,19
##END=
