##TITLE=Pyrrolidine, 3-methyl-
##JCAMP-DX=4.24
##DATA TYPE=MASS SPECTRUM
##ORIGIN=AP-2099
##OWNER=NIST Mass Spectrometry Data Center
Collection (C) 2014 copyright by the U.S. Secretary of Commerce
on behalf of the United States of America. All rights reserved.
##CAS REGISTRY NO=34375-89-8
##$NIST MASS SPEC NO=552
##MOLFORM=C5 H11 N
##MW=85
##$NIST SOURCE=MSDC
##XUNITS=M/Z
##YUNITS=RELATIVE INTENSITY
##XFACTOR=1
##YFACTOR=1
##FIRSTX=12
##LASTX=87
##FIRSTY=15
##MAXX=87
##MINX=12
##MAXY=9999
##MINY=1
##NPOINTS=52
##PEAK TABLE=(XY..XY)
12,15 13,24 14,102 15,574
16,20 17,60 24,1 25,14
26,199 27,891 28,1775 29,586
30,755 31,14 36,4 37,50
38,112 39,740 40,162 41,1207
42,1027 43,9999 44,443 45,9
47,3 48,2 49,13 50,66
51,84 52,95 53,121 54,103
55,403 56,408 57,236 58,19
65,18 66,7 67,140 68,323
69,109 70,177 71,10 79,3
80,41 81,11 82,125 83,53
84,1481 85,2287 86,145 87,5
##END=
