##TITLE=Thiophene, 2-iodo-
##JCAMP-DX=4.24
##DATA TYPE=MASS SPECTRUM
##ORIGIN=RADIAN CORP
##OWNER=NIST Mass Spectrometry Data Center
Collection (C) 2014 copyright by the U.S. Secretary of Commerce
on behalf of the United States of America. All rights reserved.
##CAS REGISTRY NO=3437-95-4
##$NIST MASS SPEC NO=69575
##MOLFORM=C4 H3 I S
##MW=210
##$NIST SOURCE=MSDC
##XUNITS=M/Z
##YUNITS=RELATIVE INTENSITY
##XFACTOR=1
##YFACTOR=1
##FIRSTX=26
##LASTX=212
##FIRSTY=30
##MAXX=212
##MINX=26
##MAXY=9999
##MINY=20
##NPOINTS=33
##PEAK TABLE=(XY..XY)
26,30 32,70 37,140 38,200
39,1370 40,40 44,70 45,340
49,80 50,140 56,50 57,830
58,130 59,30 69,50 80,30
81,350 82,320 83,2170 84,130
85,100 127,1290 128,40 139,30
152,70 159,50 164,20 165,180
171,60 184,80 210,9999 211,510
212,460
##END=
