##TITLE=Pyrimidine, 4-phenyl-
##JCAMP-DX=4.24
##DATA TYPE=MASS SPECTRUM
##ORIGIN=Japan AIST/NIMC Database- Spectrum MS-NW-7110
##OWNER=NIST Mass Spectrometry Data Center
Collection (C) 2014 copyright by the U.S. Secretary of Commerce
on behalf of the United States of America. All rights reserved.
##CAS REGISTRY NO=3438-48-0
##$NIST MASS SPEC NO=236135
##MOLFORM=C10 H8 N2
##MW=156
##$NIST SOURCE=MSDC
##XUNITS=M/Z
##YUNITS=RELATIVE INTENSITY
##XFACTOR=1
##YFACTOR=1
##FIRSTX=25
##LASTX=158
##FIRSTY=10
##MAXX=158
##MINX=25
##MAXY=9999
##MINY=10
##NPOINTS=72
##PEAK TABLE=(XY..XY)
25,10 26,759 27,169 28,459
29,10 37,99 38,169 39,379
40,20 41,10 42,50 43,10
44,30 49,99 50,959 51,1349
52,879 53,1099 54,60 55,10
60,10 61,109 62,209 63,409
64,119 65,40 72,10 73,70
74,469 75,609 76,1189 77,899
78,409 79,189 80,20 85,20
86,40 87,80 88,40 89,40
90,10 91,20 97,10 98,50
99,70 100,80 101,379 102,4309
103,1769 104,509 105,70 106,90
107,20 114,10 115,20 116,20
126,10 127,90 128,649 129,5909
130,679 131,50 132,10 134,80
135,10 141,10 153,10 154,10
155,919 156,9999 157,1169 158,70
##END=
