##TITLE=N-Methyl-L-prolinol
##JCAMP-DX=4.24
##DATA TYPE=MASS SPECTRUM
##ORIGIN=Chuck Anderson, Aldrich Chemical Co.
##OWNER=NIST Mass Spectrometry Data Center
Collection (C) 2014 copyright by the U.S. Secretary of Commerce
on behalf of the United States of America. All rights reserved.
##CAS REGISTRY NO=34381-71-0
##$NIST MASS SPEC NO=108426
##MOLFORM=C6 H13 N O
##MW=115
##$NIST SOURCE=MSDC
##XUNITS=M/Z
##YUNITS=RELATIVE INTENSITY
##XFACTOR=1
##YFACTOR=1
##FIRSTX=15
##LASTX=115
##FIRSTY=154
##MAXX=115
##MINX=15
##MAXY=9999
##MINY=6
##NPOINTS=42
##PEAK TABLE=(XY..XY)
15,154 18,29 26,51 27,296
28,330 29,244 30,187 31,175
32,7 36,38 38,36 39,240
40,60 41,419 42,2187 43,185
44,337 51,6 53,62 54,112
55,238 56,93 57,269 58,78
65,6 67,142 68,93 69,101
70,357 71,14 72,72 80,90
81,52 82,1312 83,160 84,9999
85,585 86,81 94,6 96,40
114,100 115,101
##END=
