##TITLE=Benzene, 1,4-dibromo-2,3,5,6-tetrafluoro-
##JCAMP-DX=4.24
##DATA TYPE=MASS SPECTRUM
##ORIGIN=Japan AIST/NIMC Database- Spectrum MS-NW-1428
##OWNER=NIST Mass Spectrometry Data Center
Collection (C) 2014 copyright by the U.S. Secretary of Commerce
on behalf of the United States of America. All rights reserved.
##CAS REGISTRY NO=344-03-6
##$NIST MASS SPEC NO=233634
##MOLFORM=C6 Br2 F4
##MW=306
##$NIST SOURCE=MSDC
##XUNITS=M/Z
##YUNITS=RELATIVE INTENSITY
##XFACTOR=1
##YFACTOR=1
##FIRSTX=14
##LASTX=312
##FIRSTY=20
##MAXX=312
##MINX=14
##MAXY=9999
##MINY=10
##NPOINTS=92
##PEAK TABLE=(XY..XY)
14,20 24,10 31,1449 32,10
36,119 40,10 43,20 44,60
45,10 48,40 55,329 56,10
60,129 62,10 67,80 69,30
72,30 74,789 75,20 79,1949
80,109 81,129 86,279 87,10
91,80 93,379 94,10 98,2579
99,129 102,10 104,80 105,99
110,409 111,20 113,90 114,80
115,20 117,1359 118,70 122,20
124,20 128,20 129,689 130,50
131,10 134,40 136,40 139,20
141,20 146,30 148,7539 149,499
150,10 153,729 154,1009 155,689
158,109 160,99 170,10 172,10
177,679 178,40 179,679 180,40
189,10 191,10 196,30 198,30
208,179 209,10 210,179 211,10
227,2729 228,179 229,2699 230,179
237,10 239,20 248,10 275,20
277,50 279,20 287,10 289,30
291,10 306,5079 307,329 308,9999
309,669 310,4849 311,329 312,10
##END=
