##TITLE=5-Bromo-2-nitrobenzotrifluoride
##JCAMP-DX=4.24
##DATA TYPE=MASS SPECTRUM
##ORIGIN=NIST Mass Spectrometry Data Center
##OWNER=NIST Mass Spectrometry Data Center
Collection (C) 2014 copyright by the U.S. Secretary of Commerce
on behalf of the United States of America. All rights reserved.
##CAS REGISTRY NO=344-38-7
##$NIST MASS SPEC NO=343315
##MOLFORM=C7 H3 Br F3 N O2
##MW=269
##$NIST SOURCE=MSDC
##XUNITS=M/Z
##YUNITS=RELATIVE INTENSITY
##XFACTOR=1
##YFACTOR=1
##FIRSTX=12
##LASTX=272
##FIRSTY=30
##MAXX=272
##MINX=12
##MAXY=9999
##MINY=20
##NPOINTS=111
##PEAK TABLE=(XY..XY)
12,30 14,60 16,80 26,90
30,6456 31,300 37,641 38,661
39,90 44,20 46,470 49,300
50,1051 51,230 52,40 56,160
57,240 60,60 61,460 62,510
63,741 64,80 68,320 69,1641
70,40 72,50 73,621 74,2903
75,3683 76,571 77,90 79,220
80,210 81,390 82,130 85,90
86,80 87,210 88,160 91,30
92,220 93,681 94,1401 95,120
99,731 100,80 103,60 104,160
105,90 106,130 107,100 108,60
109,50 111,40 112,90 113,120
117,170 118,280 119,130 122,30
123,340 124,180 125,2082 126,160
128,40 129,100 130,70 131,250
132,3023 133,250 135,60 137,60
138,70 141,50 143,2012 144,9999
145,731 152,30 153,120 154,110
155,130 156,160 158,150 159,40
160,150 161,60 163,60 173,80
175,60 192,70 194,70 211,1872
212,160 213,1802 214,120 223,2422
224,210 225,2262 226,160 239,3823
240,330 241,3733 242,310 250,210
252,220 253,280 255,220 269,3793
270,330 271,3793 272,350
##END=
