##TITLE=1,3,5-Triazin-2-amine, 4,6-dichloro-N-ethyl-
##JCAMP-DX=4.24
##DATA TYPE=MASS SPECTRUM
##OWNER=NIST Mass Spectrometry Data Center
Collection (C) 2014 copyright by the U.S. Secretary of Commerce
on behalf of the United States of America. All rights reserved.
##CAS REGISTRY NO=3440-19-5
##$NIST MASS SPEC NO=8397
##MOLFORM=C5 H6 Cl2 N4
##MW=192
##$NIST SOURCE=MSDC
##XUNITS=M/Z
##YUNITS=RELATIVE INTENSITY
##XFACTOR=1
##YFACTOR=1
##FIRSTX=94
##LASTX=197
##FIRSTY=1001
##MAXX=197
##MINX=94
##MAXY=9999
##MINY=100
##NPOINTS=34
##PEAK TABLE=(XY..XY)
94,1001 96,300 102,200 104,200
110,701 112,200 114,200 116,100
123,400 124,200 125,200 129,1201
130,200 131,500 149,400 151,200
164,2502 165,300 166,1702 167,200
168,400 177,9999 178,701 179,6706
180,400 181,1201 182,100 191,901
192,4804 193,1001 194,3003 195,500
196,601 197,100
##END=
