##TITLE=5,6,7,8-Tetrahydroquinoxaline
##JCAMP-DX=4.24
##DATA TYPE=MASS SPECTRUM
##ORIGIN=Japan AIST/NIMC Database- Spectrum MS-IW-4196
##OWNER=NIST Mass Spectrometry Data Center
Collection (C) 2014 copyright by the U.S. Secretary of Commerce
on behalf of the United States of America. All rights reserved.
##CAS REGISTRY NO=34413-35-9
##$NIST MASS SPEC NO=237300
##MOLFORM=C8 H10 N2
##MW=134
##$NIST SOURCE=MSDC
##XUNITS=M/Z
##YUNITS=RELATIVE INTENSITY
##XFACTOR=1
##YFACTOR=1
##FIRSTX=15
##LASTX=136
##FIRSTY=10
##MAXX=136
##MINX=15
##MAXY=9999
##MINY=10
##NPOINTS=65
##PEAK TABLE=(XY..XY)
15,10 26,139 27,219 28,219
29,50 30,40 37,30 38,90
39,529 40,199 41,579 42,119
49,10 50,119 51,289 52,879
53,399 54,429 55,129 56,10
59,70 62,10 63,40 64,70
65,279 66,459 67,829 68,119
69,299 70,10 74,10 75,20
76,50 77,329 78,469 79,1189
80,579 81,119 82,109 83,10
90,10 91,30 92,449 93,209
94,199 95,50 103,20 104,109
105,439 106,2239 107,679 108,99
109,10 116,30 117,40 118,379
119,2049 120,169 130,20 131,349
132,339 133,6159 134,9999 135,989
136,40
##END=
