##TITLE=Benzyl alcohol, .alpha.,.alpha.-dimethyl-p-isopropyl-
##JCAMP-DX=4.24
##DATA TYPE=MASS SPECTRUM
##ORIGIN=NIST Mass Spectrometry Data Center, 1990.
##OWNER=NIST Mass Spectrometry Data Center
Collection (C) 2014 copyright by the U.S. Secretary of Commerce
on behalf of the United States of America. All rights reserved.
##CAS REGISTRY NO=3445-42-9
##$NIST MASS SPEC NO=113054
##MOLFORM=C12 H18 O
##MW=178
##$NIST SOURCE=MSDC
##XUNITS=M/Z
##YUNITS=RELATIVE INTENSITY
##XFACTOR=1
##YFACTOR=1
##FIRSTX=50
##LASTX=178
##FIRSTY=646
##MAXX=178
##MINX=50
##MAXY=9999
##MINY=374
##NPOINTS=40
##PEAK TABLE=(XY..XY)
50,646 51,1712 52,455 53,406
59,646 63,1013 64,641 65,1161
74,1050 75,430 76,496 77,2670
78,996 79,1182 89,577 91,3481
92,374 93,483 102,620 103,1400
104,487 105,3645 115,2459 116,738
117,3128 118,419 119,806 121,1916
127,735 128,1603 129,1015 130,915
145,9999 146,1242 147,626 160,3433
161,723 163,9020 164,1150 178,780
##END=
