##TITLE=3H-1,2-Dithiole-3-thione, 5-phenyl-
##JCAMP-DX=4.24
##DATA TYPE=MASS SPECTRUM
##ORIGIN=J.MOLLER PHYS. LAB., UNIV. COPENHAGEN, COPENHAGEN, DENMARK
##OWNER=NIST Mass Spectrometry Data Center
Collection (C) 2014 copyright by the U.S. Secretary of Commerce
on behalf of the United States of America. All rights reserved.
##CAS REGISTRY NO=3445-76-9
##$NIST MASS SPEC NO=58194
##MOLFORM=C9 H6 S3
##MW=210
##$NIST SOURCE=MSDC
##XUNITS=M/Z
##YUNITS=RELATIVE INTENSITY
##XFACTOR=1
##YFACTOR=1
##FIRSTX=45
##LASTX=212
##FIRSTY=220
##MAXX=212
##MINX=45
##MAXY=9999
##MINY=220
##NPOINTS=25
##PEAK TABLE=(XY..XY)
45,220 50,320 51,600 63,300
69,600 73,380 74,230 75,230
76,740 77,600 89,260 93,270
101,400 102,2500 105,570 121,720
134,560 145,9500 146,1800 147,530
177,330 209,610 210,9999 211,1300
212,1400
##END=
