##TITLE=Benzaldehyde, 4-(methylthio)-
##JCAMP-DX=4.24
##DATA TYPE=MASS SPECTRUM
##ORIGIN=Japan AIST/NIMC Database- Spectrum MS-NW-7796
##OWNER=NIST Mass Spectrometry Data Center
Collection (C) 2014 copyright by the U.S. Secretary of Commerce
on behalf of the United States of America. All rights reserved.
##CAS REGISTRY NO=3446-89-7
##$NIST MASS SPEC NO=238602
##MOLFORM=C8 H8 O S
##MW=152
##$NIST SOURCE=MSDC
##XUNITS=M/Z
##YUNITS=RELATIVE INTENSITY
##XFACTOR=1
##YFACTOR=1
##FIRSTX=14
##LASTX=156
##FIRSTY=20
##MAXX=156
##MINX=14
##MAXY=9999
##MINY=10
##NPOINTS=107
##PEAK TABLE=(XY..XY)
14,20 15,80 18,10 26,20
27,109 28,259 29,189 31,40
32,50 36,10 37,90 38,159
39,539 40,20 41,10 44,60
45,2469 46,189 47,209 48,20
49,60 50,759 51,909 52,99
53,60 54,30 55,10 57,99
58,239 59,40 60,40 61,129
62,399 63,489 64,80 65,649
66,50 67,10 68,20 69,749
70,70 71,90 72,60 73,70
74,349 75,299 76,289 77,1049
78,389 79,1279 80,90 81,109
82,339 83,60 84,40 85,30
86,20 87,20 89,90 90,40
91,319 92,40 93,60 94,10
95,30 96,10 97,139 98,10
99,10 100,10 101,10 103,10
104,50 105,129 106,50 107,279
108,899 109,889 110,159 111,80
112,10 113,20 116,20 119,20
120,10 121,199 122,129 123,1609
124,349 125,209 126,30 127,10
134,20 135,70 136,189 137,199
138,40 139,50 140,10 149,70
150,40 151,8539 152,9999 153,1429
154,979 155,90 156,30
##END=
