##TITLE=Benzene, 1-(chloromethyl)-2-fluoro-
##JCAMP-DX=4.24
##DATA TYPE=MASS SPECTRUM
##ORIGIN=Japan AIST/NIMC Database- Spectrum MS-NW-7760
##OWNER=NIST Mass Spectrometry Data Center
Collection (C) 2014 copyright by the U.S. Secretary of Commerce
on behalf of the United States of America. All rights reserved.
##CAS REGISTRY NO=345-35-7
##$NIST MASS SPEC NO=235264
##MOLFORM=C7 H6 Cl F
##MW=144
##$NIST SOURCE=MSDC
##XUNITS=M/Z
##YUNITS=RELATIVE INTENSITY
##XFACTOR=1
##YFACTOR=1
##FIRSTX=26
##LASTX=147
##FIRSTY=30
##MAXX=147
##MINX=26
##MAXY=9999
##MINY=10
##NPOINTS=75
##PEAK TABLE=(XY..XY)
26,30 27,40 28,10 31,119
32,10 35,30 36,40 37,70
38,109 39,299 40,10 43,50
44,189 45,10 49,40 50,229
51,189 52,30 53,20 54,139
56,70 57,509 58,20 59,119
60,10 61,119 62,249 63,379
64,40 65,10 67,10 68,40
69,50 70,50 71,10 72,60
73,60 74,70 75,70 76,20
77,10 80,40 81,269 82,80
83,1219 84,60 85,40 86,50
87,50 88,20 89,179 90,20
91,20 93,20 94,20 95,10
97,10 99,10 104,10 105,30
106,10 107,599 108,209 109,9999
110,789 111,30 117,50 119,10
123,10 125,10 143,399 144,2309
145,299 146,759 147,60
##END=
