##TITLE=4,4'-Difluorobenzophenone
##JCAMP-DX=4.24
##DATA TYPE=MASS SPECTRUM
##ORIGIN=NIST Mass Spectrometry Data Center
##OWNER=NIST Mass Spectrometry Data Center
Collection (C) 2014 copyright by the U.S. Secretary of Commerce
on behalf of the United States of America. All rights reserved.
##CAS REGISTRY NO=345-92-6
##$NIST MASS SPEC NO=342694
##MOLFORM=C13 H8 F2 O
##MW=218
##$NIST SOURCE=MSDC
##XUNITS=M/Z
##YUNITS=RELATIVE INTENSITY
##XFACTOR=1
##YFACTOR=1
##FIRSTX=18
##LASTX=220
##FIRSTY=10
##MAXX=220
##MINX=18
##MAXY=9999
##MINY=10
##NPOINTS=86
##PEAK TABLE=(XY..XY)
18,10 28,10 33,20 37,50
38,100 39,160 45,10 48,10
50,731 51,440 52,20 53,30
56,30 57,190 61,70 62,100
63,120 64,10 68,320 69,581
70,90 71,10 72,10 73,70
74,490 75,2732 76,220 77,30
80,20 81,80 82,50 83,10
85,140 86,40 87,40 92,60
93,140 94,661 95,6055 96,400
97,20 98,50 99,40 100,10
104,10 105,30 106,10 107,20
109,10 110,10 111,10 117,10
118,10 119,10 120,30 123,9999
124,751 125,50 131,10 133,10
143,10 144,30 149,10 151,10
157,20 162,10 164,10 167,10
168,70 169,70 170,50 171,10
181,10 186,20 187,40 188,210
189,80 190,50 198,30 199,30
201,40 215,10 217,470 218,2893
219,420 220,30
##END=
