##TITLE=3,4-Octadiene
##JCAMP-DX=4.24
##DATA TYPE=MASS SPECTRUM
##ORIGIN=S.A. Rang et al., IR & MS of Unsatd. Hydrocarbons, 1977
##OWNER=NIST Mass Spectrometry Data Center
Collection (C) 2014 copyright by the U.S. Secretary of Commerce
on behalf of the United States of America. All rights reserved.
##CAS REGISTRY NO=34511-01-8
##$NIST MASS SPEC NO=142719
##MOLFORM=C8 H14
##MW=110
##$NIST SOURCE=MSDC
##XUNITS=M/Z
##YUNITS=RELATIVE INTENSITY
##XFACTOR=1
##YFACTOR=1
##FIRSTX=15
##LASTX=110
##FIRSTY=860
##MAXX=110
##MINX=15
##MAXY=9999
##MINY=10
##NPOINTS=34
##PEAK TABLE=(XY..XY)
15,860 26,370 27,4440 29,3210
39,4630 41,5970 42,670 43,780
50,410 51,1070 52,660 53,2340
54,800 55,1960 56,180 57,110
63,310 65,1060 67,9999 68,1360
69,570 70,20 77,1080 78,120
79,2050 80,300 81,2130 82,4510
83,220 93,290 94,260 95,1480
109,130 110,10
##END=
