##TITLE=Benzeneacetonitrile, 5-fluoro-2-nitro-
##JCAMP-DX=4.24
##DATA TYPE=MASS SPECTRUM
##ORIGIN=MASS SPECTROMETRY CENTER, UNIV. OF UTAH ALDRICH 11544-4
##OWNER=NIST Mass Spectrometry Data Center
Collection (C) 2014 copyright by the U.S. Secretary of Commerce
on behalf of the United States of America. All rights reserved.
##CAS REGISTRY NO=3456-75-5
##$NIST MASS SPEC NO=52786
##MOLFORM=C8 H5 F N2 O2
##MW=180
##$NIST SOURCE=MSDC
##XUNITS=M/Z
##YUNITS=RELATIVE INTENSITY
##XFACTOR=1
##YFACTOR=1
##FIRSTX=12
##LASTX=181
##FIRSTY=44
##MAXX=181
##MINX=12
##MAXY=9999
##MINY=8
##NPOINTS=110
##PEAK TABLE=(XY..XY)
12,44 20,152 26,291 27,1248
29,173 30,1879 31,1151 33,441
36,27 37,492 38,651 39,1066
40,175 41,65 42,9 43,35
44,99 45,263 46,254 49,241
50,1359 51,769 52,316 53,42
54,1363 55,134 56,536 57,3582
58,234 59,283 60,37 61,695
62,1072 63,1266 64,597 65,154
67,110 68,636 69,446 70,920
71,160 73,207 74,716 75,1490
76,622 77,201 78,52 79,17
80,403 81,1946 82,2048 83,1729
84,385 85,304 86,344 87,768
88,655 89,327 90,247 92,259
93,352 94,870 95,2381 96,695
97,3246 98,398 99,185 100,238
101,8 102,571 103,140 104,42
105,425 106,1325 107,9999 108,6631
109,5123 110,1735 111,602 112,158
113,289 114,406 115,311 116,9
120,190 121,322 122,908 123,510
124,186 125,445 126,8 130,18
132,1368 133,1562 134,2733 135,2540
136,897 137,581 138,265 149,105
150,476 151,104 152,19 153,4358
154,351 162,106 163,4060 164,547
180,1360 181,215
##END=
