##TITLE=Ethandione, bis(p-tolyl)-
##JCAMP-DX=4.24
##DATA TYPE=MASS SPECTRUM
##ORIGIN=NIST Mass Spectrometry Data Center, 1994
##OWNER=NIST Mass Spectrometry Data Center
Collection (C) 2014 copyright by the U.S. Secretary of Commerce
on behalf of the United States of America. All rights reserved.
##CAS REGISTRY NO=3457-48-5
##$NIST MASS SPEC NO=133656
##MOLFORM=C16 H14 O2
##MW=238
##$NIST SOURCE=MSDC
##XUNITS=M/Z
##YUNITS=RELATIVE INTENSITY
##XFACTOR=1
##YFACTOR=1
##FIRSTX=26
##LASTX=239
##FIRSTY=12
##MAXX=239
##MINX=26
##MAXY=9999
##MINY=7
##NPOINTS=39
##PEAK TABLE=(XY..XY)
26,12 27,40 28,14 37,11
38,73 39,606 40,58 41,181
45,9 50,149 51,238 52,50
53,33 61,22 62,128 63,431
64,180 65,1917 66,118 74,34
75,47 76,43 77,19 86,20
87,21 89,412 91,3708 92,299
93,8 115,7 119,9999 120,921
121,62 139,7 165,25 166,11
178,8 238,428 239,76
##END=
