##TITLE=1,4-Butanediol, dinitrate
##JCAMP-DX=4.24
##DATA TYPE=MASS SPECTRUM
##ORIGIN=MINISTRY OF TECH. E.R.D.E., WALTHAM ABBEY, UK
##OWNER=NIST Mass Spectrometry Data Center
Collection (C) 2014 copyright by the U.S. Secretary of Commerce
on behalf of the United States of America. All rights reserved.
##CAS REGISTRY NO=3457-91-8
##$NIST MASS SPEC NO=7517
##MOLFORM=C4 H8 N2 O6
##MW=180
##$NIST SOURCE=MSDC
##XUNITS=M/Z
##YUNITS=RELATIVE INTENSITY
##XFACTOR=1
##YFACTOR=1
##FIRSTX=12
##LASTX=90
##FIRSTY=20
##MAXX=90
##MINX=12
##MAXY=9999
##MINY=10
##NPOINTS=39
##PEAK TABLE=(XY..XY)
12,20 13,10 14,80 15,240
25,20 26,220 27,980 28,1470
29,2540 30,2140 31,840 32,70
37,10 38,30 39,190 40,100
41,760 42,820 43,530 44,260
45,80 46,9999 47,80 55,170
56,50 57,600 58,200 59,20
60,150 69,40 70,30 71,180
72,60 73,10 76,3970 77,70
78,20 88,10 90,10
##END=
