##TITLE=1,3-Propanediol, dinitrate
##JCAMP-DX=4.24
##DATA TYPE=MASS SPECTRUM
##ORIGIN=MINISTRY OF TECH. E.R.D.E., WALTHAM ABBEY, UK
##OWNER=NIST Mass Spectrometry Data Center
Collection (C) 2014 copyright by the U.S. Secretary of Commerce
on behalf of the United States of America. All rights reserved.
##CAS REGISTRY NO=3457-90-7
##$NIST MASS SPEC NO=6354
##MOLFORM=C3 H6 N2 O6
##MW=166
##$NIST SOURCE=MSDC
##XUNITS=M/Z
##YUNITS=RELATIVE INTENSITY
##XFACTOR=1
##YFACTOR=1
##FIRSTX=12
##LASTX=104
##FIRSTY=20
##MAXX=104
##MINX=12
##MAXY=9999
##MINY=20
##NPOINTS=34
##PEAK TABLE=(XY..XY)
12,20 13,30 14,90 15,300
16,60 24,20 25,20 26,100
27,420 28,710 29,1290 30,1510
31,220 39,50 40,20 41,100
42,220 43,810 44,190 45,200
46,9999 47,50 55,100 56,80
57,230 58,70 59,60 60,70
71,140 73,50 76,1630 85,40
90,50 104,20
##END=
