##TITLE=10H-Benzo[4,5]cyclohepta[1,2-b]thiophen-10-one, 4,9-dihydro-4-(1-methyl-4-piperidinylidene)-
##JCAMP-DX=4.24
##DATA TYPE=MASS SPECTRUM
##ORIGIN=Tox21 Consortium/NIST Mass Spectrometry Data Center, 2012
##OWNER=NIST Mass Spectrometry Data Center
Collection (C) 2014 copyright by the U.S. Secretary of Commerce
on behalf of the United States of America. All rights reserved.
##CAS REGISTRY NO=34580-13-7
##$NIST MASS SPEC NO=408571
##MOLFORM=C19 H19 N O S
##MW=309
##$NIST SOURCE=MSDC
##XUNITS=M/Z
##YUNITS=RELATIVE INTENSITY
##XFACTOR=1
##YFACTOR=1
##FIRSTX=15
##LASTX=313
##FIRSTY=80
##MAXX=313
##MINX=15
##MAXY=9999
##MINY=10
##NPOINTS=265
##PEAK TABLE=(XY..XY)
15,80 26,10 27,140 28,120
29,60 30,90 31,20 37,10
38,20 39,250 40,30 41,200
42,3683 43,1722 44,1822 45,340
46,20 47,20 49,10 50,70
51,230 52,70 53,200 54,90
55,120 56,210 57,2793 58,2853
59,150 60,10 61,10 62,80
63,360 64,60 65,170 66,50
67,80 68,110 69,230 70,2632
71,971 72,100 73,30 74,130
75,220 76,190 77,310 78,110
79,110 80,90 81,220 82,510
83,210 84,90 85,40 86,90
87,180 88,180 89,410 90,60
91,220 92,110 93,190 94,1171
95,400 96,9198 97,1561 98,190
99,100 100,50 101,170 102,220
103,120 104,320 105,80 106,60
107,110 108,140 109,911 110,240
111,310 112,60 113,210 114,170
115,741 116,150 117,190 118,130
119,90 120,90 121,110 122,70
123,90 124,130 125,160 126,250
127,330 128,340 129,90 130,60
131,50 132,90 133,60 134,120
135,50 136,20 137,170 138,180
139,1111 140,230 141,340 142,60
143,30 144,50 145,260 147,130
148,30 149,70 150,380 151,611
152,1231 153,380 154,100 155,90
156,40 157,40 158,110 159,40
160,20 161,40 162,100 163,841
164,731 165,2592 166,450 167,100
168,50 169,90 170,110 171,430
172,80 173,50 174,90 175,120
176,821 177,310 178,1111 179,550
180,120 181,70 182,140 183,190
184,1181 185,370 186,110 187,160
188,140 189,1321 190,801 191,781
192,280 193,160 194,80 195,360
196,240 197,520 198,430 199,130
200,110 201,100 202,631 203,671
204,320 205,470 206,140 207,150
208,2873 209,2162 210,691 211,280
212,90 213,510 214,110 215,100
216,70 217,70 218,160 219,160
220,130 221,2142 222,921 223,1381
224,480 225,290 226,140 227,60
228,30 229,10 230,10 231,40
232,130 233,210 234,410 235,530
236,250 237,1752 238,701 239,370
240,150 241,40 242,10 243,10
244,20 245,70 246,60 247,250
248,220 249,320 250,260 251,661
252,320 253,140 254,50 255,10
257,10 258,20 259,30 260,40
261,60 262,60 263,90 264,80
265,801 266,571 267,140 268,50
269,10 273,10 274,40 275,30
276,781 277,210 278,100 279,30
280,440 281,230 282,60 283,20
288,10 289,10 290,190 291,80
292,550 293,120 294,230 295,50
296,10 306,110 307,140 308,2242
309,9999 310,2272 311,641 312,100
313,20
##END=
