##TITLE=d-Mannose
##JCAMP-DX=4.24
##DATA TYPE=MASS SPECTRUM
##ORIGIN=RADIAN CORP
##OWNER=NIST Mass Spectrometry Data Center
Collection (C) 2014 copyright by the U.S. Secretary of Commerce
on behalf of the United States of America. All rights reserved.
##CAS REGISTRY NO=3458-28-4
##$NIST MASS SPEC NO=76401
##MOLFORM=C6 H12 O6
##MW=180
##$NIST SOURCE=MSDC
##XUNITS=M/Z
##YUNITS=RELATIVE INTENSITY
##XFACTOR=1
##YFACTOR=1
##FIRSTX=14
##LASTX=180
##FIRSTY=30
##MAXX=180
##MINX=14
##MAXY=9999
##MINY=10
##NPOINTS=148
##PEAK TABLE=(XY..XY)
14,30 15,160 16,40 17,180
18,720 19,290 20,10 25,40
26,170 27,620 28,1610 29,3780
30,800 31,3540 32,630 33,70
35,120 36,750 37,90 38,320
39,400 40,160 41,1100 42,1760
43,4780 44,2820 45,1730 46,180
47,380 48,20 49,180 50,80
51,90 52,50 53,190 54,290
55,1730 56,1500 57,2570 58,980
59,400 60,5980 61,3550 62,190
63,50 64,50 65,60 66,110
67,280 68,360 69,1330 70,460
71,2620 72,1300 73,9999 74,1170
75,200 76,110 77,380 78,40
79,160 80,60 81,370 82,190
83,510 84,340 85,1110 86,800
87,430 88,170 89,380 90,330
91,460 92,80 93,170 94,100
95,230 96,230 97,610 98,410
99,150 100,100 101,580 102,540
103,1270 104,120 105,80 106,30
107,80 108,30 109,100 110,100
111,180 112,100 113,240 114,90
115,190 116,140 117,70 118,30
119,350 120,70 121,270 122,50
123,80 124,60 125,70 126,60
127,100 128,40 129,240 130,50
131,630 132,80 133,250 134,40
135,60 136,50 137,70 138,420
139,60 140,30 141,30 142,30
143,50 144,70 145,50 146,10
147,50 148,20 149,920 150,90
151,50 152,40 153,20 155,20
157,50 158,10 159,20 160,30
161,30 162,10 163,30 164,30
165,30 166,20 179,10 180,10
##END=
