##TITLE=1H-Inden-1-one, 5-bromo-2,3-dihydro-
##JCAMP-DX=4.24
##DATA TYPE=MASS SPECTRUM
##ORIGIN=NIST Mass Spectrometry Data Center, 1994
##OWNER=NIST Mass Spectrometry Data Center
Collection (C) 2014 copyright by the U.S. Secretary of Commerce
on behalf of the United States of America. All rights reserved.
##CAS REGISTRY NO=34598-49-7
##$NIST MASS SPEC NO=136763
##MOLFORM=C9 H7 Br O
##MW=210
##$NIST SOURCE=MSDC
##XUNITS=M/Z
##YUNITS=RELATIVE INTENSITY
##XFACTOR=1
##YFACTOR=1
##FIRSTX=13
##LASTX=213
##FIRSTY=82
##MAXX=213
##MINX=13
##MAXY=9999
##MINY=41
##NPOINTS=74
##PEAK TABLE=(XY..XY)
13,82 14,143 15,232 18,154
26,580 27,1465 28,682 29,194
36,86 37,730 38,1340 39,1446
40,132 41,86 42,400 44,41
49,805 50,4078 51,5660 52,809
53,531 55,206 60,78 61,790
62,1796 63,2752 64,340 65,359
73,740 74,3678 75,4508 76,2752
77,5333 78,499 79,267 80,106
81,200 82,96 85,283 86,470
87,558 88,355 89,575 90,318
91,265 97,123 98,527 99,215
100,128 101,881 102,4811 103,9070
104,1012 105,174 117,137 119,131
130,144 131,1012 132,147 154,640
155,316 156,920 157,289 158,183
181,575 182,3658 183,1179 184,3749
185,644 209,3428 210,9999 211,4387
212,9890 213,953
##END=
