##TITLE=Phenol, 2,6-dichloro-4-(1-methylpropyl)-
##JCAMP-DX=4.24
##DATA TYPE=MASS SPECTRUM
##OWNER=NIST Mass Spectrometry Data Center
Collection (C) 2014 copyright by the U.S. Secretary of Commerce
on behalf of the United States of America. All rights reserved.
##CAS REGISTRY NO=34593-74-3
##$NIST MASS SPEC NO=10223
##MOLFORM=C10 H12 Cl2 O
##MW=218
##$NIST SOURCE=MSDC
##XUNITS=M/Z
##YUNITS=RELATIVE INTENSITY
##XFACTOR=1
##YFACTOR=1
##FIRSTX=37
##LASTX=225
##FIRSTY=20
##MAXX=225
##MINX=37
##MAXY=9999
##MINY=10
##NPOINTS=150
##PEAK TABLE=(XY..XY)
37,20 38,50 39,310 40,30
41,310 42,10 43,60 44,50
45,20 49,30 50,120 51,340
52,40 53,250 54,20 55,180
56,20 57,50 58,20 59,30
60,10 61,90 62,170 63,410
64,70 65,170 66,460 67,20
68,40 69,30 72,40 73,190
74,90 75,300 76,100 77,220
78,40 79,30 81,10 82,20
83,50 84,30 85,60 86,50
87,110 88,50 89,691 90,160
91,270 92,30 93,10 95,10
96,20 97,90 98,50 99,200
100,40 101,120 102,80 103,110
104,40 105,30 107,20 110,10
111,130 112,30 113,60 114,20
115,50 116,20 117,140 118,130
119,130 120,20 123,90 124,40
125,821 126,160 127,290 128,110
129,20 130,20 131,140 132,90
133,100 135,60 136,50 137,30
138,20 139,30 140,10 141,100
142,10 143,30 145,20 146,20
147,20 149,10 151,10 152,60
153,340 154,1391 155,290 156,450
158,60 159,30 161,180 162,60
163,150 164,50 165,60 166,50
167,50 168,60 169,20 170,10
171,10 175,711 176,60 177,460
178,40 179,80 180,10 181,10
183,20 184,10 186,10 187,50
188,180 189,9999 190,1011 191,6426
192,601 193,1061 194,100 201,10
202,20 203,340 204,50 205,210
206,30 207,40 217,40 218,2042
219,250 220,1331 221,160 222,220
223,40 225,10
##END=
