##TITLE=4-Chloro-7-(trifluoromethyl)quinoline
##JCAMP-DX=4.24
##DATA TYPE=MASS SPECTRUM
##ORIGIN=Japan AIST/NIMC Database- Spectrum MS-IW-1176
##OWNER=NIST Mass Spectrometry Data Center
Collection (C) 2014 copyright by the U.S. Secretary of Commerce
on behalf of the United States of America. All rights reserved.
##CAS REGISTRY NO=346-55-4
##$NIST MASS SPEC NO=239014
##MOLFORM=C10 H5 Cl F3 N
##MW=231
##$NIST SOURCE=MSDC
##XUNITS=M/Z
##YUNITS=RELATIVE INTENSITY
##XFACTOR=1
##YFACTOR=1
##FIRSTX=31
##LASTX=235
##FIRSTY=10
##MAXX=235
##MINX=31
##MAXY=9999
##MINY=10
##NPOINTS=126
##PEAK TABLE=(XY..XY)
31,10 37,20 38,20 39,10
49,30 50,159 51,80 52,20
57,30 61,50 62,90 63,70
64,10 65,10 67,10 68,10
69,129 72,10 73,80 74,299
75,299 76,60 77,60 78,10
81,40 84,30 85,30 86,30
87,40 88,179 89,20 92,20
93,40 94,10 95,30 97,309
98,169 99,369 100,159 101,30
102,10 104,10 105,40 106,40
107,20 108,10 109,20 110,10
111,10 112,10 114,10 115,269
116,80 117,20 118,40 119,179
120,20 123,50 124,50 125,40
126,139 127,209 128,20 131,10
133,10 135,50 136,10 137,20
138,20 142,10 143,99 144,30
145,99 146,129 147,20 149,249
150,99 151,10 153,10 154,10
156,20 157,10 161,20 162,209
163,30 164,70 165,10 166,30
167,50 168,169 169,1509 170,159
171,10 174,10 175,20 176,899
177,129 180,10 181,509 182,50
183,169 184,40 185,30 186,10
187,10 192,20 194,129 195,90
196,4969 197,549 198,30 203,80
204,20 205,20 210,60 211,90
212,659 213,99 214,209 215,20
230,229 231,9999 232,1219 233,3279
234,369 235,20
##END=
