##TITLE=2,5-di-tert-Butylnitrobenzene
##JCAMP-DX=4.24
##DATA TYPE=MASS SPECTRUM
##ORIGIN=Japan AIST/NIMC Database- Spectrum MS-IW-6577
##OWNER=NIST Mass Spectrometry Data Center
Collection (C) 2014 copyright by the U.S. Secretary of Commerce
on behalf of the United States of America. All rights reserved.
##CAS REGISTRY NO=3463-35-2
##$NIST MASS SPEC NO=241914
##MOLFORM=C14 H21 N O2
##MW=235
##$NIST SOURCE=MSDC
##XUNITS=M/Z
##YUNITS=RELATIVE INTENSITY
##XFACTOR=1
##YFACTOR=1
##FIRSTX=15
##LASTX=237
##FIRSTY=10
##MAXX=237
##MINX=15
##MAXY=9999
##MINY=10
##NPOINTS=138
##PEAK TABLE=(XY..XY)
15,10 27,70 28,30 29,299
30,10 39,159 40,10 41,679
42,30 43,409 44,10 45,10
50,20 51,109 52,30 53,90
54,10 55,159 56,20 57,1459
58,80 59,10 62,10 63,60
64,70 65,129 66,60 67,40
69,30 70,10 71,30 72,10
73,10 74,10 75,30 76,30
77,209 78,60 79,99 80,40
81,20 83,10 87,20 88,10
89,60 90,20 91,479 92,70
93,50 94,99 95,20 101,10
102,99 103,109 104,60 105,199
106,50 107,50 108,40 109,10
115,359 116,139 117,349 118,169
119,159 120,60 121,30 122,60
127,80 128,289 129,209 130,99
131,279 132,369 133,129 134,109
135,30 136,40 139,10 141,80
142,70 143,239 144,139 145,129
146,209 147,379 148,109 149,40
150,139 151,20 152,10 153,10
154,10 155,10 156,20 157,50
158,179 159,549 160,279 161,139
162,159 163,60 164,60 170,20
171,20 172,70 173,99 174,149
175,509 176,139 177,40 178,60
179,10 184,10 185,10 186,70
187,80 188,439 189,129 190,199
191,30 192,30 200,30 201,10
202,90 203,229 204,60 205,50
206,10 218,279 219,30 220,9999
221,1489 222,139 223,10 235,1779
236,309 237,30
##END=
