##TITLE=Cholesteryl chloroacetate
##JCAMP-DX=4.24
##DATA TYPE=MASS SPECTRUM
##ORIGIN=Organic Synthesis Lab, MSU, Moscow.TRC 643
##OWNER=NIST Mass Spectrometry Data Center
Collection (C) 2014 copyright by the U.S. Secretary of Commerce
on behalf of the United States of America. All rights reserved.
##CAS REGISTRY NO=3464-50-4
##$NIST MASS SPEC NO=326245
##MOLFORM=C29 H47 Cl O2
##MW=462
##$NIST SOURCE=MSDC
##XUNITS=M/Z
##YUNITS=RELATIVE INTENSITY
##XFACTOR=1
##YFACTOR=1
##FIRSTX=27
##LASTX=462
##FIRSTY=771
##MAXX=462
##MINX=27
##MAXY=9999
##MINY=10
##NPOINTS=271
##PEAK TABLE=(XY..XY)
27,771 29,1491 30,20 31,250
35,20 36,220 37,60 38,90
39,691 40,250 41,3303 42,681
43,8047 44,611 45,460 46,40
48,10 49,540 50,310 51,270
52,130 53,631 54,100 55,3633
56,550 57,2062 58,651 59,1161
60,170 63,10 65,280 66,120
67,2312 68,300 69,1692 70,220
71,1461 72,130 73,80 74,20
75,20 77,1631 78,480 79,2452
80,370 81,3563 82,370 83,721
84,110 85,420 86,50 87,60
89,20 91,2793 92,721 93,2532
94,711 95,2392 96,240 97,430
98,80 99,280 100,70 101,70
103,210 104,220 105,3183 106,1101
107,2983 108,1021 109,1361 110,170
111,290 112,30 113,80 114,40
115,310 116,210 117,1091 118,601
119,1732 120,1812 121,2592 122,490
123,550 124,70 125,80 126,70
127,80 128,571 129,711 130,390
131,1601 132,500 133,1922 134,561
135,1461 136,270 137,200 138,30
139,40 140,40 141,290 142,260
143,1531 144,581 145,3153 146,1161
147,2943 148,1081 149,881 150,150
151,220 152,50 153,70 154,30
155,190 156,150 157,841 158,911
159,1732 160,931 161,1101 162,330
163,480 164,120 165,80 166,10
167,40 168,20 169,180 170,70
171,510 172,230 173,611 174,250
175,300 176,110 177,210 178,40
179,40 181,50 182,30 183,200
184,70 185,470 186,180 187,300
188,80 189,140 190,60 191,140
192,30 193,80 194,20 195,70
196,20 197,230 198,80 199,561
200,220 201,280 202,50 203,50
204,30 205,290 206,200 207,50
209,60 210,10 211,250 212,190
213,1491 214,540 215,290 216,80
217,30 218,20 219,70 220,10
223,20 225,110 226,230 227,310
228,490 229,260 230,100 231,30
233,30 237,70 238,20 239,270
240,120 241,520 242,160 243,100
244,50 245,150 246,130 247,1141
248,290 251,30 252,40 253,320
254,380 255,1401 256,1461 257,390
258,150 259,120 260,891 261,300
262,30 265,70 267,40 268,40
269,120 270,891 271,270 272,751
273,170 274,80 275,110 280,40
281,100 282,110 283,651 284,390
285,80 286,340 287,70 288,40
295,10 296,190 297,170 298,3223
299,781 300,340 301,50 310,20
311,60 312,510 313,130 314,190
315,50 324,20 325,20 326,270
327,80 328,100 339,20 340,60
342,30 347,20 349,10 351,60
352,30 353,1291 354,440 355,50
366,310 367,220 368,9999 369,3163
370,460 371,40 382,110 384,220
385,40 386,40 462,30
##END=
