##TITLE=Phosphorodithioic acid, O-(2,4-dichlorophenyl) O-ethyl S-propyl ester
##JCAMP-DX=4.24
##DATA TYPE=MASS SPECTRUM
##ORIGIN=ACCUSTANDARD Chemicals / NIST MS Data Center.
##OWNER=NIST Mass Spectrometry Data Center
Collection (C) 2014 copyright by the U.S. Secretary of Commerce
on behalf of the United States of America. All rights reserved.
##CAS REGISTRY NO=34643-46-4
##$NIST MASS SPEC NO=125564
##MOLFORM=C11 H15 Cl2 O2 P S2
##MW=344
##$NIST SOURCE=MSDC
##XUNITS=M/Z
##YUNITS=RELATIVE INTENSITY
##XFACTOR=1
##YFACTOR=1
##FIRSTX=12
##LASTX=348
##FIRSTY=7
##MAXX=348
##MINX=12
##MAXY=9999
##MINY=7
##NPOINTS=228
##PEAK TABLE=(XY..XY)
12,7 13,49 14,38 15,869
19,27 26,1377 27,9134 28,125
29,8310 30,200 31,55 33,55
34,49 35,90 36,54 37,183
38,406 39,2490 40,49 41,6834
42,1500 43,9999 44,436 45,1808
46,933 47,2300 48,181 49,197
50,236 51,144 52,33 53,125
57,45 58,263 59,350 60,220
61,394 62,1022 63,4657 64,275
65,245 66,42 69,180 70,30
71,146 72,326 73,1645 74,846
75,1186 76,92 77,46 78,30
79,213 80,551 81,535 82,99
83,406 84,131 85,296 86,61
87,86 89,46 90,19 91,88
92,54 93,155 94,19 95,935
96,374 97,1061 98,699 99,569
100,260 101,142 102,15 103,50
104,24 105,84 106,15 107,495
108,15 109,880 110,155 111,315
112,15 113,6042 114,209 115,521
116,18 117,45 119,27 121,193
122,36 123,181 124,18 125,408
126,279 127,348 128,123 129,138
130,124 131,191 132,18 133,2447
134,18 135,1485 136,142 137,299
138,36 139,966 140,18 141,2128
142,337 143,255 144,98 145,249
146,97 147,160 148,69 149,50
151,235 153,51 155,3288 156,212
157,342 159,286 161,1818 162,4512
163,1334 164,2866 165,427 166,553
167,415 168,27 169,36 170,32
171,29 173,495 174,185 175,219
176,126 177,425 178,843 179,314
180,525 181,93 182,27 183,1303
184,117 185,125 186,18 187,18
189,241 190,31 191,128 192,29
193,99 194,19 195,60 204,108
205,323 206,149 207,91 208,154
209,553 210,140 211,327 212,43
213,73 221,250 222,55 223,193
224,34 225,87 232,44 234,28
235,16 239,2108 240,469 241,1393
242,164 243,380 244,44 245,58
246,22 255,328 257,383 258,64
259,119 260,18 261,34 262,16
266,1649 267,4995 268,1064 269,1898
270,225 271,191 273,155 274,65
275,118 276,20 277,43 281,612
282,116 283,245 284,30 285,37
299,60 301,59 302,198 303,105
304,175 305,54 306,42 309,4234
310,728 311,1694 312,239 313,146
314,17 315,26 317,25 344,65
345,71 346,57 347,58 348,22
##END=
