##TITLE=Selenophene, tetrahydro-
##JCAMP-DX=4.24
##DATA TYPE=MASS SPECTRUM
##OWNER=NIST Mass Spectrometry Data Center
Collection (C) 2014 copyright by the U.S. Secretary of Commerce
on behalf of the United States of America. All rights reserved.
##CAS REGISTRY NO=3465-98-3
##$NIST MASS SPEC NO=28786
##MOLFORM=C4 H8 Se
##MW=136
##$NIST SOURCE=MSDC
##XUNITS=M/Z
##YUNITS=RELATIVE INTENSITY
##XFACTOR=1
##YFACTOR=1
##FIRSTX=38
##LASTX=138
##FIRSTY=39
##MAXX=138
##MINX=38
##MAXY=9999
##MINY=39
##NPOINTS=30
##PEAK TABLE=(XY..XY)
38,39 39,814 40,1550 42,698
51,233 53,698 54,853 55,9999
56,388 80,310 81,233 90,465
91,1163 92,930 93,853 94,1938
95,465 96,310 104,310 105,426
106,659 107,736 108,1085 110,233
132,543 133,620 134,1240 135,233
136,2597 138,465
##END=
