##TITLE=2,2'-Bipyrimidine
##JCAMP-DX=4.24
##DATA TYPE=MASS SPECTRUM
##ORIGIN=ALPHA Chemicals / NIST MS Data Center.
##OWNER=NIST Mass Spectrometry Data Center
Collection (C) 2014 copyright by the U.S. Secretary of Commerce
on behalf of the United States of America. All rights reserved.
##CAS REGISTRY NO=34671-83-5
##$NIST MASS SPEC NO=125354
##MOLFORM=C8 H6 N4
##MW=158
##$NIST SOURCE=MSDC
##XUNITS=M/Z
##YUNITS=RELATIVE INTENSITY
##XFACTOR=1
##YFACTOR=1
##FIRSTX=17
##LASTX=160
##FIRSTY=18
##MAXX=160
##MINX=17
##MAXY=9999
##MINY=8
##NPOINTS=33
##PEAK TABLE=(XY..XY)
17,18 18,26 24,39 26,1712
28,192 29,8 37,81 38,198
39,171 40,51 50,84 51,554
52,1291 53,1495 54,51 63,37
64,42 76,58 77,246 78,1082
79,1056 80,984 81,61 93,35
105,4294 106,580 107,30 130,275
131,929 132,122 158,9999 159,1003
160,53
##END=
