##TITLE=2-Butenedioic acid (E)-, bis[5-methyl-2-(1-methylethyl)cyclohexyl] ester, [1R-[1.alpha.(1R*,2S*,5R*),2.beta.,5.alpha.]]-
##JCAMP-DX=4.24
##DATA TYPE=MASS SPECTRUM
##ORIGIN=D.HENNEBERG, MAX-PLANCK INSTITUTE, MULHEIM, WEST GERMANY
##OWNER=NIST Mass Spectrometry Data Center
Collection (C) 2014 copyright by the U.S. Secretary of Commerce
on behalf of the United States of America. All rights reserved.
##CAS REGISTRY NO=34675-24-6
##$NIST MASS SPEC NO=61071
##MOLFORM=C24 H40 O4
##MW=392
##$NIST SOURCE=MSDC
##XUNITS=M/Z
##YUNITS=RELATIVE INTENSITY
##XFACTOR=1
##YFACTOR=1
##FIRSTX=26
##LASTX=378
##FIRSTY=136
##MAXX=378
##MINX=26
##MAXY=9999
##MINY=3
##NPOINTS=179
##PEAK TABLE=(XY..XY)
26,136 27,843 28,498 29,841
30,20 31,38 32,54 35,4
36,32 37,7 38,14 39,375
40,83 41,2720 42,214 43,2102
44,104 45,78 46,5 49,7
50,19 51,41 52,31 53,377
54,616 55,3874 56,388 57,2288
58,100 59,53 60,10 61,4
62,11 63,19 65,92 66,61
67,1602 68,558 69,2525 70,226
71,470 72,67 73,57 74,8
75,5 76,7 77,145 78,33
79,369 80,720 81,6904 82,2800
83,5142 84,363 85,82 86,15
87,7 88,18 89,11 90,5
91,94 92,28 93,240 94,1002
95,7776 96,1967 97,845 98,70
99,2743 100,1090 101,67 102,9
103,9 104,6 105,24 106,7
107,70 108,27 109,640 110,311
111,148 112,49 113,46 114,6
115,7 116,7 117,134 118,101
119,26 120,5 121,63 122,24
123,2573 124,260 125,28 126,7
127,11 128,4 129,4 131,20
132,5 133,7 134,6 135,26
136,107 137,1121 138,9999 139,4469
140,399 141,102 142,11 143,7
145,3 147,7 148,3 149,61
150,9 151,6 152,6 153,62
154,19 155,499 156,63 157,8
158,3 159,9 161,3 163,9
164,5 165,8 166,14 167,12
168,9 169,6 171,3 173,11
176,4 177,9 179,3 180,5
182,3 183,4 191,13 192,3
193,11 194,12 195,11 201,4
202,4 203,5 205,5 207,3
208,17 209,12 210,4 211,12
212,3 218,22 219,25 220,5
221,6 223,7 235,5 236,63
237,88 238,36 239,19 240,3
252,5 253,19 254,457 255,122
256,26 257,4 291,12 293,4
349,7 377,26 378,6
##END=
