##TITLE=Butocarboxim
##JCAMP-DX=4.24
##DATA TYPE=MASS SPECTRUM
##ORIGIN=S.M. Lee, CA Export Lab. Services, CA, USA
##OWNER=NIST Mass Spectrometry Data Center
Collection (C) 2014 copyright by the U.S. Secretary of Commerce
on behalf of the United States of America. All rights reserved.
##CAS REGISTRY NO=34681-10-2
##$NIST MASS SPEC NO=290066
##MOLFORM=C7 H14 N2 O2 S
##MW=190
##$NIST SOURCE=MSDC
##XUNITS=M/Z
##YUNITS=RELATIVE INTENSITY
##XFACTOR=1
##YFACTOR=1
##FIRSTX=51
##LASTX=175
##FIRSTY=90
##MAXX=175
##MINX=51
##MAXY=9999
##MINY=10
##NPOINTS=60
##PEAK TABLE=(XY..XY)
51,90 52,100 53,210 54,550
55,530 56,70 57,90 58,190
59,50 60,20 61,10 62,10
63,400 64,140 65,200 66,50
67,40 68,571 69,530 70,140
71,30 72,20 73,30 74,10
79,180 80,140 81,360 82,20
83,20 84,210 85,370 86,9999
87,520 88,40 89,10 92,20
93,20 95,10 106,10 107,70
108,330 109,30 110,40 111,10
134,60 135,30 136,10 137,50
138,10 148,20 149,80 150,120
151,10 152,20 162,10 163,40
164,20 165,60 166,10 175,20
##END=
