##TITLE=Propanal, dipropylhydrazone
##JCAMP-DX=4.24
##DATA TYPE=MASS SPECTRUM
##ORIGIN=ATLAS OF MASS SPECTRA OF ORGANIC COMPOUNDS, V. A. KOPTYUG, ED.
##OWNER=NIST Mass Spectrometry Data Center
Collection (C) 2014 copyright by the U.S. Secretary of Commerce
on behalf of the United States of America. All rights reserved.
##CAS REGISTRY NO=34687-35-9
##$NIST MASS SPEC NO=64504
##MOLFORM=C9 H20 N2
##MW=156
##$NIST SOURCE=MSDC
##XUNITS=M/Z
##YUNITS=RELATIVE INTENSITY
##XFACTOR=1
##YFACTOR=1
##FIRSTX=28
##LASTX=157
##FIRSTY=360
##MAXX=157
##MINX=28
##MAXY=9999
##MINY=50
##NPOINTS=31
##PEAK TABLE=(XY..XY)
28,360 29,430 30,2400 31,50
39,330 40,80 41,1920 42,810
43,2530 44,230 54,90 55,80
56,740 57,110 58,390 59,70
70,470 71,80 72,390 83,60
85,3290 86,150 97,50 98,60
99,2470 100,60 113,85 127,9999
128,690 156,1580 157,150
##END=
