##TITLE=Pentamethylphenylacetonitrile
##JCAMP-DX=4.24
##DATA TYPE=MASS SPECTRUM
##ORIGIN=NIST Mass Spectrometry Data Center, 1994
##OWNER=NIST Mass Spectrometry Data Center
Collection (C) 2014 copyright by the U.S. Secretary of Commerce
on behalf of the United States of America. All rights reserved.
##CAS REGISTRY NO=34688-70-5
##$NIST MASS SPEC NO=134789
##MOLFORM=C13 H17 N
##MW=187
##$NIST SOURCE=MSDC
##XUNITS=M/Z
##YUNITS=RELATIVE INTENSITY
##XFACTOR=1
##YFACTOR=1
##FIRSTX=14
##LASTX=189
##FIRSTY=68
##MAXX=189
##MINX=14
##MAXY=9999
##MINY=39
##NPOINTS=104
##PEAK TABLE=(XY..XY)
14,68 15,713 16,60 18,95
27,2654 28,1286 29,889 37,39
39,3235 40,636 41,2569 42,185
43,103 50,641 51,2286 52,980
53,1637 54,236 55,492 57,207
58,154 62,283 63,1176 64,972
65,1891 66,357 67,254 69,101
71,503 73,85 74,180 75,382
76,483 77,2704 78,1021 79,1189
80,198 81,62 84,83 85,40
86,86 87,160 88,115 89,627
90,40 91,3508 92,471 93,492
99,44 100,40 101,154 102,418
103,784 104,378 105,1810 106,275
107,259 108,44 113,81 115,2840
116,1406 117,1701 118,384 119,1040
120,165 126,158 127,855 128,2153
129,2023 130,1354 131,1231 132,610
133,196 139,75 140,202 141,389
142,245 143,533 144,629 145,3328
146,75 147,9999 148,1245 149,84
152,57 153,147 154,201 155,182
156,332 157,408 158,148 159,460
160,3027 161,546 162,58 169,48
170,209 172,8460 173,1132 174,81
186,1058 187,6676 188,1015 189,78
##END=
