##TITLE=Naphthalene, 2,7-dimethoxy-
##JCAMP-DX=4.24
##DATA TYPE=MASS SPECTRUM
##ORIGIN=Japan AIST/NIMC Database- Spectrum MS-NW-9400
##OWNER=NIST Mass Spectrometry Data Center
Collection (C) 2014 copyright by the U.S. Secretary of Commerce
on behalf of the United States of America. All rights reserved.
##CAS REGISTRY NO=3469-26-9
##$NIST MASS SPEC NO=236904
##MOLFORM=C12 H12 O2
##MW=188
##$NIST SOURCE=MSDC
##XUNITS=M/Z
##YUNITS=RELATIVE INTENSITY
##XFACTOR=1
##YFACTOR=1
##FIRSTX=14
##LASTX=190
##FIRSTY=20
##MAXX=190
##MINX=14
##MAXY=9999
##MINY=10
##NPOINTS=95
##PEAK TABLE=(XY..XY)
14,20 15,159 16,10 26,10
27,30 28,109 29,40 30,10
37,10 38,60 39,179 40,10
41,20 43,20 44,30 45,20
49,10 50,229 51,289 52,99
53,30 55,10 57,20 58,10
61,40 62,229 63,459 64,99
65,70 66,10 73,10 74,219
75,349 76,389 77,109 78,20
79,60 80,10 85,20 86,99
87,149 88,269 89,99 90,10
91,119 92,10 94,479 98,40
99,30 100,30 101,229 102,2059
103,199 104,10 105,10 110,10
111,10 113,319 114,609 115,1189
116,189 117,189 118,20 125,10
126,80 127,189 128,299 129,229
130,1369 131,169 132,10 141,30
142,219 143,269 144,819 145,5829
146,639 147,40 155,10 156,10
157,319 158,589 159,1309 160,159
161,10 171,30 172,40 173,259
174,30 185,10 186,10 187,60
188,9999 189,1319 190,119
##END=
