##TITLE=1,3,5,6-Tetramethyladamantane
##JCAMP-DX=4.24
##DATA TYPE=MASS SPECTRUM
##ORIGIN=V.G.Zaikin, TIPS, Russian Acad. Sci.
##OWNER=NIST Mass Spectrometry Data Center
Collection (C) 2014 copyright by the U.S. Secretary of Commerce
on behalf of the United States of America. All rights reserved.
##CAS REGISTRY NO=34694-70-7
##$NIST MASS SPEC NO=214986
##MOLFORM=C14 H24
##MW=192
##$NIST SOURCE=MSDC
##XUNITS=M/Z
##YUNITS=RELATIVE INTENSITY
##XFACTOR=1
##YFACTOR=1
##FIRSTX=51
##LASTX=194
##FIRSTY=300
##MAXX=194
##MINX=51
##MAXY=9999
##MINY=10
##NPOINTS=40
##PEAK TABLE=(XY..XY)
51,300 53,600 54,200 55,1351
56,300 57,300 65,300 67,700
69,800 77,700 78,200 79,700
80,150 81,650 82,200 83,500
91,950 92,200 93,900 94,200
95,900 96,200 97,200 105,550
106,200 107,2502 108,400 109,600
119,300 120,200 121,3753 122,450
135,550 149,150 163,400 177,9999
178,1601 192,650 193,100 194,10
##END=
