##TITLE=1,1-Difluoro-1-silacyclo-3-pentene
##JCAMP-DX=4.24
##DATA TYPE=MASS SPECTRUM
##ORIGIN=V.A.KOPTYUG, ATLAS OF MASS SPECTRA OF ORGANIC COMPOUNDS
##OWNER=NIST Mass Spectrometry Data Center
Collection (C) 2014 copyright by the U.S. Secretary of Commerce
on behalf of the United States of America. All rights reserved.
##CAS REGISTRY NO=34736-33-9
##$NIST MASS SPEC NO=78401
##MOLFORM=C4 H6 F2 Si
##MW=120
##$NIST SOURCE=MSDC
##XUNITS=M/Z
##YUNITS=RELATIVE INTENSITY
##XFACTOR=1
##YFACTOR=1
##FIRSTX=39
##LASTX=122
##FIRSTY=1700
##MAXX=122
##MINX=39
##MAXY=9999
##MINY=100
##NPOINTS=13
##PEAK TABLE=(XY..XY)
39,1700 40,100 52,300 53,900
54,9999 55,600 80,200 93,600
94,200 101,400 120,8199 121,700
122,300
##END=
