##TITLE=Zipeprol
##JCAMP-DX=4.24
##DATA TYPE=MASS SPECTRUM
##ORIGIN=W. GIELSDORF, LAB GES PHARMAKOL UNTERS MBH, NEU-ULM, W. GER.
##OWNER=NIST Mass Spectrometry Data Center
Collection (C) 2014 copyright by the U.S. Secretary of Commerce
on behalf of the United States of America. All rights reserved.
##CAS REGISTRY NO=34758-83-3
##$NIST MASS SPEC NO=101047
##MOLFORM=C23 H32 N2 O3
##MW=384
##$NIST SOURCE=MSDC
##XUNITS=M/Z
##YUNITS=RELATIVE INTENSITY
##XFACTOR=1
##YFACTOR=1
##FIRSTX=39
##LASTX=384
##FIRSTY=200
##MAXX=384
##MINX=39
##MAXY=9999
##MINY=100
##NPOINTS=47
##PEAK TABLE=(XY..XY)
39,200 42,1800 43,600 44,600
45,600 50,200 55,900 56,1200
57,600 58,500 69,500 70,1600
71,500 72,200 77,1500 79,200
83,400 84,200 91,1400 94,100
97,1500 98,200 99,200 105,600
111,1900 112,500 113,300 115,200
117,200 121,9900 122,1000 134,200
142,100 158,100 174,100 186,100
202,100 219,100 223,200 247,100
263,9999 264,1700 265,100 353,100
367,100 383,200 384,600
##END=
