##TITLE=Tetrahydroquinoxaline
##JCAMP-DX=4.24
##DATA TYPE=MASS SPECTRUM
##ORIGIN=James Little,Eastman Chem.Co.,Kingsport,TN
##OWNER=NIST Mass Spectrometry Data Center
Collection (C) 2014 copyright by the U.S. Secretary of Commerce
on behalf of the United States of America. All rights reserved.
##CAS REGISTRY NO=3476-89-9
##$NIST MASS SPEC NO=288801
##MOLFORM=C8 H10 N2
##MW=134
##$NIST SOURCE=MSDC
##XUNITS=M/Z
##YUNITS=RELATIVE INTENSITY
##XFACTOR=1
##YFACTOR=1
##FIRSTX=27
##LASTX=135
##FIRSTY=320
##MAXX=135
##MINX=27
##MAXY=9999
##MINY=100
##NPOINTS=39
##PEAK TABLE=(XY..XY)
27,320 29,130 30,210 38,150
39,360 41,290 43,140 50,410
51,741 52,581 53,220 65,420
66,460 75,280 76,370 77,1171
78,851 79,310 80,140 90,100
91,591 92,1091 93,160 103,120
104,681 105,330 106,641 107,120
116,120 117,120 118,540 119,971
120,100 130,120 131,851 132,1081
133,9999 134,7487 135,701
##END=
