##TITLE=tert-Butyl m-Tolyl sulfide
##JCAMP-DX=4.24
##DATA TYPE=MASS SPECTRUM
##ORIGIN=J.E. DOOLEY U.S. BUREAU OF MINES, BARTLESVILLE, OKLA., USA
##OWNER=NIST Mass Spectrometry Data Center
Collection (C) 2014 copyright by the U.S. Secretary of Commerce
on behalf of the United States of America. All rights reserved.
##CAS REGISTRY NO=34786-26-0
##$NIST MASS SPEC NO=7413
##MOLFORM=C11 H16 S
##MW=180
##$NIST SOURCE=MSDC
##XUNITS=M/Z
##YUNITS=RELATIVE INTENSITY
##XFACTOR=1
##YFACTOR=1
##FIRSTX=25
##LASTX=183
##FIRSTY=5
##MAXX=183
##MINX=25
##MAXY=9999
##MINY=2
##NPOINTS=137
##PEAK TABLE=(XY..XY)
25,5 26,102 27,946 28,135
29,1692 30,39 32,13 33,9
34,11 35,2 36,2 37,55
38,179 39,1702 40,165 41,2029
42,114 43,66 44,10 45,1203
46,34 47,91 48,3 49,21
50,152 51,358 52,129 53,235
54,24 55,198 56,88 57,3533
58,215 59,174 60,15 61,36
62,90 63,302 64,70 65,410
66,45 67,32 68,19 69,329
70,66 71,141 72,12 73,137
74,46 75,49 76,33 77,710
78,253 79,498 80,94 81,51
82,100 83,112 84,81 85,49
86,21 87,33 88,11 89,179
90,134 91,2419 92,215 93,46
94,9 95,50 96,29 97,241
98,31 99,9 102,2 103,5
104,3 105,22 106,7 107,8
108,183 109,61 110,18 111,21
112,18 113,9 115,16 116,9
117,11 118,2 119,5 120,5
121,203 122,69 123,652 124,9999
125,930 126,477 127,39 128,8
129,5 130,3 131,12 132,10
133,2 134,14 135,12 136,3
137,39 138,5 139,5 140,2
141,2 145,2 146,2 147,11
148,8 149,13 150,4 151,3
153,17 154,2 161,2 163,8
164,2 165,151 166,18 167,9
168,9 169,2 177,2 178,3
179,9 180,1403 181,183 182,74
183,8
##END=
