##TITLE=4-Acetyl-4-phenylpiperidine
##JCAMP-DX=4.24
##DATA TYPE=MASS SPECTRUM
##ORIGIN=NIST Mass Spectrometry Data Center, 1994
##OWNER=NIST Mass Spectrometry Data Center
Collection (C) 2014 copyright by the U.S. Secretary of Commerce
on behalf of the United States of America. All rights reserved.
##CAS REGISTRY NO=34798-80-6
##$NIST MASS SPEC NO=136434
##MOLFORM=C13 H17 N O
##MW=203
##$NIST SOURCE=MSDC
##XUNITS=M/Z
##YUNITS=RELATIVE INTENSITY
##XFACTOR=1
##YFACTOR=1
##FIRSTX=15
##LASTX=204
##FIRSTY=1123
##MAXX=204
##MINX=15
##MAXY=9999
##MINY=14
##NPOINTS=104
##PEAK TABLE=(XY..XY)
15,1123 17,27 18,56 26,79
27,614 28,2213 29,490 30,1995
32,30 39,603 40,99 42,9999
43,6044 44,394 50,316 51,994
52,251 53,510 54,151 55,99
56,4957 57,4169 58,152 62,98
63,351 64,82 65,427 66,36
67,64 68,89 69,36 70,80
71,17 72,33 73,28 74,70
75,188 76,217 77,1430 78,321
79,137 80,186 81,30 82,354
83,130 84,20 85,22 86,77
87,46 88,34 89,200 90,20
91,1859 92,159 99,87 100,14
101,67 102,357 103,1132 104,199
105,331 106,61 112,30 113,25
115,1030 116,380 117,297 118,91
119,111 120,33 125,19 126,74
127,242 128,479 129,404 130,301
131,466 132,140 133,85 134,31
141,47 142,29 143,107 144,96
145,116 146,77 147,107 148,375
149,41 154,31 155,48 156,65
157,34 158,361 159,150 160,1205
161,185 186,248 187,50 188,290
189,43 201,29 203,1225 204,207
##END=
