##TITLE=1,3,5-Cycloheptatriene, 3,7,7-trimethyl-
##JCAMP-DX=4.24
##DATA TYPE=MASS SPECTRUM
##ORIGIN=NIST Mass Spectrometry Data Center
##OWNER=NIST Mass Spectrometry Data Center
Collection (C) 2014 copyright by the U.S. Secretary of Commerce
on behalf of the United States of America. All rights reserved.
##CAS REGISTRY NO=3479-89-8
##$NIST MASS SPEC NO=413615
##MOLFORM=C10 H14
##MW=134
##$NIST SOURCE=MSDC
##XUNITS=M/Z
##YUNITS=RELATIVE INTENSITY
##XFACTOR=1
##YFACTOR=1
##FIRSTX=26
##LASTX=135
##FIRSTY=10
##MAXX=135
##MINX=26
##MAXY=9999
##MINY=10
##NPOINTS=62
##PEAK TABLE=(XY..XY)
26,10 27,120 29,20 37,10
38,50 39,581 40,70 41,641
42,30 50,180 51,510 52,170
53,210 54,10 55,20 57,150
58,100 59,40 61,30 62,120
63,390 64,140 65,781 66,110
74,90 75,90 76,80 77,1071
78,380 79,480 85,10 86,20
87,40 88,10 89,160 90,40
91,3573 92,390 98,10 101,20
102,140 103,631 104,420 105,500
106,50 113,10 114,10 115,671
116,150 117,1131 118,180 119,9999
120,991 121,30 127,10 128,20
129,10 131,10 132,10 133,90
134,1151 135,120
##END=
