##TITLE=Benzene, 1-fluoro-2-iodo-
##JCAMP-DX=4.24
##DATA TYPE=MASS SPECTRUM
##ORIGIN=Japan AIST/NIMC Database- Spectrum MS-NW-9350
##OWNER=NIST Mass Spectrometry Data Center
Collection (C) 2014 copyright by the U.S. Secretary of Commerce
on behalf of the United States of America. All rights reserved.
##CAS REGISTRY NO=348-52-7
##$NIST MASS SPEC NO=230726
##MOLFORM=C6 H4 F I
##MW=222
##$NIST SOURCE=MSDC
##XUNITS=M/Z
##YUNITS=RELATIVE INTENSITY
##XFACTOR=1
##YFACTOR=1
##FIRSTX=20
##LASTX=224
##FIRSTY=10
##MAXX=224
##MINX=20
##MAXY=9999
##MINY=10
##NPOINTS=46
##PEAK TABLE=(XY..XY)
20,10 26,20 27,40 28,50
31,119 36,10 37,109 38,119
39,119 44,10 45,40 49,90
50,719 51,329 52,10 55,10
56,60 57,70 61,90 62,99
63,99 64,10 68,479 69,519
70,20 73,70 74,399 75,2479
76,219 77,10 80,10 92,80
93,129 94,539 95,6589 96,449
97,10 111,449 127,199 128,70
152,10 176,10 221,20 222,9999
223,659 224,20
##END=
