##TITLE=.eta.<5>-Pentamethylcyclopentadienyl manganese tricarbonyl
##JCAMP-DX=4.24
##DATA TYPE=MASS SPECTRUM
##ORIGIN=R.B.KING DEPT. CHEM., UNIV. OF GEORGIA, ATHENS, GA., USA
##OWNER=NIST Mass Spectrometry Data Center
Collection (C) 2014 copyright by the U.S. Secretary of Commerce
on behalf of the United States of America. All rights reserved.
##CAS REGISTRY NO=34807-89-1
##$NIST MASS SPEC NO=58416
##MOLFORM=C13 H15 Mn O3
##MW=274
##$NIST SOURCE=MSDC
##XUNITS=M/Z
##YUNITS=RELATIVE INTENSITY
##XFACTOR=1
##YFACTOR=1
##FIRSTX=55
##LASTX=274
##FIRSTY=3200
##MAXX=274
##MINX=55
##MAXY=9999
##MINY=110
##NPOINTS=22
##PEAK TABLE=(XY..XY)
55,3200 56,840 77,910 79,840
91,1600 93,630 105,1800 107,630
119,1500 121,4200 135,9300 175,4200
190,9999 201,250 203,1100 218,2000
229,140 231,110 244,190 246,210
259,1100 274,2700
##END=
