##TITLE=2-Aminoacetanilide
##JCAMP-DX=4.24
##DATA TYPE=MASS SPECTRUM
##ORIGIN=John Halket,Royal Holloway, University of London, UK
##OWNER=NIST Mass Spectrometry Data Center
Collection (C) 2014 copyright by the U.S. Secretary of Commerce
on behalf of the United States of America. All rights reserved.
##CAS REGISTRY NO=34801-09-7
##$NIST MASS SPEC NO=332120
##MOLFORM=C8 H10 N2 O
##MW=150
##$NIST SOURCE=MSDC
##XUNITS=M/Z
##YUNITS=RELATIVE INTENSITY
##XFACTOR=1
##YFACTOR=1
##FIRSTX=13
##LASTX=152
##FIRSTY=10
##MAXX=152
##MINX=13
##MAXY=9999
##MINY=10
##NPOINTS=79
##PEAK TABLE=(XY..XY)
13,10 14,40 15,220 25,10
26,60 27,230 28,370 29,60
30,50 37,70 38,180 39,470
40,120 41,230 42,270 43,1922
44,50 45,10 49,40 50,290
51,671 52,1201 53,1601 54,390
55,50 56,30 60,10 61,50
62,110 63,360 64,280 65,410
66,150 67,150 68,30 69,10
73,10 74,30 75,70 76,150
77,120 78,420 79,480 80,5545
81,1692 82,130 83,10 87,10
88,10 89,20 90,150 91,290
92,170 93,50 94,40 102,10
103,10 104,50 105,330 107,4544
108,9999 109,1001 110,40 118,10
119,30 120,10 121,40 122,10
131,360 132,500 133,3413 134,561
135,1171 136,100 137,10 148,10
150,5925 151,601 152,40
##END=
