##TITLE=Benzenamine, 2,3,5,6-tetrachloro-
##JCAMP-DX=4.24
##DATA TYPE=MASS SPECTRUM
##ORIGIN=NIST Mass Spectrometry Data Center, 1998.
##OWNER=NIST Mass Spectrometry Data Center
Collection (C) 2014 copyright by the U.S. Secretary of Commerce
on behalf of the United States of America. All rights reserved.
##CAS REGISTRY NO=3481-20-7
##$NIST MASS SPEC NO=292085
##MOLFORM=C6 H3 Cl4 N
##MW=229
##$NIST SOURCE=MSDC
##XUNITS=M/Z
##YUNITS=RELATIVE INTENSITY
##XFACTOR=1
##YFACTOR=1
##FIRSTX=25
##LASTX=237
##FIRSTY=10
##MAXX=237
##MINX=25
##MAXY=9999
##MINY=10
##NPOINTS=142
##PEAK TABLE=(XY..XY)
25,10 26,10 27,20 28,170
35,130 36,160 37,390 38,170
39,40 40,20 41,30 44,80
47,270 48,160 49,300 50,100
51,210 52,210 53,20 55,10
59,30 60,510 61,1410 62,950
63,190 64,110 65,270 66,90
67,20 71,190 72,400 73,420
74,210 75,340 76,210 77,60
78,20 79,410 80,240 81,30
82,50 83,260 84,210 85,200
86,810 87,370 88,560 89,940
90,50 94,70 95,390 96,1030
97,750 98,560 99,380 100,80
101,50 102,10 106,80 107,440
108,290 109,310 110,180 111,60
112,50 113,10 114,270 115,410
116,190 117,40 118,70 119,40
120,50 121,70 122,640 123,450
124,930 125,170 126,230 127,20
130,120 131,860 132,200 133,600
134,90 135,140 136,20 137,20
141,70 142,20 143,90 144,20
145,40 146,20 156,20 157,190
158,2310 159,890 160,1480 161,560
162,290 163,70 165,60 166,60
167,960 168,150 169,870 170,70
171,280 172,20 173,30 178,10
180,10 182,50 184,40 186,20
192,40 193,630 194,750 195,630
196,690 197,230 198,180 199,30
200,20 201,230 202,30 203,270
204,40 205,140 206,30 207,30
227,10 229,7859 230,580 231,9999
232,730 233,4830 234,340 235,1030
236,60 237,70
##END=
