##TITLE=N-Nitro-1H-1,2,4-triazol-3-amine
##JCAMP-DX=4.24
##DATA TYPE=MASS SPECTRUM
##ORIGIN=Div. of Experiment Therapeutics WRAIR, WRAMC, Washington DC 20307
##OWNER=NIST Mass Spectrometry Data Center
Collection (C) 2014 copyright by the U.S. Secretary of Commerce
on behalf of the United States of America. All rights reserved.
##CAS REGISTRY NO=34815-01-5
##$NIST MASS SPEC NO=255064
##MOLFORM=C2 H3 N5 O2
##MW=129
##$NIST SOURCE=MSDC
##XUNITS=M/Z
##YUNITS=RELATIVE INTENSITY
##XFACTOR=1
##YFACTOR=1
##FIRSTX=41
##LASTX=132
##FIRSTY=433
##MAXX=132
##MINX=41
##MAXY=9999
##MINY=4
##NPOINTS=42
##PEAK TABLE=(XY..XY)
41,433 42,841 43,108 44,28
46,1162 48,6 51,5 53,1393
54,2947 56,468 57,27 62,9
63,22 64,11 65,16 67,29
68,17 69,82 75,10 76,6
77,15 83,9999 84,1003 85,23
87,6 88,5 89,4 90,31
91,30 95,13 96,35 97,4
99,113 100,15 111,4 112,57
113,18 128,13 129,878 130,107
131,29 132,9
##END=
