##TITLE=Thallium, (.eta.5-2,4-cyclopentadien-1-yl)-
##JCAMP-DX=4.24
##DATA TYPE=MASS SPECTRUM
##ORIGIN=D.HENNEBERG, MAX-PLANCK INSTITUTE, MULHEIM, WEST GERMANY
##OWNER=NIST Mass Spectrometry Data Center
Collection (C) 2014 copyright by the U.S. Secretary of Commerce
on behalf of the United States of America. All rights reserved.
##CAS REGISTRY NO=34822-90-7
##$NIST MASS SPEC NO=62915
##MOLFORM=C5 H5 Tl
##MW=270
##$NIST SOURCE=MSDC
##XUNITS=M/Z
##YUNITS=RELATIVE INTENSITY
##XFACTOR=1
##YFACTOR=1
##FIRSTX=27
##LASTX=272
##FIRSTY=31
##MAXX=272
##MINX=27
##MAXY=9999
##MINY=1
##NPOINTS=34
##PEAK TABLE=(XY..XY)
27,31 28,54 29,6 37,185
38,101 39,1544 40,54 41,2
42,1 43,6 44,7 50,17
51,6 52,3 56,1 57,4
61,8 62,48 63,162 64,107
65,867 66,138 67,6 70,3
79,2 128,3 203,4197 204,3
205,9999 268,1387 269,83 270,3180
271,171 272,4
##END=
