##TITLE=1H-Isoindole-1,3(2H)-dione, 2-ethenyl-
##JCAMP-DX=4.24
##DATA TYPE=MASS SPECTRUM
##ORIGIN=NIST Mass Spectrometry Data Center, 1994
##OWNER=NIST Mass Spectrometry Data Center
Collection (C) 2014 copyright by the U.S. Secretary of Commerce
on behalf of the United States of America. All rights reserved.
##CAS REGISTRY NO=3485-84-5
##$NIST MASS SPEC NO=136661
##MOLFORM=C10 H7 N O2
##MW=173
##$NIST SOURCE=MSDC
##XUNITS=M/Z
##YUNITS=RELATIVE INTENSITY
##XFACTOR=1
##YFACTOR=1
##FIRSTX=15
##LASTX=175
##FIRSTY=236
##MAXX=175
##MINX=15
##MAXY=9999
##MINY=34
##NPOINTS=63
##PEAK TABLE=(XY..XY)
15,236 25,72 26,178 27,116
37,587 38,963 39,623 40,661
41,340 42,291 49,414 50,5944
51,1031 52,1271 53,289 54,40
59,87 60,34 61,181 62,307
63,578 64,349 65,118 66,1034
70,102 73,301 74,1466 75,2037
76,8204 77,1371 78,140 86,51
87,79 88,121 89,794 90,1868
91,314 92,68 99,44 101,76
102,699 103,2340 104,5738 105,1194
106,80 116,468 117,2198 118,1009
119,147 128,220 129,1040 130,453
131,75 132,511 133,605 134,45
144,194 145,726 146,1201 147,115
173,9999 174,1168 175,127
##END=
