##TITLE=Benzoic acid, 4-hydroxy-2-methoxy-3,6-dimethyl-, methyl ester
##JCAMP-DX=4.24
##DATA TYPE=MASS SPECTRUM
##ORIGIN=T.BRUUN NORWEGIAN INST. OF TECH., TRONDHEIM, NORWAY
##OWNER=NIST Mass Spectrometry Data Center
Collection (C) 2014 copyright by the U.S. Secretary of Commerce
on behalf of the United States of America. All rights reserved.
##CAS REGISTRY NO=34874-75-4
##$NIST MASS SPEC NO=9715
##MOLFORM=C11 H14 O4
##MW=210
##$NIST SOURCE=MSDC
##XUNITS=M/Z
##YUNITS=RELATIVE INTENSITY
##XFACTOR=1
##YFACTOR=1
##FIRSTX=31
##LASTX=211
##FIRSTY=500
##MAXX=211
##MINX=31
##MAXY=9999
##MINY=100
##NPOINTS=65
##PEAK TABLE=(XY..XY)
31,500 38,200 39,1400 40,200
41,500 43,800 45,700 50,300
51,900 52,600 53,900 55,600
59,200 62,100 63,400 64,200
65,700 66,200 67,700 68,100
69,100 75,100 77,1600 78,500
79,700 80,200 81,100 83,400
89,100 90,100 91,1100 92,100
93,200 105,100 107,700 108,300
109,100 119,100 120,600 121,500
122,100 123,100 134,100 135,800
136,1000 137,100 148,100 149,900
150,200 151,300 152,100 162,200
163,1200 164,400 165,200 177,400
178,3900 179,9999 180,1100 181,200
193,300 195,100 209,100 210,4200
211,500
##END=
