##TITLE=Phenol, 5-methoxy-2,3,4-trimethyl-
##JCAMP-DX=4.24
##DATA TYPE=MASS SPECTRUM
##ORIGIN=T.BRUUN NORWEGIAN INST. OF TECH., TRONDHEIM, NORWAY
##OWNER=NIST Mass Spectrometry Data Center
Collection (C) 2014 copyright by the U.S. Secretary of Commerce
on behalf of the United States of America. All rights reserved.
##CAS REGISTRY NO=34883-02-8
##$NIST MASS SPEC NO=6253
##MOLFORM=C10 H14 O2
##MW=166
##$NIST SOURCE=MSDC
##XUNITS=M/Z
##YUNITS=RELATIVE INTENSITY
##XFACTOR=1
##YFACTOR=1
##FIRSTX=38
##LASTX=167
##FIRSTY=100
##MAXX=167
##MINX=38
##MAXY=9999
##MINY=100
##NPOINTS=58
##PEAK TABLE=(XY..XY)
38,100 39,1200 40,200 41,1100
42,100 43,900 44,100 45,100
50,300 51,900 52,400 53,1000
54,100 55,700 59,500 63,400
64,100 65,700 66,200 67,700
68,100 69,900 72,200 75,100
77,1300 78,300 79,1000 80,200
81,300 83,200 91,1200 92,200
93,300 94,100 95,300 103,200
105,400 106,100 107,800 108,400
109,200 119,200 121,1000 122,400
123,1100 124,100 133,200 134,200
135,900 136,200 137,700 138,100
149,100 151,7500 152,700 165,2100
166,9999 167,1100
##END=
