##TITLE=1,9-Nonanedithiol
##JCAMP-DX=4.24
##DATA TYPE=MASS SPECTRUM
##ORIGIN=NIST Mass Spectrometry Data Center, 1994
##OWNER=NIST Mass Spectrometry Data Center
Collection (C) 2014 copyright by the U.S. Secretary of Commerce
on behalf of the United States of America. All rights reserved.
##CAS REGISTRY NO=3489-28-9
##$NIST MASS SPEC NO=134091
##MOLFORM=C9 H20 S2
##MW=192
##$NIST SOURCE=MSDC
##XUNITS=M/Z
##YUNITS=RELATIVE INTENSITY
##XFACTOR=1
##YFACTOR=1
##FIRSTX=15
##LASTX=194
##FIRSTY=249
##MAXX=194
##MINX=15
##MAXY=9999
##MINY=22
##NPOINTS=95
##PEAK TABLE=(XY..XY)
15,249 27,4222 29,3606 30,105
31,113 32,105 33,359 34,410
35,1143 36,46 37,99 38,46
39,3855 40,46 41,9999 42,1604
43,1647 44,46 45,2378 46,1341
47,8673 48,331 49,425 50,90
51,209 52,46 53,1323 54,2842
55,8100 56,875 57,878 58,464
59,995 60,1675 61,2751 62,232
63,185 64,38 65,259 66,38
67,4359 68,2671 69,3725 70,378
71,379 72,38 73,517 74,458
75,209 76,45 77,141 78,38
79,450 80,38 81,2671 82,1600
83,1331 84,105 85,264 86,45
87,5535 88,788 89,1451 90,117
91,105 93,85 95,1393 96,659
97,157 98,30 99,42 100,30
101,4659 102,692 103,355 104,44
109,102 110,24 115,2042 116,211
117,147 124,63 125,38 129,1591
130,154 131,77 143,85 157,4444
158,765 159,537 160,22 190,31
192,812 193,123 194,80
##END=
