##TITLE=4-Bromo-3-nitrobenzotrifluoride
##JCAMP-DX=4.24
##DATA TYPE=MASS SPECTRUM
##ORIGIN=NIST Mass Spectrometry Data Center
##OWNER=NIST Mass Spectrometry Data Center
Collection (C) 2014 copyright by the U.S. Secretary of Commerce
on behalf of the United States of America. All rights reserved.
##CAS REGISTRY NO=349-03-1
##$NIST MASS SPEC NO=343475
##MOLFORM=C7 H3 Br F3 N O2
##MW=269
##$NIST SOURCE=MSDC
##XUNITS=M/Z
##YUNITS=RELATIVE INTENSITY
##XFACTOR=1
##YFACTOR=1
##FIRSTX=13
##LASTX=273
##FIRSTY=10
##MAXX=273
##MINX=13
##MAXY=9999
##MINY=10
##NPOINTS=162
##PEAK TABLE=(XY..XY)
13,10 16,80 18,20 19,10
20,20 26,50 27,10 28,90
30,5685 31,330 32,20 33,20
36,50 37,430 38,380 39,60
41,10 46,490 47,10 48,20
49,260 50,1261 51,210 52,30
53,20 55,30 56,110 57,280
58,20 60,40 61,310 62,360
63,550 64,70 65,10 67,10
68,160 69,1081 70,20 72,60
73,540 74,2442 75,3333 76,200
77,20 79,230 80,140 81,320
82,90 83,10 84,20 85,80
86,80 87,140 88,160 89,40
91,40 92,150 93,490 94,1111
95,120 96,10 98,60 99,430
100,40 101,10 103,60 104,120
105,80 106,110 107,80 108,40
109,10 110,30 111,40 112,90
113,110 114,20 115,10 116,70
117,160 118,230 119,140 120,10
123,390 124,300 125,2382 126,300
127,30 128,130 129,80 130,140
132,4184 133,290 134,20 135,80
136,10 137,80 138,30 139,20
140,20 141,100 143,2012 144,9999
145,821 146,200 147,10 148,10
152,20 153,120 154,60 155,110
156,20 157,10 158,50 160,440
161,130 162,90 163,60 170,10
172,10 173,60 175,70 176,10
177,30 179,40 190,120 191,20
192,50 193,10 194,50 197,10
199,10 203,50 204,280 205,70
206,260 207,10 211,1311 213,1231
214,90 220,20 221,10 223,3103
225,2993 226,250 227,10 237,10
239,1471 241,1481 242,110 250,961
252,1001 253,200 255,150 265,20
266,10 267,20 269,4894 271,4904
272,370 273,40
##END=
