##TITLE=3,5-Bis(trifluoromethyl)phenol
##JCAMP-DX=4.24
##DATA TYPE=MASS SPECTRUM
##ORIGIN=Japan AIST/NIMC Database- Spectrum MS-NW-9539
##OWNER=NIST Mass Spectrometry Data Center
Collection (C) 2014 copyright by the U.S. Secretary of Commerce
on behalf of the United States of America. All rights reserved.
##CAS REGISTRY NO=349-58-6
##$NIST MASS SPEC NO=238648
##MOLFORM=C8 H4 F6 O
##MW=230
##$NIST SOURCE=MSDC
##XUNITS=M/Z
##YUNITS=RELATIVE INTENSITY
##XFACTOR=1
##YFACTOR=1
##FIRSTX=15
##LASTX=232
##FIRSTY=20
##MAXX=232
##MINX=15
##MAXY=9999
##MINY=10
##NPOINTS=117
##PEAK TABLE=(XY..XY)
15,20 20,30 26,10 27,20
28,99 29,40 30,10 31,70
32,10 37,50 38,119 39,119
42,20 43,189 44,20 49,10
50,90 51,80 53,109 55,10
56,60 57,199 58,90 61,80
62,199 63,549 64,70 65,10
66,40 67,10 68,30 69,479
70,10 71,20 73,20 74,80
75,359 76,20 77,10 79,10
80,30 81,179 82,40 83,289
84,20 86,10 87,119 88,139
89,10 90,10 91,40 92,30
93,70 94,30 95,60 96,70
97,20 99,90 100,10 101,119
102,20 104,10 105,90 106,40
107,50 110,10 111,30 112,129
113,559 114,189 115,20 117,10
119,20 121,10 123,40 125,30
130,90 131,90 132,1219 133,359
134,20 137,10 141,119 142,40
143,199 144,50 145,10 150,40
151,99 152,70 159,20 160,90
161,2189 162,219 163,979 164,70
179,40 180,1629 181,599 182,1149
183,139 191,60 192,10 193,119
194,20 201,179 202,30 209,269
210,129 211,4039 212,359 213,469
214,40 229,419 230,9999 231,879
232,50
##END=
