##TITLE=Arsine, 1,2-ethynediylbis[dimethyl-
##JCAMP-DX=4.24
##DATA TYPE=MASS SPECTRUM
##ORIGIN=R.D.FELTHAM CHEM. DEPT., ARIZONA UNIV., TUCSON, ARIZ., USA
##OWNER=NIST Mass Spectrometry Data Center
Collection (C) 2014 copyright by the U.S. Secretary of Commerce
on behalf of the United States of America. All rights reserved.
##CAS REGISTRY NO=34943-62-9
##$NIST MASS SPEC NO=39039
##MOLFORM=C6 H12 As2
##MW=234
##$NIST SOURCE=MSDC
##XUNITS=M/Z
##YUNITS=RELATIVE INTENSITY
##XFACTOR=1
##YFACTOR=1
##FIRSTX=89
##LASTX=234
##FIRSTY=2300
##MAXX=234
##MINX=89
##MAXY=9999
##MINY=1100
##NPOINTS=12
##PEAK TABLE=(XY..XY)
89,2300 103,1600 105,1100 115,2200
129,5800 151,1400 165,8800 174,1700
189,6300 204,1500 219,6100 234,9999
##END=
