##TITLE=Heptanoic acid, 1-methylethyl ester
##JCAMP-DX=4.24
##DATA TYPE=MASS SPECTRUM
##ORIGIN=W.Jennings, T.Shibamoto
##OWNER=NIST Mass Spectrometry Data Center
Collection (C) 2014 copyright by the U.S. Secretary of Commerce
on behalf of the United States of America. All rights reserved.
##CAS REGISTRY NO=34997-46-1
##$NIST MASS SPEC NO=285523
##MOLFORM=C10 H20 O2
##MW=172
##$NIST SOURCE=MSDC
##XUNITS=M/Z
##YUNITS=RELATIVE INTENSITY
##XFACTOR=1
##YFACTOR=1
##FIRSTX=27
##LASTX=173
##FIRSTY=190
##MAXX=173
##MINX=27
##MAXY=9999
##MINY=70
##NPOINTS=50
##PEAK TABLE=(XY..XY)
27,190 29,70 31,70 36,250
41,1651 42,4294 43,9899 44,450
45,370 55,1682 56,370 57,2452
58,270 59,1651 60,8428 61,9999
62,370 63,70 64,180 68,360
69,1341 72,70 73,4784 74,781
75,781 83,1992 84,1151 85,3493
86,180 87,4614 88,270 89,3493
90,180 95,450 97,70 101,1551
102,3613 103,681 111,260 112,70
113,6636 114,961 115,1331 116,70
129,651 130,1251 131,4884 132,1151
143,70 173,380
##END=
