##TITLE=Benzene, 1-fluoro-4-(1-methylethenyl)-
##JCAMP-DX=4.24
##DATA TYPE=MASS SPECTRUM
##ORIGIN=NIST Mass Spectrometry Data Center
##OWNER=NIST Mass Spectrometry Data Center
Collection (C) 2014 copyright by the U.S. Secretary of Commerce
on behalf of the United States of America. All rights reserved.
##CAS REGISTRY NO=350-40-3
##$NIST MASS SPEC NO=343591
##MOLFORM=C9 H9 F
##MW=136
##$NIST SOURCE=MSDC
##XUNITS=M/Z
##YUNITS=RELATIVE INTENSITY
##XFACTOR=1
##YFACTOR=1
##FIRSTX=14
##LASTX=138
##FIRSTY=30
##MAXX=138
##MINX=14
##MAXY=9999
##MINY=10
##NPOINTS=97
##PEAK TABLE=(XY..XY)
14,30 15,260 16,20 18,30
20,10 25,10 26,130 27,430
31,260 33,90 37,130 38,350
39,1641 40,200 41,160 42,10
43,20 44,50 45,70 46,20
48,10 49,100 50,1021 51,1041
52,120 53,40 55,40 56,140
57,1101 58,160 59,120 60,140
61,250 62,490 63,901 64,80
65,110 67,631 68,330 69,410
70,540 71,50 73,90 74,831
75,2162 76,250 77,110 78,30
79,10 80,70 81,470 82,80
83,1021 84,90 85,120 86,170
87,240 88,60 89,260 90,30
91,80 92,100 93,150 94,500
95,781 96,2732 97,210 98,110
99,150 100,270 101,4474 102,460
103,90 104,20 105,90 106,60
107,581 108,220 109,2482 110,220
111,10 113,50 115,1762 116,480
117,210 118,30 120,731 121,6376
122,550 123,20 129,10 131,60
133,1732 135,6896 136,9999 137,901
138,30
##END=
