##TITLE=Benzene, 1-ethenyl-3-fluoro-
##JCAMP-DX=4.24
##DATA TYPE=MASS SPECTRUM
##ORIGIN=NIST Mass Spectrometry Data Center
##OWNER=NIST Mass Spectrometry Data Center
Collection (C) 2014 copyright by the U.S. Secretary of Commerce
on behalf of the United States of America. All rights reserved.
##CAS REGISTRY NO=350-51-6
##$NIST MASS SPEC NO=341073
##MOLFORM=C8 H7 F
##MW=122
##$NIST SOURCE=MSDC
##XUNITS=M/Z
##YUNITS=RELATIVE INTENSITY
##XFACTOR=1
##YFACTOR=1
##FIRSTX=26
##LASTX=124
##FIRSTY=30
##MAXX=124
##MINX=26
##MAXY=9999
##MINY=10
##NPOINTS=71
##PEAK TABLE=(XY..XY)
26,30 27,60 31,40 33,20
37,60 38,90 39,230 44,10
45,30 46,10 49,90 50,721
51,811 52,130 53,10 56,40
57,410 58,10 59,20 60,240
61,390 62,260 63,440 64,30
65,20 68,200 69,280 70,440
71,30 72,10 73,90 74,621
75,1421 76,270 77,120 78,100
79,10 80,30 81,240 82,20
83,160 84,20 85,50 86,60
87,110 88,10 89,80 91,10
92,70 93,120 94,380 95,460
96,4194 97,280 98,130 99,120
100,120 101,3023 102,711 103,210
104,20 105,30 107,230 108,20
118,10 119,20 120,621 121,3643
122,9999 123,881 124,30
##END=
