##TITLE=Benzene, (fluoromethyl)-
##JCAMP-DX=4.24
##DATA TYPE=MASS SPECTRUM
##ORIGIN=Japan AIST/NIMC Database- Spectrum MS-NW-7141
##OWNER=NIST Mass Spectrometry Data Center
Collection (C) 2014 copyright by the U.S. Secretary of Commerce
on behalf of the United States of America. All rights reserved.
##CAS REGISTRY NO=350-50-5
##$NIST MASS SPEC NO=235765
##MOLFORM=C7 H7 F
##MW=110
##$NIST SOURCE=MSDC
##XUNITS=M/Z
##YUNITS=RELATIVE INTENSITY
##XFACTOR=1
##YFACTOR=1
##FIRSTX=20
##LASTX=112
##FIRSTY=10
##MAXX=112
##MINX=20
##MAXY=9999
##MINY=10
##NPOINTS=71
##PEAK TABLE=(XY..XY)
20,10 25,10 26,70 27,139
28,50 31,99 32,40 33,10
36,10 37,119 38,249 39,749
40,50 41,60 42,10 43,80
44,99 45,149 46,10 48,10
49,60 50,529 51,819 52,139
53,30 54,139 55,119 56,30
57,529 58,40 59,159 60,20
61,129 62,269 63,609 64,129
65,439 66,20 68,20 69,30
70,70 71,20 73,40 74,139
75,90 76,50 77,219 78,50
79,20 80,20 81,169 82,60
83,1249 84,109 85,40 86,60
87,40 88,20 89,379 90,139
91,829 92,109 95,10 105,30
106,20 107,239 108,109 109,9999
110,5489 111,389 112,10
##END=
