##TITLE=2-Butanone, 3-hydroxy-, (2,4-dinitrophenyl)hydrazone
##JCAMP-DX=4.24
##DATA TYPE=MASS SPECTRUM
##ORIGIN=CARL DJERASSI DEPT OF CHEM STANFORD UNIV STANFORD CALIF 94305
##OWNER=NIST Mass Spectrometry Data Center
Collection (C) 2014 copyright by the U.S. Secretary of Commerce
on behalf of the United States of America. All rights reserved.
##CAS REGISTRY NO=35015-94-2
##$NIST MASS SPEC NO=47854
##MOLFORM=C10 H12 N4 O5
##MW=268
##$NIST SOURCE=MSDC
##XUNITS=M/Z
##YUNITS=RELATIVE INTENSITY
##XFACTOR=1
##YFACTOR=1
##FIRSTX=30
##LASTX=267
##FIRSTY=1400
##MAXX=267
##MINX=30
##MAXY=9999
##MINY=200
##NPOINTS=39
##PEAK TABLE=(XY..XY)
30,1400 41,200 42,2600 43,9999
44,200 50,200 51,500 52,300
62,600 63,800 64,400 75,700
76,300 77,400 78,600 79,500
80,200 88,400 89,200 90,300
91,200 106,300 122,200 131,200
132,200 135,500 136,200 137,200
152,400 153,200 165,300 177,200
179,200 180,200 181,2200 182,800
183,300 266,1800 267,400
##END=
