##TITLE=Decyloxybenzene
##JCAMP-DX=4.24
##DATA TYPE=MASS SPECTRUM
##ORIGIN=Institute of Organic Chemistry, USSR, 1990
##OWNER=NIST Mass Spectrometry Data Center
Collection (C) 2014 copyright by the U.S. Secretary of Commerce
on behalf of the United States of America. All rights reserved.
##CAS REGISTRY NO=35021-67-1
##$NIST MASS SPEC NO=110357
##MOLFORM=C16 H26 O
##MW=234
##$NIST SOURCE=MSDC
##XUNITS=M/Z
##YUNITS=RELATIVE INTENSITY
##XFACTOR=1
##YFACTOR=1
##FIRSTX=40
##LASTX=235
##FIRSTY=100
##MAXX=235
##MINX=40
##MAXY=9999
##MINY=50
##NPOINTS=64
##PEAK TABLE=(XY..XY)
40,100 41,2420 42,320 43,2510
44,50 45,110 50,120 51,390
52,50 53,80 54,160 55,1750
56,690 57,1660 58,130 59,150
61,90 63,240 65,840 66,330
67,130 68,100 69,1020 70,200
71,620 75,160 77,920 78,220
79,130 82,200 83,280 84,80
85,310 86,110 91,540 92,130
94,9999 95,1010 96,220 97,360
98,210 103,420 104,130 105,780
107,160 109,70 110,60 111,110
112,110 115,60 116,70 117,140
119,1430 120,580 124,50 138,60
139,50 140,140 141,60 143,50
168,70 169,80 234,1680 235,440
##END=
