##TITLE=2-Buten-1-one, 1-(2,6,6-trimethyl-1-cyclohexen-1-yl)-
##JCAMP-DX=4.24
##DATA TYPE=MASS SPECTRUM
##ORIGIN=Japan AIST/NIMC Database- Spectrum MS-IW-6332
##OWNER=NIST Mass Spectrometry Data Center
Collection (C) 2014 copyright by the U.S. Secretary of Commerce
on behalf of the United States of America. All rights reserved.
##CAS REGISTRY NO=35044-68-9
##$NIST MASS SPEC NO=233268
##MOLFORM=C13 H20 O
##MW=192
##$NIST SOURCE=MSDC
##XUNITS=M/Z
##YUNITS=RELATIVE INTENSITY
##XFACTOR=1
##YFACTOR=1
##FIRSTX=14
##LASTX=195
##FIRSTY=20
##MAXX=195
##MINX=14
##MAXY=9999
##MINY=10
##NPOINTS=158
##PEAK TABLE=(XY..XY)
14,20 15,80 16,10 26,30
27,729 28,159 29,749 30,10
37,10 38,60 39,1779 40,289
41,4589 42,249 43,1509 44,109
45,109 46,10 50,90 51,439
52,199 53,1019 54,139 55,1639
56,179 57,519 58,70 59,40
60,40 61,10 62,40 63,179
64,99 65,729 66,199 67,1259
68,169 69,6309 70,339 71,169
72,30 73,30 74,30 75,40
76,40 77,1289 78,279 79,1519
80,289 81,3269 82,589 83,429
84,50 85,109 86,20 87,20
88,10 89,60 90,20 91,1709
92,249 93,1669 94,279 95,1399
96,249 97,229 98,50 99,20
101,10 102,30 103,169 104,60
105,1059 106,209 107,2659 108,559
109,1379 110,1669 111,319 112,60
113,30 114,10 115,229 116,99
117,329 118,80 119,589 120,189
121,2829 122,829 123,4719 124,669
125,119 126,50 127,70 128,149
129,169 130,80 131,399 132,80
133,549 134,169 135,1989 136,719
137,419 138,319 139,309 140,80
141,90 142,80 143,80 144,209
145,169 146,70 147,299 148,149
149,1499 150,439 151,1019 152,169
153,50 154,30 155,60 156,20
157,149 158,40 159,999 160,149
161,239 162,209 163,519 164,379
165,119 166,30 167,30 168,10
169,10 170,40 171,20 172,60
173,119 174,109 175,229 176,90
177,9999 178,1379 179,129 180,20
186,10 187,10 188,30 189,30
190,139 191,359 192,4309 193,839
194,80 195,20
##END=
