##TITLE=1,1'-Biphenyl, 2,2',4,4',5,5'-hexachloro-
##JCAMP-DX=4.24
##DATA TYPE=MASS SPECTRUM
##ORIGIN=T.L.Hayes, Battelle Columbus Laboratories, Columbus, OH 43221
##OWNER=NIST Mass Spectrometry Data Center
Collection (C) 2014 copyright by the U.S. Secretary of Commerce
on behalf of the United States of America. All rights reserved.
##CAS REGISTRY NO=35065-27-1
##$NIST MASS SPEC NO=80828
##MOLFORM=C12 H4 Cl6
##MW=358
##$NIST SOURCE=MSDC
##XUNITS=M/Z
##YUNITS=RELATIVE INTENSITY
##XFACTOR=1
##YFACTOR=1
##FIRSTX=30
##LASTX=370
##FIRSTY=3
##MAXX=370
##MINX=30
##MAXY=9999
##MINY=1
##NPOINTS=268
##PEAK TABLE=(XY..XY)
30,3 35,1061 36,726 37,1035
38,723 39,132 41,218 42,105
43,199 44,19 45,8 47,373
48,120 49,631 50,772 51,181
52,88 53,12 55,215 56,169
57,242 58,14 59,6 60,695
61,1654 62,917 63,143 64,8
65,7 66,108 67,184 68,28
69,6 70,136 71,236 72,1180
73,2860 74,3000 75,458 76,48
77,141 78,841 79,653 80,23
81,1 82,70 83,323 84,1764
85,1591 86,1243 87,307 88,20
90,1404 91,344 92,1150 93,7
94,109 95,202 96,1160 97,1512
98,2142 99,687 100,55 101,32
102,56 103,57 104,17 106,90
107,815 108,2336 109,5692 110,3591
111,1167 112,63 114,459 115,329
116,99 117,16 118,227 119,343
120,761 121,857 122,1332 123,588
124,89 126,3370 127,3774 128,2199
129,8 130,60 131,368 132,1020
133,1010 134,523 135,356 136,68
137,18 138,7 139,10 140,2
141,36 142,128 144,7720 145,8557
146,5355 147,2045 148,784 149,153
150,71 151,38 152,14 153,5
154,90 155,86 156,316 157,397
158,388 159,178 160,128 161,674
162,1155 163,1272 164,219 165,53
166,68 167,211 168,230 169,352
170,163 171,219 172,48 173,38
174,6 176,2 177,2 179,1308
180,2303 181,2358 182,2079 183,1315
184,683 185,351 186,90 187,11
189,2 190,11 191,61 192,159
193,200 194,151 195,113 196,52
197,19 198,2 201,3 202,20
203,159 204,231 205,209 206,230
207,99 208,74 209,18 210,9
212,1 213,1 214,27 215,57
216,216 217,603 218,3553 219,769
220,2233 221,344 222,351 223,45
224,4 226,4 227,31 228,198
229,50 230,179 231,33 232,56
233,8 234,6 235,1 238,160
239,26 240,195 241,54 242,104
243,36 244,24 245,9 246,1
249,1 250,5 251,47 252,701
253,731 254,993 255,714 256,577
257,249 258,131 259,35 260,12
262,23 263,6 264,32 265,8
266,20 267,3 268,5 270,1
274,2 275,11 276,3 277,14
278,2 279,8 280,1 281,2
284,1 285,4 286,23 288,6047
289,857 290,7317 291,1037 292,3687
293,478 294,841 295,112 296,71
297,9 298,3 300,5 302,2
311,2 313,1 322,86 323,877
324,575 325,1368 326,846 327,906
328,495 329,315 330,161 331,59
332,25 333,4 356,1 358,7057
359,372 360,9999 361,1454 362,9182
363,1101 364,4158 365,513 366,1036
367,123 368,136 369,17 370,7
##END=
