##TITLE=1,1'-Biphenyl, 2,2',3,3',4,4',5-heptachloro-
##JCAMP-DX=4.24
##DATA TYPE=MASS SPECTRUM
##ORIGIN=Organic Synthesis Lab, MSU, Moscow.TRC 1217
##OWNER=NIST Mass Spectrometry Data Center
Collection (C) 2014 copyright by the U.S. Secretary of Commerce
on behalf of the United States of America. All rights reserved.
##CAS REGISTRY NO=35065-30-6
##$NIST MASS SPEC NO=326602
##MOLFORM=C12 H3 Cl7
##MW=392
##$NIST SOURCE=MSDC
##XUNITS=M/Z
##YUNITS=RELATIVE INTENSITY
##XFACTOR=1
##YFACTOR=1
##FIRSTX=43
##LASTX=404
##FIRSTY=33
##MAXX=404
##MINX=43
##MAXY=9999
##MINY=19
##NPOINTS=174
##PEAK TABLE=(XY..XY)
43,33 44,183 47,76 48,23
49,77 50,94 57,33 60,85
61,177 62,90 67,22 71,73
72,125 73,394 74,253 75,61
82,26 83,65 84,333 85,237
86,162 87,37 91,136 94,25
95,92 96,240 97,218 98,302
99,59 102,20 106,32 107,155
108,559 109,397 110,232 111,64
113,42 114,35 118,97 119,95
120,187 121,178 122,149 123,50
126,598 127,561 128,164 129,28
130,25 131,104 132,266 133,223
134,98 135,54 138,23 141,32
142,48 143,402 144,541 145,383
146,348 147,101 148,46 149,19
154,46 155,44 156,138 157,73
158,60 159,23 161,815 162,1293
163,853 164,260 165,55 166,46
167,90 168,62 169,102 170,52
171,25 178,141 180,253 181,286
182,340 183,88 184,102 185,31
190,25 191,31 192,76 193,32
194,31 196,154 197,326 198,375
199,199 200,67 201,19 203,67
204,53 205,69 206,37 207,39
215,54 216,252 217,284 218,223
219,237 220,38 221,43 226,29
227,42 228,83 229,42 230,46
238,63 239,27 240,96 241,31
242,55 250,48 251,103 252,1296
253,312 254,1317 255,208 256,419
257,44 258,38 262,28 263,23
264,61 276,21 286,239 287,425
288,421 289,528 290,249 291,244
292,89 293,49 294,21 322,3485
323,539 324,5880 325,753 326,3822
327,467 328,1192 329,122 330,211
357,1307 358,298 359,2464 360,423
361,2021 362,339 363,891 364,134
365,223 392,4473 393,619 394,9999
395,1310 396,9575 397,1217 398,5039
399,671 400,1700 401,206 402,296
403,42 404,42
##END=
