##TITLE=1,1'-Biphenyl, 2,2',3,4,4',5,5'-heptachloro-
##JCAMP-DX=4.24
##DATA TYPE=MASS SPECTRUM
##ORIGIN=N. Todua, WGM, MMES
##OWNER=NIST Mass Spectrometry Data Center
Collection (C) 2014 copyright by the U.S. Secretary of Commerce
on behalf of the United States of America. All rights reserved.
##CAS REGISTRY NO=35065-29-3
##$NIST MASS SPEC NO=334771
##MOLFORM=C12 H3 Cl7
##MW=392
##$NIST SOURCE=MSDC
##XUNITS=M/Z
##YUNITS=RELATIVE INTENSITY
##XFACTOR=1
##YFACTOR=1
##FIRSTX=41
##LASTX=404
##FIRSTY=188
##MAXX=404
##MINX=41
##MAXY=9999
##MINY=125
##NPOINTS=156
##PEAK TABLE=(XY..XY)
41,188 43,188 44,313 45,125
47,188 50,188 55,125 59,188
61,188 62,188 71,125 72,188
73,251 75,188 76,125 78,188
79,188 83,188 84,251 85,251
86,188 91,251 92,188 95,188
96,188 97,188 98,251 99,188
106,125 107,188 108,313 109,313
110,251 111,188 115,125 118,188
119,188 120,251 121,251 122,188
126,439 127,376 128,251 131,188
132,313 133,251 134,188 135,188
143,313 144,439 145,376 146,251
147,188 156,188 157,188 159,188
161,564 162,815 163,627 164,313
166,188 167,188 168,188 169,188
170,188 178,188 180,251 181,251
182,313 183,188 184,188 190,125
192,188 193,188 194,188 195,251
196,376 197,376 198,251 199,188
201,125 202,188 203,188 204,188
205,188 206,188 214,188 215,376
216,376 217,313 218,251 219,188
221,188 227,188 237,125 238,188
239,188 240,188 241,188 242,188
250,125 251,251 252,1128 253,313
254,1003 255,313 256,502 257,188
263,188 264,188 266,188 274,188
275,188 276,125 286,376 287,439
288,439 289,502 290,313 291,313
292,188 322,3187 323,564 324,5130
325,752 326,3312 327,564 328,1254
329,251 330,313 331,188 356,125
357,815 358,313 359,1379 360,376
361,1254 362,313 363,564 364,251
365,251 366,188 367,188 392,4378
393,752 394,9999 395,1442 396,9811
397,1316 398,5370 399,878 400,1745
401,313 402,439 403,188 404,188
##END=
