##TITLE=1,1'-Biphenyl, 2,2',3,4,4',5'-hexachloro-
##JCAMP-DX=4.24
##DATA TYPE=MASS SPECTRUM
##ORIGIN=H.Siren ET AL.Chromatographia,34,421(1992)
##OWNER=NIST Mass Spectrometry Data Center
Collection (C) 2014 copyright by the U.S. Secretary of Commerce
on behalf of the United States of America. All rights reserved.
##CAS REGISTRY NO=35065-28-2
##$NIST MASS SPEC NO=281609
##MOLFORM=C12 H4 Cl6
##MW=358
##$NIST SOURCE=MSDC
##XUNITS=M/Z
##YUNITS=RELATIVE INTENSITY
##XFACTOR=1
##YFACTOR=1
##FIRSTX=22
##LASTX=368
##FIRSTY=150
##MAXX=368
##MINX=22
##MAXY=9999
##MINY=22
##NPOINTS=148
##PEAK TABLE=(XY..XY)
22,150 23,110 24,70 25,130
26,460 27,1301 28,180 29,2372
31,1672 33,170 34,170 36,330
37,220 38,260 39,811 40,290
41,1321 42,226 43,228 44,433
45,61 46,22 47,220 48,110
49,170 51,200 52,170 53,260
54,260 55,941 56,591 57,1031
58,260 60,1121 61,280 62,150
63,90 64,200 65,170 66,150
67,260 68,290 69,500 70,350
71,480 73,791 74,310 76,110
78,180 79,150 80,240 81,200
82,260 84,290 85,400 86,200
87,220 88,150 90,330 91,110
92,110 95,260 96,290 97,571
98,370 102,110 103,110 109,550
110,420 111,150 112,110 113,200
114,150 115,170 120,110 121,150
122,200 124,110 126,500 127,260
129,110 131,90 132,130 133,200
134,110 135,170 144,901 145,1161
146,310 147,150 148,260 157,110
158,60 162,310 163,220 164,60
165,110 167,170 169,170 179,180
180,400 181,400 182,400 183,310
184,150 203,110 205,110 206,170
216,240 217,60 218,1011 219,290
220,751 221,150 222,220 228,40
253,480 254,420 255,420 256,200
257,200 288,3563 289,571 290,4554
291,60 292,2202 293,370 294,621
323,1521 324,330 325,2442 326,460
327,1712 328,290 329,591 331,170
341,40 358,4954 359,731 360,9999
361,1341 362,7587 363,1031 364,3503
365,480 366,951 367,260 368,60
##END=
