##TITLE=Acetanilide, 4'-fluoro-
##JCAMP-DX=4.24
##DATA TYPE=MASS SPECTRUM
##ORIGIN=NIST Mass Spectrometry Data Center
##OWNER=NIST Mass Spectrometry Data Center
Collection (C) 2014 copyright by the U.S. Secretary of Commerce
on behalf of the United States of America. All rights reserved.
##CAS REGISTRY NO=351-83-7
##$NIST MASS SPEC NO=341049
##MOLFORM=C8 H8 F N O
##MW=153
##$NIST SOURCE=MSDC
##XUNITS=M/Z
##YUNITS=RELATIVE INTENSITY
##XFACTOR=1
##YFACTOR=1
##FIRSTX=15
##LASTX=155
##FIRSTY=20
##MAXX=155
##MINX=15
##MAXY=9999
##MINY=10
##NPOINTS=74
##PEAK TABLE=(XY..XY)
15,20 27,10 31,40 33,10
37,30 38,60 39,90 40,20
41,50 42,110 43,1922 44,50
45,20 49,10 50,120 51,100
52,140 53,10 54,20 55,20
56,130 57,911 58,60 59,10
61,80 62,160 63,330 64,230
65,80 66,10 67,10 68,40
69,70 70,30 71,10 72,20
73,10 74,70 75,260 76,40
77,20 78,10 80,20 81,200
82,240 83,1371 84,1311 85,110
87,10 88,10 89,60 90,40
91,170 92,30 93,10 94,50
95,190 96,60 97,20 107,10
108,40 109,200 110,470 111,9999
112,731 113,20 122,30 124,70
137,50 138,40 152,20 153,1982
154,180 155,10
##END=
