##TITLE=3'-Fluoroacetanilide
##JCAMP-DX=4.24
##DATA TYPE=MASS SPECTRUM
##ORIGIN=NIST Mass Spectrometry Data Center
##OWNER=NIST Mass Spectrometry Data Center
Collection (C) 2014 copyright by the U.S. Secretary of Commerce
on behalf of the United States of America. All rights reserved.
##CAS REGISTRY NO=351-28-0
##$NIST MASS SPEC NO=342376
##MOLFORM=C8 H8 F N O
##MW=153
##$NIST SOURCE=MSDC
##XUNITS=M/Z
##YUNITS=RELATIVE INTENSITY
##XFACTOR=1
##YFACTOR=1
##FIRSTX=13
##LASTX=155
##FIRSTY=40
##MAXX=155
##MINX=13
##MAXY=9999
##MINY=10
##NPOINTS=85
##PEAK TABLE=(XY..XY)
13,40 14,230 15,1141 16,10
18,10 25,10 26,40 27,50
28,240 29,10 31,180 32,10
33,90 37,140 38,270 39,320
40,100 41,170 42,420 43,4594
44,140 45,30 46,20 48,20
49,40 50,200 51,170 52,200
53,30 54,20 55,30 56,140
57,1101 58,70 61,140 62,240
63,430 64,340 65,160 66,20
67,10 68,80 69,120 70,90
71,20 72,40 73,20 74,80
75,390 76,60 77,40 78,10
79,10 80,40 81,240 82,320
83,1411 84,1591 85,130 86,10
87,10 88,20 89,70 90,60
91,290 92,40 93,20 94,70
95,280 96,70 97,40 106,10
107,10 108,50 109,180 111,9999
112,711 113,20 122,20 124,60
137,40 138,40 153,2162 154,190
155,10
##END=
