##TITLE=Benzoic acid, 2,4-dichloro-, methyl ester
##JCAMP-DX=4.24
##DATA TYPE=MASS SPECTRUM
##ORIGIN=NIST Mass Spectrometry Data Center, 2011
##OWNER=NIST Mass Spectrometry Data Center
Collection (C) 2014 copyright by the U.S. Secretary of Commerce
on behalf of the United States of America. All rights reserved.
##CAS REGISTRY NO=35112-28-8
##$NIST MASS SPEC NO=385703
##MOLFORM=C8 H6 Cl2 O2
##MW=204
##$NIST SOURCE=MSDC
##XUNITS=M/Z
##YUNITS=RELATIVE INTENSITY
##XFACTOR=1
##YFACTOR=1
##FIRSTX=14
##LASTX=209
##FIRSTY=10
##MAXX=209
##MINX=14
##MAXY=9999
##MINY=10
##NPOINTS=115
##PEAK TABLE=(XY..XY)
14,10 15,140 26,10 28,30
29,220 30,80 31,30 35,20
36,40 37,140 38,90 39,30
47,30 48,20 49,150 50,490
51,90 53,50 55,70 56,30
59,120 60,60 61,130 62,110
63,200 64,20 65,10 71,20
72,100 73,450 74,1882 75,1601
76,130 77,80 83,20 84,450
85,270 86,170 87,130 88,20
89,50 90,10 91,20 94,10
95,10 96,10 97,60 98,40
99,20 100,20 101,20 103,20
106,10 107,20 108,130 109,2042
110,811 111,831 112,260 113,60
114,10 118,10 119,100 121,40
122,10 123,10 125,40 126,140
127,20 128,40 129,10 132,10
133,30 134,10 135,20 137,60
138,170 139,50 140,60 141,10
143,10 145,2692 146,240 147,1732
148,130 149,290 150,20 153,60
154,60 155,30 156,20 159,20
160,10 161,70 162,10 163,40
169,60 170,10 171,30 173,9999
174,831 175,6376 176,490 177,1031
178,80 187,10 188,10 189,10
203,180 204,2132 205,310 206,1341
207,120 208,200 209,10
##END=
