##TITLE=Oxirane-2,2-dicarbonitrile, 3-(2-chlorophenyl)-
##JCAMP-DX=4.24
##DATA TYPE=MASS SPECTRUM
##ORIGIN=A.A.Kutin, Moscow, Russia
##OWNER=NIST Mass Spectrometry Data Center
Collection (C) 2014 copyright by the U.S. Secretary of Commerce
on behalf of the United States of America. All rights reserved.
##CAS REGISTRY NO=3513-08-4
##$NIST MASS SPEC NO=273338
##MOLFORM=C10 H5 Cl N2 O
##MW=204
##$NIST SOURCE=MSDC
##XUNITS=M/Z
##YUNITS=RELATIVE INTENSITY
##XFACTOR=1
##YFACTOR=1
##FIRSTX=36
##LASTX=207
##FIRSTY=140
##MAXX=207
##MINX=36
##MAXY=9999
##MINY=100
##NPOINTS=60
##PEAK TABLE=(XY..XY)
36,140 37,130 38,390 39,440
40,1571 43,110 44,500 49,130
50,1121 51,861 52,110 61,220
62,530 63,831 64,270 66,120
73,320 74,591 75,1491 76,771
77,651 85,350 86,170 87,270
88,240 89,5765 90,400 99,150
111,1431 112,250 113,621 114,881
115,150 123,220 124,2102 125,260
126,821 127,100 139,2352 140,3663
141,9999 142,1121 149,2262 150,380
151,831 152,170 153,240 169,2092
170,250 175,200 176,1151 177,430
178,410 179,130 188,170 203,540
204,6005 205,821 206,2082 207,310
##END=
