##TITLE=L-Cysteine, S-(2-methoxy-2-oxoethyl)-N-[N-[N-[N-(1-oxopropyl)-L-phenylalanyl]-L-leucyl]glycyl]-, methyl ester
##JCAMP-DX=4.24
##DATA TYPE=MASS SPECTRUM
##OWNER=NIST Mass Spectrometry Data Center
Collection (C) 2014 copyright by the U.S. Secretary of Commerce
on behalf of the United States of America. All rights reserved.
##CAS REGISTRY NO=35146-63-5
##$NIST MASS SPEC NO=31049
##MOLFORM=C27 H40 N4 O8 S
##MW=580
##$NIST SOURCE=MSDC
##XUNITS=M/Z
##YUNITS=RELATIVE INTENSITY
##XFACTOR=1
##YFACTOR=1
##FIRSTX=52
##LASTX=580
##FIRSTY=662
##MAXX=580
##MINX=52
##MAXY=9999
##MINY=184
##NPOINTS=80
##PEAK TABLE=(XY..XY)
52,662 53,441 54,662 55,2353
56,1691 57,7095 58,846 59,3308
60,588 61,846 67,662 69,478
70,662 71,2206 72,1581 73,1544
74,662 75,588 76,5367 77,1213
78,478 79,735 80,478 81,478
83,478 84,662 85,735 86,2463
87,1838 88,8602 89,5147 90,993
91,625 92,3750 93,846 94,588
95,588 96,588 97,919 98,1397
99,1103 100,662 101,1029 102,2059
103,2279 104,3676 105,772 106,5735
175,1287 176,9999 177,2794 178,625
203,515 204,5588 205,1470 206,515
249,662 287,441 288,257 289,1323
290,478 291,441 300,441 316,1103
317,5073 318,662 319,221 346,441
350,441 351,184 352,257 372,221
373,846 374,3603 375,772 376,257
377,478 378,257 397,368 580,294
##END=
