##TITLE=Thiazolo[3,2-a]pyridinium, 3,8-dihydroxy-2-phenyl-, hydroxide, inner salt
##JCAMP-DX=4.24
##DATA TYPE=MASS SPECTRUM
##ORIGIN=K. UNDHEIM
##OWNER=NIST Mass Spectrometry Data Center
Collection (C) 2014 copyright by the U.S. Secretary of Commerce
on behalf of the United States of America. All rights reserved.
##CAS REGISTRY NO=35143-57-8
##$NIST MASS SPEC NO=41603
##MOLFORM=C13 H9 N O2 S
##MW=243
##$NIST SOURCE=MSDC
##XUNITS=M/Z
##YUNITS=RELATIVE INTENSITY
##XFACTOR=1
##YFACTOR=1
##FIRSTX=39
##LASTX=245
##FIRSTY=2900
##MAXX=245
##MINX=39
##MAXY=9999
##MINY=200
##NPOINTS=61
##PEAK TABLE=(XY..XY)
39,2900 40,300 41,300 42,200
43,700 44,700 45,400 50,400
51,900 52,300 53,200 54,200
55,500 57,200 62,300 63,900
64,400 65,400 66,300 67,400
69,400 70,300 71,200 76,200
77,2600 78,500 79,200 80,200
81,200 82,200 83,500 89,1900
90,2400 91,500 93,600 94,300
95,500 105,600 111,300 115,200
118,1400 119,300 120,300 121,9999
122,900 123,500 127,1000 128,200
134,200 138,600 152,300 154,500
181,400 182,1100 183,300 214,2900
215,1000 216,200 243,6600 244,1100
245,400
##END=
