##TITLE=5-Tetradecen-1-ol, acetate, (Z)-
##JCAMP-DX=4.24
##DATA TYPE=MASS SPECTRUM
##ORIGIN=NIST Mass Spectrometry Data Center, 1998.
##OWNER=NIST Mass Spectrometry Data Center
Collection (C) 2014 copyright by the U.S. Secretary of Commerce
on behalf of the United States of America. All rights reserved.
##CAS REGISTRY NO=35153-13-0
##$NIST MASS SPEC NO=291636
##MOLFORM=C16 H30 O2
##MW=254
##$NIST SOURCE=MSDC
##XUNITS=M/Z
##YUNITS=RELATIVE INTENSITY
##XFACTOR=1
##YFACTOR=1
##FIRSTX=14
##LASTX=211
##FIRSTY=10
##MAXX=211
##MINX=14
##MAXY=9999
##MINY=10
##NPOINTS=112
##PEAK TABLE=(XY..XY)
14,10 15,100 26,30 27,620
28,140 29,1360 30,40 31,60
37,10 38,20 39,1100 40,220
41,5059 42,870 43,9999 44,290
45,70 50,20 51,90 52,90
53,1060 54,5359 55,5709 56,1070
57,1740 58,110 59,20 60,20
61,410 62,10 63,20 64,10
65,430 66,810 67,8379 68,5899
69,3290 70,700 71,530 72,40
73,160 74,10 77,460 78,110
79,1890 80,1070 81,6899 82,9479
83,2900 84,360 85,180 86,30
87,20 88,10 91,270 92,40
93,500 94,430 95,6059 96,6029
97,1460 98,200 99,40 100,10
101,50 102,10 103,10 105,30
106,10 107,90 108,120 109,2190
110,1900 111,440 112,160 113,20
114,10 115,10 116,10 121,40
122,90 123,1120 124,1530 125,210
126,50 127,20 128,10 135,20
136,60 137,920 138,1640 139,180
140,10 141,20 142,10 150,10
151,180 152,210 153,30 155,10
165,60 166,1050 167,140 168,10
170,10 179,10 193,10 194,1430
195,230 196,20 209,10 211,10
##END=
