##TITLE=Benzene, 1-methoxy-4-(methylsulfonyl)-
##JCAMP-DX=4.24
##DATA TYPE=MASS SPECTRUM
##ORIGIN=V.A.KOPTYUG, ATLAS OF MASS SPECTRA OF ORGANIC COMPOUNDS
##OWNER=NIST Mass Spectrometry Data Center
Collection (C) 2014 copyright by the U.S. Secretary of Commerce
on behalf of the United States of America. All rights reserved.
##CAS REGISTRY NO=3517-90-6
##$NIST MASS SPEC NO=78314
##MOLFORM=C8 H10 O3 S
##MW=186
##$NIST SOURCE=MSDC
##XUNITS=M/Z
##YUNITS=RELATIVE INTENSITY
##XFACTOR=1
##YFACTOR=1
##FIRSTX=62
##LASTX=186
##FIRSTY=373
##MAXX=186
##MINX=62
##MAXY=9999
##MINY=207
##NPOINTS=21
##PEAK TABLE=(XY..XY)
62,373 63,1538 64,2011 65,309
69,722 74,300 75,314 76,457
77,5849 78,446 79,300 92,3829
93,297 107,5029 108,475 123,1521
155,436 171,9999 172,751 173,443
186,207
##END=
