##TITLE=4,12-Dimethylbenz[a]anthracene
##JCAMP-DX=4.24
##DATA TYPE=MASS SPECTRUM
##ORIGIN=Organic Synthesis Lab, MSU, Moscow.TRC 422
##OWNER=NIST Mass Spectrometry Data Center
Collection (C) 2014 copyright by the U.S. Secretary of Commerce
on behalf of the United States of America. All rights reserved.
##CAS REGISTRY NO=35187-19-0
##$NIST MASS SPEC NO=326123
##MOLFORM=C20 H16
##MW=256
##$NIST SOURCE=MSDC
##XUNITS=M/Z
##YUNITS=RELATIVE INTENSITY
##XFACTOR=1
##YFACTOR=1
##FIRSTX=26
##LASTX=258
##FIRSTY=10
##MAXX=258
##MINX=26
##MAXY=9999
##MINY=10
##NPOINTS=126
##PEAK TABLE=(XY..XY)
26,10 27,100 38,10 39,110
40,10 41,10 43,30 44,10
50,40 51,80 52,10 53,10
62,40 63,110 64,10 65,10
74,50 75,70 76,40 77,30
78,10 83,10 84,10 86,30
87,70 88,90 89,20 93,10
94,20 95,10 98,30 99,50
100,140 101,220 102,10 105,10
106,50 107,70 108,60 110,20
111,40 112,230 113,591 114,401
115,40 118,90 119,381 120,912
121,50 122,10 123,10 124,70
125,240 126,561 127,431 128,481
129,10 134,10 135,10 137,10
139,30 149,10 150,50 151,30
152,30 161,10 162,20 163,60
164,20 165,20 174,40 175,30
176,60 177,10 178,20 179,10
185,10 186,20 187,100 188,40
189,100 190,20 198,30 199,40
200,140 201,80 202,220 203,60
210,10 211,70 212,40 213,210
214,60 215,561 216,110 217,10
222,20 223,40 224,160 225,120
226,491 227,190 228,200 229,180
230,30 235,40 236,40 237,391
238,220 239,3386 240,1974 241,2625
242,531 243,50 247,10 248,60
249,50 250,371 251,140 252,761
253,481 254,311 255,2094 256,9999
257,2194 258,210
##END=
