##TITLE=Benz(a)anthracene, 7,10,12-trimethyl-
##JCAMP-DX=4.24
##DATA TYPE=MASS SPECTRUM
##ORIGIN=Organic Synthesis Lab, MSU, Moscow.TRC 458
##OWNER=NIST Mass Spectrometry Data Center
Collection (C) 2014 copyright by the U.S. Secretary of Commerce
on behalf of the United States of America. All rights reserved.
##CAS REGISTRY NO=35187-27-0
##$NIST MASS SPEC NO=326155
##MOLFORM=C21 H18
##MW=270
##$NIST SOURCE=MSDC
##XUNITS=M/Z
##YUNITS=RELATIVE INTENSITY
##XFACTOR=1
##YFACTOR=1
##FIRSTX=26
##LASTX=272
##FIRSTY=10
##MAXX=272
##MINX=26
##MAXY=9999
##MINY=10
##NPOINTS=137
##PEAK TABLE=(XY..XY)
26,10 27,90 29,30 39,60
41,20 43,10 44,20 50,20
51,40 52,10 53,20 55,10
57,10 62,10 63,50 65,20
74,20 75,40 76,20 77,30
86,10 87,40 88,60 89,30
91,20 94,80 95,20 98,10
99,30 100,100 101,210 102,10
105,40 106,180 107,100 108,40
111,10 112,120 113,801 114,290
115,80 116,10 117,20 118,210
119,1171 120,1141 121,200 122,10
124,50 125,360 126,1171 127,621
128,130 130,50 131,250 132,110
133,100 134,170 135,851 136,20
139,30 141,30 142,10 149,10
150,30 151,30 152,50 153,10
162,10 163,30 164,10 165,30
174,20 175,20 176,50 177,20
178,30 179,20 186,10 187,50
188,20 189,70 190,10 198,10
199,10 200,60 201,30 202,80
203,20 211,30 212,10 213,100
214,20 215,110 216,30 222,10
223,10 224,80 225,60 226,300
227,130 228,160 229,110 230,20
235,20 236,10 237,130 238,80
239,1762 240,1291 241,350 242,170
243,110 244,20 248,30 249,30
250,300 251,160 252,1011 253,1171
254,1311 255,2793 256,631 257,90
258,10 261,30 262,10 263,170
264,70 265,110 266,80 267,120
268,110 269,701 270,9999 271,2232
272,280
##END=
