##TITLE=4-Hexenoic acid
##JCAMP-DX=4.24
##DATA TYPE=MASS SPECTRUM
##ORIGIN=CARL DJERASSI DEPT OF CHEM STANFORD UNIV STANFORD CALIF 94305
##OWNER=NIST Mass Spectrometry Data Center
Collection (C) 2014 copyright by the U.S. Secretary of Commerce
on behalf of the United States of America. All rights reserved.
##CAS REGISTRY NO=35194-36-6
##$NIST MASS SPEC NO=46351
##MOLFORM=C6 H10 O2
##MW=114
##$NIST SOURCE=MSDC
##XUNITS=M/Z
##YUNITS=RELATIVE INTENSITY
##XFACTOR=1
##YFACTOR=1
##FIRSTX=41
##LASTX=115
##FIRSTY=5500
##MAXX=115
##MINX=41
##MAXY=9999
##MINY=100
##NPOINTS=40
##PEAK TABLE=(XY..XY)
41,5500 42,1300 43,1100 44,100
45,800 50,200 51,300 52,200
53,1300 54,1100 55,9999 56,500
57,1200 58,300 59,100 60,5800
61,200 62,100 63,100 65,200
66,100 67,1100 68,3800 69,2800
70,200 71,700 72,300 73,1800
74,100 75,100 81,300 85,100
86,100 95,200 96,900 97,300
99,800 113,100 114,6300 115,500
##END=
