##TITLE=6-Octen-2-one
##JCAMP-DX=4.24
##DATA TYPE=MASS SPECTRUM
##ORIGIN=CARL DJERASSI DEPT OF CHEM STANFORD UNIV STANFORD CALIF 94305
##OWNER=NIST Mass Spectrometry Data Center
Collection (C) 2014 copyright by the U.S. Secretary of Commerce
on behalf of the United States of America. All rights reserved.
##CAS REGISTRY NO=35194-31-1
##$NIST MASS SPEC NO=46436
##MOLFORM=C8 H14 O
##MW=126
##$NIST SOURCE=MSDC
##XUNITS=M/Z
##YUNITS=RELATIVE INTENSITY
##XFACTOR=1
##YFACTOR=1
##FIRSTX=41
##LASTX=126
##FIRSTY=2200
##MAXX=126
##MINX=41
##MAXY=9999
##MINY=100
##NPOINTS=31
##PEAK TABLE=(XY..XY)
41,2200 42,300 43,9100 44,100
45,100 50,100 51,200 52,100
53,1000 54,300 55,2500 56,200
57,200 58,3000 59,500 65,100
66,200 67,3100 68,9999 69,1300
71,1000 77,100 79,100 81,100
83,400 84,100 93,100 97,500
108,800 111,200 126,700
##END=
