##TITLE=1-Bromo-3-fluoropropane
##JCAMP-DX=4.24
##DATA TYPE=MASS SPECTRUM
##ORIGIN=NIST Mass Spectrometry Data Center
##OWNER=NIST Mass Spectrometry Data Center
Collection (C) 2014 copyright by the U.S. Secretary of Commerce
on behalf of the United States of America. All rights reserved.
##CAS REGISTRY NO=352-91-0
##$NIST MASS SPEC NO=343725
##MOLFORM=C3 H6 Br F
##MW=140
##$NIST SOURCE=MSDC
##XUNITS=M/Z
##YUNITS=RELATIVE INTENSITY
##XFACTOR=1
##YFACTOR=1
##FIRSTX=12
##LASTX=143
##FIRSTY=50
##MAXX=143
##MINX=12
##MAXY=9999
##MINY=10
##NPOINTS=56
##PEAK TABLE=(XY..XY)
12,50 13,110 14,230 15,631
19,30 20,30 24,40 25,210
26,1682 27,6786 28,50 29,50
31,651 32,50 33,4474 34,50
35,10 36,80 37,490 38,681
39,2983 40,591 41,8658 42,290
44,110 45,561 46,220 47,350
55,20 56,100 57,661 59,4894
60,2492 61,9999 62,250 79,300
80,130 81,300 82,120 91,50
92,60 93,490 94,70 95,470
96,20 104,20 105,50 106,70
107,550 108,60 109,510 111,40
113,40 140,3924 142,3623 143,90
##END=
