##TITLE=Benzene, 1-fluoro-3-methyl-
##JCAMP-DX=4.24
##DATA TYPE=MASS SPECTRUM
##ORIGIN=Japan AIST/NIMC Database- Spectrum MS-NW-3165
##OWNER=NIST Mass Spectrometry Data Center
Collection (C) 2014 copyright by the U.S. Secretary of Commerce
on behalf of the United States of America. All rights reserved.
##CAS REGISTRY NO=352-70-5
##$NIST MASS SPEC NO=231427
##MOLFORM=C7 H7 F
##MW=110
##$NIST SOURCE=MSDC
##XUNITS=M/Z
##YUNITS=RELATIVE INTENSITY
##XFACTOR=1
##YFACTOR=1
##FIRSTX=26
##LASTX=112
##FIRSTY=30
##MAXX=112
##MINX=26
##MAXY=9999
##MINY=10
##NPOINTS=63
##PEAK TABLE=(XY..XY)
26,30 27,70 28,20 31,99
33,30 37,80 38,119 39,389
40,30 41,10 43,60 44,99
45,99 49,40 50,219 51,269
52,40 53,20 54,99 55,139
56,50 57,539 58,30 59,119
60,20 61,109 62,189 63,419
64,80 65,60 68,60 69,90
70,70 71,20 73,20 74,90
75,169 76,30 77,20 80,30
81,229 82,60 83,1159 84,119
85,40 86,50 87,40 88,10
89,189 90,60 91,169 92,10
93,10 94,30 95,40 105,30
106,10 107,389 108,209 109,9999
110,6599 111,479 112,10
##END=
