##TITLE=2-Butyl methylphosphonofluoridate
##JCAMP-DX=4.24
##DATA TYPE=MASS SPECTRUM
##ORIGIN=VERIFIN - Methodology B1-1979
##OWNER=NIST Mass Spectrometry Data Center
Collection (C) 2014 copyright by the U.S. Secretary of Commerce
on behalf of the United States of America. All rights reserved.
##CAS REGISTRY NO=352-52-3
##$NIST MASS SPEC NO=226121
##MOLFORM=C5 H12 F O2 P
##MW=154
##$NIST SOURCE=MSDC
##XUNITS=M/Z
##YUNITS=RELATIVE INTENSITY
##XFACTOR=1
##YFACTOR=1
##FIRSTX=27
##LASTX=139
##FIRSTY=300
##MAXX=139
##MINX=27
##MAXY=9999
##MINY=50
##NPOINTS=25
##PEAK TABLE=(XY..XY)
27,300 28,100 29,400 36,60
37,400 41,1301 42,80 43,300
47,200 53,50 55,100 56,700
57,400 67,90 79,100 80,50
81,800 82,90 98,100 99,9999
100,80 124,90 125,4704 126,100
139,500
##END=
