##TITLE=Benzene, 1-chloro-4-fluoro-
##JCAMP-DX=4.24
##DATA TYPE=MASS SPECTRUM
##ORIGIN=Chuck Anderson, Aldrich Chemical Co.
##OWNER=NIST Mass Spectrometry Data Center
Collection (C) 2014 copyright by the U.S. Secretary of Commerce
on behalf of the United States of America. All rights reserved.
##CAS REGISTRY NO=352-33-0
##$NIST MASS SPEC NO=107425
##MOLFORM=C6 H4 Cl F
##MW=130
##$NIST SOURCE=MSDC
##XUNITS=M/Z
##YUNITS=RELATIVE INTENSITY
##XFACTOR=1
##YFACTOR=1
##FIRSTX=24
##LASTX=134
##FIRSTY=2
##MAXX=134
##MINX=24
##MAXY=9999
##MINY=2
##NPOINTS=83
##PEAK TABLE=(XY..XY)
24,2 25,17 26,50 27,33
31,253 32,12 33,27 35,52
36,102 37,537 38,346 39,180
40,4 43,3 44,40 45,58
47,220 48,57 49,314 50,1337
51,429 52,21 54,6 55,80
56,106 57,224 58,6 60,118
61,342 62,310 63,366 64,51
65,597 66,209 67,19 68,716
69,664 70,190 71,27 72,104
73,485 74,1146 75,2818 76,193
77,4 78,3 79,10 80,52
81,52 82,14 83,10 84,110
85,54 86,47 87,15 91,46
92,134 93,286 94,784 95,4394
96,282 97,83 98,6 99,33
102,19 103,26 104,70 105,9
106,17 108,9 109,65 110,13
111,38 112,3 113,3 115,8
128,6 129,138 130,9999 131,652
132,3295 133,200 134,4
##END=
