##TITLE=2,2,2-Trifluoroethyl methacrylate
##JCAMP-DX=4.24
##DATA TYPE=MASS SPECTRUM
##ORIGIN=NIST Mass Spectrometry Data Center
##OWNER=NIST Mass Spectrometry Data Center
Collection (C) 2014 copyright by the U.S. Secretary of Commerce
on behalf of the United States of America. All rights reserved.
##CAS REGISTRY NO=352-87-4
##$NIST MASS SPEC NO=343723
##MOLFORM=C6 H7 F3 O2
##MW=168
##$NIST SOURCE=MSDC
##XUNITS=M/Z
##YUNITS=RELATIVE INTENSITY
##XFACTOR=1
##YFACTOR=1
##FIRSTX=12
##LASTX=169
##FIRSTY=10
##MAXX=169
##MINX=12
##MAXY=9999
##MINY=10
##NPOINTS=73
##PEAK TABLE=(XY..XY)
12,10 13,30 14,70 15,340
20,20 24,10 25,40 26,250
27,230 29,671 30,110 31,240
33,1041 36,20 37,330 38,851
39,5575 40,1431 41,9999 42,571
43,170 44,100 45,180 47,20
49,10 50,60 51,110 52,10
53,200 54,60 55,340 56,70
57,70 59,50 60,30 61,20
63,140 64,270 65,10 66,20
67,30 68,420 69,7497 70,380
71,70 72,180 73,20 77,50
80,20 81,10 83,1301 84,50
85,10 95,10 99,150 100,100
101,10 102,30 103,90 104,110
109,10 120,10 123,30 126,10
127,10 139,10 140,10 148,30
149,90 153,190 167,260 168,1722
169,110
##END=
