##TITLE=1-Methyl-2-phenoxyethylamine
##JCAMP-DX=4.24
##DATA TYPE=MASS SPECTRUM
##ORIGIN=Japan AIST/NIMC Database- Spectrum MS-NW-5457
##OWNER=NIST Mass Spectrometry Data Center
Collection (C) 2014 copyright by the U.S. Secretary of Commerce
on behalf of the United States of America. All rights reserved.
##CAS REGISTRY NO=35205-54-0
##$NIST MASS SPEC NO=235439
##MOLFORM=C9 H13 N O
##MW=151
##$NIST SOURCE=MSDC
##XUNITS=M/Z
##YUNITS=RELATIVE INTENSITY
##XFACTOR=1
##YFACTOR=1
##FIRSTX=15
##LASTX=152
##FIRSTY=90
##MAXX=152
##MINX=15
##MAXY=9999
##MINY=10
##NPOINTS=62
##PEAK TABLE=(XY..XY)
15,90 26,20 27,109 28,169
29,40 30,249 31,20 37,20
38,70 39,369 40,70 41,439
42,399 43,309 44,9999 45,279
50,99 51,349 52,40 53,10
54,10 55,40 56,119 57,279
58,779 59,40 62,20 63,70
64,30 65,219 66,109 67,10
68,20 70,10 72,10 74,30
75,20 76,20 77,509 78,119
79,60 80,10 84,70 91,80
92,10 93,30 94,419 95,40
105,30 106,10 107,70 108,189
109,10 119,50 120,10 133,10
134,10 135,10 136,10 150,30
151,169 152,60
##END=
