##TITLE=2-Norbornane carbonyl chloride
##JCAMP-DX=4.24
##DATA TYPE=MASS SPECTRUM
##ORIGIN=NIST Mass Spectrometry Data Center, 1994
##OWNER=NIST Mass Spectrometry Data Center
Collection (C) 2014 copyright by the U.S. Secretary of Commerce
on behalf of the United States of America. All rights reserved.
##CAS REGISTRY NO=35202-90-5
##$NIST MASS SPEC NO=135174
##MOLFORM=C8 H11 Cl O
##MW=158
##$NIST SOURCE=MSDC
##XUNITS=M/Z
##YUNITS=RELATIVE INTENSITY
##XFACTOR=1
##YFACTOR=1
##FIRSTX=12
##LASTX=158
##FIRSTY=34
##MAXX=158
##MINX=12
##MAXY=9999
##MINY=23
##NPOINTS=84
##PEAK TABLE=(XY..XY)
12,34 13,41 14,92 15,751
16,37 17,33 18,76 26,849
27,4558 28,1068 29,793 30,23
35,97 36,98 37,308 38,901
39,6460 40,1361 41,4101 42,376
43,146 44,54 45,99 47,113
48,82 49,149 50,654 51,1078
52,562 53,2072 54,1084 55,2327
56,156 57,60 60,24 61,119
62,261 63,911 64,24 65,2140
66,2311 67,7881 68,3448 69,366
70,34 73,87 74,62 75,116
76,24 77,1192 78,608 79,2226
80,4057 81,899 82,148 83,184
88,63 89,208 90,56 91,753
92,56 93,1213 94,1563 95,9999
96,774 97,36 101,86 102,82
103,88 104,225 105,138 106,53
107,97 114,86 115,51 116,59
117,178 119,42 122,800 123,1619
124,142 129,68 131,30 158,24
##END=
