##TITLE=7-Tetradecyne
##JCAMP-DX=4.24
##DATA TYPE=MASS SPECTRUM
##ORIGIN=S.A. Rang et al., IR & MS of Unsatd. Hydrocarbons, 1977
##OWNER=NIST Mass Spectrometry Data Center
Collection (C) 2014 copyright by the U.S. Secretary of Commerce
on behalf of the United States of America. All rights reserved.
##CAS REGISTRY NO=35216-11-6
##$NIST MASS SPEC NO=142654
##MOLFORM=C14 H26
##MW=194
##$NIST SOURCE=MSDC
##XUNITS=M/Z
##YUNITS=RELATIVE INTENSITY
##XFACTOR=1
##YFACTOR=1
##FIRSTX=15
##LASTX=195
##FIRSTY=91
##MAXX=195
##MINX=15
##MAXY=9999
##MINY=6
##NPOINTS=125
##PEAK TABLE=(XY..XY)
15,91 16,6 24,6 25,26
26,181 27,2935 28,367 29,4696
30,105 31,18 37,26 38,64
39,2054 40,483 41,8085 42,1371
43,5943 44,167 45,26 49,6
50,82 51,357 52,821 53,2054
54,7190 55,6163 56,695 57,743
58,67 59,21 60,23 61,6
62,9 63,70 64,38 65,763
66,782 67,9999 68,3375 69,3448
70,531 71,237 72,26 73,15
74,6 75,23 76,12 77,946
78,251 79,1908 80,599 81,8085
82,2568 83,1467 84,173 85,70
86,9 87,6 89,9 90,6
91,521 92,85 93,550 94,251
95,5356 96,2641 97,608 98,64
103,12 104,12 105,85 106,21
107,155 108,97 109,3522 110,946
111,149 112,21 113,41 114,6
115,18 116,6 117,12 118,6
119,21 120,6 121,56 122,35
123,753 124,328 125,79 126,12
127,15 128,9 129,6 131,6
133,9 135,23 136,9 137,386
138,114 139,73 140,18 141,6
142,6 147,6 149,9 150,6
151,211 152,70 153,35 154,6
155,6 161,6 163,9 164,9
165,483 166,73 167,12 179,56
180,9 192,6 193,12 194,35
195,6
##END=
