##TITLE=2,6-Dinitrobenzonitrile
##JCAMP-DX=4.24
##DATA TYPE=MASS SPECTRUM
##ORIGIN=NIST Mass Spectrometry Data Center
##OWNER=NIST Mass Spectrometry Data Center
Collection (C) 2014 copyright by the U.S. Secretary of Commerce
on behalf of the United States of America. All rights reserved.
##CAS REGISTRY NO=35213-00-4
##$NIST MASS SPEC NO=342730
##MOLFORM=C7 H3 N3 O4
##MW=193
##$NIST SOURCE=MSDC
##XUNITS=M/Z
##YUNITS=RELATIVE INTENSITY
##XFACTOR=1
##YFACTOR=1
##FIRSTX=14
##LASTX=194
##FIRSTY=10
##MAXX=194
##MINX=14
##MAXY=9999
##MINY=10
##NPOINTS=62
##PEAK TABLE=(XY..XY)
14,10 17,100 18,60 26,210
27,100 28,110 30,9999 31,70
36,80 37,751 38,961 39,280
40,150 44,50 46,1511 48,90
49,380 50,3833 51,540 52,210
53,130 54,360 55,70 60,80
61,631 62,1902 63,1251 64,420
65,90 66,160 72,130 73,581
74,2172 75,6726 76,861 77,1341
78,170 86,180 87,270 88,561
89,1181 90,340 91,380 99,1271
100,1682 101,3763 102,290 103,480
104,80 105,210 116,60 117,530
118,70 121,160 133,6926 134,591
147,190 163,5895 164,540 177,170
193,991 194,100
##END=
