##TITLE=Hexane, 2,2,5-trimethyl-
##JCAMP-DX=4.24
##DATA TYPE=MASS SPECTRUM
##ORIGIN=Japan AIST/NIMC Database- Spectrum MS-NW-2946
##OWNER=NIST Mass Spectrometry Data Center
Collection (C) 2014 copyright by the U.S. Secretary of Commerce
on behalf of the United States of America. All rights reserved.
##CAS REGISTRY NO=3522-94-9
##$NIST MASS SPEC NO=228253
##MOLFORM=C9 H20
##MW=128
##$NIST SOURCE=MSDC
##XUNITS=M/Z
##YUNITS=RELATIVE INTENSITY
##XFACTOR=1
##YFACTOR=1
##FIRSTX=15
##LASTX=114
##FIRSTY=30
##MAXX=114
##MINX=15
##MAXY=9999
##MINY=10
##NPOINTS=34
##PEAK TABLE=(XY..XY)
15,30 26,10 27,389 28,169
29,839 30,20 38,10 39,349
40,60 41,1769 42,129 43,1519
44,50 48,10 50,10 51,20
52,10 53,90 54,20 55,359
56,3369 57,9999 58,439 65,10
67,20 69,109 70,349 71,1799
72,99 79,10 85,10 112,10
113,449 114,30
##END=
