##TITLE=trans,trans-Dibenzylideneacetone
##JCAMP-DX=4.24
##DATA TYPE=MASS SPECTRUM
##ORIGIN=Chuck Anderson, Aldrich Chemical Co.
##OWNER=NIST Mass Spectrometry Data Center
Collection (C) 2014 copyright by the U.S. Secretary of Commerce
on behalf of the United States of America. All rights reserved.
##CAS REGISTRY NO=35225-79-7
##$NIST MASS SPEC NO=107894
##MOLFORM=C17 H14 O
##MW=234
##$NIST SOURCE=MSDC
##XUNITS=M/Z
##YUNITS=RELATIVE INTENSITY
##XFACTOR=1
##YFACTOR=1
##FIRSTX=18
##LASTX=236
##FIRSTY=1
##MAXX=236
##MINX=18
##MAXY=9999
##MINY=1
##NPOINTS=93
##PEAK TABLE=(XY..XY)
18,1 26,108 27,446 28,157
36,67 38,134 39,525 41,16
44,8 50,765 51,2884 52,491
53,271 55,87 62,223 63,827
64,124 65,302 74,460 75,659
76,988 77,9614 78,975 79,91
82,29 83,49 86,35 87,118
88,131 89,961 90,99 91,4120
92,312 95,257 98,65 101,789
102,2403 103,9999 104,1359 105,243
107,123 108,54 109,113 115,1098
116,624 117,219 118,68 126,96
127,439 128,3186 129,1140 130,31
131,6867 132,587 133,34 139,109
141,117 145,23 151,25 152,153
155,76 156,1112 157,491 158,68
165,491 166,72 176,97 177,36
178,504 179,326 180,73 189,360
190,408 191,1222 192,192 201,19
202,501 203,624 204,429 205,1346
206,480 207,139 215,412 216,117
217,121 218,93 219,104 231,74
232,38 233,9065 234,7526 235,1304
236,206
##END=
