##TITLE=Hexanoic acid, 5-(acetyloxy)-, ethyl ester
##JCAMP-DX=4.24
##DATA TYPE=MASS SPECTRUM
##OWNER=NIST Mass Spectrometry Data Center
Collection (C) 2014 copyright by the U.S. Secretary of Commerce
on behalf of the United States of America. All rights reserved.
##CAS REGISTRY NO=35234-24-3
##$NIST MASS SPEC NO=32185
##MOLFORM=C10 H18 O4
##MW=202
##$NIST SOURCE=MSDC
##XUNITS=M/Z
##YUNITS=RELATIVE INTENSITY
##XFACTOR=1
##YFACTOR=1
##FIRSTX=43
##LASTX=202
##FIRSTY=9999
##MAXX=202
##MINX=43
##MAXY=9999
##MINY=338
##NPOINTS=18
##PEAK TABLE=(XY..XY)
43,9999 55,1411 60,537 61,537
68,1332 69,1471 87,994 88,2246
97,1113 99,1252 112,994 113,895
115,2385 142,1014 143,457 145,716
159,338 202,1193
##END=
