##TITLE=Cyclopentane, 2-propenyl-
##JCAMP-DX=4.24
##DATA TYPE=MASS SPECTRUM
##ORIGIN=MONSANTO CO., ST. LOUIS, MO, USA
##OWNER=NIST Mass Spectrometry Data Center
Collection (C) 2014 copyright by the U.S. Secretary of Commerce
on behalf of the United States of America. All rights reserved.
##CAS REGISTRY NO=3524-75-2
##$NIST MASS SPEC NO=34650
##MOLFORM=C8 H14
##MW=110
##$NIST SOURCE=MSDC
##XUNITS=M/Z
##YUNITS=RELATIVE INTENSITY
##XFACTOR=1
##YFACTOR=1
##FIRSTX=12
##LASTX=111
##FIRSTY=14
##MAXX=111
##MINX=12
##MAXY=9999
##MINY=2
##NPOINTS=71
##PEAK TABLE=(XY..XY)
12,14 13,21 14,69 15,478
16,12 24,29 25,18 26,375
27,2698 28,552 29,764 30,19
36,11 37,186 38,497 39,4900
40,903 41,9999 42,820 43,183
44,12 45,11 46,5 49,31
50,272 51,511 52,252 53,1247
54,1100 55,604 56,57 57,8
61,30 62,67 63,153 64,40
65,495 66,1250 67,5042 68,8000
69,9472 70,475 71,14 73,9
74,30 75,23 76,13 77,214
78,73 79,260 80,86 81,661
82,761 83,54 84,3 85,2
86,2 87,2 89,5 91,55
92,9 93,22 94,7 95,177
96,14 103,5 105,6 107,3
109,27 110,210 111,19
##END=
