##TITLE=4(1H)-Pyrimidinone, 6-methyl-
##JCAMP-DX=4.24
##DATA TYPE=MASS SPECTRUM
##OWNER=NIST Mass Spectrometry Data Center
Collection (C) 2014 copyright by the U.S. Secretary of Commerce
on behalf of the United States of America. All rights reserved.
##CAS REGISTRY NO=3524-87-6
##$NIST MASS SPEC NO=29278
##MOLFORM=C5 H6 N2 O
##MW=110
##$NIST SOURCE=MSDC
##XUNITS=M/Z
##YUNITS=RELATIVE INTENSITY
##XFACTOR=1
##YFACTOR=1
##FIRSTX=26
##LASTX=111
##FIRSTY=487
##MAXX=111
##MINX=26
##MAXY=9999
##MINY=424
##NPOINTS=24
##PEAK TABLE=(XY..XY)
26,487 27,1059 28,1292 37,551
38,847 39,2076 40,1271 41,1038
42,6610 43,805 51,487 52,487
54,1059 55,1525 66,424 67,445
68,1038 69,424 71,487 81,2182
82,2542 83,487 110,9999 111,445
##END=
