##TITLE=2-Ethoxy-3-ethylpyrazine
##JCAMP-DX=4.24
##DATA TYPE=MASS SPECTRUM
##ORIGIN=Philip Morris R&D
##OWNER=NIST Mass Spectrometry Data Center
Collection (C) 2014 copyright by the U.S. Secretary of Commerce
on behalf of the United States of America. All rights reserved.
##CAS REGISTRY NO=35243-43-7
##$NIST MASS SPEC NO=109738
##MOLFORM=C8 H12 N2 O
##MW=152
##$NIST SOURCE=MSDC
##XUNITS=M/Z
##YUNITS=RELATIVE INTENSITY
##XFACTOR=1
##YFACTOR=1
##FIRSTX=36
##LASTX=154
##FIRSTY=23
##MAXX=154
##MINX=36
##MAXY=9999
##MINY=2
##NPOINTS=66
##PEAK TABLE=(XY..XY)
36,23 37,56 38,126 39,894
40,2037 41,1110 42,677 43,108
44,18 45,20 49,11 50,36
51,133 52,643 53,573 54,844
55,131 56,602 57,4 58,14
63,2 64,22 65,66 66,122
67,208 68,1390 69,580 70,102
73,5 76,4 78,70 79,386
80,645 81,2021 82,113 86,14
92,20 93,151 94,57 95,4774
96,848 97,251 105,280 106,77
107,1972 108,1803 109,956 110,63
119,70 120,31 121,18 122,2
123,8212 124,7820 125,788 126,56
133,165 134,43 135,5 137,2154
138,183 149,2 151,203 152,9999
153,965 154,50
##END=
