##TITLE=Bromochlorodifluoromethane
##JCAMP-DX=4.24
##DATA TYPE=MASS SPECTRUM
##OWNER=NIST Mass Spectrometry Data Center
Collection (C) 2014 copyright by the U.S. Secretary of Commerce
on behalf of the United States of America. All rights reserved.
##CAS REGISTRY NO=353-59-3
##$NIST MASS SPEC NO=21899
##MOLFORM=C Br Cl F2
##MW=164
##$NIST SOURCE=MSDC
##XUNITS=M/Z
##YUNITS=RELATIVE INTENSITY
##XFACTOR=1
##YFACTOR=1
##FIRSTX=12
##LASTX=168
##FIRSTY=540
##MAXX=168
##MINX=12
##MAXY=9999
##MINY=10
##NPOINTS=36
##PEAK TABLE=(XY..XY)
12,540 19,130 31,1782 35,851
37,280 47,290 49,90 50,1451
55,10 56,10 63,10 64,10
66,460 68,150 79,1431 81,1401
85,9999 87,3183 91,130 93,120
110,120 112,120 114,40 116,60
118,10 126,20 128,20 129,1972
130,10 131,1922 145,591 147,751
149,180 164,30 166,40 168,10
##END=
