##TITLE=Silane, difluorodimethyl-
##JCAMP-DX=4.24
##DATA TYPE=MASS SPECTRUM
##ORIGIN=R.W.CRAWFORD UNIV. OF CALIFORNIA, LIVERMORE, CALIFORNIA, USA
##OWNER=NIST Mass Spectrometry Data Center
Collection (C) 2014 copyright by the U.S. Secretary of Commerce
on behalf of the United States of America. All rights reserved.
##CAS REGISTRY NO=353-66-2
##$NIST MASS SPEC NO=887
##MOLFORM=C2 H6 F2 Si
##MW=96
##$NIST SOURCE=MSDC
##XUNITS=M/Z
##YUNITS=RELATIVE INTENSITY
##XFACTOR=1
##YFACTOR=1
##FIRSTX=2
##LASTX=98
##FIRSTY=16
##MAXX=98
##MINX=2
##MAXY=9999
##MINY=1
##NPOINTS=69
##PEAK TABLE=(XY..XY)
2,16 3,1 12,50 13,93
14,250 15,879 16,13 17,1
18,3 19,41 20,2 21,1
24,3 25,19 26,186 27,557
28,190 29,220 30,9 31,16
32,9 33,3 35,4 36,2
37,2 39,3 40,10 41,34
42,35 43,31 44,12 45,4
46,5 47,2100 48,131 49,141
50,14 51,5 52,7 53,14
54,2 55,3 56,2 57,4
58,1 59,5 60,22 61,36
62,35 63,4 64,28 66,361
67,315 68,20 69,6 72,4
76,14 77,637 78,44 79,73
80,415 81,9999 82,630 83,338
91,43 93,8 96,1163 97,78
98,33
##END=
