##TITLE=Methane, bromodichlorofluoro-
##JCAMP-DX=4.24
##DATA TYPE=MASS SPECTRUM
##OWNER=NIST Mass Spectrometry Data Center
Collection (C) 2014 copyright by the U.S. Secretary of Commerce
on behalf of the United States of America. All rights reserved.
##CAS REGISTRY NO=353-58-2
##$NIST MASS SPEC NO=7523
##MOLFORM=C Br Cl2 F
##MW=180
##$NIST SOURCE=MSDC
##XUNITS=M/Z
##YUNITS=RELATIVE INTENSITY
##XFACTOR=1
##YFACTOR=1
##FIRSTX=31
##LASTX=165
##FIRSTY=901
##MAXX=165
##MINX=31
##MAXY=9999
##MINY=90
##NPOINTS=29
##PEAK TABLE=(XY..XY)
31,901 35,310 37,100 47,480
49,160 63,100 66,841 68,280
79,831 81,831 82,400 84,260
91,190 93,180 101,9999 102,110
103,6536 105,1061 110,190 112,190
116,90 126,140 128,190 145,2672
147,3493 149,861 161,240 163,400
165,180
##END=
