##TITLE=Carbonic chloride fluoride
##JCAMP-DX=4.24
##DATA TYPE=MASS SPECTRUM
##OWNER=NIST Mass Spectrometry Data Center
Collection (C) 2014 copyright by the U.S. Secretary of Commerce
on behalf of the United States of America. All rights reserved.
##CAS REGISTRY NO=353-49-1
##$NIST MASS SPEC NO=474
##MOLFORM=C Cl F O
##MW=82
##$NIST SOURCE=MSDC
##XUNITS=M/Z
##YUNITS=RELATIVE INTENSITY
##XFACTOR=1
##YFACTOR=1
##FIRSTX=12
##LASTX=85
##FIRSTY=70
##MAXX=85
##MINX=12
##MAXY=9999
##MINY=40
##NPOINTS=19
##PEAK TABLE=(XY..XY)
12,70 16,110 28,161 31,150
35,1461 37,480 47,9999 48,130
49,50 54,40 60,40 63,1301
65,430 66,150 68,50 82,3924
83,40 84,1271 85,50
##END=
