##TITLE=Propane, 2-fluoro-2-methyl-
##JCAMP-DX=4.24
##DATA TYPE=MASS SPECTRUM
##OWNER=NIST Mass Spectrometry Data Center
Collection (C) 2014 copyright by the U.S. Secretary of Commerce
on behalf of the United States of America. All rights reserved.
##CAS REGISTRY NO=353-61-7
##$NIST MASS SPEC NO=365
##MOLFORM=C4 H9 F
##MW=76
##$NIST SOURCE=MSDC
##XUNITS=M/Z
##YUNITS=RELATIVE INTENSITY
##XFACTOR=1
##YFACTOR=1
##FIRSTX=15
##LASTX=75
##FIRSTY=100
##MAXX=75
##MINX=15
##MAXY=9999
##MINY=20
##NPOINTS=32
##PEAK TABLE=(XY..XY)
15,100 26,90 27,571 28,821
29,430 31,100 32,190 33,350
37,60 38,120 39,641 40,100
41,2232 42,130 43,90 44,60
45,170 46,80 47,230 49,30
50,90 51,100 53,70 55,160
56,240 57,290 58,40 59,851
60,821 61,9999 62,340 75,20
##END=
