##TITLE=Carbonic difluoride
##JCAMP-DX=4.24
##DATA TYPE=MASS SPECTRUM
##ORIGIN=GOODYEAR ATOMIC CORPORATION, PORTSMOUTH, OHIO
##OWNER=NIST Mass Spectrometry Data Center
Collection (C) 2014 copyright by the U.S. Secretary of Commerce
on behalf of the United States of America. All rights reserved.
##CAS REGISTRY NO=353-50-4
##$NIST MASS SPEC NO=34212
##MOLFORM=C F2 O
##MW=66
##$NIST SOURCE=MSDC
##XUNITS=M/Z
##YUNITS=RELATIVE INTENSITY
##XFACTOR=1
##YFACTOR=1
##FIRSTX=16
##LASTX=67
##FIRSTY=100
##MAXX=67
##MINX=16
##MAXY=9999
##MINY=16
##NPOINTS=10
##PEAK TABLE=(XY..XY)
16,100 19,92 28,1360 29,16
31,448 47,9999 48,96 50,245
66,5480 67,61
##END=
