##TITLE=Methane, tribromofluoro-
##JCAMP-DX=4.24
##DATA TYPE=MASS SPECTRUM
##ORIGIN=Japan AIST/NIMC Database- Spectrum MS-IW-1293
##OWNER=NIST Mass Spectrometry Data Center
Collection (C) 2014 copyright by the U.S. Secretary of Commerce
on behalf of the United States of America. All rights reserved.
##CAS REGISTRY NO=353-54-8
##$NIST MASS SPEC NO=239698
##MOLFORM=C Br3 F
##MW=268
##$NIST SOURCE=MSDC
##XUNITS=M/Z
##YUNITS=RELATIVE INTENSITY
##XFACTOR=1
##YFACTOR=1
##FIRSTX=12
##LASTX=274
##FIRSTY=50
##MAXX=274
##MINX=12
##MAXY=9999
##MINY=10
##NPOINTS=37
##PEAK TABLE=(XY..XY)
12,50 31,1469 32,10 76,10
79,689 80,50 81,699 82,50
85,10 91,369 93,359 94,10
95,20 96,10 110,469 111,10
112,449 113,10 117,10 158,90
160,189 162,90 170,159 172,309
174,149 189,5109 190,50 191,9999
192,109 193,4869 194,50 251,20
253,20 268,30 270,90 272,90
274,30
##END=
