##TITLE=Stannane, tetraisobutyl-
##JCAMP-DX=4.24
##DATA TYPE=MASS SPECTRUM
##ORIGIN=M.GEILEN UNIVERSITE LIBRE DE BRUXELLES, BELGIUM
##OWNER=NIST Mass Spectrometry Data Center
Collection (C) 2014 copyright by the U.S. Secretary of Commerce
on behalf of the United States of America. All rights reserved.
##CAS REGISTRY NO=3531-43-9
##$NIST MASS SPEC NO=15880
##MOLFORM=C16 H36 Sn
##MW=348
##$NIST SOURCE=MSDC
##XUNITS=M/Z
##YUNITS=RELATIVE INTENSITY
##XFACTOR=1
##YFACTOR=1
##FIRSTX=26
##LASTX=296
##FIRSTY=90
##MAXX=296
##MINX=26
##MAXY=9999
##MINY=50
##NPOINTS=161
##PEAK TABLE=(XY..XY)
26,90 27,880 29,2200 34,120
36,90 38,90 39,1050 40,2450
41,3800 42,700 43,4300 44,700
50,90 51,180 52,90 53,350
54,90 55,2000 56,1840 58,700
65,90 67,260 68,90 69,1500
70,1230 71,1840 72,90 73,50
75,50 76,50 77,180 78,90
79,90 81,180 82,180 83,1310
84,790 85,1140 86,90 91,350
93,90 95,90 96,90 97,1840
98,790 99,1500 100,180 103,50
104,50 105,350 106,190 109,90
110,90 111,440 112,610 113,700
114,90 115,90 116,520 117,1480
118,1400 119,2600 120,1840 121,3150
122,350 123,1040 124,180 125,610
126,90 127,90 130,90 131,700
132,440 133,1400 134,620 135,1840
136,90 137,520 139,350 145,90
146,90 147,440 148,260 149,620
150,180 151,620 153,90 155,90
159,90 160,50 161,180 162,50
163,180 165,90 167,90 168,180
169,90 171,350 172,120 173,700
174,610 175,4200 176,2600 177,1800
178,2450 179,8100 180,440 181,1320
182,90 183,1400 184,90 191,90
192,50 193,90 197,50 199,50
201,50 203,520 204,350 205,880
206,350 207,1050 208,90 209,180
211,260 213,90 227,260 228,90
229,260 230,180 231,4550 232,2900
233,7600 234,3500 235,9999 236,960
237,1500 238,180 239,1840 240,180
259,90 260,90 261,180 262,90
263,350 264,90 265,90 267,90
283,180 285,90 286,90 287,1760
288,1230 289,3100 290,1500 291,5000
292,520 293,700 294,90 295,700
296,90
##END=
