##TITLE=(R)-(-)-2-Amino-1-propanol
##JCAMP-DX=4.24
##DATA TYPE=MASS SPECTRUM
##ORIGIN=Chuck Anderson, Aldrich Chemical Co.
##OWNER=NIST Mass Spectrometry Data Center
Collection (C) 2014 copyright by the U.S. Secretary of Commerce
on behalf of the United States of America. All rights reserved.
##CAS REGISTRY NO=35320-23-1
##$NIST MASS SPEC NO=108418
##MOLFORM=C3 H9 N O
##MW=75
##$NIST SOURCE=MSDC
##XUNITS=M/Z
##YUNITS=RELATIVE INTENSITY
##XFACTOR=1
##YFACTOR=1
##FIRSTX=14
##LASTX=76
##FIRSTY=29
##MAXX=76
##MINX=14
##MAXY=9999
##MINY=4
##NPOINTS=36
##PEAK TABLE=(XY..XY)
14,29 15,324 16,13 17,45
18,1877 19,14 25,7 26,82
27,461 28,753 29,551 30,428
31,502 32,13 37,11 38,39
39,124 40,137 41,379 42,1320
43,335 44,9999 45,341 46,8
52,12 54,15 55,20 56,136
57,107 58,36 59,26 60,199
72,4 74,32 75,29 76,20
##END=
