##TITLE=9-Octadecyne
##JCAMP-DX=4.24
##DATA TYPE=MASS SPECTRUM
##ORIGIN=NIST Mass Spectrometry Data Center, 1990.
##OWNER=NIST Mass Spectrometry Data Center
Collection (C) 2014 copyright by the U.S. Secretary of Commerce
on behalf of the United States of America. All rights reserved.
##CAS REGISTRY NO=35365-59-4
##$NIST MASS SPEC NO=113900
##MOLFORM=C18 H34
##MW=250
##$NIST SOURCE=MSDC
##XUNITS=M/Z
##YUNITS=RELATIVE INTENSITY
##XFACTOR=1
##YFACTOR=1
##FIRSTX=27
##LASTX=194
##FIRSTY=1478
##MAXX=194
##MINX=27
##MAXY=9999
##MINY=57
##NPOINTS=60
##PEAK TABLE=(XY..XY)
27,1478 28,863 29,3169 32,142
39,1490 41,7382 42,952 43,4471
44,233 50,67 51,269 52,612
53,1519 54,3873 55,6659 56,1117
57,2144 58,98 65,858 66,913
67,9317 68,2572 69,3610 70,580
71,306 77,1219 78,325 79,2586
80,1076 81,9999 82,5877 83,2307
84,229 85,94 91,725 92,117
93,802 94,94 95,6915 96,3600
97,1604 98,175 105,99 107,226
109,2443 110,882 111,474 121,126
123,1400 124,1263 125,211 135,57
137,1161 138,534 151,212 152,138
165,71 179,84 193,297 194,221
##END=
