##TITLE=1,2-Dihexylcyclopropene
##JCAMP-DX=4.24
##DATA TYPE=MASS SPECTRUM
##ORIGIN=R. SINNHUBER, DEP. FOOD SCI. TECHNOL., OREGON STATE UNIV., U
##OWNER=NIST Mass Spectrometry Data Center
Collection (C) 2014 copyright by the U.S. Secretary of Commerce
on behalf of the United States of America. All rights reserved.
##CAS REGISTRY NO=35365-52-7
##$NIST MASS SPEC NO=90652
##MOLFORM=C15 H28
##MW=208
##$NIST SOURCE=MSDC
##XUNITS=M/Z
##YUNITS=RELATIVE INTENSITY
##XFACTOR=1
##YFACTOR=1
##FIRSTX=27
##LASTX=208
##FIRSTY=2500
##MAXX=208
##MINX=27
##MAXY=9999
##MINY=300
##NPOINTS=44
##PEAK TABLE=(XY..XY)
27,2500 28,1900 29,3800 39,2000
40,600 41,6900 42,700 43,2700
51,400 52,400 53,2200 54,1000
55,4500 56,500 57,800 65,800
66,500 67,5800 68,8500 69,2700
70,400 77,1400 78,400 79,1800
80,800 81,9999 82,5800 83,1200
91,800 93,900 94,400 95,7500
96,2200 97,500 109,2200 110,500
123,1900 124,400 137,1500 138,3500
139,300 151,1400 165,500 208,1200
##END=
