##TITLE=2-(3-Chlorophenoxy)thioacetamide
##JCAMP-DX=4.24
##DATA TYPE=MASS SPECTRUM
##ORIGIN=NIST Mass Spectrometry Data Center, 1994
##OWNER=NIST Mass Spectrometry Data Center
Collection (C) 2014 copyright by the U.S. Secretary of Commerce
on behalf of the United States of America. All rights reserved.
##CAS REGISTRY NO=35370-95-7
##$NIST MASS SPEC NO=136643
##MOLFORM=C8 H8 Cl N O S
##MW=201
##$NIST SOURCE=MSDC
##XUNITS=M/Z
##YUNITS=RELATIVE INTENSITY
##XFACTOR=1
##YFACTOR=1
##FIRSTX=12
##LASTX=204
##FIRSTY=41
##MAXX=204
##MINX=12
##MAXY=9999
##MINY=18
##NPOINTS=108
##PEAK TABLE=(XY..XY)
12,41 13,75 14,21 15,76
17,71 18,122 25,41 26,74
30,3442 32,197 33,345 34,667
35,95 36,144 37,401 38,939
39,895 40,507 41,313 42,372
44,28 45,24 46,495 47,230
48,130 49,249 50,798 51,403
52,52 53,151 54,26 55,29
56,20 57,62 58,268 59,20
60,1280 61,388 62,660 63,1647
64,779 65,511 66,121 69,52
70,29 71,26 72,158 73,1371
74,9999 75,1624 76,707 77,389
78,56 79,39 82,92 84,60
85,137 86,32 87,68 89,53
90,53 91,47 92,237 93,99
94,35 97,59 99,2933 100,360
101,987 102,150 103,18 104,137
105,45 107,31 108,32 111,575
112,219 113,257 114,71 115,26
123,35 125,25 127,1273 128,857
129,477 130,241 131,60 132,997
133,126 134,22 137,41 138,73
139,86 140,37 141,69 142,46
143,29 145,25 160,34 162,41
167,1106 168,132 169,345 170,41
201,847 202,79 203,333 204,32
##END=
