##TITLE=Butyric acid hydrazide
##JCAMP-DX=4.24
##DATA TYPE=MASS SPECTRUM
##ORIGIN=NIST Mass Spectrometry Data Center, 1994
##OWNER=NIST Mass Spectrometry Data Center
Collection (C) 2014 copyright by the U.S. Secretary of Commerce
on behalf of the United States of America. All rights reserved.
##CAS REGISTRY NO=3538-65-6
##$NIST MASS SPEC NO=134955
##MOLFORM=C4 H10 N2 O
##MW=102
##$NIST SOURCE=MSDC
##XUNITS=M/Z
##YUNITS=RELATIVE INTENSITY
##XFACTOR=1
##YFACTOR=1
##FIRSTX=14
##LASTX=103
##FIRSTY=90
##MAXX=103
##MINX=14
##MAXY=9999
##MINY=18
##NPOINTS=42
##PEAK TABLE=(XY..XY)
14,90 15,377 16,107 17,139
18,168 25,30 26,327 27,3012
28,643 29,818 30,441 31,2386
32,9999 33,140 36,42 37,96
38,260 39,1610 40,30 41,4168
42,939 43,8272 44,478 45,137
51,22 52,35 53,33 54,39
55,400 56,64 57,33 58,36
59,371 60,18 69,65 71,2322
72,120 73,21 74,138 87,98
102,978 103,75
##END=
