##TITLE=Ethane, 1,1,1-trichloro-2,2,2-trifluoro-
##JCAMP-DX=4.24
##DATA TYPE=MASS SPECTRUM
##ORIGIN=Japan AIST/NIMC Database- Spectrum MS-NW-9291
##OWNER=NIST Mass Spectrometry Data Center
Collection (C) 2014 copyright by the U.S. Secretary of Commerce
on behalf of the United States of America. All rights reserved.
##CAS REGISTRY NO=354-58-5
##$NIST MASS SPEC NO=236525
##MOLFORM=C2 Cl3 F3
##MW=186
##$NIST SOURCE=MSDC
##XUNITS=M/Z
##YUNITS=RELATIVE INTENSITY
##XFACTOR=1
##YFACTOR=1
##FIRSTX=12
##LASTX=171
##FIRSTY=20
##MAXX=171
##MINX=12
##MAXY=9999
##MINY=10
##NPOINTS=58
##PEAK TABLE=(XY..XY)
12,20 18,50 20,20 24,10
28,40 31,489 32,20 35,149
36,149 37,50 38,50 43,30
47,949 48,10 49,309 50,139
59,10 62,20 66,559 67,129
68,129 69,1179 70,20 78,80
80,20 82,869 83,20 84,559
85,789 86,99 87,249 97,60
99,20 101,2069 102,20 103,1319
104,10 105,219 116,189 117,5459
118,109 119,5239 120,60 121,1689
122,20 123,179 132,199 134,129
136,20 151,9999 152,219 153,6459
154,139 155,1039 156,20 167,249
169,239 171,70
##END=
