##TITLE=Ethane, 1,1,2,2-tetrafluoro-1-iodo-
##JCAMP-DX=4.24
##DATA TYPE=MASS SPECTRUM
##ORIGIN=E.SANTORO MONTEDISON S.P.A., RESEARCH CENTRE, MILAN, ITALY
##OWNER=NIST Mass Spectrometry Data Center
Collection (C) 2014 copyright by the U.S. Secretary of Commerce
on behalf of the United States of America. All rights reserved.
##CAS REGISTRY NO=354-41-6
##$NIST MASS SPEC NO=37431
##MOLFORM=C2 H F4 I
##MW=228
##$NIST SOURCE=MSDC
##XUNITS=M/Z
##YUNITS=RELATIVE INTENSITY
##XFACTOR=1
##YFACTOR=1
##FIRSTX=31
##LASTX=229
##FIRSTY=1020
##MAXX=229
##MINX=31
##MAXY=9999
##MINY=100
##NPOINTS=18
##PEAK TABLE=(XY..XY)
31,1020 43,680 50,200 51,4830
63,150 69,100 82,3810 100,200
101,9999 102,220 127,2410 128,170
158,200 159,410 177,620 208,440
228,5500 229,110
##END=
