##TITLE=Ethane, 1,2-dichloro-1,1,2-trifluoro-
##JCAMP-DX=4.24
##DATA TYPE=MASS SPECTRUM
##ORIGIN=THE M.W. KELLOGG CO., JERSEY CITY, N.J., USA
##OWNER=NIST Mass Spectrometry Data Center
Collection (C) 2014 copyright by the U.S. Secretary of Commerce
on behalf of the United States of America. All rights reserved.
##CAS REGISTRY NO=354-23-4
##$NIST MASS SPEC NO=25898
##MOLFORM=C2 H Cl2 F3
##MW=152
##$NIST SOURCE=MSDC
##XUNITS=M/Z
##YUNITS=RELATIVE INTENSITY
##XFACTOR=1
##YFACTOR=1
##FIRSTX=19
##LASTX=156
##FIRSTY=111
##MAXX=156
##MINX=19
##MAXY=9999
##MINY=2
##NPOINTS=76
##PEAK TABLE=(XY..XY)
19,111 20,11 24,125 25,194
26,6 31,2779 32,600 33,8
35,1096 36,92 37,337 38,31
43,109 44,443 45,13 47,597
48,401 49,237 50,502 51,1046
52,11 54,4 57,13 58,13
59,48 60,86 61,17 62,87
63,162 64,6 66,323 67,9999
68,208 69,3270 70,43 72,7
76,2 78,69 79,49 80,24
81,53 82,522 83,715 84,33
85,3600 86,36 87,1110 88,9
94,6 95,2 96,4 97,76
98,265 99,28 100,88 101,66
103,42 105,8 113,13 114,9
115,10 116,104 117,5320 118,111
119,1726 120,28 132,17 133,199
134,14 135,129 136,4 137,21
151,6 152,352 154,228 156,38
##END=
