##TITLE=Acetamide, 2,2,2-trifluoro-
##JCAMP-DX=4.24
##DATA TYPE=MASS SPECTRUM
##ORIGIN=Japan AIST/NIMC Database- Spectrum MS-NW-4988
##OWNER=NIST Mass Spectrometry Data Center
Collection (C) 2014 copyright by the U.S. Secretary of Commerce
on behalf of the United States of America. All rights reserved.
##CAS REGISTRY NO=354-38-1
##$NIST MASS SPEC NO=230112
##MOLFORM=C2 H2 F3 N O
##MW=113
##$NIST SOURCE=MSDC
##XUNITS=M/Z
##YUNITS=RELATIVE INTENSITY
##XFACTOR=1
##YFACTOR=1
##FIRSTX=12
##LASTX=114
##FIRSTY=30
##MAXX=114
##MINX=12
##MAXY=9999
##MINY=10
##NPOINTS=31
##PEAK TABLE=(XY..XY)
12,30 14,10 15,30 16,529
17,30 26,10 27,99 28,169
29,70 31,229 32,10 42,50
43,339 44,9999 45,179 46,99
47,50 50,339 51,1329 52,10
65,20 66,50 69,1379 70,10
76,20 77,20 78,50 94,239
96,10 113,129 114,20
##END=
