##TITLE=Chlorodifluoroacetamide
##JCAMP-DX=4.24
##DATA TYPE=MASS SPECTRUM
##ORIGIN=NIST Mass Spectrometry Data Center
##OWNER=NIST Mass Spectrometry Data Center
Collection (C) 2014 copyright by the U.S. Secretary of Commerce
on behalf of the United States of America. All rights reserved.
##CAS REGISTRY NO=354-28-9
##$NIST MASS SPEC NO=343137
##MOLFORM=C2 H2 Cl F2 N O
##MW=129
##$NIST SOURCE=MSDC
##XUNITS=M/Z
##YUNITS=RELATIVE INTENSITY
##XFACTOR=1
##YFACTOR=1
##FIRSTX=12
##LASTX=131
##FIRSTY=100
##MAXX=131
##MINX=12
##MAXY=9999
##MINY=10
##NPOINTS=44
##PEAK TABLE=(XY..XY)
12,100 13,10 15,60 16,781
17,10 18,20 19,150 20,10
24,10 27,100 28,310 31,601
32,50 35,340 36,50 37,120
38,40 39,10 40,20 44,9999
45,70 46,260 47,190 48,10
50,771 51,1231 62,10 63,20
64,20 65,70 66,270 67,370
68,80 69,110 76,10 78,170
82,50 85,561 87,170 94,881
95,20 96,10 129,70 131,20
##END=
