##TITLE=Thiophane, 3-pentyl-
##JCAMP-DX=4.24
##DATA TYPE=MASS SPECTRUM
##ORIGIN=V.A.KOPTYUG, ATLAS OF MASS SPECTRA OF ORGANIC COMPOUNDS
##OWNER=NIST Mass Spectrometry Data Center
Collection (C) 2014 copyright by the U.S. Secretary of Commerce
on behalf of the United States of America. All rights reserved.
##CAS REGISTRY NO=35468-43-0
##$NIST MASS SPEC NO=78678
##MOLFORM=C9 H18 S
##MW=158
##$NIST SOURCE=MSDC
##XUNITS=M/Z
##YUNITS=RELATIVE INTENSITY
##XFACTOR=1
##YFACTOR=1
##FIRSTX=15
##LASTX=158
##FIRSTY=650
##MAXX=158
##MINX=15
##MAXY=9999
##MINY=140
##NPOINTS=30
##PEAK TABLE=(XY..XY)
15,650 26,550 27,2460 39,1600
41,3540 42,400 43,1060 45,1320
46,140 47,520 53,1200 54,340
55,1660 56,340 57,630 58,140
59,600 60,450 61,340 67,1080
68,430 69,710 71,340 73,250
81,630 85,450 87,9999 88,550
101,2200 158,1280
##END=
