##TITLE=Ethane, 1,1-bis(p-chlorophenyl)-
##JCAMP-DX=4.24
##DATA TYPE=MASS SPECTRUM
##ORIGIN=FDA, Los Angeles District Laboratory
##OWNER=NIST Mass Spectrometry Data Center
Collection (C) 2014 copyright by the U.S. Secretary of Commerce
on behalf of the United States of America. All rights reserved.
##CAS REGISTRY NO=3547-04-4
##$NIST MASS SPEC NO=117323
##MOLFORM=C14 H12 Cl2
##MW=250
##$NIST SOURCE=MSDC
##XUNITS=M/Z
##YUNITS=RELATIVE INTENSITY
##XFACTOR=1
##YFACTOR=1
##FIRSTX=50
##LASTX=254
##FIRSTY=750
##MAXX=254
##MINX=50
##MAXY=9999
##MINY=130
##NPOINTS=64
##PEAK TABLE=(XY..XY)
50,750 51,1500 52,200 62,200
63,950 69,200 73,400 74,350
75,1950 76,1800 77,3350 78,500
87,400 88,750 89,3950 99,2250
101,1850 102,1350 103,3200 104,500
106,300 107,400 111,400 112,250
113,350 114,250 115,300 125,350
126,300 137,750 138,700 139,1450
140,300 141,300 149,250 150,200
151,350 152,350 163,155 164,140
165,899 166,130 176,500 177,300
178,1150 179,900 180,550 199,2300
200,800 201,850 202,250 215,1600
216,250 217,500 235,9999 236,1550
237,6249 238,900 239,1050 250,3700
251,650 252,2300 253,350 254,400
##END=
