##TITLE=4-(p-Chlorophenoxy)butyric acid
##JCAMP-DX=4.24
##DATA TYPE=MASS SPECTRUM
##ORIGIN=NIST Mass Spectrometry Data Center, 1994
##OWNER=NIST Mass Spectrometry Data Center
Collection (C) 2014 copyright by the U.S. Secretary of Commerce
on behalf of the United States of America. All rights reserved.
##CAS REGISTRY NO=3547-07-7
##$NIST MASS SPEC NO=135405
##MOLFORM=C10 H11 Cl O3
##MW=214
##$NIST SOURCE=MSDC
##XUNITS=M/Z
##YUNITS=RELATIVE INTENSITY
##XFACTOR=1
##YFACTOR=1
##FIRSTX=14
##LASTX=217
##FIRSTY=64
##MAXX=217
##MINX=14
##MAXY=9999
##MINY=17
##NPOINTS=107
##PEAK TABLE=(XY..XY)
14,64 15,186 16,40 17,41
18,74 19,36 25,25 26,187
27,1396 28,323 29,583 30,40
31,341 32,25 35,25 36,45
37,136 38,440 39,1602 40,241
41,2240 42,592 43,2477 44,25
45,2816 46,62 47,63 49,123
50,516 51,352 52,46 53,163
54,46 55,239 56,65 57,178
58,25 59,67 60,73 61,150
62,309 63,919 64,459 65,1079
66,105 67,38 68,71 69,414
70,51 71,79 72,25 73,760
74,301 75,1120 76,209 77,159
78,37 79,31 80,22 81,22
83,24 84,67 85,244 86,22
87,1890 88,90 89,47 91,94
92,118 93,214 94,59 95,17
97,54 99,836 100,642 101,321
102,207 103,57 105,37 108,40
109,124 111,641 112,70 113,294
114,21 115,28 119,53 121,235
122,30 125,67 128,9999 129,807
130,3190 131,238 132,26 138,265
139,143 140,33 141,127 142,19
143,36 154,34 197,24 214,516
215,42 216,150 217,19
##END=
