##TITLE=Ethanol, 2-(octylthio)-
##JCAMP-DX=4.24
##DATA TYPE=MASS SPECTRUM
##ORIGIN=NIST Mass Spectrometry Data Center, 1998.
##OWNER=NIST Mass Spectrometry Data Center
Collection (C) 2014 copyright by the U.S. Secretary of Commerce
on behalf of the United States of America. All rights reserved.
##CAS REGISTRY NO=3547-33-9
##$NIST MASS SPEC NO=291802
##MOLFORM=C10 H22 O S
##MW=190
##$NIST SOURCE=MSDC
##XUNITS=M/Z
##YUNITS=RELATIVE INTENSITY
##XFACTOR=1
##YFACTOR=1
##FIRSTX=14
##LASTX=193
##FIRSTY=10
##MAXX=193
##MINX=14
##MAXY=9999
##MINY=10
##NPOINTS=123
##PEAK TABLE=(XY..XY)
14,10 15,110 16,10 17,10
18,10 25,10 26,120 27,2170
28,420 29,2990 30,90 31,850
32,10 33,10 34,20 35,150
37,20 39,1790 40,320 41,7239
42,1710 43,4790 44,530 45,3180
46,930 47,1640 48,410 49,200
50,50 51,110 52,60 53,710
54,520 55,7079 56,3080 57,2640
58,280 59,890 60,3310 61,9999
62,530 63,490 64,20 65,130
66,60 67,940 68,700 69,9669
70,2610 71,1250 72,90 73,360
74,140 75,550 76,90 77,260
78,1060 79,430 80,80 81,290
82,620 83,1980 84,1510 85,240
86,30 87,840 88,130 89,400
90,30 91,1450 92,130 93,80
94,10 95,70 96,20 97,250
98,20 99,20 100,10 101,470
102,60 103,140 104,20 105,330
106,20 107,20 109,20 110,70
111,330 112,1080 113,100 114,10
115,140 116,30 117,50 118,10
119,90 120,10 129,40 131,20
133,360 134,30 135,20 143,90
144,350 145,9759 146,1020 147,770
148,70 149,20 157,20 159,2870
160,310 161,210 162,20 171,10
173,20 175,20 189,120 190,3720
191,450 192,200 193,20
##END=
