##TITLE=Hexane, tetradecafluoro-
##JCAMP-DX=4.24
##DATA TYPE=MASS SPECTRUM
##ORIGIN=Japan AIST/NIMC Database- Spectrum MS-NW-3362
##OWNER=NIST Mass Spectrometry Data Center
Collection (C) 2014 copyright by the U.S. Secretary of Commerce
on behalf of the United States of America. All rights reserved.
##CAS REGISTRY NO=355-42-0
##$NIST MASS SPEC NO=231245
##MOLFORM=C6 F14
##MW=338
##$NIST SOURCE=MSDC
##XUNITS=M/Z
##YUNITS=RELATIVE INTENSITY
##XFACTOR=1
##YFACTOR=1
##FIRSTX=31
##LASTX=319
##FIRSTY=439
##MAXX=319
##MINX=31
##MAXY=9999
##MINY=5
##NPOINTS=37
##PEAK TABLE=(XY..XY)
31,439 32,5 50,139 55,20
62,20 69,9999 70,119 74,50
81,50 93,279 94,10 100,839
101,20 105,10 112,60 119,3669
120,90 124,30 125,10 131,1749
132,60 143,30 150,179 162,40
169,2689 170,90 181,579 182,30
193,20 200,10 219,489 220,20
231,339 232,20 269,10 281,30
319,10
##END=
