##TITLE=Perfluorohexyl iodide
##JCAMP-DX=4.24
##DATA TYPE=MASS SPECTRUM
##ORIGIN=Japan AIST/NIMC Database- Spectrum MS-NW-9964
##OWNER=NIST Mass Spectrometry Data Center
Collection (C) 2014 copyright by the U.S. Secretary of Commerce
on behalf of the United States of America. All rights reserved.
##CAS REGISTRY NO=355-43-1
##$NIST MASS SPEC NO=239055
##MOLFORM=C6 F13 I
##MW=446
##$NIST SOURCE=MSDC
##XUNITS=M/Z
##YUNITS=RELATIVE INTENSITY
##XFACTOR=1
##YFACTOR=1
##FIRSTX=31
##LASTX=447
##FIRSTY=509
##MAXX=447
##MINX=31
##MAXY=9999
##MINY=10
##NPOINTS=57
##PEAK TABLE=(XY..XY)
31,509 50,119 51,40 55,10
62,30 69,9999 70,109 74,50
81,90 85,60 93,369 94,10
100,1529 101,40 105,10 112,129
119,4339 120,90 124,20 127,2939
128,40 131,2539 132,80 139,10
143,30 146,10 150,199 158,119
162,50 169,1899 170,60 177,2899
178,30 181,559 182,20 189,20
208,259 212,10 213,10 219,40
227,379 228,10 231,799 232,40
239,209 258,10 277,30 281,389
282,20 289,20 319,5499 320,349
321,10 339,10 427,119 446,1429
447,90
##END=
