##TITLE=2,3-Dichlorooctafluorobutane
##JCAMP-DX=4.24
##DATA TYPE=MASS SPECTRUM
##ORIGIN=NIST Mass Spectrometry Data Center, 1994
##OWNER=NIST Mass Spectrometry Data Center
Collection (C) 2014 copyright by the U.S. Secretary of Commerce
on behalf of the United States of America. All rights reserved.
##CAS REGISTRY NO=355-20-4
##$NIST MASS SPEC NO=136953
##MOLFORM=C4 Cl2 F8
##MW=270
##$NIST SOURCE=MSDC
##XUNITS=M/Z
##YUNITS=RELATIVE INTENSITY
##XFACTOR=1
##YFACTOR=1
##FIRSTX=12
##LASTX=237
##FIRSTY=25
##MAXX=237
##MINX=12
##MAXY=9999
##MINY=20
##NPOINTS=59
##PEAK TABLE=(XY..XY)
12,25 31,1339 32,145 35,250
37,88 43,46 47,239 49,85
50,241 55,83 62,114 66,197
69,8850 70,92 74,256 78,106
80,32 81,75 82,56 85,4747
87,1563 93,789 94,38 97,92
99,32 100,410 101,137 103,75
109,91 111,41 112,118 116,931
118,296 119,231 131,988 132,199
135,9999 137,3028 138,75 147,1169
149,378 150,296 151,398 152,20
153,243 155,31 163,415 165,266
166,238 167,54 168,78 181,69
182,64 184,29 201,435 203,311
205,50 235,80 237,25
##END=
