##TITLE=Hexane, 1,1,1,2,2,3,3,4,4,5,5,6,6-tridecafluoro-
##JCAMP-DX=4.24
##DATA TYPE=MASS SPECTRUM
##ORIGIN=H.MARTIN KIEL UNIVERSITY, KIEL, GERMANY F.R.G.
##OWNER=NIST Mass Spectrometry Data Center
Collection (C) 2014 copyright by the U.S. Secretary of Commerce
on behalf of the United States of America. All rights reserved.
##CAS REGISTRY NO=355-37-3
##$NIST MASS SPEC NO=15136
##MOLFORM=C6 H F13
##MW=320
##$NIST SOURCE=MSDC
##XUNITS=M/Z
##YUNITS=RELATIVE INTENSITY
##XFACTOR=1
##YFACTOR=1
##FIRSTX=31
##LASTX=251
##FIRSTY=404
##MAXX=251
##MINX=31
##MAXY=9999
##MINY=12
##NPOINTS=23
##PEAK TABLE=(XY..XY)
31,404 50,76 51,9999 69,5848
82,211 93,158 94,12 100,491
101,1988 112,29 113,380 119,1287
131,1462 132,18 150,41 151,702
163,105 169,819 181,140 213,111
219,41 231,398 251,322
##END=
