##TITLE=1-Pentanol, 2,2,3,3,4,4,5,5-octafluoro-
##JCAMP-DX=4.24
##DATA TYPE=MASS SPECTRUM
##ORIGIN=RADIAN CORP
##OWNER=NIST Mass Spectrometry Data Center
Collection (C) 2014 copyright by the U.S. Secretary of Commerce
on behalf of the United States of America. All rights reserved.
##CAS REGISTRY NO=355-80-6
##$NIST MASS SPEC NO=71296
##MOLFORM=C5 H4 F8 O
##MW=232
##$NIST SOURCE=MSDC
##XUNITS=M/Z
##YUNITS=RELATIVE INTENSITY
##XFACTOR=1
##YFACTOR=1
##FIRSTX=29
##LASTX=212
##FIRSTY=1750
##MAXX=212
##MINX=29
##MAXY=9999
##MINY=10
##NPOINTS=49
##PEAK TABLE=(XY..XY)
29,1750 30,240 31,9999 33,570
42,280 44,170 45,90 49,1470
50,310 51,4980 52,10 56,20
57,120 60,210 61,1760 62,550
63,440 64,480 67,210 69,3650
71,70 74,40 75,810 77,140
79,170 80,550 81,920 82,1040
83,340 91,310 93,660 94,90
95,1940 100,1220 101,940 109,10
111,580 113,1290 119,210 125,40
129,10 131,1780 132,200 143,180
145,580 151,50 163,180 182,330
212,10
##END=
