##TITLE=Perfluoro-1-heptene
##JCAMP-DX=4.24
##DATA TYPE=MASS SPECTRUM
##ORIGIN=NIST Mass Spectrometry Data Center, 1998.
##OWNER=NIST Mass Spectrometry Data Center
Collection (C) 2014 copyright by the U.S. Secretary of Commerce
on behalf of the United States of America. All rights reserved.
##CAS REGISTRY NO=355-63-5
##$NIST MASS SPEC NO=291779
##MOLFORM=C7 F14
##MW=350
##$NIST SOURCE=MSDC
##XUNITS=M/Z
##YUNITS=RELATIVE INTENSITY
##XFACTOR=1
##YFACTOR=1
##FIRSTX=43
##LASTX=244
##FIRSTY=10
##MAXX=244
##MINX=43
##MAXY=9999
##MINY=10
##NPOINTS=48
##PEAK TABLE=(XY..XY)
43,10 50,190 55,50 62,110
69,5689 70,70 74,220 75,10
79,10 81,250 82,10 86,20
93,1940 94,60 98,10 100,920
101,20 105,60 112,610 113,20
117,50 119,1630 120,40 124,170
125,10 131,9999 132,590 133,10
136,10 143,360 144,20 150,30
155,60 162,780 163,30 169,490
170,20 174,10 181,1100 182,50
193,210 194,10 212,20 219,10
231,770 232,40 243,200 244,10
##END=
