##TITLE=1-Butanethiol, TMS derivative
##JCAMP-DX=4.24
##DATA TYPE=MASS SPECTRUM
##ORIGIN=R.A.FRIEDEL BUREAU OF MINES U.S.DEPT.OF INT. BRUCETON PA USA
##OWNER=NIST Mass Spectrometry Data Center
Collection (C) 2014 copyright by the U.S. Secretary of Commerce
on behalf of the United States of America. All rights reserved.
##CAS REGISTRY NO=3553-78-4
##$NIST MASS SPEC NO=5952
##MOLFORM=C7 H18 S Si
##MW=162
##$NIST SOURCE=MSDC
##XUNITS=M/Z
##YUNITS=RELATIVE INTENSITY
##XFACTOR=1
##YFACTOR=1
##FIRSTX=29
##LASTX=162
##FIRSTY=2974
##MAXX=162
##MINX=29
##MAXY=9999
##MINY=11
##NPOINTS=28
##PEAK TABLE=(XY..XY)
29,2974 31,239 43,1887 45,2004
47,463 59,966 61,510 66,43
73,7420 75,2260 77,665 87,30
89,71 91,9999 101,39 103,54
104,46 105,640 115,11 117,38
119,307 121,27 131,54 133,95
145,17 147,7644 151,15 162,2324
##END=
