##TITLE=Trisiloxane, 1,1,1,5,5,5-hexamethyl-3,3-bis[(trimethylsilyl)oxy]-
##JCAMP-DX=4.24
##DATA TYPE=MASS SPECTRUM
##ORIGIN=D.HENNEBERG, MAX-PLANCK INSTITUTE, MULHEIM, WEST GERMANY
##OWNER=NIST Mass Spectrometry Data Center
Collection (C) 2014 copyright by the U.S. Secretary of Commerce
on behalf of the United States of America. All rights reserved.
##CAS REGISTRY NO=3555-47-3
##$NIST MASS SPEC NO=62674
##MOLFORM=C12 H36 O4 Si5
##MW=384
##$NIST SOURCE=MSDC
##XUNITS=M/Z
##YUNITS=RELATIVE INTENSITY
##XFACTOR=1
##YFACTOR=1
##FIRSTX=27
##LASTX=383
##FIRSTY=362
##MAXX=383
##MINX=27
##MAXY=9999
##MINY=4
##NPOINTS=152
##PEAK TABLE=(XY..XY)
27,362 29,35 30,35 31,83
36,79 37,57 39,97 42,48
43,123 44,105 45,883 46,52
47,13 49,8 50,17 51,35
52,26 53,61 54,22 55,30
56,66 58,48 59,481 60,75
63,30 65,30 66,8 67,22
68,39 69,57 71,13 72,66
73,9999 74,825 75,613 76,17
77,61 78,13 79,101 82,35
84,57 85,26 86,39 87,30
92,35 95,48 96,44 100,105
101,66 108,39 113,35 114,26
115,88 117,119 118,17 119,105
121,4 128,39 129,30 130,35
131,154 132,48 133,225 134,105
136,35 137,30 143,8 145,79
146,105 147,9523 148,1390 149,706
150,105 151,30 152,30 153,57
155,44 160,13 161,75 162,30
163,70 164,35 165,22 169,44
170,22 177,75 179,44 183,26
185,30 189,52 190,61 191,189
192,22 193,141 194,48 200,39
201,13 202,52 203,57 205,145
206,26 207,856 208,114 209,110
210,39 211,26 215,92 216,92
219,70 220,61 221,57 222,48
224,70 226,44 233,22 234,79
235,57 238,35 242,26 244,30
245,22 246,35 249,410 250,128
251,203 252,97 253,79 255,26
260,22 264,70 265,640 267,194
269,44 270,30 277,39 279,150
281,6366 282,1571 283,984 284,181
285,101 295,30 310,17 313,17
338,22 341,26 355,26 369,1470
370,591 371,344 373,79 383,22
##END=
