##TITLE=Benzenamine, 2-methyl-3,5-dinitro-
##JCAMP-DX=4.24
##DATA TYPE=MASS SPECTRUM
##ORIGIN=NIST Mass Spectrometry Data Center, 1998.
##OWNER=NIST Mass Spectrometry Data Center
Collection (C) 2014 copyright by the U.S. Secretary of Commerce
on behalf of the United States of America. All rights reserved.
##CAS REGISTRY NO=35572-78-2
##$NIST MASS SPEC NO=292154
##MOLFORM=C7 H7 N3 O4
##MW=197
##$NIST SOURCE=MSDC
##XUNITS=M/Z
##YUNITS=RELATIVE INTENSITY
##XFACTOR=1
##YFACTOR=1
##FIRSTX=14
##LASTX=199
##FIRSTY=10
##MAXX=199
##MINX=14
##MAXY=9999
##MINY=10
##NPOINTS=124
##PEAK TABLE=(XY..XY)
14,10 15,20 16,10 25,10
26,90 27,420 28,1010 29,140
30,1500 31,20 36,10 37,190
38,560 39,2060 40,410 41,1220
42,710 43,200 44,50 45,30
46,430 48,20 49,110 50,1940
51,5119 52,6289 53,1450 54,1540
55,350 56,30 57,10 58,20
59,10 60,30 61,240 62,830
63,1800 64,630 65,1880 66,2160
67,1230 68,390 69,140 70,40
71,20 72,10 73,120 74,760
75,1000 76,1740 77,6339 78,9999
79,1550 80,650 81,260 82,80
83,60 84,30 85,40 86,130
87,180 88,200 89,280 90,310
91,320 92,870 93,1830 94,560
95,2210 96,170 97,20 98,10
99,60 100,110 101,40 102,380
103,200 104,7029 105,3810 106,1610
107,750 108,180 109,240 110,40
111,10 116,30 117,20 118,40
119,100 120,710 121,880 122,350
123,160 124,20 125,400 126,30
131,10 133,2430 134,2210 135,310
136,40 137,30 138,40 139,10
149,40 150,330 151,170 152,900
153,70 154,10 163,40 164,100
165,10 166,20 167,160 168,10
169,20 180,7849 181,770 182,80
183,10 197,6349 198,560 199,80
##END=
