##TITLE=Butanoic acid, heptafluoro-, methyl ester
##JCAMP-DX=4.24
##DATA TYPE=MASS SPECTRUM
##ORIGIN=J.Little, Eastman Chem.Co., Kingsport.
##OWNER=NIST Mass Spectrometry Data Center
Collection (C) 2014 copyright by the U.S. Secretary of Commerce
on behalf of the United States of America. All rights reserved.
##CAS REGISTRY NO=356-24-1
##$NIST MASS SPEC NO=279850
##MOLFORM=C5 H3 F7 O2
##MW=228
##$NIST SOURCE=MSDC
##XUNITS=M/Z
##YUNITS=RELATIVE INTENSITY
##XFACTOR=1
##YFACTOR=1
##FIRSTX=15
##LASTX=227
##FIRSTY=4504
##MAXX=227
##MINX=15
##MAXY=9999
##MINY=10
##NPOINTS=56
##PEAK TABLE=(XY..XY)
15,4504 16,100 28,100 29,1601
30,250 31,2152 32,50 33,150
43,100 44,130 45,170 47,100
50,550 51,50 59,9999 60,200
61,50 62,100 65,150 66,20
69,8287 70,50 71,30 74,30
75,10 78,70 81,701 82,10
93,170 98,20 99,20 100,2783
101,50 109,550 110,10 119,3573
120,50 131,350 132,10 147,671
148,20 150,591 151,20 159,10
169,3753 170,180 178,10 179,10
180,10 181,971 182,20 197,310
198,10 199,30 209,230 227,30
##END=
