##TITLE=Butanoic acid, heptafluoro-, ethyl ester
##JCAMP-DX=4.24
##DATA TYPE=MASS SPECTRUM
##ORIGIN=RADIAN CORP
##OWNER=NIST Mass Spectrometry Data Center
Collection (C) 2014 copyright by the U.S. Secretary of Commerce
on behalf of the United States of America. All rights reserved.
##CAS REGISTRY NO=356-27-4
##$NIST MASS SPEC NO=71091
##MOLFORM=C6 H5 F7 O2
##MW=242
##$NIST SOURCE=MSDC
##XUNITS=M/Z
##YUNITS=RELATIVE INTENSITY
##XFACTOR=1
##YFACTOR=1
##FIRSTX=15
##LASTX=242
##FIRSTY=140
##MAXX=242
##MINX=15
##MAXY=9999
##MINY=10
##NPOINTS=56
##PEAK TABLE=(XY..XY)
15,140 16,10 25,20 26,430
27,2570 28,400 29,6700 30,310
31,580 33,100 41,30 42,160
43,560 44,100 45,400 47,220
50,640 51,130 59,30 62,100
65,10 67,80 69,9999 70,110
71,80 73,120 74,40 75,20
78,210 79,30 80,50 81,330
82,10 90,40 93,210 97,10
100,3660 101,90 109,580 112,20
119,2130 120,40 131,190 147,240
150,160 169,6960 170,240 178,20
195,270 197,1490 198,70 199,350
213,230 215,220 227,250 242,150
##END=
