##TITLE=1H,1H-Pentafluoropropyl acrylate
##JCAMP-DX=4.24
##DATA TYPE=MASS SPECTRUM
##ORIGIN=NIST Mass Spectrometry Data Center, 1994
##OWNER=NIST Mass Spectrometry Data Center
Collection (C) 2014 copyright by the U.S. Secretary of Commerce
on behalf of the United States of America. All rights reserved.
##CAS REGISTRY NO=356-86-5
##$NIST MASS SPEC NO=136508
##MOLFORM=C6 H5 F5 O2
##MW=204
##$NIST SOURCE=MSDC
##XUNITS=M/Z
##YUNITS=RELATIVE INTENSITY
##XFACTOR=1
##YFACTOR=1
##FIRSTX=4
##LASTX=205
##FIRSTY=38
##MAXX=205
##MINX=4
##MAXY=9999
##MINY=1
##NPOINTS=76
##PEAK TABLE=(XY..XY)
4,38 12,11 13,36 14,62
15,19 16,2 17,5 19,1
20,16 24,13 25,141 26,1072
27,4527 28,222 29,523 30,116
31,361 32,36 33,117 36,5
37,16 38,16 39,10 40,7
41,29 42,72 43,26 44,71
45,178 46,15 47,8 49,10
50,90 51,577 52,19 53,184
54,7 55,9999 56,379 57,50
60,3 62,4 63,35 64,412
65,10 69,1283 70,13 71,12
75,28 80,7 81,10 82,28
83,71 84,7 85,371 86,18
87,10 90,11 91,123 93,11
95,12 100,173 101,7 109,5
113,71 114,9 115,10 119,105
133,53 135,10 140,84 176,6
185,12 203,33 204,87 205,9
##END=
