##TITLE=Pentafluoropropionic anhydride
##JCAMP-DX=4.24
##DATA TYPE=MASS SPECTRUM
##ORIGIN=Japan AIST/NIMC Database- Spectrum MS-NW-3540
##OWNER=NIST Mass Spectrometry Data Center
Collection (C) 2014 copyright by the U.S. Secretary of Commerce
on behalf of the United States of America. All rights reserved.
##CAS REGISTRY NO=356-42-3
##$NIST MASS SPEC NO=230800
##MOLFORM=C6 F10 O3
##MW=310
##$NIST SOURCE=MSDC
##XUNITS=M/Z
##YUNITS=RELATIVE INTENSITY
##XFACTOR=1
##YFACTOR=1
##FIRSTX=12
##LASTX=263
##FIRSTY=20
##MAXX=263
##MINX=12
##MAXY=9999
##MINY=10
##NPOINTS=36
##PEAK TABLE=(XY..XY)
12,20 28,40 31,1349 32,10
36,10 39,20 43,30 44,40
50,759 51,60 55,20 69,4209
70,50 71,20 78,119 81,80
83,10 84,10 85,10 97,189
98,10 100,689 101,20 109,10
111,10 119,9999 120,239 128,40
135,10 139,20 141,10 147,4029
148,139 149,10 169,10 263,10
##END=
