##TITLE=7,14-Methano-4H,6H-dipyrido[1,2-a:1',2'-e][1,5]diazocin-4-one, 1,2,3,7,9,10,11,13,14,14a-decahydro-, [7S-(7.alpha.,14.alpha.,14a.alpha.)]-
##JCAMP-DX=4.24
##DATA TYPE=MASS SPECTRUM
##OWNER=NIST Mass Spectrometry Data Center
Collection (C) 2014 copyright by the U.S. Secretary of Commerce
on behalf of the United States of America. All rights reserved.
##CAS REGISTRY NO=35611-60-0
##$NIST MASS SPEC NO=11910
##MOLFORM=C15 H22 N2 O
##MW=246
##$NIST SOURCE=MSDC
##XUNITS=M/Z
##YUNITS=RELATIVE INTENSITY
##XFACTOR=1
##YFACTOR=1
##FIRSTX=65
##LASTX=249
##FIRSTY=300
##MAXX=249
##MINX=65
##MAXY=9999
##MINY=100
##NPOINTS=89
##PEAK TABLE=(XY..XY)
65,300 66,200 67,681 68,601
69,220 70,200 76,280 77,450
78,210 79,470 80,601 81,350
82,460 83,340 84,500 91,300
92,160 93,350 94,500 95,550
96,500 97,731 98,601 99,100
103,200 104,280 105,130 106,601
107,330 108,801 109,310 110,701
111,240 112,821 113,200 114,100
117,220 118,300 119,200 120,721
121,400 122,601 123,420 124,200
130,130 131,120 132,801 133,400
134,4604 135,801 136,1101 137,300
138,170 144,100 145,120 146,561
147,681 148,2402 149,681 150,681
151,200 152,170 160,140 161,120
162,180 163,120 164,170 165,100
175,200 176,180 177,120 178,100
189,250 190,100 191,120 205,130
217,160 218,180 219,130 220,220
231,1211 232,200 234,120 244,200
245,2402 246,9999 247,2062 248,851
249,150
##END=
