##TITLE=2-Phenoxynicotinic acid
##JCAMP-DX=4.24
##DATA TYPE=MASS SPECTRUM
##ORIGIN=NIST Mass Spectrometry Data Center
##OWNER=NIST Mass Spectrometry Data Center
Collection (C) 2014 copyright by the U.S. Secretary of Commerce
on behalf of the United States of America. All rights reserved.
##CAS REGISTRY NO=35620-71-4
##$NIST MASS SPEC NO=343075
##MOLFORM=C12 H9 N O3
##MW=215
##$NIST SOURCE=MSDC
##XUNITS=M/Z
##YUNITS=RELATIVE INTENSITY
##XFACTOR=1
##YFACTOR=1
##FIRSTX=18
##LASTX=216
##FIRSTY=10
##MAXX=216
##MINX=18
##MAXY=9999
##MINY=10
##NPOINTS=110
##PEAK TABLE=(XY..XY)
18,10 19,10 20,30 26,450
27,761 28,220 35,20 37,510
38,1541 39,4514 40,420 41,130
42,50 43,80 44,170 45,651
47,20 49,230 50,1682 51,3883
52,691 53,310 54,190 55,230
56,20 57,130 58,110 59,20
60,20 61,90 62,250 63,771
64,530 65,1211 66,1521 67,601
68,170 69,40 71,280 73,70
74,270 75,390 76,631 77,2122
78,601 79,100 83,20 84,100
85,200 87,50 88,90 89,310
90,110 91,160 93,1001 94,2082
95,240 96,20 98,40 101,30
102,60 103,120 104,330 105,200
106,40 107,60 112,30 113,110
114,350 115,1772 116,731 117,440
118,60 119,190 120,160 122,150
123,20 126,20 128,70 129,50
130,190 131,40 133,20 135,20
138,10 140,440 141,520 142,500
143,911 144,140 154,611 155,100
158,30 159,20 161,40 170,4124
171,9999 172,1231 173,100 177,160
178,30 182,20 186,50 187,20
198,200 199,30 212,10 214,1121
215,490 216,50
##END=
