##TITLE=2,7-Octadien-4-ol, 2-methyl-6-methylene-, (S)-
##JCAMP-DX=4.24
##DATA TYPE=MASS SPECTRUM
##ORIGIN=NIST Mass Spectrometry Data Center, 1998.
##OWNER=NIST Mass Spectrometry Data Center
Collection (C) 2014 copyright by the U.S. Secretary of Commerce
on behalf of the United States of America. All rights reserved.
##CAS REGISTRY NO=35628-00-3
##$NIST MASS SPEC NO=291660
##MOLFORM=C10 H16 O
##MW=152
##$NIST SOURCE=MSDC
##XUNITS=M/Z
##YUNITS=RELATIVE INTENSITY
##XFACTOR=1
##YFACTOR=1
##FIRSTX=15
##LASTX=153
##FIRSTY=20
##MAXX=153
##MINX=15
##MAXY=9999
##MINY=10
##NPOINTS=90
##PEAK TABLE=(XY..XY)
15,20 26,30 27,520 28,80
29,820 30,20 31,100 37,20
38,80 39,1410 40,250 41,3050
42,180 43,700 44,50 45,50
49,10 50,140 51,350 52,180
53,690 54,80 55,1060 56,160
57,810 58,40 59,30 60,10
61,10 62,40 63,100 64,20
65,690 66,170 67,1360 68,590
69,380 70,40 71,10 72,10
74,10 75,10 76,10 77,300
78,100 79,430 80,60 81,210
82,80 83,750 84,170 85,9999
86,570 87,40 89,20 90,10
91,500 92,160 93,190 94,60
95,130 96,120 97,20 102,10
103,50 104,30 105,130 106,60
107,60 108,220 109,430 110,100
111,10 115,40 116,10 117,60
118,10 119,320 120,30 121,110
122,20 123,100 124,20 133,10
134,170 135,30 137,80 138,10
152,50 153,10
##END=
