##TITLE=Pyrovalerone
##JCAMP-DX=4.24
##DATA TYPE=MASS SPECTRUM
##ORIGIN=Darrick Lee, Cayman Chemical, Ann Arbor, MI
##OWNER=NIST Mass Spectrometry Data Center
Collection (C) 2014 copyright by the U.S. Secretary of Commerce
on behalf of the United States of America. All rights reserved.
##CAS REGISTRY NO=3563-49-3
##$NIST MASS SPEC NO=386018
##MOLFORM=C16 H23 N O
##MW=245
##$NIST SOURCE=MSDC
##XUNITS=M/Z
##YUNITS=RELATIVE INTENSITY
##XFACTOR=1
##YFACTOR=1
##FIRSTX=40
##LASTX=245
##FIRSTY=50
##MAXX=245
##MINX=40
##MAXY=9999
##MINY=10
##NPOINTS=110
##PEAK TABLE=(XY..XY)
40,50 41,400 42,480 43,110
44,30 45,10 50,30 51,70
52,30 53,80 54,200 55,510
56,170 57,50 58,10 62,20
63,90 65,470 66,30 67,50
68,130 69,320 70,230 71,20
72,30 73,10 74,10 75,10
76,10 77,50 78,20 79,20
80,50 81,30 82,60 84,350
85,20 86,10 87,10 89,130
90,70 91,821 92,80 93,10
94,50 96,410 97,330 98,130
99,10 102,10 103,20 104,10
105,70 106,10 108,20 110,280
111,30 115,40 116,20 117,20
119,430 120,40 121,10 122,30
124,240 126,9999 127,941 128,60
129,20 130,10 131,20 132,10
133,10 134,20 135,10 141,10
142,10 143,10 144,10 145,10
146,10 147,10 156,10 157,10
158,10 159,20 160,10 161,10
168,10 170,10 172,10 173,10
174,20 175,10 184,10 186,20
187,10 198,10 200,20 201,10
202,70 203,10 214,10 216,10
228,10 229,10 241,10 243,20
244,10 245,10
##END=
