##TITLE=Sesquimustard
##JCAMP-DX=4.24
##DATA TYPE=MASS SPECTRUM
##ORIGIN=VERIFINN
##OWNER=NIST Mass Spectrometry Data Center
Collection (C) 2014 copyright by the U.S. Secretary of Commerce
on behalf of the United States of America. All rights reserved.
##CAS REGISTRY NO=3563-36-8
##$NIST MASS SPEC NO=289535
##MOLFORM=C6 H12 Cl2 S2
##MW=218
##$NIST SOURCE=MSDC
##XUNITS=M/Z
##YUNITS=RELATIVE INTENSITY
##XFACTOR=1
##YFACTOR=1
##FIRSTX=26
##LASTX=222
##FIRSTY=651
##MAXX=222
##MINX=26
##MAXY=9999
##MINY=50
##NPOINTS=55
##PEAK TABLE=(XY..XY)
26,651 27,6826 28,671 29,170
35,460 41,120 45,3533 46,1231
47,1752 49,520 58,1381 59,3073
60,2913 61,3423 63,5875 65,1912
73,2923 75,250 81,240 85,280
87,851 92,330 94,881 95,841
96,470 97,310 99,440 105,330
109,6376 111,2602 113,140 119,420
120,821 122,1912 123,9999 124,991
125,3723 127,1141 129,320 147,190
154,50 155,651 156,350 157,300
158,140 182,2282 183,160 184,931
185,60 186,70 218,1231 219,50
220,891 221,60 222,190
##END=
