##TITLE=p-Menthane-3,8-diol, cis-1,3,trans-1,4-
##JCAMP-DX=4.24
##DATA TYPE=MASS SPECTRUM
##ORIGIN=NIST Mass Spectrometry Data Center, 2010
##OWNER=NIST Mass Spectrometry Data Center
Collection (C) 2014 copyright by the U.S. Secretary of Commerce
on behalf of the United States of America. All rights reserved.
##CAS REGISTRY NO=3564-98-5
##$NIST MASS SPEC NO=383960
##MOLFORM=C10 H20 O2
##MW=172
##$NIST SOURCE=MSDC
##XUNITS=M/Z
##YUNITS=RELATIVE INTENSITY
##XFACTOR=1
##YFACTOR=1
##FIRSTX=27
##LASTX=158
##FIRSTY=200
##MAXX=158
##MINX=27
##MAXY=9999
##MINY=20
##NPOINTS=60
##PEAK TABLE=(XY..XY)
27,200 29,380 31,360 39,641
40,120 41,1712 42,240 43,2953
44,170 45,120 50,20 51,90
52,60 53,420 54,2482 55,1942
56,380 57,540 58,120 59,8007
61,120 65,170 66,160 67,2032
68,1972 69,1291 70,340 71,561
72,70 77,621 78,50 79,480
80,150 81,9999 82,761 83,270
84,250 85,80 92,40 93,280
94,140 95,1361 96,4324 97,540
98,140 107,110 110,210 111,360
112,190 121,581 122,60 123,70
136,140 139,801 140,70 153,20
154,110 155,20 157,250 158,30
##END=
