##TITLE=N-Z-L-Homoserine lactone
##JCAMP-DX=4.24
##DATA TYPE=MASS SPECTRUM
##ORIGIN=NIST Mass Spectrometry Data Center
##OWNER=NIST Mass Spectrometry Data Center
Collection (C) 2014 copyright by the U.S. Secretary of Commerce
on behalf of the United States of America. All rights reserved.
##CAS REGISTRY NO=35677-89-5
##$NIST MASS SPEC NO=352456
##MOLFORM=C12 H13 N O4
##MW=235
##$NIST SOURCE=MSDC
##XUNITS=M/Z
##YUNITS=RELATIVE INTENSITY
##XFACTOR=1
##YFACTOR=1
##FIRSTX=15
##LASTX=237
##FIRSTY=20
##MAXX=237
##MINX=15
##MAXY=9999
##MINY=10
##NPOINTS=88
##PEAK TABLE=(XY..XY)
15,20 25,10 26,80 27,260
28,671 29,250 30,40 31,40
37,40 38,100 39,621 40,140
41,400 42,300 43,140 44,130
45,40 49,20 50,340 51,851
52,280 53,210 54,500 55,721
56,1081 57,300 58,100 61,40
62,120 63,420 64,130 65,1521
66,90 67,10 68,40 69,70
70,40 71,10 72,30 73,20
74,80 75,50 76,50 77,1231
78,270 79,1872 80,190 81,10
82,90 83,280 84,30 85,100
86,791 87,50 88,10 89,530
90,550 91,9999 92,851 93,30
100,100 101,50 102,10 104,20
105,150 106,80 107,1952 108,6536
109,510 110,30 116,20 117,10
118,30 126,10 128,40 129,10
130,10 132,110 133,30 144,20
146,30 164,10 174,10 177,10
192,20 235,450 236,60 237,10
##END=
