##TITLE=1,1'-Biphenyl, 2,2',3,4,4',5-hexachloro-
##JCAMP-DX=4.24
##DATA TYPE=MASS SPECTRUM
##ORIGIN=N. Todua, WGM, MMES
##OWNER=NIST Mass Spectrometry Data Center
Collection (C) 2014 copyright by the U.S. Secretary of Commerce
on behalf of the United States of America. All rights reserved.
##CAS REGISTRY NO=35694-06-5
##$NIST MASS SPEC NO=334755
##MOLFORM=C12 H4 Cl6
##MW=358
##$NIST SOURCE=MSDC
##XUNITS=M/Z
##YUNITS=RELATIVE INTENSITY
##XFACTOR=1
##YFACTOR=1
##FIRSTX=41
##LASTX=368
##FIRSTY=126
##MAXX=368
##MINX=41
##MAXY=9999
##MINY=126
##NPOINTS=171
##PEAK TABLE=(XY..XY)
41,126 44,200 45,126 47,200
48,126 49,263 50,327 51,200
55,200 57,126 60,263 61,327
62,263 63,200 66,126 67,126
71,200 72,263 73,590 74,527
75,263 78,263 83,200 84,327
85,390 86,327 87,200 91,327
92,327 94,126 95,200 96,263
97,390 98,453 99,263 103,126
106,200 107,263 108,527 109,917
111,653 112,263 113,126 114,200
115,200 116,126 117,200 118,200
119,327 121,263 122,390 123,263
124,200 126,527 127,590 129,126
130,126 131,200 132,327 133,327
134,263 135,200 136,126 137,126
142,200 143,263 144,1106 145,1370
146,917 147,453 148,327 149,200
150,126 155,200 156,200 157,200
158,200 159,200 160,126 161,200
162,263 163,327 164,263 165,200
166,126 167,200 168,200 169,200
170,200 171,200 172,200 178,126
179,263 180,453 181,453 182,527
183,527 184,263 185,263 191,126
192,200 193,200 194,200 195,126
196,200 202,126 203,200 204,200
205,200 206,200 207,200 208,126
215,200 216,200 217,263 218,1106
219,390 220,853 221,263 222,263
227,126 228,200 229,200 230,200
238,200 239,200 240,200 241,200
242,200 251,200 252,453 253,453
254,527 255,453 256,263 257,263
258,200 262,200 264,200 266,126
287,200 288,3329 289,653 290,4573
291,716 292,2097 293,453 294,527
295,200 296,200 322,200 323,1180
324,327 325,1897 326,390 327,1106
328,263 329,453 330,200 331,200
358,4710 359,716 360,9999 361,1370
362,7850 363,1043 364,3466 365,527
366,917 367,263 368,263
##END=
