##TITLE=1,1'-Biphenyl, 2,2',3,3',4,4',5,5'-octachloro-
##JCAMP-DX=4.24
##DATA TYPE=MASS SPECTRUM
##ORIGIN=Organic Synthesis Lab, MSU, Moscow.TRC 1193
##OWNER=NIST Mass Spectrometry Data Center
Collection (C) 2014 copyright by the U.S. Secretary of Commerce
on behalf of the United States of America. All rights reserved.
##CAS REGISTRY NO=35694-08-7
##$NIST MASS SPEC NO=326583
##MOLFORM=C12 H2 Cl8
##MW=426
##$NIST SOURCE=MSDC
##XUNITS=M/Z
##YUNITS=RELATIVE INTENSITY
##XFACTOR=1
##YFACTOR=1
##FIRSTX=41
##LASTX=438
##FIRSTY=45
##MAXX=438
##MINX=41
##MAXY=9999
##MINY=22
##NPOINTS=162
##PEAK TABLE=(XY..XY)
41,45 44,255 47,78 48,24
49,63 56,32 57,44 60,102
61,148 62,42 66,28 71,65
72,201 73,274 74,80 81,22
83,120 84,198 85,235 86,93
90,242 91,135 94,49 95,95
96,148 97,139 98,135 106,62
107,236 108,608 109,323 110,224
111,36 113,35 114,41 118,150
119,126 120,289 121,152 122,83
126,188 131,133 132,226 133,150
134,80 135,37 137,29 141,49
143,778 144,872 145,500 146,340
147,66 149,42 150,26 154,75
155,79 156,137 158,38 160,228
161,296 162,247 164,24 166,57
167,107 168,100 169,80 170,30
177,33 178,670 179,1261 180,1264
181,581 182,179 183,61 190,34
191,49 192,62 193,37 194,22
202,50 203,61 204,40 205,65
207,40 213,121 214,418 215,478
216,685 217,204 218,356 219,59
220,53 228,61 229,29 237,51
238,46 239,71 240,82 241,65
242,25 250,230 251,371 252,283
253,212 254,89 255,101 272,48
274,84 276,33 285,73 286,1345
287,260 288,1640 289,240 290,841
291,131 292,211 298,50 299,26
320,189 321,382 322,350 323,562
324,268 325,361 326,104 327,162
356,2687 357,425 358,5348 359,701
360,4354 361,575 362,1967 363,244
364,422 365,50 391,869 392,183
393,2181 394,306 395,1904 396,298
397,1023 398,184 399,347 400,83
401,62 426,3591 427,471 428,9145
429,1310 430,9999 431,1258 432,6240
433,867 434,2478 435,346 436,639
437,124 438,104
##END=
