##TITLE=1,1'-Biphenyl, 2,4,6-trichloro-
##JCAMP-DX=4.24
##DATA TYPE=MASS SPECTRUM
##ORIGIN=T.L.Hayes, Battelle Columbus Laboratories, Columbus, OH 43221
##OWNER=NIST Mass Spectrometry Data Center
Collection (C) 2014 copyright by the U.S. Secretary of Commerce
on behalf of the United States of America. All rights reserved.
##CAS REGISTRY NO=35693-92-6
##$NIST MASS SPEC NO=80750
##MOLFORM=C12 H7 Cl3
##MW=256
##$NIST SOURCE=MSDC
##XUNITS=M/Z
##YUNITS=RELATIVE INTENSITY
##XFACTOR=1
##YFACTOR=1
##FIRSTX=35
##LASTX=262
##FIRSTY=96
##MAXX=262
##MINX=35
##MAXY=9999
##MINY=7
##NPOINTS=125
##PEAK TABLE=(XY..XY)
35,96 36,226 37,212 38,341
39,661 43,28 45,13 47,40
48,8 49,209 50,953 51,1034
52,166 55,43 56,15 60,118
61,656 62,870 63,486 64,17
67,51 72,106 73,625 74,1598
75,2528 76,483 77,339 79,237
80,279 81,67 83,20 84,261
85,467 86,584 87,379 88,27
92,1072 93,2030 94,596 96,95
97,632 98,1172 99,804 100,174
101,124 102,41 103,21 107,51
108,187 109,415 110,2224 111,1640
112,301 113,81 114,28 115,64
116,46 120,54 121,147 122,335
123,449 124,145 125,278 126,176
127,8 128,507 129,506 130,111
131,8 132,21 133,203 134,63
135,118 136,85 137,16 138,16
145,41 146,53 147,224 148,59
149,699 150,3518 151,2245 152,247
157,35 158,59 159,66 160,254
161,36 162,40 169,49 170,27
171,48 172,7 181,45 182,55
183,55 184,231 185,574 186,9261
187,1325 188,2841 189,300 193,25
194,43 195,29 196,49 204,54
206,61 207,21 208,18 219,8
220,603 221,389 222,409 223,227
224,65 225,8 256,9999 257,1320
258,9494 259,1151 260,2934 261,307
262,254
##END=
