##TITLE=Brucine
##JCAMP-DX=4.24
##DATA TYPE=MASS SPECTRUM
##ORIGIN=NIST Mass Spectrometry Data Center, 1998.
##OWNER=NIST Mass Spectrometry Data Center
Collection (C) 2014 copyright by the U.S. Secretary of Commerce
on behalf of the United States of America. All rights reserved.
##CAS REGISTRY NO=357-57-3
##$NIST MASS SPEC NO=291043
##MOLFORM=C23 H26 N2 O4
##MW=394
##$NIST SOURCE=MSDC
##XUNITS=M/Z
##YUNITS=RELATIVE INTENSITY
##XFACTOR=1
##YFACTOR=1
##FIRSTX=15
##LASTX=397
##FIRSTY=30
##MAXX=397
##MINX=15
##MAXY=9999
##MINY=10
##NPOINTS=296
##PEAK TABLE=(XY..XY)
15,30 27,90 29,100 30,70
31,10 39,190 40,40 41,440
42,480 43,320 44,110 45,10
50,20 51,130 52,100 53,340
54,270 55,810 56,380 57,70
58,40 63,90 64,20 65,270
66,140 67,230 68,250 69,190
70,100 71,90 74,10 75,50
76,120 77,800 78,270 79,750
80,430 81,280 82,220 83,60
84,40 86,10 88,40 89,230
90,170 91,760 92,210 93,360
94,420 95,180 96,90 97,110
98,50 99,10 101,80 102,170
103,330 104,210 105,400 106,440
107,1110 108,600 109,180 110,90
111,40 112,50 113,40 114,90
115,400 116,240 117,540 118,390
119,400 120,1280 121,460 122,480
123,90 124,70 125,40 126,70
127,160 128,300 129,250 130,350
131,320 132,420 133,320 134,610
135,260 136,450 137,90 138,380
139,180 140,190 141,170 142,230
143,220 144,290 145,250 146,670
147,230 148,160 149,40 150,70
151,50 152,160 153,120 154,290
155,150 156,160 157,130 158,220
159,210 160,380 161,410 162,620
163,210 164,50 165,80 166,150
167,240 168,190 169,140 170,200
171,130 172,230 173,180 174,560
175,220 176,200 177,90 178,100
179,50 180,140 181,100 182,180
183,180 184,190 185,110 186,140
187,60 188,340 189,500 190,700
191,270 192,130 193,80 194,100
195,70 196,190 197,570 198,190
199,80 200,140 201,50 202,220
203,880 204,470 205,120 206,90
207,50 208,90 209,80 210,130
211,90 212,190 213,130 214,120
215,80 216,180 217,70 218,60
219,50 220,70 221,60 222,100
223,70 224,120 225,50 226,140
227,130 228,190 229,130 230,110
231,60 232,90 233,60 234,70
235,50 236,80 237,60 238,90
239,30 240,160 241,80 242,170
243,160 244,170 245,40 246,40
247,40 248,40 249,50 250,90
251,70 252,80 253,50 254,100
255,70 256,190 257,180 258,150
259,20 260,20 261,30 262,40
263,40 264,100 265,50 266,90
267,70 268,80 269,100 270,80
271,20 272,30 273,20 276,30
277,20 278,70 279,60 280,180
281,110 282,90 283,70 284,10
287,10 288,10 289,10 290,20
291,10 292,70 293,100 294,140
295,80 296,70 297,30 298,10
303,20 304,10 305,10 306,90
307,70 308,100 309,80 310,40
311,10 318,10 319,10 320,50
321,80 322,70 323,70 324,50
325,30 326,10 331,10 333,10
334,50 335,80 336,110 337,90
338,40 339,40 348,20 349,80
350,50 351,130 352,40 362,10
363,60 364,30 365,130 366,70
367,10 377,40 378,40 379,2580
380,600 381,60 392,40 393,280
394,9999 395,2380 396,370 397,20
##END=
