##TITLE=1-Butene, 1,1,2,3,3,4,4,4-octafluoro-
##JCAMP-DX=4.24
##DATA TYPE=MASS SPECTRUM
##OWNER=NIST Mass Spectrometry Data Center
Collection (C) 2014 copyright by the U.S. Secretary of Commerce
on behalf of the United States of America. All rights reserved.
##CAS REGISTRY NO=357-26-6
##$NIST MASS SPEC NO=9035
##MOLFORM=C4 F8
##MW=200
##$NIST SOURCE=MSDC
##XUNITS=M/Z
##YUNITS=RELATIVE INTENSITY
##XFACTOR=1
##YFACTOR=1
##FIRSTX=12
##LASTX=200
##FIRSTY=440
##MAXX=200
##MINX=12
##MAXY=9999
##MINY=10
##NPOINTS=25
##PEAK TABLE=(XY..XY)
12,440 19,170 24,100 31,7026
36,80 43,190 50,771 55,330
62,470 69,3653 74,440 81,320
86,10 93,1291 100,460 105,10
112,470 119,100 124,30 131,9999
143,10 150,30 162,50 181,1191
200,881
##END=
