##TITLE=N,N'-Di-sec-butylthiourea
##JCAMP-DX=4.24
##DATA TYPE=MASS SPECTRUM
##ORIGIN=NIST Mass Spectrometry Data Center, 1994
##OWNER=NIST Mass Spectrometry Data Center
Collection (C) 2014 copyright by the U.S. Secretary of Commerce
on behalf of the United States of America. All rights reserved.
##CAS REGISTRY NO=35700-30-2
##$NIST MASS SPEC NO=133697
##MOLFORM=C9 H20 N2 S
##MW=188
##$NIST SOURCE=MSDC
##XUNITS=M/Z
##YUNITS=RELATIVE INTENSITY
##XFACTOR=1
##YFACTOR=1
##FIRSTX=4
##LASTX=190
##FIRSTY=3
##MAXX=190
##MINX=4
##MAXY=9999
##MINY=3
##NPOINTS=72
##PEAK TABLE=(XY..XY)
4,3 14,3 15,119 18,380
26,107 27,852 28,940 29,2047
30,419 32,49 39,628 41,2068
42,905 43,1883 44,3770 45,264
46,49 51,49 53,176 54,222
55,1994 56,729 57,1790 58,1677
59,308 60,1295 61,122 62,274
69,732 70,216 72,9999 73,525
74,129 75,161 76,260 77,1614
78,75 79,109 82,97 83,113
84,424 85,108 86,197 88,91
89,195 90,118 97,51 99,838
100,96 101,110 102,51 103,825
104,438 105,99 113,56 114,51
116,141 117,193 125,130 127,121
128,54 131,1274 132,140 133,221
155,125 156,43 159,214 160,53
187,2204 188,6899 189,927 190,350
##END=
