##TITLE=Camphenol, 6-
##JCAMP-DX=4.24
##DATA TYPE=MASS SPECTRUM
##ORIGIN=Mark Whitten, Florida Museum of Natural History, U. of Florida
##OWNER=NIST Mass Spectrometry Data Center
Collection (C) 2014 copyright by the U.S. Secretary of Commerce
on behalf of the United States of America. All rights reserved.
##CAS REGISTRY NO=3570-04-5
##$NIST MASS SPEC NO=141039
##MOLFORM=C10 H16 O
##MW=152
##$NIST SOURCE=MSDC
##XUNITS=M/Z
##YUNITS=RELATIVE INTENSITY
##XFACTOR=1
##YFACTOR=1
##FIRSTX=41
##LASTX=137
##FIRSTY=3365
##MAXX=137
##MINX=41
##MAXY=9999
##MINY=127
##NPOINTS=44
##PEAK TABLE=(XY..XY)
41,3365 42,382 43,2249 44,612
45,230 50,339 51,964 52,527
53,1297 54,321 55,1097 56,242
57,406 59,1182 60,127 63,291
65,1036 66,321 67,1273 68,200
69,333 70,200 77,2261 78,557
79,1649 80,327 81,988 82,254
83,200 91,3613 92,648 93,9999
94,1813 95,1570 96,266 103,169
105,454 106,169 107,1139 108,8095
109,2073 110,200 119,479 137,248
##END=
