##TITLE=Cyclazocine
##JCAMP-DX=4.24
##DATA TYPE=MASS SPECTRUM
##ORIGIN=Patti Price, Georgia Bureau of Investigation, Decatur, Georgia
##OWNER=NIST Mass Spectrometry Data Center
Collection (C) 2014 copyright by the U.S. Secretary of Commerce
on behalf of the United States of America. All rights reserved.
##CAS REGISTRY NO=3572-80-3
##$NIST MASS SPEC NO=247643
##MOLFORM=C18 H25 N O
##MW=271
##$NIST SOURCE=MSDC
##XUNITS=M/Z
##YUNITS=RELATIVE INTENSITY
##XFACTOR=1
##YFACTOR=1
##FIRSTX=41
##LASTX=272
##FIRSTY=1010
##MAXX=272
##MINX=41
##MAXY=9999
##MINY=20
##NPOINTS=117
##PEAK TABLE=(XY..XY)
41,1010 42,1131 43,660 44,490
45,20 51,330 53,800 54,430
55,4834 56,1271 57,170 58,710
65,570 67,400 68,980 69,450
70,1861 71,2161 72,220 75,230
76,200 77,1171 78,340 79,510
80,360 81,260 82,680 83,230
84,1441 87,220 89,280 91,1421
92,260 93,180 94,270 95,470
96,610 97,230 98,360 99,1621
100,240 102,220 103,770 104,250
105,700 107,1481 108,550 109,250
110,1171 111,210 112,350 115,2101
116,580 117,730 118,230 119,340
120,190 121,400 122,290 123,260
124,1531 125,210 127,1331 128,1411
129,900 130,340 131,1711 132,630
133,570 134,240 135,190 136,620
141,770 142,220 143,310 144,1401
145,2552 146,1231 147,890 148,310
150,210 152,170 155,370 157,1741
158,1921 159,2842 160,810 161,710
162,190 164,4043 165,670 171,370
172,1431 173,1991 174,1751 175,450
184,210 186,440 187,350 188,240
200,650 201,230 202,680 214,340
216,800 217,170 228,180 229,390
230,9999 231,1711 242,820 243,260
256,5765 257,910 270,2442 271,6185
272,1080
##END=
