##TITLE=4-(p-Acetoxyphenyl)-2-butanone
##JCAMP-DX=4.24
##DATA TYPE=MASS SPECTRUM
##ORIGIN=NIST Mass Spectrometry Data Center, 1990.
##OWNER=NIST Mass Spectrometry Data Center
Collection (C) 2014 copyright by the U.S. Secretary of Commerce
on behalf of the United States of America. All rights reserved.
##CAS REGISTRY NO=3572-06-3
##$NIST MASS SPEC NO=113170
##MOLFORM=C12 H14 O3
##MW=206
##$NIST SOURCE=MSDC
##XUNITS=M/Z
##YUNITS=RELATIVE INTENSITY
##XFACTOR=1
##YFACTOR=1
##FIRSTX=14
##LASTX=206
##FIRSTY=89
##MAXX=206
##MINX=14
##MAXY=9999
##MINY=61
##NPOINTS=49
##PEAK TABLE=(XY..XY)
14,89 15,212 27,161 28,142
32,79 38,86 39,491 40,124
41,131 42,79 43,5434 44,161
50,187 51,455 52,289 53,216
55,201 62,121 63,390 64,131
65,608 66,134 77,1287 78,478
79,146 89,151 91,887 92,129
94,2469 95,205 102,75 103,355
104,61 105,103 106,61 107,9999
108,774 119,190 120,391 121,1487
122,158 131,241 145,88 147,162
149,802 150,101 164,4837 165,578
206,383
##END=
