##TITLE=11-Methylhentriacontane
##JCAMP-DX=4.24
##DATA TYPE=MASS SPECTRUM
##ORIGIN=J. Klune, Insect Chem. Ecol. Lab., USDA, Beltsville, MD 20705
##OWNER=NIST Mass Spectrometry Data Center
Collection (C) 2014 copyright by the U.S. Secretary of Commerce
on behalf of the United States of America. All rights reserved.
##CAS REGISTRY NO=35799-05-4
##$NIST MASS SPEC NO=131192
##MOLFORM=C32 H66
##MW=450
##$NIST SOURCE=MSDC
##XUNITS=M/Z
##YUNITS=RELATIVE INTENSITY
##XFACTOR=1
##YFACTOR=1
##FIRSTX=41
##LASTX=452
##FIRSTY=2539
##MAXX=452
##MINX=41
##MAXY=9999
##MINY=5
##NPOINTS=143
##PEAK TABLE=(XY..XY)
41,2539 42,938 43,7826 44,227
53,100 54,265 55,2677 56,1753
57,9999 58,410 60,5 65,15
66,21 67,306 68,372 69,1834
70,1139 71,6278 72,326 77,5
79,39 80,16 81,184 82,473
83,1518 84,660 85,4585 86,286
91,15 93,5 95,96 96,324
97,1461 98,401 99,1569 100,107
105,16 109,40 110,172 111,822
112,280 113,945 114,79 123,17
124,103 125,410 126,183 127,505
128,43 137,12 138,71 139,172
140,851 141,360 142,35 147,25
152,40 153,62 154,84 155,162
156,17 166,41 167,53 168,7406
169,2746 170,274 171,14 180,26
181,32 182,194 183,176 184,23
194,25 195,26 196,114 197,117
198,14 208,22 209,21 210,90
211,105 212,13 222,23 223,19
224,83 225,109 226,15 236,6
237,6 238,50 239,76 240,7
252,48 253,52 266,34 267,37
280,677 281,286 282,46 294,53
295,39 296,10 308,2239 309,2050
310,410 311,50 322,118 323,112
324,24 336,58 337,60 338,6
350,63 351,73 352,14 353,8
364,72 365,100 366,26 378,75
379,113 380,30 392,66 393,112
394,32 406,60 407,124 408,38
414,21 420,91 421,220 422,69
423,12 434,34 435,263 436,94
437,14 438,5 448,11 449,37
450,156 451,55 452,5
##END=
