##TITLE=Silane, diethyldifluoro-
##JCAMP-DX=4.24
##DATA TYPE=MASS SPECTRUM
##ORIGIN=A.Pleshkova, Nesmeyanov Inst.Org.Elem.Cpds, Moscow
##OWNER=NIST Mass Spectrometry Data Center
Collection (C) 2014 copyright by the U.S. Secretary of Commerce
on behalf of the United States of America. All rights reserved.
##CAS REGISTRY NO=358-06-5
##$NIST MASS SPEC NO=283881
##MOLFORM=C4 H10 F2 Si
##MW=124
##$NIST SOURCE=MSDC
##XUNITS=M/Z
##YUNITS=RELATIVE INTENSITY
##XFACTOR=1
##YFACTOR=1
##FIRSTX=39
##LASTX=126
##FIRSTY=10
##MAXX=126
##MINX=39
##MAXY=9999
##MINY=10
##NPOINTS=39
##PEAK TABLE=(XY..XY)
39,10 40,30 42,10 43,160
44,80 47,260 48,10 49,20
58,70 59,10 66,120 67,3013
68,110 69,130 73,10 75,20
76,80 77,250 78,10 79,10
80,190 81,120 82,10 83,90
85,50 91,180 92,20 93,621
94,310 95,9999 96,1501 97,681
98,10 105,420 106,30 107,10
124,4714 125,430 126,170
##END=
