##TITLE=4-Ethoxycoumarin
##JCAMP-DX=4.24
##DATA TYPE=MASS SPECTRUM
##ORIGIN=NIST Mass Spectrometry Data Center, 2012
##OWNER=NIST Mass Spectrometry Data Center
Collection (C) 2014 copyright by the U.S. Secretary of Commerce
on behalf of the United States of America. All rights reserved.
##CAS REGISTRY NO=35817-27-7
##$NIST MASS SPEC NO=395884
##MOLFORM=C11 H10 O3
##MW=190
##$NIST SOURCE=MSDC
##XUNITS=M/Z
##YUNITS=RELATIVE INTENSITY
##XFACTOR=1
##YFACTOR=1
##FIRSTX=26
##LASTX=193
##FIRSTY=120
##MAXX=193
##MINX=26
##MAXY=9999
##MINY=10
##NPOINTS=73
##PEAK TABLE=(XY..XY)
26,120 27,671 29,751 37,70
38,260 39,751 41,150 43,110
50,490 51,1031 52,180 53,230
54,20 55,60 61,140 62,540
63,1221 64,631 65,1081 66,140
69,1001 70,30 74,160 75,230
76,310 77,1171 78,140 85,40
86,100 87,100 88,130 89,651
90,340 91,130 92,2622 93,901
94,160 98,10 101,230 102,40
104,100 105,971 106,80 107,50
108,10 115,30 116,70 117,40
118,3703 119,370 120,9999 121,3924
122,310 123,30 131,60 133,550
134,1441 135,150 144,20 145,50
146,120 147,160 148,130 149,40
161,60 162,2312 163,200 164,30
173,30 189,110 190,4444 191,530
193,10
##END=
