##TITLE=Phosphonous dichloride, (trichloromethyl)-
##JCAMP-DX=4.24
##DATA TYPE=MASS SPECTRUM
##ORIGIN=CBDCOM/ERDEC, Edgewood, MD
##OWNER=NIST Mass Spectrometry Data Center
Collection (C) 2014 copyright by the U.S. Secretary of Commerce
on behalf of the United States of America. All rights reserved.
##CAS REGISTRY NO=3582-11-4
##$NIST MASS SPEC NO=226508
##MOLFORM=C Cl5 P
##MW=218
##$NIST SOURCE=MSDC
##XUNITS=M/Z
##YUNITS=RELATIVE INTENSITY
##XFACTOR=1
##YFACTOR=1
##FIRSTX=31
##LASTX=224
##FIRSTY=1191
##MAXX=224
##MINX=31
##MAXY=9999
##MINY=10
##NPOINTS=46
##PEAK TABLE=(XY..XY)
31,1191 35,1991 37,490 43,990
47,2992 49,890 62,90 63,790
65,60 68,790 70,10 78,2492
80,990 82,1991 84,1291 85,240
86,140 87,60 101,6495 103,3993
105,790 113,790 115,790 117,9999
119,8998 121,3493 123,390 136,140
138,140 140,60 148,790 150,690
152,290 154,20 166,20 183,3593
185,4994 187,2191 189,490 199,20
201,60 203,20 218,390 220,590
222,380 224,120
##END=
