##TITLE=Tetrasul sulfoxide
##JCAMP-DX=4.24
##DATA TYPE=MASS SPECTRUM
##ORIGIN=J. SHAW, BORRISTON RESEARCH, ROCKVILLE, MD, USA
##OWNER=NIST Mass Spectrometry Data Center
Collection (C) 2014 copyright by the U.S. Secretary of Commerce
on behalf of the United States of America. All rights reserved.
##CAS REGISTRY NO=35850-29-4
##$NIST MASS SPEC NO=60291
##MOLFORM=C12 H6 Cl4 O S
##MW=338
##$NIST SOURCE=MSDC
##XUNITS=M/Z
##YUNITS=RELATIVE INTENSITY
##XFACTOR=1
##YFACTOR=1
##FIRSTX=12
##LASTX=346
##FIRSTY=70
##MAXX=346
##MINX=12
##MAXY=9999
##MINY=10
##NPOINTS=214
##PEAK TABLE=(XY..XY)
12,70 13,10 14,20 15,40
16,100 17,220 18,660 26,300
27,570 28,300 29,120 30,60
32,190 33,10 35,640 36,790
37,1261 38,1471 39,1461 40,50
41,30 42,20 45,2422 47,470
48,1451 50,9849 51,3803 52,300
53,160 54,50 55,40 57,300
58,270 61,1961 62,1721 63,2712
64,410 65,140 66,20 67,30
69,2552 70,370 71,440 73,4444
74,7777 75,9999 76,2192 77,520
79,1931 81,1031 82,590 84,1951
85,1761 86,760 87,1161 88,100
89,250 90,60 91,140 92,160
93,470 94,210 95,750 96,770
97,1011 99,5875 101,1741 103,370
105,590 106,520 108,6466 109,2502
111,5785 112,620 113,1411 114,190
115,470 116,130 117,190 118,190
119,170 120,140 121,140 122,80
123,150 124,210 125,180 127,9789
128,880 129,3673 131,3133 132,270
133,960 134,80 135,70 136,30
137,110 138,60 139,50 140,110
141,340 143,8528 144,1421 145,3113
146,750 147,350 148,120 149,100
150,170 151,20 153,10 155,90
156,20 157,90 159,4874 161,1971
162,120 163,140 164,140 165,60
166,130 167,360 169,410 170,60
171,140 172,50 173,100 176,1471
178,1011 179,490 180,270 181,470
182,190 183,170 184,130 185,110
186,40 187,30 190,10 191,10
192,20 193,20 195,270 197,270
199,290 201,220 203,80 205,140
206,30 207,90 209,50 211,970
213,1011 215,410 216,170 217,120
218,60 220,460 222,320 223,40
224,60 225,10 227,290 229,270
231,110 233,30 239,50 240,50
241,40 242,30 243,20 250,30
252,430 254,380 255,50 256,90
257,20 258,10 268,80 269,20
270,50 271,10 272,10 275,30
277,30 279,10 286,140 288,160
290,1101 292,1381 294,710 295,70
296,120 297,10 298,10 302,30
303,100 304,50 305,100 306,20
307,30 322,380 324,530 326,280
327,30 328,50 338,820 340,1241
341,230 342,500 343,110 344,120
345,20 346,10
##END=
