##TITLE=(6Z)-Nonen-1-ol
##JCAMP-DX=4.24
##DATA TYPE=MASS SPECTRUM
##ORIGIN=NIST Mass Spectrometry Data Center, 1994
##OWNER=NIST Mass Spectrometry Data Center
Collection (C) 2014 copyright by the U.S. Secretary of Commerce
on behalf of the United States of America. All rights reserved.
##CAS REGISTRY NO=35854-86-5
##$NIST MASS SPEC NO=136570
##MOLFORM=C9 H18 O
##MW=142
##$NIST SOURCE=MSDC
##XUNITS=M/Z
##YUNITS=RELATIVE INTENSITY
##XFACTOR=1
##YFACTOR=1
##FIRSTX=15
##LASTX=142
##FIRSTY=254
##MAXX=142
##MINX=15
##MAXY=9999
##MINY=5
##NPOINTS=61
##PEAK TABLE=(XY..XY)
15,254 17,22 18,56 19,134
26,170 27,3192 28,598 29,2949
30,135 31,4002 37,42 38,189
39,3989 40,763 41,9999 42,1714
43,1803 44,655 45,28 50,144
51,377 52,198 53,1516 54,2866
55,4757 56,898 57,1516 58,135
62,23 63,73 65,368 66,500
67,8089 68,4043 69,1731 70,461
71,270 72,74 73,5 77,249
78,49 79,621 80,200 81,2693
82,3067 83,426 84,45 85,74
86,32 91,77 93,207 95,3169
96,1054 97,79 98,55 99,62
109,160 114,31 124,391 125,43
142,18
##END=
