##TITLE=Benzenamine, 3-phenoxy-
##JCAMP-DX=4.24
##DATA TYPE=MASS SPECTRUM
##ORIGIN=Chuck Anderson, Aldrich Chemical Co.
##OWNER=NIST Mass Spectrometry Data Center
Collection (C) 2014 copyright by the U.S. Secretary of Commerce
on behalf of the United States of America. All rights reserved.
##CAS REGISTRY NO=3586-12-7
##$NIST MASS SPEC NO=108007
##MOLFORM=C12 H11 N O
##MW=185
##$NIST SOURCE=MSDC
##XUNITS=M/Z
##YUNITS=RELATIVE INTENSITY
##XFACTOR=1
##YFACTOR=1
##FIRSTX=18
##LASTX=187
##FIRSTY=19
##MAXX=187
##MINX=18
##MAXY=9999
##MINY=6
##NPOINTS=86
##PEAK TABLE=(XY..XY)
18,19 26,45 27,292 28,361
29,27 30,43 36,56 37,64
38,316 39,1444 40,156 41,320
42,150 50,326 51,1152 52,535
53,470 54,174 55,67 61,42
62,176 63,681 64,689 65,3603
66,746 67,21 68,104 69,24
70,126 74,131 75,118 76,115
77,1233 78,576 79,442 80,1152
81,119 83,127 84,69 89,101
90,108 91,432 92,1550 93,267
94,202 95,14 101,22 102,77
103,92 104,55 108,98 109,308
113,6 114,24 115,401 116,251
117,131 118,55 126,25 127,275
128,608 129,551 130,673 131,142
139,385 140,375 141,417 142,84
143,67 144,76 154,217 155,87
156,5421 157,2142 158,229 166,213
167,188 168,466 169,100 170,57
182,23 183,261 184,1615 185,9999
186,1233 187,89
##END=
