##TITLE=Benzene, 1-methyl-3-phenoxy-
##JCAMP-DX=4.24
##DATA TYPE=MASS SPECTRUM
##ORIGIN=Japan AIST/NIMC Database- Spectrum MS-NW-1632
##OWNER=NIST Mass Spectrometry Data Center
Collection (C) 2014 copyright by the U.S. Secretary of Commerce
on behalf of the United States of America. All rights reserved.
##CAS REGISTRY NO=3586-14-9
##$NIST MASS SPEC NO=234012
##MOLFORM=C13 H12 O
##MW=184
##$NIST SOURCE=MSDC
##XUNITS=M/Z
##YUNITS=RELATIVE INTENSITY
##XFACTOR=1
##YFACTOR=1
##FIRSTX=26
##LASTX=186
##FIRSTY=20
##MAXX=186
##MINX=26
##MAXY=9999
##MINY=10
##NPOINTS=90
##PEAK TABLE=(XY..XY)
26,20 27,229 28,99 37,30
38,149 39,1029 40,80 41,199
49,10 50,339 51,1299 52,199
53,129 55,80 57,10 61,30
62,129 63,499 64,229 65,1509
66,129 67,10 68,20 69,30
70,20 74,99 75,90 76,269
77,1279 78,629 79,179 80,20
82,40 84,10 86,20 87,30
88,10 89,359 90,199 91,2459
92,229 93,20 94,99 101,10
102,40 103,20 105,20 106,20
107,159 108,119 113,10 114,20
115,629 116,129 117,10 126,10
127,119 128,429 129,269 130,50
131,10 132,10 133,10 139,109
140,40 141,1569 142,209 143,40
144,20 151,30 152,129 153,189
154,109 155,1079 156,979 157,129
158,10 165,159 166,30 167,50
168,339 169,849 170,199 171,20
181,119 182,70 183,829 184,9999
185,1389 186,119
##END=
