##TITLE=trans,trans-Muconic acid
##JCAMP-DX=4.24
##DATA TYPE=MASS SPECTRUM
##ORIGIN=Japan AIST/NIMC Database- Spectrum MS-NW-2293
##OWNER=NIST Mass Spectrometry Data Center
Collection (C) 2014 copyright by the U.S. Secretary of Commerce
on behalf of the United States of America. All rights reserved.
##CAS REGISTRY NO=3588-17-8
##$NIST MASS SPEC NO=233763
##MOLFORM=C6 H6 O4
##MW=142
##$NIST SOURCE=MSDC
##XUNITS=M/Z
##YUNITS=RELATIVE INTENSITY
##XFACTOR=1
##YFACTOR=1
##FIRSTX=12
##LASTX=144
##FIRSTY=90
##MAXX=144
##MINX=12
##MAXY=9999
##MINY=10
##NPOINTS=97
##PEAK TABLE=(XY..XY)
12,90 13,30 14,70 15,119
16,129 17,30 18,119 24,30
25,199 26,1629 27,1919 28,1109
29,489 30,10 31,60 32,70
34,30 36,80 37,299 38,339
39,1549 40,469 41,2589 42,429
43,569 44,3389 45,1379 46,70
47,60 48,129 49,449 50,1809
51,2829 52,2139 53,849 54,669
55,1169 56,80 57,90 58,30
60,90 62,50 63,60 64,50
65,30 66,40 67,60 68,1119
69,1539 70,169 71,99 72,10
73,30 74,10 76,10 77,90
78,60 79,1389 80,1609 81,299
82,219 83,239 84,60 85,10
86,40 87,50 91,20 92,50
93,10 94,10 95,229 96,1339
97,9999 98,749 99,139 100,30
102,40 104,60 105,20 107,60
108,459 109,30 110,10 111,30
112,10 113,20 115,20 122,20
123,30 124,479 125,309 126,60
127,20 141,10 142,2629 143,179
144,20
##END=
