##TITLE=CHF2CH2OH
##JCAMP-DX=4.24
##DATA TYPE=MASS SPECTRUM
##ORIGIN=NIST Mass Spectrometry Data Center
##OWNER=NIST Mass Spectrometry Data Center
Collection (C) 2014 copyright by the U.S. Secretary of Commerce
on behalf of the United States of America. All rights reserved.
##CAS REGISTRY NO=359-13-7
##$NIST MASS SPEC NO=343030
##MOLFORM=C2 H4 F2 O
##MW=82
##$NIST SOURCE=MSDC
##XUNITS=M/Z
##YUNITS=RELATIVE INTENSITY
##XFACTOR=1
##YFACTOR=1
##FIRSTX=12
##LASTX=82
##FIRSTY=70
##MAXX=82
##MINX=12
##MAXY=9999
##MINY=30
##NPOINTS=37
##PEAK TABLE=(XY..XY)
12,70 13,140 14,190 15,1071
16,80 17,90 19,90 24,50
25,190 26,410 27,250 28,240
29,2893 30,380 31,9999 32,771
33,1361 40,40 41,100 42,500
43,2692 44,290 45,791 46,130
47,60 50,150 51,1211 58,150
60,150 61,350 62,90 63,430
64,410 65,100 80,30 81,50
82,711
##END=
