##TITLE=Pentazocine
##JCAMP-DX=4.24
##DATA TYPE=MASS SPECTRUM
##ORIGIN=NIST Mass Spectrometry Data Center
##OWNER=NIST Mass Spectrometry Data Center
Collection (C) 2014 copyright by the U.S. Secretary of Commerce
on behalf of the United States of America. All rights reserved.
##CAS REGISTRY NO=359-83-1
##$NIST MASS SPEC NO=352200
##MOLFORM=C19 H27 N O
##MW=285
##$NIST SOURCE=MSDC
##XUNITS=M/Z
##YUNITS=RELATIVE INTENSITY
##XFACTOR=1
##YFACTOR=1
##FIRSTX=15
##LASTX=287
##FIRSTY=10
##MAXX=287
##MINX=15
##MAXY=9999
##MINY=10
##NPOINTS=207
##PEAK TABLE=(XY..XY)
15,10 27,340 28,300 29,340
30,430 31,10 37,10 38,20
39,741 40,170 41,7227 42,1151
43,1021 44,981 45,9999 46,320
50,50 51,310 52,140 53,1031
54,540 55,1261 56,1211 57,961
58,911 59,50 62,20 63,140
64,70 65,450 66,120 67,691
68,1692 69,5645 70,5945 71,1171
72,100 73,10 74,10 75,50
76,60 77,991 78,260 79,450
80,280 81,300 82,991 83,260
84,741 85,190 86,30 87,20
88,20 89,160 90,70 91,1291
92,160 93,260 94,470 95,250
96,821 97,220 98,621 99,60
101,70 102,170 103,520 104,140
105,540 106,150 107,1742 108,561
109,160 110,5905 111,490 112,601
113,691 114,140 115,1872 116,651
117,751 118,220 119,310 120,190
121,400 122,380 123,60 124,340
125,50 126,160 127,1261 128,1461
129,961 130,380 131,1661 132,661
133,671 134,480 135,611 136,120
137,40 138,390 139,130 140,90
141,681 142,250 143,250 144,1271
145,2462 146,2492 147,1752 148,330
149,60 150,240 151,80 152,200
153,170 154,100 155,350 156,130
157,1772 158,2332 159,3093 160,1581
161,871 162,470 163,60 164,80
165,50 166,30 167,50 168,60
169,100 170,170 171,430 172,2142
173,2622 174,2332 175,490 176,80
178,1311 179,190 180,20 181,30
182,30 183,70 184,140 185,360
186,380 187,320 188,811 189,130
190,10 194,10 195,10 196,30
197,30 198,70 199,100 200,490
201,200 202,3843 203,550 204,40
207,10 209,10 210,10 211,10
212,30 213,20 214,120 215,70
216,1752 217,7477 218,1181 219,110
220,10 224,10 226,20 227,10
228,110 229,60 230,1081 231,190
232,30 238,10 240,10 241,10
242,681 243,180 244,30 254,20
255,10 256,150 257,30 258,10
268,50 269,30 270,1982 271,390
272,40 282,10 283,50 284,1501
285,1942 286,400 287,40
##END=
