##TITLE=1-Bromo-2,2-difluoroethylene
##JCAMP-DX=4.24
##DATA TYPE=MASS SPECTRUM
##ORIGIN=T.J. Bruno, Cent. Chem. Technol., NIST, Boulder, CO 80303, USA
##OWNER=NIST Mass Spectrometry Data Center
Collection (C) 2014 copyright by the U.S. Secretary of Commerce
on behalf of the United States of America. All rights reserved.
##CAS REGISTRY NO=359-08-0
##$NIST MASS SPEC NO=142381
##MOLFORM=C2 H Br F2
##MW=142
##$NIST SOURCE=MSDC
##XUNITS=M/Z
##YUNITS=RELATIVE INTENSITY
##XFACTOR=1
##YFACTOR=1
##FIRSTX=19
##LASTX=145
##FIRSTY=400
##MAXX=145
##MINX=19
##MAXY=9999
##MINY=1
##NPOINTS=47
##PEAK TABLE=(XY..XY)
19,400 20,84 24,917 25,1176
26,62 31,9252 43,962 44,4156
45,260 46,17 50,1043 51,280
52,5 62,1 63,6789 64,184
65,417 66,9 71,342 72,319
79,2789 80,30 81,2743 82,139
91,1102 92,2621 93,1116 94,2311
95,30 103,64 104,74 105,81
106,69 107,10 111,721 112,8
113,705 114,5 122,213 123,749
124,227 125,733 126,16 142,9999
143,200 144,9781 145,213
##END=
