##TITLE=4-Methyl-5-nonanone
##JCAMP-DX=4.24
##DATA TYPE=MASS SPECTRUM
##ORIGIN=NIST Mass Spectrometry Data Center, 1990.
##OWNER=NIST Mass Spectrometry Data Center
Collection (C) 2014 copyright by the U.S. Secretary of Commerce
on behalf of the United States of America. All rights reserved.
##CAS REGISTRY NO=35900-26-6
##$NIST MASS SPEC NO=113761
##MOLFORM=C10 H20 O
##MW=156
##$NIST SOURCE=MSDC
##XUNITS=M/Z
##YUNITS=RELATIVE INTENSITY
##XFACTOR=1
##YFACTOR=1
##FIRSTX=15
##LASTX=156
##FIRSTY=189
##MAXX=156
##MINX=15
##MAXY=9999
##MINY=189
##NPOINTS=26
##PEAK TABLE=(XY..XY)
15,189 27,2893 28,1851 29,4360
39,1772 41,5550 42,1275 43,7183
44,323 53,465 55,1882 56,886
57,9999 58,528 67,190 69,289
71,7144 72,5103 73,261 85,9368
86,611 99,1094 114,2838 115,237
127,262 156,229
##END=
