##TITLE=2-Hexene, 1-chloro-
##JCAMP-DX=4.24
##DATA TYPE=MASS SPECTRUM
##ORIGIN=J. SHAW, NATIONAL INST. OF HEALTH, BETHESDA, MD, USA
##OWNER=NIST Mass Spectrometry Data Center
Collection (C) 2014 copyright by the U.S. Secretary of Commerce
on behalf of the United States of America. All rights reserved.
##CAS REGISTRY NO=35911-16-1
##$NIST MASS SPEC NO=64134
##MOLFORM=C6 H11 Cl
##MW=118
##$NIST SOURCE=MSDC
##XUNITS=M/Z
##YUNITS=RELATIVE INTENSITY
##XFACTOR=1
##YFACTOR=1
##FIRSTX=38
##LASTX=120
##FIRSTY=500
##MAXX=120
##MINX=38
##MAXY=9999
##MINY=100
##NPOINTS=43
##PEAK TABLE=(XY..XY)
38,500 39,3900 40,600 41,9999
42,7100 43,2500 49,400 50,500
51,900 52,300 53,4100 54,2600
55,7100 56,3700 57,300 61,100
62,200 63,300 64,100 65,300
66,100 67,3700 68,200 69,3700
70,200 75,500 76,900 77,600
78,300 79,200 81,300 82,1800
83,2800 84,200 88,100 89,900
90,600 91,1300 92,200 93,300
118,1800 119,100 120,600
##END=
