##TITLE=Phenol, 2,5-bis(1-methylethyl)-
##JCAMP-DX=4.24
##DATA TYPE=MASS SPECTRUM
##ORIGIN=L.E. Slivon, Battelle Columbus Laboratories, Columbus, Ohio 43201
##OWNER=NIST Mass Spectrometry Data Center
Collection (C) 2014 copyright by the U.S. Secretary of Commerce
on behalf of the United States of America. All rights reserved.
##CAS REGISTRY NO=35946-91-9
##$NIST MASS SPEC NO=70683
##MOLFORM=C12 H18 O
##MW=178
##$NIST SOURCE=MSDC
##XUNITS=M/Z
##YUNITS=RELATIVE INTENSITY
##XFACTOR=1
##YFACTOR=1
##FIRSTX=40
##LASTX=179
##FIRSTY=119
##MAXX=179
##MINX=40
##MAXY=9999
##MINY=13
##NPOINTS=103
##PEAK TABLE=(XY..XY)
40,119 41,1015 42,145 43,1159
44,171 48,92 50,158 51,409
52,92 53,475 54,92 55,264
56,13 57,13 58,53 59,53
61,132 62,132 63,382 64,185
65,711 66,145 67,145 68,105
69,119 70,119 71,13 72,158
73,132 74,224 75,119 76,132
77,1476 78,329 79,514 80,171
82,53 83,40 84,198 85,158
86,171 87,185 89,277 90,79
91,2082 92,422 93,448 94,224
95,171 96,13 97,145 98,53
99,40 101,53 102,250 103,752
104,145 105,672 106,53 107,1977
108,264 109,145 114,119 115,1159
116,237 117,541 118,105 119,369
120,303 121,2767 122,343 123,145
126,105 127,487 128,975 129,461
130,554 131,171 132,237 133,580
134,211 135,1159 136,92 141,171
143,145 145,303 146,171 147,752
148,382 149,290 150,119 151,145
159,105 161,171 162,132 163,9999
164,1279 165,198 167,132 168,132
176,40 178,1872 179,329
##END=
