##TITLE=2,2'-Ethylidenebis(4,6-di-tert-butylphenol)
##JCAMP-DX=4.24
##DATA TYPE=MASS SPECTRUM
##ORIGIN=NIST Mass Spectrometry Data Center, 1994
##OWNER=NIST Mass Spectrometry Data Center
Collection (C) 2014 copyright by the U.S. Secretary of Commerce
on behalf of the United States of America. All rights reserved.
##CAS REGISTRY NO=35958-30-6
##$NIST MASS SPEC NO=135865
##MOLFORM=C30 H46 O2
##MW=438
##$NIST SOURCE=MSDC
##XUNITS=M/Z
##YUNITS=RELATIVE INTENSITY
##XFACTOR=1
##YFACTOR=1
##FIRSTX=17
##LASTX=440
##FIRSTY=37
##MAXX=440
##MINX=17
##MAXY=9999
##MINY=7
##NPOINTS=153
##PEAK TABLE=(XY..XY)
17,37 18,100 20,20 28,117
29,1288 30,7 39,190 41,3279
42,113 43,531 51,55 52,27
53,126 54,27 55,490 56,27
57,8661 58,420 63,26 65,102
67,144 69,121 73,50 77,223
78,47 79,208 80,30 81,66
83,45 86,27 87,85 89,40
91,482 92,70 93,106 94,25
95,64 101,35 102,33 103,97
104,43 105,396 106,70 107,240
108,40 109,42 110,22 115,244
116,115 117,262 118,79 119,320
120,57 121,248 122,30 123,36
127,84 128,269 129,228 130,87
131,287 132,95 133,426 134,85
135,100 137,25 139,28 141,130
142,96 143,143 144,80 145,201
146,108 147,247 148,76 149,64
152,32 153,72 154,65 155,84
156,34 157,95 158,87 159,214
160,109 161,381 162,87 163,97
165,46 167,32 168,34 169,86
170,32 171,72 172,48 173,226
174,163 175,550 176,179 177,600
178,123 179,36 181,41 182,86
183,41 184,21 185,53 187,149
189,338 190,363 191,1395 192,189
193,36 195,28 196,211 199,30
201,237 202,79 204,1623 206,706
207,142 212,66 213,71 215,84
217,4413 218,723 219,95 220,23
229,46 231,279 232,1538 233,9999
234,1844 235,213 269,54 309,36
311,67 323,37 325,55 326,42
365,75 367,171 368,51 379,50
381,53 382,178 383,65 419,48
423,328 425,116 438,1761 439,642
440,117
##END=
