##TITLE=Benzene, 5-isothiocyanato-1,2,3-trimethoxy-
##JCAMP-DX=4.24
##DATA TYPE=MASS SPECTRUM
##ORIGIN=Div. of Experiment Therapeutics WRAIR, WRAMC, Washington DC 20307
##OWNER=NIST Mass Spectrometry Data Center
Collection (C) 2014 copyright by the U.S. Secretary of Commerce
on behalf of the United States of America. All rights reserved.
##CAS REGISTRY NO=35967-24-9
##$NIST MASS SPEC NO=255098
##MOLFORM=C10 H11 N O3 S
##MW=225
##$NIST SOURCE=MSDC
##XUNITS=M/Z
##YUNITS=RELATIVE INTENSITY
##XFACTOR=1
##YFACTOR=1
##FIRSTX=41
##LASTX=228
##FIRSTY=36
##MAXX=228
##MINX=41
##MAXY=9999
##MINY=7
##NPOINTS=111
##PEAK TABLE=(XY..XY)
41,36 42,28 43,102 44,49
45,111 47,28 49,161 50,256
51,174 52,116 53,527 54,36
55,29 56,23 57,23 58,34
59,39 61,73 62,122 63,262
64,369 65,149 66,197 67,46
68,13 69,376 70,272 71,18
72,51 74,18 75,86 76,85
77,165 78,118 79,80 80,168
81,173 82,65 83,119 84,108
86,984 87,25 88,89 89,29
90,105 91,36 92,9 93,137
94,137 95,72 96,739 97,73
98,50 104,35 105,28 106,91
107,121 108,121 109,162 110,69
111,55 113,157 118,31 120,127
121,68 122,222 123,107 124,471
125,13 132,8 133,43 134,159
135,84 136,130 137,79 138,54
139,237 141,25 149,160 150,739
152,2243 154,159 162,45 163,7
164,109 165,289 166,24 167,1480
168,35 169,135 178,96 179,102
180,95 182,1869 183,38 184,153
193,30 194,47 195,205 196,23
208,43 209,104 210,4759 211,539
212,369 213,20 224,100 225,9999
226,827 227,366 228,40
##END=
