##TITLE=Diarsine, tetrakis(trifluoromethyl)-
##JCAMP-DX=4.24
##DATA TYPE=MASS SPECTRUM
##ORIGIN=A.Pleshkova, Nesmeyanov Inst.Org.Elem.Cpds, Moscow
##OWNER=NIST Mass Spectrometry Data Center
Collection (C) 2014 copyright by the U.S. Secretary of Commerce
on behalf of the United States of America. All rights reserved.
##CAS REGISTRY NO=360-56-5
##$NIST MASS SPEC NO=284328
##MOLFORM=C4 As2 F12
##MW=426
##$NIST SOURCE=MSDC
##XUNITS=M/Z
##YUNITS=RELATIVE INTENSITY
##XFACTOR=1
##YFACTOR=1
##FIRSTX=31
##LASTX=427
##FIRSTY=1411
##MAXX=427
##MINX=31
##MAXY=9999
##MINY=10
##NPOINTS=42
##PEAK TABLE=(XY..XY)
31,1411 32,20 50,520 51,10
69,9609 70,100 75,1601 94,3523
106,1481 107,20 113,9909 125,1311
126,20 131,841 132,30 137,380
138,10 144,3403 145,40 150,2622
163,3523 164,40 169,1221 175,9999
176,230 181,180 188,260 194,4104
195,90 213,1161 214,30 219,2622
220,30 269,841 270,20 307,180
357,380 358,10 407,1081 408,50
426,1541 427,70
##END=
