##TITLE=N-Trifluoroacetylmorpholine
##JCAMP-DX=4.24
##DATA TYPE=MASS SPECTRUM
##ORIGIN=Zaikin V.G., TIPS RAS, Moscow, Russia
##OWNER=NIST Mass Spectrometry Data Center
Collection (C) 2014 copyright by the U.S. Secretary of Commerce
on behalf of the United States of America. All rights reserved.
##CAS REGISTRY NO=360-95-2
##$NIST MASS SPEC NO=307306
##MOLFORM=C6 H8 F3 N O2
##MW=183
##$NIST SOURCE=MSDC
##XUNITS=M/Z
##YUNITS=RELATIVE INTENSITY
##XFACTOR=1
##YFACTOR=1
##FIRSTX=26
##LASTX=184
##FIRSTY=390
##MAXX=184
##MINX=26
##MAXY=9999
##MINY=30
##NPOINTS=61
##PEAK TABLE=(XY..XY)
26,390 27,1291 29,1281 30,370
31,300 33,80 39,30 41,821
42,5355 43,530 45,290 47,50
50,230 51,60 52,50 54,510
55,460 56,9999 57,891 58,180
59,30 60,30 68,40 69,5705
70,2352 71,70 72,50 77,50
78,500 84,3103 85,190 86,1601
87,60 92,40 96,1762 97,480
98,90 106,100 109,50 110,110
114,3623 115,190 125,200 126,2622
127,280 136,30 138,110 139,2502
140,1401 141,140 152,130 153,1451
154,250 155,100 164,40 165,30
168,6486 169,330 182,140 183,5065
184,310
##END=
