##TITLE=3,6-Dimethyl-6-hepten-4-yn-3-ol
##JCAMP-DX=4.24
##DATA TYPE=MASS SPECTRUM
##ORIGIN=NIST Mass Spectrometry Data Center
##OWNER=NIST Mass Spectrometry Data Center
Collection (C) 2014 copyright by the U.S. Secretary of Commerce
on behalf of the United States of America. All rights reserved.
##CAS REGISTRY NO=3601-67-0
##$NIST MASS SPEC NO=343279
##MOLFORM=C9 H14 O
##MW=138
##$NIST SOURCE=MSDC
##XUNITS=M/Z
##YUNITS=RELATIVE INTENSITY
##XFACTOR=1
##YFACTOR=1
##FIRSTX=13
##LASTX=139
##FIRSTY=10
##MAXX=139
##MINX=13
##MAXY=9999
##MINY=10
##NPOINTS=82
##PEAK TABLE=(XY..XY)
13,10 15,450 16,10 17,10
18,30 19,20 25,10 26,200
27,1461 28,230 29,1141 30,20
31,100 32,10 36,10 37,100
38,260 39,1952 40,350 41,991
43,9999 44,220 45,80 46,10
49,50 50,460 51,871 52,240
53,731 54,80 55,611 56,40
57,671 58,20 61,80 62,250
63,530 64,150 65,791 66,350
67,731 68,40 69,80 71,10
72,40 73,40 74,130 75,100
76,60 77,681 78,180 79,631
80,100 81,250 82,30 83,30
85,10 86,30 87,20 89,60
91,390 93,470 94,130 95,330
96,30 97,10 102,10 103,60
105,140 106,30 107,60 109,8898
110,661 111,40 119,10 120,40
121,50 123,1251 124,110 137,100
138,280 139,20
##END=
