##TITLE=Phenylmaleic anhydride
##JCAMP-DX=4.24
##DATA TYPE=MASS SPECTRUM
##ORIGIN=NIST Mass Spectrometry Data Center
##OWNER=NIST Mass Spectrometry Data Center
Collection (C) 2014 copyright by the U.S. Secretary of Commerce
on behalf of the United States of America. All rights reserved.
##CAS REGISTRY NO=36122-35-7
##$NIST MASS SPEC NO=340534
##MOLFORM=C10 H6 O3
##MW=174
##$NIST SOURCE=MSDC
##XUNITS=M/Z
##YUNITS=RELATIVE INTENSITY
##XFACTOR=1
##YFACTOR=1
##FIRSTX=25
##LASTX=176
##FIRSTY=10
##MAXX=176
##MINX=25
##MAXY=9999
##MINY=10
##NPOINTS=54
##PEAK TABLE=(XY..XY)
25,10 26,50 27,70 29,10
37,100 38,170 39,310 40,10
43,10 44,60 45,40 49,140
50,1031 51,1051 52,480 53,80
59,20 60,10 61,160 62,350
63,641 64,50 65,50 73,120
74,771 75,641 76,1121 77,120
78,10 85,30 86,50 87,190
88,20 89,130 90,240 91,10
97,20 98,130 99,30 100,10
101,150 102,9999 103,951 104,60
118,230 119,20 129,60 130,120
131,10 146,90 147,10 174,2542
175,280 176,30
##END=
