##TITLE=Anthracene, 9,10-bis(phenylmethyl)-
##JCAMP-DX=4.24
##DATA TYPE=MASS SPECTRUM
##ORIGIN=Japan AIST/NIMC Database- Spectrum MS-IW-1081
##OWNER=NIST Mass Spectrometry Data Center
Collection (C) 2014 copyright by the U.S. Secretary of Commerce
on behalf of the United States of America. All rights reserved.
##CAS REGISTRY NO=3613-42-1
##$NIST MASS SPEC NO=240290
##MOLFORM=C28 H22
##MW=358
##$NIST SOURCE=MSDC
##XUNITS=M/Z
##YUNITS=RELATIVE INTENSITY
##XFACTOR=1
##YFACTOR=1
##FIRSTX=39
##LASTX=361
##FIRSTY=10
##MAXX=361
##MINX=39
##MAXY=9999
##MINY=10
##NPOINTS=149
##PEAK TABLE=(XY..XY)
39,10 51,20 65,20 77,40
78,10 89,10 91,149 92,10
103,139 104,10 113,30 115,30
118,10 119,30 120,10 125,30
126,139 127,10 130,10 131,99
132,389 133,99 137,20 138,99
139,349 140,429 141,10 143,30
144,20 145,10 149,20 150,70
151,80 152,30 153,10 155,20
156,80 157,60 158,30 161,10
162,50 163,159 164,80 165,149
166,20 167,10 168,60 169,99
170,90 171,40 174,20 175,50
176,70 177,30 178,189 179,169
180,20 187,20 188,20 189,159
190,40 191,80 192,10 199,10
200,40 201,50 202,399 203,469
204,109 205,10 213,20 215,60
216,10 223,10 224,20 225,10
226,60 227,20 228,20 229,10
237,30 238,20 239,149 240,50
241,30 248,10 249,10 250,80
251,50 252,1239 253,359 254,70
255,10 261,30 262,20 263,259
264,129 265,2269 266,1109 267,4199
268,1049 269,149 270,10 274,40
275,20 276,199 277,199 278,249
279,529 280,309 281,959 282,219
283,20 287,10 289,20 290,10
300,20 302,20 303,10 311,10
313,30 314,10 315,20 316,10
324,10 326,50 327,30 328,20
329,20 337,20 338,10 339,90
340,50 341,50 342,30 343,20
348,10 350,40 351,30 352,60
353,50 354,30 355,60 356,99
357,139 358,9999 359,3089 360,469
361,40
##END=
