##TITLE=Octanal, 7-methoxy-3,7-dimethyl-
##JCAMP-DX=4.24
##DATA TYPE=MASS SPECTRUM
##ORIGIN=Japan AIST/NIMC Database- Spectrum MS-IW-6279
##OWNER=NIST Mass Spectrometry Data Center
Collection (C) 2014 copyright by the U.S. Secretary of Commerce
on behalf of the United States of America. All rights reserved.
##CAS REGISTRY NO=3613-30-7
##$NIST MASS SPEC NO=237966
##MOLFORM=C11 H22 O2
##MW=186
##$NIST SOURCE=MSDC
##XUNITS=M/Z
##YUNITS=RELATIVE INTENSITY
##XFACTOR=1
##YFACTOR=1
##FIRSTX=15
##LASTX=172
##FIRSTY=30
##MAXX=172
##MINX=15
##MAXY=9999
##MINY=10
##NPOINTS=69
##PEAK TABLE=(XY..XY)
15,30 27,159 28,50 29,269
31,80 39,169 40,30 41,709
42,179 43,609 44,20 45,149
51,10 53,80 54,20 55,689
56,249 57,149 58,10 59,329
60,10 61,20 65,10 67,139
68,60 69,669 70,70 71,119
72,129 73,9999 74,519 75,60
77,20 79,70 80,10 81,549
82,60 83,90 84,40 85,249
86,20 87,10 91,10 93,119
94,20 95,329 96,30 97,139
98,30 99,40 105,10 107,20
109,70 110,70 111,109 112,30
113,10 121,179 122,10 123,10
136,20 137,80 138,10 139,60
153,40 154,10 155,10 171,239
172,20
##END=
