##TITLE=Rhamnose
##JCAMP-DX=4.24
##DATA TYPE=MASS SPECTRUM
##ORIGIN=Japan AIST/NIMC Database- Spectrum MS-NW-3184
##OWNER=NIST Mass Spectrometry Data Center
Collection (C) 2014 copyright by the U.S. Secretary of Commerce
on behalf of the United States of America. All rights reserved.
##CAS REGISTRY NO=3615-41-6
##$NIST MASS SPEC NO=231324
##MOLFORM=C6 H12 O5
##MW=164
##$NIST SOURCE=MSDC
##XUNITS=M/Z
##YUNITS=RELATIVE INTENSITY
##XFACTOR=1
##YFACTOR=1
##FIRSTX=12
##LASTX=147
##FIRSTY=20
##MAXX=147
##MINX=12
##MAXY=9999
##MINY=10
##NPOINTS=87
##PEAK TABLE=(XY..XY)
12,20 13,40 14,209 15,779
16,60 17,239 18,899 24,10
25,40 26,209 27,1009 28,389
29,2359 30,379 31,2739 32,619
33,70 36,10 37,20 38,40
39,309 40,80 41,519 42,1329
43,2799 44,579 45,3469 46,80
47,279 49,10 50,10 51,10
52,10 53,129 54,99 55,459
56,839 57,1299 58,1679 59,309
60,9999 61,889 62,80 63,10
68,10 69,179 70,139 71,1409
72,519 73,5179 74,649 75,329
76,20 77,20 81,30 82,40
83,99 84,50 85,169 86,90
87,149 88,50 89,99 90,50
91,129 97,20 98,10 99,70
100,259 101,60 102,449 103,40
104,159 105,20 106,40 109,10
110,20 115,20 117,209 118,10
119,30 120,10 128,30 129,10
133,60 146,10 147,10
##END=
