##TITLE=2-Isopropylphenyl isothiocyanate
##JCAMP-DX=4.24
##DATA TYPE=MASS SPECTRUM
##ORIGIN=NIST Mass Spectrometry Data Center, 1994
##OWNER=NIST Mass Spectrometry Data Center
Collection (C) 2014 copyright by the U.S. Secretary of Commerce
on behalf of the United States of America. All rights reserved.
##CAS REGISTRY NO=36176-31-5
##$NIST MASS SPEC NO=134576
##MOLFORM=C10 H11 N S
##MW=177
##$NIST SOURCE=MSDC
##XUNITS=M/Z
##YUNITS=RELATIVE INTENSITY
##XFACTOR=1
##YFACTOR=1
##FIRSTX=14
##LASTX=179
##FIRSTY=39
##MAXX=179
##MINX=14
##MAXY=9999
##MINY=18
##NPOINTS=101
##PEAK TABLE=(XY..XY)
14,39 15,338 26,121 27,914
28,172 29,59 32,103 37,118
38,341 39,1720 40,185 41,624
42,68 43,18 44,107 45,414
50,980 51,2160 52,442 53,226
54,51 57,75 58,165 59,267
60,71 61,101 62,366 63,1183
64,436 65,604 66,159 67,207
69,180 70,165 71,79 72,81
73,71 74,502 75,778 76,626
77,3931 78,749 79,137 80,79
81,367 82,87 83,75 84,57
85,41 86,95 87,175 88,41
89,659 90,414 91,935 92,96
93,41 94,37 95,62 96,59
98,37 99,43 101,638 102,706
103,780 104,364 105,35 107,56
108,87 109,94 115,654 116,348
117,500 118,983 119,190 120,52
121,93 128,9999 129,1470 130,911
131,100 132,59 133,65 134,149
135,111 136,72 140,52 142,212
143,214 144,1701 145,28 146,57
148,114 160,86 162,5211 163,543
164,307 176,1886 177,5281 178,768
179,280
##END=
