##TITLE=Cyclononene
##JCAMP-DX=4.24
##DATA TYPE=MASS SPECTRUM
##ORIGIN=V.Zaikin,Topchiev Inst.Petrochem.Synth.,Moscow
##OWNER=NIST Mass Spectrometry Data Center
Collection (C) 2014 copyright by the U.S. Secretary of Commerce
on behalf of the United States of America. All rights reserved.
##CAS REGISTRY NO=3618-11-9
##$NIST MASS SPEC NO=281779
##MOLFORM=C9 H16
##MW=124
##$NIST SOURCE=MSDC
##XUNITS=M/Z
##YUNITS=RELATIVE INTENSITY
##XFACTOR=1
##YFACTOR=1
##FIRSTX=24
##LASTX=125
##FIRSTY=20
##MAXX=125
##MINX=24
##MAXY=9999
##MINY=20
##NPOINTS=61
##PEAK TABLE=(XY..XY)
24,20 25,70 26,581 27,3763
28,1601 29,1762 30,50 36,20
37,210 38,631 39,9999 40,1501
41,9368 42,1561 43,280 49,70
50,781 51,1641 52,941 53,4164
54,7146 55,5395 56,540 57,100
61,70 62,240 63,641 64,100
65,1591 66,1231 67,9889 68,3213
70,170 74,90 75,60 76,30
77,1601 78,370 79,1932 80,430
81,6095 82,2442 83,420 84,20
86,20 87,20 89,60 91,561
92,70 93,60 94,60 95,1932
96,2813 97,200 103,20 109,270
110,20 115,20 123,20 124,991
125,110
##END=
