##TITLE=2,5-Dihydroxybenzoic acid, 3TMS derivative
##JCAMP-DX=4.24
##DATA TYPE=MASS SPECTRUM
##ORIGIN=NIST Mass Spectrometry Data Center
##OWNER=NIST Mass Spectrometry Data Center
Collection (C) 2014 copyright by the U.S. Secretary of Commerce
on behalf of the United States of America. All rights reserved.
##CAS REGISTRY NO=3618-20-0
##$NIST MASS SPEC NO=332903
##MOLFORM=C16 H30 O4 Si3
##MW=370
##$NIST SOURCE=MSDC
##XUNITS=M/Z
##YUNITS=RELATIVE INTENSITY
##XFACTOR=1
##YFACTOR=1
##FIRSTX=15
##LASTX=374
##FIRSTY=10
##MAXX=374
##MINX=15
##MAXY=9999
##MINY=10
##NPOINTS=250
##PEAK TABLE=(XY..XY)
15,10 27,10 29,30 31,10
39,10 43,220 44,140 45,1131
46,80 47,70 51,10 52,10
53,20 54,10 55,40 56,10
57,60 58,60 59,150 60,20
61,40 62,10 63,50 64,10
65,10 66,20 67,20 68,10
69,30 70,30 71,30 73,6936
74,671 75,581 76,40 77,90
78,30 79,60 80,10 81,20
82,10 83,170 84,20 85,40
86,10 87,20 88,10 89,60
90,30 91,130 92,20 93,80
94,10 95,60 96,10 97,40
98,10 99,30 100,10 101,10
102,10 103,120 104,100 105,270
106,30 107,80 108,20 109,80
110,10 111,30 112,10 113,10
115,90 116,20 117,80 118,20
119,170 120,30 121,100 122,20
123,30 124,10 125,10 126,20
127,20 128,10 129,30 130,10
131,170 133,611 134,100 135,280
136,40 137,120 138,10 139,10
141,60 143,70 144,10 145,60
147,811 148,150 149,611 150,100
151,90 152,10 153,30 154,10
155,20 156,10 157,50 158,10
159,30 160,10 161,80 162,30
163,270 164,70 165,100 166,20
167,60 168,10 169,20 170,10
171,10 173,10 175,20 176,10
177,110 178,40 179,170 180,50
181,60 182,10 183,10 185,10
187,10 189,30 190,10 191,130
192,40 193,190 194,40 195,140
196,50 197,20 198,10 199,10
201,10 203,20 204,10 205,30
206,30 207,200 208,100 209,230
210,40 211,30 212,10 213,10
215,10 217,10 218,10 219,30
220,10 221,100 222,40 223,1001
224,220 225,170 226,30 227,10
231,10 233,20 234,10 235,40
236,20 237,360 238,90 239,110
240,20 241,10 247,40 248,10
249,70 250,20 251,150 252,60
253,60 254,20 255,10 261,10
263,120 264,30 265,330 266,90
267,921 268,210 269,100 270,10
277,10 278,10 279,80 280,50
281,571 282,350 283,130 284,40
285,10 291,10 293,10 295,20
297,390 298,120 299,60 300,10
305,10 307,10 309,20 310,10
311,20 312,10 313,40 314,10
315,10 321,80 322,20 323,20
324,10 325,10 326,10 337,150
338,50 339,50 340,10 341,20
342,10 351,10 353,80 355,9999
356,3755 357,1835 358,515 359,10
369,20 370,520 371,180 372,80
373,20 374,10
##END=
