##TITLE=Methylenecyclooctane
##JCAMP-DX=4.24
##DATA TYPE=MASS SPECTRUM
##ORIGIN=G.J. JAMES, DEP. CHEM., GLAMORGAN POLY., PONTYPRIDD, WALES, UK
##OWNER=NIST Mass Spectrometry Data Center
Collection (C) 2014 copyright by the U.S. Secretary of Commerce
on behalf of the United States of America. All rights reserved.
##CAS REGISTRY NO=3618-18-6
##$NIST MASS SPEC NO=98881
##MOLFORM=C9 H16
##MW=124
##$NIST SOURCE=MSDC
##XUNITS=M/Z
##YUNITS=RELATIVE INTENSITY
##XFACTOR=1
##YFACTOR=1
##FIRSTX=39
##LASTX=124
##FIRSTY=4800
##MAXX=124
##MINX=39
##MAXY=9999
##MINY=400
##NPOINTS=34
##PEAK TABLE=(XY..XY)
39,4800 40,1100 41,6000 42,1400
43,8400 44,600 51,900 52,500
53,2200 54,3200 55,4400 56,2200
57,700 58,2500 65,1000 66,1100
67,6400 68,4000 69,2700 70,600
77,1300 78,500 79,3600 80,2800
81,9999 82,2400 83,600 91,1100
93,1600 94,2400 95,2100 96,4800
109,700 124,400
##END=
