##TITLE=Benzoic acid, 4-methyl-, hydrazide
##JCAMP-DX=4.24
##DATA TYPE=MASS SPECTRUM
##ORIGIN=MASS SPECTROMETRY CENTER, UNIV. OF UTAH; ALDRICH T03700-1
##OWNER=NIST Mass Spectrometry Data Center
Collection (C) 2014 copyright by the U.S. Secretary of Commerce
on behalf of the United States of America. All rights reserved.
##CAS REGISTRY NO=3619-22-5
##$NIST MASS SPEC NO=52317
##MOLFORM=C8 H10 N2 O
##MW=150
##$NIST SOURCE=MSDC
##XUNITS=M/Z
##YUNITS=RELATIVE INTENSITY
##XFACTOR=1
##YFACTOR=1
##FIRSTX=27
##LASTX=151
##FIRSTY=312
##MAXX=151
##MINX=27
##MAXY=9999
##MINY=37
##NPOINTS=32
##PEAK TABLE=(XY..XY)
27,312 29,285 30,67 31,539
37,192 38,348 39,1389 40,112
41,431 50,545 51,712 52,220
61,157 62,498 63,1094 64,397
65,2591 66,233 74,148 75,37
77,158 89,905 90,601 91,6889
92,727 116,129 117,303 118,93
119,9999 120,1044 150,1373 151,171
##END=
