##TITLE=Uridine, 2',3'-O-(1-methylethylidene)-
##JCAMP-DX=4.24
##DATA TYPE=MASS SPECTRUM
##ORIGIN=Japan AIST/NIMC Database- Spectrum MS-NW-6931
##OWNER=NIST Mass Spectrometry Data Center
Collection (C) 2014 copyright by the U.S. Secretary of Commerce
on behalf of the United States of America. All rights reserved.
##CAS REGISTRY NO=362-43-6
##$NIST MASS SPEC NO=236038
##MOLFORM=C12 H16 N2 O6
##MW=284
##$NIST SOURCE=MSDC
##XUNITS=M/Z
##YUNITS=RELATIVE INTENSITY
##XFACTOR=1
##YFACTOR=1
##FIRSTX=14
##LASTX=286
##FIRSTY=40
##MAXX=286
##MINX=14
##MAXY=9999
##MINY=10
##NPOINTS=184
##PEAK TABLE=(XY..XY)
14,40 15,379 16,10 17,30
18,109 25,10 26,389 27,789
28,1059 29,859 30,90 31,1679
32,30 37,20 38,90 39,1099
40,929 41,2149 42,1049 43,6549
44,509 45,379 46,20 47,70
48,10 50,10 51,50 52,209
53,569 54,729 55,1389 56,349
57,3619 58,619 59,9999 60,419
61,159 62,70 63,10 64,20
65,30 66,90 67,759 68,6579
69,4879 70,1319 71,3479 72,179
73,1409 74,70 75,20 76,129
77,20 78,50 79,90 80,209
81,299 82,569 83,399 84,1189
85,2679 86,1879 87,409 88,30
89,109 90,30 91,10 92,20
93,20 94,149 95,1359 96,939
97,969 98,1069 99,149 100,149
101,849 102,60 103,20 104,10
106,20 107,20 108,199 109,129
110,209 111,149 112,2109 113,5079
114,3289 115,1699 116,119 117,20
119,10 120,30 121,10 122,129
123,60 124,359 125,279 126,1099
127,219 128,30 129,859 130,70
131,20 133,10 134,30 135,60
136,509 137,1929 138,709 139,129
140,30 141,849 142,409 143,90
144,30 148,429 149,60 150,20
151,50 152,249 153,129 154,99
155,289 156,50 157,479 158,50
159,10 163,20 164,30 165,80
166,209 167,1029 168,109 169,30
170,299 171,60 172,379 173,8249
174,779 175,119 176,10 178,20
179,1459 180,269 181,70 182,20
183,30 184,30 191,70 192,10
194,10 195,949 196,229 197,80
198,30 199,20 207,10 208,50
209,1379 210,169 211,30 223,10
224,10 225,40 226,429 227,219
228,30 239,10 240,10 251,20
253,449 254,70 255,20 266,50
267,20 269,2669 270,389 271,60
272,10 284,459 285,90 286,20
##END=
