##TITLE=Adenosine, 2',3'-O-(1-methylethylidene)-
##JCAMP-DX=4.24
##DATA TYPE=MASS SPECTRUM
##ORIGIN=Japan AIST/NIMC Database- Spectrum MS-IW- 52
##OWNER=NIST Mass Spectrometry Data Center
Collection (C) 2014 copyright by the U.S. Secretary of Commerce
on behalf of the United States of America. All rights reserved.
##CAS REGISTRY NO=362-75-4
##$NIST MASS SPEC NO=239231
##MOLFORM=C13 H17 N5 O4
##MW=307
##$NIST SOURCE=MSDC
##XUNITS=M/Z
##YUNITS=RELATIVE INTENSITY
##XFACTOR=1
##YFACTOR=1
##FIRSTX=15
##LASTX=309
##FIRSTY=70
##MAXX=309
##MINX=15
##MAXY=9999
##MINY=10
##NPOINTS=166
##PEAK TABLE=(XY..XY)
15,70 17,50 18,559 19,20
26,20 27,189 28,549 29,389
30,70 31,479 38,30 39,229
40,159 41,619 42,139 43,1739
44,109 45,149 47,20 51,10
52,60 53,149 54,329 55,569
56,109 57,579 58,129 59,2049
60,109 61,50 64,20 65,80
66,259 67,209 68,599 69,869
70,129 71,859 72,40 73,509
74,20 77,20 78,20 79,80
80,109 81,339 82,90 83,90
84,129 85,959 86,139 87,60
89,10 91,30 92,139 93,80
94,99 95,80 96,20 97,149
98,30 99,20 100,30 101,189
102,10 105,20 106,109 107,109
108,1519 109,169 110,10 111,30
113,50 114,129 115,209 116,20
117,10 118,30 119,269 120,60
121,60 122,10 123,20 125,10
126,20 127,99 128,10 129,139
130,10 131,10 132,10 133,139
134,339 135,9999 136,3269 137,219
138,10 141,10 142,10 143,20
145,50 146,60 147,30 148,219
149,80 150,10 152,20 155,10
157,119 158,10 159,10 160,90
161,149 162,219 163,60 164,5049
165,429 166,30 172,10 173,229
174,109 175,20 176,70 177,90
178,139 179,10 186,10 188,10
189,40 190,219 191,80 192,40
193,50 194,20 201,10 202,489
203,70 204,969 205,119 206,20
214,20 217,10 218,4149 219,989
220,129 221,10 232,60 233,10
248,10 249,519 250,99 251,10
262,259 263,40 274,10 276,99
277,889 278,139 279,10 290,10
292,489 293,70 306,10 307,189
308,199 309,30
##END=
