##TITLE=Methylenedioxyamphetamine acetate
##JCAMP-DX=4.24
##DATA TYPE=MASS SPECTRUM
##ORIGIN=NIST Mass Spectrometry Data Center
##OWNER=NIST Mass Spectrometry Data Center
Collection (C) 2014 copyright by the U.S. Secretary of Commerce
on behalf of the United States of America. All rights reserved.
##CAS REGISTRY NO=36209-71-9
##$NIST MASS SPEC NO=353221
##MOLFORM=C12 H15 N O3
##MW=221
##$NIST SOURCE=MSDC
##XUNITS=M/Z
##YUNITS=RELATIVE INTENSITY
##XFACTOR=1
##YFACTOR=1
##FIRSTX=14
##LASTX=222
##FIRSTY=40
##MAXX=222
##MINX=14
##MAXY=9999
##MINY=10
##NPOINTS=120
##PEAK TABLE=(XY..XY)
14,40 15,210 18,130 26,20
27,150 28,260 29,90 30,50
31,20 37,20 38,60 39,300
40,60 41,170 42,490 43,1902
44,9999 45,270 46,10 49,10
50,220 51,1081 52,200 53,150
54,30 55,50 56,50 57,70
58,20 59,10 60,10 61,10
62,70 63,210 64,50 65,170
66,50 67,40 68,20 69,30
70,50 71,10 73,70 74,60
75,70 76,170 77,1682 78,500
79,340 80,50 81,10 82,10
85,10 86,1301 87,80 88,10
89,110 90,40 91,130 92,30
93,30 94,10 95,10 101,10
102,60 103,360 104,500 105,550
106,220 107,60 108,10 110,10
111,10 115,20 116,10 117,30
118,40 119,50 120,50 121,70
122,80 123,10 128,10 130,20
131,450 132,220 133,110 134,110
135,2722 136,761 137,60 138,10
145,10 146,20 147,90 148,80
149,20 159,10 160,20 161,460
162,8307 163,941 164,160 165,10
174,10 175,10 176,10 177,40
178,60 179,10 188,10 202,10
203,30 204,10 205,10 206,10
207,10 219,10 221,390 222,50
##END=
