##TITLE=4-Ethylbenzoic acid, ethyl ester
##JCAMP-DX=4.24
##DATA TYPE=MASS SPECTRUM
##ORIGIN=Zaikin V.G., TIPS RAS, Moscow, Russia
##OWNER=NIST Mass Spectrometry Data Center
Collection (C) 2014 copyright by the U.S. Secretary of Commerce
on behalf of the United States of America. All rights reserved.
##CAS REGISTRY NO=36207-13-3
##$NIST MASS SPEC NO=292341
##MOLFORM=C11 H14 O2
##MW=178
##$NIST SOURCE=MSDC
##XUNITS=M/Z
##YUNITS=RELATIVE INTENSITY
##XFACTOR=1
##YFACTOR=1
##FIRSTX=27
##LASTX=179
##FIRSTY=90
##MAXX=179
##MINX=27
##MAXY=9999
##MINY=30
##NPOINTS=44
##PEAK TABLE=(XY..XY)
27,90 28,30 29,80 39,80
44,30 50,70 51,160 52,30
53,50 63,110 64,30 65,90
74,30 75,40 76,60 77,711
78,170 79,500 80,30 89,220
90,200 91,210 102,60 103,460
104,190 105,1631 106,190 107,170
118,30 119,30 131,90 132,40
133,9999 134,1051 135,500 136,50
149,370 150,1521 151,160 163,340
164,40 177,80 178,1792 179,220
##END=
