##TITLE=1,2,3,4,5,8-Hexahydronaphthalene
##JCAMP-DX=4.24
##DATA TYPE=MASS SPECTRUM
##ORIGIN=NIST Mass Spectrometry Data Center, 1990.
##OWNER=NIST Mass Spectrometry Data Center
Collection (C) 2014 copyright by the U.S. Secretary of Commerce
on behalf of the United States of America. All rights reserved.
##CAS REGISTRY NO=36231-13-7
##$NIST MASS SPEC NO=113559
##MOLFORM=C10 H14
##MW=134
##$NIST SOURCE=MSDC
##XUNITS=M/Z
##YUNITS=RELATIVE INTENSITY
##XFACTOR=1
##YFACTOR=1
##FIRSTX=15
##LASTX=135
##FIRSTY=74
##MAXX=135
##MINX=15
##MAXY=9999
##MINY=41
##NPOINTS=55
##PEAK TABLE=(XY..XY)
15,74 26,73 27,560 28,300
29,141 38,154 39,1285 40,192
41,616 43,47 50,423 51,1071
52,426 53,458 54,65 55,143
58,143 62,187 63,623 64,299
65,1271 66,339 67,236 74,173
75,162 76,213 77,1972 78,1978
79,1378 80,366 86,41 87,56
89,243 91,9999 92,4339 93,785
94,69 101,47 102,218 103,639
104,1409 105,2110 106,1034 107,100
115,627 116,210 117,381 118,47
119,1356 120,128 131,184 132,439
133,361 134,3248 135,335
##END=
