##TITLE=3-Bromopropionaldehyde dimethyl acetal
##JCAMP-DX=4.24
##DATA TYPE=MASS SPECTRUM
##ORIGIN=Chuck Anderson, Aldrich Chemical Co.
##OWNER=NIST Mass Spectrometry Data Center
Collection (C) 2014 copyright by the U.S. Secretary of Commerce
on behalf of the United States of America. All rights reserved.
##CAS REGISTRY NO=36255-44-4
##$NIST MASS SPEC NO=108388
##MOLFORM=C5 H11 Br O2
##MW=182
##$NIST SOURCE=MSDC
##XUNITS=M/Z
##YUNITS=RELATIVE INTENSITY
##XFACTOR=1
##YFACTOR=1
##FIRSTX=15
##LASTX=183
##FIRSTY=110
##MAXX=183
##MINX=15
##MAXY=9999
##MINY=14
##NPOINTS=58
##PEAK TABLE=(XY..XY)
15,110 26,111 27,589 28,291
29,1009 30,58 31,886 32,25
33,27 37,31 38,78 39,696
40,84 41,1721 42,172 43,242
44,67 45,3237 46,78 47,2889
48,55 53,45 55,309 56,215
57,373 58,72 59,226 71,2253
72,147 73,15 75,9999 76,338
77,50 79,22 80,25 81,32
82,24 93,103 94,20 95,142
97,25 101,30 106,22 107,89
109,101 119,26 121,29 123,56
125,52 135,20 137,14 150,289
151,2233 152,420 153,2171 154,102
181,87 183,87
##END=
