##TITLE=Nickel, bis(dipentylcarbamodithioato-S,S')-, (SP-4-1)-
##JCAMP-DX=4.24
##DATA TYPE=MASS SPECTRUM
##ORIGIN=P.A. Leclercq, Lab. Instrum. Anal., Eindhoven Univ. Technol., Netherlands
##OWNER=NIST Mass Spectrometry Data Center
Collection (C) 2014 copyright by the U.S. Secretary of Commerce
on behalf of the United States of America. All rights reserved.
##CAS REGISTRY NO=36259-37-7
##$NIST MASS SPEC NO=141533
##MOLFORM=C22 H44 N2 Ni S4
##MW=522
##$NIST SOURCE=MSDC
##XUNITS=M/Z
##YUNITS=RELATIVE INTENSITY
##XFACTOR=1
##YFACTOR=1
##FIRSTX=41
##LASTX=528
##FIRSTY=5275
##MAXX=528
##MINX=41
##MAXY=9999
##MINY=33
##NPOINTS=238
##PEAK TABLE=(XY..XY)
41,5275 42,1877 43,9999 44,1777
45,450 46,100 47,242 50,50
51,75 52,58 53,258 54,242
55,1594 56,600 57,308 58,108
59,233 60,959 61,200 62,125
64,41 65,66 67,225 68,283
69,1953 70,600 71,7220 72,417
73,275 74,275 75,242 76,475
77,250 78,66 79,50 80,125
81,83 82,183 83,58 84,342
85,258 86,258 87,100 88,275
89,166 91,100 92,50 93,41
94,108 95,58 96,258 97,50
98,842 99,208 100,868 101,350
102,133 103,58 104,75 105,75
106,50 108,91 109,58 110,375
111,50 112,751 113,116 114,200
115,133 116,66 117,392 118,191
119,150 120,75 121,50 122,116
123,66 124,66 125,158 126,200
127,283 128,342 129,342 130,3388
131,325 132,250 133,83 134,133
135,66 136,91 137,41 138,108
139,66 140,108 141,91 142,83
143,83 144,250 145,91 146,83
147,233 148,50 149,358 150,225
151,125 152,208 153,58 154,484
155,300 156,1919 157,375 158,225
159,283 160,125 161,267 162,75
163,91 164,91 165,58 166,191
167,91 168,1627 169,242 170,158
171,66 172,175 173,208 174,116
175,133 176,100 177,66 178,58
179,41 180,133 181,133 182,133
183,75 184,158 185,116 186,375
187,400 188,342 189,150 190,125
191,41 192,233 193,66 194,392
195,91 196,208 197,75 198,317
199,108 200,2111 201,817 202,350
203,425 204,116 205,133 212,108
214,200 215,250 216,125 217,125
218,50 219,108 220,108 222,91
224,75 226,292 228,325 229,225
230,141 231,116 232,350 233,375
234,100 235,58 242,66 244,41
247,33 252,66 254,91 255,75
256,467 257,275 258,275 259,125
260,83 261,83 262,50 290,651
291,250 292,292 293,66 294,75
295,33 299,41 329,575 330,125
331,75 335,33 336,66 343,33
355,267 356,75 357,141 358,41
359,41 387,33 389,83 391,41
400,50 412,33 413,33 414,41
457,50 458,58 459,50 460,33
488,41 489,83 490,1827 491,509
492,1009 493,258 494,225 495,83
496,58 520,83 521,175 522,6269
523,1902 524,3922 525,1068 526,943
527,233 528,233
##END=
