##TITLE=Bicyclo[3.1.0]hex-3-en-2-one, 5-(1-methylethyl)-
##JCAMP-DX=4.24
##DATA TYPE=MASS SPECTRUM
##ORIGIN=NIST Mass Spectrometry Data Center
##OWNER=NIST Mass Spectrometry Data Center
Collection (C) 2014 copyright by the U.S. Secretary of Commerce
on behalf of the United States of America. All rights reserved.
##CAS REGISTRY NO=36262-12-1
##$NIST MASS SPEC NO=413853
##MOLFORM=C9 H12 O
##MW=136
##$NIST SOURCE=MSDC
##XUNITS=M/Z
##YUNITS=RELATIVE INTENSITY
##XFACTOR=1
##YFACTOR=1
##FIRSTX=26
##LASTX=137
##FIRSTY=50
##MAXX=137
##MINX=26
##MAXY=9999
##MINY=10
##NPOINTS=64
##PEAK TABLE=(XY..XY)
26,50 27,540 31,10 37,70
38,270 39,2282 40,400 41,631
42,60 43,941 44,50 45,100
47,10 49,30 50,400 51,941
52,410 53,651 58,10 60,30
61,110 62,320 63,871 64,250
65,1942 66,1151 72,10 73,20
74,110 75,60 76,50 77,6446
78,1011 79,1772 80,140 85,10
86,20 87,10 89,70 90,30
91,6005 92,671 93,9999 94,3643
98,10 102,20 103,280 104,40
105,310 106,60 107,781 108,1882
115,40 116,10 117,90 118,30
119,60 120,30 121,7597 122,711
123,30 135,80 136,1071 137,150
##END=
