##TITLE=Dispiro[2.2.2.2]deca-4,9-diene
##JCAMP-DX=4.24
##DATA TYPE=MASS SPECTRUM
##ORIGIN=JACSAT, 100(6)1806(1978); T. TSUJI ET AL.
##OWNER=NIST Mass Spectrometry Data Center
Collection (C) 2014 copyright by the U.S. Secretary of Commerce
on behalf of the United States of America. All rights reserved.
##CAS REGISTRY NO=36262-33-6
##$NIST MASS SPEC NO=66351
##MOLFORM=C10 H12
##MW=132
##$NIST SOURCE=MSDC
##XUNITS=M/Z
##YUNITS=RELATIVE INTENSITY
##XFACTOR=1
##YFACTOR=1
##FIRSTX=50
##LASTX=132
##FIRSTY=2700
##MAXX=132
##MINX=50
##MAXY=9999
##MINY=1500
##NPOINTS=16
##PEAK TABLE=(XY..XY)
50,2700 52,4400 63,2400 65,2000
77,5700 78,4100 79,2100 91,7400
103,3000 104,2200 105,2900 115,5300
116,2400 117,9999 131,1500 132,3600
##END=
