##TITLE=Phosphoramidous difluoride, diethyl-
##JCAMP-DX=4.24
##DATA TYPE=MASS SPECTRUM
##ORIGIN=CBDCOM/ERDEC, Edgewood, MD
##OWNER=NIST Mass Spectrometry Data Center
Collection (C) 2014 copyright by the U.S. Secretary of Commerce
on behalf of the United States of America. All rights reserved.
##CAS REGISTRY NO=363-84-8
##$NIST MASS SPEC NO=226507
##MOLFORM=C4 H10 F2 N P
##MW=141
##$NIST SOURCE=MSDC
##XUNITS=M/Z
##YUNITS=RELATIVE INTENSITY
##XFACTOR=1
##YFACTOR=1
##FIRSTX=15
##LASTX=142
##FIRSTY=790
##MAXX=142
##MINX=15
##MAXY=9999
##MINY=30
##NPOINTS=43
##PEAK TABLE=(XY..XY)
15,790 27,3493 29,5995 40,390
41,790 42,2992 43,390 44,740
46,290 51,590 54,390 55,290
56,1691 57,240 66,290 69,3993
70,290 71,160 74,240 77,190
78,2792 79,90 92,1090 94,160
96,690 97,390 98,6996 99,140
107,90 109,190 110,140 111,30
112,590 113,70 114,30 122,1691
123,90 124,50 126,9999 127,490
140,490 141,1991 142,140
##END=
