##TITLE=2,4,6-Trifluoroaniline
##JCAMP-DX=4.24
##DATA TYPE=MASS SPECTRUM
##ORIGIN=NIST Mass Spectrometry Data Center, 1994
##OWNER=NIST Mass Spectrometry Data Center
Collection (C) 2014 copyright by the U.S. Secretary of Commerce
on behalf of the United States of America. All rights reserved.
##CAS REGISTRY NO=363-81-5
##$NIST MASS SPEC NO=134202
##MOLFORM=C6 H4 F3 N
##MW=147
##$NIST SOURCE=MSDC
##XUNITS=M/Z
##YUNITS=RELATIVE INTENSITY
##XFACTOR=1
##YFACTOR=1
##FIRSTX=16
##LASTX=149
##FIRSTY=14
##MAXX=149
##MINX=16
##MAXY=9999
##MINY=7
##NPOINTS=89
##PEAK TABLE=(XY..XY)
16,14 18,10 19,11 25,25
26,15 28,374 31,900 32,32
33,23 36,40 37,166 38,126
39,57 40,7 41,21 44,73
46,95 47,8 48,30 49,97
50,461 51,560 52,395 53,44
55,100 56,268 57,207 58,33
59,63 60,47 61,126 62,115
63,131 65,32 66,16 68,190
69,481 70,420 71,46 72,80
73,16 74,529 75,692 76,473
77,145 78,44 79,138 80,263
81,410 82,142 83,66 86,38
87,56 88,110 89,57 90,31
92,27 93,167 94,121 95,70
96,182 97,25 98,25 99,1037
100,2792 101,608 102,89 103,86
107,691 108,223 109,26 114,12
116,204 117,75 119,1704 120,1622
121,106 124,15 126,642 127,2178
128,253 129,13 130,19 131,12
132,15 144,19 147,9999 148,686
149,28
##END=
