##TITLE=Ethanone, 1-(3,4-dimethylphenyl)-
##JCAMP-DX=4.24
##DATA TYPE=MASS SPECTRUM
##ORIGIN=NIST Mass Spectrometry Data Center, 1990.
##OWNER=NIST Mass Spectrometry Data Center
Collection (C) 2014 copyright by the U.S. Secretary of Commerce
on behalf of the United States of America. All rights reserved.
##CAS REGISTRY NO=3637-01-2
##$NIST MASS SPEC NO=114565
##MOLFORM=C10 H12 O
##MW=148
##$NIST SOURCE=MSDC
##XUNITS=M/Z
##YUNITS=RELATIVE INTENSITY
##XFACTOR=1
##YFACTOR=1
##FIRSTX=14
##LASTX=149
##FIRSTY=60
##MAXX=149
##MINX=14
##MAXY=9999
##MINY=19
##NPOINTS=65
##PEAK TABLE=(XY..XY)
14,60 15,412 16,42 18,19
26,56 27,705 28,70 29,83
37,52 38,197 39,1174 40,148
41,220 42,110 43,1220 44,61
45,49 49,52 50,578 51,1367
52,346 53,445 54,40 55,34
58,27 59,89 61,71 62,295
63,883 64,180 65,537 66,107
73,46 74,233 75,220 76,278
77,2825 78,930 79,2126 80,139
86,54 87,66 88,33 89,297
90,129 91,410 92,34 93,25
98,46 102,336 103,1569 104,644
105,6100 106,492 115,126 116,26
117,68 118,40 119,154 131,96
133,9999 134,953 135,54 148,3192
149,335
##END=
