##TITLE=4-Fluoro-2-nitroaniline
##JCAMP-DX=4.24
##DATA TYPE=MASS SPECTRUM
##ORIGIN=NIST Mass Spectrometry Data Center, 1994
##OWNER=NIST Mass Spectrometry Data Center
Collection (C) 2014 copyright by the U.S. Secretary of Commerce
on behalf of the United States of America. All rights reserved.
##CAS REGISTRY NO=364-78-3
##$NIST MASS SPEC NO=133526
##MOLFORM=C6 H5 F N2 O2
##MW=156
##$NIST SOURCE=MSDC
##XUNITS=M/Z
##YUNITS=RELATIVE INTENSITY
##XFACTOR=1
##YFACTOR=1
##FIRSTX=14
##LASTX=158
##FIRSTY=43
##MAXX=158
##MINX=14
##MAXY=9999
##MINY=27
##NPOINTS=83
##PEAK TABLE=(XY..XY)
14,43 26,70 27,88 28,430
29,43 30,837 31,375 32,42
33,135 37,198 38,296 39,350
40,116 41,132 44,95 45,68
46,285 49,89 50,342 51,617
52,996 53,141 54,107 55,108
56,517 57,2010 58,128 59,115
60,73 61,374 62,563 63,1611
64,373 65,306 66,66 68,126
69,160 70,383 71,393 72,73
73,50 74,130 75,179 76,436
77,87 78,239 79,60 80,143
81,977 82,1750 83,6815 84,1026
85,52 86,27 87,32 88,71
89,299 90,1923 91,207 92,89
93,46 94,68 95,263 96,294
97,222 98,1624 99,98 106,33
107,62 108,351 109,893 110,5492
111,399 121,37 122,69 123,53
126,1324 127,99 139,514 140,201
156,9999 157,769 158,69
##END=
