##TITLE=3,4-Dichloroanisole
##JCAMP-DX=4.24
##DATA TYPE=MASS SPECTRUM
##ORIGIN=NIST Mass Spectrometry Data Center
##OWNER=NIST Mass Spectrometry Data Center
Collection (C) 2014 copyright by the U.S. Secretary of Commerce
on behalf of the United States of America. All rights reserved.
##CAS REGISTRY NO=36404-30-5
##$NIST MASS SPEC NO=342416
##MOLFORM=C7 H6 Cl2 O
##MW=176
##$NIST SOURCE=MSDC
##XUNITS=M/Z
##YUNITS=RELATIVE INTENSITY
##XFACTOR=1
##YFACTOR=1
##FIRSTX=13
##LASTX=181
##FIRSTY=70
##MAXX=181
##MINX=13
##MAXY=9999
##MINY=10
##NPOINTS=91
##PEAK TABLE=(XY..XY)
13,70 14,190 15,2002 16,50
17,10 25,100 26,160 27,150
28,310 29,671 30,120 31,150
32,50 35,250 36,220 37,871
38,500 39,120 41,70 44,70
47,170 48,150 49,510 50,791
51,340 52,70 53,190 55,60
56,90 59,60 60,250 61,971
62,1762 63,3463 64,220 66,100
71,140 72,721 73,1712 74,1722
75,1461 76,130 77,781 78,110
83,420 84,450 85,561 86,150
87,110 88,80 91,50 96,130
97,761 98,631 99,340 100,190
107,470 109,1071 110,290 111,1011
112,180 113,851 114,70 115,220
126,651 127,50 128,200 133,5675
135,3763 136,240 137,561 138,60
141,751 142,80 143,210 145,420
146,1431 147,500 148,881 149,190
150,140 161,4524 163,3143 164,230
165,540 176,9999 177,951 178,6456
179,540 180,1021 181,100
##END=
