##TITLE=Diazene, bis(4-nitrophenyl)-
##JCAMP-DX=4.24
##DATA TYPE=MASS SPECTRUM
##ORIGIN=D.HENNEBERG, MAX-PLANCK INSTITUTE, MULHEIM, WEST GERMANY
##OWNER=NIST Mass Spectrometry Data Center
Collection (C) 2014 copyright by the U.S. Secretary of Commerce
on behalf of the United States of America. All rights reserved.
##CAS REGISTRY NO=3646-57-9
##$NIST MASS SPEC NO=63802
##MOLFORM=C12 H8 N4 O4
##MW=272
##$NIST SOURCE=MSDC
##XUNITS=M/Z
##YUNITS=RELATIVE INTENSITY
##XFACTOR=1
##YFACTOR=1
##FIRSTX=27
##LASTX=275
##FIRSTY=85
##MAXX=275
##MINX=27
##MAXY=9999
##MINY=4
##NPOINTS=108
##PEAK TABLE=(XY..XY)
27,85 28,70 29,54 30,300
33,7 37,91 38,222 39,520
40,43 41,13 42,8 43,9
44,13 45,29 46,29 49,13
50,2181 51,418 52,155 53,136
54,34 55,7 57,8 61,46
62,183 63,741 64,1104 65,123
66,27 67,15 68,11 70,5
71,4 73,24 74,329 75,4472
76,4586 77,423 78,35 79,11
80,34 81,6 82,12 83,33
84,6 85,4 86,9 87,25
88,43 89,43 90,81 91,138
92,2728 93,188 94,13 95,4
97,4 98,5 100,10 101,11
102,28 103,11 104,47 105,22
106,491 107,36 108,5 113,11
114,15 115,6 118,4 119,4
120,22 121,18 122,9999 123,651
124,58 125,16 126,38 127,10
128,9 134,35 138,9 139,83
140,25 141,6 142,4 149,19
150,4986 151,449 152,94 153,15
167,10 168,16 178,5 179,12
225,5 226,5 240,4 242,30
243,5 256,71 257,11 270,6
272,3726 273,543 274,72 275,8
##END=
