##TITLE=2-Aminoethylethyl sulfide
##JCAMP-DX=4.24
##DATA TYPE=MASS SPECTRUM
##ORIGIN=NIST Mass Spectrometry Data Center
##OWNER=NIST Mass Spectrometry Data Center
Collection (C) 2014 copyright by the U.S. Secretary of Commerce
on behalf of the United States of America. All rights reserved.
##CAS REGISTRY NO=36489-03-9
##$NIST MASS SPEC NO=342998
##MOLFORM=C4 H11 N S
##MW=105
##$NIST SOURCE=MSDC
##XUNITS=M/Z
##YUNITS=RELATIVE INTENSITY
##XFACTOR=1
##YFACTOR=1
##FIRSTX=13
##LASTX=107
##FIRSTY=10
##MAXX=107
##MINX=13
##MAXY=9999
##MINY=10
##NPOINTS=47
##PEAK TABLE=(XY..XY)
13,10 14,40 15,310 16,20
17,90 18,611 26,340 27,1411
28,1051 30,9999 31,30 32,20
33,30 34,40 35,130 38,10
39,40 40,90 41,340 42,751
43,621 44,390 45,831 46,420
47,911 48,581 49,70 50,20
57,380 58,240 59,220 60,170
61,821 62,30 63,30 73,10
74,70 75,320 76,1531 77,160
78,70 87,10 88,10 89,10
105,951 106,50 107,40
##END=
