##TITLE=m-Trifluoromethylphenylhydrazine
##JCAMP-DX=4.24
##DATA TYPE=MASS SPECTRUM
##ORIGIN=NIST Mass Spectrometry Data Center, 1994
##OWNER=NIST Mass Spectrometry Data Center
Collection (C) 2014 copyright by the U.S. Secretary of Commerce
on behalf of the United States of America. All rights reserved.
##CAS REGISTRY NO=365-34-4
##$NIST MASS SPEC NO=136073
##MOLFORM=C7 H7 F3 N2
##MW=176
##$NIST SOURCE=MSDC
##XUNITS=M/Z
##YUNITS=RELATIVE INTENSITY
##XFACTOR=1
##YFACTOR=1
##FIRSTX=12
##LASTX=177
##FIRSTY=24
##MAXX=177
##MINX=12
##MAXY=9999
##MINY=24
##NPOINTS=138
##PEAK TABLE=(XY..XY)
12,24 14,66 15,79 16,846
17,690 18,77 19,62 20,140
21,26 25,54 26,355 27,470
28,2049 29,1794 30,1015 31,2609
32,93 33,86 36,53 37,848
38,1546 39,1925 40,399 41,361
42,119 43,88 44,73 46,238
47,44 48,474 49,258 50,2776
51,2546 52,1251 53,309 54,122
55,78 56,240 57,1221 58,101
60,65 61,557 62,1089 63,2608
64,1406 65,773 66,848 67,1051
68,481 69,1751 70,336 71,53
72,137 73,249 74,1066 75,2754
76,910 77,2272 78,1784 79,494
80,302 81,631 82,513 83,1131
84,189 85,167 86,96 87,423
88,886 89,749 90,643 91,941
92,349 93,228 94,256 95,923
96,776 97,82 98,82 99,719
100,589 101,1809 102,566 103,155
104,60 105,442 106,379 107,2955
108,9999 109,5038 110,918 111,263
112,546 113,1460 114,1368 115,136
116,588 117,505 118,120 119,174
120,645 121,98 122,41 123,79
124,41 125,1849 126,1780 127,4484
128,612 129,621 130,204 131,72
132,294 133,320 134,46 135,41
136,2806 137,4546 138,463 139,389
140,725 141,349 142,67 143,73
144,46 145,874 146,545 147,43
155,445 156,4448 157,405 158,71
159,40 160,196 161,189 174,57
176,6292 177,554
##END=
