##TITLE=4,4'-Difluorobenzhydrol
##JCAMP-DX=4.24
##DATA TYPE=MASS SPECTRUM
##ORIGIN=NIST Mass Spectrometry Data Center
##OWNER=NIST Mass Spectrometry Data Center
Collection (C) 2014 copyright by the U.S. Secretary of Commerce
on behalf of the United States of America. All rights reserved.
##CAS REGISTRY NO=365-24-2
##$NIST MASS SPEC NO=342659
##MOLFORM=C13 H10 F2 O
##MW=220
##$NIST SOURCE=MSDC
##XUNITS=M/Z
##YUNITS=RELATIVE INTENSITY
##XFACTOR=1
##YFACTOR=1
##FIRSTX=16
##LASTX=222
##FIRSTY=10
##MAXX=222
##MINX=16
##MAXY=9999
##MINY=10
##NPOINTS=116
##PEAK TABLE=(XY..XY)
16,10 18,10 30,10 33,40
37,20 38,60 39,180 40,10
50,390 51,490 52,40 53,40
55,10 56,30 57,300 58,10
61,40 62,80 63,160 64,10
66,10 68,140 69,260 70,240
71,40 72,10 75,1221 76,150
77,851 78,80 80,20 81,150
82,30 83,80 84,20 85,60
86,40 87,50 89,10 91,90
92,60 93,60 94,230 95,2412
96,1451 97,2312 98,170 99,50
101,130 105,180 106,40 107,120
108,40 109,40 110,50 111,10
117,10 118,10 120,40 123,9999
124,1141 125,1241 126,100 127,10
129,10 131,30 132,10 133,60
134,10 138,10 143,20 144,50
145,20 146,20 149,20 150,20
151,90 152,20 155,20 156,10
157,40 162,10 163,20 164,40
165,10 168,30 169,60 170,270
171,210 172,40 173,10 175,40
177,10 179,10 180,20 181,120
182,50 183,430 184,70 186,10
187,20 188,120 189,40 190,20
191,20 199,120 200,150 201,661
202,160 203,280 204,60 217,40
219,601 220,971 221,120 222,10
##END=
