##TITLE=Hydrazine, 2-butenyl-
##JCAMP-DX=4.24
##DATA TYPE=MASS SPECTRUM
##ORIGIN=ATLAS OF MASS SPECTRA OF ORGANIC COMPOUNDS, V. A. KOPTYUG, ED.
##OWNER=NIST Mass Spectrometry Data Center
Collection (C) 2014 copyright by the U.S. Secretary of Commerce
on behalf of the United States of America. All rights reserved.
##CAS REGISTRY NO=36566-68-4
##$NIST MASS SPEC NO=64418
##MOLFORM=C4 H10 N2
##MW=86
##$NIST SOURCE=MSDC
##XUNITS=M/Z
##YUNITS=RELATIVE INTENSITY
##XFACTOR=1
##YFACTOR=1
##FIRSTX=26
##LASTX=88
##FIRSTY=330
##MAXX=88
##MINX=26
##MAXY=9999
##MINY=80
##NPOINTS=37
##PEAK TABLE=(XY..XY)
26,330 27,2460 28,2330 29,4160
30,770 31,2600 32,9999 33,200
37,160 38,330 39,2600 40,260
41,1920 42,660 43,920 44,1160
45,1920 50,320 51,290 52,180
53,1200 54,670 55,6710 56,940
57,220 58,490 59,380 67,120
68,740 69,340 70,210 71,2880
72,210 85,160 86,3290 87,410
88,80
##END=
