##TITLE=Oxirane, 2-methyl-2-propyl-
##JCAMP-DX=4.24
##DATA TYPE=MASS SPECTRUM
##ORIGIN=SHELL RESEARCH LIMITED THORNTON RESEARCH CENTRE
##OWNER=NIST Mass Spectrometry Data Center
Collection (C) 2014 copyright by the U.S. Secretary of Commerce
on behalf of the United States of America. All rights reserved.
##CAS REGISTRY NO=3657-41-8
##$NIST MASS SPEC NO=1079
##MOLFORM=C6 H12 O
##MW=100
##$NIST SOURCE=MSDC
##XUNITS=M/Z
##YUNITS=RELATIVE INTENSITY
##XFACTOR=1
##YFACTOR=1
##FIRSTX=26
##LASTX=100
##FIRSTY=266
##MAXX=100
##MINX=26
##MAXY=9999
##MINY=133
##NPOINTS=34
##PEAK TABLE=(XY..XY)
26,266 27,1960 28,462 29,2833
30,236 31,308 38,236 39,2566
40,513 41,4640 42,3983 43,3983
44,164 45,277 50,133 51,215
53,687 54,287 55,9999 56,708
57,1242 58,1704 59,431 67,431
68,184 69,677 70,277 71,472
72,1981 73,184 85,5492 86,687
99,266 100,215
##END=
