##TITLE=Dimethyl trisulfide
##JCAMP-DX=4.24
##DATA TYPE=MASS SPECTRUM
##OWNER=NIST Mass Spectrometry Data Center
Collection (C) 2014 copyright by the U.S. Secretary of Commerce
on behalf of the United States of America. All rights reserved.
##CAS REGISTRY NO=3658-80-8
##$NIST MASS SPEC NO=2588
##MOLFORM=C2 H6 S3
##MW=126
##$NIST SOURCE=MSDC
##XUNITS=M/Z
##YUNITS=RELATIVE INTENSITY
##XFACTOR=1
##YFACTOR=1
##FIRSTX=15
##LASTX=130
##FIRSTY=1171
##MAXX=130
##MINX=15
##MAXY=9999
##MINY=10
##NPOINTS=54
##PEAK TABLE=(XY..XY)
15,1171 16,10 26,10 27,60
28,10 29,30 32,520 33,130
34,60 35,50 37,10 38,10
39,30 40,20 41,30 43,20
44,290 45,5905 46,2132 47,3593
48,250 49,150 50,10 51,10
55,10 56,10 57,30 58,10
59,10 60,10 61,801 62,110
63,50 64,2232 65,230 66,230
67,20 68,10 76,50 77,70
78,821 79,5065 80,1411 81,490
82,120 83,10 111,1621 112,60
113,200 126,9999 127,370 128,1281
129,40 130,60
##END=
