##TITLE=Pentane, 1,1-diethoxy-
##JCAMP-DX=4.24
##DATA TYPE=MASS SPECTRUM
##OWNER=NIST Mass Spectrometry Data Center
Collection (C) 2014 copyright by the U.S. Secretary of Commerce
on behalf of the United States of America. All rights reserved.
##CAS REGISTRY NO=3658-79-5
##$NIST MASS SPEC NO=21805
##MOLFORM=C9 H20 O2
##MW=160
##$NIST SOURCE=MSDC
##XUNITS=M/Z
##YUNITS=RELATIVE INTENSITY
##XFACTOR=1
##YFACTOR=1
##FIRSTX=27
##LASTX=159
##FIRSTY=1722
##MAXX=159
##MINX=27
##MAXY=9999
##MINY=50
##NPOINTS=29
##PEAK TABLE=(XY..XY)
27,1722 28,1351 29,4514 30,260
31,2202 41,2662 42,450 43,1661
44,1321 45,1832 46,550 47,6236
55,571 57,7327 58,671 59,571
69,6716 70,450 71,260 72,290
75,4794 85,3383 86,240 87,1762
103,9999 114,961 115,5575 131,50
159,60
##END=
