##TITLE=Furaneol
##JCAMP-DX=4.24
##DATA TYPE=MASS SPECTRUM
##ORIGIN=Japan AIST/NIMC Database- Spectrum MS-NW-2260
##OWNER=NIST Mass Spectrometry Data Center
Collection (C) 2014 copyright by the U.S. Secretary of Commerce
on behalf of the United States of America. All rights reserved.
##CAS REGISTRY NO=3658-77-3
##$NIST MASS SPEC NO=233718
##MOLFORM=C6 H8 O3
##MW=128
##$NIST SOURCE=MSDC
##XUNITS=M/Z
##YUNITS=RELATIVE INTENSITY
##XFACTOR=1
##YFACTOR=1
##FIRSTX=12
##LASTX=130
##FIRSTY=10
##MAXX=130
##MINX=12
##MAXY=9999
##MINY=10
##NPOINTS=80
##PEAK TABLE=(XY..XY)
12,10 13,50 14,189 15,779
16,40 17,20 18,70 24,10
25,70 26,529 27,1449 28,849
29,1569 30,80 31,399 32,50
36,30 37,70 38,90 39,259
40,109 41,90 42,409 43,9999
44,639 45,1209 46,30 49,10
50,30 51,20 52,10 53,179
54,239 55,1409 56,759 57,5649
58,269 59,20 60,379 61,20
65,10 66,20 67,149 68,80
69,50 70,20 71,50 72,489
73,70 74,20 77,20 79,40
81,20 82,30 83,90 84,30
85,2069 86,119 87,99 88,10
94,20 96,20 97,30 98,30
99,30 100,40 101,40 109,20
110,20 111,10 112,10 113,20
114,10 124,50 125,10 126,139
127,90 128,5109 129,369 130,50
##END=
