##TITLE=Butane, 1,1-diethoxy-
##JCAMP-DX=4.24
##DATA TYPE=MASS SPECTRUM
##OWNER=NIST Mass Spectrometry Data Center
Collection (C) 2014 copyright by the U.S. Secretary of Commerce
on behalf of the United States of America. All rights reserved.
##CAS REGISTRY NO=3658-95-5
##$NIST MASS SPEC NO=4286
##MOLFORM=C8 H18 O2
##MW=146
##$NIST SOURCE=MSDC
##XUNITS=M/Z
##YUNITS=RELATIVE INTENSITY
##XFACTOR=1
##YFACTOR=1
##FIRSTX=15
##LASTX=145
##FIRSTY=250
##MAXX=145
##MINX=15
##MAXY=9999
##MINY=60
##NPOINTS=44
##PEAK TABLE=(XY..XY)
15,250 19,540 26,230 27,2462
28,781 29,4504 30,220 31,2012
32,120 39,470 40,120 41,1251
42,200 43,3373 44,1031 45,1391
46,260 47,8388 48,110 53,150
54,80 55,7457 56,380 57,2072
58,110 59,651 60,60 61,80
69,70 71,430 72,490 73,5145
74,240 75,5235 76,210 85,561
89,260 100,540 101,7036 102,480
103,9999 104,520 117,60 145,60
##END=
