##TITLE=Hexane, 1,1-diethoxy-
##JCAMP-DX=4.24
##DATA TYPE=MASS SPECTRUM
##OWNER=NIST Mass Spectrometry Data Center
Collection (C) 2014 copyright by the U.S. Secretary of Commerce
on behalf of the United States of America. All rights reserved.
##CAS REGISTRY NO=3658-93-3
##$NIST MASS SPEC NO=6955
##MOLFORM=C10 H22 O2
##MW=174
##$NIST SOURCE=MSDC
##XUNITS=M/Z
##YUNITS=RELATIVE INTENSITY
##XFACTOR=1
##YFACTOR=1
##FIRSTX=15
##LASTX=173
##FIRSTY=40
##MAXX=173
##MINX=15
##MAXY=9999
##MINY=10
##NPOINTS=37
##PEAK TABLE=(XY..XY)
15,40 19,120 27,701 29,2072
30,110 31,420 39,180 40,10
41,971 42,180 43,961 44,681
45,540 47,4424 55,2843 56,230
57,1251 58,110 59,520 67,80
71,190 72,370 73,100 75,3763
76,130 83,3653 84,220 85,641
88,70 89,70 99,130 101,270
103,9999 117,80 129,4204 145,30
173,50
##END=
