##TITLE=2,2'-Bipyridine
##JCAMP-DX=4.24
##DATA TYPE=MASS SPECTRUM
##ORIGIN=Japan AIST/NIMC Database- Spectrum MS-NW-1643
##OWNER=NIST Mass Spectrometry Data Center
Collection (C) 2014 copyright by the U.S. Secretary of Commerce
on behalf of the United States of America. All rights reserved.
##CAS REGISTRY NO=366-18-7
##$NIST MASS SPEC NO=228698
##MOLFORM=C10 H8 N2
##MW=156
##$NIST SOURCE=MSDC
##XUNITS=M/Z
##YUNITS=RELATIVE INTENSITY
##XFACTOR=1
##YFACTOR=1
##FIRSTX=26
##LASTX=158
##FIRSTY=159
##MAXX=158
##MINX=26
##MAXY=9999
##MINY=10
##NPOINTS=55
##PEAK TABLE=(XY..XY)
26,159 27,249 28,60 37,80
38,99 39,199 40,20 41,10
49,70 50,679 51,1489 52,719
53,90 54,10 61,50 62,90
63,149 64,179 65,60 73,20
74,139 75,239 76,329 77,299
78,1749 79,469 80,30 86,10
87,30 88,20 89,40 90,20
98,20 99,30 100,40 101,179
102,239 103,299 104,229 105,99
106,10 115,10 116,10 126,10
127,60 128,1909 129,1779 130,779
131,70 153,20 154,40 155,3399
156,9999 157,1129 158,60
##END=
