##TITLE=[1,1'-Biphenyl]-4,4'-diamine, N,N,N',N'-tetramethyl-
##JCAMP-DX=4.24
##DATA TYPE=MASS SPECTRUM
##ORIGIN=RADIAN CORP
##OWNER=NIST Mass Spectrometry Data Center
Collection (C) 2014 copyright by the U.S. Secretary of Commerce
on behalf of the United States of America. All rights reserved.
##CAS REGISTRY NO=366-29-0
##$NIST MASS SPEC NO=70343
##MOLFORM=C16 H20 N2
##MW=240
##$NIST SOURCE=MSDC
##XUNITS=M/Z
##YUNITS=RELATIVE INTENSITY
##XFACTOR=1
##YFACTOR=1
##FIRSTX=15
##LASTX=242
##FIRSTY=110
##MAXX=242
##MINX=15
##MAXY=9999
##MINY=10
##NPOINTS=111
##PEAK TABLE=(XY..XY)
15,110 27,80 39,70 41,50
42,450 43,120 44,50 50,50
51,100 52,30 62,30 63,130
64,40 65,40 66,30 70,10
71,10 74,50 75,110 76,250
77,160 78,40 80,40 82,30
84,80 85,20 86,10 87,50
88,40 89,30 90,240 91,50
97,20 98,540 100,20 101,70
102,60 103,110 104,200 106,40
111,970 113,90 114,50 115,140
116,30 117,20 118,170 119,2450
120,1520 125,40 126,100 127,100
128,100 129,70 130,20 137,20
138,40 139,230 140,160 141,70
142,50 143,10 144,40 150,110
151,280 152,1220 153,530 154,270
155,150 156,20 158,10 164,80
165,140 166,210 167,120 168,130
169,40 177,20 178,60 179,70
180,370 181,320 182,180 183,470
184,90 192,20 193,80 194,150
195,160 196,550 197,390 198,500
199,70 207,130 208,430 209,670
210,240 211,130 212,20 221,30
223,880 224,1410 225,3890 226,850
227,90 237,30 238,80 239,1110
240,9999 241,1810 242,160
##END=
