##TITLE=Cycloheptadecanone
##JCAMP-DX=4.24
##DATA TYPE=MASS SPECTRUM
##OWNER=NIST Mass Spectrometry Data Center
Collection (C) 2014 copyright by the U.S. Secretary of Commerce
on behalf of the United States of America. All rights reserved.
##CAS REGISTRY NO=3661-77-6
##$NIST MASS SPEC NO=12239
##MOLFORM=C17 H32 O
##MW=252
##$NIST SOURCE=MSDC
##XUNITS=M/Z
##YUNITS=RELATIVE INTENSITY
##XFACTOR=1
##YFACTOR=1
##FIRSTX=13
##LASTX=254
##FIRSTY=10
##MAXX=254
##MINX=13
##MAXY=9999
##MINY=10
##NPOINTS=177
##PEAK TABLE=(XY..XY)
13,10 17,10 18,30 25,10
26,70 27,881 28,500 29,2602
30,60 31,60 32,20 37,10
38,10 39,941 40,230 41,8948
42,2122 43,5095 44,80 45,80
46,10 47,10 48,10 50,10
51,50 52,40 53,571 54,1151
55,9999 56,1982 57,2672 58,7717
59,3733 60,100 61,10 62,10
63,30 64,10 65,110 66,180
67,2162 68,1762 69,4034 70,1601
71,8087 72,751 73,120 74,30
75,10 77,120 78,90 79,520
80,1341 81,1031 82,2222 83,2943
84,2672 85,1281 86,130 87,30
89,10 91,100 92,70 93,420
94,30 95,1031 96,2833 97,2352
98,3443 99,390 100,280 101,50
102,10 103,10 104,10 105,30
106,30 107,340 108,530 109,841
110,1001 111,1471 112,450 113,330
114,190 115,40 116,10 117,10
118,10 119,20 120,10 121,490
122,340 123,400 124,561 125,1611
126,210 127,330 128,80 129,30
131,10 133,10 134,20 135,621
136,300 137,210 138,470 139,250
140,70 141,90 142,70 143,10
147,30 148,10 149,400 150,180
151,130 152,420 153,180 154,60
155,110 156,240 157,30 161,10
163,220 164,90 165,80 166,200
167,110 168,30 169,100 170,220
171,30 176,10 177,110 178,80
179,40 180,30 181,70 182,60
183,60 184,120 185,20 191,80
192,260 193,50 194,520 195,190
196,90 197,100 198,10 205,80
206,40 207,40 208,10 209,180
210,190 211,80 212,10 218,10
219,70 220,10 221,20 223,190
224,70 225,10 232,10 234,571
235,110 236,20 237,140 238,30
250,40 251,40 252,2122 253,360
254,40
##END=
