##TITLE=4-Methoxycarbonylphenyl isothiocyanate
##JCAMP-DX=4.24
##DATA TYPE=MASS SPECTRUM
##ORIGIN=NIST Mass Spectrometry Data Center, 1994
##OWNER=NIST Mass Spectrometry Data Center
Collection (C) 2014 copyright by the U.S. Secretary of Commerce
on behalf of the United States of America. All rights reserved.
##CAS REGISTRY NO=3662-78-0
##$NIST MASS SPEC NO=134995
##MOLFORM=C9 H7 N O2 S
##MW=193
##$NIST SOURCE=MSDC
##XUNITS=M/Z
##YUNITS=RELATIVE INTENSITY
##XFACTOR=1
##YFACTOR=1
##FIRSTX=14
##LASTX=196
##FIRSTY=51
##MAXX=196
##MINX=14
##MAXY=9999
##MINY=4
##NPOINTS=93
##PEAK TABLE=(XY..XY)
14,51 15,507 17,4 26,36
27,66 28,126 29,211 30,88
31,37 32,118 37,186 38,225
39,361 40,29 41,17 44,124
45,98 50,1179 51,370 52,92
53,72 54,19 56,23 57,52
58,38 59,122 60,33 61,110
62,202 63,824 64,457 65,56
67,277 69,127 70,126 72,17
73,98 74,550 75,766 76,524
77,127 78,24 81,331 83,216
84,114 85,18 86,28 87,45
88,66 89,17 90,1529 91,168
92,36 93,49 94,32 95,33
96,41 99,27 100,16 102,308
103,45 104,35 105,18 106,63
107,491 108,158 109,33 117,20
118,20 119,41 120,23 121,21
122,38 130,128 131,19 134,4091
135,416 136,224 137,14 146,39
148,45 149,42 150,81 162,9999
163,1027 164,513 165,40 176,17
177,26 193,6899 194,824 195,395
196,38
##END=
