##TITLE=Solasodiene
##JCAMP-DX=4.24
##DATA TYPE=MASS SPECTRUM
##ORIGIN=LAC, NIDDK, NIH, Bethesda, MD 20892
##OWNER=NIST Mass Spectrometry Data Center
Collection (C) 2014 copyright by the U.S. Secretary of Commerce
on behalf of the United States of America. All rights reserved.
##CAS REGISTRY NO=3669-17-8
##$NIST MASS SPEC NO=255299
##MOLFORM=C27 H41 N O
##MW=395
##$NIST SOURCE=MSDC
##XUNITS=M/Z
##YUNITS=RELATIVE INTENSITY
##XFACTOR=1
##YFACTOR=1
##FIRSTX=41
##LASTX=399
##FIRSTY=1916
##MAXX=399
##MINX=41
##MAXY=9999
##MINY=4
##NPOINTS=228
##PEAK TABLE=(XY..XY)
41,1916 42,754 43,1357 44,414
45,388 46,294 47,5 49,22
51,48 52,11 53,509 54,488
55,2038 56,401 57,236 58,162
59,7 60,89 63,14 65,209
66,28 67,1193 68,586 69,692
70,436 71,134 72,64 73,69
74,18 77,618 78,143 79,1359
80,173 81,1452 82,297 83,270
84,260 85,31 86,94 87,10
88,13 89,6 91,1539 92,280
93,792 94,275 95,548 96,455
97,183 98,618 99,60 100,19
102,17 103,128 104,89 105,1507
106,321 107,780 108,420 109,474
110,371 111,483 113,7961 114,9999
115,847 117,690 118,147 119,408
120,446 121,426 122,248 123,199
124,872 125,895 126,189 127,26
128,231 129,336 130,158 131,507
132,164 133,502 134,193 135,152
136,145 138,6821 139,826 140,49
141,285 142,185 143,710 144,220
145,628 146,150 147,312 148,145
149,96 150,165 152,388 153,104
154,60 155,124 156,24 157,498
158,360 159,430 160,175 161,397
162,312 163,104 164,196 165,50
166,282 167,92 168,89 169,127
170,33 171,170 172,105 173,140
174,176 175,249 176,141 177,61
178,145 179,56 180,117 181,57
182,20 183,108 184,27 185,120
186,52 187,69 188,48 189,35
190,20 191,19 192,108 193,9
194,34 195,34 196,24 197,147
198,86 199,223 200,53 201,35
202,14 203,21 204,17 205,9
206,20 209,18 210,4 211,66
212,177 213,154 214,385 215,78
216,55 218,6 220,17 222,17
223,20 225,101 226,32 227,37
228,15 230,4 232,21 237,24
238,19 239,32 240,58 241,28
246,20 251,48 252,41 253,241
254,57 256,6 260,5 265,9
266,7 267,398 268,101 269,19
276,5 280,10 281,6 282,412
283,194 284,35 293,25 296,34
308,18 310,24 311,4 324,40
325,11 337,19 338,71 339,86
340,21 350,5 352,150 353,42
362,16 364,11 365,12 366,275
367,1138 368,275 369,31 376,14
378,23 380,130 381,38 391,5
392,21 393,16 394,190 395,1697
396,568 397,114 398,12 399,8
##END=
