##TITLE=2,4-Dihydroxyphenylbenzyl ketone
##JCAMP-DX=4.24
##DATA TYPE=MASS SPECTRUM
##ORIGIN=NIST Mass Spectrometry Data Center, 1994
##OWNER=NIST Mass Spectrometry Data Center
Collection (C) 2014 copyright by the U.S. Secretary of Commerce
on behalf of the United States of America. All rights reserved.
##CAS REGISTRY NO=3669-41-8
##$NIST MASS SPEC NO=135689
##MOLFORM=C14 H12 O3
##MW=228
##$NIST SOURCE=MSDC
##XUNITS=M/Z
##YUNITS=RELATIVE INTENSITY
##XFACTOR=1
##YFACTOR=1
##FIRSTX=12
##LASTX=230
##FIRSTY=3
##MAXX=230
##MINX=12
##MAXY=9999
##MINY=2
##NPOINTS=104
##PEAK TABLE=(XY..XY)
12,3 13,5 14,3 16,8
17,11 18,23 26,27 27,368
28,56 29,21 30,6 37,32
38,126 39,730 40,58 41,134
42,62 43,20 44,7 46,5
50,207 51,478 52,264 53,843
54,76 55,170 56,8 57,6
58,4 61,26 62,127 63,432
64,108 65,681 66,80 67,29
68,4 69,662 70,31 71,12
73,6 74,8 75,43 76,49
77,85 78,26 79,91 80,124
81,1232 82,87 83,5 84,4
85,6 86,18 87,26 89,175
91,779 92,71 93,11 95,30
98,6 99,10 100,4 101,11
102,12 103,9 105,9 108,224
109,229 110,22 113,7 114,7
115,54 116,7 119,8 121,5
125,54 126,19 127,33 128,32
129,14 131,10 137,9999 138,707
139,109 140,10 141,11 150,7
151,15 152,55 153,27 155,5
157,19 170,13 171,6 181,20
182,4 197,7 199,9 211,7
213,11 228,265 229,41 230,2
##END=
