##TITLE=2-Bromo-5-nitrobenzotrifluoride
##JCAMP-DX=4.24
##DATA TYPE=MASS SPECTRUM
##ORIGIN=NIST Mass Spectrometry Data Center
##OWNER=NIST Mass Spectrometry Data Center
Collection (C) 2014 copyright by the U.S. Secretary of Commerce
on behalf of the United States of America. All rights reserved.
##CAS REGISTRY NO=367-67-9
##$NIST MASS SPEC NO=340835
##MOLFORM=C7 H3 Br F3 N O2
##MW=269
##$NIST SOURCE=MSDC
##XUNITS=M/Z
##YUNITS=RELATIVE INTENSITY
##XFACTOR=1
##YFACTOR=1
##FIRSTX=16
##LASTX=273
##FIRSTY=10
##MAXX=273
##MINX=16
##MAXY=9999
##MINY=10
##NPOINTS=131
##PEAK TABLE=(XY..XY)
16,10 26,20 27,10 30,1922
31,170 36,20 37,290 38,290
39,50 46,240 48,20 49,170
50,771 51,180 52,30 53,20
55,20 56,100 57,190 60,40
61,320 62,400 63,520 64,50
68,210 69,981 70,10 72,30
73,470 74,2472 75,3053 76,170
77,10 79,110 80,150 81,280
82,50 84,20 85,80 86,80
87,160 88,110 89,20 91,20
92,190 93,621 94,1441 95,120
98,20 99,661 100,70 103,50
104,130 105,90 106,110 107,40
108,40 110,10 111,30 112,80
113,90 114,10 116,20 117,120
118,290 119,90 120,10 122,10
123,350 124,250 125,2813 126,200
128,60 129,70 130,70 131,190
132,2943 133,190 134,10 135,60
137,50 138,40 139,10 140,20
141,30 142,40 143,2202 144,9999
145,751 146,20 152,10 153,90
154,30 155,90 156,20 158,60
159,20 160,110 161,40 163,20
173,30 175,40 192,20 194,20
203,20 204,60 205,20 206,60
211,891 212,60 213,831 214,50
223,1491 224,130 225,1461 226,110
239,961 240,70 241,961 242,70
250,290 251,20 252,280 253,100
254,10 255,80 269,2352 270,200
271,2262 272,160 273,10
##END=
