##TITLE=Benzene, 1,2-difluoro-
##JCAMP-DX=4.24
##DATA TYPE=MASS SPECTRUM
##ORIGIN=Japan AIST/NIMC Database- Spectrum MS-NW-9256
##OWNER=NIST Mass Spectrometry Data Center
Collection (C) 2014 copyright by the U.S. Secretary of Commerce
on behalf of the United States of America. All rights reserved.
##CAS REGISTRY NO=367-11-3
##$NIST MASS SPEC NO=230727
##MOLFORM=C6 H4 F2
##MW=114
##$NIST SOURCE=MSDC
##XUNITS=M/Z
##YUNITS=RELATIVE INTENSITY
##XFACTOR=1
##YFACTOR=1
##FIRSTX=26
##LASTX=116
##FIRSTY=10
##MAXX=116
##MINX=26
##MAXY=9999
##MINY=10
##NPOINTS=46
##PEAK TABLE=(XY..XY)
26,10 27,10 28,10 31,129
37,99 38,149 39,99 44,10
45,10 47,10 49,30 50,449
51,80 56,80 57,569 58,10
61,90 62,179 63,1339 64,219
68,209 69,119 70,199 73,10
74,109 75,319 76,10 80,20
81,229 82,10 83,50 86,10
87,60 88,1419 89,60 92,40
93,80 94,239 95,159 96,10
99,40 112,60 113,269 114,9999
115,659 116,10
##END=
