##TITLE=Phenol, 2-fluoro-
##JCAMP-DX=4.24
##DATA TYPE=MASS SPECTRUM
##ORIGIN=Japan AIST/NIMC Database- Spectrum MS-NW-1127
##OWNER=NIST Mass Spectrometry Data Center
Collection (C) 2014 copyright by the U.S. Secretary of Commerce
on behalf of the United States of America. All rights reserved.
##CAS REGISTRY NO=367-12-4
##$NIST MASS SPEC NO=230436
##MOLFORM=C6 H5 F O
##MW=112
##$NIST SOURCE=MSDC
##XUNITS=M/Z
##YUNITS=RELATIVE INTENSITY
##XFACTOR=1
##YFACTOR=1
##FIRSTX=14
##LASTX=114
##FIRSTY=20
##MAXX=114
##MINX=14
##MAXY=9999
##MINY=10
##NPOINTS=67
##PEAK TABLE=(XY..XY)
14,20 15,10 25,20 26,80
27,99 28,109 29,119 31,379
32,20 33,40 36,30 37,219
38,449 39,459 40,30 41,40
42,40 43,20 44,30 45,99
46,30 48,10 49,90 50,249
51,159 52,20 53,279 54,10
55,109 56,509 57,1149 58,159
60,40 61,159 62,249 63,1839
64,5369 65,359 66,80 67,20
68,99 69,70 70,40 71,20
73,209 74,90 75,99 76,10
77,20 79,20 80,40 81,219
82,119 83,1199 84,259 85,10
86,30 92,1979 93,149 94,40
95,20 97,10 110,30 111,119
112,9999 113,669 114,40
##END=
