##TITLE=1,2,4-Trifluorobenzene
##JCAMP-DX=4.24
##DATA TYPE=MASS SPECTRUM
##ORIGIN=NIST Mass Spectrometry Data Center, 1990.
##OWNER=NIST Mass Spectrometry Data Center
Collection (C) 2014 copyright by the U.S. Secretary of Commerce
on behalf of the United States of America. All rights reserved.
##CAS REGISTRY NO=367-23-7
##$NIST MASS SPEC NO=118779
##MOLFORM=C6 H3 F3
##MW=132
##$NIST SOURCE=MSDC
##XUNITS=M/Z
##YUNITS=RELATIVE INTENSITY
##XFACTOR=1
##YFACTOR=1
##FIRSTX=26
##LASTX=133
##FIRSTY=41
##MAXX=133
##MINX=26
##MAXY=9999
##MINY=7
##NPOINTS=53
##PEAK TABLE=(XY..XY)
26,41 29,35 31,862 32,7
36,85 37,393 38,253 44,56
45,47 48,56 49,118 50,381
51,236 55,78 56,277 57,459
59,22 60,72 61,516 62,731
63,2790 64,152 65,22 66,405
67,22 68,371 69,131 70,32
73,83 74,272 75,804 76,38
79,99 80,294 81,2192 82,475
86,97 87,138 88,539 89,25
92,157 93,159 94,39 99,245
100,73 101,490 102,38 106,360
112,762 113,347 114,39 132,9999
133,706
##END=
