##TITLE=5-Fluoro-2-methylaniline
##JCAMP-DX=4.24
##DATA TYPE=MASS SPECTRUM
##ORIGIN=NIST Mass Spectrometry Data Center
##OWNER=NIST Mass Spectrometry Data Center
Collection (C) 2014 copyright by the U.S. Secretary of Commerce
on behalf of the United States of America. All rights reserved.
##CAS REGISTRY NO=367-29-3
##$NIST MASS SPEC NO=343224
##MOLFORM=C7 H8 F N
##MW=125
##$NIST SOURCE=MSDC
##XUNITS=M/Z
##YUNITS=RELATIVE INTENSITY
##XFACTOR=1
##YFACTOR=1
##FIRSTX=12
##LASTX=127
##FIRSTY=10
##MAXX=127
##MINX=12
##MAXY=9999
##MINY=10
##NPOINTS=85
##PEAK TABLE=(XY..XY)
12,10 15,80 17,70 18,20
26,190 27,420 28,731 30,310
31,180 33,100 37,180 38,350
39,561 40,90 41,180 42,140
44,50 45,60 46,90 47,20
48,50 49,130 50,681 51,1141
52,741 54,120 55,20 56,100
57,621 58,60 60,30 61,190
62,390 63,340 64,100 65,160
66,70 67,20 68,110 69,170
70,440 71,230 72,110 73,70
74,180 75,460 76,300 77,1261
78,400 79,100 80,70 81,210
82,120 83,240 84,90 85,80
86,30 87,30 88,30 89,80
90,20 91,30 92,30 93,40
94,90 95,651 96,581 97,1401
98,420 99,70 100,30 102,100
104,340 105,80 106,210 107,881
108,671 109,360 110,30 120,10
122,310 124,9999 125,6676 126,510
127,10
##END=
