##TITLE=4-Fluoro-3-nitrobenzotrifluoride
##JCAMP-DX=4.24
##DATA TYPE=MASS SPECTRUM
##ORIGIN=Japan AIST/NIMC Database- Spectrum MS-NW-6460
##OWNER=NIST Mass Spectrometry Data Center
Collection (C) 2014 copyright by the U.S. Secretary of Commerce
on behalf of the United States of America. All rights reserved.
##CAS REGISTRY NO=367-86-2
##$NIST MASS SPEC NO=235998
##MOLFORM=C7 H3 F4 N O2
##MW=209
##$NIST SOURCE=MSDC
##XUNITS=M/Z
##YUNITS=RELATIVE INTENSITY
##XFACTOR=1
##YFACTOR=1
##FIRSTX=12
##LASTX=211
##FIRSTY=10
##MAXX=211
##MINX=12
##MAXY=9999
##MINY=10
##NPOINTS=151
##PEAK TABLE=(XY..XY)
12,10 14,20 15,20 16,30
20,40 25,20 26,40 27,30
28,209 29,30 30,9999 31,679
32,20 33,30 36,40 37,249
38,199 39,70 40,10 41,10
42,40 43,10 44,99 45,30
46,519 47,10 48,20 49,109
50,799 51,409 52,20 53,20
55,30 56,239 57,579 58,40
59,10 60,40 61,299 62,359
63,1169 64,90 67,20 68,659
69,1149 70,40 71,10 72,30
73,169 74,649 75,1409 76,99
77,20 78,10 79,50 80,99
81,409 82,159 83,20 84,10
85,50 86,60 87,99 88,90
89,20 91,20 92,229 93,859
94,939 95,129 96,10 98,40
99,359 100,70 101,2469 102,149
103,20 104,40 105,40 106,60
107,60 108,80 109,10 110,40
111,50 112,349 113,2499 114,179
115,10 117,169 118,80 119,80
120,10 122,10 123,139 124,30
125,329 126,50 127,30 128,10
129,20 130,20 131,189 132,289
133,30 136,20 137,119 138,10
139,10 141,30 142,20 143,1979
144,1339 145,139 146,20 147,10
148,10 149,20 150,109 151,2349
152,189 153,10 157,30 158,20
159,40 160,40 161,99 162,239
163,6919 164,599 165,20 167,10
170,10 174,10 177,50 178,10
179,1469 180,129 181,20 188,20
189,20 190,1619 191,159 192,20
193,449 194,40 207,80 208,10
209,6489 210,539 211,60
##END=
