##TITLE=4-Methoxybenzoylacetonitrile
##JCAMP-DX=4.24
##DATA TYPE=MASS SPECTRUM
##ORIGIN=NIST Mass Spectrometry Data Center
##OWNER=NIST Mass Spectrometry Data Center
Collection (C) 2014 copyright by the U.S. Secretary of Commerce
on behalf of the United States of America. All rights reserved.
##CAS REGISTRY NO=3672-47-7
##$NIST MASS SPEC NO=342717
##MOLFORM=C10 H9 N O2
##MW=175
##$NIST SOURCE=MSDC
##XUNITS=M/Z
##YUNITS=RELATIVE INTENSITY
##XFACTOR=1
##YFACTOR=1
##FIRSTX=12
##LASTX=177
##FIRSTY=20
##MAXX=177
##MINX=12
##MAXY=9999
##MINY=10
##NPOINTS=66
##PEAK TABLE=(XY..XY)
12,20 13,30 14,130 15,490
16,20 18,10 26,70 27,120
28,430 29,190 30,60 31,50
32,110 37,150 38,571 39,340
40,410 41,110 42,50 43,20
49,60 50,741 51,390 52,120
53,190 54,20 61,130 62,400
63,1301 64,1371 65,160 66,140
68,90 73,60 74,360 75,270
76,561 77,2722 78,250 79,140
87,20 88,30 89,100 90,40
92,2152 93,180 94,20 102,20
103,60 104,100 105,50 107,1351
108,120 116,40 119,40 120,150
121,20 132,50 133,40 135,9999
136,881 137,70 146,40 175,1301
176,150 177,20
##END=
