##TITLE=Iprodione
##JCAMP-DX=4.24
##DATA TYPE=MASS SPECTRUM
##ORIGIN=J.E. WILKINSON S-CUBED, SAN DIEGO, CA.
##OWNER=NIST Mass Spectrometry Data Center
Collection (C) 2014 copyright by the U.S. Secretary of Commerce
on behalf of the United States of America. All rights reserved.
##CAS REGISTRY NO=36734-19-7
##$NIST MASS SPEC NO=91137
##MOLFORM=C13 H13 Cl2 N3 O3
##MW=329
##$NIST SOURCE=MSDC
##XUNITS=M/Z
##YUNITS=RELATIVE INTENSITY
##XFACTOR=1
##YFACTOR=1
##FIRSTX=41
##LASTX=331
##FIRSTY=3827
##MAXX=331
##MINX=41
##MAXY=9999
##MINY=7
##NPOINTS=68
##PEAK TABLE=(XY..XY)
41,3827 42,2045 43,9254 44,2531
45,17 49,100 50,21 51,7
56,9999 57,386 58,6124 61,45
62,159 63,76 64,72 70,2434
71,21 73,241 74,221 75,248
84,845 85,86 86,169 87,14
88,93 90,31 97,145 98,10
99,217 109,238 110,52 111,55
124,1003 125,69 126,231 145,410
147,207 153,110 157,221 158,34
160,121 161,265 162,86 163,86
174,72 181,69 187,2641 188,1103
189,1572 190,428 192,41 216,931
217,38 218,583 220,10 244,486
245,1162 247,372 248,79 249,34
271,397 273,200 314,4069 315,328
316,2317 318,93 329,179 331,69
##END=
