##TITLE=Phenanthrene, 2,5-dimethyl-
##JCAMP-DX=4.24
##DATA TYPE=MASS SPECTRUM
##ORIGIN=G.A.M.S., PARIS, FRANCE.
##OWNER=NIST Mass Spectrometry Data Center
Collection (C) 2014 copyright by the U.S. Secretary of Commerce
on behalf of the United States of America. All rights reserved.
##CAS REGISTRY NO=3674-66-6
##$NIST MASS SPEC NO=9361
##MOLFORM=C16 H14
##MW=206
##$NIST SOURCE=MSDC
##XUNITS=M/Z
##YUNITS=RELATIVE INTENSITY
##XFACTOR=1
##YFACTOR=1
##FIRSTX=27
##LASTX=208
##FIRSTY=40
##MAXX=208
##MINX=27
##MAXY=9999
##MINY=10
##NPOINTS=92
##PEAK TABLE=(XY..XY)
27,40 39,80 41,10 50,40
51,80 52,10 53,30 62,50
63,180 64,30 65,20 67,10
68,10 69,10 74,70 75,170
76,580 77,50 78,10 81,40
82,90 83,50 86,40 87,140
88,670 89,1330 90,30 93,10
94,230 95,790 96,30 98,30
99,40 100,370 101,1580 102,1050
103,680 104,10 110,20 111,20
113,30 114,10 115,50 123,10
124,10 126,10 127,40 128,30
129,30 137,20 138,10 139,90
140,20 141,10 149,20 150,110
151,140 152,230 153,50 161,10
162,30 163,170 164,90 165,670
166,120 167,10 174,50 175,60
176,190 177,90 178,230 179,210
180,30 186,10 187,180 188,150
189,2720 190,1670 191,5090 192,880
193,70 198,10 199,20 200,210
201,190 202,870 203,530 204,260
205,2280 206,9999 207,1750 208,150
##END=
