##TITLE=Phenanthrene, 2,3,5-trimethyl-
##JCAMP-DX=4.24
##DATA TYPE=MASS SPECTRUM
##ORIGIN=G.A.M.S., PARIS, FRANCE.
##OWNER=NIST Mass Spectrometry Data Center
Collection (C) 2014 copyright by the U.S. Secretary of Commerce
on behalf of the United States of America. All rights reserved.
##CAS REGISTRY NO=3674-73-5
##$NIST MASS SPEC NO=10285
##MOLFORM=C17 H16
##MW=220
##$NIST SOURCE=MSDC
##XUNITS=M/Z
##YUNITS=RELATIVE INTENSITY
##XFACTOR=1
##YFACTOR=1
##FIRSTX=27
##LASTX=222
##FIRSTY=15
##MAXX=222
##MINX=27
##MAXY=9999
##MINY=5
##NPOINTS=119
##PEAK TABLE=(XY..XY)
27,15 28,7 29,10 39,60
40,5 41,34 42,5 43,7
50,29 51,68 52,10 53,21
62,26 63,110 64,10 65,23
69,10 70,7 74,34 75,115
76,302 77,44 78,7 81,31
82,121 83,81 86,18 87,84
88,420 89,736 90,23 91,10
93,18 94,192 95,815 96,736
97,18 98,21 99,34 100,289
101,1815 102,578 103,40 106,34
107,102 108,315 109,302 110,605
111,15 113,21 114,10 115,47
116,7 122,5 123,5 124,5
125,7 126,29 127,21 128,29
129,50 137,10 138,7 139,65
140,7 141,15 145,18 149,42
150,81 151,113 152,210 153,7
154,7 161,7 162,13 163,115
164,71 165,302 166,60 167,7
174,31 175,39 176,176 177,65
178,250 179,218 180,26 186,7
187,102 188,84 189,2078 190,868
191,578 192,205 193,63 194,10
198,13 199,23 200,205 201,213
202,1131 203,1183 204,631 205,5788
206,1157 207,118 208,5 211,15
212,13 213,126 214,39 215,192
216,57 217,73 218,84 219,920
220,9999 221,1815 222,184
##END=
