##TITLE=Pentane, 3-ethoxy-
##JCAMP-DX=4.24
##DATA TYPE=MASS SPECTRUM
##ORIGIN=R.NAKAO RADIATION CENTER OF OSAKA PREFECTURE, SAKIA, JAPAN
##OWNER=NIST Mass Spectrometry Data Center
Collection (C) 2014 copyright by the U.S. Secretary of Commerce
on behalf of the United States of America. All rights reserved.
##CAS REGISTRY NO=36749-13-0
##$NIST MASS SPEC NO=26403
##MOLFORM=C7 H16 O
##MW=116
##$NIST SOURCE=MSDC
##XUNITS=M/Z
##YUNITS=RELATIVE INTENSITY
##XFACTOR=1
##YFACTOR=1
##FIRSTX=27
##LASTX=117
##FIRSTY=1700
##MAXX=117
##MINX=27
##MAXY=9999
##MINY=8
##NPOINTS=14
##PEAK TABLE=(XY..XY)
27,1700 28,1900 29,2900 31,2700
39,1300 41,2300 42,1700 43,1200
55,3700 59,9999 70,1300 87,5400
116,20 117,8
##END=
