##TITLE=Bromoacetic acid, dodecyl ester
##JCAMP-DX=4.24
##DATA TYPE=MASS SPECTRUM
##ORIGIN=V.Zaikin,Topchiev Inst.Petrochem.Synth.,Moscow
##OWNER=NIST Mass Spectrometry Data Center
Collection (C) 2014 copyright by the U.S. Secretary of Commerce
on behalf of the United States of America. All rights reserved.
##CAS REGISTRY NO=3674-07-5
##$NIST MASS SPEC NO=281849
##MOLFORM=C14 H27 Br O2
##MW=306
##$NIST SOURCE=MSDC
##XUNITS=M/Z
##YUNITS=RELATIVE INTENSITY
##XFACTOR=1
##YFACTOR=1
##FIRSTX=27
##LASTX=227
##FIRSTY=2142
##MAXX=227
##MINX=27
##MAXY=9999
##MINY=20
##NPOINTS=108
##PEAK TABLE=(XY..XY)
27,2142 28,420 29,3954 30,120
31,160 33,30 35,30 36,100
37,60 38,150 39,2452 40,741
41,8658 42,5095 43,9569 44,771
45,140 49,50 50,130 51,230
52,90 53,911 54,1541 55,9999
56,5695 57,6095 58,190 59,60
60,100 61,140 62,20 63,60
65,140 66,120 67,1501 68,2472
69,7156 70,5365 71,2692 72,190
73,100 75,30 76,30 77,190
78,90 79,260 80,80 81,611
82,2903 83,6045 84,2833 85,1211
86,70 91,60 92,80 93,1191
94,220 95,1241 96,1031 97,4104
98,1732 99,320 100,70 101,50
105,60 108,30 109,150 110,360
111,2122 112,1161 113,230 115,30
117,20 120,120 121,2402 122,140
123,2392 124,140 125,611 126,520
127,50 128,40 130,30 131,20
137,100 138,310 139,921 140,1591
141,761 142,60 143,30 148,130
149,30 150,90 151,90 153,110
162,80 164,40 166,80 167,190
168,701 169,90 178,40 179,60
213,180 214,20 220,30 227,20
##END=
