##TITLE=Phenanthrene, 2-dodecyl-
##JCAMP-DX=4.24
##DATA TYPE=MASS SPECTRUM
##ORIGIN=CONTINENTAL OIL CO., PONCA CITY, OKLA, USA
##OWNER=NIST Mass Spectrometry Data Center
Collection (C) 2014 copyright by the U.S. Secretary of Commerce
on behalf of the United States of America. All rights reserved.
##CAS REGISTRY NO=3674-72-4
##$NIST MASS SPEC NO=34917
##MOLFORM=C26 H34
##MW=346
##$NIST SOURCE=MSDC
##XUNITS=M/Z
##YUNITS=RELATIVE INTENSITY
##XFACTOR=1
##YFACTOR=1
##FIRSTX=14
##LASTX=348
##FIRSTY=5
##MAXX=348
##MINX=14
##MAXY=9999
##MINY=1
##NPOINTS=125
##PEAK TABLE=(XY..XY)
14,5 15,8 16,2 26,1
27,76 28,42 29,223 34,1
39,40 40,152 41,237 42,34
43,295 53,11 55,110 56,16
57,83 67,10 69,37 71,18
74,2 75,6 76,7 77,18
79,5 81,8 82,25 83,21
85,10 87,8 88,9 89,18
91,10 94,27 95,23 96,15
97,7 98,7 101,23 102,10
105,18 111,9 113,5 115,28
126,46 127,11 128,15 139,33
141,18 150,27 151,67 152,99
153,23 154,7 155,19 163,66
164,46 165,385 166,77 167,25
169,17 174,15 175,31 176,180
177,124 178,509 179,260 180,55
181,44 182,14 187,96 188,182
189,1367 190,875 191,9629 192,3809
193,565 194,57 195,35 196,18
200,34 201,62 202,366 203,288
204,902 205,522 206,89 207,20
208,15 209,19 211,111 212,20
213,16 215,115 216,61 217,175
218,118 219,83 220,17 221,13
223,8 225,13 228,20 229,16
231,27 232,31 233,73 234,14
237,16 246,18 249,8 251,12
252,18 260,20 267,968 268,202
269,21 274,16 281,9 282,15
283,26 344,160 346,9999 347,2770
348,380
##END=
