##TITLE=Propanoic acid, 2,3-dibromo-, ethyl ester
##JCAMP-DX=4.24
##DATA TYPE=MASS SPECTRUM
##ORIGIN=Japan AIST/NIMC Database- Spectrum MS-IW- 695
##OWNER=NIST Mass Spectrometry Data Center
Collection (C) 2014 copyright by the U.S. Secretary of Commerce
on behalf of the United States of America. All rights reserved.
##CAS REGISTRY NO=3674-13-3
##$NIST MASS SPEC NO=233402
##MOLFORM=C5 H8 Br2 O2
##MW=258
##$NIST SOURCE=MSDC
##XUNITS=M/Z
##YUNITS=RELATIVE INTENSITY
##XFACTOR=1
##YFACTOR=1
##FIRSTX=13
##LASTX=263
##FIRSTY=10
##MAXX=263
##MINX=13
##MAXY=9999
##MINY=10
##NPOINTS=113
##PEAK TABLE=(XY..XY)
13,10 14,40 15,159 16,10
25,70 26,919 27,4849 28,609
29,9999 30,349 31,169 32,10
38,10 39,50 40,10 41,80
42,70 43,489 44,90 45,839
46,20 53,149 54,189 55,5639
56,369 57,40 58,60 59,60
68,10 69,10 71,359 72,70
73,739 74,20 75,10 79,119
80,259 81,129 82,249 83,10
85,60 91,10 92,20 93,50
94,20 95,40 99,329 100,30
101,10 104,40 105,899 106,8589
107,1979 108,8409 109,1119 110,90
111,20 120,20 121,10 122,20
123,139 125,129 129,10 133,569
134,60 135,809 136,70 137,339
138,10 139,50 150,219 151,1279
152,269 153,1259 154,50 160,30
162,30 163,10 165,10 178,139
179,4259 180,379 181,4159 182,239
183,20 184,20 185,1249 186,359
187,2439 188,619 189,1189 190,299
213,689 214,20 215,1349 216,50
217,669 218,20 230,549 231,30
232,1069 233,70 234,529 235,30
243,10 245,20 247,10 258,20
259,20 260,40 261,30 262,20
263,10
##END=
