##TITLE=4-Piperidinamine, 2,2,6,6-tetramethyl-
##JCAMP-DX=4.24
##DATA TYPE=MASS SPECTRUM
##ORIGIN=Japan AIST/NIMC Database- Spectrum MS-NW-5764
##OWNER=NIST Mass Spectrometry Data Center
Collection (C) 2014 copyright by the U.S. Secretary of Commerce
on behalf of the United States of America. All rights reserved.
##CAS REGISTRY NO=36768-62-4
##$NIST MASS SPEC NO=234771
##MOLFORM=C9 H20 N2
##MW=156
##$NIST SOURCE=MSDC
##XUNITS=M/Z
##YUNITS=RELATIVE INTENSITY
##XFACTOR=1
##YFACTOR=1
##FIRSTX=14
##LASTX=157
##FIRSTY=20
##MAXX=157
##MINX=14
##MAXY=9999
##MINY=10
##NPOINTS=92
##PEAK TABLE=(XY..XY)
14,20 15,249 16,20 17,50
18,309 20,10 26,30 27,279
28,579 29,419 30,409 31,30
32,50 38,30 39,499 40,109
41,1129 42,3339 43,939 44,1219
45,70 46,10 49,10 50,20
51,40 52,40 53,129 54,99
55,479 56,489 57,1009 58,4749
59,199 60,10 62,10 63,40
64,10 65,60 66,40 67,199
68,129 69,80 70,209 71,179
72,80 77,30 78,10 79,70
80,60 81,109 82,339 83,149
84,1289 85,349 86,60 91,30
92,20 93,30 94,40 95,40
96,119 97,90 98,9999 99,1609
100,109 105,10 106,30 107,109
108,99 109,30 110,20 111,10
112,149 113,40 120,10 121,30
122,80 123,40 124,1459 125,179
126,10 127,10 136,20 137,20
138,10 139,189 140,189 141,4769
142,699 143,50 156,509 157,70
##END=
