##TITLE=Pyridine, 2-(diphenylmethyl)-
##JCAMP-DX=4.24
##DATA TYPE=MASS SPECTRUM
##ORIGIN=NIST Mass Spectrometry Data Center, 1990.
##OWNER=NIST Mass Spectrometry Data Center
Collection (C) 2014 copyright by the U.S. Secretary of Commerce
on behalf of the United States of America. All rights reserved.
##CAS REGISTRY NO=3678-70-4
##$NIST MASS SPEC NO=113384
##MOLFORM=C18 H15 N
##MW=245
##$NIST SOURCE=MSDC
##XUNITS=M/Z
##YUNITS=RELATIVE INTENSITY
##XFACTOR=1
##YFACTOR=1
##FIRSTX=27
##LASTX=247
##FIRSTY=173
##MAXX=247
##MINX=27
##MAXY=9999
##MINY=72
##NPOINTS=78
##PEAK TABLE=(XY..XY)
27,173 28,363 32,124 39,407
50,406 51,1351 52,414 62,198
63,652 64,133 65,262 74,199
75,247 76,279 77,564 78,699
79,232 80,102 82,83 84,97
86,105 87,234 88,216 89,546
90,116 91,121 94,73 95,101
96,110 100,72 101,97 102,232
107,122 109,326 113,251 114,288
115,833 116,118 121,409 122,721
126,154 127,125 128,253 137,73
138,124 139,1010 140,467 141,230
150,77 151,225 152,1151 153,168
163,300 164,490 165,2671 166,2133
167,3068 168,941 169,112 176,73
178,109 189,121 190,93 202,148
213,91 215,160 216,113 217,164
228,87 230,190 240,109 241,438
242,472 243,1482 244,9999 245,6190
246,1049 247,104
##END=
