##TITLE=Benzenesulfonyl fluoride
##JCAMP-DX=4.24
##DATA TYPE=MASS SPECTRUM
##ORIGIN=RADIAN CORP
##OWNER=NIST Mass Spectrometry Data Center
Collection (C) 2014 copyright by the U.S. Secretary of Commerce
on behalf of the United States of America. All rights reserved.
##CAS REGISTRY NO=368-43-4
##$NIST MASS SPEC NO=73335
##MOLFORM=C6 H5 F O2 S
##MW=160
##$NIST SOURCE=MSDC
##XUNITS=M/Z
##YUNITS=RELATIVE INTENSITY
##XFACTOR=1
##YFACTOR=1
##FIRSTX=26
##LASTX=163
##FIRSTY=30
##MAXX=163
##MINX=26
##MAXY=9999
##MINY=10
##NPOINTS=50
##PEAK TABLE=(XY..XY)
26,30 27,90 37,120 38,230
39,580 45,60 48,280 49,190
50,2160 51,4010 52,190 53,40
57,80 58,20 61,90 62,150
63,270 64,260 65,4500 66,270
67,570 68,20 69,220 70,160
71,20 73,270 74,1300 75,710
76,990 77,8580 78,570 79,10
81,70 82,70 83,470 84,20
85,20 92,80 93,4050 94,290
95,100 96,1040 97,100 108,30
109,30 128,10 160,9999 161,760
162,510 163,20
##END=
