##TITLE=3-Amino-4-chlorobenzenesulfonyl fluoride
##JCAMP-DX=4.24
##DATA TYPE=MASS SPECTRUM
##ORIGIN=Japan AIST/NIMC Database- Spectrum MS-IW- 664
##OWNER=NIST Mass Spectrometry Data Center
Collection (C) 2014 copyright by the U.S. Secretary of Commerce
on behalf of the United States of America. All rights reserved.
##CAS REGISTRY NO=368-72-9
##$NIST MASS SPEC NO=239390
##MOLFORM=C6 H5 Cl F N O2 S
##MW=209
##$NIST SOURCE=MSDC
##XUNITS=M/Z
##YUNITS=RELATIVE INTENSITY
##XFACTOR=1
##YFACTOR=1
##FIRSTX=15
##LASTX=214
##FIRSTY=10
##MAXX=214
##MINX=15
##MAXY=9999
##MINY=10
##NPOINTS=105
##PEAK TABLE=(XY..XY)
15,10 26,10 27,20 28,289
29,10 31,10 32,40 36,40
37,90 38,189 39,279 40,40
41,149 42,30 43,129 44,109
45,129 47,10 48,20 49,60
50,70 51,169 52,499 53,50
54,50 55,10 57,20 60,90
61,169 62,369 63,1269 64,359
65,269 66,50 67,40 68,10
69,30 70,10 71,10 72,119
73,339 74,99 75,159 76,50
77,20 78,139 79,119 80,10
81,10 82,30 83,50 84,20
85,10 86,50 87,99 88,70
89,149 90,3829 91,529 92,40
93,10 95,30 96,20 97,50
98,70 99,1009 100,109 101,329
102,30 104,80 105,30 106,30
107,20 108,10 109,50 110,50
113,20 114,1769 115,109 116,569
117,40 118,20 122,10 123,10
124,40 125,469 126,1809 127,279
128,579 129,40 142,30 144,10
145,279 146,20 147,90 174,20
175,20 193,20 208,60 209,9999
210,799 211,3709 212,289 213,169
214,10
##END=
