##TITLE=p-Trifluoromethylphenylhydrazine
##JCAMP-DX=4.24
##DATA TYPE=MASS SPECTRUM
##ORIGIN=NIST Mass Spectrometry Data Center
##OWNER=NIST Mass Spectrometry Data Center
Collection (C) 2014 copyright by the U.S. Secretary of Commerce
on behalf of the United States of America. All rights reserved.
##CAS REGISTRY NO=368-90-1
##$NIST MASS SPEC NO=342716
##MOLFORM=C7 H7 F3 N2
##MW=176
##$NIST SOURCE=MSDC
##XUNITS=M/Z
##YUNITS=RELATIVE INTENSITY
##XFACTOR=1
##YFACTOR=1
##FIRSTX=14
##LASTX=180
##FIRSTY=80
##MAXX=180
##MINX=14
##MAXY=9999
##MINY=10
##NPOINTS=129
##PEAK TABLE=(XY..XY)
14,80 16,280 17,300 18,210
20,40 25,20 26,180 27,260
28,1351 29,2612 30,721 31,1862
32,60 33,40 36,40 37,390
38,711 39,601 40,200 41,140
42,40 43,100 44,40 45,50
46,40 48,10 49,180 50,1571
51,1291 52,510 53,170 54,40
55,40 56,130 57,651 58,20
59,20 61,260 62,550 63,1692
64,550 65,190 66,30 67,20
69,1381 70,130 71,20 72,30
73,110 74,621 75,1581 76,410
77,1061 78,300 79,160 80,360
81,220 82,150 83,571 84,60
85,20 86,40 87,150 88,641
89,140 90,290 91,440 92,80
93,100 95,921 96,791 97,60
98,70 99,300 100,160 101,190
102,50 103,10 104,20 105,70
107,2392 108,290 109,420 110,200
111,210 113,1391 114,811 115,90
116,10 119,160 120,901 121,70
122,20 123,50 125,841 126,631
127,2592 128,360 129,100 130,20
132,400 133,671 134,50 135,20
136,10 137,20 139,881 140,3103
141,330 142,210 143,80 145,2402
146,781 147,90 148,150 149,40
155,100 157,1331 158,290 159,931
160,1361 161,1051 162,90 173,240
174,500 176,9999 177,911 178,30
180,20
##END=
