##TITLE=1,3,5-Triazine, 2,4,6-tris(trifluoromethyl)-
##JCAMP-DX=4.24
##DATA TYPE=MASS SPECTRUM
##OWNER=NIST Mass Spectrometry Data Center
Collection (C) 2014 copyright by the U.S. Secretary of Commerce
on behalf of the United States of America. All rights reserved.
##CAS REGISTRY NO=368-66-1
##$NIST MASS SPEC NO=13755
##MOLFORM=C6 F9 N3
##MW=285
##$NIST SOURCE=MSDC
##XUNITS=M/Z
##YUNITS=RELATIVE INTENSITY
##XFACTOR=1
##YFACTOR=1
##FIRSTX=31
##LASTX=286
##FIRSTY=2332
##MAXX=286
##MINX=31
##MAXY=9999
##MINY=100
##NPOINTS=19
##PEAK TABLE=(XY..XY)
31,2332 38,200 50,3503 52,430
57,300 69,9999 70,200 76,5005
77,100 78,671 102,1331 121,6676
122,100 190,3833 191,100 266,3663
267,200 285,3663 286,220
##END=
