##TITLE=Benzoyl chloride, 4-(pentyloxy)-
##JCAMP-DX=4.24
##DATA TYPE=MASS SPECTRUM
##ORIGIN=RADIAN CORP
##OWNER=NIST Mass Spectrometry Data Center
Collection (C) 2014 copyright by the U.S. Secretary of Commerce
on behalf of the United States of America. All rights reserved.
##CAS REGISTRY NO=36823-84-4
##$NIST MASS SPEC NO=72916
##MOLFORM=C12 H15 Cl O2
##MW=226
##$NIST SOURCE=MSDC
##XUNITS=M/Z
##YUNITS=RELATIVE INTENSITY
##XFACTOR=1
##YFACTOR=1
##FIRSTX=15
##LASTX=228
##FIRSTY=40
##MAXX=228
##MINX=15
##MAXY=9999
##MINY=10
##NPOINTS=94
##PEAK TABLE=(XY..XY)
15,40 26,80 27,1230 28,140
29,1920 30,40 31,10 37,50
38,320 39,1530 40,170 41,2230
42,560 43,3150 44,100 50,620
51,210 52,40 53,310 54,40
55,1110 56,50 57,10 59,30
61,50 62,260 63,1150 64,850
65,1840 66,220 67,90 69,120
70,520 71,320 72,10 73,110
74,210 75,560 76,710 77,250
78,90 79,50 85,10 89,10
91,140 92,850 93,1270 94,130
95,20 99,160 101,50 103,250
104,330 105,190 106,70 107,40
111,90 113,50 119,60 120,330
121,9999 122,780 123,90 127,70
129,20 132,50 133,120 134,30
135,20 138,40 139,110 141,50
147,80 151,50 152,430 153,70
156,10 157,70 159,10 161,60
162,20 163,10 169,90 171,20
190,30 191,6620 192,880 193,70
217,20 222,120 223,10 226,500
227,60 228,170
##END=
