##TITLE=(Z)-4-Methyl-2-hexene
##JCAMP-DX=4.24
##DATA TYPE=MASS SPECTRUM
##ORIGIN=NIST Mass Spectrometry Data Center, 1990.
##OWNER=NIST Mass Spectrometry Data Center
Collection (C) 2014 copyright by the U.S. Secretary of Commerce
on behalf of the United States of America. All rights reserved.
##CAS REGISTRY NO=3683-19-0
##$NIST MASS SPEC NO=113641
##MOLFORM=C7 H14
##MW=98
##$NIST SOURCE=MSDC
##XUNITS=M/Z
##YUNITS=RELATIVE INTENSITY
##XFACTOR=1
##YFACTOR=1
##FIRSTX=14
##LASTX=98
##FIRSTY=273
##MAXX=98
##MINX=14
##MAXY=9999
##MINY=221
##NPOINTS=20
##PEAK TABLE=(XY..XY)
14,273 15,251 27,1340 28,245
29,945 38,279 39,2217 41,6709
42,449 43,323 50,221 51,391
53,867 55,3532 56,1258 67,982
69,9999 70,1370 83,1139 98,2479
##END=
