##TITLE=Pentane, 3-methoxy-
##JCAMP-DX=4.24
##DATA TYPE=MASS SPECTRUM
##ORIGIN=D.HENNEBERG, MAX-PLANCK INSTITUTE, MULHEIM, WEST GERMANY
##OWNER=NIST Mass Spectrometry Data Center
Collection (C) 2014 copyright by the U.S. Secretary of Commerce
on behalf of the United States of America. All rights reserved.
##CAS REGISTRY NO=36839-67-5
##$NIST MASS SPEC NO=62557
##MOLFORM=C6 H14 O
##MW=102
##$NIST SOURCE=MSDC
##XUNITS=M/Z
##YUNITS=RELATIVE INTENSITY
##XFACTOR=1
##YFACTOR=1
##FIRSTX=25
##LASTX=102
##FIRSTY=4
##MAXX=102
##MINX=25
##MAXY=9999
##MINY=4
##NPOINTS=38
##PEAK TABLE=(XY..XY)
25,4 26,88 27,799 28,293
29,1005 30,36 31,222 32,8
33,87 37,27 38,28 39,462
40,60 41,3187 42,408 43,1235
44,31 45,3424 46,75 50,11
51,18 53,57 54,10 55,474
56,40 57,146 58,31 59,166
67,8 69,28 70,158 71,211
72,294 73,9999 74,433 75,20
101,22 102,5
##END=
