##TITLE=Cobalt, nonacarbonyl[.mu.3-(methoxyoxoethylidyne)]tri-, triangulo
##JCAMP-DX=4.24
##DATA TYPE=MASS SPECTRUM
##ORIGIN=G. A. VAGLIO
##OWNER=NIST Mass Spectrometry Data Center
Collection (C) 2014 copyright by the U.S. Secretary of Commerce
on behalf of the United States of America. All rights reserved.
##CAS REGISTRY NO=36834-85-2
##$NIST MASS SPEC NO=41166
##MOLFORM=C12 H3 Co3 O11
##MW=500
##$NIST SOURCE=MSDC
##XUNITS=M/Z
##YUNITS=RELATIVE INTENSITY
##XFACTOR=1
##YFACTOR=1
##FIRSTX=59
##LASTX=500
##FIRSTY=1100
##MAXX=500
##MINX=59
##MAXY=9999
##MINY=100
##NPOINTS=36
##PEAK TABLE=(XY..XY)
59,1100 71,200 87,300 115,100
118,700 130,1100 131,900 142,200
143,100 158,200 159,400 177,200
178,100 189,1700 190,3000 192,400
217,600 218,800 220,2000 245,600
248,3000 273,300 276,5200 301,400
304,6000 329,200 332,9500 357,100
360,9999 385,100 388,2700 413,100
416,2500 444,3500 472,8800 500,500
##END=
