##TITLE=2-Phenylbutyryl chloride
##JCAMP-DX=4.24
##DATA TYPE=MASS SPECTRUM
##ORIGIN=NIST Mass Spectrometry Data Center, 2010
##OWNER=NIST Mass Spectrometry Data Center
Collection (C) 2014 copyright by the U.S. Secretary of Commerce
on behalf of the United States of America. All rights reserved.
##CAS REGISTRY NO=36854-57-6
##$NIST MASS SPEC NO=375992
##MOLFORM=C10 H11 Cl O
##MW=182
##$NIST SOURCE=MSDC
##XUNITS=M/Z
##YUNITS=RELATIVE INTENSITY
##XFACTOR=1
##YFACTOR=1
##FIRSTX=15
##LASTX=185
##FIRSTY=10
##MAXX=185
##MINX=15
##MAXY=9999
##MINY=10
##NPOINTS=81
##PEAK TABLE=(XY..XY)
15,10 26,30 27,130 28,40
29,50 35,10 36,30 37,20
38,80 39,460 40,50 41,530
42,30 43,10 44,10 45,10
49,20 50,260 51,631 52,140
53,50 55,40 57,60 58,70
59,20 61,50 62,190 63,601
64,120 65,480 66,40 70,50
73,40 74,130 75,130 76,130
77,721 78,480 79,190 80,10
84,10 85,20 86,50 87,60
88,30 89,651 90,420 91,9999
92,741 93,30 98,10 99,40
101,40 102,190 103,701 104,731
105,70 112,20 113,10 114,20
115,761 116,160 117,961 118,370
119,6756 120,641 121,30 125,250
126,20 127,90 128,10 131,20
139,10 146,300 147,260 148,30
154,10 182,781 183,80 184,250
185,30
##END=
