##TITLE=N-Butyl-N-propyl-1-butanamine
##JCAMP-DX=4.24
##DATA TYPE=MASS SPECTRUM
##ORIGIN=AIR PRODUCTS & CHEMICALS, INC BOX 538, ALLENTOWN, PA 18105, D M PAREES
##OWNER=NIST Mass Spectrometry Data Center
Collection (C) 2014 copyright by the U.S. Secretary of Commerce
on behalf of the United States of America. All rights reserved.
##CAS REGISTRY NO=36874-77-8
##$NIST MASS SPEC NO=79732
##MOLFORM=C11 H25 N
##MW=171
##$NIST SOURCE=MSDC
##XUNITS=M/Z
##YUNITS=RELATIVE INTENSITY
##XFACTOR=1
##YFACTOR=1
##FIRSTX=27
##LASTX=172
##FIRSTY=550
##MAXX=172
##MINX=27
##MAXY=9999
##MINY=40
##NPOINTS=44
##PEAK TABLE=(XY..XY)
27,550 29,1210 30,1010 39,240
41,1290 42,930 43,770 44,1130
45,90 54,70 55,280 56,250
57,800 58,410 59,390 68,50
70,260 72,640 73,70 82,60
84,400 86,2710 87,210 94,110
95,80 98,340 99,70 100,1160
101,130 102,70 109,70 114,110
115,70 117,90 127,40 128,9999
129,1020 130,40 140,40 142,3260
143,350 170,100 171,740 172,100
##END=
