##TITLE=Sulfotep
##JCAMP-DX=4.24
##DATA TYPE=MASS SPECTRUM
##ORIGIN=ACCUSTANDARD Chemicals / NIST MS Data Center.
##OWNER=NIST Mass Spectrometry Data Center
Collection (C) 2014 copyright by the U.S. Secretary of Commerce
on behalf of the United States of America. All rights reserved.
##CAS REGISTRY NO=3689-24-5
##$NIST MASS SPEC NO=125497
##MOLFORM=C8 H20 O5 P2 S2
##MW=322
##$NIST SOURCE=MSDC
##XUNITS=M/Z
##YUNITS=RELATIVE INTENSITY
##XFACTOR=1
##YFACTOR=1
##FIRSTX=14
##LASTX=326
##FIRSTY=117
##MAXX=326
##MINX=14
##MAXY=9999
##MINY=5
##NPOINTS=184
##PEAK TABLE=(XY..XY)
14,117 15,414 16,5 17,30
18,114 19,91 26,643 27,4356
28,1789 29,7809 30,239 31,195
32,95 33,33 34,43 35,76
41,42 42,85 43,551 44,33
45,1322 46,138 47,935 48,119
49,48 57,24 58,63 59,215
60,443 61,281 62,73 63,731
64,531 65,4830 66,92 67,28
75,21 76,41 77,48 79,294
80,401 81,1550 82,152 83,58
89,27 90,58 91,303 92,21
93,3112 94,147 95,490 96,793
97,6586 98,177 99,477 107,36
108,94 109,306 110,63 111,324
112,466 113,556 114,980 115,1055
116,65 117,47 121,2953 122,155
123,100 124,36 125,1207 126,424
127,508 128,672 129,851 130,48
131,68 137,56 138,63 139,132
140,48 141,544 142,661 143,894
144,374 145,2066 146,1342 147,55
148,109 153,795 154,50 155,66
156,39 157,26 158,34 159,74
160,224 161,981 162,48 163,52
169,244 170,884 171,398 172,218
173,26 174,3449 175,532 176,538
177,751 178,57 179,45 183,13
184,18 185,30 186,38 187,45
189,1505 190,90 191,144 192,457
193,1873 194,118 195,186 197,17
198,24 199,29 200,69 201,17
202,5086 203,365 204,582 205,179
206,67 209,2553 210,2239 211,401
212,231 213,33 215,32 217,2177
218,127 219,131 220,32 221,565
222,95 223,135 229,10 232,29
233,91 234,32 235,26 236,20
238,3439 239,257 240,395 241,22
245,1949 246,199 247,138 248,83
249,334 250,63 251,99 261,21
262,17 263,17 266,3314 267,291
268,357 269,23 277,344 278,58
279,53 294,1486 295,145 296,173
307,24 318,12 319,19 322,9999
323,1223 324,1081 325,106 326,38
##END=
