##TITLE=o-Nitrophenyl-.beta.-D-galactopyranoside
##JCAMP-DX=4.24
##DATA TYPE=MASS SPECTRUM
##ORIGIN=Japan AIST/NIMC Database- Spectrum MS-NW-2266
##OWNER=NIST Mass Spectrometry Data Center
Collection (C) 2014 copyright by the U.S. Secretary of Commerce
on behalf of the United States of America. All rights reserved.
##CAS REGISTRY NO=369-07-3
##$NIST MASS SPEC NO=234157
##MOLFORM=C12 H15 N O8
##MW=301
##$NIST SOURCE=MSDC
##XUNITS=M/Z
##YUNITS=RELATIVE INTENSITY
##XFACTOR=1
##YFACTOR=1
##FIRSTX=12
##LASTX=168
##FIRSTY=50
##MAXX=168
##MINX=12
##MAXY=9999
##MINY=10
##NPOINTS=136
##PEAK TABLE=(XY..XY)
12,50 13,60 14,289 15,1349
16,40 17,389 18,1609 19,129
24,20 25,99 26,669 27,2139
28,1279 29,3839 30,1499 31,3439
32,289 33,40 36,50 37,449
38,1169 39,4409 40,379 41,1139
42,1399 43,3639 44,1489 45,2179
46,99 47,449 48,30 49,129
50,539 51,999 52,559 53,1189
54,299 55,1909 56,1309 57,3669
58,449 59,279 60,4979 61,1779
62,589 63,2459 64,2309 65,4319
66,429 67,149 68,299 69,1429
70,1019 71,1999 72,1099 73,6429
74,1149 75,299 76,139 77,209
78,759 79,169 80,359 81,2349
82,159 83,109 84,209 85,1609
86,559 87,859 88,139 89,429
90,349 91,2299 92,999 93,1309
94,699 95,239 96,209 97,879
98,589 99,249 100,60 101,449
102,379 103,399 104,40 105,40
106,599 107,70 108,70 109,2509
110,199 111,20 112,70 113,349
114,249 115,319 116,149 117,20
118,10 119,129 120,80 121,30
122,1009 123,769 124,109 125,20
126,80 127,239 128,40 129,10
130,10 131,209 132,119 133,209
134,20 135,50 136,20 137,20
139,9999 140,799 141,90 142,20
143,10 144,479 145,319 146,30
147,20 149,10 160,20 161,20
162,90 163,90 167,10 168,10
##END=
