##TITLE=cis,cis-2,7-Nonadiene
##JCAMP-DX=4.24
##DATA TYPE=MASS SPECTRUM
##ORIGIN=NIST Mass Spectrometry Data Center, 1990.
##OWNER=NIST Mass Spectrometry Data Center
Collection (C) 2014 copyright by the U.S. Secretary of Commerce
on behalf of the United States of America. All rights reserved.
##CAS REGISTRY NO=36901-84-5
##$NIST MASS SPEC NO=113522
##MOLFORM=C9 H16
##MW=124
##$NIST SOURCE=MSDC
##XUNITS=M/Z
##YUNITS=RELATIVE INTENSITY
##XFACTOR=1
##YFACTOR=1
##FIRSTX=26
##LASTX=124
##FIRSTY=206
##MAXX=124
##MINX=26
##MAXY=9999
##MINY=102
##NPOINTS=35
##PEAK TABLE=(XY..XY)
26,206 27,1696 28,644 29,1517
38,344 39,3749 40,842 41,7187
42,531 43,170 50,269 51,625
52,337 53,2079 54,937 55,3160
56,238 63,162 65,526 67,7265
68,9999 69,2699 70,195 77,356
78,102 79,625 81,1406 82,1244
83,116 91,149 93,183 95,2968
96,468 109,225 124,272
##END=
