##TITLE=Benzethidine
##JCAMP-DX=4.24
##DATA TYPE=MASS SPECTRUM
##ORIGIN=Patti Price, Georgia Bureau of Investigation, Decatur, Georgia
##OWNER=NIST Mass Spectrometry Data Center
Collection (C) 2014 copyright by the U.S. Secretary of Commerce
on behalf of the United States of America. All rights reserved.
##CAS REGISTRY NO=3691-78-9
##$NIST MASS SPEC NO=248309
##MOLFORM=C23 H29 N O3
##MW=367
##$NIST SOURCE=MSDC
##XUNITS=M/Z
##YUNITS=RELATIVE INTENSITY
##XFACTOR=1
##YFACTOR=1
##FIRSTX=42
##LASTX=368
##FIRSTY=470
##MAXX=368
##MINX=42
##MAXY=9999
##MINY=10
##NPOINTS=165
##PEAK TABLE=(XY..XY)
42,470 43,50 44,40 49,10
50,10 51,50 52,10 53,30
54,30 55,30 56,170 57,140
58,20 59,90 60,10 63,20
64,10 65,220 66,10 67,10
68,30 69,40 70,50 71,10
72,10 73,10 74,10 75,10
76,10 77,190 78,40 79,50
80,20 81,10 82,60 83,10
84,40 85,10 86,70 87,10
88,10 89,40 90,10 91,2051
92,150 93,10 94,10 95,10
96,50 97,10 98,10 99,10
100,20 101,10 103,300 104,50
105,90 106,10 107,10 108,10
110,10 111,10 112,20 114,10
115,320 116,90 117,130 118,60
120,10 121,10 124,10 126,10
127,60 128,190 129,270 130,70
131,150 132,20 133,10 140,10
141,40 142,20 143,110 144,70
145,30 146,10 147,10 152,10
153,10 154,10 155,30 156,60
157,20 158,240 159,40 160,20
161,10 162,10 164,30 165,10
166,10 167,10 170,40 171,60
172,380 173,120 174,80 175,10
176,10 177,10 178,10 182,10
184,20 185,10 186,20 187,50
188,50 189,10 190,130 191,10
198,10 200,120 201,20 202,80
203,10 204,30 205,10 207,10
216,10 218,380 219,50 220,10
230,10 231,10 232,20 233,1631
234,260 235,20 236,10 244,20
245,10 246,9999 247,1471 248,140
249,10 258,10 260,20 261,180
262,40 274,10 290,10 291,10
292,480 293,110 294,100 295,20
296,10 322,70 323,10 336,10
338,10 365,10 366,10 367,10
368,10
##END=
