##TITLE=Chlorophacinone
##JCAMP-DX=4.24
##DATA TYPE=MASS SPECTRUM
##ORIGIN=MASS SPECTROMETRY CENTER, UNIV. OF UTAH EPA-PTSEL 1425
##OWNER=NIST Mass Spectrometry Data Center
Collection (C) 2014 copyright by the U.S. Secretary of Commerce
on behalf of the United States of America. All rights reserved.
##CAS REGISTRY NO=3691-35-8
##$NIST MASS SPEC NO=59446
##MOLFORM=C23 H15 Cl O3
##MW=374
##$NIST SOURCE=MSDC
##XUNITS=M/Z
##YUNITS=RELATIVE INTENSITY
##XFACTOR=1
##YFACTOR=1
##FIRSTX=28
##LASTX=378
##FIRSTY=124
##MAXX=378
##MINX=28
##MAXY=9999
##MINY=5
##NPOINTS=107
##PEAK TABLE=(XY..XY)
28,124 36,6 39,253 41,5
50,148 51,219 57,5 62,56
63,344 64,12 65,32 69,86
73,13 74,70 75,165 76,203
77,623 78,37 86,5 87,44
88,75 89,1129 90,148 91,12
99,6 101,185 102,20 104,123
105,548 106,43 113,84 114,5
115,97 116,5 117,178 118,5
119,11 125,84 126,44 127,12
129,6 131,23 132,155 133,23
137,5 138,26 139,165 140,12
146,39 151,36 152,72 161,31
162,5 163,230 164,291 165,1938
166,1092 167,865 168,211 169,6
172,450 173,9999 174,1823 175,242
176,107 177,13 178,28 187,13
189,33 199,89 200,28 201,1109
202,795 203,474 204,302 205,27
228,14 250,6 252,15 261,6
263,146 264,7 265,148 281,13
292,5 293,26 299,319 300,45
301,129 320,13 321,15 322,5
340,53 343,13 344,6 345,11
355,68 356,527 357,158 358,219
359,16 372,56 374,1899 375,511
376,681 377,200 378,11
##END=
