##TITLE=Azulene, 1,2,3,5,6,7,8,8a-octahydro-1,4-dimethyl-7-(1-methylethenyl)-, [1S-(1.alpha.,7.alpha.,8a.beta.)]-
##JCAMP-DX=4.24
##DATA TYPE=MASS SPECTRUM
##OWNER=NIST Mass Spectrometry Data Center
Collection (C) 2014 copyright by the U.S. Secretary of Commerce
on behalf of the United States of America. All rights reserved.
##CAS REGISTRY NO=3691-11-0
##$NIST MASS SPEC NO=9227
##MOLFORM=C15 H24
##MW=204
##$NIST SOURCE=MSDC
##XUNITS=M/Z
##YUNITS=RELATIVE INTENSITY
##XFACTOR=1
##YFACTOR=1
##FIRSTX=15
##LASTX=206
##FIRSTY=50
##MAXX=206
##MINX=15
##MAXY=9999
##MINY=50
##NPOINTS=112
##PEAK TABLE=(XY..XY)
15,50 26,110 27,1591 29,2082
37,60 38,80 39,2542 40,571
41,6366 42,460 43,1551 50,150
51,611 52,420 53,2702 54,330
55,4724 56,240 57,340 58,60
59,80 63,260 64,180 65,1471
66,611 67,3423 68,1001 69,1782
70,150 71,110 72,90 73,60
74,70 75,220 76,120 77,3613
78,971 79,6406 80,1451 81,5835
82,751 83,290 84,80 85,80
87,110 88,80 89,200 90,130
91,5525 92,1201 93,9729 94,2612
95,5005 96,721 97,200 102,110
103,440 104,280 105,5665 106,2342
107,9999 108,9158 109,3163 110,300
111,100 115,470 116,240 117,671
118,200 119,3283 120,1311 121,3583
122,1221 123,1171 124,140 125,80
127,110 128,240 129,220 130,130
131,500 132,180 133,3123 134,1391
135,4724 136,971 137,100 141,60
142,50 143,70 144,60 145,300
146,180 147,3363 148,2983 149,831
150,80 159,120 160,90 161,1892
162,561 163,130 175,420 176,140
188,50 189,3894 190,581 191,60
202,70 204,2582 205,450 206,50
##END=
