##TITLE=Benzene, 1-chloro-4-(2-cyano-2-phenylethenyl)
##JCAMP-DX=4.24
##DATA TYPE=MASS SPECTRUM
##ORIGIN=NIST Mass Spectrometry Data Center, 1994
##OWNER=NIST Mass Spectrometry Data Center
Collection (C) 2014 copyright by the U.S. Secretary of Commerce
on behalf of the United States of America. All rights reserved.
##CAS REGISTRY NO=3695-92-9
##$NIST MASS SPEC NO=135740
##MOLFORM=C15 H10 Cl N
##MW=239
##$NIST SOURCE=MSDC
##XUNITS=M/Z
##YUNITS=RELATIVE INTENSITY
##XFACTOR=1
##YFACTOR=1
##FIRSTX=17
##LASTX=243
##FIRSTY=33
##MAXX=243
##MINX=17
##MAXY=9999
##MINY=21
##NPOINTS=123
##PEAK TABLE=(XY..XY)
17,33 18,91 26,28 27,104
28,84 35,57 36,43 37,117
38,353 39,1027 40,74 47,25
49,103 50,1317 51,2094 52,425
53,27 60,37 61,243 62,601
63,1058 64,190 65,105 67,47
68,45 72,47 73,245 74,626
75,1795 76,768 77,800 78,480
79,42 80,28 81,37 84,50
85,157 86,323 87,894 88,3069
90,64 92,28 93,108 94,49
97,83 98,269 99,511 100,394
101,856 102,887 106,292 107,98
108,21 109,43 110,102 111,203
112,116 113,222 114,171 115,48
120,61 121,34 122,78 123,168
124,118 125,268 126,439 127,255
128,69 134,42 135,51 136,94
137,154 138,137 139,129 140,99
147,36 148,48 149,254 150,590
151,700 152,435 153,95 160,36
161,147 162,76 163,200 164,254
165,49 173,58 174,297 175,822
176,2006 177,2471 178,638 179,60
186,28 187,43 188,101 189,90
190,105 199,194 201,854 202,1332
203,4533 204,9999 205,1410 206,137
210,27 211,61 212,160 213,60
214,60 224,391 225,77 226,144
227,23 238,894 239,5451 240,1144
241,1864 242,323 243,27
##END=
