##TITLE=1-Hydroxy-3-methyl-2-butanone
##JCAMP-DX=4.24
##DATA TYPE=MASS SPECTRUM
##ORIGIN=M. PECHAL, SHOE & LEATHER RES. INST., GOTTWALDOV, CZ
##OWNER=NIST Mass Spectrometry Data Center
Collection (C) 2014 copyright by the U.S. Secretary of Commerce
on behalf of the United States of America. All rights reserved.
##CAS REGISTRY NO=36960-22-2
##$NIST MASS SPEC NO=90641
##MOLFORM=C5 H10 O2
##MW=102
##$NIST SOURCE=MSDC
##XUNITS=M/Z
##YUNITS=RELATIVE INTENSITY
##XFACTOR=1
##YFACTOR=1
##FIRSTX=15
##LASTX=102
##FIRSTY=280
##MAXX=102
##MINX=15
##MAXY=9999
##MINY=120
##NPOINTS=33
##PEAK TABLE=(XY..XY)
15,280 17,300 18,1560 26,210
27,1790 28,1860 29,700 30,150
31,1620 32,170 38,130 39,880
40,240 41,2850 42,440 43,9999
44,390 45,1010 51,120 53,190
55,300 57,530 58,220 59,170
66,140 67,190 69,420 70,600
71,5160 72,250 84,330 87,140
102,120
##END=
