##TITLE=Chrysene, 5-methyl-
##JCAMP-DX=4.24
##DATA TYPE=MASS SPECTRUM
##ORIGIN=CONTINENTAL OIL CO., PONCA CITY, OKLAHOMA, USA
##OWNER=NIST Mass Spectrometry Data Center
Collection (C) 2014 copyright by the U.S. Secretary of Commerce
on behalf of the United States of America. All rights reserved.
##CAS REGISTRY NO=3697-24-3
##$NIST MASS SPEC NO=58830
##MOLFORM=C19 H14
##MW=242
##$NIST SOURCE=MSDC
##XUNITS=M/Z
##YUNITS=RELATIVE INTENSITY
##XFACTOR=1
##YFACTOR=1
##FIRSTX=13
##LASTX=246
##FIRSTY=6
##MAXX=246
##MINX=13
##MAXY=9999
##MINY=2
##NPOINTS=143
##PEAK TABLE=(XY..XY)
13,6 14,16 15,49 16,8
26,5 27,16 28,3 29,35
30,7 38,7 39,65 40,8
41,15 42,4 43,34 44,8
50,32 51,33 52,7 61,16
62,32 63,65 64,14 65,2
73,15 74,32 75,36 76,6
78,4 79,28 80,41 81,36
82,7 85,11 86,65 87,114
88,47 89,36 90,7 91,7
93,32 94,114 95,64 96,20
97,4 98,7 99,26 100,125
101,96 102,10 103,2 105,38
106,195 107,683 108,447 109,33
110,26 111,39 112,32 113,71
114,195 115,32 116,16 117,17
118,258 119,927 120,1754 121,553
122,228 123,32 126,9 127,7
128,5 134,10 135,13 136,5
137,27 138,5 139,34 140,8
146,6 149,14 150,65 151,32
152,9 153,2 159,6 160,37
161,32 162,16 163,74 164,32
165,89 166,12 173,6 174,36
175,32 176,39 177,11 178,8
185,12 186,32 187,119 188,46
189,121 190,31 191,4 198,34
199,28 200,114 201,65 202,146
203,25 204,5 210,11 211,96
212,65 213,291 214,114 215,1073
216,195 217,32 218,8 223,25
224,146 225,114 226,720 227,232
228,65 229,14 230,5 235,44
236,65 237,398 238,276 239,2813
240,1415 241,3903 242,9999 243,1903
244,173 245,16 246,4
##END=
