##TITLE=Octane, 1-(propylthio)-
##JCAMP-DX=4.24
##DATA TYPE=MASS SPECTRUM
##ORIGIN=GAZ DE FRANCE D.E.T.N., B.P. 33, LA PLAINE ST. DENIS, FRANCE
##OWNER=NIST Mass Spectrometry Data Center
Collection (C) 2014 copyright by the U.S. Secretary of Commerce
on behalf of the United States of America. All rights reserved.
##CAS REGISTRY NO=3698-93-9
##$NIST MASS SPEC NO=8082
##MOLFORM=C11 H24 S
##MW=188
##$NIST SOURCE=MSDC
##XUNITS=M/Z
##YUNITS=RELATIVE INTENSITY
##XFACTOR=1
##YFACTOR=1
##FIRSTX=26
##LASTX=190
##FIRSTY=133
##MAXX=190
##MINX=26
##MAXY=9999
##MINY=22
##NPOINTS=80
##PEAK TABLE=(XY..XY)
26,133 27,3222 29,4148 30,156
39,1755 40,1370 41,7703 42,5703
43,9999 44,778 45,815 46,556
47,2274 48,378 49,333 53,3778
54,3778 55,5703 56,4148 57,2592
58,200 59,222 60,600 61,3866
62,156 63,200 64,67 65,67
66,67 67,489 68,644 69,630
70,3555 71,956 72,57 73,200
74,444 75,815 76,4466 77,1578
78,244 79,111 81,133 82,556
83,1415 84,1844 85,200 87,333
88,67 89,4244 90,511 91,311
97,244 101,133 102,67 103,1022
104,133 105,44 108,156 110,44
111,178 112,1622 113,133 114,44
115,67 117,266 131,400 145,7333
146,822 147,378 150,156 159,696
160,74 161,22 173,674 174,74
187,130 188,3866 189,489 190,133
##END=
