##TITLE=1,3-Dichloro-4,6-dinitrobenzene
##JCAMP-DX=4.24
##DATA TYPE=MASS SPECTRUM
##ORIGIN=NIST Mass Spectrometry Data Center
##OWNER=NIST Mass Spectrometry Data Center
Collection (C) 2014 copyright by the U.S. Secretary of Commerce
on behalf of the United States of America. All rights reserved.
##CAS REGISTRY NO=3698-83-7
##$NIST MASS SPEC NO=343242
##MOLFORM=C6 H2 Cl2 N2 O4
##MW=236
##$NIST SOURCE=MSDC
##XUNITS=M/Z
##YUNITS=RELATIVE INTENSITY
##XFACTOR=1
##YFACTOR=1
##FIRSTX=12
##LASTX=241
##FIRSTY=10
##MAXX=241
##MINX=12
##MAXY=9999
##MINY=10
##NPOINTS=125
##PEAK TABLE=(XY..XY)
12,10 16,90 18,30 25,30
28,10 30,9999 35,90 36,150
37,550 38,200 39,20 44,10
46,550 47,150 48,60 49,230
50,230 51,60 52,20 53,220
54,10 55,10 60,180 61,571
62,581 63,170 64,40 65,30
71,100 72,360 73,1061 74,3053
75,340 76,90 77,20 84,941
85,170 86,490 87,250 88,180
89,40 90,20 92,10 94,60
95,60 96,180 97,1371 98,210
99,460 100,60 102,10 103,10
105,10 106,10 107,140 108,1011
109,2282 110,761 111,781 112,160
113,320 114,80 115,110 116,20
118,60 119,60 120,140 121,50
122,90 123,140 124,60 125,150
126,20 127,50 132,370 133,90
134,260 135,40 136,50 138,70
140,170 141,651 142,110 143,621
144,1702 145,410 146,1051 147,150
148,420 149,40 150,220 151,20
152,70 158,10 159,20 160,160
161,100 162,120 163,60 164,20
165,10 173,20 174,50 175,70
176,100 177,40 178,60 179,10
180,10 189,10 190,20 192,10
206,651 207,50 208,470 209,20
210,70 220,80 222,50 236,1702
237,150 238,1121 239,80 240,170
241,10
##END=
