##TITLE=1-(2-Hydroxyethyl)-2-imidazolidinone
##JCAMP-DX=4.24
##DATA TYPE=MASS SPECTRUM
##ORIGIN=NIST Mass Spectrometry Data Center
##OWNER=NIST Mass Spectrometry Data Center
Collection (C) 2014 copyright by the U.S. Secretary of Commerce
on behalf of the United States of America. All rights reserved.
##CAS REGISTRY NO=3699-54-5
##$NIST MASS SPEC NO=340872
##MOLFORM=C5 H10 N2 O2
##MW=130
##$NIST SOURCE=MSDC
##XUNITS=M/Z
##YUNITS=RELATIVE INTENSITY
##XFACTOR=1
##YFACTOR=1
##FIRSTX=14
##LASTX=131
##FIRSTY=10
##MAXX=131
##MINX=14
##MAXY=9999
##MINY=10
##NPOINTS=51
##PEAK TABLE=(XY..XY)
14,10 15,280 16,10 18,30
19,30 26,100 27,510 28,1171
29,851 30,1111 31,430 38,10
39,40 40,160 41,530 42,1812
43,561 44,530 45,210 52,30
53,10 54,220 55,230 56,3853
57,250 58,150 59,50 60,10
68,30 69,80 70,1401 71,210
72,80 73,20 74,20 81,10
83,40 84,30 85,370 86,260
87,80 97,10 99,9999 100,3073
101,170 111,20 112,120 113,10
129,10 130,490 131,40
##END=
