##TITLE=Phenol, 4-[2-(methylamino)ethyl]-
##JCAMP-DX=4.24
##DATA TYPE=MASS SPECTRUM
##ORIGIN=K.L.STUART UNIV. OF THE WEST INDIES, KINGSTON, JAMAICA
##OWNER=NIST Mass Spectrometry Data Center
Collection (C) 2014 copyright by the U.S. Secretary of Commerce
on behalf of the United States of America. All rights reserved.
##CAS REGISTRY NO=370-98-9
##$NIST MASS SPEC NO=38439
##MOLFORM=C9 H13 N O
##MW=151
##$NIST SOURCE=MSDC
##XUNITS=M/Z
##YUNITS=RELATIVE INTENSITY
##XFACTOR=1
##YFACTOR=1
##FIRSTX=15
##LASTX=151
##FIRSTY=10
##MAXX=151
##MINX=15
##MAXY=9999
##MINY=10
##NPOINTS=9
##PEAK TABLE=(XY..XY)
15,10 28,20 44,9999 77,60
91,20 107,150 108,130 121,40
151,220
##END=
