##TITLE=Pholedrine
##JCAMP-DX=4.24
##DATA TYPE=MASS SPECTRUM
##ORIGIN=Dr. Jiri Zamecnik, DCIEM, North York, Canada, GP Library
##OWNER=NIST Mass Spectrometry Data Center
Collection (C) 2014 copyright by the U.S. Secretary of Commerce
on behalf of the United States of America. All rights reserved.
##CAS REGISTRY NO=370-14-9
##$NIST MASS SPEC NO=123946
##MOLFORM=C10 H15 N O
##MW=165
##$NIST SOURCE=MSDC
##XUNITS=M/Z
##YUNITS=RELATIVE INTENSITY
##XFACTOR=1
##YFACTOR=1
##FIRSTX=39
##LASTX=164
##FIRSTY=300
##MAXX=164
##MINX=39
##MAXY=9999
##MINY=30
##NPOINTS=24
##PEAK TABLE=(XY..XY)
39,300 41,250 42,770 43,400
53,180 56,830 58,9999 65,150
75,130 77,650 78,150 91,130
105,60 107,750 108,100 119,30
120,40 133,70 134,50 135,90
148,40 149,50 150,110 164,50
##END=
