##TITLE=(-)-1,4-Ditosyl-2,3-O-isopropylidene-L-threitol
##JCAMP-DX=4.24
##DATA TYPE=MASS SPECTRUM
##ORIGIN=Japan AIST/NIMC Database- Spectrum MS-NW-9888
##OWNER=NIST Mass Spectrometry Data Center
Collection (C) 2014 copyright by the U.S. Secretary of Commerce
on behalf of the United States of America. All rights reserved.
##CAS REGISTRY NO=37002-45-2
##$NIST MASS SPEC NO=239097
##MOLFORM=C21 H26 O8 S2
##MW=470
##$NIST SOURCE=MSDC
##XUNITS=M/Z
##YUNITS=RELATIVE INTENSITY
##XFACTOR=1
##YFACTOR=1
##FIRSTX=15
##LASTX=472
##FIRSTY=60
##MAXX=472
##MINX=15
##MAXY=9999
##MINY=10
##NPOINTS=183
##PEAK TABLE=(XY..XY)
15,60 26,10 27,109 28,199
29,109 30,20 31,119 32,30
38,20 39,359 40,50 41,439
42,99 43,2569 44,159 45,90
48,20 50,60 51,129 52,40
53,50 54,20 55,349 56,99
57,199 58,90 59,439 60,50
61,50 62,50 63,209 64,80
65,1259 66,80 67,50 68,129
69,3529 70,209 71,80 72,10
73,149 74,20 75,20 76,20
77,269 78,60 79,229 80,60
81,20 82,10 83,199 84,159
85,609 86,139 87,80 88,10
89,399 90,449 91,9119 92,1029
93,70 94,10 95,1099 96,80
97,30 98,30 99,40 100,70
101,99 103,20 104,10 105,199
106,30 107,639 108,489 109,60
110,10 111,189 112,20 113,3339
114,229 115,459 116,30 117,20
118,10 119,30 121,20 122,10
123,30 124,90 125,30 126,1339
127,249 128,30 129,2929 130,199
131,50 132,20 133,10 134,10
139,419 140,80 141,30 142,10
143,20 145,10 146,20 147,10
149,10 150,60 151,10 154,50
155,9999 156,1159 157,629 158,60
159,20 165,20 166,10 167,10
169,10 171,50 172,1149 173,409
174,80 175,20 176,20 181,10
182,10 185,30 186,10 197,10
198,20 199,50 204,219 205,30
211,10 213,369 214,50 215,169
216,20 217,10 223,10 227,3549
228,519 229,219 230,20 234,10
240,90 241,479 242,60 243,30
245,10 258,10 261,10 270,40
278,20 283,30 284,10 285,779
286,119 287,50 298,30 299,40
300,30 301,50 318,10 325,10
327,149 328,20 329,10 369,10
412,40 413,20 454,10 455,7539
456,1809 457,989 458,199 459,50
470,179 471,70 472,30
##END=
