##TITLE=Thiosulfuric acid (H2S2O3), S-[2-[(tetrahydro-1,1-dioxido-3-thienyl)amino]ethyl] ester
##JCAMP-DX=4.24
##DATA TYPE=MASS SPECTRUM
##ORIGIN=Div. of Experiment Therapeutics WRAIR, WRAMC, Washington DC 20307
##OWNER=NIST Mass Spectrometry Data Center
Collection (C) 2014 copyright by the U.S. Secretary of Commerce
on behalf of the United States of America. All rights reserved.
##CAS REGISTRY NO=37018-35-2
##$NIST MASS SPEC NO=253664
##MOLFORM=C6 H13 N O5 S3
##MW=275
##$NIST SOURCE=MSDC
##XUNITS=M/Z
##YUNITS=RELATIVE INTENSITY
##XFACTOR=1
##YFACTOR=1
##FIRSTX=41
##LASTX=276
##FIRSTY=2518
##MAXX=276
##MINX=41
##MAXY=9999
##MINY=7
##NPOINTS=184
##PEAK TABLE=(XY..XY)
41,2518 42,3471 43,9999 44,912
45,3039 46,774 48,6329 50,903
51,577 53,2843 54,1811 55,4106
56,4697 57,369 58,1278 59,1383
60,1475 61,1309 62,513 64,9645
65,603 66,486 68,709 69,913
70,892 71,334 72,339 73,258
74,137 76,422 77,375 78,223
80,300 81,232 82,296 83,53
84,222 85,246 86,105 87,487
89,2555 90,155 91,144 92,123
93,131 94,99 96,208 97,66
98,118 99,107 101,306 102,283
103,346 104,69 105,73 106,98
107,24 108,56 109,399 110,33
111,130 112,119 113,83 115,339
116,121 118,627 119,606 120,95
121,77 124,308 125,113 126,94
127,165 128,102 129,86 130,99
131,79 133,180 136,1704 137,270
138,68 139,40 140,17 141,71
142,60 143,51 144,56 145,15
146,65 148,4911 149,167 150,465
151,33 152,108 153,44 154,37
156,88 157,76 158,114 159,22
160,75 161,38 162,294 163,42
164,40 165,39 166,25 168,79
169,32 170,155 171,77 172,115
173,50 174,34 175,12 176,44
177,24 178,31 179,11 180,35
181,26 182,11 183,66 184,29
185,31 186,55 188,21 189,27
190,11 191,75 192,14 193,30
194,167 195,129 196,294 197,67
198,47 199,8 200,25 201,14
202,15 203,18 204,19 205,12
206,68 207,40 208,15 209,24
210,17 211,24 212,17 213,19
214,13 215,9 216,14 217,16
218,17 219,53 220,24 221,8
222,29 224,51 225,95 226,51
227,116 228,34 229,15 230,11
233,15 235,15 236,13 237,8
238,13 239,24 241,23 242,16
243,7 256,16 257,51 259,29
260,7 274,7 275,20 276,10
##END=
