##TITLE=Ethanethiol, 2-(1-adamantyl)amino-, hydrogen sulfate
##JCAMP-DX=4.24
##DATA TYPE=MASS SPECTRUM
##ORIGIN=Div. of Experiment Therapeutics WRAIR, WRAMC, Washington DC 20307
##OWNER=NIST Mass Spectrometry Data Center
Collection (C) 2014 copyright by the U.S. Secretary of Commerce
on behalf of the United States of America. All rights reserved.
##CAS REGISTRY NO=37018-31-8
##$NIST MASS SPEC NO=257450
##MOLFORM=C12 H21 N O3 S2
##MW=291
##$NIST SOURCE=MSDC
##XUNITS=M/Z
##YUNITS=RELATIVE INTENSITY
##XFACTOR=1
##YFACTOR=1
##FIRSTX=41
##LASTX=291
##FIRSTY=1274
##MAXX=291
##MINX=41
##MAXY=9999
##MINY=8
##NPOINTS=119
##PEAK TABLE=(XY..XY)
41,1274 42,383 43,217 44,150
45,156 46,42 47,88 48,1481
49,10 50,90 51,95 52,68
53,367 54,189 55,655 56,153
57,342 58,222 59,160 60,140
61,512 62,8 63,20 64,2651
65,307 66,280 67,999 68,161
69,251 70,146 71,21 75,9
76,71 77,815 78,204 79,1870
80,278 81,588 82,143 83,38
84,36 85,29 86,11 88,56
90,10 91,697 92,176 93,1758
94,2928 95,823 96,95 97,19
98,8 99,8 101,29 102,32
103,32 104,29 105,130 106,262
107,751 108,278 109,77 110,38
111,8 114,35 115,34 116,32
117,47 118,39 119,48 120,266
121,81 122,179 123,20 126,8
131,18 133,43 134,159 135,9999
136,1053 137,62 150,61 151,413
152,222 153,137 154,157 155,8
162,64 163,38 164,5437 165,616
166,54 168,30 172,8 176,9
177,153 178,895 179,145 181,11
182,22 208,78 209,91 210,348
211,336 212,109 213,17 221,74
222,19 235,8 241,57 242,34
243,1222 244,171 245,127 246,19
248,80 275,104 291,24
##END=
