##TITLE=Benzoic acid, 2-(methylthio)-, methyl ester
##JCAMP-DX=4.24
##DATA TYPE=MASS SPECTRUM
##ORIGIN=NIST Mass Spectrometry Data Center
##OWNER=NIST Mass Spectrometry Data Center
Collection (C) 2014 copyright by the U.S. Secretary of Commerce
on behalf of the United States of America. All rights reserved.
##CAS REGISTRY NO=3704-28-7
##$NIST MASS SPEC NO=352977
##MOLFORM=C9 H10 O2 S
##MW=182
##$NIST SOURCE=MSDC
##XUNITS=M/Z
##YUNITS=RELATIVE INTENSITY
##XFACTOR=1
##YFACTOR=1
##FIRSTX=14
##LASTX=185
##FIRSTY=20
##MAXX=185
##MINX=14
##MAXY=9999
##MINY=10
##NPOINTS=113
##PEAK TABLE=(XY..XY)
14,20 15,360 16,10 26,20
27,50 28,40 29,210 30,60
31,50 32,10 37,60 38,150
39,370 40,20 41,20 43,10
45,3153 46,240 47,240 48,20
49,60 50,861 51,771 52,110
53,110 54,20 55,10 56,10
57,60 58,280 59,140 60,70
61,130 62,210 63,751 64,210
65,320 66,40 67,10 69,1431
70,200 71,140 72,20 73,90
74,530 75,460 76,851 77,2222
78,881 79,881 80,70 81,290
82,771 83,90 84,80 85,20
86,10 87,10 89,140 90,130
91,971 92,360 93,170 94,30
95,170 96,410 97,190 98,30
99,10 103,20 104,430 105,1411
106,200 107,190 108,2522 109,781
110,170 111,90 112,10 117,10
118,90 119,390 120,90 121,4234
122,3954 123,1221 124,300 125,60
126,10 133,150 134,40 135,260
136,901 137,1071 138,150 139,110
140,10 149,1071 150,3653 151,9999
152,2612 153,651 154,120 155,10
165,290 167,3083 168,300 169,160
170,10 182,8508 183,941 184,480
185,40
##END=
