##TITLE=3-Benzylquinoline
##JCAMP-DX=4.24
##DATA TYPE=MASS SPECTRUM
##ORIGIN=E.V.BROWN, DEP. CHEM., UNIV. KENTUCKY, LEXINGTON, KENTUCKY,U
##OWNER=NIST Mass Spectrometry Data Center
Collection (C) 2014 copyright by the U.S. Secretary of Commerce
on behalf of the United States of America. All rights reserved.
##CAS REGISTRY NO=37045-16-2
##$NIST MASS SPEC NO=72702
##MOLFORM=C16 H13 N
##MW=219
##$NIST SOURCE=MSDC
##XUNITS=M/Z
##YUNITS=RELATIVE INTENSITY
##XFACTOR=1
##YFACTOR=1
##FIRSTX=91
##LASTX=220
##FIRSTY=800
##MAXX=220
##MINX=91
##MAXY=9999
##MINY=400
##NPOINTS=9
##PEAK TABLE=(XY..XY)
91,800 189,800 203,400 204,500
216,800 217,2900 218,9900 219,9999
220,2100
##END=
