##TITLE=Dichloroacetic acid, pentyl ester
##JCAMP-DX=4.24
##DATA TYPE=MASS SPECTRUM
##ORIGIN=V.G.Zaikin, Petrochem. Synth. Inst., Moscow
##OWNER=NIST Mass Spectrometry Data Center
Collection (C) 2014 copyright by the U.S. Secretary of Commerce
on behalf of the United States of America. All rights reserved.
##CAS REGISTRY NO=37079-03-1
##$NIST MASS SPEC NO=280478
##MOLFORM=C7 H12 Cl2 O2
##MW=198
##$NIST SOURCE=MSDC
##XUNITS=M/Z
##YUNITS=RELATIVE INTENSITY
##XFACTOR=1
##YFACTOR=1
##FIRSTX=26
##LASTX=115
##FIRSTY=120
##MAXX=115
##MINX=26
##MAXY=9999
##MINY=30
##NPOINTS=46
##PEAK TABLE=(XY..XY)
26,120 27,1221 28,310 29,2092
30,90 31,110 35,110 36,190
37,110 38,180 39,971 40,210
41,2813 42,2913 43,9999 44,591
45,70 47,120 48,460 49,170
50,250 51,180 52,60 53,180
54,60 55,2612 56,250 57,190
69,410 70,1872 71,3313 72,250
73,40 76,661 77,110 78,230
79,80 83,1071 84,30 85,731
86,50 87,110 111,160 112,30
113,130 115,30
##END=
