##TITLE=7-Hydroxyamoxapine
##JCAMP-DX=4.24
##DATA TYPE=MASS SPECTRUM
##ORIGIN=Patti Price, Georgia Bureau of Investigation, Decatur, Georgia
##OWNER=NIST Mass Spectrometry Data Center
Collection (C) 2014 copyright by the U.S. Secretary of Commerce
on behalf of the United States of America. All rights reserved.
##CAS REGISTRY NO=37081-76-8
##$NIST MASS SPEC NO=248544
##MOLFORM=C17 H16 Cl N3 O2
##MW=329
##$NIST SOURCE=MSDC
##XUNITS=M/Z
##YUNITS=RELATIVE INTENSITY
##XFACTOR=1
##YFACTOR=1
##FIRSTX=41
##LASTX=329
##FIRSTY=1070
##MAXX=329
##MINX=41
##MAXY=9999
##MINY=140
##NPOINTS=60
##PEAK TABLE=(XY..XY)
41,1070 42,4053 44,1211 50,870
51,1781 52,2392 53,1561 54,810
56,9999 58,1811 62,650 63,2862
65,870 69,1701 75,2632 76,580
77,650 78,820 79,580 80,1471
81,270 85,1311 87,690 108,630
111,300 112,310 114,330 122,250
123,450 124,760 125,780 126,2131
127,1261 152,1561 153,2972 176,210
178,140 179,490 188,500 204,250
209,7036 210,1361 216,610 217,700
238,280 239,310 243,370 244,2111
245,1241 246,1551 260,4994 261,6145
262,2402 263,3012 273,3563 274,1050
275,1050 285,900 287,1050 329,1121
##END=
