##TITLE=Arsine, bis(trifluoromethyl)-
##JCAMP-DX=4.24
##DATA TYPE=MASS SPECTRUM
##ORIGIN=A.Pleshkova, Nesmeyanov Inst.Org.Elem.Cpds, Moscow
##OWNER=NIST Mass Spectrometry Data Center
Collection (C) 2014 copyright by the U.S. Secretary of Commerce
on behalf of the United States of America. All rights reserved.
##CAS REGISTRY NO=371-74-4
##$NIST MASS SPEC NO=284327
##MOLFORM=C2 H As F6
##MW=214
##$NIST SOURCE=MSDC
##XUNITS=M/Z
##YUNITS=RELATIVE INTENSITY
##XFACTOR=1
##YFACTOR=1
##FIRSTX=31
##LASTX=215
##FIRSTY=951
##MAXX=215
##MINX=31
##MAXY=9999
##MINY=10
##NPOINTS=27
##PEAK TABLE=(XY..XY)
31,951 32,10 50,270 51,4504
52,50 69,9999 70,110 75,1491
76,500 94,2702 95,1581 113,7797
125,2122 126,4644 127,60 144,2612
145,1131 146,10 163,450 164,10
175,270 176,10 194,360 195,230
196,10 214,3383 215,80
##END=
