##TITLE=p-Fluoroaniline
##JCAMP-DX=4.24
##DATA TYPE=MASS SPECTRUM
##ORIGIN=Japan AIST/NIMC Database- Spectrum MS-NW- 998
##OWNER=NIST Mass Spectrometry Data Center
Collection (C) 2014 copyright by the U.S. Secretary of Commerce
on behalf of the United States of America. All rights reserved.
##CAS REGISTRY NO=371-40-4
##$NIST MASS SPEC NO=230447
##MOLFORM=C6 H6 F N
##MW=111
##$NIST SOURCE=MSDC
##XUNITS=M/Z
##YUNITS=RELATIVE INTENSITY
##XFACTOR=1
##YFACTOR=1
##FIRSTX=26
##LASTX=113
##FIRSTY=30
##MAXX=113
##MINX=26
##MAXY=9999
##MINY=10
##NPOINTS=69
##PEAK TABLE=(XY..XY)
26,30 27,50 28,119 29,10
31,179 32,20 33,50 36,20
37,109 38,149 39,239 40,70
41,259 42,30 44,50 45,109
46,20 48,30 49,40 50,129
51,129 52,269 53,50 54,90
55,359 56,149 57,669 58,109
59,30 60,20 61,109 62,139
63,339 64,639 65,249 66,40
67,40 68,40 69,40 70,50
71,20 72,80 73,10 74,50
75,99 76,30 78,30 80,40
81,169 82,169 83,1829 84,3009
85,289 86,10 88,10 89,40
90,80 91,389 92,70 93,10
94,109 95,70 96,40 108,20
109,70 110,609 111,9999 112,689
113,20
##END=
