##TITLE=2,2,2-Trifluoroethylbutyrate
##JCAMP-DX=4.24
##DATA TYPE=MASS SPECTRUM
##ORIGIN=A.Pleshkova, Nesmeyanov Inst.Org.Elem.Cpds, Moscow
##OWNER=NIST Mass Spectrometry Data Center
Collection (C) 2014 copyright by the U.S. Secretary of Commerce
on behalf of the United States of America. All rights reserved.
##CAS REGISTRY NO=371-27-7
##$NIST MASS SPEC NO=283954
##MOLFORM=C6 H9 F3 O2
##MW=170
##$NIST SOURCE=MSDC
##XUNITS=M/Z
##YUNITS=RELATIVE INTENSITY
##XFACTOR=1
##YFACTOR=1
##FIRSTX=39
##LASTX=171
##FIRSTY=530
##MAXX=171
##MINX=39
##MAXY=9999
##MINY=30
##NPOINTS=50
##PEAK TABLE=(XY..XY)
39,530 40,751 41,5675 42,3453
43,5895 44,631 45,681 46,90
50,450 51,581 52,210 55,3003
56,250 57,260 58,100 59,440
60,70 61,240 63,500 64,2072
69,4064 71,7617 72,611 73,80
74,841 75,90 77,871 78,260
80,711 81,80 83,6045 84,230
87,310 113,290 122,3373 123,220
127,2552 128,70 135,3023 136,220
142,9999 143,901 144,90 149,60
151,340 155,4574 156,310 169,80
170,290 171,30
##END=
