##TITLE=Ethanol, 2-fluoro-
##JCAMP-DX=4.24
##DATA TYPE=MASS SPECTRUM
##OWNER=NIST Mass Spectrometry Data Center
Collection (C) 2014 copyright by the U.S. Secretary of Commerce
on behalf of the United States of America. All rights reserved.
##CAS REGISTRY NO=371-62-0
##$NIST MASS SPEC NO=185
##MOLFORM=C2 H5 F O
##MW=64
##$NIST SOURCE=MSDC
##XUNITS=M/Z
##YUNITS=RELATIVE INTENSITY
##XFACTOR=1
##YFACTOR=1
##FIRSTX=12
##LASTX=65
##FIRSTY=10
##MAXX=65
##MINX=12
##MAXY=9999
##MINY=10
##NPOINTS=35
##PEAK TABLE=(XY..XY)
12,10 13,40 14,140 15,651
16,20 17,220 18,1021 19,110
25,30 26,130 27,681 28,250
29,761 30,120 31,9999 32,190
33,250 34,10 35,30 36,10
37,10 38,40 39,20 40,10
41,40 42,170 43,781 44,240
45,390 46,210 47,220 48,30
63,200 64,1421 65,70
##END=
