##TITLE=Methane, thiobis[trifluoro-
##JCAMP-DX=4.24
##DATA TYPE=MASS SPECTRUM
##OWNER=NIST Mass Spectrometry Data Center
Collection (C) 2014 copyright by the U.S. Secretary of Commerce
on behalf of the United States of America. All rights reserved.
##CAS REGISTRY NO=371-78-8
##$NIST MASS SPEC NO=6723
##MOLFORM=C2 F6 S
##MW=170
##$NIST SOURCE=MSDC
##XUNITS=M/Z
##YUNITS=RELATIVE INTENSITY
##XFACTOR=1
##YFACTOR=1
##FIRSTX=12
##LASTX=172
##FIRSTY=120
##MAXX=172
##MINX=12
##MAXY=9999
##MINY=10
##NPOINTS=27
##PEAK TABLE=(XY..XY)
12,120 19,70 31,681 32,470
33,10 34,20 44,80 50,320
51,130 63,1491 64,30 65,70
66,10 69,9999 70,110 82,1041
83,20 84,50 101,230 102,10
103,20 151,300 152,10 153,20
170,2562 171,80 172,120
##END=
