##TITLE=2-Propanamine, 1-methoxy-
##JCAMP-DX=4.24
##DATA TYPE=MASS SPECTRUM
##ORIGIN=Chuck Anderson, Aldrich Chemical Co.
##OWNER=NIST Mass Spectrometry Data Center
Collection (C) 2014 copyright by the U.S. Secretary of Commerce
on behalf of the United States of America. All rights reserved.
##CAS REGISTRY NO=37143-54-7
##$NIST MASS SPEC NO=108500
##MOLFORM=C4 H11 N O
##MW=89
##$NIST SOURCE=MSDC
##XUNITS=M/Z
##YUNITS=RELATIVE INTENSITY
##XFACTOR=1
##YFACTOR=1
##FIRSTX=14
##LASTX=90
##FIRSTY=25
##MAXX=90
##MINX=14
##MAXY=9999
##MINY=2
##NPOINTS=43
##PEAK TABLE=(XY..XY)
14,25 15,405 16,13 17,23
18,1348 19,4 25,2 26,51
27,295 28,648 29,515 30,393
31,88 32,6 33,27 37,96
38,30 39,166 40,94 41,503
42,1006 43,416 44,9999 45,659
46,17 47,8 52,9 53,3
54,18 55,12 56,212 57,65
58,135 59,46 70,2 71,53
72,23 73,20 74,157 75,3
88,19 89,38 90,46
##END=
