##TITLE=4-Hydroxymandelic acid, 3TMS derivative
##JCAMP-DX=4.24
##DATA TYPE=MASS SPECTRUM
##ORIGIN=G.S. KING, CHEM. PATHOL. DEP., QUEEN CHARLOTTE'S HOSP., LONDON
##OWNER=NIST Mass Spectrometry Data Center
Collection (C) 2014 copyright by the U.S. Secretary of Commerce
on behalf of the United States of America. All rights reserved.
##CAS REGISTRY NO=37148-64-4
##$NIST MASS SPEC NO=71484
##MOLFORM=C17 H32 O4 Si3
##MW=384
##$NIST SOURCE=MSDC
##XUNITS=M/Z
##YUNITS=RELATIVE INTENSITY
##XFACTOR=1
##YFACTOR=1
##FIRSTX=43
##LASTX=371
##FIRSTY=240
##MAXX=371
##MINX=43
##MAXY=9999
##MINY=120
##NPOINTS=54
##PEAK TABLE=(XY..XY)
43,240 44,240 45,720 47,240
49,120 51,120 57,120 59,240
61,120 63,120 72,120 73,4920
74,440 75,920 76,120 77,840
91,120 103,120 105,120 117,120
131,120 133,320 135,120 147,1040
148,120 149,120 151,120 163,120
177,120 178,120 179,320 191,120
192,120 193,320 194,120 206,120
223,120 237,240 251,240 252,120
253,120 265,120 266,120 267,9999
268,2520 269,1040 270,120 297,120
341,920 342,320 343,120 369,440
370,120 371,120
##END=
