##TITLE=Homovanillic Acid, 2TMS derivative
##JCAMP-DX=4.24
##DATA TYPE=MASS SPECTRUM
##ORIGIN=S. MARKEY UNIV. OF COLO. MED. CTR., DENVER, COLORADO, USA
##OWNER=NIST Mass Spectrometry Data Center
Collection (C) 2014 copyright by the U.S. Secretary of Commerce
on behalf of the United States of America. All rights reserved.
##CAS REGISTRY NO=37148-61-1
##$NIST MASS SPEC NO=15286
##MOLFORM=C15 H26 O4 Si2
##MW=326
##$NIST SOURCE=MSDC
##XUNITS=M/Z
##YUNITS=RELATIVE INTENSITY
##XFACTOR=1
##YFACTOR=1
##FIRSTX=17
##LASTX=328
##FIRSTY=1490
##MAXX=328
##MINX=17
##MAXY=9999
##MINY=30
##NPOINTS=90
##PEAK TABLE=(XY..XY)
17,1490 20,640 27,70 29,90
38,120 39,230 40,670 41,760
43,330 44,420 45,1410 46,70
47,290 51,100 55,90 57,160
58,230 59,660 61,150 65,60
69,60 72,90 73,9999 74,840
75,1790 76,160 77,370 78,50
79,40 89,270 91,170 93,210
95,90 100,60 103,60 104,250
105,180 106,50 107,40 117,160
119,70 133,130 135,170 140,170
147,310 148,190 149,500 150,150
161,60 162,230 163,540 164,180
165,70 166,40 177,120 178,250
179,2160 180,350 181,110 192,60
193,210 194,110 206,480 207,320
208,70 209,3380 210,620 211,160
221,120 223,30 236,70 237,360
238,100 252,410 253,120 267,1910
268,500 269,120 282,270 283,100
296,900 297,210 298,110 311,2260
312,490 313,190 325,80 326,3290
327,780 328,330
##END=
