##TITLE=3,4-Dihydroxyphenylacetic Acid, 3TMS derivative
##JCAMP-DX=4.24
##DATA TYPE=MASS SPECTRUM
##ORIGIN=NIST Mass Spectrometry Data Center
##OWNER=NIST Mass Spectrometry Data Center
Collection (C) 2014 copyright by the U.S. Secretary of Commerce
on behalf of the United States of America. All rights reserved.
##CAS REGISTRY NO=37148-62-2
##$NIST MASS SPEC NO=332727
##MOLFORM=C17 H32 O4 Si3
##MW=384
##$NIST SOURCE=MSDC
##XUNITS=M/Z
##YUNITS=RELATIVE INTENSITY
##XFACTOR=1
##YFACTOR=1
##FIRSTX=15
##LASTX=389
##FIRSTY=10
##MAXX=389
##MINX=15
##MAXY=9999
##MINY=10
##NPOINTS=204
##PEAK TABLE=(XY..XY)
15,10 27,10 29,40 31,20
39,10 42,20 43,240 44,230
45,1832 46,130 47,210 48,10
49,10 50,10 51,30 52,10
53,20 55,50 56,10 57,80
58,120 59,240 60,40 61,110
62,10 63,20 64,10 65,20
66,10 67,10 69,20 70,40
71,70 73,9999 74,1321 75,1982
76,150 77,170 78,60 79,20
81,10 82,10 83,50 84,10
85,30 86,10 87,30 88,10
89,80 90,30 91,140 92,20
93,20 95,30 96,10 97,20
98,10 99,40 101,20 102,40
103,170 104,691 105,210 106,20
107,20 109,20 111,10 113,10
115,110 116,30 117,140 118,60
119,240 120,40 121,50 122,10
123,20 128,10 129,20 131,250
132,50 133,430 134,60 135,210
136,30 137,30 141,10 143,20
144,10 145,50 147,731 148,160
149,791 150,120 151,70 152,10
153,20 157,10 159,30 160,20
161,140 162,60 163,360 164,70
165,60 166,10 167,10 173,10
174,10 175,40 176,30 177,260
179,7347 180,1301 181,420 182,40
183,10 184,10 189,20 190,10
191,90 192,60 193,410 194,70
195,80 196,20 197,10 203,10
204,10 205,30 206,130 207,130
208,40 209,240 210,50 211,30
217,10 219,30 220,10 221,70
222,30 223,140 224,40 225,230
226,50 227,20 233,20 234,10
235,60 237,2202 238,500 239,220
240,30 241,10 249,30 251,310
252,130 253,430 254,100 255,40
256,10 263,10 265,691 267,6506
268,1872 269,741 270,120 271,20
279,10 281,490 282,120 283,60
284,10 294,100 295,40 296,40
297,10 309,20 310,10 311,10
312,10 313,10 324,10 325,10
340,550 341,190 342,90 343,20
353,10 355,50 356,20 357,10
367,10 369,2092 370,701 371,330
372,70 373,20 384,8698 385,3743
386,1802 387,420 388,100 389,20
##END=
