##TITLE=1-Adamantanamine, N,N-dimethyl-
##JCAMP-DX=4.24
##DATA TYPE=MASS SPECTRUM
##OWNER=NIST Mass Spectrometry Data Center
Collection (C) 2014 copyright by the U.S. Secretary of Commerce
on behalf of the United States of America. All rights reserved.
##CAS REGISTRY NO=3717-40-6
##$NIST MASS SPEC NO=7345
##MOLFORM=C12 H21 N
##MW=179
##$NIST SOURCE=MSDC
##XUNITS=M/Z
##YUNITS=RELATIVE INTENSITY
##XFACTOR=1
##YFACTOR=1
##FIRSTX=26
##LASTX=181
##FIRSTY=30
##MAXX=181
##MINX=26
##MAXY=9999
##MINY=10
##NPOINTS=87
##PEAK TABLE=(XY..XY)
26,30 27,100 28,40 29,100
30,40 38,10 39,260 40,50
41,380 42,250 43,70 44,260
45,80 50,60 51,80 52,60
53,130 54,70 55,300 56,180
57,50 58,80 65,150 66,50
67,200 68,70 69,50 70,300
71,200 72,70 73,20 74,20
77,320 78,100 79,480 80,100
81,170 82,70 83,50 84,70
85,1500 86,130 91,300 92,100
93,370 94,160 95,70 96,120
97,20 98,20 99,20 104,50
105,60 106,80 107,460 108,1240
109,320 110,380 111,80 115,50
117,40 118,70 119,70 120,370
121,220 122,9999 123,1320 124,170
125,50 134,60 135,440 136,800
137,140 138,100 139,50 148,30
150,60 151,30 161,40 162,30
163,200 164,250 165,70 178,150
179,2070 180,320 181,60
##END=
