##TITLE=Ethyl 3-hydroxy-4,4,4-trifluorobutyrate
##JCAMP-DX=4.24
##DATA TYPE=MASS SPECTRUM
##ORIGIN=NIST Mass Spectrometry Data Center
##OWNER=NIST Mass Spectrometry Data Center
Collection (C) 2014 copyright by the U.S. Secretary of Commerce
on behalf of the United States of America. All rights reserved.
##CAS REGISTRY NO=372-30-5
##$NIST MASS SPEC NO=343273
##MOLFORM=C6 H9 F3 O3
##MW=186
##$NIST SOURCE=MSDC
##XUNITS=M/Z
##YUNITS=RELATIVE INTENSITY
##XFACTOR=1
##YFACTOR=1
##FIRSTX=12
##LASTX=186
##FIRSTY=20
##MAXX=186
##MINX=12
##MAXY=9999
##MINY=10
##NPOINTS=95
##PEAK TABLE=(XY..XY)
12,20 13,70 14,480 15,1872
16,100 17,20 18,50 19,330
20,20 26,1081 27,4554 28,1832
29,9378 30,460 31,931 32,110
33,100 37,10 39,10 42,2272
43,7897 44,1151 45,4264 46,320
47,490 49,751 50,150 51,1141
52,30 53,80 54,20 55,190
56,50 57,40 60,971 61,280
63,611 64,240 65,661 66,40
67,270 69,1641 71,3283 72,130
73,240 74,100 75,611 76,160
77,1191 79,641 80,170 81,20
83,20 87,40 88,150 89,861
90,40 91,230 92,180 93,841
94,290 95,440 96,360 97,120
99,1141 100,30 101,60 103,10
104,30 107,20 111,30 113,2022
114,80 115,50 117,2212 118,290
120,721 121,891 123,1151 124,70
125,10 138,510 139,591 141,9999
142,470 143,60 157,40 159,2412
160,100 161,10 166,140 167,20
168,60 171,40 186,10
##END=
