##TITLE=Pyridine, 3-fluoro-
##JCAMP-DX=4.24
##DATA TYPE=MASS SPECTRUM
##ORIGIN=NIST Mass Spectrometry Data Center, 1990.
##OWNER=NIST Mass Spectrometry Data Center
Collection (C) 2014 copyright by the U.S. Secretary of Commerce
on behalf of the United States of America. All rights reserved.
##CAS REGISTRY NO=372-47-4
##$NIST MASS SPEC NO=118519
##MOLFORM=C5 H4 F N
##MW=97
##$NIST SOURCE=MSDC
##XUNITS=M/Z
##YUNITS=RELATIVE INTENSITY
##XFACTOR=1
##YFACTOR=1
##FIRSTX=12
##LASTX=99
##FIRSTY=36
##MAXX=99
##MINX=12
##MAXY=9999
##MINY=12
##NPOINTS=55
##PEAK TABLE=(XY..XY)
12,36 13,36 16,17 17,25
18,42 19,35 24,23 25,120
26,327 27,140 28,319 31,480
32,47 33,42 35,15 36,118
37,445 38,617 39,1234 40,111
41,12 43,39 44,666 45,97
46,181 48,118 49,513 50,1592
51,1201 52,417 53,64 55,25
56,106 57,543 58,32 62,48
63,52 64,80 65,18 68,573
69,1230 70,6482 71,964 72,42
74,45 75,249 76,832 77,610
78,258 93,31 94,38 96,1292
97,9999 98,591 99,21
##END=
