##TITLE=Acetic acid, cyano-
##JCAMP-DX=4.24
##DATA TYPE=MASS SPECTRUM
##ORIGIN=NIST Mass Spectrometry Data Center, 1992
##OWNER=NIST Mass Spectrometry Data Center
Collection (C) 2014 copyright by the U.S. Secretary of Commerce
on behalf of the United States of America. All rights reserved.
##CAS REGISTRY NO=372-09-8
##$NIST MASS SPEC NO=125245
##MOLFORM=C3 H3 N O2
##MW=85
##$NIST SOURCE=MSDC
##XUNITS=M/Z
##YUNITS=RELATIVE INTENSITY
##XFACTOR=1
##YFACTOR=1
##FIRSTX=12
##LASTX=85
##FIRSTY=580
##MAXX=85
##MINX=12
##MAXY=9999
##MINY=4
##NPOINTS=32
##PEAK TABLE=(XY..XY)
12,580 13,248 14,264 15,154
16,551 17,166 18,181 24,107
25,221 26,496 28,137 29,255
36,118 38,1715 39,1950 40,5318
41,9999 42,554 43,110 44,8340
45,4421 46,96 51,82 52,72
53,83 67,238 68,1219 69,70
74,4 77,107 79,63 85,554
##END=
