##TITLE=2-Heptanol, 6-amino-2-methyl-
##JCAMP-DX=4.24
##DATA TYPE=MASS SPECTRUM
##ORIGIN=Finnigan MAT: Toxicological Library (LIBR-TX)
##OWNER=NIST Mass Spectrometry Data Center
Collection (C) 2014 copyright by the U.S. Secretary of Commerce
on behalf of the United States of America. All rights reserved.
##CAS REGISTRY NO=372-66-7
##$NIST MASS SPEC NO=120729
##MOLFORM=C8 H19 N O
##MW=145
##$NIST SOURCE=MSDC
##XUNITS=M/Z
##YUNITS=RELATIVE INTENSITY
##XFACTOR=1
##YFACTOR=1
##FIRSTX=41
##LASTX=128
##FIRSTY=412
##MAXX=128
##MINX=41
##MAXY=9999
##MINY=93
##NPOINTS=16
##PEAK TABLE=(XY..XY)
41,412 42,297 43,1480 44,9999
45,184 55,413 56,873 57,219
59,1079 69,776 70,281 71,201
95,108 110,93 113,293 128,97
##END=
