##TITLE=2-Fluoropyridine
##JCAMP-DX=4.24
##DATA TYPE=MASS SPECTRUM
##ORIGIN=NIST Mass Spectrometry Data Center, 2010
##OWNER=NIST Mass Spectrometry Data Center
Collection (C) 2014 copyright by the U.S. Secretary of Commerce
on behalf of the United States of America. All rights reserved.
##CAS REGISTRY NO=372-48-5
##$NIST MASS SPEC NO=384143
##MOLFORM=C5 H4 F N
##MW=97
##$NIST SOURCE=MSDC
##XUNITS=M/Z
##YUNITS=RELATIVE INTENSITY
##XFACTOR=1
##YFACTOR=1
##FIRSTX=24
##LASTX=99
##FIRSTY=10
##MAXX=99
##MINX=24
##MAXY=9999
##MINY=10
##NPOINTS=53
##PEAK TABLE=(XY..XY)
24,10 25,40 26,210 27,80
28,90 31,280 32,10 33,20
35,10 36,40 37,260 38,330
39,751 40,40 43,10 44,290
45,80 46,260 47,10 48,130
49,340 50,1291 51,1251 52,591
53,40 55,20 56,120 57,1001
58,50 61,10 62,20 63,40
64,70 65,10 67,10 68,370
69,811 70,5135 71,621 72,20
74,30 75,190 76,611 77,641
78,250 82,20 93,10 94,20
95,30 96,821 97,9999 98,581
99,10
##END=
