##TITLE=Disulfide, bis(trifluoromethyl)
##JCAMP-DX=4.24
##DATA TYPE=MASS SPECTRUM
##ORIGIN=E.I. DUPONT DE NEMOURS & CO., WILMINGTON, DELAWARE
##OWNER=NIST Mass Spectrometry Data Center
Collection (C) 2014 copyright by the U.S. Secretary of Commerce
on behalf of the United States of America. All rights reserved.
##CAS REGISTRY NO=372-64-5
##$NIST MASS SPEC NO=34210
##MOLFORM=C2 F6 S2
##MW=202
##$NIST SOURCE=MSDC
##XUNITS=M/Z
##YUNITS=RELATIVE INTENSITY
##XFACTOR=1
##YFACTOR=1
##FIRSTX=19
##LASTX=206
##FIRSTY=33
##MAXX=206
##MINX=19
##MAXY=9999
##MINY=3
##NPOINTS=43
##PEAK TABLE=(XY..XY)
19,33 31,570 32,871 34,38
44,90 45,3 46,4 50,280
51,161 53,7 63,540 64,1976
65,56 66,223 68,5 69,9999
70,109 76,132 77,4 78,12
82,449 83,32 84,27 95,394
96,11 97,35 101,362 102,8
103,22 114,1516 115,41 116,136
133,1786 134,44 135,150 183,1066
184,40 185,97 202,3964 203,94
204,352 205,8 206,8
##END=
