##TITLE=Benzene, 1,3-difluoro-
##JCAMP-DX=4.24
##DATA TYPE=MASS SPECTRUM
##ORIGIN=Japan AIST/NIMC Database- Spectrum MS-NW-5902
##OWNER=NIST Mass Spectrometry Data Center
Collection (C) 2014 copyright by the U.S. Secretary of Commerce
on behalf of the United States of America. All rights reserved.
##CAS REGISTRY NO=372-18-9
##$NIST MASS SPEC NO=230724
##MOLFORM=C6 H4 F2
##MW=114
##$NIST SOURCE=MSDC
##XUNITS=M/Z
##YUNITS=RELATIVE INTENSITY
##XFACTOR=1
##YFACTOR=1
##FIRSTX=15
##LASTX=116
##FIRSTY=10
##MAXX=116
##MINX=15
##MAXY=9999
##MINY=10
##NPOINTS=68
##PEAK TABLE=(XY..XY)
15,10 20,10 25,10 26,40
27,40 28,20 29,40 31,339
32,20 33,10 36,40 37,249
38,259 39,209 40,10 42,10
43,129 44,50 45,109 46,20
47,30 48,20 49,99 50,779
51,139 52,10 55,20 56,109
57,829 58,30 59,30 60,30
61,219 62,259 63,2079 64,319
65,10 67,10 68,379 69,239
70,339 71,20 72,10 73,70
74,239 75,449 76,40 79,20
80,30 81,349 82,30 83,90
86,20 87,70 88,1289 89,70
92,80 93,149 94,399 95,259
96,20 99,10 111,20 112,60
113,309 114,9999 115,669 116,20
##END=
