##TITLE=1,3,5-Trifluorobenzene
##JCAMP-DX=4.24
##DATA TYPE=MASS SPECTRUM
##ORIGIN=Japan AIST/NIMC Database- Spectrum MS-IW-2588
##OWNER=NIST Mass Spectrometry Data Center
Collection (C) 2014 copyright by the U.S. Secretary of Commerce
on behalf of the United States of America. All rights reserved.
##CAS REGISTRY NO=372-38-3
##$NIST MASS SPEC NO=236228
##MOLFORM=C6 H3 F3
##MW=132
##$NIST SOURCE=MSDC
##XUNITS=M/Z
##YUNITS=RELATIVE INTENSITY
##XFACTOR=1
##YFACTOR=1
##FIRSTX=31
##LASTX=134
##FIRSTY=409
##MAXX=134
##MINX=31
##MAXY=9999
##MINY=10
##NPOINTS=58
##PEAK TABLE=(XY..XY)
31,409 32,10 36,30 37,209
38,159 39,30 44,30 45,10
48,10 49,60 50,279 51,139
55,30 56,139 57,389 58,10
60,30 61,289 62,459 63,1819
64,109 66,299 68,329 69,109
70,10 72,10 73,50 74,139
75,569 76,20 79,50 80,129
81,1889 82,389 83,10 86,50
87,90 88,459 89,20 92,90
93,119 94,30 99,179 100,10
101,579 102,30 106,309 107,10
110,10 111,20 112,579 113,389
114,70 130,20 131,179 132,9999
133,679 134,10
##END=
