##TITLE=Bis(trifluoromethyl)tetrasulfane
##JCAMP-DX=4.24
##DATA TYPE=MASS SPECTRUM
##ORIGIN=Dennis Rohrbaugh, CBDCOM/ERDEC, Edgewood, MD
##OWNER=NIST Mass Spectrometry Data Center
Collection (C) 2014 copyright by the U.S. Secretary of Commerce
on behalf of the United States of America. All rights reserved.
##CAS REGISTRY NO=372-07-6
##$NIST MASS SPEC NO=226662
##MOLFORM=C2 F6 S4
##MW=266
##$NIST SOURCE=MSDC
##XUNITS=M/Z
##YUNITS=RELATIVE INTENSITY
##XFACTOR=1
##YFACTOR=1
##FIRSTX=50
##LASTX=268
##FIRSTY=229
##MAXX=268
##MINX=50
##MAXY=9999
##MINY=20
##NPOINTS=24
##PEAK TABLE=(XY..XY)
50,229 51,239 64,8769 66,809
68,20 69,9999 70,119 82,829
83,419 85,30 96,669 98,50
101,989 114,60 133,2609 134,40
135,299 165,2999 167,509 197,439
199,30 266,2059 267,80 268,359
##END=
