##TITLE=1H-3a,7-Methanoazulene, octahydro-1,4,9,9-tetramethyl-, (1.alpha.,3a.alpha.,4.beta.,7.alpha.,8a.beta.)-
##JCAMP-DX=4.24
##DATA TYPE=MASS SPECTRUM
##OWNER=NIST Mass Spectrometry Data Center
Collection (C) 2014 copyright by the U.S. Secretary of Commerce
on behalf of the United States of America. All rights reserved.
##CAS REGISTRY NO=3724-42-3
##$NIST MASS SPEC NO=9373
##MOLFORM=C15 H26
##MW=206
##$NIST SOURCE=MSDC
##XUNITS=M/Z
##YUNITS=RELATIVE INTENSITY
##XFACTOR=1
##YFACTOR=1
##FIRSTX=25
##LASTX=208
##FIRSTY=80
##MAXX=208
##MINX=25
##MAXY=9999
##MINY=40
##NPOINTS=118
##PEAK TABLE=(XY..XY)
25,80 27,2320 28,600 29,3000
30,80 31,600 38,80 39,2640
40,500 41,8139 42,1500 43,2880
44,300 45,300 50,120 51,600
52,340 53,2200 54,400 55,4999
56,1400 57,1600 58,120 59,400
63,200 64,60 65,1080 66,400
67,3520 68,800 69,4100 70,260
71,160 74,280 75,100 77,2500
78,600 79,3600 80,800 81,6299
82,9999 83,1720 84,280 85,100
86,240 89,140 91,3320 92,540
93,4200 94,1600 95,6399 96,1600
97,600 98,140 102,40 103,320
104,140 105,1680 106,400 107,6939
108,2040 109,4840 110,1960 111,360
112,100 115,400 116,160 117,400
118,140 119,800 120,480 121,3720
122,6199 123,3680 124,1000 125,340
128,200 129,200 130,60 131,200
132,120 133,560 134,200 135,3340
136,1000 137,440 138,160 145,160
146,40 147,440 148,160 149,1740
150,2400 151,540 152,120 159,200
160,60 161,400 162,400 163,6919
164,1200 165,200 175,200 176,40
177,700 178,200 189,500 190,80
191,4200 192,600 193,120 202,140
203,80 204,500 205,200 206,6799
207,1080 208,160
##END=
