##TITLE=Silane, trifluoromethyl-
##JCAMP-DX=4.24
##DATA TYPE=MASS SPECTRUM
##ORIGIN=R.W.CRAWFORD UNIV. OF CALIFORNIA, LIVERMORE, CALIFORNIA, USA
##OWNER=NIST Mass Spectrometry Data Center
Collection (C) 2014 copyright by the U.S. Secretary of Commerce
on behalf of the United States of America. All rights reserved.
##CAS REGISTRY NO=373-74-0
##$NIST MASS SPEC NO=1131
##MOLFORM=C H3 F3 Si
##MW=100
##$NIST SOURCE=MSDC
##XUNITS=M/Z
##YUNITS=RELATIVE INTENSITY
##XFACTOR=1
##YFACTOR=1
##FIRSTX=2
##LASTX=102
##FIRSTY=23
##MAXX=102
##MINX=2
##MAXY=9999
##MINY=1
##NPOINTS=50
##PEAK TABLE=(XY..XY)
2,23 12,138 13,222 14,401
15,982 16,23 19,27 20,8
26,2 27,3 28,289 29,26
30,6 31,61 32,91 33,920
34,11 35,5 37,2 38,1
40,22 41,27 42,14 43,6
44,53 45,2 47,1950 48,109
49,73 50,56 52,17 59,6
60,13 66,652 67,155 68,20
78,12 79,79 80,1260 81,3045
82,218 83,93 85,9999 86,503
87,330 98,172 99,351 100,1428
101,91 102,40
##END=
