##TITLE=1-Phenanthrenecarboxylic acid, 7-ethenyl-1,2,3,4,4a,4b,5,6,7,9,10,10a-dodecahydro-1,4a,7-trimethyl-, methyl ester, [1R-(1.alpha.,4a.beta.,4b.alpha.,7.beta.,10a.alpha.)]-
##JCAMP-DX=4.24
##DATA TYPE=MASS SPECTRUM
##ORIGIN=R RYHAGE MS-LAB KAROLINSKA INSTITUTET STOCKHOLM SWEDEN
##OWNER=NIST Mass Spectrometry Data Center
Collection (C) 2014 copyright by the U.S. Secretary of Commerce
on behalf of the United States of America. All rights reserved.
##CAS REGISTRY NO=3730-56-1
##$NIST MASS SPEC NO=42660
##MOLFORM=C21 H32 O2
##MW=316
##$NIST SOURCE=MSDC
##XUNITS=M/Z
##YUNITS=RELATIVE INTENSITY
##XFACTOR=1
##YFACTOR=1
##FIRSTX=15
##LASTX=318
##FIRSTY=60
##MAXX=318
##MINX=15
##MAXY=9999
##MINY=40
##NPOINTS=188
##PEAK TABLE=(XY..XY)
15,60 16,130 27,90 28,150
29,250 30,250 31,50 39,100
41,800 42,90 43,460 53,200
54,50 55,1100 56,140 57,350
58,50 59,260 64,150 65,120
66,60 67,620 68,160 69,490
70,100 71,210 73,120 74,160
75,50 77,390 78,140 79,950
80,260 81,1160 82,180 83,250
84,70 85,160 86,60 87,140
88,130 91,1210 92,520 93,1350
94,310 95,730 96,140 97,400
98,80 99,80 100,110 101,350
103,110 104,140 105,1370 106,640
107,1250 108,260 109,990 110,120
111,140 113,80 114,130 115,140
116,90 117,460 118,180 119,1550
120,1190 121,9999 122,1250 123,1040
124,130 125,120 127,60 128,190
129,230 130,110 131,470 132,180
133,1450 134,880 135,900 136,270
137,140 138,40 139,90 141,80
142,70 143,230 144,90 145,490
146,200 147,650 148,1590 149,720
151,100 153,300 154,60 155,90
156,50 157,200 158,120 159,580
160,200 161,470 162,130 163,140
164,40 165,100 166,70 167,80
168,60 169,180 171,190 172,90
173,420 174,180 175,390 176,80
177,60 179,70 180,3370 181,2390
182,310 183,90 185,280 186,180
187,890 188,360 189,200 190,60
193,60 194,470 195,120 197,50
199,120 200,70 201,490 202,90
203,120 207,70 213,200 214,130
215,110 216,180 217,60 218,100
219,70 220,100 221,60 222,60
227,270 228,120 229,130 233,70
234,100 235,60 239,80 241,2170
242,470 243,70 246,80 247,60
248,160 255,140 256,1450 257,3680
258,760 259,180 260,50 269,180
270,80 273,140 274,130 275,50
284,120 287,400 288,180 289,80
299,100 301,2310 302,540 303,80
314,70 316,4900 317,1180 318,180
##END=
