##TITLE=3-Pyridinemethanamine
##JCAMP-DX=4.24
##DATA TYPE=MASS SPECTRUM
##ORIGIN=Japan AIST/NIMC Database- Spectrum MS-NW-1087
##OWNER=NIST Mass Spectrometry Data Center
Collection (C) 2014 copyright by the U.S. Secretary of Commerce
on behalf of the United States of America. All rights reserved.
##CAS REGISTRY NO=3731-52-0
##$NIST MASS SPEC NO=233552
##MOLFORM=C6 H8 N2
##MW=108
##$NIST SOURCE=MSDC
##XUNITS=M/Z
##YUNITS=RELATIVE INTENSITY
##XFACTOR=1
##YFACTOR=1
##FIRSTX=14
##LASTX=109
##FIRSTY=20
##MAXX=109
##MINX=14
##MAXY=9999
##MINY=10
##NPOINTS=55
##PEAK TABLE=(XY..XY)
14,20 15,10 16,20 25,10
26,139 27,299 28,1209 29,269
30,2559 31,30 32,40 36,10
37,99 38,219 39,649 40,119
41,139 42,50 43,10 44,20
49,70 50,399 51,739 52,889
53,739 54,269 55,70 56,20
61,40 62,70 63,279 64,329
65,609 66,70 67,50 68,20
69,20 75,50 76,70 77,40
78,419 79,1549 80,9999 81,609
82,20 90,20 91,309 92,439
93,60 104,10 105,149 106,60
107,2239 108,959 109,70
##END=
