##TITLE=4-(Aminomethyl)pyridine
##JCAMP-DX=4.24
##DATA TYPE=MASS SPECTRUM
##ORIGIN=NIST Mass Spectrometry Data Center, 1990.
##OWNER=NIST Mass Spectrometry Data Center
Collection (C) 2014 copyright by the U.S. Secretary of Commerce
on behalf of the United States of America. All rights reserved.
##CAS REGISTRY NO=3731-53-1
##$NIST MASS SPEC NO=118238
##MOLFORM=C6 H8 N2
##MW=108
##$NIST SOURCE=MSDC
##XUNITS=M/Z
##YUNITS=RELATIVE INTENSITY
##XFACTOR=1
##YFACTOR=1
##FIRSTX=13
##LASTX=109
##FIRSTY=41
##MAXX=109
##MINX=13
##MAXY=9999
##MINY=10
##NPOINTS=47
##PEAK TABLE=(XY..XY)
13,41 14,48 15,48 16,10
24,28 25,76 26,459 27,750
28,2752 29,728 30,5525 31,141
32,17 36,50 37,305 38,536
39,893 40,314 41,253 42,74
48,46 49,356 50,1616 51,2227
52,1960 53,1173 54,404 55,110
61,91 62,246 63,392 64,285
65,437 66,71 67,74 75,140
76,155 77,137 78,767 79,3051
80,9999 81,527 92,116 105,124
107,1778 108,844 109,63
##END=
