##TITLE=Phosphorodiamidothioic chloride, tetramethyl-
##JCAMP-DX=4.24
##DATA TYPE=MASS SPECTRUM
##ORIGIN=R.C. DOUGHERTY
##OWNER=NIST Mass Spectrometry Data Center
Collection (C) 2014 copyright by the U.S. Secretary of Commerce
on behalf of the United States of America. All rights reserved.
##CAS REGISTRY NO=3732-81-8
##$NIST MASS SPEC NO=36890
##MOLFORM=C4 H12 Cl N2 P S
##MW=186
##$NIST SOURCE=MSDC
##XUNITS=M/Z
##YUNITS=RELATIVE INTENSITY
##XFACTOR=1
##YFACTOR=1
##FIRSTX=28
##LASTX=188
##FIRSTY=1201
##MAXX=188
##MINX=28
##MAXY=9999
##MINY=300
##NPOINTS=22
##PEAK TABLE=(XY..XY)
28,1201 30,400 40,300 41,400
42,3904 43,1001 44,9999 45,601
60,1702 63,1201 76,500 99,400
107,500 108,500 110,5305 112,2002
119,400 142,701 144,300 151,2803
186,1251 188,450
##END=
