##TITLE=2-Thiazolidinimine, 3-methyl-
##JCAMP-DX=4.24
##DATA TYPE=MASS SPECTRUM
##ORIGIN=H. Fales, LC, NHLBI, NIH, Bethesda, MD 20892
##OWNER=NIST Mass Spectrometry Data Center
Collection (C) 2014 copyright by the U.S. Secretary of Commerce
on behalf of the United States of America. All rights reserved.
##CAS REGISTRY NO=3732-56-7
##$NIST MASS SPEC NO=131041
##MOLFORM=C4 H8 N2 S
##MW=116
##$NIST SOURCE=MSDC
##XUNITS=M/Z
##YUNITS=RELATIVE INTENSITY
##XFACTOR=1
##YFACTOR=1
##FIRSTX=42
##LASTX=119
##FIRSTY=3918
##MAXX=119
##MINX=42
##MAXY=9999
##MINY=4
##NPOINTS=60
##PEAK TABLE=(XY..XY)
42,3918 43,1678 44,1413 45,1363
46,936 47,259 48,64 49,19
51,38 52,67 53,165 54,268
55,1024 56,1199 57,2460 58,677
59,2001 60,5099 61,2295 62,283
64,666 65,4 66,10 67,33
68,32 69,718 70,255 71,80
72,134 73,232 74,190 75,55
76,6 77,6 79,17 80,39
81,37 82,59 83,49 84,22
85,20 86,54 87,132 88,5047
89,381 90,259 91,21 95,9
96,10 98,11 100,16 101,255
102,62 103,25 114,13 115,192
116,9999 117,867 118,517 119,43
##END=
