##TITLE=4,7-Methano-1H-indene, 1,2,3,4,5,6,7,8,8-nonachloro-2,3,3a,4,7,7a-hexahydro-
##JCAMP-DX=4.24
##DATA TYPE=MASS SPECTRUM
##ORIGIN=ACCUSTANDARD Chemicals / NIST MS Data Center.
##OWNER=NIST Mass Spectrometry Data Center
Collection (C) 2014 copyright by the U.S. Secretary of Commerce
on behalf of the United States of America. All rights reserved.
##CAS REGISTRY NO=3734-49-4
##$NIST MASS SPEC NO=125567
##MOLFORM=C10 H5 Cl9
##MW=440
##$NIST SOURCE=MSDC
##XUNITS=M/Z
##YUNITS=RELATIVE INTENSITY
##XFACTOR=1
##YFACTOR=1
##FIRSTX=15
##LASTX=452
##FIRSTY=6
##MAXX=452
##MINX=15
##MAXY=9999
##MINY=5
##NPOINTS=302
##PEAK TABLE=(XY..XY)
15,6 18,23 25,8 26,57
27,70 28,22 30,7 35,74
36,66 37,92 38,134 39,332
40,6 47,89 48,32 49,272
50,176 51,186 52,14 55,10
60,95 61,291 62,195 63,209
64,37 65,149 66,30 67,16
71,45 72,99 73,570 74,227
75,303 76,19 77,15 79,41
80,23 81,12 82,71 83,384
84,217 85,470 86,177 87,128
88,20 89,14 90,11 91,8
94,41 95,100 96,235 97,268
98,259 99,593 100,168 101,188
102,77 103,37 104,10 106,66
107,197 108,195 109,713 110,137
111,360 112,26 113,78 114,103
115,96 116,10 117,324 118,74
119,380 120,194 121,300 122,125
123,146 124,48 125,35 126,14
128,5 130,117 131,139 132,225
133,359 134,143 135,222 136,73
137,111 138,49 139,23 141,235
143,412 144,84 145,274 146,62
147,115 148,31 149,71 150,88
151,46 152,23 153,25 154,31
155,79 156,61 157,154 158,86
159,131 160,113 161,42 162,36
165,116 167,200 168,92 169,260
170,94 171,139 172,44 173,44
174,10 177,24 178,22 179,62
180,49 181,89 182,60 183,86
184,28 185,33 186,13 187,10
188,12 189,12 191,187 192,66
193,225 194,252 195,170 196,144
197,55 198,27 199,10 201,62
202,28 203,139 204,187 205,135
206,190 207,45 208,44 209,8
210,5 213,16 214,54 215,55
216,104 217,148 218,84 219,119
220,27 221,37 222,6 223,6
225,35 226,57 227,134 228,175
229,176 230,300 231,142 232,188
233,55 234,6 235,576 236,6
237,939 238,203 239,684 240,165
241,283 242,79 243,78 244,21
245,13 248,22 249,19 250,55
251,149 252,76 253,176 254,60
255,99 256,27 257,27 258,10
259,8 261,386 263,663 264,268
265,460 266,263 267,193 268,121
269,86 270,380 271,8 272,716
273,8 274,605 275,97 276,320
277,60 278,106 279,24 280,21
281,7 283,17 285,51 286,31
287,101 288,41 289,102 290,40
291,59 292,13 293,20 294,7
295,12 296,10 298,257 299,142
300,412 301,181 302,253 303,129
304,112 305,43 306,18 307,10
308,11 309,35 310,16 311,59
312,20 313,50 314,10 315,22
317,7 321,7 322,11 323,9
324,17 325,9 326,13 327,7
328,6 333,79 334,71 335,195
336,120 337,157 338,120 339,92
340,44 341,37 342,14 343,15
345,15 347,12 369,78 371,166
372,42 373,145 374,37 375,86
376,18 377,31 405,3495 407,9076
408,2206 409,9999 410,1760 411,6823
412,977 413,2780 414,340 415,732
416,96 417,120 418,17 419,10
440,125 442,362 444,498 445,92
446,369 447,58 448,182 449,25
450,72 452,14
##END=
