##TITLE=Carbamodithioic acid, dimethyl-, methyl ester
##JCAMP-DX=4.24
##DATA TYPE=MASS SPECTRUM
##ORIGIN=F.I.ONUSKA CANADA CENTRE FOR INLAND WATERS, ONTARIO, CANADA
##OWNER=NIST Mass Spectrometry Data Center
Collection (C) 2014 copyright by the U.S. Secretary of Commerce
on behalf of the United States of America. All rights reserved.
##CAS REGISTRY NO=3735-92-0
##$NIST MASS SPEC NO=38066
##MOLFORM=C4 H9 N S2
##MW=135
##$NIST SOURCE=MSDC
##XUNITS=M/Z
##YUNITS=RELATIVE INTENSITY
##XFACTOR=1
##YFACTOR=1
##FIRSTX=34
##LASTX=135
##FIRSTY=821
##MAXX=135
##MINX=34
##MAXY=9999
##MINY=60
##NPOINTS=28
##PEAK TABLE=(XY..XY)
34,821 38,1119 41,791 42,1463
43,1284 44,2552 55,687 56,806
57,1060 58,239 59,209 60,254
61,284 69,507 71,716 72,597
73,1060 76,9999 83,403 85,388
88,8478 90,358 91,881 109,209
111,224 120,60 121,60 135,4075
##END=
