##TITLE=2(1H)Pyrimidinone,1-methyl-
##JCAMP-DX=4.24
##DATA TYPE=MASS SPECTRUM
##ORIGIN=A.A.Kutin, Moscow, Russia
##OWNER=NIST Mass Spectrometry Data Center
Collection (C) 2014 copyright by the U.S. Secretary of Commerce
on behalf of the United States of America. All rights reserved.
##CAS REGISTRY NO=3739-81-9
##$NIST MASS SPEC NO=257986
##MOLFORM=C5 H6 N2 O
##MW=110
##$NIST SOURCE=MSDC
##XUNITS=M/Z
##YUNITS=RELATIVE INTENSITY
##XFACTOR=1
##YFACTOR=1
##FIRSTX=36
##LASTX=112
##FIRSTY=48
##MAXX=112
##MINX=36
##MAXY=9999
##MINY=4
##NPOINTS=54
##PEAK TABLE=(XY..XY)
36,48 37,274 38,631 39,972
40,2243 41,1353 42,6019 43,207
44,146 45,14 49,5 50,82
51,709 52,1664 53,602 54,1882
55,1455 56,572 57,135 58,49
63,39 64,68 65,59 66,701
67,331 68,1093 69,292 70,42
71,9 74,6 76,15 77,52
79,109 80,229 81,3134 82,6065
83,308 84,26 91,6 93,20
94,78 95,190 96,28 97,5
98,14 99,4 103,6 105,6
106,4 108,22 109,4398 110,9999
111,663 112,60
##END=
