##TITLE=Butane, 1,1,1,2,2,3,3-heptafluoro-4-iodo-
##JCAMP-DX=4.24
##DATA TYPE=MASS SPECTRUM
##ORIGIN=RADIAN CORP
##OWNER=NIST Mass Spectrometry Data Center
Collection (C) 2014 copyright by the U.S. Secretary of Commerce
on behalf of the United States of America. All rights reserved.
##CAS REGISTRY NO=374-98-1
##$NIST MASS SPEC NO=75386
##MOLFORM=C4 H2 F7 I
##MW=310
##$NIST SOURCE=MSDC
##XUNITS=M/Z
##YUNITS=RELATIVE INTENSITY
##XFACTOR=1
##YFACTOR=1
##FIRSTX=14
##LASTX=310
##FIRSTY=10
##MAXX=310
##MINX=14
##MAXY=9999
##MINY=10
##NPOINTS=69
##PEAK TABLE=(XY..XY)
14,10 25,20 26,70 31,920
32,10 33,230 37,50 38,20
43,20 44,350 45,680 50,370
51,1080 55,70 56,180 57,110
63,650 64,5700 65,100 69,7390
74,120 75,810 76,70 81,40
82,50 83,220 93,250 94,190
95,2310 96,90 100,560 101,30
112,60 113,1210 114,50 119,2100
120,10 127,7560 128,550 131,100
133,260 139,190 140,350 141,3650
144,320 145,1530 146,380 152,20
153,50 158,40 159,190 163,130
164,50 169,20 170,50 171,190
172,190 177,250 190,1250 191,8510
201,20 208,10 221,1140 222,20
227,20 239,20 271,30 291,40
310,9999
##END=
