##TITLE=Ethane, 1,1-dichloro-1,2,2,2-tetrafluoro-
##JCAMP-DX=4.24
##DATA TYPE=MASS SPECTRUM
##ORIGIN=THE M.W. KELLOGG CO., JERSEY CITY, N.J., USA
##OWNER=NIST Mass Spectrometry Data Center
Collection (C) 2014 copyright by the U.S. Secretary of Commerce
on behalf of the United States of America. All rights reserved.
##CAS REGISTRY NO=374-07-2
##$NIST MASS SPEC NO=35022
##MOLFORM=C2 Cl2 F4
##MW=170
##$NIST SOURCE=MSDC
##XUNITS=M/Z
##YUNITS=RELATIVE INTENSITY
##XFACTOR=1
##YFACTOR=1
##FIRSTX=20
##LASTX=172
##FIRSTY=9
##MAXX=172
##MINX=20
##MAXY=9999
##MINY=4
##NPOINTS=60
##PEAK TABLE=(XY..XY)
20,9 24,131 31,5040 32,53
35,1562 36,29 37,472 38,12
43,140 47,1507 48,21 49,476
50,907 51,18 58,107 59,66
61,12 62,75 66,1725 67,49
68,546 69,3860 70,59 72,12
78,83 80,26 81,23 82,429
83,20 84,276 85,5670 86,105
87,1827 88,22 97,39 98,4
99,17 100,148 101,8430 102,94
103,5316 104,60 105,857 106,13
116,356 117,7 118,115 132,47
134,35 135,9999 136,222 137,3130
138,69 151,729 152,16 153,459
154,10 155,74 170,12 172,9
##END=
