##TITLE=1-Butene, 4-bromo-3-chloro-3,4,4-trifluoro-
##JCAMP-DX=4.24
##DATA TYPE=MASS SPECTRUM
##OWNER=NIST Mass Spectrometry Data Center
Collection (C) 2014 copyright by the U.S. Secretary of Commerce
on behalf of the United States of America. All rights reserved.
##CAS REGISTRY NO=374-25-4
##$NIST MASS SPEC NO=10538
##MOLFORM=C4 H3 Br Cl F3
##MW=222
##$NIST SOURCE=MSDC
##XUNITS=M/Z
##YUNITS=RELATIVE INTENSITY
##XFACTOR=1
##YFACTOR=1
##FIRSTX=26
##LASTX=226
##FIRSTY=60
##MAXX=226
##MINX=26
##MAXY=9999
##MINY=40
##NPOINTS=80
##PEAK TABLE=(XY..XY)
26,60 27,110 31,220 36,50
37,250 38,410 39,731 40,40
44,40 45,50 47,120 49,240
50,70 51,210 56,130 57,831
58,50 61,60 63,40 64,110
65,671 66,40 67,460 68,60
69,751 72,100 73,631 74,110
75,490 76,50 77,591 79,190
80,40 81,220 82,70 85,220
87,160 88,190 89,150 91,140
93,3713 94,150 95,1351 96,50
97,60 106,50 107,460 108,390
109,70 111,100 113,220 115,60
116,50 117,150 119,70 122,40
123,671 124,741 125,260 126,250
127,140 129,100 131,70 137,40
142,140 143,9999 144,500 145,3323
146,150 153,80 155,130 157,60
163,50 187,40 189,40 222,861
223,60 224,1151 225,60 226,270
##END=
