##TITLE=4-Acetylphenyl ether
##JCAMP-DX=4.24
##DATA TYPE=MASS SPECTRUM
##ORIGIN=NIST Mass Spectrometry Data Center, 1994
##OWNER=NIST Mass Spectrometry Data Center
Collection (C) 2014 copyright by the U.S. Secretary of Commerce
on behalf of the United States of America. All rights reserved.
##CAS REGISTRY NO=37407-21-9
##$NIST MASS SPEC NO=133925
##MOLFORM=C16 H14 O3
##MW=254
##$NIST SOURCE=MSDC
##XUNITS=M/Z
##YUNITS=RELATIVE INTENSITY
##XFACTOR=1
##YFACTOR=1
##FIRSTX=14
##LASTX=256
##FIRSTY=63
##MAXX=256
##MINX=14
##MAXY=9999
##MINY=19
##NPOINTS=80
##PEAK TABLE=(XY..XY)
14,63 15,418 26,24 27,106
29,31 37,32 38,196 39,369
43,5638 44,109 50,880 51,471
52,100 53,86 57,25 61,30
62,223 63,831 64,649 65,421
66,65 70,564 74,256 75,366
76,873 77,489 78,88 79,43
84,377 86,39 87,56 88,50
89,225 90,84 91,328 92,590
93,135 98,140 101,36 102,35
104,148 105,62 107,84 112,1070
114,125 115,220 116,20 120,58
121,196 127,37 128,37 129,40
137,27 139,1049 140,317 141,338
142,56 152,66 153,48 154,24
155,78 165,32 166,19 168,495
169,512 170,68 181,28 182,38
183,46 196,741 197,170 211,27
225,48 237,24 239,9999 240,1568
241,203 254,3259 255,577 256,48
##END=
