##TITLE=Cyclopentane, pentyl-
##JCAMP-DX=4.24
##DATA TYPE=MASS SPECTRUM
##ORIGIN=S.A. Rang et al., IR & MS of Unsatd. Hydrocarbons, 1977
##OWNER=NIST Mass Spectrometry Data Center
Collection (C) 2014 copyright by the U.S. Secretary of Commerce
on behalf of the United States of America. All rights reserved.
##CAS REGISTRY NO=3741-00-2
##$NIST MASS SPEC NO=142656
##MOLFORM=C10 H20
##MW=140
##$NIST SOURCE=MSDC
##XUNITS=M/Z
##YUNITS=RELATIVE INTENSITY
##XFACTOR=1
##YFACTOR=1
##FIRSTX=15
##LASTX=142
##FIRSTY=79
##MAXX=142
##MINX=15
##MAXY=9999
##MINY=5
##NPOINTS=88
##PEAK TABLE=(XY..XY)
15,79 16,26 24,7 25,33
26,223 27,1978 28,1648 29,3077
30,70 31,18 37,20 38,45
39,1978 40,416 41,9900 42,2769
43,3692 44,121 45,22 48,5
49,10 50,45 51,93 52,79
53,824 54,1099 55,8462 56,5071
57,1813 58,112 59,13 60,5
62,7 63,26 64,9 65,177
66,208 67,2615 68,9846 69,9999
70,5077 71,769 72,47 73,10
77,107 78,31 79,172 80,61
81,282 82,1923 83,4760 84,2615
85,460 86,35 87,7 88,8
90,7 91,41 92,5 93,36
94,20 95,98 96,416 97,2462
98,1319 99,126 100,13 105,5
107,13 108,10 109,22 110,140
111,1264 112,1209 113,102 114,10
121,10 123,7 125,28 126,12
127,12 136,10 137,7 138,18
139,20 140,1319 141,149 142,10
##END=
