##TITLE=1,3,2-Dioxathiolane, 2-oxide
##JCAMP-DX=4.24
##DATA TYPE=MASS SPECTRUM
##OWNER=NIST Mass Spectrometry Data Center
Collection (C) 2014 copyright by the U.S. Secretary of Commerce
on behalf of the United States of America. All rights reserved.
##CAS REGISTRY NO=3741-38-6
##$NIST MASS SPEC NO=1451
##MOLFORM=C2 H4 O3 S
##MW=108
##$NIST SOURCE=MSDC
##XUNITS=M/Z
##YUNITS=RELATIVE INTENSITY
##XFACTOR=1
##YFACTOR=1
##FIRSTX=26
##LASTX=110
##FIRSTY=230
##MAXX=110
##MINX=26
##MAXY=9999
##MINY=120
##NPOINTS=24
##PEAK TABLE=(XY..XY)
26,230 27,230 28,671 29,9999
30,781 31,180 32,490 42,561
43,4624 44,2893 48,2853 49,230
50,2492 52,120 64,1231 65,2893
66,120 67,120 78,9559 79,230
107,120 108,2893 109,120 110,120
##END=
