##TITLE=Acetic acid isopropylidene-hydrazide
##JCAMP-DX=4.24
##DATA TYPE=MASS SPECTRUM
##ORIGIN=James Little,Eastman Chem.Co.,Kingsport,TN
##OWNER=NIST Mass Spectrometry Data Center
Collection (C) 2014 copyright by the U.S. Secretary of Commerce
on behalf of the United States of America. All rights reserved.
##CAS REGISTRY NO=3742-63-0
##$NIST MASS SPEC NO=288533
##MOLFORM=C5 H10 N2 O
##MW=114
##$NIST SOURCE=MSDC
##XUNITS=M/Z
##YUNITS=RELATIVE INTENSITY
##XFACTOR=1
##YFACTOR=1
##FIRSTX=27
##LASTX=115
##FIRSTY=891
##MAXX=115
##MINX=27
##MAXY=9999
##MINY=70
##NPOINTS=31
##PEAK TABLE=(XY..XY)
27,891 29,651 30,1902 39,1712
40,601 41,2262 42,1541 43,9999
44,320 53,90 54,941 55,5065
56,1171 57,9809 58,350 69,280
70,150 71,1231 72,7547 73,591
77,110 83,70 84,90 85,80
91,370 97,70 99,6085 100,390
105,190 114,5505 115,380
##END=
