##TITLE=4-Ethylcyclohexene
##JCAMP-DX=4.24
##DATA TYPE=MASS SPECTRUM
##ORIGIN=S.A. Rang et al., IR & MS of Unsatd. Hydrocarbons, 1977
##OWNER=NIST Mass Spectrometry Data Center
Collection (C) 2014 copyright by the U.S. Secretary of Commerce
on behalf of the United States of America. All rights reserved.
##CAS REGISTRY NO=3742-42-5
##$NIST MASS SPEC NO=142679
##MOLFORM=C8 H14
##MW=110
##$NIST SOURCE=MSDC
##XUNITS=M/Z
##YUNITS=RELATIVE INTENSITY
##XFACTOR=1
##YFACTOR=1
##FIRSTX=15
##LASTX=112
##FIRSTY=32
##MAXX=112
##MINX=15
##MAXY=9999
##MINY=2
##NPOINTS=62
##PEAK TABLE=(XY..XY)
15,32 25,4 26,79 27,1535
28,154 29,885 30,14 37,12
38,67 39,2149 40,247 41,3181
42,154 43,123 45,11 46,6
49,5 50,100 51,341 52,213
53,1382 54,4728 55,1259 56,273
57,15 62,16 63,69 64,16
65,350 66,299 67,2751 68,1259
69,1044 70,54 71,2 74,9
75,20 76,11 77,675 78,146
79,1504 80,478 81,9999 82,1842
83,79 84,3 89,10 90,3
91,154 92,23 93,72 94,34
95,1259 96,107 97,6 106,5
107,7 108,8 109,82 110,1911
111,139 112,9
##END=
