##TITLE=n-Dodecyl thioglycolate
##JCAMP-DX=4.24
##DATA TYPE=MASS SPECTRUM
##ORIGIN=NIST Mass Spectrometry Data Center, 1994
##OWNER=NIST Mass Spectrometry Data Center
Collection (C) 2014 copyright by the U.S. Secretary of Commerce
on behalf of the United States of America. All rights reserved.
##CAS REGISTRY NO=3746-39-2
##$NIST MASS SPEC NO=133378
##MOLFORM=C14 H28 O2 S
##MW=260
##$NIST SOURCE=MSDC
##XUNITS=M/Z
##YUNITS=RELATIVE INTENSITY
##XFACTOR=1
##YFACTOR=1
##FIRSTX=14
##LASTX=261
##FIRSTY=47
##MAXX=261
##MINX=14
##MAXY=9999
##MINY=20
##NPOINTS=96
##PEAK TABLE=(XY..XY)
14,47 15,91 18,24 27,1308
28,456 29,3113 30,81 31,159
33,52 39,1028 41,6231 42,2097
43,9112 44,374 45,498 46,730
47,3106 48,109 49,152 51,50
53,370 54,523 55,4771 56,2187
57,9999 58,437 59,49 60,49
61,138 63,38 64,35 65,71
66,71 67,561 68,483 69,2639
70,1531 71,5229 72,308 73,35
74,556 75,712 76,54 77,128
79,74 81,260 82,810 83,1741
84,996 85,2794 86,185 87,61
88,32 92,2279 93,1161 94,149
95,143 96,355 97,1334 98,516
99,581 100,51 101,41 102,22
105,52 109,42 110,211 111,758
112,311 113,322 114,34 115,45
123,20 124,87 125,330 126,145
127,119 129,34 130,31 138,41
139,99 140,223 141,29 143,42
157,35 166,69 168,374 169,70
171,26 201,358 202,62 203,29
213,389 214,58 260,222 261,48
##END=
