##TITLE=Dehydroepiandrosterone, (3.beta.)-, TMS derivative
##JCAMP-DX=4.24
##DATA TYPE=MASS SPECTRUM
##ORIGIN=STER ANDR TMSI L 00 0000 E, M.HORN
##OWNER=NIST Mass Spectrometry Data Center
Collection (C) 2014 copyright by the U.S. Secretary of Commerce
on behalf of the United States of America. All rights reserved.
##CAS REGISTRY NO=3747-91-9
##$NIST MASS SPEC NO=43224
##MOLFORM=C22 H36 O2 Si
##MW=360
##$NIST SOURCE=MSDC
##XUNITS=M/Z
##YUNITS=RELATIVE INTENSITY
##XFACTOR=1
##YFACTOR=1
##FIRSTX=41
##LASTX=362
##FIRSTY=1050
##MAXX=362
##MINX=41
##MAXY=9999
##MINY=50
##NPOINTS=172
##PEAK TABLE=(XY..XY)
41,1050 42,50 43,350 44,100
45,550 46,50 47,250 51,50
52,50 53,350 54,50 55,1100
56,50 57,150 58,50 59,300
60,50 61,250 65,200 66,100
67,750 68,100 69,250 70,50
71,50 72,100 73,4950 74,450
75,2600 76,200 77,700 78,150
79,1200 80,150 81,850 82,100
83,100 85,100 87,50 89,100
91,1400 92,250 93,1100 94,250
95,650 96,100 97,600 98,100
99,100 101,200 102,50 103,200
104,100 105,1250 106,300 107,800
108,150 109,350 110,50 111,50
113,100 115,300 116,300 117,500
118,200 119,900 120,300 121,700
122,150 123,150 124,50 125,50
127,100 128,200 129,9999 130,1500
131,1000 132,250 133,400 134,100
135,300 136,50 137,150 141,150
142,150 143,600 144,150 145,550
146,150 147,350 148,100 149,150
150,100 151,100 153,50 154,50
155,200 156,100 157,350 158,150
159,450 160,100 161,200 162,50
163,50 165,50 167,50 168,50
169,150 170,50 171,250 172,600
173,350 174,150 175,100 176,50
177,100 181,100 182,50 183,100
184,50 185,200 186,100 187,150
188,50 189,100 195,100 196,50
197,100 198,50 199,400 200,100
201,100 202,50 203,50 207,50
209,50 211,100 212,50 213,600
214,250 215,100 216,50 221,100
226,50 227,150 228,100 229,100
230,450 231,1500 232,250 237,100
241,50 242,150 253,100 255,650
256,150 269,50 270,1200 271,250
272,50 281,50 303,50 304,1400
305,350 306,100 345,400 346,100
347,50 360,1250 361,400 362,100
##END=
