##TITLE=Butane, 1,1,2,2,3,3,4,4-octafluoro-1,4-diiodo-
##JCAMP-DX=4.24
##DATA TYPE=MASS SPECTRUM
##ORIGIN=D.HENNEBERG, MAX-PLANCK INSTITUTE, MULHEIM, WEST GERMANY
##OWNER=NIST Mass Spectrometry Data Center
Collection (C) 2014 copyright by the U.S. Secretary of Commerce
on behalf of the United States of America. All rights reserved.
##CAS REGISTRY NO=375-50-8
##$NIST MASS SPEC NO=62207
##MOLFORM=C4 F8 I2
##MW=454
##$NIST SOURCE=MSDC
##XUNITS=M/Z
##YUNITS=RELATIVE INTENSITY
##XFACTOR=1
##YFACTOR=1
##FIRSTX=26
##LASTX=455
##FIRSTY=170
##MAXX=455
##MINX=26
##MAXY=9999
##MINY=6
##NPOINTS=94
##PEAK TABLE=(XY..XY)
26,170 27,86 28,1834 29,42
31,718 32,176 35,15 36,85
38,31 40,26 41,24 42,11
43,31 44,205 45,50 50,287
51,188 59,54 62,24 64,14
65,12 69,2988 70,19 74,34
79,17 81,254 82,24 85,54
93,299 99,9 100,3663 101,95
102,11 112,225 113,34 119,810
120,19 127,4354 128,732 131,3117
132,93 142,12 143,18 146,24
150,108 151,9 152,9 153,14
158,176 162,52 169,74 170,18
177,4145 178,64 179,6 181,2555
182,94 189,64 190,14 191,20
199,6 200,53 201,34 207,21
208,988 209,45 227,1129 228,30
231,34 234,16 236,60 237,27
239,832 240,30 254,306 258,31
277,86 278,15 281,143 291,18
301,9 308,317 309,54 316,22
325,10 326,14 327,9999 328,445
331,19 335,15 401,11 428,34
454,2607 455,114
##END=
