##TITLE=Acebutolol
##JCAMP-DX=4.24
##DATA TYPE=MASS SPECTRUM
##ORIGIN=Finnigan MAT: Toxicological Library (LIBR-TX)
##OWNER=NIST Mass Spectrometry Data Center
Collection (C) 2014 copyright by the U.S. Secretary of Commerce
on behalf of the United States of America. All rights reserved.
##CAS REGISTRY NO=37517-30-9
##$NIST MASS SPEC NO=120460
##MOLFORM=C18 H28 N2 O4
##MW=336
##$NIST SOURCE=MSDC
##XUNITS=M/Z
##YUNITS=RELATIVE INTENSITY
##XFACTOR=1
##YFACTOR=1
##FIRSTX=27
##LASTX=222
##FIRSTY=1504
##MAXX=222
##MINX=27
##MAXY=9999
##MINY=105
##NPOINTS=29
##PEAK TABLE=(XY..XY)
27,1504 30,4565 41,2353 42,786
43,6100 56,3659 57,712 71,973
72,9999 73,404 80,288 82,319
98,2183 100,681 106,311 107,215
108,213 114,202 116,199 133,512
135,1795 136,902 150,196 151,3373
152,294 205,412 218,105 221,2636
222,306
##END=
