##TITLE=Ethane, 1,2-dicyclopropyl-
##JCAMP-DX=4.24
##DATA TYPE=MASS SPECTRUM
##ORIGIN=D.HENNEBERG, MAX-PLANCK INSTITUTE, MULHEIM, WEST GERMANY
##OWNER=NIST Mass Spectrometry Data Center
Collection (C) 2014 copyright by the U.S. Secretary of Commerce
on behalf of the United States of America. All rights reserved.
##CAS REGISTRY NO=37520-11-9
##$NIST MASS SPEC NO=60604
##MOLFORM=C8 H14
##MW=110
##$NIST SOURCE=MSDC
##XUNITS=M/Z
##YUNITS=RELATIVE INTENSITY
##XFACTOR=1
##YFACTOR=1
##FIRSTX=26
##LASTX=95
##FIRSTY=279
##MAXX=95
##MINX=26
##MAXY=9999
##MINY=9
##NPOINTS=32
##PEAK TABLE=(XY..XY)
26,279 27,4579 28,3079 29,5039
38,249 39,5569 40,609 41,8049
42,459 43,149 44,39 50,200
51,400 52,219 53,2000 54,7709
55,8100 56,449 65,249 66,279
67,9999 68,2179 69,1349 70,9
77,159 78,9 79,279 80,49
81,2679 82,2409 83,89 95,349
##END=
