##TITLE=p-Hexylacetophenone
##JCAMP-DX=4.24
##DATA TYPE=MASS SPECTRUM
##ORIGIN=NIST Mass Spectrometry Data Center
##OWNER=NIST Mass Spectrometry Data Center
Collection (C) 2014 copyright by the U.S. Secretary of Commerce
on behalf of the United States of America. All rights reserved.
##CAS REGISTRY NO=37592-72-6
##$NIST MASS SPEC NO=343608
##MOLFORM=C14 H20 O
##MW=204
##$NIST SOURCE=MSDC
##XUNITS=M/Z
##YUNITS=RELATIVE INTENSITY
##XFACTOR=1
##YFACTOR=1
##FIRSTX=15
##LASTX=206
##FIRSTY=100
##MAXX=206
##MINX=15
##MAXY=9999
##MINY=10
##NPOINTS=76
##PEAK TABLE=(XY..XY)
15,100 18,10 26,30 27,561
28,80 29,681 30,10 38,20
39,380 40,50 41,721 43,2542
44,40 50,90 51,220 52,60
53,90 54,10 55,210 56,10
57,40 58,10 62,30 63,200
64,80 65,240 66,20 67,10
69,10 71,10 72,10 74,30
75,50 76,80 77,540 78,230
79,200 80,10 87,10 89,470
90,851 91,1942 92,210 93,10
101,10 102,80 103,320 104,220
105,951 106,70 115,200 116,50
117,90 118,440 119,110 127,10
128,30 129,20 131,260 132,40
133,330 134,210 135,20 145,50
146,10 147,30 159,20 161,20
175,20 189,9999 190,1501 191,130
192,10 204,2082 205,270 206,20
##END=
