##TITLE=N-Phenyltrifluoromethanesulfonimide
##JCAMP-DX=4.24
##DATA TYPE=MASS SPECTRUM
##ORIGIN=NIST Mass Spectrometry Data Center
##OWNER=NIST Mass Spectrometry Data Center
Collection (C) 2014 copyright by the U.S. Secretary of Commerce
on behalf of the United States of America. All rights reserved.
##CAS REGISTRY NO=37595-74-7
##$NIST MASS SPEC NO=342840
##MOLFORM=C8 H5 F6 N O4 S2
##MW=357
##$NIST SOURCE=MSDC
##XUNITS=M/Z
##YUNITS=RELATIVE INTENSITY
##XFACTOR=1
##YFACTOR=1
##FIRSTX=12
##LASTX=360
##FIRSTY=20
##MAXX=360
##MINX=12
##MAXY=9999
##MINY=10
##NPOINTS=113
##PEAK TABLE=(XY..XY)
12,20 18,50 26,40 27,200
30,10 37,350 38,1101 39,1802
40,350 41,761 45,60 46,90
48,751 50,550 51,961 52,1151
53,270 54,40 55,20 57,20
58,20 60,20 61,100 62,340
63,2222 64,5385 65,1682 66,170
67,330 69,9999 70,90 71,40
72,70 75,70 76,80 77,480
78,410 79,3053 80,200 81,330
82,30 83,240 84,320 85,80
86,30 87,40 88,70 91,8898
92,651 93,60 94,130 95,621
96,180 97,20 98,70 99,220
100,50 101,40 103,20 106,270
107,490 108,50 110,931 111,611
112,190 113,90 114,40 115,40
117,40 120,40 122,40 123,100
125,10 127,1151 128,140 129,100
130,450 131,40 132,30 133,90
138,230 139,941 140,330 141,480
142,581 143,40 144,30 148,120
149,10 150,20 154,40 155,110
156,30 160,540 161,30 182,20
188,20 196,2202 197,150 198,90
208,330 209,30 210,20 224,711
225,80 226,20 293,871 294,80
295,30 357,1782 358,170 359,180
360,10
##END=
