##TITLE=4,4'-Dihexylazoxybenzene
##JCAMP-DX=4.24
##DATA TYPE=MASS SPECTRUM
##ORIGIN=NIST Mass Spectrometry Data Center, 1994
##OWNER=NIST Mass Spectrometry Data Center
Collection (C) 2014 copyright by the U.S. Secretary of Commerce
on behalf of the United States of America. All rights reserved.
##CAS REGISTRY NO=37592-88-4
##$NIST MASS SPEC NO=135866
##MOLFORM=C24 H34 N2 O
##MW=366
##$NIST SOURCE=MSDC
##XUNITS=M/Z
##YUNITS=RELATIVE INTENSITY
##XFACTOR=1
##YFACTOR=1
##FIRSTX=17
##LASTX=368
##FIRSTY=62
##MAXX=368
##MINX=17
##MAXY=9999
##MINY=7
##NPOINTS=125
##PEAK TABLE=(XY..XY)
17,62 18,108 27,409 28,36
29,1239 30,7 32,9 39,503
41,2217 42,258 43,3328 44,125
50,63 51,221 52,88 53,172
54,63 55,1062 56,95 57,340
63,145 64,145 65,801 66,107
67,244 69,216 71,52 77,1181
78,740 79,832 80,133 81,156
83,78 85,138 89,648 90,1676
91,9999 92,915 93,339 94,79
95,101 102,140 103,571 104,567
105,1009 106,543 107,423 108,84
115,352 116,217 117,434 118,232
119,159 120,146 121,104 128,80
129,85 130,103 131,175 132,228
133,74 141,61 145,52 146,77
152,49 153,74 154,55 155,174
156,36 159,139 161,7402 162,968
163,76 165,207 166,77 167,90
168,68 169,297 170,46 175,129
176,79 177,171 178,86 179,61
180,109 181,154 182,95 183,323
184,98 188,124 189,539 190,111
191,149 192,61 193,74 194,128
195,98 196,64 197,331 198,67
207,62 208,44 209,59 211,96
239,96 240,53 251,44 253,1194
254,285 267,1420 268,748 269,109
279,134 280,43 281,273 282,74
295,323 296,95 337,157 338,149
350,470 351,134 366,4760 367,1292
368,196
##END=
