##TITLE=o-Tolunitrile, .alpha.-cyano-
##JCAMP-DX=4.24
##DATA TYPE=MASS SPECTRUM
##ORIGIN=N M M. NIBBERING
##OWNER=NIST Mass Spectrometry Data Center
Collection (C) 2014 copyright by the U.S. Secretary of Commerce
on behalf of the United States of America. All rights reserved.
##CAS REGISTRY NO=3759-28-2
##$NIST MASS SPEC NO=40519
##MOLFORM=C9 H6 N2
##MW=142
##$NIST SOURCE=MSDC
##XUNITS=M/Z
##YUNITS=RELATIVE INTENSITY
##XFACTOR=1
##YFACTOR=1
##FIRSTX=27
##LASTX=143
##FIRSTY=200
##MAXX=143
##MINX=27
##MAXY=9999
##MINY=100
##NPOINTS=27
##PEAK TABLE=(XY..XY)
27,200 37,200 38,200 39,500
50,400 51,300 52,100 61,200
62,400 63,400 64,300 65,100
74,100 75,400 76,300 87,200
88,700 89,300 90,100 102,100
113,100 114,1000 115,3600 116,500
141,1000 142,9999 143,1100
##END=
