##TITLE=p-Butoxybenzylidene p-propylaniline
##JCAMP-DX=4.24
##DATA TYPE=MASS SPECTRUM
##ORIGIN=NIST Mass Spectrometry Data Center, 1994
##OWNER=NIST Mass Spectrometry Data Center
Collection (C) 2014 copyright by the U.S. Secretary of Commerce
on behalf of the United States of America. All rights reserved.
##CAS REGISTRY NO=37599-83-0
##$NIST MASS SPEC NO=135918
##MOLFORM=C20 H25 N O
##MW=295
##$NIST SOURCE=MSDC
##XUNITS=M/Z
##YUNITS=RELATIVE INTENSITY
##XFACTOR=1
##YFACTOR=1
##FIRSTX=12
##LASTX=297
##FIRSTY=25
##MAXX=297
##MINX=12
##MAXY=9999
##MINY=25
##NPOINTS=123
##PEAK TABLE=(XY..XY)
12,25 18,99 26,51 27,1751
28,260 29,6375 30,172 39,1484
41,4085 42,181 43,839 50,192
51,711 52,170 53,183 54,30
55,384 56,68 57,842 58,48
62,61 63,400 64,234 65,1376
66,129 67,38 75,101 76,273
77,1191 78,464 79,180 80,26
82,64 84,220 89,1410 90,1884
91,1636 92,156 93,192 94,93
95,142 97,124 101,60 102,233
103,352 104,256 105,294 106,169
107,88 112,133 113,25 115,593
116,405 117,302 118,79 119,117
120,65 121,31 126,54 127,194
128,165 129,88 130,183 131,56
132,149 139,145 140,102 141,97
142,59 144,204 145,108 146,128
151,133 152,465 153,246 154,231
155,100 163,37 164,81 165,391
166,302 167,661 168,633 169,105
177,42 178,143 180,1310 181,612
182,125 183,307 184,44 190,41
191,149 192,183 193,210 194,143
195,41 196,475 197,75 206,26
207,49 208,181 209,26 210,9999
211,1654 212,165 221,133 222,258
223,78 224,52 236,129 237,51
238,387 239,643 240,113 252,54
264,38 266,9070 267,1995 268,182
295,6412 296,1488 297,192
##END=
