##TITLE=p-Heptylacetophenone
##JCAMP-DX=4.24
##DATA TYPE=MASS SPECTRUM
##ORIGIN=NIST Mass Spectrometry Data Center
##OWNER=NIST Mass Spectrometry Data Center
Collection (C) 2014 copyright by the U.S. Secretary of Commerce
on behalf of the United States of America. All rights reserved.
##CAS REGISTRY NO=37593-03-6
##$NIST MASS SPEC NO=343583
##MOLFORM=C15 H22 O
##MW=218
##$NIST SOURCE=MSDC
##XUNITS=M/Z
##YUNITS=RELATIVE INTENSITY
##XFACTOR=1
##YFACTOR=1
##FIRSTX=15
##LASTX=220
##FIRSTY=60
##MAXX=220
##MINX=15
##MAXY=9999
##MINY=10
##NPOINTS=77
##PEAK TABLE=(XY..XY)
15,60 18,10 27,450 28,90
29,621 30,10 38,10 39,350
40,40 41,761 43,2622 44,50
50,70 51,140 52,40 53,70
54,10 55,260 56,20 57,50
58,10 62,20 63,140 64,60
65,240 66,20 67,20 69,20
74,10 75,30 76,50 77,380
78,160 79,170 80,10 89,350
90,651 91,1541 92,160 93,10
101,10 102,70 103,300 104,180
105,761 106,80 115,170 116,40
117,80 118,300 119,90 121,10
127,10 128,30 129,20 131,360
132,50 133,280 134,230 135,20
145,60 146,10 147,60 148,10
159,30 160,10 161,10 173,10
175,30 200,10 201,40 203,9999
204,1461 205,100 218,1361 219,260
220,20
##END=
