##TITLE=2-Nonenoic acid
##JCAMP-DX=4.24
##DATA TYPE=MASS SPECTRUM
##ORIGIN=NIST Mass Spectrometry Data Center, 1994
##OWNER=NIST Mass Spectrometry Data Center
Collection (C) 2014 copyright by the U.S. Secretary of Commerce
on behalf of the United States of America. All rights reserved.
##CAS REGISTRY NO=3760-11-0
##$NIST MASS SPEC NO=134012
##MOLFORM=C9 H16 O2
##MW=156
##$NIST SOURCE=MSDC
##XUNITS=M/Z
##YUNITS=RELATIVE INTENSITY
##XFACTOR=1
##YFACTOR=1
##FIRSTX=15
##LASTX=157
##FIRSTY=296
##MAXX=157
##MINX=15
##MAXY=9999
##MINY=11
##NPOINTS=90
##PEAK TABLE=(XY..XY)
15,296 17,18 18,12 26,615
27,5731 28,1162 29,6895 30,188
31,367 37,105 39,5837 40,1369
41,8625 42,3539 43,9999 44,519
45,1931 46,67 47,32 50,260
51,566 52,320 53,1712 54,1719
55,6071 56,3611 57,1185 58,345
59,200 60,535 61,77 62,38
63,88 64,32 65,340 66,289
67,1550 68,2253 69,2593 70,1368
71,1121 72,38 73,5435 74,304
75,38 77,170 78,71 79,370
80,38 81,1787 82,608 83,663
84,2376 85,522 86,2314 87,781
88,299 89,24 91,48 92,52
94,621 95,690 96,2571 97,997
98,24 99,1520 100,620 101,341
102,53 105,17 106,16 107,11
109,626 110,374 111,58 112,11
113,537 114,454 115,51 120,106
121,18 123,262 124,33 127,329
128,43 138,840 139,97 141,23
156,29 157,28
##END=
