##TITLE=Ethyl 4-pyrazolecarboxylate
##JCAMP-DX=4.24
##DATA TYPE=MASS SPECTRUM
##ORIGIN=Chuck Anderson, Aldrich Chemical Co.
##OWNER=NIST Mass Spectrometry Data Center
Collection (C) 2014 copyright by the U.S. Secretary of Commerce
on behalf of the United States of America. All rights reserved.
##CAS REGISTRY NO=37622-90-5
##$NIST MASS SPEC NO=118023
##MOLFORM=C6 H8 N2 O2
##MW=140
##$NIST SOURCE=MSDC
##XUNITS=M/Z
##YUNITS=RELATIVE INTENSITY
##XFACTOR=1
##YFACTOR=1
##FIRSTX=14
##LASTX=141
##FIRSTY=34
##MAXX=141
##MINX=14
##MAXY=9999
##MINY=9
##NPOINTS=36
##PEAK TABLE=(XY..XY)
14,34 15,85 18,9 26,94
27,447 28,616 29,746 30,45
31,47 36,63 37,180 38,737
39,1432 40,954 41,175 42,88
43,122 44,69 45,230 52,45
53,138 65,30 66,59 67,364
68,677 69,50 94,42 95,9999
96,729 97,156 112,2395 113,138
114,10 125,92 140,1041 141,78
##END=
