##TITLE=Pyrimidine, 2,4,6-trichloro-
##JCAMP-DX=4.24
##DATA TYPE=MASS SPECTRUM
##ORIGIN=Japan AIST/NIMC Database- Spectrum MS-IW-5637
##OWNER=NIST Mass Spectrometry Data Center
Collection (C) 2014 copyright by the U.S. Secretary of Commerce
on behalf of the United States of America. All rights reserved.
##CAS REGISTRY NO=3764-01-0
##$NIST MASS SPEC NO=230056
##MOLFORM=C4 H Cl3 N2
##MW=182
##$NIST SOURCE=MSDC
##XUNITS=M/Z
##YUNITS=RELATIVE INTENSITY
##XFACTOR=1
##YFACTOR=1
##FIRSTX=12
##LASTX=189
##FIRSTY=20
##MAXX=189
##MINX=12
##MAXY=9999
##MINY=10
##NPOINTS=73
##PEAK TABLE=(XY..XY)
12,20 24,50 25,90 26,10
27,20 28,60 35,99 36,109
37,90 38,249 39,60 44,10
47,469 48,30 49,159 50,239
51,2049 52,99 53,20 56,40
57,10 59,60 60,839 61,129
62,1819 63,60 64,499 65,10
71,20 72,20 73,99 74,60
75,30 76,319 77,449 78,20
82,10 84,10 85,369 86,4449
87,1039 88,1469 89,299 91,40
92,20 94,10 95,50 96,10
97,30 108,10 111,40 112,60
113,10 114,10 120,80 121,20
122,50 123,10 124,10 147,6869
148,349 149,4419 150,219 151,719
152,30 182,9999 183,519 184,9559
185,499 186,3059 187,159 188,329
189,10
##END=
