##TITLE=2,7-Dimethyl-2,6-octadien-4-ol
##JCAMP-DX=4.24
##DATA TYPE=MASS SPECTRUM
##ORIGIN=W.Epstein ET AL.J.Chem.Eng.Data,21,500(1976)
##OWNER=NIST Mass Spectrometry Data Center
Collection (C) 2014 copyright by the U.S. Secretary of Commerce
on behalf of the United States of America. All rights reserved.
##CAS REGISTRY NO=37665-99-9
##$NIST MASS SPEC NO=281687
##MOLFORM=C10 H18 O
##MW=154
##$NIST SOURCE=MSDC
##XUNITS=M/Z
##YUNITS=RELATIVE INTENSITY
##XFACTOR=1
##YFACTOR=1
##FIRSTX=41
##LASTX=154
##FIRSTY=3813
##MAXX=154
##MINX=41
##MAXY=9999
##MINY=20
##NPOINTS=29
##PEAK TABLE=(XY..XY)
41,3813 42,230 43,1672 51,320
52,130 53,681 54,130 55,1611
56,190 57,1631 65,490 67,1331
69,611 70,1041 77,420 79,490
80,190 81,130 83,420 85,9999
86,490 91,510 92,150 93,701
105,230 121,300 136,230 137,20
154,20
##END=
