##TITLE=6-Chloro-4-chromanone
##JCAMP-DX=4.24
##DATA TYPE=MASS SPECTRUM
##ORIGIN=NIST Mass Spectrometry Data Center, 1994
##OWNER=NIST Mass Spectrometry Data Center
Collection (C) 2014 copyright by the U.S. Secretary of Commerce
on behalf of the United States of America. All rights reserved.
##CAS REGISTRY NO=37674-72-9
##$NIST MASS SPEC NO=136607
##MOLFORM=C9 H7 Cl O2
##MW=182
##$NIST SOURCE=MSDC
##XUNITS=M/Z
##YUNITS=RELATIVE INTENSITY
##XFACTOR=1
##YFACTOR=1
##FIRSTX=13
##LASTX=185
##FIRSTY=39
##MAXX=185
##MINX=13
##MAXY=9999
##MINY=23
##NPOINTS=81
##PEAK TABLE=(XY..XY)
13,39 14,25 15,60 18,60
25,82 26,632 27,1411 28,212
30,37 35,87 36,97 37,636
38,523 39,518 40,23 42,190
43,99 47,75 48,59 49,280
50,789 51,443 52,23 53,755
54,40 55,357 60,147 61,889
62,1979 63,5977 64,433 65,356
66,69 68,29 69,39 71,91
72,366 73,662 74,626 75,1026
76,123 77,106 84,121 85,88
86,105 87,90 88,88 89,424
90,174 91,628 92,105 96,54
97,318 98,1864 99,559 100,676
101,164 102,36 109,50 110,230
111,91 112,80 113,36 118,26
119,40 124,46 126,6224 127,582
128,2022 129,147 138,38 147,39
152,60 154,9999 155,943 156,3231
157,325 182,4891 183,480 184,1584
185,138
##END=
