##TITLE=2,2',4-Trichloro-1,1'-biphenyl
##JCAMP-DX=4.24
##DATA TYPE=MASS SPECTRUM
##ORIGIN=Organic Synthesis Lab, MSU, Moscow.TRC 1370
##OWNER=NIST Mass Spectrometry Data Center
Collection (C) 2014 copyright by the U.S. Secretary of Commerce
on behalf of the United States of America. All rights reserved.
##CAS REGISTRY NO=37680-66-3
##$NIST MASS SPEC NO=326718
##MOLFORM=C12 H7 Cl3
##MW=256
##$NIST SOURCE=MSDC
##XUNITS=M/Z
##YUNITS=RELATIVE INTENSITY
##XFACTOR=1
##YFACTOR=1
##FIRSTX=51
##LASTX=263
##FIRSTY=524
##MAXX=263
##MINX=51
##MAXY=9999
##MINY=39
##NPOINTS=102
##PEAK TABLE=(XY..XY)
51,524 52,118 54,53 55,52
56,75 60,85 61,428 62,787
63,581 64,56 67,42 72,130
73,640 74,1568 75,2758 77,155
79,214 80,370 81,185 83,60
84,199 85,444 86,424 87,362
88,59 91,57 93,2428 94,760
96,83 97,415 98,897 99,807
100,243 101,181 102,56 104,41
107,67 108,170 109,375 110,1846
111,1559 113,168 114,61 115,69
116,75 120,95 121,181 122,358
123,589 124,234 125,341 126,238
128,670 129,585 130,262 132,70
133,130 134,125 135,111 136,292
137,120 138,52 145,39 146,55
147,125 148,191 149,633 150,3108
151,2120 152,234 159,139 160,275
161,107 162,122 170,87 171,41
172,112 173,79 174,47 183,81
184,225 186,9470 187,1376 188,3176
189,287 194,96 196,70 220,493
221,3493 222,681 223,2502 224,300
225,391 254,45 256,9293 257,1497
258,9999 259,1485 260,3033 261,395
262,425 263,56
##END=
