##TITLE=N,N,N',N'-Tetramethylsulfonamide
##JCAMP-DX=4.24
##DATA TYPE=MASS SPECTRUM
##ORIGIN=NIST Mass Spectrometry Data Center, 1994
##OWNER=NIST Mass Spectrometry Data Center
Collection (C) 2014 copyright by the U.S. Secretary of Commerce
on behalf of the United States of America. All rights reserved.
##CAS REGISTRY NO=3768-63-6
##$NIST MASS SPEC NO=135841
##MOLFORM=C4 H12 N2 O2 S
##MW=152
##$NIST SOURCE=MSDC
##XUNITS=M/Z
##YUNITS=RELATIVE INTENSITY
##XFACTOR=1
##YFACTOR=1
##FIRSTX=12
##LASTX=154
##FIRSTY=22
##MAXX=154
##MINX=12
##MAXY=9999
##MINY=6
##NPOINTS=50
##PEAK TABLE=(XY..XY)
12,22 14,208 15,3466 16,44
17,22 18,4971 19,23 27,248
28,2540 29,58 30,210 32,32
33,16 34,16 38,26 39,52
40,289 41,524 42,6191 43,1853
44,9999 45,5731 46,285 47,20
48,167 49,47 50,20 58,293
60,46 61,45 62,15 63,23
64,107 65,98 66,30 73,6
75,29 76,39 77,15 78,9
92,532 93,21 94,30 108,3637
109,190 110,194 111,11 152,1537
153,106 154,77
##END=
