##TITLE=Cyclopentene,3-(3-methylbutyl)-
##JCAMP-DX=4.24
##DATA TYPE=MASS SPECTRUM
##ORIGIN=S.A. Rang et al., IR & MS of Unsatd. Hydrocarbons, 1977
##OWNER=NIST Mass Spectrometry Data Center
Collection (C) 2014 copyright by the U.S. Secretary of Commerce
on behalf of the United States of America. All rights reserved.
##CAS REGISTRY NO=37689-16-0
##$NIST MASS SPEC NO=142668
##MOLFORM=C10 H18
##MW=138
##$NIST SOURCE=MSDC
##XUNITS=M/Z
##YUNITS=RELATIVE INTENSITY
##XFACTOR=1
##YFACTOR=1
##FIRSTX=15
##LASTX=140
##FIRSTY=21
##MAXX=140
##MINX=15
##MAXY=9999
##MINY=1
##NPOINTS=78
##PEAK TABLE=(XY..XY)
15,21 16,1 24,1 25,5
26,41 27,453 28,130 29,470
30,9 31,1 37,9 38,28
39,762 40,174 41,1798 42,174
43,660 44,27 45,3 50,23
51,92 52,67 53,294 54,147
55,508 56,227 57,521 58,23
59,1 61,1 62,5 63,32
64,12 65,428 66,1321 67,9999
68,864 69,160 70,241 71,187
72,9 74,1 75,4 76,3
77,241 78,53 79,414 80,214
81,521 82,1676 83,388 84,11
85,1 89,3 90,1 91,66
92,9 93,40 94,31 95,267
96,63 97,27 98,3 105,5
107,5 108,5 109,160 110,39
111,3 115,3 121,1 122,1
123,47 124,5 136,1 138,401
139,40 140,3
##END=
