##TITLE=1H-Indole-2-carboxylic acid, ethyl ester
##JCAMP-DX=4.24
##DATA TYPE=MASS SPECTRUM
##ORIGIN=NIST Mass Spectrometry Data Center, 2010
##OWNER=NIST Mass Spectrometry Data Center
Collection (C) 2014 copyright by the U.S. Secretary of Commerce
on behalf of the United States of America. All rights reserved.
##CAS REGISTRY NO=3770-50-1
##$NIST MASS SPEC NO=374794
##MOLFORM=C11 H11 N O2
##MW=189
##$NIST SOURCE=MSDC
##XUNITS=M/Z
##YUNITS=RELATIVE INTENSITY
##XFACTOR=1
##YFACTOR=1
##FIRSTX=15
##LASTX=191
##FIRSTY=20
##MAXX=191
##MINX=15
##MAXY=9999
##MINY=10
##NPOINTS=74
##PEAK TABLE=(XY..XY)
15,20 26,40 27,170 28,60
29,210 30,20 31,10 37,30
38,80 39,260 40,30 41,20
42,10 43,30 45,30 49,10
50,110 51,140 52,70 53,20
58,140 61,80 62,390 63,711
64,150 65,80 66,10 72,140
73,20 74,50 75,70 76,70
77,160 78,40 85,30 86,80
87,170 88,500 89,2472 90,290
91,20 100,10 101,10 102,20
103,20 104,40 105,20 111,10
112,10 113,20 114,691 115,3713
116,891 117,360 118,50 128,30
130,20 132,100 133,10 141,10
143,9999 144,2272 145,270 146,20
156,20 159,10 160,110 161,170
162,20 174,70 175,20 189,4934
190,621 191,60
##END=
