##TITLE=4-Methylcarbazole
##JCAMP-DX=4.24
##DATA TYPE=MASS SPECTRUM
##ORIGIN=V.A. KOPTYUG, VOL.4, ATLAS OF MASS SPECTRA OF ORGANIC COMPOUNDS
##OWNER=NIST Mass Spectrometry Data Center
Collection (C) 2014 copyright by the U.S. Secretary of Commerce
on behalf of the United States of America. All rights reserved.
##CAS REGISTRY NO=3770-48-7
##$NIST MASS SPEC NO=73113
##MOLFORM=C13 H11 N
##MW=181
##$NIST SOURCE=MSDC
##XUNITS=M/Z
##YUNITS=RELATIVE INTENSITY
##XFACTOR=1
##YFACTOR=1
##FIRSTX=29
##LASTX=183
##FIRSTY=190
##MAXX=183
##MINX=29
##MAXY=9999
##MINY=100
##NPOINTS=44
##PEAK TABLE=(XY..XY)
29,190 39,240 41,150 43,170
50,100 51,220 52,100 55,110
62,110 63,310 64,110 74,150
75,220 76,380 77,790 87,140
89,440 90,650 91,150 101,140
102,100 113,140 114,100 115,140
126,210 127,400 128,220 139,180
140,220 150,180 151,560 152,1240
153,510 154,280 164,140 166,100
170,100 177,210 178,750 179,690
180,7650 181,9999 182,1470 183,120
##END=
