##TITLE=Cyclopentane, 1-bromo-2-chloro-, cis-
##JCAMP-DX=4.24
##DATA TYPE=MASS SPECTRUM
##ORIGIN=J. M. PECHINE SOURCE NA4
##OWNER=NIST Mass Spectrometry Data Center
Collection (C) 2014 copyright by the U.S. Secretary of Commerce
on behalf of the United States of America. All rights reserved.
##CAS REGISTRY NO=37722-39-7
##$NIST MASS SPEC NO=42191
##MOLFORM=C5 H8 Br Cl
##MW=182
##$NIST SOURCE=MSDC
##XUNITS=M/Z
##YUNITS=RELATIVE INTENSITY
##XFACTOR=1
##YFACTOR=1
##FIRSTX=27
##LASTX=184
##FIRSTY=395
##MAXX=184
##MINX=27
##MAXY=9999
##MINY=100
##NPOINTS=22
##PEAK TABLE=(XY..XY)
27,395 38,185 39,1175 40,205
41,2110 42,110 51,125 53,100
65,350 66,1150 67,9999 68,565
75,465 77,145 103,2500 104,140
105,795 106,175 108,120 182,440
183,565 184,105
##END=
