##TITLE=2-Chloro-6-fluorophenylacetic acid
##JCAMP-DX=4.24
##DATA TYPE=MASS SPECTRUM
##ORIGIN=NIST Mass Spectrometry Data Center
##OWNER=NIST Mass Spectrometry Data Center
Collection (C) 2014 copyright by the U.S. Secretary of Commerce
on behalf of the United States of America. All rights reserved.
##CAS REGISTRY NO=37777-76-7
##$NIST MASS SPEC NO=342639
##MOLFORM=C8 H6 Cl F O2
##MW=188
##$NIST SOURCE=MSDC
##XUNITS=M/Z
##YUNITS=RELATIVE INTENSITY
##XFACTOR=1
##YFACTOR=1
##FIRSTX=17
##LASTX=191
##FIRSTY=40
##MAXX=191
##MINX=17
##MAXY=9999
##MINY=10
##NPOINTS=111
##PEAK TABLE=(XY..XY)
17,40 18,70 20,10 33,80
35,60 36,140 37,260 38,290
39,460 40,30 47,40 48,40
49,200 50,681 51,591 52,70
54,220 55,40 56,220 57,1311
58,70 61,470 62,791 63,821
64,70 65,20 67,150 68,160
69,190 70,100 72,340 73,80
75,510 76,80 77,340 78,40
79,60 80,240 81,1131 82,240
83,861 84,130 85,270 86,270
87,250 88,120 89,781 90,80
91,230 92,40 93,220 94,90
95,260 96,220 97,290 98,40
99,60 101,10 102,10 103,20
104,50 105,240 107,4234 108,2302
109,5305 110,490 111,80 112,40
113,20 114,10 115,60 117,871
118,60 119,260 120,20 122,10
123,180 124,671 125,420 126,220
127,30 128,10 129,10 130,10
131,10 133,20 139,30 140,120
141,100 143,9999 144,1091 145,3083
146,350 147,10 148,20 150,10
153,3073 154,240 155,20 157,20
159,20 168,10 170,40 171,20
172,20 173,10 186,20 188,3223
189,320 190,1041 191,100
##END=
