##TITLE=Ethyl 3-thiopheneacetate
##JCAMP-DX=4.24
##DATA TYPE=MASS SPECTRUM
##ORIGIN=Japan AIST/NIMC Database- Spectrum MS-IW-6262
##OWNER=NIST Mass Spectrometry Data Center
Collection (C) 2014 copyright by the U.S. Secretary of Commerce
on behalf of the United States of America. All rights reserved.
##CAS REGISTRY NO=37784-63-7
##$NIST MASS SPEC NO=238708
##MOLFORM=C8 H10 O2 S
##MW=170
##$NIST SOURCE=MSDC
##XUNITS=M/Z
##YUNITS=RELATIVE INTENSITY
##XFACTOR=1
##YFACTOR=1
##FIRSTX=15
##LASTX=173
##FIRSTY=20
##MAXX=173
##MINX=15
##MAXY=9999
##MINY=10
##NPOINTS=62
##PEAK TABLE=(XY..XY)
15,20 26,40 27,279 28,80
29,1309 30,30 31,60 32,10
37,10 38,40 39,199 41,10
42,20 43,30 44,20 45,1069
46,30 47,70 48,90 49,10
50,60 51,129 52,60 53,579
54,20 55,10 57,40 58,70
59,10 61,10 62,20 63,50
65,10 69,199 70,129 71,90
72,10 81,20 82,30 84,20
85,50 91,10 93,10 95,60
96,109 97,9999 98,1029 99,499
100,40 111,40 113,30 124,60
125,229 126,20 127,10 141,10
142,90 155,10 170,3369 171,339
172,179 173,10
##END=
