##TITLE=Diethyl 1,1-cyclobutanedicarboxylate
##JCAMP-DX=4.24
##DATA TYPE=MASS SPECTRUM
##ORIGIN=Japan AIST/NIMC Database- Spectrum MS-NW-5711
##OWNER=NIST Mass Spectrometry Data Center
Collection (C) 2014 copyright by the U.S. Secretary of Commerce
on behalf of the United States of America. All rights reserved.
##CAS REGISTRY NO=3779-29-1
##$NIST MASS SPEC NO=232353
##MOLFORM=C10 H16 O4
##MW=200
##$NIST SOURCE=MSDC
##XUNITS=M/Z
##YUNITS=RELATIVE INTENSITY
##XFACTOR=1
##YFACTOR=1
##FIRSTX=14
##LASTX=201
##FIRSTY=40
##MAXX=201
##MINX=14
##MAXY=9999
##MINY=10
##NPOINTS=142
##PEAK TABLE=(XY..XY)
14,40 15,209 16,10 18,10
25,30 26,639 27,3099 28,839
29,8489 30,199 31,369 32,10
36,10 37,20 38,50 39,909
40,159 41,799 42,179 43,1079
44,219 45,1069 46,40 47,40
49,10 50,90 51,179 52,159
53,2219 54,1799 55,1919 56,419
57,309 58,189 59,139 60,50
61,10 63,10 65,30 66,20
67,119 68,60 69,339 70,189
71,419 72,509 73,319 74,40
75,10 76,30 77,30 78,20
79,40 80,399 81,2469 82,2859
83,1899 84,229 85,649 86,80
87,80 88,40 89,20 90,10
91,30 92,10 93,40 94,10
95,90 96,40 97,199 98,1109
99,9999 100,3329 101,329 102,40
103,10 104,20 105,10 106,10
107,10 108,4849 109,539 110,609
111,449 112,40 113,1069 114,90
115,60 116,20 117,99 118,10
119,20 120,10 121,20 122,30
123,10 124,20 125,239 126,1809
127,3119 128,1589 129,149 130,20
133,10 134,10 135,10 136,20
137,10 138,10 139,20 140,10
141,70 142,20 143,209 144,159
145,239 146,20 147,10 148,10
149,10 150,10 152,10 153,60
154,2209 155,4929 156,489 157,80
158,10 160,20 166,10 167,20
171,249 172,129 173,579 174,70
175,10 183,10 185,20 199,20
200,499 201,80
##END=
