##TITLE=Betamethasone
##JCAMP-DX=4.24
##DATA TYPE=MASS SPECTRUM
##ORIGIN=EQUINE DRUG TESTING PROG. J.D.HENION,ETAL CORNELL U, ITHACA, NY
##OWNER=NIST Mass Spectrometry Data Center
Collection (C) 2014 copyright by the U.S. Secretary of Commerce
on behalf of the United States of America. All rights reserved.
##CAS REGISTRY NO=378-44-9
##$NIST MASS SPEC NO=74535
##MOLFORM=C22 H29 F O5
##MW=392
##$NIST SOURCE=MSDC
##XUNITS=M/Z
##YUNITS=RELATIVE INTENSITY
##XFACTOR=1
##YFACTOR=1
##FIRSTX=39
##LASTX=312
##FIRSTY=820
##MAXX=312
##MINX=39
##MAXY=9999
##MINY=200
##NPOINTS=72
##PEAK TABLE=(XY..XY)
39,820 41,2360 42,360 43,580
44,230 53,840 55,1400 57,260
59,230 65,480 67,400 68,240
69,550 73,350 77,1030 79,710
80,250 81,570 91,1630 92,540
93,420 94,260 95,380 99,250
104,290 105,230 107,860 108,520
109,600 110,290 111,430 113,210
115,450 116,220 117,230 119,220
120,380 121,3820 122,9999 123,1420
124,420 125,430 127,290 128,220
131,280 133,460 134,930 135,850
137,310 139,650 141,290 143,200
145,500 146,250 147,550 152,240
157,230 158,260 159,550 160,1110
161,310 163,220 171,200 173,200
186,200 187,250 199,200 209,260
213,220 242,230 268,240 312,550
##END=
