##TITLE=Pentafluoropropanoic acid methyl ester
##JCAMP-DX=4.24
##DATA TYPE=MASS SPECTRUM
##ORIGIN=NIST Mass Spectrometry Data Center
##OWNER=NIST Mass Spectrometry Data Center
Collection (C) 2014 copyright by the U.S. Secretary of Commerce
on behalf of the United States of America. All rights reserved.
##CAS REGISTRY NO=378-75-6
##$NIST MASS SPEC NO=343681
##MOLFORM=C4 H3 F5 O2
##MW=178
##$NIST SOURCE=MSDC
##XUNITS=M/Z
##YUNITS=RELATIVE INTENSITY
##XFACTOR=1
##YFACTOR=1
##FIRSTX=12
##LASTX=177
##FIRSTY=30
##MAXX=177
##MINX=12
##MAXY=9999
##MINY=10
##NPOINTS=41
##PEAK TABLE=(XY..XY)
12,30 13,50 15,9999 16,100
20,10 29,1231 30,230 31,1762
33,200 43,40 44,90 45,80
47,50 50,641 51,70 59,6426
60,140 61,30 62,20 65,70
69,3083 70,30 71,20 78,60
81,480 82,10 97,300 98,10
100,891 101,20 103,20 109,10
119,2542 120,50 128,40 129,10
131,300 132,10 147,160 149,70
177,10
##END=
