##TITLE=Benz[a]acridine, 10-methyl-
##JCAMP-DX=4.24
##DATA TYPE=MASS SPECTRUM
##ORIGIN=N.P.BUU-HOI INSTITUT D'ULM 75-PARIS (VE) FRANCE
##OWNER=NIST Mass Spectrometry Data Center
Collection (C) 2014 copyright by the U.S. Secretary of Commerce
on behalf of the United States of America. All rights reserved.
##CAS REGISTRY NO=3781-67-7
##$NIST MASS SPEC NO=11770
##MOLFORM=C18 H13 N
##MW=243
##$NIST SOURCE=MSDC
##XUNITS=M/Z
##YUNITS=RELATIVE INTENSITY
##XFACTOR=1
##YFACTOR=1
##FIRSTX=108
##LASTX=244
##FIRSTY=250
##MAXX=244
##MINX=108
##MAXY=9999
##MINY=120
##NPOINTS=16
##PEAK TABLE=(XY..XY)
108,250 113,120 114,200 120,190
121,420 126,750 214,320 215,450
216,290 227,340 228,180 240,750
241,1550 242,2600 243,9999 244,1970
##END=
