##TITLE=Isobutyl laurate
##JCAMP-DX=4.24
##DATA TYPE=MASS SPECTRUM
##ORIGIN=Japan AIST/NIMC Database- Spectrum MS-NW-5385
##OWNER=NIST Mass Spectrometry Data Center
Collection (C) 2014 copyright by the U.S. Secretary of Commerce
on behalf of the United States of America. All rights reserved.
##CAS REGISTRY NO=37811-72-6
##$NIST MASS SPEC NO=233106
##MOLFORM=C16 H32 O2
##MW=256
##$NIST SOURCE=MSDC
##XUNITS=M/Z
##YUNITS=RELATIVE INTENSITY
##XFACTOR=1
##YFACTOR=1
##FIRSTX=18
##LASTX=256
##FIRSTY=10
##MAXX=256
##MINX=18
##MAXY=9999
##MINY=10
##NPOINTS=90
##PEAK TABLE=(XY..XY)
18,10 27,749 28,309 29,2339
30,20 31,90 39,539 40,129
41,3759 42,759 43,3349 44,109
45,109 53,159 54,199 55,1959
56,9999 57,9749 58,469 59,90
60,2199 61,709 67,299 68,179
69,849 70,299 71,1369 72,90
73,1459 74,229 79,50 81,289
82,129 83,759 84,449 85,969
86,119 87,439 88,60 89,80
93,40 95,449 96,129 97,559
98,509 99,229 100,10 101,409
102,70 103,70 109,249 110,70
111,209 112,129 113,60 115,359
116,539 117,169 121,30 123,90
125,90 129,749 130,70 138,129
139,80 140,90 141,50 143,179
155,10 157,499 158,60 163,60
164,40 165,30 171,169 172,20
180,10 181,70 182,10 183,3969
184,539 185,70 199,30 200,1199
201,2249 202,329 203,30 226,60
241,50 256,60
##END=
