##TITLE=3-Hydroxybenzoic acid, 2TMS derivative
##JCAMP-DX=4.24
##DATA TYPE=MASS SPECTRUM
##ORIGIN=NIST Mass Spectrometry Data Center, 2010
##OWNER=NIST Mass Spectrometry Data Center
Collection (C) 2014 copyright by the U.S. Secretary of Commerce
on behalf of the United States of America. All rights reserved.
##CAS REGISTRY NO=3782-84-1
##$NIST MASS SPEC NO=374545
##MOLFORM=C13 H22 O3 Si2
##MW=282
##$NIST SOURCE=MSDC
##XUNITS=M/Z
##YUNITS=RELATIVE INTENSITY
##XFACTOR=1
##YFACTOR=1
##FIRSTX=15
##LASTX=286
##FIRSTY=10
##MAXX=286
##MINX=15
##MAXY=9999
##MINY=10
##NPOINTS=169
##PEAK TABLE=(XY..XY)
15,10 17,10 18,30 27,10
28,50 29,40 31,20 32,10
38,10 39,30 40,10 41,10
42,20 43,240 44,110 45,731
46,50 47,100 48,10 49,10
50,60 51,30 52,30 53,50
54,10 55,50 56,10 57,50
58,60 59,220 60,40 61,80
62,20 63,100 64,130 65,90
66,70 67,60 68,20 69,60
70,30 71,60 72,100 73,3924
74,370 75,561 76,250 77,170
78,70 79,80 80,10 81,60
82,30 83,80 84,60 85,60
86,10 87,30 88,10 89,220
90,100 91,761 92,270 93,100
94,10 95,100 96,50 97,70
98,50 99,20 101,10 102,10
103,120 104,120 105,220 106,40
107,80 108,10 109,50 110,10
111,120 112,80 113,10 115,60
116,10 117,60 118,80 119,160
120,90 121,140 122,120 123,50
124,10 126,1021 129,10 131,90
132,20 133,320 134,60 135,510
136,80 137,70 138,10 139,10
141,10 143,10 145,30 147,701
148,140 149,791 150,140 151,240
152,30 153,10 157,10 161,20
162,10 163,120 164,50 165,430
166,110 167,30 168,10 175,10
177,290 178,50 179,100 180,20
181,70 182,10 183,10 191,90
193,3543 194,611 195,240 196,30
197,10 205,10 207,210 208,40
209,80 210,20 211,10 219,10
221,40 223,3843 224,801 225,310
226,40 227,10 233,10 237,30
238,10 249,10 251,60 252,10
253,10 265,50 267,9999 268,2172
269,831 270,130 271,20 281,150
282,4034 283,921 284,360 285,60
286,10
##END=
