##TITLE=2,6-Dihydroxybenzoic acid, 3TMS derivative
##JCAMP-DX=4.24
##DATA TYPE=MASS SPECTRUM
##ORIGIN=NIST Mass Spectrometry Data Center
##OWNER=NIST Mass Spectrometry Data Center
Collection (C) 2014 copyright by the U.S. Secretary of Commerce
on behalf of the United States of America. All rights reserved.
##CAS REGISTRY NO=3782-85-2
##$NIST MASS SPEC NO=352806
##MOLFORM=C16 H30 O4 Si3
##MW=370
##$NIST SOURCE=MSDC
##XUNITS=M/Z
##YUNITS=RELATIVE INTENSITY
##XFACTOR=1
##YFACTOR=1
##FIRSTX=29
##LASTX=372
##FIRSTY=10
##MAXX=372
##MINX=29
##MAXY=9999
##MINY=10
##NPOINTS=193
##PEAK TABLE=(XY..XY)
29,10 39,10 43,70 44,50
45,430 46,30 47,30 53,10
55,10 57,20 58,20 59,70
60,10 61,10 63,30 65,10
66,10 67,10 69,10 70,10
71,20 73,3403 74,300 75,250
76,20 77,80 78,10 79,30
81,10 83,30 85,20 87,10
89,40 90,10 91,120 92,10
93,30 95,50 96,10 97,20
99,20 101,10 102,10 103,80
104,50 105,150 106,20 107,50
108,10 109,20 111,10 113,10
115,90 116,20 117,60 118,10
119,160 120,20 121,60 122,10
123,20 126,30 127,20 128,20
129,40 130,10 131,250 132,40
133,470 134,70 135,150 136,20
137,50 141,10 143,40 144,10
145,50 147,1341 148,230 149,530
150,80 151,70 152,10 153,10
155,10 157,10 159,20 161,50
162,20 163,130 164,30 165,60
166,10 167,40 169,10 175,20
176,10 177,80 178,20 179,100
180,30 181,40 182,10 183,10
189,30 190,10 191,140 192,40
193,150 194,30 195,70 196,20
197,20 203,20 205,30 206,10
207,240 208,70 209,90 210,20
211,10 217,10 219,70 220,20
221,210 222,50 223,60 224,10
225,40 226,10 227,10 233,30
234,10 235,40 236,20 237,490
238,100 239,60 240,10 247,60
248,20 249,771 250,170 251,200
252,60 253,70 254,20 255,10
263,60 265,1121 266,290 267,2402
268,581 269,250 270,40 271,10
279,40 280,30 281,360 282,120
283,90 284,20 285,10 295,20
297,30 298,10 299,10 307,10
309,10 311,20 313,70 314,20
315,10 321,20 322,10 323,10
325,10 337,10 339,80 340,30
341,20 342,10 353,70 355,9999
356,4744 357,2312 358,500 359,120
360,20 369,20 370,70 371,20
372,10
##END=
