##TITLE=Cyclopentane, (2-methylpropyl)-
##JCAMP-DX=4.24
##DATA TYPE=MASS SPECTRUM
##OWNER=NIST Mass Spectrometry Data Center
Collection (C) 2014 copyright by the U.S. Secretary of Commerce
on behalf of the United States of America. All rights reserved.
##CAS REGISTRY NO=3788-32-7
##$NIST MASS SPEC NO=2470
##MOLFORM=C9 H18
##MW=126
##$NIST SOURCE=MSDC
##XUNITS=M/Z
##YUNITS=RELATIVE INTENSITY
##XFACTOR=1
##YFACTOR=1
##FIRSTX=25
##LASTX=128
##FIRSTY=10
##MAXX=128
##MINX=25
##MAXY=9999
##MINY=10
##NPOINTS=75
##PEAK TABLE=(XY..XY)
25,10 26,130 27,3633 28,631
29,2742 30,60 37,30 38,90
39,3113 40,621 41,9999 42,1962
43,3944 44,130 45,10 46,10
47,10 48,10 49,10 50,40
51,180 52,120 53,881 54,811
55,6906 56,7817 57,3563 58,150
59,10 61,10 62,10 63,40
64,10 65,170 66,200 67,2162
68,3833 69,9038 70,2122 71,170
72,10 74,10 75,10 76,10
77,110 78,30 79,130 80,30
81,230 82,4474 83,7136 84,1341
85,120 86,10 89,10 91,30
92,10 93,10 94,10 95,30
96,20 97,270 98,480 99,30
100,10 109,10 110,10 111,951
112,90 113,10 124,10 125,30
126,661 127,60 128,10
##END=
