##TITLE=Salicylic acid, 2TMS derivative
##JCAMP-DX=4.24
##DATA TYPE=MASS SPECTRUM
##ORIGIN=NIST Mass Spectrometry Data Center, 2010
##OWNER=NIST Mass Spectrometry Data Center
Collection (C) 2014 copyright by the U.S. Secretary of Commerce
on behalf of the United States of America. All rights reserved.
##CAS REGISTRY NO=3789-85-3
##$NIST MASS SPEC NO=374323
##MOLFORM=C13 H22 O3 Si2
##MW=282
##$NIST SOURCE=MSDC
##XUNITS=M/Z
##YUNITS=RELATIVE INTENSITY
##XFACTOR=1
##YFACTOR=1
##FIRSTX=15
##LASTX=281
##FIRSTY=20
##MAXX=281
##MINX=15
##MAXY=9999
##MINY=10
##NPOINTS=149
##PEAK TABLE=(XY..XY)
15,20 26,10 27,20 29,50
31,20 38,10 39,50 40,20
41,20 42,20 43,440 44,200
45,1301 46,80 47,120 48,10
49,20 50,40 51,50 52,30
53,60 54,10 55,60 56,20
57,70 58,80 59,210 60,30
61,80 62,20 63,110 64,120
65,160 66,50 67,30 68,10
69,30 70,40 71,60 72,140
73,9999 74,791 75,701 76,120
77,320 78,50 79,60 80,10
81,20 82,20 83,40 84,10
85,100 86,10 87,30 88,10
89,170 90,110 91,941 92,210
93,60 94,10 95,60 96,20
97,30 98,10 99,10 101,20
102,20 103,110 104,40 105,200
106,30 107,40 108,10 109,20
111,30 113,10 115,160 116,20
117,50 118,40 119,100 120,90
121,90 122,10 123,40 124,10
125,10 126,190 128,10 129,20
131,120 132,20 133,410 134,70
135,1231 136,160 137,100 138,10
143,10 145,30 147,490 148,90
149,721 150,110 151,260 152,30
153,30 159,80 160,10 161,30
162,10 163,40 164,10 165,30
166,10 167,10 175,150 176,20
177,60 178,10 179,150 180,20
181,100 182,20 183,10 191,20
192,10 193,350 194,120 195,70
196,10 207,10 209,250 210,50
211,30 221,10 233,10 249,60
250,10 251,20 265,50 267,3233
268,701 269,270 270,40 271,10
281,10
##END=
