##TITLE=2,6,10-Dodecatrien-1-ol, 3,7,11-trimethyl-, (Z,E)-
##JCAMP-DX=4.24
##DATA TYPE=MASS SPECTRUM
##ORIGIN=Mark Whitten, Florida Museum of Natural History, U. of Florida
##OWNER=NIST Mass Spectrometry Data Center
Collection (C) 2014 copyright by the U.S. Secretary of Commerce
on behalf of the United States of America. All rights reserved.
##CAS REGISTRY NO=3790-71-4
##$NIST MASS SPEC NO=140999
##MOLFORM=C15 H26 O
##MW=222
##$NIST SOURCE=MSDC
##XUNITS=M/Z
##YUNITS=RELATIVE INTENSITY
##XFACTOR=1
##YFACTOR=1
##FIRSTX=41
##LASTX=222
##FIRSTY=9999
##MAXX=222
##MINX=41
##MAXY=9999
##MINY=26
##NPOINTS=82
##PEAK TABLE=(XY..XY)
41,9999 42,588 43,1674 44,132
45,95 50,53 51,250 53,1527
54,237 55,1948 56,283 57,711
58,44 59,83 63,43 65,377
66,172 67,1959 68,1411 69,9497
70,674 71,496 72,57 77,628
78,142 79,992 80,707 81,2554
82,457 83,515 84,835 85,138
91,719 92,308 93,2520 94,457
95,974 96,185 97,347 98,66
103,48 105,370 106,99 107,1263
108,259 109,848 110,135 111,134
112,45 115,33 117,37 119,374
120,122 121,520 122,456 123,499
124,108 125,32 127,73 133,138
134,124 135,247 136,465 137,283
138,199 139,83 140,64 147,94
148,122 149,90 151,46 152,37
161,291 162,71 165,30 166,26
179,123 180,64 189,113 191,62
204,49 222,52
##END=
