##TITLE=Methyl 3-chloro-4-methoxybenzoate
##JCAMP-DX=4.24
##DATA TYPE=MASS SPECTRUM
##ORIGIN=NIST Mass Spectrometry Data Center
##OWNER=NIST Mass Spectrometry Data Center
Collection (C) 2014 copyright by the U.S. Secretary of Commerce
on behalf of the United States of America. All rights reserved.
##CAS REGISTRY NO=37908-98-8
##$NIST MASS SPEC NO=340790
##MOLFORM=C9 H9 Cl O3
##MW=200
##$NIST SOURCE=MSDC
##XUNITS=M/Z
##YUNITS=RELATIVE INTENSITY
##XFACTOR=1
##YFACTOR=1
##FIRSTX=15
##LASTX=203
##FIRSTY=380
##MAXX=203
##MINX=15
##MAXY=9999
##MINY=10
##NPOINTS=115
##PEAK TABLE=(XY..XY)
15,380 26,10 27,20 29,240
30,80 31,50 36,10 37,130
38,160 39,110 41,10 43,10
45,20 47,10 48,10 49,70
50,410 51,310 52,40 53,220
54,10 55,20 56,10 59,150
60,40 61,270 62,691 63,2232
64,150 65,170 66,70 69,10
71,20 72,140 73,210 74,631
75,901 76,410 77,1471 78,250
79,140 84,120 85,70 86,120
87,60 88,20 89,20 90,20
91,230 92,50 93,20 94,10
96,30 97,260 98,791 99,220
100,270 101,60 103,130 104,190
105,110 106,40 107,60 108,30
109,80 110,200 111,1191 112,150
113,561 114,90 115,60 116,20
119,350 120,80 121,20 122,10
125,40 126,1912 127,170 128,621
129,290 130,20 131,80 133,40
135,80 137,30 138,60 139,40
140,60 141,1241 142,140 143,400
144,30 153,90 154,230 155,100
156,80 157,280 158,20 159,80
165,110 166,10 167,10 169,9999
170,941 171,3373 172,290 173,20
185,30 187,10 199,200 200,2943
201,330 202,931 203,80
##END=
