##TITLE=Ethanol, 2,2,2-trichloro-, benzoate
##JCAMP-DX=4.24
##DATA TYPE=MASS SPECTRUM
##ORIGIN=V.G. Zaikin, R.S.Borisov, TIPS RAS, Moscow, Russia
##OWNER=NIST Mass Spectrometry Data Center
Collection (C) 2014 copyright by the U.S. Secretary of Commerce
on behalf of the United States of America. All rights reserved.
##CAS REGISTRY NO=37934-99-9
##$NIST MASS SPEC NO=360681
##MOLFORM=C9 H7 Cl3 O2
##MW=252
##$NIST SOURCE=MSDC
##XUNITS=M/Z
##YUNITS=RELATIVE INTENSITY
##XFACTOR=1
##YFACTOR=1
##FIRSTX=26
##LASTX=258
##FIRSTY=30
##MAXX=258
##MINX=26
##MAXY=9999
##MINY=10
##NPOINTS=42
##PEAK TABLE=(XY..XY)
26,30 27,30 29,10 38,30
39,40 49,20 50,260 51,831
52,40 60,20 61,110 63,40
74,80 75,70 76,150 77,2442
78,180 82,70 91,40 95,100
96,80 97,60 98,60 104,20
105,9999 106,731 107,30 117,40
119,40 123,30 131,20 133,20
135,220 217,220 219,140 221,20
252,611 253,50 254,591 255,50
256,180 258,20
##END=
