##TITLE=2-Fluorodiphenylmethane
##JCAMP-DX=4.24
##DATA TYPE=MASS SPECTRUM
##ORIGIN=NIST Mass Spectrometry Data Center, 1994
##OWNER=NIST Mass Spectrometry Data Center
Collection (C) 2014 copyright by the U.S. Secretary of Commerce
on behalf of the United States of America. All rights reserved.
##CAS REGISTRY NO=3794-15-8
##$NIST MASS SPEC NO=134557
##MOLFORM=C13 H11 F
##MW=186
##$NIST SOURCE=MSDC
##XUNITS=M/Z
##YUNITS=RELATIVE INTENSITY
##XFACTOR=1
##YFACTOR=1
##FIRSTX=15
##LASTX=188
##FIRSTY=39
##MAXX=188
##MINX=15
##MAXY=9999
##MINY=38
##NPOINTS=102
##PEAK TABLE=(XY..XY)
15,39 26,92 27,402 33,76
37,55 38,238 39,1636 40,151
41,153 50,927 51,1667 52,241
53,38 55,45 57,760 58,51
59,96 61,160 62,483 63,1375
64,264 65,1210 66,149 68,138
69,307 70,355 74,430 75,680
76,213 77,303 79,196 80,202
81,704 82,1420 83,1760 84,117
85,204 86,180 87,230 88,112
89,984 90,656 91,2277 92,888
93,325 94,150 95,87 96,108
98,108 99,113 100,70 101,106
102,62 105,106 107,646 108,338
109,1920 110,204 111,62 113,119
115,240 120,151 125,96 126,95
127,61 128,72 131,98 132,62
133,557 134,79 137,52 139,254
140,46 144,63 145,57 146,285
147,43 151,88 152,332 153,246
157,331 158,58 159,246 160,47
162,51 163,413 165,5753 166,1704
167,440 168,93 169,93 170,796
171,1398 172,145 181,180 182,250
183,2437 184,691 185,7772 186,9999
187,1371 188,104
##END=
