##TITLE=[1]Benzoselenopheno[3,2-b]thiophene
##JCAMP-DX=4.24
##DATA TYPE=MASS SPECTRUM
##OWNER=NIST Mass Spectrometry Data Center
Collection (C) 2014 copyright by the U.S. Secretary of Commerce
on behalf of the United States of America. All rights reserved.
##CAS REGISTRY NO=37958-13-7
##$NIST MASS SPEC NO=29928
##MOLFORM=C10 H6 S Se
##MW=238
##$NIST SOURCE=MSDC
##XUNITS=M/Z
##YUNITS=RELATIVE INTENSITY
##XFACTOR=1
##YFACTOR=1
##FIRSTX=61
##LASTX=241
##FIRSTY=400
##MAXX=241
##MINX=61
##MAXY=9999
##MINY=100
##NPOINTS=45
##PEAK TABLE=(XY..XY)
61,400 62,500 63,1000 69,800
74,800 75,700 76,400 79,800
86,450 87,750 88,350 89,300
93,300 102,500 113,1400 114,1900
117,800 118,1100 119,2000 120,600
126,1000 132,300 145,400 156,200
157,200 158,6299 159,900 160,300
189,100 190,100 191,500 192,250
193,800 194,500 195,100 196,100
232,200 234,3000 235,2500 236,6899
237,1200 238,9999 239,1700 240,3400
241,400
##END=
