##TITLE=Pyridine, 3-(trifluoromethyl)-
##JCAMP-DX=4.24
##DATA TYPE=MASS SPECTRUM
##ORIGIN=Dennis Rohrbaugh, CBDCOM/ERDEC, Edgewood, MD
##OWNER=NIST Mass Spectrometry Data Center
Collection (C) 2014 copyright by the U.S. Secretary of Commerce
on behalf of the United States of America. All rights reserved.
##CAS REGISTRY NO=3796-23-4
##$NIST MASS SPEC NO=226817
##MOLFORM=C6 H4 F3 N
##MW=147
##$NIST SOURCE=MSDC
##XUNITS=M/Z
##YUNITS=RELATIVE INTENSITY
##XFACTOR=1
##YFACTOR=1
##FIRSTX=50
##LASTX=149
##FIRSTY=2969
##MAXX=149
##MINX=50
##MAXY=9999
##MINY=40
##NPOINTS=25
##PEAK TABLE=(XY..XY)
50,2969 51,4519 52,1039 69,5119
70,1119 75,4939 76,1379 78,2509
93,389 94,259 97,869 99,1059
100,1599 101,729 107,319 119,709
120,1239 126,599 127,3439 128,2939
129,199 146,499 147,9999 148,1129
149,40
##END=
