##TITLE=Pyrazine, ethoxy-
##JCAMP-DX=4.24
##DATA TYPE=MASS SPECTRUM
##ORIGIN=NIST Mass Spectrometry Data Center, 1994
##OWNER=NIST Mass Spectrometry Data Center
Collection (C) 2014 copyright by the U.S. Secretary of Commerce
on behalf of the United States of America. All rights reserved.
##CAS REGISTRY NO=38028-67-0
##$NIST MASS SPEC NO=135943
##MOLFORM=C6 H8 N2 O
##MW=124
##$NIST SOURCE=MSDC
##XUNITS=M/Z
##YUNITS=RELATIVE INTENSITY
##XFACTOR=1
##YFACTOR=1
##FIRSTX=12
##LASTX=126
##FIRSTY=229
##MAXX=126
##MINX=12
##MAXY=9999
##MINY=14
##NPOINTS=48
##PEAK TABLE=(XY..XY)
12,229 13,406 14,462 15,1224
17,85 24,91 25,328 26,3359
27,5475 28,3579 29,5995 30,528
38,775 39,185 40,9999 41,7671
42,2239 43,449 44,108 45,217
51,700 52,2142 53,1093 54,231
56,213 65,21 66,126 67,855
68,5784 70,86 77,48 78,548
79,1248 80,2010 81,484 82,14
96,4153 97,447 105,74 106,188
107,199 108,74 109,3130 111,208
121,207 124,1754 125,278 126,72
##END=
