##TITLE=2H-Furo[2,3-h]-1-benzopyran-2-one, 8,9-dihydro-8-(1-hydroxy-1-methylethyl)-, (S)-
##JCAMP-DX=4.24
##DATA TYPE=MASS SPECTRUM
##ORIGIN=NIST Mass Spectrometry Data Center
##OWNER=NIST Mass Spectrometry Data Center
Collection (C) 2014 copyright by the U.S. Secretary of Commerce
on behalf of the United States of America. All rights reserved.
##CAS REGISTRY NO=3804-70-4
##$NIST MASS SPEC NO=413063
##MOLFORM=C14 H14 O4
##MW=246
##$NIST SOURCE=MSDC
##XUNITS=M/Z
##YUNITS=RELATIVE INTENSITY
##XFACTOR=1
##YFACTOR=1
##FIRSTX=26
##LASTX=248
##FIRSTY=60
##MAXX=248
##MINX=26
##MAXY=9999
##MINY=30
##NPOINTS=71
##PEAK TABLE=(XY..XY)
26,60 27,110 31,380 37,50
38,80 39,390 41,781 43,2312
45,240 50,280 51,1121 52,250
53,581 54,150 57,310 58,160
59,5655 60,550 61,100 62,280
63,831 64,540 65,500 66,280
74,440 75,500 76,571 77,1421
90,200 91,420 92,260 101,80
102,671 103,601 107,220 108,490
113,130 114,60 115,290 116,130
130,390 131,741 132,360 158,651
159,1261 160,2712 161,761 174,60
175,1441 176,1311 177,260 179,100
180,80 185,130 186,230 187,9999
188,6806 201,140 203,711 204,150
212,30 213,1561 214,320 215,180
227,120 228,260 229,270 231,120
246,4124 247,711 248,160
##END=
