##TITLE=Diethyl phenylthiomethylphosphonate
##JCAMP-DX=4.24
##DATA TYPE=MASS SPECTRUM
##ORIGIN=NIST Mass Spectrometry Data Center, 1994
##OWNER=NIST Mass Spectrometry Data Center
Collection (C) 2014 copyright by the U.S. Secretary of Commerce
on behalf of the United States of America. All rights reserved.
##CAS REGISTRY NO=38066-16-9
##$NIST MASS SPEC NO=133633
##MOLFORM=C11 H17 O3 P S
##MW=260
##$NIST SOURCE=MSDC
##XUNITS=M/Z
##YUNITS=RELATIVE INTENSITY
##XFACTOR=1
##YFACTOR=1
##FIRSTX=15
##LASTX=262
##FIRSTY=152
##MAXX=262
##MINX=15
##MAXY=9999
##MINY=21
##NPOINTS=122
##PEAK TABLE=(XY..XY)
15,152 26,221 27,1303 28,592
29,2229 30,81 31,406 32,21
38,69 39,599 41,71 42,95
43,179 44,21 45,4876 46,297
47,551 48,150 49,57 50,427
51,1421 52,150 53,46 57,52
58,81 59,84 61,97 62,73
63,273 64,46 65,2038 66,178
69,393 70,53 71,62 73,42
74,85 75,113 76,42 77,1973
78,853 79,918 80,214 81,1268
82,357 83,255 84,72 89,89
91,1962 92,251 93,585 94,193
95,323 96,220 97,723 98,25
103,30 104,214 105,1224 106,138
107,468 108,326 109,1353 110,468
111,741 112,44 116,125 117,103
118,210 119,61 120,30 121,1425
122,30 123,9999 124,1904 125,566
126,92 127,114 128,586 129,40
130,45 135,101 137,1746 138,681
139,319 140,40 141,444 142,88
149,74 150,30 151,95 154,23
155,118 156,320 157,34 159,46
169,408 170,117 171,76 172,45
183,83 185,81 186,129 187,176
188,174 199,124 203,265 204,415
205,55 206,28 215,73 216,33
217,187 227,114 231,200 232,664
233,105 234,53 245,82 260,3958
261,548 262,232
##END=
