##TITLE=1,3-Cyclooctadiene, (Z,Z)-
##JCAMP-DX=4.24
##DATA TYPE=MASS SPECTRUM
##ORIGIN=Chuck Anderson, Aldrich Chemical Co.
##OWNER=NIST Mass Spectrometry Data Center
Collection (C) 2014 copyright by the U.S. Secretary of Commerce
on behalf of the United States of America. All rights reserved.
##CAS REGISTRY NO=3806-59-5
##$NIST MASS SPEC NO=107547
##MOLFORM=C8 H12
##MW=108
##$NIST SOURCE=MSDC
##XUNITS=M/Z
##YUNITS=RELATIVE INTENSITY
##XFACTOR=1
##YFACTOR=1
##FIRSTX=15
##LASTX=110
##FIRSTY=36
##MAXX=110
##MINX=15
##MAXY=9999
##MINY=1
##NPOINTS=75
##PEAK TABLE=(XY..XY)
15,36 24,1 25,9 26,180
27,1621 28,257 29,321 30,9
31,3 36,4 37,93 38,329
39,3666 40,526 41,2620 42,122
43,44 44,6 45,38 46,29
48,2 49,48 50,704 51,1469
52,939 53,1075 54,1348 55,202
56,21 57,1 60,4 61,54
62,172 63,435 64,83 65,1893
66,1954 67,4545 68,284 69,13
73,23 74,124 75,65 76,64
77,4120 78,1318 79,9999 80,4302
81,348 82,18 84,1 85,7
86,14 87,14 88,3 89,64
90,8 91,3030 92,337 93,5999
94,435 95,18 97,6 98,20
99,5 101,7 102,39 103,124
104,27 105,214 106,28 107,416
108,5635 109,473 110,20
##END=
