##TITLE=2,5-Dimethylcyclohexanol
##JCAMP-DX=4.24
##DATA TYPE=MASS SPECTRUM
##ORIGIN=Japan AIST/NIMC Database- Spectrum MS-NW-2103
##OWNER=NIST Mass Spectrometry Data Center
Collection (C) 2014 copyright by the U.S. Secretary of Commerce
on behalf of the United States of America. All rights reserved.
##CAS REGISTRY NO=3809-32-3
##$NIST MASS SPEC NO=233739
##MOLFORM=C8 H16 O
##MW=128
##$NIST SOURCE=MSDC
##XUNITS=M/Z
##YUNITS=RELATIVE INTENSITY
##XFACTOR=1
##YFACTOR=1
##FIRSTX=15
##LASTX=129
##FIRSTY=99
##MAXX=129
##MINX=15
##MAXY=9999
##MINY=10
##NPOINTS=74
##PEAK TABLE=(XY..XY)
15,99 17,30 18,159 19,20
26,40 27,879 28,149 29,799
30,40 31,329 32,20 37,10
38,40 39,769 40,169 41,1919
42,1039 43,1369 44,599 45,339
46,10 50,40 51,99 52,40
53,389 54,239 55,2799 56,1409
57,1149 58,609 59,70 63,10
65,60 66,40 67,769 68,1969
69,819 70,189 71,9999 72,649
73,70 77,70 78,20 79,80
80,60 81,1709 82,1189 83,239
84,479 85,249 86,619 87,50
91,40 93,40 94,20 95,2409
96,269 97,129 98,10 99,40
100,10 107,20 108,10 109,239
110,2049 111,219 112,50 113,139
114,10 122,10 126,70 127,70
128,269 129,20
##END=
