##TITLE=Salithion
##JCAMP-DX=4.24
##DATA TYPE=MASS SPECTRUM
##ORIGIN=NIST Mass Spectrometry Data Center, 1998.
##OWNER=NIST Mass Spectrometry Data Center
Collection (C) 2014 copyright by the U.S. Secretary of Commerce
on behalf of the United States of America. All rights reserved.
##CAS REGISTRY NO=3811-49-2
##$NIST MASS SPEC NO=291871
##MOLFORM=C8 H9 O3 P S
##MW=216
##$NIST SOURCE=MSDC
##XUNITS=M/Z
##YUNITS=RELATIVE INTENSITY
##XFACTOR=1
##YFACTOR=1
##FIRSTX=15
##LASTX=219
##FIRSTY=280
##MAXX=219
##MINX=15
##MAXY=9999
##MINY=10
##NPOINTS=94
##PEAK TABLE=(XY..XY)
15,280 26,80 27,140 29,200
30,30 31,130 32,70 37,90
38,280 39,1260 40,90 45,90
46,30 47,1210 48,80 49,80
50,980 51,2270 52,1780 53,160
54,10 55,30 61,90 62,300
63,1390 64,330 65,520 66,200
69,100 74,200 75,130 76,350
77,2110 78,6899 79,700 80,140
81,50 82,10 84,80 89,310
90,110 91,140 92,190 93,180
94,170 95,100 96,70 97,50
104,130 105,930 106,530 107,140
108,100 109,250 110,200 111,60
119,80 120,250 121,1800 122,860
123,150 124,80 125,10 135,270
136,60 137,2120 138,1900 139,400
140,80 141,70 151,70 152,150
153,3610 154,250 155,420 156,40
167,90 168,80 169,170 170,60
171,800 172,60 173,10 183,5019
184,590 185,210 186,110 201,2970
202,190 203,130 216,9999 217,960
218,450 219,20
##END=
