##TITLE=1-Butanol, 3-methyl-, 4-nitrobenzoate
##JCAMP-DX=4.24
##DATA TYPE=MASS SPECTRUM
##ORIGIN=V.Zaikin,Topchiev Inst.Petrochem.Synth.,Moscow
##OWNER=NIST Mass Spectrometry Data Center
Collection (C) 2014 copyright by the U.S. Secretary of Commerce
on behalf of the United States of America. All rights reserved.
##CAS REGISTRY NO=38120-06-8
##$NIST MASS SPEC NO=282317
##MOLFORM=C12 H15 N O4
##MW=237
##$NIST SOURCE=MSDC
##XUNITS=M/Z
##YUNITS=RELATIVE INTENSITY
##XFACTOR=1
##YFACTOR=1
##FIRSTX=26
##LASTX=222
##FIRSTY=60
##MAXX=222
##MINX=26
##MAXY=9999
##MINY=10
##NPOINTS=100
##PEAK TABLE=(XY..XY)
26,60 27,180 28,80 29,310
30,120 31,10 36,60 37,20
38,50 39,260 40,50 41,601
42,550 43,510 44,180 45,70
46,10 49,20 50,460 51,140
52,50 53,80 54,40 55,1601
56,160 57,320 58,20 61,10
62,30 63,100 64,150 65,460
66,40 67,40 68,40 69,510
70,8548 71,500 72,10 73,20
74,190 75,540 76,1421 77,180
78,40 79,50 81,40 87,30
90,20 91,40 92,621 93,130
94,20 96,10 103,210 104,2442
105,260 106,20 107,20 109,60
118,10 119,20 120,581 121,500
122,140 123,40 134,561 135,100
136,20 137,250 138,40 146,10
148,60 149,20 150,9999 151,1301
152,170 153,20 164,180 165,50
166,10 167,350 168,550 169,180
170,20 178,60 179,60 180,90
181,30 182,20 190,10 191,40
192,20 194,220 195,30 207,110
208,60 209,20 221,160 222,40
##END=
