##TITLE=Malic acid, 3TMS derivative
##JCAMP-DX=4.24
##DATA TYPE=MASS SPECTRUM
##ORIGIN=NIST Mass Spectrometry Data Center
##OWNER=NIST Mass Spectrometry Data Center
Collection (C) 2014 copyright by the U.S. Secretary of Commerce
on behalf of the United States of America. All rights reserved.
##CAS REGISTRY NO=38166-11-9
##$NIST MASS SPEC NO=332853
##MOLFORM=C13 H30 O5 Si3
##MW=350
##$NIST SOURCE=MSDC
##XUNITS=M/Z
##YUNITS=RELATIVE INTENSITY
##XFACTOR=1
##YFACTOR=1
##FIRSTX=15
##LASTX=352
##FIRSTY=20
##MAXX=352
##MINX=15
##MAXY=9999
##MINY=10
##NPOINTS=172
##PEAK TABLE=(XY..XY)
15,20 27,50 28,30 29,70
30,10 31,30 39,10 41,30
42,40 43,390 44,290 45,1541
46,110 47,290 48,10 49,10
52,20 53,60 55,1151 56,60
57,100 58,210 59,771 60,100
61,200 62,10 63,10 66,70
67,20 68,20 69,30 70,70
71,140 73,9999 74,1481 75,1922
76,130 77,60 82,10 83,30
84,20 85,80 86,20 87,60
88,20 89,40 91,10 97,10
98,10 99,110 101,1181 102,140
103,160 104,20 105,60 106,10
107,10 111,10 113,30 115,170
116,160 117,721 118,90 119,170
120,20 121,10 127,20 129,230
131,701 133,2392 134,350 135,260
136,30 137,10 141,10 143,360
144,50 145,90 147,8638 148,1842
149,1281 150,150 151,140 152,20
153,10 155,10 156,10 157,40
158,10 159,50 160,10 161,40
162,20 163,40 164,10 165,10
171,591 172,80 173,100 175,1431
176,250 177,450 178,70 179,30
185,30 186,10 187,10 189,2042
190,1842 191,1421 192,330 193,110
194,10 201,20 203,240 204,130
205,120 206,30 207,90 208,20
209,10 215,20 217,881 218,190
219,130 221,370 222,90 223,50
224,10 229,10 231,40 233,5075
234,1131 235,510 236,70 237,20
245,2762 246,601 247,420 248,70
249,20 259,30 260,60 261,20
263,380 264,110 265,711 266,180
267,90 268,20 291,40 292,10
293,30 294,10 305,260 306,500
307,701 308,230 309,100 310,20
319,330 320,90 321,50 322,10
335,1381 336,410 337,220 338,40
339,10 350,50 351,20 352,10
##END=
