##TITLE=2(3H)-Furanone, dihydro-3-[(trimethylsilyl)oxy]-3-[[(trimethylsilyl)oxy]methyl]-
##JCAMP-DX=4.24
##DATA TYPE=MASS SPECTRUM
##ORIGIN=G. PETERSON
##OWNER=NIST Mass Spectrometry Data Center
Collection (C) 2014 copyright by the U.S. Secretary of Commerce
on behalf of the United States of America. All rights reserved.
##CAS REGISTRY NO=38166-06-2
##$NIST MASS SPEC NO=41049
##MOLFORM=C11 H24 O4 Si2
##MW=276
##$NIST SOURCE=MSDC
##XUNITS=M/Z
##YUNITS=RELATIVE INTENSITY
##XFACTOR=1
##YFACTOR=1
##FIRSTX=31
##LASTX=263
##FIRSTY=200
##MAXX=263
##MINX=31
##MAXY=9999
##MINY=100
##NPOINTS=38
##PEAK TABLE=(XY..XY)
31,200 45,100 59,200 73,2500
74,300 75,400 101,200 102,100
103,2400 104,200 105,100 117,300
127,100 128,100 129,200 143,2400
144,300 145,200 147,2900 148,500
149,400 171,200 190,600 191,100
203,200 204,200 217,100 218,200
219,100 233,500 234,100 246,9999
247,2100 248,900 249,200 261,1600
262,300 263,200
##END=
