##TITLE=Arabino-hexaric acid, 2-deoxy-3,4,5-tris-O-(trimethylsilyl)-, bis(trimethylsilyl) ester
##JCAMP-DX=4.24
##DATA TYPE=MASS SPECTRUM
##OWNER=NIST Mass Spectrometry Data Center
Collection (C) 2014 copyright by the U.S. Secretary of Commerce
on behalf of the United States of America. All rights reserved.
##CAS REGISTRY NO=38165-98-9
##$NIST MASS SPEC NO=18370
##MOLFORM=C21 H50 O7 Si5
##MW=554
##$NIST SOURCE=MSDC
##XUNITS=M/Z
##YUNITS=RELATIVE INTENSITY
##XFACTOR=1
##YFACTOR=1
##FIRSTX=43
##LASTX=543
##FIRSTY=98
##MAXX=543
##MINX=43
##MAXY=9999
##MINY=7
##NPOINTS=79
##PEAK TABLE=(XY..XY)
43,98 45,525 55,131 59,229
72,229 73,9999 74,885 75,787
101,295 117,229 129,426 131,197
133,492 143,295 147,2951 148,459
149,393 189,590 190,197 191,295
204,197 206,131 217,2360 218,492
219,295 220,66 221,393 233,459
234,98 245,590 246,98 277,361
278,98 285,98 291,229 292,1246
293,393 294,229 305,984 306,492
307,197 333,98 335,2787 336,754
337,393 347,262 373,7 374,23
375,59 376,30 377,23 379,59
380,23 381,10 393,30 394,23
395,39 396,23 397,7 405,23
406,10 407,52 408,20 409,10
421,118 422,59 423,30 424,7
449,190 450,66 451,59 452,20
464,20 465,7 539,482 540,229
541,115 542,52 543,23
##END=
