##TITLE=1-Fluoro-3-iodo-5-nitrobenzene
##JCAMP-DX=4.24
##DATA TYPE=MASS SPECTRUM
##ORIGIN=Chuck Anderson, Aldrich Chemical Co.
##OWNER=NIST Mass Spectrometry Data Center
Collection (C) 2014 copyright by the U.S. Secretary of Commerce
on behalf of the United States of America. All rights reserved.
##CAS REGISTRY NO=3819-88-3
##$NIST MASS SPEC NO=117661
##MOLFORM=C6 H3 F I N O2
##MW=267
##$NIST SOURCE=MSDC
##XUNITS=M/Z
##YUNITS=RELATIVE INTENSITY
##XFACTOR=1
##YFACTOR=1
##FIRSTX=18
##LASTX=269
##FIRSTY=12
##MAXX=269
##MINX=18
##MAXY=9999
##MINY=4
##NPOINTS=80
##PEAK TABLE=(XY..XY)
18,12 25,15 26,26 27,12
28,51 29,15 30,935 31,267
32,18 33,23 36,57 37,267
38,230 39,35 44,36 45,12
46,97 48,17 49,111 50,1350
51,84 52,16 55,26 56,122
57,172 58,17 60,45 61,404
62,374 63,444 64,48 67,13
68,1443 69,99 70,16 72,27
73,294 74,1363 75,698 76,77
79,14 80,30 81,270 82,487
83,60 84,15 86,17 87,23
88,13 90,9 91,14 92,384
93,1082 94,9999 95,604 96,29
106,11 108,60 109,17 110,1082
111,76 112,42 127,427 128,38
133,53 140,27 152,34 165,4
176,34 209,631 210,28 220,30
221,3636 222,211 237,91 251,71
266,48 267,6576 268,434 269,44
##END=
