##TITLE=Androst-4-ene-3,11,17-trione
##JCAMP-DX=4.24
##DATA TYPE=MASS SPECTRUM
##ORIGIN=NIST Mass Spectrometry Data Center, 1998.
##OWNER=NIST Mass Spectrometry Data Center
Collection (C) 2014 copyright by the U.S. Secretary of Commerce
on behalf of the United States of America. All rights reserved.
##CAS REGISTRY NO=382-45-6
##$NIST MASS SPEC NO=292133
##MOLFORM=C19 H24 O3
##MW=300
##$NIST SOURCE=MSDC
##XUNITS=M/Z
##YUNITS=RELATIVE INTENSITY
##XFACTOR=1
##YFACTOR=1
##FIRSTX=15
##LASTX=303
##FIRSTY=10
##MAXX=303
##MINX=15
##MAXY=9999
##MINY=10
##NPOINTS=239
##PEAK TABLE=(XY..XY)
15,10 26,10 27,400 28,170
29,350 31,10 38,20 39,1010
40,260 41,2160 42,290 43,550
44,30 45,20 50,60 51,380
52,250 53,1300 54,200 55,1910
56,140 57,90 58,40 59,10
60,10 62,20 63,150 64,110
65,940 66,350 67,1420 68,520
69,660 70,40 71,100 72,40
73,30 74,10 75,30 76,60
77,2110 78,610 79,2290 80,460
81,670 82,350 83,200 84,40
85,40 86,70 87,50 88,10
89,110 90,70 91,3640 92,540
93,1050 94,330 95,640 96,410
97,380 98,50 99,40 100,20
101,30 102,80 103,440 104,250
105,2050 106,440 107,1380 108,570
109,850 110,470 111,200 112,20
113,20 114,20 115,780 116,280
117,900 118,280 119,980 120,640
121,2760 122,9999 123,1670 124,220
125,50 126,10 127,160 128,480
129,520 130,230 131,710 132,270
133,1150 134,1300 135,1040 136,720
137,270 138,50 139,50 140,10
141,200 142,150 143,400 144,250
145,810 146,510 147,1180 148,350
149,230 150,80 151,50 152,50
153,60 154,40 155,130 156,70
157,240 158,200 159,590 160,510
161,1120 162,600 163,450 164,80
165,640 166,130 167,60 168,60
169,140 170,90 171,270 172,170
173,480 174,280 175,260 176,110
177,70 178,270 179,460 180,60
181,60 182,40 183,200 184,100
185,210 186,170 187,440 188,250
189,520 190,140 191,60 192,110
193,40 194,20 195,60 196,50
197,180 198,100 199,180 200,110
201,330 202,190 203,70 204,70
205,60 206,10 207,40 208,30
209,70 210,50 211,220 212,80
213,150 214,150 215,170 216,110
217,40 218,30 219,30 220,10
221,90 222,30 223,80 224,90
225,180 226,120 227,140 228,660
229,310 230,80 231,30 235,30
236,30 237,40 238,90 239,200
240,60 241,210 242,70 243,430
244,240 245,110 246,20 247,20
248,10 249,100 250,20 251,10
253,50 254,50 255,60 256,880
257,720 258,280 259,40 263,10
264,40 265,30 266,10 267,210
268,40 269,10 271,90 272,380
273,70 281,10 282,130 283,50
284,10 285,230 286,40 300,3420
301,700 302,80 303,10
##END=
