##TITLE=Androst-4-ene-3,17-dione, 11-hydroxy-, (11.beta.)-
##JCAMP-DX=4.24
##DATA TYPE=MASS SPECTRUM
##OWNER=NIST Mass Spectrometry Data Center
Collection (C) 2014 copyright by the U.S. Secretary of Commerce
on behalf of the United States of America. All rights reserved.
##CAS REGISTRY NO=382-44-5
##$NIST MASS SPEC NO=14440
##MOLFORM=C19 H26 O3
##MW=302
##$NIST SOURCE=MSDC
##XUNITS=M/Z
##YUNITS=RELATIVE INTENSITY
##XFACTOR=1
##YFACTOR=1
##FIRSTX=41
##LASTX=304
##FIRSTY=3803
##MAXX=304
##MINX=41
##MAXY=9999
##MINY=100
##NPOINTS=120
##PEAK TABLE=(XY..XY)
41,3803 42,300 43,2002 45,200
53,1101 54,200 55,3303 56,200
57,701 65,601 66,200 67,1802
68,300 69,1201 70,300 71,400
77,2002 78,901 79,2202 80,300
81,1201 82,300 83,500 84,200
85,300 91,2702 92,400 93,1401
94,500 95,1401 96,500 97,1601
98,200 99,200 105,2302 106,701
107,1401 108,500 109,1501 110,701
111,300 115,300 117,500 118,200
119,1301 120,500 121,1702 122,1802
123,4804 124,3203 125,500 129,400
131,701 132,400 133,1101 134,701
135,801 136,1001 137,1201 138,200
143,400 144,400 145,801 146,400
147,1301 148,701 149,601 150,200
159,500 160,601 161,701 162,801
163,8107 164,1301 165,200 166,200
171,300 172,200 173,400 174,400
175,300 176,300 185,400 186,300
187,300 188,400 189,2602 190,300
191,200 199,400 200,200 201,200
202,200 213,1101 214,300 225,300
226,100 227,1001 228,500 229,200
240,200 241,500 242,500 243,200
256,701 257,400 258,300 259,200
260,200 267,200 268,200 269,1601
270,200 274,601 284,1301 285,300
287,200 302,9999 303,2102 304,200
##END=
