##TITLE=5-Acetyl-4-methylthiazole
##JCAMP-DX=4.24
##DATA TYPE=MASS SPECTRUM
##ORIGIN=C. OFFEN, MAFF, FOOD SCI. LAB., NORWICH, U.K.
##OWNER=NIST Mass Spectrometry Data Center
Collection (C) 2014 copyright by the U.S. Secretary of Commerce
on behalf of the United States of America. All rights reserved.
##CAS REGISTRY NO=38205-55-9
##$NIST MASS SPEC NO=112539
##MOLFORM=C6 H7 N O S
##MW=141
##$NIST SOURCE=MSDC
##XUNITS=M/Z
##YUNITS=RELATIVE INTENSITY
##XFACTOR=1
##YFACTOR=1
##FIRSTX=41
##LASTX=142
##FIRSTY=900
##MAXX=142
##MINX=41
##MAXY=9999
##MINY=500
##NPOINTS=22
##PEAK TABLE=(XY..XY)
41,900 42,600 43,5800 44,1100
45,2500 53,500 55,800 56,500
57,1300 69,800 71,2100 72,900
84,600 85,700 87,900 98,1600
126,9999 127,800 128,500 130,700
141,5700 142,500
##END=
