##TITLE=Ethenamine, N-methylene-
##JCAMP-DX=4.24
##DATA TYPE=MASS SPECTRUM
##ORIGIN=D.HENNEBERG, MAX-PLANCK INSTITUTE, MULHEIM, WEST GERMANY
##OWNER=NIST Mass Spectrometry Data Center
Collection (C) 2014 copyright by the U.S. Secretary of Commerce
on behalf of the United States of America. All rights reserved.
##CAS REGISTRY NO=38239-27-9
##$NIST MASS SPEC NO=60636
##MOLFORM=C3 H5 N
##MW=55
##$NIST SOURCE=MSDC
##XUNITS=M/Z
##YUNITS=RELATIVE INTENSITY
##XFACTOR=1
##YFACTOR=1
##FIRSTX=24
##LASTX=57
##FIRSTY=50
##MAXX=57
##MINX=24
##MAXY=9999
##MINY=50
##NPOINTS=20
##PEAK TABLE=(XY..XY)
24,50 25,260 26,1771 27,2592
28,9999 29,910 36,90 37,240
38,300 39,430 41,590 42,360
50,100 51,600 52,910 53,280
54,4184 55,6266 56,280 57,60
##END=
