##TITLE=4,7-Ethano-1H-indene, octahydro-
##JCAMP-DX=4.24
##DATA TYPE=MASS SPECTRUM
##ORIGIN=V.G.Zaikin, TIPS, Russian Acad. Sci.
##OWNER=NIST Mass Spectrometry Data Center
Collection (C) 2014 copyright by the U.S. Secretary of Commerce
on behalf of the United States of America. All rights reserved.
##CAS REGISTRY NO=38255-97-9
##$NIST MASS SPEC NO=215299
##MOLFORM=C11 H18
##MW=150
##$NIST SOURCE=MSDC
##XUNITS=M/Z
##YUNITS=RELATIVE INTENSITY
##XFACTOR=1
##YFACTOR=1
##FIRSTX=39
##LASTX=152
##FIRSTY=5004
##MAXX=152
##MINX=39
##MAXY=9999
##MINY=40
##NPOINTS=40
##PEAK TABLE=(XY..XY)
39,5004 40,900 41,7006 42,700
43,500 51,1101 52,700 53,2802
54,2101 55,2502 65,1701 66,2201
67,9308 68,2502 69,500 77,3503
78,1701 79,9008 80,8207 81,5905
82,2802 83,700 91,2802 92,800
93,6505 94,4153 95,1501 96,500
107,2402 108,1401 109,3152 110,400
120,200 121,5204 122,9999 123,1251
135,1000 150,5504 151,670 152,40
##END=
