##TITLE=3-Nonen-2-ol, (E)-
##JCAMP-DX=4.24
##DATA TYPE=MASS SPECTRUM
##ORIGIN=FOOD RESEARCH REPORT 119 K.E. MURRAY & COLLEAGUES, DIV. OF FOOD RESEARCH, CSIRO, AUSTRALIA
##OWNER=NIST Mass Spectrometry Data Center
Collection (C) 2014 copyright by the U.S. Secretary of Commerce
on behalf of the United States of America. All rights reserved.
##CAS REGISTRY NO=38285-42-6
##$NIST MASS SPEC NO=53439
##MOLFORM=C9 H18 O
##MW=142
##$NIST SOURCE=MSDC
##XUNITS=M/Z
##YUNITS=RELATIVE INTENSITY
##XFACTOR=1
##YFACTOR=1
##FIRSTX=26
##LASTX=142
##FIRSTY=300
##MAXX=142
##MINX=26
##MAXY=9999
##MINY=10
##NPOINTS=63
##PEAK TABLE=(XY..XY)
26,300 27,4500 29,3800 30,100
31,100 37,100 38,300 39,4800
40,1000 41,9500 42,1500 43,5000
45,400 50,400 51,900 52,600
53,3200 54,8100 55,6800 56,800
57,1100 58,400 59,200 62,100
63,300 64,100 65,1200 66,1200
67,8700 68,9300 69,2300 70,600
71,1400 72,200 75,100 77,1200
78,400 79,2700 80,600 81,9999
82,3200 83,600 84,500 85,200
91,400 93,300 94,100 95,3500
96,700 97,900 98,100 99,100
105,100 109,300 111,200 122,100
123,200 124,5300 125,1600 126,200
138,100 140,100 142,10
##END=
