##TITLE=Valeric acid hydrazide
##JCAMP-DX=4.24
##DATA TYPE=MASS SPECTRUM
##ORIGIN=NIST Mass Spectrometry Data Center
##OWNER=NIST Mass Spectrometry Data Center
Collection (C) 2014 copyright by the U.S. Secretary of Commerce
on behalf of the United States of America. All rights reserved.
##CAS REGISTRY NO=38291-82-6
##$NIST MASS SPEC NO=343077
##MOLFORM=C5 H12 N2 O
##MW=116
##$NIST SOURCE=MSDC
##XUNITS=M/Z
##YUNITS=RELATIVE INTENSITY
##XFACTOR=1
##YFACTOR=1
##FIRSTX=14
##LASTX=117
##FIRSTY=70
##MAXX=117
##MINX=14
##MAXY=9999
##MINY=10
##NPOINTS=42
##PEAK TABLE=(XY..XY)
14,70 15,250 16,120 17,130
18,180 26,410 27,2262 28,1241
29,4284 30,651 31,2092 32,9999
36,10 37,70 39,1251 41,3573
42,530 43,390 44,260 49,20
50,70 51,100 52,50 53,130
55,651 57,3353 58,180 59,130
60,20 67,10 68,10 69,10
72,10 74,510 75,20 83,10
85,951 86,60 87,70 101,10
116,130 117,20
##END=
