##TITLE=Allyl trifluoroacetate
##JCAMP-DX=4.24
##DATA TYPE=MASS SPECTRUM
##ORIGIN=NIST Mass Spectrometry Data Center
##OWNER=NIST Mass Spectrometry Data Center
Collection (C) 2014 copyright by the U.S. Secretary of Commerce
on behalf of the United States of America. All rights reserved.
##CAS REGISTRY NO=383-67-5
##$NIST MASS SPEC NO=342711
##MOLFORM=C5 H5 F3 O2
##MW=154
##$NIST SOURCE=MSDC
##XUNITS=M/Z
##YUNITS=RELATIVE INTENSITY
##XFACTOR=1
##YFACTOR=1
##FIRSTX=12
##LASTX=155
##FIRSTY=50
##MAXX=155
##MINX=12
##MAXY=9999
##MINY=10
##NPOINTS=69
##PEAK TABLE=(XY..XY)
12,50 13,70 14,260 15,801
16,30 17,10 18,10 19,90
20,10 24,20 25,190 26,1261
27,3213 28,1081 29,4964 30,250
31,2833 32,60 33,130 37,581
38,1341 39,9138 40,3463 41,9999
42,450 43,260 44,250 45,831
46,30 47,80 50,1171 51,110
52,10 53,40 54,10 55,320
57,4924 58,240 59,2302 60,751
61,20 64,10 66,20 69,8678
70,120 73,90 74,611 75,30
77,160 78,280 79,30 80,10
83,10 85,1661 86,120 87,10
91,10 95,30 97,250 99,280
106,130 114,70 115,30 125,1041
126,80 127,10 134,20 154,370
155,20
##END=
