##TITLE=Ethanethioic acid, trifluoro-, S-ethyl ester
##JCAMP-DX=4.24
##DATA TYPE=MASS SPECTRUM
##ORIGIN=Japan AIST/NIMC Database- Spectrum MS-NW-4636
##OWNER=NIST Mass Spectrometry Data Center
Collection (C) 2014 copyright by the U.S. Secretary of Commerce
on behalf of the United States of America. All rights reserved.
##CAS REGISTRY NO=383-64-2
##$NIST MASS SPEC NO=231135
##MOLFORM=C4 H5 F3 O S
##MW=158
##$NIST SOURCE=MSDC
##XUNITS=M/Z
##YUNITS=RELATIVE INTENSITY
##XFACTOR=1
##YFACTOR=1
##FIRSTX=12
##LASTX=160
##FIRSTY=10
##MAXX=160
##MINX=12
##MAXY=9999
##MINY=10
##NPOINTS=61
##PEAK TABLE=(XY..XY)
12,10 14,20 15,50 18,10
20,10 25,30 26,369 27,2969
28,439 29,9999 30,229 31,109
32,109 33,70 34,40 35,519
37,20 43,20 44,80 45,629
46,259 47,99 48,10 50,189
51,40 55,10 56,20 57,129
58,289 59,429 60,339 61,799
62,80 63,169 65,10 69,2669
70,30 75,10 76,50 78,20
82,50 83,30 87,20 88,10
89,4519 90,199 91,219 94,20
97,299 111,30 113,109 115,149
130,129 131,10 132,10 143,249
144,10 145,10 158,1229 159,70
160,70
##END=
