##TITLE=N-Trifluoroacetyl glycine
##JCAMP-DX=4.24
##DATA TYPE=MASS SPECTRUM
##ORIGIN=L. Cohen, LC, NIDDK, NIH, Bethesda, MD 20892
##OWNER=NIST Mass Spectrometry Data Center
Collection (C) 2014 copyright by the U.S. Secretary of Commerce
on behalf of the United States of America. All rights reserved.
##CAS REGISTRY NO=383-70-0
##$NIST MASS SPEC NO=124703
##MOLFORM=C4 H4 F3 N O3
##MW=171
##$NIST SOURCE=MSDC
##XUNITS=M/Z
##YUNITS=RELATIVE INTENSITY
##XFACTOR=1
##YFACTOR=1
##FIRSTX=41
##LASTX=173
##FIRSTY=157
##MAXX=173
##MINX=41
##MAXY=9999
##MINY=4
##NPOINTS=115
##PEAK TABLE=(XY..XY)
41,157 42,2575 43,6734 44,4627
45,4529 46,1012 47,173 48,32
49,39 50,1657 51,638 52,123
53,123 54,177 55,463 56,6356
57,514 58,1435 59,308 60,878
61,451 62,367 63,120 64,150
65,83 66,66 67,82 69,9199
70,173 71,84 72,56 73,135
74,3286 75,133 76,145 77,337
78,2838 79,626 80,57 81,56
82,36 83,80 84,165 85,64
86,16 87,39 88,7 89,39
90,23 91,30 92,15 93,65
94,25 95,69 96,222 97,822
98,240 99,27 100,11 101,28
102,859 103,38 104,10 105,50
106,877 107,151 108,44 109,40
110,24 111,29 112,17 113,18
114,16 115,50 116,5 117,5
119,10 120,5 121,26 122,7
123,20 124,503 125,81 126,9999
127,5578 128,207 129,40 131,6
133,7 134,4 135,5 136,22
137,10 138,5 139,9 140,6
141,11 143,5 144,5 149,7
150,4 151,5 152,15 153,38
154,89 155,6 157,5 158,4
165,4 167,5 168,6 169,6
171,256 172,161 173,8
##END=
