##TITLE=Bromodifluoroacetylchloride
##JCAMP-DX=4.24
##DATA TYPE=MASS SPECTRUM
##ORIGIN=A.Pleshkova, Nesmeyanov Inst.Org.Elem.Cpds, Moscow
##OWNER=NIST Mass Spectrometry Data Center
Collection (C) 2014 copyright by the U.S. Secretary of Commerce
on behalf of the United States of America. All rights reserved.
##CAS REGISTRY NO=3832-48-2
##$NIST MASS SPEC NO=283620
##MOLFORM=C2 Br Cl F2 O
##MW=192
##$NIST SOURCE=MSDC
##XUNITS=M/Z
##YUNITS=RELATIVE INTENSITY
##XFACTOR=1
##YFACTOR=1
##FIRSTX=47
##LASTX=196
##FIRSTY=130
##MAXX=196
##MINX=47
##MAXY=9999
##MINY=20
##NPOINTS=35
##PEAK TABLE=(XY..XY)
47,130 50,1672 51,30 63,7757
64,270 65,2692 66,80 78,611
79,751 80,30 81,751 85,2552
86,120 87,771 88,40 91,80
93,70 110,200 112,240 113,571
114,20 115,70 116,350 129,9999
130,140 131,9969 132,140 145,320
147,400 149,80 157,30 166,30
192,150 194,200 196,50
##END=
