##TITLE=trans-3,5-Diethyl-1,2,4-trithiolane
##JCAMP-DX=4.24
##DATA TYPE=MASS SPECTRUM
##ORIGIN=H. KAMEOKA,DEP. APPL. CHEM.,KINKI UNIV.,HIGASHIOSAKA-SHI,JAPAN
##OWNER=NIST Mass Spectrometry Data Center
Collection (C) 2014 copyright by the U.S. Secretary of Commerce
on behalf of the United States of America. All rights reserved.
##CAS REGISTRY NO=38348-26-4
##$NIST MASS SPEC NO=99007
##MOLFORM=C6 H12 S3
##MW=180
##$NIST SOURCE=MSDC
##XUNITS=M/Z
##YUNITS=RELATIVE INTENSITY
##XFACTOR=1
##YFACTOR=1
##FIRSTX=36
##LASTX=182
##FIRSTY=100
##MAXX=182
##MINX=36
##MAXY=9999
##MINY=100
##NPOINTS=36
##PEAK TABLE=(XY..XY)
36,100 37,500 38,600 39,3900
40,1100 41,8000 42,840 43,1300
44,700 45,6700 46,1860 47,1380
55,400 56,800 57,1580 58,1460
59,2400 60,600 69,1000 71,1540
72,820 73,2180 74,9999 75,680
76,660 84,440 97,500 106,620
111,700 112,580 115,560 116,480
125,200 180,1100 181,100 182,160
##END=
