##TITLE=cis-3,5-Diethyl-1,2,4-trithiolane
##JCAMP-DX=4.24
##DATA TYPE=MASS SPECTRUM
##ORIGIN=H. KAMEOKA,DEP. APPL. CHEM.,KINKI UNIV.,HIGASHIOSAKA-SHI,JAPAN
##OWNER=NIST Mass Spectrometry Data Center
Collection (C) 2014 copyright by the U.S. Secretary of Commerce
on behalf of the United States of America. All rights reserved.
##CAS REGISTRY NO=38348-25-3
##$NIST MASS SPEC NO=99006
##MOLFORM=C6 H12 S3
##MW=180
##$NIST SOURCE=MSDC
##XUNITS=M/Z
##YUNITS=RELATIVE INTENSITY
##XFACTOR=1
##YFACTOR=1
##FIRSTX=36
##LASTX=182
##FIRSTY=100
##MAXX=182
##MINX=36
##MAXY=9999
##MINY=100
##NPOINTS=31
##PEAK TABLE=(XY..XY)
36,100 37,600 38,900 39,4840
40,960 41,7200 45,7400 46,2820
47,1740 57,960 58,2200 59,3400
69,1600 70,220 71,2200 72,1100
73,6500 74,9999 75,1020 76,820
97,640 99,400 106,700 112,800
115,500 116,560 125,240 137,100
142,100 180,1000 182,160
##END=
