##TITLE=2(1H)-Pyrimidinone, 5-bromo-
##JCAMP-DX=4.24
##DATA TYPE=MASS SPECTRUM
##ORIGIN=Div. of Experiment Therapeutics WRAIR, WRAMC, Washington DC 20307
##OWNER=NIST Mass Spectrometry Data Center
Collection (C) 2014 copyright by the U.S. Secretary of Commerce
on behalf of the United States of America. All rights reserved.
##CAS REGISTRY NO=38353-06-9
##$NIST MASS SPEC NO=254002
##MOLFORM=C4 H3 Br N2 O
##MW=174
##$NIST SOURCE=MSDC
##XUNITS=M/Z
##YUNITS=RELATIVE INTENSITY
##XFACTOR=1
##YFACTOR=1
##FIRSTX=41
##LASTX=178
##FIRSTY=149
##MAXX=178
##MINX=41
##MAXY=9999
##MINY=8
##NPOINTS=62
##PEAK TABLE=(XY..XY)
41,149 42,91 43,105 44,181
47,32 48,19 49,166 50,180
51,1226 52,1024 53,145 54,87
55,39 64,71 65,135 66,152
67,990 68,1902 69,102 73,41
74,40 76,45 77,127 79,224
81,257 82,35 84,134 86,77
87,88 88,74 91,307 92,74
93,387 94,130 95,9999 96,321
97,28 104,1432 106,1041 107,48
108,16 109,8 117,58 118,479
119,399 120,820 121,307 122,393
130,123 131,10 132,113 144,12
146,1818 148,1883 149,116 157,27
159,20 174,5005 175,814 176,4981
177,620 178,19
##END=
