##TITLE=4-Heptylbenzoic acid
##JCAMP-DX=4.24
##DATA TYPE=MASS SPECTRUM
##ORIGIN=Japan AIST/NIMC Database- Spectrum MS-IW- 826
##OWNER=NIST Mass Spectrometry Data Center
Collection (C) 2014 copyright by the U.S. Secretary of Commerce
on behalf of the United States of America. All rights reserved.
##CAS REGISTRY NO=38350-87-7
##$NIST MASS SPEC NO=239624
##MOLFORM=C14 H20 O2
##MW=220
##$NIST SOURCE=MSDC
##XUNITS=M/Z
##YUNITS=RELATIVE INTENSITY
##XFACTOR=1
##YFACTOR=1
##FIRSTX=17
##LASTX=222
##FIRSTY=20
##MAXX=222
##MINX=17
##MAXY=9999
##MINY=10
##NPOINTS=117
##PEAK TABLE=(XY..XY)
17,20 18,70 27,139 28,50
29,249 39,139 40,20 41,529
42,80 43,2079 44,70 45,20
50,20 51,70 52,20 53,50
54,20 55,259 56,129 57,309
58,10 62,10 63,60 64,20
65,129 66,10 67,40 68,10
69,70 70,50 71,30 75,10
76,20 77,349 78,80 79,219
80,20 81,20 82,40 83,40
84,20 85,119 89,149 90,259
91,3009 92,3939 93,329 94,20
95,10 96,40 97,30 98,10
102,20 103,159 104,60 105,659
106,70 107,539 108,50 109,30
110,50 111,10 115,90 116,30
117,119 118,359 119,379 120,50
121,30 122,119 123,229 124,50
125,10 128,10 129,20 131,259
132,40 133,189 134,40 135,2789
136,9999 137,929 138,119 139,10
145,30 146,10 147,30 148,269
149,409 150,99 151,379 152,40
159,50 160,20 161,10 162,40
163,269 164,109 165,20 173,20
174,40 175,559 176,119 177,739
178,279 179,30 191,129 192,40
202,60 203,129 204,20 205,10
218,10 219,70 220,4889 221,809
222,80
##END=
