##TITLE=Carbamodithioic acid, dibutyl-, methyl ester
##JCAMP-DX=4.24
##DATA TYPE=MASS SPECTRUM
##ORIGIN=F.I.ONUSKA CANADA CENTRE FOR INLAND WATERS, ONTARIO, CANADA
##OWNER=NIST Mass Spectrometry Data Center
Collection (C) 2014 copyright by the U.S. Secretary of Commerce
on behalf of the United States of America. All rights reserved.
##CAS REGISTRY NO=38351-44-9
##$NIST MASS SPEC NO=38068
##MOLFORM=C10 H21 N S2
##MW=219
##$NIST SOURCE=MSDC
##XUNITS=M/Z
##YUNITS=RELATIVE INTENSITY
##XFACTOR=1
##YFACTOR=1
##FIRSTX=29
##LASTX=219
##FIRSTY=3222
##MAXX=219
##MINX=29
##MAXY=9999
##MINY=189
##NPOINTS=29
##PEAK TABLE=(XY..XY)
29,3222 39,842 41,4354 42,1364
43,5167 44,4194 55,3716 56,2424
57,9999 58,1771 60,1930 69,1930
71,3062 76,1306 83,1771 85,1611
91,2424 97,1190 109,435 111,682
115,203 116,3222 117,334 119,189
121,203 128,450 172,1771 204,232
219,1582
##END=
