##TITLE=2,2-Dimethyl-1-phenyl-1-propanol
##JCAMP-DX=4.24
##DATA TYPE=MASS SPECTRUM
##ORIGIN=NIST Mass Spectrometry Data Center, 1990.
##OWNER=NIST Mass Spectrometry Data Center
Collection (C) 2014 copyright by the U.S. Secretary of Commerce
on behalf of the United States of America. All rights reserved.
##CAS REGISTRY NO=3835-64-1
##$NIST MASS SPEC NO=114549
##MOLFORM=C11 H16 O
##MW=164
##$NIST SOURCE=MSDC
##XUNITS=M/Z
##YUNITS=RELATIVE INTENSITY
##XFACTOR=1
##YFACTOR=1
##FIRSTX=27
##LASTX=165
##FIRSTY=266
##MAXX=165
##MINX=27
##MAXY=9999
##MINY=47
##NPOINTS=53
##PEAK TABLE=(XY..XY)
27,266 28,48 29,427 38,73
39,647 40,135 41,1048 42,80
43,512 50,300 51,925 52,268
53,271 55,161 57,1118 58,69
62,91 63,231 64,121 65,219
66,54 67,66 71,137 74,97
75,95 77,2970 78,847 79,5377
80,364 89,141 91,866 92,74
102,104 103,245 105,1048 107,9999
108,1048 109,73 115,375 116,234
117,156 127,81 128,170 129,226
130,81 131,1274 132,141 145,125
146,534 147,72 149,253 164,331
165,47
##END=
