##TITLE=3,5-Dimethylthiophenol
##JCAMP-DX=4.24
##DATA TYPE=MASS SPECTRUM
##ORIGIN=Chuck Anderson, Aldrich Chemical Co.
##OWNER=NIST Mass Spectrometry Data Center
Collection (C) 2014 copyright by the U.S. Secretary of Commerce
on behalf of the United States of America. All rights reserved.
##CAS REGISTRY NO=38360-81-5
##$NIST MASS SPEC NO=107988
##MOLFORM=C8 H10 S
##MW=138
##$NIST SOURCE=MSDC
##XUNITS=M/Z
##YUNITS=RELATIVE INTENSITY
##XFACTOR=1
##YFACTOR=1
##FIRSTX=18
##LASTX=140
##FIRSTY=12
##MAXX=140
##MINX=18
##MAXY=9999
##MINY=12
##NPOINTS=75
##PEAK TABLE=(XY..XY)
18,12 27,533 28,45 29,46
31,16 32,24 37,25 38,159
39,937 40,72 41,170 45,1014
47,70 50,249 51,643 52,179
53,422 57,41 58,142 59,301
60,68 61,146 62,229 63,602
64,103 65,573 66,114 67,349
68,286 69,757 70,134 71,229
74,152 75,122 76,91 77,2029
78,808 79,1661 80,112 81,75
82,144 83,114 84,61 85,69
86,12 89,151 90,12 91,1073
92,160 93,371 94,153 95,118
97,510 98,142 102,147 103,1176
104,393 105,9822 106,841 107,38
108,12 109,102 110,60 111,87
121,610 122,235 123,871 124,75
134,165 135,257 136,38 137,1308
138,9999 139,970 140,499
##END=
