##TITLE=8-Dodecen-1-ol, acetate, (E)-
##JCAMP-DX=4.24
##DATA TYPE=MASS SPECTRUM
##ORIGIN=Vladimir Zaikin, TIPS RAS, Moscow, Russia
##OWNER=NIST Mass Spectrometry Data Center
Collection (C) 2014 copyright by the U.S. Secretary of Commerce
on behalf of the United States of America. All rights reserved.
##CAS REGISTRY NO=38363-29-0
##$NIST MASS SPEC NO=245325
##MOLFORM=C14 H26 O2
##MW=226
##$NIST SOURCE=MSDC
##XUNITS=M/Z
##YUNITS=RELATIVE INTENSITY
##XFACTOR=1
##YFACTOR=1
##FIRSTX=30
##LASTX=167
##FIRSTY=270
##MAXX=167
##MINX=30
##MAXY=9999
##MINY=110
##NPOINTS=63
##PEAK TABLE=(XY..XY)
30,270 31,270 32,360 36,210
37,370 38,470 39,3853 40,910
41,6696 42,2222 43,9999 44,920
45,820 50,410 51,570 52,420
53,1231 54,3983 55,6946 56,1481
57,650 58,230 60,490 61,820
62,130 63,230 65,470 66,780
67,5955 68,3433 69,2161 70,630
71,280 73,270 77,430 78,270
79,830 80,480 81,4423 82,5234
83,1231 84,280 85,180 91,230
93,290 94,330 95,2572 96,3042
97,680 98,130 108,190 109,1151
110,1231 111,250 118,530 119,440
120,110 137,280 138,240 151,110
152,150 166,560 167,130
##END=
