##TITLE=1,1'-Biphenyl, 2,2',3,5',6-pentachloro-
##JCAMP-DX=4.24
##DATA TYPE=MASS SPECTRUM
##ORIGIN=Organic Synthesis Lab, MSU, Moscow.TRC 1290
##OWNER=NIST Mass Spectrometry Data Center
Collection (C) 2014 copyright by the U.S. Secretary of Commerce
on behalf of the United States of America. All rights reserved.
##CAS REGISTRY NO=38379-99-6
##$NIST MASS SPEC NO=326660
##MOLFORM=C12 H5 Cl5
##MW=324
##$NIST SOURCE=MSDC
##XUNITS=M/Z
##YUNITS=RELATIVE INTENSITY
##XFACTOR=1
##YFACTOR=1
##FIRSTX=44
##LASTX=334
##FIRSTY=118
##MAXX=334
##MINX=44
##MAXY=9999
##MINY=17
##NPOINTS=119
##PEAK TABLE=(XY..XY)
44,118 49,72 50,115 51,40
55,32 57,33 60,61 61,188
62,127 63,44 72,63 73,300
74,339 75,135 76,21 79,63
84,94 85,190 86,116 87,51
91,111 92,295 93,102 96,63
97,129 98,241 99,118 100,23
107,71 108,111 109,598 110,365
111,125 114,43 115,31 119,26
120,57 121,84 122,152 123,143
124,43 127,683 128,723 129,210
131,35 132,80 133,127 134,47
135,60 136,17 143,28 144,147
145,203 146,241 147,224 148,184
149,198 150,33 157,60 158,102
159,511 162,210 163,381 164,242
165,74 166,46 169,62 170,33
171,63 172,21 180,23 181,61
182,104 183,243 184,1046 185,204
186,289 187,51 193,33 194,53
195,33 204,73 206,42 208,21
217,48 218,349 219,382 220,279
221,250 222,78 223,55 228,31
254,3505 255,464 256,3338 257,465
258,1211 259,163 260,130 261,20
289,2284 290,398 291,2776 292,409
293,1433 294,182 295,292 296,51
324,5754 325,731 326,9999 327,1201
328,6396 329,815 330,1972 331,305
332,343 333,30 334,30
##END=
