##TITLE=1,1'-Biphenyl, 2,2',3,4',5',6-hexachloro-
##JCAMP-DX=4.24
##DATA TYPE=MASS SPECTRUM
##ORIGIN=Organic Synthesis Lab, MSU, Moscow.TRC 1239
##OWNER=NIST Mass Spectrometry Data Center
Collection (C) 2014 copyright by the U.S. Secretary of Commerce
on behalf of the United States of America. All rights reserved.
##CAS REGISTRY NO=38380-04-0
##$NIST MASS SPEC NO=326621
##MOLFORM=C12 H4 Cl6
##MW=358
##$NIST SOURCE=MSDC
##XUNITS=M/Z
##YUNITS=RELATIVE INTENSITY
##XFACTOR=1
##YFACTOR=1
##FIRSTX=44
##LASTX=368
##FIRSTY=437
##MAXX=368
##MINX=44
##MAXY=9999
##MINY=63
##NPOINTS=110
##PEAK TABLE=(XY..XY)
44,437 47,143 49,178 50,228
60,152 61,623 62,240 67,86
72,357 73,1228 74,1135 75,180
84,547 85,541 86,336 87,135
91,492 95,124 96,369 97,528
98,762 99,264 106,63 107,341
108,861 109,2137 110,1333 111,374
114,138 115,133 118,106 119,104
120,322 121,345 122,695 123,339
126,1290 127,1215 131,152 132,407
133,411 134,231 142,91 144,2988
145,3975 146,2167 147,844 148,398
156,160 157,214 158,206 160,115
162,425 163,346 164,157 167,108
168,105 169,145 179,706 180,1280
181,1129 182,1012 183,675 184,218
185,166 206,102 216,164 217,298
218,2282 219,486 220,1487 221,225
222,204 228,149 230,181 240,139
252,428 253,575 254,538 255,588
256,241 257,188 288,4742 289,729
290,6153 291,942 292,2971 293,430
294,758 295,155 323,1624 324,232
325,2423 326,356 327,1538 328,194
329,403 330,86 331,84 358,5006
359,826 360,9999 361,1508 362,8050
363,1236 364,3774 365,437 366,803
367,124 368,154
##END=
