##TITLE=1,1'-Biphenyl, 2,2',3,3',4,4'-hexachloro-
##JCAMP-DX=4.24
##DATA TYPE=MASS SPECTRUM
##ORIGIN=T.L.Hayes, Battelle Columbus Laboratories, Columbus, OH 43221
##OWNER=NIST Mass Spectrometry Data Center
Collection (C) 2014 copyright by the U.S. Secretary of Commerce
on behalf of the United States of America. All rights reserved.
##CAS REGISTRY NO=38380-07-3
##$NIST MASS SPEC NO=80757
##MOLFORM=C12 H4 Cl6
##MW=358
##$NIST SOURCE=MSDC
##XUNITS=M/Z
##YUNITS=RELATIVE INTENSITY
##XFACTOR=1
##YFACTOR=1
##FIRSTX=33
##LASTX=368
##FIRSTY=9
##MAXX=368
##MINX=33
##MAXY=9999
##MINY=6
##NPOINTS=227
##PEAK TABLE=(XY..XY)
33,9 34,90 35,342 36,675
37,485 38,388 39,50 40,741
41,21 44,208 45,8 47,250
48,52 49,449 50,401 51,97
53,21 55,123 56,32 57,16
58,15 59,22 60,366 61,1171
62,494 63,154 66,56 67,110
68,34 70,12 71,169 72,688
73,2338 74,2047 75,435 77,58
78,531 79,464 80,23 81,19
82,51 83,108 84,1678 85,1218
86,893 87,265 89,25 91,2050
92,331 94,106 96,1503 97,1298
98,1743 99,647 100,33 101,32
102,29 103,35 107,580 108,2101
109,5294 110,3072 111,885 112,62
113,84 114,234 115,475 116,8
119,318 120,299 121,767 122,937
123,406 124,44 126,3118 127,3834
128,1250 129,57 130,46 131,401
132,824 133,959 134,475 135,336
136,73 137,24 138,6 141,59
142,110 143,202 144,6805 145,7999
146,4654 147,1892 148,714 149,128
150,82 151,45 152,38 154,139
155,83 156,421 157,394 158,315
159,163 160,56 161,1449 162,1797
163,562 164,926 165,25 166,50
167,160 168,179 169,372 170,122
171,219 172,35 173,45 176,21
177,16 178,22 179,778 180,1523
181,1514 182,1487 183,1169 184,453
185,312 186,39 187,9 189,6
190,8 191,91 192,242 193,175
194,185 195,82 196,54 197,10
198,12 203,87 204,299 205,136
206,337 207,472 208,182 209,55
210,10 214,8 215,54 216,168
217,476 218,3223 219,708 220,2122
221,312 222,348 223,57 226,6
227,38 228,129 229,56 230,98
231,26 242,26 243,24 249,7
250,16 251,39 252,729 253,768
254,803 255,713 256,335 257,229
258,57 259,23 262,38 264,63
265,26 266,45 267,23 268,18
269,11 277,8 281,79 283,16
284,13 285,6 286,7 287,6
288,6100 289,881 290,7711 291,1057
292,3733 293,495 294,796 295,115
296,87 297,7 322,61 323,2039
324,432 325,3176 326,547 327,2108
328,321 329,659 330,95 331,97
332,28 346,17 355,6 356,15
358,5359 359,702 360,9999 361,1284
362,8129 363,1025 364,3507 365,418
366,829 367,87 368,103
##END=
