##TITLE=1H-Indene, 5-(1,1-dimethylethyl)-2,3-dihydro-1,1-dimethyl-
##JCAMP-DX=4.24
##DATA TYPE=MASS SPECTRUM
##ORIGIN=M.C. HAMMING CONTINENTAL OIL CO., PONCA CITY, OKLA., USA
##OWNER=NIST Mass Spectrometry Data Center
Collection (C) 2014 copyright by the U.S. Secretary of Commerce
on behalf of the United States of America. All rights reserved.
##CAS REGISTRY NO=38393-97-4
##$NIST MASS SPEC NO=9067
##MOLFORM=C15 H22
##MW=202
##$NIST SOURCE=MSDC
##XUNITS=M/Z
##YUNITS=RELATIVE INTENSITY
##XFACTOR=1
##YFACTOR=1
##FIRSTX=13
##LASTX=204
##FIRSTY=17
##MAXX=204
##MINX=13
##MAXY=9999
##MINY=5
##NPOINTS=124
##PEAK TABLE=(XY..XY)
13,17 14,37 15,638 16,18
25,5 26,38 27,588 28,350
29,767 30,30 38,33 39,583
40,77 41,1150 42,67 43,170
44,7 50,77 51,299 52,87
53,232 54,30 55,193 56,42
57,2716 58,170 62,49 63,223
64,225 65,214 66,35 67,40
69,33 70,166 71,654 72,755
73,32 74,39 75,87 76,198
77,427 78,197 79,147 80,30
81,23 82,48 83,73 84,81
85,156 86,520 88,23 89,97
90,30 91,503 92,76 93,47
94,20 95,9 97,7 98,16
99,17 100,6 101,43 102,107
103,130 104,48 105,140 106,23
113,33 114,42 115,849 116,281
117,260 118,42 119,51 126,56
127,287 128,789 129,793 130,255
131,953 132,132 133,42 139,102
140,52 141,403 142,307 143,305
144,124 145,236 146,46 147,58
148,18 151,36 152,111 153,117
154,64 155,151 156,133 157,567
158,113 159,152 160,37 161,27
165,46 166,26 167,23 169,33
170,51 171,370 172,748 173,318
174,55 175,33 183,19 185,163
186,106 187,9999 188,1543 200,47
201,564 202,1449 203,232 204,18
##END=
