##TITLE=o-Cyanobenzoic acid
##JCAMP-DX=4.24
##DATA TYPE=MASS SPECTRUM
##ORIGIN=NIST Mass Spectrometry Data Center, 1994
##OWNER=NIST Mass Spectrometry Data Center
Collection (C) 2014 copyright by the U.S. Secretary of Commerce
on behalf of the United States of America. All rights reserved.
##CAS REGISTRY NO=3839-22-3
##$NIST MASS SPEC NO=134862
##MOLFORM=C8 H5 N O2
##MW=147
##$NIST SOURCE=MSDC
##XUNITS=M/Z
##YUNITS=RELATIVE INTENSITY
##XFACTOR=1
##YFACTOR=1
##FIRSTX=14
##LASTX=149
##FIRSTY=64
##MAXX=149
##MINX=14
##MAXY=9999
##MINY=44
##NPOINTS=47
##PEAK TABLE=(XY..XY)
14,64 16,44 26,116 27,142
28,204 29,96 31,53 32,66
36,84 37,767 38,786 39,318
40,52 42,63 43,296 44,138
45,263 48,77 49,639 50,4624
51,468 52,485 53,194 60,227
61,276 62,256 63,369 64,325
65,87 66,484 70,170 72,68
73,542 74,2410 75,1849 76,9913
77,910 78,66 90,349 91,99
92,175 103,3690 104,7387 105,592
147,9999 148,982 149,77
##END=
