##TITLE=2-(o-Tolyloxy)-aniline
##JCAMP-DX=4.24
##DATA TYPE=MASS SPECTRUM
##ORIGIN=Japan AIST/NIMC Database- Spectrum MS-NW-6664
##OWNER=NIST Mass Spectrometry Data Center
Collection (C) 2014 copyright by the U.S. Secretary of Commerce
on behalf of the United States of America. All rights reserved.
##CAS REGISTRY NO=3840-18-4
##$NIST MASS SPEC NO=236652
##MOLFORM=C13 H13 N O
##MW=199
##$NIST SOURCE=MSDC
##XUNITS=M/Z
##YUNITS=RELATIVE INTENSITY
##XFACTOR=1
##YFACTOR=1
##FIRSTX=15
##LASTX=202
##FIRSTY=10
##MAXX=202
##MINX=15
##MAXY=9999
##MINY=10
##NPOINTS=129
##PEAK TABLE=(XY..XY)
15,10 26,30 27,209 28,139
29,10 36,10 37,30 38,109
39,739 40,60 41,179 42,60
43,20 44,10 49,10 50,129
51,359 52,409 53,459 54,109
55,30 56,10 57,10 58,10
61,20 62,80 63,329 64,199
65,1189 66,189 67,30 70,10
71,40 72,10 74,30 75,40
76,50 77,279 78,159 79,309
80,1729 81,139 82,10 83,50
84,20 85,10 86,10 87,10
88,10 89,199 90,109 91,1019
92,519 93,4209 94,359 95,10
98,60 99,40 101,10 102,20
103,30 104,109 105,70 106,529
107,179 108,2009 109,269 110,20
114,10 115,80 116,20 117,70
118,50 119,20 120,50 121,10
122,10 126,20 127,80 128,159
129,109 130,129 131,40 132,20
133,40 134,20 139,20 140,20
141,40 142,30 143,60 144,60
145,20 146,10 151,30 152,90
153,109 154,169 155,99 156,179
157,40 158,20 159,10 164,10
165,30 166,50 167,139 168,90
169,30 170,249 171,50 172,20
178,10 179,20 180,359 181,639
182,489 183,449 184,499 185,80
186,10 195,10 196,129 197,90
198,599 199,9999 200,1439 201,129
202,10
##END=
