##TITLE=2',5'-Dichloro-4'-nitroacetanilide
##JCAMP-DX=4.24
##DATA TYPE=MASS SPECTRUM
##ORIGIN=NIST Mass Spectrometry Data Center, 1994
##OWNER=NIST Mass Spectrometry Data Center
Collection (C) 2014 copyright by the U.S. Secretary of Commerce
on behalf of the United States of America. All rights reserved.
##CAS REGISTRY NO=38411-17-5
##$NIST MASS SPEC NO=136626
##MOLFORM=C8 H6 Cl2 N2 O3
##MW=248
##$NIST SOURCE=MSDC
##XUNITS=M/Z
##YUNITS=RELATIVE INTENSITY
##XFACTOR=1
##YFACTOR=1
##FIRSTX=14
##LASTX=252
##FIRSTY=26
##MAXX=252
##MINX=14
##MAXY=9999
##MINY=18
##NPOINTS=115
##PEAK TABLE=(XY..XY)
14,26 15,916 17,77 18,173
26,26 30,1208 35,40 36,64
37,138 38,85 39,61 40,35
41,58 42,404 43,9999 44,284
46,42 47,60 49,90 50,106
51,125 52,333 53,31 60,77
61,402 62,577 63,258 64,72
65,83 71,34 72,164 73,264
74,180 75,166 76,137 77,60
78,57 83,40 84,58 85,66
86,105 87,152 88,313 89,133
90,149 95,22 96,134 97,800
98,168 99,306 100,80 101,24
102,27 107,48 108,50 109,113
110,46 111,47 112,76 113,45
114,45 122,37 123,55 124,642
125,248 126,249 127,83 131,33
132,102 133,358 134,74 135,218
136,28 137,40 138,23 139,33
140,36 148,226 149,27 150,140
151,22 152,34 158,32 159,57
160,511 161,90 162,315 163,34
164,51 167,30 176,1395 177,136
178,856 179,64 180,128 190,219
191,31 192,133 194,18 206,2072
207,184 208,1350 209,104 210,240
213,1414 214,152 215,477 216,43
218,22 233,22 248,435 249,56
250,299 251,36 252,64
##END=
