##TITLE=1,1'-Biphenyl, 2,3,3'-trichloro-
##JCAMP-DX=4.24
##DATA TYPE=MASS SPECTRUM
##ORIGIN=N. Todua, WGM, MMES
##OWNER=NIST Mass Spectrometry Data Center
Collection (C) 2014 copyright by the U.S. Secretary of Commerce
on behalf of the United States of America. All rights reserved.
##CAS REGISTRY NO=38444-84-7
##$NIST MASS SPEC NO=334681
##MOLFORM=C12 H7 Cl3
##MW=256
##$NIST SOURCE=MSDC
##XUNITS=M/Z
##YUNITS=RELATIVE INTENSITY
##XFACTOR=1
##YFACTOR=1
##FIRSTX=41
##LASTX=263
##FIRSTY=192
##MAXX=263
##MINX=41
##MAXY=9999
##MINY=122
##NPOINTS=112
##PEAK TABLE=(XY..XY)
41,192 42,192 43,192 44,253
47,192 48,192 49,253 50,628
51,507 52,122 55,192 56,192
57,122 60,192 61,446 62,699
63,446 72,253 73,446 74,1074
75,2026 77,253 79,192 81,314
82,192 84,314 85,375 86,507
87,375 88,192 89,192 93,1327
96,192 97,446 98,628 99,699
100,314 101,253 102,192 107,192
108,253 109,314 110,1327 111,881
112,375 113,253 114,192 115,192
120,192 121,253 122,314 123,446
124,314 125,375 126,253 128,507
129,446 130,253 131,122 132,122
133,192 134,192 135,253 136,253
137,192 138,192 144,192 145,192
146,192 147,253 149,507 150,2087
151,1641 152,314 159,253 160,314
161,192 162,192 170,192 171,192
172,192 173,192 183,192 184,314
185,507 186,6008 187,1135 188,2087
189,375 194,192 196,192 197,192
198,192 207,192 219,192 220,567
221,314 222,446 223,253 224,192
225,192 232,122 253,192 254,192
256,9492 257,1459 258,9999 259,1266
260,3100 261,446 262,446 263,122
##END=
