##TITLE=Ethanedione,(4-hydroxyphenyl)phenyl-
##JCAMP-DX=4.24
##DATA TYPE=MASS SPECTRUM
##ORIGIN=Humboldt-Universitat zu Berlin, Department of Chemistry, Analytical Group
##OWNER=NIST Mass Spectrometry Data Center
Collection (C) 2014 copyright by the U.S. Secretary of Commerce
on behalf of the United States of America. All rights reserved.
##CAS REGISTRY NO=38469-73-7
##$NIST MASS SPEC NO=287561
##MOLFORM=C14 H10 O3
##MW=226
##$NIST SOURCE=MSDC
##XUNITS=M/Z
##YUNITS=RELATIVE INTENSITY
##XFACTOR=1
##YFACTOR=1
##FIRSTX=12
##LASTX=228
##FIRSTY=6
##MAXX=228
##MINX=12
##MAXY=9999
##MINY=2
##NPOINTS=123
##PEAK TABLE=(XY..XY)
12,6 13,2 14,10 15,16
16,12 17,42 18,150 19,2
25,4 26,35 27,151 28,74
29,56 30,6 31,16 32,4
36,3 37,60 38,219 39,1261
40,49 41,15 42,21 43,28
44,15 45,9 46,8 48,3
49,25 50,467 51,1264 52,70
53,183 54,15 55,30 56,5
57,11 58,3 61,34 62,129
63,307 64,174 65,1555 66,147
67,20 68,5 69,8 70,4
71,5 73,23 74,143 75,108
76,119 77,2067 78,157 79,14
80,21 81,5 82,7 83,4
84,3 85,8 86,11 87,11
88,5 89,11 90,6 91,14
92,110 93,1463 94,114 95,11
96,27 97,7 98,12 99,5
101,4 102,4 103,3 105,1889
106,142 107,17 108,9 109,10
110,23 111,6 112,43 113,8
114,15 115,15 116,4 118,4
119,8 121,9999 122,790 123,75
124,5 125,4 126,6 127,4
135,11 138,6 139,16 140,7
141,11 142,3 147,5 150,4
151,6 152,11 153,4 156,3
157,4 158,4 160,5 168,3
169,3 181,4 197,7 210,4
226,220 227,38 228,6
##END=
