##TITLE=4-Quinolinol,1,4-diethyldecahydro-2-methyl-(2.alpha.,4.alpha.,4a.alpha.,8a.beta.
##JCAMP-DX=4.24
##DATA TYPE=MASS SPECTRUM
##ORIGIN=V.G.Zaikin, TIPS, Russian Acad. Sci.
##OWNER=NIST Mass Spectrometry Data Center
Collection (C) 2014 copyright by the U.S. Secretary of Commerce
on behalf of the United States of America. All rights reserved.
##CAS REGISTRY NO=38463-60-4
##$NIST MASS SPEC NO=215513
##MOLFORM=C14 H27 N O
##MW=225
##$NIST SOURCE=MSDC
##XUNITS=M/Z
##YUNITS=RELATIVE INTENSITY
##XFACTOR=1
##YFACTOR=1
##FIRSTX=53
##LASTX=227
##FIRSTY=540
##MAXX=227
##MINX=53
##MAXY=9999
##MINY=11
##NPOINTS=67
##PEAK TABLE=(XY..XY)
53,540 54,500 55,1261 56,2131
57,3453 58,480 59,160 65,160
66,120 67,870 68,320 69,540
70,850 71,320 72,4223 73,150
74,220 77,250 78,200 79,450
80,190 81,700 82,460 83,160
84,590 85,190 86,390 91,140
93,100 94,80 95,250 96,270
97,120 98,210 106,130 107,190
108,140 110,360 112,140 122,100
123,100 124,340 125,100 126,310
138,250 139,130 140,390 152,500
153,160 154,160 178,440 180,420
182,1401 183,220 192,190 193,120
196,9999 197,1731 198,180 206,280
208,400 210,3433 211,540 224,190
225,1271 226,200 227,11
##END=
