##TITLE=2,3-Hexanedione
##JCAMP-DX=4.24
##DATA TYPE=MASS SPECTRUM
##ORIGIN=NIST Mass Spectrometry Data Center, 1998.
##OWNER=NIST Mass Spectrometry Data Center
Collection (C) 2014 copyright by the U.S. Secretary of Commerce
on behalf of the United States of America. All rights reserved.
##CAS REGISTRY NO=3848-24-6
##$NIST MASS SPEC NO=291460
##MOLFORM=C6 H10 O2
##MW=114
##$NIST SOURCE=MSDC
##XUNITS=M/Z
##YUNITS=RELATIVE INTENSITY
##XFACTOR=1
##YFACTOR=1
##FIRSTX=14
##LASTX=115
##FIRSTY=40
##MAXX=115
##MINX=14
##MAXY=9999
##MINY=10
##NPOINTS=28
##PEAK TABLE=(XY..XY)
14,40 15,180 26,100 27,920
29,150 37,50 38,100 39,610
40,100 41,2140 42,600 43,9999
44,410 45,30 50,30 51,20
53,80 54,10 55,120 56,20
57,20 58,20 69,20 70,20
71,1990 72,160 114,670 115,50
##END=
