##TITLE=1,3,3,5,5-Pentamethylcyclohexanol
##JCAMP-DX=4.24
##DATA TYPE=MASS SPECTRUM
##ORIGIN=NIST Mass Spectrometry Data Center, 1990.
##OWNER=NIST Mass Spectrometry Data Center
Collection (C) 2014 copyright by the U.S. Secretary of Commerce
on behalf of the United States of America. All rights reserved.
##CAS REGISTRY NO=38490-33-4
##$NIST MASS SPEC NO=114335
##MOLFORM=C11 H22 O
##MW=170
##$NIST SOURCE=MSDC
##XUNITS=M/Z
##YUNITS=RELATIVE INTENSITY
##XFACTOR=1
##YFACTOR=1
##FIRSTX=14
##LASTX=156
##FIRSTY=464
##MAXX=156
##MINX=14
##MAXY=9999
##MINY=136
##NPOINTS=60
##PEAK TABLE=(XY..XY)
14,464 15,479 16,254 18,266
27,1753 28,481 29,1918 31,148
39,2956 40,721 41,5103 42,528
43,4808 44,232 50,162 51,562
52,288 53,1739 54,453 55,3765
56,1327 57,2385 58,676 59,313
63,153 65,825 66,255 67,2042
68,479 69,1155 71,174 77,1429
78,277 79,1744 81,6005 82,593
83,1461 85,243 91,1171 92,196
93,776 95,5536 96,3207 97,5159
99,5461 100,356 105,457 107,447
108,249 109,1285 110,227 121,284
124,136 137,9999 138,1158 139,186
152,1982 153,296 155,3368 156,417
##END=
