##TITLE=2,6-Difluorobenzoic acid
##JCAMP-DX=4.24
##DATA TYPE=MASS SPECTRUM
##ORIGIN=NIST Mass Spectrometry Data Center, 1994
##OWNER=NIST Mass Spectrometry Data Center
Collection (C) 2014 copyright by the U.S. Secretary of Commerce
on behalf of the United States of America. All rights reserved.
##CAS REGISTRY NO=385-00-2
##$NIST MASS SPEC NO=134855
##MOLFORM=C7 H4 F2 O2
##MW=158
##$NIST SOURCE=MSDC
##XUNITS=M/Z
##YUNITS=RELATIVE INTENSITY
##XFACTOR=1
##YFACTOR=1
##FIRSTX=4
##LASTX=160
##FIRSTY=48
##MAXX=160
##MINX=4
##MAXY=9999
##MINY=20
##NPOINTS=73
##PEAK TABLE=(XY..XY)
4,48 14,29 17,50 25,20
26,50 28,152 29,92 31,650
32,30 36,67 37,472 38,242
39,240 43,25 44,150 45,796
47,43 48,33 49,166 50,710
51,167 53,28 55,122 56,309
57,543 58,30 60,72 61,582
62,801 63,3630 64,300 65,73
68,783 69,311 71,397 72,25
73,172 74,631 75,400 79,95
80,175 81,540 82,311 83,137
84,25 86,127 87,252 88,452
89,30 92,279 93,619 94,1081
95,123 99,37 101,121 102,85
110,357 111,102 113,3800 114,664
115,44 123,25 130,136 137,23
138,122 139,115 140,23 141,9999
142,744 143,52 158,6110 159,527
160,49
##END=
