##TITLE=2-Butanamine, 3,3-dimethyl-
##JCAMP-DX=4.24
##DATA TYPE=MASS SPECTRUM
##ORIGIN=Japan AIST/NIMC Database- Spectrum MS-NW-3081
##OWNER=NIST Mass Spectrometry Data Center
Collection (C) 2014 copyright by the U.S. Secretary of Commerce
on behalf of the United States of America. All rights reserved.
##CAS REGISTRY NO=3850-30-4
##$NIST MASS SPEC NO=231380
##MOLFORM=C6 H15 N
##MW=101
##$NIST SOURCE=MSDC
##XUNITS=M/Z
##YUNITS=RELATIVE INTENSITY
##XFACTOR=1
##YFACTOR=1
##FIRSTX=15
##LASTX=101
##FIRSTY=70
##MAXX=101
##MINX=15
##MAXY=9999
##MINY=10
##NPOINTS=35
##PEAK TABLE=(XY..XY)
15,70 26,10 27,149 28,129
29,159 30,129 31,10 38,10
39,169 40,30 41,549 42,299
43,229 44,9999 45,259 50,10
51,10 53,30 54,20 55,50
56,99 57,99 58,20 67,10
68,10 69,399 70,169 71,169
83,10 84,30 85,20 86,779
87,50 100,20 101,10
##END=
