##TITLE=Oxiraneundecanoic acid, 3-pentyl-, methyl ester, cis-
##JCAMP-DX=4.24
##DATA TYPE=MASS SPECTRUM
##ORIGIN=R.T.HOLMAN,UNIVERSITY OF MINNESOTA
##OWNER=NIST Mass Spectrometry Data Center
Collection (C) 2014 copyright by the U.S. Secretary of Commerce
on behalf of the United States of America. All rights reserved.
##CAS REGISTRY NO=38520-30-8
##$NIST MASS SPEC NO=36285
##MOLFORM=C19 H36 O3
##MW=312
##$NIST SOURCE=MSDC
##XUNITS=M/Z
##YUNITS=RELATIVE INTENSITY
##XFACTOR=1
##YFACTOR=1
##FIRSTX=26
##LASTX=313
##FIRSTY=210
##MAXX=313
##MINX=26
##MAXY=9999
##MINY=10
##NPOINTS=260
##PEAK TABLE=(XY..XY)
26,210 27,2010 28,3700 29,4510
30,160 31,440 32,170 33,30
34,10 35,20 36,70 37,50
38,70 39,1370 40,290 41,8060
42,2090 43,7090 44,640 45,510
46,20 47,10 48,20 49,30
50,50 51,90 52,60 53,660
54,1410 55,9999 56,2170 57,4750
58,680 59,2010 60,110 61,50
62,20 63,40 64,30 65,180
66,220 67,3300 68,1850 69,5240
70,1490 71,1530 72,220 73,380
74,5480 75,650 76,60 77,230
78,100 79,710 80,480 81,3140
82,1610 83,2740 84,1330 85,1080
86,160 87,3870 88,360 89,40
90,10 91,240 92,70 93,490
94,440 95,2170 96,1930 97,2410
98,1610 99,400 100,120 101,480
102,70 103,20 104,40 105,110
106,70 107,290 108,230 109,870
110,690 111,890 112,620 113,900
114,400 115,540 116,120 117,50
118,40 119,160 120,140 121,340
122,590 123,600 124,560 125,530
126,170 127,1450 128,520 129,660
130,120 131,90 132,40 133,120
134,80 135,460 136,250 137,360
138,390 139,440 140,160 141,370
142,320 143,330 144,60 145,80
146,40 147,150 148,490 149,520
150,180 151,170 152,200 153,340
154,150 155,600 156,120 157,120
158,80 159,60 160,20 161,40
162,30 163,110 164,400 165,330
166,210 167,370 168,140 169,120
170,110 171,210 172,80 173,20
174,20 175,40 176,10 177,120
178,110 179,80 180,120 181,280
182,100 183,1450 184,230 185,250
186,140 187,30 188,10 189,20
190,10 191,30 192,40 193,50
194,40 195,230 196,150 197,120
198,420 199,700 200,160 201,30
202,10 203,10 204,10 205,10
206,10 207,30 208,30 209,160
210,80 211,30 212,10 213,150
214,30 215,90 216,20 217,30
218,20 219,60 220,80 221,40
222,110 223,70 224,40 225,10
226,10 227,570 228,250 229,40
230,10 231,10 232,10 233,10
234,20 235,30 236,20 237,30
238,30 239,80 240,10 241,50
242,120 243,20 244,10 245,20
246,20 247,10 250,10 251,20
252,20 253,20 254,10 255,50
256,20 257,10 258,10 259,10
260,10 261,10 262,50 263,90
264,260 265,130 266,40 267,10
268,10 269,10 270,10 279,40
280,30 281,170 282,30 283,10
284,90 285,20 286,10 294,150
295,30 296,70 297,20 298,10
310,10 311,10 312,54 313,20
##END=
