##TITLE=p-Methylbenzylidene p-butylaniline
##JCAMP-DX=4.24
##DATA TYPE=MASS SPECTRUM
##ORIGIN=NIST Mass Spectrometry Data Center, 1994
##OWNER=NIST Mass Spectrometry Data Center
Collection (C) 2014 copyright by the U.S. Secretary of Commerce
on behalf of the United States of America. All rights reserved.
##CAS REGISTRY NO=38549-81-4
##$NIST MASS SPEC NO=135131
##MOLFORM=C18 H21 N
##MW=251
##$NIST SOURCE=MSDC
##XUNITS=M/Z
##YUNITS=RELATIVE INTENSITY
##XFACTOR=1
##YFACTOR=1
##FIRSTX=9
##LASTX=254
##FIRSTY=18
##MAXX=254
##MINX=9
##MAXY=9999
##MINY=1
##NPOINTS=128
##PEAK TABLE=(XY..XY)
9,18 11,10 12,18 14,3
15,35 16,6 17,1 18,13
25,13 27,866 28,84 29,292
30,9 32,18 37,19 39,608
40,131 41,572 42,58 43,248
44,39 45,7 50,152 51,471
52,142 53,102 54,15 55,44
56,23 57,2 61,12 62,74
63,413 64,174 65,904 66,70
67,27 73,13 74,29 75,106
76,256 77,1138 78,334 79,115
80,17 83,20 84,36 86,16
87,24 89,1329 90,2119 91,2117
92,213 93,23 94,10 96,42
100,13 101,73 102,243 103,749
104,170 105,154 106,23 109,14
110,14 111,10 113,13 115,195
116,229 117,95 118,39 119,16
125,17 126,16 127,44 128,93
129,59 130,146 131,40 133,19
139,38 140,31 141,47 142,38
143,11 151,35 152,90 153,45
154,22 158,10 160,12 163,17
165,327 166,150 167,54 168,22
176,22 177,39 178,110 179,56
180,55 181,177 182,30 189,19
190,60 191,109 192,172 193,130
194,96 195,37 196,14 203,20
204,54 205,53 206,182 207,14
208,9999 209,1714 210,162 211,16
220,109 221,40 222,39 234,18
251,2782 252,570 253,74 254,11
##END=
