##TITLE=2,3,4-Trimethylpyrrole
##JCAMP-DX=4.24
##DATA TYPE=MASS SPECTRUM
##ORIGIN=Philip Morris R&D
##OWNER=NIST Mass Spectrometry Data Center
Collection (C) 2014 copyright by the U.S. Secretary of Commerce
on behalf of the United States of America. All rights reserved.
##CAS REGISTRY NO=3855-78-5
##$NIST MASS SPEC NO=108790
##MOLFORM=C7 H11 N
##MW=109
##$NIST SOURCE=MSDC
##XUNITS=M/Z
##YUNITS=RELATIVE INTENSITY
##XFACTOR=1
##YFACTOR=1
##FIRSTX=36
##LASTX=110
##FIRSTY=55
##MAXX=110
##MINX=36
##MAXY=9999
##MINY=20
##NPOINTS=36
##PEAK TABLE=(XY..XY)
36,55 38,67 39,470 40,153
41,526 42,329 47,227 50,84
51,214 52,256 53,497 54,393
55,68 62,24 63,76 64,25
65,363 66,181 67,820 68,79
77,302 78,100 79,332 80,102
81,222 82,20 91,82 92,223
93,773 94,2544 95,168 106,490
107,499 108,9999 109,6387 110,501
##END=
