##TITLE=Copaene
##JCAMP-DX=4.24
##DATA TYPE=MASS SPECTRUM
##OWNER=NIST Mass Spectrometry Data Center
Collection (C) 2014 copyright by the U.S. Secretary of Commerce
on behalf of the United States of America. All rights reserved.
##CAS REGISTRY NO=3856-25-5
##$NIST MASS SPEC NO=9240
##MOLFORM=C15 H24
##MW=204
##$NIST SOURCE=MSDC
##XUNITS=M/Z
##YUNITS=RELATIVE INTENSITY
##XFACTOR=1
##YFACTOR=1
##FIRSTX=27
##LASTX=206
##FIRSTY=1041
##MAXX=206
##MINX=27
##MAXY=9999
##MINY=50
##NPOINTS=100
##PEAK TABLE=(XY..XY)
27,1041 28,380 29,851 38,50
39,1091 40,190 41,3083 42,260
43,1181 44,90 50,70 51,360
52,190 53,851 54,120 55,1942
56,430 57,310 58,70 63,140
64,120 65,661 66,170 67,881
68,170 69,1281 70,310 71,120
75,70 76,70 77,1611 78,470
79,550 80,571 81,2542 82,240
83,170 84,70 85,70 88,70
89,120 90,90 91,3083 92,2562
93,5075 94,901 95,571 96,90
97,90 102,90 103,360 104,210
105,9008 106,1351 107,1561 108,500
109,240 110,90 115,470 116,240
117,641 118,380 119,9388 120,2322
121,1471 122,330 123,240 124,90
127,140 128,330 129,310 130,170
131,470 132,190 133,1161 134,691
135,310 136,1071 137,140 141,90
142,70 143,90 144,70 145,330
146,170 147,520 148,310 149,170
150,90 159,170 160,240 161,9999
162,1371 163,140 175,120 189,591
190,90 204,1992 205,380 206,70
##END=
