##TITLE=N-Ethyl trimethylenediamine
##JCAMP-DX=4.24
##DATA TYPE=MASS SPECTRUM
##ORIGIN=NIST Mass Spectrometry Data Center, 1994
##OWNER=NIST Mass Spectrometry Data Center
Collection (C) 2014 copyright by the U.S. Secretary of Commerce
on behalf of the United States of America. All rights reserved.
##CAS REGISTRY NO=38571-87-8
##$NIST MASS SPEC NO=133589
##MOLFORM=C5 H14 N2
##MW=102
##$NIST SOURCE=MSDC
##XUNITS=M/Z
##YUNITS=RELATIVE INTENSITY
##XFACTOR=1
##YFACTOR=1
##FIRSTX=4
##LASTX=103
##FIRSTY=13
##MAXX=103
##MINX=4
##MAXY=9999
##MINY=13
##NPOINTS=42
##PEAK TABLE=(XY..XY)
4,13 14,35 15,281 16,36
17,98 18,593 26,182 27,1129
28,2758 29,1453 30,8747 31,257
32,28 38,34 39,264 40,175
41,1054 42,1806 43,868 44,5037
45,635 46,772 52,50 53,39
54,185 55,34 56,2861 57,2038
58,9999 59,695 60,65 67,31
68,95 70,3329 71,233 72,618
73,153 85,5801 86,378 87,57
102,124 103,41
##END=
