##TITLE=1,3-Cyclopentanedione
##JCAMP-DX=4.24
##DATA TYPE=MASS SPECTRUM
##ORIGIN=Japan AIST/NIMC Database- Spectrum MS-NW-7251
##OWNER=NIST Mass Spectrometry Data Center
Collection (C) 2014 copyright by the U.S. Secretary of Commerce
on behalf of the United States of America. All rights reserved.
##CAS REGISTRY NO=3859-41-4
##$NIST MASS SPEC NO=235897
##MOLFORM=C5 H6 O2
##MW=98
##$NIST SOURCE=MSDC
##XUNITS=M/Z
##YUNITS=RELATIVE INTENSITY
##XFACTOR=1
##YFACTOR=1
##FIRSTX=12
##LASTX=101
##FIRSTY=21
##MAXX=101
##MINX=12
##MAXY=9999
##MINY=11
##NPOINTS=59
##PEAK TABLE=(XY..XY)
12,21 13,105 14,488 15,265
16,11 24,32 25,169 26,1127
27,2148 28,9999 29,456 30,21
31,11 36,64 37,307 38,329
39,712 40,286 41,744 42,9446
43,1116 44,148 45,21 48,32
49,137 50,254 51,212 52,137
53,254 54,105 55,1722 56,4478
57,616 58,32 60,21 61,32
62,21 63,11 65,11 66,11
67,21 68,53 69,1403 70,1105
71,318 72,21 73,11 77,11
79,21 80,21 81,43 82,11
94,11 96,11 97,786 98,8893
99,541 100,43 101,11
##END=
