##TITLE=Lanost-8-en-3-ol, acetate, (3.beta.,13.alpha.,14.beta.,17.alpha.)-
##JCAMP-DX=4.24
##DATA TYPE=MASS SPECTRUM
##ORIGIN=R. I. REED UNIVERSITY OF GLASGOW
##OWNER=NIST Mass Spectrometry Data Center
Collection (C) 2014 copyright by the U.S. Secretary of Commerce
on behalf of the United States of America. All rights reserved.
##CAS REGISTRY NO=38602-31-2
##$NIST MASS SPEC NO=17913
##MOLFORM=C32 H54 O2
##MW=470
##$NIST SOURCE=MSDC
##XUNITS=M/Z
##YUNITS=RELATIVE INTENSITY
##XFACTOR=1
##YFACTOR=1
##FIRSTX=39
##LASTX=472
##FIRSTY=250
##MAXX=472
##MINX=39
##MAXY=9999
##MINY=100
##NPOINTS=185
##PEAK TABLE=(XY..XY)
39,250 41,2470 42,190 43,4860
44,260 45,180 53,230 55,3420
56,280 57,2630 58,110 67,1100
68,140 69,4400 70,300 71,1420
72,110 77,320 79,970 80,140
81,2020 82,290 83,2210 84,180
85,440 91,1070 92,180 93,1730
94,450 95,4100 96,400 97,1490
98,120 105,1830 106,310 107,2190
108,340 109,2260 110,230 111,1000
112,110 115,130 117,400 118,150
119,2350 120,410 121,2090 122,420
123,1260 124,150 125,370 128,140
129,350 130,160 131,960 132,210
133,1440 134,310 135,1540 136,330
137,530 141,130 142,140 143,540
144,200 145,1330 146,290 147,1400
148,260 149,800 150,150 151,290
155,180 156,130 157,620 158,210
159,1410 160,320 161,1540 162,260
163,560 164,130 165,190 169,200
170,110 171,590 172,210 173,1220
174,270 175,1010 176,160 177,300
179,180 183,190 185,550 186,210
187,1290 188,310 189,1220 190,200
191,230 193,320 197,170 199,410
200,130 201,860 202,190 203,530
204,130 205,300 206,470 207,130
211,130 213,540 214,320 215,1150
216,220 217,180 219,350 220,200
221,210 225,150 227,1100 228,260
229,1000 230,190 231,140 233,260
239,180 241,1000 242,210 243,510
244,110 245,180 247,210 255,540
256,130 257,280 259,310 261,180
266,100 267,130 269,260 271,210
273,730 274,260 275,330 281,240
282,100 283,400 284,110 285,150
287,240 288,110 289,300 297,290
299,290 301,420 302,110 303,110
311,110 313,150 315,230 325,130
327,120 328,110 329,110 337,250
339,110 341,290 342,100 343,240
357,190 395,9200 396,2950 397,650
410,180 411,160 413,100 455,9999
456,3400 457,670 470,2300 471,830
472,140
##END=
