##TITLE=Acetyldihydrocodeine
##JCAMP-DX=4.24
##DATA TYPE=MASS SPECTRUM
##ORIGIN=HOME OFFICE, CENTRAL RES. EST., ALDERMASTON, BERKS., U.K.
##OWNER=NIST Mass Spectrometry Data Center
Collection (C) 2014 copyright by the U.S. Secretary of Commerce
on behalf of the United States of America. All rights reserved.
##CAS REGISTRY NO=3861-72-1
##$NIST MASS SPEC NO=58782
##MOLFORM=C20 H25 N O4
##MW=343
##$NIST SOURCE=MSDC
##XUNITS=M/Z
##YUNITS=RELATIVE INTENSITY
##XFACTOR=1
##YFACTOR=1
##FIRSTX=39
##LASTX=345
##FIRSTY=100
##MAXX=345
##MINX=39
##MAXY=9999
##MINY=100
##NPOINTS=176
##PEAK TABLE=(XY..XY)
39,100 41,200 42,1300 43,1800
44,1000 45,100 51,100 53,100
55,300 56,100 57,300 58,300
59,1600 60,100 63,100 65,100
67,100 68,100 69,100 70,1600
71,200 77,200 78,100 79,100
81,100 82,400 83,200 84,100
89,100 91,200 94,200 95,100
96,300 97,100 98,100 102,100
103,100 105,200 106,100 107,100
108,100 114,100 115,400 116,100
117,100 118,100 120,200 121,100
122,100 126,200 127,200 128,300
129,200 130,100 131,100 132,100
133,100 134,100 135,100 137,100
139,100 141,200 142,100 143,100
144,200 145,100 146,500 147,100
148,100 149,100 150,100 151,100
152,100 153,200 154,100 155,200
156,100 157,200 158,100 159,100
160,100 161,100 162,300 163,100
164,500 165,200 166,100 167,100
168,200 169,200 170,100 173,100
174,100 175,200 176,100 177,100
178,100 179,100 180,100 181,200
182,100 183,300 184,200 185,500
186,200 187,200 188,200 189,200
190,200 191,100 193,100 194,100
195,100 196,100 197,200 198,300
211,400 212,200 213,300 214,300
215,200 216,100 217,100 218,100
219,100 223,100 224,600 225,500
226,1400 227,800 228,300 229,200
230,200 231,100 235,100 236,100
238,100 239,100 240,400 241,300
242,700 243,500 244,300 245,100
252,100 253,100 254,200 255,100
256,300 257,200 258,200 263,100
265,100 268,300 269,100 270,100
272,200 273,100 281,100 282,500
283,400 284,2200 285,500 286,700
287,200 300,2100 301,800 302,200
326,100 328,700 329,200 341,100
342,800 343,9999 344,2100 345,300
##END=
