##TITLE=3,3,5,5-Tetramethylcyclopentene
##JCAMP-DX=4.24
##DATA TYPE=MASS SPECTRUM
##ORIGIN=NIST Mass Spectrometry Data Center, 1990.
##OWNER=NIST Mass Spectrometry Data Center
Collection (C) 2014 copyright by the U.S. Secretary of Commerce
on behalf of the United States of America. All rights reserved.
##CAS REGISTRY NO=38667-10-6
##$NIST MASS SPEC NO=113497
##MOLFORM=C9 H16
##MW=124
##$NIST SOURCE=MSDC
##XUNITS=M/Z
##YUNITS=RELATIVE INTENSITY
##XFACTOR=1
##YFACTOR=1
##FIRSTX=15
##LASTX=124
##FIRSTY=134
##MAXX=124
##MINX=15
##MAXY=9999
##MINY=101
##NPOINTS=33
##PEAK TABLE=(XY..XY)
15,134 27,411 28,362 29,244
39,1086 40,219 41,1228 42,116
43,494 50,148 51,422 52,168
53,687 55,816 63,142 65,533
67,4223 68,267 69,293 77,943
78,219 79,866 81,1465 82,128
91,684 92,101 93,269 94,202
95,117 107,223 109,9999 110,900
124,376
##END=
