##TITLE=Ethane, 1-isothiocyanato-2-methoxy-
##JCAMP-DX=4.24
##DATA TYPE=MASS SPECTRUM
##ORIGIN=NIST Mass Spectrometry Data Center, 1994
##OWNER=NIST Mass Spectrometry Data Center
Collection (C) 2014 copyright by the U.S. Secretary of Commerce
on behalf of the United States of America. All rights reserved.
##CAS REGISTRY NO=38663-85-3
##$NIST MASS SPEC NO=134752
##MOLFORM=C4 H7 N O S
##MW=117
##$NIST SOURCE=MSDC
##XUNITS=M/Z
##YUNITS=RELATIVE INTENSITY
##XFACTOR=1
##YFACTOR=1
##FIRSTX=12
##LASTX=119
##FIRSTY=14
##MAXX=119
##MINX=12
##MAXY=9999
##MINY=8
##NPOINTS=58
##PEAK TABLE=(XY..XY)
12,14 13,35 14,153 15,1064
16,22 25,26 26,316 27,909
28,832 29,1953 30,173 31,288
32,267 33,66 34,27 38,44
39,64 40,140 41,68 42,158
43,486 44,885 45,9999 46,281
47,64 48,8 51,41 52,51
54,27 56,326 57,128 58,738
59,494 60,482 61,239 62,76
63,15 70,168 71,131 72,1486
73,90 74,106 75,14 84,306
85,69 86,377 87,157 88,293
89,859 90,47 91,43 99,43
100,26 101,10 116,152 117,724
118,54 119,33
##END=
