##TITLE=2- Bromopropionic acid, heptyl ester
##JCAMP-DX=4.24
##DATA TYPE=MASS SPECTRUM
##ORIGIN=Zaikin V.G., TIPS RAS, Moscow, Russia
##OWNER=NIST Mass Spectrometry Data Center
Collection (C) 2014 copyright by the U.S. Secretary of Commerce
on behalf of the United States of America. All rights reserved.
##CAS REGISTRY NO=38674-99-6
##$NIST MASS SPEC NO=292435
##MOLFORM=C10 H19 Br O2
##MW=250
##$NIST SOURCE=MSDC
##XUNITS=M/Z
##YUNITS=RELATIVE INTENSITY
##XFACTOR=1
##YFACTOR=1
##FIRSTX=26
##LASTX=155
##FIRSTY=270
##MAXX=155
##MINX=26
##MAXY=9999
##MINY=20
##NPOINTS=57
##PEAK TABLE=(XY..XY)
26,270 27,2152 28,20 29,1962
30,60 31,130 36,180 38,90
39,831 40,220 41,4204 42,1942
43,4294 44,340 45,120 51,50
52,50 53,240 54,440 55,4034
56,6075 57,9999 58,410 67,190
68,631 69,2502 70,4984 71,420
72,30 73,190 74,220 75,100
79,80 80,90 81,130 82,80
83,540 84,40 85,40 96,70
97,530 98,4084 99,300 106,40
107,1381 108,80 109,1311 110,40
115,50 134,30 135,691 136,60
137,661 143,160 153,811 154,40
155,801
##END=
