##TITLE=Benzoic acid, 4-butyl-, 4-cyanophenyl ester
##JCAMP-DX=4.24
##DATA TYPE=MASS SPECTRUM
##ORIGIN=MASS SPECTROMETRY CENTER, UNIV. OF UTAH ALDRICH 18032-7
##OWNER=NIST Mass Spectrometry Data Center
Collection (C) 2014 copyright by the U.S. Secretary of Commerce
on behalf of the United States of America. All rights reserved.
##CAS REGISTRY NO=38690-77-6
##$NIST MASS SPEC NO=52770
##MOLFORM=C18 H17 N O2
##MW=279
##$NIST SOURCE=MSDC
##XUNITS=M/Z
##YUNITS=RELATIVE INTENSITY
##XFACTOR=1
##YFACTOR=1
##FIRSTX=29
##LASTX=236
##FIRSTY=22
##MAXX=236
##MINX=29
##MAXY=9999
##MINY=5
##NPOINTS=36
##PEAK TABLE=(XY..XY)
29,22 37,69 39,331 41,244
50,46 51,97 53,31 55,122
62,84 63,339 64,332 65,580
75,6 76,5 77,296 79,6
89,713 90,1825 91,3542 92,336
93,37 102,85 103,271 104,102
105,140 115,105 116,5 118,1013
119,325 128,38 134,44 159,97
161,9999 162,2203 163,160 236,38
##END=
