##TITLE=Cyclopentane, (1-methylethyl)-
##JCAMP-DX=4.24
##DATA TYPE=MASS SPECTRUM
##OWNER=NIST Mass Spectrometry Data Center
Collection (C) 2014 copyright by the U.S. Secretary of Commerce
on behalf of the United States of America. All rights reserved.
##CAS REGISTRY NO=3875-51-2
##$NIST MASS SPEC NO=1611
##MOLFORM=C8 H16
##MW=112
##$NIST SOURCE=MSDC
##XUNITS=M/Z
##YUNITS=RELATIVE INTENSITY
##XFACTOR=1
##YFACTOR=1
##FIRSTX=13
##LASTX=113
##FIRSTY=10
##MAXX=113
##MINX=13
##MAXY=9999
##MINY=10
##NPOINTS=63
##PEAK TABLE=(XY..XY)
13,10 14,10 15,400 16,10
26,100 27,2452 28,480 29,1271
30,30 37,30 38,80 39,2262
40,480 41,7196 42,1812 43,2622
44,90 45,10 46,20 47,10
50,40 51,140 52,80 53,681
54,210 55,4264 56,3103 57,1161
58,50 62,10 63,40 64,10
65,140 67,1682 68,9999 69,8428
70,1231 71,80 72,10 77,70
78,20 79,60 80,10 81,60
82,40 83,320 84,561 85,30
89,10 91,20 92,10 93,10
94,10 95,30 96,60 97,2592
98,190 99,10 109,10 110,10
111,40 112,290 113,20
##END=
