##TITLE=Acetamide, N-methyl-2-(methylamino)-2-thioxo-
##JCAMP-DX=4.24
##DATA TYPE=MASS SPECTRUM
##ORIGIN=CARL DJERASSI DEPT OF CHEM STANFORD UNIV STANFORD CALIF 94305
##OWNER=NIST Mass Spectrometry Data Center
Collection (C) 2014 copyright by the U.S. Secretary of Commerce
on behalf of the United States of America. All rights reserved.
##CAS REGISTRY NO=38762-37-7
##$NIST MASS SPEC NO=46522
##MOLFORM=C4 H8 N2 O S
##MW=132
##$NIST SOURCE=MSDC
##XUNITS=M/Z
##YUNITS=RELATIVE INTENSITY
##XFACTOR=1
##YFACTOR=1
##FIRSTX=41
##LASTX=134
##FIRSTY=2400
##MAXX=134
##MINX=41
##MAXY=9999
##MINY=100
##NPOINTS=30
##PEAK TABLE=(XY..XY)
41,2400 42,9999 43,500 44,2700
45,5700 46,1400 47,4600 48,200
49,200 51,100 55,100 56,100
57,100 58,900 59,400 60,700
61,100 62,100 71,100 72,100
73,300 74,3100 75,1400 76,200
90,100 103,100 117,100 132,1000
133,100 134,100
##END=
