##TITLE=Propane, 1-(methylthio)-
##JCAMP-DX=4.24
##DATA TYPE=MASS SPECTRUM
##OWNER=NIST Mass Spectrometry Data Center
Collection (C) 2014 copyright by the U.S. Secretary of Commerce
on behalf of the United States of America. All rights reserved.
##CAS REGISTRY NO=3877-15-4
##$NIST MASS SPEC NO=19571
##MOLFORM=C4 H10 S
##MW=90
##$NIST SOURCE=MSDC
##XUNITS=M/Z
##YUNITS=RELATIVE INTENSITY
##XFACTOR=1
##YFACTOR=1
##FIRSTX=1
##LASTX=93
##FIRSTY=240
##MAXX=93
##MINX=1
##MAXY=9999
##MINY=10
##NPOINTS=60
##PEAK TABLE=(XY..XY)
1,240 2,30 12,20 13,50
14,220 15,1221 16,20 25,30
26,350 27,3473 28,280 29,300
30,10 32,50 33,50 34,60
35,1421 36,20 37,160 38,250
39,1872 40,270 41,3493 42,961
43,1932 45,2422 46,1201 47,2362
48,3974 49,1882 50,210 51,90
53,10 55,20 56,10 57,80
58,280 59,350 60,90 61,9999
62,490 63,460 64,20 68,10
69,60 70,20 71,110 72,30
73,90 74,60 75,961 76,60
77,40 87,10 88,10 89,50
90,4744 91,250 92,220 93,10
##END=
