##TITLE=Carbonic acid, ethyl phenyl ester
##JCAMP-DX=4.24
##DATA TYPE=MASS SPECTRUM
##ORIGIN=Zaikin V.G., TIPS RAS, Moscow, Russia
##OWNER=NIST Mass Spectrometry Data Center
Collection (C) 2014 copyright by the U.S. Secretary of Commerce
on behalf of the United States of America. All rights reserved.
##CAS REGISTRY NO=3878-46-4
##$NIST MASS SPEC NO=314565
##MOLFORM=C9 H10 O3
##MW=166
##$NIST SOURCE=MSDC
##XUNITS=M/Z
##YUNITS=RELATIVE INTENSITY
##XFACTOR=1
##YFACTOR=1
##FIRSTX=26
##LASTX=167
##FIRSTY=90
##MAXX=167
##MINX=26
##MAXY=9999
##MINY=10
##NPOINTS=42
##PEAK TABLE=(XY..XY)
26,90 27,290 28,20 29,661
36,40 37,30 38,100 39,540
40,110 41,20 43,30 44,190
50,140 51,310 52,50 53,30
55,110 61,20 62,60 63,180
64,70 65,821 66,921 67,50
68,10 74,40 75,20 76,40
77,931 78,110 79,170 91,20
93,130 94,9999 95,631 96,30
105,20 107,30 121,140 122,210
166,561 167,50
##END=
