##TITLE=Butanedioic acid, monomethyl ester
##JCAMP-DX=4.24
##DATA TYPE=MASS SPECTRUM
##ORIGIN=Japan AIST/NIMC Database- Spectrum MS-NW-7242
##OWNER=NIST Mass Spectrometry Data Center
Collection (C) 2014 copyright by the U.S. Secretary of Commerce
on behalf of the United States of America. All rights reserved.
##CAS REGISTRY NO=3878-55-5
##$NIST MASS SPEC NO=236095
##MOLFORM=C5 H8 O4
##MW=132
##$NIST SOURCE=MSDC
##XUNITS=M/Z
##YUNITS=RELATIVE INTENSITY
##XFACTOR=1
##YFACTOR=1
##FIRSTX=12
##LASTX=117
##FIRSTY=10
##MAXX=117
##MINX=12
##MAXY=9999
##MINY=10
##NPOINTS=65
##PEAK TABLE=(XY..XY)
12,10 13,30 14,139 15,1929
16,50 17,10 18,30 24,10
25,70 26,609 27,2249 28,1779
29,2859 30,109 31,779 32,149
33,129 37,20 38,20 39,50
40,10 41,109 42,479 43,739
44,90 45,2679 46,70 47,20
52,10 53,109 54,60 55,4989
56,1359 57,689 58,90 59,2389
60,249 61,40 68,10 69,10
71,30 72,229 73,2289 74,139
75,10 77,209 81,10 82,20
83,99 84,60 85,50 86,70
87,559 88,539 89,30 99,70
100,919 101,9999 102,489 103,80
104,20 114,1329 115,389 116,30
117,10
##END=
