##TITLE=Triphenylphosphine sulfide
##JCAMP-DX=4.24
##DATA TYPE=MASS SPECTRUM
##ORIGIN=Japan AIST/NIMC Database- Spectrum MS-NW-6725
##OWNER=NIST Mass Spectrometry Data Center
Collection (C) 2014 copyright by the U.S. Secretary of Commerce
on behalf of the United States of America. All rights reserved.
##CAS REGISTRY NO=3878-45-3
##$NIST MASS SPEC NO=235653
##MOLFORM=C18 H15 P S
##MW=294
##$NIST SOURCE=MSDC
##XUNITS=M/Z
##YUNITS=RELATIVE INTENSITY
##XFACTOR=1
##YFACTOR=1
##FIRSTX=26
##LASTX=298
##FIRSTY=40
##MAXX=298
##MINX=26
##MAXY=9999
##MINY=10
##NPOINTS=188
##PEAK TABLE=(XY..XY)
26,40 27,449 28,20 32,40
33,10 34,10 37,30 38,119
39,1019 40,50 41,50 44,20
45,159 47,10 49,30 50,1139
51,4139 52,349 53,30 55,10
56,199 57,699 58,70 59,20
61,30 62,139 63,2159 64,90
65,749 66,60 68,99 69,439
70,60 71,40 73,30 74,399
75,369 76,299 77,2779 78,419
79,40 80,279 81,649 82,259
83,289 84,30 85,20 86,50
87,109 88,50 89,219 90,20
91,129 92,80 93,80 94,50
95,99 96,40 97,10 98,50
99,40 100,30 101,60 102,209
103,40 104,80 105,70 106,60
107,2589 108,1519 109,829 110,90
111,50 112,10 113,80 114,40
115,779 116,99 117,20 119,20
120,99 121,50 122,20 123,10
125,20 126,179 127,139 128,279
129,50 130,10 131,109 132,50
133,549 134,70 135,10 137,10
138,20 139,3469 140,429 141,419
142,60 143,10 144,80 145,60
146,50 147,90 148,10 149,10
150,99 151,229 152,1759 153,509
154,259 155,40 156,30 157,719
158,109 159,119 160,20 163,10
164,10 165,30 168,20 169,50
170,479 171,139 172,20 176,20
177,10 178,10 179,10 180,30
181,299 182,169 183,9999 184,1759
185,6169 186,909 187,70 188,10
189,119 190,10 191,10 194,10
199,10 200,10 201,20 202,40
203,10 207,20 213,50 214,20
215,919 216,159 217,1049 218,159
219,60 220,30 226,40 227,20
228,80 229,30 230,10 231,20
232,10 233,40 234,10 244,20
245,10 255,10 257,90 258,30
259,109 260,70 261,669 262,1559
263,319 264,30 277,20 278,10
291,10 292,60 293,4019 294,7229
295,1589 296,489 297,80 298,10
##END=
