##TITLE=Megastigmatrienone
##JCAMP-DX=4.24
##DATA TYPE=MASS SPECTRUM
##ORIGIN=Philip Morris R&D
##OWNER=NIST Mass Spectrometry Data Center
Collection (C) 2014 copyright by the U.S. Secretary of Commerce
on behalf of the United States of America. All rights reserved.
##CAS REGISTRY NO=38818-55-2
##$NIST MASS SPEC NO=109824
##MOLFORM=C13 H18 O
##MW=190
##$NIST SOURCE=MSDC
##XUNITS=M/Z
##YUNITS=RELATIVE INTENSITY
##XFACTOR=1
##YFACTOR=1
##FIRSTX=36
##LASTX=192
##FIRSTY=73
##MAXX=192
##MINX=36
##MAXY=9999
##MINY=24
##NPOINTS=94
##PEAK TABLE=(XY..XY)
36,73 38,122 39,4184 40,1022
41,5231 42,268 43,1362 44,24
45,195 50,97 51,1387 52,779
53,2214 54,268 55,2238 56,24
57,97 58,195 59,49 61,24
63,511 64,754 65,2190 66,1022
67,1265 69,4063 70,146 71,24
72,97 73,49 74,24 75,24
76,122 77,3941 78,1435 79,3601
80,730 81,1241 82,243 83,1484
89,438 90,49 91,6277 92,1046
93,1995 94,924 95,924 96,414
103,608 104,24 105,4452 106,1873
107,3260 108,2190 109,779 110,414
115,1022 116,681 117,1387 118,389
119,5547 120,1095 121,1752 122,3698
123,462 127,122 128,341 129,633
130,195 131,1168 132,608 133,8442
134,1630 135,900 137,24 142,219
145,973 146,268 147,7542 148,9366
149,1070 150,24 157,1338 159,146
160,657 161,1265 162,268 173,97
175,8734 176,997 189,24 190,9999
191,1241 192,24
##END=
