##TITLE=Benzene, (2,2,2-trichloroethyl)-
##JCAMP-DX=4.24
##DATA TYPE=MASS SPECTRUM
##ORIGIN=D.HENNEBERG, MAX-PLANCK INSTITUTE, MULHEIM, WEST GERMANY
##OWNER=NIST Mass Spectrometry Data Center
Collection (C) 2014 copyright by the U.S. Secretary of Commerce
on behalf of the United States of America. All rights reserved.
##CAS REGISTRY NO=3883-13-4
##$NIST MASS SPEC NO=61632
##MOLFORM=C8 H7 Cl3
##MW=208
##$NIST SOURCE=MSDC
##XUNITS=M/Z
##YUNITS=RELATIVE INTENSITY
##XFACTOR=1
##YFACTOR=1
##FIRSTX=26
##LASTX=214
##FIRSTY=76
##MAXX=214
##MINX=26
##MAXY=9999
##MINY=1
##NPOINTS=121
##PEAK TABLE=(XY..XY)
26,76 27,95 28,54 29,24
31,4 34,1 35,53 36,418
37,18 38,130 39,288 40,23
41,81 42,8 43,14 44,11
45,4 47,7 49,25 50,213
51,958 52,150 53,27 54,4
55,19 56,16 57,56 58,5
59,7 60,11 61,38 62,30
63,183 64,38 65,564 66,30
67,10 69,27 70,6 71,8
73,58 74,59 75,260 76,209
77,800 78,137 79,15 81,26
82,11 83,15 84,11 85,27
86,16 87,26 88,9 89,124
90,55 91,9999 92,746 93,26
95,11 96,11 97,15 98,10
99,37 100,22 101,471 102,876
103,629 104,59 105,7 107,5
108,4 109,14 110,7 111,23
112,166 113,18 114,47 115,7
117,32 119,15 120,2 121,5
123,8 124,5 125,17 126,3
127,4 128,4 129,4 133,4
134,9 135,18 136,68 137,401
138,244 139,146 140,64 141,11
142,3 145,4 163,2 165,2
167,6 171,10 172,75 173,486
174,103 175,308 176,38 177,45
178,6 207,2 208,611 209,45
210,579 211,42 212,181 213,16
214,18
##END=
