##TITLE=1,3-Cyclopentanedione, 2,2-dimethyl-
##JCAMP-DX=4.24
##DATA TYPE=MASS SPECTRUM
##ORIGIN=M. VANDEWALLE
##OWNER=NIST Mass Spectrometry Data Center
Collection (C) 2014 copyright by the U.S. Secretary of Commerce
on behalf of the United States of America. All rights reserved.
##CAS REGISTRY NO=3883-58-7
##$NIST MASS SPEC NO=40725
##MOLFORM=C7 H10 O2
##MW=126
##$NIST SOURCE=MSDC
##XUNITS=M/Z
##YUNITS=RELATIVE INTENSITY
##XFACTOR=1
##YFACTOR=1
##FIRSTX=41
##LASTX=127
##FIRSTY=5100
##MAXX=127
##MINX=41
##MAXY=9999
##MINY=200
##NPOINTS=19
##PEAK TABLE=(XY..XY)
41,5100 42,9999 43,2100 53,400
55,2400 56,3100 67,400 68,300
69,1600 70,7800 71,1100 83,1600
84,800 97,400 98,300 111,200
125,200 126,7800 127,600
##END=
