##TITLE=cis-1-Butyl-2-methylcyclopropane
##JCAMP-DX=4.24
##DATA TYPE=MASS SPECTRUM
##ORIGIN=Y. INOUE, DEP. APPL. CHEM., HIMEJI INST. TECHNOL., HYOGO, JPN.
##OWNER=NIST Mass Spectrometry Data Center
Collection (C) 2014 copyright by the U.S. Secretary of Commerce
on behalf of the United States of America. All rights reserved.
##CAS REGISTRY NO=38851-69-3
##$NIST MASS SPEC NO=100812
##MOLFORM=C8 H16
##MW=112
##$NIST SOURCE=MSDC
##XUNITS=M/Z
##YUNITS=RELATIVE INTENSITY
##XFACTOR=1
##YFACTOR=1
##FIRSTX=41
##LASTX=113
##FIRSTY=5070
##MAXX=113
##MINX=41
##MAXY=9999
##MINY=320
##NPOINTS=18
##PEAK TABLE=(XY..XY)
41,5070 42,7260 43,1500 54,470
55,9999 56,7850 57,2530 67,340
68,640 69,3920 70,8860 71,950
82,920 83,3680 84,2220 97,500
112,3510 113,320
##END=
