##TITLE=4'-(2-Methylpropyl)acetophenone
##JCAMP-DX=4.24
##DATA TYPE=MASS SPECTRUM
##ORIGIN=Japan AIST/NIMC Database- Spectrum MS-IW-3667
##OWNER=NIST Mass Spectrometry Data Center
Collection (C) 2014 copyright by the U.S. Secretary of Commerce
on behalf of the United States of America. All rights reserved.
##CAS REGISTRY NO=38861-78-8
##$NIST MASS SPEC NO=229658
##MOLFORM=C12 H16 O
##MW=176
##$NIST SOURCE=MSDC
##XUNITS=M/Z
##YUNITS=RELATIVE INTENSITY
##XFACTOR=1
##YFACTOR=1
##FIRSTX=15
##LASTX=178
##FIRSTY=70
##MAXX=178
##MINX=15
##MAXY=9999
##MINY=10
##NPOINTS=88
##PEAK TABLE=(XY..XY)
15,70 18,40 26,10 27,379
28,40 29,90 37,10 38,40
39,479 40,60 41,659 42,50
43,4079 44,109 45,40 50,159
51,379 52,70 53,90 55,149
56,20 57,60 58,129 59,30
61,10 62,90 63,349 64,139
65,439 66,30 67,10 71,70
72,119 73,30 74,60 75,80
76,109 77,509 78,129 79,189
80,10 86,20 87,30 88,20
89,629 90,1129 91,2119 92,339
93,50 101,20 102,80 103,229
104,99 105,1399 106,119 107,20
113,10 114,10 115,419 116,129
117,149 118,629 119,1349 120,119
121,10 127,20 128,40 129,20
131,109 132,20 133,1699 134,2659
135,259 136,20 143,10 145,129
146,20 147,359 148,50 149,10
159,40 161,9999 162,1239 163,90
175,40 176,3399 177,459 178,30
##END=
