##TITLE=Acetamide, N-[2,4-bis(1,1-dimethylethyl)phenyl]-
##JCAMP-DX=4.24
##DATA TYPE=MASS SPECTRUM
##ORIGIN=A.RIEKER CHEMISCHES INSTUTE DER UNIV. TUBINGEN, F.R.G.
##OWNER=NIST Mass Spectrometry Data Center
Collection (C) 2014 copyright by the U.S. Secretary of Commerce
on behalf of the United States of America. All rights reserved.
##CAS REGISTRY NO=38896-23-0
##$NIST MASS SPEC NO=11964
##MOLFORM=C16 H25 N O
##MW=247
##$NIST SOURCE=MSDC
##XUNITS=M/Z
##YUNITS=RELATIVE INTENSITY
##XFACTOR=1
##YFACTOR=1
##FIRSTX=41
##LASTX=248
##FIRSTY=2600
##MAXX=248
##MINX=41
##MAXY=9999
##MINY=500
##NPOINTS=27
##PEAK TABLE=(XY..XY)
41,2600 43,2800 57,2900 77,700
91,1000 93,500 94,700 106,1000
115,800 117,800 118,700 132,800
133,700 134,1800 144,500 146,500
148,600 158,700 160,700 174,1700
190,9999 191,2800 192,500 232,8000
233,1500 247,3200 248,700
##END=
