##TITLE=Dodecane, 2,6,10-trimethyl-
##JCAMP-DX=4.24
##DATA TYPE=MASS SPECTRUM
##ORIGIN=D.HENNEBERG, MAX-PLANCK INSTITUTE, MULHEIM, WEST GERMANY
##OWNER=NIST Mass Spectrometry Data Center
Collection (C) 2014 copyright by the U.S. Secretary of Commerce
on behalf of the United States of America. All rights reserved.
##CAS REGISTRY NO=3891-98-3
##$NIST MASS SPEC NO=62132
##MOLFORM=C15 H32
##MW=212
##$NIST SOURCE=MSDC
##XUNITS=M/Z
##YUNITS=RELATIVE INTENSITY
##XFACTOR=1
##YFACTOR=1
##FIRSTX=26
##LASTX=206
##FIRSTY=72
##MAXX=206
##MINX=26
##MAXY=9999
##MINY=14
##NPOINTS=59
##PEAK TABLE=(XY..XY)
26,72 27,506 28,168 29,1946
30,63 32,133 35,23 37,37
38,20 39,425 41,3056 42,446
43,4878 44,40 45,23 47,14
49,23 51,17 52,23 53,118
54,81 55,1407 56,1445 57,9999
58,388 65,31 67,101 68,69
69,556 70,1199 71,7071 72,353
73,28 79,26 82,46 83,304
84,185 85,2158 86,130 96,66
97,315 98,104 99,425 111,46
112,344 113,674 114,57 126,208
127,504 128,34 140,28 141,75
154,28 155,92 182,31 183,147
184,26 197,23 206,14
##END=
