##TITLE=2-Methyl-5,6,7,8-tetrahydroquinoxaline
##JCAMP-DX=4.24
##DATA TYPE=MASS SPECTRUM
##ORIGIN=Philip Morris R&D
##OWNER=NIST Mass Spectrometry Data Center
Collection (C) 2014 copyright by the U.S. Secretary of Commerce
on behalf of the United States of America. All rights reserved.
##CAS REGISTRY NO=38917-65-6
##$NIST MASS SPEC NO=108592
##MOLFORM=C9 H12 N2
##MW=148
##$NIST SOURCE=MSDC
##XUNITS=M/Z
##YUNITS=RELATIVE INTENSITY
##XFACTOR=1
##YFACTOR=1
##FIRSTX=38
##LASTX=150
##FIRSTY=240
##MAXX=150
##MINX=38
##MAXY=9999
##MINY=21
##NPOINTS=78
##PEAK TABLE=(XY..XY)
38,240 39,2342 40,597 41,1041
42,513 43,174 44,524 46,38
49,57 50,251 51,633 52,2386
53,699 54,585 55,514 56,123
57,86 59,119 60,135 62,29
63,119 64,157 65,337 66,639
67,504 68,163 69,85 70,69
71,31 72,36 73,432 74,141
75,66 76,67 77,669 78,502
79,2527 80,1291 81,382 82,220
83,195 88,27 89,29 91,48
92,309 93,344 94,206 95,61
96,65 97,24 103,49 104,83
105,155 106,524 107,554 108,147
109,178 110,22 117,36 118,124
119,555 120,2081 121,984 122,136
125,30 126,21 130,56 131,153
132,389 133,1999 134,391 135,93
145,302 146,179 147,5721 148,9999
149,1007 150,50
##END=
