##TITLE=trans-2-[2'-(2''-Methyl-1''-propenyl)cyclopropyl]propan-2-ol
##JCAMP-DX=4.24
##DATA TYPE=MASS SPECTRUM
##ORIGIN=W.Epstein ET AL.J.Chem.Eng.Data,21,500(1976)
##OWNER=NIST Mass Spectrometry Data Center
Collection (C) 2014 copyright by the U.S. Secretary of Commerce
on behalf of the United States of America. All rights reserved.
##CAS REGISTRY NO=38996-80-4
##$NIST MASS SPEC NO=281699
##MOLFORM=C10 H18 O
##MW=154
##$NIST SOURCE=MSDC
##XUNITS=M/Z
##YUNITS=RELATIVE INTENSITY
##XFACTOR=1
##YFACTOR=1
##FIRSTX=41
##LASTX=154
##FIRSTY=3093
##MAXX=154
##MINX=41
##MAXY=9999
##MINY=40
##NPOINTS=54
##PEAK TABLE=(XY..XY)
41,3093 42,250 43,4724 45,110
50,40 51,270 52,80 53,911
54,380 55,1521 56,110 57,1031
58,1071 59,9999 60,290 63,40
65,400 66,150 67,3663 68,440
69,320 70,230 71,250 72,1641
73,270 77,721 78,110 79,1371
80,510 81,3873 82,3353 83,901
84,100 85,7627 86,400 91,781
92,290 93,1561 94,190 95,691
96,1661 97,110 98,150 105,320
106,360 107,150 109,60 111,60
119,40 121,801 122,60 136,380
137,150 154,400
##END=
