##TITLE=Methoxamine
##JCAMP-DX=4.24
##DATA TYPE=MASS SPECTRUM
##OWNER=NIST Mass Spectrometry Data Center
Collection (C) 2014 copyright by the U.S. Secretary of Commerce
on behalf of the United States of America. All rights reserved.
##CAS REGISTRY NO=390-28-3
##$NIST MASS SPEC NO=246208
##MOLFORM=C11 H17 N O3
##MW=211
##$NIST SOURCE=MSDC
##XUNITS=M/Z
##YUNITS=RELATIVE INTENSITY
##XFACTOR=1
##YFACTOR=1
##FIRSTX=37
##LASTX=212
##FIRSTY=10
##MAXX=212
##MINX=37
##MAXY=9999
##MINY=10
##NPOINTS=116
##PEAK TABLE=(XY..XY)
37,10 38,40 39,170 40,20
41,100 42,220 43,90 44,9999
45,340 50,90 51,230 52,160
53,410 54,110 55,230 56,30
57,30 59,20 61,20 62,70
63,340 64,210 65,440 66,130
67,120 68,40 69,130 70,10
71,10 73,20 74,60 75,100
76,130 77,680 78,210 79,350
80,170 81,480 82,90 83,10
88,10 89,40 90,50 91,210
92,420 93,210 94,220 95,350
96,120 97,20 98,20 102,10
103,50 104,50 105,140 106,300
107,510 108,620 109,920 110,240
111,30 116,10 117,20 118,70
119,90 120,260 121,200 122,100
123,400 124,1351 125,470 126,40
130,20 131,30 132,40 133,70
134,110 135,490 136,530 137,2772
138,380 139,1991 140,160 141,10
145,10 146,80 147,110 148,150
149,150 150,140 151,560 152,1070
153,420 154,30 160,20 161,110
162,150 163,110 164,60 165,180
166,450 167,1050 168,6866 169,640
170,60 176,20 177,40 178,80
179,80 180,20 192,30 193,40
194,10 209,10 211,570 212,70
##END=
