##TITLE=Butanoic acid, 1-methylhexyl ester
##JCAMP-DX=4.24
##DATA TYPE=MASS SPECTRUM
##ORIGIN=FOOD RESEARCH REPORT 118, K.E. MURRAY & COLLEAGUES, DIV. OF FOOD RESEARCH, CSIRO, AUSTRALIA
##OWNER=NIST Mass Spectrometry Data Center
Collection (C) 2014 copyright by the U.S. Secretary of Commerce
on behalf of the United States of America. All rights reserved.
##CAS REGISTRY NO=39026-94-3
##$NIST MASS SPEC NO=53384
##MOLFORM=C11 H22 O2
##MW=186
##$NIST SOURCE=MSDC
##XUNITS=M/Z
##YUNITS=RELATIVE INTENSITY
##XFACTOR=1
##YFACTOR=1
##FIRSTX=25
##LASTX=171
##FIRSTY=10
##MAXX=171
##MINX=25
##MAXY=9999
##MINY=10
##NPOINTS=73
##PEAK TABLE=(XY..XY)
25,10 26,110 27,1640 28,700
29,1380 30,40 31,50 32,10
37,30 38,60 39,1060 40,210
41,3080 42,1090 43,5030 44,1160
45,420 46,10 47,10 50,40
51,60 52,30 53,200 54,310
55,1760 56,2520 57,2830 58,290
59,40 60,540 61,10 62,10
63,10 64,10 65,30 66,10
67,130 68,160 69,1200 70,1090
71,9999 72,470 73,230 74,10
77,10 78,10 79,30 81,80
82,30 83,200 84,10 86,290
87,60 88,630 89,1180 90,50
91,10 95,10 96,10 97,60
98,1820 99,440 100,40 110,30
114,10 115,1640 116,130 117,10
119,10 130,80 142,80 143,30
171,50
##END=
