##TITLE=Trioxsalen
##JCAMP-DX=4.24
##DATA TYPE=MASS SPECTRUM
##ORIGIN=NIST Mass Spectrometry Data Center, 1998.
##OWNER=NIST Mass Spectrometry Data Center
Collection (C) 2014 copyright by the U.S. Secretary of Commerce
on behalf of the United States of America. All rights reserved.
##CAS REGISTRY NO=3902-71-4
##$NIST MASS SPEC NO=292190
##MOLFORM=C14 H12 O3
##MW=228
##$NIST SOURCE=MSDC
##XUNITS=M/Z
##YUNITS=RELATIVE INTENSITY
##XFACTOR=1
##YFACTOR=1
##FIRSTX=15
##LASTX=231
##FIRSTY=30
##MAXX=231
##MINX=15
##MAXY=9999
##MINY=10
##NPOINTS=128
##PEAK TABLE=(XY..XY)
15,30 26,30 27,230 28,20
29,40 37,10 38,70 39,590
40,60 41,60 42,20 43,800
44,20 49,10 50,260 51,660
52,170 53,220 54,30 55,120
56,10 57,130 59,10 61,40
62,230 63,780 64,390 65,430
66,70 67,60 69,60 70,90
71,130 72,180 73,30 74,210
75,260 76,270 77,670 78,260
79,90 80,10 82,10 83,130
84,220 85,290 86,140 87,210
88,90 89,290 90,70 91,330
92,150 93,70 98,80 99,670
100,450 101,130 102,290 103,240
104,60 105,50 106,20 110,20
111,10 113,80 114,250 115,1070
116,170 117,100 118,10 119,10
125,10 126,120 127,750 128,2210
129,740 130,90 131,130 132,40
133,10 139,120 140,30 141,380
142,110 143,140 144,80 145,250
146,70 147,10 151,20 152,80
153,70 154,20 155,110 156,60
157,590 158,90 159,20 161,20
168,20 169,150 170,60 171,630
172,320 173,50 174,10 181,10
182,10 183,130 184,50 185,1360
186,240 187,20 189,30 197,20
198,80 199,7109 200,6229 201,840
202,80 213,10 226,70 227,350
228,9999 229,1610 230,180 231,20
##END=
