##TITLE=Cholestan-3-ol, 4-methyl-, (3.beta.,4.alpha.,5.alpha.)-
##JCAMP-DX=4.24
##DATA TYPE=MASS SPECTRUM
##ORIGIN=T.IIDA NIHON UNIVERSITY, KORIYAMA, FUKUSHIMA-KEN, JAPAN
##OWNER=NIST Mass Spectrometry Data Center
Collection (C) 2014 copyright by the U.S. Secretary of Commerce
on behalf of the United States of America. All rights reserved.
##CAS REGISTRY NO=3903-57-9
##$NIST MASS SPEC NO=67281
##MOLFORM=C28 H50 O
##MW=402
##$NIST SOURCE=MSDC
##XUNITS=M/Z
##YUNITS=RELATIVE INTENSITY
##XFACTOR=1
##YFACTOR=1
##FIRSTX=26
##LASTX=404
##FIRSTY=400
##MAXX=404
##MINX=26
##MAXY=9999
##MINY=200
##NPOINTS=146
##PEAK TABLE=(XY..XY)
26,400 27,700 29,1900 39,700
41,5000 42,700 43,8400 44,500
53,1000 54,500 55,8400 56,1000
57,5900 58,400 65,500 67,4700
68,1700 69,5600 70,700 71,2600
72,300 77,1000 78,600 79,3700
80,1000 81,7800 82,2100 83,3300
84,600 85,800 91,2400 92,800
93,4900 94,1900 95,8600 96,1600
97,3000 105,3200 106,1500 107,5400
108,5100 109,5800 110,1200 111,1800
112,400 113,400 117,600 118,400
119,2300 120,2000 121,7400 122,5200
123,4500 124,1400 125,1900 126,400
131,800 132,500 133,2200 134,1600
135,4100 136,2500 137,1600 138,2400
139,1000 143,400 145,1000 146,400
147,2500 148,1100 149,3200 150,800
151,1000 152,800 153,400 159,200
160,600 161,3100 162,1900 163,2300
164,500 165,900 173,1000 174,900
175,1600 176,1000 177,1000 178,600
179,6000 180,2200 181,700 187,1000
188,600 189,900 190,600 191,600
192,700 193,500 197,400 201,800
202,500 203,600 204,1300 205,800
206,500 207,400 208,400 215,1700
216,600 217,500 218,300 219,500
220,600 229,9999 230,3500 231,2900
232,700 233,900 234,400 243,400
244,1100 245,900 246,600 247,7100
248,4300 249,1100 257,300 261,500
262,2600 263,900 264,300 271,700
275,700 276,600 287,300 289,800
355,600 369,2600 370,900 384,900
385,400 387,3000 388,1100 402,3400
403,1200 404,300
##END=
