##TITLE=1-Butanamine, N-(1-methylethyl)-
##JCAMP-DX=4.24
##DATA TYPE=MASS SPECTRUM
##ORIGIN=CARL DJERASSI DEPT OF CHEM STANFORD UNIV STANFORD CALIF 94305
##OWNER=NIST Mass Spectrometry Data Center
Collection (C) 2014 copyright by the U.S. Secretary of Commerce
on behalf of the United States of America. All rights reserved.
##CAS REGISTRY NO=39099-23-5
##$NIST MASS SPEC NO=46365
##MOLFORM=C7 H17 N
##MW=115
##$NIST SOURCE=MSDC
##XUNITS=M/Z
##YUNITS=RELATIVE INTENSITY
##XFACTOR=1
##YFACTOR=1
##FIRSTX=27
##LASTX=116
##FIRSTY=784
##MAXX=116
##MINX=27
##MAXY=9999
##MINY=98
##NPOINTS=33
##PEAK TABLE=(XY..XY)
27,784 28,9999 29,784 30,4117
31,98 32,882 39,392 40,294
41,1176 42,392 43,1274 44,2450
45,196 53,98 54,98 55,392
56,1372 57,1764 58,2254 59,98
69,98 70,490 71,196 72,9803
73,686 84,98 85,98 98,98
100,3529 101,294 114,196 115,392
116,98
##END=
