##TITLE=1H-Indene, 2,3-dihydro-1,1,3-trimethyl-3-phenyl-
##JCAMP-DX=4.24
##DATA TYPE=MASS SPECTRUM
##ORIGIN=CONTINENTAL OIL CO., PONCA CITY, OKLA., USA
##OWNER=NIST Mass Spectrometry Data Center
Collection (C) 2014 copyright by the U.S. Secretary of Commerce
on behalf of the United States of America. All rights reserved.
##CAS REGISTRY NO=3910-35-8
##$NIST MASS SPEC NO=39311
##MOLFORM=C18 H20
##MW=236
##$NIST SOURCE=MSDC
##XUNITS=M/Z
##YUNITS=RELATIVE INTENSITY
##XFACTOR=1
##YFACTOR=1
##FIRSTX=25
##LASTX=238
##FIRSTY=6
##MAXX=238
##MINX=25
##MAXY=9999
##MINY=2
##NPOINTS=164
##PEAK TABLE=(XY..XY)
25,6 26,39 27,491 28,488
29,219 30,18 37,18 38,46
39,588 40,82 41,353 42,33
43,185 44,10 49,14 50,169
51,596 52,126 53,125 54,15
55,73 56,23 57,46 58,19
61,16 62,63 63,273 64,84
65,277 66,33 67,28 68,4
69,34 70,26 71,32 72,6
73,13 74,69 75,145 76,288
77,728 78,235 79,167 80,29
81,48 82,84 83,96 84,4
85,22 86,41 87,77 88,189
89,593 90,75 91,1991 92,213
93,53 94,63 95,114 96,102
97,31 98,39 99,39 100,72
101,362 102,341 103,1110 104,84
105,773 106,80 107,28 108,26
109,23 110,27 111,63 112,12
113,53 114,50 115,780 116,159
117,256 118,69 119,47 120,4
123,14 125,31 126,108 127,466
128,1503 129,700 130,129 131,66
132,14 135,19 137,25 138,28
139,159 140,57 141,301 142,202
143,2440 144,350 145,45 149,19
150,51 151,100 152,210 153,67
154,19 155,19 156,2 157,34
158,23 159,363 160,51 161,12
162,16 163,89 164,61 165,495
166,109 167,48 168,15 174,17
175,36 176,139 177,117 178,549
179,364 180,70 181,21 187,39
188,55 189,363 190,175 191,709
192,413 193,145 194,28 195,16
200,49 201,67 202,311 203,273
204,170 205,294 206,285 207,153
208,88 209,5 213,27 214,2
215,50 216,28 217,26 218,23
219,80 220,109 221,9999 222,1874
223,175 236,1132 237,225 238,23
##END=
