##TITLE=Benzeneacetonitrile, 3,5-dimethyl-
##JCAMP-DX=4.24
##DATA TYPE=MASS SPECTRUM
##ORIGIN=NIST Mass Spectrometry Data Center, 1994
##OWNER=NIST Mass Spectrometry Data Center
Collection (C) 2014 copyright by the U.S. Secretary of Commerce
on behalf of the United States of America. All rights reserved.
##CAS REGISTRY NO=39101-54-7
##$NIST MASS SPEC NO=134942
##MOLFORM=C10 H11 N
##MW=145
##$NIST SOURCE=MSDC
##XUNITS=M/Z
##YUNITS=RELATIVE INTENSITY
##XFACTOR=1
##YFACTOR=1
##FIRSTX=14
##LASTX=147
##FIRSTY=51
##MAXX=147
##MINX=14
##MAXY=9999
##MINY=28
##NPOINTS=72
##PEAK TABLE=(XY..XY)
14,51 15,298 26,235 27,1323
28,408 29,74 37,188 38,534
39,2676 40,488 41,634 42,48
50,1164 51,2155 52,850 53,576
54,62 58,326 61,198 62,570
63,1545 64,538 65,1203 66,149
67,34 71,233 73,89 74,467
75,547 76,697 77,2762 78,1036
79,1088 80,80 85,53 86,138
87,202 88,163 89,788 90,318
91,1330 92,129 98,74 99,67
100,67 101,228 102,792 103,3105
104,67 105,9999 106,841 107,38
113,61 115,1556 116,710 117,1494
118,4407 119,624 120,40 127,96
128,249 130,7559 131,763 132,43
140,80 141,37 142,134 143,204
144,1246 145,6620 146,709 147,28
##END=
