##TITLE=2-Decenoic acid
##JCAMP-DX=4.24
##DATA TYPE=MASS SPECTRUM
##ORIGIN=Japan AIST/NIMC Database- Spectrum MS-NW-3974
##OWNER=NIST Mass Spectrometry Data Center
Collection (C) 2014 copyright by the U.S. Secretary of Commerce
on behalf of the United States of America. All rights reserved.
##CAS REGISTRY NO=3913-85-7
##$NIST MASS SPEC NO=232367
##MOLFORM=C10 H18 O2
##MW=170
##$NIST SOURCE=MSDC
##XUNITS=M/Z
##YUNITS=RELATIVE INTENSITY
##XFACTOR=1
##YFACTOR=1
##FIRSTX=14
##LASTX=171
##FIRSTY=20
##MAXX=171
##MINX=14
##MAXY=9999
##MINY=10
##NPOINTS=111
##PEAK TABLE=(XY..XY)
14,20 15,80 17,30 18,119
26,139 27,2429 28,259 29,3559
30,80 31,139 32,40 37,20
38,99 39,2149 40,459 41,5779
42,1879 43,9999 44,349 45,459
47,10 50,70 51,199 52,109
53,939 54,1129 55,4399 56,4839
57,1859 58,239 59,139 60,589
61,90 62,10 63,40 65,149
66,159 67,1219 68,1809 69,3489
70,2419 71,589 72,70 73,6589
74,329 75,30 77,119 78,50
79,279 80,129 81,1729 82,819
83,979 84,2049 85,489 86,2539
87,929 88,139 89,10 91,50
92,30 93,70 94,139 95,859
96,849 97,649 98,1819 99,2079
100,789 101,579 102,199 103,20
105,40 106,20 107,20 108,519
109,429 110,1999 111,589 112,50
113,629 114,669 115,179 116,30
117,10 119,50 121,20 122,10
123,809 124,279 125,30 126,10
127,409 128,99 129,50 130,10
133,10 134,129 135,10 137,80
139,10 141,99 142,10 150,10
151,30 152,449 153,149 154,30
155,10 170,30 171,40
##END=
