##TITLE=1-Amino-2,6-dimethylpiperidine
##JCAMP-DX=4.24
##DATA TYPE=MASS SPECTRUM
##ORIGIN=Japan AIST/NIMC Database- Spectrum MS-NW-5767
##OWNER=NIST Mass Spectrometry Data Center
Collection (C) 2014 copyright by the U.S. Secretary of Commerce
on behalf of the United States of America. All rights reserved.
##CAS REGISTRY NO=39135-39-2
##$NIST MASS SPEC NO=234711
##MOLFORM=C7 H16 N2
##MW=128
##$NIST SOURCE=MSDC
##XUNITS=M/Z
##YUNITS=RELATIVE INTENSITY
##XFACTOR=1
##YFACTOR=1
##FIRSTX=14
##LASTX=130
##FIRSTY=10
##MAXX=130
##MINX=14
##MAXY=9999
##MINY=10
##NPOINTS=81
##PEAK TABLE=(XY..XY)
14,10 15,229 16,50 26,70
27,709 28,179 29,519 30,449
31,109 32,20 33,30 37,10
38,40 39,659 40,159 41,1659
42,1299 43,739 44,449 45,189
46,10 50,30 51,60 52,30
53,179 54,219 55,1139 56,449
57,1939 58,2449 59,639 60,20
62,10 63,20 64,10 65,60
66,70 67,139 68,409 69,619
70,579 71,329 72,119 73,20
77,30 78,10 79,80 80,50
81,189 82,129 83,419 84,129
85,159 86,30 87,50 91,20
92,40 93,20 94,60 95,40
96,219 97,90 98,279 99,109
100,10 106,50 107,149 108,30
109,20 110,70 111,249 112,149
113,9999 114,809 115,30 125,10
126,90 127,269 128,2109 129,189
130,10
##END=
