##TITLE=Furan, tetrahydro-2,4-dimethyl-, trans-
##JCAMP-DX=4.24
##DATA TYPE=MASS SPECTRUM
##ORIGIN=SHELL RESEARCH LIMITED THORNTON RESEARCH CENTRE
##OWNER=NIST Mass Spectrometry Data Center
Collection (C) 2014 copyright by the U.S. Secretary of Commerce
on behalf of the United States of America. All rights reserved.
##CAS REGISTRY NO=39168-02-0
##$NIST MASS SPEC NO=1088
##MOLFORM=C6 H12 O
##MW=100
##$NIST SOURCE=MSDC
##XUNITS=M/Z
##YUNITS=RELATIVE INTENSITY
##XFACTOR=1
##YFACTOR=1
##FIRSTX=26
##LASTX=100
##FIRSTY=196
##MAXX=100
##MINX=26
##MAXY=9999
##MINY=128
##NPOINTS=27
##PEAK TABLE=(XY..XY)
26,196 27,1071 28,710 29,1475
31,196 38,150 39,2571 40,414
41,7142 42,3071 43,3964 44,746
53,389 54,235 55,7000 56,7107
57,2857 58,339 59,128 67,664
69,160 70,2535 71,135 85,9999
86,414 99,321 100,1082
##END=
