##TITLE=Furan, tetrahydro-2,4-dimethyl-, cis-
##JCAMP-DX=4.24
##DATA TYPE=MASS SPECTRUM
##ORIGIN=SHELL RESEARCH LIMITED THORNTON RESEARCH CENTRE
##OWNER=NIST Mass Spectrometry Data Center
Collection (C) 2014 copyright by the U.S. Secretary of Commerce
on behalf of the United States of America. All rights reserved.
##CAS REGISTRY NO=39168-01-9
##$NIST MASS SPEC NO=1089
##MOLFORM=C6 H12 O
##MW=100
##$NIST SOURCE=MSDC
##XUNITS=M/Z
##YUNITS=RELATIVE INTENSITY
##XFACTOR=1
##YFACTOR=1
##FIRSTX=26
##LASTX=100
##FIRSTY=401
##MAXX=100
##MINX=26
##MAXY=9999
##MINY=401
##NPOINTS=21
##PEAK TABLE=(XY..XY)
26,401 27,1035 28,625 29,1401
39,1482 40,526 41,8035 42,2053
43,2991 45,723 53,491 55,7589
56,7142 57,1660 58,491 67,758
70,1580 85,9999 86,437 99,517
100,1330
##END=
