##TITLE=Thiofanox
##JCAMP-DX=4.24
##DATA TYPE=MASS SPECTRUM
##ORIGIN=Richard Turcotte. Direction des laboratoires d'expertises et d'analyses alimentaires, Quebec, Canada.
##OWNER=NIST Mass Spectrometry Data Center
Collection (C) 2014 copyright by the U.S. Secretary of Commerce
on behalf of the United States of America. All rights reserved.
##CAS REGISTRY NO=39196-18-4
##$NIST MASS SPEC NO=366554
##MOLFORM=C9 H18 N2 O2 S
##MW=218
##$NIST SOURCE=MSDC
##XUNITS=M/Z
##YUNITS=RELATIVE INTENSITY
##XFACTOR=1
##YFACTOR=1
##FIRSTX=40
##LASTX=548
##FIRSTY=691
##MAXX=548
##MINX=40
##MAXY=9999
##MINY=10
##NPOINTS=244
##PEAK TABLE=(XY..XY)
40,691 41,8237 42,3413 43,3713
44,290 45,1762 46,1061 47,1471
48,480 49,200 50,190 51,340
52,220 53,831 54,360 55,8818
56,1301 57,8267 58,1301 59,500
60,360 61,8378 62,1892 63,561
64,190 65,380 66,270 67,1101
68,1151 69,410 70,280 71,210
72,540 73,2022 74,260 75,70
76,40 77,100 78,180 79,290
80,220 81,390 82,701 83,5515
84,2793 85,270 86,200 87,1501
88,971 89,601 90,70 91,20
92,10 93,20 94,110 95,40
96,611 97,300 98,761 99,1892
100,1531 101,160 102,30 103,60
104,110 105,30 106,10 107,10
108,10 109,10 110,40 111,40
112,80 113,240 114,250 115,9999
116,701 117,110 118,10 119,10
120,10 121,10 122,10 123,10
125,10 126,10 127,30 128,60
129,50 130,951 131,100 132,70
133,10 134,10 135,10 136,10
137,10 138,10 139,10 140,10
141,10 142,10 143,50 144,831
145,1241 146,250 147,90 148,10
149,10 150,10 151,10 152,10
153,10 155,10 156,10 157,10
158,10 159,10 160,10 161,6426
162,601 163,350 164,20 165,10
168,10 169,10 170,10 171,10
172,10 173,10 175,10 177,10
178,10 179,10 182,10 183,10
184,10 185,10 186,10 187,10
188,10 189,10 190,10 193,10
194,10 195,10 197,10 199,10
200,10 201,10 202,10 203,10
205,10 206,10 207,10 208,10
211,10 215,10 216,10 217,10
218,10 219,10 220,10 224,10
225,10 226,10 228,10 230,10
233,10 235,10 246,10 247,10
251,10 252,10 253,10 259,10
260,10 262,10 263,10 265,10
266,10 268,10 269,40 270,10
272,10 273,10 274,10 276,10
277,10 279,10 281,10 283,10
284,10 291,10 292,10 294,10
295,10 303,10 306,10 313,10
314,10 316,10 322,10 324,10
327,10 329,10 332,10 340,10
342,10 343,10 346,10 352,10
354,10 355,10 365,10 368,10
369,10 381,10 385,10 394,10
396,10 397,10 399,10 400,10
405,10 412,10 413,10 420,10
437,10 438,10 447,10 452,10
456,10 460,10 461,10 468,10
482,10 488,10 506,10 510,10
529,10 537,10 545,10 548,10
##END=
