##TITLE=N-sec-Butyl-n-propylamine
##JCAMP-DX=4.24
##DATA TYPE=MASS SPECTRUM
##ORIGIN=Japan AIST/NIMC Database- Spectrum MS-NW-4687
##OWNER=NIST Mass Spectrometry Data Center
Collection (C) 2014 copyright by the U.S. Secretary of Commerce
on behalf of the United States of America. All rights reserved.
##CAS REGISTRY NO=39190-67-5
##$NIST MASS SPEC NO=229940
##MOLFORM=C7 H17 N
##MW=115
##$NIST SOURCE=MSDC
##XUNITS=M/Z
##YUNITS=RELATIVE INTENSITY
##XFACTOR=1
##YFACTOR=1
##FIRSTX=15
##LASTX=116
##FIRSTY=129
##MAXX=116
##MINX=15
##MAXY=9999
##MINY=10
##NPOINTS=47
##PEAK TABLE=(XY..XY)
15,129 26,70 27,769 28,519
29,849 30,3899 31,60 37,10
38,30 39,379 40,70 41,1349
42,549 43,1049 44,4849 45,139
50,10 51,20 52,20 53,50
54,80 55,259 56,509 57,679
58,1579 59,60 60,10 67,10
68,40 69,10 70,219 71,30
72,239 73,10 82,20 84,199
85,30 86,9999 87,589 88,20
98,40 100,1269 101,90 113,20
114,169 115,109 116,10
##END=
