##TITLE=Benzene, 1-bromo-2-(trifluoromethyl)-
##JCAMP-DX=4.24
##DATA TYPE=MASS SPECTRUM
##ORIGIN=Japan AIST/NIMC Database- Spectrum MS-NW-3156
##OWNER=NIST Mass Spectrometry Data Center
Collection (C) 2014 copyright by the U.S. Secretary of Commerce
on behalf of the United States of America. All rights reserved.
##CAS REGISTRY NO=392-83-6
##$NIST MASS SPEC NO=231357
##MOLFORM=C7 H4 Br F3
##MW=224
##$NIST SOURCE=MSDC
##XUNITS=M/Z
##YUNITS=RELATIVE INTENSITY
##XFACTOR=1
##YFACTOR=1
##FIRSTX=20
##LASTX=228
##FIRSTY=10
##MAXX=228
##MINX=20
##MAXY=9999
##MINY=10
##NPOINTS=106
##PEAK TABLE=(XY..XY)
20,10 26,40 27,80 28,20
31,169 36,20 37,219 38,269
39,189 40,10 43,10 44,20
47,10 48,10 49,149 50,1219
51,349 52,20 53,20 55,10
56,50 57,229 58,10 60,20
61,99 62,199 63,269 68,129
69,599 70,30 72,139 73,169
74,859 75,1829 76,629 77,60
79,90 80,70 81,109 82,20
85,30 86,20 87,60 88,40
92,40 93,119 94,269 95,1549
96,109 98,10 99,379 100,90
101,30 102,139 103,159 104,30
105,20 106,30 107,90 108,10
112,70 113,60 114,90 116,10
117,20 118,60 119,199 120,10
123,60 124,30 125,1089 126,579
127,40 128,20 129,30 130,20
131,20 135,10 137,10 141,60
142,20 143,169 144,349 145,9999
146,779 147,20 153,10 155,80
156,10 157,70 161,80 174,279
175,20 176,269 177,20 204,10
205,1009 206,90 207,979 208,80
223,80 224,9499 225,799 226,9259
227,699 228,30
##END=
