##TITLE=Dibenzo[b,e][1,4]dioxin, 1,2,4-trichloro-
##JCAMP-DX=4.24
##DATA TYPE=MASS SPECTRUM
##ORIGIN=CHEM. RES. LAB., WRIGHT-PATTERSON AIR FORCE BASE, OHIO, USA
##OWNER=NIST Mass Spectrometry Data Center
Collection (C) 2014 copyright by the U.S. Secretary of Commerce
on behalf of the United States of America. All rights reserved.
##CAS REGISTRY NO=39227-58-2
##$NIST MASS SPEC NO=68949
##MOLFORM=C12 H5 Cl3 O2
##MW=286
##$NIST SOURCE=MSDC
##XUNITS=M/Z
##YUNITS=RELATIVE INTENSITY
##XFACTOR=1
##YFACTOR=1
##FIRSTX=26
##LASTX=290
##FIRSTY=155
##MAXX=290
##MINX=26
##MAXY=9999
##MINY=102
##NPOINTS=70
##PEAK TABLE=(XY..XY)
26,155 37,144 38,262 39,141
49,119 50,1010 51,494 52,683
53,254 61,203 62,181 63,471
64,322 73,102 74,412 75,485
76,511 77,181 79,186 80,415
81,135 84,246 87,181 92,107
96,169 97,316 98,251 99,169
108,497 109,167 110,135 119,262
121,192 123,147 125,381 126,178
131,183 133,209 143,1482 144,1284
145,443 147,195 149,124 159,186
160,1561 161,192 162,632 194,231
195,771 196,215 197,502 204,147
207,175 208,119 216,217 223,2080
225,1493 226,164 227,215 230,164
232,195 251,316 253,246 254,181
257,147 286,9999 287,1691 288,9396
289,1414 290,2947
##END=
