##TITLE=Benzenemethanol, .alpha.-ethynyl-.alpha.-phenyl-
##JCAMP-DX=4.24
##DATA TYPE=MASS SPECTRUM
##ORIGIN=NIST Mass Spectrometry Data Center
##OWNER=NIST Mass Spectrometry Data Center
Collection (C) 2014 copyright by the U.S. Secretary of Commerce
on behalf of the United States of America. All rights reserved.
##CAS REGISTRY NO=3923-52-2
##$NIST MASS SPEC NO=341240
##MOLFORM=C15 H12 O
##MW=208
##$NIST SOURCE=MSDC
##XUNITS=M/Z
##YUNITS=RELATIVE INTENSITY
##XFACTOR=1
##YFACTOR=1
##FIRSTX=25
##LASTX=210
##FIRSTY=10
##MAXX=210
##MINX=25
##MAXY=9999
##MINY=10
##NPOINTS=123
##PEAK TABLE=(XY..XY)
25,10 26,70 27,170 29,10
37,30 38,110 39,591 41,10
49,40 50,1181 51,3433 52,591
53,9519 54,320 55,50 61,90
62,450 63,951 64,160 65,150
66,20 67,10 68,10 69,140
73,50 74,741 75,801 76,1261
77,6746 78,3994 79,270 80,10
81,270 82,380 84,10 85,80
86,320 87,460 88,460 89,741
91,210 94,691 97,10 98,210
99,120 100,70 101,280 102,3203
103,2602 104,430 105,3934 106,300
107,20 109,30 110,120 111,120
112,30 113,490 114,420 115,500
116,50 121,10 122,40 123,20
124,10 125,50 126,290 127,190
128,170 129,561 130,6566 131,9999
132,911 133,60 134,20 135,10
137,130 138,80 139,480 140,70
141,30 149,30 150,320 151,571
152,1301 153,550 154,310 155,1111
156,130 161,70 162,190 163,771
164,450 165,3563 166,520 167,50
168,20 174,40 175,70 176,681
177,500 178,4394 179,5355 180,1241
181,470 182,841 183,130 184,10
185,20 186,60 187,721 188,611
189,3773 190,1351 191,1661 192,330
193,350 194,50 205,70 207,6946
208,9058 209,1411 210,120
##END=
