##TITLE=3-(3-Furyl)acrylic acid
##JCAMP-DX=4.24
##DATA TYPE=MASS SPECTRUM
##ORIGIN=NIST Mass Spectrometry Data Center
##OWNER=NIST Mass Spectrometry Data Center
Collection (C) 2014 copyright by the U.S. Secretary of Commerce
on behalf of the United States of America. All rights reserved.
##CAS REGISTRY NO=39244-10-5
##$NIST MASS SPEC NO=342958
##MOLFORM=C7 H6 O3
##MW=138
##$NIST SOURCE=MSDC
##XUNITS=M/Z
##YUNITS=RELATIVE INTENSITY
##XFACTOR=1
##YFACTOR=1
##FIRSTX=10
##LASTX=139
##FIRSTY=10
##MAXX=139
##MINX=10
##MAXY=9999
##MINY=10
##NPOINTS=56
##PEAK TABLE=(XY..XY)
10,10 11,150 12,200 17,100
19,100 24,10 25,90 26,751
27,400 29,2722 30,50 31,260
36,50 37,1692 38,3253 39,9398
40,761 41,300 42,90 43,40
44,530 45,2262 46,120 47,40
49,260 50,1081 51,771 53,3063
54,2202 55,1141 60,20 61,1131
62,2142 63,4184 64,1621 65,4874
66,771 68,210 69,220 79,10
81,5215 82,5285 83,70 84,10
92,1251 93,3223 94,370 95,851
96,2162 97,10 109,1261 110,4554
111,70 121,1902 138,9999 139,871
##END=
