##TITLE=2-Furancarboxylic acid, hexyl ester
##JCAMP-DX=4.24
##DATA TYPE=MASS SPECTRUM
##ORIGIN=Chuck Anderson, Aldrich Chemical Co.
##OWNER=NIST Mass Spectrometry Data Center
Collection (C) 2014 copyright by the U.S. Secretary of Commerce
on behalf of the United States of America. All rights reserved.
##CAS REGISTRY NO=39251-86-0
##$NIST MASS SPEC NO=118086
##MOLFORM=C11 H16 O3
##MW=196
##$NIST SOURCE=MSDC
##XUNITS=M/Z
##YUNITS=RELATIVE INTENSITY
##XFACTOR=1
##YFACTOR=1
##FIRSTX=15
##LASTX=197
##FIRSTY=16
##MAXX=197
##MINX=15
##MAXY=9999
##MINY=2
##NPOINTS=57
##PEAK TABLE=(XY..XY)
15,16 18,2 26,40 27,464
28,110 29,567 30,5 31,17
37,63 38,240 39,1513 40,141
41,1255 42,733 43,1089 44,71
45,16 51,68 53,147 54,91
55,1330 56,1651 57,153 65,33
66,104 67,475 68,345 69,1037
70,61 71,5 77,5 79,20
81,47 82,37 83,174 84,860
85,54 94,34 95,9999 96,647
97,140 110,101 112,6054 113,8714
114,481 115,59 123,50 125,16
139,6 150,13 151,5 153,36
167,5 178,29 179,12 196,596
197,71
##END=
