##TITLE=3-(3,4-Dimethoxyphenyl)-1-propanol
##JCAMP-DX=4.24
##DATA TYPE=MASS SPECTRUM
##ORIGIN=Japan AIST/NIMC Database- Spectrum MS-IW-2385
##OWNER=NIST Mass Spectrometry Data Center
Collection (C) 2014 copyright by the U.S. Secretary of Commerce
on behalf of the United States of America. All rights reserved.
##CAS REGISTRY NO=3929-47-3
##$NIST MASS SPEC NO=238908
##MOLFORM=C11 H16 O3
##MW=196
##$NIST SOURCE=MSDC
##XUNITS=M/Z
##YUNITS=RELATIVE INTENSITY
##XFACTOR=1
##YFACTOR=1
##FIRSTX=5
##LASTX=198
##FIRSTY=0
##MAXX=198
##MINX=5
##MAXY=9999
##MINY=0
##NPOINTS=115
##PEAK TABLE=(XY..XY)
5,0 15,60 17,10 18,40
26,10 27,109 28,60 29,80
30,10 31,189 38,30 39,299
40,40 41,199 42,20 43,80
44,20 45,109 50,99 51,329
52,149 53,159 54,20 55,169
57,70 58,10 59,30 61,10
62,40 63,149 64,70 65,419
66,109 67,60 68,10 69,20
71,10 74,20 75,30 76,50
77,699 78,409 79,489 80,109
81,60 82,10 89,149 90,209
91,829 92,149 93,99 94,90
95,90 96,10 97,10 102,30
103,359 104,80 105,429 106,419
107,999 108,369 109,229 110,30
111,10 115,90 116,30 117,60
118,109 119,169 120,139 121,1129
122,199 123,99 124,40 125,20
131,60 132,40 133,90 134,129
135,449 136,149 137,999 138,269
139,209 140,30 145,10 146,20
147,259 148,50 149,149 150,149
151,9999 152,4099 153,419 154,40
161,10 162,10 163,569 164,229
165,539 166,80 167,40 168,10
177,20 178,279 179,50 180,30
181,60 182,30 194,30 195,10
196,5519 197,669 198,70
##END=
