##TITLE=Benzene, 2-chloro-1,3-dinitro-5-(trifluoromethyl)-
##JCAMP-DX=4.24
##DATA TYPE=MASS SPECTRUM
##ORIGIN=RADIAN CORP
##OWNER=NIST Mass Spectrometry Data Center
Collection (C) 2014 copyright by the U.S. Secretary of Commerce
on behalf of the United States of America. All rights reserved.
##CAS REGISTRY NO=393-75-9
##$NIST MASS SPEC NO=70263
##MOLFORM=C7 H2 Cl F3 N2 O4
##MW=270
##$NIST SOURCE=MSDC
##XUNITS=M/Z
##YUNITS=RELATIVE INTENSITY
##XFACTOR=1
##YFACTOR=1
##FIRSTX=30
##LASTX=274
##FIRSTY=8740
##MAXX=274
##MINX=30
##MAXY=9999
##MINY=10
##NPOINTS=132
##PEAK TABLE=(XY..XY)
30,8740 35,50 36,10 37,250
38,110 46,1910 47,70 48,10
50,220 51,50 53,80 56,100
57,110 60,110 61,630 62,590
63,390 64,60 65,130 67,70
68,80 69,2400 70,20 71,70
72,630 73,950 74,3970 75,2230
76,160 79,70 80,120 81,750
82,100 84,1170 85,380 86,510
87,480 88,330 89,50 90,110
91,600 92,610 93,1350 94,110
95,90 96,200 97,1860 98,280
99,1120 100,140 102,70 103,200
104,320 105,130 106,100 107,100
108,430 109,1430 110,260 111,520
112,110 113,60 114,20 115,180
116,70 117,190 118,110 119,410
120,30 121,20 122,110 123,1920
124,240 125,60 127,60 128,210
129,30 130,180 131,2350 132,200
133,130 135,50 141,190 142,70
143,9999 144,880 145,60 146,150
147,460 148,90 152,20 153,20
154,360 156,110 157,80 158,30
159,2850 160,330 161,350 162,50
166,1570 167,110 168,510 169,10
175,590 176,50 177,220 178,2950
179,280 180,970 181,90 182,80
184,50 189,900 190,70 192,20
194,140 196,50 205,290 207,90
240,200 242,60 251,1780 252,160
253,590 254,260 256,70 270,8810
271,750 272,2960 273,260 274,20
##END=
