##TITLE=Cyclobutaphosphane, tetrakis(trifluoromethyl)-
##JCAMP-DX=4.24
##DATA TYPE=MASS SPECTRUM
##ORIGIN=A.Pleshkova, Nesmeyanov Inst.Org.Elem.Cpds, Moscow
##OWNER=NIST Mass Spectrometry Data Center
Collection (C) 2014 copyright by the U.S. Secretary of Commerce
on behalf of the United States of America. All rights reserved.
##CAS REGISTRY NO=393-02-2
##$NIST MASS SPEC NO=284333
##MOLFORM=C4 F12 P4
##MW=400
##$NIST SOURCE=MSDC
##XUNITS=M/Z
##YUNITS=RELATIVE INTENSITY
##XFACTOR=1
##YFACTOR=1
##FIRSTX=31
##LASTX=402
##FIRSTY=500
##MAXX=402
##MINX=31
##MAXY=9999
##MINY=10
##NPOINTS=39
##PEAK TABLE=(XY..XY)
31,500 32,10 50,410 51,10
55,180 62,1311 63,20 69,9999
70,110 74,270 81,450 82,10
93,5365 94,30 100,410 105,530
106,10 112,360 119,1581 120,20
124,1531 125,10 131,2392 132,40
143,4954 144,70 181,1762 182,20
193,1531 194,40 231,1491 232,30
281,1672 282,40 331,1852 332,60
400,6396 401,290 402,10
##END=
