##TITLE=Sotalol
##JCAMP-DX=4.24
##DATA TYPE=MASS SPECTRUM
##ORIGIN=AAFS Toxicology Section MS DB Committee, U. Alberta, Canada
##OWNER=NIST Mass Spectrometry Data Center
Collection (C) 2014 copyright by the U.S. Secretary of Commerce
on behalf of the United States of America. All rights reserved.
##CAS REGISTRY NO=3930-20-9
##$NIST MASS SPEC NO=246587
##MOLFORM=C12 H20 N2 O3 S
##MW=272
##$NIST SOURCE=MSDC
##XUNITS=M/Z
##YUNITS=RELATIVE INTENSITY
##XFACTOR=1
##YFACTOR=1
##FIRSTX=6
##LASTX=274
##FIRSTY=0
##MAXX=274
##MINX=6
##MAXY=9999
##MINY=0
##NPOINTS=126
##PEAK TABLE=(XY..XY)
6,0 30,2422 31,50 37,10
38,30 39,240 40,60 41,480
42,170 43,800 44,70 45,20
46,10 48,20 49,10 50,30
51,90 52,80 53,50 54,50
55,50 56,260 57,150 58,80
59,10 60,10 61,10 62,20
63,120 64,140 65,460 66,370
67,50 68,30 69,30 70,520
71,280 72,9999 73,510 74,20
75,10 76,30 77,350 78,250
79,320 80,40 81,30 82,10
83,10 84,10 85,10 86,10
87,10 88,10 89,70 90,60
91,190 92,350 93,170 94,330
95,30 96,10 102,10 103,10
104,120 105,280 106,870 107,90
108,20 109,10 113,10 115,10
116,60 117,50 118,170 119,70
120,270 121,350 122,520 123,40
124,10 128,10 130,10 131,160
132,160 133,200 134,50 135,10
138,20 145,40 146,10 159,50
160,40 161,10 173,40 174,30
175,310 176,40 177,10 184,160
185,200 186,20 187,10 197,20
198,60 199,80 200,170 201,20
202,10 211,10 212,10 213,20
214,10 239,110 240,10 241,10
242,10 252,10 253,90 254,120
255,30 256,20 257,10 272,110
273,10 274,10
##END=
