##TITLE=1,1'-Biphenyl, 4-phenoxy-
##JCAMP-DX=4.24
##DATA TYPE=MASS SPECTRUM
##ORIGIN=Japan AIST/NIMC Database- Spectrum MS-NW-3109
##OWNER=NIST Mass Spectrometry Data Center
Collection (C) 2014 copyright by the U.S. Secretary of Commerce
on behalf of the United States of America. All rights reserved.
##CAS REGISTRY NO=3933-94-6
##$NIST MASS SPEC NO=233279
##MOLFORM=C18 H14 O
##MW=246
##$NIST SOURCE=MSDC
##XUNITS=M/Z
##YUNITS=RELATIVE INTENSITY
##XFACTOR=1
##YFACTOR=1
##FIRSTX=26
##LASTX=249
##FIRSTY=20
##MAXX=249
##MINX=26
##MAXY=9999
##MINY=10
##NPOINTS=121
##PEAK TABLE=(XY..XY)
26,20 27,119 28,40 37,20
38,90 39,589 40,30 41,20
49,10 50,349 51,1289 52,109
53,20 55,40 57,10 61,30
62,159 63,529 64,99 65,279
66,30 73,10 74,199 75,269
76,219 77,1289 78,109 85,10
86,70 87,129 88,99 89,259
90,30 91,119 92,10 94,30
95,10 98,40 99,50 100,30
101,90 102,219 103,70 105,30
107,10 109,10 110,10 111,20
113,119 114,109 115,1839 116,219
117,10 122,10 123,80 125,30
126,199 127,239 128,50 131,20
137,10 138,20 139,569 140,179
141,2109 142,259 143,20 144,40
149,10 150,129 151,409 152,1499
153,419 154,50 155,10 163,20
164,10 165,90 166,10 167,10
168,80 169,1159 170,469 171,50
176,30 177,10 178,60 179,10
187,10 188,20 189,119 190,40
191,129 192,40 193,10 200,10
201,30 202,559 203,379 204,70
205,30 213,40 214,20 215,359
216,179 217,879 218,459 219,70
220,10 226,40 227,80 228,30
229,30 231,20 243,10 244,40
245,209 246,9999 247,1919 248,189
249,10
##END=
