##TITLE=1,9-Nonanediol
##JCAMP-DX=4.24
##DATA TYPE=MASS SPECTRUM
##ORIGIN=Japan AIST/NIMC Database- Spectrum MS-NW-6724
##OWNER=NIST Mass Spectrometry Data Center
Collection (C) 2014 copyright by the U.S. Secretary of Commerce
on behalf of the United States of America. All rights reserved.
##CAS REGISTRY NO=3937-56-2
##$NIST MASS SPEC NO=235490
##MOLFORM=C9 H20 O2
##MW=160
##$NIST SOURCE=MSDC
##XUNITS=M/Z
##YUNITS=RELATIVE INTENSITY
##XFACTOR=1
##YFACTOR=1
##FIRSTX=14
##LASTX=159
##FIRSTY=20
##MAXX=159
##MINX=14
##MAXY=9999
##MINY=10
##NPOINTS=84
##PEAK TABLE=(XY..XY)
14,20 15,249 16,10 17,30
18,109 26,169 27,3029 28,919
29,3569 30,129 31,7799 32,99
33,30 37,20 38,80 39,2549
40,559 41,9999 42,3179 43,3349
44,959 45,869 46,30 49,40
50,60 51,159 52,80 53,949
54,4099 55,8509 56,2469 57,2079
58,299 59,179 60,20 61,50
62,10 63,30 65,129 66,639
67,6049 68,5969 69,3249 70,1239
71,819 72,209 73,329 74,40
77,70 78,20 79,259 80,149
81,4029 82,5329 83,1679 84,749
85,759 86,149 87,40 91,20
93,60 94,119 95,2319 96,2839
97,369 98,109 99,399 100,50
101,10 109,219 110,30 111,20
112,369 113,80 114,70 115,10
123,90 124,229 125,20 126,10
130,20 141,20 142,10 159,10
##END=
