##TITLE=Propanoic acid, 2,2-dimethyl-, ethyl ester
##JCAMP-DX=4.24
##DATA TYPE=MASS SPECTRUM
##ORIGIN=Japan AIST/NIMC Database- Spectrum MS-IW- 867
##OWNER=NIST Mass Spectrometry Data Center
Collection (C) 2014 copyright by the U.S. Secretary of Commerce
on behalf of the United States of America. All rights reserved.
##CAS REGISTRY NO=3938-95-2
##$NIST MASS SPEC NO=239509
##MOLFORM=C7 H14 O2
##MW=130
##$NIST SOURCE=MSDC
##XUNITS=M/Z
##YUNITS=RELATIVE INTENSITY
##XFACTOR=1
##YFACTOR=1
##FIRSTX=15
##LASTX=132
##FIRSTY=50
##MAXX=132
##MINX=15
##MAXY=9999
##MINY=10
##NPOINTS=47
##PEAK TABLE=(XY..XY)
15,50 18,10 19,10 26,30
27,289 28,119 29,1799 30,50
31,30 38,10 39,239 40,60
41,2119 42,159 43,149 44,10
45,149 47,119 53,20 54,10
55,159 56,2969 57,9999 58,519
59,519 60,20 69,99 70,40
71,40 73,40 75,899 76,30
83,10 85,1169 86,80 87,539
88,99 99,10 100,10 101,20
102,10 103,40 115,189 116,20
130,739 131,159 132,10
##END=
