##TITLE=Benzoic acid, 4-hydroxy-3-methoxy-, methyl ester
##JCAMP-DX=4.24
##DATA TYPE=MASS SPECTRUM
##ORIGIN=Japan AIST/NIMC Database- Spectrum MS-NW-9697
##OWNER=NIST Mass Spectrometry Data Center
Collection (C) 2014 copyright by the U.S. Secretary of Commerce
on behalf of the United States of America. All rights reserved.
##CAS REGISTRY NO=3943-74-6
##$NIST MASS SPEC NO=239332
##MOLFORM=C9 H10 O4
##MW=182
##$NIST SOURCE=MSDC
##XUNITS=M/Z
##YUNITS=RELATIVE INTENSITY
##XFACTOR=1
##YFACTOR=1
##FIRSTX=14
##LASTX=184
##FIRSTY=10
##MAXX=184
##MINX=14
##MAXY=9999
##MINY=10
##NPOINTS=81
##PEAK TABLE=(XY..XY)
14,10 15,219 26,30 27,30
28,70 29,80 30,10 31,70
37,30 38,60 39,149 40,20
41,139 42,10 43,30 45,10
49,20 50,159 51,389 52,509
53,239 54,30 55,189 59,99
61,30 62,90 63,169 64,70
65,359 66,50 67,189 68,30
69,50 74,20 75,30 76,10
77,279 78,30 79,249 80,249
81,70 82,10 85,60 91,149
92,109 93,209 94,50 95,80
96,30 106,10 107,90 108,509
109,109 110,20 111,249 112,10
119,40 120,80 121,99 122,90
123,1709 124,149 125,40 135,40
136,229 137,149 138,20 139,269
140,20 149,90 150,20 151,9999
152,959 153,109 166,10 167,539
168,50 181,149 182,7379 183,829
184,99
##END=
