##TITLE=1,1'-Biphenyl, 2,2',4,4',6-Pentachloro-
##JCAMP-DX=4.24
##DATA TYPE=MASS SPECTRUM
##ORIGIN=N. Todua, WGM, MMES
##OWNER=NIST Mass Spectrometry Data Center
Collection (C) 2014 copyright by the U.S. Secretary of Commerce
on behalf of the United States of America. All rights reserved.
##CAS REGISTRY NO=39485-83-1
##$NIST MASS SPEC NO=334733
##MOLFORM=C12 H5 Cl5
##MW=324
##$NIST SOURCE=MSDC
##XUNITS=M/Z
##YUNITS=RELATIVE INTENSITY
##XFACTOR=1
##YFACTOR=1
##FIRSTX=41
##LASTX=333
##FIRSTY=200
##MAXX=333
##MINX=41
##MAXY=9999
##MINY=63
##NPOINTS=117
##PEAK TABLE=(XY..XY)
41,200 44,327 45,200 47,200
48,200 49,200 50,263 51,200
57,200 60,200 61,327 62,263
63,200 67,200 72,200 73,327
74,390 75,263 79,200 80,200
81,200 85,263 86,327 87,263
88,200 91,200 92,390 93,200
96,200 97,263 98,464 99,263
107,200 108,263 109,653 110,527
111,263 112,63 114,200 115,200
116,200 120,263 121,200 122,327
123,263 127,853 128,790 129,263
130,200 132,263 133,263 134,200
135,200 144,263 145,327 146,327
147,263 148,263 149,263 150,200
156,200 157,200 158,200 159,200
160,200 162,263 163,327 164,327
169,200 171,200 182,200 183,390
184,990 185,390 186,464 194,200
195,200 196,200 197,200 204,200
205,200 206,200 207,200 217,200
218,390 219,527 220,327 221,327
222,200 223,200 228,200 230,200
254,3551 255,464 256,3161 257,590
258,1180 259,263 260,200 288,200
289,1707 290,390 291,1907 292,390
293,917 294,200 295,263 324,6122
325,917 326,9999 327,1317 328,6712
329,917 330,2170 331,327 332,390
333,200
##END=
