##TITLE=3-Acetylcoumarin
##JCAMP-DX=4.24
##DATA TYPE=MASS SPECTRUM
##ORIGIN=NIST Mass Spectrometry Data Center, 1990.
##OWNER=NIST Mass Spectrometry Data Center
Collection (C) 2014 copyright by the U.S. Secretary of Commerce
on behalf of the United States of America. All rights reserved.
##CAS REGISTRY NO=3949-36-8
##$NIST MASS SPEC NO=118402
##MOLFORM=C11 H8 O3
##MW=188
##$NIST SOURCE=MSDC
##XUNITS=M/Z
##YUNITS=RELATIVE INTENSITY
##XFACTOR=1
##YFACTOR=1
##FIRSTX=13
##LASTX=190
##FIRSTY=16
##MAXX=190
##MINX=13
##MAXY=9999
##MINY=7
##NPOINTS=88
##PEAK TABLE=(XY..XY)
13,16 14,77 15,367 16,11
17,15 18,11 25,13 26,62
27,106 28,53 29,42 32,7
37,149 38,280 39,931 40,76
41,39 42,7 43,2868 44,113
49,94 50,457 51,619 52,78
53,256 54,19 55,33 57,18
58,45 60,28 61,288 62,878
63,1876 64,259 65,70 66,31
67,17 68,16 69,10 72,77
73,68 74,290 75,481 76,141
77,304 78,45 79,17 84,16
85,92 86,205 87,214 88,245
89,2537 90,729 91,69 92,39
98,32 99,22 101,1518 102,185
103,73 104,22 105,18 113,16
114,15 115,107 116,64 117,133
118,1286 119,122 120,27 121,10
129,34 131,203 132,89 142,8
143,16 145,1219 146,338 147,40
159,22 160,38 173,9999 174,1046
175,114 188,4284 189,494 190,54
##END=
