##TITLE=Isoxsuprine
##JCAMP-DX=4.24
##DATA TYPE=MASS SPECTRUM
##ORIGIN=Patti Price, Georgia Bureau of Investigation, Decatur, Georgia
##OWNER=NIST Mass Spectrometry Data Center
Collection (C) 2014 copyright by the U.S. Secretary of Commerce
on behalf of the United States of America. All rights reserved.
##CAS REGISTRY NO=395-28-8
##$NIST MASS SPEC NO=248017
##MOLFORM=C18 H23 N O3
##MW=301
##$NIST SOURCE=MSDC
##XUNITS=M/Z
##YUNITS=RELATIVE INTENSITY
##XFACTOR=1
##YFACTOR=1
##FIRSTX=41
##LASTX=283
##FIRSTY=520
##MAXX=283
##MINX=41
##MAXY=9999
##MINY=10
##NPOINTS=67
##PEAK TABLE=(XY..XY)
41,520 42,470 43,220 44,1211
45,30 50,40 51,170 53,20
54,20 55,40 56,260 57,40
58,20 63,40 64,10 65,240
66,100 67,50 68,30 70,210
71,110 76,10 77,730 78,80
79,150 82,10 84,540 85,60
91,100 92,10 93,80 94,120
95,330 96,10 103,20 105,100
106,10 107,960 108,90 115,30
119,20 120,10 121,150 122,30
123,240 124,10 131,20 133,140
134,60 135,960 136,110 146,10
147,60 148,100 149,20 150,30
160,10 174,20 176,340 177,40
178,9999 179,1191 180,80 190,10
194,50 282,10 283,10
##END=
