##TITLE=n-Amyl-n-butyl amine
##JCAMP-DX=4.24
##DATA TYPE=MASS SPECTRUM
##ORIGIN=NIST Mass Spectrometry Data Center, 1990.
##OWNER=NIST Mass Spectrometry Data Center
Collection (C) 2014 copyright by the U.S. Secretary of Commerce
on behalf of the United States of America. All rights reserved.
##CAS REGISTRY NO=39536-61-3
##$NIST MASS SPEC NO=118259
##MOLFORM=C9 H21 N
##MW=143
##$NIST SOURCE=MSDC
##XUNITS=M/Z
##YUNITS=RELATIVE INTENSITY
##XFACTOR=1
##YFACTOR=1
##FIRSTX=14
##LASTX=144
##FIRSTY=50
##MAXX=144
##MINX=14
##MAXY=9999
##MINY=21
##NPOINTS=43
##PEAK TABLE=(XY..XY)
14,50 15,84 17,35 18,151
26,80 27,950 28,1024 29,1652
30,2960 31,96 32,21 39,465
40,199 41,1851 42,754 43,2217
44,9999 45,259 53,103 54,110
55,343 56,648 57,727 58,109
67,67 68,97 69,119 70,382
71,143 72,122 73,46 84,429
86,3633 87,273 98,332 100,2236
101,167 112,82 114,43 126,51
142,119 143,527 144,70
##END=
