##TITLE=2-Ethylbutyl acrylate
##JCAMP-DX=4.24
##DATA TYPE=MASS SPECTRUM
##ORIGIN=NIST Mass Spectrometry Data Center, 1994
##OWNER=NIST Mass Spectrometry Data Center
Collection (C) 2014 copyright by the U.S. Secretary of Commerce
on behalf of the United States of America. All rights reserved.
##CAS REGISTRY NO=3953-10-4
##$NIST MASS SPEC NO=133568
##MOLFORM=C9 H16 O2
##MW=156
##$NIST SOURCE=MSDC
##XUNITS=M/Z
##YUNITS=RELATIVE INTENSITY
##XFACTOR=1
##YFACTOR=1
##FIRSTX=4
##LASTX=127
##FIRSTY=39
##MAXX=127
##MINX=4
##MAXY=9999
##MINY=11
##NPOINTS=52
##PEAK TABLE=(XY..XY)
4,39 14,12 15,82 26,427
27,3014 28,489 29,1377 30,53
31,176 32,14 37,14 39,801
40,166 41,1841 42,1002 43,2683
44,145 45,71 50,33 51,61
53,285 55,9999 56,2092 57,89
58,310 59,120 65,25 67,83
69,2933 70,521 71,341 72,25
73,575 74,26 79,30 81,40
82,52 84,4712 85,1173 86,267
87,103 93,20 95,16 96,99
97,181 98,169 99,11 101,21
109,24 110,27 111,16 127,67
##END=
