##TITLE=Neopentylidenecyclohexane
##JCAMP-DX=4.24
##DATA TYPE=MASS SPECTRUM
##ORIGIN=NIST Mass Spectrometry Data Center, 1990.
##OWNER=NIST Mass Spectrometry Data Center
Collection (C) 2014 copyright by the U.S. Secretary of Commerce
on behalf of the United States of America. All rights reserved.
##CAS REGISTRY NO=39546-80-0
##$NIST MASS SPEC NO=113576
##MOLFORM=C11 H20
##MW=152
##$NIST SOURCE=MSDC
##XUNITS=M/Z
##YUNITS=RELATIVE INTENSITY
##XFACTOR=1
##YFACTOR=1
##FIRSTX=15
##LASTX=153
##FIRSTY=204
##MAXX=153
##MINX=15
##MAXY=9999
##MINY=83
##NPOINTS=51
##PEAK TABLE=(XY..XY)
15,204 27,1472 28,797 29,1529
39,2350 40,521 41,5079 42,562
43,737 50,155 51,580 52,326
53,1489 54,408 55,3134 56,339
57,1310 63,181 64,83 65,763
66,83 67,4111 68,83 69,9999
70,2214 71,288 77,1421 78,330
79,1602 80,83 81,6625 82,944
83,554 91,987 92,235 93,889
94,235 95,3862 96,1368 97,199
105,143 107,244 108,569 109,4850
110,717 121,124 123,320 137,4545
138,503 152,2670 153,334
##END=
