##TITLE=2,4-Dichlorophenoxyacetonitrile
##JCAMP-DX=4.24
##DATA TYPE=MASS SPECTRUM
##ORIGIN=NIST Mass Spectrometry Data Center
##OWNER=NIST Mass Spectrometry Data Center
Collection (C) 2014 copyright by the U.S. Secretary of Commerce
on behalf of the United States of America. All rights reserved.
##CAS REGISTRY NO=3956-63-6
##$NIST MASS SPEC NO=342948
##MOLFORM=C8 H5 Cl2 N O
##MW=201
##$NIST SOURCE=MSDC
##XUNITS=M/Z
##YUNITS=RELATIVE INTENSITY
##XFACTOR=1
##YFACTOR=1
##FIRSTX=12
##LASTX=205
##FIRSTY=100
##MAXX=205
##MINX=12
##MAXY=9999
##MINY=30
##NPOINTS=80
##PEAK TABLE=(XY..XY)
12,100 13,120 14,30 18,30
25,100 26,230 28,310 29,260
30,60 31,70 35,180 36,200
37,741 38,781 39,400 40,1661
41,130 44,50 47,210 48,190
49,571 50,611 51,190 53,250
54,70 55,40 60,280 61,1021
62,1561 63,2742 64,170 66,30
71,150 72,611 73,1952 74,1081
75,1261 76,130 83,611 84,220
85,571 86,120 87,110 89,50
95,30 96,160 97,771 98,360
99,300 100,270 102,160 103,50
107,500 108,110 109,831 110,160
111,300 112,80 113,30 126,140
128,50 133,5775 135,3653 136,340
137,601 138,100 145,200 147,140
161,9999 163,6516 164,410 165,1001
166,100 173,60 175,40 201,3974
202,380 203,2522 204,220 205,410
##END=
