##TITLE=2-Acetyl-5-nitrothiophene
##JCAMP-DX=4.24
##DATA TYPE=MASS SPECTRUM
##ORIGIN=NIST Mass Spectrometry Data Center, 1994
##OWNER=NIST Mass Spectrometry Data Center
Collection (C) 2014 copyright by the U.S. Secretary of Commerce
on behalf of the United States of America. All rights reserved.
##CAS REGISTRY NO=39565-00-9
##$NIST MASS SPEC NO=136549
##MOLFORM=C6 H5 N O3 S
##MW=171
##$NIST SOURCE=MSDC
##XUNITS=M/Z
##YUNITS=RELATIVE INTENSITY
##XFACTOR=1
##YFACTOR=1
##FIRSTX=12
##LASTX=173
##FIRSTY=58
##MAXX=173
##MINX=12
##MAXY=9999
##MINY=39
##NPOINTS=72
##PEAK TABLE=(XY..XY)
12,58 13,67 14,127 15,1075
16,39 17,56 18,69 25,51
26,92 27,56 30,1690 36,64
37,591 38,1372 39,946 40,72
41,51 42,455 43,8430 44,349
45,984 46,213 47,68 48,44
49,183 50,388 51,284 52,282
53,876 54,77 55,126 56,88
57,819 58,166 61,107 62,128
63,130 64,63 65,42 68,175
69,1185 70,1101 71,243 72,94
80,222 81,1134 82,1962 83,237
84,874 85,124 86,79 93,143
94,78 95,133 96,614 97,78
98,2105 99,136 100,114 110,3402
111,227 112,490 113,91 126,89
140,55 141,66 156,9999 157,652
158,516 171,5206 172,373 173,263
##END=
