##TITLE=2-Nitrobenzyl bromide
##JCAMP-DX=4.24
##DATA TYPE=MASS SPECTRUM
##ORIGIN=NIST Mass Spectrometry Data Center, 1990.
##OWNER=NIST Mass Spectrometry Data Center
Collection (C) 2014 copyright by the U.S. Secretary of Commerce
on behalf of the United States of America. All rights reserved.
##CAS REGISTRY NO=3958-60-9
##$NIST MASS SPEC NO=118915
##MOLFORM=C7 H6 Br N O2
##MW=215
##$NIST SOURCE=MSDC
##XUNITS=M/Z
##YUNITS=RELATIVE INTENSITY
##XFACTOR=1
##YFACTOR=1
##FIRSTX=13
##LASTX=217
##FIRSTY=13
##MAXX=217
##MINX=13
##MAXY=9999
##MINY=12
##NPOINTS=93
##PEAK TABLE=(XY..XY)
13,13 15,21 16,26 18,12
25,35 26,224 27,412 28,557
29,408 30,1545 31,28 32,65
37,431 38,986 39,2122 40,357
41,116 42,35 43,138 44,62
45,68 46,172 48,38 49,264
50,1674 51,2784 52,1018 53,478
54,78 55,30 59,26 60,119
61,608 62,1835 63,4441 64,1788
65,4405 66,354 67,23 68,33
69,18 73,84 74,381 75,405
76,685 77,2707 78,9999 79,1008
80,1119 81,331 82,40 84,60
85,215 86,391 87,304 88,40
89,6625 90,4113 91,1012 92,6525
93,544 94,32 95,36 102,18
103,27 105,1637 106,623 108,2824
109,202 117,75 118,229 119,447
120,72 121,43 136,5097 137,455
138,28 141,25 143,81 144,14
145,88 155,19 156,27 157,24
158,29 168,20 169,201 170,42
171,187 172,34 173,27 215,59
217,58
##END=
