##TITLE=Benzene, 1-(bromomethyl)-3-nitro-
##JCAMP-DX=4.24
##DATA TYPE=MASS SPECTRUM
##ORIGIN=Japan AIST/NIMC Database- Spectrum MS-IW- 608
##OWNER=NIST Mass Spectrometry Data Center
Collection (C) 2014 copyright by the U.S. Secretary of Commerce
on behalf of the United States of America. All rights reserved.
##CAS REGISTRY NO=3958-57-4
##$NIST MASS SPEC NO=239135
##MOLFORM=C7 H6 Br N O2
##MW=215
##$NIST SOURCE=MSDC
##XUNITS=M/Z
##YUNITS=RELATIVE INTENSITY
##XFACTOR=1
##YFACTOR=1
##FIRSTX=27
##LASTX=218
##FIRSTY=10
##MAXX=218
##MINX=27
##MAXY=9999
##MINY=10
##NPOINTS=53
##PEAK TABLE=(XY..XY)
27,10 28,60 30,30 37,20
38,60 39,179 40,40 43,10
44,10 45,10 49,10 50,80
51,139 52,30 61,30 62,119
63,359 64,139 65,10 74,10
75,20 76,10 77,50 78,159
79,10 80,20 81,10 82,20
85,10 86,20 87,20 88,10
89,1039 90,2839 91,229 92,10
105,40 106,20 120,40 136,9999
137,819 138,70 143,10 168,10
169,109 170,20 171,109 199,10
201,10 215,329 216,30 217,329
218,20
##END=
