##TITLE=Thiophene, tetrabromo-
##JCAMP-DX=4.24
##DATA TYPE=MASS SPECTRUM
##ORIGIN=Japan AIST/NIMC Database- Spectrum MS-NW-7379
##OWNER=NIST Mass Spectrometry Data Center
Collection (C) 2014 copyright by the U.S. Secretary of Commerce
on behalf of the United States of America. All rights reserved.
##CAS REGISTRY NO=3958-03-0
##$NIST MASS SPEC NO=236175
##MOLFORM=C4 Br4 S
##MW=396
##$NIST SOURCE=MSDC
##XUNITS=M/Z
##YUNITS=RELATIVE INTENSITY
##XFACTOR=1
##YFACTOR=1
##FIRSTX=12
##LASTX=406
##FIRSTY=20
##MAXX=406
##MINX=12
##MAXY=9999
##MINY=10
##NPOINTS=134
##PEAK TABLE=(XY..XY)
12,20 17,30 18,139 24,20
32,139 36,529 37,60 41,10
44,719 45,20 46,30 48,139
49,10 55,20 56,179 68,309
69,30 70,20 71,10 73,10
76,10 79,519 80,2599 81,519
82,139 83,10 91,299 93,319
97,10 98,10 103,70 105,80
111,40 113,30 115,699 116,30
117,689 118,30 119,519 120,959
121,539 122,30 123,349 125,359
126,10 127,169 128,10 129,169
130,10 135,229 137,219 139,10
147,129 149,169 150,10 152,10
158,40 159,2179 160,259 161,2269
162,219 163,99 164,10 170,10
172,20 174,10 182,40 184,80
186,40 194,149 195,10 196,279
197,30 198,239 199,439 200,589
201,399 202,119 206,50 208,99
209,10 210,50 214,10 216,20
218,10 231,10 233,10 238,1839
239,139 240,3529 241,279 242,1839
243,149 244,80 255,10 256,10
257,10 258,10 259,10 273,80
275,209 276,10 277,179 278,10
279,60 310,20 312,20 314,10
317,979 318,139 319,2909 320,389
321,2899 322,399 323,1059 324,139
325,60 352,10 354,50 356,50
358,30 360,10 395,10 396,1759
397,90 398,6699 399,379 400,9999
401,519 402,6609 403,329 404,1789
405,99 406,80
##END=
