##TITLE=2-Ethoxyphenethylamine
##JCAMP-DX=4.24
##DATA TYPE=MASS SPECTRUM
##ORIGIN=NIST Mass Spectrometry Data Center, 1994
##OWNER=NIST Mass Spectrometry Data Center
Collection (C) 2014 copyright by the U.S. Secretary of Commerce
on behalf of the United States of America. All rights reserved.
##CAS REGISTRY NO=39590-27-7
##$NIST MASS SPEC NO=134685
##MOLFORM=C10 H15 N O
##MW=165
##$NIST SOURCE=MSDC
##XUNITS=M/Z
##YUNITS=RELATIVE INTENSITY
##XFACTOR=1
##YFACTOR=1
##FIRSTX=14
##LASTX=166
##FIRSTY=31
##MAXX=166
##MINX=14
##MAXY=9999
##MINY=12
##NPOINTS=72
##PEAK TABLE=(XY..XY)
14,31 15,41 16,13 17,17
18,33 26,99 27,572 28,594
29,13 30,9999 31,151 32,27
38,84 39,536 40,60 41,108
42,102 43,143 44,44 45,21
50,179 51,507 52,316 53,270
54,46 55,60 58,22 61,12
62,73 63,260 64,105 65,381
66,69 67,28 68,16 74,37
75,41 77,1602 78,662 79,775
80,245 81,35 87,13 89,286
90,251 91,1314 92,164 93,47
94,39 103,38 104,33 105,60
106,33 107,1517 108,2666 109,187
110,15 115,30 116,16 117,73
118,105 119,123 120,81 121,51
133,50 134,33 135,445 136,4124
137,395 138,24 165,315 166,35
##END=
