##TITLE=6-(p-Tolyl)-2-methyl-2-heptenol, trans-
##JCAMP-DX=4.24
##DATA TYPE=MASS SPECTRUM
##ORIGIN=Mark Whitten, Florida Museum of Natural History, U. of Florida
##OWNER=NIST Mass Spectrometry Data Center
Collection (C) 2014 copyright by the U.S. Secretary of Commerce
on behalf of the United States of America. All rights reserved.
##CAS REGISTRY NO=39599-18-3
##$NIST MASS SPEC NO=141052
##MOLFORM=C15 H22 O
##MW=218
##$NIST SOURCE=MSDC
##XUNITS=M/Z
##YUNITS=RELATIVE INTENSITY
##XFACTOR=1
##YFACTOR=1
##FIRSTX=41
##LASTX=219
##FIRSTY=2785
##MAXX=219
##MINX=41
##MAXY=9999
##MINY=42
##NPOINTS=108
##PEAK TABLE=(XY..XY)
41,2785 43,2949 44,137 45,152
50,91 51,429 52,169 53,857
54,100 55,1155 56,189 57,472
58,82 63,230 64,94 65,878
66,166 67,640 68,288 69,406
70,142 71,359 72,42 75,58
77,1702 78,475 79,1482 80,224
81,515 82,94 83,268 84,281
85,62 89,172 91,3545 92,748
93,2342 94,1127 95,479 96,77
97,227 98,116 99,229 101,42
102,149 103,629 104,400 105,3621
106,511 107,673 108,233 109,158
110,70 111,119 115,990 116,293
117,1711 118,673 119,9999 120,1850
121,1815 122,525 123,122 126,110
127,84 128,261 129,325 130,140
131,1305 132,6175 133,1088 134,759
135,701 136,81 137,44 140,85
141,102 142,91 143,554 144,204
145,1555 146,323 147,186 148,53
149,51 152,64 153,71 156,154
157,692 158,603 159,472 160,119
161,175 162,67 163,61 171,154
172,76 173,90 185,294 186,50
187,252 189,91 200,941 201,172
202,215 203,84 218,597 219,102
##END=
