##TITLE=Benzoic acid, 3-chloro-4-nitro-
##JCAMP-DX=4.24
##DATA TYPE=MASS SPECTRUM
##ORIGIN=ASES Database, Dalian Institute, P.R. China
##OWNER=NIST Mass Spectrometry Data Center
Collection (C) 2014 copyright by the U.S. Secretary of Commerce
on behalf of the United States of America. All rights reserved.
##CAS REGISTRY NO=39608-47-4
##$NIST MASS SPEC NO=147559
##MOLFORM=C7 H4 Cl N O4
##MW=201
##$NIST SOURCE=MSDC
##XUNITS=M/Z
##YUNITS=RELATIVE INTENSITY
##XFACTOR=1
##YFACTOR=1
##FIRSTX=44
##LASTX=204
##FIRSTY=400
##MAXX=204
##MINX=44
##MAXY=9999
##MINY=290
##NPOINTS=44
##PEAK TABLE=(XY..XY)
44,400 45,790 49,390 50,2372
51,1171 53,790 61,390 62,610
63,2682 64,490 73,3272 74,3012
75,5254 76,1010 84,580 85,390
87,410 91,300 99,7396 100,490
101,2422 109,300 110,1181 111,1281
112,500 113,390 115,1311 117,400
126,390 127,6065 128,510 129,1891
143,1080 145,490 155,790 157,1191
159,290 171,2772 173,890 185,290
201,9999 202,900 203,3192 204,290
##END=
