##TITLE=.beta.-Naphthoylhydrazine
##JCAMP-DX=4.24
##DATA TYPE=MASS SPECTRUM
##ORIGIN=NIST Mass Spectrometry Data Center, 1994
##OWNER=NIST Mass Spectrometry Data Center
Collection (C) 2014 copyright by the U.S. Secretary of Commerce
on behalf of the United States of America. All rights reserved.
##CAS REGISTRY NO=39627-84-4
##$NIST MASS SPEC NO=134908
##MOLFORM=C11 H10 N2 O
##MW=186
##$NIST SOURCE=MSDC
##XUNITS=M/Z
##YUNITS=RELATIVE INTENSITY
##XFACTOR=1
##YFACTOR=1
##FIRSTX=4
##LASTX=187
##FIRSTY=2
##MAXX=187
##MINX=4
##MAXY=9999
##MINY=2
##NPOINTS=50
##PEAK TABLE=(XY..XY)
4,2 16,45 27,61 28,70
29,178 30,93 31,396 32,11
38,70 39,157 44,60 50,401
51,605 52,94 61,65 62,248
63,630 65,35 74,604 75,762
76,433 77,1300 78,139 85,41
86,140 87,226 88,63 89,53
98,171 99,143 100,194 101,662
102,126 114,42 115,59 122,40
126,1694 127,9595 128,1102 129,55
135,51 137,36 140,47 153,108
155,9999 156,1170 157,120 171,173
186,1985 187,273
##END=
