##TITLE=3-Chloro-4-hydroxybenzoic acid
##JCAMP-DX=4.24
##DATA TYPE=MASS SPECTRUM
##ORIGIN=NIST Mass Spectrometry Data Center, 1992
##OWNER=NIST Mass Spectrometry Data Center
Collection (C) 2014 copyright by the U.S. Secretary of Commerce
on behalf of the United States of America. All rights reserved.
##CAS REGISTRY NO=3964-58-7
##$NIST MASS SPEC NO=125234
##MOLFORM=C7 H5 Cl O3
##MW=172
##$NIST SOURCE=MSDC
##XUNITS=M/Z
##YUNITS=RELATIVE INTENSITY
##XFACTOR=1
##YFACTOR=1
##FIRSTX=12
##LASTX=176
##FIRSTY=21
##MAXX=176
##MINX=12
##MAXY=9999
##MINY=18
##NPOINTS=99
##PEAK TABLE=(XY..XY)
12,21 16,26 17,38 18,93
24,18 25,49 26,87 28,122
29,160 31,133 32,99 35,51
36,119 37,462 38,390 39,429
40,33 41,57 42,40 43,37
44,73 45,421 47,56 48,73
49,269 50,315 51,348 52,174
53,700 54,84 55,122 60,137
61,588 62,992 63,1808 64,438
65,186 66,94 69,72 71,53
72,394 73,757 74,244 75,277
76,50 78,115 79,91 80,111
81,137 82,23 83,19 84,48
85,37 86,45 87,132 88,21
89,80 90,86 91,616 92,190
93,26 95,23 96,63 97,107
98,19 99,1433 100,118 101,422
102,47 105,29 107,36 108,33
109,51 114,21 115,176 117,66
118,35 119,185 120,26 126,242
127,1700 128,194 129,544 130,59
136,91 137,38 143,41 144,97
146,53 155,9999 156,922 157,3099
158,232 159,31 172,5929 173,563
174,1969 175,183 176,20
##END=
