##TITLE=Azatadine
##JCAMP-DX=4.24
##DATA TYPE=MASS SPECTRUM
##ORIGIN=Patti Price, Georgia Bureau of Investigation, Decatur, Georgia
##OWNER=NIST Mass Spectrometry Data Center
Collection (C) 2014 copyright by the U.S. Secretary of Commerce
on behalf of the United States of America. All rights reserved.
##CAS REGISTRY NO=3964-81-6
##$NIST MASS SPEC NO=248317
##MOLFORM=C20 H22 N2
##MW=290
##$NIST SOURCE=MSDC
##XUNITS=M/Z
##YUNITS=RELATIVE INTENSITY
##XFACTOR=1
##YFACTOR=1
##FIRSTX=42
##LASTX=292
##FIRSTY=800
##MAXX=292
##MINX=42
##MAXY=9999
##MINY=10
##NPOINTS=194
##PEAK TABLE=(XY..XY)
42,800 43,170 44,750 50,20
51,110 52,60 53,60 54,40
56,30 57,190 58,1231 59,50
62,10 63,120 64,30 65,140
66,30 67,50 68,50 70,3933
71,250 72,30 74,20 75,80
76,70 77,140 78,110 79,60
80,100 81,60 82,120 83,130
86,10 87,40 88,120 89,140
90,70 91,100 92,70 93,120
94,860 96,3112 97,540 98,70
99,30 100,100 101,150 102,410
104,70 105,20 106,60 107,150
108,790 109,230 112,10 113,80
114,340 115,660 117,130 118,70
119,20 120,190 121,160 122,230
125,20 126,80 127,200 128,230
129,90 130,140 131,40 133,20
134,20 135,70 136,110 137,110
138,20 139,180 140,100 141,110
142,100 143,100 144,420 145,240
147,10 149,10 150,90 151,190
152,390 153,120 154,130 155,50
156,40 160,10 163,190 164,170
165,390 166,200 167,250 168,70
169,10 170,10 174,30 175,40
176,250 178,250 179,250 180,490
181,130 182,90 184,20 186,10
187,50 188,70 189,440 190,330
191,440 192,450 193,350 194,620
195,280 196,90 197,10 198,10
199,10 200,40 201,90 202,370
203,390 204,1030 205,370 206,230
207,70 208,60 210,20 213,60
214,110 215,230 216,1271 217,2011
218,1711 219,690 220,720 221,140
222,20 223,10 224,10 227,60
228,470 229,480 230,1791 231,1711
232,7576 233,2262 234,1040 235,180
236,10 239,10 240,50 241,140
242,290 243,420 244,1411 245,840
246,9999 247,6756 248,1171 249,120
250,10 251,10 252,10 254,20
255,20 256,90 257,60 258,630
259,460 260,510 261,260 262,70
269,10 271,10 272,30 273,40
274,60 275,700 276,130 277,20
287,170 288,170 289,680 290,6405
291,1281 292,130
##END=
