##TITLE=Phenol, 2-chloro-4-cyclohexyl-
##JCAMP-DX=4.24
##DATA TYPE=MASS SPECTRUM
##OWNER=NIST Mass Spectrometry Data Center
Collection (C) 2014 copyright by the U.S. Secretary of Commerce
on behalf of the United States of America. All rights reserved.
##CAS REGISTRY NO=3964-61-2
##$NIST MASS SPEC NO=9701
##MOLFORM=C12 H15 Cl O
##MW=210
##$NIST SOURCE=MSDC
##XUNITS=M/Z
##YUNITS=RELATIVE INTENSITY
##XFACTOR=1
##YFACTOR=1
##FIRSTX=14
##LASTX=214
##FIRSTY=40
##MAXX=214
##MINX=14
##MAXY=9999
##MINY=10
##NPOINTS=163
##PEAK TABLE=(XY..XY)
14,40 15,20 17,10 18,60
26,30 27,360 28,621 29,260
31,10 35,10 36,30 37,20
38,70 39,601 40,80 41,631
42,40 43,80 44,40 45,20
49,20 50,150 51,701 52,120
53,390 54,110 55,380 56,30
57,50 58,70 59,30 61,40
62,150 63,450 64,250 65,350
66,140 67,330 68,50 69,150
70,30 71,20 72,100 73,140
74,80 75,210 76,90 77,1111
78,190 79,220 80,30 81,330
82,300 83,40 84,20 85,30
86,30 87,60 88,80 89,641
90,250 91,520 92,110 93,40
94,40 95,20 96,20 97,30
98,20 99,200 100,30 101,170
102,140 103,500 104,100 105,310
106,70 107,1111 108,100 109,30
111,20 112,50 113,50 114,70
115,410 116,120 117,460 118,170
119,260 120,130 121,120 122,10
123,10 125,140 126,30 127,280
128,701 129,150 130,230 131,901
132,2702 133,901 134,90 135,30
136,10 137,10 138,20 139,110
140,50 141,5005 142,681 143,1631
144,320 145,250 146,230 147,100
148,10 149,30 150,10 151,20
152,40 153,190 154,4814 155,641
156,1591 157,210 158,30 159,30
160,10 162,150 163,20 165,40
166,30 167,9999 168,1211 169,3343
170,410 171,40 173,20 174,30
175,530 176,150 177,20 178,10
179,20 180,20 181,260 182,80
183,90 184,30 193,10 195,30
196,10 197,10 198,10 199,10
208,20 209,150 210,8117 211,1181
212,2762 213,360 214,40
##END=
