##TITLE=2-Methyl-1-phenyl-1-butanol
##JCAMP-DX=4.24
##DATA TYPE=MASS SPECTRUM
##ORIGIN=NIST Mass Spectrometry Data Center, 1990.
##OWNER=NIST Mass Spectrometry Data Center
Collection (C) 2014 copyright by the U.S. Secretary of Commerce
on behalf of the United States of America. All rights reserved.
##CAS REGISTRY NO=3968-86-3
##$NIST MASS SPEC NO=114755
##MOLFORM=C11 H16 O
##MW=164
##$NIST SOURCE=MSDC
##XUNITS=M/Z
##YUNITS=RELATIVE INTENSITY
##XFACTOR=1
##YFACTOR=1
##FIRSTX=26
##LASTX=165
##FIRSTY=56
##MAXX=165
##MINX=26
##MAXY=9999
##MINY=34
##NPOINTS=57
##PEAK TABLE=(XY..XY)
26,56 27,466 28,34 29,538
31,44 38,87 39,736 40,108
41,560 42,49 43,202 50,344
51,1106 52,293 53,361 55,216
56,56 57,312 62,126 63,419
64,164 65,571 66,59 67,149
68,143 74,114 75,138 77,3127
78,803 79,5361 80,364 89,237
91,2145 92,223 102,117 103,209
104,216 105,859 106,117 107,9999
108,785 109,60 115,930 116,500
117,790 118,125 127,103 128,252
129,411 130,103 131,2450 132,244
145,186 146,1288 147,152 164,497
165,66
##END=
