##TITLE=5-Methylisophthalonitrile
##JCAMP-DX=4.24
##DATA TYPE=MASS SPECTRUM
##ORIGIN=NIST Mass Spectrometry Data Center
##OWNER=NIST Mass Spectrometry Data Center
Collection (C) 2014 copyright by the U.S. Secretary of Commerce
on behalf of the United States of America. All rights reserved.
##CAS REGISTRY NO=39718-07-5
##$NIST MASS SPEC NO=342849
##MOLFORM=C9 H6 N2
##MW=142
##$NIST SOURCE=MSDC
##XUNITS=M/Z
##YUNITS=RELATIVE INTENSITY
##XFACTOR=1
##YFACTOR=1
##FIRSTX=12
##LASTX=144
##FIRSTY=10
##MAXX=144
##MINX=12
##MAXY=9999
##MINY=10
##NPOINTS=71
##PEAK TABLE=(XY..XY)
12,10 13,20 14,40 15,150
18,30 24,20 25,30 26,330
27,591 28,450 36,60 37,821
38,1041 39,1531 40,190 41,90
42,10 43,60 44,50 48,50
49,210 50,891 51,871 52,470
53,50 54,10 56,40 57,80
58,250 60,70 61,641 62,1191
63,1481 64,1181 65,270 66,40
71,110 72,20 73,80 74,240
75,771 76,631 77,90 78,40
84,30 85,110 86,280 87,711
88,1311 89,520 90,210 91,60
98,40 99,170 100,240 101,90
102,60 103,10 110,30 111,60
112,70 114,2803 115,6746 116,761
117,50 127,10 139,40 141,2252
142,9999 143,1001 144,40
##END=
