##TITLE=1-Chloro-4-(1,1-dimethylethyl)benzene
##JCAMP-DX=4.24
##DATA TYPE=MASS SPECTRUM
##ORIGIN=ASES Database, Dalian Institute, P.R. China
##OWNER=NIST Mass Spectrometry Data Center
Collection (C) 2014 copyright by the U.S. Secretary of Commerce
on behalf of the United States of America. All rights reserved.
##CAS REGISTRY NO=3972-56-3
##$NIST MASS SPEC NO=146675
##MOLFORM=C10 H13 Cl
##MW=168
##$NIST SOURCE=MSDC
##XUNITS=M/Z
##YUNITS=RELATIVE INTENSITY
##XFACTOR=1
##YFACTOR=1
##FIRSTX=29
##LASTX=170
##FIRSTY=1171
##MAXX=170
##MINX=29
##MAXY=9999
##MINY=290
##NPOINTS=31
##PEAK TABLE=(XY..XY)
29,1171 39,3302 41,8817 42,600
50,1080 51,2001 57,390 63,890
65,390 74,380 75,1281 76,400
77,1581 89,480 91,690 101,600
102,690 103,690 113,400 115,1080
116,290 117,500 125,4514 127,1301
138,1000 153,9999 154,1101 155,3413
156,300 168,1781 170,600
##END=
