##TITLE=trans-Nonachlor
##JCAMP-DX=4.24
##DATA TYPE=MASS SPECTRUM
##ORIGIN=NIST Mass Spectrometry Data Center, 1998.
##OWNER=NIST Mass Spectrometry Data Center
Collection (C) 2014 copyright by the U.S. Secretary of Commerce
on behalf of the United States of America. All rights reserved.
##CAS REGISTRY NO=39765-80-5
##$NIST MASS SPEC NO=291763
##MOLFORM=C10 H5 Cl9
##MW=440
##$NIST SOURCE=MSDC
##XUNITS=M/Z
##YUNITS=RELATIVE INTENSITY
##XFACTOR=1
##YFACTOR=1
##FIRSTX=26
##LASTX=452
##FIRSTY=70
##MAXX=452
##MINX=26
##MAXY=9999
##MINY=10
##NPOINTS=321
##PEAK TABLE=(XY..XY)
26,70 27,60 35,100 36,100
37,170 38,240 39,760 40,30
41,10 43,10 47,170 48,70
49,630 50,390 51,510 52,30
53,10 55,20 59,10 60,200
61,820 62,520 63,630 64,110
65,600 66,100 71,120 72,240
73,1760 74,660 75,860 76,50
77,60 79,140 80,80 82,130
83,1190 84,580 85,1450 86,550
87,440 88,40 89,50 90,40
91,30 92,10 94,100 95,320
96,680 97,930 98,920 99,2230
100,730 101,660 102,320 103,100
104,30 106,190 107,650 108,660
109,2480 110,390 111,1340 112,80
113,240 114,330 115,360 116,170
117,1050 118,170 119,1270 120,600
121,950 122,400 123,500 124,130
125,110 126,40 130,330 131,420
132,780 133,1330 134,580 135,890
136,290 137,440 138,180 139,100
140,40 141,740 142,100 143,1310
144,220 145,880 146,160 147,380
148,90 149,250 150,300 151,200
153,60 154,80 155,240 156,160
157,460 158,240 159,420 160,410
161,140 162,120 163,20 164,20
165,370 166,60 167,720 168,270
169,870 170,290 171,480 172,150
173,150 174,50 175,20 177,70
178,60 179,180 180,150 181,290
182,200 183,270 184,110 185,110
186,30 187,20 188,30 189,20
190,40 191,650 192,160 193,750
194,830 195,510 196,520 197,180
198,90 199,30 200,20 201,200
202,70 203,410 204,660 205,350
206,600 207,160 208,200 209,40
210,20 212,10 213,40 214,180
215,130 216,310 217,480 218,230
219,400 220,100 221,120 222,20
223,20 225,100 226,170 227,320
228,550 229,530 230,980 231,410
232,670 233,150 234,210 235,1950
236,200 237,3080 238,490 239,2190
240,470 241,880 242,230 243,230
244,50 245,40 246,10 248,70
249,40 250,130 251,360 252,190
253,480 254,160 255,260 256,70
257,60 258,20 259,10 260,10
261,1150 262,160 263,1870 264,760
265,1360 266,840 267,590 268,380
269,160 270,1220 271,10 272,2200
273,200 274,1850 275,220 276,920
277,140 278,290 279,50 280,60
281,10 282,10 283,40 285,120
286,50 287,230 288,80 289,240
290,70 291,120 292,30 293,30
294,10 295,20 296,20 297,50
298,520 299,300 300,850 301,440
302,580 303,280 304,210 305,90
306,40 307,20 308,20 309,80
310,30 311,130 312,40 313,100
314,20 315,40 317,10 321,10
322,20 323,20 324,30 325,20
326,20 327,10 328,10 333,110
334,100 335,260 336,170 337,270
338,160 339,150 340,60 341,50
342,20 343,20 345,20 347,20
349,10 369,90 370,20 371,200
372,40 373,210 374,30 375,110
376,20 377,30 378,10 379,10
401,10 402,10 403,10 405,3620
406,420 407,9109 408,1000 409,9999
410,1110 411,6419 412,710 413,2540
414,270 415,610 416,70 417,100
418,10 419,10 440,80 441,10
442,240 443,30 444,300 445,30
446,220 447,30 448,110 450,30
452,10
##END=
