##TITLE=2,4,4,6,6,8,8-Heptamethyl-2-nonene
##JCAMP-DX=4.24
##DATA TYPE=MASS SPECTRUM
##ORIGIN=W.Buchmann ET AL. 48th ASMS
##OWNER=NIST Mass Spectrometry Data Center
Collection (C) 2014 copyright by the U.S. Secretary of Commerce
on behalf of the United States of America. All rights reserved.
##CAS REGISTRY NO=39761-73-4
##$NIST MASS SPEC NO=293282
##MOLFORM=C16 H32
##MW=224
##$NIST SOURCE=MSDC
##XUNITS=M/Z
##YUNITS=RELATIVE INTENSITY
##XFACTOR=1
##YFACTOR=1
##FIRSTX=52
##LASTX=225
##FIRSTY=110
##MAXX=225
##MINX=52
##MAXY=9999
##MINY=30
##NPOINTS=72
##PEAK TABLE=(XY..XY)
52,110 53,270 54,140 55,2732
56,440 57,1651 58,140 59,70
61,40 65,150 66,60 67,350
68,150 69,1732 70,200 71,170
72,40 77,150 78,70 79,300
80,60 81,520 82,150 83,270
88,100 89,50 91,150 92,40
93,70 95,260 96,540 97,9999
98,831 102,50 105,50 106,50
107,50 109,110 110,130 111,991
112,631 113,130 116,50 117,130
118,80 119,130 121,50 125,50
126,80 128,50 129,80 131,50
140,50 145,50 152,50 155,50
159,70 160,40 161,40 162,40
166,40 173,30 175,60 188,30
189,30 193,30 206,30 208,30
222,40 223,60 224,1001 225,190
##END=
