##TITLE=p-Butoxybenzylidene p-octylaniline
##JCAMP-DX=4.24
##DATA TYPE=MASS SPECTRUM
##ORIGIN=NIST Mass Spectrometry Data Center, 1994
##OWNER=NIST Mass Spectrometry Data Center
Collection (C) 2014 copyright by the U.S. Secretary of Commerce
on behalf of the United States of America. All rights reserved.
##CAS REGISTRY NO=39777-26-9
##$NIST MASS SPEC NO=135895
##MOLFORM=C25 H35 N O
##MW=365
##$NIST SOURCE=MSDC
##XUNITS=M/Z
##YUNITS=RELATIVE INTENSITY
##XFACTOR=1
##YFACTOR=1
##FIRSTX=17
##LASTX=368
##FIRSTY=45
##MAXX=368
##MINX=17
##MAXY=9999
##MINY=10
##NPOINTS=113
##PEAK TABLE=(XY..XY)
17,45 18,29 27,499 28,142
29,2502 30,27 39,414 41,2406
42,171 43,1169 44,10 51,97
52,29 53,64 54,10 55,334
56,63 57,886 58,39 63,50
64,47 65,402 69,47 71,121
76,71 77,406 78,162 79,74
84,36 89,379 90,786 91,599
92,62 93,110 94,32 96,25
102,58 103,238 104,211 105,177
106,106 107,94 115,214 116,145
117,161 118,45 119,38 120,44
127,58 128,59 129,53 130,161
131,65 132,90 139,44 141,36
142,49 151,50 152,141 153,95
154,96 155,62 163,32 165,170
166,120 167,212 168,220 169,29
172,69 178,69 180,690 181,413
182,97 183,195 184,41 191,75
192,89 193,145 194,143 195,56
196,360 197,87 206,43 207,49
208,107 209,43 210,5646 211,1032
212,87 214,37 222,274 223,128
224,219 225,38 236,110 237,35
264,48 266,9999 267,2457 268,302
280,491 281,190 294,89 308,159
309,176 310,40 322,171 323,39
336,71 365,8686 366,2484 367,357
368,42
##END=
