##TITLE=p-Hexyloxybenzylidene p-octylaniline
##JCAMP-DX=4.24
##DATA TYPE=MASS SPECTRUM
##ORIGIN=NIST Mass Spectrometry Data Center, 1994
##OWNER=NIST Mass Spectrometry Data Center
Collection (C) 2014 copyright by the U.S. Secretary of Commerce
on behalf of the United States of America. All rights reserved.
##CAS REGISTRY NO=39777-28-1
##$NIST MASS SPEC NO=135890
##MOLFORM=C27 H39 N O
##MW=393
##$NIST SOURCE=MSDC
##XUNITS=M/Z
##YUNITS=RELATIVE INTENSITY
##XFACTOR=1
##YFACTOR=1
##FIRSTX=17
##LASTX=396
##FIRSTY=12
##MAXX=396
##MINX=17
##MAXY=9999
##MINY=1
##NPOINTS=109
##PEAK TABLE=(XY..XY)
17,12 18,36 27,556 28,116
29,1066 30,6 32,1 39,326
41,2204 43,4154 44,89 51,71
53,68 55,617 56,75 57,717
58,45 63,69 65,334 66,33
67,35 69,62 71,192 76,50
77,314 78,115 79,62 83,50
89,270 90,705 91,578 92,65
93,111 94,43 95,42 102,51
103,188 104,149 105,150 106,154
107,127 115,186 116,140 117,161
118,52 127,57 128,48 129,32
130,166 131,78 132,80 140,34
142,71 144,46 151,49 152,142
153,89 154,74 155,52 165,156
166,137 167,167 168,224 169,44
172,72 178,64 180,643 181,359
182,95 183,184 191,99 192,78
193,142 194,166 195,66 196,402
197,92 198,44 206,49 207,61
208,123 209,44 210,7032 211,1257
212,142 214,69 216,58 220,33
222,271 223,155 224,249 225,70
236,126 237,37 292,44 294,8732
295,2266 296,292 308,513 309,486
310,156 322,91 350,155 351,49
364,63 393,9999 394,3003 395,496
396,56
##END=
