##TITLE=p-Butoxybenzylidene p-hexylaniline
##JCAMP-DX=4.24
##DATA TYPE=MASS SPECTRUM
##ORIGIN=NIST Mass Spectrometry Data Center, 1994
##OWNER=NIST Mass Spectrometry Data Center
Collection (C) 2014 copyright by the U.S. Secretary of Commerce
on behalf of the United States of America. All rights reserved.
##CAS REGISTRY NO=39777-12-3
##$NIST MASS SPEC NO=135915
##MOLFORM=C23 H31 N O
##MW=337
##$NIST SOURCE=MSDC
##XUNITS=M/Z
##YUNITS=RELATIVE INTENSITY
##XFACTOR=1
##YFACTOR=1
##FIRSTX=18
##LASTX=340
##FIRSTY=74
##MAXX=340
##MINX=18
##MAXY=9999
##MINY=24
##NPOINTS=115
##PEAK TABLE=(XY..XY)
18,74 27,1072 28,57 29,4542
30,114 38,37 39,772 41,3394
42,207 43,2183 44,26 50,64
51,280 52,79 53,106 54,26
55,462 56,86 57,645 63,147
64,97 65,707 66,88 67,30
75,31 76,102 77,704 78,296
79,105 84,70 89,700 90,1289
91,865 92,101 93,114 94,62
96,68 102,120 103,321 104,228
105,218 106,172 107,107 112,41
115,308 116,240 117,205 118,56
119,42 120,52 127,97 128,123
129,54 130,182 131,53 132,106
139,85 140,61 141,61 142,53
144,57 151,71 152,259 153,176
154,159 155,62 156,32 158,24
163,40 164,53 165,259 166,210
167,316 168,299 169,68 178,109
180,1007 181,525 182,120 183,255
184,48 186,56 188,61 190,28
191,95 192,114 193,180 194,152
195,86 196,428 197,110 206,50
208,163 210,7166 211,1179 212,111
222,280 223,115 224,100 236,99
253,39 263,33 264,48 266,9999
267,2175 268,225 280,153 281,308
282,77 294,68 335,25 337,7856
338,2027 339,294 340,37
##END=
