##TITLE=p-Butoxybenzylidene-p-pentylaniline
##JCAMP-DX=4.24
##DATA TYPE=MASS SPECTRUM
##ORIGIN=NIST Mass Spectrometry Data Center, 1994
##OWNER=NIST Mass Spectrometry Data Center
Collection (C) 2014 copyright by the U.S. Secretary of Commerce
on behalf of the United States of America. All rights reserved.
##CAS REGISTRY NO=39777-05-4
##$NIST MASS SPEC NO=135246
##MOLFORM=C22 H29 N O
##MW=323
##$NIST SOURCE=MSDC
##XUNITS=M/Z
##YUNITS=RELATIVE INTENSITY
##XFACTOR=1
##YFACTOR=1
##FIRSTX=12
##LASTX=325
##FIRSTY=29
##MAXX=325
##MINX=12
##MAXY=9999
##MINY=26
##NPOINTS=112
##PEAK TABLE=(XY..XY)
12,29 16,53 27,788 29,3345
30,84 39,607 41,2205 42,111
43,980 44,105 50,54 51,238
52,71 53,65 55,289 57,404
63,142 64,103 65,594 66,70
67,26 69,29 70,41 71,50
76,113 77,598 78,232 79,123
82,28 84,59 89,619 90,996
91,812 92,73 93,81 94,39
95,44 97,42 101,35 102,100
103,238 104,160 105,198 106,142
107,100 112,52 115,288 116,179
117,142 118,38 119,35 120,41
127,108 128,113 129,57 130,162
131,56 132,88 139,68 140,64
141,59 142,45 144,34 145,41
151,79 152,247 153,154 154,113
155,45 163,38 165,203 166,136
167,293 168,312 169,51 172,48
174,43 177,32 178,83 180,884
181,416 182,104 183,205 184,41
191,96 192,122 193,175 194,118
195,41 196,361 197,94 207,37
208,144 210,6993 211,1131 212,106
222,248 223,93 224,81 236,82
237,45 249,69 250,36 253,46
264,45 266,9999 267,2366 268,311
280,47 323,7442 324,1869 325,236
##END=
