##TITLE=2-Amino-4-hydroxy-6-methylpyrimidine
##JCAMP-DX=4.24
##DATA TYPE=MASS SPECTRUM
##ORIGIN=Japan AIST/NIMC Database- Spectrum MS-NW-7802
##OWNER=NIST Mass Spectrometry Data Center
Collection (C) 2014 copyright by the U.S. Secretary of Commerce
on behalf of the United States of America. All rights reserved.
##CAS REGISTRY NO=3977-29-5
##$NIST MASS SPEC NO=238388
##MOLFORM=C5 H7 N3 O
##MW=125
##$NIST SOURCE=MSDC
##XUNITS=M/Z
##YUNITS=RELATIVE INTENSITY
##XFACTOR=1
##YFACTOR=1
##FIRSTX=12
##LASTX=127
##FIRSTY=20
##MAXX=127
##MINX=12
##MAXY=9999
##MINY=10
##NPOINTS=71
##PEAK TABLE=(XY..XY)
12,20 13,70 14,149 15,359
16,50 24,10 25,80 26,429
27,959 28,1959 29,309 30,80
31,20 36,30 37,269 38,589
39,1469 40,929 41,969 42,3829
43,5929 44,639 45,10 49,10
50,60 51,289 52,689 53,599
54,1169 55,959 56,589 57,30
58,10 62,40 63,50 64,90
65,129 66,379 67,719 68,2009
69,739 70,189 71,20 76,20
77,30 78,10 79,30 80,50
81,60 82,289 83,549 84,4239
85,229 86,289 87,10 92,40
93,70 95,30 96,2599 97,3749
98,259 99,10 107,10 108,339
109,279 110,129 111,10 124,40
125,9999 126,769 127,50
##END=
