##TITLE=Butane, 1-(ethenyloxy)-3-methyl-
##JCAMP-DX=4.24
##DATA TYPE=MASS SPECTRUM
##ORIGIN=CARL DJERASSI DEPT OF CHEM STANFORD UNIV STANFORD CALIF 94305
##OWNER=NIST Mass Spectrometry Data Center
Collection (C) 2014 copyright by the U.S. Secretary of Commerce
on behalf of the United States of America. All rights reserved.
##CAS REGISTRY NO=39782-38-2
##$NIST MASS SPEC NO=46352
##MOLFORM=C7 H14 O
##MW=114
##$NIST SOURCE=MSDC
##XUNITS=M/Z
##YUNITS=RELATIVE INTENSITY
##XFACTOR=1
##YFACTOR=1
##FIRSTX=41
##LASTX=114
##FIRSTY=2079
##MAXX=114
##MINX=41
##MAXY=9999
##MINY=98
##NPOINTS=20
##PEAK TABLE=(XY..XY)
41,2079 42,890 43,9999 44,1088
45,296 51,98 52,98 53,296
54,98 55,2177 56,198 57,494
58,98 69,198 70,2771 71,1979
72,98 81,98 99,296 114,494
##END=
