##TITLE=17-Methyl-5.alpha.-androstane-3.beta.,17.beta.-diol, 2TMS derivative
##JCAMP-DX=4.24
##DATA TYPE=MASS SPECTRUM
##ORIGIN=B.S.MIDDLEDITCH BAYLOR COLL. OF MED., HOUSTON, TEXAS, USA
##OWNER=NIST Mass Spectrometry Data Center
Collection (C) 2014 copyright by the U.S. Secretary of Commerce
on behalf of the United States of America. All rights reserved.
##CAS REGISTRY NO=39780-71-7
##$NIST MASS SPEC NO=37665
##MOLFORM=C26 H50 O2 Si2
##MW=450
##$NIST SOURCE=MSDC
##XUNITS=M/Z
##YUNITS=RELATIVE INTENSITY
##XFACTOR=1
##YFACTOR=1
##FIRSTX=75
##LASTX=450
##FIRSTY=200
##MAXX=450
##MINX=75
##MAXY=9999
##MINY=200
##NPOINTS=15
##PEAK TABLE=(XY..XY)
75,200 130,2000 131,500 143,9999
144,1800 145,500 163,200 255,200
318,200 319,200 360,400 435,1300
436,400 437,200 450,300
##END=
