##TITLE=2-Methylcyclohexanol, (E)-, TMS derivative
##JCAMP-DX=4.24
##DATA TYPE=MASS SPECTRUM
##ORIGIN=NIST Mass Spectrometry Data Center
##OWNER=NIST Mass Spectrometry Data Center
Collection (C) 2014 copyright by the U.S. Secretary of Commerce
on behalf of the United States of America. All rights reserved.
##CAS REGISTRY NO=39789-19-0
##$NIST MASS SPEC NO=364131
##MOLFORM=C10 H22 O Si
##MW=186
##$NIST SOURCE=MSDC
##XUNITS=M/Z
##YUNITS=RELATIVE INTENSITY
##XFACTOR=1
##YFACTOR=1
##FIRSTX=15
##LASTX=189
##FIRSTY=30
##MAXX=189
##MINX=15
##MAXY=9999
##MINY=10
##NPOINTS=111
##PEAK TABLE=(XY..XY)
15,30 26,20 27,260 28,60
29,400 30,10 31,50 39,400
40,70 41,941 42,280 43,621
44,200 45,1251 46,90 47,470
48,20 49,20 50,20 51,50
52,30 53,260 54,120 55,951
56,100 57,200 58,260 59,881
60,170 61,711 62,50 63,40
64,20 65,80 66,40 67,410
68,400 69,240 70,190 71,130
73,7016 74,791 75,9539 76,731
77,470 78,40 79,140 80,30
81,380 82,30 83,40 84,10
85,200 86,30 87,80 88,30
89,100 90,10 91,90 92,10
93,60 94,30 95,861 96,350
97,110 98,20 99,280 100,30
101,1201 102,130 103,140 104,10
105,10 109,20 111,60 112,10
113,260 114,40 115,430 116,230
117,110 118,20 123,10 125,40
127,140 129,9999 130,1321 131,440
132,30 141,60 143,6166 144,781
145,250 146,20 153,20 155,40
157,701 158,100 159,30 169,30
171,8418 172,1301 173,380 174,30
183,10 184,10 185,80 186,4454
187,731 188,200 189,20
##END=
