##TITLE=Thianaphthene-2-carbonyl chloride
##JCAMP-DX=4.24
##DATA TYPE=MASS SPECTRUM
##ORIGIN=NIST Mass Spectrometry Data Center, 1994
##OWNER=NIST Mass Spectrometry Data Center
Collection (C) 2014 copyright by the U.S. Secretary of Commerce
on behalf of the United States of America. All rights reserved.
##CAS REGISTRY NO=39827-11-7
##$NIST MASS SPEC NO=136038
##MOLFORM=C9 H5 Cl O S
##MW=196
##$NIST SOURCE=MSDC
##XUNITS=M/Z
##YUNITS=RELATIVE INTENSITY
##XFACTOR=1
##YFACTOR=1
##FIRSTX=12
##LASTX=200
##FIRSTY=21
##MAXX=200
##MINX=12
##MAXY=9999
##MINY=18
##NPOINTS=79
##PEAK TABLE=(XY..XY)
12,21 25,44 26,91 27,44
32,18 35,130 36,62 37,346
38,426 39,860 40,45 44,85
45,299 46,25 47,32 48,26
49,158 50,616 51,248 52,35
53,152 56,27 57,272 58,110
60,63 61,461 62,770 63,1628
64,141 65,94 66,27 67,500
68,73 69,882 70,80 71,76
72,39 73,141 74,418 75,237
76,62 77,65 81,593 82,405
83,99 84,234 85,200 86,184
87,238 88,39 89,5039 90,372
92,62 93,623 94,99 95,84
97,45 98,98 99,36 105,130
106,300 107,64 108,47 117,41
132,344 133,2947 134,295 135,160
161,9999 162,1041 163,518 164,56
168,137 170,64 196,2000 197,232
198,770 199,90 200,38
##END=
