##TITLE=Cyclohexene, 3-(1-methylethyl)-
##JCAMP-DX=4.24
##DATA TYPE=MASS SPECTRUM
##ORIGIN=S.A. Rang et al., IR & MS of Unsatd. Hydrocarbons, 1977
##OWNER=NIST Mass Spectrometry Data Center
Collection (C) 2014 copyright by the U.S. Secretary of Commerce
on behalf of the United States of America. All rights reserved.
##CAS REGISTRY NO=3983-08-2
##$NIST MASS SPEC NO=142680
##MOLFORM=C9 H16
##MW=124
##$NIST SOURCE=MSDC
##XUNITS=M/Z
##YUNITS=RELATIVE INTENSITY
##XFACTOR=1
##YFACTOR=1
##FIRSTX=15
##LASTX=126
##FIRSTY=45
##MAXX=126
##MINX=15
##MAXY=9999
##MINY=2
##NPOINTS=87
##PEAK TABLE=(XY..XY)
15,45 16,7 24,5 25,7
26,86 27,1460 28,142 29,599
37,21 38,66 39,1647 40,289
41,3058 42,282 43,1086 45,27
46,10 47,2 49,7 50,91
51,369 52,255 53,1348 54,599
55,1235 56,161 57,255 58,25
59,18 60,9 61,2 62,16
63,73 64,21 65,412 66,396
67,2489 68,562 69,487 70,235
71,59 72,7 73,7 74,7
75,34 76,16 77,898 78,262
79,2561 80,1722 81,9999 82,2171
83,315 84,39 85,30 86,14
87,34 88,2 89,9 90,5
91,268 92,45 93,116 94,43
95,487 96,235 97,674 98,70
99,39 104,14 105,59 106,11
107,107 108,14 109,1235 110,201
111,27 112,21 113,14 119,5
120,9 121,14 122,55 123,148
124,1535 125,195 126,23
##END=
