##TITLE=Cyclohexene,3-propyl-
##JCAMP-DX=4.24
##DATA TYPE=MASS SPECTRUM
##ORIGIN=S.A. Rang et al., IR & MS of Unsatd. Hydrocarbons, 1977
##OWNER=NIST Mass Spectrometry Data Center
Collection (C) 2014 copyright by the U.S. Secretary of Commerce
on behalf of the United States of America. All rights reserved.
##CAS REGISTRY NO=3983-06-0
##$NIST MASS SPEC NO=142690
##MOLFORM=C9 H16
##MW=124
##$NIST SOURCE=MSDC
##XUNITS=M/Z
##YUNITS=RELATIVE INTENSITY
##XFACTOR=1
##YFACTOR=1
##FIRSTX=15
##LASTX=126
##FIRSTY=32
##MAXX=126
##MINX=15
##MAXY=9999
##MINY=2
##NPOINTS=88
##PEAK TABLE=(XY..XY)
15,32 16,4 24,3 25,8
26,66 27,1082 28,73 29,556
30,15 31,32 37,12 38,42
39,1556 40,242 41,2570 42,242
43,290 44,12 45,17 49,4
50,66 51,290 52,170 53,1217
54,1150 55,1420 56,117 57,132
58,28 59,7 60,7 61,3
62,10 63,66 64,18 65,411
66,290 67,2908 68,1015 69,266
70,266 71,66 72,8 73,8
74,7 75,20 76,13 77,701
78,169 79,2029 80,652 81,9999
82,4217 83,459 84,73 85,14
86,10 87,12 88,3 89,12
90,6 91,290 92,38 93,242
94,88 95,2029 96,812 97,701
98,88 99,32 100,4 105,18
106,4 107,42 108,9 109,217
110,59 111,88 112,34 118,2
119,3 120,15 121,10 122,59
123,110 124,1353 125,124 126,9
##END=
