##TITLE=Cyclohexene,1-(2-methylpropyl)-
##JCAMP-DX=4.24
##DATA TYPE=MASS SPECTRUM
##ORIGIN=S.A. Rang et al., IR & MS of Unsatd. Hydrocarbons, 1977
##OWNER=NIST Mass Spectrometry Data Center
Collection (C) 2014 copyright by the U.S. Secretary of Commerce
on behalf of the United States of America. All rights reserved.
##CAS REGISTRY NO=3983-03-7
##$NIST MASS SPEC NO=142684
##MOLFORM=C10 H18
##MW=138
##$NIST SOURCE=MSDC
##XUNITS=M/Z
##YUNITS=RELATIVE INTENSITY
##XFACTOR=1
##YFACTOR=1
##FIRSTX=25
##LASTX=140
##FIRSTY=11
##MAXX=140
##MINX=25
##MAXY=9999
##MINY=4
##NPOINTS=87
##PEAK TABLE=(XY..XY)
25,11 26,102 27,2228 28,114
29,1204 37,22 38,70 39,2349
40,453 41,5721 42,389 43,2288
44,114 45,22 46,7 50,88
51,432 52,367 53,1987 54,1145
55,3318 56,486 57,1325 58,80
59,18 60,7 61,4 62,15
63,95 64,37 65,783 66,518
67,7826 68,1807 69,453 70,102
71,37 72,4 73,11 74,7
75,48 76,22 77,1686 78,313
79,2529 80,1204 81,9999 82,6957
83,507 84,37 85,11 86,7
89,29 90,11 91,783 92,110
93,964 94,662 95,9565 96,3318
97,302 98,37 99,33 100,4
101,4 102,7 103,33 104,15
105,62 106,15 107,77 108,26
109,165 110,113 111,15 115,29
116,7 117,22 121,29 122,11
123,723 124,73 136,18 137,54
138,3131 139,324 140,18
##END=
