##TITLE=2,4-Dimethylphenyl isothiocyanate
##JCAMP-DX=4.24
##DATA TYPE=MASS SPECTRUM
##ORIGIN=NIST Mass Spectrometry Data Center, 1994
##OWNER=NIST Mass Spectrometry Data Center
Collection (C) 2014 copyright by the U.S. Secretary of Commerce
on behalf of the United States of America. All rights reserved.
##CAS REGISTRY NO=39842-01-8
##$NIST MASS SPEC NO=134520
##MOLFORM=C9 H9 N S
##MW=163
##$NIST SOURCE=MSDC
##XUNITS=M/Z
##YUNITS=RELATIVE INTENSITY
##XFACTOR=1
##YFACTOR=1
##FIRSTX=14
##LASTX=166
##FIRSTY=56
##MAXX=166
##MINX=14
##MAXY=9999
##MINY=32
##NPOINTS=104
##PEAK TABLE=(XY..XY)
14,56 15,195 26,182 27,1244
28,193 29,81 32,183 37,222
38,544 39,2580 40,267 41,265
44,261 45,786 46,51 47,39
49,106 50,1071 51,2222 52,773
53,652 54,139 55,40 57,57
58,212 59,245 60,90 61,269
62,684 63,1636 64,584 65,834
66,167 67,214 68,106 69,200
70,386 71,99 72,148 73,97
74,380 75,454 76,586 77,3494
78,1476 79,1178 80,298 81,97
82,627 83,126 84,113 85,53
86,141 87,123 88,125 89,694
90,321 91,677 92,139 93,76
94,59 95,113 96,141 97,44
98,46 99,37 101,138 102,619
103,1681 104,715 105,3523 106,350
107,32 108,67 109,69 110,39
114,33 116,441 117,195 118,584
119,86 120,55 121,393 122,102
123,58 128,309 130,5981 131,1204
132,102 133,42 134,209 135,657
136,191 137,36 146,64 148,2365
149,241 150,120 160,62 162,2970
163,9999 164,1240 165,524 166,49
##END=
