##TITLE=Benzene, 2-bromo-1,4-difluoro-
##JCAMP-DX=4.24
##DATA TYPE=MASS SPECTRUM
##ORIGIN=A.Pleshkova, Nesmeyanov Inst.Org.Elem.Cpds, Moscow
##OWNER=NIST Mass Spectrometry Data Center
Collection (C) 2014 copyright by the U.S. Secretary of Commerce
on behalf of the United States of America. All rights reserved.
##CAS REGISTRY NO=399-94-0
##$NIST MASS SPEC NO=283932
##MOLFORM=C6 H3 Br F2
##MW=192
##$NIST SOURCE=MSDC
##XUNITS=M/Z
##YUNITS=RELATIVE INTENSITY
##XFACTOR=1
##YFACTOR=1
##FIRSTX=50
##LASTX=195
##FIRSTY=130
##MAXX=195
##MINX=50
##MAXY=9999
##MINY=30
##NPOINTS=31
##PEAK TABLE=(XY..XY)
50,130 51,30 55,80 56,150
57,150 61,210 62,350 63,1381
64,70 68,320 69,240 71,60
74,230 79,110 81,250 82,40
86,100 87,110 92,190 93,420
94,210 96,480 97,490 112,490
113,5595 114,340 191,30 192,9999
193,721 194,9829 195,631
##END=
