##TITLE=[1,2,4]Triazolo[1,5-a]pyrazine
##JCAMP-DX=4.24
##DATA TYPE=MASS SPECTRUM
##OWNER=NIST Mass Spectrometry Data Center
Collection (C) 2014 copyright by the U.S. Secretary of Commerce
on behalf of the United States of America. All rights reserved.
##CAS REGISTRY NO=399-66-6
##$NIST MASS SPEC NO=2169
##MOLFORM=C5 H4 N4
##MW=120
##$NIST SOURCE=MSDC
##XUNITS=M/Z
##YUNITS=RELATIVE INTENSITY
##XFACTOR=1
##YFACTOR=1
##FIRSTX=41
##LASTX=121
##FIRSTY=1401
##MAXX=121
##MINX=41
##MAXY=9999
##MINY=400
##NPOINTS=12
##PEAK TABLE=(XY..XY)
41,1401 42,500 52,701 53,1401
64,801 65,1001 66,2002 67,701
93,1001 119,400 120,9999 121,1802
##END=
