##TITLE=p-Heptyloxyaniline
##JCAMP-DX=4.24
##DATA TYPE=MASS SPECTRUM
##ORIGIN=NIST Mass Spectrometry Data Center
##OWNER=NIST Mass Spectrometry Data Center
Collection (C) 2014 copyright by the U.S. Secretary of Commerce
on behalf of the United States of America. All rights reserved.
##CAS REGISTRY NO=39905-44-7
##$NIST MASS SPEC NO=340980
##MOLFORM=C13 H21 N O
##MW=207
##$NIST SOURCE=MSDC
##XUNITS=M/Z
##YUNITS=RELATIVE INTENSITY
##XFACTOR=1
##YFACTOR=1
##FIRSTX=27
##LASTX=209
##FIRSTY=110
##MAXX=209
##MINX=27
##MAXY=9999
##MINY=10
##NPOINTS=53
##PEAK TABLE=(XY..XY)
27,110 29,180 30,10 38,10
39,170 40,10 41,460 42,70
43,230 44,10 50,10 51,40
52,140 53,360 54,110 55,260
56,20 57,220 62,10 63,40
64,40 65,310 66,50 67,20
68,20 69,30 77,50 78,20
79,40 80,1071 81,230 82,40
83,10 91,40 92,230 93,60
94,150 95,10 97,10 106,30
108,1501 109,9999 110,901 111,50
120,10 122,130 123,10 135,30
136,10 149,10 207,2352 208,360
209,30
##END=
