##TITLE=Benzenamine, 4-(octyloxy)-
##JCAMP-DX=4.24
##DATA TYPE=MASS SPECTRUM
##ORIGIN=NIST Mass Spectrometry Data Center, 1994
##OWNER=NIST Mass Spectrometry Data Center
Collection (C) 2014 copyright by the U.S. Secretary of Commerce
on behalf of the United States of America. All rights reserved.
##CAS REGISTRY NO=39905-45-8
##$NIST MASS SPEC NO=135409
##MOLFORM=C14 H23 N O
##MW=221
##$NIST SOURCE=MSDC
##XUNITS=M/Z
##YUNITS=RELATIVE INTENSITY
##XFACTOR=1
##YFACTOR=1
##FIRSTX=12
##LASTX=223
##FIRSTY=4
##MAXX=223
##MINX=12
##MAXY=9999
##MINY=2
##NPOINTS=69
##PEAK TABLE=(XY..XY)
12,4 14,9 15,53 16,2
17,11 18,27 26,83 27,1015
28,476 29,1407 30,75 37,12
38,51 39,668 40,12 41,1870
42,274 43,1031 44,45 50,31
51,100 52,311 53,750 54,231
55,432 56,60 57,237 58,10
61,8 62,17 63,82 64,80
65,476 66,85 67,57 68,33
69,139 70,17 71,68 72,6
77,66 78,41 80,1489 81,316
82,58 83,13 90,12 91,47
92,267 93,79 94,189 95,16
104,3 106,36 108,1539 109,9999
110,748 111,48 118,5 120,14
122,122 123,12 135,34 136,8
149,14 163,8 221,796 222,127
223,9
##END=
