##TITLE=Ethyl 3-pyridylacetate
##JCAMP-DX=4.24
##DATA TYPE=MASS SPECTRUM
##ORIGIN=NIST Mass Spectrometry Data Center
##OWNER=NIST Mass Spectrometry Data Center
Collection (C) 2014 copyright by the U.S. Secretary of Commerce
on behalf of the United States of America. All rights reserved.
##CAS REGISTRY NO=39931-77-6
##$NIST MASS SPEC NO=342358
##MOLFORM=C9 H11 N O2
##MW=165
##$NIST SOURCE=MSDC
##XUNITS=M/Z
##YUNITS=RELATIVE INTENSITY
##XFACTOR=1
##YFACTOR=1
##FIRSTX=14
##LASTX=167
##FIRSTY=10
##MAXX=167
##MINX=14
##MAXY=9999
##MINY=10
##NPOINTS=62
##PEAK TABLE=(XY..XY)
14,10 15,90 16,10 18,10
25,20 26,190 27,781 28,300
29,3473 30,170 36,10 37,170
38,701 39,3303 40,230 41,20
42,50 43,20 46,80 47,30
49,20 50,180 51,210 52,160
53,170 54,40 55,30 56,10
61,80 62,280 63,971 64,631
65,3203 66,440 67,140 68,10
75,10 76,20 77,20 78,60
79,50 80,80 81,10 88,20
89,10 92,9999 93,3163 94,190
106,200 107,10 108,50 118,10
119,90 120,671 121,781 122,90
137,200 138,20 150,10 165,3103
166,300 167,20
##END=
