##TITLE=2,4-Dimethyl-2-oxazoline-4-methanol
##JCAMP-DX=4.24
##DATA TYPE=MASS SPECTRUM
##ORIGIN=Japan AIST/NIMC Database- Spectrum MS-NW-3563
##OWNER=NIST Mass Spectrometry Data Center
Collection (C) 2014 copyright by the U.S. Secretary of Commerce
on behalf of the United States of America. All rights reserved.
##CAS REGISTRY NO=39986-37-3
##$NIST MASS SPEC NO=231311
##MOLFORM=C6 H11 N O2
##MW=129
##$NIST SOURCE=MSDC
##XUNITS=M/Z
##YUNITS=RELATIVE INTENSITY
##XFACTOR=1
##YFACTOR=1
##FIRSTX=14
##LASTX=114
##FIRSTY=50
##MAXX=114
##MINX=14
##MAXY=9999
##MINY=10
##NPOINTS=49
##PEAK TABLE=(XY..XY)
14,50 15,549 18,10 25,10
26,149 27,589 28,229 29,1039
30,109 31,589 32,10 37,20
38,60 39,329 40,169 41,489
42,6469 43,1319 44,70 45,40
46,10 50,10 51,20 52,40
53,20 54,50 55,70 56,139
57,2609 58,279 59,20 60,30
66,30 67,20 68,129 69,60
70,1509 71,139 72,30 82,289
83,20 84,189 85,10 86,10
97,179 98,9999 99,629 100,40
114,20
##END=
