##TITLE=3-Pyridineacetic acid, 1,4-dihydro-1-methyl-, methyl ester
##JCAMP-DX=4.24
##DATA TYPE=MASS SPECTRUM
##OWNER=NIST Mass Spectrometry Data Center
Collection (C) 2014 copyright by the U.S. Secretary of Commerce
on behalf of the United States of America. All rights reserved.
##CAS REGISTRY NO=39998-23-7
##$NIST MASS SPEC NO=29088
##MOLFORM=C9 H13 N O2
##MW=167
##$NIST SOURCE=MSDC
##XUNITS=M/Z
##YUNITS=RELATIVE INTENSITY
##XFACTOR=1
##YFACTOR=1
##FIRSTX=30
##LASTX=168
##FIRSTY=157
##MAXX=168
##MINX=30
##MAXY=9999
##MINY=118
##NPOINTS=47
##PEAK TABLE=(XY..XY)
30,157 31,235 38,274 39,1882
40,392 41,980 42,2039 43,118
44,314 50,196 51,392 52,392
53,627 54,588 55,118 59,314
63,314 64,235 65,1451 66,510
67,549 68,196 77,471 78,314
79,588 80,196 81,118 91,196
92,1882 93,627 94,2823 95,235
105,118 106,902 107,7764 108,7215
109,627 110,549 134,1098 135,118
151,706 152,5176 153,471 165,157
166,9999 167,6274 168,588
##END=
