##TITLE=2-Fluoro-4-iodotoluene
##JCAMP-DX=4.24
##DATA TYPE=MASS SPECTRUM
##ORIGIN=NIST Mass Spectrometry Data Center
##OWNER=NIST Mass Spectrometry Data Center
Collection (C) 2014 copyright by the U.S. Secretary of Commerce
on behalf of the United States of America. All rights reserved.
##CAS REGISTRY NO=39998-81-7
##$NIST MASS SPEC NO=343151
##MOLFORM=C7 H6 F I
##MW=236
##$NIST SOURCE=MSDC
##XUNITS=M/Z
##YUNITS=RELATIVE INTENSITY
##XFACTOR=1
##YFACTOR=1
##FIRSTX=25
##LASTX=238
##FIRSTY=10
##MAXX=238
##MINX=25
##MAXY=9999
##MINY=10
##NPOINTS=71
##PEAK TABLE=(XY..XY)
25,10 31,130 33,60 36,20
37,210 38,290 39,691 40,40
44,10 48,10 49,140 50,651
51,410 52,50 56,170 57,1201
58,60 59,160 60,50 61,320
62,611 63,1061 64,100 65,40
68,210 69,120 70,90 71,10
73,50 74,160 75,140 76,30
77,10 78,10 79,20 80,150
81,721 83,3583 84,220 85,160
86,180 87,150 88,90 89,530
90,70 92,50 93,50 94,70
95,10 103,10 104,30 105,100
107,1461 108,981 109,6356 110,500
111,10 118,80 127,1181 128,110
152,10 164,10 165,10 176,10
209,10 217,10 233,10 234,50
236,9999 237,771 238,20
##END=
