##TITLE=Isopropyl trifluoroacetate
##JCAMP-DX=4.24
##DATA TYPE=MASS SPECTRUM
##ORIGIN=NIST Mass Spectrometry Data Center
##OWNER=NIST Mass Spectrometry Data Center
Collection (C) 2014 copyright by the U.S. Secretary of Commerce
on behalf of the United States of America. All rights reserved.
##CAS REGISTRY NO=400-38-4
##$NIST MASS SPEC NO=342320
##MOLFORM=C5 H7 F3 O2
##MW=156
##$NIST SOURCE=MSDC
##XUNITS=M/Z
##YUNITS=RELATIVE INTENSITY
##XFACTOR=1
##YFACTOR=1
##FIRSTX=12
##LASTX=155
##FIRSTY=10
##MAXX=155
##MINX=12
##MAXY=9999
##MINY=10
##NPOINTS=44
##PEAK TABLE=(XY..XY)
12,10 13,30 14,220 15,1181
16,60 18,20 19,10 20,10
26,440 27,3363 28,520 29,651
31,270 33,20 37,140 38,350
39,1842 41,4774 42,1491 43,9999
44,460 45,90 47,2742 48,60
50,581 51,40 59,30 61,140
69,7627 70,80 78,140 87,10
93,20 94,10 95,10 97,230
99,60 113,1421 114,40 115,20
141,4024 142,170 143,10 155,100
##END=
