##TITLE=Acetic acid, trifluoro-, 1,1-dimethylethyl ester
##JCAMP-DX=4.24
##DATA TYPE=MASS SPECTRUM
##ORIGIN=NIST Mass Spectrometry Data Center, 2010
##OWNER=NIST Mass Spectrometry Data Center
Collection (C) 2014 copyright by the U.S. Secretary of Commerce
on behalf of the United States of America. All rights reserved.
##CAS REGISTRY NO=400-52-2
##$NIST MASS SPEC NO=417251
##MOLFORM=C6 H9 F3 O2
##MW=170
##$NIST SOURCE=MSDC
##XUNITS=M/Z
##YUNITS=RELATIVE INTENSITY
##XFACTOR=1
##YFACTOR=1
##FIRSTX=14
##LASTX=157
##FIRSTY=10
##MAXX=157
##MINX=14
##MAXY=9999
##MINY=10
##NPOINTS=40
##PEAK TABLE=(XY..XY)
14,10 15,90 26,50 27,350
29,881 30,20 31,40 37,30
38,80 39,911 40,150 41,4254
42,320 43,701 44,40 45,50
47,50 49,10 50,230 51,90
53,100 56,450 57,6326 58,300
59,50 61,1892 62,70 69,4154
70,50 78,60 91,10 97,170
99,360 100,10 113,10 125,20
127,100 155,9999 156,581 157,50
##END=
