##TITLE=2-Butene, 2-chloro-1,1,1,4,4,4-hexafluoro-
##JCAMP-DX=4.24
##DATA TYPE=MASS SPECTRUM
##ORIGIN=GAZ DE FRANCE, DELORME, PARIS, FRANCE
##OWNER=NIST Mass Spectrometry Data Center
Collection (C) 2014 copyright by the U.S. Secretary of Commerce
on behalf of the United States of America. All rights reserved.
##CAS REGISTRY NO=400-44-2
##$NIST MASS SPEC NO=8919
##MOLFORM=C4 H Cl F6
##MW=198
##$NIST SOURCE=MSDC
##XUNITS=M/Z
##YUNITS=RELATIVE INTENSITY
##XFACTOR=1
##YFACTOR=1
##FIRSTX=31
##LASTX=200
##FIRSTY=2750
##MAXX=200
##MINX=31
##MAXY=9999
##MINY=10
##NPOINTS=71
##PEAK TABLE=(XY..XY)
31,2750 35,170 36,110 37,190
38,20 47,140 48,10 49,40
50,370 51,470 55,390 56,450
57,20 59,30 60,330 61,17
62,200 63,50 66,90 67,30
68,40 69,9770 70,120 71,20
72,20 74,420 75,3370 76,110
78,20 79,60 80,190 81,70
82,30 85,560 87,190 90,40
91,100 92,15 93,910 94,270
97,20 98,140 109,370 110,130
111,120 112,100 113,2480 114,70
116,40 118,10 124,70 125,20
129,9999 130,300 131,3330 132,110
143,60 144,50 147,240 148,960
149,100 150,310 151,10 163,960
164,40 179,2110 180,80 181,675
182,30 198,3400 200,1130
##END=
