##TITLE=Acetamide, N-butyl-2,2,2-trifluoro-
##JCAMP-DX=4.24
##DATA TYPE=MASS SPECTRUM
##OWNER=NIST Mass Spectrometry Data Center
Collection (C) 2014 copyright by the U.S. Secretary of Commerce
on behalf of the United States of America. All rights reserved.
##CAS REGISTRY NO=400-59-9
##$NIST MASS SPEC NO=32550
##MOLFORM=C6 H10 F3 N O
##MW=169
##$NIST SOURCE=MSDC
##XUNITS=M/Z
##YUNITS=RELATIVE INTENSITY
##XFACTOR=1
##YFACTOR=1
##FIRSTX=15
##LASTX=170
##FIRSTY=89
##MAXX=170
##MINX=15
##MAXY=9999
##MINY=10
##NPOINTS=72
##PEAK TABLE=(XY..XY)
15,89 17,18 18,67 26,82
27,1024 28,1183 29,1244 30,198
31,37 32,69 33,111 37,13
38,48 39,544 40,124 41,2578
42,360 43,688 44,208 45,71
46,110 47,90 49,12 50,81
51,144 52,21 53,85 54,80
55,705 56,3052 57,1728 58,1089
59,40 64,46 69,2447 70,173
71,55 72,58 76,12 77,30
78,996 79,146 82,20 84,34
91,18 92,67 93,56 94,205
95,13 96,72 97,317 98,175
99,10 100,1769 101,102 106,318
107,60 108,37 109,18 114,1663
126,9999 127,4131 128,269 129,17
136,19 140,1241 141,107 152,28
154,144 168,13 169,13 170,44
##END=
