##TITLE=Aniline, 2-nitro-4-trifluoromethyl-
##JCAMP-DX=4.24
##DATA TYPE=MASS SPECTRUM
##ORIGIN=Japan AIST/NIMC Database- Spectrum MS-IW- 61
##OWNER=NIST Mass Spectrometry Data Center
Collection (C) 2014 copyright by the U.S. Secretary of Commerce
on behalf of the United States of America. All rights reserved.
##CAS REGISTRY NO=400-98-6
##$NIST MASS SPEC NO=239078
##MOLFORM=C7 H5 F3 N2 O2
##MW=206
##$NIST SOURCE=MSDC
##XUNITS=M/Z
##YUNITS=RELATIVE INTENSITY
##XFACTOR=1
##YFACTOR=1
##FIRSTX=20
##LASTX=208
##FIRSTY=20
##MAXX=208
##MINX=20
##MAXY=9999
##MINY=10
##NPOINTS=136
##PEAK TABLE=(XY..XY)
20,20 26,20 27,50 28,359
29,20 30,339 31,60 32,10
37,99 38,189 39,219 40,50
41,139 42,20 43,10 44,50
45,50 46,60 49,20 50,149
51,229 52,599 53,109 54,60
55,10 56,30 57,209 58,10
59,20 60,10 61,119 62,269
63,839 64,339 65,249 66,60
68,30 69,289 70,60 71,20
72,30 73,10 74,60 75,289
76,139 77,60 78,149 79,40
80,30 81,129 82,99 83,519
84,60 85,10 86,10 87,70
88,169 89,159 90,219 91,259
92,60 93,50 94,50 95,229
96,90 97,20 98,149 99,60
100,99 101,229 102,50 103,40
104,10 105,70 106,40 107,99
108,109 109,129 110,259 111,30
112,80 113,1789 114,339 115,50
118,10 119,40 120,1129 121,119
122,30 123,20 125,10 126,80
127,109 128,169 129,70 130,10
131,50 132,339 133,1099 134,99
138,80 139,209 140,2399 141,599
142,40 143,169 144,20 145,109
146,50 147,50 148,1159 149,80
151,20 152,10 153,40 157,20
158,149 159,369 160,6159 161,489
162,20 169,10 171,10 172,10
175,10 176,1039 177,80 187,849
188,90 189,429 190,259 191,20
205,30 206,9999 207,899 208,70
##END=
