##TITLE=1-Naphthalenol, phosphate (3:1)
##JCAMP-DX=4.24
##DATA TYPE=MASS SPECTRUM
##ORIGIN=A.A.Kutin, Moscow, Russia
##OWNER=NIST Mass Spectrometry Data Center
Collection (C) 2014 copyright by the U.S. Secretary of Commerce
on behalf of the United States of America. All rights reserved.
##CAS REGISTRY NO=4004-51-7
##$NIST MASS SPEC NO=273399
##MOLFORM=C30 H21 O4 P
##MW=476
##$NIST SOURCE=MSDC
##XUNITS=M/Z
##YUNITS=RELATIVE INTENSITY
##XFACTOR=1
##YFACTOR=1
##FIRSTX=33
##LASTX=479
##FIRSTY=881
##MAXX=479
##MINX=33
##MAXY=9999
##MINY=5
##NPOINTS=114
##PEAK TABLE=(XY..XY)
33,881 36,30 39,436 40,405
41,102 42,75 44,611 45,19
47,39 50,112 51,264 53,53
55,66 57,147 58,14 59,6
62,87 63,396 64,75 65,243
66,8 69,7 70,8 71,5
74,142 75,280 77,766 78,45
81,7 86,39 87,75 88,107
89,666 91,14 93,7 98,28
99,65 100,59 101,314 102,43
105,8 113,294 115,8687 116,546
118,100 125,145 127,3870 128,639
130,47 131,44 133,92 142,64
143,1949 144,1916 145,150 159,22
161,28 165,50 173,92 187,49
189,2624 190,651 191,28 205,8
206,1043 207,115 215,39 222,36
223,17 224,72 225,25 226,38
227,7 228,7 238,232 239,341
240,196 241,577 242,283 243,32
250,109 252,2850 253,1313 255,286
267,149 268,702 269,1618 270,1880
271,404 272,15 286,14 287,5
297,30 313,21 314,32 315,338
316,59 330,5 332,570 333,878
334,137 348,164 349,282 350,56
377,10 378,6 396,57 471,50
472,84 474,378 476,9999 477,2583
478,462 479,52
##END=
