##TITLE=5-Chloro-2,4-dimethoxyphenyl isothiocyanate
##JCAMP-DX=4.24
##DATA TYPE=MASS SPECTRUM
##ORIGIN=NIST Mass Spectrometry Data Center, 1994
##OWNER=NIST Mass Spectrometry Data Center
Collection (C) 2014 copyright by the U.S. Secretary of Commerce
on behalf of the United States of America. All rights reserved.
##CAS REGISTRY NO=40046-27-3
##$NIST MASS SPEC NO=134937
##MOLFORM=C9 H8 Cl N O2 S
##MW=229
##$NIST SOURCE=MSDC
##XUNITS=M/Z
##YUNITS=RELATIVE INTENSITY
##XFACTOR=1
##YFACTOR=1
##FIRSTX=13
##LASTX=233
##FIRSTY=46
##MAXX=233
##MINX=13
##MAXY=9999
##MINY=35
##NPOINTS=163
##PEAK TABLE=(XY..XY)
13,46 15,3033 16,41 25,45
26,88 27,134 28,278 29,464
30,110 31,85 32,242 35,35
36,69 37,364 38,262 39,274
40,46 41,226 42,85 43,107
44,313 45,269 47,112 48,58
49,326 50,924 51,362 52,110
53,611 54,87 55,38 56,60
57,63 58,165 59,344 60,298
61,605 62,1025 63,987 64,794
65,276 66,175 67,39 68,38
69,1273 70,909 71,140 72,337
73,406 74,384 75,662 76,850
77,482 78,298 79,217 80,53
81,168 82,319 83,472 84,210
85,662 86,654 87,451 88,428
89,88 90,262 91,162 92,227
93,265 94,306 95,276 96,254
97,430 98,245 99,420 100,249
101,88 102,72 103,80 104,168
105,86 106,106 107,147 108,772
109,168 110,181 111,433 112,185
113,805 114,72 115,447 117,126
118,104 120,811 121,172 122,235
123,224 124,109 125,44 126,183
127,189 128,104 129,146 130,129
131,323 132,115 133,199 134,144
135,44 136,587 137,49 138,61
139,58 140,65 141,145 142,473
143,1852 144,308 145,1216 146,110
147,239 148,63 149,89 150,42
151,45 154,330 155,152 156,212
157,56 158,122 163,40 164,135
168,136 169,58 171,2592 172,320
173,897 174,103 175,48 179,47
182,37 183,83 184,76 185,37
186,6424 187,628 188,2442 189,224
190,89 196,579 197,192 198,277
199,65 214,5171 215,542 216,1918
217,187 218,85 229,9999 230,1183
231,3606 232,401 233,171
##END=
