##TITLE=1,3-trans,5-cis-Octatriene
##JCAMP-DX=4.24
##DATA TYPE=MASS SPECTRUM
##ORIGIN=K. SEFERIADIS, DEP. BIOLOG. CHEM., IOANNINA UNIV., GREEC
##OWNER=NIST Mass Spectrometry Data Center
Collection (C) 2014 copyright by the U.S. Secretary of Commerce
on behalf of the United States of America. All rights reserved.
##CAS REGISTRY NO=40087-61-4
##$NIST MASS SPEC NO=73871
##MOLFORM=C8 H12
##MW=108
##$NIST SOURCE=MSDC
##XUNITS=M/Z
##YUNITS=RELATIVE INTENSITY
##XFACTOR=1
##YFACTOR=1
##FIRSTX=26
##LASTX=109
##FIRSTY=270
##MAXX=109
##MINX=26
##MAXY=9999
##MINY=140
##NPOINTS=25
##PEAK TABLE=(XY..XY)
26,270 27,1900 29,410 38,230
39,3120 40,420 41,2200 50,460
51,1200 52,730 53,1250 63,400
65,1330 66,1700 77,4800 78,1500
79,9999 80,1240 91,4000 93,3540
94,240 105,140 107,170 108,5770
109,480
##END=
