##TITLE=3,4-Pentadienal
##JCAMP-DX=4.24
##DATA TYPE=MASS SPECTRUM
##OWNER=NIST Mass Spectrometry Data Center
Collection (C) 2014 copyright by the U.S. Secretary of Commerce
on behalf of the United States of America. All rights reserved.
##CAS REGISTRY NO=4009-55-6
##$NIST MASS SPEC NO=458
##MOLFORM=C5 H6 O
##MW=82
##$NIST SOURCE=MSDC
##XUNITS=M/Z
##YUNITS=RELATIVE INTENSITY
##XFACTOR=1
##YFACTOR=1
##FIRSTX=12
##LASTX=82
##FIRSTY=240
##MAXX=82
##MINX=12
##MAXY=9999
##MINY=130
##NPOINTS=31
##PEAK TABLE=(XY..XY)
12,240 13,370 14,871 15,2362
24,150 25,370 26,1301 27,4614
28,2362 29,1732 30,130 31,270
36,130 37,771 38,1331 39,9999
40,571 41,821 42,831 43,1121
45,240 49,130 50,500 51,601
52,400 53,4834 54,1672 55,1131
56,180 81,1902 82,1001
##END=
