##TITLE=3,5-Bis(trifluoromethyl)benzaldehyde
##JCAMP-DX=4.24
##DATA TYPE=MASS SPECTRUM
##ORIGIN=NIST Mass Spectrometry Data Center, 1994
##OWNER=NIST Mass Spectrometry Data Center
Collection (C) 2014 copyright by the U.S. Secretary of Commerce
on behalf of the United States of America. All rights reserved.
##CAS REGISTRY NO=401-95-6
##$NIST MASS SPEC NO=136120
##MOLFORM=C9 H4 F6 O
##MW=242
##$NIST SOURCE=MSDC
##XUNITS=M/Z
##YUNITS=RELATIVE INTENSITY
##XFACTOR=1
##YFACTOR=1
##FIRSTX=19
##LASTX=244
##FIRSTY=20
##MAXX=244
##MINX=19
##MAXY=9999
##MINY=7
##NPOINTS=92
##PEAK TABLE=(XY..XY)
19,20 20,34 26,48 28,130
29,2092 30,26 31,363 32,7
36,31 37,168 38,226 39,126
49,115 50,858 51,403 53,62
56,103 57,338 61,179 62,233
63,135 68,167 69,1441 70,43
73,166 74,960 75,2135 76,167
77,34 79,60 80,146 81,188
84,26 85,150 86,126 87,217
88,101 92,117 93,330 94,345
95,408 96,30 97,94 98,26
99,719 100,123 101,101 103,45
104,102 105,165 106,82 107,77
111,116 112,87 113,184 114,209
117,75 118,74 119,122 123,300
124,147 125,999 126,173 137,68
143,1357 144,1437 145,1864 146,148
155,69 156,44 161,46 162,264
163,2290 164,576 165,36 173,47
174,64 175,86 193,282 194,858
195,710 196,76 213,6844 214,749
215,36 223,3060 224,326 225,24
241,9999 242,5206 243,462 244,36
##END=
