##TITLE=1-Fluoro-3-(trifluoro-methyl)benzene
##JCAMP-DX=4.24
##DATA TYPE=MASS SPECTRUM
##ORIGIN=NIST Mass Spectrometry Data Center
##OWNER=NIST Mass Spectrometry Data Center
Collection (C) 2014 copyright by the U.S. Secretary of Commerce
on behalf of the United States of America. All rights reserved.
##CAS REGISTRY NO=401-80-9
##$NIST MASS SPEC NO=342295
##MOLFORM=C7 H4 F4
##MW=164
##$NIST SOURCE=MSDC
##XUNITS=M/Z
##YUNITS=RELATIVE INTENSITY
##XFACTOR=1
##YFACTOR=1
##FIRSTX=12
##LASTX=166
##FIRSTY=10
##MAXX=166
##MINX=12
##MAXY=9999
##MINY=10
##NPOINTS=91
##PEAK TABLE=(XY..XY)
12,10 18,10 19,20 20,30
26,120 27,60 28,20 31,1001
32,20 33,50 37,530 38,520
39,400 40,10 44,70 45,50
46,20 47,20 48,40 49,320
50,1862 51,801 52,20 55,60
56,260 57,561 58,20 60,50
61,380 62,490 63,761 64,90
68,871 69,1982 70,190 73,721
74,1141 75,3463 76,300 77,30
79,60 80,130 81,200 82,200
83,10 84,10 85,50 86,40
87,110 88,390 89,30 92,200
93,480 94,741 95,2112 96,140
99,400 100,70 101,30 103,20
104,40 105,40 106,50 107,20
110,10 111,30 112,170 114,7957
115,540 116,20 117,70 118,60
119,140 120,20 122,10 123,90
125,621 126,70 132,20 137,30
141,10 143,571 145,8177 146,661
147,20 159,10 160,10 163,3954
164,9999 165,791 166,30
##END=
