##TITLE=2-Benzoyloxyacetophenone
##JCAMP-DX=4.24
##DATA TYPE=MASS SPECTRUM
##ORIGIN=NIST Mass Spectrometry Data Center, 1994
##OWNER=NIST Mass Spectrometry Data Center
Collection (C) 2014 copyright by the U.S. Secretary of Commerce
on behalf of the United States of America. All rights reserved.
##CAS REGISTRY NO=4010-33-7
##$NIST MASS SPEC NO=135484
##MOLFORM=C15 H12 O3
##MW=240
##$NIST SOURCE=MSDC
##XUNITS=M/Z
##YUNITS=RELATIVE INTENSITY
##XFACTOR=1
##YFACTOR=1
##FIRSTX=4
##LASTX=241
##FIRSTY=32
##MAXX=241
##MINX=4
##MAXY=9999
##MINY=9
##NPOINTS=52
##PEAK TABLE=(XY..XY)
4,32 14,13 15,128 17,14
18,24 26,31 27,172 28,49
37,50 38,214 39,412 40,23
41,9 42,48 43,800 44,31
50,585 51,1656 52,128 53,132
55,15 61,27 62,100 63,402
64,301 65,190 66,39 74,136
75,150 77,4492 78,340 79,136
89,32 90,19 91,71 92,335
93,51 94,14 101,14 102,9
105,9999 106,773 107,162 115,54
120,56 121,74 139,20 141,14
212,10 222,24 240,250 241,39
##END=
