##TITLE=2,2,6,6-Tetramethylheptane
##JCAMP-DX=4.24
##DATA TYPE=MASS SPECTRUM
##ORIGIN=NIST Mass Spectrometry Data Center, 1990.
##OWNER=NIST Mass Spectrometry Data Center
Collection (C) 2014 copyright by the U.S. Secretary of Commerce
on behalf of the United States of America. All rights reserved.
##CAS REGISTRY NO=40117-45-1
##$NIST MASS SPEC NO=114268
##MOLFORM=C11 H24
##MW=156
##$NIST SOURCE=MSDC
##XUNITS=M/Z
##YUNITS=RELATIVE INTENSITY
##XFACTOR=1
##YFACTOR=1
##FIRSTX=14
##LASTX=156
##FIRSTY=80
##MAXX=156
##MINX=14
##MAXY=9999
##MINY=9
##NPOINTS=51
##PEAK TABLE=(XY..XY)
14,80 15,28 16,49 18,12
27,452 28,173 29,1076 30,27
39,832 40,301 41,3813 42,273
43,2159 44,111 45,10 50,19
51,69 52,35 53,293 54,10
55,1638 56,7088 57,9999 58,487
59,16 63,75 65,44 66,15
67,128 68,31 69,346 70,15
71,2316 72,129 77,34 79,40
81,43 82,11 83,100 84,11
85,2624 86,155 91,14 95,9
97,65 98,161 99,81 140,31
141,284 142,30 156,17
##END=
