##TITLE=Disulfide, ethyl 2-methylpropyl
##JCAMP-DX=4.24
##DATA TYPE=MASS SPECTRUM
##ORIGIN=UNION OIL CO. OF CALIFORNIA, BREA, CAL, USA
##OWNER=NIST Mass Spectrometry Data Center
Collection (C) 2014 copyright by the U.S. Secretary of Commerce
on behalf of the United States of America. All rights reserved.
##CAS REGISTRY NO=40136-66-1
##$NIST MASS SPEC NO=34439
##MOLFORM=C6 H14 S2
##MW=150
##$NIST SOURCE=MSDC
##XUNITS=M/Z
##YUNITS=RELATIVE INTENSITY
##XFACTOR=1
##YFACTOR=1
##FIRSTX=27
##LASTX=151
##FIRSTY=5176
##MAXX=151
##MINX=27
##MAXY=9999
##MINY=12
##NPOINTS=87
##PEAK TABLE=(XY..XY)
27,5176 28,857 29,9999 30,235
31,12 32,94 33,82 34,141
35,786 36,35 37,82 38,82
39,469 40,59 41,2183 42,188
43,646 44,188 45,1408 46,493
47,411 48,47 49,35 50,35
51,117 52,35 53,82 54,35
55,270 56,117 57,2934 58,587
59,1056 60,1127 61,798 62,211
63,59 64,798 65,317 66,9507
67,153 68,810 69,35 70,59
71,70 72,35 73,70 74,12
75,47 76,70 77,94 78,106
79,974 80,35 81,82 82,23
83,23 84,23 85,23 86,23
87,23 88,23 89,23 90,35
91,646 92,117 93,540 94,6890
95,200 96,587 97,35 98,23
99,23 100,59 101,82 102,23
103,23 104,12 105,223 106,282
107,82 120,35 122,7160 123,129
124,493 150,1162 151,23
##END=
