##TITLE=4H-Pyrrolo[3,2,1-ij]quinoline, 1,2,5,6-tetrahydro-6-methyl-
##JCAMP-DX=4.24
##DATA TYPE=MASS SPECTRUM
##OWNER=NIST Mass Spectrometry Data Center
Collection (C) 2014 copyright by the U.S. Secretary of Commerce
on behalf of the United States of America. All rights reserved.
##CAS REGISTRY NO=40135-93-1
##$NIST MASS SPEC NO=32422
##MOLFORM=C12 H15 N
##MW=173
##$NIST SOURCE=MSDC
##XUNITS=M/Z
##YUNITS=RELATIVE INTENSITY
##XFACTOR=1
##YFACTOR=1
##FIRSTX=89
##LASTX=174
##FIRSTY=900
##MAXX=174
##MINX=89
##MAXY=9999
##MINY=500
##NPOINTS=20
##PEAK TABLE=(XY..XY)
89,900 90,500 91,1400 103,850
115,1800 117,700 118,700 128,1000
130,4500 131,700 143,1500 144,800
154,800 156,2100 157,1100 158,9999
159,1300 172,3000 173,4999 174,600
##END=
