##TITLE=4-Bromo-3-fluorobenzotrifluoride
##JCAMP-DX=4.24
##DATA TYPE=MASS SPECTRUM
##ORIGIN=NIST Mass Spectrometry Data Center
##OWNER=NIST Mass Spectrometry Data Center
Collection (C) 2014 copyright by the U.S. Secretary of Commerce
on behalf of the United States of America. All rights reserved.
##CAS REGISTRY NO=40161-54-4
##$NIST MASS SPEC NO=342722
##MOLFORM=C7 H3 Br F4
##MW=242
##$NIST SOURCE=MSDC
##XUNITS=M/Z
##YUNITS=RELATIVE INTENSITY
##XFACTOR=1
##YFACTOR=1
##FIRSTX=16
##LASTX=246
##FIRSTY=20
##MAXX=246
##MINX=16
##MAXY=9999
##MINY=20
##NPOINTS=98
##PEAK TABLE=(XY..XY)
16,20 17,20 18,70 25,40
28,591 31,120 32,220 36,70
37,460 38,370 39,50 44,50
47,60 48,30 49,320 50,1391
51,300 55,80 56,290 57,250
60,80 61,571 62,741 63,911
64,50 68,1141 69,1722 70,30
72,150 73,360 74,1011 75,1441
76,70 78,20 79,530 80,180
81,561 82,150 85,70 86,70
87,110 88,50 91,70 92,490
93,1141 94,1712 95,130 96,60
97,60 98,50 99,350 101,50
102,110 104,80 105,60 106,50
110,30 111,350 112,671 113,1651
114,120 117,170 118,60 119,40
121,70 122,110 123,200 124,50
125,290 128,30 130,40 132,40
135,30 136,20 137,80 141,40
143,1702 144,1251 145,80 153,40
154,20 155,20 161,110 163,4794
164,370 173,120 175,90 192,1812
194,1852 195,120 223,2402 225,2352
226,210 242,9999 243,1201 244,9018
245,761 246,20
##END=
