##TITLE=1,1'-Biphenyl, 2,2',3,3',4,5',6,6'-octachloro-
##JCAMP-DX=4.24
##DATA TYPE=MASS SPECTRUM
##ORIGIN=N. Todua, WGM, MMES
##OWNER=NIST Mass Spectrometry Data Center
Collection (C) 2014 copyright by the U.S. Secretary of Commerce
on behalf of the United States of America. All rights reserved.
##CAS REGISTRY NO=40186-71-8
##$NIST MASS SPEC NO=334783
##MOLFORM=C12 H2 Cl8
##MW=426
##$NIST SOURCE=MSDC
##XUNITS=M/Z
##YUNITS=RELATIVE INTENSITY
##XFACTOR=1
##YFACTOR=1
##FIRSTX=42
##LASTX=439
##FIRSTY=125
##MAXX=439
##MINX=42
##MAXY=9999
##MINY=125
##NPOINTS=198
##PEAK TABLE=(XY..XY)
42,125 43,188 47,188 48,188
58,125 59,125 60,188 61,251
66,125 67,125 71,188 72,251
73,376 74,188 77,125 78,188
79,125 81,125 83,188 84,313
85,251 86,188 89,188 90,251
91,251 94,188 95,188 96,251
97,188 98,188 106,188 107,313
108,502 109,376 110,251 111,125
113,125 114,188 115,125 118,188
119,251 120,313 122,251 123,188
124,125 126,251 127,251 130,188
131,188 132,313 133,188 134,188
136,125 141,125 143,564 144,690
145,439 146,313 147,188 148,188
149,188 150,188 151,125 152,125
154,188 155,188 156,251 157,188
158,188 159,125 160,251 161,313
163,251 164,125 165,125 166,188
167,188 168,188 169,188 170,188
178,502 179,940 180,940 181,439
182,251 183,188 189,125 190,188
191,188 192,188 193,125 194,188
195,188 196,188 197,188 198,188
199,125 201,125 202,188 203,188
204,188 205,125 206,125 213,251
214,439 215,502 216,627 217,313
218,313 219,188 220,188 226,188
227,125 228,188 229,188 237,188
238,125 239,188 241,188 242,125
249,188 250,251 251,313 252,251
253,313 254,188 255,188 256,125
261,125 262,125 263,125 264,188
265,125 266,125 271,188 272,125
273,188 274,125 275,188 276,125
277,125 285,188 286,1003 287,313
288,1191 289,313 290,627 291,251
292,251 293,125 296,188 297,188
300,188 301,125 311,125 320,188
321,376 322,313 323,564 324,251
325,439 326,188 327,188 328,125
329,125 356,1996 357,439 358,3751
359,3187 361,564 362,1379 363,313
364,376 365,188 366,188 391,125
392,251 393,188 394,376 395,188
396,313 397,188 398,251 399,188
426,3249 427,502 428,8505 429,1191
430,9999 431,1379 432,6562 433,878
434,2623 435,376 436,690 437,188
438,251 439,125
##END=
