##TITLE=2,2',3,3',4,5',6-Heptachlorobiphenyl
##JCAMP-DX=4.24
##DATA TYPE=MASS SPECTRUM
##ORIGIN=Organic Synthesis Lab, MSU, Moscow.TRC 1212
##OWNER=NIST Mass Spectrometry Data Center
Collection (C) 2014 copyright by the U.S. Secretary of Commerce
on behalf of the United States of America. All rights reserved.
##CAS REGISTRY NO=40186-70-7
##$NIST MASS SPEC NO=326597
##MOLFORM=C12 H3 Cl7
##MW=392
##$NIST SOURCE=MSDC
##XUNITS=M/Z
##YUNITS=RELATIVE INTENSITY
##XFACTOR=1
##YFACTOR=1
##FIRSTX=41
##LASTX=404
##FIRSTY=40
##MAXX=404
##MINX=41
##MAXY=9999
##MINY=24
##NPOINTS=170
##PEAK TABLE=(XY..XY)
41,40 43,82 44,393 47,45
49,72 50,50 58,31 60,79
61,198 62,39 68,70 71,75
72,71 73,324 74,195 78,103
83,72 84,176 85,199 86,147
92,95 95,105 96,162 97,204
98,230 99,50 102,36 108,625
109,403 110,215 111,70 113,53
114,71 118,66 119,112 120,120
121,280 122,270 123,61 126,983
127,1258 128,313 129,57 131,173
132,354 133,275 134,118 135,75
139,24 141,32 142,87 143,687
144,1123 145,704 146,596 147,194
149,32 150,96 152,60 156,180
157,118 158,90 159,64 161,2069
162,3770 163,2226 164,773 165,182
166,51 167,125 168,148 169,136
170,71 171,47 178,177 179,334
180,459 181,398 182,566 183,157
184,193 191,61 192,176 193,95
194,111 195,47 196,596 197,1399
198,1322 199,678 200,239 201,81
202,62 203,141 204,72 205,112
207,56 215,96 216,502 217,499
218,328 219,280 220,77 221,71
227,60 228,70 229,75 230,61
237,33 238,115 239,76 240,114
241,53 242,74 250,77 251,228
252,2161 253,415 254,1918 255,366
256,704 257,82 258,107 262,78
264,104 266,72 268,56 270,79
274,56 278,33 285,28 286,298
287,393 288,435 289,674 290,240
291,268 292,52 293,87 322,4483
323,596 324,6973 325,988 326,4720
327,657 328,1169 329,171 330,158
331,49 356,58 357,1693 358,249
359,3337 360,472 361,3256 362,408
363,1228 364,138 365,182 392,4424
394,9471 395,1527 396,9999 397,1590
398,5993 399,779 400,1862 401,233
402,390 404,51
##END=
