##TITLE=4-Chlorobenzenamide, N-(4-methoxyphenyl)-
##JCAMP-DX=4.24
##DATA TYPE=MASS SPECTRUM
##ORIGIN=Zaikin V.G., TIPS RAS, Moscow, Russia
##OWNER=NIST Mass Spectrometry Data Center
Collection (C) 2014 copyright by the U.S. Secretary of Commerce
on behalf of the United States of America. All rights reserved.
##CAS REGISTRY NO=4018-82-0
##$NIST MASS SPEC NO=307398
##MOLFORM=C14 H12 Cl N O2
##MW=261
##$NIST SOURCE=MSDC
##XUNITS=M/Z
##YUNITS=RELATIVE INTENSITY
##XFACTOR=1
##YFACTOR=1
##FIRSTX=28
##LASTX=265
##FIRSTY=10
##MAXX=265
##MINX=28
##MAXY=9999
##MINY=10
##NPOINTS=51
##PEAK TABLE=(XY..XY)
28,10 36,40 39,60 41,140
44,30 50,170 51,150 52,210
53,130 63,80 64,70 65,100
67,40 74,80 75,661 76,260
77,100 78,70 79,100 80,140
81,40 85,50 91,30 92,30
95,360 104,150 106,50 107,50
108,90 109,80 110,40 111,2342
112,200 113,771 114,60 122,561
123,140 124,330 125,20 134,40
139,9999 140,781 141,3393 142,240
154,40 260,30 261,5195 262,881
263,1772 264,270 265,30
##END=
