##TITLE=3-Trifluoromethylbenzyl bromide
##JCAMP-DX=4.24
##DATA TYPE=MASS SPECTRUM
##ORIGIN=NIST Mass Spectrometry Data Center, 1994
##OWNER=NIST Mass Spectrometry Data Center
Collection (C) 2014 copyright by the U.S. Secretary of Commerce
on behalf of the United States of America. All rights reserved.
##CAS REGISTRY NO=402-23-3
##$NIST MASS SPEC NO=136747
##MOLFORM=C8 H6 Br F3
##MW=238
##$NIST SOURCE=MSDC
##XUNITS=M/Z
##YUNITS=RELATIVE INTENSITY
##XFACTOR=1
##YFACTOR=1
##FIRSTX=12
##LASTX=241
##FIRSTY=11
##MAXX=241
##MINX=12
##MAXY=9999
##MINY=8
##NPOINTS=95
##PEAK TABLE=(XY..XY)
12,11 18,28 20,30 25,17
26,96 27,15 33,31 36,20
37,237 38,634 39,1100 40,89
44,19 49,94 50,732 51,690
52,113 53,11 56,60 57,290
60,74 61,326 62,845 63,1555
64,367 65,69 69,929 70,308
73,8 75,422 76,57 77,32
78,8 79,380 80,99 81,465
82,86 83,395 84,50 85,118
86,212 87,317 88,285 89,1262
90,469 91,56 92,33 93,61
94,46 95,97 96,25 99,292
100,64 101,85 105,22 106,30
107,306 108,22 109,2816 110,236
111,30 112,68 113,185 114,213
115,17 117,23 119,907 120,172
121,32 125,38 127,28 131,20
132,130 133,83 137,105 138,272
139,371 140,316 141,30 143,16
156,29 157,87 159,9999 160,876
161,36 169,70 171,65 219,232
220,28 221,236 222,21 238,213
239,33 240,208 241,19
##END=
