##TITLE=Benzene, 1-bromo-4-(trifluoromethyl)-
##JCAMP-DX=4.24
##DATA TYPE=MASS SPECTRUM
##ORIGIN=Chuck Anderson, Aldrich Chemical Co.
##OWNER=NIST Mass Spectrometry Data Center
Collection (C) 2014 copyright by the U.S. Secretary of Commerce
on behalf of the United States of America. All rights reserved.
##CAS REGISTRY NO=402-43-7
##$NIST MASS SPEC NO=107349
##MOLFORM=C7 H4 Br F3
##MW=224
##$NIST SOURCE=MSDC
##XUNITS=M/Z
##YUNITS=RELATIVE INTENSITY
##XFACTOR=1
##YFACTOR=1
##FIRSTX=25
##LASTX=228
##FIRSTY=12
##MAXX=228
##MINX=25
##MAXY=9999
##MINY=5
##NPOINTS=107
##PEAK TABLE=(XY..XY)
25,12 26,52 27,64 31,227
33,6 36,56 37,505 38,693
39,208 43,10 44,12 45,8
47,27 48,41 49,431 50,3226
51,761 52,36 53,58 55,15
56,83 57,426 58,12 60,43
61,234 62,482 63,766 68,193
69,994 70,42 72,204 73,676
74,2204 75,3840 76,1278 77,119
78,17 79,196 80,129 81,342
82,33 84,23 85,78 86,52
87,187 88,171 91,15 92,92
93,221 94,477 95,2431 96,139
99,613 100,143 101,41 102,298
103,409 104,139 105,61 106,65
107,160 108,7 111,5 112,66
113,53 114,16 116,16 117,38
118,64 119,201 120,7 123,78
124,36 125,1289 126,596 127,44
128,25 129,26 130,26 131,22
141,6 143,225 144,349 145,7999
147,18 153,13 154,5 155,88
156,5 157,75 173,7 174,551
175,36 176,551 177,34 179,5
204,19 205,1681 206,100 207,1636
208,95 223,126 224,9999 225,687
226,9544 227,568 228,16
##END=
