##TITLE=Benzene, 1,3-bis(trifluoromethyl)-
##JCAMP-DX=4.24
##DATA TYPE=MASS SPECTRUM
##ORIGIN=Japan AIST/NIMC Database- Spectrum MS-NW-6458
##OWNER=NIST Mass Spectrometry Data Center
Collection (C) 2014 copyright by the U.S. Secretary of Commerce
on behalf of the United States of America. All rights reserved.
##CAS REGISTRY NO=402-31-3
##$NIST MASS SPEC NO=236252
##MOLFORM=C8 H4 F6
##MW=214
##$NIST SOURCE=MSDC
##XUNITS=M/Z
##YUNITS=RELATIVE INTENSITY
##XFACTOR=1
##YFACTOR=1
##FIRSTX=20
##LASTX=216
##FIRSTY=10
##MAXX=216
##MINX=20
##MAXY=9999
##MINY=10
##NPOINTS=111
##PEAK TABLE=(XY..XY)
20,10 26,40 27,50 28,149
31,329 32,10 36,20 37,139
38,209 39,169 43,10 44,30
45,10 48,10 49,90 50,769
51,339 52,20 53,10 55,10
56,70 57,319 58,10 60,10
61,90 62,149 63,139 64,10
68,90 69,779 70,50 72,20
73,90 74,469 75,1269 76,259
77,40 78,10 79,40 80,90
81,159 82,10 83,20 84,10
85,50 86,40 87,80 88,229
89,10 91,10 92,40 93,119
94,139 95,929 96,60 97,60
98,20 99,399 100,99 101,60
103,20 104,40 105,60 106,50
107,129 108,20 111,10 112,30
113,80 114,599 115,40 117,30
118,40 119,179 120,20 123,90
124,40 125,859 126,369 127,40
130,10 132,10 137,30 142,10
143,299 144,529 145,6639 146,529
147,20 150,10 155,60 156,20
162,30 163,669 164,3069 165,259
169,10 174,20 175,60 176,50
177,10 193,40 194,289 195,6789
196,629 197,30 212,10 213,969
214,9999 215,919 216,40
##END=
