##TITLE=Methyl diphenylphosphinite
##JCAMP-DX=4.24
##DATA TYPE=MASS SPECTRUM
##ORIGIN=Japan AIST/NIMC Database- Spectrum MS-IW-1198
##OWNER=NIST Mass Spectrometry Data Center
Collection (C) 2014 copyright by the U.S. Secretary of Commerce
on behalf of the United States of America. All rights reserved.
##CAS REGISTRY NO=4020-99-9
##$NIST MASS SPEC NO=237944
##MOLFORM=C13 H13 O P
##MW=216
##$NIST SOURCE=MSDC
##XUNITS=M/Z
##YUNITS=RELATIVE INTENSITY
##XFACTOR=1
##YFACTOR=1
##FIRSTX=15
##LASTX=220
##FIRSTY=70
##MAXX=220
##MINX=15
##MAXY=9999
##MINY=10
##NPOINTS=127
##PEAK TABLE=(XY..XY)
15,70 27,70 28,90 29,219
30,40 31,549 32,419 38,10
39,209 40,20 41,60 44,10
45,10 47,339 50,199 51,919
52,80 53,30 54,279 55,20
56,40 57,119 62,80 63,99
64,20 65,229 66,60 67,259
68,50 69,80 70,10 73,10
74,60 75,70 76,80 77,2119
78,279 79,149 80,139 81,119
82,40 83,189 85,10 87,10
89,30 90,10 91,349 92,119
93,60 94,30 95,249 96,70
98,10 99,10 101,10 102,30
103,10 104,20 105,40 106,10
107,469 108,469 109,1779 110,119
111,10 115,109 116,20 120,10
121,30 123,209 124,80 125,70
126,40 127,40 128,159 129,109
130,10 131,10 133,139 134,10
137,10 139,489 140,50 141,99
142,50 144,10 145,20 147,30
150,20 151,70 152,409 153,299
154,519 155,249 156,50 157,119
158,10 159,10 165,10 168,10
169,10 170,99 171,209 172,30
173,459 174,50 181,40 182,20
183,959 184,169 185,199 186,159
187,20 199,279 200,60 201,9999
202,1399 203,119 204,10 213,10
214,10 215,809 216,5319 217,769
218,80 219,20 220,10
##END=
