##TITLE=Levo-menthoxyacetic acid
##JCAMP-DX=4.24
##DATA TYPE=MASS SPECTRUM
##ORIGIN=Japan AIST/NIMC Database- Spectrum MS-NW-3655
##OWNER=NIST Mass Spectrometry Data Center
Collection (C) 2014 copyright by the U.S. Secretary of Commerce
on behalf of the United States of America. All rights reserved.
##CAS REGISTRY NO=40248-63-3
##$NIST MASS SPEC NO=230553
##MOLFORM=C12 H22 O3
##MW=214
##$NIST SOURCE=MSDC
##XUNITS=M/Z
##YUNITS=RELATIVE INTENSITY
##XFACTOR=1
##YFACTOR=1
##FIRSTX=14
##LASTX=214
##FIRSTY=30
##MAXX=214
##MINX=14
##MAXY=9999
##MINY=10
##NPOINTS=118
##PEAK TABLE=(XY..XY)
14,30 15,90 17,20 18,70
26,40 27,1449 28,359 29,1509
30,99 31,949 32,20 38,40
39,1339 40,239 41,4829 42,569
43,2499 44,139 45,269 46,20
49,60 50,40 51,169 52,99
53,1029 54,809 55,5959 56,1409
57,2279 58,109 59,219 60,269
61,559 62,20 63,40 64,10
65,239 66,119 67,3309 68,1699
69,3719 70,689 71,4259 72,209
73,149 74,20 75,60 76,40
77,409 78,80 79,519 80,889
81,9999 82,4789 83,4159 84,369
85,589 86,50 87,20 88,20
89,90 91,169 92,30 93,289
94,619 95,8539 96,2809 97,859
98,80 99,529 100,30 102,159
103,50 105,30 107,60 108,30
109,1419 110,869 111,249 112,90
113,99 114,10 115,219 116,50
117,20 119,10 121,70 122,20
123,4579 124,479 125,50 127,10
128,70 129,9219 130,659 131,90
132,10 136,20 137,709 138,3769
139,1119 140,109 141,20 142,30
143,589 144,60 145,10 153,20
154,10 155,1129 156,129 157,249
158,30 169,20 171,30 199,20
213,10 214,10
##END=
