##TITLE=2,8,9-Trioxa-5-aza-1-silabicyclo(3.3.3)undecane, 1-methoxy-
##JCAMP-DX=4.24
##DATA TYPE=MASS SPECTRUM
##ORIGIN=A.A.Kutin, Moscow, Russia
##OWNER=NIST Mass Spectrometry Data Center
Collection (C) 2014 copyright by the U.S. Secretary of Commerce
on behalf of the United States of America. All rights reserved.
##CAS REGISTRY NO=4025-80-3
##$NIST MASS SPEC NO=259241
##MOLFORM=C7 H15 N O4 Si
##MW=205
##$NIST SOURCE=MSDC
##XUNITS=M/Z
##YUNITS=RELATIVE INTENSITY
##XFACTOR=1
##YFACTOR=1
##FIRSTX=40
##LASTX=205
##FIRSTY=166
##MAXX=205
##MINX=40
##MAXY=9999
##MINY=166
##NPOINTS=48
##PEAK TABLE=(XY..XY)
40,166 41,577 42,1683 43,947
44,577 45,1591 47,510 54,248
55,323 56,834 57,245 58,627
59,1716 60,290 61,1146 65,790
70,308 71,186 72,230 73,268
74,453 75,1626 76,190 77,699
80,611 86,445 87,359 88,505
89,1166 91,174 100,812 101,346
102,618 103,321 116,503 117,1300
118,210 128,310 130,6101 131,638
132,305 144,363 146,612 172,240
174,9999 175,1283 176,428 205,354
##END=
