##TITLE=m-(Chlorosulfonyl)benzoic acid
##JCAMP-DX=4.24
##DATA TYPE=MASS SPECTRUM
##ORIGIN=LAC, NIDDK, NIH, Bethesda, MD 20892
##OWNER=NIST Mass Spectrometry Data Center
Collection (C) 2014 copyright by the U.S. Secretary of Commerce
on behalf of the United States of America. All rights reserved.
##CAS REGISTRY NO=4025-64-3
##$NIST MASS SPEC NO=211281
##MOLFORM=C7 H5 Cl O4 S
##MW=220
##$NIST SOURCE=MSDC
##XUNITS=M/Z
##YUNITS=RELATIVE INTENSITY
##XFACTOR=1
##YFACTOR=1
##FIRSTX=41
##LASTX=225
##FIRSTY=55
##MAXX=225
##MINX=41
##MAXY=9999
##MINY=3
##NPOINTS=115
##PEAK TABLE=(XY..XY)
41,55 42,45 43,84 45,1794
47,96 48,793 49,603 50,4044
51,1685 53,711 54,31 55,119
57,124 58,66 59,38 60,21
61,176 62,150 63,781 65,8701
66,466 67,62 69,434 70,146
71,53 73,333 74,1778 75,2122
76,3113 77,454 78,65 79,35
81,281 82,113 83,65 84,381
85,90 86,166 87,21 88,27
89,6 90,4 91,38 92,454
93,742 95,195 96,85 97,73
99,231 101,102 102,7 103,505
104,378 105,69 106,36 107,45
108,68 109,51 110,7 111,271
112,20 113,136 114,16 115,8
116,5 119,47 121,8772 122,571
123,112 124,58 125,18 126,23
127,11 128,20 129,7 130,3
135,21 137,68 139,344 140,59
141,124 142,10 149,12 151,3
152,20 153,17 154,27 155,8
156,63 157,3 158,28 159,11
167,3 169,288 170,26 171,20
175,98 176,4 177,47 183,63
185,9999 186,970 187,467 188,44
189,13 203,463 205,215 206,9
207,8 220,2753 221,234 222,1086
223,96 224,56 225,3
##END=
