##TITLE=2-Iodo-3-pyridinol
##JCAMP-DX=4.24
##DATA TYPE=MASS SPECTRUM
##ORIGIN=Japan AIST/NIMC Database- Spectrum MS-NW-6670
##OWNER=NIST Mass Spectrometry Data Center
Collection (C) 2014 copyright by the U.S. Secretary of Commerce
on behalf of the United States of America. All rights reserved.
##CAS REGISTRY NO=40263-57-8
##$NIST MASS SPEC NO=235334
##MOLFORM=C5 H4 I N O
##MW=221
##$NIST SOURCE=MSDC
##XUNITS=M/Z
##YUNITS=RELATIVE INTENSITY
##XFACTOR=1
##YFACTOR=1
##FIRSTX=12
##LASTX=223
##FIRSTY=20
##MAXX=223
##MINX=12
##MAXY=9999
##MINY=10
##NPOINTS=70
##PEAK TABLE=(XY..XY)
12,20 13,10 14,40 15,40
16,10 24,20 25,40 26,159
27,109 28,189 29,149 30,10
31,40 32,10 36,50 37,559
38,1319 39,4509 40,569 41,80
42,70 43,70 44,60 45,20
46,10 48,20 49,90 50,129
51,119 52,99 53,109 54,339
55,40 56,10 57,10 62,40
63,129 64,589 65,859 66,2429
67,1239 68,90 69,20 70,10
71,10 73,10 74,10 75,80
76,129 77,30 82,10 91,10
92,10 93,409 94,7999 95,559
96,40 110,139 111,10 127,789
128,189 129,30 131,10 139,10
192,149 193,20 220,10 221,9999
222,619 223,40
##END=
