##TITLE=3-Methyl-1-hexyne
##JCAMP-DX=4.24
##DATA TYPE=MASS SPECTRUM
##ORIGIN=NIST Mass Spectrometry Data Center, 1994
##OWNER=NIST Mass Spectrometry Data Center
Collection (C) 2014 copyright by the U.S. Secretary of Commerce
on behalf of the United States of America. All rights reserved.
##CAS REGISTRY NO=40276-93-5
##$NIST MASS SPEC NO=136949
##MOLFORM=C7 H12
##MW=96
##$NIST SOURCE=MSDC
##XUNITS=M/Z
##YUNITS=RELATIVE INTENSITY
##XFACTOR=1
##YFACTOR=1
##FIRSTX=12
##LASTX=96
##FIRSTY=30
##MAXX=96
##MINX=12
##MAXY=9999
##MINY=19
##NPOINTS=53
##PEAK TABLE=(XY..XY)
12,30 13,71 14,148 15,1189
16,32 18,57 25,77 26,1117
27,9784 28,989 29,1885 30,39
36,28 37,370 38,1016 39,9999
40,1245 41,9810 42,1138 43,5052
44,160 48,21 49,211 50,1926
51,2963 52,1550 53,6124 54,7647
55,2259 56,649 57,55 60,19
61,116 62,277 63,487 64,90
65,1166 66,562 67,3740 68,3205
69,272 70,268 73,27 74,95
77,702 79,3249 81,9810 82,618
83,28 91,73 93,79 95,441
96,47
##END=
