##TITLE=Benzene, 2-methoxy-1,3,5-trimethyl-
##JCAMP-DX=4.24
##DATA TYPE=MASS SPECTRUM
##ORIGIN=R.SELF FOOD RESEARCH INSTITUTE, NORWICH, UK
##OWNER=NIST Mass Spectrometry Data Center
Collection (C) 2014 copyright by the U.S. Secretary of Commerce
on behalf of the United States of America. All rights reserved.
##CAS REGISTRY NO=4028-66-4
##$NIST MASS SPEC NO=39244
##MOLFORM=C10 H14 O
##MW=150
##$NIST SOURCE=MSDC
##XUNITS=M/Z
##YUNITS=RELATIVE INTENSITY
##XFACTOR=1
##YFACTOR=1
##FIRSTX=29
##LASTX=153
##FIRSTY=379
##MAXX=153
##MINX=29
##MAXY=9999
##MINY=13
##NPOINTS=66
##PEAK TABLE=(XY..XY)
29,379 30,27 37,32 38,74
39,862 40,250 41,607 43,85
44,100 50,251 51,462 52,266
53,352 54,32 55,67 57,19
60,25 61,23 62,66 63,304
64,68 65,689 66,128 67,257
68,21 74,37 75,75 76,37
77,774 78,291 79,976 80,51
87,20 89,65 90,28 91,3869
92,454 93,90 94,33 102,42
103,341 104,107 105,726 106,120
107,718 108,43 115,279 116,54
117,291 118,60 119,646 120,73
121,1000 122,67 133,50 134,97
135,9999 136,3241 137,217 138,20
147,27 149,300 150,8909 151,892
152,63 153,13
##END=
