##TITLE=Butane, 2,3-dichloro-, (R*,S*)-
##JCAMP-DX=4.24
##DATA TYPE=MASS SPECTRUM
##OWNER=NIST Mass Spectrometry Data Center
Collection (C) 2014 copyright by the U.S. Secretary of Commerce
on behalf of the United States of America. All rights reserved.
##CAS REGISTRY NO=4028-56-2
##$NIST MASS SPEC NO=2576
##MOLFORM=C4 H8 Cl2
##MW=126
##$NIST SOURCE=MSDC
##XUNITS=M/Z
##YUNITS=RELATIVE INTENSITY
##XFACTOR=1
##YFACTOR=1
##FIRSTX=12
##LASTX=130
##FIRSTY=100
##MAXX=130
##MINX=12
##MAXY=9999
##MINY=10
##NPOINTS=77
##PEAK TABLE=(XY..XY)
12,100 13,150 14,340 15,1531
16,30 24,40 25,260 26,1822
27,8918 28,1281 29,1722 30,40
35,300 36,350 37,510 38,611
39,2853 40,240 41,1121 42,140
43,2222 44,60 45,160 46,10
47,80 48,110 49,761 50,681
51,791 52,180 53,891 54,280
55,4814 56,380 57,20 58,10
59,10 60,90 61,300 62,8568
63,9999 64,2923 65,3163 66,70
70,10 71,20 72,20 73,100
74,10 75,871 76,80 77,270
78,20 83,100 84,10 85,70
86,10 87,30 88,10 89,200
90,2893 91,691 92,941 93,210
94,10 95,10 96,30 97,20
98,20 110,10 111,40 112,10
113,20 126,150 127,10 128,90
130,10
##END=
