##TITLE=Ethyl o-tolylacetate
##JCAMP-DX=4.24
##DATA TYPE=MASS SPECTRUM
##ORIGIN=NIST Mass Spectrometry Data Center
##OWNER=NIST Mass Spectrometry Data Center
Collection (C) 2014 copyright by the U.S. Secretary of Commerce
on behalf of the United States of America. All rights reserved.
##CAS REGISTRY NO=40291-39-2
##$NIST MASS SPEC NO=343059
##MOLFORM=C11 H14 O2
##MW=178
##$NIST SOURCE=MSDC
##XUNITS=M/Z
##YUNITS=RELATIVE INTENSITY
##XFACTOR=1
##YFACTOR=1
##FIRSTX=12
##LASTX=180
##FIRSTY=10
##MAXX=180
##MINX=12
##MAXY=9999
##MINY=10
##NPOINTS=70
##PEAK TABLE=(XY..XY)
12,10 13,20 14,70 15,280
16,40 17,50 18,160 19,90
20,10 23,10 26,280 27,1531
28,380 29,2472 30,130 31,100
36,10 37,30 38,180 39,891
40,80 41,80 42,50 43,140
44,40 45,70 50,420 51,931
52,340 53,250 54,20 55,20
61,40 62,130 63,470 64,110
65,310 66,50 73,20 74,110
75,100 77,1842 78,1051 79,1381
80,90 86,10 87,10 89,180
91,510 92,70 93,210 103,1271
104,2823 105,9999 106,921 107,40
115,10 117,10 119,160 121,160
122,10 132,1071 133,250 134,20
149,70 150,40 163,10 178,2172
179,250 180,20
##END=
