##TITLE=Benzoyl chloride, 4-fluoro-
##JCAMP-DX=4.24
##DATA TYPE=MASS SPECTRUM
##ORIGIN=Japan AIST/NIMC Database- Spectrum MS-NW-7787
##OWNER=NIST Mass Spectrometry Data Center
Collection (C) 2014 copyright by the U.S. Secretary of Commerce
on behalf of the United States of America. All rights reserved.
##CAS REGISTRY NO=403-43-0
##$NIST MASS SPEC NO=235258
##MOLFORM=C7 H4 Cl F O
##MW=158
##$NIST SOURCE=MSDC
##XUNITS=M/Z
##YUNITS=RELATIVE INTENSITY
##XFACTOR=1
##YFACTOR=1
##FIRSTX=25
##LASTX=161
##FIRSTY=20
##MAXX=161
##MINX=25
##MAXY=9999
##MINY=10
##NPOINTS=71
##PEAK TABLE=(XY..XY)
25,20 26,30 27,30 28,99
29,10 31,169 32,10 35,40
36,70 37,259 38,189 39,99
44,20 45,50 47,309 48,30
49,139 50,799 51,349 52,20
53,40 55,10 56,60 57,139
60,30 61,549 62,189 63,149
64,20 65,99 66,30 67,10
68,369 69,549 70,40 72,20
73,119 74,509 75,1879 76,169
77,20 80,20 81,20 84,10
85,20 86,10 92,80 93,129
94,399 95,5459 96,379 97,10
103,10 104,10 105,10 107,20
109,10 111,10 121,10 122,40
123,9999 124,779 125,50 129,20
130,20 131,10 140,20 158,369
159,30 160,109 161,10
##END=
