##TITLE=Pyrrolidine, 1-acetyl-
##JCAMP-DX=4.24
##DATA TYPE=MASS SPECTRUM
##ORIGIN=NIST Mass Spectrometry Data Center, 1994
##OWNER=NIST Mass Spectrometry Data Center
Collection (C) 2014 copyright by the U.S. Secretary of Commerce
on behalf of the United States of America. All rights reserved.
##CAS REGISTRY NO=4030-18-6
##$NIST MASS SPEC NO=135165
##MOLFORM=C6 H11 N O
##MW=113
##$NIST SOURCE=MSDC
##XUNITS=M/Z
##YUNITS=RELATIVE INTENSITY
##XFACTOR=1
##YFACTOR=1
##FIRSTX=12
##LASTX=114
##FIRSTY=26
##MAXX=114
##MINX=12
##MAXY=9999
##MINY=17
##NPOINTS=40
##PEAK TABLE=(XY..XY)
12,26 13,59 14,350 15,1953
16,30 25,18 26,265 27,1039
28,1678 29,266 30,400 31,17
37,66 38,187 39,1053 40,423
41,1806 42,1817 43,9999 44,353
45,22 50,33 51,55 52,61
53,73 54,97 55,634 56,634
57,80 58,42 67,64 68,426
70,4686 71,453 72,89 85,1039
86,57 98,181 113,2886 114,211
##END=
