##TITLE=Butanedioic acid, 2TMS derivative
##JCAMP-DX=4.24
##DATA TYPE=MASS SPECTRUM
##ORIGIN=NIST Mass Spectrometry Data Center
##OWNER=NIST Mass Spectrometry Data Center
Collection (C) 2014 copyright by the U.S. Secretary of Commerce
on behalf of the United States of America. All rights reserved.
##CAS REGISTRY NO=40309-57-7
##$NIST MASS SPEC NO=352519
##MOLFORM=C10 H22 O4 Si2
##MW=262
##$NIST SOURCE=MSDC
##XUNITS=M/Z
##YUNITS=RELATIVE INTENSITY
##XFACTOR=1
##YFACTOR=1
##FIRSTX=15
##LASTX=263
##FIRSTY=10
##MAXX=263
##MINX=15
##MAXY=9999
##MINY=10
##NPOINTS=99
##PEAK TABLE=(XY..XY)
15,10 26,10 27,70 28,50
29,40 31,20 39,10 41,10
42,30 43,220 44,130 45,801
46,60 47,330 48,20 49,10
51,20 52,10 53,20 55,771
56,410 57,130 58,200 59,230
60,70 61,240 62,20 63,10
66,20 69,10 70,30 71,40
72,230 73,4594 74,480 75,2182
76,160 77,90 82,20 83,10
84,20 85,60 86,90 87,40
88,20 89,40 99,40 100,10
101,50 102,20 103,40 104,10
105,20 111,10 113,70 114,10
115,100 116,200 117,120 118,20
119,30 128,30 129,701 130,110
131,180 132,30 133,350 134,50
135,40 143,50 144,10 145,70
147,9999 148,1621 149,871 150,90
151,20 156,10 157,30 159,10
162,10 163,20 172,370 173,250
174,40 175,20 190,20 203,40
204,10 217,20 218,110 219,20
220,10 247,1101 248,220 249,100
250,10 262,50 263,10
##END=
