##TITLE=1,2,3,7,8-Pentachlorodibenzodioxin
##JCAMP-DX=4.24
##DATA TYPE=MASS SPECTRUM
##ORIGIN=W. MILES, AGRIC. CAN., LAB. SERV. DIV., OTTAWA, ONT., CAN.
##OWNER=NIST Mass Spectrometry Data Center
Collection (C) 2014 copyright by the U.S. Secretary of Commerce
on behalf of the United States of America. All rights reserved.
##CAS REGISTRY NO=40321-76-4
##$NIST MASS SPEC NO=98815
##MOLFORM=C12 H3 Cl5 O2
##MW=354
##$NIST SOURCE=MSDC
##XUNITS=M/Z
##YUNITS=RELATIVE INTENSITY
##XFACTOR=1
##YFACTOR=1
##FIRSTX=50
##LASTX=362
##FIRSTY=50
##MAXX=362
##MINX=50
##MAXY=9999
##MINY=20
##NPOINTS=49
##PEAK TABLE=(XY..XY)
50,50 51,110 62,20 63,170
74,110 75,210 86,50 114,120
115,170 122,100 130,120 132,280
133,130 142,500 144,300 146,250
157,180 158,360 165,160 167,160
177,710 178,1000 179,730 192,150
193,430 195,250 221,210 228,1620
230,1600 232,520 256,160 263,320
265,400 267,200 284,200 291,2280
293,2740 295,1370 319,600 321,770
323,390 354,6190 355,870 356,9999
357,1360 358,6560 359,860 360,2160
362,360
##END=
