##TITLE=4-Chloro-3-nitrophenyl isocyanate
##JCAMP-DX=4.24
##DATA TYPE=MASS SPECTRUM
##ORIGIN=NIST Mass Spectrometry Data Center, 1994
##OWNER=NIST Mass Spectrometry Data Center
Collection (C) 2014 copyright by the U.S. Secretary of Commerce
on behalf of the United States of America. All rights reserved.
##CAS REGISTRY NO=40397-96-4
##$NIST MASS SPEC NO=134814
##MOLFORM=C7 H3 Cl N2 O3
##MW=198
##$NIST SOURCE=MSDC
##XUNITS=M/Z
##YUNITS=RELATIVE INTENSITY
##XFACTOR=1
##YFACTOR=1
##FIRSTX=25
##LASTX=201
##FIRSTY=82
##MAXX=201
##MINX=25
##MAXY=9999
##MINY=44
##NPOINTS=82
##PEAK TABLE=(XY..XY)
25,82 26,202 27,118 28,443
29,82 30,2843 32,44 35,109
36,195 37,1088 38,1305 39,654
40,148 44,120 46,471 47,369
48,117 49,1124 50,984 51,760
52,330 53,89 54,67 60,313
61,1639 62,2443 63,1167 64,1064
65,109 66,57 67,115 71,140
72,523 73,2643 74,1726 75,1298
76,1557 77,310 78,50 80,69
84,322 85,270 86,341 87,692
88,1582 89,598 90,113 91,222
97,1527 98,772 99,755 100,333
101,84 103,71 105,105 107,61
109,58 112,796 113,107 114,221
117,107 124,9999 125,829 126,3169
127,214 133,89 135,81 140,6273
141,469 142,1872 143,135 152,1064
153,89 154,357 163,357 168,382
170,153 182,142 198,7302 199,719
200,2551 201,235
##END=
