##TITLE=3-Fluorophenyl isocyanate
##JCAMP-DX=4.24
##DATA TYPE=MASS SPECTRUM
##ORIGIN=NIST Mass Spectrometry Data Center
##OWNER=NIST Mass Spectrometry Data Center
Collection (C) 2014 copyright by the U.S. Secretary of Commerce
on behalf of the United States of America. All rights reserved.
##CAS REGISTRY NO=404-71-7
##$NIST MASS SPEC NO=343017
##MOLFORM=C7 H4 F N O
##MW=137
##$NIST SOURCE=MSDC
##XUNITS=M/Z
##YUNITS=RELATIVE INTENSITY
##XFACTOR=1
##YFACTOR=1
##FIRSTX=12
##LASTX=139
##FIRSTY=40
##MAXX=139
##MINX=12
##MAXY=9999
##MINY=10
##NPOINTS=76
##PEAK TABLE=(XY..XY)
12,40 13,10 14,30 16,20
18,30 24,20 25,60 26,230
27,140 28,460 29,20 31,1221
32,70 33,160 36,110 37,781
38,1011 39,691 40,90 41,20
42,60 44,200 45,170 46,30
47,10 48,30 49,210 50,691
51,470 52,360 53,50 54,290
56,540 57,1021 58,210 59,10
60,80 61,500 62,1041 63,1001
64,350 65,90 66,20 69,530
70,170 71,20 72,10 73,80
74,200 75,370 76,180 77,20
78,30 79,20 81,941 82,3753
83,380 84,10 86,40 87,80
89,1421 90,150 92,40 93,40
94,80 95,90 98,10 99,10
105,10 106,40 109,5435 110,460
111,20 137,9999 138,761 139,50
##END=
