##TITLE=3-Fluoro-4-methoxyphenylacetonitrile
##JCAMP-DX=4.24
##DATA TYPE=MASS SPECTRUM
##ORIGIN=NIST Mass Spectrometry Data Center, 1994
##OWNER=NIST Mass Spectrometry Data Center
Collection (C) 2014 copyright by the U.S. Secretary of Commerce
on behalf of the United States of America. All rights reserved.
##CAS REGISTRY NO=404-90-0
##$NIST MASS SPEC NO=134806
##MOLFORM=C9 H8 F N O
##MW=165
##$NIST SOURCE=MSDC
##XUNITS=M/Z
##YUNITS=RELATIVE INTENSITY
##XFACTOR=1
##YFACTOR=1
##FIRSTX=13
##LASTX=167
##FIRSTY=83
##MAXX=167
##MINX=13
##MAXY=9999
##MINY=40
##NPOINTS=121
##PEAK TABLE=(XY..XY)
13,83 14,316 15,2716 16,47
18,70 26,361 27,439 28,525
29,680 30,174 31,905 32,72
33,160 37,370 38,642 39,966
40,186 41,276 43,100 44,173
45,228 46,112 49,276 50,1914
51,1935 52,559 53,435 54,83
55,132 56,475 57,1570 58,107
59,95 60,62 61,589 62,705
63,1134 64,368 65,136 66,50
67,50 68,722 69,938 70,758
71,126 72,67 73,172 74,732
75,3292 76,1570 77,716 78,156
79,76 80,332 81,1409 82,699
83,397 84,106 85,137 86,166
87,271 88,233 89,275 90,105
91,132 92,124 93,313 94,1813
95,5927 96,1843 97,328 98,55
99,98 100,289 101,55 102,3811
103,452 104,79 105,250 106,305
107,1448 108,750 109,963 110,316
111,81 112,40 114,72 115,167
116,198 117,60 118,51 119,48
120,220 121,920 122,3915 123,528
124,370 125,2437 126,218 130,496
131,90 132,174 133,48 134,5147
135,910 136,398 137,346 138,358
139,546 140,52 146,308 147,43
148,57 149,43 150,5037 151,506
162,43 164,2694 165,9999 166,1012
167,61
##END=
