##TITLE=cis-3-Methyl-4-cyclohexene-1,2-dicarboxylic acid
##JCAMP-DX=4.24
##DATA TYPE=MASS SPECTRUM
##ORIGIN=NIST Mass Spectrometry Data Center, 1994
##OWNER=NIST Mass Spectrometry Data Center
Collection (C) 2014 copyright by the U.S. Secretary of Commerce
on behalf of the United States of America. All rights reserved.
##CAS REGISTRY NO=40469-16-7
##$NIST MASS SPEC NO=135629
##MOLFORM=C9 H12 O4
##MW=184
##$NIST SOURCE=MSDC
##XUNITS=M/Z
##YUNITS=RELATIVE INTENSITY
##XFACTOR=1
##YFACTOR=1
##FIRSTX=12
##LASTX=166
##FIRSTY=20
##MAXX=166
##MINX=12
##MAXY=9999
##MINY=2
##NPOINTS=76
##PEAK TABLE=(XY..XY)
12,20 13,26 15,849 16,41
17,2 18,16 26,675 27,2155
28,439 29,153 32,5 33,8
37,220 38,631 39,3563 40,622
41,875 42,145 43,33 44,86
45,260 46,136 47,10 50,773
51,1457 52,653 53,957 54,178
55,140 56,23 60,131 61,92
62,228 63,489 64,117 65,724
66,367 67,490 68,401 69,43
71,22 73,22 74,22 75,51
76,22 77,3394 78,1073 79,9999
80,726 81,69 82,27 84,16
85,16 86,24 87,12 89,54
91,1202 93,3112 94,3844 95,355
96,19 97,29 99,128 103,10
105,34 107,27 109,10 110,44
119,13 120,45 121,56 123,140
124,27 138,1369 139,120 166,15
##END=
