##TITLE=Pendimethalin
##JCAMP-DX=4.24
##DATA TYPE=MASS SPECTRUM
##ORIGIN=ACCUSTANDARD Chemicals / NIST MS Data Center.
##OWNER=NIST Mass Spectrometry Data Center
Collection (C) 2014 copyright by the U.S. Secretary of Commerce
on behalf of the United States of America. All rights reserved.
##CAS REGISTRY NO=40487-42-1
##$NIST MASS SPEC NO=125542
##MOLFORM=C13 H19 N3 O4
##MW=281
##$NIST SOURCE=MSDC
##XUNITS=M/Z
##YUNITS=RELATIVE INTENSITY
##XFACTOR=1
##YFACTOR=1
##FIRSTX=14
##LASTX=283
##FIRSTY=19
##MAXX=283
##MINX=14
##MAXY=9999
##MINY=7
##NPOINTS=191
##PEAK TABLE=(XY..XY)
14,19 15,37 16,11 17,16
18,49 27,596 28,565 29,1195
30,204 31,33 32,48 39,536
40,74 41,821 42,209 43,871
44,70 45,58 46,7 50,85
51,353 52,264 53,385 54,120
55,288 56,163 57,653 58,35
59,17 62,48 63,235 64,134
65,610 66,241 67,142 68,62
69,55 70,28 71,26 73,10
74,38 75,117 76,179 77,769
78,380 79,367 80,175 81,50
82,38 83,14 84,17 86,23
87,31 88,29 89,237 90,225
91,727 92,374 93,221 94,128
95,45 96,30 101,40 102,144
103,364 104,435 105,406 106,350
107,220 108,135 109,25 110,36
111,13 115,201 116,257 117,406
118,653 119,721 120,401 121,182
122,117 123,24 124,17 126,12
127,30 128,69 129,103 130,287
131,414 132,340 133,378 134,353
135,215 136,65 137,15 141,26
142,76 143,208 144,475 145,440
146,438 147,422 148,269 149,146
150,136 151,31 154,19 155,20
156,66 157,141 158,303 159,374
160,408 161,913 162,1592 163,382
164,268 165,35 166,25 169,16
170,41 171,96 172,212 173,193
174,313 175,187 176,187 177,162
178,99 179,96 180,137 181,40
184,13 185,39 186,44 187,86
188,90 189,73 190,211 191,1255
192,1072 193,258 194,365 195,56
196,24 198,17 199,16 200,27
201,45 202,138 203,95 204,36
205,30 206,58 207,16 208,690
209,71 210,33 211,49 212,18
215,8 216,17 217,44 218,119
219,119 220,232 221,46 222,14
224,12 230,30 231,12 232,15
233,16 234,86 235,12 236,310
237,45 238,27 246,58 247,36
248,55 249,18 252,9999 253,1225
254,156 255,12 263,54 264,26
281,1408 282,218 283,32
##END=
