##TITLE=3-Pyrrolidinol
##JCAMP-DX=4.24
##DATA TYPE=MASS SPECTRUM
##ORIGIN=J.E. WILKINSON S-CUBED, SAN DIEGO, CA.
##OWNER=NIST Mass Spectrometry Data Center
Collection (C) 2014 copyright by the U.S. Secretary of Commerce
on behalf of the United States of America. All rights reserved.
##CAS REGISTRY NO=40499-83-0
##$NIST MASS SPEC NO=92288
##MOLFORM=C4 H9 N O
##MW=87
##$NIST SOURCE=MSDC
##XUNITS=M/Z
##YUNITS=RELATIVE INTENSITY
##XFACTOR=1
##YFACTOR=1
##FIRSTX=41
##LASTX=88
##FIRSTY=3846
##MAXX=88
##MINX=41
##MAXY=9999
##MINY=17
##NPOINTS=31
##PEAK TABLE=(XY..XY)
41,3846 42,3661 43,9999 44,1599
45,93 46,25 47,25 49,34
51,143 52,194 53,42 54,429
55,631 56,1237 57,1700 58,724
59,985 60,25 67,707 68,1448
69,791 70,328 71,160 72,17
77,25 82,25 83,118 84,135
86,581 87,2239 88,51
##END=
