##TITLE=Benzene, 1-ethenyl-4-fluoro-
##JCAMP-DX=4.24
##DATA TYPE=MASS SPECTRUM
##ORIGIN=Japan AIST/NIMC Database- Spectrum MS-IW-1542
##OWNER=NIST Mass Spectrometry Data Center
Collection (C) 2014 copyright by the U.S. Secretary of Commerce
on behalf of the United States of America. All rights reserved.
##CAS REGISTRY NO=405-99-2
##$NIST MASS SPEC NO=237921
##MOLFORM=C8 H7 F
##MW=122
##$NIST SOURCE=MSDC
##XUNITS=M/Z
##YUNITS=RELATIVE INTENSITY
##XFACTOR=1
##YFACTOR=1
##FIRSTX=26
##LASTX=124
##FIRSTY=30
##MAXX=124
##MINX=26
##MAXY=9999
##MINY=10
##NPOINTS=71
##PEAK TABLE=(XY..XY)
26,30 27,90 28,50 31,80
32,10 33,10 37,60 38,90
39,249 40,10 44,10 45,30
46,10 49,70 50,529 51,759
52,90 53,10 56,30 57,289
58,10 59,20 60,269 61,329
62,159 63,269 64,20 65,20
68,129 69,189 70,319 71,30
72,10 73,50 74,359 75,919
76,159 77,90 78,70 80,10
81,139 82,10 83,109 84,10
85,20 86,30 87,50 89,30
91,10 92,50 93,80 94,239
95,369 96,2429 97,169 98,70
99,70 100,90 101,2329 102,389
103,129 104,30 105,20 107,159
108,10 119,20 120,569 121,3519
122,9999 123,909 124,50
##END=
