##TITLE=1-Acetoxy-4-fluorobenzene
##JCAMP-DX=4.24
##DATA TYPE=MASS SPECTRUM
##ORIGIN=NIST Mass Spectrometry Data Center
##OWNER=NIST Mass Spectrometry Data Center
Collection (C) 2014 copyright by the U.S. Secretary of Commerce
on behalf of the United States of America. All rights reserved.
##CAS REGISTRY NO=405-51-6
##$NIST MASS SPEC NO=342910
##MOLFORM=C8 H7 F O2
##MW=154
##$NIST SOURCE=MSDC
##XUNITS=M/Z
##YUNITS=RELATIVE INTENSITY
##XFACTOR=1
##YFACTOR=1
##FIRSTX=12
##LASTX=155
##FIRSTY=20
##MAXX=155
##MINX=12
##MAXY=9999
##MINY=10
##NPOINTS=67
##PEAK TABLE=(XY..XY)
12,20 13,60 14,270 15,1021
16,10 18,30 25,20 26,100
27,60 28,210 29,110 31,520
32,50 33,60 36,10 37,110
38,210 39,280 40,20 41,110
42,420 43,5405 44,120 45,40
48,10 49,40 50,270 51,130
52,20 53,80 55,50 56,280
57,1732 58,90 59,10 60,10
61,130 62,210 63,440 64,410
65,50 66,10 68,70 69,100
70,20 73,80 74,120 75,320
76,20 79,10 80,20 81,260
82,160 83,1541 84,1521 85,70
86,10 92,30 93,30 94,50
95,290 96,20 112,9999 113,631
114,40 154,801 155,70
##END=
