##TITLE=1,3-Propanediol, 2-methyl-2-nitro-, dinitrate
##JCAMP-DX=4.24
##DATA TYPE=MASS SPECTRUM
##ORIGIN=MINISTRY OF TECH. E.R.D.E., WALTHAM ABBEY, UK
##OWNER=NIST Mass Spectrometry Data Center
Collection (C) 2014 copyright by the U.S. Secretary of Commerce
on behalf of the United States of America. All rights reserved.
##CAS REGISTRY NO=4055-94-1
##$NIST MASS SPEC NO=10721
##MOLFORM=C4 H7 N3 O8
##MW=225
##$NIST SOURCE=MSDC
##XUNITS=M/Z
##YUNITS=RELATIVE INTENSITY
##XFACTOR=1
##YFACTOR=1
##FIRSTX=14
##LASTX=76
##FIRSTY=230
##MAXX=76
##MINX=14
##MAXY=9999
##MINY=80
##NPOINTS=25
##PEAK TABLE=(XY..XY)
14,230 15,420 16,280 26,290
27,1240 28,2180 29,3980 30,7400
31,790 38,330 39,2380 40,430
41,3270 42,460 43,780 44,670
45,80 46,9999 55,120 56,80
57,210 58,360 59,120 70,230
76,410
##END=
