##TITLE=Cyclohexanone, 3-(3,3-dimethylbutyl)-
##JCAMP-DX=4.24
##DATA TYPE=MASS SPECTRUM
##ORIGIN=AC73-347-2A
##OWNER=NIST Mass Spectrometry Data Center
Collection (C) 2014 copyright by the U.S. Secretary of Commerce
on behalf of the United States of America. All rights reserved.
##CAS REGISTRY NO=40564-94-1
##$NIST MASS SPEC NO=33229
##MOLFORM=C12 H22 O
##MW=182
##$NIST SOURCE=MSDC
##XUNITS=M/Z
##YUNITS=RELATIVE INTENSITY
##XFACTOR=1
##YFACTOR=1
##FIRSTX=41
##LASTX=183
##FIRSTY=1761
##MAXX=183
##MINX=41
##MAXY=9999
##MINY=130
##NPOINTS=22
##PEAK TABLE=(XY..XY)
41,1761 42,217 43,609 55,1369
56,391 57,4956 58,261 79,239
81,348 82,152 83,1913 84,391
93,283 95,261 96,152 97,9999
98,2652 99,261 139,522 140,130
182,630 183,152
##END=
