##TITLE=1-Octen-4-ol
##JCAMP-DX=4.24
##DATA TYPE=MASS SPECTRUM
##ORIGIN=NIST Mass Spectrometry Data Center, 1990.
##OWNER=NIST Mass Spectrometry Data Center
Collection (C) 2014 copyright by the U.S. Secretary of Commerce
on behalf of the United States of America. All rights reserved.
##CAS REGISTRY NO=40575-42-6
##$NIST MASS SPEC NO=114374
##MOLFORM=C8 H16 O
##MW=128
##$NIST SOURCE=MSDC
##XUNITS=M/Z
##YUNITS=RELATIVE INTENSITY
##XFACTOR=1
##YFACTOR=1
##FIRSTX=15
##LASTX=88
##FIRSTY=183
##MAXX=88
##MINX=15
##MAXY=9999
##MINY=172
##NPOINTS=24
##PEAK TABLE=(XY..XY)
15,183 27,1725 28,1052 29,1563
31,616 38,172 39,1758 40,434
41,5461 42,744 43,2424 44,517
45,907 53,348 54,264 55,458
57,1433 58,204 67,411 69,9999
70,665 71,703 87,4019 88,261
##END=
