##TITLE=4-Octanol, 2-methyl-
##JCAMP-DX=4.24
##DATA TYPE=MASS SPECTRUM
##ORIGIN=NIST Mass Spectrometry Data Center, 1990.
##OWNER=NIST Mass Spectrometry Data Center
Collection (C) 2014 copyright by the U.S. Secretary of Commerce
on behalf of the United States of America. All rights reserved.
##CAS REGISTRY NO=40575-41-5
##$NIST MASS SPEC NO=113750
##MOLFORM=C9 H20 O
##MW=144
##$NIST SOURCE=MSDC
##XUNITS=M/Z
##YUNITS=RELATIVE INTENSITY
##XFACTOR=1
##YFACTOR=1
##FIRSTX=26
##LASTX=126
##FIRSTY=105
##MAXX=126
##MINX=26
##MAXY=9999
##MINY=100
##NPOINTS=27
##PEAK TABLE=(XY..XY)
26,105 27,1302 28,582 29,1496
30,105 31,346 39,952 41,3446
42,401 43,2684 44,828 45,1860
53,209 54,100 55,637 56,469
57,1637 58,531 67,176 69,9999
70,632 71,303 85,452 87,4520
88,237 111,105 126,149
##END=
