##TITLE=Methoprene
##JCAMP-DX=4.24
##DATA TYPE=MASS SPECTRUM
##ORIGIN=LOREN L. DUNHAM, ZOECON CORP., PALO ALTO, CA, USA
##OWNER=NIST Mass Spectrometry Data Center
Collection (C) 2014 copyright by the U.S. Secretary of Commerce
on behalf of the United States of America. All rights reserved.
##CAS REGISTRY NO=40596-69-8
##$NIST MASS SPEC NO=51939
##MOLFORM=C19 H34 O3
##MW=310
##$NIST SOURCE=MSDC
##XUNITS=M/Z
##YUNITS=RELATIVE INTENSITY
##XFACTOR=1
##YFACTOR=1
##FIRSTX=39
##LASTX=295
##FIRSTY=270
##MAXX=295
##MINX=39
##MAXY=9999
##MINY=20
##NPOINTS=146
##PEAK TABLE=(XY..XY)
39,270 41,1880 42,390 43,2670
44,230 45,360 46,60 47,60
50,30 51,170 52,160 53,400
54,210 55,1730 56,240 57,460
58,50 59,580 61,90 62,60
65,290 66,90 67,900 68,420
69,2610 70,310 71,340 73,9999
74,560 75,30 76,100 77,660
78,140 79,1350 81,2450 83,450
84,80 85,550 86,40 87,150
91,640 92,170 93,1030 94,290
95,1760 96,530 97,640 98,220
99,110 100,580 101,50 102,80
103,100 105,430 107,1720 108,630
109,2240 110,3290 112,390 113,560
114,480 116,90 117,70 120,240
121,1100 122,370 123,1030 124,730
125,690 126,440 127,230 128,130
129,30 130,20 131,160 132,110
133,390 134,200 135,970 136,580
137,1320 138,210 140,80 141,80
142,220 143,180 145,120 146,100
147,620 149,760 151,170 152,370
153,1600 154,270 155,330 156,370
157,140 159,150 160,90 161,330
162,180 163,230 164,90 165,290
166,90 167,210 169,100 171,110
175,810 176,430 177,270 179,310
180,220 181,130 183,70 185,70
189,280 191,1180 193,720 194,160
197,20 198,60 200,60 201,100
203,160 204,70 209,130 217,130
218,170 219,310 221,520 222,150
224,50 225,50 233,60 235,350
236,280 237,130 243,70 249,60
250,90 251,150 279,110 281,100
285,60 295,80
##END=
