##TITLE=2-Octen-1-ol, 3,7-dimethyl-
##JCAMP-DX=4.24
##DATA TYPE=MASS SPECTRUM
##ORIGIN=Insect Chem. Ecol. Lab., USDA, Beltsville, MD 20705
##OWNER=NIST Mass Spectrometry Data Center
Collection (C) 2014 copyright by the U.S. Secretary of Commerce
on behalf of the United States of America. All rights reserved.
##CAS REGISTRY NO=40607-48-5
##$NIST MASS SPEC NO=132115
##MOLFORM=C10 H20 O
##MW=156
##$NIST SOURCE=MSDC
##XUNITS=M/Z
##YUNITS=RELATIVE INTENSITY
##XFACTOR=1
##YFACTOR=1
##FIRSTX=41
##LASTX=159
##FIRSTY=9825
##MAXX=159
##MINX=41
##MAXY=9999
##MINY=4
##NPOINTS=102
##PEAK TABLE=(XY..XY)
41,9825 42,1031 43,2836 44,413
45,466 46,32 47,16 48,8
49,31 50,83 51,280 52,148
53,1297 54,468 55,5174 56,2764
57,1397 58,161 59,394 60,42
61,20 62,19 63,64 64,23
65,329 66,163 67,5015 68,2810
69,9999 70,1769 71,3087 72,239
73,75 74,23 75,26 76,11
77,314 78,71 79,511 80,525
81,4876 82,4728 83,1436 84,555
85,387 86,298 87,95 88,17
89,30 90,4 91,240 92,91
93,507 94,317 95,3800 96,870
97,328 98,112 99,263 100,76
101,54 102,27 103,28 104,12
105,113 106,44 107,167 108,88
109,1738 110,563 111,368 112,175
113,87 114,36 115,52 116,16
117,26 118,10 119,68 120,13
121,211 122,53 123,2236 124,261
125,82 126,47 127,41 128,23
129,23 137,82 138,993 139,195
140,32 141,38 142,17 153,22
154,43 155,19 156,943 157,136
158,18 159,17
##END=
