##TITLE=Butyronitrile, 2,3,3-trimethyl-2-(4-bromophenyldiazenyl)-
##JCAMP-DX=4.24
##DATA TYPE=MASS SPECTRUM
##ORIGIN=ASES Database, Dalian Institute, P.R. China
##OWNER=NIST Mass Spectrometry Data Center
Collection (C) 2014 copyright by the U.S. Secretary of Commerce
on behalf of the United States of America. All rights reserved.
##CAS REGISTRY NO=40620-33-5
##$NIST MASS SPEC NO=146734
##MOLFORM=C13 H16 Br N3
##MW=293
##$NIST SOURCE=MSDC
##XUNITS=M/Z
##YUNITS=RELATIVE INTENSITY
##XFACTOR=1
##YFACTOR=1
##FIRSTX=39
##LASTX=295
##FIRSTY=3026
##MAXX=295
##MINX=39
##MAXY=9999
##MINY=99
##NPOINTS=43
##PEAK TABLE=(XY..XY)
39,3026 41,5424 42,579 43,1188
50,1977 51,679 52,599 53,1178
55,1178 57,3426 63,389 65,399
67,599 68,1688 69,579 74,1208
75,3216 76,299 77,3586 80,609
82,589 83,389 90,589 94,589
123,289 129,299 131,399 155,9979
156,1198 157,9999 158,1208 183,6982
184,699 185,7022 186,689 210,199
212,199 237,289 239,289 250,389
252,399 293,99 295,99
##END=
