##TITLE=Cyclohexene, 1-iodo-2-methyl-
##JCAMP-DX=4.24
##DATA TYPE=MASS SPECTRUM
##ORIGIN=J.VOTH UNIV. OF CALIF, DAVIS, CALIFORNIA, 95616, USA
##OWNER=NIST Mass Spectrometry Data Center
Collection (C) 2014 copyright by the U.S. Secretary of Commerce
on behalf of the United States of America. All rights reserved.
##CAS REGISTRY NO=40648-08-6
##$NIST MASS SPEC NO=26889
##MOLFORM=C7 H11 I
##MW=222
##$NIST SOURCE=MSDC
##XUNITS=M/Z
##YUNITS=RELATIVE INTENSITY
##XFACTOR=1
##YFACTOR=1
##FIRSTX=12
##LASTX=224
##FIRSTY=16
##MAXX=224
##MINX=12
##MAXY=9999
##MINY=10
##NPOINTS=83
##PEAK TABLE=(XY..XY)
12,16 13,21 14,62 15,507
16,13 17,16 18,50 25,20
26,349 27,2417 28,327 29,674
30,17 36,18 37,182 38,469
39,3239 40,654 41,3221 42,154
43,222 44,19 45,45 46,32
48,10 49,172 50,1069 51,1810
52,1013 53,3033 54,335 55,4224
56,196 57,11 60,32 61,205
62,386 63,714 64,193 65,1187
66,625 67,5431 68,377 69,37
70,27 74,91 75,78 76,40
77,1749 78,443 79,10 80,935
81,74 84,10 85,25 86,32
87,20 89,64 90,29 91,747
92,114 93,821 94,233 95,9999
96,776 97,28 127,1608 128,533
129,86 139,13 141,43 152,18
153,27 155,1400 164,11 165,27
167,21 181,14 194,10 221,18
222,7481 223,582 224,22
##END=
