##TITLE=4-Propylcyclohexanone
##JCAMP-DX=4.24
##DATA TYPE=MASS SPECTRUM
##ORIGIN=NIST Mass Spectrometry Data Center, 1994
##OWNER=NIST Mass Spectrometry Data Center
Collection (C) 2014 copyright by the U.S. Secretary of Commerce
on behalf of the United States of America. All rights reserved.
##CAS REGISTRY NO=40649-36-3
##$NIST MASS SPEC NO=135297
##MOLFORM=C9 H16 O
##MW=140
##$NIST SOURCE=MSDC
##XUNITS=M/Z
##YUNITS=RELATIVE INTENSITY
##XFACTOR=1
##YFACTOR=1
##FIRSTX=13
##LASTX=142
##FIRSTY=22
##MAXX=142
##MINX=13
##MAXY=9999
##MINY=13
##NPOINTS=77
##PEAK TABLE=(XY..XY)
13,22 14,110 15,583 16,19
17,33 18,41 26,666 27,5697
28,2155 29,3565 30,87 31,54
32,21 34,19 37,56 39,4620
40,897 41,7956 42,3114 43,6808
44,243 45,33 49,16 50,227
51,511 52,260 53,1370 54,1220
55,9999 56,2934 57,1135 58,90
62,41 63,118 64,27 65,291
66,134 67,881 68,805 69,3258
70,1738 71,253 72,67 75,13
77,198 78,86 79,322 80,13
81,1309 82,13 83,3953 84,1087
85,407 86,43 91,77 92,115
93,635 94,131 95,43 96,3493
97,1256 98,613 99,42 107,255
108,22 109,26 110,22 111,1694
112,493 113,30 122,114 123,14
125,186 126,20 140,2163 141,216
142,15
##END=
