##TITLE=cis-7-Tetradecen-1-ol
##JCAMP-DX=4.24
##DATA TYPE=MASS SPECTRUM
##ORIGIN=Chuck Anderson, Aldrich Chemical Co.
##OWNER=NIST Mass Spectrometry Data Center
Collection (C) 2014 copyright by the U.S. Secretary of Commerce
on behalf of the United States of America. All rights reserved.
##CAS REGISTRY NO=40642-43-1
##$NIST MASS SPEC NO=108366
##MOLFORM=C14 H28 O
##MW=212
##$NIST SOURCE=MSDC
##XUNITS=M/Z
##YUNITS=RELATIVE INTENSITY
##XFACTOR=1
##YFACTOR=1
##FIRSTX=27
##LASTX=195
##FIRSTY=1036
##MAXX=195
##MINX=27
##MAXY=9999
##MINY=20
##NPOINTS=63
##PEAK TABLE=(XY..XY)
27,1036 28,272 29,2862 30,88
31,1687 39,1687 40,347 41,9999
42,1495 43,4358 44,400 45,232
51,78 52,77 53,934 54,3397
55,5896 56,1239 57,1431 58,88
65,272 66,619 67,7178 68,3781
69,3717 70,881 71,694 72,75
77,263 78,21 79,1057 80,608
81,5896 82,5469 83,1751 84,331
85,261 91,104 93,197 94,507
95,3760 96,3119 97,929 98,162
99,78 107,20 108,264 109,2072
110,1559 111,297 112,133 122,101
123,635 124,582 125,104 137,357
138,491 139,43 151,108 152,145
166,291 194,619 195,94
##END=
