##TITLE=Cyclohexene, 1-iodo-6-methyl-
##JCAMP-DX=4.24
##DATA TYPE=MASS SPECTRUM
##ORIGIN=J.VOTH UNIV. OF CALIF, DAVIS, CALIFORNIA, 95616, USA
##OWNER=NIST Mass Spectrometry Data Center
Collection (C) 2014 copyright by the U.S. Secretary of Commerce
on behalf of the United States of America. All rights reserved.
##CAS REGISTRY NO=40648-10-0
##$NIST MASS SPEC NO=26890
##MOLFORM=C7 H11 I
##MW=222
##$NIST SOURCE=MSDC
##XUNITS=M/Z
##YUNITS=RELATIVE INTENSITY
##XFACTOR=1
##YFACTOR=1
##FIRSTX=12
##LASTX=224
##FIRSTY=16
##MAXX=224
##MINX=12
##MAXY=9999
##MINY=9
##NPOINTS=93
##PEAK TABLE=(XY..XY)
12,16 13,26 14,87 15,580
16,12 25,20 26,343 27,2341
28,330 29,689 30,17 36,13
37,174 38,464 39,3071 40,556
41,2827 42,158 43,214 44,17
45,59 46,38 49,65 50,1046
51,1701 52,893 53,2274 54,311
55,3129 56,161 57,25 60,23
61,162 62,313 63,592 64,152
65,1028 66,598 67,4456 68,285
69,49 70,9 73,43 74,105
75,83 76,46 77,1606 78,494
79,2065 80,1060 81,328 82,26
83,12 84,15 85,19 86,23
87,15 89,47 90,22 91,577
92,87 93,643 94,209 95,9999
96,763 97,29 105,14 107,16
109,149 110,16 127,1356 128,410
129,69 139,12 141,36 152,37
153,21 155,15 164,10 165,32
167,26 174,34 176,37 180,14
181,40 194,25 204,10 206,15
207,20 220,11 222,4283 223,327
224,13
##END=
