##TITLE=Z-4-Dodecenol
##JCAMP-DX=4.24
##DATA TYPE=MASS SPECTRUM
##ORIGIN=M.Horiike ET AL.Biomed.Mass Spectr.,13,117(1986)
##OWNER=NIST Mass Spectrometry Data Center
Collection (C) 2014 copyright by the U.S. Secretary of Commerce
on behalf of the United States of America. All rights reserved.
##CAS REGISTRY NO=40642-37-3
##$NIST MASS SPEC NO=281670
##MOLFORM=C12 H24 O
##MW=184
##$NIST SOURCE=MSDC
##XUNITS=M/Z
##YUNITS=RELATIVE INTENSITY
##XFACTOR=1
##YFACTOR=1
##FIRSTX=27
##LASTX=166
##FIRSTY=1531
##MAXX=166
##MINX=27
##MAXY=9999
##MINY=280
##NPOINTS=28
##PEAK TABLE=(XY..XY)
27,1531 29,3633 31,1661 39,1922
41,9749 42,1922 43,6116 44,1561
53,1822 54,4024 55,8758 56,4944
57,3453 67,9318 68,9999 69,4194
70,1251 71,1251 81,9418 82,5195
83,2332 95,3223 96,2793 97,971
109,1071 110,1071 138,540 166,280
##END=
