##TITLE=Quercetin, 5TMS derivative
##JCAMP-DX=4.24
##DATA TYPE=MASS SPECTRUM
##ORIGIN=Tox21 Consortium/NIST Mass Spectrometry Data Center, 2012
##OWNER=NIST Mass Spectrometry Data Center
Collection (C) 2014 copyright by the U.S. Secretary of Commerce
on behalf of the United States of America. All rights reserved.
##CAS REGISTRY NO=4067-66-7
##$NIST MASS SPEC NO=408370
##MOLFORM=C30 H50 O7 Si5
##MW=662
##$NIST SOURCE=MSDC
##XUNITS=M/Z
##YUNITS=RELATIVE INTENSITY
##XFACTOR=1
##YFACTOR=1
##FIRSTX=15
##LASTX=664
##FIRSTY=40
##MAXX=664
##MINX=15
##MAXY=9999
##MINY=10
##NPOINTS=335
##PEAK TABLE=(XY..XY)
15,40 16,50 27,30 34,10
37,10 43,50 44,70 45,721
46,40 47,100 49,20 57,30
58,30 59,50 60,30 61,20
62,20 63,40 66,20 70,10
71,20 72,110 73,7867 74,631
75,891 76,60 77,110 83,20
86,10 90,10 91,30 92,10
93,40 95,20 99,30 101,10
102,10 103,30 105,30 106,20
107,10 109,10 111,10 115,30
117,40 119,20 120,10 127,10
128,10 129,20 131,80 132,20
133,170 134,20 135,60 136,10
137,40 138,10 139,20 141,20
145,10 147,450 148,60 149,40
150,10 151,10 152,10 153,20
155,10 157,10 160,10 163,40
165,60 166,20 167,20 169,20
171,20 173,20 175,10 176,10
177,50 178,20 179,40 180,10
181,20 183,10 189,30 190,20
191,40 193,150 194,40 195,30
197,10 201,10 203,30 204,10
205,30 206,10 207,50 208,50
211,10 215,10 217,10 219,20
222,20 223,20 224,10 225,10
227,10 229,20 233,30 234,20
235,30 237,30 238,10 239,30
240,10 242,10 243,10 245,10
247,10 249,10 250,10 251,50
253,40 255,10 263,10 264,30
265,30 266,10 267,40 272,30
273,20 274,20 275,10 277,30
279,50 280,20 281,80 284,10
289,10 291,10 292,10 293,20
294,10 295,70 296,10 297,30
301,20 304,10 305,20 306,20
307,40 308,20 309,20 310,10
311,30 314,10 315,20 316,10
317,20 319,10 320,10 321,30
322,10 323,30 324,20 325,30
327,30 328,10 329,10 331,30
332,10 333,10 335,10 337,20
339,10 340,20 341,40 342,10
343,10 349,10 351,30 352,10
353,40 354,30 355,10 356,20
357,30 360,10 362,10 364,10
365,40 366,20 367,30 368,20
369,60 370,10 371,20 372,10
375,10 377,10 378,10 379,40
380,20 381,30 382,20 383,50
385,60 391,10 392,20 393,120
394,70 395,90 396,30 397,40
398,10 399,30 400,10 401,10
407,10 410,30 411,60 412,50
413,40 414,10 415,150 416,60
417,20 423,10 425,20 426,20
427,50 428,10 429,70 430,20
431,30 432,10 437,10 439,20
440,10 441,30 442,30 443,30
444,10 445,20 448,10 453,20
454,10 455,40 456,30 457,60
458,50 459,30 467,10 468,10
469,80 470,30 471,80 472,30
473,40 474,10 475,10 476,10
483,50 484,80 485,140 486,60
490,20 497,10 498,20 499,70
500,40 501,60 502,20 503,60
504,20 505,20 511,10 514,10
518,10 527,30 528,20 529,90
530,80 531,50 532,10 533,10
541,20 543,60 544,40 545,40
546,90 547,20 548,10 557,250
558,130 559,1832 560,821 561,520
562,160 563,60 564,10 571,50
572,80 573,130 574,90 588,20
589,100 591,10 592,10 603,10
616,10 617,80 618,50 619,30
620,30 631,120 632,40 633,60
634,10 635,10 645,240 646,90
647,9999 648,5815 649,3393 650,1211
651,420 652,110 653,20 661,110
662,70 663,60 664,10
##END=
