##TITLE=Acetic acid, trifluoro-, 2,2,2-trifluoroethyl ester
##JCAMP-DX=4.24
##DATA TYPE=MASS SPECTRUM
##ORIGIN=NIST Mass Spectrometry Data Center
##OWNER=NIST Mass Spectrometry Data Center
Collection (C) 2014 copyright by the U.S. Secretary of Commerce
on behalf of the United States of America. All rights reserved.
##CAS REGISTRY NO=407-38-5
##$NIST MASS SPEC NO=343605
##MOLFORM=C4 H2 F6 O2
##MW=196
##$NIST SOURCE=MSDC
##XUNITS=M/Z
##YUNITS=RELATIVE INTENSITY
##XFACTOR=1
##YFACTOR=1
##FIRSTX=12
##LASTX=178
##FIRSTY=40
##MAXX=178
##MINX=12
##MAXY=9999
##MINY=10
##NPOINTS=42
##PEAK TABLE=(XY..XY)
12,40 13,40 14,50 19,20
20,20 25,20 26,50 29,1601
30,330 31,1051 33,3243 34,40
44,230 45,110 47,60 50,1311
51,530 52,10 54,10 61,240
62,10 63,450 64,390 65,50
66,10 69,9999 70,110 78,280
79,120 80,50 81,20 83,5695
84,130 97,921 99,1091 100,20
127,3033 128,100 129,30 148,20
177,490 178,20
##END=
