##TITLE=2-Fluoro-6-methylpyridine
##JCAMP-DX=4.24
##DATA TYPE=MASS SPECTRUM
##ORIGIN=NIST Mass Spectrometry Data Center
##OWNER=NIST Mass Spectrometry Data Center
Collection (C) 2014 copyright by the U.S. Secretary of Commerce
on behalf of the United States of America. All rights reserved.
##CAS REGISTRY NO=407-22-7
##$NIST MASS SPEC NO=343018
##MOLFORM=C6 H6 F N
##MW=111
##$NIST SOURCE=MSDC
##XUNITS=M/Z
##YUNITS=RELATIVE INTENSITY
##XFACTOR=1
##YFACTOR=1
##FIRSTX=12
##LASTX=113
##FIRSTY=20
##MAXX=113
##MINX=12
##MAXY=9999
##MINY=10
##NPOINTS=77
##PEAK TABLE=(XY..XY)
12,20 13,10 14,30 15,210
16,20 18,20 19,10 24,10
25,60 26,380 27,410 28,210
31,721 32,50 33,220 36,50
37,571 38,871 39,1641 40,350
41,390 42,190 44,280 45,190
46,260 47,10 48,30 49,210
50,731 51,851 52,360 53,40
54,50 55,120 56,210 57,981
58,300 59,50 60,50 61,270
62,320 63,871 64,1481 65,571
66,150 67,40 68,350 69,761
70,510 71,150 72,140 75,100
76,721 77,50 78,40 79,10
80,40 81,190 82,250 83,1852
84,2732 85,661 86,30 87,20
88,20 89,50 91,4604 92,450
93,20 94,20 96,891 97,50
108,30 110,2873 111,9999 112,631
113,20
##END=
