##TITLE=2,2,2-Trifluoroethyl acrylate
##JCAMP-DX=4.24
##DATA TYPE=MASS SPECTRUM
##ORIGIN=Japan AIST/NIMC Database- Spectrum MS-IW-2188
##OWNER=NIST Mass Spectrometry Data Center
Collection (C) 2014 copyright by the U.S. Secretary of Commerce
on behalf of the United States of America. All rights reserved.
##CAS REGISTRY NO=407-47-6
##$NIST MASS SPEC NO=234360
##MOLFORM=C5 H5 F3 O2
##MW=154
##$NIST SOURCE=MSDC
##XUNITS=M/Z
##YUNITS=RELATIVE INTENSITY
##XFACTOR=1
##YFACTOR=1
##FIRSTX=13
##LASTX=155
##FIRSTY=10
##MAXX=155
##MINX=13
##MAXY=9999
##MINY=10
##NPOINTS=51
##PEAK TABLE=(XY..XY)
13,10 14,20 15,10 20,10
24,10 25,70 26,549 27,3519
28,229 29,239 30,50 31,189
32,40 33,509 37,10 38,10
39,10 41,50 42,109 43,30
44,40 45,80 46,10 50,30
51,70 52,10 53,159 54,99
55,9999 56,499 57,70 63,80
64,249 69,289 77,40 80,10
83,1169 84,20 85,139 86,10
90,159 95,10 106,20 110,129
126,20 127,10 134,40 135,30
153,109 154,249 155,10
##END=
