##TITLE=3-Cyclohexene-1-carboxaldehyde, 1,3,4-trimethyl-
##JCAMP-DX=4.24
##DATA TYPE=MASS SPECTRUM
##ORIGIN=NIST Mass Spectrometry Data Center, 1990.
##OWNER=NIST Mass Spectrometry Data Center
Collection (C) 2014 copyright by the U.S. Secretary of Commerce
on behalf of the United States of America. All rights reserved.
##CAS REGISTRY NO=40702-26-9
##$NIST MASS SPEC NO=118123
##MOLFORM=C10 H16 O
##MW=152
##$NIST SOURCE=MSDC
##XUNITS=M/Z
##YUNITS=RELATIVE INTENSITY
##XFACTOR=1
##YFACTOR=1
##FIRSTX=14
##LASTX=153
##FIRSTY=102
##MAXX=153
##MINX=14
##MAXY=9999
##MINY=81
##NPOINTS=80
##PEAK TABLE=(XY..XY)
14,102 15,486 27,4375 28,1004
29,4305 30,96 31,130 32,94
37,128 38,618 39,7105 40,1490
41,9421 42,752 43,4670 44,154
45,535 50,651 51,2019 52,901
53,3255 54,1066 55,3599 56,280
57,1012 59,151 61,106 62,215
63,637 64,106 65,2179 66,886
67,9999 68,1245 69,2866 70,231
71,214 75,81 77,3522 78,834
79,4190 80,901 81,9368 82,4423
83,577 84,119 89,157 91,4644
92,744 93,3391 94,1132 95,3947
96,662 97,361 103,331 104,228
105,1679 106,632 107,2715 108,1831
109,9521 110,1182 111,265 115,98
117,109 119,1976 120,391 121,1616
122,832 123,6733 124,1907 125,178
133,103 134,252 135,148 136,103
137,2396 138,257 152,2482 153,237
##END=
