##TITLE=Hexacosanoic acid, propyl ester
##JCAMP-DX=4.24
##DATA TYPE=MASS SPECTRUM
##ORIGIN=A.RAAL INST. MED. BIOCHEM., UNIV. GOTEBORG, GOTEBORG, SWEDE
##OWNER=NIST Mass Spectrometry Data Center
Collection (C) 2014 copyright by the U.S. Secretary of Commerce
on behalf of the United States of America. All rights reserved.
##CAS REGISTRY NO=40710-38-1
##$NIST MASS SPEC NO=37872
##MOLFORM=C29 H58 O2
##MW=438
##$NIST SOURCE=MSDC
##XUNITS=M/Z
##YUNITS=RELATIVE INTENSITY
##XFACTOR=1
##YFACTOR=1
##FIRSTX=15
##LASTX=441
##FIRSTY=40
##MAXX=441
##MINX=15
##MAXY=9999
##MINY=20
##NPOINTS=195
##PEAK TABLE=(XY..XY)
15,40 25,60 26,190 27,770
28,380 29,1820 30,140 31,170
32,20 37,60 38,60 39,350
40,580 41,3150 42,1320 43,9999
44,1370 45,150 50,60 51,40
52,40 53,150 54,460 55,3970
56,1260 57,6380 58,430 59,350
60,2220 61,5030 62,170 63,60
65,40 66,60 67,660 68,500
69,2710 70,870 71,2900 72,210
73,2220 74,250 75,80 77,60
78,60 79,120 80,100 81,580
82,430 83,1930 84,580 85,1550
86,150 87,580 88,80 89,60
91,40 93,80 94,80 95,540
96,270 97,1260 98,580 99,330
100,60 101,310 102,3480 103,2510
104,170 105,60 107,100 108,60
109,270 110,150 111,580 112,210
113,170 114,60 115,2320 116,310
117,60 119,40 121,120 122,60
123,150 124,80 125,350 126,120
127,120 128,60 129,680 130,120
135,120 136,40 137,80 138,60
139,210 140,80 141,80 143,150
144,120 149,100 151,60 152,60
153,150 154,60 155,80 157,210
158,100 159,40 163,60 165,60
166,40 167,100 168,60 169,60
171,480 172,80 177,60 181,80
182,40 183,40 185,150 186,60
187,40 195,80 196,40 197,40
199,80 200,60 208,20 209,60
210,40 211,40 213,80 214,60
223,60 227,80 228,40 237,60
238,40 239,20 241,80 242,40
251,40 252,20 255,60 256,20
264,40 265,20 269,60 278,40
279,40 280,40 283,60 284,40
292,20 293,20 297,80 298,60
311,60 312,40 325,40 326,20
334,40 335,40 336,20 339,60
340,40 353,210 354,80 359,60
360,40 361,20 367,60 368,40
369,40 376,140 377,150 378,80
379,1160 380,350 381,80 394,80
395,290 396,480 397,870 398,390
399,60 424,40 437,80 438,6870
439,2220 440,430 441,80
##END=
