##TITLE=Benzene,1-methoxy-4-(3-phenylpropyl)-
##JCAMP-DX=4.24
##DATA TYPE=MASS SPECTRUM
##ORIGIN=ASES Database, Dalian Institute, P.R. China
##OWNER=NIST Mass Spectrometry Data Center
Collection (C) 2014 copyright by the U.S. Secretary of Commerce
on behalf of the United States of America. All rights reserved.
##CAS REGISTRY NO=40715-68-2
##$NIST MASS SPEC NO=145862
##MOLFORM=C16 H18 O
##MW=226
##$NIST SOURCE=MSDC
##XUNITS=M/Z
##YUNITS=RELATIVE INTENSITY
##XFACTOR=1
##YFACTOR=1
##FIRSTX=39
##LASTX=227
##FIRSTY=550
##MAXX=227
##MINX=39
##MAXY=9999
##MINY=30
##NPOINTS=36
##PEAK TABLE=(XY..XY)
39,550 40,30 41,380 42,70
43,380 44,350 50,80 51,670
52,340 53,200 55,190 56,80
57,230 63,340 65,890 77,810
78,1060 79,470 89,270 90,190
91,2332 92,1101 103,460 104,390
105,860 106,150 107,200 108,460
121,9999 122,1461 123,70 134,1441
135,1090 136,70 226,2752 227,380
##END=
