##TITLE=Ethyl (trimethylsilyl)acetate
##JCAMP-DX=4.24
##DATA TYPE=MASS SPECTRUM
##ORIGIN=NIST Mass Spectrometry Data Center, 2009
##OWNER=NIST Mass Spectrometry Data Center
Collection (C) 2014 copyright by the U.S. Secretary of Commerce
on behalf of the United States of America. All rights reserved.
##CAS REGISTRY NO=4071-88-9
##$NIST MASS SPEC NO=372956
##MOLFORM=C7 H16 O2 Si
##MW=160
##$NIST SOURCE=MSDC
##XUNITS=M/Z
##YUNITS=RELATIVE INTENSITY
##XFACTOR=1
##YFACTOR=1
##FIRSTX=14
##LASTX=148
##FIRSTY=10
##MAXX=148
##MINX=14
##MAXY=9999
##MINY=10
##NPOINTS=80
##PEAK TABLE=(XY..XY)
14,10 15,60 26,50 27,370
28,190 29,801 30,60 31,230
33,10 39,40 40,10 41,70
42,550 43,2032 44,901 45,2262
46,170 47,701 48,40 49,30
50,70 51,20 53,170 54,50
55,400 56,100 57,350 58,300
59,1401 60,230 61,691 62,50
63,20 65,50 66,20 67,20
68,10 69,110 70,150 71,190
72,1331 73,9569 74,1091 75,9999
76,731 77,410 78,10 79,10
83,10 84,20 85,50 86,10
87,120 88,60 89,30 90,50
91,50 92,10 98,10 99,450
100,60 101,1101 103,9418 104,891
105,380 106,20 113,10 115,4194
116,1581 117,4464 118,480 119,230
120,20 129,10 133,80 134,10
145,2442 146,280 147,100 148,10
##END=
