##TITLE=Propane, 1,1,2,2-tetrafluoro-
##JCAMP-DX=4.24
##DATA TYPE=MASS SPECTRUM
##ORIGIN=E.SANTORO MONTEDISON S.P.A., RESEARCH CENTRE, MILAN, ITALY
##OWNER=NIST Mass Spectrometry Data Center
Collection (C) 2014 copyright by the U.S. Secretary of Commerce
on behalf of the United States of America. All rights reserved.
##CAS REGISTRY NO=40723-63-5
##$NIST MASS SPEC NO=37449
##MOLFORM=C3 H4 F4
##MW=116
##$NIST SOURCE=MSDC
##XUNITS=M/Z
##YUNITS=RELATIVE INTENSITY
##XFACTOR=1
##YFACTOR=1
##FIRSTX=15
##LASTX=116
##FIRSTY=150
##MAXX=116
##MINX=15
##MAXY=9999
##MINY=5
##NPOINTS=18
##PEAK TABLE=(XY..XY)
15,150 27,610 31,500 33,210
44,200 45,1590 46,400 47,380
51,2670 64,420 65,9999 66,220
69,320 77,680 95,390 97,290
101,1310 116,5
##END=
