##TITLE=3'-O-tert-butyldimethylsilyl-thymidine
##JCAMP-DX=4.24
##DATA TYPE=MASS SPECTRUM
##ORIGIN=ASES Database, Dalian Institute, P.R. China
##OWNER=NIST Mass Spectrometry Data Center
Collection (C) 2014 copyright by the U.S. Secretary of Commerce
on behalf of the United States of America. All rights reserved.
##CAS REGISTRY NO=40733-27-5
##$NIST MASS SPEC NO=144299
##MOLFORM=C16 H28 N2 O5 Si
##MW=356
##$NIST SOURCE=MSDC
##XUNITS=M/Z
##YUNITS=RELATIVE INTENSITY
##XFACTOR=1
##YFACTOR=1
##FIRSTX=59
##LASTX=300
##FIRSTY=1371
##MAXX=300
##MINX=59
##MAXY=9999
##MINY=550
##NPOINTS=35
##PEAK TABLE=(XY..XY)
59,1371 69,2222 73,9999 74,1121
75,8898 76,830 81,2632 89,1101
99,4734 101,1821 103,920 105,1111
115,3323 116,820 117,5034 126,1401
127,6135 129,2512 131,2612 143,1941
145,1101 147,4173 153,7236 155,1401
171,710 173,3323 183,1661 187,2212
201,4173 202,720 213,560 231,4173
232,820 299,2502 300,550
##END=
