##TITLE=Benzo[c]phenanthrene, 1-methyl-
##JCAMP-DX=4.24
##DATA TYPE=MASS SPECTRUM
##OWNER=NIST Mass Spectrometry Data Center
Collection (C) 2014 copyright by the U.S. Secretary of Commerce
on behalf of the United States of America. All rights reserved.
##CAS REGISTRY NO=4076-39-5
##$NIST MASS SPEC NO=11674
##MOLFORM=C19 H14
##MW=242
##$NIST SOURCE=MSDC
##XUNITS=M/Z
##YUNITS=RELATIVE INTENSITY
##XFACTOR=1
##YFACTOR=1
##FIRSTX=48
##LASTX=245
##FIRSTY=13
##MAXX=245
##MINX=48
##MAXY=9999
##MINY=13
##NPOINTS=197
##PEAK TABLE=(XY..XY)
48,13 49,13 50,90 51,129
52,13 53,13 54,13 55,52
56,39 57,26 58,13 59,13
60,13 61,103 62,78 63,194
64,13 65,26 66,13 67,26
68,13 69,13 70,13 71,26
72,13 73,13 74,116 75,116
76,26 77,39 78,13 79,90
80,65 81,39 82,26 83,13
84,13 85,13 86,65 87,155
88,65 89,26 90,13 92,13
93,65 94,129 95,116 96,13
97,103 98,65 99,103 100,246
101,258 102,103 103,13 104,13
105,65 106,233 107,220 108,194
109,13 110,39 111,90 112,439
113,1268 114,103 115,26 116,13
117,65 118,439 119,1294 120,2017
121,452 122,116 123,13 124,52
125,13 126,39 127,13 128,13
129,13 130,13 131,13 132,13
133,13 134,26 135,26 136,13
137,39 138,13 139,52 140,13
141,13 142,13 143,13 144,13
145,13 146,13 147,13 148,13
149,26 150,90 151,52 152,39
153,13 154,13 155,13 156,13
157,13 158,13 159,13 160,39
161,26 162,116 163,26 164,39
165,13 166,13 167,13 168,13
169,13 170,13 171,13 172,13
173,13 174,90 175,39 176,65
177,13 178,13 179,13 180,13
181,13 182,13 183,13 184,13
185,26 186,39 187,207 188,78
189,233 190,39 191,13 192,13
193,13 194,13 195,13 196,13
197,13 198,52 199,52 200,207
201,103 202,323 203,65 204,13
205,13 206,13 207,13 208,13
209,13 210,26 211,142 212,65
213,310 214,90 215,777 216,155
217,13 218,13 219,13 220,13
221,13 222,39 223,78 224,414
225,336 226,2536 227,1591 228,323
229,78 230,13 231,13 232,13
233,13 234,26 235,129 236,142
237,880 238,543 239,4566 240,1927
241,5110 242,9999 243,2004 244,336
245,52
##END=
