##TITLE=Benzo[c]phenanthrene, 1,12-dimethyl-
##JCAMP-DX=4.24
##DATA TYPE=MASS SPECTRUM
##OWNER=NIST Mass Spectrometry Data Center
Collection (C) 2014 copyright by the U.S. Secretary of Commerce
on behalf of the United States of America. All rights reserved.
##CAS REGISTRY NO=4076-43-1
##$NIST MASS SPEC NO=12437
##MOLFORM=C20 H16
##MW=256
##$NIST SOURCE=MSDC
##XUNITS=M/Z
##YUNITS=RELATIVE INTENSITY
##XFACTOR=1
##YFACTOR=1
##FIRSTX=37
##LASTX=259
##FIRSTY=20
##MAXX=259
##MINX=37
##MAXY=9999
##MINY=10
##NPOINTS=177
##PEAK TABLE=(XY..XY)
37,20 38,90 39,510 40,50
41,100 42,10 43,50 44,10
49,10 50,180 51,240 52,50
53,30 54,10 55,20 56,10
57,40 61,20 62,120 63,280
64,30 65,30 66,10 67,10
68,10 69,10 70,10 71,20
73,10 74,160 75,180 76,80
77,60 78,20 79,50 80,30
81,20 82,20 83,20 84,20
85,30 86,140 87,240 88,130
89,60 90,10 91,10 92,10
93,50 94,90 95,70 96,10
97,10 98,120 99,150 100,320
101,300 102,40 103,10 105,50
106,190 107,150 108,120 109,10
110,70 111,120 112,440 113,1321
114,160 115,40 116,10 117,40
118,440 119,1621 120,2492 121,90
122,50 123,40 124,140 125,300
126,420 127,180 128,460 129,10
133,10 134,20 135,30 136,10
137,30 138,20 139,60 140,10
141,10 146,10 147,10 148,10
149,30 150,100 151,60 152,50
153,10 158,10 159,10 161,40
162,40 163,130 164,30 165,40
166,10 173,10 174,80 175,50
176,70 177,10 178,10 185,30
186,50 187,230 188,90 189,310
190,70 191,10 197,10 198,60
199,50 200,200 201,110 202,390
203,80 204,10 205,10 206,10
209,20 210,20 211,170 212,70
213,280 214,70 215,290 216,70
217,10 219,10 222,40 223,50
224,280 225,200 226,2552 227,1001
228,190 229,80 230,10 233,10
234,20 235,140 236,130 237,1181
238,540 239,7837 240,2833 241,8578
242,1742 243,190 244,20 246,10
247,10 248,60 249,40 250,220
251,90 252,260 253,240 254,90
255,430 256,9999 257,2172 258,280
259,20
##END=
