##TITLE=Benzo[c]phenanthrene, 4-methyl-
##JCAMP-DX=4.24
##DATA TYPE=MASS SPECTRUM
##OWNER=NIST Mass Spectrometry Data Center
Collection (C) 2014 copyright by the U.S. Secretary of Commerce
on behalf of the United States of America. All rights reserved.
##CAS REGISTRY NO=4076-40-8
##$NIST MASS SPEC NO=11677
##MOLFORM=C19 H14
##MW=242
##$NIST SOURCE=MSDC
##XUNITS=M/Z
##YUNITS=RELATIVE INTENSITY
##XFACTOR=1
##YFACTOR=1
##FIRSTX=37
##LASTX=245
##FIRSTY=10
##MAXX=245
##MINX=37
##MAXY=9999
##MINY=10
##NPOINTS=142
##PEAK TABLE=(XY..XY)
37,10 38,60 39,260 40,20
41,20 42,10 43,10 44,10
49,10 50,140 51,150 52,30
53,10 55,10 56,10 57,10
61,20 62,90 63,190 64,20
65,20 67,10 68,10 69,10
71,10 73,10 74,130 75,120
76,40 79,50 80,30 81,30
82,10 85,20 86,110 87,170
88,70 89,30 93,40 94,110
95,80 97,10 98,100 99,100
100,170 101,130 102,10 105,40
106,160 107,180 108,140 109,10
110,50 111,80 112,240 113,991
114,80 115,20 117,20 118,170
119,520 120,1001 121,601 122,50
123,30 124,10 125,10 126,30
127,10 134,20 135,20 136,10
137,20 138,10 139,40 140,10
146,10 147,10 148,10 149,20
150,70 151,40 152,20 158,10
159,10 161,30 162,30 163,80
164,20 165,30 166,10 173,10
174,60 175,40 176,50 177,10
178,10 185,20 186,30 187,160
188,60 189,190 190,40 191,10
192,10 198,40 199,40 200,130
201,70 202,290 203,70 204,10
209,10 210,10 211,110 212,50
213,290 214,80 215,300 216,70
217,10 222,20 223,30 224,240
225,210 226,2282 227,1621 228,330
229,40 230,10 234,10 235,60
236,50 237,450 238,190 239,2022
240,651 241,1331 242,9999 243,2062
244,200 245,10
##END=
