##TITLE=3(2H)-Furanone, 4-methoxy-2,5-dimethyl-
##JCAMP-DX=4.24
##DATA TYPE=MASS SPECTRUM
##ORIGIN=Chuck Anderson, Aldrich Chemical Co.
##OWNER=NIST Mass Spectrometry Data Center
Collection (C) 2014 copyright by the U.S. Secretary of Commerce
on behalf of the United States of America. All rights reserved.
##CAS REGISTRY NO=4077-47-8
##$NIST MASS SPEC NO=117947
##MOLFORM=C7 H10 O3
##MW=142
##$NIST SOURCE=MSDC
##XUNITS=M/Z
##YUNITS=RELATIVE INTENSITY
##XFACTOR=1
##YFACTOR=1
##FIRSTX=13
##LASTX=144
##FIRSTY=16
##MAXX=144
##MINX=13
##MAXY=9999
##MINY=2
##NPOINTS=66
##PEAK TABLE=(XY..XY)
13,16 14,122 15,1078 16,22
18,2 25,29 26,389 27,1373
28,560 29,412 30,17 31,72
37,120 38,244 39,719 40,184
41,1285 42,554 43,9999 44,368
45,154 50,27 51,13 52,28
53,355 54,283 55,1344 56,507
57,198 58,26 59,57 66,58
67,131 68,72 69,754 70,359
71,790 72,93 81,147 82,76
83,359 84,288 85,377 86,59
87,85 95,58 96,68 97,147
98,44 99,542 100,46 109,63
110,39 111,72 112,162 113,117
114,7 123,17 125,215 126,18
127,283 128,12 141,424 142,5211
143,430 144,53
##END=
