##TITLE=1,5-Dihydroxy-1,2,3,4-tetrahydronaphthalene
##JCAMP-DX=4.24
##DATA TYPE=MASS SPECTRUM
##ORIGIN=NIST Mass Spectrometry Data Center, 1994
##OWNER=NIST Mass Spectrometry Data Center
Collection (C) 2014 copyright by the U.S. Secretary of Commerce
on behalf of the United States of America. All rights reserved.
##CAS REGISTRY NO=40771-26-4
##$NIST MASS SPEC NO=133683
##MOLFORM=C10 H12 O2
##MW=164
##$NIST SOURCE=MSDC
##XUNITS=M/Z
##YUNITS=RELATIVE INTENSITY
##XFACTOR=1
##YFACTOR=1
##FIRSTX=4
##LASTX=165
##FIRSTY=39
##MAXX=165
##MINX=4
##MAXY=9999
##MINY=22
##NPOINTS=101
##PEAK TABLE=(XY..XY)
4,39 14,22 15,157 19,126
26,193 27,1002 28,576 29,806
31,190 32,38 37,101 38,346
39,2284 40,309 41,729 42,136
43,450 44,71 45,102 50,768
51,2163 52,743 53,978 54,99
55,783 56,71 57,359 58,280
59,79 60,80 61,119 62,503
63,1479 64,504 65,1491 66,417
67,299 68,390 69,86 72,339
73,194 74,499 75,445 76,79
77,4181 78,1076 79,1925 80,422
81,205 85,68 86,146 87,199
88,68 89,838 90,606 91,3137
92,476 93,413 94,1475 95,361
101,153 102,346 103,817 104,230
105,657 106,153 107,7652 108,2546
109,214 113,82 115,2495 116,817
117,1810 118,968 119,702 120,1136
121,2746 122,233 123,127 126,209
127,1592 128,1024 129,865 130,82
131,3195 132,559 133,300 134,127
135,5041 136,6044 137,538 145,4776
146,9999 147,3772 148,383 149,96
161,94 162,212 163,2223 164,7799
165,884
##END=
