##TITLE=2-Propyn-1-amine, N,N-diethyl-
##JCAMP-DX=4.24
##DATA TYPE=MASS SPECTRUM
##OWNER=NIST Mass Spectrometry Data Center
Collection (C) 2014 copyright by the U.S. Secretary of Commerce
on behalf of the United States of America. All rights reserved.
##CAS REGISTRY NO=4079-68-9
##$NIST MASS SPEC NO=1564
##MOLFORM=C7 H13 N
##MW=111
##$NIST SOURCE=MSDC
##XUNITS=M/Z
##YUNITS=RELATIVE INTENSITY
##XFACTOR=1
##YFACTOR=1
##FIRSTX=13
##LASTX=113
##FIRSTY=40
##MAXX=113
##MINX=13
##MAXY=9999
##MINY=10
##NPOINTS=78
##PEAK TABLE=(XY..XY)
13,40 15,530 16,20 17,10
18,20 24,10 25,50 26,470
27,1692 28,2582 29,1421 30,410
31,20 32,50 36,20 37,160
38,410 39,1882 40,320 41,1561
42,1641 43,110 44,190 45,40
46,10 47,30 48,20 49,10
50,50 51,100 52,290 53,220
54,540 55,200 56,1742 57,140
58,210 59,10 61,10 62,10
63,20 64,20 65,80 66,220
67,180 68,971 69,70 70,290
71,130 72,100 73,10 74,10
75,10 76,10 77,10 78,20
79,10 80,170 81,60 82,190
83,20 84,30 85,20 86,651
87,40 92,10 93,40 94,50
95,20 96,9999 97,691 98,20
108,20 109,10 110,440 111,1451
112,120 113,10
##END=
