##TITLE=2-Isoamylpyrazine
##JCAMP-DX=4.24
##DATA TYPE=MASS SPECTRUM
##ORIGIN=NIST Mass Spectrometry Data Center, 1994
##OWNER=NIST Mass Spectrometry Data Center
Collection (C) 2014 copyright by the U.S. Secretary of Commerce
on behalf of the United States of America. All rights reserved.
##CAS REGISTRY NO=40790-22-5
##$NIST MASS SPEC NO=135935
##MOLFORM=C9 H14 N2
##MW=150
##$NIST SOURCE=MSDC
##XUNITS=M/Z
##YUNITS=RELATIVE INTENSITY
##XFACTOR=1
##YFACTOR=1
##FIRSTX=13
##LASTX=151
##FIRSTY=9
##MAXX=151
##MINX=13
##MAXY=9999
##MINY=5
##NPOINTS=69
##PEAK TABLE=(XY..XY)
13,9 14,26 15,216 16,7
25,20 26,661 27,1243 28,819
29,632 30,28 37,62 38,238
39,1607 40,426 41,1294 42,352
43,431 44,10 49,12 50,125
51,298 52,751 53,681 54,275
55,181 56,42 57,34 62,17
63,44 64,86 65,117 66,396
67,447 68,181 69,37 75,10
76,15 77,55 78,69 79,304
80,298 81,123 82,23 91,28
93,726 94,9999 95,688 96,29
104,10 105,30 107,1825 108,307
109,19 117,5 118,49 119,122
120,53 121,156 122,41 131,21
132,17 133,57 134,5 135,533
136,52 147,7 149,120 150,77
151,13
##END=
