##TITLE=[1,1'-Biphenyl]-4-carbonitrile, 4'-pentyl-
##JCAMP-DX=4.24
##DATA TYPE=MASS SPECTRUM
##ORIGIN=Tony Mujsce
##OWNER=NIST Mass Spectrometry Data Center
Collection (C) 2014 copyright by the U.S. Secretary of Commerce
on behalf of the United States of America. All rights reserved.
##CAS REGISTRY NO=40817-08-1
##$NIST MASS SPEC NO=215710
##MOLFORM=C18 H19 N
##MW=249
##$NIST SOURCE=MSDC
##XUNITS=M/Z
##YUNITS=RELATIVE INTENSITY
##XFACTOR=1
##YFACTOR=1
##FIRSTX=27
##LASTX=251
##FIRSTY=280
##MAXX=251
##MINX=27
##MAXY=9999
##MINY=20
##NPOINTS=87
##PEAK TABLE=(XY..XY)
27,280 28,50 29,390 39,220
40,20 41,300 42,20 43,50
50,40 51,70 53,30 55,30
57,30 62,30 63,100 65,60
74,20 75,50 76,60 77,100
78,20 82,30 87,30 88,40
89,70 90,20 91,40 100,30
101,40 102,40 103,20 108,40
111,40 112,40 113,70 114,40
115,100 116,40 117,30 123,30
124,30 125,70 126,60 127,90
128,50 137,50 138,40 139,110
140,240 141,50 149,40 150,110
151,170 152,220 153,130 154,40
163,140 164,300 165,920 166,240
167,40 175,40 176,100 177,540
178,220 179,240 180,50 181,30
188,40 189,80 190,1441 191,520
192,9999 193,2292 194,240 202,30
203,130 204,130 205,160 206,160
207,30 218,30 220,60 234,30
249,3202 250,630 251,50
##END=
