##TITLE=1-Hexanol, 5-methyl-2-(1-methylethyl)-, acetate
##JCAMP-DX=4.24
##DATA TYPE=MASS SPECTRUM
##ORIGIN=Japan AIST/NIMC Database- Spectrum MS-IW-2164
##OWNER=NIST Mass Spectrometry Data Center
Collection (C) 2014 copyright by the U.S. Secretary of Commerce
on behalf of the United States of America. All rights reserved.
##CAS REGISTRY NO=40853-55-2
##$NIST MASS SPEC NO=234381
##MOLFORM=C12 H24 O2
##MW=200
##$NIST SOURCE=MSDC
##XUNITS=M/Z
##YUNITS=RELATIVE INTENSITY
##XFACTOR=1
##YFACTOR=1
##FIRSTX=14
##LASTX=167
##FIRSTY=10
##MAXX=167
##MINX=14
##MAXY=9999
##MINY=10
##NPOINTS=84
##PEAK TABLE=(XY..XY)
14,10 15,169 26,20 27,649
28,99 29,769 30,20 31,50
38,10 39,519 40,99 41,2589
42,499 43,9999 44,289 45,70
50,10 51,30 52,20 53,229
54,239 55,4459 56,5939 57,5349
58,249 59,40 60,10 61,869
62,20 63,10 65,30 66,20
67,279 68,329 69,6499 70,2939
71,3749 72,219 73,459 74,179
75,30 77,30 79,40 80,10
81,249 82,389 83,1909 84,5879
85,2289 86,229 87,30 91,10
93,10 95,90 96,319 97,2509
98,389 99,70 100,129 101,40
103,20 109,20 110,20 111,70
112,369 113,60 114,40 115,80
116,10 123,30 124,10 125,349
126,99 127,159 128,20 129,10
138,10 139,50 140,1239 141,139
143,60 157,539 158,50 167,10
##END=
