##TITLE=4-Methyl-3-nitrobenzyl alcohol
##JCAMP-DX=4.24
##DATA TYPE=MASS SPECTRUM
##ORIGIN=Chuck Anderson, Aldrich Chemical Co.
##OWNER=NIST Mass Spectrometry Data Center
Collection (C) 2014 copyright by the U.S. Secretary of Commerce
on behalf of the United States of America. All rights reserved.
##CAS REGISTRY NO=40870-59-5
##$NIST MASS SPEC NO=107830
##MOLFORM=C8 H9 N O3
##MW=167
##$NIST SOURCE=MSDC
##XUNITS=M/Z
##YUNITS=RELATIVE INTENSITY
##XFACTOR=1
##YFACTOR=1
##FIRSTX=18
##LASTX=168
##FIRSTY=90
##MAXX=168
##MINX=18
##MAXY=9999
##MINY=8
##NPOINTS=87
##PEAK TABLE=(XY..XY)
18,90 26,107 27,947 28,221
29,630 30,442 31,791 36,59
37,87 38,291 39,2010 40,252
41,1062 42,76 43,249 44,42
45,33 46,110 49,9 50,536
51,1458 52,468 53,927 54,106
55,525 59,9 60,79 61,144
62,515 63,1604 64,476 65,3791
66,697 67,1270 68,164 69,63
73,19 74,296 75,286 76,242
77,5916 78,1364 79,632 80,160
81,221 82,52 85,45 86,121
87,121 88,20 89,1135 90,421
91,5707 92,1645 93,627 94,549
95,739 96,48 101,33 102,268
103,1978 104,643 105,507 106,257
107,223 108,109 109,8 118,82
119,677 120,1406 121,374 122,197
123,59 132,3874 133,385 134,87
135,134 136,8 137,90 148,239
149,57 150,9999 151,885 152,356
166,98 167,1374 168,113
##END=
