##TITLE=m-Cresol, 6-chloro-.alpha.,.alpha.,.alpha.-trifluoro-,
##JCAMP-DX=4.24
##DATA TYPE=MASS SPECTRUM
##ORIGIN=NIST Mass Spectrometry Data Center, 1994
##OWNER=NIST Mass Spectrometry Data Center
Collection (C) 2014 copyright by the U.S. Secretary of Commerce
on behalf of the United States of America. All rights reserved.
##CAS REGISTRY NO=40889-91-6
##$NIST MASS SPEC NO=136490
##MOLFORM=C7 H4 Cl F3 O
##MW=196
##$NIST SOURCE=MSDC
##XUNITS=M/Z
##YUNITS=RELATIVE INTENSITY
##XFACTOR=1
##YFACTOR=1
##FIRSTX=14
##LASTX=199
##FIRSTY=26
##MAXX=199
##MINX=14
##MAXY=9999
##MINY=12
##NPOINTS=115
##PEAK TABLE=(XY..XY)
14,26 17,29 20,26 25,88
26,64 28,120 29,51 31,221
32,12 35,130 36,128 37,787
38,1075 39,511 42,70 47,156
48,73 49,311 50,685 51,226
52,70 53,906 54,60 55,74
56,234 57,560 58,36 60,185
61,901 62,1325 63,4024 64,405
65,95 66,628 67,104 68,145
69,1060 71,97 72,168 73,757
74,411 75,1035 76,82 77,36
79,69 80,318 81,535 82,260
83,465 84,116 85,68 86,61
87,185 88,330 90,65 91,297
92,105 93,172 94,67 95,54
96,55 97,210 98,169 99,601
100,80 101,144 102,33 104,34
106,101 107,78 109,63 110,260
111,108 112,424 113,1147 114,259
115,48 117,206 118,40 119,78
123,65 126,36 129,44 130,26
132,2431 133,593 134,42 141,833
142,68 143,68 144,40 145,26
146,1484 147,291 148,1268 149,137
150,274 159,121 160,97 161,2123
162,165 166,29 167,103 168,49
169,45 175,86 177,2360 178,206
179,879 180,78 181,40 196,9999
197,903 198,3144 199,264
##END=
