##TITLE=2-Buten-1-ol, (Z)-
##JCAMP-DX=4.24
##DATA TYPE=MASS SPECTRUM
##ORIGIN=NIST Mass Spectrometry Data Center, 1990.
##OWNER=NIST Mass Spectrometry Data Center
Collection (C) 2014 copyright by the U.S. Secretary of Commerce
on behalf of the United States of America. All rights reserved.
##CAS REGISTRY NO=4088-60-2
##$NIST MASS SPEC NO=118176
##MOLFORM=C4 H8 O
##MW=72
##$NIST SOURCE=MSDC
##XUNITS=M/Z
##YUNITS=RELATIVE INTENSITY
##XFACTOR=1
##YFACTOR=1
##FIRSTX=13
##LASTX=73
##FIRSTY=68
##MAXX=73
##MINX=13
##MAXY=9999
##MINY=22
##NPOINTS=41
##PEAK TABLE=(XY..XY)
13,68 14,175 15,575 16,69
17,57 18,22 24,33 25,228
26,1128 27,4133 28,1064 29,7144
30,351 31,2899 32,88 36,117
37,682 38,1320 39,5523 40,748
41,2954 42,893 43,4247 44,1017
45,298 48,44 49,228 50,779
51,658 52,230 53,1436 54,1281
55,762 56,44 57,9999 58,321
69,208 70,160 71,648 72,2032
73,106
##END=
