##TITLE=Bromopride
##JCAMP-DX=4.24
##DATA TYPE=MASS SPECTRUM
##ORIGIN=NIST Mass Spectrometry Data Center, 1998.
##OWNER=NIST Mass Spectrometry Data Center
Collection (C) 2014 copyright by the U.S. Secretary of Commerce
on behalf of the United States of America. All rights reserved.
##CAS REGISTRY NO=4093-35-0
##$NIST MASS SPEC NO=292169
##MOLFORM=C14 H22 Br N3 O2
##MW=343
##$NIST SOURCE=MSDC
##XUNITS=M/Z
##YUNITS=RELATIVE INTENSITY
##XFACTOR=1
##YFACTOR=1
##FIRSTX=15
##LASTX=345
##FIRSTY=20
##MAXX=345
##MINX=15
##MAXY=9999
##MINY=10
##NPOINTS=161
##PEAK TABLE=(XY..XY)
15,20 26,10 27,80 28,190
29,310 30,790 31,10 37,10
38,10 39,40 40,20 41,80
42,380 43,120 44,140 45,10
50,40 51,100 52,140 53,50
54,50 55,30 56,440 57,150
58,1180 59,50 61,10 62,40
63,110 64,70 65,80 66,50
67,10 68,50 69,30 70,190
71,360 72,140 73,10 74,10
75,10 76,50 77,50 78,340
79,60 80,20 81,10 82,10
83,10 84,270 85,10 86,9999
87,950 88,40 89,30 90,330
91,180 92,50 93,90 94,30
95,10 96,10 97,10 99,3260
100,250 101,10 103,10 104,20
105,30 106,60 107,30 108,10
113,30 114,10 115,20 116,10
117,10 118,10 119,20 120,40
121,70 122,20 123,10 129,10
131,10 132,10 133,40 134,20
135,20 136,10 141,10 143,30
144,10 145,30 146,10 147,10
148,40 149,60 150,40 156,10
157,110 158,30 159,110 160,20
162,30 163,10 164,30 165,10
169,20 170,90 171,30 172,80
173,10 174,10 176,10 184,20
185,180 186,30 187,170 188,20
191,10 192,10 197,10 198,50
199,20 200,50 201,20 202,10
212,20 213,70 214,40 215,70
216,30 226,10 227,30 228,770
229,100 230,750 231,70 232,10
235,10 241,10 244,10 245,260
246,30 247,250 248,20 256,20
257,10 258,20 259,10 270,10
271,110 272,30 273,110 274,20
275,10 314,10 316,10 343,10
345,10
##END=
