##TITLE=Thiophene, 2-(1-methylethyl)-
##JCAMP-DX=4.24
##DATA TYPE=MASS SPECTRUM
##ORIGIN=AP-2094
##OWNER=NIST Mass Spectrometry Data Center
Collection (C) 2014 copyright by the U.S. Secretary of Commerce
on behalf of the United States of America. All rights reserved.
##CAS REGISTRY NO=4095-22-1
##$NIST MASS SPEC NO=2536
##MOLFORM=C7 H10 S
##MW=126
##$NIST SOURCE=MSDC
##XUNITS=M/Z
##YUNITS=RELATIVE INTENSITY
##XFACTOR=1
##YFACTOR=1
##FIRSTX=12
##LASTX=129
##FIRSTY=8
##MAXX=129
##MINX=12
##MAXY=9999
##MINY=4
##NPOINTS=98
##PEAK TABLE=(XY..XY)
12,8 13,9 14,27 15,222
16,16 25,6 26,64 27,528
28,139 29,40 32,23 33,11
34,15 35,4 36,5 37,105
38,254 39,1365 40,124 41,620
42,36 43,62 44,20 45,1601
46,54 47,124 48,10 49,46
50,253 51,479 52,113 53,292
54,50 55,67 56,16 57,230
58,423 59,222 60,48 61,82
62,170 63,214 64,36 65,413
66,182 67,605 68,42 69,359
70,85 71,251 72,28 73,38
74,64 75,38 76,27 77,953
78,401 79,75 80,11 81,86
82,117 83,85 84,233 85,611
86,50 87,37 89,12 90,5
91,126 92,29 93,51 94,8
95,66 96,21 97,303 98,27
99,25 105,20 106,6 107,8
108,44 109,312 110,265 111,9999
112,775 113,488 114,31 115,4
120,5 121,16 122,5 123,25
124,13 125,200 126,3018 127,277
128,145 129,12
##END=
