##TITLE=Tris(2-aminoethyl)amine
##JCAMP-DX=4.24
##DATA TYPE=MASS SPECTRUM
##ORIGIN=NIST Mass Spectrometry Data Center
##OWNER=NIST Mass Spectrometry Data Center
Collection (C) 2014 copyright by the U.S. Secretary of Commerce
on behalf of the United States of America. All rights reserved.
##CAS REGISTRY NO=4097-89-6
##$NIST MASS SPEC NO=342916
##MOLFORM=C6 H18 N4
##MW=146
##$NIST SOURCE=MSDC
##XUNITS=M/Z
##YUNITS=RELATIVE INTENSITY
##XFACTOR=1
##YFACTOR=1
##FIRSTX=11
##LASTX=117
##FIRSTY=40
##MAXX=117
##MINX=11
##MAXY=9999
##MINY=30
##NPOINTS=40
##PEAK TABLE=(XY..XY)
11,40 15,330 17,80 18,1381
19,50 26,140 27,550 30,2903
39,70 40,30 41,550 42,1822
43,1141 44,9999 45,260 51,60
52,50 54,150 55,150 56,1952
57,240 58,661 59,70 68,160
69,170 70,1141 71,370 73,1772
74,80 82,80 83,120 84,260
85,601 87,841 97,170 99,2532
100,190 112,150 116,3513 117,230
##END=
