##TITLE=Octyl nicotinate
##JCAMP-DX=4.24
##DATA TYPE=MASS SPECTRUM
##ORIGIN=Japan AIST/NIMC Database- Spectrum MS-NW-5141
##OWNER=NIST Mass Spectrometry Data Center
Collection (C) 2014 copyright by the U.S. Secretary of Commerce
on behalf of the United States of America. All rights reserved.
##CAS REGISTRY NO=40975-41-5
##$NIST MASS SPEC NO=232823
##MOLFORM=C14 H21 N O2
##MW=235
##$NIST SOURCE=MSDC
##XUNITS=M/Z
##YUNITS=RELATIVE INTENSITY
##XFACTOR=1
##YFACTOR=1
##FIRSTX=15
##LASTX=236
##FIRSTY=30
##MAXX=236
##MINX=15
##MAXY=9999
##MINY=10
##NPOINTS=107
##PEAK TABLE=(XY..XY)
15,30 17,10 18,30 26,80
27,759 28,169 29,1219 30,30
31,30 38,40 39,509 40,99
41,2159 42,1089 43,1879 44,70
45,20 49,20 50,369 51,1649
52,259 53,189 54,239 55,1909
56,1839 57,799 58,30 65,30
66,30 67,179 68,289 69,1399
70,1579 71,299 72,20 75,20
76,60 77,229 78,3839 79,1899
80,289 81,70 82,149 83,799
84,789 85,90 91,40 92,20
93,199 94,40 95,20 96,10
97,90 98,20 99,10 104,10
105,499 106,6349 107,2279 108,199
109,20 111,30 112,179 113,20
119,10 120,70 121,169 122,40
123,749 124,9999 125,739 126,70
134,50 135,90 136,30 137,769
138,70 140,20 148,40 149,50
150,369 151,719 152,80 158,20
160,10 161,10 162,30 163,109
164,1119 165,409 166,40 177,20
178,739 179,179 180,20 190,50
191,80 192,799 193,139 194,20
206,359 207,99 220,129 221,30
234,229 235,189 236,30
##END=
