##TITLE=Tetrakil(trimethylsilyl)silane
##JCAMP-DX=4.24
##DATA TYPE=MASS SPECTRUM
##ORIGIN=A.Pleshkova, Nesmeyanov Inst.Org.Elem.Cpds, Moscow
##OWNER=NIST Mass Spectrometry Data Center
Collection (C) 2014 copyright by the U.S. Secretary of Commerce
on behalf of the United States of America. All rights reserved.
##CAS REGISTRY NO=4098-98-0
##$NIST MASS SPEC NO=306292
##MOLFORM=C12 H36 Si5
##MW=320
##$NIST SOURCE=MSDC
##XUNITS=M/Z
##YUNITS=RELATIVE INTENSITY
##XFACTOR=1
##YFACTOR=1
##FIRSTX=57
##LASTX=325
##FIRSTY=671
##MAXX=325
##MINX=57
##MAXY=9999
##MINY=10
##NPOINTS=41
##PEAK TABLE=(XY..XY)
57,671 58,70 73,2192 74,190
75,80 131,480 132,10 133,40
158,1772 159,370 160,210 161,30
162,10 173,1591 174,350 175,190
176,30 177,10 232,9999 233,2953
234,1722 235,360 236,110 237,20
247,1011 248,310 249,180 250,40
251,10 305,3093 306,1171 307,721
308,190 309,60 310,10 320,4894
321,1922 322,1161 323,320 324,100
325,20
##END=
