##TITLE=2,5-Furandione, dihydro-3-methyl-
##JCAMP-DX=4.24
##DATA TYPE=MASS SPECTRUM
##ORIGIN=NIST Mass Spectrometry Data Center, 1998.
##OWNER=NIST Mass Spectrometry Data Center
Collection (C) 2014 copyright by the U.S. Secretary of Commerce
on behalf of the United States of America. All rights reserved.
##CAS REGISTRY NO=4100-80-5
##$NIST MASS SPEC NO=291736
##MOLFORM=C5 H6 O3
##MW=114
##$NIST SOURCE=MSDC
##XUNITS=M/Z
##YUNITS=RELATIVE INTENSITY
##XFACTOR=1
##YFACTOR=1
##FIRSTX=14
##LASTX=115
##FIRSTY=40
##MAXX=115
##MINX=14
##MAXY=9999
##MINY=10
##NPOINTS=30
##PEAK TABLE=(XY..XY)
14,40 15,90 25,60 26,360
27,910 28,180 29,120 34,20
35,10 36,40 37,280 38,480
39,1960 40,1070 41,3970 42,9999
43,400 44,180 45,90 49,10
50,20 52,10 53,130 54,20
55,280 56,20 69,30 70,1490
71,70 115,10
##END=
