##TITLE=Decane, 1,10-dibromo-
##JCAMP-DX=4.24
##DATA TYPE=MASS SPECTRUM
##ORIGIN=NIST Mass Spectrometry Data Center, 1990.
##OWNER=NIST Mass Spectrometry Data Center
Collection (C) 2014 copyright by the U.S. Secretary of Commerce
on behalf of the United States of America. All rights reserved.
##CAS REGISTRY NO=4101-68-2
##$NIST MASS SPEC NO=114614
##MOLFORM=C10 H20 Br2
##MW=298
##$NIST SOURCE=MSDC
##XUNITS=M/Z
##YUNITS=RELATIVE INTENSITY
##XFACTOR=1
##YFACTOR=1
##FIRSTX=27
##LASTX=179
##FIRSTY=1607
##MAXX=179
##MINX=27
##MAXY=9999
##MINY=83
##NPOINTS=57
##PEAK TABLE=(XY..XY)
27,1607 28,127 29,1599 39,2294
40,642 41,7162 42,1234 43,2928
44,131 51,186 52,128 53,993
54,128 55,9999 56,1265 57,3718
58,165 65,161 66,117 67,1241
68,616 69,5584 70,566 71,3134
72,183 77,132 79,287 80,155
81,606 82,404 83,4212 84,326
85,935 93,243 95,465 97,2092
98,156 106,83 107,672 109,762
121,305 123,243 135,2736 136,278
137,2873 138,137 139,261 148,260
149,632 150,279 151,604 162,85
163,784 164,134 165,724 177,551
179,534
##END=
