##TITLE=Quinoline, 6-methoxy-4-methyl-
##JCAMP-DX=4.24
##DATA TYPE=MASS SPECTRUM
##ORIGIN=CARL DJERASSI DEPT OF CHEM STANFORD UNIV STANFORD CALIF 94305
##OWNER=NIST Mass Spectrometry Data Center
Collection (C) 2014 copyright by the U.S. Secretary of Commerce
on behalf of the United States of America. All rights reserved.
##CAS REGISTRY NO=41037-26-7
##$NIST MASS SPEC NO=47042
##MOLFORM=C11 H11 N O
##MW=173
##$NIST SOURCE=MSDC
##XUNITS=M/Z
##YUNITS=RELATIVE INTENSITY
##XFACTOR=1
##YFACTOR=1
##FIRSTX=43
##LASTX=174
##FIRSTY=101
##MAXX=174
##MINX=43
##MAXY=9999
##MINY=101
##NPOINTS=38
##PEAK TABLE=(XY..XY)
43,101 50,707 51,1313 52,707
53,404 62,505 63,909 64,202
65,101 74,202 75,404 76,606
77,1919 78,303 80,101 86,101
87,101 88,101 89,202 101,101
102,808 103,1212 104,303 115,505
116,101 128,303 129,202 130,8384
131,909 142,202 143,909 144,303
158,1111 159,101 161,101 172,101
173,9999 174,1515
##END=
