##TITLE=1-Butanamine, N,3-dimethyl-
##JCAMP-DX=4.24
##DATA TYPE=MASS SPECTRUM
##OWNER=NIST Mass Spectrometry Data Center
Collection (C) 2014 copyright by the U.S. Secretary of Commerce
on behalf of the United States of America. All rights reserved.
##CAS REGISTRY NO=4104-44-3
##$NIST MASS SPEC NO=1136
##MOLFORM=C6 H15 N
##MW=101
##$NIST SOURCE=MSDC
##XUNITS=M/Z
##YUNITS=RELATIVE INTENSITY
##XFACTOR=1
##YFACTOR=1
##FIRSTX=15
##LASTX=101
##FIRSTY=90
##MAXX=101
##MINX=15
##MAXY=9999
##MINY=10
##NPOINTS=32
##PEAK TABLE=(XY..XY)
15,90 17,10 18,20 27,200
28,400 29,200 30,300 31,100
41,300 42,300 43,400 44,9999
45,300 46,10 55,100 56,100
57,90 58,300 59,30 69,20
70,90 71,30 72,60 73,10
84,30 85,10 86,50 87,30
98,20 99,10 100,60 101,1000
##END=
