##TITLE=1,3,5-Benzenetricarboxylic acid, triethyl ester
##JCAMP-DX=4.24
##DATA TYPE=MASS SPECTRUM
##ORIGIN=D.HENNEBERG, MAX-PLANCK INSTITUTE, MULHEIM, WEST GERMANY
##OWNER=NIST Mass Spectrometry Data Center
Collection (C) 2014 copyright by the U.S. Secretary of Commerce
on behalf of the United States of America. All rights reserved.
##CAS REGISTRY NO=4105-92-4
##$NIST MASS SPEC NO=63757
##MOLFORM=C15 H18 O6
##MW=294
##$NIST SOURCE=MSDC
##XUNITS=M/Z
##YUNITS=RELATIVE INTENSITY
##XFACTOR=1
##YFACTOR=1
##FIRSTX=27
##LASTX=297
##FIRSTY=379
##MAXX=297
##MINX=27
##MAXY=9999
##MINY=1
##NPOINTS=166
##PEAK TABLE=(XY..XY)
27,379 28,827 29,1598 30,36
31,28 32,16 36,2 39,48
41,11 42,12 43,68 44,59
45,490 46,16 49,11 50,7
51,30 53,57 55,15 59,9
63,21 64,39 65,776 66,60
67,7 69,18 72,7 73,2674
74,134 75,219 76,86 77,115
78,24 79,39 81,460 82,26
87,34 88,4 89,8 90,5
91,89 92,50 93,81 94,8
97,6 98,7 99,5 101,13
102,214 103,104 104,115 105,66
106,7 107,18 108,5 109,175
110,9 114,2 115,3 116,8
117,8 119,259 120,342 121,105
122,23 124,9 125,7 129,6
131,27 132,12 133,28 135,9
136,5 137,76 138,6 140,5
142,13 143,7 145,7 147,708
148,797 149,525 150,68 151,16
158,10 161,6 162,4 163,18
164,14 165,929 166,369 167,63
168,39 169,37 170,26 171,7
172,7 175,529 176,706 177,213
178,36 179,10 185,27 186,9
187,7 188,7 189,1 191,35
192,59 193,1865 194,1205 195,173
197,62 199,7 200,4 201,8
203,30 204,19 205,94 206,14
207,13 208,11 210,1558 211,194
212,43 213,39 214,18 215,6
217,18 219,52 220,113 221,3583
222,1022 223,150 224,30 225,5
230,6 231,6 235,14 236,10
237,150 238,1359 239,237 240,61
241,45 244,7 246,11 247,50
248,54 249,9999 250,1468 251,233
252,24 262,11 264,20 265,314
266,1783 267,299 268,57 279,38
280,6 293,204 294,1378 295,236
296,37 297,6
##END=
