##TITLE=3-Dibenzofuranamine
##JCAMP-DX=4.24
##DATA TYPE=MASS SPECTRUM
##ORIGIN=ORMSBG,9(10)1046(1974); RIEPE
##OWNER=NIST Mass Spectrometry Data Center
Collection (C) 2014 copyright by the U.S. Secretary of Commerce
on behalf of the United States of America. All rights reserved.
##CAS REGISTRY NO=4106-66-5
##$NIST MASS SPEC NO=44723
##MOLFORM=C12 H9 N O
##MW=183
##$NIST SOURCE=MSDC
##XUNITS=M/Z
##YUNITS=RELATIVE INTENSITY
##XFACTOR=1
##YFACTOR=1
##FIRSTX=100
##LASTX=185
##FIRSTY=77
##MAXX=185
##MINX=100
##MAXY=9999
##MINY=8
##NPOINTS=29
##PEAK TABLE=(XY..XY)
100,77 101,233 102,277 103,75
113,71 114,63 115,100 125,8
126,344 127,958 128,762 129,130
131,128 138,72 139,112 140,78
152,95 153,160 154,743 155,5800
156,293 157,54 166,101 168,105
180,56 182,869 183,9999 184,1440
185,110
##END=
