##TITLE=7-Amino-3-phenylcoumarin
##JCAMP-DX=4.24
##DATA TYPE=MASS SPECTRUM
##ORIGIN=V.G.Zaikin, TIPS, Russian Acad. Sci.
##OWNER=NIST Mass Spectrometry Data Center
Collection (C) 2014 copyright by the U.S. Secretary of Commerce
on behalf of the United States of America. All rights reserved.
##CAS REGISTRY NO=4108-61-6
##$NIST MASS SPEC NO=215760
##MOLFORM=C15 H11 N O2
##MW=237
##$NIST SOURCE=MSDC
##XUNITS=M/Z
##YUNITS=RELATIVE INTENSITY
##XFACTOR=1
##YFACTOR=1
##FIRSTX=50
##LASTX=240
##FIRSTY=200
##MAXX=240
##MINX=50
##MAXY=9999
##MINY=10
##NPOINTS=24
##PEAK TABLE=(XY..XY)
50,200 51,500 52,300 77,700
104,2001 105,400 113,100 126,100
127,200 139,200 151,200 152,700
153,400 165,200 180,2201 181,400
208,300 209,5004 210,900 236,200
237,9999 238,1680 239,130 240,10
##END=
