##TITLE=Benzonitrile, 3,5-dinitro-
##JCAMP-DX=4.24
##DATA TYPE=MASS SPECTRUM
##ORIGIN=MASS SPECTROMETRY CENTER, UNIV. OF UTAH; ALDRICH D19500-6
##OWNER=NIST Mass Spectrometry Data Center
Collection (C) 2014 copyright by the U.S. Secretary of Commerce
on behalf of the United States of America. All rights reserved.
##CAS REGISTRY NO=4110-35-4
##$NIST MASS SPEC NO=52813
##MOLFORM=C7 H3 N3 O4
##MW=193
##$NIST SOURCE=MSDC
##XUNITS=M/Z
##YUNITS=RELATIVE INTENSITY
##XFACTOR=1
##YFACTOR=1
##FIRSTX=12
##LASTX=195
##FIRSTY=114
##MAXX=195
##MINX=12
##MAXY=9999
##MINY=5
##NPOINTS=61
##PEAK TABLE=(XY..XY)
12,114 25,29 26,222 27,470
29,196 30,9999 31,284 36,152
37,998 38,1519 39,242 40,159
42,6 45,188 46,845 48,70
49,453 50,7860 51,665 52,306
53,183 60,114 61,593 62,2052
63,725 64,826 65,119 66,108
72,111 73,743 74,1831 75,3437
76,951 77,189 78,19 79,45
85,73 86,182 87,230 88,563
89,910 90,157 91,20 98,110
99,1381 100,5416 101,5661 102,627
103,58 115,21 116,73 117,1864
118,209 131,5 147,2491 148,249
163,20 177,217 193,7466 194,658
195,132
##END=
