##TITLE=[1,1'-Biphenyl]-4-carbonitrile, 4'-hexyl-
##JCAMP-DX=4.24
##DATA TYPE=MASS SPECTRUM
##ORIGIN=Japan AIST/NIMC Database- Spectrum MS-NW-4518
##OWNER=NIST Mass Spectrometry Data Center
Collection (C) 2014 copyright by the U.S. Secretary of Commerce
on behalf of the United States of America. All rights reserved.
##CAS REGISTRY NO=41122-70-7
##$NIST MASS SPEC NO=237759
##MOLFORM=C19 H21 N
##MW=263
##$NIST SOURCE=MSDC
##XUNITS=M/Z
##YUNITS=RELATIVE INTENSITY
##XFACTOR=1
##YFACTOR=1
##FIRSTX=14
##LASTX=265
##FIRSTY=10
##MAXX=265
##MINX=14
##MAXY=9999
##MINY=10
##NPOINTS=110
##PEAK TABLE=(XY..XY)
14,10 26,10 27,179 28,40
29,249 39,179 40,10 41,289
42,30 43,349 44,20 50,30
51,80 52,20 53,30 55,60
56,10 57,10 62,20 63,80
64,20 65,50 69,10 71,20
74,30 75,50 76,40 77,90
78,20 81,10 82,20 86,10
87,30 88,30 89,50 90,20
91,50 95,10 96,20 98,10
99,10 100,20 101,30 102,40
103,30 112,10 113,30 114,20
115,70 116,40 117,20 125,20
126,30 127,50 128,40 129,10
137,10 138,10 139,60 140,149
141,30 142,10 150,40 151,99
152,139 153,99 154,20 162,10
163,60 164,129 165,489 166,169
167,60 168,10 175,20 176,60
177,329 178,159 179,269 180,80
181,20 188,20 189,50 190,849
191,369 192,9999 193,2499 194,289
195,30 201,10 202,20 203,90
204,99 205,199 206,159 207,40
214,10 216,10 217,10 218,30
219,20 220,60 221,20 234,50
235,60 236,10 261,10 263,3669
264,789 265,80
##END=
