##TITLE=[1,1'-Biphenyl]-4-carbonitrile, 4'-heptyl-
##JCAMP-DX=4.24
##DATA TYPE=MASS SPECTRUM
##ORIGIN=Japan AIST/NIMC Database- Spectrum MS-NW-4516
##OWNER=NIST Mass Spectrometry Data Center
Collection (C) 2014 copyright by the U.S. Secretary of Commerce
on behalf of the United States of America. All rights reserved.
##CAS REGISTRY NO=41122-71-8
##$NIST MASS SPEC NO=237760
##MOLFORM=C20 H23 N
##MW=277
##$NIST SOURCE=MSDC
##XUNITS=M/Z
##YUNITS=RELATIVE INTENSITY
##XFACTOR=1
##YFACTOR=1
##FIRSTX=14
##LASTX=280
##FIRSTY=20
##MAXX=280
##MINX=14
##MAXY=9999
##MINY=10
##NPOINTS=115
##PEAK TABLE=(XY..XY)
14,20 26,10 27,219 28,10
29,309 39,189 40,20 41,379
42,40 43,589 44,30 50,30
51,70 52,20 53,30 55,99
56,20 57,70 62,20 63,70
64,20 65,50 67,10 69,10
74,20 75,40 76,30 77,90
78,20 81,10 82,20 83,10
85,20 86,10 87,20 88,30
89,50 90,20 91,50 95,20
96,20 99,10 100,20 101,30
102,40 103,30 113,30 114,20
115,60 116,50 117,20 125,20
126,20 127,40 128,40 129,10
133,10 134,10 137,10 138,10
139,50 140,129 141,30 142,10
150,40 151,90 152,129 153,90
154,20 162,10 163,50 164,129
165,459 166,169 167,50 168,10
175,10 176,60 177,329 178,149
179,299 180,90 181,30 188,30
189,40 190,809 191,349 192,9999
193,2749 194,349 195,50 201,10
202,20 203,90 204,99 205,279
206,189 207,50 208,10 216,10
217,20 218,50 219,20 220,60
221,70 222,10 234,50 235,20
248,10 275,10 276,10 277,4289
278,989 279,109 280,10
##END=
