##TITLE=Benzene, 1-azido-3-methyl-
##JCAMP-DX=4.24
##DATA TYPE=MASS SPECTRUM
##ORIGIN=MINISTRY OF DEFENCE ERDE, WALTHAM ABBEY, ESSEX, UK
##OWNER=NIST Mass Spectrometry Data Center
Collection (C) 2014 copyright by the U.S. Secretary of Commerce
on behalf of the United States of America. All rights reserved.
##CAS REGISTRY NO=4113-72-8
##$NIST MASS SPEC NO=39081
##MOLFORM=C7 H7 N3
##MW=133
##$NIST SOURCE=MSDC
##XUNITS=M/Z
##YUNITS=RELATIVE INTENSITY
##XFACTOR=1
##YFACTOR=1
##FIRSTX=14
##LASTX=134
##FIRSTY=100
##MAXX=134
##MINX=14
##MAXY=9999
##MINY=100
##NPOINTS=47
##PEAK TABLE=(XY..XY)
14,100 15,500 26,800 27,2100
28,2000 37,1200 38,2200 39,6200
41,1300 42,500 43,200 44,300
49,400 50,2600 51,3500 52,4800
53,800 54,300 61,400 62,800
63,2200 64,1200 65,3100 66,500
73,100 74,400 75,500 76,1100
77,3800 78,6700 79,2600 80,200
85,100 86,100 87,100 88,200
89,200 90,600 91,300 102,200
103,800 104,8200 105,9999 106,1100
107,300 133,3200 134,300
##END=
