##TITLE=2-Decyn-1-ol
##JCAMP-DX=4.24
##DATA TYPE=MASS SPECTRUM
##ORIGIN=NIST Mass Spectrometry Data Center, 1990.
##OWNER=NIST Mass Spectrometry Data Center
Collection (C) 2014 copyright by the U.S. Secretary of Commerce
on behalf of the United States of America. All rights reserved.
##CAS REGISTRY NO=4117-14-0
##$NIST MASS SPEC NO=114594
##MOLFORM=C10 H18 O
##MW=154
##$NIST SOURCE=MSDC
##XUNITS=M/Z
##YUNITS=RELATIVE INTENSITY
##XFACTOR=1
##YFACTOR=1
##FIRSTX=26
##LASTX=123
##FIRSTY=329
##MAXX=123
##MINX=26
##MAXY=9999
##MINY=45
##NPOINTS=52
##PEAK TABLE=(XY..XY)
26,329 27,3071 28,1530 29,3827
30,329 31,578 32,45 39,5658
40,1656 41,9319 42,2754 43,6254
44,354 50,558 51,1542 52,1656
53,2573 54,1594 55,9999 56,2365
57,2289 58,177 63,347 64,143
65,1200 66,1361 67,9118 68,2228
69,4529 70,6170 71,628 77,2053
79,6005 80,1449 81,6532 82,1851
83,4029 84,885 91,1749 93,4541
94,1441 95,1461 96,265 97,789
105,230 107,1688 108,350 109,273
110,266 111,1526 121,888 123,915
##END=
