##TITLE=Cholesta-2,4-diene
##JCAMP-DX=4.24
##DATA TYPE=MASS SPECTRUM
##ORIGIN=H. Fales, LC, NHLBI, NIH, Bethesda, MD 20892
##OWNER=NIST Mass Spectrometry Data Center
Collection (C) 2014 copyright by the U.S. Secretary of Commerce
on behalf of the United States of America. All rights reserved.
##CAS REGISTRY NO=4117-50-4
##$NIST MASS SPEC NO=124395
##MOLFORM=C27 H44
##MW=368
##$NIST SOURCE=MSDC
##XUNITS=M/Z
##YUNITS=RELATIVE INTENSITY
##XFACTOR=1
##YFACTOR=1
##FIRSTX=41
##LASTX=371
##FIRSTY=4380
##MAXX=371
##MINX=41
##MAXY=9999
##MINY=24
##NPOINTS=232
##PEAK TABLE=(XY..XY)
41,4380 42,509 43,8206 44,259
45,36 49,40 51,88 53,838
55,5543 56,599 57,4668 58,173
60,33 63,36 65,454 67,3136
68,618 69,3021 70,329 71,2195
72,113 73,36 77,1304 78,420
79,2973 80,2204 81,4239 82,547
83,2011 84,194 85,420 86,40
87,24 89,43 91,7358 92,2714
93,2443 94,1077 95,4467 96,721
97,1505 98,129 99,130 100,35
102,31 103,414 104,360 105,7706
106,7217 107,2918 108,1382 109,2535
110,781 111,984 112,98 113,141
115,554 116,220 117,1568 118,3174
119,2005 120,1277 121,1125 122,734
123,1426 124,239 125,319 126,55
127,298 128,426 129,727 130,283
131,2394 132,524 133,1306 134,633
135,1674 136,422 137,825 138,116
139,131 141,273 142,197 143,747
144,346 145,1570 146,547 147,1935
148,471 149,1152 150,195 151,374
152,105 153,159 154,53 155,119
156,74 157,488 158,273 159,901
160,1285 161,1069 162,298 163,732
164,123 165,403 166,77 167,129
168,34 169,73 170,41 171,307
172,119 173,598 174,361 175,398
176,110 177,156 178,49 179,218
180,57 181,67 183,65 184,35
185,429 186,126 187,288 188,82
189,155 190,41 191,152 192,70
193,416 194,77 195,25 197,100
198,39 199,363 200,174 201,372
202,92 203,111 204,32 205,154
206,196 207,157 208,30 211,59
212,43 213,800 214,376 215,308
216,106 217,76 218,36 219,101
220,32 221,36 225,44 226,25
227,243 228,185 229,182 230,52
231,52 233,66 235,68 239,74
240,35 241,119 242,71 243,51
245,148 246,71 247,392 248,127
249,200 250,698 251,133 253,58
254,77 255,2051 256,409 257,126
258,40 259,78 260,267 261,328
262,89 263,76 269,39 271,40
273,177 274,153 275,162 276,57
283,181 284,62 285,33 286,29
287,279 288,216 289,60 297,53
298,25 299,44 300,193 301,66
302,72 311,25 312,25 313,41
314,362 315,96 316,66 325,36
326,54 327,35 339,133 340,49
351,26 352,28 353,1020 354,282
355,122 356,41 366,253 367,53
368,9999 369,3554 370,821 371,141
##END=
