##TITLE=Acetic acid, trichloro-, anhydride
##JCAMP-DX=4.24
##DATA TYPE=MASS SPECTRUM
##ORIGIN=Japan AIST/NIMC Database- Spectrum MS-NW-5061
##OWNER=NIST Mass Spectrometry Data Center
Collection (C) 2014 copyright by the U.S. Secretary of Commerce
on behalf of the United States of America. All rights reserved.
##CAS REGISTRY NO=4124-31-6
##$NIST MASS SPEC NO=230210
##MOLFORM=C4 Cl6 O3
##MW=306
##$NIST SOURCE=MSDC
##XUNITS=M/Z
##YUNITS=RELATIVE INTENSITY
##XFACTOR=1
##YFACTOR=1
##FIRSTX=12
##LASTX=168
##FIRSTY=199
##MAXX=168
##MINX=12
##MAXY=9999
##MINY=10
##NPOINTS=103
##PEAK TABLE=(XY..XY)
12,199 13,30 14,10 16,129
28,1129 29,20 32,10 35,719
36,10 37,229 40,70 41,70
42,40 43,30 44,3719 45,50
46,20 47,2399 48,319 49,769
50,90 51,10 52,10 55,20
56,20 58,20 59,70 60,30
61,30 63,1189 64,40 65,409
66,10 70,50 72,30 75,50
76,139 77,40 78,30 79,40
80,10 81,30 82,3039 83,109
84,1989 85,60 86,329 87,10
90,60 91,90 92,40 93,20
94,99 95,10 96,60 97,10
98,20 100,10 101,10 103,10
104,30 105,30 106,20 107,20
109,10 110,799 111,159 112,509
113,109 114,90 115,20 116,10
117,9999 118,159 119,9479 120,139
121,3059 122,50 123,339 124,10
126,20 127,40 128,30 129,90
130,10 131,90 133,30 134,20
136,20 138,10 145,709 146,20
147,649 148,20 149,209 151,20
161,90 163,109 164,129 165,60
166,149 167,20 168,80
##END=
