##TITLE=Cycloheptane, methyl-
##JCAMP-DX=4.24
##DATA TYPE=MASS SPECTRUM
##ORIGIN=NIST Mass Spectrometry Data Center, 1990.
##OWNER=NIST Mass Spectrometry Data Center
Collection (C) 2014 copyright by the U.S. Secretary of Commerce
on behalf of the United States of America. All rights reserved.
##CAS REGISTRY NO=4126-78-7
##$NIST MASS SPEC NO=114019
##MOLFORM=C8 H16
##MW=112
##$NIST SOURCE=MSDC
##XUNITS=M/Z
##YUNITS=RELATIVE INTENSITY
##XFACTOR=1
##YFACTOR=1
##FIRSTX=26
##LASTX=112
##FIRSTY=325
##MAXX=112
##MINX=26
##MAXY=9999
##MINY=189
##NPOINTS=34
##PEAK TABLE=(XY..XY)
26,325 27,2235 28,1407 29,1494
39,4481 40,1169 41,7563 42,3462
43,1599 50,303 51,612 52,279
53,1514 55,9999 56,4579 57,736
63,189 65,426 66,230 67,1380
68,1377 69,3912 70,2719 71,329
77,320 79,323 81,352 82,1648
83,3901 84,1848 96,1725 97,9758
98,748 112,1373
##END=
