##TITLE=Cyclopropane, 1,1,2-trimethyl-
##JCAMP-DX=4.24
##DATA TYPE=MASS SPECTRUM
##OWNER=NIST Mass Spectrometry Data Center
Collection (C) 2014 copyright by the U.S. Secretary of Commerce
on behalf of the United States of America. All rights reserved.
##CAS REGISTRY NO=4127-45-1
##$NIST MASS SPEC NO=501
##MOLFORM=C6 H12
##MW=84
##$NIST SOURCE=MSDC
##XUNITS=M/Z
##YUNITS=RELATIVE INTENSITY
##XFACTOR=1
##YFACTOR=1
##FIRSTX=1
##LASTX=86
##FIRSTY=60
##MAXX=86
##MINX=1
##MAXY=9999
##MINY=10
##NPOINTS=59
##PEAK TABLE=(XY..XY)
1,60 2,10 12,10 13,20
14,90 15,561 16,20 25,10
26,240 27,1812 28,290 29,711
30,10 31,10 32,10 33,10
36,10 37,110 38,270 39,2542
40,510 41,9999 42,991 43,561
44,20 49,20 50,130 51,210
52,70 53,601 54,110 55,1031
56,641 57,130 60,10 61,10
62,30 63,50 64,10 65,80
66,40 67,360 68,110 69,6136
70,350 71,10 73,10 74,10
75,10 77,20 78,10 79,10
80,10 81,10 82,10 83,50
84,2903 85,190 86,10
##END=
