##TITLE=Phenol, 2,6-bis(1,1-dimethylethyl)-4-ethyl-
##JCAMP-DX=4.24
##DATA TYPE=MASS SPECTRUM
##OWNER=NIST Mass Spectrometry Data Center
Collection (C) 2014 copyright by the U.S. Secretary of Commerce
on behalf of the United States of America. All rights reserved.
##CAS REGISTRY NO=4130-42-1
##$NIST MASS SPEC NO=11230
##MOLFORM=C16 H26 O
##MW=234
##$NIST SOURCE=MSDC
##XUNITS=M/Z
##YUNITS=RELATIVE INTENSITY
##XFACTOR=1
##YFACTOR=1
##FIRSTX=15
##LASTX=236
##FIRSTY=520
##MAXX=236
##MINX=15
##MAXY=9999
##MINY=10
##NPOINTS=172
##PEAK TABLE=(XY..XY)
15,520 17,10 19,10 25,10
26,30 27,631 29,1702 30,50
31,50 32,10 36,10 37,20
38,30 39,631 40,90 41,1892
42,100 43,440 44,20 45,20
46,10 49,10 50,50 51,260
52,100 53,390 54,40 55,941
56,90 57,2592 58,200 59,60
60,50 61,10 62,30 63,140
64,170 65,330 66,100 67,200
69,260 70,50 71,80 72,110
73,220 74,540 76,100 77,510
78,160 79,320 80,230 81,130
82,20 83,50 84,20 85,30
86,50 87,130 88,951 90,40
91,751 92,100 93,130 94,80
95,160 96,30 97,30 102,581
103,190 104,70 105,390 106,40
107,120 108,20 109,20 110,10
111,10 113,20 114,20 115,370
116,170 117,270 118,60 119,330
120,50 121,90 122,20 123,30
124,10 125,10 126,20 127,120
128,320 129,310 130,120 131,290
132,70 133,210 134,40 135,140
136,20 137,20 138,10 139,20
140,20 141,180 142,140 143,130
144,70 145,210 146,70 147,250
148,50 149,70 150,20 151,20
152,30 153,50 154,30 155,100
156,80 157,120 158,50 159,561
160,100 161,110 162,40 163,130
164,20 165,20 166,20 167,30
168,30 169,40 170,30 171,90
172,50 173,110 174,40 175,200
176,40 177,130 178,30 179,10
183,10 184,10 185,20 186,30
187,40 188,20 189,110 190,40
191,260 192,50 199,10 200,10
201,40 202,20 203,330 204,120
205,330 206,150 215,30 217,90
219,9999 220,1702 221,160 232,20
233,60 234,2412 235,430 236,40
##END=
