##TITLE=Propanoic acid, 3,3'-thiobis-, dimethyl ester
##JCAMP-DX=4.24
##DATA TYPE=MASS SPECTRUM
##ORIGIN=Japan AIST/NIMC Database- Spectrum MS-NW-1019
##OWNER=NIST Mass Spectrometry Data Center
Collection (C) 2014 copyright by the U.S. Secretary of Commerce
on behalf of the United States of America. All rights reserved.
##CAS REGISTRY NO=4131-74-2
##$NIST MASS SPEC NO=230664
##MOLFORM=C8 H14 O4 S
##MW=206
##$NIST SOURCE=MSDC
##XUNITS=M/Z
##YUNITS=RELATIVE INTENSITY
##XFACTOR=1
##YFACTOR=1
##FIRSTX=13
##LASTX=209
##FIRSTY=10
##MAXX=209
##MINX=13
##MAXY=9999
##MINY=10
##NPOINTS=118
##PEAK TABLE=(XY..XY)
13,10 14,90 15,4659 16,50
25,20 26,409 27,2469 28,2319
29,559 30,119 31,539 32,379
33,80 34,90 35,189 37,20
38,20 39,219 40,30 41,809
42,389 43,1089 44,189 45,9359
46,1089 47,719 48,70 49,219
50,20 51,20 53,99 54,109
55,7109 56,839 57,2589 58,1489
59,7059 60,2389 61,839 62,119
63,80 64,10 65,10 67,20
68,30 69,20 70,20 71,90
72,129 73,1159 74,339 75,199
76,80 77,2199 78,70 79,99
81,30 82,30 83,50 84,60
85,299 86,1519 87,5229 88,4159
89,419 90,129 91,239 92,109
93,30 95,10 97,20 100,60
101,349 102,90 103,189 104,70
105,50 109,40 110,10 113,70
114,4009 115,519 116,329 117,109
118,1079 119,5789 120,1039 121,319
122,50 124,40 129,10 130,10
131,30 132,70 133,2399 134,149
135,119 141,20 142,1679 143,5069
144,459 145,259 146,9999 147,1149
148,559 149,50 160,20 173,50
174,109 175,1249 176,99 177,70
188,149 189,20 206,7219 207,699
208,409 209,40
##END=
