##TITLE=Benzene, 1-methoxy-4-(1-methylethyl)-
##JCAMP-DX=4.24
##DATA TYPE=MASS SPECTRUM
##ORIGIN=Japan AIST/NIMC Database- Spectrum MS-IW-3816
##OWNER=NIST Mass Spectrometry Data Center
Collection (C) 2014 copyright by the U.S. Secretary of Commerce
on behalf of the United States of America. All rights reserved.
##CAS REGISTRY NO=4132-48-3
##$NIST MASS SPEC NO=236417
##MOLFORM=C10 H14 O
##MW=150
##$NIST SOURCE=MSDC
##XUNITS=M/Z
##YUNITS=RELATIVE INTENSITY
##XFACTOR=1
##YFACTOR=1
##FIRSTX=15
##LASTX=152
##FIRSTY=40
##MAXX=152
##MINX=15
##MAXY=9999
##MINY=10
##NPOINTS=77
##PEAK TABLE=(XY..XY)
15,40 26,10 27,99 28,10
29,30 37,10 38,40 39,299
40,40 41,189 42,10 43,40
50,109 51,239 52,80 53,90
54,10 55,40 57,20 58,10
61,10 62,70 63,229 64,109
65,389 66,80 67,109 68,10
74,50 75,50 76,50 77,659
78,219 79,549 80,40 81,10
86,10 87,10 89,109 90,70
91,929 92,279 93,40 94,90
95,20 101,20 102,70 103,629
104,139 105,1619 106,149 107,80
108,50 109,139 110,10 115,60
116,20 117,40 118,40 119,239
120,469 121,219 122,20 124,40
131,10 132,10 133,159 134,139
135,9999 136,1009 137,60 147,10
148,159 149,119 150,2629 151,289
152,20
##END=
