##TITLE=Palladium, bis[(1,2,3-.eta.)-2-methyl-2-propenyl]-
##JCAMP-DX=4.24
##DATA TYPE=MASS SPECTRUM
##ORIGIN=D.HENNEBERG, MAX-PLANCK INSTITUTE, MULHEIM, WEST GERMANY
##OWNER=NIST Mass Spectrometry Data Center
Collection (C) 2014 copyright by the U.S. Secretary of Commerce
on behalf of the United States of America. All rights reserved.
##CAS REGISTRY NO=41348-25-8
##$NIST MASS SPEC NO=63883
##MOLFORM=C8 H14 Pd
##MW=216
##$NIST SOURCE=MSDC
##XUNITS=M/Z
##YUNITS=RELATIVE INTENSITY
##XFACTOR=1
##YFACTOR=1
##FIRSTX=26
##LASTX=222
##FIRSTY=344
##MAXX=222
##MINX=26
##MAXY=9999
##MINY=8
##NPOINTS=140
##PEAK TABLE=(XY..XY)
26,344 27,2308 28,309 29,1461
30,41 36,17 37,146 38,279
39,3135 40,1027 41,1066 42,49
43,26 48,16 49,96 50,303
51,422 52,126 53,1456 54,556
55,1519 56,406 57,26 62,9
63,8 64,10 65,28 66,19
67,146 68,142 69,25 70,11
73,12 74,12 77,32 79,19
80,21 81,65 82,17 91,32
92,12 93,34 94,11 95,224
96,31 102,68 103,20 104,746
105,1485 106,1949 107,164 108,1773
109,147 110,820 111,70 112,14
113,15 117,23 118,51 119,195
120,242 121,270 122,70 123,224
124,33 125,97 128,15 129,95
130,94 131,987 132,1893 133,2540
134,810 135,2761 136,184 137,1516
138,65 139,309 140,15 141,25
142,55 143,269 144,471 145,716
146,329 147,566 148,189 149,293
150,81 151,60 152,9 153,17
154,21 155,107 156,142 157,693
158,585 159,4623 160,7783 161,9999
162,682 163,8949 164,507 165,3955
166,163 171,20 172,12 173,40
174,33 175,44 176,53 177,21
178,47 180,16 182,12 183,11
184,12 185,20 187,15 197,13
198,9 199,20 200,43 201,40
203,23 205,16 207,10 210,12
211,15 212,130 213,30 214,1266
215,2651 216,3512 217,307 218,3168
219,298 220,1395 221,136 222,11
##END=
