##TITLE=1,1'-Biphenyl, 2,3,3',4,5,6-hexachloro-
##JCAMP-DX=4.24
##DATA TYPE=MASS SPECTRUM
##ORIGIN=T.L.Hayes, Battelle Columbus Laboratories, Columbus, OH 43221
##OWNER=NIST Mass Spectrometry Data Center
Collection (C) 2014 copyright by the U.S. Secretary of Commerce
on behalf of the United States of America. All rights reserved.
##CAS REGISTRY NO=41411-62-5
##$NIST MASS SPEC NO=80810
##MOLFORM=C12 H4 Cl6
##MW=358
##$NIST SOURCE=MSDC
##XUNITS=M/Z
##YUNITS=RELATIVE INTENSITY
##XFACTOR=1
##YFACTOR=1
##FIRSTX=33
##LASTX=369
##FIRSTY=25
##MAXX=369
##MINX=33
##MAXY=9999
##MINY=10
##NPOINTS=260
##PEAK TABLE=(XY..XY)
33,25 34,120 35,397 36,902
37,439 38,564 39,392 40,1179
41,123 42,101 43,269 44,221
47,302 48,44 49,425 50,1160
51,876 52,56 53,43 55,95
56,137 57,269 58,24 59,43
60,395 61,1193 62,506 63,290
64,30 66,70 67,145 68,12
69,57 70,30 71,269 72,569
73,1871 74,1403 75,1040 76,148
77,75 78,932 79,201 80,177
81,15 82,20 83,194 84,887
85,1151 86,668 87,217 88,146
90,162 91,2106 92,241 93,20
94,98 95,158 96,1335 97,1208
98,1151 99,538 100,42 101,70
102,94 103,41 104,66 106,151
107,460 108,1553 109,4954 110,2877
111,783 112,29 113,344 114,349
115,225 116,45 117,45 118,311
119,246 120,792 121,706 122,939
123,401 124,100 126,2606 127,2971
128,1550 129,14 130,179 131,578
132,1518 133,620 134,481 135,337
136,53 137,105 138,12 139,11
141,178 142,392 143,373 144,6245
145,6799 146,4142 147,1629 148,932
149,241 150,109 151,71 152,39
153,52 154,91 155,156 156,398
157,310 158,209 159,174 160,35
161,952 162,1819 163,1597 164,670
165,87 166,48 167,206 168,142
169,179 170,184 171,144 172,110
173,35 174,10 175,11 176,11
177,100 178,71 179,764 180,1382
181,1411 182,1140 183,1121 184,378
185,312 186,40 187,11 188,37
189,21 190,87 191,52 192,162
193,53 194,187 195,54 196,91
198,26 201,35 202,119 203,61
204,119 205,81 206,69 208,68
212,43 214,44 215,62 216,160
217,410 218,3164 219,634 220,1987
221,319 222,335 223,41 224,12
226,119 227,65 228,161 229,53
230,52 231,13 237,93 238,28
239,119 240,44 241,65 242,11
243,52 249,29 250,38 251,81
252,714 253,577 254,714 255,475
256,302 257,167 258,49 259,12
261,26 262,83 263,33 264,60
265,38 266,61 267,20 268,16
269,38 271,10 272,32 274,55
276,26 277,10 278,10 283,29
285,11 286,34 287,30 288,5290
289,760 290,6328 291,876 292,3022
293,392 294,710 295,123 296,95
297,24 298,51 299,10 300,11
306,10 311,10 313,11 315,12
322,154 323,143 324,305 325,175
326,226 327,96 328,123 329,95
330,30 331,28 333,16 346,23
358,5483 359,789 360,9999 361,1311
362,8077 363,1047 364,3548 365,460
366,860 367,123 368,107 369,11
##END=
