##TITLE=1,1'-Biphenyl, 2,3,3',4,4',5,6-Heptachloro-
##JCAMP-DX=4.24
##DATA TYPE=MASS SPECTRUM
##ORIGIN=Organic Synthesis Lab, MSU, Moscow.TRC 1197
##OWNER=NIST Mass Spectrometry Data Center
Collection (C) 2014 copyright by the U.S. Secretary of Commerce
on behalf of the United States of America. All rights reserved.
##CAS REGISTRY NO=41411-64-7
##$NIST MASS SPEC NO=326586
##MOLFORM=C12 H3 Cl7
##MW=392
##$NIST SOURCE=MSDC
##XUNITS=M/Z
##YUNITS=RELATIVE INTENSITY
##XFACTOR=1
##YFACTOR=1
##FIRSTX=41
##LASTX=404
##FIRSTY=21
##MAXX=404
##MINX=41
##MAXY=9999
##MINY=12
##NPOINTS=153
##PEAK TABLE=(XY..XY)
41,21 43,17 44,152 47,26
49,28 50,47 58,13 60,12
61,47 62,30 73,120 74,54
75,33 78,21 79,15 83,20
84,68 85,99 86,43 91,43
92,14 94,14 96,40 97,91
98,58 106,29 107,64 108,136
109,138 110,64 113,17 114,37
118,22 119,46 120,81 121,62
122,59 126,217 127,263 128,67
130,21 131,37 132,113 133,75
134,62 141,12 142,60 143,153
144,242 145,166 146,128 147,39
155,25 156,64 157,34 158,28
161,368 162,495 163,370 164,114
165,29 166,26 167,31 168,28
169,47 170,17 171,18 178,61
179,119 180,136 181,114 182,218
183,52 184,41 190,23 194,12
196,86 197,171 198,177 199,102
200,44 202,32 203,20 204,44
205,31 206,29 207,21 215,27
216,105 217,126 218,79 219,80
226,30 227,14 228,40 230,34
231,20 239,49 240,34 250,41
251,73 252,877 253,177 254,835
255,123 256,275 257,28 258,34
262,21 264,34 274,53 276,34
278,16 286,193 287,234 288,261
289,288 290,190 291,156 292,37
293,32 298,14 302,16 322,2399
323,305 324,3802 325,500 326,2505
327,357 328,837 329,92 330,129
356,50 357,46 358,122 359,73
360,145 361,95 362,76 363,30
392,4485 393,593 394,9999 395,1300
396,9811 397,1214 398,5377 399,642
400,1659 401,223 402,342 403,35
404,34
##END=
