##TITLE=2-Amino-N-methylbenzamide
##JCAMP-DX=4.24
##DATA TYPE=MASS SPECTRUM
##ORIGIN=NIST Mass Spectrometry Data Center, 1994
##OWNER=NIST Mass Spectrometry Data Center
Collection (C) 2014 copyright by the U.S. Secretary of Commerce
on behalf of the United States of America. All rights reserved.
##CAS REGISTRY NO=4141-08-6
##$NIST MASS SPEC NO=133955
##MOLFORM=C8 H10 N2 O
##MW=150
##$NIST SOURCE=MSDC
##XUNITS=M/Z
##YUNITS=RELATIVE INTENSITY
##XFACTOR=1
##YFACTOR=1
##FIRSTX=14
##LASTX=152
##FIRSTY=122
##MAXX=152
##MINX=14
##MAXY=9999
##MINY=27
##NPOINTS=73
##PEAK TABLE=(XY..XY)
14,122 15,901 16,44 18,55
26,162 27,460 28,2657 29,591
30,1192 31,119 32,80 37,405
38,1075 39,3154 40,366 41,643
42,374 43,57 44,190 46,160
49,65 50,508 51,508 52,1410
53,454 54,202 55,54 56,61
57,54 58,706 59,41 60,134
61,331 62,596 63,1641 64,1738
65,6318 66,1163 67,137 68,40
73,54 74,289 75,260 76,264
77,288 78,149 79,113 80,136
87,42 88,64 89,114 90,422
91,1425 92,8533 93,1002 94,406
104,177 105,216 106,149 107,56
116,27 117,123 119,6278 120,9999
121,1060 122,73 131,694 132,844
133,121 134,136 150,8486 151,811
152,35
##END=
