##TITLE=7-Tetradecene, (Z)-
##JCAMP-DX=4.24
##DATA TYPE=MASS SPECTRUM
##ORIGIN=D.HENNEBERG, MAX-PLANCK INSTITUTE, MULHEIM, WEST GERMANY
##OWNER=NIST Mass Spectrometry Data Center
Collection (C) 2014 copyright by the U.S. Secretary of Commerce
on behalf of the United States of America. All rights reserved.
##CAS REGISTRY NO=41446-60-0
##$NIST MASS SPEC NO=62805
##MOLFORM=C14 H28
##MW=196
##$NIST SOURCE=MSDC
##XUNITS=M/Z
##YUNITS=RELATIVE INTENSITY
##XFACTOR=1
##YFACTOR=1
##FIRSTX=25
##LASTX=196
##FIRSTY=28
##MAXX=196
##MINX=25
##MAXY=9999
##MINY=2
##NPOINTS=78
##PEAK TABLE=(XY..XY)
25,28 26,84 27,1598 28,151
29,3283 30,83 32,2 33,12
35,20 37,56 38,5 39,1279
40,245 41,6680 42,2494 43,7641
44,60 47,6 49,12 50,32
51,85 52,70 53,655 54,1925
55,9999 56,7006 57,5110 58,179
62,6 63,16 64,5 65,171
66,154 67,1693 68,974 69,8985
70,5679 71,2094 72,94 75,8
77,111 78,40 79,214 80,81
81,640 82,1038 83,5360 84,2736
85,865 86,36 91,54 93,38
94,14 95,237 96,464 97,3085
98,1174 99,98 109,67 110,209
111,1199 112,522 113,62 123,13
124,55 125,287 126,209 127,9
138,11 139,67 140,81 141,9
153,27 154,25 167,13 168,54
194,12 196,656
##END=
