##TITLE=3-Tetradecene, (E)-
##JCAMP-DX=4.24
##DATA TYPE=MASS SPECTRUM
##ORIGIN=S.A. Rang et al., IR & MS of Unsatd. Hydrocarbons, 1977
##OWNER=NIST Mass Spectrometry Data Center
Collection (C) 2014 copyright by the U.S. Secretary of Commerce
on behalf of the United States of America. All rights reserved.
##CAS REGISTRY NO=41446-68-8
##$NIST MASS SPEC NO=142623
##MOLFORM=C14 H28
##MW=196
##$NIST SOURCE=MSDC
##XUNITS=M/Z
##YUNITS=RELATIVE INTENSITY
##XFACTOR=1
##YFACTOR=1
##FIRSTX=15
##LASTX=197
##FIRSTY=59
##MAXX=197
##MINX=15
##MAXY=9999
##MINY=8
##NPOINTS=105
##PEAK TABLE=(XY..XY)
15,59 25,22 26,119 27,1572
28,267 29,3448 30,73 31,16
37,18 38,34 39,1318 40,294
41,9999 42,1978 43,6323 44,167
45,14 50,28 51,69 52,59
53,787 54,1228 55,7206 56,4412
57,3803 58,187 59,18 60,14
63,12 65,139 66,175 67,1572
68,1001 69,6471 70,4209 71,1775
72,97 73,12 77,109 78,28
79,193 80,63 81,600 82,881
83,3296 84,2028 85,827 86,50
91,69 92,14 93,46 94,22
95,267 96,360 97,2180 98,881
99,89 104,10 105,26 106,12
107,30 108,18 109,105 110,187
111,1001 112,507 113,59 114,8
115,12 117,8 119,16 120,8
121,34 122,32 123,38 124,81
125,327 126,260 127,34 128,8
133,12 135,30 136,32 137,14
138,38 139,93 140,107 141,18
147,10 149,22 150,10 151,10
152,20 153,50 154,48 155,10
163,8 165,10 166,12 167,28
168,97 169,14 194,16 196,814
197,107
##END=
