##TITLE=3-Tetradecene, (Z)-
##JCAMP-DX=4.24
##DATA TYPE=MASS SPECTRUM
##ORIGIN=D.HENNEBERG, MAX-PLANCK INSTITUTE, MULHEIM, WEST GERMANY
##OWNER=NIST Mass Spectrometry Data Center
Collection (C) 2014 copyright by the U.S. Secretary of Commerce
on behalf of the United States of America. All rights reserved.
##CAS REGISTRY NO=41446-67-7
##$NIST MASS SPEC NO=62806
##MOLFORM=C14 H28
##MW=196
##$NIST SOURCE=MSDC
##XUNITS=M/Z
##YUNITS=RELATIVE INTENSITY
##XFACTOR=1
##YFACTOR=1
##FIRSTX=23
##LASTX=197
##FIRSTY=7
##MAXX=197
##MINX=23
##MAXY=9999
##MINY=4
##NPOINTS=80
##PEAK TABLE=(XY..XY)
23,7 24,4 25,46 26,113
27,1788 28,207 29,3693 30,108
32,16 33,17 34,8 35,22
37,76 38,51 39,1476 40,308
41,9999 42,2712 43,9332 44,90
47,13 48,7 49,15 50,39
51,103 52,61 53,686 54,1268
55,9796 56,7381 57,6810 58,256
63,29 64,11 65,153 66,149
67,1635 68,1312 69,7986 70,6026
71,2565 72,112 75,7 77,105
78,26 79,185 80,93 81,608
82,1194 83,5002 84,2780 85,1044
86,61 91,46 92,10 93,36
94,10 95,192 96,428 97,3044
98,1197 99,129 109,39 110,188
111,1172 112,515 113,43 124,70
125,336 126,232 127,20 138,13
139,70 140,72 153,39 154,28
168,63 194,10 196,447 197,56
##END=
