##TITLE=2-Tridecene, (Z)-
##JCAMP-DX=4.24
##DATA TYPE=MASS SPECTRUM
##ORIGIN=S.A. Rang et al., IR & MS of Unsatd. Hydrocarbons, 1977
##OWNER=NIST Mass Spectrometry Data Center
Collection (C) 2014 copyright by the U.S. Secretary of Commerce
on behalf of the United States of America. All rights reserved.
##CAS REGISTRY NO=41446-59-7
##$NIST MASS SPEC NO=142613
##MOLFORM=C13 H26
##MW=182
##$NIST SOURCE=MSDC
##XUNITS=M/Z
##YUNITS=RELATIVE INTENSITY
##XFACTOR=1
##YFACTOR=1
##FIRSTX=15
##LASTX=184
##FIRSTY=146
##MAXX=184
##MINX=15
##MAXY=9999
##MINY=8
##NPOINTS=114
##PEAK TABLE=(XY..XY)
15,146 16,73 24,15 25,58
26,303 27,2789 28,607 29,5962
30,138 31,27 37,31 38,61
39,2277 40,456 41,9999 42,2596
43,9038 44,238 45,23 49,8
50,38 51,96 52,84 53,1037
54,1366 55,9904 56,5577 57,4808
58,241 59,49 60,23 61,8
63,19 64,8 65,149 66,153
67,1468 68,1101 69,4904 70,4038
71,1898 72,103 73,27 74,126
75,19 77,107 78,31 79,184
80,50 81,481 82,759 83,2981
84,1898 85,734 86,54 87,65
88,15 91,61 92,12 93,38
94,23 95,207 96,354 97,2126
98,860 99,130 103,8 105,23
106,8 107,27 108,15 109,92
110,149 111,734 112,392 113,50
114,8 115,12 117,12 119,15
120,8 121,31 122,31 123,31
124,54 125,218 126,169 127,27
128,8 129,12 131,8 133,12
134,8 135,27 136,27 137,12
138,27 139,65 140,69 141,15
143,12 145,8 147,12 148,8
149,19 150,12 151,8 152,12
153,35 154,96 155,23 182,633
183,100 184,8
##END=
