##TITLE=5-Tetradecene, (E)-
##JCAMP-DX=4.24
##DATA TYPE=MASS SPECTRUM
##ORIGIN=D.HENNEBERG, MAX-PLANCK INSTITUTE, MULHEIM, WEST GERMANY
##OWNER=NIST Mass Spectrometry Data Center
Collection (C) 2014 copyright by the U.S. Secretary of Commerce
on behalf of the United States of America. All rights reserved.
##CAS REGISTRY NO=41446-66-6
##$NIST MASS SPEC NO=62794
##MOLFORM=C14 H28
##MW=196
##$NIST SOURCE=MSDC
##XUNITS=M/Z
##YUNITS=RELATIVE INTENSITY
##XFACTOR=1
##YFACTOR=1
##FIRSTX=22
##LASTX=197
##FIRSTY=11
##MAXX=197
##MINX=22
##MAXY=9999
##MINY=4
##NPOINTS=84
##PEAK TABLE=(XY..XY)
22,11 25,25 26,71 27,1352
28,93 29,2312 30,55 32,15
34,6 35,14 36,18 37,48
38,37 39,1057 40,184 41,5405
42,1751 43,5349 44,92 45,14
46,6 47,6 49,13 50,41
51,72 52,43 53,496 54,1631
55,9999 56,5788 57,4945 58,200
63,30 65,116 66,148 67,1368
68,748 69,6402 70,4435 71,1667
72,85 75,5 77,114 78,47
79,187 80,67 81,600 82,916
83,4351 84,2240 85,707 86,37
91,48 92,13 93,43 94,16
95,204 96,383 97,2827 98,1038
99,114 105,4 107,6 109,51
110,156 111,941 112,465 113,38
123,10 124,68 125,286 126,190
127,25 138,22 139,66 140,64
141,5 153,37 154,31 168,58
194,12 195,5 196,599 197,93
##END=
