##TITLE=6-Tetradecene, (Z)-
##JCAMP-DX=4.24
##DATA TYPE=MASS SPECTRUM
##ORIGIN=S.A. Rang et al., IR & MS of Unsatd. Hydrocarbons, 1977
##OWNER=NIST Mass Spectrometry Data Center
Collection (C) 2014 copyright by the U.S. Secretary of Commerce
on behalf of the United States of America. All rights reserved.
##CAS REGISTRY NO=41446-61-1
##$NIST MASS SPEC NO=142628
##MOLFORM=C14 H28
##MW=196
##$NIST SOURCE=MSDC
##XUNITS=M/Z
##YUNITS=RELATIVE INTENSITY
##XFACTOR=1
##YFACTOR=1
##FIRSTX=15
##LASTX=197
##FIRSTY=82
##MAXX=197
##MINX=15
##MAXY=9999
##MINY=10
##NPOINTS=96
##PEAK TABLE=(XY..XY)
15,82 24,10 25,31 26,191
27,2238 28,223 29,4840 30,181
31,279 37,29 38,48 39,1633
40,294 41,9298 42,2178 43,7368
44,310 45,106 46,39 49,14
50,82 51,147 52,125 53,860
54,2420 55,9999 56,5929 57,4477
58,302 59,26 60,10 63,19
65,188 66,164 67,1754 68,939
69,7544 70,4658 71,1633 72,87
73,12 74,19 75,10 76,19
77,190 78,318 79,294 80,82
81,621 82,907 83,4356 84,2299
85,780 86,55 91,53 92,10
93,34 94,17 95,207 96,398
97,2601 98,1067 99,96 105,10
107,10 109,53 110,60 111,1098
112,573 113,67 114,247 115,24
123,14 124,75 125,342 126,255
127,39 128,10 138,39 139,111
140,108 141,26 152,19 153,46
154,46 155,10 156,10 166,10
167,24 168,104 169,14 170,591
171,67 194,10 196,891 197,104
##END=
