##TITLE=5-Tetradecene, (Z)-
##JCAMP-DX=4.24
##DATA TYPE=MASS SPECTRUM
##ORIGIN=S.A. Rang et al., IR & MS of Unsatd. Hydrocarbons, 1977
##OWNER=NIST Mass Spectrometry Data Center
Collection (C) 2014 copyright by the U.S. Secretary of Commerce
on behalf of the United States of America. All rights reserved.
##CAS REGISTRY NO=41446-62-2
##$NIST MASS SPEC NO=142626
##MOLFORM=C14 H28
##MW=196
##$NIST SOURCE=MSDC
##XUNITS=M/Z
##YUNITS=RELATIVE INTENSITY
##XFACTOR=1
##YFACTOR=1
##FIRSTX=15
##LASTX=197
##FIRSTY=108
##MAXX=197
##MINX=15
##MAXY=9999
##MINY=9
##NPOINTS=112
##PEAK TABLE=(XY..XY)
15,108 25,30 26,189 27,2586
28,242 29,4023 30,103 31,560
37,23 38,48 39,1667 40,333
41,8667 42,1839 43,7000 44,242
45,272 46,66 49,9 50,50
51,126 52,124 53,938 54,2126
55,9999 56,4253 57,5690 58,514
59,98 60,43 61,9 63,18
64,9 65,234 66,197 67,287
68,1028 69,5172 70,3506 71,1609
72,156 73,53 74,11 76,9
77,287 78,149 79,507 80,140
81,1422 82,938 83,3621 84,1782
85,726 86,140 87,48 88,14
91,140 92,21 93,219 94,64
95,1028 96,499 97,2356 98,877
99,348 103,9 105,23 107,92
108,27 109,272 110,242 111,1494
112,514 113,401 114,43 115,16
121,30 122,16 123,181 124,137
125,340 126,318 127,302 128,55
129,16 135,21 137,62 138,55
139,119 140,92 141,59 142,25
149,21 151,39 152,23 153,144
154,53 155,76 156,16 165,21
166,25 167,212 168,103 169,105
170,16 179,37 181,23 182,16
194,25 195,14 196,786 197,96
##END=
