##TITLE=Butanedioyl dihydrazide
##JCAMP-DX=4.24
##DATA TYPE=MASS SPECTRUM
##ORIGIN=Japan AIST/NIMC Database- Spectrum MS-NW-7020
##OWNER=NIST Mass Spectrometry Data Center
Collection (C) 2014 copyright by the U.S. Secretary of Commerce
on behalf of the United States of America. All rights reserved.
##CAS REGISTRY NO=4146-43-4
##$NIST MASS SPEC NO=236169
##MOLFORM=C4 H10 N4 O2
##MW=146
##$NIST SOURCE=MSDC
##XUNITS=M/Z
##YUNITS=RELATIVE INTENSITY
##XFACTOR=1
##YFACTOR=1
##FIRSTX=12
##LASTX=147
##FIRSTY=10
##MAXX=147
##MINX=12
##MAXY=9999
##MINY=10
##NPOINTS=76
##PEAK TABLE=(XY..XY)
12,10 13,20 14,70 15,119
16,159 17,189 18,70 24,10
25,50 26,559 27,1759 28,1429
29,1009 30,919 31,5059 32,2189
33,279 37,40 38,40 39,149
40,80 41,209 42,589 43,649
44,489 45,249 46,20 50,10
51,50 52,119 53,129 54,619
55,3389 56,489 57,289 58,209
59,1679 60,40 61,40 65,10
67,20 68,40 69,329 70,189
71,30 72,20 73,489 74,30
77,10 78,10 79,10 80,30
81,20 82,99 83,30 84,30
85,70 86,1019 87,1489 88,109
91,10 96,10 97,80 98,99
99,30 100,20 111,10 112,40
113,10 114,829 115,9999 116,559
117,50 128,90 146,20 147,30
##END=
