##TITLE=1,1'-Biphenyl, 2,3',5,5'-tetrachloro-
##JCAMP-DX=4.24
##DATA TYPE=MASS SPECTRUM
##ORIGIN=N. Todua, WGM, MMES
##OWNER=NIST Mass Spectrometry Data Center
Collection (C) 2014 copyright by the U.S. Secretary of Commerce
on behalf of the United States of America. All rights reserved.
##CAS REGISTRY NO=41464-42-0
##$NIST MASS SPEC NO=334717
##MOLFORM=C12 H6 Cl4
##MW=290
##$NIST SOURCE=MSDC
##XUNITS=M/Z
##YUNITS=RELATIVE INTENSITY
##XFACTOR=1
##YFACTOR=1
##FIRSTX=41
##LASTX=298
##FIRSTY=126
##MAXX=298
##MINX=41
##MAXY=9999
##MINY=126
##NPOINTS=123
##PEAK TABLE=(XY..XY)
41,126 44,126 45,200 47,200
48,200 49,263 50,527 51,263
52,126 54,126 55,200 56,126
60,263 61,390 62,390 63,327
64,126 67,200 71,200 72,200
73,527 74,1054 75,853 76,200
79,200 81,200 82,200 83,126
84,200 85,327 86,390 87,390
88,327 89,200 92,1054 96,200
97,464 98,590 99,590 100,200
101,200 107,200 108,263 109,527
110,1580 111,990 112,263 113,200
114,200 115,200 119,126 121,200
122,263 123,327 124,464 125,263
126,200 127,527 128,527 129,263
130,200 131,126 132,126 133,200
134,200 135,263 136,200 137,200
144,200 145,327 146,464 147,390
148,263 149,653 150,1117 151,327
157,200 158,200 159,200 161,200
162,200 169,126 170,263 171,200
172,200 173,200 174,200 181,200
182,200 183,263 184,727 185,590
186,390 187,263 188,200 194,200
195,200 196,200 207,126 218,200
219,263 220,3814 221,727 222,2434
223,527 224,590 225,200 254,263
255,200 256,263 257,200 258,126
259,126 260,126 290,7765 291,1180
292,9999 293,1317 294,4868 295,653
296,1117 297,263 298,263
##END=
