##TITLE=Propanamide, 3-chloro-2,2-dimethyl-
##JCAMP-DX=4.24
##DATA TYPE=MASS SPECTRUM
##ORIGIN=D.HENNEBERG, MAX-PLANCK INSTITUTE, MULHEIM, WEST GERMANY
##OWNER=NIST Mass Spectrometry Data Center
Collection (C) 2014 copyright by the U.S. Secretary of Commerce
on behalf of the United States of America. All rights reserved.
##CAS REGISTRY NO=41461-75-0
##$NIST MASS SPEC NO=63520
##MOLFORM=C5 H10 Cl N O
##MW=135
##$NIST SOURCE=MSDC
##XUNITS=M/Z
##YUNITS=RELATIVE INTENSITY
##XFACTOR=1
##YFACTOR=1
##FIRSTX=26
##LASTX=137
##FIRSTY=30
##MAXX=137
##MINX=26
##MAXY=9999
##MINY=8
##NPOINTS=64
##PEAK TABLE=(XY..XY)
26,30 27,404 28,400 29,974
30,71 36,57 38,20 39,448
40,188 41,2742 42,200 43,77
49,2049 50,136 51,703 52,77
53,140 54,113 55,2489 56,9999
57,793 58,211 59,29 62,16
63,346 64,18 65,110 66,11
67,15 68,32 69,111 70,29
71,8 73,10 74,17 75,74
77,51 79,11 80,33 82,30
83,160 84,33 86,284 87,15
89,8 90,202 91,640 92,121
93,217 94,17 98,15 99,187
100,2977 101,190 102,16 103,84
105,26 119,11 120,188 121,13
122,60 135,184 136,24 137,57
##END=
