##TITLE=1,1'-Biphenyl, 2,2',5,6'-Tetrachloro-
##JCAMP-DX=4.24
##DATA TYPE=MASS SPECTRUM
##ORIGIN=N. Todua, WGM, MMES
##OWNER=NIST Mass Spectrometry Data Center
Collection (C) 2014 copyright by the U.S. Secretary of Commerce
on behalf of the United States of America. All rights reserved.
##CAS REGISTRY NO=41464-41-9
##$NIST MASS SPEC NO=334707
##MOLFORM=C12 H6 Cl4
##MW=290
##$NIST SOURCE=MSDC
##XUNITS=M/Z
##YUNITS=RELATIVE INTENSITY
##XFACTOR=1
##YFACTOR=1
##FIRSTX=43
##LASTX=298
##FIRSTY=128
##MAXX=298
##MINX=43
##MAXY=9999
##MINY=128
##NPOINTS=124
##PEAK TABLE=(XY..XY)
43,128 44,257 47,193 49,321
50,439 51,321 55,193 56,128
57,128 60,257 61,567 62,503
63,321 67,193 68,193 71,193
72,257 73,696 74,1263 75,1017
76,193 78,193 79,257 80,257
82,193 83,375 84,503 85,503
86,375 87,128 92,1327 95,128
96,193 97,503 98,889 99,696
100,257 103,128 107,193 108,321
109,696 110,2088 111,1392 112,375
113,257 114,257 115,257 116,257
119,128 120,257 121,321 122,567
123,632 124,321 125,257 127,632
128,632 129,321 131,257 132,257
133,321 134,321 135,375 136,257
137,257 138,257 144,257 145,632
146,760 147,760 148,439 149,889
150,1895 151,375 157,257 158,257
159,375 160,321 161,257 162,257
169,257 170,257 171,257 172,257
173,257 181,257 182,257 183,321
184,1017 185,1135 186,503 187,439
188,257 194,321 195,257 196,257
204,257 206,257 207,257 217,257
218,257 220,5631 221,953 222,4111
223,696 224,760 225,321 254,375
255,3800 256,824 257,3544 258,824
259,1327 260,321 261,321 290,8736
291,1199 292,9999 293,1456 294,5374
295,824 296,1392 297,321 298,321
##END=
