##TITLE=1,1'-Biphenyl, 2,2',3,6'-tetrachloro-
##JCAMP-DX=4.24
##DATA TYPE=MASS SPECTRUM
##ORIGIN=BO JANSSON, STOCKHOLM UNIVERSITY, SWEDEN
##OWNER=NIST Mass Spectrometry Data Center
Collection (C) 2014 copyright by the U.S. Secretary of Commerce
on behalf of the United States of America. All rights reserved.
##CAS REGISTRY NO=41464-47-5
##$NIST MASS SPEC NO=53273
##MOLFORM=C12 H6 Cl4
##MW=290
##$NIST SOURCE=MSDC
##XUNITS=M/Z
##YUNITS=RELATIVE INTENSITY
##XFACTOR=1
##YFACTOR=1
##FIRSTX=50
##LASTX=296
##FIRSTY=790
##MAXX=296
##MINX=50
##MAXY=9999
##MINY=520
##NPOINTS=46
##PEAK TABLE=(XY..XY)
50,790 51,670 73,1650 74,3620
75,2930 84,520 85,1060 86,1010
87,610 92,4750 97,1120 98,1870
99,1750 110,6390 111,3870 122,780
123,1210 127,1840 128,1990 145,1080
146,1430 147,1160 148,660 149,1970
150,4530 151,600 184,1580 185,2140
186,870 187,640 220,9999 221,1530
222,6700 223,840 224,1110 255,5420
256,1060 257,5270 258,800 259,1610
290,5630 291,940 292,7260 294,3790
295,610 296,720
##END=
