##TITLE=1,1'-Biphenyl, 2,2',3,5'-tetrachloro-
##JCAMP-DX=4.24
##DATA TYPE=MASS SPECTRUM
##ORIGIN=Organic Synthesis Lab, MSU, Moscow.TRC 1343
##OWNER=NIST Mass Spectrometry Data Center
Collection (C) 2014 copyright by the U.S. Secretary of Commerce
on behalf of the United States of America. All rights reserved.
##CAS REGISTRY NO=41464-39-5
##$NIST MASS SPEC NO=326700
##MOLFORM=C12 H6 Cl4
##MW=290
##$NIST SOURCE=MSDC
##XUNITS=M/Z
##YUNITS=RELATIVE INTENSITY
##XFACTOR=1
##YFACTOR=1
##FIRSTX=43
##LASTX=299
##FIRSTY=33
##MAXX=299
##MINX=43
##MAXY=9999
##MINY=15
##NPOINTS=118
##PEAK TABLE=(XY..XY)
43,33 44,65 45,24 47,40
49,144 50,440 51,192 55,33
60,70 61,421 62,363 63,156
67,34 71,19 72,82 73,478
74,1092 75,879 76,91 79,89
80,67 81,25 83,20 84,218
85,342 86,384 87,215 90,15
92,1144 96,79 97,324 98,689
99,572 100,88 107,61 108,153
109,544 110,1700 111,1087 112,182
113,30 114,48 115,50 116,32
120,69 121,149 122,245 123,416
124,154 125,56 127,532 128,488
129,203 131,32 132,71 133,114
134,109 135,154 136,62 137,39
144,72 145,411 146,458 147,444
148,242 149,652 150,1610 151,208
157,35 158,39 159,97 160,98
161,46 162,21 169,25 170,105
171,41 172,85 173,27 181,31
182,40 183,121 184,882 185,795
186,364 187,253 188,57 193,16
194,103 195,21 196,68 207,30
217,27 218,61 220,5601 221,761
222,3420 223,406 224,590 225,74
254,141 255,3338 256,630 257,3392
258,557 259,1046 260,170 261,141
290,7793 291,1024 292,9999 293,1275
294,4645 295,595 296,1110 297,153
298,94 299,17
##END=
