##TITLE=1,1'-Biphenyl, 2,3,3',5'-tetrachloro-
##JCAMP-DX=4.24
##DATA TYPE=MASS SPECTRUM
##ORIGIN=Organic Synthesis Lab, MSU, Moscow.TRC 1329
##OWNER=NIST Mass Spectrometry Data Center
Collection (C) 2014 copyright by the U.S. Secretary of Commerce
on behalf of the United States of America. All rights reserved.
##CAS REGISTRY NO=41464-49-7
##$NIST MASS SPEC NO=326690
##MOLFORM=C12 H6 Cl4
##MW=290
##$NIST SOURCE=MSDC
##XUNITS=M/Z
##YUNITS=RELATIVE INTENSITY
##XFACTOR=1
##YFACTOR=1
##FIRSTX=44
##LASTX=298
##FIRSTY=69
##MAXX=298
##MINX=44
##MAXY=9999
##MINY=12
##NPOINTS=108
##PEAK TABLE=(XY..XY)
44,69 47,31 49,74 50,227
51,96 55,12 56,16 57,13
60,45 61,196 62,204 63,92
68,22 72,53 73,227 74,538
75,438 76,44 79,76 80,46
81,12 84,138 85,226 86,173
87,113 90,17 92,603 93,235
95,25 96,31 97,200 98,322
99,309 100,48 107,41 108,65
109,368 110,1005 111,568 112,94
113,62 120,44 121,58 122,155
123,218 124,74 125,28 127,330
128,331 129,143 131,16 132,26
133,55 134,47 135,74 136,36
137,26 138,12 145,240 146,261
147,232 148,149 149,347 150,957
151,113 157,26 158,28 159,65
160,68 161,34 170,82 171,33
172,40 181,19 182,30 183,94
184,548 185,528 186,219 187,168
188,23 194,65 195,26 196,55
218,64 219,145 220,3690 221,497
222,2532 223,302 224,415 225,40
230,19 254,218 255,136 256,228
257,152 258,76 259,44 290,7731
291,983 292,9999 293,1192 294,4748
295,616 296,1063 297,148 298,95
##END=
