##TITLE=3-Trifluoromethyl-N,N-dimethyl-4-nitroaniline
##JCAMP-DX=4.24
##DATA TYPE=MASS SPECTRUM
##ORIGIN=NIST Mass Spectrometry Data Center, 1994
##OWNER=NIST Mass Spectrometry Data Center
Collection (C) 2014 copyright by the U.S. Secretary of Commerce
on behalf of the United States of America. All rights reserved.
##CAS REGISTRY NO=41512-62-3
##$NIST MASS SPEC NO=135483
##MOLFORM=C9 H9 F3 N2 O2
##MW=234
##$NIST SOURCE=MSDC
##XUNITS=M/Z
##YUNITS=RELATIVE INTENSITY
##XFACTOR=1
##YFACTOR=1
##FIRSTX=4
##LASTX=236
##FIRSTY=19
##MAXX=236
##MINX=4
##MAXY=9999
##MINY=19
##NPOINTS=166
##PEAK TABLE=(XY..XY)
4,19 12,50 13,52 15,3438
16,163 17,27 18,376 20,120
26,168 27,523 28,1219 29,27
30,5390 31,106 33,80 37,199
38,492 39,728 40,329 41,780
42,8361 43,1032 44,1042 45,80
46,1480 47,50 50,869 51,1037
52,510 53,312 54,232 55,157
56,169 57,466 60,94 61,236
62,765 63,1873 64,391 65,579
66,686 67,282 68,773 69,2140
70,165 71,42 72,149 73,154
74,1071 75,2175 76,613 77,1004
78,513 79,264 80,223 81,595
82,210 83,307 84,168 86,179
87,254 88,389 89,253 90,172
91,918 92,624 93,484 94,605
95,688 96,550 97,253 98,168
99,475 100,243 101,440 102,239
103,285 104,1583 105,254 106,520
107,547 108,400 109,567 110,148
111,148 112,883 113,507 114,201
115,543 116,183 117,853 118,2844
119,1663 120,337 121,201 122,192
123,280 124,148 125,1074 126,472
127,3543 128,467 129,74 131,270
132,668 133,549 134,197 135,142
136,181 137,124 138,383 139,258
140,262 141,690 142,154 143,564
144,867 145,3611 146,625 147,853
148,467 149,86 150,74 151,111
152,330 153,589 154,279 155,43
156,100 157,106 158,447 159,474
160,339 161,292 162,45 166,442
167,220 168,268 169,75 170,46
171,274 172,1516 173,2296 174,263
175,45 176,1119 177,132 181,50
184,51 185,139 187,4213 188,6535
189,658 201,45 202,53 204,8708
205,814 206,72 215,177 217,104
218,471 219,57 231,235 234,9999
235,1089 236,96
##END=
