##TITLE=2-Propanol, 1-chloro-3-ethoxy-
##JCAMP-DX=4.24
##DATA TYPE=MASS SPECTRUM
##ORIGIN=J.VOTH UNIV. OF CALIFORNIA, DAVIS, CALIFORNIA, 95616, USA
##OWNER=NIST Mass Spectrometry Data Center
Collection (C) 2014 copyright by the U.S. Secretary of Commerce
on behalf of the United States of America. All rights reserved.
##CAS REGISTRY NO=4151-98-8
##$NIST MASS SPEC NO=26770
##MOLFORM=C5 H11 Cl O2
##MW=138
##$NIST SOURCE=MSDC
##XUNITS=M/Z
##YUNITS=RELATIVE INTENSITY
##XFACTOR=1
##YFACTOR=1
##FIRSTX=12
##LASTX=139
##FIRSTY=47
##MAXX=139
##MINX=12
##MAXY=9999
##MINY=4
##NPOINTS=83
##PEAK TABLE=(XY..XY)
12,47 13,131 14,594 15,2705
16,105 17,42 18,95 19,300
25,63 26,665 27,3385 28,706
29,7632 30,354 31,9997 32,193
33,47 35,56 36,147 37,82
38,128 39,388 40,62 41,416
42,488 43,3470 44,3268 45,1069
46,63 47,61 48,59 49,633
50,83 51,202 52,24 53,19
55,81 56,40 57,561 58,177
59,9999 60,429 61,2786 62,181
63,122 64,20 65,73 67,87
69,29 72,48 73,30 74,15
75,52 76,33 77,27 78,60
79,820 80,56 81,265 82,16
85,25 87,15 89,1148 90,87
91,67 92,28 93,281 94,26
95,160 96,13 97,29 102,662
103,42 107,67 109,41 110,8
111,10 121,4 123,9 125,4
137,6 138,4 139,4
##END=
