##TITLE=Benzene, (2-methoxyethoxy)-
##JCAMP-DX=4.24
##DATA TYPE=MASS SPECTRUM
##ORIGIN=NIST Mass Spectrometry Data Center
##OWNER=NIST Mass Spectrometry Data Center
Collection (C) 2014 copyright by the U.S. Secretary of Commerce
on behalf of the United States of America. All rights reserved.
##CAS REGISTRY NO=41532-81-4
##$NIST MASS SPEC NO=365131
##MOLFORM=C9 H12 O2
##MW=152
##$NIST SOURCE=MSDC
##XUNITS=M/Z
##YUNITS=RELATIVE INTENSITY
##XFACTOR=1
##YFACTOR=1
##FIRSTX=14
##LASTX=154
##FIRSTY=10
##MAXX=154
##MINX=14
##MAXY=9999
##MINY=10
##NPOINTS=76
##PEAK TABLE=(XY..XY)
14,10 15,330 16,10 25,10
26,90 27,320 28,220 29,1982
30,90 31,1661 32,10 33,70
37,70 38,310 39,1491 40,170
41,170 42,90 43,1011 44,50
45,2332 46,50 49,20 50,550
51,1952 52,160 53,100 54,20
55,100 57,60 58,1892 59,9999
60,340 61,80 62,180 63,540
64,200 65,1772 66,851 67,50
68,10 71,50 73,30 74,1211
75,140 76,170 77,4894 78,691
79,1001 80,70 81,10 85,30
89,30 90,20 91,490 92,220
93,290 94,5015 95,400 96,30
103,30 105,20 107,1001 108,270
109,30 110,20 119,80 120,170
121,80 122,10 134,10 136,10
137,10 152,5205 153,450 154,40
##END=
