##TITLE=1,3-Dioxepane, 2-pentadecyl-
##JCAMP-DX=4.24
##DATA TYPE=MASS SPECTRUM
##ORIGIN=R.T.HOLMAN,UNIVERSITY OF MINNESOTA
##OWNER=NIST Mass Spectrometry Data Center
Collection (C) 2014 copyright by the U.S. Secretary of Commerce
on behalf of the United States of America. All rights reserved.
##CAS REGISTRY NO=41563-29-5
##$NIST MASS SPEC NO=36409
##MOLFORM=C20 H40 O2
##MW=312
##$NIST SOURCE=MSDC
##XUNITS=M/Z
##YUNITS=RELATIVE INTENSITY
##XFACTOR=1
##YFACTOR=1
##FIRSTX=26
##LASTX=314
##FIRSTY=20
##MAXX=314
##MINX=26
##MAXY=9999
##MINY=10
##NPOINTS=106
##PEAK TABLE=(XY..XY)
26,20 27,170 28,230 29,440
30,40 31,200 32,50 39,120
40,50 41,910 42,470 43,1560
44,130 45,70 46,10 47,10
53,50 54,110 55,3430 56,320
57,600 58,50 59,20 60,10
65,20 66,20 67,170 68,130
69,290 70,140 71,1410 72,90
73,610 74,40 75,10 77,20
79,20 80,20 81,130 82,140
83,170 84,50 85,90 86,20
87,20 88,20 89,50 90,10
91,40 93,20 94,20 95,110
96,90 97,110 98,40 99,40
100,20 101,9999 102,550 103,60
104,10 105,10 109,50 110,40
111,50 112,20 113,20 114,20
115,50 116,70 117,20 123,30
124,30 125,20 126,20 127,30
129,20 137,20 138,20 139,20
140,10 141,20 149,20 150,10
151,20 152,20 153,20 154,20
165,20 166,20 167,20 194,20
195,20 196,20 219,20 220,20
221,10 222,20 223,20 239,20
240,20 284,20 285,10 312,44
313,20 314,10
##END=
