##TITLE=m-Xylene-.alpha.,.alpha.'-dithiol
##JCAMP-DX=4.24
##DATA TYPE=MASS SPECTRUM
##ORIGIN=NIST Mass Spectrometry Data Center
##OWNER=NIST Mass Spectrometry Data Center
Collection (C) 2014 copyright by the U.S. Secretary of Commerce
on behalf of the United States of America. All rights reserved.
##CAS REGISTRY NO=41563-69-3
##$NIST MASS SPEC NO=353034
##MOLFORM=C8 H10 S2
##MW=170
##$NIST SOURCE=MSDC
##XUNITS=M/Z
##YUNITS=RELATIVE INTENSITY
##XFACTOR=1
##YFACTOR=1
##FIRSTX=15
##LASTX=174
##FIRSTY=10
##MAXX=174
##MINX=15
##MAXY=9999
##MINY=10
##NPOINTS=108
##PEAK TABLE=(XY..XY)
15,10 18,10 26,20 27,80
28,10 32,30 33,120 34,40
35,20 36,10 37,30 38,90
39,440 40,40 41,40 45,761
46,60 47,250 48,10 49,20
50,240 51,540 52,240 53,90
54,20 55,10 57,10 58,60
59,120 60,10 61,50 62,160
63,480 64,110 65,350 66,60
67,230 68,420 69,210 70,40
71,100 72,10 73,20 74,110
75,140 76,150 77,831 78,831
79,250 80,20 81,30 82,50
83,30 84,40 85,30 86,40
87,40 88,10 89,490 90,230
91,1661 92,170 93,140 94,20
95,60 96,20 97,160 98,30
99,10 101,30 102,260 103,1311
104,4004 105,500 106,40 107,10
108,60 109,140 110,30 111,10
117,10 119,20 120,20 121,340
122,90 123,510 124,50 125,30
132,10 133,30 134,520 135,1111
136,480 137,9999 138,1041 139,520
140,50 152,10 153,20 165,10
166,10 167,20 168,10 170,4374
171,460 172,420 173,40 174,10
##END=
