##TITLE=Carbamodithioic acid, dibutyl-, ethyl ester
##JCAMP-DX=4.24
##DATA TYPE=MASS SPECTRUM
##ORIGIN=F.I.ONUSKA CANADA CENTRE FOR INLAND WATERS, ONTARIO, CANADA
##OWNER=NIST Mass Spectrometry Data Center
Collection (C) 2014 copyright by the U.S. Secretary of Commerce
on behalf of the United States of America. All rights reserved.
##CAS REGISTRY NO=41577-26-8
##$NIST MASS SPEC NO=38071
##MOLFORM=C11 H23 N S2
##MW=233
##$NIST SOURCE=MSDC
##XUNITS=M/Z
##YUNITS=RELATIVE INTENSITY
##XFACTOR=1
##YFACTOR=1
##FIRSTX=29
##LASTX=233
##FIRSTY=3972
##MAXX=233
##MINX=29
##MAXY=9999
##MINY=644
##NPOINTS=22
##PEAK TABLE=(XY..XY)
29,3972 39,1146 40,973 41,5165
43,6044 44,4662 56,4144 57,9999
69,2763 71,3108 76,3454 83,1978
85,2072 97,1900 105,754 109,801
111,879 116,2072 128,644 172,1381
205,879 233,832
##END=
