##TITLE=2H-Pyran-2,6(3H)-dione, dihydro-4,4-dimethyl-
##JCAMP-DX=4.24
##DATA TYPE=MASS SPECTRUM
##ORIGIN=Japan AIST/NIMC Database- Spectrum MS-NW-6128
##OWNER=NIST Mass Spectrometry Data Center
Collection (C) 2014 copyright by the U.S. Secretary of Commerce
on behalf of the United States of America. All rights reserved.
##CAS REGISTRY NO=4160-82-1
##$NIST MASS SPEC NO=231477
##MOLFORM=C7 H10 O3
##MW=142
##$NIST SOURCE=MSDC
##XUNITS=M/Z
##YUNITS=RELATIVE INTENSITY
##XFACTOR=1
##YFACTOR=1
##FIRSTX=13
##LASTX=143
##FIRSTY=20
##MAXX=143
##MINX=13
##MAXY=9999
##MINY=10
##NPOINTS=57
##PEAK TABLE=(XY..XY)
13,20 14,139 15,199 18,20
25,10 26,179 27,1199 28,669
29,919 30,20 31,20 32,10
34,10 37,80 38,229 39,1599
40,509 41,4799 42,839 43,589
44,109 45,40 49,40 50,169
51,189 52,70 53,329 54,189
55,2519 56,9999 57,469 58,20
59,50 60,20 62,10 63,10
65,10 66,10 67,40 68,10
69,70 70,4459 71,259 72,20
79,10 80,10 81,10 82,179
83,239 84,10 85,10 98,80
99,20 101,20 114,20 127,10
143,10
##END=
