##TITLE=4'-Methylbutyrophenone
##JCAMP-DX=4.24
##DATA TYPE=MASS SPECTRUM
##ORIGIN=NIST Mass Spectrometry Data Center
##OWNER=NIST Mass Spectrometry Data Center
Collection (C) 2014 copyright by the U.S. Secretary of Commerce
on behalf of the United States of America. All rights reserved.
##CAS REGISTRY NO=4160-52-5
##$NIST MASS SPEC NO=343051
##MOLFORM=C11 H14 O
##MW=162
##$NIST SOURCE=MSDC
##XUNITS=M/Z
##YUNITS=RELATIVE INTENSITY
##XFACTOR=1
##YFACTOR=1
##FIRSTX=14
##LASTX=163
##FIRSTY=40
##MAXX=163
##MINX=14
##MAXY=9999
##MINY=10
##NPOINTS=69
##PEAK TABLE=(XY..XY)
14,40 15,210 26,180 27,1251
28,220 29,30 37,70 39,1782
40,210 41,911 42,150 43,350
44,20 50,340 51,581 52,140
53,100 55,260 56,10 57,10
58,10 61,60 62,290 63,831
64,340 65,2572 66,160 69,30
70,10 71,30 73,30 74,30
75,70 76,60 77,230 78,60
79,90 80,10 85,10 86,50
87,60 89,711 91,4734 92,470
93,30 102,20 103,60 104,30
105,100 106,10 115,100 116,30
119,9999 120,881 121,60 127,10
128,20 129,30 130,10 131,20
132,10 134,460 135,40 144,20
145,10 147,1291 148,140 162,591
163,70
##END=
