##TITLE=2,4-Dimethyl 1,4-pentadiene
##JCAMP-DX=4.24
##DATA TYPE=MASS SPECTRUM
##ORIGIN=NIST Mass Spectrometry Data Center, 1990.
##OWNER=NIST Mass Spectrometry Data Center
Collection (C) 2014 copyright by the U.S. Secretary of Commerce
on behalf of the United States of America. All rights reserved.
##CAS REGISTRY NO=4161-65-3
##$NIST MASS SPEC NO=114468
##MOLFORM=C7 H12
##MW=96
##$NIST SOURCE=MSDC
##XUNITS=M/Z
##YUNITS=RELATIVE INTENSITY
##XFACTOR=1
##YFACTOR=1
##FIRSTX=14
##LASTX=96
##FIRSTY=199
##MAXX=96
##MINX=14
##MAXY=9999
##MINY=39
##NPOINTS=41
##PEAK TABLE=(XY..XY)
14,199 15,242 16,96 26,184
27,1512 28,122 29,790 37,135
38,448 39,3650 40,714 41,3011
42,170 43,114 50,391 51,600
52,253 53,1799 54,555 55,1103
56,1034 57,86 61,39 62,97
63,159 64,39 65,455 66,236
67,971 68,195 69,45 74,59
77,541 79,2738 81,9999 82,671
83,66 91,75 93,66 95,249
96,85
##END=
