##TITLE=4-Chloro-3-nitrobenzanilide
##JCAMP-DX=4.24
##DATA TYPE=MASS SPECTRUM
##ORIGIN=NIST Mass Spectrometry Data Center, 1994
##OWNER=NIST Mass Spectrometry Data Center
Collection (C) 2014 copyright by the U.S. Secretary of Commerce
on behalf of the United States of America. All rights reserved.
##CAS REGISTRY NO=41614-16-8
##$NIST MASS SPEC NO=134387
##MOLFORM=C13 H9 Cl N2 O3
##MW=276
##$NIST SOURCE=MSDC
##XUNITS=M/Z
##YUNITS=RELATIVE INTENSITY
##XFACTOR=1
##YFACTOR=1
##FIRSTX=14
##LASTX=280
##FIRSTY=12
##MAXX=280
##MINX=14
##MAXY=9999
##MINY=1
##NPOINTS=125
##PEAK TABLE=(XY..XY)
14,12 17,9 18,9 26,12
28,71 30,215 36,14 37,35
38,115 39,385 40,38 41,30
44,6 46,36 49,26 50,142
51,216 52,81 53,40 54,7
61,23 62,86 63,301 64,164
65,547 66,79 70,20 72,12
73,76 74,364 75,971 76,110
77,230 78,28 83,16 84,118
85,19 86,47 87,31 88,29
89,28 90,28 91,86 92,172
93,136 94,261 95,20 97,23
98,93 99,35 100,46 101,20
102,18 103,80 104,11 105,7
106,6 110,1716 111,203 112,550
113,57 114,12 115,21 116,8
117,8 119,22 120,12 124,21
126,331 127,34 128,120 129,11
138,3694 139,406 140,1305 141,103
142,7 149,18 150,12 151,10
152,28 154,125 155,25 156,50
164,42 165,28 166,115 167,86
168,251 169,31 170,89 171,11
173,9 177,12 182,12 184,9999
185,876 186,3369 187,268 188,34
194,28 195,14 200,16 201,21
202,9 203,13 204,75 205,13
206,22 207,1 208,9 211,7
229,27 230,10 231,11 241,30
242,10 246,27 247,10 248,15
276,3235 277,490 278,1091 279,160
280,12
##END=
