##TITLE=1-Butanamine, N-butyl-N-nitro-
##JCAMP-DX=4.24
##DATA TYPE=MASS SPECTRUM
##ORIGIN=T. BRYCE UNILEVER RESEARCH COLWORTH/WELWYN, BEDFORD U.K.
##OWNER=NIST Mass Spectrometry Data Center
Collection (C) 2014 copyright by the U.S. Secretary of Commerce
on behalf of the United States of America. All rights reserved.
##CAS REGISTRY NO=4164-31-2
##$NIST MASS SPEC NO=7010
##MOLFORM=C8 H18 N2 O2
##MW=174
##$NIST SOURCE=MSDC
##XUNITS=M/Z
##YUNITS=RELATIVE INTENSITY
##XFACTOR=1
##YFACTOR=1
##FIRSTX=38
##LASTX=174
##FIRSTY=113
##MAXX=174
##MINX=38
##MAXY=9999
##MINY=100
##NPOINTS=31
##PEAK TABLE=(XY..XY)
38,113 39,806 40,903 41,3097
42,5742 43,5161 44,1548 53,135
54,232 55,774 56,1419 57,2710
58,155 70,839 71,123 72,400
83,152 84,9999 85,1032 86,2161
87,145 89,516 98,142 99,303
100,100 112,187 128,1161 129,213
131,3774 132,252 174,106
##END=
