##TITLE=Benzen-d5-amine
##JCAMP-DX=4.24
##DATA TYPE=MASS SPECTRUM
##ORIGIN=NIST Mass Spectrometry Data Center, 1990.
##OWNER=NIST Mass Spectrometry Data Center
Collection (C) 2014 copyright by the U.S. Secretary of Commerce
on behalf of the United States of America. All rights reserved.
##CAS REGISTRY NO=4165-61-1
##$NIST MASS SPEC NO=118601
##MOLFORM=C6 H2 D5 N
##MW=98
##$NIST SOURCE=MSDC
##XUNITS=M/Z
##YUNITS=RELATIVE INTENSITY
##XFACTOR=1
##YFACTOR=1
##FIRSTX=14
##LASTX=100
##FIRSTY=57
##MAXX=100
##MINX=14
##MAXY=9999
##MINY=10
##NPOINTS=66
##PEAK TABLE=(XY..XY)
14,57 15,70 16,87 17,82
18,100 20,36 26,122 27,233
28,804 29,987 30,442 31,10
32,94 33,27 35,48 36,101
37,146 38,848 39,350 40,1484
41,1594 42,3412 43,768 44,328
45,162 46,87 47,111 48,131
49,619 50,206 51,48 52,918
53,883 54,857 55,190 56,610
57,277 58,56 60,43 61,38
62,206 63,99 64,444 65,246
66,675 67,423 68,745 69,1273
70,3072 71,4161 72,308 74,27
75,30 76,184 77,40 78,57
79,66 80,259 81,184 82,142
94,41 96,532 97,2195 98,9999
99,918 100,35
##END=
