##TITLE=Phenol, 4-(2-methylpropyl)-
##JCAMP-DX=4.24
##DATA TYPE=MASS SPECTRUM
##ORIGIN=J.MACAK, DEP. COKE GAS TECH., PRAGUE INST. CHEM. TECH., CZECIV
##OWNER=NIST Mass Spectrometry Data Center
Collection (C) 2014 copyright by the U.S. Secretary of Commerce
on behalf of the United States of America. All rights reserved.
##CAS REGISTRY NO=4167-74-2
##$NIST MASS SPEC NO=72182
##MOLFORM=C10 H14 O
##MW=150
##$NIST SOURCE=MSDC
##XUNITS=M/Z
##YUNITS=RELATIVE INTENSITY
##XFACTOR=1
##YFACTOR=1
##FIRSTX=38
##LASTX=151
##FIRSTY=200
##MAXX=151
##MINX=38
##MAXY=9999
##MINY=100
##NPOINTS=40
##PEAK TABLE=(XY..XY)
38,200 39,1000 40,200 41,500
43,400 49,200 50,200 51,500
52,300 53,400 55,300 62,100
63,300 64,100 65,500 66,200
75,100 77,1300 78,400 79,300
81,100 89,100 91,200 93,300
94,200 103,100 105,100 106,100
107,9999 108,1100 109,100 115,100
121,600 122,500 123,200 133,100
135,100 149,200 150,1700 151,200
##END=
