##TITLE=2H-1-Benzopyran, 3,5,6,8a-tetrahydro-2,5,5,8a-tetramethyl-, trans-
##JCAMP-DX=4.24
##DATA TYPE=MASS SPECTRUM
##ORIGIN=MASS SPECTRA OF ORGANIC COMPOUNDS, CSIRO, B.H. KENNETT ET AL
##OWNER=NIST Mass Spectrometry Data Center
Collection (C) 2014 copyright by the U.S. Secretary of Commerce
on behalf of the United States of America. All rights reserved.
##CAS REGISTRY NO=41678-29-9
##$NIST MASS SPEC NO=69788
##MOLFORM=C13 H20 O
##MW=192
##$NIST SOURCE=MSDC
##XUNITS=M/Z
##YUNITS=RELATIVE INTENSITY
##XFACTOR=1
##YFACTOR=1
##FIRSTX=26
##LASTX=193
##FIRSTY=200
##MAXX=193
##MINX=26
##MAXY=9999
##MINY=100
##NPOINTS=92
##PEAK TABLE=(XY..XY)
26,200 27,1500 29,1700 30,100
31,100 38,100 39,1400 41,3100
42,300 43,4000 45,200 50,100
51,600 52,300 53,1000 54,200
55,1800 56,200 57,2000 58,200
59,200 63,300 64,200 65,800
66,300 67,800 68,200 69,1000
70,100 72,300 73,100 74,100
75,200 77,1300 78,400 79,1100
80,300 81,700 82,100 83,300
85,200 89,100 91,2000 92,300
93,900 94,200 95,400 96,100
97,100 103,400 104,100 105,1400
106,300 107,1100 108,200 109,400
115,500 116,300 117,700 118,300
119,900 120,200 121,700 122,100
123,800 124,100 128,200 129,200
131,500 132,200 133,2400 134,400
135,600 136,300 143,200 144,300
145,200 146,100 147,200 148,500
149,300 150,200 159,600 160,100
161,100 163,100 174,100 177,9999
178,1500 179,200 192,600 193,100
##END=
