##TITLE=Phenol, 2-(2-methylpropyl)-
##JCAMP-DX=4.24
##DATA TYPE=MASS SPECTRUM
##ORIGIN=J.MACAK, DEP. COKE GAS TECH., PRAGUE INST. CHEM. TECH., CZEC,
##OWNER=NIST Mass Spectrometry Data Center
Collection (C) 2014 copyright by the U.S. Secretary of Commerce
on behalf of the United States of America. All rights reserved.
##CAS REGISTRY NO=4167-75-3
##$NIST MASS SPEC NO=72181
##MOLFORM=C10 H14 O
##MW=150
##$NIST SOURCE=MSDC
##XUNITS=M/Z
##YUNITS=RELATIVE INTENSITY
##XFACTOR=1
##YFACTOR=1
##FIRSTX=39
##LASTX=151
##FIRSTY=900
##MAXX=151
##MINX=39
##MAXY=9999
##MINY=100
##NPOINTS=32
##PEAK TABLE=(XY..XY)
39,900 41,700 43,600 44,100
50,200 51,500 52,400 54,300
63,300 65,300 67,100 75,100
77,1700 78,500 79,1100 80,200
89,200 90,200 91,500 94,100
105,200 107,9999 108,2200 109,200
115,300 117,200 119,200 121,100
133,200 135,100 150,2500 151,300
##END=
