##TITLE=p-Octyloxybenzylidene p-cyanoaniline
##JCAMP-DX=4.24
##DATA TYPE=MASS SPECTRUM
##ORIGIN=NIST Mass Spectrometry Data Center, 1994
##OWNER=NIST Mass Spectrometry Data Center
Collection (C) 2014 copyright by the U.S. Secretary of Commerce
on behalf of the United States of America. All rights reserved.
##CAS REGISTRY NO=41682-73-9
##$NIST MASS SPEC NO=135884
##MOLFORM=C22 H26 N2 O
##MW=334
##$NIST SOURCE=MSDC
##XUNITS=M/Z
##YUNITS=RELATIVE INTENSITY
##XFACTOR=1
##YFACTOR=1
##FIRSTX=17
##LASTX=337
##FIRSTY=30
##MAXX=337
##MINX=17
##MAXY=9999
##MINY=7
##NPOINTS=89
##PEAK TABLE=(XY..XY)
17,30 18,25 27,529 28,194
29,1281 30,8 38,44 39,644
41,2535 42,229 43,2453 44,59
50,119 51,404 52,95 53,140
54,44 55,731 56,105 57,1160
58,54 62,41 63,167 65,1138
66,128 67,47 69,257 71,565
72,33 75,272 76,217 77,259
78,54 79,43 89,64 90,61
91,82 92,43 93,449 94,161
102,1201 103,145 105,36 107,62
113,26 115,35 118,25 119,42
120,125 129,415 130,59 138,27
139,77 140,79 150,20 151,109
152,45 164,71 165,61 166,150
167,35 168,23 176,49 177,88
178,43 191,69 192,364 193,306
194,73 203,74 204,384 205,91
207,44 219,43 221,3980 222,9999
223,1597 224,139 233,57 234,36
235,105 236,23 247,76 248,24
277,24 334,3266 335,819 336,97
337,7
##END=
