##TITLE=Benzene, (1,1-diethylpropyl)-
##JCAMP-DX=4.24
##DATA TYPE=MASS SPECTRUM
##ORIGIN=NIST Mass Spectrometry Data Center, 1990.
##OWNER=NIST Mass Spectrometry Data Center
Collection (C) 2014 copyright by the U.S. Secretary of Commerce
on behalf of the United States of America. All rights reserved.
##CAS REGISTRY NO=4170-84-7
##$NIST MASS SPEC NO=114133
##MOLFORM=C13 H20
##MW=176
##$NIST SOURCE=MSDC
##XUNITS=M/Z
##YUNITS=RELATIVE INTENSITY
##XFACTOR=1
##YFACTOR=1
##FIRSTX=14
##LASTX=177
##FIRSTY=19
##MAXX=177
##MINX=14
##MAXY=9999
##MINY=14
##NPOINTS=69
##PEAK TABLE=(XY..XY)
14,19 15,18 27,417 28,246
29,520 32,48 39,405 41,675
42,36 43,98 44,19 50,126
51,470 52,117 53,207 54,53
55,128 56,15 57,63 62,60
63,264 64,89 65,643 66,52
67,76 68,15 69,305 70,21
74,61 75,91 76,149 77,1108
78,407 79,483 80,31 86,14
87,33 89,285 91,9999 92,825
93,30 101,40 102,244 103,615
104,30 105,8502 106,705 107,29
113,19 115,1347 116,356 117,1096
118,151 119,68 126,23 127,89
128,209 129,147 130,44 131,143
132,120 133,14 141,19 145,34
147,3146 148,374 149,18 176,639
177,81
##END=
