##TITLE=1,7-Octadien-3-one, 2-methyl-6-methylene-
##JCAMP-DX=4.24
##DATA TYPE=MASS SPECTRUM
##OWNER=NIST Mass Spectrometry Data Center
Collection (C) 2014 copyright by the U.S. Secretary of Commerce
on behalf of the United States of America. All rights reserved.
##CAS REGISTRY NO=41702-60-7
##$NIST MASS SPEC NO=31916
##MOLFORM=C10 H14 O
##MW=150
##$NIST SOURCE=MSDC
##XUNITS=M/Z
##YUNITS=RELATIVE INTENSITY
##XFACTOR=1
##YFACTOR=1
##FIRSTX=39
##LASTX=150
##FIRSTY=1795
##MAXX=150
##MINX=39
##MAXY=9999
##MINY=217
##NPOINTS=32
##PEAK TABLE=(XY..XY)
39,1795 41,8451 51,898 52,557
53,1734 54,743 67,526 68,898
69,9999 70,433 77,1238 78,557
79,2600 80,650 81,867 91,898
92,464 93,1207 94,526 95,650
96,402 106,588 107,1176 108,402
115,495 117,248 119,433 122,867
135,433 147,248 148,217 150,402
##END=
