##TITLE=1H-Indene, 2,3-dihydro-1,3-dimethyl-
##JCAMP-DX=4.24
##DATA TYPE=MASS SPECTRUM
##OWNER=NIST Mass Spectrometry Data Center
Collection (C) 2014 copyright by the U.S. Secretary of Commerce
on behalf of the United States of America. All rights reserved.
##CAS REGISTRY NO=4175-53-5
##$NIST MASS SPEC NO=4236
##MOLFORM=C11 H14
##MW=146
##$NIST SOURCE=MSDC
##XUNITS=M/Z
##YUNITS=RELATIVE INTENSITY
##XFACTOR=1
##YFACTOR=1
##FIRSTX=25
##LASTX=149
##FIRSTY=10
##MAXX=149
##MINX=25
##MAXY=9999
##MINY=10
##NPOINTS=106
##PEAK TABLE=(XY..XY)
25,10 26,90 27,681 28,120
29,110 30,10 32,10 37,30
38,120 39,941 40,80 41,310
42,20 43,10 44,10 45,10
49,10 50,340 51,911 52,200
53,370 54,20 55,10 56,10
57,50 58,160 59,20 60,10
61,30 62,150 63,550 64,571
65,500 66,50 67,50 68,10
69,20 70,40 71,120 72,60
73,10 74,150 75,180 76,120
77,691 78,210 79,130 80,10
81,10 84,10 85,10 86,40
87,60 88,30 89,190 90,30
91,1912 92,150 93,10 97,10
98,20 99,10 100,10 101,60
102,190 103,300 104,70 105,240
106,20 107,10 109,10 110,10
111,10 113,30 114,40 115,1321
116,821 117,641 118,70 119,10
120,10 121,10 122,10 125,10
126,70 127,370 128,901 129,1121
130,340 131,9999 132,1191 133,60
134,10 137,10 138,10 139,40
140,10 141,130 142,90 143,80
144,220 145,711 146,2672 147,320
148,20 149,10
##END=
