##TITLE=Octadecanoic acid, 2-chloro-, methyl ester
##JCAMP-DX=4.24
##DATA TYPE=MASS SPECTRUM
##OWNER=NIST Mass Spectrometry Data Center
Collection (C) 2014 copyright by the U.S. Secretary of Commerce
on behalf of the United States of America. All rights reserved.
##CAS REGISTRY NO=41753-99-5
##$NIST MASS SPEC NO=15464
##MOLFORM=C19 H37 Cl O2
##MW=332
##$NIST SOURCE=MSDC
##XUNITS=M/Z
##YUNITS=RELATIVE INTENSITY
##XFACTOR=1
##YFACTOR=1
##FIRSTX=15
##LASTX=334
##FIRSTY=661
##MAXX=334
##MINX=15
##MAXY=9999
##MINY=20
##NPOINTS=198
##PEAK TABLE=(XY..XY)
15,661 16,80 26,80 27,871
29,2482 30,160 31,220 32,130
35,60 36,440 38,170 39,581
40,160 41,4894 42,1151 43,8358
44,821 45,190 49,20 50,20
51,50 53,400 54,510 55,5215
56,1401 57,5265 58,290 59,1581
60,60 61,120 62,40 63,40
64,30 65,90 66,70 67,1051
68,661 69,2482 70,891 71,2252
72,170 73,200 74,2412 75,571
76,130 77,140 78,70 79,270
80,140 81,1371 82,641 83,1762
84,1161 85,1211 86,90 87,5145
88,440 89,190 91,370 92,70
93,210 94,150 95,1271 96,861
97,1411 98,1541 99,390 100,170
101,731 102,90 103,150 104,50
105,190 106,50 107,180 108,9999
109,1191 110,3573 111,871 112,410
113,711 114,160 115,320 116,100
117,120 118,110 119,260 120,80
121,2813 122,210 123,1351 124,330
125,390 126,110 127,520 128,220
129,390 130,250 131,140 132,50
133,170 134,90 135,220 136,60
137,360 138,230 139,210 140,90
141,390 142,80 143,751 144,110
145,90 147,120 148,70 149,220
150,310 151,270 152,280 153,90
155,150 157,370 158,60 159,60
161,90 163,2762 164,310 165,1031
166,230 167,100 169,110 171,240
177,2322 178,240 179,841 180,270
181,80 183,60 185,200 186,70
189,40 191,100 193,100 194,70
197,40 199,671 200,120 203,30
205,240 206,40 207,120 208,60
209,30 211,30 213,661 214,120
215,20 217,20 219,510 220,160
221,240 222,290 223,60 227,320
228,80 233,390 234,50 235,170
236,70 241,190 242,70 246,40
247,80 249,30 253,60 255,1561
256,290 257,30 261,80 263,40
264,440 265,130 266,50 269,711
270,150 275,110 277,40 278,20
283,40 289,60 291,20 296,30
297,581 298,190 299,30 332,280
333,100 334,100
##END=
