##TITLE=Methyl 2-chlorohexadecanoate
##JCAMP-DX=4.24
##DATA TYPE=MASS SPECTRUM
##ORIGIN=I.Korhonen, Org.Mass Spectrom. 23, 729 (1988)
##OWNER=NIST Mass Spectrometry Data Center
Collection (C) 2014 copyright by the U.S. Secretary of Commerce
on behalf of the United States of America. All rights reserved.
##CAS REGISTRY NO=41753-98-4
##$NIST MASS SPEC NO=279724
##MOLFORM=C17 H33 Cl O2
##MW=304
##$NIST SOURCE=MSDC
##XUNITS=M/Z
##YUNITS=RELATIVE INTENSITY
##XFACTOR=1
##YFACTOR=1
##FIRSTX=39
##LASTX=306
##FIRSTY=1131
##MAXX=306
##MINX=39
##MAXY=9999
##MINY=50
##NPOINTS=136
##PEAK TABLE=(XY..XY)
39,1131 40,470 41,6786 42,1001
43,8868 44,550 45,230 50,100
52,100 53,420 54,470 55,4554
56,1441 57,4134 58,280 59,1732
60,150 61,150 65,180 67,1261
68,731 69,2572 70,631 71,1601
72,210 73,340 74,6186 75,1521
76,210 77,230 79,310 80,180
81,1651 82,761 83,2052 84,1151
85,971 86,150 87,7767 88,761
89,340 91,360 92,180 94,210
95,1551 96,1151 97,1862 98,1551
99,340 100,180 101,1421 102,180
103,130 105,150 107,260 108,9999
109,1361 110,3363 111,1001 112,440
113,1391 114,440 115,761 116,260
117,130 118,130 119,210 121,2522
122,230 123,1231 124,440 125,470
126,210 127,651 128,310 129,1051
130,440 131,180 133,180 135,260
137,420 138,440 139,210 141,550
143,1551 144,230 145,100 147,180
148,180 149,180 150,340 151,310
152,571 153,310 154,100 155,100
157,390 158,180 161,50 163,2442
164,280 165,921 166,180 171,1391
172,180 177,2182 178,180 179,841
180,180 185,1151 186,180 191,100
192,100 193,100 194,390 199,601
200,150 205,310 207,70 213,280
219,681 221,100 227,1712 228,260
233,500 234,70 235,180 236,420
237,310 239,70 241,811 242,130
261,50 269,440 304,210 306,70
##END=
