##TITLE=Bicyclo[4.1.0]heptan-3-one, 4,7,7-trimethyl-, [1R-(1.alpha.,4.alpha.,6.alpha.)]-
##JCAMP-DX=4.24
##DATA TYPE=MASS SPECTRUM
##OWNER=NIST Mass Spectrometry Data Center
Collection (C) 2014 copyright by the U.S. Secretary of Commerce
on behalf of the United States of America. All rights reserved.
##CAS REGISTRY NO=4176-04-9
##$NIST MASS SPEC NO=4825
##MOLFORM=C10 H16 O
##MW=152
##$NIST SOURCE=MSDC
##XUNITS=M/Z
##YUNITS=RELATIVE INTENSITY
##XFACTOR=1
##YFACTOR=1
##FIRSTX=15
##LASTX=153
##FIRSTY=500
##MAXX=153
##MINX=15
##MAXY=9999
##MINY=80
##NPOINTS=62
##PEAK TABLE=(XY..XY)
15,500 26,170 27,2502 28,1251
29,1251 38,80 39,2923 40,581
41,5675 42,1081 43,1501 45,80
46,80 47,80 50,80 51,500
52,250 53,1832 54,1081 55,3083
56,1922 57,330 58,420 63,80
65,500 66,420 67,7176 68,1832
69,3423 70,921 71,80 77,831
78,330 79,1581 80,581 81,9999
82,5925 83,1501 84,751 91,751
92,80 93,671 94,250 95,4584
96,3253 97,921 105,170 106,170
107,250 108,330 109,4004 110,4174
111,500 119,330 121,170 123,671
124,671 134,330 137,1501 138,170
152,8428 153,921
##END=
