##TITLE=L-Leucyl-p-nitroanilide
##JCAMP-DX=4.24
##DATA TYPE=MASS SPECTRUM
##ORIGIN=NIST Mass Spectrometry Data Center, 1994
##OWNER=NIST Mass Spectrometry Data Center
Collection (C) 2014 copyright by the U.S. Secretary of Commerce
on behalf of the United States of America. All rights reserved.
##CAS REGISTRY NO=4178-93-2
##$NIST MASS SPEC NO=136125
##MOLFORM=C12 H17 N3 O3
##MW=251
##$NIST SOURCE=MSDC
##XUNITS=M/Z
##YUNITS=RELATIVE INTENSITY
##XFACTOR=1
##YFACTOR=1
##FIRSTX=15
##LASTX=251
##FIRSTY=160
##MAXX=251
##MINX=15
##MAXY=9999
##MINY=2
##NPOINTS=97
##PEAK TABLE=(XY..XY)
15,160 16,2 17,48 18,486
26,23 27,818 28,1212 29,710
30,6918 31,11 37,47 38,156
39,639 40,125 41,1483 42,796
43,1999 44,4510 45,85 46,45
50,254 51,171 52,196 53,212
54,107 55,165 56,173 57,263
58,29 61,24 62,78 63,432
64,455 65,437 66,144 67,86
68,65 69,119 70,284 71,24
74,40 75,201 76,304 77,89
78,68 79,59 80,115 81,57
82,27 83,31 84,147 85,24
86,9999 87,587 88,34 89,30
90,170 91,197 92,310 93,190
94,23 95,18 97,31 98,19
102,14 103,60 104,29 105,26
106,52 107,55 108,307 109,44
117,18 118,29 119,56 120,57
121,18 122,353 123,33 131,23
134,36 137,24 138,147 139,108
148,34 149,141 163,14 164,29
165,72 166,33 177,107 194,127
195,79 219,41 221,28 249,27
251,40
##END=
