##TITLE=4-di-n-Butylaminobutanol-1
##JCAMP-DX=4.24
##DATA TYPE=MASS SPECTRUM
##ORIGIN=NIST Mass Spectrometry Data Center, 1994
##OWNER=NIST Mass Spectrometry Data Center
Collection (C) 2014 copyright by the U.S. Secretary of Commerce
on behalf of the United States of America. All rights reserved.
##CAS REGISTRY NO=41788-34-5
##$NIST MASS SPEC NO=133231
##MOLFORM=C12 H27 N O
##MW=201
##$NIST SOURCE=MSDC
##XUNITS=M/Z
##YUNITS=RELATIVE INTENSITY
##XFACTOR=1
##YFACTOR=1
##FIRSTX=12
##LASTX=203
##FIRSTY=7
##MAXX=203
##MINX=12
##MAXY=9999
##MINY=5
##NPOINTS=92
##PEAK TABLE=(XY..XY)
12,7 14,14 15,340 18,125
19,115 24,8 27,1767 28,647
29,4037 30,2616 31,2104 33,10
37,17 39,739 41,3440 42,2783
43,2064 44,4433 45,236 46,23
50,11 51,31 53,183 55,2608
56,827 57,1663 58,1300 59,56
65,14 66,13 67,70 68,149
69,137 70,585 71,673 72,375
73,995 74,88 77,10 78,6
79,13 80,41 82,108 84,1447
86,2102 87,133 88,110 93,5
94,17 95,17 96,47 98,557
100,3614 101,261 102,117 108,8
110,11 112,65 114,277 116,1919
117,135 118,10 124,14 126,96
128,451 129,63 130,41 138,13
140,84 142,4999 143,537 144,98
145,45 146,9 154,17 156,183
158,9999 159,1054 160,71 164,5
168,21 170,33 171,17 172,44
173,8 184,22 186,10 198,11
200,179 201,581 202,85 203,9
##END=
