##TITLE=2-n-Octylfuran
##JCAMP-DX=4.24
##DATA TYPE=MASS SPECTRUM
##ORIGIN=NIST Mass Spectrometry Data Center
##OWNER=NIST Mass Spectrometry Data Center
Collection (C) 2014 copyright by the U.S. Secretary of Commerce
on behalf of the United States of America. All rights reserved.
##CAS REGISTRY NO=4179-38-8
##$NIST MASS SPEC NO=342300
##MOLFORM=C12 H20 O
##MW=180
##$NIST SOURCE=MSDC
##XUNITS=M/Z
##YUNITS=RELATIVE INTENSITY
##XFACTOR=1
##YFACTOR=1
##FIRSTX=15
##LASTX=181
##FIRSTY=10
##MAXX=181
##MINX=15
##MAXY=9999
##MINY=10
##NPOINTS=75
##PEAK TABLE=(XY..XY)
15,10 18,10 27,1782 28,260
29,1341 30,30 37,30 38,150
39,1321 40,260 41,2272 42,280
43,841 44,10 50,100 51,340
52,270 53,2232 54,370 55,621
56,110 57,520 58,20 62,10
63,50 65,330 66,280 67,801
68,460 69,240 70,80 71,50
77,230 78,80 79,380 81,9999
82,3083 83,390 84,80 85,20
91,130 92,40 93,120 94,761
95,2412 96,500 97,110 98,40
105,70 106,40 107,170 108,60
109,250 110,70 111,40 112,10
119,110 120,40 121,80 123,881
124,320 125,30 133,70 134,20
136,180 137,440 138,90 139,10
147,10 149,10 151,220 152,30
165,10 180,901 181,120
##END=
