##TITLE=Tetracontane
##JCAMP-DX=4.24
##DATA TYPE=MASS SPECTRUM
##ORIGIN=Japan AIST/NIMC Database- Spectrum MS-NW-2055
##OWNER=NIST Mass Spectrometry Data Center
Collection (C) 2014 copyright by the U.S. Secretary of Commerce
on behalf of the United States of America. All rights reserved.
##CAS REGISTRY NO=4181-95-7
##$NIST MASS SPEC NO=234252
##MOLFORM=C40 H82
##MW=562
##$NIST SOURCE=MSDC
##XUNITS=M/Z
##YUNITS=RELATIVE INTENSITY
##XFACTOR=1
##YFACTOR=1
##FIRSTX=15
##LASTX=564
##FIRSTY=10
##MAXX=564
##MINX=15
##MAXY=9999
##MINY=10
##NPOINTS=209
##PEAK TABLE=(XY..XY)
15,10 26,40 27,219 28,50
29,669 30,10 38,10 39,159
40,40 41,1479 42,469 43,5329
44,169 53,70 54,239 55,2149
56,1289 57,9999 58,459 65,10
66,30 67,319 68,459 69,1789
70,1169 71,7099 72,419 73,10
77,10 78,10 79,40 80,30
81,239 82,699 83,1929 84,919
85,5079 86,359 87,10 91,20
93,20 94,20 95,139 96,469
97,1879 98,739 99,2269 100,169
105,20 107,10 109,80 110,229
111,1069 112,679 113,1699 114,159
119,10 122,10 123,50 124,179
125,649 126,609 127,1389 128,139
129,10 137,30 138,129 139,339
140,569 141,1119 142,129 151,10
152,99 153,259 154,519 155,989
156,119 166,80 167,189 168,489
169,859 170,109 180,70 181,149
182,429 183,769 184,99 194,60
195,109 196,399 197,689 198,109
208,50 209,80 210,399 211,619
212,90 222,40 223,70 224,349
225,539 226,90 227,10 236,40
237,60 238,309 239,469 240,90
250,30 251,40 252,279 253,489
254,99 264,30 265,40 266,249
267,419 268,90 269,10 278,30
279,30 280,279 281,529 282,109
283,10 292,30 293,30 294,219
295,389 296,90 297,10 306,20
307,20 308,199 309,339 310,80
311,10 320,10 321,20 322,179
323,329 324,80 325,10 334,10
335,20 336,159 337,329 338,90
339,10 348,10 349,10 350,159
351,299 352,80 353,10 362,10
364,139 365,269 366,70 367,10
378,129 379,269 380,80 392,119
393,259 394,90 395,10 406,99
407,239 408,70 409,10 420,90
421,239 422,70 423,10 434,80
435,219 436,70 437,10 448,80
449,209 450,70 451,10 462,70
463,199 464,70 476,50 477,169
478,60 479,10 490,50 491,169
492,60 493,10 504,40 505,159
506,60 507,10 518,20 519,90
520,40 532,10 533,70 534,30
560,20 561,20 562,429 563,199
564,40
##END=
