##TITLE=4-Hydroxy-3-nitrobenzyl alcohol
##JCAMP-DX=4.24
##DATA TYPE=MASS SPECTRUM
##ORIGIN=NIST Mass Spectrometry Data Center, 1994
##OWNER=NIST Mass Spectrometry Data Center
Collection (C) 2014 copyright by the U.S. Secretary of Commerce
on behalf of the United States of America. All rights reserved.
##CAS REGISTRY NO=41833-13-0
##$NIST MASS SPEC NO=134602
##MOLFORM=C7 H7 N O4
##MW=169
##$NIST SOURCE=MSDC
##XUNITS=M/Z
##YUNITS=RELATIVE INTENSITY
##XFACTOR=1
##YFACTOR=1
##FIRSTX=15
##LASTX=171
##FIRSTY=167
##MAXX=171
##MINX=15
##MAXY=9999
##MINY=26
##NPOINTS=89
##PEAK TABLE=(XY..XY)
15,167 16,106 17,120 18,174
25,99 26,572 27,1871 28,851
29,2462 30,2351 31,2041 32,26
37,799 38,1918 39,8028 40,1897
41,1944 42,500 43,557 44,232
45,189 46,436 47,226 48,26
49,335 50,2564 51,6275 52,2041
53,5817 54,685 55,2389 56,158
57,82 61,760 62,1787 63,3649
64,1501 65,9999 66,5024 67,1248
68,796 69,375 70,131 71,115
73,151 74,718 75,771 76,816
77,5421 78,2462 79,1616 80,625
81,823 82,423 83,146 90,96
91,631 92,990 93,2144 94,4247
95,4376 96,575 97,121 105,2897
106,5233 107,579 108,234 109,442
110,186 119,158 120,574 121,1772
122,4328 123,6327 124,818 134,710
135,305 136,122 138,114 140,513
150,120 151,509 152,1634 153,185
166,354 168,3551 169,9837 170,790
171,28
##END=
