##TITLE=Cyclohexane, 1,1'-(1-methyl-1,2-ethanediyl)bis-
##JCAMP-DX=4.24
##DATA TYPE=MASS SPECTRUM
##OWNER=NIST Mass Spectrometry Data Center
Collection (C) 2014 copyright by the U.S. Secretary of Commerce
on behalf of the United States of America. All rights reserved.
##CAS REGISTRY NO=41851-34-7
##$NIST MASS SPEC NO=9515
##MOLFORM=C15 H28
##MW=208
##$NIST SOURCE=MSDC
##XUNITS=M/Z
##YUNITS=RELATIVE INTENSITY
##XFACTOR=1
##YFACTOR=1
##FIRSTX=36
##LASTX=210
##FIRSTY=10
##MAXX=210
##MINX=36
##MAXY=9999
##MINY=10
##NPOINTS=120
##PEAK TABLE=(XY..XY)
36,10 37,20 38,40 39,2122
40,400 41,8928 42,1311 43,1211
44,50 45,10 46,10 47,10
48,10 49,10 50,40 51,130
52,110 53,1111 54,1531 55,9829
56,761 57,921 58,50 59,10
60,10 61,10 62,10 63,20
64,10 65,190 66,200 67,3483
68,791 69,7407 70,490 71,100
72,10 73,10 74,10 75,10
76,10 77,210 78,60 79,350
80,210 81,1611 82,9999 83,9579
84,661 85,40 86,10 87,10
88,10 89,10 90,10 91,90
92,20 93,50 94,30 95,500
96,530 97,520 98,50 99,10
100,10 101,10 102,10 103,10
104,10 105,10 106,10 107,20
108,10 109,270 110,851 111,2492
112,230 113,10 114,10 115,10
116,10 117,10 118,10 119,10
120,10 121,10 122,10 123,90
124,2973 125,3063 126,320 127,40
128,10 129,10 135,10 136,10
137,20 138,10 139,10 151,10
152,10 153,10 164,10 165,10
166,10 178,10 179,40 180,10
192,10 193,80 194,20 195,10
196,10 197,10 205,10 206,10
207,10 208,631 209,110 210,10
##END=
