##TITLE=3,4-Dimethyl-o-phenylenediamine
##JCAMP-DX=4.24
##DATA TYPE=MASS SPECTRUM
##ORIGIN=NIST Mass Spectrometry Data Center, 1994
##OWNER=NIST Mass Spectrometry Data Center
Collection (C) 2014 copyright by the U.S. Secretary of Commerce
on behalf of the United States of America. All rights reserved.
##CAS REGISTRY NO=41927-01-9
##$NIST MASS SPEC NO=136034
##MOLFORM=C8 H12 N2
##MW=136
##$NIST SOURCE=MSDC
##XUNITS=M/Z
##YUNITS=RELATIVE INTENSITY
##XFACTOR=1
##YFACTOR=1
##FIRSTX=26
##LASTX=138
##FIRSTY=199
##MAXX=138
##MINX=26
##MAXY=9999
##MINY=14
##NPOINTS=83
##PEAK TABLE=(XY..XY)
26,199 27,1067 28,2258 29,220
30,400 37,109 38,336 39,1501
40,316 41,936 42,710 43,174
44,56 46,30 47,63 48,124
49,46 50,524 51,1166 52,1212
53,1038 54,1252 55,206 56,123
57,19 59,94 60,193 61,193
62,174 63,491 64,275 65,1173
66,748 67,555 68,553 69,43
73,18 74,38 75,133 76,257
77,1123 78,506 79,527 80,602
81,260 82,76 86,20 87,26
88,42 89,294 90,248 91,2193
92,1027 93,1737 94,1441 95,282
96,38 101,14 102,81 103,90
104,726 105,138 106,1067 107,407
108,1870 109,273 110,31 116,167
117,432 118,1952 119,1481 120,1242
121,4583 122,358 123,20 131,41
132,49 133,155 134,20 135,4596
136,9999 137,914 138,37
##END=
