##TITLE=Methylamine, N,N-bis(N.-tetradecyl)-
##JCAMP-DX=4.24
##DATA TYPE=MASS SPECTRUM
##ORIGIN=Japan AIST/NIMC Database- Spectrum MS-IW-7583
##OWNER=NIST Mass Spectrometry Data Center
Collection (C) 2014 copyright by the U.S. Secretary of Commerce
on behalf of the United States of America. All rights reserved.
##CAS REGISTRY NO=41961-81-3
##$NIST MASS SPEC NO=237630
##MOLFORM=C29 H61 N
##MW=423
##$NIST SOURCE=MSDC
##XUNITS=M/Z
##YUNITS=RELATIVE INTENSITY
##XFACTOR=1
##YFACTOR=1
##FIRSTX=15
##LASTX=424
##FIRSTY=109
##MAXX=424
##MINX=15
##MAXY=9999
##MINY=10
##NPOINTS=196
##PEAK TABLE=(XY..XY)
15,109 27,70 28,80 29,189
30,50 31,10 32,40 39,60
40,10 41,489 42,249 43,959
44,1749 45,80 46,20 50,10
51,20 52,10 53,30 54,50
55,619 56,219 57,1319 58,3539
59,149 65,20 66,10 67,109
68,70 69,439 70,449 71,489
72,90 73,10 76,10 77,40
78,99 79,50 80,40 81,90
82,119 83,279 84,439 85,249
86,40 91,169 92,169 93,90
94,529 95,70 96,509 97,179
98,159 99,60 100,40 104,70
105,60 106,30 107,20 108,20
109,20 110,70 111,70 112,90
113,40 114,30 115,30 116,10
117,70 118,20 119,20 120,20
121,10 122,10 123,10 124,20
125,20 126,80 127,30 128,40
129,50 130,10 131,20 132,10
133,20 134,10 135,379 136,20
137,369 138,20 139,10 140,70
141,30 142,20 143,20 144,10
145,10 146,10 148,10 149,70
150,10 151,70 152,20 153,10
154,70 155,20 156,20 163,10
165,30 166,20 167,20 168,60
169,10 170,10 178,10 179,10
180,30 181,10 182,60 183,10
184,20 186,10 188,20 190,40
191,10 194,20 196,50 197,20
198,10 208,10 210,20 212,50
213,10 222,10 224,90 225,20
226,169 227,109 228,40 230,10
232,20 233,10 234,10 236,119
237,20 238,1139 239,229 240,9999
241,1869 242,169 243,10 250,10
252,20 253,10 254,20 262,10
264,30 266,889 267,179 268,40
276,10 280,20 282,20 290,10
292,189 293,40 294,10 296,20
308,10 310,10 318,30 319,10
322,30 324,10 336,20 338,10
350,10 352,10 364,10 366,20
378,20 380,20 392,10 394,20
408,20 409,10 415,20 416,10
417,50 418,30 419,70 420,90
421,70 422,299 423,159 424,30
##END=
