##TITLE=Cyclopropane, 1,1-dimethyl-2-nonyl-
##JCAMP-DX=4.24
##DATA TYPE=MASS SPECTRUM
##ORIGIN=CARL DJERASSI DEPT OF CHEM STANFORD UNIV STANFORD CALIF 94305
##OWNER=NIST Mass Spectrometry Data Center
Collection (C) 2014 copyright by the U.S. Secretary of Commerce
on behalf of the United States of America. All rights reserved.
##CAS REGISTRY NO=41977-38-2
##$NIST MASS SPEC NO=47315
##MOLFORM=C14 H28
##MW=196
##$NIST SOURCE=MSDC
##XUNITS=M/Z
##YUNITS=RELATIVE INTENSITY
##XFACTOR=1
##YFACTOR=1
##FIRSTX=41
##LASTX=197
##FIRSTY=6000
##MAXX=197
##MINX=41
##MAXY=9999
##MINY=100
##NPOINTS=34
##PEAK TABLE=(XY..XY)
41,6000 42,900 43,3300 44,100
53,600 54,400 55,5200 56,9500
57,4700 58,200 65,100 67,900
68,1100 69,9999 70,3000 71,900
79,100 81,400 82,500 83,2200
84,1500 85,500 95,200 96,200
97,1200 98,400 110,100 111,600
112,200 125,100 140,300 168,200
196,900 197,200
##END=
