##TITLE=Propane, 1,2-dichloro-2-fluoro-
##JCAMP-DX=4.24
##DATA TYPE=MASS SPECTRUM
##OWNER=NIST Mass Spectrometry Data Center
Collection (C) 2014 copyright by the U.S. Secretary of Commerce
on behalf of the United States of America. All rights reserved.
##CAS REGISTRY NO=420-97-3
##$NIST MASS SPEC NO=2940
##MOLFORM=C3 H5 Cl2 F
##MW=130
##$NIST SOURCE=MSDC
##XUNITS=M/Z
##YUNITS=RELATIVE INTENSITY
##XFACTOR=1
##YFACTOR=1
##FIRSTX=12
##LASTX=132
##FIRSTY=20
##MAXX=132
##MINX=12
##MAXY=9999
##MINY=10
##NPOINTS=87
##PEAK TABLE=(XY..XY)
12,20 13,20 14,40 15,70
24,10 25,40 26,150 27,250
28,70 29,30 30,10 31,200
32,30 33,540 34,10 35,100
36,150 37,350 38,410 39,1491
40,150 41,100 42,10 43,10
44,130 45,911 46,70 47,120
48,100 49,1211 50,60 51,390
52,10 55,10 56,50 57,340
58,50 59,2462 60,260 61,1461
62,70 63,470 64,20 65,10
66,10 67,661 68,10 69,230
70,10 71,30 72,30 73,110
74,40 75,2702 76,110 77,861
78,40 79,180 80,2092 81,9999
82,891 83,3253 84,70 85,60
87,10 91,20 93,70 94,40
95,2893 96,110 97,1001 98,30
99,30 109,40 110,701 111,60
112,450 113,30 114,100 115,320
116,30 117,210 118,10 119,30
129,10 130,30 132,20
##END=
