##TITLE=Propane, 2,2-difluoro-
##JCAMP-DX=4.24
##DATA TYPE=MASS SPECTRUM
##ORIGIN=THE M.W. KELLOGG CO., JERSEY CITY, N.J., USA
##OWNER=NIST Mass Spectrometry Data Center
Collection (C) 2014 copyright by the U.S. Secretary of Commerce
on behalf of the United States of America. All rights reserved.
##CAS REGISTRY NO=420-45-1
##$NIST MASS SPEC NO=35012
##MOLFORM=C3 H6 F2
##MW=80
##$NIST SOURCE=MSDC
##XUNITS=M/Z
##YUNITS=RELATIVE INTENSITY
##XFACTOR=1
##YFACTOR=1
##FIRSTX=13
##LASTX=81
##FIRSTY=71
##MAXX=81
##MINX=13
##MAXY=9999
##MINY=1
##NPOINTS=54
##PEAK TABLE=(XY..XY)
13,71 14,193 15,546 16,10
19,46 20,32 21,7 24,10
25,52 26,228 27,455 28,52
29,43 31,377 32,43 33,445
34,6 35,4 36,44 37,194
38,234 39,417 40,45 41,470
42,19 43,12 44,172 45,1169
46,207 47,20 50,18 51,320
52,3 55,11 56,38 57,129
58,21 59,377 60,145 61,651
62,24 63,71 64,883 65,9999
66,228 67,2 74,2 75,29
76,4 77,36 78,1 79,2
80,7 81,1
##END=
