##TITLE=Thiirane
##JCAMP-DX=4.24
##DATA TYPE=MASS SPECTRUM
##ORIGIN=E.GALLEGOS KANSAS STATE UNIVERSITY, MANHATTAN, KANSAS, USA
##OWNER=NIST Mass Spectrometry Data Center
Collection (C) 2014 copyright by the U.S. Secretary of Commerce
on behalf of the United States of America. All rights reserved.
##CAS REGISTRY NO=420-12-2
##$NIST MASS SPEC NO=162
##MOLFORM=C2 H4 S
##MW=60
##$NIST SOURCE=MSDC
##XUNITS=M/Z
##YUNITS=RELATIVE INTENSITY
##XFACTOR=1
##YFACTOR=1
##FIRSTX=12
##LASTX=62
##FIRSTY=100
##MAXX=62
##MINX=12
##MAXY=9999
##MINY=20
##NPOINTS=26
##PEAK TABLE=(XY..XY)
12,100 13,170 14,490 15,160
24,30 25,280 26,1910 27,4460
28,780 29,280 32,790 33,380
34,1210 35,20 36,20 44,270
45,9999 46,280 47,360 56,80
57,800 58,2020 59,6900 60,7580
61,590 62,250
##END=
