##TITLE=Dimethyl (2-oxopropyl)phosphonate
##JCAMP-DX=4.24
##DATA TYPE=MASS SPECTRUM
##ORIGIN=Japan AIST/NIMC Database- Spectrum MS-NW-9784
##OWNER=NIST Mass Spectrometry Data Center
Collection (C) 2014 copyright by the U.S. Secretary of Commerce
on behalf of the United States of America. All rights reserved.
##CAS REGISTRY NO=4202-14-6
##$NIST MASS SPEC NO=235175
##MOLFORM=C5 H11 O4 P
##MW=166
##$NIST SOURCE=MSDC
##XUNITS=M/Z
##YUNITS=RELATIVE INTENSITY
##XFACTOR=1
##YFACTOR=1
##FIRSTX=14
##LASTX=168
##FIRSTY=20
##MAXX=168
##MINX=14
##MAXY=9999
##MINY=10
##NPOINTS=94
##PEAK TABLE=(XY..XY)
14,20 15,599 16,10 26,30
27,139 28,219 29,149 30,20
31,189 32,20 33,30 37,10
38,20 39,169 40,99 41,199
42,459 43,2149 44,50 45,299
46,10 47,689 48,80 49,90
50,10 51,10 53,10 54,10
55,40 56,10 57,40 58,459
59,20 60,10 61,80 62,259
63,329 64,20 65,99 66,10
70,10 71,40 72,20 77,149
78,50 79,4209 80,139 81,30
85,20 89,30 91,10 92,99
93,709 94,7589 95,629 96,149
97,20 103,60 104,30 105,109
106,10 107,20 109,6189 110,359
111,279 112,10 113,40 117,149
118,10 119,1169 120,60 121,20
123,70 124,9999 125,369 126,70
127,319 128,10 134,20 135,549
136,40 137,40 138,10 140,20
147,10 149,70 150,20 151,4319
152,199 153,50 165,20 166,2319
167,349 168,30
##END=
