##TITLE=3-Methylfentanyl
##JCAMP-DX=4.24
##DATA TYPE=MASS SPECTRUM
##ORIGIN=Drug Lab
##OWNER=NIST Mass Spectrometry Data Center
Collection (C) 2014 copyright by the U.S. Secretary of Commerce
on behalf of the United States of America. All rights reserved.
##CAS REGISTRY NO=42045-86-3
##$NIST MASS SPEC NO=335078
##MOLFORM=C23 H30 N2 O
##MW=350
##$NIST SOURCE=MSDC
##XUNITS=M/Z
##YUNITS=RELATIVE INTENSITY
##XFACTOR=1
##YFACTOR=1
##FIRSTX=40
##LASTX=349
##FIRSTY=40
##MAXX=349
##MINX=40
##MAXY=9999
##MINY=10
##NPOINTS=137
##PEAK TABLE=(XY..XY)
40,40 41,591 42,1591 43,260
44,961 45,30 50,20 51,180
52,40 53,90 54,90 55,330
56,260 57,1641 58,350 59,10
62,10 63,90 64,50 65,290
66,60 67,140 68,240 69,340
70,310 71,50 72,10 74,10
75,30 76,50 77,1341 78,250
79,611 80,80 81,210 82,210
83,50 84,410 85,20 89,60
90,40 91,1261 92,220 93,480
94,270 95,50 96,210 97,30
98,80 100,10 102,30 103,430
104,831 105,2362 106,480 107,30
108,80 109,110 110,931 111,90
112,10 115,90 116,40 117,390
118,931 119,220 120,100 121,10
124,10 127,10 128,40 129,30
130,781 131,500 132,1651 133,290
134,160 135,10 142,10 143,50
144,300 145,250 146,440 147,60
148,50 149,50 150,40 153,50
154,10 155,10 156,20 157,20
158,130 159,180 160,5495 161,661
162,100 170,20 171,10 172,651
173,110 174,280 175,40 176,10
184,40 185,10 186,50 187,30
188,10 193,10 198,50 199,20
200,200 201,190 202,380 203,3433
204,581 205,30 207,40 214,10
215,10 216,2262 217,360 218,10
230,30 245,20 254,10 257,30
259,9999 260,1702 261,150 262,10
265,10 293,40 327,10 348,20
349,10
##END=
