##TITLE=(2R,4R)-(-)-Pentanediol
##JCAMP-DX=4.24
##DATA TYPE=MASS SPECTRUM
##ORIGIN=Japan AIST/NIMC Database- Spectrum MS-NW-6521
##OWNER=NIST Mass Spectrometry Data Center
Collection (C) 2014 copyright by the U.S. Secretary of Commerce
on behalf of the United States of America. All rights reserved.
##CAS REGISTRY NO=42075-32-1
##$NIST MASS SPEC NO=235025
##MOLFORM=C5 H12 O2
##MW=104
##$NIST SOURCE=MSDC
##XUNITS=M/Z
##YUNITS=RELATIVE INTENSITY
##XFACTOR=1
##YFACTOR=1
##FIRSTX=14
##LASTX=103
##FIRSTY=40
##MAXX=103
##MINX=14
##MAXY=9999
##MINY=10
##NPOINTS=55
##PEAK TABLE=(XY..XY)
14,40 15,339 16,20 17,50
18,179 19,40 26,70 27,689
28,119 29,439 30,10 31,319
32,20 36,10 37,80 38,70
39,499 40,259 41,1309 42,4619
43,2209 44,409 45,9999 46,249
47,109 50,10 51,20 52,10
53,109 55,50 56,10 57,60
58,179 59,149 60,50 61,80
62,10 63,399 64,10 65,20
66,10 67,129 68,90 69,60
70,10 71,1609 72,80 73,20
84,10 85,30 86,179 87,20
89,369 90,20 103,10
##END=
