##TITLE=3-Octen-1-yne, (Z)-
##JCAMP-DX=4.24
##DATA TYPE=MASS SPECTRUM
##ORIGIN=D.HENNEBERG, MAX-PLANCK INSTITUTE, MULHEIM, WEST GERMANY
##OWNER=NIST Mass Spectrometry Data Center
Collection (C) 2014 copyright by the U.S. Secretary of Commerce
on behalf of the United States of America. All rights reserved.
##CAS REGISTRY NO=42091-89-4
##$NIST MASS SPEC NO=62997
##MOLFORM=C8 H12
##MW=108
##$NIST SOURCE=MSDC
##XUNITS=M/Z
##YUNITS=RELATIVE INTENSITY
##XFACTOR=1
##YFACTOR=1
##FIRSTX=26
##LASTX=109
##FIRSTY=696
##MAXX=109
##MINX=26
##MAXY=9999
##MINY=12
##NPOINTS=61
##PEAK TABLE=(XY..XY)
26,696 27,3841 28,862 29,1135
30,55 32,45 37,60 38,369
39,5308 40,1628 41,8032 42,737
43,3201 44,151 45,23 49,45
50,653 51,1684 52,3005 53,1809
54,527 55,1739 56,4038 57,203
58,35 59,17 62,108 63,743
64,378 65,3782 66,3688 67,1218
68,756 69,828 70,93 74,28
75,128 76,90 77,6675 78,1498
79,9999 80,2356 81,338 82,64
84,12 89,177 90,85 91,3733
92,426 93,8263 94,708 95,27
96,14 102,28 103,53 104,16
105,179 106,34 107,810 108,6240
109,492
##END=
