##TITLE=Ethane, 1,2-dibromo-1,2-dichloro-1,2-difluoro-
##JCAMP-DX=4.24
##DATA TYPE=MASS SPECTRUM
##OWNER=NIST Mass Spectrometry Data Center
Collection (C) 2014 copyright by the U.S. Secretary of Commerce
on behalf of the United States of America. All rights reserved.
##CAS REGISTRY NO=421-69-2
##$NIST MASS SPEC NO=13982
##MOLFORM=C2 Br2 Cl2 F2
##MW=290
##$NIST SOURCE=MSDC
##XUNITS=M/Z
##YUNITS=RELATIVE INTENSITY
##XFACTOR=1
##YFACTOR=1
##FIRSTX=24
##LASTX=298
##FIRSTY=20
##MAXX=298
##MINX=24
##MAXY=9999
##MINY=10
##NPOINTS=131
##PEAK TABLE=(XY..XY)
24,20 29,10 35,80 36,30
37,30 43,50 44,20 45,40
47,500 48,10 49,170 50,10
58,60 60,20 61,120 65,300
66,10 67,100 78,350 79,330
80,120 81,320 82,430 83,20
84,280 85,40 86,50 87,20
88,10 89,10 91,250 93,250
94,40 96,30 97,350 98,30
99,110 100,10 101,160 103,140
104,10 105,50 110,140 111,30
112,140 113,130 114,10 115,80
116,10 117,10 118,10 119,10
120,10 122,90 124,90 126,200
128,260 129,30 130,60 131,30
132,3713 133,90 134,2392 135,60
136,390 137,10 138,30 140,40
141,80 142,10 143,80 144,10
145,2492 146,30 147,3253 148,40
149,801 150,10 157,40 158,10
159,60 160,30 161,250 162,10
163,370 165,170 167,30 170,10
172,20 174,10 175,10 176,791
177,50 178,1041 179,60 180,250
181,10 184,10 189,20 191,50
192,140 193,20 194,230 196,100
198,20 205,20 207,50 209,40
211,6166 212,140 213,9999 214,230
215,4484 216,100 217,631 218,20
220,20 222,30 224,20 236,10
238,20 240,20 255,120 257,290
259,200 261,40 290,110 292,280
294,250 296,90 298,20
##END=
