##TITLE=2-Bromo-1,1,1-trifluoroethane
##JCAMP-DX=4.24
##DATA TYPE=MASS SPECTRUM
##ORIGIN=Japan AIST/NIMC Database- Spectrum MS-NW-6765
##OWNER=NIST Mass Spectrometry Data Center
Collection (C) 2014 copyright by the U.S. Secretary of Commerce
on behalf of the United States of America. All rights reserved.
##CAS REGISTRY NO=421-06-7
##$NIST MASS SPEC NO=238043
##MOLFORM=C2 H2 Br F3
##MW=162
##$NIST SOURCE=MSDC
##XUNITS=M/Z
##YUNITS=RELATIVE INTENSITY
##XFACTOR=1
##YFACTOR=1
##FIRSTX=19
##LASTX=165
##FIRSTY=10
##MAXX=165
##MINX=19
##MAXY=9999
##MINY=10
##NPOINTS=60
##PEAK TABLE=(XY..XY)
19,10 20,10 24,20 25,60
26,70 31,959 32,169 33,4759
34,50 43,60 44,409 45,149
50,179 51,429 62,30 63,1189
64,2439 65,50 67,10 69,1479
70,10 71,99 72,99 79,479
80,90 81,469 82,309 83,9999
84,209 91,209 92,249 93,1379
94,269 95,1149 96,10 103,10
104,10 110,30 111,309 112,40
113,309 122,20 123,619 124,30
125,599 126,10 129,30 131,30
141,10 142,189 143,1139 144,209
145,1129 146,20 160,10 161,20
162,9369 163,219 164,9409 165,199
##END=
