##TITLE=Trifluoromethanesulfonyl chloride
##JCAMP-DX=4.24
##DATA TYPE=MASS SPECTRUM
##ORIGIN=Japan AIST/NIMC Database- Spectrum MS-NW-3433
##OWNER=NIST Mass Spectrometry Data Center
Collection (C) 2014 copyright by the U.S. Secretary of Commerce
on behalf of the United States of America. All rights reserved.
##CAS REGISTRY NO=421-83-0
##$NIST MASS SPEC NO=235632
##MOLFORM=C Cl F3 O2 S
##MW=168
##$NIST SOURCE=MSDC
##XUNITS=M/Z
##YUNITS=RELATIVE INTENSITY
##XFACTOR=1
##YFACTOR=1
##FIRSTX=12
##LASTX=136
##FIRSTY=10
##MAXX=136
##MINX=12
##MAXY=9999
##MINY=10
##NPOINTS=33
##PEAK TABLE=(XY..XY)
12,10 16,30 31,239 32,199
35,139 36,20 37,40 44,40
47,20 48,899 50,349 51,20
55,20 63,80 64,859 65,10
66,50 67,70 69,9999 70,109
76,20 77,10 82,40 83,499
85,289 87,50 99,269 101,129
104,40 106,10 120,10 133,10
136,10
##END=
