##TITLE=2-Propanone, 1,1,1-trifluoro-
##JCAMP-DX=4.24
##DATA TYPE=MASS SPECTRUM
##ORIGIN=Japan AIST/NIMC Database- Spectrum MS-IW-2334
##OWNER=NIST Mass Spectrometry Data Center
Collection (C) 2014 copyright by the U.S. Secretary of Commerce
on behalf of the United States of America. All rights reserved.
##CAS REGISTRY NO=421-50-1
##$NIST MASS SPEC NO=235630
##MOLFORM=C3 H3 F3 O
##MW=112
##$NIST SOURCE=MSDC
##XUNITS=M/Z
##YUNITS=RELATIVE INTENSITY
##XFACTOR=1
##YFACTOR=1
##FIRSTX=12
##LASTX=113
##FIRSTY=30
##MAXX=113
##MINX=12
##MAXY=9999
##MINY=10
##NPOINTS=59
##PEAK TABLE=(XY..XY)
12,30 13,99 14,399 15,5399
16,60 18,10 20,20 24,20
25,50 26,109 27,129 28,589
29,299 30,20 31,559 32,169
33,309 36,10 37,20 38,10
39,10 40,40 41,259 42,1379
43,9999 44,479 45,139 46,60
47,50 50,649 51,209 55,30
56,60 57,50 59,1199 60,70
61,80 62,30 63,99 64,119
65,70 67,10 69,7509 70,90
71,30 74,20 75,139 76,20
77,10 78,219 81,30 82,40
83,50 91,80 93,30 94,10
95,109 97,339 113,50
##END=
