##TITLE=4-Hexen-1-ol, acetate, (Z)-
##JCAMP-DX=4.24
##DATA TYPE=MASS SPECTRUM
##ORIGIN=FOOD RESEARCH REPORT 120, K.E. MURRAY & COLLEAGUES, DIV. OF FOOD RESEARCH, CSIRO, AUSTRALIA
##OWNER=NIST Mass Spectrometry Data Center
Collection (C) 2014 copyright by the U.S. Secretary of Commerce
on behalf of the United States of America. All rights reserved.
##CAS REGISTRY NO=42125-17-7
##$NIST MASS SPEC NO=53517
##MOLFORM=C8 H14 O2
##MW=142
##$NIST SOURCE=MSDC
##XUNITS=M/Z
##YUNITS=RELATIVE INTENSITY
##XFACTOR=1
##YFACTOR=1
##FIRSTX=26
##LASTX=83
##FIRSTY=100
##MAXX=83
##MINX=26
##MAXY=9999
##MINY=100
##NPOINTS=27
##PEAK TABLE=(XY..XY)
26,100 27,1700 29,1300 31,300
38,100 39,2000 40,300 41,2800
42,700 43,9999 50,100 51,200
52,100 53,800 54,2200 55,1900
56,100 57,100 61,100 65,100
67,7900 68,500 69,300 79,100
81,900 82,4700 83,300
##END=
