##TITLE=2-Penten-1-ol, acetate, (Z)-
##JCAMP-DX=4.24
##DATA TYPE=MASS SPECTRUM
##ORIGIN=NIST Mass Spectrometry Data Center
##OWNER=NIST Mass Spectrometry Data Center
Collection (C) 2014 copyright by the U.S. Secretary of Commerce
on behalf of the United States of America. All rights reserved.
##CAS REGISTRY NO=42125-10-0
##$NIST MASS SPEC NO=352706
##MOLFORM=C7 H12 O2
##MW=128
##$NIST SOURCE=MSDC
##XUNITS=M/Z
##YUNITS=RELATIVE INTENSITY
##XFACTOR=1
##YFACTOR=1
##FIRSTX=14
##LASTX=129
##FIRSTY=30
##MAXX=129
##MINX=14
##MAXY=9999
##MINY=10
##NPOINTS=57
##PEAK TABLE=(XY..XY)
14,30 15,230 26,90 27,741
28,210 29,641 30,20 31,70
37,40 38,130 39,1541 40,440
41,2522 42,911 43,9999 44,390
45,110 49,10 50,120 51,190
52,110 53,1161 54,240 55,320
56,110 57,1491 58,180 59,10
60,10 61,490 62,40 63,40
64,10 65,160 66,130 67,3463
68,3773 69,1121 70,80 71,490
72,50 73,40 81,10 82,10
83,70 84,90 85,991 86,2702
87,170 88,10 95,10 99,330
100,90 101,10 113,60 128,90
129,10
##END=
