##TITLE=2,4-Dimethyldiphenylsulfone
##JCAMP-DX=4.24
##DATA TYPE=MASS SPECTRUM
##ORIGIN=V.A.KOPTYUG, ATLAS OF MASS SPECTRA OF ORGANIC COMPOUNDS
##OWNER=NIST Mass Spectrometry Data Center
Collection (C) 2014 copyright by the U.S. Secretary of Commerce
on behalf of the United States of America. All rights reserved.
##CAS REGISTRY NO=4212-74-2
##$NIST MASS SPEC NO=78708
##MOLFORM=C14 H14 O2 S
##MW=246
##$NIST SOURCE=MSDC
##XUNITS=M/Z
##YUNITS=RELATIVE INTENSITY
##XFACTOR=1
##YFACTOR=1
##FIRSTX=39
##LASTX=248
##FIRSTY=879
##MAXX=248
##MINX=39
##MAXY=9999
##MINY=138
##NPOINTS=94
##PEAK TABLE=(XY..XY)
39,879 41,422 44,1075 45,1315
50,190 51,2498 52,376 53,1262
55,153 63,273 64,311 65,2184
66,355 75,148 76,355 77,6103
78,4938 79,4833 80,461 81,233
89,804 90,773 91,5410 92,2764
93,1948 94,191 97,1376 102,691
103,5407 104,3955 105,5767 106,884
107,192 109,804 110,573 115,384
119,175 120,1567 121,4804 122,610
123,3184 124,275 125,4133 126,615
127,271 128,271 135,384 136,174
137,422 139,191 141,544 150,2911
151,7053 152,4022 153,2168 154,351
155,176 163,149 164,384 165,7937
166,6562 167,6052 168,1577 169,184
178,1533 179,3665 180,9199 181,6637
182,1611 183,384 184,1005 185,573
186,192 195,384 196,271 197,568
198,611 199,1314 200,500 201,311
202,138 211,6436 212,1848 213,806
214,355 227,6354 228,9999 229,5903
230,2118 231,314 245,1676 246,9799
247,3516 248,1191
##END=
