##TITLE=2-Pyridinamine, 3-nitro-
##JCAMP-DX=4.24
##DATA TYPE=MASS SPECTRUM
##ORIGIN=Japan AIST/NIMC Database- Spectrum MS-NW-2986
##OWNER=NIST Mass Spectrometry Data Center
Collection (C) 2014 copyright by the U.S. Secretary of Commerce
on behalf of the United States of America. All rights reserved.
##CAS REGISTRY NO=4214-75-9
##$NIST MASS SPEC NO=231196
##MOLFORM=C5 H5 N3 O2
##MW=139
##$NIST SOURCE=MSDC
##XUNITS=M/Z
##YUNITS=RELATIVE INTENSITY
##XFACTOR=1
##YFACTOR=1
##FIRSTX=13
##LASTX=141
##FIRSTY=10
##MAXX=141
##MINX=13
##MAXY=9999
##MINY=10
##NPOINTS=68
##PEAK TABLE=(XY..XY)
13,10 14,20 15,20 16,10
24,10 25,30 26,149 27,159
28,729 29,30 30,409 32,20
36,40 37,529 38,1209 39,5179
40,509 41,319 42,199 43,429
44,60 46,60 47,10 48,10
49,60 50,319 51,519 52,639
53,629 54,169 55,70 56,10
62,40 63,139 64,499 65,869
66,5319 67,379 68,20 69,20
75,40 76,60 77,40 78,119
79,169 80,40 81,739 82,149
90,20 91,139 92,259 93,5699
94,349 95,20 106,20 107,20
108,20 109,389 110,20 121,70
122,859 123,169 124,10 137,10
138,10 139,9999 140,669 141,60
##END=
