##TITLE=Decanoic acid, phenylmethyl ester
##JCAMP-DX=4.24
##DATA TYPE=MASS SPECTRUM
##ORIGIN=G.GERCKEN UNIV. HAMBURG, 2 HAMBURG 13, GERMANY, F.R.G.
##OWNER=NIST Mass Spectrometry Data Center
Collection (C) 2014 copyright by the U.S. Secretary of Commerce
on behalf of the United States of America. All rights reserved.
##CAS REGISTRY NO=42175-41-7
##$NIST MASS SPEC NO=67834
##MOLFORM=C17 H26 O2
##MW=262
##$NIST SOURCE=MSDC
##XUNITS=M/Z
##YUNITS=RELATIVE INTENSITY
##XFACTOR=1
##YFACTOR=1
##FIRSTX=26
##LASTX=262
##FIRSTY=190
##MAXX=262
##MINX=26
##MAXY=9999
##MINY=60
##NPOINTS=84
##PEAK TABLE=(XY..XY)
26,190 27,750 29,1320 39,630
40,220 41,2030 42,500 43,3600
44,750 45,190 50,130 51,350
52,130 53,190 54,160 55,1410
56,410 57,1970 58,130 59,130
60,310 63,220 65,1060 67,470
68,190 69,1880 70,280 71,1660
73,280 77,500 78,250 79,810
80,160 81,590 82,130 83,780
84,310 85,810 87,190 89,380
90,970 91,9999 92,2970 93,350
95,560 96,160 97,720 98,310
101,160 103,130 104,160 105,310
106,130 107,630 108,7200 109,780
110,160 111,590 112,130 115,160
117,130 123,130 131,160 135,780
136,90 137,130 149,130 150,130
152,250 153,1000 154,190 155,690
156,130 170,110 171,810 172,140
173,90 177,80 178,60 179,60
180,110 191,80 244,90 262,160
##END=
