##TITLE=Benzene, 1-ethyl-4-(1-methylethyl)-
##JCAMP-DX=4.24
##DATA TYPE=MASS SPECTRUM
##ORIGIN=NIST Mass Spectrometry Data Center, 1990.
##OWNER=NIST Mass Spectrometry Data Center
Collection (C) 2014 copyright by the U.S. Secretary of Commerce
on behalf of the United States of America. All rights reserved.
##CAS REGISTRY NO=4218-48-8
##$NIST MASS SPEC NO=114043
##MOLFORM=C11 H16
##MW=148
##$NIST SOURCE=MSDC
##XUNITS=M/Z
##YUNITS=RELATIVE INTENSITY
##XFACTOR=1
##YFACTOR=1
##FIRSTX=15
##LASTX=149
##FIRSTY=166
##MAXX=149
##MINX=15
##MAXY=9999
##MINY=50
##NPOINTS=56
##PEAK TABLE=(XY..XY)
15,166 26,76 27,501 28,378
29,312 32,66 39,725 40,116
41,569 43,131 50,327 51,822
52,228 53,278 55,97 58,140
59,50 62,196 63,741 64,357
65,895 66,99 74,187 75,237
76,268 77,1924 78,712 79,1133
80,94 87,85 89,491 91,3822
92,361 93,83 101,75 102,358
103,1064 104,75 105,6500 106,572
115,1389 116,483 117,1600 118,455
119,2417 120,250 127,123 128,239
129,114 130,114 131,340 132,114
133,9999 134,1061 148,2687 149,310
##END=
