##TITLE=3-Hexenoic acid
##JCAMP-DX=4.24
##DATA TYPE=MASS SPECTRUM
##ORIGIN=James Little,Eastman Chem.Co.,Kingsport,TN
##OWNER=NIST Mass Spectrometry Data Center
Collection (C) 2014 copyright by the U.S. Secretary of Commerce
on behalf of the United States of America. All rights reserved.
##CAS REGISTRY NO=4219-24-3
##$NIST MASS SPEC NO=288530
##MOLFORM=C6 H10 O2
##MW=114
##$NIST SOURCE=MSDC
##XUNITS=M/Z
##YUNITS=RELATIVE INTENSITY
##XFACTOR=1
##YFACTOR=1
##FIRSTX=27
##LASTX=115
##FIRSTY=4704
##MAXX=115
##MINX=27
##MAXY=9999
##MINY=390
##NPOINTS=33
##PEAK TABLE=(XY..XY)
27,4704 28,9749 29,4344 31,1471
39,4914 41,9999 42,2022 43,9959
44,3463 45,2793 53,2272 55,2312
57,3133 58,1732 59,1611 67,2272
68,1441 69,8468 71,1922 73,440
74,500 81,470 83,410 85,1211
86,1301 87,470 95,390 96,841
97,1581 99,991 113,771 114,3793
115,500
##END=
