##TITLE=Hexadecanoic acid, 2-hydroxyethyl ester
##JCAMP-DX=4.24
##DATA TYPE=MASS SPECTRUM
##ORIGIN=Japan AIST/NIMC Database- Spectrum MS-IW-2040
##OWNER=NIST Mass Spectrometry Data Center
Collection (C) 2014 copyright by the U.S. Secretary of Commerce
on behalf of the United States of America. All rights reserved.
##CAS REGISTRY NO=4219-49-2
##$NIST MASS SPEC NO=240787
##MOLFORM=C18 H36 O3
##MW=300
##$NIST SOURCE=MSDC
##XUNITS=M/Z
##YUNITS=RELATIVE INTENSITY
##XFACTOR=1
##YFACTOR=1
##FIRSTX=15
##LASTX=302
##FIRSTY=30
##MAXX=302
##MINX=15
##MAXY=9999
##MINY=10
##NPOINTS=208
##PEAK TABLE=(XY..XY)
15,30 17,20 18,99 19,60
26,20 27,419 28,159 29,999
30,30 31,189 32,10 33,20
39,259 40,60 41,2369 42,629
43,3729 44,1349 45,1289 46,30
51,10 53,139 54,259 55,3109
56,749 57,2779 58,249 59,159
60,619 61,1849 62,50 63,30
65,20 66,30 67,529 68,339
69,1969 70,529 71,1539 72,139
73,1099 74,249 75,70 77,30
78,10 79,139 80,90 81,559
82,369 83,1569 84,1999 85,1009
86,1769 87,619 88,109 89,90
91,20 93,129 94,99 95,599
96,319 97,1409 98,5549 99,1539
100,179 101,209 102,30 103,50
104,9999 105,859 106,90 107,129
108,80 109,359 110,169 111,999
112,1959 113,299 114,70 115,159
116,30 117,4459 118,299 119,40
121,219 122,80 123,189 124,129
125,419 126,589 127,139 128,50
129,209 130,20 131,139 132,10
133,10 135,189 136,60 137,109
138,109 139,249 140,539 141,119
142,60 143,70 144,10 145,60
146,119 147,10 148,60 149,109
150,30 151,50 152,70 153,199
154,1169 155,209 156,30 157,70
158,10 159,259 160,119 161,20
163,50 164,20 165,20 166,40
167,159 168,539 169,90 170,20
171,70 172,10 173,719 174,90
175,10 177,30 178,10 179,10
180,10 181,139 182,849 183,139
184,10 185,60 187,30 188,10
191,20 192,10 194,80 195,369
196,369 197,80 198,10 199,30
201,80 202,10 205,10 209,169
210,99 211,40 213,109 214,20
215,90 216,20 219,30 220,109
221,40 222,10 223,40 224,10
225,10 227,50 228,10 229,70
230,10 236,30 237,109 238,1089
239,4619 240,809 241,90 243,30
244,10 253,20 254,10 255,10
256,739 257,2139 258,369 259,40
266,20 267,80 268,10 270,299
271,109 272,20 281,20 282,50
283,99 284,40 285,40 286,10
299,10 300,3329 301,699 302,90
##END=
