##TITLE=Propane, 1,2,2,3,3-pentachloro-1,1-difluoro-
##JCAMP-DX=4.24
##DATA TYPE=MASS SPECTRUM
##OWNER=NIST Mass Spectrometry Data Center
Collection (C) 2014 copyright by the U.S. Secretary of Commerce
on behalf of the United States of America. All rights reserved.
##CAS REGISTRY NO=422-30-0
##$NIST MASS SPEC NO=12195
##MOLFORM=C3 H Cl5 F2
##MW=250
##$NIST SOURCE=MSDC
##XUNITS=M/Z
##YUNITS=RELATIVE INTENSITY
##XFACTOR=1
##YFACTOR=1
##FIRSTX=24
##LASTX=221
##FIRSTY=10
##MAXX=221
##MINX=24
##MAXY=9999
##MINY=10
##NPOINTS=128
##PEAK TABLE=(XY..XY)
24,10 25,40 28,10 31,330
32,20 35,110 36,90 37,60
38,40 43,10 44,30 47,170
48,90 49,50 50,60 51,50
53,10 54,10 55,100 56,90
59,40 60,280 61,20 62,90
63,10 64,50 65,10 66,30
67,190 68,10 69,60 70,10
71,20 72,30 73,20 74,80
75,270 76,10 78,30 79,10
80,20 81,10 82,90 83,9999
84,150 85,7667 86,90 87,1591
88,20 90,60 91,100 92,20
93,30 94,90 95,210 96,70
97,150 98,20 99,30 101,390
102,10 103,250 104,10 105,40
106,10 107,10 108,10 109,140
110,10 111,50 113,10 114,40
115,10 116,20 117,210 118,10
119,200 121,60 123,10 125,30
127,20 129,120 130,430 131,120
132,2662 133,100 134,1672 135,40
136,240 137,10 145,450 146,20
147,290 148,110 149,70 150,100
151,20 152,30 153,10 161,80
163,80 164,10 165,550 166,30
167,931 168,30 169,550 170,20
171,150 173,20 179,140 180,40
181,140 182,40 183,60 184,10
185,20 187,10 195,10 196,10
197,10 198,10 199,10 200,10
215,10 217,40 219,40 221,20
##END=
