##TITLE=2,2,3,3,3-Pentafluoro-1-propanol
##JCAMP-DX=4.24
##DATA TYPE=MASS SPECTRUM
##ORIGIN=NIST Mass Spectrometry Data Center, 1998.
##OWNER=NIST Mass Spectrometry Data Center
Collection (C) 2014 copyright by the U.S. Secretary of Commerce
on behalf of the United States of America. All rights reserved.
##CAS REGISTRY NO=422-05-9
##$NIST MASS SPEC NO=291785
##MOLFORM=C3 H3 F5 O
##MW=150
##$NIST SOURCE=MSDC
##XUNITS=M/Z
##YUNITS=RELATIVE INTENSITY
##XFACTOR=1
##YFACTOR=1
##FIRSTX=13
##LASTX=149
##FIRSTY=10
##MAXX=149
##MINX=13
##MAXY=9999
##MINY=10
##NPOINTS=57
##PEAK TABLE=(XY..XY)
13,10 14,20 15,10 25,10
26,40 28,30 29,2160 30,200
31,9999 32,260 33,520 34,10
41,10 42,90 43,40 44,140
45,190 47,70 49,1450 50,370
51,800 52,20 55,10 56,20
60,90 61,340 62,80 63,180
64,230 65,30 67,150 69,1730
70,20 71,30 74,10 75,70
78,10 79,40 80,180 81,120
82,170 83,720 91,60 93,30
95,10 99,10 100,990 101,110
109,70 110,40 111,50 113,40
119,140 129,30 130,30 131,30
149,10
##END=
