##TITLE=Propanal, pentafluoro-
##JCAMP-DX=4.24
##DATA TYPE=MASS SPECTRUM
##ORIGIN=G.O.PRITCHARD UNIV.OF CALIFORNIA SANTA BARBARA CALIFORNIA USA
##OWNER=NIST Mass Spectrometry Data Center
Collection (C) 2014 copyright by the U.S. Secretary of Commerce
on behalf of the United States of America. All rights reserved.
##CAS REGISTRY NO=422-06-0
##$NIST MASS SPEC NO=4572
##MOLFORM=C3 H F5 O
##MW=148
##$NIST SOURCE=MSDC
##XUNITS=M/Z
##YUNITS=RELATIVE INTENSITY
##XFACTOR=1
##YFACTOR=1
##FIRSTX=12
##LASTX=120
##FIRSTY=110
##MAXX=120
##MINX=12
##MAXY=9999
##MINY=10
##NPOINTS=25
##PEAK TABLE=(XY..XY)
12,110 13,60 19,20 20,20
24,30 25,20 28,140 29,9999
31,1210 32,150 43,20 44,60
50,320 51,1320 63,20 69,1400
78,10 79,10 81,60 82,40
83,40 100,1390 101,240 119,110
120,40
##END=
