##TITLE=Nadolol
##JCAMP-DX=4.24
##DATA TYPE=MASS SPECTRUM
##ORIGIN=J.LLOYD PFLUG,FRANK J.SEILER RES.LAB.,USAF ACADEMY,CO 80840,USA
##OWNER=NIST Mass Spectrometry Data Center
Collection (C) 2014 copyright by the U.S. Secretary of Commerce
on behalf of the United States of America. All rights reserved.
##CAS REGISTRY NO=42200-33-9
##$NIST MASS SPEC NO=75219
##MOLFORM=C17 H27 N O4
##MW=309
##$NIST SOURCE=MSDC
##XUNITS=M/Z
##YUNITS=RELATIVE INTENSITY
##XFACTOR=1
##YFACTOR=1
##FIRSTX=28
##LASTX=310
##FIRSTY=120
##MAXX=310
##MINX=28
##MAXY=9999
##MINY=2
##NPOINTS=95
##PEAK TABLE=(XY..XY)
28,120 29,168 30,2550 31,154
32,41 35,22 36,39 37,16
38,33 39,191 40,54 41,333
42,227 44,156 45,20 46,35
47,25 50,16 51,118 52,29
53,8 56,222 57,439 58,506
59,16 60,231 62,2 63,68
64,20 65,214 66,25 70,747
71,510 72,285 74,95 75,22
76,25 77,518 78,225 79,129
86,9999 87,614 88,6 89,68
90,41 91,647 92,72 100,100
102,75 103,437 104,137 105,127
106,12 107,77 114,556 115,400
116,397 117,154 120,106 121,116
123,12 128,39 130,208 131,300
132,197 133,139 138,31 143,8
144,83 145,91 146,22 147,145
157,12 158,2 159,22 160,87
161,145 162,108 170,2 171,20
172,8 173,4 201,97 202,6
212,4 218,2 265,416 266,75
276,52 277,10 294,1139 295,231
296,41 309,25 310,10
##END=
