##TITLE=5-Methyl-N-nitro-1H-1,2,4-triazol-3-amine
##JCAMP-DX=4.24
##DATA TYPE=MASS SPECTRUM
##ORIGIN=Div. of Experiment Therapeutics WRAIR, WRAMC, Washington DC 20307
##OWNER=NIST Mass Spectrometry Data Center
Collection (C) 2014 copyright by the U.S. Secretary of Commerce
on behalf of the United States of America. All rights reserved.
##CAS REGISTRY NO=42216-41-1
##$NIST MASS SPEC NO=254909
##MOLFORM=C3 H5 N5 O2
##MW=143
##$NIST SOURCE=MSDC
##XUNITS=M/Z
##YUNITS=RELATIVE INTENSITY
##XFACTOR=1
##YFACTOR=1
##FIRSTX=41
##LASTX=145
##FIRSTY=1063
##MAXX=145
##MINX=41
##MAXY=9999
##MINY=3
##NPOINTS=54
##PEAK TABLE=(XY..XY)
41,1063 42,9999 43,603 44,39
45,7 46,515 48,4 51,32
52,23 53,577 54,6 55,347
56,215 57,76 58,4 60,16
65,11 66,31 67,987 68,480
69,45 70,9 71,31 73,16
77,8 79,6 80,5 81,18
82,13 83,220 84,29 85,4
87,3 93,3 95,4 97,5912
98,1086 99,58 106,4 107,4
109,14 110,12 111,8 112,4
113,149 114,11 123,5 125,6
126,98 127,19 142,31 143,1008
144,57 145,29
##END=
