##TITLE=Acetic acid, (amino(nitroamino)methylene)hydrazide
##JCAMP-DX=4.24
##DATA TYPE=MASS SPECTRUM
##ORIGIN=Div. of Experiment Therapeutics WRAIR, WRAMC, Washington DC 20307
##OWNER=NIST Mass Spectrometry Data Center
Collection (C) 2014 copyright by the U.S. Secretary of Commerce
on behalf of the United States of America. All rights reserved.
##CAS REGISTRY NO=42216-29-5
##$NIST MASS SPEC NO=255510
##MOLFORM=C3 H7 N5 O3
##MW=161
##$NIST SOURCE=MSDC
##XUNITS=M/Z
##YUNITS=RELATIVE INTENSITY
##XFACTOR=1
##YFACTOR=1
##FIRSTX=41
##LASTX=161
##FIRSTY=838
##MAXX=161
##MINX=41
##MAXY=9999
##MINY=21
##NPOINTS=36
##PEAK TABLE=(XY..XY)
41,838 42,3052 43,9999 44,1256
45,263 46,864 49,79 53,151
54,40 55,68 56,317 57,179
58,114 59,160 60,91 67,132
68,49 69,34 72,93 73,415
74,34 83,45 84,163 85,1050
86,34 97,353 98,108 99,350
100,136 115,162 116,100 119,23
126,21 143,31 144,21 161,85
##END=
