##TITLE=Hexadecanoic acid, dodecyl ester
##JCAMP-DX=4.24
##DATA TYPE=MASS SPECTRUM
##ORIGIN=Mark Whitten, Florida Museum of Natural History, U. of Florida
##OWNER=NIST Mass Spectrometry Data Center
Collection (C) 2014 copyright by the U.S. Secretary of Commerce
on behalf of the United States of America. All rights reserved.
##CAS REGISTRY NO=42232-29-1
##$NIST MASS SPEC NO=140951
##MOLFORM=C28 H56 O2
##MW=424
##$NIST SOURCE=MSDC
##XUNITS=M/Z
##YUNITS=RELATIVE INTENSITY
##XFACTOR=1
##YFACTOR=1
##FIRSTX=41
##LASTX=426
##FIRSTY=5677
##MAXX=426
##MINX=41
##MAXY=9999
##MINY=20
##NPOINTS=141
##PEAK TABLE=(XY..XY)
41,5677 42,1656 43,9999 44,415
45,95 53,223 54,562 55,5541
56,2426 57,7606 58,438 59,140
60,910 61,1911 62,47 65,43
66,94 67,876 68,928 69,3792
70,2062 71,3366 72,232 73,1458
74,187 75,26 77,21 79,125
80,66 81,696 82,1598 83,3295
84,1678 85,1906 86,156 87,473
88,104 89,143 91,29 93,101
94,58 95,544 96,1028 97,2924
98,1298 99,606 100,92 101,366
102,140 103,146 107,78 108,36
109,285 110,455 111,1762 112,719
113,325 114,64 115,467 116,445
117,100 121,109 122,26 123,153
124,210 125,948 126,386 127,176
129,881 130,135 131,38 135,91
136,26 137,67 138,137 139,404
140,778 141,141 143,219 144,65
145,25 149,72 151,33 152,44
153,95 154,36 155,34 157,351
158,90 159,29 163,50 165,23
166,61 168,3062 169,519 170,42
171,379 172,60 173,28 181,31
185,335 186,50 187,24 194,39
195,31 196,65 199,141 200,31
201,26 209,20 211,31 213,1009
214,149 215,26 219,48 227,119
228,108 229,489 230,65 236,60
237,74 238,39 239,806 240,134
241,117 242,23 255,81 256,1720
257,6125 258,1127 259,121 283,36
297,114 298,26 313,87 314,23
325,29 382,38 424,1539 425,514
426,82
##END=
