##TITLE=2,4-Imidazolidinedione, 3-methyl-5,5-diphenyl-
##JCAMP-DX=4.24
##DATA TYPE=MASS SPECTRUM
##ORIGIN=NIST Mass Spectrometry Data Center, 2010
##OWNER=NIST Mass Spectrometry Data Center
Collection (C) 2014 copyright by the U.S. Secretary of Commerce
on behalf of the United States of America. All rights reserved.
##CAS REGISTRY NO=4224-00-4
##$NIST MASS SPEC NO=374306
##MOLFORM=C16 H14 N2 O2
##MW=266
##$NIST SOURCE=MSDC
##XUNITS=M/Z
##YUNITS=RELATIVE INTENSITY
##XFACTOR=1
##YFACTOR=1
##FIRSTX=15
##LASTX=269
##FIRSTY=20
##MAXX=269
##MINX=15
##MAXY=9999
##MINY=10
##NPOINTS=130
##PEAK TABLE=(XY..XY)
15,20 27,40 29,20 31,10
38,20 39,100 43,10 45,10
50,130 51,621 52,90 53,10
55,10 56,50 57,40 58,140
59,10 61,10 62,50 63,130
64,40 65,30 68,10 70,100
71,10 74,100 75,130 76,330
77,2062 78,581 79,30 82,330
85,10 86,30 87,60 88,50
89,100 90,150 91,70 92,10
94,10 95,10 97,10 98,30
99,40 100,20 101,20 102,90
103,200 104,3223 105,330 106,50
107,10 110,10 111,10 112,10
113,70 114,30 115,110 116,30
117,10 118,60 119,20 122,10
125,20 126,50 127,50 128,30
129,10 130,110 131,30 132,80
133,10 134,20 135,20 137,40
138,40 139,260 140,70 145,10
150,60 151,150 152,360 153,120
154,40 159,20 161,611 162,120
163,250 164,390 165,2132 166,460
167,80 168,20 176,10 177,50
178,90 180,9999 181,1922 182,210
183,10 189,1872 190,210 191,30
192,40 193,20 194,110 195,20
196,10 198,10 202,10 203,60
206,60 208,1982 209,2692 210,420
211,20 221,20 222,30 223,50
224,10 237,5195 238,1231 239,150
240,20 242,10 266,7146 267,1361
268,130 269,10
##END=
