##TITLE=Benzimidazole, 4,6-dichloro-2-(trifluoromethyl)-
##JCAMP-DX=4.24
##DATA TYPE=MASS SPECTRUM
##ORIGIN=A.A.Kutin, Moscow, Russia
##OWNER=NIST Mass Spectrometry Data Center
Collection (C) 2014 copyright by the U.S. Secretary of Commerce
on behalf of the United States of America. All rights reserved.
##CAS REGISTRY NO=4228-88-0
##$NIST MASS SPEC NO=297715
##MOLFORM=C8 H3 Cl2 F3 N2
##MW=254
##$NIST SOURCE=MSDC
##XUNITS=M/Z
##YUNITS=RELATIVE INTENSITY
##XFACTOR=1
##YFACTOR=1
##FIRSTX=35
##LASTX=259
##FIRSTY=332
##MAXX=259
##MINX=35
##MAXY=9999
##MINY=1
##NPOINTS=182
##PEAK TABLE=(XY..XY)
35,332 36,197 37,811 38,408
39,95 40,61 41,19 43,19
44,53 45,14 47,415 48,111
49,487 50,1181 51,489 52,828
53,87 55,12 56,22 57,59
58,15 60,524 61,1806 62,1818
63,784 64,462 65,70 66,23
67,21 69,5817 71,360 72,689
73,935 74,753 75,794 76,929
77,197 78,18 79,24 81,40
82,129 83,318 85,1540 86,1141
87,1974 88,3529 89,742 90,95
91,33 92,44 93,54 94,54
95,166 96,693 97,2587 98,1197
99,997 100,479 101,122 102,86
103,64 104,32 106,178 107,427
108,284 109,410 110,236 111,160
112,197 113,673 114,208 115,306
116,35 117,198 118,237 119,102
120,58 121,136 122,809 123,588
124,1025 125,207 126,244 127,161
128,97 129,23 130,33 131,353
132,221 133,293 134,241 135,106
136,75 137,85 138,85 139,21
140,9 141,16 142,84 143,34
144,79 145,35 146,42 147,157
149,1227 150,1806 151,468 152,563
154,237 156,109 158,2197 160,1450
161,102 162,206 163,228 164,286
165,101 166,12 168,42 169,117
170,113 171,61 172,135 173,229
174,52 175,77 176,12 179,49
180,45 181,22 182,63 183,114
184,678 185,440 186,399 187,240
188,92 189,82 191,50 192,138
193,22 194,113 195,9 196,32
197,11 198,90 199,826 200,114
201,256 202,27 203,27 204,143
205,27 206,93 207,81 208,39
209,47 210,12 211,5 215,117
216,18 217,65 218,84 219,647
220,82 221,211 222,24 223,6
234,6644 235,1489 236,4187 237,918
238,728 239,147 240,19 249,1
254,9999 255,1068 256,6249 257,605
258,1023 259,88
##END=
