##TITLE=Furan, 2-propyl-
##JCAMP-DX=4.24
##DATA TYPE=MASS SPECTRUM
##ORIGIN=NIST Mass Spectrometry Data Center, 1990.
##OWNER=NIST Mass Spectrometry Data Center
Collection (C) 2014 copyright by the U.S. Secretary of Commerce
on behalf of the United States of America. All rights reserved.
##CAS REGISTRY NO=4229-91-8
##$NIST MASS SPEC NO=113123
##MOLFORM=C7 H10 O
##MW=110
##$NIST SOURCE=MSDC
##XUNITS=M/Z
##YUNITS=RELATIVE INTENSITY
##XFACTOR=1
##YFACTOR=1
##FIRSTX=14
##LASTX=111
##FIRSTY=35
##MAXX=111
##MINX=14
##MAXY=9999
##MINY=22
##NPOINTS=43
##PEAK TABLE=(XY..XY)
14,35 15,99 18,22 25,26
26,203 27,1461 28,123 29,398
32,31 37,132 38,320 39,1114
40,172 41,485 42,87 43,91
49,44 50,405 51,587 52,410
53,2822 54,236 55,104 57,34
61,36 62,56 63,124 65,231
66,189 67,188 68,107 74,40
77,197 78,58 79,226 80,40
81,9999 82,735 83,56 94,91
95,150 110,1915 111,156
##END=
