##TITLE=Butane, 1,1,3,4-tetrachloro-1,2,2,3,4,4-hexafluoro-
##JCAMP-DX=4.24
##DATA TYPE=MASS SPECTRUM
##ORIGIN=THE M.W. KELLOGG CO., JERSEY CITY, N.J., USA
##OWNER=NIST Mass Spectrometry Data Center
Collection (C) 2014 copyright by the U.S. Secretary of Commerce
on behalf of the United States of America. All rights reserved.
##CAS REGISTRY NO=423-38-1
##$NIST MASS SPEC NO=35028
##MOLFORM=C4 Cl4 F6
##MW=302
##$NIST SOURCE=MSDC
##XUNITS=M/Z
##YUNITS=RELATIVE INTENSITY
##XFACTOR=1
##YFACTOR=1
##FIRSTX=20
##LASTX=273
##FIRSTY=7
##MAXX=273
##MINX=20
##MAXY=9999
##MINY=4
##NPOINTS=110
##PEAK TABLE=(XY..XY)
20,7 24,33 31,3420 32,57
35,808 36,96 37,243 38,14
43,64 44,8 47,802 48,16
49,256 50,280 51,12 55,200
56,9 59,34 61,10 62,129
66,1064 67,35 68,350 69,1837
70,34 71,53 72,11 73,19
74,283 75,161 78,161 79,5
80,51 81,104 82,237 83,14
84,59 85,8350 86,137 87,2682
88,28 89,11 90,99 91,7
92,33 93,665 94,35 96,12
97,152 98,11 99,62 100,74
101,9999 102,114 103,6390 104,64
105,1049 106,19 108,5 109,304
110,11 111,99 112,66 113,42
115,25 116,1654 117,108 118,522
119,273 120,7 121,17 123,4
124,12 125,42 127,26 128,12
129,21 131,576 132,302 134,187
135,2604 136,81 137,834 138,16
140,7 143,12 146,46 147,740
149,239 151,2297 153,1481 155,237
159,12 163,297 165,191 167,61
169,28 171,9 179,244 181,238
182,127 184,74 186,14 217,54
219,52 221,16 267,293 269,281
271,90 273,11
##END=
