##TITLE=5-Chloro-1-indanone
##JCAMP-DX=4.24
##DATA TYPE=MASS SPECTRUM
##ORIGIN=NIST Mass Spectrometry Data Center, 1994
##OWNER=NIST Mass Spectrometry Data Center
Collection (C) 2014 copyright by the U.S. Secretary of Commerce
on behalf of the United States of America. All rights reserved.
##CAS REGISTRY NO=42348-86-7
##$NIST MASS SPEC NO=136885
##MOLFORM=C9 H7 Cl O
##MW=166
##$NIST SOURCE=MSDC
##XUNITS=M/Z
##YUNITS=RELATIVE INTENSITY
##XFACTOR=1
##YFACTOR=1
##FIRSTX=13
##LASTX=169
##FIRSTY=60
##MAXX=169
##MINX=13
##MAXY=9999
##MINY=12
##NPOINTS=84
##PEAK TABLE=(XY..XY)
13,60 14,233 15,176 16,12
18,103 25,86 26,647 27,1484
35,164 36,175 37,746 38,1159
39,1440 40,89 41,86 42,310
43,64 44,21 47,103 49,860
50,3679 51,4970 52,597 53,383
54,53 55,283 56,44 60,199
61,886 62,1558 63,2211 64,200
65,105 66,30 67,30 68,510
69,208 72,173 73,1224 74,2957
75,4864 76,1525 77,3003 78,305
83,108 84,397 85,454 86,564
87,580 88,152 89,553 90,50
96,56 97,316 98,509 99,440
100,222 101,1978 102,3720 103,9070
104,775 105,60 108,82 110,1472
111,709 112,1227 113,281 114,259
123,194 125,94 131,1006 132,105
136,277 137,1271 138,5540 139,1390
140,1838 141,331 163,54 165,5661
166,9999 167,2637 168,3144 169,330
##END=
