##TITLE=5-Hepten-1-ol, 2,6-dimethyl-
##JCAMP-DX=4.24
##DATA TYPE=MASS SPECTRUM
##ORIGIN=NIST Mass Spectrometry Data Center, 2010
##OWNER=NIST Mass Spectrometry Data Center
Collection (C) 2014 copyright by the U.S. Secretary of Commerce
on behalf of the United States of America. All rights reserved.
##CAS REGISTRY NO=4234-93-9
##$NIST MASS SPEC NO=383910
##MOLFORM=C9 H18 O
##MW=142
##$NIST SOURCE=MSDC
##XUNITS=M/Z
##YUNITS=RELATIVE INTENSITY
##XFACTOR=1
##YFACTOR=1
##FIRSTX=27
##LASTX=143
##FIRSTY=450
##MAXX=143
##MINX=27
##MAXY=9999
##MINY=160
##NPOINTS=31
##PEAK TABLE=(XY..XY)
27,450 31,991 39,2042 41,8638
42,761 43,1641 45,160 53,1481
54,641 55,3894 56,2212 57,1211
58,1361 66,250 67,6596 68,3693
69,9999 70,1171 71,2272 77,460
79,550 80,701 81,2692 82,8348
95,3994 96,460 109,5825 110,641
124,400 142,2702 143,390
##END=
