##TITLE=1H-Imidazole, 1-(phenylmethyl)-
##JCAMP-DX=4.24
##DATA TYPE=MASS SPECTRUM
##ORIGIN=Japan AIST/NIMC Database- Spectrum MS-NW-7268
##OWNER=NIST Mass Spectrometry Data Center
Collection (C) 2014 copyright by the U.S. Secretary of Commerce
on behalf of the United States of America. All rights reserved.
##CAS REGISTRY NO=4238-71-5
##$NIST MASS SPEC NO=235768
##MOLFORM=C10 H10 N2
##MW=158
##$NIST SOURCE=MSDC
##XUNITS=M/Z
##YUNITS=RELATIVE INTENSITY
##XFACTOR=1
##YFACTOR=1
##FIRSTX=13
##LASTX=160
##FIRSTY=10
##MAXX=160
##MINX=13
##MAXY=9999
##MINY=10
##NPOINTS=65
##PEAK TABLE=(XY..XY)
13,10 14,20 15,10 26,189
27,269 28,329 29,20 37,40
38,159 39,869 40,339 41,299
42,20 43,10 44,30 45,20
49,20 50,259 51,589 52,219
53,80 54,80 55,10 57,10
61,40 62,129 63,399 64,119
65,1679 66,209 67,10 73,10
74,60 75,70 76,80 77,299
78,199 79,60 81,20 85,10
86,20 87,30 88,10 89,279
90,109 91,9999 92,779 93,30
101,20 102,50 103,129 104,50
116,10 117,10 128,20 129,30
130,50 131,10 143,10 155,10
156,40 157,20 158,3159 159,399
160,30
##END=
