##TITLE=Diltiazem
##JCAMP-DX=4.24
##DATA TYPE=MASS SPECTRUM
##ORIGIN=AAFS Toxicology Section MS DB Committee, U. Alberta, Canada
##OWNER=NIST Mass Spectrometry Data Center
Collection (C) 2014 copyright by the U.S. Secretary of Commerce
on behalf of the United States of America. All rights reserved.
##CAS REGISTRY NO=42399-41-7
##$NIST MASS SPEC NO=247122
##MOLFORM=C22 H26 N2 O4 S
##MW=414
##$NIST SOURCE=MSDC
##XUNITS=M/Z
##YUNITS=RELATIVE INTENSITY
##XFACTOR=1
##YFACTOR=1
##FIRSTX=39
##LASTX=414
##FIRSTY=20
##MAXX=414
##MINX=39
##MAXY=9999
##MINY=10
##NPOINTS=80
##PEAK TABLE=(XY..XY)
39,20 41,20 42,220 43,430
44,70 45,30 51,40 52,10
53,20 55,20 56,170 58,9999
59,370 63,30 64,20 65,120
69,30 70,80 71,4544 72,1671
73,70 76,20 77,300 78,120
79,90 89,100 90,90 91,160
92,50 96,20 102,30 103,40
104,20 105,20 106,30 107,50
108,70 109,340 110,30 111,20
116,10 117,50 118,100 119,40
121,1090 122,100 123,20 124,10
132,20 133,150 134,50 135,140
136,560 137,80 138,40 139,20
147,10 148,90 149,130 150,960
151,150 152,40 159,20 161,410
162,60 163,30 164,50 165,20
177,20 178,180 179,10 180,10
191,20 192,160 193,40 255,10
283,20 284,50 296,20 414,20
##END=
