##TITLE=1,8-Dinitropyrene
##JCAMP-DX=4.24
##DATA TYPE=MASS SPECTRUM
##ORIGIN=T. Watanabe et al., Chem. Res. Toxicol. 1998, 11, 1501-1507
##OWNER=NIST Mass Spectrometry Data Center
Collection (C) 2014 copyright by the U.S. Secretary of Commerce
on behalf of the United States of America. All rights reserved.
##CAS REGISTRY NO=42397-65-9
##$NIST MASS SPEC NO=383728
##MOLFORM=C16 H8 N2 O4
##MW=292
##$NIST SOURCE=MSDC
##XUNITS=M/Z
##YUNITS=RELATIVE INTENSITY
##XFACTOR=1
##YFACTOR=1
##FIRSTX=36
##LASTX=294
##FIRSTY=200
##MAXX=294
##MINX=36
##MAXY=9999
##MINY=100
##NPOINTS=110
##PEAK TABLE=(XY..XY)
36,200 38,150 39,100 41,110
42,100 43,200 44,330 45,100
55,100 56,100 57,130 58,130
60,110 62,100 63,130 69,110
71,110 73,100 74,150 75,130
77,100 78,100 79,110 83,100
84,100 85,110 86,110 87,150
88,100 95,100 96,110 97,110
98,110 101,100 109,100 110,100
111,110 112,100 121,100 122,110
123,100 124,100 125,100 126,100
132,100 135,100 137,100 138,100
149,160 150,200 151,160 152,100
161,150 162,130 163,220 164,180
165,160 174,180 175,160 176,520
177,220 178,270 179,160 185,130
186,110 187,430 188,571 189,280
190,721 191,370 192,330 193,200
194,110 198,100 199,150 200,571
201,220 202,130 203,130 204,791
205,200 206,621 207,180 208,100
215,160 216,1041 217,400 218,220
219,280 220,150 229,150 230,130
231,150 232,1852 233,380 234,330
235,110 245,400 246,821 247,540
248,180 259,160 262,2242 263,470
264,110 276,741 277,180 292,9999
293,1902 294,250
##END=
