##TITLE=Lactose, 8TMS derivative
##JCAMP-DX=4.24
##DATA TYPE=MASS SPECTRUM
##ORIGIN=NIST Mass Spectrometry Data Center, 2010
##OWNER=NIST Mass Spectrometry Data Center
Collection (C) 2014 copyright by the U.S. Secretary of Commerce
on behalf of the United States of America. All rights reserved.
##CAS REGISTRY NO=42390-78-3
##$NIST MASS SPEC NO=380448
##MOLFORM=C36 H86 O11 Si8
##MW=918
##$NIST SOURCE=MSDC
##XUNITS=M/Z
##YUNITS=RELATIVE INTENSITY
##XFACTOR=1
##YFACTOR=1
##FIRSTX=15
##LASTX=815
##FIRSTY=10
##MAXX=815
##MINX=15
##MAXY=9999
##MINY=10
##NPOINTS=277
##PEAK TABLE=(XY..XY)
15,10 26,10 27,10 29,20
30,10 31,10 39,10 41,30
43,60 44,20 45,110 46,10
47,90 48,10 49,10 51,10
52,10 53,20 54,30 55,50
56,10 57,20 58,20 59,100
60,20 61,30 63,10 65,10
66,30 67,20 68,10 69,190
70,10 71,20 72,60 73,6776
74,561 75,1121 76,70 77,90
78,10 79,10 80,10 81,110
82,20 83,20 84,10 85,30
87,20 88,10 89,50 90,10
91,10 93,10 94,10 95,10
96,10 97,20 98,10 99,20
100,10 101,80 102,20 103,1131
104,110 105,50 109,30 110,10
111,20 112,10 113,40 114,10
115,30 116,70 117,400 118,40
119,40 125,10 126,10 127,30
128,20 129,1151 130,140 131,220
132,30 133,220 134,30 135,20
139,10 140,10 141,30 142,80
143,180 144,20 145,70 146,10
147,1651 148,260 149,220 150,30
151,20 152,10 153,20 154,20
155,120 156,30 157,180 158,30
159,40 160,10 161,40 162,10
163,40 164,10 167,20 168,10
169,370 170,60 171,60 172,10
173,40 174,10 175,40 176,10
177,40 178,10 179,10 181,10
182,10 183,40 184,10 185,10
187,20 188,10 189,260 190,80
191,2282 192,420 193,200 194,30
195,10 197,10 199,30 200,10
201,20 202,20 203,140 204,9999
205,2062 206,851 207,130 208,30
209,10 211,10 215,40 216,20
217,2282 218,611 219,280 220,50
221,100 222,20 223,20 227,20
228,10 229,80 230,130 231,220
232,60 233,90 234,20 235,10
241,20 242,20 243,631 244,190
245,130 246,30 247,80 248,20
249,10 255,10 256,10 257,60
258,20 259,60 260,20 261,10
263,10 265,60 266,20 267,10
269,10 270,10 271,440 272,120
273,70 274,10 275,10 277,10
278,20 279,60 280,20 281,10
285,10 287,10 289,10 290,10
291,80 292,30 293,20 294,10
303,10 304,20 305,290 306,100
307,50 308,20 309,10 317,60
318,30 319,220 320,70 321,40
322,20 331,90 332,70 333,60
334,20 335,30 336,10 343,10
345,60 346,20 347,30 348,10
349,10 359,30 360,20 361,931
362,320 363,150 364,30 365,10
379,10 393,20 394,10 407,10
408,10 409,10 422,10 431,20
432,10 433,10 435,40 436,20
437,10 451,50 452,20 453,20
521,150 522,70 523,40 524,10
525,20 526,10 539,20 540,10
569,30 570,10 571,10 683,10
684,10 723,10 725,10 813,20
815,10
##END=
