##TITLE=Diethyl perfluoroglutarate
##JCAMP-DX=4.24
##DATA TYPE=MASS SPECTRUM
##ORIGIN=RADIAN CORP
##OWNER=NIST Mass Spectrometry Data Center
Collection (C) 2014 copyright by the U.S. Secretary of Commerce
on behalf of the United States of America. All rights reserved.
##CAS REGISTRY NO=424-40-8
##$NIST MASS SPEC NO=72902
##MOLFORM=C9 H10 F6 O4
##MW=296
##$NIST SOURCE=MSDC
##XUNITS=M/Z
##YUNITS=RELATIVE INTENSITY
##XFACTOR=1
##YFACTOR=1
##FIRSTX=15
##LASTX=297
##FIRSTY=50
##MAXX=297
##MINX=15
##MAXY=9999
##MINY=10
##NPOINTS=97
##PEAK TABLE=(XY..XY)
15,50 26,320 27,2770 29,7570
30,300 31,260 41,30 42,100
43,460 44,20 45,730 46,10
47,40 49,20 50,120 51,140
59,100 60,20 62,30 64,230
65,60 67,100 69,760 71,30
73,230 74,20 75,10 77,50
78,300 79,40 80,30 81,290
82,40 83,10 90,50 91,180
93,210 94,10 95,40 96,580
97,80 98,10 100,4230 101,110
106,60 109,550 110,30 112,1740
113,420 117,70 119,1050 120,20
124,30 125,20 126,30 127,20
128,80 129,70 131,2090 132,510
133,10 136,30 137,40 140,20
145,160 147,320 148,940 149,30
150,630 151,20 153,10 156,10
157,70 173,270 175,10 176,9999
177,530 178,50 193,410 194,10
195,3600 196,950 197,60 201,20
204,2910 205,190 206,10 221,340
222,20 223,2400 224,230 225,20
233,10 251,850 252,60 269,90
297,10
##END=
