##TITLE=1H,1H-Heptafluorobutyl acrylate
##JCAMP-DX=4.24
##DATA TYPE=MASS SPECTRUM
##ORIGIN=NIST Mass Spectrometry Data Center
##OWNER=NIST Mass Spectrometry Data Center
Collection (C) 2014 copyright by the U.S. Secretary of Commerce
on behalf of the United States of America. All rights reserved.
##CAS REGISTRY NO=424-64-6
##$NIST MASS SPEC NO=343444
##MOLFORM=C7 H5 F7 O2
##MW=254
##$NIST SOURCE=MSDC
##XUNITS=M/Z
##YUNITS=RELATIVE INTENSITY
##XFACTOR=1
##YFACTOR=1
##FIRSTX=14
##LASTX=254
##FIRSTY=30
##MAXX=254
##MINX=14
##MAXY=9999
##MINY=10
##NPOINTS=62
##PEAK TABLE=(XY..XY)
14,30 15,10 20,10 25,80
26,741 27,3603 28,130 29,470
30,100 31,440 32,20 33,100
37,10 38,10 39,10 41,30
42,30 43,40 44,40 45,120
46,10 47,10 50,70 51,430
52,10 53,180 55,9999 56,430
57,40 59,10 63,20 64,300
69,1451 70,10 71,10 75,50
80,10 81,20 82,40 83,50
85,691 86,30 87,10 90,10
91,40 93,30 95,220 100,340
101,10 111,10 113,250 114,10
115,40 119,360 120,10 121,20
131,40 133,20 135,30 150,30
235,20 254,40
##END=
