##TITLE=Acrylic acid isoamyl ester
##JCAMP-DX=4.24
##DATA TYPE=MASS SPECTRUM
##ORIGIN=Vladimir Zaikin,TIPS RAS, Moscow, Russia
##OWNER=NIST Mass Spectrometry Data Center
Collection (C) 2014 copyright by the U.S. Secretary of Commerce
on behalf of the United States of America. All rights reserved.
##CAS REGISTRY NO=4245-35-6
##$NIST MASS SPEC NO=245679
##MOLFORM=C8 H14 O2
##MW=142
##$NIST SOURCE=MSDC
##XUNITS=M/Z
##YUNITS=RELATIVE INTENSITY
##XFACTOR=1
##YFACTOR=1
##FIRSTX=36
##LASTX=100
##FIRSTY=300
##MAXX=100
##MINX=36
##MAXY=9999
##MINY=20
##NPOINTS=34
##PEAK TABLE=(XY..XY)
36,300 38,180 39,480 40,80
41,1050 42,1201 43,1421 44,470
45,320 46,70 51,100 53,110
54,90 55,9999 56,600 57,180
58,30 59,30 61,40 63,220
64,20 65,40 66,20 67,30
68,50 69,680 70,5134 71,520
72,400 73,1601 74,60 85,330
99,270 100,40
##END=
