##TITLE=Benzene, 1-methyl-4-[(2-propenyloxy)methyl]-
##JCAMP-DX=4.24
##DATA TYPE=MASS SPECTRUM
##ORIGIN=JACSAT, 99(13)4372(1977); 20; R. G. SALOMON
##OWNER=NIST Mass Spectrometry Data Center
Collection (C) 2014 copyright by the U.S. Secretary of Commerce
on behalf of the United States of America. All rights reserved.
##CAS REGISTRY NO=42463-79-6
##$NIST MASS SPEC NO=55823
##MOLFORM=C11 H14 O
##MW=162
##$NIST SOURCE=MSDC
##XUNITS=M/Z
##YUNITS=RELATIVE INTENSITY
##XFACTOR=1
##YFACTOR=1
##FIRSTX=65
##LASTX=162
##FIRSTY=1000
##MAXX=162
##MINX=65
##MAXY=9999
##MINY=1000
##NPOINTS=14
##PEAK TABLE=(XY..XY)
65,1000 77,2700 78,1000 79,1200
91,3400 93,1800 103,1100 105,9999
106,6600 119,2700 120,4100 121,1400
132,1000 162,1800
##END=
