##TITLE=Pentane, 1,3-dibromo-
##JCAMP-DX=4.24
##DATA TYPE=MASS SPECTRUM
##ORIGIN=Susan Richardson
##OWNER=NIST Mass Spectrometry Data Center
Collection (C) 2014 copyright by the U.S. Secretary of Commerce
on behalf of the United States of America. All rights reserved.
##CAS REGISTRY NO=42474-20-4
##$NIST MASS SPEC NO=288184
##MOLFORM=C5 H10 Br2
##MW=228
##$NIST SOURCE=MSDC
##XUNITS=M/Z
##YUNITS=RELATIVE INTENSITY
##XFACTOR=1
##YFACTOR=1
##FIRSTX=43
##LASTX=152
##FIRSTY=1922
##MAXX=152
##MINX=43
##MAXY=9999
##MINY=10
##NPOINTS=40
##PEAK TABLE=(XY..XY)
43,1922 44,30 45,10 49,60
50,340 51,631 52,180 53,1682
54,320 55,2412 56,100 57,20
58,20 62,60 63,80 64,30
65,110 66,50 67,450 68,30
69,9999 70,1611 71,40 79,100
80,120 81,100 82,130 93,40
95,40 107,420 109,420 119,10
120,100 121,611 122,90 123,651
149,7667 150,550 151,7357 152,470
##END=
