##TITLE=Gona-1,3,5(10)-trien-17-one, 3-methoxy-, (13.alpha.)-
##JCAMP-DX=4.24
##DATA TYPE=MASS SPECTRUM
##ORIGIN=CARL DJERASSI DEPT OF CHEM STANFORD UNIV STANFORD CALIF 94305
##OWNER=NIST Mass Spectrometry Data Center
Collection (C) 2014 copyright by the U.S. Secretary of Commerce
on behalf of the United States of America. All rights reserved.
##CAS REGISTRY NO=4248-04-8
##$NIST MASS SPEC NO=47873
##MOLFORM=C18 H22 O2
##MW=270
##$NIST SOURCE=MSDC
##XUNITS=M/Z
##YUNITS=RELATIVE INTENSITY
##XFACTOR=1
##YFACTOR=1
##FIRSTX=41
##LASTX=272
##FIRSTY=2424
##MAXX=272
##MINX=41
##MAXY=9999
##MINY=101
##NPOINTS=146
##PEAK TABLE=(XY..XY)
41,2424 42,505 43,909 44,303
45,303 50,202 51,909 52,404
53,1313 54,404 55,2828 56,303
57,404 58,202 59,202 62,101
63,808 64,303 65,1212 66,303
67,1515 68,303 69,606 70,202
71,404 74,101 75,202 76,404
77,2222 78,1010 79,1313 80,202
81,606 82,202 83,3737 84,303
85,101 86,202 89,606 90,202
91,3030 92,505 93,707 94,101
95,303 96,101 97,202 98,101
99,202 100,101 101,101 102,404
103,808 104,404 105,606 106,202
107,505 108,202 109,404 110,101
111,101 114,101 115,2727 116,808
117,1010 118,101 119,202 121,1313
122,606 123,101 126,101 127,707
128,1515 129,1212 130,303 131,606
132,202 133,202 134,1616 135,606
136,202 139,202 141,808 142,303
143,606 144,808 145,1111 146,404
147,1313 148,303 149,202 152,303
153,404 154,202 155,303 156,101
157,404 158,808 159,2222 160,1717
161,707 162,202 165,303 166,101
167,202 168,101 169,202 170,101
171,1111 172,606 173,1515 174,606
175,202 179,101 181,101 183,101
184,707 185,707 186,1717 187,1010
188,404 195,101 197,202 198,202
199,3434 200,707 201,202 207,101
209,101 211,303 212,202 213,707
214,1111 215,202 221,101 223,101
227,101 239,202 241,404 242,1010
243,202 255,101 269,606 270,9999
271,2020 272,202
##END=
