##TITLE=Benzene, 1,1'-(1,1,2,2-tetrafluoro-1,2-ethanediyl)bis-
##JCAMP-DX=4.24
##DATA TYPE=MASS SPECTRUM
##ORIGIN=J. L. COTTER
##OWNER=NIST Mass Spectrometry Data Center
Collection (C) 2014 copyright by the U.S. Secretary of Commerce
on behalf of the United States of America. All rights reserved.
##CAS REGISTRY NO=425-32-1
##$NIST MASS SPEC NO=41829
##MOLFORM=C14 H10 F4
##MW=254
##$NIST SOURCE=MSDC
##XUNITS=M/Z
##YUNITS=RELATIVE INTENSITY
##XFACTOR=1
##YFACTOR=1
##FIRSTX=39
##LASTX=254
##FIRSTY=200
##MAXX=254
##MINX=39
##MAXY=9999
##MINY=100
##NPOINTS=17
##PEAK TABLE=(XY..XY)
39,200 50,200 51,700 57,100
63,100 75,200 76,100 77,1600
78,100 101,100 107,200 125,100
126,100 127,9999 128,800 165,100
254,300
##END=
