##TITLE=Heptafluorobutyric acid, n-pentyl ester
##JCAMP-DX=4.24
##DATA TYPE=MASS SPECTRUM
##ORIGIN=V.G. Zaikin, R.S.Borisov, TIPS RAS, Moscow, Russia
##OWNER=NIST Mass Spectrometry Data Center
Collection (C) 2014 copyright by the U.S. Secretary of Commerce
on behalf of the United States of America. All rights reserved.
##CAS REGISTRY NO=425-26-3
##$NIST MASS SPEC NO=356001
##MOLFORM=C9 H11 F7 O2
##MW=284
##$NIST SOURCE=MSDC
##XUNITS=M/Z
##YUNITS=RELATIVE INTENSITY
##XFACTOR=1
##YFACTOR=1
##FIRSTX=26
##LASTX=256
##FIRSTY=40
##MAXX=256
##MINX=26
##MAXY=9999
##MINY=20
##NPOINTS=68
##PEAK TABLE=(XY..XY)
26,40 27,991 28,791 29,1992
30,60 31,130 38,20 39,1261
40,250 41,6876 42,7867 43,9999
44,380 45,260 47,40 50,100
51,100 52,30 53,300 54,140
55,9779 56,911 57,791 58,40
59,60 61,140 62,20 63,20
65,40 66,20 67,250 69,4984
70,8688 71,4254 72,220 77,20
78,160 80,30 81,160 84,20
85,30 93,90 95,20 97,60
100,1672 101,30 109,370 115,250
119,1151 131,130 147,60 150,250
159,20 167,110 169,7777 170,210
178,40 195,20 197,330 199,50
213,30 215,80 227,20 240,20
241,240 253,20 255,1011 256,60
##END=
