##TITLE=Hydrazine, (2-methylpropyl)-
##JCAMP-DX=4.24
##DATA TYPE=MASS SPECTRUM
##ORIGIN=ATLAS OF MASS SPECTRA OF ORGANIC COMPOUNDS, V. A. KOPTYUG, ED.
##OWNER=NIST Mass Spectrometry Data Center
Collection (C) 2014 copyright by the U.S. Secretary of Commerce
on behalf of the United States of America. All rights reserved.
##CAS REGISTRY NO=42504-87-0
##$NIST MASS SPEC NO=64414
##MOLFORM=C4 H12 N2
##MW=88
##$NIST SOURCE=MSDC
##XUNITS=M/Z
##YUNITS=RELATIVE INTENSITY
##XFACTOR=1
##YFACTOR=1
##FIRSTX=26
##LASTX=89
##FIRSTY=100
##MAXX=89
##MINX=26
##MAXY=9999
##MINY=50
##NPOINTS=29
##PEAK TABLE=(XY..XY)
26,100 27,870 28,1670 29,1200
30,670 31,1070 32,870 38,90
39,770 40,110 41,1200 42,330
43,530 44,410 45,9999 46,520
53,60 54,110 55,150 56,270
57,300 58,70 59,130 70,50
71,110 73,70 87,60 88,2800
89,460
##END=
