##TITLE=Bithiopyranylidene, 2,2',6,6'-tetramethyl-
##JCAMP-DX=4.24
##DATA TYPE=MASS SPECTRUM
##ORIGIN=A.A.Kutin, Moscow, Russia
##OWNER=NIST Mass Spectrometry Data Center
Collection (C) 2014 copyright by the U.S. Secretary of Commerce
on behalf of the United States of America. All rights reserved.
##CAS REGISTRY NO=42506-61-6
##$NIST MASS SPEC NO=262182
##MOLFORM=C14 H16 S2
##MW=248
##$NIST SOURCE=MSDC
##XUNITS=M/Z
##YUNITS=RELATIVE INTENSITY
##XFACTOR=1
##YFACTOR=1
##FIRSTX=33
##LASTX=262
##FIRSTY=170
##MAXX=262
##MINX=33
##MAXY=9999
##MINY=17
##NPOINTS=188
##PEAK TABLE=(XY..XY)
33,170 34,151 35,29 37,221
38,948 39,5213 40,807 41,1269
42,263 43,1109 45,5427 46,593
47,1014 48,61 50,781 51,1625
52,516 53,734 54,73 55,156
56,17 57,912 58,3205 59,8044
60,533 61,464 62,623 63,1948
64,445 65,1374 66,311 67,253
69,2186 70,535 71,1744 72,625
73,173 74,482 75,647 76,435
77,1639 78,474 79,520 80,143
81,270 82,606 83,460 84,336
85,285 86,311 87,382 88,141
89,834 90,297 91,1218 92,447
93,722 94,148 95,353 96,253
97,1000 98,272 99,418 100,224
101,265 102,438 103,375 105,603
106,238 107,423 108,530 109,618
110,406 111,657 112,219 113,139
114,233 115,1858 116,579 117,212
119,136 120,97 121,615 122,270
123,1102 124,2352 125,535 126,209
127,496 128,805 129,362 130,78
131,29 132,32 133,129 134,747
135,447 136,85 137,102 138,88
139,562 140,309 141,586 142,204
143,32 144,80 145,214 146,29
147,910 148,333 149,1170 150,187
151,241 152,630 153,421 154,73
155,202 156,151 157,75 158,246
159,268 160,299 161,644 162,187
163,146 164,78 165,664 166,258
167,309 168,51 169,27 171,545
172,890 173,630 174,204 175,406
176,85 178,71 180,80 181,158
182,97 184,888 185,1221 186,285
187,316 188,185 189,321 190,246
191,114 192,24 193,117 194,314
195,95 197,319 198,406 199,985
200,790 201,452 202,39 203,289
204,173 205,175 207,170 211,27
213,207 215,3264 216,644 217,990
218,1751 219,362 220,158 221,399
222,58 230,80 231,705 232,941
233,2753 234,440 235,603 236,131
245,131 246,345 247,2962 248,9999
249,1931 250,980 251,131 262,46
##END=
