##TITLE=4H-Pyran, 4-(2,6-diphenyl-4H-pyran-4-ylidene)-2,6-diphenyl-
##JCAMP-DX=4.24
##DATA TYPE=MASS SPECTRUM
##ORIGIN=N.ISHIBE KYOTO INST. OF TECH., MATSUGASAKI, KYOTO, JAPAN
##OWNER=NIST Mass Spectrometry Data Center
Collection (C) 2014 copyright by the U.S. Secretary of Commerce
on behalf of the United States of America. All rights reserved.
##CAS REGISTRY NO=42506-57-0
##$NIST MASS SPEC NO=67905
##MOLFORM=C34 H24 O2
##MW=464
##$NIST SOURCE=MSDC
##XUNITS=M/Z
##YUNITS=RELATIVE INTENSITY
##XFACTOR=1
##YFACTOR=1
##FIRSTX=77
##LASTX=466
##FIRSTY=2820
##MAXX=466
##MINX=77
##MAXY=9999
##MINY=360
##NPOINTS=14
##PEAK TABLE=(XY..XY)
77,2820 91,2240 104,1770 105,4420
232,2600 253,620 254,620 257,680
341,360 359,1140 435,360 464,9999
465,3740 466,720
##END=
