##TITLE=1-Phenyl-1-pentyne
##JCAMP-DX=4.24
##DATA TYPE=MASS SPECTRUM
##ORIGIN=NIST Mass Spectrometry Data Center, 1990.
##OWNER=NIST Mass Spectrometry Data Center
Collection (C) 2014 copyright by the U.S. Secretary of Commerce
on behalf of the United States of America. All rights reserved.
##CAS REGISTRY NO=4250-81-1
##$NIST MASS SPEC NO=118129
##MOLFORM=C11 H12
##MW=144
##$NIST SOURCE=MSDC
##XUNITS=M/Z
##YUNITS=RELATIVE INTENSITY
##XFACTOR=1
##YFACTOR=1
##FIRSTX=14
##LASTX=145
##FIRSTY=49
##MAXX=145
##MINX=14
##MAXY=9999
##MINY=31
##NPOINTS=67
##PEAK TABLE=(XY..XY)
14,49 15,113 26,265 27,911
28,153 29,390 37,103 38,277
39,1464 40,89 41,201 50,824
51,1040 52,279 53,79 55,44
57,103 61,208 62,870 63,2049
64,324 65,1211 66,534 67,104
69,46 70,45 71,31 73,94
74,624 75,711 76,522 77,614
78,211 85,113 86,353 87,516
88,512 89,1968 90,169 91,318
92,38 98,134 99,69 100,50
101,38 102,1437 103,360 104,65
109,40 110,55 111,45 112,40
113,537 114,38 115,9999 116,1228
117,147 126,228 127,1107 128,3284
129,5495 130,555 139,87 141,260
143,2005 144,4509 145,564
##END=
