##TITLE=N-Trifluoroacetyl-phentermine
##JCAMP-DX=4.24
##DATA TYPE=MASS SPECTRUM
##ORIGIN=Drug Lab
##OWNER=NIST Mass Spectrometry Data Center
Collection (C) 2014 copyright by the U.S. Secretary of Commerce
on behalf of the United States of America. All rights reserved.
##CAS REGISTRY NO=42524-63-0
##$NIST MASS SPEC NO=378851
##MOLFORM=C12 H14 F3 N O
##MW=245
##$NIST SOURCE=MSDC
##XUNITS=M/Z
##YUNITS=RELATIVE INTENSITY
##XFACTOR=1
##YFACTOR=1
##FIRSTX=38
##LASTX=230
##FIRSTY=30
##MAXX=230
##MINX=38
##MAXY=9999
##MINY=10
##NPOINTS=78
##PEAK TABLE=(XY..XY)
38,30 39,470 40,70 41,881
42,991 43,60 44,110 50,110
51,350 52,80 53,70 54,40
55,90 56,100 57,70 58,10
59,2402 60,80 61,50 62,50
63,240 64,90 65,881 66,80
69,861 70,10 74,20 75,20
76,30 77,200 78,160 79,50
81,20 84,360 85,20 86,10
87,10 88,10 89,260 90,120
91,2562 92,561 93,40 94,280
96,70 97,30 98,30 102,40
103,80 104,70 105,70 106,90
107,10 110,30 114,1211 115,611
116,190 117,891 118,100 126,30
127,20 128,50 129,50 130,40
131,120 132,1942 133,550 134,60
135,10 138,10 143,10 152,30
153,50 154,9999 155,601 156,30
212,10 230,30
##END=
