##TITLE=R-(-)-1,2-propanediol
##JCAMP-DX=4.24
##DATA TYPE=MASS SPECTRUM
##ORIGIN=NIST Mass Spectrometry Data Center, 1994
##OWNER=NIST Mass Spectrometry Data Center
Collection (C) 2014 copyright by the U.S. Secretary of Commerce
on behalf of the United States of America. All rights reserved.
##CAS REGISTRY NO=4254-14-2
##$NIST MASS SPEC NO=136954
##MOLFORM=C3 H8 O2
##MW=76
##$NIST SOURCE=MSDC
##XUNITS=M/Z
##YUNITS=RELATIVE INTENSITY
##XFACTOR=1
##YFACTOR=1
##FIRSTX=12
##LASTX=76
##FIRSTY=40
##MAXX=76
##MINX=12
##MAXY=9999
##MINY=25
##NPOINTS=36
##PEAK TABLE=(XY..XY)
12,40 13,49 14,201 15,646
16,44 17,39 18,123 19,804
25,50 26,196 27,1011 28,796
29,1747 30,257 31,629 32,107
33,197 37,52 38,83 39,179
40,67 41,69 42,341 43,1978
44,806 45,9999 46,250 47,39
53,25 55,61 57,212 58,70
60,39 61,592 75,32 76,63
##END=
