##TITLE=N-Methyl-3,4-methylenedioxyamphetamine
##JCAMP-DX=4.24
##DATA TYPE=MASS SPECTRUM
##ORIGIN=Virginia Division of Forensic Science
##OWNER=NIST Mass Spectrometry Data Center
Collection (C) 2014 copyright by the U.S. Secretary of Commerce
on behalf of the United States of America. All rights reserved.
##CAS REGISTRY NO=42542-10-9
##$NIST MASS SPEC NO=250569
##MOLFORM=C11 H15 N O2
##MW=193
##$NIST SOURCE=MSDC
##XUNITS=M/Z
##YUNITS=RELATIVE INTENSITY
##XFACTOR=1
##YFACTOR=1
##FIRSTX=15
##LASTX=194
##FIRSTY=40
##MAXX=194
##MINX=15
##MAXY=9999
##MINY=10
##NPOINTS=84
##PEAK TABLE=(XY..XY)
15,40 26,10 27,70 28,100
29,130 30,460 31,10 38,30
39,140 40,20 41,80 42,280
43,140 44,20 45,10 48,10
50,140 51,530 52,80 53,80
54,30 56,410 58,9999 59,380
60,10 61,10 62,60 63,130
64,30 65,90 66,20 67,20
74,30 75,40 76,80 77,700
78,180 79,130 80,20 81,10
89,200 90,20 91,60 92,10
96,20 98,10 99,10 100,10
101,10 102,20 103,90 104,60
105,190 106,60 107,30 108,10
118,30 119,10 120,40 121,30
122,10 131,30 132,20 133,30
135,730 136,410 137,40 138,10
147,40 148,40 149,10 161,20
162,30 163,30 164,10 176,20
177,30 178,60 179,10 190,10
191,20 192,30 193,40 194,10
##END=
