##TITLE=Bifenox
##JCAMP-DX=4.24
##DATA TYPE=MASS SPECTRUM
##ORIGIN=ACCUSTANDARD Chemicals / NIST MS Data Center.
##OWNER=NIST Mass Spectrometry Data Center
Collection (C) 2014 copyright by the U.S. Secretary of Commerce
on behalf of the United States of America. All rights reserved.
##CAS REGISTRY NO=42576-02-3
##$NIST MASS SPEC NO=125596
##MOLFORM=C14 H9 Cl2 N O5
##MW=341
##$NIST SOURCE=MSDC
##XUNITS=M/Z
##YUNITS=RELATIVE INTENSITY
##XFACTOR=1
##YFACTOR=1
##FIRSTX=12
##LASTX=347
##FIRSTY=12
##MAXX=347
##MINX=12
##MAXY=9999
##MINY=6
##NPOINTS=274
##PEAK TABLE=(XY..XY)
12,12 14,50 15,746 17,10
18,34 26,29 28,380 29,177
30,944 31,52 32,70 35,13
36,23 37,83 38,149 39,200
40,8 43,10 44,17 45,17
46,44 47,12 49,56 50,332
51,342 52,79 53,232 54,56
55,46 59,405 60,28 61,146
62,543 63,1365 64,205 65,74
66,37 67,63 68,49 69,206
70,12 71,11 72,64 73,315
74,1252 75,2471 76,807 77,174
78,127 79,513 80,108 81,39
82,118 83,88 84,92 85,132
86,127 87,149 88,51 89,57
90,50 91,88 92,140 93,72
94,95 95,34 96,25 97,129
98,123 99,108 100,62 101,39
102,14 103,65 104,425 105,66
106,79 107,182 108,14 109,527
110,141 111,233 112,54 113,52
114,13 115,13 117,6 118,17
119,36 120,22 121,33 122,46
123,104 124,21 125,85 126,220
127,44 128,27 129,10 133,486
134,96 135,348 136,67 137,400
138,407 139,491 140,137 141,41
145,547 146,78 147,447 148,91
149,166 150,54 151,61 152,40
153,43 154,63 155,337 156,177
157,53 158,15 159,35 160,116
161,506 162,276 163,284 164,120
165,65 166,59 167,65 168,27
169,22 170,68 171,72 172,15
173,1859 174,493 175,779 176,214
177,75 178,31 179,12 180,8
181,34 182,63 183,207 184,57
185,134 186,41 187,77 188,8
189,1695 190,258 191,870 192,127
193,129 194,29 195,39 196,104
197,54 198,71 199,52 200,202
201,208 202,870 203,441 204,372
205,204 206,46 207,105 208,29
209,304 210,71 211,167 212,45
213,49 214,21 215,40 216,104
217,280 218,148 219,120 220,75
221,12 223,124 224,59 225,111
226,30 227,38 229,84 230,67
231,224 232,84 233,95 234,46
235,12 236,544 237,220 238,381
239,123 240,73 241,43 242,13
243,9 244,34 245,22 246,20
247,32 248,18 249,27 250,18
251,56 252,71 253,94 254,58
255,194 256,39 257,99 258,19
259,31 260,81 261,19 262,45
263,24 264,47 265,62 266,79
267,71 268,52 269,25 270,10
274,189 275,40 276,74 277,18
278,19 279,78 280,233 281,742
282,236 283,553 284,106 285,145
286,22 287,14 292,25 293,28
294,37 295,167 296,45 297,101
298,21 299,18 305,15 307,8
310,2553 311,1534 312,1926 313,1024
314,395 315,165 316,22 325,67
326,13 327,51 328,7 341,9999
342,1844 343,7069 344,1105 345,1228
346,187 347,28
##END=
