##TITLE=Acetamide, 2,2,2-trichloro-N-(4-methoxyphenyl)-
##JCAMP-DX=4.24
##DATA TYPE=MASS SPECTRUM
##ORIGIN=Zaikin V.G., TIPS RAS, Moscow, Russia
##OWNER=NIST Mass Spectrometry Data Center
Collection (C) 2014 copyright by the U.S. Secretary of Commerce
on behalf of the United States of America. All rights reserved.
##CAS REGISTRY NO=4257-81-2
##$NIST MASS SPEC NO=307218
##MOLFORM=C9 H8 Cl3 N O2
##MW=267
##$NIST SOURCE=MSDC
##XUNITS=M/Z
##YUNITS=RELATIVE INTENSITY
##XFACTOR=1
##YFACTOR=1
##FIRSTX=26
##LASTX=273
##FIRSTY=60
##MAXX=273
##MINX=26
##MAXY=9999
##MINY=20
##NPOINTS=97
##PEAK TABLE=(XY..XY)
26,60 27,50 28,30 35,80
36,420 38,220 39,150 41,270
44,40 47,60 50,120 51,260
52,581 53,340 54,40 55,30
62,80 63,320 64,350 65,230
66,40 67,90 74,30 75,70
76,110 77,420 78,280 79,290
80,240 81,90 82,180 83,50
84,110 85,30 90,140 91,180
92,340 93,40 95,791 96,50
99,40 102,40 106,300 107,230
108,100 109,70 110,140 112,90
117,250 119,320 121,130 122,9999
123,811 124,110 125,20 133,90
134,520 135,60 149,490 150,2552
151,220 153,60 154,70 155,40
162,300 163,30 166,80 168,480
169,50 170,150 181,110 182,160
183,40 184,50 188,50 189,260
190,50 191,170 193,20 196,631
197,310 198,250 199,100 203,230
204,40 205,150 207,30 232,260
234,190 236,40 267,2122 268,210
269,2072 270,200 271,681 272,60
273,70
##END=
