##TITLE=Benzofuran, 2-methyl-
##JCAMP-DX=4.24
##DATA TYPE=MASS SPECTRUM
##ORIGIN=Japan AIST/NIMC Database- Spectrum MS-IW-3454
##OWNER=NIST Mass Spectrometry Data Center
Collection (C) 2014 copyright by the U.S. Secretary of Commerce
on behalf of the United States of America. All rights reserved.
##CAS REGISTRY NO=4265-25-2
##$NIST MASS SPEC NO=233333
##MOLFORM=C9 H8 O
##MW=132
##$NIST SOURCE=MSDC
##XUNITS=M/Z
##YUNITS=RELATIVE INTENSITY
##XFACTOR=1
##YFACTOR=1
##FIRSTX=15
##LASTX=134
##FIRSTY=20
##MAXX=134
##MINX=15
##MAXY=9999
##MINY=10
##NPOINTS=57
##PEAK TABLE=(XY..XY)
15,20 26,30 27,90 28,40
37,60 38,129 39,359 40,20
41,10 42,10 43,229 44,10
49,50 50,399 51,1099 52,249
53,90 54,10 55,40 57,10
60,10 61,90 62,229 63,469
64,90 65,199 66,459 73,30
74,199 75,179 76,219 77,1189
78,659 79,50 85,30 86,50
87,70 88,50 89,159 90,20
91,10 92,10 97,10 98,30
99,10 101,60 102,349 103,1159
104,419 105,80 113,30 114,30
115,30 131,9999 132,7629 133,729
134,50
##END=
