##TITLE=Heptyl caprylate
##JCAMP-DX=4.24
##DATA TYPE=MASS SPECTRUM
##ORIGIN=V.G.Zaikin, Petrochem. Synth. Inst., Moscow
##OWNER=NIST Mass Spectrometry Data Center
Collection (C) 2014 copyright by the U.S. Secretary of Commerce
on behalf of the United States of America. All rights reserved.
##CAS REGISTRY NO=4265-97-8
##$NIST MASS SPEC NO=280558
##MOLFORM=C15 H30 O2
##MW=242
##$NIST SOURCE=MSDC
##XUNITS=M/Z
##YUNITS=RELATIVE INTENSITY
##XFACTOR=1
##YFACTOR=1
##FIRSTX=26
##LASTX=243
##FIRSTY=60
##MAXX=243
##MINX=26
##MAXY=9999
##MINY=20
##NPOINTS=71
##PEAK TABLE=(XY..XY)
26,60 27,1281 28,190 29,1982
30,80 31,120 39,1331 40,310
41,4884 42,2152 43,5465 44,561
45,380 50,160 51,160 53,390
54,490 55,5495 56,5395 57,9999
58,571 59,200 60,2442 61,3193
62,90 65,60 67,490 68,951
69,2913 70,4844 71,811 73,2392
74,250 79,80 81,220 82,450
83,1451 84,1151 85,861 86,100
87,671 88,80 89,310 95,90
96,150 97,651 98,7016 99,691
100,80 101,971 102,120 103,180
109,200 111,110 115,490 116,190
125,170 126,120 127,4294 128,450
129,160 143,190 144,771 145,7086
146,671 147,70 158,40 171,110
185,80 242,40 243,20
##END=
