##TITLE=Tybamate
##JCAMP-DX=4.24
##DATA TYPE=MASS SPECTRUM
##ORIGIN=MI-0069
##OWNER=NIST Mass Spectrometry Data Center
Collection (C) 2014 copyright by the U.S. Secretary of Commerce
on behalf of the United States of America. All rights reserved.
##CAS REGISTRY NO=4268-36-4
##$NIST MASS SPEC NO=13281
##MOLFORM=C13 H26 N2 O4
##MW=274
##$NIST SOURCE=MSDC
##XUNITS=M/Z
##YUNITS=RELATIVE INTENSITY
##XFACTOR=1
##YFACTOR=1
##FIRSTX=38
##LASTX=276
##FIRSTY=70
##MAXX=276
##MINX=38
##MAXY=9999
##MINY=10
##NPOINTS=124
##PEAK TABLE=(XY..XY)
38,70 39,601 40,190 41,3603
42,671 43,2612 44,1191 45,1091
46,110 50,20 51,30 52,20
53,350 54,260 55,9999 56,4034
57,3493 58,591 59,1091 60,90
61,50 62,3153 63,70 64,10
65,90 66,20 67,460 68,350
69,1892 70,1141 71,3493 72,8147
73,601 74,751 75,470 76,100
77,80 78,30 79,110 80,60
81,691 82,230 83,3063 84,2292
85,540 86,230 87,90 88,290
89,90 90,10 91,50 92,130
93,30 94,10 95,210 96,951
97,6696 98,2142 99,390 100,911
101,621 102,230 103,30 104,90
105,50 108,50 109,110 110,50
111,20 112,70 113,130 114,1391
115,1161 116,1091 117,290 118,6116
119,390 120,80 126,190 127,40
128,50 129,20 130,10 131,150
132,100 133,50 134,90 140,80
142,20 144,270 147,30 154,10
156,40 157,130 158,5845 159,611
160,90 161,90 170,490 171,300
172,70 174,50 175,50 176,601
177,90 184,470 185,130 187,90
188,100 189,10 198,20 200,380
201,80 213,591 214,110 215,10
231,891 232,140 233,10 245,110
246,20 274,861 275,180 276,20
##END=
