##TITLE=3,5-Dimethyl-5-(3-oxocyclohex-1-enyl)-hexahydropyrimidin-2,4,6-trione
##JCAMP-DX=4.24
##DATA TYPE=MASS SPECTRUM
##ORIGIN=H.Maurer,J.Chromatogr.,530,307(1990)
##OWNER=NIST Mass Spectrometry Data Center
Collection (C) 2014 copyright by the U.S. Secretary of Commerce
on behalf of the United States of America. All rights reserved.
##CAS REGISTRY NO=427-30-5
##$NIST MASS SPEC NO=281585
##MOLFORM=C12 H14 N2 O4
##MW=250
##$NIST SOURCE=MSDC
##XUNITS=M/Z
##YUNITS=RELATIVE INTENSITY
##XFACTOR=1
##YFACTOR=1
##FIRSTX=51
##LASTX=252
##FIRSTY=831
##MAXX=252
##MINX=51
##MAXY=9999
##MINY=40
##NPOINTS=108
##PEAK TABLE=(XY..XY)
51,831 52,721 53,1021 54,260
55,1171 56,490 57,230 58,450
59,40 60,150 62,110 63,190
64,150 65,1551 66,2572 67,1471
68,230 69,190 70,340 71,300
73,40 75,150 77,1471 78,490
79,1551 80,791 81,601 82,260
83,571 84,190 85,190 89,80
91,1021 92,260 93,571 94,1511
95,9999 96,871 97,751 98,150
99,230 100,80 103,110 104,150
105,190 106,260 107,420 108,450
109,831 110,150 111,110 112,80
113,300 117,80 118,110 119,150
120,340 121,380 122,1431 123,2082
124,230 126,110 127,80 128,530
129,80 132,260 133,190 134,110
135,340 136,641 137,791 138,150
141,230 145,110 147,80 148,380
149,190 150,1171 151,450 152,80
156,2642 157,1211 158,80 161,110
162,110 163,80 164,641 165,601
166,490 178,230 179,260 192,260
193,2572 194,751 204,40 205,230
206,40 208,190 219,260 233,40
234,150 235,7927 236,941 237,40
248,40 250,5855 251,791 252,40
##END=
