##TITLE=3-Pyridinol, 2-(methylthio)-, acetate (ester)
##JCAMP-DX=4.24
##DATA TYPE=MASS SPECTRUM
##ORIGIN=K. UNDHEIM
##OWNER=NIST Mass Spectrometry Data Center
Collection (C) 2014 copyright by the U.S. Secretary of Commerce
on behalf of the United States of America. All rights reserved.
##CAS REGISTRY NO=42715-30-0
##$NIST MASS SPEC NO=41601
##MOLFORM=C8 H9 N O2 S
##MW=183
##$NIST SOURCE=MSDC
##XUNITS=M/Z
##YUNITS=RELATIVE INTENSITY
##XFACTOR=1
##YFACTOR=1
##FIRSTX=39
##LASTX=184
##FIRSTY=2600
##MAXX=184
##MINX=39
##MAXY=9999
##MINY=200
##NPOINTS=20
##PEAK TABLE=(XY..XY)
39,2600 43,3900 44,500 45,500
65,300 67,600 68,500 70,300
79,300 80,500 95,700 96,400
108,7000 109,500 140,1500 141,9999
142,800 143,500 183,2500 184,200
##END=
