##TITLE=1,1'-Biphenyl, 2,2',3,3',4,4',5,6'-octachloro-
##JCAMP-DX=4.24
##DATA TYPE=MASS SPECTRUM
##ORIGIN=Organic Synthesis Lab, MSU, Moscow.TRC 1191
##OWNER=NIST Mass Spectrometry Data Center
Collection (C) 2014 copyright by the U.S. Secretary of Commerce
on behalf of the United States of America. All rights reserved.
##CAS REGISTRY NO=42740-50-1
##$NIST MASS SPEC NO=326582
##MOLFORM=C12 H2 Cl8
##MW=426
##$NIST SOURCE=MSDC
##XUNITS=M/Z
##YUNITS=RELATIVE INTENSITY
##XFACTOR=1
##YFACTOR=1
##FIRSTX=44
##LASTX=436
##FIRSTY=1039
##MAXX=436
##MINX=44
##MAXY=9999
##MINY=123
##NPOINTS=118
##PEAK TABLE=(XY..XY)
44,1039 47,236 49,175 60,241
61,420 72,445 73,1074 74,207
78,248 83,247 84,701 85,474
86,222 90,832 95,414 96,462
97,428 98,289 107,856 108,1591
109,1085 110,703 113,184 118,289
119,462 120,723 121,356 122,345
130,213 131,319 132,825 133,409
134,289 143,2465 144,2991 145,1770
146,1031 147,187 149,168 154,136
156,478 157,183 158,141 161,967
162,880 166,168 167,175 168,251
169,207 178,2697 179,5874 180,4416
181,2064 182,749 183,192 190,145
192,226 193,139 203,221 204,192
213,659 214,1617 215,1992 216,1732
217,938 218,689 219,123 226,232
250,463 251,724 252,617 253,609
254,240 255,156 274,215 286,2533
287,482 288,3456 289,621 290,1469
291,185 292,364 320,245 321,399
322,467 323,892 324,361 325,518
326,126 327,226 356,2871 358,5969
359,900 360,4738 361,647 362,2359
363,444 364,490 391,1065 392,173
393,1805 394,319 395,1937 396,379
397,1160 398,200 399,390 426,3409
427,571 428,9045 429,1223 430,9999
431,1288 432,6202 433,761 434,2418
435,323 436,564
##END=
