##TITLE=Ethanol, 2,2'-thiobis-, diacetate
##JCAMP-DX=4.24
##DATA TYPE=MASS SPECTRUM
##ORIGIN=A.A.Kutin, Moscow, Russia
##OWNER=NIST Mass Spectrometry Data Center
Collection (C) 2014 copyright by the U.S. Secretary of Commerce
on behalf of the United States of America. All rights reserved.
##CAS REGISTRY NO=4275-28-9
##$NIST MASS SPEC NO=273263
##MOLFORM=C8 H14 O4 S
##MW=206
##$NIST SOURCE=MSDC
##XUNITS=M/Z
##YUNITS=RELATIVE INTENSITY
##XFACTOR=1
##YFACTOR=1
##FIRSTX=26
##LASTX=148
##FIRSTY=200
##MAXX=148
##MINX=26
##MAXY=9999
##MINY=60
##NPOINTS=37
##PEAK TABLE=(XY..XY)
26,200 27,380 29,200 41,120
42,581 43,8978 44,641 45,1051
46,581 47,190 57,80 58,420
59,781 60,1041 61,811 62,60
73,761 74,601 75,120 76,60
77,320 84,60 85,3043 86,9999
87,3363 88,671 89,60 91,410
102,120 103,801 104,80 116,140
119,70 133,90 146,3473 147,380
148,170
##END=
