##TITLE=Thiazole, 5-ethyl-2-methyl-4-propyl-
##JCAMP-DX=4.24
##DATA TYPE=MASS SPECTRUM
##ORIGIN=HB-7
##OWNER=NIST Mass Spectrometry Data Center
Collection (C) 2014 copyright by the U.S. Secretary of Commerce
on behalf of the United States of America. All rights reserved.
##CAS REGISTRY NO=4276-67-9
##$NIST MASS SPEC NO=30763
##MOLFORM=C9 H15 N S
##MW=169
##$NIST SOURCE=MSDC
##XUNITS=M/Z
##YUNITS=RELATIVE INTENSITY
##XFACTOR=1
##YFACTOR=1
##FIRSTX=18
##LASTX=172
##FIRSTY=2
##MAXX=172
##MINX=18
##MAXY=9999
##MINY=1
##NPOINTS=111
##PEAK TABLE=(XY..XY)
18,2 26,49 27,404 28,135
29,338 30,8 32,14 34,22
37,14 38,81 39,868 40,164
41,1005 42,471 43,107 44,44
45,1322 46,43 47,198 49,9
50,72 51,239 52,162 53,621
54,98 55,634 56,48 57,46
58,502 59,1982 60,120 61,125
62,24 63,123 64,34 65,1356
66,235 67,323 68,98 69,449
70,345 71,713 72,134 73,524
74,41 75,37 76,78 77,314
78,76 79,405 80,77 81,74
82,80 83,59 84,292 85,549
86,87 87,46 91,91 92,19
93,92 94,80 95,203 96,71
97,439 98,124 99,3316 100,250
101,150 102,7 106,1 108,7
109,11 110,24 111,92 112,298
113,420 114,45 115,17 117,7
118,3 120,6 121,9 124,13
125,51 126,1348 127,188 128,167
129,14 136,38 138,103 139,302
140,6923 141,9999 142,1190 143,446
144,32 150,4 152,69 153,39
154,3299 155,352 156,162 157,8
166,27 167,14 168,1486 169,6714
170,763 171,312 172,29
##END=
