##TITLE=1-Bromoeicosane
##JCAMP-DX=4.24
##DATA TYPE=MASS SPECTRUM
##ORIGIN=Japan AIST/NIMC Database- Spectrum MS-NW-5732
##OWNER=NIST Mass Spectrometry Data Center
Collection (C) 2014 copyright by the U.S. Secretary of Commerce
on behalf of the United States of America. All rights reserved.
##CAS REGISTRY NO=4276-49-7
##$NIST MASS SPEC NO=232983
##MOLFORM=C20 H41 Br
##MW=360
##$NIST SOURCE=MSDC
##XUNITS=M/Z
##YUNITS=RELATIVE INTENSITY
##XFACTOR=1
##YFACTOR=1
##FIRSTX=26
##LASTX=364
##FIRSTY=20
##MAXX=364
##MINX=26
##MAXY=9999
##MINY=10
##NPOINTS=176
##PEAK TABLE=(XY..XY)
26,20 27,569 28,139 29,1619
30,30 39,369 40,80 41,3699
42,889 43,7359 44,249 51,10
52,10 53,199 54,359 55,4289
56,1489 57,9999 58,459 59,10
65,30 66,30 67,379 68,349
69,3389 70,1129 71,6219 72,349
73,10 77,20 79,30 80,30
81,199 82,359 83,2209 84,719
85,4169 86,269 91,10 93,10
95,109 96,169 97,1589 98,499
99,1269 100,109 105,10 107,90
109,90 110,70 111,709 112,349
113,939 114,80 121,70 123,60
124,40 125,279 126,249 127,689
128,70 134,10 135,5339 136,259
137,5119 138,229 139,109 140,169
141,539 142,60 148,119 149,1149
150,179 151,1099 152,60 153,60
154,119 155,449 156,60 162,60
163,269 164,80 165,259 166,20
167,40 168,90 169,379 170,50
176,10 177,149 178,30 179,139
180,10 181,20 182,60 183,329
184,50 190,10 191,119 192,20
193,109 194,10 195,10 196,50
197,289 198,40 204,10 205,99
206,20 207,90 208,10 209,10
210,30 211,239 212,40 218,20
219,80 220,20 221,80 222,10
224,20 225,149 226,30 232,10
233,60 234,20 235,70 236,10
238,10 239,80 240,10 246,20
247,60 248,20 249,60 252,20
253,10 260,20 261,60 262,30
263,60 264,10 274,20 275,70
276,30 277,60 278,10 280,70
281,1899 282,449 283,50 288,10
289,60 290,30 291,60 292,10
295,10 302,10 303,60 304,20
305,60 306,10 316,10 317,40
318,20 319,40 331,30 332,10
333,30 358,20 359,10 360,409
361,99 362,369 363,80 364,10
##END=
