##TITLE=1H-1,2,4-Triazol-3-amine, 1-ethyl-
##JCAMP-DX=4.24
##DATA TYPE=MASS SPECTRUM
##ORIGIN=ORMSBG,10(11)946(1975); R.G.COOKS
##OWNER=NIST Mass Spectrometry Data Center
Collection (C) 2014 copyright by the U.S. Secretary of Commerce
on behalf of the United States of America. All rights reserved.
##CAS REGISTRY NO=42786-04-9
##$NIST MASS SPEC NO=54628
##MOLFORM=C4 H8 N4
##MW=112
##$NIST SOURCE=MSDC
##XUNITS=M/Z
##YUNITS=RELATIVE INTENSITY
##XFACTOR=1
##YFACTOR=1
##FIRSTX=26
##LASTX=113
##FIRSTY=500
##MAXX=113
##MINX=26
##MAXY=9999
##MINY=300
##NPOINTS=15
##PEAK TABLE=(XY..XY)
26,500 27,4100 28,5100 29,2300
41,900 42,1600 43,3000 55,1400
57,2100 70,4600 84,6600 85,300
97,3700 112,9999 113,600
##END=
