##TITLE=Nonane, 1-iodo-
##JCAMP-DX=4.24
##DATA TYPE=MASS SPECTRUM
##ORIGIN=Japan AIST/NIMC Database- Spectrum MS-NW-9981
##OWNER=NIST Mass Spectrometry Data Center
Collection (C) 2014 copyright by the U.S. Secretary of Commerce
on behalf of the United States of America. All rights reserved.
##CAS REGISTRY NO=4282-42-2
##$NIST MASS SPEC NO=239122
##MOLFORM=C9 H19 I
##MW=254
##$NIST SOURCE=MSDC
##XUNITS=M/Z
##YUNITS=RELATIVE INTENSITY
##XFACTOR=1
##YFACTOR=1
##FIRSTX=15
##LASTX=255
##FIRSTY=20
##MAXX=255
##MINX=15
##MAXY=9999
##MINY=10
##NPOINTS=58
##PEAK TABLE=(XY..XY)
15,20 26,40 27,1269 28,259
29,2249 30,50 38,20 39,839
40,169 41,4659 42,929 43,9999
44,449 50,10 51,40 52,20
53,219 54,119 55,2059 56,609
57,8589 58,409 65,30 66,10
67,99 68,40 69,529 70,179
71,8929 72,509 73,10 77,10
79,10 81,10 82,10 83,119
84,40 85,4699 86,309 91,10
97,30 98,20 99,20 113,70
126,10 127,1229 128,119 135,60
137,60 141,60 154,20 155,409
156,10 169,40 183,30 197,10
254,219 255,20
##END=
