##TITLE=Acetic acid, chloro-, 1-methyl-1,2-ethanediyl ester
##JCAMP-DX=4.24
##DATA TYPE=MASS SPECTRUM
##OWNER=NIST Mass Spectrometry Data Center
Collection (C) 2014 copyright by the U.S. Secretary of Commerce
on behalf of the United States of America. All rights reserved.
##CAS REGISTRY NO=42831-64-1
##$NIST MASS SPEC NO=10955
##MOLFORM=C7 H10 Cl2 O4
##MW=228
##$NIST SOURCE=MSDC
##XUNITS=M/Z
##YUNITS=RELATIVE INTENSITY
##XFACTOR=1
##YFACTOR=1
##FIRSTX=14
##LASTX=228
##FIRSTY=220
##MAXX=228
##MINX=14
##MAXY=9999
##MINY=30
##NPOINTS=96
##PEAK TABLE=(XY..XY)
14,220 15,430 17,260 18,1161
19,170 26,120 27,661 28,520
29,851 30,170 31,1742 32,40
36,50 37,30 38,70 39,460
41,1942 42,2042 43,1962 44,310
45,4934 46,120 47,70 48,150
49,2903 50,1011 51,1001 52,350
53,60 54,440 55,320 56,50
57,470 58,1571 59,1812 60,240
63,40 64,50 65,40 66,60
68,561 69,70 71,300 72,330
73,150 74,50 75,390 76,330
77,9999 78,340 79,3193 80,90
85,170 86,90 87,180 91,90
93,150 94,200 95,220 96,70
97,50 98,50 99,110 100,40
101,40 102,80 106,370 107,2022
108,230 109,721 110,50 113,50
114,60 116,90 120,3693 121,390
122,1531 123,130 127,40 128,70
130,40 131,80 133,671 134,1451
135,300 136,661 137,40 138,70
150,60 151,80 152,30 153,80
164,130 166,130 169,150 228,40
##END=
