##TITLE=1-Propene, 1-(methylthio)-, (E)-
##JCAMP-DX=4.24
##DATA TYPE=MASS SPECTRUM
##ORIGIN=R.G.GILLIS DEPT. OF SUPPLY, ASCOT VALE, AUSTRALIA
##OWNER=NIST Mass Spectrometry Data Center
Collection (C) 2014 copyright by the U.S. Secretary of Commerce
on behalf of the United States of America. All rights reserved.
##CAS REGISTRY NO=42848-06-6
##$NIST MASS SPEC NO=26402
##MOLFORM=C4 H8 S
##MW=88
##$NIST SOURCE=MSDC
##XUNITS=M/Z
##YUNITS=RELATIVE INTENSITY
##XFACTOR=1
##YFACTOR=1
##FIRSTX=15
##LASTX=90
##FIRSTY=380
##MAXX=90
##MINX=15
##MAXY=9999
##MINY=140
##NPOINTS=38
##PEAK TABLE=(XY..XY)
15,380 26,160 27,800 28,1420
29,270 32,250 35,140 37,250
38,630 39,4970 40,310 41,3620
42,220 44,460 45,9999 46,2230
47,3100 48,1000 49,220 53,910
54,220 55,550 57,190 58,560
59,720 60,420 61,830 69,530
71,1240 72,1420 73,9999 74,570
75,570 85,220 87,780 88,9610
89,700 90,560
##END=
