##TITLE=Pentane, 1-(propylthio)-
##JCAMP-DX=4.24
##DATA TYPE=MASS SPECTRUM
##ORIGIN=CARL DJERASSI DEPT OF CHEM STANFORD UNIV STANFORD CALIF 94305
##OWNER=NIST Mass Spectrometry Data Center
Collection (C) 2014 copyright by the U.S. Secretary of Commerce
on behalf of the United States of America. All rights reserved.
##CAS REGISTRY NO=42841-80-5
##$NIST MASS SPEC NO=50217
##MOLFORM=C8 H18 S
##MW=146
##$NIST SOURCE=MSDC
##XUNITS=M/Z
##YUNITS=RELATIVE INTENSITY
##XFACTOR=1
##YFACTOR=1
##FIRSTX=29
##LASTX=148
##FIRSTY=1600
##MAXX=148
##MINX=29
##MAXY=9999
##MINY=100
##NPOINTS=46
##PEAK TABLE=(XY..XY)
29,1600 35,100 39,1700 40,200
41,5200 42,4000 43,9999 44,300
45,700 46,300 47,2700 48,300
49,200 53,100 55,3400 56,300
57,100 58,100 59,600 60,600
61,2300 62,100 63,100 69,3400
70,3800 71,500 73,100 74,200
75,2900 76,2200 77,700 78,100
87,200 89,2400 90,200 91,100
102,100 103,3800 104,400 105,200
117,100 131,1100 132,100 146,2900
147,200 148,100
##END=
