##TITLE=Propane, 2,2'-[ethylidenebis(oxy)]bis-
##JCAMP-DX=4.24
##DATA TYPE=MASS SPECTRUM
##ORIGIN=D.HENNEBERG, MAX-PLANCK INSTITUTE, MULHEIM, WEST GERMANY
##OWNER=NIST Mass Spectrometry Data Center
Collection (C) 2014 copyright by the U.S. Secretary of Commerce
on behalf of the United States of America. All rights reserved.
##CAS REGISTRY NO=4285-59-0
##$NIST MASS SPEC NO=62683
##MOLFORM=C8 H18 O2
##MW=146
##$NIST SOURCE=MSDC
##XUNITS=M/Z
##YUNITS=RELATIVE INTENSITY
##XFACTOR=1
##YFACTOR=1
##FIRSTX=26
##LASTX=145
##FIRSTY=28
##MAXX=145
##MINX=26
##MAXY=9999
##MINY=3
##NPOINTS=46
##PEAK TABLE=(XY..XY)
26,28 27,437 28,48 29,118
30,4 31,117 37,67 38,10
39,153 40,55 41,766 42,363
43,4508 44,395 45,9999 46,211
47,263 55,12 56,10 57,17
58,237 59,454 60,20 61,402
62,12 63,5 68,40 69,633
70,42 71,16 72,3 73,4
74,5 77,3 85,7 86,106
87,4172 88,237 89,1079 90,50
91,4 103,43 104,3 131,824
132,60 145,13
##END=
