##TITLE=Carbamic chloride, methylphenyl-
##JCAMP-DX=4.24
##DATA TYPE=MASS SPECTRUM
##ORIGIN=RADIAN CORP
##OWNER=NIST Mass Spectrometry Data Center
Collection (C) 2014 copyright by the U.S. Secretary of Commerce
on behalf of the United States of America. All rights reserved.
##CAS REGISTRY NO=4285-42-1
##$NIST MASS SPEC NO=73482
##MOLFORM=C8 H8 Cl N O
##MW=169
##$NIST SOURCE=MSDC
##XUNITS=M/Z
##YUNITS=RELATIVE INTENSITY
##XFACTOR=1
##YFACTOR=1
##FIRSTX=15
##LASTX=171
##FIRSTY=570
##MAXX=171
##MINX=15
##MAXY=9999
##MINY=30
##NPOINTS=43
##PEAK TABLE=(XY..XY)
15,570 26,110 27,460 30,110
35,50 37,330 38,810 39,1890
41,90 42,80 49,110 50,1530
51,2960 52,830 53,80 56,70
61,70 62,320 63,2290 64,1030
65,1210 66,120 67,80 73,60
74,460 75,340 76,630 77,8300
78,1280 79,1660 80,30 90,190
91,760 93,260 104,990 105,400
106,4890 119,990 134,9999 135,900
169,2550 170,190 171,850
##END=
