##TITLE=Oxyfluorfen
##JCAMP-DX=4.24
##DATA TYPE=MASS SPECTRUM
##ORIGIN=Organic Synthesis Lab, MSU, Moscow.TRC 843
##OWNER=NIST Mass Spectrometry Data Center
Collection (C) 2014 copyright by the U.S. Secretary of Commerce
on behalf of the United States of America. All rights reserved.
##CAS REGISTRY NO=42874-03-3
##$NIST MASS SPEC NO=326324
##MOLFORM=C15 H11 Cl F3 N O4
##MW=361
##$NIST SOURCE=MSDC
##XUNITS=M/Z
##YUNITS=RELATIVE INTENSITY
##XFACTOR=1
##YFACTOR=1
##FIRSTX=26
##LASTX=365
##FIRSTY=89
##MAXX=365
##MINX=26
##MAXY=9999
##MINY=9
##NPOINTS=215
##PEAK TABLE=(XY..XY)
26,89 27,769 28,150 29,1959
30,659 36,59 37,29 38,299
39,379 42,9 43,119 44,69
45,89 50,299 51,929 52,189
53,449 54,29 55,129 57,29
61,39 62,319 63,1499 64,449
65,69 66,39 67,9 68,29
69,529 73,9 74,199 75,429
76,379 77,149 78,59 79,1179
80,199 81,49 87,9 89,9
90,19 91,208 92,298 93,269
94,39 95,59 96,49 97,29
99,19 104,69 105,19 107,79
108,109 109,29 113,39 115,29
117,29 119,9 120,19 123,9
124,19 125,119 126,69 127,19
129,49 131,19 132,209 133,39
139,19 140,49 143,99 144,169
145,59 146,39 147,9 148,29
149,9 151,29 155,69 156,9
157,29 158,29 159,19 160,29
161,29 162,119 163,19 164,39
167,69 169,129 170,69 171,29
175,129 176,29 177,98 178,19
179,619 180,69 181,189 182,59
183,209 184,49 185,29 186,19
188,19 189,39 191,19 192,9
193,59 194,49 195,339 196,289
197,69 198,29 199,129 202,19
203,69 204,59 205,149 206,49
207,199 208,199 209,79 210,39
211,149 212,159 213,89 216,39
217,99 218,89 219,49 220,49
223,569 224,359 225,69 226,89
227,39 229,39 230,89 231,29
232,39 233,109 234,9 235,39
236,599 237,469 238,389 239,399
240,259 241,19 246,49 247,29
248,19 250,9 251,219 252,9999
253,1479 254,139 257,79 258,19
259,49 264,49 266,9 267,39
268,29 270,19 271,59 272,49
273,69 274,129 275,639 276,109
277,209 278,29 280,1929 281,319
282,29 286,109 287,79 288,39
289,29 297,89 298,139 299,19
300,2889 301,419 302,1009 303,969
304,169 305,269 306,19 314,29
316,89 317,1489 318,909 319,599
320,289 321,19 327,9 328,9
331,39 332,9 333,1219 334,169
335,409 336,39 342,699 343,109
344,249 345,49 361,5379 362,909
363,1809 364,289 365,19
##END=
