##TITLE=Benzo[b]benzo[3,4]cyclobuta[1,2-e][1,4]dioxin, 4b,10a-dihydro-
##JCAMP-DX=4.24
##DATA TYPE=MASS SPECTRUM
##ORIGIN=ASES Database, Dalian Institute, P.R. China
##OWNER=NIST Mass Spectrometry Data Center
Collection (C) 2014 copyright by the U.S. Secretary of Commerce
on behalf of the United States of America. All rights reserved.
##CAS REGISTRY NO=42896-18-4
##$NIST MASS SPEC NO=147199
##MOLFORM=C14 H10 O2
##MW=210
##$NIST SOURCE=MSDC
##XUNITS=M/Z
##YUNITS=RELATIVE INTENSITY
##XFACTOR=1
##YFACTOR=1
##FIRSTX=101
##LASTX=212
##FIRSTY=150
##MAXX=212
##MINX=101
##MAXY=9999
##MINY=110
##NPOINTS=22
##PEAK TABLE=(XY..XY)
101,150 102,7126 103,660 104,310
105,570 127,210 128,110 151,410
152,1451 153,1411 154,420 155,140
164,110 165,410 166,110 181,9999
182,1871 183,210 209,1000 210,9258
211,1591 212,210
##END=
