##TITLE=Cyclopentene,1-hexyl-
##JCAMP-DX=4.24
##DATA TYPE=MASS SPECTRUM
##ORIGIN=S.A. Rang et al., IR & MS of Unsatd. Hydrocarbons, 1977
##OWNER=NIST Mass Spectrometry Data Center
Collection (C) 2014 copyright by the U.S. Secretary of Commerce
on behalf of the United States of America. All rights reserved.
##CAS REGISTRY NO=4291-99-0
##$NIST MASS SPEC NO=142669
##MOLFORM=C11 H20
##MW=152
##$NIST SOURCE=MSDC
##XUNITS=M/Z
##YUNITS=RELATIVE INTENSITY
##XFACTOR=1
##YFACTOR=1
##FIRSTX=15
##LASTX=154
##FIRSTY=33
##MAXX=154
##MINX=15
##MAXY=9999
##MINY=5
##NPOINTS=68
##PEAK TABLE=(XY..XY)
15,33 26,56 27,1149 28,140
29,1232 30,29 37,7 38,28
39,985 40,216 41,2956 42,315
43,994 44,25 50,38 51,173
52,173 53,1067 54,583 55,1108
56,136 57,69 58,7 63,36
64,15 65,411 66,821 67,9999
68,1149 69,405 70,82 71,43
76,5 77,583 78,146 79,1478
80,486 81,2176 82,4286 83,1005
84,103 85,20 91,195 92,31
93,184 94,144 95,2052 96,373
97,41 103,8 105,15 106,5
107,15 108,13 109,286 110,157
111,25 121,8 122,8 123,149
124,72 125,7 137,15 150,7
151,7 152,1314 153,157 154,10
##END=
