##TITLE=Nabumetone
##JCAMP-DX=4.24
##DATA TYPE=MASS SPECTRUM
##ORIGIN=NIST Mass Spectrometry Data Center, 1998.
##OWNER=NIST Mass Spectrometry Data Center
Collection (C) 2014 copyright by the U.S. Secretary of Commerce
on behalf of the United States of America. All rights reserved.
##CAS REGISTRY NO=42924-53-8
##$NIST MASS SPEC NO=292131
##MOLFORM=C15 H16 O2
##MW=228
##$NIST SOURCE=MSDC
##XUNITS=M/Z
##YUNITS=RELATIVE INTENSITY
##XFACTOR=1
##YFACTOR=1
##FIRSTX=14
##LASTX=231
##FIRSTY=10
##MAXX=231
##MINX=14
##MAXY=9999
##MINY=10
##NPOINTS=129
##PEAK TABLE=(XY..XY)
14,10 15,100 26,10 27,50
28,10 29,20 31,10 38,10
39,90 40,10 41,20 42,60
43,1300 44,30 45,20 50,70
51,130 52,30 53,20 55,130
56,10 57,20 61,10 62,80
63,260 64,50 65,70 66,10
69,20 71,10 74,90 75,130
76,130 77,150 78,60 79,10
82,10 85,10 86,50 87,90
88,110 89,150 90,20 91,60
92,40 98,30 99,30 100,20
101,70 102,220 103,40 106,30
110,10 111,10 112,10 113,160
114,390 115,1200 116,150 117,20
122,10 125,20 126,200 127,410
128,2030 129,290 130,30 131,10
137,20 138,20 139,550 140,200
141,1170 142,420 143,90 144,40
145,20 150,40 151,110 152,390
153,500 154,330 155,210 156,220
157,100 158,510 159,70 160,10
163,10 164,10 165,60 166,20
167,40 168,50 169,260 170,630
171,9999 172,1380 173,100 174,10
177,10 178,10 179,30 180,10
181,60 182,30 183,40 184,170
185,1340 186,190 187,20 194,10
195,90 196,20 197,30 198,10
199,10 209,20 210,10 211,20
212,10 213,110 214,20 225,10
226,10 228,5119 229,850 230,90
231,10
##END=
