##TITLE=Cyclohexane, hexyl-
##JCAMP-DX=4.24
##DATA TYPE=MASS SPECTRUM
##ORIGIN=Japan AIST/NIMC Database- Spectrum MS-NW-3476
##OWNER=NIST Mass Spectrometry Data Center
Collection (C) 2014 copyright by the U.S. Secretary of Commerce
on behalf of the United States of America. All rights reserved.
##CAS REGISTRY NO=4292-75-5
##$NIST MASS SPEC NO=228267
##MOLFORM=C12 H24
##MW=168
##$NIST SOURCE=MSDC
##XUNITS=M/Z
##YUNITS=RELATIVE INTENSITY
##XFACTOR=1
##YFACTOR=1
##FIRSTX=15
##LASTX=169
##FIRSTY=20
##MAXX=169
##MINX=15
##MAXY=9999
##MINY=10
##NPOINTS=58
##PEAK TABLE=(XY..XY)
15,20 26,30 27,539 28,60
29,759 30,10 36,10 38,10
39,549 40,99 41,2169 42,379
43,1049 44,30 50,10 51,50
52,30 53,249 54,459 55,4709
56,879 57,459 58,20 63,10
65,50 66,40 67,1249 68,319
69,1019 70,429 71,119 72,10
77,50 78,10 79,70 80,20
81,239 82,6139 83,9999 84,1069
85,119 91,20 95,40 96,90
97,449 98,139 99,20 109,10
110,20 111,129 112,60 113,10
125,40 126,30 139,30 140,40
168,809 169,119
##END=
