##TITLE=4-Chloroquinaldine
##JCAMP-DX=4.24
##DATA TYPE=MASS SPECTRUM
##ORIGIN=NIST Mass Spectrometry Data Center, 1994
##OWNER=NIST Mass Spectrometry Data Center
Collection (C) 2014 copyright by the U.S. Secretary of Commerce
on behalf of the United States of America. All rights reserved.
##CAS REGISTRY NO=4295-06-1
##$NIST MASS SPEC NO=136406
##MOLFORM=C10 H8 Cl N
##MW=177
##$NIST SOURCE=MSDC
##XUNITS=M/Z
##YUNITS=RELATIVE INTENSITY
##XFACTOR=1
##YFACTOR=1
##FIRSTX=15
##LASTX=180
##FIRSTY=381
##MAXX=180
##MINX=15
##MAXY=9999
##MINY=6
##NPOINTS=97
##PEAK TABLE=(XY..XY)
15,381 17,24 18,38 25,35
26,295 27,400 28,497 32,42
35,73 36,49 37,351 38,563
39,991 40,214 41,96 42,318
43,6 47,40 48,25 49,244
50,1251 51,1637 52,352 53,46
54,29 55,65 58,304 60,77
61,442 62,985 63,1205 64,305
65,154 66,36 68,171 69,44
71,568 72,72 73,349 74,1325
75,2776 76,637 78,44 84,104
85,241 86,376 87,573 88,496
89,551 90,95 91,37 96,35
97,156 98,337 99,580 100,463
101,1677 102,284 103,27 108,29
109,79 110,76 111,102 112,69
113,538 114,584 115,2651 116,860
117,90 123,94 124,79 125,54
126,368 127,480 128,65 135,123
136,69 137,45 138,39 139,39
140,1321 141,404 142,4259 143,469
149,146 150,57 151,89 152,29
162,362 163,42 164,119 174,24
175,37 177,9999 178,1224 179,3356
180,345
##END=
