##TITLE=Urea, heptyl-
##JCAMP-DX=4.24
##DATA TYPE=MASS SPECTRUM
##ORIGIN=J.E. WILKINSON S-CUBED, SAN DIEGO, CA.
##OWNER=NIST Mass Spectrometry Data Center
Collection (C) 2014 copyright by the U.S. Secretary of Commerce
on behalf of the United States of America. All rights reserved.
##CAS REGISTRY NO=42955-46-4
##$NIST MASS SPEC NO=90741
##MOLFORM=C8 H18 N2 O
##MW=158
##$NIST SOURCE=MSDC
##XUNITS=M/Z
##YUNITS=RELATIVE INTENSITY
##XFACTOR=1
##YFACTOR=1
##FIRSTX=41
##LASTX=158
##FIRSTY=3769
##MAXX=158
##MINX=41
##MAXY=9999
##MINY=6
##NPOINTS=27
##PEAK TABLE=(XY..XY)
41,3769 42,1364 43,3672 44,5866
45,394 53,12 54,6 55,1491
56,879 57,115 58,206 60,91
61,1770 69,79 70,36 72,6
73,9999 74,4709 87,1285 88,394
99,12 101,988 102,224 115,1109
116,6 129,67 158,370
##END=
