##TITLE=1,2-Cyclohexanediol, 4-methyl-1-(1-methylethyl)-, (1.alpha.,2.alpha.,4.alpha.)-
##JCAMP-DX=4.24
##DATA TYPE=MASS SPECTRUM
##OWNER=NIST Mass Spectrometry Data Center
Collection (C) 2014 copyright by the U.S. Secretary of Commerce
on behalf of the United States of America. All rights reserved.
##CAS REGISTRY NO=42962-98-1
##$NIST MASS SPEC NO=6810
##MOLFORM=C10 H20 O2
##MW=172
##$NIST SOURCE=MSDC
##XUNITS=M/Z
##YUNITS=RELATIVE INTENSITY
##XFACTOR=1
##YFACTOR=1
##FIRSTX=15
##LASTX=172
##FIRSTY=30
##MAXX=172
##MINX=15
##MAXY=9999
##MINY=30
##NPOINTS=52
##PEAK TABLE=(XY..XY)
15,30 17,70 18,851 19,70
27,1101 28,751 29,871 31,280
39,851 40,140 41,2682 42,350
43,9999 44,340 45,280 53,310
55,3103 56,791 57,591 58,70
67,410 68,110 69,1371 70,280
71,2702 72,110 73,60 77,80
79,80 81,591 82,70 83,1061
84,1621 85,210 86,701 87,140
91,701 93,1131 94,60 95,130
97,110 98,170 99,6116 100,420
111,2422 112,200 128,100 129,5495
130,310 139,310 154,310 172,420
##END=
