##TITLE=2-Hydroxy-3-methoxyphenylacetonitrile
##JCAMP-DX=4.24
##DATA TYPE=MASS SPECTRUM
##ORIGIN=NIST Mass Spectrometry Data Center, 1994
##OWNER=NIST Mass Spectrometry Data Center
Collection (C) 2014 copyright by the U.S. Secretary of Commerce
on behalf of the United States of America. All rights reserved.
##CAS REGISTRY NO=42973-56-8
##$NIST MASS SPEC NO=134941
##MOLFORM=C9 H9 N O2
##MW=163
##$NIST SOURCE=MSDC
##XUNITS=M/Z
##YUNITS=RELATIVE INTENSITY
##XFACTOR=1
##YFACTOR=1
##FIRSTX=14
##LASTX=165
##FIRSTY=201
##MAXX=165
##MINX=14
##MAXY=9999
##MINY=44
##NPOINTS=89
##PEAK TABLE=(XY..XY)
14,201 15,1331 16,49 26,308
27,473 28,528 29,584 30,75
31,168 32,120 37,456 38,1007
39,2995 40,439 41,323 42,93
43,99 45,62 46,200 49,184
50,1360 51,2392 52,879 53,1128
54,201 55,261 60,97 61,278
62,626 63,1775 64,1695 65,7689
66,998 67,144 68,81 69,44
73,60 74,317 75,581 76,1029
77,1464 78,1101 79,1429 80,1220
81,122 86,52 87,97 88,135
89,185 90,826 91,694 92,1562
93,4090 94,525 95,70 99,52
102,256 103,414 104,215 105,1144
106,2511 107,3709 108,2032 109,195
115,44 116,73 117,130 118,719
119,570 120,2366 121,261 122,189
130,114 131,121 132,92 133,379
134,92 135,5066 136,5024 137,599
138,57 145,99 146,177 147,85
148,821 149,74 163,9999 164,982
165,117
##END=
