##TITLE=1-Propene, 1,1-dichloro-2-fluoro-
##JCAMP-DX=4.24
##DATA TYPE=MASS SPECTRUM
##ORIGIN=DOW CHEMICAL COMPANY / ASTM E14-UNCERTIFIED SPECTRUM 44
##OWNER=NIST Mass Spectrometry Data Center
Collection (C) 2014 copyright by the U.S. Secretary of Commerce
on behalf of the United States of America. All rights reserved.
##CAS REGISTRY NO=430-95-5
##$NIST MASS SPEC NO=34360
##MOLFORM=C3 H3 Cl2 F
##MW=128
##$NIST SOURCE=MSDC
##XUNITS=M/Z
##YUNITS=RELATIVE INTENSITY
##XFACTOR=1
##YFACTOR=1
##FIRSTX=13
##LASTX=133
##FIRSTY=13
##MAXX=133
##MINX=13
##MAXY=9999
##MINY=3
##NPOINTS=83
##PEAK TABLE=(XY..XY)
13,13 14,24 15,63 24,67
25,33 26,139 27,235 28,18
29,8 31,743 32,40 33,114
35,144 36,267 37,553 38,291
39,157 40,4 41,6 42,10
43,141 44,119 45,249 46,165
47,533 48,89 49,404 50,32
51,77 53,23 54,23 55,124
56,298 57,2424 58,89 59,44
60,73 61,297 62,61 63,139
64,113 65,87 66,114 67,3914
68,78 69,1262 70,18 71,97
72,215 73,341 74,89 75,100
76,4 77,3 78,225 79,26
90,47 91,750 92,404 93,9999
94,467 95,3181 96,119 97,20
107,43 108,5 109,76 110,4
111,37 113,53 114,5 115,33
116,4 117,5 125,12 126,19
127,1275 128,4280 129,945 130,2740
131,225 132,429 133,15
##END=
