##TITLE=Ethane, 1,2-dichloro-1-fluoro-
##JCAMP-DX=4.24
##DATA TYPE=MASS SPECTRUM
##OWNER=NIST Mass Spectrometry Data Center
Collection (C) 2014 copyright by the U.S. Secretary of Commerce
on behalf of the United States of America. All rights reserved.
##CAS REGISTRY NO=430-57-9
##$NIST MASS SPEC NO=1995
##MOLFORM=C2 H3 Cl2 F
##MW=116
##$NIST SOURCE=MSDC
##XUNITS=M/Z
##YUNITS=RELATIVE INTENSITY
##XFACTOR=1
##YFACTOR=1
##FIRSTX=12
##LASTX=120
##FIRSTY=20
##MAXX=120
##MINX=12
##MAXY=9999
##MINY=10
##NPOINTS=60
##PEAK TABLE=(XY..XY)
12,20 13,30 14,40 15,110
24,40 25,190 26,641 27,520
28,40 29,20 31,220 32,50
35,180 36,80 37,80 38,30
39,20 41,10 42,40 43,561
44,440 45,2572 46,380 47,190
48,180 49,1601 50,70 51,500
58,200 59,50 60,330 61,3403
62,611 63,1191 64,170 67,5545
68,70 69,1822 78,30 79,430
80,1752 81,9999 82,801 83,3283
84,70 85,30 95,140 96,811
97,170 98,621 99,100 100,150
101,40 114,20 115,40 116,1822
117,70 118,1171 119,30 120,190
##END=
