##TITLE=Disulfide, (1-methylethyl) (1,1-dimethylethyl)
##JCAMP-DX=4.24
##DATA TYPE=MASS SPECTRUM
##ORIGIN=H.J. MOECKEL & J. WEISS, HAHN-MEITNER-INST. BERLIN, W. G
##OWNER=NIST Mass Spectrometry Data Center
Collection (C) 2014 copyright by the U.S. Secretary of Commerce
on behalf of the United States of America. All rights reserved.
##CAS REGISTRY NO=43022-60-2
##$NIST MASS SPEC NO=75515
##MOLFORM=C7 H16 S2
##MW=164
##$NIST SOURCE=MSDC
##XUNITS=M/Z
##YUNITS=RELATIVE INTENSITY
##XFACTOR=1
##YFACTOR=1
##FIRSTX=15
##LASTX=166
##FIRSTY=129
##MAXX=166
##MINX=15
##MAXY=9999
##MINY=8
##NPOINTS=56
##PEAK TABLE=(XY..XY)
15,129 20,8 26,86 27,1965
29,3454 30,77 31,129 35,17
37,17 38,103 39,1490 40,303
41,5948 42,337 43,2831 44,112
45,259 46,43 47,147 48,17
49,147 50,25 51,34 52,8
53,95 54,43 55,303 56,329
57,9999 58,536 59,458 60,69
61,43 64,103 65,17 66,216
68,17 70,8 71,8 72,8
73,129 74,60 75,34 79,8
83,8 87,17 88,43 89,17
93,25 107,123 108,813 109,51
110,77 164,761 165,60 166,51
##END=
