##TITLE=2-Phenoxybenzhydrazide
##JCAMP-DX=4.24
##DATA TYPE=MASS SPECTRUM
##ORIGIN=NIST Mass Spectrometry Data Center, 1994
##OWNER=NIST Mass Spectrometry Data Center
Collection (C) 2014 copyright by the U.S. Secretary of Commerce
on behalf of the United States of America. All rights reserved.
##CAS REGISTRY NO=43038-37-5
##$NIST MASS SPEC NO=134834
##MOLFORM=C13 H12 N2 O2
##MW=228
##$NIST SOURCE=MSDC
##XUNITS=M/Z
##YUNITS=RELATIVE INTENSITY
##XFACTOR=1
##YFACTOR=1
##FIRSTX=16
##LASTX=229
##FIRSTY=37
##MAXX=229
##MINX=16
##MAXY=9999
##MINY=17
##NPOINTS=76
##PEAK TABLE=(XY..XY)
16,37 17,21 18,31 26,25
27,175 28,225 29,156 30,98
31,663 32,80 37,58 38,223
39,838 40,77 41,25 44,26
50,697 51,1517 52,152 53,109
55,29 57,33 61,31 62,140
63,605 64,402 65,527 66,92
70,43 73,26 74,207 75,226
76,421 77,1513 78,147 79,22
80,27 87,34 88,52 89,153
90,33 91,142 92,460 93,217
94,271 99,64 101,20 102,70
104,34 105,95 108,252 113,67
115,1794 116,157 120,156 121,603
122,48 126,18 127,18 128,17
139,728 140,171 141,1126 142,134
151,18 152,48 168,597 169,150
170,25 195,48 197,9999 198,1477
199,142 213,50 228,973 229,145
##END=
