##TITLE=1-(4-Methoxyphenyl)-1-cyclopentanecarboxylic acid
##JCAMP-DX=4.24
##DATA TYPE=MASS SPECTRUM
##ORIGIN=NIST Mass Spectrometry Data Center
##OWNER=NIST Mass Spectrometry Data Center
Collection (C) 2014 copyright by the U.S. Secretary of Commerce
on behalf of the United States of America. All rights reserved.
##CAS REGISTRY NO=43050-28-8
##$NIST MASS SPEC NO=343226
##MOLFORM=C13 H16 O3
##MW=220
##$NIST SOURCE=MSDC
##XUNITS=M/Z
##YUNITS=RELATIVE INTENSITY
##XFACTOR=1
##YFACTOR=1
##FIRSTX=12
##LASTX=221
##FIRSTY=50
##MAXX=221
##MINX=12
##MAXY=9999
##MINY=20
##NPOINTS=106
##PEAK TABLE=(XY..XY)
12,50 15,440 16,50 19,40
26,60 27,410 28,150 29,210
31,50 38,80 39,741 40,110
41,561 42,130 43,170 44,300
45,360 46,30 50,250 51,520
52,180 53,230 54,40 55,180
57,60 62,90 63,520 64,200
65,611 66,150 67,1261 68,80
69,60 70,20 73,80 74,90
75,180 76,230 77,1001 78,490
79,270 80,30 81,70 86,50
87,70 88,50 89,430 90,230
91,971 92,200 93,140 94,60
101,110 102,350 103,490 104,190
105,170 107,160 108,170 109,150
113,30 115,801 116,260 117,280
118,140 119,350 121,6015 122,520
123,50 126,40 127,210 128,631
129,250 130,120 131,440 132,200
133,631 134,591 135,120 137,50
138,210 139,90 140,30 141,130
142,90 143,520 144,290 145,270
146,120 147,240 148,50 157,110
158,330 159,410 160,130 161,30
165,30 173,591 174,941 175,9999
176,1281 177,110 178,110 205,40
220,1812 221,240
##END=
