##TITLE=Nickel, bis[(1,2,3-.eta.)-2-pentenyl]-
##JCAMP-DX=4.24
##DATA TYPE=MASS SPECTRUM
##ORIGIN=D.HENNEBERG, MAX-PLANCK INSTITUTE, MULHEIM, WEST GERMANY
##OWNER=NIST Mass Spectrometry Data Center
Collection (C) 2014 copyright by the U.S. Secretary of Commerce
on behalf of the United States of America. All rights reserved.
##CAS REGISTRY NO=43062-19-7
##$NIST MASS SPEC NO=61569
##MOLFORM=C10 H18 Ni
##MW=196
##$NIST SOURCE=MSDC
##XUNITS=M/Z
##YUNITS=RELATIVE INTENSITY
##XFACTOR=1
##YFACTOR=1
##FIRSTX=26
##LASTX=202
##FIRSTY=3382
##MAXX=202
##MINX=26
##MAXY=9999
##MINY=6
##NPOINTS=112
##PEAK TABLE=(XY..XY)
26,3382 27,5349 28,7050 29,2516
30,51 31,314 32,435 33,82
34,99 36,90 37,773 38,1537
39,9652 40,3572 41,9999 42,5205
43,689 44,527 45,110 48,27
49,169 50,832 51,1235 52,548
53,5674 54,769 55,6324 56,350
57,44 58,1739 59,31 60,630
61,250 62,430 63,484 64,61
65,1113 66,793 67,7723 68,6060
69,5182 70,2294 71,652 72,34
74,10 75,23 77,102 78,76
79,103 80,24 81,87 82,71
83,63 84,1508 85,303 86,723
87,128 88,165 89,18 90,32
91,62 92,14 93,29 94,14
95,56 96,63 97,336 98,389
99,777 100,2687 101,345 102,1092
103,91 104,134 105,26 106,54
107,25 108,23 109,93 110,147
111,194 112,1368 113,230 114,428
115,93 116,104 117,32 118,10
119,10 121,27 123,439 124,105
125,601 126,4744 127,519 128,2440
129,238 130,336 131,59 132,79
134,6 138,60 139,29 140,10
149,9 152,12 196,2277 197,220
198,894 199,115 200,126 202,18
##END=
