##TITLE=N-(p-Chlorophenyl)-4-cyclohexene-1,2-dicarboxamide
##JCAMP-DX=4.24
##DATA TYPE=MASS SPECTRUM
##ORIGIN=NIST Mass Spectrometry Data Center, 1994
##OWNER=NIST Mass Spectrometry Data Center
Collection (C) 2014 copyright by the U.S. Secretary of Commerce
on behalf of the United States of America. All rights reserved.
##CAS REGISTRY NO=43069-64-3
##$NIST MASS SPEC NO=135582
##MOLFORM=C14 H12 Cl N O2
##MW=261
##$NIST SOURCE=MSDC
##XUNITS=M/Z
##YUNITS=RELATIVE INTENSITY
##XFACTOR=1
##YFACTOR=1
##FIRSTX=12
##LASTX=265
##FIRSTY=16
##MAXX=265
##MINX=12
##MAXY=9999
##MINY=4
##NPOINTS=157
##PEAK TABLE=(XY..XY)
12,16 15,37 17,30 18,54
26,577 27,1990 28,634 35,29
36,47 37,191 38,500 39,2907
40,394 41,524 42,58 44,4
47,31 49,107 50,875 51,1695
52,1148 53,1126 54,856 55,232
56,21 60,18 61,134 62,423
63,1325 64,573 65,664 66,217
67,119 68,63 69,49 70,50
72,73 73,245 74,180 75,704
76,18 77,3896 78,1061 79,9497
80,9999 81,662 82,76 84,80
85,82 86,30 87,61 88,124
89,366 90,1395 91,220 92,83
93,123 94,19 95,22 96,40
97,57 98,202 99,362 100,186
101,107 102,140 103,39 104,19
105,625 106,253 107,1075 108,257
109,34 110,19 111,564 112,142
113,211 114,51 115,52 116,77
118,20 119,40 120,50 121,30
122,20 123,95 124,20 125,1369
126,389 127,2272 128,326 129,608
130,92 132,52 133,24 134,22
135,63 136,22 137,206 138,348
139,247 140,150 141,73 142,21
144,26 151,186 153,1395 154,488
155,1138 156,272 157,242 158,34
162,23 163,103 164,46 165,56
166,46 167,43 168,45 169,28
170,104 171,18 172,56 177,22
178,44 179,53 180,54 181,38
182,22 183,28 190,30 195,66
196,26 197,33 198,172 199,28
204,47 206,214 207,120 208,81
209,42 216,48 217,23 218,88
219,23 220,20 232,667 233,181
234,241 235,53 246,82 248,36
261,4203 262,775 263,1453 264,214
265,22
##END=
