##TITLE=Ketone, 7-methoxy-2-benzofuranyl methyl
##JCAMP-DX=4.24
##DATA TYPE=MASS SPECTRUM
##ORIGIN=NIST Mass Spectrometry Data Center, 1994
##OWNER=NIST Mass Spectrometry Data Center
Collection (C) 2014 copyright by the U.S. Secretary of Commerce
on behalf of the United States of America. All rights reserved.
##CAS REGISTRY NO=43071-52-9
##$NIST MASS SPEC NO=133932
##MOLFORM=C11 H10 O3
##MW=190
##$NIST SOURCE=MSDC
##XUNITS=M/Z
##YUNITS=RELATIVE INTENSITY
##XFACTOR=1
##YFACTOR=1
##FIRSTX=13
##LASTX=192
##FIRSTY=64
##MAXX=192
##MINX=13
##MAXY=9999
##MINY=24
##NPOINTS=78
##PEAK TABLE=(XY..XY)
13,64 14,410 15,2683 16,60
26,230 27,241 28,42 29,471
30,64 31,52 37,257 38,461
39,866 40,58 41,166 42,42
43,6938 44,246 45,48 50,2063
51,1221 52,161 53,496 54,63
55,59 58,33 61,353 62,1045
63,1535 64,381 65,855 66,75
74,801 75,758 76,1872 77,1174
78,112 79,58 85,107 86,275
87,366 88,439 89,1939 90,517
91,767 92,211 93,38 95,27
98,24 101,71 102,85 103,178
104,533 105,553 106,36 115,34
117,1435 118,523 119,2109 120,206
131,90 132,234 133,225 144,55
145,160 146,185 147,634 148,128
160,414 161,197 162,34 173,55
175,9999 176,1149 177,126 190,6571
191,797 192,45
##END=
