##TITLE=1-Propene, 1,2-dichloro-1,3,3,3-tetrafluoro-
##JCAMP-DX=4.24
##DATA TYPE=MASS SPECTRUM
##OWNER=NIST Mass Spectrometry Data Center
Collection (C) 2014 copyright by the U.S. Secretary of Commerce
on behalf of the United States of America. All rights reserved.
##CAS REGISTRY NO=431-53-8
##$NIST MASS SPEC NO=7699
##MOLFORM=C3 Cl2 F4
##MW=182
##$NIST SOURCE=MSDC
##XUNITS=M/Z
##YUNITS=RELATIVE INTENSITY
##XFACTOR=1
##YFACTOR=1
##FIRSTX=12
##LASTX=187
##FIRSTY=20
##MAXX=187
##MINX=12
##MAXY=9999
##MINY=10
##NPOINTS=79
##PEAK TABLE=(XY..XY)
12,20 24,50 28,120 31,871
32,30 35,110 36,40 37,40
43,90 47,450 49,150 50,80
55,140 59,90 61,30 62,70
66,120 68,40 69,4664 70,50
71,10 72,10 73,10 74,300
75,10 78,561 79,10 80,190
81,10 82,90 83,10 84,50
85,581 86,20 87,190 90,60
92,20 93,1161 94,150 96,80
97,170 98,20 99,50 101,30
103,20 109,130 111,50 112,130
113,520 114,10 115,340 116,150
117,60 118,50 128,50 129,10
130,20 131,10 132,530 133,20
134,350 135,10 136,60 147,9999
148,350 149,3243 150,110 151,10
163,1191 164,50 165,791 166,30
167,130 182,3243 183,110 184,2102
185,70 186,350 187,10
##END=
