##TITLE=1-Propene, 1,1,2-trichloro-3,3,3-trifluoro-
##JCAMP-DX=4.24
##DATA TYPE=MASS SPECTRUM
##OWNER=NIST Mass Spectrometry Data Center
Collection (C) 2014 copyright by the U.S. Secretary of Commerce
on behalf of the United States of America. All rights reserved.
##CAS REGISTRY NO=431-52-7
##$NIST MASS SPEC NO=8921
##MOLFORM=C3 Cl3 F3
##MW=198
##$NIST SOURCE=MSDC
##XUNITS=M/Z
##YUNITS=RELATIVE INTENSITY
##XFACTOR=1
##YFACTOR=1
##FIRSTX=24
##LASTX=204
##FIRSTY=60
##MAXX=204
##MINX=24
##MAXY=9999
##MINY=10
##NPOINTS=97
##PEAK TABLE=(XY..XY)
24,60 28,791 31,561 32,190
35,190 36,70 37,70 40,10
43,20 45,20 47,490 49,170
50,80 54,10 55,310 56,10
59,140 60,10 61,130 62,10
66,50 68,20 69,4804 70,70
71,40 72,70 73,50 74,500
75,20 78,240 80,80 82,170
84,110 85,2052 86,40 87,661
90,130 91,130 92,60 93,981
94,971 95,20 96,621 97,40
98,100 99,20 101,110 103,70
105,10 109,911 110,50 111,300
112,10 113,100 115,70 116,40
117,20 118,10 125,10 127,10
128,150 129,601 130,70 131,571
132,100 133,190 134,60 135,20
136,10 148,691 149,10 150,671
151,20 152,220 153,10 154,20
163,9999 164,390 165,6506 166,290
167,1061 168,80 179,751 180,20
181,731 182,20 183,240 184,10
185,20 187,10 198,5705 199,190
200,5495 201,190 202,1782 203,70
204,190
##END=
