##TITLE=2-Propanone, 1,1,1,3,3-pentafluoro-
##JCAMP-DX=4.24
##DATA TYPE=MASS SPECTRUM
##ORIGIN=J.B.HYNES HYNES CHEM. RES. CORP., DURHAM, N. C., USA
##OWNER=NIST Mass Spectrometry Data Center
Collection (C) 2014 copyright by the U.S. Secretary of Commerce
on behalf of the United States of America. All rights reserved.
##CAS REGISTRY NO=431-71-0
##$NIST MASS SPEC NO=4573
##MOLFORM=C3 H F5 O
##MW=148
##$NIST SOURCE=MSDC
##XUNITS=M/Z
##YUNITS=RELATIVE INTENSITY
##XFACTOR=1
##YFACTOR=1
##FIRSTX=12
##LASTX=148
##FIRSTY=210
##MAXX=148
##MINX=12
##MAXY=9999
##MINY=110
##NPOINTS=15
##PEAK TABLE=(XY..XY)
12,210 13,260 29,1260 31,1480
32,1020 50,1080 51,9999 59,320
69,4820 78,860 79,4190 97,490
100,110 101,1040 148,140
##END=
