##TITLE=Hydroperoxide, hexyl
##JCAMP-DX=4.24
##DATA TYPE=MASS SPECTRUM
##ORIGIN=J.Polzer ET AL.J.Chromatogr.,653,283(1993)
##OWNER=NIST Mass Spectrometry Data Center
Collection (C) 2014 copyright by the U.S. Secretary of Commerce
on behalf of the United States of America. All rights reserved.
##CAS REGISTRY NO=4312-76-9
##$NIST MASS SPEC NO=281598
##MOLFORM=C6 H14 O2
##MW=118
##$NIST SOURCE=MSDC
##XUNITS=M/Z
##YUNITS=RELATIVE INTENSITY
##XFACTOR=1
##YFACTOR=1
##FIRSTX=26
##LASTX=85
##FIRSTY=120
##MAXX=85
##MINX=26
##MAXY=9999
##MINY=100
##NPOINTS=27
##PEAK TABLE=(XY..XY)
26,120 27,1651 28,671 29,4054
31,2112 32,571 39,3863 40,390
41,9048 42,4824 43,9999 44,2662
45,881 51,100 53,250 54,490
55,6126 56,9248 57,2752 67,490
69,2212 71,370 72,150 82,120
83,300 84,641 85,510
##END=
