##TITLE=1-Octen-3-one
##JCAMP-DX=4.24
##DATA TYPE=MASS SPECTRUM
##ORIGIN=FOOD RESEARCH REPORT 122, K.E. MURRAY & COLLEAGUES, DIV OF FOOD RESEARCH, CSIRO, AUSTRALIA
##OWNER=NIST Mass Spectrometry Data Center
Collection (C) 2014 copyright by the U.S. Secretary of Commerce
on behalf of the United States of America. All rights reserved.
##CAS REGISTRY NO=4312-99-6
##$NIST MASS SPEC NO=53600
##MOLFORM=C8 H14 O
##MW=126
##$NIST SOURCE=MSDC
##XUNITS=M/Z
##YUNITS=RELATIVE INTENSITY
##XFACTOR=1
##YFACTOR=1
##FIRSTX=27
##LASTX=126
##FIRSTY=5300
##MAXX=126
##MINX=27
##MAXY=9999
##MINY=30
##NPOINTS=30
##PEAK TABLE=(XY..XY)
27,5300 28,900 29,1700 38,100
39,1300 40,200 41,1900 42,900
43,2800 44,200 53,200 54,100
55,9999 56,500 57,200 67,100
68,100 69,200 70,7800 71,800
72,100 79,100 82,100 83,800
84,200 97,300 98,100 99,100
111,100 126,30
##END=
