##TITLE=Hexanohydroxamic acid
##JCAMP-DX=4.24
##DATA TYPE=MASS SPECTRUM
##ORIGIN=Japan AIST/NIMC Database- Spectrum MS-IW-6392
##OWNER=NIST Mass Spectrometry Data Center
Collection (C) 2014 copyright by the U.S. Secretary of Commerce
on behalf of the United States of America. All rights reserved.
##CAS REGISTRY NO=4312-93-0
##$NIST MASS SPEC NO=243231
##MOLFORM=C6 H13 N O2
##MW=131
##$NIST SOURCE=MSDC
##XUNITS=M/Z
##YUNITS=RELATIVE INTENSITY
##XFACTOR=1
##YFACTOR=1
##FIRSTX=15
##LASTX=133
##FIRSTY=60
##MAXX=133
##MINX=15
##MAXY=9999
##MINY=10
##NPOINTS=78
##PEAK TABLE=(XY..XY)
15,60 16,10 17,30 18,119
26,99 27,1139 28,439 29,1749
30,90 31,50 32,229 33,50
34,20 37,20 38,60 39,859
40,149 41,2389 42,809 43,9999
44,599 45,30 46,50 48,20
50,20 51,60 52,30 53,149
54,269 55,1409 56,249 57,369
58,50 59,1049 60,369 61,20
62,10 63,10 65,10 66,10
67,40 68,129 69,249 70,139
71,5379 72,429 73,50 74,30
75,1509 76,50 79,10 80,10
81,249 82,99 83,30 84,60
85,40 86,90 87,10 88,299
89,50 96,60 97,20 98,159
99,9589 100,649 101,30 102,199
103,10 112,40 113,60 114,10
115,20 116,10 130,20 131,599
132,209 133,10
##END=
