##TITLE=Triadimefon
##JCAMP-DX=4.24
##DATA TYPE=MASS SPECTRUM
##ORIGIN=NIST Mass Spectrometry Data Center, 1990.
##OWNER=NIST Mass Spectrometry Data Center
Collection (C) 2014 copyright by the U.S. Secretary of Commerce
on behalf of the United States of America. All rights reserved.
##CAS REGISTRY NO=43121-43-3
##$NIST MASS SPEC NO=119021
##MOLFORM=C14 H16 Cl N3 O2
##MW=293
##$NIST SOURCE=MSDC
##XUNITS=M/Z
##YUNITS=RELATIVE INTENSITY
##XFACTOR=1
##YFACTOR=1
##FIRSTX=12
##LASTX=296
##FIRSTY=7
##MAXX=296
##MINX=12
##MAXY=9999
##MINY=2
##NPOINTS=156
##PEAK TABLE=(XY..XY)
12,7 13,20 14,21 15,83
25,8 26,70 27,658 28,1002
29,1930 30,51 31,12 35,7
36,17 37,42 38,187 39,905
40,316 41,2766 42,339 43,144
44,3 45,10 46,4 47,20
49,63 50,236 51,171 52,40
53,200 54,386 55,538 56,3
57,9999 58,416 59,7 60,8
61,39 62,110 63,411 64,164
65,214 66,23 67,33 68,7
69,705 70,907 71,50 72,41
73,399 74,118 75,807 76,133
77,78 78,9 79,7 80,7
82,505 83,61 85,1809 86,108
87,26 89,31 90,49 91,45
92,30 93,28 94,8 95,17
96,22 97,19 99,796 100,139
101,250 102,40 103,8 104,3
105,5 109,98 110,826 111,761
112,78 113,260 114,24 115,7
117,59 118,48 119,14 122,10
123,6 124,9 125,93 126,135
127,603 128,1065 129,241 130,341
131,32 132,7 133,13 134,4
136,6 138,66 139,122 140,42
141,58 142,9 143,6 144,10
145,14 146,28 147,4 150,9
151,23 152,36 153,85 154,205
155,50 156,23 157,5 158,2
166,60 167,13 168,13 169,6
170,4 172,24 173,39 174,47
175,7 179,48 180,222 181,952
182,210 183,298 184,42 185,4
197,8 201,5 208,2413 209,332
210,760 211,95 212,8 225,3
236,130 237,42 238,46 239,11
258,59 259,9 264,9 278,5
293,172 294,41 295,58 296,14
##END=
