##TITLE=1,4-Cyclohexadiene, 1-methyl-
##JCAMP-DX=4.24
##DATA TYPE=MASS SPECTRUM
##ORIGIN=NIST Mass Spectrometry Data Center, 1990.
##OWNER=NIST Mass Spectrometry Data Center
Collection (C) 2014 copyright by the U.S. Secretary of Commerce
on behalf of the United States of America. All rights reserved.
##CAS REGISTRY NO=4313-57-9
##$NIST MASS SPEC NO=113662
##MOLFORM=C7 H10
##MW=94
##$NIST SOURCE=MSDC
##XUNITS=M/Z
##YUNITS=RELATIVE INTENSITY
##XFACTOR=1
##YFACTOR=1
##FIRSTX=15
##LASTX=95
##FIRSTY=175
##MAXX=95
##MINX=15
##MAXY=9999
##MINY=112
##NPOINTS=31
##PEAK TABLE=(XY..XY)
15,175 26,220 27,814 28,716
37,179 38,425 39,2128 40,324
41,398 45,151 46,112 50,674
51,1153 52,479 53,599 54,171
61,171 62,345 63,734 64,160
65,1134 66,462 67,161 77,6804
79,9999 80,641 91,4232 92,784
93,1251 94,5782 95,439
##END=
