##TITLE=Stannane, trimethyl(phenylmethyl)-
##JCAMP-DX=4.24
##DATA TYPE=MASS SPECTRUM
##ORIGIN=A.A.Kutin, Moscow, Russia
##OWNER=NIST Mass Spectrometry Data Center
Collection (C) 2014 copyright by the U.S. Secretary of Commerce
on behalf of the United States of America. All rights reserved.
##CAS REGISTRY NO=4314-94-7
##$NIST MASS SPEC NO=257996
##MOLFORM=C10 H16 Sn
##MW=256
##$NIST SOURCE=MSDC
##XUNITS=M/Z
##YUNITS=RELATIVE INTENSITY
##XFACTOR=1
##YFACTOR=1
##FIRSTX=39
##LASTX=260
##FIRSTY=1361
##MAXX=260
##MINX=39
##MAXY=9999
##MINY=11
##NPOINTS=103
##PEAK TABLE=(XY..XY)
39,1361 41,290 51,572 52,85
53,27 63,741 65,2001 74,20
75,25 77,254 79,196 86,18
87,26 91,9999 103,118 105,379
112,28 113,12 116,541 117,419
118,745 119,567 120,840 121,290
122,102 123,62 124,139 125,50
127,64 131,1175 132,610 133,1378
134,673 135,1578 137,289 139,320
141,69 142,59 143,97 145,212
146,292 147,254 148,439 149,297
150,508 151,122 152,69 154,129
155,40 157,265 159,298 161,3197
162,1852 163,4154 164,2268 165,5207
167,1118 169,1221 180,12 181,24
182,22 183,32 184,19 185,28
193,17 194,13 195,25 196,14
197,30 203,11 205,50 207,270
208,150 209,319 210,160 211,307
213,82 215,65 221,18 222,13
223,23 224,12 225,26 233,18
235,31 237,345 238,222 239,447
240,254 241,518 242,57 243,75
245,115 248,15 250,23 252,289
253,174 254,376 255,207 256,455
257,50 258,64 260,90
##END=
