##TITLE=2H-Thiopyran-3(4H)-one, dihydro-6-methyl-
##JCAMP-DX=4.24
##DATA TYPE=MASS SPECTRUM
##ORIGIN=CARL DJERASSI DEPT OF CHEM STANFORD UNIV STANFORD CALIF 94305
##OWNER=NIST Mass Spectrometry Data Center
Collection (C) 2014 copyright by the U.S. Secretary of Commerce
on behalf of the United States of America. All rights reserved.
##CAS REGISTRY NO=43152-90-5
##$NIST MASS SPEC NO=46509
##MOLFORM=C6 H10 O S
##MW=130
##$NIST SOURCE=MSDC
##XUNITS=M/Z
##YUNITS=RELATIVE INTENSITY
##XFACTOR=1
##YFACTOR=1
##FIRSTX=41
##LASTX=132
##FIRSTY=3800
##MAXX=132
##MINX=41
##MAXY=9999
##MINY=100
##NPOINTS=47
##PEAK TABLE=(XY..XY)
41,3800 42,2700 43,800 44,500
45,1800 46,2300 47,900 48,100
50,200 51,200 52,100 53,500
54,400 55,2500 56,5800 57,200
58,400 59,1000 60,2800 61,500
62,100 67,200 68,300 69,300
71,200 73,300 74,1200 75,9200
76,500 77,500 82,100 83,400
84,700 85,100 87,2400 88,200
89,100 101,300 102,300 115,200
116,200 125,100 126,100 128,100
130,9999 131,800 132,500
##END=
