##TITLE=2H-Pyran-3(4H)-one, dihydro-6-methyl-
##JCAMP-DX=4.24
##DATA TYPE=MASS SPECTRUM
##ORIGIN=CARL DJERASSI DEPT OF CHEM STANFORD UNIV STANFORD CALIF 94305
##OWNER=NIST Mass Spectrometry Data Center
Collection (C) 2014 copyright by the U.S. Secretary of Commerce
on behalf of the United States of America. All rights reserved.
##CAS REGISTRY NO=43152-89-2
##$NIST MASS SPEC NO=46355
##MOLFORM=C6 H10 O2
##MW=114
##$NIST SOURCE=MSDC
##XUNITS=M/Z
##YUNITS=RELATIVE INTENSITY
##XFACTOR=1
##YFACTOR=1
##FIRSTX=41
##LASTX=115
##FIRSTY=9100
##MAXX=115
##MINX=41
##MAXY=9999
##MINY=100
##NPOINTS=29
##PEAK TABLE=(XY..XY)
41,9100 42,7700 43,3700 44,200
45,200 50,200 51,200 52,100
53,400 54,300 55,2600 56,9999
57,900 58,200 59,6400 60,200
67,100 69,400 70,300 71,1200
72,100 83,300 84,2800 85,300
97,200 99,400 113,100 114,8200
115,700
##END=
