##TITLE=1-Hexene, 3,5,5-trimethyl-
##JCAMP-DX=4.24
##DATA TYPE=MASS SPECTRUM
##ORIGIN=Japan AIST/NIMC Database- Spectrum MS-NW-2204
##OWNER=NIST Mass Spectrometry Data Center
Collection (C) 2014 copyright by the U.S. Secretary of Commerce
on behalf of the United States of America. All rights reserved.
##CAS REGISTRY NO=4316-65-8
##$NIST MASS SPEC NO=227630
##MOLFORM=C9 H18
##MW=126
##$NIST SOURCE=MSDC
##XUNITS=M/Z
##YUNITS=RELATIVE INTENSITY
##XFACTOR=1
##YFACTOR=1
##FIRSTX=15
##LASTX=126
##FIRSTY=70
##MAXX=126
##MINX=15
##MAXY=9999
##MINY=10
##NPOINTS=56
##PEAK TABLE=(XY..XY)
15,70 26,50 27,1039 28,99
29,1999 30,40 37,10 38,40
39,1079 40,149 41,3279 42,359
43,4449 44,139 46,10 50,50
51,119 52,50 53,429 54,159
55,5069 56,1529 57,9999 58,459
59,10 62,10 63,20 65,50
66,20 67,219 68,159 69,2699
70,4499 71,2599 72,139 77,50
78,10 79,60 80,10 81,70
82,20 83,339 84,119 85,10
91,20 93,10 95,109 96,10
97,50 98,119 99,10 109,10
110,10 111,499 112,50 126,10
##END=
