##TITLE=1,2-Benzenedicarboxylic acid, 4-methyl-
##JCAMP-DX=4.24
##DATA TYPE=MASS SPECTRUM
##ORIGIN=Japan AIST/NIMC Database- Spectrum MS-IW-4850
##OWNER=NIST Mass Spectrometry Data Center
Collection (C) 2014 copyright by the U.S. Secretary of Commerce
on behalf of the United States of America. All rights reserved.
##CAS REGISTRY NO=4316-23-8
##$NIST MASS SPEC NO=237330
##MOLFORM=C9 H8 O4
##MW=180
##$NIST SOURCE=MSDC
##XUNITS=M/Z
##YUNITS=RELATIVE INTENSITY
##XFACTOR=1
##YFACTOR=1
##FIRSTX=16
##LASTX=181
##FIRSTY=20
##MAXX=181
##MINX=16
##MAXY=9999
##MINY=10
##NPOINTS=88
##PEAK TABLE=(XY..XY)
16,20 17,40 18,179 26,40
27,119 28,269 29,10 36,20
37,219 38,319 39,899 40,219
41,20 42,30 43,599 44,489
45,999 48,10 49,119 50,629
51,529 52,70 53,99 54,10
55,20 57,20 58,50 59,229
60,50 61,369 62,969 63,1919
64,789 65,109 66,20 67,10
69,20 71,10 72,10 73,99
74,349 75,259 76,50 77,149
78,40 79,30 81,20 83,10
84,60 85,179 86,299 87,239
88,129 89,4069 90,6379 91,979
92,149 93,20 95,10 96,10
97,10 101,10 104,20 105,20
106,10 107,50 108,10 111,10
117,60 118,9999 119,1189 120,80
121,10 122,10 132,50 133,10
135,50 136,439 137,30 149,10
160,20 161,119 162,7309 163,839
164,90 165,10 180,139 181,10
##END=
