##TITLE=Hexane, 3-chloro-3-methyl-
##JCAMP-DX=4.24
##DATA TYPE=MASS SPECTRUM
##ORIGIN=NIST Mass Spectrometry Data Center, 1990.
##OWNER=NIST Mass Spectrometry Data Center
Collection (C) 2014 copyright by the U.S. Secretary of Commerce
on behalf of the United States of America. All rights reserved.
##CAS REGISTRY NO=43197-78-0
##$NIST MASS SPEC NO=114646
##MOLFORM=C7 H15 Cl
##MW=134
##$NIST SOURCE=MSDC
##XUNITS=M/Z
##YUNITS=RELATIVE INTENSITY
##XFACTOR=1
##YFACTOR=1
##FIRSTX=15
##LASTX=107
##FIRSTY=145
##MAXX=107
##MINX=15
##MAXY=9999
##MINY=99
##NPOINTS=48
##PEAK TABLE=(XY..XY)
15,145 26,198 27,1478 29,1095
35,199 36,465 37,121 38,423
39,2657 40,121 41,5993 42,660
43,1104 50,264 51,512 52,218
53,1179 54,121 55,6607 56,1343
57,3026 58,147 62,99 63,706
65,418 66,108 67,738 68,99
69,9999 70,3059 71,201 75,103
76,421 77,216 78,176 79,164
81,116 83,948 90,1046 91,1851
92,418 93,520 98,2551 99,871
104,585 105,915 106,189 107,302
##END=
