##TITLE=N-Aminomorpholine
##JCAMP-DX=4.24
##DATA TYPE=MASS SPECTRUM
##ORIGIN=Japan AIST/NIMC Database- Spectrum MS-IW-4266
##OWNER=NIST Mass Spectrometry Data Center
Collection (C) 2014 copyright by the U.S. Secretary of Commerce
on behalf of the United States of America. All rights reserved.
##CAS REGISTRY NO=4319-49-7
##$NIST MASS SPEC NO=231162
##MOLFORM=C4 H10 N2 O
##MW=102
##$NIST SOURCE=MSDC
##XUNITS=M/Z
##YUNITS=RELATIVE INTENSITY
##XFACTOR=1
##YFACTOR=1
##FIRSTX=13
##LASTX=104
##FIRSTY=10
##MAXX=104
##MINX=13
##MAXY=9999
##MINY=10
##NPOINTS=55
##PEAK TABLE=(XY..XY)
13,10 14,80 15,369 16,109
17,269 18,549 19,20 25,40
26,519 27,1489 28,2899 29,1909
30,1139 31,409 32,10 38,30
39,109 40,189 41,519 42,1249
43,2189 44,9999 45,719 46,40
47,10 50,10 51,20 52,50
53,30 54,319 55,589 56,1179
57,2819 58,419 59,289 60,20
67,109 68,30 69,70 70,50
71,169 72,1399 73,70 74,10
83,90 84,80 85,379 86,2119
87,1359 88,70 100,60 101,509
102,9449 103,539 104,30
##END=
