##TITLE=Arsine, tris(trifluoromethyl)-
##JCAMP-DX=4.24
##DATA TYPE=MASS SPECTRUM
##ORIGIN=A.Pleshkova, Nesmeyanov Inst.Org.Elem.Cpds, Moscow
##OWNER=NIST Mass Spectrometry Data Center
Collection (C) 2014 copyright by the U.S. Secretary of Commerce
on behalf of the United States of America. All rights reserved.
##CAS REGISTRY NO=432-02-0
##$NIST MASS SPEC NO=284329
##MOLFORM=C3 As F9
##MW=282
##$NIST SOURCE=MSDC
##XUNITS=M/Z
##YUNITS=RELATIVE INTENSITY
##XFACTOR=1
##YFACTOR=1
##FIRSTX=31
##LASTX=283
##FIRSTY=1181
##MAXX=283
##MINX=31
##MAXY=9999
##MINY=10
##NPOINTS=25
##PEAK TABLE=(XY..XY)
31,1181 32,20 50,420 51,10
69,9999 70,110 75,1221 94,3073
106,220 113,4994 125,961 126,10
131,80 144,1922 145,20 163,3203
164,40 175,1221 176,30 194,1661
195,40 263,1121 264,40 282,260
283,10
##END=
