##TITLE=Finaven
##JCAMP-DX=4.24
##DATA TYPE=MASS SPECTRUM
##ORIGIN=J. SHAW, BORRISTON RESEARCH, ROCKVILLE, MD, USA
##OWNER=NIST Mass Spectrometry Data Center
Collection (C) 2014 copyright by the U.S. Secretary of Commerce
on behalf of the United States of America. All rights reserved.
##CAS REGISTRY NO=43222-48-6
##$NIST MASS SPEC NO=60175
##MOLFORM=C18 H20 N2 O4 S
##MW=360
##$NIST SOURCE=MSDC
##XUNITS=M/Z
##YUNITS=RELATIVE INTENSITY
##XFACTOR=1
##YFACTOR=1
##FIRSTX=20
##LASTX=258
##FIRSTY=40
##MAXX=258
##MINX=20
##MAXY=9999
##MINY=10
##NPOINTS=198
##PEAK TABLE=(XY..XY)
20,40 22,10 24,20 25,50
26,510 27,1831 28,3713 29,9999
30,1791 31,9799 32,7397 33,570
34,20 35,670 36,3433 37,300
38,1291 39,1691 40,220 41,1601
42,1011 43,3143 44,2682 45,5405
46,1501 47,340 48,780 49,320
50,2872 51,2232 52,1161 53,410
54,240 55,840 56,500 57,950
58,430 59,240 60,390 61,250
62,360 63,1121 64,710 65,920
66,1291 67,210 68,290 69,660
70,260 71,320 72,120 73,460
74,380 75,480 76,890 77,4454
78,740 79,620 80,140 81,370
82,770 84,480 85,260 86,180
87,500 88,240 89,1101 90,310
91,1681 92,180 93,130 95,4394
96,2102 97,560 98,290 99,160
100,100 101,310 102,1061 103,2072
104,1821 105,260 106,30 107,180
109,340 110,280 111,210 112,60
113,160 114,110 115,410 116,830
117,1241 118,2122 119,200 120,10
121,110 122,40 123,270 124,400
125,1021 126,260 127,180 128,630
129,290 130,1581 131,650 132,150
133,70 134,30 135,80 136,10
137,70 138,40 139,180 140,100
141,100 142,140 143,170 144,80
145,70 146,40 147,40 148,10
149,240 150,130 151,90 152,140
153,40 154,20 155,130 156,30
157,170 158,10 159,10 161,30
162,120 163,190 164,160 165,420
166,90 167,40 168,10 169,40
171,40 173,30 175,30 176,50
177,60 178,100 179,80 180,30
181,20 185,30 186,50 187,100
188,120 189,770 190,230 191,580
192,130 193,140 194,20 195,10
196,90 197,10 198,70 200,10
202,10 203,40 204,140 205,80
206,210 207,70 208,10 209,20
214,10 215,10 216,40 217,40
218,70 219,30 220,70 221,10
222,20 228,40 231,50 232,220
233,2652 234,9929 235,1721 236,130
247,290 249,4114 250,710 251,40
256,50 258,20
##END=
