##TITLE=Boric acid, 3TMS derivative
##JCAMP-DX=4.24
##DATA TYPE=MASS SPECTRUM
##ORIGIN=O A MAMER, MCGILL UNIVERSITY, MONTRE
##OWNER=NIST Mass Spectrometry Data Center
Collection (C) 2014 copyright by the U.S. Secretary of Commerce
on behalf of the United States of America. All rights reserved.
##CAS REGISTRY NO=4325-85-3
##$NIST MASS SPEC NO=79575
##MOLFORM=C9 H27 B O3 Si3
##MW=278
##$NIST SOURCE=MSDC
##XUNITS=M/Z
##YUNITS=RELATIVE INTENSITY
##XFACTOR=1
##YFACTOR=1
##FIRSTX=39
##LASTX=267
##FIRSTY=22
##MAXX=267
##MINX=39
##MAXY=9999
##MINY=14
##NPOINTS=108
##PEAK TABLE=(XY..XY)
39,22 40,30 41,71 42,35
43,192 44,136 45,824 46,61
47,94 51,17 52,31 55,26
56,19 57,58 58,85 59,513
60,49 61,73 66,28 70,23
71,64 72,109 73,9999 74,906
75,850 76,57 77,28 79,14
80,25 81,19 85,110 86,19
87,130 88,33 89,30 95,126
96,53 99,17 100,23 101,93
102,43 103,210 104,36 105,86
108,24 113,32 114,19 115,205
116,163 117,243 118,43 119,148
120,24 129,22 130,17 131,358
132,83 133,1195 134,180 135,95
143,19 145,73 146,19 147,799
148,129 149,119 159,70 160,27
161,85 163,26 172,17 173,44
174,232 175,947 176,176 177,170
178,20 179,18 186,97 189,437
190,125 191,547 192,119 193,103
194,18 205,896 206,215 207,360
208,87 209,39 221,8847 222,2120
223,1183 224,200 225,105 231,19
233,24 235,23 246,26 247,96
248,51 249,20 262,620 263,2664
264,708 265,373 266,64 267,22
##END=
