##TITLE=3-Penten-2-ol, 4-methyl-,
##JCAMP-DX=4.24
##DATA TYPE=MASS SPECTRUM
##ORIGIN=NIST Mass Spectrometry Data Center, 1990.
##OWNER=NIST Mass Spectrometry Data Center
Collection (C) 2014 copyright by the U.S. Secretary of Commerce
on behalf of the United States of America. All rights reserved.
##CAS REGISTRY NO=4325-82-0
##$NIST MASS SPEC NO=114746
##MOLFORM=C6 H12 O
##MW=100
##$NIST SOURCE=MSDC
##XUNITS=M/Z
##YUNITS=RELATIVE INTENSITY
##XFACTOR=1
##YFACTOR=1
##FIRSTX=15
##LASTX=100
##FIRSTY=214
##MAXX=100
##MINX=15
##MAXY=9999
##MINY=2
##NPOINTS=42
##PEAK TABLE=(XY..XY)
15,214 26,210 27,1115 28,287
29,837 31,218 32,2 37,201
38,609 39,3861 40,991 41,4544
42,754 43,3091 44,185 45,629
50,585 51,894 52,340 53,1334
54,1019 55,1364 56,291 57,944
58,310 59,232 62,229 63,368
65,1829 67,9999 68,614 69,203
77,381 79,853 80,164 81,808
82,3176 83,500 84,164 85,7403
86,434 100,647
##END=
