##TITLE=Glycine, N-[N-(trifluoroacetyl)glycyl]-, methyl ester
##JCAMP-DX=4.24
##DATA TYPE=MASS SPECTRUM
##ORIGIN=R RYHAGE MS-LAB KAROLINSKA INSTITUTET STOCKHOLM SWEDEN
##OWNER=NIST Mass Spectrometry Data Center
Collection (C) 2014 copyright by the U.S. Secretary of Commerce
on behalf of the United States of America. All rights reserved.
##CAS REGISTRY NO=433-33-0
##$NIST MASS SPEC NO=43057
##MOLFORM=C7 H9 F3 N2 O4
##MW=242
##$NIST SOURCE=MSDC
##XUNITS=M/Z
##YUNITS=RELATIVE INTENSITY
##XFACTOR=1
##YFACTOR=1
##FIRSTX=14
##LASTX=244
##FIRSTY=20
##MAXX=244
##MINX=14
##MAXY=9999
##MINY=6
##NPOINTS=146
##PEAK TABLE=(XY..XY)
14,20 15,260 18,60 27,50
28,660 29,370 30,5600 31,190
32,20 33,130 38,10 39,30
40,70 41,710 42,450 43,1460
44,360 45,100 49,90 50,80
51,10 52,10 53,40 54,70
55,3920 56,330 57,2200 58,730
59,110 60,20 61,20 63,60
64,10 66,10 67,20 68,2710
69,70 70,190 71,210 72,140
73,190 74,10 75,30 76,20
77,1120 78,180 80,10 81,10
82,50 83,130 84,380 85,50
86,40 87,6150 88,330 89,560
90,90 91,20 94,10 95,70
96,460 97,170 98,70 99,340
100,60 101,380 102,40 103,30
104,20 105,190 106,120 107,20
108,30 109,40 110,20 111,20
112,620 113,160 114,40 115,9999
116,510 117,90 118,70 119,20
123,30 124,110 125,6150 126,9110
127,490 128,110 129,300 130,90
131,20 134,60 136,20 137,20
138,20 139,210 140,490 141,40
142,10 146,40 148,20 152,6
153,320 154,60 155,20 156,210
157,30 161,40 162,130 163,20
164,40 165,30 166,20 167,70
168,10 170,20 171,10 172,450
173,40 174,110 175,10 183,2010
184,180 185,20 186,20 191,20
193,10 194,80 195,20 196,90
197,20 210,530 211,1350 212,110
213,20 222,60 223,30 224,220
225,20 232,10 241,300 242,4280
243,410 244,60
##END=
