##TITLE=Ethanol, 2,2,2-trifluoro-, 4-methylbenzenesulfonate
##JCAMP-DX=4.24
##DATA TYPE=MASS SPECTRUM
##ORIGIN=Japan AIST/NIMC Database- Spectrum MS-IW- 763
##OWNER=NIST Mass Spectrometry Data Center
Collection (C) 2014 copyright by the U.S. Secretary of Commerce
on behalf of the United States of America. All rights reserved.
##CAS REGISTRY NO=433-06-7
##$NIST MASS SPEC NO=239451
##MOLFORM=C9 H9 F3 O3 S
##MW=254
##$NIST SOURCE=MSDC
##XUNITS=M/Z
##YUNITS=RELATIVE INTENSITY
##XFACTOR=1
##YFACTOR=1
##FIRSTX=18
##LASTX=257
##FIRSTY=10
##MAXX=257
##MINX=18
##MAXY=9999
##MINY=10
##NPOINTS=68
##PEAK TABLE=(XY..XY)
18,10 20,10 27,50 28,169
29,40 30,10 31,10 32,10
33,50 37,10 38,50 39,519
40,40 41,159 43,10 44,30
45,30 48,10 50,139 51,239
52,70 53,40 61,20 62,99
63,379 64,129 65,1579 66,90
67,20 69,60 74,30 75,30
76,20 77,209 78,60 79,139
80,10 83,199 85,10 86,20
87,20 88,10 89,419 90,219
91,9999 92,809 93,30 106,10
107,329 108,30 109,10 111,10
121,10 139,119 140,10 147,30
154,10 155,7019 156,599 157,359
158,20 189,20 235,10 253,10
254,2859 255,319 256,159 257,10
##END=
