##TITLE=Benzene, 1,2-bis(trifluoromethyl)-
##JCAMP-DX=4.24
##DATA TYPE=MASS SPECTRUM
##OWNER=NIST Mass Spectrometry Data Center
Collection (C) 2014 copyright by the U.S. Secretary of Commerce
on behalf of the United States of America. All rights reserved.
##CAS REGISTRY NO=433-95-4
##$NIST MASS SPEC NO=10015
##MOLFORM=C8 H4 F6
##MW=214
##$NIST SOURCE=MSDC
##XUNITS=M/Z
##YUNITS=RELATIVE INTENSITY
##XFACTOR=1
##YFACTOR=1
##FIRSTX=50
##LASTX=215
##FIRSTY=2550
##MAXX=215
##MINX=50
##MAXY=9999
##MINY=580
##NPOINTS=19
##PEAK TABLE=(XY..XY)
50,2550 51,869 69,3188 74,2029
75,2608 76,580 97,1159 100,869
125,1304 127,869 144,580 145,9999
146,725 164,2464 195,8260 196,725
213,725 214,9274 215,725
##END=
