##TITLE=Cyclopropyl bromide
##JCAMP-DX=4.24
##DATA TYPE=MASS SPECTRUM
##ORIGIN=Japan AIST/NIMC Database- Spectrum MS-NW-9253
##OWNER=NIST Mass Spectrometry Data Center
Collection (C) 2014 copyright by the U.S. Secretary of Commerce
on behalf of the United States of America. All rights reserved.
##CAS REGISTRY NO=4333-56-6
##$NIST MASS SPEC NO=233338
##MOLFORM=C3 H5 Br
##MW=120
##$NIST SOURCE=MSDC
##XUNITS=M/Z
##YUNITS=RELATIVE INTENSITY
##XFACTOR=1
##YFACTOR=1
##FIRSTX=13
##LASTX=123
##FIRSTY=10
##MAXX=123
##MINX=13
##MAXY=9999
##MINY=10
##NPOINTS=48
##PEAK TABLE=(XY..XY)
13,10 14,30 15,80 25,30
26,209 27,229 28,30 36,40
37,319 38,509 39,3149 40,249
41,9999 42,429 43,10 47,10
48,10 49,10 58,10 59,30
60,20 61,10 79,109 80,80
81,109 82,90 83,99 85,70
87,10 91,40 92,50 93,129
94,60 95,109 96,10 97,30
99,10 104,20 105,50 106,30
107,40 117,30 118,10 119,60
120,1949 121,99 122,1899 123,60
##END=
