##TITLE=1-Hexyn-3-ol, 3-methyl-
##JCAMP-DX=4.24
##DATA TYPE=MASS SPECTRUM
##ORIGIN=NIST Mass Spectrometry Data Center, 1990.
##OWNER=NIST Mass Spectrometry Data Center
Collection (C) 2014 copyright by the U.S. Secretary of Commerce
on behalf of the United States of America. All rights reserved.
##CAS REGISTRY NO=4339-05-3
##$NIST MASS SPEC NO=114510
##MOLFORM=C7 H12 O
##MW=112
##$NIST SOURCE=MSDC
##XUNITS=M/Z
##YUNITS=RELATIVE INTENSITY
##XFACTOR=1
##YFACTOR=1
##FIRSTX=26
##LASTX=98
##FIRSTY=143
##MAXX=98
##MINX=26
##MAXY=9999
##MINY=76
##NPOINTS=40
##PEAK TABLE=(XY..XY)
26,143 27,623 28,1098 29,295
31,76 32,339 38,214 39,1205
40,342 41,1151 42,421 43,3447
44,120 45,171 50,422 51,593
52,200 53,893 54,121 55,964
56,100 57,112 62,91 63,155
65,212 66,184 67,300 68,91
69,9999 70,590 71,148 77,574
78,93 79,451 83,112 84,689
91,98 93,85 97,1778 98,105
##END=
