##TITLE=Anthralic acid, 6-fluoro-
##JCAMP-DX=4.24
##DATA TYPE=MASS SPECTRUM
##ORIGIN=NIST Mass Spectrometry Data Center, 1994
##OWNER=NIST Mass Spectrometry Data Center
Collection (C) 2014 copyright by the U.S. Secretary of Commerce
on behalf of the United States of America. All rights reserved.
##CAS REGISTRY NO=434-76-4
##$NIST MASS SPEC NO=136794
##MOLFORM=C7 H6 F N O2
##MW=155
##$NIST SOURCE=MSDC
##XUNITS=M/Z
##YUNITS=RELATIVE INTENSITY
##XFACTOR=1
##YFACTOR=1
##FIRSTX=15
##LASTX=157
##FIRSTY=78
##MAXX=157
##MINX=15
##MAXY=9999
##MINY=26
##NPOINTS=75
##PEAK TABLE=(XY..XY)
15,78 17,57 18,77 19,104
26,198 27,153 28,757 29,272
30,57 31,575 33,76 36,114
37,347 38,584 39,726 40,75
41,180 42,70 44,280 45,663
49,177 50,265 51,438 52,622
53,247 54,70 55,518 56,401
57,1469 58,173 59,152 60,107
61,486 62,750 63,1410 64,339
65,317 66,88 69,389 70,386
71,249 72,137 73,26 74,126
75,198 76,205 78,194 79,147
80,196 81,917 82,1903 83,1700
84,399 85,103 88,153 89,575
90,1198 91,132 92,91 94,254
95,76 106,30 107,103 108,410
109,1296 110,9799 111,741 112,107
135,83 137,9999 138,1168 139,132
155,5455 156,484 157,72
##END=
