##TITLE=Ethanone, 2,2,2-trifluoro-1-phenyl-
##JCAMP-DX=4.24
##DATA TYPE=MASS SPECTRUM
##ORIGIN=Japan AIST/NIMC Database- Spectrum MS-NW-2205
##OWNER=NIST Mass Spectrometry Data Center
Collection (C) 2014 copyright by the U.S. Secretary of Commerce
on behalf of the United States of America. All rights reserved.
##CAS REGISTRY NO=434-45-7
##$NIST MASS SPEC NO=234091
##MOLFORM=C8 H5 F3 O
##MW=174
##$NIST SOURCE=MSDC
##XUNITS=M/Z
##YUNITS=RELATIVE INTENSITY
##XFACTOR=1
##YFACTOR=1
##FIRSTX=25
##LASTX=175
##FIRSTY=10
##MAXX=175
##MINX=25
##MAXY=9999
##MINY=10
##NPOINTS=63
##PEAK TABLE=(XY..XY)
25,10 26,50 27,249 28,50
29,10 31,50 32,10 36,20
37,159 38,279 39,199 40,20
41,20 43,40 44,10 45,60
48,10 49,119 50,1229 51,3089
52,229 53,70 55,10 57,20
58,10 60,10 61,60 62,70
63,50 65,20 66,20 68,10
69,359 73,80 74,409 75,299
76,339 77,8489 78,599 79,30
80,10 81,10 85,20 86,10
87,10 89,10 91,40 94,70
95,99 96,10 99,20 103,60
104,149 105,9999 106,779 107,70
115,20 117,70 118,60 123,50
125,10 174,769 175,70
##END=
