##TITLE=Ethisterone
##JCAMP-DX=4.24
##DATA TYPE=MASS SPECTRUM
##ORIGIN=NIST Mass Spectrometry Data Center, 2012
##OWNER=NIST Mass Spectrometry Data Center
Collection (C) 2014 copyright by the U.S. Secretary of Commerce
on behalf of the United States of America. All rights reserved.
##CAS REGISTRY NO=434-03-7
##$NIST MASS SPEC NO=394570
##MOLFORM=C21 H28 O2
##MW=312
##$NIST SOURCE=MSDC
##XUNITS=M/Z
##YUNITS=RELATIVE INTENSITY
##XFACTOR=1
##YFACTOR=1
##FIRSTX=15
##LASTX=315
##FIRSTY=30
##MAXX=315
##MINX=15
##MAXY=9999
##MINY=10
##NPOINTS=273
##PEAK TABLE=(XY..XY)
15,30 17,10 24,40 25,160
26,741 27,911 28,470 29,1221
30,30 31,70 37,30 38,70
39,2522 40,861 41,5125 42,520
43,2222 44,90 45,90 46,10
47,10 49,10 50,130 51,891
52,571 53,5195 54,781 55,5825
56,310 57,310 58,60 59,40
60,20 61,10 62,40 63,280
64,260 65,2202 66,831 67,4864
68,2022 69,1051 70,100 71,160
72,60 73,40 74,30 75,50
76,110 77,6055 78,1441 79,8047
80,1201 81,4244 82,581 83,801
84,90 85,160 86,190 87,310
88,10 89,250 90,170 91,9999
92,1581 93,4874 94,1311 95,3433
96,831 97,2182 98,200 99,190
100,70 101,180 102,210 103,1211
104,671 105,6566 106,2022 107,5345
108,1892 109,3793 110,1021 111,871
112,80 113,160 114,80 115,2092
116,781 117,2873 118,1061 119,4294
120,2312 121,6015 122,3683 123,4314
124,9268 125,1071 126,120 127,490
128,1451 129,1932 130,731 131,3223
132,1091 133,3463 134,2112 135,2783
136,1992 137,2202 138,550 139,150
140,30 141,881 142,691 143,1561
144,841 145,2562 146,1251 147,2762
148,4224 149,3233 150,981 151,250
152,220 153,310 154,220 155,961
156,500 157,1221 158,591 159,2222
160,1101 161,2352 162,1221 163,1431
164,320 165,270 166,100 167,230
168,150 169,641 170,540 171,1371
172,631 173,1682 174,1091 175,1111
176,641 177,671 178,230 179,150
180,60 181,290 182,150 183,611
184,430 185,931 186,500 187,1922
188,1091 189,2262 190,601 191,260
192,130 193,120 194,70 195,270
196,150 197,450 198,340 199,550
200,611 201,1181 202,661 203,380
204,110 205,70 206,30 207,90
208,70 209,350 210,150 211,841
212,260 213,821 214,330 215,460
216,240 217,290 218,60 219,70
220,30 221,70 222,70 223,280
224,160 225,300 226,460 227,1321
228,390 229,2562 230,530 231,320
232,100 233,70 234,40 235,130
236,60 237,420 238,200 239,230
240,150 241,220 242,1061 243,360
244,1011 245,2813 246,490 247,80
248,30 249,40 250,80 251,340
252,260 253,170 254,50 255,300
256,120 257,90 258,100 259,20
260,10 261,140 262,40 263,10
264,20 265,130 266,160 267,70
268,100 269,350 270,761 271,290
272,40 275,20 276,40 277,90
278,20 279,1001 280,230 281,40
282,10 283,280 284,300 285,70
286,1321 287,290 288,30 292,10
293,50 294,220 295,190 296,50
297,2462 298,550 299,70 300,10
311,40 312,4154 313,951 314,120
315,20
##END=
