##TITLE=Oxymetholone
##JCAMP-DX=4.24
##DATA TYPE=MASS SPECTRUM
##ORIGIN=NIST Mass Spectrometry Data Center, 1998.
##OWNER=NIST Mass Spectrometry Data Center
Collection (C) 2014 copyright by the U.S. Secretary of Commerce
on behalf of the United States of America. All rights reserved.
##CAS REGISTRY NO=434-07-1
##$NIST MASS SPEC NO=290940
##MOLFORM=C21 H32 O3
##MW=332
##$NIST SOURCE=MSDC
##XUNITS=M/Z
##YUNITS=RELATIVE INTENSITY
##XFACTOR=1
##YFACTOR=1
##FIRSTX=15
##LASTX=334
##FIRSTY=30
##MAXX=334
##MINX=15
##MAXY=9999
##MINY=10
##NPOINTS=260
##PEAK TABLE=(XY..XY)
15,30 26,20 27,470 29,1100
30,30 31,140 36,10 38,10
39,960 40,250 41,4420 42,460
43,9999 44,260 45,420 50,40
51,230 52,200 53,2100 54,440
55,6339 56,1500 57,2020 58,1210
59,420 60,20 61,10 62,20
63,90 64,30 65,1140 66,410
67,4310 68,830 69,2300 70,790
71,5289 72,910 73,80 74,30
75,30 76,30 77,3020 78,640
79,5369 80,1100 81,5029 82,640
83,2440 84,660 85,1560 86,120
87,100 88,40 89,90 90,70
91,5679 92,1020 93,4640 94,1390
95,4460 96,530 97,1060 98,430
99,450 100,990 101,260 102,100
103,500 104,300 105,4890 106,1970
107,4980 108,3020 109,4150 110,580
111,1120 112,150 113,170 114,80
115,710 116,390 117,1110 118,790
119,2850 120,1450 121,3250 122,1210
123,3560 124,630 125,770 126,150
127,200 128,460 129,580 130,260
131,1530 132,550 133,2120 134,1650
135,2290 136,1370 137,2260 138,620
139,950 140,130 141,290 142,210
143,620 144,290 145,1960 146,710
147,3190 148,1210 149,1830 150,3110
151,1440 152,890 153,340 154,90
155,200 156,130 157,750 158,520
159,3700 160,1470 161,4800 162,2550
163,2840 164,780 165,510 166,130
167,80 168,40 169,220 170,120
171,420 172,1690 173,1200 174,7429
175,3070 176,5509 177,1250 178,220
179,210 180,30 181,60 182,40
183,200 184,100 185,290 186,240
187,640 188,350 189,540 190,480
191,610 192,140 193,100 194,40
195,90 196,30 197,170 198,80
199,920 200,260 201,1060 202,240
203,220 204,100 205,240 206,330
207,80 209,80 210,20 211,180
212,140 213,400 214,2130 215,2070
216,3170 217,860 218,150 219,150
220,40 221,30 223,80 224,30
225,260 226,90 227,250 228,210
229,210 230,170 231,230 232,610
233,260 234,920 235,170 236,30
237,20 238,190 239,140 240,20
241,270 242,60 243,370 244,170
245,260 246,190 247,150 248,80
249,30 253,50 254,40 255,30
256,420 257,350 258,240 259,900
260,200 261,1150 262,570 263,120
264,10 267,20 268,10 269,10
271,80 272,560 273,130 274,3580
275,4390 276,780 277,80 278,20
281,160 282,30 283,10 285,60
286,30 289,30 296,170 297,50
299,810 300,170 301,10 303,70
304,390 305,70 313,40 314,800
315,200 316,20 317,320 318,60
331,40 332,4570 333,1030 334,140
##END=
