##TITLE=Cholesta-5,7-dien-3-ol, (3.beta.)-
##JCAMP-DX=4.24
##DATA TYPE=MASS SPECTRUM
##ORIGIN=CARL DJERASSI DEPT OF CHEM STANFORD UNIV STANFORD CALIF 94305
##OWNER=NIST Mass Spectrometry Data Center
Collection (C) 2014 copyright by the U.S. Secretary of Commerce
on behalf of the United States of America. All rights reserved.
##CAS REGISTRY NO=434-16-2
##$NIST MASS SPEC NO=48610
##MOLFORM=C27 H44 O
##MW=384
##$NIST SOURCE=MSDC
##XUNITS=M/Z
##YUNITS=RELATIVE INTENSITY
##XFACTOR=1
##YFACTOR=1
##FIRSTX=41
##LASTX=387
##FIRSTY=4200
##MAXX=387
##MINX=41
##MAXY=9999
##MINY=100
##NPOINTS=193
##PEAK TABLE=(XY..XY)
41,4200 42,300 43,6200 44,200
53,600 54,100 55,5300 56,400
57,3700 58,200 59,100 65,300
66,100 67,1700 68,200 69,3500
70,200 71,1600 77,700 78,100
79,1400 80,200 81,3300 82,400
83,2700 84,100 85,300 91,2100
92,400 93,1700 94,300 95,2600
96,200 97,800 103,200 104,200
105,2400 106,400 107,1700 108,300
109,1300 110,200 111,500 115,600
116,400 117,1200 118,1500 119,3200
120,500 121,700 122,300 123,500
124,200 125,100 127,200 128,1200
129,1400 130,500 131,1900 132,600
133,1200 134,400 135,600 136,100
137,100 141,900 142,800 143,4400
144,1300 145,4500 146,800 147,800
148,100 149,200 150,100 151,200
152,100 153,200 154,200 155,1100
156,600 157,2800 158,2700 159,2800
160,900 161,700 162,200 163,300
164,500 165,300 166,100 167,400
168,300 169,1200 170,700 171,2300
172,700 173,700 174,200 175,600
176,500 177,500 178,200 179,100
180,100 181,400 182,300 183,1500
184,500 185,1500 186,700 187,300
188,400 189,200 193,100 194,100
195,400 196,300 197,1600 198,600
199,1900 200,400 201,300 202,100
209,300 210,100 211,2000 212,600
213,800 214,200 215,200 216,100
217,700 218,200 219,100 223,200
224,100 225,400 226,500 227,600
228,200 229,500 230,400 231,200
232,100 237,400 238,200 239,400
240,200 241,200 242,100 243,100
244,200 245,300 246,200 247,300
253,1800 254,400 255,300 256,200
257,200 258,100 269,100 270,100
271,1200 272,300 273,100 299,200
309,200 310,100 311,400 312,200
325,4700 326,1600 327,400 349,200
351,9999 352,3100 353,500 364,200
365,300 366,1200 367,500 368,300
369,1000 370,400 371,200 382,400
383,200 384,9100 385,2800 386,800
387,200
##END=
