##TITLE=Benzene, pentafluoro(trifluoromethyl)-
##JCAMP-DX=4.24
##DATA TYPE=MASS SPECTRUM
##ORIGIN=NIST Mass Spectrometry Data Center, 1990.
##OWNER=NIST Mass Spectrometry Data Center
Collection (C) 2014 copyright by the U.S. Secretary of Commerce
on behalf of the United States of America. All rights reserved.
##CAS REGISTRY NO=434-64-0
##$NIST MASS SPEC NO=118516
##MOLFORM=C7 F8
##MW=236
##$NIST SOURCE=MSDC
##XUNITS=M/Z
##YUNITS=RELATIVE INTENSITY
##XFACTOR=1
##YFACTOR=1
##FIRSTX=12
##LASTX=238
##FIRSTY=10
##MAXX=238
##MINX=12
##MAXY=9999
##MINY=10
##NPOINTS=60
##PEAK TABLE=(XY..XY)
12,10 19,30 31,1534 36,41
48,23 50,90 55,207 60,46
62,27 67,46 69,2717 70,35
74,446 75,17 79,1021 80,70
86,272 87,16 91,39 93,1457
94,45 98,1251 99,66 103,27
105,100 108,355 110,243 111,17
117,4124 118,269 122,39 124,122
129,309 130,24 131,30 136,171
137,10 141,81 143,30 148,780
149,60 155,174 160,15 167,1449
168,101 179,236 180,20 186,6008
187,389 198,41 205,12 213,13
214,22 215,22 217,9999 218,723
219,22 236,6140 237,484 238,20
##END=
