##TITLE=Lithocholic acid
##JCAMP-DX=4.24
##DATA TYPE=MASS SPECTRUM
##ORIGIN=Chemical Sci. & Tec. Lab., NIST, Gaithersburg, MD 20899
##OWNER=NIST Mass Spectrometry Data Center
Collection (C) 2014 copyright by the U.S. Secretary of Commerce
on behalf of the United States of America. All rights reserved.
##CAS REGISTRY NO=434-13-9
##$NIST MASS SPEC NO=256445
##MOLFORM=C24 H40 O3
##MW=376
##$NIST SOURCE=MSDC
##XUNITS=M/Z
##YUNITS=RELATIVE INTENSITY
##XFACTOR=1
##YFACTOR=1
##FIRSTX=41
##LASTX=377
##FIRSTY=6024
##MAXX=377
##MINX=41
##MAXY=9999
##MINY=16
##NPOINTS=182
##PEAK TABLE=(XY..XY)
41,6024 42,408 43,3909 44,254
45,626 47,52 49,219 51,112
52,34 53,1404 54,444 55,9999
56,603 57,1644 58,141 59,916
60,903 61,38 65,544 66,294
67,6330 68,2011 69,3180 70,425
71,487 72,36 73,397 74,138
77,1509 78,348 79,5066 80,1102
81,6982 82,1307 83,2102 84,305
85,627 86,121 87,119 88,75
91,3389 92,842 93,5137 94,2288
95,5443 96,666 97,871 98,111
99,192 100,67 101,366 102,67
103,146 104,204 105,3634 106,2156
107,4434 108,1957 109,2502 110,447
111,488 112,70 113,63 114,61
115,223 116,82 117,520 118,372
119,2092 120,1460 121,2523 122,1358
123,1179 124,487 125,205 126,35
127,192 128,177 129,172 130,90
131,702 132,256 133,1702 134,1057
135,1939 136,575 137,329 138,100
139,64 140,326 141,111 142,59
143,134 144,81 145,1356 146,372
147,1822 148,924 149,2064 150,393
151,312 152,38 153,67 157,100
158,58 159,915 160,586 161,1559
162,1205 163,445 164,97 165,2046
166,599 167,187 171,81 173,701
174,559 175,1093 176,640 177,200
178,84 179,34 181,66 185,63
187,403 188,312 189,285 190,70
191,84 193,37 194,34 195,68
196,33 199,98 201,710 202,231
203,290 204,61 213,69 215,5056
216,1967 217,1130 218,520 219,169
229,273 230,1143 231,259 232,109
233,398 234,211 235,82 243,16
248,642 249,196 250,104 257,342
258,74 262,83 263,78 264,36
275,54 276,17 285,69 301,18
302,64 303,220 304,461 305,96
316,145 317,94 325,107 341,17
343,947 344,232 345,153 358,5198
359,1361 360,402 361,103 375,18
376,616 377,161
##END=
