##TITLE=1,1'-Biphenyl, 2,2',3,3',4,4',5,5',6,6'-decafluoro-
##JCAMP-DX=4.24
##DATA TYPE=MASS SPECTRUM
##ORIGIN=Japan AIST/NIMC Database- Spectrum MS-NW-2810
##OWNER=NIST Mass Spectrometry Data Center
Collection (C) 2014 copyright by the U.S. Secretary of Commerce
on behalf of the United States of America. All rights reserved.
##CAS REGISTRY NO=434-90-2
##$NIST MASS SPEC NO=234317
##MOLFORM=C12 F10
##MW=334
##$NIST SOURCE=MSDC
##XUNITS=M/Z
##YUNITS=RELATIVE INTENSITY
##XFACTOR=1
##YFACTOR=1
##FIRSTX=31
##LASTX=336
##FIRSTY=339
##MAXX=336
##MINX=31
##MAXY=9999
##MINY=10
##NPOINTS=89
##PEAK TABLE=(XY..XY)
31,339 55,30 69,129 74,80
79,119 84,20 86,40 91,10
93,459 94,10 98,139 103,90
105,20 110,80 115,10 117,409
118,10 122,119 123,20 124,139
127,50 129,50 131,10 132,149
133,20 134,90 139,10 141,279
142,50 146,109 147,10 148,159
153,70 155,20 158,40 160,90
165,289 166,30 167,479 170,10
172,80 177,60 179,129 184,70
186,40 189,30 191,50 196,169
197,20 203,289 204,20 208,20
210,90 211,10 215,219 216,20
217,20 222,70 227,189 228,20
234,729 235,90 241,249 242,30
246,189 247,30 253,189 254,20
258,40 265,2769 266,349 267,20
272,149 273,10 277,40 278,10
284,309 285,40 296,759 297,109
298,10 303,179 304,20 315,829
316,119 333,10 334,9999 335,1309
336,80
##END=
