##TITLE=Diazene, (4-chlorophenyl)phenyl-
##JCAMP-DX=4.24
##DATA TYPE=MASS SPECTRUM
##OWNER=NIST Mass Spectrometry Data Center
Collection (C) 2014 copyright by the U.S. Secretary of Commerce
on behalf of the United States of America. All rights reserved.
##CAS REGISTRY NO=4340-77-6
##$NIST MASS SPEC NO=10101
##MOLFORM=C12 H9 Cl N2
##MW=216
##$NIST SOURCE=MSDC
##XUNITS=M/Z
##YUNITS=RELATIVE INTENSITY
##XFACTOR=1
##YFACTOR=1
##FIRSTX=37
##LASTX=219
##FIRSTY=300
##MAXX=219
##MINX=37
##MAXY=9999
##MINY=100
##NPOINTS=48
##PEAK TABLE=(XY..XY)
37,300 38,500 39,781 50,2292
51,3523 52,400 61,430 62,530
63,1081 64,751 65,180 73,280
74,881 75,3773 76,801 77,9999
78,831 84,130 85,651 86,130
87,250 88,100 89,150 90,300
91,200 105,300 106,230 111,7497
112,380 113,3443 114,150 125,230
126,250 139,2742 140,100 141,701
142,100 150,180 151,430 152,1812
153,300 162,130 188,400 190,150
216,4474 217,300 218,1531 219,100
##END=
