##TITLE=2-Eicosanol
##JCAMP-DX=4.24
##DATA TYPE=MASS SPECTRUM
##ORIGIN=R RYHAGE MS-LAB KAROLINSKA INSTITUTET STOCKHOLM SWEDEN
##OWNER=NIST Mass Spectrometry Data Center
Collection (C) 2014 copyright by the U.S. Secretary of Commerce
on behalf of the United States of America. All rights reserved.
##CAS REGISTRY NO=4340-76-5
##$NIST MASS SPEC NO=42458
##MOLFORM=C20 H42 O
##MW=298
##$NIST SOURCE=MSDC
##XUNITS=M/Z
##YUNITS=RELATIVE INTENSITY
##XFACTOR=1
##YFACTOR=1
##FIRSTX=15
##LASTX=303
##FIRSTY=26
##MAXX=303
##MINX=15
##MAXY=9999
##MINY=1
##NPOINTS=263
##PEAK TABLE=(XY..XY)
15,26 16,11 17,78 18,399
19,52 26,32 27,448 28,172
29,1400 30,45 31,156 32,13
33,19 37,13 38,13 39,357
40,94 41,4250 42,965 43,7550
44,913 45,9999 46,448 47,52
48,44 51,26 52,23 53,277
54,700 55,5740 56,2512 57,8175
58,1654 59,1177 60,52 61,13
62,19 63,19 64,13 65,74
66,88 67,1185 68,749 69,4865
70,2366 71,5060 72,328 73,55
74,83 75,23 76,36 77,58
78,23 79,149 80,71 81,864
82,1880 83,4690 84,1693 85,2933
86,204 87,102 88,28 91,47
92,16 93,76 94,54 95,691
96,1400 97,5500 98,1410 99,1060
100,117 101,45 102,10 103,6
104,55 105,42 106,13 107,36
108,26 109,331 110,696 111,3470
112,1167 113,720 114,100 115,29
116,13 117,16 118,10 119,19
120,13 121,45 122,39 123,159
124,506 125,1945 126,769 127,555
128,62 129,39 130,16 131,13
132,10 133,16 134,10 135,31
136,28 137,128 138,436 139,1297
140,749 141,412 142,55 143,32
144,10 145,13 146,6 147,16
148,13 149,526 150,58 151,65
152,357 153,848 154,642 155,350
156,58 157,23 158,6 159,11
160,13 161,13 162,8 163,16
164,10 165,39 166,289 167,681
168,584 169,289 170,45 171,19
172,6 173,10 174,10 175,10
176,11 177,16 178,13 179,23
180,290 181,487 182,457 183,266
184,43 185,23 186,13 187,8
189,10 191,15 192,13 193,21
194,211 195,384 196,409 197,224
198,59 199,97 200,123 201,78
202,165 203,10 204,36 205,39
206,13 207,24 208,159 209,308
210,348 211,162 212,28 213,16
214,6 215,6 216,6 217,6
218,8 219,10 220,10 221,13
222,118 223,237 224,275 225,10
226,24 227,23 228,13 229,10
230,6 231,8 232,6 233,10
234,10 235,13 236,183 237,183
238,473 239,138 240,39 241,16
242,6 245,6 246,6 247,1
248,10 249,15 250,42 251,10
252,1138 253,287 254,285 255,62
256,21 257,10 261,10 262,10
263,15 264,26 265,26 266,39
267,16 268,16 269,13 270,6
274,6 275,10 276,10 277,11
278,127 279,37 280,2918 281,790
282,107 283,864 284,182 285,24
286,6 287,6 291,10 292,10
293,10 294,18 295,20 296,485
297,213 298,55 299,16 300,10
301,10 302,6 303,10
##END=
