##TITLE=Ethyl 2-butynoate
##JCAMP-DX=4.24
##DATA TYPE=MASS SPECTRUM
##ORIGIN=NIST Mass Spectrometry Data Center, 1990.
##OWNER=NIST Mass Spectrometry Data Center
Collection (C) 2014 copyright by the U.S. Secretary of Commerce
on behalf of the United States of America. All rights reserved.
##CAS REGISTRY NO=4341-76-8
##$NIST MASS SPEC NO=114901
##MOLFORM=C6 H8 O2
##MW=112
##$NIST SOURCE=MSDC
##XUNITS=M/Z
##YUNITS=RELATIVE INTENSITY
##XFACTOR=1
##YFACTOR=1
##FIRSTX=14
##LASTX=111
##FIRSTY=28
##MAXX=111
##MINX=14
##MAXY=9999
##MINY=28
##NPOINTS=33
##PEAK TABLE=(XY..XY)
14,28 15,75 26,179 27,514
28,33 29,461 36,84 37,527
38,815 39,1745 40,244 41,120
42,85 43,282 44,63 45,320
53,168 54,120 55,262 56,266
65,120 66,1206 67,9999 68,1094
69,1570 70,93 82,448 83,481
84,149 85,199 94,295 97,256
111,230
##END=
