##TITLE=Butanoic acid, phenyl ester
##JCAMP-DX=4.24
##DATA TYPE=MASS SPECTRUM
##ORIGIN=V.Zaikin,Inst.Petrochem.Synth.,RAS,Moscow
##OWNER=NIST Mass Spectrometry Data Center
Collection (C) 2014 copyright by the U.S. Secretary of Commerce
on behalf of the United States of America. All rights reserved.
##CAS REGISTRY NO=4346-18-3
##$NIST MASS SPEC NO=293678
##MOLFORM=C10 H12 O2
##MW=164
##$NIST SOURCE=MSDC
##XUNITS=M/Z
##YUNITS=RELATIVE INTENSITY
##XFACTOR=1
##YFACTOR=1
##FIRSTX=25
##LASTX=165
##FIRSTY=30
##MAXX=165
##MINX=25
##MAXY=9999
##MINY=10
##NPOINTS=46
##PEAK TABLE=(XY..XY)
25,30 26,340 27,1581 28,30
29,270 39,2672 40,490 41,1862
42,520 43,9128 44,160 50,90
51,150 54,50 55,1031 56,30
61,60 62,130 63,370 64,190
65,1321 66,591 67,20 70,320
71,5785 72,280 73,50 77,881
78,270 79,60 80,70 81,30
82,40 83,20 91,70 92,20
93,160 94,9999 95,1031 96,50
105,80 106,10 121,70 122,10
164,1411 165,160
##END=
