##TITLE=Butanoic acid, 1H-indol-3-yl ester
##JCAMP-DX=4.24
##DATA TYPE=MASS SPECTRUM
##ORIGIN=NIST Mass Spectrometry Data Center, 1994
##OWNER=NIST Mass Spectrometry Data Center
Collection (C) 2014 copyright by the U.S. Secretary of Commerce
on behalf of the United States of America. All rights reserved.
##CAS REGISTRY NO=4346-15-0
##$NIST MASS SPEC NO=136700
##MOLFORM=C12 H13 N O2
##MW=203
##$NIST SOURCE=MSDC
##XUNITS=M/Z
##YUNITS=RELATIVE INTENSITY
##XFACTOR=1
##YFACTOR=1
##FIRSTX=15
##LASTX=204
##FIRSTY=45
##MAXX=204
##MINX=15
##MAXY=9999
##MINY=16
##NPOINTS=49
##PEAK TABLE=(XY..XY)
15,45 18,37 26,21 27,764
37,43 38,79 39,450 40,64
41,796 42,195 43,2026 44,47
49,22 50,635 51,989 52,126
53,26 55,91 61,17 62,61
63,89 64,31 65,26 69,44
71,641 72,32 75,193 76,599
77,2000 78,470 79,40 88,18
89,102 90,27 102,44 103,147
104,1336 105,798 106,94 116,68
117,46 130,16 132,1262 133,9999
134,942 135,54 160,16 203,843
204,114
##END=
