##TITLE=Phenprocoumon
##JCAMP-DX=4.24
##DATA TYPE=MASS SPECTRUM
##ORIGIN=Humboldt-Universitat zu Berlin, Department of Chemistry, Analytical Group
##OWNER=NIST Mass Spectrometry Data Center
Collection (C) 2014 copyright by the U.S. Secretary of Commerce
on behalf of the United States of America. All rights reserved.
##CAS REGISTRY NO=435-97-2
##$NIST MASS SPEC NO=286539
##MOLFORM=C18 H16 O3
##MW=280
##$NIST SOURCE=MSDC
##XUNITS=M/Z
##YUNITS=RELATIVE INTENSITY
##XFACTOR=1
##YFACTOR=1
##FIRSTX=12
##LASTX=285
##FIRSTY=20
##MAXX=285
##MINX=12
##MAXY=9999
##MINY=5
##NPOINTS=206
##PEAK TABLE=(XY..XY)
12,20 14,28 15,93 16,50
17,195 18,601 26,95 27,1207
28,363 29,1167 30,43 31,33
37,40 38,238 39,1984 40,148
41,1323 42,140 43,366 44,283
45,115 50,581 51,1713 52,406
53,809 54,85 55,276 56,65
57,103 58,23 59,20 60,90
61,58 62,220 63,1147 64,894
65,2775 66,238 67,170 68,38
69,296 70,68 71,58 73,80
74,208 75,461 76,859 77,2735
78,594 79,268 80,33 81,90
82,178 83,148 84,53 85,38
86,58 87,115 88,173 89,606
91,6492 92,2164 93,1889 94,215
95,108 96,33 97,78 98,55
99,55 100,40 101,363 102,1175
103,2129 104,451 105,862 106,150
107,180 108,53 109,48 110,28
111,70 112,53 113,90 114,78
115,1438 116,418 117,1187 118,3767
119,1989 120,984 121,6372 122,506
123,70 125,1062 126,726 127,296
128,423 129,676 130,185 131,2885
132,373 133,108 134,25 137,28
138,23 139,175 140,30 141,88
142,23 143,73 144,83 145,411
146,63 147,93 148,18 149,70
150,80 151,140 152,406 153,110
154,30 155,441 156,63 157,343
158,83 159,1152 160,168 161,43
163,1813 164,245 165,664 166,165
167,301 168,65 169,13 171,43
173,2204 174,276 175,398 176,493
177,178 178,461 179,148 180,25
181,58 183,684 184,115 185,53
187,812 188,208 189,3346 190,416
191,75 192,20 193,18 194,53
195,75 196,15 197,18 199,10
200,13 201,70 202,195 203,133
204,25 205,223 206,55 207,55
208,18 209,20 215,15 218,23
219,25 220,18 221,108 223,859
224,148 225,20 231,10 233,193
234,63 235,65 236,23 237,40
238,8 239,55 240,10 247,35
249,225 251,9999 252,1929 253,255
254,23 261,10 262,5 263,43
265,1718 266,316 267,40 277,5
278,10 280,4438 281,869 282,113
283,10 285,8
##END=
