##TITLE=2-(para-Chlorobenzyl)-pyridine
##JCAMP-DX=4.24
##DATA TYPE=MASS SPECTRUM
##ORIGIN=NIST Mass Spectrometry Data Center, 2009
##OWNER=NIST Mass Spectrometry Data Center
Collection (C) 2014 copyright by the U.S. Secretary of Commerce
on behalf of the United States of America. All rights reserved.
##CAS REGISTRY NO=4350-41-8
##$NIST MASS SPEC NO=372964
##MOLFORM=C12 H10 Cl N
##MW=203
##$NIST SOURCE=MSDC
##XUNITS=M/Z
##YUNITS=RELATIVE INTENSITY
##XFACTOR=1
##YFACTOR=1
##FIRSTX=26
##LASTX=207
##FIRSTY=40
##MAXX=207
##MINX=26
##MAXY=9999
##MINY=10
##NPOINTS=122
##PEAK TABLE=(XY..XY)
26,40 27,110 28,50 35,10
36,10 37,40 38,120 39,450
40,60 41,40 42,10 47,10
49,50 50,470 51,931 52,310
53,60 54,20 55,20 56,20
57,30 58,20 60,10 61,90
62,300 63,841 64,190 65,300
66,70 67,30 68,10 70,430
72,20 73,180 74,210 75,410
76,130 77,130 78,430 79,60
80,10 83,1661 85,70 86,130
87,190 88,140 89,1181 90,350
91,60 92,50 93,50 94,10
96,10 97,40 98,50 99,390
100,70 101,220 102,80 103,20
104,30 108,10 109,10 110,30
111,70 112,30 113,190 114,210
115,330 116,160 117,90 118,10
122,10 123,70 124,30 125,971
126,130 127,350 128,100 129,20
130,20 136,30 137,60 138,110
139,861 140,550 141,260 142,60
143,40 147,10 148,10 149,90
150,40 151,50 152,40 153,40
154,40 155,10 160,10 161,10
162,10 163,10 164,100 165,180
166,1231 167,8788 168,1922 169,170
170,10 173,30 174,20 175,30
176,10 177,10 188,10 200,10
202,9999 203,3173 204,3513 205,991
206,100 207,10
##END=
