##TITLE=Cholesteryl formate
##JCAMP-DX=4.24
##DATA TYPE=MASS SPECTRUM
##ORIGIN=Japan AIST/NIMC Database- Spectrum MS-NW-2282
##OWNER=NIST Mass Spectrometry Data Center
Collection (C) 2014 copyright by the U.S. Secretary of Commerce
on behalf of the United States of America. All rights reserved.
##CAS REGISTRY NO=4351-55-7
##$NIST MASS SPEC NO=234032
##MOLFORM=C28 H46 O2
##MW=414
##$NIST SOURCE=MSDC
##XUNITS=M/Z
##YUNITS=RELATIVE INTENSITY
##XFACTOR=1
##YFACTOR=1
##FIRSTX=15
##LASTX=397
##FIRSTY=30
##MAXX=397
##MINX=15
##MAXY=9999
##MINY=10
##NPOINTS=323
##PEAK TABLE=(XY..XY)
15,30 16,30 17,20 18,70
26,30 27,529 28,509 29,1339
30,30 31,10 39,439 40,109
41,3569 42,309 43,4619 44,369
45,709 46,949 47,10 50,10
51,80 52,50 53,609 54,99
55,3949 56,369 57,3069 58,129
63,30 64,10 65,309 66,109
67,2569 68,329 69,2389 70,209
71,1569 72,90 73,10 75,10
76,20 77,919 78,289 79,2229
80,409 81,5189 82,559 83,1759
84,139 85,369 86,30 87,10
89,40 90,20 91,2849 92,699
93,2879 94,729 95,3529 96,379
97,969 98,90 99,109 100,50
101,20 102,30 103,219 104,259
105,3369 106,1219 107,3239 108,1099
109,2319 110,309 111,629 112,70
113,139 114,70 115,429 116,239
117,1169 118,679 119,1879 120,1849
121,3869 122,779 123,959 124,209
125,239 126,40 127,129 128,509
129,839 130,439 131,1849 132,539
133,2099 134,659 135,1919 136,399
137,489 138,80 139,90 140,20
141,359 142,369 143,1569 144,659
145,4459 146,1549 147,4089 148,1189
149,1249 150,209 151,319 152,90
153,109 154,80 155,339 156,209
157,929 158,819 159,2329 160,1769
161,1759 162,569 163,989 164,159
165,279 166,70 167,119 168,70
169,239 170,119 171,619 172,319
173,969 174,409 175,539 176,159
177,299 178,90 179,169 180,50
181,90 182,50 183,199 184,109
185,619 186,259 187,569 188,149
189,299 190,80 191,319 192,129
193,309 194,80 195,99 196,60
197,269 198,139 199,749 200,399
201,909 202,679 203,229 204,90
205,539 206,1619 207,449 208,70
209,60 210,40 211,419 212,249
213,1919 214,689 215,609 216,379
217,149 218,80 219,299 220,109
221,60 222,20 223,40 224,30
225,119 226,139 227,359 228,589
229,459 230,119 231,129 232,70
233,80 234,30 235,30 236,10
237,60 238,30 239,199 240,119
241,309 242,119 243,159 244,70
245,289 246,469 247,3279 248,739
249,109 250,40 251,109 252,70
253,1149 254,359 255,5119 256,1199
257,1099 258,359 259,339 260,1449
261,539 262,119 263,20 264,10
265,20 266,10 267,90 268,60
269,109 270,40 271,219 272,80
273,119 274,209 275,239 276,60
277,40 278,10 279,159 280,50
281,349 282,119 283,1679 284,529
285,219 286,99 287,70 288,40
289,10 295,40 296,40 297,179
298,70 299,99 300,50 301,90
302,30 309,20 310,30 311,80
312,50 313,60 314,179 315,50
316,10 323,20 324,20 325,80
326,189 327,80 328,20 329,10
337,30 338,20 339,99 340,80
341,30 342,30 343,10 344,10
345,10 346,10 347,20 348,10
349,70 350,40 351,269 352,129
353,3109 354,909 355,369 356,90
357,20 358,10 359,10 360,20
361,20 362,50 363,20 364,129
365,70 366,689 367,359 368,9999
369,3019 370,649 371,129 372,20
380,60 381,30 382,70 383,20
384,50 385,10 386,60 387,20
394,10 396,40 397,10
##END=
