##TITLE=Cyclohexanemethanol, .alpha.-propyl-
##JCAMP-DX=4.24
##DATA TYPE=MASS SPECTRUM
##ORIGIN=NIST Mass Spectrometry Data Center, 1990.
##OWNER=NIST Mass Spectrometry Data Center
Collection (C) 2014 copyright by the U.S. Secretary of Commerce
on behalf of the United States of America. All rights reserved.
##CAS REGISTRY NO=4352-42-5
##$NIST MASS SPEC NO=113015
##MOLFORM=C10 H20 O
##MW=156
##$NIST SOURCE=MSDC
##XUNITS=M/Z
##YUNITS=RELATIVE INTENSITY
##XFACTOR=1
##YFACTOR=1
##FIRSTX=14
##LASTX=138
##FIRSTY=36
##MAXX=138
##MINX=14
##MAXY=9999
##MINY=36
##NPOINTS=49
##PEAK TABLE=(XY..XY)
14,36 15,110 18,74 27,1987
28,910 29,1971 30,36 31,993
32,87 39,1783 40,419 41,3969
42,597 43,2593 44,508 45,333
51,178 52,129 53,751 54,1018
55,9999 56,983 57,1454 65,237
67,3364 68,418 69,842 70,292
71,281 72,2276 73,4773 74,227
77,265 78,67 79,419 80,154
81,941 82,1630 83,874 84,213
91,106 93,299 95,7922 96,926
109,187 111,77 113,2693 114,233
138,371
##END=
