##TITLE=1,3-Dioxolane, 2-butyl-
##JCAMP-DX=4.24
##DATA TYPE=MASS SPECTRUM
##ORIGIN=D.H.WILLIAMS CHEMISTRY DEPT., UNIVERSITY OF CAMBRIDGE
##OWNER=NIST Mass Spectrometry Data Center
Collection (C) 2014 copyright by the U.S. Secretary of Commerce
on behalf of the United States of America. All rights reserved.
##CAS REGISTRY NO=4360-76-3
##$NIST MASS SPEC NO=2898
##MOLFORM=C7 H14 O2
##MW=130
##$NIST SOURCE=MSDC
##XUNITS=M/Z
##YUNITS=RELATIVE INTENSITY
##XFACTOR=1
##YFACTOR=1
##FIRSTX=26
##LASTX=130
##FIRSTY=150
##MAXX=130
##MINX=26
##MAXY=9999
##MINY=100
##NPOINTS=31
##PEAK TABLE=(XY..XY)
26,150 27,500 29,400 30,100
31,200 39,300 40,280 41,480
42,200 43,280 44,280 45,1500
46,100 55,200 57,300 58,200
69,100 70,100 71,380 72,100
73,9999 74,400 75,100 78,100
85,100 88,100 99,100 100,100
101,100 129,380 130,100
##END=
