##TITLE=1,3-Dioxolane, 4-(chloromethyl)-2,2-dimethyl-
##JCAMP-DX=4.24
##DATA TYPE=MASS SPECTRUM
##ORIGIN=RADIAN CORP
##OWNER=NIST Mass Spectrometry Data Center
Collection (C) 2014 copyright by the U.S. Secretary of Commerce
on behalf of the United States of America. All rights reserved.
##CAS REGISTRY NO=4362-40-7
##$NIST MASS SPEC NO=73438
##MOLFORM=C6 H11 Cl O2
##MW=150
##$NIST SOURCE=MSDC
##XUNITS=M/Z
##YUNITS=RELATIVE INTENSITY
##XFACTOR=1
##YFACTOR=1
##FIRSTX=15
##LASTX=138
##FIRSTY=450
##MAXX=138
##MINX=15
##MAXY=9999
##MINY=10
##NPOINTS=45
##PEAK TABLE=(XY..XY)
15,450 26,240 27,940 29,900
30,130 31,260 35,30 36,20
37,80 38,150 39,1220 40,190
41,1120 42,1430 43,9999 44,270
45,70 48,20 49,560 50,60
51,150 55,70 56,20 57,310
58,90 59,890 60,50 61,350
62,60 63,40 64,10 72,1260
73,210 75,1120 76,50 77,230
83,120 85,700 99,50 101,920
102,50 135,4130 136,260 137,1350
138,80
##END=
