##TITLE=2H-1,4-Ethanoquinoline, 3,4-dihydro-
##JCAMP-DX=4.24
##DATA TYPE=MASS SPECTRUM
##OWNER=NIST Mass Spectrometry Data Center
Collection (C) 2014 copyright by the U.S. Secretary of Commerce
on behalf of the United States of America. All rights reserved.
##CAS REGISTRY NO=4363-25-1
##$NIST MASS SPEC NO=5598
##MOLFORM=C11 H13 N
##MW=159
##$NIST SOURCE=MSDC
##XUNITS=M/Z
##YUNITS=RELATIVE INTENSITY
##XFACTOR=1
##YFACTOR=1
##FIRSTX=42
##LASTX=160
##FIRSTY=400
##MAXX=160
##MINX=42
##MAXY=9999
##MINY=200
##NPOINTS=29
##PEAK TABLE=(XY..XY)
42,400 43,2402 44,400 77,1001
78,200 91,801 98,1001 102,200
103,601 104,601 115,500 116,300
117,1001 118,601 128,300 129,400
130,5005 131,3503 132,2502 133,300
142,200 143,500 144,2002 145,300
156,300 157,300 158,3003 159,9999
160,1001
##END=
