##TITLE=Fentanyl
##JCAMP-DX=4.24
##DATA TYPE=MASS SPECTRUM
##ORIGIN=Virginia Division of Forensic Science
##OWNER=NIST Mass Spectrometry Data Center
Collection (C) 2014 copyright by the U.S. Secretary of Commerce
on behalf of the United States of America. All rights reserved.
##CAS REGISTRY NO=437-38-7
##$NIST MASS SPEC NO=250541
##MOLFORM=C22 H28 N2 O
##MW=336
##$NIST SOURCE=MSDC
##XUNITS=M/Z
##YUNITS=RELATIVE INTENSITY
##XFACTOR=1
##YFACTOR=1
##FIRSTX=15
##LASTX=279
##FIRSTY=30
##MAXX=279
##MINX=15
##MAXY=9999
##MINY=20
##NPOINTS=95
##PEAK TABLE=(XY..XY)
15,30 27,490 28,300 29,2542
30,140 38,30 39,340 41,690
42,2772 43,440 44,1231 45,30
50,70 51,420 52,100 53,150
54,200 55,470 56,460 57,2222
58,100 62,20 63,110 64,80
65,560 66,100 67,300 68,400
69,340 70,620 71,50 75,30
77,1991 78,380 79,740 80,140
81,50 82,280 83,60 84,100
89,80 91,1631 92,210 93,250
94,280 95,220 96,1261 97,160
102,50 103,560 104,930 105,2322
106,420 107,30 115,90 116,60
117,420 118,930 119,270 120,110
128,40 130,890 131,630 132,1411
133,210 134,100 139,80 143,40
144,170 146,6656 147,770 148,90
149,20 150,40 156,20 158,600
159,170 160,260 161,40 172,40
173,40 184,30 185,20 186,210
187,180 189,3773 190,510 191,30
202,1181 203,170 216,40 245,9999
246,1751 247,150 279,20
##END=
