##TITLE=2,6-Difluorobenzaldehyde
##JCAMP-DX=4.24
##DATA TYPE=MASS SPECTRUM
##ORIGIN=Chuck Anderson, Aldrich Chemical Co.
##OWNER=NIST Mass Spectrometry Data Center
Collection (C) 2014 copyright by the U.S. Secretary of Commerce
on behalf of the United States of America. All rights reserved.
##CAS REGISTRY NO=437-81-0
##$NIST MASS SPEC NO=108202
##MOLFORM=C7 H4 F2 O
##MW=142
##$NIST SOURCE=MSDC
##XUNITS=M/Z
##YUNITS=RELATIVE INTENSITY
##XFACTOR=1
##YFACTOR=1
##FIRSTX=26
##LASTX=144
##FIRSTY=54
##MAXX=144
##MINX=26
##MAXY=9999
##MINY=24
##NPOINTS=62
##PEAK TABLE=(XY..XY)
26,54 27,51 28,84 29,802
31,705 32,24 36,65 37,489
38,316 39,251 44,66 45,71
48,30 49,196 50,869 51,195
55,59 56,251 57,700 58,32
60,76 61,540 62,912 63,3884
64,312 67,46 68,916 69,447
70,337 71,88 72,31 73,185
74,751 75,641 76,54 79,60
80,143 81,481 82,48 83,51
85,48 86,122 87,282 88,789
89,40 91,30 92,295 93,603
94,971 95,158 99,55 111,52
112,308 113,3259 114,861 115,57
125,82 140,116 141,9999 142,6891
143,578 144,37
##END=
