##TITLE=p-Benzoquinone, 2,5-dibromo-3,6-dihydroxy-
##JCAMP-DX=4.24
##DATA TYPE=MASS SPECTRUM
##ORIGIN=Japan AIST/NIMC Database- Spectrum MS-NW-4278
##OWNER=NIST Mass Spectrometry Data Center
Collection (C) 2014 copyright by the U.S. Secretary of Commerce
on behalf of the United States of America. All rights reserved.
##CAS REGISTRY NO=4370-59-6
##$NIST MASS SPEC NO=231246
##MOLFORM=C6 H2 Br2 O4
##MW=296
##$NIST SOURCE=MSDC
##XUNITS=M/Z
##YUNITS=RELATIVE INTENSITY
##XFACTOR=1
##YFACTOR=1
##FIRSTX=12
##LASTX=302
##FIRSTY=189
##MAXX=302
##MINX=12
##MAXY=9999
##MINY=10
##NPOINTS=179
##PEAK TABLE=(XY..XY)
12,189 13,139 14,139 15,30
16,20 18,20 24,269 25,439
26,179 27,60 28,479 29,759
30,20 31,119 32,10 36,469
37,399 38,119 39,20 40,509
41,2929 42,609 43,80 44,70
45,70 46,20 48,109 49,50
52,719 53,1439 54,159 55,20
60,30 64,90 65,179 66,679
67,60 68,739 69,9849 70,559
71,109 76,30 77,20 79,329
80,579 81,359 82,1019 83,60
84,20 87,20 89,10 91,519
92,329 93,619 94,319 95,139
97,20 98,30 99,10 103,90
104,80 105,159 106,90 107,139
108,10 109,50 110,30 111,319
112,30 113,10 115,119 116,70
117,199 118,70 119,389 120,609
121,829 122,609 123,259 126,10
127,30 128,20 129,20 130,20
131,869 132,219 133,959 134,219
135,169 136,10 138,10 139,80
140,70 141,10 143,50 144,90
145,289 146,90 147,2359 148,119
149,2619 150,139 151,599 152,20
155,10 157,10 160,40 161,319
162,50 163,319 164,40 166,30
167,10 171,459 172,40 173,459
174,50 175,20 185,10 188,60
189,2619 190,259 191,2549 192,199
193,20 194,10 196,30 197,10
198,20 199,10 200,10 201,10
208,10 209,10 210,10 211,70
213,109 215,50 216,20 217,2179
218,629 219,2179 220,619 221,50
222,10 224,40 225,10 226,40
228,10 239,10 240,20 241,20
242,50 243,20 244,30 245,10
246,10 250,40 251,10 252,149
253,20 254,139 255,10 256,30
268,1219 269,80 270,2369 271,139
272,1179 273,70 274,10 295,10
296,4929 297,359 298,9999 299,679
300,4869 301,339 302,50
##END=
