##TITLE=Cyclopropane, 1,1-dimethyl-2-methylene-
##JCAMP-DX=4.24
##DATA TYPE=MASS SPECTRUM
##ORIGIN=D.HENNEBERG, MAX-PLANCK INSTITUTE, MULHEIM, WEST GERMANY
##OWNER=NIST Mass Spectrometry Data Center
Collection (C) 2014 copyright by the U.S. Secretary of Commerce
on behalf of the United States of America. All rights reserved.
##CAS REGISTRY NO=4372-94-5
##$NIST MASS SPEC NO=63303
##MOLFORM=C6 H10
##MW=82
##$NIST SOURCE=MSDC
##XUNITS=M/Z
##YUNITS=RELATIVE INTENSITY
##XFACTOR=1
##YFACTOR=1
##FIRSTX=22
##LASTX=83
##FIRSTY=8
##MAXX=83
##MINX=22
##MAXY=9999
##MINY=3
##NPOINTS=56
##PEAK TABLE=(XY..XY)
22,8 23,7 24,5 25,38
26,162 27,1437 28,377 29,371
30,10 31,21 32,4 33,8
34,4 35,33 36,29 37,284
38,536 39,5807 40,1554 41,6660
42,1026 43,691 44,5 47,3
48,11 49,66 50,337 51,512
52,229 53,1546 54,1750 55,540
56,256 57,12 58,3 60,10
61,67 62,121 63,248 64,39
65,1084 66,285 67,9999 68,600
69,16 73,10 74,27 75,34
76,6 77,227 78,37 79,442
80,81 81,903 82,1958 83,139
##END=
