##TITLE=Mono(2-ethylhexyl) phthalate
##JCAMP-DX=4.24
##DATA TYPE=MASS SPECTRUM
##ORIGIN=NIST Mass Spectrometry Data Center, 2010
##OWNER=NIST Mass Spectrometry Data Center
Collection (C) 2014 copyright by the U.S. Secretary of Commerce
on behalf of the United States of America. All rights reserved.
##CAS REGISTRY NO=4376-20-9
##$NIST MASS SPEC NO=373830
##MOLFORM=C16 H22 O4
##MW=278
##$NIST SOURCE=MSDC
##XUNITS=M/Z
##YUNITS=RELATIVE INTENSITY
##XFACTOR=1
##YFACTOR=1
##FIRSTX=27
##LASTX=180
##FIRSTY=100
##MAXX=180
##MINX=27
##MAXY=9999
##MINY=10
##NPOINTS=77
##PEAK TABLE=(XY..XY)
27,100 28,30 29,210 30,10
31,10 37,10 39,190 40,20
41,490 42,110 43,280 44,20
49,10 50,130 51,90 52,20
53,70 54,40 55,490 56,320
57,490 58,20 59,10 63,20
65,571 66,40 67,50 68,40
69,220 70,1521 71,210 72,20
74,60 75,60 76,330 77,180
78,20 79,20 81,10 82,100
83,611 84,330 85,30 91,10
92,40 93,490 94,40 95,10
97,60 98,20 104,410 105,490
106,40 112,831 113,80 115,10
121,410 122,571 123,130 124,10
129,10 132,120 133,20 135,10
147,10 149,9999 150,1201 151,130
152,10 161,10 162,40 163,20
167,1942 168,170 169,20 179,20
180,10
##END=
