##TITLE=Protriptyline
##JCAMP-DX=4.24
##DATA TYPE=MASS SPECTRUM
##ORIGIN=NIST Mass Spectrometry Data Center, 1998.
##OWNER=NIST Mass Spectrometry Data Center
Collection (C) 2014 copyright by the U.S. Secretary of Commerce
on behalf of the United States of America. All rights reserved.
##CAS REGISTRY NO=438-60-8
##$NIST MASS SPEC NO=292033
##MOLFORM=C19 H21 N
##MW=263
##$NIST SOURCE=MSDC
##XUNITS=M/Z
##YUNITS=RELATIVE INTENSITY
##XFACTOR=1
##YFACTOR=1
##FIRSTX=15
##LASTX=264
##FIRSTY=20
##MAXX=264
##MINX=15
##MAXY=9999
##MINY=10
##NPOINTS=131
##PEAK TABLE=(XY..XY)
15,20 27,20 28,80 29,30
30,190 31,250 38,10 39,80
40,10 41,70 42,260 43,170
44,6449 45,180 50,30 51,60
52,20 53,10 54,10 55,20
56,100 57,290 58,70 59,660
60,30 62,30 63,110 64,10
65,30 68,20 70,9789 71,500
72,60 74,20 75,40 76,40
77,60 78,10 82,70 84,30
86,20 87,40 88,40 89,80
91,120 92,20 93,20 94,60
95,80 98,20 99,20 100,20
101,50 102,20 103,20 107,10
111,10 113,50 114,10 115,230
116,30 117,20 125,10 126,50
127,50 128,80 129,20 131,10
132,20 137,30 138,20 139,170
140,20 141,30 144,10 149,10
150,80 151,110 152,230 153,40
161,20 162,50 163,340 164,250
165,1620 166,230 167,20 170,10
174,30 175,30 176,200 177,60
178,410 179,100 180,10 186,30
187,270 188,250 189,2700 190,880
191,9999 192,1710 193,170 194,20
200,70 201,70 202,540 203,530
204,570 205,140 206,20 213,40
214,10 215,230 216,90 217,130
218,50 219,30 220,20 226,10
228,10 229,30 231,40 232,70
233,20 234,20 260,20 261,20
262,40 263,160 264,40
##END=
