##TITLE=5-Methoxyindole-2-carboxylic acid
##JCAMP-DX=4.24
##DATA TYPE=MASS SPECTRUM
##ORIGIN=Japan AIST/NIMC Database- Spectrum MS-NW-9600
##OWNER=NIST Mass Spectrometry Data Center
Collection (C) 2014 copyright by the U.S. Secretary of Commerce
on behalf of the United States of America. All rights reserved.
##CAS REGISTRY NO=4382-54-1
##$NIST MASS SPEC NO=235362
##MOLFORM=C10 H9 N O3
##MW=191
##$NIST SOURCE=MSDC
##XUNITS=M/Z
##YUNITS=RELATIVE INTENSITY
##XFACTOR=1
##YFACTOR=1
##FIRSTX=15
##LASTX=193
##FIRSTY=20
##MAXX=193
##MINX=15
##MAXY=9999
##MINY=10
##NPOINTS=87
##PEAK TABLE=(XY..XY)
15,20 18,10 26,10 27,20
28,10 37,10 38,40 39,70
41,10 44,129 45,20 49,10
50,169 51,229 52,99 53,50
57,20 58,50 61,20 62,99
63,119 64,50 65,90 66,10
71,10 72,10 73,10 74,50
75,259 76,319 77,109 78,30
79,10 80,20 85,10 86,609
87,169 88,99 89,90 90,149
91,50 92,10 95,119 96,10
101,60 102,769 103,149 104,139
105,10 113,10 114,239 115,159
116,219 117,70 118,30 119,359
120,30 129,20 130,1359 131,179
132,289 133,30 142,149 143,50
144,109 145,399 146,219 147,509
148,50 157,40 158,3749 159,399
160,90 161,10 162,20 170,10
171,10 172,30 173,9999 174,1229
175,129 176,119 177,10 190,109
191,6409 192,729 193,80
##END=
