##TITLE=1-Dimethylaminohexane
##JCAMP-DX=4.24
##DATA TYPE=MASS SPECTRUM
##ORIGIN=NIST Mass Spectrometry Data Center, 1994
##OWNER=NIST Mass Spectrometry Data Center
Collection (C) 2014 copyright by the U.S. Secretary of Commerce
on behalf of the United States of America. All rights reserved.
##CAS REGISTRY NO=4385-04-0
##$NIST MASS SPEC NO=133374
##MOLFORM=C8 H19 N
##MW=129
##$NIST SOURCE=MSDC
##XUNITS=M/Z
##YUNITS=RELATIVE INTENSITY
##XFACTOR=1
##YFACTOR=1
##FIRSTX=14
##LASTX=130
##FIRSTY=18
##MAXX=130
##MINX=14
##MAXY=9999
##MINY=5
##NPOINTS=49
##PEAK TABLE=(XY..XY)
14,18 15,231 16,7 26,53
27,478 28,215 29,557 30,390
31,9 39,272 40,69 41,491
42,988 43,358 44,355 45,140
46,36 50,12 51,17 52,9
53,45 54,38 55,140 56,229
57,9 58,9999 59,440 60,7
65,6 66,5 67,12 68,23
69,10 70,75 71,66 72,62
73,6 80,5 82,16 83,8
84,49 85,8 86,7 98,11
100,15 114,18 126,12 129,532
130,51
##END=
