##TITLE=Diazepam
##JCAMP-DX=4.24
##DATA TYPE=MASS SPECTRUM
##ORIGIN=NIST Mass Spectrometry Data Center, 1990.
##OWNER=NIST Mass Spectrometry Data Center
Collection (C) 2014 copyright by the U.S. Secretary of Commerce
on behalf of the United States of America. All rights reserved.
##CAS REGISTRY NO=439-14-5
##$NIST MASS SPEC NO=113837
##MOLFORM=C16 H13 Cl N2 O
##MW=284
##$NIST SOURCE=MSDC
##XUNITS=M/Z
##YUNITS=RELATIVE INTENSITY
##XFACTOR=1
##YFACTOR=1
##FIRSTX=14
##LASTX=287
##FIRSTY=156
##MAXX=287
##MINX=14
##MAXY=9999
##MINY=88
##NPOINTS=132
##PEAK TABLE=(XY..XY)
14,156 15,385 27,287 38,205
39,648 40,144 41,156 42,410
44,235 50,650 51,1341 52,292
61,130 62,421 63,1209 64,296
65,641 70,178 73,299 74,561
75,1463 76,1075 77,1824 78,268
82,627 84,332 86,293 87,493
88,411 89,1804 90,465 91,839
96,689 97,607 98,363 99,531
100,344 101,306 102,750 103,526
104,182 106,88 108,135 110,1751
111,818 112,305 113,501 114,385
115,363 116,567 117,986 118,143
120,138 123,282 124,509 125,962
126,535 127,834 128,377 134,105
136,296 137,433 138,478 139,477
140,236 142,135 149,208 150,915
151,1209 152,1263 153,264 154,116
162,229 163,1330 164,936 165,2017
166,485 167,110 175,141 176,390
177,1516 178,827 179,544 180,182
190,423 191,474 192,504 193,848
194,184 199,318 203,174 204,230
205,891 206,325 213,384 214,173
215,220 216,108 218,127 219,542
220,323 221,3686 222,803 226,137
227,261 228,726 229,190 230,295
233,123 238,465 239,1035 240,418
241,1186 242,308 243,344 248,633
249,643 250,121 255,4706 256,9999
257,4630 258,3617 259,1117 260,130
268,373 269,101 270,161 283,9497
284,7222 285,4021 286,2486 287,420
##END=
