##TITLE=Benzene, cyclobutyl-
##JCAMP-DX=4.24
##DATA TYPE=MASS SPECTRUM
##OWNER=NIST Mass Spectrometry Data Center
Collection (C) 2014 copyright by the U.S. Secretary of Commerce
on behalf of the United States of America. All rights reserved.
##CAS REGISTRY NO=4392-30-7
##$NIST MASS SPEC NO=31951
##MOLFORM=C10 H12
##MW=132
##$NIST SOURCE=MSDC
##XUNITS=M/Z
##YUNITS=RELATIVE INTENSITY
##XFACTOR=1
##YFACTOR=1
##FIRSTX=38
##LASTX=133
##FIRSTY=120
##MAXX=133
##MINX=38
##MAXY=9999
##MINY=40
##NPOINTS=30
##PEAK TABLE=(XY..XY)
38,120 39,780 40,140 49,380
50,980 51,300 52,180 58,120
62,120 63,380 64,200 65,380
74,120 75,120 76,180 77,1020
78,1800 79,320 91,920 92,60
102,260 103,1320 104,9999 105,960
106,320 115,260 116,40 117,140
132,1240 133,100
##END=
