##TITLE=Benzenemethanol, 2,4,5-trimethyl-
##JCAMP-DX=4.24
##DATA TYPE=MASS SPECTRUM
##OWNER=NIST Mass Spectrometry Data Center
Collection (C) 2014 copyright by the U.S. Secretary of Commerce
on behalf of the United States of America. All rights reserved.
##CAS REGISTRY NO=4393-05-9
##$NIST MASS SPEC NO=4648
##MOLFORM=C10 H14 O
##MW=150
##$NIST SOURCE=MSDC
##XUNITS=M/Z
##YUNITS=RELATIVE INTENSITY
##XFACTOR=1
##YFACTOR=1
##FIRSTX=39
##LASTX=152
##FIRSTY=4044
##MAXX=152
##MINX=39
##MAXY=9999
##MINY=10
##NPOINTS=104
##PEAK TABLE=(XY..XY)
39,4044 40,520 41,1912 42,120
43,430 44,50 49,60 50,971
51,2542 52,831 53,1451 54,130
55,370 56,30 57,100 58,80
59,50 60,220 61,140 62,450
63,1381 64,631 65,1712 66,500
67,480 68,40 69,440 70,20
71,20 72,70 73,110 74,701
75,380 76,721 77,3073 78,991
79,1531 80,140 81,80 82,20
83,20 84,30 85,70 86,120
87,140 88,50 89,370 90,170
91,5755 92,751 93,510 94,70
95,40 96,10 97,20 98,60
99,40 100,20 101,90 102,350
103,1181 104,721 105,1091 106,741
107,5275 108,490 109,50 110,20
111,20 112,20 113,50 114,80
115,1521 116,701 117,2953 118,651
119,3343 120,480 121,3093 122,340
123,30 124,10 125,20 126,20
127,90 128,180 129,160 130,130
131,961 132,9999 133,3723 134,1071
135,4354 136,480 137,40 141,10
145,20 146,80 147,1331 148,911
149,450 150,6716 151,731 152,60
##END=
