##TITLE=Niflumic acid
##JCAMP-DX=4.24
##DATA TYPE=MASS SPECTRUM
##ORIGIN=Patti Price, Georgia Bureau of Investigation, Decatur, Georgia
##OWNER=NIST Mass Spectrometry Data Center
Collection (C) 2014 copyright by the U.S. Secretary of Commerce
on behalf of the United States of America. All rights reserved.
##CAS REGISTRY NO=4394-00-7
##$NIST MASS SPEC NO=248468
##MOLFORM=C13 H9 F3 N2 O2
##MW=282
##$NIST SOURCE=MSDC
##XUNITS=M/Z
##YUNITS=RELATIVE INTENSITY
##XFACTOR=1
##YFACTOR=1
##FIRSTX=45
##LASTX=284
##FIRSTY=210
##MAXX=284
##MINX=45
##MAXY=9999
##MINY=10
##NPOINTS=157
##PEAK TABLE=(XY..XY)
45,210 50,340 51,460 52,280
53,100 54,30 55,40 57,120
58,10 61,20 62,90 63,470
64,390 65,350 66,310 67,280
68,60 69,830 70,80 73,20
74,180 75,810 76,370 77,300
78,240 79,140 80,20 81,100
82,50 83,150 85,10 87,70
88,140 89,100 90,80 91,100
92,250 93,1000 94,290 95,890
96,130 97,130 99,190 100,70
102,100 103,80 104,30 105,40
106,30 107,120 108,240 111,50
113,210 114,250 115,300 116,80
118,120 119,160 121,70 122,380
124,20 125,550 126,280 127,90
128,50 129,70 130,140 131,110
132,220 133,120 135,10 136,10
137,40 139,190 140,1151 141,310
142,110 144,80 145,2352 146,230
150,40 151,80 152,140 153,40
154,10 155,10 156,30 157,50
158,170 159,70 160,30 161,50
162,60 163,120 164,120 165,90
166,240 167,650 168,870 169,320
170,180 171,120 172,130 176,30
177,100 178,10 179,20 182,130
183,210 184,70 185,200 186,430
187,60 188,110 189,340 190,270
191,50 192,10 195,320 196,240
197,430 198,110 199,30 200,10
201,10 202,10 206,10 207,30
208,480 209,320 210,210 211,130
213,50 215,530 216,450 217,1261
218,310 226,10 234,20 235,1781
236,7937 237,6575 238,930 243,30
245,180 254,10 256,10 261,20
262,20 263,8888 264,1731 265,280
266,30 281,9168 282,9999 283,1281
284,150
##END=
