##TITLE=Benzene, 2-chloro-1-methyl-4-(1-methylethyl)-
##JCAMP-DX=4.24
##DATA TYPE=MASS SPECTRUM
##OWNER=NIST Mass Spectrometry Data Center
Collection (C) 2014 copyright by the U.S. Secretary of Commerce
on behalf of the United States of America. All rights reserved.
##CAS REGISTRY NO=4395-79-3
##$NIST MASS SPEC NO=6478
##MOLFORM=C10 H13 Cl
##MW=168
##$NIST SOURCE=MSDC
##XUNITS=M/Z
##YUNITS=RELATIVE INTENSITY
##XFACTOR=1
##YFACTOR=1
##FIRSTX=15
##LASTX=171
##FIRSTY=30
##MAXX=171
##MINX=15
##MAXY=9999
##MINY=10
##NPOINTS=111
##PEAK TABLE=(XY..XY)
15,30 18,20 26,10 27,210
28,100 29,30 32,20 37,20
38,60 39,520 40,50 41,460
42,20 43,80 44,20 45,20
49,20 50,140 51,420 52,80
53,100 55,30 56,20 57,250
58,380 59,110 61,40 62,120
63,390 64,230 65,400 66,40
67,20 68,10 69,30 70,10
73,80 74,80 75,200 76,90
77,380 78,100 79,50 81,20
82,50 83,100 84,40 85,30
86,50 87,70 88,30 89,320
90,80 91,1101 92,100 93,100
94,10 97,50 98,20 99,90
100,10 101,100 102,170 103,220
104,50 105,270 106,30 107,10
111,20 112,20 113,50 114,50
115,1722 116,490 117,2462 118,490
119,110 120,10 123,20 125,280
126,50 127,180 128,90 129,60
130,20 131,60 132,30 133,1021
134,110 135,10 136,20 137,20
138,60 139,190 140,40 141,70
142,10 149,30 151,180 152,90
153,9999 154,1031 155,3253 156,320
157,20 166,20 167,70 168,2973
169,370 170,1071 171,120
##END=
