##TITLE=4-Isopropylphenylacetonitrile
##JCAMP-DX=4.24
##DATA TYPE=MASS SPECTRUM
##ORIGIN=NIST Mass Spectrometry Data Center, 1994
##OWNER=NIST Mass Spectrometry Data Center
Collection (C) 2014 copyright by the U.S. Secretary of Commerce
on behalf of the United States of America. All rights reserved.
##CAS REGISTRY NO=4395-87-3
##$NIST MASS SPEC NO=134573
##MOLFORM=C11 H13 N
##MW=159
##$NIST SOURCE=MSDC
##XUNITS=M/Z
##YUNITS=RELATIVE INTENSITY
##XFACTOR=1
##YFACTOR=1
##FIRSTX=15
##LASTX=160
##FIRSTY=757
##MAXX=160
##MINX=15
##MAXY=9999
##MINY=25
##NPOINTS=70
##PEAK TABLE=(XY..XY)
15,757 16,51 18,32 26,202
27,1445 28,297 29,124 37,100
38,334 39,2231 40,362 41,1361
42,91 43,172 50,858 51,1489
52,448 53,239 54,33 57,330
58,198 61,118 62,488 63,1477
64,475 65,877 66,121 71,225
74,328 75,384 76,477 77,1262
78,1148 79,265 85,25 86,107
87,198 88,249 89,1290 90,532
91,2438 92,185 99,40 100,44
101,105 102,582 103,1120 104,2399
105,321 113,124 115,2207 116,1151
117,5950 118,753 119,2112 120,235
127,97 128,161 129,121 130,298
131,87 140,139 141,65 142,214
143,65 144,9999 145,1069 146,60
159,2818 160,338
##END=
