##TITLE=Benzaldehyde, 4-(phenylmethoxy)-
##JCAMP-DX=4.24
##DATA TYPE=MASS SPECTRUM
##ORIGIN=Japan AIST/NIMC Database- Spectrum MS-NW-9452
##OWNER=NIST Mass Spectrometry Data Center
Collection (C) 2014 copyright by the U.S. Secretary of Commerce
on behalf of the United States of America. All rights reserved.
##CAS REGISTRY NO=4397-53-9
##$NIST MASS SPEC NO=236920
##MOLFORM=C14 H12 O2
##MW=212
##$NIST SOURCE=MSDC
##XUNITS=M/Z
##YUNITS=RELATIVE INTENSITY
##XFACTOR=1
##YFACTOR=1
##FIRSTX=27
##LASTX=214
##FIRSTY=10
##MAXX=214
##MINX=27
##MAXY=9999
##MINY=10
##NPOINTS=32
##PEAK TABLE=(XY..XY)
27,10 28,20 38,30 39,279
40,10 41,70 50,50 51,149
52,20 62,30 63,149 64,60
65,949 66,50 74,10 75,10
76,40 77,80 78,10 89,139
90,80 91,9999 92,819 93,50
105,20 121,10 152,10 153,10
181,10 212,1069 213,159 214,10
##END=
