##TITLE=2-Chloro-2-methylhexane
##JCAMP-DX=4.24
##DATA TYPE=MASS SPECTRUM
##ORIGIN=NIST Mass Spectrometry Data Center, 1990.
##OWNER=NIST Mass Spectrometry Data Center
Collection (C) 2014 copyright by the U.S. Secretary of Commerce
on behalf of the United States of America. All rights reserved.
##CAS REGISTRY NO=4398-65-6
##$NIST MASS SPEC NO=113227
##MOLFORM=C7 H15 Cl
##MW=134
##$NIST SOURCE=MSDC
##XUNITS=M/Z
##YUNITS=RELATIVE INTENSITY
##XFACTOR=1
##YFACTOR=1
##FIRSTX=14
##LASTX=99
##FIRSTY=32
##MAXX=99
##MINX=14
##MAXY=9999
##MINY=32
##NPOINTS=41
##PEAK TABLE=(XY..XY)
14,32 15,266 16,118 26,308
27,2904 28,946 29,2256 35,184
36,412 37,198 38,505 39,3493
40,932 41,9999 42,829 43,2369
44,136 49,209 50,201 51,448
52,205 53,963 54,130 55,4797
56,8476 57,6057 58,287 63,222
65,190 67,412 69,4544 70,3075
71,154 76,1611 77,2952 78,592
79,1006 83,1383 84,84 98,1137
99,1178
##END=
