##TITLE=Cyclobutyl bromide
##JCAMP-DX=4.24
##DATA TYPE=MASS SPECTRUM
##ORIGIN=NIST Mass Spectrometry Data Center, 1990.
##OWNER=NIST Mass Spectrometry Data Center
Collection (C) 2014 copyright by the U.S. Secretary of Commerce
on behalf of the United States of America. All rights reserved.
##CAS REGISTRY NO=4399-47-7
##$NIST MASS SPEC NO=113130
##MOLFORM=C4 H7 Br
##MW=134
##$NIST SOURCE=MSDC
##XUNITS=M/Z
##YUNITS=RELATIVE INTENSITY
##XFACTOR=1
##YFACTOR=1
##FIRSTX=13
##LASTX=136
##FIRSTY=38
##MAXX=136
##MINX=13
##MAXY=9999
##MINY=8
##NPOINTS=35
##PEAK TABLE=(XY..XY)
13,38 14,55 15,48 16,8
25,112 26,923 27,2963 28,833
29,1610 32,30 37,168 38,318
39,1637 40,132 41,119 49,117
50,463 51,427 52,151 53,898
54,117 55,9999 56,406 79,140
80,51 81,147 82,50 93,49
95,38 106,1559 108,1550 109,49
119,31 134,92 136,107
##END=
