##TITLE=1-Pyrrolidinyloxy, 3-(aminocarbonyl)-2,2,5,5-tetramethyl-
##JCAMP-DX=4.24
##DATA TYPE=MASS SPECTRUM
##ORIGIN=NIST Mass Spectrometry Data Center, 1994
##OWNER=NIST Mass Spectrometry Data Center
Collection (C) 2014 copyright by the U.S. Secretary of Commerce
on behalf of the United States of America. All rights reserved.
##CAS REGISTRY NO=4399-80-8
##$NIST MASS SPEC NO=135439
##MOLFORM=C9 H17 N2 O2
##MW=185
##$NIST SOURCE=MSDC
##XUNITS=M/Z
##YUNITS=RELATIVE INTENSITY
##XFACTOR=1
##YFACTOR=1
##FIRSTX=15
##LASTX=186
##FIRSTY=676
##MAXX=186
##MINX=15
##MAXY=9999
##MINY=19
##NPOINTS=74
##PEAK TABLE=(XY..XY)
15,676 16,19 17,299 18,197
27,2421 28,1396 29,1647 30,1089
39,3817 40,784 41,7813 42,2242
43,1480 44,4052 50,170 51,444
52,290 53,1813 54,623 55,3934
56,2438 57,1283 58,1290 59,42
65,421 66,163 67,1454 68,511
69,2540 70,784 71,248 72,446
73,42 74,602 77,469 78,191
79,452 80,240 81,521 82,1283
83,8406 84,1113 85,119 86,119
87,1803 91,204 93,289 94,351
95,1266 96,631 97,368 98,119
99,7321 100,9999 101,558 108,328
109,233 110,1101 111,459 112,1978
113,498 123,198 126,2957 127,347
137,313 138,232 140,924 154,146
155,947 168,481 170,181 171,23
185,1548 186,165
##END=
