##TITLE=2,3,4,5,6-Pentafluorobenzyl alcohol
##JCAMP-DX=4.24
##DATA TYPE=MASS SPECTRUM
##ORIGIN=NIST Mass Spectrometry Data Center
##OWNER=NIST Mass Spectrometry Data Center
Collection (C) 2014 copyright by the U.S. Secretary of Commerce
on behalf of the United States of America. All rights reserved.
##CAS REGISTRY NO=440-60-8
##$NIST MASS SPEC NO=341012
##MOLFORM=C7 H3 F5 O
##MW=198
##$NIST SOURCE=MSDC
##XUNITS=M/Z
##YUNITS=RELATIVE INTENSITY
##XFACTOR=1
##YFACTOR=1
##FIRSTX=12
##LASTX=200
##FIRSTY=30
##MAXX=200
##MINX=12
##MAXY=9999
##MINY=20
##NPOINTS=106
##PEAK TABLE=(XY..XY)
12,30 17,130 18,90 20,60
29,5925 30,1852 31,2512 32,50
33,70 36,90 37,300 38,150
47,130 49,1702 50,250 51,591
53,30 55,450 56,450 57,330
61,701 62,400 63,60 64,30
65,90 67,90 68,530 69,1411
70,80 71,110 72,30 75,1551
76,70 79,1491 80,1261 81,2162
82,140 84,50 85,90 86,490
87,170 88,170 89,40 91,170
92,410 93,2232 94,110 95,100
98,1772 99,5355 100,510 101,1001
102,50 103,60 104,100 105,280
106,180 110,270 111,510 112,420
113,120 117,3213 118,470 119,3163
120,330 122,60 123,190 124,200
125,20 129,520 130,971 131,1231
132,180 137,500 138,40 141,180
142,30 143,300 148,981 149,2732
150,5555 151,2192 152,120 155,581
156,40 157,80 158,70 159,430
161,2552 162,250 164,60 165,30
167,1091 168,1371 169,1952 170,290
177,8157 178,4514 179,1101 181,6786
182,540 195,1451 197,4804 198,9999
199,791 200,60
##END=
