##TITLE=Ethylmethylthiambutene
##JCAMP-DX=4.24
##DATA TYPE=MASS SPECTRUM
##ORIGIN=R.E.Ardrey ET AL.Pharmaceutical Mass Spectra,L.,1985
##OWNER=NIST Mass Spectrometry Data Center
Collection (C) 2014 copyright by the U.S. Secretary of Commerce
on behalf of the United States of America. All rights reserved.
##CAS REGISTRY NO=441-61-2
##$NIST MASS SPEC NO=298691
##MOLFORM=C15 H19 N S2
##MW=277
##$NIST SOURCE=MSDC
##XUNITS=M/Z
##YUNITS=RELATIVE INTENSITY
##XFACTOR=1
##YFACTOR=1
##FIRSTX=27
##LASTX=278
##FIRSTY=100
##MAXX=278
##MINX=27
##MAXY=9999
##MINY=100
##NPOINTS=58
##PEAK TABLE=(XY..XY)
27,100 29,300 30,200 39,200
42,1201 43,100 44,200 45,400
51,100 56,901 57,200 58,500
63,100 65,100 69,100 70,200
77,200 85,100 86,1201 91,400
97,2002 98,400 108,100 109,200
111,3003 112,200 113,100 115,200
121,200 123,300 134,300 135,500
138,100 147,100 152,100 171,300
178,200 179,100 184,200 185,400
186,200 190,100 192,100 203,200
204,200 217,100 218,100 219,2702
220,400 221,200 232,100 248,400
262,9999 263,1702 264,901 265,100
277,601 278,100
##END=
