##TITLE=Phenethyl mercaptan
##JCAMP-DX=4.24
##DATA TYPE=MASS SPECTRUM
##ORIGIN=Dr. Jiri Zamecnik, DCIEM, North York, Canada, GP Library
##OWNER=NIST Mass Spectrometry Data Center
Collection (C) 2014 copyright by the U.S. Secretary of Commerce
on behalf of the United States of America. All rights reserved.
##CAS REGISTRY NO=4410-99-5
##$NIST MASS SPEC NO=122424
##MOLFORM=C8 H10 S
##MW=138
##$NIST SOURCE=MSDC
##XUNITS=M/Z
##YUNITS=RELATIVE INTENSITY
##XFACTOR=1
##YFACTOR=1
##FIRSTX=39
##LASTX=140
##FIRSTY=460
##MAXX=140
##MINX=39
##MAXY=9999
##MINY=20
##NPOINTS=36
##PEAK TABLE=(XY..XY)
39,460 41,70 45,150 47,220
50,220 51,690 52,120 59,110
60,50 61,70 62,60 63,200
65,680 74,80 75,40 76,50
77,550 78,380 79,160 88,30
89,130 90,50 91,9999 92,1260
93,60 102,60 103,430 104,1190
105,290 120,40 124,80 134,20
135,60 138,1930 139,170 140,70
##END=
