##TITLE=3-Furanmethanol
##JCAMP-DX=4.24
##DATA TYPE=MASS SPECTRUM
##ORIGIN=Japan AIST/NIMC Database- Spectrum MS-IW-1326
##OWNER=NIST Mass Spectrometry Data Center
Collection (C) 2014 copyright by the U.S. Secretary of Commerce
on behalf of the United States of America. All rights reserved.
##CAS REGISTRY NO=4412-91-3
##$NIST MASS SPEC NO=239537
##MOLFORM=C5 H6 O2
##MW=98
##$NIST SOURCE=MSDC
##XUNITS=M/Z
##YUNITS=RELATIVE INTENSITY
##XFACTOR=1
##YFACTOR=1
##FIRSTX=13
##LASTX=100
##FIRSTY=10
##MAXX=100
##MINX=13
##MAXY=9999
##MINY=10
##NPOINTS=58
##PEAK TABLE=(XY..XY)
13,10 14,60 15,119 25,40
26,229 27,969 28,279 29,1229
30,50 31,809 32,50 34,10
35,30 36,40 37,379 38,689
39,3169 40,459 41,5329 42,2519
43,569 44,369 45,30 47,30
48,319 49,139 50,579 51,1029
52,649 53,2029 54,169 55,899
56,90 57,70 58,10 59,10
61,10 65,10 66,109 67,309
68,189 69,4259 70,2299 71,379
72,40 75,20 77,10 79,179
80,80 81,2959 82,269 83,20
95,879 96,269 97,4759 98,9999
99,589 100,30
##END=
