##TITLE=1H-Tetrazol-5-amine
##JCAMP-DX=4.24
##DATA TYPE=MASS SPECTRUM
##ORIGIN=Japan AIST/NIMC Database- Spectrum MS-NW- 319
##OWNER=NIST Mass Spectrometry Data Center
Collection (C) 2014 copyright by the U.S. Secretary of Commerce
on behalf of the United States of America. All rights reserved.
##CAS REGISTRY NO=4418-61-5
##$NIST MASS SPEC NO=228562
##MOLFORM=C H3 N5
##MW=85
##$NIST SOURCE=MSDC
##XUNITS=M/Z
##YUNITS=RELATIVE INTENSITY
##XFACTOR=1
##YFACTOR=1
##FIRSTX=12
##LASTX=86
##FIRSTY=90
##MAXX=86
##MINX=12
##MAXY=9999
##MINY=20
##NPOINTS=29
##PEAK TABLE=(XY..XY)
12,90 13,209 14,99 15,169
16,169 17,70 18,20 26,279
27,1789 28,9999 29,1449 30,519
31,40 32,20 36,139 38,40
40,70 41,459 42,1739 43,1149
44,30 54,30 55,30 57,4989
58,109 59,40 69,20 85,3749
86,119
##END=
