##TITLE=Clemizole
##JCAMP-DX=4.24
##DATA TYPE=MASS SPECTRUM
##ORIGIN=Tox21 Consortium/NIST Mass Spectrometry Data Center, 2012
##OWNER=NIST Mass Spectrometry Data Center
Collection (C) 2014 copyright by the U.S. Secretary of Commerce
on behalf of the United States of America. All rights reserved.
##CAS REGISTRY NO=442-52-4
##$NIST MASS SPEC NO=408050
##MOLFORM=C19 H20 Cl N3
##MW=325
##$NIST SOURCE=MSDC
##XUNITS=M/Z
##YUNITS=RELATIVE INTENSITY
##XFACTOR=1
##YFACTOR=1
##FIRSTX=15
##LASTX=324
##FIRSTY=20
##MAXX=324
##MINX=15
##MAXY=9999
##MINY=10
##NPOINTS=202
##PEAK TABLE=(XY..XY)
15,20 26,20 27,100 28,390
29,80 30,60 35,10 36,20
37,10 38,30 39,270 40,60
41,360 42,841 43,130 49,10
50,80 51,220 52,70 53,70
54,90 55,410 56,80 57,10
61,10 62,70 63,420 64,160
65,180 66,30 67,110 68,140
69,90 70,671 71,50 72,30
73,80 74,50 75,220 76,310
77,1001 78,180 79,20 80,50
81,20 82,90 83,50 84,540
85,60 87,20 88,30 89,1571
90,821 91,240 92,170 93,30
94,10 95,10 96,10 97,10
99,500 100,30 101,170 102,350
103,450 104,951 105,110 107,80
108,10 109,70 110,60 111,30
112,30 113,20 114,30 115,40
116,70 117,100 118,220 119,170
120,10 121,10 123,40 125,5545
126,450 127,1862 128,150 129,190
130,200 131,9999 132,1181 133,80
134,10 136,10 137,30 138,40
139,30 140,30 141,10 142,20
143,220 144,200 145,871 146,110
147,10 148,10 149,10 150,50
151,110 152,130 153,40 154,10
155,10 156,50 157,90 158,30
159,10 160,10 163,10 164,30
165,20 166,10 167,10 168,30
169,50 170,300 171,100 172,30
173,10 174,10 175,10 176,20
177,70 178,70 179,70 180,30
181,10 182,10 183,10 184,30
185,20 186,10 187,10 188,10
190,40 191,20 192,20 193,10
194,10 195,10 196,20 198,40
199,20 200,160 201,30 202,10
203,10 204,10 205,80 206,200
207,40 212,10 213,50 214,110
215,30 216,40 217,60 218,150
219,651 220,380 221,210 222,40
223,10 228,30 229,10 230,10
238,10 239,20 240,40 241,1041
242,150 243,330 244,50 252,20
253,260 254,110 255,7467 256,7517
257,3423 258,2432 259,370 260,30
269,10 270,10 271,10 272,10
282,10 285,10 321,10 322,10
323,10 324,10
##END=
