##TITLE=Harmine
##JCAMP-DX=4.24
##DATA TYPE=MASS SPECTRUM
##ORIGIN=HOME OFFICE, CENTRAL RES. EST., ALDERMASTON, BERKS., U.K.
##OWNER=NIST Mass Spectrometry Data Center
Collection (C) 2014 copyright by the U.S. Secretary of Commerce
on behalf of the United States of America. All rights reserved.
##CAS REGISTRY NO=442-51-3
##$NIST MASS SPEC NO=58654
##MOLFORM=C13 H12 N2 O
##MW=212
##$NIST SOURCE=MSDC
##XUNITS=M/Z
##YUNITS=RELATIVE INTENSITY
##XFACTOR=1
##YFACTOR=1
##FIRSTX=39
##LASTX=214
##FIRSTY=300
##MAXX=214
##MINX=39
##MAXY=9999
##MINY=100
##NPOINTS=43
##PEAK TABLE=(XY..XY)
39,300 42,400 50,200 51,200
52,200 62,300 63,400 65,200
74,200 75,300 76,200 77,300
88,200 91,200 100,200 101,300
102,200 106,600 113,100 114,200
115,300 116,100 127,300 128,300
140,400 141,300 142,200 153,200
167,300 168,600 169,4400 170,700
181,200 182,200 183,500 184,200
196,200 197,5300 198,600 211,700
212,9999 213,1500 214,200
##END=
