##TITLE=Benzamide, 4-fluoro-N-(1-naphtyl)-
##JCAMP-DX=4.24
##DATA TYPE=MASS SPECTRUM
##ORIGIN=Zaikin V.G., TIPS RAS, Moscow, Russia
##OWNER=NIST Mass Spectrometry Data Center
Collection (C) 2014 copyright by the U.S. Secretary of Commerce
on behalf of the United States of America. All rights reserved.
##CAS REGISTRY NO=442-72-8
##$NIST MASS SPEC NO=307109
##MOLFORM=C17 H12 F N O
##MW=265
##$NIST SOURCE=MSDC
##XUNITS=M/Z
##YUNITS=RELATIVE INTENSITY
##XFACTOR=1
##YFACTOR=1
##FIRSTX=28
##LASTX=267
##FIRSTY=10
##MAXX=267
##MINX=28
##MAXY=9999
##MINY=10
##NPOINTS=36
##PEAK TABLE=(XY..XY)
28,10 39,40 50,40 51,40
63,70 65,30 74,30 75,280
76,40 88,30 89,100 94,60
95,2242 96,180 113,60 114,110
115,811 116,140 122,30 123,9999
124,671 125,40 126,30 127,40
140,130 141,70 142,60 143,320
144,380 145,30 234,30 235,40
264,20 265,4664 266,821 267,80
##END=
