##TITLE=1,3,5-Benzenetricarbonyl trichloride
##JCAMP-DX=4.24
##DATA TYPE=MASS SPECTRUM
##ORIGIN=NIST Mass Spectrometry Data Center, 1994
##OWNER=NIST Mass Spectrometry Data Center
Collection (C) 2014 copyright by the U.S. Secretary of Commerce
on behalf of the United States of America. All rights reserved.
##CAS REGISTRY NO=4422-95-1
##$NIST MASS SPEC NO=134200
##MOLFORM=C9 H3 Cl3 O3
##MW=264
##$NIST SOURCE=MSDC
##XUNITS=M/Z
##YUNITS=RELATIVE INTENSITY
##XFACTOR=1
##YFACTOR=1
##FIRSTX=12
##LASTX=235
##FIRSTY=22
##MAXX=235
##MINX=12
##MAXY=9999
##MINY=1
##NPOINTS=90
##PEAK TABLE=(XY..XY)
12,22 14,1 16,3 18,6
24,15 25,69 26,75 28,140
29,93 35,306 36,196 37,1123
39,32 40,18 43,70 47,53
48,79 49,350 50,467 51,530
52,18 53,405 54,18 55,32
56,12 60,109 61,216 62,131
63,528 64,12 65,636 69,43
70,16 71,19 72,122 73,759
74,2743 75,3485 76,252 77,135
79,31 83,111 84,172 85,161
86,147 87,99 97,439 98,161
99,12 101,170 103,650 104,62
107,16 109,350 110,319 111,156
112,116 121,16 137,615 138,959
139,288 140,331 141,23 144,18
145,83 147,56 157,17 159,10
165,1459 166,2938 167,717 168,914
169,95 172,10 173,27 174,11
175,20 194,18 201,466 202,67
203,306 204,37 205,44 229,9999
230,1151 231,6540 232,664 233,1127
234,110 235,11
##END=
