##TITLE=Cyclohexanone, 2-ethyl-
##JCAMP-DX=4.24
##DATA TYPE=MASS SPECTRUM
##ORIGIN=NIST Mass Spectrometry Data Center, 1990.
##OWNER=NIST Mass Spectrometry Data Center
Collection (C) 2014 copyright by the U.S. Secretary of Commerce
on behalf of the United States of America. All rights reserved.
##CAS REGISTRY NO=4423-94-3
##$NIST MASS SPEC NO=114070
##MOLFORM=C8 H14 O
##MW=126
##$NIST SOURCE=MSDC
##XUNITS=M/Z
##YUNITS=RELATIVE INTENSITY
##XFACTOR=1
##YFACTOR=1
##FIRSTX=15
##LASTX=127
##FIRSTY=154
##MAXX=127
##MINX=15
##MAXY=9999
##MINY=103
##NPOINTS=44
##PEAK TABLE=(XY..XY)
15,154 26,344 27,2029 28,1220
29,1136 39,3579 40,833 41,4719
42,3677 43,774 50,286 51,470
52,282 53,1050 54,884 55,7564
56,2034 57,457 58,119 63,172
65,317 67,2691 68,797 69,2262
70,2598 71,230 72,117 77,290
79,429 80,196 81,415 82,2570
83,4955 84,1567 85,151 91,103
93,391 95,127 97,3008 98,9999
99,686 111,849 126,2481 127,231
##END=
