##TITLE=1H-2-Benzothiopyran, 3,4-dihydro-
##JCAMP-DX=4.24
##DATA TYPE=MASS SPECTRUM
##OWNER=NIST Mass Spectrometry Data Center
Collection (C) 2014 copyright by the U.S. Secretary of Commerce
on behalf of the United States of America. All rights reserved.
##CAS REGISTRY NO=4426-75-9
##$NIST MASS SPEC NO=4692
##MOLFORM=C9 H10 S
##MW=150
##$NIST SOURCE=MSDC
##XUNITS=M/Z
##YUNITS=RELATIVE INTENSITY
##XFACTOR=1
##YFACTOR=1
##FIRSTX=24
##LASTX=152
##FIRSTY=10
##MAXX=152
##MINX=24
##MAXY=9999
##MINY=10
##NPOINTS=128
##PEAK TABLE=(XY..XY)
24,10 25,30 26,410 27,1601
28,150 29,40 30,10 31,10
32,130 33,160 34,150 35,40
36,10 37,220 38,641 39,3183
40,230 41,250 42,20 43,20
44,80 45,250 46,611 47,240
48,40 49,90 50,140 51,2672
52,851 53,350 54,40 55,20
56,10 57,150 58,330 59,160
60,70 61,250 62,711 63,1962
64,340 65,1071 66,110 67,110
68,20 69,601 70,110 71,190
72,80 73,310 74,911 75,811
76,420 77,2232 78,2612 79,360
80,20 81,60 82,100 83,30
84,50 85,60 86,130 87,160
88,80 89,831 90,210 91,1862
92,160 93,150 94,40 95,80
96,30 97,80 98,50 99,20
100,10 101,80 102,561 103,2022
104,9999 105,1161 106,70 107,10
108,70 109,50 110,30 111,10
112,310 113,50 114,90 115,4064
116,1371 117,4174 118,420 119,40
120,50 121,1171 122,3083 123,360
124,150 125,10 126,10 127,10
128,10 129,10 130,10 131,10
132,10 133,50 134,1041 135,2863
136,320 137,140 138,10 139,10
141,10 142,10 143,10 144,10
145,50 146,20 147,470 148,120
149,2152 150,9639 151,1111 152,450
##END=
