##TITLE=Butane, 2-isothiocyanato-
##JCAMP-DX=4.24
##DATA TYPE=MASS SPECTRUM
##ORIGIN=NIST Mass Spectrometry Data Center
##OWNER=NIST Mass Spectrometry Data Center
Collection (C) 2014 copyright by the U.S. Secretary of Commerce
on behalf of the United States of America. All rights reserved.
##CAS REGISTRY NO=4426-79-3
##$NIST MASS SPEC NO=414807
##MOLFORM=C5 H9 N S
##MW=115
##$NIST SOURCE=MSDC
##XUNITS=M/Z
##YUNITS=RELATIVE INTENSITY
##XFACTOR=1
##YFACTOR=1
##FIRSTX=25
##LASTX=118
##FIRSTY=10
##MAXX=118
##MINX=25
##MAXY=9999
##MINY=10
##NPOINTS=59
##PEAK TABLE=(XY..XY)
25,10 26,100 27,621 28,220
29,971 30,20 32,80 33,10
36,10 37,50 38,110 39,971
40,210 41,3423 42,200 44,120
45,120 46,20 49,20 50,110
51,170 52,120 53,190 54,110
55,641 56,2793 57,2772 58,571
59,871 60,1081 61,70 62,60
64,20 67,20 68,20 69,70
70,180 71,150 72,931 73,70
74,50 82,50 83,130 84,270
85,80 86,4034 87,190 88,190
96,10 98,40 99,10 100,260
101,10 102,10 114,40 115,9999
116,671 117,470 118,30
##END=
