##TITLE=3-Fluoro-o-xylene
##JCAMP-DX=4.24
##DATA TYPE=MASS SPECTRUM
##ORIGIN=NIST Mass Spectrometry Data Center, 1990.
##OWNER=NIST Mass Spectrometry Data Center
Collection (C) 2014 copyright by the U.S. Secretary of Commerce
on behalf of the United States of America. All rights reserved.
##CAS REGISTRY NO=443-82-3
##$NIST MASS SPEC NO=118321
##MOLFORM=C8 H9 F
##MW=124
##$NIST SOURCE=MSDC
##XUNITS=M/Z
##YUNITS=RELATIVE INTENSITY
##XFACTOR=1
##YFACTOR=1
##FIRSTX=14
##LASTX=125
##FIRSTY=17
##MAXX=125
##MINX=14
##MAXY=9999
##MINY=8
##NPOINTS=74
##PEAK TABLE=(XY..XY)
14,17 15,24 16,44 26,29
27,187 28,120 29,29 31,36
32,17 37,30 38,97 39,242
40,8 44,30 45,39 49,38
50,272 51,588 52,83 53,63
56,49 57,357 58,32 59,48
60,89 61,118 62,130 63,314
64,49 65,49 68,56 69,87
70,147 71,40 73,45 74,175
75,316 76,111 77,917 78,155
79,47 80,25 81,164 82,25
83,689 84,56 85,39 86,47
87,53 89,107 91,68 92,23
93,37 94,87 95,213 96,427
97,250 98,72 99,28 100,52
101,385 102,218 103,610 104,68
105,38 107,189 109,9999 110,669
120,97 121,264 122,354 123,2296
124,4218 125,340
##END=
