##TITLE=1H-Purin-6-amine, N-methyl-
##JCAMP-DX=4.24
##DATA TYPE=MASS SPECTRUM
##ORIGIN=Japan AIST/NIMC Database- Spectrum MS-IW-4830
##OWNER=NIST Mass Spectrometry Data Center
Collection (C) 2014 copyright by the U.S. Secretary of Commerce
on behalf of the United States of America. All rights reserved.
##CAS REGISTRY NO=443-72-1
##$NIST MASS SPEC NO=244787
##MOLFORM=C6 H7 N5
##MW=149
##$NIST SOURCE=MSDC
##XUNITS=M/Z
##YUNITS=RELATIVE INTENSITY
##XFACTOR=1
##YFACTOR=1
##FIRSTX=14
##LASTX=151
##FIRSTY=10
##MAXX=151
##MINX=14
##MAXY=9999
##MINY=10
##NPOINTS=65
##PEAK TABLE=(XY..XY)
14,10 15,269 26,10 27,119
28,1219 29,90 30,1769 31,20
38,219 39,199 40,239 41,149
42,509 43,109 44,50 46,10
50,10 51,40 52,99 53,679
54,189 55,70 56,10 57,129
60,20 61,10 64,99 65,439
66,1259 67,479 68,219 69,50
70,30 74,129 75,10 77,60
78,30 79,149 80,239 81,70
82,10 91,40 92,469 93,4799
94,789 95,80 98,10 105,10
106,90 107,60 108,20 119,1229
120,4589 121,4369 122,319 123,10
132,10 133,80 134,209 135,20
147,20 148,2259 149,9999 150,959
151,40
##END=
