##TITLE=n-Undecanophenone
##JCAMP-DX=4.24
##DATA TYPE=MASS SPECTRUM
##ORIGIN=NIST Mass Spectrometry Data Center
##OWNER=NIST Mass Spectrometry Data Center
Collection (C) 2014 copyright by the U.S. Secretary of Commerce
on behalf of the United States of America. All rights reserved.
##CAS REGISTRY NO=4433-30-1
##$NIST MASS SPEC NO=342650
##MOLFORM=C17 H26 O
##MW=246
##$NIST SOURCE=MSDC
##XUNITS=M/Z
##YUNITS=RELATIVE INTENSITY
##XFACTOR=1
##YFACTOR=1
##FIRSTX=18
##LASTX=248
##FIRSTY=20
##MAXX=248
##MINX=18
##MAXY=9999
##MINY=10
##NPOINTS=71
##PEAK TABLE=(XY..XY)
18,20 27,581 28,150 29,831
30,20 39,480 41,1712 42,370
43,1041 44,10 50,160 51,831
52,70 53,120 54,80 55,911
56,190 57,210 58,10 63,20
65,70 66,10 67,60 68,30
69,140 70,40 71,30 75,40
77,3934 78,671 79,110 81,30
82,10 83,30 85,10 89,10
91,210 92,60 95,10 97,10
103,60 105,8307 106,641 107,80
115,60 116,20 117,30 120,9999
121,991 122,70 124,20 128,10
129,30 130,10 131,20 133,1051
134,100 143,10 144,10 145,20
146,10 147,50 148,10 157,10
162,10 175,10 189,30 203,20
246,510 247,90 248,10
##END=
