##TITLE=[1,1'-Biphenyl]-4,4'-diol, 3,3'-dimethoxy-
##JCAMP-DX=4.24
##DATA TYPE=MASS SPECTRUM
##ORIGIN=Y. NAKAGAWA, SHIONOGI RES. LAB., FUKUSHIMA-KU, OSAKA, JAPAN
##OWNER=NIST Mass Spectrometry Data Center
Collection (C) 2014 copyright by the U.S. Secretary of Commerce
on behalf of the United States of America. All rights reserved.
##CAS REGISTRY NO=4433-09-4
##$NIST MASS SPEC NO=100607
##MOLFORM=C14 H14 O4
##MW=246
##$NIST SOURCE=MSDC
##XUNITS=M/Z
##YUNITS=RELATIVE INTENSITY
##XFACTOR=1
##YFACTOR=1
##FIRSTX=51
##LASTX=248
##FIRSTY=270
##MAXX=248
##MINX=51
##MAXY=9999
##MINY=120
##NPOINTS=33
##PEAK TABLE=(XY..XY)
51,270 53,140 55,140 63,180
65,130 77,260 80,370 89,170
94,210 102,140 103,140 105,130
109,120 115,380 123,840 124,260
131,350 157,140 160,630 171,210
185,240 188,720 189,140 199,140
203,2860 204,390 216,160 217,190
231,2320 232,750 246,9999 247,1570
248,190
##END=
