##TITLE=1,2,3-Butanetriol
##JCAMP-DX=4.24
##DATA TYPE=MASS SPECTRUM
##ORIGIN=Japan AIST/NIMC Database- Spectrum MS-NW-4348
##OWNER=NIST Mass Spectrometry Data Center
Collection (C) 2014 copyright by the U.S. Secretary of Commerce
on behalf of the United States of America. All rights reserved.
##CAS REGISTRY NO=4435-50-1
##$NIST MASS SPEC NO=230309
##MOLFORM=C4 H10 O3
##MW=106
##$NIST SOURCE=MSDC
##XUNITS=M/Z
##YUNITS=RELATIVE INTENSITY
##XFACTOR=1
##YFACTOR=1
##FIRSTX=13
##LASTX=106
##FIRSTY=20
##MAXX=106
##MINX=13
##MAXY=9999
##MINY=10
##NPOINTS=74
##PEAK TABLE=(XY..XY)
13,20 14,99 15,779 16,30
17,80 18,309 25,20 26,179
27,1409 28,1019 29,1769 30,179
31,1789 32,209 33,30 37,30
38,70 39,419 40,99 41,629
42,579 43,5109 44,9999 45,9249
46,249 47,159 49,10 50,30
51,30 52,10 53,90 54,90
55,669 56,129 57,3579 58,899
59,169 60,369 61,1969 62,249
63,149 67,10 68,10 69,149
70,159 71,589 72,90 73,259
74,149 75,1729 76,70 77,30
79,10 80,10 81,10 83,40
84,10 85,30 86,50 87,129
88,189 89,169 90,10 91,70
97,10 98,30 99,99 100,20
101,60 102,10 103,119 104,20
105,20 106,10
##END=
