##TITLE=2(3H)-Furanone, dihydro-5,5-dimethyl-4-(3-oxobutyl)-
##JCAMP-DX=4.24
##DATA TYPE=MASS SPECTRUM
##ORIGIN=Japan AIST/NIMC Database- Spectrum MS-IW-6628
##OWNER=NIST Mass Spectrometry Data Center
Collection (C) 2014 copyright by the U.S. Secretary of Commerce
on behalf of the United States of America. All rights reserved.
##CAS REGISTRY NO=4436-81-1
##$NIST MASS SPEC NO=241955
##MOLFORM=C10 H16 O3
##MW=184
##$NIST SOURCE=MSDC
##XUNITS=M/Z
##YUNITS=RELATIVE INTENSITY
##XFACTOR=1
##YFACTOR=1
##FIRSTX=14
##LASTX=185
##FIRSTY=10
##MAXX=185
##MINX=14
##MAXY=9999
##MINY=10
##NPOINTS=109
##PEAK TABLE=(XY..XY)
14,10 15,229 17,10 26,30
27,459 28,139 29,379 31,60
38,30 39,659 40,129 41,1219
42,219 43,9999 44,319 45,80
49,10 50,30 51,80 52,50
53,329 54,239 55,1569 56,179
57,109 58,739 59,719 60,30
61,10 63,40 65,50 66,30
67,739 68,1189 69,859 70,169
71,539 72,50 77,70 78,10
79,139 80,50 81,809 82,1369
83,1169 84,139 85,539 86,40
87,10 91,99 92,10 93,30
94,10 95,309 96,269 97,329
98,4229 99,559 100,40 101,10
105,90 106,159 107,1029 108,159
109,579 110,60 111,2999 112,209
113,80 114,449 115,40 116,40
117,10 120,50 121,149 122,259
123,949 124,309 125,289 126,749
127,1399 128,109 129,10 133,70
135,70 136,10 138,119 139,70
140,20 141,70 142,359 143,30
148,30 149,10 150,20 151,1739
152,169 153,20 165,10 166,5089
167,799 168,70 169,969 170,90
171,10 182,10 183,99 184,469
185,50
##END=
