##TITLE=Furan, 2,2'-[oxybis(methylene)]bis-
##JCAMP-DX=4.24
##DATA TYPE=MASS SPECTRUM
##OWNER=NIST Mass Spectrometry Data Center
Collection (C) 2014 copyright by the U.S. Secretary of Commerce
on behalf of the United States of America. All rights reserved.
##CAS REGISTRY NO=4437-22-3
##$NIST MASS SPEC NO=7285
##MOLFORM=C10 H10 O3
##MW=178
##$NIST SOURCE=MSDC
##XUNITS=M/Z
##YUNITS=RELATIVE INTENSITY
##XFACTOR=1
##YFACTOR=1
##FIRSTX=27
##LASTX=179
##FIRSTY=971
##MAXX=179
##MINX=27
##MAXY=9999
##MINY=70
##NPOINTS=21
##PEAK TABLE=(XY..XY)
27,971 29,230 38,130 39,821
41,490 50,100 51,280 52,230
53,1972 54,430 69,380 80,180
81,9999 82,4684 83,260 95,330
96,130 97,871 110,380 178,671
179,70
##END=
