##TITLE=1,2,4-Triphenyl-1,4-butanedione
##JCAMP-DX=4.24
##DATA TYPE=MASS SPECTRUM
##ORIGIN=NIST Mass Spectrometry Data Center
##OWNER=NIST Mass Spectrometry Data Center
Collection (C) 2014 copyright by the U.S. Secretary of Commerce
on behalf of the United States of America. All rights reserved.
##CAS REGISTRY NO=4441-01-4
##$NIST MASS SPEC NO=340431
##MOLFORM=C22 H18 O2
##MW=314
##$NIST SOURCE=MSDC
##XUNITS=M/Z
##YUNITS=RELATIVE INTENSITY
##XFACTOR=1
##YFACTOR=1
##FIRSTX=27
##LASTX=316
##FIRSTY=30
##MAXX=316
##MINX=27
##MAXY=9999
##MINY=10
##NPOINTS=58
##PEAK TABLE=(XY..XY)
27,30 39,60 50,170 51,861
52,70 53,10 62,10 63,60
64,10 65,30 74,40 75,50
76,170 77,4324 78,550 79,30
89,50 90,20 91,30 101,10
102,70 103,350 104,681 105,9999
106,981 107,60 115,40 126,10
128,10 131,60 139,10 151,20
152,60 153,10 163,10 164,10
165,110 166,30 167,10 176,10
177,10 178,50 179,20 181,20
189,20 191,30 192,200 193,30
194,20 207,20 209,951 210,150
211,10 296,50 297,10 314,480
315,110 316,10
##END=
