##TITLE=Cyclohexane, eicosyl-
##JCAMP-DX=4.24
##DATA TYPE=MASS SPECTRUM
##ORIGIN=CONTINENTAL OIL CO., PONCA CITY, OKLA, USA
##OWNER=NIST Mass Spectrometry Data Center
Collection (C) 2014 copyright by the U.S. Secretary of Commerce
on behalf of the United States of America. All rights reserved.
##CAS REGISTRY NO=4443-55-4
##$NIST MASS SPEC NO=34822
##MOLFORM=C26 H52
##MW=364
##$NIST SOURCE=MSDC
##XUNITS=M/Z
##YUNITS=RELATIVE INTENSITY
##XFACTOR=1
##YFACTOR=1
##FIRSTX=14
##LASTX=366
##FIRSTY=23
##MAXX=366
##MINX=14
##MAXY=9999
##MINY=2
##NPOINTS=154
##PEAK TABLE=(XY..XY)
14,23 15,26 16,9 25,5
26,27 27,435 28,256 29,1173
30,30 36,8 37,8 38,12
39,276 40,74 41,2652 42,519
43,3591 44,125 45,5 50,10
51,16 52,10 53,141 54,397
55,4050 56,788 57,2293 58,104
59,5 63,6 65,26 66,42
67,829 68,441 69,1473 70,442
71,884 72,52 73,8 74,5
75,6 76,7 77,43 78,18
79,78 80,37 81,344 82,7716
83,9999 84,805 85,457 86,32
89,4 91,38 92,22 93,19
94,13 95,123 96,286 97,880
98,147 99,64 100,7 103,4
104,8 105,11 106,4 107,6
108,7 109,69 110,55 111,276
112,81 113,36 114,5 115,4
117,5 119,4 121,4 122,3
123,15 124,27 125,112 126,51
127,24 128,4 131,3 133,4
135,3 137,9 138,22 139,68
140,38 141,18 142,4 151,5
152,16 153,35 154,30 155,14
165,5 166,12 167,26 168,25
169,12 177,2 179,4 180,11
181,17 182,19 183,8 191,4
193,3 194,11 195,32 196,19
197,8 208,14 209,15 210,15
211,7 222,19 223,26 224,14
225,5 236,7 237,9 238,10
239,4 250,6 251,8 252,33
253,9 264,4 265,4 266,4
267,3 278,4 280,127 281,30
292,2 293,3 294,4 306,3
307,3 334,2 335,11 336,3
358,3 362,14 363,7 364,211
365,60 366,8
##END=
