##TITLE=Bornyl bromide
##JCAMP-DX=4.24
##DATA TYPE=MASS SPECTRUM
##ORIGIN=NIST Mass Spectrometry Data Center, 1994
##OWNER=NIST Mass Spectrometry Data Center
Collection (C) 2014 copyright by the U.S. Secretary of Commerce
on behalf of the United States of America. All rights reserved.
##CAS REGISTRY NO=4443-48-5
##$NIST MASS SPEC NO=135471
##MOLFORM=C10 H17 Br
##MW=216
##$NIST SOURCE=MSDC
##XUNITS=M/Z
##YUNITS=RELATIVE INTENSITY
##XFACTOR=1
##YFACTOR=1
##FIRSTX=15
##LASTX=219
##FIRSTY=354
##MAXX=219
##MINX=15
##MAXY=9999
##MINY=12
##NPOINTS=86
##PEAK TABLE=(XY..XY)
15,354 16,12 17,21 18,25
26,128 27,1657 28,391 29,1014
30,24 37,28 38,149 39,2188
40,369 41,2740 42,190 43,520
44,22 50,163 51,550 52,281
53,1380 54,221 55,1854 56,142
57,208 58,36 59,21 61,18
62,45 63,160 64,48 65,586
66,211 67,1963 68,238 69,997
70,98 71,23 75,15 77,989
78,214 79,1441 80,15 81,9999
82,813 83,229 89,29 91,785
92,194 93,992 94,251 95,1269
96,189 97,14 103,55 104,25
105,200 106,41 107,263 108,95
109,212 110,22 115,22 117,22
119,45 121,430 123,1593 124,149
133,49 134,146 135,72 136,310
137,1145 138,133 146,32 148,35
159,15 161,24 173,21 174,15
175,27 201,66 203,64 216,266
218,227 219,26
##END=
