##TITLE=Cyclohexane, (1-propylheptadecyl)-
##JCAMP-DX=4.24
##DATA TYPE=MASS SPECTRUM
##OWNER=NIST Mass Spectrometry Data Center
Collection (C) 2014 copyright by the U.S. Secretary of Commerce
on behalf of the United States of America. All rights reserved.
##CAS REGISTRY NO=4443-58-7
##$NIST MASS SPEC NO=16269
##MOLFORM=C26 H52
##MW=364
##$NIST SOURCE=MSDC
##XUNITS=M/Z
##YUNITS=RELATIVE INTENSITY
##XFACTOR=1
##YFACTOR=1
##FIRSTX=36
##LASTX=366
##FIRSTY=10
##MAXX=366
##MINX=36
##MAXY=9999
##MINY=10
##NPOINTS=235
##PEAK TABLE=(XY..XY)
36,10 37,20 38,40 39,901
40,200 41,7997 42,1812 43,9679
44,340 48,10 49,10 50,20
51,40 52,40 53,470 54,1051
55,9899 56,2302 57,7777 58,360
59,10 60,10 61,10 62,10
63,10 64,10 65,80 66,90
67,2362 68,651 69,4344 70,1511
71,4194 72,240 73,10 74,10
75,10 76,10 77,90 78,30
79,210 80,90 81,931 82,8047
83,9999 84,1241 85,2823 86,190
87,10 88,10 89,10 90,10
91,70 92,20 93,70 94,30
95,450 96,761 97,3383 98,530
99,681 100,60 101,10 102,10
103,10 104,10 105,30 106,10
107,20 108,20 109,330 110,200
111,1211 112,290 113,450 114,40
115,10 116,10 117,10 118,10
119,10 120,10 121,10 122,10
123,60 124,120 125,651 126,200
127,320 128,30 129,10 131,10
132,10 133,10 134,10 135,10
136,10 137,50 138,981 139,2172
140,340 141,250 142,30 143,10
145,10 147,10 150,10 151,20
152,80 153,230 154,110 155,180
156,30 157,10 161,10 164,10
165,10 166,40 167,150 168,80
169,140 170,20 171,10 179,10
180,30 181,110 182,70 183,120
184,20 185,10 193,10 194,20
195,80 196,60 197,100 198,20
199,10 200,10 201,10 202,10
203,10 207,10 208,20 209,60
210,40 211,80 212,10 213,10
215,10 216,10 217,10 220,10
221,10 222,20 223,50 224,30
225,60 226,10 230,20 231,10
232,10 235,10 236,10 237,40
238,30 239,50 240,10 241,10
242,10 245,10 246,10 247,10
248,10 249,10 250,10 251,30
252,90 253,20 263,10 264,10
265,20 266,20 267,10 268,10
269,10 276,10 277,10 278,10
279,20 280,1291 281,741 282,140
283,20 284,10 291,10 292,10
293,10 294,10 295,10 296,10
306,10 307,40 308,10 309,10
310,10 313,10 314,10 315,10
316,10 317,10 318,10 319,10
320,300 321,881 322,230 323,30
324,10 325,10 326,10 327,10
329,10 330,10 331,10 332,10
333,10 334,10 335,20 336,10
337,10 338,10 362,10 363,10
364,10 365,10 366,10
##END=
