##TITLE=1-Butanamine, N,N-diethyl-
##JCAMP-DX=4.24
##DATA TYPE=MASS SPECTRUM
##ORIGIN=NIST Mass Spectrometry Data Center, 1998.
##OWNER=NIST Mass Spectrometry Data Center
Collection (C) 2014 copyright by the U.S. Secretary of Commerce
on behalf of the United States of America. All rights reserved.
##CAS REGISTRY NO=4444-68-2
##$NIST MASS SPEC NO=291277
##MOLFORM=C8 H19 N
##MW=129
##$NIST SOURCE=MSDC
##XUNITS=M/Z
##YUNITS=RELATIVE INTENSITY
##XFACTOR=1
##YFACTOR=1
##FIRSTX=15
##LASTX=130
##FIRSTY=30
##MAXX=130
##MINX=15
##MAXY=9999
##MINY=10
##NPOINTS=49
##PEAK TABLE=(XY..XY)
15,30 26,30 27,360 28,220
29,590 30,630 31,10 38,10
39,170 40,30 41,470 42,740
43,140 44,410 45,10 50,10
51,10 52,10 53,40 54,100
55,150 56,550 57,350 58,2150
59,80 67,10 68,30 69,10
70,140 71,90 72,1510 73,80
80,10 82,10 84,110 86,9999
87,660 88,20 96,10 98,80
99,10 100,60 112,80 114,520
115,40 127,10 128,150 129,910
130,90
##END=
