##TITLE=Cycloheptanemethanol
##JCAMP-DX=4.24
##DATA TYPE=MASS SPECTRUM
##ORIGIN=Japan AIST/NIMC Database- Spectrum MS-NW-9726
##OWNER=NIST Mass Spectrometry Data Center
Collection (C) 2014 copyright by the U.S. Secretary of Commerce
on behalf of the United States of America. All rights reserved.
##CAS REGISTRY NO=4448-75-3
##$NIST MASS SPEC NO=239324
##MOLFORM=C8 H16 O
##MW=128
##$NIST SOURCE=MSDC
##XUNITS=M/Z
##YUNITS=RELATIVE INTENSITY
##XFACTOR=1
##YFACTOR=1
##FIRSTX=15
##LASTX=129
##FIRSTY=20
##MAXX=129
##MINX=15
##MAXY=9999
##MINY=10
##NPOINTS=65
##PEAK TABLE=(XY..XY)
15,20 17,10 18,30 26,20
27,549 28,189 29,739 30,20
31,349 32,10 38,20 39,819
40,129 41,2219 42,279 43,899
44,70 45,40 50,20 51,70
52,30 53,359 54,889 55,9999
56,799 57,529 58,40 59,10
63,10 65,99 66,329 67,1919
68,1199 69,1409 70,209 71,99
72,10 73,30 77,90 78,30
79,189 80,149 81,2889 82,3119
83,329 84,109 85,40 87,20
91,60 92,10 93,70 94,20
95,1299 96,1299 97,6449 98,529
99,20 105,10 107,20 108,20
109,99 110,349 111,90 112,20
129,10
##END=
