##TITLE=o-Fluoroacetophenone
##JCAMP-DX=4.24
##DATA TYPE=MASS SPECTRUM
##ORIGIN=NIST Mass Spectrometry Data Center
##OWNER=NIST Mass Spectrometry Data Center
Collection (C) 2014 copyright by the U.S. Secretary of Commerce
on behalf of the United States of America. All rights reserved.
##CAS REGISTRY NO=445-27-2
##$NIST MASS SPEC NO=343180
##MOLFORM=C8 H7 F O
##MW=138
##$NIST SOURCE=MSDC
##XUNITS=M/Z
##YUNITS=RELATIVE INTENSITY
##XFACTOR=1
##YFACTOR=1
##FIRSTX=12
##LASTX=140
##FIRSTY=10
##MAXX=140
##MINX=12
##MAXY=9999
##MINY=10
##NPOINTS=84
##PEAK TABLE=(XY..XY)
12,10 13,40 14,190 15,731
16,10 17,10 18,10 25,10
26,60 27,90 28,20 29,50
31,180 33,60 36,10 37,180
38,220 39,360 40,20 41,40
42,280 43,1822 44,70 45,70
46,10 48,60 49,150 50,881
51,520 52,40 53,20 55,10
56,80 57,380 58,10 59,20
60,30 61,250 62,290 63,320
64,30 65,10 68,420 69,520
70,170 71,20 73,120 74,671
75,2182 76,230 77,40 80,30
81,140 82,30 83,220 84,20
85,40 86,50 87,30 89,100
90,50 91,20 92,80 93,120
95,4314 96,601 97,30 98,20
99,10 101,20 104,10 105,10
107,100 108,20 109,140 110,10
120,20 123,9999 124,741 125,50
136,10 138,2222 139,200 140,10
##END=
