##TITLE=Benzenamine, 4-bromo-2-(trifluoromethyl)-
##JCAMP-DX=4.24
##DATA TYPE=MASS SPECTRUM
##ORIGIN=Japan AIST/NIMC Database- Spectrum MS-IW-1253
##OWNER=NIST Mass Spectrometry Data Center
Collection (C) 2014 copyright by the U.S. Secretary of Commerce
on behalf of the United States of America. All rights reserved.
##CAS REGISTRY NO=445-02-3
##$NIST MASS SPEC NO=239588
##MOLFORM=C7 H5 Br F3 N
##MW=239
##$NIST SOURCE=MSDC
##XUNITS=M/Z
##YUNITS=RELATIVE INTENSITY
##XFACTOR=1
##YFACTOR=1
##FIRSTX=26
##LASTX=243
##FIRSTY=10
##MAXX=243
##MINX=26
##MAXY=9999
##MINY=10
##NPOINTS=138
##PEAK TABLE=(XY..XY)
26,10 27,10 28,10 31,40
39,99 40,40 41,129 42,10
44,80 45,90 46,50 49,20
50,119 51,90 52,239 53,30
54,40 55,10 56,50 57,70
60,50 61,149 62,259 63,699
64,219 65,149 66,99 68,30
69,129 70,1469 71,20 72,10
73,20 74,99 75,249 76,50
77,10 79,20 80,70 81,139
82,50 83,109 84,40 85,30
86,20 87,80 88,169 89,129
90,219 91,129 92,20 93,60
94,60 95,139 96,90 97,50
99,60 100,90 101,30 102,10
106,40 107,20 108,50 109,309
110,309 111,149 112,169 113,979
114,229 115,30 116,10 117,40
118,10 119,209 120,409 121,80
122,20 123,10 125,10 130,10
131,60 132,459 133,149 134,10
135,10 137,10 138,70 139,329
140,609 141,90 142,10 143,40
144,30 145,20 154,70 155,10
156,90 157,20 158,70 159,279
160,209 161,20 163,10 169,40
170,10 171,40 173,10 175,10
180,30 182,30 188,10 189,10
190,10 191,10 192,3039 193,209
194,2989 195,199 198,10 199,10
200,109 201,30 202,99 203,10
211,30 213,20 218,50 219,5409
220,959 221,5319 222,899 223,60
238,189 239,9999 240,989 241,9799
242,799 243,30
##END=
