##TITLE=Benzenamine, 4-chloro-2-(trifluoromethyl)-
##JCAMP-DX=4.24
##DATA TYPE=MASS SPECTRUM
##ORIGIN=Japan AIST/NIMC Database- Spectrum MS-NW-6372
##OWNER=NIST Mass Spectrometry Data Center
Collection (C) 2014 copyright by the U.S. Secretary of Commerce
on behalf of the United States of America. All rights reserved.
##CAS REGISTRY NO=445-03-4
##$NIST MASS SPEC NO=235718
##MOLFORM=C7 H5 Cl F3 N
##MW=195
##$NIST SOURCE=MSDC
##XUNITS=M/Z
##YUNITS=RELATIVE INTENSITY
##XFACTOR=1
##YFACTOR=1
##FIRSTX=14
##LASTX=199
##FIRSTY=10
##MAXX=199
##MINX=14
##MAXY=9999
##MINY=10
##NPOINTS=155
##PEAK TABLE=(XY..XY)
14,10 20,20 26,40 27,60
28,319 29,10 30,10 31,149
32,10 35,40 36,169 37,209
38,249 39,229 40,80 41,229
42,30 44,159 45,119 46,119
47,30 48,20 49,70 50,229
51,179 52,459 53,50 54,40
55,20 56,109 57,129 58,10
59,20 60,50 61,269 62,429
63,939 64,249 65,229 66,149
67,20 68,50 69,229 70,519
71,30 72,80 73,259 74,269
75,419 76,90 77,159 78,50
79,30 80,80 81,169 82,50
83,119 84,50 85,50 86,50
87,419 88,519 89,239 90,319
91,119 92,40 93,90 94,60
95,149 96,40 97,229 98,99
99,279 100,139 101,90 102,20
103,10 104,10 105,10 106,40
107,30 108,60 109,70 110,169
111,109 112,249 113,859 114,229
115,30 117,90 118,30 119,50
120,299 121,60 122,40 123,20
124,60 125,249 126,60 127,80
128,20 129,70 130,30 131,119
132,499 133,139 134,20 135,20
136,109 137,20 138,149 139,219
140,519 141,60 142,10 143,30
144,40 145,149 146,20 147,129
148,5679 149,429 150,1849 151,129
153,20 154,50 155,50 156,239
157,60 158,119 159,80 160,209
161,40 166,10 167,129 168,20
169,50 172,10 173,30 174,139
175,7349 176,1539 177,2429 178,509
179,60 181,10 191,10 192,10
193,10 194,289 195,9999 196,929
197,3239 198,279 199,10
##END=
