##TITLE=ortho-Fluorobenzamide
##JCAMP-DX=4.24
##DATA TYPE=MASS SPECTRUM
##ORIGIN=NIST Mass Spectrometry Data Center, 1994
##OWNER=NIST Mass Spectrometry Data Center
Collection (C) 2014 copyright by the U.S. Secretary of Commerce
on behalf of the United States of America. All rights reserved.
##CAS REGISTRY NO=445-28-3
##$NIST MASS SPEC NO=133507
##MOLFORM=C7 H6 F N O
##MW=139
##$NIST SOURCE=MSDC
##XUNITS=M/Z
##YUNITS=RELATIVE INTENSITY
##XFACTOR=1
##YFACTOR=1
##FIRSTX=27
##LASTX=140
##FIRSTY=96
##MAXX=140
##MINX=27
##MAXY=9999
##MINY=53
##NPOINTS=41
##PEAK TABLE=(XY..XY)
27,96 28,89 31,127 37,183
38,184 39,190 43,102 44,924
45,109 49,188 50,931 51,492
52,113 56,102 57,233 61,176
62,175 63,263 64,66 68,487
69,652 70,379 73,210 74,904
75,2875 76,348 77,62 81,75
83,206 90,53 92,134 93,172
94,591 95,4747 96,811 102,93
121,209 123,9999 124,783 139,6994
140,552
##END=
