##TITLE=Dicyclohexylmethanol
##JCAMP-DX=4.24
##DATA TYPE=MASS SPECTRUM
##ORIGIN=Chuck Anderson, Aldrich Chemical Co.
##OWNER=NIST Mass Spectrometry Data Center
Collection (C) 2014 copyright by the U.S. Secretary of Commerce
on behalf of the United States of America. All rights reserved.
##CAS REGISTRY NO=4453-82-1
##$NIST MASS SPEC NO=108451
##MOLFORM=C13 H24 O
##MW=196
##$NIST SOURCE=MSDC
##XUNITS=M/Z
##YUNITS=RELATIVE INTENSITY
##XFACTOR=1
##YFACTOR=1
##FIRSTX=18
##LASTX=179
##FIRSTY=5
##MAXX=179
##MINX=18
##MAXY=9999
##MINY=3
##NPOINTS=53
##PEAK TABLE=(XY..XY)
18,5 26,20 27,318 28,95
29,498 30,6 31,127 39,322
40,49 41,1272 42,106 43,230
44,40 45,95 51,32 52,17
53,192 54,161 55,1456 56,159
57,272 58,16 65,74 66,81
67,1165 68,651 69,655 70,387
71,132 77,139 78,37 79,375
80,112 81,440 82,728 83,843
84,112 91,63 93,245 94,452
95,9999 96,854 97,609 98,43
109,12 111,43 112,1518 113,3189
114,256 115,118 135,3 178,86
179,3
##END=
