##TITLE=Ethyl (methylthio)acetate
##JCAMP-DX=4.24
##DATA TYPE=MASS SPECTRUM
##ORIGIN=Chuck Anderson, Aldrich Chemical Co.
##OWNER=NIST Mass Spectrometry Data Center
Collection (C) 2014 copyright by the U.S. Secretary of Commerce
on behalf of the United States of America. All rights reserved.
##CAS REGISTRY NO=4455-13-4
##$NIST MASS SPEC NO=107415
##MOLFORM=C5 H10 O2 S
##MW=134
##$NIST SOURCE=MSDC
##XUNITS=M/Z
##YUNITS=RELATIVE INTENSITY
##XFACTOR=1
##YFACTOR=1
##FIRSTX=12
##LASTX=137
##FIRSTY=1
##MAXX=137
##MINX=12
##MAXY=9999
##MINY=1
##NPOINTS=64
##PEAK TABLE=(XY..XY)
12,1 13,14 14,153 15,381
16,15 19,21 25,7 26,192
27,2441 28,257 29,4766 30,143
31,319 32,23 33,21 34,27
35,1802 36,18 37,73 39,12
40,3 41,85 42,908 43,439
44,74 45,1496 46,828 47,566
48,171 49,53 50,5 57,21
58,70 59,239 60,832 61,9999
62,414 63,508 64,30 65,2
70,519 71,21 72,9 73,40
74,19 75,181 76,6 77,156
78,3 79,5 87,14 88,5755
89,741 90,115 91,69 92,24
105,35 106,57 107,3 119,31
134,6976 135,428 136,334 137,16
##END=
