##TITLE=Carbonochloridic acid, (4-nitrophenyl)methyl ester
##JCAMP-DX=4.24
##DATA TYPE=MASS SPECTRUM
##ORIGIN=Japan AIST/NIMC Database- Spectrum MS-NW-7976
##OWNER=NIST Mass Spectrometry Data Center
Collection (C) 2014 copyright by the U.S. Secretary of Commerce
on behalf of the United States of America. All rights reserved.
##CAS REGISTRY NO=4457-32-3
##$NIST MASS SPEC NO=237969
##MOLFORM=C8 H6 Cl N O4
##MW=215
##$NIST SOURCE=MSDC
##XUNITS=M/Z
##YUNITS=RELATIVE INTENSITY
##XFACTOR=1
##YFACTOR=1
##FIRSTX=12
##LASTX=219
##FIRSTY=10
##MAXX=219
##MINX=12
##MAXY=9999
##MINY=10
##NPOINTS=124
##PEAK TABLE=(XY..XY)
12,10 15,10 17,30 18,139
25,10 26,90 27,309 28,419
29,309 30,5199 31,20 32,10
35,80 36,159 37,139 38,389
39,1219 40,209 41,30 42,10
43,70 44,449 45,70 46,80
49,70 50,969 51,1619 52,459
53,40 54,10 55,30 60,10
61,109 62,419 63,1839 64,609
65,569 66,99 67,10 68,20
73,70 74,239 75,389 76,499
77,1589 78,2589 79,219 80,20
83,10 85,40 86,70 87,70
88,70 89,7709 90,2019 91,159
92,109 93,30 94,99 95,10
99,229 100,10 101,80 102,10
103,10 104,149 105,369 106,1779
107,179 108,30 111,20 112,30
113,139 114,20 115,40 116,10
118,30 120,40 121,40 122,80
123,10 124,179 125,919 126,119
127,319 128,30 133,10 134,10
135,1189 136,9999 137,829 138,70
139,10 140,10 141,329 142,30
143,129 144,10 150,80 151,80
152,439 153,60 154,219 155,40
156,70 157,30 169,219 170,80
171,709 172,90 173,209 174,20
179,109 180,20 199,309 200,40
201,90 202,10 214,20 215,3369
216,469 217,1109 218,159 219,20
##END=
