##TITLE=Oxacyclohexadecan-2-one, 16-methyl-
##JCAMP-DX=4.24
##DATA TYPE=MASS SPECTRUM
##ORIGIN=HCACAV,61(7)2671(1978); R. KAISER AND D. LAMPARSKY
##OWNER=NIST Mass Spectrometry Data Center
Collection (C) 2014 copyright by the U.S. Secretary of Commerce
on behalf of the United States of America. All rights reserved.
##CAS REGISTRY NO=4459-57-8
##$NIST MASS SPEC NO=65418
##MOLFORM=C16 H30 O2
##MW=254
##$NIST SOURCE=MSDC
##XUNITS=M/Z
##YUNITS=RELATIVE INTENSITY
##XFACTOR=1
##YFACTOR=1
##FIRSTX=41
##LASTX=254
##FIRSTY=7100
##MAXX=254
##MINX=41
##MAXY=9999
##MINY=300
##NPOINTS=19
##PEAK TABLE=(XY..XY)
41,7100 43,4300 55,9999 56,3800
69,6600 72,3800 83,4400 84,3400
97,3600 98,3600 111,1700 125,1200
137,500 152,1100 192,500 210,800
218,300 236,1600 254,300
##END=
