##TITLE=Benzene, 4-fluoro-2-methyl-1-nitro-
##JCAMP-DX=4.24
##DATA TYPE=MASS SPECTRUM
##ORIGIN=USAF ACADEMY, COLORADO SPRINGS, COLORADO 80840, J LLOYD PFLUG
##OWNER=NIST Mass Spectrometry Data Center
Collection (C) 2014 copyright by the U.S. Secretary of Commerce
on behalf of the United States of America. All rights reserved.
##CAS REGISTRY NO=446-33-3
##$NIST MASS SPEC NO=80029
##MOLFORM=C7 H6 F N O2
##MW=155
##$NIST SOURCE=MSDC
##XUNITS=M/Z
##YUNITS=RELATIVE INTENSITY
##XFACTOR=1
##YFACTOR=1
##FIRSTX=15
##LASTX=156
##FIRSTY=19
##MAXX=156
##MINX=15
##MAXY=9999
##MINY=3
##NPOINTS=88
##PEAK TABLE=(XY..XY)
15,19 26,40 27,40 29,65
30,388 31,103 33,58 37,82
38,173 39,599 40,34 41,3
43,28 45,22 46,95 47,22
49,65 50,441 51,649 52,133
53,43 54,16 55,37 56,157
57,1729 58,98 59,411 60,41
61,240 62,544 63,1411 64,186
65,76 67,16 68,209 69,206
70,276 71,119 72,22 73,76
74,246 75,388 76,131 77,864
78,100 79,26 80,110 81,877
82,641 83,7795 84,850 85,163
86,167 87,157 88,76 89,689
90,907 91,94 92,43 93,61
94,195 95,765 96,519 97,294
98,67 99,43 100,17 104,26
105,128 106,41 107,2230 108,634
109,2367 110,2770 111,622 112,59
118,40 121,16 122,43 123,55
124,30 125,79 126,22 138,9999
139,876 140,55 155,1450 156,118
##END=
