##TITLE=4-Chloro-2-fluorobenzoic acid
##JCAMP-DX=4.24
##DATA TYPE=MASS SPECTRUM
##ORIGIN=NIST Mass Spectrometry Data Center, 1994
##OWNER=NIST Mass Spectrometry Data Center
Collection (C) 2014 copyright by the U.S. Secretary of Commerce
on behalf of the United States of America. All rights reserved.
##CAS REGISTRY NO=446-30-0
##$NIST MASS SPEC NO=134926
##MOLFORM=C7 H4 Cl F O2
##MW=174
##$NIST SOURCE=MSDC
##XUNITS=M/Z
##YUNITS=RELATIVE INTENSITY
##XFACTOR=1
##YFACTOR=1
##FIRSTX=4
##LASTX=177
##FIRSTY=5
##MAXX=177
##MINX=4
##MAXY=9999
##MINY=5
##NPOINTS=91
##PEAK TABLE=(XY..XY)
4,5 25,30 26,38 28,141
29,75 31,282 32,47 35,75
36,117 37,390 38,249 39,96
44,84 45,579 47,191 48,56
49,291 50,980 51,205 53,104
55,86 56,150 57,305 60,117
61,563 62,454 63,676 64,147
65,60 66,64 67,60 68,840
69,289 70,49 71,79 72,115
73,797 74,1548 75,998 76,78
77,45 78,302 79,133 81,114
82,48 83,353 84,173 85,86
86,57 90,29 91,126 92,394
93,1287 94,1231 95,512 96,66
97,58 98,148 99,50 100,37
101,38 102,61 103,93 105,50
109,848 110,241 111,298 112,52
117,82 121,50 122,83 126,112
127,47 129,2844 130,302 131,917
132,75 139,47 146,198 148,55
154,48 155,58 157,9999 158,859
159,3111 160,237 161,38 174,5414
175,474 176,1691 177,130
##END=
