##TITLE=Benzene, 4-fluoro-1-methyl-2-nitro-
##JCAMP-DX=4.24
##DATA TYPE=MASS SPECTRUM
##ORIGIN=Japan AIST/NIMC Database- Spectrum MS-NW-5808
##OWNER=NIST Mass Spectrometry Data Center
Collection (C) 2014 copyright by the U.S. Secretary of Commerce
on behalf of the United States of America. All rights reserved.
##CAS REGISTRY NO=446-10-6
##$NIST MASS SPEC NO=234869
##MOLFORM=C7 H6 F N O2
##MW=155
##$NIST SOURCE=MSDC
##XUNITS=M/Z
##YUNITS=RELATIVE INTENSITY
##XFACTOR=1
##YFACTOR=1
##FIRSTX=14
##LASTX=157
##FIRSTY=20
##MAXX=157
##MINX=14
##MAXY=9999
##MINY=10
##NPOINTS=114
##PEAK TABLE=(XY..XY)
14,20 15,20 16,10 25,10
26,80 27,199 28,549 29,149
30,539 31,419 32,80 33,99
36,20 37,159 38,269 39,1119
40,70 41,30 42,10 43,109
44,189 45,50 46,99 47,20
48,20 49,109 50,669 51,909
52,179 53,50 54,10 55,40
56,229 57,2009 58,119 59,709
60,50 61,279 62,659 63,1569
64,239 65,119 66,20 67,10
68,179 69,189 70,259 71,129
72,30 73,60 74,249 75,389
76,129 77,829 78,99 79,30
80,139 81,909 82,579 83,8389
84,769 85,149 86,159 87,179
88,119 89,779 90,719 91,60
92,40 93,80 94,209 95,849
96,539 97,529 98,90 99,40
100,20 101,10 102,20 103,20
104,30 105,119 106,70 107,2479
108,2209 109,4589 110,3869 111,649
112,50 118,30 119,10 120,10
121,40 122,70 123,109 124,90
125,169 126,30 129,10 132,10
133,10 134,20 135,30 136,20
137,30 138,9999 139,929 140,70
141,30 153,20 154,10 155,1649
156,149 157,20
##END=
