##TITLE=2,4-Difluoronitrobenzene
##JCAMP-DX=4.24
##DATA TYPE=MASS SPECTRUM
##ORIGIN=NIST Mass Spectrometry Data Center
##OWNER=NIST Mass Spectrometry Data Center
Collection (C) 2014 copyright by the U.S. Secretary of Commerce
on behalf of the United States of America. All rights reserved.
##CAS REGISTRY NO=446-35-5
##$NIST MASS SPEC NO=343082
##MOLFORM=C6 H3 F2 N O2
##MW=159
##$NIST SOURCE=MSDC
##XUNITS=M/Z
##YUNITS=RELATIVE INTENSITY
##XFACTOR=1
##YFACTOR=1
##FIRSTX=12
##LASTX=161
##FIRSTY=50
##MAXX=161
##MINX=12
##MAXY=9999
##MINY=10
##NPOINTS=79
##PEAK TABLE=(XY..XY)
12,50 13,10 14,10 16,230
18,90 19,320 20,70 24,30
25,80 26,30 28,90 30,7807
31,1431 32,80 33,50 36,200
37,871 38,430 39,250 40,20
44,180 46,550 47,20 48,90
49,390 50,1521 51,1301 52,90
53,30 55,170 56,611 57,1251
58,40 60,190 61,1131 62,2122
63,9999 64,631 67,80 68,1451
69,721 70,80 73,370 74,1001
75,1682 76,210 77,50 79,110
80,270 81,991 82,230 83,70
86,210 87,450 88,40 92,530
93,1331 94,500 95,120 99,200
101,6256 102,420 107,30 109,40
110,60 111,170 113,5905 114,390
126,50 127,110 129,6025 130,410
131,20 141,70 143,931 144,50
159,7156 160,510 161,50
##END=
