##TITLE=2-Fluorobenzhydrazide
##JCAMP-DX=4.24
##DATA TYPE=MASS SPECTRUM
##ORIGIN=NIST Mass Spectrometry Data Center, 1994
##OWNER=NIST Mass Spectrometry Data Center
Collection (C) 2014 copyright by the U.S. Secretary of Commerce
on behalf of the United States of America. All rights reserved.
##CAS REGISTRY NO=446-24-2
##$NIST MASS SPEC NO=134950
##MOLFORM=C7 H7 F N2 O
##MW=154
##$NIST SOURCE=MSDC
##XUNITS=M/Z
##YUNITS=RELATIVE INTENSITY
##XFACTOR=1
##YFACTOR=1
##FIRSTX=15
##LASTX=155
##FIRSTY=14
##MAXX=155
##MINX=15
##MAXY=9999
##MINY=14
##NPOINTS=57
##PEAK TABLE=(XY..XY)
15,14 16,68 17,20 26,26
27,49 28,68 29,236 30,135
31,548 32,24 37,90 38,102
39,144 43,15 44,30 45,63
48,21 49,84 50,581 51,369
52,38 53,30 56,52 57,118
61,82 62,90 63,121 64,23
68,289 69,420 70,94 71,21
73,79 74,454 75,2181 76,246
77,70 78,14 80,16 81,28
82,31 83,57 90,19 92,68
93,104 95,5179 96,354 97,15
108,17 109,15 121,38 123,9999
124,746 125,48 139,61 154,1927
155,188
##END=
