##TITLE=4-Fluoro-3-nitrotoluene
##JCAMP-DX=4.24
##DATA TYPE=MASS SPECTRUM
##ORIGIN=Japan AIST/NIMC Database- Spectrum MS-NW-7391
##OWNER=NIST Mass Spectrometry Data Center
Collection (C) 2014 copyright by the U.S. Secretary of Commerce
on behalf of the United States of America. All rights reserved.
##CAS REGISTRY NO=446-11-7
##$NIST MASS SPEC NO=238465
##MOLFORM=C7 H6 F N O2
##MW=155
##$NIST SOURCE=MSDC
##XUNITS=M/Z
##YUNITS=RELATIVE INTENSITY
##XFACTOR=1
##YFACTOR=1
##FIRSTX=18
##LASTX=157
##FIRSTY=10
##MAXX=157
##MINX=18
##MAXY=9999
##MINY=10
##NPOINTS=100
##PEAK TABLE=(XY..XY)
18,10 26,50 27,189 28,279
29,10 30,1289 31,389 32,20
33,90 36,10 37,149 38,239
39,1099 40,60 41,40 43,60
44,30 45,20 46,129 47,20
48,10 49,90 50,609 51,959
52,189 53,109 54,10 55,30
56,249 57,2199 58,119 59,879
60,40 61,299 62,619 63,1649
64,189 65,119 66,20 68,209
69,159 70,219 71,179 72,40
73,60 74,249 75,269 76,80
77,1889 78,229 79,50 80,179
81,1109 82,379 83,7769 84,479
85,139 86,169 87,179 88,99
89,909 90,129 91,40 92,40
93,80 94,139 95,1179 96,529
97,3889 98,339 99,30 100,10
101,10 102,10 103,10 104,30
105,199 106,90 107,2079 108,1409
109,6259 110,559 111,30 113,20
122,40 123,20 124,99 125,1259
126,119 127,30 135,10 137,20
138,149 139,369 140,40 153,60
154,139 155,9999 156,839 157,80
##END=
