##TITLE=2-Fluorobenzyl alcohol
##JCAMP-DX=4.24
##DATA TYPE=MASS SPECTRUM
##ORIGIN=Japan AIST/NIMC Database- Spectrum MS-NW-5493
##OWNER=NIST Mass Spectrometry Data Center
Collection (C) 2014 copyright by the U.S. Secretary of Commerce
on behalf of the United States of America. All rights reserved.
##CAS REGISTRY NO=446-51-5
##$NIST MASS SPEC NO=235259
##MOLFORM=C7 H7 F O
##MW=126
##$NIST SOURCE=MSDC
##XUNITS=M/Z
##YUNITS=RELATIVE INTENSITY
##XFACTOR=1
##YFACTOR=1
##FIRSTX=14
##LASTX=128
##FIRSTY=10
##MAXX=128
##MINX=14
##MAXY=9999
##MINY=10
##NPOINTS=92
##PEAK TABLE=(XY..XY)
14,10 15,10 20,20 25,10
26,90 27,289 28,209 29,589
30,90 31,649 32,30 33,40
36,20 37,219 38,329 39,699
40,40 41,30 42,50 43,70
44,90 45,90 46,30 47,40
48,50 49,149 50,1099 51,1939
52,329 53,259 54,40 55,50
56,119 57,669 58,40 59,129
60,30 61,229 62,379 63,569
64,60 65,40 66,20 67,10
68,279 69,409 70,539 71,109
72,30 73,99 74,459 75,1139
76,319 77,4519 78,919 79,529
80,70 81,299 82,99 83,1039
84,90 85,50 86,70 87,50
88,30 89,159 90,20 91,10
92,70 93,70 94,179 95,1749
96,1139 97,7739 98,649 99,30
103,10 104,40 105,6089 106,1149
107,939 108,569 109,2789 110,289
111,20 122,10 123,639 124,119
125,5279 126,9999 127,769 128,50
##END=
