##TITLE=Genisteine
##JCAMP-DX=4.24
##DATA TYPE=MASS SPECTRUM
##ORIGIN=SAS 0024
##OWNER=NIST Mass Spectrometry Data Center
Collection (C) 2014 copyright by the U.S. Secretary of Commerce
on behalf of the United States of America. All rights reserved.
##CAS REGISTRY NO=446-95-7
##$NIST MASS SPEC NO=11235
##MOLFORM=C15 H26 N2
##MW=234
##$NIST SOURCE=MSDC
##XUNITS=M/Z
##YUNITS=RELATIVE INTENSITY
##XFACTOR=1
##YFACTOR=1
##FIRSTX=51
##LASTX=235
##FIRSTY=100
##MAXX=235
##MINX=51
##MAXY=9999
##MINY=100
##NPOINTS=83
##PEAK TABLE=(XY..XY)
51,100 52,150 53,420 54,550
55,1221 56,530 57,100 59,400
65,100 66,100 67,801 68,621
69,470 70,500 77,350 78,300
79,420 80,450 81,300 82,581
83,921 84,1752 85,100 89,150
91,150 92,100 93,330 94,370
95,350 96,1221 97,2602 98,9999
99,801 106,220 107,200 108,410
109,601 110,1982 111,400 116,210
117,530 120,280 121,200 122,951
123,550 124,801 126,200 132,100
134,1401 135,981 136,2803 137,5405
138,991 148,601 149,981 150,1281
151,811 152,811 153,150 159,100
162,200 163,190 164,200 165,210
166,200 176,240 177,240 178,230
190,240 191,681 192,260 193,1782
194,250 204,200 205,300 206,150
215,100 218,100 219,100 232,350
233,941 234,5205 235,891
##END=
