##TITLE=2-Pentene, 4-methyl-
##JCAMP-DX=4.24
##DATA TYPE=MASS SPECTRUM
##ORIGIN=Japan AIST/NIMC Database- Spectrum MS-NW-1369
##OWNER=NIST Mass Spectrometry Data Center
Collection (C) 2014 copyright by the U.S. Secretary of Commerce
on behalf of the United States of America. All rights reserved.
##CAS REGISTRY NO=4461-48-7
##$NIST MASS SPEC NO=231320
##MOLFORM=C6 H12
##MW=84
##$NIST SOURCE=MSDC
##XUNITS=M/Z
##YUNITS=RELATIVE INTENSITY
##XFACTOR=1
##YFACTOR=1
##FIRSTX=14
##LASTX=85
##FIRSTY=10
##MAXX=85
##MINX=14
##MAXY=9999
##MINY=10
##NPOINTS=44
##PEAK TABLE=(XY..XY)
14,10 15,149 26,99 27,1209
28,109 29,549 30,10 31,20
37,70 38,179 39,1939 40,359
41,9999 42,879 43,689 44,30
45,10 49,20 50,119 51,189
52,70 53,569 54,129 55,1029
56,799 57,40 61,20 62,40
63,60 64,10 65,109 66,40
67,549 68,159 69,9629 70,539
71,20 77,20 79,20 81,20
82,10 83,80 84,3379 85,239
##END=
