##TITLE=2-Butene, 2-chloro-
##JCAMP-DX=4.24
##DATA TYPE=MASS SPECTRUM
##ORIGIN=Japan AIST/NIMC Database- Spectrum MS-NW-3085
##OWNER=NIST Mass Spectrometry Data Center
Collection (C) 2014 copyright by the U.S. Secretary of Commerce
on behalf of the United States of America. All rights reserved.
##CAS REGISTRY NO=4461-41-0
##$NIST MASS SPEC NO=230573
##MOLFORM=C4 H7 Cl
##MW=90
##$NIST SOURCE=MSDC
##XUNITS=M/Z
##YUNITS=RELATIVE INTENSITY
##XFACTOR=1
##YFACTOR=1
##FIRSTX=14
##LASTX=93
##FIRSTY=20
##MAXX=93
##MINX=14
##MAXY=9999
##MINY=10
##NPOINTS=51
##PEAK TABLE=(XY..XY)
14,20 15,80 25,50 26,429
27,2059 28,369 29,2119 30,50
35,30 36,60 37,149 38,219
39,2439 40,109 41,259 42,10
43,269 44,30 45,20 47,30
48,30 49,259 50,539 51,539
52,199 53,2269 54,899 55,9999
56,459 57,10 60,50 61,169
62,399 63,179 64,129 65,40
71,10 72,20 73,60 74,10
75,1039 76,40 77,329 78,10
87,10 88,30 89,199 90,3869
91,229 92,1199 93,50
##END=
