##TITLE=Chloroacetyl isocyanate
##JCAMP-DX=4.24
##DATA TYPE=MASS SPECTRUM
##ORIGIN=NIST Mass Spectrometry Data Center
##OWNER=NIST Mass Spectrometry Data Center
Collection (C) 2014 copyright by the U.S. Secretary of Commerce
on behalf of the United States of America. All rights reserved.
##CAS REGISTRY NO=4461-30-7
##$NIST MASS SPEC NO=343028
##MOLFORM=C3 H2 Cl N O2
##MW=119
##$NIST SOURCE=MSDC
##XUNITS=M/Z
##YUNITS=RELATIVE INTENSITY
##XFACTOR=1
##YFACTOR=1
##FIRSTX=12
##LASTX=121
##FIRSTY=230
##MAXX=121
##MINX=12
##MAXY=9999
##MINY=80
##NPOINTS=42
##PEAK TABLE=(XY..XY)
12,230 13,210 14,561 15,80
16,140 17,100 18,80 19,80
24,110 25,130 26,370 27,510
28,1481 29,450 30,250 35,601
36,130 37,270 38,410 39,290
40,651 41,460 42,2042 43,170
44,1481 47,510 48,961 49,2843
50,390 51,901 54,190 56,410
63,90 70,9999 71,280 75,581
77,2833 78,110 79,761 93,110
119,751 121,260
##END=
