##TITLE=2,3-Dimethoxytoluene
##JCAMP-DX=4.24
##DATA TYPE=MASS SPECTRUM
##ORIGIN=NIST Mass Spectrometry Data Center
##OWNER=NIST Mass Spectrometry Data Center
Collection (C) 2014 copyright by the U.S. Secretary of Commerce
on behalf of the United States of America. All rights reserved.
##CAS REGISTRY NO=4463-33-6
##$NIST MASS SPEC NO=352788
##MOLFORM=C9 H12 O2
##MW=152
##$NIST SOURCE=MSDC
##XUNITS=M/Z
##YUNITS=RELATIVE INTENSITY
##XFACTOR=1
##YFACTOR=1
##FIRSTX=14
##LASTX=154
##FIRSTY=10
##MAXX=154
##MINX=14
##MAXY=9999
##MINY=10
##NPOINTS=85
##PEAK TABLE=(XY..XY)
14,10 15,170 26,40 27,110
28,30 29,90 30,20 31,50
32,10 33,20 37,50 38,170
39,1081 40,360 41,250 42,20
43,120 45,20 47,30 49,30
50,370 51,891 52,440 53,681
54,70 55,220 56,10 57,10
59,10 61,60 62,190 63,540
64,190 65,1772 66,1641 67,150
68,30 69,50 73,20 74,100
75,70 76,100 77,2252 78,681
79,1651 80,140 81,911 82,60
83,10 85,10 86,20 87,20
88,10 89,230 90,120 91,2472
92,250 93,300 94,1882 95,160
96,10 103,10 104,10 105,380
106,180 107,781 108,150 109,3503
110,280 111,20 118,10 119,40
120,10 121,160 122,561 123,60
124,10 135,260 136,370 137,5485
138,510 139,40 152,9999 153,1041
154,90
##END=
