##TITLE=Propane, 2-methyl-2-[(1-methylethyl)thio]-
##JCAMP-DX=4.24
##DATA TYPE=MASS SPECTRUM
##OWNER=NIST Mass Spectrometry Data Center
Collection (C) 2014 copyright by the U.S. Secretary of Commerce
on behalf of the United States of America. All rights reserved.
##CAS REGISTRY NO=44657-76-3
##$NIST MASS SPEC NO=20869
##MOLFORM=C7 H16 S
##MW=132
##$NIST SOURCE=MSDC
##XUNITS=M/Z
##YUNITS=RELATIVE INTENSITY
##XFACTOR=1
##YFACTOR=1
##FIRSTX=15
##LASTX=132
##FIRSTY=130
##MAXX=132
##MINX=15
##MAXY=9999
##MINY=50
##NPOINTS=31
##PEAK TABLE=(XY..XY)
15,130 26,80 27,1191 29,1992
30,80 35,50 38,100 39,1461
40,140 41,5895 42,490 43,2302
45,250 46,370 47,210 53,110
55,510 56,2442 57,9999 58,460
59,571 60,260 61,480 74,851
75,1481 76,991 77,510 88,60
89,110 117,270 132,1581
##END=
