##TITLE=Cyclopropanecarboxylic acid, 2,2-dimethyl-3-(2-methyl-1-propenyl)-, 2-methyl-4-oxo-3-(2-pentenyl)-2-cyclopenten-1-yl ester, [1R-[1.alpha.[S*(Z)],3.beta.]]-
##JCAMP-DX=4.24
##DATA TYPE=MASS SPECTRUM
##ORIGIN=H.M.PAISLEY, NATIONAL PHYSICAL LAB., TEDDINGTON, MIDDLESEX, UK
##OWNER=NIST Mass Spectrometry Data Center
Collection (C) 2014 copyright by the U.S. Secretary of Commerce
on behalf of the United States of America. All rights reserved.
##CAS REGISTRY NO=4466-14-2
##$NIST MASS SPEC NO=15382
##MOLFORM=C21 H30 O3
##MW=330
##$NIST SOURCE=MSDC
##XUNITS=M/Z
##YUNITS=RELATIVE INTENSITY
##XFACTOR=1
##YFACTOR=1
##FIRSTX=27
##LASTX=331
##FIRSTY=830
##MAXX=331
##MINX=27
##MAXY=9999
##MINY=100
##NPOINTS=89
##PEAK TABLE=(XY..XY)
27,830 28,990 29,1330 39,1030
40,230 41,3130 42,410 43,3330
44,720 51,150 52,100 53,730
54,340 55,3130 56,730 57,2150
58,200 59,270 60,450 61,130
65,380 66,150 67,1160 68,540
69,2520 70,600 71,1080 73,460
77,820 78,220 79,1160 80,380
81,2450 82,640 83,1030 84,450
85,720 91,1060 92,220 93,1630
94,380 95,950 96,460 97,630
98,170 99,220 105,570 106,120
107,1050 108,570 109,890 110,240
111,460 112,200 113,190 119,150
120,130 121,1330 122,360 123,9999
124,1220 125,370 126,110 127,110
129,190 133,600 134,100 135,1360
136,280 137,240 138,150 139,210
145,160 147,210 149,630 150,220
151,210 153,290 161,130 162,540
163,630 164,2760 165,390 167,180
168,620 256,160 284,110 330,480
331,110
##END=
