##TITLE=2,3-Dimethoxyphenylacetonitrile
##JCAMP-DX=4.24
##DATA TYPE=MASS SPECTRUM
##ORIGIN=NIST Mass Spectrometry Data Center, 1994
##OWNER=NIST Mass Spectrometry Data Center
Collection (C) 2014 copyright by the U.S. Secretary of Commerce
on behalf of the United States of America. All rights reserved.
##CAS REGISTRY NO=4468-57-9
##$NIST MASS SPEC NO=134450
##MOLFORM=C10 H11 N O2
##MW=177
##$NIST SOURCE=MSDC
##XUNITS=M/Z
##YUNITS=RELATIVE INTENSITY
##XFACTOR=1
##YFACTOR=1
##FIRSTX=13
##LASTX=179
##FIRSTY=65
##MAXX=179
##MINX=13
##MAXY=9999
##MINY=47
##NPOINTS=96
##PEAK TABLE=(XY..XY)
13,65 14,359 15,3575 16,96
26,384 27,531 28,61 29,732
30,166 31,281 37,504 38,1314
39,3341 40,457 41,545 42,176
43,171 44,65 46,174 49,178
50,1974 51,3231 52,961 53,1125
54,238 55,392 59,101 61,413
62,1083 63,3287 64,3323 65,7627
66,691 67,150 73,110 74,451
75,1034 76,1968 77,2899 78,993
79,3112 80,412 81,101 86,89
87,185 88,322 89,1185 90,1207
91,2589 92,925 93,1440 94,1542
95,119 99,60 101,47 102,321
103,590 104,647 105,1719 106,1464
107,3467 108,511 109,144 114,129
115,80 116,794 117,189 118,332
119,1460 120,195 121,160 122,830
123,58 130,271 131,194 132,153
133,218 134,1795 135,7800 136,1517
137,1191 138,90 144,65 146,302
147,176 148,455 149,88 150,208
159,121 160,243 162,7011 163,788
164,85 177,9999 178,1145 179,60
##END=
