##TITLE=Naphthalene, 1,2-dihydro-
##JCAMP-DX=4.24
##DATA TYPE=MASS SPECTRUM
##ORIGIN=Japan AIST/NIMC Database- Spectrum MS-NW-3089
##OWNER=NIST Mass Spectrometry Data Center
Collection (C) 2014 copyright by the U.S. Secretary of Commerce
on behalf of the United States of America. All rights reserved.
##CAS REGISTRY NO=447-53-0
##$NIST MASS SPEC NO=229757
##MOLFORM=C10 H10
##MW=130
##$NIST SOURCE=MSDC
##XUNITS=M/Z
##YUNITS=RELATIVE INTENSITY
##XFACTOR=1
##YFACTOR=1
##FIRSTX=15
##LASTX=132
##FIRSTY=10
##MAXX=132
##MINX=15
##MAXY=9999
##MINY=10
##NPOINTS=60
##PEAK TABLE=(XY..XY)
15,10 25,10 26,30 27,139
28,10 37,40 38,90 39,379
40,20 41,20 49,30 50,359
51,909 52,159 53,50 57,30
58,20 61,70 62,169 63,589
64,829 65,359 66,20 73,30
74,239 75,269 76,209 77,529
78,219 79,20 85,20 86,50
87,80 88,20 89,199 90,20
91,129 92,10 97,10 98,60
99,30 100,20 101,159 102,449
103,149 104,139 105,10 113,30
114,40 115,3819 116,369 117,40
125,20 126,289 127,1499 128,3499
129,7129 130,9999 131,1089 132,99
##END=
