##TITLE=Benzaldehyde, 2-(trifluoromethyl)-
##JCAMP-DX=4.24
##DATA TYPE=MASS SPECTRUM
##ORIGIN=Japan AIST/NIMC Database- Spectrum MS-IW-1334
##OWNER=NIST Mass Spectrometry Data Center
Collection (C) 2014 copyright by the U.S. Secretary of Commerce
on behalf of the United States of America. All rights reserved.
##CAS REGISTRY NO=447-61-0
##$NIST MASS SPEC NO=233717
##MOLFORM=C8 H5 F3 O
##MW=174
##$NIST SOURCE=MSDC
##XUNITS=M/Z
##YUNITS=RELATIVE INTENSITY
##XFACTOR=1
##YFACTOR=1
##FIRSTX=27
##LASTX=176
##FIRSTY=20
##MAXX=176
##MINX=27
##MAXY=9999
##MINY=10
##NPOINTS=77
##PEAK TABLE=(XY..XY)
27,20 28,40 29,80 31,40
37,40 38,50 39,80 49,30
50,389 51,349 52,20 53,10
56,10 57,119 61,50 62,90
63,99 68,30 69,199 70,50
73,50 74,269 75,739 76,209
77,319 78,20 79,10 80,30
81,80 85,20 86,20 87,60
88,20 89,10 92,10 93,40
94,70 95,799 96,769 97,50
99,209 100,99 101,109 104,20
105,20 106,20 107,249 108,30
114,10 118,10 119,119 120,10
123,30 124,10 125,999 126,1799
127,1199 128,90 138,10 143,80
144,99 145,7279 146,949 147,50
151,10 154,1349 155,629 156,50
157,10 158,30 159,20 170,10
172,20 173,9999 174,7149 175,639
176,40
##END=
