##TITLE=Benzenemethanamine, N,.alpha.,.alpha.-triphenyl-
##JCAMP-DX=4.24
##DATA TYPE=MASS SPECTRUM
##ORIGIN=NIST Mass Spectrometry Data Center, 1994
##OWNER=NIST Mass Spectrometry Data Center
Collection (C) 2014 copyright by the U.S. Secretary of Commerce
on behalf of the United States of America. All rights reserved.
##CAS REGISTRY NO=4471-22-1
##$NIST MASS SPEC NO=135892
##MOLFORM=C25 H21 N
##MW=335
##$NIST SOURCE=MSDC
##XUNITS=M/Z
##YUNITS=RELATIVE INTENSITY
##XFACTOR=1
##YFACTOR=1
##FIRSTX=4
##LASTX=336
##FIRSTY=36
##MAXX=336
##MINX=4
##MAXY=9999
##MINY=12
##NPOINTS=88
##PEAK TABLE=(XY..XY)
4,36 14,60 16,61 18,89
27,37 28,94 39,389 40,57
50,80 51,618 52,78 62,37
63,102 64,57 65,736 74,51
75,101 76,60 77,1596 78,179
87,76 88,64 89,59 90,51
91,309 92,147 94,12 101,70
102,58 104,167 106,61 108,62
113,94 114,103 115,452 116,56
120,88 126,65 127,151 128,177
138,50 139,195 140,65 141,30
150,65 151,97 152,123 153,81
162,39 163,214 165,7408 166,785
176,91 177,62 178,140 179,39
180,368 181,42 187,73 189,152
190,57 200,87 201,92 202,310
203,100 213,168 215,515 216,146
226,347 227,311 228,882 229,163
237,127 239,787 240,342 241,806
242,127 243,9999 244,1592 245,136
254,80 256,20 258,261 259,57
332,58 334,278 335,286 336,74
##END=
