##TITLE=4-Isopropylphenylacetic acid
##JCAMP-DX=4.24
##DATA TYPE=MASS SPECTRUM
##ORIGIN=NIST Mass Spectrometry Data Center, 1994
##OWNER=NIST Mass Spectrometry Data Center
Collection (C) 2014 copyright by the U.S. Secretary of Commerce
on behalf of the United States of America. All rights reserved.
##CAS REGISTRY NO=4476-28-2
##$NIST MASS SPEC NO=136427
##MOLFORM=C11 H14 O2
##MW=178
##$NIST SOURCE=MSDC
##XUNITS=M/Z
##YUNITS=RELATIVE INTENSITY
##XFACTOR=1
##YFACTOR=1
##FIRSTX=15
##LASTX=180
##FIRSTY=329
##MAXX=180
##MINX=15
##MAXY=9999
##MINY=17
##NPOINTS=62
##PEAK TABLE=(XY..XY)
15,329 27,686 29,252 39,1148
42,71 43,262 44,78 45,1648
50,397 51,970 52,244 53,272
55,143 58,143 62,291 63,957
64,232 65,1058 66,119 74,156
75,198 76,164 77,1301 78,446
79,479 86,57 87,98 89,677
90,258 91,3842 92,354 93,156
101,56 102,229 103,520 104,219
105,1050 106,116 107,132 115,2240
116,547 117,8925 118,1617 119,2326
120,310 121,440 127,106 128,144
129,80 130,80 131,305 132,280
133,1052 134,149 145,114 149,67
163,9999 164,1170 165,100 178,3571
179,433 180,17
##END=
