##TITLE=3-Heptene, 4-propyl-
##JCAMP-DX=4.24
##DATA TYPE=MASS SPECTRUM
##ORIGIN=NIST Mass Spectrometry Data Center, 1990.
##OWNER=NIST Mass Spectrometry Data Center
Collection (C) 2014 copyright by the U.S. Secretary of Commerce
on behalf of the United States of America. All rights reserved.
##CAS REGISTRY NO=4485-13-6
##$NIST MASS SPEC NO=113538
##MOLFORM=C10 H20
##MW=140
##$NIST SOURCE=MSDC
##XUNITS=M/Z
##YUNITS=RELATIVE INTENSITY
##XFACTOR=1
##YFACTOR=1
##FIRSTX=15
##LASTX=141
##FIRSTY=83
##MAXX=141
##MINX=15
##MAXY=9999
##MINY=43
##NPOINTS=45
##PEAK TABLE=(XY..XY)
15,83 27,1224 28,173 29,1137
39,1614 40,478 41,4100 42,399
43,664 44,53 50,91 51,313
52,170 53,958 54,53 55,9999
56,1718 57,434 63,88 65,359
66,168 67,1244 68,537 69,5420
70,1421 71,110 77,381 78,67
79,396 80,74 81,515 82,171
83,671 84,754 85,72 91,102
93,43 95,147 97,4695 98,1197
99,87 111,66 112,164 140,1672
141,185
##END=
