##TITLE=4-Nonanone
##JCAMP-DX=4.24
##DATA TYPE=MASS SPECTRUM
##ORIGIN=Japan AIST/NIMC Database- Spectrum MS-NW-3643
##OWNER=NIST Mass Spectrometry Data Center
Collection (C) 2014 copyright by the U.S. Secretary of Commerce
on behalf of the United States of America. All rights reserved.
##CAS REGISTRY NO=4485-09-0
##$NIST MASS SPEC NO=232160
##MOLFORM=C9 H18 O
##MW=142
##$NIST SOURCE=MSDC
##XUNITS=M/Z
##YUNITS=RELATIVE INTENSITY
##XFACTOR=1
##YFACTOR=1
##FIRSTX=15
##LASTX=143
##FIRSTY=109
##MAXX=143
##MINX=15
##MAXY=9999
##MINY=10
##NPOINTS=57
##PEAK TABLE=(XY..XY)
15,109 26,80 27,1599 28,119
29,1149 30,30 31,50 37,10
38,50 39,699 40,139 41,1869
42,419 43,9999 44,379 45,60
50,20 51,40 52,10 53,119
54,30 55,549 56,80 57,249
58,3439 59,149 60,90 65,20
67,60 68,20 69,80 70,149
71,5949 72,339 73,50 74,10
77,10 79,10 80,10 81,80
82,10 83,20 85,40 86,1529
87,249 88,20 95,10 97,10
98,30 99,3429 100,339 101,20
113,70 114,20 127,40 142,519
143,60
##END=
