##TITLE=1,4-Methanonaphthalene, 1,2,3,4-tetrahydro-
##JCAMP-DX=4.24
##DATA TYPE=MASS SPECTRUM
##ORIGIN=TAT 0894
##OWNER=NIST Mass Spectrometry Data Center
Collection (C) 2014 copyright by the U.S. Secretary of Commerce
on behalf of the United States of America. All rights reserved.
##CAS REGISTRY NO=4486-29-7
##$NIST MASS SPEC NO=4005
##MOLFORM=C11 H12
##MW=144
##$NIST SOURCE=MSDC
##XUNITS=M/Z
##YUNITS=RELATIVE INTENSITY
##XFACTOR=1
##YFACTOR=1
##FIRSTX=27
##LASTX=145
##FIRSTY=400
##MAXX=145
##MINX=27
##MAXY=9999
##MINY=100
##NPOINTS=33
##PEAK TABLE=(XY..XY)
27,400 39,701 41,400 50,701
51,901 52,400 62,400 63,901
64,500 65,500 66,100 67,400
68,400 69,400 75,901 76,100
77,400 87,400 89,500 91,400
102,400 114,400 115,3203 116,9999
117,1101 118,100 127,500 128,1401
129,3003 130,500 143,400 144,4004
145,701
##END=
