##TITLE=Lanost-7-en-3-ol, acetate, (3.beta.)-
##JCAMP-DX=4.24
##DATA TYPE=MASS SPECTRUM
##ORIGIN=R. I. REED UNIVERSITY OF GLASGOW
##OWNER=NIST Mass Spectrometry Data Center
Collection (C) 2014 copyright by the U.S. Secretary of Commerce
on behalf of the United States of America. All rights reserved.
##CAS REGISTRY NO=4488-99-7
##$NIST MASS SPEC NO=17916
##MOLFORM=C32 H54 O2
##MW=470
##$NIST SOURCE=MSDC
##XUNITS=M/Z
##YUNITS=RELATIVE INTENSITY
##XFACTOR=1
##YFACTOR=1
##FIRSTX=39
##LASTX=472
##FIRSTY=110
##MAXX=472
##MINX=39
##MAXY=9999
##MINY=100
##NPOINTS=192
##PEAK TABLE=(XY..XY)
39,110 41,1490 42,120 43,3890
44,130 53,150 55,2210 56,190
57,1840 67,790 68,120 69,2730
70,200 71,1040 77,230 79,780
80,150 81,1700 82,280 83,1430
84,110 85,330 91,930 92,320
93,1400 94,410 95,2920 96,350
97,930 98,100 105,1720 106,400
107,2000 108,370 109,1790 110,200
111,620 117,440 118,180 119,2020
120,590 121,1790 122,580 123,1340
124,170 125,250 127,170 128,110
129,270 130,130 131,890 132,330
133,2050 134,830 135,2740 136,540
137,590 139,150 142,130 143,440
144,190 145,1200 146,330 147,1540
148,610 149,1110 150,190 151,290
153,110 155,140 156,110 157,510
158,180 159,1240 160,360 161,1440
162,280 163,640 164,110 165,230
169,160 171,550 172,200 173,1540
174,310 175,1570 176,240 177,300
179,210 183,140 185,480 186,180
187,1140 188,290 189,710 190,150
191,250 193,300 197,130 199,380
200,140 201,640 202,310 203,520
204,130 205,250 206,170 207,240
211,150 213,590 214,250 215,680
216,150 217,220 219,330 220,110
221,170 225,120 227,790 228,230
229,1240 230,260 231,210 233,350
239,140 240,220 241,720 242,180
243,540 244,120 245,230 246,200
247,280 253,240 254,100 255,2020
256,470 257,410 259,1020 260,310
261,370 262,280 269,560 270,1260
271,530 272,130 273,1070 274,340
275,420 276,110 281,140 283,470
284,120 285,190 287,290 288,730
289,620 290,130 297,490 298,130
299,230 301,320 302,110 303,170
311,150 313,200 315,530 316,240
325,210 327,150 329,420 330,370
339,120 341,190 343,220 357,150
367,100 393,150 395,9999 396,3230
397,580 410,430 411,220 413,150
455,7490 456,2600 457,490 468,460
469,180 470,2450 471,880 472,170
##END=
