##TITLE=3a,4,5,6,7,7a-Hexahydro-4,7-methanoindene
##JCAMP-DX=4.24
##DATA TYPE=MASS SPECTRUM
##ORIGIN=NIST Mass Spectrometry Data Center, 1990.
##OWNER=NIST Mass Spectrometry Data Center
Collection (C) 2014 copyright by the U.S. Secretary of Commerce
on behalf of the United States of America. All rights reserved.
##CAS REGISTRY NO=4488-57-7
##$NIST MASS SPEC NO=113563
##MOLFORM=C10 H14
##MW=134
##$NIST SOURCE=MSDC
##XUNITS=M/Z
##YUNITS=RELATIVE INTENSITY
##XFACTOR=1
##YFACTOR=1
##FIRSTX=15
##LASTX=135
##FIRSTY=82
##MAXX=135
##MINX=15
##MAXY=9999
##MINY=41
##NPOINTS=47
##PEAK TABLE=(XY..XY)
15,82 26,115 27,820 28,368
29,144 37,50 38,239 39,2139
40,533 41,1174 42,87 50,296
51,770 52,341 53,482 54,79
55,84 58,41 62,111 63,345
64,158 65,1532 66,9999 67,3916
68,323 69,75 74,69 75,54
77,1627 78,766 79,1277 80,547
89,87 91,2437 92,1722 93,1330
94,98 103,190 104,107 105,536
106,332 115,123 117,76 119,458
120,55 134,1658 135,180
##END=
