##TITLE=5H-Dibenz[b,e]azepine, 6,11-dihydro-
##JCAMP-DX=4.24
##DATA TYPE=MASS SPECTRUM
##ORIGIN=Japan AIST/NIMC Database- Spectrum MS-NW-6329
##OWNER=NIST Mass Spectrometry Data Center
Collection (C) 2014 copyright by the U.S. Secretary of Commerce
on behalf of the United States of America. All rights reserved.
##CAS REGISTRY NO=449-55-8
##$NIST MASS SPEC NO=234843
##MOLFORM=C14 H13 N
##MW=195
##$NIST SOURCE=MSDC
##XUNITS=M/Z
##YUNITS=RELATIVE INTENSITY
##XFACTOR=1
##YFACTOR=1
##FIRSTX=14
##LASTX=198
##FIRSTY=50
##MAXX=198
##MINX=14
##MAXY=9999
##MINY=10
##NPOINTS=149
##PEAK TABLE=(XY..XY)
14,50 15,30 16,40 26,50
27,149 28,40 29,30 30,50
31,10 37,40 38,119 39,549
40,50 41,80 42,10 43,109
44,70 45,50 49,10 50,309
51,549 52,149 53,70 54,20
55,20 56,20 57,40 58,50
59,10 60,10 61,50 62,239
63,599 64,189 65,349 66,329
67,30 68,30 69,339 70,159
71,50 72,10 73,20 74,189
75,219 76,239 77,459 78,139
79,30 80,20 81,289 82,789
83,859 84,169 85,40 86,99
87,179 88,129 89,599 90,579
91,449 92,60 93,10 94,50
95,659 96,1329 97,369 98,119
99,60 100,50 101,99 102,119
103,60 104,60 105,40 106,10
109,10 110,30 111,40 112,30
113,139 114,109 115,419 116,609
117,469 118,1209 119,129 120,10
121,40 122,20 123,10 124,10
125,40 126,119 127,139 128,259
129,60 130,40 131,10 132,30
133,20 134,10 135,10 137,60
138,80 139,529 140,239 141,99
142,40 143,20 144,10 145,10
149,99 150,139 151,229 152,539
153,199 154,109 155,20 156,10
161,20 162,60 163,509 164,609
165,2779 166,899 167,699 168,189
169,30 170,10 173,10 174,10
175,30 176,199 177,519 178,1319
179,1039 180,619 181,90 182,10
190,659 191,899 192,3119 193,9239
194,9999 195,7799 196,1149 197,90
198,10
##END=
