##TITLE=5,2,1,6,3,4-[2,3]Butanediyl[1,4]diylidenedipentaleno[2,1,6-cde:2',1',6'-gha]pentalene, hexadecahydro-
##JCAMP-DX=4.24
##DATA TYPE=MASS SPECTRUM
##ORIGIN=MUS17 A. Mujsce, AT&T Bell Labs., Murray Hill, N.J., USA
##OWNER=NIST Mass Spectrometry Data Center
Collection (C) 2014 copyright by the U.S. Secretary of Commerce
on behalf of the United States of America. All rights reserved.
##CAS REGISTRY NO=4493-23-6
##$NIST MASS SPEC NO=115413
##MOLFORM=C20 H20
##MW=260
##$NIST SOURCE=MSDC
##XUNITS=M/Z
##YUNITS=RELATIVE INTENSITY
##XFACTOR=1
##YFACTOR=1
##FIRSTX=39
##LASTX=263
##FIRSTY=115
##MAXX=263
##MINX=39
##MAXY=9999
##MINY=4
##NPOINTS=154
##PEAK TABLE=(XY..XY)
39,115 40,20 41,55 43,10
44,23 50,14 51,87 52,51
53,35 55,13 57,9 60,8
62,10 63,71 64,28 65,174
66,51 67,45 68,9 69,8
71,8 73,7 74,12 75,32
76,47 77,283 78,239 79,121
80,21 81,16 82,11 83,12
84,9 87,15 88,21 89,118
91,472 92,62 93,19 95,20
96,12 97,9 98,7 101,54
102,113 103,159 104,132 105,63
106,20 108,42 109,35 113,32
115,773 116,341 117,267 118,68
119,36 120,15 121,15 122,7
125,7 126,43 127,151 128,589
129,509 130,259 131,121 132,47
139,70 141,285 142,137 143,117
144,72 145,30 146,8 149,8
150,21 151,62 152,251 153,261
154,135 155,136 156,55 157,16
158,4 161,6 162,6 163,25
165,412 166,204 167,270 168,101
169,88 170,15 174,6 175,5
176,37 177,33 178,281 179,287
180,162 181,141 182,68 183,8
188,10 189,85 190,52 191,101
192,62 193,176 194,70 195,25
200,13 201,15 202,117 203,88
204,52 205,62 206,33 213,16
215,92 216,47 217,85 218,47
219,54 220,11 222,4 226,27
227,25 228,34 229,42 230,16
231,63 232,38 233,9 234,5
237,6 238,5 239,20 240,13
241,16 242,11 243,13 244,10
245,35 246,11 248,5 250,6
257,141 258,87 260,9999 261,2184
262,240 263,21
##END=
