##TITLE=1-Propanone, 1-[4-(phenylmethoxy)phenyl]-
##JCAMP-DX=4.24
##DATA TYPE=MASS SPECTRUM
##ORIGIN=Japan AIST/NIMC Database- Spectrum MS-IW- 757
##OWNER=NIST Mass Spectrometry Data Center
Collection (C) 2014 copyright by the U.S. Secretary of Commerce
on behalf of the United States of America. All rights reserved.
##CAS REGISTRY NO=4495-66-3
##$NIST MASS SPEC NO=239409
##MOLFORM=C16 H16 O2
##MW=240
##$NIST SOURCE=MSDC
##XUNITS=M/Z
##YUNITS=RELATIVE INTENSITY
##XFACTOR=1
##YFACTOR=1
##FIRSTX=27
##LASTX=242
##FIRSTY=20
##MAXX=242
##MINX=27
##MAXY=9999
##MINY=10
##NPOINTS=40
##PEAK TABLE=(XY..XY)
27,20 28,40 29,50 38,10
39,90 41,30 50,20 51,50
52,10 57,40 62,10 63,70
64,50 65,559 66,30 76,50
77,40 78,10 89,70 90,40
91,9999 92,799 93,50 104,10
105,40 120,20 121,80 149,10
150,10 152,10 153,10 181,10
182,10 183,30 211,649 212,99
213,10 240,1929 241,339 242,30
##END=
