##TITLE=1,1':4',1'':4'',1''':4''',1'''':4'''',1'''''-Sexiphenyl
##JCAMP-DX=4.24
##DATA TYPE=MASS SPECTRUM
##ORIGIN=Japan AIST/NIMC Database- Spectrum MS-NW-5924
##OWNER=NIST Mass Spectrometry Data Center
Collection (C) 2014 copyright by the U.S. Secretary of Commerce
on behalf of the United States of America. All rights reserved.
##CAS REGISTRY NO=4499-83-6
##$NIST MASS SPEC NO=233162
##MOLFORM=C36 H26
##MW=458
##$NIST SOURCE=MSDC
##XUNITS=M/Z
##YUNITS=RELATIVE INTENSITY
##XFACTOR=1
##YFACTOR=1
##FIRSTX=26
##LASTX=462
##FIRSTY=10
##MAXX=462
##MINX=26
##MAXY=9999
##MINY=10
##NPOINTS=314
##PEAK TABLE=(XY..XY)
26,10 27,40 28,70 29,20
39,70 41,70 42,30 43,99
44,30 45,40 50,20 51,90
52,30 53,20 54,20 55,90
56,50 57,159 58,10 63,60
64,10 65,20 66,10 67,20
68,30 69,80 70,40 71,90
73,90 74,20 75,50 76,40
77,179 78,40 79,10 81,40
82,50 83,90 84,20 85,80
86,10 87,20 88,20 89,30
91,90 92,20 95,30 96,40
97,70 98,20 99,30 100,20
101,40 102,80 103,60 105,40
109,20 110,20 111,50 113,60
114,40 115,149 116,20 119,20
121,30 125,30 126,60 127,70
128,129 129,40 131,40 133,20
134,20 135,20 136,10 137,30
138,50 139,90 140,10 141,30
142,30 143,20 144,30 145,20
146,20 149,20 150,99 151,229
152,469 153,319 154,50 155,20
156,40 157,30 158,20 161,10
162,50 163,119 164,60 165,209
166,60 167,99 168,50 169,60
170,40 171,20 174,40 175,99
176,149 177,80 178,129 179,60
180,60 181,99 182,60 183,20
186,20 187,99 188,149 189,259
190,99 191,119 192,20 193,60
194,70 195,60 196,40 197,20
198,20 199,60 200,169 201,159
202,349 203,199 204,80 205,60
206,99 207,90 208,90 209,60
210,20 211,40 212,99 213,239
214,169 215,229 216,99 218,80
219,149 220,219 221,159 222,60
223,30 224,90 225,139 226,659
227,549 228,1029 229,6829 230,599
231,20 232,10 233,20 234,50
235,349 236,179 237,40 238,20
239,109 240,50 241,90 242,70
243,90 244,20 245,10 246,40
247,20 248,20 249,30 250,70
251,40 252,149 253,70 254,99
255,40 256,30 257,50 258,10
261,20 262,20 263,119 264,40
265,109 266,40 267,80 268,30
269,20 274,50 275,30 276,199
277,119 278,109 279,70 280,60
281,20 287,60 288,40 289,279
290,119 291,80 292,20 298,40
299,20 300,189 301,139 302,419
303,309 304,229 305,80 306,80
307,30 311,20 312,10 313,70
314,30 315,60 316,20 317,30
324,30 325,20 326,90 327,60
328,60 329,30 330,60 331,20
335,10 337,50 338,30 339,70
340,30 341,50 342,20 343,80
344,10 348,20 349,20 350,90
351,60 352,70 353,50 354,50
355,20 356,20 357,20 359,10
360,30 361,30 362,20 363,99
364,70 365,159 366,60 367,40
374,50 375,30 376,99 377,109
378,129 379,80 380,119 381,40
382,40 388,30 389,20 390,20
391,20 401,20 402,30 406,20
413,20 414,20 415,40 417,20
424,20 425,20 426,40 427,30
428,40 429,30 430,30 431,20
437,20 438,20 439,50 440,40
441,99 442,40 443,50 444,20
449,20 450,30 451,20 452,40
453,40 454,80 455,90 456,119
457,179 458,9999 459,2479 460,789
461,99 462,20
##END=
