##TITLE=2-Adamantanone oxime
##JCAMP-DX=4.24
##DATA TYPE=MASS SPECTRUM
##ORIGIN=NIST Mass Spectrometry Data Center, 1994
##OWNER=NIST Mass Spectrometry Data Center
Collection (C) 2014 copyright by the U.S. Secretary of Commerce
on behalf of the United States of America. All rights reserved.
##CAS REGISTRY NO=4500-12-3
##$NIST MASS SPEC NO=136425
##MOLFORM=C10 H15 N O
##MW=165
##$NIST SOURCE=MSDC
##XUNITS=M/Z
##YUNITS=RELATIVE INTENSITY
##XFACTOR=1
##YFACTOR=1
##FIRSTX=17
##LASTX=166
##FIRSTY=158
##MAXX=166
##MINX=17
##MAXY=9999
##MINY=62
##NPOINTS=78
##PEAK TABLE=(XY..XY)
17,158 27,3780 30,927 38,582
39,9603 40,1496 41,8360 42,998
43,447 44,786 50,620 51,2573
52,1937 53,4087 54,3694 55,2361
56,1970 57,408 58,62 62,70
63,726 64,522 65,2933 66,1911
67,3860 68,2208 69,5070 70,2393
71,291 72,62 73,477 76,87
77,5646 78,2315 79,9999 80,7186
81,7764 82,1295 83,164 84,244
85,200 87,217 91,5953 92,2663
93,3874 94,1850 95,784 96,331
103,311 104,1048 105,2124 106,3365
107,1836 108,848 109,323 110,596
111,97 115,325 116,224 117,1093
118,841 119,984 120,2131 121,833
122,533 129,510 130,938 131,1022
132,3345 133,713 134,448 146,2119
147,3805 148,2585 149,4069 150,1004
165,5606 166,621
##END=
