##TITLE=Dibenz[b,e]oxepin-11(6H)-one
##JCAMP-DX=4.24
##DATA TYPE=MASS SPECTRUM
##ORIGIN=Dr. Jiri Zamecnik, DCIEM, North York, Canada, GP Library
##OWNER=NIST Mass Spectrometry Data Center
Collection (C) 2014 copyright by the U.S. Secretary of Commerce
on behalf of the United States of America. All rights reserved.
##CAS REGISTRY NO=4504-87-4
##$NIST MASS SPEC NO=122821
##MOLFORM=C14 H10 O2
##MW=210
##$NIST SOURCE=MSDC
##XUNITS=M/Z
##YUNITS=RELATIVE INTENSITY
##XFACTOR=1
##YFACTOR=1
##FIRSTX=38
##LASTX=211
##FIRSTY=930
##MAXX=211
##MINX=38
##MAXY=9999
##MINY=30
##NPOINTS=30
##PEAK TABLE=(XY..XY)
38,930 51,1170 52,100 63,1670
64,770 65,70 76,2450 77,610
87,130 89,1440 91,1550 102,210
105,360 113,50 115,240 127,540
128,170 139,100 152,2760 153,1190
154,290 165,680 166,60 168,30
181,5910 182,920 183,90 193,130
210,9999 211,710
##END=
