##TITLE=1,4-Cyclohex-2-enedione
##JCAMP-DX=4.24
##DATA TYPE=MASS SPECTRUM
##ORIGIN=P.A. Leclercq, Lab. Instrum. Anal., Tech. Univ. Eindhoven, Netherlands
##OWNER=NIST Mass Spectrometry Data Center
Collection (C) 2014 copyright by the U.S. Secretary of Commerce
on behalf of the United States of America. All rights reserved.
##CAS REGISTRY NO=4505-38-8
##$NIST MASS SPEC NO=221548
##MOLFORM=C6 H6 O2
##MW=110
##$NIST SOURCE=MSDC
##XUNITS=M/Z
##YUNITS=RELATIVE INTENSITY
##XFACTOR=1
##YFACTOR=1
##FIRSTX=15
##LASTX=111
##FIRSTY=109
##MAXX=111
##MINX=15
##MAXY=9999
##MINY=49
##NPOINTS=41
##PEAK TABLE=(XY..XY)
15,109 16,249 17,89 18,269
19,59 25,499 26,4999 27,2639
28,2199 29,459 31,79 36,99
37,399 38,389 39,929 40,319
41,309 42,829 43,99 44,59
49,219 50,539 51,289 52,339
53,1739 54,9999 55,1509 56,469
57,49 60,69 61,159 62,139
63,169 68,2269 69,129 80,59
82,6350 83,299 108,129 110,5220
111,339
##END=
