##TITLE=Naphthalene, 1,2-dihydro-1,5,8-trimethyl-
##JCAMP-DX=4.24
##DATA TYPE=MASS SPECTRUM
##ORIGIN=CONTINENTAL OIL CO., PONCA CITY, OKLA, USA
##OWNER=NIST Mass Spectrometry Data Center
Collection (C) 2014 copyright by the U.S. Secretary of Commerce
on behalf of the United States of America. All rights reserved.
##CAS REGISTRY NO=4506-36-9
##$NIST MASS SPEC NO=27621
##MOLFORM=C13 H16
##MW=172
##$NIST SOURCE=MSDC
##XUNITS=M/Z
##YUNITS=RELATIVE INTENSITY
##XFACTOR=1
##YFACTOR=1
##FIRSTX=14
##LASTX=174
##FIRSTY=46
##MAXX=174
##MINX=14
##MAXY=9999
##MINY=6
##NPOINTS=121
##PEAK TABLE=(XY..XY)
14,46 15,755 16,43 26,92
27,826 28,268 29,222 30,15
37,19 38,93 39,904 40,97
41,250 42,24 43,38 44,50
49,7 50,268 51,808 52,188
53,233 54,15 55,38 56,16
57,46 58,74 61,27 62,159
63,613 64,456 65,332 66,34
67,15 68,12 69,75 70,180
71,351 72,65 74,142 75,235
76,567 77,826 78,275 79,103
82,102 83,90 84,114 85,124
86,146 87,100 88,42 89,183
90,28 91,344 92,33 93,7
97,7 98,54 99,38 100,16
101,73 102,192 103,134 104,31
105,69 106,11 109,6 110,15
111,19 112,6 113,63 114,62
115,1451 116,236 117,85 118,16
119,26 122,7 125,22 126,124
127,511 128,1367 129,859 130,175
131,100 132,45 133,31 137,24
138,35 139,320 140,210 141,2724
142,4570 143,1216 144,234 145,167
146,100 147,35 150,55 151,150
152,455 153,469 154,210 155,859
156,703 157,9999 158,1523 159,227
160,33 163,22 164,19 165,81
166,24 167,38 168,18 169,98
170,415 171,238 172,3919 173,558
174,36
##END=
