##TITLE=2-Propenoic acid, 3-(2-fluorophenyl)-
##JCAMP-DX=4.24
##DATA TYPE=MASS SPECTRUM
##ORIGIN=A.A.Kutin, Moscow, Russia
##OWNER=NIST Mass Spectrometry Data Center
Collection (C) 2014 copyright by the U.S. Secretary of Commerce
on behalf of the United States of America. All rights reserved.
##CAS REGISTRY NO=451-69-4
##$NIST MASS SPEC NO=272922
##MOLFORM=C9 H7 F O2
##MW=166
##$NIST SOURCE=MSDC
##XUNITS=M/Z
##YUNITS=RELATIVE INTENSITY
##XFACTOR=1
##YFACTOR=1
##FIRSTX=33
##LASTX=169
##FIRSTY=116
##MAXX=169
##MINX=33
##MAXY=9999
##MINY=1
##NPOINTS=117
##PEAK TABLE=(XY..XY)
33,116 34,35 36,60 37,243
38,427 39,767 40,584 41,174
42,124 43,308 44,498 45,1281
46,58 47,34 48,22 49,257
50,1800 51,2146 52,262 53,192
54,136 55,316 56,179 57,600
59,210 60,1036 61,656 62,552
63,929 64,155 65,132 66,51
68,575 69,915 70,659 71,226
73,427 74,1614 75,4214 76,496
77,297 78,53 79,104 80,88
81,421 82,92 83,702 85,198
86,137 87,213 88,64 89,514
90,1014 91,406 92,249 93,384
94,901 95,856 96,572 97,337
98,260 99,413 101,7428 102,659
103,319 104,43 105,142 106,32
107,175 109,2472 110,266 111,31
112,94 113,15 114,3 115,17
116,59 118,9999 119,994 120,2543
121,3829 122,354 123,318 124,63
125,287 126,21 127,6 128,6
129,18 130,4 131,9 132,2
133,12 134,9 135,24 136,38
137,202 138,336 139,35 140,7
141,3 146,3243 147,2111 148,365
149,2555 150,250 151,32 152,15
154,1 160,2 161,4 163,35
165,2378 166,8883 167,825 168,80
169,6
##END=
