##TITLE=Benzene, 1-ethoxy-2-fluoro-
##JCAMP-DX=4.24
##DATA TYPE=MASS SPECTRUM
##OWNER=NIST Mass Spectrometry Data Center
Collection (C) 2014 copyright by the U.S. Secretary of Commerce
on behalf of the United States of America. All rights reserved.
##CAS REGISTRY NO=451-80-9
##$NIST MASS SPEC NO=3729
##MOLFORM=C8 H9 F O
##MW=140
##$NIST SOURCE=MSDC
##XUNITS=M/Z
##YUNITS=RELATIVE INTENSITY
##XFACTOR=1
##YFACTOR=1
##FIRSTX=12
##LASTX=141
##FIRSTY=30
##MAXX=141
##MINX=12
##MAXY=9999
##MINY=10
##NPOINTS=92
##PEAK TABLE=(XY..XY)
12,30 13,30 14,80 15,100
16,30 17,190 18,751 20,60
24,30 25,80 26,190 27,851
28,621 29,951 30,40 31,751
32,200 33,90 36,60 37,340
38,701 39,1031 40,130 41,80
42,70 43,120 44,90 45,180
46,40 47,30 48,10 49,100
50,510 51,641 52,90 53,340
54,30 55,200 56,621 57,1752
58,180 59,60 60,60 61,230
62,440 63,1932 64,5265 65,601
66,290 67,30 68,170 69,200
70,100 71,30 72,10 73,200
74,180 75,510 76,160 77,561
78,50 79,40 80,50 81,320
82,160 83,1421 84,280 85,30
86,30 88,20 89,50 90,30
91,190 92,1982 93,190 94,971
95,400 96,130 97,130 111,180
112,9999 113,681 114,30 122,230
123,50 124,10 125,2262 126,230
138,30 139,100 140,2432 141,230
##END=
