##TITLE=Ethanone, 1,2-diphenyl-
##JCAMP-DX=4.24
##DATA TYPE=MASS SPECTRUM
##ORIGIN=NIST Mass Spectrometry Data Center, 1994
##OWNER=NIST Mass Spectrometry Data Center
Collection (C) 2014 copyright by the U.S. Secretary of Commerce
on behalf of the United States of America. All rights reserved.
##CAS REGISTRY NO=451-40-1
##$NIST MASS SPEC NO=133769
##MOLFORM=C14 H12 O
##MW=196
##$NIST SOURCE=MSDC
##XUNITS=M/Z
##YUNITS=RELATIVE INTENSITY
##XFACTOR=1
##YFACTOR=1
##FIRSTX=26
##LASTX=197
##FIRSTY=13
##MAXX=197
##MINX=26
##MAXY=9999
##MINY=5
##NPOINTS=52
##PEAK TABLE=(XY..XY)
26,13 27,80 28,47 32,5
37,16 38,88 39,452 40,39
41,95 50,405 51,1275 52,100
53,20 61,22 62,101 63,289
64,96 65,729 66,43 70,7
74,113 75,104 77,4091 78,271
82,19 83,23 86,22 87,26
89,240 90,107 91,731 92,62
98,12 101,7 102,14 105,9999
106,734 107,46 113,9 115,39
128,11 139,17 151,13 152,54
153,8 163,14 164,26 165,111
166,29 167,14 196,290 197,43
##END=
