##TITLE=2-Propenoic acid, 2-methyl-, 2,2,3,3-tetrafluoropropyl ester
##JCAMP-DX=4.24
##DATA TYPE=MASS SPECTRUM
##ORIGIN=NIST Mass Spectrometry Data Center, 1998.
##OWNER=NIST Mass Spectrometry Data Center
Collection (C) 2014 copyright by the U.S. Secretary of Commerce
on behalf of the United States of America. All rights reserved.
##CAS REGISTRY NO=45102-52-1
##$NIST MASS SPEC NO=291607
##MOLFORM=C7 H8 F4 O2
##MW=200
##$NIST SOURCE=MSDC
##XUNITS=M/Z
##YUNITS=RELATIVE INTENSITY
##XFACTOR=1
##YFACTOR=1
##FIRSTX=15
##LASTX=202
##FIRSTY=30
##MAXX=202
##MINX=15
##MAXY=9999
##MINY=10
##NPOINTS=105
##PEAK TABLE=(XY..XY)
15,30 25,10 26,70 27,110
29,220 30,40 31,140 32,30
33,120 36,10 37,150 38,430
39,4020 40,940 41,7759 42,420
43,150 44,70 45,230 46,110
47,20 49,10 50,50 51,2730
52,40 53,180 54,40 55,300
56,60 57,120 58,20 59,40
60,20 61,10 62,10 63,50
64,470 65,150 66,20 67,50
68,250 69,9999 70,510 71,90
72,50 73,40 74,10 75,40
76,10 77,70 78,10 80,10
81,40 82,180 83,30 84,10
85,90 86,20 87,10 89,10
90,10 91,20 93,20 95,220
96,20 97,10 99,260 100,40
101,310 102,10 103,30 104,10
105,80 106,10 109,30 112,10
113,20 115,80 121,30 123,10
127,10 129,150 130,10 131,10
132,10 135,10 136,40 137,10
138,30 145,10 149,70 150,10
153,10 155,50 157,10 159,10
171,10 172,10 181,40 185,130
186,10 199,310 200,2150 201,170
202,10
##END=
