##TITLE=1H,1H-Pentafluoropropyl methacrylate
##JCAMP-DX=4.24
##DATA TYPE=MASS SPECTRUM
##ORIGIN=NIST Mass Spectrometry Data Center
##OWNER=NIST Mass Spectrometry Data Center
Collection (C) 2014 copyright by the U.S. Secretary of Commerce
on behalf of the United States of America. All rights reserved.
##CAS REGISTRY NO=45115-53-5
##$NIST MASS SPEC NO=342793
##MOLFORM=C7 H7 F5 O2
##MW=218
##$NIST SOURCE=MSDC
##XUNITS=M/Z
##YUNITS=RELATIVE INTENSITY
##XFACTOR=1
##YFACTOR=1
##FIRSTX=12
##LASTX=220
##FIRSTY=10
##MAXX=220
##MINX=12
##MAXY=9999
##MINY=10
##NPOINTS=86
##PEAK TABLE=(XY..XY)
12,10 13,20 14,100 15,190
16,20 17,10 18,30 19,10
20,10 25,40 26,200 27,230
28,480 29,801 30,120 31,430
32,160 33,140 37,260 38,791
39,5375 40,1271 41,8227 42,500
43,200 44,120 45,380 47,20
49,20 50,120 51,901 52,30
53,180 55,410 56,90 57,80
58,10 59,80 60,10 61,10
64,591 65,30 66,10 67,50
69,9999 70,410 71,70 72,90
73,30 74,40 75,20 77,30
81,30 82,50 83,150 84,10
85,110 93,10 95,20 99,180
100,170 101,40 103,20 104,40
105,20 109,10 113,100 114,10
119,230 121,10 127,30 129,50
133,120 139,10 145,10 149,10
150,10 154,30 156,20 173,50
189,10 199,60 203,140 218,1902
219,140 220,10
##END=
