##TITLE=2-Bromo-5-fluorotoluene
##JCAMP-DX=4.24
##DATA TYPE=MASS SPECTRUM
##ORIGIN=NIST Mass Spectrometry Data Center, 1994
##OWNER=NIST Mass Spectrometry Data Center
Collection (C) 2014 copyright by the U.S. Secretary of Commerce
on behalf of the United States of America. All rights reserved.
##CAS REGISTRY NO=452-63-1
##$NIST MASS SPEC NO=134709
##MOLFORM=C7 H6 Br F
##MW=188
##$NIST SOURCE=MSDC
##XUNITS=M/Z
##YUNITS=RELATIVE INTENSITY
##XFACTOR=1
##YFACTOR=1
##FIRSTX=14
##LASTX=191
##FIRSTY=35
##MAXX=191
##MINX=14
##MAXY=9999
##MINY=16
##NPOINTS=79
##PEAK TABLE=(XY..XY)
14,35 15,113 25,48 26,278
27,375 31,740 33,134 36,45
37,363 38,479 39,1017 40,55
43,219 44,732 48,39 49,286
50,1097 51,639 52,101 53,85
54,138 55,53 56,477 57,1665
58,86 59,244 60,92 61,657
62,866 63,1294 64,158 65,41
68,294 69,155 70,117 73,155
74,460 75,296 76,90 77,21
78,21 79,357 80,362 81,1556
82,473 83,3086 84,404 85,430
86,286 87,300 88,100 89,500
90,70 92,77 93,147 94,240
95,95 104,65 105,210 107,1795
108,1439 109,9999 110,769 111,48
117,32 118,16 119,33 135,48
136,16 137,47 141,41 143,34
161,61 163,47 187,407 188,2287
189,570 190,2204 191,167
##END=
