##TITLE=Ethoxzolamide
##JCAMP-DX=4.24
##DATA TYPE=MASS SPECTRUM
##ORIGIN=NIST Mass Spectrometry Data Center, 1998.
##OWNER=NIST Mass Spectrometry Data Center
Collection (C) 2014 copyright by the U.S. Secretary of Commerce
on behalf of the United States of America. All rights reserved.
##CAS REGISTRY NO=452-35-7
##$NIST MASS SPEC NO=292040
##MOLFORM=C9 H10 N2 O3 S2
##MW=258
##$NIST SOURCE=MSDC
##XUNITS=M/Z
##YUNITS=RELATIVE INTENSITY
##XFACTOR=1
##YFACTOR=1
##FIRSTX=15
##LASTX=262
##FIRSTY=20
##MAXX=262
##MINX=15
##MAXY=9999
##MINY=10
##NPOINTS=176
##PEAK TABLE=(XY..XY)
15,20 16,30 25,10 26,100
27,900 28,100 29,1740 30,60
32,150 34,10 36,20 37,100
38,170 39,360 40,20 41,30
42,20 43,90 44,60 45,1320
46,190 47,110 48,210 49,40
50,280 51,790 52,510 53,230
54,70 55,120 56,10 57,230
58,220 59,60 60,50 61,170
62,580 63,2010 64,3150 65,260
66,230 67,90 68,80 69,1800
70,1200 71,270 72,120 73,30
74,130 75,200 76,200 77,260
78,650 79,240 80,1060 81,210
82,530 83,300 84,130 85,440
86,70 87,80 88,220 89,120
90,140 91,180 92,130 93,430
94,960 95,2260 96,1430 97,210
98,90 99,20 100,20 101,10
102,10 103,20 104,40 105,100
106,1610 107,460 108,100 109,250
110,400 111,450 112,560 113,50
114,30 115,10 116,30 117,70
118,50 119,60 120,290 121,610
122,2020 123,1390 124,730 125,110
126,50 127,10 128,10 130,10
131,10 132,30 133,480 134,490
135,110 136,80 137,230 138,860
139,3610 140,300 141,190 142,20
143,10 144,40 145,10 146,10
147,10 148,90 149,380 150,1500
151,2160 152,250 153,120 154,20
155,10 162,50 163,20 164,40
165,1220 166,9999 167,2960 168,670
169,140 170,90 171,10 172,10
176,50 177,50 178,160 179,150
180,20 181,10 182,20 186,10
192,10 193,30 194,240 195,60
196,20 197,10 198,80 199,10
200,10 202,20 213,30 214,20
215,10 226,10 227,10 229,90
230,4770 231,490 232,450 233,40
234,10 243,50 244,10 258,9879
259,1280 260,1030 261,110 262,40
##END=
