##TITLE=2-Bromo-4-fluoroanisole
##JCAMP-DX=4.24
##DATA TYPE=MASS SPECTRUM
##ORIGIN=Chuck Anderson, Aldrich Chemical Co.
##OWNER=NIST Mass Spectrometry Data Center
Collection (C) 2014 copyright by the U.S. Secretary of Commerce
on behalf of the United States of America. All rights reserved.
##CAS REGISTRY NO=452-08-4
##$NIST MASS SPEC NO=108115
##MOLFORM=C7 H6 Br F O
##MW=204
##$NIST SOURCE=MSDC
##XUNITS=M/Z
##YUNITS=RELATIVE INTENSITY
##XFACTOR=1
##YFACTOR=1
##FIRSTX=14
##LASTX=208
##FIRSTY=24
##MAXX=208
##MINX=14
##MAXY=9999
##MINY=10
##NPOINTS=131
##PEAK TABLE=(XY..XY)
14,24 15,145 25,29 26,71
27,46 29,208 30,46 31,824
32,13 33,18 36,60 37,381
38,350 39,145 40,14 41,48
42,16 43,28 44,34 45,44
46,11 47,22 48,48 49,145
50,806 51,254 52,31 53,240
54,17 55,177 56,597 57,614
58,26 60,67 61,532 62,549
63,975 64,64 65,23 66,14
67,17 68,532 69,254 70,106
71,30 72,21 73,193 74,697
75,1455 76,133 77,145 78,25
79,132 80,223 81,2197 82,1689
83,137 84,18 90,11 91,28
92,189 93,487 94,2005 95,1840
96,460 97,267 98,22 102,34
103,36 104,28 105,22 106,28
107,18 108,15 110,1373 111,401
112,10 113,319 115,14 116,43
117,106 118,41 119,89 123,36
124,68 125,103 126,15 128,32
129,15 130,33 131,15 134,43
135,298 136,46 137,285 138,14
141,35 142,18 143,34 144,12
146,10 147,11 148,12 149,11
153,31 155,34 157,15 159,25
161,4779 162,295 163,4505 164,250
165,12 170,15 172,16 173,267
174,61 175,257 176,53 177,13
189,7032 190,504 191,6812 192,422
193,31 201,14 204,9999 205,741
206,9339 207,659 208,45
##END=
