##TITLE=2-Aminopurine
##JCAMP-DX=4.24
##DATA TYPE=MASS SPECTRUM
##ORIGIN=NIST Mass Spectrometry Data Center
##OWNER=NIST Mass Spectrometry Data Center
Collection (C) 2014 copyright by the U.S. Secretary of Commerce
on behalf of the United States of America. All rights reserved.
##CAS REGISTRY NO=452-06-2
##$NIST MASS SPEC NO=340862
##MOLFORM=C5 H5 N5
##MW=135
##$NIST SOURCE=MSDC
##XUNITS=M/Z
##YUNITS=RELATIVE INTENSITY
##XFACTOR=1
##YFACTOR=1
##FIRSTX=14
##LASTX=136
##FIRSTY=30
##MAXX=136
##MINX=14
##MAXY=9999
##MINY=10
##NPOINTS=35
##PEAK TABLE=(XY..XY)
14,30 17,10 27,290 28,1461
29,120 38,270 39,280 40,150
41,100 42,190 43,460 51,50
52,420 53,1021 54,1051 55,200
56,90 64,60 65,260 66,450
67,240 68,240 80,310 81,1862
82,90 92,140 93,70 94,270
107,450 108,1071 109,100 119,60
134,1251 135,9999 136,731
##END=
