##TITLE=3-Fluoro-4-methoxyphenylacetic acid
##JCAMP-DX=4.24
##DATA TYPE=MASS SPECTRUM
##ORIGIN=NIST Mass Spectrometry Data Center, 1994
##OWNER=NIST Mass Spectrometry Data Center
Collection (C) 2014 copyright by the U.S. Secretary of Commerce
on behalf of the United States of America. All rights reserved.
##CAS REGISTRY NO=452-14-2
##$NIST MASS SPEC NO=135028
##MOLFORM=C9 H9 F O3
##MW=184
##$NIST SOURCE=MSDC
##XUNITS=M/Z
##YUNITS=RELATIVE INTENSITY
##XFACTOR=1
##YFACTOR=1
##FIRSTX=14
##LASTX=186
##FIRSTY=25
##MAXX=186
##MINX=14
##MAXY=9999
##MINY=11
##NPOINTS=94
##PEAK TABLE=(XY..XY)
14,25 15,224 26,29 27,67
28,57 29,96 30,17 31,75
32,16 33,12 37,28 38,66
39,218 40,16 41,31 42,24
43,31 44,49 45,409 46,19
49,35 50,303 51,521 52,125
53,96 54,12 55,34 56,46
57,239 58,17 59,42 61,50
62,115 63,208 64,45 65,111
66,16 67,13 68,85 69,201
70,406 71,72 72,11 73,49
74,105 75,354 76,11 77,1739
78,121 79,34 80,37 81,162
82,72 83,184 84,56 85,41
86,44 87,31 88,15 89,66
90,21 91,158 92,37 93,31
94,83 95,370 96,1069 97,202
98,19 99,31 101,12 105,558
106,51 107,319 108,130 109,368
110,48 111,16 112,42 121,18
123,83 124,271 125,117 126,14
127,88 139,9999 140,882 141,55
151,42 155,14 166,17 184,2896
185,261 186,30
##END=
