##TITLE=2,3-Pyridinediamine
##JCAMP-DX=4.24
##DATA TYPE=MASS SPECTRUM
##ORIGIN=Japan AIST/NIMC Database- Spectrum MS-IW-3071
##OWNER=NIST Mass Spectrometry Data Center
Collection (C) 2014 copyright by the U.S. Secretary of Commerce
on behalf of the United States of America. All rights reserved.
##CAS REGISTRY NO=452-58-4
##$NIST MASS SPEC NO=230467
##MOLFORM=C5 H7 N3
##MW=109
##$NIST SOURCE=MSDC
##XUNITS=M/Z
##YUNITS=RELATIVE INTENSITY
##XFACTOR=1
##YFACTOR=1
##FIRSTX=14
##LASTX=111
##FIRSTY=10
##MAXX=111
##MINX=14
##MAXY=9999
##MINY=10
##NPOINTS=52
##PEAK TABLE=(XY..XY)
14,10 15,10 25,20 26,99
27,179 28,1079 29,209 30,129
36,10 37,159 38,469 39,929
40,269 41,479 42,189 43,369
44,10 49,10 50,60 51,179
52,589 53,499 54,1649 55,2219
56,779 57,30 62,20 63,50
64,199 65,429 66,299 67,90
68,30 69,60 76,20 77,70
78,199 79,80 80,90 81,1709
82,2989 83,159 91,40 92,329
93,189 94,50 106,20 107,30
108,209 109,9999 110,669 111,10
##END=
