##TITLE=Resorcinol, 2TMS derivative
##JCAMP-DX=4.24
##DATA TYPE=MASS SPECTRUM
##ORIGIN=NIST Mass Spectrometry Data Center
##OWNER=NIST Mass Spectrometry Data Center
Collection (C) 2014 copyright by the U.S. Secretary of Commerce
on behalf of the United States of America. All rights reserved.
##CAS REGISTRY NO=4520-29-0
##$NIST MASS SPEC NO=352781
##MOLFORM=C12 H22 O2 Si2
##MW=254
##$NIST SOURCE=MSDC
##XUNITS=M/Z
##YUNITS=RELATIVE INTENSITY
##XFACTOR=1
##YFACTOR=1
##FIRSTX=15
##LASTX=258
##FIRSTY=10
##MAXX=258
##MINX=15
##MAXY=9999
##MINY=10
##NPOINTS=170
##PEAK TABLE=(XY..XY)
15,10 27,10 29,30 31,10
38,10 39,30 42,20 43,200
44,70 45,581 46,40 47,60
50,20 51,20 52,10 53,40
54,10 55,50 56,10 57,40
58,50 59,150 60,20 61,60
62,20 63,90 64,100 65,90
66,30 67,50 68,20 69,70
70,20 71,40 73,2903 74,270
75,550 76,90 77,110 78,50
79,90 80,10 81,50 82,50
83,120 84,40 85,70 86,10
87,30 88,10 89,80 90,50
91,751 92,180 93,120 94,20
95,160 96,50 97,390 98,90
99,70 100,10 101,10 102,10
103,120 104,190 105,390 106,60
107,130 108,20 109,80 110,30
111,110 112,1571 115,60 116,10
117,120 118,20 119,210 120,50
121,160 122,150 123,70 124,10
125,20 127,20 129,30 131,230
133,1451 134,220 135,400 136,70
137,100 138,20 139,20 141,20
143,90 144,10 145,40 147,1331
148,230 149,550 150,90 151,160
152,20 153,90 154,10 155,30
156,10 157,80 158,10 159,10
161,50 162,10 163,190 164,60
165,240 166,250 167,120 168,20
169,20 171,60 172,10 173,10
175,10 177,30 178,10 179,180
180,60 181,130 182,30 183,30
191,10 193,140 194,30 195,250
196,50 197,90 198,20 199,10
205,20 206,10 207,30 208,10
209,120 210,20 211,20 219,10
221,60 223,520 224,110 225,70
226,10 233,10 235,20 236,10
237,200 239,9999 240,3173 241,1321
242,200 243,40 244,10 251,10
252,10 254,8448 255,2412 256,991
257,150 258,30
##END=
