##TITLE=4-(4-Methoxyphenyl)butyric acid
##JCAMP-DX=4.24
##DATA TYPE=MASS SPECTRUM
##ORIGIN=Japan AIST/NIMC Database- Spectrum MS-IW- 730
##OWNER=NIST Mass Spectrometry Data Center
Collection (C) 2014 copyright by the U.S. Secretary of Commerce
on behalf of the United States of America. All rights reserved.
##CAS REGISTRY NO=4521-28-2
##$NIST MASS SPEC NO=239444
##MOLFORM=C11 H14 O3
##MW=194
##$NIST SOURCE=MSDC
##XUNITS=M/Z
##YUNITS=RELATIVE INTENSITY
##XFACTOR=1
##YFACTOR=1
##FIRSTX=14
##LASTX=197
##FIRSTY=10
##MAXX=197
##MINX=14
##MAXY=9999
##MINY=10
##NPOINTS=103
##PEAK TABLE=(XY..XY)
14,10 15,20 17,20 18,10
26,10 27,60 28,10 29,10
38,10 39,129 40,10 41,90
42,20 43,119 44,60 45,119
50,50 51,169 52,90 53,50
55,80 57,10 58,10 60,109
61,10 62,20 63,90 64,40
65,219 66,20 67,10 69,10
71,30 72,10 73,20 74,30
75,20 76,20 77,529 78,309
79,90 80,10 81,10 85,10
88,10 89,99 90,70 91,539
92,60 93,20 94,10 95,10
97,10 102,20 103,90 104,50
105,80 106,70 107,60 108,80
109,20 111,10 115,80 116,20
117,70 118,10 119,429 120,60
121,9999 122,909 123,60 127,10
131,30 132,80 133,40 134,4829
135,519 136,40 137,20 144,10
145,10 146,20 147,90 148,60
149,20 150,10 159,10 160,10
161,20 162,10 163,20 164,10
167,20 168,10 169,20 175,10
176,30 177,60 192,10 194,2939
195,369 196,80 197,30
##END=
