##TITLE=1,16-Dibromohexadecane
##JCAMP-DX=4.24
##DATA TYPE=MASS SPECTRUM
##ORIGIN=NIST Mass Spectrometry Data Center, 1994
##OWNER=NIST Mass Spectrometry Data Center
Collection (C) 2014 copyright by the U.S. Secretary of Commerce
on behalf of the United States of America. All rights reserved.
##CAS REGISTRY NO=45223-18-5
##$NIST MASS SPEC NO=133768
##MOLFORM=C16 H32 Br2
##MW=382
##$NIST SOURCE=MSDC
##XUNITS=M/Z
##YUNITS=RELATIVE INTENSITY
##XFACTOR=1
##YFACTOR=1
##FIRSTX=27
##LASTX=306
##FIRSTY=1394
##MAXX=306
##MINX=27
##MAXY=9999
##MINY=25
##NPOINTS=101
##PEAK TABLE=(XY..XY)
27,1394 28,544 29,2658 30,48
32,25 39,1360 41,8498 42,1736
43,6190 44,274 51,61 52,51
53,660 54,51 55,9999 56,1524
57,8294 58,395 65,96 67,993
69,6842 70,891 71,5943 72,290
77,67 79,177 80,99 81,453
82,395 83,3679 84,404 85,3769
86,283 91,40 93,86 95,268
97,2378 98,282 99,1658 100,134
107,544 109,561 111,974 112,124
113,1098 114,119 121,182 122,38
123,217 124,33 125,324 126,33
127,928 128,99 135,2470 137,2385
138,113 139,136 140,33 141,619
142,71 148,182 149,650 150,235
151,576 153,79 155,369 162,78
163,495 164,98 165,444 166,48
169,49 177,524 178,73 179,517
191,573 192,74 193,513 194,42
205,540 206,55 207,546 208,55
219,568 221,549 222,59 233,500
234,63 235,483 236,66 247,333
248,50 249,377 250,55 261,139
263,159 303,397 304,98 305,389
306,78
##END=
