##TITLE=Acetic acid, 2-chlorophenyl ester
##JCAMP-DX=4.24
##DATA TYPE=MASS SPECTRUM
##ORIGIN=Japan AIST/NIMC Database- Spectrum MS-NW-8396
##OWNER=NIST Mass Spectrometry Data Center
Collection (C) 2014 copyright by the U.S. Secretary of Commerce
on behalf of the United States of America. All rights reserved.
##CAS REGISTRY NO=4525-75-1
##$NIST MASS SPEC NO=241548
##MOLFORM=C8 H7 Cl O2
##MW=170
##$NIST SOURCE=MSDC
##XUNITS=M/Z
##YUNITS=RELATIVE INTENSITY
##XFACTOR=1
##YFACTOR=1
##FIRSTX=13
##LASTX=173
##FIRSTY=10
##MAXX=173
##MINX=13
##MAXY=9999
##MINY=10
##NPOINTS=61
##PEAK TABLE=(XY..XY)
13,10 14,70 15,419 26,30
27,30 28,10 31,10 36,50
37,109 38,269 39,419 40,20
41,20 42,159 43,5859 44,129
45,10 47,30 49,70 50,149
51,80 53,70 55,10 60,20
61,80 62,179 63,739 64,1199
65,419 66,40 72,40 73,549
74,99 75,339 76,30 77,20
84,10 85,20 87,10 89,10
91,10 92,669 93,90 94,60
97,10 99,519 100,219 101,179
102,70 111,99 113,30 127,60
128,9999 129,679 130,3189 131,209
132,10 170,839 171,70 172,269
173,20
##END=
