##TITLE=Methyl fluoroacetate
##JCAMP-DX=4.24
##DATA TYPE=MASS SPECTRUM
##ORIGIN=Japan AIST/NIMC Database- Spectrum MS-NW-2965
##OWNER=NIST Mass Spectrometry Data Center
Collection (C) 2014 copyright by the U.S. Secretary of Commerce
on behalf of the United States of America. All rights reserved.
##CAS REGISTRY NO=453-18-9
##$NIST MASS SPEC NO=231113
##MOLFORM=C3 H5 F O2
##MW=92
##$NIST SOURCE=MSDC
##XUNITS=M/Z
##YUNITS=RELATIVE INTENSITY
##XFACTOR=1
##YFACTOR=1
##FIRSTX=12
##LASTX=93
##FIRSTY=40
##MAXX=93
##MINX=12
##MAXY=9999
##MINY=10
##NPOINTS=38
##PEAK TABLE=(XY..XY)
12,40 13,139 14,469 15,6449
16,80 25,20 26,30 27,70
28,109 29,1619 30,149 31,719
32,389 33,7279 34,90 35,289
36,20 39,10 40,10 41,70
42,529 43,99 44,109 45,169
46,119 47,1319 48,1139 49,40
57,10 59,9999 60,569 61,4869
62,139 63,549 64,10 91,90
92,789 93,20
##END=
