##TITLE=3-Furanol, tetrahydro-
##JCAMP-DX=4.24
##DATA TYPE=MASS SPECTRUM
##ORIGIN=Japan AIST/NIMC Database- Spectrum MS-NW-8554
##OWNER=NIST Mass Spectrometry Data Center
Collection (C) 2014 copyright by the U.S. Secretary of Commerce
on behalf of the United States of America. All rights reserved.
##CAS REGISTRY NO=453-20-3
##$NIST MASS SPEC NO=238809
##MOLFORM=C4 H8 O2
##MW=88
##$NIST SOURCE=MSDC
##XUNITS=M/Z
##YUNITS=RELATIVE INTENSITY
##XFACTOR=1
##YFACTOR=1
##FIRSTX=13
##LASTX=89
##FIRSTY=20
##MAXX=89
##MINX=13
##MAXY=9999
##MINY=10
##NPOINTS=51
##PEAK TABLE=(XY..XY)
13,20 14,119 15,449 16,50
17,30 18,109 25,20 26,259
27,1089 28,1609 29,2839 30,1879
31,4059 32,809 33,119 37,70
38,139 39,1049 40,849 41,1099
42,909 43,1959 44,1539 45,509
46,10 47,40 50,10 51,10
53,30 54,10 55,199 56,219
57,9999 58,8219 59,459 60,769
61,99 67,10 68,30 69,139
70,1549 71,269 72,30 73,20
83,20 84,10 85,10 86,10
87,139 88,1059 89,70
##END=
