##TITLE=2-Propanone, 1,3-difluoro-
##JCAMP-DX=4.24
##DATA TYPE=MASS SPECTRUM
##ORIGIN=J.T. CLERC, ORGANIC CHEM. LAB., ETH, ZURICH, SWITZ.
##OWNER=NIST Mass Spectrometry Data Center
Collection (C) 2014 copyright by the U.S. Secretary of Commerce
on behalf of the United States of America. All rights reserved.
##CAS REGISTRY NO=453-14-5
##$NIST MASS SPEC NO=65099
##MOLFORM=C3 H4 F2 O
##MW=94
##$NIST SOURCE=MSDC
##XUNITS=M/Z
##YUNITS=RELATIVE INTENSITY
##XFACTOR=1
##YFACTOR=1
##FIRSTX=26
##LASTX=95
##FIRSTY=381
##MAXX=95
##MINX=26
##MAXY=9999
##MINY=42
##NPOINTS=30
##PEAK TABLE=(XY..XY)
26,381 27,1059 28,297 29,508
31,763 32,805 33,9575 34,42
37,85 38,85 39,85 41,169
42,1568 43,169 44,169 45,1271
46,593 47,297 49,169 51,169
57,85 60,169 61,9999 62,254
64,169 65,381 73,127 75,297
94,6440 95,212
##END=
