##TITLE=1,3-Difluoro-2-propanol
##JCAMP-DX=4.24
##DATA TYPE=MASS SPECTRUM
##ORIGIN=Chuck Anderson, Aldrich Chemical Co.
##OWNER=NIST Mass Spectrometry Data Center
Collection (C) 2014 copyright by the U.S. Secretary of Commerce
on behalf of the United States of America. All rights reserved.
##CAS REGISTRY NO=453-13-4
##$NIST MASS SPEC NO=107824
##MOLFORM=C3 H6 F2 O
##MW=96
##$NIST SOURCE=MSDC
##XUNITS=M/Z
##YUNITS=RELATIVE INTENSITY
##XFACTOR=1
##YFACTOR=1
##FIRSTX=13
##LASTX=97
##FIRSTY=21
##MAXX=97
##MINX=13
##MAXY=9999
##MINY=1
##NPOINTS=61
##PEAK TABLE=(XY..XY)
13,21 14,158 15,2819 16,37
17,3 18,4 19,30 20,1
24,1 25,20 26,145 27,661
28,94 29,988 30,54 31,726
32,139 33,1213 34,34 35,9
36,9 37,41 38,54 39,93
40,8 41,26 42,374 43,3284
44,174 45,247 46,108 47,147
48,4 49,256 50,1 51,210
53,6 55,24 56,21 57,106
58,16 59,154 60,59 61,84
62,237 63,9999 64,261 65,31
67,1 73,30 74,4 75,76
76,16 77,397 78,86 79,12
93,9 94,2 95,11 96,2
97,26
##END=
