##TITLE=Benzene, (1-butylnonyl)-
##JCAMP-DX=4.24
##DATA TYPE=MASS SPECTRUM
##ORIGIN=D.HENNEBERG, MAX-PLANCK INSTITUTE, MULHEIM, WEST GERMANY
##OWNER=NIST Mass Spectrometry Data Center
Collection (C) 2014 copyright by the U.S. Secretary of Commerce
on behalf of the United States of America. All rights reserved.
##CAS REGISTRY NO=4534-50-3
##$NIST MASS SPEC NO=61133
##MOLFORM=C19 H32
##MW=260
##$NIST SOURCE=MSDC
##XUNITS=M/Z
##YUNITS=RELATIVE INTENSITY
##XFACTOR=1
##YFACTOR=1
##FIRSTX=25
##LASTX=261
##FIRSTY=2
##MAXX=261
##MINX=25
##MAXY=9999
##MINY=1
##NPOINTS=96
##PEAK TABLE=(XY..XY)
25,2 26,15 27,233 28,180
29,415 30,15 33,6 34,5
35,9 39,135 40,27 41,685
42,72 43,480 49,8 51,28
52,26 53,45 54,15 55,199
56,54 57,330 58,5 60,8
62,23 63,3 64,15 65,107
66,11 67,19 68,21 69,209
71,57 72,14 75,50 76,14
77,145 78,122 79,80 80,12
83,41 85,32 86,11 87,26
88,16 89,47 90,41 91,9999
92,790 93,26 99,16 100,7
101,1 102,49 103,124 104,332
105,1313 106,117 111,15 112,7
115,106 116,23 117,211 118,84
119,497 120,38 124,6 126,9
127,4 128,33 130,16 131,10
133,401 134,40 142,10 146,72
147,1895 148,281 149,11 151,4
159,16 161,72 175,11 185,10
189,4 202,42 203,480 204,117
205,9 206,9 207,21 208,1
215,7 259,11 260,247 261,56
##END=
