##TITLE=Benzene, (1-methyldodecyl)-
##JCAMP-DX=4.24
##DATA TYPE=MASS SPECTRUM
##ORIGIN=D.HENNEBERG, MAX-PLANCK INSTITUTE, MULHEIM, WEST GERMANY
##OWNER=NIST Mass Spectrometry Data Center
Collection (C) 2014 copyright by the U.S. Secretary of Commerce
on behalf of the United States of America. All rights reserved.
##CAS REGISTRY NO=4534-53-6
##$NIST MASS SPEC NO=61159
##MOLFORM=C19 H32
##MW=260
##$NIST SOURCE=MSDC
##XUNITS=M/Z
##YUNITS=RELATIVE INTENSITY
##XFACTOR=1
##YFACTOR=1
##FIRSTX=27
##LASTX=261
##FIRSTY=140
##MAXX=261
##MINX=27
##MAXY=9999
##MINY=1
##NPOINTS=104
##PEAK TABLE=(XY..XY)
27,140 29,255 30,5 35,3
39,103 40,20 41,391 42,53
43,441 44,32 46,4 49,5
51,36 52,14 53,30 54,17
55,210 56,68 57,168 58,20
59,14 60,12 62,6 63,9
65,46 66,3 67,18 68,17
69,62 70,12 71,52 72,5
74,10 75,24 76,9 77,229
78,111 79,301 80,21 81,13
82,11 83,29 84,7 85,31
86,9 88,6 89,6 90,7
91,935 92,78 93,9 94,10
95,10 97,17 99,14 100,7
101,31 102,33 103,154 104,430
105,9999 106,1222 107,77 108,5
111,20 115,232 116,14 117,74
118,75 119,95 120,54 121,5
123,1 128,2 129,9 131,14
132,6 133,40 134,7 145,7
147,37 148,11 152,4 153,3
161,14 162,7 166,50 168,4
169,9 175,14 176,1 189,13
203,7 205,4 209,1 221,10
222,1 223,3 229,5 232,2
245,17 259,5 260,274 261,71
##END=
