##TITLE=Benzene, (1-ethyldodecyl)-
##JCAMP-DX=4.24
##DATA TYPE=MASS SPECTRUM
##ORIGIN=D. LUKE UNILEVER RESEARCH LAB., PORT SUNLIGHT
##OWNER=NIST Mass Spectrometry Data Center
Collection (C) 2014 copyright by the U.S. Secretary of Commerce
on behalf of the United States of America. All rights reserved.
##CAS REGISTRY NO=4534-58-1
##$NIST MASS SPEC NO=13245
##MOLFORM=C20 H34
##MW=274
##$NIST SOURCE=MSDC
##XUNITS=M/Z
##YUNITS=RELATIVE INTENSITY
##XFACTOR=1
##YFACTOR=1
##FIRSTX=17
##LASTX=275
##FIRSTY=75
##MAXX=275
##MINX=17
##MAXY=9999
##MINY=28
##NPOINTS=111
##PEAK TABLE=(XY..XY)
17,75 18,311 26,41 27,443
28,623 29,910 30,51 32,108
36,87 38,43 39,377 40,67
41,1743 42,201 43,1449 44,102
50,31 51,142 52,44 53,207
54,138 55,832 56,140 57,826
58,46 63,60 65,250 66,39
67,230 68,62 69,383 70,86
71,389 76,35 77,366 78,305
79,250 80,39 81,142 82,53
83,284 84,44 85,273 89,69
90,46 91,9999 92,1653 93,137
94,46 95,122 96,46 97,194
98,30 99,60 102,92 103,377
104,2192 105,2084 106,228 107,43
109,48 111,65 113,43 115,766
116,359 117,3593 118,760 119,4922
120,874 121,83 125,34 127,97
128,255 129,485 130,305 131,689
132,4946 133,1102 134,129 139,42
141,79 142,31 143,133 144,65
145,1527 146,240 147,521 148,74
151,31 153,32 159,104 160,29
161,443 162,64 168,33 173,35
175,216 176,33 189,111 203,46
217,35 243,275 244,309 245,838
246,298 247,46 260,28 272,334
273,81 274,419 275,97
##END=
