##TITLE=Benzene, (1-pentyloctyl)-
##JCAMP-DX=4.24
##DATA TYPE=MASS SPECTRUM
##ORIGIN=D.HENNEBERG, MAX-PLANCK INSTITUTE, MULHEIM, WEST GERMANY
##OWNER=NIST Mass Spectrometry Data Center
Collection (C) 2014 copyright by the U.S. Secretary of Commerce
on behalf of the United States of America. All rights reserved.
##CAS REGISTRY NO=4534-49-0
##$NIST MASS SPEC NO=61132
##MOLFORM=C19 H32
##MW=260
##$NIST SOURCE=MSDC
##XUNITS=M/Z
##YUNITS=RELATIVE INTENSITY
##XFACTOR=1
##YFACTOR=1
##FIRSTX=22
##LASTX=261
##FIRSTY=1
##MAXX=261
##MINX=22
##MAXY=9999
##MINY=1
##NPOINTS=121
##PEAK TABLE=(XY..XY)
22,1 23,5 25,3 26,9
27,162 28,199 29,427 30,21
32,27 37,10 39,158 41,626
42,59 43,468 44,1 48,5
49,8 50,13 51,47 52,38
53,98 54,21 55,337 56,30
57,167 58,25 63,15 64,19
65,106 66,26 67,48 68,31
69,136 70,39 71,56 73,9
74,12 75,18 76,18 77,136
78,112 79,107 83,76 84,4
85,67 86,26 87,10 88,21
89,36 90,81 91,9999 92,763
93,60 94,12 95,18 96,9
97,54 98,20 99,13 100,10
101,14 103,114 104,434 105,1934
106,130 107,9 108,5 110,16
111,20 115,121 116,45 117,243
118,108 119,881 120,95 121,1
124,5 125,12 127,12 128,17
129,18 130,16 131,6 132,16
133,392 134,36 138,5 141,7
142,5 143,8 145,7 146,15
147,109 148,10 149,10 152,5
157,5 159,1 160,43 161,1253
162,178 167,12 168,12 174,15
187,19 188,36 189,679 190,119
191,20 193,7 197,1 203,3
205,7 221,5 231,5 238,1
246,1 257,7 259,6 260,263
261,50
##END=
