##TITLE=Hexadecanoic acid, tetradecyl ester
##JCAMP-DX=4.24
##DATA TYPE=MASS SPECTRUM
##ORIGIN=R.T.HOLMAN,UNIVERSITY OF MINNESOTA
##OWNER=NIST Mass Spectrometry Data Center
Collection (C) 2014 copyright by the U.S. Secretary of Commerce
on behalf of the United States of America. All rights reserved.
##CAS REGISTRY NO=4536-26-9
##$NIST MASS SPEC NO=36248
##MOLFORM=C30 H60 O2
##MW=452
##$NIST SOURCE=MSDC
##XUNITS=M/Z
##YUNITS=RELATIVE INTENSITY
##XFACTOR=1
##YFACTOR=1
##FIRSTX=26
##LASTX=455
##FIRSTY=60
##MAXX=455
##MINX=26
##MAXY=9999
##MINY=10
##NPOINTS=236
##PEAK TABLE=(XY..XY)
26,60 27,370 28,360 29,1400
30,50 31,40 32,70 36,20
37,20 38,30 39,310 40,100
41,3600 42,1200 43,8700 44,340
45,100 46,10 51,30 52,20
53,170 54,670 55,5900 56,2900
57,9999 58,540 59,130 60,1300
61,2100 62,90 63,50 64,80
65,60 66,90 67,900 68,1500
69,5200 70,2900 71,5900 72,340
73,2200 74,220 75,50 76,20
77,40 78,30 79,140 80,120
81,800 82,2400 83,5400 84,2800
85,3700 86,260 87,520 88,70
89,70 90,10 91,40 92,20
93,90 94,60 95,620 96,1200
97,4600 98,2300 99,850 100,120
101,430 102,130 103,80 104,10
105,20 106,10 107,60 108,30
109,310 110,530 111,2600 112,1300
113,460 114,100 115,510 116,460
117,90 118,20 119,40 120,30
121,100 122,30 123,160 124,290
125,1400 126,800 127,320 128,50
129,1000 130,140 131,40 132,10
133,20 134,20 135,90 136,30
137,90 138,190 139,600 140,490
141,210 142,50 143,180 144,90
145,60 147,30 148,20 149,80
150,40 151,70 152,130 153,330
154,320 155,130 156,30 157,260
158,60 159,20 160,10 161,10
162,10 163,40 164,10 165,30
166,80 167,200 168,1300 169,190
170,20 171,260 172,50 173,20
174,10 175,10 177,30 178,20
179,20 180,20 181,50 182,20
183,20 184,10 185,240 186,40
187,20 188,10 189,10 191,20
192,30 193,20 194,150 195,90
196,3200 197,650 198,70 199,110
200,30 201,20 202,10 205,10
207,10 208,10 209,20 210,20
211,30 212,10 213,530 214,90
215,20 216,10 217,10 218,10
219,60 220,40 221,20 222,10
223,20 224,10 225,10 226,10
227,140 228,40 229,50 230,10
235,10 236,90 237,110 238,60
239,1500 240,270 241,430 242,70
243,10 251,10 253,10 254,30
255,120 256,2000 257,9700 258,1900
259,190 260,20 267,20 269,100
270,30 271,10 283,30 284,10
294,20 295,10 297,50 298,20
299,10 307,10 311,20 312,70
313,20 325,40 326,20 327,10
409,20 410,10 423,10 424,10
452,774 453,270 454,60 455,10
##END=
