##TITLE=Hexanoic acid, 2-methyl-
##JCAMP-DX=4.24
##DATA TYPE=MASS SPECTRUM
##ORIGIN=Japan AIST/NIMC Database- Spectrum MS-IW-3852
##OWNER=NIST Mass Spectrometry Data Center
Collection (C) 2014 copyright by the U.S. Secretary of Commerce
on behalf of the United States of America. All rights reserved.
##CAS REGISTRY NO=4536-23-6
##$NIST MASS SPEC NO=236492
##MOLFORM=C7 H14 O2
##MW=130
##$NIST SOURCE=MSDC
##XUNITS=M/Z
##YUNITS=RELATIVE INTENSITY
##XFACTOR=1
##YFACTOR=1
##FIRSTX=15
##LASTX=131
##FIRSTY=40
##MAXX=131
##MINX=15
##MAXY=9999
##MINY=10
##NPOINTS=63
##PEAK TABLE=(XY..XY)
15,40 18,10 26,70 27,1009
28,369 29,1229 30,199 31,90
37,10 38,40 39,729 40,119
41,2059 42,449 43,3199 44,119
45,679 46,20 47,30 50,30
51,60 52,20 53,149 54,40
55,1009 56,629 57,899 58,50
59,199 60,669 61,70 62,10
63,10 65,20 67,40 68,30
69,319 70,199 71,40 72,10
73,1689 74,9999 75,419 76,50
81,10 83,109 84,50 85,409
86,30 87,2959 88,199 89,20
97,30 99,10 101,419 102,20
111,10 112,30 113,20 115,99
116,10 130,20 131,10
##END=
