##TITLE=Benzene, (1-propyloctyl)-
##JCAMP-DX=4.24
##DATA TYPE=MASS SPECTRUM
##ORIGIN=D.HENNEBERG, MAX-PLANCK INSTITUTE, MULHEIM, WEST GERMANY
##OWNER=NIST Mass Spectrometry Data Center
Collection (C) 2014 copyright by the U.S. Secretary of Commerce
on behalf of the United States of America. All rights reserved.
##CAS REGISTRY NO=4536-86-1
##$NIST MASS SPEC NO=61123
##MOLFORM=C17 H28
##MW=232
##$NIST SOURCE=MSDC
##XUNITS=M/Z
##YUNITS=RELATIVE INTENSITY
##XFACTOR=1
##YFACTOR=1
##FIRSTX=25
##LASTX=234
##FIRSTY=2
##MAXX=234
##MINX=25
##MAXY=9999
##MINY=1
##NPOINTS=108
##PEAK TABLE=(XY..XY)
25,2 27,243 28,33 29,333
30,3 32,6 33,3 36,2
38,3 39,170 40,11 41,518
42,49 43,408 44,10 46,11
47,6 49,4 50,15 51,52
52,16 53,61 54,15 55,295
56,28 57,97 58,12 59,4
60,3 61,4 62,50 63,38
64,10 65,155 66,14 67,31
68,7 69,124 70,21 71,38
72,4 73,6 74,10 75,17
76,16 77,166 78,137 79,93
80,8 81,4 83,13 84,4
85,102 86,10 87,25 88,13
89,49 90,40 91,9999 92,811
93,38 94,5 95,2 96,2
97,35 98,4 101,10 102,32
103,133 104,325 105,978 106,87
107,4 111,12 112,4 113,6
114,8 115,121 116,45 117,212
118,62 119,498 120,48 121,1
127,10 128,25 129,21 130,8
131,51 132,91 133,2240 134,300
135,19 145,7 147,115 148,13
154,13 155,8 161,4 188,13
189,622 190,103 191,11 203,2
230,5 232,336 233,51 234,3
##END=
