##TITLE=Ethanol, 2-(dodecyloxy)-
##JCAMP-DX=4.24
##DATA TYPE=MASS SPECTRUM
##ORIGIN=Japan AIST/NIMC Database- Spectrum MS-NW-4898
##OWNER=NIST Mass Spectrometry Data Center
Collection (C) 2014 copyright by the U.S. Secretary of Commerce
on behalf of the United States of America. All rights reserved.
##CAS REGISTRY NO=4536-30-5
##$NIST MASS SPEC NO=232843
##MOLFORM=C14 H30 O2
##MW=230
##$NIST SOURCE=MSDC
##XUNITS=M/Z
##YUNITS=RELATIVE INTENSITY
##XFACTOR=1
##YFACTOR=1
##FIRSTX=14
##LASTX=201
##FIRSTY=20
##MAXX=201
##MINX=14
##MAXY=9999
##MINY=10
##NPOINTS=113
##PEAK TABLE=(XY..XY)
14,20 15,99 16,10 17,30
18,109 26,60 27,809 28,169
29,1509 30,40 31,409 32,40
33,20 38,10 39,439 40,99
41,2989 42,849 43,6769 44,269
45,3649 46,109 47,10 50,10
51,20 52,10 53,179 54,289
55,3019 56,1709 57,9999 58,479
59,60 60,60 61,60 62,50
63,2129 64,60 65,30 66,40
67,369 68,829 69,2349 70,1509
71,5949 72,349 73,159 74,20
75,1289 76,50 77,50 78,10
79,30 80,20 81,209 82,919
83,2239 84,1039 85,3989 86,279
87,20 88,10 89,10 90,20
91,30 93,10 94,10 95,129
96,319 97,1999 98,739 99,1189
100,99 101,10 104,20 105,10
109,70 110,139 111,1269 112,439
113,799 114,80 115,10 117,60
123,30 124,50 125,409 126,169
127,379 128,40 129,10 131,10
137,10 138,40 139,99 140,769
141,99 155,10 156,10 166,20
167,30 168,469 169,389 170,50
183,80 184,10 185,40 187,30
196,10 197,20 199,489 200,70
201,10
##END=
