##TITLE=Benzene, 1,1'-thiobis[2-methyl-
##JCAMP-DX=4.24
##DATA TYPE=MASS SPECTRUM
##ORIGIN=Japan AIST/NIMC Database- Spectrum MS-IW-6223
##OWNER=NIST Mass Spectrometry Data Center
Collection (C) 2014 copyright by the U.S. Secretary of Commerce
on behalf of the United States of America. All rights reserved.
##CAS REGISTRY NO=4537-05-7
##$NIST MASS SPEC NO=243104
##MOLFORM=C14 H14 S
##MW=214
##$NIST SOURCE=MSDC
##XUNITS=M/Z
##YUNITS=RELATIVE INTENSITY
##XFACTOR=1
##YFACTOR=1
##FIRSTX=27
##LASTX=217
##FIRSTY=20
##MAXX=217
##MINX=27
##MAXY=9999
##MINY=10
##NPOINTS=116
##PEAK TABLE=(XY..XY)
27,20 38,20 39,269 40,20
41,60 45,359 47,20 50,40
51,159 52,30 53,40 58,10
59,10 62,40 63,229 64,70
65,619 66,30 69,90 70,20
71,40 74,10 75,30 76,50
77,339 78,419 79,149 80,30
82,30 83,20 84,10 85,30
86,30 87,20 88,10 89,409
90,159 91,1369 92,229 93,40
95,20 96,10 97,40 98,169
99,80 102,10 103,20 104,90
105,949 106,389 107,169 108,40
115,70 116,10 121,1739 122,3279
123,679 124,189 125,30 126,10
127,20 128,40 129,20 134,60
135,40 136,10 139,40 141,30
147,40 148,10 149,10 151,30
152,109 153,60 154,10 155,10
158,10 160,10 161,10 163,20
164,30 165,539 166,389 167,60
171,60 172,10 173,10 176,20
177,20 178,149 179,129 180,60
181,269 182,40 183,20 184,579
185,149 186,40 187,10 195,30
196,20 197,669 198,379 199,1149
200,189 201,60 208,20 209,20
210,20 211,249 212,60 213,379
214,9999 215,1669 216,559 217,70
##END=
