##TITLE=3-(Trifluoromethyl)benzoic acid
##JCAMP-DX=4.24
##DATA TYPE=MASS SPECTRUM
##ORIGIN=NIST Mass Spectrometry Data Center, 1994
##OWNER=NIST Mass Spectrometry Data Center
Collection (C) 2014 copyright by the U.S. Secretary of Commerce
on behalf of the United States of America. All rights reserved.
##CAS REGISTRY NO=454-92-2
##$NIST MASS SPEC NO=134212
##MOLFORM=C8 H5 F3 O2
##MW=190
##$NIST SOURCE=MSDC
##XUNITS=M/Z
##YUNITS=RELATIVE INTENSITY
##XFACTOR=1
##YFACTOR=1
##FIRSTX=17
##LASTX=192
##FIRSTY=24
##MAXX=192
##MINX=17
##MAXY=9999
##MINY=3
##NPOINTS=97
##PEAK TABLE=(XY..XY)
17,24 18,18 26,56 27,115
29,67 31,176 37,139 38,235
39,213 40,3 45,788 46,21
48,17 49,166 50,1253 51,494
52,43 53,108 55,21 56,46
57,172 60,17 61,86 62,139
63,229 64,35 65,106 66,24
68,83 69,638 70,52 73,158
74,759 75,1343 76,431 77,279
78,18 79,30 80,60 81,82
82,14 83,46 84,27 85,33
86,39 87,52 88,67 91,16
92,47 93,79 94,163 95,1272
96,379 97,31 98,14 99,342
100,90 101,51 103,21 104,47
105,40 106,34 107,102 108,10
112,74 113,126 114,92 115,28
118,31 119,143 120,15 121,74
122,13 123,100 124,10 125,1036
126,452 127,300 128,20 132,24
133,43 141,50 143,192 145,6732
146,489 147,25 161,61 162,169
163,19 169,30 171,1684 173,9999
174,920 175,62 190,6962 191,607
192,55
##END=
