##TITLE=Benzene, 1,1'-(chloroethenylidene)bis-
##JCAMP-DX=4.24
##DATA TYPE=MASS SPECTRUM
##ORIGIN=D.HENNEBERG, MAX-PLANCK INSTITUTE, MULHEIM, WEST GERMANY
##OWNER=NIST Mass Spectrometry Data Center
Collection (C) 2014 copyright by the U.S. Secretary of Commerce
on behalf of the United States of America. All rights reserved.
##CAS REGISTRY NO=4541-89-3
##$NIST MASS SPEC NO=63324
##MOLFORM=C14 H11 Cl
##MW=214
##$NIST SOURCE=MSDC
##XUNITS=M/Z
##YUNITS=RELATIVE INTENSITY
##XFACTOR=1
##YFACTOR=1
##FIRSTX=27
##LASTX=218
##FIRSTY=297
##MAXX=218
##MINX=27
##MAXY=9999
##MINY=5
##NPOINTS=141
##PEAK TABLE=(XY..XY)
27,297 28,17 31,9 32,12
35,16 36,60 37,29 38,111
39,593 40,25 41,18 45,6
48,7 49,37 50,821 51,1968
52,392 53,59 55,7 56,9
57,6 59,11 60,8 61,72
62,334 63,958 64,89 65,139
66,11 68,15 69,21 72,9
73,94 74,623 75,1040 76,3695
77,1067 78,145 79,9 80,19
81,51 82,44 84,25 85,71
86,205 87,352 88,1456 89,2726
90,74 91,22 92,6 93,105
94,40 96,9 97,53 98,213
99,181 100,102 101,396 102,848
103,96 104,9 105,32 106,55
107,87 108,27 109,22 110,70
111,84 112,43 113,152 114,119
115,183 116,16 121,9 122,41
123,35 124,21 125,93 126,348
127,217 128,134 129,30 130,12
131,12 134,13 135,13 136,100
137,77 138,95 139,364 140,50
141,9 146,8 147,18 148,37
149,160 150,578 151,1021 152,1401
153,243 154,25 155,9 158,5
160,9 161,16 162,38 163,164
164,104 165,715 166,106 167,17
172,8 173,26 174,101 175,307
176,1877 177,2203 178,9999 179,9756
180,1432 181,110 183,9 186,24
187,6 188,11 199,174 200,30
201,83 202,15 203,14 205,5
210,12 211,23 212,113 213,390
214,9205 215,1501 216,3031 217,433
218,30
##END=
