##TITLE=Borane, dimethoxy-
##JCAMP-DX=4.24
##DATA TYPE=MASS SPECTRUM
##ORIGIN=CCC 0008
##OWNER=NIST Mass Spectrometry Data Center
Collection (C) 2014 copyright by the U.S. Secretary of Commerce
on behalf of the United States of America. All rights reserved.
##CAS REGISTRY NO=4542-61-4
##$NIST MASS SPEC NO=353
##MOLFORM=C2 H7 B O2
##MW=74
##$NIST SOURCE=MSDC
##XUNITS=M/Z
##YUNITS=RELATIVE INTENSITY
##XFACTOR=1
##YFACTOR=1
##FIRSTX=10
##LASTX=76
##FIRSTY=60
##MAXX=76
##MINX=10
##MAXY=9999
##MINY=10
##NPOINTS=46
##PEAK TABLE=(XY..XY)
10,60 11,250 12,250 13,330
14,621 15,5135 16,70 17,20
21,20 22,10 23,20 24,30
25,30 26,50 27,190 28,651
29,1972 30,180 31,250 36,60
38,10 39,40 40,160 41,250
42,1882 43,6476 44,110 45,210
46,10 47,10 54,10 55,30
56,170 57,520 58,80 59,150
60,10 61,10 69,10 70,20
71,40 72,2672 73,9999 74,270
75,30 76,10
##END=
