##TITLE=4-(n-Butoxyphenyl)acetic acid
##JCAMP-DX=4.24
##DATA TYPE=MASS SPECTRUM
##ORIGIN=NIST Mass Spectrometry Data Center, 1994
##OWNER=NIST Mass Spectrometry Data Center
Collection (C) 2014 copyright by the U.S. Secretary of Commerce
on behalf of the United States of America. All rights reserved.
##CAS REGISTRY NO=4547-57-3
##$NIST MASS SPEC NO=136581
##MOLFORM=C12 H16 O3
##MW=208
##$NIST SOURCE=MSDC
##XUNITS=M/Z
##YUNITS=RELATIVE INTENSITY
##XFACTOR=1
##YFACTOR=1
##FIRSTX=12
##LASTX=210
##FIRSTY=12
##MAXX=210
##MINX=12
##MAXY=9999
##MINY=6
##NPOINTS=84
##PEAK TABLE=(XY..XY)
12,12 15,6 17,19 18,69
25,12 26,75 27,851 28,6
29,1905 30,36 36,21 37,18
38,78 39,845 40,109 41,1437
42,65 43,64 44,64 45,254
50,193 51,602 52,374 53,328
54,29 55,263 56,66 57,389
58,28 61,18 62,69 63,252
64,92 65,121 66,45 67,32
68,18 69,14 75,26 77,1418
78,620 79,472 80,51 81,64
86,9 89,373 90,246 91,158
92,23 93,14 94,18 95,55
96,15 103,11 104,15 105,109
106,11 107,9999 108,834 109,269
110,21 117,21 119,33 120,20
121,40 122,13 123,40 124,21
133,78 134,50 135,76 137,15
147,13 150,11 152,2393 153,211
154,25 161,17 163,164 164,17
165,59 208,1076 209,138 210,17
##END=
