##TITLE=3-Fluorobenzoic acid, methyl ester
##JCAMP-DX=4.24
##DATA TYPE=MASS SPECTRUM
##ORIGIN=V.G. Zaikin, TIPS RAS, Moscow, Russia
##OWNER=NIST Mass Spectrometry Data Center
Collection (C) 2014 copyright by the U.S. Secretary of Commerce
on behalf of the United States of America. All rights reserved.
##CAS REGISTRY NO=455-68-5
##$NIST MASS SPEC NO=279004
##MOLFORM=C8 H7 F O2
##MW=154
##$NIST SOURCE=MSDC
##XUNITS=M/Z
##YUNITS=RELATIVE INTENSITY
##XFACTOR=1
##YFACTOR=1
##FIRSTX=25
##LASTX=156
##FIRSTY=30
##MAXX=156
##MINX=25
##MAXY=9999
##MINY=10
##NPOINTS=60
##PEAK TABLE=(XY..XY)
25,30 26,30 27,80 29,791
30,140 31,410 33,180 35,30
36,110 37,480 38,290 39,210
44,330 45,270 48,60 49,280
50,1251 51,671 52,260 53,60
55,60 56,90 57,290 59,180
61,350 62,470 63,450 64,90
65,10 68,450 69,851 70,210
73,380 74,991 75,3373 76,270
77,70 78,30 79,130 81,60
82,30 83,80 85,30 92,190
93,170 94,490 95,6886 96,510
109,110 110,60 113,80 115,80
122,110 123,9999 124,891 125,30
153,120 154,2272 155,290 156,60
##END=
