##TITLE=.alpha.,.alpha.,.alpha.-trifluoro-p-toluic acid
##JCAMP-DX=4.24
##DATA TYPE=MASS SPECTRUM
##ORIGIN=NIST Mass Spectrometry Data Center, 1998.
##OWNER=NIST Mass Spectrometry Data Center
Collection (C) 2014 copyright by the U.S. Secretary of Commerce
on behalf of the United States of America. All rights reserved.
##CAS REGISTRY NO=455-24-3
##$NIST MASS SPEC NO=292086
##MOLFORM=C8 H5 F3 O2
##MW=190
##$NIST SOURCE=MSDC
##XUNITS=M/Z
##YUNITS=RELATIVE INTENSITY
##XFACTOR=1
##YFACTOR=1
##FIRSTX=26
##LASTX=192
##FIRSTY=20
##MAXX=192
##MINX=26
##MAXY=9999
##MINY=10
##NPOINTS=97
##PEAK TABLE=(XY..XY)
26,20 27,60 29,40 31,110
36,30 37,160 38,280 39,310
44,50 45,700 46,10 47,10
48,10 49,140 50,1870 51,920
52,80 53,150 56,50 57,330
60,10 61,130 62,220 63,480
64,50 65,170 66,40 68,100
69,640 70,60 73,230 74,1010
75,1960 76,650 77,330 78,20
79,70 80,60 81,160 82,20
83,80 84,20 85,70 86,40
87,70 88,80 89,40 91,10
92,50 93,140 94,250 95,1780
96,610 97,30 98,10 99,430
100,160 101,60 103,20 104,60
105,20 106,40 107,130 112,150
113,190 114,140 115,30 118,20
119,200 120,10 121,90 123,120
124,20 125,1330 126,690 127,370
128,20 132,20 133,30 141,50
143,580 144,350 145,7879 146,650
147,30 161,130 162,250 163,20
169,10 171,2010 172,290 173,9999
174,820 175,30 190,6509 191,660
192,30
##END=
