##TITLE=Benzene, 1-iodo-4-(trifluoromethyl)-
##JCAMP-DX=4.24
##DATA TYPE=MASS SPECTRUM
##ORIGIN=RADIAN CORP
##OWNER=NIST Mass Spectrometry Data Center
Collection (C) 2014 copyright by the U.S. Secretary of Commerce
on behalf of the United States of America. All rights reserved.
##CAS REGISTRY NO=455-13-0
##$NIST MASS SPEC NO=73682
##MOLFORM=C7 H4 F3 I
##MW=272
##$NIST SOURCE=MSDC
##XUNITS=M/Z
##YUNITS=RELATIVE INTENSITY
##XFACTOR=1
##YFACTOR=1
##FIRSTX=26
##LASTX=273
##FIRSTY=30
##MAXX=273
##MINX=26
##MAXY=9999
##MINY=10
##NPOINTS=56
##PEAK TABLE=(XY..XY)
26,30 27,20 31,130 37,150
38,280 39,30 49,110 50,2570
51,610 52,10 56,20 57,360
61,90 62,160 63,100 69,630
73,190 74,1450 75,3180 76,1030
77,60 80,30 81,130 87,40
88,50 92,50 93,120 94,370
95,3030 96,200 99,530 100,160
101,50 104,30 106,30 107,200
111,130 118,60 119,350 123,100
125,2400 126,870 127,980 128,40
136,100 143,340 145,9999 146,590
152,20 176,30 203,20 222,40
240,30 253,1070 272,9580 273,20
##END=
