##TITLE=Benzaldehyde, 4-(trifluoromethyl)-
##JCAMP-DX=4.24
##DATA TYPE=MASS SPECTRUM
##ORIGIN=NIST Mass Spectrometry Data Center
##OWNER=NIST Mass Spectrometry Data Center
Collection (C) 2014 copyright by the U.S. Secretary of Commerce
on behalf of the United States of America. All rights reserved.
##CAS REGISTRY NO=455-19-6
##$NIST MASS SPEC NO=342621
##MOLFORM=C8 H5 F3 O
##MW=174
##$NIST SOURCE=MSDC
##XUNITS=M/Z
##YUNITS=RELATIVE INTENSITY
##XFACTOR=1
##YFACTOR=1
##FIRSTX=12
##LASTX=176
##FIRSTY=10
##MAXX=176
##MINX=12
##MAXY=9999
##MINY=10
##NPOINTS=91
##PEAK TABLE=(XY..XY)
12,10 13,10 15,10 18,40
19,20 20,30 25,30 26,80
27,130 29,1281 31,150 32,10
36,40 37,370 38,460 39,380
40,20 47,10 48,30 49,270
50,2342 51,1621 52,110 53,100
55,20 56,80 57,410 58,20
60,30 61,220 62,300 63,310
64,20 68,130 69,941 70,130
72,20 73,220 74,1051 75,2282
76,550 77,821 78,60 79,40
80,90 81,180 82,20 84,20
85,90 86,80 87,100 88,70
89,20 92,40 93,110 94,190
95,1752 96,1091 97,60 99,470
100,150 101,90 102,10 103,20
104,60 105,60 106,30 107,200
108,20 112,10 114,20 118,30
119,210 120,20 123,80 125,1281
126,691 127,1271 128,80 138,10
143,160 145,9999 146,1201 147,50
155,1061 156,90 157,10 173,8498
174,7106 175,621 176,40
##END=
