##TITLE=Benzenamine, 4-(trifluoromethyl)-
##JCAMP-DX=4.24
##DATA TYPE=MASS SPECTRUM
##ORIGIN=NIST Mass Spectrometry Data Center, 1990.
##OWNER=NIST Mass Spectrometry Data Center
Collection (C) 2014 copyright by the U.S. Secretary of Commerce
on behalf of the United States of America. All rights reserved.
##CAS REGISTRY NO=455-14-1
##$NIST MASS SPEC NO=118693
##MOLFORM=C7 H6 F3 N
##MW=161
##$NIST SOURCE=MSDC
##XUNITS=M/Z
##YUNITS=RELATIVE INTENSITY
##XFACTOR=1
##YFACTOR=1
##FIRSTX=15
##LASTX=163
##FIRSTY=27
##MAXX=163
##MINX=15
##MAXY=9999
##MINY=18
##NPOINTS=90
##PEAK TABLE=(XY..XY)
15,27 17,34 26,90 27,115
28,491 29,22 31,128 37,285
38,508 39,692 40,152 41,367
42,80 44,18 45,135 49,58
50,395 51,303 52,528 53,111
54,146 55,328 56,18 57,369
58,34 61,217 62,402 63,828
64,493 65,1211 66,196 67,40
68,74 69,418 70,34 71,303
72,37 73,46 74,148 75,445
76,107 77,51 78,44 80,226
82,66 83,474 84,461 85,63
86,31 87,140 88,361 89,140
90,140 91,352 92,218 93,48
94,89 95,412 96,83 99,91
100,63 101,59 102,123 106,42
107,60 109,56 111,4827 112,421
113,748 114,1732 115,397 116,64
120,359 121,92 122,145 125,176
126,31 132,140 133,259 134,117
138,19 140,782 142,5483 143,534
144,41 145,170 158,30 161,9999
162,816 163,33
##END=
