##TITLE=Ethanone, 1-(3-fluorophenyl)-
##JCAMP-DX=4.24
##DATA TYPE=MASS SPECTRUM
##ORIGIN=Japan AIST/NIMC Database- Spectrum MS-NW-6463
##OWNER=NIST Mass Spectrometry Data Center
Collection (C) 2014 copyright by the U.S. Secretary of Commerce
on behalf of the United States of America. All rights reserved.
##CAS REGISTRY NO=455-36-7
##$NIST MASS SPEC NO=235989
##MOLFORM=C8 H7 F O
##MW=138
##$NIST SOURCE=MSDC
##XUNITS=M/Z
##YUNITS=RELATIVE INTENSITY
##XFACTOR=1
##YFACTOR=1
##FIRSTX=13
##LASTX=140
##FIRSTY=10
##MAXX=140
##MINX=13
##MAXY=9999
##MINY=10
##NPOINTS=83
##PEAK TABLE=(XY..XY)
13,10 14,50 15,369 18,10
20,10 26,30 27,60 28,90
29,20 31,99 32,10 33,10
36,10 37,99 38,119 39,199
40,10 41,10 42,139 43,2629
44,90 45,60 47,90 48,10
49,70 50,519 51,349 52,20
53,20 54,10 55,10 56,40
57,229 58,10 59,30 60,20
61,119 62,139 63,189 64,10
68,209 69,409 70,109 73,60
74,309 75,1509 76,169 77,30
80,20 81,80 82,30 83,159
84,10 85,20 86,30 87,20
89,30 91,20 92,40 93,60
94,259 95,6189 96,719 97,40
98,10 99,10 101,30 103,20
104,10 105,20 107,90 108,20
109,189 110,20 120,20 121,20
122,40 123,9999 124,809 125,60
138,2959 139,279 140,20
##END=
