##TITLE=Benzene, 1-fluoro-2-methyl-4-nitro-
##JCAMP-DX=4.24
##DATA TYPE=MASS SPECTRUM
##ORIGIN=Japan AIST/NIMC Database- Spectrum MS-NW-6616
##OWNER=NIST Mass Spectrometry Data Center
Collection (C) 2014 copyright by the U.S. Secretary of Commerce
on behalf of the United States of America. All rights reserved.
##CAS REGISTRY NO=455-88-9
##$NIST MASS SPEC NO=235268
##MOLFORM=C7 H6 F N O2
##MW=155
##$NIST SOURCE=MSDC
##XUNITS=M/Z
##YUNITS=RELATIVE INTENSITY
##XFACTOR=1
##YFACTOR=1
##FIRSTX=14
##LASTX=157
##FIRSTY=20
##MAXX=157
##MINX=14
##MAXY=9999
##MINY=10
##NPOINTS=105
##PEAK TABLE=(XY..XY)
14,20 15,20 16,20 20,10
25,10 26,60 27,159 28,319
29,10 30,869 31,379 32,40
33,99 36,20 37,189 38,289
39,1109 40,70 41,30 43,50
44,70 45,40 46,99 47,20
48,20 49,90 50,569 51,789
52,109 53,50 55,20 56,179
57,1909 58,109 59,679 60,40
61,299 62,619 63,1499 64,169
65,129 66,10 67,10 68,149
69,139 70,179 71,119 72,20
73,70 74,239 75,269 76,70
77,799 78,99 79,30 80,139
81,779 82,299 83,6359 84,399
85,139 86,169 87,169 88,90
89,799 90,99 91,129 92,40
93,60 94,90 95,579 96,309
97,1559 98,99 99,20 100,10
101,10 102,10 103,10 104,30
105,149 106,60 107,1599 108,849
109,9999 110,799 111,30 113,10
121,20 122,40 123,30 124,70
125,3079 126,259 127,20 135,10
137,70 138,60 139,329 140,30
153,70 154,139 155,9609 156,809
157,90
##END=
