##TITLE=Thiophenol, TMS derivative
##JCAMP-DX=4.24
##DATA TYPE=MASS SPECTRUM
##ORIGIN=NIST Mass Spectrometry Data Center
##OWNER=NIST Mass Spectrometry Data Center
Collection (C) 2014 copyright by the U.S. Secretary of Commerce
on behalf of the United States of America. All rights reserved.
##CAS REGISTRY NO=4551-15-9
##$NIST MASS SPEC NO=343194
##MOLFORM=C9 H14 S Si
##MW=182
##$NIST SOURCE=MSDC
##XUNITS=M/Z
##YUNITS=RELATIVE INTENSITY
##XFACTOR=1
##YFACTOR=1
##FIRSTX=15
##LASTX=184
##FIRSTY=160
##MAXX=184
##MINX=15
##MAXY=9999
##MINY=10
##NPOINTS=98
##PEAK TABLE=(XY..XY)
15,160 17,10 18,20 25,10
26,30 27,230 28,190 29,470
30,30 31,140 32,30 33,20
37,20 38,90 39,731 40,60
41,80 42,230 43,1381 44,440
45,2142 46,170 47,90 50,460
51,1381 52,130 53,260 54,70
55,200 56,40 57,180 58,250
59,210 60,70 61,210 62,110
63,170 65,831 66,140 67,30
69,310 70,60 71,80 73,9999
74,961 75,1621 76,240 77,1481
78,160 79,130 80,30 81,60
82,100 83,80 84,50 85,60
86,10 87,20 89,170 90,170
91,1311 92,160 97,20 101,10
103,80 104,30 105,270 106,30
107,60 108,70 109,300 110,60
111,20 117,10 119,30 121,40
131,70 133,170 134,30 135,110
136,120 137,290 138,60 139,10
149,60 151,3163 152,470 153,290
163,10 164,20 165,170 167,4394
168,671 169,400 170,50 182,4324
183,671 184,350
##END=
