##TITLE=Benzeneacetic acid, .alpha.-cyano-, ethyl ester
##JCAMP-DX=4.24
##DATA TYPE=MASS SPECTRUM
##ORIGIN=Japan AIST/NIMC Database- Spectrum MS-IW- 76
##OWNER=NIST Mass Spectrometry Data Center
Collection (C) 2014 copyright by the U.S. Secretary of Commerce
on behalf of the United States of America. All rights reserved.
##CAS REGISTRY NO=4553-07-5
##$NIST MASS SPEC NO=239228
##MOLFORM=C11 H11 N O2
##MW=189
##$NIST SOURCE=MSDC
##XUNITS=M/Z
##YUNITS=RELATIVE INTENSITY
##XFACTOR=1
##YFACTOR=1
##FIRSTX=15
##LASTX=190
##FIRSTY=20
##MAXX=190
##MINX=15
##MAXY=9999
##MINY=10
##NPOINTS=66
##PEAK TABLE=(XY..XY)
15,20 18,10 26,30 27,339
28,70 29,2259 30,50 31,60
32,10 37,30 38,70 39,319
40,20 41,20 43,30 44,30
45,50 46,10 50,139 51,189
52,50 57,10 58,20 61,40
62,159 63,469 64,139 65,119
66,20 73,10 74,30 75,40
76,60 77,129 78,30 79,30
86,20 87,50 88,169 89,1339
90,1589 91,169 102,10 103,50
104,20 105,119 106,10 107,20
114,129 115,339 116,4339 117,9999
118,949 119,40 130,119 131,20
133,20 135,20 143,169 144,169
145,789 146,90 162,20 163,10
189,209 190,40
##END=
