##TITLE=Cyclopentanamine, N-ethyl-
##JCAMP-DX=4.24
##DATA TYPE=MASS SPECTRUM
##ORIGIN=DM6-160-F24
##OWNER=NIST Mass Spectrometry Data Center
Collection (C) 2014 copyright by the U.S. Secretary of Commerce
on behalf of the United States of America. All rights reserved.
##CAS REGISTRY NO=45592-46-9
##$NIST MASS SPEC NO=31271
##MOLFORM=C7 H15 N
##MW=113
##$NIST SOURCE=MSDC
##XUNITS=M/Z
##YUNITS=RELATIVE INTENSITY
##XFACTOR=1
##YFACTOR=1
##FIRSTX=15
##LASTX=114
##FIRSTY=600
##MAXX=114
##MINX=15
##MAXY=9999
##MINY=100
##NPOINTS=34
##PEAK TABLE=(XY..XY)
15,600 27,1900 28,1400 29,1400
30,1600 38,100 39,1000 40,300
41,3400 42,1600 43,700 44,1400
51,100 52,100 53,300 54,500
55,300 56,3200 57,600 58,700
65,100 67,500 68,400 69,400
70,5799 71,1200 82,100 84,9999
85,1400 98,1000 99,100 112,400
113,2000 114,400
##END=
