##TITLE=Benzoic acid, 4-fluoro-
##JCAMP-DX=4.24
##DATA TYPE=MASS SPECTRUM
##ORIGIN=RADIAN CORP
##OWNER=NIST Mass Spectrometry Data Center
Collection (C) 2014 copyright by the U.S. Secretary of Commerce
on behalf of the United States of America. All rights reserved.
##CAS REGISTRY NO=456-22-4
##$NIST MASS SPEC NO=73572
##MOLFORM=C7 H5 F O2
##MW=140
##$NIST SOURCE=MSDC
##XUNITS=M/Z
##YUNITS=RELATIVE INTENSITY
##XFACTOR=1
##YFACTOR=1
##FIRSTX=29
##LASTX=141
##FIRSTY=60
##MAXX=141
##MINX=29
##MAXY=9999
##MINY=10
##NPOINTS=33
##PEAK TABLE=(XY..XY)
29,60 31,210 37,200 38,250
39,180 45,1050 49,140 50,1090
51,390 53,10 56,150 57,400
61,210 62,260 63,310 68,500
69,700 70,330 73,90 74,950
75,2790 76,250 83,190 84,20
92,70 93,130 94,610 95,6740
96,560 123,9999 124,730 140,6960
141,510
##END=
