##TITLE=m-Fluoroanisole
##JCAMP-DX=4.24
##DATA TYPE=MASS SPECTRUM
##ORIGIN=NIST Mass Spectrometry Data Center, 1990.
##OWNER=NIST Mass Spectrometry Data Center
Collection (C) 2014 copyright by the U.S. Secretary of Commerce
on behalf of the United States of America. All rights reserved.
##CAS REGISTRY NO=456-49-5
##$NIST MASS SPEC NO=118555
##MOLFORM=C7 H7 F O
##MW=126
##$NIST SOURCE=MSDC
##XUNITS=M/Z
##YUNITS=RELATIVE INTENSITY
##XFACTOR=1
##YFACTOR=1
##FIRSTX=13
##LASTX=128
##FIRSTY=29
##MAXX=128
##MINX=13
##MAXY=9999
##MINY=14
##NPOINTS=81
##PEAK TABLE=(XY..XY)
13,29 14,93 15,445 16,20
25,32 26,98 27,98 28,112
29,230 30,20 31,490 32,56
33,84 36,34 37,314 38,462
39,547 40,35 41,48 42,20
43,21 44,82 45,86 46,28
47,15 49,156 50,859 51,426
52,101 53,98 55,83 56,342
57,3071 58,116 59,37 60,62
61,312 62,453 63,870 64,205
65,50 66,53 68,298 69,433
70,623 71,96 72,41 73,123
74,507 75,1501 76,264 77,511
78,132 79,76 80,102 81,609
82,709 83,6408 84,382 85,18
86,16 92,110 93,105 94,252
95,1834 96,9999 97,2539 98,181
99,24 105,126 106,14 107,21
108,33 109,42 110,227 111,678
112,60 123,28 126,8074 127,658
128,53
##END=
