##TITLE=Phenyl trifluoromethyl sulfide
##JCAMP-DX=4.24
##DATA TYPE=MASS SPECTRUM
##ORIGIN=NIST Mass Spectrometry Data Center, 1994
##OWNER=NIST Mass Spectrometry Data Center
Collection (C) 2014 copyright by the U.S. Secretary of Commerce
on behalf of the United States of America. All rights reserved.
##CAS REGISTRY NO=456-56-4
##$NIST MASS SPEC NO=136524
##MOLFORM=C7 H5 F3 S
##MW=178
##$NIST SOURCE=MSDC
##XUNITS=M/Z
##YUNITS=RELATIVE INTENSITY
##XFACTOR=1
##YFACTOR=1
##FIRSTX=17
##LASTX=181
##FIRSTY=16
##MAXX=181
##MINX=17
##MAXY=9999
##MINY=16
##NPOINTS=68
##PEAK TABLE=(XY..XY)
17,16 25,29 26,148 27,194
32,84 36,32 37,377 38,630
39,2418 40,98 44,48 45,664
46,27 47,35 49,225 50,1542
51,1771 52,117 53,46 54,48
55,26 56,26 57,419 58,313
59,45 60,36 61,213 62,323
63,637 64,26 65,2923 66,199
69,3284 70,149 71,120 72,20
73,147 74,357 75,249 76,138
77,877 78,59 80,50 81,320
82,602 83,249 84,50 93,69
94,23 95,77 96,58 105,37
106,30 109,9999 110,794 111,524
112,43 114,45 127,49 139,36
157,31 159,598 160,58 161,33
178,6124 179,546 180,272 181,21
##END=
