##TITLE=Benzaldehyde, 3-fluoro-
##JCAMP-DX=4.24
##DATA TYPE=MASS SPECTRUM
##ORIGIN=NIST Mass Spectrometry Data Center
##OWNER=NIST Mass Spectrometry Data Center
Collection (C) 2014 copyright by the U.S. Secretary of Commerce
on behalf of the United States of America. All rights reserved.
##CAS REGISTRY NO=456-48-4
##$NIST MASS SPEC NO=342256
##MOLFORM=C7 H5 F O
##MW=124
##$NIST SOURCE=MSDC
##XUNITS=M/Z
##YUNITS=RELATIVE INTENSITY
##XFACTOR=1
##YFACTOR=1
##FIRSTX=12
##LASTX=126
##FIRSTY=30
##MAXX=126
##MINX=12
##MAXY=9999
##MINY=10
##NPOINTS=68
##PEAK TABLE=(XY..XY)
12,30 13,10 14,10 15,20
16,40 18,20 19,30 25,80
26,200 27,150 29,1411 31,510
32,50 33,40 36,130 37,751
38,601 39,681 40,40 43,30
44,90 45,180 46,70 48,90
49,581 50,2813 51,1211 52,180
53,90 55,50 56,170 57,571
58,30 60,100 61,530 62,490
63,520 64,30 68,971 69,1311
70,1922 71,90 72,40 73,410
74,1762 75,4304 76,681 77,200
79,20 80,40 81,180 84,40
85,90 86,50 87,20 92,230
93,250 94,871 95,9388 96,2582
97,170 104,20 105,30 107,70
123,9649 124,9999 125,811 126,40
##END=
