##TITLE=4(1H)-Pyrimidinone
##JCAMP-DX=4.24
##DATA TYPE=MASS SPECTRUM
##ORIGIN=Japan AIST/NIMC Database- Spectrum MS-IW-2297
##OWNER=NIST Mass Spectrometry Data Center
Collection (C) 2014 copyright by the U.S. Secretary of Commerce
on behalf of the United States of America. All rights reserved.
##CAS REGISTRY NO=4562-27-0
##$NIST MASS SPEC NO=227955
##MOLFORM=C4 H4 N2 O
##MW=96
##$NIST SOURCE=MSDC
##XUNITS=M/Z
##YUNITS=RELATIVE INTENSITY
##XFACTOR=1
##YFACTOR=1
##FIRSTX=12
##LASTX=98
##FIRSTY=40
##MAXX=98
##MINX=12
##MAXY=9999
##MINY=10
##NPOINTS=38
##PEAK TABLE=(XY..XY)
12,40 13,109 14,179 15,20
24,30 25,139 26,919 27,249
28,5329 29,209 34,10 37,30
38,259 39,379 40,1369 41,1429
42,3009 43,189 44,50 45,20
50,40 51,249 52,509 53,419
54,70 55,20 65,10 66,10
67,249 68,3819 69,1929 70,80
77,10 79,109 95,209 96,9999
97,739 98,40
##END=
