##TITLE=Benzenemethanesulfonamide
##JCAMP-DX=4.24
##DATA TYPE=MASS SPECTRUM
##ORIGIN=RADIAN CORP
##OWNER=NIST Mass Spectrometry Data Center
Collection (C) 2014 copyright by the U.S. Secretary of Commerce
on behalf of the United States of America. All rights reserved.
##CAS REGISTRY NO=4563-33-1
##$NIST MASS SPEC NO=73493
##MOLFORM=C7 H9 N O2 S
##MW=171
##$NIST SOURCE=MSDC
##XUNITS=M/Z
##YUNITS=RELATIVE INTENSITY
##XFACTOR=1
##YFACTOR=1
##FIRSTX=38
##LASTX=171
##FIRSTY=80
##MAXX=171
##MINX=38
##MAXY=9999
##MINY=50
##NPOINTS=22
##PEAK TABLE=(XY..XY)
38,80 39,620 41,110 46,50
48,90 50,160 51,300 52,90
62,190 63,640 64,320 65,2160
66,110 77,70 80,250 89,510
90,160 91,9999 92,770 106,80
107,430 171,110
##END=
