##TITLE=Bis(4-fluorophenyl)methane
##JCAMP-DX=4.24
##DATA TYPE=MASS SPECTRUM
##ORIGIN=NIST Mass Spectrometry Data Center
##OWNER=NIST Mass Spectrometry Data Center
Collection (C) 2014 copyright by the U.S. Secretary of Commerce
on behalf of the United States of America. All rights reserved.
##CAS REGISTRY NO=457-68-1
##$NIST MASS SPEC NO=340612
##MOLFORM=C13 H10 F2
##MW=204
##$NIST SOURCE=MSDC
##XUNITS=M/Z
##YUNITS=RELATIVE INTENSITY
##XFACTOR=1
##YFACTOR=1
##FIRSTX=26
##LASTX=206
##FIRSTY=20
##MAXX=206
##MINX=26
##MAXY=9999
##MINY=10
##NPOINTS=149
##PEAK TABLE=(XY..XY)
26,20 27,80 31,140 33,110
37,30 38,100 39,510 44,20
45,50 46,10 49,30 50,550
51,500 52,40 55,20 56,100
57,1391 58,60 59,240 60,10
61,110 62,400 63,831 64,80
65,40 66,20 68,210 69,340
70,220 71,20 72,10 73,40
74,460 75,1021 76,140 77,40
78,160 80,90 81,951 82,611
83,2532 84,170 85,120 86,190
87,250 88,130 89,440 91,851
92,781 93,110 94,310 95,370
96,190 97,20 98,130 99,150
101,581 102,470 104,30 105,180
106,120 107,2332 108,2192 109,7126
110,571 111,80 112,10 113,40
114,10 115,20 116,10 117,20
118,40 119,20 120,260 121,40
122,40 123,50 124,20 125,170
126,70 127,160 128,20 129,40
130,10 131,230 132,90 133,641
134,70 135,10 137,30 138,40
139,30 143,30 144,200 145,70
146,190 147,20 149,50 150,70
151,460 152,110 153,30 154,10
155,100 156,70 157,480 158,60
159,70 160,10 161,30 162,50
163,230 164,250 165,380 166,40
167,10 168,80 169,120 170,691
171,420 172,40 173,10 174,20
175,200 176,30 177,240 178,30
179,40 180,90 181,641 182,360
183,6556 184,2162 185,611 186,80
187,40 188,430 189,540 190,60
198,10 199,190 200,190 201,2963
202,751 203,7867 204,9999 205,1301
206,80
##END=
