##TITLE=Cyclopentanone, 2,2,5-trimethyl-
##JCAMP-DX=4.24
##DATA TYPE=MASS SPECTRUM
##ORIGIN=NIST Mass Spectrometry Data Center, 1990.
##OWNER=NIST Mass Spectrometry Data Center
Collection (C) 2014 copyright by the U.S. Secretary of Commerce
on behalf of the United States of America. All rights reserved.
##CAS REGISTRY NO=4573-09-5
##$NIST MASS SPEC NO=114769
##MOLFORM=C8 H14 O
##MW=126
##$NIST SOURCE=MSDC
##XUNITS=M/Z
##YUNITS=RELATIVE INTENSITY
##XFACTOR=1
##YFACTOR=1
##FIRSTX=15
##LASTX=127
##FIRSTY=73
##MAXX=127
##MINX=15
##MAXY=9999
##MINY=38
##NPOINTS=42
##PEAK TABLE=(XY..XY)
15,73 26,94 27,615 28,202
29,348 38,154 39,1436 40,484
41,2783 42,530 43,303 50,92
51,180 52,88 53,393 54,198
55,1722 56,9999 57,1098 58,179
63,46 65,92 67,201 68,187
69,1424 70,779 71,299 72,79
77,90 79,89 81,70 82,209
83,362 84,173 93,413 95,38
97,140 98,69 108,100 111,610
126,1779 127,157
##END=
