##TITLE=1-Azabicyclo[2.2.2]octane, 4-ethyl-
##JCAMP-DX=4.24
##DATA TYPE=MASS SPECTRUM
##ORIGIN=ORMSBG,10(12)1111(1975); H. ACHENBACH
##OWNER=NIST Mass Spectrometry Data Center
Collection (C) 2014 copyright by the U.S. Secretary of Commerce
on behalf of the United States of America. All rights reserved.
##CAS REGISTRY NO=45732-65-8
##$NIST MASS SPEC NO=54759
##MOLFORM=C9 H17 N
##MW=139
##$NIST SOURCE=MSDC
##XUNITS=M/Z
##YUNITS=RELATIVE INTENSITY
##XFACTOR=1
##YFACTOR=1
##FIRSTX=39
##LASTX=140
##FIRSTY=1560
##MAXX=140
##MINX=39
##MAXY=9999
##MINY=200
##NPOINTS=29
##PEAK TABLE=(XY..XY)
39,1560 41,3820 42,9999 43,2220
44,690 45,800 51,280 53,1100
54,730 55,2050 56,1100 57,1320
58,350 67,1040 68,730 69,2460
70,870 79,350 81,490 82,1250
83,400 96,2250 97,400 110,9999
111,2430 124,1420 138,380 139,2080
140,200
##END=
