##TITLE=(+)-p-Bromo-.alpha.-phenethylamine
##JCAMP-DX=4.24
##DATA TYPE=MASS SPECTRUM
##ORIGIN=NIST Mass Spectrometry Data Center, 1994
##OWNER=NIST Mass Spectrometry Data Center
Collection (C) 2014 copyright by the U.S. Secretary of Commerce
on behalf of the United States of America. All rights reserved.
##CAS REGISTRY NO=45791-36-4
##$NIST MASS SPEC NO=136533
##MOLFORM=C8 H10 Br N
##MW=199
##$NIST SOURCE=MSDC
##XUNITS=M/Z
##YUNITS=RELATIVE INTENSITY
##XFACTOR=1
##YFACTOR=1
##FIRSTX=14
##LASTX=201
##FIRSTY=18
##MAXX=201
##MINX=14
##MAXY=9999
##MINY=18
##NPOINTS=78
##PEAK TABLE=(XY..XY)
14,18 15,939 16,59 26,204
27,689 28,5454 29,24 30,121
37,221 38,571 39,859 40,215
41,450 42,4077 43,3118 44,3991
47,128 49,230 50,2450 51,2385
52,1622 53,223 59,492 60,283
61,143 62,357 63,648 64,141
65,303 66,89 68,51 73,227
74,955 75,1436 76,1317 77,4532
78,2417 79,300 80,120 81,88
82,48 85,51 86,100 87,115
88,63 89,244 90,153 91,360
92,610 93,493 99,75 101,109
102,605 103,740 104,1770 105,750
106,78 116,54 117,163 118,397
119,199 120,455 121,39 155,187
156,71 157,1116 158,129 159,961
160,59 182,347 184,9999 185,1116
186,9318 187,754 198,331 199,345
200,340 201,329
##END=
