##TITLE=Acetamide, 2,2,2-trifluoro-N-(2-phenylethyl)-
##JCAMP-DX=4.24
##DATA TYPE=MASS SPECTRUM
##ORIGIN=A.C.MOFFAT BAYLOR UNIVERSITY, HOUSTON, TEXAS, USA
##OWNER=NIST Mass Spectrometry Data Center
Collection (C) 2014 copyright by the U.S. Secretary of Commerce
on behalf of the United States of America. All rights reserved.
##CAS REGISTRY NO=458-85-5
##$NIST MASS SPEC NO=10173
##MOLFORM=C10 H10 F3 N O
##MW=217
##$NIST SOURCE=MSDC
##XUNITS=M/Z
##YUNITS=RELATIVE INTENSITY
##XFACTOR=1
##YFACTOR=1
##FIRSTX=29
##LASTX=219
##FIRSTY=50
##MAXX=219
##MINX=29
##MAXY=9999
##MINY=4
##NPOINTS=49
##PEAK TABLE=(XY..XY)
29,50 38,60 39,380 40,110
41,250 44,130 45,100 50,160
51,390 52,110 53,40 62,60
63,210 64,80 65,881 66,70
69,711 70,20 74,180 75,40
76,40 77,390 78,450 79,160
80,15 89,170 90,82 91,8809
92,551 93,26 97,100 102,90
103,340 104,9999 105,1251 106,90
116,12 117,32 118,57 119,57
120,12 126,761 127,30 148,125
149,15 150,36 217,310 218,41
219,4
##END=
