##TITLE=Piperidine, 2-propyl-, (S)-
##JCAMP-DX=4.24
##DATA TYPE=MASS SPECTRUM
##ORIGIN=R.E.Ardrey ET AL.Pharmaceutical Mass Spectra,L.,1985
##OWNER=NIST Mass Spectrometry Data Center
Collection (C) 2014 copyright by the U.S. Secretary of Commerce
on behalf of the United States of America. All rights reserved.
##CAS REGISTRY NO=458-88-8
##$NIST MASS SPEC NO=298643
##MOLFORM=C8 H17 N
##MW=127
##$NIST SOURCE=MSDC
##XUNITS=M/Z
##YUNITS=RELATIVE INTENSITY
##XFACTOR=1
##YFACTOR=1
##FIRSTX=27
##LASTX=127
##FIRSTY=500
##MAXX=127
##MINX=27
##MAXY=9999
##MINY=100
##NPOINTS=32
##PEAK TABLE=(XY..XY)
27,500 28,1001 29,400 30,901
39,400 41,801 42,400 43,1001
44,200 53,200 54,400 55,701
56,1301 57,200 67,200 68,200
69,100 70,500 71,100 79,500
80,1601 81,500 82,1902 83,200
84,9999 85,500 96,100 97,200
98,200 110,100 126,200 127,100
##END=
