##TITLE=Phenol, 4-(3-hydroxy-1-propenyl)-2-methoxy-
##JCAMP-DX=4.24
##DATA TYPE=MASS SPECTRUM
##OWNER=NIST Mass Spectrometry Data Center
Collection (C) 2014 copyright by the U.S. Secretary of Commerce
on behalf of the United States of America. All rights reserved.
##CAS REGISTRY NO=458-35-5
##$NIST MASS SPEC NO=32001
##MOLFORM=C10 H12 O3
##MW=180
##$NIST SOURCE=MSDC
##XUNITS=M/Z
##YUNITS=RELATIVE INTENSITY
##XFACTOR=1
##YFACTOR=1
##FIRSTX=29
##LASTX=182
##FIRSTY=4960
##MAXX=182
##MINX=29
##MAXY=9999
##MINY=80
##NPOINTS=96
##PEAK TABLE=(XY..XY)
29,4960 30,160 31,4000 32,500
38,920 39,4200 40,220 41,1400
42,600 43,1640 44,760 45,760
46,140 49,800 50,1620 51,3720
52,2200 53,2600 54,160 55,2340
56,300 57,460 59,180 60,140
61,440 62,800 63,1540 64,600
65,2860 66,780 67,580 74,440
75,360 76,280 77,3060 78,1140
79,1880 80,440 81,2540 82,140
83,100 89,920 90,140 91,4140
92,760 93,580 94,1000 95,420
102,160 103,1600 104,180 105,960
106,380 107,1240 108,660 109,2400
110,180 116,140 117,140 118,380
119,1520 120,560 121,320 122,980
123,1040 124,5039 125,440 131,520
132,120 133,140 134,240 135,240
136,520 137,9999 138,1520 139,80
145,100 146,140 147,880 148,160
149,560 150,1000 151,3600 152,3480
153,180 161,200 162,120 163,540
164,140 165,260 177,140 178,120
179,160 180,5259 181,720 182,120
##END=
