##TITLE=Fenfluramine
##JCAMP-DX=4.24
##DATA TYPE=MASS SPECTRUM
##ORIGIN=Virginia Division of Forensic Science
##OWNER=NIST Mass Spectrometry Data Center
Collection (C) 2014 copyright by the U.S. Secretary of Commerce
on behalf of the United States of America. All rights reserved.
##CAS REGISTRY NO=458-24-2
##$NIST MASS SPEC NO=250583
##MOLFORM=C12 H16 F3 N
##MW=231
##$NIST SOURCE=MSDC
##XUNITS=M/Z
##YUNITS=RELATIVE INTENSITY
##XFACTOR=1
##YFACTOR=1
##FIRSTX=15
##LASTX=232
##FIRSTY=60
##MAXX=232
##MINX=15
##MAXY=9999
##MINY=10
##NPOINTS=169
##PEAK TABLE=(XY..XY)
15,60 17,10 18,140 26,20
27,280 28,48 29,310 30,130
31,10 33,10 37,10 38,20
39,200 40,40 41,180 42,520
44,2462 45,70 46,10 47,10
49,10 50,70 51,120 52,30
53,10 54,20 56,360 57,130
58,20 59,10 62,50 63,190
64,50 65,70 66,10 67,10
68,20 69,90 70,180 72,9999
73,500 74,40 75,130 76,40
77,80 78,20 79,10 80,10
81,20 82,10 83,110 84,10
85,10 86,10 87,30 88,50
89,240 90,110 91,200 92,20
93,10 94,10 95,70 96,30
97,10 99,70 100,10 101,70
102,40 103,40 104,10 105,10
106,10 107,60 109,810 110,70
111,10 112,10 113,70 114,90
115,230 116,90 117,150 119,310
120,60 121,30 122,10 123,10
125,50 126,20 127,120 128,20
129,10 130,30 131,20 132,30
133,110 134,20 135,10 136,10
137,10 138,60 139,110 140,140
141,140 142,10 143,10 144,10
145,110 146,60 147,20 148,60
149,20 151,150 152,20 153,30
154,10 155,10 156,10 157,10
159,1631 160,170 161,10 162,20
163,10 164,60 165,80 166,50
167,30 168,70 169,150 170,20
171,20 172,40 173,10 174,10
176,10 177,10 178,10 179,10
180,10 181,10 182,20 183,10
184,10 185,10 186,30 187,70
188,10 189,10 192,40 193,10
196,10 197,10 198,20 200,30
201,10 202,10 210,10 212,160
213,20 214,20 216,250 217,30
218,10 228,10 230,80 231,10
232,10
##END=
