##TITLE=Coniferyl aldehyde
##JCAMP-DX=4.24
##DATA TYPE=MASS SPECTRUM
##ORIGIN=NIST Mass Spectrometry Data Center
##OWNER=NIST Mass Spectrometry Data Center
Collection (C) 2014 copyright by the U.S. Secretary of Commerce
on behalf of the United States of America. All rights reserved.
##CAS REGISTRY NO=458-36-6
##$NIST MASS SPEC NO=352423
##MOLFORM=C10 H10 O3
##MW=178
##$NIST SOURCE=MSDC
##XUNITS=M/Z
##YUNITS=RELATIVE INTENSITY
##XFACTOR=1
##YFACTOR=1
##FIRSTX=14
##LASTX=181
##FIRSTY=10
##MAXX=181
##MINX=14
##MAXY=9999
##MINY=10
##NPOINTS=129
##PEAK TABLE=(XY..XY)
14,10 15,130 25,10 26,120
27,410 28,70 29,651 30,20
31,90 35,10 36,60 37,120
38,430 39,1561 40,130 41,180
42,80 43,190 44,30 45,50
46,20 49,150 50,1451 51,3453
52,1952 53,2072 54,240 55,1201
56,50 57,20 58,10 59,70
60,30 61,320 62,941 63,2132
64,480 65,1301 66,290 67,260
68,40 69,140 70,10 71,10
73,70 74,420 75,611 76,350
77,5485 78,2332 79,2102 80,300
81,601 82,40 83,10 84,10
85,70 86,150 87,170 89,2843
90,671 91,1591 92,370 93,140
94,140 95,80 96,20 97,10
98,70 99,20 100,10 101,110
102,160 103,510 104,110 105,1311
106,701 107,5725 108,681 109,2452
110,170 111,20 115,10 116,20
117,1501 118,2662 119,1121 120,180
121,230 122,160 123,40 124,2452
125,180 126,20 127,30 128,40
129,20 130,30 131,260 132,100
133,581 134,1061 135,6236 136,661
137,761 138,70 139,10 142,10
145,1431 146,1421 147,5045 148,581
149,390 150,841 151,290 152,30
159,10 161,2392 162,651 163,1491
164,140 165,20 173,10 175,20
177,2532 178,9999 179,1101 180,120
181,10
##END=
