##TITLE=4,8-Methanoazulen-9-ol, decahydro-2,2,4,8-tetramethyl-, stereoisomer
##JCAMP-DX=4.24
##DATA TYPE=MASS SPECTRUM
##OWNER=NIST Mass Spectrometry Data Center
Collection (C) 2014 copyright by the U.S. Secretary of Commerce
on behalf of the United States of America. All rights reserved.
##CAS REGISTRY NO=4586-22-5
##$NIST MASS SPEC NO=10451
##MOLFORM=C15 H26 O
##MW=222
##$NIST SOURCE=MSDC
##XUNITS=M/Z
##YUNITS=RELATIVE INTENSITY
##XFACTOR=1
##YFACTOR=1
##FIRSTX=25
##LASTX=224
##FIRSTY=50
##MAXX=224
##MINX=25
##MAXY=9999
##MINY=10
##NPOINTS=173
##PEAK TABLE=(XY..XY)
25,50 26,410 27,3243 28,651
29,4434 30,130 31,350 32,30
35,30 36,40 37,130 38,350
39,3133 40,661 41,1121 42,3443
43,7747 44,280 45,621 46,40
47,140 48,70 49,841 50,440
51,881 52,550 53,2352 54,440
55,6926 56,2402 57,4074 58,260
59,110 60,20 61,30 62,50
63,160 64,110 65,931 66,370
67,3323 68,721 69,4584 70,621
71,1661 72,360 73,50 74,80
75,70 76,90 77,2272 78,1161
79,3043 80,2042 81,2212 82,1792
83,2883 84,631 85,701 86,350
87,40 88,40 89,60 90,30
91,2482 92,591 93,3103 94,1912
95,7186 96,1762 97,2562 98,1712
99,280 100,20 101,10 102,30
103,170 104,100 105,1441 106,921
107,4204 108,3733 109,9999 110,1131
111,2132 112,220 113,140 114,10
115,170 116,80 117,210 118,60
119,1191 120,450 121,2652 122,3133
123,5735 124,1111 125,991 126,1101
127,130 128,10 129,90 130,40
131,140 132,60 133,991 134,340
135,9348 136,2062 137,1521 138,791
139,561 140,70 141,60 142,30
143,30 144,20 145,130 146,50
147,691 148,3253 149,1371 150,520
151,781 152,260 153,100 154,90
155,20 156,10 157,10 158,10
159,60 160,40 161,791 162,591
163,1381 164,410 165,270 166,70
167,20 168,10 173,30 174,20
175,901 176,420 177,621 178,110
179,801 180,460 181,70 182,10
187,30 188,30 189,8628 190,1411
191,2622 192,611 193,160 194,40
202,20 203,30 204,2642 205,540
206,50 207,1231 208,210 209,20
220,490 221,130 222,3293 223,550
224,50
##END=
