##TITLE=1-Octene, 2-methyl-
##JCAMP-DX=4.24
##DATA TYPE=MASS SPECTRUM
##ORIGIN=Japan AIST/NIMC Database- Spectrum MS-NW-3492
##OWNER=NIST Mass Spectrometry Data Center
Collection (C) 2014 copyright by the U.S. Secretary of Commerce
on behalf of the United States of America. All rights reserved.
##CAS REGISTRY NO=4588-18-5
##$NIST MASS SPEC NO=227609
##MOLFORM=C9 H18
##MW=126
##$NIST SOURCE=MSDC
##XUNITS=M/Z
##YUNITS=RELATIVE INTENSITY
##XFACTOR=1
##YFACTOR=1
##FIRSTX=15
##LASTX=128
##FIRSTY=50
##MAXX=128
##MINX=15
##MAXY=9999
##MINY=10
##NPOINTS=64
##PEAK TABLE=(XY..XY)
15,50 26,60 27,1009 28,159
29,1309 30,30 31,10 37,20
38,60 39,1139 40,279 41,3099
42,1109 43,2049 44,90 45,10
50,50 51,109 52,60 53,459
54,199 55,2739 56,9999 57,2139
58,189 59,40 62,10 63,30
65,60 66,30 67,329 68,309
69,2479 70,989 71,209 72,50
73,10 75,10 77,40 78,10
79,50 80,10 81,80 82,80
83,339 84,309 85,109 86,30
91,20 95,40 96,10 97,70
98,239 99,40 100,10 109,10
110,10 111,279 112,30 113,10
124,20 126,829 127,80 128,10
##END=
