##TITLE=Acetic acid, fluoro-, ethyl ester
##JCAMP-DX=4.24
##DATA TYPE=MASS SPECTRUM
##ORIGIN=Japan AIST/NIMC Database- Spectrum MS-NW-2638
##OWNER=NIST Mass Spectrometry Data Center
Collection (C) 2014 copyright by the U.S. Secretary of Commerce
on behalf of the United States of America. All rights reserved.
##CAS REGISTRY NO=459-72-3
##$NIST MASS SPEC NO=230487
##MOLFORM=C4 H7 F O2
##MW=106
##$NIST SOURCE=MSDC
##XUNITS=M/Z
##YUNITS=RELATIVE INTENSITY
##XFACTOR=1
##YFACTOR=1
##FIRSTX=12
##LASTX=106
##FIRSTY=10
##MAXX=106
##MINX=12
##MAXY=9999
##MINY=10
##NPOINTS=42
##PEAK TABLE=(XY..XY)
12,10 13,40 14,169 15,259
16,10 17,10 18,30 19,20
25,10 26,299 27,2309 28,1889
29,9999 30,219 31,209 32,169
33,2389 34,40 35,10 36,10
41,30 42,279 43,499 44,50
45,619 46,30 47,50 49,20
59,80 60,149 61,5279 62,119
63,139 73,199 77,129 78,629
79,469 80,10 91,569 92,20
105,80 106,80
##END=
