##TITLE=4-Fluorocinnamic acid
##JCAMP-DX=4.24
##DATA TYPE=MASS SPECTRUM
##ORIGIN=NIST Mass Spectrometry Data Center, 1994
##OWNER=NIST Mass Spectrometry Data Center
Collection (C) 2014 copyright by the U.S. Secretary of Commerce
on behalf of the United States of America. All rights reserved.
##CAS REGISTRY NO=459-32-5
##$NIST MASS SPEC NO=135460
##MOLFORM=C9 H7 F O2
##MW=166
##$NIST SOURCE=MSDC
##XUNITS=M/Z
##YUNITS=RELATIVE INTENSITY
##XFACTOR=1
##YFACTOR=1
##FIRSTX=17
##LASTX=168
##FIRSTY=46
##MAXX=168
##MINX=17
##MAXY=9999
##MINY=9
##NPOINTS=89
##PEAK TABLE=(XY..XY)
17,46 18,68 25,85 26,148
27,69 28,48 36,69 37,292
38,477 39,749 40,68 42,81
43,9 44,217 45,1391 46,89
49,303 50,2037 51,1730 52,208
53,198 54,125 55,226 56,199
57,886 60,767 61,525 62,839
63,1123 64,146 65,103 68,546
69,1145 70,776 71,205 72,103
73,353 74,1583 75,4695 76,531
77,310 79,79 80,89 81,508
82,120 83,711 84,148 85,119
86,205 87,260 88,74 89,176
90,78 91,171 92,301 93,389
94,1126 95,1540 96,899 97,537
98,337 99,595 100,614 101,6805
102,735 103,143 105,120 107,216
109,3401 110,446 112,180 118,151
120,4145 121,5993 122,529 123,431
124,122 125,476 137,426 138,1055
139,97 147,340 148,957 149,4424
150,472 165,6463 166,9999 167,952
168,41
##END=
