##TITLE=Benzene, 1-(bromomethyl)-4-fluoro-
##JCAMP-DX=4.24
##DATA TYPE=MASS SPECTRUM
##ORIGIN=Japan AIST/NIMC Database- Spectrum MS-IW-2386
##OWNER=NIST Mass Spectrometry Data Center
Collection (C) 2014 copyright by the U.S. Secretary of Commerce
on behalf of the United States of America. All rights reserved.
##CAS REGISTRY NO=459-46-1
##$NIST MASS SPEC NO=238926
##MOLFORM=C7 H6 Br F
##MW=188
##$NIST SOURCE=MSDC
##XUNITS=M/Z
##YUNITS=RELATIVE INTENSITY
##XFACTOR=1
##YFACTOR=1
##FIRSTX=26
##LASTX=191
##FIRSTY=10
##MAXX=191
##MINX=26
##MAXY=9999
##MINY=10
##NPOINTS=60
##PEAK TABLE=(XY..XY)
26,10 27,10 31,60 33,10
37,30 38,60 39,159 40,10
43,20 44,99 49,20 50,149
51,129 52,20 54,50 56,50
57,379 58,20 59,129 60,10
61,70 62,159 63,289 64,30
65,10 68,20 69,30 70,50
73,10 74,40 75,50 76,10
79,40 80,50 81,239 82,99
83,1199 84,99 85,70 86,40
87,40 88,20 89,159 90,30
93,10 94,70 95,90 96,10
105,30 106,10 107,549 108,299
109,9999 110,829 111,20 187,70
188,329 189,90 190,319 191,20
##END=
