##TITLE=Benzeneacetonitrile, 4-fluoro-
##JCAMP-DX=4.24
##DATA TYPE=MASS SPECTRUM
##ORIGIN=Japan AIST/NIMC Database- Spectrum MS-NW-5675
##OWNER=NIST Mass Spectrometry Data Center
Collection (C) 2014 copyright by the U.S. Secretary of Commerce
on behalf of the United States of America. All rights reserved.
##CAS REGISTRY NO=459-22-3
##$NIST MASS SPEC NO=235592
##MOLFORM=C8 H6 F N
##MW=135
##$NIST SOURCE=MSDC
##XUNITS=M/Z
##YUNITS=RELATIVE INTENSITY
##XFACTOR=1
##YFACTOR=1
##FIRSTX=14
##LASTX=137
##FIRSTY=20
##MAXX=137
##MINX=14
##MAXY=9999
##MINY=10
##NPOINTS=96
##PEAK TABLE=(XY..XY)
14,20 20,10 25,10 26,60
27,80 28,30 29,10 31,249
32,40 33,60 36,10 37,169
38,179 39,349 40,40 41,50
42,20 43,50 44,80 45,40
46,10 48,10 49,90 50,509
51,339 52,80 53,20 54,80
55,30 56,149 57,849 58,70
59,70 60,30 61,229 62,339
63,439 64,149 65,40 66,40
67,239 68,149 69,219 70,119
71,20 72,10 73,50 74,219
75,569 76,159 77,30 78,20
79,20 80,80 81,449 82,219
83,519 84,80 85,90 86,80
87,149 88,219 89,219 90,40
91,10 92,30 93,50 94,109
95,319 96,99 97,20 98,30
99,20 100,20 102,30 103,10
104,20 105,99 106,139 107,2509
108,4279 109,1109 110,90 111,20
112,20 113,20 114,109 115,1149
116,199 117,20 132,119 133,90
134,4879 135,9999 136,889 137,40
##END=
