##TITLE=3-(4-Fluorophenyl)propionic acid
##JCAMP-DX=4.24
##DATA TYPE=MASS SPECTRUM
##ORIGIN=NIST Mass Spectrometry Data Center, 1994
##OWNER=NIST Mass Spectrometry Data Center
Collection (C) 2014 copyright by the U.S. Secretary of Commerce
on behalf of the United States of America. All rights reserved.
##CAS REGISTRY NO=459-31-4
##$NIST MASS SPEC NO=135022
##MOLFORM=C9 H9 F O2
##MW=168
##$NIST SOURCE=MSDC
##XUNITS=M/Z
##YUNITS=RELATIVE INTENSITY
##XFACTOR=1
##YFACTOR=1
##FIRSTX=4
##LASTX=170
##FIRSTY=16
##MAXX=170
##MINX=4
##MAXY=9999
##MINY=3
##NPOINTS=94
##PEAK TABLE=(XY..XY)
4,16 14,39 15,22 17,11
18,26 26,60 27,412 28,91
29,70 31,114 32,3 33,22
37,32 38,81 39,320 40,21
41,15 42,89 43,32 44,53
45,416 46,20 47,20 50,334
51,440 52,62 53,44 55,64
56,56 57,386 58,21 59,103
60,92 61,91 62,158 63,281
64,42 65,34 68,77 69,150
70,167 71,30 72,8 73,42
74,225 75,662 76,99 77,533
78,67 79,16 80,23 81,168
82,8 83,999 84,73 85,17
86,25 87,38 88,18 89,137
90,24 91,26 92,32 93,40
94,112 95,321 96,944 97,296
98,41 99,35 100,17 101,475
102,129 103,514 104,54 105,28
107,249 109,9999 110,791 111,32
119,16 120,131 121,458 122,2299
123,452 124,32 125,105 126,11
149,73 150,16 151,44 168,2499
169,243 170,22
##END=
