##TITLE=p-Fluoroethylbenzene
##JCAMP-DX=4.24
##DATA TYPE=MASS SPECTRUM
##ORIGIN=NIST Mass Spectrometry Data Center, 1990.
##OWNER=NIST Mass Spectrometry Data Center
Collection (C) 2014 copyright by the U.S. Secretary of Commerce
on behalf of the United States of America. All rights reserved.
##CAS REGISTRY NO=459-47-2
##$NIST MASS SPEC NO=118576
##MOLFORM=C8 H9 F
##MW=124
##$NIST SOURCE=MSDC
##XUNITS=M/Z
##YUNITS=RELATIVE INTENSITY
##XFACTOR=1
##YFACTOR=1
##FIRSTX=14
##LASTX=125
##FIRSTY=55
##MAXX=125
##MINX=14
##MAXY=9999
##MINY=4
##NPOINTS=81
##PEAK TABLE=(XY..XY)
14,55 15,310 16,4 20,40
26,215 27,748 28,169 29,81
31,241 32,82 33,85 37,126
38,271 39,659 40,55 43,28
44,21 45,55 48,29 49,115
50,807 51,841 52,107 53,65
54,36 56,130 57,811 58,44
59,150 60,187 61,245 62,326
63,567 64,73 65,54 68,172
69,218 70,257 71,45 73,83
74,381 75,825 76,152 77,534
78,75 79,62 80,74 81,237
82,45 83,1486 84,114 85,68
86,65 87,108 89,229 90,40
92,32 93,54 94,142 95,292
96,649 97,188 98,46 100,44
101,370 102,141 103,503 104,64
105,40 106,32 107,401 108,32
109,9999 110,756 111,30 120,70
121,148 122,120 123,357 124,2327
125,256
##END=
