##TITLE=1(2H)-Isoquinolinone, 2-methyl-
##JCAMP-DX=4.24
##DATA TYPE=MASS SPECTRUM
##ORIGIN=P.BEAK ROGER ADAMS LAB., ILLINOIS UNIV., URBANA, ILL., USA
##OWNER=NIST Mass Spectrometry Data Center
Collection (C) 2014 copyright by the U.S. Secretary of Commerce
on behalf of the United States of America. All rights reserved.
##CAS REGISTRY NO=4594-71-2
##$NIST MASS SPEC NO=57857
##MOLFORM=C10 H9 N O
##MW=159
##$NIST SOURCE=MSDC
##XUNITS=M/Z
##YUNITS=RELATIVE INTENSITY
##XFACTOR=1
##YFACTOR=1
##FIRSTX=26
##LASTX=161
##FIRSTY=45
##MAXX=161
##MINX=26
##MAXY=9999
##MINY=36
##NPOINTS=62
##PEAK TABLE=(XY..XY)
26,45 27,125 28,196 31,51
32,36 37,51 38,121 39,669
40,69 41,172 42,1105 43,72
45,72 50,609 51,820 52,239
53,74 54,67 55,38 61,75
62,400 63,1035 64,592 65,717
66,92 74,272 75,365 76,338
77,1039 78,276 79,621 80,77
86,70 87,148 88,244 89,1969
90,1198 91,151 98,47 101,191
102,504 103,602 104,302 105,61
114,119 115,276 116,2163 117,250
118,1943 119,184 128,977 129,459
130,1935 131,1263 132,705 133,79
141,82 143,62 144,63 159,9999
160,1268 161,121
##END=
