##TITLE=Pyrimidine, 5-bromo-
##JCAMP-DX=4.24
##DATA TYPE=MASS SPECTRUM
##ORIGIN=Japan AIST/NIMC Database- Spectrum MS-IW- 698
##OWNER=NIST Mass Spectrometry Data Center
Collection (C) 2014 copyright by the U.S. Secretary of Commerce
on behalf of the United States of America. All rights reserved.
##CAS REGISTRY NO=4595-59-9
##$NIST MASS SPEC NO=239493
##MOLFORM=C4 H3 Br N2
##MW=158
##$NIST SOURCE=MSDC
##XUNITS=M/Z
##YUNITS=RELATIVE INTENSITY
##XFACTOR=1
##YFACTOR=1
##FIRSTX=24
##LASTX=162
##FIRSTY=40
##MAXX=162
##MINX=24
##MAXY=9999
##MINY=10
##NPOINTS=45
##PEAK TABLE=(XY..XY)
24,40 25,199 26,119 27,60
28,229 36,20 37,99 38,169
39,60 40,40 41,10 43,20
50,109 51,1039 52,1879 53,129
65,119 66,119 76,20 77,50
78,10 79,109 80,70 81,80
82,40 91,20 93,20 103,30
104,2359 105,99 106,2339 107,60
114,10 129,10 130,159 131,1669
132,219 133,1599 134,50 157,40
158,9999 159,589 160,9769 161,539
162,10
##END=
