##TITLE=2-Pyridinamine, N-methyl-
##JCAMP-DX=4.24
##DATA TYPE=MASS SPECTRUM
##ORIGIN=Japan AIST/NIMC Database- Spectrum MS-IW-2384
##OWNER=NIST Mass Spectrometry Data Center
Collection (C) 2014 copyright by the U.S. Secretary of Commerce
on behalf of the United States of America. All rights reserved.
##CAS REGISTRY NO=4597-87-9
##$NIST MASS SPEC NO=238931
##MOLFORM=C6 H8 N2
##MW=108
##$NIST SOURCE=MSDC
##XUNITS=M/Z
##YUNITS=RELATIVE INTENSITY
##XFACTOR=1
##YFACTOR=1
##FIRSTX=14
##LASTX=110
##FIRSTY=10
##MAXX=110
##MINX=14
##MAXY=9999
##MINY=10
##NPOINTS=57
##PEAK TABLE=(XY..XY)
14,10 15,119 25,10 26,149
27,339 28,729 29,60 30,1169
31,20 36,10 37,169 38,429
39,1029 40,379 41,389 42,179
43,30 44,10 46,10 48,10
49,90 50,499 51,1369 52,2649
53,1059 54,709 55,249 56,30
57,40 59,10 62,20 63,70
64,229 65,349 66,469 67,1199
68,60 73,10 74,10 75,90
76,119 77,50 78,3809 79,8989
80,5629 81,349 82,10 90,10
91,50 92,219 93,99 105,109
106,20 107,5209 108,9999 109,749
110,20
##END=
