##TITLE=Phosphine, bis(trifluoromethyl)-
##JCAMP-DX=4.24
##DATA TYPE=MASS SPECTRUM
##ORIGIN=A.Pleshkova, Nesmeyanov Inst.Org.Elem.Cpds, Moscow
##OWNER=NIST Mass Spectrometry Data Center
Collection (C) 2014 copyright by the U.S. Secretary of Commerce
on behalf of the United States of America. All rights reserved.
##CAS REGISTRY NO=460-96-8
##$NIST MASS SPEC NO=284338
##MOLFORM=C2 H F6 P
##MW=170
##$NIST SOURCE=MSDC
##XUNITS=M/Z
##YUNITS=RELATIVE INTENSITY
##XFACTOR=1
##YFACTOR=1
##FIRSTX=31
##LASTX=171
##FIRSTY=741
##MAXX=171
##MINX=31
##MAXY=9999
##MINY=10
##NPOINTS=19
##PEAK TABLE=(XY..XY)
31,741 32,170 50,360 51,1371
52,20 62,170 63,340 69,9999
70,120 81,320 82,1822 83,20
100,320 101,781 102,10 151,841
152,20 170,1922 171,40
##END=
