##TITLE=2,2,2-Trifluoroethyl methyl ether
##JCAMP-DX=4.24
##DATA TYPE=MASS SPECTRUM
##ORIGIN=Thomas J.Bruno
##OWNER=NIST Mass Spectrometry Data Center
Collection (C) 2014 copyright by the U.S. Secretary of Commerce
on behalf of the United States of America. All rights reserved.
##CAS REGISTRY NO=460-43-5
##$NIST MASS SPEC NO=215694
##MOLFORM=C3 H5 F3 O
##MW=114
##$NIST SOURCE=MSDC
##XUNITS=M/Z
##YUNITS=RELATIVE INTENSITY
##XFACTOR=1
##YFACTOR=1
##FIRSTX=31
##LASTX=114
##FIRSTY=2912
##MAXX=114
##MINX=31
##MAXY=9999
##MINY=150
##NPOINTS=18
##PEAK TABLE=(XY..XY)
31,2912 33,4323 35,240 43,370
45,9999 46,550 47,150 50,500
51,1361 61,2372 63,1301 64,1711
65,540 69,2272 83,2452 95,480
113,440 114,1741
##END=
