##TITLE=Propane, 3-chloro-1,1,1-trifluoro-
##JCAMP-DX=4.24
##DATA TYPE=MASS SPECTRUM
##ORIGIN=CARL DJERASSI DEPT OF CHEM STANFORD UNIV STANFORD CALIF 94305
##OWNER=NIST Mass Spectrometry Data Center
Collection (C) 2014 copyright by the U.S. Secretary of Commerce
on behalf of the United States of America. All rights reserved.
##CAS REGISTRY NO=460-35-5
##$NIST MASS SPEC NO=46513
##MOLFORM=C3 H4 Cl F3
##MW=132
##$NIST SOURCE=MSDC
##XUNITS=M/Z
##YUNITS=RELATIVE INTENSITY
##XFACTOR=1
##YFACTOR=1
##FIRSTX=44
##LASTX=134
##FIRSTY=300
##MAXX=134
##MINX=44
##MAXY=9999
##MINY=100
##NPOINTS=33
##PEAK TABLE=(XY..XY)
44,300 45,400 46,800 47,1100
48,300 49,3400 50,400 51,2000
55,100 56,100 57,100 61,300
62,200 63,1400 64,1300 65,500
67,800 69,3200 75,500 77,9999
78,200 85,300 87,100 95,1800
96,400 97,1000 112,6400 113,600
114,1900 115,200 132,2000 133,100
134,700
##END=
