##TITLE=n-Propyl fluoride
##JCAMP-DX=4.24
##DATA TYPE=MASS SPECTRUM
##OWNER=NIST Mass Spectrometry Data Center
Collection (C) 2014 copyright by the U.S. Secretary of Commerce
on behalf of the United States of America. All rights reserved.
##CAS REGISTRY NO=460-13-9
##$NIST MASS SPEC NO=175
##MOLFORM=C3 H7 F
##MW=62
##$NIST SOURCE=MSDC
##XUNITS=M/Z
##YUNITS=RELATIVE INTENSITY
##XFACTOR=1
##YFACTOR=1
##FIRSTX=12
##LASTX=63
##FIRSTY=10
##MAXX=63
##MINX=12
##MAXY=9999
##MINY=10
##NPOINTS=38
##PEAK TABLE=(XY..XY)
12,10 13,10 14,50 15,140
19,40 20,40 25,40 26,410
27,3383 28,4554 29,9999 30,230
31,200 32,150 33,891 34,10
36,30 37,170 38,230 39,801
40,160 41,1251 42,2722 43,180
44,460 45,280 46,220 47,661
48,10 55,10 56,50 57,290
58,40 59,801 60,100 61,290
62,280 63,10
##END=
