##TITLE=Ethene, 1-chloro-2-fluoro-
##JCAMP-DX=4.24
##DATA TYPE=MASS SPECTRUM
##OWNER=NIST Mass Spectrometry Data Center
Collection (C) 2014 copyright by the U.S. Secretary of Commerce
on behalf of the United States of America. All rights reserved.
##CAS REGISTRY NO=460-16-2
##$NIST MASS SPEC NO=19258
##MOLFORM=C2 H2 Cl F
##MW=80
##$NIST SOURCE=MSDC
##XUNITS=M/Z
##YUNITS=RELATIVE INTENSITY
##XFACTOR=1
##YFACTOR=1
##FIRSTX=24
##LASTX=83
##FIRSTY=70
##MAXX=83
##MINX=24
##MAXY=9999
##MINY=20
##NPOINTS=34
##PEAK TABLE=(XY..XY)
24,70 25,240 26,681 27,30
31,400 32,40 33,40 35,240
36,80 37,90 38,30 40,120
41,30 43,80 44,2592 45,7577
46,180 47,290 48,230 49,280
50,100 51,90 59,90 60,450
61,991 62,170 63,320 64,20
78,140 79,400 80,9999 81,360
82,3053 83,90
##END=
