##TITLE=2,6-Dimethyl-1,3,5,7-octatetraene, E,E-
##JCAMP-DX=4.24
##DATA TYPE=MASS SPECTRUM
##ORIGIN=Mark Whitten, Florida Museum of Natural History, U. of Florida
##OWNER=NIST Mass Spectrometry Data Center
Collection (C) 2014 copyright by the U.S. Secretary of Commerce
on behalf of the United States of America. All rights reserved.
##CAS REGISTRY NO=460-01-5
##$NIST MASS SPEC NO=141120
##MOLFORM=C10 H14
##MW=134
##$NIST SOURCE=MSDC
##XUNITS=M/Z
##YUNITS=RELATIVE INTENSITY
##XFACTOR=1
##YFACTOR=1
##FIRSTX=41
##LASTX=135
##FIRSTY=4204
##MAXX=135
##MINX=41
##MAXY=9999
##MINY=42
##NPOINTS=53
##PEAK TABLE=(XY..XY)
41,4204 42,206 43,110 44,52
50,750 51,2074 52,820 53,1724
54,177 55,1830 56,166 58,206
61,102 62,287 63,865 64,243
65,1902 66,386 67,473 68,63
69,73 74,187 75,189 77,3812
78,1367 79,2763 80,635 81,117
86,42 87,76 89,298 91,9999
92,2218 93,1450 94,204 102,183
103,1040 104,735 105,2091 106,865
107,447 108,57 115,902 116,279
117,1651 119,8117 120,820 128,49
129,49 131,73 133,359 134,4461
135,504
##END=
