##TITLE=Ethyl cyclopropanecarboxylate
##JCAMP-DX=4.24
##DATA TYPE=MASS SPECTRUM
##ORIGIN=NIST Mass Spectrometry Data Center, 1994
##OWNER=NIST Mass Spectrometry Data Center
Collection (C) 2014 copyright by the U.S. Secretary of Commerce
on behalf of the United States of America. All rights reserved.
##CAS REGISTRY NO=4606-07-9
##$NIST MASS SPEC NO=133435
##MOLFORM=C6 H10 O2
##MW=114
##$NIST SOURCE=MSDC
##XUNITS=M/Z
##YUNITS=RELATIVE INTENSITY
##XFACTOR=1
##YFACTOR=1
##FIRSTX=13
##LASTX=115
##FIRSTY=27
##MAXX=115
##MINX=13
##MAXY=9999
##MINY=13
##NPOINTS=43
##PEAK TABLE=(XY..XY)
13,27 14,98 15,321 16,22
25,34 26,402 27,1362 28,371
29,2412 30,134 31,114 32,17
37,155 38,423 39,3103 40,641
41,4013 42,1038 43,418 44,102
45,591 53,60 55,491 56,46
57,170 58,773 59,102 60,48
69,9999 70,507 71,458 72,49
73,319 85,825 86,2963 87,1473
88,69 96,59 99,214 100,13
113,61 114,284 115,31
##END=
