##TITLE=Dicyandiamide
##JCAMP-DX=4.24
##DATA TYPE=MASS SPECTRUM
##ORIGIN=Japan AIST/NIMC Database- Spectrum MS-NW-4978
##OWNER=NIST Mass Spectrometry Data Center
Collection (C) 2014 copyright by the U.S. Secretary of Commerce
on behalf of the United States of America. All rights reserved.
##CAS REGISTRY NO=461-58-5
##$NIST MASS SPEC NO=228929
##MOLFORM=C2 H4 N4
##MW=84
##$NIST SOURCE=MSDC
##XUNITS=M/Z
##YUNITS=RELATIVE INTENSITY
##XFACTOR=1
##YFACTOR=1
##FIRSTX=3
##LASTX=85
##FIRSTY=10
##MAXX=85
##MINX=3
##MAXY=9999
##MINY=10
##NPOINTS=34
##PEAK TABLE=(XY..XY)
3,10 12,169 13,289 14,80
15,30 16,209 17,1229 18,169
24,10 26,99 27,389 28,1759
29,149 30,20 31,169 38,40
39,129 40,109 41,529 42,1779
43,8459 44,499 52,10 53,119
54,10 56,60 58,30 66,10
67,559 68,3029 69,99 70,10
84,9999 85,429
##END=
