##TITLE=Chlorphentermine
##JCAMP-DX=4.24
##DATA TYPE=MASS SPECTRUM
##ORIGIN=Tox21 Consortium/NIST Mass Spectrometry Data Center, 2012
##OWNER=NIST Mass Spectrometry Data Center
Collection (C) 2014 copyright by the U.S. Secretary of Commerce
on behalf of the United States of America. All rights reserved.
##CAS REGISTRY NO=461-78-9
##$NIST MASS SPEC NO=408641
##MOLFORM=C10 H14 Cl N
##MW=183
##$NIST SOURCE=MSDC
##XUNITS=M/Z
##YUNITS=RELATIVE INTENSITY
##XFACTOR=1
##YFACTOR=1
##FIRSTX=15
##LASTX=171
##FIRSTY=20
##MAXX=171
##MINX=15
##MAXY=9999
##MINY=10
##NPOINTS=90
##PEAK TABLE=(XY..XY)
15,20 18,70 27,30 28,50
29,20 30,180 37,10 38,20
39,190 40,30 41,460 42,621
43,130 44,10 49,10 50,70
51,110 52,30 53,20 54,20
55,20 56,90 58,9999 59,370
60,10 61,20 62,60 63,240
64,60 65,120 66,80 70,10
73,70 74,30 75,90 76,20
77,70 78,10 79,10 84,40
85,30 86,20 87,30 88,10
89,430 90,150 91,150 92,20
97,10 99,140 100,10 101,60
102,20 103,30 104,10 105,10
106,10 111,10 112,10 113,10
114,10 115,170 116,120 117,60
118,20 123,10 125,561 126,70
127,200 128,40 129,20 130,40
131,40 132,30 133,40 138,10
139,10 140,10 149,10 151,40
152,10 153,40 154,10 155,10
166,10 167,10 168,310 169,30
170,100 171,10
##END=
