##TITLE=Ethyl fluoroformate
##JCAMP-DX=4.24
##DATA TYPE=MASS SPECTRUM
##ORIGIN=F. TURECEK,HEYROVSKY INST PHYS CHEM & ELECTROCHEM,PRAGUE,CZECH
##OWNER=NIST Mass Spectrometry Data Center
Collection (C) 2014 copyright by the U.S. Secretary of Commerce
on behalf of the United States of America. All rights reserved.
##CAS REGISTRY NO=461-64-3
##$NIST MASS SPEC NO=99648
##MOLFORM=C3 H5 F O2
##MW=92
##$NIST SOURCE=MSDC
##XUNITS=M/Z
##YUNITS=RELATIVE INTENSITY
##XFACTOR=1
##YFACTOR=1
##FIRSTX=13
##LASTX=92
##FIRSTY=110
##MAXX=92
##MINX=13
##MAXY=9999
##MINY=30
##NPOINTS=33
##PEAK TABLE=(XY..XY)
13,110 14,400 15,900 16,50
17,30 18,60 25,160 26,1380
27,4930 28,7300 29,9999 30,240
31,120 32,70 33,740 39,50
41,80 42,210 43,580 44,370
45,410 46,50 47,3490 48,80
49,70 63,50 64,270 65,1350
66,110 77,3210 78,80 91,300
92,30
##END=
