##TITLE=Neric acid
##JCAMP-DX=4.24
##DATA TYPE=MASS SPECTRUM
##ORIGIN=Philip Morris R&D
##OWNER=NIST Mass Spectrometry Data Center
Collection (C) 2014 copyright by the U.S. Secretary of Commerce
on behalf of the United States of America. All rights reserved.
##CAS REGISTRY NO=4613-38-1
##$NIST MASS SPEC NO=108574
##MOLFORM=C10 H16 O2
##MW=168
##$NIST SOURCE=MSDC
##XUNITS=M/Z
##YUNITS=RELATIVE INTENSITY
##XFACTOR=1
##YFACTOR=1
##FIRSTX=38
##LASTX=169
##FIRSTY=61
##MAXX=169
##MINX=38
##MAXY=9999
##MINY=21
##NPOINTS=68
##PEAK TABLE=(XY..XY)
38,61 39,1386 40,258 41,6968
42,364 43,751 44,69 45,196
50,66 51,176 52,95 53,667
54,172 55,368 56,223 57,117
58,34 59,78 60,40 63,48
65,134 66,49 67,591 68,276
69,9999 70,572 71,101 77,172
78,44 79,191 80,54 81,201
82,779 83,156 84,40 85,274
91,175 92,29 93,114 94,23
95,121 96,48 97,111 98,35
100,1865 101,111 105,58 107,141
108,159 109,138 110,21 111,301
112,107 113,115 121,46 122,152
123,668 124,155 125,425 126,66
135,54 149,46 150,69 151,22
153,58 163,32 168,299 169,29
##END=
