##TITLE=2-Ethoxyquinoline
##JCAMP-DX=4.24
##DATA TYPE=MASS SPECTRUM
##ORIGIN=Div. of Experiment Therapeutics WRAIR, WRAMC, Washington DC 20307
##OWNER=NIST Mass Spectrometry Data Center
Collection (C) 2014 copyright by the U.S. Secretary of Commerce
on behalf of the United States of America. All rights reserved.
##CAS REGISTRY NO=46185-83-5
##$NIST MASS SPEC NO=213317
##MOLFORM=C11 H11 N O
##MW=173
##$NIST SOURCE=MSDC
##XUNITS=M/Z
##YUNITS=RELATIVE INTENSITY
##XFACTOR=1
##YFACTOR=1
##FIRSTX=41
##LASTX=175
##FIRSTY=401
##MAXX=175
##MINX=41
##MAXY=9999
##MINY=8
##NPOINTS=113
##PEAK TABLE=(XY..XY)
41,401 42,187 43,703 44,109
45,169 47,209 48,113 49,1038
50,1882 51,2693 52,703 53,256
54,80 55,248 56,87 57,272
58,128 60,24 61,271 62,1123
63,2990 64,1198 65,1269 66,267
67,97 68,21 69,165 70,67
71,130 72,12 73,126 74,814
75,1809 76,1683 77,1721 78,602
79,14 80,12 81,71 82,50
83,132 84,693 85,132 86,560
87,343 88,702 89,5477 90,3954
91,504 92,88 93,382 94,37
95,67 96,32 97,93 98,92
99,146 100,280 101,1630 102,1500
103,568 104,511 105,611 106,132
107,33 109,33 110,22 111,57
112,32 113,26 114,309 115,355
116,2515 117,6070 118,592 119,49
121,274 122,189 123,48 124,25
125,26 126,35 127,303 128,2535
129,9999 130,1610 131,137 132,111
133,41 134,9 135,44 137,9
139,10 140,8 141,22 142,23
143,73 144,293 145,9637 146,1040
147,92 155,22 156,222 157,97
158,9909 159,1154 160,82 161,12
171,27 172,619 173,6040 174,759
175,51
##END=
