##TITLE=Methane, diethoxy-
##JCAMP-DX=4.24
##DATA TYPE=MASS SPECTRUM
##ORIGIN=NIST Mass Spectrometry Data Center, 1990.
##OWNER=NIST Mass Spectrometry Data Center
Collection (C) 2014 copyright by the U.S. Secretary of Commerce
on behalf of the United States of America. All rights reserved.
##CAS REGISTRY NO=462-95-3
##$NIST MASS SPEC NO=118816
##MOLFORM=C5 H12 O2
##MW=104
##$NIST SOURCE=MSDC
##XUNITS=M/Z
##YUNITS=RELATIVE INTENSITY
##XFACTOR=1
##YFACTOR=1
##FIRSTX=12
##LASTX=105
##FIRSTY=8
##MAXX=105
##MINX=12
##MAXY=9999
##MINY=7
##NPOINTS=40
##PEAK TABLE=(XY..XY)
12,8 13,28 14,171 15,713
16,47 18,12 19,191 26,603
27,2414 28,928 29,4752 30,12
31,8822 32,135 33,30 37,18
39,18 41,1226 42,179 43,666
44,357 45,1259 46,18 47,1749
48,21 49,10 51,7 58,1213
59,9999 60,351 61,108 73,34
74,102 75,790 76,27 89,372
90,19 103,4976 104,252 105,24
##END=
