##TITLE=Benzene, (1-ethyloctyl)-
##JCAMP-DX=4.24
##DATA TYPE=MASS SPECTRUM
##ORIGIN=D.HENNEBERG, MAX-PLANCK INSTITUTE, MULHEIM, WEST GERMANY
##OWNER=NIST Mass Spectrometry Data Center
Collection (C) 2014 copyright by the U.S. Secretary of Commerce
on behalf of the United States of America. All rights reserved.
##CAS REGISTRY NO=4621-36-7
##$NIST MASS SPEC NO=61119
##MOLFORM=C16 H26
##MW=218
##$NIST SOURCE=MSDC
##XUNITS=M/Z
##YUNITS=RELATIVE INTENSITY
##XFACTOR=1
##YFACTOR=1
##FIRSTX=22
##LASTX=219
##FIRSTY=11
##MAXX=219
##MINX=22
##MAXY=9999
##MINY=1
##NPOINTS=92
##PEAK TABLE=(XY..XY)
22,11 26,13 27,290 29,470
35,28 37,17 39,218 41,1185
42,72 43,481 45,14 46,16
48,2 49,29 50,26 51,110
52,57 53,50 54,35 55,357
56,26 57,188 58,33 62,28
63,42 65,177 66,7 67,48
68,19 69,143 70,84 71,78
74,25 75,4 76,26 77,349
78,215 79,196 80,23 83,4
85,129 86,31 87,2 88,23
89,59 90,41 91,9999 92,741
93,79 94,22 97,70 98,14
99,8 102,36 103,140 104,360
105,1200 106,116 107,22 113,23
115,296 116,31 117,352 118,231
119,4557 120,448 121,50 125,1
128,47 129,32 131,51 132,44
133,315 134,41 135,33 142,8
146,14 147,141 148,22 161,35
162,17 163,22 164,22 175,16
177,11 188,44 189,606 190,113
197,8 207,19 218,416 219,56
##END=
