##TITLE=Thiophosgene
##JCAMP-DX=4.24
##DATA TYPE=MASS SPECTRUM
##ORIGIN=RADIAN CORP
##OWNER=NIST Mass Spectrometry Data Center
Collection (C) 2014 copyright by the U.S. Secretary of Commerce
on behalf of the United States of America. All rights reserved.
##CAS REGISTRY NO=463-71-8
##$NIST MASS SPEC NO=73709
##MOLFORM=C Cl2 S
##MW=114
##$NIST SOURCE=MSDC
##XUNITS=M/Z
##YUNITS=RELATIVE INTENSITY
##XFACTOR=1
##YFACTOR=1
##FIRSTX=12
##LASTX=119
##FIRSTY=10
##MAXX=119
##MINX=12
##MAXY=9999
##MINY=10
##NPOINTS=29
##PEAK TABLE=(XY..XY)
12,10 35,870 37,270 44,1620
45,10 46,90 47,810 49,270
56,130 64,40 67,130 69,40
70,10 76,300 77,20 78,60
79,9999 80,250 81,3780 82,450
83,170 84,250 113,10 114,2150
115,50 116,1450 117,60 118,270
119,30
##END=
