##TITLE=4-Acetoxy-3-methoxystyrene
##JCAMP-DX=4.24
##DATA TYPE=MASS SPECTRUM
##ORIGIN=D.R. DIMMEL, THE INST. PAP. CHEM., APPLETON, WIS., USA
##OWNER=NIST Mass Spectrometry Data Center
Collection (C) 2014 copyright by the U.S. Secretary of Commerce
on behalf of the United States of America. All rights reserved.
##CAS REGISTRY NO=46316-15-8
##$NIST MASS SPEC NO=101081
##MOLFORM=C11 H12 O3
##MW=192
##$NIST SOURCE=MSDC
##XUNITS=M/Z
##YUNITS=RELATIVE INTENSITY
##XFACTOR=1
##YFACTOR=1
##FIRSTX=43
##LASTX=192
##FIRSTY=1800
##MAXX=192
##MINX=43
##MAXY=9999
##MINY=700
##NPOINTS=8
##PEAK TABLE=(XY..XY)
43,1800 77,1600 78,1000 91,700
107,1800 135,4800 150,9999 192,800
##END=
