##TITLE=3-Pentenenitrile
##JCAMP-DX=4.24
##DATA TYPE=MASS SPECTRUM
##ORIGIN=NIST Mass Spectrometry Data Center, 1998.
##OWNER=NIST Mass Spectrometry Data Center
Collection (C) 2014 copyright by the U.S. Secretary of Commerce
on behalf of the United States of America. All rights reserved.
##CAS REGISTRY NO=4635-87-4
##$NIST MASS SPEC NO=291539
##MOLFORM=C5 H7 N
##MW=81
##$NIST SOURCE=MSDC
##XUNITS=M/Z
##YUNITS=RELATIVE INTENSITY
##XFACTOR=1
##YFACTOR=1
##FIRSTX=13
##LASTX=83
##FIRSTY=10
##MAXX=83
##MINX=13
##MAXY=9999
##MINY=10
##NPOINTS=45
##PEAK TABLE=(XY..XY)
13,10 14,10 15,50 24,10
25,50 26,570 27,1290 28,1040
29,180 30,10 31,10 36,40
37,470 38,870 39,4540 40,570
41,6939 42,280 48,50 49,280
50,1090 51,1410 52,1710 53,2880
54,9999 55,600 56,10 60,20
61,50 62,70 63,120 64,320
65,120 66,780 67,40 74,30
75,230 76,170 77,20 78,90
79,50 80,1280 81,4380 82,260
83,10
##END=
