##TITLE=Bicyclo[2.2.1]heptan-2-one, 1,7,7-trimethyl-, (1S)-
##JCAMP-DX=4.24
##DATA TYPE=MASS SPECTRUM
##ORIGIN=NIST Mass Spectrometry Data Center, 1990.
##OWNER=NIST Mass Spectrometry Data Center
Collection (C) 2014 copyright by the U.S. Secretary of Commerce
on behalf of the United States of America. All rights reserved.
##CAS REGISTRY NO=464-48-2
##$NIST MASS SPEC NO=114690
##MOLFORM=C10 H16 O
##MW=152
##$NIST SOURCE=MSDC
##XUNITS=M/Z
##YUNITS=RELATIVE INTENSITY
##XFACTOR=1
##YFACTOR=1
##FIRSTX=15
##LASTX=153
##FIRSTY=151
##MAXX=153
##MINX=15
##MAXY=9999
##MINY=91
##NPOINTS=44
##PEAK TABLE=(XY..XY)
15,151 27,1076 29,693 39,2992
40,709 41,5134 42,615 43,720
50,269 51,713 52,393 53,1747
54,458 55,4247 56,269 63,201
64,91 65,744 66,313 67,3521
68,1825 69,4258 70,363 77,1094
78,273 79,1091 80,1606 81,7186
82,1371 83,3202 84,250 91,713
93,1597 95,9999 96,937 97,513
108,3589 109,2873 110,1115 111,139
123,126 137,376 152,2508 153,282
##END=
