##TITLE=Benzopinacol
##JCAMP-DX=4.24
##DATA TYPE=MASS SPECTRUM
##ORIGIN=D.HENNEBERG, MAX-PLANCK INSTITUTE, MULHEIM, WEST GERMANY
##OWNER=NIST Mass Spectrometry Data Center
Collection (C) 2014 copyright by the U.S. Secretary of Commerce
on behalf of the United States of America. All rights reserved.
##CAS REGISTRY NO=464-72-2
##$NIST MASS SPEC NO=60654
##MOLFORM=C26 H22 O2
##MW=366
##$NIST SOURCE=MSDC
##XUNITS=M/Z
##YUNITS=RELATIVE INTENSITY
##XFACTOR=1
##YFACTOR=1
##FIRSTX=27
##LASTX=350
##FIRSTY=149
##MAXX=350
##MINX=27
##MAXY=9999
##MINY=69
##NPOINTS=59
##PEAK TABLE=(XY..XY)
27,149 28,79 29,79 38,79
39,189 44,89 50,299 51,1316
52,199 53,99 62,79 63,139
64,79 65,99 74,129 75,149
76,279 77,6460 78,757 79,199
89,99 91,109 102,99 104,149
105,9999 106,817 107,149 115,149
126,89 127,99 128,109 139,129
151,139 152,348 153,239 154,149
155,129 163,109 164,99 165,568
166,169 167,119 168,119 180,99
181,568 182,807 183,9272 184,1714
185,209 197,89 239,79 241,79
243,119 244,69 271,109 272,69
332,69 349,99 350,69
##END=
