##TITLE=3,4-Dichlorobenzoylacetonitrile
##JCAMP-DX=4.24
##DATA TYPE=MASS SPECTRUM
##ORIGIN=NIST Mass Spectrometry Data Center
##OWNER=NIST Mass Spectrometry Data Center
Collection (C) 2014 copyright by the U.S. Secretary of Commerce
on behalf of the United States of America. All rights reserved.
##CAS REGISTRY NO=4640-68-0
##$NIST MASS SPEC NO=342844
##MOLFORM=C9 H5 Cl2 N O
##MW=213
##$NIST SOURCE=MSDC
##XUNITS=M/Z
##YUNITS=RELATIVE INTENSITY
##XFACTOR=1
##YFACTOR=1
##FIRSTX=13
##LASTX=217
##FIRSTY=90
##MAXX=217
##MINX=13
##MAXY=9999
##MINY=10
##NPOINTS=66
##PEAK TABLE=(XY..XY)
13,90 18,70 26,10 29,50
35,150 36,120 37,500 38,480
39,340 40,861 41,30 42,100
44,30 47,100 49,340 50,901
51,280 53,150 55,601 56,130
60,130 61,360 62,270 63,340
67,60 68,240 73,941 74,2442
75,2352 76,190 77,50 84,871
85,470 86,761 87,520 89,140
90,60 96,80 97,120 99,110
107,70 109,2592 110,841 111,951
112,280 114,100 119,70 121,60
123,150 138,110 145,4184 146,480
147,2913 148,290 149,500 173,9999
174,961 175,7216 176,581 177,1081
178,90 213,1561 214,190 215,951
216,110 217,160
##END=
