##TITLE=Cyclohexane, 1,1'-oxybis-
##JCAMP-DX=4.24
##DATA TYPE=MASS SPECTRUM
##OWNER=NIST Mass Spectrometry Data Center
Collection (C) 2014 copyright by the U.S. Secretary of Commerce
on behalf of the United States of America. All rights reserved.
##CAS REGISTRY NO=4645-15-2
##$NIST MASS SPEC NO=7599
##MOLFORM=C12 H22 O
##MW=182
##$NIST SOURCE=MSDC
##XUNITS=M/Z
##YUNITS=RELATIVE INTENSITY
##XFACTOR=1
##YFACTOR=1
##FIRSTX=15
##LASTX=184
##FIRSTY=30
##MAXX=184
##MINX=15
##MAXY=9999
##MINY=10
##NPOINTS=66
##PEAK TABLE=(XY..XY)
15,30 17,30 18,100 26,20
27,571 28,140 29,771 30,30
31,70 39,681 40,90 41,2662
42,300 43,520 44,561 45,140
51,50 52,30 53,340 54,661
55,6156 56,821 57,2963 58,450
59,40 60,30 65,60 66,60
67,2302 68,170 69,120 70,110
71,1021 72,731 73,50 77,80
79,210 80,190 81,1081 82,7186
83,5105 84,340 85,90 87,30
94,50 95,40 96,40 97,60
98,80 99,380 100,9999 101,831
102,50 109,20 111,20 114,30
116,20 117,130 121,20 125,20
135,10 139,50 180,10 182,2192
183,320 184,30
##END=
