##TITLE=Bicyclo[4.1.0]hepta-1,3,5-triene
##JCAMP-DX=4.24
##DATA TYPE=MASS SPECTRUM
##ORIGIN=ASES Database, Dalian Institute, P.R. China
##OWNER=NIST Mass Spectrometry Data Center
Collection (C) 2014 copyright by the U.S. Secretary of Commerce
on behalf of the United States of America. All rights reserved.
##CAS REGISTRY NO=4646-69-9
##$NIST MASS SPEC NO=144804
##MOLFORM=C7 H6
##MW=90
##$NIST SOURCE=MSDC
##XUNITS=M/Z
##YUNITS=RELATIVE INTENSITY
##XFACTOR=1
##YFACTOR=1
##FIRSTX=37
##LASTX=91
##FIRSTY=290
##MAXX=91
##MINX=37
##MAXY=9999
##MINY=100
##NPOINTS=24
##PEAK TABLE=(XY..XY)
37,290 38,490 39,990 40,190
43,390 44,100 45,190 49,100
50,480 51,700 61,390 62,880
63,2412 64,1311 65,100 74,200
75,200 85,100 86,290 87,190
88,200 89,3312 90,9999 91,770
##END=
