##TITLE=1H-Indene-1,2-diol, 2,3-dihydro-, trans-
##JCAMP-DX=4.24
##DATA TYPE=MASS SPECTRUM
##ORIGIN=CARL DJERASSI DEPT OF CHEM STANFORD UNIV STANFORD CALIF 94305
##OWNER=NIST Mass Spectrometry Data Center
Collection (C) 2014 copyright by the U.S. Secretary of Commerce
on behalf of the United States of America. All rights reserved.
##CAS REGISTRY NO=4647-43-2
##$NIST MASS SPEC NO=46721
##MOLFORM=C9 H10 O2
##MW=150
##$NIST SOURCE=MSDC
##XUNITS=M/Z
##YUNITS=RELATIVE INTENSITY
##XFACTOR=1
##YFACTOR=1
##FIRSTX=38
##LASTX=151
##FIRSTY=200
##MAXX=151
##MINX=38
##MAXY=9999
##MINY=100
##NPOINTS=53
##PEAK TABLE=(XY..XY)
38,200 39,1700 40,100 41,200
43,1100 44,500 45,100 50,700
51,2900 52,700 53,100 55,200
58,400 62,300 63,1100 64,100
65,1500 66,100 74,200 75,200
76,300 77,4400 78,2600 79,2400
80,100 89,700 90,200 91,3400
92,200 93,600 101,100 102,600
103,4000 104,9999 105,2100 106,100
107,7200 108,500 114,100 115,1700
116,1900 117,200 118,100 119,1300
120,800 121,400 130,100 131,3400
132,7300 133,1000 134,200 150,4000
151,200
##END=
