##TITLE=Bicyclo[2.2.1]heptan-2-ol, 2,3,3-trimethyl-
##JCAMP-DX=4.24
##DATA TYPE=MASS SPECTRUM
##ORIGIN=NIST Mass Spectrometry Data Center, 2010
##OWNER=NIST Mass Spectrometry Data Center
Collection (C) 2014 copyright by the U.S. Secretary of Commerce
on behalf of the United States of America. All rights reserved.
##CAS REGISTRY NO=465-31-6
##$NIST MASS SPEC NO=384063
##MOLFORM=C10 H18 O
##MW=154
##$NIST SOURCE=MSDC
##XUNITS=M/Z
##YUNITS=RELATIVE INTENSITY
##XFACTOR=1
##YFACTOR=1
##FIRSTX=15
##LASTX=154
##FIRSTY=90
##MAXX=154
##MINX=15
##MAXY=9999
##MINY=70
##NPOINTS=53
##PEAK TABLE=(XY..XY)
15,90 27,611 29,470 31,120
39,1221 40,250 41,2803 42,350
43,7106 44,230 45,460 51,180
53,550 54,100 55,1621 56,310
57,480 58,380 59,410 65,510
66,350 67,1922 68,510 69,4334
70,721 71,9999 72,611 77,290
79,400 82,150 83,380 84,2602
85,1862 86,3944 87,761 91,250
92,140 93,1141 96,4054 97,631
98,180 99,581 100,90 107,581
111,2903 112,240 113,90 121,1081
125,70 136,1281 139,550 140,70
154,180
##END=
