##TITLE=Isodrin
##JCAMP-DX=4.24
##DATA TYPE=MASS SPECTRUM
##OWNER=NIST Mass Spectrometry Data Center
Collection (C) 2014 copyright by the U.S. Secretary of Commerce
on behalf of the United States of America. All rights reserved.
##CAS REGISTRY NO=465-73-6
##$NIST MASS SPEC NO=16245
##MOLFORM=C12 H8 Cl6
##MW=362
##$NIST SOURCE=MSDC
##XUNITS=M/Z
##YUNITS=RELATIVE INTENSITY
##XFACTOR=1
##YFACTOR=1
##FIRSTX=39
##LASTX=370
##FIRSTY=2102
##MAXX=370
##MINX=39
##MAXY=9999
##MINY=160
##NPOINTS=201
##PEAK TABLE=(XY..XY)
39,2102 40,3263 41,681 43,370
44,3233 45,250 49,470 50,681
51,1231 52,470 53,470 60,160
61,370 62,621 63,931 64,310
65,1912 66,8007 67,2002 68,370
72,370 73,621 74,681 75,931
76,370 77,991 78,561 79,1852
80,470 81,310 83,470 84,470
85,681 86,621 87,561 89,370
90,310 91,1852 92,991 93,931
94,440 96,440 97,621 98,681
99,771 100,470 101,931 102,470
103,621 107,621 108,621 109,681
110,931 111,1171 112,621 113,1601
114,561 115,871 116,470 117,470
119,470 120,470 121,561 122,370
123,530 125,561 126,370 127,621
128,561 129,470 130,370 131,310
132,370 133,561 134,871 135,561
136,591 137,370 138,310 139,310
141,370 143,681 145,470 146,771
147,3393 148,771 149,2162 150,871
151,310 157,470 159,931 160,561
161,771 162,470 163,310 167,370
169,370 170,310 171,310 172,250
173,310 175,250 179,310 180,1601
181,681 182,1391 183,681 184,931
185,561 186,1231 187,621 188,621
189,470 191,931 192,250 193,9999
194,1912 195,8007 196,1852 197,3233
198,871 199,621 200,250 201,370
202,370 203,370 204,370 205,370
206,310 207,370 214,470 215,440
216,621 217,681 218,440 219,470
220,771 221,741 222,711 223,681
224,370 225,250 226,250 227,370
228,1601 229,771 230,1912 231,681
232,991 233,470 234,470 235,440
237,370 239,310 250,250 251,370
252,310 253,370 255,681 256,651
257,931 258,871 259,621 260,370
261,2222 262,470 263,3693 264,470
265,2462 266,470 267,1081 268,160
269,310 291,1171 292,370 293,1301
294,561 295,931 296,470 297,470
298,621 299,160 300,310 326,250
327,991 328,561 329,1541 330,561
331,931 332,470 333,561 334,310
362,1231 363,370 364,2312 365,470
366,1852 367,400 368,931 369,310
370,470
##END=
