##TITLE=Gamabufotalin
##JCAMP-DX=4.24
##DATA TYPE=MASS SPECTRUM
##ORIGIN=O6-5O-3
##OWNER=NIST Mass Spectrometry Data Center
Collection (C) 2014 copyright by the U.S. Secretary of Commerce
on behalf of the United States of America. All rights reserved.
##CAS REGISTRY NO=465-11-2
##$NIST MASS SPEC NO=28199
##MOLFORM=C24 H34 O5
##MW=402
##$NIST SOURCE=MSDC
##XUNITS=M/Z
##YUNITS=RELATIVE INTENSITY
##XFACTOR=1
##YFACTOR=1
##FIRSTX=41
##LASTX=404
##FIRSTY=4301
##MAXX=404
##MINX=41
##MAXY=9999
##MINY=65
##NPOINTS=342
##PEAK TABLE=(XY..XY)
41,4301 42,516 43,7204 44,3225
45,215 50,215 51,430 52,129
53,1441 54,215 55,3225 56,301
57,1032 58,1075 59,129 60,151
63,215 65,1290 66,1075 67,4559
68,645 69,1441 70,602 71,602
72,323 73,215 74,129 76,129
77,5118 78,1290 79,9031 80,1806
81,5376 82,602 83,1441 84,602
85,602 86,430 87,215 89,430
90,129 91,9461 92,1978 93,6881
94,3096 95,4193 96,903 97,1290
98,495 99,323 100,108 101,215
102,215 103,903 104,1011 105,6881
106,1785 107,7096 108,2795 109,3010
110,1419 111,1075 112,215 113,129
114,129 115,2107 116,903 117,3505
118,2408 119,3656 120,1505 121,3311
122,2494 123,4580 124,1075 125,645
126,344 127,645 128,2107 129,2408
130,1290 131,4344 132,1419 133,3075
134,1290 135,2365 136,1720 137,1978
138,1290 139,516 140,215 141,1075
142,1075 143,2365 144,1290 145,4559
146,1505 147,3268 148,1011 149,1634
150,688 151,688 152,817 153,1032
154,495 155,1634 156,1011 157,2301
158,1290 159,3225 160,1290 161,2107
162,817 163,1032 164,602 165,1226
166,1032 167,1075 168,817 169,2000
170,1075 171,2150 172,1505 173,2516
174,1720 175,3484 176,1441 177,1075
178,645 179,710 180,602 181,1290
182,817 183,2193 184,860 185,2408
186,1075 187,1935 188,2924 189,2408
190,1419 191,9999 192,1720 193,1419
194,602 195,1720 196,1011 197,1935
198,1204 199,1806 200,1935 201,3591
202,1075 203,1505 204,903 205,1032
206,301 207,1075 208,688 209,1634
210,602 211,2365 212,1075 213,1613
214,1011 215,1505 216,602 217,1892
218,860 219,1011 220,516 221,817
222,495 223,1290 224,860 225,2494
226,1032 227,2903 228,1204 229,2580
230,1419 231,1290 232,495 233,817
234,215 235,903 236,602 237,688
238,688 239,1505 240,6408 241,6236
242,1806 243,1505 244,903 245,1075
246,602 247,1032 248,602 249,903
250,280 251,516 252,516 253,1505
254,1032 255,688 256,430 257,602
258,602 259,602 260,323 261,624
262,323 263,710 264,516 265,903
266,817 267,602 268,495 269,495
270,323 271,1032 272,516 273,817
274,215 275,301 276,215 277,710
278,430 279,538 280,323 281,645
282,215 283,344 284,215 285,645
286,215 287,645 288,215 289,344
290,129 291,516 292,344 293,903
294,688 295,1290 296,1290 297,516
298,215 299,323 300,65 301,65
302,65 303,430 304,65 305,1505
306,688 307,688 308,387 309,688
310,215 311,215 312,323 313,495
314,323 315,323 316,129 318,129
319,516 320,817 321,817 322,495
323,7096 324,1978 325,602 326,215
327,215 328,108 330,215 331,215
332,108 333,3075 334,1204 335,387
336,301 337,688 338,688 339,387
340,387 341,4086 342,1118 343,215
344,108 346,344 347,215 348,3806
349,1290 350,387 351,2494 352,1011
353,323 354,108 355,495 356,323
357,129 358,129 359,430 360,215
361,129 362,129 363,129 364,817
365,495 366,8171 367,2301 368,495
369,1032 370,688 371,215 372,129
374,215 375,108 376,108 378,108
379,129 380,215 381,129 382,430
383,194 384,3268 385,860 386,215
394,215 396,108 397,108 398,301
399,108 400,215 401,108 402,6021
403,1634 404,323
##END=
