##TITLE=Clionasterol acetate
##JCAMP-DX=4.24
##DATA TYPE=MASS SPECTRUM
##ORIGIN=LAC, NIDDK, NIH, Bethesda, MD 20892
##OWNER=NIST Mass Spectrometry Data Center
Collection (C) 2014 copyright by the U.S. Secretary of Commerce
on behalf of the United States of America. All rights reserved.
##CAS REGISTRY NO=4651-54-1
##$NIST MASS SPEC NO=255273
##MOLFORM=C31 H52 O2
##MW=456
##$NIST SOURCE=MSDC
##XUNITS=M/Z
##YUNITS=RELATIVE INTENSITY
##XFACTOR=1
##YFACTOR=1
##FIRSTX=41
##LASTX=399
##FIRSTY=1353
##MAXX=399
##MINX=41
##MAXY=9999
##MINY=36
##NPOINTS=164
##PEAK TABLE=(XY..XY)
41,1353 43,9999 44,240 53,162
55,2338 57,1578 61,130 67,972
69,2199 70,206 71,1023 77,264
79,1125 81,2650 83,679 84,169
85,602 91,996 92,236 93,962
94,164 95,1439 96,94 97,739
98,36 99,81 103,40 105,1788
106,450 107,1504 108,400 109,648
111,214 115,137 116,95 117,596
118,208 119,639 120,642 121,773
122,227 123,366 124,38 125,127
127,42 129,390 130,104 131,921
132,140 133,1467 134,387 135,703
137,96 138,97 139,117 141,194
142,81 143,1040 144,360 145,1518
146,554 147,1651 148,368 149,438
150,37 151,94 155,87 156,37
157,547 158,533 159,1136 160,616
161,792 162,175 163,248 165,47
169,126 171,275 172,114 173,278
174,156 175,258 176,90 177,238
179,40 183,89 185,349 186,110
187,245 188,37 189,195 191,118
195,36 197,187 199,287 200,115
201,218 203,40 205,99 211,159
212,167 213,1071 214,319 215,294
216,79 221,38 225,36 227,135
228,342 229,140 233,52 234,87
239,133 240,45 241,119 243,84
247,39 253,318 254,224 255,1291
256,316 257,108 259,53 260,47
261,170 267,109 268,37 273,160
274,349 275,642 276,211 281,231
282,229 283,296 284,48 286,49
287,107 288,614 289,143 295,43
296,1263 297,253 302,42 340,95
351,259 352,41 353,45 354,189
367,563 368,541 369,136 379,206
380,62 381,1074 382,3513 383,1326
384,270 393,48 394,335 395,1708
396,7911 397,2398 398,524 399,52
##END=
