##TITLE=Stigmasta-5,22-dien-3-ol, acetate, (3.beta.)-
##JCAMP-DX=4.24
##DATA TYPE=MASS SPECTRUM
##ORIGIN=LAC, NIDDK, NIH, Bethesda, MD 20892
##OWNER=NIST Mass Spectrometry Data Center
Collection (C) 2014 copyright by the U.S. Secretary of Commerce
on behalf of the United States of America. All rights reserved.
##CAS REGISTRY NO=4651-48-3
##$NIST MASS SPEC NO=255396
##MOLFORM=C31 H50 O2
##MW=454
##$NIST SOURCE=MSDC
##XUNITS=M/Z
##YUNITS=RELATIVE INTENSITY
##XFACTOR=1
##YFACTOR=1
##FIRSTX=41
##LASTX=454
##FIRSTY=3030
##MAXX=454
##MINX=41
##MAXY=9999
##MINY=5
##NPOINTS=213
##PEAK TABLE=(XY..XY)
41,3030 43,9999 44,58 45,14
47,17 49,79 51,43 53,485
55,7640 57,2108 58,57 59,12
61,111 65,209 67,2829 69,5646
71,1335 72,11 73,6 77,722
79,2308 81,6775 83,5526 84,555
85,588 86,14 87,6 91,2606
93,3337 95,3306 97,2798 98,47
99,237 101,11 103,154 105,3190
107,3118 109,2258 111,691 113,155
115,234 116,39 117,1206 119,2227
120,1015 121,1505 122,95 123,1181
125,239 127,222 128,244 129,648
130,91 131,1785 133,3594 135,1778
137,671 138,44 139,932 141,386
142,58 143,1512 144,149 145,3525
146,1756 147,2409 149,1038 150,25
151,220 153,78 155,278 157,1466
158,870 159,2217 160,577 161,1256
162,246 163,292 165,302 166,51
167,42 168,13 169,209 170,24
171,489 172,183 173,734 174,225
175,556 176,84 177,200 178,74
179,49 180,5 181,49 183,267
185,468 187,498 188,38 189,478
190,64 191,100 192,21 193,20
195,33 197,296 198,34 199,567
200,143 201,335 202,94 203,119
204,7 205,83 207,30 209,26
211,438 212,78 213,1109 214,252
215,190 216,28 217,83 218,5
219,47 221,18 223,19 225,152
226,91 227,236 228,839 229,240
231,102 232,20 233,38 234,16
237,18 239,218 240,117 241,161
242,11 243,158 244,28 245,77
247,16 251,19 252,54 253,878
254,188 255,3224 256,551 257,122
258,14 259,24 261,30 267,255
268,89 269,57 271,85 272,33
273,126 274,56 275,42 276,6
281,271 282,573 283,323 284,56
285,37 286,111 287,51 288,57
295,132 296,195 297,66 299,10
300,9 301,5 307,5 309,59
310,53 311,34 312,9 313,34
315,10 323,10 337,6 340,17
351,627 352,217 353,34 354,8
365,62 366,23 367,27 368,6
379,276 380,131 381,65 382,175
383,62 384,8 392,46 394,6449
395,2123 396,658 397,148 398,21
408,15 410,30 411,12 412,6
454,6
##END=
