##TITLE=4-(2-Thienyl)butyric acid
##JCAMP-DX=4.24
##DATA TYPE=MASS SPECTRUM
##ORIGIN=Japan AIST/NIMC Database- Spectrum MS-NW-5597
##OWNER=NIST Mass Spectrometry Data Center
Collection (C) 2014 copyright by the U.S. Secretary of Commerce
on behalf of the United States of America. All rights reserved.
##CAS REGISTRY NO=4653-11-6
##$NIST MASS SPEC NO=235610
##MOLFORM=C8 H10 O2 S
##MW=170
##$NIST SOURCE=MSDC
##XUNITS=M/Z
##YUNITS=RELATIVE INTENSITY
##XFACTOR=1
##YFACTOR=1
##FIRSTX=14
##LASTX=173
##FIRSTY=10
##MAXX=173
##MINX=14
##MAXY=9999
##MINY=10
##NPOINTS=102
##PEAK TABLE=(XY..XY)
14,10 15,20 18,20 26,70
27,409 28,159 29,60 31,30
32,30 33,10 34,20 37,40
38,129 39,799 40,50 41,269
42,60 43,50 44,70 45,1669
46,50 47,119 49,20 50,119
51,269 52,99 53,909 54,40
55,179 56,20 57,109 58,279
59,80 60,119 61,50 62,90
63,189 64,30 65,249 66,289
67,129 68,10 69,279 70,119
71,259 72,20 73,70 74,20
75,20 76,30 77,269 78,99
79,139 80,10 81,40 82,70
83,40 84,409 85,139 86,30
87,10 89,20 90,10 91,109
92,20 93,20 94,10 95,90
96,70 97,9999 98,759 99,499
100,30 107,10 108,20 109,259
110,9709 111,1859 112,549 113,99
114,10 121,40 122,20 123,269
124,149 125,60 126,20 127,10
135,20 137,10 150,10 151,10
152,189 153,119 154,20 155,10
168,20 169,20 170,3779 171,389
172,199 173,20
##END=
