##TITLE=2-Propenoic acid, 2-methyl-, 1-methylethyl ester
##JCAMP-DX=4.24
##DATA TYPE=MASS SPECTRUM
##ORIGIN=NIST Mass Spectrometry Data Center, 1998.
##OWNER=NIST Mass Spectrometry Data Center
Collection (C) 2014 copyright by the U.S. Secretary of Commerce
on behalf of the United States of America. All rights reserved.
##CAS REGISTRY NO=4655-34-9
##$NIST MASS SPEC NO=290873
##MOLFORM=C7 H12 O2
##MW=128
##$NIST SOURCE=MSDC
##XUNITS=M/Z
##YUNITS=RELATIVE INTENSITY
##XFACTOR=1
##YFACTOR=1
##FIRSTX=14
##LASTX=129
##FIRSTY=10
##MAXX=129
##MINX=14
##MAXY=9999
##MINY=10
##NPOINTS=61
##PEAK TABLE=(XY..XY)
14,10 15,140 16,10 25,10
26,110 27,820 29,190 30,10
31,120 36,10 37,140 38,390
39,3800 40,770 41,7459 42,1310
43,7159 44,290 45,590 46,10
50,10 51,10 52,10 53,100
54,30 55,150 56,30 57,70
58,190 59,2680 60,90 61,10
66,10 67,40 68,240 69,9999
70,1290 71,110 72,10 73,10
74,120 82,270 83,630 84,50
85,90 86,510 87,5299 88,230
89,30 95,70 99,20 100,10
109,10 110,90 111,10 112,10
113,860 114,60 127,20 128,240
129,30
##END=
