##TITLE=2,3,6-Trichlorobenzaldehyde
##JCAMP-DX=4.24
##DATA TYPE=MASS SPECTRUM
##ORIGIN=Chuck Anderson, Aldrich Chemical Co.
##OWNER=NIST Mass Spectrometry Data Center
Collection (C) 2014 copyright by the U.S. Secretary of Commerce
on behalf of the United States of America. All rights reserved.
##CAS REGISTRY NO=4659-47-6
##$NIST MASS SPEC NO=108225
##MOLFORM=C7 H3 Cl3 O
##MW=208
##$NIST SOURCE=MSDC
##XUNITS=M/Z
##YUNITS=RELATIVE INTENSITY
##XFACTOR=1
##YFACTOR=1
##FIRSTX=25
##LASTX=214
##FIRSTY=49
##MAXX=214
##MINX=25
##MAXY=9999
##MINY=23
##NPOINTS=100
##PEAK TABLE=(XY..XY)
25,49 26,64 27,24 28,141
29,952 35,214 36,413 37,1282
38,459 39,50 43,110 44,31
47,251 48,154 49,648 50,826
51,138 53,66 54,333 55,244
56,38 59,30 60,403 61,677
62,320 63,110 68,70 69,30
72,1203 73,2274 74,4338 75,1163
76,73 77,71 79,23 82,23
83,148 84,1600 85,581 86,681
87,300 88,32 90,376 91,267
92,85 94,48 95,76 96,120
97,157 98,49 99,44 101,26
104,146 105,152 106,112 107,228
108,1163 109,2764 110,697 111,925
112,126 118,300 119,138 120,211
121,96 122,60 131,26 137,45
138,33 142,42 143,846 144,1997
145,1759 146,1362 147,872 148,271
149,140 157,52 159,35 172,406
173,62 174,244 175,37 176,49
179,2102 180,1230 181,1997 182,1163
183,727 184,376 185,96 186,44
207,9999 208,5872 209,9099 210,5184
211,3068 212,1759 213,419 214,174
##END=
