##TITLE=2,6-Dichlorobenzoyl chloride
##JCAMP-DX=4.24
##DATA TYPE=MASS SPECTRUM
##ORIGIN=NIST Mass Spectrometry Data Center
##OWNER=NIST Mass Spectrometry Data Center
Collection (C) 2014 copyright by the U.S. Secretary of Commerce
on behalf of the United States of America. All rights reserved.
##CAS REGISTRY NO=4659-45-4
##$NIST MASS SPEC NO=343574
##MOLFORM=C7 H3 Cl3 O
##MW=208
##$NIST SOURCE=MSDC
##XUNITS=M/Z
##YUNITS=RELATIVE INTENSITY
##XFACTOR=1
##YFACTOR=1
##FIRSTX=12
##LASTX=214
##FIRSTY=40
##MAXX=214
##MINX=12
##MAXY=9999
##MINY=10
##NPOINTS=100
##PEAK TABLE=(XY..XY)
12,40 13,10 18,10 24,20
25,70 26,110 27,30 28,130
29,20 35,520 36,310 37,1311
38,460 39,120 43,20 47,230
48,140 49,861 50,771 51,260
52,20 53,40 54,550 59,20
60,240 61,440 62,230 63,240
64,10 65,30 69,40 70,10
71,80 73,1081 74,2913 75,2082
76,140 77,70 78,10 82,10
83,70 84,1131 85,510 86,791
87,540 88,80 90,40 91,40
92,10 94,10 95,30 96,80
97,40 98,20 99,10 101,20
106,40 107,50 108,260 109,2322
110,721 111,751 112,210 113,10
118,40 119,90 120,30 121,60
122,10 126,10 138,40 140,10
143,20 145,2843 146,260 147,1932
148,150 149,320 150,20 157,20
159,10 170,10 171,30 173,9999
174,851 175,6446 176,520 177,1071
178,80 180,20 181,10 182,20
207,10 208,781 209,70 210,791
211,80 212,260 213,20 214,30
##END=
