##TITLE=Acetophenone, 2,2,2-triphenyl-
##JCAMP-DX=4.24
##DATA TYPE=MASS SPECTRUM
##ORIGIN=Japan AIST/NIMC Database- Spectrum MS-NW-7140
##OWNER=NIST Mass Spectrometry Data Center
Collection (C) 2014 copyright by the U.S. Secretary of Commerce
on behalf of the United States of America. All rights reserved.
##CAS REGISTRY NO=466-37-5
##$NIST MASS SPEC NO=235757
##MOLFORM=C26 H20 O
##MW=348
##$NIST SOURCE=MSDC
##XUNITS=M/Z
##YUNITS=RELATIVE INTENSITY
##XFACTOR=1
##YFACTOR=1
##FIRSTX=27
##LASTX=350
##FIRSTY=30
##MAXX=350
##MINX=27
##MAXY=9999
##MINY=10
##NPOINTS=122
##PEAK TABLE=(XY..XY)
27,30 28,10 39,80 50,70
51,339 52,30 62,20 63,90
64,10 65,40 74,30 75,40
76,60 77,899 78,90 86,10
87,40 88,20 89,60 91,159
92,10 94,10 98,10 99,10
100,10 101,10 102,20 105,1219
106,109 107,10 111,10 112,10
113,50 114,20 115,249 116,20
119,20 120,10 125,10 126,50
127,30 128,20 135,30 137,20
138,20 139,169 140,20 141,50
144,10 150,30 151,40 152,80
153,20 154,10 162,20 163,159
164,229 165,4359 166,1199 167,189
168,20 174,10 175,10 176,50
177,20 178,50 179,10 181,10
182,30 183,90 184,20 187,20
188,20 189,70 190,20 191,10
200,40 201,30 202,179 203,50
204,10 211,10 212,10 213,80
214,30 215,309 216,70 217,10
224,10 225,20 226,179 227,139
228,449 229,90 230,10 237,60
238,40 239,439 240,179 241,429
242,229 243,9999 244,2109 245,219
246,20 250,10 252,40 253,50
254,40 255,40 256,10 270,20
271,30 330,20 331,10 332,189
333,50 334,10 347,20 348,309
349,90 350,10
##END=
