##TITLE=Hydromorphone
##JCAMP-DX=4.24
##DATA TYPE=MASS SPECTRUM
##ORIGIN=NIST Mass Spectrometry Data Center
##OWNER=NIST Mass Spectrometry Data Center
Collection (C) 2014 copyright by the U.S. Secretary of Commerce
on behalf of the United States of America. All rights reserved.
##CAS REGISTRY NO=466-99-9
##$NIST MASS SPEC NO=352952
##MOLFORM=C17 H19 N O3
##MW=285
##$NIST SOURCE=MSDC
##XUNITS=M/Z
##YUNITS=RELATIVE INTENSITY
##XFACTOR=1
##YFACTOR=1
##FIRSTX=14
##LASTX=288
##FIRSTY=10
##MAXX=288
##MINX=14
##MAXY=9999
##MINY=10
##NPOINTS=240
##PEAK TABLE=(XY..XY)
14,10 15,150 19,10 20,20
25,10 26,50 27,450 28,540
29,270 30,400 31,581 32,50
37,10 38,50 39,721 40,120
41,751 42,4184 43,490 44,1682
45,80 46,10 48,10 49,10
50,150 51,611 52,220 53,510
54,270 55,1211 56,360 57,1411
58,1521 59,1601 60,360 61,20
62,110 63,510 64,220 65,651
66,190 67,330 68,591 69,210
70,1862 71,190 72,120 73,30
74,100 75,230 76,270 77,1301
78,480 79,370 80,260 81,400
82,1591 83,691 84,751 85,100
86,90 87,110 88,120 89,671
90,230 91,1121 92,270 93,180
94,761 95,180 96,3463 97,350
98,180 100,120 101,210 102,561
103,801 104,280 105,290 106,190
107,440 108,350 109,130 110,210
111,140 112,140 113,200 114,460
115,3833 116,811 117,631 118,300
119,150 120,380 121,220 122,220
123,190 124,410 125,90 126,240
127,1591 128,2162 129,891 130,350
131,1571 132,520 133,180 134,561
135,150 136,140 137,100 138,70
139,530 140,220 141,811 142,360
143,561 144,1141 145,641 146,300
147,530 148,340 149,110 150,90
151,180 152,721 153,711 154,310
155,550 156,280 157,1151 158,500
159,350 160,741 161,1141 162,1021
163,390 164,180 165,300 166,130
167,200 168,430 169,490 170,380
171,2833 172,901 173,1021 174,1141
175,370 176,250 177,60 178,60
179,50 180,80 181,591 182,330
183,330 184,1181 185,1501 186,1011
187,781 188,400 189,150 190,70
191,30 192,10 193,40 194,60
195,110 196,330 197,360 198,1201
199,1161 200,2192 201,631 202,420
203,370 204,70 205,20 206,10
207,30 208,40 209,60 210,130
211,400 212,390 213,350 214,2923
215,711 216,691 217,90 218,10
219,10 220,10 221,10 222,20
223,30 224,90 225,70 226,561
227,360 228,3313 229,3193 230,721
231,80 232,10 235,10 236,10
237,20 238,50 239,50 240,250
241,110 242,1181 243,310 244,50
245,10 250,10 252,20 253,30
254,60 255,20 256,1161 257,550
258,90 259,10 266,30 267,20
268,180 269,50 270,340 271,70
272,10 282,10 283,50 284,1221
285,9999 286,1842 287,210 288,20
##END=
