##TITLE=Isopropenylcyclopropane
##JCAMP-DX=4.24
##DATA TYPE=MASS SPECTRUM
##OWNER=NIST Mass Spectrometry Data Center
Collection (C) 2014 copyright by the U.S. Secretary of Commerce
on behalf of the United States of America. All rights reserved.
##CAS REGISTRY NO=4663-22-3
##$NIST MASS SPEC NO=445
##MOLFORM=C6 H10
##MW=82
##$NIST SOURCE=MSDC
##XUNITS=M/Z
##YUNITS=RELATIVE INTENSITY
##XFACTOR=1
##YFACTOR=1
##FIRSTX=1
##LASTX=84
##FIRSTY=100
##MAXX=84
##MINX=1
##MAXY=9999
##MINY=10
##NPOINTS=57
##PEAK TABLE=(XY..XY)
1,100 2,20 12,20 13,40
14,160 15,510 16,10 24,10
25,30 26,450 27,2452 28,611
29,440 30,10 31,30 32,10
36,20 37,320 38,721 39,5065
40,1021 41,5135 42,911 43,190
44,10 48,10 49,80 50,510
51,721 52,330 53,1501 54,1391
55,601 56,190 57,10 60,10
61,60 62,110 63,230 64,30
65,781 66,280 67,9999 68,550
69,20 72,10 73,20 74,40
76,10 77,200 78,40 79,430
80,70 81,1131 82,2192 83,140
84,10
##END=
