##TITLE=Silane, chlorotriethoxy-
##JCAMP-DX=4.24
##DATA TYPE=MASS SPECTRUM
##ORIGIN=RADIAN CORP
##OWNER=NIST Mass Spectrometry Data Center
Collection (C) 2014 copyright by the U.S. Secretary of Commerce
on behalf of the United States of America. All rights reserved.
##CAS REGISTRY NO=4667-99-6
##$NIST MASS SPEC NO=73197
##MOLFORM=C6 H15 Cl O3 Si
##MW=198
##$NIST SOURCE=MSDC
##XUNITS=M/Z
##YUNITS=RELATIVE INTENSITY
##XFACTOR=1
##YFACTOR=1
##FIRSTX=15
##LASTX=201
##FIRSTY=50
##MAXX=201
##MINX=15
##MAXY=9999
##MINY=10
##NPOINTS=96
##PEAK TABLE=(XY..XY)
15,50 26,30 27,320 29,700
42,20 43,430 45,600 55,90
59,20 61,310 62,230 63,570
65,120 71,30 73,70 77,30
78,20 79,650 80,1140 81,1660
82,480 83,580 84,90 87,10
89,130 90,50 91,140 92,10
93,130 94,110 95,260 96,130
97,8790 98,500 99,3220 100,140
101,140 103,150 105,270 107,160
108,270 109,830 110,240 111,2250
112,160 113,740 115,90 117,140
118,30 119,850 120,60 123,900
124,110 125,3610 126,280 127,1410
128,90 129,110 133,60 135,100
137,370 139,3610 140,300 141,3730
142,300 143,930 144,40 145,30
147,460 149,170 153,2920 154,280
155,8970 156,760 157,2920 158,220
159,100 163,630 164,50 167,150
169,3890 170,440 171,1470 172,130
173,60 179,190 181,30 183,9999
184,1050 185,3590 186,340 187,130
198,800 199,170 200,300 201,40
##END=
