##TITLE=Ethypicone
##JCAMP-DX=4.24
##DATA TYPE=MASS SPECTRUM
##ORIGIN=H.Maurer, J.Chromatogr.,530,307(1990)
##OWNER=NIST Mass Spectrometry Data Center
Collection (C) 2014 copyright by the U.S. Secretary of Commerce
on behalf of the United States of America. All rights reserved.
##CAS REGISTRY NO=467-90-3
##$NIST MASS SPEC NO=281540
##MOLFORM=C10 H15 N O2
##MW=181
##$NIST SOURCE=MSDC
##XUNITS=M/Z
##YUNITS=RELATIVE INTENSITY
##XFACTOR=1
##YFACTOR=1
##FIRSTX=51
##LASTX=181
##FIRSTY=150
##MAXX=181
##MINX=51
##MAXY=9999
##MINY=40
##NPOINTS=37
##PEAK TABLE=(XY..XY)
51,150 52,180 53,961 54,1361
55,6366 56,741 58,40 65,110
66,40 67,290 68,150 69,1101
70,290 71,40 74,40 77,70
79,70 80,260 81,150 82,400
83,9999 84,4714 85,220 94,110
96,150 97,290 98,2983 99,70
110,621 138,1431 139,70 152,1211
153,5625 154,290 166,4634 167,370
181,400
##END=
