##TITLE=Neopine
##JCAMP-DX=4.24
##DATA TYPE=MASS SPECTRUM
##ORIGIN=PYTCAS, 15(3)444(1976); F. J. E. M. KUPPERS ET AL
##OWNER=NIST Mass Spectrometry Data Center
Collection (C) 2014 copyright by the U.S. Secretary of Commerce
on behalf of the United States of America. All rights reserved.
##CAS REGISTRY NO=467-14-1
##$NIST MASS SPEC NO=64811
##MOLFORM=C18 H21 N O3
##MW=299
##$NIST SOURCE=MSDC
##XUNITS=M/Z
##YUNITS=RELATIVE INTENSITY
##XFACTOR=1
##YFACTOR=1
##FIRSTX=58
##LASTX=300
##FIRSTY=2000
##MAXX=300
##MINX=58
##MAXY=9999
##MINY=400
##NPOINTS=14
##PEAK TABLE=(XY..XY)
58,2000 59,400 152,1700 197,2000
225,1600 243,1800 254,8800 255,2700
280,700 282,900 284,2000 298,1200
299,9999 300,1800
##END=
