##TITLE=Phenadoxone
##JCAMP-DX=4.24
##DATA TYPE=MASS SPECTRUM
##ORIGIN=Finnigan MAT: Toxicological Library (LIBR-TX)
##OWNER=NIST Mass Spectrometry Data Center
Collection (C) 2014 copyright by the U.S. Secretary of Commerce
on behalf of the United States of America. All rights reserved.
##CAS REGISTRY NO=467-84-5
##$NIST MASS SPEC NO=120899
##MOLFORM=C23 H29 N O2
##MW=351
##$NIST SOURCE=MSDC
##XUNITS=M/Z
##YUNITS=RELATIVE INTENSITY
##XFACTOR=1
##YFACTOR=1
##FIRSTX=41
##LASTX=336
##FIRSTY=188
##MAXX=336
##MINX=41
##MAXY=9999
##MINY=91
##NPOINTS=19
##PEAK TABLE=(XY..XY)
41,188 42,454 55,183 56,526
57,398 70,507 91,323 105,96
112,105 114,9999 115,768 117,101
127,93 128,92 129,91 165,102
178,94 223,101 336,96
##END=
