##TITLE=Pipradrol
##JCAMP-DX=4.24
##DATA TYPE=MASS SPECTRUM
##ORIGIN=Finnigan MAT: Toxicological Library (LIBR-TX)
##OWNER=NIST Mass Spectrometry Data Center
Collection (C) 2014 copyright by the U.S. Secretary of Commerce
on behalf of the United States of America. All rights reserved.
##CAS REGISTRY NO=467-60-7
##$NIST MASS SPEC NO=119302
##MOLFORM=C18 H21 N O
##MW=267
##$NIST SOURCE=MSDC
##XUNITS=M/Z
##YUNITS=RELATIVE INTENSITY
##XFACTOR=1
##YFACTOR=1
##FIRSTX=51
##LASTX=249
##FIRSTY=633
##MAXX=249
##MINX=51
##MAXY=9999
##MINY=28
##NPOINTS=31
##PEAK TABLE=(XY..XY)
51,633 55,1023 56,2791 67,278
77,2257 82,442 84,9999 85,1429
91,238 105,1684 106,175 115,170
128,73 130,62 152,195 153,71
165,341 166,100 167,170 181,131
182,309 183,86 190,57 191,56
193,48 204,39 206,81 220,28
247,64 248,247 249,193
##END=
