##TITLE=Normethadone
##JCAMP-DX=4.24
##DATA TYPE=MASS SPECTRUM
##ORIGIN=Patti Price, Georgia Bureau of Investigation, Decatur, Georgia
##OWNER=NIST Mass Spectrometry Data Center
Collection (C) 2014 copyright by the U.S. Secretary of Commerce
on behalf of the United States of America. All rights reserved.
##CAS REGISTRY NO=467-85-6
##$NIST MASS SPEC NO=248479
##MOLFORM=C20 H25 N O
##MW=295
##$NIST SOURCE=MSDC
##XUNITS=M/Z
##YUNITS=RELATIVE INTENSITY
##XFACTOR=1
##YFACTOR=1
##FIRSTX=42
##LASTX=297
##FIRSTY=350
##MAXX=297
##MINX=42
##MAXY=9999
##MINY=10
##NPOINTS=184
##PEAK TABLE=(XY..XY)
42,350 43,80 44,30 50,10
51,50 52,10 53,10 54,10
55,20 56,110 57,630 58,9999
59,350 62,10 63,50 65,60
69,10 70,50 71,700 72,1541
73,60 74,10 75,20 76,60
77,220 78,40 79,10 80,10
81,10 82,10 83,10 84,10
86,10 87,10 88,20 89,80
90,10 91,510 92,30 93,10
94,10 95,10 96,10 98,10
99,10 100,10 101,20 102,120
103,130 104,10 105,150 106,10
107,10 109,10 111,10 112,10
113,20 114,10 115,650 116,140
117,130 118,20 119,10 120,10
121,10 122,10 124,10 126,40
127,40 128,90 129,30 130,10
131,50 132,40 133,10 134,10
135,10 137,10 138,10 139,130
140,10 141,30 142,10 143,10
144,30 145,20 146,10 147,10
149,10 150,40 151,110 152,300
153,60 154,10 155,10 157,10
158,30 159,10 160,90 161,10
162,10 163,120 164,170 165,1090
166,240 167,290 168,40 169,10
171,10 172,10 173,10 174,10
175,10 176,150 177,110 178,940
179,530 180,150 181,30 182,10
183,10 184,10 186,10 187,10
188,10 189,130 190,60 191,200
192,60 193,250 194,160 195,80
196,10 197,10 201,10 202,30
203,20 204,20 205,50 206,60
207,20 208,10 209,20 210,10
216,10 217,30 218,10 219,10
220,20 222,40 223,40 224,1651
225,270 226,30 227,10 228,10
230,10 231,10 232,10 233,10
234,10 235,10 236,110 237,20
238,10 239,10 240,10 248,30
249,10 250,10 251,90 252,10
262,10 263,10 264,10 266,10
275,10 276,10 278,10 293,10
294,10 295,90 296,20 297,10
##END=
