##TITLE=Dioxaphetyl butyrate
##JCAMP-DX=4.24
##DATA TYPE=MASS SPECTRUM
##ORIGIN=HOME OFFICE, CENTRAL RES. EST., ALDERMASTON, BERKS., U.K.
##OWNER=NIST Mass Spectrometry Data Center
Collection (C) 2014 copyright by the U.S. Secretary of Commerce
on behalf of the United States of America. All rights reserved.
##CAS REGISTRY NO=467-86-7
##$NIST MASS SPEC NO=58789
##MOLFORM=C22 H27 N O3
##MW=353
##$NIST SOURCE=MSDC
##XUNITS=M/Z
##YUNITS=RELATIVE INTENSITY
##XFACTOR=1
##YFACTOR=1
##FIRSTX=29
##LASTX=354
##FIRSTY=300
##MAXX=354
##MINX=29
##MAXY=9999
##MINY=100
##NPOINTS=31
##PEAK TABLE=(XY..XY)
29,300 32,100 36,400 38,100
41,100 42,700 43,100 55,100
56,700 70,100 71,100 77,100
91,200 98,100 100,9999 101,500
105,100 113,100 114,400 115,200
119,100 165,200 166,100 178,100
179,100 193,100 194,100 240,100
308,100 353,400 354,100
##END=
