##TITLE=1,2-Ethanediol dimethanesulphonate
##JCAMP-DX=4.24
##DATA TYPE=MASS SPECTRUM
##ORIGIN=F. TURECEK,HEYROVSKY INST PHYS CHEM & ELECTROCHEM,PRAGUE,CZECH
##OWNER=NIST Mass Spectrometry Data Center
Collection (C) 2014 copyright by the U.S. Secretary of Commerce
on behalf of the United States of America. All rights reserved.
##CAS REGISTRY NO=4672-49-5
##$NIST MASS SPEC NO=101459
##MOLFORM=C4 H10 O6 S2
##MW=218
##$NIST SOURCE=MSDC
##XUNITS=M/Z
##YUNITS=RELATIVE INTENSITY
##XFACTOR=1
##YFACTOR=1
##FIRSTX=26
##LASTX=188
##FIRSTY=60
##MAXX=188
##MINX=26
##MAXY=9999
##MINY=30
##NPOINTS=36
##PEAK TABLE=(XY..XY)
26,60 27,170 29,580 30,90
31,470 39,60 41,90 43,770
44,390 45,860 48,190 57,90
58,60 59,110 63,280 64,240
65,390 79,9999 80,490 81,560
93,150 94,580 97,60 109,2470
110,90 111,280 122,690 123,170
143,710 145,60 149,30 158,4210
159,170 160,430 175,90 188,320
##END=
