##TITLE=2-Buten-1-ol, 2-methyl-
##JCAMP-DX=4.24
##DATA TYPE=MASS SPECTRUM
##OWNER=NIST Mass Spectrometry Data Center
Collection (C) 2014 copyright by the U.S. Secretary of Commerce
on behalf of the United States of America. All rights reserved.
##CAS REGISTRY NO=4675-87-0
##$NIST MASS SPEC NO=581
##MOLFORM=C5 H10 O
##MW=86
##$NIST SOURCE=MSDC
##XUNITS=M/Z
##YUNITS=RELATIVE INTENSITY
##XFACTOR=1
##YFACTOR=1
##FIRSTX=31
##LASTX=87
##FIRSTY=1201
##MAXX=87
##MINX=31
##MAXY=9999
##MINY=100
##NPOINTS=28
##PEAK TABLE=(XY..XY)
31,1201 32,100 38,200 39,2502
40,701 41,4204 42,500 43,4704
44,500 45,500 50,500 51,500
52,200 53,2502 54,400 55,1301
56,200 57,1301 58,500 65,200
67,1501 68,1301 69,300 71,9999
72,500 85,400 86,5005 87,300
##END=
