##TITLE=1,2,4-Cyclopentanetrione, 3,3-bis(3-methyl-2-butenyl)-5-(3-methyl-1-oxobutyl)-
##JCAMP-DX=4.24
##DATA TYPE=MASS SPECTRUM
##ORIGIN=RE-123-3
##OWNER=NIST Mass Spectrometry Data Center
Collection (C) 2014 copyright by the U.S. Secretary of Commerce
on behalf of the United States of America. All rights reserved.
##CAS REGISTRY NO=468-62-2
##$NIST MASS SPEC NO=33025
##MOLFORM=C20 H28 O4
##MW=332
##$NIST SOURCE=MSDC
##XUNITS=M/Z
##YUNITS=RELATIVE INTENSITY
##XFACTOR=1
##YFACTOR=1
##FIRSTX=27
##LASTX=333
##FIRSTY=816
##MAXX=333
##MINX=27
##MAXY=9999
##MINY=20
##NPOINTS=165
##PEAK TABLE=(XY..XY)
27,816 28,61 29,1428 39,1102
40,204 41,9795 42,490 43,2408
44,163 51,204 52,122 53,1388
54,143 55,1632 56,245 57,3836
58,143 59,163 63,20 65,408
66,204 67,979 68,306 69,9999
70,571 71,367 73,122 77,673
78,1347 79,367 80,1122 81,204
82,816 83,306 84,1612 85,41
91,816 92,143 93,592 94,245
95,837 96,163 97,245 98,61
99,41 103,122 105,531 106,41
107,796 108,326 109,1571 110,469
111,367 113,20 115,163 116,20
117,143 119,612 120,102 121,122
122,184 123,1612 124,326 125,163
126,41 127,265 128,82 129,102
131,143 133,326 134,41 135,653
136,204 137,490 141,41 143,41
145,163 146,61 147,306 148,102
149,449 150,122 151,877 152,592
153,163 155,20 157,163 159,163
160,41 161,673 162,224 163,571
164,245 165,469 166,122 167,163
171,20 173,184 174,143 175,347
176,102 177,429 178,204 179,837
180,163 185,20 187,245 188,122
189,612 190,571 191,816 192,408
193,571 194,204 195,571 196,184
199,143 204,633 205,531 206,245
207,1184 208,653 209,1102 210,592
215,82 217,326 219,388 220,122
221,531 222,286 229,102 230,306
231,367 233,673 234,20 235,2245
236,531 243,204 245,571 246,306
247,531 248,653 249,1837 250,367
261,714 262,143 263,2000 264,1286
265,571 271,367 276,286 286,82
287,143 289,1673 290,265 299,122
304,1714 305,347 314,204 315,82
317,306 318,102 331,551 332,1367
333,163
##END=
