##TITLE=Viloxazine
##JCAMP-DX=4.24
##DATA TYPE=MASS SPECTRUM
##ORIGIN=Finnigan MAT: Toxicological Library (LIBR-TX)
##OWNER=NIST Mass Spectrometry Data Center
Collection (C) 2014 copyright by the U.S. Secretary of Commerce
on behalf of the United States of America. All rights reserved.
##CAS REGISTRY NO=46817-91-8
##$NIST MASS SPEC NO=121041
##MOLFORM=C13 H19 N O3
##MW=237
##$NIST SOURCE=MSDC
##XUNITS=M/Z
##YUNITS=RELATIVE INTENSITY
##XFACTOR=1
##YFACTOR=1
##FIRSTX=41
##LASTX=238
##FIRSTY=1084
##MAXX=238
##MINX=41
##MAXY=9999
##MINY=100
##NPOINTS=21
##PEAK TABLE=(XY..XY)
41,1084 42,773 56,9999 57,1680
58,498 65,393 70,1280 81,497
86,904 98,295 100,7523 101,398
109,476 110,2003 111,106 121,211
138,3948 139,289 222,100 237,1313
238,303
##END=
