##TITLE=3,4-Dimethylanisole
##JCAMP-DX=4.24
##DATA TYPE=MASS SPECTRUM
##ORIGIN=Japan AIST/NIMC Database- Spectrum MS-NW-5901
##OWNER=NIST Mass Spectrometry Data Center
Collection (C) 2014 copyright by the U.S. Secretary of Commerce
on behalf of the United States of America. All rights reserved.
##CAS REGISTRY NO=4685-47-6
##$NIST MASS SPEC NO=235161
##MOLFORM=C9 H12 O
##MW=136
##$NIST SOURCE=MSDC
##XUNITS=M/Z
##YUNITS=RELATIVE INTENSITY
##XFACTOR=1
##YFACTOR=1
##FIRSTX=14
##LASTX=138
##FIRSTY=20
##MAXX=138
##MINX=14
##MAXY=9999
##MINY=10
##NPOINTS=81
##PEAK TABLE=(XY..XY)
14,20 15,249 26,60 27,549
28,40 29,80 30,10 37,50
38,179 39,1119 40,159 41,499
42,20 43,80 44,10 45,20
46,10 49,30 50,379 51,989
52,439 53,579 54,40 55,90
57,10 60,40 61,50 62,159
63,489 64,129 65,869 66,159
67,189 68,149 69,10 73,20
74,119 75,90 76,80 77,2749
78,719 79,559 80,50 81,20
82,10 85,10 86,40 87,30
89,159 90,80 91,3229 92,449
93,1129 94,109 95,30 96,10
98,20 101,10 102,60 103,419
104,179 105,989 106,259 107,139
108,40 109,20 115,10 116,10
117,10 118,10 119,90 120,99
121,8239 122,839 123,60 133,20
134,99 135,3479 136,9999 137,1009
138,60
##END=
