##TITLE=L-Aspartic acid, N-glycyl-
##JCAMP-DX=4.24
##DATA TYPE=MASS SPECTRUM
##ORIGIN=Japan AIST/NIMC Database- Spectrum MS-NW-3479
##OWNER=NIST Mass Spectrometry Data Center
Collection (C) 2014 copyright by the U.S. Secretary of Commerce
on behalf of the United States of America. All rights reserved.
##CAS REGISTRY NO=4685-12-5
##$NIST MASS SPEC NO=230539
##MOLFORM=C6 H10 N2 O5
##MW=190
##$NIST SOURCE=MSDC
##XUNITS=M/Z
##YUNITS=RELATIVE INTENSITY
##XFACTOR=1
##YFACTOR=1
##FIRSTX=25
##LASTX=173
##FIRSTY=90
##MAXX=173
##MINX=25
##MAXY=9999
##MINY=50
##NPOINTS=110
##PEAK TABLE=(XY..XY)
25,90 26,509 27,1079 28,2439
29,759 30,4839 31,169 32,50
36,90 37,70 38,149 39,369
40,649 41,1409 42,1909 43,1699
44,9999 45,579 46,189 50,119
51,179 52,229 53,259 54,539
55,1839 56,1209 57,439 58,199
59,369 60,719 61,50 63,119
64,119 65,259 66,109 67,239
68,259 69,409 70,1379 71,319
72,289 73,109 74,70 77,209
78,129 79,139 80,149 81,139
82,509 83,439 84,429 85,1099
86,169 87,169 88,609 89,199
90,99 91,899 92,219 93,70
94,60 95,80 96,189 97,309
98,389 99,439 100,269 101,479
102,60 105,80 106,50 107,229
108,169 109,109 110,649 111,769
112,1129 113,749 114,349 115,80
116,60 123,80 124,119 125,90
126,2369 127,409 128,70 129,209
130,60 135,80 136,159 137,80
138,129 139,70 140,90 149,70
150,70 151,90 152,90 153,199
154,1209 155,199 164,60 165,70
166,60 167,90 168,80 171,159
172,1479 173,179
##END=
