##TITLE=Etoxeridine
##JCAMP-DX=4.24
##DATA TYPE=MASS SPECTRUM
##ORIGIN=HOME OFFICE, CENTRAL RES. EST., ALDERMASTON, BERKS., U.K.
##OWNER=NIST Mass Spectrometry Data Center
Collection (C) 2014 copyright by the U.S. Secretary of Commerce
on behalf of the United States of America. All rights reserved.
##CAS REGISTRY NO=469-82-9
##$NIST MASS SPEC NO=58760
##MOLFORM=C18 H27 N O4
##MW=321
##$NIST SOURCE=MSDC
##XUNITS=M/Z
##YUNITS=RELATIVE INTENSITY
##XFACTOR=1
##YFACTOR=1
##FIRSTX=42
##LASTX=248
##FIRSTY=1500
##MAXX=248
##MINX=42
##MAXY=9999
##MINY=100
##NPOINTS=16
##PEAK TABLE=(XY..XY)
42,1500 43,200 45,500 51,100
56,400 57,200 59,200 91,400
103,300 115,200 131,200 172,300
218,400 246,9999 247,1600 248,300
##END=
