##TITLE=1H-3a,7-Methanoazulene, 2,3,4,7,8,8a-hexahydro-3,6,8,8-tetramethyl-, [3R-(3.alpha.,3a.beta.,7.beta.,8a.alpha.)]-
##JCAMP-DX=4.24
##DATA TYPE=MASS SPECTRUM
##ORIGIN=G.BRAMMER,UNIVERSITY OF TEXAS
##OWNER=NIST Mass Spectrometry Data Center
Collection (C) 2014 copyright by the U.S. Secretary of Commerce
on behalf of the United States of America. All rights reserved.
##CAS REGISTRY NO=469-61-4
##$NIST MASS SPEC NO=43966
##MOLFORM=C15 H24
##MW=204
##$NIST SOURCE=MSDC
##XUNITS=M/Z
##YUNITS=RELATIVE INTENSITY
##XFACTOR=1
##YFACTOR=1
##FIRSTX=26
##LASTX=205
##FIRSTY=10
##MAXX=205
##MINX=26
##MAXY=9999
##MINY=1
##NPOINTS=172
##PEAK TABLE=(XY..XY)
26,10 27,193 29,212 30,5
31,3 33,2 37,1 38,4
39,377 41,1204 42,164 43,377
45,3 46,9 47,2 49,4
50,30 51,168 52,50 53,459
54,48 55,1051 56,867 57,306
58,16 59,9 60,8 61,2
62,11 63,65 64,26 65,357
66,98 67,469 68,188 69,1591
70,469 71,56 72,11 73,11
74,7 75,12 76,18 77,1020
78,235 79,785 80,227 81,673
82,293 83,211 84,144 85,10
86,3 87,17 88,8 89,42
90,16 91,1637 92,1178 93,4489
94,678 95,484 96,162 97,187
98,19 99,3 100,1 101,8
102,23 103,193 104,65 105,2933
106,454 107,607 108,433 109,515
110,68 111,28 112,19 113,6
114,5 115,216 116,101 117,266
118,213 119,9999 120,1535 121,1515
122,362 123,301 124,114 125,17
126,12 127,30 128,103 129,111
130,45 131,198 132,54 133,709
134,443 135,362 136,770 137,108
138,16 139,10 140,6 141,21
142,24 143,31 144,35 145,107
146,176 147,1061 148,448 149,137
150,16 151,4 152,9 153,9
154,9 155,5 156,4 157,13
158,11 159,42 160,57 161,2153
162,418 163,64 164,6 165,6
166,4 167,11 168,1 169,5
170,5 171,4 172,5 173,13
174,7 175,152 176,44 177,5
178,5 179,4 180,3 181,2
182,3 183,5 184,1 185,3
186,3 187,9 188,11 189,489
190,96 191,8 192,4 193,4
194,3 195,4 196,4 197,3
198,4 199,5 200,4 201,12
202,9 203,13 204,2306 205,479
##END=
