##TITLE=Propoxyphene
##JCAMP-DX=4.24
##DATA TYPE=MASS SPECTRUM
##ORIGIN=Dr. P.K. Shah, NYC Police Laboratory, NY
##OWNER=NIST Mass Spectrometry Data Center
Collection (C) 2014 copyright by the U.S. Secretary of Commerce
on behalf of the United States of America. All rights reserved.
##CAS REGISTRY NO=469-62-5
##$NIST MASS SPEC NO=312352
##MOLFORM=C22 H29 N O2
##MW=339
##$NIST SOURCE=MSDC
##XUNITS=M/Z
##YUNITS=RELATIVE INTENSITY
##XFACTOR=1
##YFACTOR=1
##FIRSTX=39
##LASTX=267
##FIRSTY=50
##MAXX=267
##MINX=39
##MAXY=9999
##MINY=20
##NPOINTS=95
##PEAK TABLE=(XY..XY)
39,50 41,50 42,210 43,80
44,100 45,40 51,70 55,30
56,70 57,490 58,9999 59,390
63,30 65,120 70,50 71,80
72,30 73,20 74,30 76,20
77,290 78,60 79,20 82,30
84,70 85,70 86,200 87,20
89,50 90,20 91,771 92,70
99,20 101,20 102,40 103,60
104,30 105,390 106,30 115,470
116,100 117,240 118,30 120,30
127,50 128,140 129,210 130,230
131,60 132,30 133,90 134,80
141,20 143,70 144,20 147,20
150,20 151,30 152,60 153,20
158,30 163,20 164,20 165,120
166,30 167,20 172,20 174,90
176,40 177,30 178,250 179,170
180,30 182,20 189,50 190,30
191,100 192,50 193,220 194,40
197,110 198,20 202,30 203,30
204,50 205,50 206,40 207,50
208,250 209,40 250,210 251,40
265,90 266,110 267,20
##END=
