##TITLE=Benzeneacetamide, .alpha.-phenyl-
##JCAMP-DX=4.24
##DATA TYPE=MASS SPECTRUM
##ORIGIN=Humboldt-Universitat zu Berlin, Department of Chemistry, Analytical Group
##OWNER=NIST Mass Spectrometry Data Center
Collection (C) 2014 copyright by the U.S. Secretary of Commerce
on behalf of the United States of America. All rights reserved.
##CAS REGISTRY NO=4695-13-0
##$NIST MASS SPEC NO=288062
##MOLFORM=C14 H13 N O
##MW=211
##$NIST SOURCE=MSDC
##XUNITS=M/Z
##YUNITS=RELATIVE INTENSITY
##XFACTOR=1
##YFACTOR=1
##FIRSTX=12
##LASTX=213
##FIRSTY=4
##MAXX=213
##MINX=12
##MAXY=9999
##MINY=3
##NPOINTS=140
##PEAK TABLE=(XY..XY)
12,4 15,23 16,74 17,181
18,570 19,4 26,32 27,137
28,105 29,27 30,8 31,9
36,6 37,18 38,73 39,507
40,37 41,51 42,13 43,63
44,902 45,35 46,4 49,7
50,216 51,417 52,93 53,28
54,10 55,32 56,15 57,48
59,6 60,10 61,25 62,166
63,488 64,84 65,280 66,29
67,12 68,9 70,106 73,15
74,143 75,134 76,176 77,280
78,82 79,32 80,7 82,228
85,22 86,79 87,128 88,70
89,405 90,142 91,355 92,29
93,8 94,5 95,7 96,6
97,14 98,37 99,31 100,17
101,34 102,111 103,25 104,62
105,17 106,18 109,9 110,17
111,30 112,18 113,101 114,47
115,523 116,70 117,24 118,9
122,6 123,5 124,4 125,16
126,98 127,92 128,288 129,43
130,7 132,17 133,18 134,9
135,6 137,32 138,36 139,347
140,54 141,147 142,20 149,9
150,30 151,272 152,2445 153,723
154,76 155,8 159,4 161,10
162,32 163,270 164,445 165,4194
166,1531 167,9999 168,5665 169,718
170,43 171,17 172,3 177,4
178,8 179,6 180,16 181,11
182,14 183,4 190,7 191,7
192,12 193,42 194,11 195,4
209,4 211,417 212,105 213,14
##END=
