##TITLE=Naphtho(2,3-b)furan-2(3H)-one, decahydro-8a-methyl-3,5-bis(methylene)-, (3aR-(3a.alpha.,4a.alpha.,8a.beta.,9a.alpha.))-
##JCAMP-DX=4.24
##DATA TYPE=MASS SPECTRUM
##ORIGIN=Finnigan MAT: Toxicological Library (LIBR-TX)
##OWNER=NIST Mass Spectrometry Data Center
Collection (C) 2014 copyright by the U.S. Secretary of Commerce
on behalf of the United States of America. All rights reserved.
##CAS REGISTRY NO=470-17-7
##$NIST MASS SPEC NO=120192
##MOLFORM=C15 H20 O2
##MW=232
##$NIST SOURCE=MSDC
##XUNITS=M/Z
##YUNITS=RELATIVE INTENSITY
##XFACTOR=1
##YFACTOR=1
##FIRSTX=39
##LASTX=233
##FIRSTY=4675
##MAXX=233
##MINX=39
##MAXY=9999
##MINY=374
##NPOINTS=33
##PEAK TABLE=(XY..XY)
39,4675 41,7708 53,5187 55,3748
67,4717 77,4025 79,7458 81,3607
91,6844 93,6605 94,3969 105,4141
107,3304 117,1978 119,2504 121,4733
131,2848 133,1701 145,2618 159,849
161,914 164,2356 171,1812 176,2552
177,1192 187,810 190,9999 191,1560
199,412 203,374 217,2639 232,3597
233,451
##END=
