##TITLE=Neotigogenin
##JCAMP-DX=4.24
##DATA TYPE=MASS SPECTRUM
##ORIGIN=H. Fales, LC, NHLBI, NIH, Bethesda, MD 20892
##OWNER=NIST Mass Spectrometry Data Center
Collection (C) 2014 copyright by the U.S. Secretary of Commerce
on behalf of the United States of America. All rights reserved.
##CAS REGISTRY NO=470-01-9
##$NIST MASS SPEC NO=124348
##MOLFORM=C27 H44 O3
##MW=416
##$NIST SOURCE=MSDC
##XUNITS=M/Z
##YUNITS=RELATIVE INTENSITY
##XFACTOR=1
##YFACTOR=1
##FIRSTX=41
##LASTX=418
##FIRSTY=1965
##MAXX=418
##MINX=41
##MAXY=9999
##MINY=13
##NPOINTS=232
##PEAK TABLE=(XY..XY)
41,1965 43,1198 44,466 45,93
48,21 49,28 51,31 53,271
54,51 55,2164 56,341 57,852
58,106 59,81 60,24 65,113
66,29 67,1028 68,273 69,2311
70,319 71,197 72,52 73,146
74,40 77,339 78,99 79,981
80,196 81,1193 82,221 83,441
84,120 85,152 86,34 87,29
88,25 91,886 92,176 93,1198
94,293 95,1108 96,209 97,646
98,84 99,174 100,41 101,33
102,17 103,52 104,31 105,808
106,250 107,1191 108,532 109,753
110,223 111,206 112,121 113,123
114,575 115,2246 116,184 117,211
118,79 119,538 120,292 121,731
122,1336 123,372 124,143 125,352
126,503 127,141 128,86 129,113
130,58 131,306 132,88 133,518
134,185 135,466 136,169 137,120
138,124 139,9999 140,1248 141,157
142,65 143,136 144,62 145,352
146,119 147,561 148,147 149,291
150,71 151,129 152,38 153,58
155,62 156,13 157,108 158,50
159,323 160,116 161,737 162,153
163,200 164,81 165,157 166,59
167,97 168,225 169,70 170,21
171,89 172,42 173,213 174,75
175,228 176,544 177,313 178,95
179,85 180,33 181,81 182,31
183,39 185,83 186,34 187,121
188,32 189,112 190,87 191,57
192,14 193,29 195,37 197,37
199,99 200,34 201,124 202,131
203,82 204,14 205,36 206,13
207,16 209,17 211,21 213,72
214,57 215,208 216,128 217,87
218,51 219,59 221,44 225,14
227,67 228,22 229,211 230,68
231,42 232,283 233,136 234,133
235,45 239,41 241,59 242,14
243,35 245,235 246,70 247,110
248,48 253,54 255,403 256,80
257,61 258,33 259,43 260,24
267,27 269,290 270,68 271,91
272,112 273,4348 274,878 275,125
276,31 282,63 283,40 284,213
285,130 286,59 287,1903 288,430
289,77 291,32 300,51 301,39
302,2545 303,608 304,81 311,22
313,29 317,96 318,32 328,25
329,126 330,36 342,13 344,1102
345,290 346,224 347,559 348,130
349,19 357,319 358,92 383,19
386,85 387,39 401,69 402,20
415,37 416,464 417,146 418,28
##END=
