##TITLE=Fluoridamid
##JCAMP-DX=4.24
##DATA TYPE=MASS SPECTRUM
##ORIGIN=J. SHAW, BORRISTON RESEARCH, ROCKVILLE, MD, USA
##OWNER=NIST Mass Spectrometry Data Center
Collection (C) 2014 copyright by the U.S. Secretary of Commerce
on behalf of the United States of America. All rights reserved.
##CAS REGISTRY NO=47000-92-0
##$NIST MASS SPEC NO=60202
##MOLFORM=C10 H11 F3 N2 O3 S
##MW=296
##$NIST SOURCE=MSDC
##XUNITS=M/Z
##YUNITS=RELATIVE INTENSITY
##XFACTOR=1
##YFACTOR=1
##FIRSTX=12
##LASTX=296
##FIRSTY=10
##MAXX=296
##MINX=12
##MAXY=9999
##MINY=10
##NPOINTS=135
##PEAK TABLE=(XY..XY)
12,10 13,10 14,120 15,1041
16,80 17,70 18,272 20,10
26,50 27,270 28,480 29,80
30,80 31,30 32,40 37,20
38,80 39,480 40,240 41,350
42,430 43,4574 44,140 45,30
48,70 49,10 50,140 51,330
52,370 53,260 54,170 55,40
56,20 57,40 58,30 60,10
61,10 62,20 63,110 64,170
65,640 66,660 67,400 68,80
69,640 70,10 71,10 73,10
74,10 75,40 76,90 77,780
78,310 79,100 80,160 81,60
82,20 83,10 84,10 85,30
87,10 89,10 90,40 91,90
92,520 93,1141 94,1641 95,120
96,10 97,20 98,10 99,10
100,10 101,10 102,50 103,30
104,320 105,240 106,160 107,40
108,30 109,20 110,10 111,20
112,10 117,10 118,70 119,480
120,980 121,9999 122,1021 123,40
124,10 125,30 126,10 127,60
128,10 129,20 132,10 133,50
134,60 135,20 136,20 137,10
139,10 142,10 145,10 147,90
148,20 149,30 150,20 151,50
152,10 153,10 161,170 162,130
163,160 164,30 167,10 169,20
171,20 173,10 178,10 184,20
185,10 193,30 211,10 212,10
213,10 235,20 254,4974 255,380
256,220 281,10 296,1981
##END=
