##TITLE=Benzene, (1-ethyl-1-propenyl)-
##JCAMP-DX=4.24
##DATA TYPE=MASS SPECTRUM
##ORIGIN=NIST Mass Spectrometry Data Center, 1990.
##OWNER=NIST Mass Spectrometry Data Center
Collection (C) 2014 copyright by the U.S. Secretary of Commerce
on behalf of the United States of America. All rights reserved.
##CAS REGISTRY NO=4701-36-4
##$NIST MASS SPEC NO=118147
##MOLFORM=C11 H14
##MW=146
##$NIST SOURCE=MSDC
##XUNITS=M/Z
##YUNITS=RELATIVE INTENSITY
##XFACTOR=1
##YFACTOR=1
##FIRSTX=14
##LASTX=148
##FIRSTY=31
##MAXX=148
##MINX=14
##MAXY=9999
##MINY=26
##NPOINTS=74
##PEAK TABLE=(XY..XY)
14,31 15,188 26,185 27,1135
28,187 29,277 32,30 37,51
38,240 39,1829 40,266 41,745
42,73 50,753 51,1673 52,413
53,755 54,34 55,60 57,147
61,90 62,377 63,996 64,544
65,1262 66,123 67,625 68,410
69,42 70,44 71,66 72,57
73,37 74,283 75,321 76,427
77,1332 78,548 79,239 85,32
86,91 87,130 88,88 89,658
90,32 91,4545 92,358 98,31
101,94 102,516 103,584 104,381
105,341 106,26 113,88 115,4747
116,2022 117,9999 118,1063 119,59
126,72 127,345 128,696 129,795
130,328 131,1800 132,189 139,29
141,41 143,63 145,813 146,4670
147,534 148,28
##END=
