##TITLE=Benzene, 1,3-dimethyl-5-(1-methylethyl)-
##JCAMP-DX=4.24
##DATA TYPE=MASS SPECTRUM
##ORIGIN=NIST Mass Spectrometry Data Center, 1990.
##OWNER=NIST Mass Spectrometry Data Center
Collection (C) 2014 copyright by the U.S. Secretary of Commerce
on behalf of the United States of America. All rights reserved.
##CAS REGISTRY NO=4706-90-5
##$NIST MASS SPEC NO=118579
##MOLFORM=C11 H16
##MW=148
##$NIST SOURCE=MSDC
##XUNITS=M/Z
##YUNITS=RELATIVE INTENSITY
##XFACTOR=1
##YFACTOR=1
##FIRSTX=14
##LASTX=149
##FIRSTY=86
##MAXX=149
##MINX=14
##MAXY=9999
##MINY=3
##NPOINTS=75
##PEAK TABLE=(XY..XY)
14,86 15,458 16,6 18,32
26,151 27,1094 28,142 29,228
37,51 38,225 39,1389 40,275
41,1277 42,51 43,65 44,3
49,25 50,365 51,963 52,327
53,554 54,55 55,168 58,172
59,82 62,191 63,663 64,467
65,806 66,179 71,70 72,71
73,52 74,137 75,139 76,206
77,1305 78,430 79,640 80,39
86,47 87,73 88,34 89,270
90,34 91,2179 92,264 93,320
94,28 101,45 102,197 103,461
104,28 105,2227 106,296 107,247
115,1121 116,513 117,1055 118,376
119,517 120,71 126,23 127,97
128,211 129,186 130,23 131,842
132,23 133,9999 134,1053 135,57
146,42 148,2221 149,300
##END=
