##TITLE=Benzene, 2,4-dimethyl-1-(1-methylethyl)-
##JCAMP-DX=4.24
##DATA TYPE=MASS SPECTRUM
##OWNER=NIST Mass Spectrometry Data Center
Collection (C) 2014 copyright by the U.S. Secretary of Commerce
on behalf of the United States of America. All rights reserved.
##CAS REGISTRY NO=4706-89-2
##$NIST MASS SPEC NO=4436
##MOLFORM=C11 H16
##MW=148
##$NIST SOURCE=MSDC
##XUNITS=M/Z
##YUNITS=RELATIVE INTENSITY
##XFACTOR=1
##YFACTOR=1
##FIRSTX=2
##LASTX=150
##FIRSTY=30
##MAXX=150
##MINX=2
##MAXY=9999
##MINY=10
##NPOINTS=104
##PEAK TABLE=(XY..XY)
2,30 12,10 13,10 14,60
15,651 16,20 25,10 26,110
27,901 28,380 29,250 30,50
31,10 32,10 34,10 37,20
38,90 39,1021 40,110 41,831
42,40 43,80 44,30 45,10
49,10 50,160 51,561 52,160
53,310 54,20 55,120 56,30
57,40 58,100 59,40 60,10
61,20 62,80 63,300 64,310
65,500 66,70 67,40 68,10
69,10 70,10 71,50 72,40
73,70 74,50 75,70 76,40
77,621 78,190 79,260 80,20
81,10 83,10 85,10 86,20
87,20 88,10 89,90 90,30
91,961 92,100 93,160 94,10
98,10 101,20 102,80 103,200
104,60 105,781 106,90 107,120
108,10 112,10 113,10 114,10
115,530 116,250 117,540 118,280
119,180 120,20 126,10 127,40
128,130 129,80 130,20 131,310
132,100 133,9999 134,1011 135,10
141,10 143,10 145,10 146,10
147,30 148,2292 149,250 150,10
##END=
