##TITLE=1H-Benzotriazole, 1-(phenylmethyl)-
##JCAMP-DX=4.24
##DATA TYPE=MASS SPECTRUM
##OWNER=NIST Mass Spectrometry Data Center
Collection (C) 2014 copyright by the U.S. Secretary of Commerce
on behalf of the United States of America. All rights reserved.
##CAS REGISTRY NO=4706-43-8
##$NIST MASS SPEC NO=9627
##MOLFORM=C13 H11 N3
##MW=209
##$NIST SOURCE=MSDC
##XUNITS=M/Z
##YUNITS=RELATIVE INTENSITY
##XFACTOR=1
##YFACTOR=1
##FIRSTX=39
##LASTX=210
##FIRSTY=1301
##MAXX=210
##MINX=39
##MAXY=9999
##MINY=500
##NPOINTS=17
##PEAK TABLE=(XY..XY)
39,1301 50,500 51,1201 63,901
65,2302 76,601 77,1501 89,601
90,801 91,9999 92,1001 104,601
152,701 180,9999 181,1802 209,5205
210,801
##END=
