##TITLE=Benzoic acid, 2,4-dihydroxy-3,6-dimethyl-, methyl ester
##JCAMP-DX=4.24
##DATA TYPE=MASS SPECTRUM
##ORIGIN=T.BRUUN NORWEGIAN INST. OF TECH., TRONDHEIM, NORWAY
##OWNER=NIST Mass Spectrometry Data Center
Collection (C) 2014 copyright by the U.S. Secretary of Commerce
on behalf of the United States of America. All rights reserved.
##CAS REGISTRY NO=4707-47-5
##$NIST MASS SPEC NO=8685
##MOLFORM=C10 H12 O4
##MW=196
##$NIST SOURCE=MSDC
##XUNITS=M/Z
##YUNITS=RELATIVE INTENSITY
##XFACTOR=1
##YFACTOR=1
##FIRSTX=39
##LASTX=197
##FIRSTY=700
##MAXX=197
##MINX=39
##MAXY=9999
##MINY=100
##NPOINTS=34
##PEAK TABLE=(XY..XY)
39,700 40,100 41,300 50,100
51,400 52,300 53,600 59,100
63,200 65,400 66,100 67,400
69,100 77,700 78,300 79,700
80,300 81,100 90,100 91,200
93,100 107,800 108,500 109,300
121,100 135,800 136,7100 137,600
163,600 164,9999 165,2000 166,200
196,6100 197,500
##END=
