##TITLE=Guanidine, methyl-
##JCAMP-DX=4.24
##DATA TYPE=MASS SPECTRUM
##ORIGIN=Japan AIST/NIMC Database- Spectrum MS-NW-5516
##OWNER=NIST Mass Spectrometry Data Center
Collection (C) 2014 copyright by the U.S. Secretary of Commerce
on behalf of the United States of America. All rights reserved.
##CAS REGISTRY NO=471-29-4
##$NIST MASS SPEC NO=230206
##MOLFORM=C2 H7 N3
##MW=73
##$NIST SOURCE=MSDC
##XUNITS=M/Z
##YUNITS=RELATIVE INTENSITY
##XFACTOR=1
##YFACTOR=1
##FIRSTX=12
##LASTX=74
##FIRSTY=50
##MAXX=74
##MINX=12
##MAXY=9999
##MINY=10
##NPOINTS=37
##PEAK TABLE=(XY..XY)
12,50 13,169 14,159 15,719
16,199 17,349 18,119 25,10
26,99 27,639 28,4109 29,549
30,8139 31,2169 32,99 39,40
40,80 41,409 42,1879 43,9999
44,2499 45,419 52,20 53,249
54,60 55,1319 56,1349 57,2559
58,109 59,20 63,10 69,10
70,20 71,20 72,2219 73,8579
74,339
##END=
