##TITLE=Ethanediamide
##JCAMP-DX=4.24
##DATA TYPE=MASS SPECTRUM
##ORIGIN=Japan AIST/NIMC Database- Spectrum MS-NW-1754
##OWNER=NIST Mass Spectrometry Data Center
Collection (C) 2014 copyright by the U.S. Secretary of Commerce
on behalf of the United States of America. All rights reserved.
##CAS REGISTRY NO=471-46-5
##$NIST MASS SPEC NO=229438
##MOLFORM=C2 H4 N2 O2
##MW=88
##$NIST SOURCE=MSDC
##XUNITS=M/Z
##YUNITS=RELATIVE INTENSITY
##XFACTOR=1
##YFACTOR=1
##FIRSTX=12
##LASTX=89
##FIRSTY=10
##MAXX=89
##MINX=12
##MAXY=9999
##MINY=10
##NPOINTS=35
##PEAK TABLE=(XY..XY)
12,10 13,10 14,10 15,80
16,1289 17,1639 18,199 26,50
27,369 28,419 29,369 30,30
31,10 32,10 38,20 39,10
41,30 42,229 43,1019 44,9999
45,4479 46,90 47,10 53,40
54,30 55,30 56,20 57,40
60,2629 61,50 69,20 70,10
71,20 88,2129 89,70
##END=
