##TITLE=Propiolic acid
##JCAMP-DX=4.24
##DATA TYPE=MASS SPECTRUM
##ORIGIN=Leung Pu, NIH, Bethesda, Maryland, U.S.
##OWNER=NIST Mass Spectrometry Data Center
Collection (C) 2014 copyright by the U.S. Secretary of Commerce
on behalf of the United States of America. All rights reserved.
##CAS REGISTRY NO=471-25-0
##$NIST MASS SPEC NO=211320
##MOLFORM=C3 H2 O2
##MW=70
##$NIST SOURCE=MSDC
##XUNITS=M/Z
##YUNITS=RELATIVE INTENSITY
##XFACTOR=1
##YFACTOR=1
##FIRSTX=44
##LASTX=72
##FIRSTY=327
##MAXX=72
##MINX=44
##MAXY=9999
##MINY=7
##NPOINTS=13
##PEAK TABLE=(XY..XY)
44,327 45,1287 47,169 48,83
53,9999 54,283 55,54 56,8
57,7 69,39 70,4906 71,542
72,15
##END=
