##TITLE=Phenol, 4-(3,4-dihydro-2,2,4-trimethyl-2H-1-benzopyran-4-yl)-
##JCAMP-DX=4.24
##DATA TYPE=MASS SPECTRUM
##ORIGIN=P.A. Leclercq, Lab. Instrum. Anal., Eindhoven Univ. Technol., Netherlands
##OWNER=NIST Mass Spectrometry Data Center
Collection (C) 2014 copyright by the U.S. Secretary of Commerce
on behalf of the United States of America. All rights reserved.
##CAS REGISTRY NO=472-41-3
##$NIST MASS SPEC NO=141556
##MOLFORM=C18 H20 O2
##MW=268
##$NIST SOURCE=MSDC
##XUNITS=M/Z
##YUNITS=RELATIVE INTENSITY
##XFACTOR=1
##YFACTOR=1
##FIRSTX=15
##LASTX=270
##FIRSTY=159
##MAXX=270
##MINX=15
##MAXY=9999
##MINY=19
##NPOINTS=157
##PEAK TABLE=(XY..XY)
15,159 17,39 18,59 27,419
28,119 29,429 31,59 37,19
38,59 39,819 40,99 41,369
43,219 44,19 50,79 51,279
52,79 53,289 55,349 56,29
57,29 62,59 63,389 64,159
65,589 66,159 67,69 68,19
69,49 70,29 71,19 74,49
75,149 76,259 77,799 78,149
79,169 80,29 82,199 84,79
86,19 87,59 88,139 89,329
91,809 92,89 93,109 94,439
96,59 97,249 98,69 99,49
101,359 102,159 103,319 104,219
105,339 107,2289 108,299 109,219
110,179 113,109 115,1329 116,449
117,179 119,1629 121,1059 122,99
127,649 128,469 129,249 131,939
132,149 133,279 134,119 135,89
139,289 140,109 141,659 142,129
144,1199 145,839 146,189 147,159
148,39 150,79 151,209 152,589
153,279 154,89 155,99 157,299
159,4949 160,899 161,119 163,129
165,949 166,279 167,119 168,129
169,89 173,119 174,69 175,389
176,259 177,189 178,299 179,189
180,59 181,499 182,159 183,109
188,39 189,289 190,159 191,229
192,69 194,649 195,309 196,129
197,169 198,39 201,109 202,119
203,59 205,139 206,69 207,239
208,129 209,429 210,289 211,269
212,49 213,69 218,129 219,129
220,69 221,109 223,979 224,529
225,219 226,29 234,29 235,59
237,389 238,479 239,139 249,29
250,29 251,59 253,9999 254,1829
255,239 256,19 268,1029 269,219
270,19
##END=
