##TITLE=1-Cyclohexene-1-acetaldehyde, 2,6,6-trimethyl-
##JCAMP-DX=4.24
##DATA TYPE=MASS SPECTRUM
##ORIGIN=Japan AIST/NIMC Database- Spectrum MS-IW-3646
##OWNER=NIST Mass Spectrometry Data Center
Collection (C) 2014 copyright by the U.S. Secretary of Commerce
on behalf of the United States of America. All rights reserved.
##CAS REGISTRY NO=472-66-2
##$NIST MASS SPEC NO=238242
##MOLFORM=C11 H18 O
##MW=166
##$NIST SOURCE=MSDC
##XUNITS=M/Z
##YUNITS=RELATIVE INTENSITY
##XFACTOR=1
##YFACTOR=1
##FIRSTX=15
##LASTX=168
##FIRSTY=60
##MAXX=168
##MINX=15
##MAXY=9999
##MINY=10
##NPOINTS=127
##PEAK TABLE=(XY..XY)
15,60 18,10 26,30 27,1119
28,139 29,1149 30,20 31,40
37,10 38,70 39,1919 40,319
41,4439 42,239 43,1989 44,70
45,70 46,20 50,159 51,629
52,289 53,1639 54,189 55,2979
56,259 57,1089 58,99 59,60
60,40 61,20 62,50 63,219
64,60 65,879 66,269 67,3119
68,429 69,2559 70,239 71,239
72,30 73,10 74,30 75,40
76,30 77,1689 78,349 79,2359
80,359 81,7839 82,1079 83,449
84,139 85,139 86,40 87,10
89,50 90,20 91,2659 92,429
93,1869 94,359 95,6159 96,919
97,289 98,99 99,20 101,10
102,20 103,169 104,70 105,1609
106,279 107,9399 108,1229 109,2379
110,619 111,239 112,30 113,10
115,99 116,40 117,129 118,60
119,249 120,99 121,1159 122,1639
123,5809 124,729 125,119 126,20
127,20 128,20 129,20 130,10
131,129 132,20 133,3499 134,419
135,209 136,279 137,4019 138,569
139,189 140,40 141,10 143,10
144,10 145,10 146,10 147,30
148,99 149,90 150,10 151,9999
152,1639 153,209 154,90 155,10
162,10 163,10 164,10 165,50
166,3349 167,489 168,50
##END=
