##TITLE=Diethyl 4,4'-biphenyldicarboxylate
##JCAMP-DX=4.24
##DATA TYPE=MASS SPECTRUM
##ORIGIN=NIST Mass Spectrometry Data Center, 1994
##OWNER=NIST Mass Spectrometry Data Center
Collection (C) 2014 copyright by the U.S. Secretary of Commerce
on behalf of the United States of America. All rights reserved.
##CAS REGISTRY NO=47230-38-6
##$NIST MASS SPEC NO=136183
##MOLFORM=C18 H18 O4
##MW=298
##$NIST SOURCE=MSDC
##XUNITS=M/Z
##YUNITS=RELATIVE INTENSITY
##XFACTOR=1
##YFACTOR=1
##FIRSTX=26
##LASTX=301
##FIRSTY=162
##MAXX=301
##MINX=26
##MAXY=9999
##MINY=8
##NPOINTS=83
##PEAK TABLE=(XY..XY)
26,162 27,1061 28,766 29,3060
30,165 39,139 43,93 44,63
45,387 50,260 51,262 52,50
53,40 62,87 63,453 64,32
65,56 74,91 75,482 76,1342
77,305 86,58 87,129 88,42
89,74 90,471 98,86 99,120
100,74 101,170 102,175 103,60
104,677 105,154 113,108 114,32
115,200 125,158 126,474 127,179
128,35 129,50 139,156 140,51
141,175 149,133 150,761 151,1910
152,4772 153,1775 154,175 155,30
165,328 166,261 167,69 168,56
178,45 179,318 180,601 181,583
182,81 196,107 197,105 198,74
209,252 210,57 225,3812 226,1001
227,147 242,1819 243,228 251,31
253,9999 254,2049 255,309 269,126
270,1289 271,248 283,130 298,7688
299,1535 300,145 301,8
##END=
