##TITLE=4-Aminophenyl trifluoromethyl sulfone
##JCAMP-DX=4.24
##DATA TYPE=MASS SPECTRUM
##ORIGIN=R.T. LOEFFLER,LONG ASHTON RES. STN.,LONG ASHTON,BRISTOL,U.K.
##OWNER=NIST Mass Spectrometry Data Center
Collection (C) 2014 copyright by the U.S. Secretary of Commerce
on behalf of the United States of America. All rights reserved.
##CAS REGISTRY NO=473-27-8
##$NIST MASS SPEC NO=103363
##MOLFORM=C7 H6 F3 N O2 S
##MW=225
##$NIST SOURCE=MSDC
##XUNITS=M/Z
##YUNITS=RELATIVE INTENSITY
##XFACTOR=1
##YFACTOR=1
##FIRSTX=37
##LASTX=226
##FIRSTY=234
##MAXX=226
##MINX=37
##MAXY=9999
##MINY=106
##NPOINTS=65
##PEAK TABLE=(XY..XY)
37,234 38,810 39,3235 40,995
41,1335 42,415 43,325 44,961
45,313 46,122 48,307 49,118
50,567 51,446 52,1145 53,535
54,352 55,202 56,150 57,370
60,170 61,225 62,635 63,1527
64,1509 65,9946 66,1187 67,147
69,1410 70,180 71,173 74,174
75,155 76,116 78,126 79,229
80,548 81,146 83,159 84,114
85,352 87,107 90,217 91,946
92,9999 93,765 95,227 96,122
97,171 107,162 108,4755 109,367
123,153 124,141 130,106 132,109
140,550 142,145 149,266 155,200
156,6633 157,525 158,349 225,1148
226,111
##END=
