##TITLE=Betulin
##JCAMP-DX=4.24
##DATA TYPE=MASS SPECTRUM
##ORIGIN=D.HENNEBERG, MAX-PLANCK INSTITUTE, MULHEIM, WEST GERMANY
##OWNER=NIST Mass Spectrometry Data Center
Collection (C) 2014 copyright by the U.S. Secretary of Commerce
on behalf of the United States of America. All rights reserved.
##CAS REGISTRY NO=473-98-3
##$NIST MASS SPEC NO=63047
##MOLFORM=C30 H50 O2
##MW=442
##$NIST SOURCE=MSDC
##XUNITS=M/Z
##YUNITS=RELATIVE INTENSITY
##XFACTOR=1
##YFACTOR=1
##FIRSTX=27
##LASTX=444
##FIRSTY=88
##MAXX=444
##MINX=27
##MAXY=9999
##MINY=11
##NPOINTS=349
##PEAK TABLE=(XY..XY)
27,88 36,41 39,110 41,695
42,48 43,1936 45,37 50,13
51,53 53,148 54,45 55,2270
56,123 57,1025 58,97 59,241
63,13 65,80 66,77 67,1743
68,774 69,4497 70,388 71,1284
72,171 73,72 75,56 76,17
77,199 78,61 79,1486 80,614
81,5255 82,1263 83,1926 84,248
85,588 86,102 88,16 89,19
90,14 91,1259 92,391 93,3958
94,2066 95,7848 96,1493 97,1366
98,242 99,228 100,95 101,49
102,32 103,68 105,2824 106,950
107,4994 108,2163 109,4782 110,920
111,1055 112,138 113,163 114,69
115,63 116,60 117,435 118,337
119,4131 120,1695 121,5082 122,1957
123,3418 124,804 125,677 126,285
127,170 128,112 129,124 130,103
131,1333 132,591 133,3657 134,2247
135,6872 136,3762 137,2046 138,806
139,1031 140,206 141,162 142,82
143,278 144,191 145,1818 146,706
147,3354 148,1467 149,2105 150,602
151,734 152,850 153,547 154,177
155,118 156,72 157,312 158,190
159,1479 160,607 161,2495 162,896
163,2145 164,515 165,1129 166,342
167,120 168,70 169,116 170,69
171,415 172,195 173,1558 174,593
175,3902 176,1097 177,3152 178,802
179,1362 180,431 181,122 182,60
183,94 184,97 185,507 186,266
187,2950 188,1122 189,9999 190,3452
191,4166 192,811 193,505 194,138
195,75 196,38 197,106 198,89
199,366 200,236 201,2400 202,1325
203,7050 204,2133 205,1999 206,1130
207,7472 208,1893 209,338 210,65
211,127 212,83 213,405 214,178
215,1229 216,914 217,1282 218,369
219,1011 220,2650 221,1623 222,1052
223,319 224,51 225,101 226,52
227,521 228,177 229,867 230,233
231,903 232,327 233,1767 234,3526
235,1647 236,281 237,50 239,71
240,34 241,190 242,93 243,338
244,144 245,961 246,319 247,944
248,330 249,80 250,15 253,101
254,45 255,360 256,130 257,903
258,266 259,334 260,173 261,235
262,102 263,58 267,88 268,54
269,239 270,154 271,553 272,221
273,589 274,199 275,151 276,77
277,39 280,13 281,63 282,40
283,158 284,96 285,160 286,145
287,189 288,1082 289,341 290,115
291,72 292,50 293,33 295,78
296,20 297,215 298,107 299,296
300,191 301,207 302,196 303,107
304,43 305,43 308,11 309,49
310,34 311,99 312,50 313,177
314,130 315,268 316,224 317,191
318,153 319,39 321,16 323,92
324,56 325,88 326,50 327,76
328,49 329,85 330,44 335,15
337,94 338,54 339,57 340,46
341,137 342,118 343,86 344,32
349,46 350,43 351,87 352,34
353,117 354,81 355,204 356,167
357,60 358,40 359,100 360,157
361,58 363,151 364,67 365,44
367,147 368,124 369,143 370,104
371,94 372,52 373,38 374,48
376,93 377,76 379,77 380,42
381,379 382,193 383,90 384,55
385,1437 386,443 387,103 388,19
390,39 391,225 392,139 393,1150
394,444 395,161 396,107 397,85
398,63 399,1264 400,388 401,69
402,32 404,39 405,35 406,187
407,142 408,95 409,613 410,324
411,6395 412,2136 413,504 414,138
415,20 422,56 424,1304 425,449
426,111 427,934 428,308 429,64
440,56 441,27 442,3846 443,1262
444,232
##END=
