##TITLE=Pinonic acid
##JCAMP-DX=4.24
##DATA TYPE=MASS SPECTRUM
##ORIGIN=A.Swigar, R.Silverstein, Monoterpenes,1981
##OWNER=NIST Mass Spectrometry Data Center
Collection (C) 2014 copyright by the U.S. Secretary of Commerce
on behalf of the United States of America. All rights reserved.
##CAS REGISTRY NO=473-72-3
##$NIST MASS SPEC NO=292856
##MOLFORM=C10 H16 O3
##MW=184
##$NIST SOURCE=MSDC
##XUNITS=M/Z
##YUNITS=RELATIVE INTENSITY
##XFACTOR=1
##YFACTOR=1
##FIRSTX=31
##LASTX=184
##FIRSTY=300
##MAXX=184
##MINX=31
##MAXY=9999
##MINY=260
##NPOINTS=55
##PEAK TABLE=(XY..XY)
31,300 39,2382 40,641 41,4834
42,811 43,9999 44,410 45,711
50,410 51,510 52,430 53,1311
54,410 55,3183 56,731 57,410
58,410 59,691 65,410 67,901
68,2422 69,8017 70,921 71,6936
72,941 73,410 77,430 79,561
80,370 81,1541 82,540 83,9969
84,751 85,430 91,430 95,1051
96,1541 97,430 98,3934 99,941
107,470 108,300 109,1031 113,300
114,2172 115,300 123,751 124,811
125,1541 126,360 127,340 151,260
166,661 169,510 184,390
##END=
