##TITLE=Cyclopentane, (1-methylbutyl)-
##JCAMP-DX=4.24
##DATA TYPE=MASS SPECTRUM
##ORIGIN=D.HENNEBERG, MAX-PLANCK INSTITUTE, MULHEIM, WEST GERMANY
##OWNER=NIST Mass Spectrometry Data Center
Collection (C) 2014 copyright by the U.S. Secretary of Commerce
on behalf of the United States of America. All rights reserved.
##CAS REGISTRY NO=4737-43-3
##$NIST MASS SPEC NO=61035
##MOLFORM=C10 H20
##MW=140
##$NIST SOURCE=MSDC
##XUNITS=M/Z
##YUNITS=RELATIVE INTENSITY
##XFACTOR=1
##YFACTOR=1
##FIRSTX=27
##LASTX=140
##FIRSTY=2150
##MAXX=140
##MINX=27
##MAXY=9999
##MINY=100
##NPOINTS=36
##PEAK TABLE=(XY..XY)
27,2150 29,1410 39,2300 40,600
41,5900 42,2080 43,4910 44,200
53,1000 54,200 55,9999 56,1790
57,220 65,200 66,300 67,1800
68,5880 69,5070 70,3900 71,1720
77,200 78,100 79,200 80,200
81,500 82,200 83,800 84,500
85,100 95,110 96,800 97,7400
98,800 111,310 112,110 140,300
##END=
