##TITLE=1H-Cyclopenta[a]phenanthrene, 17-(1,5-dimethylhexyl)hexadecahydro-4,4,10,13,14-pentamethyl-, [5S-[5.alpha.,8.beta.,9.alpha.,10.beta.,13.beta.,14.alpha.,17.beta.(S*)]]-
##JCAMP-DX=4.24
##DATA TYPE=MASS SPECTRUM
##ORIGIN=CARL DJERASSI DEPT OF CHEM STANFORD UNIV STANFORD CALIF 94305
##OWNER=NIST Mass Spectrometry Data Center
Collection (C) 2014 copyright by the U.S. Secretary of Commerce
on behalf of the United States of America. All rights reserved.
##CAS REGISTRY NO=474-20-4
##$NIST MASS SPEC NO=48836
##MOLFORM=C30 H54
##MW=414
##$NIST SOURCE=MSDC
##XUNITS=M/Z
##YUNITS=RELATIVE INTENSITY
##XFACTOR=1
##YFACTOR=1
##FIRSTX=40
##LASTX=416
##FIRSTY=300
##MAXX=416
##MINX=40
##MAXY=9999
##MINY=100
##NPOINTS=111
##PEAK TABLE=(XY..XY)
40,300 41,3000 42,200 43,3700
44,100 53,400 54,200 55,3400
56,700 57,3000 58,200 67,2500
68,1100 69,4900 70,600 71,1800
77,400 79,1600 80,600 81,4200
82,2900 83,3400 84,400 85,400
91,800 92,200 93,2300 94,1300
95,4500 96,1700 97,1700 98,100
99,100 105,900 106,500 107,2700
108,1400 109,4600 110,600 111,800
119,600 120,400 121,2400 122,1100
123,3500 124,900 125,1100 131,200
133,500 134,300 135,1800 136,3200
137,3400 145,200 147,600 148,200
149,1500 150,2300 151,700 152,200
161,500 162,200 163,1400 164,500
165,700 166,100 175,700 176,300
177,2300 178,1700 179,500 189,400
190,9300 191,2200 192,400 193,200
203,600 204,600 205,200 206,100
207,200 216,100 217,700 218,1000
219,200 231,3100 232,800 233,300
245,300 258,200 259,9999 260,3100
261,1000 262,200 271,200 274,5000
275,1300 276,300 290,100 301,200
351,100 368,100 369,200 384,200
385,100 398,200 399,700 400,300
414,1400 415,600 416,200
##END=
