##TITLE=Equilin
##JCAMP-DX=4.24
##DATA TYPE=MASS SPECTRUM
##ORIGIN=O A MAMER, MCGILL UNIVERSITY, MONTREAL,
##OWNER=NIST Mass Spectrometry Data Center
Collection (C) 2014 copyright by the U.S. Secretary of Commerce
on behalf of the United States of America. All rights reserved.
##CAS REGISTRY NO=474-86-2
##$NIST MASS SPEC NO=79063
##MOLFORM=C18 H20 O2
##MW=268
##$NIST SOURCE=MSDC
##XUNITS=M/Z
##YUNITS=RELATIVE INTENSITY
##XFACTOR=1
##YFACTOR=1
##FIRSTX=15
##LASTX=270
##FIRSTY=127
##MAXX=270
##MINX=15
##MAXY=9999
##MINY=55
##NPOINTS=158
##PEAK TABLE=(XY..XY)
15,127 17,132 18,474 26,146
27,877 28,477 29,703 31,55
39,1000 40,174 41,1452 42,278
43,388 50,139 51,487 52,156
53,689 54,121 55,1294 56,112
57,348 62,81 63,389 64,175
65,475 66,185 67,598 68,115
69,317 70,185 71,64 74,86
75,179 76,396 77,893 78,225
79,511 81,514 82,368 83,487
84,174 85,146 87,83 88,159
89,589 90,216 91,1186 92,535
93,163 95,246 96,118 97,952
98,806 99,398 101,118 102,207
103,320 104,209 105,491 106,247
107,429 109,250 110,307 111,166
113,101 114,161 115,1952 116,560
117,280 119,309 120,1042 121,248
122,1176 123,215 126,150 127,822
128,1279 129,691 130,132 131,632
132,328 133,310 139,428 140,179
141,763 142,227 143,193 144,5018
145,1248 146,675 147,885 148,998
149,170 151,323 152,912 153,909
154,307 155,447 157,3891 158,2065
159,714 160,202 161,114 165,1331
166,426 167,488 168,427 169,694
170,2024 171,1156 172,664 173,152
177,241 178,337 179,429 181,1137
182,852 183,2417 184,943 185,593
186,168 189,122 193,212 194,395
195,710 196,549 197,1326 198,531
199,607 200,117 207,252 208,214
209,449 210,385 211,2793 212,1650
213,329 221,167 222,129 223,325
224,438 225,1578 226,499 227,97
235,394 239,607 240,1098 241,205
242,64 249,119 250,220 251,132
253,328 254,72 266,150 268,9999
269,2023 270,281
##END=
