##TITLE=Carbamodithioic acid, diethyl-, ethyl ester
##JCAMP-DX=4.24
##DATA TYPE=MASS SPECTRUM
##ORIGIN=F.I.ONUSKA CANADA CENTRE FOR INLAND WATERS, ONTARIO, CANADA
##OWNER=NIST Mass Spectrometry Data Center
Collection (C) 2014 copyright by the U.S. Secretary of Commerce
on behalf of the United States of America. All rights reserved.
##CAS REGISTRY NO=4740-11-8
##$NIST MASS SPEC NO=38070
##MOLFORM=C7 H15 N S2
##MW=177
##$NIST SOURCE=MSDC
##XUNITS=M/Z
##YUNITS=RELATIVE INTENSITY
##XFACTOR=1
##YFACTOR=1
##FIRSTX=29
##LASTX=177
##FIRSTY=4468
##MAXX=177
##MINX=29
##MAXY=9999
##MINY=464
##NPOINTS=29
##PEAK TABLE=(XY..XY)
29,4468 38,1277 41,1315 42,1799
43,1838 44,5319 55,1567 56,2340
57,3404 58,2340 59,1064 60,5532
61,1025 69,1006 71,1586 72,4894
73,1122 76,9999 83,716 85,774
88,4894 97,580 105,1122 116,5532
117,658 148,561 149,5319 150,464
177,4681
##END=
