##TITLE=1,1':3',1'':3'',1''':3''',1'''':3'''',1'''''-Sexiphenyl
##JCAMP-DX=4.24
##DATA TYPE=MASS SPECTRUM
##OWNER=NIST Mass Spectrometry Data Center
Collection (C) 2014 copyright by the U.S. Secretary of Commerce
on behalf of the United States of America. All rights reserved.
##CAS REGISTRY NO=4740-51-6
##$NIST MASS SPEC NO=17772
##MOLFORM=C36 H26
##MW=458
##$NIST SOURCE=MSDC
##XUNITS=M/Z
##YUNITS=RELATIVE INTENSITY
##XFACTOR=1
##YFACTOR=1
##FIRSTX=62
##LASTX=462
##FIRSTY=30
##MAXX=462
##MINX=62
##MAXY=9999
##MINY=10
##NPOINTS=257
##PEAK TABLE=(XY..XY)
62,30 63,120 64,20 65,60
67,50 68,20 69,90 70,260
71,50 72,50 74,40 75,70
76,70 77,420 78,110 79,30
81,20 82,20 83,80 84,30
87,30 88,20 89,50 91,120
92,20 95,20 97,20 98,20
103,60 105,40 112,50 113,40
114,20 115,160 119,20 125,20
126,80 127,100 128,130 129,30
138,30 139,60 141,20 149,20
150,90 151,200 152,450 153,200
154,40 157,20 162,30 163,70
164,30 165,140 166,30 167,30
169,20 170,20 174,30 175,70
176,100 177,40 178,70 179,20
181,20 182,40 185,10 187,70
188,100 189,150 190,60 191,50
194,30 195,20 200,70 201,70
202,170 203,110 204,30 205,20
206,40 207,50 208,30 209,20
211,20 212,60 213,150 214,100
215,140 216,50 217,20 218,30
220,100 221,80 222,30 223,20
224,70 225,120 226,440 227,330
228,591 229,3593 230,330 231,20
237,20 238,10 239,90 240,30
241,50 242,10 243,10 244,10
248,10 250,50 251,20 252,100
253,40 254,20 255,10 256,10
261,10 262,10 263,70 264,30
265,70 266,20 267,20 272,10
273,10 274,30 275,30 276,140
277,80 278,60 279,40 280,20
281,10 285,10 286,10 287,40
288,30 289,210 290,90 291,60
292,20 293,10 298,20 299,20
300,140 301,110 302,280 303,180
304,130 305,50 306,40 307,10
311,10 312,10 313,40 314,20
315,30 316,10 317,10 318,10
319,10 320,10 321,10 322,10
323,10 324,20 325,10 326,50
327,30 328,30 329,10 330,10
331,10 332,10 334,10 335,10
336,10 337,30 338,10 339,50
340,20 341,20 342,10 343,10
344,10 347,10 348,10 349,10
350,50 351,30 352,50 353,30
354,20 355,10 356,10 361,10
362,10 363,70 364,50 365,100
366,40 367,30 368,10 372,10
373,10 374,30 375,30 376,70
377,60 378,80 379,60 380,60
381,20 382,20 383,10 424,20
425,20 426,40 427,40 428,40
429,30 430,30 431,20 432,10
433,10 435,10 436,10 437,20
438,30 439,60 440,50 441,130
442,70 443,60 444,20 445,10
446,10 447,10 448,20 449,20
450,30 451,30 452,50 453,60
454,80 455,90 456,130 457,2600
458,9999 459,4020 460,820 461,130
462,30
##END=
