##TITLE=Propane, 1,1-dipropoxy-
##JCAMP-DX=4.24
##DATA TYPE=MASS SPECTRUM
##OWNER=NIST Mass Spectrometry Data Center
Collection (C) 2014 copyright by the U.S. Secretary of Commerce
on behalf of the United States of America. All rights reserved.
##CAS REGISTRY NO=4744-11-0
##$NIST MASS SPEC NO=5715
##MOLFORM=C9 H20 O2
##MW=160
##$NIST SOURCE=MSDC
##XUNITS=M/Z
##YUNITS=RELATIVE INTENSITY
##XFACTOR=1
##YFACTOR=1
##FIRSTX=27
##LASTX=159
##FIRSTY=1822
##MAXX=159
##MINX=27
##MAXY=9999
##MINY=20
##NPOINTS=27
##PEAK TABLE=(XY..XY)
27,1822 28,621 29,1371 30,450
31,3463 41,3633 42,1151 43,9689
44,300 45,120 47,791 55,60
57,2252 58,3033 59,9999 60,701
61,80 71,130 72,90 75,250
89,2722 100,661 101,4764 102,310
130,220 131,2292 159,20
##END=
