##TITLE=Longifolene
##JCAMP-DX=4.24
##DATA TYPE=MASS SPECTRUM
##ORIGIN=G.BRAMMER,UNIVERSITY OF TEXAS
##OWNER=NIST Mass Spectrometry Data Center
Collection (C) 2014 copyright by the U.S. Secretary of Commerce
on behalf of the United States of America. All rights reserved.
##CAS REGISTRY NO=475-20-7
##$NIST MASS SPEC NO=44015
##MOLFORM=C15 H24
##MW=204
##$NIST SOURCE=MSDC
##XUNITS=M/Z
##YUNITS=RELATIVE INTENSITY
##XFACTOR=1
##YFACTOR=1
##FIRSTX=26
##LASTX=206
##FIRSTY=200
##MAXX=206
##MINX=26
##MAXY=9999
##MINY=60
##NPOINTS=113
##PEAK TABLE=(XY..XY)
26,200 27,2770 28,610 29,3250
30,80 31,90 37,70 38,80
39,3570 40,680 41,1100 42,670
43,2600 44,70 50,170 51,1090
52,570 53,3140 54,419 55,6560
56,839 57,850 58,130 59,80
63,430 64,300 65,2230 66,839
67,4270 68,550 69,3559 72,90
73,110 75,180 76,70 77,3859
78,1430 79,6850 80,1790 81,3990
82,2630 83,1490 84,120 85,80
87,80 89,170 90,140 91,8140
92,2860 93,7980 94,9560 95,6860
96,1400 97,440 98,60 101,60
102,100 103,720 104,510 105,6990
106,3290 107,7419 108,4990 109,5430
110,1100 111,650 112,60 115,780
116,380 117,1220 118,419 119,4990
120,2850 121,4000 122,2290 123,1300
124,160 127,130 128,340 129,320
130,160 131,700 132,340 133,4860
134,2430 135,2800 136,2050 137,1430
138,360 139,70 141,80 143,80
145,460 146,180 147,3140 148,1979
149,950 150,419 159,150 160,290
161,9999 162,2400 163,130 164,140
175,2290 176,1240 177,120 189,5270
190,1090 191,80 204,4700 205,1040
206,70
##END=
