##TITLE=Naphthalene, 1,2,3,4-tetrahydro-1,1,6-trimethyl-
##JCAMP-DX=4.24
##DATA TYPE=MASS SPECTRUM
##ORIGIN=NIST Mass Spectrometry Data Center, 1990.
##OWNER=NIST Mass Spectrometry Data Center
Collection (C) 2014 copyright by the U.S. Secretary of Commerce
on behalf of the United States of America. All rights reserved.
##CAS REGISTRY NO=475-03-6
##$NIST MASS SPEC NO=113779
##MOLFORM=C13 H18
##MW=174
##$NIST SOURCE=MSDC
##XUNITS=M/Z
##YUNITS=RELATIVE INTENSITY
##XFACTOR=1
##YFACTOR=1
##FIRSTX=15
##LASTX=175
##FIRSTY=221
##MAXX=175
##MINX=15
##MAXY=9999
##MINY=68
##NPOINTS=48
##PEAK TABLE=(XY..XY)
15,221 27,319 28,391 29,318
39,467 41,322 50,102 51,354
52,103 53,173 62,68 63,279
64,193 65,309 67,136 71,297
75,94 76,137 77,589 78,217
79,221 89,145 91,724 102,141
103,179 105,681 106,74 115,1214
116,381 117,552 118,110 119,172
127,373 128,1275 129,1134 130,403
131,1376 132,157 141,472 142,326
143,440 144,748 145,181 157,237
159,9999 160,1272 174,1763 175,256
##END=
