##TITLE=1,3-Dioxolo[4,5-b]acridin-10(5H)-one, 4,11-dimethoxy-5-methyl-
##JCAMP-DX=4.24
##DATA TYPE=MASS SPECTRUM
##ORIGIN=J.H.BOWIE UNIVERSITY OF ADELAIDE, AUSTRALIA
##OWNER=NIST Mass Spectrometry Data Center
Collection (C) 2014 copyright by the U.S. Secretary of Commerce
on behalf of the United States of America. All rights reserved.
##CAS REGISTRY NO=475-91-2
##$NIST MASS SPEC NO=14812
##MOLFORM=C17 H15 N O5
##MW=313
##$NIST SOURCE=MSDC
##XUNITS=M/Z
##YUNITS=RELATIVE INTENSITY
##XFACTOR=1
##YFACTOR=1
##FIRSTX=76
##LASTX=314
##FIRSTY=1500
##MAXX=314
##MINX=76
##MAXY=9999
##MINY=1100
##NPOINTS=33
##PEAK TABLE=(XY..XY)
76,1500 77,2200 102,1500 114,1600
127,1500 128,1500 129,1600 130,1400
140,1200 141,1400 142,1200 154,1400
169,2000 182,1200 184,1100 197,1200
212,1600 224,2500 225,1100 238,1200
240,2000 252,7000 253,1600 255,2800
268,3200 269,1600 270,9999 271,2200
280,4600 285,3200 298,5200 313,9999
314,2800
##END=
