##TITLE=Silicic acid (H4SiO4), tetrabutyl ester
##JCAMP-DX=4.24
##DATA TYPE=MASS SPECTRUM
##ORIGIN=Japan AIST/NIMC Database- Spectrum MS-NW-8609
##OWNER=NIST Mass Spectrometry Data Center
Collection (C) 2014 copyright by the U.S. Secretary of Commerce
on behalf of the United States of America. All rights reserved.
##CAS REGISTRY NO=4766-57-8
##$NIST MASS SPEC NO=238438
##MOLFORM=C16 H36 O4 Si
##MW=320
##$NIST SOURCE=MSDC
##XUNITS=M/Z
##YUNITS=RELATIVE INTENSITY
##XFACTOR=1
##YFACTOR=1
##FIRSTX=15
##LASTX=322
##FIRSTY=10
##MAXX=322
##MINX=15
##MAXY=9999
##MINY=10
##NPOINTS=184
##PEAK TABLE=(XY..XY)
15,10 26,20 27,259 28,119
29,639 30,10 31,139 32,10
33,10 39,129 40,20 41,959
42,99 43,309 44,20 45,199
46,10 47,20 53,40 54,30
55,2319 56,839 57,1719 58,80
59,20 60,10 61,20 62,109
63,1199 64,60 65,40 67,50
68,10 69,759 70,50 71,40
72,10 73,20 75,20 76,99
77,449 78,30 79,4259 80,219
81,199 83,20 84,10 85,20
87,30 88,10 89,269 90,60
91,159 92,90 93,1999 94,129
95,129 97,1049 98,70 99,119
100,30 101,149 102,30 103,319
104,40 105,459 106,40 107,759
108,60 109,369 110,20 111,619
112,40 113,50 114,10 115,90
116,20 117,449 118,50 119,449
120,50 121,189 122,20 123,2609
124,199 125,189 126,10 127,10
129,30 130,10 131,239 132,30
133,299 134,50 135,1269 136,119
137,599 138,50 139,30 143,10
145,70 146,10 147,229 148,30
149,1269 150,129 151,559 152,70
153,449 154,40 155,20 157,10
159,50 160,10 161,129 162,20
163,319 164,40 165,2479 166,269
167,149 168,10 171,10 173,139
174,20 175,169 176,40 177,209
178,30 179,799 180,99 181,40
187,10 189,50 190,20 191,539
192,80 193,80 194,10 203,70
204,10 205,1609 206,249 207,479
208,90 209,229 210,30 211,10
215,10 217,10 219,90 220,20
221,2219 222,339 223,119 224,10
233,99 234,20 235,309 236,50
237,20 245,10 246,10 247,1279
248,239 249,99 250,10 261,20
263,889 264,219 265,429 266,80
267,20 275,30 277,9999 278,1979
279,589 280,70 291,70 292,10
319,139 320,159 321,40 322,10
##END=
