##TITLE=N-(m-Nitrophenyl)benzamide
##JCAMP-DX=4.24
##DATA TYPE=MASS SPECTRUM
##ORIGIN=NIST Mass Spectrometry Data Center, 1994
##OWNER=NIST Mass Spectrometry Data Center
Collection (C) 2014 copyright by the U.S. Secretary of Commerce
on behalf of the United States of America. All rights reserved.
##CAS REGISTRY NO=4771-08-8
##$NIST MASS SPEC NO=135584
##MOLFORM=C13 H10 N2 O3
##MW=242
##$NIST SOURCE=MSDC
##XUNITS=M/Z
##YUNITS=RELATIVE INTENSITY
##XFACTOR=1
##YFACTOR=1
##FIRSTX=16
##LASTX=244
##FIRSTY=21
##MAXX=244
##MINX=16
##MAXY=9999
##MINY=11
##NPOINTS=53
##PEAK TABLE=(XY..XY)
16,21 18,24 27,38 28,41
30,215 37,62 38,231 39,287
40,53 41,76 46,24 50,594
51,1849 52,299 53,78 54,56
55,11 61,32 62,131 63,473
64,460 65,149 66,17 73,17
74,107 75,177 76,17 77,5787
78,397 79,53 80,25 84,12
88,20 89,34 90,65 91,160
92,32 102,15 105,9999 106,834
107,52 115,19 137,40 139,35
140,22 166,41 167,32 195,43
212,75 226,37 242,1123 243,171
244,11
##END=
