##TITLE=Pseudococaine
##JCAMP-DX=4.24
##DATA TYPE=MASS SPECTRUM
##ORIGIN=Patti Price, Georgia Bureau of Investigation, Decatur, Georgia
##OWNER=NIST Mass Spectrometry Data Center
Collection (C) 2014 copyright by the U.S. Secretary of Commerce
on behalf of the United States of America. All rights reserved.
##CAS REGISTRY NO=478-73-9
##$NIST MASS SPEC NO=248638
##MOLFORM=C17 H21 N O4
##MW=303
##$NIST SOURCE=MSDC
##XUNITS=M/Z
##YUNITS=RELATIVE INTENSITY
##XFACTOR=1
##YFACTOR=1
##FIRSTX=41
##LASTX=305
##FIRSTY=290
##MAXX=305
##MINX=41
##MAXY=9999
##MINY=10
##NPOINTS=123
##PEAK TABLE=(XY..XY)
41,290 42,1040 43,90 44,180
45,40 47,30 48,10 49,10
50,150 51,560 52,60 53,170
54,110 55,380 56,170 57,220
58,50 59,290 60,10 63,10
64,10 65,210 66,90 67,430
68,420 69,140 70,170 71,60
72,10 73,10 74,40 75,40
76,140 77,2532 78,240 79,280
80,290 81,1030 82,9999 83,3863
84,310 85,140 87,30 91,380
92,80 93,310 94,1501 95,270
96,2242 97,1000 98,90 99,20
100,110 101,20 103,10 104,20
105,2362 106,230 107,130 108,360
109,90 110,110 111,20 112,10
113,10 114,20 115,10 117,20
118,40 119,300 120,170 121,60
122,710 123,130 124,60 125,30
126,30 127,10 128,10 129,10
132,10 133,30 134,10 135,50
136,10 137,10 138,150 139,20
140,110 141,10 147,10 148,40
149,20 150,250 151,60 152,1391
153,250 154,100 155,190 156,20
164,10 166,180 167,20 168,10
179,20 180,80 181,390 182,7777
183,850 184,50 198,1151 199,130
200,20 207,10 222,10 244,40
259,10 272,500 273,90 274,10
303,1561 304,350 305,40
##END=
