##TITLE=Lysergamide
##JCAMP-DX=4.24
##DATA TYPE=MASS SPECTRUM
##ORIGIN=Drug Lab
##OWNER=NIST Mass Spectrometry Data Center
Collection (C) 2014 copyright by the U.S. Secretary of Commerce
on behalf of the United States of America. All rights reserved.
##CAS REGISTRY NO=478-94-4
##$NIST MASS SPEC NO=379951
##MOLFORM=C16 H17 N3 O
##MW=267
##$NIST SOURCE=MSDC
##XUNITS=M/Z
##YUNITS=RELATIVE INTENSITY
##XFACTOR=1
##YFACTOR=1
##FIRSTX=29
##LASTX=269
##FIRSTY=10
##MAXX=269
##MINX=29
##MAXY=9999
##MINY=10
##NPOINTS=169
##PEAK TABLE=(XY..XY)
29,10 30,60 36,30 38,30
39,120 40,30 41,120 42,811
43,170 44,921 45,60 50,80
51,160 52,80 53,50 54,40
55,90 56,60 57,70 58,30
59,20 62,80 63,230 64,20
65,60 66,10 67,50 68,80
69,60 70,150 71,70 72,340
73,90 74,110 75,290 76,310
77,320 78,50 79,30 81,100
82,150 83,100 84,290 85,20
86,50 87,130 88,90 89,360
90,50 91,40 93,60 94,70
96,280 97,210 98,100 99,100
100,70 101,150 102,230 103,450
104,230 105,10 110,1081 111,1141
112,490 113,160 114,100 115,260
116,80 117,120 119,10 123,10
124,80 125,260 126,450 127,1161
128,280 129,90 130,110 131,20
133,20 134,20 135,20 137,120
138,110 139,480 140,380 141,170
142,90 143,50 144,30 147,20
149,100 150,571 151,1291 152,1682
153,1251 154,3013 155,601 156,80
161,50 162,50 163,250 164,430
165,661 166,611 167,1732 168,571
169,130 170,10 175,50 176,150
177,330 178,1932 179,2112 180,4084
181,2322 182,721 183,150 184,30
188,20 189,70 190,210 191,861
192,1942 193,881 194,631 195,961
196,2793 197,460 198,20 203,90
204,150 205,1832 206,1521 207,5225
208,1351 209,1391 210,230 211,40
216,40 217,40 218,50 219,330
220,1341 221,5715 222,1571 223,2292
224,1541 225,250 226,10 231,10
232,50 233,100 234,60 235,200
236,60 237,20 248,110 249,510
250,871 251,200 252,150 253,30
265,40 266,621 267,9999 268,1952
269,200
##END=
