##TITLE=1-Naphthalenemethanol
##JCAMP-DX=4.24
##DATA TYPE=MASS SPECTRUM
##ORIGIN=NIST Mass Spectrometry Data Center, 1990.
##OWNER=NIST Mass Spectrometry Data Center
Collection (C) 2014 copyright by the U.S. Secretary of Commerce
on behalf of the United States of America. All rights reserved.
##CAS REGISTRY NO=4780-79-4
##$NIST MASS SPEC NO=113323
##MOLFORM=C11 H10 O
##MW=158
##$NIST SOURCE=MSDC
##XUNITS=M/Z
##YUNITS=RELATIVE INTENSITY
##XFACTOR=1
##YFACTOR=1
##FIRSTX=27
##LASTX=159
##FIRSTY=124
##MAXX=159
##MINX=27
##MAXY=9999
##MINY=44
##NPOINTS=54
##PEAK TABLE=(XY..XY)
27,124 28,190 29,343 31,186
38,130 39,305 50,519 51,842
52,142 53,59 58,107 61,149
62,470 63,1025 64,307 65,132
70,160 74,829 75,849 76,531
77,1019 78,395 85,89 86,289
87,413 88,144 89,337 91,62
97,44 98,303 99,177 100,142
101,545 102,735 103,168 111,63
113,180 115,1708 116,191 126,1152
127,3346 128,4958 129,9999 130,1491
131,119 139,861 140,572 141,1412
142,261 155,252 156,241 157,1118
158,4225 159,517
##END=
