##TITLE=2-Butene, 1-bromo-
##JCAMP-DX=4.24
##DATA TYPE=MASS SPECTRUM
##ORIGIN=Japan AIST/NIMC Database- Spectrum MS-NW-2641
##OWNER=NIST Mass Spectrometry Data Center
Collection (C) 2014 copyright by the U.S. Secretary of Commerce
on behalf of the United States of America. All rights reserved.
##CAS REGISTRY NO=4784-77-4
##$NIST MASS SPEC NO=230488
##MOLFORM=C4 H7 Br
##MW=134
##$NIST SOURCE=MSDC
##XUNITS=M/Z
##YUNITS=RELATIVE INTENSITY
##XFACTOR=1
##YFACTOR=1
##FIRSTX=14
##LASTX=137
##FIRSTY=10
##MAXX=137
##MINX=14
##MAXY=9999
##MINY=10
##NPOINTS=41
##PEAK TABLE=(XY..XY)
14,10 15,30 18,20 25,20
26,299 27,1839 28,359 29,3059
30,70 36,30 37,60 38,139
39,1529 40,189 41,99 43,10
49,50 50,229 51,249 52,129
53,959 54,509 55,9999 56,449
57,10 79,50 80,60 81,50
82,50 90,10 93,20 95,10
106,20 107,10 108,20 119,30
121,30 134,369 135,20 136,339
137,10
##END=
