##TITLE=1,3-Cyclopentadiene, 1,2-dimethyl-
##JCAMP-DX=4.24
##DATA TYPE=MASS SPECTRUM
##ORIGIN=A.G. HARRISON, UNIV. OF TORONTO, TORONTO 5, ONTARIO, CANADA
##OWNER=NIST Mass Spectrometry Data Center
Collection (C) 2014 copyright by the U.S. Secretary of Commerce
on behalf of the United States of America. All rights reserved.
##CAS REGISTRY NO=4784-86-5
##$NIST MASS SPEC NO=800
##MOLFORM=C7 H10
##MW=94
##$NIST SOURCE=MSDC
##XUNITS=M/Z
##YUNITS=RELATIVE INTENSITY
##XFACTOR=1
##YFACTOR=1
##FIRSTX=27
##LASTX=94
##FIRSTY=1114
##MAXX=94
##MINX=27
##MAXY=9999
##MINY=281
##NPOINTS=15
##PEAK TABLE=(XY..XY)
27,1114 39,2727 41,544 51,1139
52,522 53,762 65,588 66,370
77,5031 78,869 79,9999 91,2349
92,281 93,1743 94,5431
##END=
