##TITLE=2-Butenenitrile
##JCAMP-DX=4.24
##DATA TYPE=MASS SPECTRUM
##ORIGIN=Japan AIST/NIMC Database- Spectrum MS-NW- 900
##OWNER=NIST Mass Spectrometry Data Center
Collection (C) 2014 copyright by the U.S. Secretary of Commerce
on behalf of the United States of America. All rights reserved.
##CAS REGISTRY NO=4786-20-3
##$NIST MASS SPEC NO=230526
##MOLFORM=C4 H5 N
##MW=67
##$NIST SOURCE=MSDC
##XUNITS=M/Z
##YUNITS=RELATIVE INTENSITY
##XFACTOR=1
##YFACTOR=1
##FIRSTX=12
##LASTX=68
##FIRSTY=40
##MAXX=68
##MINX=12
##MAXY=9999
##MINY=20
##NPOINTS=35
##PEAK TABLE=(XY..XY)
12,40 13,20 14,50 15,159
24,30 25,129 26,499 27,1859
28,739 29,30 31,50 32,179
33,40 36,209 37,1479 38,1829
39,4299 40,2519 41,9999 42,279
43,20 48,30 49,80 50,159
51,409 52,1029 53,40 54,20
62,169 63,429 64,979 65,309
66,1789 67,5379 68,269
##END=
