##TITLE=trans-1,4-Di-tert-butyl-cyclohexane
##JCAMP-DX=4.24
##DATA TYPE=MASS SPECTRUM
##ORIGIN=V.G.Zaikin, TIPS, Russian Acad. Sci.
##OWNER=NIST Mass Spectrometry Data Center
Collection (C) 2014 copyright by the U.S. Secretary of Commerce
on behalf of the United States of America. All rights reserved.
##CAS REGISTRY NO=4789-35-9
##$NIST MASS SPEC NO=215439
##MOLFORM=C14 H28
##MW=196
##$NIST SOURCE=MSDC
##XUNITS=M/Z
##YUNITS=RELATIVE INTENSITY
##XFACTOR=1
##YFACTOR=1
##FIRSTX=41
##LASTX=197
##FIRSTY=2302
##MAXX=197
##MINX=41
##MAXY=9999
##MINY=11
##NPOINTS=16
##PEAK TABLE=(XY..XY)
41,2302 43,900 55,1601 56,5304
57,9999 67,6706 69,1701 81,600
97,400 111,300 125,500 138,500
139,600 140,500 196,100 197,11
##END=
