##TITLE=Dyphylline
##JCAMP-DX=4.24
##DATA TYPE=MASS SPECTRUM
##ORIGIN=Japan AIST/NIMC Database- Spectrum MS-NW-9979
##OWNER=NIST Mass Spectrometry Data Center
Collection (C) 2014 copyright by the U.S. Secretary of Commerce
on behalf of the United States of America. All rights reserved.
##CAS REGISTRY NO=479-18-5
##$NIST MASS SPEC NO=239172
##MOLFORM=C10 H14 N4 O4
##MW=254
##$NIST SOURCE=MSDC
##XUNITS=M/Z
##YUNITS=RELATIVE INTENSITY
##XFACTOR=1
##YFACTOR=1
##FIRSTX=14
##LASTX=257
##FIRSTY=10
##MAXX=257
##MINX=14
##MAXY=9999
##MINY=10
##NPOINTS=147
##PEAK TABLE=(XY..XY)
14,10 15,449 17,30 18,159
19,80 26,20 27,159 28,469
29,249 30,109 31,329 32,10
38,20 39,70 40,319 41,689
42,1129 43,459 44,119 45,119
51,20 52,139 53,409 54,439
55,699 56,289 57,389 58,159
60,10 61,199 64,10 65,50
66,239 67,799 68,1269 69,359
70,379 71,30 72,30 73,10
74,10 75,10 77,20 78,20
79,129 80,199 81,1139 82,749
83,239 84,60 85,10 92,20
93,109 94,429 95,3279 96,629
97,169 98,30 100,20 105,10
106,20 107,80 108,529 109,4039
110,519 111,519 112,70 113,10
118,10 120,70 121,99 122,439
123,2599 124,889 125,149 126,20
127,10 132,10 133,20 134,80
135,149 136,659 137,1879 138,979
139,99 140,50 141,40 142,10
147,10 148,40 149,129 150,139
151,619 152,299 153,50 154,20
155,10 161,30 162,80 163,60
164,50 165,399 166,4049 167,379
168,90 169,20 177,10 178,40
179,109 180,9049 181,1259 182,119
183,10 191,10 192,60 193,4279
194,9859 195,1099 196,179 197,60
198,10 203,10 205,10 206,50
207,179 208,90 209,50 210,10
218,10 219,70 220,109 221,50
222,70 223,9999 224,2129 225,249
226,30 235,40 236,2579 237,379
238,40 252,10 253,40 254,5869
255,959 256,119 257,10
##END=
