##TITLE=Julolidine
##JCAMP-DX=4.24
##DATA TYPE=MASS SPECTRUM
##ORIGIN=Chuck Anderson, Aldrich Chemical Co.
##OWNER=NIST Mass Spectrometry Data Center
Collection (C) 2014 copyright by the U.S. Secretary of Commerce
on behalf of the United States of America. All rights reserved.
##CAS REGISTRY NO=479-59-4
##$NIST MASS SPEC NO=108062
##MOLFORM=C12 H15 N
##MW=173
##$NIST SOURCE=MSDC
##XUNITS=M/Z
##YUNITS=RELATIVE INTENSITY
##XFACTOR=1
##YFACTOR=1
##FIRSTX=15
##LASTX=175
##FIRSTY=3
##MAXX=175
##MINX=15
##MAXY=9999
##MINY=3
##NPOINTS=91
##PEAK TABLE=(XY..XY)
15,3 26,30 27,223 28,144
29,41 30,15 38,37 39,359
40,39 41,173 42,58 50,79
51,227 52,91 53,59 54,20
55,16 57,49 59,161 62,69
63,290 64,123 65,374 66,48
67,20 69,14 70,9 71,101
72,562 73,217 74,53 75,89
76,115 77,656 78,354 79,135
80,3 83,15 84,218 85,203
86,260 87,369 88,34 89,277
90,118 91,432 92,41 101,46
102,141 103,180 104,83 105,23
106,3 113,31 114,45 115,744
116,265 117,562 118,148 119,3
126,21 127,138 128,287 129,178
130,890 131,238 132,91 139,45
140,52 141,140 142,562 143,484
144,3062 145,432 146,58 153,14
154,343 155,100 156,390 157,256
158,138 166,36 167,124 168,111
169,25 170,666 171,128 172,9999
173,6499 174,817 175,46
##END=
