##TITLE=Propyphenazone
##JCAMP-DX=4.24
##DATA TYPE=MASS SPECTRUM
##ORIGIN=Tox21 Consortium/NIST Mass Spectrometry Data Center, 2012
##OWNER=NIST Mass Spectrometry Data Center
Collection (C) 2014 copyright by the U.S. Secretary of Commerce
on behalf of the United States of America. All rights reserved.
##CAS REGISTRY NO=479-92-5
##$NIST MASS SPEC NO=408684
##MOLFORM=C14 H18 N2 O
##MW=230
##$NIST SOURCE=MSDC
##XUNITS=M/Z
##YUNITS=RELATIVE INTENSITY
##XFACTOR=1
##YFACTOR=1
##FIRSTX=15
##LASTX=232
##FIRSTY=100
##MAXX=232
##MINX=15
##MAXY=9999
##MINY=10
##NPOINTS=155
##PEAK TABLE=(XY..XY)
15,100 26,10 27,190 28,170
29,170 30,90 37,20 38,80
39,631 40,130 41,751 42,550
43,290 44,40 45,10 50,120
51,741 52,160 53,460 54,240
55,460 56,4214 57,160 58,50
61,10 62,30 63,200 64,300
65,510 66,270 67,641 68,180
69,90 70,20 71,10 72,10
73,10 74,20 75,30 76,70
77,2132 78,220 79,210 80,270
81,490 82,370 83,110 84,70
85,10 86,10 88,10 89,30
90,40 91,330 92,250 93,230
94,460 95,320 96,1111 97,110
98,40 99,10 100,260 102,20
103,80 104,210 105,120 106,210
107,190 109,120 110,150 111,30
112,60 113,10 114,10 115,180
116,50 117,80 118,180 119,120
120,120 121,140 122,861 123,220
124,40 125,30 126,10 127,30
128,120 129,80 130,260 131,130
132,70 133,30 134,10 135,10
136,50 137,60 138,420 139,40
140,10 141,20 142,30 143,100
144,130 145,50 146,60 147,110
148,20 149,10 153,40 154,40
155,30 156,90 157,80 158,100
159,50 160,40 161,10 167,10
168,10 169,20 170,30 171,100
172,300 173,80 174,30 175,10
182,10 183,20 184,30 185,210
186,60 187,150 188,30 189,20
197,20 198,10 199,140 200,90
201,440 202,120 203,50 204,10
211,10 213,40 215,9999 216,1431
217,120 218,10 227,10 229,120
230,4004 231,641 232,50
##END=
