##TITLE=1,3-Isobenzofurandione, 4-methyl-
##JCAMP-DX=4.24
##DATA TYPE=MASS SPECTRUM
##ORIGIN=Japan AIST/NIMC Database- Spectrum MS-IW-3878
##OWNER=NIST Mass Spectrometry Data Center
Collection (C) 2014 copyright by the U.S. Secretary of Commerce
on behalf of the United States of America. All rights reserved.
##CAS REGISTRY NO=4792-30-7
##$NIST MASS SPEC NO=236487
##MOLFORM=C9 H6 O3
##MW=162
##$NIST SOURCE=MSDC
##XUNITS=M/Z
##YUNITS=RELATIVE INTENSITY
##XFACTOR=1
##YFACTOR=1
##FIRSTX=15
##LASTX=164
##FIRSTY=10
##MAXX=164
##MINX=15
##MAXY=9999
##MINY=10
##NPOINTS=71
##PEAK TABLE=(XY..XY)
15,10 25,10 26,70 27,119
28,149 29,30 31,20 36,30
37,309 38,439 39,809 40,129
42,30 43,419 44,219 45,559
48,20 49,179 50,519 51,509
52,159 53,119 57,10 58,50
59,119 60,60 61,419 62,1019
63,2389 64,949 65,70 66,40
67,80 72,10 73,99 74,369
75,349 76,109 77,259 78,529
79,50 84,50 85,159 86,269
87,219 88,129 89,3079 90,5969
91,459 92,70 101,10 103,10
104,20 105,509 106,649 107,50
111,10 116,119 117,60 118,4969
119,459 120,30 132,20 133,50
134,3329 135,299 136,20 161,50
162,9999 163,1079 164,109
##END=
