##TITLE=7-Benzoyloxybicyclo[2.2.1]hepta-2,5-diene
##JCAMP-DX=4.24
##DATA TYPE=MASS SPECTRUM
##ORIGIN=NIST Mass Spectrometry Data Center, 1994
##OWNER=NIST Mass Spectrometry Data Center
Collection (C) 2014 copyright by the U.S. Secretary of Commerce
on behalf of the United States of America. All rights reserved.
##CAS REGISTRY NO=4796-68-3
##$NIST MASS SPEC NO=135466
##MOLFORM=C14 H12 O2
##MW=212
##$NIST SOURCE=MSDC
##XUNITS=M/Z
##YUNITS=RELATIVE INTENSITY
##XFACTOR=1
##YFACTOR=1
##FIRSTX=4
##LASTX=213
##FIRSTY=2
##MAXX=213
##MINX=4
##MAXY=9999
##MINY=2
##NPOINTS=47
##PEAK TABLE=(XY..XY)
4,2 12,8 18,13 25,6
26,93 27,422 28,60 29,128
37,51 38,186 39,900 40,48
41,44 44,7 50,713 51,1937
52,319 53,148 54,10 55,5
61,21 62,82 63,214 64,57
65,566 66,35 74,100 75,90
77,3970 78,501 79,166 80,9
86,8 87,7 89,91 90,44
91,417 92,37 102,6 105,9999
106,738 107,67 147,5 167,10
194,7 212,65 213,10
##END=
