##TITLE=4-Hexen-3-ol
##JCAMP-DX=4.24
##DATA TYPE=MASS SPECTRUM
##ORIGIN=NIST Mass Spectrometry Data Center, 1990.
##OWNER=NIST Mass Spectrometry Data Center
Collection (C) 2014 copyright by the U.S. Secretary of Commerce
on behalf of the United States of America. All rights reserved.
##CAS REGISTRY NO=4798-58-7
##$NIST MASS SPEC NO=113677
##MOLFORM=C6 H12 O
##MW=100
##$NIST SOURCE=MSDC
##XUNITS=M/Z
##YUNITS=RELATIVE INTENSITY
##XFACTOR=1
##YFACTOR=1
##FIRSTX=14
##LASTX=100
##FIRSTY=256
##MAXX=100
##MINX=14
##MAXY=9999
##MINY=253
##NPOINTS=27
##PEAK TABLE=(XY..XY)
14,256 15,263 26,321 27,1687
28,1061 29,1415 31,689 38,337
39,2134 40,422 41,3150 42,548
43,3854 51,402 53,1614 54,271
55,593 57,830 65,323 67,1174
69,604 71,9999 72,681 79,253
82,377 85,1447 100,507
##END=
