##TITLE=Ethanone, 1-(2,4,6-trihydroxyphenyl)-
##JCAMP-DX=4.24
##DATA TYPE=MASS SPECTRUM
##ORIGIN=Japan AIST/NIMC Database- Spectrum MS-NW-7359
##OWNER=NIST Mass Spectrometry Data Center
Collection (C) 2014 copyright by the U.S. Secretary of Commerce
on behalf of the United States of America. All rights reserved.
##CAS REGISTRY NO=480-66-0
##$NIST MASS SPEC NO=236238
##MOLFORM=C8 H8 O4
##MW=168
##$NIST SOURCE=MSDC
##XUNITS=M/Z
##YUNITS=RELATIVE INTENSITY
##XFACTOR=1
##YFACTOR=1
##FIRSTX=14
##LASTX=170
##FIRSTY=10
##MAXX=170
##MINX=14
##MAXY=9999
##MINY=10
##NPOINTS=96
##PEAK TABLE=(XY..XY)
14,10 15,50 18,20 25,10
26,50 27,159 28,50 29,159
31,20 37,80 38,149 39,419
40,80 41,529 42,219 43,1219
44,40 45,30 46,20 47,20
48,10 49,50 50,219 51,319
52,90 53,309 54,99 55,399
56,30 57,10 60,10 61,50
62,90 63,70 64,30 65,129
66,139 67,349 68,70 69,1109
70,169 71,40 73,10 74,20
75,30 76,129 77,60 78,70
79,159 80,40 81,50 82,30
83,159 84,189 85,119 86,10
87,10 92,10 93,90 94,30
95,70 96,139 97,209 98,199
99,20 107,20 108,30 109,30
110,20 111,279 112,20 113,10
121,139 122,30 123,10 124,159
125,60 126,90 127,10 129,10
135,20 137,10 139,199 140,30
149,20 150,70 151,10 152,40
153,9999 154,839 155,119 156,10
167,20 168,4299 169,409 170,70
##END=
