##TITLE=Benzofuroxan
##JCAMP-DX=4.24
##DATA TYPE=MASS SPECTRUM
##ORIGIN=GFS Chemicals / NIST MS Data Center.
##OWNER=NIST Mass Spectrometry Data Center
Collection (C) 2014 copyright by the U.S. Secretary of Commerce
on behalf of the United States of America. All rights reserved.
##CAS REGISTRY NO=480-96-6
##$NIST MASS SPEC NO=125324
##MOLFORM=C6 H4 N2 O2
##MW=136
##$NIST SOURCE=MSDC
##XUNITS=M/Z
##YUNITS=RELATIVE INTENSITY
##XFACTOR=1
##YFACTOR=1
##FIRSTX=12
##LASTX=138
##FIRSTY=37
##MAXX=138
##MINX=12
##MAXY=9999
##MINY=23
##NPOINTS=57
##PEAK TABLE=(XY..XY)
12,37 18,42 24,37 25,86
26,300 27,1114 28,872 29,37
30,3132 32,150 36,163 37,1050
38,1134 39,1162 40,127 44,45
48,78 49,580 50,6308 51,7039
52,1750 53,89 55,23 60,117
61,459 62,615 63,1178 64,754
65,111 66,30 72,46 73,371
74,1799 75,1326 76,5434 77,557
78,1618 79,119 80,57 86,67
87,114 88,130 89,46 90,1146
91,82 92,74 93,23 104,57
105,64 106,344 107,23 120,846
121,88 122,32 136,9999 137,747
138,97
##END=
