##TITLE=Platyphylline
##JCAMP-DX=4.24
##DATA TYPE=MASS SPECTRUM
##ORIGIN=P. SCHMID, INST. TOXIKOL., UNIV. ZURICH, SCHWERZENBACH, SWITZ.
##OWNER=NIST Mass Spectrometry Data Center
Collection (C) 2014 copyright by the U.S. Secretary of Commerce
on behalf of the United States of America. All rights reserved.
##CAS REGISTRY NO=480-78-4
##$NIST MASS SPEC NO=103695
##MOLFORM=C18 H27 N O5
##MW=337
##$NIST SOURCE=MSDC
##XUNITS=M/Z
##YUNITS=RELATIVE INTENSITY
##XFACTOR=1
##YFACTOR=1
##FIRSTX=43
##LASTX=337
##FIRSTY=2450
##MAXX=337
##MINX=43
##MAXY=9999
##MINY=20
##NPOINTS=30
##PEAK TABLE=(XY..XY)
43,2450 44,1650 53,680 55,1710
67,570 68,640 81,890 82,6730
83,900 95,1210 96,2670 108,1310
109,690 120,810 122,6500 123,4770
125,1050 138,6120 139,830 140,9999
141,1000 156,160 168,60 180,510
210,20 211,4040 212,230 222,230
226,510 337,1000
##END=
