##TITLE=Acenaphthylene, 1,2,2a,3,4,5-hexahydro-
##JCAMP-DX=4.24
##DATA TYPE=MASS SPECTRUM
##ORIGIN=NIST Mass Spectrometry Data Center, 1990.
##OWNER=NIST Mass Spectrometry Data Center
Collection (C) 2014 copyright by the U.S. Secretary of Commerce
on behalf of the United States of America. All rights reserved.
##CAS REGISTRY NO=480-72-8
##$NIST MASS SPEC NO=118578
##MOLFORM=C12 H14
##MW=158
##$NIST SOURCE=MSDC
##XUNITS=M/Z
##YUNITS=RELATIVE INTENSITY
##XFACTOR=1
##YFACTOR=1
##FIRSTX=14
##LASTX=160
##FIRSTY=28
##MAXX=160
##MINX=14
##MAXY=9999
##MINY=16
##NPOINTS=78
##PEAK TABLE=(XY..XY)
14,28 15,145 26,195 27,701
28,309 29,163 37,48 38,242
39,1078 40,146 41,303 42,19
44,22 50,498 51,1029 52,226
53,190 54,21 57,135 61,81
62,354 63,913 64,510 65,536
66,52 70,242 74,321 75,367
76,555 77,846 78,322 79,100
85,21 86,116 87,150 88,93
89,333 90,71 91,501 92,39
98,72 99,53 100,34 101,120
102,408 103,165 104,48 105,24
110,16 111,19 113,98 115,3151
116,624 117,236 118,26 126,253
127,985 128,2473 129,4642 130,9999
131,1078 132,64 139,111 141,530
142,295 143,186 144,24 150,43
151,108 152,231 153,223 154,83
155,152 156,24 157,842 158,2101
159,251 160,23
##END=
