##TITLE=Integerrimine
##JCAMP-DX=4.24
##DATA TYPE=MASS SPECTRUM
##ORIGIN=P. SCHMID, INST. TOXIKOL., UNIV. ZURICH, SCHWERZENBACH, SWITZ.
##OWNER=NIST Mass Spectrometry Data Center
Collection (C) 2014 copyright by the U.S. Secretary of Commerce
on behalf of the United States of America. All rights reserved.
##CAS REGISTRY NO=480-79-5
##$NIST MASS SPEC NO=103696
##MOLFORM=C18 H25 N O5
##MW=335
##$NIST SOURCE=MSDC
##XUNITS=M/Z
##YUNITS=RELATIVE INTENSITY
##XFACTOR=1
##YFACTOR=1
##FIRSTX=41
##LASTX=336
##FIRSTY=1300
##MAXX=336
##MINX=41
##MAXY=9999
##MINY=20
##NPOINTS=44
##PEAK TABLE=(XY..XY)
41,1300 43,5520 53,1740 54,750
55,1010 67,800 80,2200 81,920
93,8340 94,5100 95,6450 106,1020
108,780 109,1750 119,9999 120,8340
121,6170 136,6400 137,1360 138,3230
139,820 152,190 153,590 154,130
163,80 165,240 177,60 179,40
193,20 194,20 207,60 210,30
211,40 220,1300 221,100 246,290
247,40 248,510 257,20 290,30
291,510 292,20 335,210 336,20
##END=
