##TITLE=Carbonochloridic acid, 2-bromoethyl ester
##JCAMP-DX=4.24
##DATA TYPE=MASS SPECTRUM
##ORIGIN=Japan AIST/NIMC Database- Spectrum MS-IW-1570
##OWNER=NIST Mass Spectrometry Data Center
Collection (C) 2014 copyright by the U.S. Secretary of Commerce
on behalf of the United States of America. All rights reserved.
##CAS REGISTRY NO=4801-27-8
##$NIST MASS SPEC NO=238582
##MOLFORM=C3 H4 Br Cl O2
##MW=186
##$NIST SOURCE=MSDC
##XUNITS=M/Z
##YUNITS=RELATIVE INTENSITY
##XFACTOR=1
##YFACTOR=1
##FIRSTX=12
##LASTX=169
##FIRSTY=10
##MAXX=169
##MINX=12
##MAXY=9999
##MINY=10
##NPOINTS=63
##PEAK TABLE=(XY..XY)
12,10 13,20 14,139 15,379
16,20 25,80 26,719 27,7559
28,889 29,589 30,179 31,179
35,179 36,99 37,60 38,30
41,50 42,149 43,259 44,909
45,189 47,20 49,99 51,30
60,10 61,20 62,99 63,7339
64,119 65,2359 66,20 71,50
75,90 76,80 79,219 80,90
81,349 82,90 83,70 89,50
91,60 92,70 93,1649 94,209
95,959 96,129 97,20 104,20
105,90 106,9999 107,5229 108,9849
109,4849 110,109 121,169 122,10
123,169 124,10 125,10 142,30
144,30 155,10 169,10
##END=
