##TITLE=Cyclobutane, ethyl-
##JCAMP-DX=4.24
##DATA TYPE=MASS SPECTRUM
##OWNER=NIST Mass Spectrometry Data Center
Collection (C) 2014 copyright by the U.S. Secretary of Commerce
on behalf of the United States of America. All rights reserved.
##CAS REGISTRY NO=4806-61-5
##$NIST MASS SPEC NO=504
##MOLFORM=C6 H12
##MW=84
##$NIST SOURCE=MSDC
##XUNITS=M/Z
##YUNITS=RELATIVE INTENSITY
##XFACTOR=1
##YFACTOR=1
##FIRSTX=1
##LASTX=85
##FIRSTY=50
##MAXX=85
##MINX=1
##MAXY=9999
##MINY=20
##NPOINTS=33
##PEAK TABLE=(XY..XY)
1,50 14,50 15,370 25,20
26,430 27,2512 28,1451 29,1261
37,80 38,180 39,1812 40,470
41,6496 42,1571 43,751 44,20
49,30 50,150 51,200 52,80
53,360 54,390 55,2452 56,9999
57,460 63,20 65,30 67,70
68,50 69,1151 70,60 84,280
85,20
##END=
