##TITLE=Epiandrosterone
##JCAMP-DX=4.24
##DATA TYPE=MASS SPECTRUM
##ORIGIN=Drug Lab
##OWNER=NIST Mass Spectrometry Data Center
Collection (C) 2014 copyright by the U.S. Secretary of Commerce
on behalf of the United States of America. All rights reserved.
##CAS REGISTRY NO=481-29-8
##$NIST MASS SPEC NO=335416
##MOLFORM=C19 H30 O2
##MW=290
##$NIST SOURCE=MSDC
##XUNITS=M/Z
##YUNITS=RELATIVE INTENSITY
##XFACTOR=1
##YFACTOR=1
##FIRSTX=40
##LASTX=293
##FIRSTY=280
##MAXX=293
##MINX=40
##MAXY=9999
##MINY=10
##NPOINTS=217
##PEAK TABLE=(XY..XY)
40,280 41,4214 42,470 43,1782
44,300 45,110 50,30 51,200
52,140 53,1782 54,520 55,4994
56,440 57,1872 58,150 59,100
60,10 61,10 62,10 63,40
64,30 65,831 66,390 67,4644
68,881 69,1211 70,370 71,210
72,30 74,40 75,20 77,2152
78,530 79,4744 80,931 81,3463
82,801 83,791 84,150 85,140
86,20 87,50 88,50 89,40
91,4314 92,921 93,4504 94,1651
95,2823 96,611 97,2742 98,240
99,50 100,10 101,80 102,50
103,280 104,250 105,3283 106,1892
107,7397 108,6396 109,2652 110,1872
111,621 112,80 113,20 114,10
115,490 116,170 117,841 118,430
119,2352 120,1902 121,2432 122,1992
123,1531 124,2702 125,571 126,80
127,70 128,230 129,390 130,180
131,1431 132,520 133,2002 134,1431
135,1351 136,1421 137,711 138,340
139,60 140,10 141,110 142,90
143,420 144,330 145,1732 146,1141
147,3513 148,1521 149,1301 150,500
151,951 152,300 153,80 154,20
155,80 156,50 157,380 158,330
159,1211 160,821 161,1431 162,671
163,540 164,1391 165,1742 166,550
167,110 168,20 169,70 170,40
171,320 172,220 173,971 174,550
175,751 176,581 177,480 178,280
179,100 180,20 181,20 182,10
183,130 184,40 185,210 186,180
187,571 188,300 189,420 190,1391
191,520 192,140 193,50 194,40
195,10 197,200 198,60 199,370
200,170 201,1531 202,330 203,160
204,130 205,110 206,90 207,10
208,10 211,80 212,70 213,1321
214,320 215,1581 216,1371 217,581
218,340 219,631 220,140 221,20
225,40 226,30 227,30 228,601
229,420 230,250 231,891 232,280
233,761 234,571 235,100 236,10
237,10 239,1732 240,340 241,50
243,90 244,100 246,3153 247,751
248,220 249,40 253,30 254,861
255,210 256,20 257,1722 258,320
259,40 261,20 262,100 263,20
270,10 271,50 272,1171 273,240
274,50 275,1451 276,280 277,40
288,50 290,9999 291,2102 292,250
293,20
##END=
