##TITLE=Cholestane
##JCAMP-DX=4.24
##DATA TYPE=MASS SPECTRUM
##ORIGIN=Japan AIST/NIMC Database- Spectrum MS-NW-6958
##OWNER=NIST Mass Spectrometry Data Center
Collection (C) 2014 copyright by the U.S. Secretary of Commerce
on behalf of the United States of America. All rights reserved.
##CAS REGISTRY NO=481-21-0
##$NIST MASS SPEC NO=235878
##MOLFORM=C27 H48
##MW=372
##$NIST SOURCE=MSDC
##XUNITS=M/Z
##YUNITS=RELATIVE INTENSITY
##XFACTOR=1
##YFACTOR=1
##FIRSTX=27
##LASTX=375
##FIRSTY=269
##MAXX=375
##MINX=27
##MAXY=9999
##MINY=10
##NPOINTS=226
##PEAK TABLE=(XY..XY)
27,269 28,30 29,729 30,10
39,209 40,50 41,2159 42,239
43,2919 44,99 51,20 52,10
53,409 54,179 55,3129 56,299
57,1539 58,70 65,129 66,90
67,2609 68,739 69,1649 70,159
71,639 72,40 74,20 77,429
78,109 79,1469 80,399 81,3189
82,639 83,1249 84,109 85,139
86,10 87,40 88,20 89,10
91,849 92,229 93,1689 94,649
95,3329 96,489 97,859 98,70
99,30 101,40 102,20 103,40
104,40 105,579 106,259 107,1529
108,1389 109,3299 110,459 111,389
112,40 113,40 114,10 115,50
116,30 117,109 118,40 119,379
120,209 121,1679 122,1359 123,1579
124,219 125,119 126,20 127,50
128,30 129,50 130,20 131,99
132,40 133,399 134,239 135,1399
136,599 137,689 138,99 139,40
140,10 141,10 142,10 143,20
144,10 145,90 146,50 147,659
148,1119 149,4099 150,1589 151,769
152,199 153,50 154,10 155,10
156,10 157,10 158,10 159,70
160,30 161,539 162,669 163,799
164,199 165,129 166,20 167,30
168,10 171,10 173,40 174,30
175,829 176,319 177,259 178,99
179,60 180,10 181,30 184,10
185,10 187,40 188,30 189,369
190,349 191,169 192,30 193,70
194,10 201,90 202,40 203,1169
204,329 205,139 206,30 207,50
208,109 209,20 212,10 213,10
214,10 215,50 216,169 217,9999
218,6799 219,1999 220,289 221,50
222,30 223,10 228,10 229,20
230,20 231,179 232,1569 233,409
234,50 235,30 236,10 243,50
244,30 245,60 246,70 247,90
248,30 249,20 250,10 257,60
258,70 259,229 260,60 261,90
262,1159 263,299 264,60 265,10
271,20 272,10 273,20 274,10
275,99 276,99 277,20 285,10
286,10 287,99 288,30 289,80
290,30 301,30 302,60 303,20
304,10 315,139 316,60 317,40
318,10 329,20 330,20 341,10
342,20 343,70 344,30 345,10
347,10 355,20 356,20 357,3239
358,949 359,139 360,20 369,10
370,40 371,119 372,6829 373,1989
374,309 375,30
##END=
