##TITLE=.alpha.-Santonin
##JCAMP-DX=4.24
##DATA TYPE=MASS SPECTRUM
##ORIGIN=Japan AIST/NIMC Database- Spectrum MS-NW-9001
##OWNER=NIST Mass Spectrometry Data Center
Collection (C) 2014 copyright by the U.S. Secretary of Commerce
on behalf of the United States of America. All rights reserved.
##CAS REGISTRY NO=481-06-1
##$NIST MASS SPEC NO=237974
##MOLFORM=C15 H18 O3
##MW=246
##$NIST SOURCE=MSDC
##XUNITS=M/Z
##YUNITS=RELATIVE INTENSITY
##XFACTOR=1
##YFACTOR=1
##FIRSTX=15
##LASTX=249
##FIRSTY=10
##MAXX=249
##MINX=15
##MAXY=9999
##MINY=10
##NPOINTS=187
##PEAK TABLE=(XY..XY)
15,10 18,10 26,20 27,339
28,99 29,299 38,20 39,569
40,99 41,1289 42,70 43,239
44,10 45,10 50,50 51,229
52,99 53,319 54,60 55,559
56,40 57,70 58,10 62,20
63,109 64,60 65,409 66,90
67,299 68,129 69,709 70,50
71,60 72,20 73,10 74,20
75,30 76,40 77,699 78,179
79,469 80,90 81,179 82,70
83,149 84,50 85,30 86,20
87,10 88,10 89,80 90,30
91,1569 92,249 93,399 94,299
95,319 96,489 97,129 98,40
99,10 101,10 102,50 103,199
104,70 105,709 106,279 107,1039
108,679 109,239 110,90 111,90
112,20 113,10 114,10 115,419
116,159 117,359 118,129 119,809
120,469 121,1259 122,1189 123,349
124,439 125,70 126,30 127,139
128,329 129,539 130,209 131,449
132,179 133,689 134,1259 135,3029
136,539 137,90 138,99 139,50
140,20 141,119 142,99 143,239
144,279 145,1219 146,1499 147,1409
148,729 149,909 150,409 151,149
152,779 153,119 154,30 155,139
156,50 157,799 158,439 159,709
160,469 161,1219 162,959 163,1399
164,219 165,40 166,20 167,30
168,10 169,60 170,80 171,409
172,3989 173,8749 174,1519 175,2039
176,359 177,109 178,449 179,60
180,10 181,10 182,10 183,40
184,30 185,669 186,139 187,859
188,259 189,939 190,1909 191,1959
192,269 193,30 195,10 198,20
199,99 200,569 201,719 202,489
203,1769 204,299 205,40 210,10
211,10 213,279 214,40 215,30
216,20 217,279 218,919 219,139
220,10 227,20 228,339 229,119
230,30 231,3599 232,609 233,70
234,10 244,10 245,99 246,9999
247,1919 248,239 249,20
##END=
