##TITLE=Pregnane
##JCAMP-DX=4.24
##DATA TYPE=MASS SPECTRUM
##ORIGIN=CARL DJERASSI DEPT OF CHEM STANFORD UNIV STANFORD CALIF 94305
##OWNER=NIST Mass Spectrometry Data Center
Collection (C) 2014 copyright by the U.S. Secretary of Commerce
on behalf of the United States of America. All rights reserved.
##CAS REGISTRY NO=481-26-5
##$NIST MASS SPEC NO=48021
##MOLFORM=C21 H36
##MW=288
##$NIST SOURCE=MSDC
##XUNITS=M/Z
##YUNITS=RELATIVE INTENSITY
##XFACTOR=1
##YFACTOR=1
##FIRSTX=39
##LASTX=289
##FIRSTY=2200
##MAXX=289
##MINX=39
##MAXY=9999
##MINY=100
##NPOINTS=109
##PEAK TABLE=(XY..XY)
39,2200 40,5800 41,9300 42,1200
43,5700 44,1600 45,300 50,100
51,300 52,200 53,2600 54,1100
55,9999 63,100 65,900 66,500
67,7500 68,2700 69,3100 70,400
71,500 74,200 77,1900 79,4100
80,1200 81,7900 82,1300 83,1800
84,200 85,100 88,100 91,2300
92,600 93,3300 94,1300 95,6000
96,1200 97,1100 98,200 101,100
102,100 103,100 104,100 105,1300
106,500 107,2900 108,4000 109,5100
110,800 111,400 115,300 116,100
117,300 118,100 119,600 120,300
121,2500 122,2600 123,2600 124,400
125,100 128,100 129,200 130,100
131,200 133,500 134,300 135,1800
136,800 137,700 138,100 145,100
147,700 148,800 149,3300 150,2100
151,3500 152,500 159,100 161,600
162,600 163,1600 164,500 165,100
175,700 176,500 177,500 178,700
179,300 189,500 190,400 191,200
192,500 193,100 201,100 203,1100
204,400 205,100 217,6400 218,5600
219,1400 231,700 232,1500 233,300
259,100 273,3200 274,700 288,3000
289,700
##END=
