##TITLE=Plumbagin
##JCAMP-DX=4.24
##DATA TYPE=MASS SPECTRUM
##ORIGIN=P.A. Leclercq, Lab. Instrum. Anal., Tech. Univ. Eindhoven, Netherlands
##OWNER=NIST Mass Spectrometry Data Center
Collection (C) 2014 copyright by the U.S. Secretary of Commerce
on behalf of the United States of America. All rights reserved.
##CAS REGISTRY NO=481-42-5
##$NIST MASS SPEC NO=221591
##MOLFORM=C11 H8 O3
##MW=188
##$NIST SOURCE=MSDC
##XUNITS=M/Z
##YUNITS=RELATIVE INTENSITY
##XFACTOR=1
##YFACTOR=1
##FIRSTX=14
##LASTX=190
##FIRSTY=139
##MAXX=190
##MINX=14
##MAXY=9999
##MINY=39
##NPOINTS=91
##PEAK TABLE=(XY..XY)
14,139 15,119 16,49 17,39
18,109 26,119 27,299 28,229
29,229 36,49 37,389 38,859
39,1839 40,229 41,99 42,59
43,179 44,39 45,39 46,59
49,89 50,409 51,909 52,229
53,619 54,59 55,129 57,69
60,89 61,309 62,819 63,2099
64,1419 65,629 66,459 67,299
68,59 69,59 73,89 74,469
75,369 76,269 77,1039 78,449
79,119 80,289 85,69 86,139
87,199 88,129 89,309 90,149
91,479 92,2469 93,319 94,79
98,59 101,79 102,289 103,919
104,599 105,159 107,59 113,99
114,379 115,289 116,99 117,109
118,139 120,2369 121,1469 122,149
131,4609 132,2959 133,289 134,59
142,159 143,119 145,539 146,129
149,79 159,379 160,2359 161,259
170,79 171,149 173,2489 174,269
188,9999 189,1219 190,119
##END=
