##TITLE=2-Isopropoxyphenol
##JCAMP-DX=4.24
##DATA TYPE=MASS SPECTRUM
##ORIGIN=NIST Mass Spectrometry Data Center
##OWNER=NIST Mass Spectrometry Data Center
Collection (C) 2014 copyright by the U.S. Secretary of Commerce
on behalf of the United States of America. All rights reserved.
##CAS REGISTRY NO=4812-20-8
##$NIST MASS SPEC NO=340614
##MOLFORM=C9 H12 O2
##MW=152
##$NIST SOURCE=MSDC
##XUNITS=M/Z
##YUNITS=RELATIVE INTENSITY
##XFACTOR=1
##YFACTOR=1
##FIRSTX=15
##LASTX=154
##FIRSTY=30
##MAXX=154
##MINX=15
##MAXY=9999
##MINY=10
##NPOINTS=59
##PEAK TABLE=(XY..XY)
15,30 26,90 27,751 29,70
31,20 37,40 38,150 39,811
40,70 41,791 42,110 43,971
44,20 45,40 49,20 50,220
51,390 52,490 53,741 54,210
55,180 56,10 59,40 61,10
62,70 63,480 64,851 65,310
66,50 67,10 69,10 74,10
75,10 77,40 79,60 80,80
81,1141 82,380 83,20 91,50
92,561 93,120 94,30 95,20
105,20 107,10 108,10 109,540
110,9999 111,1001 112,80 121,50
123,20 135,10 137,90 151,40
152,2022 153,200 154,10
##END=
