##TITLE=Benzene, 1,4-dipropyl-
##JCAMP-DX=4.24
##DATA TYPE=MASS SPECTRUM
##OWNER=NIST Mass Spectrometry Data Center
Collection (C) 2014 copyright by the U.S. Secretary of Commerce
on behalf of the United States of America. All rights reserved.
##CAS REGISTRY NO=4815-57-0
##$NIST MASS SPEC NO=5862
##MOLFORM=C12 H18
##MW=162
##$NIST SOURCE=MSDC
##XUNITS=M/Z
##YUNITS=RELATIVE INTENSITY
##XFACTOR=1
##YFACTOR=1
##FIRSTX=12
##LASTX=163
##FIRSTY=10
##MAXX=163
##MINX=12
##MAXY=9999
##MINY=10
##NPOINTS=75
##PEAK TABLE=(XY..XY)
12,10 13,20 14,60 15,300
24,10 25,30 26,300 27,1722
28,2282 29,1211 30,170 31,10
37,20 38,70 39,831 40,90
41,911 42,80 43,310 44,130
50,140 51,430 52,140 53,170
54,10 55,180 56,30 57,30
58,30 62,40 63,250 64,100
65,360 66,30 67,30 69,10
70,10 71,10 74,30 75,40
76,40 77,500 78,360 79,210
80,10 86,10 87,10 89,120
90,50 91,3093 92,250 93,40
102,70 103,350 104,851 105,711
106,70 107,40 115,330 116,110
117,360 118,70 119,390 120,70
129,50 130,20 131,110 133,9999
134,1071 135,60 139,10 147,30
148,10 162,1952 163,230
##END=
