##TITLE=2H-Pyran, 2-ethoxytetrahydro-
##JCAMP-DX=4.24
##DATA TYPE=MASS SPECTRUM
##OWNER=NIST Mass Spectrometry Data Center
Collection (C) 2014 copyright by the U.S. Secretary of Commerce
on behalf of the United States of America. All rights reserved.
##CAS REGISTRY NO=4819-83-4
##$NIST MASS SPEC NO=2903
##MOLFORM=C7 H14 O2
##MW=130
##$NIST SOURCE=MSDC
##XUNITS=M/Z
##YUNITS=RELATIVE INTENSITY
##XFACTOR=1
##YFACTOR=1
##FIRSTX=41
##LASTX=130
##FIRSTY=9815
##MAXX=130
##MINX=41
##MAXY=9999
##MINY=184
##NPOINTS=29
##PEAK TABLE=(XY..XY)
41,9815 42,1734 43,5166 44,5092
45,1697 46,295 47,8486 48,184
51,332 53,517 54,443 55,3542
56,6457 57,3874 58,406 59,406
67,1550 72,2472 73,480 75,5608
76,295 83,443 84,369 85,9999
86,812 101,480 102,664 129,1476
130,849
##END=
