##TITLE=2H-Furo[2,3-h]-1-benzopyran-2-one, 5-methoxy-
##JCAMP-DX=4.24
##DATA TYPE=MASS SPECTRUM
##ORIGIN=Japan AIST/NIMC Database- Spectrum MS-IW-7258
##OWNER=NIST Mass Spectrometry Data Center
Collection (C) 2014 copyright by the U.S. Secretary of Commerce
on behalf of the United States of America. All rights reserved.
##CAS REGISTRY NO=482-48-4
##$NIST MASS SPEC NO=241171
##MOLFORM=C12 H8 O4
##MW=216
##$NIST SOURCE=MSDC
##XUNITS=M/Z
##YUNITS=RELATIVE INTENSITY
##XFACTOR=1
##YFACTOR=1
##FIRSTX=15
##LASTX=219
##FIRSTY=20
##MAXX=219
##MINX=15
##MAXY=9999
##MINY=10
##NPOINTS=94
##PEAK TABLE=(XY..XY)
15,20 17,70 18,199 27,10
28,90 29,40 37,20 38,80
39,80 41,10 43,10 44,30
49,20 50,129 51,349 52,30
53,70 55,10 58,20 61,30
62,119 63,249 64,30 65,30
66,70 67,20 69,60 72,40
73,20 74,139 75,139 76,50
77,90 78,30 79,129 80,20
85,10 86,30 87,80 88,90
89,459 90,40 91,10 93,20
94,50 95,20 98,50 99,40
100,60 101,80 102,60 103,30
104,20 107,20 108,419 116,70
117,129 118,40 119,20 121,30
128,20 129,60 130,40 131,99
132,30 135,30 144,50 145,939
146,129 147,20 156,10 157,70
158,60 159,99 160,30 171,20
172,10 173,2959 174,379 175,40
185,20 186,30 187,189 188,2039
189,249 190,20 201,1729 202,199
203,20 215,10 216,9999 217,1319
218,159 219,10
##END=
