##TITLE=2-Dodecenal
##JCAMP-DX=4.24
##DATA TYPE=MASS SPECTRUM
##OWNER=NIST Mass Spectrometry Data Center
Collection (C) 2014 copyright by the U.S. Secretary of Commerce
on behalf of the United States of America. All rights reserved.
##CAS REGISTRY NO=4826-62-4
##$NIST MASS SPEC NO=7588
##MOLFORM=C12 H22 O
##MW=182
##$NIST SOURCE=MSDC
##XUNITS=M/Z
##YUNITS=RELATIVE INTENSITY
##XFACTOR=1
##YFACTOR=1
##FIRSTX=15
##LASTX=182
##FIRSTY=110
##MAXX=182
##MINX=15
##MAXY=9999
##MINY=50
##NPOINTS=78
##PEAK TABLE=(XY..XY)
15,110 26,260 27,3123 28,701
29,5505 30,160 31,701 37,70
38,80 39,2632 40,490 41,8948
42,2122 43,9418 44,320 45,330
50,80 51,170 52,120 53,1051
54,1601 55,7377 56,2833 57,7607
58,440 59,320 65,200 66,340
67,2502 68,2002 69,4304 70,9999
71,2182 72,210 73,100 74,150
77,200 78,130 79,951 80,661
81,2202 82,2803 83,6186 84,2853
85,500 86,210 91,140 93,641
94,540 95,1251 96,1952 97,2452
98,1902 99,180 100,410 107,390
108,340 109,460 110,400 111,1201
112,591 113,60 114,350 121,901
122,240 123,130 124,60 125,260
126,360 127,110 135,420 136,130
137,50 138,530 139,170 153,50
164,210 182,60
##END=
