##TITLE=Crotamiton
##JCAMP-DX=4.24
##DATA TYPE=MASS SPECTRUM
##ORIGIN=NIST Mass Spectrometry Data Center, 1998.
##OWNER=NIST Mass Spectrometry Data Center
Collection (C) 2014 copyright by the U.S. Secretary of Commerce
on behalf of the United States of America. All rights reserved.
##CAS REGISTRY NO=483-63-6
##$NIST MASS SPEC NO=292066
##MOLFORM=C13 H17 N O
##MW=203
##$NIST SOURCE=MSDC
##XUNITS=M/Z
##YUNITS=RELATIVE INTENSITY
##XFACTOR=1
##YFACTOR=1
##FIRSTX=15
##LASTX=205
##FIRSTY=30
##MAXX=205
##MINX=15
##MAXY=9999
##MINY=10
##NPOINTS=119
##PEAK TABLE=(XY..XY)
15,30 26,30 27,250 28,90
29,210 30,30 37,20 38,100
39,1680 40,180 41,3240 42,230
43,20 44,100 45,10 50,140
51,510 52,280 53,180 54,50
55,80 56,20 57,10 61,10
62,60 63,330 64,140 65,1560
66,130 67,70 68,800 69,9999
70,500 71,40 72,20 74,30
75,50 76,100 77,870 78,400
79,260 80,50 81,10 85,10
86,20 87,50 88,10 89,350
90,170 91,2310 92,290 93,110
94,20 95,10 96,1930 97,140
98,10 101,10 102,40 103,80
104,270 105,110 106,350 107,580
108,60 112,10 114,10 115,140
116,110 117,470 118,1740 119,520
120,5149 121,490 122,20 127,20
128,50 129,30 130,180 131,140
132,330 133,110 134,1400 135,2800
136,280 137,10 140,10 141,10
142,30 143,40 144,100 145,60
146,120 147,30 148,10 154,10
156,20 157,10 158,60 159,40
160,260 161,90 162,140 163,20
170,10 171,10 172,30 173,20
174,160 175,330 176,40 186,40
188,4750 189,650 190,50 202,160
203,3310 204,520 205,50
##END=
