##TITLE=Flavianic acid
##JCAMP-DX=4.24
##DATA TYPE=MASS SPECTRUM
##ORIGIN=Japan AIST/NIMC Database- Spectrum MS-NW-4236
##OWNER=NIST Mass Spectrometry Data Center
Collection (C) 2014 copyright by the U.S. Secretary of Commerce
on behalf of the United States of America. All rights reserved.
##CAS REGISTRY NO=483-84-1
##$NIST MASS SPEC NO=232202
##MOLFORM=C10 H6 N2 O8 S
##MW=314
##$NIST SOURCE=MSDC
##XUNITS=M/Z
##YUNITS=RELATIVE INTENSITY
##XFACTOR=1
##YFACTOR=1
##FIRSTX=12
##LASTX=318
##FIRSTY=90
##MAXX=318
##MINX=12
##MAXY=9999
##MINY=10
##NPOINTS=239
##PEAK TABLE=(XY..XY)
12,90 14,179 15,40 16,70
17,30 18,109 26,30 27,169
28,129 29,109 30,7329 31,50
32,20 36,20 37,90 38,159
39,409 40,30 41,40 42,20
43,129 44,439 45,119 46,389
47,80 48,259 49,60 50,439
51,609 52,99 53,899 54,70
55,279 56,60 57,60 60,20
61,219 62,889 63,1619 64,409
65,459 66,60 67,60 68,90
69,219 70,60 71,40 73,149
74,1439 75,2009 76,449 77,419
78,109 79,139 80,90 81,80
82,40 83,30 84,40 85,179
86,1139 87,789 88,339 89,749
90,239 91,99 92,189 93,60
94,50 95,50 97,50 98,189
99,499 100,829 101,779 102,609
103,599 104,169 105,149 106,60
107,80 108,40 109,119 110,319
111,459 112,969 113,1419 114,539
115,159 116,199 117,209 118,259
119,139 120,90 121,70 122,60
123,60 124,30 125,40 126,80
127,129 128,409 129,799 130,429
131,159 132,90 133,389 134,90
135,40 136,30 137,20 138,20
139,40 140,199 141,169 142,159
143,169 144,99 145,299 146,159
147,90 148,80 149,40 150,20
152,20 154,20 155,60 156,409
157,349 158,389 159,159 160,80
161,40 162,20 163,30 165,20
167,40 168,70 169,70 170,70
171,60 172,99 173,109 174,539
175,239 176,50 177,80 178,20
181,70 182,159 183,169 184,1509
185,449 186,1169 187,379 188,159
189,90 190,30 191,60 192,30
193,1619 194,449 195,139 196,50
197,20 198,30 199,40 200,20
202,119 203,229 204,99 205,149
206,50 207,90 208,50 209,2029
210,429 211,239 212,80 213,40
216,149 217,90 218,30 220,30
221,2189 222,1149 223,379 224,149
225,70 226,159 227,209 228,80
229,20 231,20 232,559 233,309
234,109 235,40 236,50 237,3439
238,479 239,289 240,50 241,40
243,20 249,30 250,129 251,149
252,99 253,109 254,119 255,30
256,20 257,20 258,70 267,479
268,129 269,429 270,70 271,40
280,20 281,80 282,20 283,50
284,829 285,119 286,70 297,429
298,229 299,60 300,30 309,10
311,20 313,20 314,9999 315,1299
316,649 317,80 318,10
##END=
