##TITLE=1H-Indene, 1-ethyl-2,3-dihydro-
##JCAMP-DX=4.24
##DATA TYPE=MASS SPECTRUM
##OWNER=NIST Mass Spectrometry Data Center
Collection (C) 2014 copyright by the U.S. Secretary of Commerce
on behalf of the United States of America. All rights reserved.
##CAS REGISTRY NO=4830-99-3
##$NIST MASS SPEC NO=4237
##MOLFORM=C11 H14
##MW=146
##$NIST SOURCE=MSDC
##XUNITS=M/Z
##YUNITS=RELATIVE INTENSITY
##XFACTOR=1
##YFACTOR=1
##FIRSTX=12
##LASTX=148
##FIRSTY=20
##MAXX=148
##MINX=12
##MAXY=9999
##MINY=10
##NPOINTS=91
##PEAK TABLE=(XY..XY)
12,20 13,20 14,40 15,200
16,10 25,10 26,120 27,641
28,80 29,330 30,10 37,30
38,90 39,691 40,60 41,160
42,10 43,20 44,60 49,10
50,200 51,440 52,110 53,90
54,10 55,20 56,10 57,30
58,60 61,30 62,130 63,420
64,160 65,360 66,30 67,30
69,20 70,20 71,30 73,10
74,80 75,100 76,70 77,260
78,110 79,40 85,10 86,40
87,50 88,10 89,240 90,40
91,941 92,80 93,10 98,20
99,10 100,10 101,30 102,140
103,100 104,50 105,50 106,10
110,10 111,10 113,80 114,110
115,1952 116,871 117,9999 118,1021
119,50 125,10 126,30 127,120
128,280 129,180 130,80 131,70
132,10 139,20 140,10 141,30
142,10 143,20 144,20 145,80
146,1541 147,190 148,10
##END=
