##TITLE=Benzene, (4-chlorobutyl)-
##JCAMP-DX=4.24
##DATA TYPE=MASS SPECTRUM
##ORIGIN=NIST Mass Spectrometry Data Center, 1990.
##OWNER=NIST Mass Spectrometry Data Center
Collection (C) 2014 copyright by the U.S. Secretary of Commerce
on behalf of the United States of America. All rights reserved.
##CAS REGISTRY NO=4830-93-7
##$NIST MASS SPEC NO=114686
##MOLFORM=C10 H13 Cl
##MW=168
##$NIST SOURCE=MSDC
##XUNITS=M/Z
##YUNITS=RELATIVE INTENSITY
##XFACTOR=1
##YFACTOR=1
##FIRSTX=26
##LASTX=171
##FIRSTY=45
##MAXX=171
##MINX=26
##MAXY=9999
##MINY=32
##NPOINTS=50
##PEAK TABLE=(XY..XY)
26,45 27,252 38,84 39,595
40,61 41,307 42,32 49,193
50,264 51,635 52,161 53,118
55,36 58,35 61,38 62,115
63,430 64,165 65,1262 66,76
74,95 75,96 76,108 77,638
78,679 79,253 89,291 91,9999
92,1766 93,109 102,92 103,304
104,1029 105,514 106,68 115,228
116,70 117,244 118,33 119,84
127,45 128,67 129,36 131,65
132,259 133,168 168,1108 169,122
170,365 171,38
##END=
