##TITLE=Benzene, (3-chloro-3-methylbutyl)-
##JCAMP-DX=4.24
##DATA TYPE=MASS SPECTRUM
##ORIGIN=CARL DJERASSI DEPT OF CHEM STANFORD UNIV STANFORD CALIF 94305
##OWNER=NIST Mass Spectrometry Data Center
Collection (C) 2014 copyright by the U.S. Secretary of Commerce
on behalf of the United States of America. All rights reserved.
##CAS REGISTRY NO=4830-95-9
##$NIST MASS SPEC NO=47150
##MOLFORM=C11 H15 Cl
##MW=182
##$NIST SOURCE=MSDC
##XUNITS=M/Z
##YUNITS=RELATIVE INTENSITY
##XFACTOR=1
##YFACTOR=1
##FIRSTX=40
##LASTX=182
##FIRSTY=300
##MAXX=182
##MINX=40
##MAXY=9999
##MINY=100
##NPOINTS=48
##PEAK TABLE=(XY..XY)
40,300 41,1100 42,100 43,200
44,200 46,300 50,500 51,1300
52,400 53,500 55,300 56,200
62,100 63,700 64,200 65,1800
66,200 67,100 68,200 69,100
74,200 75,100 76,100 77,1000
78,400 79,200 89,200 90,100
91,9999 92,900 102,100 103,400
104,600 105,400 115,600 116,500
117,300 118,100 127,100 128,300
129,400 130,100 131,4500 132,400
145,100 146,3100 147,400 182,100
##END=
