##TITLE=1-Decalone (cis-trans)
##JCAMP-DX=4.24
##DATA TYPE=MASS SPECTRUM
##ORIGIN=NIST Mass Spectrometry Data Center, 1990.
##OWNER=NIST Mass Spectrometry Data Center
Collection (C) 2014 copyright by the U.S. Secretary of Commerce
on behalf of the United States of America. All rights reserved.
##CAS REGISTRY NO=4832-16-0
##$NIST MASS SPEC NO=113178
##MOLFORM=C10 H16 O
##MW=152
##$NIST SOURCE=MSDC
##XUNITS=M/Z
##YUNITS=RELATIVE INTENSITY
##XFACTOR=1
##YFACTOR=1
##FIRSTX=14
##LASTX=153
##FIRSTY=70
##MAXX=153
##MINX=14
##MAXY=9999
##MINY=70
##NPOINTS=62
##PEAK TABLE=(XY..XY)
14,70 15,359 18,112 27,4328
28,1808 29,2281 37,116 39,6413
40,1525 41,8341 42,1728 43,984
44,176 50,338 51,1042 52,744
53,3541 54,4258 55,9999 56,863
57,289 63,321 65,1194 66,1094
67,8229 68,3474 69,1394 70,1257
71,865 77,1371 78,924 79,4055
80,1567 81,8830 82,3474 83,1200
84,327 91,835 92,561 93,2232
94,3628 95,4903 96,3688 97,2369
98,416 105,488 106,372 108,7525
109,2920 110,1650 111,166 119,543
120,102 121,94 122,94 123,1178
124,387 134,911 135,110 137,444
152,4772 153,489
##END=
