##TITLE=Hydroxypivalic acid
##JCAMP-DX=4.24
##DATA TYPE=MASS SPECTRUM
##ORIGIN=Japan AIST/NIMC Database- Spectrum MS-NW-8033
##OWNER=NIST Mass Spectrometry Data Center
Collection (C) 2014 copyright by the U.S. Secretary of Commerce
on behalf of the United States of America. All rights reserved.
##CAS REGISTRY NO=4835-90-9
##$NIST MASS SPEC NO=236792
##MOLFORM=C5 H10 O3
##MW=118
##$NIST SOURCE=MSDC
##XUNITS=M/Z
##YUNITS=RELATIVE INTENSITY
##XFACTOR=1
##YFACTOR=1
##FIRSTX=14
##LASTX=119
##FIRSTY=20
##MAXX=119
##MINX=14
##MAXY=9999
##MINY=10
##NPOINTS=64
##PEAK TABLE=(XY..XY)
14,20 15,149 17,30 18,99
19,20 25,10 26,159 27,1199
28,229 29,929 30,80 31,1879
32,30 33,20 37,90 38,209
39,1869 40,329 41,2649 42,1969
43,1149 44,70 45,969 46,60
47,169 49,10 50,60 51,60
52,20 53,219 54,109 55,1539
56,499 57,659 58,90 59,639
60,389 61,30 67,20 68,40
69,339 70,2919 71,279 72,119
73,8509 74,289 75,50 81,10
82,259 83,90 84,10 85,619
86,50 87,859 88,9999 89,499
90,60 99,80 100,359 101,169
102,10 103,90 118,10 119,50
##END=
