##TITLE=Ethanone, 1-(7-hydroxy-5-methoxy-2,2-dimethyl-2H-1-benzopyran-8-yl)-
##JCAMP-DX=4.24
##DATA TYPE=MASS SPECTRUM
##ORIGIN=Jean-Francois Cavalli, Dissertation, University of Corsica, 2002
##OWNER=NIST Mass Spectrometry Data Center
Collection (C) 2014 copyright by the U.S. Secretary of Commerce
on behalf of the United States of America. All rights reserved.
##CAS REGISTRY NO=484-18-4
##$NIST MASS SPEC NO=374186
##MOLFORM=C14 H16 O4
##MW=248
##$NIST SOURCE=MSDC
##XUNITS=M/Z
##YUNITS=RELATIVE INTENSITY
##XFACTOR=1
##YFACTOR=1
##FIRSTX=38
##LASTX=250
##FIRSTY=114
##MAXX=250
##MINX=38
##MAXY=9999
##MINY=95
##NPOINTS=142
##PEAK TABLE=(XY..XY)
38,114 39,398 40,133 41,322
43,1651 44,171 45,190 50,171
51,398 52,171 53,379 54,133
55,265 56,95 57,95 58,95
59,171 61,95 62,152 63,360
64,152 65,455 66,171 67,228
69,740 70,95 71,95 72,95
73,114 74,190 75,171 76,152
77,664 78,228 79,436 80,133
81,133 82,95 83,95 85,133
86,95 87,152 88,95 89,247
90,152 91,550 92,152 93,190
94,95 95,152 96,95 97,95
100,95 101,114 102,190 103,303
104,152 105,265 106,133 107,171
109,948 111,95 113,95 115,341
116,171 117,152 118,152 119,303
120,133 121,171 122,95 123,95
124,171 127,133 128,152 129,133
130,95 131,171 132,133 133,493
134,95 135,171 136,95 137,95
141,95 143,114 144,152 145,152
146,133 147,379 148,152 149,152
150,95 151,95 157,95 158,95
159,152 160,95 161,152 162,114
163,265 164,95 165,95 171,152
172,265 173,152 174,133 175,228
176,171 177,152 179,152 185,95
186,95 187,152 188,95 189,190
190,171 191,228 192,228 193,95
200,1518 201,265 203,853 204,190
205,152 206,95 207,95 213,95
215,2390 216,417 217,303 218,171
219,95 229,95 231,190 233,9999
234,1328 235,209 236,95 248,2106
249,379 250,95
##END=
