##TITLE=Neocuproine
##JCAMP-DX=4.24
##DATA TYPE=MASS SPECTRUM
##ORIGIN=GFS Chemicals / NIST MS Data Center.
##OWNER=NIST Mass Spectrometry Data Center
Collection (C) 2014 copyright by the U.S. Secretary of Commerce
on behalf of the United States of America. All rights reserved.
##CAS REGISTRY NO=484-11-7
##$NIST MASS SPEC NO=125331
##MOLFORM=C14 H12 N2
##MW=208
##$NIST SOURCE=MSDC
##XUNITS=M/Z
##YUNITS=RELATIVE INTENSITY
##XFACTOR=1
##YFACTOR=1
##FIRSTX=14
##LASTX=211
##FIRSTY=29
##MAXX=211
##MINX=14
##MAXY=9999
##MINY=8
##NPOINTS=115
##PEAK TABLE=(XY..XY)
14,29 15,24 17,12 18,17
26,28 27,129 28,286 32,22
37,20 38,68 39,217 40,14
41,37 42,37 44,12 50,115
51,182 52,70 53,34 54,8
55,12 57,17 61,53 62,121
63,276 64,113 65,45 66,16
70,76 71,37 73,13 74,114
75,216 76,199 77,233 83,116
85,19 86,50 87,104 88,127
89,220 90,13 91,374 96,67
98,53 99,79 100,70 101,82
102,78 103,297 104,304 110,17
111,35 112,46 113,189 114,138
115,131 116,46 117,16 122,16
123,17 124,27 125,56 126,93
127,141 128,65 129,35 130,15
135,10 136,8 137,56 138,142
139,465 140,465 141,102 142,53
143,24 149,12 150,55 151,148
152,215 153,178 154,157 155,74
156,26 157,18 164,263 165,183
166,252 167,148 168,75 169,39
175,10 176,38 177,104 178,216
179,182 180,576 181,389 182,702
183,112 184,9 189,12 190,45
191,149 192,382 193,299 194,42
205,314 206,964 207,4962 208,9999
209,1307 210,104 211,9
##END=
