##TITLE=Silvex, methyl ester
##JCAMP-DX=4.24
##DATA TYPE=MASS SPECTRUM
##ORIGIN=NIST Mass Spectrometry Data Center, 1990.
##OWNER=NIST Mass Spectrometry Data Center
Collection (C) 2014 copyright by the U.S. Secretary of Commerce
on behalf of the United States of America. All rights reserved.
##CAS REGISTRY NO=4841-20-7
##$NIST MASS SPEC NO=119022
##MOLFORM=C10 H9 Cl3 O3
##MW=282
##$NIST SOURCE=MSDC
##XUNITS=M/Z
##YUNITS=RELATIVE INTENSITY
##XFACTOR=1
##YFACTOR=1
##FIRSTX=12
##LASTX=289
##FIRSTY=20
##MAXX=289
##MINX=12
##MAXY=9999
##MINY=9
##NPOINTS=190
##PEAK TABLE=(XY..XY)
12,20 14,328 15,5023 16,17
17,51 18,337 19,10 25,67
26,735 27,2241 28,1701 29,1221
30,207 31,674 33,31 35,77
36,145 37,202 38,122 39,123
40,16 41,394 42,151 43,1251
44,62 45,482 46,13 47,89
48,75 49,132 50,165 51,57
52,18 53,186 54,13 55,2457
56,509 57,76 58,13 59,6091
60,327 61,776 62,1221 63,319
64,24 65,51 66,38 67,16
71,134 72,398 73,672 74,1114
75,264 76,30 77,57 80,33
81,22 83,451 84,414 85,379
86,209 87,2309 88,119 89,171
90,48 91,14 94,42 95,92
96,451 97,2259 98,296 99,831
100,73 101,41 102,15 107,877
108,623 109,1546 110,300 111,463
112,73 115,9 117,57 118,80
119,109 120,42 121,86 122,24
123,183 124,84 125,344 126,66
127,107 128,30 129,11 130,24
131,195 132,733 133,757 134,477
135,441 136,114 137,73 141,45
143,1332 144,751 145,991 146,480
147,219 148,72 149,39 151,75
152,100 153,119 154,65 155,32
156,14 157,21 159,944 160,637
161,787 162,608 163,216 164,153
165,32 166,14 167,1465 168,238
169,1457 170,148 171,539 172,50
173,62 175,30 176,26 179,904
180,239 181,815 182,231 183,278
184,61 185,42 186,26 187,330
188,999 189,379 190,698 191,158
192,104 193,93 196,9999 197,2029
198,9891 199,1120 200,3136 201,241
202,342 203,29 205,20 207,40
209,34 210,70 211,22 212,60
214,15 220,12 223,3631 224,557
225,3356 226,351 227,1029 228,110
229,128 230,14 239,17 241,18
247,236 248,32 249,179 250,22
251,35 280,19 282,3022 283,519
284,3097 285,426 286,1041 287,122
288,115 289,18
##END=
