##TITLE=3-Pyridinol, 6-methyl-, acetate (ester)
##JCAMP-DX=4.24
##DATA TYPE=MASS SPECTRUM
##ORIGIN=T.COHEN UNIV. OF PITTSBURGH, PITTSBURGH, PENNSYLVANIA, USA
##OWNER=NIST Mass Spectrometry Data Center
Collection (C) 2014 copyright by the U.S. Secretary of Commerce
on behalf of the United States of America. All rights reserved.
##CAS REGISTRY NO=4842-89-1
##$NIST MASS SPEC NO=37712
##MOLFORM=C8 H9 N O2
##MW=151
##$NIST SOURCE=MSDC
##XUNITS=M/Z
##YUNITS=RELATIVE INTENSITY
##XFACTOR=1
##YFACTOR=1
##FIRSTX=27
##LASTX=151
##FIRSTY=1860
##MAXX=151
##MINX=27
##MAXY=9999
##MINY=560
##NPOINTS=14
##PEAK TABLE=(XY..XY)
27,1860 39,780 43,7250 50,560
51,840 52,780 53,1780 54,670
80,2780 81,890 108,860 109,9999
110,1190 151,2170
##END=
