##TITLE=Bicyclo[3.3.1]non-2-en-9-one
##JCAMP-DX=4.24
##DATA TYPE=MASS SPECTRUM
##OWNER=NIST Mass Spectrometry Data Center
Collection (C) 2014 copyright by the U.S. Secretary of Commerce
on behalf of the United States of America. All rights reserved.
##CAS REGISTRY NO=4844-11-5
##$NIST MASS SPEC NO=31861
##MOLFORM=C9 H12 O
##MW=136
##$NIST SOURCE=MSDC
##XUNITS=M/Z
##YUNITS=RELATIVE INTENSITY
##XFACTOR=1
##YFACTOR=1
##FIRSTX=38
##LASTX=137
##FIRSTY=198
##MAXX=137
##MINX=38
##MAXY=9999
##MINY=186
##NPOINTS=36
##PEAK TABLE=(XY..XY)
38,198 39,2209 40,372 41,1814
50,209 51,791 52,419 53,1012
54,802 55,1012 65,791 66,1395
67,4511 68,1977 69,209 70,221
77,1604 78,791 79,6860 80,4837
81,407 82,186 91,1000 92,419
93,5255 94,616 95,419 105,221
107,407 108,1977 109,198 117,198
118,198 121,209 136,9999 137,1000
##END=
