##TITLE=2(3H)-Benzothiazolethione, 6-nitro-
##JCAMP-DX=4.24
##DATA TYPE=MASS SPECTRUM
##ORIGIN=A.A.Kutin, Moscow, Russia
##OWNER=NIST Mass Spectrometry Data Center
Collection (C) 2014 copyright by the U.S. Secretary of Commerce
on behalf of the United States of America. All rights reserved.
##CAS REGISTRY NO=4845-58-3
##$NIST MASS SPEC NO=258268
##MOLFORM=C7 H4 N2 O2 S2
##MW=212
##$NIST SOURCE=MSDC
##XUNITS=M/Z
##YUNITS=RELATIVE INTENSITY
##XFACTOR=1
##YFACTOR=1
##FIRSTX=34
##LASTX=215
##FIRSTY=45
##MAXX=215
##MINX=34
##MAXY=9999
##MINY=30
##NPOINTS=110
##PEAK TABLE=(XY..XY)
34,45 35,44 36,56 37,285
38,332 39,441 40,217 41,150
42,78 43,371 44,379 45,984
46,134 47,118 48,60 49,98
50,324 51,444 52,444 53,103
54,63 55,135 56,77 57,289
58,168 59,184 60,227 61,361
62,828 63,3260 64,409 65,40
67,34 68,109 69,1216 70,437
71,237 72,74 73,153 74,248
75,245 76,236 77,163 78,318
79,117 80,320 81,388 82,489
83,461 84,144 85,217 87,77
88,140 89,60 90,205 91,40
92,54 93,237 94,215 95,730
96,225 97,83 98,37 101,85
102,193 104,38 105,113 106,660
107,527 108,1334 109,201 110,175
112,31 119,30 120,136 121,467
122,2787 123,240 124,157 126,40
127,105 129,37 133,887 134,142
135,61 138,91 139,1378 140,129
141,130 149,41 153,89 154,320
155,34 156,30 164,59 165,447
166,4367 167,470 168,385 169,40
180,68 182,1003 183,100 184,89
196,100 209,77 212,9999 213,1025
214,880 215,71
##END=
