##TITLE=1-Cyclohexene-1-methanol
##JCAMP-DX=4.24
##DATA TYPE=MASS SPECTRUM
##ORIGIN=DR. C. C. VAN DE SANDE, STATE UNIVERSITY OF GENT, BELGIUM
##OWNER=NIST Mass Spectrometry Data Center
Collection (C) 2014 copyright by the U.S. Secretary of Commerce
on behalf of the United States of America. All rights reserved.
##CAS REGISTRY NO=4845-04-9
##$NIST MASS SPEC NO=52048
##MOLFORM=C7 H12 O
##MW=112
##$NIST SOURCE=MSDC
##XUNITS=M/Z
##YUNITS=RELATIVE INTENSITY
##XFACTOR=1
##YFACTOR=1
##FIRSTX=36
##LASTX=113
##FIRSTY=100
##MAXX=113
##MINX=36
##MAXY=9999
##MINY=100
##NPOINTS=59
##PEAK TABLE=(XY..XY)
36,100 37,1000 38,1700 39,9999
40,1500 41,6350 42,1700 43,2200
44,400 45,100 48,100 49,450
50,3000 51,4150 52,2000 53,4600
54,1200 55,4000 56,900 57,1600
58,200 60,100 61,400 62,600
63,1200 64,250 65,1400 66,1800
67,2400 68,1400 69,1150 70,1500
71,450 73,100 74,400 75,200
76,200 77,2800 78,900 79,8000
80,1600 81,6500 82,900 83,2000
84,800 89,100 91,800 92,200
93,800 94,2500 95,650 96,150
97,850 98,100 109,150 110,100
111,200 112,2500 113,200
##END=
