##TITLE=Ninhydrin
##JCAMP-DX=4.24
##DATA TYPE=MASS SPECTRUM
##ORIGIN=NIST Mass Spectrometry Data Center, 1998.
##OWNER=NIST Mass Spectrometry Data Center
Collection (C) 2014 copyright by the U.S. Secretary of Commerce
on behalf of the United States of America. All rights reserved.
##CAS REGISTRY NO=485-47-2
##$NIST MASS SPEC NO=291019
##MOLFORM=C9 H6 O4
##MW=178
##$NIST SOURCE=MSDC
##XUNITS=M/Z
##YUNITS=RELATIVE INTENSITY
##XFACTOR=1
##YFACTOR=1
##FIRSTX=25
##LASTX=162
##FIRSTY=20
##MAXX=162
##MINX=25
##MAXY=9999
##MINY=10
##NPOINTS=51
##PEAK TABLE=(XY..XY)
25,20 26,80 27,30 28,50
29,30 36,80 37,680 38,860
39,130 40,10 41,10 43,60
44,10 48,80 49,600 50,4430
51,310 52,420 53,200 54,10
60,100 61,310 62,200 63,30
64,10 65,50 66,150 72,40
73,460 74,1790 75,1010 76,8649
77,950 78,50 84,50 85,100
86,90 87,50 88,30 89,10
101,20 102,10 104,9999 105,850
106,60 132,2950 133,300 134,40
160,530 161,60 162,10
##END=
