##TITLE=2-(Methylsulphonyl)propane
##JCAMP-DX=4.24
##DATA TYPE=MASS SPECTRUM
##ORIGIN=Japan AIST/NIMC Database- Spectrum MS-IW-8099
##OWNER=NIST Mass Spectrometry Data Center
Collection (C) 2014 copyright by the U.S. Secretary of Commerce
on behalf of the United States of America. All rights reserved.
##CAS REGISTRY NO=4853-74-1
##$NIST MASS SPEC NO=237727
##MOLFORM=C4 H10 O2 S
##MW=122
##$NIST SOURCE=MSDC
##XUNITS=M/Z
##YUNITS=RELATIVE INTENSITY
##XFACTOR=1
##YFACTOR=1
##FIRSTX=15
##LASTX=125
##FIRSTY=449
##MAXX=125
##MINX=15
##MAXY=9999
##MINY=10
##NPOINTS=45
##PEAK TABLE=(XY..XY)
15,449 26,80 27,2789 28,159
29,70 31,119 32,20 33,10
34,20 37,50 38,129 39,1299
40,199 41,7729 42,889 43,9999
44,539 45,119 46,60 47,90
48,119 49,30 50,60 57,50
58,10 59,50 63,1049 64,189
65,1049 66,20 67,50 75,20
76,10 79,279 80,1939 81,5229
82,199 83,259 90,20 107,189
121,40 122,10 123,869 124,40
125,30
##END=
