##TITLE=1H-Benzimidazole-2-ethanol
##JCAMP-DX=4.24
##DATA TYPE=MASS SPECTRUM
##ORIGIN=Japan AIST/NIMC Database- Spectrum MS-IW-3387
##OWNER=NIST Mass Spectrometry Data Center
Collection (C) 2014 copyright by the U.S. Secretary of Commerce
on behalf of the United States of America. All rights reserved.
##CAS REGISTRY NO=4857-01-6
##$NIST MASS SPEC NO=243937
##MOLFORM=C9 H10 N2 O
##MW=162
##$NIST SOURCE=MSDC
##XUNITS=M/Z
##YUNITS=RELATIVE INTENSITY
##XFACTOR=1
##YFACTOR=1
##FIRSTX=15
##LASTX=164
##FIRSTY=20
##MAXX=164
##MINX=15
##MAXY=9999
##MINY=10
##NPOINTS=82
##PEAK TABLE=(XY..XY)
15,20 17,90 18,349 26,50
27,159 28,769 29,90 30,20
31,189 37,90 38,249 39,499
40,70 41,169 42,90 43,40
44,10 45,10 49,10 50,139
51,419 52,439 53,90 54,60
55,20 57,10 58,10 59,10
61,60 62,199 63,789 64,709
65,759 66,249 67,20 71,40
72,70 74,30 75,99 76,239
77,1449 78,419 79,50 80,10
81,10 83,10 87,20 88,50
89,80 90,469 91,459 92,569
93,70 102,189 103,179 104,1039
105,229 106,30 115,20 116,50
117,60 118,809 119,229 120,10
129,70 130,90 131,5649 132,9999
133,1079 134,60 142,30 143,669
144,969 145,3149 146,349 147,30
159,99 160,70 161,1839 162,4529
163,499 164,30
##END=
