##TITLE=9H-Fluoren-9-one
##JCAMP-DX=4.24
##DATA TYPE=MASS SPECTRUM
##ORIGIN=Japan AIST/NIMC Database- Spectrum MS-NW- 472
##OWNER=NIST Mass Spectrometry Data Center
Collection (C) 2014 copyright by the U.S. Secretary of Commerce
on behalf of the United States of America. All rights reserved.
##CAS REGISTRY NO=486-25-9
##$NIST MASS SPEC NO=229079
##MOLFORM=C13 H8 O
##MW=180
##$NIST SOURCE=MSDC
##XUNITS=M/Z
##YUNITS=RELATIVE INTENSITY
##XFACTOR=1
##YFACTOR=1
##FIRSTX=27
##LASTX=182
##FIRSTY=20
##MAXX=182
##MINX=27
##MAXY=9999
##MINY=10
##NPOINTS=50
##PEAK TABLE=(XY..XY)
27,20 37,20 38,40 39,139
49,20 50,239 51,199 52,40
61,90 62,179 63,619 64,10
73,40 74,349 75,499 76,1339
77,119 78,30 85,50 86,129
87,179 88,20 89,20 90,209
97,20 98,179 99,159 100,80
101,70 102,139 109,20 110,40
111,50 113,50 122,50 123,20
124,20 125,149 126,509 127,50
149,50 150,719 151,1299 152,2889
153,379 154,20 179,30 180,9999
181,1539 182,129
##END=
