##TITLE=1-Isoquinolinecarboxylic acid
##JCAMP-DX=4.24
##DATA TYPE=MASS SPECTRUM
##ORIGIN=Japan AIST/NIMC Database- Spectrum MS-IW- 696
##OWNER=NIST Mass Spectrometry Data Center
Collection (C) 2014 copyright by the U.S. Secretary of Commerce
on behalf of the United States of America. All rights reserved.
##CAS REGISTRY NO=486-73-7
##$NIST MASS SPEC NO=239408
##MOLFORM=C10 H7 N O2
##MW=173
##$NIST SOURCE=MSDC
##XUNITS=M/Z
##YUNITS=RELATIVE INTENSITY
##XFACTOR=1
##YFACTOR=1
##FIRSTX=16
##LASTX=175
##FIRSTY=10
##MAXX=175
##MINX=16
##MAXY=9999
##MINY=10
##NPOINTS=66
##PEAK TABLE=(XY..XY)
16,10 18,20 26,20 27,60
28,40 37,50 38,80 39,179
40,10 44,639 45,60 49,70
50,589 51,1119 52,209 53,20
58,259 59,20 61,70 62,169
63,309 64,499 65,50 72,50
73,50 74,429 75,1109 76,809
77,879 78,289 79,30 85,10
86,90 87,60 88,50 89,179
90,80 91,10 97,10 98,80
99,129 100,269 101,1929 102,2639
103,689 104,50 114,10 115,10
116,40 117,30 118,20 123,10
126,60 127,379 128,2999 129,9999
130,1029 131,50 144,20 145,30
156,50 157,10 172,10 173,4929
174,739 175,70
##END=
