##TITLE=2H-Quinolizine-1-methanol, octahydro-, (1S-cis)-
##JCAMP-DX=4.24
##DATA TYPE=MASS SPECTRUM
##ORIGIN=NB-267
##OWNER=NIST Mass Spectrometry Data Center
Collection (C) 2014 copyright by the U.S. Secretary of Commerce
on behalf of the United States of America. All rights reserved.
##CAS REGISTRY NO=486-71-5
##$NIST MASS SPEC NO=6557
##MOLFORM=C10 H19 N O
##MW=169
##$NIST SOURCE=MSDC
##XUNITS=M/Z
##YUNITS=RELATIVE INTENSITY
##XFACTOR=1
##YFACTOR=1
##FIRSTX=26
##LASTX=170
##FIRSTY=800
##MAXX=170
##MINX=26
##MAXY=9999
##MINY=100
##NPOINTS=88
##PEAK TABLE=(XY..XY)
26,800 27,7199 28,7699 29,5699
30,2100 31,8599 32,400 37,100
38,300 39,5299 40,1000 41,9999
42,4999 43,1800 44,1200 45,100
50,200 51,500 52,500 53,2000
54,3300 55,8999 56,2700 57,1800
58,400 63,100 64,100 65,500
66,300 67,1700 68,1800 69,1300
70,900 71,100 77,400 78,200
79,500 80,1100 81,900 82,4400
83,9999 84,2500 85,300 91,200
92,100 93,300 94,600 95,500
96,300 97,5399 98,2600 99,200
106,200 107,100 108,700 109,500
110,4300 111,3800 112,400 113,900
114,100 118,100 120,100 122,500
123,100 124,2400 125,900 126,300
127,700 128,200 134,200 135,100
136,1200 137,400 138,5899 139,800
140,600 141,200 150,300 151,100
152,7799 153,1000 154,300 166,100
167,700 168,3000 169,3700 170,400
##END=
