##TITLE=Captodiamine
##JCAMP-DX=4.24
##DATA TYPE=MASS SPECTRUM
##ORIGIN=MI-0088
##OWNER=NIST Mass Spectrometry Data Center
Collection (C) 2014 copyright by the U.S. Secretary of Commerce
on behalf of the United States of America. All rights reserved.
##CAS REGISTRY NO=486-17-9
##$NIST MASS SPEC NO=16149
##MOLFORM=C21 H29 N S2
##MW=359
##$NIST SOURCE=MSDC
##XUNITS=M/Z
##YUNITS=RELATIVE INTENSITY
##XFACTOR=1
##YFACTOR=1
##FIRSTX=41
##LASTX=361
##FIRSTY=190
##MAXX=361
##MINX=41
##MAXY=9999
##MINY=40
##NPOINTS=34
##PEAK TABLE=(XY..XY)
41,190 42,340 43,90 44,290
45,390 56,190 57,190 58,9999
59,390 71,190 72,190 73,741
74,90 104,90 152,140 153,90
163,40 164,90 165,1141 166,791
167,340 168,90 197,190 198,140
199,440 200,90 255,991 256,290
257,90 286,140 287,90 359,891
360,340 361,140
##END=
