##TITLE=Hexadecane, 1-chloro-
##JCAMP-DX=4.24
##DATA TYPE=MASS SPECTRUM
##ORIGIN=Japan AIST/NIMC Database- Spectrum MS-NW-3016
##OWNER=NIST Mass Spectrometry Data Center
Collection (C) 2014 copyright by the U.S. Secretary of Commerce
on behalf of the United States of America. All rights reserved.
##CAS REGISTRY NO=4860-03-1
##$NIST MASS SPEC NO=231695
##MOLFORM=C16 H33 Cl
##MW=260
##$NIST SOURCE=MSDC
##XUNITS=M/Z
##YUNITS=RELATIVE INTENSITY
##XFACTOR=1
##YFACTOR=1
##FIRSTX=15
##LASTX=263
##FIRSTY=10
##MAXX=263
##MINX=15
##MAXY=9999
##MINY=10
##NPOINTS=146
##PEAK TABLE=(XY..XY)
15,10 26,20 27,699 28,40
29,1679 30,30 35,10 36,139
38,40 39,479 40,90 41,3379
42,909 43,7389 44,239 49,40
51,20 52,10 53,209 54,309
55,3859 56,1779 57,9999 58,439
59,10 62,10 63,90 65,40
66,20 67,319 68,329 69,3319
70,1499 71,5779 72,309 75,20
76,10 77,109 78,10 79,50
80,10 81,169 82,379 83,2179
84,1019 85,3439 86,219 87,10
89,10 90,20 91,4149 92,189
93,1309 94,60 95,80 96,169
97,1599 98,689 99,719 100,60
104,189 105,1349 106,129 107,459
108,20 109,40 110,70 111,659
112,439 113,399 114,30 117,10
118,70 119,549 120,60 121,169
122,10 123,20 124,40 125,229
126,269 127,239 128,20 131,20
132,50 133,409 134,50 135,129
136,10 137,10 138,20 139,70
140,169 141,149 142,20 145,20
146,50 147,309 148,40 149,99
150,10 152,10 153,30 154,90
155,99 156,10 159,10 160,40
161,199 162,40 163,70 167,20
168,50 169,60 170,10 174,50
175,159 176,30 177,50 181,10
182,20 183,20 188,50 189,119
190,30 191,40 196,40 197,10
202,50 203,109 204,30 205,40
216,30 217,80 218,20 219,30
224,109 225,20 230,20 231,50
232,20 233,20 260,129 261,20
262,40 263,10
##END=
