##TITLE=3-Octanol, acetate
##JCAMP-DX=4.24
##DATA TYPE=MASS SPECTRUM
##ORIGIN=N.W. Davies, Centr. Sci. Lab., Univ. Tasmania, Hobart, Australia
##OWNER=NIST Mass Spectrometry Data Center
Collection (C) 2014 copyright by the U.S. Secretary of Commerce
on behalf of the United States of America. All rights reserved.
##CAS REGISTRY NO=4864-61-3
##$NIST MASS SPEC NO=107028
##MOLFORM=C10 H20 O2
##MW=172
##$NIST SOURCE=MSDC
##XUNITS=M/Z
##YUNITS=RELATIVE INTENSITY
##XFACTOR=1
##YFACTOR=1
##FIRSTX=21
##LASTX=143
##FIRSTY=120
##MAXX=143
##MINX=21
##MAXY=9999
##MINY=10
##NPOINTS=44
##PEAK TABLE=(XY..XY)
21,120 26,40 27,650 28,10
29,730 30,150 31,300 32,10
33,30 34,260 36,10 39,350
40,620 41,1500 42,450 43,9999
44,550 45,270 53,230 55,1350
56,1120 57,870 58,380 59,270
60,120 61,230 67,70 68,100
69,620 70,1370 71,310 72,80
73,190 83,860 84,210 85,40
93,70 97,210 101,790 112,980
113,120 116,100 129,40 143,220
##END=
