##TITLE=Etiocholanone, TMS derivative
##JCAMP-DX=4.24
##DATA TYPE=MASS SPECTRUM
##ORIGIN=NIST Mass Spectrometry Data Center
##OWNER=NIST Mass Spectrometry Data Center
Collection (C) 2014 copyright by the U.S. Secretary of Commerce
on behalf of the United States of America. All rights reserved.
##CAS REGISTRY NO=4867-14-5
##$NIST MASS SPEC NO=332984
##MOLFORM=C22 H38 O2 Si
##MW=362
##$NIST SOURCE=MSDC
##XUNITS=M/Z
##YUNITS=RELATIVE INTENSITY
##XFACTOR=1
##YFACTOR=1
##FIRSTX=15
##LASTX=365
##FIRSTY=10
##MAXX=365
##MINX=15
##MAXY=9999
##MINY=10
##NPOINTS=266
##PEAK TABLE=(XY..XY)
15,10 26,20 27,160 28,80
29,440 30,10 31,30 38,10
39,380 40,110 41,2322 42,190
43,891 44,160 45,1051 46,80
47,571 48,30 49,20 50,20
51,90 52,60 53,991 54,300
55,3783 56,270 57,330 58,130
59,841 60,190 61,891 62,60
63,50 64,20 65,510 66,220
67,3423 68,510 69,871 70,110
71,130 72,170 73,6746 74,821
75,9999 76,761 77,1852 78,340
79,3683 80,631 81,3543 82,470
83,691 84,80 85,180 86,40
87,90 88,30 89,270 91,3713
92,751 93,4034 94,1391 95,2953
96,470 97,1611 98,160 99,180
101,731 102,120 103,390 104,240
105,3463 106,1431 107,3453 108,3954
109,1972 110,561 111,290 112,40
113,170 115,530 116,260 117,961
118,631 119,2462 120,1011 121,1942
122,751 123,821 124,290 125,170
126,30 127,220 128,210 129,2612
130,1061 131,1772 132,480 133,1732
134,1011 135,1301 136,921 137,530
138,821 140,20 141,190 142,1211
143,901 144,781 145,2602 146,661
147,2823 148,1091 149,1001 150,831
151,370 153,80 155,2192 156,430
157,651 158,821 159,1842 160,651
161,2172 162,1191 163,721 164,651
165,220 166,140 167,110 168,40
169,190 170,70 171,530 172,250
173,1161 174,921 175,951 176,2452
177,691 178,110 179,50 180,20
181,110 182,90 183,280 184,80
185,480 186,420 187,801 188,350
189,520 190,470 191,220 192,30
193,20 194,10 195,50 196,50
197,330 198,130 199,1001 200,360
201,1491 202,430 203,420 204,190
205,90 206,20 207,20 208,10
209,50 210,20 211,170 212,120
213,831 214,480 215,2212 216,1391
217,1291 218,1031 219,180 220,20
221,30 222,10 223,40 224,20
225,90 226,160 227,250 228,581
229,1121 230,701 231,360 232,110
233,190 234,30 235,20 236,10
237,30 238,10 239,771 240,150
241,50 242,20 243,260 244,5585
245,1041 246,120 247,20 249,10
250,10 251,20 252,10 253,270
254,490 255,1461 256,320 257,4464
258,891 259,90 260,10 261,10
263,20 264,10 265,20 266,10
270,30 271,370 272,6956 273,1481
274,170 275,20 276,10 277,10
280,10 287,20 288,10 289,10
291,50 292,20 293,20 294,10
303,20 304,10 305,70 306,50
307,20 311,10 318,10 319,10
329,10 331,20 332,10 333,10
345,10 347,951 348,260 349,80
350,10 361,50 362,480 363,140
364,40 365,10
##END=
