##TITLE=Bufotenine
##JCAMP-DX=4.24
##DATA TYPE=MASS SPECTRUM
##ORIGIN=Dr. P.K. Shah, NYC Police Laboratory, NY
##OWNER=NIST Mass Spectrometry Data Center
Collection (C) 2014 copyright by the U.S. Secretary of Commerce
on behalf of the United States of America. All rights reserved.
##CAS REGISTRY NO=487-93-4
##$NIST MASS SPEC NO=312457
##MOLFORM=C12 H16 N2 O
##MW=204
##$NIST SOURCE=MSDC
##XUNITS=M/Z
##YUNITS=RELATIVE INTENSITY
##XFACTOR=1
##YFACTOR=1
##FIRSTX=39
##LASTX=205
##FIRSTY=60
##MAXX=205
##MINX=39
##MAXY=9999
##MINY=40
##NPOINTS=36
##PEAK TABLE=(XY..XY)
39,60 42,290 43,70 44,70
51,80 52,50 53,40 56,50
57,110 58,9999 59,380 63,90
65,120 77,130 78,50 89,120
90,80 91,160 102,40 103,70
105,40 115,60 116,40 117,180
118,100 128,40 130,90 131,60
145,50 146,410 147,50 158,50
159,200 160,130 204,370 205,60
##END=
