##TITLE=Nicotyrine
##JCAMP-DX=4.24
##DATA TYPE=MASS SPECTRUM
##ORIGIN=Philip Morris R&D
##OWNER=NIST Mass Spectrometry Data Center
Collection (C) 2014 copyright by the U.S. Secretary of Commerce
on behalf of the United States of America. All rights reserved.
##CAS REGISTRY NO=487-19-4
##$NIST MASS SPEC NO=109886
##MOLFORM=C10 H10 N2
##MW=158
##$NIST SOURCE=MSDC
##XUNITS=M/Z
##YUNITS=RELATIVE INTENSITY
##XFACTOR=1
##YFACTOR=1
##FIRSTX=36
##LASTX=160
##FIRSTY=218
##MAXX=160
##MINX=36
##MAXY=9999
##MINY=8
##NPOINTS=63
##PEAK TABLE=(XY..XY)
36,218 37,84 38,50 39,745
40,59 41,310 42,920 49,42
50,410 51,293 52,351 53,42
54,226 55,293 56,67 58,33
60,8 61,25 62,201 63,870
64,126 65,443 66,67 72,25
73,33 74,209 75,218 76,159
77,636 78,502 79,745 80,360
81,8 87,100 88,176 89,887
90,527 92,67 97,17 101,33
102,25 103,318 104,410 105,368
114,17 115,142 116,879 117,628
118,234 128,50 129,218 130,1590
131,284 132,67 140,25 142,393
143,418 155,67 156,628 157,4460
158,9999 159,1314 160,176
##END=
