##TITLE=Epi-Inositol
##JCAMP-DX=4.24
##DATA TYPE=MASS SPECTRUM
##OWNER=NIST Mass Spectrometry Data Center
Collection (C) 2014 copyright by the U.S. Secretary of Commerce
on behalf of the United States of America. All rights reserved.
##CAS REGISTRY NO=488-58-4
##$NIST MASS SPEC NO=7493
##MOLFORM=C6 H12 O6
##MW=180
##$NIST SOURCE=MSDC
##XUNITS=M/Z
##YUNITS=RELATIVE INTENSITY
##XFACTOR=1
##YFACTOR=1
##FIRSTX=39
##LASTX=181
##FIRSTY=80
##MAXX=181
##MINX=39
##MAXY=9999
##MINY=10
##NPOINTS=50
##PEAK TABLE=(XY..XY)
39,80 41,140 42,270 43,490
44,110 45,300 47,60 53,40
54,90 55,220 56,210 57,260
58,80 59,30 60,1962 61,260
69,140 70,50 71,751 72,460
73,9999 74,540 75,60 81,40
83,60 84,50 85,110 86,40
87,30 88,20 89,190 90,50
91,280 97,80 98,50 101,50
102,561 103,40 109,30 115,60
119,10 126,30 127,10 128,10
144,350 145,40 149,10 162,10
163,10 181,100
##END=
