##TITLE=Tricyclo[2.2.1.0(2,6)]heptane, 1,3,3-trimethyl-
##JCAMP-DX=4.24
##DATA TYPE=MASS SPECTRUM
##OWNER=NIST Mass Spectrometry Data Center
Collection (C) 2014 copyright by the U.S. Secretary of Commerce
on behalf of the United States of America. All rights reserved.
##CAS REGISTRY NO=488-97-1
##$NIST MASS SPEC NO=3330
##MOLFORM=C10 H16
##MW=136
##$NIST SOURCE=MSDC
##XUNITS=M/Z
##YUNITS=RELATIVE INTENSITY
##XFACTOR=1
##YFACTOR=1
##FIRSTX=26
##LASTX=138
##FIRSTY=90
##MAXX=138
##MINX=26
##MAXY=9999
##MINY=10
##NPOINTS=82
##PEAK TABLE=(XY..XY)
26,90 27,1892 28,280 29,1011
30,20 37,20 38,90 39,2012
40,310 41,2172 42,130 43,841
44,30 45,10 46,10 49,10
50,110 51,540 52,280 53,991
54,110 55,721 56,40 57,40
58,60 59,20 60,10 61,10
62,20 63,130 64,40 65,480
66,170 67,510 68,200 69,110
70,20 74,10 75,20 76,20
77,1651 78,350 79,1792 80,951
81,400 82,50 83,10 87,10
88,10 89,30 90,20 91,1551
92,2152 93,9999 94,1211 95,200
96,10 101,10 102,10 103,100
104,50 105,721 106,210 107,1021
108,190 109,30 110,10 115,40
116,10 117,30 118,10 119,140
120,30 121,1862 122,180 123,10
133,10 134,10 135,20 136,1231
137,130 138,10
##END=
