##TITLE=1-Cyclopentylcyclopentene
##JCAMP-DX=4.24
##DATA TYPE=MASS SPECTRUM
##ORIGIN=NIST Mass Spectrometry Data Center, 1990.
##OWNER=NIST Mass Spectrometry Data Center
Collection (C) 2014 copyright by the U.S. Secretary of Commerce
on behalf of the United States of America. All rights reserved.
##CAS REGISTRY NO=4884-21-3
##$NIST MASS SPEC NO=113799
##MOLFORM=C10 H16
##MW=136
##$NIST SOURCE=MSDC
##XUNITS=M/Z
##YUNITS=RELATIVE INTENSITY
##XFACTOR=1
##YFACTOR=1
##FIRSTX=15
##LASTX=137
##FIRSTY=215
##MAXX=137
##MINX=15
##MAXY=9999
##MINY=140
##NPOINTS=41
##PEAK TABLE=(XY..XY)
15,215 26,247 27,1997 28,1253
29,880 39,4231 40,880 41,4431
42,670 50,439 51,1132 52,617
53,1394 54,412 55,674 62,140
63,481 65,1787 66,3664 67,9999
68,4118 69,924 77,3155 78,1060
79,7461 80,1585 81,746 82,301
91,2792 92,461 93,3878 94,3104
95,7144 96,478 103,176 105,321
107,2115 108,1132 121,1312 136,3826
137,395
##END=
