##TITLE=1H-Cyclopropa[a]naphthalene, 1a,2,3,3a,4,5,6,7b-octahydro-1,1,3a,7-tetramethyl-, [1aR-(1a.alpha.,3a.alpha.,7b.alpha.)]-
##JCAMP-DX=4.24
##DATA TYPE=MASS SPECTRUM
##OWNER=NIST Mass Spectrometry Data Center
Collection (C) 2014 copyright by the U.S. Secretary of Commerce
on behalf of the United States of America. All rights reserved.
##CAS REGISTRY NO=489-29-2
##$NIST MASS SPEC NO=9244
##MOLFORM=C15 H24
##MW=204
##$NIST SOURCE=MSDC
##XUNITS=M/Z
##YUNITS=RELATIVE INTENSITY
##XFACTOR=1
##YFACTOR=1
##FIRSTX=27
##LASTX=206
##FIRSTY=1351
##MAXX=206
##MINX=27
##MAXY=9999
##MINY=50
##NPOINTS=105
##PEAK TABLE=(XY..XY)
27,1351 28,330 29,1561 39,1702
40,260 41,5345 42,380 43,2272
44,90 50,50 51,500 52,240
53,1421 54,140 55,2933 56,380
57,991 58,120 63,190 64,170
65,1041 66,210 67,1581 68,140
69,1581 70,240 71,540 72,140
73,190 75,90 76,70 77,2032
78,520 79,1912 80,260 81,2602
82,280 83,520 84,70 85,190
87,280 89,90 91,4964 92,591
93,2172 94,330 95,2843 96,280
97,240 98,50 102,70 103,430
104,240 105,5865 106,781 107,2482
108,380 109,831 110,90 115,781
116,380 117,1041 118,280 119,3383
120,520 121,1321 122,761 123,190
127,330 128,540 129,500 130,280
131,851 132,240 133,4544 134,1091
135,661 136,120 141,120 142,70
143,140 144,90 145,1021 146,330
147,2462 148,1091 149,571 159,280
160,330 161,8187 162,1161 163,120
173,120 174,120 175,1131 176,310
177,90 187,90 188,90 189,9999
190,1541 191,120 204,8117 205,1321
206,70
##END=
