##TITLE=7,14-Methano-2H,6H-dipyrido[1,2-a:1',2'-E][1,5]diazocin-6-one, dodecahydro-, [7R-(7.alpha.,7a.alpha.,14.alpha.,14a.beta.)]-
##JCAMP-DX=4.24
##DATA TYPE=MASS SPECTRUM
##ORIGIN=Benaiche Ghania, Extraction and GC/MS Analysis of major Alkaloids found in the Family of Fabaceae, University of Msila, 2007
##OWNER=NIST Mass Spectrometry Data Center
Collection (C) 2014 copyright by the U.S. Secretary of Commerce
on behalf of the United States of America. All rights reserved.
##CAS REGISTRY NO=489-72-5
##$NIST MASS SPEC NO=383545
##MOLFORM=C15 H24 N2 O
##MW=248
##$NIST SOURCE=MSDC
##XUNITS=M/Z
##YUNITS=RELATIVE INTENSITY
##XFACTOR=1
##YFACTOR=1
##FIRSTX=38
##LASTX=356
##FIRSTY=721
##MAXX=356
##MINX=38
##MAXY=9999
##MINY=70
##NPOINTS=130
##PEAK TABLE=(XY..XY)
38,721 39,250 40,250 41,1902
42,1121 43,490 44,270 51,250
52,270 53,871 54,1101 55,2662
56,1211 57,320 58,340 61,210
65,490 66,320 67,1051 68,1261
69,1371 70,741 71,230 72,210
74,270 77,611 78,390 79,781
80,1191 81,981 82,1682 83,1261
84,2552 85,270 88,250 89,230
91,430 92,290 93,611 94,1191
95,701 96,3103 97,9999 98,9048
99,1261 100,520 105,270 106,581
107,410 108,1051 109,991 110,8758
111,3223 112,1051 117,230 118,230
119,250 120,651 121,1071 122,2722
123,4024 124,2412 125,360 130,230
131,210 132,210 133,210 134,2552
135,1101 136,6216 137,3243 138,2552
139,410 142,210 147,360 148,1451
149,1451 150,3313 151,981 152,941
153,210 155,210 160,230 161,250
162,671 163,671 164,1411 165,490
166,290 174,270 175,811 176,520
177,881 178,741 179,250 184,180
185,210 186,210 188,160 189,180
190,270 191,2572 192,2012 193,490
203,230 204,200 205,1071 206,290
207,791 208,140 211,140 213,140
214,210 215,180 217,160 218,160
219,3393 220,4754 221,761 229,651
230,140 233,520 235,160 246,230
247,3593 248,9539 249,1661 250,230
282,100 356,70
##END=
