##TITLE=Benzoic acid, o-mercapto-, methyl ester
##JCAMP-DX=4.24
##DATA TYPE=MASS SPECTRUM
##ORIGIN=Chuck Anderson, Aldrich Chemical Co.
##OWNER=NIST Mass Spectrometry Data Center
Collection (C) 2014 copyright by the U.S. Secretary of Commerce
on behalf of the United States of America. All rights reserved.
##CAS REGISTRY NO=4892-02-8
##$NIST MASS SPEC NO=117914
##MOLFORM=C8 H8 O2 S
##MW=168
##$NIST SOURCE=MSDC
##XUNITS=M/Z
##YUNITS=RELATIVE INTENSITY
##XFACTOR=1
##YFACTOR=1
##FIRSTX=15
##LASTX=170
##FIRSTY=250
##MAXX=170
##MINX=15
##MAXY=9999
##MINY=27
##NPOINTS=60
##PEAK TABLE=(XY..XY)
15,250 26,32 28,56 29,135
30,46 31,40 32,36 36,108
37,50 38,146 39,403 44,51
45,200 50,280 51,135 53,106
54,47 57,44 58,261 59,64
61,111 62,31 63,371 64,47
65,803 66,44 69,911 70,90
71,62 73,27 74,178 75,96
76,288 77,173 81,116 82,535
83,70 84,28 92,315 93,56
95,44 96,250 97,76 104,102
105,70 107,42 108,4081 109,1332
110,226 111,45 136,9999 137,1485
138,440 139,67 153,347 154,72
167,47 168,1760 169,143 170,75
##END=
