##TITLE=1,5-Heptadiene, 3-methyl-
##JCAMP-DX=4.24
##DATA TYPE=MASS SPECTRUM
##ORIGIN=NIST Mass Spectrometry Data Center, 1990.
##OWNER=NIST Mass Spectrometry Data Center
Collection (C) 2014 copyright by the U.S. Secretary of Commerce
on behalf of the United States of America. All rights reserved.
##CAS REGISTRY NO=4894-62-6
##$NIST MASS SPEC NO=113462
##MOLFORM=C8 H14
##MW=110
##$NIST SOURCE=MSDC
##XUNITS=M/Z
##YUNITS=RELATIVE INTENSITY
##XFACTOR=1
##YFACTOR=1
##FIRSTX=15
##LASTX=110
##FIRSTY=61
##MAXX=110
##MINX=15
##MAXY=9999
##MINY=40
##NPOINTS=38
##PEAK TABLE=(XY..XY)
15,61 26,193 27,1394 28,532
29,1440 30,40 32,54 37,46
39,2284 40,283 41,1092 42,99
43,49 44,47 50,259 51,454
52,219 53,1178 54,1231 55,9999
56,946 62,47 63,101 65,227
67,1043 68,735 69,126 77,299
78,77 79,338 80,156 81,1484
82,371 91,123 93,86 95,2651
96,209 110,61
##END=
