##TITLE=1,5-Hexadiene, 3,4-dimethyl-
##JCAMP-DX=4.24
##DATA TYPE=MASS SPECTRUM
##ORIGIN=D.HENNEBERG, MAX-PLANCK INSTITUTE, MULHEIM, WEST GERMANY
##OWNER=NIST Mass Spectrometry Data Center
Collection (C) 2014 copyright by the U.S. Secretary of Commerce
on behalf of the United States of America. All rights reserved.
##CAS REGISTRY NO=4894-63-7
##$NIST MASS SPEC NO=61551
##MOLFORM=C8 H14
##MW=110
##$NIST SOURCE=MSDC
##XUNITS=M/Z
##YUNITS=RELATIVE INTENSITY
##XFACTOR=1
##YFACTOR=1
##FIRSTX=25
##LASTX=110
##FIRSTY=17
##MAXX=110
##MINX=25
##MAXY=9999
##MINY=8
##NPOINTS=47
##PEAK TABLE=(XY..XY)
25,17 26,86 27,1125 28,134
29,1800 30,28 32,28 35,38
38,62 39,1162 40,127 41,818
42,30 43,36 45,34 50,90
51,222 52,69 53,720 54,1034
55,9999 56,1114 57,71 58,17
62,32 63,47 64,8 65,106
66,80 67,558 68,690 69,181
77,127 78,10 79,170 80,140
81,1458 82,372 83,43 84,25
91,34 93,30 95,1073 96,86
98,21 109,12 110,23
##END=
