##TITLE=1H-Imidazole, 5-chloro-1-methyl-4-nitro-
##JCAMP-DX=4.24
##DATA TYPE=MASS SPECTRUM
##ORIGIN=NIST Mass Spectrometry Data Center, 1990.
##OWNER=NIST Mass Spectrometry Data Center
Collection (C) 2014 copyright by the U.S. Secretary of Commerce
on behalf of the United States of America. All rights reserved.
##CAS REGISTRY NO=4897-25-0
##$NIST MASS SPEC NO=118920
##MOLFORM=C4 H4 Cl N3 O2
##MW=161
##$NIST SOURCE=MSDC
##XUNITS=M/Z
##YUNITS=RELATIVE INTENSITY
##XFACTOR=1
##YFACTOR=1
##FIRSTX=12
##LASTX=164
##FIRSTY=112
##MAXX=164
##MINX=12
##MAXY=9999
##MINY=5
##NPOINTS=81
##PEAK TABLE=(XY..XY)
12,112 13,5 14,122 15,1847
16,122 17,19 18,65 26,364
27,819 28,862 29,215 30,2122
32,131 35,128 36,107 38,702
39,706 40,502 41,638 42,3347
43,118 44,28 45,70 46,275
47,530 48,157 49,1240 50,226
51,1200 52,1149 53,834 54,158
55,127 56,71 57,148 59,143
60,78 61,532 62,243 63,299
64,210 65,246 66,111 67,604
68,71 69,99 73,750 74,1155
75,967 76,9999 77,674 78,2938
79,544 80,1725 81,100 82,71
83,1357 84,124 85,117 86,533
87,98 88,533 89,146 90,116
100,318 102,100 104,2739 106,926
110,592 115,1303 116,156 117,492
118,104 131,879 133,339 145,327
147,99 161,5500 162,472 163,1892
164,113
##END=
