##TITLE=Gentisic acid
##JCAMP-DX=4.24
##DATA TYPE=MASS SPECTRUM
##ORIGIN=Japan AIST/NIMC Database- Spectrum MS-NW- 197
##OWNER=NIST Mass Spectrometry Data Center
Collection (C) 2014 copyright by the U.S. Secretary of Commerce
on behalf of the United States of America. All rights reserved.
##CAS REGISTRY NO=490-79-9
##$NIST MASS SPEC NO=228387
##MOLFORM=C7 H6 O4
##MW=154
##$NIST SOURCE=MSDC
##XUNITS=M/Z
##YUNITS=RELATIVE INTENSITY
##XFACTOR=1
##YFACTOR=1
##FIRSTX=2
##LASTX=156
##FIRSTY=20
##MAXX=156
##MINX=2
##MAXY=9999
##MINY=10
##NPOINTS=79
##PEAK TABLE=(XY..XY)
2,20 14,10 15,20 17,20
18,70 19,20 25,80 26,399
27,599 28,50 29,289 30,10
31,30 36,10 37,119 38,149
39,269 40,40 41,80 42,90
43,70 44,30 45,249 46,30
48,10 49,99 50,439 51,849
52,2659 53,1559 54,759 55,399
56,10 57,10 58,10 60,30
61,159 62,239 63,319 64,50
65,20 66,40 67,20 68,70
69,269 70,40 71,80 72,10
73,10 74,20 77,99 78,40
79,549 80,2829 81,539 82,969
83,50 90,10 91,20 92,30
93,30 97,90 98,10 99,10
107,329 108,3059 109,359 110,70
120,20 125,20 135,379 136,9999
137,979 138,119 150,10 153,60
154,3809 155,309 156,40
##END=
