##TITLE=Thymoquinone
##JCAMP-DX=4.24
##DATA TYPE=MASS SPECTRUM
##ORIGIN=Japan AIST/NIMC Database- Spectrum MS-NW-1437
##OWNER=NIST Mass Spectrometry Data Center
Collection (C) 2014 copyright by the U.S. Secretary of Commerce
on behalf of the United States of America. All rights reserved.
##CAS REGISTRY NO=490-91-5
##$NIST MASS SPEC NO=233824
##MOLFORM=C10 H12 O2
##MW=164
##$NIST SOURCE=MSDC
##XUNITS=M/Z
##YUNITS=RELATIVE INTENSITY
##XFACTOR=1
##YFACTOR=1
##FIRSTX=14
##LASTX=167
##FIRSTY=10
##MAXX=167
##MINX=14
##MAXY=9999
##MINY=10
##NPOINTS=120
##PEAK TABLE=(XY..XY)
14,10 15,169 18,10 25,10
26,169 27,1589 28,249 29,159
31,10 32,10 37,139 38,509
39,3689 40,2289 41,1769 42,209
43,989 44,30 45,70 46,40
47,10 49,40 50,479 51,1069
52,709 53,2159 54,219 55,669
56,30 57,50 58,30 59,50
60,40 61,60 62,159 63,349
64,109 65,809 66,519 67,1359
68,1909 69,649 70,40 71,10
72,10 73,20 74,109 75,70
76,50 77,2119 78,449 79,839
80,359 81,819 82,129 83,30
85,20 86,20 87,20 89,70
90,60 91,2039 92,289 93,4689
94,509 95,649 96,859 97,90
98,30 101,10 102,40 103,579
104,80 105,159 106,99 107,649
108,1389 109,269 110,70 111,20
113,10 114,10 115,149 116,50
117,439 118,149 119,189 120,139
121,4919 122,579 123,409 124,139
125,10 127,40 128,30 129,40
131,279 132,40 133,50 134,40
135,639 136,4789 137,549 138,40
144,10 145,219 146,99 147,309
148,60 149,3869 150,409 151,339
152,30 161,30 162,40 163,289
164,9999 165,1139 166,259 167,30
##END=
