##TITLE=Ethanone, 1-(2,5-dihydroxyphenyl)-
##JCAMP-DX=4.24
##DATA TYPE=MASS SPECTRUM
##ORIGIN=Japan AIST/NIMC Database- Spectrum MS-NW-6482
##OWNER=NIST Mass Spectrometry Data Center
Collection (C) 2014 copyright by the U.S. Secretary of Commerce
on behalf of the United States of America. All rights reserved.
##CAS REGISTRY NO=490-78-8
##$NIST MASS SPEC NO=235121
##MOLFORM=C8 H8 O3
##MW=152
##$NIST SOURCE=MSDC
##XUNITS=M/Z
##YUNITS=RELATIVE INTENSITY
##XFACTOR=1
##YFACTOR=1
##FIRSTX=14
##LASTX=154
##FIRSTY=50
##MAXX=154
##MINX=14
##MAXY=9999
##MINY=10
##NPOINTS=87
##PEAK TABLE=(XY..XY)
14,50 15,259 18,20 25,50
26,269 27,579 28,189 29,209
31,10 36,10 37,90 38,139
39,449 40,60 41,129 42,159
43,2119 44,60 45,20 47,10
48,10 49,80 50,249 51,509
52,559 53,779 54,329 55,429
56,20 60,10 61,90 62,139
63,239 64,50 65,70 66,50
67,90 68,139 69,559 70,20
71,10 73,10 74,40 75,20
76,99 77,239 78,219 79,139
80,109 81,1369 82,189 83,20
84,10 86,10 87,10 90,10
91,10 92,20 93,20 94,20
95,90 96,10 104,10 105,159
106,119 107,70 108,309 109,1779
110,289 111,30 121,10 122,20
123,70 124,20 132,10 133,109
134,539 135,99 136,109 137,9999
138,789 139,90 150,159 151,139
152,7819 153,719 154,90
##END=
