##TITLE=Alloxazine
##JCAMP-DX=4.24
##DATA TYPE=MASS SPECTRUM
##ORIGIN=Japan AIST/NIMC Database- Spectrum MS-NW-7864
##OWNER=NIST Mass Spectrometry Data Center
Collection (C) 2014 copyright by the U.S. Secretary of Commerce
on behalf of the United States of America. All rights reserved.
##CAS REGISTRY NO=490-59-5
##$NIST MASS SPEC NO=238390
##MOLFORM=C10 H6 N4 O2
##MW=214
##$NIST SOURCE=MSDC
##XUNITS=M/Z
##YUNITS=RELATIVE INTENSITY
##XFACTOR=1
##YFACTOR=1
##FIRSTX=15
##LASTX=217
##FIRSTY=30
##MAXX=217
##MINX=15
##MAXY=9999
##MINY=10
##NPOINTS=97
##PEAK TABLE=(XY..XY)
15,30 16,10 26,20 27,99
28,149 29,20 37,80 38,239
39,329 40,50 41,119 42,20
43,80 44,229 45,80 46,30
50,299 51,379 52,259 53,159
54,40 55,10 57,20 58,70
59,20 60,20 61,40 62,369
63,469 64,539 65,349 66,99
67,129 68,20 69,30 70,319
71,309 72,40 74,70 75,419
76,469 77,169 78,80 79,20
85,119 86,20 87,40 88,209
89,759 90,699 91,229 92,60
93,20 94,10 99,20 100,40
101,189 102,579 103,99 104,30
105,30 107,90 114,20 115,189
116,2389 117,269 118,90 119,10
128,90 129,20 130,10 131,20
141,10 142,179 143,9999 144,1149
145,80 146,40 157,20 158,30
159,20 161,20 168,50 169,10
170,259 171,1289 172,149 173,10
186,20 189,40 196,99 197,20
213,20 214,8649 215,1089 216,99
217,20
##END=
