##TITLE=1,5,9-Cyclododecatriene
##JCAMP-DX=4.24
##DATA TYPE=MASS SPECTRUM
##ORIGIN=NIST Mass Spectrometry Data Center, 1990.
##OWNER=NIST Mass Spectrometry Data Center
Collection (C) 2014 copyright by the U.S. Secretary of Commerce
on behalf of the United States of America. All rights reserved.
##CAS REGISTRY NO=4904-61-4
##$NIST MASS SPEC NO=113011
##MOLFORM=C12 H18
##MW=162
##$NIST SOURCE=MSDC
##XUNITS=M/Z
##YUNITS=RELATIVE INTENSITY
##XFACTOR=1
##YFACTOR=1
##FIRSTX=26
##LASTX=162
##FIRSTY=175
##MAXX=162
##MINX=26
##MAXY=9999
##MINY=51
##NPOINTS=47
##PEAK TABLE=(XY..XY)
26,175 27,1750 28,801 29,462
39,4496 40,589 41,3118 42,138
43,51 50,207 51,654 52,447
53,1653 54,9999 55,683 62,62
63,192 65,973 66,901 67,3719
68,207 77,1100 78,721 79,3161
80,2730 81,465 91,1639 92,705
93,3093 94,666 95,369 96,101
103,64 105,494 106,317 107,228
108,469 117,54 119,1267 120,731
121,548 133,1352 134,960 135,91
147,162 161,88 162,300
##END=
