##TITLE=1H-Indene, 2,3-dihydro-1,1-dimethyl-
##JCAMP-DX=4.24
##DATA TYPE=MASS SPECTRUM
##OWNER=NIST Mass Spectrometry Data Center
Collection (C) 2014 copyright by the U.S. Secretary of Commerce
on behalf of the United States of America. All rights reserved.
##CAS REGISTRY NO=4912-92-9
##$NIST MASS SPEC NO=4234
##MOLFORM=C11 H14
##MW=146
##$NIST SOURCE=MSDC
##XUNITS=M/Z
##YUNITS=RELATIVE INTENSITY
##XFACTOR=1
##YFACTOR=1
##FIRSTX=12
##LASTX=148
##FIRSTY=10
##MAXX=148
##MINX=12
##MAXY=9999
##MINY=10
##NPOINTS=109
##PEAK TABLE=(XY..XY)
12,10 13,10 14,20 15,611
16,10 17,10 18,10 25,10
26,90 27,571 28,90 29,100
30,10 31,10 32,10 36,10
37,30 38,110 39,761 40,30
41,230 42,10 43,20 44,10
45,10 49,10 50,270 51,671
52,150 53,320 54,20 55,10
56,10 57,30 58,80 59,10
61,30 62,130 63,390 64,490
65,480 66,30 67,20 68,10
69,10 70,20 71,80 72,70
73,10 74,110 75,130 76,90
77,130 78,140 79,80 80,10
83,10 84,10 85,10 86,30
87,50 88,20 89,190 90,30
91,1712 92,140 93,10 97,10
98,10 99,10 100,10 101,50
102,150 103,230 104,60 105,90
106,10 110,10 111,10 112,10
113,30 114,70 115,1111 116,761
117,130 118,10 119,10 120,10
121,10 122,10 123,10 126,30
127,200 128,370 129,520 130,240
131,9999 132,1101 133,60 139,10
140,10 141,20 142,10 143,10
144,10 145,20 146,1451 147,180
148,10
##END=
