##TITLE=2-Pentene, 3,4-dimethyl-, (E)-
##JCAMP-DX=4.24
##DATA TYPE=MASS SPECTRUM
##ORIGIN=Japan AIST/NIMC Database- Spectrum MS-NW-3498
##OWNER=NIST Mass Spectrometry Data Center
Collection (C) 2014 copyright by the U.S. Secretary of Commerce
on behalf of the United States of America. All rights reserved.
##CAS REGISTRY NO=4914-92-5
##$NIST MASS SPEC NO=227585
##MOLFORM=C7 H14
##MW=98
##$NIST SOURCE=MSDC
##XUNITS=M/Z
##YUNITS=RELATIVE INTENSITY
##XFACTOR=1
##YFACTOR=1
##FIRSTX=14
##LASTX=100
##FIRSTY=20
##MAXX=100
##MINX=14
##MAXY=9999
##MINY=10
##NPOINTS=59
##PEAK TABLE=(XY..XY)
14,20 15,209 16,10 26,129
27,1469 28,159 29,959 30,20
36,20 37,50 38,149 39,1869
40,279 41,4159 42,379 43,1609
44,50 45,20 49,30 50,229
51,399 52,159 53,869 54,279
55,9329 56,919 57,149 58,10
59,20 61,30 62,50 63,99
64,20 65,219 66,80 67,899
68,139 69,1189 70,449 71,109
72,20 74,30 75,10 77,119
78,20 79,149 80,30 81,329
82,179 83,9999 84,629 85,30
86,20 95,10 96,20 97,90
98,3769 99,299 100,10
##END=
