##TITLE=3-Hexene, 3-methyl-, (Z)-
##JCAMP-DX=4.24
##DATA TYPE=MASS SPECTRUM
##ORIGIN=NIST Mass Spectrometry Data Center, 1990.
##OWNER=NIST Mass Spectrometry Data Center
Collection (C) 2014 copyright by the U.S. Secretary of Commerce
on behalf of the United States of America. All rights reserved.
##CAS REGISTRY NO=4914-89-0
##$NIST MASS SPEC NO=114414
##MOLFORM=C7 H14
##MW=98
##$NIST SOURCE=MSDC
##XUNITS=M/Z
##YUNITS=RELATIVE INTENSITY
##XFACTOR=1
##YFACTOR=1
##FIRSTX=15
##LASTX=99
##FIRSTY=529
##MAXX=99
##MINX=15
##MAXY=9999
##MINY=116
##NPOINTS=30
##PEAK TABLE=(XY..XY)
15,529 26,243 27,2223 28,297
29,1272 38,341 39,3586 40,791
41,8071 42,658 43,567 50,348
51,672 52,258 53,1400 55,7087
56,1919 57,116 63,214 65,390
66,171 67,1188 69,9999 70,1403
77,231 79,259 81,260 83,1470
98,3434 99,264
##END=
