##TITLE=Benzene, 1-methoxy-4-(1-methylpropyl)-
##JCAMP-DX=4.24
##DATA TYPE=MASS SPECTRUM
##ORIGIN=Japan AIST/NIMC Database- Spectrum MS-IW-3494
##OWNER=NIST Mass Spectrometry Data Center
Collection (C) 2014 copyright by the U.S. Secretary of Commerce
on behalf of the United States of America. All rights reserved.
##CAS REGISTRY NO=4917-90-2
##$NIST MASS SPEC NO=236318
##MOLFORM=C11 H16 O
##MW=164
##$NIST SOURCE=MSDC
##XUNITS=M/Z
##YUNITS=RELATIVE INTENSITY
##XFACTOR=1
##YFACTOR=1
##FIRSTX=15
##LASTX=166
##FIRSTY=20
##MAXX=166
##MINX=15
##MAXY=9999
##MINY=10
##NPOINTS=72
##PEAK TABLE=(XY..XY)
15,20 26,10 27,119 28,20
29,109 38,20 39,219 40,30
41,169 42,10 43,10 50,70
51,169 52,60 53,80 55,109
57,20 62,30 63,149 64,80
65,299 66,50 67,10 74,20
75,30 76,40 77,549 78,209
79,409 80,30 89,90 90,50
91,789 92,189 93,50 94,70
95,10 101,10 102,60 103,509
104,129 105,1339 106,129 107,60
108,60 109,90 115,109 116,30
117,80 118,30 119,189 120,329
121,789 122,70 128,10 129,10
131,40 132,20 133,90 134,159
135,9999 136,999 137,70 147,40
148,30 149,589 150,70 161,10
163,40 164,1719 165,209 166,10
##END=
