##TITLE=Cathine
##JCAMP-DX=4.24
##DATA TYPE=MASS SPECTRUM
##ORIGIN=Virginia Division of Forensic Science
##OWNER=NIST Mass Spectrometry Data Center
Collection (C) 2014 copyright by the U.S. Secretary of Commerce
on behalf of the United States of America. All rights reserved.
##CAS REGISTRY NO=492-39-7
##$NIST MASS SPEC NO=250685
##MOLFORM=C9 H13 N O
##MW=151
##$NIST SOURCE=MSDC
##XUNITS=M/Z
##YUNITS=RELATIVE INTENSITY
##XFACTOR=1
##YFACTOR=1
##FIRSTX=41
##LASTX=119
##FIRSTY=30
##MAXX=119
##MINX=41
##MAXY=9999
##MINY=20
##NPOINTS=31
##PEAK TABLE=(XY..XY)
41,30 42,210 43,120 44,9999
45,300 50,110 51,310 52,80
53,60 59,20 62,20 63,70
65,50 74,40 75,20 76,30
77,840 78,200 79,540 80,40
89,50 90,30 91,110 105,190
106,50 107,180 108,20 115,30
117,90 118,80 119,20
##END=
