##TITLE=.beta.-D-Glucopyranose
##JCAMP-DX=4.24
##DATA TYPE=MASS SPECTRUM
##ORIGIN=Japan AIST/NIMC Database- Spectrum MS-IW-5616
##OWNER=NIST Mass Spectrometry Data Center
Collection (C) 2014 copyright by the U.S. Secretary of Commerce
on behalf of the United States of America. All rights reserved.
##CAS REGISTRY NO=492-61-5
##$NIST MASS SPEC NO=242599
##MOLFORM=C6 H12 O6
##MW=180
##$NIST SOURCE=MSDC
##XUNITS=M/Z
##YUNITS=RELATIVE INTENSITY
##XFACTOR=1
##YFACTOR=1
##FIRSTX=13
##LASTX=163
##FIRSTY=60
##MAXX=163
##MINX=13
##MAXY=9999
##MINY=10
##NPOINTS=124
##PEAK TABLE=(XY..XY)
13,60 14,469 15,769 16,50
17,749 18,2900 19,239 24,40
25,139 26,659 27,759 28,2299
29,2859 30,1089 31,3139 32,929
33,70 34,10 36,20 37,70
38,109 39,479 40,209 41,789
42,3209 43,3749 44,1809 45,999
46,60 47,379 49,99 50,119
51,109 52,119 53,279 54,359
55,1239 56,1499 57,2459 58,389
59,179 60,7469 61,3309 62,189
63,50 64,40 65,30 66,80
67,50 68,269 69,799 70,469
71,2269 72,1399 73,9999 74,1299
75,119 76,20 77,129 78,30
79,30 80,129 81,119 82,80
83,119 84,319 85,779 86,409
87,259 88,50 89,329 90,169
91,519 92,50 93,10 94,60
95,239 96,329 97,559 98,459
99,99 100,20 101,609 102,559
103,669 104,40 105,20 106,10
107,20 108,30 109,60 110,99
111,20 112,10 113,90 114,40
115,189 116,109 117,10 118,10
119,309 120,50 121,30 122,10
123,10 124,10 125,20 126,119
127,129 128,20 129,10 131,629
132,50 133,269 134,20 135,10
143,10 144,80 145,50 149,129
150,10 151,10 152,10 163,40
##END=
