##TITLE=3-Methyl-2-nitrophenol
##JCAMP-DX=4.24
##DATA TYPE=MASS SPECTRUM
##ORIGIN=Japan AIST/NIMC Database- Spectrum MS-NW-6693
##OWNER=NIST Mass Spectrometry Data Center
Collection (C) 2014 copyright by the U.S. Secretary of Commerce
on behalf of the United States of America. All rights reserved.
##CAS REGISTRY NO=4920-77-8
##$NIST MASS SPEC NO=235428
##MOLFORM=C7 H7 N O3
##MW=153
##$NIST SOURCE=MSDC
##XUNITS=M/Z
##YUNITS=RELATIVE INTENSITY
##XFACTOR=1
##YFACTOR=1
##FIRSTX=12
##LASTX=156
##FIRSTY=10
##MAXX=156
##MINX=12
##MAXY=9999
##MINY=10
##NPOINTS=111
##PEAK TABLE=(XY..XY)
12,10 13,10 14,30 15,80
16,20 18,20 25,40 26,359
27,1649 28,919 29,509 30,799
31,179 32,30 33,10 34,10
35,10 36,40 37,509 38,1069
39,4989 40,479 41,1009 42,99
43,309 44,70 45,50 46,80
47,30 48,30 49,189 50,1679
51,4319 52,6789 53,5369 54,419
55,899 56,50 57,20 59,10
60,40 61,289 62,599 63,1639
64,729 65,1679 66,669 67,659
68,229 69,90 70,20 71,10
72,10 73,90 74,359 75,299
76,409 77,8619 78,4879 79,3339
80,3039 81,3479 82,269 83,30
84,10 85,40 86,60 87,70
88,30 89,99 90,759 91,709
92,379 93,209 94,209 95,259
96,50 97,10 99,10 101,10
102,10 103,10 104,30 105,1229
106,3569 107,699 108,2199 109,669
110,50 118,139 119,40 120,189
121,99 122,50 123,209 124,30
125,10 133,10 134,20 135,159
136,9649 137,909 138,90 139,10
150,10 151,10 152,20 153,9999
154,839 155,99 156,10
##END=
