##TITLE=Azetidine, 1-methyl-
##JCAMP-DX=4.24
##DATA TYPE=MASS SPECTRUM
##ORIGIN=R. G. KOSTYANOVSKY
##OWNER=NIST Mass Spectrometry Data Center
Collection (C) 2014 copyright by the U.S. Secretary of Commerce
on behalf of the United States of America. All rights reserved.
##CAS REGISTRY NO=4923-79-9
##$NIST MASS SPEC NO=41100
##MOLFORM=C4 H9 N
##MW=71
##$NIST SOURCE=MSDC
##XUNITS=M/Z
##YUNITS=RELATIVE INTENSITY
##XFACTOR=1
##YFACTOR=1
##FIRSTX=27
##LASTX=72
##FIRSTY=1500
##MAXX=72
##MINX=27
##MAXY=9999
##MINY=200
##NPOINTS=18
##PEAK TABLE=(XY..XY)
27,1500 28,9999 29,1600 30,7500
31,1200 39,800 40,500 41,2000
42,6600 43,4000 44,1300 45,500
55,200 56,3600 57,300 70,1000
71,3000 72,300
##END=
