##TITLE=Cyclohexane, 1-ethyl-1-methyl-
##JCAMP-DX=4.24
##DATA TYPE=MASS SPECTRUM
##OWNER=NIST Mass Spectrometry Data Center
Collection (C) 2014 copyright by the U.S. Secretary of Commerce
on behalf of the United States of America. All rights reserved.
##CAS REGISTRY NO=4926-90-3
##$NIST MASS SPEC NO=2482
##MOLFORM=C9 H18
##MW=126
##$NIST SOURCE=MSDC
##XUNITS=M/Z
##YUNITS=RELATIVE INTENSITY
##XFACTOR=1
##YFACTOR=1
##FIRSTX=12
##LASTX=127
##FIRSTY=10
##MAXX=127
##MINX=12
##MAXY=9999
##MINY=10
##NPOINTS=80
##PEAK TABLE=(XY..XY)
12,10 13,10 14,30 15,300
16,10 25,10 26,140 27,1912
28,340 29,1631 30,40 31,10
37,10 38,70 39,1672 40,250
41,3323 42,450 43,751 44,30
45,10 46,10 47,10 48,10
49,10 50,80 51,220 52,100
53,671 54,340 55,8638 56,781
57,320 58,10 61,10 62,20
63,50 64,10 65,110 66,50
67,470 68,260 69,1862 70,731
71,100 72,10 73,10 74,10
75,10 76,10 77,130 78,30
79,110 80,20 81,480 82,80
83,480 84,70 85,10 86,10
87,10 89,10 90,10 91,40
92,10 93,10 94,10 95,50
96,2082 97,9999 98,791 99,30
109,10 110,20 111,661 112,60
113,10 125,10 126,30 127,10
##END=
