##TITLE=Bicyclo[3.2.0]hept-6-ene
##JCAMP-DX=4.24
##DATA TYPE=MASS SPECTRUM
##ORIGIN=A.G. HARRISON, UNIV. OF TORONTO, TORONTO 5, ONTARIO, CANADA
##OWNER=NIST Mass Spectrometry Data Center
Collection (C) 2014 copyright by the U.S. Secretary of Commerce
on behalf of the United States of America. All rights reserved.
##CAS REGISTRY NO=4927-03-1
##$NIST MASS SPEC NO=797
##MOLFORM=C7 H10
##MW=94
##$NIST SOURCE=MSDC
##XUNITS=M/Z
##YUNITS=RELATIVE INTENSITY
##XFACTOR=1
##YFACTOR=1
##FIRSTX=27
##LASTX=94
##FIRSTY=854
##MAXX=94
##MINX=27
##MAXY=9999
##MINY=475
##NPOINTS=12
##PEAK TABLE=(XY..XY)
27,854 39,1962 41,759 53,696
65,791 66,1835 77,2627 79,9999
91,1994 92,475 93,1487 94,1203
##END=
