##TITLE=7-Amino-2,3-dihydro-5-phenyl-1H-1,4-benzodiazepin-2-one
##JCAMP-DX=4.24
##DATA TYPE=MASS SPECTRUM
##ORIGIN=NIST Mass Spectrometry Data Center, 2013
##OWNER=NIST Mass Spectrometry Data Center
Collection (C) 2014 copyright by the U.S. Secretary of Commerce
on behalf of the United States of America. All rights reserved.
##CAS REGISTRY NO=4928-02-3
##$NIST MASS SPEC NO=417051
##MOLFORM=C15 H13 N3 O
##MW=251
##$NIST SOURCE=MSDC
##XUNITS=M/Z
##YUNITS=RELATIVE INTENSITY
##XFACTOR=1
##YFACTOR=1
##FIRSTX=15
##LASTX=255
##FIRSTY=30
##MAXX=255
##MINX=15
##MAXY=9999
##MINY=10
##NPOINTS=183
##PEAK TABLE=(XY..XY)
15,30 20,10 26,70 27,260
28,105 29,110 30,90 31,10
35,20 36,30 37,30 38,150
39,751 40,140 41,400 42,280
43,50 44,20 45,30 49,20
50,380 51,1131 52,1211 53,540
54,370 55,50 56,30 57,80
58,20 59,10 61,40 62,280
63,851 64,410 65,1061 66,440
67,130 68,40 69,140 70,240
71,60 72,10 73,30 74,210
75,370 76,641 77,1471 78,561
79,460 80,230 81,30 82,150
83,971 86,110 87,220 88,300
89,961 90,571 91,901 92,881
93,440 94,70 95,10 97,1001
100,140 101,150 102,370 103,961
104,681 105,741 106,130 107,80
108,100 109,20 110,1411 111,360
113,400 114,430 115,1031 116,641
117,701 118,350 119,1451 120,320
121,40 122,20 123,20 124,20
125,130 126,280 127,320 128,320
129,150 130,90 131,160 132,180
133,60 134,120 135,20 137,70
138,110 139,721 140,671 141,320
142,120 143,110 144,841 145,170
146,220 147,170 148,60 149,30
150,190 151,601 152,561 153,260
154,230 155,120 156,40 157,30
159,40 162,20 163,70 164,170
165,130 166,711 167,1181 168,460
169,140 170,30 172,20 173,10
174,20 175,20 176,80 177,290
178,510 179,260 180,410 181,130
182,100 183,30 184,10 189,20
190,40 191,60 192,270 193,450
194,631 195,1812 196,300 197,30
203,50 204,50 205,390 206,330
207,270 208,170 209,140 210,30
216,10 217,10 218,10 219,50
220,370 221,450 222,7867 223,5275
224,821 225,80 232,10 233,130
234,90 235,230 236,50 248,30
249,100 250,2502 251,9999 252,1792
253,160 254,20 255,10
##END=
