##TITLE=1,2-Ethanediamine, N,N-dimethyl-N'-phenyl-N'-(2-thienylmethyl)-
##JCAMP-DX=4.24
##DATA TYPE=MASS SPECTRUM
##ORIGIN=Finnigan MAT: Toxicological Library (LIBR-TX)
##OWNER=NIST Mass Spectrometry Data Center
Collection (C) 2014 copyright by the U.S. Secretary of Commerce
on behalf of the United States of America. All rights reserved.
##CAS REGISTRY NO=493-78-7
##$NIST MASS SPEC NO=119333
##MOLFORM=C15 H20 N2 S
##MW=260
##$NIST SOURCE=MSDC
##XUNITS=M/Z
##YUNITS=RELATIVE INTENSITY
##XFACTOR=1
##YFACTOR=1
##FIRSTX=45
##LASTX=261
##FIRSTY=332
##MAXX=261
##MINX=45
##MAXY=9999
##MINY=1
##NPOINTS=36
##PEAK TABLE=(XY..XY)
45,332 51,589 53,567 58,9999
59,345 70,148 73,162 77,1298
91,193 97,7749 98,498 99,340
104,625 105,383 111,65 117,39
118,35 128,9 130,32 154,6
159,5 161,93 167,5 168,6
186,181 187,154 188,71 202,1576
203,198 204,77 212,10 213,17
214,5 252,1 260,328 261,32
##END=
