##TITLE=Isochroman
##JCAMP-DX=4.24
##DATA TYPE=MASS SPECTRUM
##ORIGIN=Chuck Anderson, Aldrich Chemical Co.
##OWNER=NIST Mass Spectrometry Data Center
Collection (C) 2014 copyright by the U.S. Secretary of Commerce
on behalf of the United States of America. All rights reserved.
##CAS REGISTRY NO=493-05-0
##$NIST MASS SPEC NO=108120
##MOLFORM=C9 H10 O
##MW=134
##$NIST SOURCE=MSDC
##XUNITS=M/Z
##YUNITS=RELATIVE INTENSITY
##XFACTOR=1
##YFACTOR=1
##FIRSTX=14
##LASTX=136
##FIRSTY=1
##MAXX=136
##MINX=14
##MAXY=9999
##MINY=1
##NPOINTS=85
##PEAK TABLE=(XY..XY)
14,1 15,6 25,6 26,63
27,513 28,52 29,180 30,48
31,21 36,1 37,75 38,197
39,972 40,65 41,58 42,10
43,25 44,10 45,3 48,1
49,40 50,534 51,1152 52,385
53,171 54,16 55,189 56,8
57,11 58,2 59,2 60,4
61,53 62,173 63,499 64,83
65,263 66,75 67,4 72,1
73,38 74,249 75,196 76,243
77,2166 78,1999 79,937 80,59
81,1 84,2 85,18 86,36
87,46 88,11 89,244 90,65
91,652 92,58 93,6 94,2
97,10 98,46 99,13 100,1
101,49 102,451 103,2666 104,9999
105,3694 106,826 107,82 108,8
113,6 114,1 115,373 116,47
117,15 118,24 119,32 131,63
132,12 133,2360 134,4805 135,439
136,31
##END=
