##TITLE=2H-1-Benzopyran, 3,4-dihydro-
##JCAMP-DX=4.24
##DATA TYPE=MASS SPECTRUM
##ORIGIN=ORMSBG,10(11)992(1975); H. BUDZIKIEWICZ
##OWNER=NIST Mass Spectrometry Data Center
Collection (C) 2014 copyright by the U.S. Secretary of Commerce
on behalf of the United States of America. All rights reserved.
##CAS REGISTRY NO=493-08-3
##$NIST MASS SPEC NO=54713
##MOLFORM=C9 H10 O
##MW=134
##$NIST SOURCE=MSDC
##XUNITS=M/Z
##YUNITS=RELATIVE INTENSITY
##XFACTOR=1
##YFACTOR=1
##FIRSTX=41
##LASTX=136
##FIRSTY=100
##MAXX=136
##MINX=41
##MAXY=9999
##MINY=100
##NPOINTS=45
##PEAK TABLE=(XY..XY)
41,100 42,100 50,600 51,1500
52,700 53,200 55,200 58,100
61,100 62,200 63,600 64,100
65,500 66,400 67,200 74,300
75,200 76,200 77,1700 78,4100
79,800 89,400 90,400 91,2400
92,300 94,300 102,100 103,500
104,200 105,1400 106,2200 107,900
108,100 115,1200 116,400 117,600
118,100 119,2700 120,300 131,800
132,400 133,3400 134,9999 135,1100
136,100
##END=
