##TITLE=2-Hydrazinopyridine
##JCAMP-DX=4.24
##DATA TYPE=MASS SPECTRUM
##ORIGIN=Japan AIST/NIMC Database- Spectrum MS-IW-2341
##OWNER=NIST Mass Spectrometry Data Center
Collection (C) 2014 copyright by the U.S. Secretary of Commerce
on behalf of the United States of America. All rights reserved.
##CAS REGISTRY NO=4930-98-7
##$NIST MASS SPEC NO=235289
##MOLFORM=C5 H7 N3
##MW=109
##$NIST SOURCE=MSDC
##XUNITS=M/Z
##YUNITS=RELATIVE INTENSITY
##XFACTOR=1
##YFACTOR=1
##FIRSTX=14
##LASTX=111
##FIRSTY=20
##MAXX=111
##MINX=14
##MAXY=9999
##MINY=10
##NPOINTS=58
##PEAK TABLE=(XY..XY)
14,20 15,10 16,30 17,70
25,10 26,189 27,329 28,1019
29,99 30,60 31,159 32,40
36,20 37,189 38,469 39,1029
40,319 41,299 42,50 43,60
44,189 47,20 48,10 49,99
50,549 51,1379 52,3079 53,1029
54,119 55,60 56,30 57,10
62,20 63,70 64,259 65,559
66,699 67,1039 68,60 74,10
75,80 76,90 77,40 78,1119
79,8289 80,1239 81,109 82,10
91,60 92,199 93,219 94,969
95,70 107,10 108,809 109,9999
110,669 111,20
##END=
