##TITLE=1-Hepten-3-ol
##JCAMP-DX=4.24
##DATA TYPE=MASS SPECTRUM
##ORIGIN=NIST Mass Spectrometry Data Center, 1990.
##OWNER=NIST Mass Spectrometry Data Center
Collection (C) 2014 copyright by the U.S. Secretary of Commerce
on behalf of the United States of America. All rights reserved.
##CAS REGISTRY NO=4938-52-7
##$NIST MASS SPEC NO=114502
##MOLFORM=C7 H14 O
##MW=114
##$NIST SOURCE=MSDC
##XUNITS=M/Z
##YUNITS=RELATIVE INTENSITY
##XFACTOR=1
##YFACTOR=1
##FIRSTX=26
##LASTX=96
##FIRSTY=182
##MAXX=96
##MINX=26
##MAXY=9999
##MINY=100
##NPOINTS=38
##PEAK TABLE=(XY..XY)
26,182 27,1116 28,153 29,1629
30,153 31,407 38,171 39,1293
40,286 41,1816 42,365 43,1347
44,263 45,144 50,119 51,237
52,108 53,516 54,848 55,1043
56,108 57,9999 58,628 65,207
66,143 67,651 68,441 69,313
70,263 71,462 72,1734 73,106
77,113 79,234 81,1009 85,635
86,100 96,389
##END=
