##TITLE=5H-Dibenz[b,f]azepine, 10,11-dihydro-
##JCAMP-DX=4.24
##DATA TYPE=MASS SPECTRUM
##ORIGIN=Japan AIST/NIMC Database- Spectrum MS-NW-5786
##OWNER=NIST Mass Spectrometry Data Center
Collection (C) 2014 copyright by the U.S. Secretary of Commerce
on behalf of the United States of America. All rights reserved.
##CAS REGISTRY NO=494-19-9
##$NIST MASS SPEC NO=232784
##MOLFORM=C14 H13 N
##MW=195
##$NIST SOURCE=MSDC
##XUNITS=M/Z
##YUNITS=RELATIVE INTENSITY
##XFACTOR=1
##YFACTOR=1
##FIRSTX=14
##LASTX=197
##FIRSTY=20
##MAXX=197
##MINX=14
##MAXY=9999
##MINY=10
##NPOINTS=113
##PEAK TABLE=(XY..XY)
14,20 26,10 27,90 28,10
37,10 38,50 39,249 40,30
41,40 44,20 50,129 51,309
52,119 53,40 54,10 57,10
58,20 61,20 62,90 63,279
64,90 65,179 66,30 69,70
70,90 71,30 72,10 73,10
74,60 75,90 76,149 77,309
78,139 79,20 80,20 81,40
82,109 83,729 84,119 85,10
86,30 87,40 88,40 89,359
90,419 91,299 92,30 93,10
94,20 95,219 96,1169 97,369
98,40 99,20 100,10 101,50
102,70 103,40 104,30 107,10
111,10 113,40 114,40 115,139
116,169 117,259 118,489 119,40
125,10 126,40 127,90 128,129
129,70 130,50 137,10 138,20
139,119 140,90 141,50 142,20
143,20 150,20 151,99 152,229
153,99 154,99 155,10 156,10
162,10 163,50 164,80 165,379
166,219 167,479 168,169 169,30
175,10 176,70 177,149 178,379
179,519 180,2149 181,319 182,20
189,20 190,109 191,329 192,559
193,1219 194,6399 195,9999 196,1489
197,139
##END=
