##TITLE=Benzofuran, 4,5,6,7-tetrahydro-3,6-dimethyl-
##JCAMP-DX=4.24
##DATA TYPE=MASS SPECTRUM
##OWNER=NIST Mass Spectrometry Data Center
Collection (C) 2014 copyright by the U.S. Secretary of Commerce
on behalf of the United States of America. All rights reserved.
##CAS REGISTRY NO=494-90-6
##$NIST MASS SPEC NO=21454
##MOLFORM=C10 H14 O
##MW=150
##$NIST SOURCE=MSDC
##XUNITS=M/Z
##YUNITS=RELATIVE INTENSITY
##XFACTOR=1
##YFACTOR=1
##FIRSTX=27
##LASTX=151
##FIRSTY=330
##MAXX=151
##MINX=27
##MAXY=9999
##MINY=50
##NPOINTS=42
##PEAK TABLE=(XY..XY)
27,330 29,170 38,60 39,751
40,120 41,601 43,160 50,100
51,340 52,190 53,330 55,170
63,150 64,60 65,320 66,140
67,100 77,721 78,260 79,1301
80,240 91,490 92,60 93,170
95,200 103,70 105,240 107,160
108,9999 109,841 110,50 115,80
117,70 121,230 122,90 131,60
135,230 145,100 146,90 149,150
150,2582 151,300
##END=
