##TITLE=Anabasine
##JCAMP-DX=4.24
##DATA TYPE=MASS SPECTRUM
##OWNER=NIST Mass Spectrometry Data Center
Collection (C) 2014 copyright by the U.S. Secretary of Commerce
on behalf of the United States of America. All rights reserved.
##CAS REGISTRY NO=494-52-0
##$NIST MASS SPEC NO=5877
##MOLFORM=C10 H14 N2
##MW=162
##$NIST SOURCE=MSDC
##XUNITS=M/Z
##YUNITS=RELATIVE INTENSITY
##XFACTOR=1
##YFACTOR=1
##FIRSTX=14
##LASTX=163
##FIRSTY=80
##MAXX=163
##MINX=14
##MAXY=9999
##MINY=10
##NPOINTS=143
##PEAK TABLE=(XY..XY)
14,80 15,320 16,30 17,110
18,370 19,10 24,10 25,20
26,440 27,1772 28,3613 29,1031
30,761 31,100 32,20 36,10
37,100 38,430 39,1952 40,280
41,1321 42,561 43,340 44,180
45,90 46,20 47,30 48,10
49,50 50,681 51,1862 52,1451
53,310 54,761 55,731 56,741
57,601 58,80 59,50 60,50
61,40 62,160 63,731 64,430
65,971 66,260 67,280 68,150
69,100 70,130 71,420 72,30
73,60 74,70 75,270 76,240
77,711 78,1341 79,1391 80,1952
81,170 82,230 83,611 84,9999
85,601 86,30 87,20 88,20
89,100 90,110 91,370 92,1641
93,410 94,50 95,20 96,50
97,70 98,120 99,20 100,10
101,20 102,60 103,150 104,1181
105,5785 106,4544 107,881 108,70
109,20 110,50 111,50 112,20
113,10 114,10 115,40 116,110
117,530 118,861 119,3213 120,1631
121,450 122,40 123,10 124,30
125,20 126,10 127,20 128,30
129,40 130,260 131,420 132,571
133,4234 134,911 135,90 136,20
137,10 138,100 139,20 140,10
141,20 142,20 143,30 144,50
145,100 146,30 147,320 148,50
149,10 150,10 151,10 152,100
153,20 154,10 155,40 156,50
157,30 158,20 159,200 160,250
161,2152 162,3083 163,701
##END=
