##TITLE=2,5-Cyclohexadien-1-one, 4-(4-oxo-2,5-cyclohexadien-1-ylidene)-
##JCAMP-DX=4.24
##DATA TYPE=MASS SPECTRUM
##ORIGIN=R.W.A.OLIVER, UNIV. OF SALFORD, SALFORD, LANCASHIRE, UK
##OWNER=NIST Mass Spectrometry Data Center
Collection (C) 2014 copyright by the U.S. Secretary of Commerce
on behalf of the United States of America. All rights reserved.
##CAS REGISTRY NO=494-72-4
##$NIST MASS SPEC NO=57962
##MOLFORM=C12 H8 O2
##MW=184
##$NIST SOURCE=MSDC
##XUNITS=M/Z
##YUNITS=RELATIVE INTENSITY
##XFACTOR=1
##YFACTOR=1
##FIRSTX=57
##LASTX=185
##FIRSTY=400
##MAXX=185
##MINX=57
##MAXY=9999
##MINY=400
##NPOINTS=13
##PEAK TABLE=(XY..XY)
57,400 77,600 78,500 93,600
127,500 128,900 129,500 131,600
157,1100 182,1000 183,700 184,9999
185,1400
##END=
