##TITLE=Ethyl maltol
##JCAMP-DX=4.24
##DATA TYPE=MASS SPECTRUM
##ORIGIN=Japan AIST/NIMC Database- Spectrum MS-NW-3201
##OWNER=NIST Mass Spectrometry Data Center
Collection (C) 2014 copyright by the U.S. Secretary of Commerce
on behalf of the United States of America. All rights reserved.
##CAS REGISTRY NO=4940-11-8
##$NIST MASS SPEC NO=231454
##MOLFORM=C7 H8 O3
##MW=140
##$NIST SOURCE=MSDC
##XUNITS=M/Z
##YUNITS=RELATIVE INTENSITY
##XFACTOR=1
##YFACTOR=1
##FIRSTX=13
##LASTX=142
##FIRSTY=10
##MAXX=142
##MINX=13
##MAXY=9999
##MINY=10
##NPOINTS=85
##PEAK TABLE=(XY..XY)
13,10 14,99 15,269 17,10
18,30 25,50 26,619 27,949
28,339 29,919 30,40 31,50
32,20 36,10 37,119 38,239
39,989 40,229 41,989 42,429
43,1079 44,70 45,30 47,10
48,10 49,30 50,80 51,259
52,60 53,499 54,579 55,959
56,109 57,339 58,60 61,10
62,20 63,30 64,20 65,269
66,489 67,149 68,269 69,2389
70,299 71,2959 72,179 73,20
77,20 79,50 80,10 81,60
82,30 83,149 84,229 85,30
86,20 87,30 93,209 94,159
95,60 96,20 97,2189 98,129
99,30 100,60 107,10 109,10
110,40 111,439 112,269 113,90
121,30 122,20 123,30 125,2139
126,159 127,20 136,10 137,169
138,80 139,5699 140,9999 141,819
142,90
##END=
