##TITLE=5-Undecene
##JCAMP-DX=4.24
##DATA TYPE=MASS SPECTRUM
##ORIGIN=CARL DJERASSI DEPT OF CHEM STANFORD UNIV STANFORD CALIF 94305
##OWNER=NIST Mass Spectrometry Data Center
Collection (C) 2014 copyright by the U.S. Secretary of Commerce
on behalf of the United States of America. All rights reserved.
##CAS REGISTRY NO=4941-53-1
##$NIST MASS SPEC NO=46769
##MOLFORM=C11 H22
##MW=154
##$NIST SOURCE=MSDC
##XUNITS=M/Z
##YUNITS=RELATIVE INTENSITY
##XFACTOR=1
##YFACTOR=1
##FIRSTX=41
##LASTX=155
##FIRSTY=4900
##MAXX=155
##MINX=41
##MAXY=9999
##MINY=100
##NPOINTS=39
##PEAK TABLE=(XY..XY)
41,4900 42,2100 43,3700 44,200
51,100 52,100 53,500 54,1200
55,9999 56,6600 57,2800 58,100
65,100 66,100 67,900 68,500
69,7100 70,5500 71,1100 72,100
77,100 79,100 81,400 82,600
83,3000 84,2800 85,600 95,100
96,200 97,2300 98,1100 99,100
110,100 111,1000 112,400 125,300
126,300 154,3300 155,400
##END=
