##TITLE=Bamipine
##JCAMP-DX=4.24
##DATA TYPE=MASS SPECTRUM
##ORIGIN=Finnigan MAT: Toxicological Library (LIBR-TX)
##OWNER=NIST Mass Spectrometry Data Center
Collection (C) 2014 copyright by the U.S. Secretary of Commerce
on behalf of the United States of America. All rights reserved.
##CAS REGISTRY NO=4945-47-5
##$NIST MASS SPEC NO=120499
##MOLFORM=C19 H24 N2
##MW=280
##$NIST SOURCE=MSDC
##XUNITS=M/Z
##YUNITS=RELATIVE INTENSITY
##XFACTOR=1
##YFACTOR=1
##FIRSTX=42
##LASTX=280
##FIRSTY=2160
##MAXX=280
##MINX=42
##MAXY=9999
##MINY=192
##NPOINTS=21
##PEAK TABLE=(XY..XY)
42,2160 43,4351 44,2062 55,1329
65,404 70,2673 71,2876 77,1032
82,1193 91,2439 96,2545 97,9999
98,2265 99,1725 118,192 132,199
146,500 182,1385 183,399 189,386
280,394
##END=
