##TITLE=4-Ethylthiophenol
##JCAMP-DX=4.24
##DATA TYPE=MASS SPECTRUM
##ORIGIN=NIST Mass Spectrometry Data Center
##OWNER=NIST Mass Spectrometry Data Center
Collection (C) 2014 copyright by the U.S. Secretary of Commerce
on behalf of the United States of America. All rights reserved.
##CAS REGISTRY NO=4946-13-8
##$NIST MASS SPEC NO=343275
##MOLFORM=C8 H10 S
##MW=138
##$NIST SOURCE=MSDC
##XUNITS=M/Z
##YUNITS=RELATIVE INTENSITY
##XFACTOR=1
##YFACTOR=1
##FIRSTX=11
##LASTX=141
##FIRSTY=10
##MAXX=141
##MINX=11
##MAXY=9999
##MINY=10
##NPOINTS=93
##PEAK TABLE=(XY..XY)
11,10 15,350 18,20 26,170
27,721 28,110 29,90 32,50
33,80 34,50 37,90 38,290
39,1151 40,90 41,120 45,1922
46,40 47,130 49,80 50,641
51,1021 52,260 53,300 54,50
55,20 57,130 58,240 59,300
60,70 61,180 62,380 63,821
64,140 65,711 66,240 67,150
68,100 69,891 70,180 71,290
72,20 73,60 74,260 75,200
77,1872 78,841 79,1912 80,130
81,110 82,210 83,90 84,130
85,40 86,60 87,40 89,370
90,150 91,861 92,100 93,561
94,60 95,190 96,60 97,290
98,40 99,20 101,30 102,220
103,651 104,480 105,2202 106,220
107,40 108,160 109,370 110,210
111,100 112,10 119,10 121,691
123,9999 124,831 125,430 126,30
133,20 134,120 135,350 136,140
137,751 138,5065 139,500 140,260
141,20
##END=
