##TITLE=4-Isopropylthiophenol
##JCAMP-DX=4.24
##DATA TYPE=MASS SPECTRUM
##ORIGIN=NIST Mass Spectrometry Data Center
##OWNER=NIST Mass Spectrometry Data Center
Collection (C) 2014 copyright by the U.S. Secretary of Commerce
on behalf of the United States of America. All rights reserved.
##CAS REGISTRY NO=4946-14-9
##$NIST MASS SPEC NO=353049
##MOLFORM=C9 H12 S
##MW=152
##$NIST SOURCE=MSDC
##XUNITS=M/Z
##YUNITS=RELATIVE INTENSITY
##XFACTOR=1
##YFACTOR=1
##FIRSTX=15
##LASTX=155
##FIRSTY=60
##MAXX=155
##MINX=15
##MAXY=9999
##MINY=10
##NPOINTS=109
##PEAK TABLE=(XY..XY)
15,60 26,20 27,220 28,30
29,30 32,10 33,20 34,10
37,20 38,70 39,510 40,40
41,320 42,20 43,40 44,10
45,350 46,10 47,30 49,10
50,190 51,390 52,90 53,120
54,20 55,20 57,40 58,100
59,550 60,30 61,70 62,130
63,320 64,50 65,460 66,150
67,190 69,380 70,60 71,120
72,10 73,50 74,120 75,150
76,110 77,971 78,390 79,210
80,10 81,50 82,120 83,50
84,80 85,30 86,30 87,30
88,10 89,190 90,80 91,1561
92,200 93,110 94,20 95,90
96,20 97,130 98,20 99,10
101,40 102,310 103,1301 104,1481
105,290 106,40 107,140 108,130
109,911 110,330 111,200 112,30
113,10 114,10 115,300 116,90
117,240 118,110 119,490 120,70
121,230 122,70 123,370 124,40
125,20 133,30 134,310 135,2252
136,480 137,9999 138,1001 139,500
140,40 147,10 149,60 150,20
151,210 152,4444 153,500 154,220
155,20
##END=
