##TITLE=trans-2-Pinanol
##JCAMP-DX=4.24
##DATA TYPE=MASS SPECTRUM
##ORIGIN=Philip Morris R&D
##OWNER=NIST Mass Spectrometry Data Center
Collection (C) 2014 copyright by the U.S. Secretary of Commerce
on behalf of the United States of America. All rights reserved.
##CAS REGISTRY NO=4948-29-2
##$NIST MASS SPEC NO=109804
##MOLFORM=C10 H18 O
##MW=154
##$NIST SOURCE=MSDC
##XUNITS=M/Z
##YUNITS=RELATIVE INTENSITY
##XFACTOR=1
##YFACTOR=1
##FIRSTX=36
##LASTX=140
##FIRSTY=62
##MAXX=140
##MINX=36
##MAXY=9999
##MINY=41
##NPOINTS=61
##PEAK TABLE=(XY..XY)
36,62 39,1951 40,513 41,5934
42,431 43,9999 44,390 45,287
49,164 51,431 52,62 53,1232
54,349 55,2977 56,349 57,390
58,760 59,1601 65,123 66,164
67,944 68,1006 69,2792 70,390
71,7227 72,883 77,636 78,41
79,1006 80,1519 81,3860 82,678
83,3018 84,370 85,390 86,329
87,144 91,862 92,1211 93,5010
94,719 95,842 96,1458 97,329
98,452 99,7309 100,493 105,246
106,103 107,678 108,349 109,82
110,144 111,1170 119,164 121,2546
125,62 126,185 136,780 139,472
140,41
##END=
