##TITLE=.beta.-Bisabolene
##JCAMP-DX=4.24
##DATA TYPE=MASS SPECTRUM
##OWNER=NIST Mass Spectrometry Data Center
Collection (C) 2014 copyright by the U.S. Secretary of Commerce
on behalf of the United States of America. All rights reserved.
##CAS REGISTRY NO=495-61-4
##$NIST MASS SPEC NO=9219
##MOLFORM=C15 H24
##MW=204
##$NIST SOURCE=MSDC
##XUNITS=M/Z
##YUNITS=RELATIVE INTENSITY
##XFACTOR=1
##YFACTOR=1
##FIRSTX=26
##LASTX=206
##FIRSTY=50
##MAXX=206
##MINX=26
##MAXY=9999
##MINY=32
##NPOINTS=79
##PEAK TABLE=(XY..XY)
26,50 27,741 28,140 29,661
39,1101 40,240 41,6866 42,320
43,671 51,240 52,150 53,1171
54,150 55,1501 56,210 57,170
63,80 65,470 66,220 67,2552
68,1001 69,9999 70,591 77,1181
78,350 79,2382 80,761 81,1041
82,520 83,160 84,70 91,1621
92,1101 93,6906 94,2652 95,1101
96,120 97,110 103,100 104,60
105,1241 106,550 107,1762 108,661
109,2382 110,220 111,60 115,120
117,140 118,70 119,1692 120,661
121,1411 122,420 123,120 128,60
131,90 132,80 133,691 134,831
135,1041 136,310 147,410 148,210
149,70 157,110 159,60 160,70
161,1732 162,270 163,80 175,110
176,90 189,430 190,70 202,70
204,2452 205,430 206,32
##END=
