##TITLE=Azoxybenzene
##JCAMP-DX=4.24
##DATA TYPE=MASS SPECTRUM
##ORIGIN=Japan AIST/NIMC Database- Spectrum MS-NW-4412
##OWNER=NIST Mass Spectrometry Data Center
Collection (C) 2014 copyright by the U.S. Secretary of Commerce
on behalf of the United States of America. All rights reserved.
##CAS REGISTRY NO=495-48-7
##$NIST MASS SPEC NO=232570
##MOLFORM=C12 H10 N2 O
##MW=198
##$NIST SOURCE=MSDC
##XUNITS=M/Z
##YUNITS=RELATIVE INTENSITY
##XFACTOR=1
##YFACTOR=1
##FIRSTX=14
##LASTX=200
##FIRSTY=10
##MAXX=200
##MINX=14
##MAXY=9999
##MINY=10
##NPOINTS=95
##PEAK TABLE=(XY..XY)
14,10 17,20 18,119 26,40
27,269 28,90 29,10 30,30
37,109 38,329 39,729 40,119
41,289 44,10 49,20 50,529
51,2469 52,309 53,50 55,10
61,30 62,80 63,499 64,1729
65,2639 66,199 67,20 68,30
73,10 74,119 75,109 76,179
77,9999 78,779 79,50 80,10
81,90 87,10 88,10 89,30
90,90 91,3259 92,379 93,769
94,99 95,10 101,10 102,50
103,10 104,109 105,1719 106,139
107,219 108,10 114,10 115,369
116,60 117,30 118,20 119,20
120,20 121,129 122,10 126,20
127,30 128,40 129,10 130,10
139,70 140,40 141,879 142,379
143,50 144,40 145,10 151,40
152,129 153,60 154,20 155,10
157,30 166,50 167,119 168,90
169,1029 170,639 171,80 179,10
180,10 182,90 183,10 197,289
198,2869 199,409 200,30
##END=
