##TITLE=Piperonyl alcohol
##JCAMP-DX=4.24
##DATA TYPE=MASS SPECTRUM
##ORIGIN=Japan AIST/NIMC Database- Spectrum MS-NW-2654
##OWNER=NIST Mass Spectrometry Data Center
Collection (C) 2014 copyright by the U.S. Secretary of Commerce
on behalf of the United States of America. All rights reserved.
##CAS REGISTRY NO=495-76-1
##$NIST MASS SPEC NO=231556
##MOLFORM=C8 H8 O3
##MW=152
##$NIST SOURCE=MSDC
##XUNITS=M/Z
##YUNITS=RELATIVE INTENSITY
##XFACTOR=1
##YFACTOR=1
##FIRSTX=14
##LASTX=154
##FIRSTY=50
##MAXX=154
##MINX=14
##MAXY=9999
##MINY=10
##NPOINTS=84
##PEAK TABLE=(XY..XY)
14,50 15,20 18,20 25,20
26,99 27,319 28,589 29,559
30,90 31,399 32,80 36,20
37,199 38,419 39,1869 40,529
41,219 42,80 43,80 44,20
46,20 47,60 49,70 50,519
51,1219 52,189 53,509 54,60
55,369 56,20 60,30 61,169
62,449 63,1089 64,339 65,4049
66,1449 67,259 68,80 69,50
71,10 73,20 74,169 75,389
76,289 77,1799 78,259 79,289
80,20 81,99 82,30 89,40
90,10 91,179 92,80 93,5189
94,2089 95,319 96,20 98,10
104,109 105,699 106,99 107,30
109,50 110,10 119,60 120,40
121,1139 122,2339 123,2229 124,189
125,10 133,10 134,90 135,4809
136,529 137,50 149,529 150,259
151,3349 152,9999 153,909 154,90
##END=
