##TITLE=2,6,9,11-Dodecatetraenal, 2,6,10-trimethyl-
##JCAMP-DX=4.24
##DATA TYPE=MASS SPECTRUM
##OWNER=NIST Mass Spectrometry Data Center
Collection (C) 2014 copyright by the U.S. Secretary of Commerce
on behalf of the United States of America. All rights reserved.
##CAS REGISTRY NO=4955-32-2
##$NIST MASS SPEC NO=10185
##MOLFORM=C15 H22 O
##MW=218
##$NIST SOURCE=MSDC
##XUNITS=M/Z
##YUNITS=RELATIVE INTENSITY
##XFACTOR=1
##YFACTOR=1
##FIRSTX=41
##LASTX=218
##FIRSTY=4404
##MAXX=218
##MINX=41
##MAXY=9999
##MINY=200
##NPOINTS=56
##PEAK TABLE=(XY..XY)
41,4404 42,200 43,1301 51,300
52,200 53,1201 54,300 55,5505
56,200 57,200 65,601 66,200
67,2102 68,500 69,1001 71,400
77,1401 78,300 79,1201 80,300
81,1301 82,500 83,500 84,801
91,1702 92,500 93,9999 94,1001
95,701 105,701 106,200 107,801
108,200 109,300 119,1101 120,1001
121,500 122,400 123,300 133,2002
134,701 135,400 145,200 146,200
147,300 148,200 149,200 159,200
160,200 161,300 162,200 175,200
185,200 190,801 203,200 218,200
##END=
