##TITLE=p-Octyloxynitrobenzene
##JCAMP-DX=4.24
##DATA TYPE=MASS SPECTRUM
##ORIGIN=NIST Mass Spectrometry Data Center, 1994
##OWNER=NIST Mass Spectrometry Data Center
Collection (C) 2014 copyright by the U.S. Secretary of Commerce
on behalf of the United States of America. All rights reserved.
##CAS REGISTRY NO=49562-76-7
##$NIST MASS SPEC NO=135736
##MOLFORM=C14 H21 N O3
##MW=251
##$NIST SOURCE=MSDC
##XUNITS=M/Z
##YUNITS=RELATIVE INTENSITY
##XFACTOR=1
##YFACTOR=1
##FIRSTX=12
##LASTX=253
##FIRSTY=8
##MAXX=253
##MINX=12
##MAXY=9999
##MINY=1
##NPOINTS=100
##PEAK TABLE=(XY..XY)
12,8 15,51 16,28 17,17
18,70 26,157 27,2918 28,935
29,5989 30,1207 32,1 37,51
38,338 39,2393 40,1 41,9489
42,1799 43,9999 44,337 46,41
50,679 51,329 52,197 53,671
54,379 55,3642 56,1990 57,7691
58,355 61,23 62,173 63,852
64,767 65,979 66,193 67,309
68,310 69,2815 70,2439 71,4610
72,240 74,50 75,594 76,878
77,261 78,286 79,173 80,108
81,315 82,472 83,1594 84,979
85,99 89,19 90,21 91,161
92,385 93,552 94,172 95,36
96,23 97,150 103,27 104,14
105,55 106,266 107,179 108,14
109,1430 110,132 111,435 112,927
113,90 115,17 118,23 119,50
120,29 121,14 122,409 123,1189
124,627 125,58 131,33 133,63
134,20 135,23 136,22 139,1415
140,864 141,524 142,42 149,20
152,309 153,35 166,16 221,34
235,36 251,1036 252,209 253,27
##END=
