##TITLE=Androsta-2,4-diene-3,17-diol, 17-acetate 3-(2,2,3,3,4,4,4-heptafluorobutanoate), (17.beta.)-
##JCAMP-DX=4.24
##DATA TYPE=MASS SPECTRUM
##ORIGIN=L.DEHENNIN FOUNDATION FOR RES. HORMONOLOGY, FRESNES, FRANCE
##OWNER=NIST Mass Spectrometry Data Center
Collection (C) 2014 copyright by the U.S. Secretary of Commerce
on behalf of the United States of America. All rights reserved.
##CAS REGISTRY NO=49566-69-0
##$NIST MASS SPEC NO=37631
##MOLFORM=C25 H29 F7 O4
##MW=526
##$NIST SOURCE=MSDC
##XUNITS=M/Z
##YUNITS=RELATIVE INTENSITY
##XFACTOR=1
##YFACTOR=1
##FIRSTX=53
##LASTX=528
##FIRSTY=500
##MAXX=528
##MINX=53
##MAXY=9999
##MINY=200
##NPOINTS=98
##PEAK TABLE=(XY..XY)
53,500 55,2400 65,400 67,2100
68,400 69,1100 73,200 77,900
78,700 79,2500 80,900 81,3800
82,300 83,600 84,200 85,200
91,3300 92,700 93,4600 94,3700
95,3300 96,500 97,800 98,300
103,1400 104,5300 105,4200 106,1100
107,3700 108,1000 109,1800 110,800
115,800 117,1100 118,500 119,2000
120,700 121,3900 122,600 123,900
128,700 129,900 131,1300 133,2900
134,2100 135,5800 136,3400 137,600
143,700 145,1200 146,1500 147,9200
148,2600 149,7600 150,1000 151,600
157,600 158,500 159,1200 160,700
161,700 162,900 163,1400 165,1500
169,500 173,600 174,500 200,400
237,400 252,600 253,500 269,800
270,400 295,500 297,400 303,1400
304,800 305,400 317,3200 318,2800
319,800 320,800 330,900 331,600
343,600 355,500 369,400 451,3300
452,800 465,1400 466,2600 467,700
469,700 483,500 484,1700 526,9999
527,1800 528,500
##END=
