##TITLE=7-Aminoclonazepam
##JCAMP-DX=4.24
##DATA TYPE=MASS SPECTRUM
##ORIGIN=NIST Mass Spectrometry Data Center
##OWNER=NIST Mass Spectrometry Data Center
Collection (C) 2014 copyright by the U.S. Secretary of Commerce
on behalf of the United States of America. All rights reserved.
##CAS REGISTRY NO=4959-17-5
##$NIST MASS SPEC NO=352162
##MOLFORM=C15 H12 Cl N3 O
##MW=285
##$NIST SOURCE=MSDC
##XUNITS=M/Z
##YUNITS=RELATIVE INTENSITY
##XFACTOR=1
##YFACTOR=1
##FIRSTX=15
##LASTX=289
##FIRSTY=10
##MAXX=289
##MINX=15
##MAXY=9999
##MINY=10
##NPOINTS=225
##PEAK TABLE=(XY..XY)
15,10 26,20 27,110 28,430
29,40 30,50 35,10 36,50
37,30 38,140 39,500 40,110
41,300 42,240 43,50 49,40
50,390 51,721 52,1231 53,561
54,410 55,80 56,60 57,50
58,10 59,10 60,10 61,90
62,340 63,941 64,410 65,951
66,450 67,130 68,50 69,350
70,290 72,30 73,160 74,330
75,931 76,530 77,530 78,480
79,550 80,240 81,40 82,490
83,1631 86,250 87,390 88,340
89,891 90,490 91,440 92,1011
93,561 94,80 97,1281 99,310
100,200 101,290 102,761 103,310
104,330 105,791 106,160 107,90
108,180 110,3473 113,711 114,581
115,731 116,410 117,510 118,280
119,1621 120,530 121,90 122,40
123,250 125,510 126,290 127,330
128,300 131,190 132,320 133,50
134,200 135,30 136,70 137,220
138,520 139,1001 140,921 141,270
142,100 143,80 144,721 145,150
146,310 147,400 148,200 149,280
150,470 151,611 152,621 153,270
154,150 155,60 156,20 157,40
158,10 159,60 160,60 161,40
162,70 163,100 164,510 165,320
166,1211 167,1201 168,300 169,50
170,10 172,50 173,80 174,120
175,100 176,230 177,430 178,430
179,250 180,210 181,90 182,40
183,10 185,10 186,30 187,10
188,40 189,30 190,70 191,180
192,701 193,871 194,991 195,671
196,100 197,20 198,10 199,20
200,50 201,90 202,80 203,280
204,130 205,450 206,270 207,200
208,110 209,20 210,10 211,20
212,60 213,50 214,120 215,50
216,60 217,20 218,40 219,80
220,1641 221,931 222,1621 223,310
224,30 226,20 227,70 228,110
229,591 230,140 231,200 232,70
233,190 234,90 235,20 238,10
239,70 240,80 241,80 242,160
243,150 244,60 245,50 246,10
247,10 248,50 249,390 250,2092
251,380 252,40 253,10 254,80
255,60 256,8207 257,4004 258,3483
259,1441 260,200 261,20 266,10
267,20 268,20 269,130 270,30
271,30 276,10 280,10 284,1521
285,9999 286,2162 287,3313 288,561
289,50
##END=
