##TITLE=5-Hydroxy-4-octanone
##JCAMP-DX=4.24
##DATA TYPE=MASS SPECTRUM
##ORIGIN=NIST Mass Spectrometry Data Center, 1994
##OWNER=NIST Mass Spectrometry Data Center
Collection (C) 2014 copyright by the U.S. Secretary of Commerce
on behalf of the United States of America. All rights reserved.
##CAS REGISTRY NO=496-77-5
##$NIST MASS SPEC NO=135136
##MOLFORM=C8 H16 O2
##MW=144
##$NIST SOURCE=MSDC
##XUNITS=M/Z
##YUNITS=RELATIVE INTENSITY
##XFACTOR=1
##YFACTOR=1
##FIRSTX=12
##LASTX=144
##FIRSTY=17
##MAXX=144
##MINX=12
##MAXY=9999
##MINY=8
##NPOINTS=44
##PEAK TABLE=(XY..XY)
12,17 14,87 15,543 16,31
17,8 18,60 19,308 27,4169
28,640 29,2411 30,306 31,2181
32,33 36,16 37,53 39,1619
41,2776 42,766 43,8249 44,750
45,732 50,37 51,76 52,22
53,194 54,22 55,9999 56,546
57,610 58,155 59,32 67,18
69,76 71,2995 72,1834 73,4878
74,423 75,28 83,72 99,22
102,665 103,29 115,30 144,23
##END=
