##TITLE=1H-Indene, octahydro-
##JCAMP-DX=4.24
##DATA TYPE=MASS SPECTRUM
##ORIGIN=SHELL OIL CO., HOUSTON, TEXAS, USA
##OWNER=NIST Mass Spectrometry Data Center
Collection (C) 2014 copyright by the U.S. Secretary of Commerce
on behalf of the United States of America. All rights reserved.
##CAS REGISTRY NO=496-10-6
##$NIST MASS SPEC NO=34444
##MOLFORM=C9 H16
##MW=124
##$NIST SOURCE=MSDC
##XUNITS=M/Z
##YUNITS=RELATIVE INTENSITY
##XFACTOR=1
##YFACTOR=1
##FIRSTX=30
##LASTX=126
##FIRSTY=2
##MAXX=126
##MINX=30
##MAXY=9999
##MINY=1
##NPOINTS=87
##PEAK TABLE=(XY..XY)
30,2 31,9 36,1 37,4
38,9 39,441 40,99 41,3960
42,611 43,4720 44,140 45,4
50,5 51,24 52,24 53,372
54,1410 55,4510 56,800 57,2570
58,116 59,12 60,1 61,1
62,1 63,7 64,3 65,97
66,340 67,5000 68,1620 69,2050
70,375 71,757 72,41 73,4
74,1 75,1 76,1 77,154
78,49 79,621 80,474 81,5780
82,3010 83,1880 84,217 85,323
86,25 87,4 89,1 90,1
91,138 92,41 93,330 94,315
95,2280 96,9999 97,3710 98,408
99,51 100,5 101,3 102,1
103,6 104,7 105,32 106,13
107,85 108,138 109,1050 110,602
111,251 112,49 113,21 114,3
115,6 116,3 117,13 118,4
119,23 121,30 122,878 123,1120
124,3170 125,481 126,93
##END=
