##TITLE=Phthalan
##JCAMP-DX=4.24
##DATA TYPE=MASS SPECTRUM
##ORIGIN=Japan AIST/NIMC Database- Spectrum MS-NW-8386
##OWNER=NIST Mass Spectrometry Data Center
Collection (C) 2014 copyright by the U.S. Secretary of Commerce
on behalf of the United States of America. All rights reserved.
##CAS REGISTRY NO=496-14-0
##$NIST MASS SPEC NO=229248
##MOLFORM=C8 H8 O
##MW=120
##$NIST SOURCE=MSDC
##XUNITS=M/Z
##YUNITS=RELATIVE INTENSITY
##XFACTOR=1
##YFACTOR=1
##FIRSTX=15
##LASTX=122
##FIRSTY=10
##MAXX=122
##MINX=15
##MAXY=9999
##MINY=10
##NPOINTS=67
##PEAK TABLE=(XY..XY)
15,10 17,20 18,99 26,50
27,159 28,90 29,159 30,10
31,10 36,10 37,139 38,329
39,1449 40,129 41,249 42,20
43,70 44,20 45,80 46,20
49,60 50,399 51,659 52,109
53,50 55,20 56,10 57,20
59,99 60,60 61,189 62,519
63,1359 64,339 65,2259 66,149
69,10 70,10 71,10 73,20
74,99 75,70 76,40 77,139
78,30 79,20 84,10 85,60
86,119 87,90 88,20 89,1079
90,499 91,9999 92,5689 93,409
94,10 102,10 103,30 104,20
105,229 106,20 118,60 119,2249
120,2499 121,219 122,10
##END=
