##TITLE=Bicyclo[2.2.1]heptan-2-ol, endo-
##JCAMP-DX=4.24
##DATA TYPE=MASS SPECTRUM
##ORIGIN=Japan AIST/NIMC Database- Spectrum MS-NW-8769
##OWNER=NIST Mass Spectrometry Data Center
Collection (C) 2014 copyright by the U.S. Secretary of Commerce
on behalf of the United States of America. All rights reserved.
##CAS REGISTRY NO=497-36-9
##$NIST MASS SPEC NO=237872
##MOLFORM=C7 H12 O
##MW=112
##$NIST SOURCE=MSDC
##XUNITS=M/Z
##YUNITS=RELATIVE INTENSITY
##XFACTOR=1
##YFACTOR=1
##FIRSTX=15
##LASTX=113
##FIRSTY=109
##MAXX=113
##MINX=15
##MAXY=9999
##MINY=10
##NPOINTS=67
##PEAK TABLE=(XY..XY)
15,109 18,40 26,90 27,1319
28,329 29,1269 30,40 31,419
37,30 38,119 39,2019 40,629
41,3179 42,719 43,1219 44,639
45,729 46,20 47,20 48,10
50,109 51,289 52,139 53,1449
54,599 55,2559 56,1239 57,3499
58,499 59,20 61,10 62,30
63,80 64,20 65,599 66,6119
67,9559 68,7479 69,1019 70,1529
71,709 72,40 74,10 75,10
77,719 78,239 79,9999 80,759
81,1579 82,209 83,2059 84,529
85,30 89,10 91,279 92,40
93,719 94,9119 95,1259 96,70
97,639 98,40 109,10 110,10
111,149 112,149 113,10
##END=
