##TITLE=1,3-Dioxolane, 2-methyl-
##JCAMP-DX=4.24
##DATA TYPE=MASS SPECTRUM
##ORIGIN=P.F.DIAMOND SHELL RESEARCH LIMITED THORNTON RESEARCH CENTRE
##OWNER=NIST Mass Spectrometry Data Center
Collection (C) 2014 copyright by the U.S. Secretary of Commerce
on behalf of the United States of America. All rights reserved.
##CAS REGISTRY NO=497-26-7
##$NIST MASS SPEC NO=19508
##MOLFORM=C4 H8 O2
##MW=88
##$NIST SOURCE=MSDC
##XUNITS=M/Z
##YUNITS=RELATIVE INTENSITY
##XFACTOR=1
##YFACTOR=1
##FIRSTX=26
##LASTX=88
##FIRSTY=254
##MAXX=88
##MINX=26
##MAXY=9999
##MINY=90
##NPOINTS=19
##PEAK TABLE=(XY..XY)
26,254 27,727 29,890 30,145
31,509 41,181 42,363 43,4545
44,381 45,4000 46,109 55,109
57,90 58,2200 59,145 73,9999
74,363 87,1290 88,90
##END=
