##TITLE=Bicyclo[4.1.0]heptan-2-one, 3,7,7-trimethyl-
##JCAMP-DX=4.24
##DATA TYPE=MASS SPECTRUM
##ORIGIN=ORMSBG,9(12)1173(1974); WHEELER
##OWNER=NIST Mass Spectrometry Data Center
Collection (C) 2014 copyright by the U.S. Secretary of Commerce
on behalf of the United States of America. All rights reserved.
##CAS REGISTRY NO=497-62-1
##$NIST MASS SPEC NO=44688
##MOLFORM=C10 H16 O
##MW=152
##$NIST SOURCE=MSDC
##XUNITS=M/Z
##YUNITS=RELATIVE INTENSITY
##XFACTOR=1
##YFACTOR=1
##FIRSTX=39
##LASTX=153
##FIRSTY=2300
##MAXX=153
##MINX=39
##MAXY=9999
##MINY=200
##NPOINTS=35
##PEAK TABLE=(XY..XY)
39,2300 40,600 41,3300 42,400
43,600 51,400 52,200 53,1200
54,600 55,1400 56,200 65,500
66,300 67,7700 68,1500 69,700
70,900 77,400 79,700 80,200
81,1800 82,9999 83,1100 91,200
93,200 95,5100 96,600 97,300
109,1100 110,4500 111,400 124,700
137,300 152,2200 153,200
##END=
