##TITLE=Carbohydrazide
##JCAMP-DX=4.24
##DATA TYPE=MASS SPECTRUM
##ORIGIN=Japan AIST/NIMC Database- Spectrum MS-NW-2999
##OWNER=NIST Mass Spectrometry Data Center
Collection (C) 2014 copyright by the U.S. Secretary of Commerce
on behalf of the United States of America. All rights reserved.
##CAS REGISTRY NO=497-18-7
##$NIST MASS SPEC NO=231092
##MOLFORM=C H6 N4 O
##MW=90
##$NIST SOURCE=MSDC
##XUNITS=M/Z
##YUNITS=RELATIVE INTENSITY
##XFACTOR=1
##YFACTOR=1
##FIRSTX=13
##LASTX=91
##FIRSTY=10
##MAXX=91
##MINX=13
##MAXY=9999
##MINY=10
##NPOINTS=28
##PEAK TABLE=(XY..XY)
13,10 14,20 15,40 16,369
17,629 18,669 26,10 27,50
28,549 29,829 30,629 31,3649
32,9999 33,159 36,10 41,10
42,80 43,309 44,1019 45,30
58,60 59,229 60,50 72,30
74,359 75,10 90,829 91,20
##END=
