##TITLE=2(5H)-Furanone
##JCAMP-DX=4.24
##DATA TYPE=MASS SPECTRUM
##ORIGIN=Chuck Anderson, Aldrich Chemical Co.
##OWNER=NIST Mass Spectrometry Data Center
Collection (C) 2014 copyright by the U.S. Secretary of Commerce
on behalf of the United States of America. All rights reserved.
##CAS REGISTRY NO=497-23-4
##$NIST MASS SPEC NO=107565
##MOLFORM=C4 H4 O2
##MW=84
##$NIST SOURCE=MSDC
##XUNITS=M/Z
##YUNITS=RELATIVE INTENSITY
##XFACTOR=1
##YFACTOR=1
##FIRSTX=12
##LASTX=86
##FIRSTY=35
##MAXX=86
##MINX=12
##MAXY=9999
##MINY=2
##NPOINTS=48
##PEAK TABLE=(XY..XY)
12,35 13,79 14,104 15,36
16,16 17,3 18,6 19,31
20,18 24,91 25,487 26,3373
27,5690 28,812 29,1981 30,259
31,26 32,2 33,12 34,9
36,130 37,566 38,690 39,1381
40,120 41,114 42,58 43,6
44,87 45,39 48,6 49,15
50,11 52,58 53,388 54,2154
55,9999 56,360 57,43 58,6
66,7 68,6 69,9 82,85
83,221 84,6909 85,327 86,49
##END=
