##TITLE=2-Norbornanone
##JCAMP-DX=4.24
##DATA TYPE=MASS SPECTRUM
##ORIGIN=NIST Mass Spectrometry Data Center, 1990.
##OWNER=NIST Mass Spectrometry Data Center
Collection (C) 2014 copyright by the U.S. Secretary of Commerce
on behalf of the United States of America. All rights reserved.
##CAS REGISTRY NO=497-38-1
##$NIST MASS SPEC NO=113177
##MOLFORM=C7 H10 O
##MW=110
##$NIST SOURCE=MSDC
##XUNITS=M/Z
##YUNITS=RELATIVE INTENSITY
##XFACTOR=1
##YFACTOR=1
##FIRSTX=15
##LASTX=111
##FIRSTY=102
##MAXX=111
##MINX=15
##MAXY=9999
##MINY=102
##NPOINTS=36
##PEAK TABLE=(XY..XY)
15,102 26,353 27,1332 28,195
29,201 37,174 38,456 39,3619
40,740 41,2850 42,583 43,144
50,494 51,656 52,372 53,1369
54,3493 55,937 62,120 63,203
65,915 66,7623 67,9999 68,1734
69,183 77,294 79,857 81,1762
82,476 91,256 92,482 93,122
95,580 109,543 110,3728 111,292
##END=
