##TITLE=Oxazolidin-2-one
##JCAMP-DX=4.24
##DATA TYPE=MASS SPECTRUM
##ORIGIN=Japan AIST/NIMC Database- Spectrum MS-NW-6308
##OWNER=NIST Mass Spectrometry Data Center
Collection (C) 2014 copyright by the U.S. Secretary of Commerce
on behalf of the United States of America. All rights reserved.
##CAS REGISTRY NO=497-25-6
##$NIST MASS SPEC NO=235011
##MOLFORM=C3 H5 N O2
##MW=87
##$NIST SOURCE=MSDC
##XUNITS=M/Z
##YUNITS=RELATIVE INTENSITY
##XFACTOR=1
##YFACTOR=1
##FIRSTX=12
##LASTX=89
##FIRSTY=40
##MAXX=89
##MINX=12
##MAXY=9999
##MINY=10
##NPOINTS=39
##PEAK TABLE=(XY..XY)
12,40 13,60 14,259 15,2079
16,80 17,10 18,30 25,40
26,249 27,509 28,6539 29,4279
30,1409 31,1029 32,60 38,80
39,109 40,289 41,469 42,2969
43,1009 44,489 45,80 54,30
55,30 56,329 57,409 58,199
59,5829 60,179 61,20 68,10
69,20 70,10 85,80 86,409
87,9999 88,449 89,60
##END=
