##TITLE=2-Methylenebicyclo[2.2.1]-heptane
##JCAMP-DX=4.24
##DATA TYPE=MASS SPECTRUM
##ORIGIN=P. VAINIOTALO, DEPT. CHEM., UNIV. JOENSUU, JOENSUU, FINLAND
##OWNER=NIST Mass Spectrometry Data Center
Collection (C) 2014 copyright by the U.S. Secretary of Commerce
on behalf of the United States of America. All rights reserved.
##CAS REGISTRY NO=497-35-8
##$NIST MASS SPEC NO=138893
##MOLFORM=C8 H12
##MW=108
##$NIST SOURCE=MSDC
##XUNITS=M/Z
##YUNITS=RELATIVE INTENSITY
##XFACTOR=1
##YFACTOR=1
##FIRSTX=38
##LASTX=109
##FIRSTY=160
##MAXX=109
##MINX=38
##MAXY=9999
##MINY=110
##NPOINTS=29
##PEAK TABLE=(XY..XY)
38,160 39,1890 40,460 41,1730
42,110 50,280 51,730 52,500
53,820 54,1090 55,220 63,190
65,1030 66,8360 67,3090 68,510
77,3160 78,1320 79,9999 80,3900
81,360 91,2200 92,270 93,7000
94,540 105,190 107,510 108,5180
109,490
##END=
