##TITLE=Phenol, 2-methyl-3,5-dinitro-
##JCAMP-DX=4.24
##DATA TYPE=MASS SPECTRUM
##ORIGIN=Japan AIST/NIMC Database- Spectrum MS-IW-1082
##OWNER=NIST Mass Spectrometry Data Center
Collection (C) 2014 copyright by the U.S. Secretary of Commerce
on behalf of the United States of America. All rights reserved.
##CAS REGISTRY NO=497-56-3
##$NIST MASS SPEC NO=240291
##MOLFORM=C7 H6 N2 O5
##MW=198
##$NIST SOURCE=MSDC
##XUNITS=M/Z
##YUNITS=RELATIVE INTENSITY
##XFACTOR=1
##YFACTOR=1
##FIRSTX=26
##LASTX=200
##FIRSTY=20
##MAXX=200
##MINX=26
##MAXY=9999
##MINY=10
##NPOINTS=85
##PEAK TABLE=(XY..XY)
26,20 27,169 28,189 29,40
30,449 37,40 38,90 39,519
40,90 41,40 42,20 43,179
44,30 45,10 49,10 50,439
51,1149 52,539 53,889 54,60
55,90 56,30 61,40 62,109
63,209 64,139 65,389 66,289
67,559 68,99 69,109 70,20
73,20 74,149 75,139 76,259
77,589 78,289 79,159 80,70
81,30 82,20 83,20 86,10
87,20 88,10 90,40 91,50
92,50 93,459 94,119 95,20
96,40 103,10 104,149 105,1929
106,969 107,269 108,20 110,10
117,10 119,10 120,10 121,1319
122,159 123,30 134,189 135,40
136,10 150,20 151,90 152,409
153,30 165,20 168,659 169,50
180,239 181,129 182,119 183,10
196,30 197,60 198,9999 199,899
200,139
##END=
