##TITLE=2-Butenal, 2-methyl-, (E)-
##JCAMP-DX=4.24
##DATA TYPE=MASS SPECTRUM
##ORIGIN=NIST Mass Spectrometry Data Center, 1990.
##OWNER=NIST Mass Spectrometry Data Center
Collection (C) 2014 copyright by the U.S. Secretary of Commerce
on behalf of the United States of America. All rights reserved.
##CAS REGISTRY NO=497-03-0
##$NIST MASS SPEC NO=113136
##MOLFORM=C5 H8 O
##MW=84
##$NIST SOURCE=MSDC
##XUNITS=M/Z
##YUNITS=RELATIVE INTENSITY
##XFACTOR=1
##YFACTOR=1
##FIRSTX=14
##LASTX=85
##FIRSTY=164
##MAXX=85
##MINX=14
##MAXY=9999
##MINY=11
##NPOINTS=35
##PEAK TABLE=(XY..XY)
14,164 15,159 16,11 25,167
26,1066 27,5065 28,1779 29,5555
30,133 31,148 32,192 37,519
38,767 39,4903 40,648 41,3831
42,219 43,326 44,537 49,351
50,1477 51,1457 52,419 53,2462
54,760 55,9999 56,1332 57,186
65,169 66,98 69,325 82,204
83,1340 84,8925 85,491
##END=
