##TITLE=Propanal, 2,3-dihydroxy-, (S)-
##JCAMP-DX=4.24
##DATA TYPE=MASS SPECTRUM
##ORIGIN=Leung Pu, NIH, Bethesda, Maryland, U.S.
##OWNER=NIST Mass Spectrometry Data Center
Collection (C) 2014 copyright by the U.S. Secretary of Commerce
on behalf of the United States of America. All rights reserved.
##CAS REGISTRY NO=497-09-6
##$NIST MASS SPEC NO=211405
##MOLFORM=C3 H6 O3
##MW=90
##$NIST SOURCE=MSDC
##XUNITS=M/Z
##YUNITS=RELATIVE INTENSITY
##XFACTOR=1
##YFACTOR=1
##FIRSTX=42
##LASTX=91
##FIRSTY=1708
##MAXX=91
##MINX=42
##MAXY=9999
##MINY=3
##NPOINTS=33
##PEAK TABLE=(XY..XY)
42,1708 43,9999 44,2306 45,3180
47,1039 48,116 52,26 53,64
54,54 55,996 56,1491 57,2186
58,247 59,165 60,1506 61,4290
62,145 63,39 65,20 66,3
67,24 68,21 69,90 70,71
71,408 72,260 73,3257 74,806
75,76 76,19 89,92 90,255
91,50
##END=
