##TITLE=3,3-Diphenyl-5-methyl-3H-pyrazole
##JCAMP-DX=4.24
##DATA TYPE=MASS SPECTRUM
##ORIGIN=J.T. SHARP, DEP. CHEM., EDINBURGH UNIV., EDINBURGH, UK
##OWNER=NIST Mass Spectrometry Data Center
Collection (C) 2014 copyright by the U.S. Secretary of Commerce
on behalf of the United States of America. All rights reserved.
##CAS REGISTRY NO=49716-26-9
##$NIST MASS SPEC NO=98344
##MOLFORM=C16 H14 N2
##MW=234
##$NIST SOURCE=MSDC
##XUNITS=M/Z
##YUNITS=RELATIVE INTENSITY
##XFACTOR=1
##YFACTOR=1
##FIRSTX=128
##LASTX=234
##FIRSTY=1200
##MAXX=234
##MINX=128
##MAXY=9999
##MINY=900
##NPOINTS=10
##PEAK TABLE=(XY..XY)
128,1200 165,2500 189,2400 190,1400
191,9999 192,1600 205,2300 206,6300
207,1100 234,900
##END=
