##TITLE=2,4(3H,5H)-Furandione
##JCAMP-DX=4.24
##DATA TYPE=MASS SPECTRUM
##ORIGIN=NIST Mass Spectrometry Data Center
##OWNER=NIST Mass Spectrometry Data Center
Collection (C) 2014 copyright by the U.S. Secretary of Commerce
on behalf of the United States of America. All rights reserved.
##CAS REGISTRY NO=4971-56-6
##$NIST MASS SPEC NO=340719
##MOLFORM=C4 H4 O3
##MW=100
##$NIST SOURCE=MSDC
##XUNITS=M/Z
##YUNITS=RELATIVE INTENSITY
##XFACTOR=1
##YFACTOR=1
##FIRSTX=12
##LASTX=102
##FIRSTY=20
##MAXX=102
##MINX=12
##MAXY=9999
##MINY=10
##NPOINTS=34
##PEAK TABLE=(XY..XY)
12,20 13,80 14,320 15,170
24,20 25,100 26,360 27,230
28,310 29,1081 30,340 31,30
32,10 35,40 36,30 37,90
38,90 39,90 40,80 41,561
42,9999 43,1772 44,150 45,20
53,50 56,40 68,30 69,260
70,30 71,50 72,591 100,3033
101,140 102,20
##END=
