##TITLE=Furazan, dimethyl-
##JCAMP-DX=4.24
##DATA TYPE=MASS SPECTRUM
##ORIGIN=A.E.FONTAINE DYESTUFFS DIV., I.C.I., MANCHESTER
##OWNER=NIST Mass Spectrometry Data Center
Collection (C) 2014 copyright by the U.S. Secretary of Commerce
on behalf of the United States of America. All rights reserved.
##CAS REGISTRY NO=4975-21-7
##$NIST MASS SPEC NO=997
##MOLFORM=C4 H6 N2 O
##MW=98
##$NIST SOURCE=MSDC
##XUNITS=M/Z
##YUNITS=RELATIVE INTENSITY
##XFACTOR=1
##YFACTOR=1
##FIRSTX=12
##LASTX=100
##FIRSTY=41
##MAXX=100
##MINX=12
##MAXY=9999
##MINY=1
##NPOINTS=69
##PEAK TABLE=(XY..XY)
12,41 13,52 14,269 15,1453
16,28 17,25 18,88 20,3
24,14 25,74 26,1019 27,9999
28,1208 29,46 30,1349 31,25
32,5 35,3 36,26 37,208
38,453 39,830 40,953 41,1094
42,4198 43,208 44,25 45,5
46,1 48,1 49,10 50,58
51,245 52,406 53,77 54,19
55,24 56,24 57,6651 58,198
59,19 60,2 62,7 63,24
64,57 65,28 66,217 67,182
68,245 69,13 70,1 71,1
72,1 73,2 74,2 76,1
77,1 78,1 79,2 80,1
81,11 82,1 83,17 84,2
85,1 97,7 98,2547 99,236
100,20
##END=
