##TITLE=N-tert-Butoxycarbonylimidazole
##JCAMP-DX=4.24
##DATA TYPE=MASS SPECTRUM
##ORIGIN=MUS15 A. Mujsce, AT&T Bell Labs., Murray Hill, N.J., USA
##OWNER=NIST Mass Spectrometry Data Center
Collection (C) 2014 copyright by the U.S. Secretary of Commerce
on behalf of the United States of America. All rights reserved.
##CAS REGISTRY NO=49761-82-2
##$NIST MASS SPEC NO=115411
##MOLFORM=C8 H12 N2 O2
##MW=168
##$NIST SOURCE=MSDC
##XUNITS=M/Z
##YUNITS=RELATIVE INTENSITY
##XFACTOR=1
##YFACTOR=1
##FIRSTX=37
##LASTX=170
##FIRSTY=32
##MAXX=170
##MINX=37
##MAXY=9999
##MINY=1
##NPOINTS=66
##PEAK TABLE=(XY..XY)
37,32 38,252 39,1689 40,3007
41,3183 42,300 43,1392 44,49
45,65 49,10 50,61 51,105
52,60 53,141 54,51 55,251
57,9999 58,456 59,235 60,10
61,1 62,1 64,4 65,16
66,64 67,298 68,1434 69,845
70,35 71,2 72,4 73,13
76,6 79,2 81,9 82,10
83,4 84,2 85,1 91,2
93,4 95,2220 96,109 97,14
101,11 107,3 108,2 109,100
110,13 113,295 114,16 116,1
121,1 123,4 124,9 125,3
128,1 133,1 136,1 149,1
153,86 154,8 155,1 168,297
169,47 170,4
##END=
