##TITLE=Androst-5-en-11-one, 3,17-bis[(trimethylsilyl)oxy]-, (3.beta.,17.beta.)-
##JCAMP-DX=4.24
##DATA TYPE=MASS SPECTRUM
##ORIGIN=STER ANDR TMSI SE30 01 0000 E M.HORN
##OWNER=NIST Mass Spectrometry Data Center
Collection (C) 2014 copyright by the U.S. Secretary of Commerce
on behalf of the United States of America. All rights reserved.
##CAS REGISTRY NO=49774-90-5
##$NIST MASS SPEC NO=43547
##MOLFORM=C25 H44 O3 Si2
##MW=448
##$NIST SOURCE=MSDC
##XUNITS=M/Z
##YUNITS=RELATIVE INTENSITY
##XFACTOR=1
##YFACTOR=1
##FIRSTX=73
##LASTX=449
##FIRSTY=400
##MAXX=449
##MINX=73
##MAXY=9999
##MINY=200
##NPOINTS=36
##PEAK TABLE=(XY..XY)
73,400 75,200 81,200 95,200
107,400 119,200 120,400 121,200
123,296 129,9999 130,1400 131,496
145,296 149,400 169,200 185,400
210,200 211,296 212,296 229,296
239,400 253,296 317,400 318,400
319,1800 320,496 358,496 359,200
377,896 378,400 392,3200 393,1400
394,600 433,496 448,600 449,200
##END=
