##TITLE=4-Methyl-2-tert-octylphenol
##JCAMP-DX=4.24
##DATA TYPE=MASS SPECTRUM
##ORIGIN=J.MACAK, DEP. COKE GAS TECH., PRAGUE INST. CHEM. TECH., CZEC
##OWNER=NIST Mass Spectrometry Data Center
Collection (C) 2014 copyright by the U.S. Secretary of Commerce
on behalf of the United States of America. All rights reserved.
##CAS REGISTRY NO=4979-46-8
##$NIST MASS SPEC NO=72190
##MOLFORM=C15 H24 O
##MW=220
##$NIST SOURCE=MSDC
##XUNITS=M/Z
##YUNITS=RELATIVE INTENSITY
##XFACTOR=1
##YFACTOR=1
##FIRSTX=39
##LASTX=221
##FIRSTY=700
##MAXX=221
##MINX=39
##MAXY=9999
##MINY=100
##NPOINTS=44
##PEAK TABLE=(XY..XY)
39,700 41,2100 43,600 51,300
53,400 55,500 56,300 57,1800
63,200 65,500 77,800 78,200
79,400 91,1100 92,100 93,100
103,200 104,100 106,100 107,300
108,100 109,300 115,600 116,500
117,200 119,200 121,3600 122,300
127,100 128,200 129,200 131,200
133,400 135,300 147,300 148,400
149,9999 150,1200 159,100 161,100
163,100 165,100 220,700 221,100
##END=
