##TITLE=4-Hexen-1-ol, 5-methyl-2-(1-methylethenyl)-, (R)-
##JCAMP-DX=4.24
##DATA TYPE=MASS SPECTRUM
##ORIGIN=Japan AIST/NIMC Database- Spectrum MS-IW-2193
##OWNER=NIST Mass Spectrometry Data Center
Collection (C) 2014 copyright by the U.S. Secretary of Commerce
on behalf of the United States of America. All rights reserved.
##CAS REGISTRY NO=498-16-8
##$NIST MASS SPEC NO=233883
##MOLFORM=C10 H18 O
##MW=154
##$NIST SOURCE=MSDC
##XUNITS=M/Z
##YUNITS=RELATIVE INTENSITY
##XFACTOR=1
##YFACTOR=1
##FIRSTX=15
##LASTX=154
##FIRSTY=20
##MAXX=154
##MINX=15
##MAXY=9999
##MINY=10
##NPOINTS=82
##PEAK TABLE=(XY..XY)
15,20 18,20 26,20 27,559
28,119 29,759 30,30 31,239
32,10 37,10 38,30 39,959
40,219 41,6199 42,359 43,799
44,40 45,40 50,40 51,149
52,80 53,759 54,90 55,839
56,179 57,339 58,30 59,90
62,10 63,40 64,10 65,209
66,99 67,1239 68,2349 69,9999
70,879 71,639 72,50 73,10
77,369 78,70 79,499 80,209
81,1059 82,159 83,309 84,429
85,349 86,80 91,409 92,159
93,1549 94,209 95,219 96,50
97,109 98,50 99,10 103,20
105,159 106,30 107,279 108,90
109,189 110,269 111,2959 112,259
113,10 119,30 120,10 121,639
122,109 123,1149 124,189 125,20
135,20 136,199 137,30 139,80
140,10 154,40
##END=
