##TITLE=3-Thiophenecarboxaldehyde
##JCAMP-DX=4.24
##DATA TYPE=MASS SPECTRUM
##ORIGIN=Japan AIST/NIMC Database- Spectrum MS-NW-4642
##OWNER=NIST Mass Spectrometry Data Center
Collection (C) 2014 copyright by the U.S. Secretary of Commerce
on behalf of the United States of America. All rights reserved.
##CAS REGISTRY NO=498-62-4
##$NIST MASS SPEC NO=230589
##MOLFORM=C5 H4 O S
##MW=112
##$NIST SOURCE=MSDC
##XUNITS=M/Z
##YUNITS=RELATIVE INTENSITY
##XFACTOR=1
##YFACTOR=1
##FIRSTX=12
##LASTX=115
##FIRSTY=30
##MAXX=115
##MINX=12
##MAXY=9999
##MINY=10
##NPOINTS=65
##PEAK TABLE=(XY..XY)
12,30 13,20 14,10 24,20
25,80 26,129 27,70 28,159
29,539 30,10 31,10 32,80
33,30 34,20 36,90 37,419
38,649 39,3749 40,169 41,40
42,149 44,139 45,2299 46,70
47,109 48,50 49,189 50,529
51,349 52,20 53,119 55,40
56,109 57,819 58,1019 59,60
60,60 61,40 62,30 63,10
66,10 67,20 68,70 69,289
70,30 71,10 76,60 77,10
80,50 81,449 82,549 83,2979
84,369 85,179 86,30 92,10
93,30 95,20 96,20 110,20
111,9999 112,9499 113,1059 114,469
115,30
##END=
