##TITLE=4-Hydroxy-3-methoxybenzyl alcohol
##JCAMP-DX=4.24
##DATA TYPE=MASS SPECTRUM
##ORIGIN=USAF ACADEMY, COLORADO SPRINGS, COLORADO 80840; J LLOYD PFLUG
##OWNER=NIST Mass Spectrometry Data Center
Collection (C) 2014 copyright by the U.S. Secretary of Commerce
on behalf of the United States of America. All rights reserved.
##CAS REGISTRY NO=498-00-0
##$NIST MASS SPEC NO=79712
##MOLFORM=C8 H10 O3
##MW=154
##$NIST SOURCE=MSDC
##XUNITS=M/Z
##YUNITS=RELATIVE INTENSITY
##XFACTOR=1
##YFACTOR=1
##FIRSTX=14
##LASTX=156
##FIRSTY=35
##MAXX=156
##MINX=14
##MAXY=9999
##MINY=3
##NPOINTS=92
##PEAK TABLE=(XY..XY)
14,35 15,333 17,9 26,115
27,407 29,542 30,67 31,320
37,86 38,272 39,1374 40,154
41,282 42,99 43,205 44,3
45,60 46,64 49,67 50,513
51,1049 52,613 53,1078 54,282
55,1232 56,73 57,48 59,54
61,121 62,263 63,571 64,247
65,4048 66,751 67,340 68,83
69,160 70,35 71,38 73,64
74,125 75,99 76,105 77,1114
78,577 79,539 80,250 81,757
82,455 83,651 84,54 89,70
90,179 91,115 92,141 93,5165
94,1508 95,706 96,80 97,112
104,93 105,674 106,462 107,937
108,484 109,587 110,580 111,882
112,67 118,179 119,166 120,35
121,988 122,2754 123,1621 124,186
125,3014 126,266 127,32 133,41
135,783 136,828 137,3515 138,481
139,651 140,60 151,491 152,227
153,1643 154,9999 155,927 156,115
##END=
