##TITLE=3-Furaldehyde
##JCAMP-DX=4.24
##DATA TYPE=MASS SPECTRUM
##ORIGIN=Chuck Anderson, Aldrich Chemical Co.
##OWNER=NIST Mass Spectrometry Data Center
Collection (C) 2014 copyright by the U.S. Secretary of Commerce
on behalf of the United States of America. All rights reserved.
##CAS REGISTRY NO=498-60-2
##$NIST MASS SPEC NO=118098
##MOLFORM=C5 H4 O2
##MW=96
##$NIST SOURCE=MSDC
##XUNITS=M/Z
##YUNITS=RELATIVE INTENSITY
##XFACTOR=1
##YFACTOR=1
##FIRSTX=14
##LASTX=98
##FIRSTY=47
##MAXX=98
##MINX=14
##MAXY=9999
##MINY=47
##NPOINTS=26
##PEAK TABLE=(XY..XY)
14,47 25,80 26,116 28,64
29,1172 36,114 37,740 38,1234
39,4197 40,297 41,120 42,137
48,105 49,159 50,281 51,131
53,156 55,94 66,168 67,1203
68,141 69,58 95,9999 96,9073
97,644 98,58
##END=
