##TITLE=1-Butanone, 1-(4-chlorophenyl)-
##JCAMP-DX=4.24
##DATA TYPE=MASS SPECTRUM
##ORIGIN=B.C.SAWHNEY NEW YORK UNIVERSITY, NEW YORK, USA
##OWNER=NIST Mass Spectrometry Data Center
Collection (C) 2014 copyright by the U.S. Secretary of Commerce
on behalf of the United States of America. All rights reserved.
##CAS REGISTRY NO=4981-63-9
##$NIST MASS SPEC NO=7639
##MOLFORM=C10 H11 Cl O
##MW=182
##$NIST SOURCE=MSDC
##XUNITS=M/Z
##YUNITS=RELATIVE INTENSITY
##XFACTOR=1
##YFACTOR=1
##FIRSTX=12
##LASTX=184
##FIRSTY=15
##MAXX=184
##MINX=12
##MAXY=9999
##MINY=2
##NPOINTS=131
##PEAK TABLE=(XY..XY)
12,15 13,13 14,60 15,215
16,6 17,19 18,395 24,2
25,14 26,126 27,861 28,191
29,104 30,2 31,7 32,27
35,15 36,43 37,55 38,128
39,384 40,634 41,370 42,69
43,544 44,8 45,12 47,19
48,14 49,118 50,1269 51,633
52,34 53,10 54,7 55,206
56,9 57,19 58,9 59,6
60,29 61,137 62,107 63,200
64,49 65,47 66,64 69,39
70,8 71,61 72,38 73,179
74,593 75,2055 76,479 77,240
78,14 79,5 83,5 84,75
85,269 86,51 87,109 88,15
89,140 90,40 91,75 92,3
93,6 96,3 97,12 98,14
99,49 101,55 102,31 103,43
104,149 105,45 108,8 109,14
110,88 111,3223 112,133 113,1036
114,38 115,40 116,11 117,9
118,15 119,26 120,10 122,4
123,11 125,122 126,9 127,53
128,19 129,19 130,4 131,19
132,23 133,4 136,16 137,16
138,39 139,9999 140,14 141,3182
144,4 145,12 146,29 147,1306
148,259 151,10 152,6 153,8
154,921 155,5 156,300 164,24
165,8 166,11 167,131 168,7
169,42 170,2 180,4 181,9
182,99 183,9 184,32
##END=
