##TITLE=N,N-Bis[(hydroxyethyl)trimethylene]diamine
##JCAMP-DX=4.24
##DATA TYPE=MASS SPECTRUM
##ORIGIN=Japan AIST/NIMC Database- Spectrum MS-NW-8597
##OWNER=NIST Mass Spectrometry Data Center
Collection (C) 2014 copyright by the U.S. Secretary of Commerce
on behalf of the United States of America. All rights reserved.
##CAS REGISTRY NO=4985-85-7
##$NIST MASS SPEC NO=234762
##MOLFORM=C7 H18 N2 O2
##MW=162
##$NIST SOURCE=MSDC
##XUNITS=M/Z
##YUNITS=RELATIVE INTENSITY
##XFACTOR=1
##YFACTOR=1
##FIRSTX=15
##LASTX=164
##FIRSTY=109
##MAXX=164
##MINX=15
##MAXY=9999
##MINY=10
##NPOINTS=88
##PEAK TABLE=(XY..XY)
15,109 17,99 18,419 26,10
27,219 28,489 29,189 30,1669
31,119 39,60 40,20 41,399
42,889 43,349 44,1729 45,899
46,20 51,10 53,10 54,60
55,50 56,1329 57,399 58,1249
59,60 60,30 65,20 68,30
69,109 70,449 71,319 72,179
73,30 74,1819 75,70 76,20
77,20 79,10 81,10 82,30
83,139 84,90 85,60 86,99
87,50 88,9999 89,509 90,30
91,129 92,50 96,20 97,30
98,20 99,70 100,119 101,569
102,179 103,20 104,30 105,40
106,149 107,10 108,10 109,10
110,10 111,30 112,10 113,1449
114,419 115,40 116,20 117,10
118,1179 119,80 126,529 127,50
128,20 129,50 131,759 132,119
133,10 135,10 137,30 143,20
144,30 162,10 163,80 164,10
##END=
