##TITLE=Anthracene, 1-chloro-
##JCAMP-DX=4.24
##DATA TYPE=MASS SPECTRUM
##ORIGIN=Japan AIST/NIMC Database- Spectrum MS-NW-7174
##OWNER=NIST Mass Spectrometry Data Center
Collection (C) 2014 copyright by the U.S. Secretary of Commerce
on behalf of the United States of America. All rights reserved.
##CAS REGISTRY NO=4985-70-0
##$NIST MASS SPEC NO=235827
##MOLFORM=C14 H9 Cl
##MW=212
##$NIST SOURCE=MSDC
##XUNITS=M/Z
##YUNITS=RELATIVE INTENSITY
##XFACTOR=1
##YFACTOR=1
##FIRSTX=14
##LASTX=216
##FIRSTY=20
##MAXX=216
##MINX=14
##MAXY=9999
##MINY=10
##NPOINTS=117
##PEAK TABLE=(XY..XY)
14,20 27,20 28,10 36,20
37,10 38,30 39,70 40,10
43,10 44,40 49,10 50,119
51,129 52,20 55,10 57,10
58,30 59,10 60,10 61,60
62,179 63,159 64,20 67,10
70,40 71,20 73,60 74,259
75,659 76,169 77,70 78,20
79,10 80,40 81,20 84,10
85,60 86,109 87,459 88,1679
89,90 92,30 93,439 94,149
96,10 97,20 98,139 99,139
100,50 101,50 102,30 104,10
105,80 106,1469 107,469 108,10
109,20 110,50 111,60 112,20
113,20 114,10 115,10 121,20
122,60 123,70 124,40 125,70
126,129 127,70 128,10 134,20
135,20 137,30 138,40 139,30
140,10 146,20 147,10 148,20
149,139 150,519 151,679 152,119
153,10 156,10 157,10 159,10
160,10 161,10 162,20 163,20
164,10 165,10 173,50 174,359
175,499 176,2429 177,1129 178,239
179,50 180,10 181,10 184,10
185,10 186,60 187,10 188,20
208,10 209,10 210,50 211,90
212,9999 213,1569 214,3379 215,539
216,50
##END=
