##TITLE=Hydrazine, 1,1-dipropyl-
##JCAMP-DX=4.24
##DATA TYPE=MASS SPECTRUM
##ORIGIN=ATLAS OF MASS SPECTRA OF ORGANIC COMPOUNDS, V. A. KOPTYUG, ED.
##OWNER=NIST Mass Spectrometry Data Center
Collection (C) 2014 copyright by the U.S. Secretary of Commerce
on behalf of the United States of America. All rights reserved.
##CAS REGISTRY NO=4986-50-9
##$NIST MASS SPEC NO=64432
##MOLFORM=C6 H16 N2
##MW=116
##$NIST SOURCE=MSDC
##XUNITS=M/Z
##YUNITS=RELATIVE INTENSITY
##XFACTOR=1
##YFACTOR=1
##FIRSTX=27
##LASTX=117
##FIRSTY=990
##MAXX=117
##MINX=27
##MAXY=9999
##MINY=90
##NPOINTS=22
##PEAK TABLE=(XY..XY)
27,990 28,540 29,290 30,440
31,230 39,380 41,1150 42,400
43,2250 44,420 45,7840 46,170
56,320 58,300 59,240 70,190
72,90 73,130 87,9999 88,560
116,2210 117,260
##END=
