##TITLE=Hydrazine, 1-methyl-1-propyl-
##JCAMP-DX=4.24
##DATA TYPE=MASS SPECTRUM
##ORIGIN=ATLAS OF MASS SPECTRA OF ORGANIC COMPOUNDS, V. A. KOPTYUG, ED.
##OWNER=NIST Mass Spectrometry Data Center
Collection (C) 2014 copyright by the U.S. Secretary of Commerce
on behalf of the United States of America. All rights reserved.
##CAS REGISTRY NO=4986-49-6
##$NIST MASS SPEC NO=64424
##MOLFORM=C4 H12 N2
##MW=88
##$NIST SOURCE=MSDC
##XUNITS=M/Z
##YUNITS=RELATIVE INTENSITY
##XFACTOR=1
##YFACTOR=1
##FIRSTX=27
##LASTX=89
##FIRSTY=750
##MAXX=89
##MINX=27
##MAXY=9999
##MINY=30
##NPOINTS=24
##PEAK TABLE=(XY..XY)
27,750 28,210 29,310 30,1460
31,300 39,370 40,70 41,600
42,2770 43,910 44,490 45,1090
46,150 56,130 57,110 58,70
59,9999 60,310 70,100 71,90
72,50 73,30 88,1720 89,120
##END=
