##TITLE=2,4,6-Cycloheptatrien-1-one, 2-hydroxy-4-(1-methylethyl)-
##JCAMP-DX=4.24
##DATA TYPE=MASS SPECTRUM
##ORIGIN=NIST Mass Spectrometry Data Center, 1998.
##OWNER=NIST Mass Spectrometry Data Center
Collection (C) 2014 copyright by the U.S. Secretary of Commerce
on behalf of the United States of America. All rights reserved.
##CAS REGISTRY NO=499-44-5
##$NIST MASS SPEC NO=292009
##MOLFORM=C10 H12 O2
##MW=164
##$NIST SOURCE=MSDC
##XUNITS=M/Z
##YUNITS=RELATIVE INTENSITY
##XFACTOR=1
##YFACTOR=1
##FIRSTX=15
##LASTX=166
##FIRSTY=30
##MAXX=166
##MINX=15
##MAXY=9999
##MINY=10
##NPOINTS=103
##PEAK TABLE=(XY..XY)
15,30 26,30 27,270 28,30
29,100 31,10 37,40 38,180
39,1130 40,160 41,520 42,80
43,190 44,10 45,50 46,40
47,10 49,20 50,290 51,630
52,230 53,520 54,70 55,360
56,20 57,20 58,20 59,80
60,50 61,70 62,220 63,580
64,220 65,1050 66,360 67,180
68,80 69,40 70,60 71,10
72,10 73,20 74,110 75,100
76,80 77,2080 78,340 79,320
80,50 81,120 82,20 83,20
85,10 86,20 87,20 88,10
89,120 90,60 91,1860 92,270
93,790 94,410 95,230 96,30
97,10 98,10 101,30 102,110
103,1320 104,130 105,140 106,30
107,550 108,200 109,50 110,20
115,100 116,20 117,70 118,50
119,140 120,20 121,9999 122,980
123,120 124,10 127,10 131,70
132,10 133,20 134,10 135,120
136,420 137,50 145,20 146,10
147,30 148,10 149,260 150,30
164,5039 165,620 166,60
##END=
