##TITLE=Cyclohexanol, 2-methyl-5-(1-methylethyl)-, (1.alpha.,2.beta.,5.alpha.)-
##JCAMP-DX=4.24
##DATA TYPE=MASS SPECTRUM
##ORIGIN=B.WILLHALM FIRMENICH & CIE, GENEVA, SWITZERLAND
##OWNER=NIST Mass Spectrometry Data Center
Collection (C) 2014 copyright by the U.S. Secretary of Commerce
on behalf of the United States of America. All rights reserved.
##CAS REGISTRY NO=499-69-4
##$NIST MASS SPEC NO=38798
##MOLFORM=C10 H20 O
##MW=156
##$NIST SOURCE=MSDC
##XUNITS=M/Z
##YUNITS=RELATIVE INTENSITY
##XFACTOR=1
##YFACTOR=1
##FIRSTX=27
##LASTX=156
##FIRSTY=1400
##MAXX=156
##MINX=27
##MAXY=9999
##MINY=100
##NPOINTS=48
##PEAK TABLE=(XY..XY)
27,1400 29,1600 31,400 39,1100
40,200 41,3800 42,700 43,4600
45,900 53,600 54,300 55,4800
56,900 57,5500 58,800 59,100
67,1400 68,1000 69,2700 70,1000
71,1400 72,100 77,100 79,200
80,400 81,2100 82,2300 83,2400
84,500 85,100 93,100 94,500
95,9999 96,1700 97,300 99,300
100,100 109,800 110,500 111,100
112,300 113,4500 114,400 123,1200
124,100 138,1900 139,200 156,180
##END=
