##TITLE=2-Cyclohexen-1-one, 2-methyl-5-(1-methylethyl)-, (S)-
##JCAMP-DX=4.24
##DATA TYPE=MASS SPECTRUM
##ORIGIN=NIST Mass Spectrometry Data Center
##OWNER=NIST Mass Spectrometry Data Center
Collection (C) 2014 copyright by the U.S. Secretary of Commerce
on behalf of the United States of America. All rights reserved.
##CAS REGISTRY NO=499-71-8
##$NIST MASS SPEC NO=413217
##MOLFORM=C10 H16 O
##MW=152
##$NIST SOURCE=MSDC
##XUNITS=M/Z
##YUNITS=RELATIVE INTENSITY
##XFACTOR=1
##YFACTOR=1
##FIRSTX=26
##LASTX=154
##FIRSTY=20
##MAXX=154
##MINX=26
##MAXY=9999
##MINY=10
##NPOINTS=63
##PEAK TABLE=(XY..XY)
26,20 27,330 28,70 29,140
37,10 38,50 39,1121 40,160
41,1431 42,150 43,410 44,10
45,10 46,10 50,130 51,320
52,210 53,1171 54,1762 55,831
57,30 62,30 63,80 64,20
65,280 66,200 67,591 69,991
70,70 74,20 75,10 77,601
78,130 79,1541 80,561 81,4094
82,9999 83,671 84,90 89,20
90,10 91,310 92,40 93,150
94,70 95,1722 96,250 97,510
103,10 105,30 107,110 108,621
109,1531 110,801 111,100 119,30
123,60 137,200 138,10 139,10
152,2722 153,290 154,20
##END=
