##TITLE=3-Fluorobenzhydrazide
##JCAMP-DX=4.24
##DATA TYPE=MASS SPECTRUM
##ORIGIN=NIST Mass Spectrometry Data Center, 1994
##OWNER=NIST Mass Spectrometry Data Center
Collection (C) 2014 copyright by the U.S. Secretary of Commerce
on behalf of the United States of America. All rights reserved.
##CAS REGISTRY NO=499-55-8
##$NIST MASS SPEC NO=134846
##MOLFORM=C7 H7 F N2 O
##MW=154
##$NIST SOURCE=MSDC
##XUNITS=M/Z
##YUNITS=RELATIVE INTENSITY
##XFACTOR=1
##YFACTOR=1
##FIRSTX=14
##LASTX=155
##FIRSTY=44
##MAXX=155
##MINX=14
##MAXY=9999
##MINY=37
##NPOINTS=44
##PEAK TABLE=(XY..XY)
14,44 16,53 27,62 28,156
29,253 30,135 31,549 32,103
37,99 38,132 39,132 44,37
45,59 49,86 50,645 51,335
52,39 53,43 56,51 57,197
61,94 62,139 63,145 68,339
69,460 70,128 73,89 74,501
75,2477 76,286 77,54 81,39
83,52 92,58 93,109 95,8294
96,594 121,61 123,9999 124,774
125,42 139,79 154,1915 155,176
##END=
