##TITLE=Tioxolone
##JCAMP-DX=4.24
##DATA TYPE=MASS SPECTRUM
##ORIGIN=Japan AIST/NIMC Database- Spectrum MS-IW- 861
##OWNER=NIST Mass Spectrometry Data Center
Collection (C) 2014 copyright by the U.S. Secretary of Commerce
on behalf of the United States of America. All rights reserved.
##CAS REGISTRY NO=4991-65-5
##$NIST MASS SPEC NO=239587
##MOLFORM=C7 H4 O3 S
##MW=168
##$NIST SOURCE=MSDC
##XUNITS=M/Z
##YUNITS=RELATIVE INTENSITY
##XFACTOR=1
##YFACTOR=1
##FIRSTX=14
##LASTX=172
##FIRSTY=10
##MAXX=172
##MINX=14
##MAXY=9999
##MINY=10
##NPOINTS=87
##PEAK TABLE=(XY..XY)
14,10 15,10 17,10 18,10
25,10 26,40 27,60 28,59
29,20 34,10 36,10 37,70
38,99 39,409 40,40 41,80
42,70 43,20 44,99 45,349
46,20 47,60 48,30 49,80
50,109 51,219 52,119 53,149
54,20 55,539 56,40 57,90
58,309 59,10 60,30 61,60
62,179 63,60 66,30 67,99
68,179 69,779 70,619 71,199
72,40 73,10 77,20 78,30
79,309 80,40 81,30 82,60
83,129 84,679 85,309 86,80
87,10 91,20 92,10 93,70
94,10 95,289 96,299 97,30
98,109 99,10 101,60 106,20
111,259 112,4879 113,329 114,239
115,10 123,179 124,1629 125,119
126,80 139,10 140,1219 141,90
142,80 167,70 168,9999 169,899
170,609 171,50 172,10
##END=
