##TITLE=Benzene, 1,1',1'',1''',1'''',1'''''-[bi-2-cyclopropen-1-yl]-1,1',2,2',3,3'-hexaylhexakis-
##JCAMP-DX=4.24
##DATA TYPE=MASS SPECTRUM
##ORIGIN=ORMSBG,10(9)744(1975); P. GYOROSI
##OWNER=NIST Mass Spectrometry Data Center
Collection (C) 2014 copyright by the U.S. Secretary of Commerce
on behalf of the United States of America. All rights reserved.
##CAS REGISTRY NO=4997-62-0
##$NIST MASS SPEC NO=54547
##MOLFORM=C42 H30
##MW=534
##$NIST SOURCE=MSDC
##XUNITS=M/Z
##YUNITS=RELATIVE INTENSITY
##XFACTOR=1
##YFACTOR=1
##FIRSTX=105
##LASTX=536
##FIRSTY=1200
##MAXX=536
##MINX=105
##MAXY=9999
##MINY=300
##NPOINTS=21
##PEAK TABLE=(XY..XY)
105,1200 178,1200 265,600 267,9999
268,2400 269,300 363,300 365,400
376,300 377,300 378,400 379,400
441,300 455,300 456,300 457,600
493,300 533,300 534,4300 535,2200
536,400
##END=
