##TITLE=.beta.-Eucaine
##JCAMP-DX=4.24
##DATA TYPE=MASS SPECTRUM
##ORIGIN=R.E.Ardrey ET AL.Pharmaceutical Mass Spectra,L.,1985
##OWNER=NIST Mass Spectrometry Data Center
Collection (C) 2014 copyright by the U.S. Secretary of Commerce
on behalf of the United States of America. All rights reserved.
##CAS REGISTRY NO=500-34-5
##$NIST MASS SPEC NO=298603
##MOLFORM=C15 H21 N O2
##MW=247
##$NIST SOURCE=MSDC
##XUNITS=M/Z
##YUNITS=RELATIVE INTENSITY
##XFACTOR=1
##YFACTOR=1
##FIRSTX=39
##LASTX=247
##FIRSTY=300
##MAXX=247
##MINX=39
##MAXY=9999
##MINY=100
##NPOINTS=43
##PEAK TABLE=(XY..XY)
39,300 41,1301 42,1201 43,200
44,2702 50,100 51,500 53,100
55,500 56,200 57,200 58,1301
67,200 68,200 69,400 70,200
76,100 77,1601 78,100 81,100
82,200 83,200 84,801 85,601
93,100 94,200 95,100 96,100
98,200 105,1101 106,100 108,100
110,9999 111,701 122,100 124,200
125,200 126,3803 127,300 142,100
232,500 233,100 247,100
##END=
