##TITLE=Acetic acid, oxo(phenylamino)-
##JCAMP-DX=4.24
##DATA TYPE=MASS SPECTRUM
##ORIGIN=RADIAN CORP
##OWNER=NIST Mass Spectrometry Data Center
Collection (C) 2014 copyright by the U.S. Secretary of Commerce
on behalf of the United States of America. All rights reserved.
##CAS REGISTRY NO=500-72-1
##$NIST MASS SPEC NO=75887
##MOLFORM=C8 H7 N O3
##MW=165
##$NIST SOURCE=MSDC
##XUNITS=M/Z
##YUNITS=RELATIVE INTENSITY
##XFACTOR=1
##YFACTOR=1
##FIRSTX=26
##LASTX=167
##FIRSTY=60
##MAXX=167
##MINX=26
##MAXY=9999
##MINY=10
##NPOINTS=81
##PEAK TABLE=(XY..XY)
26,60 27,90 29,130 37,110
38,280 39,700 41,210 42,50
43,230 44,140 45,1530 46,70
49,50 50,440 51,1050 52,380
53,80 54,110 55,190 56,70
57,170 60,130 61,180 62,300
63,840 64,910 65,2420 66,2070
67,290 68,60 69,220 70,70
71,150 73,200 74,300 75,200
76,300 77,7530 78,670 79,90
80,30 81,110 82,70 83,160
84,80 85,100 87,70 88,40
90,140 91,1020 92,5560 93,3110
94,320 95,90 96,60 97,130
98,70 99,40 101,20 102,40
103,30 104,80 105,130 107,50
109,40 110,30 111,60 113,10
115,20 119,1920 120,9999 121,960
122,80 123,30 125,20 129,60
149,310 150,30 165,7280 166,750
167,100
##END=
