##TITLE=2-Cyclohexen-1-one, 4-(1-methylethyl)-
##JCAMP-DX=4.24
##DATA TYPE=MASS SPECTRUM
##ORIGIN=NIST Mass Spectrometry Data Center, 2010
##OWNER=NIST Mass Spectrometry Data Center
Collection (C) 2014 copyright by the U.S. Secretary of Commerce
on behalf of the United States of America. All rights reserved.
##CAS REGISTRY NO=500-02-7
##$NIST MASS SPEC NO=384023
##MOLFORM=C9 H14 O
##MW=138
##$NIST SOURCE=MSDC
##XUNITS=M/Z
##YUNITS=RELATIVE INTENSITY
##XFACTOR=1
##YFACTOR=1
##FIRSTX=26
##LASTX=139
##FIRSTY=50
##MAXX=139
##MINX=26
##MAXY=9999
##MINY=10
##NPOINTS=54
##PEAK TABLE=(XY..XY)
26,50 27,510 28,120 29,100
33,10 37,40 38,170 39,1912
40,470 41,2883 42,250 43,2793
44,80 46,10 50,200 51,400
52,250 53,731 54,400 55,1151
56,230 57,30 61,20 62,80
63,250 64,70 65,981 66,1221
67,3563 68,1621 69,450 70,230
74,20 77,530 78,270 79,681
80,120 81,2212 82,641 83,571
84,50 94,230 95,7887 96,9999
97,1722 98,110 105,120 109,470
110,410 120,430 123,841 124,80
138,1752 139,140
##END=
