##TITLE=Phenyl sulfonyl acetone
##JCAMP-DX=4.24
##DATA TYPE=MASS SPECTRUM
##ORIGIN=NIST Mass Spectrometry Data Center
##OWNER=NIST Mass Spectrometry Data Center
Collection (C) 2014 copyright by the U.S. Secretary of Commerce
on behalf of the United States of America. All rights reserved.
##CAS REGISTRY NO=5000-44-2
##$NIST MASS SPEC NO=343025
##MOLFORM=C9 H10 O3 S
##MW=198
##$NIST SOURCE=MSDC
##XUNITS=M/Z
##YUNITS=RELATIVE INTENSITY
##XFACTOR=1
##YFACTOR=1
##FIRSTX=14
##LASTX=199
##FIRSTY=110
##MAXX=199
##MINX=14
##MAXY=9999
##MINY=20
##NPOINTS=71
##PEAK TABLE=(XY..XY)
14,110 15,360 18,50 26,200
27,1091 28,150 29,510 32,20
37,80 38,180 39,731 40,60
41,170 42,851 43,6236 44,130
45,190 46,20 47,30 48,70
50,1501 51,4244 52,250 53,160
55,40 57,130 58,40 61,40
62,80 63,230 64,100 65,641
66,210 69,120 71,20 73,60
74,340 75,300 77,9999 78,831
79,50 81,70 82,40 84,20
89,60 91,1661 92,190 93,160
94,971 95,80 97,320 98,20
105,50 108,30 109,50 110,30
119,70 123,20 125,330 126,70
134,2983 135,290 141,2512 142,230
143,140 156,1501 157,140 158,80
183,50 198,120 199,20
##END=
