##TITLE=4-Chlorophenylsulfonylacetone
##JCAMP-DX=4.24
##DATA TYPE=MASS SPECTRUM
##ORIGIN=NIST Mass Spectrometry Data Center, 1994
##OWNER=NIST Mass Spectrometry Data Center
Collection (C) 2014 copyright by the U.S. Secretary of Commerce
on behalf of the United States of America. All rights reserved.
##CAS REGISTRY NO=5000-48-6
##$NIST MASS SPEC NO=136389
##MOLFORM=C9 H9 Cl O3 S
##MW=232
##$NIST SOURCE=MSDC
##XUNITS=M/Z
##YUNITS=RELATIVE INTENSITY
##XFACTOR=1
##YFACTOR=1
##FIRSTX=13
##LASTX=235
##FIRSTY=44
##MAXX=235
##MINX=13
##MAXY=9999
##MINY=11
##NPOINTS=102
##PEAK TABLE=(XY..XY)
13,44 14,39 15,735 25,29
26,308 27,1119 28,47 29,790
30,34 37,109 38,190 39,416
40,44 41,152 42,1026 43,9999
44,295 45,217 47,34 48,84
49,117 50,1775 51,785 52,48
53,37 55,28 57,167 58,41
60,29 61,181 62,136 63,462
64,106 65,159 69,147 70,35
71,28 72,37 73,370 74,866
75,3761 76,700 77,189 79,67
81,52 82,62 84,124 85,467
86,80 87,200 89,234 90,82
91,30 93,36 95,84 96,51
99,281 100,67 101,99 102,30
103,25 105,46 107,41 108,124
109,58 110,25 111,5276 112,464
113,1619 114,145 115,45 121,24
125,1179 126,122 127,530 128,443
129,86 130,126 131,254 133,140
142,35 143,29 159,274 160,43
161,97 168,1884 169,219 170,668
171,67 175,1936 176,151 177,772
178,54 179,39 190,447 191,33
192,146 217,27 232,277 233,31
234,105 235,11
##END=
