##TITLE=Benorilate
##JCAMP-DX=4.24
##DATA TYPE=MASS SPECTRUM
##ORIGIN=Tox21 Consortium/NIST Mass Spectrometry Data Center, 2012
##OWNER=NIST Mass Spectrometry Data Center
Collection (C) 2014 copyright by the U.S. Secretary of Commerce
on behalf of the United States of America. All rights reserved.
##CAS REGISTRY NO=5003-48-5
##$NIST MASS SPEC NO=408734
##MOLFORM=C17 H15 N O5
##MW=313
##$NIST SOURCE=MSDC
##XUNITS=M/Z
##YUNITS=RELATIVE INTENSITY
##XFACTOR=1
##YFACTOR=1
##FIRSTX=15
##LASTX=314
##FIRSTY=30
##MAXX=314
##MINX=15
##MAXY=9999
##MINY=10
##NPOINTS=75
##PEAK TABLE=(XY..XY)
15,30 26,10 27,10 28,30
37,10 38,40 39,140 40,10
41,20 42,70 43,1271 44,40
45,10 50,40 51,40 52,120
53,210 54,40 55,10 61,10
62,40 63,250 64,270 65,540
66,50 67,10 68,10 74,10
75,20 76,50 77,30 78,20
79,30 80,330 81,110 82,10
90,10 91,30 92,711 93,490
94,50 104,20 105,10 106,10
107,20 108,751 109,1331 110,100
111,10 119,20 120,530 121,9999
122,761 123,70 124,10 128,10
133,10 134,10 135,10 139,10
151,1291 152,120 153,10 161,10
163,3924 164,380 165,50 183,10
184,10 212,10 228,10 270,10
271,10 313,70 314,20
##END=
