##TITLE=Propane, 1-[(1-methylethyl)thio]-
##JCAMP-DX=4.24
##DATA TYPE=MASS SPECTRUM
##ORIGIN=Japan AIST/NIMC Database- Spectrum MS-NW-4003
##OWNER=NIST Mass Spectrometry Data Center
Collection (C) 2014 copyright by the U.S. Secretary of Commerce
on behalf of the United States of America. All rights reserved.
##CAS REGISTRY NO=5008-73-1
##$NIST MASS SPEC NO=231378
##MOLFORM=C6 H14 S
##MW=118
##$NIST SOURCE=MSDC
##XUNITS=M/Z
##YUNITS=RELATIVE INTENSITY
##XFACTOR=1
##YFACTOR=1
##FIRSTX=14
##LASTX=121
##FIRSTY=20
##MAXX=121
##MINX=14
##MAXY=9999
##MINY=10
##NPOINTS=62
##PEAK TABLE=(XY..XY)
14,20 15,169 26,109 27,2149
28,369 29,299 32,99 33,20
34,40 35,80 36,10 37,50
38,119 39,1389 40,199 41,4279
42,5439 43,9999 44,359 45,729
46,579 47,3149 48,229 49,179
50,10 53,10 55,1329 56,129
57,109 58,199 59,559 60,339
61,3799 62,139 63,179 66,20
69,30 71,60 72,10 73,80
74,329 75,1259 76,3129 77,729
78,169 79,30 85,10 87,10
89,2459 90,149 91,119 98,10
100,10 103,4999 104,349 105,249
106,10 117,30 118,5109 119,419
120,269 121,10
##END=
