##TITLE=8-Nonen-2-one
##JCAMP-DX=4.24
##DATA TYPE=MASS SPECTRUM
##ORIGIN=CARL DJERASSI DEPT OF CHEM STANFORD UNIV STANFORD CALIF 94305
##OWNER=NIST Mass Spectrometry Data Center
Collection (C) 2014 copyright by the U.S. Secretary of Commerce
on behalf of the United States of America. All rights reserved.
##CAS REGISTRY NO=5009-32-5
##$NIST MASS SPEC NO=46579
##MOLFORM=C9 H16 O
##MW=140
##$NIST SOURCE=MSDC
##XUNITS=M/Z
##YUNITS=RELATIVE INTENSITY
##XFACTOR=1
##YFACTOR=1
##FIRSTX=41
##LASTX=140
##FIRSTY=1800
##MAXX=140
##MINX=41
##MAXY=9999
##MINY=100
##NPOINTS=33
##PEAK TABLE=(XY..XY)
41,1800 42,300 43,9999 44,300
45,100 53,300 54,400 55,3100
56,300 57,200 58,6000 59,1100
67,1300 68,100 69,200 71,3300
72,500 79,200 80,500 81,500
82,2800 83,400 84,400 85,900
93,300 97,800 98,200 99,200
107,100 111,500 122,100 125,300
140,100
##END=
