##TITLE=Diphenylacetylene
##JCAMP-DX=4.24
##DATA TYPE=MASS SPECTRUM
##ORIGIN=Japan AIST/NIMC Database- Spectrum MS-NW-2603
##OWNER=NIST Mass Spectrometry Data Center
Collection (C) 2014 copyright by the U.S. Secretary of Commerce
on behalf of the United States of America. All rights reserved.
##CAS REGISTRY NO=501-65-5
##$NIST MASS SPEC NO=228985
##MOLFORM=C14 H10
##MW=178
##$NIST SOURCE=MSDC
##XUNITS=M/Z
##YUNITS=RELATIVE INTENSITY
##XFACTOR=1
##YFACTOR=1
##FIRSTX=26
##LASTX=180
##FIRSTY=10
##MAXX=180
##MINX=26
##MAXY=9999
##MINY=10
##NPOINTS=63
##PEAK TABLE=(XY..XY)
26,10 27,10 37,10 38,20
39,109 50,119 51,149 52,70
61,40 62,80 63,189 64,10
65,20 73,20 74,159 75,169
76,459 77,119 78,20 81,10
85,30 86,90 87,129 88,179
89,429 98,109 99,70 100,40
101,30 102,129 103,10 109,10
110,30 111,40 112,10 113,60
114,20 115,70 122,30 123,10
124,10 125,40 126,359 127,90
128,70 137,50 138,70 139,229
140,20 149,20 150,299 151,609
152,689 153,80 162,10 163,50
174,50 175,129 176,1379 177,909
178,9999 179,1519 180,99
##END=
