##TITLE=Phenol, 3-pentadecyl-
##JCAMP-DX=4.24
##DATA TYPE=MASS SPECTRUM
##ORIGIN=Japan AIST/NIMC Database- Spectrum MS-NW-9503
##OWNER=NIST Mass Spectrometry Data Center
Collection (C) 2014 copyright by the U.S. Secretary of Commerce
on behalf of the United States of America. All rights reserved.
##CAS REGISTRY NO=501-24-6
##$NIST MASS SPEC NO=238782
##MOLFORM=C21 H36 O
##MW=304
##$NIST SOURCE=MSDC
##XUNITS=M/Z
##YUNITS=RELATIVE INTENSITY
##XFACTOR=1
##YFACTOR=1
##FIRSTX=27
##LASTX=307
##FIRSTY=40
##MAXX=307
##MINX=27
##MAXY=9999
##MINY=10
##NPOINTS=99
##PEAK TABLE=(XY..XY)
27,40 28,10 29,129 39,40
41,299 42,40 43,369 44,10
51,10 53,30 54,10 55,239
56,30 57,179 65,30 66,10
67,40 68,10 69,99 70,10
71,60 77,239 78,60 79,129
80,40 81,30 82,10 83,40
85,30 90,30 91,109 92,20
93,40 94,70 95,109 96,10
97,20 103,70 104,10 105,40
106,10 107,2409 108,9999 109,799
110,80 111,10 115,10 117,10
119,20 120,379 121,769 122,139
123,30 124,70 131,20 133,90
134,60 135,80 136,70 137,20
138,10 147,50 148,20 149,709
150,539 151,60 161,20 162,10
163,60 164,90 165,10 175,10
177,30 178,50 191,40 192,109
193,10 205,20 206,60 207,10
219,30 220,99 221,20 233,10
234,40 246,30 247,30 248,40
261,90 262,159 263,30 275,10
276,10 302,70 303,40 304,4419
305,1029 306,119 307,10
##END=
