##TITLE=Beclamide
##JCAMP-DX=4.24
##DATA TYPE=MASS SPECTRUM
##ORIGIN=R.E.Ardrey ET AL.Pharmaceutical Mass Spectra,L.,1985
##OWNER=NIST Mass Spectrometry Data Center
Collection (C) 2014 copyright by the U.S. Secretary of Commerce
on behalf of the United States of America. All rights reserved.
##CAS REGISTRY NO=501-68-8
##$NIST MASS SPEC NO=298605
##MOLFORM=C10 H12 Cl N O
##MW=197
##$NIST SOURCE=MSDC
##XUNITS=M/Z
##YUNITS=RELATIVE INTENSITY
##XFACTOR=1
##YFACTOR=1
##FIRSTX=26
##LASTX=200
##FIRSTY=300
##MAXX=200
##MINX=26
##MAXY=9999
##MINY=100
##NPOINTS=64
##PEAK TABLE=(XY..XY)
26,300 27,2302 29,100 30,801
36,200 38,200 39,801 40,100
41,200 42,400 43,100 44,300
49,100 50,500 51,1301 52,400
53,100 54,100 55,901 56,200
57,100 62,200 63,1802 64,200
65,1702 66,100 74,100 75,100
76,200 77,1401 78,701 79,1501
80,100 84,300 89,400 90,300
91,9999 92,801 93,200 103,200
104,801 105,1101 106,6606 107,2903
108,300 116,100 117,500 118,200
130,100 131,100 132,200 133,200
134,200 144,100 148,2302 149,300
160,300 161,901 162,3103 163,400
197,5905 198,701 199,1601 200,300
##END=
