##TITLE=Benzyl chloroformate
##JCAMP-DX=4.24
##DATA TYPE=MASS SPECTRUM
##ORIGIN=NIST Mass Spectrometry Data Center, 1992
##OWNER=NIST Mass Spectrometry Data Center
Collection (C) 2014 copyright by the U.S. Secretary of Commerce
on behalf of the United States of America. All rights reserved.
##CAS REGISTRY NO=501-53-1
##$NIST MASS SPEC NO=125094
##MOLFORM=C8 H7 Cl O2
##MW=170
##$NIST SOURCE=MSDC
##XUNITS=M/Z
##YUNITS=RELATIVE INTENSITY
##XFACTOR=1
##YFACTOR=1
##FIRSTX=12
##LASTX=173
##FIRSTY=6
##MAXX=173
##MINX=12
##MAXY=9999
##MINY=1
##NPOINTS=62
##PEAK TABLE=(XY..XY)
12,6 13,4 15,16 25,14
26,98 27,189 28,320 29,4
32,42 36,15 37,125 38,289
39,862 40,76 41,111 42,9
43,69 44,54 45,118 49,87
50,418 51,449 52,200 53,25
60,28 61,171 62,388 63,799
64,271 65,1600 66,81 73,20
74,67 75,44 76,34 77,9
79,75 80,18 81,81 82,17
83,7 84,26 85,107 86,148
87,48 88,7 89,662 90,7
91,9999 92,732 93,36 105,6
106,1 117,11 119,12 128,10
143,11 145,9 170,634 171,55
172,210 173,18
##END=
