##TITLE=Formamide, N-(cyanomethyl)-
##JCAMP-DX=4.24
##DATA TYPE=MASS SPECTRUM
##ORIGIN=D.HENNEBERG, MAX-PLANCK INSTITUTE, MULHEIM, WEST GERMANY
##OWNER=NIST Mass Spectrometry Data Center
Collection (C) 2014 copyright by the U.S. Secretary of Commerce
on behalf of the United States of America. All rights reserved.
##CAS REGISTRY NO=5018-27-9
##$NIST MASS SPEC NO=63698
##MOLFORM=C3 H4 N2 O
##MW=84
##$NIST SOURCE=MSDC
##XUNITS=M/Z
##YUNITS=RELATIVE INTENSITY
##XFACTOR=1
##YFACTOR=1
##FIRSTX=29
##LASTX=85
##FIRSTY=9999
##MAXX=85
##MINX=29
##MAXY=9999
##MINY=120
##NPOINTS=24
##PEAK TABLE=(XY..XY)
29,9999 30,1750 31,270 36,660
38,590 39,530 40,2130 41,560
42,140 43,980 44,500 45,640
53,600 54,160 55,5070 56,1950
57,400 58,200 60,170 61,300
66,120 83,180 84,5760 85,270
##END=
