##TITLE=.alpha.-Farnesene
##JCAMP-DX=4.24
##DATA TYPE=MASS SPECTRUM
##OWNER=NIST Mass Spectrometry Data Center
Collection (C) 2014 copyright by the U.S. Secretary of Commerce
on behalf of the United States of America. All rights reserved.
##CAS REGISTRY NO=502-61-4
##$NIST MASS SPEC NO=9209
##MOLFORM=C15 H24
##MW=204
##$NIST SOURCE=MSDC
##XUNITS=M/Z
##YUNITS=RELATIVE INTENSITY
##XFACTOR=1
##YFACTOR=1
##FIRSTX=27
##LASTX=205
##FIRSTY=1666
##MAXX=205
##MINX=27
##MAXY=9999
##MINY=54
##NPOINTS=66
##PEAK TABLE=(XY..XY)
27,1666 29,2258 39,2312 40,323
41,9999 42,323 43,3118 51,538
52,161 53,2150 54,108 55,5967
56,269 57,484 63,269 65,914
66,108 67,1290 68,108 69,6182
70,269 77,2688 78,538 79,4408
80,2150 81,2957 82,269 83,108
90,54 91,3709 92,699 93,8225
94,1129 95,645 103,161 104,108
105,2580 106,645 107,4838 108,645
109,645 115,161 117,323 119,3064
120,699 121,860 122,323 123,1989
124,323 129,108 131,323 132,108
133,806 134,323 135,1774 136,323
145,269 147,323 148,108 157,108
159,269 161,430 189,108 202,108
204,484 205,83
##END=
