##TITLE=6-Octenoic acid, 3,7-dimethyl-
##JCAMP-DX=4.24
##DATA TYPE=MASS SPECTRUM
##ORIGIN=NIST Mass Spectrometry Data Center
##OWNER=NIST Mass Spectrometry Data Center
Collection (C) 2014 copyright by the U.S. Secretary of Commerce
on behalf of the United States of America. All rights reserved.
##CAS REGISTRY NO=502-47-6
##$NIST MASS SPEC NO=333628
##MOLFORM=C10 H18 O2
##MW=170
##$NIST SOURCE=MSDC
##XUNITS=M/Z
##YUNITS=RELATIVE INTENSITY
##XFACTOR=1
##YFACTOR=1
##FIRSTX=15
##LASTX=172
##FIRSTY=20
##MAXX=172
##MINX=15
##MAXY=9999
##MINY=10
##NPOINTS=105
##PEAK TABLE=(XY..XY)
15,20 26,30 27,681 28,120
29,581 30,10 31,80 37,20
38,70 39,1812 40,400 41,6886
42,851 43,1101 44,50 45,1001
46,30 47,20 50,100 51,320
52,160 53,1431 54,430 55,5655
56,3163 57,711 58,100 59,1041
60,751 61,60 62,30 63,80
64,20 65,350 66,140 67,2052
68,1311 69,9999 70,2212 71,540
72,310 73,731 74,50 75,10
77,300 78,60 79,380 80,110
81,851 82,1521 83,1071 84,190
85,350 86,80 87,480 88,60
89,10 91,170 92,40 93,240
94,991 95,5575 96,761 97,390
98,60 99,100 100,220 101,250
102,30 103,10 105,30 106,10
107,50 108,100 109,1171 110,4964
111,591 112,40 113,190 114,420
115,581 116,40 117,10 119,130
120,10 121,50 122,10 123,140
124,60 125,10 126,10 127,290
128,60 129,10 134,70 135,20
137,230 138,20 152,1361 153,180
154,10 155,20 170,1501 171,170
172,20
##END=
