##TITLE=2-Oxepanone
##JCAMP-DX=4.24
##DATA TYPE=MASS SPECTRUM
##ORIGIN=Japan AIST/NIMC Database- Spectrum MS-NW- 859
##OWNER=NIST Mass Spectrometry Data Center
Collection (C) 2014 copyright by the U.S. Secretary of Commerce
on behalf of the United States of America. All rights reserved.
##CAS REGISTRY NO=502-44-3
##$NIST MASS SPEC NO=228854
##MOLFORM=C6 H10 O2
##MW=114
##$NIST SOURCE=MSDC
##XUNITS=M/Z
##YUNITS=RELATIVE INTENSITY
##XFACTOR=1
##YFACTOR=1
##FIRSTX=14
##LASTX=116
##FIRSTY=70
##MAXX=116
##MINX=14
##MAXY=9999
##MINY=10
##NPOINTS=55
##PEAK TABLE=(XY..XY)
14,70 15,219 17,10 18,70
25,20 26,479 27,2269 28,2639
29,1369 30,60 31,189 32,10
37,90 38,239 39,2099 40,679
41,4989 42,9999 43,499 44,139
45,50 49,20 50,119 51,139
52,50 53,309 54,179 55,9659
56,3019 57,469 58,50 60,30
61,10 62,20 63,20 65,40
66,40 67,409 68,199 69,109
70,2139 71,129 73,30 78,10
81,20 83,189 84,4409 85,319
86,60 95,10 96,10 113,20
114,2089 115,159 116,20
##END=
