##TITLE=1,4-Dioxane-2,5-dione
##JCAMP-DX=4.24
##DATA TYPE=MASS SPECTRUM
##OWNER=NIST Mass Spectrometry Data Center
Collection (C) 2014 copyright by the U.S. Secretary of Commerce
on behalf of the United States of America. All rights reserved.
##CAS REGISTRY NO=502-97-6
##$NIST MASS SPEC NO=1992
##MOLFORM=C4 H4 O4
##MW=116
##$NIST SOURCE=MSDC
##XUNITS=M/Z
##YUNITS=RELATIVE INTENSITY
##XFACTOR=1
##YFACTOR=1
##FIRSTX=28
##LASTX=117
##FIRSTY=8007
##MAXX=117
##MINX=28
##MAXY=9999
##MINY=200
##NPOINTS=12
##PEAK TABLE=(XY..XY)
28,8007 29,9609 30,8207 31,9509
32,300 41,1001 42,9999 43,2002
44,1501 72,500 116,8808 117,200
##END=
