##TITLE=1H-Isoindole-1,3(2H)-dione, N-ethyl-
##JCAMP-DX=4.24
##DATA TYPE=MASS SPECTRUM
##ORIGIN=CARL DJERASSI DEPT OF CHEM STANFORD UNIV STANFORD CALIF 94305
##OWNER=NIST Mass Spectrometry Data Center
Collection (C) 2014 copyright by the U.S. Secretary of Commerce
on behalf of the United States of America. All rights reserved.
##CAS REGISTRY NO=5022-29-7
##$NIST MASS SPEC NO=47065
##MOLFORM=C10 H9 N O2
##MW=175
##$NIST SOURCE=MSDC
##XUNITS=M/Z
##YUNITS=RELATIVE INTENSITY
##XFACTOR=1
##YFACTOR=1
##FIRSTX=41
##LASTX=176
##FIRSTY=100
##MAXX=176
##MINX=41
##MAXY=9999
##MINY=100
##NPOINTS=29
##PEAK TABLE=(XY..XY)
41,100 42,400 43,200 45,100
50,900 51,400 52,600 66,1500
74,300 75,500 76,1300 77,1000
78,100 102,300 103,200 104,700
105,1100 106,200 130,600 132,200
133,300 146,400 147,200 160,9999
161,1100 162,100 174,200 175,5000
176,600
##END=
