##TITLE=Dimethyl tetradecanedioate
##JCAMP-DX=4.24
##DATA TYPE=MASS SPECTRUM
##ORIGIN=NIST Mass Spectrometry Data Center
##OWNER=NIST Mass Spectrometry Data Center
Collection (C) 2014 copyright by the U.S. Secretary of Commerce
on behalf of the United States of America. All rights reserved.
##CAS REGISTRY NO=5024-21-5
##$NIST MASS SPEC NO=352543
##MOLFORM=C16 H30 O4
##MW=286
##$NIST SOURCE=MSDC
##XUNITS=M/Z
##YUNITS=RELATIVE INTENSITY
##XFACTOR=1
##YFACTOR=1
##FIRSTX=14
##LASTX=257
##FIRSTY=10
##MAXX=257
##MINX=14
##MAXY=9999
##MINY=10
##NPOINTS=186
##PEAK TABLE=(XY..XY)
14,10 15,260 26,20 27,310
28,200 29,761 30,40 31,110
32,10 33,20 38,10 39,490
40,110 41,2913 42,741 43,3153
44,160 45,350 46,10 50,10
51,30 52,20 53,310 54,350
55,5725 56,641 57,1061 58,140
59,2863 60,90 61,30 63,10
65,70 66,40 67,941 68,490
69,3043 70,420 71,550 72,70
73,561 74,6336 75,460 76,40
77,70 78,30 79,350 80,270
81,1181 82,450 83,2732 84,4304
85,651 86,50 87,2953 88,330
89,30 91,100 92,30 93,400
94,370 95,1061 96,851 97,2793
98,9999 99,881 100,100 101,561
102,60 103,10 104,10 105,60
106,30 107,410 108,270 109,520
110,430 111,1161 112,2903 113,360
114,120 115,400 116,110 117,30
118,10 119,140 120,100 121,651
122,160 123,450 124,290 125,581
126,741 127,150 128,110 129,310
130,270 131,50 132,10 133,100
134,90 135,300 136,160 137,310
138,410 139,651 140,1011 141,200
142,50 143,260 144,200 145,40
146,10 147,50 148,70 149,90
150,120 151,180 152,260 153,170
154,340 155,60 156,90 157,150
158,120 159,20 160,10 161,60
162,180 163,1221 164,170 165,120
166,120 167,60 168,30 169,40
170,150 171,170 172,40 173,10
175,30 176,50 177,170 178,60
179,90 180,430 181,1151 182,150
183,40 184,20 185,40 186,20
187,40 188,10 193,20 194,220
195,120 196,20 197,10 198,170
199,40 200,130 201,20 203,10
204,30 205,20 210,10 211,30
212,70 213,1301 214,180 215,20
221,40 222,340 223,90 224,10
225,10 226,20 227,10 228,10
236,10 253,10 254,40 255,1892
256,320 257,30
##END=
