##TITLE=N-(Mesitylenesulfonyl)imidazole
##JCAMP-DX=4.24
##DATA TYPE=MASS SPECTRUM
##ORIGIN=Japan AIST/NIMC Database- Spectrum MS-NW-2753
##OWNER=NIST Mass Spectrometry Data Center
Collection (C) 2014 copyright by the U.S. Secretary of Commerce
on behalf of the United States of America. All rights reserved.
##CAS REGISTRY NO=50257-39-1
##$NIST MASS SPEC NO=231578
##MOLFORM=C12 H14 N2 O2 S
##MW=250
##$NIST SOURCE=MSDC
##XUNITS=M/Z
##YUNITS=RELATIVE INTENSITY
##XFACTOR=1
##YFACTOR=1
##FIRSTX=14
##LASTX=253
##FIRSTY=10
##MAXX=253
##MINX=14
##MAXY=9999
##MINY=10
##NPOINTS=98
##PEAK TABLE=(XY..XY)
14,10 18,20 26,10 27,119
28,139 29,10 32,10 38,30
39,269 40,449 41,739 42,30
43,10 44,10 45,30 48,20
50,40 51,159 52,60 53,139
54,10 55,10 59,10 62,20
63,80 64,40 65,199 66,30
67,99 68,729 69,30 74,10
75,20 76,20 77,499 78,179
79,259 80,20 89,30 90,10
91,1149 92,109 93,149 94,10
97,10 102,50 103,369 104,309
105,239 106,70 107,20 115,229
116,70 117,449 118,219 119,9999
120,1129 121,60 130,10 131,30
132,30 134,70 135,90 136,10
137,10 139,30 142,10 143,20
144,90 145,30 146,20 150,20
151,10 152,30 156,10 157,10
158,129 159,80 160,10 165,20
166,10 167,20 168,20 169,10
170,20 182,20 183,1969 184,249
185,119 186,20 199,99 200,20
223,149 224,20 250,1669 251,249
252,99 253,10
##END=
