##TITLE=1-(2,4,6-Trisopropylbenzenesulfonyl)imidazole
##JCAMP-DX=4.24
##DATA TYPE=MASS SPECTRUM
##ORIGIN=Japan AIST/NIMC Database- Spectrum MS-NW-7957
##OWNER=NIST Mass Spectrometry Data Center
Collection (C) 2014 copyright by the U.S. Secretary of Commerce
on behalf of the United States of America. All rights reserved.
##CAS REGISTRY NO=50257-40-4
##$NIST MASS SPEC NO=238057
##MOLFORM=C18 H26 N2 O2 S
##MW=334
##$NIST SOURCE=MSDC
##XUNITS=M/Z
##YUNITS=RELATIVE INTENSITY
##XFACTOR=1
##YFACTOR=1
##FIRSTX=14
##LASTX=337
##FIRSTY=10
##MAXX=337
##MINX=14
##MAXY=9999
##MINY=10
##NPOINTS=255
##PEAK TABLE=(XY..XY)
14,10 15,40 26,10 27,739
28,189 29,339 30,20 31,20
32,50 34,10 38,20 39,479
40,539 41,3039 42,179 43,7839
44,269 45,60 48,30 50,30
51,219 52,60 53,389 54,30
55,519 56,30 57,329 58,30
59,399 60,20 61,10 62,20
63,129 64,99 65,319 66,70
67,239 68,299 69,419 70,40
71,70 72,40 73,40 74,30
75,60 76,80 77,579 78,159
79,379 80,60 81,90 82,30
83,80 84,10 85,20 86,40
87,50 88,20 89,90 90,20
91,5039 92,449 93,159 94,30
95,60 96,10 97,20 98,20
99,20 100,10 101,30 102,90
103,249 104,109 105,2329 106,259
107,159 108,20 109,40 110,10
111,20 113,20 114,20 115,869
116,379 117,1319 118,219 119,3519
120,399 121,60 122,10 123,40
124,10 125,10 126,30 127,249
128,859 129,779 130,389 131,919
132,149 133,2219 134,279 135,159
136,30 137,159 138,20 139,50
140,20 141,389 142,309 143,429
144,179 145,959 146,179 147,569
148,109 149,789 150,129 151,159
152,99 153,109 154,60 155,109
156,129 157,189 158,99 159,639
160,179 161,1009 162,139 163,90
164,20 165,169 166,20 167,40
168,30 169,30 170,50 171,109
172,50 173,659 174,119 175,4289
176,649 177,90 178,20 179,99
180,20 181,20 182,30 183,30
184,40 185,90 186,50 187,939
188,249 189,649 190,109 191,139
192,40 193,50 194,20 195,30
196,30 197,50 198,30 199,30
200,50 201,80 202,1059 203,8069
204,1389 205,139 206,20 207,40
208,10 209,20 210,20 211,40
212,40 213,30 214,20 215,30
216,30 217,199 218,1679 219,339
220,40 221,90 222,20 223,30
224,30 225,40 226,30 227,30
228,50 229,20 230,10 231,70
232,419 233,159 234,50 235,70
236,50 237,40 238,30 239,50
240,50 241,20 242,60 243,1749
244,359 245,40 246,10 247,10
248,60 249,539 250,119 251,1519
252,279 253,159 254,60 255,199
256,50 257,10 258,10 259,10
260,10 261,10 262,10 263,10
264,20 265,70 266,1949 267,9999
268,1779 269,749 270,159 271,30
283,40 284,20 290,10 291,30
292,10 306,20 317,10 319,80
320,20 332,20 333,20 334,30
335,139 336,30 337,10
##END=
