##TITLE=1-Heptene, 6-methyl-
##JCAMP-DX=4.24
##DATA TYPE=MASS SPECTRUM
##ORIGIN=CARL DJERASSI DEPT OF CHEM STANFORD UNIV STANFORD CALIF 94305
##OWNER=NIST Mass Spectrometry Data Center
Collection (C) 2014 copyright by the U.S. Secretary of Commerce
on behalf of the United States of America. All rights reserved.
##CAS REGISTRY NO=5026-76-6
##$NIST MASS SPEC NO=46312
##MOLFORM=C8 H16
##MW=112
##$NIST SOURCE=MSDC
##XUNITS=M/Z
##YUNITS=RELATIVE INTENSITY
##XFACTOR=1
##YFACTOR=1
##FIRSTX=39
##LASTX=112
##FIRSTY=1900
##MAXX=112
##MINX=39
##MAXY=9999
##MINY=100
##NPOINTS=20
##PEAK TABLE=(XY..XY)
39,1900 40,100 41,6500 42,2100
43,8600 44,200 53,400 54,200
55,7600 56,9999 57,3300 67,400
68,600 69,6500 70,3400 71,200
83,300 84,800 97,1000 112,800
##END=
