##TITLE=p-Hexyloxybenzylidene p-aminophenol
##JCAMP-DX=4.24
##DATA TYPE=MASS SPECTRUM
##ORIGIN=NIST Mass Spectrometry Data Center, 1994
##OWNER=NIST Mass Spectrometry Data Center
Collection (C) 2014 copyright by the U.S. Secretary of Commerce
on behalf of the United States of America. All rights reserved.
##CAS REGISTRY NO=50262-77-6
##$NIST MASS SPEC NO=135902
##MOLFORM=C19 H23 N O2
##MW=297
##$NIST SOURCE=MSDC
##XUNITS=M/Z
##YUNITS=RELATIVE INTENSITY
##XFACTOR=1
##YFACTOR=1
##FIRSTX=17
##LASTX=299
##FIRSTY=42
##MAXX=299
##MINX=17
##MAXY=9999
##MINY=1
##NPOINTS=94
##PEAK TABLE=(XY..XY)
17,42 18,25 27,972 29,1271
30,1 38,101 39,1353 41,2161
42,201 43,3057 44,73 50,149
51,378 52,124 53,258 54,73
55,465 56,44 57,205 62,50
63,308 64,224 65,2761 66,269
67,46 69,40 75,80 76,153
77,342 78,122 79,92 81,63
84,143 85,48 89,81 90,63
91,128 92,48 93,1122 94,315
95,34 98,39 101,47 102,92
103,80 104,33 105,80 107,45
113,45 115,148 116,33 119,105
120,769 121,72 127,168 128,254
129,170 130,43 131,82 132,57
139,161 140,121 141,69 152,33
154,369 155,135 156,128 157,172
158,43 159,37 166,258 167,288
168,83 169,43 182,110 183,495
184,300 185,108 194,55 195,227
196,137 197,39 198,40 210,39
212,7482 213,9999 214,1456 215,137
225,46 226,58 238,79 297,7729
298,1672 299,223
##END=
