##TITLE=p-Butyryloxybenzaldehyde
##JCAMP-DX=4.24
##DATA TYPE=MASS SPECTRUM
##ORIGIN=NIST Mass Spectrometry Data Center, 1994
##OWNER=NIST Mass Spectrometry Data Center
Collection (C) 2014 copyright by the U.S. Secretary of Commerce
on behalf of the United States of America. All rights reserved.
##CAS REGISTRY NO=50262-49-2
##$NIST MASS SPEC NO=135364
##MOLFORM=C11 H12 O3
##MW=192
##$NIST SOURCE=MSDC
##XUNITS=M/Z
##YUNITS=RELATIVE INTENSITY
##XFACTOR=1
##YFACTOR=1
##FIRSTX=12
##LASTX=193
##FIRSTY=13
##MAXX=193
##MINX=12
##MAXY=9999
##MINY=8
##NPOINTS=74
##PEAK TABLE=(XY..XY)
12,13 13,11 14,71 15,259
16,17 17,11 18,31 26,255
27,2427 28,425 29,536 30,10
32,8 37,143 38,619 39,2975
40,287 41,2344 42,778 43,9999
44,335 45,18 49,33 50,399
51,623 52,73 53,124 54,18
55,763 56,43 60,19 61,69
62,266 63,778 64,437 65,1827
66,247 67,52 68,35 69,80
70,19 71,8672 72,386 73,46
74,156 75,94 76,147 77,450
78,41 79,35 88,11 90,9
91,56 92,249 93,492 94,156
95,97 103,9 104,33 105,163
106,19 107,20 119,31 121,1987
122,512 123,692 124,53 133,29
135,16 149,38 163,21 164,16
192,400 193,57
##END=
