##TITLE=p-Nonyloxyaniline
##JCAMP-DX=4.24
##DATA TYPE=MASS SPECTRUM
##ORIGIN=NIST Mass Spectrometry Data Center, 1994
##OWNER=NIST Mass Spectrometry Data Center
Collection (C) 2014 copyright by the U.S. Secretary of Commerce
on behalf of the United States of America. All rights reserved.
##CAS REGISTRY NO=50262-67-4
##$NIST MASS SPEC NO=135747
##MOLFORM=C15 H25 N O
##MW=235
##$NIST SOURCE=MSDC
##XUNITS=M/Z
##YUNITS=RELATIVE INTENSITY
##XFACTOR=1
##YFACTOR=1
##FIRSTX=5
##LASTX=237
##FIRSTY=4
##MAXX=237
##MINX=5
##MAXY=9999
##MINY=1
##NPOINTS=69
##PEAK TABLE=(XY..XY)
5,4 15,3 16,4 17,1
18,19 26,26 27,619 28,296
29,995 30,38 37,6 39,442
41,1411 42,204 43,913 44,22
50,18 51,53 52,190 53,478
54,149 55,456 56,59 57,183
58,8 61,6 62,12 63,44
64,53 65,323 66,67 67,50
68,27 69,127 70,16 71,55
72,4 77,73 78,28 80,1082
81,254 82,48 83,36 85,21
90,7 91,44 92,219 93,72
94,168 95,15 105,6 106,29
108,1283 109,9999 110,730 111,44
119,4 120,17 121,8 122,114
123,11 135,33 136,10 149,9
163,10 177,5 235,782 236,143
237,14
##END=
