##TITLE=Aniline, p-(2,3-epoxypropoxy)-N,N-bis(2,3-epoxypropyl)-
##JCAMP-DX=4.24
##DATA TYPE=MASS SPECTRUM
##ORIGIN=RADIAN CORP
##OWNER=NIST Mass Spectrometry Data Center
Collection (C) 2014 copyright by the U.S. Secretary of Commerce
on behalf of the United States of America. All rights reserved.
##CAS REGISTRY NO=5026-74-4
##$NIST MASS SPEC NO=75285
##MOLFORM=C15 H19 N O4
##MW=277
##$NIST SOURCE=MSDC
##XUNITS=M/Z
##YUNITS=RELATIVE INTENSITY
##XFACTOR=1
##YFACTOR=1
##FIRSTX=15
##LASTX=279
##FIRSTY=70
##MAXX=279
##MINX=15
##MAXY=9999
##MINY=10
##NPOINTS=121
##PEAK TABLE=(XY..XY)
15,70 27,570 29,2770 30,150
31,2280 38,120 39,580 40,150
41,560 42,370 43,460 44,100
45,140 50,180 51,380 52,440
53,480 54,310 55,130 57,3250
58,170 62,40 63,510 64,530
65,1440 66,410 67,240 68,100
69,70 70,120 71,60 75,130
76,270 77,1160 78,610 79,610
80,440 81,210 82,140 83,10
89,210 90,220 91,740 92,930
93,690 94,330 95,100 100,120
102,90 103,340 104,600 105,340
106,540 107,1310 108,400 109,210
113,10 115,160 116,210 117,490
118,710 119,570 120,4470 121,1530
122,880 123,70 128,90 129,50
130,600 131,390 132,520 133,380
134,1440 135,450 136,790 137,140
143,50 144,150 145,110 146,1050
147,580 148,640 149,200 150,90
158,100 159,40 160,330 161,180
162,310 163,180 164,1190 165,250
172,130 174,70 176,2990 177,1060
178,1150 179,150 188,40 190,230
191,240 192,2460 193,350 202,240
203,30 204,1740 205,290 206,120
207,50 216,10 218,240 220,5820
221,1660 222,220 234,9999 235,1520
236,180 259,60 277,6560 278,1150
279,170
##END=
