##TITLE=Diazene, dimethyl-
##JCAMP-DX=4.24
##DATA TYPE=MASS SPECTRUM
##ORIGIN=P.F.DIAMOND,SHELL RESEARCH LIMITED THORNTON RESEARCH CENTRE
##OWNER=NIST Mass Spectrometry Data Center
Collection (C) 2014 copyright by the U.S. Secretary of Commerce
on behalf of the United States of America. All rights reserved.
##CAS REGISTRY NO=503-28-6
##$NIST MASS SPEC NO=18966
##MOLFORM=C2 H6 N2
##MW=58
##$NIST SOURCE=MSDC
##XUNITS=M/Z
##YUNITS=RELATIVE INTENSITY
##XFACTOR=1
##YFACTOR=1
##FIRSTX=13
##LASTX=58
##FIRSTY=241
##MAXX=58
##MINX=13
##MAXY=9999
##MINY=241
##NPOINTS=12
##PEAK TABLE=(XY..XY)
13,241 14,724 15,9999 26,275
27,1344 28,3655 29,241 30,620
42,1103 43,6758 57,413 58,3172
##END=
