##TITLE=Cyclohexene, 3,3,5-trimethyl-
##JCAMP-DX=4.24
##DATA TYPE=MASS SPECTRUM
##ORIGIN=ATLANTIC REFINING CO., PHILADELPHIA, PA, USA
##OWNER=NIST Mass Spectrometry Data Center
Collection (C) 2014 copyright by the U.S. Secretary of Commerce
on behalf of the United States of America. All rights reserved.
##CAS REGISTRY NO=503-45-7
##$NIST MASS SPEC NO=34526
##MOLFORM=C9 H16
##MW=124
##$NIST SOURCE=MSDC
##XUNITS=M/Z
##YUNITS=RELATIVE INTENSITY
##XFACTOR=1
##YFACTOR=1
##FIRSTX=38
##LASTX=126
##FIRSTY=371
##MAXX=126
##MINX=38
##MAXY=9999
##MINY=2
##NPOINTS=79
##PEAK TABLE=(XY..XY)
38,371 39,4370 40,834 41,5030
42,600 43,1280 44,53 45,33
46,29 47,7 49,22 50,330
51,928 52,429 53,1640 54,460
55,2080 56,285 57,153 58,14
59,9 60,20 61,41 62,103
63,324 64,101 65,845 66,437
67,6240 68,1460 69,1960 70,187
71,24 73,51 74,41 75,62
76,41 77,1170 78,388 79,1030
80,359 81,3230 82,4500 83,389
84,21 85,4 86,5 87,5
88,2 89,46 90,34 91,904
92,158 93,474 94,273 95,2730
96,377 97,50 98,16 99,8
100,2 101,14 102,11 103,31
104,14 105,94 106,31 107,271
108,106 109,9999 110,928 111,44
115,4 121,3 122,3 123,142
124,2990 125,320 126,17
##END=
