##TITLE=Azetidine
##JCAMP-DX=4.24
##DATA TYPE=MASS SPECTRUM
##ORIGIN=R.W. KISER KANSAS STATE UNIV., MANHATTAN, KANSAS, USA
##OWNER=NIST Mass Spectrometry Data Center
Collection (C) 2014 copyright by the U.S. Secretary of Commerce
on behalf of the United States of America. All rights reserved.
##CAS REGISTRY NO=503-29-7
##$NIST MASS SPEC NO=118
##MOLFORM=C3 H7 N
##MW=57
##$NIST SOURCE=MSDC
##XUNITS=M/Z
##YUNITS=RELATIVE INTENSITY
##XFACTOR=1
##YFACTOR=1
##FIRSTX=14
##LASTX=59
##FIRSTY=90
##MAXX=59
##MINX=14
##MAXY=9999
##MINY=2
##NPOINTS=20
##PEAK TABLE=(XY..XY)
14,90 15,220 26,1410 27,2580
28,9999 29,6390 30,4660 31,220
39,170 40,90 41,190 42,640
43,140 44,90 52,70 54,90
56,1950 57,4530 58,164 59,2
##END=
