##TITLE=4-Imidazolidinone, 2-thioxo-
##JCAMP-DX=4.24
##DATA TYPE=MASS SPECTRUM
##ORIGIN=Japan AIST/NIMC Database- Spectrum MS-IW-7515
##OWNER=NIST Mass Spectrometry Data Center
Collection (C) 2014 copyright by the U.S. Secretary of Commerce
on behalf of the United States of America. All rights reserved.
##CAS REGISTRY NO=503-87-7
##$NIST MASS SPEC NO=241289
##MOLFORM=C3 H4 N2 O S
##MW=116
##$NIST SOURCE=MSDC
##XUNITS=M/Z
##YUNITS=RELATIVE INTENSITY
##XFACTOR=1
##YFACTOR=1
##FIRSTX=27
##LASTX=119
##FIRSTY=60
##MAXX=119
##MINX=27
##MAXY=9999
##MINY=10
##NPOINTS=46
##PEAK TABLE=(XY..XY)
27,60 28,609 29,449 30,529
32,109 33,30 34,20 36,10
38,10 39,10 40,10 41,30
42,229 43,60 44,159 45,229
46,90 47,40 53,20 54,20
55,50 56,129 57,10 58,149
59,579 60,1089 61,159 62,50
70,20 71,10 72,159 73,179
74,10 84,249 85,10 86,289
87,20 88,1259 89,50 90,50
98,10 100,20 116,9999 117,529
118,489 119,20
##END=
