##TITLE=2-Butene, 1-chloro-3-methyl-
##JCAMP-DX=4.24
##DATA TYPE=MASS SPECTRUM
##ORIGIN=J. MADSEN,DEP. ORG. CHEM.,TECH. UNIV. DENMARK,LYNGBY,DENMARK
##OWNER=NIST Mass Spectrometry Data Center
Collection (C) 2014 copyright by the U.S. Secretary of Commerce
on behalf of the United States of America. All rights reserved.
##CAS REGISTRY NO=503-60-6
##$NIST MASS SPEC NO=99455
##MOLFORM=C5 H9 Cl
##MW=104
##$NIST SOURCE=MSDC
##XUNITS=M/Z
##YUNITS=RELATIVE INTENSITY
##XFACTOR=1
##YFACTOR=1
##FIRSTX=26
##LASTX=107
##FIRSTY=140
##MAXX=107
##MINX=26
##MAXY=9999
##MINY=29
##NPOINTS=39
##PEAK TABLE=(XY..XY)
26,140 27,1010 28,99 29,430
31,70 32,29 36,110 37,110
38,200 39,1440 40,530 41,8420
42,520 43,260 44,40 49,90
50,250 51,420 52,120 53,1860
54,260 55,390 61,70 62,80
63,90 65,120 66,40 67,640
68,350 69,9999 70,590 75,130
77,40 89,600 91,190 104,3430
105,190 106,1130 107,60
##END=
