##TITLE=5-Hepten-2-amine, N,6-dimethyl-
##JCAMP-DX=4.24
##DATA TYPE=MASS SPECTRUM
##ORIGIN=AAFS Toxicology Section MS DB Committee, U. Alberta, Canada
##OWNER=NIST Mass Spectrometry Data Center
Collection (C) 2014 copyright by the U.S. Secretary of Commerce
on behalf of the United States of America. All rights reserved.
##CAS REGISTRY NO=503-01-5
##$NIST MASS SPEC NO=245942
##MOLFORM=C9 H19 N
##MW=141
##$NIST SOURCE=MSDC
##XUNITS=M/Z
##YUNITS=RELATIVE INTENSITY
##XFACTOR=1
##YFACTOR=1
##FIRSTX=29
##LASTX=142
##FIRSTY=100
##MAXX=142
##MINX=29
##MAXY=9999
##MINY=10
##NPOINTS=71
##PEAK TABLE=(XY..XY)
29,100 30,300 31,10 32,80
38,10 39,390 40,90 41,780
42,360 43,150 44,170 45,10
50,20 51,70 52,40 53,240
54,110 55,280 56,770 57,320
58,9999 59,400 60,10 62,10
63,20 64,10 65,70 66,40
67,440 68,180 69,960 70,540
71,1020 72,190 73,10 77,80
78,10 79,90 80,30 81,130
82,80 83,20 84,1191 85,260
86,10 91,40 92,10 93,50
94,20 95,1241 96,120 97,10
98,500 99,60 100,50 101,10
106,10 107,10 108,10 109,20
110,260 111,20 112,10 124,10
126,310 127,20 130,10 138,10
140,20 141,200 142,20
##END=
