##TITLE=Benzene, 1,2,4-trichloro-3-methoxy-
##JCAMP-DX=4.24
##DATA TYPE=MASS SPECTRUM
##ORIGIN=NIST Mass Spectrometry Data Center
##OWNER=NIST Mass Spectrometry Data Center
Collection (C) 2014 copyright by the U.S. Secretary of Commerce
on behalf of the United States of America. All rights reserved.
##CAS REGISTRY NO=50375-10-5
##$NIST MASS SPEC NO=333406
##MOLFORM=C7 H5 Cl3 O
##MW=210
##$NIST SOURCE=MSDC
##XUNITS=M/Z
##YUNITS=RELATIVE INTENSITY
##XFACTOR=1
##YFACTOR=1
##FIRSTX=14
##LASTX=217
##FIRSTY=40
##MAXX=217
##MINX=14
##MAXY=9999
##MINY=10
##NPOINTS=155
##PEAK TABLE=(XY..XY)
14,40 15,340 24,10 25,20
26,30 27,10 28,20 29,260
30,70 31,40 35,110 36,130
37,601 38,200 39,30 42,10
43,40 45,10 47,230 48,320
49,480 50,390 51,220 52,60
53,320 54,50 55,30 56,10
59,40 60,480 61,1672 62,1782
63,210 64,10 65,150 66,80
67,40 71,280 72,771 73,1511
74,1952 75,1051 76,80 77,150
78,20 80,10 81,10 82,30
83,761 84,811 85,741 86,290
87,350 88,20 89,80 90,130
91,10 94,60 95,230 96,1011
97,4384 98,561 99,1421 100,90
101,10 102,10 105,30 106,240
107,1922 108,1031 109,3303 110,711
111,1471 112,340 113,220 114,70
115,10 117,40 118,250 119,170
120,170 121,100 122,40 123,20
124,20 125,40 126,20 127,10
130,40 131,520 132,721 133,410
134,440 135,100 136,70 137,10
139,40 140,10 141,140 142,30
143,751 144,500 145,1251 146,561
147,1011 148,240 149,360 150,50
151,50 155,10 160,691 161,60
162,430 163,40 164,80 167,9999
168,631 169,9549 170,550 171,3043
172,180 173,360 174,40 175,300
176,30 177,180 178,20 179,360
180,60 181,350 182,80 183,120
184,40 185,20 186,10 192,10
195,6105 196,450 197,5795 198,420
199,1892 200,130 201,210 202,10
206,10 207,20 208,10 210,9919
211,841 212,9338 213,741 214,2983
215,230 216,330 217,30
##END=
