##TITLE=Hydrazine, propyl-
##JCAMP-DX=4.24
##DATA TYPE=MASS SPECTRUM
##ORIGIN=ATLAS OF MASS SPECTRA OF ORGANIC COMPOUNDS, V. A. KOPTYUG, ED.
##OWNER=NIST Mass Spectrometry Data Center
Collection (C) 2014 copyright by the U.S. Secretary of Commerce
on behalf of the United States of America. All rights reserved.
##CAS REGISTRY NO=5039-61-2
##$NIST MASS SPEC NO=64412
##MOLFORM=C3 H10 N2
##MW=74
##$NIST SOURCE=MSDC
##XUNITS=M/Z
##YUNITS=RELATIVE INTENSITY
##XFACTOR=1
##YFACTOR=1
##FIRSTX=29
##LASTX=75
##FIRSTY=1080
##MAXX=75
##MINX=29
##MAXY=9999
##MINY=60
##NPOINTS=19
##PEAK TABLE=(XY..XY)
29,1080 30,770 31,1450 32,250
39,720 40,170 41,1450 42,620
43,1130 44,340 45,9999 46,250
56,290 57,130 58,60 59,190
73,160 74,2640 75,460
##END=
