##TITLE=1,2-Propadiene-1,3-dione
##JCAMP-DX=4.24
##DATA TYPE=MASS SPECTRUM
##OWNER=NIST Mass Spectrometry Data Center
Collection (C) 2014 copyright by the U.S. Secretary of Commerce
on behalf of the United States of America. All rights reserved.
##CAS REGISTRY NO=504-64-3
##$NIST MASS SPEC NO=230
##MOLFORM=C3 O2
##MW=68
##$NIST SOURCE=MSDC
##XUNITS=M/Z
##YUNITS=RELATIVE INTENSITY
##XFACTOR=1
##YFACTOR=1
##FIRSTX=12
##LASTX=70
##FIRSTY=3934
##MAXX=70
##MINX=12
##MAXY=9999
##MINY=10
##NPOINTS=19
##PEAK TABLE=(XY..XY)
12,3934 13,160 16,280 24,1441
25,190 28,2562 29,370 36,350
40,9999 41,801 44,631 45,10
52,400 53,30 56,170 57,10
68,7186 69,290 70,90
##END=
