##TITLE=1,3-Cyclohexanediol
##JCAMP-DX=4.24
##DATA TYPE=MASS SPECTRUM
##ORIGIN=D.HENNEBERG, MAX-PLANCK INSTITUTE, MULHEIM, WEST GERMANY
##OWNER=NIST Mass Spectrometry Data Center
Collection (C) 2014 copyright by the U.S. Secretary of Commerce
on behalf of the United States of America. All rights reserved.
##CAS REGISTRY NO=504-01-8
##$NIST MASS SPEC NO=63582
##MOLFORM=C6 H12 O2
##MW=116
##$NIST SOURCE=MSDC
##XUNITS=M/Z
##YUNITS=RELATIVE INTENSITY
##XFACTOR=1
##YFACTOR=1
##FIRSTX=26
##LASTX=117
##FIRSTY=399
##MAXX=117
##MINX=26
##MAXY=9999
##MINY=4
##NPOINTS=82
##PEAK TABLE=(XY..XY)
26,399 27,2885 28,900 29,2329
30,123 31,1601 32,26 33,7
36,18 37,20 38,75 39,2462
40,753 41,5003 42,7098 43,4369
44,9999 45,3934 46,108 47,886
48,11 49,8 50,117 51,349
52,281 53,993 54,8470 55,4438
56,1042 57,4793 58,501 59,221
60,172 61,11 62,77 63,35
64,4 65,200 66,112 67,1021
68,770 69,2186 70,4061 71,957
72,285 73,3441 74,155 75,225
76,31 77,521 78,257 79,1682
80,4463 81,599 82,508 83,2688
84,173 85,44 86,43 87,28
88,267 89,21 91,11 93,5
94,74 95,62 96,265 97,1493
98,4863 99,440 100,46 101,21
104,5 105,10 110,6 111,16
112,10 113,8 114,17 115,17
116,80 117,21
##END=
