##TITLE=10-Nonadecanone
##JCAMP-DX=4.24
##DATA TYPE=MASS SPECTRUM
##ORIGIN=NIST Mass Spectrometry Data Center, 1990.
##OWNER=NIST Mass Spectrometry Data Center
Collection (C) 2014 copyright by the U.S. Secretary of Commerce
on behalf of the United States of America. All rights reserved.
##CAS REGISTRY NO=504-57-4
##$NIST MASS SPEC NO=118298
##MOLFORM=C19 H38 O
##MW=282
##$NIST SOURCE=MSDC
##XUNITS=M/Z
##YUNITS=RELATIVE INTENSITY
##XFACTOR=1
##YFACTOR=1
##FIRSTX=18
##LASTX=283
##FIRSTY=3
##MAXX=283
##MINX=18
##MAXY=9999
##MINY=3
##NPOINTS=87
##PEAK TABLE=(XY..XY)
18,3 27,1212 28,370 29,3206
30,72 31,42 39,688 41,6363
42,1528 43,9999 44,373 45,87
51,46 53,388 54,559 55,4499
56,1219 57,6540 58,6016 59,2021
60,79 65,87 66,151 67,1587
68,804 69,1983 70,1093 71,9611
72,1524 73,189 77,86 79,228
81,2838 82,1889 83,1524 84,690
85,4764 86,724 87,125 91,63
93,89 95,2777 96,2152 97,1081
98,417 99,426 100,744 101,80
107,54 108,67 109,730 110,2838
111,560 112,954 113,936 114,916
115,94 123,275 124,122 125,69
126,69 127,1962 128,519 129,43
137,360 138,106 141,295 142,141
152,338 153,117 155,8988 156,1076
157,64 170,1770 171,1644 172,234
183,1032 184,132 197,366 198,55
211,56 225,99 239,287 240,74
253,80 282,222 283,48
##END=
