##TITLE=18-Pentatriacontanone
##JCAMP-DX=4.24
##DATA TYPE=MASS SPECTRUM
##OWNER=NIST Mass Spectrometry Data Center
Collection (C) 2014 copyright by the U.S. Secretary of Commerce
on behalf of the United States of America. All rights reserved.
##CAS REGISTRY NO=504-53-0
##$NIST MASS SPEC NO=18165
##MOLFORM=C35 H70 O
##MW=506
##$NIST SOURCE=MSDC
##XUNITS=M/Z
##YUNITS=RELATIVE INTENSITY
##XFACTOR=1
##YFACTOR=1
##FIRSTX=67
##LASTX=507
##FIRSTY=1842
##MAXX=507
##MINX=67
##MAXY=9999
##MINY=10
##NPOINTS=259
##PEAK TABLE=(XY..XY)
67,1842 68,1191 69,4704 70,1812
71,9999 72,711 73,90 77,360
78,150 79,390 80,310 81,1742
82,1942 83,3583 84,1121 85,3653
86,260 91,520 92,200 93,240
94,200 95,1872 96,1722 97,2262
98,881 105,1031 106,130 107,200
108,110 109,941 110,520 111,861
112,290 113,400 114,200 115,110
116,40 117,180 118,90 119,180
120,931 121,270 122,70 123,410
124,220 125,310 126,130 127,450
128,110 129,140 130,50 131,180
132,70 133,220 134,80 135,120
136,40 137,200 138,150 139,130
140,80 141,140 142,60 143,80
144,40 145,140 146,60 147,70
148,20 149,60 150,30 151,90
152,140 153,80 154,60 155,100
156,50 157,60 158,20 159,50
160,30 161,30 162,10 163,30
164,20 165,80 166,150 167,80
168,50 169,80 170,40 171,40
172,10 173,20 174,20 175,30
176,20 177,20 178,30 179,70
180,200 181,80 182,40 183,70
184,40 185,30 186,10 187,20
188,20 189,20 190,10 191,30
192,20 193,70 194,270 195,80
207,50 208,150 209,50 210,30
211,80 212,40 213,20 214,10
215,20 216,90 217,30 218,30
219,20 220,70 221,50 222,731
223,150 224,220 225,120 226,70
227,30 228,10 229,20 230,20
231,90 232,40 233,30 234,20
235,40 236,110 237,80 238,50
239,1021 240,240 241,60 245,40
246,30 247,40 248,20 249,60
250,60 251,40 252,30 253,270
254,360 255,641 256,130 257,40
258,20 259,711 260,150 261,30
262,20 263,30 264,380 265,230
266,110 267,5515 268,1131 269,270
277,30 278,40 279,20 280,60
281,140 282,1712 283,3543 284,701
285,90 286,10 287,30 288,10
289,10 290,10 291,20 292,20
293,90 294,30 295,751 296,190
297,50 305,20 306,50 307,30
308,10 309,230 310,70 311,40
319,30 320,40 321,50 322,20
323,70 324,50 325,10 335,70
336,20 337,50 338,20 343,30
344,40 345,20 349,90 350,30
351,60 352,20 379,10 393,10
407,10 421,10 435,10 449,20
450,20 460,10 461,10 462,10
463,30 464,20 474,20 475,10
476,10 477,40 478,70 479,30
480,30 482,10 484,20 486,10
488,30 489,10 490,10 491,10
492,20 494,10 496,20 498,20
500,10 502,40 503,10 504,20
505,40 506,160 507,80
##END=
