##TITLE=1,3-Pentadiene
##JCAMP-DX=4.24
##DATA TYPE=MASS SPECTRUM
##ORIGIN=Japan AIST/NIMC Database- Spectrum MS-IW-3455
##OWNER=NIST Mass Spectrometry Data Center
Collection (C) 2014 copyright by the U.S. Secretary of Commerce
on behalf of the United States of America. All rights reserved.
##CAS REGISTRY NO=504-60-9
##$NIST MASS SPEC NO=233812
##MOLFORM=C5 H8
##MW=68
##$NIST SOURCE=MSDC
##XUNITS=M/Z
##YUNITS=RELATIVE INTENSITY
##XFACTOR=1
##YFACTOR=1
##FIRSTX=14
##LASTX=70
##FIRSTY=10
##MAXX=70
##MINX=14
##MAXY=9999
##MINY=10
##NPOINTS=38
##PEAK TABLE=(XY..XY)
14,10 15,80 25,30 26,309
27,1739 28,179 29,259 31,379
32,109 33,80 34,129 36,40
37,459 38,939 39,5459 40,3319
41,4009 42,2159 43,70 48,20
49,129 50,569 51,779 52,469
53,7099 54,319 55,80 60,80
61,379 62,509 63,639 64,99
65,1679 66,999 67,9999 68,8999
69,539 70,60
##END=
