##TITLE=Orcinol
##JCAMP-DX=4.24
##DATA TYPE=MASS SPECTRUM
##ORIGIN=NIST Mass Spectrometry Data Center
##OWNER=NIST Mass Spectrometry Data Center
Collection (C) 2014 copyright by the U.S. Secretary of Commerce
on behalf of the United States of America. All rights reserved.
##CAS REGISTRY NO=504-15-4
##$NIST MASS SPEC NO=352831
##MOLFORM=C7 H8 O2
##MW=124
##$NIST SOURCE=MSDC
##XUNITS=M/Z
##YUNITS=RELATIVE INTENSITY
##XFACTOR=1
##YFACTOR=1
##FIRSTX=14
##LASTX=127
##FIRSTY=30
##MAXX=127
##MINX=14
##MAXY=9999
##MINY=10
##NPOINTS=82
##PEAK TABLE=(XY..XY)
14,30 15,50 19,20 25,10
26,90 27,500 28,110 29,260
30,20 31,50 32,30 36,10
37,140 38,370 39,1151 40,240
41,761 42,240 43,651 44,20
45,70 46,30 47,80 48,60
49,80 50,460 51,861 52,360
53,771 54,160 55,971 56,70
57,20 60,40 61,100 62,370
63,300 64,70 65,530 66,480
67,1051 68,140 69,971 70,40
71,40 72,10 73,30 74,120
75,70 76,70 77,961 78,771
79,250 80,30 81,530 82,120
83,120 84,130 85,230 86,30
87,10 89,10 90,10 91,10
92,10 93,40 94,140 95,1752
96,270 97,110 98,10 105,310
106,430 107,851 108,70 109,40
121,30 123,5735 124,9999 125,771
126,70 127,10
##END=
