##TITLE=Thiazole, tetrahydro-
##JCAMP-DX=4.24
##DATA TYPE=MASS SPECTRUM
##ORIGIN=Japan AIST/NIMC Database- Spectrum MS-NW-2863
##OWNER=NIST Mass Spectrometry Data Center
Collection (C) 2014 copyright by the U.S. Secretary of Commerce
on behalf of the United States of America. All rights reserved.
##CAS REGISTRY NO=504-78-9
##$NIST MASS SPEC NO=231120
##MOLFORM=C3 H7 N S
##MW=89
##$NIST SOURCE=MSDC
##XUNITS=M/Z
##YUNITS=RELATIVE INTENSITY
##XFACTOR=1
##YFACTOR=1
##FIRSTX=12
##LASTX=92
##FIRSTY=10
##MAXX=92
##MINX=12
##MAXY=9999
##MINY=10
##NPOINTS=60
##PEAK TABLE=(XY..XY)
12,10 13,20 14,80 15,379
16,10 17,30 18,169 24,10
25,40 26,339 27,1099 28,2809
29,399 30,1979 31,30 32,149
33,129 34,199 39,60 40,169
41,539 42,4759 43,8619 44,1309
45,1979 46,529 47,319 48,30
49,10 51,30 52,60 53,20
54,139 55,109 56,479 57,189
58,609 59,2239 60,1909 61,1329
62,129 63,60 68,10 70,10
71,10 72,10 73,10 74,10
75,20 76,30 82,10 83,40
85,20 86,119 87,109 88,3239
89,9999 90,599 91,449 92,10
##END=
