##TITLE=1,3-Propanediol
##JCAMP-DX=4.24
##DATA TYPE=MASS SPECTRUM
##ORIGIN=NIST Mass Spectrometry Data Center, 1994
##OWNER=NIST Mass Spectrometry Data Center
Collection (C) 2014 copyright by the U.S. Secretary of Commerce
on behalf of the United States of America. All rights reserved.
##CAS REGISTRY NO=504-63-2
##$NIST MASS SPEC NO=134018
##MOLFORM=C3 H8 O2
##MW=76
##$NIST SOURCE=MSDC
##XUNITS=M/Z
##YUNITS=RELATIVE INTENSITY
##XFACTOR=1
##YFACTOR=1
##FIRSTX=13
##LASTX=76
##FIRSTY=117
##MAXX=76
##MINX=13
##MAXY=9999
##MINY=17
##NPOINTS=36
##PEAK TABLE=(XY..XY)
13,117 14,405 15,1093 16,84
17,116 18,155 25,154 26,1227
27,3964 28,9999 29,6516 30,2129
31,8782 32,77 33,60 36,52
37,130 38,175 39,462 40,346
41,299 42,588 43,1955 44,420
45,1488 46,910 47,369 48,37
49,81 53,85 55,198 57,6427
58,5981 59,109 75,58 76,17
##END=
