##TITLE=11-Ketoetiocholanolone, TMS derivative
##JCAMP-DX=4.24
##DATA TYPE=MASS SPECTRUM
##ORIGIN=STER ANDR TMSI L 00 0000 E M.HORN
##OWNER=NIST Mass Spectrometry Data Center
Collection (C) 2014 copyright by the U.S. Secretary of Commerce
on behalf of the United States of America. All rights reserved.
##CAS REGISTRY NO=5042-90-0
##$NIST MASS SPEC NO=43228
##MOLFORM=C22 H36 O3 Si
##MW=376
##$NIST SOURCE=MSDC
##XUNITS=M/Z
##YUNITS=RELATIVE INTENSITY
##XFACTOR=1
##YFACTOR=1
##FIRSTX=41
##LASTX=378
##FIRSTY=2150
##MAXX=378
##MINX=41
##MAXY=9999
##MINY=50
##NPOINTS=235
##PEAK TABLE=(XY..XY)
41,2150 42,150 43,800 44,150
45,750 46,50 47,400 50,50
51,100 52,100 53,600 54,150
55,2050 56,150 57,200 58,50
59,450 60,100 61,450 62,50
63,50 65,300 66,150 67,1800
68,400 69,900 70,100 71,150
72,100 73,5450 74,550 75,4850
76,350 77,1200 78,250 79,2200
80,400 81,1600 82,350 83,300
84,50 85,150 87,50 89,150
90,50 91,2050 92,450 93,2250
94,750 95,1250 96,300 97,400
98,50 99,100 101,400 102,50
103,200 104,200 105,1700 106,600
107,1650 108,900 109,1150 110,300
111,250 112,50 113,100 115,250
116,200 117,550 118,500 119,1100
120,400 121,1400 122,500 123,350
124,450 125,100 127,100 128,100
129,1800 130,450 131,800 132,250
133,650 134,250 135,400 136,150
137,200 138,50 139,100 141,100
142,200 143,300 144,150 145,800
146,200 147,850 148,250 149,400
150,850 151,200 152,100 153,200
154,450 155,200 156,300 157,100
158,400 159,200 160,350 161,150
162,750 163,700 164,150 165,100
166,50 167,200 168,100 169,250
170,150 171,350 172,150 173,350
174,150 175,300 176,150 177,150
178,500 179,150 180,50 181,200
182,50 183,200 184,50 185,200
186,50 187,200 188,100 189,150
190,150 191,1600 192,250 193,100
194,100 195,250 196,100 197,150
198,50 199,150 200,50 201,150
202,50 203,150 204,100 205,100
206,50 207,150 208,50 209,150
210,50 211,250 212,100 213,200
214,150 215,200 216,150 217,200
218,100 219,50 221,300 222,50
223,100 224,50 225,150 226,50
227,200 228,100 229,250 230,150
231,200 232,7550 233,1500 234,150
235,150 236,50 237,50 239,50
240,50 241,50 242,50 243,200
244,100 245,250 246,50 247,100
249,50 250,50 251,100 253,200
254,50 256,50 257,150 258,200
259,50 261,50 267,100 268,200
269,150 270,100 271,9999 272,2200
273,250 279,250 280,50 281,100
285,150 286,5400 287,1100 288,150
303,100 304,50 305,150 306,50
319,50 320,50 343,50 355,50
360,600 361,200 362,50 375,50
376,1700 377,550 378,150
##END=
