##TITLE=1,3-Benzenediamine, 5-nitro-
##JCAMP-DX=4.24
##DATA TYPE=MASS SPECTRUM
##ORIGIN=James Little,Eastman Chem.Co.,Kingsport,TN
##OWNER=NIST Mass Spectrometry Data Center
Collection (C) 2014 copyright by the U.S. Secretary of Commerce
on behalf of the United States of America. All rights reserved.
##CAS REGISTRY NO=5042-55-7
##$NIST MASS SPEC NO=289257
##MOLFORM=C6 H7 N3 O2
##MW=153
##$NIST SOURCE=MSDC
##XUNITS=M/Z
##YUNITS=RELATIVE INTENSITY
##XFACTOR=1
##YFACTOR=1
##FIRSTX=27
##LASTX=155
##FIRSTY=200
##MAXX=155
##MINX=27
##MAXY=9999
##MINY=30
##NPOINTS=40
##PEAK TABLE=(XY..XY)
27,200 28,771 38,350 39,691
41,611 42,831 51,420 52,781
53,1702 54,470 56,731 63,821
65,450 66,1031 67,951 69,180
76,120 78,460 79,370 80,3243
81,260 90,370 94,110 95,661
96,100 105,260 106,330 107,7216
108,711 123,230 124,150 125,230
135,30 136,50 137,50 138,30
152,150 153,9999 154,921 155,90
##END=
