##TITLE=Vinclozoline
##JCAMP-DX=4.24
##DATA TYPE=MASS SPECTRUM
##ORIGIN=NIST Mass Spectrometry Data Center, 1990.
##OWNER=NIST Mass Spectrometry Data Center
Collection (C) 2014 copyright by the U.S. Secretary of Commerce
on behalf of the United States of America. All rights reserved.
##CAS REGISTRY NO=50471-44-8
##$NIST MASS SPEC NO=119025
##MOLFORM=C12 H9 Cl2 N O3
##MW=285
##$NIST SOURCE=MSDC
##XUNITS=M/Z
##YUNITS=RELATIVE INTENSITY
##XFACTOR=1
##YFACTOR=1
##FIRSTX=13
##LASTX=290
##FIRSTY=32
##MAXX=290
##MINX=13
##MAXY=9999
##MINY=29
##NPOINTS=174
##PEAK TABLE=(XY..XY)
13,32 14,47 15,1004 17,45
18,379 26,828 27,5080 28,2915
29,186 30,141 32,76 35,96
36,108 37,400 38,1035 39,6732
40,400 41,697 42,757 43,3632
44,268 45,61 47,120 49,502
50,1002 51,1120 52,775 53,5143
54,4633 55,2449 56,131 60,156
61,627 62,975 63,782 64,573
65,89 66,76 67,103 68,304
69,181 70,630 71,135 72,332
73,1430 74,977 75,1160 76,306
77,61 78,54 81,903 82,755
83,137 84,241 85,242 86,257
87,404 88,1228 89,351 90,159
91,54 95,72 96,201 97,1283
98,573 99,535 100,297 101,84
102,114 103,82 104,35 107,110
109,915 110,262 111,339 112,147
113,43 114,54 115,237 116,216
117,41 122,70 124,6108 125,608
126,1934 127,226 128,80 131,36
132,154 133,185 134,91 135,144
136,115 137,101 138,103 139,39
140,86 141,93 142,232 143,535
144,36 145,1797 146,265 147,1186
148,135 149,225 150,49 151,82
152,96 153,91 157,30 159,1608
160,255 161,1138 162,223 163,362
164,125 165,83 166,48 168,43
170,114 171,319 172,1358 173,312
174,972 175,148 176,257 177,43
178,7546 179,1072 180,2326 181,258
186,2409 187,7681 188,2084 189,4897
190,682 191,844 192,93 196,257
198,8350 199,1347 200,5465 201,618
202,884 203,93 204,72 205,48
206,257 207,60 208,77 209,29
212,9999 213,7677 214,6986 215,4726
216,1569 217,814 218,107 226,153
227,36 228,113 240,639 241,1322
242,551 243,850 244,164 245,136
285,9906 286,1470 287,6840 288,931
289,1290 290,164
##END=
