##TITLE=Aminopyrazine
##JCAMP-DX=4.24
##DATA TYPE=MASS SPECTRUM
##ORIGIN=Japan AIST/NIMC Database- Spectrum MS-NW-6172
##OWNER=NIST Mass Spectrometry Data Center
Collection (C) 2014 copyright by the U.S. Secretary of Commerce
on behalf of the United States of America. All rights reserved.
##CAS REGISTRY NO=5049-61-6
##$NIST MASS SPEC NO=233433
##MOLFORM=C4 H5 N3
##MW=95
##$NIST SOURCE=MSDC
##XUNITS=M/Z
##YUNITS=RELATIVE INTENSITY
##XFACTOR=1
##YFACTOR=1
##FIRSTX=12
##LASTX=97
##FIRSTY=40
##MAXX=97
##MINX=12
##MAXY=9999
##MINY=10
##NPOINTS=54
##PEAK TABLE=(XY..XY)
12,40 13,60 14,149 15,30
16,20 24,30 25,70 26,809
27,359 28,1159 29,50 30,10
32,10 33,179 34,99 36,10
37,20 38,359 39,669 40,2209
41,3829 42,2229 43,429 44,40
45,10 46,10 47,80 48,10
49,10 50,50 51,219 52,349
53,709 54,50 55,20 63,20
64,30 65,60 66,279 67,849
68,7559 69,539 70,20 75,10
76,10 77,20 79,40 91,279
92,219 93,40 94,209 95,9999
96,569 97,20
##END=
