##TITLE=Pyridine, 2,3,4,5-tetrahydro-
##JCAMP-DX=4.24
##DATA TYPE=MASS SPECTRUM
##ORIGIN=James Little,Eastman Chem.Co.,Kingsport,TN
##OWNER=NIST Mass Spectrometry Data Center
Collection (C) 2014 copyright by the U.S. Secretary of Commerce
on behalf of the United States of America. All rights reserved.
##CAS REGISTRY NO=505-18-0
##$NIST MASS SPEC NO=288333
##MOLFORM=C5 H9 N
##MW=83
##$NIST SOURCE=MSDC
##XUNITS=M/Z
##YUNITS=RELATIVE INTENSITY
##XFACTOR=1
##YFACTOR=1
##FIRSTX=27
##LASTX=85
##FIRSTY=1782
##MAXX=85
##MINX=27
##MAXY=9999
##MINY=70
##NPOINTS=22
##PEAK TABLE=(XY..XY)
27,1782 28,1481 29,440 39,2002
40,951 41,3003 42,6226 43,470
52,400 53,390 54,1511 55,9999
56,540 65,70 66,290 67,310
68,170 69,110 82,270 83,4574
84,310 85,80
##END=
