##TITLE=1,2-Dithiane
##JCAMP-DX=4.24
##DATA TYPE=MASS SPECTRUM
##OWNER=NIST Mass Spectrometry Data Center
Collection (C) 2014 copyright by the U.S. Secretary of Commerce
on behalf of the United States of America. All rights reserved.
##CAS REGISTRY NO=505-20-4
##$NIST MASS SPEC NO=2184
##MOLFORM=C4 H8 S2
##MW=120
##$NIST SOURCE=MSDC
##XUNITS=M/Z
##YUNITS=RELATIVE INTENSITY
##XFACTOR=1
##YFACTOR=1
##FIRSTX=39
##LASTX=120
##FIRSTY=900
##MAXX=120
##MINX=39
##MAXY=9999
##MINY=400
##NPOINTS=20
##PEAK TABLE=(XY..XY)
39,900 41,900 44,500 45,1000
46,700 47,500 53,500 54,400
55,9999 56,800 59,500 60,1000
64,1000 73,500 78,500 79,500
84,400 86,800 87,800 120,7499
##END=
