##TITLE=Isophytol
##JCAMP-DX=4.24
##DATA TYPE=MASS SPECTRUM
##ORIGIN=Japan AIST/NIMC Database- Spectrum MS-NW- 727
##OWNER=NIST Mass Spectrometry Data Center
Collection (C) 2014 copyright by the U.S. Secretary of Commerce
on behalf of the United States of America. All rights reserved.
##CAS REGISTRY NO=505-32-8
##$NIST MASS SPEC NO=229459
##MOLFORM=C20 H40 O
##MW=296
##$NIST SOURCE=MSDC
##XUNITS=M/Z
##YUNITS=RELATIVE INTENSITY
##XFACTOR=1
##YFACTOR=1
##FIRSTX=15
##LASTX=296
##FIRSTY=30
##MAXX=296
##MINX=15
##MAXY=9999
##MINY=10
##NPOINTS=112
##PEAK TABLE=(XY..XY)
15,30 17,10 18,30 27,389
28,60 29,759 30,50 31,30
39,259 40,60 41,1709 42,359
43,2449 44,80 45,80 50,20
51,99 52,20 53,209 54,60
55,1559 56,579 57,1869 58,429
59,239 63,10 65,60 66,40
67,409 68,509 69,1069 70,429
71,9999 72,609 73,80 77,109
78,10 79,119 80,249 81,1029
82,1329 83,759 84,129 85,419
86,70 87,30 91,30 93,60
94,109 95,839 96,539 97,549
98,80 99,139 100,40 107,30
108,30 109,409 110,249 111,349
112,90 113,119 114,20 115,20
121,20 122,50 123,819 124,369
125,209 126,119 127,80 135,10
137,199 138,149 139,80 140,60
141,169 142,20 151,129 152,159
153,60 154,10 155,10 165,70
166,50 167,229 168,409 169,209
170,20 179,99 180,20 181,10
182,10 193,70 194,40 196,60
197,20 207,20 208,20 210,10
222,30 235,10 236,50 238,10
249,10 250,10 263,20 269,30
278,219 279,50 281,50 296,10
##END=
