##TITLE=Mustard Gas
##JCAMP-DX=4.24
##DATA TYPE=MASS SPECTRUM
##ORIGIN=VERIFINN
##OWNER=NIST Mass Spectrometry Data Center
Collection (C) 2014 copyright by the U.S. Secretary of Commerce
on behalf of the United States of America. All rights reserved.
##CAS REGISTRY NO=505-60-2
##$NIST MASS SPEC NO=289463
##MOLFORM=C4 H8 Cl2 S
##MW=158
##$NIST SOURCE=MSDC
##XUNITS=M/Z
##YUNITS=RELATIVE INTENSITY
##XFACTOR=1
##YFACTOR=1
##FIRSTX=26
##LASTX=162
##FIRSTY=250
##MAXX=162
##MINX=26
##MAXY=9999
##MINY=50
##NPOINTS=36
##PEAK TABLE=(XY..XY)
26,250 27,2522 28,170 35,120
45,1321 46,510 47,1581 48,50
49,320 58,390 59,951 60,350
61,651 63,3473 65,1121 73,581
81,230 83,90 93,60 94,70
95,210 96,781 97,90 98,260
109,9999 110,380 111,3833 112,120
113,150 123,310 125,120 158,2382
159,120 160,1621 161,80 162,330
##END=
