##TITLE=Propane, 1-isothiocyanato-3-(methylthio)-
##JCAMP-DX=4.24
##DATA TYPE=MASS SPECTRUM
##ORIGIN=NIST Mass Spectrometry Data Center
##OWNER=NIST Mass Spectrometry Data Center
Collection (C) 2014 copyright by the U.S. Secretary of Commerce
on behalf of the United States of America. All rights reserved.
##CAS REGISTRY NO=505-79-3
##$NIST MASS SPEC NO=414857
##MOLFORM=C5 H9 N S2
##MW=147
##$NIST SOURCE=MSDC
##XUNITS=M/Z
##YUNITS=RELATIVE INTENSITY
##XFACTOR=1
##YFACTOR=1
##FIRSTX=27
##LASTX=149
##FIRSTY=130
##MAXX=149
##MINX=27
##MAXY=9999
##MINY=70
##NPOINTS=32
##PEAK TABLE=(XY..XY)
27,130 35,70 39,470 40,110
41,2002 45,871 46,420 47,661
48,160 49,180 54,120 58,240
59,270 60,370 61,2112 62,230
68,140 72,3113 73,1191 74,310
75,360 86,210 88,160 98,510
99,951 100,1051 101,9999 102,550
103,450 147,1161 148,100 149,130
##END=
