##TITLE=Methyl (Z)-dec-2-en-4,6-diynoate
##JCAMP-DX=4.24
##DATA TYPE=MASS SPECTRUM
##ORIGIN=W.V. BROWN, CSIRO, BLACK MOUNTAIN, CANBERRA CITY, AUSTRALIA
##OWNER=NIST Mass Spectrometry Data Center
Collection (C) 2014 copyright by the U.S. Secretary of Commerce
on behalf of the United States of America. All rights reserved.
##CAS REGISTRY NO=505-01-1
##$NIST MASS SPEC NO=99147
##MOLFORM=C11 H12 O2
##MW=176
##$NIST SOURCE=MSDC
##XUNITS=M/Z
##YUNITS=RELATIVE INTENSITY
##XFACTOR=1
##YFACTOR=1
##FIRSTX=37
##LASTX=178
##FIRSTY=64
##MAXX=178
##MINX=37
##MAXY=9999
##MINY=43
##NPOINTS=98
##PEAK TABLE=(XY..XY)
37,64 38,170 39,1915 41,511
42,234 43,447 45,128 50,745
51,2234 52,511 53,383 54,64
55,1915 56,85 57,255 58,255
59,766 61,170 62,766 63,2553
64,426 65,1383 66,234 67,426
68,809 69,638 70,64 71,64
73,106 74,830 75,1277 76,957
77,4149 78,1149 79,1191 80,234
81,149 82,213 83,43 85,85
86,319 87,553 88,340 89,1106
90,447 91,3298 92,574 93,745
94,681 95,298 96,43 98,191
99,106 100,43 101,234 102,809
103,4362 104,553 105,2872 106,383
107,553 108,191 109,43 110,43
111,43 113,85 114,149 115,4255
116,1915 117,2128 118,319 119,1128
120,234 121,255 122,43 127,43
128,64 129,106 130,43 131,170
132,128 133,2766 134,298 135,64
141,43 143,64 145,1915 146,213
147,596 148,489 149,106 160,43
161,553 162,85 175,170 176,9999
177,1170 178,128
##END=
