##TITLE=1,3-Dithiane
##JCAMP-DX=4.24
##DATA TYPE=MASS SPECTRUM
##ORIGIN=NIST Mass Spectrometry Data Center, 1990.
##OWNER=NIST Mass Spectrometry Data Center
Collection (C) 2014 copyright by the U.S. Secretary of Commerce
on behalf of the United States of America. All rights reserved.
##CAS REGISTRY NO=505-23-7
##$NIST MASS SPEC NO=118607
##MOLFORM=C4 H8 S2
##MW=120
##$NIST SOURCE=MSDC
##XUNITS=M/Z
##YUNITS=RELATIVE INTENSITY
##XFACTOR=1
##YFACTOR=1
##FIRSTX=12
##LASTX=123
##FIRSTY=23
##MAXX=123
##MINX=12
##MAXY=9999
##MINY=23
##NPOINTS=68
##PEAK TABLE=(XY..XY)
12,23 14,100 15,145 25,44
26,290 27,985 28,137 29,132
32,165 33,85 34,82 35,76
36,38 37,168 38,327 39,1855
40,38 41,3424 42,240 45,7353
46,6908 47,1659 48,295 49,92
53,205 54,67 55,881 56,90
57,177 58,528 59,907 60,726
61,995 62,78 63,67 64,746
66,93 68,43 69,205 70,39
71,407 72,513 73,3200 74,3806
75,465 76,289 77,311 78,1251
79,254 80,152 81,38 85,596
86,491 87,1714 88,129 89,115
91,186 92,493 93,30 94,62
103,33 105,703 106,84 107,55
120,9999 121,718 122,958 123,73
##END=
