##TITLE=Propanedioic acid, 1,3-dithiolan-2-ylidene-, bis(1-methylethyl) ester
##JCAMP-DX=4.24
##DATA TYPE=MASS SPECTRUM
##ORIGIN=NIST Mass Spectrometry Data Center, 2009
##OWNER=NIST Mass Spectrometry Data Center
Collection (C) 2014 copyright by the U.S. Secretary of Commerce
on behalf of the United States of America. All rights reserved.
##CAS REGISTRY NO=50512-35-1
##$NIST MASS SPEC NO=372982
##MOLFORM=C12 H18 O4 S2
##MW=290
##$NIST SOURCE=MSDC
##XUNITS=M/Z
##YUNITS=RELATIVE INTENSITY
##XFACTOR=1
##YFACTOR=1
##FIRSTX=15
##LASTX=293
##FIRSTY=60
##MAXX=293
##MINX=15
##MAXY=9999
##MINY=10
##NPOINTS=143
##PEAK TABLE=(XY..XY)
15,60 19,10 26,60 27,941
28,150 29,90 31,40 35,40
37,20 38,30 39,530 40,90
41,2372 42,260 43,4464 44,260
45,971 46,70 47,60 53,40
55,50 56,50 57,160 58,280
59,811 60,1191 61,1021 62,70
63,50 64,70 65,30 66,10
69,90 70,40 71,130 72,40
73,50 74,130 75,20 76,200
77,120 78,30 79,20 81,10
84,330 85,1051 86,280 87,110
88,651 89,1021 90,160 91,110
92,90 93,210 94,10 95,20
98,30 99,50 100,40 101,30
102,230 103,140 104,40 105,540
106,50 107,50 108,10 111,10
112,10 113,30 115,60 116,1431
117,300 118,9999 119,571 120,901
121,120 122,30 123,10 126,10
129,450 130,50 131,50 132,60
133,340 134,1251 135,90 136,100
138,10 143,90 144,761 145,1962
146,460 147,370 148,50 149,30
158,20 159,180 160,1351 161,360
162,6826 163,510 164,651 165,50
166,20 170,10 171,50 172,50
173,300 174,40 175,30 176,340
178,1541 179,120 180,160 181,10
182,10 185,10 186,20 187,140
189,5045 190,440 191,420 192,40
193,10 202,30 203,40 204,2282
205,260 206,430 207,40 208,30
220,50 231,1882 232,230 233,190
234,20 247,10 248,30 290,2092
291,310 292,220 293,30
##END=
