##TITLE=Testosterone, TMS derivative
##JCAMP-DX=4.24
##DATA TYPE=MASS SPECTRUM
##ORIGIN=Philip J. Marriott, Australian Centre for Research on Separation Science, Melbourne, Australia
##OWNER=NIST Mass Spectrometry Data Center
Collection (C) 2014 copyright by the U.S. Secretary of Commerce
on behalf of the United States of America. All rights reserved.
##CAS REGISTRY NO=5055-42-5
##$NIST MASS SPEC NO=372675
##MOLFORM=C22 H36 O2 Si
##MW=360
##$NIST SOURCE=MSDC
##XUNITS=M/Z
##YUNITS=RELATIVE INTENSITY
##XFACTOR=1
##YFACTOR=1
##FIRSTX=45
##LASTX=363
##FIRSTY=2222
##MAXX=363
##MINX=45
##MAXY=9999
##MINY=10
##NPOINTS=247
##PEAK TABLE=(XY..XY)
45,2222 46,160 47,651 48,30
49,20 50,10 51,160 52,130
53,1051 54,160 55,2672 56,160
57,270 58,180 59,1321 60,190
61,711 62,40 63,40 64,20
65,550 66,220 67,1491 68,240
69,300 70,40 71,90 72,190
73,9999 74,851 75,3483 76,250
77,1631 78,350 79,2272 80,320
81,1121 82,120 83,190 84,10
85,200 86,30 87,80 88,20
89,160 90,40 91,2682 92,430
93,1501 94,350 95,861 96,140
97,250 98,20 99,160 100,30
101,1231 102,140 103,360 104,170
105,1561 106,340 107,921 108,250
109,330 110,100 111,240 112,20
113,100 114,10 115,881 116,821
117,550 118,180 119,631 120,220
121,490 122,350 123,310 124,661
125,110 126,10 127,50 128,130
129,4514 130,951 131,941 132,230
133,671 134,450 135,320 136,370
137,180 138,140 139,20 140,10
141,130 142,100 143,230 144,250
145,510 146,591 147,1491 148,691
149,450 150,90 151,60 152,40
153,50 154,30 155,200 156,120
157,290 158,150 159,380 160,230
161,250 162,370 163,120 164,30
165,70 166,30 167,80 168,60
169,230 170,90 171,270 172,120
173,220 174,530 175,200 176,70
177,40 178,20 179,60 180,30
181,190 182,120 183,190 184,120
185,400 186,170 187,230 188,100
189,80 190,30 191,10 193,50
194,100 195,200 196,360 197,180
198,110 199,210 200,180 201,130
202,50 203,30 204,10 205,10
206,10 207,30 208,20 209,100
210,70 211,150 212,80 213,170
214,100 215,50 216,20 217,10
219,10 220,10 221,30 222,20
223,40 224,40 225,40 226,430
227,260 228,330 229,300 230,60
231,40 232,10 233,20 234,10
235,30 236,60 237,300 238,110
239,50 240,10 241,50 242,160
243,80 244,50 245,20 246,10
247,20 248,10 249,20 250,10
251,20 252,100 253,120 254,30
255,130 256,60 257,10 258,10
259,10 261,10 262,10 264,10
269,40 270,881 271,240 272,40
273,10 275,10 276,80 277,30
278,10 287,10 289,80 290,40
291,10 301,10 303,20 304,130
305,40 306,10 317,100 318,90
319,30 320,10 343,40 344,20
346,90 347,20 359,10 360,741
361,290 362,90 363,10
##END=
