##TITLE=7-Methoxybenzofuran-2-carboxylic acid, ethyl ester
##JCAMP-DX=4.24
##DATA TYPE=MASS SPECTRUM
##ORIGIN=NIST Mass Spectrometry Data Center, 1994
##OWNER=NIST Mass Spectrometry Data Center
Collection (C) 2014 copyright by the U.S. Secretary of Commerce
on behalf of the United States of America. All rights reserved.
##CAS REGISTRY NO=50551-58-1
##$NIST MASS SPEC NO=135085
##MOLFORM=C12 H12 O4
##MW=220
##$NIST SOURCE=MSDC
##XUNITS=M/Z
##YUNITS=RELATIVE INTENSITY
##XFACTOR=1
##YFACTOR=1
##FIRSTX=4
##LASTX=222
##FIRSTY=34
##MAXX=222
##MINX=4
##MAXY=9999
##MINY=9
##NPOINTS=100
##PEAK TABLE=(XY..XY)
4,34 14,91 15,702 16,40
18,43 26,241 27,1007 28,474
29,1941 30,94 31,34 32,9
37,105 38,205 39,582 40,30
41,72 42,32 43,219 44,82
45,217 50,1526 51,901 52,89
53,309 54,40 55,48 58,24
59,25 61,117 62,669 63,1138
64,295 65,944 66,103 69,65
73,79 74,463 75,565 76,1890
77,1696 78,217 79,127 80,31
85,65 86,143 88,477 89,1742
90,412 91,644 92,301 93,217
101,27 102,54 103,184 104,592
105,574 106,99 107,522 108,49
115,41 116,159 117,646 118,342
119,1192 120,268 121,169 131,191
132,232 133,339 134,143 135,64
144,70 145,286 146,154 147,277
148,1279 149,1915 150,196 160,444
161,201 162,547 163,100 164,50
173,159 175,3197 176,840 177,2754
178,311 179,41 189,33 190,22
192,7857 193,901 194,102 205,216
206,30 220,9999 221,1307 222,160
##END=
