##TITLE=1,2-Cyclopentanediol, trans-
##JCAMP-DX=4.24
##DATA TYPE=MASS SPECTRUM
##OWNER=NIST Mass Spectrometry Data Center
Collection (C) 2014 copyright by the U.S. Secretary of Commerce
on behalf of the United States of America. All rights reserved.
##CAS REGISTRY NO=5057-99-8
##$NIST MASS SPEC NO=32199
##MOLFORM=C5 H10 O2
##MW=102
##$NIST SOURCE=MSDC
##XUNITS=M/Z
##YUNITS=RELATIVE INTENSITY
##XFACTOR=1
##YFACTOR=1
##FIRSTX=39
##LASTX=102
##FIRSTY=2490
##MAXX=102
##MINX=39
##MAXY=9999
##MINY=80
##NPOINTS=42
##PEAK TABLE=(XY..XY)
39,2490 40,843 41,5180 42,3393
43,2771 44,4216 45,763 47,120
49,241 50,201 51,241 52,141
53,582 54,723 55,9999 56,5140
57,4578 58,4337 59,161 60,281
61,161 62,161 63,161 64,161
65,361 66,582 67,723 68,201
69,883 70,321 71,341 72,522
73,281 74,181 81,161 82,1084
83,3112 84,5783 85,502 100,442
101,80 102,141
##END=
