##TITLE=1,3,7,8-Tetrachlorodibenzo-p-dioxin
##JCAMP-DX=4.24
##DATA TYPE=MASS SPECTRUM
##ORIGIN=W. MILES, AGRIC. CAN., LAB. SERV. DIV., OTTAWA, ONT., CAN.
##OWNER=NIST Mass Spectrometry Data Center
Collection (C) 2014 copyright by the U.S. Secretary of Commerce
on behalf of the United States of America. All rights reserved.
##CAS REGISTRY NO=50585-46-1
##$NIST MASS SPEC NO=98816
##MOLFORM=C12 H4 Cl4 O2
##MW=320
##$NIST SOURCE=MSDC
##XUNITS=M/Z
##YUNITS=RELATIVE INTENSITY
##XFACTOR=1
##YFACTOR=1
##FIRSTX=50
##LASTX=326
##FIRSTY=250
##MAXX=326
##MINX=50
##MAXY=9999
##MINY=10
##NPOINTS=41
##PEAK TABLE=(XY..XY)
50,250 53,300 62,230 74,920
85,490 97,860 98,320 99,310
109,620 113,570 115,390 123,270
132,200 133,210 144,270 160,1040
161,1300 162,620 187,120 194,2110
195,350 196,1380 222,140 229,300
230,160 231,280 250,240 257,3060
259,2990 261,960 285,950 287,920
289,320 306,10 320,7830 321,1090
322,9999 323,1380 324,5010 325,640
326,1100
##END=
