##TITLE=1-Hexene, 1-chloro-, (E)-
##JCAMP-DX=4.24
##DATA TYPE=MASS SPECTRUM
##ORIGIN=T. REICHENBACH
##OWNER=NIST Mass Spectrometry Data Center
Collection (C) 2014 copyright by the U.S. Secretary of Commerce
on behalf of the United States of America. All rights reserved.
##CAS REGISTRY NO=50586-19-1
##$NIST MASS SPEC NO=26986
##MOLFORM=C6 H11 Cl
##MW=118
##$NIST SOURCE=MSDC
##XUNITS=M/Z
##YUNITS=RELATIVE INTENSITY
##XFACTOR=1
##YFACTOR=1
##FIRSTX=13
##LASTX=121
##FIRSTY=54
##MAXX=121
##MINX=13
##MAXY=9999
##MINY=18
##NPOINTS=82
##PEAK TABLE=(XY..XY)
13,54 14,124 15,727 16,33
17,140 18,489 25,60 26,949
27,7208 28,1198 29,1599 30,39
31,31 32,21 35,58 36,73
37,311 38,693 39,4997 40,690
41,9174 42,2745 43,8345 44,305
45,37 47,83 48,32 49,1072
50,487 51,1288 52,313 53,2400
54,581 55,1961 56,9999 57,508
58,21 59,22 60,144 61,363
62,386 63,332 64,115 65,283
66,69 67,884 68,72 69,808
70,66 71,21 72,40 73,33
74,89 75,2913 76,723 77,1074
78,271 79,97 80,23 81,22
82,469 83,243 84,29 85,29
86,26 87,55 88,159 89,500
90,218 91,178 92,67 93,36
97,27 103,25 104,18 105,29
113,28 117,22 118,2512 119,177
120,808 121,56
##END=
