##TITLE=Cyclohexanone, 2,2-dimethyl-6,6-diphenyl-
##JCAMP-DX=4.24
##DATA TYPE=MASS SPECTRUM
##OWNER=NIST Mass Spectrometry Data Center
Collection (C) 2014 copyright by the U.S. Secretary of Commerce
on behalf of the United States of America. All rights reserved.
##CAS REGISTRY NO=50592-53-5
##$NIST MASS SPEC NO=34099
##MOLFORM=C20 H22 O
##MW=278
##$NIST SOURCE=MSDC
##XUNITS=M/Z
##YUNITS=RELATIVE INTENSITY
##XFACTOR=1
##YFACTOR=1
##FIRSTX=91
##LASTX=278
##FIRSTY=2540
##MAXX=278
##MINX=91
##MAXY=9999
##MINY=440
##NPOINTS=15
##PEAK TABLE=(XY..XY)
91,2540 103,1500 115,3210 128,440
129,450 152,800 165,4370 167,3790
178,2970 179,3100 180,9999 193,5939
206,8969 250,1990 278,2320
##END=
