##TITLE=(E)-13-Docosenoic acid
##JCAMP-DX=4.24
##DATA TYPE=MASS SPECTRUM
##ORIGIN=Japan AIST/NIMC Database- Spectrum MS-NW-5975
##OWNER=NIST Mass Spectrometry Data Center
Collection (C) 2014 copyright by the U.S. Secretary of Commerce
on behalf of the United States of America. All rights reserved.
##CAS REGISTRY NO=506-33-2
##$NIST MASS SPEC NO=233025
##MOLFORM=C22 H42 O2
##MW=338
##$NIST SOURCE=MSDC
##XUNITS=M/Z
##YUNITS=RELATIVE INTENSITY
##XFACTOR=1
##YFACTOR=1
##FIRSTX=13
##LASTX=340
##FIRSTY=10
##MAXX=340
##MINX=13
##MAXY=9999
##MINY=10
##NPOINTS=281
##PEAK TABLE=(XY..XY)
13,10 14,20 15,80 16,30
17,10 18,40 24,10 25,20
26,179 27,2729 28,629 29,3659
30,80 31,30 36,10 37,40
38,80 39,2109 40,409 41,9999
42,1429 43,5669 44,199 45,179
46,10 47,10 48,10 49,10
50,80 51,189 52,169 53,1299
54,2659 55,9439 56,1679 57,2959
58,139 59,99 60,699 61,50
62,20 63,60 64,20 65,369
66,379 67,4419 68,1869 69,4849
70,1179 71,739 72,50 73,339
74,40 75,10 76,10 77,489
78,239 79,1519 80,1159 81,3559
82,2399 83,3309 84,1609 85,459
86,50 87,80 88,20 89,30
90,10 91,679 92,299 93,779
94,789 95,2379 96,2219 97,2479
98,5619 99,509 100,109 101,109
102,30 103,40 104,249 105,299
106,149 107,439 108,369 109,1359
110,1099 111,1839 112,1179 113,199
114,139 115,129 116,40 117,149
118,80 119,229 120,129 121,579
122,359 123,679 124,759 125,669
126,229 127,139 128,60 129,169
130,50 131,80 132,50 133,189
134,199 135,479 136,299 137,689
138,559 139,339 140,169 141,80
142,30 143,70 144,30 145,30
146,20 147,209 148,139 149,229
150,119 151,349 152,449 153,189
154,109 155,129 156,40 157,50
158,20 159,30 160,10 161,149
162,90 163,90 164,60 165,269
166,329 167,149 168,70 169,40
170,20 171,40 172,10 173,10
174,10 175,129 176,60 177,70
178,60 179,169 180,199 181,80
182,50 183,40 184,30 185,40
186,20 187,20 188,10 189,90
190,50 191,70 192,80 193,139
194,189 195,80 196,60 197,20
198,20 199,20 200,10 202,10
203,40 204,20 205,60 206,109
207,159 208,189 209,70 210,50
211,30 212,20 213,30 214,10
215,10 216,10 217,40 218,10
219,50 220,70 221,259 222,309
223,90 224,50 225,40 226,10
227,20 228,10 231,30 232,10
233,40 234,30 235,149 236,169
237,60 238,30 239,30 240,10
241,20 242,20 244,10 245,10
246,10 247,20 248,10 249,99
250,129 251,50 252,20 253,10
255,20 256,10 259,10 260,10
261,20 262,10 263,90 264,99
265,40 266,10 268,10 269,10
270,10 273,20 274,10 275,10
276,80 277,119 278,99 279,40
280,10 281,10 286,10 287,10
289,10 290,20 291,60 292,149
293,30 294,20 295,20 296,10
297,10 298,10 300,70 301,30
302,119 303,30 304,40 305,10
314,10 316,10 318,40 319,40
320,1399 321,379 322,70 323,10
336,30 337,10 338,139 339,40
340,10
##END=
