##TITLE=Gamolenic acid
##JCAMP-DX=4.24
##DATA TYPE=MASS SPECTRUM
##ORIGIN=NIST Mass Spectrometry Data Center
##OWNER=NIST Mass Spectrometry Data Center
Collection (C) 2014 copyright by the U.S. Secretary of Commerce
on behalf of the United States of America. All rights reserved.
##CAS REGISTRY NO=506-26-3
##$NIST MASS SPEC NO=333652
##MOLFORM=C18 H30 O2
##MW=278
##$NIST SOURCE=MSDC
##XUNITS=M/Z
##YUNITS=RELATIVE INTENSITY
##XFACTOR=1
##YFACTOR=1
##FIRSTX=15
##LASTX=282
##FIRSTY=10
##MAXX=282
##MINX=15
##MAXY=9999
##MINY=10
##NPOINTS=198
##PEAK TABLE=(XY..XY)
15,10 18,10 26,30 27,851
28,170 29,1551 30,50 31,70
36,10 37,10 38,40 39,1471
40,240 41,5815 42,591 43,2092
44,80 45,761 46,20 47,20
50,60 51,300 52,230 53,1391
54,1862 55,4744 56,480 57,1121
58,180 59,160 60,550 61,50
62,10 63,90 64,40 65,1311
66,1531 67,8297 68,1341 69,1772
70,240 71,681 72,60 73,1331
74,160 75,40 77,3173 78,1661
79,9999 80,7146 81,4884 82,1351
83,941 84,370 85,641 86,60
87,280 88,100 89,50 91,4494
92,1081 93,5445 94,2873 95,2993
96,1061 97,611 98,170 99,160
100,40 101,130 102,130 103,210
104,160 105,1521 106,611 107,2582
108,771 109,601 110,440 111,200
112,70 113,120 114,60 115,230
116,130 117,460 118,240 119,711
120,841 121,1411 122,360 123,340
124,270 125,100 126,110 127,90
128,80 129,250 130,120 131,370
132,80 133,530 134,250 135,581
136,330 137,400 138,140 139,60
140,120 141,50 142,20 143,80
144,130 145,130 146,30 147,400
148,120 149,430 150,1261 151,250
152,80 153,50 154,60 155,20
156,10 157,230 158,40 159,40
160,20 161,320 162,120 163,320
164,140 165,70 166,80 167,80
168,70 169,20 170,10 171,110
172,20 173,10 174,20 175,340
176,60 177,230 178,100 179,80
180,1101 181,170 182,40 183,10
185,30 186,10 187,10 188,10
189,80 190,20 191,70 192,20
193,110 194,130 195,30 196,10
197,10 199,10 203,20 204,10
205,20 206,10 207,140 208,130
209,20 210,20 211,10 213,10
217,10 218,20 219,10 220,10
221,110 222,40 223,10 224,90
225,10 231,10 235,40 236,20
237,20 249,20 250,20 263,10
264,30 265,10 278,320 279,60
280,10 282,10
##END=
