##TITLE=cis-Vaccenic acid
##JCAMP-DX=4.24
##DATA TYPE=MASS SPECTRUM
##ORIGIN=NIST Mass Spectrometry Data Center
##OWNER=NIST Mass Spectrometry Data Center
Collection (C) 2014 copyright by the U.S. Secretary of Commerce
on behalf of the United States of America. All rights reserved.
##CAS REGISTRY NO=506-17-2
##$NIST MASS SPEC NO=333599
##MOLFORM=C18 H34 O2
##MW=282
##$NIST SOURCE=MSDC
##XUNITS=M/Z
##YUNITS=RELATIVE INTENSITY
##XFACTOR=1
##YFACTOR=1
##FIRSTX=15
##LASTX=284
##FIRSTY=10
##MAXX=284
##MINX=15
##MAXY=9999
##MINY=10
##NPOINTS=211
##PEAK TABLE=(XY..XY)
15,10 26,30 27,631 28,160
29,1381 30,40 31,70 37,10
38,10 39,991 40,210 41,5835
42,1181 43,3863 44,150 45,701
46,20 47,10 50,20 51,80
52,70 53,851 54,2102 55,9999
56,2762 57,2232 58,140 59,300
60,1501 61,130 62,10 63,10
64,10 65,280 66,220 67,2903
68,1672 69,6386 70,2372 71,1071
72,70 73,1301 74,120 75,30
76,10 77,320 78,110 79,921
80,450 81,2222 82,1822 83,4874
84,2732 85,751 86,90 87,450
88,60 89,20 91,340 92,50
93,460 94,420 95,1772 96,2342
97,4264 98,2272 99,440 100,380
101,591 102,80 103,20 104,20
105,170 106,70 107,320 108,290
109,971 110,1381 111,1942 112,831
113,330 114,711 115,380 116,90
117,50 118,30 119,250 120,120
121,340 122,210 123,901 124,791
125,921 126,400 127,530 128,200
129,300 130,60 131,40 132,20
133,260 134,240 135,260 136,140
137,591 138,561 139,440 140,200
141,140 142,40 143,100 144,30
145,20 146,10 147,210 148,190
149,200 150,130 151,440 152,370
153,230 154,100 155,90 156,30
157,70 158,20 159,10 160,10
161,160 162,80 163,120 164,90
165,310 166,250 167,140 168,60
169,100 170,20 171,40 172,20
173,10 175,120 176,40 177,60
178,50 179,200 180,300 181,110
182,40 183,50 184,20 185,40
186,50 187,10 189,60 190,20
191,30 192,20 193,150 194,120
195,60 196,20 197,20 198,10
199,40 200,20 201,10 203,30
204,10 205,10 206,10 207,140
208,90 209,40 210,20 211,10
212,10 213,10 214,10 217,20
218,10 220,240 221,210 222,280
223,60 224,10 225,10 226,10
227,10 231,10 235,150 236,80
237,10 239,30 240,10 241,10
246,60 247,10 249,20 250,10
253,10 263,10 264,881 265,210
266,30 278,30 279,10 280,10
282,160 283,40 284,10
##END=
