##TITLE=9-Octadecynoic acid
##JCAMP-DX=4.24
##DATA TYPE=MASS SPECTRUM
##ORIGIN=NIST Mass Spectrometry Data Center, 1994
##OWNER=NIST Mass Spectrometry Data Center
Collection (C) 2014 copyright by the U.S. Secretary of Commerce
on behalf of the United States of America. All rights reserved.
##CAS REGISTRY NO=506-24-1
##$NIST MASS SPEC NO=136400
##MOLFORM=C18 H32 O2
##MW=280
##$NIST SOURCE=MSDC
##XUNITS=M/Z
##YUNITS=RELATIVE INTENSITY
##XFACTOR=1
##YFACTOR=1
##FIRSTX=17
##LASTX=225
##FIRSTY=71
##MAXX=225
##MINX=17
##MAXY=9999
##MINY=26
##NPOINTS=119
##PEAK TABLE=(XY..XY)
17,71 18,164 26,34 27,2742
28,870 29,4514 30,68 39,2597
40,590 41,9999 42,1302 43,4962
44,163 45,1140 50,104 51,404
52,743 53,2024 54,4381 55,7614
56,885 57,1482 58,132 59,104
60,1280 61,91 63,100 65,1016
66,725 67,7865 68,4844 69,2626
70,435 71,452 72,45 73,576
75,61 77,1355 78,404 79,3306
80,1336 81,7291 82,4084 83,1411
84,313 85,312 86,49 87,165
91,1061 92,212 93,1590 94,1010
95,4184 96,2040 97,747 98,159
99,116 100,33 101,106 103,54
104,51 105,265 106,114 107,865
108,520 109,1683 110,962 111,294
112,86 113,95 115,91 117,79
118,43 119,160 120,161 121,704
122,901 123,776 124,702 125,131
126,264 127,186 128,42 129,55
131,152 133,75 134,77 135,535
136,852 137,331 138,196 139,107
140,253 141,51 145,93 146,42
147,64 148,42 149,331 150,188
151,78 152,572 153,217 154,103
163,97 164,169 165,41 166,119
167,133 168,47 178,84 181,54
182,453 183,60 187,56 196,611
197,91 209,26 225,43
##END=
