##TITLE=Mercury, bromomethyl-
##JCAMP-DX=4.24
##DATA TYPE=MASS SPECTRUM
##OWNER=NIST Mass Spectrometry Data Center
Collection (C) 2014 copyright by the U.S. Secretary of Commerce
on behalf of the United States of America. All rights reserved.
##CAS REGISTRY NO=506-83-2
##$NIST MASS SPEC NO=14181
##MOLFORM=C H3 Br Hg
##MW=296
##$NIST SOURCE=MSDC
##XUNITS=M/Z
##YUNITS=RELATIVE INTENSITY
##XFACTOR=1
##YFACTOR=1
##FIRSTX=79
##LASTX=300
##FIRSTY=2700
##MAXX=300
##MINX=79
##MAXY=9999
##MINY=700
##NPOINTS=37
##PEAK TABLE=(XY..XY)
79,2700 80,800 81,2700 82,700
91,800 92,1300 93,2600 94,1500
95,1800 198,2400 199,4300 200,5999
201,3700 202,7499 204,1600 212,1100
213,3700 214,5699 215,6699 216,4700
217,7299 219,1600 277,1200 278,2000
279,4000 280,3700 281,6399 282,1700
283,4400 292,2100 293,3400 294,6499
295,5899 296,9999 297,2600 298,6699
300,1200
##END=
