##TITLE=9-Octadecen-1-ol, (E)-
##JCAMP-DX=4.24
##DATA TYPE=MASS SPECTRUM
##ORIGIN=Japan AIST/NIMC Database- Spectrum MS-IW-4093
##OWNER=NIST Mass Spectrometry Data Center
Collection (C) 2014 copyright by the U.S. Secretary of Commerce
on behalf of the United States of America. All rights reserved.
##CAS REGISTRY NO=506-42-3
##$NIST MASS SPEC NO=237269
##MOLFORM=C18 H36 O
##MW=268
##$NIST SOURCE=MSDC
##XUNITS=M/Z
##YUNITS=RELATIVE INTENSITY
##XFACTOR=1
##YFACTOR=1
##FIRSTX=15
##LASTX=269
##FIRSTY=10
##MAXX=269
##MINX=15
##MAXY=9999
##MINY=10
##NPOINTS=119
##PEAK TABLE=(XY..XY)
15,10 17,10 18,30 26,30
27,679 28,199 29,1889 30,50
31,1129 32,10 38,10 39,669
40,139 41,5649 42,1029 43,4629
44,249 45,139 51,30 52,30
53,529 54,3619 55,8879 56,2259
57,3219 58,169 59,30 65,139
66,769 67,6299 68,5259 69,5809
70,1689 71,1309 72,119 73,60
77,109 78,40 79,509 80,589
81,5999 82,9999 83,4949 84,879
85,749 86,109 87,20 91,60
92,10 93,179 94,309 95,5009
96,7819 97,3009 98,539 99,199
100,40 101,10 105,10 107,70
108,129 109,2599 110,2969 111,1069
112,249 113,70 114,20 121,60
122,129 123,1519 124,1849 125,459
126,139 127,40 135,30 136,80
137,909 138,1049 139,199 140,80
141,30 149,10 150,10 151,329
152,539 153,99 154,60 155,10
165,159 166,329 167,60 168,80
169,20 179,99 180,239 181,50
182,40 183,10 193,139 194,289
195,40 196,10 207,80 208,149
209,30 221,50 222,289 223,60
224,20 235,10 248,10 249,10
250,1409 251,289 252,30 266,10
267,10 268,50 269,20
##END=
