##TITLE=Heptadecanoic acid
##JCAMP-DX=4.24
##DATA TYPE=MASS SPECTRUM
##ORIGIN=Japan AIST/NIMC Database- Spectrum MS-NW-2626
##OWNER=NIST Mass Spectrometry Data Center
Collection (C) 2014 copyright by the U.S. Secretary of Commerce
on behalf of the United States of America. All rights reserved.
##CAS REGISTRY NO=506-12-7
##$NIST MASS SPEC NO=231679
##MOLFORM=C17 H34 O2
##MW=270
##$NIST SOURCE=MSDC
##XUNITS=M/Z
##YUNITS=RELATIVE INTENSITY
##XFACTOR=1
##YFACTOR=1
##FIRSTX=12
##LASTX=273
##FIRSTY=10
##MAXX=273
##MINX=12
##MAXY=9999
##MINY=10
##NPOINTS=193
##PEAK TABLE=(XY..XY)
12,10 14,229 15,30 16,119
17,109 18,409 26,50 27,989
28,399 29,2399 30,70 31,90
32,80 38,20 39,619 40,149
41,4499 42,999 43,7639 44,439
45,389 46,10 47,10 50,10
51,30 52,20 53,229 54,379
55,4309 56,1389 57,7849 58,369
59,289 60,8589 61,2939 62,99
63,20 65,40 66,50 67,529
68,559 69,3169 70,1089 71,4639
72,269 73,9999 74,909 75,70
76,10 77,40 78,30 79,139
80,80 81,489 82,659 83,2389
84,1159 85,3069 86,219 87,2019
88,189 89,30 91,30 92,20
93,119 94,80 95,359 96,559
97,2049 98,1679 99,1129 100,109
101,849 102,409 103,30 104,10
105,10 106,10 107,109 108,60
109,189 110,299 111,1059 112,549
113,749 114,80 115,1739 116,889
117,70 118,10 119,10 120,10
121,149 122,50 123,99 124,189
125,579 126,289 127,579 128,60
129,5079 130,529 131,50 133,10
135,109 136,40 137,60 138,139
139,299 140,199 141,439 142,60
143,609 144,99 145,10 147,10
149,80 150,20 151,30 152,129
153,179 154,139 155,309 156,40
157,399 158,199 159,20 163,40
164,10 165,20 166,109 167,119
168,99 169,149 170,20 171,1929
172,329 173,30 177,30 178,10
179,20 180,70 181,80 182,149
183,30 185,1779 186,239 187,20
191,20 192,10 193,10 194,10
195,30 196,40 197,20 199,289
200,60 205,10 206,10 207,10
208,359 209,90 210,409 211,329
212,50 213,389 214,90 215,10
223,20 224,20 227,2099 228,339
229,30 233,10 234,99 235,20
237,10 241,429 242,99 243,10
250,10 251,20 252,50 253,60
254,10 255,20 256,10 268,10
269,20 270,6759 271,1279 272,149
273,10
##END=
