##TITLE=Hydroxymethyl-methaqualon
##JCAMP-DX=4.24
##DATA TYPE=MASS SPECTRUM
##ORIGIN=Dr. Jiri Zamecnik, DCIEM, North York, Canada, GP Library
##OWNER=NIST Mass Spectrometry Data Center
Collection (C) 2014 copyright by the U.S. Secretary of Commerce
on behalf of the United States of America. All rights reserved.
##CAS REGISTRY NO=5060-49-1
##$NIST MASS SPEC NO=123825
##MOLFORM=C16 H14 N2 O2
##MW=266
##$NIST SOURCE=MSDC
##XUNITS=M/Z
##YUNITS=RELATIVE INTENSITY
##XFACTOR=1
##YFACTOR=1
##FIRSTX=65
##LASTX=267
##FIRSTY=770
##MAXX=267
##MINX=65
##MAXY=9999
##MINY=90
##NPOINTS=34
##PEAK TABLE=(XY..XY)
65,770 75,530 76,2280 77,4990
89,690 90,480 91,430 103,400
104,880 105,1250 117,500 118,800
120,620 130,300 132,1380 143,320
144,840 146,2110 159,180 160,9999
161,1440 178,90 180,90 195,180
196,90 223,200 233,200 235,2950
236,650 247,1580 251,1610 252,280
266,2550 267,350
##END=
