##TITLE=2(3H)-Furanone, 3-bromodihydro-
##JCAMP-DX=4.24
##DATA TYPE=MASS SPECTRUM
##ORIGIN=RADIAN CORP
##OWNER=NIST Mass Spectrometry Data Center
Collection (C) 2014 copyright by the U.S. Secretary of Commerce
on behalf of the United States of America. All rights reserved.
##CAS REGISTRY NO=5061-21-2
##$NIST MASS SPEC NO=71098
##MOLFORM=C4 H5 Br O2
##MW=164
##$NIST SOURCE=MSDC
##XUNITS=M/Z
##YUNITS=RELATIVE INTENSITY
##XFACTOR=1
##YFACTOR=1
##FIRSTX=13
##LASTX=166
##FIRSTY=20
##MAXX=166
##MINX=13
##MAXY=9999
##MINY=10
##NPOINTS=54
##PEAK TABLE=(XY..XY)
13,20 14,80 15,60 16,20
18,20 24,10 25,140 26,880
27,2470 28,950 29,1100 30,160
31,50 32,100 36,40 37,260
38,450 39,2370 40,380 41,9999
42,490 43,40 44,200 45,50
52,20 53,160 54,130 55,1810
56,90 57,30 60,10 76,20
79,340 80,70 81,340 82,80
84,20 91,20 92,50 93,50
94,40 95,30 105,80 106,150
107,240 108,120 109,150 119,30
120,410 121,40 122,410 135,20
164,50 166,50
##END=
