##TITLE=2-Acetyl-5-norbornene
##JCAMP-DX=4.24
##DATA TYPE=MASS SPECTRUM
##ORIGIN=NIST Mass Spectrometry Data Center
##OWNER=NIST Mass Spectrometry Data Center
Collection (C) 2014 copyright by the U.S. Secretary of Commerce
on behalf of the United States of America. All rights reserved.
##CAS REGISTRY NO=5063-03-6
##$NIST MASS SPEC NO=342798
##MOLFORM=C9 H12 O
##MW=136
##$NIST SOURCE=MSDC
##XUNITS=M/Z
##YUNITS=RELATIVE INTENSITY
##XFACTOR=1
##YFACTOR=1
##FIRSTX=12
##LASTX=137
##FIRSTY=10
##MAXX=137
##MINX=12
##MAXY=9999
##MINY=10
##NPOINTS=59
##PEAK TABLE=(XY..XY)
12,10 14,70 15,520 17,10
25,10 26,170 27,941 28,180
29,10 32,10 37,100 38,310
39,1962 40,581 41,520 43,3183
44,60 50,250 51,510 52,210
53,250 55,661 56,20 58,881
61,40 62,130 63,300 65,1301
66,9999 67,561 68,20 69,10
71,1411 72,70 75,20 77,1091
78,540 79,250 80,20 81,30
82,60 86,10 89,40 91,1141
92,230 93,1121 94,100 95,50
103,20 105,10 107,10 108,30
109,10 115,20 117,60 118,30
121,80 136,731 137,70
##END=
