##TITLE=2-Pentenoic acid, 3-methyl-, methyl ester
##JCAMP-DX=4.24
##DATA TYPE=MASS SPECTRUM
##ORIGIN=M. VANDEWALLE
##OWNER=NIST Mass Spectrometry Data Center
Collection (C) 2014 copyright by the U.S. Secretary of Commerce
on behalf of the United States of America. All rights reserved.
##CAS REGISTRY NO=50652-79-4
##$NIST MASS SPEC NO=41970
##MOLFORM=C7 H12 O2
##MW=128
##$NIST SOURCE=MSDC
##XUNITS=M/Z
##YUNITS=RELATIVE INTENSITY
##XFACTOR=1
##YFACTOR=1
##FIRSTX=31
##LASTX=129
##FIRSTY=100
##MAXX=129
##MINX=31
##MAXY=9999
##MINY=100
##NPOINTS=49
##PEAK TABLE=(XY..XY)
31,100 32,400 33,300 37,100
38,500 39,3900 40,800 41,9999
42,700 43,2100 44,1800 45,300
50,300 51,500 52,300 53,1700
54,400 55,1100 56,200 57,300
59,1400 63,100 65,400 66,200
67,2500 68,2200 69,3500 70,300
71,500 73,200 74,300 79,100
81,1500 82,200 83,300 85,700
86,200 87,100 95,1300 96,3100
97,9800 98,700 99,800 110,100
111,300 113,1700 127,100 128,6900
129,600
##END=
