##TITLE=N,N-Dimethyl-dimethylphosphoric amide
##JCAMP-DX=4.24
##DATA TYPE=MASS SPECTRUM
##ORIGIN=ASES Database, Dalian Institute, P.R. China
##OWNER=NIST Mass Spectrometry Data Center
Collection (C) 2014 copyright by the U.S. Secretary of Commerce
on behalf of the United States of America. All rights reserved.
##CAS REGISTRY NO=50663-05-3
##$NIST MASS SPEC NO=143606
##MOLFORM=C4 H12 N O P
##MW=121
##$NIST SOURCE=MSDC
##XUNITS=M/Z
##YUNITS=RELATIVE INTENSITY
##XFACTOR=1
##YFACTOR=1
##FIRSTX=41
##LASTX=122
##FIRSTY=40
##MAXX=122
##MINX=41
##MAXY=9999
##MINY=20
##NPOINTS=23
##PEAK TABLE=(XY..XY)
41,40 42,1080 43,120 44,9999
45,400 46,30 47,340 49,230
58,520 60,40 62,30 63,1111
76,30 77,1451 78,1741 79,150
90,120 92,20 106,2672 107,60
120,60 121,1591 122,40
##END=
