##TITLE=2-Chlorobenzoyl isothiocyanate
##JCAMP-DX=4.24
##DATA TYPE=MASS SPECTRUM
##ORIGIN=NIST Mass Spectrometry Data Center
##OWNER=NIST Mass Spectrometry Data Center
Collection (C) 2014 copyright by the U.S. Secretary of Commerce
on behalf of the United States of America. All rights reserved.
##CAS REGISTRY NO=5067-90-3
##$NIST MASS SPEC NO=343397
##MOLFORM=C8 H4 Cl N O S
##MW=197
##$NIST SOURCE=MSDC
##XUNITS=M/Z
##YUNITS=RELATIVE INTENSITY
##XFACTOR=1
##YFACTOR=1
##FIRSTX=14
##LASTX=197
##FIRSTY=40
##MAXX=197
##MINX=14
##MAXY=9999
##MINY=20
##NPOINTS=48
##PEAK TABLE=(XY..XY)
14,40 16,30 26,80 27,150
28,250 29,20 31,70 32,260
36,90 37,220 38,230 39,100
40,40 44,50 45,80 48,50
49,190 50,1331 51,601 55,70
58,430 59,90 60,140 61,210
62,90 63,140 69,80 72,60
73,100 74,851 75,2903 76,571
77,40 84,190 85,400 86,170
87,150 102,20 111,3843 112,310
113,1231 114,100 137,150 139,9999
140,771 141,2993 142,210 197,30
##END=
