##TITLE=1,1'-Biphenyl, 4-bromo-4'-methyl-
##JCAMP-DX=4.24
##DATA TYPE=MASS SPECTRUM
##ORIGIN=A.A.Kutin, Moscow, Russia
##OWNER=NIST Mass Spectrometry Data Center
Collection (C) 2014 copyright by the U.S. Secretary of Commerce
on behalf of the United States of America. All rights reserved.
##CAS REGISTRY NO=50670-49-0
##$NIST MASS SPEC NO=265866
##MOLFORM=C13 H11 Br
##MW=246
##$NIST SOURCE=MSDC
##XUNITS=M/Z
##YUNITS=RELATIVE INTENSITY
##XFACTOR=1
##YFACTOR=1
##FIRSTX=37
##LASTX=250
##FIRSTY=21
##MAXX=250
##MINX=37
##MAXY=9999
##MINY=4
##NPOINTS=107
##PEAK TABLE=(XY..XY)
37,21 38,53 39,230 40,19
41,16 50,238 51,255 52,52
53,27 55,17 56,28 57,80
61,50 62,200 63,436 64,71
65,193 66,27 67,12 70,391
74,271 75,365 76,265 77,138
78,22 79,4 82,1802 85,60
86,181 87,253 88,144 89,368
90,117 91,346 92,21 98,134
99,109 100,53 101,177 102,159
103,33 104,6 109,31 110,82
111,107 112,37 113,242 114,227
115,749 116,111 117,21 119,14
121,4 123,368 124,345 125,91
126,284 127,179 128,287 129,44
130,6 134,13 135,12 137,98
138,113 139,900 140,204 141,147
142,21 143,8 149,11 150,293
151,777 152,3659 153,511 154,38
155,11 157,10 161,28 162,96
163,678 164,1089 165,6558 166,3021
167,5580 168,838 169,80 171,19
180,28 181,10 182,27 193,38
194,6 195,35 206,14 208,6
217,7 219,25 221,18 230,19
232,19 245,1364 246,9726 247,2772
248,9999 249,1545 250,110
##END=
