##TITLE=Butane, 2,3-dichloro-2-methyl-
##JCAMP-DX=4.24
##DATA TYPE=MASS SPECTRUM
##ORIGIN=COMPAGNIE FRANCAISE DE RAFFINAGE, FRANCE.
##OWNER=NIST Mass Spectrometry Data Center
Collection (C) 2014 copyright by the U.S. Secretary of Commerce
on behalf of the United States of America. All rights reserved.
##CAS REGISTRY NO=507-45-9
##$NIST MASS SPEC NO=3767
##MOLFORM=C5 H10 Cl2
##MW=140
##$NIST SOURCE=MSDC
##XUNITS=M/Z
##YUNITS=RELATIVE INTENSITY
##XFACTOR=1
##YFACTOR=1
##FIRSTX=25
##LASTX=140
##FIRSTY=13
##MAXX=140
##MINX=25
##MAXY=9999
##MINY=3
##NPOINTS=66
##PEAK TABLE=(XY..XY)
25,13 26,198 27,1661 28,201
29,471 30,12 31,42 35,54
36,343 37,98 38,269 39,1400
40,247 41,5061 42,500 43,746
44,27 47,12 48,12 49,238
50,176 51,332 52,85 53,978
54,109 55,785 56,45 57,42
60,18 61,152 62,95 63,783
64,42 65,251 66,27 67,182
68,66 69,2377 70,318 71,35
73,34 75,95 76,3272 77,9999
78,1415 79,3256 80,114 83,25
85,25 87,18 89,417 90,37
91,139 92,14 97,36 99,23
104,66 105,923 106,74 107,295
108,18 125,146 126,10 127,92
129,16 140,3
##END=
