##TITLE=Propane, 2-bromo-2-methyl-
##JCAMP-DX=4.24
##DATA TYPE=MASS SPECTRUM
##ORIGIN=Japan AIST/NIMC Database- Spectrum MS-NW-1604
##OWNER=NIST Mass Spectrometry Data Center
Collection (C) 2014 copyright by the U.S. Secretary of Commerce
on behalf of the United States of America. All rights reserved.
##CAS REGISTRY NO=507-19-7
##$NIST MASS SPEC NO=227729
##MOLFORM=C4 H9 Br
##MW=136
##$NIST SOURCE=MSDC
##XUNITS=M/Z
##YUNITS=RELATIVE INTENSITY
##XFACTOR=1
##YFACTOR=1
##FIRSTX=14
##LASTX=123
##FIRSTY=30
##MAXX=123
##MINX=14
##MAXY=9999
##MINY=10
##NPOINTS=42
##PEAK TABLE=(XY..XY)
14,30 15,149 25,20 26,159
27,939 28,90 29,3499 30,70
31,30 32,10 36,10 37,129
38,249 39,1799 40,269 41,6009
42,259 43,20 44,20 49,40
50,119 51,109 52,30 53,129
54,40 55,449 56,629 57,9999
58,439 59,109 77,10 79,70
80,109 81,70 82,109 93,30
95,20 105,10 107,10 121,309
122,10 123,269
##END=
