##TITLE=Methane, tetraiodo-
##JCAMP-DX=4.24
##DATA TYPE=MASS SPECTRUM
##ORIGIN=RADIAN CORP
##OWNER=NIST Mass Spectrometry Data Center
Collection (C) 2014 copyright by the U.S. Secretary of Commerce
on behalf of the United States of America. All rights reserved.
##CAS REGISTRY NO=507-25-5
##$NIST MASS SPEC NO=76388
##MOLFORM=C I4
##MW=520
##$NIST SOURCE=MSDC
##XUNITS=M/Z
##YUNITS=RELATIVE INTENSITY
##XFACTOR=1
##YFACTOR=1
##FIRSTX=35
##LASTX=520
##FIRSTY=60
##MAXX=520
##MINX=35
##MAXY=9999
##MINY=10
##NPOINTS=23
##PEAK TABLE=(XY..XY)
35,60 47,140 49,50 64,100
82,110 84,70 117,30 119,30
127,9999 139,3060 140,10 174,200
176,40 196,20 209,60 211,30
266,480 267,20 301,130 303,80
393,2150 428,10 520,450
##END=
