##TITLE=Acetyl iodide
##JCAMP-DX=4.24
##DATA TYPE=MASS SPECTRUM
##ORIGIN=Japan AIST/NIMC Database- Spectrum MS-IW-5817
##OWNER=NIST Mass Spectrometry Data Center
Collection (C) 2014 copyright by the U.S. Secretary of Commerce
on behalf of the United States of America. All rights reserved.
##CAS REGISTRY NO=507-02-8
##$NIST MASS SPEC NO=230508
##MOLFORM=C2 H3 I O
##MW=170
##$NIST SOURCE=MSDC
##XUNITS=M/Z
##YUNITS=RELATIVE INTENSITY
##XFACTOR=1
##YFACTOR=1
##FIRSTX=12
##LASTX=156
##FIRSTY=50
##MAXX=156
##MINX=12
##MAXY=9999
##MINY=10
##NPOINTS=28
##PEAK TABLE=(XY..XY)
12,50 13,169 14,879 15,2929
16,60 17,10 18,30 24,20
25,60 26,129 27,119 28,329
29,279 31,10 40,80 41,559
42,2199 43,8889 44,249 45,20
127,9999 128,1649 140,169 141,179
142,99 143,20 155,90 156,10
##END=
