##TITLE=2-Trifluoromethyl-2-propanol
##JCAMP-DX=4.24
##DATA TYPE=MASS SPECTRUM
##ORIGIN=NIST Mass Spectrometry Data Center
##OWNER=NIST Mass Spectrometry Data Center
Collection (C) 2014 copyright by the U.S. Secretary of Commerce
on behalf of the United States of America. All rights reserved.
##CAS REGISTRY NO=507-52-8
##$NIST MASS SPEC NO=343693
##MOLFORM=C4 H7 F3 O
##MW=128
##$NIST SOURCE=MSDC
##XUNITS=M/Z
##YUNITS=RELATIVE INTENSITY
##XFACTOR=1
##YFACTOR=1
##FIRSTX=12
##LASTX=114
##FIRSTY=30
##MAXX=114
##MINX=12
##MAXY=9999
##MINY=10
##NPOINTS=66
##PEAK TABLE=(XY..XY)
12,30 13,100 14,550 15,2512
16,40 17,10 19,40 20,10
25,40 26,290 27,1021 29,1281
31,5325 33,180 36,10 37,180
38,350 39,1261 40,180 41,2352
42,1001 43,9999 44,340 45,210
46,130 47,641 48,20 49,160
50,200 51,420 53,30 55,70
56,40 57,230 59,7136 60,280
61,1311 63,1692 64,250 65,400
66,10 67,150 69,1291 70,20
71,90 73,40 75,130 76,20
77,80 78,10 79,50 83,10
88,10 89,130 90,80 91,470
92,70 93,280 94,60 95,100
105,10 109,10 110,30 111,30
113,2282 114,70
##END=
