##TITLE=Propane, 1,3-dichloro-1,1,2,2,3-pentafluoro-
##JCAMP-DX=4.24
##DATA TYPE=MASS SPECTRUM
##ORIGIN=Thomas J.Bruno
##OWNER=NIST Mass Spectrometry Data Center
Collection (C) 2014 copyright by the U.S. Secretary of Commerce
on behalf of the United States of America. All rights reserved.
##CAS REGISTRY NO=507-55-1
##$NIST MASS SPEC NO=215697
##MOLFORM=C3 H Cl2 F5
##MW=202
##$NIST SOURCE=MSDC
##XUNITS=M/Z
##YUNITS=RELATIVE INTENSITY
##XFACTOR=1
##YFACTOR=1
##FIRSTX=31
##LASTX=169
##FIRSTY=5625
##MAXX=169
##MINX=31
##MAXY=9999
##MINY=180
##NPOINTS=19
##PEAK TABLE=(XY..XY)
31,5625 35,1151 37,400 50,1121
51,2171 63,380 67,9999 69,7576
75,210 82,2252 85,5204 87,1591
93,180 98,510 100,2812 116,390
117,520 167,900 169,290
##END=
