##TITLE=Tetramethyltetrathiafulvalene
##JCAMP-DX=4.24
##DATA TYPE=MASS SPECTRUM
##ORIGIN=J. Little, Eastman chemical company.
##OWNER=NIST Mass Spectrometry Data Center
Collection (C) 2014 copyright by the U.S. Secretary of Commerce
on behalf of the United States of America. All rights reserved.
##CAS REGISTRY NO=50708-37-7
##$NIST MASS SPEC NO=403799
##MOLFORM=C10 H12 S4
##MW=260
##$NIST SOURCE=MSDC
##XUNITS=M/Z
##YUNITS=RELATIVE INTENSITY
##XFACTOR=1
##YFACTOR=1
##FIRSTX=27
##LASTX=264
##FIRSTY=490
##MAXX=264
##MINX=27
##MAXY=9999
##MINY=80
##NPOINTS=43
##PEAK TABLE=(XY..XY)
27,490 39,861 41,150 45,450
51,220 53,591 54,2732 55,150
58,230 59,801 69,260 70,80
71,671 76,280 83,200 85,240
86,661 87,90 88,360 97,180
98,200 130,3093 131,661 132,290
162,400 169,250 173,170 174,671
175,110 176,100 181,120 195,170
196,150 201,2943 202,380 203,450
206,170 259,180 260,9999 261,1291
262,1571 263,240 264,140
##END=
