##TITLE=3-Methoxybenzylamine
##JCAMP-DX=4.24
##DATA TYPE=MASS SPECTRUM
##ORIGIN=Chuck Anderson, Aldrich Chemical Co.
##OWNER=NIST Mass Spectrometry Data Center
Collection (C) 2014 copyright by the U.S. Secretary of Commerce
on behalf of the United States of America. All rights reserved.
##CAS REGISTRY NO=5071-96-5
##$NIST MASS SPEC NO=107819
##MOLFORM=C8 H11 N O
##MW=137
##$NIST SOURCE=MSDC
##XUNITS=M/Z
##YUNITS=RELATIVE INTENSITY
##XFACTOR=1
##YFACTOR=1
##FIRSTX=15
##LASTX=138
##FIRSTY=169
##MAXX=138
##MINX=15
##MAXY=9999
##MINY=37
##NPOINTS=60
##PEAK TABLE=(XY..XY)
15,169 26,37 27,222 28,1707
29,346 30,3673 31,107 37,86
38,354 39,975 40,172 41,270
42,82 50,518 51,891 52,434
53,262 54,192 55,86 60,64
61,86 62,285 63,1066 64,743
65,1585 66,1097 67,621 68,109
74,213 75,151 76,281 77,2835
78,1509 79,1249 80,131 81,79
89,323 90,181 91,1341 92,670
93,1188 94,2575 95,400 104,876
105,697 106,4450 107,758 108,1158
109,2636 110,203 119,750 120,1158
121,1752 122,937 123,68 134,281
135,102 136,9999 137,5609 138,499
##END=
