##TITLE=Catechol, 2TMS derivative
##JCAMP-DX=4.24
##DATA TYPE=MASS SPECTRUM
##ORIGIN=O A MAMER, MCGILL UNIVERSITY, MONTREAL
##OWNER=NIST Mass Spectrometry Data Center
Collection (C) 2014 copyright by the U.S. Secretary of Commerce
on behalf of the United States of America. All rights reserved.
##CAS REGISTRY NO=5075-52-5
##$NIST MASS SPEC NO=78898
##MOLFORM=C12 H22 O2 Si2
##MW=254
##$NIST SOURCE=MSDC
##XUNITS=M/Z
##YUNITS=RELATIVE INTENSITY
##XFACTOR=1
##YFACTOR=1
##FIRSTX=28
##LASTX=256
##FIRSTY=79
##MAXX=256
##MINX=28
##MAXY=9999
##MINY=45
##NPOINTS=30
##PEAK TABLE=(XY..XY)
28,79 29,64 43,215 44,150
45,1121 46,82 47,67 57,59
58,63 59,151 72,95 73,9999
74,915 75,488 91,120 105,74
131,74 133,76 136,263 137,65
147,110 149,70 151,337 166,235
167,45 239,492 240,125 254,1873
255,450 256,201
##END=
