##TITLE=Bicyclo[3.1.1]hept-2-en-6-ol, 2,7,7-trimethyl-, acetate, [1S-(1.alpha.,5.alpha.,6.beta.)]-
##JCAMP-DX=4.24
##DATA TYPE=MASS SPECTRUM
##ORIGIN=NIST Mass Spectrometry Data Center
##OWNER=NIST Mass Spectrometry Data Center
Collection (C) 2014 copyright by the U.S. Secretary of Commerce
on behalf of the United States of America. All rights reserved.
##CAS REGISTRY NO=50764-55-1
##$NIST MASS SPEC NO=412620
##MOLFORM=C12 H18 O2
##MW=194
##$NIST SOURCE=MSDC
##XUNITS=M/Z
##YUNITS=RELATIVE INTENSITY
##XFACTOR=1
##YFACTOR=1
##FIRSTX=15
##LASTX=194
##FIRSTY=10
##MAXX=194
##MINX=15
##MAXY=9999
##MINY=10
##NPOINTS=91
##PEAK TABLE=(XY..XY)
15,10 27,470 29,380 31,50
37,20 38,50 39,1191 40,190
41,2302 42,200 43,8468 44,220
45,100 50,100 51,450 52,180
53,801 54,110 55,901 56,130
57,340 58,50 59,1151 60,50
61,30 62,50 63,220 64,70
65,851 66,200 67,1001 68,180
69,1041 70,140 71,80 72,340
73,50 74,30 75,30 76,20
77,1511 78,360 79,1321 80,1341
81,2212 82,530 83,550 84,430
86,30 89,70 91,2512 92,731
93,1351 94,621 95,1071 96,701
97,200 101,260 102,50 103,270
104,100 105,1051 106,260 107,1411
108,420 109,2682 110,270 111,40
114,150 115,170 116,50 117,310
118,60 119,9999 120,1001 121,1792
122,200 123,1201 124,140 131,30
132,30 133,230 134,2903 135,380
136,70 137,761 138,80 151,140
152,100 179,20 194,20
##END=
