##TITLE=(5Z)-3-Methyl-1,5-heptadiene
##JCAMP-DX=4.24
##DATA TYPE=MASS SPECTRUM
##ORIGIN=D.HENNEBERG, MAX-PLANCK INSTITUTE, MULHEIM, WEST GERMANY
##OWNER=NIST Mass Spectrometry Data Center
Collection (C) 2014 copyright by the U.S. Secretary of Commerce
on behalf of the United States of America. All rights reserved.
##CAS REGISTRY NO=50763-51-4
##$NIST MASS SPEC NO=61554
##MOLFORM=C8 H14
##MW=110
##$NIST SOURCE=MSDC
##XUNITS=M/Z
##YUNITS=RELATIVE INTENSITY
##XFACTOR=1
##YFACTOR=1
##FIRSTX=25
##LASTX=110
##FIRSTY=18
##MAXX=110
##MINX=25
##MAXY=9999
##MINY=1
##NPOINTS=52
##PEAK TABLE=(XY..XY)
25,18 26,70 27,1057 28,59
29,1660 30,32 32,3 35,1
37,25 38,58 39,1221 40,127
41,840 42,53 43,35 45,3
49,12 50,81 51,197 52,84
53,677 54,869 55,9999 56,916
57,39 62,14 63,29 65,232
66,79 67,523 68,659 69,107
70,9 74,10 76,3 77,121
78,31 79,126 80,69 81,1287
82,257 83,19 91,54 92,11
93,37 94,10 95,1704 96,127
97,2 105,2 109,8 110,39
##END=
