##TITLE=1-Hydroxy-2-butanone
##JCAMP-DX=4.24
##DATA TYPE=MASS SPECTRUM
##ORIGIN=Chuck Anderson, Aldrich Chemical Co.
##OWNER=NIST Mass Spectrometry Data Center
Collection (C) 2014 copyright by the U.S. Secretary of Commerce
on behalf of the United States of America. All rights reserved.
##CAS REGISTRY NO=5077-67-8
##$NIST MASS SPEC NO=108432
##MOLFORM=C4 H8 O2
##MW=88
##$NIST SOURCE=MSDC
##XUNITS=M/Z
##YUNITS=RELATIVE INTENSITY
##XFACTOR=1
##YFACTOR=1
##FIRSTX=13
##LASTX=89
##FIRSTY=21
##MAXX=89
##MINX=13
##MAXY=9999
##MINY=5
##NPOINTS=45
##PEAK TABLE=(XY..XY)
13,21 14,117 15,182 17,16
18,51 19,31 20,98 24,5
25,72 26,613 27,2701 28,751
29,9999 30,420 31,3497 32,84
33,26 36,19 37,53 38,73
39,235 40,44 41,325 42,470
43,182 44,18 45,40 49,12
50,29 51,16 52,10 53,49
54,12 55,124 56,610 57,7398
58,299 59,132 60,42 69,34
71,19 73,19 86,46 88,762
89,52
##END=
