##TITLE=1H-3a,7-Methanoazulene, octahydro-1,9,9-trimethyl-4-methylene-, (1.alpha.,3a.alpha.,7.alpha.,8a.beta.)-
##JCAMP-DX=4.24
##DATA TYPE=MASS SPECTRUM
##ORIGIN=NIST Mass Spectrometry Data Center, 2010
##OWNER=NIST Mass Spectrometry Data Center
Collection (C) 2014 copyright by the U.S. Secretary of Commerce
on behalf of the United States of America. All rights reserved.
##CAS REGISTRY NO=508-55-4
##$NIST MASS SPEC NO=378240
##MOLFORM=C15 H24
##MW=204
##$NIST SOURCE=MSDC
##XUNITS=M/Z
##YUNITS=RELATIVE INTENSITY
##XFACTOR=1
##YFACTOR=1
##FIRSTX=26
##LASTX=207
##FIRSTY=30
##MAXX=207
##MINX=26
##MAXY=9999
##MINY=10
##NPOINTS=124
##PEAK TABLE=(XY..XY)
26,30 27,681 28,90 29,1061
30,20 37,10 38,50 39,2102
40,390 41,5495 42,871 43,891
44,20 45,10 50,150 51,901
52,480 53,2352 54,290 55,3823
56,230 57,190 58,90 59,30
60,10 62,40 63,380 64,250
65,2052 66,510 67,5205 68,400
69,2402 70,190 71,180 72,50
73,30 74,50 75,50 76,80
77,4394 78,1381 79,5735 80,2112
81,6226 82,731 83,961 84,60
87,10 89,140 90,60 91,8167
92,1732 93,3503 94,4384 95,3033
96,380 97,280 98,10 101,20
102,160 103,781 104,430 105,6536
106,1551 107,6636 108,3904 109,2632
110,220 111,30 113,10 114,10
115,1221 116,510 117,1912 118,530
119,5635 120,2532 121,8378 122,2312
123,1081 124,180 125,20 126,20
127,160 128,430 129,440 130,250
131,1011 132,340 133,6005 134,1371
135,971 139,20 141,80 142,50
143,100 144,50 145,661 146,210
147,2883 148,881 149,240 150,30
154,10 155,10 156,10 157,20
159,210 160,210 161,7667 162,460
163,40 175,581 176,480 177,50
178,10 189,5455 190,821 191,70
204,9999 205,1481 206,110 207,10
##END=
