##TITLE=8-Bromo-1-octanol
##JCAMP-DX=4.24
##DATA TYPE=MASS SPECTRUM
##ORIGIN=NIST Mass Spectrometry Data Center
##OWNER=NIST Mass Spectrometry Data Center
Collection (C) 2014 copyright by the U.S. Secretary of Commerce
on behalf of the United States of America. All rights reserved.
##CAS REGISTRY NO=50816-19-8
##$NIST MASS SPEC NO=364042
##MOLFORM=C8 H17 Br O
##MW=208
##$NIST SOURCE=MSDC
##XUNITS=M/Z
##YUNITS=RELATIVE INTENSITY
##XFACTOR=1
##YFACTOR=1
##FIRSTX=15
##LASTX=192
##FIRSTY=50
##MAXX=192
##MINX=15
##MAXY=9999
##MINY=10
##NPOINTS=94
##PEAK TABLE=(XY..XY)
15,50 19,30 26,110 27,1401
28,430 29,1591 31,2382 32,20
33,10 37,20 38,30 39,1832
40,390 41,6296 42,1722 43,2002
44,320 45,250 46,10 49,10
50,50 51,140 52,80 53,751
54,1061 55,9999 56,1962 57,1171
58,70 59,40 62,10 63,30
64,10 65,140 67,2482 68,3293
69,9629 70,971 71,100 72,10
73,150 74,10 77,80 78,30
79,230 80,90 81,1341 82,2172
83,5345 84,500 85,40 87,10
91,40 93,190 95,380 96,20
97,150 98,20 99,10 104,10
105,20 106,60 107,571 108,70
109,691 110,150 111,851 112,80
119,60 120,260 121,250 122,260
123,200 124,10 133,40 134,440
135,1251 136,480 137,1191 138,50
148,3003 149,240 150,2953 151,200
152,10 162,2923 163,300 164,2833
165,190 166,10 188,10 190,40
191,10 192,30
##END=
