##TITLE=Butanoic acid, 2-methyl-, heptyl ester
##JCAMP-DX=4.24
##DATA TYPE=MASS SPECTRUM
##ORIGIN=NIST Mass Spectrometry Data Center, 2010
##OWNER=NIST Mass Spectrometry Data Center
Collection (C) 2014 copyright by the U.S. Secretary of Commerce
on behalf of the United States of America. All rights reserved.
##CAS REGISTRY NO=50862-12-9
##$NIST MASS SPEC NO=372895
##MOLFORM=C12 H24 O2
##MW=200
##$NIST SOURCE=MSDC
##XUNITS=M/Z
##YUNITS=RELATIVE INTENSITY
##XFACTOR=1
##YFACTOR=1
##FIRSTX=15
##LASTX=200
##FIRSTY=10
##MAXX=200
##MINX=15
##MAXY=9999
##MINY=10
##NPOINTS=75
##PEAK TABLE=(XY..XY)
15,10 26,40 27,550 28,280
29,1491 30,40 31,40 39,571
41,2903 42,721 43,1541 44,80
45,70 47,30 50,10 51,20
52,10 53,170 54,210 55,1672
56,2953 57,8237 58,370 59,50
60,10 61,30 65,20 66,10
67,100 68,330 69,1491 70,2562
71,220 72,30 73,140 74,1411
75,380 76,20 77,10 79,20
81,50 82,30 83,420 85,3853
86,220 87,611 88,30 95,10
96,20 97,220 98,2873 99,240
100,30 101,60 102,450 103,9999
104,561 105,60 113,110 114,10
115,140 116,10 125,10 129,50
130,20 140,10 143,430 144,40
156,10 157,10 158,20 170,10
172,290 173,30 200,10
##END=
