##TITLE=Thiophene, 2-[(1-methylethyl)thio]-
##JCAMP-DX=4.24
##DATA TYPE=MASS SPECTRUM
##ORIGIN=NIST Mass Spectrometry Data Center, 2012
##OWNER=NIST Mass Spectrometry Data Center
Collection (C) 2014 copyright by the U.S. Secretary of Commerce
on behalf of the United States of America. All rights reserved.
##CAS REGISTRY NO=50878-65-4
##$NIST MASS SPEC NO=395089
##MOLFORM=C7 H10 S2
##MW=158
##$NIST SOURCE=MSDC
##XUNITS=M/Z
##YUNITS=RELATIVE INTENSITY
##XFACTOR=1
##YFACTOR=1
##FIRSTX=15
##LASTX=162
##FIRSTY=50
##MAXX=162
##MINX=15
##MAXY=9999
##MINY=10
##NPOINTS=90
##PEAK TABLE=(XY..XY)
15,50 25,10 26,90 27,901
28,70 29,10 32,20 33,10
37,110 38,280 39,1411 40,170
41,1471 42,130 43,1561 44,80
45,1051 46,40 47,80 49,20
50,40 51,40 52,20 53,20
56,20 57,300 58,340 59,220
60,40 61,10 63,10 64,40
65,20 66,10 67,10 68,30
69,671 70,220 71,3563 72,300
73,200 74,20 76,80 77,40
78,10 79,10 80,10 81,200
82,330 83,90 84,120 85,40
86,10 88,90 89,40 90,40
91,10 96,10 97,40 98,10
99,20 101,10 103,10 109,30
110,60 111,20 112,20 113,10
114,80 115,1061 116,9999 117,691
118,921 119,50 120,20 123,10
124,10 127,20 129,10 141,10
142,10 143,50 144,10 156,10
157,10 158,3333 159,300 160,310
161,30 162,10
##END=
