##TITLE=Hydrazinecarbodithioic acid, 2-phenyl-, methyl ester
##JCAMP-DX=4.24
##DATA TYPE=MASS SPECTRUM
##ORIGIN=CARL DJERASSI DEPT OF CHEM STANFORD UNIV STANFORD CALIF 94305
##OWNER=NIST Mass Spectrometry Data Center
Collection (C) 2014 copyright by the U.S. Secretary of Commerce
on behalf of the United States of America. All rights reserved.
##CAS REGISTRY NO=50878-38-1
##$NIST MASS SPEC NO=47328
##MOLFORM=C8 H10 N2 S2
##MW=198
##$NIST SOURCE=MSDC
##XUNITS=M/Z
##YUNITS=RELATIVE INTENSITY
##XFACTOR=1
##YFACTOR=1
##FIRSTX=41
##LASTX=200
##FIRSTY=100
##MAXX=200
##MINX=41
##MAXY=9999
##MINY=100
##NPOINTS=45
##PEAK TABLE=(XY..XY)
41,100 42,400 43,100 44,200
47,200 50,100 51,300 55,400
56,200 57,500 58,400 59,100
60,100 63,200 64,100 65,600
66,100 67,100 68,100 69,300
70,200 71,300 73,100 77,500
78,200 81,200 89,100 91,1100
92,600 93,400 95,100 96,100
97,100 105,300 107,1000 108,400
109,100 121,100 149,800 150,1200
151,300 152,100 198,9999 199,900
200,800
##END=
