##TITLE=Methadyl acetate
##JCAMP-DX=4.24
##DATA TYPE=MASS SPECTRUM
##ORIGIN=Patti Price, Georgia Bureau of Investigation, Decatur, Georgia
##OWNER=NIST Mass Spectrometry Data Center
Collection (C) 2014 copyright by the U.S. Secretary of Commerce
on behalf of the United States of America. All rights reserved.
##CAS REGISTRY NO=509-74-0
##$NIST MASS SPEC NO=247674
##MOLFORM=C23 H31 N O2
##MW=353
##$NIST SOURCE=MSDC
##XUNITS=M/Z
##YUNITS=RELATIVE INTENSITY
##XFACTOR=1
##YFACTOR=1
##FIRSTX=41
##LASTX=354
##FIRSTY=10
##MAXX=354
##MINX=41
##MAXY=9999
##MINY=10
##NPOINTS=148
##PEAK TABLE=(XY..XY)
41,10 42,140 43,800 44,220
45,10 47,10 48,10 49,10
50,20 51,40 53,20 55,10
56,160 57,120 58,50 59,20
65,30 68,20 70,220 71,170
72,9999 73,390 74,20 77,130
78,30 79,10 81,10 82,100
83,40 84,10 85,90 86,70
87,20 89,30 91,520 92,40
93,20 94,40 96,50 97,30
101,10 102,30 103,80 105,210
106,30 107,20 115,300 116,40
117,40 118,20 119,50 126,20
127,90 128,180 129,460 130,100
131,60 134,20 139,50 141,20
142,20 143,40 144,20 145,20
146,20 147,300 148,30 150,20
151,40 152,230 153,40 158,40
159,20 160,70 161,20 163,50
164,80 165,670 166,170 167,180
168,30 171,40 176,70 177,60
178,610 179,330 180,90 181,20
182,110 183,20 189,120 190,110
191,240 192,140 193,210 194,50
195,30 196,20 202,100 203,100
204,80 205,60 206,40 207,620
208,160 209,20 216,50 218,20
219,80 220,30 222,70 223,70
224,120 225,2632 226,430 227,30
234,30 236,100 237,30 247,10
248,50 249,30 250,30 251,20
253,200 254,80 265,830 266,250
267,140 268,20 272,20 278,160
279,30 292,20 293,130 294,750
295,150 303,40 310,660 311,140
312,20 324,50 338,1131 339,250
340,30 352,50 353,230 354,60
##END=
