##TITLE=Pholcodine
##JCAMP-DX=4.24
##DATA TYPE=MASS SPECTRUM
##ORIGIN=N.W. Davies, Centr. Sci. Lab., Univ. Tasmania, Hobart, Australia
##OWNER=NIST Mass Spectrometry Data Center
Collection (C) 2014 copyright by the U.S. Secretary of Commerce
on behalf of the United States of America. All rights reserved.
##CAS REGISTRY NO=509-67-1
##$NIST MASS SPEC NO=107091
##MOLFORM=C23 H30 N2 O4
##MW=398
##$NIST SOURCE=MSDC
##XUNITS=M/Z
##YUNITS=RELATIVE INTENSITY
##XFACTOR=1
##YFACTOR=1
##FIRSTX=26
##LASTX=399
##FIRSTY=60
##MAXX=399
##MINX=26
##MAXY=9999
##MINY=10
##NPOINTS=80
##PEAK TABLE=(XY..XY)
26,60 27,230 28,10 29,360
30,280 31,50 32,10 39,90
40,10 41,300 42,1370 43,150
44,490 45,90 51,40 53,70
54,120 55,490 56,930 57,270
58,130 59,50 63,40 65,60
67,40 68,70 69,20 70,620
71,50 72,50 77,100 78,30
81,240 82,100 83,70 84,70
85,60 86,40 87,70 91,70
94,80 96,50 98,80 99,40
100,8310 101,550 102,40 103,40
112,130 113,70 114,9999 115,830
116,80 124,120 127,60 128,70
129,40 131,40 139,50 141,60
144,40 152,60 153,40 162,60
165,50 168,40 169,30 171,30
175,60 181,40 184,30 199,90
214,30 268,30 284,40 285,40
312,40 370,50 398,560 399,170
##END=
