##TITLE=Gelsemine
##JCAMP-DX=4.24
##DATA TYPE=MASS SPECTRUM
##ORIGIN=Patti Price, Georgia Bureau of Investigation, Decatur, Georgia
##OWNER=NIST Mass Spectrometry Data Center
Collection (C) 2014 copyright by the U.S. Secretary of Commerce
on behalf of the United States of America. All rights reserved.
##CAS REGISTRY NO=509-15-9
##$NIST MASS SPEC NO=248285
##MOLFORM=C20 H22 N2 O2
##MW=322
##$NIST SOURCE=MSDC
##XUNITS=M/Z
##YUNITS=RELATIVE INTENSITY
##XFACTOR=1
##YFACTOR=1
##FIRSTX=42
##LASTX=324
##FIRSTY=1281
##MAXX=324
##MINX=42
##MAXY=9999
##MINY=10
##NPOINTS=175
##PEAK TABLE=(XY..XY)
42,1281 52,120 54,110 55,480
56,140 59,70 63,220 64,140
65,610 66,150 67,490 68,260
69,100 70,760 71,90 72,30
73,10 74,40 75,150 76,290
77,1581 78,410 79,590 80,270
81,390 82,790 83,230 84,200
87,50 89,490 90,300 91,1161
92,360 93,1201 94,720 95,160
96,140 98,250 99,50 101,260
102,270 103,580 104,380 105,340
106,540 107,740 108,9999 109,1030
110,60 111,40 112,40 114,100
115,660 116,630 117,1411 118,560
119,470 120,1691 121,670 122,290
123,60 126,140 127,300 128,650
129,430 130,1211 131,370 132,1121
133,1321 134,1611 135,160 136,100
138,50 139,250 140,190 143,250
144,590 145,740 146,1080 147,410
148,330 149,210 151,190 152,260
153,200 154,330 155,140 156,180
157,110 158,760 159,670 160,330
161,240 162,290 163,80 164,430
165,260 166,300 167,580 168,450
170,420 171,160 172,130 174,70
177,130 178,350 179,150 180,570
181,130 182,170 183,180 184,130
185,310 188,50 190,280 191,240
192,170 193,170 194,350 195,140
196,710 197,590 198,180 199,70
202,20 203,70 204,270 206,320
207,210 208,360 209,180 210,280
211,200 212,40 215,100 216,120
217,160 219,100 220,290 221,160
222,520 223,410 225,40 230,150
233,100 234,500 235,360 236,550
238,100 239,110 245,50 246,130
248,320 249,200 250,490 251,1020
252,270 260,330 261,360 262,100
263,70 264,80 266,20 274,30
277,40 278,40 279,2332 280,440
292,20 293,150 295,20 321,40
322,2642 323,440 324,90
##END=
