##TITLE=Methane, tetranitro-
##JCAMP-DX=4.24
##DATA TYPE=MASS SPECTRUM
##ORIGIN=J.T.LARKINS U.S. DEPT. OF COMMERCE, WASHINGTON, D.C., USA
##OWNER=NIST Mass Spectrometry Data Center
Collection (C) 2014 copyright by the U.S. Secretary of Commerce
on behalf of the United States of America. All rights reserved.
##CAS REGISTRY NO=509-14-8
##$NIST MASS SPEC NO=38932
##MOLFORM=C N4 O8
##MW=196
##$NIST SOURCE=MSDC
##XUNITS=M/Z
##YUNITS=RELATIVE INTENSITY
##XFACTOR=1
##YFACTOR=1
##FIRSTX=16
##LASTX=150
##FIRSTY=8761
##MAXX=150
##MINX=16
##MAXY=9999
##MINY=197
##NPOINTS=7
##PEAK TABLE=(XY..XY)
16,8761 26,2225 30,197 42,1408
46,9999 104,3662 150,1915
##END=
