##TITLE=3-Hepten-2-one, 5-methyl-
##JCAMP-DX=4.24
##DATA TYPE=MASS SPECTRUM
##ORIGIN=NIST Mass Spectrometry Data Center, 1990.
##OWNER=NIST Mass Spectrometry Data Center
Collection (C) 2014 copyright by the U.S. Secretary of Commerce
on behalf of the United States of America. All rights reserved.
##CAS REGISTRY NO=5090-16-4
##$NIST MASS SPEC NO=114249
##MOLFORM=C8 H14 O
##MW=126
##$NIST SOURCE=MSDC
##XUNITS=M/Z
##YUNITS=RELATIVE INTENSITY
##XFACTOR=1
##YFACTOR=1
##FIRSTX=15
##LASTX=127
##FIRSTY=200
##MAXX=127
##MINX=15
##MAXY=9999
##MINY=24
##NPOINTS=63
##PEAK TABLE=(XY..XY)
15,200 26,205 27,1402 28,550
29,914 37,74 38,274 39,2498
40,490 41,3906 42,74 43,9445
44,350 45,86 49,41 50,442
51,731 52,324 53,1534 54,41
55,9999 56,896 57,198 58,362
59,48 62,80 63,159 64,47
65,378 66,167 67,1066 68,452
69,2609 70,177 71,501 72,45
73,47 74,49 77,410 78,77
79,501 80,72 81,568 82,518
83,2128 84,327 85,48 91,257
93,595 94,72 95,195 96,48
97,2498 98,208 105,24 106,27
108,1055 109,334 111,3137 112,234
124,86 126,1248 127,114
##END=
