##TITLE=4-(2-Phenylvinyl)pyridine, trans-
##JCAMP-DX=4.24
##DATA TYPE=MASS SPECTRUM
##ORIGIN=V.A.KOPTYUG, ATLAS OF MASS SPECTRA OF ORGANIC COMPOUNDS
##OWNER=NIST Mass Spectrometry Data Center
Collection (C) 2014 copyright by the U.S. Secretary of Commerce
on behalf of the United States of America. All rights reserved.
##CAS REGISTRY NO=5097-93-8
##$NIST MASS SPEC NO=78075
##MOLFORM=C13 H11 N
##MW=181
##$NIST SOURCE=MSDC
##XUNITS=M/Z
##YUNITS=RELATIVE INTENSITY
##XFACTOR=1
##YFACTOR=1
##FIRSTX=76
##LASTX=182
##FIRSTY=1270
##MAXX=182
##MINX=76
##MAXY=9999
##MINY=240
##NPOINTS=14
##PEAK TABLE=(XY..XY)
76,1270 77,1270 78,730 127,800
128,600 151,870 152,240 153,1330
154,1070 166,800 179,1000 180,9999
181,9999 182,1670
##END=
