##TITLE=1,1'-Bicyclohexyl, 2-(1-methylethyl)-, cis-
##JCAMP-DX=4.24
##DATA TYPE=MASS SPECTRUM
##OWNER=NIST Mass Spectrometry Data Center
Collection (C) 2014 copyright by the U.S. Secretary of Commerce
on behalf of the United States of America. All rights reserved.
##CAS REGISTRY NO=50991-15-6
##$NIST MASS SPEC NO=9512
##MOLFORM=C15 H28
##MW=208
##$NIST SOURCE=MSDC
##XUNITS=M/Z
##YUNITS=RELATIVE INTENSITY
##XFACTOR=1
##YFACTOR=1
##FIRSTX=36
##LASTX=210
##FIRSTY=10
##MAXX=210
##MINX=36
##MAXY=9999
##MINY=10
##NPOINTS=127
##PEAK TABLE=(XY..XY)
36,10 37,20 38,50 39,1852
40,350 41,7707 42,530 43,2512
44,90 45,10 46,10 47,10
48,10 49,10 50,40 51,170
52,140 53,1101 54,1361 55,5855
56,530 57,1401 58,70 59,10
60,10 61,10 62,10 63,30
64,10 65,300 66,420 67,3503
68,661 69,6416 70,410 71,90
72,10 73,10 74,10 75,10
76,10 77,430 78,120 79,741
80,460 81,2642 82,2142 83,9999
84,691 85,40 86,10 87,10
88,10 89,10 90,10 91,240
92,50 93,200 94,80 95,1581
96,540 97,1481 98,120 99,10
100,10 101,10 102,10 103,20
104,10 105,50 106,10 107,80
108,60 109,2432 110,250 111,110
112,20 113,10 114,10 115,10
116,10 117,10 118,10 119,10
120,10 121,60 122,70 123,480
124,1591 125,2022 126,200 127,10
128,10 129,10 130,10 131,10
132,10 133,10 134,10 135,50
136,20 137,20 138,20 139,10
140,10 141,10 148,10 149,20
150,10 151,20 152,10 153,10
163,10 164,1581 165,5535 166,781
167,50 168,10 178,10 179,10
180,10 193,10 206,10 207,10
208,290 209,50 210,10
##END=
