##TITLE=1,1'-Bicyclohexyl, 2-ethyl-, cis-
##JCAMP-DX=4.24
##DATA TYPE=MASS SPECTRUM
##OWNER=NIST Mass Spectrometry Data Center
Collection (C) 2014 copyright by the U.S. Secretary of Commerce
on behalf of the United States of America. All rights reserved.
##CAS REGISTRY NO=50991-12-3
##$NIST MASS SPEC NO=8440
##MOLFORM=C14 H26
##MW=194
##$NIST SOURCE=MSDC
##XUNITS=M/Z
##YUNITS=RELATIVE INTENSITY
##XFACTOR=1
##YFACTOR=1
##FIRSTX=36
##LASTX=196
##FIRSTY=10
##MAXX=196
##MINX=36
##MAXY=9999
##MINY=10
##NPOINTS=129
##PEAK TABLE=(XY..XY)
36,10 37,20 38,60 39,2512
40,460 41,9358 42,961 43,1341
44,50 45,10 46,10 47,10
48,10 49,10 50,50 51,240
52,180 53,1381 54,1752 55,8838
56,741 57,520 58,30 59,10
60,10 61,10 62,10 63,50
64,20 65,380 66,360 67,4304
68,991 69,9999 70,641 71,60
72,10 73,10 74,10 75,10
76,10 77,500 78,130 79,781
80,420 81,4204 82,3843 83,3423
84,260 85,20 86,10 87,10
88,10 89,10 90,10 91,260
92,50 93,200 94,70 95,1241
96,751 97,591 98,60 99,10
100,10 101,10 102,10 103,20
104,10 105,40 106,10 107,70
108,60 109,901 110,7076 111,9819
112,861 113,40 114,10 115,10
116,10 117,10 118,10 119,10
120,10 121,30 122,40 123,150
124,170 125,130 126,10 127,10
128,10 129,10 130,10 131,10
132,10 133,10 134,10 135,10
136,10 137,80 138,30 139,10
140,10 141,10 142,10 143,10
144,10 145,10 146,10 147,10
148,10 149,10 150,10 151,20
152,20 153,10 163,10 164,80
165,951 166,140 167,10 177,10
178,10 179,10 194,1021 195,160
196,10
##END=
