##TITLE=1-Propene, 3-[(1-methylethyl)thio]-
##JCAMP-DX=4.24
##DATA TYPE=MASS SPECTRUM
##ORIGIN=CARL DJERASSI DEPT OF CHEM STANFORD UNIV STANFORD CALIF 94305
##OWNER=NIST Mass Spectrometry Data Center
Collection (C) 2014 copyright by the U.S. Secretary of Commerce
on behalf of the United States of America. All rights reserved.
##CAS REGISTRY NO=50996-72-0
##$NIST MASS SPEC NO=46379
##MOLFORM=C6 H12 S
##MW=116
##$NIST SOURCE=MSDC
##XUNITS=M/Z
##YUNITS=RELATIVE INTENSITY
##XFACTOR=1
##YFACTOR=1
##FIRSTX=40
##LASTX=118
##FIRSTY=200
##MAXX=118
##MINX=40
##MAXY=9999
##MINY=200
##NPOINTS=25
##PEAK TABLE=(XY..XY)
40,200 41,9800 42,600 43,4200
44,200 45,1700 46,400 47,900
55,200 58,200 59,3300 60,200
61,200 67,800 71,300 72,300
73,2100 74,9999 75,900 76,400
101,2200 102,200 116,5700 117,500
118,300
##END=
