##TITLE=Propanedioic acid, diethyl-
##JCAMP-DX=4.24
##DATA TYPE=MASS SPECTRUM
##ORIGIN=Japan AIST/NIMC Database- Spectrum MS-NW-9946
##OWNER=NIST Mass Spectrometry Data Center
Collection (C) 2014 copyright by the U.S. Secretary of Commerce
on behalf of the United States of America. All rights reserved.
##CAS REGISTRY NO=510-20-3
##$NIST MASS SPEC NO=239077
##MOLFORM=C7 H12 O4
##MW=160
##$NIST SOURCE=MSDC
##XUNITS=M/Z
##YUNITS=RELATIVE INTENSITY
##XFACTOR=1
##YFACTOR=1
##FIRSTX=12
##LASTX=162
##FIRSTY=10
##MAXX=162
##MINX=12
##MAXY=9999
##MINY=10
##NPOINTS=108
##PEAK TABLE=(XY..XY)
12,10 14,20 15,169 16,80
17,109 18,419 22,20 25,10
26,289 27,2989 28,969 29,3539
30,90 31,389 32,70 37,70
38,209 39,2619 40,409 41,5159
42,749 43,3959 44,2949 45,5409
46,169 47,80 49,40 50,109
51,179 52,70 53,919 54,249
55,5639 56,369 57,2659 58,139
59,999 60,149 61,30 62,20
63,50 64,10 65,99 66,70
67,369 68,509 69,3569 70,399
71,1109 72,159 73,2819 74,199
75,60 77,20 78,10 79,20
80,10 81,469 82,119 83,2049
84,209 85,379 86,4689 87,2779
88,3009 89,139 90,20 91,10
92,10 94,10 95,489 96,489
97,739 98,1349 99,4749 100,269
101,9859 102,559 103,50 104,10
109,10 110,10 111,10 112,20
113,2219 114,9999 115,1239 116,2759
117,1019 118,60 119,10 124,10
125,10 127,189 128,20 129,10
131,269 132,7699 133,449 134,70
135,10 141,10 142,99 143,369
144,30 145,20 161,369 162,30
##END=
