##TITLE=Ethyl 6-isocyanatohexanoate
##JCAMP-DX=4.24
##DATA TYPE=MASS SPECTRUM
##ORIGIN=NIST Mass Spectrometry Data Center
##OWNER=NIST Mass Spectrometry Data Center
Collection (C) 2014 copyright by the U.S. Secretary of Commerce
on behalf of the United States of America. All rights reserved.
##CAS REGISTRY NO=5100-36-7
##$NIST MASS SPEC NO=342434
##MOLFORM=C9 H15 N O3
##MW=185
##$NIST SOURCE=MSDC
##XUNITS=M/Z
##YUNITS=RELATIVE INTENSITY
##XFACTOR=1
##YFACTOR=1
##FIRSTX=11
##LASTX=143
##FIRSTY=270
##MAXX=143
##MINX=11
##MAXY=9999
##MINY=30
##NPOINTS=71
##PEAK TABLE=(XY..XY)
11,270 15,370 18,220 20,30
24,40 26,380 27,4004 28,1011
29,5995 30,460 37,30 38,250
39,3513 40,801 41,9298 42,4774
43,3883 44,941 45,380 46,100
51,90 52,90 53,991 54,1201
55,7056 56,9999 57,1071 58,330
60,5055 61,2582 66,40 67,1802
68,2883 69,9378 70,5345 71,831
72,30 73,2322 74,160 79,50
81,50 82,911 83,2853 84,1912
85,3904 86,240 87,80 88,7617
89,350 95,1581 96,4644 97,951
98,1872 99,300 100,290 101,1832
110,160 111,3994 112,1621 113,621
114,480 127,30 128,1321 129,250
130,641 138,250 139,3203 140,5215
141,410 142,340 143,30
##END=
