##TITLE=trans-Chlordane
##JCAMP-DX=4.24
##DATA TYPE=MASS SPECTRUM
##ORIGIN=S.M. Lee, CA Export Lab. Services, CA, USA
##OWNER=NIST Mass Spectrometry Data Center
Collection (C) 2014 copyright by the U.S. Secretary of Commerce
on behalf of the United States of America. All rights reserved.
##CAS REGISTRY NO=5103-74-2
##$NIST MASS SPEC NO=290175
##MOLFORM=C10 H6 Cl8
##MW=406
##$NIST SOURCE=MSDC
##XUNITS=M/Z
##YUNITS=RELATIVE INTENSITY
##XFACTOR=1
##YFACTOR=1
##FIRSTX=51
##LASTX=420
##FIRSTY=420
##MAXX=420
##MINX=51
##MAXY=9999
##MINY=10
##NPOINTS=280
##PEAK TABLE=(XY..XY)
51,420 52,30 53,30 54,10
60,120 61,490 62,410 63,390
64,100 65,1411 66,530 67,60
68,10 71,100 72,180 73,891
74,510 75,1231 76,70 77,280
78,40 79,60 80,70 81,20
82,100 83,510 84,450 85,831
86,410 87,360 88,40 89,70
90,30 91,20 92,10 94,90
95,230 96,360 97,641 98,601
99,871 100,350 101,510 102,240
103,190 104,30 105,10 106,140
107,430 108,450 109,1071 110,260
111,540 112,80 113,140 114,160
115,260 116,170 117,791 118,140
119,961 120,440 121,651 122,220
123,400 124,100 125,200 126,180
127,40 128,10 129,10 130,290
131,290 132,571 133,861 134,370
135,821 136,220 137,500 138,210
139,140 141,711 142,80 143,1011
144,150 145,581 146,140 147,280
148,110 149,210 150,150 151,140
152,60 153,50 154,70 155,210
156,130 157,350 158,160 159,340
160,651 161,260 162,220 163,60
165,380 167,591 168,170 169,530
170,460 171,290 172,290 173,120
174,80 175,30 176,10 177,50
178,60 179,150 180,140 181,190
182,180 183,390 184,120 185,210
186,40 187,40 188,30 189,20
191,561 192,130 193,711 194,550
195,550 196,721 197,260 198,310
199,60 200,60 201,180 202,70
203,340 204,591 205,380 206,561
207,250 208,200 209,60 210,20
211,10 213,40 214,170 215,90
216,250 217,370 218,250 219,390
220,140 221,150 222,50 223,30
225,100 226,140 227,330 228,280
229,410 230,831 231,360 232,681
233,200 235,2022 237,3213 238,400
239,2242 240,390 241,871 242,220
243,210 244,70 245,30 246,10
247,10 248,60 249,60 250,100
251,200 252,130 253,280 254,140
255,190 256,80 257,70 258,30
259,20 261,1011 263,1631 264,1181
265,1441 266,1441 267,851 268,701
269,350 270,1692 272,2953 274,2422
275,250 276,1081 277,190 278,310
279,90 280,60 281,30 282,10
283,30 285,60 286,10 287,80
288,30 289,60 290,40 291,30
292,20 293,10 294,10 295,20
296,10 297,30 299,330 300,190
301,571 302,280 303,420 304,160
305,180 306,60 307,40 308,10
309,40 310,10 311,60 312,10
313,50 314,10 315,20 316,10
335,220 336,50 337,420 338,80
339,330 340,70 341,150 342,30
343,40 344,10 345,10 371,4484
373,9999 374,1171 375,9418 376,1041
377,4824 378,530 379,1521 380,160
381,300 382,30 383,40 384,10
406,150 408,380 410,440 411,50
412,260 413,30 414,100 415,10
416,30 417,10 418,10 420,10
##END=
