##TITLE=Ergotaman-3',6',18-trione, 9,10-dihydro-12'-hydroxy-2'-methyl-5'-(phenylmethyl)-, (5'.alpha.,10.alpha.)-
##JCAMP-DX=4.24
##DATA TYPE=MASS SPECTRUM
##ORIGIN=Patti Price, Georgia Bureau of Investigation, Decatur, Georgia
##OWNER=NIST Mass Spectrometry Data Center
Collection (C) 2014 copyright by the U.S. Secretary of Commerce
on behalf of the United States of America. All rights reserved.
##CAS REGISTRY NO=511-12-6
##$NIST MASS SPEC NO=248068
##MOLFORM=C33 H37 N5 O5
##MW=583
##$NIST SOURCE=MSDC
##XUNITS=M/Z
##YUNITS=RELATIVE INTENSITY
##XFACTOR=1
##YFACTOR=1
##FIRSTX=38
##LASTX=321
##FIRSTY=30
##MAXX=321
##MINX=38
##MAXY=9999
##MINY=20
##NPOINTS=150
##PEAK TABLE=(XY..XY)
38,30 39,500 40,160 41,1000
42,510 43,610 44,290 45,40
48,60 50,90 51,310 52,110
53,80 54,100 55,320 56,100
57,20 62,50 63,290 64,160
65,1161 66,110 67,80 68,740
69,520 70,3853 71,190 72,20
74,30 75,60 76,80 77,540
78,340 79,160 80,40 81,130
82,50 83,70 84,20 89,310
90,190 91,4003 92,730 93,70
94,40 95,20 96,270 97,150
98,60 101,30 102,130 103,470
104,380 105,60 113,20 115,70
116,50 117,130 118,170 119,110
120,430 121,50 123,20 124,60
125,9999 126,680 127,250 128,430
129,80 130,60 131,730 132,150
134,30 135,20 139,40 140,30
141,40 142,20 143,20 144,210
145,40 146,110 147,20 151,50
152,310 153,5454 154,930 155,270
156,60 157,30 160,40 165,20
166,40 167,340 168,150 169,60
170,40 172,70 173,90 174,40
175,20 176,100 180,40 181,60
182,80 183,50 184,30 192,20
193,20 194,50 195,70 196,20
197,100 198,20 199,20 200,130
201,130 202,50 204,20 205,30
207,40 208,50 209,90 210,30
215,40 223,220 224,60 225,120
226,30 232,30 243,80 244,2632
245,420 246,40 250,30 251,170
252,50 253,20 268,20 269,280
270,70 271,70 272,20 286,20
293,30 295,20 296,30 314,150
315,20 321,40
##END=
