##TITLE=2-Phenanthrenol, 4b,5,6,7,8,8a,9,10-octahydro-4b,8,8-trimethyl-1-(1-methylethyl)-, (4bS-trans)-
##JCAMP-DX=4.24
##DATA TYPE=MASS SPECTRUM
##ORIGIN=R RYHAGE MS-LAB KAROLINSKA INSTITUTET STOCKHOLM SWEDEN
##OWNER=NIST Mass Spectrometry Data Center
Collection (C) 2014 copyright by the U.S. Secretary of Commerce
on behalf of the United States of America. All rights reserved.
##CAS REGISTRY NO=511-15-9
##$NIST MASS SPEC NO=42592
##MOLFORM=C20 H30 O
##MW=286
##$NIST SOURCE=MSDC
##XUNITS=M/Z
##YUNITS=RELATIVE INTENSITY
##XFACTOR=1
##YFACTOR=1
##FIRSTX=18
##LASTX=288
##FIRSTY=370
##MAXX=288
##MINX=18
##MAXY=9999
##MINY=100
##NPOINTS=136
##PEAK TABLE=(XY..XY)
18,370 27,400 29,510 39,470
40,110 41,1780 42,240 43,1400
44,140 51,140 53,330 55,1170
56,670 57,400 65,220 67,350
68,110 69,1820 70,180 77,450
78,150 79,450 80,120 81,440
82,170 83,650 84,120 85,280
89,100 91,1010 92,280 93,310
94,150 95,380 96,110 97,320
103,200 105,570 106,310 107,480
108,150 109,270 111,100 115,800
116,290 117,350 119,350 120,240
121,330 123,230 126,450 127,450
128,770 129,630 130,180 131,630
132,250 133,670 134,180 135,210
137,150 139,130 141,760 142,320
143,290 144,560 145,1160 146,290
147,790 148,190 149,240 151,100
152,360 153,450 154,210 155,340
156,120 157,770 158,570 159,1770
160,370 161,530 162,130 163,200
165,350 166,120 167,180 168,120
169,300 170,220 171,720 172,320
173,1070 174,240 175,6530 176,950
177,160 178,110 179,100 181,140
183,210 184,140 185,530 186,200
187,1240 188,400 189,2490 190,420
197,110 199,330 200,160 201,4090
202,1270 203,640 204,110 211,200
213,180 214,120 215,800 216,200
227,170 228,200 229,1070 230,260
243,640 244,160 255,210 256,120
257,360 258,150 271,9999 272,2580
273,360 286,3910 287,880 288,100
##END=
