##TITLE=Naphthalene, decahydro-1,1,4a-trimethyl-6-methylene-5-(3-methylene-4-pentenyl)-, [4aS-(4a.alpha.,5.alpha.,8a.beta.)]-
##JCAMP-DX=4.24
##DATA TYPE=MASS SPECTRUM
##OWNER=NIST Mass Spectrometry Data Center
Collection (C) 2014 copyright by the U.S. Secretary of Commerce
on behalf of the United States of America. All rights reserved.
##CAS REGISTRY NO=511-02-4
##$NIST MASS SPEC NO=13165
##MOLFORM=C20 H32
##MW=272
##$NIST SOURCE=MSDC
##XUNITS=M/Z
##YUNITS=RELATIVE INTENSITY
##XFACTOR=1
##YFACTOR=1
##FIRSTX=27
##LASTX=274
##FIRSTY=400
##MAXX=274
##MINX=27
##MAXY=9999
##MINY=60
##NPOINTS=147
##PEAK TABLE=(XY..XY)
27,400 28,160 29,751 39,470
40,90 41,2742 42,160 43,971
44,160 51,90 52,60 53,691
54,60 55,2242 56,160 57,370
65,370 66,120 67,1341 68,220
69,1621 70,120 71,160 77,931
78,220 79,1431 80,1031 81,2272
82,220 83,500 84,60 85,90
86,60 87,60 91,1812 92,340
93,1742 94,370 95,2022 96,160
97,310 100,120 101,60 103,160
104,120 105,2092 106,440 107,1812
108,440 109,1501 110,120 111,190
114,60 115,310 116,160 117,561
118,220 119,1682 120,470 121,1501
122,470 123,1001 124,120 125,60
127,90 128,280 129,370 130,160
131,751 132,250 133,1251 134,440
135,1151 136,901 137,370 138,60
141,120 142,120 143,280 144,120
145,721 146,190 147,1061 148,400
149,1742 150,250 151,60 152,60
153,60 155,90 156,60 157,190
158,120 159,621 160,190 161,1561
162,340 163,871 164,120 165,60
171,120 172,60 173,811 174,250
175,1061 176,691 177,220 178,60
185,120 186,60 187,1001 188,340
189,931 190,400 191,250 192,60
199,120 200,60 201,901 202,280
203,340 204,190 213,120 214,90
215,340 216,621 217,120 218,60
227,60 228,60 229,340 230,90
231,60 241,120 242,120 243,1061
244,340 245,90 255,160 256,190
257,9999 258,2152 259,280 271,60
272,2622 273,561 274,90
##END=
