##TITLE=Cyclohexaneethanol, .beta.,4-dimethyl-, cis-
##JCAMP-DX=4.24
##DATA TYPE=MASS SPECTRUM
##OWNER=NIST Mass Spectrometry Data Center
Collection (C) 2014 copyright by the U.S. Secretary of Commerce
on behalf of the United States of America. All rights reserved.
##CAS REGISTRY NO=5113-95-1
##$NIST MASS SPEC NO=5300
##MOLFORM=C10 H20 O
##MW=156
##$NIST SOURCE=MSDC
##XUNITS=M/Z
##YUNITS=RELATIVE INTENSITY
##XFACTOR=1
##YFACTOR=1
##FIRSTX=17
##LASTX=139
##FIRSTY=120
##MAXX=139
##MINX=17
##MAXY=9999
##MINY=50
##NPOINTS=57
##PEAK TABLE=(XY..XY)
17,120 26,60 27,1031 28,390
29,1692 30,90 31,1111 32,60
39,1251 40,240 41,3904 42,991
43,1111 45,160 51,140 52,70
53,671 54,851 55,9999 56,721
57,1291 58,1651 59,300 60,60
65,160 66,130 67,1742 68,1611
69,5805 70,490 71,300 74,100
77,200 78,70 79,310 80,120
81,4684 82,1251 83,2222 84,170
91,100 93,120 94,350 95,3453
96,4864 97,2983 98,240 107,50
109,781 110,340 113,120 123,891
124,140 125,671 126,60 138,1551
139,160
##END=
