##TITLE=Massoilactone
##JCAMP-DX=4.24
##DATA TYPE=MASS SPECTRUM
##OWNER=NIST Mass Spectrometry Data Center
Collection (C) 2014 copyright by the U.S. Secretary of Commerce
on behalf of the United States of America. All rights reserved.
##CAS REGISTRY NO=51154-96-2
##$NIST MASS SPEC NO=6448
##MOLFORM=C10 H16 O2
##MW=168
##$NIST SOURCE=MSDC
##XUNITS=M/Z
##YUNITS=RELATIVE INTENSITY
##XFACTOR=1
##YFACTOR=1
##FIRSTX=40
##LASTX=168
##FIRSTY=309
##MAXX=168
##MINX=40
##MAXY=9999
##MINY=73
##NPOINTS=28
##PEAK TABLE=(XY..XY)
40,309 41,1600 42,1091 43,2691
44,836 45,909 46,236 55,145
56,255 57,582 58,182 59,109
60,73 67,545 68,6727 69,2472
79,145 80,509 81,145 96,691
97,9999 98,691 99,454 106,145
107,691 108,182 167,182 168,327
##END=
