##TITLE=2,4-Imidazolidinedione, 5-(4-methylphenyl)-5-phenyl-
##JCAMP-DX=4.24
##DATA TYPE=MASS SPECTRUM
##ORIGIN=MASS SPECTROMETRY CENTER, UNIV. OF UTAH ALDRICH 16145-4
##OWNER=NIST Mass Spectrometry Data Center
Collection (C) 2014 copyright by the U.S. Secretary of Commerce
on behalf of the United States of America. All rights reserved.
##CAS REGISTRY NO=51169-17-6
##$NIST MASS SPEC NO=52690
##MOLFORM=C16 H14 N2 O2
##MW=266
##$NIST SOURCE=MSDC
##XUNITS=M/Z
##YUNITS=RELATIVE INTENSITY
##XFACTOR=1
##YFACTOR=1
##FIRSTX=12
##LASTX=268
##FIRSTY=41
##MAXX=268
##MINX=12
##MAXY=9999
##MINY=18
##NPOINTS=132
##PEAK TABLE=(XY..XY)
12,41 14,96 15,149 26,197
27,845 28,734 29,43 30,32
31,45 32,42 37,61 38,291
39,1955 40,323 41,415 42,147
43,269 45,111 49,32 50,1128
51,3111 52,789 53,251 54,33
61,58 62,484 63,1532 64,674
65,2837 66,280 70,796 73,33
74,440 75,650 76,2400 77,4627
78,1331 79,137 81,18 82,372
83,859 84,302 86,162 87,301
88,536 89,2955 90,2387 91,4381
92,858 93,171 96,144 97,910
98,107 99,89 100,48 101,99
102,353 103,435 104,4146 105,606
106,57 107,46 111,398 112,238
113,156 114,54 115,432 116,585
117,587 118,6227 119,841 120,85
126,234 127,234 128,218 129,35
130,256 131,39 132,48 139,427
140,139 141,42 144,48 145,168
146,132 147,1022 148,55 150,175
151,429 152,921 153,304 161,1142
162,179 163,273 164,304 165,3099
166,584 167,299 168,45 175,296
176,411 177,494 178,1606 179,1279
180,9999 181,1559 182,62 189,893
190,223 191,87 192,205 193,536
194,7115 195,799 196,226 206,81
207,54 208,4467 209,770 219,30
221,48 222,1410 223,6781 224,1137
225,52 236,69 237,7560 238,1776
239,234 266,6142 267,1153 268,114
##END=
