##TITLE=N-Acryloylmorpholine
##JCAMP-DX=4.24
##DATA TYPE=MASS SPECTRUM
##ORIGIN=NIST Mass Spectrometry Data Center
##OWNER=NIST Mass Spectrometry Data Center
Collection (C) 2014 copyright by the U.S. Secretary of Commerce
on behalf of the United States of America. All rights reserved.
##CAS REGISTRY NO=5117-12-4
##$NIST MASS SPEC NO=343320
##MOLFORM=C7 H11 N O2
##MW=141
##$NIST SOURCE=MSDC
##XUNITS=M/Z
##YUNITS=RELATIVE INTENSITY
##XFACTOR=1
##YFACTOR=1
##FIRSTX=12
##LASTX=143
##FIRSTY=20
##MAXX=143
##MINX=12
##MAXY=9999
##MINY=10
##NPOINTS=69
##PEAK TABLE=(XY..XY)
12,20 14,150 15,1051 16,30
18,40 19,30 24,10 26,1401
27,6536 28,4954 29,2402 30,1111
31,330 37,40 38,70 39,140
40,230 41,831 42,2823 43,450
44,300 45,200 50,20 51,40
52,130 53,320 55,9999 56,8027
57,1361 58,240 59,110 65,10
66,20 67,60 68,691 69,300
70,891 72,310 73,30 74,100
80,50 81,60 82,400 83,721
84,330 86,3413 87,250 88,10
94,50 96,1011 97,290 98,350
99,200 100,130 109,420 110,561
111,621 112,851 113,280 114,70
124,20 126,2342 127,150 128,10
139,10 140,611 141,1481 142,120
143,10
##END=
