##TITLE=2,4,4-Trimethyl-1-hexene
##JCAMP-DX=4.24
##DATA TYPE=MASS SPECTRUM
##ORIGIN=NIST Mass Spectrometry Data Center, 1990.
##OWNER=NIST Mass Spectrometry Data Center
Collection (C) 2014 copyright by the U.S. Secretary of Commerce
on behalf of the United States of America. All rights reserved.
##CAS REGISTRY NO=51174-12-0
##$NIST MASS SPEC NO=113498
##MOLFORM=C9 H18
##MW=126
##$NIST SOURCE=MSDC
##XUNITS=M/Z
##YUNITS=RELATIVE INTENSITY
##XFACTOR=1
##YFACTOR=1
##FIRSTX=27
##LASTX=126
##FIRSTY=1378
##MAXX=126
##MINX=27
##MAXY=9999
##MINY=116
##NPOINTS=30
##PEAK TABLE=(XY..XY)
27,1378 28,661 29,1553 39,2856
40,565 41,4064 42,816 43,8498
44,383 50,200 51,348 52,198
53,1151 55,5568 56,732 57,375
65,243 66,116 67,898 69,3558
70,6007 71,9999 72,591 77,283
79,334 81,456 82,178 97,1389
111,369 126,229
##END=
