##TITLE=Cyclopentolate
##JCAMP-DX=4.24
##DATA TYPE=MASS SPECTRUM
##ORIGIN=NIST Mass Spectrometry Data Center, 1998.
##OWNER=NIST Mass Spectrometry Data Center
Collection (C) 2014 copyright by the U.S. Secretary of Commerce
on behalf of the United States of America. All rights reserved.
##CAS REGISTRY NO=512-15-2
##$NIST MASS SPEC NO=292189
##MOLFORM=C17 H25 N O3
##MW=291
##$NIST SOURCE=MSDC
##XUNITS=M/Z
##YUNITS=RELATIVE INTENSITY
##XFACTOR=1
##YFACTOR=1
##FIRSTX=14
##LASTX=291
##FIRSTY=10
##MAXX=291
##MINX=14
##MAXY=9999
##MINY=10
##NPOINTS=114
##PEAK TABLE=(XY..XY)
14,10 15,70 26,70 27,250
28,400 29,340 30,310 31,50
32,10 37,40 38,80 39,390
40,90 41,790 42,1340 43,570
44,760 45,210 46,20 49,30
50,120 51,200 52,50 53,90
54,50 55,1190 56,850 57,640
58,9999 59,860 60,20 61,50
62,140 63,370 64,140 65,300
66,30 67,400 68,30 69,50
70,340 71,5499 72,3500 73,180
74,30 75,30 76,20 77,240
78,70 79,220 80,20 81,10
83,60 84,340 85,250 86,90
87,70 88,190 89,1480 90,1330
91,1240 92,100 93,10 97,10
101,10 102,30 103,100 104,40
105,100 106,20 107,80 108,10
113,10 114,10 115,170 116,50
117,100 118,1190 119,140 120,10
127,50 128,80 129,110 130,20
131,110 132,20 133,20 135,10
136,10 141,20 142,20 143,10
145,60 146,20 152,10 153,10
155,20 157,70 158,50 162,180
163,160 164,20 173,10 175,10
203,20 205,10 206,10 207,890
208,120 209,10 249,10 262,50
263,10 291,10
##END=
