##TITLE=Valdetamide
##JCAMP-DX=4.24
##DATA TYPE=MASS SPECTRUM
##ORIGIN=H.Maurer, J.Chromatogr.,530,307(1990)
##OWNER=NIST Mass Spectrometry Data Center
Collection (C) 2014 copyright by the U.S. Secretary of Commerce
on behalf of the United States of America. All rights reserved.
##CAS REGISTRY NO=512-48-1
##$NIST MASS SPEC NO=281533
##MOLFORM=C9 H17 N O
##MW=155
##$NIST SOURCE=MSDC
##XUNITS=M/Z
##YUNITS=RELATIVE INTENSITY
##XFACTOR=1
##YFACTOR=1
##FIRSTX=51
##LASTX=155
##FIRSTY=410
##MAXX=155
##MINX=51
##MAXY=9999
##MINY=40
##NPOINTS=60
##PEAK TABLE=(XY..XY)
51,410 52,220 53,1521 54,40
55,8488 56,671 57,1151 58,480
59,330 60,40 61,40 63,70
65,410 66,190 67,1411 68,40
69,9298 70,781 71,1041 72,450
73,410 74,40 76,40 77,300
78,70 79,480 80,110 81,1561
82,190 83,741 84,300 85,150
86,110 87,40 88,40 91,70
93,40 94,70 95,330 96,110
97,330 98,1121 99,110 100,300
108,260 109,520 110,260 111,520
112,2863 113,370 114,781 115,40
125,300 126,9999 127,3383 128,190
139,70 140,2382 141,190 155,40
##END=
