##TITLE=Heptanoic acid, 2-methyl-, methyl ester
##JCAMP-DX=4.24
##DATA TYPE=MASS SPECTRUM
##ORIGIN=D.HENNEBERG, MAX-PLANCK INSTITUTE, MULHEIM, WEST GERMANY
##OWNER=NIST Mass Spectrometry Data Center
Collection (C) 2014 copyright by the U.S. Secretary of Commerce
on behalf of the United States of America. All rights reserved.
##CAS REGISTRY NO=51209-78-0
##$NIST MASS SPEC NO=62442
##MOLFORM=C9 H18 O2
##MW=158
##$NIST SOURCE=MSDC
##XUNITS=M/Z
##YUNITS=RELATIVE INTENSITY
##XFACTOR=1
##YFACTOR=1
##FIRSTX=26
##LASTX=158
##FIRSTY=149
##MAXX=158
##MINX=26
##MAXY=9999
##MINY=9
##NPOINTS=56
##PEAK TABLE=(XY..XY)
26,149 27,1982 28,786 29,2241
30,79 31,39 32,29 33,19
37,59 38,189 39,1683 40,328
41,3366 42,1195 43,2061 44,69
45,328 50,29 51,89 52,39
53,298 54,109 55,1563 56,985
57,3794 58,199 59,1643 60,59
61,29 65,19 67,69 68,49
69,617 70,119 71,69 73,258
74,278 83,129 84,129 85,9
87,786 88,9999 89,39 97,79
98,119 99,189 100,9 101,2181
102,169 115,567 116,29 127,428
128,19 129,29 143,99 158,39
##END=
