##TITLE=tert-C4H9C(O)OCH(CH3)2
##JCAMP-DX=4.24
##DATA TYPE=MASS SPECTRUM
##ORIGIN=V.G. Zaikin, TIPS RAS, Moscow, Russia
##OWNER=NIST Mass Spectrometry Data Center
Collection (C) 2014 copyright by the U.S. Secretary of Commerce
on behalf of the United States of America. All rights reserved.
##CAS REGISTRY NO=5129-36-2
##$NIST MASS SPEC NO=278905
##MOLFORM=C8 H16 O2
##MW=144
##$NIST SOURCE=MSDC
##XUNITS=M/Z
##YUNITS=RELATIVE INTENSITY
##XFACTOR=1
##YFACTOR=1
##FIRSTX=26
##LASTX=145
##FIRSTY=350
##MAXX=145
##MINX=26
##MAXY=9999
##MINY=30
##NPOINTS=39
##PEAK TABLE=(XY..XY)
26,350 27,1311 28,30 29,1571
31,60 36,30 37,150 38,210
39,1722 40,380 41,3974 42,651
43,3383 44,290 45,190 49,80
50,380 51,490 52,751 53,190
54,30 55,250 56,591 57,9999
58,520 59,811 69,60 70,120
71,80 75,30 85,711 87,290
101,80 103,250 128,60 129,991
130,130 144,450 145,80
##END=
