##TITLE=aS-Triazino[6,5-c]quinoline, 2-amino-
##JCAMP-DX=4.24
##DATA TYPE=MASS SPECTRUM
##ORIGIN=ASES Database, Dalian Institute, P.R. China
##OWNER=NIST Mass Spectrometry Data Center
Collection (C) 2014 copyright by the U.S. Secretary of Commerce
on behalf of the United States of America. All rights reserved.
##CAS REGISTRY NO=51294-37-2
##$NIST MASS SPEC NO=147492
##MOLFORM=C10 H7 N5
##MW=197
##$NIST SOURCE=MSDC
##XUNITS=M/Z
##YUNITS=RELATIVE INTENSITY
##XFACTOR=1
##YFACTOR=1
##FIRSTX=41
##LASTX=199
##FIRSTY=320
##MAXX=199
##MINX=41
##MAXY=9999
##MINY=60
##NPOINTS=37
##PEAK TABLE=(XY..XY)
41,320 43,220 45,320 50,1391
51,720 52,590 62,660 63,840
64,370 71,200 74,1321 75,920
76,1631 77,500 87,550 88,520
99,390 100,1881 101,600 102,570
103,190 104,720 114,980 115,710
126,90 127,4944 128,520 129,390
141,620 142,1331 143,270 168,670
169,7827 170,890 197,9999 198,1101
199,60
##END=
