##TITLE=Heptadecanoic acid, 16-methyl-, methyl ester
##JCAMP-DX=4.24
##DATA TYPE=MASS SPECTRUM
##ORIGIN=R. RYHAGE KAROLINSKA INSTITUTET, STOCKHOLM
##OWNER=NIST Mass Spectrometry Data Center
Collection (C) 2014 copyright by the U.S. Secretary of Commerce
on behalf of the United States of America. All rights reserved.
##CAS REGISTRY NO=5129-61-3
##$NIST MASS SPEC NO=23226
##MOLFORM=C19 H38 O2
##MW=298
##$NIST SOURCE=MSDC
##XUNITS=M/Z
##YUNITS=RELATIVE INTENSITY
##XFACTOR=1
##YFACTOR=1
##FIRSTX=15
##LASTX=300
##FIRSTY=40
##MAXX=300
##MINX=15
##MAXY=9999
##MINY=20
##NPOINTS=165
##PEAK TABLE=(XY..XY)
15,40 17,100 18,340 26,20
27,130 28,90 29,280 31,30
39,130 40,40 41,1000 42,260
43,2000 44,490 45,70 53,80
54,140 55,1700 56,620 57,1800
58,140 59,520 60,90 61,60
64,30 65,30 66,20 67,350
68,210 69,1700 70,430 71,980
72,80 73,270 74,9999 75,2300
76,140 77,70 78,20 79,110
80,50 81,440 82,210 83,1400
84,490 85,610 86,50 87,7600
88,750 89,80 93,100 94,50
95,340 96,190 97,1100 98,440
99,190 100,100 101,750 102,100
103,20 106,20 107,100 108,30
109,250 110,100 111,540 112,170
113,120 114,40 115,270 116,120
117,30 120,20 121,140 122,50
123,150 124,60 125,260 126,70
127,60 128,20 129,650 130,170
131,30 135,130 136,30 137,90
138,40 139,150 140,40 141,40
143,1500 144,170 145,30 151,50
152,30 153,100 154,30 155,30
157,220 158,40 163,60 164,20
165,30 166,30 167,100 168,30
169,20 171,110 172,30 177,40
179,20 180,20 181,50 182,20
183,20 185,230 186,60 191,30
193,20 195,30 196,20 197,20
198,30 199,360 200,80 201,40
202,90 207,30 209,30 213,180
214,40 222,30 223,40 224,40
225,20 227,70 228,20 233,30
237,20 241,130 242,50 243,40
249,50 250,20 251,50 255,800
256,170 257,30 264,20 265,30
266,20 267,200 268,20 269,140
270,30 279,20 283,20 284,20
285,20 297,20 298,1500 299,330
300,40
##END=
