##TITLE=Propyl 2-ethylbutanoate
##JCAMP-DX=4.24
##DATA TYPE=MASS SPECTRUM
##ORIGIN=NIST Mass Spectrometry Data Center, 1990.
##OWNER=NIST Mass Spectrometry Data Center
Collection (C) 2014 copyright by the U.S. Secretary of Commerce
on behalf of the United States of America. All rights reserved.
##CAS REGISTRY NO=5129-46-4
##$NIST MASS SPEC NO=114727
##MOLFORM=C9 H18 O2
##MW=158
##$NIST SOURCE=MSDC
##XUNITS=M/Z
##YUNITS=RELATIVE INTENSITY
##XFACTOR=1
##YFACTOR=1
##FIRSTX=26
##LASTX=131
##FIRSTY=223
##MAXX=131
##MINX=26
##MAXY=9999
##MINY=77
##NPOINTS=42
##PEAK TABLE=(XY..XY)
26,223 27,2030 28,346 29,1701
30,111 31,242 39,1816 40,439
41,4281 42,1573 43,9999 44,355
45,369 47,113 53,317 55,3026
56,222 57,943 58,97 59,439
68,97 69,687 70,1395 71,8138
72,575 73,2080 74,144 75,139
83,161 85,77 87,2889 88,3831
89,1665 99,6241 100,447 101,563
115,174 117,7203 118,463 129,429
130,1846 131,155
##END=
