##TITLE=Pivalic acid, 2-methylpropyl ester
##JCAMP-DX=4.24
##DATA TYPE=MASS SPECTRUM
##ORIGIN=V.Zaikin,Topchiev Inst.Petrochem.Synth.,Moscow
##OWNER=NIST Mass Spectrometry Data Center
Collection (C) 2014 copyright by the U.S. Secretary of Commerce
on behalf of the United States of America. All rights reserved.
##CAS REGISTRY NO=5129-38-4
##$NIST MASS SPEC NO=282339
##MOLFORM=C9 H18 O2
##MW=158
##$NIST SOURCE=MSDC
##XUNITS=M/Z
##YUNITS=RELATIVE INTENSITY
##XFACTOR=1
##YFACTOR=1
##FIRSTX=22
##LASTX=143
##FIRSTY=20
##MAXX=143
##MINX=22
##MAXY=9999
##MINY=10
##NPOINTS=58
##PEAK TABLE=(XY..XY)
22,20 25,20 26,190 27,300
28,110 29,811 30,20 31,40
35,80 36,591 37,40 38,180
39,611 40,180 41,2072 42,250
43,220 44,20 45,30 49,60
50,330 51,480 52,1041 53,180
54,30 55,260 56,2472 57,9999
58,520 59,300 60,10 69,70
70,130 71,220 72,30 73,100
75,40 76,30 77,20 78,250
79,1932 80,120 82,10 83,10
85,3773 86,240 87,380 88,20
96,20 101,30 102,50 103,3363
104,230 105,20 115,280 116,20
133,10 143,30
##END=
