##TITLE=Propanoic acid, 2,2-dimethyl-, butyl ester
##JCAMP-DX=4.24
##DATA TYPE=MASS SPECTRUM
##ORIGIN=V.G. Zaikin, TIPS RAS, Moscow, Russia
##OWNER=NIST Mass Spectrometry Data Center
Collection (C) 2014 copyright by the U.S. Secretary of Commerce
on behalf of the United States of America. All rights reserved.
##CAS REGISTRY NO=5129-37-3
##$NIST MASS SPEC NO=278929
##MOLFORM=C9 H18 O2
##MW=158
##$NIST SOURCE=MSDC
##XUNITS=M/Z
##YUNITS=RELATIVE INTENSITY
##XFACTOR=1
##YFACTOR=1
##FIRSTX=26
##LASTX=115
##FIRSTY=190
##MAXX=115
##MINX=26
##MAXY=9999
##MINY=30
##NPOINTS=31
##PEAK TABLE=(XY..XY)
26,190 27,1011 28,90 29,2122
30,80 31,30 37,30 38,130
39,1191 40,280 41,3373 42,420
43,350 44,180 45,80 50,150
51,220 52,280 53,150 55,390
56,1571 57,9999 58,450 59,561
70,60 85,1311 86,60 87,310
103,1882 104,110 115,180
##END=
