##TITLE=Tridecanoic acid, 12-methyl-, methyl ester
##JCAMP-DX=4.24
##DATA TYPE=MASS SPECTRUM
##ORIGIN=NIST Mass Spectrometry Data Center
##OWNER=NIST Mass Spectrometry Data Center
Collection (C) 2014 copyright by the U.S. Secretary of Commerce
on behalf of the United States of America. All rights reserved.
##CAS REGISTRY NO=5129-58-8
##$NIST MASS SPEC NO=352207
##MOLFORM=C15 H30 O2
##MW=242
##$NIST SOURCE=MSDC
##XUNITS=M/Z
##YUNITS=RELATIVE INTENSITY
##XFACTOR=1
##YFACTOR=1
##FIRSTX=15
##LASTX=244
##FIRSTY=90
##MAXX=244
##MINX=15
##MAXY=9999
##MINY=10
##NPOINTS=135
##PEAK TABLE=(XY..XY)
15,90 26,10 27,390 28,100
29,771 30,20 31,40 33,10
38,10 39,480 40,120 41,3183
42,771 43,4704 44,170 45,170
51,20 52,10 53,260 54,240
55,3593 56,791 57,1902 58,120
59,1251 60,40 61,30 63,10
65,50 66,20 67,370 68,150
69,1561 70,250 71,490 72,40
73,260 74,9999 75,1481 76,90
77,30 78,10 79,110 80,30
81,290 82,110 83,1001 84,340
85,270 87,6996 88,601 89,50
91,20 93,100 94,20 95,260
96,80 97,891 98,310 99,70
100,30 101,721 102,70 103,10
105,10 107,80 108,20 109,140
110,60 111,360 112,110 113,40
114,10 115,200 116,90 117,10
121,90 122,10 123,80 124,30
125,140 126,30 127,10 129,651
130,160 131,20 135,70 136,10
137,50 138,10 139,60 140,30
141,10 143,1651 144,170 145,10
149,70 150,10 151,20 153,40
154,10 157,390 158,40 159,10
166,20 167,40 168,20 169,10
171,130 172,20 177,70 178,10
185,300 186,50 187,30 191,10
192,10 193,20 195,40 196,10
199,2192 200,310 201,50 209,20
211,250 212,40 213,190 214,20
215,10 227,20 228,10 241,10
242,280 243,60 244,10
##END=
