##TITLE=2-Butanamine, (S)-
##JCAMP-DX=4.24
##DATA TYPE=MASS SPECTRUM
##ORIGIN=Chuck Anderson, Aldrich Chemical Co.
##OWNER=NIST Mass Spectrometry Data Center
Collection (C) 2014 copyright by the U.S. Secretary of Commerce
on behalf of the United States of America. All rights reserved.
##CAS REGISTRY NO=513-49-5
##$NIST MASS SPEC NO=107947
##MOLFORM=C4 H11 N
##MW=73
##$NIST SOURCE=MSDC
##XUNITS=M/Z
##YUNITS=RELATIVE INTENSITY
##XFACTOR=1
##YFACTOR=1
##FIRSTX=14
##LASTX=75
##FIRSTY=22
##MAXX=75
##MINX=14
##MAXY=9999
##MINY=4
##NPOINTS=44
##PEAK TABLE=(XY..XY)
14,22 15,283 16,7 17,25
18,1473 19,5 25,10 26,189
27,956 28,1095 29,547 30,894
31,13 32,10 33,5 36,4
37,27 38,65 39,387 40,148
41,1458 42,1087 43,457 44,9999
45,324 46,4 49,7 50,37
51,49 52,49 53,65 54,93
55,347 56,358 57,221 58,1473
59,58 68,7 70,73 71,10
72,405 73,160 74,127 75,5
##END=
