##TITLE=2-Propanone, 1,1-dichloro-
##JCAMP-DX=4.24
##DATA TYPE=MASS SPECTRUM
##ORIGIN=Japan AIST/NIMC Database- Spectrum MS-IW-6297
##OWNER=NIST Mass Spectrometry Data Center
Collection (C) 2014 copyright by the U.S. Secretary of Commerce
on behalf of the United States of America. All rights reserved.
##CAS REGISTRY NO=513-88-2
##$NIST MASS SPEC NO=238583
##MOLFORM=C3 H4 Cl2 O
##MW=126
##$NIST SOURCE=MSDC
##XUNITS=M/Z
##YUNITS=RELATIVE INTENSITY
##XFACTOR=1
##YFACTOR=1
##FIRSTX=12
##LASTX=128
##FIRSTY=10
##MAXX=128
##MINX=12
##MAXY=9999
##MINY=10
##NPOINTS=54
##PEAK TABLE=(XY..XY)
12,10 13,30 14,90 15,1209
16,10 24,10 25,60 26,219
27,839 28,99 29,80 35,50
36,109 37,90 38,90 39,70
40,10 41,80 42,319 43,9999
44,349 45,40 47,159 48,279
49,179 50,90 51,40 53,20
55,20 60,40 61,80 62,90
63,579 64,30 65,179 73,10
75,10 76,179 77,30 78,60
79,10 82,30 83,599 84,30
85,389 87,60 91,319 92,20
93,99 97,10 125,20 126,50
127,20 128,30
##END=
