##TITLE=Tripropyl phosphate
##JCAMP-DX=4.24
##DATA TYPE=MASS SPECTRUM
##ORIGIN=NIST Mass Spectrometry Data Center, 2009
##OWNER=NIST Mass Spectrometry Data Center
Collection (C) 2014 copyright by the U.S. Secretary of Commerce
on behalf of the United States of America. All rights reserved.
##CAS REGISTRY NO=513-08-6
##$NIST MASS SPEC NO=373078
##MOLFORM=C9 H21 O4 P
##MW=224
##$NIST SOURCE=MSDC
##XUNITS=M/Z
##YUNITS=RELATIVE INTENSITY
##XFACTOR=1
##YFACTOR=1
##FIRSTX=15
##LASTX=224
##FIRSTY=10
##MAXX=224
##MINX=15
##MAXY=9999
##MINY=10
##NPOINTS=80
##PEAK TABLE=(XY..XY)
15,10 26,20 27,380 28,70
29,210 30,20 31,100 37,10
38,20 39,270 40,60 41,1121
42,300 43,2062 44,90 45,50
47,40 54,20 55,40 56,10
57,100 58,40 59,120 61,10
63,10 65,120 71,10 73,10
77,20 79,10 81,250 82,340
83,160 91,10 93,40 94,10
95,30 96,30 97,10 98,330
99,9999 100,20 101,90 105,100
106,10 107,30 108,10 109,20
111,761 112,270 113,340 114,10
121,10 123,1621 124,70 125,951
126,20 127,10 137,20 138,30
139,400 140,420 141,2953 142,100
143,20 151,10 153,641 154,30
155,70 165,30 167,60 181,30
182,70 183,1041 184,70 185,10
195,40 209,20 223,10 224,20
##END=
