##TITLE=Bicyclo[3.1.0]hexan-3-ol, 4-methyl-1-(1-methylethyl)-
##JCAMP-DX=4.24
##DATA TYPE=MASS SPECTRUM
##ORIGIN=RESEARCH LABORATORY, STATE ALCOHOL MONOPOLY ALKO, HELSINKI, FINLAND; IRMA NYKANEN ET AL
##OWNER=NIST Mass Spectrometry Data Center
Collection (C) 2014 copyright by the U.S. Secretary of Commerce
on behalf of the United States of America. All rights reserved.
##CAS REGISTRY NO=513-23-5
##$NIST MASS SPEC NO=77585
##MOLFORM=C10 H18 O
##MW=154
##$NIST SOURCE=MSDC
##XUNITS=M/Z
##YUNITS=RELATIVE INTENSITY
##XFACTOR=1
##YFACTOR=1
##FIRSTX=26
##LASTX=155
##FIRSTY=137
##MAXX=155
##MINX=26
##MAXY=9999
##MINY=8
##NPOINTS=82
##PEAK TABLE=(XY..XY)
26,137 27,2689 28,1017 29,2689
30,137 31,413 37,34 38,137
39,3000 40,517 41,8827 42,931
43,9999 44,379 45,655 50,137
51,620 52,310 53,2206 54,758
55,8896 56,1034 57,1517 58,1586
59,275 61,34 62,34 63,172
64,34 65,862 66,379 67,5344
68,2689 69,3655 70,2655 71,1655
72,206 77,2000 78,344 79,5000
80,965 81,6758 82,1103 83,1482
84,551 85,206 89,68 91,1862
92,2000 93,8344 94,1551 95,7551
96,1137 97,827 98,172 99,275
103,68 105,482 106,275 107,2068
108,344 109,862 110,3206 111,931
112,172 113,34 115,34 117,34
119,310 121,3689 122,413 123,34
124,34 125,34 134,68 135,68
136,1103 137,172 138,34 139,34
154,68 155,8
##END=
