##TITLE=Bicyclo[3.1.0]hexan-2-one, 5-(1-methylethyl)-
##JCAMP-DX=4.24
##DATA TYPE=MASS SPECTRUM
##ORIGIN=NIST Mass Spectrometry Data Center, 2010
##OWNER=NIST Mass Spectrometry Data Center
Collection (C) 2014 copyright by the U.S. Secretary of Commerce
on behalf of the United States of America. All rights reserved.
##CAS REGISTRY NO=513-20-2
##$NIST MASS SPEC NO=384136
##MOLFORM=C9 H14 O
##MW=138
##$NIST SOURCE=MSDC
##XUNITS=M/Z
##YUNITS=RELATIVE INTENSITY
##XFACTOR=1
##YFACTOR=1
##FIRSTX=26
##LASTX=139
##FIRSTY=50
##MAXX=139
##MINX=26
##MAXY=9999
##MINY=30
##NPOINTS=59
##PEAK TABLE=(XY..XY)
26,50 27,961 29,220 31,50
37,50 38,270 39,2342 40,470
41,3113 42,460 43,1692 44,80
46,40 47,50 50,360 51,701
52,380 53,1531 54,811 55,4254
56,561 57,130 61,90 62,130
63,350 64,70 65,1071 66,731
67,5385 68,1972 69,961 70,1001
72,50 77,931 78,270 79,2172
80,310 81,9999 82,1972 83,1281
84,100 91,350 92,230 94,1071
95,5865 96,6496 97,1922 98,70
103,40 104,30 105,480 109,1001
110,741 113,30 120,540 123,1742
124,190 138,1161 139,60
##END=
