##TITLE=Butane, 2-iodo-
##JCAMP-DX=4.24
##DATA TYPE=MASS SPECTRUM
##ORIGIN=Japan AIST/NIMC Database- Spectrum MS-NW-8320
##OWNER=NIST Mass Spectrometry Data Center
Collection (C) 2014 copyright by the U.S. Secretary of Commerce
on behalf of the United States of America. All rights reserved.
##CAS REGISTRY NO=513-48-4
##$NIST MASS SPEC NO=235816
##MOLFORM=C4 H9 I
##MW=184
##$NIST SOURCE=MSDC
##XUNITS=M/Z
##YUNITS=RELATIVE INTENSITY
##XFACTOR=1
##YFACTOR=1
##FIRSTX=14
##LASTX=185
##FIRSTY=10
##MAXX=185
##MINX=14
##MAXY=9999
##MINY=10
##NPOINTS=29
##PEAK TABLE=(XY..XY)
14,10 15,60 26,159 27,1269
28,389 29,5389 30,119 37,30
38,70 39,1109 40,129 41,4679
42,339 43,99 51,70 52,20
53,139 54,40 55,439 56,199
57,9999 58,449 59,10 127,389
128,159 141,10 155,50 184,1129
185,50
##END=
