##TITLE=2-Butanethiol
##JCAMP-DX=4.24
##DATA TYPE=MASS SPECTRUM
##ORIGIN=Japan AIST/NIMC Database- Spectrum MS-NW-3790
##OWNER=NIST Mass Spectrometry Data Center
Collection (C) 2014 copyright by the U.S. Secretary of Commerce
on behalf of the United States of America. All rights reserved.
##CAS REGISTRY NO=513-53-1
##$NIST MASS SPEC NO=231052
##MOLFORM=C4 H10 S
##MW=90
##$NIST SOURCE=MSDC
##XUNITS=M/Z
##YUNITS=RELATIVE INTENSITY
##XFACTOR=1
##YFACTOR=1
##FIRSTX=14
##LASTX=93
##FIRSTY=20
##MAXX=93
##MINX=14
##MAXY=9999
##MINY=10
##NPOINTS=57
##PEAK TABLE=(XY..XY)
14,20 15,189 25,20 26,359
27,2749 28,689 29,7099 30,159
32,70 33,159 34,169 35,959
36,20 37,109 38,179 39,1799
40,249 41,9629 42,649 43,409
44,119 45,809 46,189 47,1359
48,80 49,129 50,189 51,179
52,50 53,289 54,80 55,1249
56,2099 57,9999 58,469 59,789
60,1249 61,7949 62,339 63,369
64,10 68,10 69,60 70,10
71,80 72,10 73,80 74,50
75,549 76,40 77,20 88,20
89,50 90,7509 91,409 92,349
93,20
##END=
