##TITLE=2-N-Carbobutoxyphenyl isocyanate
##JCAMP-DX=4.24
##DATA TYPE=MASS SPECTRUM
##ORIGIN=NIST Mass Spectrometry Data Center, 1994
##OWNER=NIST Mass Spectrometry Data Center
Collection (C) 2014 copyright by the U.S. Secretary of Commerce
on behalf of the United States of America. All rights reserved.
##CAS REGISTRY NO=51310-19-1
##$NIST MASS SPEC NO=134693
##MOLFORM=C12 H13 N O3
##MW=219
##$NIST SOURCE=MSDC
##XUNITS=M/Z
##YUNITS=RELATIVE INTENSITY
##XFACTOR=1
##YFACTOR=1
##FIRSTX=14
##LASTX=220
##FIRSTY=66
##MAXX=220
##MINX=14
##MAXY=9999
##MINY=28
##NPOINTS=70
##PEAK TABLE=(XY..XY)
14,66 15,199 18,33 26,293
27,2411 28,961 29,3985 30,142
31,96 37,372 38,688 39,3189
40,366 41,2951 42,207 43,327
44,80 45,92 49,50 50,456
51,394 52,441 53,257 54,65
55,588 56,1282 57,566 58,33
61,144 62,560 63,2049 64,1597
65,268 66,70 73,82 74,107
75,134 76,248 77,125 78,96
79,386 80,52 87,48 88,162
90,6672 91,819 92,722 93,69
102,37 104,47 105,28 106,45
107,61 117,129 118,666 119,5628
120,505 121,47 135,92 146,9999
147,928 148,100 163,6191 164,1114
165,116 174,28 175,113 176,47
219,1043 220,139
##END=
