##TITLE=Ditalimfos
##JCAMP-DX=4.24
##DATA TYPE=MASS SPECTRUM
##ORIGIN=S.M. Lee, CA Export Lab. Services, CA, USA
##OWNER=NIST Mass Spectrometry Data Center
Collection (C) 2014 copyright by the U.S. Secretary of Commerce
on behalf of the United States of America. All rights reserved.
##CAS REGISTRY NO=5131-24-8
##$NIST MASS SPEC NO=290186
##MOLFORM=C12 H14 N O4 P S
##MW=299
##$NIST SOURCE=MSDC
##XUNITS=M/Z
##YUNITS=RELATIVE INTENSITY
##XFACTOR=1
##YFACTOR=1
##FIRSTX=51
##LASTX=302
##FIRSTY=210
##MAXX=302
##MINX=51
##MAXY=9999
##MINY=10
##NPOINTS=135
##PEAK TABLE=(XY..XY)
51,210 52,40 53,30 54,10
59,20 60,20 61,30 62,60
63,230 64,120 65,350 66,20
69,40 70,40 71,10 73,40
74,270 75,550 76,1802 77,330
78,60 79,80 80,80 81,30
82,20 89,20 90,340 91,90
92,60 93,80 94,20 95,30
96,80 97,450 98,10 99,30
100,20 101,90 102,2933 103,611
104,881 105,290 106,220 107,60
108,130 109,30 110,20 118,40
119,20 120,10 121,40 122,110
123,60 124,20 125,30 126,10
127,10 130,9999 131,891 132,110
133,20 134,150 135,60 136,70
137,20 138,10 139,60 140,40
141,10 146,40 148,3894 149,380
150,120 151,30 162,370 163,100
164,30 165,50 166,20 167,20
168,10 174,30 175,20 176,40
177,20 178,60 179,50 180,10
183,30 184,10 194,2312 195,220
196,30 197,10 207,20 209,2833
210,340 211,330 212,60 213,10
222,741 223,90 224,20 225,40
226,390 227,440 228,70 229,20
230,10 238,90 239,20 240,30
242,320 243,2722 244,781 245,200
246,40 247,10 254,130 255,350
256,60 257,20 258,10 267,40
268,10 270,90 271,1161 272,270
273,80 274,10 284,20 299,2883
300,430 301,190 302,20
##END=
