##TITLE=Diclofop methyl
##JCAMP-DX=4.24
##DATA TYPE=MASS SPECTRUM
##ORIGIN=NIST Mass Spectrometry Data Center, 1998.
##OWNER=NIST Mass Spectrometry Data Center
Collection (C) 2014 copyright by the U.S. Secretary of Commerce
on behalf of the United States of America. All rights reserved.
##CAS REGISTRY NO=51338-27-3
##$NIST MASS SPEC NO=291668
##MOLFORM=C16 H14 Cl2 O4
##MW=340
##$NIST SOURCE=MSDC
##XUNITS=M/Z
##YUNITS=RELATIVE INTENSITY
##XFACTOR=1
##YFACTOR=1
##FIRSTX=15
##LASTX=345
##FIRSTY=670
##MAXX=345
##MINX=15
##MAXY=9999
##MINY=40
##NPOINTS=138
##PEAK TABLE=(XY..XY)
15,670 26,230 27,710 28,440
29,440 31,250 36,70 38,360
39,590 41,250 43,840 45,290
50,1380 51,690 52,350 53,580
54,550 55,1190 56,290 59,3180
61,150 62,500 63,2580 64,1860
65,1160 66,130 69,150 73,360
74,1010 75,1660 76,1360 77,550
78,130 79,380 80,210 81,600
82,370 83,90 84,240 85,290
86,140 87,690 89,150 91,1020
92,1240 93,270 95,70 97,210
98,200 99,290 100,80 101,220
102,130 107,310 108,210 109,3370
110,840 111,890 112,260 113,210
115,150 119,480 120,5379 121,650
123,150 125,160 126,820 127,1090
128,550 133,1080 135,870 136,520
137,430 138,490 139,2110 140,1270
141,880 142,150 145,1570 146,340
147,990 148,270 149,480 155,1080
156,130 159,150 161,1790 162,3920
163,1380 164,1300 165,390 167,40
173,930 174,280 175,380 176,80
182,60 183,820 184,3180 185,860
189,550 190,890 191,650 192,400
193,230 197,210 199,180 201,140
202,1540 203,310 204,520 209,400
211,320 217,220 218,700 219,480
220,200 221,90 225,240 227,200
253,9999 254,4830 255,6909 256,3090
257,1300 258,480 280,270 281,4260
282,800 283,2820 284,490 285,570
340,8009 341,1430 342,5139 343,970
344,930 345,100
##END=
