##TITLE=1,3-Cyclohexadiene, 1,2,6,6-tetramethyl-
##JCAMP-DX=4.24
##DATA TYPE=MASS SPECTRUM
##ORIGIN=ALLIED CHEMICAL CORP., GLENOLDEN, PA, USA
##OWNER=NIST Mass Spectrometry Data Center
Collection (C) 2014 copyright by the U.S. Secretary of Commerce
on behalf of the United States of America. All rights reserved.
##CAS REGISTRY NO=514-96-5
##$NIST MASS SPEC NO=25882
##MOLFORM=C10 H16
##MW=136
##$NIST SOURCE=MSDC
##XUNITS=M/Z
##YUNITS=RELATIVE INTENSITY
##XFACTOR=1
##YFACTOR=1
##FIRSTX=27
##LASTX=137
##FIRSTY=1723
##MAXX=137
##MINX=27
##MAXY=9999
##MINY=46
##NPOINTS=62
##PEAK TABLE=(XY..XY)
27,1723 28,341 29,649 37,60
38,206 39,2084 40,305 41,1522
42,105 43,269 50,293 51,825
52,328 53,775 54,86 55,331
57,186 58,115 59,104 60,46
62,107 63,338 64,108 65,617
66,146 67,263 68,71 69,81
74,60 75,95 76,69 77,1414
78,412 79,1245 80,171 81,130
90,98 91,1819 92,408 93,1221
94,198 95,90 102,112 103,416
104,268 105,3815 106,955 107,601
108,91 109,59 115,124 116,72
117,147 118,102 119,722 120,400
121,9999 122,1047 123,51 135,48
136,2137 137,253
##END=
