##TITLE=Ferruginol
##JCAMP-DX=4.24
##DATA TYPE=MASS SPECTRUM
##ORIGIN=NIST Mass Spectrometry Data Center
##OWNER=NIST Mass Spectrometry Data Center
Collection (C) 2014 copyright by the U.S. Secretary of Commerce
on behalf of the United States of America. All rights reserved.
##CAS REGISTRY NO=514-62-5
##$NIST MASS SPEC NO=413241
##MOLFORM=C20 H30 O
##MW=286
##$NIST SOURCE=MSDC
##XUNITS=M/Z
##YUNITS=RELATIVE INTENSITY
##XFACTOR=1
##YFACTOR=1
##FIRSTX=27
##LASTX=288
##FIRSTY=180
##MAXX=288
##MINX=27
##MAXY=9999
##MINY=40
##NPOINTS=153
##PEAK TABLE=(XY..XY)
27,180 29,240 39,200 40,110
41,1922 42,70 43,1511 51,270
53,370 54,60 55,1631 56,661
57,190 59,40 64,150 65,240
67,821 69,5305 70,470 71,160
75,180 76,110 77,500 78,230
79,380 81,430 82,170 83,931
85,280 86,100 89,150 91,771
92,120 95,270 97,360 98,130
99,120 100,140 101,50 102,80
103,290 105,561 106,220 107,791
108,80 109,190 113,50 115,1822
116,490 117,540 118,140 119,340
120,160 121,691 126,40 127,1011
128,1672 129,1291 130,370 131,1031
132,360 133,1661 134,190 135,340
137,140 139,200 140,50 141,1281
142,380 143,370 144,400 145,1621
146,360 147,2512 148,340 149,3203
150,370 151,100 152,641 153,971
154,370 155,631 156,60 157,941
158,581 159,1591 160,200 161,921
162,550 163,1471 164,240 165,430
166,200 167,230 168,180 169,290
170,260 171,631 172,370 173,1451
174,290 175,6756 176,991 177,380
178,180 179,150 182,40 183,190
184,150 185,741 186,390 187,2152
188,500 189,6486 190,1071 191,120
192,120 194,60 195,180 197,70
198,60 199,290 200,80 201,5465
202,1061 203,1071 205,160 208,110
210,50 211,210 213,460 214,50
215,1601 216,290 217,50 227,230
228,200 229,1411 230,350 239,90
240,40 243,681 244,120 255,120
270,70 271,9569 272,1972 273,270
284,120 285,230 286,9999 287,1912
288,220
##END=
