##TITLE=6,10-Dodecadien-1-ol, 3,7,11-trimethyl-
##JCAMP-DX=4.24
##DATA TYPE=MASS SPECTRUM
##OWNER=NIST Mass Spectrometry Data Center
Collection (C) 2014 copyright by the U.S. Secretary of Commerce
on behalf of the United States of America. All rights reserved.
##CAS REGISTRY NO=51411-24-6
##$NIST MASS SPEC NO=10593
##MOLFORM=C15 H28 O
##MW=224
##$NIST SOURCE=MSDC
##XUNITS=M/Z
##YUNITS=RELATIVE INTENSITY
##XFACTOR=1
##YFACTOR=1
##FIRSTX=27
##LASTX=225
##FIRSTY=598
##MAXX=225
##MINX=27
##MAXY=9999
##MINY=20
##NPOINTS=70
##PEAK TABLE=(XY..XY)
27,598 28,20 29,797 30,20
31,837 39,637 41,4980 42,378
43,1295 44,60 45,159 53,916
54,60 55,2291 56,319 57,598
65,199 66,40 67,1912 68,1096
69,9999 70,757 71,478 72,20
77,359 78,60 79,598 80,259
81,5179 82,1195 83,598 84,80
85,598 86,40 91,279 93,359
94,239 95,3287 96,359 97,159
98,20 99,1693 100,60 105,159
107,558 108,139 109,1275 110,239
111,239 112,100 121,398 122,199
123,4063 124,578 125,60 134,259
135,80 137,657 138,199 139,40
147,199 149,199 163,936 164,60
180,60 181,2191 182,319 209,199
224,598 225,60
##END=
