##TITLE=Cyclopentane, 1-bromo-2-fluoro-, trans-
##JCAMP-DX=4.24
##DATA TYPE=MASS SPECTRUM
##ORIGIN=J. M. PECHINE
##OWNER=NIST Mass Spectrometry Data Center
Collection (C) 2014 copyright by the U.S. Secretary of Commerce
on behalf of the United States of America. All rights reserved.
##CAS REGISTRY NO=51422-73-2
##$NIST MASS SPEC NO=42203
##MOLFORM=C5 H8 Br F
##MW=166
##$NIST SOURCE=MSDC
##XUNITS=M/Z
##YUNITS=RELATIVE INTENSITY
##XFACTOR=1
##YFACTOR=1
##FIRSTX=27
##LASTX=168
##FIRSTY=1150
##MAXX=168
##MINX=27
##MAXY=9999
##MINY=100
##NPOINTS=34
##PEAK TABLE=(XY..XY)
27,1150 28,460 30,190 32,440
37,190 38,270 39,3380 40,540
41,7080 42,490 45,175 46,135
47,115 50,100 51,275 53,225
57,475 58,135 59,6280 60,360
63,135 65,460 66,335 67,9165
68,565 85,1535 86,750 87,9999
88,550 106,465 107,100 108,440
166,1725 168,1675
##END=
