##TITLE=2-Propenoic acid, 4-methylpentyl ester
##JCAMP-DX=4.24
##DATA TYPE=MASS SPECTRUM
##ORIGIN=Vladimir Zaikin,TIPS RAS, Moscow, Russia
##OWNER=NIST Mass Spectrometry Data Center
Collection (C) 2014 copyright by the U.S. Secretary of Commerce
on behalf of the United States of America. All rights reserved.
##CAS REGISTRY NO=5143-30-6
##$NIST MASS SPEC NO=245680
##MOLFORM=C9 H16 O2
##MW=156
##$NIST SOURCE=MSDC
##XUNITS=M/Z
##YUNITS=RELATIVE INTENSITY
##XFACTOR=1
##YFACTOR=1
##FIRSTX=36
##LASTX=127
##FIRSTY=470
##MAXX=127
##MINX=36
##MAXY=9999
##MINY=20
##NPOINTS=35
##PEAK TABLE=(XY..XY)
36,470 38,100 39,470 40,150
41,1301 42,1080 43,2752 44,420
45,110 51,30 52,20 53,190
54,30 55,9999 56,1701 57,300
58,250 59,180 68,60 69,1901
70,500 71,530 72,50 73,650
82,30 83,110 84,4534 85,1101
86,270 87,90 95,30 96,40
97,100 98,120 127,40
##END=
