##TITLE=1H-Tetrazole, 1,5-dimethyl-
##JCAMP-DX=4.24
##DATA TYPE=MASS SPECTRUM
##OWNER=NIST Mass Spectrometry Data Center
Collection (C) 2014 copyright by the U.S. Secretary of Commerce
on behalf of the United States of America. All rights reserved.
##CAS REGISTRY NO=5144-11-6
##$NIST MASS SPEC NO=1002
##MOLFORM=C3 H6 N4
##MW=98
##$NIST SOURCE=MSDC
##XUNITS=M/Z
##YUNITS=RELATIVE INTENSITY
##XFACTOR=1
##YFACTOR=1
##FIRSTX=27
##LASTX=99
##FIRSTY=3203
##MAXX=99
##MINX=27
##MAXY=9999
##MINY=100
##NPOINTS=23
##PEAK TABLE=(XY..XY)
27,3203 28,6306 29,701 30,100
38,300 39,801 40,1301 41,1301
42,8307 43,5705 44,100 52,100
53,801 54,300 55,300 56,7607
57,400 67,100 68,100 69,9999
70,801 98,3203 99,300
##END=
