##TITLE=2(3H)-Furanone, dihydro-3,5-dimethyl-
##JCAMP-DX=4.24
##DATA TYPE=MASS SPECTRUM
##OWNER=NIST Mass Spectrometry Data Center
Collection (C) 2014 copyright by the U.S. Secretary of Commerce
on behalf of the United States of America. All rights reserved.
##CAS REGISTRY NO=5145-01-7
##$NIST MASS SPEC NO=32337
##MOLFORM=C6 H10 O2
##MW=114
##$NIST SOURCE=MSDC
##XUNITS=M/Z
##YUNITS=RELATIVE INTENSITY
##XFACTOR=1
##YFACTOR=1
##FIRSTX=37
##LASTX=114
##FIRSTY=400
##MAXX=114
##MINX=37
##MAXY=9999
##MINY=40
##NPOINTS=22
##PEAK TABLE=(XY..XY)
37,400 38,733 39,4733 41,4666
42,9999 43,6355 45,2022 50,156
51,244 53,533 54,356 55,8821
56,578 57,133 67,156 69,267
70,4200 71,1067 99,578 100,89
113,40 114,58
##END=
