##TITLE=4-Isopropyl-2,6,7-trioxa-1-phosphabicyclo[2.2.2]octane
##JCAMP-DX=4.24
##DATA TYPE=MASS SPECTRUM
##ORIGIN=VERIFIN - Methodology B1-1979
##OWNER=NIST Mass Spectrometry Data Center
Collection (C) 2014 copyright by the U.S. Secretary of Commerce
on behalf of the United States of America. All rights reserved.
##CAS REGISTRY NO=51486-55-6
##$NIST MASS SPEC NO=226167
##MOLFORM=C7 H13 O3 P
##MW=176
##$NIST SOURCE=MSDC
##XUNITS=M/Z
##YUNITS=RELATIVE INTENSITY
##XFACTOR=1
##YFACTOR=1
##FIRSTX=27
##LASTX=177
##FIRSTY=500
##MAXX=177
##MINX=27
##MAXY=9999
##MINY=50
##NPOINTS=34
##PEAK TABLE=(XY..XY)
27,500 28,100 39,1000 41,2802
42,300 43,1000 44,100 47,900
51,100 53,600 54,500 55,3302
56,600 57,200 65,400 67,5104
68,700 69,1401 77,200 79,300
81,600 82,9999 83,1901 94,200
103,400 105,300 109,1401 131,1901
132,80 145,900 146,6605 147,300
176,2000 177,50
##END=
