##TITLE=2-Methoxyestriol, 3TMS derivative
##JCAMP-DX=4.24
##DATA TYPE=MASS SPECTRUM
##ORIGIN=H. ALDERCREUTZ, UNIVERSITY OF HELSINKI, HELSINKI, FINLAND
##OWNER=NIST Mass Spectrometry Data Center
Collection (C) 2014 copyright by the U.S. Secretary of Commerce
on behalf of the United States of America. All rights reserved.
##CAS REGISTRY NO=51497-48-4
##$NIST MASS SPEC NO=55066
##MOLFORM=C28 H50 O4 Si3
##MW=534
##$NIST SOURCE=MSDC
##XUNITS=M/Z
##YUNITS=RELATIVE INTENSITY
##XFACTOR=1
##YFACTOR=1
##FIRSTX=56
##LASTX=539
##FIRSTY=57
##MAXX=539
##MINX=56
##MAXY=9999
##MINY=42
##NPOINTS=165
##PEAK TABLE=(XY..XY)
56,57 57,84 73,436 75,146
81,87 93,50 103,254 109,47
117,144 129,1212 130,146 131,77
143,163 145,43 147,212 155,53
157,52 169,96 179,47 181,47
182,55 183,154 184,43 195,57
203,212 204,114 205,163 209,186
210,42 217,75 218,53 219,57
223,60 229,43 230,53 231,60
232,62 234,43 235,365 236,112
237,57 245,55 246,47 247,106
248,89 249,82 254,43 255,72
256,65 257,84 258,50 259,314
260,176 261,262 262,286 263,90
264,45 267,47 268,47 269,94
270,75 271,65 272,70 273,107
274,197 275,165 276,53 282,62
283,79 284,50 285,244 286,153
287,148 288,96 289,60 295,45
296,72 297,99 298,107 299,227
300,475 301,192 302,67 311,128
312,47 313,362 314,175 315,316
316,225 317,80 321,64 322,57
323,180 324,131 325,350 326,473
327,845 328,405 329,414 330,139
331,60 336,45 339,144 340,131
341,850 342,288 343,97 344,67
345,50 350,55 353,144 354,367
355,368 356,134 357,50 360,42
370,42 371,52 372,55 373,57
374,64 375,1078 376,402 377,202
378,53 386,58 387,62 388,50
389,80 390,737 391,256 392,119
413,128 414,96 415,133 416,618
417,508 418,225 419,90 429,78
430,47 431,60 432,43 443,65
444,320 445,141 446,70 462,80
463,42 504,176 505,74 506,57
519,382 520,195 521,80 529,53
530,79 531,124 532,336 534,9999
535,4797 536,2210 537,663 538,188
539,64
##END=
