##TITLE=2-Hydroxyestradiol, 3TMS derivative
##JCAMP-DX=4.24
##DATA TYPE=MASS SPECTRUM
##ORIGIN=STER ESTR TMSI L SE30 01 2812 E, M.HORN
##OWNER=NIST Mass Spectrometry Data Center
Collection (C) 2014 copyright by the U.S. Secretary of Commerce
on behalf of the United States of America. All rights reserved.
##CAS REGISTRY NO=51497-42-8
##$NIST MASS SPEC NO=43365
##MOLFORM=C27 H48 O3 Si3
##MW=504
##$NIST SOURCE=MSDC
##XUNITS=M/Z
##YUNITS=RELATIVE INTENSITY
##XFACTOR=1
##YFACTOR=1
##FIRSTX=41
##LASTX=509
##FIRSTY=100
##MAXX=509
##MINX=41
##MAXY=9999
##MINY=50
##NPOINTS=135
##PEAK TABLE=(XY..XY)
41,100 43,100 45,300 55,150
59,150 67,100 68,50 69,50
72,100 73,6100 74,550 75,800
76,50 77,100 79,100 81,100
91,100 93,150 95,100 101,100
103,100 105,50 107,100 109,100
115,200 116,50 117,100 119,50
128,50 129,400 130,100 131,150
133,150 141,50 143,50 145,50
147,450 148,100 149,100 155,50
159,50 169,50 179,300 180,50
193,100 203,100 204,150 205,300
206,50 207,50 216,150 217,250
218,100 219,100 229,250 230,100
231,250 232,100 243,100 244,100
245,100 251,50 253,50 255,50
257,50 264,50 265,450 266,150
267,550 268,150 269,100 270,50
271,50 280,100 281,100 282,50
283,50 285,100 291,50 292,100
293,200 294,100 295,50 299,50
305,150 306,300 307,100 308,50
317,200 318,150 319,350 320,250
321,100 325,200 326,50 331,50
332,150 333,100 334,50 345,100
346,50 357,50 358,50 359,100
360,50 371,100 372,100 373,400
374,200 375,150 376,50 385,50
386,50 387,50 388,50 399,50
413,200 414,150 415,150 416,100
429,50 430,50 431,50 432,100
433,50 489,450 490,250 491,100
492,50 504,9999 505,4750 506,2150
507,650 508,200 509,100
##END=
