##TITLE=Acetic acid, trichloro-, ethyl ester
##JCAMP-DX=4.24
##DATA TYPE=MASS SPECTRUM
##ORIGIN=Japan AIST/NIMC Database- Spectrum MS-IW-6144
##OWNER=NIST Mass Spectrometry Data Center
Collection (C) 2014 copyright by the U.S. Secretary of Commerce
on behalf of the United States of America. All rights reserved.
##CAS REGISTRY NO=515-84-4
##$NIST MASS SPEC NO=227710
##MOLFORM=C4 H5 Cl3 O2
##MW=190
##$NIST SOURCE=MSDC
##XUNITS=M/Z
##YUNITS=RELATIVE INTENSITY
##XFACTOR=1
##YFACTOR=1
##FIRSTX=12
##LASTX=193
##FIRSTY=10
##MAXX=193
##MINX=12
##MAXY=9999
##MINY=10
##NPOINTS=85
##PEAK TABLE=(XY..XY)
12,10 14,40 15,139 25,10
26,179 27,2179 28,459 29,9999
30,509 31,40 35,80 36,179
37,20 38,60 39,50 40,10
41,20 42,40 43,279 44,289
45,289 46,20 47,569 48,60
49,229 50,20 51,10 56,10
61,10 63,359 64,10 65,119
73,159 75,90 76,20 77,50
78,10 82,909 83,869 84,579
85,559 86,99 87,90 99,129
101,70 103,10 110,369 111,629
112,249 113,409 114,50 115,70
117,3109 118,40 119,2999 120,40
121,969 122,10 123,99 127,109
128,40 129,70 130,20 131,10
145,159 146,10 147,229 148,10
149,129 151,30 155,669 156,30
157,429 158,20 159,70 161,30
163,80 165,60 167,20 175,60
177,50 179,20 189,10 191,40
193,20
##END=
