##TITLE=1-Naphthalenepropanol, .alpha.-ethenyldecahydro-2-hydroxy-.alpha.,2,5,5,8a-pentamethyl-, [1R-[1.alpha.(R*),2.beta.,4a.beta.,8a.alpha.]]-
##JCAMP-DX=4.24
##DATA TYPE=MASS SPECTRUM
##OWNER=NIST Mass Spectrometry Data Center
Collection (C) 2014 copyright by the U.S. Secretary of Commerce
on behalf of the United States of America. All rights reserved.
##CAS REGISTRY NO=515-03-7
##$NIST MASS SPEC NO=29536
##MOLFORM=C20 H36 O2
##MW=308
##$NIST SOURCE=MSDC
##XUNITS=M/Z
##YUNITS=RELATIVE INTENSITY
##XFACTOR=1
##YFACTOR=1
##FIRSTX=14
##LASTX=291
##FIRSTY=40
##MAXX=291
##MINX=14
##MAXY=9999
##MINY=20
##NPOINTS=201
##PEAK TABLE=(XY..XY)
14,40 15,180 16,120 17,720
18,3960 26,180 27,1760 28,520
29,2060 30,40 31,40 37,80
38,180 39,2760 40,640 41,8699
42,680 43,7239 44,480 45,120
50,160 51,720 52,440 53,3160
54,440 55,7279 56,840 57,1640
58,240 59,40 62,80 63,280
64,120 65,1480 66,640 67,4140
68,460 69,5279 70,600 71,1040
72,40 73,60 75,120 76,80
77,3400 78,720 79,5879 80,2920
81,9999 82,2060 83,2440 84,520
85,460 86,20 87,40 89,160
90,80 91,5679 92,1880 93,7239
94,2960 95,8479 96,1500 97,1740
98,100 101,40 102,80 103,640
104,420 105,6379 106,2480 107,6599
108,2360 109,7699 110,960 111,740
112,100 113,260 114,60 115,900
116,400 117,1460 118,520 119,4840
120,2880 121,6099 122,2280 123,4280
124,1040 125,980 126,140 127,240
128,540 129,640 130,300 131,1320
132,580 133,3840 134,3120 135,4800
136,2040 137,4380 138,360 139,220
141,280 142,200 143,380 144,200
145,1320 146,540 147,2760 148,4040
149,2920 150,860 151,600 152,180
153,160 154,40 155,140 156,100
157,240 158,140 159,1160 160,360
161,4400 162,1160 163,1880 164,400
165,360 166,300 167,100 169,60
171,160 172,80 173,960 174,300
175,2240 176,1240 177,2900 178,600
179,320 180,40 185,120 186,40
187,1640 188,600 189,3280 190,1880
191,4840 192,1840 193,400 194,40
195,400 196,40 199,60 200,20
201,980 202,560 203,1060 204,4740
205,1180 206,220 207,240 208,40
215,560 216,520 217,380 218,140
219,180 220,140 221,80 227,40
229,680 230,360 231,160 232,120
233,40 241,100 242,40 243,620
244,500 245,320 246,40 247,100
255,40 256,40 257,6119 258,1320
259,260 260,20 261,40 263,20
270,40 271,100 272,3500 273,840
274,120 275,1700 276,360 290,320
291,40
##END=
