##TITLE=Naphthalene, decahydro-4a-methyl-1-methylene-7-(1-methylethylidene)-, (4aR-trans)-
##JCAMP-DX=4.24
##DATA TYPE=MASS SPECTRUM
##ORIGIN=D.HENNEBERG, MAX-PLANCK INSTITUTE, MULHEIM, WEST GERMANY
##OWNER=NIST Mass Spectrometry Data Center
Collection (C) 2014 copyright by the U.S. Secretary of Commerce
on behalf of the United States of America. All rights reserved.
##CAS REGISTRY NO=515-17-3
##$NIST MASS SPEC NO=63241
##MOLFORM=C15 H24
##MW=204
##$NIST SOURCE=MSDC
##XUNITS=M/Z
##YUNITS=RELATIVE INTENSITY
##XFACTOR=1
##YFACTOR=1
##FIRSTX=27
##LASTX=207
##FIRSTY=204
##MAXX=207
##MINX=27
##MAXY=9999
##MINY=3
##NPOINTS=173
##PEAK TABLE=(XY..XY)
27,204 28,650 29,616 30,15
31,18 32,100 35,5 37,4
38,7 39,197 40,67 41,2009
42,100 43,874 44,31 45,14
46,4 47,4 48,4 49,8
50,21 51,26 52,26 53,597
54,66 55,2139 56,125 57,308
58,21 59,29 60,5 61,6
62,6 63,16 64,12 65,247
66,105 67,1519 68,215 69,977
70,70 71,86 72,14 73,23
74,9 75,29 76,7 77,1001
78,208 79,2053 80,509 81,3055
82,359 83,251 84,28 85,25
86,6 87,40 88,20 89,17
90,15 91,3283 92,672 93,3935
94,805 95,2099 96,257 97,307
98,34 99,10 100,8 101,8
102,13 103,148 104,116 105,4148
106,797 107,2826 108,1001 109,2154
110,236 111,59 112,12 113,25
114,17 115,134 116,95 117,448
118,213 119,2204 120,661 121,1323
122,1222 123,1639 124,187 125,32
126,56 127,73 128,79 129,147
130,106 131,589 132,165 133,5736
134,1163 135,853 136,501 137,193
138,33 139,24 140,7 141,32
142,44 143,75 144,65 145,623
146,220 147,2740 148,711 149,199
150,50 151,28 152,18 153,11
155,9 156,12 157,84 158,25
159,334 160,213 161,4230 162,873
163,172 164,61 165,30 166,6
167,4 168,4 169,4 171,8
172,8 173,63 174,40 175,745
176,447 177,77 178,10 179,36
180,7 181,6 182,5 183,7
185,12 186,7 187,73 188,44
189,9999 190,1537 191,127 192,9
193,14 194,4 196,3 198,5
199,4 200,19 201,6 202,99
203,50 204,5364 205,906 206,80
207,36
##END=
