##TITLE=1-Chloro-2-methyl-2-phenylpropane
##JCAMP-DX=4.24
##DATA TYPE=MASS SPECTRUM
##ORIGIN=NIST Mass Spectrometry Data Center
##OWNER=NIST Mass Spectrometry Data Center
Collection (C) 2014 copyright by the U.S. Secretary of Commerce
on behalf of the United States of America. All rights reserved.
##CAS REGISTRY NO=515-40-2
##$NIST MASS SPEC NO=342507
##MOLFORM=C10 H13 Cl
##MW=168
##$NIST SOURCE=MSDC
##XUNITS=M/Z
##YUNITS=RELATIVE INTENSITY
##XFACTOR=1
##YFACTOR=1
##FIRSTX=11
##LASTX=171
##FIRSTY=10
##MAXX=171
##MINX=11
##MAXY=9999
##MINY=10
##NPOINTS=77
##PEAK TABLE=(XY..XY)
11,10 13,30 15,480 26,170
27,901 28,130 30,10 35,20
36,40 37,130 38,390 39,2532
40,320 41,2482 42,60 44,10
47,40 49,891 50,1111 51,2542
52,510 53,370 54,50 55,210
56,40 58,260 61,90 62,300
63,781 64,230 65,931 66,70
73,80 74,200 75,410 76,360
77,1842 78,891 79,1021 80,70
85,20 86,60 87,90 89,370
91,7877 92,641 93,60 98,20
99,30 101,90 102,390 103,931
104,260 105,90 112,10 113,40
115,1291 116,360 117,1181 119,9999
120,1021 121,50 125,140 126,30
127,60 128,50 129,20 131,30
132,20 133,10 153,90 154,10
155,30 168,530 169,70 170,170
171,20
##END=
