##TITLE=(1-Hydroxy-2,2,2-trichloroethyl)formamide
##JCAMP-DX=4.24
##DATA TYPE=MASS SPECTRUM
##ORIGIN=R.T. LOEFFLER,LONG ASHTON RES. STN.,LONG ASHTON,BRISTOL,U.K.
##OWNER=NIST Mass Spectrometry Data Center
Collection (C) 2014 copyright by the U.S. Secretary of Commerce
on behalf of the United States of America. All rights reserved.
##CAS REGISTRY NO=515-82-2
##$NIST MASS SPEC NO=103356
##MOLFORM=C3 H4 Cl3 N O2
##MW=191
##$NIST SOURCE=MSDC
##XUNITS=M/Z
##YUNITS=RELATIVE INTENSITY
##XFACTOR=1
##YFACTOR=1
##FIRSTX=35
##LASTX=180
##FIRSTY=235
##MAXX=180
##MINX=35
##MAXY=9999
##MINY=100
##NPOINTS=93
##PEAK TABLE=(XY..XY)
35,235 36,596 38,252 39,198
40,381 41,1068 42,302 43,1346
44,1170 45,1083 46,3339 47,836
48,1172 49,890 50,405 51,238
55,253 56,196 57,1308 58,144
60,273 62,282 63,234 64,1038
65,118 66,294 69,350 70,189
71,194 72,138 73,3355 74,3301
75,1119 76,2473 77,505 78,773
82,1710 83,4845 84,1191 85,3290
86,363 87,560 91,125 92,182
95,229 97,209 98,137 99,181
100,105 101,130 104,1065 106,355
109,368 110,8242 111,4437 112,5616
113,2698 114,1005 115,508 117,1030
119,1069 120,138 121,350 126,183
127,122 128,208 130,148 137,113
138,102 139,526 140,730 141,320
142,400 144,136 146,6174 147,212
148,5820 149,317 150,1827 152,177
154,179 155,377 156,770 157,239
158,408 160,101 174,9999 175,475
176,9453 177,381 178,2926 179,100
180,277
##END=
