##TITLE=1,6-Heptadien-3-yne
##JCAMP-DX=4.24
##DATA TYPE=MASS SPECTRUM
##ORIGIN=S.A. Rang et al., IR & MS of Unsatd. Hydrocarbons, 1977
##OWNER=NIST Mass Spectrometry Data Center
Collection (C) 2014 copyright by the U.S. Secretary of Commerce
on behalf of the United States of America. All rights reserved.
##CAS REGISTRY NO=5150-80-1
##$NIST MASS SPEC NO=142711
##MOLFORM=C7 H8
##MW=92
##$NIST SOURCE=MSDC
##XUNITS=M/Z
##YUNITS=RELATIVE INTENSITY
##XFACTOR=1
##YFACTOR=1
##FIRSTX=26
##LASTX=93
##FIRSTY=480
##MAXX=93
##MINX=26
##MAXY=9999
##MINY=10
##NPOINTS=37
##PEAK TABLE=(XY..XY)
26,480 27,1150 29,40 37,370
38,720 39,2780 41,260 42,40
43,120 49,120 50,600 51,990
52,430 53,390 54,10 61,340
62,780 63,1730 64,570 65,2730
66,550 73,50 74,150 75,80
76,60 77,220 78,20 79,10
84,20 85,80 86,120 87,80
88,20 90,380 91,9999 92,3680
93,280
##END=
