##TITLE=Butanal, ethylhydrazone
##JCAMP-DX=4.24
##DATA TYPE=MASS SPECTRUM
##ORIGIN=ATLAS OF MASS SPECTRA OF ORGANIC COMPOUNDS, V. A. KOPTYUG, ED.
##OWNER=NIST Mass Spectrometry Data Center
Collection (C) 2014 copyright by the U.S. Secretary of Commerce
on behalf of the United States of America. All rights reserved.
##CAS REGISTRY NO=51576-30-8
##$NIST MASS SPEC NO=64476
##MOLFORM=C6 H14 N2
##MW=114
##$NIST SOURCE=MSDC
##XUNITS=M/Z
##YUNITS=RELATIVE INTENSITY
##XFACTOR=1
##YFACTOR=1
##FIRSTX=27
##LASTX=115
##FIRSTY=4330
##MAXX=115
##MINX=27
##MAXY=9999
##MINY=130
##NPOINTS=33
##PEAK TABLE=(XY..XY)
27,4330 28,4000 29,4330 30,9999
31,730 40,400 41,3330 42,2630
43,5000 44,8310 45,800 46,270
53,170 54,280 55,630 56,930
57,2230 58,1070 59,400 68,570
69,400 70,1730 71,1470 72,600
85,4660 86,2600 87,130 97,500
99,7310 100,530 113,400 114,6000
115,750
##END=
