##TITLE=3-Heptyne, 7-chloro-
##JCAMP-DX=4.24
##DATA TYPE=MASS SPECTRUM
##ORIGIN=NIST Mass Spectrometry Data Center, 1990.
##OWNER=NIST Mass Spectrometry Data Center
Collection (C) 2014 copyright by the U.S. Secretary of Commerce
on behalf of the United States of America. All rights reserved.
##CAS REGISTRY NO=51575-85-0
##$NIST MASS SPEC NO=114693
##MOLFORM=C7 H11 Cl
##MW=130
##$NIST SOURCE=MSDC
##XUNITS=M/Z
##YUNITS=RELATIVE INTENSITY
##XFACTOR=1
##YFACTOR=1
##FIRSTX=15
##LASTX=132
##FIRSTY=199
##MAXX=132
##MINX=15
##MAXY=9999
##MINY=89
##NPOINTS=58
##PEAK TABLE=(XY..XY)
15,199 26,409 27,1777 28,112
29,243 37,327 38,774 39,4446
40,1185 41,4507 42,355 49,713
50,1497 51,2677 52,1441 53,4246
54,575 55,1687 56,89 61,401
62,787 63,1497 64,89 65,3667
66,1696 67,9999 68,3599 69,197
73,169 74,234 75,411 76,169
77,4363 78,783 79,6517 80,741
81,2149 82,133 86,136 87,148
88,359 89,395 90,147 91,900
92,120 93,657 94,120 95,7362
96,555 101,476 102,925 103,180
104,316 115,399 117,92 130,2046
131,175 132,610
##END=
