##TITLE=Imidazole, 1-(m-chlorophenyl)-
##JCAMP-DX=4.24
##DATA TYPE=MASS SPECTRUM
##ORIGIN=NIST Mass Spectrometry Data Center, 1994
##OWNER=NIST Mass Spectrometry Data Center
Collection (C) 2014 copyright by the U.S. Secretary of Commerce
on behalf of the United States of America. All rights reserved.
##CAS REGISTRY NO=51581-52-3
##$NIST MASS SPEC NO=134469
##MOLFORM=C9 H7 Cl N2
##MW=178
##$NIST SOURCE=MSDC
##XUNITS=M/Z
##YUNITS=RELATIVE INTENSITY
##XFACTOR=1
##YFACTOR=1
##FIRSTX=4
##LASTX=181
##FIRSTY=30
##MAXX=181
##MINX=4
##MAXY=9999
##MINY=30
##NPOINTS=81
##PEAK TABLE=(XY..XY)
4,30 14,46 26,1097 27,358
28,654 35,65 36,68 37,669
38,1181 39,1671 40,963 41,1356
42,88 44,124 47,82 48,42
49,434 50,2289 51,1566 52,818
53,189 57,332 60,106 61,667
62,1036 63,2216 64,803 65,320
66,157 67,43 71,105 72,178
73,859 74,1520 75,6206 76,1162
77,186 79,67 84,240 85,660
86,191 87,469 88,525 89,3959
90,714 91,69 97,99 98,99
99,368 100,149 101,121 102,200
111,3659 112,336 113,1146 114,477
115,577 116,2891 117,378 118,64
123,406 124,2687 125,443 126,880
127,107 138,416 139,48 140,144
141,87 142,516 143,457 144,60
150,623 151,6678 152,845 153,2259
154,225 178,9999 179,1082 180,3119
181,326
##END=
