##TITLE=Thiophene, 2,5-dichloro-3,4-dinitro-
##JCAMP-DX=4.24
##DATA TYPE=MASS SPECTRUM
##ORIGIN=NIST Mass Spectrometry Data Center, 1994
##OWNER=NIST Mass Spectrometry Data Center
Collection (C) 2014 copyright by the U.S. Secretary of Commerce
on behalf of the United States of America. All rights reserved.
##CAS REGISTRY NO=51584-21-5
##$NIST MASS SPEC NO=136689
##MOLFORM=C4 Cl2 N2 O4 S
##MW=242
##$NIST SOURCE=MSDC
##XUNITS=M/Z
##YUNITS=RELATIVE INTENSITY
##XFACTOR=1
##YFACTOR=1
##FIRSTX=12
##LASTX=246
##FIRSTY=120
##MAXX=246
##MINX=12
##MAXY=9999
##MINY=4
##NPOINTS=98
##PEAK TABLE=(XY..XY)
12,120 16,122 17,4 18,22
24,34 30,9999 32,53 34,20
35,138 36,329 37,50 38,155
44,526 46,742 47,426 48,67
49,160 50,39 52,14 56,149
58,42 60,22 61,32 62,38
63,666 65,207 67,24 68,384
69,23 70,180 71,1091 72,66
73,410 75,17 79,2188 80,600
81,847 82,94 83,128 84,27
85,120 86,17 87,2124 88,76
89,703 90,23 91,108 93,39
94,56 96,26 101,14 103,1209
104,56 105,441 106,378 107,46
108,248 109,17 110,51 115,3339
116,190 117,1225 118,137 119,152
120,55 121,43 122,18 124,28
126,125 128,79 130,15 131,206
132,18 133,90 135,15 138,195
140,120 142,27 150,564 152,411
153,27 154,67 166,56 168,38
184,59 186,39 212,578 213,44
214,430 215,26 216,80 226,61
228,40 242,1388 243,104 244,904
245,57 246,195
##END=
