##TITLE=1-(4-Chlorophenyl)imidazole
##JCAMP-DX=4.24
##DATA TYPE=MASS SPECTRUM
##ORIGIN=NIST Mass Spectrometry Data Center, 1994
##OWNER=NIST Mass Spectrometry Data Center
Collection (C) 2014 copyright by the U.S. Secretary of Commerce
on behalf of the United States of America. All rights reserved.
##CAS REGISTRY NO=51581-54-5
##$NIST MASS SPEC NO=134982
##MOLFORM=C9 H7 Cl N2
##MW=178
##$NIST SOURCE=MSDC
##XUNITS=M/Z
##YUNITS=RELATIVE INTENSITY
##XFACTOR=1
##YFACTOR=1
##FIRSTX=13
##LASTX=181
##FIRSTY=85
##MAXX=181
##MINX=13
##MAXY=9999
##MINY=31
##NPOINTS=85
##PEAK TABLE=(XY..XY)
13,85 14,101 26,1436 27,460
28,1290 29,36 35,86 36,131
37,775 38,1239 39,1593 40,1371
41,1921 42,87 43,66 44,106
47,162 48,65 49,556 50,2917
51,1714 52,1051 53,181 57,727
60,142 61,826 62,1280 63,2516
64,898 65,329 66,125 71,137
72,199 73,1077 74,1763 75,7324
76,1560 77,269 78,51 79,42
84,272 85,855 86,297 87,615
88,703 89,4512 90,922 91,74
97,182 98,151 99,498 100,162
101,182 102,314 103,60 108,33
109,31 111,4489 112,471 113,1473
114,543 115,584 116,3124 117,433
118,74 124,4514 125,622 126,1451
127,174 138,724 139,85 140,219
141,93 142,482 143,327 144,50
151,7928 152,1004 153,2529 154,268
163,35 178,9999 179,1298 180,3356
181,367
##END=
