##TITLE=Oxirane, (chloromethyl)-, (R)-
##JCAMP-DX=4.24
##DATA TYPE=MASS SPECTRUM
##ORIGIN=Chuck Anderson, Aldrich Chemical Co.
##OWNER=NIST Mass Spectrometry Data Center
Collection (C) 2014 copyright by the U.S. Secretary of Commerce
on behalf of the United States of America. All rights reserved.
##CAS REGISTRY NO=51594-55-9
##$NIST MASS SPEC NO=108489
##MOLFORM=C3 H5 Cl O
##MW=92
##$NIST SOURCE=MSDC
##XUNITS=M/Z
##YUNITS=RELATIVE INTENSITY
##XFACTOR=1
##YFACTOR=1
##FIRSTX=14
##LASTX=77
##FIRSTY=28
##MAXX=77
##MINX=14
##MAXY=9999
##MINY=19
##NPOINTS=36
##PEAK TABLE=(XY..XY)
14,28 15,61 25,48 26,341
27,1449 28,498 29,1533 30,102
31,987 35,42 36,53 37,147
38,158 39,284 40,40 41,84
42,798 43,312 47,95 48,145
49,3466 50,127 51,1034 52,29
53,31 55,81 57,9999 58,333
59,41 60,122 61,393 62,1428
63,258 64,435 65,53 77,19
##END=
