##TITLE=.gamma.-Ergostenol
##JCAMP-DX=4.24
##DATA TYPE=MASS SPECTRUM
##ORIGIN=DR GLENN PATTERSON
##OWNER=NIST Mass Spectrometry Data Center
Collection (C) 2014 copyright by the U.S. Secretary of Commerce
on behalf of the United States of America. All rights reserved.
##CAS REGISTRY NO=516-78-9
##$NIST MASS SPEC NO=36762
##MOLFORM=C28 H48 O
##MW=400
##$NIST SOURCE=MSDC
##XUNITS=M/Z
##YUNITS=RELATIVE INTENSITY
##XFACTOR=1
##YFACTOR=1
##FIRSTX=18
##LASTX=402
##FIRSTY=300
##MAXX=402
##MINX=18
##MAXY=9999
##MINY=300
##NPOINTS=122
##PEAK TABLE=(XY..XY)
18,300 27,500 28,300 29,1000
39,400 41,3400 42,400 43,5999
53,500 55,4700 56,400 57,2300
67,2000 68,500 69,2500 70,300
71,1700 77,800 78,300 79,2400
80,400 81,3300 82,600 83,1500
85,600 91,3000 92,700 93,2600
94,800 95,3500 96,600 97,1200
105,3300 106,1000 107,4200 108,1000
109,1800 110,300 111,500 115,300
117,1100 118,500 119,2900 120,1200
121,2100 122,900 123,1200 124,400
125,300 128,300 129,600 130,300
131,1600 132,500 133,2300 134,1300
135,2000 136,600 137,500 143,700
144,300 145,1900 146,600 147,2600
148,700 149,900 151,400 157,700
158,300 159,1500 160,500 161,2000
162,400 163,500 171,700 172,300
173,1000 174,300 175,500 177,300
178,300 185,500 186,300 187,700
189,400 199,600 200,300 201,800
213,2600 214,600 215,600 217,300
218,400 219,400 227,400 228,500
229,2300 230,500 231,2600 232,700
233,300 246,1000 247,700 255,7099
256,1500 257,400 259,400 261,400
271,600 272,300 273,2100 274,700
367,700 382,600 383,400 385,3000
386,1000 398,600 399,300 400,9999
401,3200 402,600
##END=
