##TITLE=Cholestan-3-ol, (3.alpha.,5.beta.)-
##JCAMP-DX=4.24
##DATA TYPE=MASS SPECTRUM
##ORIGIN=NIST Mass Spectrometry Data Center
##OWNER=NIST Mass Spectrometry Data Center
Collection (C) 2014 copyright by the U.S. Secretary of Commerce
on behalf of the United States of America. All rights reserved.
##CAS REGISTRY NO=516-92-7
##$NIST MASS SPEC NO=332925
##MOLFORM=C27 H48 O
##MW=388
##$NIST SOURCE=MSDC
##XUNITS=M/Z
##YUNITS=RELATIVE INTENSITY
##XFACTOR=1
##YFACTOR=1
##FIRSTX=16
##LASTX=390
##FIRSTY=10
##MAXX=390
##MINX=16
##MAXY=9999
##MINY=10
##NPOINTS=277
##PEAK TABLE=(XY..XY)
16,10 26,10 27,260 29,901
30,40 31,40 35,10 38,20
39,430 40,90 41,4254 42,540
43,7156 44,300 45,60 50,30
51,30 52,50 53,911 54,320
55,8217 56,801 57,5245 58,290
59,70 60,20 62,10 63,20
64,10 65,380 66,180 67,4354
68,1361 69,3183 70,540 71,1441
72,90 73,30 74,10 77,1101
78,270 79,4354 80,851 81,5675
82,1301 83,1882 84,210 85,310
86,40 87,30 88,20 89,20
91,3413 92,861 93,5315 94,2202
95,6035 96,891 97,1331 98,140
99,60 100,40 101,70 102,10
103,130 104,230 105,4164 106,2432
107,5265 108,2192 109,3093 110,561
111,851 112,130 113,50 114,20
115,240 116,100 117,661 118,540
119,2762 120,1982 121,3313 122,1661
123,1772 124,901 125,340 126,60
127,70 128,200 129,230 130,130
131,1011 132,400 133,2552 134,1391
135,2572 136,1011 137,540 138,160
139,80 140,40 141,70 142,70
143,200 144,70 145,1992 146,671
147,2943 148,1251 149,2943 150,520
151,230 152,290 153,80 154,30
155,30 156,20 157,160 158,90
159,1692 160,1041 161,2843 162,2222
163,871 164,190 165,3213 166,811
167,270 168,30 169,10 170,10
171,140 172,90 173,1281 174,1191
175,1772 176,931 177,300 178,160
179,110 180,50 181,10 183,10
184,20 185,110 186,50 187,761
188,611 189,611 190,180 191,170
192,60 193,90 194,40 197,10
199,180 200,70 201,1651 202,550
203,420 204,100 205,120 206,70
207,50 208,180 209,20 210,20
211,10 212,10 213,130 214,90
215,9999 216,5375 217,2402 218,430
219,300 220,80 221,10 222,10
225,10 227,30 228,30 229,530
230,1141 231,731 232,270 233,1782
234,1101 235,150 236,20 238,10
239,10 241,60 242,40 243,140
244,60 245,60 246,60 247,110
248,250 249,40 250,20 251,10
255,90 256,90 257,621 258,130
259,60 260,100 261,60 262,250
263,40 264,10 269,20 270,10
271,20 272,20 273,100 274,140
275,200 276,110 277,20 284,10
285,110 286,50 287,60 288,90
289,30 290,10 299,30 300,30
301,70 302,30 303,20 311,10
313,70 314,80 315,430 316,1361
317,300 318,50 324,10 327,60
328,220 329,210 330,50 331,190
332,40 333,10 340,10 341,50
342,60 343,10 353,80 354,20
355,1361 356,380 357,100 358,10
359,10 361,10 366,10 367,10
368,10 369,30 370,4164 371,1241
372,190 373,841 374,220 375,30
386,250 387,40 388,1621 389,480
390,100
##END=
