##TITLE=2H-Thiopyran, tetrahydro-4-methyl-
##JCAMP-DX=4.24
##DATA TYPE=MASS SPECTRUM
##OWNER=NIST Mass Spectrometry Data Center
Collection (C) 2014 copyright by the U.S. Secretary of Commerce
on behalf of the United States of America. All rights reserved.
##CAS REGISTRY NO=5161-17-1
##$NIST MASS SPEC NO=1971
##MOLFORM=C6 H12 S
##MW=116
##$NIST SOURCE=MSDC
##XUNITS=M/Z
##YUNITS=RELATIVE INTENSITY
##XFACTOR=1
##YFACTOR=1
##FIRSTX=1
##LASTX=119
##FIRSTY=110
##MAXX=119
##MINX=1
##MAXY=9999
##MINY=10
##NPOINTS=87
##PEAK TABLE=(XY..XY)
1,110 2,50 13,10 14,40
15,601 16,20 25,10 26,811
27,7557 28,2162 29,3093 30,70
32,70 33,90 34,160 35,350
36,10 37,110 38,320 39,5485
40,771 41,8898 42,1521 43,420
44,20 45,6015 46,5835 47,3763
48,350 49,180 50,270 51,621
52,250 53,1862 54,1551 55,6986
56,1141 57,440 58,1141 59,2532
60,4754 61,6656 62,520 63,350
64,20 65,290 66,190 67,7827
68,1351 69,3914 70,1361 71,410
72,100 73,1611 74,1421 75,250
76,60 77,100 78,10 79,160
80,50 81,1081 82,3753 83,721
84,80 85,380 86,100 87,1171
88,2262 89,220 90,90 97,90
98,10 99,200 100,30 101,9599
102,581 103,420 104,20 111,20
113,30 114,10 115,731 116,9999
117,831 118,430 119,20
##END=
