##TITLE=Thiophene, tetrahydro-2,5-dimethyl-, cis-
##JCAMP-DX=4.24
##DATA TYPE=MASS SPECTRUM
##OWNER=NIST Mass Spectrometry Data Center
Collection (C) 2014 copyright by the U.S. Secretary of Commerce
on behalf of the United States of America. All rights reserved.
##CAS REGISTRY NO=5161-13-7
##$NIST MASS SPEC NO=1966
##MOLFORM=C6 H12 S
##MW=116
##$NIST SOURCE=MSDC
##XUNITS=M/Z
##YUNITS=RELATIVE INTENSITY
##XFACTOR=1
##YFACTOR=1
##FIRSTX=25
##LASTX=118
##FIRSTY=10
##MAXX=118
##MINX=25
##MAXY=9999
##MINY=10
##NPOINTS=79
##PEAK TABLE=(XY..XY)
25,10 26,310 27,2772 28,581
29,851 30,20 32,70 33,60
34,50 35,240 36,10 37,80
38,200 39,2132 40,310 41,3093
42,390 43,150 44,20 45,2042
46,230 47,811 48,40 49,100
50,120 51,180 52,90 53,430
54,180 55,1331 56,300 57,190
58,581 59,4044 60,2062 61,2512
62,170 63,140 64,10 65,130
66,40 67,2302 68,150 69,160
70,50 71,140 72,30 73,430
74,2843 75,210 76,130 77,50
78,10 79,70 80,10 81,240
82,200 83,100 84,20 85,90
86,20 87,220 88,190 89,20
90,10 97,40 98,10 99,190
100,30 101,9999 102,641 103,450
104,20 113,10 114,10 115,230
116,3783 117,250 118,160
##END=
