##TITLE=2,2,4-Trimethyl-3-pentanol
##JCAMP-DX=4.24
##DATA TYPE=MASS SPECTRUM
##ORIGIN=James Little, Eastman Chemical Co.
##OWNER=NIST Mass Spectrometry Data Center
Collection (C) 2014 copyright by the U.S. Secretary of Commerce
on behalf of the United States of America. All rights reserved.
##CAS REGISTRY NO=5162-48-1
##$NIST MASS SPEC NO=368461
##MOLFORM=C8 H18 O
##MW=130
##$NIST SOURCE=MSDC
##XUNITS=M/Z
##YUNITS=RELATIVE INTENSITY
##XFACTOR=1
##YFACTOR=1
##FIRSTX=26
##LASTX=129
##FIRSTY=60
##MAXX=129
##MINX=26
##MAXY=9999
##MINY=10
##NPOINTS=61
##PEAK TABLE=(XY..XY)
26,60 27,1031 28,160 29,1311
30,60 31,410 37,20 38,80
39,1471 40,230 41,4234 42,350
43,2752 44,150 45,2332 46,60
47,10 50,50 51,100 52,40
53,350 54,110 55,4524 56,1351
57,4304 58,260 59,721 60,30
62,10 63,20 65,50 66,20
67,140 69,3673 70,410 71,2142
72,2042 73,9999 74,450 75,50
77,40 78,10 79,60 80,10
81,50 82,10 83,40 84,10
85,50 87,7387 88,420 89,20
91,10 95,10 97,160 98,20
99,60 112,70 113,10 115,20
129,10
##END=
