##TITLE=p-Toluic acid, 3-chloro-
##JCAMP-DX=4.24
##DATA TYPE=MASS SPECTRUM
##ORIGIN=NIST Mass Spectrometry Data Center, 1994
##OWNER=NIST Mass Spectrometry Data Center
Collection (C) 2014 copyright by the U.S. Secretary of Commerce
on behalf of the United States of America. All rights reserved.
##CAS REGISTRY NO=5162-82-3
##$NIST MASS SPEC NO=134985
##MOLFORM=C8 H7 Cl O2
##MW=170
##$NIST SOURCE=MSDC
##XUNITS=M/Z
##YUNITS=RELATIVE INTENSITY
##XFACTOR=1
##YFACTOR=1
##FIRSTX=14
##LASTX=173
##FIRSTY=65
##MAXX=173
##MINX=14
##MAXY=9999
##MINY=54
##NPOINTS=95
##PEAK TABLE=(XY..XY)
14,65 15,79 26,256 27,518
28,255 29,145 35,71 36,165
37,499 38,802 39,2353 40,177
41,115 42,73 43,725 44,71
45,1625 47,70 48,54 49,392
50,1355 51,1806 52,327 53,564
55,150 59,308 60,188 61,970
62,2225 63,4362 64,671 65,753
66,130 67,466 72,149 73,1047
74,660 75,915 76,645 77,2396
78,754 79,534 80,63 84,293
85,513 86,709 87,729 88,63
89,5474 90,1519 91,4319 92,420
96,86 97,248 99,1269 100,116
101,500 102,149 103,426 104,107
105,666 106,86 107,2162 108,213
110,72 111,96 112,125 113,87
117,143 121,60 123,180 125,9764
126,918 127,3219 128,296 133,133
135,4867 136,479 137,84 138,223
139,180 140,87 141,469 142,86
143,173 149,1151 150,143 153,6312
154,751 155,1943 156,205 170,9999
171,1093 172,3408 173,262
##END=
