##TITLE=1-Butene, 4-bromo-
##JCAMP-DX=4.24
##DATA TYPE=MASS SPECTRUM
##ORIGIN=Japan AIST/NIMC Database- Spectrum MS-NW-2880
##OWNER=NIST Mass Spectrometry Data Center
Collection (C) 2014 copyright by the U.S. Secretary of Commerce
on behalf of the United States of America. All rights reserved.
##CAS REGISTRY NO=5162-44-7
##$NIST MASS SPEC NO=231144
##MOLFORM=C4 H7 Br
##MW=134
##$NIST SOURCE=MSDC
##XUNITS=M/Z
##YUNITS=RELATIVE INTENSITY
##XFACTOR=1
##YFACTOR=1
##FIRSTX=14
##LASTX=137
##FIRSTY=20
##MAXX=137
##MINX=14
##MAXY=9999
##MINY=10
##NPOINTS=43
##PEAK TABLE=(XY..XY)
14,20 15,30 25,20 26,349
27,1859 28,359 29,1849 30,40
36,10 37,80 38,149 39,1769
40,139 41,1379 42,50 43,10
44,10 49,50 50,199 51,239
52,99 53,759 54,669 55,9999
56,439 57,20 79,50 80,50
81,60 82,50 93,80 95,70
105,10 106,139 107,40 108,129
109,20 119,20 121,20 134,439
135,20 136,409 137,20
##END=
