##TITLE=1-Chloromethyl-3,5-bis(1,1-dimethylethyl)benzene
##JCAMP-DX=4.24
##DATA TYPE=MASS SPECTRUM
##ORIGIN=V.A.KOPTYUG, ATLAS OF MASS SPECTRA OF ORGANIC COMPOUNDS
##OWNER=NIST Mass Spectrometry Data Center
Collection (C) 2014 copyright by the U.S. Secretary of Commerce
on behalf of the United States of America. All rights reserved.
##CAS REGISTRY NO=51625-14-0
##$NIST MASS SPEC NO=78343
##MOLFORM=C15 H23 Cl
##MW=238
##$NIST SOURCE=MSDC
##XUNITS=M/Z
##YUNITS=RELATIVE INTENSITY
##XFACTOR=1
##YFACTOR=1
##FIRSTX=43
##LASTX=240
##FIRSTY=610
##MAXX=240
##MINX=43
##MAXY=9999
##MINY=300
##NPOINTS=24
##PEAK TABLE=(XY..XY)
43,610 55,640 57,7199 58,330
65,380 77,420 90,330 91,850
104,470 105,480 115,700 117,400
119,300 128,480 129,440 131,640
195,330 203,570 223,9999 224,1700
225,3300 226,520 238,1700 240,530
##END=
