##TITLE=Glyoxylic oxime acid, bis(trimethylsilyl)-
##JCAMP-DX=4.24
##DATA TYPE=MASS SPECTRUM
##ORIGIN=O A MAMER, MCGILL UNIVERSITY, MONTRE
##OWNER=NIST Mass Spectrometry Data Center
Collection (C) 2014 copyright by the U.S. Secretary of Commerce
on behalf of the United States of America. All rights reserved.
##CAS REGISTRY NO=51621-77-3
##$NIST MASS SPEC NO=78864
##MOLFORM=C8 H19 N O3 Si2
##MW=233
##$NIST SOURCE=MSDC
##XUNITS=M/Z
##YUNITS=RELATIVE INTENSITY
##XFACTOR=1
##YFACTOR=1
##FIRSTX=15
##LASTX=234
##FIRSTY=478
##MAXX=234
##MINX=15
##MAXY=9999
##MINY=266
##NPOINTS=33
##PEAK TABLE=(XY..XY)
15,478 27,330 28,1085 29,295
40,334 41,695 43,1196 44,503
45,2311 47,567 51,283 52,621
58,549 59,988 61,278 66,381
73,9999 74,1229 75,2800 79,650
84,327 101,266 116,656 133,345
147,5131 148,838 149,508 190,621
218,3203 219,647 220,331 233,1425
234,314
##END=
