##TITLE=2-Ketoisovaleric acid oxime, bis(trimethylsilyl)- deriv.
##JCAMP-DX=4.24
##DATA TYPE=MASS SPECTRUM
##ORIGIN=John Halket,Royal Holloway, University of London, UK
##OWNER=NIST Mass Spectrometry Data Center
Collection (C) 2014 copyright by the U.S. Secretary of Commerce
on behalf of the United States of America. All rights reserved.
##CAS REGISTRY NO=51621-78-4
##$NIST MASS SPEC NO=332261
##MOLFORM=C11 H25 N O3 Si2
##MW=275
##$NIST SOURCE=MSDC
##XUNITS=M/Z
##YUNITS=RELATIVE INTENSITY
##XFACTOR=1
##YFACTOR=1
##FIRSTX=15
##LASTX=278
##FIRSTY=50
##MAXX=278
##MINX=15
##MAXY=9999
##MINY=10
##NPOINTS=142
##PEAK TABLE=(XY..XY)
15,50 26,10 27,190 28,90
29,130 30,30 31,90 39,120
40,30 41,420 42,320 43,1081
44,280 45,1982 46,140 47,430
48,20 49,20 52,20 53,50
54,70 55,160 56,110 57,160
58,390 59,1431 60,170 61,220
62,20 63,10 66,20 67,40
68,330 69,70 70,120 71,70
73,9999 74,1191 75,1732 76,120
77,70 81,10 82,30 83,100
84,410 85,120 86,430 87,60
88,40 89,1031 90,80 91,100
92,10 96,60 97,30 98,50
99,40 100,230 101,150 102,40
103,90 104,20 105,40 106,10
110,30 111,10 112,30 113,80
114,30 115,110 116,40 117,180
118,30 119,40 124,10 126,180
127,30 128,90 129,50 130,40
131,520 132,90 133,971 134,150
135,80 136,10 140,190 141,250
142,260 143,60 144,40 145,10
147,6095 148,941 149,520 150,40
156,20 157,220 158,2692 159,420
160,120 161,10 163,140 164,20
165,10 170,170 171,20 172,70
173,10 174,20 175,10 186,761
187,130 188,70 189,10 190,30
191,10 202,10 214,10 216,20
218,10 229,20 230,10 232,2762
233,571 234,260 235,30 236,10
242,10 244,10 247,240 248,60
249,20 258,20 260,2722 261,601
262,270 263,40 275,1161 276,250
277,110 278,10
##END=
