##TITLE=2-Phenyl-5-methoxy-oxadiazol-1,3,4
##JCAMP-DX=4.24
##DATA TYPE=MASS SPECTRUM
##ORIGIN=ASES Database, Dalian Institute, P.R. China
##OWNER=NIST Mass Spectrometry Data Center
Collection (C) 2014 copyright by the U.S. Secretary of Commerce
on behalf of the United States of America. All rights reserved.
##CAS REGISTRY NO=51627-42-0
##$NIST MASS SPEC NO=147087
##MOLFORM=C9 H8 N2 O2
##MW=176
##$NIST SOURCE=MSDC
##XUNITS=M/Z
##YUNITS=RELATIVE INTENSITY
##XFACTOR=1
##YFACTOR=1
##FIRSTX=50
##LASTX=177
##FIRSTY=900
##MAXX=177
##MINX=50
##MAXY=9999
##MINY=290
##NPOINTS=21
##PEAK TABLE=(XY..XY)
50,900 51,1371 59,1101 62,500
63,1201 64,400 76,990 77,3723
78,790 89,1481 90,500 91,1101
103,2522 104,1581 105,4764 106,400
131,690 132,390 145,290 176,9999
177,1201
##END=
