##TITLE=2-Pentenedioic acid, dimethyl ester
##JCAMP-DX=4.24
##DATA TYPE=MASS SPECTRUM
##OWNER=NIST Mass Spectrometry Data Center
Collection (C) 2014 copyright by the U.S. Secretary of Commerce
on behalf of the United States of America. All rights reserved.
##CAS REGISTRY NO=5164-76-1
##$NIST MASS SPEC NO=5579
##MOLFORM=C7 H10 O4
##MW=158
##$NIST SOURCE=MSDC
##XUNITS=M/Z
##YUNITS=RELATIVE INTENSITY
##XFACTOR=1
##YFACTOR=1
##FIRSTX=28
##LASTX=158
##FIRSTY=260
##MAXX=158
##MINX=28
##MAXY=9999
##MINY=173
##NPOINTS=50
##PEAK TABLE=(XY..XY)
28,260 29,433 30,216 33,216
37,216 38,606 39,2597 40,606
41,2056 42,757 43,649 44,390
45,281 47,216 53,216 54,238
55,1342 56,325 57,216 59,8008
60,216 66,216 67,260 68,3030
69,1840 70,216 71,1840 72,195
74,238 83,216 84,476 85,173
86,2381 87,216 88,390 96,2381
97,216 98,2597 99,7900 100,649
101,216 113,216 114,173 115,433
126,9999 127,7315 128,476 129,216
130,390 158,216
##END=
