##TITLE=2-Bromo-4,5-dimethoxyphenylacetonitrile
##JCAMP-DX=4.24
##DATA TYPE=MASS SPECTRUM
##ORIGIN=NIST Mass Spectrometry Data Center, 1994
##OWNER=NIST Mass Spectrometry Data Center
Collection (C) 2014 copyright by the U.S. Secretary of Commerce
on behalf of the United States of America. All rights reserved.
##CAS REGISTRY NO=51655-39-1
##$NIST MASS SPEC NO=134979
##MOLFORM=C10 H10 Br N O2
##MW=255
##$NIST SOURCE=MSDC
##XUNITS=M/Z
##YUNITS=RELATIVE INTENSITY
##XFACTOR=1
##YFACTOR=1
##FIRSTX=15
##LASTX=259
##FIRSTY=2867
##MAXX=259
##MINX=15
##MAXY=9999
##MINY=51
##NPOINTS=129
##PEAK TABLE=(XY..XY)
15,2867 26,105 27,210 28,751
29,480 30,115 31,360 32,170
37,378 38,668 39,1657 40,198
41,120 42,97 43,191 45,107
49,291 50,1883 51,1030 52,313
53,947 54,84 61,670 62,1451
63,3230 64,1267 65,337 66,142
69,72 73,160 74,725 75,1355
76,1662 77,1653 78,902 79,230
80,81 81,57 82,68 85,127
86,196 87,380 88,731 89,757
90,1319 91,307 92,273 93,179
94,80 99,168 100,291 101,264
102,1226 103,1447 104,1389 105,1011
106,507 107,228 114,354 115,655
116,324 117,507 118,1888 119,338
128,104 129,148 130,854 131,884
132,1219 133,9999 134,892 135,98
141,135 143,443 144,126 145,302
146,141 155,118 156,78 157,270
158,71 159,158 160,351 161,173
168,112 169,97 170,183 171,112
172,564 173,64 174,568 175,64
176,2790 177,295 180,53 181,113
182,114 183,373 184,164 185,1929
186,282 187,1474 188,131 194,469
196,460 197,119 198,75 199,84
208,71 209,115 210,83 211,139
212,588 213,211 214,666 215,172
224,89 229,91 231,51 238,81
240,3027 241,521 242,3161 243,332
255,8316 256,1136 257,8294 258,955
259,79
##END=
