##TITLE=5-Decen-1-ol, (Z)-
##JCAMP-DX=4.24
##DATA TYPE=MASS SPECTRUM
##ORIGIN=NIST Mass Spectrometry Data Center, 1998.
##OWNER=NIST Mass Spectrometry Data Center
Collection (C) 2014 copyright by the U.S. Secretary of Commerce
on behalf of the United States of America. All rights reserved.
##CAS REGISTRY NO=51652-47-2
##$NIST MASS SPEC NO=291623
##MOLFORM=C10 H20 O
##MW=156
##$NIST SOURCE=MSDC
##XUNITS=M/Z
##YUNITS=RELATIVE INTENSITY
##XFACTOR=1
##YFACTOR=1
##FIRSTX=15
##LASTX=156
##FIRSTY=40
##MAXX=156
##MINX=15
##MAXY=9999
##MINY=10
##NPOINTS=82
##PEAK TABLE=(XY..XY)
15,40 26,80 27,1590 28,310
29,1650 30,80 31,2200 32,20
37,20 38,80 39,2860 40,490
41,7339 42,1390 43,2430 44,650
45,290 46,10 50,110 51,350
52,230 53,2010 54,7699 55,9299
56,1690 57,2890 58,250 59,50
62,20 63,80 64,20 65,670
66,710 67,9999 68,6699 69,2330
70,790 71,930 72,120 73,60
74,10 75,10 76,10 77,590
78,110 79,1520 80,460 81,7589
82,5189 83,1090 84,260 85,170
86,60 87,10 89,10 91,250
92,30 93,380 94,160 95,5109
96,2340 97,430 98,60 99,110
100,20 105,20 107,30 108,30
109,1380 110,1710 111,150 112,70
113,50 123,80 124,10 127,10
128,50 136,10 137,10 138,760
139,80 156,50
##END=
