##TITLE=2-Butyl-1-decene
##JCAMP-DX=4.24
##DATA TYPE=MASS SPECTRUM
##ORIGIN=NIST Mass Spectrometry Data Center, 1990.
##OWNER=NIST Mass Spectrometry Data Center
Collection (C) 2014 copyright by the U.S. Secretary of Commerce
on behalf of the United States of America. All rights reserved.
##CAS REGISTRY NO=51655-65-3
##$NIST MASS SPEC NO=113609
##MOLFORM=C14 H28
##MW=196
##$NIST SOURCE=MSDC
##XUNITS=M/Z
##YUNITS=RELATIVE INTENSITY
##XFACTOR=1
##YFACTOR=1
##FIRSTX=27
##LASTX=196
##FIRSTY=1506
##MAXX=196
##MINX=27
##MAXY=9999
##MINY=83
##NPOINTS=46
##PEAK TABLE=(XY..XY)
27,1506 28,771 29,2363 32,104
39,1279 40,397 41,4772 42,790
43,2251 44,100 51,83 52,94
53,754 54,517 55,4916 56,9999
57,3990 58,170 65,168 66,98
67,1006 68,614 69,3309 70,3494
71,389 77,161 79,251 81,445
82,253 83,1821 84,623 85,211
95,140 96,202 97,681 98,903
99,355 110,133 111,457 112,171
126,278 138,130 139,481 140,104
154,124 196,378
##END=
