##TITLE=1-Methylpiperidine-3-carboxylic acid ethyl ester
##JCAMP-DX=4.24
##DATA TYPE=MASS SPECTRUM
##ORIGIN=Chuck Anderson, Aldrich Chemical Co.
##OWNER=NIST Mass Spectrometry Data Center
Collection (C) 2014 copyright by the U.S. Secretary of Commerce
on behalf of the United States of America. All rights reserved.
##CAS REGISTRY NO=5166-67-6
##$NIST MASS SPEC NO=107398
##MOLFORM=C9 H17 N O2
##MW=171
##$NIST SOURCE=MSDC
##XUNITS=M/Z
##YUNITS=RELATIVE INTENSITY
##XFACTOR=1
##YFACTOR=1
##FIRSTX=14
##LASTX=173
##FIRSTY=14
##MAXX=173
##MINX=14
##MAXY=9999
##MINY=2
##NPOINTS=100
##PEAK TABLE=(XY..XY)
14,14 15,475 16,7 18,24
26,96 27,1063 28,599 29,1446
30,490 31,96 32,113 36,14
37,5 38,37 39,883 40,167
41,1384 42,5371 43,8676 44,2169
45,165 46,6 47,73 48,38
50,15 51,50 52,50 53,298
54,303 55,1342 56,557 57,800
58,1694 59,98 60,18 63,27
65,39 66,30 67,151 68,397
69,160 70,4007 71,2313 72,144
73,402 74,33 77,6 78,14
79,30 80,114 81,187 82,738
83,387 84,748 85,56 86,32
87,3 88,6 92,5 93,13
94,346 95,47 96,2086 97,1756
98,5701 99,692 100,61 101,500
102,35 108,5 110,121 111,9
112,15 113,4 114,702 115,52
116,3 122,2 124,552 125,41
126,3759 127,321 128,118 129,15
130,4 138,2 140,37 141,15
142,9999 143,888 144,69 154,9
156,1012 157,80 158,3 169,3
170,2396 171,4193 172,418 173,30
##END=
