##TITLE=1-Butene, 3-chloro-2-methyl-
##JCAMP-DX=4.24
##DATA TYPE=MASS SPECTRUM
##ORIGIN=COMPAGNIE FRANCAISE DE RAFFINAGE, FRANCE.
##OWNER=NIST Mass Spectrometry Data Center
Collection (C) 2014 copyright by the U.S. Secretary of Commerce
on behalf of the United States of America. All rights reserved.
##CAS REGISTRY NO=5166-35-8
##$NIST MASS SPEC NO=1296
##MOLFORM=C5 H9 Cl
##MW=104
##$NIST SOURCE=MSDC
##XUNITS=M/Z
##YUNITS=RELATIVE INTENSITY
##XFACTOR=1
##YFACTOR=1
##FIRSTX=26
##LASTX=106
##FIRSTY=421
##MAXX=106
##MINX=26
##MAXY=9999
##MINY=16
##NPOINTS=48
##PEAK TABLE=(XY..XY)
26,421 27,2540 28,489 29,554
30,52 31,289 35,98 36,581
37,237 38,698 39,3439 40,1212
41,9404 42,1012 43,318 49,235
50,489 51,737 52,274 53,3984
54,410 55,652 56,57 57,40
61,168 62,188 63,394 64,52
65,354 66,260 67,2302 68,1714
69,9999 70,649 71,29 75,156
76,148 77,57 78,71 87,20
88,16 89,1286 90,65 91,438
103,28 104,2036 105,123 106,660
##END=
