##TITLE=Equilenin
##JCAMP-DX=4.24
##DATA TYPE=MASS SPECTRUM
##ORIGIN=LAC, NIDDK, NIH, Bethesda, MD 20892
##OWNER=NIST Mass Spectrometry Data Center
Collection (C) 2014 copyright by the U.S. Secretary of Commerce
on behalf of the United States of America. All rights reserved.
##CAS REGISTRY NO=517-09-9
##$NIST MASS SPEC NO=214871
##MOLFORM=C18 H18 O2
##MW=266
##$NIST SOURCE=MSDC
##XUNITS=M/Z
##YUNITS=RELATIVE INTENSITY
##XFACTOR=1
##YFACTOR=1
##FIRSTX=41
##LASTX=269
##FIRSTY=704
##MAXX=269
##MINX=41
##MAXY=9999
##MINY=8
##NPOINTS=135
##PEAK TABLE=(XY..XY)
41,704 43,129 44,70 50,24
51,91 52,30 53,79 55,327
56,146 57,22 62,15 63,79
64,18 65,56 67,25 70,44
74,20 75,68 76,104 77,113
79,31 81,8 82,257 84,33
86,21 87,32 88,83 89,104
91,152 93,9 95,132 97,190
98,45 101,71 102,56 103,77
104,98 105,51 107,17 109,10
111,34 113,32 115,254 116,31
124,22 126,82 127,112 128,124
129,28 131,41 133,42 137,16
139,186 140,31 141,102 142,19
144,68 145,18 150,46 151,183
152,728 153,356 154,84 155,72
157,283 158,26 162,13 163,181
164,149 165,1305 166,347 167,262
168,103 169,49 170,37 171,11
174,12 175,22 176,232 177,354
178,320 179,221 181,755 182,423
183,97 184,13 187,20 189,148
190,69 191,122 192,48 193,86
194,713 195,1093 196,700 197,1593
198,177 199,12 200,10 201,15
202,62 203,43 205,167 207,505
208,355 209,1135 210,1332 211,232
212,23 215,9 218,19 219,34
221,152 222,110 223,1646 224,431
225,53 231,9 233,48 234,15
235,27 237,472 238,576 239,78
247,26 248,30 249,78 251,178
252,32 264,71 265,31 266,9999
267,2125 268,229 269,16
##END=
