##TITLE=1,3-Dioxolo[4,5-b]acridin-10(5H)-one, 11-hydroxy-4-methoxy-5-methyl-
##JCAMP-DX=4.24
##DATA TYPE=MASS SPECTRUM
##ORIGIN=J.H.BOWIE UNIVERSITY OF ADELAIDE, AUSTRALIA
##OWNER=NIST Mass Spectrometry Data Center
Collection (C) 2014 copyright by the U.S. Secretary of Commerce
on behalf of the United States of America. All rights reserved.
##CAS REGISTRY NO=517-74-8
##$NIST MASS SPEC NO=14318
##MOLFORM=C16 H13 N O5
##MW=299
##$NIST SOURCE=MSDC
##XUNITS=M/Z
##YUNITS=RELATIVE INTENSITY
##XFACTOR=1
##YFACTOR=1
##FIRSTX=77
##LASTX=300
##FIRSTY=1000
##MAXX=300
##MINX=77
##MAXY=9999
##MINY=500
##NPOINTS=14
##PEAK TABLE=(XY..XY)
77,1000 115,1200 158,2400 170,700
198,500 226,600 228,800 254,3400
255,800 256,900 284,9999 285,2000
299,5900 300,1300
##END=
