##TITLE=1H-Pyrrole, 3-ethyl-2,4-dimethyl-
##JCAMP-DX=4.24
##DATA TYPE=MASS SPECTRUM
##ORIGIN=Japan AIST/NIMC Database- Spectrum MS-NW-5432
##OWNER=NIST Mass Spectrometry Data Center
Collection (C) 2014 copyright by the U.S. Secretary of Commerce
on behalf of the United States of America. All rights reserved.
##CAS REGISTRY NO=517-22-6
##$NIST MASS SPEC NO=235166
##MOLFORM=C8 H13 N
##MW=123
##$NIST SOURCE=MSDC
##XUNITS=M/Z
##YUNITS=RELATIVE INTENSITY
##XFACTOR=1
##YFACTOR=1
##FIRSTX=15
##LASTX=125
##FIRSTY=90
##MAXX=125
##MINX=15
##MAXY=9999
##MINY=10
##NPOINTS=70
##PEAK TABLE=(XY..XY)
15,90 26,50 27,319 28,279
29,80 30,60 37,20 38,80
39,629 40,159 41,609 42,419
43,30 44,30 46,60 49,10
50,99 51,239 52,209 53,439
54,209 55,90 56,20 58,99
59,30 60,60 61,30 62,50
63,119 64,40 65,289 66,229
67,459 68,70 69,10 74,20
75,10 76,20 77,319 78,99
79,369 80,199 81,259 82,50
89,10 90,10 91,129 92,109
93,529 94,439 95,109 96,30
103,10 104,50 105,50 106,559
107,789 108,9999 109,819 110,129
111,10 117,20 118,60 119,10
120,199 121,99 122,699 123,4529
124,469 125,20
##END=
