##TITLE=2,6-Dimethyl-1,6-heptadiene
##JCAMP-DX=4.24
##DATA TYPE=MASS SPECTRUM
##ORIGIN=NIST Mass Spectrometry Data Center, 1990.
##OWNER=NIST Mass Spectrometry Data Center
Collection (C) 2014 copyright by the U.S. Secretary of Commerce
on behalf of the United States of America. All rights reserved.
##CAS REGISTRY NO=51708-83-9
##$NIST MASS SPEC NO=113499
##MOLFORM=C9 H16
##MW=124
##$NIST SOURCE=MSDC
##XUNITS=M/Z
##YUNITS=RELATIVE INTENSITY
##XFACTOR=1
##YFACTOR=1
##FIRSTX=27
##LASTX=124
##FIRSTY=1325
##MAXX=124
##MINX=27
##MAXY=9999
##MINY=84
##NPOINTS=38
##PEAK TABLE=(XY..XY)
27,1325 28,622 29,1084 32,104
39,3780 40,1046 41,5880 42,474
43,303 50,238 51,504 52,282
53,2185 54,447 55,1262 56,1084
57,107 63,139 65,439 67,8733
68,9999 69,2422 70,160 77,372
78,84 79,587 80,279 81,2614
82,1081 83,109 91,267 93,120
95,926 96,1792 97,146 109,3051
110,258 124,303
##END=
