##TITLE=Hexane, 3,3,4,4-tetramethyl-
##JCAMP-DX=4.24
##DATA TYPE=MASS SPECTRUM
##ORIGIN=D.HENNEBERG, MAX-PLANCK INSTITUTE, MULHEIM, WEST GERMANY
##OWNER=NIST Mass Spectrometry Data Center
Collection (C) 2014 copyright by the U.S. Secretary of Commerce
on behalf of the United States of America. All rights reserved.
##CAS REGISTRY NO=5171-84-6
##$NIST MASS SPEC NO=61250
##MOLFORM=C10 H22
##MW=142
##$NIST SOURCE=MSDC
##XUNITS=M/Z
##YUNITS=RELATIVE INTENSITY
##XFACTOR=1
##YFACTOR=1
##FIRSTX=25
##LASTX=127
##FIRSTY=125
##MAXX=127
##MINX=25
##MAXY=9999
##MINY=125
##NPOINTS=25
##PEAK TABLE=(XY..XY)
25,125 26,375 27,1500 28,1750
29,2437 39,937 40,125 41,3000
42,562 43,9999 44,187 53,250
55,1500 56,500 57,750 58,375
67,187 69,375 70,2187 71,8500
72,375 85,500 112,125 113,562
127,125
##END=
