##TITLE=3-Decyn-1-ol
##JCAMP-DX=4.24
##DATA TYPE=MASS SPECTRUM
##ORIGIN=LAC, NIDDK, NIH, Bethesda, MD 20892
##OWNER=NIST Mass Spectrometry Data Center
Collection (C) 2014 copyright by the U.S. Secretary of Commerce
on behalf of the United States of America. All rights reserved.
##CAS REGISTRY NO=51721-39-2
##$NIST MASS SPEC NO=128040
##MOLFORM=C10 H18 O
##MW=154
##$NIST SOURCE=MSDC
##XUNITS=M/Z
##YUNITS=RELATIVE INTENSITY
##XFACTOR=1
##YFACTOR=1
##FIRSTX=41
##LASTX=154
##FIRSTY=4333
##MAXX=154
##MINX=41
##MAXY=9999
##MINY=66
##NPOINTS=52
##PEAK TABLE=(XY..XY)
41,4333 42,735 43,1087 44,74
45,1423 47,67 49,93 50,67
51,72 52,340 53,1297 54,612
55,2925 56,306 57,288 60,932
65,877 66,515 67,7762 68,9999
69,2116 70,74 71,261 73,415
77,840 78,66 79,2132 80,620
81,2846 82,6081 83,1045 84,102
85,310 86,67 87,70 91,584
93,1220 94,547 95,1912 96,387
97,148 105,76 107,911 108,74
109,1104 110,150 111,242 121,461
123,75 135,247 136,570 154,139
##END=
