##TITLE=Ethanone, 1-(1,3-dimethyl-3-cyclohexen-1-yl)-
##JCAMP-DX=4.24
##DATA TYPE=MASS SPECTRUM
##OWNER=NIST Mass Spectrometry Data Center
Collection (C) 2014 copyright by the U.S. Secretary of Commerce
on behalf of the United States of America. All rights reserved.
##CAS REGISTRY NO=51733-68-7
##$NIST MASS SPEC NO=31540
##MOLFORM=C10 H16 O
##MW=152
##$NIST SOURCE=MSDC
##XUNITS=M/Z
##YUNITS=RELATIVE INTENSITY
##XFACTOR=1
##YFACTOR=1
##FIRSTX=39
##LASTX=152
##FIRSTY=729
##MAXX=152
##MINX=39
##MAXY=9999
##MINY=75
##NPOINTS=37
##PEAK TABLE=(XY..XY)
39,729 40,100 41,1131 42,151
43,3718 50,75 51,151 52,75
53,352 54,100 55,904 59,201
65,301 66,100 67,3919 68,402
69,176 77,553 78,100 79,703
80,126 81,980 82,100 91,628
92,151 93,754 94,251 95,201
96,100 107,377 108,176 109,9999
110,804 111,151 119,251 137,427
152,151
##END=
