##TITLE=p-Nonyloxybenzylidene p-butylaniline
##JCAMP-DX=4.24
##DATA TYPE=MASS SPECTRUM
##ORIGIN=NIST Mass Spectrometry Data Center, 1994
##OWNER=NIST Mass Spectrometry Data Center
Collection (C) 2014 copyright by the U.S. Secretary of Commerce
on behalf of the United States of America. All rights reserved.
##CAS REGISTRY NO=51749-28-1
##$NIST MASS SPEC NO=135861
##MOLFORM=C26 H37 N O
##MW=379
##$NIST SOURCE=MSDC
##XUNITS=M/Z
##YUNITS=RELATIVE INTENSITY
##XFACTOR=1
##YFACTOR=1
##FIRSTX=16
##LASTX=382
##FIRSTY=42
##MAXX=382
##MINX=16
##MAXY=9999
##MINY=5
##NPOINTS=125
##PEAK TABLE=(XY..XY)
16,42 17,53 18,34 27,251
28,49 29,987 32,5 39,393
41,2731 42,279 43,3263 44,78
51,113 52,47 53,122 54,47
55,963 56,100 57,1162 58,72
63,98 64,54 65,484 67,65
69,281 71,289 77,395 78,145
79,76 83,122 85,152 89,335
90,688 91,779 92,85 93,124
95,40 97,60 102,73 103,158
104,144 105,164 106,112 107,102
112,61 115,152 116,160 117,139
118,111 119,41 127,59 128,71
129,33 130,175 131,65 132,83
133,77 139,47 141,57 142,48
151,61 152,160 153,116 154,82
155,47 158,99 159,46 160,183
165,191 166,164 167,289 168,393
169,74 178,68 179,101 180,675
181,365 182,74 183,181 191,87
192,121 193,229 194,131 195,68
196,450 197,81 207,48 208,130
210,8139 211,1334 212,171 222,244
223,99 224,157 225,39 235,146
236,191 237,49 238,101 251,91
252,310 253,2122 254,632 255,68
264,197 265,167 266,595 267,170
278,97 280,51 308,111 309,36
321,42 322,264 323,70 334,47
336,6697 337,1760 338,261 350,102
364,74 379,9999 380,2852 381,419
382,48
##END=
