##TITLE=.gamma.-(4-Fluorophenyl)-.gamma.-butyrolactone
##JCAMP-DX=4.24
##DATA TYPE=MASS SPECTRUM
##ORIGIN=NIST Mass Spectrometry Data Center, 1994
##OWNER=NIST Mass Spectrometry Data Center
Collection (C) 2014 copyright by the U.S. Secretary of Commerce
on behalf of the United States of America. All rights reserved.
##CAS REGISTRY NO=51787-96-3
##$NIST MASS SPEC NO=136234
##MOLFORM=C10 H9 F O2
##MW=180
##$NIST SOURCE=MSDC
##XUNITS=M/Z
##YUNITS=RELATIVE INTENSITY
##XFACTOR=1
##YFACTOR=1
##FIRSTX=13
##LASTX=182
##FIRSTY=38
##MAXX=182
##MINX=13
##MAXY=9999
##MINY=33
##NPOINTS=103
##PEAK TABLE=(XY..XY)
13,38 14,191 15,217 18,70
25,52 26,1074 27,2561 28,7941
29,2240 30,65 31,193 33,137
37,166 38,393 39,1550 40,114
41,141 42,430 43,49 44,194
45,64 46,48 48,65 49,104
50,1492 51,1214 52,164 53,128
54,108 55,604 56,9999 57,1732
58,158 60,52 61,201 62,515
63,810 64,94 65,93 67,239
68,369 69,683 70,677 71,66
73,128 74,674 75,2630 76,358
77,415 78,57 80,75 81,443
82,141 83,1018 84,219 85,411
86,131 87,157 88,50 89,199
90,39 91,70 92,76 93,132
94,478 95,3542 96,1645 97,1365
98,123 99,45 100,49 101,442
102,109 103,190 104,56 105,583
106,91 107,731 108,289 109,2425
110,250 112,33 115,877 116,228
117,110 120,183 121,315 123,5993
124,856 125,5363 126,447 131,39
133,1010 135,3640 136,2875 137,284
138,55 151,181 152,103 179,635
180,3523 181,427 182,37
##END=
