##TITLE=3-(Trifluoroacetyl)-D-camphor
##JCAMP-DX=4.24
##DATA TYPE=MASS SPECTRUM
##ORIGIN=NIST Mass Spectrometry Data Center, 1994
##OWNER=NIST Mass Spectrometry Data Center
Collection (C) 2014 copyright by the U.S. Secretary of Commerce
on behalf of the United States of America. All rights reserved.
##CAS REGISTRY NO=51800-98-7
##$NIST MASS SPEC NO=136243
##MOLFORM=C12 H15 F3 O2
##MW=248
##$NIST SOURCE=MSDC
##XUNITS=M/Z
##YUNITS=RELATIVE INTENSITY
##XFACTOR=1
##YFACTOR=1
##FIRSTX=15
##LASTX=250
##FIRSTY=784
##MAXX=250
##MINX=15
##MAXY=9999
##MINY=15
##NPOINTS=163
##PEAK TABLE=(XY..XY)
15,784 18,157 26,277 27,4305
28,881 29,2704 30,15 37,72
38,439 39,7299 40,1262 41,9999
42,1060 43,5206 44,224 46,65
47,119 50,547 51,1981 52,761
53,4303 54,777 55,6038 56,506
57,834 58,145 59,431 60,92
61,142 62,134 63,560 64,228
65,1590 66,918 67,3317 68,848
69,5009 70,542 71,220 73,187
75,352 77,2577 78,660 79,2306
80,587 81,1376 82,513 83,2488
84,490 85,149 86,97 87,240
88,95 89,551 90,258 91,2337
92,345 93,1272 94,479 95,3788
96,443 97,398 99,128 101,268
102,102 103,357 104,117 105,1023
106,258 107,1388 108,1418 109,1674
110,201 111,115 113,92 115,559
116,115 117,375 118,92 119,2850
120,360 121,1037 122,525 123,4875
124,497 125,118 126,92 127,307
128,87 129,160 131,150 133,1886
134,332 135,3935 136,1086 137,843
138,110 139,99 141,165 143,149
144,96 145,194 146,120 147,310
148,69 149,746 150,69 151,3861
152,461 153,135 157,230 159,279
160,105 161,432 162,106 163,732
164,518 165,1020 166,155 167,181
168,72 171,185 172,147 173,256
174,113 175,102 176,72 177,1176
178,262 179,512 180,117 181,61
182,65 185,483 187,1083 188,553
189,115 190,102 191,830 192,317
193,194 195,116 199,79 200,707
201,756 202,676 203,256 204,79
205,3390 206,943 207,128 213,159
215,577 216,103 217,79 220,3967
221,443 229,83 233,2976 234,365
248,5909 249,784 250,48
##END=
