##TITLE=3-Heptafluorobutyryl-.delta.-camphor
##JCAMP-DX=4.24
##DATA TYPE=MASS SPECTRUM
##ORIGIN=Japan AIST/NIMC Database- Spectrum MS-NW-7728
##OWNER=NIST Mass Spectrometry Data Center
Collection (C) 2014 copyright by the U.S. Secretary of Commerce
on behalf of the United States of America. All rights reserved.
##CAS REGISTRY NO=51800-99-8
##$NIST MASS SPEC NO=238593
##MOLFORM=C14 H15 F7 O2
##MW=348
##$NIST SOURCE=MSDC
##XUNITS=M/Z
##YUNITS=RELATIVE INTENSITY
##XFACTOR=1
##YFACTOR=1
##FIRSTX=15
##LASTX=351
##FIRSTY=50
##MAXX=351
##MINX=15
##MAXY=9999
##MINY=10
##NPOINTS=290
##PEAK TABLE=(XY..XY)
15,50 18,20 19,10 20,80
26,50 27,1019 28,189 29,879
30,10 31,99 37,10 38,90
39,1599 40,329 41,4209 42,259
43,2339 44,60 45,329 46,30
47,60 50,129 51,449 52,229
53,1029 54,269 55,2879 56,239
57,529 58,40 59,249 60,40
61,60 62,30 63,159 64,80
65,539 66,239 67,1329 68,389
69,1479 70,309 71,129 72,30
73,90 74,90 75,139 76,20
77,929 78,299 79,939 80,429
81,999 82,409 83,2019 84,539
85,60 86,20 87,40 88,30
89,80 90,109 91,1259 92,199
93,729 94,269 95,3119 96,369
97,229 98,50 99,50 100,219
101,90 102,40 103,109 104,60
105,409 106,119 107,799 108,2019
109,1179 110,279 111,90 112,20
113,40 114,40 115,99 116,50
117,159 118,99 119,2219 120,229
121,469 122,469 123,2629 124,309
125,90 126,20 127,90 128,40
129,40 130,30 131,119 132,60
133,1039 134,139 135,939 136,779
137,509 138,90 139,109 140,30
141,70 142,30 143,50 144,30
145,99 146,99 147,60 148,40
149,179 150,169 151,5069 152,639
153,99 154,30 155,50 156,10
157,50 158,40 159,99 160,30
161,299 162,60 163,90 164,129
165,60 166,40 167,80 168,60
169,499 170,30 171,70 172,20
173,50 174,40 175,30 176,10
177,70 178,30 179,1289 180,149
181,179 182,30 183,60 184,10
185,10 186,20 187,30 189,50
190,10 191,40 192,10 193,10
194,10 195,30 196,20 197,20
199,20 201,129 202,20 203,20
205,10 207,20 209,99 210,20
211,80 212,10 213,10 215,20
217,40 218,30 219,20 221,20
223,30 224,10 225,30 227,10
229,50 231,20 233,10 235,20
236,10 237,70 238,10 239,60
241,20 243,20 244,10 245,60
246,30 247,30 248,10 249,99
250,20 251,109 252,10 253,20
254,10 255,20 257,70 258,20
259,109 260,20 261,30 262,10
263,149 264,119 265,509 266,70
267,50 268,10 269,20 270,20
271,60 272,40 273,119 274,30
275,40 276,10 277,399 278,129
279,119 280,30 281,30 282,20
283,30 284,10 285,209 286,90
287,239 288,70 289,40 290,60
291,409 292,119 293,109 294,20
295,10 297,30 298,10 299,20
300,469 301,519 302,239 303,90
304,179 305,2709 306,909 307,139
308,20 309,10 310,10 311,30
312,10 313,80 314,20 315,259
316,30 317,50 318,20 319,169
320,4309 321,629 322,60 323,10
328,20 329,99 330,40 331,30
332,10 333,2659 334,389 335,30
346,20 347,70 348,9999 349,1629
350,169 351,10
##END=
