##TITLE=2,2',4,4'-Tetramethyldiphenylsulphone
##JCAMP-DX=4.24
##DATA TYPE=MASS SPECTRUM
##ORIGIN=V.A.KOPTYUG, ATLAS OF MASS SPECTRA OF ORGANIC COMPOUNDS
##OWNER=NIST Mass Spectrometry Data Center
Collection (C) 2014 copyright by the U.S. Secretary of Commerce
on behalf of the United States of America. All rights reserved.
##CAS REGISTRY NO=5184-75-8
##$NIST MASS SPEC NO=78747
##MOLFORM=C16 H18 O2 S
##MW=274
##$NIST SOURCE=MSDC
##XUNITS=M/Z
##YUNITS=RELATIVE INTENSITY
##XFACTOR=1
##YFACTOR=1
##FIRSTX=32
##LASTX=276
##FIRSTY=230
##MAXX=276
##MINX=32
##MAXY=9999
##MINY=135
##NPOINTS=165
##PEAK TABLE=(XY..XY)
32,230 33,260 34,1221 36,271
37,181 38,360 39,2621 40,360
41,2120 42,504 43,1811 44,3976
45,3213 46,226 47,226 48,1543
50,1311 51,2708 52,769 53,1622
54,226 55,1856 56,819 57,1437
58,135 59,631 60,911 61,504
62,504 63,1848 64,3576 65,3943
66,677 67,1343 68,317 69,1492
70,772 71,604 73,181 74,551
75,731 76,2123 77,6607 78,5537
79,6153 80,1179 81,1488 82,911
83,954 84,317 85,271 86,317
87,317 88,452 89,3631 90,682
91,6820 92,5303 93,2711 94,503
95,1136 96,864 97,1211 98,360
99,226 102,1496 103,6203 104,5662
105,6941 106,5803 107,2123 108,408
109,600 110,684 111,505 112,271
113,226 115,911 117,943 118,1711
119,1254 120,2038 121,4405 122,1538
123,3841 124,506 125,5970 126,911
127,684 128,506 129,317 133,1634
134,271 135,1311 136,1708 137,1045
138,1594 139,864 140,135 141,317
148,360 149,452 150,2853 151,7699
152,4511 153,3938 154,627 155,360
161,181 162,181 163,775 164,734
165,6247 166,2340 167,2292 168,604
169,181 175,181 176,1354 177,864
178,6370 179,6607 180,6842 181,3211
182,360 184,360 187,271 188,226
189,1891 190,991 191,2174 192,2753
193,9221 194,6707 195,8310 196,3544
206,2984 207,2584 208,9999 209,6955
210,1548 211,1044 212,627 213,819
214,181 223,452 224,438 225,2438
226,818 227,774 228,360 239,5063
240,1183 241,3408 242,1492 243,271
256,9103 257,4511 258,1400 259,6064
260,1434 273,452 274,6803 275,1948
276,452
##END=
