##TITLE=1H-Pyrrole-2-acetic acid, 1-methyl-, methyl ester
##JCAMP-DX=4.24
##DATA TYPE=MASS SPECTRUM
##ORIGIN=Japan AIST/NIMC Database- Spectrum MS-NW-5999
##OWNER=NIST Mass Spectrometry Data Center
Collection (C) 2014 copyright by the U.S. Secretary of Commerce
on behalf of the United States of America. All rights reserved.
##CAS REGISTRY NO=51856-79-2
##$NIST MASS SPEC NO=236582
##MOLFORM=C8 H11 N O2
##MW=153
##$NIST SOURCE=MSDC
##XUNITS=M/Z
##YUNITS=RELATIVE INTENSITY
##XFACTOR=1
##YFACTOR=1
##FIRSTX=14
##LASTX=155
##FIRSTY=10
##MAXX=155
##MINX=14
##MAXY=9999
##MINY=10
##NPOINTS=76
##PEAK TABLE=(XY..XY)
14,10 15,259 18,10 26,50
27,169 28,90 29,40 30,20
31,20 37,30 38,99 39,389
40,80 41,319 42,589 43,20
44,20 45,50 46,60 47,70
49,10 50,99 51,239 52,249
53,599 54,99 55,40 56,20
59,50 61,20 62,40 63,99
64,40 65,269 66,239 67,289
68,60 69,30 72,10 75,10
76,10 77,80 78,159 79,60
80,50 81,20 82,50 83,10
90,10 91,30 92,209 93,709
94,9999 95,729 96,30 106,20
107,20 108,229 109,50 110,30
111,30 119,30 120,30 121,40
122,90 123,10 124,40 125,10
136,10 137,10 138,80 139,10
152,30 153,2419 154,219 155,20
##END=
