##TITLE=Thiazolidine, 2-(2-furyl)-
##JCAMP-DX=4.24
##DATA TYPE=MASS SPECTRUM
##ORIGIN=A.A.Kutin, Moscow, Russia
##OWNER=NIST Mass Spectrometry Data Center
Collection (C) 2014 copyright by the U.S. Secretary of Commerce
on behalf of the United States of America. All rights reserved.
##CAS REGISTRY NO=51859-60-0
##$NIST MASS SPEC NO=272355
##MOLFORM=C7 H9 N O S
##MW=155
##$NIST SOURCE=MSDC
##XUNITS=M/Z
##YUNITS=RELATIVE INTENSITY
##XFACTOR=1
##YFACTOR=1
##FIRSTX=33
##LASTX=158
##FIRSTY=73
##MAXX=158
##MINX=33
##MAXY=9999
##MINY=4
##NPOINTS=83
##PEAK TABLE=(XY..XY)
33,73 34,181 35,156 36,51
37,275 38,702 39,2391 40,2505
41,1184 42,460 43,216 44,782
45,1043 46,383 47,144 48,46
49,58 50,457 51,1061 52,1053
53,1125 54,570 55,281 56,66
57,140 58,419 59,660 60,587
61,404 62,53 63,114 64,178
65,313 66,278 67,701 68,617
69,845 70,136 71,242 72,121
73,18 76,15 77,68 78,138
79,306 80,2267 81,2950 82,504
83,140 84,151 85,53 86,49
88,191 91,98 92,54 94,2844
95,1959 96,2794 97,417 98,149
99,342 100,78 101,96 108,2242
109,2880 110,266 111,502 112,268
113,56 114,4 120,15 122,853
123,85 124,15 125,28 126,240
127,289 128,35 138,42 155,9999
156,831 157,414 158,18
##END=
