##TITLE=Cyclopropanecarboxylic acid, 3-(2,2-dichlorovinyl)-2,2-dimethyl-, (3-phenoxyphenyl)methyl ester, (1R-trans)-
##JCAMP-DX=4.24
##DATA TYPE=MASS SPECTRUM
##ORIGIN=NIST Mass Spectrometry Data Center, 1998.
##OWNER=NIST Mass Spectrometry Data Center
Collection (C) 2014 copyright by the U.S. Secretary of Commerce
on behalf of the United States of America. All rights reserved.
##CAS REGISTRY NO=51877-74-8
##$NIST MASS SPEC NO=291850
##MOLFORM=C21 H20 Cl2 O3
##MW=390
##$NIST SOURCE=MSDC
##XUNITS=M/Z
##YUNITS=RELATIVE INTENSITY
##XFACTOR=1
##YFACTOR=1
##FIRSTX=26
##LASTX=394
##FIRSTY=10
##MAXX=394
##MINX=26
##MAXY=9999
##MINY=10
##NPOINTS=197
##PEAK TABLE=(XY..XY)
26,10 27,110 29,60 35,10
36,10 37,10 38,40 39,400
40,70 41,310 42,30 43,150
44,20 45,10 47,10 49,20
50,140 51,680 52,120 53,150
54,20 55,190 56,10 57,10
59,10 60,10 61,20 62,40
63,280 64,140 65,410 66,60
67,70 68,20 69,20 70,10
72,10 73,180 74,40 75,170
76,100 77,1270 78,310 79,140
80,40 81,30 82,20 83,140
84,20 85,120 86,20 87,130
88,20 89,780 90,450 91,1290
92,180 93,170 94,60 95,30
96,20 97,10 98,10 99,90
100,40 101,60 102,30 103,40
104,10 105,40 106,20 107,70
109,230 110,10 111,200 112,50
113,120 114,40 115,570 116,80
117,10 118,10 119,10 120,10
121,70 122,20 123,80 124,10
125,110 126,40 127,1030 128,540
129,580 130,90 131,40 133,10
135,10 137,30 138,10 139,110
140,50 141,210 142,40 143,20
144,40 145,10 147,20 148,10
149,70 150,20 151,90 152,280
153,650 154,370 155,380 156,50
157,40 158,10 159,10 161,10
163,2810 164,270 165,2320 166,220
167,310 168,700 169,160 170,30
171,40 172,10 173,10 176,10
177,20 179,10 181,480 182,390
183,9999 184,1500 185,140 186,10
189,10 191,40 192,10 193,20
194,10 195,10 197,40 198,20
199,20 200,20 207,10 208,10
209,10 217,10 218,40 219,20
220,20 221,10 223,30 224,10
235,10 242,10 254,20 255,140
256,30 257,50 258,10 261,10
265,20 273,10 275,10 288,10
289,10 290,30 291,20 292,20
293,10 294,10 307,10 309,10
311,70 312,10 313,20 318,10
319,20 339,10 354,20 355,20
356,10 357,10 375,10 377,10
390,60 391,20 392,40 393,10
394,10
##END=
