##TITLE=2H-1,3-Benzoxazine, 6-chloro-3,4-dihydro-3-phenyl-
##JCAMP-DX=4.24
##DATA TYPE=MASS SPECTRUM
##OWNER=NIST Mass Spectrometry Data Center
Collection (C) 2014 copyright by the U.S. Secretary of Commerce
on behalf of the United States of America. All rights reserved.
##CAS REGISTRY NO=51892-04-7
##$NIST MASS SPEC NO=32622
##MOLFORM=C14 H12 Cl N O
##MW=245
##$NIST SOURCE=MSDC
##XUNITS=M/Z
##YUNITS=RELATIVE INTENSITY
##XFACTOR=1
##YFACTOR=1
##FIRSTX=12
##LASTX=247
##FIRSTY=15
##MAXX=247
##MINX=12
##MAXY=9999
##MINY=10
##NPOINTS=121
##PEAK TABLE=(XY..XY)
12,15 13,28 14,93 15,490
16,10 17,51 18,186 25,10
26,89 27,250 28,521 29,1527
30,357 31,2997 32,2222 33,41
36,36 37,211 38,365 39,607
40,77 41,99 42,80 43,74
44,47 45,359 46,21 48,12
49,121 50,1157 51,2880 52,1529
53,120 54,20 55,36 56,23
57,28 58,325 59,23 60,21
61,95 62,149 63,322 64,131
65,284 66,41 70,10 71,23
72,19 73,118 74,417 75,313
76,346 77,8938 78,1131 79,104
80,12 81,12 82,18 83,12
84,89 85,21 86,20 87,18
88,21 89,67 90,50 91,1054
92,377 93,58 94,74 95,16
96,25 99,19 102,28 103,67
104,8473 105,9999 106,909 107,170
108,28 111,15 112,143 113,23
114,51 115,23 117,54 118,204
119,144 120,195 121,105 122,12
127,21 128,10 132,10 133,27
134,72 135,124 136,15 139,12
140,167 141,76 142,96 143,29
144,23 149,20 150,82 151,25
152,18 154,10 155,12 156,12
179,122 180,148 181,28 222,32
223,32 244,78 245,136 246,31
247,41
##END=
