##TITLE=1,1'-Biphenyl, 2,2',3,4',5,5'-hexachloro-
##JCAMP-DX=4.24
##DATA TYPE=MASS SPECTRUM
##ORIGIN=Organic Synthesis Lab, MSU, Moscow.TRC 1245
##OWNER=NIST Mass Spectrometry Data Center
Collection (C) 2014 copyright by the U.S. Secretary of Commerce
on behalf of the United States of America. All rights reserved.
##CAS REGISTRY NO=51908-16-8
##$NIST MASS SPEC NO=326627
##MOLFORM=C12 H4 Cl6
##MW=358
##$NIST SOURCE=MSDC
##XUNITS=M/Z
##YUNITS=RELATIVE INTENSITY
##XFACTOR=1
##YFACTOR=1
##FIRSTX=41
##LASTX=368
##FIRSTY=31
##MAXX=368
##MINX=41
##MAXY=9999
##MINY=21
##NPOINTS=150
##PEAK TABLE=(XY..XY)
41,31 43,77 44,296 47,53
49,81 50,109 60,110 61,258
62,133 63,52 71,44 72,153
73,523 74,539 75,86 76,34
79,89 80,28 81,37 83,84
84,310 85,331 86,201 87,44
91,290 92,204 94,53 95,62
96,201 97,271 98,502 99,157
100,27 107,121 108,461 109,1365
110,860 111,270 112,24 113,30
114,126 115,99 118,46 119,72
120,169 121,154 122,359 123,181
124,43 126,956 127,1195 131,122
132,290 133,257 134,164 135,100
144,2397 145,3035 146,2092 147,753
148,217 149,51 154,50 156,119
157,131 158,116 159,56 160,58
161,292 162,489 164,109 165,38
167,63 168,121 169,104 170,58
171,69 172,25 179,602 180,975
181,1075 182,801 183,600 184,213
185,160 192,49 193,128 194,78
195,80 196,41 203,39 204,99
205,105 206,96 207,44 208,32
215,44 216,139 217,311 218,1763
219,391 220,1442 221,129 222,187
223,39 228,126 229,21 230,119
232,44 238,64 240,72 241,35
242,66 252,456 253,534 254,541
255,490 256,242 257,186 258,36
288,4023 289,624 290,5134 291,817
292,2898 293,472 294,703 295,73
296,55 322,79 323,1164 324,279
325,2092 326,387 327,1081 328,123
329,263 330,55 331,60 358,4329
359,650 360,9999 361,1276 362,8182
363,1093 364,3265 365,303 366,638
367,116 368,119
##END=
