##TITLE=4-Isothiocyanatobenzenesulfonamide
##JCAMP-DX=4.24
##DATA TYPE=MASS SPECTRUM
##ORIGIN=NIST Mass Spectrometry Data Center, 1994
##OWNER=NIST Mass Spectrometry Data Center
Collection (C) 2014 copyright by the U.S. Secretary of Commerce
on behalf of the United States of America. All rights reserved.
##CAS REGISTRY NO=51908-29-3
##$NIST MASS SPEC NO=135056
##MOLFORM=C7 H6 N2 O2 S2
##MW=214
##$NIST SOURCE=MSDC
##XUNITS=M/Z
##YUNITS=RELATIVE INTENSITY
##XFACTOR=1
##YFACTOR=1
##FIRSTX=4
##LASTX=217
##FIRSTY=4
##MAXX=217
##MINX=4
##MAXY=9999
##MINY=4
##NPOINTS=86
##PEAK TABLE=(XY..XY)
4,4 16,112 27,57 28,113
32,110 37,161 38,226 39,426
44,132 45,164 46,95 47,40
48,135 49,40 50,1064 51,364
52,138 53,46 57,68 58,69
59,45 60,33 61,125 62,216
63,922 64,858 65,209 66,47
67,47 69,250 70,206 71,46
72,46 73,110 74,612 75,1018
76,494 77,101 78,122 79,38
80,136 81,103 82,120 83,242
84,157 87,39 88,74 90,1728
91,199 92,77 93,107 94,60
95,126 96,157 99,36 102,231
105,45 106,115 107,570 108,207
109,53 118,101 119,91 122,468
123,69 124,41 134,5540 135,571
136,281 150,2163 151,1619 152,243
153,86 154,33 165,32 166,90
182,128 183,35 198,3916 199,419
200,366 201,44 214,9999 215,1044
216,881 217,121
##END=
