##TITLE=5-Aminoindole
##JCAMP-DX=4.24
##DATA TYPE=MASS SPECTRUM
##ORIGIN=NIST Mass Spectrometry Data Center
##OWNER=NIST Mass Spectrometry Data Center
Collection (C) 2014 copyright by the U.S. Secretary of Commerce
on behalf of the United States of America. All rights reserved.
##CAS REGISTRY NO=5192-03-0
##$NIST MASS SPEC NO=340814
##MOLFORM=C8 H8 N2
##MW=132
##$NIST SOURCE=MSDC
##XUNITS=M/Z
##YUNITS=RELATIVE INTENSITY
##XFACTOR=1
##YFACTOR=1
##FIRSTX=26
##LASTX=134
##FIRSTY=40
##MAXX=134
##MINX=26
##MAXY=9999
##MINY=10
##NPOINTS=60
##PEAK TABLE=(XY..XY)
26,40 27,90 28,30 29,20
30,10 37,70 38,140 39,180
40,60 41,110 42,30 44,10
49,50 50,420 51,791 52,771
53,300 54,140 55,10 61,70
62,160 63,220 64,100 65,240
66,791 73,20 74,120 75,180
76,440 77,981 78,831 79,380
80,210 81,10 85,10 86,30
87,50 88,60 89,80 90,30
91,30 92,20 99,10 100,10
101,10 102,170 103,210 104,3013
105,1401 106,160 114,40 115,140
116,40 117,10 129,120 130,40
131,3974 132,9999 133,981 134,40
##END=
