##TITLE=9,12-Tetradecadien-1-ol, (Z,E)-
##JCAMP-DX=4.24
##DATA TYPE=MASS SPECTRUM
##ORIGIN=NIST Mass Spectrometry Data Center, 1998.
##OWNER=NIST Mass Spectrometry Data Center
Collection (C) 2014 copyright by the U.S. Secretary of Commerce
on behalf of the United States of America. All rights reserved.
##CAS REGISTRY NO=51937-00-9
##$NIST MASS SPEC NO=291633
##MOLFORM=C14 H26 O
##MW=210
##$NIST SOURCE=MSDC
##XUNITS=M/Z
##YUNITS=RELATIVE INTENSITY
##XFACTOR=1
##YFACTOR=1
##FIRSTX=15
##LASTX=211
##FIRSTY=20
##MAXX=211
##MINX=15
##MAXY=9999
##MINY=10
##NPOINTS=120
##PEAK TABLE=(XY..XY)
15,20 19,20 26,30 27,710
28,170 29,1230 30,50 31,1870
32,20 33,10 37,10 38,40
39,1720 40,330 41,4920 42,510
43,1100 44,110 45,140 50,60
51,280 52,210 53,2110 54,1580
55,6629 56,470 57,540 58,60
59,30 62,10 63,70 64,20
65,800 66,730 67,9759 68,9999
69,1950 70,290 71,360 72,40
73,20 74,10 75,10 77,1370
78,390 79,5509 80,2120 81,8439
82,5359 83,810 84,260 85,250
86,40 87,10 89,20 91,850
92,170 93,2250 94,1530 95,4340
96,2070 97,540 98,680 99,100
100,20 103,30 104,10 105,120
106,40 107,1030 108,660 109,1000
110,860 111,410 112,230 113,30
114,20 115,20 117,10 119,20
120,20 121,1070 122,380 123,310
124,240 125,120 126,60 127,10
128,30 129,10 133,10 134,10
135,560 136,240 137,110 138,70
139,40 140,40 141,10 142,10
149,210 150,90 151,50 152,10
153,30 154,20 155,10 163,100
164,40 165,10 166,60 167,40
168,10 177,10 179,20 181,20
192,50 193,10 210,60 211,10
##END=
