##TITLE=1,5-Heptadiene-3,4-diol
##JCAMP-DX=4.24
##DATA TYPE=MASS SPECTRUM
##ORIGIN=CARL DJERASSI DEPT OF CHEM STANFORD UNIV STANFORD CALIF 94305
##OWNER=NIST Mass Spectrometry Data Center
Collection (C) 2014 copyright by the U.S. Secretary of Commerce
on behalf of the United States of America. All rights reserved.
##CAS REGISTRY NO=51945-98-3
##$NIST MASS SPEC NO=46474
##MOLFORM=C7 H12 O2
##MW=128
##$NIST SOURCE=MSDC
##XUNITS=M/Z
##YUNITS=RELATIVE INTENSITY
##XFACTOR=1
##YFACTOR=1
##FIRSTX=38
##LASTX=72
##FIRSTY=100
##MAXX=72
##MINX=38
##MAXY=9999
##MINY=100
##NPOINTS=18
##PEAK TABLE=(XY..XY)
38,100 39,1600 40,200 41,2700
42,200 43,3000 44,100 51,100
53,1700 54,100 55,500 57,1600
58,700 59,100 69,300 70,100
71,9999 72,800
##END=
