##TITLE=Ethanol, 2-[2-(2-chloroethoxy)ethoxy]-
##JCAMP-DX=4.24
##DATA TYPE=MASS SPECTRUM
##ORIGIN=Japan AIST/NIMC Database- Spectrum MS-IW- 913
##OWNER=NIST Mass Spectrometry Data Center
Collection (C) 2014 copyright by the U.S. Secretary of Commerce
on behalf of the United States of America. All rights reserved.
##CAS REGISTRY NO=5197-62-6
##$NIST MASS SPEC NO=239442
##MOLFORM=C6 H13 Cl O3
##MW=168
##$NIST SOURCE=MSDC
##XUNITS=M/Z
##YUNITS=RELATIVE INTENSITY
##XFACTOR=1
##YFACTOR=1
##FIRSTX=14
##LASTX=169
##FIRSTY=10
##MAXX=169
##MINX=14
##MAXY=9999
##MINY=10
##NPOINTS=75
##PEAK TABLE=(XY..XY)
14,10 15,139 18,20 26,80
27,1599 28,659 29,349 30,70
31,849 32,20 33,10 36,80
38,20 39,10 41,40 42,70
43,1169 44,1209 45,9999 46,319
47,30 49,70 50,20 51,20
57,119 58,2409 59,1549 60,70
61,80 62,159 63,5699 64,169
65,1809 66,40 70,40 71,20
72,99 73,389 74,10 75,3339
76,129 77,20 78,10 79,70
80,10 81,30 86,20 87,529
88,369 89,1819 90,80 91,10
93,779 94,30 95,259 96,10
100,10 101,309 102,249 103,20
106,619 107,2649 108,319 109,849
110,40 115,20 119,70 125,40
127,10 137,719 138,40 139,229
140,10 151,10 169,20
##END=
