##TITLE=Thiotepa
##JCAMP-DX=4.24
##DATA TYPE=MASS SPECTRUM
##ORIGIN=NIST Mass Spectrometry Data Center, 1998.
##OWNER=NIST Mass Spectrometry Data Center
Collection (C) 2014 copyright by the U.S. Secretary of Commerce
on behalf of the United States of America. All rights reserved.
##CAS REGISTRY NO=52-24-4
##$NIST MASS SPEC NO=290524
##MOLFORM=C6 H12 N3 P S
##MW=189
##$NIST SOURCE=MSDC
##XUNITS=M/Z
##YUNITS=RELATIVE INTENSITY
##XFACTOR=1
##YFACTOR=1
##FIRSTX=14
##LASTX=192
##FIRSTY=40
##MAXX=192
##MINX=14
##MAXY=9999
##MINY=10
##NPOINTS=113
##PEAK TABLE=(XY..XY)
14,40 15,490 25,10 26,120
27,240 28,410 29,70 30,70
31,20 32,40 33,40 34,10
35,10 38,30 39,70 40,460
41,1150 42,7899 43,350 44,990
45,380 46,1650 47,270 48,40
52,10 54,60 55,40 56,1870
57,170 58,100 59,530 60,1300
61,390 62,10 63,4510 64,120
65,290 66,10 67,10 68,80
69,230 70,220 71,60 72,1520
73,980 74,950 75,100 76,40
77,460 78,190 79,90 80,30
81,10 82,10 83,70 84,30
85,70 86,150 87,290 88,190
89,30 90,170 91,110 92,120
93,30 94,40 98,10 99,10
100,20 101,850 102,100 103,100
104,2830 105,500 106,1810 107,90
108,80 113,80 115,9999 116,550
117,30 118,90 119,470 120,170
121,50 122,10 129,10 130,40
131,10 132,10 133,80 134,20
135,10 143,70 144,10 145,10
146,190 147,9739 148,710 149,480
150,30 156,20 157,10 161,80
162,180 163,20 164,10 174,10
188,150 189,8509 190,770 191,420
192,30
##END=
