##TITLE=1H-Pyrrole, 3-ethyl-2,4,5-trimethyl-
##JCAMP-DX=4.24
##DATA TYPE=MASS SPECTRUM
##ORIGIN=D. GAMES, M. HEWLINS, A. JACKSON, CHEM DEPT, UNIV COLL, CARDIFF U.K.
##OWNER=NIST Mass Spectrometry Data Center
Collection (C) 2014 copyright by the U.S. Secretary of Commerce
on behalf of the United States of America. All rights reserved.
##CAS REGISTRY NO=520-69-4
##$NIST MASS SPEC NO=51953
##MOLFORM=C9 H15 N
##MW=137
##$NIST SOURCE=MSDC
##XUNITS=M/Z
##YUNITS=RELATIVE INTENSITY
##XFACTOR=1
##YFACTOR=1
##FIRSTX=40
##LASTX=138
##FIRSTY=458
##MAXX=138
##MINX=40
##MAXY=9999
##MINY=20
##NPOINTS=20
##PEAK TABLE=(XY..XY)
40,458 42,1232 44,20 53,264
54,152 65,244 77,570 79,529
81,448 106,224 107,794 108,417
120,651 121,896 122,9999 123,936
134,162 136,1222 137,3696 138,346
##END=
