##TITLE=Psilocybine
##JCAMP-DX=4.24
##DATA TYPE=MASS SPECTRUM
##ORIGIN=AAFS Toxicology Section MS DB Committee, U. Alberta, Canada
##OWNER=NIST Mass Spectrometry Data Center
Collection (C) 2014 copyright by the U.S. Secretary of Commerce
on behalf of the United States of America. All rights reserved.
##CAS REGISTRY NO=520-52-5
##$NIST MASS SPEC NO=246666
##MOLFORM=C12 H17 N2 O4 P
##MW=284
##$NIST SOURCE=MSDC
##XUNITS=M/Z
##YUNITS=RELATIVE INTENSITY
##XFACTOR=1
##YFACTOR=1
##FIRSTX=40
##LASTX=206
##FIRSTY=80
##MAXX=206
##MINX=40
##MAXY=9999
##MINY=60
##NPOINTS=106
##PEAK TABLE=(XY..XY)
40,80 41,170 42,430 43,420
45,90 50,70 51,150 53,60
55,190 57,250 58,9999 59,470
60,60 61,130 63,370 64,170
65,350 67,150 69,150 70,120
71,120 73,190 74,210 75,290
77,660 78,350 80,60 81,180
82,110 83,230 84,120 85,110
86,150 87,210 89,800 90,670
91,530 92,200 93,80 94,120
95,190 96,90 97,150 98,150
99,90 100,120 101,170 102,450
103,440 104,220 106,60 107,110
109,120 110,60 111,80 113,160
114,190 115,660 116,390 117,880
118,580 119,190 121,110 122,60
123,120 126,60 128,280 129,220
130,1040 131,570 132,180 133,90
135,100 137,70 140,170 141,70
142,90 143,170 145,980 146,1921
147,430 148,70 149,90 151,90
155,100 157,120 158,350 159,1771
160,870 161,70 162,60 165,60
166,60 169,60 170,60 179,70
185,90 188,60 193,70 195,60
199,140 200,110 202,450 204,7006
205,1111 206,80
##END=
