##TITLE=1H-Isoindole-1,3(2H)-dione, 2-phenyl-
##JCAMP-DX=4.24
##DATA TYPE=MASS SPECTRUM
##ORIGIN=J.L.COTTER MINISTRY OF AVIATION SUPPLY, RAE, FARNBOROUGH, UK
##OWNER=NIST Mass Spectrometry Data Center
Collection (C) 2014 copyright by the U.S. Secretary of Commerce
on behalf of the United States of America. All rights reserved.
##CAS REGISTRY NO=520-03-6
##$NIST MASS SPEC NO=10557
##MOLFORM=C14 H9 N O2
##MW=223
##$NIST SOURCE=MSDC
##XUNITS=M/Z
##YUNITS=RELATIVE INTENSITY
##XFACTOR=1
##YFACTOR=1
##FIRSTX=38
##LASTX=224
##FIRSTY=100
##MAXX=224
##MINX=38
##MAXY=9999
##MINY=10
##NPOINTS=37
##PEAK TABLE=(XY..XY)
38,100 39,200 50,1000 51,400
52,100 62,100 63,200 64,300
65,100 74,200 75,400 76,3500
77,1000 78,100 91,200 92,100
93,100 102,100 103,100 104,1700
119,100 130,100 139,100 140,100
151,100 152,300 153,200 166,100
167,100 177,10 178,90 179,440
180,50 195,100 222,300 223,9999
224,1500
##END=
