##TITLE=Dehydroacetic Acid
##JCAMP-DX=4.24
##DATA TYPE=MASS SPECTRUM
##ORIGIN=Japan AIST/NIMC Database- Spectrum MS-NW-4803
##OWNER=NIST Mass Spectrometry Data Center
Collection (C) 2014 copyright by the U.S. Secretary of Commerce
on behalf of the United States of America. All rights reserved.
##CAS REGISTRY NO=520-45-6
##$NIST MASS SPEC NO=229957
##MOLFORM=C8 H8 O4
##MW=168
##$NIST SOURCE=MSDC
##XUNITS=M/Z
##YUNITS=RELATIVE INTENSITY
##XFACTOR=1
##YFACTOR=1
##FIRSTX=12
##LASTX=170
##FIRSTY=10
##MAXX=170
##MINX=12
##MAXY=9999
##MINY=10
##NPOINTS=96
##PEAK TABLE=(XY..XY)
12,10 13,20 14,90 15,709
17,10 18,40 25,40 26,159
27,449 28,389 29,279 30,20
31,80 32,10 34,10 36,20
37,159 38,249 39,669 40,149
41,259 42,449 43,9999 44,259
45,50 48,10 49,40 50,109
51,139 52,60 53,369 54,139
55,559 56,70 57,10 58,30
59,30 60,10 61,40 62,30
63,30 64,10 65,40 66,119
67,279 68,90 69,1749 70,149
71,80 72,20 74,10 75,10
77,20 79,20 80,50 81,20
82,30 83,30 84,1029 85,4889
86,209 87,30 93,40 94,40
95,10 96,10 97,179 98,1219
99,90 100,10 108,20 109,10
110,20 111,959 112,70 113,20
121,10 122,50 123,30 124,10
125,1979 126,289 127,70 139,30
140,359 141,40 150,20 151,10
152,10 153,4109 154,319 155,40
167,10 168,5939 169,559 170,80
##END=
