##TITLE=2-Hexanol, (S)-
##JCAMP-DX=4.24
##DATA TYPE=MASS SPECTRUM
##ORIGIN=Chuck Anderson, Aldrich Chemical Co.
##OWNER=NIST Mass Spectrometry Data Center
Collection (C) 2014 copyright by the U.S. Secretary of Commerce
on behalf of the United States of America. All rights reserved.
##CAS REGISTRY NO=52019-78-0
##$NIST MASS SPEC NO=108251
##MOLFORM=C6 H14 O
##MW=102
##$NIST SOURCE=MSDC
##XUNITS=M/Z
##YUNITS=RELATIVE INTENSITY
##XFACTOR=1
##YFACTOR=1
##FIRSTX=14
##LASTX=101
##FIRSTY=13
##MAXX=101
##MINX=14
##MAXY=9999
##MINY=1
##NPOINTS=48
##PEAK TABLE=(XY..XY)
14,13 15,148 16,7 18,9
19,132 26,61 27,720 28,201
29,747 30,24 31,238 32,4
36,4 37,8 38,32 39,425
40,61 41,1394 42,307 43,1231
44,706 45,9999 46,168 47,24
49,1 50,16 51,22 52,7
53,37 54,18 55,210 56,174
57,148 58,31 59,24 63,1
65,1 67,20 68,39 69,892
70,49 71,13 83,24 84,151
85,20 87,182 88,9 101,13
##END=
