##TITLE=2-Amino-5-chlorobenzamide
##JCAMP-DX=4.24
##DATA TYPE=MASS SPECTRUM
##ORIGIN=NIST Mass Spectrometry Data Center, 1994
##OWNER=NIST Mass Spectrometry Data Center
Collection (C) 2014 copyright by the U.S. Secretary of Commerce
on behalf of the United States of America. All rights reserved.
##CAS REGISTRY NO=5202-85-7
##$NIST MASS SPEC NO=136058
##MOLFORM=C7 H7 Cl N2 O
##MW=170
##$NIST SOURCE=MSDC
##XUNITS=M/Z
##YUNITS=RELATIVE INTENSITY
##XFACTOR=1
##YFACTOR=1
##FIRSTX=16
##LASTX=173
##FIRSTY=324
##MAXX=173
##MINX=16
##MAXY=9999
##MINY=32
##NPOINTS=94
##PEAK TABLE=(XY..XY)
16,324 17,339 18,134 19,93
26,159 27,180 28,620 35,103
36,99 37,631 38,930 39,930
40,321 41,621 42,115 43,159
44,1641 45,191 46,230 47,107
48,32 49,336 50,519 51,546
52,1413 53,439 54,116 59,40
60,142 61,776 62,1468 63,3659
64,1043 65,943 66,208 67,102
68,55 71,89 72,272 73,925
74,395 75,593 76,252 77,206
78,213 79,75 80,262 84,51
85,162 86,136 87,175 88,268
89,545 90,2498 91,681 92,185
96,36 97,201 98,867 99,1619
100,507 101,555 102,77 105,57
106,47 107,71 108,44 110,105
111,39 112,35 114,269 115,44
116,136 117,166 118,141 124,318
125,3329 126,3170 127,1361 128,988
129,78 141,224 143,79 151,107
152,780 153,9999 154,1328 155,3204
156,399 157,32 170,5205 171,524
172,1889 173,144
##END=
