##TITLE=Hex-2-yn-4-one, 2-methyl-
##JCAMP-DX=4.24
##DATA TYPE=MASS SPECTRUM
##ORIGIN=A.Pleshkova, Nesmeyanov Inst.Org.Elem.Cpds, Moscow
##OWNER=NIST Mass Spectrometry Data Center
Collection (C) 2014 copyright by the U.S. Secretary of Commerce
on behalf of the United States of America. All rights reserved.
##CAS REGISTRY NO=52066-33-8
##$NIST MASS SPEC NO=283685
##MOLFORM=C7 H10 O
##MW=110
##$NIST SOURCE=MSDC
##XUNITS=M/Z
##YUNITS=RELATIVE INTENSITY
##XFACTOR=1
##YFACTOR=1
##FIRSTX=27
##LASTX=111
##FIRSTY=701
##MAXX=111
##MINX=27
##MAXY=9999
##MINY=10
##NPOINTS=20
##PEAK TABLE=(XY..XY)
27,701 28,300 37,200 38,300
39,1501 40,300 41,1101 42,200
43,701 44,20 66,200 67,9999
68,500 69,20 82,601 83,50
95,601 96,50 110,200 111,10
##END=
