##TITLE=m-Mentha-4,8-diene, (1S,3S)-(+)-
##JCAMP-DX=4.24
##DATA TYPE=MASS SPECTRUM
##ORIGIN=G.VON BUNAU MAX-PLANCK-INST., MULHEIM-RHUR, GERMANY, FRG
##OWNER=NIST Mass Spectrometry Data Center
Collection (C) 2014 copyright by the U.S. Secretary of Commerce
on behalf of the United States of America. All rights reserved.
##CAS REGISTRY NO=5208-51-5
##$NIST MASS SPEC NO=38917
##MOLFORM=C10 H16
##MW=136
##$NIST SOURCE=MSDC
##XUNITS=M/Z
##YUNITS=RELATIVE INTENSITY
##XFACTOR=1
##YFACTOR=1
##FIRSTX=15
##LASTX=137
##FIRSTY=442
##MAXX=137
##MINX=15
##MAXY=9999
##MINY=147
##NPOINTS=62
##PEAK TABLE=(XY..XY)
15,442 27,1966 29,1351 37,172
38,344 39,3563 41,3268 43,2260
45,663 46,418 47,565 50,541
51,1351 52,639 53,1769 54,344
55,2285 56,147 58,246 59,147
61,246 62,344 63,786 64,344
65,1695 66,663 67,1966 68,1155
69,369 74,197 75,958 76,270
77,3170 78,835 79,9312 80,1499
81,1695 82,491 89,565 90,639
91,8821 92,5749 93,9999 94,2654
95,1425 96,467 103,246 105,1450
106,442 107,5946 108,1130 109,147
117,270 119,762 120,246 121,8034
122,1646 123,172 134,221 135,246
136,9902 137,1155
##END=
