##TITLE=Stanolone
##JCAMP-DX=4.24
##DATA TYPE=MASS SPECTRUM
##ORIGIN=D.HENNEBERG, MAX-PLANCK INSTITUTE, MULHEIM, WEST GERMANY
##OWNER=NIST Mass Spectrometry Data Center
Collection (C) 2014 copyright by the U.S. Secretary of Commerce
on behalf of the United States of America. All rights reserved.
##CAS REGISTRY NO=521-18-6
##$NIST MASS SPEC NO=62018
##MOLFORM=C19 H30 O2
##MW=290
##$NIST SOURCE=MSDC
##XUNITS=M/Z
##YUNITS=RELATIVE INTENSITY
##XFACTOR=1
##YFACTOR=1
##FIRSTX=26
##LASTX=293
##FIRSTY=55
##MAXX=293
##MINX=26
##MAXY=9999
##MINY=4
##NPOINTS=247
##PEAK TABLE=(XY..XY)
26,55 27,753 28,287 29,1495
30,77 31,196 33,4 37,5
38,8 39,794 40,52 41,4214
42,367 43,1534 44,186 45,148
47,10 48,8 49,10 50,23
51,120 52,109 53,1505 54,384
55,4394 56,358 57,1015 58,131
59,42 60,70 61,37 62,14
63,40 64,38 65,567 66,330
67,3479 68,2184 69,1464 70,140
71,577 72,67 73,76 74,141
75,58 76,35 77,1326 78,316
79,2800 80,784 81,3637 82,805
83,788 84,224 85,191 86,43
87,44 88,136 89,42 90,37
91,2064 92,442 93,2642 94,1383
95,2887 96,645 97,910 98,148
99,101 100,20 101,55 102,62
103,132 104,148 105,1733 106,635
107,2306 108,1002 109,1723 110,779
111,738 112,110 113,50 114,26
115,156 116,91 117,339 118,399
119,1349 120,668 121,2058 122,1385
123,2647 124,2061 125,404 126,43
127,38 128,94 129,170 130,89
131,583 132,248 133,1037 134,422
135,1156 136,664 137,811 138,151
139,55 140,17 141,41 142,43
143,209 144,147 145,678 146,337
147,1044 148,538 149,1291 150,309
151,256 152,73 153,46 154,49
155,48 156,20 157,254 158,136
159,730 160,250 161,991 162,502
163,2290 164,734 165,435 166,256
167,544 168,86 169,52 170,18
171,177 172,117 173,519 174,473
175,732 176,595 177,340 178,205
179,433 180,88 181,25 182,11
183,67 184,94 185,266 186,82
187,259 188,141 189,624 190,377
191,186 192,123 193,39 194,20
195,15 197,93 199,1108 200,571
201,460 202,154 203,405 204,692
205,157 206,39 207,16 208,17
209,27 210,21 211,58 212,39
213,533 214,158 215,1183 216,269
217,923 218,525 219,217 220,150
221,39 222,24 223,30 225,27
226,19 227,42 228,138 229,272
230,229 231,9051 232,2032 233,1704
234,350 235,85 236,22 238,11
239,154 240,53 241,37 243,70
244,178 245,66 246,1793 247,955
248,190 249,36 251,9 252,12
253,16 254,62 255,132 256,70
257,966 258,181 259,32 260,35
261,152 262,73 263,18 265,10
266,13 267,9 270,30 271,65
272,1039 273,285 274,54 275,796
276,146 277,32 278,13 279,11
281,9 288,157 289,74 290,9999
291,2123 292,319 293,40
##END=
