##TITLE=Broxyquinoline
##JCAMP-DX=4.24
##DATA TYPE=MASS SPECTRUM
##ORIGIN=Japan AIST/NIMC Database- Spectrum MS-NW-1880
##OWNER=NIST Mass Spectrometry Data Center
Collection (C) 2014 copyright by the U.S. Secretary of Commerce
on behalf of the United States of America. All rights reserved.
##CAS REGISTRY NO=521-74-4
##$NIST MASS SPEC NO=230765
##MOLFORM=C9 H5 Br2 N O
##MW=301
##$NIST SOURCE=MSDC
##XUNITS=M/Z
##YUNITS=RELATIVE INTENSITY
##XFACTOR=1
##YFACTOR=1
##FIRSTX=17
##LASTX=307
##FIRSTY=60
##MAXX=307
##MINX=17
##MAXY=9999
##MINY=10
##NPOINTS=155
##PEAK TABLE=(XY..XY)
17,60 18,109 25,20 26,60
27,50 28,399 29,50 32,70
36,40 37,279 38,289 39,439
40,60 41,109 42,30 43,269
44,159 45,20 48,20 49,159
50,359 51,209 52,139 53,169
54,30 55,60 56,209 57,1709
58,189 60,99 61,689 62,1239
63,849 64,269 65,119 66,40
67,20 68,20 69,40 70,20
71,40 72,20 73,129 74,339
75,289 76,249 77,109 78,40
79,70 80,70 81,70 82,80
83,70 84,119 85,329 86,679
87,1319 88,1469 89,309 90,80
91,30 93,20 95,30 96,269
97,589 98,579 99,90 100,50
101,20 102,30 103,10 104,10
106,20 109,20 110,20 111,80
112,90 113,90 114,1869 115,3839
116,409 117,99 118,60 119,80
123,20 124,20 125,10 126,10
128,20 129,10 130,30 131,20
135,20 136,409 137,749 138,349
139,50 140,60 141,99 142,90
143,579 144,60 145,10 149,40
150,129 151,249 152,119 153,20
154,30 155,20 156,10 157,20
165,50 166,60 167,199 168,90
169,129 170,30 183,20 185,20
192,30 193,339 194,2579 195,639
196,2549 197,259 198,10 200,30
202,30 211,10 221,50 222,629
223,169 224,619 225,109 226,10
245,10 247,30 248,10 249,20
272,109 273,699 274,289 275,1339
276,219 277,669 278,70 300,20
301,5189 302,579 303,9999 304,1069
305,4999 306,509 307,30
##END=
