##TITLE=Luminol
##JCAMP-DX=4.24
##DATA TYPE=MASS SPECTRUM
##ORIGIN=NIST Mass Spectrometry Data Center
##OWNER=NIST Mass Spectrometry Data Center
Collection (C) 2014 copyright by the U.S. Secretary of Commerce
on behalf of the United States of America. All rights reserved.
##CAS REGISTRY NO=521-31-3
##$NIST MASS SPEC NO=342095
##MOLFORM=C8 H7 N3 O2
##MW=177
##$NIST SOURCE=MSDC
##XUNITS=M/Z
##YUNITS=RELATIVE INTENSITY
##XFACTOR=1
##YFACTOR=1
##FIRSTX=14
##LASTX=179
##FIRSTY=20
##MAXX=179
##MINX=14
##MAXY=9999
##MINY=10
##NPOINTS=90
##PEAK TABLE=(XY..XY)
14,20 25,20 26,60 27,60
28,260 29,250 30,70 31,100
32,20 35,30 36,130 37,210
38,430 39,751 40,90 41,270
42,80 44,70 45,250 49,70
50,220 51,310 52,741 53,240
54,130 55,30 56,20 57,20
58,30 59,160 60,260 61,230
62,500 63,1121 64,931 65,2282
66,520 67,100 68,70 69,30
73,130 74,210 75,631 76,300
77,280 78,120 79,80 80,10
86,30 87,50 88,200 89,200
90,550 91,5595 92,1902 93,380
94,80 99,20 100,30 101,20
102,100 103,350 104,130 105,200
106,30 108,30 115,30 116,110
117,210 118,130 119,5885 120,881
121,90 130,30 131,30 132,50
133,50 134,20 144,30 146,150
147,200 148,40 149,30 150,20
162,40 163,20 176,130 177,9999
178,1041 179,80
##END=
