##TITLE=2,3-Dicyano-5-methyl-6-phenylpyrazine
##JCAMP-DX=4.24
##DATA TYPE=MASS SPECTRUM
##ORIGIN=G. HOLZMANN, INST. ORG. CHEM., BERLIN, W. GERMANY
##OWNER=NIST Mass Spectrometry Data Center
Collection (C) 2014 copyright by the U.S. Secretary of Commerce
on behalf of the United States of America. All rights reserved.
##CAS REGISTRY NO=52109-67-8
##$NIST MASS SPEC NO=75563
##MOLFORM=C13 H8 N4
##MW=220
##$NIST SOURCE=MSDC
##XUNITS=M/Z
##YUNITS=RELATIVE INTENSITY
##XFACTOR=1
##YFACTOR=1
##FIRSTX=41
##LASTX=220
##FIRSTY=310
##MAXX=220
##MINX=41
##MAXY=9999
##MINY=310
##NPOINTS=12
##PEAK TABLE=(XY..XY)
41,310 51,720 63,410 76,2740
77,1330 103,7810 104,820 117,1810
179,410 218,420 219,9999 220,6310
##END=
