##TITLE=2,3-Dicyano-5-phenylpyrazine
##JCAMP-DX=4.24
##DATA TYPE=MASS SPECTRUM
##ORIGIN=G. HOLZMANN, INST. ORG. CHEM., BERLIN, W. GE
##OWNER=NIST Mass Spectrometry Data Center
Collection (C) 2014 copyright by the U.S. Secretary of Commerce
on behalf of the United States of America. All rights reserved.
##CAS REGISTRY NO=52109-66-7
##$NIST MASS SPEC NO=75562
##MOLFORM=C12 H6 N4
##MW=206
##$NIST SOURCE=MSDC
##XUNITS=M/Z
##YUNITS=RELATIVE INTENSITY
##XFACTOR=1
##YFACTOR=1
##FIRSTX=63
##LASTX=207
##FIRSTY=1180
##MAXX=207
##MINX=63
##MAXY=9999
##MINY=100
##NPOINTS=20
##PEAK TABLE=(XY..XY)
63,1180 64,270 76,1780 77,9280
78,5100 102,1180 103,9950 104,970
127,820 128,280 129,410 130,100
153,610 154,3520 155,380 179,6510
180,1080 205,1010 206,9999 207,2120
##END=
