##TITLE=2-Methoxyphenylacetone
##JCAMP-DX=4.24
##DATA TYPE=MASS SPECTRUM
##ORIGIN=NIST Mass Spectrometry Data Center
##OWNER=NIST Mass Spectrometry Data Center
Collection (C) 2014 copyright by the U.S. Secretary of Commerce
on behalf of the United States of America. All rights reserved.
##CAS REGISTRY NO=5211-62-1
##$NIST MASS SPEC NO=340498
##MOLFORM=C10 H12 O2
##MW=164
##$NIST SOURCE=MSDC
##XUNITS=M/Z
##YUNITS=RELATIVE INTENSITY
##XFACTOR=1
##YFACTOR=1
##FIRSTX=15
##LASTX=166
##FIRSTY=230
##MAXX=166
##MINX=15
##MAXY=9999
##MINY=10
##NPOINTS=65
##PEAK TABLE=(XY..XY)
15,230 26,30 27,130 29,50
37,30 38,120 39,691 40,40
41,150 42,100 43,2893 44,70
45,20 49,20 50,430 51,1091
52,671 53,200 54,20 55,40
61,50 62,180 63,571 64,150
65,1732 66,120 73,10 74,110
75,80 76,110 77,1201 78,1211
79,260 80,10 85,10 86,30
87,30 88,10 89,500 90,200
91,9999 92,861 93,1051 94,80
102,30 103,120 104,20 105,210
106,70 107,380 108,20 115,30
118,20 119,50 121,8858 122,1722
123,130 131,60 132,20 133,40
135,10 148,10 164,3873 165,430
166,30
##END=
