##TITLE=7,8-Dioxabicyclo[4.2.2]dec-9-ene
##JCAMP-DX=4.24
##DATA TYPE=MASS SPECTRUM
##ORIGIN=ASES Database, Dalian Institute, P.R. China
##OWNER=NIST Mass Spectrometry Data Center
Collection (C) 2014 copyright by the U.S. Secretary of Commerce
on behalf of the United States of America. All rights reserved.
##CAS REGISTRY NO=52148-56-8
##$NIST MASS SPEC NO=143275
##MOLFORM=C8 H12 O2
##MW=140
##$NIST SOURCE=MSDC
##XUNITS=M/Z
##YUNITS=RELATIVE INTENSITY
##XFACTOR=1
##YFACTOR=1
##FIRSTX=26
##LASTX=140
##FIRSTY=700
##MAXX=140
##MINX=26
##MAXY=9999
##MINY=300
##NPOINTS=33
##PEAK TABLE=(XY..XY)
26,700 27,6595 28,5024 29,7486
39,4684 40,400 41,9999 42,990
43,790 53,980 54,790 55,8998
56,1191 57,1491 66,400 67,2482
68,1000 69,790 70,800 77,490
79,2582 80,1991 81,2812 82,300
83,1791 84,490 93,1101 94,300
95,400 96,490 97,300 108,390
140,500
##END=
