##TITLE=2,3'-Bipyridine, 1'-acetyl-1',3,4,4',5,5',6,6'-octahydro-
##JCAMP-DX=4.24
##DATA TYPE=MASS SPECTRUM
##ORIGIN=CARL DJERASSI DEPT OF CHEM STANFORD UNIV STANFORD CALIF 94305
##OWNER=NIST Mass Spectrometry Data Center
Collection (C) 2014 copyright by the U.S. Secretary of Commerce
on behalf of the United States of America. All rights reserved.
##CAS REGISTRY NO=52195-93-4
##$NIST MASS SPEC NO=47412
##MOLFORM=C12 H18 N2 O
##MW=206
##$NIST SOURCE=MSDC
##XUNITS=M/Z
##YUNITS=RELATIVE INTENSITY
##XFACTOR=1
##YFACTOR=1
##FIRSTX=41
##LASTX=207
##FIRSTY=800
##MAXX=207
##MINX=41
##MAXY=9999
##MINY=200
##NPOINTS=27
##PEAK TABLE=(XY..XY)
41,800 43,2500 44,500 53,500
55,600 80,600 82,600 106,500
107,700 108,1700 109,500 120,500
122,1700 134,500 135,800 136,600
147,500 149,1000 163,9999 164,2000
177,400 178,200 191,500 192,300
205,1400 206,6900 207,1200
##END=
