##TITLE=1-Piperidinecarboxaldehyde, 2-(3,4-dihydro-2H-pyrrol-5-yl)-
##JCAMP-DX=4.24
##DATA TYPE=MASS SPECTRUM
##ORIGIN=CARL DJERASSI DEPT OF CHEM STANFORD UNIV STANFORD CALIF 94305
##OWNER=NIST Mass Spectrometry Data Center
Collection (C) 2014 copyright by the U.S. Secretary of Commerce
on behalf of the United States of America. All rights reserved.
##CAS REGISTRY NO=52196-11-9
##$NIST MASS SPEC NO=47133
##MOLFORM=C10 H16 N2 O
##MW=180
##$NIST SOURCE=MSDC
##XUNITS=M/Z
##YUNITS=RELATIVE INTENSITY
##XFACTOR=1
##YFACTOR=1
##FIRSTX=41
##LASTX=180
##FIRSTY=1300
##MAXX=180
##MINX=41
##MAXY=9999
##MINY=100
##NPOINTS=17
##PEAK TABLE=(XY..XY)
41,1300 65,600 66,700 80,300
81,600 82,300 83,600 84,700
96,7200 97,400 109,9999 110,900
113,400 135,400 151,800 163,100
180,200
##END=
