##TITLE=Ethanedione, diphenyl-, dioxime, (E,E)-
##JCAMP-DX=4.24
##DATA TYPE=MASS SPECTRUM
##ORIGIN=Japan AIST/NIMC Database- Spectrum MS-NW-4472
##OWNER=NIST Mass Spectrometry Data Center
Collection (C) 2014 copyright by the U.S. Secretary of Commerce
on behalf of the United States of America. All rights reserved.
##CAS REGISTRY NO=522-34-9
##$NIST MASS SPEC NO=232776
##MOLFORM=C14 H12 N2 O2
##MW=240
##$NIST SOURCE=MSDC
##XUNITS=M/Z
##YUNITS=RELATIVE INTENSITY
##XFACTOR=1
##YFACTOR=1
##FIRSTX=12
##LASTX=242
##FIRSTY=10
##MAXX=242
##MINX=12
##MAXY=9999
##MINY=10
##NPOINTS=181
##PEAK TABLE=(XY..XY)
12,10 14,10 16,40 17,229
18,899 25,20 26,259 27,539
28,289 29,20 30,299 32,40
34,10 36,40 37,399 38,569
39,2109 40,169 41,209 42,30
43,50 44,60 45,20 48,40
49,249 50,2359 51,3639 52,969
53,149 54,20 55,50 56,30
57,40 59,10 60,30 61,279
62,719 63,2559 64,1659 65,519
66,80 67,30 68,10 69,40
70,30 71,30 72,30 73,139
74,659 75,1119 76,4189 77,6579
78,639 79,70 80,20 81,50
82,209 83,139 84,60 85,70
86,189 87,309 88,439 89,7139
90,709 91,2019 92,229 93,70
94,60 95,109 96,60 97,40
98,99 99,149 100,90 101,70
102,469 103,9999 104,3299 105,2079
106,209 107,20 109,20 110,40
111,109 112,30 113,70 114,129
115,239 116,149 117,40 118,30
119,5429 120,979 121,169 122,139
123,20 124,10 125,40 126,179
127,70 128,60 129,70 130,30
132,269 133,30 135,50 136,10
137,50 138,60 139,179 140,90
141,30 142,10 143,10 145,20
146,10 147,20 149,20 150,129
151,289 152,369 153,80 154,20
155,20 156,10 161,10 162,30
163,179 164,199 165,1899 166,989
167,239 168,40 169,10 170,10
171,10 174,20 175,50 176,449
177,429 178,3849 179,659 180,849
181,139 182,90 183,40 184,10
188,30 189,50 190,429 191,299
192,7929 193,4079 194,1029 195,179
196,50 202,10 203,40 204,60
205,499 206,269 207,219 208,219
209,139 210,30 214,10 218,10
219,10 220,10 221,60 222,4699
223,1479 224,659 225,209 226,30
238,399 239,159 240,3749 241,639
242,70
##END=
