##TITLE=Furil dioxime
##JCAMP-DX=4.24
##DATA TYPE=MASS SPECTRUM
##ORIGIN=NIST Mass Spectrometry Data Center, 1998.
##OWNER=NIST Mass Spectrometry Data Center
Collection (C) 2014 copyright by the U.S. Secretary of Commerce
on behalf of the United States of America. All rights reserved.
##CAS REGISTRY NO=522-27-0
##$NIST MASS SPEC NO=292094
##MOLFORM=C10 H8 N2 O4
##MW=220
##$NIST SOURCE=MSDC
##XUNITS=M/Z
##YUNITS=RELATIVE INTENSITY
##XFACTOR=1
##YFACTOR=1
##FIRSTX=25
##LASTX=222
##FIRSTY=40
##MAXX=222
##MINX=25
##MAXY=9999
##MINY=20
##NPOINTS=141
##PEAK TABLE=(XY..XY)
25,40 26,340 27,500 28,680
29,1460 30,570 36,80 37,1470
38,3570 39,8399 40,620 41,950
42,520 43,100 48,30 49,210
50,1440 51,3310 52,1790 53,1550
54,1090 55,2260 56,270 57,80
58,40 59,150 60,50 61,250
62,750 63,1510 64,4380 65,3270
66,1360 67,1210 68,840 69,390
70,150 71,110 72,60 73,180
74,400 75,900 76,1330 77,1870
78,750 79,1120 80,960 81,660
82,510 83,1920 84,1980 85,180
86,160 87,250 88,320 89,2440
90,1140 91,740 92,630 93,9999
94,6159 95,2020 96,200 97,320
98,180 99,90 100,60 101,140
102,870 103,720 104,530 105,460
106,1600 107,720 108,130 109,2430
110,960 111,140 112,30 114,150
115,120 116,1720 117,2590 118,2500
119,840 120,300 121,1470 122,370
123,30 124,50 126,20 127,30
128,50 129,210 130,180 131,960
132,280 133,260 134,240 135,120
136,90 137,1640 138,140 143,80
144,900 145,970 146,1770 147,700
148,350 149,80 150,30 156,40
157,50 158,290 159,100 160,230
161,450 162,300 163,110 172,4410
173,3120 174,950 175,3250 176,470
177,40 185,20 186,290 187,90
188,620 189,140 190,130 191,840
192,90 202,1930 203,760 204,220
205,30 218,50 220,3410 221,420
222,50
##END=
