##TITLE=cis-7,cis-11-Hexadecadien-1-yl acetate
##JCAMP-DX=4.24
##DATA TYPE=MASS SPECTRUM
##ORIGIN=J. Klune, Insect Chem. Ecol. Lab., USDA, Beltsville, MD 20705
##OWNER=NIST Mass Spectrometry Data Center
Collection (C) 2014 copyright by the U.S. Secretary of Commerce
on behalf of the United States of America. All rights reserved.
##CAS REGISTRY NO=52207-99-5
##$NIST MASS SPEC NO=130865
##MOLFORM=C18 H32 O2
##MW=280
##$NIST SOURCE=MSDC
##XUNITS=M/Z
##YUNITS=RELATIVE INTENSITY
##XFACTOR=1
##YFACTOR=1
##FIRSTX=41
##LASTX=282
##FIRSTY=4280
##MAXX=282
##MINX=41
##MAXY=9999
##MINY=7
##NPOINTS=151
##PEAK TABLE=(XY..XY)
41,4280 43,9999 44,273 45,88
47,7 49,11 50,24 51,94
52,79 53,909 54,2688 55,6720
56,547 57,469 58,53 59,39
61,675 62,12 63,26 65,372
67,4905 68,1348 69,1528 70,204
71,221 72,22 73,392 74,13
75,8 77,446 78,185 79,1552
80,1175 81,4871 82,2125 83,809
84,148 85,130 86,28 87,35
89,9 91,356 92,95 93,995
94,823 95,1883 96,2151 97,763
98,118 99,82 100,22 101,45
102,7 103,27 104,9 105,100
106,37 107,590 108,359 109,630
110,726 111,186 112,50 113,57
114,13 115,49 116,9 117,16
118,10 119,52 120,37 121,803
122,731 123,868 124,661 125,120
126,26 127,13 128,10 129,25
130,11 131,7 133,26 134,16
135,561 136,487 137,486 138,371
139,71 140,15 141,37 142,7
143,13 145,7 147,26 148,13
149,616 150,310 151,146 152,118
153,27 154,9 155,10 157,8
158,9 159,12 161,10 162,9
163,370 164,170 165,60 166,48
167,13 168,7 170,7 173,7
175,12 177,129 178,52 179,33
180,13 181,11 182,12 189,8
191,74 192,67 193,22 194,35
195,10 196,28 199,8 205,20
209,26 210,9 211,8 218,7
219,22 220,164 221,51 222,177
223,62 224,25 227,8 236,10
237,62 238,15 251,8 279,8
280,729 281,148 282,24
##END=
