##TITLE=4-(4-Methoxyphenyl)-1-butanol
##JCAMP-DX=4.24
##DATA TYPE=MASS SPECTRUM
##ORIGIN=NIST Mass Spectrometry Data Center, 1994
##OWNER=NIST Mass Spectrometry Data Center
Collection (C) 2014 copyright by the U.S. Secretary of Commerce
on behalf of the United States of America. All rights reserved.
##CAS REGISTRY NO=52244-70-9
##$NIST MASS SPEC NO=136419
##MOLFORM=C11 H16 O2
##MW=180
##$NIST SOURCE=MSDC
##XUNITS=M/Z
##YUNITS=RELATIVE INTENSITY
##XFACTOR=1
##YFACTOR=1
##FIRSTX=4
##LASTX=182
##FIRSTY=15
##MAXX=182
##MINX=4
##MAXY=9999
##MINY=4
##NPOINTS=98
##PEAK TABLE=(XY..XY)
4,15 12,9 13,10 15,309
16,4 17,15 18,31 19,37
26,47 27,350 28,210 29,401
30,80 31,1427 32,27 37,17
38,65 39,566 40,59 41,323
42,44 43,155 44,52 45,22
50,190 51,522 52,301 53,189
54,17 55,127 56,18 57,48
61,12 62,71 63,293 64,146
65,429 66,64 67,29 68,13
71,13 74,35 75,46 76,68
77,1176 78,1139 79,219 80,30
81,16 87,11 89,274 90,138
91,939 92,131 93,48 94,57
95,16 102,44 103,129 104,46
105,106 106,117 107,116 108,80
109,36 110,39 115,117 116,35
117,50 118,21 119,173 120,21
121,9999 122,912 123,81 124,8
127,12 128,19 129,18 130,8
131,53 132,19 133,8 134,796
135,92 136,28 137,18 145,10
146,20 147,72 148,20 149,9
161,38 162,18 178,14 180,1151
181,158 182,14
##END=
