##TITLE=2-Methyl-1-tetradecene
##JCAMP-DX=4.24
##DATA TYPE=MASS SPECTRUM
##ORIGIN=NIST Mass Spectrometry Data Center, 1990.
##OWNER=NIST Mass Spectrometry Data Center
Collection (C) 2014 copyright by the U.S. Secretary of Commerce
on behalf of the United States of America. All rights reserved.
##CAS REGISTRY NO=52254-38-3
##$NIST MASS SPEC NO=113618
##MOLFORM=C15 H30
##MW=210
##$NIST SOURCE=MSDC
##XUNITS=M/Z
##YUNITS=RELATIVE INTENSITY
##XFACTOR=1
##YFACTOR=1
##FIRSTX=27
##LASTX=210
##FIRSTY=1166
##MAXX=210
##MINX=27
##MAXY=9999
##MINY=76
##NPOINTS=43
##PEAK TABLE=(XY..XY)
27,1166 28,961 29,2436 32,153
39,1272 41,5738 42,980 43,3076
44,136 53,588 54,572 55,4411
56,9999 57,4984 58,192 65,110
66,102 67,810 68,673 69,4111
70,1861 71,633 79,139 81,286
82,512 83,1481 84,819 85,404
95,140 96,247 97,1141 98,353
99,76 110,150 111,790 112,276
125,273 126,174 139,94 154,262
182,205 195,98 210,488
##END=
