##TITLE=Cobalt,[[2,2'-[thiobis(3,1-propanediylnitrilomethylidyne)]bis[phenolato]](2-)-N,N',O,O']-,(T-4)-
##JCAMP-DX=4.24
##DATA TYPE=MASS SPECTRUM
##ORIGIN=L.T. TAYLOR, DEP. CHEM., VA. STATE UNIV., BLACKSBURG, VA., USA
##OWNER=NIST Mass Spectrometry Data Center
Collection (C) 2014 copyright by the U.S. Secretary of Commerce
on behalf of the United States of America. All rights reserved.
##CAS REGISTRY NO=52279-54-6
##$NIST MASS SPEC NO=105103
##MOLFORM=C20 H22 Co N2 O2 S
##MW=413
##$NIST SOURCE=MSDC
##XUNITS=M/Z
##YUNITS=RELATIVE INTENSITY
##XFACTOR=1
##YFACTOR=1
##FIRSTX=59
##LASTX=413
##FIRSTY=220
##MAXX=413
##MINX=59
##MAXY=9999
##MINY=20
##NPOINTS=23
##PEAK TABLE=(XY..XY)
59,220 165,480 177,350 178,410
179,820 180,300 192,580 193,130
205,240 206,90 207,190 218,730
219,550 220,750 252,1750 253,480
254,20 266,970 279,330 280,120
307,250 379,660 413,9999
##END=
