##TITLE=4-Methyl-.beta.-methyl-.beta.-nitrostyrene
##JCAMP-DX=4.24
##DATA TYPE=MASS SPECTRUM
##ORIGIN=NIST Mass Spectrometry Data Center, 1994
##OWNER=NIST Mass Spectrometry Data Center
Collection (C) 2014 copyright by the U.S. Secretary of Commerce
on behalf of the United States of America. All rights reserved.
##CAS REGISTRY NO=52287-56-6
##$NIST MASS SPEC NO=135064
##MOLFORM=C10 H11 N O2
##MW=177
##$NIST SOURCE=MSDC
##XUNITS=M/Z
##YUNITS=RELATIVE INTENSITY
##XFACTOR=1
##YFACTOR=1
##FIRSTX=4
##LASTX=178
##FIRSTY=24
##MAXX=178
##MINX=4
##MAXY=9999
##MINY=24
##NPOINTS=105
##PEAK TABLE=(XY..XY)
4,24 14,75 15,426 16,42
17,27 18,97 26,179 27,1131
28,549 29,134 30,954 32,42
37,91 38,428 39,2451 40,317
41,784 42,206 43,404 46,185
50,1113 51,2566 52,546 53,1018
54,91 55,107 57,73 58,68
61,155 62,729 63,2199 64,1513
65,2235 66,264 67,84 68,66
69,47 74,491 75,633 76,552
77,2573 78,865 79,1429 80,2117
81,493 82,106 85,76 86,179
87,300 88,184 89,1606 90,76
91,8029 92,896 93,516 94,129
95,52 97,86 98,103 99,64
100,38 101,210 102,761 103,1335
104,611 105,577 106,690 107,536
108,472 109,89 110,220 111,31
113,126 115,9999 116,6009 117,1504
118,622 119,4271 120,1032 121,305
122,45 126,258 127,1417 128,3052
129,3863 130,2518 131,1285 132,1227
133,177 134,442 135,63 144,137
145,163 146,167 147,323 148,156
149,865 150,120 160,1468 161,200
162,233 163,30 175,35 177,2532
178,320
##END=
