##TITLE=Isopsoralen
##JCAMP-DX=4.24
##DATA TYPE=MASS SPECTRUM
##ORIGIN=Japan AIST/NIMC Database- Spectrum MS-IW-7257
##OWNER=NIST Mass Spectrometry Data Center
Collection (C) 2014 copyright by the U.S. Secretary of Commerce
on behalf of the United States of America. All rights reserved.
##CAS REGISTRY NO=523-50-2
##$NIST MASS SPEC NO=241127
##MOLFORM=C11 H6 O3
##MW=186
##$NIST SOURCE=MSDC
##XUNITS=M/Z
##YUNITS=RELATIVE INTENSITY
##XFACTOR=1
##YFACTOR=1
##FIRSTX=17
##LASTX=188
##FIRSTY=30
##MAXX=188
##MINX=17
##MAXY=9999
##MINY=10
##NPOINTS=59
##PEAK TABLE=(XY..XY)
17,30 18,159 26,10 27,10
28,90 29,40 37,40 38,109
39,70 43,10 49,40 50,309
51,869 52,129 53,60 55,10
61,50 62,119 63,239 64,50
65,179 66,60 73,20 74,269
75,449 76,519 77,50 78,10
79,499 80,10 85,20 86,40
87,50 88,10 89,10 92,10
93,469 97,10 98,60 99,30
100,40 101,259 102,1209 103,109
104,40 113,10 129,329 130,909
131,80 132,10 141,10 157,80
158,5019 159,559 160,50 185,30
186,9999 187,1219 188,129
##END=
