##TITLE=1,1'-Diisoamyl-4,4'-cyanine iodide
##JCAMP-DX=4.24
##DATA TYPE=MASS SPECTRUM
##ORIGIN=Japan AIST/NIMC Database- Spectrum MS-NW-9076
##OWNER=NIST Mass Spectrometry Data Center
Collection (C) 2014 copyright by the U.S. Secretary of Commerce
on behalf of the United States of America. All rights reserved.
##CAS REGISTRY NO=523-42-2
##$NIST MASS SPEC NO=234279
##MOLFORM=C29 H35 I N2
##MW=538
##$NIST SOURCE=MSDC
##XUNITS=M/Z
##YUNITS=RELATIVE INTENSITY
##XFACTOR=1
##YFACTOR=1
##FIRSTX=15
##LASTX=467
##FIRSTY=10
##MAXX=467
##MINX=15
##MAXY=9999
##MINY=10
##NPOINTS=194
##PEAK TABLE=(XY..XY)
15,10 26,40 27,559 28,149
29,599 30,20 37,10 38,30
39,339 40,50 41,969 42,239
43,3879 44,129 50,40 51,70
52,20 53,99 54,20 55,1009
56,80 57,40 62,10 63,50
64,10 65,20 67,10 69,50
70,199 71,2619 72,149 74,10
75,60 76,30 77,90 78,10
81,10 87,20 88,30 89,60
90,10 91,10 93,20 94,40
95,20 99,10 100,30 101,109
102,40 103,20 104,20 106,80
107,50 108,60 109,10 112,10
113,99 114,90 115,99 116,30
117,30 118,10 119,40 120,289
121,70 125,10 126,70 127,279
128,439 129,40 130,99 131,20
132,10 133,20 134,149 135,70
138,10 139,50 140,70 141,129
142,80 143,90 144,20 148,10
150,20 151,20 152,20 153,20
154,99 155,99 156,30 162,10
163,20 164,20 165,20 166,109
167,90 168,20 170,80 174,10
175,10 176,20 177,10 178,10
180,10 183,10 184,10 186,10
187,30 188,30 189,40 190,20
191,20 192,10 198,359 199,30
200,70 201,40 202,30 203,20
204,10 211,10 212,20 213,149
214,99 215,70 216,40 217,20
224,20 225,20 226,60 227,60
228,70 229,40 230,10 238,60
239,60 240,369 241,389 242,199
243,90 244,10 251,20 252,30
253,119 254,499 255,519 256,259
257,50 264,10 265,50 266,179
267,559 268,1619 269,4149 270,1929
271,329 272,30 279,40 280,40
281,149 282,129 283,1809 284,459
285,60 292,10 293,20 294,20
295,70 296,40 297,70 298,20
307,10 312,10 313,10 323,10
324,10 325,80 326,80 327,20
337,20 338,149 339,2879 340,9999
341,2649 342,359 343,30 353,70
354,40 366,10 367,10 410,40
411,20 467,20
##END=
