##TITLE=Dibenzyl phthalate
##JCAMP-DX=4.24
##DATA TYPE=MASS SPECTRUM
##ORIGIN=NIST Mass Spectrometry Data Center, 1998.
##OWNER=NIST Mass Spectrometry Data Center
Collection (C) 2014 copyright by the U.S. Secretary of Commerce
on behalf of the United States of America. All rights reserved.
##CAS REGISTRY NO=523-31-9
##$NIST MASS SPEC NO=292011
##MOLFORM=C22 H18 O4
##MW=346
##$NIST SOURCE=MSDC
##XUNITS=M/Z
##YUNITS=RELATIVE INTENSITY
##XFACTOR=1
##YFACTOR=1
##FIRSTX=27
##LASTX=346
##FIRSTY=20
##MAXX=346
##MINX=27
##MAXY=9999
##MINY=10
##NPOINTS=84
##PEAK TABLE=(XY..XY)
27,20 29,10 37,10 38,30
39,350 40,30 41,120 44,10
49,10 50,340 51,450 52,110
53,40 61,10 62,50 63,270
64,100 65,2130 66,110 73,10
74,60 75,90 76,640 77,960
78,160 79,630 80,40 87,10
89,430 90,260 91,9999 92,2210
93,410 94,20 104,660 105,650
106,120 107,9019 108,730 109,40
115,20 118,10 119,10 121,280
122,60 123,10 127,10 128,10
132,260 133,180 134,20 139,10
141,10 149,7659 150,730 151,100
152,120 153,50 154,10 163,10
164,20 165,270 166,70 167,60
168,10 178,30 179,30 180,90
181,60 182,10 193,40 194,40
195,10 197,10 198,10 210,10
211,20 225,10 238,80 239,30
240,10 255,70 256,10 346,20
##END=
