##TITLE=Anthracene, 9,10-dibromo-
##JCAMP-DX=4.24
##DATA TYPE=MASS SPECTRUM
##ORIGIN=Japan AIST/NIMC Database- Spectrum MS-NW-2470
##OWNER=NIST Mass Spectrometry Data Center
Collection (C) 2014 copyright by the U.S. Secretary of Commerce
on behalf of the United States of America. All rights reserved.
##CAS REGISTRY NO=523-27-3
##$NIST MASS SPEC NO=230876
##MOLFORM=C14 H8 Br2
##MW=334
##$NIST SOURCE=MSDC
##XUNITS=M/Z
##YUNITS=RELATIVE INTENSITY
##XFACTOR=1
##YFACTOR=1
##FIRSTX=26
##LASTX=340
##FIRSTY=30
##MAXX=340
##MINX=26
##MAXY=9999
##MINY=10
##NPOINTS=119
##PEAK TABLE=(XY..XY)
26,30 27,40 28,209 37,40
38,60 39,159 41,30 43,20
44,349 49,20 50,249 51,209
52,30 55,20 57,20 60,10
61,189 62,409 63,299 64,20
67,20 69,10 71,10 73,149
74,839 75,1249 76,209 77,70
78,10 79,30 80,40 81,20
82,50 83,10 84,20 85,179
86,349 87,1549 88,4729 89,70
94,20 95,20 97,60 98,509
99,409 100,149 101,70 102,60
108,20 109,90 110,189 111,199
112,50 113,20 114,20 115,40
116,20 117,10 119,10 120,30
121,60 122,259 123,199 124,109
125,119 126,269 127,299 128,349
129,50 132,20 133,30 134,70
135,80 136,20 137,70 138,20
146,80 147,40 148,50 149,509
150,1209 151,219 152,70 154,50
155,80 156,40 163,10 167,619
168,1179 169,569 170,20 173,99
174,1529 175,1689 176,9999 177,1559
178,149 179,20 180,70 189,30
190,30 195,10 207,10 208,70
209,10 254,209 255,739 256,409
257,759 258,209 259,30 333,20
334,2639 335,429 336,5459 337,909
338,2769 339,399 340,40
##END=
