##TITLE=2,3,5,6-Tetrafluorotoluene
##JCAMP-DX=4.24
##DATA TYPE=MASS SPECTRUM
##ORIGIN=NIST Mass Spectrometry Data Center, 1994
##OWNER=NIST Mass Spectrometry Data Center
Collection (C) 2014 copyright by the U.S. Secretary of Commerce
on behalf of the United States of America. All rights reserved.
##CAS REGISTRY NO=5230-78-4
##$NIST MASS SPEC NO=136384
##MOLFORM=C7 H4 F4
##MW=164
##$NIST SOURCE=MSDC
##XUNITS=M/Z
##YUNITS=RELATIVE INTENSITY
##XFACTOR=1
##YFACTOR=1
##FIRSTX=13
##LASTX=165
##FIRSTY=30
##MAXX=165
##MINX=13
##MAXY=9999
##MINY=15
##NPOINTS=92
##PEAK TABLE=(XY..XY)
13,30 14,104 15,92 18,34
26,78 27,26 28,522 31,1922
32,66 33,80 36,38 37,317
38,217 39,182 40,15 44,75
45,20 47,30 49,98 50,420
51,681 52,20 55,111 56,495
57,610 60,55 61,481 62,621
63,795 64,68 68,443 69,957
70,78 72,145 73,91 74,512
75,1550 76,93 77,25 79,257
80,407 81,658 83,29 84,43
85,94 86,153 87,149 88,329
89,24 92,234 93,817 94,392
95,358 96,21 98,134 99,791
100,103 101,91 103,57 104,89
105,128 106,90 110,43 111,108
112,393 113,820 114,3086 115,206
117,177 118,55 119,452 120,40
122,32 123,287 124,48 125,723
126,59 130,58 132,324 133,23
137,565 138,33 141,71 143,2164
144,488 145,2971 146,249 150,34
161,201 163,9999 164,7088 165,529
##END=
