##TITLE=Cypermethrin
##JCAMP-DX=4.24
##DATA TYPE=MASS SPECTRUM
##ORIGIN=NIST Mass Spectrometry Data Center, 1998.
##OWNER=NIST Mass Spectrometry Data Center
Collection (C) 2014 copyright by the U.S. Secretary of Commerce
on behalf of the United States of America. All rights reserved.
##CAS REGISTRY NO=52315-07-8
##$NIST MASS SPEC NO=291856
##MOLFORM=C22 H19 Cl2 N O3
##MW=415
##$NIST SOURCE=MSDC
##XUNITS=M/Z
##YUNITS=RELATIVE INTENSITY
##XFACTOR=1
##YFACTOR=1
##FIRSTX=15
##LASTX=419
##FIRSTY=10
##MAXX=419
##MINX=15
##MAXY=9999
##MINY=10
##NPOINTS=214
##PEAK TABLE=(XY..XY)
15,10 26,20 27,320 28,50
29,160 31,10 35,10 36,20
37,30 38,120 39,1030 40,140
41,920 42,80 43,740 44,50
45,30 47,10 49,70 50,410
51,1880 52,210 53,360 54,50
55,340 56,20 57,10 59,40
60,20 61,70 62,200 63,620
64,250 65,1040 66,160 67,180
68,50 69,60 70,20 71,20
72,20 73,380 74,110 75,530
76,490 77,3250 78,400 79,450
80,130 81,80 82,50 83,490
84,40 85,340 86,60 87,450
88,420 89,400 90,40 91,4080
92,610 93,410 94,140 95,80
96,80 97,60 98,30 99,280
100,70 101,180 102,120 103,270
104,60 105,40 106,10 107,60
108,10 109,770 110,40 111,660
112,180 113,390 114,650 115,1140
116,300 117,80 118,20 119,60
120,40 121,220 122,40 123,300
124,30 125,470 126,140 127,2960
128,710 129,950 130,210 131,100
132,40 133,30 134,10 135,60
136,10 137,130 138,40 139,270
140,240 141,460 142,80 143,100
144,40 145,30 146,10 147,40
148,30 149,330 150,130 151,680
152,1610 153,1130 154,250 155,120
156,40 157,50 158,10 159,20
161,50 163,9999 164,860 165,6479
166,540 167,1080 168,530 169,260
170,50 171,70 172,40 173,40
174,20 175,20 176,30 177,120
178,270 179,230 180,1740 181,8899
182,1310 183,130 184,10 189,190
190,210 191,430 192,60 193,250
194,40 195,50 196,20 197,180
198,80 199,10 206,550 207,790
208,1870 209,2050 210,330 211,60
212,10 215,30 216,10 217,20
219,20 220,10 222,10 223,20
224,20 225,30 235,10 242,10
243,50 244,20 245,20 254,10
262,10 265,40 266,10 280,20
281,10 282,10 284,20 285,10
286,10 289,10 290,10 310,10
315,30 316,10 317,20 318,10
319,10 343,10 344,10 351,10
353,10 379,70 380,30 381,30
382,10 415,80 416,20 417,60
418,10 419,10
##END=
