##TITLE=Cyclopentene, 1-octyl-
##JCAMP-DX=4.24
##DATA TYPE=MASS SPECTRUM
##ORIGIN=S.A. Rang et al., IR & MS of Unsatd. Hydrocarbons, 1977
##OWNER=NIST Mass Spectrometry Data Center
Collection (C) 2014 copyright by the U.S. Secretary of Commerce
on behalf of the United States of America. All rights reserved.
##CAS REGISTRY NO=52315-44-3
##$NIST MASS SPEC NO=142672
##MOLFORM=C13 H24
##MW=180
##$NIST SOURCE=MSDC
##XUNITS=M/Z
##YUNITS=RELATIVE INTENSITY
##XFACTOR=1
##YFACTOR=1
##FIRSTX=15
##LASTX=182
##FIRSTY=37
##MAXX=182
##MINX=15
##MAXY=9999
##MINY=7
##NPOINTS=87
##PEAK TABLE=(XY..XY)
15,37 25,10 26,66 27,1126
28,230 29,1702 30,40 31,26
37,9 38,26 39,988 40,213
41,3841 42,431 43,1397 44,31
50,33 51,143 52,144 53,1080
54,609 55,1702 56,356 57,701
58,38 63,35 64,16 65,408
66,885 67,9999 68,1222 69,632
70,184 71,118 75,9 76,7
77,609 78,172 79,1702 80,597
81,2532 82,6076 83,1790 84,172
85,17 91,362 92,78 93,368
94,356 95,2663 96,586 97,120
98,89 103,19 104,14 105,70
106,64 107,44 108,35 109,270
110,195 111,63 112,31 113,14
119,35 121,28 122,35 123,356
124,218 125,24 133,26 134,84
135,19 136,14 137,124 138,75
139,10 148,14 149,16 150,37
151,24 152,71 153,10 178,9
180,1222 181,172 182,12
##END=
