##TITLE=Etocrylene
##JCAMP-DX=4.24
##DATA TYPE=MASS SPECTRUM
##ORIGIN=NIST Mass Spectrometry Data Center
##OWNER=NIST Mass Spectrometry Data Center
Collection (C) 2014 copyright by the U.S. Secretary of Commerce
on behalf of the United States of America. All rights reserved.
##CAS REGISTRY NO=5232-99-5
##$NIST MASS SPEC NO=343345
##MOLFORM=C18 H15 N O2
##MW=277
##$NIST SOURCE=MSDC
##XUNITS=M/Z
##YUNITS=RELATIVE INTENSITY
##XFACTOR=1
##YFACTOR=1
##FIRSTX=13
##LASTX=279
##FIRSTY=40
##MAXX=279
##MINX=13
##MAXY=9999
##MINY=10
##NPOINTS=139
##PEAK TABLE=(XY..XY)
13,40 14,10 15,430 16,80
17,30 18,80 25,30 26,220
27,2012 29,4994 30,220 37,40
38,100 39,771 40,50 41,50
43,260 44,310 45,60 50,991
51,3683 52,510 53,90 61,70
62,240 63,681 64,170 65,200
66,40 67,30 74,480 75,821
76,851 77,4194 78,831 79,60
81,40 82,70 83,30 85,30
86,150 87,370 88,1081 89,410
91,230 92,30 94,70 98,160
99,310 100,490 101,440 102,530
103,80 105,2192 106,160 110,40
111,90 112,80 113,160 114,110
115,220 116,40 121,50 123,80
124,50 125,110 126,330 127,550
128,510 129,110 137,110 138,90
139,230 140,130 149,180 150,601
151,1031 152,931 153,190 154,90
155,40 156,60 162,50 163,260
164,300 165,1281 166,250 167,100
171,180 172,681 173,90 174,250
175,731 176,2813 177,2793 178,2622
179,430 180,120 181,140 182,50
183,110 188,60 189,80 190,500
191,230 192,130 193,120 194,80
200,370 201,781 202,1141 203,4804
204,7176 205,1742 206,390 207,70
211,30 216,60 217,80 218,120
219,120 220,330 221,120 222,110
223,30 230,721 231,921 232,7066
233,1341 234,160 248,5905 249,2042
250,290 258,60 259,40 276,2372
277,9999 278,2032 279,220
##END=
