##TITLE=Nickel,[[2,2'-[1,7-heptanediylbis(nitrilomethylidyne)]bis[phenolato]](2-)-N,N',O,O']-
##JCAMP-DX=4.24
##DATA TYPE=MASS SPECTRUM
##ORIGIN=L.T. TAYLOR, DEP. CHEM., VA. STATE UNIV., BLACKSBURG, VA., USA
##OWNER=NIST Mass Spectrometry Data Center
Collection (C) 2014 copyright by the U.S. Secretary of Commerce
on behalf of the United States of America. All rights reserved.
##CAS REGISTRY NO=52358-03-9
##$NIST MASS SPEC NO=105095
##MOLFORM=C21 H24 N2 Ni O2
##MW=394
##$NIST SOURCE=MSDC
##XUNITS=M/Z
##YUNITS=RELATIVE INTENSITY
##XFACTOR=1
##YFACTOR=1
##FIRSTX=58
##LASTX=394
##FIRSTY=370
##MAXX=394
##MINX=58
##MAXY=9999
##MINY=20
##NPOINTS=20
##PEAK TABLE=(XY..XY)
58,370 164,430 177,520 178,720
179,1700 191,690 205,240 219,660
232,430 233,400 245,370 246,330
247,210 260,470 261,160 273,1740
274,350 275,20 288,500 394,9999
##END=
