##TITLE=2-Methylvaleroyl chloride
##JCAMP-DX=4.24
##DATA TYPE=MASS SPECTRUM
##ORIGIN=NIST Mass Spectrometry Data Center, 1998.
##OWNER=NIST Mass Spectrometry Data Center
Collection (C) 2014 copyright by the U.S. Secretary of Commerce
on behalf of the United States of America. All rights reserved.
##CAS REGISTRY NO=5238-27-7
##$NIST MASS SPEC NO=292092
##MOLFORM=C6 H11 Cl O
##MW=134
##$NIST SOURCE=MSDC
##XUNITS=M/Z
##YUNITS=RELATIVE INTENSITY
##XFACTOR=1
##YFACTOR=1
##FIRSTX=14
##LASTX=119
##FIRSTY=10
##MAXX=119
##MINX=14
##MAXY=9999
##MINY=10
##NPOINTS=64
##PEAK TABLE=(XY..XY)
14,10 15,80 25,10 26,250
27,1950 28,650 29,1510 30,30
31,20 35,40 36,60 37,90
38,260 39,2360 40,370 41,4010
42,1460 43,9999 44,320 45,10
47,10 49,80 50,160 51,240
52,80 53,490 54,120 55,2270
56,1990 57,750 58,30 61,60
62,50 63,510 64,20 65,210
66,10 67,70 68,20 69,450
70,480 71,8069 72,450 73,30
74,10 75,20 77,40 78,20
79,20 81,20 83,20 89,10
91,100 92,2630 93,110 94,840
95,30 98,110 99,1410 100,100
105,150 106,10 107,40 119,20
##END=
