##TITLE=Cyclohexanemethyl isothiocyanate
##JCAMP-DX=4.24
##DATA TYPE=MASS SPECTRUM
##ORIGIN=NIST Mass Spectrometry Data Center, 1994
##OWNER=NIST Mass Spectrometry Data Center
Collection (C) 2014 copyright by the U.S. Secretary of Commerce
on behalf of the United States of America. All rights reserved.
##CAS REGISTRY NO=52395-66-1
##$NIST MASS SPEC NO=134510
##MOLFORM=C8 H13 N S
##MW=155
##$NIST SOURCE=MSDC
##XUNITS=M/Z
##YUNITS=RELATIVE INTENSITY
##XFACTOR=1
##YFACTOR=1
##FIRSTX=4
##LASTX=157
##FIRSTY=32
##MAXX=157
##MINX=4
##MAXY=9999
##MINY=15
##NPOINTS=87
##PEAK TABLE=(XY..XY)
4,32 14,26 15,108 26,166
27,1612 28,476 29,1112 30,82
32,77 37,36 38,168 39,2357
40,412 41,4236 42,269 43,489
44,125 45,355 46,69 47,25
50,115 51,274 52,169 53,796
54,25 55,9999 56,519 57,77
58,134 59,142 60,87 61,15
62,43 63,49 64,28 65,181
66,136 67,917 68,266 69,317
70,88 71,15 72,1298 73,586
74,238 75,206 76,62 77,161
78,73 79,223 80,173 81,580
82,62 83,2508 84,204 85,54
86,36 88,24 89,57 91,46
93,82 94,142 95,176 96,87
97,769 98,143 99,139 100,417
101,44 102,25 108,37 112,305
113,648 114,167 115,46 122,1077
123,124 124,24 125,24 126,410
127,244 128,38 140,111 154,170
155,1800 156,190 157,84
##END=
