##TITLE=Dimethylthiambutene
##JCAMP-DX=4.24
##DATA TYPE=MASS SPECTRUM
##ORIGIN=HOME OFFICE, CENTRAL RES. EST., ALDERMASTON, BERKS., U.K.
##OWNER=NIST Mass Spectrometry Data Center
Collection (C) 2014 copyright by the U.S. Secretary of Commerce
on behalf of the United States of America. All rights reserved.
##CAS REGISTRY NO=524-84-5
##$NIST MASS SPEC NO=58689
##MOLFORM=C14 H17 N S2
##MW=263
##$NIST SOURCE=MSDC
##XUNITS=M/Z
##YUNITS=RELATIVE INTENSITY
##XFACTOR=1
##YFACTOR=1
##FIRSTX=41
##LASTX=264
##FIRSTY=200
##MAXX=264
##MINX=41
##MAXY=9999
##MINY=100
##NPOINTS=63
##PEAK TABLE=(XY..XY)
41,200 42,800 43,200 44,400
45,700 51,200 56,1300 57,200
58,200 63,400 65,200 69,300
70,200 71,300 72,1700 77,300
84,400 89,200 91,400 95,200
97,3600 98,200 99,200 100,200
102,300 108,200 109,300 111,2000
112,200 115,200 121,300 124,200
128,200 134,400 135,500 141,300
146,200 147,300 158,200 164,200
171,400 172,100 173,100 177,100
178,300 179,200 184,400 185,500
186,300 190,200 203,400 204,200
217,300 218,400 219,2700 220,400
221,200 233,100 248,9999 249,1600
250,900 263,1100 264,200
##END=
