##TITLE=Benzamide, 2,5-dihydroxy-
##JCAMP-DX=4.24
##DATA TYPE=MASS SPECTRUM
##ORIGIN=Japan AIST/NIMC Database- Spectrum MS-IW-7817
##OWNER=NIST Mass Spectrometry Data Center
Collection (C) 2014 copyright by the U.S. Secretary of Commerce
on behalf of the United States of America. All rights reserved.
##CAS REGISTRY NO=52405-73-9
##$NIST MASS SPEC NO=241471
##MOLFORM=C7 H7 N O3
##MW=153
##$NIST SOURCE=MSDC
##XUNITS=M/Z
##YUNITS=RELATIVE INTENSITY
##XFACTOR=1
##YFACTOR=1
##FIRSTX=15
##LASTX=155
##FIRSTY=10
##MAXX=155
##MINX=15
##MAXY=9999
##MINY=10
##NPOINTS=86
##PEAK TABLE=(XY..XY)
15,10 16,20 17,90 18,459
25,20 26,119 27,239 28,189
29,80 31,10 35,10 37,40
38,50 39,119 40,20 41,50
42,30 43,80 44,219 45,30
48,10 49,60 50,139 51,349
52,1009 53,689 54,269 55,209
56,10 57,40 60,10 61,60
62,80 63,139 64,50 65,20
66,20 67,20 68,40 69,179
70,60 71,30 74,10 75,10
76,129 77,50 78,60 79,399
80,1769 81,379 82,439 83,30
85,20 88,10 90,10 91,30
92,20 94,10 95,10 96,60
97,30 99,10 105,10 106,70
107,519 108,2149 109,329 110,50
111,20 119,40 121,10 123,10
124,40 125,10 134,40 135,1899
136,9999 137,1029 138,109 139,10
149,20 151,10 152,50 153,5249
154,489 155,50
##END=
