##TITLE=2-Butyl-5-methylthiazole
##JCAMP-DX=4.24
##DATA TYPE=MASS SPECTRUM
##ORIGIN=R. TABACCHI, INST. CHIM., UNIV. NEUCHATEL, BASEL, SWITZ.
##OWNER=NIST Mass Spectrometry Data Center
Collection (C) 2014 copyright by the U.S. Secretary of Commerce
on behalf of the United States of America. All rights reserved.
##CAS REGISTRY NO=52414-85-4
##$NIST MASS SPEC NO=104224
##MOLFORM=C8 H13 N S
##MW=155
##$NIST SOURCE=MSDC
##XUNITS=M/Z
##YUNITS=RELATIVE INTENSITY
##XFACTOR=1
##YFACTOR=1
##FIRSTX=27
##LASTX=157
##FIRSTY=1420
##MAXX=157
##MINX=27
##MAXY=9999
##MINY=170
##NPOINTS=33
##PEAK TABLE=(XY..XY)
27,1420 28,1260 29,790 39,2880
41,1730 43,470 45,1520 54,680
58,470 59,1000 60,260 68,370
69,260 70,210 71,4710 72,4720
73,1990 85,680 98,370 99,210
100,260 112,4970 113,9999 114,1830
115,1150 126,5230 127,1470 128,370
140,1310 154,470 155,1100 156,260
157,170
##END=
