##TITLE=Benzeneacetic acid, 4-chloro-, methyl ester
##JCAMP-DX=4.24
##DATA TYPE=MASS SPECTRUM
##ORIGIN=NIST Mass Spectrometry Data Center
##OWNER=NIST Mass Spectrometry Data Center
Collection (C) 2014 copyright by the U.S. Secretary of Commerce
on behalf of the United States of America. All rights reserved.
##CAS REGISTRY NO=52449-43-1
##$NIST MASS SPEC NO=353110
##MOLFORM=C9 H9 Cl O2
##MW=184
##$NIST SOURCE=MSDC
##XUNITS=M/Z
##YUNITS=RELATIVE INTENSITY
##XFACTOR=1
##YFACTOR=1
##FIRSTX=14
##LASTX=188
##FIRSTY=10
##MAXX=188
##MINX=14
##MAXY=9999
##MINY=10
##NPOINTS=95
##PEAK TABLE=(XY..XY)
14,10 15,260 26,20 27,30
28,40 29,130 30,50 31,40
32,10 35,10 36,10 37,40
38,110 39,370 40,40 41,20
42,20 43,40 44,80 47,10
49,40 50,200 51,230 52,30
53,10 59,741 60,30 61,100
62,330 63,911 64,170 65,110
66,10 72,20 73,250 74,100
75,200 76,30 77,140 78,40
79,30 84,20 85,60 86,100
87,110 88,40 89,1962 90,601
91,130 92,10 96,10 97,50
98,10 99,530 100,30 101,170
102,10 103,30 104,10 105,631
106,70 111,30 112,20 113,20
114,10 117,10 118,10 121,20
123,60 124,120 125,9999 126,841
127,3343 128,260 129,10 133,10
134,10 139,40 140,10 141,30
142,20 143,10 144,10 149,30
152,100 153,110 154,40 155,40
169,20 171,10 184,2282 185,240
186,761 187,70 188,10
##END=
