##TITLE=Ethanol, 2,2'-[1,2-ethanediylbis(thio)]bis-
##JCAMP-DX=4.24
##DATA TYPE=MASS SPECTRUM
##ORIGIN=Japan AIST/NIMC Database- Spectrum MS-NW-9918
##OWNER=NIST Mass Spectrometry Data Center
Collection (C) 2014 copyright by the U.S. Secretary of Commerce
on behalf of the United States of America. All rights reserved.
##CAS REGISTRY NO=5244-34-8
##$NIST MASS SPEC NO=239080
##MOLFORM=C6 H14 O2 S2
##MW=182
##$NIST SOURCE=MSDC
##XUNITS=M/Z
##YUNITS=RELATIVE INTENSITY
##XFACTOR=1
##YFACTOR=1
##FIRSTX=14
##LASTX=185
##FIRSTY=10
##MAXX=185
##MINX=14
##MAXY=9999
##MINY=10
##NPOINTS=112
##PEAK TABLE=(XY..XY)
14,10 15,109 17,99 18,319
19,70 26,70 27,729 28,249
29,219 30,20 31,679 32,30
33,10 34,40 35,279 37,10
39,30 41,169 42,60 43,369
44,199 45,3709 46,729 47,1119
48,299 49,99 50,10 53,189
54,10 55,40 57,30 58,249
59,1149 60,2649 61,9999 62,459
63,489 64,149 65,30 66,30
70,10 71,299 72,60 73,649
74,219 75,1329 76,399 77,339
78,159 79,569 80,30 81,40
82,10 84,10 85,279 86,239
87,1329 88,99 89,129 90,30
91,3059 92,439 93,219 94,1029
95,60 96,90 97,10 102,30
103,209 104,4349 105,8249 106,649
107,569 108,149 109,319 110,50
111,20 112,30 118,99 119,199
120,1139 121,129 122,109 123,20
125,10 127,10 130,10 132,30
133,90 134,10 135,20 136,50
137,209 138,2779 139,349 140,259
141,30 142,10 146,10 151,50
153,20 154,80 155,20 164,3139
165,279 166,299 167,20 168,10
182,869 183,80 184,99 185,10
##END=
