##TITLE=1,4-Methanoanthracene,1,4-dihydro-9,10-dimethoxy-
##JCAMP-DX=4.24
##DATA TYPE=MASS SPECTRUM
##ORIGIN=A.A.Kutin, Moscow, Russia
##OWNER=NIST Mass Spectrometry Data Center
Collection (C) 2014 copyright by the U.S. Secretary of Commerce
on behalf of the United States of America. All rights reserved.
##CAS REGISTRY NO=52457-25-7
##$NIST MASS SPEC NO=269253
##MOLFORM=C17 H16 O2
##MW=252
##$NIST SOURCE=MSDC
##XUNITS=M/Z
##YUNITS=RELATIVE INTENSITY
##XFACTOR=1
##YFACTOR=1
##FIRSTX=39
##LASTX=255
##FIRSTY=50
##MAXX=255
##MINX=39
##MAXY=9999
##MINY=7
##NPOINTS=142
##PEAK TABLE=(XY..XY)
39,50 49,96 50,190 51,218
52,19 53,40 55,11 59,11
60,37 61,131 62,499 63,929
64,221 65,227 67,15 68,21
69,198 70,86 72,10 74,828
75,752 76,2002 77,599 78,162
79,87 80,50 82,1091 83,838
85,151 86,528 87,801 88,832
89,2226 91,1014 93,246 94,156
96,436 97,522 98,508 99,344
100,309 101,396 102,481 103,532
104,598 105,708 107,58 108,32
109,97 110,743 111,1551 113,999
114,459 115,951 117,246 118,523
119,890 121,72 122,170 123,116
124,161 125,435 126,1117 127,304
128,207 129,90 131,41 132,15
133,108 134,78 135,107 136,74
137,236 139,3947 140,1190 141,216
143,65 145,78 146,15 148,93
150,861 151,1912 152,2965 153,420
154,183 155,198 156,52 157,14
159,35 161,203 163,1851 165,9999
166,2060 168,1515 169,97 171,7
172,48 174,200 176,2092 178,3997
179,604 180,422 181,228 182,163
183,115 184,36 185,9 187,69
188,110 189,142 190,204 191,437
193,1064 194,2302 196,1108 197,36
199,7 202,69 205,2619 206,896
208,562 209,359 210,467 211,1706
212,202 218,72 219,271 221,1694
222,1521 223,1257 224,53 225,25
226,13 232,18 233,86 235,303
237,8152 239,78 248,59 252,7055
254,67 255,7
##END=
