##TITLE=3-Cyclohexene-1-carboxaldehyde, 3-(4-methyl-3-pentenyl)-
##JCAMP-DX=4.24
##DATA TYPE=MASS SPECTRUM
##ORIGIN=W.Jennings, T.Shibamoto
##OWNER=NIST Mass Spectrometry Data Center
Collection (C) 2014 copyright by the U.S. Secretary of Commerce
on behalf of the United States of America. All rights reserved.
##CAS REGISTRY NO=52475-89-5
##$NIST MASS SPEC NO=285431
##MOLFORM=C13 H20 O
##MW=192
##$NIST SOURCE=MSDC
##XUNITS=M/Z
##YUNITS=RELATIVE INTENSITY
##XFACTOR=1
##YFACTOR=1
##FIRSTX=24
##LASTX=192
##FIRSTY=210
##MAXX=192
##MINX=24
##MAXY=9999
##MINY=70
##NPOINTS=45
##PEAK TABLE=(XY..XY)
24,210 29,70 41,3153 42,70
43,270 53,70 55,380 57,70
67,561 68,180 69,9999 70,771
77,190 79,681 80,70 81,561
82,70 85,70 91,370 92,180
93,1882 94,270 95,751 96,70
104,180 105,450 106,70 107,350
108,70 109,70 110,70 119,70
121,270 122,180 123,70 131,70
135,190 136,70 148,70 149,450
161,70 163,1281 164,70 177,70
192,380
##END=
