##TITLE=9-Aminofluorene
##JCAMP-DX=4.24
##DATA TYPE=MASS SPECTRUM
##ORIGIN=NIST Mass Spectrometry Data Center
##OWNER=NIST Mass Spectrometry Data Center
Collection (C) 2014 copyright by the U.S. Secretary of Commerce
on behalf of the United States of America. All rights reserved.
##CAS REGISTRY NO=525-03-1
##$NIST MASS SPEC NO=340584
##MOLFORM=C13 H11 N
##MW=181
##$NIST SOURCE=MSDC
##XUNITS=M/Z
##YUNITS=RELATIVE INTENSITY
##XFACTOR=1
##YFACTOR=1
##FIRSTX=26
##LASTX=183
##FIRSTY=10
##MAXX=183
##MINX=26
##MAXY=9999
##MINY=10
##NPOINTS=81
##PEAK TABLE=(XY..XY)
26,10 27,50 37,10 38,30
39,130 41,10 50,160 51,290
52,90 53,20 60,10 61,30
62,120 63,330 64,80 65,40
69,100 73,10 74,180 75,280
76,621 77,1121 78,90 81,90
82,120 85,20 86,100 87,140
88,60 89,290 90,1061 98,90
99,80 100,60 101,110 102,100
103,30 104,30 109,10 110,40
111,50 112,10 113,110 114,50
115,140 116,20 122,20 123,10
124,20 125,80 126,250 127,290
128,110 129,10 137,60 138,40
139,210 140,130 141,20 149,30
150,270 151,651 152,1461 153,390
154,80 161,20 162,80 163,500
164,310 165,751 166,110 167,10
175,10 176,20 177,160 178,280
179,370 180,9999 181,4814 182,571
183,30
##END=
