##TITLE=Ethenone, 2,2-diphenyl-
##JCAMP-DX=4.24
##DATA TYPE=MASS SPECTRUM
##ORIGIN=D.HENNEBERG, MAX-PLANCK INSTITUTE, MULHEIM, WEST GERMANY
##OWNER=NIST Mass Spectrometry Data Center
Collection (C) 2014 copyright by the U.S. Secretary of Commerce
on behalf of the United States of America. All rights reserved.
##CAS REGISTRY NO=525-06-4
##$NIST MASS SPEC NO=61691
##MOLFORM=C14 H10 O
##MW=194
##$NIST SOURCE=MSDC
##XUNITS=M/Z
##YUNITS=RELATIVE INTENSITY
##XFACTOR=1
##YFACTOR=1
##FIRSTX=27
##LASTX=196
##FIRSTY=11
##MAXX=196
##MINX=27
##MAXY=9999
##MINY=8
##NPOINTS=65
##PEAK TABLE=(XY..XY)
27,11 28,229 39,96 40,253
43,39 44,28 50,13 51,71
52,16 58,12 62,30 63,163
64,29 65,63 74,16 75,35
76,48 77,116 78,19 81,14
82,106 83,218 86,9 87,41
88,76 89,174 90,15 91,30
97,56 99,8 100,10 101,18
102,46 105,70 113,143 114,67
115,441 116,51 126,93 127,26
128,15 137,26 138,64 139,897
140,115 141,14 142,21 143,15
150,24 151,14 152,8 162,49
163,847 164,1207 165,9999 166,4949
167,549 168,34 176,8 178,16
182,25 193,11 194,4941 195,744
196,64
##END=
