##TITLE=Undecanal dimethyl acetal
##JCAMP-DX=4.24
##DATA TYPE=MASS SPECTRUM
##ORIGIN=Insect Chem. Ecol. Lab., USDA, Beltsville, MD 20705
##OWNER=NIST Mass Spectrometry Data Center
Collection (C) 2014 copyright by the U.S. Secretary of Commerce
on behalf of the United States of America. All rights reserved.
##CAS REGISTRY NO=52517-67-6
##$NIST MASS SPEC NO=132321
##MOLFORM=C13 H28 O2
##MW=216
##$NIST SOURCE=MSDC
##XUNITS=M/Z
##YUNITS=RELATIVE INTENSITY
##XFACTOR=1
##YFACTOR=1
##FIRSTX=41
##LASTX=216
##FIRSTY=1328
##MAXX=216
##MINX=41
##MAXY=9999
##MINY=3
##NPOINTS=63
##PEAK TABLE=(XY..XY)
41,1328 42,17 43,1516 45,812
47,886 48,15 51,9 52,5
53,101 54,70 55,853 56,143
57,365 58,541 59,160 61,36
63,3 65,17 66,20 67,201
68,83 69,560 71,985 72,69
73,17 74,1544 75,9999 77,9
79,35 81,153 82,89 83,489
84,51 85,95 86,7 87,9
89,87 90,4 91,4 93,8
95,89 96,5 97,452 98,33
99,12 101,24 109,28 110,31
111,108 112,15 114,3 123,5
124,9 127,3 151,4 152,16
156,12 183,5 185,538 186,64
187,4 199,7 216,15
##END=
