##TITLE=2-Iodo-5-methylbenzoic acid
##JCAMP-DX=4.24
##DATA TYPE=MASS SPECTRUM
##ORIGIN=NIST Mass Spectrometry Data Center, 1994
##OWNER=NIST Mass Spectrometry Data Center
Collection (C) 2014 copyright by the U.S. Secretary of Commerce
on behalf of the United States of America. All rights reserved.
##CAS REGISTRY NO=52548-14-8
##$NIST MASS SPEC NO=135020
##MOLFORM=C8 H7 I O2
##MW=262
##$NIST SOURCE=MSDC
##XUNITS=M/Z
##YUNITS=RELATIVE INTENSITY
##XFACTOR=1
##YFACTOR=1
##FIRSTX=4
##LASTX=264
##FIRSTY=31
##MAXX=264
##MINX=4
##MAXY=9999
##MINY=2
##NPOINTS=82
##PEAK TABLE=(XY..XY)
4,31 14,2 15,23 18,38
26,65 27,221 28,72 29,59
32,15 36,15 37,186 38,311
39,1182 40,143 41,66 43,226
44,56 45,427 49,132 50,614
51,621 52,216 53,440 54,28
55,121 59,82 60,31 61,292
62,726 63,1509 64,463 65,383
66,66 67,51 73,69 74,304
75,176 76,31 77,2330 78,463
79,547 80,38 81,46 84,35
85,131 86,238 87,197 88,35
89,1690 90,1628 91,330 92,47
105,230 106,183 107,486 108,102
109,34 117,31 118,52 119,32
121,33 122,180 127,618 128,99
131,118 133,49 135,619 136,83
137,15 164,21 165,32 176,19
189,16 215,15 217,1133 218,86
245,4648 246,428 247,40 262,9999
263,875 264,81
##END=
