##TITLE=Ethyl N-(2-methylphenyl)carbamate
##JCAMP-DX=4.24
##DATA TYPE=MASS SPECTRUM
##ORIGIN=ASES Database, Dalian Institute, P.R. China
##OWNER=NIST Mass Spectrometry Data Center
Collection (C) 2014 copyright by the U.S. Secretary of Commerce
on behalf of the United States of America. All rights reserved.
##CAS REGISTRY NO=5255-71-0
##$NIST MASS SPEC NO=147160
##MOLFORM=C10 H13 N O2
##MW=179
##$NIST SOURCE=MSDC
##XUNITS=M/Z
##YUNITS=RELATIVE INTENSITY
##XFACTOR=1
##YFACTOR=1
##FIRSTX=51
##LASTX=180
##FIRSTY=2001
##MAXX=180
##MINX=51
##MAXY=9999
##MINY=490
##NPOINTS=26
##PEAK TABLE=(XY..XY)
51,2001 52,880 53,710 65,1101
77,2282 78,1581 79,1211 80,600
90,590 91,780 92,1501 93,590
94,490 104,1771 105,1211 106,8978
107,5785 108,680 120,5795 121,590
132,1681 133,2872 134,1691 151,990
179,9999 180,1211
##END=
