##TITLE=Cyclohexanol, 2-methyl-5-(1-methylethyl)-, acetate, (1.alpha.,2.beta.,5.alpha.)-
##JCAMP-DX=4.24
##DATA TYPE=MASS SPECTRUM
##OWNER=NIST Mass Spectrometry Data Center
Collection (C) 2014 copyright by the U.S. Secretary of Commerce
on behalf of the United States of America. All rights reserved.
##CAS REGISTRY NO=5256-66-6
##$NIST MASS SPEC NO=8828
##MOLFORM=C12 H22 O2
##MW=198
##$NIST SOURCE=MSDC
##XUNITS=M/Z
##YUNITS=RELATIVE INTENSITY
##XFACTOR=1
##YFACTOR=1
##FIRSTX=27
##LASTX=155
##FIRSTY=400
##MAXX=155
##MINX=27
##MAXY=9999
##MINY=100
##NPOINTS=39
##PEAK TABLE=(XY..XY)
27,400 29,601 39,400 41,1601
42,300 43,7106 53,300 54,100
55,1702 56,200 57,701 58,100
67,801 68,1001 69,1401 70,300
71,200 72,200 77,100 79,300
80,200 81,2002 82,1401 83,1101
84,100 93,100 94,901 95,9999
96,1802 97,300 109,500 110,200
113,1101 123,1501 124,100 137,100
138,4204 139,500 155,100
##END=
