##TITLE=Perphenyloctasilsesquioxane
##JCAMP-DX=4.24
##DATA TYPE=MASS SPECTRUM
##ORIGIN=Institute of Organic Chemistry, Novosibirsk, USSR 1988
##OWNER=NIST Mass Spectrometry Data Center
Collection (C) 2014 copyright by the U.S. Secretary of Commerce
on behalf of the United States of America. All rights reserved.
##CAS REGISTRY NO=5256-79-1
##$NIST MASS SPEC NO=102880
##MOLFORM=C48 H40 O12 Si8
##MW=1032
##$NIST SOURCE=MSDC
##XUNITS=M/Z
##YUNITS=RELATIVE INTENSITY
##XFACTOR=1
##YFACTOR=1
##FIRSTX=76
##LASTX=1036
##FIRSTY=89
##MAXX=1036
##MINX=76
##MAXY=9999
##MINY=19
##NPOINTS=44
##PEAK TABLE=(XY..XY)
76,89 77,469 78,1019 79,119
153,59 154,359 155,19 363,169
364,189 365,209 399,519 400,649
401,209 439,189 440,109 450,119
451,89 478,169 479,89 516,1089
517,219 721,129 722,79 723,149
797,99 799,169 876,319 877,5029
878,3909 879,2619 880,1299 881,599
882,239 955,9999 956,8869 957,6859
958,2309 959,969 960,319 1032,7039
1033,6369 1034,4419 1035,1739 1036,959
##END=
