##TITLE=L-Phenylalanine, N-(trifluoroacetyl)-, butyl ester
##JCAMP-DX=4.24
##DATA TYPE=MASS SPECTRUM
##ORIGIN=S. MARKEY UNIV. OF COLO. MED. CTR., DENVER, COLORADO, USA
##OWNER=NIST Mass Spectrometry Data Center
Collection (C) 2014 copyright by the U.S. Secretary of Commerce
on behalf of the United States of America. All rights reserved.
##CAS REGISTRY NO=52574-47-7
##$NIST MASS SPEC NO=14992
##MOLFORM=C15 H18 F3 N O3
##MW=317
##$NIST SOURCE=MSDC
##XUNITS=M/Z
##YUNITS=RELATIVE INTENSITY
##XFACTOR=1
##YFACTOR=1
##FIRSTX=15
##LASTX=217
##FIRSTY=230
##MAXX=217
##MINX=15
##MAXY=9999
##MINY=20
##NPOINTS=59
##PEAK TABLE=(XY..XY)
15,230 18,260 26,110 27,1940
29,5530 30,900 31,230 38,80
39,1130 41,3540 42,420 43,550
44,580 45,300 50,280 51,770
52,180 53,100 55,410 56,430
57,1410 63,200 65,1240 66,100
69,1740 70,80 75,90 76,70
77,1160 78,360 89,260 90,130
91,9999 92,1080 97,190 102,220
103,1680 104,340 105,80 113,90
117,100 118,220 119,690 120,150
128,170 131,780 132,110 146,70
147,900 148,4090 149,660 154,220
178,70 204,1100 205,160 206,20
215,120 216,440 217,50
##END=
