##TITLE=1,5-Cyclooctadiene, (E,Z)-
##JCAMP-DX=4.24
##DATA TYPE=MASS SPECTRUM
##OWNER=NIST Mass Spectrometry Data Center
Collection (C) 2014 copyright by the U.S. Secretary of Commerce
on behalf of the United States of America. All rights reserved.
##CAS REGISTRY NO=5259-71-2
##$NIST MASS SPEC NO=1407
##MOLFORM=C8 H12
##MW=108
##$NIST SOURCE=MSDC
##XUNITS=M/Z
##YUNITS=RELATIVE INTENSITY
##XFACTOR=1
##YFACTOR=1
##FIRSTX=39
##LASTX=109
##FIRSTY=5005
##MAXX=109
##MINX=39
##MAXY=9999
##MINY=100
##NPOINTS=24
##PEAK TABLE=(XY..XY)
39,5005 40,500 41,2002 50,701
51,1201 52,601 53,1501 54,9999
55,601 65,801 66,1702 67,5305
68,300 77,1501 78,701 79,4004
80,3904 81,300 91,901 92,100
93,1802 94,100 108,1201 109,200
##END=
