##TITLE=Glycine, N-(phenylacetyl)-, methyl ester
##JCAMP-DX=4.24
##DATA TYPE=MASS SPECTRUM
##ORIGIN=NIST Mass Spectrometry Data Center
##OWNER=NIST Mass Spectrometry Data Center
Collection (C) 2014 copyright by the U.S. Secretary of Commerce
on behalf of the United States of America. All rights reserved.
##CAS REGISTRY NO=5259-87-0
##$NIST MASS SPEC NO=333161
##MOLFORM=C11 H13 N O3
##MW=207
##$NIST SOURCE=MSDC
##XUNITS=M/Z
##YUNITS=RELATIVE INTENSITY
##XFACTOR=1
##YFACTOR=1
##FIRSTX=14
##LASTX=209
##FIRSTY=10
##MAXX=209
##MINX=14
##MAXY=9999
##MINY=10
##NPOINTS=84
##PEAK TABLE=(XY..XY)
14,10 15,200 18,10 26,10
27,70 28,300 29,290 30,1581
31,80 33,30 37,20 38,110
39,871 40,90 41,250 42,170
43,100 44,1331 45,300 49,10
50,240 51,550 52,160 53,50
54,10 56,2362 57,90 58,60
59,591 60,40 61,50 62,210
63,771 64,250 65,2502 66,160
72,10 73,20 74,120 75,50
76,40 77,120 78,50 79,20
83,10 84,60 85,20 86,40
88,6386 89,1231 90,881 91,9999
92,6456 93,470 94,20 102,10
103,20 104,50 105,40 106,30
107,20 116,1551 117,130 118,2803
119,350 120,230 121,30 128,10
130,10 132,10 133,10 146,40
147,20 148,550 149,60 150,10
165,10 175,30 176,200 177,20
205,10 207,2042 208,260 209,30
##END=
