##TITLE=Sulfaphenazole
##JCAMP-DX=4.24
##DATA TYPE=MASS SPECTRUM
##ORIGIN=Finnigan MAT: Toxicological Library (LIBR-TX)
##OWNER=NIST Mass Spectrometry Data Center
Collection (C) 2014 copyright by the U.S. Secretary of Commerce
on behalf of the United States of America. All rights reserved.
##CAS REGISTRY NO=526-08-9
##$NIST MASS SPEC NO=120989
##MOLFORM=C15 H14 N4 O2 S
##MW=314
##$NIST SOURCE=MSDC
##XUNITS=M/Z
##YUNITS=RELATIVE INTENSITY
##XFACTOR=1
##YFACTOR=1
##FIRSTX=51
##LASTX=315
##FIRSTY=1223
##MAXX=315
##MINX=51
##MAXY=9999
##MINY=195
##NPOINTS=29
##PEAK TABLE=(XY..XY)
51,1223 52,2196 53,916 65,3261
66,672 77,5346 78,517 91,400
92,5635 93,1300 104,600 108,4931
109,406 130,779 131,2057 132,305
140,2940 141,314 145,575 149,197
156,9999 157,5061 158,6443 159,1695
249,195 250,1801 251,289 314,4890
315,888
##END=
