##TITLE=Tryptophol
##JCAMP-DX=4.24
##DATA TYPE=MASS SPECTRUM
##ORIGIN=NIST Mass Spectrometry Data Center
##OWNER=NIST Mass Spectrometry Data Center
Collection (C) 2014 copyright by the U.S. Secretary of Commerce
on behalf of the United States of America. All rights reserved.
##CAS REGISTRY NO=526-55-6
##$NIST MASS SPEC NO=352420
##MOLFORM=C10 H11 N O
##MW=161
##$NIST SOURCE=MSDC
##XUNITS=M/Z
##YUNITS=RELATIVE INTENSITY
##XFACTOR=1
##YFACTOR=1
##FIRSTX=26
##LASTX=163
##FIRSTY=10
##MAXX=163
##MINX=26
##MAXY=9999
##MINY=10
##NPOINTS=74
##PEAK TABLE=(XY..XY)
26,10 27,20 28,40 29,40
30,10 31,120 37,10 38,30
39,100 40,10 41,10 43,10
49,10 50,160 51,350 52,150
53,40 54,10 55,10 57,20
58,30 61,30 62,100 63,250
64,80 65,110 70,30 71,10
73,10 74,130 75,190 76,240
77,1171 78,130 79,20 85,10
86,30 87,40 88,30 89,160
90,90 91,40 92,10 98,20
99,10 100,10 101,130 102,581
103,981 104,130 105,20 113,30
114,30 115,180 116,60 117,180
118,90 119,10 127,20 128,450
129,440 130,9999 131,1091 132,80
133,10 140,20 141,10 142,30
143,70 144,30 159,10 161,2132
162,250 163,20
##END=
