##TITLE=Nickel, bis(diethylcarbamodithioato-S,S')-
##JCAMP-DX=4.24
##DATA TYPE=MASS SPECTRUM
##ORIGIN=P.A. Leclercq, Lab. Instrum. Anal., Eindhoven Univ. Technol., Netherlands
##OWNER=NIST Mass Spectrometry Data Center
Collection (C) 2014 copyright by the U.S. Secretary of Commerce
on behalf of the United States of America. All rights reserved.
##CAS REGISTRY NO=52610-81-8
##$NIST MASS SPEC NO=141529
##MOLFORM=C10 H20 N2 Ni S4
##MW=354
##$NIST SOURCE=MSDC
##XUNITS=M/Z
##YUNITS=RELATIVE INTENSITY
##XFACTOR=1
##YFACTOR=1
##FIRSTX=41
##LASTX=362
##FIRSTY=469
##MAXX=362
##MINX=41
##MAXY=9999
##MINY=26
##NPOINTS=150
##PEAK TABLE=(XY..XY)
41,469 42,1514 43,141 44,3214
45,814 46,88 47,159 52,88
54,460 55,301 56,1718 57,123
58,1080 59,1266 60,9566 61,673
62,611 64,194 67,115 68,97
70,1257 71,159 72,6377 73,442
74,53 76,1346 77,416 78,115
82,106 84,230 85,805 86,1062
87,867 88,9999 89,823 90,779
91,495 92,177 93,177 98,177
99,150 100,123 101,203 102,398
103,239 104,239 105,97 106,61
111,141 112,61 113,1762 114,301
115,770 116,8919 117,1753 118,956
119,646 120,230 121,97 122,903
123,212 124,451 125,79 126,177
128,345 129,239 130,123 131,97
134,380 135,168 136,168 143,97
144,247 145,1532 146,1487 147,805
148,805 149,557 150,239 151,106
152,115 158,106 159,70 160,123
162,61 168,88 170,61 172,912
173,2515 174,1904 175,1629 176,823
177,1567 178,487 179,735 180,132
181,292 183,115 200,53 203,283
204,70 205,115 206,2391 207,2754
208,1310 209,1425 210,398 211,389
229,1248 230,212 231,566 232,194
233,97 240,53 244,61 245,389
246,79 247,150 248,53 261,628
262,79 263,318 264,53 265,79
266,26 267,35 277,53 290,566
291,97 292,239 293,97 294,53
295,44 320,53 321,35 322,1425
323,212 324,619 325,106 326,159
327,35 354,7847 355,1611 356,4428
357,735 358,1107 359,177 360,168
361,35 362,35
##END=
