##TITLE=1-Chloromethyl-4-methylnaphthalene
##JCAMP-DX=4.24
##DATA TYPE=MASS SPECTRUM
##ORIGIN=NIST Mass Spectrometry Data Center, 1994
##OWNER=NIST Mass Spectrometry Data Center
Collection (C) 2014 copyright by the U.S. Secretary of Commerce
on behalf of the United States of America. All rights reserved.
##CAS REGISTRY NO=5261-50-7
##$NIST MASS SPEC NO=134957
##MOLFORM=C12 H11 Cl
##MW=190
##$NIST SOURCE=MSDC
##XUNITS=M/Z
##YUNITS=RELATIVE INTENSITY
##XFACTOR=1
##YFACTOR=1
##FIRSTX=15
##LASTX=193
##FIRSTY=42
##MAXX=193
##MINX=15
##MAXY=9999
##MINY=13
##NPOINTS=82
##PEAK TABLE=(XY..XY)
15,42 18,28 26,68 27,268
28,105 32,13 35,38 36,59
37,34 38,110 39,371 40,40
49,52 50,400 51,732 52,107
53,51 58,17 61,81 62,268
63,907 64,543 65,115 68,19
70,81 73,47 74,334 75,524
76,1650 77,880 81,38 82,17
85,43 86,132 87,206 88,78
89,210 90,20 91,39 94,123
95,152 96,40 97,18 98,110
99,78 100,52 101,114 102,215
103,61 110,35 111,46 113,120
115,843 116,110 122,17 125,61
126,258 127,722 128,1087 129,618
130,66 137,22 139,433 140,96
141,106 142,15 149,33 150,190
151,452 152,1332 153,1695 154,15
155,9999 156,1354 157,75 162,15
175,54 177,21 190,2017 191,270
192,627 193,82
##END=
