##TITLE=1-Azabicyclo[2.2.2]octane, 2-methyl-
##JCAMP-DX=4.24
##DATA TYPE=MASS SPECTRUM
##ORIGIN=J. MITERA
##OWNER=NIST Mass Spectrometry Data Center
Collection (C) 2014 copyright by the U.S. Secretary of Commerce
on behalf of the United States of America. All rights reserved.
##CAS REGISTRY NO=5261-65-4
##$NIST MASS SPEC NO=41522
##MOLFORM=C8 H15 N
##MW=125
##$NIST SOURCE=MSDC
##XUNITS=M/Z
##YUNITS=RELATIVE INTENSITY
##XFACTOR=1
##YFACTOR=1
##FIRSTX=26
##LASTX=126
##FIRSTY=200
##MAXX=126
##MINX=26
##MAXY=9999
##MINY=50
##NPOINTS=51
##PEAK TABLE=(XY..XY)
26,200 27,1490 28,1490 29,1190
30,500 31,400 38,100 39,1290
40,300 41,2180 42,4160 43,500
44,400 45,200 50,100 51,200
52,200 53,600 54,800 55,2180
56,9999 57,890 58,200 59,200
65,200 66,100 67,400 68,790
69,1490 70,690 71,1090 72,100
74,200 79,100 80,200 81,300
82,1490 83,890 84,1680 93,50
94,150 95,200 96,3170 97,1390
98,200 108,100 110,5150 111,500
124,990 125,3560 126,400
##END=
