##TITLE=Quinoline, 6-methoxy-
##JCAMP-DX=4.24
##DATA TYPE=MASS SPECTRUM
##ORIGIN=Japan AIST/NIMC Database- Spectrum MS-NW-7299
##OWNER=NIST Mass Spectrometry Data Center
Collection (C) 2014 copyright by the U.S. Secretary of Commerce
on behalf of the United States of America. All rights reserved.
##CAS REGISTRY NO=5263-87-6
##$NIST MASS SPEC NO=237857
##MOLFORM=C10 H9 N O
##MW=159
##$NIST SOURCE=MSDC
##XUNITS=M/Z
##YUNITS=RELATIVE INTENSITY
##XFACTOR=1
##YFACTOR=1
##FIRSTX=15
##LASTX=161
##FIRSTY=70
##MAXX=161
##MINX=15
##MAXY=9999
##MINY=10
##NPOINTS=85
##PEAK TABLE=(XY..XY)
15,70 26,20 27,30 28,30
29,30 30,10 37,70 38,169
39,369 40,20 41,20 43,30
44,10 49,30 50,259 51,299
52,149 53,60 54,10 57,10
58,10 60,10 61,109 62,399
63,899 64,229 65,119 66,40
73,30 74,239 75,319 76,169
77,219 78,60 79,209 80,80
81,20 85,30 86,60 87,119
88,269 89,1709 90,339 91,30
92,20 93,10 97,10 98,50
99,60 100,70 101,279 102,339
103,109 104,20 105,10 107,10
109,60 112,10 113,10 114,99
115,189 116,6689 117,659 118,30
123,10 124,60 126,10 127,70
128,429 129,1429 130,509 131,70
132,10 141,10 142,30 143,50
144,1139 145,149 146,10 156,20
157,10 158,119 159,9999 160,1179
161,90
##END=
