##TITLE=1,1'-Biphenyl, 2,2',3,4,4',5',6-heptachloro-
##JCAMP-DX=4.24
##DATA TYPE=MASS SPECTRUM
##ORIGIN=Organic Synthesis Lab, MSU, Moscow.TRC 1204
##OWNER=NIST Mass Spectrometry Data Center
Collection (C) 2014 copyright by the U.S. Secretary of Commerce
on behalf of the United States of America. All rights reserved.
##CAS REGISTRY NO=52663-69-1
##$NIST MASS SPEC NO=326592
##MOLFORM=C12 H3 Cl7
##MW=392
##$NIST SOURCE=MSDC
##XUNITS=M/Z
##YUNITS=RELATIVE INTENSITY
##XFACTOR=1
##YFACTOR=1
##FIRSTX=43
##LASTX=404
##FIRSTY=9
##MAXX=404
##MINX=43
##MAXY=9999
##MINY=9
##NPOINTS=176
##PEAK TABLE=(XY..XY)
43,9 44,70 46,11 47,61
48,12 49,49 50,52 55,21
60,62 61,146 62,57 67,19
71,30 72,108 73,315 74,163
78,59 79,29 83,41 84,213
85,218 86,129 87,26 96,152
97,125 98,188 99,31 102,12
103,11 106,30 107,140 108,374
109,336 110,194 111,46 115,17
118,58 119,63 120,134 121,129
122,140 123,38 126,476 127,392
128,157 130,17 131,98 132,211
133,148 134,74 135,32 141,18
142,33 143,296 144,389 145,319
146,268 147,106 148,20 154,21
155,29 156,92 157,57 158,47
159,19 161,648 162,1076 163,692
164,218 166,33 167,70 168,60
169,69 170,29 171,19 179,111
180,335 181,171 182,280 183,78
184,83 191,17 192,65 193,24
194,38 195,20 196,157 197,299
198,325 199,172 200,75 201,19
202,13 203,56 204,26 205,76
206,20 215,56 216,192 217,209
218,166 219,135 220,47 221,20
226,20 227,16 228,36 229,27
230,27 231,15 237,24 238,43
239,59 240,63 241,32 242,41
250,37 251,107 252,1136 253,224
254,963 255,165 256,362 257,43
258,40 262,55 264,52 266,43
272,22 274,38 275,18 276,38
277,19 278,11 286,176 287,333
288,304 289,426 290,183 291,234
292,77 293,41 322,2973 323,450
324,4988 325,658 326,3199 327,416
328,1059 329,131 330,175 331,20
356,26 357,812 358,175 359,1442
360,245 361,1270 362,182 363,602
364,91 365,119 366,20 392,4206
393,583 394,9999 395,1308 396,9577
397,1318 398,5500 399,706 400,1598
401,174 402,314 403,40 404,32
##END=
