##TITLE=1,1'-Biphenyl, 2,2',3,4',5,5',6-heptachloro-
##JCAMP-DX=4.24
##DATA TYPE=MASS SPECTRUM
##ORIGIN=Organic Synthesis Lab, MSU, Moscow.TRC 1201
##OWNER=NIST Mass Spectrometry Data Center
Collection (C) 2014 copyright by the U.S. Secretary of Commerce
on behalf of the United States of America. All rights reserved.
##CAS REGISTRY NO=52663-68-0
##$NIST MASS SPEC NO=326590
##MOLFORM=C12 H3 Cl7
##MW=392
##$NIST SOURCE=MSDC
##XUNITS=M/Z
##YUNITS=RELATIVE INTENSITY
##XFACTOR=1
##YFACTOR=1
##FIRSTX=44
##LASTX=404
##FIRSTY=132
##MAXX=404
##MINX=44
##MAXY=9999
##MINY=13
##NPOINTS=177
##PEAK TABLE=(XY..XY)
44,132 47,86 48,17 49,93
50,100 56,15 57,15 60,92
61,213 62,111 66,15 67,29
71,54 72,208 73,464 74,252
75,23 78,75 79,31 80,26
83,74 84,305 85,258 86,164
87,29 94,35 95,87 96,152
97,234 98,247 99,36 102,24
103,13 106,30 107,199 108,569
109,561 110,319 111,83 113,28
114,58 118,62 119,98 120,171
121,173 122,194 123,48 126,610
127,536 128,199 129,22 130,31
131,125 132,321 133,166 134,143
135,54 141,17 142,71 143,419
144,536 145,401 146,345 147,114
148,31 149,13 155,32 156,114
157,71 158,90 159,31 161,856
162,1346 163,861 164,307 165,67
166,36 167,62 168,70 169,67
170,43 178,103 179,174 180,190
181,232 182,313 183,100 184,111
191,29 192,100 193,54 194,60
195,26 196,178 197,452 198,473
199,271 200,85 201,36 202,24
203,53 204,47 205,70 206,40
207,32 215,76 216,240 217,306
218,223 219,194 220,51 226,22
227,43 228,52 229,38 238,48
239,52 240,71 241,34 242,35
250,24 251,128 252,1285 253,255
254,1361 255,242 256,415 257,77
258,57 262,57 264,64 266,40
272,31 274,43 275,19 276,24
277,23 286,188 287,399 288,312
289,455 290,216 291,228 292,57
293,52 322,3402 323,471 324,5406
325,706 326,3402 327,426 328,1157
329,138 330,204 357,1208 358,274
359,2316 360,332 361,1824 362,274
363,904 364,112 365,227 366,18
392,4437 393,613 394,9891 395,1272
396,9999 397,1300 398,5276 399,694
400,1709 401,224 402,298 403,39
404,30
##END=
