##TITLE=1,1'-Biphenyl, 2,2',3,3',5,6,6'-heptachloro-
##JCAMP-DX=4.24
##DATA TYPE=MASS SPECTRUM
##ORIGIN=Organic Synthesis Lab, MSU, Moscow.TRC 1208
##OWNER=NIST Mass Spectrometry Data Center
Collection (C) 2014 copyright by the U.S. Secretary of Commerce
on behalf of the United States of America. All rights reserved.
##CAS REGISTRY NO=52663-64-6
##$NIST MASS SPEC NO=326593
##MOLFORM=C12 H3 Cl7
##MW=392
##$NIST SOURCE=MSDC
##XUNITS=M/Z
##YUNITS=RELATIVE INTENSITY
##XFACTOR=1
##YFACTOR=1
##FIRSTX=44
##LASTX=402
##FIRSTY=446
##MAXX=402
##MINX=44
##MAXY=9999
##MINY=65
##NPOINTS=136
##PEAK TABLE=(XY..XY)
44,446 47,157 49,196 50,149
60,170 61,489 62,132 67,120
71,104 72,350 73,1157 74,566
75,130 78,240 79,168 80,65
83,145 84,597 85,453 86,311
91,455 96,420 97,470 98,471
107,511 108,1441 109,1177 110,469
111,172 114,115 118,158 119,209
120,505 121,464 122,513 123,141
126,1801 127,1682 128,455 129,98
131,287 132,700 133,447 134,273
135,104 142,168 143,1291 144,1753
145,933 146,725 147,339 149,89
155,99 156,359 157,170 158,115
161,2608 162,3911 163,2672 164,804
165,214 166,111 167,150 168,207
169,157 178,244 179,335 180,509
181,444 182,769 183,225 184,271
192,227 193,110 194,131 196,819
197,1797 198,1593 199,865 200,310
201,124 203,124 204,70 205,111
215,122 216,427 217,639 218,427
219,425 220,167 228,127 240,105
242,96 251,234 252,2252 253,582
254,2258 255,362 256,722 257,132
258,80 262,127 264,159 286,320
287,630 288,446 289,685 290,269
291,363 292,95 322,3498 323,626
324,5536 325,902 326,4052 327,425
328,958 329,138 330,159 357,171
358,85 359,320 360,119 361,319
363,166 392,4641 393,657 394,9999
395,1375 396,8996 397,1436 398,5315
399,646 400,1678 401,202 402,390
##END=
