##TITLE=1,1'-Biphenyl, 2,2',3,3',4,5',6'-heptachloro-
##JCAMP-DX=4.24
##DATA TYPE=MASS SPECTRUM
##ORIGIN=Organic Synthesis Lab, MSU, Moscow.TRC 1211
##OWNER=NIST Mass Spectrometry Data Center
Collection (C) 2014 copyright by the U.S. Secretary of Commerce
on behalf of the United States of America. All rights reserved.
##CAS REGISTRY NO=52663-70-4
##$NIST MASS SPEC NO=326596
##MOLFORM=C12 H3 Cl7
##MW=392
##$NIST SOURCE=MSDC
##XUNITS=M/Z
##YUNITS=RELATIVE INTENSITY
##XFACTOR=1
##YFACTOR=1
##FIRSTX=44
##LASTX=402
##FIRSTY=757
##MAXX=402
##MINX=44
##MAXY=9999
##MINY=113
##NPOINTS=127
##PEAK TABLE=(XY..XY)
44,757 47,314 49,342 50,242
60,192 61,744 62,215 72,627
73,1938 74,916 75,168 78,370
83,354 84,1030 85,727 86,647
87,113 96,774 97,750 98,854
102,156 108,2031 109,1649 110,924
111,278 114,231 118,159 119,392
120,836 121,675 122,628 123,254
126,2547 127,2625 128,818 131,397
132,1187 133,711 134,445 135,134
142,215 143,1641 144,2020 145,1600
146,1157 147,492 149,113 156,461
157,359 158,249 161,3854 162,6185
163,3992 164,1347 165,325 166,143
167,295 168,243 169,237 170,126
180,991 181,860 182,1226 183,345
184,321 191,179 192,248 193,148
194,141 196,901 197,1934 198,1761
199,1123 200,328 203,159 205,232
207,124 215,254 216,908 217,777
218,537 219,591 220,187 228,218
238,171 240,384 251,270 252,3300
253,791 254,3688 255,503 256,976
257,199 264,206 286,472 287,727
288,788 289,771 290,450 291,467
322,5044 323,861 324,8451 325,1196
326,5341 327,602 328,2020 329,192
330,248 357,2020 359,3950 360,733
361,3300 362,567 363,1511 364,249
365,412 392,4319 394,9999 395,1257
396,9548 397,1411 398,5058 399,796
400,1631 401,300 402,370
##END=
