##TITLE=1,1'-Biphenyl, 2,2',3,3',4,6,6'-heptachloro-
##JCAMP-DX=4.24
##DATA TYPE=MASS SPECTRUM
##ORIGIN=BO JANSSON, STOCKHOLM UNIVERSITY, SWEDEN
##OWNER=NIST Mass Spectrometry Data Center
Collection (C) 2014 copyright by the U.S. Secretary of Commerce
on behalf of the United States of America. All rights reserved.
##CAS REGISTRY NO=52663-65-7
##$NIST MASS SPEC NO=53307
##MOLFORM=C12 H3 Cl7
##MW=392
##$NIST SOURCE=MSDC
##XUNITS=M/Z
##YUNITS=RELATIVE INTENSITY
##XFACTOR=1
##YFACTOR=1
##FIRSTX=61
##LASTX=400
##FIRSTY=550
##MAXX=400
##MINX=61
##MAXY=9999
##MINY=520
##NPOINTS=54
##PEAK TABLE=(XY..XY)
61,550 73,1350 74,530 84,870
85,670 96,630 97,690 98,790
107,640 108,1900 109,1820 110,1190
120,800 121,550 122,740 126,3150
127,2780 132,1360 133,750 144,3040
146,1430 161,4120 162,6640 163,4010
164,930 179,520 181,720 182,1390
196,950 197,2350 198,2120 199,1110
216,610 217,1060 218,570 219,620
252,3510 253,730 254,3050 256,810
287,790 289,820 322,3900 324,5860
325,860 326,3950 328,1230 359,630
392,4620 394,9999 396,9350 398,5050
399,590 400,1490
##END=
