##TITLE=1,1'-Biphenyl, 2,2',3,3',4,5,6,6'-octachloro-
##JCAMP-DX=4.24
##DATA TYPE=MASS SPECTRUM
##ORIGIN=Organic Synthesis Lab, MSU, Moscow.TRC 1187
##OWNER=NIST Mass Spectrometry Data Center
Collection (C) 2014 copyright by the U.S. Secretary of Commerce
on behalf of the United States of America. All rights reserved.
##CAS REGISTRY NO=52663-73-7
##$NIST MASS SPEC NO=326578
##MOLFORM=C12 H2 Cl8
##MW=426
##$NIST SOURCE=MSDC
##XUNITS=M/Z
##YUNITS=RELATIVE INTENSITY
##XFACTOR=1
##YFACTOR=1
##FIRSTX=42
##LASTX=440
##FIRSTY=11
##MAXX=440
##MINX=42
##MAXY=9999
##MINY=6
##NPOINTS=202
##PEAK TABLE=(XY..XY)
42,11 44,80 47,50 49,44
57,8 59,9 60,43 61,86
66,10 67,9 71,35 72,92
73,211 74,42 77,8 78,44
82,15 83,44 84,148 85,102
86,56 89,11 90,127 94,27
95,61 96,98 97,83 98,59
106,22 107,169 108,348 109,255
110,97 111,13 113,20 114,21
115,10 118,47 119,95 120,156
121,106 122,75 123,12 127,37
130,25 131,74 132,173 133,79
134,75 137,8 141,20 143,445
144,550 145,330 146,183 147,27
148,23 149,42 150,24 151,13
152,6 154,25 155,32 156,102
157,48 158,31 159,20 160,104
161,177 164,13 165,13 166,40
167,33 168,58 169,42 170,23
178,417 179,824 180,794 181,352
182,138 183,33 189,6 190,27
191,35 192,36 193,16 194,19
195,24 196,38 197,97 198,27
199,8 200,8 201,9 202,31
203,23 204,32 205,15 206,9
213,130 214,315 215,383 216,465
217,151 218,196 219,33 220,31
226,47 227,16 228,54 229,23
230,19 237,29 238,13 239,65
240,17 241,44 243,12 249,24
250,115 251,197 252,139 253,185
254,69 255,51 256,12 261,8
262,18 263,19 264,23 265,13
266,15 272,45 273,17 274,62
275,17 276,42 277,10 278,19
285,47 286,866 287,173 288,1108
289,161 290,556 291,85 292,121
293,11 294,15 296,41 298,43
300,33 302,11 311,17 320,75
321,260 322,154 323,394 324,133
325,299 326,68 327,77 328,12
329,17 356,1916 357,302 358,3661
359,479 360,3087 361,394 362,1290
363,169 364,321 365,39 366,48
390,11 391,85 392,37 393,237
394,72 395,223 396,49 397,106
398,27 399,40 400,9 426,3215
427,437 428,8452 429,1126 430,9999
431,1269 432,6518 433,813 434,2624
435,308 436,634 437,81 438,92
439,16 440,13
##END=
