##TITLE=p-Benzoquinone, 2,3,5,6-tetrafluoro-
##JCAMP-DX=4.24
##DATA TYPE=MASS SPECTRUM
##ORIGIN=Japan AIST/NIMC Database- Spectrum MS-NW-3210
##OWNER=NIST Mass Spectrometry Data Center
Collection (C) 2014 copyright by the U.S. Secretary of Commerce
on behalf of the United States of America. All rights reserved.
##CAS REGISTRY NO=527-21-9
##$NIST MASS SPEC NO=231243
##MOLFORM=C6 F4 O2
##MW=180
##$NIST SOURCE=MSDC
##XUNITS=M/Z
##YUNITS=RELATIVE INTENSITY
##XFACTOR=1
##YFACTOR=1
##FIRSTX=12
##LASTX=182
##FIRSTY=60
##MAXX=182
##MINX=12
##MAXY=9999
##MINY=10
##NPOINTS=55
##PEAK TABLE=(XY..XY)
12,60 16,10 19,10 24,99
28,299 31,2269 32,30 36,179
40,20 43,429 44,99 47,40
48,60 50,20 52,169 55,689
56,20 59,20 60,20 62,3559
63,70 67,80 69,169 71,2369
72,90 74,1579 75,60 79,139
80,10 81,70 85,10 86,219
87,10 90,1969 91,70 93,3109
94,99 95,20 98,99 105,569
106,40 109,10 117,239 118,20
124,7829 125,349 133,179 134,10
136,50 152,269 153,10 161,20
180,9999 181,679 182,90
##END=
