##TITLE=Durohydroquinone
##JCAMP-DX=4.24
##DATA TYPE=MASS SPECTRUM
##ORIGIN=Japan AIST/NIMC Database- Spectrum MS-NW-3891
##OWNER=NIST Mass Spectrometry Data Center
Collection (C) 2014 copyright by the U.S. Secretary of Commerce
on behalf of the United States of America. All rights reserved.
##CAS REGISTRY NO=527-18-4
##$NIST MASS SPEC NO=231552
##MOLFORM=C10 H14 O2
##MW=166
##$NIST SOURCE=MSDC
##XUNITS=M/Z
##YUNITS=RELATIVE INTENSITY
##XFACTOR=1
##YFACTOR=1
##FIRSTX=15
##LASTX=168
##FIRSTY=50
##MAXX=168
##MINX=15
##MAXY=9999
##MINY=10
##NPOINTS=104
##PEAK TABLE=(XY..XY)
15,50 17,20 18,70 26,40
27,449 28,169 29,169 31,20
37,10 38,40 39,499 40,70
41,339 42,20 43,789 44,20
45,30 46,10 50,99 51,259
52,109 53,389 54,149 55,309
56,10 57,20 58,30 59,20
60,50 61,20 62,30 63,90
64,50 65,219 66,99 67,349
68,50 69,119 72,20 73,20
74,30 75,50 76,10 77,439
78,99 79,299 80,50 81,129
82,60 83,409 89,20 90,10
91,409 92,60 93,169 94,60
95,229 96,20 102,20 103,99
104,50 105,379 106,50 107,279
108,139 109,189 110,40 111,10
112,10 115,60 116,20 117,40
118,10 119,159 120,70 121,429
122,319 123,1299 124,259 125,30
126,10 128,10 129,10 131,40
132,30 133,359 134,40 135,99
136,119 137,479 138,149 139,20
147,169 148,109 149,479 150,60
151,4679 152,479 153,40 164,129
165,1409 166,9999 167,1119 168,90
##END=
