##TITLE=Duroquinone
##JCAMP-DX=4.24
##DATA TYPE=MASS SPECTRUM
##ORIGIN=Japan AIST/NIMC Database- Spectrum MS-NW-2786
##OWNER=NIST Mass Spectrometry Data Center
Collection (C) 2014 copyright by the U.S. Secretary of Commerce
on behalf of the United States of America. All rights reserved.
##CAS REGISTRY NO=527-17-3
##$NIST MASS SPEC NO=228993
##MOLFORM=C10 H12 O2
##MW=164
##$NIST SOURCE=MSDC
##XUNITS=M/Z
##YUNITS=RELATIVE INTENSITY
##XFACTOR=1
##YFACTOR=1
##FIRSTX=14
##LASTX=167
##FIRSTY=20
##MAXX=167
##MINX=14
##MAXY=9999
##MINY=10
##NPOINTS=112
##PEAK TABLE=(XY..XY)
14,20 15,70 16,10 17,50
18,149 26,209 27,2269 28,159
29,349 31,10 32,30 37,60
38,189 39,2759 40,189 41,499
42,30 43,429 44,30 45,20
46,20 49,70 50,509 51,1109
52,799 53,2719 54,5119 55,709
56,30 57,20 58,30 59,10
60,30 61,40 62,80 63,199
64,70 65,479 66,179 67,719
68,50 69,40 71,10 72,10
73,10 74,70 75,40 76,20
77,1259 78,239 79,529 80,159
81,139 82,1759 83,479 84,30
85,10 86,20 87,20 89,40
90,20 91,1619 92,269 93,4709
94,449 95,50 96,40 98,10
102,20 103,149 104,30 105,219
106,40 107,899 108,1849 109,189
110,609 111,40 112,10 113,20
114,10 115,80 116,20 117,179
118,80 119,189 120,60 121,9999
122,909 123,80 124,10 125,10
126,10 127,10 128,10 131,10
133,30 134,40 135,2229 136,7689
137,779 138,60 147,10 149,359
150,40 151,10 162,20 163,40
164,9759 165,1069 166,239 167,20
##END=
