##TITLE=Phenol, 2,3,5,6-tetramethyl-
##JCAMP-DX=4.24
##DATA TYPE=MASS SPECTRUM
##ORIGIN=Japan AIST/NIMC Database- Spectrum MS-NW-2356
##OWNER=NIST Mass Spectrometry Data Center
Collection (C) 2014 copyright by the U.S. Secretary of Commerce
on behalf of the United States of America. All rights reserved.
##CAS REGISTRY NO=527-35-5
##$NIST MASS SPEC NO=234152
##MOLFORM=C10 H14 O
##MW=150
##$NIST SOURCE=MSDC
##XUNITS=M/Z
##YUNITS=RELATIVE INTENSITY
##XFACTOR=1
##YFACTOR=1
##FIRSTX=15
##LASTX=152
##FIRSTY=40
##MAXX=152
##MINX=15
##MAXY=9999
##MINY=10
##NPOINTS=104
##PEAK TABLE=(XY..XY)
15,40 17,10 18,35 26,30
27,409 28,70 29,169 31,10
32,20 37,10 38,50 39,619
40,99 41,539 42,20 43,429
44,30 45,10 46,10 50,129
51,389 52,149 53,369 54,50
55,169 56,10 57,50 58,40
59,20 60,50 61,20 62,60
63,189 64,119 65,399 66,129
67,259 68,20 69,30 72,20
73,60 74,139 75,139 76,30
77,679 78,179 79,699 80,70
81,80 82,10 83,10 85,10
86,10 87,20 89,60 90,20
91,1529 92,199 93,349 94,50
95,40 96,20 98,10 99,10
101,10 102,50 103,189 104,70
105,879 106,219 107,899 108,169
109,50 110,20 114,10 115,339
116,169 117,799 118,99 119,169
120,80 121,299 122,199 123,40
124,10 125,10 127,30 128,50
129,50 130,20 131,209 132,90
133,249 134,70 135,9999 136,1029
137,80 138,10 147,20 148,90
149,1949 150,8589 151,959 152,80
##END=
