##TITLE=Phenol, 3,4,5-trimethyl-
##JCAMP-DX=4.24
##DATA TYPE=MASS SPECTRUM
##ORIGIN=NIST Mass Spectrometry Data Center, 1994
##OWNER=NIST Mass Spectrometry Data Center
Collection (C) 2014 copyright by the U.S. Secretary of Commerce
on behalf of the United States of America. All rights reserved.
##CAS REGISTRY NO=527-54-8
##$NIST MASS SPEC NO=134786
##MOLFORM=C9 H12 O
##MW=136
##$NIST SOURCE=MSDC
##XUNITS=M/Z
##YUNITS=RELATIVE INTENSITY
##XFACTOR=1
##YFACTOR=1
##FIRSTX=14
##LASTX=138
##FIRSTY=40
##MAXX=138
##MINX=14
##MAXY=9999
##MINY=13
##NPOINTS=83
##PEAK TABLE=(XY..XY)
14,40 15,384 16,15 18,22
19,37 26,166 27,1139 28,235
29,437 31,42 36,13 37,95
38,411 39,2369 40,392 41,1100
42,132 43,331 44,29 45,70
50,459 51,1177 52,411 53,812
54,92 55,439 56,21 58,71
59,50 60,52 61,81 62,246
63,612 64,193 65,1131 66,490
67,736 68,129 69,54 73,18
74,101 75,122 76,18 77,1880
78,406 79,790 80,87 81,99
82,20 85,20 86,48 87,45
89,179 91,2692 92,365 93,537
94,163 95,87 98,18 101,19
102,78 103,325 104,65 105,357
106,69 107,315 108,93 109,42
115,242 116,44 117,80 118,52
119,136 120,42 121,9999 122,885
123,52 131,23 133,65 135,2027
136,4534 137,481 138,33
##END=
