##TITLE=2,2',3,3',5,6-Hexachloro-1,1'-biphenyl
##JCAMP-DX=4.24
##DATA TYPE=MASS SPECTRUM
##ORIGIN=Organic Synthesis Lab, MSU, Moscow.TRC 1253
##OWNER=NIST Mass Spectrometry Data Center
Collection (C) 2014 copyright by the U.S. Secretary of Commerce
on behalf of the United States of America. All rights reserved.
##CAS REGISTRY NO=52704-70-8
##$NIST MASS SPEC NO=326631
##MOLFORM=C12 H4 Cl6
##MW=358
##$NIST SOURCE=MSDC
##XUNITS=M/Z
##YUNITS=RELATIVE INTENSITY
##XFACTOR=1
##YFACTOR=1
##FIRSTX=44
##LASTX=368
##FIRSTY=452
##MAXX=368
##MINX=44
##MAXY=9999
##MINY=76
##NPOINTS=120
##PEAK TABLE=(XY..XY)
44,452 47,159 49,306 50,611
51,222 60,180 61,877 62,358
63,128 67,97 72,497 73,1467
74,1195 75,445 78,400 83,141
84,684 85,1095 86,539 87,233
91,731 96,554 97,752 98,1109
99,308 107,365 108,1298 109,3028
110,1907 111,476 112,91 114,381
115,196 118,166 119,149 120,529
121,514 122,759 123,287 126,1820
127,1891 131,274 132,693 133,557
134,386 135,159 144,4241 145,4979
146,2807 147,1122 148,481 149,128
155,115 156,266 157,305 158,164
159,135 161,545 162,864 166,76
167,94 168,149 169,157 171,117
179,762 180,1366 181,1431 182,960
183,1003 184,325 185,243 192,289
193,112 194,174 204,134 205,108
206,103 215,84 216,141 217,442
218,2829 219,495 220,1718 221,265
222,336 252,672 253,745 254,711
255,641 256,238 257,235 262,94
264,135 288,4717 289,820 290,6444
291,874 292,2923 293,458 294,788
295,108 323,2798 324,577 325,4370
326,686 327,3012 328,302 329,913
330,113 331,193 358,4640 359,882
360,9999 361,1351 362,7625 363,1086
364,3137 365,333 366,765 368,141
##END=
