##TITLE=[1,1'-Biphenyl]-4-carbonitrile, 4'-octyl-
##JCAMP-DX=4.24
##DATA TYPE=MASS SPECTRUM
##ORIGIN=Japan AIST/NIMC Database- Spectrum MS-NW-4521
##OWNER=NIST Mass Spectrometry Data Center
Collection (C) 2014 copyright by the U.S. Secretary of Commerce
on behalf of the United States of America. All rights reserved.
##CAS REGISTRY NO=52709-84-9
##$NIST MASS SPEC NO=237761
##MOLFORM=C21 H25 N
##MW=291
##$NIST SOURCE=MSDC
##XUNITS=M/Z
##YUNITS=RELATIVE INTENSITY
##XFACTOR=1
##YFACTOR=1
##FIRSTX=14
##LASTX=294
##FIRSTY=70
##MAXX=294
##MINX=14
##MAXY=9999
##MINY=10
##NPOINTS=121
##PEAK TABLE=(XY..XY)
14,70 16,30 26,20 27,239
28,159 29,439 30,10 39,189
40,40 41,559 42,60 43,469
44,90 50,20 51,60 52,20
53,40 54,10 55,139 56,30
57,419 58,20 62,20 63,60
64,20 65,50 67,20 69,30
70,10 71,10 74,20 75,40
76,30 77,90 78,30 79,10
81,10 82,20 83,10 87,20
88,20 89,40 90,20 91,60
95,20 96,20 99,10 100,10
101,20 102,30 103,30 113,20
114,20 115,60 116,50 117,20
125,10 126,20 127,40 128,40
129,20 130,10 138,10 139,50
140,109 141,20 142,10 149,10
150,30 151,80 152,119 153,80
154,20 163,50 164,109 165,439
166,159 167,50 168,10 175,10
176,40 177,269 178,149 179,309
180,80 181,30 182,10 188,10
189,40 190,709 191,309 192,9999
193,2969 194,369 195,40 201,10
202,10 203,90 204,90 205,339
206,229 207,60 208,10 214,10
216,10 217,20 218,70 219,30
220,70 221,20 234,60 235,20
248,10 249,30 263,10 289,10
290,10 291,3819 292,899 293,119
294,10
##END=
