##TITLE=[1,1'-Biphenyl]-4-carbonitrile, 4'-propoxy-
##JCAMP-DX=4.24
##DATA TYPE=MASS SPECTRUM
##ORIGIN=P.A. Leclercq, Lab. Instrum. Anal., Eindhoven Univ. Technol., Netherlands
##OWNER=NIST Mass Spectrometry Data Center
Collection (C) 2014 copyright by the U.S. Secretary of Commerce
on behalf of the United States of America. All rights reserved.
##CAS REGISTRY NO=52709-86-1
##$NIST MASS SPEC NO=141815
##MOLFORM=C16 H15 N O
##MW=237
##$NIST SOURCE=MSDC
##XUNITS=M/Z
##YUNITS=RELATIVE INTENSITY
##XFACTOR=1
##YFACTOR=1
##FIRSTX=15
##LASTX=239
##FIRSTY=99
##MAXX=239
##MINX=15
##MAXY=9999
##MINY=9
##NPOINTS=103
##PEAK TABLE=(XY..XY)
15,99 27,1269 28,89 29,139
30,19 31,9 37,19 38,69
39,569 41,939 42,79 43,659
44,29 50,129 51,149 52,39
53,29 55,179 56,9 57,9
62,139 63,279 64,89 65,69
66,19 68,19 74,119 75,209
76,139 77,89 78,9 83,9
85,9 86,69 87,129 88,129
89,149 90,39 91,9 92,9
94,29 98,29 99,59 100,89
101,79 102,69 103,19 104,19
110,19 111,29 112,69 113,299
114,179 115,209 116,89 118,19
123,9 124,29 125,69 126,69
127,189 128,49 130,9 131,19
136,9 137,79 138,179 139,729
140,1529 141,239 142,19 144,9
149,49 150,219 151,379 152,159
153,59 154,19 155,9 156,9
162,9 164,349 166,1429 167,309
168,59 169,49 175,29 176,89
177,329 178,139 179,29 180,49
190,9 191,19 192,39 195,9999
196,1489 197,109 208,49 236,9
237,1759 238,319 239,29
##END=
