##TITLE=Benzene, 1,1',1''-ethylidynetris-
##JCAMP-DX=4.24
##DATA TYPE=MASS SPECTRUM
##OWNER=NIST Mass Spectrometry Data Center
Collection (C) 2014 copyright by the U.S. Secretary of Commerce
on behalf of the United States of America. All rights reserved.
##CAS REGISTRY NO=5271-39-6
##$NIST MASS SPEC NO=12528
##MOLFORM=C20 H18
##MW=258
##$NIST SOURCE=MSDC
##XUNITS=M/Z
##YUNITS=RELATIVE INTENSITY
##XFACTOR=1
##YFACTOR=1
##FIRSTX=39
##LASTX=260
##FIRSTY=70
##MAXX=260
##MINX=39
##MAXY=9999
##MINY=20
##NPOINTS=47
##PEAK TABLE=(XY..XY)
39,70 50,70 51,260 52,40
63,80 65,60 76,80 77,611
78,160 89,90 91,120 107,70
113,80 114,60 115,220 120,80
126,40 127,50 128,60 129,100
139,120 141,60 150,60 151,70
152,180 153,80 154,60 155,110
164,150 165,3503 166,901 167,120
176,120 177,100 178,320 179,270
180,90 181,1101 182,170 242,100
243,9999 244,2102 245,210 257,30
258,651 259,160 260,20
##END=
