##TITLE=Heptane, 3-chloro-3-methyl-
##JCAMP-DX=4.24
##DATA TYPE=MASS SPECTRUM
##ORIGIN=NIST Mass Spectrometry Data Center, 1990.
##OWNER=NIST Mass Spectrometry Data Center
Collection (C) 2014 copyright by the U.S. Secretary of Commerce
on behalf of the United States of America. All rights reserved.
##CAS REGISTRY NO=5272-02-6
##$NIST MASS SPEC NO=114670
##MOLFORM=C8 H17 Cl
##MW=148
##$NIST SOURCE=MSDC
##XUNITS=M/Z
##YUNITS=RELATIVE INTENSITY
##XFACTOR=1
##YFACTOR=1
##FIRSTX=26
##LASTX=120
##FIRSTY=172
##MAXX=120
##MINX=26
##MAXY=9999
##MINY=55
##NPOINTS=49
##PEAK TABLE=(XY..XY)
26,172 27,1297 28,87 29,1117
35,203 36,454 37,90 38,320
39,2053 40,511 41,4399 42,881
43,1043 50,182 51,430 52,214
53,1084 54,90 55,9999 56,1129
57,1198 62,71 63,286 65,278
66,100 67,763 68,253 69,1711
70,5347 71,1388 75,93 76,188
77,289 78,113 79,183 81,149
83,4304 84,784 89,75 90,627
91,1032 92,233 93,320 97,145
112,1586 113,343 118,122 119,187
120,55
##END=
