##TITLE=.beta.-Asarone
##JCAMP-DX=4.24
##DATA TYPE=MASS SPECTRUM
##ORIGIN=Japan AIST/NIMC Database- Spectrum MS-NW-7846
##OWNER=NIST Mass Spectrometry Data Center
Collection (C) 2014 copyright by the U.S. Secretary of Commerce
on behalf of the United States of America. All rights reserved.
##CAS REGISTRY NO=5273-86-9
##$NIST MASS SPEC NO=238184
##MOLFORM=C12 H16 O3
##MW=208
##$NIST SOURCE=MSDC
##XUNITS=M/Z
##YUNITS=RELATIVE INTENSITY
##XFACTOR=1
##YFACTOR=1
##FIRSTX=14
##LASTX=212
##FIRSTY=20
##MAXX=212
##MINX=14
##MAXY=9999
##MINY=10
##NPOINTS=165
##PEAK TABLE=(XY..XY)
14,20 15,389 26,30 27,179
28,60 29,80 30,20 31,40
37,20 38,90 39,499 40,90
41,299 42,30 43,319 44,20
45,129 46,10 49,10 50,169
51,349 52,139 53,279 54,30
55,169 56,40 57,129 58,50
59,169 60,20 61,40 62,119
63,319 64,129 65,569 66,149
67,149 68,30 69,1119 70,50
71,30 73,20 74,70 75,149
76,109 77,639 78,289 79,549
80,70 81,70 82,20 83,30
84,20 85,70 86,30 87,40
88,60 89,279 90,199 91,839
92,179 93,159 94,60 95,90
96,60 97,20 98,20 99,10
101,30 102,90 103,409 104,279
105,599 106,159 107,499 108,99
109,129 110,50 111,20 113,10
114,10 115,179 116,60 117,80
118,309 119,339 120,169 121,259
122,169 123,90 124,189 125,80
126,10 127,10 128,10 129,20
130,30 131,179 132,149 133,549
134,369 135,549 136,99 137,699
138,90 139,30 140,20 141,10
142,10 143,10 144,10 145,50
146,70 147,489 148,179 149,259
150,619 151,219 152,30 153,30
154,20 155,10 158,10 159,20
160,30 161,239 162,1149 163,379
164,90 165,2649 166,319 167,40
168,10 169,10 175,60 176,239
177,359 178,249 179,259 180,50
181,80 182,20 183,20 184,10
186,10 187,10 188,10 189,10
190,10 191,80 192,139 193,4389
194,659 195,99 196,70 197,30
198,10 205,30 206,20 207,60
208,9999 209,1309 210,149 211,20
212,20
##END=
