##TITLE=Bicyclo[4.1.0]hepta-1,3,5-triene, 2,5-diphenyl-
##JCAMP-DX=4.24
##DATA TYPE=MASS SPECTRUM
##ORIGIN=ASES Database, Dalian Institute, P.R. China
##OWNER=NIST Mass Spectrometry Data Center
Collection (C) 2014 copyright by the U.S. Secretary of Commerce
on behalf of the United States of America. All rights reserved.
##CAS REGISTRY NO=52750-12-6
##$NIST MASS SPEC NO=148133
##MOLFORM=C19 H14
##MW=242
##$NIST SOURCE=MSDC
##XUNITS=M/Z
##YUNITS=RELATIVE INTENSITY
##XFACTOR=1
##YFACTOR=1
##FIRSTX=41
##LASTX=244
##FIRSTY=610
##MAXX=244
##MINX=41
##MAXY=9999
##MINY=190
##NPOINTS=50
##PEAK TABLE=(XY..XY)
41,610 43,670 55,780 57,1201
69,580 71,710 83,400 85,500
87,200 88,300 89,300 94,190
95,400 97,390 98,200 99,190
100,190 101,400 106,200 107,500
108,490 111,300 115,800 116,200
117,500 119,810 120,1391 121,700
139,490 149,190 163,500 164,580
165,2872 166,490 187,200 189,290
202,400 213,490 215,1191 216,390
226,900 227,390 237,700 238,400
239,4393 240,2492 241,9718 242,9999
243,1981 244,700
##END=
