##TITLE=1-Heptanamine, N,N-dimethyl-
##JCAMP-DX=4.24
##DATA TYPE=MASS SPECTRUM
##ORIGIN=V.G.Zaikin, TIPS, Russian Acad. Sci., Moscow
##OWNER=NIST Mass Spectrometry Data Center
Collection (C) 2014 copyright by the U.S. Secretary of Commerce
on behalf of the United States of America. All rights reserved.
##CAS REGISTRY NO=5277-11-2
##$NIST MASS SPEC NO=216652
##MOLFORM=C9 H21 N
##MW=143
##$NIST SOURCE=MSDC
##XUNITS=M/Z
##YUNITS=RELATIVE INTENSITY
##XFACTOR=1
##YFACTOR=1
##FIRSTX=29
##LASTX=144
##FIRSTY=1371
##MAXX=144
##MINX=29
##MAXY=9999
##MINY=10
##NPOINTS=36
##PEAK TABLE=(XY..XY)
29,1371 30,850 39,690 40,160
41,1481 42,2232 43,930 44,1030
45,440 46,120 55,490 56,380
57,520 58,9999 59,1341 65,10
67,20 68,40 69,50 70,180
71,160 72,160 73,10 82,40
84,250 85,20 86,10 98,20
100,40 114,70 128,30 140,10
141,10 142,160 143,740 144,80
##END=
