##TITLE=3-(Trifluoromethoxy)benzonitrile
##JCAMP-DX=4.24
##DATA TYPE=MASS SPECTRUM
##ORIGIN=NIST Mass Spectrometry Data Center, 1994
##OWNER=NIST Mass Spectrometry Data Center
Collection (C) 2014 copyright by the U.S. Secretary of Commerce
on behalf of the United States of America. All rights reserved.
##CAS REGISTRY NO=52771-22-9
##$NIST MASS SPEC NO=136916
##MOLFORM=C8 H4 F3 N O
##MW=187
##$NIST SOURCE=MSDC
##XUNITS=M/Z
##YUNITS=RELATIVE INTENSITY
##XFACTOR=1
##YFACTOR=1
##FIRSTX=12
##LASTX=189
##FIRSTY=33
##MAXX=189
##MINX=12
##MAXY=9999
##MINY=12
##NPOINTS=84
##PEAK TABLE=(XY..XY)
12,33 13,28 14,23 15,15
18,37 19,14 25,51 26,223
27,183 29,27 31,146 36,72
37,900 38,1177 39,1786 40,72
41,81 42,19 44,19 45,13
47,120 48,34 49,197 50,914
51,530 52,185 53,97 55,21
57,50 60,60 61,386 62,653
63,1664 64,1307 65,75 66,98
67,33 68,21 69,9999 70,96
72,20 73,96 74,271 75,629
76,277 77,25 78,48 81,18
84,66 85,12 86,42 87,85
88,187 89,173 90,2176 91,166
92,55 93,25 94,268 95,74
98,16 99,97 100,80 101,90
102,1099 103,82 108,26 109,203
114,53 117,56 118,264 119,36
120,114 121,1025 122,91 132,30
139,175 140,26 159,939 160,77
168,75 187,6397 188,587 189,24
##END=
