##TITLE=Urea, (2-isopropyl-4-pentenoyl)-
##JCAMP-DX=4.24
##DATA TYPE=MASS SPECTRUM
##ORIGIN=Japan AIST/NIMC Database- Spectrum MS-IW-3260
##OWNER=NIST Mass Spectrometry Data Center
Collection (C) 2014 copyright by the U.S. Secretary of Commerce
on behalf of the United States of America. All rights reserved.
##CAS REGISTRY NO=528-92-7
##$NIST MASS SPEC NO=243955
##MOLFORM=C9 H16 N2 O2
##MW=184
##$NIST SOURCE=MSDC
##XUNITS=M/Z
##YUNITS=RELATIVE INTENSITY
##XFACTOR=1
##YFACTOR=1
##FIRSTX=15
##LASTX=186
##FIRSTY=50
##MAXX=186
##MINX=15
##MAXY=9999
##MINY=10
##NPOINTS=113
##PEAK TABLE=(XY..XY)
15,50 16,40 17,60 18,169
26,70 27,1359 28,479 29,899
30,189 31,30 32,10 37,20
38,80 39,1969 40,259 41,4049
42,479 43,2529 44,5889 45,159
46,30 50,90 51,249 52,179
53,1339 54,1189 55,8119 56,2479
57,599 58,379 59,169 60,249
61,4999 62,99 63,40 64,10
65,139 66,90 67,629 68,349
69,1449 70,479 71,129 72,359
73,209 74,30 77,179 78,60
79,359 80,309 81,6949 82,4509
83,2589 84,369 85,99 86,1169
87,459 88,80 89,10 91,40
92,10 93,40 94,20 95,239
96,1649 97,939 98,3829 99,3259
100,559 101,1129 102,289 103,10
106,30 107,10 108,90 109,1359
110,129 111,10 112,40 113,90
114,1499 115,219 116,30 122,20
123,159 124,2729 125,379 126,1179
127,179 128,40 129,289 130,30
139,20 140,60 141,9329 142,9999
143,1519 144,149 145,10 149,10
152,10 155,70 156,139 157,10
166,10 167,10 169,1139 170,109
171,10 183,20 184,659 185,129
186,10
##END=
