##TITLE=Ethanone, 1-[5-(2-furanylmethyl)-2-furanyl]-
##JCAMP-DX=4.24
##DATA TYPE=MASS SPECTRUM
##OWNER=NIST Mass Spectrometry Data Center
Collection (C) 2014 copyright by the U.S. Secretary of Commerce
on behalf of the United States of America. All rights reserved.
##CAS REGISTRY NO=52805-84-2
##$NIST MASS SPEC NO=28833
##MOLFORM=C11 H10 O3
##MW=190
##$NIST SOURCE=MSDC
##XUNITS=M/Z
##YUNITS=RELATIVE INTENSITY
##XFACTOR=1
##YFACTOR=1
##FIRSTX=37
##LASTX=192
##FIRSTY=129
##MAXX=192
##MINX=37
##MAXY=9999
##MINY=26
##NPOINTS=43
##PEAK TABLE=(XY..XY)
37,129 38,309 39,747 41,180
43,2165 44,258 50,258 51,593
52,335 53,747 54,77 55,155
61,52 62,155 63,464 64,206
65,773 74,26 77,180 79,258
81,825 87,129 89,361 90,155
91,3247 92,309 93,26 103,206
105,155 118,258 119,2242 120,180
121,155 147,3814 148,387 161,155
162,77 175,2526 176,309 189,722
190,9999 191,1185 192,155
##END=
