##TITLE=Cyclopentanemethanol, .alpha.-methyl-
##JCAMP-DX=4.24
##DATA TYPE=MASS SPECTRUM
##ORIGIN=NIST Mass Spectrometry Data Center
##OWNER=NIST Mass Spectrometry Data Center
Collection (C) 2014 copyright by the U.S. Secretary of Commerce
on behalf of the United States of America. All rights reserved.
##CAS REGISTRY NO=52829-98-8
##$NIST MASS SPEC NO=343726
##MOLFORM=C7 H14 O
##MW=114
##$NIST SOURCE=MSDC
##XUNITS=M/Z
##YUNITS=RELATIVE INTENSITY
##XFACTOR=1
##YFACTOR=1
##FIRSTX=14
##LASTX=113
##FIRSTY=10
##MAXX=113
##MINX=14
##MAXY=9999
##MINY=10
##NPOINTS=50
##PEAK TABLE=(XY..XY)
14,10 15,340 19,300 26,90
27,1041 29,771 30,30 31,220
37,20 38,80 39,1121 40,220
41,2322 42,721 43,1111 44,1281
45,9999 46,230 47,330 48,10
50,30 51,90 52,30 53,290
54,90 55,621 56,40 57,260
58,40 62,10 63,20 65,110
66,100 67,1241 68,4834 69,761
70,70 71,160 72,10 77,40
79,200 81,1341 82,80 83,10
95,50 96,200 97,50 99,530
100,30 113,10
##END=
