##TITLE=Trachylobane
##JCAMP-DX=4.24
##DATA TYPE=MASS SPECTRUM
##ORIGIN=A. MCCORMICK GC-MS UNIT, UNIVERSITY OF GLASGOW
##OWNER=NIST Mass Spectrometry Data Center
Collection (C) 2014 copyright by the U.S. Secretary of Commerce
on behalf of the United States of America. All rights reserved.
##CAS REGISTRY NO=5282-35-9
##$NIST MASS SPEC NO=13173
##MOLFORM=C20 H32
##MW=272
##$NIST SOURCE=MSDC
##XUNITS=M/Z
##YUNITS=RELATIVE INTENSITY
##XFACTOR=1
##YFACTOR=1
##FIRSTX=41
##LASTX=274
##FIRSTY=9999
##MAXX=274
##MINX=41
##MAXY=9999
##MINY=100
##NPOINTS=125
##PEAK TABLE=(XY..XY)
41,9999 42,900 43,2800 44,200
45,300 51,400 52,200 53,2400
54,400 55,6800 56,1100 57,1700
58,200 59,400 63,200 64,100
65,1200 66,500 67,4100 68,1700
69,7200 70,800 71,700 73,300
74,200 77,3800 78,1400 79,5400
80,2100 81,6500 82,2100 83,2500
84,400 85,400 87,400 91,7200
92,3500 93,7700 94,2600 95,5300
96,900 97,1700 103,700 104,700
105,9000 106,5400 107,3900 108,1200
109,3600 110,500 111,1100 115,700
116,400 117,1700 118,2700 119,7600
120,2500 121,3000 122,900 123,5000
124,1100 125,1100 128,400 129,500
130,400 131,1900 132,1200 133,2700
134,3800 135,2300 136,1700 137,2800
138,400 139,100 141,200 142,200
143,400 144,200 145,1900 146,800
147,2600 148,1700 149,1100 150,400
151,100 157,200 159,1700 160,700
161,1600 162,600 163,700 164,100
165,100 171,100 173,900 174,400
175,1400 176,500 177,800 178,200
179,200 187,1800 188,800 189,700
190,1100 191,900 201,5600 202,1100
203,700 204,300 205,200 207,300
215,1000 216,9000 217,1900 218,400
229,1000 230,1200 231,500 257,6100
258,1400 259,100 272,6800 273,1900
274,200
##END=
