##TITLE=L-Tyrosine, N-(trifluoroacetyl)-, butyl ester, trifluoroacetate (ester)
##JCAMP-DX=4.24
##DATA TYPE=MASS SPECTRUM
##ORIGIN=S. MARKEY UNIV. OF COLO. MED. CTR., DENVER, COLORADO, USA
##OWNER=NIST Mass Spectrometry Data Center
Collection (C) 2014 copyright by the U.S. Secretary of Commerce
on behalf of the United States of America. All rights reserved.
##CAS REGISTRY NO=5282-98-4
##$NIST MASS SPEC NO=17456
##MOLFORM=C17 H17 F6 N O5
##MW=429
##$NIST SOURCE=MSDC
##XUNITS=M/Z
##YUNITS=RELATIVE INTENSITY
##XFACTOR=1
##YFACTOR=1
##FIRSTX=39
##LASTX=354
##FIRSTY=380
##MAXX=354
##MINX=39
##MAXY=9999
##MINY=20
##NPOINTS=114
##PEAK TABLE=(XY..XY)
39,380 41,1710 42,90 43,230
44,110 50,100 51,240 52,210
53,100 55,580 56,700 57,2080
58,120 63,150 64,30 65,160
69,2350 73,40 75,30 77,490
78,590 79,200 80,20 83,190
89,320 90,470 91,520 92,60
95,50 96,180 97,110 101,490
102,160 103,90 104,50 105,120
106,280 107,530 108,40 109,670
113,180 114,70 115,20 116,190
117,610 118,390 119,300 124,20
126,30 127,130 129,90 132,100
133,80 134,390 135,140 139,60
142,60 144,40 145,230 146,190
147,90 151,150 153,80 157,20
162,30 163,200 164,310 166,140
167,40 170,120 175,1500 176,170
190,130 202,60 203,9999 204,1020
205,80 213,40 214,940 215,720
216,380 217,50 219,80 228,50
229,20 230,220 231,540 232,180
242,60 243,1340 244,280 245,50
258,370 259,370 260,9500 261,1750
262,280 270,40 273,20 274,30
276,70 290,50 299,20 306,40
308,250 310,230 316,4250 317,670
318,100 327,200 328,910 329,160
334,120 354,80
##END=
