##TITLE=Octyltrichlorosilane
##JCAMP-DX=4.24
##DATA TYPE=MASS SPECTRUM
##ORIGIN=NIST Mass Spectrometry Data Center
##OWNER=NIST Mass Spectrometry Data Center
Collection (C) 2014 copyright by the U.S. Secretary of Commerce
on behalf of the United States of America. All rights reserved.
##CAS REGISTRY NO=5283-66-9
##$NIST MASS SPEC NO=342372
##MOLFORM=C8 H17 Cl3 Si
##MW=246
##$NIST SOURCE=MSDC
##XUNITS=M/Z
##YUNITS=RELATIVE INTENSITY
##XFACTOR=1
##YFACTOR=1
##FIRSTX=15
##LASTX=250
##FIRSTY=50
##MAXX=250
##MINX=15
##MAXY=9999
##MINY=10
##NPOINTS=141
##PEAK TABLE=(XY..XY)
15,50 17,10 18,10 27,2752
28,931 29,3193 30,20 35,30
36,100 37,20 39,1932 41,5135
42,2002 43,9999 44,280 49,40
50,40 51,130 52,60 53,340
54,230 55,1471 56,1231 57,3783
58,160 63,540 64,50 65,230
66,40 67,110 69,440 70,460
71,2142 72,120 77,30 78,10
79,30 80,10 81,30 82,10
83,100 85,3603 86,240 90,10
91,20 92,10 93,10 95,10
98,300 99,260 100,230 101,180
102,50 103,50 104,10 105,20
112,130 113,120 114,90 115,100
116,40 117,120 118,10 119,40
123,20 125,180 126,90 127,140
128,60 129,30 130,20 131,80
133,2332 135,2342 136,150 137,881
138,90 139,410 140,70 141,200
142,20 143,40 147,10 149,10
151,20 153,200 154,30 155,120
156,10 157,20 161,350 163,330
164,30 165,130 167,140 168,30
169,80 170,20 171,20 174,150
175,1001 176,240 177,1021 178,140
179,380 180,30 181,90 182,10
183,20 187,10 188,50 189,270
190,80 191,270 192,40 193,90
194,10 195,10 202,30 203,150
204,60 205,140 206,30 207,100
208,20 209,40 210,20 211,10
212,10 216,30 217,160 218,40
219,170 220,20 221,50 222,10
246,90 247,10 248,100 249,10
250,30
##END=
