##TITLE=Thiocyanic acid, phenyl ester
##JCAMP-DX=4.24
##DATA TYPE=MASS SPECTRUM
##OWNER=NIST Mass Spectrometry Data Center
Collection (C) 2014 copyright by the U.S. Secretary of Commerce
on behalf of the United States of America. All rights reserved.
##CAS REGISTRY NO=5285-87-0
##$NIST MASS SPEC NO=32799
##MOLFORM=C7 H5 N S
##MW=135
##$NIST SOURCE=MSDC
##XUNITS=M/Z
##YUNITS=RELATIVE INTENSITY
##XFACTOR=1
##YFACTOR=1
##FIRSTX=26
##LASTX=138
##FIRSTY=100
##MAXX=138
##MINX=26
##MAXY=9999
##MINY=17
##NPOINTS=72
##PEAK TABLE=(XY..XY)
26,100 27,283 28,417 29,17
31,100 32,83 36,33 37,200
38,300 39,800 40,33 41,33
43,17 44,100 45,600 46,17
47,17 49,133 50,1217 51,2650
52,133 53,67 54,150 57,200
58,283 59,83 61,117 62,183
63,383 64,133 65,833 66,67
68,50 69,800 70,67 71,83
73,117 74,483 75,300 76,183
77,5299 78,417 79,33 80,17
81,167 82,317 83,83 84,567
85,33 86,50 90,50 91,2566
92,167 93,67 94,67 95,33
102,67 103,117 105,50 106,33
107,50 108,2950 109,1283 110,267
111,50 116,33 133,33 134,317
135,9999 136,883 137,467 138,33
##END=
