##TITLE=3-Methyl-2-butene-1-thiol
##JCAMP-DX=4.24
##DATA TYPE=MASS SPECTRUM
##ORIGIN=W.Holscher ET AL.J.Agr.Food Chem.,40,655(1992)
##OWNER=NIST Mass Spectrometry Data Center
Collection (C) 2014 copyright by the U.S. Secretary of Commerce
on behalf of the United States of America. All rights reserved.
##CAS REGISTRY NO=5287-45-6
##$NIST MASS SPEC NO=292871
##MOLFORM=C5 H10 S
##MW=102
##$NIST SOURCE=MSDC
##XUNITS=M/Z
##YUNITS=RELATIVE INTENSITY
##XFACTOR=1
##YFACTOR=1
##FIRSTX=33
##LASTX=103
##FIRSTY=641
##MAXX=103
##MINX=33
##MAXY=9999
##MINY=90
##NPOINTS=33
##PEAK TABLE=(XY..XY)
33,641 34,130 37,280 38,550
39,4714 40,661 41,9999 42,480
43,200 45,1381 46,110 47,550
50,591 51,681 52,180 53,1641
54,180 55,110 56,90 57,150
58,240 59,460 60,90 61,90
65,310 66,90 67,1692 68,2762
69,5405 70,200 87,130 102,871
103,90
##END=
