##TITLE=Pyridine, 1,1'-[1,2-phenylenebis(1-oxo-2,1-ethanediyl)]bis[1,2,3,4-tetrahydro-
##JCAMP-DX=4.24
##DATA TYPE=MASS SPECTRUM
##OWNER=NIST Mass Spectrometry Data Center
Collection (C) 2014 copyright by the U.S. Secretary of Commerce
on behalf of the United States of America. All rights reserved.
##CAS REGISTRY NO=52881-80-8
##$NIST MASS SPEC NO=29583
##MOLFORM=C20 H24 N2 O2
##MW=324
##$NIST SOURCE=MSDC
##XUNITS=M/Z
##YUNITS=RELATIVE INTENSITY
##XFACTOR=1
##YFACTOR=1
##FIRSTX=41
##LASTX=324
##FIRSTY=800
##MAXX=324
##MINX=41
##MAXY=9999
##MINY=500
##NPOINTS=23
##PEAK TABLE=(XY..XY)
41,800 54,700 55,800 67,500
68,900 77,700 78,500 82,5499
83,9999 84,1800 103,4800 104,1500
105,1700 110,1100 131,1800 186,1100
213,800 214,9699 215,1600 241,1900
242,9099 243,1500 324,1300
##END=
