##TITLE=Heptane, 3-ethyl-5-methyl-
##JCAMP-DX=4.24
##DATA TYPE=MASS SPECTRUM
##ORIGIN=D.HENNEBERG, MAX-PLANCK INSTITUTE, MULHEIM, WEST GERMANY
##OWNER=NIST Mass Spectrometry Data Center
Collection (C) 2014 copyright by the U.S. Secretary of Commerce
on behalf of the United States of America. All rights reserved.
##CAS REGISTRY NO=52896-90-9
##$NIST MASS SPEC NO=61791
##MOLFORM=C10 H22
##MW=142
##$NIST SOURCE=MSDC
##XUNITS=M/Z
##YUNITS=RELATIVE INTENSITY
##XFACTOR=1
##YFACTOR=1
##FIRSTX=24
##LASTX=142
##FIRSTY=4
##MAXX=142
##MINX=24
##MAXY=9999
##MINY=3
##NPOINTS=52
##PEAK TABLE=(XY..XY)
24,4 25,22 27,1204 28,72
29,2643 30,70 31,3 32,13
38,27 39,745 41,5405 42,622
43,8904 44,224 45,26 50,9
51,50 52,18 53,197 54,67
55,1421 56,1025 57,9999 58,443
59,13 63,11 65,26 66,10
67,57 68,13 69,288 70,1505
71,7875 72,423 73,6 77,13
79,17 81,14 82,28 83,266
84,314 85,421 86,18 97,4
98,6 99,12 111,7 112,729
113,1213 114,96 115,3 142,33
##END=
