##TITLE=5-Chlorovaleric acid, undecyl ester
##JCAMP-DX=4.24
##DATA TYPE=MASS SPECTRUM
##ORIGIN=Zaikin V.G., TIPS RAS, Moscow, Russia
##OWNER=NIST Mass Spectrometry Data Center
Collection (C) 2014 copyright by the U.S. Secretary of Commerce
on behalf of the United States of America. All rights reserved.
##CAS REGISTRY NO=52893-20-6
##$NIST MASS SPEC NO=292246
##MOLFORM=C16 H31 Cl O2
##MW=290
##$NIST SOURCE=MSDC
##XUNITS=M/Z
##YUNITS=RELATIVE INTENSITY
##XFACTOR=1
##YFACTOR=1
##FIRSTX=26
##LASTX=256
##FIRSTY=210
##MAXX=256
##MINX=26
##MAXY=9999
##MINY=30
##NPOINTS=110
##PEAK TABLE=(XY..XY)
26,210 27,1041 28,30 29,1952
30,40 31,60 36,190 37,30
38,120 39,881 40,200 41,3853
42,1471 43,4664 44,280 45,90
49,90 50,40 51,70 52,40
53,430 54,771 55,9218 56,4444
57,4364 58,260 59,230 60,110
61,40 62,70 63,230 65,90
66,60 67,781 68,1301 69,4304
70,4514 71,1982 72,110 73,581
74,50 75,40 77,40 79,70
81,360 82,1672 83,5095 84,3383
85,1281 86,80 87,180 89,40
90,30 91,2552 92,140 93,821
94,40 95,160 96,651 97,3863
98,1862 99,300 100,601 101,2562
102,160 103,40 109,50 110,260
111,1822 112,1021 113,150 115,50
116,120 118,140 119,5435 120,340
121,1661 122,90 124,120 125,821
126,1782 127,200 129,40 134,90
135,50 136,831 137,9999 138,771
139,3003 140,160 147,60 149,30
152,40 154,1531 155,210 157,120
163,70 169,60 171,80 174,50
177,120 179,40 192,310 193,30
194,90 199,320 200,40 206,30
255,190 256,30
##END=
