##TITLE=Heptane, 2,3,4-trimethyl-
##JCAMP-DX=4.24
##DATA TYPE=MASS SPECTRUM
##ORIGIN=D.HENNEBERG, MAX-PLANCK INSTITUTE, MULHEIM, WEST GERMANY
##OWNER=NIST Mass Spectrometry Data Center
Collection (C) 2014 copyright by the U.S. Secretary of Commerce
on behalf of the United States of America. All rights reserved.
##CAS REGISTRY NO=52896-95-4
##$NIST MASS SPEC NO=62066
##MOLFORM=C10 H22
##MW=142
##$NIST SOURCE=MSDC
##XUNITS=M/Z
##YUNITS=RELATIVE INTENSITY
##XFACTOR=1
##YFACTOR=1
##FIRSTX=21
##LASTX=100
##FIRSTY=4
##MAXX=100
##MINX=21
##MAXY=9999
##MINY=1
##NPOINTS=51
##PEAK TABLE=(XY..XY)
21,4 24,8 25,19 26,98
27,998 29,1348 30,34 31,4
33,53 35,13 36,1 37,24
38,14 39,597 40,82 41,2296
42,701 43,9724 44,213 45,1
49,5 50,21 51,31 52,13
53,145 54,51 55,1573 56,521
57,9999 58,388 59,3 63,3
65,17 66,4 67,45 68,24
69,453 70,3390 71,4073 72,198
77,10 79,7 81,3 83,98
84,10 85,122 86,4 97,10
98,801 99,918 100,58
##END=
