##TITLE=Acetamide, N-ethyl-N-phenyl-
##JCAMP-DX=4.24
##DATA TYPE=MASS SPECTRUM
##ORIGIN=Japan AIST/NIMC Database- Spectrum MS-NW-7253
##OWNER=NIST Mass Spectrometry Data Center
Collection (C) 2014 copyright by the U.S. Secretary of Commerce
on behalf of the United States of America. All rights reserved.
##CAS REGISTRY NO=529-65-7
##$NIST MASS SPEC NO=235975
##MOLFORM=C10 H13 N O
##MW=163
##$NIST SOURCE=MSDC
##XUNITS=M/Z
##YUNITS=RELATIVE INTENSITY
##XFACTOR=1
##YFACTOR=1
##FIRSTX=14
##LASTX=165
##FIRSTY=10
##MAXX=165
##MINX=14
##MAXY=9999
##MINY=10
##NPOINTS=70
##PEAK TABLE=(XY..XY)
14,10 15,109 26,30 27,209
28,109 29,149 30,30 37,30
38,90 39,299 40,50 41,70
42,269 43,1989 44,129 50,169
51,699 52,129 53,40 54,20
61,20 62,40 63,159 64,159
65,349 66,129 67,20 70,519
71,30 72,30 74,50 75,50
76,70 77,1669 78,289 79,269
80,30 85,70 86,10 89,20
90,30 91,209 92,189 93,459
94,60 102,10 103,70 104,409
105,309 106,9999 107,819 108,30
112,10 116,10 117,40 118,179
119,80 120,739 121,1509 122,139
132,10 134,20 135,609 136,70
148,129 149,10 162,60 163,2249
164,309 165,20
##END=
