##TITLE=1-Naphthalenol, 5,6,7,8-tetrahydro-
##JCAMP-DX=4.24
##DATA TYPE=MASS SPECTRUM
##ORIGIN=Japan AIST/NIMC Database- Spectrum MS-NW-6151
##OWNER=NIST Mass Spectrometry Data Center
Collection (C) 2014 copyright by the U.S. Secretary of Commerce
on behalf of the United States of America. All rights reserved.
##CAS REGISTRY NO=529-35-1
##$NIST MASS SPEC NO=229763
##MOLFORM=C10 H12 O
##MW=148
##$NIST SOURCE=MSDC
##XUNITS=M/Z
##YUNITS=RELATIVE INTENSITY
##XFACTOR=1
##YFACTOR=1
##FIRSTX=15
##LASTX=150
##FIRSTY=30
##MAXX=150
##MINX=15
##MAXY=9999
##MINY=10
##NPOINTS=104
##PEAK TABLE=(XY..XY)
15,30 18,10 26,50 27,379
28,70 29,50 31,10 37,40
38,139 39,879 40,119 41,389
42,20 43,99 44,20 45,40
46,40 47,10 49,20 50,269
51,829 52,259 53,319 54,30
55,269 56,10 57,139 58,129
59,60 60,90 61,50 62,169
63,509 64,339 65,629 66,339
67,60 68,30 69,30 70,10
71,20 72,209 73,329 74,249
75,129 76,99 77,899 78,289
79,339 80,40 81,40 82,10
85,20 86,40 87,50 88,30
89,229 90,99 91,2139 92,809
93,109 94,129 95,20 97,10
98,20 99,10 100,10 101,60
102,139 103,339 104,179 105,409
106,60 107,2419 108,209 109,20
113,20 114,40 115,799 116,209
117,279 118,90 119,569 120,9959
121,919 122,70 123,10 126,60
127,369 128,429 129,449 130,289
131,1079 132,489 133,1319 134,139
135,20 144,109 145,259 146,169
147,2399 148,9999 149,1109 150,90
##END=
