##TITLE=8-Azabicyclo[3.2.1]octane-2-carboxylic acid, 3-(benzoyloxy)-8-methyl-, ethyl ester, [1R-(exo,exo)]-
##JCAMP-DX=4.24
##DATA TYPE=MASS SPECTRUM
##ORIGIN=Drug Lab
##OWNER=NIST Mass Spectrometry Data Center
Collection (C) 2014 copyright by the U.S. Secretary of Commerce
on behalf of the United States of America. All rights reserved.
##CAS REGISTRY NO=529-38-4
##$NIST MASS SPEC NO=335210
##MOLFORM=C18 H23 N O4
##MW=317
##$NIST SOURCE=MSDC
##XUNITS=M/Z
##YUNITS=RELATIVE INTENSITY
##XFACTOR=1
##YFACTOR=1
##FIRSTX=40
##LASTX=318
##FIRSTY=30
##MAXX=318
##MINX=40
##MAXY=9999
##MINY=20
##NPOINTS=109
##PEAK TABLE=(XY..XY)
40,30 41,420 42,1551 43,160
44,270 45,80 50,220 51,661
52,110 53,300 54,200 55,731
56,260 57,420 58,90 59,20
60,20 65,190 66,130 67,550
68,400 69,140 70,160 71,30
73,70 75,40 76,30 77,2622
78,310 79,270 80,430 81,1361
82,9999 83,3493 84,450 85,60
86,30 91,300 92,100 93,370
94,3423 95,490 96,2102 97,1101
98,80 99,20 101,20 105,3163
106,340 107,200 108,370 109,90
110,200 111,90 114,130 115,20
117,30 118,20 119,240 120,350
121,60 122,951 123,100 124,150
126,40 128,30 132,20 133,30
135,40 136,20 137,30 138,290
139,60 140,200 147,30 148,50
149,20 150,260 151,20 152,60
154,30 156,20 163,20 164,20
166,731 167,110 168,200 169,160
176,20 179,20 180,30 193,20
194,120 195,350 196,4694 197,651
198,80 200,20 207,50 212,520
213,70 244,50 253,30 267,20
272,721 273,160 282,30 317,881
318,230
##END=
