##TITLE=1-Naphthalenethiol
##JCAMP-DX=4.24
##DATA TYPE=MASS SPECTRUM
##ORIGIN=RADIAN CORP
##OWNER=NIST Mass Spectrometry Data Center
Collection (C) 2014 copyright by the U.S. Secretary of Commerce
on behalf of the United States of America. All rights reserved.
##CAS REGISTRY NO=529-36-2
##$NIST MASS SPEC NO=73587
##MOLFORM=C10 H8 S
##MW=160
##$NIST SOURCE=MSDC
##XUNITS=M/Z
##YUNITS=RELATIVE INTENSITY
##XFACTOR=1
##YFACTOR=1
##FIRSTX=26
##LASTX=162
##FIRSTY=150
##MAXX=162
##MINX=26
##MAXY=9999
##MINY=10
##NPOINTS=68
##PEAK TABLE=(XY..XY)
26,150 27,190 33,220 34,60
37,180 38,440 39,980 40,50
44,40 45,640 49,90 50,910
51,830 52,150 53,20 58,220
62,800 63,1330 64,180 65,420
66,260 67,870 69,1020 70,110
73,140 74,870 75,830 76,430
77,80 78,100 79,2120 80,40
81,140 82,360 83,10 84,40
85,170 86,370 87,490 88,350
89,1150 93,310 94,70 95,140
98,290 99,160 100,100 101,280
102,180 105,10 106,100 108,90
113,560 114,1030 115,7040 116,3180
117,10 126,690 127,960 128,4410
129,520 132,70 134,930 158,670
159,410 160,9999 161,800 162,660
##END=
