##TITLE=Benzaldehyde, 2-methyl-
##JCAMP-DX=4.24
##DATA TYPE=MASS SPECTRUM
##ORIGIN=Japan AIST/NIMC Database- Spectrum MS-NW-1492
##OWNER=NIST Mass Spectrometry Data Center
Collection (C) 2014 copyright by the U.S. Secretary of Commerce
on behalf of the United States of America. All rights reserved.
##CAS REGISTRY NO=529-20-4
##$NIST MASS SPEC NO=229159
##MOLFORM=C8 H8 O
##MW=120
##$NIST SOURCE=MSDC
##XUNITS=M/Z
##YUNITS=RELATIVE INTENSITY
##XFACTOR=1
##YFACTOR=1
##FIRSTX=15
##LASTX=122
##FIRSTY=20
##MAXX=122
##MINX=15
##MAXY=9999
##MINY=10
##NPOINTS=66
##PEAK TABLE=(XY..XY)
15,20 17,20 18,80 25,10
26,60 27,269 28,39 29,219
31,10 32,10 36,10 37,189
38,379 39,1989 40,179 41,409
42,10 43,119 44,40 45,109
46,10 49,80 50,689 51,989
52,199 53,99 55,10 56,10
57,20 59,139 60,20 61,239
62,559 63,1319 64,339 65,2659
66,179 71,10 73,50 74,199
75,129 76,80 77,139 78,30
79,20 84,20 85,90 86,139
87,99 88,30 89,789 90,429
91,9999 92,1029 93,40 98,10
103,10 105,50 106,10 107,60
108,40 118,80 119,9459 120,7899
121,709 122,40
##END=
