##TITLE=4-(4-Nitrophenylazo)-1-naphthol
##JCAMP-DX=4.24
##DATA TYPE=MASS SPECTRUM
##ORIGIN=Japan AIST/NIMC Database- Spectrum MS-NW- 610
##OWNER=NIST Mass Spectrometry Data Center
Collection (C) 2014 copyright by the U.S. Secretary of Commerce
on behalf of the United States of America. All rights reserved.
##CAS REGISTRY NO=5290-62-0
##$NIST MASS SPEC NO=229350
##MOLFORM=C16 H11 N3 O3
##MW=293
##$NIST SOURCE=MSDC
##XUNITS=M/Z
##YUNITS=RELATIVE INTENSITY
##XFACTOR=1
##YFACTOR=1
##FIRSTX=14
##LASTX=296
##FIRSTY=10
##MAXX=296
##MINX=14
##MAXY=9999
##MINY=10
##NPOINTS=217
##PEAK TABLE=(XY..XY)
14,10 15,20 16,20 26,90
27,159 28,99 29,40 30,599
32,40 36,10 37,80 38,179
39,649 40,60 41,169 42,40
43,70 44,149 45,20 46,20
47,30 48,20 49,30 50,679
51,469 52,429 53,199 54,70
55,80 56,40 57,60 58,10
60,20 61,70 62,269 63,909
64,589 65,1059 66,139 67,50
68,20 69,40 70,10 71,30
72,10 73,40 74,249 75,789
76,959 77,429 78,129 79,139
80,239 81,60 82,20 83,30
84,20 85,20 86,80 87,139
88,409 89,719 90,499 91,389
92,1459 93,249 94,20 95,20
96,20 97,20 98,30 99,40
100,50 101,199 102,739 103,549
104,119 105,119 106,119 107,229
108,259 109,50 110,20 111,20
112,10 113,289 114,1009 115,5489
116,669 117,90 118,20 119,10
120,349 121,40 122,369 123,50
124,10 125,20 126,50 127,99
128,239 129,519 130,699 131,119
132,30 133,10 137,20 138,209
139,70 140,70 141,40 142,149
143,9999 144,1339 145,149 146,20
147,10 150,30 151,40 152,80
153,40 154,50 155,40 156,119
157,469 158,109 159,70 160,10
162,20 163,40 164,50 165,99
166,50 167,50 168,20 169,30
170,20 171,969 172,119 173,10
175,10 176,40 177,50 178,80
179,70 180,50 181,70 182,60
183,30 184,10 187,20 188,30
189,219 190,139 191,129 192,109
193,50 194,20 195,10 196,10
197,10 200,10 201,20 202,50
203,60 204,80 205,219 206,199
207,99 208,30 209,20 210,10
215,20 216,80 217,189 218,299
219,199 220,119 221,90 222,30
223,10 229,30 230,50 231,70
232,119 233,169 234,269 235,249
236,50 237,10 242,10 244,30
245,129 246,349 247,249 248,70
249,40 250,10 258,10 259,20
260,99 261,299 262,169 263,1039
264,209 265,139 266,20 275,10
276,50 277,159 278,30 291,60
292,519 293,4359 294,829 295,99
296,10
##END=
