##TITLE=Cyclohexaneacetic acid
##JCAMP-DX=4.24
##DATA TYPE=MASS SPECTRUM
##ORIGIN=Japan AIST/NIMC Database- Spectrum MS-NW-4270
##OWNER=NIST Mass Spectrometry Data Center
Collection (C) 2014 copyright by the U.S. Secretary of Commerce
on behalf of the United States of America. All rights reserved.
##CAS REGISTRY NO=5292-21-7
##$NIST MASS SPEC NO=229793
##MOLFORM=C8 H14 O2
##MW=142
##$NIST SOURCE=MSDC
##XUNITS=M/Z
##YUNITS=RELATIVE INTENSITY
##XFACTOR=1
##YFACTOR=1
##FIRSTX=14
##LASTX=143
##FIRSTY=20
##MAXX=143
##MINX=14
##MAXY=9999
##MINY=10
##NPOINTS=87
##PEAK TABLE=(XY..XY)
14,20 15,90 16,10 17,40
18,179 19,10 26,99 27,1249
28,279 29,969 30,30 31,99
32,60 36,20 37,20 38,80
39,1529 40,279 41,3519 42,409
43,589 44,60 45,409 46,20
47,30 49,10 50,70 51,159
52,80 53,659 54,1839 55,5719
56,419 57,229 58,70 59,60
60,9999 61,5409 62,199 63,70
64,10 65,119 66,99 67,3879
68,449 69,189 70,99 71,149
72,30 73,209 74,50 75,10
77,119 78,30 79,299 80,269
81,1159 82,6219 83,6969 84,439
85,109 86,90 87,50 88,10
89,10 91,70 92,10 93,30
94,10 95,169 96,70 97,109
98,10 99,499 100,60 101,10
105,10 109,10 112,10 113,30
123,50 124,129 125,70 127,10
141,10 142,329 143,40
##END=
