##TITLE=Propanedioic acid, (phenylmethylene)-, diethyl ester
##JCAMP-DX=4.24
##DATA TYPE=MASS SPECTRUM
##ORIGIN=Japan AIST/NIMC Database- Spectrum MS-NW-5249
##OWNER=NIST Mass Spectrometry Data Center
Collection (C) 2014 copyright by the U.S. Secretary of Commerce
on behalf of the United States of America. All rights reserved.
##CAS REGISTRY NO=5292-53-5
##$NIST MASS SPEC NO=228067
##MOLFORM=C14 H16 O4
##MW=248
##$NIST SOURCE=MSDC
##XUNITS=M/Z
##YUNITS=RELATIVE INTENSITY
##XFACTOR=1
##YFACTOR=1
##FIRSTX=12
##LASTX=251
##FIRSTY=10
##MAXX=251
##MINX=12
##MAXY=9999
##MINY=10
##NPOINTS=190
##PEAK TABLE=(XY..XY)
12,10 14,50 15,289 16,10
25,20 26,269 27,2369 28,519
29,8139 30,199 31,279 32,10
37,30 38,80 39,489 40,50
41,169 42,139 43,449 44,179
45,309 46,30 47,10 49,30
50,749 51,1589 52,559 53,749
54,70 55,70 56,40 57,40
59,10 60,70 61,50 62,219
63,619 64,139 65,249 66,30
67,10 68,10 69,939 70,50
71,30 73,50 74,479 75,779
76,1109 77,3329 78,479 79,729
80,50 81,20 82,10 83,30
84,329 85,40 86,40 87,109
88,119 89,419 90,559 91,1539
92,149 93,10 94,30 95,10
96,10 97,40 98,60 99,50
100,40 101,479 102,9999 103,4249
104,569 105,869 106,209 107,3139
108,259 109,20 111,10 112,40
113,20 114,20 115,589 116,379
117,129 118,509 119,119 120,70
121,30 122,99 123,10 124,10
125,20 126,20 127,50 128,139
129,1549 130,5449 131,4109 132,639
133,249 134,30 135,3309 136,349
137,30 138,10 141,20 142,10
143,50 144,30 145,109 146,679
147,1129 148,559 149,80 150,10
151,10 152,20 153,10 154,10
155,20 156,50 157,749 158,6009
159,1069 160,129 161,50 162,40
163,20 164,80 165,40 166,10
167,20 168,40 169,20 170,20
171,90 172,20 173,1129 174,2689
175,2189 176,569 177,90 178,50
179,70 180,70 181,20 183,10
184,1009 185,209 186,30 187,20
188,80 189,60 190,20 191,139
192,50 193,20 194,10 198,10
199,10 201,50 202,299 203,7019
204,2519 205,339 206,40 207,10
210,10 212,20 213,40 214,99
215,30 216,20 218,20 219,539
220,139 221,30 230,20 231,10
246,119 247,189 248,3829 249,609
250,99 251,10
##END=
