##TITLE=1,6-Heptadien-4-ol, 4-propyl-
##JCAMP-DX=4.24
##DATA TYPE=MASS SPECTRUM
##ORIGIN=NIST Mass Spectrometry Data Center, 1990.
##OWNER=NIST Mass Spectrometry Data Center
Collection (C) 2014 copyright by the U.S. Secretary of Commerce
on behalf of the United States of America. All rights reserved.
##CAS REGISTRY NO=52939-61-4
##$NIST MASS SPEC NO=114715
##MOLFORM=C10 H18 O
##MW=154
##$NIST SOURCE=MSDC
##XUNITS=M/Z
##YUNITS=RELATIVE INTENSITY
##XFACTOR=1
##YFACTOR=1
##FIRSTX=15
##LASTX=136
##FIRSTY=41
##MAXX=136
##MINX=15
##MAXY=9999
##MINY=1
##NPOINTS=49
##PEAK TABLE=(XY..XY)
15,41 27,673 28,56 29,392
31,99 32,1 39,1549 40,349
41,3094 42,520 43,5754 44,224
50,70 51,192 52,94 53,391
54,85 55,794 56,87 57,209
58,82 63,102 65,296 66,124
67,535 68,82 69,1704 70,82
71,9999 72,420 77,538 78,139
79,769 80,221 81,97 83,164
91,553 92,107 93,511 94,114
95,198 105,113 107,373 108,59
111,157 113,1159 114,96 121,81
136,156
##END=
