##TITLE=Butanoic acid, 2-ethyl-2-methyl-, methyl ester
##JCAMP-DX=4.24
##DATA TYPE=MASS SPECTRUM
##ORIGIN=D.HENNEBERG, MAX-PLANCK INSTITUTE, MULHEIM, WEST GERMANY
##OWNER=NIST Mass Spectrometry Data Center
Collection (C) 2014 copyright by the U.S. Secretary of Commerce
on behalf of the United States of America. All rights reserved.
##CAS REGISTRY NO=5296-70-8
##$NIST MASS SPEC NO=62424
##MOLFORM=C8 H16 O2
##MW=144
##$NIST SOURCE=MSDC
##XUNITS=M/Z
##YUNITS=RELATIVE INTENSITY
##XFACTOR=1
##YFACTOR=1
##FIRSTX=26
##LASTX=117
##FIRSTY=200
##MAXX=117
##MINX=26
##MAXY=9999
##MINY=40
##NPOINTS=41
##PEAK TABLE=(XY..XY)
26,200 27,2522 28,570 29,2452
30,100 31,100 39,1361 40,2362
41,2852 42,280 43,9999 44,340
45,180 50,100 51,280 52,70
53,630 54,170 55,1981 56,450
57,1471 58,40 59,2682 60,90
67,70 69,1511 70,100 73,310
74,110 83,260 84,1571 85,8598
86,550 87,120 97,60 101,700
103,58 113,170 115,390 116,2332
117,120
##END=
