##TITLE=N-Decanoylmorpholine
##JCAMP-DX=4.24
##DATA TYPE=MASS SPECTRUM
##ORIGIN=NIST Mass Spectrometry Data Center, 1994
##OWNER=NIST Mass Spectrometry Data Center
Collection (C) 2014 copyright by the U.S. Secretary of Commerce
on behalf of the United States of America. All rights reserved.
##CAS REGISTRY NO=5299-65-0
##$NIST MASS SPEC NO=135379
##MOLFORM=C14 H27 N O2
##MW=241
##$NIST SOURCE=MSDC
##XUNITS=M/Z
##YUNITS=RELATIVE INTENSITY
##XFACTOR=1
##YFACTOR=1
##FIRSTX=14
##LASTX=242
##FIRSTY=33
##MAXX=242
##MINX=14
##MAXY=9999
##MINY=21
##NPOINTS=89
##PEAK TABLE=(XY..XY)
14,33 15,374 16,25 17,35
18,67 19,25 27,1921 28,2131
29,3900 30,886 31,161 39,1031
41,5096 42,3068 43,4444 44,1099
45,364 51,54 53,304 54,402
55,3675 56,3474 57,6334 58,726
59,139 60,45 65,67 66,24
67,342 68,264 69,1267 70,2565
71,1127 72,927 73,95 77,30
79,97 80,30 81,288 82,76
83,358 84,263 85,982 86,5276
87,4712 88,2658 89,142 93,48
95,228 96,55 97,154 98,438
99,801 100,326 101,292 109,21
110,52 111,70 112,210 113,21
114,2745 115,177 116,44 124,53
125,36 126,111 129,9999 130,740
131,62 140,45 142,2926 143,387
144,40 154,37 155,98 156,456
157,92 168,26 170,161 171,64
184,321 185,68 198,258 199,40
212,117 213,22 226,27 241,396
242,93
##END=
