##TITLE=Flufenamic acid
##JCAMP-DX=4.24
##DATA TYPE=MASS SPECTRUM
##ORIGIN=NIST Mass Spectrometry Data Center, 1994
##OWNER=NIST Mass Spectrometry Data Center
Collection (C) 2014 copyright by the U.S. Secretary of Commerce
on behalf of the United States of America. All rights reserved.
##CAS REGISTRY NO=530-78-9
##$NIST MASS SPEC NO=133515
##MOLFORM=C14 H10 F3 N O2
##MW=281
##$NIST SOURCE=MSDC
##XUNITS=M/Z
##YUNITS=RELATIVE INTENSITY
##XFACTOR=1
##YFACTOR=1
##FIRSTX=4
##LASTX=283
##FIRSTY=5
##MAXX=283
##MINX=4
##MAXY=9999
##MINY=5
##NPOINTS=128
##PEAK TABLE=(XY..XY)
4,5 27,43 28,52 31,16
32,30 37,19 38,78 39,286
40,23 41,19 45,182 50,218
51,227 52,82 53,56 57,54
61,26 62,92 63,341 64,351
65,189 66,28 69,214 70,15
72,14 74,93 75,268 76,164
77,161 78,33 81,38 83,104
85,14 87,38 88,74 89,59
90,84 91,97 92,669 93,79
94,89 95,252 96,23 97,30
99,38 100,27 101,26 102,98
103,15 105,19 107,122 111,15
112,22 113,85 114,84 115,55
116,22 117,21 119,36 120,18
122,43 125,159 126,46 127,22
130,19 131,20 132,43 133,30
137,22 138,56 139,298 140,273
141,47 143,17 145,370 146,39
151,26 152,33 157,32 158,35
160,37 163,15 164,101 165,98
166,807 167,446 168,95 169,61
170,32 176,28 177,20 183,25
184,92 185,355 186,61 187,53
188,116 189,44 194,371 195,162
196,133 197,41 206,30 207,50
208,17 213,84 214,141 215,400
216,596 217,99 222,37 224,42
232,20 233,44 234,428 235,1439
236,391 237,59 243,758 244,180
245,22 261,40 263,9999 264,1618
265,141 281,5907 282,941 283,106
##END=
