##TITLE=Benzoic acid, 4-hydroxy-3,5-dimethoxy-
##JCAMP-DX=4.24
##DATA TYPE=MASS SPECTRUM
##ORIGIN=NIST Mass Spectrometry Data Center, 1998.
##OWNER=NIST Mass Spectrometry Data Center
Collection (C) 2014 copyright by the U.S. Secretary of Commerce
on behalf of the United States of America. All rights reserved.
##CAS REGISTRY NO=530-57-4
##$NIST MASS SPEC NO=291989
##MOLFORM=C9 H10 O5
##MW=198
##$NIST SOURCE=MSDC
##XUNITS=M/Z
##YUNITS=RELATIVE INTENSITY
##XFACTOR=1
##YFACTOR=1
##FIRSTX=14
##LASTX=201
##FIRSTY=10
##MAXX=201
##MINX=14
##MAXY=9999
##MINY=10
##NPOINTS=142
##PEAK TABLE=(XY..XY)
14,10 15,130 26,20 27,80
28,60 29,180 30,20 31,50
33,10 36,10 37,110 38,400
39,930 40,200 41,220 42,110
43,250 44,50 45,280 46,10
47,10 48,10 49,130 50,750
51,860 52,240 53,1130 54,120
55,430 56,50 57,40 58,10
59,70 60,20 61,110 62,200
63,190 64,60 65,890 66,600
67,930 68,210 69,540 70,40
71,250 72,10 73,10 74,40
75,40 76,30 77,410 78,320
79,720 80,110 81,700 82,170
83,100 84,660 85,110 86,10
87,10 89,40 90,30 91,60
92,40 93,730 94,100 95,380
96,130 97,490 98,60 99,100
100,10 101,10 102,10 105,30
106,40 107,150 108,270 109,1650
110,240 111,300 112,730 113,60
114,10 119,40 120,50 121,70
122,90 123,470 124,110 125,150
126,80 127,2420 128,160 129,20
133,10 134,10 135,210 136,110
137,570 138,170 139,140 140,330
141,100 142,10 147,20 149,30
150,50 151,200 152,280 153,460
154,130 155,490 156,40 157,10
162,10 163,10 164,20 165,110
166,20 167,20 168,140 169,50
170,10 171,20 173,10 177,20
178,60 179,260 180,50 181,680
182,120 183,2940 184,270 185,40
195,20 197,90 198,9999 199,1000
200,150 201,10
##END=
