##TITLE=Nonanoic acid, octyl ester
##JCAMP-DX=4.24
##DATA TYPE=MASS SPECTRUM
##ORIGIN=Insect Chem. Ecol. Lab., USDA, Beltsville, MD 20705
##OWNER=NIST Mass Spectrometry Data Center
Collection (C) 2014 copyright by the U.S. Secretary of Commerce
on behalf of the United States of America. All rights reserved.
##CAS REGISTRY NO=5303-26-4
##$NIST MASS SPEC NO=132169
##MOLFORM=C17 H34 O2
##MW=270
##$NIST SOURCE=MSDC
##XUNITS=M/Z
##YUNITS=RELATIVE INTENSITY
##XFACTOR=1
##YFACTOR=1
##FIRSTX=41
##LASTX=272
##FIRSTY=6081
##MAXX=272
##MINX=41
##MAXY=9999
##MINY=4
##NPOINTS=137
##PEAK TABLE=(XY..XY)
41,6081 42,2394 43,8052 44,419
45,12 47,11 49,38 50,6
51,47 53,377 54,330 55,5199
56,3297 57,5933 58,274 59,13
60,1395 61,3246 62,70 63,5
65,57 67,652 68,1038 69,2989
70,3918 71,3644 73,1597 74,162
75,27 77,34 78,13 79,114
80,13 81,458 82,1404 83,3752
84,3547 85,326 86,6 87,507
88,6 89,315 91,29 93,64
94,48 95,133 96,214 97,874
98,419 99,93 100,56 101,311
102,44 103,196 104,9 105,14
107,17 108,6 109,40 110,104
111,314 112,8359 113,870 115,819
116,316 117,85 118,7 121,65
122,46 123,97 124,13 125,66
126,21 127,254 129,745 130,59
131,316 132,18 136,5 137,6
138,75 139,167 140,64 141,2745
142,244 143,86 144,94 145,645
146,54 150,5 154,7 155,43
157,720 158,1204 159,9999 160,1051
161,91 162,4 167,5 169,17
171,23 172,110 173,261 174,26
183,17 184,12 185,165 186,27
187,48 196,19 197,5 198,6
199,107 200,44 201,29 209,16
213,35 214,141 215,22 227,65
228,15 229,7 241,53 242,17
243,66 244,12 253,6 254,33
255,171 256,27 257,35 267,6
268,61 269,848 270,1435 271,510
272,54
##END=
