##TITLE=Octadecanoic acid, dodecyl ester
##JCAMP-DX=4.24
##DATA TYPE=MASS SPECTRUM
##ORIGIN=R.T.HOLMAN,UNIVERSITY OF MINNESOTA
##OWNER=NIST Mass Spectrometry Data Center
Collection (C) 2014 copyright by the U.S. Secretary of Commerce
on behalf of the United States of America. All rights reserved.
##CAS REGISTRY NO=5303-25-3
##$NIST MASS SPEC NO=36371
##MOLFORM=C30 H60 O2
##MW=452
##$NIST SOURCE=MSDC
##XUNITS=M/Z
##YUNITS=RELATIVE INTENSITY
##XFACTOR=1
##YFACTOR=1
##FIRSTX=26
##LASTX=455
##FIRSTY=50
##MAXX=455
##MINX=26
##MAXY=9999
##MINY=10
##NPOINTS=308
##PEAK TABLE=(XY..XY)
26,50 27,320 28,1410 29,1160
30,50 31,40 32,130 33,20
39,220 40,70 41,2700 42,870
43,7190 44,340 45,100 46,10
47,30 50,30 51,30 52,10
53,120 54,440 55,4380 56,2320
57,8320 58,450 59,120 60,1090
61,2250 62,60 63,30 64,10
65,40 66,60 67,710 68,1160
69,3870 70,2350 71,4580 72,270
73,1870 74,180 75,200 76,30
77,110 78,30 79,140 80,70
81,630 82,2030 83,3900 84,2250
85,2900 86,210 87,410 88,50
89,60 91,50 92,30 93,210
94,70 95,610 96,1190 97,3540
98,1930 99,720 100,100 101,340
102,100 103,70 104,20 105,30
106,10 107,80 108,50 109,310
110,480 111,2320 112,1120 113,480
114,90 115,470 116,450 117,90
118,20 119,40 120,10 121,120
122,40 123,180 124,250 125,1350
126,630 127,270 128,40 129,1090
130,160 131,40 132,10 133,30
134,20 135,120 136,40 137,110
138,160 139,590 140,1740 141,290
142,30 143,210 144,50 145,30
146,10 147,30 148,10 149,120
150,30 151,50 152,50 153,180
154,60 155,90 156,30 157,120
158,40 159,30 160,10 161,20
162,10 163,70 164,20 165,50
166,110 167,150 168,6700 169,1290
170,100 171,200 172,70 173,30
174,10 175,10 176,10 177,50
178,30 179,50 180,60 181,100
182,50 183,60 184,10 185,470
186,100 187,30 188,10 189,10
190,10 191,40 192,10 193,30
194,30 195,60 196,40 197,30
198,10 199,200 200,50 201,30
202,10 203,10 204,10 205,40
206,10 207,20 208,20 209,50
210,30 211,30 212,10 213,720
214,120 215,30 216,10 217,30
218,40 219,120 220,40 221,20
222,90 223,50 224,60 225,40
226,10 227,130 228,160 229,630
230,100 231,20 232,10 233,10
234,10 235,10 236,10 237,20
238,20 239,10 240,10 241,740
242,140 243,30 244,10 245,10
246,10 247,70 248,50 249,30
250,10 251,20 252,10 253,10
254,10 255,140 256,40 257,10
258,10 259,10 260,10 261,10
262,10 263,10 264,150 265,140
266,90 267,1410 268,260 269,60
270,30 271,10 272,10 273,10
274,10 275,10 279,10 280,10
281,10 282,50 283,180 284,2640
285,9999 286,2120 287,230 288,20
289,10 290,10 295,10 296,10
297,90 298,30 299,10 300,10
301,10 302,10 309,20 310,10
311,30 312,10 313,10 314,10
315,10 316,10 320,10 321,10
322,20 323,10 324,10 325,40
326,20 327,10 328,10 329,10
330,10 339,20 340,130 341,40
342,10 343,10 352,20 353,30
354,30 355,10 356,10 380,10
381,10 382,10 383,10 384,10
409,30 410,10 411,10 423,10
424,10 425,10 426,10 451,40
452,2934 453,965 454,155 455,15
##END=
