##TITLE=Methyl 4-(methylthio)butyrate
##JCAMP-DX=4.24
##DATA TYPE=MASS SPECTRUM
##ORIGIN=Chuck Anderson, Aldrich Chemical Co.
##OWNER=NIST Mass Spectrometry Data Center
Collection (C) 2014 copyright by the U.S. Secretary of Commerce
on behalf of the United States of America. All rights reserved.
##CAS REGISTRY NO=53053-51-3
##$NIST MASS SPEC NO=107783
##MOLFORM=C6 H12 O2 S
##MW=148
##$NIST SOURCE=MSDC
##XUNITS=M/Z
##YUNITS=RELATIVE INTENSITY
##XFACTOR=1
##YFACTOR=1
##FIRSTX=14
##LASTX=151
##FIRSTY=111
##MAXX=151
##MINX=14
##MAXY=9999
##MINY=13
##NPOINTS=73
##PEAK TABLE=(XY..XY)
14,111 15,1850 16,55 18,45
20,13 26,166 27,1490 28,408
29,829 30,114 31,291 32,23
33,55 35,477 37,81 38,102
39,1033 40,170 41,2439 42,769
43,1454 44,138 45,1442 46,709
47,997 48,294 49,270 50,45
51,43 53,80 54,38 55,961
56,90 57,97 58,249 59,4855
60,312 61,4614 62,1718 63,300
64,114 68,136 69,1718 70,156
71,282 72,162 73,745 74,9999
75,5672 76,528 77,294 78,37
85,98 87,2439 88,414 89,949
90,87 91,90 99,80 100,108
101,2704 102,198 103,78 116,829
117,2800 118,219 119,149 133,55
145,36 148,4759 149,360 150,255
151,46
##END=
