##TITLE=Phenol, 5-chloro-2-methyl-
##JCAMP-DX=4.24
##DATA TYPE=MASS SPECTRUM
##ORIGIN=NIST Mass Spectrometry Data Center, 1994
##OWNER=NIST Mass Spectrometry Data Center
Collection (C) 2014 copyright by the U.S. Secretary of Commerce
on behalf of the United States of America. All rights reserved.
##CAS REGISTRY NO=5306-98-9
##$NIST MASS SPEC NO=134966
##MOLFORM=C7 H7 Cl O
##MW=142
##$NIST SOURCE=MSDC
##XUNITS=M/Z
##YUNITS=RELATIVE INTENSITY
##XFACTOR=1
##YFACTOR=1
##FIRSTX=14
##LASTX=145
##FIRSTY=51
##MAXX=145
##MINX=14
##MAXY=9999
##MINY=4
##NPOINTS=90
##PEAK TABLE=(XY..XY)
14,51 15,130 18,21 19,43
25,48 26,280 27,789 28,136
29,319 31,26 32,4 35,80
36,99 37,531 38,957 39,1410
40,96 41,43 42,56 43,213
44,136 47,53 48,51 49,298
50,1410 51,2412 52,789 53,1058
54,74 55,152 56,30 57,39
58,13 60,165 61,320 62,474
63,889 64,108 65,100 66,127
67,91 68,18 71,232 72,133
73,471 74,500 75,547 76,18
77,5320 78,1123 79,2072 80,148
81,57 84,58 85,128 86,120
87,237 88,57 89,1307 90,118
91,31 96,17 97,79 98,25
99,74 100,47 101,25 102,42
103,16 105,194 107,9999 108,754
109,51 110,14 111,66 112,121
113,297 114,79 115,141 116,18
124,438 125,190 126,162 127,37
139,35 141,1691 142,4812 143,942
144,1615 145,108
##END=
