##TITLE=1,4-Benzenediamine, 2-nitro-
##JCAMP-DX=4.24
##DATA TYPE=MASS SPECTRUM
##ORIGIN=NIST Mass Spectrometry Data Center, 1998.
##OWNER=NIST Mass Spectrometry Data Center
Collection (C) 2014 copyright by the U.S. Secretary of Commerce
on behalf of the United States of America. All rights reserved.
##CAS REGISTRY NO=5307-14-2
##$NIST MASS SPEC NO=291225
##MOLFORM=C6 H7 N3 O2
##MW=153
##$NIST SOURCE=MSDC
##XUNITS=M/Z
##YUNITS=RELATIVE INTENSITY
##XFACTOR=1
##YFACTOR=1
##FIRSTX=15
##LASTX=155
##FIRSTY=10
##MAXX=155
##MINX=15
##MAXY=9999
##MINY=10
##NPOINTS=91
##PEAK TABLE=(XY..XY)
15,10 16,10 25,10 26,60
27,170 28,450 29,80 30,450
31,10 36,10 37,100 38,220
39,470 40,350 41,460 42,300
43,120 44,40 45,10 46,70
48,10 49,60 50,310 51,1020
52,3900 53,3880 54,1190 55,180
56,20 57,10 60,10 61,130
62,320 63,1010 64,280 65,370
66,510 67,520 68,180 69,30
70,10 73,10 74,30 75,90
76,290 77,280 78,1170 79,2350
80,5939 81,490 82,60 83,10
86,10 87,10 88,40 89,100
90,860 91,210 92,470 93,110
94,160 95,1170 96,80 97,10
101,10 102,10 103,30 104,20
105,1400 106,1240 107,8789 108,700
109,70 110,10 117,10 118,40
119,1190 120,120 121,30 122,60
123,90 124,200 125,20 135,20
136,340 137,80 138,10 152,120
153,9999 154,810 155,60
##END=
