##TITLE=Cyclopentene,1-(2-methylpropyl)-
##JCAMP-DX=4.24
##DATA TYPE=MASS SPECTRUM
##ORIGIN=S.A. Rang et al., IR & MS of Unsatd. Hydrocarbons, 1977
##OWNER=NIST Mass Spectrometry Data Center
Collection (C) 2014 copyright by the U.S. Secretary of Commerce
on behalf of the United States of America. All rights reserved.
##CAS REGISTRY NO=53098-47-8
##$NIST MASS SPEC NO=142663
##MOLFORM=C9 H16
##MW=124
##$NIST SOURCE=MSDC
##XUNITS=M/Z
##YUNITS=RELATIVE INTENSITY
##XFACTOR=1
##YFACTOR=1
##FIRSTX=15
##LASTX=126
##FIRSTY=42
##MAXX=126
##MINX=15
##MAXY=9999
##MINY=2
##NPOINTS=83
##PEAK TABLE=(XY..XY)
15,42 26,52 27,1288 28,121
29,512 30,16 31,19 37,13
38,53 39,1409 40,281 41,2826
42,207 43,1973 44,40 45,30
46,11 50,76 51,305 52,244
53,1168 54,390 55,805 56,281
57,805 58,42 59,6 60,29
61,7 62,12 63,72 64,20
65,439 66,1006 67,9999 68,1449
69,256 70,52 71,8 73,34
74,9 75,21 76,10 77,647
78,167 79,1892 80,845 81,4783
82,2717 83,293 84,22 85,8
86,6 87,7 88,2 89,8
90,2 91,207 92,31 93,120
94,32 95,561 96,112 97,12
98,3 99,2 101,3 102,3
103,14 104,4 105,28 106,7
107,50 108,14 109,1490 110,144
111,8 121,4 122,10 123,76
124,2496 125,244 126,12
##END=
