##TITLE=Esculin
##JCAMP-DX=4.24
##DATA TYPE=MASS SPECTRUM
##ORIGIN=RADIAN CORP
##OWNER=NIST Mass Spectrometry Data Center
Collection (C) 2014 copyright by the U.S. Secretary of Commerce
on behalf of the United States of America. All rights reserved.
##CAS REGISTRY NO=531-75-9
##$NIST MASS SPEC NO=76477
##MOLFORM=C15 H16 O9
##MW=340
##$NIST SOURCE=MSDC
##XUNITS=M/Z
##YUNITS=RELATIVE INTENSITY
##XFACTOR=1
##YFACTOR=1
##FIRSTX=14
##LASTX=206
##FIRSTY=30
##MAXX=206
##MINX=14
##MAXY=9999
##MINY=10
##NPOINTS=103
##PEAK TABLE=(XY..XY)
14,30 15,70 19,110 26,80
27,220 28,110 29,910 30,100
31,570 37,130 38,260 39,470
40,130 41,190 42,800 43,190
44,610 45,250 46,40 47,260
48,30 49,170 50,970 51,1210
52,480 53,760 54,100 55,180
56,260 57,680 58,90 59,80
60,1880 61,590 62,280 63,340
64,180 65,520 66,730 68,40
69,1730 70,400 71,160 72,190
73,1330 74,520 75,750 76,1020
77,330 78,110 79,810 80,380
85,510 86,110 87,350 88,80
89,240 90,80 91,180 92,190
93,60 94,870 97,50 98,120
99,90 100,40 101,180 102,100
103,150 104,530 105,40 108,150
109,20 113,50 115,30 116,10
120,100 121,860 122,370 127,120
128,20 132,250 144,30 145,90
148,230 149,400 150,9200 151,810
162,50 163,10 164,50 177,440
178,9999 179,1280 180,150 181,20
189,110 190,20 191,30 192,170
193,20 204,20 206,10
##END=
