##TITLE=Coumarin-3-carboxylic acid
##JCAMP-DX=4.24
##DATA TYPE=MASS SPECTRUM
##ORIGIN=NIST Mass Spectrometry Data Center
##OWNER=NIST Mass Spectrometry Data Center
Collection (C) 2014 copyright by the U.S. Secretary of Commerce
on behalf of the United States of America. All rights reserved.
##CAS REGISTRY NO=531-81-7
##$NIST MASS SPEC NO=341147
##MOLFORM=C10 H6 O4
##MW=190
##$NIST SOURCE=MSDC
##XUNITS=M/Z
##YUNITS=RELATIVE INTENSITY
##XFACTOR=1
##YFACTOR=1
##FIRSTX=26
##LASTX=191
##FIRSTY=80
##MAXX=191
##MINX=26
##MAXY=9999
##MINY=50
##NPOINTS=70
##PEAK TABLE=(XY..XY)
26,80 27,190 29,360 37,190
38,360 39,1031 40,50 41,100
42,80 43,330 44,370 45,701
49,180 50,871 51,1131 52,310
53,841 54,460 55,100 58,110
59,170 60,80 61,651 62,1591
63,3443 64,761 65,190 66,130
67,130 68,110 69,140 73,130
74,480 75,480 76,160 77,721
78,661 79,150 84,90 85,190
86,360 87,380 88,510 89,4384
90,2783 91,290 92,300 93,90
95,90 97,190 98,120 101,520
105,290 106,90 116,701 117,200
118,7076 119,641 120,100 125,150
134,160 144,260 145,1401 146,9999
147,1021 148,100 162,230 173,370
190,3203 191,380
##END=
