##TITLE=Silane, ethyltrimethoxy-
##JCAMP-DX=4.24
##DATA TYPE=MASS SPECTRUM
##ORIGIN=RADIAN CORP
##OWNER=NIST Mass Spectrometry Data Center
Collection (C) 2014 copyright by the U.S. Secretary of Commerce
on behalf of the United States of America. All rights reserved.
##CAS REGISTRY NO=5314-55-6
##$NIST MASS SPEC NO=73334
##MOLFORM=C5 H14 O3 Si
##MW=150
##$NIST SOURCE=MSDC
##XUNITS=M/Z
##YUNITS=RELATIVE INTENSITY
##XFACTOR=1
##YFACTOR=1
##FIRSTX=15
##LASTX=123
##FIRSTY=160
##MAXX=123
##MINX=15
##MAXY=9999
##MINY=10
##NPOINTS=31
##PEAK TABLE=(XY..XY)
15,160 26,90 27,520 29,480
30,40 33,30 39,10 45,780
46,120 47,350 55,30 58,110
59,1890 60,450 61,1910 62,160
74,30 75,30 76,100 77,80
85,20 87,50 88,70 89,280
91,5770 92,420 93,90 119,550
121,9999 122,880 123,330
##END=
