##TITLE=Propanoic acid, nonyl ester
##JCAMP-DX=4.24
##DATA TYPE=MASS SPECTRUM
##ORIGIN=Insect Chem. Ecol. Lab., USDA, Beltsville, MD 20705
##OWNER=NIST Mass Spectrometry Data Center
Collection (C) 2014 copyright by the U.S. Secretary of Commerce
on behalf of the United States of America. All rights reserved.
##CAS REGISTRY NO=53184-67-1
##$NIST MASS SPEC NO=132249
##MOLFORM=C12 H24 O2
##MW=200
##$NIST SOURCE=MSDC
##XUNITS=M/Z
##YUNITS=RELATIVE INTENSITY
##XFACTOR=1
##YFACTOR=1
##FIRSTX=41
##LASTX=202
##FIRSTY=4357
##MAXX=202
##MINX=41
##MAXY=9999
##MINY=5
##NPOINTS=107
##PEAK TABLE=(XY..XY)
41,4357 42,1878 43,5653 44,239
45,102 47,85 48,27 53,317
54,513 55,4160 56,4762 57,9999
58,341 59,92 60,30 61,91
63,5 65,62 66,42 67,504
68,966 69,3426 70,3894 71,3049
72,332 73,65 74,367 75,5723
77,366 79,83 81,239 82,1050
83,2673 84,2676 85,1667 86,163
87,403 88,55 89,47 91,34
93,44 94,5 95,121 96,469
97,2488 98,2063 99,193 101,144
102,27 103,36 104,62 105,415
106,31 107,12 109,35 110,15
111,156 112,260 113,187 115,200
116,46 117,17 119,23 120,5
121,35 122,20 123,43 124,80
125,111 126,2346 127,1007 128,99
130,369 131,5 132,61 133,14
135,17 136,5 137,12 139,20
140,20 141,142 142,22 143,310
144,38 145,13 146,15 156,5
157,70 158,22 167,208 168,32
170,5 171,190 172,24 174,16
175,12 177,7 183,12 185,55
186,6 187,14 198,6 199,14
200,294 201,34 202,13
##END=
