##TITLE=1,3,4-Thiadiazol-2-amine, 5-(methylthio)-
##JCAMP-DX=4.24
##DATA TYPE=MASS SPECTRUM
##OWNER=NIST Mass Spectrometry Data Center
Collection (C) 2014 copyright by the U.S. Secretary of Commerce
on behalf of the United States of America. All rights reserved.
##CAS REGISTRY NO=5319-77-7
##$NIST MASS SPEC NO=4427
##MOLFORM=C3 H5 N3 S2
##MW=147
##$NIST SOURCE=MSDC
##XUNITS=M/Z
##YUNITS=RELATIVE INTENSITY
##XFACTOR=1
##YFACTOR=1
##FIRSTX=43
##LASTX=149
##FIRSTY=2002
##MAXX=149
##MINX=43
##MAXY=9999
##MINY=200
##NPOINTS=15
##PEAK TABLE=(XY..XY)
43,2002 45,1201 59,1001 60,2502
73,2803 75,1101 88,901 91,1902
92,200 114,6906 115,200 116,400
147,9999 148,400 149,801
##END=
