##TITLE=Hexylcaine
##JCAMP-DX=4.24
##DATA TYPE=MASS SPECTRUM
##ORIGIN=Drug Lab
##OWNER=NIST Mass Spectrometry Data Center
Collection (C) 2014 copyright by the U.S. Secretary of Commerce
on behalf of the United States of America. All rights reserved.
##CAS REGISTRY NO=532-77-4
##$NIST MASS SPEC NO=335338
##MOLFORM=C16 H23 N O2
##MW=261
##$NIST SOURCE=MSDC
##XUNITS=M/Z
##YUNITS=RELATIVE INTENSITY
##XFACTOR=1
##YFACTOR=1
##FIRSTX=40
##LASTX=219
##FIRSTY=40
##MAXX=219
##MINX=40
##MAXY=9999
##MINY=10
##NPOINTS=64
##PEAK TABLE=(XY..XY)
40,40 41,981 42,240 43,180
44,80 45,10 50,100 51,460
52,50 53,140 54,260 55,1361
56,1161 57,250 58,731 59,30
65,40 66,10 67,170 68,440
69,180 70,250 71,10 74,20
75,20 76,90 77,1952 78,170
79,210 80,60 81,190 82,310
83,831 84,110 85,10 91,20
93,10 94,70 96,1381 97,120
98,140 99,10 105,2352 106,200
107,10 108,20 109,30 110,340
112,9999 113,791 114,20 122,60
123,20 124,150 125,10 137,50
138,90 139,3303 140,360 141,10
163,210 164,20 218,300 219,40
##END=
