##TITLE=6-Methoxy-2-benzoxazolinone
##JCAMP-DX=4.24
##DATA TYPE=MASS SPECTRUM
##ORIGIN=NIST Mass Spectrometry Data Center, 1994
##OWNER=NIST Mass Spectrometry Data Center
Collection (C) 2014 copyright by the U.S. Secretary of Commerce
on behalf of the United States of America. All rights reserved.
##CAS REGISTRY NO=532-91-2
##$NIST MASS SPEC NO=136022
##MOLFORM=C8 H7 N O3
##MW=165
##$NIST SOURCE=MSDC
##XUNITS=M/Z
##YUNITS=RELATIVE INTENSITY
##XFACTOR=1
##YFACTOR=1
##FIRSTX=12
##LASTX=167
##FIRSTY=87
##MAXX=167
##MINX=12
##MAXY=9999
##MINY=11
##NPOINTS=66
##PEAK TABLE=(XY..XY)
12,87 14,24 15,1693 18,38
25,102 26,437 27,52 29,116
30,94 36,84 37,453 38,903
39,1897 40,369 41,401 42,225
43,11 44,161 49,294 50,1514
51,2729 52,2774 53,1160 54,209
55,74 61,326 62,430 63,628
64,301 65,442 66,1552 67,263
68,1066 69,1195 70,124 75,161
76,305 77,565 78,1283 79,1679
80,2469 81,246 82,153 91,108
92,103 93,530 94,812 95,497
96,86 106,4178 107,460 108,571
109,2150 110,203 122,1670 123,138
134,144 135,164 136,616 137,107
150,7066 151,544 152,85 165,9999
166,1040 167,134
##END=
