##TITLE=Methocarbamol
##JCAMP-DX=4.24
##DATA TYPE=MASS SPECTRUM
##ORIGIN=AAFS Toxicology Section MS DB Committee, U. Alberta, Canada
##OWNER=NIST Mass Spectrometry Data Center
Collection (C) 2014 copyright by the U.S. Secretary of Commerce
on behalf of the United States of America. All rights reserved.
##CAS REGISTRY NO=532-03-6
##$NIST MASS SPEC NO=246377
##MOLFORM=C11 H15 N O5
##MW=241
##$NIST SOURCE=MSDC
##XUNITS=M/Z
##YUNITS=RELATIVE INTENSITY
##XFACTOR=1
##YFACTOR=1
##FIRSTX=42
##LASTX=242
##FIRSTY=140
##MAXX=242
##MINX=42
##MAXY=9999
##MINY=40
##NPOINTS=82
##PEAK TABLE=(XY..XY)
42,140 43,630 44,1151 45,880
46,60 50,140 51,300 52,460
53,210 54,70 55,390 56,100
57,1631 58,140 59,60 60,280
61,840 62,1431 63,290 64,230
65,410 66,90 67,170 68,80
69,240 70,100 71,160 73,260
74,360 75,1030 76,120 77,1181
78,180 79,190 80,210 81,830
82,120 83,130 84,80 85,70
86,60 91,110 92,460 93,170
94,100 95,530 96,100 97,90
98,70 100,90 101,50 103,40
104,200 105,70 107,90 108,140
109,3493 110,350 111,80 115,40
116,40 118,9999 119,520 120,90
121,270 122,650 123,390 124,3032
125,280 126,80 129,50 131,40
137,180 138,100 149,230 166,40
167,350 168,40 230,80 231,60
241,610 242,90
##END=
