##TITLE=1-Propanol, 3-[(2-hydroxyethyl)thio]-
##JCAMP-DX=4.24
##DATA TYPE=MASS SPECTRUM
##ORIGIN=VERIFINN
##OWNER=NIST Mass Spectrometry Data Center
Collection (C) 2014 copyright by the U.S. Secretary of Commerce
on behalf of the United States of America. All rights reserved.
##CAS REGISTRY NO=5323-60-4
##$NIST MASS SPEC NO=289555
##MOLFORM=C5 H12 O2 S
##MW=136
##$NIST SOURCE=MSDC
##XUNITS=M/Z
##YUNITS=RELATIVE INTENSITY
##XFACTOR=1
##YFACTOR=1
##FIRSTX=27
##LASTX=136
##FIRSTY=1331
##MAXX=136
##MINX=27
##MAXY=9999
##MINY=70
##NPOINTS=35
##PEAK TABLE=(XY..XY)
27,1331 29,1401 31,3883 39,310
41,1101 43,540 45,2342 46,801
47,1431 48,440 49,330 57,1972
58,1932 59,1401 60,1231 61,9999
62,871 72,190 73,350 74,571
75,400 79,200 85,280 87,400
88,230 89,120 90,360 91,350
100,70 105,500 106,240 118,2022
119,130 120,100 136,641
##END=
