##TITLE=Benzene, 1,3,5-trichloro-2,4,6-trimethyl-
##JCAMP-DX=4.24
##DATA TYPE=MASS SPECTRUM
##ORIGIN=W. M. HARMS - E. J. EISENBRAUN
##OWNER=NIST Mass Spectrometry Data Center
Collection (C) 2014 copyright by the U.S. Secretary of Commerce
on behalf of the United States of America. All rights reserved.
##CAS REGISTRY NO=5324-68-5
##$NIST MASS SPEC NO=30968
##MOLFORM=C9 H9 Cl3
##MW=222
##$NIST SOURCE=MSDC
##XUNITS=M/Z
##YUNITS=RELATIVE INTENSITY
##XFACTOR=1
##YFACTOR=1
##FIRSTX=12
##LASTX=229
##FIRSTY=16
##MAXX=229
##MINX=12
##MAXY=9999
##MINY=16
##NPOINTS=176
##PEAK TABLE=(XY..XY)
12,16 13,47 14,184 15,763
16,117 25,24 26,258 27,880
28,1368 29,205 30,26 35,70
36,138 37,257 38,371 39,1431
40,196 41,402 42,87 43,345
44,59 47,28 48,111 49,342
50,845 51,1456 52,222 53,190
54,44 55,233 56,475 57,1755
58,270 59,24 60,111 61,445
62,648 63,1185 64,299 65,501
66,62 67,67 68,84 69,88
70,41 71,87 72,106 73,595
74,1197 75,1556 76,357 77,392
78,97 79,69 80,45 81,52
82,32 83,69 84,140 85,397
86,304 87,495 88,164 89,598
90,114 91,405 92,123 93,217
94,126 95,57 96,128 97,345
98,363 99,575 100,135 101,386
102,322 103,109 104,34 105,65
106,28 107,67 108,106 109,211
110,416 111,540 112,250 113,317
114,466 115,3697 116,1654 117,710
118,78 119,28 120,53 121,126
122,49 123,252 124,72 125,437
126,75 127,132 128,34 131,29
132,29 133,87 134,35 135,157
136,379 137,237 138,152 139,78
140,17 141,20 145,28 146,52
147,63 148,94 149,623 150,351
151,1919 152,598 153,659 154,167
155,50 157,63 158,72 159,211
160,88 161,134 162,44 163,41
165,65 166,29 167,249 168,55
169,20 170,77 171,83 172,117
173,117 174,61 175,58 176,20
177,22 178,18 179,18 181,22
183,49 184,35 185,215 186,351
187,9999 188,1214 189,6425 190,676
191,1046 192,111 193,29 195,20
207,495 208,67 209,392 210,41
211,126 212,18 213,24 221,543
222,6425 223,1132 224,6126 225,753
226,1966 227,208 228,214 229,24
##END=
