##TITLE=Phenanthrene, 1,2,3,4,5,6,7,8-octahydro-
##JCAMP-DX=4.24
##DATA TYPE=MASS SPECTRUM
##ORIGIN=Japan AIST/NIMC Database- Spectrum MS-NW- 87
##OWNER=NIST Mass Spectrometry Data Center
Collection (C) 2014 copyright by the U.S. Secretary of Commerce
on behalf of the United States of America. All rights reserved.
##CAS REGISTRY NO=5325-97-3
##$NIST MASS SPEC NO=229766
##MOLFORM=C14 H18
##MW=186
##$NIST SOURCE=MSDC
##XUNITS=M/Z
##YUNITS=RELATIVE INTENSITY
##XFACTOR=1
##YFACTOR=1
##FIRSTX=15
##LASTX=188
##FIRSTY=10
##MAXX=188
##MINX=15
##MAXY=9999
##MINY=10
##NPOINTS=127
##PEAK TABLE=(XY..XY)
15,10 27,209 28,29 29,149
38,20 39,419 40,40 41,349
42,10 43,30 50,80 51,329
52,90 53,199 54,40 55,189
56,10 57,50 58,10 62,60
63,289 64,149 65,269 66,50
67,219 68,30 69,40 70,109
71,119 72,20 73,10 74,50
75,109 76,279 77,529 78,229
79,219 80,50 81,169 82,99
83,70 84,40 85,10 86,20
87,60 88,70 89,259 90,50
91,689 92,90 93,50 94,50
95,99 96,199 97,239 98,10
99,10 101,30 102,139 103,149
104,279 105,239 106,30 107,10
109,10 113,20 114,30 115,1439
116,349 117,599 118,99 119,20
120,10 121,30 126,80 127,519
128,2009 129,2739 130,1479 131,559
132,70 135,30 136,10 137,10
139,149 140,50 141,1119 142,669
143,2879 144,1469 145,2839 146,329
147,20 149,10 150,30 151,99
152,309 153,329 154,189 155,299
156,209 157,1729 158,6509 159,859
160,50 163,10 164,20 165,349
166,90 167,80 168,30 169,129
170,60 171,399 172,60 177,10
178,69 179,49 180,79 181,19
182,50 183,80 184,299 185,1049
186,9999 187,1519 188,109
##END=
