##TITLE=Chloroacetic acid 3-methylbutyl ester
##JCAMP-DX=4.24
##DATA TYPE=MASS SPECTRUM
##ORIGIN=V.G.Zaikin,TIPS,Russian Acad.Sci.Moscow
##OWNER=NIST Mass Spectrometry Data Center
Collection (C) 2014 copyright by the U.S. Secretary of Commerce
on behalf of the United States of America. All rights reserved.
##CAS REGISTRY NO=5326-92-1
##$NIST MASS SPEC NO=279991
##MOLFORM=C7 H13 Cl O2
##MW=164
##$NIST SOURCE=MSDC
##XUNITS=M/Z
##YUNITS=RELATIVE INTENSITY
##XFACTOR=1
##YFACTOR=1
##FIRSTX=25
##LASTX=124
##FIRSTY=20
##MAXX=124
##MINX=25
##MAXY=9999
##MINY=10
##NPOINTS=61
##PEAK TABLE=(XY..XY)
25,20 26,510 27,3453 28,1501
29,4524 30,250 31,460 35,140
36,350 37,80 38,210 39,2362
40,390 41,5495 42,4474 43,9999
44,931 45,611 47,150 48,250
49,2963 50,1351 51,1251 52,571
53,390 54,250 55,8217 56,871
57,1882 58,150 59,130 60,130
63,20 65,20 67,20 68,10
69,811 70,8338 71,2532 72,210
73,170 76,140 77,3193 78,170
79,1311 80,30 83,60 85,50
87,30 94,350 95,751 96,140
97,240 107,170 108,410 109,120
110,120 121,430 122,170 123,150
124,20
##END=
