##TITLE=9H-Purin-2-amine, N-(trimethylsilyl)-6-[(trimethylsilyl)oxy]-9-[2,3,5-tris-O-(trimethylsilyl)-.beta.-D-ribofuranosyl]-
##JCAMP-DX=4.24
##DATA TYPE=MASS SPECTRUM
##ORIGIN=NIST Mass Spectrometry Data Center
##OWNER=NIST Mass Spectrometry Data Center
Collection (C) 2014 copyright by the U.S. Secretary of Commerce
on behalf of the United States of America. All rights reserved.
##CAS REGISTRY NO=53294-38-5
##$NIST MASS SPEC NO=332741
##MOLFORM=C25 H53 N5 O5 Si5
##MW=643
##$NIST SOURCE=MSDC
##XUNITS=M/Z
##YUNITS=RELATIVE INTENSITY
##XFACTOR=1
##YFACTOR=1
##FIRSTX=43
##LASTX=648
##FIRSTY=40
##MAXX=648
##MINX=43
##MAXY=9999
##MINY=10
##NPOINTS=315
##PEAK TABLE=(XY..XY)
43,40 45,320 46,20 53,20
54,10 55,70 56,10 57,20
58,40 59,170 61,40 66,10
67,10 68,10 69,90 70,30
71,30 73,9999 74,941 75,771
76,40 77,20 80,10 81,30
82,10 83,10 84,60 86,30
87,40 88,10 89,120 90,10
91,10 94,10 95,10 96,10
97,40 98,30 99,180 100,100
101,180 103,1802 104,180 105,80
106,10 107,10 109,10 111,60
112,20 113,90 114,20 115,540
116,140 117,400 118,50 119,60
120,10 121,10 122,10 123,10
124,20 125,30 126,40 127,50
128,30 129,500 130,110 131,330
132,90 133,380 134,90 135,40
136,20 137,10 138,40 139,20
140,30 141,110 142,60 143,230
144,60 145,100 146,180 147,2142
148,350 149,240 150,40 151,20
152,20 153,40 155,50 156,30
157,210 158,140 159,50 160,20
161,10 162,20 163,20 164,20
165,50 166,190 167,50 168,40
169,470 170,80 171,280 172,70
173,70 174,20 175,30 176,20
177,20 180,50 182,40 183,20
184,20 185,10 186,10 187,40
188,20 189,240 190,120 191,160
192,50 193,40 194,30 195,20
197,20 198,30 199,10 200,10
201,10 202,10 203,30 204,50
205,60 206,70 210,40 211,10
212,10 213,10 214,10 215,50
218,290 219,160 227,10 229,80
234,40 235,10 237,30 238,90
239,40 240,20 241,10 243,1021
244,280 245,3003 246,651 247,280
248,60 249,20 250,30 251,90
256,10 257,70 259,631 260,150
261,60 262,40 264,490 265,120
266,70 267,30 268,10 269,10
276,10 277,20 278,160 279,140
280,2542 281,611 282,260 283,40
284,10 290,10 291,20 292,60
293,50 294,550 295,731 296,971
297,250 298,80 299,10 304,20
305,10 306,60 307,20 308,140
309,40 310,20 311,10 314,10
317,10 318,20 319,40 320,90
321,50 324,5105 325,1311 326,520
327,90 328,20 331,20 332,10
333,40 334,30 335,30 336,50
346,10 347,10 348,150 349,50
352,430 353,140 354,90 355,20
356,10 364,10 365,10 366,150
367,180 368,1511 369,500 370,240
371,50 372,10 374,10 376,10
379,10 380,40 381,20 382,30
383,10 384,10 392,20 394,621
395,210 396,130 397,40 398,20
406,10 407,10 408,50 409,100
410,1031 411,370 412,170 413,40
414,10 420,10 422,180 423,70
424,40 425,200 426,80 427,40
428,10 434,10 435,10 436,10
437,10 438,10 439,10 440,10
442,10 448,20 449,10 450,20
451,10 452,10 463,10 464,30
465,10 480,10 482,80 483,40
484,20 485,10 510,10 512,10
524,10 525,10 538,30 539,20
540,50 541,20 542,10 552,10
553,20 554,20 555,10 628,781
629,430 630,250 631,90 632,30
633,10 643,1001 644,561 645,320
646,110 647,40 648,10
##END=
