##TITLE=5-Hexynoic acid
##JCAMP-DX=4.24
##DATA TYPE=MASS SPECTRUM
##ORIGIN=R.T.HOLMAN,UNIVERSITY OF MINNESOTA
##OWNER=NIST Mass Spectrometry Data Center
Collection (C) 2014 copyright by the U.S. Secretary of Commerce
on behalf of the United States of America. All rights reserved.
##CAS REGISTRY NO=53293-00-8
##$NIST MASS SPEC NO=36081
##MOLFORM=C6 H8 O2
##MW=112
##$NIST SOURCE=MSDC
##XUNITS=M/Z
##YUNITS=RELATIVE INTENSITY
##XFACTOR=1
##YFACTOR=1
##FIRSTX=25
##LASTX=112
##FIRSTY=100
##MAXX=112
##MINX=25
##MAXY=9999
##MINY=100
##NPOINTS=53
##PEAK TABLE=(XY..XY)
25,100 26,500 27,3000 28,900
29,1000 31,400 33,100 37,500
38,1100 39,5400 40,1500 41,3300
42,1900 43,1500 44,200 45,2200
49,100 50,600 51,800 52,800
53,3100 54,200 55,2100 56,600
57,400 58,100 60,4800 61,300
62,300 63,500 64,100 65,1200
66,2100 67,4500 68,500 69,800
70,9999 71,600 73,500 81,100
82,200 83,800 84,1800 85,200
93,100 94,1400 95,500 96,100
97,800 98,100 105,100 111,500
112,104
##END=
