##TITLE=Adenosine, 4TMS derivative
##JCAMP-DX=4.24
##DATA TYPE=MASS SPECTRUM
##ORIGIN=Mass Spectrometry Facility, University of the Pacific
##OWNER=NIST Mass Spectrometry Data Center
Collection (C) 2014 copyright by the U.S. Secretary of Commerce
on behalf of the United States of America. All rights reserved.
##CAS REGISTRY NO=53294-33-0
##$NIST MASS SPEC NO=367442
##MOLFORM=C22 H45 N5 O4 Si4
##MW=555
##$NIST SOURCE=MSDC
##XUNITS=M/Z
##YUNITS=RELATIVE INTENSITY
##XFACTOR=1
##YFACTOR=1
##FIRSTX=27
##LASTX=556
##FIRSTY=10
##MAXX=556
##MINX=27
##MAXY=9999
##MINY=10
##NPOINTS=261
##PEAK TABLE=(XY..XY)
27,10 29,10 39,10 41,20
42,10 43,80 44,30 45,490
46,30 47,40 53,30 54,30
55,110 56,20 57,30 58,80
59,260 60,30 61,40 66,10
67,20 68,20 69,100 70,30
71,30 72,160 73,9999 74,911
75,731 76,40 77,20 81,40
83,20 84,140 85,110 86,40
87,40 88,20 89,100 90,10
95,10 96,10 97,50 98,30
99,140 100,60 101,230 102,40
103,1762 104,170 105,80 106,10
108,20 109,40 110,20 111,160
112,20 113,110 114,20 115,460
116,210 117,360 118,40 119,80
120,10 121,10 122,10 123,30
124,20 125,30 126,30 127,70
128,20 129,581 130,90 131,250
132,60 133,510 134,70 135,90
136,40 137,40 138,70 139,20
140,20 141,80 142,70 143,250
144,80 145,120 146,20 147,2052
148,330 149,260 150,60 151,40
152,20 153,50 154,10 155,30
156,30 157,160 158,40 159,30
160,10 161,20 162,60 163,30
164,120 165,350 166,70 167,30
168,20 169,500 170,80 171,60
172,10 173,30 174,10 175,30
176,80 177,40 178,30 179,30
180,60 181,30 182,10 183,10
185,10 187,10 188,10 189,280
190,80 191,200 192,1842 193,280
194,80 195,10 201,10 203,30
204,90 205,70 206,480 207,380
208,1061 209,170 210,50 215,70
216,40 217,2522 218,540 219,290
220,110 221,40 222,20 223,10
229,70 230,4974 231,1131 232,490
233,80 234,60 235,40 236,5335
237,921 238,250 239,30 243,1081
244,250 245,2372 246,520 247,230
248,60 249,20 250,20 251,10
257,90 258,260 259,651 260,170
261,60 262,40 263,10 264,320
265,90 266,70 267,10 276,10
277,10 278,150 279,280 280,651
281,160 282,60 283,10 286,10
290,10 291,30 292,30 293,20
294,20 304,10 305,10 306,360
307,90 308,80 309,30 310,10
318,10 319,20 320,120 321,50
322,591 323,150 324,50 325,10
331,10 332,10 333,20 334,260
335,70 336,30 337,170 338,70
339,20 346,20 347,10 348,310
349,100 350,60 351,10 360,10
362,50 363,10 375,30 376,60
377,20 378,20 392,10 394,70
395,20 396,10 408,20 409,10
424,10 436,10 450,40 451,10
452,70 453,20 454,10 465,60
466,30 467,10 540,490 541,220
542,110 543,30 544,10 555,30
556,10
##END=
