##TITLE=5H-1-Pyrindine, 6,7-dihydro-
##JCAMP-DX=4.24
##DATA TYPE=MASS SPECTRUM
##ORIGIN=Japan AIST/NIMC Database- Spectrum MS-NW-8384
##OWNER=NIST Mass Spectrometry Data Center
Collection (C) 2014 copyright by the U.S. Secretary of Commerce
on behalf of the United States of America. All rights reserved.
##CAS REGISTRY NO=533-37-9
##$NIST MASS SPEC NO=229242
##MOLFORM=C8 H9 N
##MW=119
##$NIST SOURCE=MSDC
##XUNITS=M/Z
##YUNITS=RELATIVE INTENSITY
##XFACTOR=1
##YFACTOR=1
##FIRSTX=15
##LASTX=121
##FIRSTY=20
##MAXX=121
##MINX=15
##MAXY=9999
##MINY=10
##NPOINTS=59
##PEAK TABLE=(XY..XY)
15,20 26,90 27,289 28,179
29,10 37,109 38,309 39,1199
40,189 41,199 42,30 43,30
44,10 45,30 46,40 49,20
50,269 51,569 52,339 53,139
54,90 57,20 58,509 59,109
61,90 62,239 63,779 64,519
65,679 66,239 67,50 73,10
74,50 75,60 76,70 77,279
78,209 79,129 80,30 85,10
86,20 87,30 88,30 89,359
90,369 91,1619 92,389 93,249
94,10 102,10 103,10 104,199
105,40 116,109 117,1539 118,9999
119,7129 120,669 121,30
##END=
