##TITLE=Butane, 1,2-dibromo-
##JCAMP-DX=4.24
##DATA TYPE=MASS SPECTRUM
##ORIGIN=Japan AIST/NIMC Database- Spectrum MS-NW-4359
##OWNER=NIST Mass Spectrometry Data Center
Collection (C) 2014 copyright by the U.S. Secretary of Commerce
on behalf of the United States of America. All rights reserved.
##CAS REGISTRY NO=533-98-2
##$NIST MASS SPEC NO=227722
##MOLFORM=C4 H8 Br2
##MW=214
##$NIST SOURCE=MSDC
##XUNITS=M/Z
##YUNITS=RELATIVE INTENSITY
##XFACTOR=1
##YFACTOR=1
##FIRSTX=14
##LASTX=218
##FIRSTY=20
##MAXX=218
##MINX=14
##MAXY=9999
##MINY=10
##NPOINTS=68
##PEAK TABLE=(XY..XY)
14,20 15,80 25,40 26,409
27,2129 28,299 29,2609 30,60
36,20 37,109 38,219 39,1809
40,149 41,1439 42,60 49,70
50,219 51,269 52,99 53,779
54,159 55,9999 56,699 57,20
79,119 80,109 81,119 82,119
83,10 91,10 92,10 93,209
94,10 95,189 104,20 105,159
106,169 107,579 108,179 109,409
110,10 117,40 119,159 120,10
121,139 122,10 123,10 127,10
128,20 133,60 134,30 135,6719
136,339 137,6519 138,329 139,10
160,10 173,10 185,30 186,10
187,50 189,30 213,20 214,30
215,50 216,60 217,30 218,30
##END=
