##TITLE=2,4,6-Cycloheptatrien-1-one, 2-hydroxy-
##JCAMP-DX=4.24
##DATA TYPE=MASS SPECTRUM
##ORIGIN=CARL DJERASSI DEPT OF CHEM STANFORD UNIV STANFORD CALIF 94305
##OWNER=NIST Mass Spectrometry Data Center
Collection (C) 2014 copyright by the U.S. Secretary of Commerce
on behalf of the United States of America. All rights reserved.
##CAS REGISTRY NO=533-75-5
##$NIST MASS SPEC NO=51191
##MOLFORM=C7 H6 O2
##MW=122
##$NIST SOURCE=MSDC
##XUNITS=M/Z
##YUNITS=RELATIVE INTENSITY
##XFACTOR=1
##YFACTOR=1
##FIRSTX=49
##LASTX=124
##FIRSTY=100
##MAXX=124
##MINX=49
##MAXY=9999
##MINY=100
##NPOINTS=25
##PEAK TABLE=(XY..XY)
49,100 50,500 51,600 52,200
53,300 55,500 61,400 62,200
63,500 64,200 65,1200 66,1400
67,100 68,200 74,100 75,100
76,100 77,100 79,100 93,100
94,2200 95,200 122,9999 123,900
124,100
##END=
