##TITLE=2H-1,3,5-Thiadiazine-2-thione, tetrahydro-3,5-dimethyl-
##JCAMP-DX=4.24
##DATA TYPE=MASS SPECTRUM
##ORIGIN=NIST Mass Spectrometry Data Center, 1998.
##OWNER=NIST Mass Spectrometry Data Center
Collection (C) 2014 copyright by the U.S. Secretary of Commerce
on behalf of the United States of America. All rights reserved.
##CAS REGISTRY NO=533-74-4
##$NIST MASS SPEC NO=291859
##MOLFORM=C5 H10 N2 S2
##MW=162
##$NIST SOURCE=MSDC
##XUNITS=M/Z
##YUNITS=RELATIVE INTENSITY
##XFACTOR=1
##YFACTOR=1
##FIRSTX=12
##LASTX=166
##FIRSTY=20
##MAXX=166
##MINX=12
##MAXY=9999
##MINY=10
##NPOINTS=70
##PEAK TABLE=(XY..XY)
12,20 13,20 14,100 15,770
16,20 26,70 27,240 28,610
29,80 30,180 31,20 32,300
33,20 34,30 35,30 38,140
39,170 40,630 41,1120 42,9999
43,6829 44,6729 45,1570 46,750
47,160 48,30 52,30 54,80
55,80 57,2450 58,250 59,70
60,40 61,20 64,370 65,30
66,40 69,10 70,160 71,90
72,1330 73,1110 74,370 75,70
76,1200 77,240 78,150 79,20
81,30 83,30 86,30 87,40
89,7289 90,350 91,330 92,20
104,20 105,70 115,30 119,280
120,20 121,40 129,270 130,30
131,10 162,5679 163,460 164,520
165,20 166,10
##END=
