##TITLE=D-erythro-Pentose, 2-deoxy-
##JCAMP-DX=4.24
##DATA TYPE=MASS SPECTRUM
##ORIGIN=Japan AIST/NIMC Database- Spectrum MS-NW-3745
##OWNER=NIST Mass Spectrometry Data Center
Collection (C) 2014 copyright by the U.S. Secretary of Commerce
on behalf of the United States of America. All rights reserved.
##CAS REGISTRY NO=533-67-5
##$NIST MASS SPEC NO=228914
##MOLFORM=C5 H10 O4
##MW=134
##$NIST SOURCE=MSDC
##XUNITS=M/Z
##YUNITS=RELATIVE INTENSITY
##XFACTOR=1
##YFACTOR=1
##FIRSTX=12
##LASTX=134
##FIRSTY=20
##MAXX=134
##MINX=12
##MAXY=9999
##MINY=10
##NPOINTS=82
##PEAK TABLE=(XY..XY)
12,20 13,70 14,379 15,2039
16,80 17,129 18,639 19,449
24,10 25,50 26,419 27,2319
28,2319 29,4199 30,479 31,4319
32,269 33,109 36,10 37,80
38,139 39,819 40,479 41,1039
42,1839 43,5869 44,9999 45,5969
46,299 47,1009 48,10 49,40
50,50 51,60 52,30 53,169
54,50 55,1799 56,2779 57,7719
58,889 59,169 60,5119 61,1109
62,229 63,20 65,40 67,10
68,139 69,499 70,3209 71,449
72,119 73,3899 74,3329 75,899
76,40 77,20 81,60 82,20
84,30 85,1749 86,1369 87,199
88,249 89,30 90,70 91,30
97,99 98,149 99,239 100,10
102,20 103,2089 104,99 105,20
115,10 116,659 117,179 118,10
133,10 134,30
##END=
