##TITLE=3,4-Dichlorobenzaldoxime
##JCAMP-DX=4.24
##DATA TYPE=MASS SPECTRUM
##ORIGIN=NIST Mass Spectrometry Data Center, 1994
##OWNER=NIST Mass Spectrometry Data Center
Collection (C) 2014 copyright by the U.S. Secretary of Commerce
on behalf of the United States of America. All rights reserved.
##CAS REGISTRY NO=5331-92-0
##$NIST MASS SPEC NO=136759
##MOLFORM=C7 H5 Cl2 N O
##MW=189
##$NIST SOURCE=MSDC
##XUNITS=M/Z
##YUNITS=RELATIVE INTENSITY
##XFACTOR=1
##YFACTOR=1
##FIRSTX=12
##LASTX=194
##FIRSTY=56
##MAXX=194
##MINX=12
##MAXY=9999
##MINY=19
##NPOINTS=118
##PEAK TABLE=(XY..XY)
12,56 16,238 17,473 18,1123
25,173 30,461 35,729 36,767
37,2584 38,1653 39,786 40,87
44,855 47,617 48,404 49,1931
50,5297 51,1326 52,581 53,142
54,279 55,419 56,82 58,241
60,817 61,1748 62,2230 63,2905
64,624 67,249 68,404 69,19
71,231 72,1211 73,3564 74,4578
75,6097 76,1180 77,357 78,84
83,235 84,2233 85,1868 86,1988
87,1379 88,415 89,396 90,529
91,483 94,420 95,139 96,335
97,799 98,1216 99,3966 100,4371
101,1429 102,443 103,19 107,349
108,440 109,5368 110,1815 111,2758
112,614 113,326 118,709 119,259
120,96 121,92 122,94 123,1539
124,505 125,1007 126,3688 127,692
128,1175 129,35 133,466 134,642
135,869 136,3645 137,843 138,1182
139,209 144,360 145,4597 146,8084
147,3559 148,5166 149,826 150,846
153,158 154,925 155,71 156,308
157,29 160,25 161,62 162,4366
163,474 164,2864 165,166 166,459
171,9999 172,3312 173,7728 174,2233
175,2049 176,477 177,92 188,679
189,8823 190,1293 191,6107 192,590
193,950 194,24
##END=
