##TITLE=3-Chloropropionic acid, hexadecyl ester
##JCAMP-DX=4.24
##DATA TYPE=MASS SPECTRUM
##ORIGIN=V.Zaikin,Topchiev Inst.Petrochem.Synth.,Moscow
##OWNER=NIST Mass Spectrometry Data Center
Collection (C) 2014 copyright by the U.S. Secretary of Commerce
on behalf of the United States of America. All rights reserved.
##CAS REGISTRY NO=53312-70-2
##$NIST MASS SPEC NO=281777
##MOLFORM=C19 H37 Cl O2
##MW=332
##$NIST SOURCE=MSDC
##XUNITS=M/Z
##YUNITS=RELATIVE INTENSITY
##XFACTOR=1
##YFACTOR=1
##FIRSTX=27
##LASTX=298
##FIRSTY=2152
##MAXX=298
##MINX=27
##MAXY=9999
##MINY=20
##NPOINTS=110
##PEAK TABLE=(XY..XY)
27,2152 28,320 29,4014 30,120
31,130 35,30 36,170 37,60
38,150 39,1601 40,380 41,8998
42,2422 43,9969 44,390 45,170
49,40 50,50 51,150 52,90
53,591 54,1241 55,9999 56,3503
57,5505 58,240 60,40 61,40
62,40 63,2012 64,70 65,831
66,80 67,1131 68,1301 69,3413
70,1942 71,1501 72,70 73,971
74,80 76,30 77,80 78,40
79,80 80,80 81,561 82,1051
83,2883 84,1051 85,831 86,80
90,30 91,2342 92,90 93,901
94,50 95,250 96,460 97,1932
98,631 99,250 101,20 105,20
108,50 109,1752 110,340 111,1511
112,500 113,250 114,80 115,40
119,20 121,60 123,70 124,110
125,370 126,260 127,210 128,70
129,30 135,30 138,100 139,180
140,180 141,130 146,30 152,50
153,60 154,110 155,50 156,20
166,30 167,80 168,120 169,30
170,30 181,30 182,100 187,20
195,40 196,340 197,70 206,20
224,270 225,90 269,50 296,30
297,180 298,40
##END=
