##TITLE=4-Nitrophenylacetone
##JCAMP-DX=4.24
##DATA TYPE=MASS SPECTRUM
##ORIGIN=NIST Mass Spectrometry Data Center, 1994
##OWNER=NIST Mass Spectrometry Data Center
Collection (C) 2014 copyright by the U.S. Secretary of Commerce
on behalf of the United States of America. All rights reserved.
##CAS REGISTRY NO=5332-96-7
##$NIST MASS SPEC NO=136137
##MOLFORM=C9 H9 N O3
##MW=179
##$NIST SOURCE=MSDC
##XUNITS=M/Z
##YUNITS=RELATIVE INTENSITY
##XFACTOR=1
##YFACTOR=1
##FIRSTX=13
##LASTX=179
##FIRSTY=20
##MAXX=179
##MINX=13
##MAXY=9999
##MINY=7
##NPOINTS=68
##PEAK TABLE=(XY..XY)
13,20 14,149 15,822 16,19
17,12 18,16 26,67 27,135
28,43 29,12 30,840 37,63
38,241 39,698 40,138 41,48
42,43 43,9999 44,229 45,16
46,81 49,32 50,407 51,588
52,242 53,52 55,22 61,96
62,418 63,1162 64,399 65,170
66,24 73,21 74,109 75,115
76,90 77,330 78,512 79,110
80,14 85,30 86,96 87,84
88,14 89,1532 90,1549 91,294
92,25 102,31 103,60 104,25
105,40 106,179 107,1353 108,118
115,30 118,24 120,365 121,203
122,12 131,20 132,7 133,14
137,3747 138,289 139,25 179,26
##END=
