##TITLE=N-(Bromomethyl)phthalimide
##JCAMP-DX=4.24
##DATA TYPE=MASS SPECTRUM
##ORIGIN=Chuck Anderson, Aldrich Chemical Co.
##OWNER=NIST Mass Spectrometry Data Center
Collection (C) 2014 copyright by the U.S. Secretary of Commerce
on behalf of the United States of America. All rights reserved.
##CAS REGISTRY NO=5332-26-3
##$NIST MASS SPEC NO=118027
##MOLFORM=C9 H6 Br N O2
##MW=239
##$NIST SOURCE=MSDC
##XUNITS=M/Z
##YUNITS=RELATIVE INTENSITY
##XFACTOR=1
##YFACTOR=1
##FIRSTX=26
##LASTX=185
##FIRSTY=17
##MAXX=185
##MINX=26
##MAXY=9999
##MINY=1
##NPOINTS=68
##PEAK TABLE=(XY..XY)
26,17 27,34 28,70 29,12
36,30 37,229 38,437 39,94
40,11 41,1 43,8 44,9
48,10 49,165 50,1981 51,421
52,504 53,77 54,7 56,81
60,10 61,55 62,53 63,56
64,24 65,31 66,848 67,8
70,6 72,10 73,151 74,767
75,651 76,2267 77,999 78,90
79,81 80,38 81,77 82,5
85,11 86,12 87,7 88,2
89,16 90,13 92,3 93,2
101,11 102,102 104,2999 105,705
106,77 130,183 131,18 132,372
133,1071 134,99 135,5 155,7
157,7 159,7 160,9999 161,964
162,87 163,1 183,13 185,11
##END=
