##TITLE=5-Amino-4-cyano-1-phenylpyrazole
##JCAMP-DX=4.24
##DATA TYPE=MASS SPECTRUM
##ORIGIN=NIST Mass Spectrometry Data Center, 1994
##OWNER=NIST Mass Spectrometry Data Center
Collection (C) 2014 copyright by the U.S. Secretary of Commerce
on behalf of the United States of America. All rights reserved.
##CAS REGISTRY NO=5334-43-0
##$NIST MASS SPEC NO=136437
##MOLFORM=C10 H8 N4
##MW=184
##$NIST SOURCE=MSDC
##XUNITS=M/Z
##YUNITS=RELATIVE INTENSITY
##XFACTOR=1
##YFACTOR=1
##FIRSTX=17
##LASTX=186
##FIRSTY=50
##MAXX=186
##MINX=17
##MAXY=9999
##MINY=44
##NPOINTS=78
##PEAK TABLE=(XY..XY)
17,50 26,76 27,252 28,98
37,296 38,1083 39,1609 40,377
41,88 42,84 43,268 49,75
50,1257 51,4235 52,1587 53,473
54,135 61,125 62,308 63,823
64,1162 65,1152 66,809 67,236
73,55 74,204 75,293 76,501
77,4917 78,925 79,305 80,105
81,52 87,58 88,174 89,110
90,186 91,883 92,1003 93,222
94,153 101,98 102,342 103,979
104,948 105,299 106,44 107,62
108,46 114,186 115,293 116,85
117,47 118,264 119,827 120,81
128,140 129,629 130,364 131,297
132,56 133,80 140,64 141,76
142,327 143,105 144,98 155,461
156,1121 157,1250 158,1609 159,154
167,103 168,65 183,3119 184,9999
185,1243 186,85
##END=
