##TITLE=4-Amino-1-phenylpyrazolo(3,4-e)pyrimidine
##JCAMP-DX=4.24
##DATA TYPE=MASS SPECTRUM
##ORIGIN=NIST Mass Spectrometry Data Center, 1994
##OWNER=NIST Mass Spectrometry Data Center
Collection (C) 2014 copyright by the U.S. Secretary of Commerce
on behalf of the United States of America. All rights reserved.
##CAS REGISTRY NO=5334-30-5
##$NIST MASS SPEC NO=136431
##MOLFORM=C11 H9 N5
##MW=211
##$NIST SOURCE=MSDC
##XUNITS=M/Z
##YUNITS=RELATIVE INTENSITY
##XFACTOR=1
##YFACTOR=1
##FIRSTX=17
##LASTX=212
##FIRSTY=96
##MAXX=212
##MINX=17
##MAXY=9999
##MINY=75
##NPOINTS=35
##PEAK TABLE=(XY..XY)
17,96 38,370 39,579 40,85
50,455 51,1436 52,653 53,201
63,274 64,338 65,325 66,544
76,75 77,1839 78,357 91,356
92,135 103,245 104,396 115,88
118,95 119,84 129,476 142,188
155,109 156,891 157,937 158,118
183,1751 184,1262 185,80 195,541
210,1286 211,9999 212,1462
##END=
