##TITLE=Tisopurine
##JCAMP-DX=4.24
##DATA TYPE=MASS SPECTRUM
##ORIGIN=NIST Mass Spectrometry Data Center
##OWNER=NIST Mass Spectrometry Data Center
Collection (C) 2014 copyright by the U.S. Secretary of Commerce
on behalf of the United States of America. All rights reserved.
##CAS REGISTRY NO=5334-23-6
##$NIST MASS SPEC NO=342123
##MOLFORM=C5 H4 N4 S
##MW=152
##$NIST SOURCE=MSDC
##XUNITS=M/Z
##YUNITS=RELATIVE INTENSITY
##XFACTOR=1
##YFACTOR=1
##FIRSTX=16
##LASTX=155
##FIRSTY=10
##MAXX=155
##MINX=16
##MAXY=9999
##MINY=10
##NPOINTS=93
##PEAK TABLE=(XY..XY)
16,10 24,10 25,10 26,20
27,120 29,150 30,10 32,20
33,50 34,20 37,320 38,520
39,340 40,90 41,40 42,130
43,410 44,10 45,651 46,130
47,50 48,30 49,10 50,30
51,190 52,881 53,310 54,50
55,210 56,200 57,240 58,70
59,140 60,150 61,30 62,60
63,10 64,941 65,550 66,591
67,140 68,310 69,1331 70,1191
71,480 72,120 74,20 76,190
77,80 78,20 79,100 80,320
81,30 82,350 83,701 84,120
85,80 86,10 87,50 90,10
91,70 92,330 93,170 94,360
95,70 96,350 97,350 98,450
99,70 100,20 107,10 108,250
109,40 110,40 111,40 119,1541
120,160 123,20 124,320 125,1672
126,140 127,90 134,10 136,40
139,10 141,10 149,10 150,10
151,661 152,9999 153,791 154,530
155,30
##END=
