##TITLE=[1,1'-Biphenyl]-2-ol, 3,5-dichloro-
##JCAMP-DX=4.24
##DATA TYPE=MASS SPECTRUM
##ORIGIN=EP-1373
##OWNER=NIST Mass Spectrometry Data Center
Collection (C) 2014 copyright by the U.S. Secretary of Commerce
on behalf of the United States of America. All rights reserved.
##CAS REGISTRY NO=5335-24-0
##$NIST MASS SPEC NO=43797
##MOLFORM=C12 H8 Cl2 O
##MW=238
##$NIST SOURCE=MSDC
##XUNITS=M/Z
##YUNITS=RELATIVE INTENSITY
##XFACTOR=1
##YFACTOR=1
##FIRSTX=61
##LASTX=243
##FIRSTY=100
##MAXX=243
##MINX=61
##MAXY=9999
##MINY=80
##NPOINTS=41
##PEAK TABLE=(XY..XY)
61,100 62,300 63,400 107,90
109,90 110,100 111,130 112,90
113,350 114,210 115,150 137,250
138,400 139,3280 140,650 141,100
147,100 149,380 150,100 151,150
166,120 167,1080 168,120 170,337
183,120 185,90 186,80 201,100
202,1510 203,550 204,700 205,200
206,90 236,140 237,1110 238,9999
239,2030 240,6400 241,1000 242,1090
243,150
##END=
