##TITLE=Cyclopentane, (2-methyl-1-propenyl)-
##JCAMP-DX=4.24
##DATA TYPE=MASS SPECTRUM
##ORIGIN=D.HENNEBERG, MAX-PLANCK INSTITUTE, MULHEIM, WEST GERMANY
##OWNER=NIST Mass Spectrometry Data Center
Collection (C) 2014 copyright by the U.S. Secretary of Commerce
on behalf of the United States of America. All rights reserved.
##CAS REGISTRY NO=53366-57-7
##$NIST MASS SPEC NO=62499
##MOLFORM=C9 H16
##MW=124
##$NIST SOURCE=MSDC
##XUNITS=M/Z
##YUNITS=RELATIVE INTENSITY
##XFACTOR=1
##YFACTOR=1
##FIRSTX=26
##LASTX=125
##FIRSTY=200
##MAXX=125
##MINX=26
##MAXY=9999
##MINY=40
##NPOINTS=49
##PEAK TABLE=(XY..XY)
26,200 27,2900 29,1710 37,150
38,150 39,4000 40,720 41,8000
42,600 43,1100 44,100 50,270
51,700 52,400 53,2000 54,900
55,3200 56,1100 57,1710 62,100
63,160 64,70 65,600 66,1090
67,9999 68,3400 69,1200 70,150
77,900 78,180 79,1210 80,800
81,5800 82,2500 83,3400 84,40
91,300 92,100 93,280 94,100
95,3100 96,500 97,100 107,100
108,60 109,4510 110,450 124,2400
125,300
##END=
