##TITLE=Cyclopentane, (2-methylbutyl)-
##JCAMP-DX=4.24
##DATA TYPE=MASS SPECTRUM
##ORIGIN=D.HENNEBERG, MAX-PLANCK INSTITUTE, MULHEIM, WEST GERMANY
##OWNER=NIST Mass Spectrometry Data Center
Collection (C) 2014 copyright by the U.S. Secretary of Commerce
on behalf of the United States of America. All rights reserved.
##CAS REGISTRY NO=53366-38-4
##$NIST MASS SPEC NO=61037
##MOLFORM=C10 H20
##MW=140
##$NIST SOURCE=MSDC
##XUNITS=M/Z
##YUNITS=RELATIVE INTENSITY
##XFACTOR=1
##YFACTOR=1
##FIRSTX=27
##LASTX=140
##FIRSTY=1500
##MAXX=140
##MINX=27
##MAXY=9999
##MINY=20
##NPOINTS=33
##PEAK TABLE=(XY..XY)
27,1500 28,700 29,3000 39,1500
40,300 41,7000 42,1040 43,2220
44,200 53,500 54,500 55,7000
56,4200 57,3300 58,120 66,210
67,1900 68,2200 69,9999 70,3800
71,1200 72,20 81,200 82,2100
83,4000 84,600 97,200 98,100
110,400 111,4400 112,400 125,100
140,200
##END=
