##TITLE=Benzenemethanamine, N-nitroso-N-(phenylmethyl)-
##JCAMP-DX=4.24
##DATA TYPE=MASS SPECTRUM
##ORIGIN=W.T.RAINEY OAK RIDGE NATIONAL LABORATORY,OAK RIDGE,TN.USA
##OWNER=NIST Mass Spectrometry Data Center
Collection (C) 2014 copyright by the U.S. Secretary of Commerce
on behalf of the United States of America. All rights reserved.
##CAS REGISTRY NO=5336-53-8
##$NIST MASS SPEC NO=25590
##MOLFORM=C14 H14 N2 O
##MW=226
##$NIST SOURCE=MSDC
##XUNITS=M/Z
##YUNITS=RELATIVE INTENSITY
##XFACTOR=1
##YFACTOR=1
##FIRSTX=30
##LASTX=227
##FIRSTY=242
##MAXX=227
##MINX=30
##MAXY=9999
##MINY=60
##NPOINTS=43
##PEAK TABLE=(XY..XY)
30,242 31,60 32,60 38,60
39,606 40,60 41,242 42,60
50,242 51,545 52,181 63,303
64,121 65,1393 66,60 74,60
75,60 76,60 77,363 78,181
79,121 89,303 90,484 91,9999
92,909 93,60 103,60 104,181
105,121 106,60 107,60 117,60
118,121 119,60 128,121 165,121
181,303 182,121 194,60 196,60
197,60 226,1090 227,181
##END=
