##TITLE=Cyclopentane, (2-methylbutylidene)-
##JCAMP-DX=4.24
##DATA TYPE=MASS SPECTRUM
##ORIGIN=D.HENNEBERG, MAX-PLANCK INSTITUTE, MULHEIM, WEST GERMANY
##OWNER=NIST Mass Spectrometry Data Center
Collection (C) 2014 copyright by the U.S. Secretary of Commerce
on behalf of the United States of America. All rights reserved.
##CAS REGISTRY NO=53366-54-4
##$NIST MASS SPEC NO=61015
##MOLFORM=C10 H18
##MW=138
##$NIST SOURCE=MSDC
##XUNITS=M/Z
##YUNITS=RELATIVE INTENSITY
##XFACTOR=1
##YFACTOR=1
##FIRSTX=27
##LASTX=139
##FIRSTY=1200
##MAXX=139
##MINX=27
##MAXY=9999
##MINY=200
##NPOINTS=39
##PEAK TABLE=(XY..XY)
27,1200 28,834 29,1300 39,1500
40,300 41,3100 42,300 43,1000
44,200 51,300 52,200 53,800
54,200 55,3500 56,300 57,420
65,400 66,280 67,7500 68,800
69,600 70,300 71,210 77,700
78,200 79,1100 80,500 81,2100
82,410 91,300 93,200 95,200
107,200 108,200 109,9999 110,1010
123,400 138,1500 139,200
##END=
