##TITLE=Cyclopentane, pentylidene-
##JCAMP-DX=4.24
##DATA TYPE=MASS SPECTRUM
##ORIGIN=D.HENNEBERG, MAX-PLANCK INSTITUTE, MULHEIM, WEST GERMANY
##OWNER=NIST Mass Spectrometry Data Center
Collection (C) 2014 copyright by the U.S. Secretary of Commerce
on behalf of the United States of America. All rights reserved.
##CAS REGISTRY NO=53366-55-5
##$NIST MASS SPEC NO=61016
##MOLFORM=C10 H18
##MW=138
##$NIST SOURCE=MSDC
##XUNITS=M/Z
##YUNITS=RELATIVE INTENSITY
##XFACTOR=1
##YFACTOR=1
##FIRSTX=27
##LASTX=139
##FIRSTY=1600
##MAXX=139
##MINX=27
##MAXY=9999
##MINY=100
##NPOINTS=39
##PEAK TABLE=(XY..XY)
27,1600 29,900 39,1600 40,300
41,4200 42,340 43,500 44,100
50,100 51,300 52,200 53,1100
54,800 55,2200 56,200 57,100
65,400 66,800 67,9820 68,2100
69,700 70,300 77,600 78,100
79,1000 80,310 81,2200 82,3700
83,800 91,300 93,500 94,400
95,9999 96,1500 97,300 109,500
110,200 138,2000 139,210
##END=
