##TITLE=N,N,2,2-Tetramethyl-1,3-propanediamine
##JCAMP-DX=4.24
##DATA TYPE=MASS SPECTRUM
##ORIGIN=Japan AIST/NIMC Database- Spectrum MS-IW- 974
##OWNER=NIST Mass Spectrometry Data Center
Collection (C) 2014 copyright by the U.S. Secretary of Commerce
on behalf of the United States of America. All rights reserved.
##CAS REGISTRY NO=53369-71-4
##$NIST MASS SPEC NO=238640
##MOLFORM=C7 H18 N2
##MW=130
##$NIST SOURCE=MSDC
##XUNITS=M/Z
##YUNITS=RELATIVE INTENSITY
##XFACTOR=1
##YFACTOR=1
##FIRSTX=15
##LASTX=131
##FIRSTY=50
##MAXX=131
##MINX=15
##MAXY=9999
##MINY=10
##NPOINTS=42
##PEAK TABLE=(XY..XY)
15,50 27,50 28,129 29,109
30,619 31,10 39,50 40,10
41,119 42,339 43,109 44,359
45,139 46,209 53,10 54,10
55,90 56,129 57,99 58,9999
59,449 60,30 68,20 69,10
70,209 71,80 72,20 73,20
74,10 82,10 84,70 85,339
86,119 98,50 99,20 100,70
113,149 114,10 126,10 127,10
130,299 131,30
##END=
