##TITLE=Cyclopentene, 1-(2-methylbutyl)-
##JCAMP-DX=4.24
##DATA TYPE=MASS SPECTRUM
##ORIGIN=D.HENNEBERG, MAX-PLANCK INSTITUTE, MULHEIM, WEST GERMANY
##OWNER=NIST Mass Spectrometry Data Center
Collection (C) 2014 copyright by the U.S. Secretary of Commerce
on behalf of the United States of America. All rights reserved.
##CAS REGISTRY NO=53366-53-3
##$NIST MASS SPEC NO=61017
##MOLFORM=C10 H18
##MW=138
##$NIST SOURCE=MSDC
##XUNITS=M/Z
##YUNITS=RELATIVE INTENSITY
##XFACTOR=1
##YFACTOR=1
##FIRSTX=27
##LASTX=138
##FIRSTY=1200
##MAXX=138
##MINX=27
##MAXY=9999
##MINY=100
##NPOINTS=30
##PEAK TABLE=(XY..XY)
27,1200 28,900 29,2800 39,1400
40,210 41,3900 42,300 43,500
51,200 52,100 53,900 54,400
55,1100 56,1200 57,3100 65,300
66,500 67,9999 68,800 69,100
70,300 71,300 77,500 79,1100
80,700 81,2900 82,5200 83,2300
109,1100 138,1500
##END=
