##TITLE=4'-Methylpropiophenone
##JCAMP-DX=4.24
##DATA TYPE=MASS SPECTRUM
##ORIGIN=NIST Mass Spectrometry Data Center
##OWNER=NIST Mass Spectrometry Data Center
Collection (C) 2014 copyright by the U.S. Secretary of Commerce
on behalf of the United States of America. All rights reserved.
##CAS REGISTRY NO=5337-93-9
##$NIST MASS SPEC NO=342506
##MOLFORM=C10 H12 O
##MW=148
##$NIST SOURCE=MSDC
##XUNITS=M/Z
##YUNITS=RELATIVE INTENSITY
##XFACTOR=1
##YFACTOR=1
##FIRSTX=13
##LASTX=150
##FIRSTY=20
##MAXX=150
##MINX=13
##MAXY=9999
##MINY=10
##NPOINTS=63
##PEAK TABLE=(XY..XY)
13,20 14,50 15,110 16,10
26,340 27,1351 28,260 29,731
30,30 37,110 38,360 39,1872
40,170 41,380 42,40 44,20
50,571 51,841 52,200 53,140
55,160 56,20 57,140 58,10
59,10 60,10 61,150 62,480
63,1291 64,490 65,3183 66,200
67,10 72,10 74,60 75,110
76,90 77,240 78,60 79,40
85,40 86,80 87,80 89,911
91,5825 92,490 93,30 101,10
102,30 103,80 104,30 105,40
115,70 116,30 119,9999 120,891
121,60 128,10 131,30 133,50
148,901 149,100 150,10
##END=
