##TITLE=3-(4-Pyridyl)acrylic acid
##JCAMP-DX=4.24
##DATA TYPE=MASS SPECTRUM
##ORIGIN=NIST Mass Spectrometry Data Center
##OWNER=NIST Mass Spectrometry Data Center
Collection (C) 2014 copyright by the U.S. Secretary of Commerce
on behalf of the United States of America. All rights reserved.
##CAS REGISTRY NO=5337-79-1
##$NIST MASS SPEC NO=342907
##MOLFORM=C8 H7 N O2
##MW=149
##$NIST SOURCE=MSDC
##XUNITS=M/Z
##YUNITS=RELATIVE INTENSITY
##XFACTOR=1
##YFACTOR=1
##FIRSTX=10
##LASTX=151
##FIRSTY=10
##MAXX=151
##MINX=10
##MAXY=9999
##MINY=10
##NPOINTS=79
##PEAK TABLE=(XY..XY)
10,10 12,10 13,20 15,130
17,240 18,40 19,10 25,50
26,861 27,651 29,400 34,10
37,490 38,801 39,1201 40,430
41,230 42,70 43,70 44,140
46,60 47,20 48,10 49,540
50,4034 51,6536 52,1551 53,601
54,300 55,210 60,10 61,330
62,470 63,801 64,290 65,951
66,1181 67,611 68,230 71,300
73,270 74,931 75,1031 76,1772
77,2823 78,2702 79,821 80,310
81,20 82,10 91,10 92,1121
93,1431 94,671 95,500 96,60
99,30 102,370 103,1501 104,2552
105,621 106,250 107,100 108,10
109,10 119,10 120,2112 121,561
122,50 130,30 131,1461 132,2312
133,240 135,160 136,20 148,6246
149,9999 150,981 151,60
##END=
