##TITLE=2-Hexenoic acid, 3-hexenyl ester, (E,Z)-
##JCAMP-DX=4.24
##DATA TYPE=MASS SPECTRUM
##OWNER=NIST Mass Spectrometry Data Center
Collection (C) 2014 copyright by the U.S. Secretary of Commerce
on behalf of the United States of America. All rights reserved.
##CAS REGISTRY NO=53398-87-1
##$NIST MASS SPEC NO=8636
##MOLFORM=C12 H20 O2
##MW=196
##$NIST SOURCE=MSDC
##XUNITS=M/Z
##YUNITS=RELATIVE INTENSITY
##XFACTOR=1
##YFACTOR=1
##FIRSTX=26
##LASTX=115
##FIRSTY=120
##MAXX=115
##MINX=26
##MAXY=9999
##MINY=120
##NPOINTS=24
##PEAK TABLE=(XY..XY)
26,120 27,731 29,691 39,891
40,260 41,2542 42,340 43,260
44,220 52,500 53,470 54,4824
55,260 56,190 67,6836 68,781
69,571 73,240 79,180 81,500
82,9999 83,721 97,4094 115,701
##END=
