##TITLE=Furan, 2-methyl-
##JCAMP-DX=4.24
##DATA TYPE=MASS SPECTRUM
##ORIGIN=Japan AIST/NIMC Database- Spectrum MS-NW- 692
##OWNER=NIST Mass Spectrometry Data Center
Collection (C) 2014 copyright by the U.S. Secretary of Commerce
on behalf of the United States of America. All rights reserved.
##CAS REGISTRY NO=534-22-5
##$NIST MASS SPEC NO=229471
##MOLFORM=C5 H6 O
##MW=82
##$NIST SOURCE=MSDC
##XUNITS=M/Z
##YUNITS=RELATIVE INTENSITY
##XFACTOR=1
##YFACTOR=1
##FIRSTX=12
##LASTX=84
##FIRSTY=20
##MAXX=84
##MINX=12
##MAXY=9999
##MINY=10
##NPOINTS=46
##PEAK TABLE=(XY..XY)
12,20 13,40 14,90 15,269
17,10 18,70 25,80 26,519
27,2319 28,909 29,299 31,40
32,40 36,50 37,319 38,479
39,3799 40,139 41,189 42,50
43,409 44,10 48,30 49,199
50,929 51,1079 52,609 53,6159
54,1359 55,219 60,10 61,30
62,20 63,60 64,20 65,10
66,10 71,10 72,10 77,10
79,20 80,99 81,5829 82,9999
83,569 84,10
##END=
