##TITLE=Thiourea, N,N'-dimethyl-
##JCAMP-DX=4.24
##DATA TYPE=MASS SPECTRUM
##ORIGIN=NIST Mass Spectrometry Data Center, 2011
##OWNER=NIST Mass Spectrometry Data Center
Collection (C) 2014 copyright by the U.S. Secretary of Commerce
on behalf of the United States of America. All rights reserved.
##CAS REGISTRY NO=534-13-4
##$NIST MASS SPEC NO=385691
##MOLFORM=C3 H8 N2 S
##MW=104
##$NIST SOURCE=MSDC
##XUNITS=M/Z
##YUNITS=RELATIVE INTENSITY
##XFACTOR=1
##YFACTOR=1
##FIRSTX=15
##LASTX=107
##FIRSTY=170
##MAXX=107
##MINX=15
##MAXY=9999
##MINY=10
##NPOINTS=48
##PEAK TABLE=(XY..XY)
15,170 27,80 28,891 29,150
30,2552 31,170 32,180 33,50
34,20 38,50 39,50 40,150
41,180 42,1281 43,80 44,520
45,601 46,200 47,681 48,40
49,30 51,70 52,20 53,80
55,390 56,110 57,1311 58,80
59,691 60,1531 61,100 62,340
63,10 64,10 67,10 70,190
71,2242 72,621 73,470 74,4034
75,440 76,220 87,10 89,20
104,9999 105,480 106,470 107,10
##END=
