##TITLE=Ethane, 1,1-dimethoxy-
##JCAMP-DX=4.24
##DATA TYPE=MASS SPECTRUM
##ORIGIN=Japan AIST/NIMC Database- Spectrum MS-NW-4369
##OWNER=NIST Mass Spectrometry Data Center
Collection (C) 2014 copyright by the U.S. Secretary of Commerce
on behalf of the United States of America. All rights reserved.
##CAS REGISTRY NO=534-15-6
##$NIST MASS SPEC NO=228234
##MOLFORM=C4 H10 O2
##MW=90
##$NIST SOURCE=MSDC
##XUNITS=M/Z
##YUNITS=RELATIVE INTENSITY
##XFACTOR=1
##YFACTOR=1
##FIRSTX=13
##LASTX=90
##FIRSTY=10
##MAXX=90
##MINX=13
##MAXY=9999
##MINY=10
##NPOINTS=37
##PEAK TABLE=(XY..XY)
13,10 14,109 15,809 16,20
17,30 18,119 25,10 26,139
27,419 28,269 29,1579 30,109
31,2219 32,129 33,119 39,20
41,129 42,199 43,1969 44,99
45,189 47,899 48,20 57,70
58,379 59,9999 60,359 61,30
62,10 73,10 74,70 75,3469
76,129 77,20 87,10 89,199
90,10
##END=
