##TITLE=2,2-Dimethyl-3-octanone
##JCAMP-DX=4.24
##DATA TYPE=MASS SPECTRUM
##ORIGIN=NIST Mass Spectrometry Data Center, 1990.
##OWNER=NIST Mass Spectrometry Data Center
Collection (C) 2014 copyright by the U.S. Secretary of Commerce
on behalf of the United States of America. All rights reserved.
##CAS REGISTRY NO=5340-64-7
##$NIST MASS SPEC NO=113811
##MOLFORM=C10 H20 O
##MW=156
##$NIST SOURCE=MSDC
##XUNITS=M/Z
##YUNITS=RELATIVE INTENSITY
##XFACTOR=1
##YFACTOR=1
##FIRSTX=15
##LASTX=156
##FIRSTY=150
##MAXX=156
##MINX=15
##MAXY=9999
##MINY=125
##NPOINTS=26
##PEAK TABLE=(XY..XY)
15,150 26,148 27,1741 28,1120
29,3343 39,1869 41,5674 42,1511
43,6749 44,275 53,258 55,1041
56,1099 57,9999 58,456 67,139
69,245 71,5331 72,331 81,144
83,125 85,773 98,1093 99,7834
100,736 156,244
##END=
