##TITLE=3-Octanol, 3-methyl-
##JCAMP-DX=4.24
##DATA TYPE=MASS SPECTRUM
##OWNER=NIST Mass Spectrometry Data Center
Collection (C) 2014 copyright by the U.S. Secretary of Commerce
on behalf of the United States of America. All rights reserved.
##CAS REGISTRY NO=5340-36-3
##$NIST MASS SPEC NO=4019
##MOLFORM=C9 H20 O
##MW=144
##$NIST SOURCE=MSDC
##XUNITS=M/Z
##YUNITS=RELATIVE INTENSITY
##XFACTOR=1
##YFACTOR=1
##FIRSTX=12
##LASTX=143
##FIRSTY=10
##MAXX=143
##MINX=12
##MAXY=9999
##MINY=10
##NPOINTS=98
##PEAK TABLE=(XY..XY)
12,10 13,10 14,30 15,350
16,30 18,120 19,40 24,10
25,30 26,240 27,2532 28,460
29,2823 30,70 31,510 32,20
33,10 36,10 37,30 38,60
39,1031 40,180 41,2192 42,470
43,3123 44,120 45,1591 46,40
47,10 48,10 49,20 50,40
51,90 52,40 53,280 54,110
55,4124 56,390 57,1061 58,540
59,771 60,30 61,10 62,10
63,20 64,10 65,40 66,20
67,120 68,50 69,901 70,961
71,761 72,260 73,9999 74,450
75,30 77,30 78,10 79,20
80,10 81,40 82,60 83,290
84,60 85,130 86,20 87,30
88,10 89,10 91,20 92,10
93,10 95,20 96,20 97,581
98,70 99,20 100,10 101,20
102,10 109,10 111,20 112,10
113,20 115,2873 116,220 117,10
124,10 126,210 127,40 128,10
129,941 130,80 131,10 140,10
142,10 143,10
##END=
