##TITLE=Benzenamine, 3-nitro-N-(phenylmethylene)-
##JCAMP-DX=4.24
##DATA TYPE=MASS SPECTRUM
##ORIGIN=J.E. WILKINSON S-CUBED, SAN DIEGO, CA.
##OWNER=NIST Mass Spectrometry Data Center
Collection (C) 2014 copyright by the U.S. Secretary of Commerce
on behalf of the United States of America. All rights reserved.
##CAS REGISTRY NO=5341-44-6
##$NIST MASS SPEC NO=90822
##MOLFORM=C13 H10 N2 O2
##MW=226
##$NIST SOURCE=MSDC
##XUNITS=M/Z
##YUNITS=RELATIVE INTENSITY
##XFACTOR=1
##YFACTOR=1
##FIRSTX=41
##LASTX=228
##FIRSTY=13
##MAXX=228
##MINX=41
##MAXY=9999
##MINY=1
##NPOINTS=86
##PEAK TABLE=(XY..XY)
41,13 44,29 46,47 50,2637
51,3271 52,625 53,55 61,54
62,519 63,2377 64,1238 65,326
66,17 73,9 74,655 75,1631
76,5903 77,3841 78,1644 79,76
84,5 86,41 87,92 89,3147
90,1202 91,229 92,480 93,39
98,6 99,15 100,11 101,212
102,251 103,611 104,322 105,39
106,5 113,30 114,60 115,286
116,137 117,26 122,128 125,41
126,283 127,1012 128,627 129,65
130,3 132,2 139,158 140,281
141,135 142,2 149,688 150,254
151,1202 152,4183 153,2299 154,578
155,24 163,68 164,17 165,2
166,95 167,383 168,107 169,4
176,5 177,164 178,801 179,2468
180,2123 181,286 182,11 192,6
196,55 197,1 207,1 209,3
210,101 211,1 225,5145 226,9999
227,1439 228,111
##END=
