##TITLE=Pentane, 2,2,4-trimethyl-4-nitro-
##JCAMP-DX=4.24
##DATA TYPE=MASS SPECTRUM
##ORIGIN=CARL DJERASSI DEPT OF CHEM STANFORD UNIV STANFORD CALIF 94305
##OWNER=NIST Mass Spectrometry Data Center
Collection (C) 2014 copyright by the U.S. Secretary of Commerce
on behalf of the United States of America. All rights reserved.
##CAS REGISTRY NO=5342-78-9
##$NIST MASS SPEC NO=46859
##MOLFORM=C8 H17 N O2
##MW=159
##$NIST SOURCE=MSDC
##XUNITS=M/Z
##YUNITS=RELATIVE INTENSITY
##XFACTOR=1
##YFACTOR=1
##FIRSTX=15
##LASTX=113
##FIRSTY=303
##MAXX=113
##MINX=15
##MAXY=9999
##MINY=101
##NPOINTS=46
##PEAK TABLE=(XY..XY)
15,303 16,101 17,505 18,222
26,101 27,1515 28,3434 29,2727
30,4646 32,1818 38,101 39,2020
40,404 41,5656 42,404 43,606
44,141 50,101 51,202 52,101
53,606 54,202 55,3838 56,2020
57,9999 58,404 59,101 65,202
66,101 67,303 68,101 69,1212
70,202 75,101 77,202 78,101
79,101 81,303 82,101 83,101
95,101 96,101 97,2727 98,202
112,1313 113,202
##END=
