##TITLE=2-Butanol, 3-methyl-, acetate
##JCAMP-DX=4.24
##DATA TYPE=MASS SPECTRUM
##ORIGIN=NIST Mass Spectrometry Data Center
##OWNER=NIST Mass Spectrometry Data Center
Collection (C) 2014 copyright by the U.S. Secretary of Commerce
on behalf of the United States of America. All rights reserved.
##CAS REGISTRY NO=5343-96-4
##$NIST MASS SPEC NO=352299
##MOLFORM=C7 H14 O2
##MW=130
##$NIST SOURCE=MSDC
##XUNITS=M/Z
##YUNITS=RELATIVE INTENSITY
##XFACTOR=1
##YFACTOR=1
##FIRSTX=14
##LASTX=130
##FIRSTY=80
##MAXX=130
##MINX=14
##MAXY=9999
##MINY=10
##NPOINTS=51
##PEAK TABLE=(XY..XY)
14,80 15,581 16,20 17,10
19,10 26,80 27,831 28,200
29,520 30,10 31,40 37,20
38,50 39,711 40,100 41,1001
42,571 43,9999 44,310 45,370
46,10 50,40 51,50 52,20
53,140 54,50 55,1011 56,80
57,30 58,10 59,10 60,10
61,70 62,10 63,10 65,10
67,20 68,10 69,110 70,1231
71,540 72,50 73,170 74,10
86,601 87,2622 88,120 89,10
115,220 116,10 130,10
##END=
