##TITLE=1,2-Pentanediol
##JCAMP-DX=4.24
##DATA TYPE=MASS SPECTRUM
##ORIGIN=Japan AIST/NIMC Database- Spectrum MS-IW-5560
##OWNER=NIST Mass Spectrometry Data Center
Collection (C) 2014 copyright by the U.S. Secretary of Commerce
on behalf of the United States of America. All rights reserved.
##CAS REGISTRY NO=5343-92-0
##$NIST MASS SPEC NO=238721
##MOLFORM=C5 H12 O2
##MW=104
##$NIST SOURCE=MSDC
##XUNITS=M/Z
##YUNITS=RELATIVE INTENSITY
##XFACTOR=1
##YFACTOR=1
##FIRSTX=14
##LASTX=105
##FIRSTY=20
##MAXX=105
##MINX=14
##MAXY=9999
##MINY=10
##NPOINTS=54
##PEAK TABLE=(XY..XY)
14,20 15,289 17,30 18,159
19,279 26,70 27,979 28,239
29,1399 30,60 31,2359 32,99
33,99 37,20 38,50 39,559
40,80 41,1399 42,289 43,4919
44,969 45,769 46,20 47,20
50,20 51,30 52,10 53,159
54,40 55,9999 56,679 57,739
58,299 59,40 60,199 61,2619
62,60 63,10 65,10 67,99
68,60 69,249 70,40 71,129
72,1019 73,8019 74,369 75,30
76,20 85,20 86,50 87,99
103,20 105,10
##END=
