##TITLE=Lilac aldehyde C
##JCAMP-DX=4.24
##DATA TYPE=MASS SPECTRUM
##ORIGIN=Mark Whitten, Florida Museum of Natural History, U. of Florida
##OWNER=NIST Mass Spectrometry Data Center
Collection (C) 2014 copyright by the U.S. Secretary of Commerce
on behalf of the United States of America. All rights reserved.
##CAS REGISTRY NO=53447-48-6
##$NIST MASS SPEC NO=141227
##MOLFORM=C10 H16 O2
##MW=168
##$NIST SOURCE=MSDC
##XUNITS=M/Z
##YUNITS=RELATIVE INTENSITY
##XFACTOR=1
##YFACTOR=1
##FIRSTX=41
##LASTX=168
##FIRSTY=5913
##MAXX=168
##MINX=41
##MAXY=9999
##MINY=17
##NPOINTS=69
##PEAK TABLE=(XY..XY)
41,5913 42,1143 43,9119 44,272
45,213 50,194 51,512 52,252
53,1748 55,9999 56,725 57,971
58,545 59,175 61,21 62,35
63,71 65,504 67,3321 68,1767
69,2348 70,515 71,3450 72,743
73,75 77,759 79,1100 80,692
81,1927 82,971 83,1466 84,312
85,368 86,45 87,76 91,925
93,3731 94,595 95,774 96,264
97,484 98,109 99,49 100,89
105,87 107,638 108,112 109,209
110,1246 111,2212 112,232 113,167
117,19 121,179 122,279 123,112
124,42 125,547 126,68 132,17
135,55 137,21 139,65 140,71
141,181 150,53 153,1133 154,113
168,22
##END=
