##TITLE=Thiourea, (2-chlorophenyl)-
##JCAMP-DX=4.24
##DATA TYPE=MASS SPECTRUM
##ORIGIN=NIST Mass Spectrometry Data Center, 1998.
##OWNER=NIST Mass Spectrometry Data Center
Collection (C) 2014 copyright by the U.S. Secretary of Commerce
on behalf of the United States of America. All rights reserved.
##CAS REGISTRY NO=5344-82-1
##$NIST MASS SPEC NO=291810
##MOLFORM=C7 H7 Cl N2 S
##MW=186
##$NIST SOURCE=MSDC
##XUNITS=M/Z
##YUNITS=RELATIVE INTENSITY
##XFACTOR=1
##YFACTOR=1
##FIRSTX=26
##LASTX=173
##FIRSTY=20
##MAXX=173
##MINX=26
##MAXY=9999
##MINY=20
##NPOINTS=57
##PEAK TABLE=(XY..XY)
26,20 32,150 37,440 38,360
39,410 44,260 45,70 49,280
50,1590 51,710 52,90 58,60
60,70 61,370 62,350 63,720
64,360 69,60 70,320 72,70
73,380 74,1080 75,2970 76,450
79,80 82,110 83,50 85,340
86,70 87,130 88,80 89,50
90,500 99,120 100,20 102,280
107,110 108,40 109,20 110,20
111,3000 112,90 113,870 125,450
127,120 133,230 134,1090 135,90
136,90 137,580 139,160 142,110
169,9999 170,740 171,3580 172,170
173,90
##END=
