##TITLE=Benzil monohydrazone
##JCAMP-DX=4.24
##DATA TYPE=MASS SPECTRUM
##ORIGIN=Japan AIST/NIMC Database- Spectrum MS-NW-6240
##OWNER=NIST Mass Spectrometry Data Center
Collection (C) 2014 copyright by the U.S. Secretary of Commerce
on behalf of the United States of America. All rights reserved.
##CAS REGISTRY NO=5344-88-7
##$NIST MASS SPEC NO=234879
##MOLFORM=C14 H12 N2 O
##MW=224
##$NIST SOURCE=MSDC
##XUNITS=M/Z
##YUNITS=RELATIVE INTENSITY
##XFACTOR=1
##YFACTOR=1
##FIRSTX=16
##LASTX=226
##FIRSTY=10
##MAXX=226
##MINX=16
##MAXY=9999
##MINY=10
##NPOINTS=109
##PEAK TABLE=(XY..XY)
16,10 17,70 18,299 26,20
27,99 28,189 29,10 32,10
37,20 38,50 39,219 40,20
41,30 43,20 44,10 49,20
50,389 51,1399 52,129 53,20
57,10 61,20 62,70 63,209
64,60 65,119 66,20 69,20
71,10 73,10 74,119 75,149
76,449 77,6589 78,479 79,20
81,10 82,30 83,10 85,10
86,30 87,40 88,30 89,119
90,50 91,149 92,129 93,40
97,10 98,10 99,10 100,10
101,10 102,40 103,429 104,209
105,3229 106,289 107,20 110,10
111,20 112,20 113,20 114,10
115,40 117,10 118,90 119,9999
120,869 121,60 122,20 126,20
127,10 128,10 135,20 137,10
139,50 140,10 141,10 145,30
149,10 150,20 151,40 152,80
153,20 163,40 164,60 165,349
166,109 167,60 168,20 176,40
177,60 178,159 179,40 180,60
181,20 193,20 194,70 195,50
196,339 197,60 206,10 207,10
222,30 223,599 224,3389 225,569
226,50
##END=
