##TITLE=(R)-(-)-Leucinol
##JCAMP-DX=4.24
##DATA TYPE=MASS SPECTRUM
##ORIGIN=Chuck Anderson, Aldrich Chemical Co.
##OWNER=NIST Mass Spectrometry Data Center
Collection (C) 2014 copyright by the U.S. Secretary of Commerce
on behalf of the United States of America. All rights reserved.
##CAS REGISTRY NO=53448-09-2
##$NIST MASS SPEC NO=108420
##MOLFORM=C6 H15 N O
##MW=117
##$NIST SOURCE=MSDC
##XUNITS=M/Z
##YUNITS=RELATIVE INTENSITY
##XFACTOR=1
##YFACTOR=1
##FIRSTX=15
##LASTX=118
##FIRSTY=276
##MAXX=118
##MINX=15
##MAXY=9999
##MINY=3
##NPOINTS=49
##PEAK TABLE=(XY..XY)
15,276 17,29 18,662 26,52
27,1082 28,1120 29,781 30,7585
31,619 32,27 37,3 38,55
39,657 40,117 41,1896 42,1853
43,2995 44,7499 45,210 46,21
50,20 51,43 52,20 53,98
54,75 55,144 56,355 57,246
58,80 59,75 60,3641 61,90
65,11 67,90 68,53 69,204
70,189 71,17 72,53 73,16
74,17 79,7 81,37 82,23
84,57 86,9999 87,484 116,11
118,36
##END=
