##TITLE=4-Bromo-3-nitroanisole
##JCAMP-DX=4.24
##DATA TYPE=MASS SPECTRUM
##ORIGIN=Chuck Anderson, Aldrich Chemical Co.
##OWNER=NIST Mass Spectrometry Data Center
Collection (C) 2014 copyright by the U.S. Secretary of Commerce
on behalf of the United States of America. All rights reserved.
##CAS REGISTRY NO=5344-78-5
##$NIST MASS SPEC NO=108010
##MOLFORM=C7 H6 Br N O3
##MW=231
##$NIST SOURCE=MSDC
##XUNITS=M/Z
##YUNITS=RELATIVE INTENSITY
##XFACTOR=1
##YFACTOR=1
##FIRSTX=15
##LASTX=235
##FIRSTY=468
##MAXX=235
##MINX=15
##MAXY=9999
##MINY=13
##NPOINTS=105
##PEAK TABLE=(XY..XY)
15,468 18,64 26,384 27,335
28,414 29,449 30,1799 31,111
36,179 37,1085 38,874 39,630
40,34 41,137 42,17 43,60
46,384 49,301 50,1194 51,1399
52,359 53,784 54,79 61,147
62,427 63,1878 64,124 65,115
66,105 67,13 69,39 73,714
74,3499 75,4719 76,145 77,293
78,1087 79,261 80,21 81,21
82,68 90,282 91,1719 92,267
93,570 94,344 96,88 98,380
105,273 106,1203 107,1215 108,263
109,369 115,53 116,474 117,284
118,404 119,205 120,53 122,1839
123,128 124,2659 125,158 128,167
129,81 130,214 131,135 133,124
135,75 141,192 142,1640 143,320
144,1700 145,149 152,275 153,149
154,498 155,3680 156,669 157,3979
158,395 159,404 160,182 170,8640
171,525 172,8959 173,365 174,21
175,317 176,17 185,4279 186,291
187,4460 188,297 201,201 203,203
215,222 216,17 217,226 218,17
231,9999 232,669 233,9999 234,739
235,70
##END=
