##TITLE=2,6-Dichlorocinnamic acid
##JCAMP-DX=4.24
##DATA TYPE=MASS SPECTRUM
##ORIGIN=Japan AIST/NIMC Database- Spectrum MS-NW-6496
##OWNER=NIST Mass Spectrometry Data Center
Collection (C) 2014 copyright by the U.S. Secretary of Commerce
on behalf of the United States of America. All rights reserved.
##CAS REGISTRY NO=5345-89-1
##$NIST MASS SPEC NO=235086
##MOLFORM=C9 H6 Cl2 O2
##MW=216
##$NIST SOURCE=MSDC
##XUNITS=M/Z
##YUNITS=RELATIVE INTENSITY
##XFACTOR=1
##YFACTOR=1
##FIRSTX=14
##LASTX=220
##FIRSTY=40
##MAXX=220
##MINX=14
##MAXY=9999
##MINY=10
##NPOINTS=159
##PEAK TABLE=(XY..XY)
14,40 15,10 16,20 17,20
18,70 26,50 27,60 28,40
29,50 31,10 35,30 36,179
37,109 38,90 39,119 40,20
41,10 42,10 43,80 44,319
45,229 46,10 47,20 48,10
49,199 50,649 51,439 52,40
53,60 54,20 55,20 56,10
57,10 58,10 59,10 60,40
61,179 62,239 63,319 64,40
65,50 66,20 67,60 68,519
69,189 71,30 72,50 73,199
74,789 75,889 76,139 77,80
78,10 79,20 81,10 82,10
83,10 84,149 85,249 86,129
87,109 88,40 89,579 90,139
91,30 92,40 93,10 94,10
96,20 97,99 98,229 99,1119
100,319 101,979 102,769 103,80
104,20 105,10 106,10 107,10
108,50 109,239 110,80 111,149
112,30 113,30 117,99 118,249
119,30 120,50 121,10 122,10
123,60 124,40 125,1839 126,179
127,609 128,50 129,10 132,10
133,50 134,70 135,879 136,789
137,1289 138,349 139,349 140,30
141,10 145,20 146,50 147,30
148,70 149,20 150,10 151,10
152,159 153,40 154,40 155,20
159,50 161,30 162,10 163,159
164,60 165,20 166,20 167,10
168,169 169,20 170,279 171,359
172,229 173,249 174,70 175,60
176,10 177,10 179,10 180,80
181,9999 182,1019 183,3309 184,329
185,30 186,10 197,10 198,10
199,149 200,20 201,90 202,10
203,20 215,50 216,499 217,80
218,339 219,40 220,60
##END=
