##TITLE=.alpha.-D-Glucopyranoside, 1,3,4,6-tetra-O-methyl-.beta.-D-fructofuranosyl 2,3,4,6-tetra-O-methyl-
##JCAMP-DX=4.24
##DATA TYPE=MASS SPECTRUM
##OWNER=NIST Mass Spectrometry Data Center
Collection (C) 2014 copyright by the U.S. Secretary of Commerce
on behalf of the United States of America. All rights reserved.
##CAS REGISTRY NO=5346-73-6
##$NIST MASS SPEC NO=17730
##MOLFORM=C20 H38 O11
##MW=454
##$NIST SOURCE=MSDC
##XUNITS=M/Z
##YUNITS=RELATIVE INTENSITY
##XFACTOR=1
##YFACTOR=1
##FIRSTX=45
##LASTX=409
##FIRSTY=8499
##MAXX=409
##MINX=45
##MAXY=9999
##MINY=30
##NPOINTS=27
##PEAK TABLE=(XY..XY)
45,8499 59,2400 71,2300 75,1900
88,1300 99,550 101,7499 111,2000
115,900 127,750 129,200 131,350
143,350 145,550 155,850 159,500
187,9999 205,350 219,7499 235,850
249,100 275,110 279,30 305,80
307,170 377,200 409,350
##END=
