##TITLE=3-(Methylthio)-2-butanone
##JCAMP-DX=4.24
##DATA TYPE=MASS SPECTRUM
##ORIGIN=Chuck Anderson, Aldrich Chemical Co.
##OWNER=NIST Mass Spectrometry Data Center
Collection (C) 2014 copyright by the U.S. Secretary of Commerce
on behalf of the United States of America. All rights reserved.
##CAS REGISTRY NO=53475-15-3
##$NIST MASS SPEC NO=108345
##MOLFORM=C5 H10 O S
##MW=118
##$NIST SOURCE=MSDC
##XUNITS=M/Z
##YUNITS=RELATIVE INTENSITY
##XFACTOR=1
##YFACTOR=1
##FIRSTX=13
##LASTX=121
##FIRSTY=8
##MAXX=121
##MINX=13
##MAXY=9999
##MINY=2
##NPOINTS=60
##PEAK TABLE=(XY..XY)
13,8 14,71 15,542 16,7
18,2 25,14 26,211 27,879
28,285 29,279 31,16 32,14
33,10 34,9 35,38 37,19
38,34 39,199 40,19 41,2697
42,318 43,2631 44,89 45,715
46,242 47,2170 48,141 49,649
50,43 51,53 52,8 53,70
54,15 55,125 56,64 57,112
58,164 59,657 60,213 61,248
62,16 63,11 64,11 69,19
70,9 71,95 72,97 73,49
74,367 75,9999 76,439 77,487
78,16 85,5 87,25 103,2
118,3256 119,215 120,156 121,8
##END=
