##TITLE=Piperidine, 2,3-dimethyl-
##JCAMP-DX=4.24
##DATA TYPE=MASS SPECTRUM
##OWNER=NIST Mass Spectrometry Data Center
Collection (C) 2014 copyright by the U.S. Secretary of Commerce
on behalf of the United States of America. All rights reserved.
##CAS REGISTRY NO=5347-68-2
##$NIST MASS SPEC NO=1717
##MOLFORM=C7 H15 N
##MW=113
##$NIST SOURCE=MSDC
##XUNITS=M/Z
##YUNITS=RELATIVE INTENSITY
##XFACTOR=1
##YFACTOR=1
##FIRSTX=24
##LASTX=114
##FIRSTY=10
##MAXX=114
##MINX=24
##MAXY=9999
##MINY=10
##NPOINTS=83
##PEAK TABLE=(XY..XY)
24,10 25,40 26,671 27,3984
28,5445 29,2973 30,2983 31,150
33,10 34,10 36,20 37,140
38,400 39,3453 40,761 41,4344
42,6886 43,5145 44,3653 45,1001
46,80 47,30 48,20 49,60
50,290 51,520 52,290 53,791
54,621 55,1421 56,5945 57,2262
58,2412 59,210 60,130 61,50
62,90 63,220 64,110 65,460
66,420 67,480 68,671 69,1041
70,3633 71,2943 72,430 73,90
74,50 76,30 77,270 78,140
79,550 80,360 81,240 82,460
83,210 84,981 85,290 86,170
87,70 88,20 89,10 90,10
91,60 92,320 93,100 94,150
95,150 96,370 97,190 98,9999
99,801 100,90 106,98 107,150
108,19 109,50 110,150 111,80
112,2342 113,1431 114,240
##END=
