##TITLE=Benzo[b]benzo[3,4]cyclobuta[1,2-e][1,4]dioxin, 4b,10a-dihydro-4b-phenyl-
##JCAMP-DX=4.24
##DATA TYPE=MASS SPECTRUM
##OWNER=NIST Mass Spectrometry Data Center
Collection (C) 2014 copyright by the U.S. Secretary of Commerce
on behalf of the United States of America. All rights reserved.
##CAS REGISTRY NO=53486-88-7
##$NIST MASS SPEC NO=29762
##MOLFORM=C20 H14 O2
##MW=286
##$NIST SOURCE=MSDC
##XUNITS=M/Z
##YUNITS=RELATIVE INTENSITY
##XFACTOR=1
##YFACTOR=1
##FIRSTX=101
##LASTX=288
##FIRSTY=210
##MAXX=288
##MINX=101
##MAXY=9999
##MINY=66
##NPOINTS=55
##PEAK TABLE=(XY..XY)
101,210 102,310 105,719 106,77
113,232 114,177 115,232 116,66
126,299 127,177 128,243 139,299
149,155 150,343 151,885 152,1836
153,387 163,221 164,177 165,719
166,155 175,188 176,1571 177,1250
178,4955 179,796 180,221 181,3385
193,299 194,144 202,221 209,409
226,265 227,188 228,310 229,243
231,166 239,442 240,188 241,409
242,188 255,288 256,100 257,1869
258,487 267,111 268,453 269,509
270,133 271,177 284,199 285,730
286,9999 287,2245 288,299
##END=
