##TITLE=2-Isopropyl-4,5-dimethylthiazole
##JCAMP-DX=4.24
##DATA TYPE=MASS SPECTRUM
##ORIGIN=Philip Morris R&D
##OWNER=NIST Mass Spectrometry Data Center
Collection (C) 2014 copyright by the U.S. Secretary of Commerce
on behalf of the United States of America. All rights reserved.
##CAS REGISTRY NO=53498-30-9
##$NIST MASS SPEC NO=109609
##MOLFORM=C8 H13 N S
##MW=155
##$NIST SOURCE=MSDC
##XUNITS=M/Z
##YUNITS=RELATIVE INTENSITY
##XFACTOR=1
##YFACTOR=1
##FIRSTX=36
##LASTX=158
##FIRSTY=7
##MAXX=158
##MINX=36
##MAXY=9999
##MINY=0
##NPOINTS=104
##PEAK TABLE=(XY..XY)
36,7 37,18 38,65 39,549
40,87 41,538 42,624 43,200
44,25 45,952 46,57 47,245
48,7 49,61 50,79 51,193
52,137 53,1036 54,249 55,454
56,33 57,44 58,219 59,878
60,65 61,48 62,5 63,103
64,26 65,25 66,31 67,13
68,67 69,175 70,230 71,1843
72,160 73,98 74,7 75,7
76,4 77,25 78,10 79,16
80,52 81,32 82,19 83,13
84,92 85,780 86,1513 87,1225
88,151 89,71 90,3 91,0
92,0 93,1 94,17 95,6
96,1192 97,136 98,27 99,20
100,13 101,7 103,4 104,3
106,19 107,9 108,2 110,11
111,5 112,98 113,984 114,238
115,62 116,10 117,7 120,10
121,24 122,4 123,1 124,4
125,9 126,45 127,164 128,12
129,8 133,1 138,65 139,54
140,9999 141,957 142,478 143,36
144,1 152,23 153,20 154,1597
155,6583 156,732 157,359 158,31
##END=
