##TITLE=4-Nonen-2-yne, (E)-
##JCAMP-DX=4.24
##DATA TYPE=MASS SPECTRUM
##ORIGIN=D.HENNEBERG, MAX-PLANCK INSTITUTE, MULHEIM, WEST GERMANY
##OWNER=NIST Mass Spectrometry Data Center
Collection (C) 2014 copyright by the U.S. Secretary of Commerce
on behalf of the United States of America. All rights reserved.
##CAS REGISTRY NO=53497-79-3
##$NIST MASS SPEC NO=62995
##MOLFORM=C9 H14
##MW=122
##$NIST SOURCE=MSDC
##XUNITS=M/Z
##YUNITS=RELATIVE INTENSITY
##XFACTOR=1
##YFACTOR=1
##FIRSTX=22
##LASTX=124
##FIRSTY=7
##MAXX=124
##MINX=22
##MAXY=9999
##MINY=4
##NPOINTS=93
##PEAK TABLE=(XY..XY)
22,7 23,21 24,31 25,13
26,140 27,2139 28,447 29,772
30,16 31,10 32,35 33,20
34,36 35,20 36,23 37,79
38,202 39,2229 40,859 41,2576
42,313 43,831 44,116 45,21
47,15 48,14 49,50 50,425
51,1242 52,640 53,1221 54,143
55,530 56,312 57,415 58,70
59,24 60,18 61,43 62,153
63,409 64,265 65,1487 66,9999
67,1136 68,242 69,287 70,75
71,51 72,9 73,21 74,68
75,341 76,85 77,5734 78,1018
79,5230 80,688 81,195 82,238
83,36 84,5 85,15 86,19
87,18 89,106 90,36 91,1656
92,225 93,1743 94,350 95,51
98,11 99,4 102,19 103,97
104,25 105,292 106,52 107,1569
108,128 109,11 114,6 115,91
116,36 117,78 118,71 119,17
120,70 121,75 122,3052 123,290
124,16
##END=
