##TITLE=Endrin ketone
##JCAMP-DX=4.24
##DATA TYPE=MASS SPECTRUM
##ORIGIN=NIST Mass Spectrometry Data Center, 1998.
##OWNER=NIST Mass Spectrometry Data Center
Collection (C) 2014 copyright by the U.S. Secretary of Commerce
on behalf of the United States of America. All rights reserved.
##CAS REGISTRY NO=53494-70-5
##$NIST MASS SPEC NO=291683
##MOLFORM=C12 H8 Cl6 O
##MW=378
##$NIST SOURCE=MSDC
##XUNITS=M/Z
##YUNITS=RELATIVE INTENSITY
##XFACTOR=1
##YFACTOR=1
##FIRSTX=26
##LASTX=384
##FIRSTY=100
##MAXX=384
##MINX=26
##MAXY=9999
##MINY=20
##NPOINTS=277
##PEAK TABLE=(XY..XY)
26,100 27,900 29,80 35,120
36,220 37,130 38,350 39,1620
40,260 41,240 42,40 43,40
47,80 49,370 50,760 51,1420
52,300 53,500 54,160 55,1560
56,250 57,60 60,150 61,490
62,790 63,1480 64,180 65,1100
66,2160 67,9999 68,860 69,540
71,50 72,260 73,1610 74,1280
75,1920 76,250 77,2030 78,390
79,2160 80,370 81,350 82,270
83,620 84,440 85,1170 86,1380
87,1610 88,430 89,600 90,120
91,330 92,170 94,90 95,120
96,360 97,830 98,600 99,1900
100,640 101,2300 102,790 103,890
104,890 105,90 106,430 107,1460
108,1330 109,1590 110,530 111,1690
112,510 113,2670 114,650 115,970
116,150 117,230 118,100 119,360
120,230 121,640 122,660 123,1020
124,290 125,490 126,400 127,360
128,230 129,120 130,70 131,260
132,100 133,980 134,380 135,1310
136,930 137,1300 138,1060 139,3130
140,960 141,590 142,180 143,520
144,180 145,870 146,570 147,2620
148,870 149,2330 150,430 151,550
152,70 154,80 155,130 156,80
157,400 158,150 159,740 160,370
161,580 162,680 163,310 164,220
165,110 166,70 167,630 168,180
169,740 170,890 171,570 172,730
173,2040 174,770 175,1820 176,380
177,480 178,100 179,250 180,820
181,870 182,1050 183,1900 184,650
185,1010 186,210 187,210 188,20
191,130 192,60 193,740 194,400
195,740 196,990 197,560 198,560
199,230 200,110 201,270 202,140
203,330 204,250 205,310 206,480
207,660 208,570 209,2410 210,720
211,1610 212,390 213,390 214,610
215,310 216,730 217,1000 218,510
219,960 220,250 221,440 222,80
223,100 227,220 228,80 229,290
230,300 231,260 232,300 233,180
234,140 235,140 236,180 237,180
238,190 239,160 240,150 241,180
242,150 243,1740 244,940 245,2110
246,830 247,900 248,1580 249,460
250,2090 251,580 252,1300 253,590
254,550 255,330 256,140 257,100
259,20 261,170 263,260 264,40
265,210 266,50 267,120 268,40
269,40 271,190 272,80 273,230
274,120 275,140 276,190 277,130
278,580 279,1630 280,850 281,2200
282,640 283,1130 284,240 285,270
286,40 287,40 289,50 290,30
291,20 307,360 308,80 309,520
310,110 311,310 312,60 313,270
314,70 315,3900 316,530 317,6019
318,770 319,3850 320,440 321,1210
322,150 323,210 342,30 343,860
344,190 345,1350 346,220 347,870
348,130 349,300 350,190 351,80
352,290 353,40 354,240 355,20
356,80 378,70 380,150 382,120
384,40
##END=
