##TITLE=Acetic acid, dichloro-, ethyl ester
##JCAMP-DX=4.24
##DATA TYPE=MASS SPECTRUM
##ORIGIN=Japan AIST/NIMC Database- Spectrum MS-NW-6376
##OWNER=NIST Mass Spectrometry Data Center
Collection (C) 2014 copyright by the U.S. Secretary of Commerce
on behalf of the United States of America. All rights reserved.
##CAS REGISTRY NO=535-15-9
##$NIST MASS SPEC NO=229840
##MOLFORM=C4 H6 Cl2 O2
##MW=156
##$NIST SOURCE=MSDC
##XUNITS=M/Z
##YUNITS=RELATIVE INTENSITY
##XFACTOR=1
##YFACTOR=1
##FIRSTX=12
##LASTX=143
##FIRSTY=10
##MAXX=143
##MINX=12
##MAXY=9999
##MINY=10
##NPOINTS=57
##PEAK TABLE=(XY..XY)
12,10 13,40 14,50 15,129
16,10 17,10 18,60 25,10
26,159 27,1629 28,779 29,9999
30,249 31,40 35,60 36,169
37,20 38,50 39,10 40,10
41,249 42,40 43,129 44,40
45,149 47,119 48,359 49,90
50,119 51,20 63,40 64,10
65,50 67,10 73,70 76,329
77,419 78,109 79,139 82,30
83,949 84,40 85,599 86,20
87,99 93,30 94,20 110,10
111,229 112,20 113,189 114,10
115,60 127,20 129,10 141,40
143,30
##END=
