##TITLE=Benzene, 1-methyl-3-(1-methylethyl)-
##JCAMP-DX=4.24
##DATA TYPE=MASS SPECTRUM
##ORIGIN=Japan AIST/NIMC Database- Spectrum MS-IW-3007
##OWNER=NIST Mass Spectrometry Data Center
Collection (C) 2014 copyright by the U.S. Secretary of Commerce
on behalf of the United States of America. All rights reserved.
##CAS REGISTRY NO=535-77-3
##$NIST MASS SPEC NO=232296
##MOLFORM=C10 H14
##MW=134
##$NIST SOURCE=MSDC
##XUNITS=M/Z
##YUNITS=RELATIVE INTENSITY
##XFACTOR=1
##YFACTOR=1
##FIRSTX=15
##LASTX=136
##FIRSTY=20
##MAXX=136
##MINX=15
##MAXY=9999
##MINY=10
##NPOINTS=65
##PEAK TABLE=(XY..XY)
15,20 26,10 27,129 29,10
38,30 39,379 40,40 41,409
42,20 43,139 50,90 51,259
52,80 53,90 55,10 57,139
58,179 59,99 60,10 61,10
62,60 63,209 64,99 65,459
66,109 67,20 74,40 75,40
76,30 77,509 78,169 79,189
80,10 86,20 87,20 89,129
90,40 91,1519 92,209 93,239
94,10 101,10 102,80 103,329
104,229 105,349 106,30 107,10
114,10 115,429 116,119 117,809
118,169 119,9999 120,999 121,40
127,10 128,20 129,10 131,20
132,60 133,189 134,2559 135,349
136,20
##END=
