##TITLE=Propanoic acid, 2-chloro-, ethyl ester
##JCAMP-DX=4.24
##DATA TYPE=MASS SPECTRUM
##ORIGIN=Chuck Anderson, Aldrich Chemical Co.
##OWNER=NIST Mass Spectrometry Data Center
Collection (C) 2014 copyright by the U.S. Secretary of Commerce
on behalf of the United States of America. All rights reserved.
##CAS REGISTRY NO=535-13-7
##$NIST MASS SPEC NO=107390
##MOLFORM=C5 H9 Cl O2
##MW=136
##$NIST SOURCE=MSDC
##XUNITS=M/Z
##YUNITS=RELATIVE INTENSITY
##XFACTOR=1
##YFACTOR=1
##FIRSTX=12
##LASTX=140
##FIRSTY=3
##MAXX=140
##MINX=12
##MAXY=9999
##MINY=1
##NPOINTS=95
##PEAK TABLE=(XY..XY)
12,3 13,10 14,51 15,241
16,13 17,1 19,34 24,5
25,52 26,861 27,5416 28,2026
29,9999 30,326 31,430 32,7
33,2 35,38 36,44 37,32
38,29 39,43 40,20 41,423
42,98 43,338 44,65 45,738
46,17 47,15 48,42 49,19
50,16 51,7 52,4 53,47
54,25 55,409 56,994 57,1401
58,66 59,5 60,23 61,113
62,2319 63,6287 64,795 65,2007
66,46 67,7 71,4 72,5
73,229 74,69 75,5 76,80
77,140 78,32 79,65 80,3
81,5 82,3 83,1 84,1
85,3 86,4 87,1 89,16
90,55 91,1997 92,89 93,643
94,24 95,4 99,3 100,2
101,21 102,2 106,2 107,8
108,269 109,135 110,93 111,43
112,3 121,111 122,5 123,35
124,2 135,15 136,140 137,38
138,44 139,11 140,1
##END=
