##TITLE=Methanone, diphenyl-, hydrazone
##JCAMP-DX=4.24
##DATA TYPE=MASS SPECTRUM
##ORIGIN=Japan AIST/NIMC Database- Spectrum MS-NW-9495
##OWNER=NIST Mass Spectrometry Data Center
Collection (C) 2014 copyright by the U.S. Secretary of Commerce
on behalf of the United States of America. All rights reserved.
##CAS REGISTRY NO=5350-57-2
##$NIST MASS SPEC NO=235756
##MOLFORM=C13 H12 N2
##MW=196
##$NIST SOURCE=MSDC
##XUNITS=M/Z
##YUNITS=RELATIVE INTENSITY
##XFACTOR=1
##YFACTOR=1
##FIRSTX=27
##LASTX=198
##FIRSTY=70
##MAXX=198
##MINX=27
##MAXY=9999
##MINY=10
##NPOINTS=105
##PEAK TABLE=(XY..XY)
27,70 28,109 38,30 39,199
40,20 41,20 43,20 50,239
51,1129 52,109 53,10 54,10
57,40 61,10 62,80 63,249
64,80 65,259 66,239 67,30
69,109 70,70 71,10 74,119
75,149 76,419 77,3859 78,329
79,10 81,70 82,219 83,129
84,40 85,30 86,50 87,80
88,50 89,149 90,60 91,299
92,519 93,909 94,60 96,30
97,70 98,159 99,20 100,10
101,20 102,60 103,199 104,189
105,50 106,10 110,10 111,10
113,60 114,30 115,179 116,20
117,20 118,649 119,1119 120,90
125,10 126,60 127,50 128,60
129,10 130,10 137,20 138,20
139,209 140,50 141,50 142,10
143,10 150,40 151,229 152,479
153,169 154,50 155,10 162,20
163,209 164,249 165,3659 166,739
167,249 168,149 169,50 170,10
176,10 177,90 178,539 179,1179
180,2069 181,359 182,30 193,20
194,60 195,3729 196,9999 197,1529
198,99
##END=
