##TITLE=Benzyltrimethylammonium bromide
##JCAMP-DX=4.24
##DATA TYPE=MASS SPECTRUM
##ORIGIN=Japan AIST/NIMC Database- Spectrum MS-NW-7084
##OWNER=NIST Mass Spectrometry Data Center
Collection (C) 2014 copyright by the U.S. Secretary of Commerce
on behalf of the United States of America. All rights reserved.
##CAS REGISTRY NO=5350-41-4
##$NIST MASS SPEC NO=235773
##MOLFORM=C10 H16 Br N
##MW=229
##$NIST SOURCE=MSDC
##XUNITS=M/Z
##YUNITS=RELATIVE INTENSITY
##XFACTOR=1
##YFACTOR=1
##FIRSTX=14
##LASTX=173
##FIRSTY=30
##MAXX=173
##MINX=14
##MAXY=9999
##MINY=10
##NPOINTS=115
##PEAK TABLE=(XY..XY)
14,30 15,399 25,10 26,60
27,159 28,429 29,139 30,479
31,20 32,20 37,90 38,199
39,669 40,139 41,309 42,1069
43,299 44,299 45,129 46,20
49,30 50,289 51,369 52,179
53,50 54,20 55,50 56,99
57,319 58,4339 59,1219 60,50
61,90 62,259 63,599 64,209
65,1269 66,90 67,30 68,20
69,40 70,30 71,50 73,20
74,60 75,50 76,70 77,99
78,40 79,70 80,80 81,80
82,90 83,40 84,40 85,99
86,99 87,40 88,30 89,499
90,249 91,9999 92,909 93,60
94,309 95,40 96,299 97,10
98,30 99,20 103,40 104,30
105,30 107,10 109,10 110,10
111,20 112,20 113,10 115,20
116,10 117,10 118,60 119,10
120,30 121,10 123,10 125,10
126,10 127,10 128,10 129,10
132,40 133,20 134,639 135,879
136,99 137,20 139,10 141,20
143,10 149,10 150,10 151,40
152,30 153,30 165,119 166,109
167,60 168,10 169,20 170,589
171,70 172,539 173,40
##END=
