##TITLE=2-Mercapto-4,5-dimethylthiazole
##JCAMP-DX=4.24
##DATA TYPE=MASS SPECTRUM
##ORIGIN=Div. of Experiment Therapeutics WRAIR, WRAMC, Washington DC 20307
##OWNER=NIST Mass Spectrometry Data Center
Collection (C) 2014 copyright by the U.S. Secretary of Commerce
on behalf of the United States of America. All rights reserved.
##CAS REGISTRY NO=5351-51-9
##$NIST MASS SPEC NO=255827
##MOLFORM=C5 H7 N S2
##MW=145
##$NIST SOURCE=MSDC
##XUNITS=M/Z
##YUNITS=RELATIVE INTENSITY
##XFACTOR=1
##YFACTOR=1
##FIRSTX=41
##LASTX=149
##FIRSTY=1262
##MAXX=149
##MINX=41
##MAXY=9999
##MINY=8
##NPOINTS=66
##PEAK TABLE=(XY..XY)
41,1262 42,2080 43,135 44,157
45,1953 46,172 47,375 49,203
50,331 51,559 52,455 53,1426
54,709 55,101 56,32 57,284
58,937 59,3564 60,585 61,186
62,21 64,215 65,10 66,32
67,9 68,260 69,538 70,364
71,3457 72,1111 74,15 76,257
77,128 78,95 80,51 81,69
82,44 83,69 84,213 85,1777
86,2195 87,318 88,132 91,8
98,9 100,190 102,57 103,283
104,273 105,46 106,22 110,32
111,42 112,958 113,75 114,49
117,166 118,8 119,8 130,24
144,394 145,9999 146,1157 147,926
148,92 149,34
##END=
