##TITLE=Benzoic acid, 4-amino-, hydrazide
##JCAMP-DX=4.24
##DATA TYPE=MASS SPECTRUM
##ORIGIN=Japan AIST/NIMC Database- Spectrum MS-NW-6185
##OWNER=NIST Mass Spectrometry Data Center
Collection (C) 2014 copyright by the U.S. Secretary of Commerce
on behalf of the United States of America. All rights reserved.
##CAS REGISTRY NO=5351-17-7
##$NIST MASS SPEC NO=234692
##MOLFORM=C7 H9 N3 O
##MW=151
##$NIST SOURCE=MSDC
##XUNITS=M/Z
##YUNITS=RELATIVE INTENSITY
##XFACTOR=1
##YFACTOR=1
##FIRSTX=15
##LASTX=153
##FIRSTY=10
##MAXX=153
##MINX=15
##MAXY=9999
##MINY=10
##NPOINTS=64
##PEAK TABLE=(XY..XY)
15,10 16,20 26,10 27,30
28,60 29,40 30,20 31,129
32,10 37,70 38,149 39,579
40,70 41,189 42,70 43,10
44,20 45,30 46,50 49,10
50,70 51,80 52,189 53,40
54,50 59,10 60,30 61,50
62,99 63,269 64,279 65,2139
66,269 67,20 74,30 75,30
76,20 77,20 78,20 79,20
80,20 88,10 89,10 90,70
91,309 92,3079 93,259 94,10
105,20 106,20 107,30 117,20
118,349 119,159 120,9999 121,839
122,60 134,60 135,10 136,80
137,20 151,1429 152,129 153,10
##END=
