##TITLE=N-Isopropyl-4-piperidone
##JCAMP-DX=4.24
##DATA TYPE=MASS SPECTRUM
##ORIGIN=NIST Mass Spectrometry Data Center
##OWNER=NIST Mass Spectrometry Data Center
Collection (C) 2014 copyright by the U.S. Secretary of Commerce
on behalf of the United States of America. All rights reserved.
##CAS REGISTRY NO=5355-68-0
##$NIST MASS SPEC NO=342298
##MOLFORM=C8 H15 N O
##MW=141
##$NIST SOURCE=MSDC
##XUNITS=M/Z
##YUNITS=RELATIVE INTENSITY
##XFACTOR=1
##YFACTOR=1
##FIRSTX=13
##LASTX=142
##FIRSTY=10
##MAXX=142
##MINX=13
##MAXY=9999
##MINY=10
##NPOINTS=57
##PEAK TABLE=(XY..XY)
13,10 14,80 15,500 16,10
18,60 26,340 27,1862 28,2212
29,480 30,480 31,20 35,60
37,20 38,80 39,651 40,250
41,1581 42,2122 43,981 44,260
45,10 49,40 50,20 51,30
52,70 53,120 54,611 55,991
56,9268 57,661 58,40 63,10
65,10 66,10 67,70 68,270
69,220 70,731 71,190 72,30
80,30 81,10 82,110 83,50
84,200 85,20 96,60 98,661
99,40 110,10 124,60 126,9999
127,781 128,50 140,160 141,791
142,90
##END=
