##TITLE=Naphthalene, 1,3,5,7-tetrachloro-
##JCAMP-DX=4.24
##DATA TYPE=MASS SPECTRUM
##ORIGIN=D.HENNEBERG, MAX-PLANCK INSTITUTE, MULHEIM, WEST GERMANY
##OWNER=NIST Mass Spectrometry Data Center
Collection (C) 2014 copyright by the U.S. Secretary of Commerce
on behalf of the United States of America. All rights reserved.
##CAS REGISTRY NO=53555-64-9
##$NIST MASS SPEC NO=61576
##MOLFORM=C10 H4 Cl4
##MW=264
##$NIST SOURCE=MSDC
##XUNITS=M/Z
##YUNITS=RELATIVE INTENSITY
##XFACTOR=1
##YFACTOR=1
##FIRSTX=27
##LASTX=273
##FIRSTY=56
##MAXX=273
##MINX=27
##MAXY=9999
##MINY=3
##NPOINTS=148
##PEAK TABLE=(XY..XY)
27,56 28,384 29,19 35,17
36,240 37,6 38,84 39,27
40,4 41,27 42,7 43,10
44,76 45,3 49,4 50,90
51,92 52,13 55,8 56,6
57,11 60,7 61,8 62,8
63,9 68,11 69,13 70,4
71,7 73,12 74,100 75,101
76,13 77,49 78,26 79,3
81,5 84,21 85,43 86,17
87,27 91,3 94,5 95,14
96,10 97,53 98,117 99,101
100,9 102,5 103,4 104,3
105,3 107,8 108,61 109,119
110,48 111,42 112,113 113,17
114,299 115,39 116,5 119,9
120,16 121,29 122,110 123,431
124,206 125,20 128,4 129,7
130,14 131,16 132,320 133,467
134,187 135,69 136,9 143,21
144,18 145,19 146,11 147,18
148,3 149,13 155,5 156,7
157,137 158,357 159,610 160,169
161,161 162,25 163,10 165,19
166,18 167,21 168,11 169,14
170,9 171,5 172,3 182,7
184,4 191,7 192,24 193,174
194,2755 195,420 196,1800 197,191
198,305 199,68 201,24 202,17
203,13 204,18 205,4 206,14
207,5 208,5 217,13 218,3
219,11 220,4 221,5 226,5
228,238 229,896 230,343 231,854
232,154 233,238 234,37 235,23
262,3 263,21 264,7837 265,881
266,9999 267,1077 268,4805 269,524
270,1047 271,111 272,84 273,8
##END=
