##TITLE=2,2-Bis(chloromethyl)-1-propanol
##JCAMP-DX=4.24
##DATA TYPE=MASS SPECTRUM
##ORIGIN=Japan AIST/NIMC Database- Spectrum MS-IW-2376
##OWNER=NIST Mass Spectrometry Data Center
Collection (C) 2014 copyright by the U.S. Secretary of Commerce
on behalf of the United States of America. All rights reserved.
##CAS REGISTRY NO=5355-54-4
##$NIST MASS SPEC NO=238923
##MOLFORM=C5 H10 Cl2 O
##MW=156
##$NIST SOURCE=MSDC
##XUNITS=M/Z
##YUNITS=RELATIVE INTENSITY
##XFACTOR=1
##YFACTOR=1
##FIRSTX=15
##LASTX=127
##FIRSTY=30
##MAXX=127
##MINX=15
##MAXY=9999
##MINY=10
##NPOINTS=76
##PEAK TABLE=(XY..XY)
15,30 17,10 18,30 26,40
27,669 28,109 29,509 30,30
31,1099 32,10 33,10 35,10
36,119 37,40 38,99 39,929
40,109 41,1229 42,80 43,979
44,50 45,159 47,10 48,10
49,319 50,80 51,219 52,40
53,1009 54,1179 55,4159 56,239
57,149 58,20 61,60 62,149
63,439 64,60 65,189 66,10
67,129 68,10 69,60 70,10
71,319 72,20 73,80 74,10
75,479 76,40 77,349 78,20
79,119 81,20 83,20 84,50
85,99 87,30 88,30 89,799
90,9999 91,849 92,3379 93,189
97,10 102,219 103,60 104,70
105,40 107,539 108,30 109,169
124,40 125,30 126,20 127,20
##END=
