##TITLE=2-Cyclohexen-1-ol, 2-methyl-5-(1-methylethyl)-, (1S-cis)-
##JCAMP-DX=4.24
##DATA TYPE=MASS SPECTRUM
##ORIGIN=G. SIPMA, POLAK@S FRUTAL, AMERSFOORT, HOLLAND.
##OWNER=NIST Mass Spectrometry Data Center
Collection (C) 2014 copyright by the U.S. Secretary of Commerce
on behalf of the United States of America. All rights reserved.
##CAS REGISTRY NO=536-30-1
##$NIST MASS SPEC NO=5067
##MOLFORM=C10 H18 O
##MW=154
##$NIST SOURCE=MSDC
##XUNITS=M/Z
##YUNITS=RELATIVE INTENSITY
##XFACTOR=1
##YFACTOR=1
##FIRSTX=26
##LASTX=155
##FIRSTY=340
##MAXX=155
##MINX=26
##MAXY=9999
##MINY=130
##NPOINTS=74
##PEAK TABLE=(XY..XY)
26,340 27,4630 29,3170 31,550
38,240 39,5240 40,1040 41,9999
42,1040 43,9510 44,550 45,730
50,340 51,1220 52,610 53,2870
54,1520 55,7070 56,2200 57,1150
58,340 59,440 63,370 65,1590
66,630 67,3480 68,760 69,6460
70,1040 71,1590 72,4020 73,270
77,3780 78,730 79,3160 80,620
81,3050 82,9020 83,5490 84,8540
85,1180 86,620 91,3780 92,1710
93,7560 94,910 95,2560 96,500
97,2800 98,880 99,170 103,150
105,550 107,730 108,380 109,840
110,500 111,4270 112,440 119,340
121,1460 122,170 123,130 125,1220
126,500 135,190 136,660 137,210
139,2930 140,300 152,600 153,400
154,4390 155,510
##END=
