##TITLE=Methyl 3-amino-4-hydroxybenzoate
##JCAMP-DX=4.24
##DATA TYPE=MASS SPECTRUM
##ORIGIN=NIST Mass Spectrometry Data Center, 1994
##OWNER=NIST Mass Spectrometry Data Center
Collection (C) 2014 copyright by the U.S. Secretary of Commerce
on behalf of the United States of America. All rights reserved.
##CAS REGISTRY NO=536-25-4
##$NIST MASS SPEC NO=134239
##MOLFORM=C8 H9 N O3
##MW=167
##$NIST SOURCE=MSDC
##XUNITS=M/Z
##YUNITS=RELATIVE INTENSITY
##XFACTOR=1
##YFACTOR=1
##FIRSTX=4
##LASTX=169
##FIRSTY=44
##MAXX=169
##MINX=4
##MAXY=9999
##MINY=10
##NPOINTS=85
##PEAK TABLE=(XY..XY)
4,44 13,13 14,72 15,451
16,10 17,31 18,24 26,80
27,255 28,616 29,359 30,129
31,213 32,53 37,89 38,185
39,314 40,153 41,133 42,71
43,22 44,78 45,30 49,74
50,353 51,680 52,869 53,1354
54,442 55,78 57,19 58,11
59,67 61,70 62,228 63,400
64,90 65,101 66,68 67,85
68,214 69,29 70,16 74,26
75,52 76,146 77,124 78,456
79,483 80,2250 81,157 82,23
84,43 88,12 90,140 91,70
92,24 93,27 94,50 95,114
96,35 106,149 107,621 108,3337
109,658 110,274 111,37 120,14
121,76 122,160 123,53 124,27
134,49 136,9999 137,861 138,239
139,37 148,14 149,13 150,38
151,31 152,62 167,9795 168,881
169,98
##END=
