##TITLE=Benzenamine, 3-methoxy-
##JCAMP-DX=4.24
##DATA TYPE=MASS SPECTRUM
##ORIGIN=NIST Mass Spectrometry Data Center, 1990.
##OWNER=NIST Mass Spectrometry Data Center
Collection (C) 2014 copyright by the U.S. Secretary of Commerce
on behalf of the United States of America. All rights reserved.
##CAS REGISTRY NO=536-90-3
##$NIST MASS SPEC NO=118261
##MOLFORM=C7 H9 N O
##MW=123
##$NIST SOURCE=MSDC
##XUNITS=M/Z
##YUNITS=RELATIVE INTENSITY
##XFACTOR=1
##YFACTOR=1
##FIRSTX=15
##LASTX=125
##FIRSTY=459
##MAXX=125
##MINX=15
##MAXY=9999
##MINY=35
##NPOINTS=56
##PEAK TABLE=(XY..XY)
15,459 17,35 18,79 26,177
27,561 29,252 30,194 37,297
38,789 39,1712 40,495 41,1087
42,224 43,53 44,79 46,141
47,160 49,67 50,518 51,856
52,1764 53,2946 54,648 55,59
61,212 62,396 63,842 64,629
65,1768 66,3085 67,443 68,284
74,114 75,95 76,126 77,659
78,429 79,735 80,3948 81,300
90,61 91,203 92,1067 93,5646
94,7504 95,1212 96,61 104,147
105,280 106,239 107,367 108,105
122,1389 123,9999 124,801 125,59
##END=
