##TITLE=Butanoic acid, 3-hydroxy-, butyl ester
##JCAMP-DX=4.24
##DATA TYPE=MASS SPECTRUM
##ORIGIN=FOOD RESEARCH REPORT 120, K.E. MURRAY & COLLEAGUES, DIV. OF FOOD RESEARCH, CSIRO, AUSTRALIA
##OWNER=NIST Mass Spectrometry Data Center
Collection (C) 2014 copyright by the U.S. Secretary of Commerce
on behalf of the United States of America. All rights reserved.
##CAS REGISTRY NO=53605-94-0
##$NIST MASS SPEC NO=53536
##MOLFORM=C8 H16 O3
##MW=160
##$NIST SOURCE=MSDC
##XUNITS=M/Z
##YUNITS=RELATIVE INTENSITY
##XFACTOR=1
##YFACTOR=1
##FIRSTX=25
##LASTX=145
##FIRSTY=100
##MAXX=145
##MINX=25
##MAXY=9999
##MINY=100
##NPOINTS=45
##PEAK TABLE=(XY..XY)
25,100 26,500 27,3200 29,5400
30,200 31,2300 33,200 37,100
38,200 39,2600 40,600 41,7100
42,3200 43,9999 45,5800 46,100
51,100 53,200 54,100 55,1300
56,6900 57,3700 58,600 59,100
60,2700 61,1000 68,300 69,5700
70,400 71,1100 72,200 73,600
75,100 85,600 86,800 87,8800
88,400 89,2100 99,100 101,100
103,200 104,200 105,300 127,100
145,400
##END=
