##TITLE=p-Methylsulfonylbenzyl chloride
##JCAMP-DX=4.24
##DATA TYPE=MASS SPECTRUM
##ORIGIN=NIST Mass Spectrometry Data Center, 1994
##OWNER=NIST Mass Spectrometry Data Center
Collection (C) 2014 copyright by the U.S. Secretary of Commerce
on behalf of the United States of America. All rights reserved.
##CAS REGISTRY NO=53606-06-7
##$NIST MASS SPEC NO=134838
##MOLFORM=C8 H9 Cl O2 S
##MW=204
##$NIST SOURCE=MSDC
##XUNITS=M/Z
##YUNITS=RELATIVE INTENSITY
##XFACTOR=1
##YFACTOR=1
##FIRSTX=14
##LASTX=208
##FIRSTY=130
##MAXX=208
##MINX=14
##MAXY=9999
##MINY=49
##NPOINTS=102
##PEAK TABLE=(XY..XY)
14,130 15,1689 18,52 26,95
27,192 28,457 29,175 31,86
32,172 33,53 35,121 36,105
37,184 38,647 39,2015 40,299
41,70 44,85 45,338 46,88
47,85 48,243 49,234 50,912
51,1600 52,345 53,109 61,310
62,1393 63,4496 64,1405 65,539
66,103 69,202 73,494 74,262
75,476 76,103 77,3076 78,785
79,463 82,49 84,54 85,164
86,355 87,313 88,49 89,7645
90,3346 91,347 93,67 94,78
95,64 97,78 99,1226 100,99
101,377 102,60 103,131 104,133
105,96 106,60 107,5539 108,486
109,102 110,114 112,73 113,794
114,69 115,252 121,180 122,107
123,76 124,69 125,9999 126,840
127,3169 128,210 137,103 138,474
139,96 140,76 141,4544 142,1003
143,1455 144,271 154,71 169,1898
170,190 171,129 173,168 175,73
189,4400 190,444 191,1566 192,161
193,74 204,3552 205,429 206,1284
207,104 208,67
##END=
