##TITLE=Methyl 11-oxo-9-undecenoate
##JCAMP-DX=4.24
##DATA TYPE=MASS SPECTRUM
##ORIGIN=A.Kamal-Eldin ET AL.J.Chrom.,776,245(1997)
##OWNER=NIST Mass Spectrometry Data Center
Collection (C) 2014 copyright by the U.S. Secretary of Commerce
on behalf of the United States of America. All rights reserved.
##CAS REGISTRY NO=53613-55-1
##$NIST MASS SPEC NO=293162
##MOLFORM=C12 H20 O3
##MW=212
##$NIST SOURCE=MSDC
##XUNITS=M/Z
##YUNITS=RELATIVE INTENSITY
##XFACTOR=1
##YFACTOR=1
##FIRSTX=41
##LASTX=212
##FIRSTY=9999
##MAXX=212
##MINX=41
##MAXY=9999
##MINY=40
##NPOINTS=62
##PEAK TABLE=(XY..XY)
41,9999 42,1431 43,3293 53,1531
54,1101 55,6866 56,771 57,2272
58,150 65,320 66,360 67,2202
68,1061 69,3313 70,3303 71,581
73,881 74,3823 78,140 79,1141
80,671 81,1912 82,851 83,2813
84,1561 85,420 87,1792 88,220
91,450 92,300 93,791 94,851
95,1281 96,871 97,961 98,2392
99,320 101,250 103,350 105,230
107,340 108,390 109,671 110,460
111,661 112,390 113,120 115,120
119,180 120,330 121,360 123,330
125,270 129,130 135,390 136,270
137,170 151,160 152,450 180,240
181,320 212,40
##END=
