##TITLE=4-Dimethylamino-3,5-dinitrobenzoic acid
##JCAMP-DX=4.24
##DATA TYPE=MASS SPECTRUM
##ORIGIN=NIST Mass Spectrometry Data Center, 1994
##OWNER=NIST Mass Spectrometry Data Center
Collection (C) 2014 copyright by the U.S. Secretary of Commerce
on behalf of the United States of America. All rights reserved.
##CAS REGISTRY NO=53639-29-5
##$NIST MASS SPEC NO=133746
##MOLFORM=C9 H9 N3 O6
##MW=255
##$NIST SOURCE=MSDC
##XUNITS=M/Z
##YUNITS=RELATIVE INTENSITY
##XFACTOR=1
##YFACTOR=1
##FIRSTX=15
##LASTX=256
##FIRSTY=452
##MAXX=256
##MINX=15
##MAXY=9999
##MINY=29
##NPOINTS=99
##PEAK TABLE=(XY..XY)
15,452 18,252 28,101 29,319
30,855 39,1001 41,544 42,1960
43,421 44,538 45,755 50,749
51,1446 52,669 53,498 61,420
62,624 63,1020 64,598 65,2995
66,1093 67,796 68,304 73,468
74,1040 75,1190 76,963 77,2074
78,924 79,1618 80,633 81,410
88,727 89,764 90,1114 91,1303
92,947 93,894 94,796 95,603
96,297 101,239 102,372 103,976
104,1058 105,1561 106,884 107,1742
108,332 116,364 117,1200 118,1133
119,939 120,557 121,834 122,816
123,248 130,240 131,770 132,821
133,1234 134,483 135,793 136,508
145,603 147,276 148,839 149,389
150,513 151,337 152,317 161,3248
162,4099 163,1433 164,429 175,1230
176,454 177,1072 178,1278 179,359
180,291 191,299 192,1489 193,452
196,264 206,163 207,85 208,1426
209,404 210,364 221,317 225,505
234,29 238,9999 239,1257 240,458
254,492 255,6055 256,588
##END=
