##TITLE=Hexane, 1-(ethenyloxy)-
##JCAMP-DX=4.24
##DATA TYPE=MASS SPECTRUM
##OWNER=NIST Mass Spectrometry Data Center
Collection (C) 2014 copyright by the U.S. Secretary of Commerce
on behalf of the United States of America. All rights reserved.
##CAS REGISTRY NO=5363-64-4
##$NIST MASS SPEC NO=2702
##MOLFORM=C8 H16 O
##MW=128
##$NIST SOURCE=MSDC
##XUNITS=M/Z
##YUNITS=RELATIVE INTENSITY
##XFACTOR=1
##YFACTOR=1
##FIRSTX=12
##LASTX=128
##FIRSTY=20
##MAXX=128
##MINX=12
##MAXY=9999
##MINY=20
##NPOINTS=49
##PEAK TABLE=(XY..XY)
12,20 13,50 14,230 15,761
16,30 17,20 18,60 19,30
25,20 26,310 27,2913 28,611
29,2732 30,80 31,701 32,20
37,30 38,80 39,1181 40,220
41,3273 42,1291 43,9999 44,971
45,380 50,30 51,60 52,30
53,170 54,130 55,1511 56,1732
57,1231 58,70 59,110 67,80
68,40 69,741 70,70 71,50
81,20 82,540 83,190 84,480
85,320 86,20 113,661 114,50
128,40
##END=
