##TITLE=4-Heptadecanone
##JCAMP-DX=4.24
##DATA TYPE=MASS SPECTRUM
##ORIGIN=NIST Mass Spectrometry Data Center
##OWNER=NIST Mass Spectrometry Data Center
Collection (C) 2014 copyright by the U.S. Secretary of Commerce
on behalf of the United States of America. All rights reserved.
##CAS REGISTRY NO=53685-77-1
##$NIST MASS SPEC NO=343152
##MOLFORM=C17 H34 O
##MW=254
##$NIST SOURCE=MSDC
##XUNITS=M/Z
##YUNITS=RELATIVE INTENSITY
##XFACTOR=1
##YFACTOR=1
##FIRSTX=15
##LASTX=255
##FIRSTY=40
##MAXX=255
##MINX=15
##MAXY=9999
##MINY=10
##NPOINTS=85
##PEAK TABLE=(XY..XY)
15,40 16,10 18,30 27,1651
28,380 29,2362 30,50 39,801
41,5235 42,1361 43,9999 44,310
45,100 51,10 53,240 54,270
55,2672 56,691 57,3293 58,4864
59,120 60,10 65,50 67,440
68,180 69,1001 71,6756 72,340
73,10 77,30 79,90 80,30
81,470 82,180 83,490 84,180
85,901 86,5235 87,2833 88,160
91,10 93,30 95,561 96,170
97,370 99,1451 100,130 101,10
107,10 109,340 110,140 111,230
112,50 113,300 114,30 121,10
123,170 124,80 125,50 126,10
127,70 128,170 129,20 137,90
138,50 139,10 141,60 142,60
151,20 152,20 155,110 156,10
166,110 167,10 168,20 169,50
183,10 193,10 209,10 211,1511
212,230 213,10 225,10 254,50
255,20
##END=
