##TITLE=2-Heptanol, TMS derivative
##JCAMP-DX=4.24
##DATA TYPE=MASS SPECTRUM
##ORIGIN=NIST Mass Spectrometry Data Center
##OWNER=NIST Mass Spectrometry Data Center
Collection (C) 2014 copyright by the U.S. Secretary of Commerce
on behalf of the United States of America. All rights reserved.
##CAS REGISTRY NO=53690-75-8
##$NIST MASS SPEC NO=333302
##MOLFORM=C10 H24 O Si
##MW=188
##$NIST SOURCE=MSDC
##XUNITS=M/Z
##YUNITS=RELATIVE INTENSITY
##XFACTOR=1
##YFACTOR=1
##FIRSTX=15
##LASTX=188
##FIRSTY=20
##MAXX=188
##MINX=15
##MAXY=9999
##MINY=10
##NPOINTS=84
##PEAK TABLE=(XY..XY)
15,20 26,10 27,180 28,50
29,360 30,10 31,20 39,150
40,30 41,400 42,90 43,440
44,120 45,631 46,50 47,320
48,20 49,10 51,20 52,10
53,60 54,20 55,330 56,110
57,110 58,160 59,370 60,100
61,520 62,30 63,20 65,10
67,30 68,10 69,80 70,80
71,70 72,250 73,6126 74,671
75,5045 76,390 77,190 78,10
79,10 81,20 83,120 84,10
85,70 86,20 87,170 88,20
89,40 91,50 95,10 97,50
98,40 99,90 100,20 101,510
102,160 103,390 104,40 105,10
111,10 113,40 115,270 117,9999
118,1762 119,661 120,40 127,10
129,250 130,40 131,20 143,30
157,30 159,10 173,2292 174,350
175,100 176,10 187,90 188,20
##END=
