##TITLE=Trilinolein
##JCAMP-DX=4.24
##DATA TYPE=MASS SPECTRUM
##ORIGIN=Japan AIST/NIMC Database- Spectrum MS-IW-5614
##OWNER=NIST Mass Spectrometry Data Center
Collection (C) 2014 copyright by the U.S. Secretary of Commerce
on behalf of the United States of America. All rights reserved.
##CAS REGISTRY NO=537-40-6
##$NIST MASS SPEC NO=237314
##MOLFORM=C57 H98 O6
##MW=878
##$NIST SOURCE=MSDC
##XUNITS=M/Z
##YUNITS=RELATIVE INTENSITY
##XFACTOR=1
##YFACTOR=1
##FIRSTX=15
##LASTX=879
##FIRSTY=99
##MAXX=879
##MINX=15
##MAXY=9999
##MINY=10
##NPOINTS=366
##PEAK TABLE=(XY..XY)
15,99 17,10 18,30 26,379
27,1509 28,1199 29,1849 30,80
31,129 38,99 39,1389 40,359
41,5289 42,1029 43,3509 44,519
45,329 50,109 51,229 52,159
53,1099 54,3109 55,8399 56,1239
57,2519 58,229 59,149 60,579
61,109 63,109 65,559 66,699
67,9999 68,3249 69,4489 70,559
71,1019 72,109 73,519 77,1039
78,569 79,4099 80,2699 81,8299
82,3859 83,2729 84,659 85,759
86,90 87,179 89,80 91,2439
92,879 93,2699 94,1579 95,6109
96,3049 97,1809 98,1139 99,709
100,149 101,279 103,149 104,189
105,2039 106,679 107,1709 108,1059
109,3109 110,1909 111,999 112,369
113,389 114,129 115,339 116,279
117,829 118,199 119,1049 120,469
121,1709 122,859 123,2149 124,1119
125,569 126,249 127,479 128,229
129,749 130,189 131,909 132,239
133,929 134,439 135,1589 136,1049
137,1309 138,649 139,329 140,239
141,239 142,109 143,399 144,129
145,529 146,219 147,889 148,449
149,1339 150,879 151,889 152,389
153,499 154,209 155,419 156,99
157,259 158,149 159,489 160,199
161,709 162,409 163,989 164,659
165,659 166,219 167,279 168,279
169,219 171,379 172,99 173,359
174,129 175,569 176,309 177,579
178,389 179,309 180,169 181,259
182,219 183,269 184,80 185,319
186,99 187,399 188,119 189,529
190,239 191,419 192,159 193,249
194,189 195,259 196,209 197,159
199,279 200,99 201,439 202,119
203,299 204,149 205,329 206,239
207,209 208,109 209,249 210,169
211,179 213,269 214,129 215,299
216,80 217,199 218,259 219,289
220,279 221,259 222,139 223,249
224,70 225,139 226,80 227,209
228,149 229,249 230,109 231,159
232,349 233,249 234,469 235,269
236,109 237,229 238,109 239,209
240,60 241,239 242,119 243,259
244,159 245,329 246,149 247,199
248,119 249,119 250,60 251,199
253,219 254,99 255,269 256,109
257,169 258,279 259,519 260,1839
261,1269 262,2619 263,1869 264,509
265,269 266,80 267,149 269,119
271,129 272,70 273,139 274,169
275,189 276,239 277,419 278,309
279,739 280,1349 281,419 282,90
283,109 285,129 286,90 287,129
288,149 289,109 290,90 291,129
292,70 293,129 294,80 295,80
297,90 299,109 300,80 301,129
303,99 304,109 305,149 307,99
309,70 311,129 313,60 315,119
316,149 317,209 318,219 319,269
320,139 321,289 322,80 323,129
324,80 325,80 327,80 331,119
332,60 333,309 334,209 335,479
336,639 337,1599 338,439 339,579
340,159 341,109 343,80 344,80
345,80 347,90 349,99 351,329
352,119 353,199 354,70 355,119
357,90 359,109 361,80 362,70
365,70 367,139 369,119 371,139
375,70 377,80 378,80 379,139
380,60 381,119 382,129 383,99
384,99 385,80 387,80 389,70
390,70 391,489 392,169 393,109
394,139 395,99 396,249 397,199
398,90 399,70 401,90 403,80
405,109 406,70 407,90 409,80
414,60 415,70 416,70 417,70
418,70 427,70 429,60 430,90
431,60 433,70 445,70 447,169
448,99 449,99 457,60 460,60
461,119 462,139 463,149 464,109
472,60 475,70 487,99 489,90
491,80 499,60 597,189 598,409
599,589 600,259 601,129 602,70
613,80 615,119 616,99 617,70
878,189 879,70
##END=
