##TITLE=Imidodicarbonimidic diamide, N-(3,4-dichlorophenyl)-N'-(1-methylethyl)-
##JCAMP-DX=4.24
##DATA TYPE=MASS SPECTRUM
##ORIGIN=Finnigan MAT: Toxicological Library (LIBR-TX)
##OWNER=NIST Mass Spectrometry Data Center
Collection (C) 2014 copyright by the U.S. Secretary of Commerce
on behalf of the United States of America. All rights reserved.
##CAS REGISTRY NO=537-21-3
##$NIST MASS SPEC NO=120568
##MOLFORM=C11 H15 Cl2 N5
##MW=287
##$NIST SOURCE=MSDC
##XUNITS=M/Z
##YUNITS=RELATIVE INTENSITY
##XFACTOR=1
##YFACTOR=1
##FIRSTX=43
##LASTX=289
##FIRSTY=8022
##MAXX=289
##MINX=43
##MAXY=9999
##MINY=288
##NPOINTS=41
##PEAK TABLE=(XY..XY)
43,8022 44,4776 58,2774 59,1438
60,492 68,1051 69,893 75,394
84,478 85,3187 86,1782 99,406
101,292 109,728 111,296 124,875
127,9999 128,620 145,884 147,615
151,292 159,605 161,4795 163,2511
186,2869 187,1502 188,1987 189,977
203,701 204,501 205,499 212,290
214,288 229,6474 230,1221 231,3988
272,591 274,309 287,2808 288,494
289,1895
##END=
