##TITLE=9-Octadecenoic acid, 1,2,3-propanetriyl ester, (E,E,E)-
##JCAMP-DX=4.24
##DATA TYPE=MASS SPECTRUM
##ORIGIN=Japan AIST/NIMC Database- Spectrum MS-IW-5067
##OWNER=NIST Mass Spectrometry Data Center
Collection (C) 2014 copyright by the U.S. Secretary of Commerce
on behalf of the United States of America. All rights reserved.
##CAS REGISTRY NO=537-39-3
##$NIST MASS SPEC NO=237316
##MOLFORM=C57 H104 O6
##MW=884
##$NIST SOURCE=MSDC
##XUNITS=M/Z
##YUNITS=RELATIVE INTENSITY
##XFACTOR=1
##YFACTOR=1
##FIRSTX=14
##LASTX=885
##FIRSTY=10
##MAXX=885
##MINX=14
##MAXY=9999
##MINY=10
##NPOINTS=341
##PEAK TABLE=(XY..XY)
14,10 15,30 16,30 17,50
18,199 25,40 26,279 27,1119
28,999 29,1399 30,50 31,50
32,10 36,20 37,70 38,119
39,1379 40,339 41,5149 42,1099
43,4069 44,599 45,189 46,10
49,20 50,109 51,179 52,109
53,759 54,2429 55,9999 56,2569
57,3979 58,239 59,109 60,329
61,70 62,20 63,70 64,30
65,279 66,369 67,5599 68,2619
69,7739 70,2349 71,1789 72,109
73,649 74,80 75,40 76,50
77,409 78,339 79,1619 80,1099
81,5639 82,3419 83,7029 84,2679
85,1149 86,90 87,279 88,60
89,50 90,20 91,909 92,379
93,1199 94,969 95,4479 96,2979
97,5169 98,6189 99,859 100,329
101,449 102,80 103,80 104,119
105,509 106,209 107,889 108,719
109,2429 110,1689 111,2769 112,1499
113,499 114,489 115,419 116,309
117,379 118,109 119,589 120,249
121,1279 122,499 123,1569 124,1019
125,1079 126,539 127,439 128,219
129,849 130,159 131,219 132,109
133,609 134,449 135,1089 136,339
137,1149 138,759 139,559 140,209
141,279 142,99 143,209 144,70
145,139 146,70 147,479 148,329
149,579 150,239 151,1069 152,699
153,399 154,169 155,289 156,80
157,119 158,329 159,109 160,40
161,269 162,109 163,299 164,209
165,659 166,449 167,279 168,109
169,249 170,70 171,559 172,149
173,80 174,30 175,159 176,60
177,179 178,139 179,339 180,289
181,189 182,90 183,169 184,50
185,299 186,80 187,60 188,20
189,129 190,40 191,129 192,80
193,209 194,149 195,109 196,60
197,90 198,30 199,99 200,40
201,30 202,50 203,90 204,30
205,80 206,50 207,279 208,139
209,99 210,40 211,60 212,20
213,109 214,70 215,70 216,40
217,50 218,40 219,50 220,439
221,349 222,249 223,80 224,30
225,60 226,60 227,239 228,80
229,40 230,50 231,30 232,40
233,40 234,60 235,139 236,159
237,60 238,30 239,90 240,99
241,119 242,80 243,30 244,50
245,119 246,439 247,339 248,90
249,50 250,20 251,10 252,10
253,60 254,30 255,30 256,40
257,10 258,10 259,10 260,20
261,40 262,359 263,299 264,1699
265,1329 266,259 267,70 268,20
269,30 270,20 271,10 274,10
275,10 277,10 278,20 279,80
280,90 281,70 282,139 283,80
284,50 285,10 291,10 293,10
295,60 296,10 297,40 298,10
307,10 309,20 310,10 311,20
319,10 320,30 321,30 322,50
323,119 324,30 325,20 335,10
336,30 337,159 338,399 339,939
340,209 341,70 342,10 351,20
353,10 354,10 356,10 357,10
365,10 367,10 379,10 380,50
381,50 382,10 391,10 393,839
394,229 395,50 396,10 407,40
408,10 419,30 420,10 421,10
433,10 435,50 436,30 437,10
447,30 448,10 449,409 450,129
451,30 461,10 463,20 464,10
475,10 476,10 477,10 478,10
489,10 490,10 491,10 492,20
503,60 504,10 505,40 506,50
517,30 518,10 520,20 529,10
531,10 559,40 561,10 573,10
587,10 603,739 866,10 884,20
885,20
##END=
