##TITLE=trans-Ferulic acid
##JCAMP-DX=4.24
##DATA TYPE=MASS SPECTRUM
##ORIGIN=Japan AIST/NIMC Database- Spectrum MS-IW-6609
##OWNER=NIST Mass Spectrometry Data Center
Collection (C) 2014 copyright by the U.S. Secretary of Commerce
on behalf of the United States of America. All rights reserved.
##CAS REGISTRY NO=537-98-4
##$NIST MASS SPEC NO=241932
##MOLFORM=C10 H10 O4
##MW=194
##$NIST SOURCE=MSDC
##XUNITS=M/Z
##YUNITS=RELATIVE INTENSITY
##XFACTOR=1
##YFACTOR=1
##FIRSTX=15
##LASTX=197
##FIRSTY=40
##MAXX=197
##MINX=15
##MAXY=9999
##MINY=10
##NPOINTS=125
##PEAK TABLE=(XY..XY)
15,40 17,30 18,10 26,20
27,80 28,99 29,20 31,10
37,20 38,80 39,249 40,30
41,99 42,10 43,80 44,169
45,80 49,20 50,229 51,549
52,239 53,279 54,30 55,269
56,10 59,20 61,50 62,159
63,319 64,70 65,189 66,99
67,249 68,30 69,239 70,10
71,30 73,10 74,90 75,80
76,109 77,699 78,329 79,189
80,30 81,109 82,10 83,60
85,20 86,20 87,40 88,109
89,449 90,70 91,149 92,30
93,80 94,50 95,309 96,20
97,99 98,10 101,10 102,30
103,60 104,30 105,569 106,149
107,369 108,60 109,159 110,30
111,20 116,10 117,329 118,149
119,90 120,40 121,40 122,30
123,329 124,40 125,30 129,10
130,70 131,30 132,30 133,1359
134,429 135,329 136,40 137,90
138,10 140,10 145,499 146,99
147,90 148,369 149,289 150,439
151,459 152,70 153,20 158,50
160,20 161,739 162,109 163,90
164,10 165,20 166,50 167,10
175,20 176,519 177,859 178,139
179,1899 180,189 181,20 191,10
193,609 194,9999 195,1109 196,139
197,10
##END=
