##TITLE=3-Hydroxy-4-methoxycinnamic acid
##JCAMP-DX=4.24
##DATA TYPE=MASS SPECTRUM
##ORIGIN=Japan AIST/NIMC Database- Spectrum MS-NW-6217
##OWNER=NIST Mass Spectrometry Data Center
Collection (C) 2014 copyright by the U.S. Secretary of Commerce
on behalf of the United States of America. All rights reserved.
##CAS REGISTRY NO=537-73-5
##$NIST MASS SPEC NO=232256
##MOLFORM=C10 H10 O4
##MW=194
##$NIST SOURCE=MSDC
##XUNITS=M/Z
##YUNITS=RELATIVE INTENSITY
##XFACTOR=1
##YFACTOR=1
##FIRSTX=14
##LASTX=197
##FIRSTY=20
##MAXX=197
##MINX=14
##MAXY=9999
##MINY=10
##NPOINTS=145
##PEAK TABLE=(XY..XY)
14,20 15,309 17,20 18,70
26,90 27,309 28,50 29,169
30,20 31,30 37,90 38,219
39,679 40,99 41,329 42,40
43,199 44,99 45,249 46,20
47,20 48,10 49,60 50,509
51,1289 52,599 53,489 54,70
55,629 56,20 57,40 58,20
59,40 60,20 61,109 62,329
63,609 64,129 65,379 66,199
67,549 68,70 69,519 70,30
71,60 73,30 74,149 75,149
76,169 77,1389 78,629 79,389
80,90 81,189 82,40 83,139
84,20 85,40 86,40 87,70
88,149 89,709 90,90 91,229
92,50 93,129 94,119 95,689
96,60 97,139 98,20 101,20
102,20 103,90 104,30 105,839
106,239 107,549 108,99 109,269
110,60 111,30 113,10 116,10
117,369 118,139 119,90 120,80
121,109 122,60 123,609 124,50
125,40 126,10 127,10 128,10
129,10 130,40 131,30 132,20
133,1839 134,639 135,139 136,60
137,70 138,20 140,20 144,10
145,169 146,60 147,359 148,349
149,339 150,139 151,639 152,129
153,40 156,10 159,10 160,10
161,419 162,80 163,40 164,20
165,60 166,40 167,20 169,10
171,10 172,10 173,10 175,60
176,90 177,699 178,109 179,3309
180,339 181,70 191,10 192,30
193,319 194,9999 195,1239 196,149
197,10
##END=
