##TITLE=Tropacocaine
##JCAMP-DX=4.24
##DATA TYPE=MASS SPECTRUM
##ORIGIN=AAFS Toxicology Section MS DB Committee, U. Alberta, Canada
##OWNER=NIST Mass Spectrometry Data Center
Collection (C) 2014 copyright by the U.S. Secretary of Commerce
on behalf of the United States of America. All rights reserved.
##CAS REGISTRY NO=537-26-8
##$NIST MASS SPEC NO=246403
##MOLFORM=C15 H19 N O2
##MW=245
##$NIST SOURCE=MSDC
##XUNITS=M/Z
##YUNITS=RELATIVE INTENSITY
##XFACTOR=1
##YFACTOR=1
##FIRSTX=38
##LASTX=247
##FIRSTY=40
##MAXX=247
##MINX=38
##MAXY=9999
##MINY=10
##NPOINTS=63
##PEAK TABLE=(XY..XY)
38,40 39,180 40,30 41,350
42,1080 43,60 44,190 50,160
51,580 52,40 53,120 54,150
55,290 56,240 57,100 58,80
63,30 65,150 66,50 67,1271
68,370 69,100 70,210 71,10
74,50 75,60 76,120 77,2312
78,220 79,120 80,190 81,630
82,4884 83,2702 84,240 85,20
91,180 92,50 93,210 94,3353
95,1371 96,1261 97,370 98,120
105,1621 106,160 107,70 108,220
109,80 110,60 111,30 112,40
121,30 122,460 123,940 124,9999
125,900 126,70 140,680 141,90
245,1521 246,230 247,30
##END=
