##TITLE=Furan, 2,5-dihydro-3,4-dimethyl-
##JCAMP-DX=4.24
##DATA TYPE=MASS SPECTRUM
##ORIGIN=D.HENNEBERG, MAX-PLANCK INSTITUTE, MULHEIM, WEST GERMANY
##OWNER=NIST Mass Spectrometry Data Center
Collection (C) 2014 copyright by the U.S. Secretary of Commerce
on behalf of the United States of America. All rights reserved.
##CAS REGISTRY NO=53720-72-2
##$NIST MASS SPEC NO=60949
##MOLFORM=C6 H10 O
##MW=98
##$NIST SOURCE=MSDC
##XUNITS=M/Z
##YUNITS=RELATIVE INTENSITY
##XFACTOR=1
##YFACTOR=1
##FIRSTX=25
##LASTX=100
##FIRSTY=13
##MAXX=100
##MINX=25
##MAXY=9999
##MINY=1
##NPOINTS=65
##PEAK TABLE=(XY..XY)
25,13 26,177 27,1387 28,749
29,1173 30,64 31,86 32,3
33,4 36,6 37,109 38,245
39,2421 40,564 41,9999 42,1091
43,4430 44,122 45,39 46,3
47,41 48,46 49,37 50,233
51,352 52,147 53,1057 54,169
55,3070 56,194 57,165 58,105
59,2 60,3 61,28 62,72
63,106 64,20 65,268 66,110
67,881 68,235 69,4590 70,612
71,33 73,1 75,35 77,134
78,11 79,233 80,43 81,86
82,88 83,3888 84,209 85,10
88,4 93,3 94,4 95,114
96,212 97,1115 98,4660 99,275
100,13
##END=
