##TITLE=2-Butanol, 3-methoxy-
##JCAMP-DX=4.24
##DATA TYPE=MASS SPECTRUM
##OWNER=NIST Mass Spectrometry Data Center
Collection (C) 2014 copyright by the U.S. Secretary of Commerce
on behalf of the United States of America. All rights reserved.
##CAS REGISTRY NO=53778-72-6
##$NIST MASS SPEC NO=1267
##MOLFORM=C5 H12 O2
##MW=104
##$NIST SOURCE=MSDC
##XUNITS=M/Z
##YUNITS=RELATIVE INTENSITY
##XFACTOR=1
##YFACTOR=1
##FIRSTX=14
##LASTX=105
##FIRSTY=30
##MAXX=105
##MINX=14
##MAXY=9999
##MINY=10
##NPOINTS=53
##PEAK TABLE=(XY..XY)
14,30 15,350 16,10 17,30
18,140 19,70 26,60 27,420
28,130 29,1311 30,50 31,1271
32,20 33,240 37,10 38,10
39,120 40,20 41,250 42,100
43,981 44,70 45,1601 46,40
47,50 50,20 51,20 52,10
53,40 54,10 55,390 56,40
57,711 58,500 59,9999 60,350
61,90 69,10 71,300 72,30
73,200 74,20 75,50 85,10
86,10 87,50 88,10 89,200
90,10 91,10 103,20 104,90
105,10
##END=
