##TITLE=Cyclopropane, 1-ethyl-1-methyl-
##JCAMP-DX=4.24
##DATA TYPE=MASS SPECTRUM
##OWNER=NIST Mass Spectrometry Data Center
Collection (C) 2014 copyright by the U.S. Secretary of Commerce
on behalf of the United States of America. All rights reserved.
##CAS REGISTRY NO=53778-43-1
##$NIST MASS SPEC NO=503
##MOLFORM=C6 H12
##MW=84
##$NIST SOURCE=MSDC
##XUNITS=M/Z
##YUNITS=RELATIVE INTENSITY
##XFACTOR=1
##YFACTOR=1
##FIRSTX=1
##LASTX=86
##FIRSTY=90
##MAXX=86
##MINX=1
##MAXY=9999
##MINY=10
##NPOINTS=62
##PEAK TABLE=(XY..XY)
1,90 2,10 12,20 13,30
14,170 15,781 16,40 25,20
26,591 27,4274 28,1001 29,2973
30,80 31,20 32,30 33,10
36,10 37,150 38,350 39,3513
40,621 41,9999 42,1962 43,851
44,50 48,10 49,60 50,350
51,510 52,180 53,1141 54,641
55,7477 56,3803 57,330 60,10
61,20 62,40 63,70 64,10
65,100 66,40 67,360 68,70
69,6766 70,370 71,20 72,10
73,10 74,10 75,10 76,10
77,30 78,10 79,20 80,10
81,20 82,10 83,50 84,3163
85,210 86,10
##END=
