##TITLE=Bicyclo[2.2.1]hept-2-en-7-ol
##JCAMP-DX=4.24
##DATA TYPE=MASS SPECTRUM
##ORIGIN=TAT 0971
##OWNER=NIST Mass Spectrometry Data Center
Collection (C) 2014 copyright by the U.S. Secretary of Commerce
on behalf of the United States of America. All rights reserved.
##CAS REGISTRY NO=53783-87-2
##$NIST MASS SPEC NO=1516
##MOLFORM=C7 H10 O
##MW=110
##$NIST SOURCE=MSDC
##XUNITS=M/Z
##YUNITS=RELATIVE INTENSITY
##XFACTOR=1
##YFACTOR=1
##FIRSTX=26
##LASTX=112
##FIRSTY=801
##MAXX=112
##MINX=26
##MAXY=9999
##MINY=100
##NPOINTS=41
##PEAK TABLE=(XY..XY)
26,801 27,3503 28,400 29,1501
31,801 32,100 40,801 41,4604
42,801 43,3103 44,300 50,1201
51,1902 52,801 53,3103 54,2302
55,2702 56,200 63,801 64,100
65,1501 66,1201 67,3803 68,1201
69,801 77,4604 78,2702 79,1501
80,2302 81,9999 82,4204 83,801
91,4604 92,4204 93,801 95,5005
96,400 109,1501 110,7307 111,801
112,100
##END=
