##TITLE=1,2-Propanediol, 3-phenoxy-
##JCAMP-DX=4.24
##DATA TYPE=MASS SPECTRUM
##OWNER=NIST Mass Spectrometry Data Center
Collection (C) 2014 copyright by the U.S. Secretary of Commerce
on behalf of the United States of America. All rights reserved.
##CAS REGISTRY NO=538-43-2
##$NIST MASS SPEC NO=6494
##MOLFORM=C9 H12 O3
##MW=168
##$NIST SOURCE=MSDC
##XUNITS=M/Z
##YUNITS=RELATIVE INTENSITY
##XFACTOR=1
##YFACTOR=1
##FIRSTX=18
##LASTX=169
##FIRSTY=200
##MAXX=169
##MINX=18
##MAXY=9999
##MINY=40
##NPOINTS=71
##PEAK TABLE=(XY..XY)
18,200 19,470 26,110 27,751
28,881 29,1431 30,100 31,1351
32,150 35,70 36,711 37,90
38,420 39,1191 40,300 41,240
42,140 43,1111 44,190 45,430
47,70 50,280 51,1021 52,140
53,100 55,290 56,110 57,841
58,90 59,90 60,60 61,410
62,80 63,180 64,110 65,811
66,661 67,90 68,50 69,60
71,50 72,50 73,70 74,160
75,140 76,90 77,2032 78,621
79,400 80,40 87,50 91,330
93,200 94,9999 95,1321 96,50
101,90 107,681 108,641 109,70
117,100 119,450 120,60 121,50
131,40 133,80 136,70 137,180
150,40 168,1431 169,150
##END=
