##TITLE=Dicyclohexylcarbodiimide
##JCAMP-DX=4.24
##DATA TYPE=MASS SPECTRUM
##ORIGIN=W. KELLY UNILEVER RESEARCH COLWORTH/WELWYN, BEDFORD U.K.
##OWNER=NIST Mass Spectrometry Data Center
Collection (C) 2014 copyright by the U.S. Secretary of Commerce
on behalf of the United States of America. All rights reserved.
##CAS REGISTRY NO=538-75-0
##$NIST MASS SPEC NO=9403
##MOLFORM=C13 H22 N2
##MW=206
##$NIST SOURCE=MSDC
##XUNITS=M/Z
##YUNITS=RELATIVE INTENSITY
##XFACTOR=1
##YFACTOR=1
##FIRSTX=27
##LASTX=207
##FIRSTY=1400
##MAXX=207
##MINX=27
##MAXY=9999
##MINY=50
##NPOINTS=62
##PEAK TABLE=(XY..XY)
27,1400 29,1750 39,1920 40,340
41,6930 42,670 43,6530 44,170
51,230 52,190 53,1160 54,1640
55,9999 56,1270 57,220 65,200
66,220 67,2350 68,1010 69,710
70,270 77,250 78,110 79,560
80,270 81,5400 82,3210 83,7430
84,520 94,110 95,1090 96,1340
97,450 98,190 107,70 108,90
109,670 110,150 121,50 122,60
123,770 124,4230 125,2890 126,190
135,60 136,170 137,200 138,130
149,430 150,290 151,880 152,570
163,4440 164,2480 165,540 177,1600
178,600 191,730 192,100 205,790
206,2340 207,370
##END=
