##TITLE=Bis(2-chloroethyl)ethylamine
##JCAMP-DX=4.24
##DATA TYPE=MASS SPECTRUM
##ORIGIN=VERIFIN - Methodology B3-1982
##OWNER=NIST Mass Spectrometry Data Center
Collection (C) 2014 copyright by the U.S. Secretary of Commerce
on behalf of the United States of America. All rights reserved.
##CAS REGISTRY NO=538-07-8
##$NIST MASS SPEC NO=226244
##MOLFORM=C6 H13 Cl2 N
##MW=169
##$NIST SOURCE=MSDC
##XUNITS=M/Z
##YUNITS=RELATIVE INTENSITY
##XFACTOR=1
##YFACTOR=1
##FIRSTX=42
##LASTX=171
##FIRSTY=800
##MAXX=171
##MINX=42
##MAXY=9999
##MINY=70
##NPOINTS=25
##PEAK TABLE=(XY..XY)
42,800 43,200 44,200 54,80
57,1401 58,200 59,300 63,1201
65,400 70,100 71,70 84,200
92,1801 94,500 106,300 120,9999
121,600 122,3302 123,200 134,500
136,100 154,400 156,200 169,400
171,200
##END=
