##TITLE=Glycerol tricaprylate
##JCAMP-DX=4.24
##DATA TYPE=MASS SPECTRUM
##ORIGIN=NIST Mass Spectrometry Data Center
##OWNER=NIST Mass Spectrometry Data Center
Collection (C) 2014 copyright by the U.S. Secretary of Commerce
on behalf of the United States of America. All rights reserved.
##CAS REGISTRY NO=538-23-8
##$NIST MASS SPEC NO=412307
##MOLFORM=C27 H50 O6
##MW=470
##$NIST SOURCE=MSDC
##XUNITS=M/Z
##YUNITS=RELATIVE INTENSITY
##XFACTOR=1
##YFACTOR=1
##FIRSTX=39
##LASTX=452
##FIRSTY=40
##MAXX=452
##MINX=39
##MAXY=9999
##MINY=10
##NPOINTS=179
##PEAK TABLE=(XY..XY)
39,40 40,20 41,561 42,270
43,971 44,50 45,10 51,10
53,30 54,80 55,1401 56,340
57,4764 58,260 59,30 60,80
61,10 63,10 67,270 68,150
69,470 70,190 71,140 72,20
73,90 74,10 75,20 78,10
79,20 80,110 81,130 82,170
83,480 84,1021 85,100 86,20
87,90 88,10 89,10 94,10
95,30 96,50 97,290 98,1041
99,120 100,50 101,80 102,30
106,10 107,60 108,30 109,591
110,60 111,90 112,70 113,60
115,40 116,220 117,80 118,10
121,10 122,10 124,40 125,150
126,561 127,9999 128,1381 129,170
130,10 134,10 139,10 140,120
141,30 143,50 144,10 145,50
146,10 147,10 150,10 152,10
153,10 154,10 155,20 156,40
157,40 158,901 159,80 160,20
168,80 169,40 170,40 171,851
172,120 173,20 176,10 181,10
182,140 183,40 184,30 185,210
186,50 187,110 188,20 199,1461
200,671 201,1641 202,260 203,30
206,10 209,10 211,10 213,150
214,50 215,10 217,10 218,10
219,100 220,20 223,10 226,10
227,40 228,10 229,20 232,10
234,10 241,10 242,1231 243,741
244,140 245,30 246,10 252,70
254,10 255,721 256,120 257,10
261,100 262,10 269,150 270,70
271,40 272,10 281,10 283,350
284,80 285,30 295,10 297,140
298,60 299,20 302,10 311,20
312,150 313,1061 314,280 315,50
316,10 325,160 326,741 327,3513
328,881 329,120 330,60 339,10
344,20 345,50 354,10 368,80
369,30 370,10 371,60 381,10
382,10 396,90 397,70 398,20
399,10 410,10 452,10
##END=
