##TITLE=Benzenamine, N-(phenylmethylene)-
##JCAMP-DX=4.24
##DATA TYPE=MASS SPECTRUM
##ORIGIN=Japan AIST/NIMC Database- Spectrum MS-NW-5563
##OWNER=NIST Mass Spectrometry Data Center
Collection (C) 2014 copyright by the U.S. Secretary of Commerce
on behalf of the United States of America. All rights reserved.
##CAS REGISTRY NO=538-51-2
##$NIST MASS SPEC NO=229011
##MOLFORM=C13 H11 N
##MW=181
##$NIST SOURCE=MSDC
##XUNITS=M/Z
##YUNITS=RELATIVE INTENSITY
##XFACTOR=1
##YFACTOR=1
##FIRSTX=26
##LASTX=183
##FIRSTY=30
##MAXX=183
##MINX=26
##MAXY=9999
##MINY=10
##NPOINTS=71
##PEAK TABLE=(XY..XY)
26,30 27,169 28,129 37,40
38,109 39,379 40,40 41,10
44,20 49,20 50,439 51,2029
52,299 53,20 60,10 61,30
62,109 63,319 64,179 65,50
66,10 73,10 74,129 75,139
76,489 77,5859 78,1379 79,80
85,10 86,20 87,30 88,20
89,399 90,329 91,70 93,30
98,10 99,10 100,10 101,20
102,40 103,109 104,1449 105,129
106,10 113,10 114,10 115,30
116,30 125,10 126,30 127,70
128,40 129,10 139,10 140,20
141,10 150,30 151,109 152,319
153,139 154,80 155,10 166,10
177,30 178,80 179,149 180,9519
181,9999 182,1369 183,99
##END=
