##TITLE=1,2-Propanediol diformate
##JCAMP-DX=4.24
##DATA TYPE=MASS SPECTRUM
##ORIGIN=Leung Pu, NIH, Bethesda, Maryland, U.S.
##OWNER=NIST Mass Spectrometry Data Center
Collection (C) 2014 copyright by the U.S. Secretary of Commerce
on behalf of the United States of America. All rights reserved.
##CAS REGISTRY NO=53818-14-7
##$NIST MASS SPEC NO=212815
##MOLFORM=C5 H8 O4
##MW=132
##$NIST SOURCE=MSDC
##XUNITS=M/Z
##YUNITS=RELATIVE INTENSITY
##XFACTOR=1
##YFACTOR=1
##FIRSTX=41
##LASTX=133
##FIRSTY=801
##MAXX=133
##MINX=41
##MAXY=9999
##MINY=4
##NPOINTS=39
##PEAK TABLE=(XY..XY)
41,801 42,372 43,2063 44,176
45,9999 47,611 48,91 54,21
55,79 56,9 57,720 58,1353
59,295 60,1710 61,783 62,34
63,5 69,21 70,19 71,25
73,291 74,190 75,73 76,12
77,132 78,15 81,22 82,27
83,41 86,64 87,113 88,77
89,52 102,11 103,4 117,16
131,18 132,59 133,5
##END=
