##TITLE=3,4,5,6-Tetrahydro-2,4,6-trimethyl-2H-1,3,5-thiadiazine
##JCAMP-DX=4.24
##DATA TYPE=MASS SPECTRUM
##ORIGIN=T. KAWAI, SHIONO KORYO KAISHA LTD., NIITAKAKITA, OSAKA, JAPAN
##OWNER=NIST Mass Spectrometry Data Center
Collection (C) 2014 copyright by the U.S. Secretary of Commerce
on behalf of the United States of America. All rights reserved.
##CAS REGISTRY NO=53897-63-5
##$NIST MASS SPEC NO=104156
##MOLFORM=C6 H14 N2 S
##MW=146
##$NIST SOURCE=MSDC
##XUNITS=M/Z
##YUNITS=RELATIVE INTENSITY
##XFACTOR=1
##YFACTOR=1
##FIRSTX=32
##LASTX=146
##FIRSTY=800
##MAXX=146
##MINX=32
##MAXY=9999
##MINY=50
##NPOINTS=27
##PEAK TABLE=(XY..XY)
32,800 33,800 34,2200 35,200
36,200 39,300 40,600 41,1200
42,4200 43,2100 44,1000 45,1200
54,1300 55,300 56,400 57,300
58,700 59,1400 60,1700 61,500
68,600 69,1400 70,9999 71,800
103,200 129,50 146,100
##END=
