##TITLE=Propanoic acid, 3-bromo-, ethyl ester
##JCAMP-DX=4.24
##DATA TYPE=MASS SPECTRUM
##ORIGIN=Japan AIST/NIMC Database- Spectrum MS-NW-1062
##OWNER=NIST Mass Spectrometry Data Center
Collection (C) 2014 copyright by the U.S. Secretary of Commerce
on behalf of the United States of America. All rights reserved.
##CAS REGISTRY NO=539-74-2
##$NIST MASS SPEC NO=230706
##MOLFORM=C5 H9 Br O2
##MW=180
##$NIST SOURCE=MSDC
##XUNITS=M/Z
##YUNITS=RELATIVE INTENSITY
##XFACTOR=1
##YFACTOR=1
##FIRSTX=13
##LASTX=183
##FIRSTY=10
##MAXX=183
##MINX=13
##MAXY=9999
##MINY=10
##NPOINTS=86
##PEAK TABLE=(XY..XY)
13,10 14,90 15,279 16,10
18,20 25,70 26,939 27,5679
28,1839 29,9999 30,229 31,419
32,80 36,10 37,10 38,10
39,50 40,20 41,329 42,219
43,579 44,109 45,2009 46,60
47,20 50,10 52,20 53,50
54,30 55,1219 56,229 57,70
58,40 59,179 60,10 71,80
72,40 73,2779 74,129 75,20
77,10 78,80 79,70 80,80
81,80 82,70 83,30 85,10
89,20 91,10 92,10 93,60
94,10 95,60 99,20 100,10
101,1929 102,139 103,10 104,10
105,60 106,179 107,3699 108,429
109,3579 110,249 117,40 124,10
126,20 133,20 134,20 135,2889
136,109 137,2749 138,99 152,5549
153,329 154,5429 155,299 156,30
165,40 167,40 180,329 181,20
182,319 183,20
##END=
