##TITLE=Furan, 3-(4-methyl-3-pentenyl)-
##JCAMP-DX=4.24
##DATA TYPE=MASS SPECTRUM
##ORIGIN=NIST Mass Spectrometry Data Center
##OWNER=NIST Mass Spectrometry Data Center
Collection (C) 2014 copyright by the U.S. Secretary of Commerce
on behalf of the United States of America. All rights reserved.
##CAS REGISTRY NO=539-52-6
##$NIST MASS SPEC NO=413852
##MOLFORM=C10 H14 O
##MW=150
##$NIST SOURCE=MSDC
##XUNITS=M/Z
##YUNITS=RELATIVE INTENSITY
##XFACTOR=1
##YFACTOR=1
##FIRSTX=27
##LASTX=151
##FIRSTY=500
##MAXX=151
##MINX=27
##MAXY=9999
##MINY=20
##NPOINTS=54
##PEAK TABLE=(XY..XY)
27,500 29,210 38,80 39,911
40,140 41,4654 42,190 50,220
51,601 52,350 53,2032 54,260
55,310 62,60 63,160 64,50
65,370 66,160 67,591 68,170
69,9999 70,530 74,40 75,50
76,30 77,520 78,150 79,310
81,5905 82,2292 83,170 89,40
91,340 92,40 94,571 102,30
103,90 104,30 105,190 106,90
107,190 110,60 115,90 116,50
117,100 119,100 121,80 132,30
133,70 135,1161 136,110 149,20
150,5095 151,500
##END=
