##TITLE=Pyridine, 3-butyl-
##JCAMP-DX=4.24
##DATA TYPE=MASS SPECTRUM
##ORIGIN=Japan AIST/NIMC Database- Spectrum MS-NW-7375
##OWNER=NIST Mass Spectrometry Data Center
Collection (C) 2014 copyright by the U.S. Secretary of Commerce
on behalf of the United States of America. All rights reserved.
##CAS REGISTRY NO=539-32-2
##$NIST MASS SPEC NO=236592
##MOLFORM=C9 H13 N
##MW=135
##$NIST SOURCE=MSDC
##XUNITS=M/Z
##YUNITS=RELATIVE INTENSITY
##XFACTOR=1
##YFACTOR=1
##FIRSTX=15
##LASTX=137
##FIRSTY=10
##MAXX=137
##MINX=15
##MAXY=9999
##MINY=10
##NPOINTS=73
##PEAK TABLE=(XY..XY)
15,10 26,50 27,519 28,80
29,139 30,10 37,40 38,149
39,1349 40,139 41,619 42,50
43,1009 44,40 45,10 46,10
49,20 50,259 51,639 52,369
53,239 54,60 55,40 56,50
57,10 58,30 59,20 61,30
62,90 63,339 64,179 65,2079
66,459 67,179 68,20 74,50
75,60 76,70 77,499 78,479
79,479 80,239 81,20 85,10
87,10 88,10 89,40 90,40
91,169 92,9999 93,8869 94,639
95,30 102,20 103,20 104,189
105,149 106,1369 107,329 108,40
116,10 117,139 118,119 119,30
120,269 121,30 130,20 132,20
133,10 134,219 135,7319 136,779
137,40
##END=
