##TITLE=Acetamide, N-(4-chlorophenyl)-
##JCAMP-DX=4.24
##DATA TYPE=MASS SPECTRUM
##ORIGIN=Japan AIST/NIMC Database- Spectrum MS-NW-3883
##OWNER=NIST Mass Spectrometry Data Center
Collection (C) 2014 copyright by the U.S. Secretary of Commerce
on behalf of the United States of America. All rights reserved.
##CAS REGISTRY NO=539-03-7
##$NIST MASS SPEC NO=229962
##MOLFORM=C8 H8 Cl N O
##MW=169
##$NIST SOURCE=MSDC
##XUNITS=M/Z
##YUNITS=RELATIVE INTENSITY
##XFACTOR=1
##YFACTOR=1
##FIRSTX=14
##LASTX=172
##FIRSTY=50
##MAXX=172
##MINX=14
##MAXY=9999
##MINY=10
##NPOINTS=88
##PEAK TABLE=(XY..XY)
14,50 15,359 17,10 18,50
26,30 27,40 28,119 29,20
31,10 32,10 36,30 37,119
38,199 39,339 40,60 41,90
42,99 43,3179 44,80 45,50
47,20 49,50 50,189 51,149
52,149 53,20 54,20 60,20
61,90 62,199 63,519 64,269
65,589 66,80 67,20 72,40
73,319 74,109 75,239 76,60
77,99 78,259 79,30 84,10
85,30 86,10 87,20 88,30
89,40 90,169 91,269 92,679
93,70 97,10 98,20 99,559
100,369 101,199 102,129 103,10
104,20 105,20 106,10 110,10
111,109 112,20 113,40 114,10
125,70 126,169 127,9999 128,789
129,3229 130,229 133,10 138,10
140,40 142,10 151,20 152,10
153,40 154,30 155,10 156,10
169,2339 170,229 171,749 172,70
##END=
