##TITLE=2-Propenoic acid, 3-(2-furanyl)-
##JCAMP-DX=4.24
##DATA TYPE=MASS SPECTRUM
##ORIGIN=Japan AIST/NIMC Database- Spectrum MS-NW-3041
##OWNER=NIST Mass Spectrometry Data Center
Collection (C) 2014 copyright by the U.S. Secretary of Commerce
on behalf of the United States of America. All rights reserved.
##CAS REGISTRY NO=539-47-9
##$NIST MASS SPEC NO=231420
##MOLFORM=C7 H6 O3
##MW=138
##$NIST SOURCE=MSDC
##XUNITS=M/Z
##YUNITS=RELATIVE INTENSITY
##XFACTOR=1
##YFACTOR=1
##FIRSTX=12
##LASTX=140
##FIRSTY=10
##MAXX=140
##MINX=12
##MAXY=9999
##MINY=10
##NPOINTS=86
##PEAK TABLE=(XY..XY)
12,10 13,10 14,20 15,30
16,10 17,30 18,109 25,60
26,269 27,579 28,499 29,469
30,10 31,139 32,50 36,50
37,429 38,949 39,3729 40,539
41,189 42,139 43,99 44,359
45,599 46,70 47,20 48,10
49,80 50,279 51,319 52,80
53,649 54,399 55,1299 56,109
57,10 60,309 61,309 62,599
63,1659 64,979 65,3969 66,1449
67,80 68,249 69,169 70,10
71,40 73,20 74,40 75,30
76,10 77,30 79,70 80,10
81,1279 82,1289 83,80 84,669
85,30 90,10 91,30 92,2049
93,679 94,1899 95,169 96,159
97,119 98,10 99,30 108,20
109,599 110,2119 111,139 112,10
118,10 119,60 120,189 121,3159
122,249 123,20 137,359 138,9999
139,809 140,90
##END=
