##TITLE=Carbamic acid, ethylidenebis-, diethyl ester
##JCAMP-DX=4.24
##DATA TYPE=MASS SPECTRUM
##ORIGIN=G.F.WHITFIELD TEMPLE UNIV., PHILADELPHIA, PENNSYLVANIA, USA
##OWNER=NIST Mass Spectrometry Data Center
Collection (C) 2014 copyright by the U.S. Secretary of Commerce
on behalf of the United States of America. All rights reserved.
##CAS REGISTRY NO=539-71-9
##$NIST MASS SPEC NO=26559
##MOLFORM=C8 H16 N2 O4
##MW=204
##$NIST SOURCE=MSDC
##XUNITS=M/Z
##YUNITS=RELATIVE INTENSITY
##XFACTOR=1
##YFACTOR=1
##FIRSTX=15
##LASTX=203
##FIRSTY=453
##MAXX=203
##MINX=15
##MAXY=9999
##MINY=17
##NPOINTS=58
##PEAK TABLE=(XY..XY)
15,453 16,69 17,964 18,4919
25,63 26,482 27,3239 28,1852
29,5131 30,179 31,524 39,62
40,98 41,354 42,1832 43,1945
44,9999 45,2388 46,572 50,57
51,34 52,17 55,28 56,1005
57,47 59,95 60,86 61,67
62,1165 69,41 70,851 71,313
72,1349 73,424 74,130 85,106
87,22 88,191 89,968 90,324
99,109 100,51 101,19 102,17
103,417 115,203 116,8435 117,1353
118,89 131,2662 132,198 143,261
161,27 175,158 189,9297 190,747
191,112 203,48
##END=
