##TITLE=Pentanoic acid, 4-oxo-, ethyl ester
##JCAMP-DX=4.24
##DATA TYPE=MASS SPECTRUM
##OWNER=NIST Mass Spectrometry Data Center
Collection (C) 2014 copyright by the U.S. Secretary of Commerce
on behalf of the United States of America. All rights reserved.
##CAS REGISTRY NO=539-88-8
##$NIST MASS SPEC NO=4138
##MOLFORM=C7 H12 O3
##MW=144
##$NIST SOURCE=MSDC
##XUNITS=M/Z
##YUNITS=RELATIVE INTENSITY
##XFACTOR=1
##YFACTOR=1
##FIRSTX=15
##LASTX=145
##FIRSTY=601
##MAXX=145
##MINX=15
##MAXY=9999
##MINY=10
##NPOINTS=70
##PEAK TABLE=(XY..XY)
15,601 17,30 18,90 19,30
25,10 26,200 27,1111 28,811
29,1732 30,150 31,320 32,20
36,40 37,10 38,30 39,120
40,20 41,130 42,510 43,9999
44,270 45,1031 46,70 47,20
50,20 51,20 52,10 53,70
54,30 55,991 56,831 57,701
58,170 59,50 60,40 61,110
69,20 70,70 71,1061 72,110
73,1341 74,1942 75,510 76,30
77,20 81,120 82,20 83,30
84,50 87,20 89,80 91,10
97,20 98,1041 99,6736 100,440
101,1822 102,1922 103,160 104,20
105,10 115,30 116,120 117,30
118,10 129,2152 130,150 131,20
144,360 145,50
##END=
