##TITLE=p-Xylylenediamine
##JCAMP-DX=4.24
##DATA TYPE=MASS SPECTRUM
##ORIGIN=NIST Mass Spectrometry Data Center
##OWNER=NIST Mass Spectrometry Data Center
Collection (C) 2014 copyright by the U.S. Secretary of Commerce
on behalf of the United States of America. All rights reserved.
##CAS REGISTRY NO=539-48-0
##$NIST MASS SPEC NO=342642
##MOLFORM=C8 H12 N2
##MW=136
##$NIST SOURCE=MSDC
##XUNITS=M/Z
##YUNITS=RELATIVE INTENSITY
##XFACTOR=1
##YFACTOR=1
##FIRSTX=14
##LASTX=137
##FIRSTY=20
##MAXX=137
##MINX=14
##MAXY=9999
##MINY=10
##NPOINTS=74
##PEAK TABLE=(XY..XY)
14,20 15,80 16,90 17,120
18,520 26,80 27,470 28,4864
29,641 30,5455 31,90 34,10
37,50 38,190 39,791 40,130
41,300 42,170 43,50 45,1211
46,40 50,550 51,1011 52,520
53,310 54,290 55,40 56,30
59,40 60,150 61,40 62,130
63,480 64,130 65,701 66,230
67,290 68,50 69,20 74,150
75,130 76,250 77,1682 78,671
79,2532 80,350 81,50 82,20
86,20 89,530 90,821 91,3843
92,1732 93,601 94,80 100,10
102,110 103,170 104,731 106,9999
107,801 108,170 117,340 118,2983
119,2462 120,440 121,20 131,30
132,30 133,160 134,240 135,1331
136,601 137,60
##END=
