##TITLE=Benzene, (ethoxymethyl)-
##JCAMP-DX=4.24
##DATA TYPE=MASS SPECTRUM
##OWNER=NIST Mass Spectrometry Data Center
Collection (C) 2014 copyright by the U.S. Secretary of Commerce
on behalf of the United States of America. All rights reserved.
##CAS REGISTRY NO=539-30-0
##$NIST MASS SPEC NO=3369
##MOLFORM=C9 H12 O
##MW=136
##$NIST SOURCE=MSDC
##XUNITS=M/Z
##YUNITS=RELATIVE INTENSITY
##XFACTOR=1
##YFACTOR=1
##FIRSTX=2
##LASTX=138
##FIRSTY=50
##MAXX=138
##MINX=2
##MAXY=9999
##MINY=10
##NPOINTS=86
##PEAK TABLE=(XY..XY)
2,50 12,20 13,40 14,180
15,160 16,30 17,10 18,10
19,10 24,10 25,20 26,260
27,1091 28,260 29,1381 30,210
31,470 32,10 36,10 37,80
38,240 39,1321 40,100 41,280
42,40 43,140 44,30 45,60
46,30 48,10 49,40 50,540
51,1321 52,340 53,160 54,10
55,10 57,40 58,50 59,70
60,10 61,60 62,200 63,581
64,180 65,1581 66,100 67,10
68,10 73,20 74,100 75,140
76,110 77,1722 78,410 79,3323
80,250 81,10 85,30 86,40
87,20 88,30 89,460 90,380
91,9999 92,7877 93,571 94,20
99,20 100,30 101,40 102,10
103,10 104,10 105,330 106,160
107,1712 108,260 109,20 120,10
121,10 122,10 135,1001 136,851
137,80 138,10
##END=
