##TITLE=[1,1'-Biphenyl]-2-ol, 2',5'-dichloro-
##JCAMP-DX=4.24
##DATA TYPE=MASS SPECTRUM
##ORIGIN=EP-1337
##OWNER=NIST Mass Spectrometry Data Center
Collection (C) 2014 copyright by the U.S. Secretary of Commerce
on behalf of the United States of America. All rights reserved.
##CAS REGISTRY NO=53905-30-9
##$NIST MASS SPEC NO=43721
##MOLFORM=C12 H8 Cl2 O
##MW=238
##$NIST SOURCE=MSDC
##XUNITS=M/Z
##YUNITS=RELATIVE INTENSITY
##XFACTOR=1
##YFACTOR=1
##FIRSTX=61
##LASTX=243
##FIRSTY=50
##MAXX=243
##MINX=61
##MAXY=9999
##MINY=50
##NPOINTS=47
##PEAK TABLE=(XY..XY)
61,50 62,400 63,750 64,180
65,100 109,150 110,200 111,220
112,100 113,600 114,320 115,200
135,100 136,100 137,350 138,500
139,3720 140,750 141,100 147,200
148,200 149,700 150,200 151,250
167,600 168,7750 169,1210 170,120
173,600 174,100 175,850 176,200
177,250 183,150 185,100 186,50
202,4200 203,2710 204,1750 205,950
206,150 238,9999 239,1320 240,6350
241,850 242,1100 243,120
##END=
