##TITLE=Propanoic acid, 2-mercapto-, methyl ester
##JCAMP-DX=4.24
##DATA TYPE=MASS SPECTRUM
##ORIGIN=W. KELLY UNILEVER RESEARCH COLWORTH/WELWYN, BEDFORD U.K.
##OWNER=NIST Mass Spectrometry Data Center
Collection (C) 2014 copyright by the U.S. Secretary of Commerce
on behalf of the United States of America. All rights reserved.
##CAS REGISTRY NO=53907-46-3
##$NIST MASS SPEC NO=2176
##MOLFORM=C4 H8 O2 S
##MW=120
##$NIST SOURCE=MSDC
##XUNITS=M/Z
##YUNITS=RELATIVE INTENSITY
##XFACTOR=1
##YFACTOR=1
##FIRSTX=27
##LASTX=122
##FIRSTY=2200
##MAXX=122
##MINX=27
##MAXY=9999
##MINY=40
##NPOINTS=32
##PEAK TABLE=(XY..XY)
27,2200 29,400 31,240 33,140
34,110 41,130 42,40 43,220
45,1110 46,80 47,200 55,1000
56,400 57,200 58,450 59,3350
60,3900 61,9999 62,500 63,500
75,80 77,80 87,300 88,2120
89,410 90,110 105,150 118,100
119,180 120,4800 121,400 122,300
##END=
