##TITLE=[1,1'-Biphenyl]-4-ol, 3,4'-dichloro-
##JCAMP-DX=4.24
##DATA TYPE=MASS SPECTRUM
##ORIGIN=EP-1377
##OWNER=NIST Mass Spectrometry Data Center
Collection (C) 2014 copyright by the U.S. Secretary of Commerce
on behalf of the United States of America. All rights reserved.
##CAS REGISTRY NO=53905-31-0
##$NIST MASS SPEC NO=43801
##MOLFORM=C12 H8 Cl2 O
##MW=238
##$NIST SOURCE=MSDC
##XUNITS=M/Z
##YUNITS=RELATIVE INTENSITY
##XFACTOR=1
##YFACTOR=1
##FIRSTX=61
##LASTX=243
##FIRSTY=90
##MAXX=243
##MINX=61
##MAXY=9999
##MINY=30
##NPOINTS=35
##PEAK TABLE=(XY..XY)
61,90 62,460 63,60 111,100
113,330 114,140 115,80 136,100
137,230 138,450 139,6100 140,600
149,240 150,100 151,110 167,80
168,500 169,70 173,480 174,90
175,280 176,60 177,60 202,180
203,40 204,125 209,160 210,30
211,100 238,9999 239,1300 240,6350
241,900 242,1100 243,100
##END=
