##TITLE=4-Nitro-5-hydroxy-1,2-dimethylindole
##JCAMP-DX=4.24
##DATA TYPE=MASS SPECTRUM
##ORIGIN=V.A. KOPTYUG, ATLAS OF MS OF ORG. CMPDS.,VOL3
##OWNER=NIST Mass Spectrometry Data Center
Collection (C) 2014 copyright by the U.S. Secretary of Commerce
on behalf of the United States of America. All rights reserved.
##CAS REGISTRY NO=53918-86-8
##$NIST MASS SPEC NO=71323
##MOLFORM=C10 H10 N2 O3
##MW=206
##$NIST SOURCE=MSDC
##XUNITS=M/Z
##YUNITS=RELATIVE INTENSITY
##XFACTOR=1
##YFACTOR=1
##FIRSTX=41
##LASTX=207
##FIRSTY=2950
##MAXX=207
##MINX=41
##MAXY=9999
##MINY=100
##NPOINTS=94
##PEAK TABLE=(XY..XY)
41,2950 43,3800 44,550 45,2000
50,130 51,360 52,200 53,370
54,370 55,2850 56,1710 57,3120
60,1710 61,300 62,100 63,650
64,200 65,640 66,380 67,860
68,700 69,6400 70,680 71,1430
73,1520 74,150 75,240 76,280
77,1330 78,470 79,370 80,210
81,2400 82,450 83,1140 84,380
85,700 87,200 88,100 89,1050
90,590 91,710 92,210 93,340
94,140 95,700 97,720 98,260
99,140 101,140 102,190 103,580
104,310 105,280 106,120 107,180
109,320 110,130 111,300 112,100
113,100 115,190 116,540 117,720
118,300 119,330 121,200 123,290
125,110 129,630 130,2200 131,3720
132,1150 133,520 135,150 136,200
137,440 143,250 144,160 145,1800
146,200 147,150 148,950 149,470
150,190 158,370 160,480 161,290
173,440 176,950 189,280 205,200
206,9999 207,1000
##END=
