##TITLE=Benzene, 1,4-dichloro-2-isocyanato-
##JCAMP-DX=4.24
##DATA TYPE=MASS SPECTRUM
##ORIGIN=RADIAN CORP
##OWNER=NIST Mass Spectrometry Data Center
Collection (C) 2014 copyright by the U.S. Secretary of Commerce
on behalf of the United States of America. All rights reserved.
##CAS REGISTRY NO=5392-82-5
##$NIST MASS SPEC NO=73390
##MOLFORM=C7 H3 Cl2 N O
##MW=187
##$NIST SOURCE=MSDC
##XUNITS=M/Z
##YUNITS=RELATIVE INTENSITY
##XFACTOR=1
##YFACTOR=1
##FIRSTX=26
##LASTX=192
##FIRSTY=10
##MAXX=192
##MINX=26
##MAXY=9999
##MINY=10
##NPOINTS=69
##PEAK TABLE=(XY..XY)
26,10 28,90 35,90 36,50
37,260 38,220 39,70 47,140
48,60 49,220 50,180 51,180
52,60 54,50 60,170 61,380
62,420 63,290 64,190 71,40
72,170 73,590 74,310 75,300
76,110 80,90 81,60 83,20
84,100 85,80 86,170 87,240
88,520 89,90 93,40 94,170
95,100 96,80 97,540 98,290
99,220 100,120 107,30 108,30
109,110 110,30 111,20 122,60
124,4870 125,480 126,1610 127,140
131,50 132,60 133,80 134,40
135,10 158,20 159,1640 160,210
161,1080 162,100 163,180 187,9999
188,1070 189,6500 190,590 191,1080
192,90
##END=
