##TITLE=Quinoline, 2-[2-(4-chlorophenyl)ethenyl]-
##JCAMP-DX=4.24
##DATA TYPE=MASS SPECTRUM
##ORIGIN=A.A.Kutin, Moscow, Russia
##OWNER=NIST Mass Spectrometry Data Center
Collection (C) 2014 copyright by the U.S. Secretary of Commerce
on behalf of the United States of America. All rights reserved.
##CAS REGISTRY NO=5392-19-8
##$NIST MASS SPEC NO=266796
##MOLFORM=C17 H12 Cl N
##MW=265
##$NIST SOURCE=MSDC
##XUNITS=M/Z
##YUNITS=RELATIVE INTENSITY
##XFACTOR=1
##YFACTOR=1
##FIRSTX=37
##LASTX=268
##FIRSTY=31
##MAXX=268
##MINX=37
##MAXY=9999
##MINY=26
##NPOINTS=62
##PEAK TABLE=(XY..XY)
37,31 38,344 39,696 40,56
49,123 50,1086 51,803 52,185
61,123 62,321 63,1081 64,108
65,28 72,108 74,696 75,1905
76,765 77,290 78,26 84,31
86,195 87,323 88,187 89,193
98,72 99,213 100,249 101,911
102,675 103,146 111,141 113,126
114,511 115,639 126,187 127,239
128,1086 129,393 130,41 136,313
137,56 138,151 152,54 154,116
178,59 188,41 200,49 201,139
202,336 203,121 226,110 227,370
228,1332 229,1091 230,570 231,90
262,177 264,9999 265,4333 266,3984
267,1368 268,151
##END=
