##TITLE=9-Tetradecenal, (Z)-
##JCAMP-DX=4.24
##DATA TYPE=MASS SPECTRUM
##ORIGIN=NIST Mass Spectrometry Data Center, 1998.
##OWNER=NIST Mass Spectrometry Data Center
Collection (C) 2014 copyright by the U.S. Secretary of Commerce
on behalf of the United States of America. All rights reserved.
##CAS REGISTRY NO=53939-27-8
##$NIST MASS SPEC NO=291649
##MOLFORM=C14 H26 O
##MW=210
##$NIST SOURCE=MSDC
##XUNITS=M/Z
##YUNITS=RELATIVE INTENSITY
##XFACTOR=1
##YFACTOR=1
##FIRSTX=15
##LASTX=210
##FIRSTY=20
##MAXX=210
##MINX=15
##MAXY=9999
##MINY=10
##NPOINTS=111
##PEAK TABLE=(XY..XY)
15,20 26,40 27,990 28,200
29,1650 30,40 31,60 37,10
38,30 39,1490 40,260 41,6269
42,1060 43,2470 44,570 45,110
50,30 51,130 52,100 53,1040
54,2630 55,9999 56,2220 57,2070
58,200 59,70 63,30 64,10
65,340 66,370 67,4380 68,2190
69,4000 70,2220 71,740 72,120
73,30 77,320 78,140 79,1750
80,1100 81,3820 82,2490 83,2380
84,1520 85,440 86,90 87,10
91,220 92,50 93,1370 94,830
95,2170 96,1850 97,1870 98,2520
99,240 100,50 101,10 105,50
106,20 107,750 108,530 109,810
110,1040 111,1360 112,710 113,80
114,60 115,10 119,20 120,30
121,1400 122,390 123,330 124,300
125,310 126,110 127,20 128,80
129,10 133,10 134,10 135,690
136,250 137,120 138,130 139,100
140,50 141,10 142,20 149,230
150,100 151,40 152,10 153,50
154,40 155,10 163,110 164,60
165,10 166,90 167,70 168,20
177,10 179,20 181,20 182,10
192,420 193,60 210,40
##END=
