##TITLE=Thiourea, N,N'-bis(2-ethylphenyl)-
##JCAMP-DX=4.24
##DATA TYPE=MASS SPECTRUM
##ORIGIN=Tony Mujsce, AT&T Bell Labs
##OWNER=NIST Mass Spectrometry Data Center
Collection (C) 2014 copyright by the U.S. Secretary of Commerce
on behalf of the United States of America. All rights reserved.
##CAS REGISTRY NO=5395-94-8
##$NIST MASS SPEC NO=245764
##MOLFORM=C17 H20 N2 S
##MW=284
##$NIST SOURCE=MSDC
##XUNITS=M/Z
##YUNITS=RELATIVE INTENSITY
##XFACTOR=1
##YFACTOR=1
##FIRSTX=26
##LASTX=286
##FIRSTY=30
##MAXX=286
##MINX=26
##MAXY=9999
##MINY=10
##NPOINTS=127
##PEAK TABLE=(XY..XY)
26,30 27,820 28,290 29,2021
30,110 32,20 34,40 38,70
39,750 40,50 41,270 42,150
43,90 44,70 45,360 50,220
51,880 52,350 53,320 54,70
55,50 57,50 59,50 60,50
62,80 63,500 64,230 65,790
66,200 67,30 69,90 70,30
71,30 74,60 75,150 76,230
77,3673 78,910 79,1241 80,210
89,590 90,320 91,980 92,280
93,410 94,270 95,10 96,30
101,120 102,290 103,1301 104,740
105,480 106,6185 107,490 108,60
109,210 110,60 115,60 116,180
117,610 118,820 119,380 120,1251
121,4323 122,510 123,130 124,250
128,590 129,150 130,3122 131,1411
132,420 133,20 134,30 135,110
136,350 137,40 138,220 144,330
145,140 146,60 147,160 148,590
149,330 150,90 151,90 158,70
162,510 163,800 164,720 165,90
205,90 206,210 207,110 218,60
219,370 220,150 221,220 222,140
223,80 225,450 226,210 227,310
228,30 233,30 234,30 235,290
236,100 237,30 238,30 239,110
240,60 249,190 250,750 251,3102
252,630 253,140 254,20 255,9999
256,1691 257,580 258,70 283,490
284,4013 285,920 286,280
##END=
