##TITLE=1-Propanamine, N,2-dimethyl-N-nitro-
##JCAMP-DX=4.24
##DATA TYPE=MASS SPECTRUM
##ORIGIN=T. BRYCE UNILEVER RESEARCH COLWORTH/WELWYN, BEDFORD U.K.
##OWNER=NIST Mass Spectrometry Data Center
Collection (C) 2014 copyright by the U.S. Secretary of Commerce
on behalf of the United States of America. All rights reserved.
##CAS REGISTRY NO=53951-45-4
##$NIST MASS SPEC NO=3064
##MOLFORM=C5 H12 N2 O2
##MW=132
##$NIST SOURCE=MSDC
##XUNITS=M/Z
##YUNITS=RELATIVE INTENSITY
##XFACTOR=1
##YFACTOR=1
##FIRSTX=29
##LASTX=132
##FIRSTY=504
##MAXX=132
##MINX=29
##MAXY=9999
##MINY=102
##NPOINTS=25
##PEAK TABLE=(XY..XY)
29,504 30,744 38,129 39,702
40,1065 41,2443 42,4885 43,9999
44,3397 45,127 55,184 56,649
57,175 59,298 70,256 71,256
73,188 77,122 84,102 85,228
86,176 87,111 89,7595 90,267
132,863
##END=
