##TITLE=Chromium, bis(1,3-di(trifluoromethyl)benzene)-
##JCAMP-DX=4.24
##DATA TYPE=MASS SPECTRUM
##ORIGIN=K. KLABUNDE, DEP. CHEM., N. DAK. UNIV.,GRAND FORKS,N. DAK.,U
##OWNER=NIST Mass Spectrometry Data Center
Collection (C) 2014 copyright by the U.S. Secretary of Commerce
on behalf of the United States of America. All rights reserved.
##CAS REGISTRY NO=53966-05-5
##$NIST MASS SPEC NO=90700
##MOLFORM=C16 H8 Cr F12
##MW=480
##$NIST SOURCE=MSDC
##XUNITS=M/Z
##YUNITS=RELATIVE INTENSITY
##XFACTOR=1
##YFACTOR=1
##FIRSTX=52
##LASTX=480
##FIRSTY=9600
##MAXX=480
##MINX=52
##MAXY=9999
##MINY=380
##NPOINTS=16
##PEAK TABLE=(XY..XY)
52,9600 69,850 75,770 107,650
126,1300 127,2200 137,380 145,3100
157,960 164,620 176,8100 195,9999
214,1700 247,2000 266,2200 480,650
##END=
