##TITLE=Chloroacetic acid, propyl ester
##JCAMP-DX=4.24
##DATA TYPE=MASS SPECTRUM
##ORIGIN=V.G.Zaikin,TIPS,Russian Acad.Sci.Moscow
##OWNER=NIST Mass Spectrometry Data Center
Collection (C) 2014 copyright by the U.S. Secretary of Commerce
on behalf of the United States of America. All rights reserved.
##CAS REGISTRY NO=5396-24-7
##$NIST MASS SPEC NO=279864
##MOLFORM=C5 H9 Cl O2
##MW=136
##$NIST SOURCE=MSDC
##XUNITS=M/Z
##YUNITS=RELATIVE INTENSITY
##XFACTOR=1
##YFACTOR=1
##FIRSTX=27
##LASTX=110
##FIRSTY=280
##MAXX=110
##MINX=27
##MAXY=9999
##MINY=30
##NPOINTS=58
##PEAK TABLE=(XY..XY)
27,280 28,30 29,350 35,130
36,430 38,50 39,470 40,190
41,3513 42,4984 43,9999 44,1862
45,520 47,90 48,330 49,3153
50,320 51,1872 52,591 53,70
55,190 56,250 57,1551 58,180
59,450 60,80 64,350 65,260
68,50 69,160 71,190 72,80
75,50 76,320 77,9759 78,611
79,4814 80,80 81,70 82,50
83,320 85,350 87,50 91,320
92,170 93,290 94,80 95,4054
96,450 97,1291 98,220 101,50
103,120 105,170 107,2452 108,150
109,550 110,120
##END=
