##TITLE=2-Octene, 4-ethyl-
##JCAMP-DX=4.24
##DATA TYPE=MASS SPECTRUM
##OWNER=NIST Mass Spectrometry Data Center
Collection (C) 2014 copyright by the U.S. Secretary of Commerce
on behalf of the United States of America. All rights reserved.
##CAS REGISTRY NO=53966-52-2
##$NIST MASS SPEC NO=3662
##MOLFORM=C10 H20
##MW=140
##$NIST SOURCE=MSDC
##XUNITS=M/Z
##YUNITS=RELATIVE INTENSITY
##XFACTOR=1
##YFACTOR=1
##FIRSTX=25
##LASTX=142
##FIRSTY=10
##MAXX=142
##MINX=25
##MAXY=9999
##MINY=10
##NPOINTS=64
##PEAK TABLE=(XY..XY)
25,10 26,90 27,2262 28,310
29,2472 30,60 37,10 38,30
39,1531 40,270 41,4364 42,550
43,1121 44,40 45,10 50,30
51,120 52,80 53,731 54,280
55,9999 56,1211 57,681 58,30
62,10 63,20 64,10 65,140
66,80 67,801 68,450 69,5025
70,1982 71,150 72,20 77,110
78,20 79,120 80,20 81,250
82,230 83,3493 84,981 85,90
86,10 91,20 92,10 93,10
94,10 95,40 96,20 97,310
98,1471 99,140 100,10 109,20
110,30 111,831 112,100 113,10
125,10 140,1021 141,110 142,10
##END=
