##TITLE=3-Nonene, 2-methyl-
##JCAMP-DX=4.24
##DATA TYPE=MASS SPECTRUM
##OWNER=NIST Mass Spectrometry Data Center
Collection (C) 2014 copyright by the U.S. Secretary of Commerce
on behalf of the United States of America. All rights reserved.
##CAS REGISTRY NO=53966-53-3
##$NIST MASS SPEC NO=3665
##MOLFORM=C10 H20
##MW=140
##$NIST SOURCE=MSDC
##XUNITS=M/Z
##YUNITS=RELATIVE INTENSITY
##XFACTOR=1
##YFACTOR=1
##FIRSTX=26
##LASTX=142
##FIRSTY=190
##MAXX=142
##MINX=26
##MAXY=9999
##MINY=10
##NPOINTS=70
##PEAK TABLE=(XY..XY)
26,190 27,3503 28,561 29,3403
30,80 31,10 37,30 38,110
39,2532 40,470 41,7287 42,1151
43,2873 44,120 45,10 46,10
47,10 50,80 51,250 52,140
53,961 54,430 55,8207 56,8858
57,2632 58,120 59,10 61,10
62,10 63,60 64,10 65,180
67,871 68,941 69,9999 70,2182
71,290 72,30 73,20 74,10
77,140 78,40 79,130 80,30
81,280 82,200 83,1301 84,1021
85,170 86,10 90,10 91,30
92,10 93,10 94,10 95,70
96,70 97,571 98,190 99,10
109,10 110,10 111,120 112,140
113,20 125,100 126,10 140,1411
141,150 142,10
##END=
