##TITLE=Benzene, 1-(1,1-dimethylethyl)-4-methoxy-
##JCAMP-DX=4.24
##DATA TYPE=MASS SPECTRUM
##ORIGIN=Japan AIST/NIMC Database- Spectrum MS-NW-3866
##OWNER=NIST Mass Spectrometry Data Center
Collection (C) 2014 copyright by the U.S. Secretary of Commerce
on behalf of the United States of America. All rights reserved.
##CAS REGISTRY NO=5396-38-3
##$NIST MASS SPEC NO=232488
##MOLFORM=C11 H16 O
##MW=164
##$NIST SOURCE=MSDC
##XUNITS=M/Z
##YUNITS=RELATIVE INTENSITY
##XFACTOR=1
##YFACTOR=1
##FIRSTX=15
##LASTX=166
##FIRSTY=139
##MAXX=166
##MINX=15
##MAXY=9999
##MINY=10
##NPOINTS=98
##PEAK TABLE=(XY..XY)
15,139 18,10 26,20 27,209
28,30 29,179 31,10 37,10
38,60 39,429 40,40 41,919
42,40 43,50 44,20 45,20
50,109 51,259 52,99 53,119
54,20 55,119 56,30 57,80
58,20 60,20 61,10 62,60
63,189 64,109 65,279 66,70
67,30 68,20 69,10 70,10
71,10 73,10 74,50 75,50
76,50 77,569 78,239 79,229
80,30 81,30 82,20 83,10
84,10 85,10 86,10 87,10
89,109 90,90 91,809 92,109
93,60 94,259 95,70 96,10
97,10 98,10 99,10 101,10
102,50 103,149 104,50 105,169
106,70 107,129 108,119 109,1159
110,90 115,139 116,40 117,129
118,80 119,119 120,20 121,1669
122,169 123,10 131,30 132,20
133,209 134,179 135,419 136,40
146,10 147,30 148,90 149,9999
150,1169 151,90 163,20 164,2169
165,279 166,20
##END=
