##TITLE=Hydrazinecarbodithioic acid, methyl ester
##JCAMP-DX=4.24
##DATA TYPE=MASS SPECTRUM
##OWNER=NIST Mass Spectrometry Data Center
Collection (C) 2014 copyright by the U.S. Secretary of Commerce
on behalf of the United States of America. All rights reserved.
##CAS REGISTRY NO=5397-03-5
##$NIST MASS SPEC NO=2298
##MOLFORM=C2 H6 N2 S2
##MW=122
##$NIST SOURCE=MSDC
##XUNITS=M/Z
##YUNITS=RELATIVE INTENSITY
##XFACTOR=1
##YFACTOR=1
##FIRSTX=42
##LASTX=124
##FIRSTY=145
##MAXX=124
##MINX=42
##MAXY=9999
##MINY=145
##NPOINTS=23
##PEAK TABLE=(XY..XY)
42,145 43,580 44,290 45,3072
46,927 47,1739 48,609 49,145
58,203 59,1333 60,406 75,1826
76,1623 77,1014 78,725 79,290
91,7391 92,290 93,783 105,638
122,9999 123,319 124,783
##END=
