##TITLE=9H-Fluorene, 3-nitro-
##JCAMP-DX=4.24
##DATA TYPE=MASS SPECTRUM
##ORIGIN=D. Helmig ET AL, Intern. J. Environ. Anal. Chem., 43, 219 (1990)
##OWNER=NIST Mass Spectrometry Data Center
Collection (C) 2014 copyright by the U.S. Secretary of Commerce
on behalf of the United States of America. All rights reserved.
##CAS REGISTRY NO=5397-37-5
##$NIST MASS SPEC NO=360448
##MOLFORM=C13 H9 N O2
##MW=211
##$NIST SOURCE=MSDC
##XUNITS=M/Z
##YUNITS=RELATIVE INTENSITY
##XFACTOR=1
##YFACTOR=1
##FIRSTX=41
##LASTX=213
##FIRSTY=200
##MAXX=213
##MINX=41
##MAXY=9999
##MINY=90
##NPOINTS=93
##PEAK TABLE=(XY..XY)
41,200 42,110 43,200 44,490
45,110 46,200 47,110 48,110
50,290 51,290 52,110 53,110
54,110 55,200 56,110 57,110
58,110 60,110 61,110 62,400
63,691 64,110 65,110 66,110
67,110 68,110 69,460 71,110
72,110 73,110 74,400 75,310
76,200 77,200 78,110 81,290
82,400 84,110 85,110 86,310
87,400 88,200 89,290 90,110
91,110 95,110 96,110 97,110
98,200 99,110 100,110 101,110
102,110 103,110 105,110 109,110
110,110 111,200 112,110 113,310
114,110 115,691 116,110 122,110
123,110 125,110 126,200 127,110
137,310 138,230 139,1031 140,230
150,200 151,290 152,1031 153,400
154,110 161,230 162,601 163,3113
164,4084 165,9999 166,1371 167,110
180,110 181,430 182,110 194,1772
195,430 207,110 211,5425 212,831
213,90
##END=
