##TITLE=Heptadecanenitrile
##JCAMP-DX=4.24
##DATA TYPE=MASS SPECTRUM
##OWNER=NIST Mass Spectrometry Data Center
Collection (C) 2014 copyright by the U.S. Secretary of Commerce
on behalf of the United States of America. All rights reserved.
##CAS REGISTRY NO=5399-02-0
##$NIST MASS SPEC NO=12200
##MOLFORM=C17 H33 N
##MW=251
##$NIST SOURCE=MSDC
##XUNITS=M/Z
##YUNITS=RELATIVE INTENSITY
##XFACTOR=1
##YFACTOR=1
##FIRSTX=12
##LASTX=252
##FIRSTY=10
##MAXX=252
##MINX=12
##MAXY=9999
##MINY=10
##NPOINTS=170
##PEAK TABLE=(XY..XY)
12,10 13,20 14,50 15,190
16,10 24,10 25,20 26,140
27,2772 28,1131 29,5755 30,360
31,30 36,10 37,40 38,50
39,1511 40,360 41,8948 42,2142
43,9999 44,510 45,20 47,10
49,10 50,20 51,60 52,70
53,520 54,1672 55,5255 56,2092
57,7477 58,420 59,40 60,10
61,20 63,20 64,20 65,80
66,90 67,631 68,540 69,2432
70,2662 71,2472 72,180 73,20
76,20 77,70 78,40 79,250
80,170 81,510 82,1742 83,2082
84,941 85,1251 86,110 87,20
89,20 91,60 92,30 93,140
94,160 95,280 96,2202 97,4614
98,721 99,410 100,50 101,10
103,10 104,10 105,30 106,20
107,80 108,140 109,140 110,2702
111,2092 112,500 113,260 114,50
115,10 117,10 118,10 119,20
120,20 121,60 122,200 123,90
124,2042 125,821 126,340 127,180
128,40 129,10 131,10 133,10
134,20 135,50 136,150 137,50
138,1381 139,410 140,260 141,100
142,30 143,10 145,10 147,10
148,10 149,30 150,50 151,30
152,871 153,210 154,190 155,60
156,20 157,10 161,10 162,10
163,20 164,40 165,20 166,681
167,190 168,150 169,40 170,20
171,10 172,10 176,10 177,10
178,30 179,20 180,641 181,200
182,120 183,30 184,10 191,10
192,20 193,20 194,761 195,270
196,120 197,30 198,10 205,10
206,20 207,20 208,931 209,320
210,120 211,20 220,20 222,791
223,270 224,60 225,20 234,10
236,490 237,50 238,10 250,280
251,150 252,30
##END=
