##TITLE=Phenacyl thiocyanate
##JCAMP-DX=4.24
##DATA TYPE=MASS SPECTRUM
##ORIGIN=Chuck Anderson, Aldrich Chemical Co.
##OWNER=NIST Mass Spectrometry Data Center
Collection (C) 2014 copyright by the U.S. Secretary of Commerce
on behalf of the United States of America. All rights reserved.
##CAS REGISTRY NO=5399-30-4
##$NIST MASS SPEC NO=118110
##MOLFORM=C9 H7 N O S
##MW=177
##$NIST SOURCE=MSDC
##XUNITS=M/Z
##YUNITS=RELATIVE INTENSITY
##XFACTOR=1
##YFACTOR=1
##FIRSTX=18
##LASTX=121
##FIRSTY=5
##MAXX=121
##MINX=18
##MAXY=9999
##MINY=4
##NPOINTS=43
##PEAK TABLE=(XY..XY)
18,5 26,45 27,203 28,33
32,61 36,86 37,46 38,120
39,282 41,51 42,93 43,72
44,26 45,158 46,64 49,34
50,590 51,1616 52,111 58,91
59,77 61,50 62,113 63,223
64,49 65,468 66,9 72,98
73,60 74,337 75,190 76,250
77,6070 78,419 89,122 91,843
92,63 102,9 105,9999 106,724
107,47 120,133 121,4
##END=
