##TITLE=Phenol, 4-iodo-
##JCAMP-DX=4.24
##DATA TYPE=MASS SPECTRUM
##OWNER=NIST Mass Spectrometry Data Center
Collection (C) 2014 copyright by the U.S. Secretary of Commerce
on behalf of the United States of America. All rights reserved.
##CAS REGISTRY NO=540-38-5
##$NIST MASS SPEC NO=10378
##MOLFORM=C6 H5 I O
##MW=220
##$NIST SOURCE=MSDC
##XUNITS=M/Z
##YUNITS=RELATIVE INTENSITY
##XFACTOR=1
##YFACTOR=1
##FIRSTX=12
##LASTX=222
##FIRSTY=40
##MAXX=222
##MINX=12
##MAXY=9999
##MINY=10
##NPOINTS=101
##PEAK TABLE=(XY..XY)
12,40 13,50 24,30 25,150
26,500 27,520 36,240 37,1511
38,3003 39,8297 40,320 41,330
42,260 43,350 44,60 45,50
48,70 49,450 50,1682 51,601
52,80 53,1611 54,160 55,380
56,130 57,190 60,240 61,861
62,2192 63,3813 64,2072 65,9999
66,941 67,180 68,30 69,130
70,40 71,90 72,30 73,250
74,681 75,350 76,150 77,100
78,10 79,30 80,20 81,130
82,30 83,70 84,50 85,50
89,10 90,40 91,60 92,430
93,4294 94,290 95,80 96,20
97,50 98,10 99,10 105,80
106,10 107,10 109,110 110,260
111,30 119,20 120,20 121,120
122,10 123,40 124,60 125,20
127,3433 128,210 129,10 130,10
137,10 138,70 139,60 140,10
141,10 149,30 151,10 152,50
153,10 163,20 164,50 165,100
172,20 174,20 176,20 191,190
192,10 219,60 220,5245 221,350
222,20
##END=
