##TITLE=Benzene, 1,4-difluoro-
##JCAMP-DX=4.24
##DATA TYPE=MASS SPECTRUM
##ORIGIN=Chuck Anderson, Aldrich Chemical Co.
##OWNER=NIST Mass Spectrometry Data Center
Collection (C) 2014 copyright by the U.S. Secretary of Commerce
on behalf of the United States of America. All rights reserved.
##CAS REGISTRY NO=540-36-3
##$NIST MASS SPEC NO=107679
##MOLFORM=C6 H4 F2
##MW=114
##$NIST SOURCE=MSDC
##XUNITS=M/Z
##YUNITS=RELATIVE INTENSITY
##XFACTOR=1
##YFACTOR=1
##FIRSTX=25
##LASTX=116
##FIRSTY=13
##MAXX=116
##MINX=25
##MAXY=9999
##MINY=7
##NPOINTS=57
##PEAK TABLE=(XY..XY)
25,13 26,54 27,33 31,617
32,25 33,22 36,63 37,429
38,380 39,256 44,65 45,48
47,24 48,31 49,176 50,1287
51,257 52,7 55,35 56,246
57,1498 58,39 60,49 61,374
62,512 63,3553 64,466 65,11
68,549 69,397 70,466 71,16
72,17 73,144 74,489 75,662
76,34 79,17 80,46 81,463
82,27 83,106 86,37 87,99
88,1618 89,60 92,88 93,124
94,512 95,208 96,10 99,22
112,51 113,278 114,9999 115,594
116,13
##END=
