##TITLE=Benzenamine, 4-iodo-
##JCAMP-DX=4.24
##DATA TYPE=MASS SPECTRUM
##ORIGIN=Japan AIST/NIMC Database- Spectrum MS-NW-1517
##OWNER=NIST Mass Spectrometry Data Center
Collection (C) 2014 copyright by the U.S. Secretary of Commerce
on behalf of the United States of America. All rights reserved.
##CAS REGISTRY NO=540-37-4
##$NIST MASS SPEC NO=229524
##MOLFORM=C6 H6 I N
##MW=219
##$NIST SOURCE=MSDC
##XUNITS=M/Z
##YUNITS=RELATIVE INTENSITY
##XFACTOR=1
##YFACTOR=1
##FIRSTX=14
##LASTX=221
##FIRSTY=10
##MAXX=221
##MINX=14
##MAXY=9999
##MINY=10
##NPOINTS=61
##PEAK TABLE=(XY..XY)
14,10 15,30 25,10 26,60
27,70 28,229 29,20 30,10
36,30 37,349 38,669 39,1819
40,219 41,669 42,179 44,40
45,90 46,20 48,10 49,90
50,459 51,239 52,669 53,80
54,129 60,40 61,329 62,549
63,1229 64,999 65,5909 66,699
67,30 73,60 74,229 75,129
76,70 77,10 86,10 87,20
88,40 89,60 90,169 91,799
92,5759 93,409 94,10 109,559
110,40 127,529 128,50 139,10
152,10 163,30 164,20 165,30
191,99 218,99 219,9999 220,699
221,20
##END=
