##TITLE=Cyclohexasiloxane, dodecamethyl-
##JCAMP-DX=4.24
##DATA TYPE=MASS SPECTRUM
##ORIGIN=Japan AIST/NIMC Database- Spectrum MS-IW-1797
##OWNER=NIST Mass Spectrometry Data Center
Collection (C) 2014 copyright by the U.S. Secretary of Commerce
on behalf of the United States of America. All rights reserved.
##CAS REGISTRY NO=540-97-6
##$NIST MASS SPEC NO=237070
##MOLFORM=C12 H36 O6 Si6
##MW=444
##$NIST SOURCE=MSDC
##XUNITS=M/Z
##YUNITS=RELATIVE INTENSITY
##XFACTOR=1
##YFACTOR=1
##FIRSTX=15
##LASTX=434
##FIRSTY=70
##MAXX=434
##MINX=15
##MAXY=9999
##MINY=10
##NPOINTS=114
##PEAK TABLE=(XY..XY)
15,70 27,10 28,20 29,10
31,20 43,90 44,20 45,499
46,20 47,20 55,10 57,20
58,60 59,529 60,30 61,30
71,20 72,30 73,9999 74,899
75,449 76,20 83,10 85,40
87,70 103,10 115,10 117,90
118,10 119,20 131,40 133,109
134,10 135,10 147,1229 148,189
149,99 163,20 165,10 177,30
179,30 189,10 191,99 192,20
193,99 194,20 195,10 205,20
207,319 208,60 209,30 221,50
222,10 223,20 235,10 237,30
238,10 239,10 249,60 250,10
251,90 252,20 253,40 254,10
263,10 265,40 266,10 267,99
268,20 269,10 281,90 282,30
283,10 293,10 295,60 296,20
297,20 309,20 311,119 312,30
313,20 314,10 323,40 324,10
325,819 326,269 327,209 328,50
329,20 339,30 341,2729 342,909
343,619 344,139 345,50 355,20
369,10 381,10 383,10 397,30
398,10 399,40 400,20 401,10
413,109 414,50 415,40 416,10
429,3839 430,1609 431,1149 432,349
433,139 434,30
##END=
