##TITLE=t-Butyl nitrite
##JCAMP-DX=4.24
##DATA TYPE=MASS SPECTRUM
##ORIGIN=Japan AIST/NIMC Database- Spectrum MS-NW-4194
##OWNER=NIST Mass Spectrometry Data Center
Collection (C) 2014 copyright by the U.S. Secretary of Commerce
on behalf of the United States of America. All rights reserved.
##CAS REGISTRY NO=540-80-7
##$NIST MASS SPEC NO=230290
##MOLFORM=C4 H9 N O2
##MW=103
##$NIST SOURCE=MSDC
##XUNITS=M/Z
##YUNITS=RELATIVE INTENSITY
##XFACTOR=1
##YFACTOR=1
##FIRSTX=12
##LASTX=89
##FIRSTY=10
##MAXX=89
##MINX=12
##MAXY=9999
##MINY=10
##NPOINTS=48
##PEAK TABLE=(XY..XY)
12,10 13,30 14,189 15,1279
16,50 17,40 18,139 19,10
25,30 26,209 27,909 28,309
29,1279 30,9999 31,869 32,40
33,20 36,10 37,70 38,99
39,599 40,99 41,1819 42,329
43,5639 44,159 45,219 46,20
47,10 48,10 49,10 50,40
51,30 52,10 53,50 54,10
55,209 56,299 57,2789 58,589
59,2439 60,119 61,20 62,10
71,10 73,40 88,2169 89,90
##END=
