##TITLE=Propanoic acid, 2-methylpropyl ester
##JCAMP-DX=4.24
##DATA TYPE=MASS SPECTRUM
##OWNER=NIST Mass Spectrometry Data Center
Collection (C) 2014 copyright by the U.S. Secretary of Commerce
on behalf of the United States of America. All rights reserved.
##CAS REGISTRY NO=540-42-1
##$NIST MASS SPEC NO=2868
##MOLFORM=C7 H14 O2
##MW=130
##$NIST SOURCE=MSDC
##XUNITS=M/Z
##YUNITS=RELATIVE INTENSITY
##XFACTOR=1
##YFACTOR=1
##FIRSTX=2
##LASTX=130
##FIRSTY=20
##MAXX=130
##MINX=2
##MAXY=9999
##MINY=10
##NPOINTS=71
##PEAK TABLE=(XY..XY)
2,20 12,20 13,30 14,140
15,480 16,20 17,10 18,20
19,10 24,10 25,30 26,440
27,2502 28,781 29,4674 30,170
31,350 32,10 33,10 36,10
37,40 38,80 39,851 40,140
41,1611 42,310 43,771 44,40
45,90 46,10 47,10 49,10
50,20 51,20 52,10 53,50
54,30 55,300 56,2762 57,9999
58,350 59,50 60,10 61,10
69,10 70,30 71,300 72,30
73,250 74,140 75,721 76,30
77,10 78,10 79,10 83,10
85,10 86,10 87,801 88,60
89,10 99,10 100,90 101,30
102,10 105,10 106,10 114,10
115,10 129,10 130,10
##END=
