##TITLE=Hexadecanoic acid, hexadecyl ester
##JCAMP-DX=4.24
##DATA TYPE=MASS SPECTRUM
##ORIGIN=R.T.HOLMAN,UNIVERSITY OF MINNESOTA
##OWNER=NIST Mass Spectrometry Data Center
Collection (C) 2014 copyright by the U.S. Secretary of Commerce
on behalf of the United States of America. All rights reserved.
##CAS REGISTRY NO=540-10-3
##$NIST MASS SPEC NO=36249
##MOLFORM=C32 H64 O2
##MW=480
##$NIST SOURCE=MSDC
##XUNITS=M/Z
##YUNITS=RELATIVE INTENSITY
##XFACTOR=1
##YFACTOR=1
##FIRSTX=26
##LASTX=483
##FIRSTY=60
##MAXX=483
##MINX=26
##MAXY=9999
##MINY=10
##NPOINTS=286
##PEAK TABLE=(XY..XY)
26,60 27,300 28,390 29,1100
30,40 31,40 32,80 33,40
34,10 35,10 36,30 37,20
38,30 39,260 40,90 41,2700
42,850 43,6900 44,310 45,90
46,10 47,20 50,40 51,30
52,30 53,150 54,600 55,4800
56,2200 57,8200 58,430 59,110
60,900 61,1500 62,60 63,30
64,120 65,50 66,90 67,840
68,1300 69,4300 70,2200 71,4800
72,290 73,1600 74,170 75,40
76,10 77,40 78,30 79,130
80,110 81,730 82,2100 83,4700
84,2100 85,3100 86,240 87,410
88,70 89,70 90,10 91,60
92,20 93,80 94,60 95,580
96,1100 97,4100 98,1800 99,710
100,110 101,340 102,100 103,80
104,30 105,50 106,30 107,70
108,40 109,300 110,460 111,2200
112,1000 113,410 114,90 115,410
116,390 117,80 118,10 119,30
120,20 121,90 122,30 123,170
124,280 125,1200 126,600 127,280
128,50 129,820 130,120 131,40
132,10 133,30 134,30 135,100
136,50 137,110 138,220 139,540
140,440 141,210 142,40 143,140
144,40 145,30 146,20 147,30
148,20 149,80 150,20 151,40
152,140 153,330 154,320 155,140
156,30 157,220 158,50 159,30
160,10 161,10 162,10 163,40
164,10 165,30 166,90 167,210
168,240 169,90 170,30 171,240
172,50 173,30 174,10 175,10
177,50 178,40 179,30 180,50
181,130 182,150 183,60 184,20
185,210 186,30 187,20 188,10
189,10 190,10 191,10 192,20
193,20 194,130 195,120 196,790
197,170 198,20 199,100 200,30
201,50 202,20 203,10 204,10
205,10 206,10 207,20 208,10
209,20 210,20 211,20 212,10
213,440 214,80 215,20 216,10
217,10 218,20 219,70 220,50
221,30 222,50 223,40 224,2100
225,470 226,60 227,110 228,30
229,30 230,10 231,10 232,10
233,10 234,10 235,10 236,90
237,110 238,60 239,1200 240,220
241,60 242,10 243,10 248,10
249,10 250,10 251,10 252,10
253,10 254,30 255,140 256,1900
257,9999 258,1800 259,200 260,20
261,10 262,10 263,10 264,10
265,10 266,10 267,30 268,10
269,390 270,80 271,20 272,10
273,10 279,10 280,10 281,10
282,10 283,20 284,90 285,250
286,60 287,10 293,10 294,10
295,10 297,110 298,30 299,10
307,10 308,10 311,20 312,80
313,20 314,10 325,20 326,20
327,10 339,20 340,10 341,10
352,30 353,10 354,10 380,10
381,10 395,10 408,10 409,10
424,10 437,20 438,10 452,10
453,10 462,10 480,914 481,340
482,80 483,20
##END=
