##TITLE=Ethane, methoxy-
##JCAMP-DX=4.24
##DATA TYPE=MASS SPECTRUM
##OWNER=NIST Mass Spectrometry Data Center
Collection (C) 2014 copyright by the U.S. Secretary of Commerce
on behalf of the United States of America. All rights reserved.
##CAS REGISTRY NO=540-67-0
##$NIST MASS SPEC NO=150
##MOLFORM=C3 H8 O
##MW=60
##$NIST SOURCE=MSDC
##XUNITS=M/Z
##YUNITS=RELATIVE INTENSITY
##XFACTOR=1
##YFACTOR=1
##FIRSTX=12
##LASTX=62
##FIRSTY=100
##MAXX=62
##MINX=12
##MAXY=9999
##MINY=10
##NPOINTS=38
##PEAK TABLE=(XY..XY)
12,100 13,240 14,681 15,2502
16,90 17,60 18,10 19,10
24,20 25,110 26,801 27,2042
28,791 29,4904 30,340 31,1992
32,210 33,190 34,10 37,10
38,10 39,20 40,10 41,80
42,170 43,691 44,80 45,9999
46,230 47,20 55,10 56,10
57,20 58,50 59,1081 60,2582
61,90 62,10
##END=
