##TITLE=Acetic acid, 1,1-dimethylethyl ester
##JCAMP-DX=4.24
##DATA TYPE=MASS SPECTRUM
##ORIGIN=Chuck Anderson, Aldrich Chemical Co.
##OWNER=NIST Mass Spectrometry Data Center
Collection (C) 2014 copyright by the U.S. Secretary of Commerce
on behalf of the United States of America. All rights reserved.
##CAS REGISTRY NO=540-88-5
##$NIST MASS SPEC NO=107655
##MOLFORM=C6 H12 O2
##MW=116
##$NIST SOURCE=MSDC
##XUNITS=M/Z
##YUNITS=RELATIVE INTENSITY
##XFACTOR=1
##YFACTOR=1
##FIRSTX=13
##LASTX=103
##FIRSTY=5
##MAXX=103
##MINX=13
##MAXY=9999
##MINY=2
##NPOINTS=38
##PEAK TABLE=(XY..XY)
13,5 14,65 15,666 16,11
18,2 26,44 27,464 28,189
29,1549 30,35 31,329 32,3
36,3 37,25 38,80 39,1053
40,192 41,3759 42,387 43,9999
44,218 45,72 50,35 51,43
52,6 53,55 54,14 55,255
56,3036 57,4297 58,202 59,3140
60,103 61,196 73,14 101,2045
102,103 103,10
##END=
