##TITLE=1,2-Dibromoethylene
##JCAMP-DX=4.24
##DATA TYPE=MASS SPECTRUM
##ORIGIN=NIST Mass Spectrometry Data Center, 1990.
##OWNER=NIST Mass Spectrometry Data Center
Collection (C) 2014 copyright by the U.S. Secretary of Commerce
on behalf of the United States of America. All rights reserved.
##CAS REGISTRY NO=540-49-8
##$NIST MASS SPEC NO=118717
##MOLFORM=C2 H2 Br2
##MW=184
##$NIST SOURCE=MSDC
##XUNITS=M/Z
##YUNITS=RELATIVE INTENSITY
##XFACTOR=1
##YFACTOR=1
##FIRSTX=12
##LASTX=189
##FIRSTY=197
##MAXX=189
##MINX=12
##MAXY=9999
##MINY=25
##NPOINTS=31
##PEAK TABLE=(XY..XY)
12,197 13,270 14,49 24,438
25,2027 26,6207 27,178 28,25
79,1417 80,344 81,1394 82,263
91,498 92,500 93,841 94,469
95,25 103,372 104,1780 105,9020
106,1946 107,8430 108,170 158,68
160,118 162,59 182,58 184,5348
186,9999 188,5121 189,103
##END=
