##TITLE=Hydrazine, 1,2-dimethyl-
##JCAMP-DX=4.24
##DATA TYPE=MASS SPECTRUM
##ORIGIN=MASS SPECTROMETRY CENTER, UNIV. OF UTAH, ALDRICH D16180-2
##OWNER=NIST Mass Spectrometry Data Center
Collection (C) 2014 copyright by the U.S. Secretary of Commerce
on behalf of the United States of America. All rights reserved.
##CAS REGISTRY NO=540-73-8
##$NIST MASS SPEC NO=52263
##MOLFORM=C2 H8 N2
##MW=60
##$NIST SOURCE=MSDC
##XUNITS=M/Z
##YUNITS=RELATIVE INTENSITY
##XFACTOR=1
##YFACTOR=1
##FIRSTX=13
##LASTX=61
##FIRSTY=21
##MAXX=61
##MINX=13
##MAXY=9999
##MINY=21
##NPOINTS=22
##PEAK TABLE=(XY..XY)
13,21 15,1245 16,785 17,692
18,397 26,244 27,1646 28,780
29,2444 30,6623 31,1024 32,98
42,669 43,706 44,324 45,9999
46,250 57,363 58,244 59,411
60,8907 61,318
##END=
