##TITLE=1,2-Dichloroethylene
##JCAMP-DX=4.24
##DATA TYPE=MASS SPECTRUM
##ORIGIN=NIST Mass Spectrometry Data Center
##OWNER=NIST Mass Spectrometry Data Center
Collection (C) 2014 copyright by the U.S. Secretary of Commerce
on behalf of the United States of America. All rights reserved.
##CAS REGISTRY NO=540-59-0
##$NIST MASS SPEC NO=341803
##MOLFORM=C2 H2 Cl2
##MW=96
##$NIST SOURCE=MSDC
##XUNITS=M/Z
##YUNITS=RELATIVE INTENSITY
##XFACTOR=1
##YFACTOR=1
##FIRSTX=12
##LASTX=101
##FIRSTY=10
##MAXX=101
##MINX=12
##MAXY=9999
##MINY=10
##NPOINTS=31
##PEAK TABLE=(XY..XY)
12,10 13,20 24,90 25,480
26,1081 27,20 35,731 36,120
37,250 38,40 47,460 48,470
49,300 50,130 51,20 59,230
60,2222 61,9999 62,901 63,3303
64,60 70,80 72,50 94,50
95,160 96,6916 97,250 98,4434
99,110 100,721 101,10
##END=
