##TITLE=4-t-Butylcyclohexylamine
##JCAMP-DX=4.24
##DATA TYPE=MASS SPECTRUM
##ORIGIN=NIST Mass Spectrometry Data Center
##OWNER=NIST Mass Spectrometry Data Center
Collection (C) 2014 copyright by the U.S. Secretary of Commerce
on behalf of the United States of America. All rights reserved.
##CAS REGISTRY NO=5400-88-4
##$NIST MASS SPEC NO=342624
##MOLFORM=C10 H21 N
##MW=155
##$NIST SOURCE=MSDC
##XUNITS=M/Z
##YUNITS=RELATIVE INTENSITY
##XFACTOR=1
##YFACTOR=1
##FIRSTX=17
##LASTX=156
##FIRSTY=10
##MAXX=156
##MINX=17
##MAXY=9999
##MINY=10
##NPOINTS=47
##PEAK TABLE=(XY..XY)
17,10 18,120 27,190 28,591
29,140 30,701 38,50 39,601
41,1341 42,681 43,1862 44,120
51,100 52,60 53,270 54,150
56,9999 57,931 58,50 65,80
67,550 68,120 69,320 70,100
77,120 78,50 79,210 80,140
81,751 82,250 83,100 84,450
93,40 94,70 95,270 96,160
98,270 99,40 109,110 110,70
123,400 124,40 138,110 140,50
154,70 155,400 156,50
##END=
