##TITLE=Hydrazine, 1,1-dimethyl-2-(1-methylpropyl)-
##JCAMP-DX=4.24
##DATA TYPE=MASS SPECTRUM
##ORIGIN=ATLAS OF MASS SPECTRA OF ORGANIC COMPOUNDS, V. A. KOPTYUG, ED.
##OWNER=NIST Mass Spectrometry Data Center
Collection (C) 2014 copyright by the U.S. Secretary of Commerce
on behalf of the United States of America. All rights reserved.
##CAS REGISTRY NO=54007-24-8
##$NIST MASS SPEC NO=64455
##MOLFORM=C6 H16 N2
##MW=116
##$NIST SOURCE=MSDC
##XUNITS=M/Z
##YUNITS=RELATIVE INTENSITY
##XFACTOR=1
##YFACTOR=1
##FIRSTX=27
##LASTX=117
##FIRSTY=400
##MAXX=117
##MINX=27
##MAXY=9999
##MINY=40
##NPOINTS=28
##PEAK TABLE=(XY..XY)
27,400 28,460 29,540 30,370
31,50 39,130 41,380 42,850
43,570 44,2100 45,1500 46,230
55,100 56,100 57,280 58,370
59,9999 60,1000 70,60 71,80
72,160 85,50 86,40 87,1700
88,100 101,300 116,2900 117,310
##END=
