##TITLE=Hydrazine, 2-butyl-1,1-dimethyl-
##JCAMP-DX=4.24
##DATA TYPE=MASS SPECTRUM
##ORIGIN=ATLAS OF MASS SPECTRA OF ORGANIC COMPOUNDS, V. A. KOPTYUG, ED.
##OWNER=NIST Mass Spectrometry Data Center
Collection (C) 2014 copyright by the U.S. Secretary of Commerce
on behalf of the United States of America. All rights reserved.
##CAS REGISTRY NO=54007-23-7
##$NIST MASS SPEC NO=64454
##MOLFORM=C6 H16 N2
##MW=116
##$NIST SOURCE=MSDC
##XUNITS=M/Z
##YUNITS=RELATIVE INTENSITY
##XFACTOR=1
##YFACTOR=1
##FIRSTX=28
##LASTX=117
##FIRSTY=440
##MAXX=117
##MINX=28
##MAXY=9999
##MINY=30
##NPOINTS=25
##PEAK TABLE=(XY..XY)
28,440 29,400 30,650 32,170
39,120 40,30 41,350 42,710
43,470 44,810 45,650 46,320
55,30 56,40 57,210 58,70
59,9999 60,290 71,70 72,70
73,1800 74,90 101,100 116,1800
117,190
##END=
