##TITLE=Pentanamide, N-ethyl-
##JCAMP-DX=4.24
##DATA TYPE=MASS SPECTRUM
##ORIGIN=CARL DJERASSI DEPT OF CHEM STANFORD UNIV STANFORD CALIF 94305
##OWNER=NIST Mass Spectrometry Data Center
Collection (C) 2014 copyright by the U.S. Secretary of Commerce
on behalf of the United States of America. All rights reserved.
##CAS REGISTRY NO=54007-33-9
##$NIST MASS SPEC NO=46494
##MOLFORM=C7 H15 N O
##MW=129
##$NIST SOURCE=MSDC
##XUNITS=M/Z
##YUNITS=RELATIVE INTENSITY
##XFACTOR=1
##YFACTOR=1
##FIRSTX=29
##LASTX=129
##FIRSTY=5100
##MAXX=129
##MINX=29
##MAXY=9999
##MINY=100
##NPOINTS=23
##PEAK TABLE=(XY..XY)
29,5100 30,4100 39,300 41,1800
42,500 43,700 44,5100 45,500
46,700 55,1200 56,400 57,3000
58,200 59,400 72,7800 73,300
85,1100 86,300 87,9999 88,400
100,1600 101,200 129,100
##END=
