##TITLE=Fenbufen methyl derivative
##JCAMP-DX=4.24
##DATA TYPE=MASS SPECTRUM
##ORIGIN=NIST Mass Spectrometry Data Center, 2009
##OWNER=NIST Mass Spectrometry Data Center
Collection (C) 2014 copyright by the U.S. Secretary of Commerce
on behalf of the United States of America. All rights reserved.
##CAS REGISTRY NO=54011-27-7
##$NIST MASS SPEC NO=373189
##MOLFORM=C17 H16 O3
##MW=268
##$NIST SOURCE=MSDC
##XUNITS=M/Z
##YUNITS=RELATIVE INTENSITY
##XFACTOR=1
##YFACTOR=1
##FIRSTX=15
##LASTX=270
##FIRSTY=110
##MAXX=270
##MINX=15
##MAXY=9999
##MINY=10
##NPOINTS=104
##PEAK TABLE=(XY..XY)
15,110 26,20 27,100 28,80
29,30 30,10 31,10 32,10
38,10 39,50 41,10 42,20
43,10 45,30 50,70 51,160
52,30 53,20 55,250 56,20
57,10 59,210 60,10 62,40
63,160 64,10 65,20 74,80
76,861 78,30 82,10 83,10
85,10 86,20 87,110 88,30
89,50 90,691 94,10 98,30
99,30 100,20 101,80 102,150
103,40 104,20 106,30 110,10
111,10 113,30 114,20 115,120
116,10 118,100 122,10 125,50
126,280 127,390 128,60 129,10
131,10 133,10 134,10 137,10
139,30 140,10 141,10 150,280
151,1101 152,4384 153,2292 154,290
155,20 163,10 164,10 165,120
166,40 167,50 168,10 176,20
177,10 178,90 179,60 181,9999
182,1401 183,120 184,10 189,20
190,10 191,60 192,20 196,10
197,10 207,10 208,10 209,50
210,10 235,10 237,631 238,100
239,10 268,1021 269,190 270,20
##END=
