##TITLE=3-Hexanone, 2,2-dimethyl-
##JCAMP-DX=4.24
##DATA TYPE=MASS SPECTRUM
##ORIGIN=CONTINENTAL OIL CO., PONCA CITY, OKLA, USA
##OWNER=NIST Mass Spectrometry Data Center
Collection (C) 2014 copyright by the U.S. Secretary of Commerce
on behalf of the United States of America. All rights reserved.
##CAS REGISTRY NO=5405-79-8
##$NIST MASS SPEC NO=35107
##MOLFORM=C8 H16 O
##MW=128
##$NIST SOURCE=MSDC
##XUNITS=M/Z
##YUNITS=RELATIVE INTENSITY
##XFACTOR=1
##YFACTOR=1
##FIRSTX=14
##LASTX=130
##FIRSTY=140
##MAXX=130
##MINX=14
##MAXY=9999
##MINY=5
##NPOINTS=68
##PEAK TABLE=(XY..XY)
14,140 15,829 16,25 17,8
18,18 19,7 25,11 26,243
27,2810 28,656 29,3092 30,79
31,41 36,7 37,63 38,165
39,2030 40,322 41,4923 42,749
43,5369 44,192 45,27 49,7
50,49 51,82 52,29 53,149
54,38 55,515 56,646 57,9999
58,458 59,22 62,7 63,13
65,19 66,10 67,64 68,14
69,84 70,482 71,4923 72,230
73,33 74,5 77,14 79,10
81,10 83,61 84,9 85,383
86,55 87,5 91,8 95,20
96,5 97,10 98,6 99,14
100,7 111,6 113,62 114,7
126,5 128,872 129,81 130,6
##END=
