##TITLE=1(2H)-Naphthalenone, 3,4-dihydro-3,3,6,8-tetramethyl-
##JCAMP-DX=4.24
##DATA TYPE=MASS SPECTRUM
##OWNER=NIST Mass Spectrometry Data Center
Collection (C) 2014 copyright by the U.S. Secretary of Commerce
on behalf of the United States of America. All rights reserved.
##CAS REGISTRY NO=5409-55-2
##$NIST MASS SPEC NO=9075
##MOLFORM=C14 H18 O
##MW=202
##$NIST SOURCE=MSDC
##XUNITS=M/Z
##YUNITS=RELATIVE INTENSITY
##XFACTOR=1
##YFACTOR=1
##FIRSTX=14
##LASTX=204
##FIRSTY=10
##MAXX=204
##MINX=14
##MAXY=9999
##MINY=10
##NPOINTS=120
##PEAK TABLE=(XY..XY)
14,10 15,10 17,10 18,20
27,70 28,100 29,40 32,20
36,20 38,10 39,170 40,20
41,100 42,10 43,50 44,10
50,30 51,150 52,40 53,90
54,10 55,40 56,10 57,10
58,30 62,20 63,100 64,80
65,120 66,20 67,20 69,10
70,30 71,50 72,20 73,20
74,20 75,40 76,60 77,250
78,120 79,70 80,10 82,10
83,30 84,20 85,60 86,110
87,20 88,10 89,50 90,20
91,380 92,60 93,20 94,10
101,10 102,70 103,340 104,60
105,80 106,10 113,10 114,10
115,480 116,150 117,751 118,1081
119,200 120,20 126,10 127,110
128,400 129,330 130,80 131,60
132,30 133,30 134,10 135,10
139,30 140,10 141,180 142,110
143,160 144,130 145,180 146,9999
147,1071 148,80 149,10 151,10
152,30 153,40 154,20 155,30
156,20 157,50 158,40 159,420
160,100 161,10 162,10 165,10
167,10 168,10 169,30 170,10
171,50 172,50 173,80 174,30
185,10 186,30 187,350 188,60
189,10 202,3954 203,611 204,60
##END=
