##TITLE=Butanamide
##JCAMP-DX=4.24
##DATA TYPE=MASS SPECTRUM
##ORIGIN=Japan AIST/NIMC Database- Spectrum MS-NW-5048
##OWNER=NIST Mass Spectrometry Data Center
Collection (C) 2014 copyright by the U.S. Secretary of Commerce
on behalf of the United States of America. All rights reserved.
##CAS REGISTRY NO=541-35-5
##$NIST MASS SPEC NO=230165
##MOLFORM=C4 H9 N O
##MW=87
##$NIST SOURCE=MSDC
##XUNITS=M/Z
##YUNITS=RELATIVE INTENSITY
##XFACTOR=1
##YFACTOR=1
##FIRSTX=12
##LASTX=88
##FIRSTY=10
##MAXX=88
##MINX=12
##MAXY=9999
##MINY=10
##NPOINTS=52
##PEAK TABLE=(XY..XY)
12,10 13,20 14,70 15,259
16,109 17,179 18,149 25,30
26,369 27,2659 28,409 29,2609
30,179 31,50 36,20 37,199
38,279 39,1159 40,309 41,5339
42,749 43,3219 44,6629 45,319
46,169 49,10 50,20 51,70
52,139 53,40 54,99 55,699
56,30 58,20 59,9999 60,299
61,20 62,10 63,20 64,60
65,10 66,50 67,30 68,60
69,179 70,99 71,799 72,1919
73,80 86,299 87,289 88,50
##END=
