##TITLE=Butane, 1-iodo-3-methyl-
##JCAMP-DX=4.24
##DATA TYPE=MASS SPECTRUM
##OWNER=NIST Mass Spectrometry Data Center
Collection (C) 2014 copyright by the U.S. Secretary of Commerce
on behalf of the United States of America. All rights reserved.
##CAS REGISTRY NO=541-28-6
##$NIST MASS SPEC NO=8916
##MOLFORM=C5 H11 I
##MW=198
##$NIST SOURCE=MSDC
##XUNITS=M/Z
##YUNITS=RELATIVE INTENSITY
##XFACTOR=1
##YFACTOR=1
##FIRSTX=15
##LASTX=199
##FIRSTY=60
##MAXX=199
##MINX=15
##MAXY=9999
##MINY=10
##NPOINTS=53
##PEAK TABLE=(XY..XY)
15,60 26,120 27,1702 28,270
29,1311 30,30 37,30 38,90
39,961 40,140 41,2572 42,410
43,9999 44,350 45,20 50,60
51,80 52,30 53,200 54,50
55,1832 56,180 57,80 58,10
59,10 67,20 68,10 69,140
70,120 71,7347 72,410 91,40
92,40 102,10 111,10 127,420
128,110 129,20 139,10 140,10
141,170 142,30 152,10 153,20
154,70 155,671 156,30 168,70
183,80 184,30 185,10 198,3773
199,210
##END=
