##TITLE=Acetic acid, chloro-, anhydride
##JCAMP-DX=4.24
##DATA TYPE=MASS SPECTRUM
##ORIGIN=RADIAN CORP
##OWNER=NIST Mass Spectrometry Data Center
Collection (C) 2014 copyright by the U.S. Secretary of Commerce
on behalf of the United States of America. All rights reserved.
##CAS REGISTRY NO=541-88-8
##$NIST MASS SPEC NO=72976
##MOLFORM=C4 H4 Cl2 O3
##MW=170
##$NIST SOURCE=MSDC
##XUNITS=M/Z
##YUNITS=RELATIVE INTENSITY
##XFACTOR=1
##YFACTOR=1
##FIRSTX=13
##LASTX=149
##FIRSTY=30
##MAXX=149
##MINX=13
##MAXY=9999
##MINY=10
##NPOINTS=45
##PEAK TABLE=(XY..XY)
13,30 14,90 16,10 26,10
27,10 29,130 31,10 35,90
36,20 37,30 38,10 39,10
40,30 41,150 42,720 43,20
44,80 45,70 47,210 48,320
49,2940 50,250 51,1010 52,50
63,30 64,20 65,40 76,250
77,9999 78,310 79,3350 80,70
81,10 92,30 93,40 94,20
95,20 105,10 107,20 120,140
121,150 123,30 133,10 148,30
149,70
##END=
