##TITLE=2-Butenoic acid, 3-methyl-
##JCAMP-DX=4.24
##DATA TYPE=MASS SPECTRUM
##ORIGIN=Japan AIST/NIMC Database- Spectrum MS-NW-4630
##OWNER=NIST Mass Spectrometry Data Center
Collection (C) 2014 copyright by the U.S. Secretary of Commerce
on behalf of the United States of America. All rights reserved.
##CAS REGISTRY NO=541-47-9
##$NIST MASS SPEC NO=230321
##MOLFORM=C5 H8 O2
##MW=100
##$NIST SOURCE=MSDC
##XUNITS=M/Z
##YUNITS=RELATIVE INTENSITY
##XFACTOR=1
##YFACTOR=1
##FIRSTX=12
##LASTX=102
##FIRSTY=20
##MAXX=102
##MINX=12
##MAXY=9999
##MINY=10
##NPOINTS=71
##PEAK TABLE=(XY..XY)
12,20 13,30 14,70 15,289
16,20 17,90 18,299 19,10
25,60 26,499 27,3329 28,849
29,3609 30,90 31,249 32,30
36,60 37,459 38,869 39,6419
40,699 41,3139 42,679 43,1769
44,209 45,1179 46,30 47,10
48,40 49,219 50,759 51,739
52,299 53,1879 54,2949 55,4869
56,319 57,909 58,319 59,839
60,519 61,20 62,10 63,10
64,10 65,10 66,70 67,549
68,80 69,109 70,10 71,109
72,80 73,60 74,10 77,10
79,10 81,70 82,4849 83,4729
84,289 85,3539 86,169 87,20
95,10 97,20 98,10 99,50
100,9999 101,589 102,60
##END=
