##TITLE=di-tert-Butyl malonate
##JCAMP-DX=4.24
##DATA TYPE=MASS SPECTRUM
##ORIGIN=NIST Mass Spectrometry Data Center, 1994
##OWNER=NIST Mass Spectrometry Data Center
Collection (C) 2014 copyright by the U.S. Secretary of Commerce
on behalf of the United States of America. All rights reserved.
##CAS REGISTRY NO=541-16-2
##$NIST MASS SPEC NO=133347
##MOLFORM=C11 H20 O4
##MW=216
##$NIST SOURCE=MSDC
##XUNITS=M/Z
##YUNITS=RELATIVE INTENSITY
##XFACTOR=1
##YFACTOR=1
##FIRSTX=4
##LASTX=202
##FIRSTY=44
##MAXX=202
##MINX=4
##MAXY=9999
##MINY=2
##NPOINTS=58
##PEAK TABLE=(XY..XY)
4,44 12,6 13,8 14,42
15,180 16,7 18,5 27,341
28,180 29,1000 30,29 31,153
32,7 37,10 39,584 41,2314
42,777 43,1061 44,62 45,35
50,17 51,28 52,8 53,57
55,211 57,9999 58,577 59,2698
60,103 61,10 69,178 70,9
71,6 72,38 73,37 83,11
87,170 88,8 97,5 100,10
103,49 105,1535 106,47 107,12
112,10 115,260 116,76 117,12
125,6 127,3 143,80 145,976
146,73 147,10 161,189 162,15
201,12 202,2
##END=
