##TITLE=1-Butanethiol, 3-methyl-
##JCAMP-DX=4.24
##DATA TYPE=MASS SPECTRUM
##OWNER=NIST Mass Spectrometry Data Center
Collection (C) 2014 copyright by the U.S. Secretary of Commerce
on behalf of the United States of America. All rights reserved.
##CAS REGISTRY NO=541-31-1
##$NIST MASS SPEC NO=20013
##MOLFORM=C5 H12 S
##MW=104
##$NIST SOURCE=MSDC
##XUNITS=M/Z
##YUNITS=RELATIVE INTENSITY
##XFACTOR=1
##YFACTOR=1
##FIRSTX=2
##LASTX=107
##FIRSTY=30
##MAXX=107
##MINX=2
##MAXY=9999
##MINY=10
##NPOINTS=80
##PEAK TABLE=(XY..XY)
2,30 12,10 13,10 14,50
15,420 16,10 24,10 25,10
26,250 27,3283 28,510 29,2442
30,50 31,10 32,40 33,90
34,150 35,681 36,20 37,130
38,290 39,2873 40,360 41,5235
42,4034 43,4604 44,150 45,1291
46,581 47,4004 48,210 49,210
50,170 51,230 52,70 53,420
54,220 55,9999 56,681 57,841
58,340 59,430 60,520 61,3463
62,290 63,170 64,10 65,20
66,10 67,50 68,20 69,330
70,8638 71,591 72,30 73,50
74,10 75,10 76,50 77,10
78,10 79,10 80,10 81,10
82,10 83,10 84,10 85,20
86,10 87,30 88,10 89,60
90,10 101,10 102,10 103,20
104,2883 105,190 106,130 107,10
##END=
