##TITLE=Thiazole, 2,4-dimethyl-
##JCAMP-DX=4.24
##DATA TYPE=MASS SPECTRUM
##OWNER=NIST Mass Spectrometry Data Center
Collection (C) 2014 copyright by the U.S. Secretary of Commerce
on behalf of the United States of America. All rights reserved.
##CAS REGISTRY NO=541-58-2
##$NIST MASS SPEC NO=1730
##MOLFORM=C5 H7 N S
##MW=113
##$NIST SOURCE=MSDC
##XUNITS=M/Z
##YUNITS=RELATIVE INTENSITY
##XFACTOR=1
##YFACTOR=1
##FIRSTX=37
##LASTX=115
##FIRSTY=300
##MAXX=115
##MINX=37
##MAXY=9999
##MINY=200
##NPOINTS=27
##PEAK TABLE=(XY..XY)
37,300 38,600 39,1900 40,400
41,600 42,1200 44,400 45,2800
46,400 47,200 52,200 57,400
58,400 59,500 68,300 69,900
70,400 71,7799 72,9699 73,800
74,600 76,200 78,400 112,200
113,9999 114,800 115,600
##END=
