##TITLE=Muscone
##JCAMP-DX=4.24
##DATA TYPE=MASS SPECTRUM
##ORIGIN=R RYHAGE MS-LAB KAROLINSKA INSTITUTET STOCKHOLM SWEDEN
##OWNER=NIST Mass Spectrometry Data Center
Collection (C) 2014 copyright by the U.S. Secretary of Commerce
on behalf of the United States of America. All rights reserved.
##CAS REGISTRY NO=541-91-3
##$NIST MASS SPEC NO=43044
##MOLFORM=C16 H30 O
##MW=238
##$NIST SOURCE=MSDC
##XUNITS=M/Z
##YUNITS=RELATIVE INTENSITY
##XFACTOR=1
##YFACTOR=1
##FIRSTX=12
##LASTX=239
##FIRSTY=20
##MAXX=239
##MINX=12
##MAXY=9999
##MINY=20
##NPOINTS=154
##PEAK TABLE=(XY..XY)
12,20 13,20 14,60 15,170
16,30 17,20 18,80 25,40
26,250 27,2200 28,1320 29,3800
30,100 31,80 32,60 37,60
38,100 39,2250 40,580 41,9999
42,3380 43,5160 44,200 45,150
50,50 51,120 52,80 53,960
54,1060 55,9010 56,2630 57,2060
58,3050 59,1830 60,80 65,180
66,190 67,1880 68,1780 69,5070
70,1380 71,3850 72,370 73,80
74,40 77,190 78,110 79,550
80,510 81,2110 82,2390 83,2580
84,2720 85,6100 86,540 87,120
91,140 92,80 93,510 94,1100
95,1880 96,2490 97,3660 98,1650
99,580 100,230 101,70 102,20
105,40 106,30 107,470 108,690
109,1040 110,1340 111,1700 112,1030
113,370 114,200 115,40 119,30
120,30 121,610 122,440 123,560
124,890 125,2440 126,610 127,300
128,160 129,50 133,20 134,30
135,770 136,370 137,340 138,700
139,610 140,170 141,210 142,410
143,60 147,20 148,20 149,590
150,260 151,230 152,390 153,320
154,120 155,170 156,420 157,60
163,310 164,180 165,100 166,70
167,160 168,110 169,110 170,220
171,40 177,200 178,460 179,110
180,960 181,280 182,90 183,180
184,30 187,30 191,170 192,60
193,30 194,70 195,470 196,110
197,200 198,30 205,140 206,30
207,20 208,30 209,1040 210,200
211,30 220,690 221,140 222,20
223,990 224,180 225,20 237,80
238,2200 239,490
##END=
