##TITLE=Carbonochloridic acid, ethyl ester
##JCAMP-DX=4.24
##DATA TYPE=MASS SPECTRUM
##ORIGIN=NIST Mass Spectrometry Data Center, 1990.
##OWNER=NIST Mass Spectrometry Data Center
Collection (C) 2014 copyright by the U.S. Secretary of Commerce
on behalf of the United States of America. All rights reserved.
##CAS REGISTRY NO=541-41-3
##$NIST MASS SPEC NO=118701
##MOLFORM=C3 H5 Cl O2
##MW=108
##$NIST SOURCE=MSDC
##XUNITS=M/Z
##YUNITS=RELATIVE INTENSITY
##XFACTOR=1
##YFACTOR=1
##FIRSTX=12
##LASTX=109
##FIRSTY=45
##MAXX=109
##MINX=12
##MAXY=9999
##MINY=8
##NPOINTS=44
##PEAK TABLE=(XY..XY)
12,45 13,68 14,251 15,470
16,44 17,13 18,26 19,26
24,25 25,137 26,885 27,3188
28,2811 29,9999 30,503 31,17
35,445 36,53 37,168 38,23
40,8 41,42 42,116 43,377
44,704 45,892 46,41 47,41
48,12 49,33 51,25 58,35
63,3171 64,182 65,1061 66,55
73,20 81,41 83,14 93,452
94,16 95,144 107,33 109,13
##END=
