##TITLE=(2-Methylbutyl)cyclohexane
##JCAMP-DX=4.24
##DATA TYPE=MASS SPECTRUM
##ORIGIN=NIST Mass Spectrometry Data Center, 1990.
##OWNER=NIST Mass Spectrometry Data Center
Collection (C) 2014 copyright by the U.S. Secretary of Commerce
on behalf of the United States of America. All rights reserved.
##CAS REGISTRY NO=54105-77-0
##$NIST MASS SPEC NO=113976
##MOLFORM=C11 H22
##MW=154
##$NIST SOURCE=MSDC
##XUNITS=M/Z
##YUNITS=RELATIVE INTENSITY
##XFACTOR=1
##YFACTOR=1
##FIRSTX=14
##LASTX=155
##FIRSTY=166
##MAXX=155
##MINX=14
##MAXY=9999
##MINY=116
##NPOINTS=40
##PEAK TABLE=(XY..XY)
14,166 27,1348 28,1132 29,2446
32,316 39,2336 41,5958 42,941
43,1151 51,238 52,174 53,1151
54,1451 55,9999 56,1804 57,2200
58,119 65,321 67,2856 68,725
69,5049 70,1507 71,579 77,371
79,414 80,128 81,961 82,3549
83,8338 84,629 91,116 95,127
96,735 97,1779 98,163 124,805
125,3757 126,444 154,1024 155,131
##END=
