##TITLE=Cyclohexane, undecyl-
##JCAMP-DX=4.24
##DATA TYPE=MASS SPECTRUM
##ORIGIN=Japan AIST/NIMC Database- Spectrum MS-NW-1014
##OWNER=NIST Mass Spectrometry Data Center
Collection (C) 2014 copyright by the U.S. Secretary of Commerce
on behalf of the United States of America. All rights reserved.
##CAS REGISTRY NO=54105-66-7
##$NIST MASS SPEC NO=228035
##MOLFORM=C17 H34
##MW=238
##$NIST SOURCE=MSDC
##XUNITS=M/Z
##YUNITS=RELATIVE INTENSITY
##XFACTOR=1
##YFACTOR=1
##FIRSTX=15
##LASTX=239
##FIRSTY=10
##MAXX=239
##MINX=15
##MAXY=9999
##MINY=10
##NPOINTS=71
##PEAK TABLE=(XY..XY)
15,10 17,40 18,189 26,10
27,319 28,20 29,729 30,20
39,279 40,60 41,1959 42,369
43,1469 44,60 51,20 52,10
53,149 54,329 55,3649 56,619
57,939 58,40 65,20 66,30
67,1119 68,349 69,949 70,409
71,349 72,30 77,30 78,10
79,50 80,20 81,229 82,8349
83,9999 84,869 85,209 86,20
91,10 95,50 96,209 97,799
98,189 99,50 101,10 109,20
110,40 111,279 112,119 113,30
124,20 125,139 126,119 127,10
138,10 139,70 140,40 141,10
152,10 153,30 154,209 155,70
167,20 168,20 181,10 182,10
210,20 238,399 239,80
##END=
