##TITLE=Benzene, 1,2-dibromo-4-nitro-
##JCAMP-DX=4.24
##DATA TYPE=MASS SPECTRUM
##ORIGIN=Japan AIST/NIMC Database- Spectrum MS-IW-3909
##OWNER=NIST Mass Spectrometry Data Center
Collection (C) 2014 copyright by the U.S. Secretary of Commerce
on behalf of the United States of America. All rights reserved.
##CAS REGISTRY NO=5411-50-7
##$NIST MASS SPEC NO=236404
##MOLFORM=C6 H3 Br2 N O2
##MW=279
##$NIST SOURCE=MSDC
##XUNITS=M/Z
##YUNITS=RELATIVE INTENSITY
##XFACTOR=1
##YFACTOR=1
##FIRSTX=25
##LASTX=285
##FIRSTY=20
##MAXX=285
##MINX=25
##MAXY=9999
##MINY=10
##NPOINTS=124
##PEAK TABLE=(XY..XY)
25,20 26,40 27,20 28,10
30,2089 31,50 36,119 37,799
38,509 39,80 44,20 45,20
46,60 48,60 49,519 50,879
51,129 52,20 53,40 60,99
61,399 62,469 63,899 64,90
65,10 72,99 73,1259 74,6849
75,8489 76,669 77,189 78,169
79,179 80,219 81,179 82,199
83,10 85,10 86,30 87,50
88,70 89,40 90,30 91,60
92,10 93,40 95,20 104,70
105,30 106,70 107,20 115,20
116,90 117,159 118,109 119,139
120,10 127,10 128,449 129,99
130,449 131,90 141,90 142,169
143,109 144,149 145,30 152,80
153,2029 154,3649 155,2239 156,3439
157,299 158,10 160,10 168,50
169,10 170,239 171,60 172,189
173,70 175,20 184,10 185,10
195,30 197,50 199,30 201,80
202,10 203,80 207,10 209,20
211,10 221,1899 222,109 223,3659
224,209 225,1809 226,99 232,40
233,2949 234,259 235,5689 236,419
237,2789 238,189 239,10 249,1149
250,90 251,2259 252,149 253,1099
254,70 263,80 265,159 266,10
267,80 279,5119 280,369 281,9999
282,709 283,4899 284,349 285,30
##END=
