##TITLE=1,3-Diphenyl-2,3-epoxy-1-propanone
##JCAMP-DX=4.24
##DATA TYPE=MASS SPECTRUM
##ORIGIN=Japan AIST/NIMC Database- Spectrum MS-IW-4889
##OWNER=NIST Mass Spectrometry Data Center
Collection (C) 2014 copyright by the U.S. Secretary of Commerce
on behalf of the United States of America. All rights reserved.
##CAS REGISTRY NO=5411-12-1
##$NIST MASS SPEC NO=244839
##MOLFORM=C15 H12 O2
##MW=224
##$NIST SOURCE=MSDC
##XUNITS=M/Z
##YUNITS=RELATIVE INTENSITY
##XFACTOR=1
##YFACTOR=1
##FIRSTX=18
##LASTX=226
##FIRSTY=20
##MAXX=226
##MINX=18
##MAXY=9999
##MINY=10
##NPOINTS=83
##PEAK TABLE=(XY..XY)
18,20 27,70 28,30 29,20
37,10 38,70 39,359 40,50
41,40 49,10 50,349 51,1289
52,119 53,20 61,20 62,129
63,499 64,239 65,379 66,20
69,90 73,10 74,109 75,129
76,219 77,5479 78,409 79,40
82,20 83,30 84,10 86,20
87,30 88,30 89,1669 90,1829
91,1309 92,99 97,10 98,20
101,10 102,90 103,90 104,30
105,9999 106,979 107,70 112,20
115,20 118,159 119,90 120,10
128,10 131,20 139,10 146,50
147,80 151,10 152,109 153,10
165,149 166,70 167,249 168,30
176,10 177,50 178,80 179,60
180,10 181,10 194,40 195,269
196,80 197,10 205,20 206,20
207,99 208,90 209,10 223,319
224,3989 225,679 226,60
##END=
