##TITLE=5-Diethylamino-2-pentanol
##JCAMP-DX=4.24
##DATA TYPE=MASS SPECTRUM
##ORIGIN=Japan AIST/NIMC Database- Spectrum MS-NW-5887
##OWNER=NIST Mass Spectrometry Data Center
Collection (C) 2014 copyright by the U.S. Secretary of Commerce
on behalf of the United States of America. All rights reserved.
##CAS REGISTRY NO=5412-69-1
##$NIST MASS SPEC NO=235108
##MOLFORM=C9 H21 N O
##MW=159
##$NIST SOURCE=MSDC
##XUNITS=M/Z
##YUNITS=RELATIVE INTENSITY
##XFACTOR=1
##YFACTOR=1
##FIRSTX=15
##LASTX=160
##FIRSTY=80
##MAXX=160
##MINX=15
##MAXY=9999
##MINY=10
##NPOINTS=68
##PEAK TABLE=(XY..XY)
15,80 17,10 18,30 26,20
27,289 28,299 29,419 30,849
31,60 32,10 39,90 40,20
41,419 42,389 43,379 44,229
45,429 46,20 51,10 53,20
54,40 55,80 56,289 57,139
58,1759 59,90 60,60 64,70
65,10 67,30 68,20 69,549
70,109 71,209 72,349 73,109
74,139 80,10 81,10 82,20
83,20 84,139 85,269 86,9999
87,579 88,20 96,20 97,10
98,70 99,30 100,50 101,10
102,10 105,10 110,20 111,10
112,40 114,40 126,20 128,10
130,20 140,20 142,50 144,429
145,40 158,60 159,369 160,40
##END=
