##TITLE=N-(Trifluoracetyl)-O,O',O''-tris(trimethylsilyl)epinephrine
##JCAMP-DX=4.24
##DATA TYPE=MASS SPECTRUM
##ORIGIN=F.A.J.MUSKIET, LAB. CLIN. CHEM., UNIV. HOSP., GRONINGEN, NET
##OWNER=NIST Mass Spectrometry Data Center
Collection (C) 2014 copyright by the U.S. Secretary of Commerce
on behalf of the United States of America. All rights reserved.
##CAS REGISTRY NO=54135-51-2
##$NIST MASS SPEC NO=72265
##MOLFORM=C20 H36 F3 N O4 Si3
##MW=495
##$NIST SOURCE=MSDC
##XUNITS=M/Z
##YUNITS=RELATIVE INTENSITY
##XFACTOR=1
##YFACTOR=1
##FIRSTX=40
##LASTX=495
##FIRSTY=70
##MAXX=495
##MINX=40
##MAXY=9999
##MINY=20
##NPOINTS=72
##PEAK TABLE=(XY..XY)
40,70 42,210 43,150 44,320
45,1150 46,50 47,60 56,30
57,40 58,40 59,100 60,40
61,20 64,60 69,130 72,100
73,9999 74,840 75,630 76,40
77,420 78,80 91,60 110,70
117,50 121,30 131,50 133,80
134,310 135,60 140,350 147,150
148,40 161,20 163,20 177,40
179,150 180,20 184,260 185,30
191,70 192,70 193,130 194,30
205,20 207,50 220,20 221,40
237,60 251,100 265,200 266,30
267,180 268,40 279,60 280,40
281,350 282,100 324,20 339,40
341,30 353,60 354,20 355,6880
356,2060 357,1030 358,240 359,60
368,40 480,170 481,60 495,80
##END=
