##TITLE=5-Amino-4,6-dichloropyrimidine
##JCAMP-DX=4.24
##DATA TYPE=MASS SPECTRUM
##ORIGIN=NIST Mass Spectrometry Data Center
##OWNER=NIST Mass Spectrometry Data Center
Collection (C) 2014 copyright by the U.S. Secretary of Commerce
on behalf of the United States of America. All rights reserved.
##CAS REGISTRY NO=5413-85-4
##$NIST MASS SPEC NO=340922
##MOLFORM=C4 H3 Cl2 N3
##MW=163
##$NIST SOURCE=MSDC
##XUNITS=M/Z
##YUNITS=RELATIVE INTENSITY
##XFACTOR=1
##YFACTOR=1
##FIRSTX=12
##LASTX=168
##FIRSTY=30
##MAXX=168
##MINX=12
##MAXY=9999
##MINY=10
##NPOINTS=81
##PEAK TABLE=(XY..XY)
12,30 13,10 16,20 24,30
25,30 26,50 27,350 28,350
29,10 33,40 35,210 36,80
37,100 38,1371 39,1702 40,751
41,60 42,20 43,10 47,1341
48,510 49,470 50,320 51,280
52,130 53,1351 54,140 55,10
59,20 60,10 61,110 62,510
63,70 64,460 65,741 66,4124
67,791 68,30 73,1281 74,1832
75,1682 76,711 77,480 78,20
81,10 82,10 85,230 86,120
87,110 88,40 89,30 91,20
92,220 93,30 99,30 100,2803
101,4514 102,1111 103,1461 104,50
108,50 109,20 110,40 111,10
112,20 127,4124 128,4724 129,1591
130,1551 131,80 135,90 136,20
137,60 138,10 139,10 163,9999
164,621 165,6456 166,370 167,1051
168,60
##END=
