##TITLE=4,7-Methano-1H-inden-6-ol, 3a,4,5,6,7,7a-hexahydro-, acetate
##JCAMP-DX=4.24
##DATA TYPE=MASS SPECTRUM
##ORIGIN=W.Jennings, T.Shibamoto
##OWNER=NIST Mass Spectrometry Data Center
Collection (C) 2014 copyright by the U.S. Secretary of Commerce
on behalf of the United States of America. All rights reserved.
##CAS REGISTRY NO=5413-60-5
##$NIST MASS SPEC NO=285177
##MOLFORM=C12 H16 O2
##MW=192
##$NIST SOURCE=MSDC
##XUNITS=M/Z
##YUNITS=RELATIVE INTENSITY
##XFACTOR=1
##YFACTOR=1
##FIRSTX=29
##LASTX=192
##FIRSTY=10
##MAXX=192
##MINX=29
##MAXY=9999
##MINY=10
##NPOINTS=39
##PEAK TABLE=(XY..XY)
29,10 41,190 43,4994 44,70
54,280 55,190 65,70 66,9999
67,4314 68,190 77,190 78,591
79,591 80,280 81,70 82,1191
83,1291 84,190 91,1121 92,190
93,190 103,70 104,1121 105,911
106,190 107,70 109,70 117,1792
118,70 119,70 121,70 124,991
125,390 126,390 131,390 132,3143
133,390 150,190 192,390
##END=
