##TITLE=1-Bromo-2-(2-methoxyethoxy)ethane
##JCAMP-DX=4.24
##DATA TYPE=MASS SPECTRUM
##ORIGIN=Chuck Anderson, Aldrich Chemical Co.
##OWNER=NIST Mass Spectrometry Data Center
Collection (C) 2014 copyright by the U.S. Secretary of Commerce
on behalf of the United States of America. All rights reserved.
##CAS REGISTRY NO=54149-17-6
##$NIST MASS SPEC NO=108155
##MOLFORM=C5 H11 Br O2
##MW=182
##$NIST SOURCE=MSDC
##XUNITS=M/Z
##YUNITS=RELATIVE INTENSITY
##XFACTOR=1
##YFACTOR=1
##FIRSTX=13
##LASTX=153
##FIRSTY=5
##MAXX=153
##MINX=13
##MAXY=9999
##MINY=1
##NPOINTS=75
##PEAK TABLE=(XY..XY)
13,5 14,54 15,816 16,27
17,16 19,18 25,9 26,209
27,2029 28,713 29,1838 30,156
31,1227 32,18 33,61 35,1
36,1 38,4 39,32 40,7
41,124 42,211 43,933 44,340
45,9999 46,224 47,38 51,5
55,4 57,32 58,5440 59,5764
60,215 61,23 69,3 70,2
71,16 72,77 73,13 74,1
75,42 76,41 79,28 80,22
81,30 82,20 83,5 87,470
88,13 89,838 90,35 91,12
92,10 93,126 94,37 95,121
96,27 97,4 102,71 103,74
104,2 105,23 107,3852 109,3764
110,68 121,8 122,6 123,26
124,4 125,18 137,801 139,757
140,22 151,6 153,5
##END=
