##TITLE=Ethane, 1,1'-oxybis[2-bromo-
##JCAMP-DX=4.24
##DATA TYPE=MASS SPECTRUM
##OWNER=NIST Mass Spectrometry Data Center
Collection (C) 2014 copyright by the U.S. Secretary of Commerce
on behalf of the United States of America. All rights reserved.
##CAS REGISTRY NO=5414-19-7
##$NIST MASS SPEC NO=11068
##MOLFORM=C4 H8 Br2 O
##MW=230
##$NIST SOURCE=MSDC
##XUNITS=M/Z
##YUNITS=RELATIVE INTENSITY
##XFACTOR=1
##YFACTOR=1
##FIRSTX=13
##LASTX=153
##FIRSTY=50
##MAXX=153
##MINX=13
##MAXY=9999
##MINY=10
##NPOINTS=77
##PEAK TABLE=(XY..XY)
13,50 14,300 15,971 16,60
17,350 18,1501 19,60 24,10
25,90 26,961 27,9539 28,1852
29,1191 30,200 31,971 32,50
35,40 36,170 37,30 38,90
39,170 40,60 41,460 42,290
43,581 44,260 45,370 49,10
50,10 51,20 52,10 55,20
56,10 57,40 58,30 59,10
60,20 71,10 72,10 73,20
77,10 78,10 79,330 80,400
81,340 82,390 83,20 91,60
92,90 93,851 94,260 95,821
96,170 97,30 103,10 104,40
105,90 106,230 107,8838 108,400
109,8488 110,190 121,30 122,10
123,60 124,10 125,40 126,10
137,9999 138,1682 139,9719 140,330
141,20 150,290 151,10 152,290
153,10
##END=
