##TITLE=1,3,7-Trimethyluric acid
##JCAMP-DX=4.24
##DATA TYPE=MASS SPECTRUM
##ORIGIN=A.A.Kutin, Moscow, Russia
##OWNER=NIST Mass Spectrometry Data Center
Collection (C) 2014 copyright by the U.S. Secretary of Commerce
on behalf of the United States of America. All rights reserved.
##CAS REGISTRY NO=5415-44-1
##$NIST MASS SPEC NO=258290
##MOLFORM=C8 H10 N4 O3
##MW=210
##$NIST SOURCE=MSDC
##XUNITS=M/Z
##YUNITS=RELATIVE INTENSITY
##XFACTOR=1
##YFACTOR=1
##FIRSTX=33
##LASTX=213
##FIRSTY=24
##MAXX=213
##MINX=33
##MAXY=9999
##MINY=2
##NPOINTS=146
##PEAK TABLE=(XY..XY)
33,24 34,63 35,5 36,66
37,29 38,139 39,276 40,1639
41,736 42,2274 43,365 44,382
45,54 48,6 49,28 50,85
51,147 52,189 53,613 54,643
55,1028 56,1557 57,678 58,426
59,35 60,30 61,18 62,32
63,47 64,40 66,488 67,4451
68,521 69,612 70,661 71,123
72,24 73,43 74,44 75,42
76,72 77,223 78,68 79,83
80,178 82,9999 83,2200 84,228
85,57 86,15 87,19 88,10
89,3 90,30 91,46 93,22
94,47 95,62 96,151 97,255
98,290 99,24 100,9 101,9
102,9 103,6 104,37 105,683
106,18 107,14 108,24 109,124
110,123 111,82 112,57 113,30
114,3 115,6 117,4 119,10
120,3 121,14 122,35 123,72
124,681 125,1763 126,255 127,62
128,28 129,20 130,8 131,7
132,5 134,2 135,5 136,23
137,11 138,58 139,23 140,10
141,22 142,37 143,23 144,10
146,24 147,11 149,47 151,84
152,535 153,1933 154,161 155,60
156,6 157,32 164,6 165,29
166,32 167,46 168,38 169,21
170,4 171,55 172,4 179,3
180,51 181,144 182,65 183,110
184,19 185,56 193,7 195,29
196,8 197,12 198,13 199,28
200,38 201,27 202,19 206,3
207,70 209,447 210,7448 211,796
212,92 213,3
##END=
