##TITLE=Benzene, 1-isocyanato-4-methoxy-
##JCAMP-DX=4.24
##DATA TYPE=MASS SPECTRUM
##ORIGIN=RADIAN CORP
##OWNER=NIST Mass Spectrometry Data Center
Collection (C) 2014 copyright by the U.S. Secretary of Commerce
on behalf of the United States of America. All rights reserved.
##CAS REGISTRY NO=5416-93-3
##$NIST MASS SPEC NO=75296
##MOLFORM=C8 H7 N O2
##MW=149
##$NIST SOURCE=MSDC
##XUNITS=M/Z
##YUNITS=RELATIVE INTENSITY
##XFACTOR=1
##YFACTOR=1
##FIRSTX=14
##LASTX=151
##FIRSTY=30
##MAXX=151
##MINX=14
##MAXY=9999
##MINY=10
##NPOINTS=65
##PEAK TABLE=(XY..XY)
14,30 15,120 25,10 26,130
27,100 29,110 30,30 31,20
37,180 38,260 39,360 40,50
41,60 42,30 43,20 44,30
46,20 49,70 50,460 51,1370
52,1670 53,370 54,150 55,50
56,40 60,30 61,210 62,380
63,790 64,680 65,150 66,130
67,50 73,30 74,170 75,140
76,180 77,280 78,2660 79,210
80,850 81,50 84,20 86,30
87,60 88,80 89,40 90,510
91,340 92,110 93,50 106,4630
107,360 108,30 118,80 119,80
120,120 121,810 122,70 134,7170
135,610 136,50 149,9999 150,900
151,80
##END=
