##TITLE=3-Amino-2-naphthol
##JCAMP-DX=4.24
##DATA TYPE=MASS SPECTRUM
##ORIGIN=Japan AIST/NIMC Database- Spectrum MS-NW-6169
##OWNER=NIST Mass Spectrometry Data Center
Collection (C) 2014 copyright by the U.S. Secretary of Commerce
on behalf of the United States of America. All rights reserved.
##CAS REGISTRY NO=5417-63-0
##$NIST MASS SPEC NO=234746
##MOLFORM=C10 H9 N O
##MW=159
##$NIST SOURCE=MSDC
##XUNITS=M/Z
##YUNITS=RELATIVE INTENSITY
##XFACTOR=1
##YFACTOR=1
##FIRSTX=16
##LASTX=161
##FIRSTY=20
##MAXX=161
##MINX=16
##MAXY=9999
##MINY=10
##NPOINTS=90
##PEAK TABLE=(XY..XY)
16,20 17,10 18,30 26,20
27,60 28,129 29,20 36,80
37,30 38,70 39,149 40,20
41,40 42,20 43,20 44,30
49,20 50,129 51,299 52,159
53,60 54,30 55,20 56,10
57,30 61,60 62,149 63,249
64,229 65,379 66,60 67,10
68,20 70,30 71,20 73,20
74,109 75,149 76,159 77,509
78,90 79,449 80,60 85,20
86,60 87,80 88,169 89,90
90,30 91,30 92,10 97,10
98,20 99,20 100,20 101,80
102,319 103,549 104,149 105,20
106,10 107,10 109,10 110,10
111,10 112,10 113,259 114,769
115,279 116,119 117,20 118,20
127,20 128,99 129,70 130,2259
131,439 132,99 133,10 140,209
141,179 142,50 143,20 144,10
156,20 157,20 158,199 159,9999
160,1179 161,90
##END=
