##TITLE=Methane, tris(methylthio)-
##JCAMP-DX=4.24
##DATA TYPE=MASS SPECTRUM
##OWNER=NIST Mass Spectrometry Data Center
Collection (C) 2014 copyright by the U.S. Secretary of Commerce
on behalf of the United States of America. All rights reserved.
##CAS REGISTRY NO=5418-86-0
##$NIST MASS SPEC NO=5206
##MOLFORM=C4 H10 S3
##MW=154
##$NIST SOURCE=MSDC
##XUNITS=M/Z
##YUNITS=RELATIVE INTENSITY
##XFACTOR=1
##YFACTOR=1
##FIRSTX=15
##LASTX=158
##FIRSTY=140
##MAXX=158
##MINX=15
##MAXY=9999
##MINY=10
##NPOINTS=55
##PEAK TABLE=(XY..XY)
15,140 16,40 17,340 19,120
27,741 29,50 32,100 33,50
34,100 35,1241 37,60 41,20
44,400 45,2893 46,1071 47,711
48,170 49,130 57,40 58,190
59,270 60,641 61,9999 62,390
63,470 64,90 73,140 75,50
76,210 77,80 78,190 79,50
80,30 89,20 90,170 91,230
92,80 93,971 94,60 95,90
107,6896 108,571 109,1001 110,70
111,50 121,20 123,20 139,110
140,10 141,10 154,1581 155,110
156,210 157,10 158,10
##END=
