##TITLE=Propanenitrile, 3-chloro-
##JCAMP-DX=4.24
##DATA TYPE=MASS SPECTRUM
##ORIGIN=Japan AIST/NIMC Database- Spectrum MS-NW-4911
##OWNER=NIST Mass Spectrometry Data Center
Collection (C) 2014 copyright by the U.S. Secretary of Commerce
on behalf of the United States of America. All rights reserved.
##CAS REGISTRY NO=542-76-7
##$NIST MASS SPEC NO=230061
##MOLFORM=C3 H4 Cl N
##MW=89
##$NIST SOURCE=MSDC
##XUNITS=M/Z
##YUNITS=RELATIVE INTENSITY
##XFACTOR=1
##YFACTOR=1
##FIRSTX=12
##LASTX=92
##FIRSTY=90
##MAXX=92
##MINX=12
##MAXY=9999
##MINY=10
##NPOINTS=50
##PEAK TABLE=(XY..XY)
12,90 13,70 14,99 15,50
16,10 24,70 25,249 26,1779
27,1709 28,1369 29,20 35,149
36,279 37,129 38,199 39,179
40,189 41,60 42,20 43,10
44,119 45,20 47,119 48,159
49,9669 50,239 51,3179 52,1789
53,1559 54,9999 55,419 56,10
59,10 60,70 61,259 62,129
63,109 64,40 65,10 71,20
72,80 73,90 85,20 86,40
87,40 88,40 89,1659 90,80
91,509 92,20
##END=
