##TITLE=Ethane, isothiocyanato-
##JCAMP-DX=4.24
##DATA TYPE=MASS SPECTRUM
##OWNER=NIST Mass Spectrometry Data Center
Collection (C) 2014 copyright by the U.S. Secretary of Commerce
on behalf of the United States of America. All rights reserved.
##CAS REGISTRY NO=542-85-8
##$NIST MASS SPEC NO=19457
##MOLFORM=C3 H5 N S
##MW=87
##$NIST SOURCE=MSDC
##XUNITS=M/Z
##YUNITS=RELATIVE INTENSITY
##XFACTOR=1
##YFACTOR=1
##FIRSTX=12
##LASTX=90
##FIRSTY=190
##MAXX=90
##MINX=12
##MAXY=9999
##MINY=10
##NPOINTS=63
##PEAK TABLE=(XY..XY)
12,190 13,180 14,360 15,811
16,20 17,10 24,50 25,180
26,1231 27,4814 28,1641 29,3773
30,90 32,1111 33,110 34,70
35,10 36,40 37,20 38,190
39,200 40,310 41,110 42,150
43,40 44,931 45,1131 46,180
47,80 48,10 50,40 51,140
52,130 53,10 54,40 55,30
56,80 57,240 58,731 59,7397
60,1421 61,360 62,60 63,10
64,10 67,10 68,10 69,10
70,470 71,320 72,3313 73,130
74,150 75,10 82,40 83,50
84,140 85,30 86,300 87,9999
88,460 89,450 90,20
##END=
