##TITLE=Isoamyl cyanide
##JCAMP-DX=4.24
##DATA TYPE=MASS SPECTRUM
##ORIGIN=Japan AIST/NIMC Database- Spectrum MS-NW-1260
##OWNER=NIST Mass Spectrometry Data Center
Collection (C) 2014 copyright by the U.S. Secretary of Commerce
on behalf of the United States of America. All rights reserved.
##CAS REGISTRY NO=542-54-1
##$NIST MASS SPEC NO=227538
##MOLFORM=C6 H11 N
##MW=97
##$NIST SOURCE=MSDC
##XUNITS=M/Z
##YUNITS=RELATIVE INTENSITY
##XFACTOR=1
##YFACTOR=1
##FIRSTX=13
##LASTX=98
##FIRSTY=10
##MAXX=98
##MINX=13
##MAXY=9999
##MINY=10
##NPOINTS=50
##PEAK TABLE=(XY..XY)
13,10 14,30 15,229 26,239
27,2019 28,499 29,2219 30,60
31,99 32,10 37,90 38,209
39,1509 40,279 41,4749 42,689
43,4549 44,139 45,10 49,20
50,109 51,179 52,199 53,389
54,2629 55,9999 56,519 57,4229
58,189 59,10 62,10 63,20
64,50 65,20 66,70 67,70
68,619 69,269 70,50 71,20
75,10 76,10 79,10 80,60
81,119 82,1359 83,90 96,179
97,20 98,10
##END=
