##TITLE=14-Heptacosanone
##JCAMP-DX=4.24
##DATA TYPE=MASS SPECTRUM
##ORIGIN=Japan AIST/NIMC Database- Spectrum MS-NW-6025
##OWNER=NIST Mass Spectrometry Data Center
Collection (C) 2014 copyright by the U.S. Secretary of Commerce
on behalf of the United States of America. All rights reserved.
##CAS REGISTRY NO=542-50-7
##$NIST MASS SPEC NO=233086
##MOLFORM=C27 H54 O
##MW=394
##$NIST SOURCE=MSDC
##XUNITS=M/Z
##YUNITS=RELATIVE INTENSITY
##XFACTOR=1
##YFACTOR=1
##FIRSTX=15
##LASTX=396
##FIRSTY=30
##MAXX=396
##MINX=15
##MAXY=9999
##MINY=10
##NPOINTS=202
##PEAK TABLE=(XY..XY)
15,30 17,10 18,30 26,40
27,789 28,249 29,2279 30,50
31,10 37,10 38,10 39,549
40,129 41,4489 42,1119 43,7829
44,269 45,50 50,10 51,30
52,20 53,289 54,439 55,3969
56,1229 57,6129 58,2449 59,1189
60,50 63,10 65,60 66,50
67,969 68,499 69,2299 70,759
71,3879 72,389 73,60 77,60
78,20 79,189 80,109 81,1079
82,1089 83,1569 84,539 85,1949
86,189 87,30 91,50 92,10
93,129 94,80 95,1329 96,1489
97,1139 98,499 99,379 100,409
101,70 105,20 107,70 108,50
109,809 110,439 111,599 112,189
113,329 114,319 115,60 116,10
119,10 121,80 122,30 123,379
124,289 125,229 126,99 127,539
128,139 129,30 135,50 136,20
137,209 138,329 139,119 140,70
141,149 142,80 143,40 149,30
150,20 151,80 152,209 153,80
154,30 155,179 156,80 157,20
163,20 164,10 165,60 166,1069
167,179 168,429 169,259 170,169
171,50 172,10 177,10 179,40
180,80 181,50 182,60 183,519
184,179 185,60 186,10 191,10
192,10 193,90 194,70 195,40
196,20 197,109 198,129 199,99
200,20 206,10 207,10 208,459
209,129 210,199 211,9999 212,1609
213,159 214,10 221,20 222,30
223,20 224,20 225,40 226,2499
227,3009 228,489 229,60 236,30
237,30 238,20 239,819 240,199
241,30 249,10 250,80 251,20
252,10 253,279 254,70 255,10
263,10 264,80 265,30 266,10
267,90 268,169 269,40 278,20
279,20 280,10 281,70 282,70
283,30 293,30 294,10 295,99
296,30 309,20 310,20 323,20
324,10 337,30 338,40 339,10
348,10 350,10 351,60 352,60
353,10 365,60 366,70 367,20
376,80 377,30 378,20 379,30
380,10 392,10 393,70 394,799
395,279 396,40
##END=
