##TITLE=Glycerol 1-palmitate
##JCAMP-DX=4.24
##DATA TYPE=MASS SPECTRUM
##OWNER=NIST Mass Spectrometry Data Center
Collection (C) 2014 copyright by the U.S. Secretary of Commerce
on behalf of the United States of America. All rights reserved.
##CAS REGISTRY NO=542-44-9
##$NIST MASS SPEC NO=15399
##MOLFORM=C19 H38 O4
##MW=330
##$NIST SOURCE=MSDC
##XUNITS=M/Z
##YUNITS=RELATIVE INTENSITY
##XFACTOR=1
##YFACTOR=1
##FIRSTX=26
##LASTX=313
##FIRSTY=200
##MAXX=313
##MINX=26
##MAXY=9999
##MINY=100
##NPOINTS=139
##PEAK TABLE=(XY..XY)
26,200 27,1902 28,801 29,4404
30,200 31,1001 32,100 36,100
38,100 39,1001 40,200 41,6706
42,1802 43,9999 44,1201 45,1001
46,100 47,100 53,400 54,500
55,6206 56,2102 57,6906 58,601
59,500 60,2803 61,1401 62,100
65,100 66,100 67,801 68,400
69,3103 70,901 71,2903 72,300
73,3203 74,3503 75,1201 76,100
77,100 79,200 80,100 81,701
82,500 83,2102 84,3003 85,1802
86,200 87,1201 88,200 89,100
91,100 93,300 94,100 95,701
96,400 97,1501 98,4404 99,701
100,200 101,801 102,100 103,100
107,100 108,100 109,400 110,200
111,801 112,1401 113,300 114,100
115,500 116,1001 117,100 118,100
121,200 122,100 123,200 124,100
125,300 126,300 127,200 129,1401
130,200 134,2102 135,300 136,100
137,100 138,100 139,200 140,200
141,100 143,300 147,300 149,100
152,100 153,100 154,300 155,100
157,200 158,100 167,100 168,200
169,100 171,300 172,100 176,100
181,100 182,200 183,100 185,300
186,100 194,100 195,100 196,100
197,100 199,100 209,100 213,500
214,100 220,100 227,200 228,100
237,100 238,400 239,3103 240,500
241,100 256,1101 257,1001 258,200
269,100 270,400 271,100 299,601
300,100 312,100 313,100
##END=
