##TITLE=1,1-Ethanediol, diacetate
##JCAMP-DX=4.24
##DATA TYPE=MASS SPECTRUM
##ORIGIN=Japan AIST/NIMC Database- Spectrum MS-NW-3073
##OWNER=NIST Mass Spectrometry Data Center
Collection (C) 2014 copyright by the U.S. Secretary of Commerce
on behalf of the United States of America. All rights reserved.
##CAS REGISTRY NO=542-10-9
##$NIST MASS SPEC NO=231307
##MOLFORM=C6 H10 O4
##MW=146
##$NIST SOURCE=MSDC
##XUNITS=M/Z
##YUNITS=RELATIVE INTENSITY
##XFACTOR=1
##YFACTOR=1
##FIRSTX=13
##LASTX=103
##FIRSTY=10
##MAXX=103
##MINX=13
##MAXY=9999
##MINY=10
##NPOINTS=22
##PEAK TABLE=(XY..XY)
13,10 14,119 15,489 16,10
18,10 26,30 27,50 28,99
29,199 41,30 42,309 43,9999
44,319 45,209 57,10 60,30
61,80 86,30 87,1829 88,80
89,20 103,169
##END=
