##TITLE=Butane, 1-iodo-
##JCAMP-DX=4.24
##DATA TYPE=MASS SPECTRUM
##ORIGIN=Japan AIST/NIMC Database- Spectrum MS-NW-8348
##OWNER=NIST Mass Spectrometry Data Center
Collection (C) 2014 copyright by the U.S. Secretary of Commerce
on behalf of the United States of America. All rights reserved.
##CAS REGISTRY NO=542-69-8
##$NIST MASS SPEC NO=228695
##MOLFORM=C4 H9 I
##MW=184
##$NIST SOURCE=MSDC
##XUNITS=M/Z
##YUNITS=RELATIVE INTENSITY
##XFACTOR=1
##YFACTOR=1
##FIRSTX=14
##LASTX=185
##FIRSTY=10
##MAXX=185
##MINX=14
##MAXY=9999
##MINY=10
##NPOINTS=35
##PEAK TABLE=(XY..XY)
14,10 15,60 26,199 27,1819
28,679 29,6169 30,139 37,30
38,70 39,869 40,90 41,5039
42,219 43,159 49,10 50,60
51,60 52,20 53,99 54,30
55,459 56,139 57,9999 58,459
70,10 71,50 85,30 127,369
128,99 129,10 141,70 154,10
155,209 184,1509 185,60
##END=
