##TITLE=Formic acid, 2-methylpropyl ester
##JCAMP-DX=4.24
##DATA TYPE=MASS SPECTRUM
##ORIGIN=Chuck Anderson, Aldrich Chemical Co.
##OWNER=NIST Mass Spectrometry Data Center
Collection (C) 2014 copyright by the U.S. Secretary of Commerce
on behalf of the United States of America. All rights reserved.
##CAS REGISTRY NO=542-55-2
##$NIST MASS SPEC NO=107356
##MOLFORM=C5 H10 O2
##MW=102
##$NIST SOURCE=MSDC
##XUNITS=M/Z
##YUNITS=RELATIVE INTENSITY
##XFACTOR=1
##YFACTOR=1
##FIRSTX=13
##LASTX=103
##FIRSTY=3
##MAXX=103
##MINX=13
##MAXY=9999
##MINY=3
##NPOINTS=49
##PEAK TABLE=(XY..XY)
13,3 14,33 15,321 16,9
17,3 18,3 19,40 25,5
26,187 27,2595 28,636 29,3244
30,174 31,5672 32,751 33,205
36,15 37,115 38,319 39,2908
40,516 41,8652 42,2283 43,9999
44,380 45,175 46,4 47,95
49,8 50,60 51,65 52,15
53,132 54,42 55,817 56,9902
57,997 58,49 59,715 60,4951
61,1376 62,43 71,10 72,9
73,115 87,36 101,5 102,18
103,3
##END=
