##TITLE=1-Methyl-3-nitropyrazole
##JCAMP-DX=4.24
##DATA TYPE=MASS SPECTRUM
##ORIGIN=V.A.Korolev, Moscow, Russia
##OWNER=NIST Mass Spectrometry Data Center
Collection (C) 2014 copyright by the U.S. Secretary of Commerce
on behalf of the United States of America. All rights reserved.
##CAS REGISTRY NO=54210-32-1
##$NIST MASS SPEC NO=410453
##MOLFORM=C4 H5 N3 O2
##MW=127
##$NIST SOURCE=MSDC
##XUNITS=M/Z
##YUNITS=RELATIVE INTENSITY
##XFACTOR=1
##YFACTOR=1
##FIRSTX=30
##LASTX=129
##FIRSTY=2651
##MAXX=129
##MINX=30
##MAXY=9999
##MINY=25
##NPOINTS=33
##PEAK TABLE=(XY..XY)
30,2651 36,25 37,1352 38,1634
39,1495 40,1474 41,1051 42,4279
43,2613 44,124 46,3448 50,221
51,1587 52,2976 53,1059 54,1993
55,603 66,104 67,57 68,59
69,147 78,40 79,441 80,310
81,31 97,6313 98,556 99,49
111,851 112,53 127,9999 128,615
129,75
##END=
