##TITLE=Isoamyl mandelate
##JCAMP-DX=4.24
##DATA TYPE=MASS SPECTRUM
##ORIGIN=Japan AIST/NIMC Database- Spectrum MS-NW-5244
##OWNER=NIST Mass Spectrometry Data Center
Collection (C) 2014 copyright by the U.S. Secretary of Commerce
on behalf of the United States of America. All rights reserved.
##CAS REGISTRY NO=5421-04-5
##$NIST MASS SPEC NO=232723
##MOLFORM=C13 H18 O3
##MW=222
##$NIST SOURCE=MSDC
##XUNITS=M/Z
##YUNITS=RELATIVE INTENSITY
##XFACTOR=1
##YFACTOR=1
##FIRSTX=15
##LASTX=222
##FIRSTY=30
##MAXX=222
##MINX=15
##MAXY=9999
##MINY=10
##NPOINTS=88
##PEAK TABLE=(XY..XY)
15,30 17,20 18,70 26,30
27,529 28,179 29,509 30,10
31,109 32,10 37,20 38,50
39,419 40,60 41,829 42,349
43,1879 44,109 45,70 46,20
49,10 50,179 51,569 52,129
53,139 54,20 55,789 56,70
57,90 58,10 59,10 60,10
61,10 62,40 63,80 64,20
65,30 66,10 67,10 69,159
70,519 71,239 72,10 73,20
74,40 75,30 76,50 77,1809
78,299 79,2559 80,189 89,119
90,149 91,139 92,20 104,10
105,1989 106,369 107,9999 108,789
109,40 115,10 117,10 118,169
119,20 122,30 123,10 131,30
133,10 135,139 136,60 137,20
145,10 149,20 153,99 154,10
155,10 161,139 162,30 163,10
173,10 175,20 176,339 177,80
178,10 206,10 207,10 222,30
##END=
