##TITLE=N-(2-Hydroxyethyl)lactamide
##JCAMP-DX=4.24
##DATA TYPE=MASS SPECTRUM
##ORIGIN=Japan AIST/NIMC Database- Spectrum MS-NW-2101
##OWNER=NIST Mass Spectrometry Data Center
Collection (C) 2014 copyright by the U.S. Secretary of Commerce
on behalf of the United States of America. All rights reserved.
##CAS REGISTRY NO=5422-34-4
##$NIST MASS SPEC NO=233741
##MOLFORM=C5 H11 N O3
##MW=133
##$NIST SOURCE=MSDC
##XUNITS=M/Z
##YUNITS=RELATIVE INTENSITY
##XFACTOR=1
##YFACTOR=1
##FIRSTX=12
##LASTX=134
##FIRSTY=10
##MAXX=134
##MINX=12
##MAXY=9999
##MINY=10
##NPOINTS=95
##PEAK TABLE=(XY..XY)
12,10 13,30 14,159 15,1019
16,70 17,20 18,70 25,30
26,259 27,1509 28,2869 29,1219
30,9999 31,689 32,779 36,10
37,10 38,30 39,109 40,129
41,2019 42,1239 43,2689 44,1509
45,9329 46,939 47,40 50,10
51,30 52,40 53,50 54,119
55,469 56,329 57,509 58,599
59,609 60,559 61,419 62,199
63,30 65,20 66,20 67,90
68,60 69,90 70,4759 71,389
72,589 73,99 74,1949 75,109
76,10 77,30 78,20 79,20
81,30 82,30 83,30 84,90
85,379 86,90 87,90 88,2809
89,289 90,3479 91,179 92,20
93,10 95,20 96,10 97,80
98,869 99,119 100,899 101,60
102,1009 103,579 104,40 105,60
106,20 107,20 112,10 113,80
114,249 115,1039 116,99 117,40
118,179 119,30 120,10 131,10
132,20 133,40 134,10
##END=
