##TITLE=1,3-Cyclopentanedione, 4-butyl-
##JCAMP-DX=4.24
##DATA TYPE=MASS SPECTRUM
##ORIGIN=M. VANDEWALLE
##OWNER=NIST Mass Spectrometry Data Center
Collection (C) 2014 copyright by the U.S. Secretary of Commerce
on behalf of the United States of America. All rights reserved.
##CAS REGISTRY NO=54244-72-3
##$NIST MASS SPEC NO=40733
##MOLFORM=C9 H14 O2
##MW=154
##$NIST SOURCE=MSDC
##XUNITS=M/Z
##YUNITS=RELATIVE INTENSITY
##XFACTOR=1
##YFACTOR=1
##FIRSTX=41
##LASTX=155
##FIRSTY=9999
##MAXX=155
##MINX=41
##MAXY=9999
##MINY=50
##NPOINTS=23
##PEAK TABLE=(XY..XY)
41,9999 42,4800 43,4500 53,1700
55,1900 56,7800 57,600 67,800
68,700 69,2200 71,700 83,1200
84,1600 95,500 96,400 97,1400
99,400 112,600 125,200 126,200
139,50 154,700 155,50
##END=
