##TITLE=Phenyl 3-pyridyl ketone
##JCAMP-DX=4.24
##DATA TYPE=MASS SPECTRUM
##ORIGIN=Japan AIST/NIMC Database- Spectrum MS-NW-1744
##OWNER=NIST Mass Spectrometry Data Center
Collection (C) 2014 copyright by the U.S. Secretary of Commerce
on behalf of the United States of America. All rights reserved.
##CAS REGISTRY NO=5424-19-1
##$NIST MASS SPEC NO=229429
##MOLFORM=C12 H9 N O
##MW=183
##$NIST SOURCE=MSDC
##XUNITS=M/Z
##YUNITS=RELATIVE INTENSITY
##XFACTOR=1
##YFACTOR=1
##FIRSTX=14
##LASTX=186
##FIRSTY=20
##MAXX=186
##MINX=14
##MAXY=9999
##MINY=10
##NPOINTS=78
##PEAK TABLE=(XY..XY)
14,20 16,10 18,10 26,99
27,319 28,99 29,10 37,50
38,119 39,239 40,10 41,20
43,10 44,60 49,80 50,1229
51,4369 52,459 53,159 55,20
57,10 61,50 62,119 63,199
64,60 65,20 69,10 73,40
74,339 75,279 76,429 77,7189
78,3289 79,199 85,20 86,50
87,60 88,20 89,40 90,10
91,20 92,10 97,10 98,40
99,20 100,20 101,80 102,109
103,30 104,40 105,9999 106,2609
107,169 108,10 110,10 113,20
114,10 115,20 125,20 126,109
127,309 128,129 129,20 139,20
140,10 152,30 153,80 154,489
155,379 156,50 166,60 167,10
181,30 182,2569 183,8899 184,1159
185,90 186,10
##END=
