##TITLE=3-Hepten-2-one, 3-ethyl-4-methyl-
##JCAMP-DX=4.24
##DATA TYPE=MASS SPECTRUM
##ORIGIN=D.D.FAULK CENTRAL MISSOURI STATE COLLEGE, WARRENSBURG, USA
##OWNER=NIST Mass Spectrometry Data Center
Collection (C) 2014 copyright by the U.S. Secretary of Commerce
on behalf of the United States of America. All rights reserved.
##CAS REGISTRY NO=54244-90-5
##$NIST MASS SPEC NO=5109
##MOLFORM=C10 H18 O
##MW=154
##$NIST SOURCE=MSDC
##XUNITS=M/Z
##YUNITS=RELATIVE INTENSITY
##XFACTOR=1
##YFACTOR=1
##FIRSTX=12
##LASTX=156
##FIRSTY=13
##MAXX=156
##MINX=12
##MAXY=9999
##MINY=10
##NPOINTS=108
##PEAK TABLE=(XY..XY)
12,13 13,23 14,207 15,1595
16,42 17,24 18,72 19,10
24,11 25,10 26,168 27,2354
28,638 29,1586 30,40 31,30
32,48 37,42 38,141 39,2090
40,376 41,4254 42,402 43,9999
44,253 45,118 46,10 49,13
50,133 51,384 52,185 53,924
54,180 55,4727 56,262 57,574
58,115 59,49 61,19 62,51
63,129 64,42 65,289 66,138
67,868 68,173 69,7442 70,482
71,220 72,179 73,22 74,15
75,22 77,269 78,72 79,307
80,62 81,382 82,179 83,498
84,114 85,104 86,106 87,16
89,14 91,156 92,36 93,166
94,39 95,384 96,86 97,406
98,61 99,21 103,17 105,78
106,32 107,140 108,32 109,131
110,98 111,734 112,99 113,25
119,20 120,13 121,275 122,39
123,66 124,40 125,1124 126,146
127,25 135,20 136,25 137,83
138,31 139,3506 140,357 141,31
143,17 147,11 151,13 152,16
153,42 154,2533 155,287 156,25
##END=
