##TITLE=Formaldehyde, dipropylhydrazone
##JCAMP-DX=4.24
##DATA TYPE=MASS SPECTRUM
##ORIGIN=ATLAS OF MASS SPECTRA OF ORGANIC COMPOUNDS, V. A. KOPTYUG, ED.
##OWNER=NIST Mass Spectrometry Data Center
Collection (C) 2014 copyright by the U.S. Secretary of Commerce
on behalf of the United States of America. All rights reserved.
##CAS REGISTRY NO=54253-56-4
##$NIST MASS SPEC NO=64497
##MOLFORM=C7 H16 N2
##MW=128
##$NIST SOURCE=MSDC
##XUNITS=M/Z
##YUNITS=RELATIVE INTENSITY
##XFACTOR=1
##YFACTOR=1
##FIRSTX=28
##LASTX=129
##FIRSTY=1070
##MAXX=129
##MINX=28
##MAXY=9999
##MINY=60
##NPOINTS=23
##PEAK TABLE=(XY..XY)
28,1070 29,690 30,250 31,690
39,400 40,60 41,1340 42,990
43,2800 44,150 54,70 55,80
56,330 57,8000 58,360 70,390
71,370 85,120 86,240 99,9999
100,650 128,2530 129,280
##END=
