##TITLE=Carbamothioic acid, S-[2-oxo-2-(phenylamino)ethyl] ester
##JCAMP-DX=4.24
##DATA TYPE=MASS SPECTRUM
##ORIGIN=J. Little, Eastman chemical company.
##OWNER=NIST Mass Spectrometry Data Center
Collection (C) 2014 copyright by the U.S. Secretary of Commerce
on behalf of the United States of America. All rights reserved.
##CAS REGISTRY NO=5428-95-5
##$NIST MASS SPEC NO=403397
##MOLFORM=C9 H10 N2 O2 S
##MW=210
##$NIST SOURCE=MSDC
##XUNITS=M/Z
##YUNITS=RELATIVE INTENSITY
##XFACTOR=1
##YFACTOR=1
##FIRSTX=29
##LASTX=169
##FIRSTY=831
##MAXX=169
##MINX=29
##MAXY=9999
##MINY=140
##NPOINTS=35
##PEAK TABLE=(XY..XY)
29,831 39,1141 42,1021 43,3593
44,1181 47,1702 51,851 62,240
63,641 64,631 65,1882 66,1141
67,200 76,170 77,2102 78,330
79,260 91,701 92,1812 93,9999
94,1171 97,170 104,160 106,540
107,150 119,1561 120,1201 121,200
123,140 124,520 134,400 135,490
167,5745 168,811 169,380
##END=
