##TITLE=2-Amino-5-chloropyrimidine
##JCAMP-DX=4.24
##DATA TYPE=MASS SPECTRUM
##ORIGIN=N.Klyuev, Institute of Ecology & Evolution, RAS, Moscow
##OWNER=NIST Mass Spectrometry Data Center
Collection (C) 2014 copyright by the U.S. Secretary of Commerce
on behalf of the United States of America. All rights reserved.
##CAS REGISTRY NO=5428-89-7
##$NIST MASS SPEC NO=284818
##MOLFORM=C4 H4 Cl N3
##MW=129
##$NIST SOURCE=MSDC
##XUNITS=M/Z
##YUNITS=RELATIVE INTENSITY
##XFACTOR=1
##YFACTOR=1
##FIRSTX=26
##LASTX=132
##FIRSTY=300
##MAXX=132
##MINX=26
##MAXY=9999
##MINY=200
##NPOINTS=28
##PEAK TABLE=(XY..XY)
26,300 27,561 38,691 39,721
40,791 42,1601 43,951 47,611
51,1071 52,1091 53,591 60,1601
62,530 66,490 67,4194 73,360
74,1181 75,2092 76,530 77,761
94,2242 101,510 102,3233 104,1121
129,9999 130,621 131,3303 132,200
##END=
