##TITLE=4-(Diethylamino)benzoic acid
##JCAMP-DX=4.24
##DATA TYPE=MASS SPECTRUM
##ORIGIN=Japan AIST/NIMC Database- Spectrum MS-IW-3469
##OWNER=NIST Mass Spectrometry Data Center
Collection (C) 2014 copyright by the U.S. Secretary of Commerce
on behalf of the United States of America. All rights reserved.
##CAS REGISTRY NO=5429-28-7
##$NIST MASS SPEC NO=232480
##MOLFORM=C11 H15 N O2
##MW=193
##$NIST SOURCE=MSDC
##XUNITS=M/Z
##YUNITS=RELATIVE INTENSITY
##XFACTOR=1
##YFACTOR=1
##FIRSTX=15
##LASTX=195
##FIRSTY=20
##MAXX=195
##MINX=15
##MAXY=9999
##MINY=10
##NPOINTS=95
##PEAK TABLE=(XY..XY)
15,20 18,20 26,20 27,219
28,109 29,389 30,60 37,10
38,40 39,209 40,20 41,60
42,109 43,10 44,50 45,60
50,139 51,259 52,70 53,50
54,30 55,20 56,40 58,10
62,30 63,139 64,99 65,649
66,60 67,20 70,10 72,10
74,50 75,129 76,169 77,589
78,239 79,309 80,99 81,20
82,60 88,10 89,70 90,80
91,249 92,80 93,109 94,30
96,109 97,10 102,30 103,119
104,279 105,179 106,679 107,80
108,10 116,20 117,99 118,239
119,139 120,189 121,249 122,20
130,20 131,20 132,329 133,219
134,70 135,40 136,30 144,10
146,50 147,30 148,399 149,149
150,2579 151,239 152,20 160,10
162,109 163,99 164,179 165,99
166,10 176,319 177,40 178,9999
179,1129 180,99 191,20 192,309
193,3379 194,419 195,40
##END=
