##TITLE=2-Propenoic acid, 2-(acetylamino)-
##JCAMP-DX=4.24
##DATA TYPE=MASS SPECTRUM
##ORIGIN=Japan AIST/NIMC Database- Spectrum MS-NW-6214
##OWNER=NIST Mass Spectrometry Data Center
Collection (C) 2014 copyright by the U.S. Secretary of Commerce
on behalf of the United States of America. All rights reserved.
##CAS REGISTRY NO=5429-56-1
##$NIST MASS SPEC NO=234652
##MOLFORM=C5 H7 N O3
##MW=129
##$NIST SOURCE=MSDC
##XUNITS=M/Z
##YUNITS=RELATIVE INTENSITY
##XFACTOR=1
##YFACTOR=1
##FIRSTX=12
##LASTX=131
##FIRSTY=60
##MAXX=131
##MINX=12
##MAXY=9999
##MINY=10
##NPOINTS=93
##PEAK TABLE=(XY..XY)
12,60 13,50 14,319 15,1439
16,169 18,10 24,10 25,40
26,179 27,309 28,189 29,179
30,60 31,70 32,20 36,60
37,30 38,99 39,159 40,529
41,2209 42,3369 43,9999 44,3219
45,509 46,30 50,10 51,40
52,50 53,80 54,99 55,80
56,50 57,99 58,30 59,899
60,199 61,20 62,10 63,20
64,10 65,20 66,10 67,30
68,119 69,179 70,40 71,40
72,10 73,40 74,30 75,20
76,10 77,30 78,10 79,10
80,10 81,20 82,30 83,149
84,80 85,719 86,179 87,4129
88,199 89,40 91,20 92,10
93,10 94,10 95,20 96,40
97,20 98,10 99,10 101,179
102,30 103,10 104,10 105,20
109,10 110,50 111,1269 112,139
113,30 114,20 115,10 126,10
127,20 128,10 129,1209 130,80
131,20
##END=
