##TITLE=1,4-Dioxin, 2,3-dihydro-
##JCAMP-DX=4.24
##DATA TYPE=MASS SPECTRUM
##ORIGIN=Japan AIST/NIMC Database- Spectrum MS-IW-2803
##OWNER=NIST Mass Spectrometry Data Center
Collection (C) 2014 copyright by the U.S. Secretary of Commerce
on behalf of the United States of America. All rights reserved.
##CAS REGISTRY NO=543-75-9
##$NIST MASS SPEC NO=245054
##MOLFORM=C4 H6 O2
##MW=86
##$NIST SOURCE=MSDC
##XUNITS=M/Z
##YUNITS=RELATIVE INTENSITY
##XFACTOR=1
##YFACTOR=1
##FIRSTX=13
##LASTX=88
##FIRSTY=30
##MAXX=88
##MINX=13
##MAXY=9999
##MINY=10
##NPOINTS=37
##PEAK TABLE=(XY..XY)
13,30 14,159 15,159 25,30
26,589 27,1509 28,2469 29,4539
30,6689 31,839 32,10 39,30
40,20 41,90 42,409 43,249
44,50 45,30 53,10 54,10
55,249 56,60 57,969 58,5069
59,259 60,179 69,30 70,40
71,379 72,10 73,20 83,30
84,10 85,60 86,9999 87,459
88,50
##END=
