##TITLE=2-Heptanol
##JCAMP-DX=4.24
##DATA TYPE=MASS SPECTRUM
##ORIGIN=M.C. HAMMING CONTINENTAL OIL CO., PONCA CITY, OKLA, USA
##OWNER=NIST Mass Spectrometry Data Center
Collection (C) 2014 copyright by the U.S. Secretary of Commerce
on behalf of the United States of America. All rights reserved.
##CAS REGISTRY NO=543-49-7
##$NIST MASS SPEC NO=20310
##MOLFORM=C7 H16 O
##MW=116
##$NIST SOURCE=MSDC
##XUNITS=M/Z
##YUNITS=RELATIVE INTENSITY
##XFACTOR=1
##YFACTOR=1
##FIRSTX=12
##LASTX=116
##FIRSTY=4
##MAXX=116
##MINX=12
##MAXY=9999
##MINY=2
##NPOINTS=78
##PEAK TABLE=(XY..XY)
12,4 13,7 14,41 15,261
16,12 17,4 18,14 19,109
25,2 26,188 27,1715 28,361
29,1297 30,43 31,310 32,19
33,4 35,2 36,4 37,14
38,63 39,684 40,122 41,1268
42,495 43,1392 44,833 45,9999
46,229 47,31 48,2 49,7
50,29 51,43 52,17 53,85
54,51 55,1277 56,498 57,378
58,105 59,68 60,2 61,2
62,4 63,9 64,2 65,12
66,4 67,26 68,21 69,207
70,356 71,87 72,19 73,12
74,2 77,4 78,2 79,4
81,12 82,9 83,671 84,48
85,4 87,4 91,2 96,2
97,14 98,317 99,29 100,2
101,320 102,21 112,2 114,4
115,31 116,2
##END=
