##TITLE=Propyl nitrite
##JCAMP-DX=4.24
##DATA TYPE=MASS SPECTRUM
##ORIGIN=Leung Pu, NIH, Bethesda, Maryland, U.S.
##OWNER=NIST Mass Spectrometry Data Center
Collection (C) 2014 copyright by the U.S. Secretary of Commerce
on behalf of the United States of America. All rights reserved.
##CAS REGISTRY NO=543-67-9
##$NIST MASS SPEC NO=212809
##MOLFORM=C3 H7 N O2
##MW=89
##$NIST SOURCE=MSDC
##XUNITS=M/Z
##YUNITS=RELATIVE INTENSITY
##XFACTOR=1
##YFACTOR=1
##FIRSTX=41
##LASTX=91
##FIRSTY=2877
##MAXX=91
##MINX=41
##MAXY=9999
##MINY=15
##NPOINTS=33
##PEAK TABLE=(XY..XY)
41,2877 42,851 43,9999 44,475
45,941 46,636 47,596 48,40
52,15 53,47 54,44 55,192
56,95 57,710 58,488 59,575
60,228 61,300 62,35 63,31
67,25 68,22 69,69 70,54
71,135 72,56 73,445 74,176
87,372 88,199 89,1629 90,112
91,86
##END=
