##TITLE=Nitric acid, 2-methylpropyl ester
##JCAMP-DX=4.24
##DATA TYPE=MASS SPECTRUM
##ORIGIN=MINISTRY OF TECH., E.R.D.E., WALTHAM ABBEY, UK
##OWNER=NIST Mass Spectrometry Data Center
Collection (C) 2014 copyright by the U.S. Secretary of Commerce
on behalf of the United States of America. All rights reserved.
##CAS REGISTRY NO=543-29-3
##$NIST MASS SPEC NO=2130
##MOLFORM=C4 H9 N O3
##MW=119
##$NIST SOURCE=MSDC
##XUNITS=M/Z
##YUNITS=RELATIVE INTENSITY
##XFACTOR=1
##YFACTOR=1
##FIRSTX=12
##LASTX=104
##FIRSTY=30
##MAXX=104
##MINX=12
##MAXY=9999
##MINY=10
##NPOINTS=29
##PEAK TABLE=(XY..XY)
12,30 13,20 14,40 15,320
25,30 26,190 27,3010 28,920
29,2090 30,1010 31,320 37,80
38,120 39,1190 40,210 41,4120
42,390 43,9999 44,410 45,40
46,3520 55,110 56,210 57,1590
58,130 76,920 77,10 90,10
104,10
##END=
