##TITLE=1-Butanol, 3-methyl-, nitrate
##JCAMP-DX=4.24
##DATA TYPE=MASS SPECTRUM
##ORIGIN=Japan AIST/NIMC Database- Spectrum MS-NW-1309
##OWNER=NIST Mass Spectrometry Data Center
Collection (C) 2014 copyright by the U.S. Secretary of Commerce
on behalf of the United States of America. All rights reserved.
##CAS REGISTRY NO=543-87-3
##$NIST MASS SPEC NO=233714
##MOLFORM=C5 H11 N O3
##MW=133
##$NIST SOURCE=MSDC
##XUNITS=M/Z
##YUNITS=RELATIVE INTENSITY
##XFACTOR=1
##YFACTOR=1
##FIRSTX=12
##LASTX=115
##FIRSTY=40
##MAXX=115
##MINX=12
##MAXY=9999
##MINY=10
##NPOINTS=75
##PEAK TABLE=(XY..XY)
12,40 13,50 14,129 15,539
16,30 25,10 26,279 27,2949
28,1429 29,5939 30,4309 31,1049
32,30 33,10 36,10 37,119
38,269 39,2389 40,439 41,9999
42,2199 43,4959 44,1029 45,599
46,3319 47,50 48,10 49,10
50,90 51,119 52,70 53,309
54,269 55,1709 56,1009 57,6509
58,429 59,139 60,119 61,30
62,50 64,10 65,10 66,10
67,109 68,219 69,1069 70,959
71,659 72,299 73,159 74,10
76,3269 77,60 78,20 80,90
81,50 82,50 83,70 84,90
85,139 86,169 87,60 88,10
96,30 97,70 98,40 99,289
100,90 101,10 102,20 103,60
112,10 113,20 115,20
##END=
