##TITLE=Glycine, N-acetyl-
##JCAMP-DX=4.24
##DATA TYPE=MASS SPECTRUM
##ORIGIN=H.FR.GRUTZMACHER HAMBURG UNIV., HAMBURG, GERMANY, F.R.G.
##OWNER=NIST Mass Spectrometry Data Center
Collection (C) 2014 copyright by the U.S. Secretary of Commerce
on behalf of the United States of America. All rights reserved.
##CAS REGISTRY NO=543-24-8
##$NIST MASS SPEC NO=26154
##MOLFORM=C4 H7 N O3
##MW=117
##$NIST SOURCE=MSDC
##XUNITS=M/Z
##YUNITS=RELATIVE INTENSITY
##XFACTOR=1
##YFACTOR=1
##FIRSTX=15
##LASTX=117
##FIRSTY=1720
##MAXX=117
##MINX=15
##MAXY=9999
##MINY=10
##NPOINTS=47
##PEAK TABLE=(XY..XY)
15,1720 25,20 26,70 27,230
28,1060 29,760 30,9999 31,490
32,20 38,20 39,40 40,80
41,190 42,1030 43,7380 44,380
45,700 46,60 51,20 52,30
53,10 54,80 55,70 56,770
57,270 58,70 59,40 60,50
61,10 68,10 69,10 70,30
71,50 72,3040 73,1780 74,530
75,60 76,240 77,10 84,60
85,10 86,10 99,880 100,80
101,10 102,10 117,420
##END=
