##TITLE=3-Methylnon-1-yn-3-ol
##JCAMP-DX=4.24
##DATA TYPE=MASS SPECTRUM
##ORIGIN=A.N.KARAVANOV, INST. PETROCHEM. SYNTH., ACAD. SCI. USSR, USSR
##OWNER=NIST Mass Spectrometry Data Center
Collection (C) 2014 copyright by the U.S. Secretary of Commerce
on behalf of the United States of America. All rights reserved.
##CAS REGISTRY NO=5430-01-3
##$NIST MASS SPEC NO=112413
##MOLFORM=C10 H18 O
##MW=154
##$NIST SOURCE=MSDC
##XUNITS=M/Z
##YUNITS=RELATIVE INTENSITY
##XFACTOR=1
##YFACTOR=1
##FIRSTX=41
##LASTX=139
##FIRSTY=1400
##MAXX=139
##MINX=41
##MAXY=9999
##MINY=410
##NPOINTS=9
##PEAK TABLE=(XY..XY)
41,1400 43,2700 55,600 68,500
69,9999 70,700 84,1200 97,410
139,440
##END=
