##TITLE=2,6-Pyridinedicarboxaldehyde
##JCAMP-DX=4.24
##DATA TYPE=MASS SPECTRUM
##ORIGIN=Japan AIST/NIMC Database- Spectrum MS-NW-9883
##OWNER=NIST Mass Spectrometry Data Center
Collection (C) 2014 copyright by the U.S. Secretary of Commerce
on behalf of the United States of America. All rights reserved.
##CAS REGISTRY NO=5431-44-7
##$NIST MASS SPEC NO=239296
##MOLFORM=C7 H5 N O2
##MW=135
##$NIST SOURCE=MSDC
##XUNITS=M/Z
##YUNITS=RELATIVE INTENSITY
##XFACTOR=1
##YFACTOR=1
##FIRSTX=24
##LASTX=137
##FIRSTY=10
##MAXX=137
##MINX=24
##MAXY=9999
##MINY=10
##NPOINTS=54
##PEAK TABLE=(XY..XY)
24,10 25,40 26,319 27,539
28,459 29,909 30,10 31,70
36,30 37,229 38,269 39,339
40,40 41,20 43,10 45,20
48,30 49,249 50,1279 51,3579
52,5059 53,689 54,40 55,30
59,30 60,20 61,99 62,129
63,129 64,60 65,10 66,20
74,40 75,269 76,369 77,259
78,3659 79,3039 80,199 81,10
86,10 87,20 88,10 89,30
104,10 105,20 106,1269 107,9999
108,709 109,40 134,30 135,2249
136,299 137,30
##END=
