##TITLE=4-Isopropylcyclohexanone
##JCAMP-DX=4.24
##DATA TYPE=MASS SPECTRUM
##ORIGIN=NIST Mass Spectrometry Data Center, 1994
##OWNER=NIST Mass Spectrometry Data Center
Collection (C) 2014 copyright by the U.S. Secretary of Commerce
on behalf of the United States of America. All rights reserved.
##CAS REGISTRY NO=5432-85-9
##$NIST MASS SPEC NO=133582
##MOLFORM=C9 H16 O
##MW=140
##$NIST SOURCE=MSDC
##XUNITS=M/Z
##YUNITS=RELATIVE INTENSITY
##XFACTOR=1
##YFACTOR=1
##FIRSTX=4
##LASTX=141
##FIRSTY=16
##MAXX=141
##MINX=4
##MAXY=9999
##MINY=16
##NPOINTS=69
##PEAK TABLE=(XY..XY)
4,16 14,125 15,471 26,379
27,3771 28,1885 29,1904 31,48
32,57 37,62 39,4620 40,1140
41,9919 42,2315 43,9498 44,419
45,49 50,187 51,525 52,295
53,1588 54,1605 55,9192 56,2868
57,2181 58,161 62,48 63,148
64,50 65,450 66,247 67,1373
68,1227 69,9999 70,2437 71,495
72,112 77,286 78,258 79,938
80,347 81,1068 82,327 83,2417
84,5436 85,2082 86,174 91,127
92,280 93,1601 94,394 95,253
96,1480 97,3690 98,1583 99,151
107,3094 108,316 109,80 110,80
111,915 112,895 113,63 122,1353
123,193 125,1034 126,135 140,4997
141,507
##END=
