##TITLE=Benzene, 1-methoxy-4-(2-cyano-2-phenylethenyl)
##JCAMP-DX=4.24
##DATA TYPE=MASS SPECTRUM
##ORIGIN=USAF ACADEMY, COLORADO SPRINGS, COLORADO 80840, J LLOYD PFLUG
##OWNER=NIST Mass Spectrometry Data Center
Collection (C) 2014 copyright by the U.S. Secretary of Commerce
on behalf of the United States of America. All rights reserved.
##CAS REGISTRY NO=5432-07-5
##$NIST MASS SPEC NO=79964
##MOLFORM=C16 H13 N O
##MW=235
##$NIST SOURCE=MSDC
##XUNITS=M/Z
##YUNITS=RELATIVE INTENSITY
##XFACTOR=1
##YFACTOR=1
##FIRSTX=15
##LASTX=237
##FIRSTY=382
##MAXX=237
##MINX=15
##MAXY=9999
##MINY=48
##NPOINTS=106
##PEAK TABLE=(XY..XY)
15,382 27,174 38,145 39,731
41,58 45,348 50,625 51,1119
52,271 53,140 55,77 61,101
62,465 63,1090 64,344 65,266
66,48 69,247 74,450 75,605
76,576 77,605 78,242 79,63
82,499 85,53 86,222 87,508
88,954 89,688 90,130 91,63
92,82 95,382 98,160 99,213
100,213 101,213 102,455 103,125
104,319 110,319 111,135 112,96
113,450 114,537 115,479 116,116
118,271 122,48 123,53 124,63
125,111 126,339 127,242 128,121
137,222 138,218 139,746 140,838
141,140 142,82 149,63 150,300
151,310 152,683 153,334 154,72
157,58 162,106 163,814 164,1293
165,5944 166,1196 167,130 174,58
175,160 176,431 177,1274 178,329
179,82 188,130 189,184 190,2596
191,1695 192,1157 193,305 194,82
195,96 201,160 202,552 203,770
204,2010 205,348 206,72 208,87
209,77 218,53 219,1327 220,1085
221,174 233,96 234,2906 235,9999
236,1899 237,179
##END=
