##TITLE=Propanoic acid, 2,2-dimethyl-, hexyl ester
##JCAMP-DX=4.24
##DATA TYPE=MASS SPECTRUM
##ORIGIN=V.G. Zaikin, TIPS RAS, Moscow, Russia
##OWNER=NIST Mass Spectrometry Data Center
Collection (C) 2014 copyright by the U.S. Secretary of Commerce
on behalf of the United States of America. All rights reserved.
##CAS REGISTRY NO=5434-57-1
##$NIST MASS SPEC NO=278931
##MOLFORM=C11 H22 O2
##MW=186
##$NIST SOURCE=MSDC
##XUNITS=M/Z
##YUNITS=RELATIVE INTENSITY
##XFACTOR=1
##YFACTOR=1
##FIRSTX=26
##LASTX=143
##FIRSTY=180
##MAXX=143
##MINX=26
##MAXY=9999
##MINY=30
##NPOINTS=38
##PEAK TABLE=(XY..XY)
26,180 27,1471 28,420 29,2322
30,110 31,80 37,60 38,60
39,1672 40,250 41,4184 42,1151
43,3283 44,390 45,80 50,170
51,280 52,360 53,130 54,170
55,1221 56,1712 57,9999 58,530
59,561 67,80 69,470 70,250
71,150 73,30 83,70 84,1081
85,1842 86,110 87,250 103,2452
104,130 143,70
##END=
