##TITLE=1H-Indene, 2,3-dihydro-1,4,7-trimethyl-
##JCAMP-DX=4.24
##DATA TYPE=MASS SPECTRUM
##OWNER=NIST Mass Spectrometry Data Center
Collection (C) 2014 copyright by the U.S. Secretary of Commerce
on behalf of the United States of America. All rights reserved.
##CAS REGISTRY NO=54340-87-3
##$NIST MASS SPEC NO=5664
##MOLFORM=C12 H16
##MW=160
##$NIST SOURCE=MSDC
##XUNITS=M/Z
##YUNITS=RELATIVE INTENSITY
##XFACTOR=1
##YFACTOR=1
##FIRSTX=12
##LASTX=162
##FIRSTY=10
##MAXX=162
##MINX=12
##MAXY=9999
##MINY=10
##NPOINTS=120
##PEAK TABLE=(XY..XY)
12,10 13,10 14,20 15,300
16,10 17,10 18,10 26,130
27,821 28,140 29,180 30,10
36,10 37,20 38,90 39,711
40,60 41,250 42,10 43,10
44,10 45,10 49,10 50,190
51,510 52,130 53,240 54,10
55,20 56,10 57,30 58,50
59,10 61,20 62,100 63,330
64,240 65,320 66,20 67,40
68,10 69,20 70,80 71,200
72,50 73,30 74,80 75,110
76,100 77,430 78,140 79,140
80,40 81,10 85,10 86,30
87,50 88,20 89,110 90,20
91,440 92,10 93,20 94,10
96,10 97,10 98,20 99,10
100,10 101,40 102,120 103,140
104,40 105,380 106,10 107,10
109,10 110,10 111,10 112,10
113,20 114,30 115,941 116,140
117,250 118,50 119,80 120,10
125,20 126,50 127,350 128,1091
129,911 130,901 131,80 132,20
133,10 138,10 139,60 140,20
141,260 142,100 143,270 144,210
145,9999 147,10 148,10 150,10
151,10 152,20 153,20 154,10
155,10 156,10 157,20 158,40
159,200 160,2012 161,10 162,10
##END=
