##TITLE=4-Heptenoic acid, ethyl ester, (E)-
##JCAMP-DX=4.24
##DATA TYPE=MASS SPECTRUM
##ORIGIN=R.J.C.KLEIPOOL CENTRAL INST. FOR NUTRITION, ZEIST, NETHERLANDS
##OWNER=NIST Mass Spectrometry Data Center
Collection (C) 2014 copyright by the U.S. Secretary of Commerce
on behalf of the United States of America. All rights reserved.
##CAS REGISTRY NO=54340-70-4
##$NIST MASS SPEC NO=5327
##MOLFORM=C9 H16 O2
##MW=156
##$NIST SOURCE=MSDC
##XUNITS=M/Z
##YUNITS=RELATIVE INTENSITY
##XFACTOR=1
##YFACTOR=1
##FIRSTX=39
##LASTX=157
##FIRSTY=3700
##MAXX=157
##MINX=39
##MAXY=9999
##MINY=20
##NPOINTS=51
##PEAK TABLE=(XY..XY)
39,3700 40,760 41,9999 42,1800
43,3100 44,170 45,1600 51,230
52,170 53,1700 54,1050 55,7100
56,870 57,90 60,5000 61,3500
67,5300 68,8700 69,7100 70,3200
71,1100 72,20 73,810 74,110
79,350 80,50 81,3600 82,4800
83,4200 84,290 85,2300 86,100
87,110 88,7000 89,220 95,110
99,700 100,60 101,230 109,700
110,4600 111,250 112,110 113,110
114,50 115,60 127,460 128,110
141,50 156,1900 157,200
##END=
