##TITLE=2-Butanone, 4,4-dimethoxy-
##JCAMP-DX=4.24
##DATA TYPE=MASS SPECTRUM
##ORIGIN=Japan AIST/NIMC Database- Spectrum MS-NW-1041
##OWNER=NIST Mass Spectrometry Data Center
Collection (C) 2014 copyright by the U.S. Secretary of Commerce
on behalf of the United States of America. All rights reserved.
##CAS REGISTRY NO=5436-21-5
##$NIST MASS SPEC NO=229879
##MOLFORM=C6 H12 O3
##MW=132
##$NIST SOURCE=MSDC
##XUNITS=M/Z
##YUNITS=RELATIVE INTENSITY
##XFACTOR=1
##YFACTOR=1
##FIRSTX=13
##LASTX=133
##FIRSTY=10
##MAXX=133
##MINX=13
##MAXY=9999
##MINY=10
##NPOINTS=65
##PEAK TABLE=(XY..XY)
13,10 14,119 15,1069 16,10
17,20 18,70 25,10 26,119
27,499 28,159 29,649 30,70
31,1169 32,229 33,139 37,30
38,40 39,149 40,20 41,129
42,439 43,9999 44,249 45,129
47,1139 48,20 50,20 51,10
53,99 54,40 55,60 56,30
57,159 58,699 59,639 60,20
69,70 70,40 71,149 72,20
73,10 74,30 75,5249 76,189
77,30 83,20 84,10 85,2419
86,119 87,30 88,20 89,109
98,10 99,10 100,329 101,1219
102,80 114,10 115,20 117,939
118,60 119,10 131,60 132,139
133,10
##END=
