##TITLE=Benzyl 2-bromoacetate
##JCAMP-DX=4.24
##DATA TYPE=MASS SPECTRUM
##ORIGIN=NIST Mass Spectrometry Data Center
##OWNER=NIST Mass Spectrometry Data Center
Collection (C) 2014 copyright by the U.S. Secretary of Commerce
on behalf of the United States of America. All rights reserved.
##CAS REGISTRY NO=5437-45-6
##$NIST MASS SPEC NO=342332
##MOLFORM=C9 H9 Br O2
##MW=228
##$NIST SOURCE=MSDC
##XUNITS=M/Z
##YUNITS=RELATIVE INTENSITY
##XFACTOR=1
##YFACTOR=1
##FIRSTX=12
##LASTX=231
##FIRSTY=30
##MAXX=231
##MINX=12
##MAXY=9999
##MINY=10
##NPOINTS=75
##PEAK TABLE=(XY..XY)
12,30 13,110 14,581 15,130
16,10 18,20 21,10 25,20
26,130 27,350 28,140 29,400
30,70 31,30 36,10 37,100
38,350 39,1712 40,160 41,420
42,811 43,611 44,60 46,70
50,991 51,2182 52,571 53,150
54,10 55,10 61,100 62,360
63,961 64,360 65,2562 66,140
74,240 75,170 77,2582 78,731
79,2993 80,280 81,150 82,40
85,20 86,40 87,30 89,1171
90,1661 91,8898 92,811 93,961
95,871 96,10 103,70 105,981
107,9999 108,1531 109,110 119,10
121,390 122,50 123,330 124,10
149,4044 150,400 151,30 169,130
170,10 171,120 172,10 228,210
229,20 230,220 231,10
##END=
