##TITLE=Pentanedinitrile
##JCAMP-DX=4.24
##DATA TYPE=MASS SPECTRUM
##ORIGIN=Japan AIST/NIMC Database- Spectrum MS-NW-4216
##OWNER=NIST Mass Spectrometry Data Center
Collection (C) 2014 copyright by the U.S. Secretary of Commerce
on behalf of the United States of America. All rights reserved.
##CAS REGISTRY NO=544-13-8
##$NIST MASS SPEC NO=230325
##MOLFORM=C5 H6 N2
##MW=94
##$NIST SOURCE=MSDC
##XUNITS=M/Z
##YUNITS=RELATIVE INTENSITY
##XFACTOR=1
##YFACTOR=1
##FIRSTX=12
##LASTX=95
##FIRSTY=40
##MAXX=95
##MINX=12
##MAXY=9999
##MINY=10
##NPOINTS=38
##PEAK TABLE=(XY..XY)
12,40 13,50 14,90 15,149
24,20 25,70 26,679 27,1939
28,2229 29,40 36,50 37,339
38,459 39,809 40,1079 41,9999
42,349 48,10 49,30 50,70
51,409 52,989 53,199 54,9719
55,339 62,70 63,139 64,239
65,109 66,479 67,80 68,20
75,10 77,10 89,10 91,20
93,90 95,20
##END=
