##TITLE=Tetradecanoic acid
##JCAMP-DX=4.24
##DATA TYPE=MASS SPECTRUM
##ORIGIN=NIST Mass Spectrometry Data Center, 1998.
##OWNER=NIST Mass Spectrometry Data Center
Collection (C) 2014 copyright by the U.S. Secretary of Commerce
on behalf of the United States of America. All rights reserved.
##CAS REGISTRY NO=544-63-8
##$NIST MASS SPEC NO=290632
##MOLFORM=C14 H28 O2
##MW=228
##$NIST SOURCE=MSDC
##XUNITS=M/Z
##YUNITS=RELATIVE INTENSITY
##XFACTOR=1
##YFACTOR=1
##FIRSTX=15
##LASTX=230
##FIRSTY=10
##MAXX=230
##MINX=15
##MAXY=9999
##MINY=10
##NPOINTS=143
##PEAK TABLE=(XY..XY)
15,10 26,40 27,1010 28,50
29,2080 30,60 31,100 37,10
38,20 39,1200 40,250 41,6779
42,1530 43,7219 44,260 45,1140
46,30 47,30 50,20 51,70
52,50 53,560 54,530 55,7079
56,1590 57,6529 58,330 59,490
60,9049 61,1930 62,80 63,20
65,110 66,60 67,710 68,510
69,3530 70,980 71,3360 72,210
73,9999 74,920 75,70 76,10
77,80 78,30 79,220 80,80
81,480 82,480 83,2340 84,1120
85,2290 86,230 87,2010 88,210
89,30 91,40 92,10 93,130
94,60 95,290 96,410 97,1640
98,1030 99,850 100,110 101,810
102,240 103,30 104,10 105,20
106,10 107,100 108,30 109,140
110,250 111,730 112,320 113,510
114,60 115,1470 116,430 117,40
119,10 121,110 122,20 123,60
124,130 125,330 126,130 127,200
128,10 129,5129 130,510 131,50
132,10 133,20 135,70 136,20
137,40 138,120 139,120 140,140
141,10 142,10 143,1210 144,130
145,10 149,40 150,10 151,20
152,10 153,30 154,10 157,480
158,70 163,20 164,10 165,10
166,320 167,60 168,160 169,60
170,10 171,1140 172,150 173,10
185,2920 186,370 187,30 191,10
192,40 193,10 199,500 200,80
209,10 211,60 212,10 213,10
228,1500 229,260 230,20
##END=
