##TITLE=1,3,5-Cycloheptatriene
##JCAMP-DX=4.24
##DATA TYPE=MASS SPECTRUM
##ORIGIN=Japan AIST/NIMC Database- Spectrum MS-NW- 968
##OWNER=NIST Mass Spectrometry Data Center
Collection (C) 2014 copyright by the U.S. Secretary of Commerce
on behalf of the United States of America. All rights reserved.
##CAS REGISTRY NO=544-25-2
##$NIST MASS SPEC NO=230230
##MOLFORM=C7 H8
##MW=92
##$NIST SOURCE=MSDC
##XUNITS=M/Z
##YUNITS=RELATIVE INTENSITY
##XFACTOR=1
##YFACTOR=1
##FIRSTX=15
##LASTX=94
##FIRSTY=10
##MAXX=94
##MINX=15
##MAXY=9999
##MINY=10
##NPOINTS=45
##PEAK TABLE=(XY..XY)
15,10 26,90 27,349 36,10
37,179 38,399 39,1709 40,269
41,179 42,10 43,129 44,40
45,289 46,149 49,60 50,399
51,659 52,229 53,169 54,10
60,30 61,189 62,369 63,829
64,189 65,1969 66,329 67,20
73,10 74,50 75,30 76,30
77,189 78,30 79,40 84,20
85,50 86,70 87,40 89,359
90,109 91,9999 92,4749 93,349
94,50
##END=
