##TITLE=Di(3-Methylbutyl)amine
##JCAMP-DX=4.24
##DATA TYPE=MASS SPECTRUM
##ORIGIN=Japan AIST/NIMC Database- Spectrum MS-NW-6384
##OWNER=NIST Mass Spectrometry Data Center
Collection (C) 2014 copyright by the U.S. Secretary of Commerce
on behalf of the United States of America. All rights reserved.
##CAS REGISTRY NO=544-00-3
##$NIST MASS SPEC NO=237769
##MOLFORM=C10 H23 N
##MW=157
##$NIST SOURCE=MSDC
##XUNITS=M/Z
##YUNITS=RELATIVE INTENSITY
##XFACTOR=1
##YFACTOR=1
##FIRSTX=15
##LASTX=158
##FIRSTY=70
##MAXX=158
##MINX=15
##MAXY=9999
##MINY=10
##NPOINTS=63
##PEAK TABLE=(XY..XY)
15,70 26,40 27,649 28,369
29,1089 30,4579 31,70 32,10
38,20 39,399 40,60 41,1289
42,539 43,3449 44,6179 45,189
50,10 51,20 52,20 53,90
54,60 55,389 56,339 57,199
58,229 59,10 65,10 67,30
68,60 69,199 70,389 71,799
72,149 73,10 80,10 81,10
82,30 83,10 84,109 85,20
86,169 87,40 88,10 96,20
98,299 99,30 100,9999 101,679
102,20 112,30 113,20 114,50
126,40 127,20 128,149 129,20
140,20 142,80 143,10 154,10
156,90 157,349 158,40
##END=
