##TITLE=Myristoleic acid
##JCAMP-DX=4.24
##DATA TYPE=MASS SPECTRUM
##ORIGIN=J. Klune, Insect Chem. Ecol. Lab., USDA, Beltsville, MD 20705
##OWNER=NIST Mass Spectrometry Data Center
Collection (C) 2014 copyright by the U.S. Secretary of Commerce
on behalf of the United States of America. All rights reserved.
##CAS REGISTRY NO=544-64-9
##$NIST MASS SPEC NO=130844
##MOLFORM=C14 H26 O2
##MW=226
##$NIST SOURCE=MSDC
##XUNITS=M/Z
##YUNITS=RELATIVE INTENSITY
##XFACTOR=1
##YFACTOR=1
##FIRSTX=41
##LASTX=228
##FIRSTY=7710
##MAXX=228
##MINX=41
##MAXY=9999
##MINY=3
##NPOINTS=142
##PEAK TABLE=(XY..XY)
41,7710 42,1650 43,3535 44,168
45,1171 46,30 47,25 50,27
51,110 52,91 53,965 54,1927
55,9999 56,2517 57,1359 58,135
59,293 60,1313 61,141 62,12
63,20 65,251 66,173 67,2145
68,1750 69,4810 70,1775 71,665
73,1489 74,119 75,14 77,186
78,56 79,450 80,229 81,1599
82,1501 83,2563 84,2254 85,489
86,88 87,472 88,55 89,8
91,140 92,34 93,179 94,276
95,969 96,1738 97,2064 98,1741
99,343 100,373 101,504 102,59
103,9 105,72 106,36 107,134
108,191 109,584 110,1029 111,951
112,474 113,331 114,644 115,232
116,54 117,9 118,13 119,153
120,58 121,138 122,111 123,623
124,772 125,494 126,175 127,346
128,96 129,151 130,71 131,13
133,159 134,143 135,99 136,46
137,419 138,353 139,191 140,46
141,81 142,28 143,71 144,44
145,7 147,124 148,88 149,42
150,24 151,286 152,161 153,78
154,45 155,44 156,15 157,33
158,27 161,82 162,22 163,12
164,404 165,254 166,467 167,95
168,16 169,31 171,23 175,3
177,8 179,119 180,57 181,20
183,46 185,32 189,14 190,82
191,26 193,21 194,17 197,23
199,9 200,4 207,17 208,519
209,149 210,21 224,15 226,456
227,98 228,47
##END=
