##TITLE=Hexadecane, 1-iodo-
##JCAMP-DX=4.24
##DATA TYPE=MASS SPECTRUM
##ORIGIN=Japan AIST/NIMC Database- Spectrum MS-IW-1296
##OWNER=NIST Mass Spectrometry Data Center
Collection (C) 2014 copyright by the U.S. Secretary of Commerce
on behalf of the United States of America. All rights reserved.
##CAS REGISTRY NO=544-77-4
##$NIST MASS SPEC NO=239643
##MOLFORM=C16 H33 I
##MW=352
##$NIST SOURCE=MSDC
##XUNITS=M/Z
##YUNITS=RELATIVE INTENSITY
##XFACTOR=1
##YFACTOR=1
##FIRSTX=26
##LASTX=352
##FIRSTY=10
##MAXX=352
##MINX=26
##MAXY=9999
##MINY=10
##NPOINTS=87
##PEAK TABLE=(XY..XY)
26,10 27,309 28,50 29,829
30,20 36,50 38,20 39,239
40,50 41,2269 42,499 43,5699
44,169 53,109 54,169 55,2409
56,799 57,9999 58,499 65,20
66,10 67,199 68,129 69,1389
70,579 71,8219 72,459 73,10
77,20 79,30 81,80 82,139
83,869 84,309 85,5719 86,389
91,90 93,30 95,30 96,70
97,579 98,169 99,1969 100,149
105,30 107,10 109,10 110,30
111,259 112,109 113,1249 114,109
119,10 124,20 125,99 126,70
127,919 128,99 133,10 135,129
137,119 138,10 139,40 140,40
141,739 142,80 149,30 151,20
153,20 154,30 155,589 156,70
167,10 168,20 169,399 170,50
182,10 183,179 184,20 196,20
197,20 211,10 224,99 225,1759
226,319 227,30 352,30
##END=
