##TITLE=5,6-Diamino-1,3-dimethyluracil
##JCAMP-DX=4.24
##DATA TYPE=MASS SPECTRUM
##ORIGIN=Japan AIST/NIMC Database- Spectrum MS-NW-6477
##OWNER=NIST Mass Spectrometry Data Center
Collection (C) 2014 copyright by the U.S. Secretary of Commerce
on behalf of the United States of America. All rights reserved.
##CAS REGISTRY NO=5440-00-6
##$NIST MASS SPEC NO=235049
##MOLFORM=C6 H10 N4 O2
##MW=170
##$NIST SOURCE=MSDC
##XUNITS=M/Z
##YUNITS=RELATIVE INTENSITY
##XFACTOR=1
##YFACTOR=1
##FIRSTX=12
##LASTX=173
##FIRSTY=20
##MAXX=173
##MINX=12
##MAXY=9999
##MINY=10
##NPOINTS=127
##PEAK TABLE=(XY..XY)
12,20 13,20 14,50 15,1179
16,529 17,939 18,1069 26,40
27,509 28,2569 29,1039 30,2959
31,539 32,149 34,10 36,20
38,40 39,70 40,199 41,439
42,1569 43,1329 44,929 45,309
46,10 51,10 52,40 53,339
54,209 55,489 56,1299 57,3919
58,7519 59,1239 60,159 64,10
65,10 66,30 67,139 68,419
69,239 70,329 71,129 72,149
73,30 74,329 75,20 77,10
78,10 79,20 80,20 81,40
82,90 83,269 84,889 85,1609
86,209 87,20 88,389 89,20
93,10 94,30 95,229 96,80
97,50 98,109 99,30 100,60
101,40 102,139 103,10 107,40
108,10 109,20 110,40 111,99
112,119 113,70 114,339 115,289
116,529 117,30 121,10 122,40
123,70 124,50 125,40 126,30
127,109 128,269 129,80 130,10
131,10 135,10 136,10 137,10
138,40 139,20 140,70 141,179
142,2669 143,1449 144,319 145,30
149,30 150,20 151,30 152,30
153,40 154,40 155,159 156,30
157,30 159,129 160,10 161,10
162,10 163,10 164,20 165,20
167,80 168,129 169,169 170,9999
171,879 172,80 173,10
##END=
