##TITLE=2-Hexenoic acid, butyl ester, (E)-
##JCAMP-DX=4.24
##DATA TYPE=MASS SPECTRUM
##OWNER=NIST Mass Spectrometry Data Center
Collection (C) 2014 copyright by the U.S. Secretary of Commerce
on behalf of the United States of America. All rights reserved.
##CAS REGISTRY NO=54411-16-4
##$NIST MASS SPEC NO=6636
##MOLFORM=C10 H18 O2
##MW=170
##$NIST SOURCE=MSDC
##XUNITS=M/Z
##YUNITS=RELATIVE INTENSITY
##XFACTOR=1
##YFACTOR=1
##FIRSTX=26
##LASTX=141
##FIRSTY=150
##MAXX=141
##MINX=26
##MAXY=9999
##MINY=80
##NPOINTS=32
##PEAK TABLE=(XY..XY)
26,150 27,1251 28,220 29,2392
39,1111 40,430 42,631 43,561
44,210 53,420 54,210 55,5915
56,2642 57,881 59,120 60,120
67,280 68,901 69,921 70,130
71,150 73,3183 81,370 85,190
86,160 97,6406 98,430 99,440
109,190 115,9999 127,1171 141,80
##END=
