##TITLE=Butanoic acid, 3-methyl-, 3-methyl-3-butenyl ester
##JCAMP-DX=4.24
##DATA TYPE=MASS SPECTRUM
##OWNER=NIST Mass Spectrometry Data Center
Collection (C) 2014 copyright by the U.S. Secretary of Commerce
on behalf of the United States of America. All rights reserved.
##CAS REGISTRY NO=54410-94-5
##$NIST MASS SPEC NO=6632
##MOLFORM=C10 H18 O2
##MW=170
##$NIST SOURCE=MSDC
##XUNITS=M/Z
##YUNITS=RELATIVE INTENSITY
##XFACTOR=1
##YFACTOR=1
##FIRSTX=15
##LASTX=103
##FIRSTY=300
##MAXX=103
##MINX=15
##MAXY=9999
##MINY=60
##NPOINTS=32
##PEAK TABLE=(XY..XY)
15,300 17,60 18,140 26,90
27,1511 28,390 29,1752 38,70
39,1411 40,510 41,3934 42,741
43,1141 44,70 45,70 51,70
53,550 54,100 55,330 56,260
57,4364 58,200 59,140 60,60
67,1601 68,9999 69,2182 70,220
83,60 85,3253 86,190 103,170
##END=
