##TITLE=Cyclohexanone, 4-ethyl-
##JCAMP-DX=4.24
##DATA TYPE=MASS SPECTRUM
##ORIGIN=Japan AIST/NIMC Database- Spectrum MS-IW-1781
##OWNER=NIST Mass Spectrometry Data Center
Collection (C) 2014 copyright by the U.S. Secretary of Commerce
on behalf of the United States of America. All rights reserved.
##CAS REGISTRY NO=5441-51-0
##$NIST MASS SPEC NO=237071
##MOLFORM=C8 H14 O
##MW=126
##$NIST SOURCE=MSDC
##XUNITS=M/Z
##YUNITS=RELATIVE INTENSITY
##XFACTOR=1
##YFACTOR=1
##FIRSTX=14
##LASTX=128
##FIRSTY=10
##MAXX=128
##MINX=14
##MAXY=9999
##MINY=10
##NPOINTS=70
##PEAK TABLE=(XY..XY)
14,10 15,60 26,139 27,1609
28,779 29,1229 30,30 31,20
32,10 33,10 34,40 35,10
37,20 38,109 39,1779 40,359
41,4559 42,2199 43,5179 44,169
45,10 48,80 49,10 50,99
51,189 52,99 53,609 54,509
55,9999 56,2539 57,759 58,70
62,30 63,60 64,10 65,109
66,60 67,899 68,279 69,3209
70,3349 71,1569 72,169 77,70
78,439 79,1229 80,159 81,149
82,1089 83,829 84,2309 85,159
91,20 93,879 94,70 95,30
96,20 97,5039 98,1769 99,129
107,20 108,749 109,80 110,10
111,419 112,30 125,60 126,4219
127,389 128,20
##END=
