##TITLE=3-Chloro-2-methylbenzonitrile
##JCAMP-DX=4.24
##DATA TYPE=MASS SPECTRUM
##ORIGIN=NIST Mass Spectrometry Data Center, 1994
##OWNER=NIST Mass Spectrometry Data Center
Collection (C) 2014 copyright by the U.S. Secretary of Commerce
on behalf of the United States of America. All rights reserved.
##CAS REGISTRY NO=54454-12-5
##$NIST MASS SPEC NO=136822
##MOLFORM=C8 H6 Cl N
##MW=151
##$NIST SOURCE=MSDC
##XUNITS=M/Z
##YUNITS=RELATIVE INTENSITY
##XFACTOR=1
##YFACTOR=1
##FIRSTX=14
##LASTX=154
##FIRSTY=22
##MAXX=154
##MINX=14
##MAXY=9999
##MINY=15
##NPOINTS=70
##PEAK TABLE=(XY..XY)
14,22 15,37 17,15 18,37
25,41 26,236 27,201 28,149
35,73 36,128 37,660 38,809
39,1258 40,99 41,19 43,167
44,176 47,72 48,62 49,397
50,967 51,882 52,242 57,95
58,565 60,160 61,676 62,1293
63,1686 64,592 65,232 66,34
71,21 72,122 73,467 74,260
75,637 76,333 77,39 84,118
85,232 86,345 87,611 88,1096
89,2505 90,380 96,25 97,150
98,91 99,204 100,126 101,41
110,43 111,57 112,41 113,25
114,1007 115,2044 116,9999 117,875
118,46 123,431 124,438 125,205
126,131 150,667 151,4306 152,597
153,1414 154,135
##END=
