##TITLE=Cyclohexanol, 1-butyl-
##JCAMP-DX=4.24
##DATA TYPE=MASS SPECTRUM
##ORIGIN=NIST Mass Spectrometry Data Center, 1990.
##OWNER=NIST Mass Spectrometry Data Center
Collection (C) 2014 copyright by the U.S. Secretary of Commerce
on behalf of the United States of America. All rights reserved.
##CAS REGISTRY NO=5445-30-7
##$NIST MASS SPEC NO=113726
##MOLFORM=C10 H20 O
##MW=156
##$NIST SOURCE=MSDC
##XUNITS=M/Z
##YUNITS=RELATIVE INTENSITY
##XFACTOR=1
##YFACTOR=1
##FIRSTX=15
##LASTX=138
##FIRSTY=152
##MAXX=138
##MINX=15
##MAXY=9999
##MINY=138
##NPOINTS=48
##PEAK TABLE=(XY..XY)
15,152 27,1924 28,1005 29,2199
31,319 39,1586 40,384 41,3190
42,730 43,2740 45,150 51,248
52,155 53,1003 54,481 55,2610
56,377 57,2491 58,1716 59,517
65,353 66,216 67,2412 68,557
69,670 70,326 71,1238 72,545
77,398 78,138 79,1097 81,6675
82,884 83,573 85,842 91,245
93,194 95,1008 96,894 97,230
99,9999 100,1097 101,158 109,470
113,2540 114,754 127,442 138,472
##END=
