##TITLE=Ethyl-4-nitrophenylacetate
##JCAMP-DX=4.24
##DATA TYPE=MASS SPECTRUM
##ORIGIN=Japan AIST/NIMC Database- Spectrum MS-NW-3780
##OWNER=NIST Mass Spectrometry Data Center
Collection (C) 2014 copyright by the U.S. Secretary of Commerce
on behalf of the United States of America. All rights reserved.
##CAS REGISTRY NO=5445-26-1
##$NIST MASS SPEC NO=228578
##MOLFORM=C10 H11 N O4
##MW=209
##$NIST SOURCE=MSDC
##XUNITS=M/Z
##YUNITS=RELATIVE INTENSITY
##XFACTOR=1
##YFACTOR=1
##FIRSTX=14
##LASTX=211
##FIRSTY=10
##MAXX=211
##MINX=14
##MAXY=9999
##MINY=10
##NPOINTS=89
##PEAK TABLE=(XY..XY)
14,10 15,70 18,10 26,90
27,699 28,159 29,9999 30,1549
31,30 32,10 37,30 38,129
39,529 40,99 41,60 42,20
43,90 44,30 45,149 46,10
49,10 50,209 51,379 52,199
53,50 55,20 59,10 60,10
61,40 62,239 63,779 64,349
65,109 66,10 68,20 73,139
74,50 75,50 76,40 77,429
78,1589 79,339 80,20 85,10
86,40 87,50 88,40 89,1909
90,2299 91,599 92,50 93,20
94,10 103,20 104,30 105,50
106,1099 107,1329 108,109 109,10
115,10 117,80 118,40 119,409
120,1009 121,219 122,40 133,40
134,10 135,169 136,3269 137,4199
138,339 139,30 148,80 149,10
150,50 163,80 164,399 165,209
166,20 179,30 181,209 182,20
193,90 194,10 209,1049 210,139
211,20
##END=
