##TITLE=Propanoic acid, 2-bromo-, methyl ester
##JCAMP-DX=4.24
##DATA TYPE=MASS SPECTRUM
##ORIGIN=Chuck Anderson, Aldrich Chemical Co.
##OWNER=NIST Mass Spectrometry Data Center
Collection (C) 2014 copyright by the U.S. Secretary of Commerce
on behalf of the United States of America. All rights reserved.
##CAS REGISTRY NO=5445-17-0
##$NIST MASS SPEC NO=107366
##MOLFORM=C4 H7 Br O2
##MW=166
##$NIST SOURCE=MSDC
##XUNITS=M/Z
##YUNITS=RELATIVE INTENSITY
##XFACTOR=1
##YFACTOR=1
##FIRSTX=13
##LASTX=169
##FIRSTY=25
##MAXX=169
##MINX=13
##MAXY=9999
##MINY=12
##NPOINTS=61
##PEAK TABLE=(XY..XY)
13,25 14,105 15,2748 16,39
25,123 26,1341 27,7921 28,2034
29,1168 30,186 31,622 32,18
33,27 37,22 38,27 39,90
41,370 42,62 43,1266 44,72
45,114 53,79 54,32 55,833
56,319 57,32 59,4198 60,87
79,121 80,34 81,129 82,39
87,9999 88,397 89,39 92,32
93,46 94,88 95,82 96,49
97,47 105,68 106,443 107,6969
108,549 109,6579 110,122 120,12
122,14 123,26 125,23 133,12
134,42 135,714 136,59 137,687
138,14 166,530 167,16 168,484
169,14
##END=
