##TITLE=Ethyl 2-bromooctanoate
##JCAMP-DX=4.24
##DATA TYPE=MASS SPECTRUM
##ORIGIN=NIST Mass Spectrometry Data Center
##OWNER=NIST Mass Spectrometry Data Center
Collection (C) 2014 copyright by the U.S. Secretary of Commerce
on behalf of the United States of America. All rights reserved.
##CAS REGISTRY NO=5445-29-4
##$NIST MASS SPEC NO=340611
##MOLFORM=C10 H19 Br O2
##MW=250
##$NIST SOURCE=MSDC
##XUNITS=M/Z
##YUNITS=RELATIVE INTENSITY
##XFACTOR=1
##YFACTOR=1
##FIRSTX=15
##LASTX=252
##FIRSTY=80
##MAXX=252
##MINX=15
##MAXY=9999
##MINY=10
##NPOINTS=144
##PEAK TABLE=(XY..XY)
15,80 19,10 26,190 27,2702
29,5695 30,160 31,120 37,10
38,60 39,1832 40,340 41,5105
42,1531 43,4184 44,190 45,621
46,20 47,30 50,40 51,120
52,70 53,741 54,320 55,9999
56,861 57,2182 58,120 59,120
60,200 61,110 62,10 63,20
65,110 66,50 67,641 68,300
69,1221 70,550 71,440 72,40
73,3243 74,130 75,20 77,50
78,10 79,130 80,50 81,440
82,360 83,971 84,210 85,210
86,150 87,130 88,440 89,30
91,20 93,70 94,10 95,460
96,170 97,2342 98,480 99,530
100,70 101,1832 102,120 103,10
105,40 106,250 107,240 108,260
109,180 111,30 113,150 114,30
115,270 116,60 119,80 120,120
121,270 122,140 123,240 124,80
125,941 126,80 127,200 128,40
129,1201 130,90 131,10 132,20
133,90 134,30 135,430 136,20
137,340 138,2102 139,60 140,2052
141,80 142,20 143,2973 144,260
145,20 147,20 149,30 151,200
152,10 153,190 162,10 163,10
164,10 165,90 166,5115 167,300
168,4904 169,220 170,30 171,4164
172,450 173,40 175,10 177,20
179,210 180,10 181,200 182,10
193,80 195,70 205,110 206,10
207,110 208,30 209,10 210,20
221,320 222,30 223,310 224,30
235,10 237,10 250,10 252,10
##END=
