##TITLE=Benzene, 2,4-dichloro-1-ethyl-
##JCAMP-DX=4.24
##DATA TYPE=MASS SPECTRUM
##OWNER=NIST Mass Spectrometry Data Center
Collection (C) 2014 copyright by the U.S. Secretary of Commerce
on behalf of the United States of America. All rights reserved.
##CAS REGISTRY NO=54484-62-7
##$NIST MASS SPEC NO=7035
##MOLFORM=C8 H8 Cl2
##MW=174
##$NIST SOURCE=MSDC
##XUNITS=M/Z
##YUNITS=RELATIVE INTENSITY
##XFACTOR=1
##YFACTOR=1
##FIRSTX=14
##LASTX=179
##FIRSTY=10
##MAXX=179
##MINX=14
##MAXY=9999
##MINY=10
##NPOINTS=120
##PEAK TABLE=(XY..XY)
14,10 15,20 17,20 18,80
26,30 27,240 28,290 29,40
32,80 35,10 36,10 37,70
38,90 39,250 40,20 41,50
43,130 44,60 47,20 49,120
50,550 51,961 52,70 53,60
54,10 55,60 56,30 57,40
60,30 61,150 62,260 63,440
64,30 65,30 67,40 68,460
69,510 70,130 71,30 72,60
73,380 74,420 75,701 76,120
77,701 78,100 79,10 82,20
83,60 84,140 85,210 86,160
87,180 88,50 89,520 90,40
91,30 92,10 96,30 97,170
98,80 99,270 100,50 101,440
102,530 103,1441 104,240 105,20
107,50 108,30 109,240 110,70
111,340 112,80 113,100 114,20
115,10 119,10 120,10 121,20
122,10 123,581 124,250 125,220
126,90 127,10 133,180 134,20
135,170 136,130 137,280 138,170
139,4564 140,440 141,1441 142,130
145,100 146,170 147,100 148,110
149,40 150,20 157,10 159,9999
160,801 161,6376 162,500 163,1121
164,80 165,10 170,10 171,20
172,50 173,360 174,3894 175,581
176,2442 177,270 178,410 179,40
##END=
