##TITLE=Benzene, 1,4-dichloro-2-ethyl-
##JCAMP-DX=4.24
##DATA TYPE=MASS SPECTRUM
##OWNER=NIST Mass Spectrometry Data Center
Collection (C) 2014 copyright by the U.S. Secretary of Commerce
on behalf of the United States of America. All rights reserved.
##CAS REGISTRY NO=54484-63-8
##$NIST MASS SPEC NO=7037
##MOLFORM=C8 H8 Cl2
##MW=174
##$NIST SOURCE=MSDC
##XUNITS=M/Z
##YUNITS=RELATIVE INTENSITY
##XFACTOR=1
##YFACTOR=1
##FIRSTX=14
##LASTX=179
##FIRSTY=10
##MAXX=179
##MINX=14
##MAXY=9999
##MINY=10
##NPOINTS=114
##PEAK TABLE=(XY..XY)
14,10 15,20 17,10 26,30
27,210 35,10 36,10 37,80
38,110 39,240 40,20 41,30
43,60 44,50 48,20 49,130
50,651 51,1091 52,80 53,50
55,20 60,30 61,150 62,270
63,450 64,40 65,20 66,10
67,30 68,420 69,480 70,110
71,10 72,40 73,370 74,410
75,751 76,160 77,761 78,100
83,20 84,90 85,50 86,150
87,170 88,50 89,440 90,40
91,10 95,10 96,30 97,130
98,80 99,290 100,50 101,540
102,641 103,1611 104,230 105,20
106,10 107,30 108,20 109,150
110,80 111,250 112,70 113,90
114,20 115,10 119,10 120,10
121,10 123,571 124,240 125,210
126,80 132,10 133,160 134,20
135,150 136,100 137,270 138,180
139,5225 140,500 141,1651 142,140
143,10 145,20 146,130 147,30
148,80 149,30 150,20 153,10
157,10 159,9999 160,771 161,6436
162,480 163,1051 164,50 168,10
170,10 171,20 172,30 173,120
174,4464 175,470 176,2823 177,270
178,480 179,50
##END=
