##TITLE=Benzene, 1,2-dichloro-3-ethyl-
##JCAMP-DX=4.24
##DATA TYPE=MASS SPECTRUM
##OWNER=NIST Mass Spectrometry Data Center
Collection (C) 2014 copyright by the U.S. Secretary of Commerce
on behalf of the United States of America. All rights reserved.
##CAS REGISTRY NO=54484-61-6
##$NIST MASS SPEC NO=7032
##MOLFORM=C8 H8 Cl2
##MW=174
##$NIST SOURCE=MSDC
##XUNITS=M/Z
##YUNITS=RELATIVE INTENSITY
##XFACTOR=1
##YFACTOR=1
##FIRSTX=15
##LASTX=179
##FIRSTY=30
##MAXX=179
##MINX=15
##MAXY=9999
##MINY=10
##NPOINTS=106
##PEAK TABLE=(XY..XY)
15,30 18,20 26,30 27,250
28,40 29,30 35,10 37,70
38,100 39,270 40,20 41,30
43,50 44,60 45,10 47,20
49,130 50,641 51,1241 52,100
53,60 54,20 55,30 56,10
60,30 61,160 62,280 63,470
64,40 65,30 67,40 68,480
69,591 70,140 72,50 73,390
74,410 75,831 76,180 77,871
78,140 79,10 80,10 83,10
84,130 85,190 86,180 87,190
88,60 89,490 90,40 96,40
97,20 98,80 99,310 100,70
101,601 102,751 103,1932 104,270
107,50 108,30 109,180 110,60
111,280 112,80 113,100 114,20
115,10 121,10 123,621 125,270
126,90 127,10 133,180 134,20
135,170 136,110 137,290 138,250
139,6166 140,611 141,1972 142,180
143,10 145,10 146,160 147,30
148,100 150,20 157,10 158,10
159,9999 160,781 161,6346 162,500
163,1041 164,80 172,20 173,110
174,4244 175,440 176,2742 177,250
178,450 179,40
##END=
