##TITLE=1,7-Heptanediol, 2TMS derivative
##JCAMP-DX=4.24
##DATA TYPE=MASS SPECTRUM
##ORIGIN=CARL DJERASSI DEPT OF CHEM STANFORD UNIV STANFORD CALIF 94305
##OWNER=NIST Mass Spectrometry Data Center
Collection (C) 2014 copyright by the U.S. Secretary of Commerce
on behalf of the United States of America. All rights reserved.
##CAS REGISTRY NO=54494-07-4
##$NIST MASS SPEC NO=47924
##MOLFORM=C13 H32 O2 Si2
##MW=276
##$NIST SOURCE=MSDC
##XUNITS=M/Z
##YUNITS=RELATIVE INTENSITY
##XFACTOR=1
##YFACTOR=1
##FIRSTX=41
##LASTX=279
##FIRSTY=1200
##MAXX=279
##MINX=41
##MAXY=9999
##MINY=10
##NPOINTS=79
##PEAK TABLE=(XY..XY)
41,1200 42,200 43,800 44,300
45,1600 46,100 47,700 53,200
54,100 55,9999 56,500 57,100
58,300 59,1400 60,200 61,700
66,100 67,300 68,300 69,1300
70,200 71,100 72,200 73,5200
74,500 75,4500 76,300 77,200
81,200 85,100 87,300 88,100
89,200 91,100 95,300 96,500
97,3900 98,300 99,200 101,400
102,100 103,2200 104,300 105,200
113,100 115,300 116,100 117,100
119,100 123,500 129,500 130,200
131,600 132,100 133,700 134,100
135,200 143,400 144,200 145,200
147,7100 148,1100 149,2200 150,400
151,200 157,100 165,200 171,700
172,200 177,700 178,200 186,500
187,200 261,200 275,20 276,10
277,50 278,10 279,10
##END=
