##TITLE=Propallylonal
##JCAMP-DX=4.24
##DATA TYPE=MASS SPECTRUM
##ORIGIN=R.E.Ardrey ET AL.Pharmaceutical Mass Spectra,L.,1985
##OWNER=NIST Mass Spectrometry Data Center
Collection (C) 2014 copyright by the U.S. Secretary of Commerce
on behalf of the United States of America. All rights reserved.
##CAS REGISTRY NO=545-93-7
##$NIST MASS SPEC NO=298703
##MOLFORM=C10 H13 Br N2 O3
##MW=288
##$NIST SOURCE=MSDC
##XUNITS=M/Z
##YUNITS=RELATIVE INTENSITY
##XFACTOR=1
##YFACTOR=1
##FIRSTX=38
##LASTX=221
##FIRSTY=200
##MAXX=221
##MINX=38
##MAXY=9999
##MINY=100
##NPOINTS=49
##PEAK TABLE=(XY..XY)
38,200 39,2402 40,400 41,2002
43,3203 52,801 53,1001 54,200
55,500 56,200 58,200 65,100
66,200 67,500 68,200 69,200
70,400 77,601 78,200 79,601
81,200 82,200 83,200 91,200
92,200 93,200 94,100 95,400
96,500 97,200 98,200 106,400
107,200 108,100 109,200 119,100
121,200 122,701 123,400 124,2402
125,200 138,200 140,801 167,9999
168,701 169,200 209,5605 210,601
221,200
##END=
