##TITLE=Racemoramide
##JCAMP-DX=4.24
##DATA TYPE=MASS SPECTRUM
##ORIGIN=Patti Price, Georgia Bureau of Investigation, Decatur, Georgia
##OWNER=NIST Mass Spectrometry Data Center
Collection (C) 2014 copyright by the U.S. Secretary of Commerce
on behalf of the United States of America. All rights reserved.
##CAS REGISTRY NO=545-59-5
##$NIST MASS SPEC NO=248527
##MOLFORM=C25 H32 N2 O2
##MW=392
##$NIST SOURCE=MSDC
##XUNITS=M/Z
##YUNITS=RELATIVE INTENSITY
##XFACTOR=1
##YFACTOR=1
##FIRSTX=42
##LASTX=392
##FIRSTY=460
##MAXX=392
##MINX=42
##MAXY=9999
##MINY=10
##NPOINTS=145
##PEAK TABLE=(XY..XY)
42,460 44,70 47,10 51,20
53,20 54,80 55,1090 56,1541
57,80 58,40 63,30 67,30
68,130 69,110 70,520 71,90
72,140 73,10 76,10 77,110
78,20 79,10 80,10 82,50
83,30 84,60 85,40 86,70
87,10 89,40 90,10 91,510
92,30 95,10 96,10 98,810
99,80 100,9999 101,630 102,50
103,80 104,40 105,80 106,10
109,10 112,30 113,20 114,10
115,430 116,160 117,110 118,70
119,30 120,10 125,10 126,40
127,90 128,4764 129,460 130,60
139,50 141,20 143,10 144,10
146,60 147,10 148,10 150,10
151,20 152,200 153,50 154,10
156,10 158,10 159,10 160,10
161,10 163,60 164,90 165,860
166,350 167,280 168,50 170,10
172,10 173,10 174,90 175,10
177,20 178,290 179,160 180,30
182,10 184,10 185,10 187,10
189,40 190,40 191,90 192,20
193,200 194,360 195,190 196,20
198,10 200,10 202,10 203,20
204,10 206,10 207,20 208,10
214,10 218,10 219,10 221,10
222,10 228,10 232,10 234,10
235,10 236,250 237,50 238,10
248,10 260,10 263,10 264,180
265,5895 266,1141 267,130 268,10
275,10 276,10 277,10 278,20
279,10 292,30 293,10 304,10
306,190 307,20 308,10 390,10
392,10
##END=
