##TITLE=Acetonitrile, trichloro-
##JCAMP-DX=4.24
##DATA TYPE=MASS SPECTRUM
##ORIGIN=Japan AIST/NIMC Database- Spectrum MS-NW-4417
##OWNER=NIST Mass Spectrometry Data Center
Collection (C) 2014 copyright by the U.S. Secretary of Commerce
on behalf of the United States of America. All rights reserved.
##CAS REGISTRY NO=545-06-2
##$NIST MASS SPEC NO=229856
##MOLFORM=C2 Cl3 N
##MW=143
##$NIST SOURCE=MSDC
##XUNITS=M/Z
##YUNITS=RELATIVE INTENSITY
##XFACTOR=1
##YFACTOR=1
##FIRSTX=12
##LASTX=121
##FIRSTY=309
##MAXX=121
##MINX=12
##MAXY=9999
##MINY=10
##NPOINTS=54
##PEAK TABLE=(XY..XY)
12,309 14,30 24,80 26,119
35,939 36,29 37,309 38,549
39,50 40,10 41,119 42,60
43,90 44,39 47,1769 48,30
49,599 50,20 52,10 54,20
55,40 56,139 57,90 59,80
61,60 62,10 63,20 69,40
70,40 72,30 73,2059 74,119
75,659 76,80 77,10 79,20
80,20 81,20 82,1329 83,30
84,859 85,70 86,149 87,20
88,10 108,9999 109,269 110,6449
111,189 112,1089 113,30 117,40
119,30 121,10
##END=
