##TITLE=Chloroacetic acid, nonyl ester
##JCAMP-DX=4.24
##DATA TYPE=MASS SPECTRUM
##ORIGIN=Zaikin V.G., TIPS RAS, Moscow, Russia
##OWNER=NIST Mass Spectrometry Data Center
Collection (C) 2014 copyright by the U.S. Secretary of Commerce
on behalf of the United States of America. All rights reserved.
##CAS REGISTRY NO=5451-96-7
##$NIST MASS SPEC NO=282926
##MOLFORM=C11 H21 Cl O2
##MW=220
##$NIST SOURCE=MSDC
##XUNITS=M/Z
##YUNITS=RELATIVE INTENSITY
##XFACTOR=1
##YFACTOR=1
##FIRSTX=25
##LASTX=171
##FIRSTY=50
##MAXX=171
##MINX=25
##MAXY=9999
##MINY=30
##NPOINTS=69
##PEAK TABLE=(XY..XY)
25,50 26,330 27,1682 28,90
29,3033 30,110 31,130 35,70
36,530 37,30 38,250 39,1411
40,420 41,7086 42,4354 43,8938
44,741 45,100 48,60 49,1451
50,180 51,571 52,160 53,470
54,931 55,8818 56,9999 57,4474
58,170 59,30 60,40 61,40
65,80 66,90 67,911 68,2352
69,6456 70,7527 71,2702 72,120
73,70 76,140 77,2943 78,150
79,1191 81,280 82,1581 83,4434
84,3793 85,1361 86,70 91,40
93,30 94,90 95,1201 96,400
97,3553 98,3603 99,260 107,120
109,40 111,110 121,30 124,40
125,30 126,731 127,70 135,80
171,150
##END=
