##TITLE=Pentanoic acid, heptyl ester
##JCAMP-DX=4.24
##DATA TYPE=MASS SPECTRUM
##ORIGIN=V.Zaikin,Topchiev Inst.Petrochem.Synth.,Moscow
##OWNER=NIST Mass Spectrometry Data Center
Collection (C) 2014 copyright by the U.S. Secretary of Commerce
on behalf of the United States of America. All rights reserved.
##CAS REGISTRY NO=5451-80-9
##$NIST MASS SPEC NO=281755
##MOLFORM=C12 H24 O2
##MW=200
##$NIST SOURCE=MSDC
##XUNITS=M/Z
##YUNITS=RELATIVE INTENSITY
##XFACTOR=1
##YFACTOR=1
##FIRSTX=27
##LASTX=157
##FIRSTY=2462
##MAXX=157
##MINX=27
##MAXY=9999
##MINY=20
##NPOINTS=64
##PEAK TABLE=(XY..XY)
27,2462 28,100 29,5605 30,210
31,500 36,140 38,360 39,3353
40,651 41,9408 42,3003 43,5885
44,1161 45,530 47,40 50,180
51,230 52,140 53,691 54,741
55,4964 56,5015 57,9999 58,621
59,60 60,1071 61,731 62,60
63,170 65,20 67,290 68,430
69,1271 70,2112 71,801 72,90
73,530 74,150 75,200 77,80
79,30 81,190 82,90 83,791
84,470 85,5735 86,410 87,330
91,40 95,80 96,130 97,160
98,2452 99,410 102,530 103,4244
104,230 112,70 113,90 126,50
141,30 142,20 143,30 157,60
##END=
