##TITLE=Benzene, (2,4-dimethylpentyl)-
##JCAMP-DX=4.24
##DATA TYPE=MASS SPECTRUM
##OWNER=NIST Mass Spectrometry Data Center
Collection (C) 2014 copyright by the U.S. Secretary of Commerce
on behalf of the United States of America. All rights reserved.
##CAS REGISTRY NO=54518-00-2
##$NIST MASS SPEC NO=7090
##MOLFORM=C13 H20
##MW=176
##$NIST SOURCE=MSDC
##XUNITS=M/Z
##YUNITS=RELATIVE INTENSITY
##XFACTOR=1
##YFACTOR=1
##FIRSTX=2
##LASTX=177
##FIRSTY=130
##MAXX=177
##MINX=2
##MAXY=9999
##MINY=30
##NPOINTS=72
##PEAK TABLE=(XY..XY)
2,130 12,80 13,30 14,130
15,470 16,50 24,30 25,80
26,380 27,2142 28,1942 29,1882
30,310 32,70 37,50 38,100
39,1491 40,150 41,2472 42,440
43,9999 44,520 46,50 49,50
50,130 51,470 52,100 53,200
54,30 55,831 56,260 57,1141
58,30 62,50 63,210 64,50
65,881 66,70 67,70 69,520
70,30 71,100 77,330 78,160
79,100 81,50 82,110 83,1932
84,1091 85,3843 86,250 88,50
89,110 91,3894 92,3123 93,280
103,100 104,50 105,200 106,30
115,200 116,50 117,470 118,200
119,130 127,30 129,50 131,200
174,110 175,30 176,1031 177,150
##END=
