##TITLE=Cyclohexaneacetic acid, ethyl ester
##JCAMP-DX=4.24
##DATA TYPE=MASS SPECTRUM
##ORIGIN=Japan AIST/NIMC Database- Spectrum MS-NW-8981
##OWNER=NIST Mass Spectrometry Data Center
Collection (C) 2014 copyright by the U.S. Secretary of Commerce
on behalf of the United States of America. All rights reserved.
##CAS REGISTRY NO=5452-75-5
##$NIST MASS SPEC NO=236686
##MOLFORM=C10 H18 O2
##MW=170
##$NIST SOURCE=MSDC
##XUNITS=M/Z
##YUNITS=RELATIVE INTENSITY
##XFACTOR=1
##YFACTOR=1
##FIRSTX=15
##LASTX=171
##FIRSTY=10
##MAXX=171
##MINX=15
##MAXY=9999
##MINY=10
##NPOINTS=78
##PEAK TABLE=(XY..XY)
15,10 26,10 27,339 28,139
29,769 30,20 31,20 39,459
40,90 41,1129 42,219 43,349
44,20 45,519 46,10 47,10
51,30 52,20 53,299 54,419
55,2259 56,159 57,70 58,10
59,10 60,2949 61,2629 62,70
63,10 65,60 66,40 67,679
68,169 69,139 70,1989 71,119
72,10 73,219 74,40 75,10
77,70 78,20 79,199 80,139
81,1029 82,449 83,529 84,30
85,30 86,20 87,10 88,9999
89,2179 90,129 91,119 92,10
93,30 94,10 95,309 96,90
97,1279 98,99 99,179 100,20
101,20 105,10 110,10 113,20
123,90 124,90 125,1589 126,139
127,99 128,10 141,10 142,10
170,99 171,30
##END=
