##TITLE=5-Norbornane-2-carboxaldehyde
##JCAMP-DX=4.24
##DATA TYPE=MASS SPECTRUM
##ORIGIN=NIST Mass Spectrometry Data Center, 1990.
##OWNER=NIST Mass Spectrometry Data Center
Collection (C) 2014 copyright by the U.S. Secretary of Commerce
on behalf of the United States of America. All rights reserved.
##CAS REGISTRY NO=5453-80-5
##$NIST MASS SPEC NO=118297
##MOLFORM=C8 H10 O
##MW=122
##$NIST SOURCE=MSDC
##XUNITS=M/Z
##YUNITS=RELATIVE INTENSITY
##XFACTOR=1
##YFACTOR=1
##FIRSTX=15
##LASTX=123
##FIRSTY=38
##MAXX=123
##MINX=15
##MAXY=9999
##MINY=32
##NPOINTS=48
##PEAK TABLE=(XY..XY)
15,38 25,49 26,222 27,954
28,293 29,393 37,175 38,429
39,2015 40,745 41,566 42,59
43,44 44,65 49,55 50,275
51,573 52,155 53,253 54,57
55,340 56,101 57,337 61,119
62,163 63,342 64,55 65,1613
66,9999 67,692 68,155 74,32
77,1216 78,815 79,867 80,737
81,110 89,58 91,889 92,199
93,612 94,257 95,51 103,84
104,141 107,47 122,960 123,84
##END=
