##TITLE=Propanoic acid, 2-methyl-, decyl ester
##JCAMP-DX=4.24
##DATA TYPE=MASS SPECTRUM
##ORIGIN=V.G.Zaikin, Petrochem. Synth. Inst., Moscow
##OWNER=NIST Mass Spectrometry Data Center
Collection (C) 2014 copyright by the U.S. Secretary of Commerce
on behalf of the United States of America. All rights reserved.
##CAS REGISTRY NO=5454-22-8
##$NIST MASS SPEC NO=280490
##MOLFORM=C14 H28 O2
##MW=228
##$NIST SOURCE=MSDC
##XUNITS=M/Z
##YUNITS=RELATIVE INTENSITY
##XFACTOR=1
##YFACTOR=1
##FIRSTX=26
##LASTX=228
##FIRSTY=70
##MAXX=228
##MINX=26
##MAXY=9999
##MINY=20
##NPOINTS=57
##PEAK TABLE=(XY..XY)
26,70 27,1071 28,450 29,1121
31,90 39,1221 40,290 41,4394
42,1792 43,9999 44,410 45,130
51,90 52,70 53,310 54,410
55,3193 56,2993 57,3853 58,230
59,50 66,40 67,510 68,661
69,2592 70,3353 71,6686 72,320
73,260 81,220 82,851 83,2252
84,1962 85,1391 86,160 88,390
89,8888 90,510 91,80 95,100
96,310 97,1792 98,1251 99,180
101,210 102,20 110,130 111,1021
112,1181 113,170 125,50 140,1992
141,200 157,30 185,190 186,20
228,20
##END=
