##TITLE=Propanoic acid, decyl ester
##JCAMP-DX=4.24
##DATA TYPE=MASS SPECTRUM
##ORIGIN=Insect Chem. Ecol. Lab., USDA, Beltsville, MD 20705
##OWNER=NIST Mass Spectrometry Data Center
Collection (C) 2014 copyright by the U.S. Secretary of Commerce
on behalf of the United States of America. All rights reserved.
##CAS REGISTRY NO=5454-19-3
##$NIST MASS SPEC NO=132253
##MOLFORM=C13 H26 O2
##MW=214
##$NIST SOURCE=MSDC
##XUNITS=M/Z
##YUNITS=RELATIVE INTENSITY
##XFACTOR=1
##YFACTOR=1
##FIRSTX=41
##LASTX=215
##FIRSTY=4703
##MAXX=215
##MINX=41
##MAXY=9999
##MINY=4
##NPOINTS=83
##PEAK TABLE=(XY..XY)
41,4703 42,1126 43,4499 44,187
45,66 47,47 48,10 53,324
54,561 55,3958 56,3983 57,9999
58,343 59,41 61,6 63,5
65,53 66,49 67,556 68,989
69,2850 70,3702 71,1154 72,177
73,83 74,526 75,6996 76,191
77,62 79,66 81,203 82,1212
83,2778 84,2053 85,850 87,365
88,5 89,82 91,11 93,13
94,4 95,70 96,478 97,2035
98,1003 99,137 101,96 102,19
103,16 105,5 109,19 110,186
111,1189 112,1501 113,125 115,140
116,27 121,4 123,5 125,55
126,18 127,7 128,12 129,16
130,363 131,24 135,69 138,25
140,1800 141,195 142,27 143,5
144,15 149,4 152,16 154,4
155,44 157,59 167,9 185,198
186,22 214,236 215,28
##END=
