##TITLE=3-Indolecarbonitrile
##JCAMP-DX=4.24
##DATA TYPE=MASS SPECTRUM
##ORIGIN=NIST Mass Spectrometry Data Center, 1994
##OWNER=NIST Mass Spectrometry Data Center
Collection (C) 2014 copyright by the U.S. Secretary of Commerce
on behalf of the United States of America. All rights reserved.
##CAS REGISTRY NO=5457-28-3
##$NIST MASS SPEC NO=136637
##MOLFORM=C9 H6 N2
##MW=142
##$NIST SOURCE=MSDC
##XUNITS=M/Z
##YUNITS=RELATIVE INTENSITY
##XFACTOR=1
##YFACTOR=1
##FIRSTX=17
##LASTX=144
##FIRSTY=89
##MAXX=144
##MINX=17
##MAXY=9999
##MINY=16
##NPOINTS=57
##PEAK TABLE=(XY..XY)
17,89 18,253 25,28 26,40
36,35 37,427 38,635 39,911
40,108 44,18 48,32 49,117
50,499 51,445 52,384 53,32
56,37 57,68 58,240 60,37
61,558 62,924 63,909 64,544
65,227 66,46 71,781 73,34
75,324 76,288 77,70 78,34
84,38 85,154 86,317 87,813
88,1526 89,455 90,181 91,33
92,25 98,22 99,45 100,53
101,21 110,24 111,65 112,81
113,21 114,2260 115,4773 116,439
117,24 139,16 142,9999 143,1061
144,47
##END=
