##TITLE=Butane, 1,4-bis(ethylthio)-
##JCAMP-DX=4.24
##DATA TYPE=MASS SPECTRUM
##OWNER=NIST Mass Spectrometry Data Center
Collection (C) 2014 copyright by the U.S. Secretary of Commerce
on behalf of the United States of America. All rights reserved.
##CAS REGISTRY NO=54576-32-8
##$NIST MASS SPEC NO=7309
##MOLFORM=C8 H18 S2
##MW=178
##$NIST SOURCE=MSDC
##XUNITS=M/Z
##YUNITS=RELATIVE INTENSITY
##XFACTOR=1
##YFACTOR=1
##FIRSTX=15
##LASTX=182
##FIRSTY=40
##MAXX=182
##MINX=15
##MAXY=9999
##MINY=10
##NPOINTS=79
##PEAK TABLE=(XY..XY)
15,40 16,40 26,190 27,1782
29,2502 30,60 32,160 34,150
35,751 39,420 41,971 42,70
43,80 44,601 45,2062 46,500
47,3033 48,120 49,150 53,571
54,350 55,3053 56,350 57,100
58,250 59,821 60,1862 61,1591
62,571 63,210 64,60 66,50
67,110 71,70 73,320 74,130
75,9078 76,470 77,410 79,571
81,80 82,40 83,40 85,350
86,70 87,4784 88,1942 89,941
90,140 91,50 93,130 94,40
95,30 101,330 102,30 103,130
107,651 108,30 109,60 115,70
116,130 117,811 118,70 119,70
120,100 121,2442 122,190 123,230
136,30 150,9999 151,811 152,901
153,70 154,30 178,1581 179,180
180,150 181,20 182,10
##END=
