##TITLE=Octanoic acid, 2-phenylethyl ester
##JCAMP-DX=4.24
##DATA TYPE=MASS SPECTRUM
##ORIGIN=V.G.Zaikin, TIPS RAS, Moscow, Russia
##OWNER=NIST Mass Spectrometry Data Center
Collection (C) 2014 copyright by the U.S. Secretary of Commerce
on behalf of the United States of America. All rights reserved.
##CAS REGISTRY NO=5457-70-5
##$NIST MASS SPEC NO=279496
##MOLFORM=C16 H24 O2
##MW=248
##$NIST SOURCE=MSDC
##XUNITS=M/Z
##YUNITS=RELATIVE INTENSITY
##XFACTOR=1
##YFACTOR=1
##FIRSTX=26
##LASTX=145
##FIRSTY=50
##MAXX=145
##MINX=26
##MAXY=9999
##MINY=40
##NPOINTS=53
##PEAK TABLE=(XY..XY)
26,50 27,390 28,80 29,561
39,380 40,60 41,1071 42,290
43,1091 44,410 45,60 51,230
52,60 53,80 55,711 56,190
57,2212 58,90 60,350 63,50
65,200 67,190 69,240 70,60
71,150 73,230 77,420 78,380
79,320 81,110 82,170 83,190
84,150 85,110 87,90 91,691
92,180 93,40 95,70 97,110
98,150 101,90 103,430 104,9999
105,2953 106,250 110,70 111,70
115,40 117,40 127,561 128,80
145,110
##END=
