##TITLE=4,6-Dimethyl-2-mercaptopyridine-3-carbonitrile
##JCAMP-DX=4.24
##DATA TYPE=MASS SPECTRUM
##ORIGIN=NIST Mass Spectrometry Data Center, 1994
##OWNER=NIST Mass Spectrometry Data Center
Collection (C) 2014 copyright by the U.S. Secretary of Commerce
on behalf of the United States of America. All rights reserved.
##CAS REGISTRY NO=54585-47-6
##$NIST MASS SPEC NO=136319
##MOLFORM=C8 H8 N2 S
##MW=164
##$NIST SOURCE=MSDC
##XUNITS=M/Z
##YUNITS=RELATIVE INTENSITY
##XFACTOR=1
##YFACTOR=1
##FIRSTX=26
##LASTX=166
##FIRSTY=305
##MAXX=166
##MINX=26
##MAXY=9999
##MINY=110
##NPOINTS=72
##PEAK TABLE=(XY..XY)
26,305 27,852 33,298 37,496
38,885 39,2193 40,483 41,459
42,817 44,164 45,842 49,153
50,611 51,1531 52,763 53,350
57,230 58,406 59,156 60,230
61,304 62,494 63,824 64,904
65,614 66,426 69,555 70,566
71,220 75,335 76,765 77,1415
78,1080 79,472 80,244 81,206
82,578 83,740 84,223 87,110
88,203 89,144 90,225 91,237
92,297 93,344 94,454 95,478
96,268 100,185 102,312 103,440
104,1536 105,781 106,217 107,203
108,114 109,198 119,4769 120,7164
121,726 122,532 129,333 130,288
131,968 132,251 136,496 137,239
149,366 164,9999 165,1068 166,538
##END=
