##TITLE=n-Octanoic acid isopropyl ester
##JCAMP-DX=4.24
##DATA TYPE=MASS SPECTRUM
##ORIGIN=Japan AIST/NIMC Database- Spectrum MS-NW-5206
##OWNER=NIST Mass Spectrometry Data Center
Collection (C) 2014 copyright by the U.S. Secretary of Commerce
on behalf of the United States of America. All rights reserved.
##CAS REGISTRY NO=5458-59-3
##$NIST MASS SPEC NO=232529
##MOLFORM=C11 H22 O2
##MW=186
##$NIST SOURCE=MSDC
##XUNITS=M/Z
##YUNITS=RELATIVE INTENSITY
##XFACTOR=1
##YFACTOR=1
##FIRSTX=14
##LASTX=187
##FIRSTY=10
##MAXX=187
##MINX=14
##MAXY=9999
##MINY=10
##NPOINTS=102
##PEAK TABLE=(XY..XY)
14,10 15,149 17,10 18,30
26,80 27,1809 28,309 29,1699
30,60 31,99 36,10 37,10
38,40 39,929 40,209 41,3729
42,1549 43,9999 44,349 45,369
46,10 47,10 48,10 50,20
51,40 52,20 53,159 54,139
55,1799 56,579 57,5439 58,259
59,2569 60,6529 61,1199 62,60
63,10 64,10 65,30 66,10
67,289 68,90 69,609 70,209
71,169 72,10 73,2399 74,379
75,70 77,20 78,10 79,40
80,60 81,109 82,269 83,649
84,1529 85,1129 86,70 87,989
88,80 89,389 90,30 91,10
93,10 95,20 96,50 97,349
98,349 99,40 100,30 101,1379
102,3159 103,399 104,30 105,10
107,40 108,40 109,259 110,30
111,50 113,10 115,469 116,50
117,20 124,40 125,249 126,40
127,4919 128,459 129,80 130,10
143,50 144,1769 145,3299 146,319
147,30 148,20 171,70 172,10
186,20 187,10
##END=
