##TITLE=Octanoic acid, 2-butyl ester
##JCAMP-DX=4.24
##DATA TYPE=MASS SPECTRUM
##ORIGIN=V.Zaikin,Topchiev Inst.Petrochem.Synth.,Moscow
##OWNER=NIST Mass Spectrometry Data Center
Collection (C) 2014 copyright by the U.S. Secretary of Commerce
on behalf of the United States of America. All rights reserved.
##CAS REGISTRY NO=5458-61-7
##$NIST MASS SPEC NO=282672
##MOLFORM=C12 H24 O2
##MW=200
##$NIST SOURCE=MSDC
##XUNITS=M/Z
##YUNITS=RELATIVE INTENSITY
##XFACTOR=1
##YFACTOR=1
##FIRSTX=21
##LASTX=171
##FIRSTY=10
##MAXX=171
##MINX=21
##MAXY=9999
##MINY=10
##NPOINTS=114
##PEAK TABLE=(XY..XY)
21,10 25,30 26,350 27,2062
28,751 29,3673 30,80 31,110
35,30 36,240 37,70 38,150
39,1942 40,380 41,6756 42,1311
43,2973 44,350 45,470 49,30
50,200 51,270 52,160 53,430
54,290 55,3073 56,6566 57,9999
58,410 59,200 60,3894 61,841
62,50 63,80 64,20 65,110
66,60 67,510 68,150 69,661
70,310 71,180 72,120 73,3173
74,260 75,80 76,40 77,310
78,150 79,260 80,90 81,170
82,320 83,661 84,1672 85,961
86,60 87,731 88,70 89,430
90,40 91,571 92,160 93,100
94,30 95,70 96,90 97,260
98,390 99,50 100,30 101,1091
102,100 103,250 104,60 105,100
106,20 107,40 108,20 109,300
110,30 111,50 113,20 114,10
115,721 116,591 117,310 118,160
119,40 120,20 122,30 124,90
125,160 126,30 127,7647 128,661
129,80 130,20 131,60 132,40
133,40 134,40 135,30 136,20
137,10 141,10 142,30 143,30
144,1281 145,3914 146,270 147,30
164,10 171,100
##END=
