##TITLE=Pentane, 2-cyclopropyl-
##JCAMP-DX=4.24
##DATA TYPE=MASS SPECTRUM
##ORIGIN=NIST Mass Spectrometry Data Center, 1990.
##OWNER=NIST Mass Spectrometry Data Center
Collection (C) 2014 copyright by the U.S. Secretary of Commerce
on behalf of the United States of America. All rights reserved.
##CAS REGISTRY NO=5458-16-2
##$NIST MASS SPEC NO=113439
##MOLFORM=C8 H16
##MW=112
##$NIST SOURCE=MSDC
##XUNITS=M/Z
##YUNITS=RELATIVE INTENSITY
##XFACTOR=1
##YFACTOR=1
##FIRSTX=15
##LASTX=97
##FIRSTY=182
##MAXX=97
##MINX=15
##MAXY=9999
##MINY=117
##NPOINTS=34
##PEAK TABLE=(XY..XY)
15,182 26,308 27,2408 28,744
29,1870 39,5554 40,1203 41,9758
42,2857 43,3678 44,216 50,306
51,566 52,298 53,1659 54,976
55,9121 56,9999 57,677 63,152
65,423 66,188 67,1424 69,8318
70,4483 71,1394 77,200 79,185
81,117 82,187 83,1281 84,6275
85,401 97,177
##END=
