##TITLE=n-Butyl cyanoacetate
##JCAMP-DX=4.24
##DATA TYPE=MASS SPECTRUM
##ORIGIN=Japan AIST/NIMC Database- Spectrum MS-NW- 934
##OWNER=NIST Mass Spectrometry Data Center
Collection (C) 2014 copyright by the U.S. Secretary of Commerce
on behalf of the United States of America. All rights reserved.
##CAS REGISTRY NO=5459-58-5
##$NIST MASS SPEC NO=228821
##MOLFORM=C7 H11 N O2
##MW=141
##$NIST SOURCE=MSDC
##XUNITS=M/Z
##YUNITS=RELATIVE INTENSITY
##XFACTOR=1
##YFACTOR=1
##FIRSTX=12
##LASTX=140
##FIRSTY=10
##MAXX=140
##MINX=12
##MAXY=9999
##MINY=10
##NPOINTS=67
##PEAK TABLE=(XY..XY)
12,10 13,10 14,50 15,169
16,10 17,10 18,30 25,10
26,199 27,1709 28,949 29,2689
30,70 31,569 32,40 33,30
37,30 38,139 39,1109 40,1559
41,6399 42,529 43,1649 44,409
45,189 50,40 51,50 52,20
53,99 54,179 55,1319 56,9999
57,2589 58,109 59,129 60,99
61,50 67,209 68,6129 69,249
70,50 71,269 72,50 73,99
80,50 81,80 82,299 83,50
84,10 85,40 86,1029 87,40
94,10 95,30 96,50 97,10
98,50 99,139 100,20 101,30
105,30 108,10 112,399 113,90
114,30 126,50 140,20
##END=
