##TITLE=Butyric acid, 2-bromo-, propyl ester
##JCAMP-DX=4.24
##DATA TYPE=MASS SPECTRUM
##ORIGIN=Insect Chem. Ecol. Lab., USDA, Beltsville, MD 20705
##OWNER=NIST Mass Spectrometry Data Center
Collection (C) 2014 copyright by the U.S. Secretary of Commerce
on behalf of the United States of America. All rights reserved.
##CAS REGISTRY NO=5459-97-2
##$NIST MASS SPEC NO=131993
##MOLFORM=C7 H13 Br O2
##MW=208
##$NIST SOURCE=MSDC
##XUNITS=M/Z
##YUNITS=RELATIVE INTENSITY
##XFACTOR=1
##YFACTOR=1
##FIRSTX=41
##LASTX=211
##FIRSTY=6596
##MAXX=211
##MINX=41
##MAXY=9999
##MINY=3
##NPOINTS=124
##PEAK TABLE=(XY..XY)
41,6596 42,2516 43,9999 44,422
45,316 46,14 47,4 49,9
50,12 51,20 52,4 53,61
54,46 55,1406 56,93 57,245
58,30 59,218 60,29 61,10
63,9 65,5 66,13 67,23
68,74 69,455 70,367 71,116
72,12 73,136 74,14 77,20
78,4 79,42 80,19 81,43
82,27 83,45 84,20 85,48
86,50 87,828 88,116 89,22
91,17 92,24 93,87 94,29
95,91 96,15 97,26 98,11
99,19 100,4 101,10 102,4
104,4 105,43 106,30 107,49
108,28 109,29 110,9 111,19
113,8 115,11 117,16 119,35
120,207 121,1104 122,233 123,1047
124,46 125,13 126,3 128,8
129,238 130,27 131,12 133,34
134,3 135,34 137,24 138,343
139,21 140,327 141,19 145,4
147,18 148,25 149,1003 150,74
151,976 152,55 153,27 154,5
155,3 157,5 158,4 159,3
163,4 165,11 166,48 167,3160
168,192 169,3055 170,157 171,24
175,5 177,5 178,5 179,57
180,499 181,76 182,491 183,39
184,4 193,15 195,9 196,4
207,9 208,17 210,15 211,4
##END=
