##TITLE=Ethanol, 2-(hexylamino)-
##JCAMP-DX=4.24
##DATA TYPE=MASS SPECTRUM
##ORIGIN=NIST Mass Spectrometry Data Center, 1994
##OWNER=NIST Mass Spectrometry Data Center
Collection (C) 2014 copyright by the U.S. Secretary of Commerce
on behalf of the United States of America. All rights reserved.
##CAS REGISTRY NO=54596-69-9
##$NIST MASS SPEC NO=135344
##MOLFORM=C8 H19 N O
##MW=145
##$NIST SOURCE=MSDC
##XUNITS=M/Z
##YUNITS=RELATIVE INTENSITY
##XFACTOR=1
##YFACTOR=1
##FIRSTX=14
##LASTX=145
##FIRSTY=68
##MAXX=145
##MINX=14
##MAXY=9999
##MINY=20
##NPOINTS=51
##PEAK TABLE=(XY..XY)
14,68 15,346 16,28 18,203
19,178 26,179 27,1869 28,2013
29,2536 30,4295 31,564 32,61
37,20 39,936 41,2164 42,1303
43,3959 44,9999 45,936 46,34
51,55 53,163 54,198 55,681
56,3154 57,600 58,108 60,188
61,104 62,32 67,66 68,76
69,59 70,260 71,49 72,125
73,32 74,5585 75,234 83,70
84,257 85,91 86,85 100,62
112,113 114,3760 115,307 116,38
130,25 144,62 145,177
##END=
