##TITLE=Cyclohexylamine, N-ethyl-
##JCAMP-DX=4.24
##DATA TYPE=MASS SPECTRUM
##OWNER=NIST Mass Spectrometry Data Center
Collection (C) 2014 copyright by the U.S. Secretary of Commerce
on behalf of the United States of America. All rights reserved.
##CAS REGISTRY NO=5459-93-8
##$NIST MASS SPEC NO=2590
##MOLFORM=C8 H17 N
##MW=127
##$NIST SOURCE=MSDC
##XUNITS=M/Z
##YUNITS=RELATIVE INTENSITY
##XFACTOR=1
##YFACTOR=1
##FIRSTX=37
##LASTX=129
##FIRSTY=30
##MAXX=129
##MINX=37
##MAXY=9999
##MINY=10
##NPOINTS=74
##PEAK TABLE=(XY..XY)
37,30 38,80 39,1021 40,180
41,1672 42,721 43,480 44,731
45,50 46,60 47,10 48,10
49,10 50,50 51,110 52,80
53,310 54,350 55,841 56,230
57,240 58,460 59,20 61,10
62,10 63,20 64,10 65,50
66,40 67,190 68,230 69,100
70,490 71,1421 72,90 73,10
74,10 75,10 76,10 77,70
78,30 79,80 80,50 81,130
82,240 83,190 84,9999 85,611
86,20 87,10 89,10 90,10
91,40 92,40 94,20 95,10
96,50 97,30 98,460 99,30
100,10 110,50 112,280 113,20
120,10 121,10 122,10 123,10
124,20 125,20 126,180 127,1261
128,120 129,10
##END=
