##TITLE=Acetohydroxamic acid
##JCAMP-DX=4.24
##DATA TYPE=MASS SPECTRUM
##ORIGIN=Japan AIST/NIMC Database- Spectrum MS-NW-2921
##OWNER=NIST Mass Spectrometry Data Center
Collection (C) 2014 copyright by the U.S. Secretary of Commerce
on behalf of the United States of America. All rights reserved.
##CAS REGISTRY NO=546-88-3
##$NIST MASS SPEC NO=231100
##MOLFORM=C2 H5 N O2
##MW=75
##$NIST SOURCE=MSDC
##XUNITS=M/Z
##YUNITS=RELATIVE INTENSITY
##XFACTOR=1
##YFACTOR=1
##FIRSTX=12
##LASTX=76
##FIRSTY=80
##MAXX=76
##MINX=12
##MAXY=9999
##MINY=10
##NPOINTS=42
##PEAK TABLE=(XY..XY)
12,80 13,109 14,469 15,2589
16,90 17,39 18,179 19,20
20,10 24,10 25,30 26,80
27,369 28,85 29,289 30,779
31,10 32,219 33,249 34,10
38,199 39,339 40,919 41,1949
42,939 43,9999 44,1219 45,359
46,30 47,40 54,20 55,60
56,379 57,999 58,50 59,1019
60,319 61,10 72,10 73,20
75,949 76,30
##END=
