##TITLE=m-Toluic acid, heptyl ester
##JCAMP-DX=4.24
##DATA TYPE=MASS SPECTRUM
##ORIGIN=Zaikin V.G., TIPS RAS, Moscow, Russia
##OWNER=NIST Mass Spectrometry Data Center
Collection (C) 2014 copyright by the U.S. Secretary of Commerce
on behalf of the United States of America. All rights reserved.
##CAS REGISTRY NO=5462-02-2
##$NIST MASS SPEC NO=292355
##MOLFORM=C15 H22 O2
##MW=234
##$NIST SOURCE=MSDC
##XUNITS=M/Z
##YUNITS=RELATIVE INTENSITY
##XFACTOR=1
##YFACTOR=1
##FIRSTX=26
##LASTX=235
##FIRSTY=30
##MAXX=235
##MINX=26
##MAXY=9999
##MINY=20
##NPOINTS=54
##PEAK TABLE=(XY..XY)
26,30 27,190 28,50 29,300
39,290 40,40 41,671 42,250
43,310 44,30 50,40 51,80
52,20 53,60 54,70 55,631
56,751 57,250 62,30 63,150
64,50 65,761 66,50 67,50
68,130 69,460 70,691 71,50
77,110 81,30 83,110 89,280
90,250 91,4124 92,530 93,530
94,40 97,50 98,430 99,30
105,70 118,120 119,9719 120,791
121,70 135,90 136,9999 137,9168
138,651 139,50 149,110 177,50
234,280 235,50
##END=
