##TITLE=1,2,4-Trithiolane, 3,5-diethyl-
##JCAMP-DX=4.24
##DATA TYPE=MASS SPECTRUM
##OWNER=NIST Mass Spectrometry Data Center
Collection (C) 2014 copyright by the U.S. Secretary of Commerce
on behalf of the United States of America. All rights reserved.
##CAS REGISTRY NO=54644-28-9
##$NIST MASS SPEC NO=7504
##MOLFORM=C6 H12 S3
##MW=180
##$NIST SOURCE=MSDC
##XUNITS=M/Z
##YUNITS=RELATIVE INTENSITY
##XFACTOR=1
##YFACTOR=1
##FIRSTX=41
##LASTX=183
##FIRSTY=9999
##MAXX=183
##MINX=41
##MAXY=9999
##MINY=28
##NPOINTS=50
##PEAK TABLE=(XY..XY)
41,9999 42,500 43,100 44,600
45,6599 46,2000 47,2200 48,100
49,100 55,300 57,400 58,1100
59,1800 60,100 61,100 64,900
66,100 67,100 68,100 69,500
70,100 71,700 72,300 73,2500
74,7999 75,700 76,400 77,100
78,200 81,100 85,300 87,400
88,100 91,100 97,100 99,100
101,200 106,1800 107,100 108,100
111,200 112,100 115,1000 116,1200
118,100 151,100 180,2600 181,230
182,300 183,28
##END=
