##TITLE=Hexane, 3-methoxy-
##JCAMP-DX=4.24
##DATA TYPE=MASS SPECTRUM
##ORIGIN=CARL DJERASSI DEPT OF CHEM STANFORD UNIV STANFORD CALIF 94305
##OWNER=NIST Mass Spectrometry Data Center
Collection (C) 2014 copyright by the U.S. Secretary of Commerce
on behalf of the United States of America. All rights reserved.
##CAS REGISTRY NO=54658-01-4
##$NIST MASS SPEC NO=46380
##MOLFORM=C7 H16 O
##MW=116
##$NIST SOURCE=MSDC
##XUNITS=M/Z
##YUNITS=RELATIVE INTENSITY
##XFACTOR=1
##YFACTOR=1
##FIRSTX=39
##LASTX=116
##FIRSTY=1500
##MAXX=116
##MINX=39
##MAXY=9999
##MINY=100
##NPOINTS=22
##PEAK TABLE=(XY..XY)
39,1500 40,100 41,3200 42,600
43,1800 45,9999 53,200 55,1900
56,300 57,600 58,300 59,300
69,100 71,200 72,200 73,9900
74,500 85,100 86,100 87,4900
88,300 116,100
##END=
