##TITLE=3,4-Dimethyl cyclohexanone
##JCAMP-DX=4.24
##DATA TYPE=MASS SPECTRUM
##ORIGIN=Japan AIST/NIMC Database- Spectrum MS-NW-3446
##OWNER=NIST Mass Spectrometry Data Center
Collection (C) 2014 copyright by the U.S. Secretary of Commerce
on behalf of the United States of America. All rights reserved.
##CAS REGISTRY NO=5465-09-8
##$NIST MASS SPEC NO=231878
##MOLFORM=C8 H14 O
##MW=126
##$NIST SOURCE=MSDC
##XUNITS=M/Z
##YUNITS=RELATIVE INTENSITY
##XFACTOR=1
##YFACTOR=1
##FIRSTX=14
##LASTX=128
##FIRSTY=20
##MAXX=128
##MINX=14
##MAXY=9999
##MINY=10
##NPOINTS=70
##PEAK TABLE=(XY..XY)
14,20 15,90 18,20 26,99
27,969 28,249 29,689 30,20
31,10 32,10 37,30 38,80
39,1079 40,229 41,2699 42,949
43,1779 44,70 45,10 49,10
50,80 51,129 52,60 53,339
54,159 55,2209 56,1739 57,179
58,40 61,10 62,20 63,30
65,60 66,30 67,379 68,189
69,9999 70,1529 71,789 72,50
77,70 78,20 79,60 80,20
81,109 82,569 83,439 84,579
85,40 91,60 92,10 93,389
94,30 95,80 96,20 97,119
98,489 99,30 105,10 106,10
107,20 108,379 109,50 110,50
111,409 112,30 125,20 126,2179
127,209 128,10
##END=
