##TITLE=2-Propenoic acid, 3-(4-methoxyphenyl)-, 2-ethylhexyl ester
##JCAMP-DX=4.24
##DATA TYPE=MASS SPECTRUM
##ORIGIN=NIST Mass Spectrometry Data Center, 1998.
##OWNER=NIST Mass Spectrometry Data Center
Collection (C) 2014 copyright by the U.S. Secretary of Commerce
on behalf of the United States of America. All rights reserved.
##CAS REGISTRY NO=5466-77-3
##$NIST MASS SPEC NO=291525
##MOLFORM=C18 H26 O3
##MW=290
##$NIST SOURCE=MSDC
##XUNITS=M/Z
##YUNITS=RELATIVE INTENSITY
##XFACTOR=1
##YFACTOR=1
##FIRSTX=15
##LASTX=292
##FIRSTY=10
##MAXX=292
##MINX=15
##MAXY=9999
##MINY=10
##NPOINTS=120
##PEAK TABLE=(XY..XY)
15,10 26,10 27,160 29,350
30,10 31,10 38,20 39,190
40,20 41,840 42,110 43,530
44,30 45,10 50,50 51,100
52,30 53,100 54,30 55,610
56,170 57,580 58,30 62,40
63,220 64,160 65,90 66,20
67,40 68,30 69,240 70,330
71,90 72,10 74,20 75,60
76,100 77,590 78,70 79,300
80,30 81,30 82,20 83,140
84,60 85,10 87,10 88,10
89,540 90,590 91,180 92,230
93,20 94,10 95,10 97,20
98,10 101,90 102,270 103,380
104,50 105,50 106,10 107,50
108,40 109,30 110,20 111,10
112,30 115,30 116,20 117,160
118,740 119,190 120,20 121,570
122,60 123,10 124,10 127,10
128,10 129,10 130,30 131,100
132,350 133,1690 134,1660 135,230
136,50 137,100 138,10 141,10
144,10 145,40 146,80 147,160
148,40 149,30 150,50 151,10
158,10 159,20 161,6039 162,720
163,140 164,20 173,10 174,10
175,20 177,570 178,9999 179,1410
180,200 181,20 191,40 192,30
262,10 290,710 291,150 292,20
##END=
