##TITLE=1,3-Isobenzofurandione, 5-nitro-
##JCAMP-DX=4.24
##DATA TYPE=MASS SPECTRUM
##ORIGIN=NIST Mass Spectrometry Data Center, 1994
##OWNER=NIST Mass Spectrometry Data Center
Collection (C) 2014 copyright by the U.S. Secretary of Commerce
on behalf of the United States of America. All rights reserved.
##CAS REGISTRY NO=5466-84-2
##$NIST MASS SPEC NO=135613
##MOLFORM=C8 H3 N O5
##MW=193
##$NIST SOURCE=MSDC
##XUNITS=M/Z
##YUNITS=RELATIVE INTENSITY
##XFACTOR=1
##YFACTOR=1
##FIRSTX=12
##LASTX=194
##FIRSTY=47
##MAXX=194
##MINX=12
##MAXY=9999
##MINY=8
##NPOINTS=61
##PEAK TABLE=(XY..XY)
12,47 16,114 17,27 18,26
24,17 25,68 26,57 28,261
30,1373 32,8 36,159 37,1073
38,632 39,103 40,17 41,17
44,128 46,415 48,84 49,425
50,446 51,118 52,65 53,388
54,19 60,120 61,476 62,555
63,490 64,82 65,55 73,1176
74,5537 75,9919 76,680 77,145
78,18 84,16 85,26 86,39
87,62 88,50 89,44 90,32
91,108 92,16 101,94 103,6260
104,464 105,41 119,63 120,17
133,18 147,57 149,9999 150,838
151,92 163,31 177,69 193,503
194,57
##END=
