##TITLE=.alpha.-Cyano-3-hydroxycinnamic acid
##JCAMP-DX=4.24
##DATA TYPE=MASS SPECTRUM
##ORIGIN=Japan AIST/NIMC Database- Spectrum MS-IW- 195
##OWNER=NIST Mass Spectrometry Data Center
Collection (C) 2014 copyright by the U.S. Secretary of Commerce
on behalf of the United States of America. All rights reserved.
##CAS REGISTRY NO=54673-07-3
##$NIST MASS SPEC NO=237939
##MOLFORM=C10 H7 N O3
##MW=189
##$NIST SOURCE=MSDC
##XUNITS=M/Z
##YUNITS=RELATIVE INTENSITY
##XFACTOR=1
##YFACTOR=1
##FIRSTX=15
##LASTX=192
##FIRSTY=10
##MAXX=192
##MINX=15
##MAXY=9999
##MINY=10
##NPOINTS=124
##PEAK TABLE=(XY..XY)
15,10 16,30 17,60 18,369
22,10 26,40 27,129 28,239
29,60 31,30 32,10 37,90
38,239 39,979 40,99 41,50
42,30 43,60 44,1459 45,179
46,10 49,40 50,299 51,419
52,249 53,219 54,30 55,129
56,10 57,109 58,129 59,50
60,10 61,129 62,379 63,839
64,389 65,559 66,219 67,50
68,50 69,10 71,40 72,90
73,30 74,129 75,199 76,229
77,419 78,319 79,80 80,30
81,40 82,30 85,20 86,70
87,129 88,349 89,1999 90,1669
91,389 92,249 93,90 94,239
95,319 96,20 98,20 99,70
100,80 101,80 102,50 103,30
104,329 105,529 106,129 107,90
108,30 109,10 110,229 111,20
112,10 114,229 115,589 116,1319
117,2809 118,1579 119,229 120,70
121,60 122,70 123,309 124,20
126,70 127,40 128,99 129,10
130,10 131,10 132,179 133,259
134,309 135,30 142,30 143,959
144,1059 145,6789 146,769 147,90
154,10 160,129 161,169 162,139
163,40 170,20 171,90 172,1919
173,219 174,20 187,10 188,2979
189,9999 190,1149 191,129 192,10
##END=
