##TITLE=Benzamide, N,N'-1,4-phenylenebis-
##JCAMP-DX=4.24
##DATA TYPE=MASS SPECTRUM
##ORIGIN=Japan AIST/NIMC Database- Spectrum MS-IW-4400
##OWNER=NIST Mass Spectrometry Data Center
Collection (C) 2014 copyright by the U.S. Secretary of Commerce
on behalf of the United States of America. All rights reserved.
##CAS REGISTRY NO=5467-04-9
##$NIST MASS SPEC NO=244405
##MOLFORM=C20 H16 N2 O2
##MW=316
##$NIST SOURCE=MSDC
##XUNITS=M/Z
##YUNITS=RELATIVE INTENSITY
##XFACTOR=1
##YFACTOR=1
##FIRSTX=26
##LASTX=318
##FIRSTY=10
##MAXX=318
##MINX=26
##MAXY=9999
##MINY=10
##NPOINTS=54
##PEAK TABLE=(XY..XY)
26,10 27,40 28,30 38,10
39,40 41,20 43,20 44,10
50,99 51,409 52,60 53,30
55,10 57,30 63,20 64,10
65,10 69,10 71,10 74,20
75,40 76,219 77,3459 78,279
79,20 80,10 81,10 83,10
85,10 91,10 93,10 97,10
102,10 103,399 104,60 105,9999
106,809 107,60 109,10 110,30
111,10 139,10 181,10 194,10
195,10 209,10 211,30 212,20
213,309 214,40 315,30 316,3609
317,819 318,99
##END=
