##TITLE=2-Trifluoromethyl-N,N-dimethyl-4-nitroaniline
##JCAMP-DX=4.24
##DATA TYPE=MASS SPECTRUM
##ORIGIN=NIST Mass Spectrometry Data Center, 1994
##OWNER=NIST Mass Spectrometry Data Center
Collection (C) 2014 copyright by the U.S. Secretary of Commerce
on behalf of the United States of America. All rights reserved.
##CAS REGISTRY NO=54672-09-2
##$NIST MASS SPEC NO=135763
##MOLFORM=C9 H9 F3 N2 O2
##MW=234
##$NIST SOURCE=MSDC
##XUNITS=M/Z
##YUNITS=RELATIVE INTENSITY
##XFACTOR=1
##YFACTOR=1
##FIRSTX=12
##LASTX=236
##FIRSTY=26
##MAXX=236
##MINX=12
##MAXY=9999
##MINY=21
##NPOINTS=165
##PEAK TABLE=(XY..XY)
12,26 13,29 14,103 15,1944
16,44 17,30 18,186 20,29
26,24 27,55 28,613 29,24
30,2456 32,28 33,127 37,121
38,250 39,407 40,182 41,333
42,3519 43,514 44,451 45,28
46,719 50,585 51,693 52,324
53,120 54,70 55,53 56,77
57,258 60,140 61,172 62,388
63,766 64,242 65,289 66,417
67,119 68,320 69,785 70,75
71,24 73,62 74,494 75,1318
76,437 77,514 78,289 79,124
80,114 81,418 82,139 83,156
84,57 85,64 86,68 87,138
88,328 89,169 90,182 91,448
92,327 93,275 94,310 95,392
96,252 97,82 98,57 99,361
100,144 101,275 102,201 103,176
104,606 105,99 106,310 107,352
108,273 109,504 110,100 111,62
112,114 113,270 114,136 115,235
116,101 117,579 118,1477 119,999
120,246 121,126 122,126 123,153
124,62 125,783 126,605 127,1354
128,185 129,48 130,41 131,235
132,283 133,324 134,174 135,242
136,419 137,270 138,822 139,224
140,163 141,183 142,81 143,304
144,383 145,755 146,173 147,181
148,217 149,56 150,64 151,46
152,378 153,486 154,397 155,179
156,86 158,223 159,125 160,234
161,133 164,21 165,207 166,239
167,125 168,222 169,307 170,83
171,138 172,519 173,343 174,127
175,267 176,266 177,32 184,68
187,6570 188,1410 189,122 199,69
202,27 204,934 205,80 215,700
216,100 217,89 218,215 219,21
231,190 233,9999 234,8272 235,818
236,38
##END=
