##TITLE=Cyclohexane, 2-butyl-1,1,3-trimethyl-
##JCAMP-DX=4.24
##DATA TYPE=MASS SPECTRUM
##ORIGIN=MASS SPECTRA OF ORGANIC COMPOUNDS, CSIRO, B.H. KENNETT ET AL
##OWNER=NIST Mass Spectrometry Data Center
Collection (C) 2014 copyright by the U.S. Secretary of Commerce
on behalf of the United States of America. All rights reserved.
##CAS REGISTRY NO=54676-39-0
##$NIST MASS SPEC NO=69753
##MOLFORM=C13 H26
##MW=182
##$NIST SOURCE=MSDC
##XUNITS=M/Z
##YUNITS=RELATIVE INTENSITY
##XFACTOR=1
##YFACTOR=1
##FIRSTX=29
##LASTX=183
##FIRSTY=3300
##MAXX=183
##MINX=29
##MAXY=9999
##MINY=100
##NPOINTS=53
##PEAK TABLE=(XY..XY)
29,3300 30,100 39,1400 41,7200
42,1000 43,4200 45,100 51,100
52,100 53,900 54,450 55,7900
56,7600 57,6000 58,300 65,200
66,100 67,1100 68,800 69,9999
70,5200 71,1700 72,100 75,100
77,200 79,200 81,800 82,500
83,3600 84,1500 85,700 91,100
93,100 95,500 96,600 97,2600
98,1100 99,200 109,200 110,200
111,1600 112,1700 113,300 124,100
125,700 126,1300 127,300 139,100
140,100 167,1000 168,200 182,1600
183,200
##END=
