##TITLE=2(3H)-Furanone, dihydro-4-hydroxy-
##JCAMP-DX=4.24
##DATA TYPE=MASS SPECTRUM
##ORIGIN=NIST Mass Spectrometry Data Center
##OWNER=NIST Mass Spectrometry Data Center
Collection (C) 2014 copyright by the U.S. Secretary of Commerce
on behalf of the United States of America. All rights reserved.
##CAS REGISTRY NO=5469-16-9
##$NIST MASS SPEC NO=413456
##MOLFORM=C4 H6 O3
##MW=102
##$NIST SOURCE=MSDC
##XUNITS=M/Z
##YUNITS=RELATIVE INTENSITY
##XFACTOR=1
##YFACTOR=1
##FIRSTX=18
##LASTX=103
##FIRSTY=20
##MAXX=103
##MINX=18
##MAXY=9999
##MINY=20
##NPOINTS=31
##PEAK TABLE=(XY..XY)
18,20 25,30 26,150 27,270
28,290 29,1201 31,530 36,40
37,110 38,110 39,280 40,140
41,360 42,791 43,5055 44,9999
45,550 46,50 49,20 50,30
52,40 55,611 56,150 57,871
58,160 63,20 69,130 74,2953
75,70 102,1531 103,120
##END=
