##TITLE=Ethanone, 1-[4-(phenylmethoxy)phenyl]-
##JCAMP-DX=4.24
##DATA TYPE=MASS SPECTRUM
##ORIGIN=NIST Mass Spectrometry Data Center, 1994
##OWNER=NIST Mass Spectrometry Data Center
Collection (C) 2014 copyright by the U.S. Secretary of Commerce
on behalf of the United States of America. All rights reserved.
##CAS REGISTRY NO=54696-05-8
##$NIST MASS SPEC NO=133926
##MOLFORM=C15 H14 O2
##MW=226
##$NIST SOURCE=MSDC
##XUNITS=M/Z
##YUNITS=RELATIVE INTENSITY
##XFACTOR=1
##YFACTOR=1
##FIRSTX=14
##LASTX=228
##FIRSTY=16
##MAXX=228
##MINX=14
##MAXY=9999
##MINY=3
##NPOINTS=54
##PEAK TABLE=(XY..XY)
14,16 15,102 18,3 26,23
27,76 28,5 29,23 37,32
38,168 39,601 40,47 41,149
42,64 43,553 44,8 50,223
51,340 52,112 53,58 61,24
62,140 63,504 64,353 65,1474
66,108 74,47 75,52 76,116
77,271 78,67 79,82 86,8
87,11 89,220 91,9999 92,1038
93,58 94,5 104,16 105,32
107,79 120,113 121,24 135,14
151,9 152,21 153,16 154,6
165,7 183,13 211,13 226,478
227,84 228,8
##END=
