##TITLE=Epiestriol
##JCAMP-DX=4.24
##DATA TYPE=MASS SPECTRUM
##ORIGIN=H. Fales, LC, NHLBI, NIH, Bethesda, MD 20892
##OWNER=NIST Mass Spectrometry Data Center
Collection (C) 2014 copyright by the U.S. Secretary of Commerce
on behalf of the United States of America. All rights reserved.
##CAS REGISTRY NO=547-81-9
##$NIST MASS SPEC NO=117059
##MOLFORM=C18 H24 O3
##MW=288
##$NIST SOURCE=MSDC
##XUNITS=M/Z
##YUNITS=RELATIVE INTENSITY
##XFACTOR=1
##YFACTOR=1
##FIRSTX=41
##LASTX=291
##FIRSTY=319
##MAXX=291
##MINX=41
##MAXY=9999
##MINY=5
##NPOINTS=231
##PEAK TABLE=(XY..XY)
41,319 42,71 43,385 44,317
45,124 46,12 47,22 50,6
51,54 52,25 53,141 54,28
55,389 56,70 57,178 58,27
59,9 60,154 61,23 62,6
63,26 64,13 65,105 66,32
67,151 68,43 69,135 70,32
71,121 72,18 73,53 74,17
75,9 76,26 77,272 78,109
79,225 80,37 81,210 82,51
83,106 84,55 85,56 86,22
87,31 88,8 89,49 90,22
91,332 92,80 93,124 94,51
95,225 96,53 97,104 98,39
99,57 100,18 101,22 102,36
103,134 104,49 105,226 106,78
107,460 108,140 109,115 110,184
111,62 112,27 113,33 114,27
115,424 116,140 117,150 118,34
119,86 120,207 121,250 122,48
123,56 124,45 125,52 126,42
127,285 128,216 129,167 130,38
131,468 132,227 133,986 134,191
135,90 136,30 137,20 138,5
139,51 140,9 141,189 142,51
143,63 144,443 145,881 146,1296
147,682 148,93 149,61 150,25
151,29 152,81 153,91 154,32
155,61 156,21 157,733 158,659
159,1371 160,1740 161,630 162,98
163,63 164,8 165,97 166,29
167,59 168,29 169,77 170,151
171,322 172,868 173,404 174,103
175,67 176,29 177,19 178,35
179,46 180,11 181,86 182,60
183,184 184,194 185,469 186,256
187,89 188,55 189,22 190,8
191,8 192,6 193,18 194,24
195,91 196,62 197,230 198,140
199,352 200,141 201,780 202,473
203,101 204,14 205,10 207,9
208,10 209,75 210,42 211,345
212,156 213,1593 214,673 215,158
216,164 217,37 218,8 219,16
221,7 222,9 223,64 224,44
225,118 226,108 227,186 228,90
229,31 230,12 231,32 232,7
233,5 235,13 236,7 237,89
238,20 239,72 240,12 241,122
242,111 243,130 244,41 245,68
246,9 249,6 251,69 252,57
253,29 254,8 255,68 256,13
257,27 258,11 259,10 260,89
261,13 262,14 264,7 268,5
269,42 270,72 271,25 272,108
273,33 274,6 283,7 284,7
285,29 286,128 287,116 288,9999
289,2393 290,308 291,33
##END=
