##TITLE=2(3H)-Furanone, dihydro-3-methylene-
##JCAMP-DX=4.24
##DATA TYPE=MASS SPECTRUM
##ORIGIN=Chuck Anderson, Aldrich Chemical Co.
##OWNER=NIST Mass Spectrometry Data Center
Collection (C) 2014 copyright by the U.S. Secretary of Commerce
on behalf of the United States of America. All rights reserved.
##CAS REGISTRY NO=547-65-9
##$NIST MASS SPEC NO=107429
##MOLFORM=C5 H6 O2
##MW=98
##$NIST SOURCE=MSDC
##XUNITS=M/Z
##YUNITS=RELATIVE INTENSITY
##XFACTOR=1
##YFACTOR=1
##FIRSTX=12
##LASTX=99
##FIRSTY=14
##MAXX=99
##MINX=12
##MAXY=9999
##MINY=3
##NPOINTS=45
##PEAK TABLE=(XY..XY)
12,14 13,26 14,79 15,128
16,12 18,3 19,13 24,30
25,230 26,1204 27,1948 28,1835
29,1080 30,111 31,116 32,5
33,17 34,66 36,77 37,557
38,878 39,4954 40,5765 41,1576
42,177 43,42 44,92 45,80
48,30 49,159 50,537 51,441
52,216 53,1328 54,365 66,19
67,26 68,9999 69,1193 70,73
71,39 96,7 97,264 98,8557
99,495
##END=
