##TITLE=Bicyclo[3.1.1]heptan-3-ol, 6,6-dimethyl-2-methylene-, [1S-(1.alpha.,3.alpha.,5.alpha.)]-
##JCAMP-DX=4.24
##DATA TYPE=MASS SPECTRUM
##OWNER=NIST Mass Spectrometry Data Center
Collection (C) 2014 copyright by the U.S. Secretary of Commerce
on behalf of the United States of America. All rights reserved.
##CAS REGISTRY NO=547-61-5
##$NIST MASS SPEC NO=4853
##MOLFORM=C10 H16 O
##MW=152
##$NIST SOURCE=MSDC
##XUNITS=M/Z
##YUNITS=RELATIVE INTENSITY
##XFACTOR=1
##YFACTOR=1
##FIRSTX=15
##LASTX=152
##FIRSTY=120
##MAXX=152
##MINX=15
##MAXY=9999
##MINY=60
##NPOINTS=81
##PEAK TABLE=(XY..XY)
15,120 26,170 27,2923 28,270
29,2382 30,70 31,370 37,80
38,190 39,3823 40,661 41,8728
42,1281 43,4004 44,170 45,130
50,260 51,951 52,440 53,2702
54,601 55,9118 56,751 57,350
58,100 59,350 60,80 61,60
62,90 63,350 64,130 65,1151
66,510 67,1952 68,420 69,5305
70,9108 71,661 72,60 75,90
77,1882 78,621 79,2282 80,400
81,4004 82,711 83,8388 84,1041
85,110 89,110 90,260 91,6366
92,9999 93,2752 94,510 95,1842
96,661 97,180 103,160 104,110
105,991 106,591 107,420 108,400
109,3103 110,621 111,791 112,60
115,130 117,220 118,60 119,2622
120,270 121,150 123,160 124,120
133,100 134,3283 135,440 137,270
152,80
##END=
