##TITLE=Methyl isobutyrate
##JCAMP-DX=4.24
##DATA TYPE=MASS SPECTRUM
##ORIGIN=Japan AIST/NIMC Database- Spectrum MS-NW- 10
##OWNER=NIST Mass Spectrometry Data Center
Collection (C) 2014 copyright by the U.S. Secretary of Commerce
on behalf of the United States of America. All rights reserved.
##CAS REGISTRY NO=547-63-7
##$NIST MASS SPEC NO=228239
##MOLFORM=C5 H10 O2
##MW=102
##$NIST SOURCE=MSDC
##XUNITS=M/Z
##YUNITS=RELATIVE INTENSITY
##XFACTOR=1
##YFACTOR=1
##FIRSTX=14
##LASTX=103
##FIRSTY=40
##MAXX=103
##MINX=14
##MAXY=9999
##MINY=10
##NPOINTS=41
##PEAK TABLE=(XY..XY)
14,40 15,1219 17,10 18,224
26,179 27,1609 28,269 29,189
30,40 31,189 32,20 33,139
37,50 38,109 39,859 40,169
41,2999 42,1349 43,9999 44,349
45,139 53,30 55,579 56,50
57,80 59,2309 60,99 61,479
69,90 70,119 71,4199 72,209
73,60 74,509 75,20 77,20
87,2229 88,99 101,90 102,1629
103,109
##END=
