##TITLE=2-Butanone, 4-(4-hydroxyphenyl)-
##JCAMP-DX=4.24
##DATA TYPE=MASS SPECTRUM
##ORIGIN=NIST Mass Spectrometry Data Center, 1990.
##OWNER=NIST Mass Spectrometry Data Center
Collection (C) 2014 copyright by the U.S. Secretary of Commerce
on behalf of the United States of America. All rights reserved.
##CAS REGISTRY NO=5471-51-2
##$NIST MASS SPEC NO=113045
##MOLFORM=C10 H12 O2
##MW=164
##$NIST SOURCE=MSDC
##XUNITS=M/Z
##YUNITS=RELATIVE INTENSITY
##XFACTOR=1
##YFACTOR=1
##FIRSTX=14
##LASTX=165
##FIRSTY=310
##MAXX=165
##MINX=14
##MAXY=9999
##MINY=135
##NPOINTS=36
##PEAK TABLE=(XY..XY)
14,310 15,478 27,678 28,135
39,1116 40,251 41,241 43,4084
50,361 51,864 52,337 53,507
55,669 62,229 63,491 64,184
65,934 66,246 77,2517 78,452
79,279 89,192 91,1188 93,434
94,1619 95,181 103,669 107,9999
108,749 119,278 120,378 121,1248
131,307 149,565 164,2995 165,327
##END=
