##TITLE=5,6-Dihydro-2,4,6-triethyl-4H-1,3,5-dithiazine
##JCAMP-DX=4.24
##DATA TYPE=MASS SPECTRUM
##ORIGIN=T. KAWAI, SHIONO KORYO KAISHA LTD., NIITAKAKITA, OSAKA, JAPAN
##OWNER=NIST Mass Spectrometry Data Center
Collection (C) 2014 copyright by the U.S. Secretary of Commerce
on behalf of the United States of America. All rights reserved.
##CAS REGISTRY NO=54717-17-8
##$NIST MASS SPEC NO=104155
##MOLFORM=C9 H19 N S2
##MW=205
##$NIST SOURCE=MSDC
##XUNITS=M/Z
##YUNITS=RELATIVE INTENSITY
##XFACTOR=1
##YFACTOR=1
##FIRSTX=39
##LASTX=207
##FIRSTY=200
##MAXX=207
##MINX=39
##MAXY=9999
##MINY=200
##NPOINTS=18
##PEAK TABLE=(XY..XY)
39,200 41,1600 43,200 45,300
56,300 58,9999 59,200 68,200
70,500 73,500 74,1400 75,300
84,1300 98,2900 99,1600 131,800
205,1200 207,300
##END=
