##TITLE=Propanoic acid, 2-[[(1-methylethylidene)amino]oxy]-, ethyl ester
##JCAMP-DX=4.24
##DATA TYPE=MASS SPECTRUM
##ORIGIN=Div. of Experiment Therapeutics WRAIR, WRAMC, Washington DC 20307
##OWNER=NIST Mass Spectrometry Data Center
Collection (C) 2014 copyright by the U.S. Secretary of Commerce
on behalf of the United States of America. All rights reserved.
##CAS REGISTRY NO=54716-29-9
##$NIST MASS SPEC NO=212111
##MOLFORM=C8 H15 N O3
##MW=173
##$NIST SOURCE=MSDC
##XUNITS=M/Z
##YUNITS=RELATIVE INTENSITY
##XFACTOR=1
##YFACTOR=1
##FIRSTX=41
##LASTX=174
##FIRSTY=371
##MAXX=174
##MINX=41
##MAXY=9999
##MINY=9
##NPOINTS=89
##PEAK TABLE=(XY..XY)
41,371 42,2205 43,958 44,265
45,769 46,24 47,10 49,22
50,23 51,59 52,71 53,58
54,339 55,567 56,9999 57,1100
58,611 59,105 60,41 61,44
63,12 65,27 67,46 68,38
69,101 70,73 71,61 72,112
73,318 74,69 75,27 77,78
78,161 79,53 81,27 82,62
83,85 84,86 85,374 86,206
87,100 88,35 89,64 91,104
92,48 93,9 95,36 96,28
97,65 98,120 100,2544 101,185
103,545 104,41 105,41 106,74
109,9 110,24 111,54 112,35
113,41 114,48 115,57 116,98
117,29 121,28 124,88 125,29
126,31 127,27 128,112 129,52
130,60 131,96 132,29 141,43
142,30 143,26 144,48 145,91
146,24 154,10 156,40 158,94
159,10 171,31 172,47 173,1048
174,99
##END=
