##TITLE=Cyclopentanecarboxylic acid, phenyl ester
##JCAMP-DX=4.24
##DATA TYPE=MASS SPECTRUM
##ORIGIN=Zaikin V.G., TIPS RAS, Moscow, Russia
##OWNER=NIST Mass Spectrometry Data Center
Collection (C) 2014 copyright by the U.S. Secretary of Commerce
on behalf of the United States of America. All rights reserved.
##CAS REGISTRY NO=54758-32-6
##$NIST MASS SPEC NO=299077
##MOLFORM=C12 H14 O2
##MW=190
##$NIST SOURCE=MSDC
##XUNITS=M/Z
##YUNITS=RELATIVE INTENSITY
##XFACTOR=1
##YFACTOR=1
##FIRSTX=26
##LASTX=191
##FIRSTY=70
##MAXX=191
##MINX=26
##MAXY=9999
##MINY=10
##NPOINTS=33
##PEAK TABLE=(XY..XY)
26,70 27,270 28,10 29,40
36,50 38,60 39,781 40,210
41,1682 42,100 50,50 51,200
53,120 55,571 63,90 64,40
65,571 66,370 67,531 68,350
69,9999 70,480 77,390 78,30
93,90 94,2993 95,340 96,1211
97,3904 98,250 149,70 190,561
191,90
##END=
