##TITLE=Propanoic acid, 2,3-dichloro-, 1-methylethyl ester
##JCAMP-DX=4.24
##DATA TYPE=MASS SPECTRUM
##OWNER=NIST Mass Spectrometry Data Center
Collection (C) 2014 copyright by the U.S. Secretary of Commerce
on behalf of the United States of America. All rights reserved.
##CAS REGISTRY NO=54774-99-1
##$NIST MASS SPEC NO=7849
##MOLFORM=C6 H10 Cl2 O2
##MW=184
##$NIST SOURCE=MSDC
##XUNITS=M/Z
##YUNITS=RELATIVE INTENSITY
##XFACTOR=1
##YFACTOR=1
##FIRSTX=14
##LASTX=187
##FIRSTY=30
##MAXX=187
##MINX=14
##MAXY=9999
##MINY=10
##NPOINTS=121
##PEAK TABLE=(XY..XY)
14,30 15,190 17,20 18,70
19,30 26,20 27,240 28,1621
29,170 30,140 32,100 33,20
35,10 36,30 37,20 38,50
39,440 40,100 41,2112 42,1471
43,9999 44,380 45,1221 46,30
47,20 48,30 49,60 50,10
51,20 53,50 54,30 55,440
56,30 57,20 58,30 59,721
60,110 61,741 62,811 63,410
64,260 65,70 67,40 68,20
69,30 71,290 72,20 73,390
74,40 75,20 76,110 77,180
78,60 79,70 83,60 85,40
87,40 88,10 89,841 90,60
91,380 92,30 93,50 95,50
96,50 97,2392 98,90 99,1521
100,50 101,250 102,10 103,10
104,10 105,40 106,100 107,571
108,80 109,230 110,20 111,40
113,40 115,40 116,10 117,90
120,10 123,180 124,20 125,3663
126,130 127,2282 128,90 129,380
130,20 131,50 133,550 134,40
135,210 136,10 137,10 139,10
140,40 141,90 142,340 143,821
144,230 145,500 146,50 147,130
148,10 149,40 151,10 167,10
168,10 169,860 170,50 171,550
172,30 182,20 184,20 186,10
187,10
##END=
