##TITLE=Cyclopropanecarboxylic acid, 3-(2,2-dichlorovinyl)-2,2-dimethyl-, (3-phenoxyphenyl)methyl ester, (1R-cis)-
##JCAMP-DX=4.24
##DATA TYPE=MASS SPECTRUM
##ORIGIN=NIST Mass Spectrometry Data Center, 1998.
##OWNER=NIST Mass Spectrometry Data Center
Collection (C) 2014 copyright by the U.S. Secretary of Commerce
on behalf of the United States of America. All rights reserved.
##CAS REGISTRY NO=54774-45-7
##$NIST MASS SPEC NO=291849
##MOLFORM=C21 H20 Cl2 O3
##MW=390
##$NIST SOURCE=MSDC
##XUNITS=M/Z
##YUNITS=RELATIVE INTENSITY
##XFACTOR=1
##YFACTOR=1
##FIRSTX=26
##LASTX=394
##FIRSTY=10
##MAXX=394
##MINX=26
##MAXY=9999
##MINY=10
##NPOINTS=202
##PEAK TABLE=(XY..XY)
26,10 27,110 28,10 29,60
36,10 37,10 38,40 39,390
40,60 41,300 42,30 43,160
44,20 45,10 47,10 49,20
50,140 51,680 52,120 53,150
54,20 55,200 56,10 59,10
60,10 61,20 62,40 63,280
64,140 65,420 66,60 67,70
68,20 69,20 70,10 72,10
73,150 74,40 75,160 76,110
77,1310 78,320 79,150 80,40
81,30 82,20 83,150 84,20
85,120 86,20 87,130 88,20
89,800 90,460 91,1230 92,180
93,170 94,60 95,30 96,20
97,20 98,10 99,90 100,30
101,60 102,30 103,40 104,10
105,40 106,20 107,70 109,210
110,10 111,190 112,50 113,120
114,40 115,580 116,90 117,10
118,10 119,10 120,10 121,70
122,10 123,80 124,10 125,120
126,40 127,950 128,520 129,560
130,80 131,40 133,10 135,10
137,40 138,10 139,120 140,50
141,210 142,40 143,20 144,40
145,10 147,10 148,10 149,70
150,20 151,90 152,280 153,670
154,380 155,400 156,60 157,40
158,10 159,10 161,10 163,2270
164,220 165,2010 166,210 167,260
168,710 169,150 170,20 171,40
172,10 173,10 176,10 177,20
179,10 181,480 182,390 183,9999
184,1630 185,150 186,10 187,10
189,10 191,50 192,10 193,30
194,10 195,10 197,40 198,20
199,20 200,20 207,10 209,10
217,10 218,90 219,20 220,30
221,10 223,40 224,10 235,10
242,10 254,20 255,160 256,30
257,60 258,10 261,10 263,10
265,20 266,10 273,20 274,10
275,10 288,10 289,10 290,40
291,30 292,20 293,10 294,10
307,10 309,10 310,10 311,70
312,20 313,20 318,10 319,30
320,10 339,20 341,10 354,40
355,20 356,20 357,10 375,10
377,10 390,60 391,10 392,40
393,10 394,10
##END=
