##TITLE=Benzene, 1-(1-chloroethyl)-4-(chloromethyl)-
##JCAMP-DX=4.24
##DATA TYPE=MASS SPECTRUM
##OWNER=NIST Mass Spectrometry Data Center
Collection (C) 2014 copyright by the U.S. Secretary of Commerce
on behalf of the United States of America. All rights reserved.
##CAS REGISTRY NO=54789-30-9
##$NIST MASS SPEC NO=8122
##MOLFORM=C9 H10 Cl2
##MW=188
##$NIST SOURCE=MSDC
##XUNITS=M/Z
##YUNITS=RELATIVE INTENSITY
##XFACTOR=1
##YFACTOR=1
##FIRSTX=97
##LASTX=193
##FIRSTY=20
##MAXX=193
##MINX=97
##MAXY=9999
##MINY=10
##NPOINTS=54
##PEAK TABLE=(XY..XY)
97,20 98,20 99,60 101,110
102,230 103,500 104,320 105,80
111,20 112,20 113,30 114,40
115,1311 116,330 117,4304 118,1271
119,130 125,240 126,30 127,80
131,20 133,40 135,40 136,20
137,70 138,410 139,40 140,190
141,220 142,30 148,20 149,40
150,20 151,180 152,390 153,9999
154,1121 155,3243 156,320 157,30
172,30 173,300 174,50 175,200
176,20 177,30 186,10 187,330
188,1571 189,370 190,1001 191,140
192,160 193,20
##END=
