##TITLE=Benzeneacetic acid, 1-methyl-2-propynyl ester
##JCAMP-DX=4.24
##DATA TYPE=MASS SPECTRUM
##ORIGIN=Zaikin V.G., TIPS RAS, Moscow, Russia
##OWNER=NIST Mass Spectrometry Data Center
Collection (C) 2014 copyright by the U.S. Secretary of Commerce
on behalf of the United States of America. All rights reserved.
##CAS REGISTRY NO=54789-24-1
##$NIST MASS SPEC NO=292530
##MOLFORM=C12 H12 O2
##MW=188
##$NIST SOURCE=MSDC
##XUNITS=M/Z
##YUNITS=RELATIVE INTENSITY
##XFACTOR=1
##YFACTOR=1
##FIRSTX=26
##LASTX=189
##FIRSTY=40
##MAXX=189
##MINX=26
##MAXY=9999
##MINY=30
##NPOINTS=36
##PEAK TABLE=(XY..XY)
26,40 27,300 28,30 36,60
38,50 39,310 41,100 43,30
44,90 45,30 50,140 51,280
52,150 53,1141 54,50 62,50
63,200 64,60 65,761 66,40
77,60 79,50 89,250 90,200
91,9999 92,861 93,30 118,170
119,180 128,40 129,110 136,320
137,30 143,40 188,1391 189,180
##END=
