##TITLE=5H-Tribenzo[a,f,k]trindene, 10,15-dihydro-
##JCAMP-DX=4.24
##DATA TYPE=MASS SPECTRUM
##ORIGIN=Pu Leung, NIH, Bethesda, MD
##OWNER=NIST Mass Spectrometry Data Center
Collection (C) 2014 copyright by the U.S. Secretary of Commerce
on behalf of the United States of America. All rights reserved.
##CAS REGISTRY NO=548-35-6
##$NIST MASS SPEC NO=214070
##MOLFORM=C27 H18
##MW=342
##$NIST SOURCE=MSDC
##XUNITS=M/Z
##YUNITS=RELATIVE INTENSITY
##XFACTOR=1
##YFACTOR=1
##FIRSTX=41
##LASTX=345
##FIRSTY=71
##MAXX=345
##MINX=41
##MAXY=9999
##MINY=6
##NPOINTS=203
##PEAK TABLE=(XY..XY)
41,71 42,24 43,69 44,36
45,20 47,26 48,13 49,119
50,71 51,171 52,31 53,32
55,33 56,7 57,21 58,33
59,13 61,12 62,36 63,99
64,17 65,31 69,24 71,12
74,34 75,30 76,40 77,158
78,50 79,26 83,13 84,58
85,6 86,48 87,32 88,21
89,43 90,25 91,52 94,13
96,56 98,18 99,24 100,20
101,18 102,16 103,31 104,47
105,153 106,8 107,57 108,59
109,15 110,19 111,19 112,47
113,235 115,66 116,36 117,87
118,91 120,16 121,13 122,17
123,17 124,41 125,39 126,29
127,12 130,174 132,163 133,31
134,14 135,25 136,59 137,81
138,47 139,15 142,200 143,301
144,36 145,53 146,13 147,16
148,70 149,202 150,264 151,198
154,284 155,259 156,249 157,814
161,166 162,456 163,1808 167,818
169,1628 170,2910 171,1085 174,6
176,11 178,69 179,36 181,6
185,19 186,14 187,22 189,7
192,6 198,16 199,11 200,17
202,13 207,7 211,19 213,23
215,31 222,19 223,17 224,35
225,17 226,20 228,6 231,13
233,11 234,6 235,23 236,14
237,29 239,23 246,14 247,15
248,39 249,20 250,37 251,6
252,24 253,6 259,33 260,24
261,64 262,23 263,81 264,31
265,112 266,28 270,6 272,29
273,16 274,43 275,14 276,35
277,12 283,24 284,15 285,68
286,27 287,66 288,16 289,37
290,6 296,40 297,21 298,76
299,27 300,77 301,33 302,35
303,13 307,20 308,15 309,69
310,35 311,162 312,57 313,310
314,107 315,58 316,16 320,6
322,43 323,21 324,126 325,51
326,588 327,341 328,106 329,32
330,14 331,8 333,64 334,32
335,237 336,100 337,766 338,314
339,2754 340,1865 341,5834 342,9999
343,2825 344,357 345,41
##END=
