##TITLE=Hexane, 1,1'-[methylenebis(oxy)]bis-
##JCAMP-DX=4.24
##DATA TYPE=MASS SPECTRUM
##OWNER=NIST Mass Spectrometry Data Center
Collection (C) 2014 copyright by the U.S. Secretary of Commerce
on behalf of the United States of America. All rights reserved.
##CAS REGISTRY NO=54815-12-2
##$NIST MASS SPEC NO=10081
##MOLFORM=C13 H28 O2
##MW=216
##$NIST SOURCE=MSDC
##XUNITS=M/Z
##YUNITS=RELATIVE INTENSITY
##XFACTOR=1
##YFACTOR=1
##FIRSTX=15
##LASTX=216
##FIRSTY=20
##MAXX=216
##MINX=15
##MAXY=9999
##MINY=20
##NPOINTS=59
##PEAK TABLE=(XY..XY)
15,20 18,40 26,20 27,520
28,320 29,811 30,40 31,200
32,30 36,30 39,310 40,80
41,1631 42,641 43,7577 44,440
45,300 51,20 53,80 54,100
55,1011 56,1101 57,1541 58,150
59,60 60,30 61,20 67,200
68,120 69,370 70,180 71,390
72,90 73,80 80,20 81,130
82,621 83,3323 84,1061 85,9999
86,771 87,60 95,70 96,300
97,200 98,70 99,70 100,70
101,210 102,30 103,50 109,20
112,20 113,661 114,150 115,3653
116,290 117,180 216,80
##END=
