##TITLE=Cyclohexane, 1-(cyclohexylmethyl)-2-methyl-, cis-
##JCAMP-DX=4.24
##DATA TYPE=MASS SPECTRUM
##OWNER=NIST Mass Spectrometry Data Center
Collection (C) 2014 copyright by the U.S. Secretary of Commerce
on behalf of the United States of America. All rights reserved.
##CAS REGISTRY NO=54824-04-3
##$NIST MASS SPEC NO=8443
##MOLFORM=C14 H26
##MW=194
##$NIST SOURCE=MSDC
##XUNITS=M/Z
##YUNITS=RELATIVE INTENSITY
##XFACTOR=1
##YFACTOR=1
##FIRSTX=35
##LASTX=197
##FIRSTY=20
##MAXX=197
##MINX=35
##MAXY=9999
##MINY=10
##NPOINTS=115
##PEAK TABLE=(XY..XY)
35,20 36,80 37,20 38,50
39,1561 40,310 41,5435 42,911
43,821 44,140 45,20 46,20
47,20 48,10 49,20 50,50
51,140 52,120 53,811 54,951
55,8618 56,651 57,230 58,30
59,20 60,20 61,20 62,20
63,30 64,20 65,180 66,170
67,2022 68,741 69,1441 70,240
71,60 72,20 73,10 74,20
75,20 76,10 77,220 78,80
79,370 80,160 81,1762 82,1842
83,2843 84,220 85,20 86,10
87,10 88,10 89,10 90,10
91,120 92,30 93,80 94,60
95,601 96,3653 97,9999 98,801
99,50 100,20 101,20 102,20
103,20 104,20 105,30 106,30
107,40 108,70 109,540 110,300
111,330 112,110 113,40 114,10
115,20 116,10 117,10 118,10
119,20 120,10 121,30 122,20
123,100 124,150 125,140 126,20
127,20 128,40 129,10 136,10
137,50 138,40 139,10 150,10
151,20 152,40 153,10 164,20
165,30 166,50 167,10 178,20
179,90 180,10 193,10 194,1301
195,210 196,30 197,10
##END=
