##TITLE=Cyclohexanol, 2-methylene-3-(1-methylethenyl)-, acetate, cis-
##JCAMP-DX=4.24
##DATA TYPE=MASS SPECTRUM
##OWNER=NIST Mass Spectrometry Data Center
Collection (C) 2014 copyright by the U.S. Secretary of Commerce
on behalf of the United States of America. All rights reserved.
##CAS REGISTRY NO=54824-09-8
##$NIST MASS SPEC NO=8473
##MOLFORM=C12 H18 O2
##MW=194
##$NIST SOURCE=MSDC
##XUNITS=M/Z
##YUNITS=RELATIVE INTENSITY
##XFACTOR=1
##YFACTOR=1
##FIRSTX=41
##LASTX=152
##FIRSTY=1581
##MAXX=152
##MINX=41
##MAXY=9999
##MINY=40
##NPOINTS=49
##PEAK TABLE=(XY..XY)
41,1581 42,200 43,9999 44,200
51,220 52,60 53,581 54,60
55,781 56,80 57,200 65,260
66,60 67,661 68,40 69,240
70,1201 77,781 78,240 79,1261
80,80 81,641 82,400 83,240
84,100 91,1862 92,1021 93,1381
94,380 95,440 96,200 97,180
105,1401 106,1481 107,1281 108,180
109,420 112,220 119,2722 120,240
121,260 123,240 133,180 134,2642
135,440 136,220 137,200 151,120
152,240
##END=
