##TITLE=Cyclohexane, 1-(cyclohexylmethyl)-3-methyl-, cis-
##JCAMP-DX=4.24
##DATA TYPE=MASS SPECTRUM
##OWNER=NIST Mass Spectrometry Data Center
Collection (C) 2014 copyright by the U.S. Secretary of Commerce
on behalf of the United States of America. All rights reserved.
##CAS REGISTRY NO=54823-96-0
##$NIST MASS SPEC NO=8446
##MOLFORM=C14 H26
##MW=194
##$NIST SOURCE=MSDC
##XUNITS=M/Z
##YUNITS=RELATIVE INTENSITY
##XFACTOR=1
##YFACTOR=1
##FIRSTX=36
##LASTX=197
##FIRSTY=10
##MAXX=197
##MINX=36
##MAXY=9999
##MINY=10
##NPOINTS=124
##PEAK TABLE=(XY..XY)
36,10 37,10 38,40 39,1682
40,320 41,5825 42,811 43,891
44,30 45,10 46,10 47,10
48,10 49,10 50,30 51,120
52,90 53,851 54,981 55,9999
56,801 57,170 58,10 59,10
60,10 61,10 62,10 63,20
64,10 65,170 66,150 67,2052
68,731 69,1491 70,170 71,30
72,10 73,10 74,10 75,10
76,10 77,220 78,60 79,320
80,110 81,1982 82,3553 83,4224
84,310 85,20 86,10 87,10
88,10 89,10 90,10 91,100
92,20 93,70 94,60 95,1121
96,3553 97,8708 98,711 99,30
100,10 101,10 102,10 103,10
104,10 105,10 106,10 107,20
108,20 109,210 110,420 111,641
112,60 113,10 114,10 115,10
116,10 117,10 118,10 119,10
120,10 121,10 122,10 123,120
124,30 125,10 126,10 127,10
128,10 129,10 130,10 131,10
132,10 133,10 134,10 135,10
136,10 137,20 138,20 139,10
140,10 149,10 150,10 151,20
152,20 153,10 154,10 165,10
166,20 167,10 178,10 179,50
180,10 181,10 192,10 193,10
194,1631 195,260 196,20 197,10
##END=
