##TITLE=Cyclohexane, 1-(cyclohexylmethyl)-4-methyl-, trans-
##JCAMP-DX=4.24
##DATA TYPE=MASS SPECTRUM
##OWNER=NIST Mass Spectrometry Data Center
Collection (C) 2014 copyright by the U.S. Secretary of Commerce
on behalf of the United States of America. All rights reserved.
##CAS REGISTRY NO=54823-98-2
##$NIST MASS SPEC NO=8448
##MOLFORM=C14 H26
##MW=194
##$NIST SOURCE=MSDC
##XUNITS=M/Z
##YUNITS=RELATIVE INTENSITY
##XFACTOR=1
##YFACTOR=1
##FIRSTX=36
##LASTX=196
##FIRSTY=10
##MAXX=196
##MINX=36
##MAXY=9999
##MINY=10
##NPOINTS=122
##PEAK TABLE=(XY..XY)
36,10 37,10 38,40 39,1722
40,310 41,5925 42,621 43,861
44,30 45,10 46,10 47,10
48,10 49,10 50,30 51,120
52,90 53,891 54,1111 55,9999
56,841 57,200 58,10 59,10
60,10 61,10 62,10 63,20
64,10 65,180 66,150 67,2242
68,871 69,1531 70,230 71,50
72,10 73,10 74,10 75,10
76,10 77,220 78,60 79,340
80,130 81,2322 82,4064 83,4974
84,360 85,20 86,10 87,10
88,10 89,10 90,10 91,100
92,20 93,70 94,50 95,921
96,3783 97,7297 98,591 99,30
100,10 101,10 102,10 103,10
104,10 105,10 106,10 107,20
108,20 109,250 110,751 111,731
112,70 113,10 114,10 115,10
116,10 117,10 118,10 119,10
120,10 121,10 122,20 123,130
124,50 125,10 126,10 127,10
128,10 129,10 130,10 131,10
132,10 133,10 134,10 135,10
136,10 137,30 138,20 139,10
140,10 149,10 150,10 151,10
152,10 153,10 164,10 165,20
166,30 167,10 178,10 179,20
180,10 192,10 193,10 194,1651
195,260 196,20
##END=
