##TITLE=1,1-Dicyclohexylpentane
##JCAMP-DX=4.24
##DATA TYPE=MASS SPECTRUM
##OWNER=NIST Mass Spectrometry Data Center
Collection (C) 2014 copyright by the U.S. Secretary of Commerce
on behalf of the United States of America. All rights reserved.
##CAS REGISTRY NO=54833-30-6
##$NIST MASS SPEC NO=11326
##MOLFORM=C17 H32
##MW=236
##$NIST SOURCE=MSDC
##XUNITS=M/Z
##YUNITS=RELATIVE INTENSITY
##XFACTOR=1
##YFACTOR=1
##FIRSTX=36
##LASTX=241
##FIRSTY=10
##MAXX=241
##MINX=36
##MAXY=9999
##MINY=10
##NPOINTS=141
##PEAK TABLE=(XY..XY)
36,10 37,20 38,30 39,1541
40,280 41,8618 42,761 43,2132
44,70 45,10 46,10 47,10
48,10 49,10 50,30 51,110
52,100 53,951 54,1922 55,9999
56,781 57,1131 58,50 59,10
60,10 61,10 62,10 63,20
64,10 65,220 66,170 67,3163
68,751 69,3713 70,320 71,1331
72,80 73,10 74,10 75,10
76,10 77,310 78,80 79,540
80,200 81,1802 82,3613 83,9499
84,671 85,440 86,30 87,10
88,10 89,10 90,10 91,170
92,40 93,130 94,60 95,801
96,2863 97,7797 98,621 99,30
100,10 101,10 102,10 103,10
104,10 105,30 106,10 107,40
108,50 109,1151 110,450 111,1832
112,160 113,10 114,10 115,10
116,10 117,10 118,10 119,10
120,10 121,20 122,10 123,180
124,160 125,40 126,10 127,10
128,10 129,10 130,10 131,10
132,10 133,10 134,10 135,20
136,10 137,40 138,20 139,30
140,10 141,10 142,10 143,10
149,10 150,10 151,20 152,4494
153,3133 154,360 155,20 156,10
163,10 164,10 165,30 166,10
167,10 177,10 178,90 179,510
180,70 181,10 191,10 192,10
193,20 194,10 195,10 206,10
207,10 208,10 235,10 236,80
237,20 238,10 239,10 240,10
241,10
##END=
