##TITLE=Cyclohexane, 1,1'-(1,5-pentanediyl)bis-
##JCAMP-DX=4.24
##DATA TYPE=MASS SPECTRUM
##OWNER=NIST Mass Spectrometry Data Center
Collection (C) 2014 copyright by the U.S. Secretary of Commerce
on behalf of the United States of America. All rights reserved.
##CAS REGISTRY NO=54833-31-7
##$NIST MASS SPEC NO=11327
##MOLFORM=C17 H32
##MW=236
##$NIST SOURCE=MSDC
##XUNITS=M/Z
##YUNITS=RELATIVE INTENSITY
##XFACTOR=1
##YFACTOR=1
##FIRSTX=36
##LASTX=239
##FIRSTY=10
##MAXX=239
##MINX=36
##MAXY=9999
##MINY=10
##NPOINTS=131
##PEAK TABLE=(XY..XY)
36,10 37,10 38,20 39,931
40,190 41,4934 42,530 43,761
44,30 45,10 46,10 47,10
48,10 49,10 50,20 51,50
52,50 53,490 54,841 55,6336
56,480 57,190 58,10 59,10
60,10 61,10 62,10 63,10
64,10 65,80 66,90 67,1942
68,420 69,1071 70,110 71,60
72,10 73,10 74,10 75,10
76,10 77,80 78,20 79,170
80,80 81,781 82,7407 83,9999
84,701 85,40 86,10 87,10
88,10 89,10 90,10 91,30
92,10 93,30 94,30 95,270
96,1151 97,731 98,60 99,10
100,10 101,10 102,10 103,10
104,10 105,10 106,10 107,10
108,30 109,350 110,140 111,80
112,10 113,10 114,10 115,10
116,10 117,10 118,10 119,10
120,10 121,10 122,10 123,40
124,60 125,30 126,10 127,10
128,10 134,10 135,10 136,10
137,30 138,20 139,60 140,10
141,10 149,10 150,10 151,10
152,180 153,300 154,40 155,10
156,10 165,10 166,10 167,10
168,10 169,10 178,10 179,10
180,10 181,10 192,10 193,10
194,10 195,10 207,10 208,10
209,10 234,10 235,10 236,440
237,80 238,10 239,10
##END=
