##TITLE=Benz[a]anthracene, 8-propyl-
##JCAMP-DX=4.24
##DATA TYPE=MASS SPECTRUM
##OWNER=NIST Mass Spectrometry Data Center
Collection (C) 2014 copyright by the U.S. Secretary of Commerce
on behalf of the United States of America. All rights reserved.
##CAS REGISTRY NO=54889-82-6
##$NIST MASS SPEC NO=13060
##MOLFORM=C21 H18
##MW=270
##$NIST SOURCE=MSDC
##XUNITS=M/Z
##YUNITS=RELATIVE INTENSITY
##XFACTOR=1
##YFACTOR=1
##FIRSTX=35
##LASTX=273
##FIRSTY=40
##MAXX=273
##MINX=35
##MAXY=9999
##MINY=10
##NPOINTS=199
##PEAK TABLE=(XY..XY)
35,40 36,90 37,30 38,60
39,520 40,50 41,290 42,80
43,100 44,120 45,140 46,10
47,40 48,10 49,30 50,210
51,250 52,130 53,40 54,20
55,90 56,100 57,230 58,30
59,40 60,10 61,20 62,80
63,210 64,20 65,30 66,10
67,30 68,20 69,40 70,20
71,30 72,20 73,40 74,130
75,140 76,80 77,120 78,550
79,60 80,10 81,30 82,30
83,30 84,20 85,30 86,60
87,120 88,90 89,50 90,10
91,40 92,10 93,30 94,70
95,60 96,10 97,20 98,60
99,80 100,200 101,180 102,30
103,30 104,10 105,30 106,100
107,130 108,170 109,10 110,30
111,50 112,180 113,440 114,450
115,40 116,10 117,20 118,70
119,190 120,230 121,821 122,40
123,20 124,50 125,220 126,350
127,60 128,20 129,10 130,10
131,30 132,40 133,50 134,30
135,190 136,10 137,20 138,20
139,50 140,10 141,10 144,10
145,10 146,20 147,10 148,10
149,20 150,70 151,50 152,40
153,10 158,10 159,10 161,20
162,20 163,80 164,20 165,40
166,10 168,10 169,10 170,10
173,10 174,50 175,40 176,80
177,20 178,30 179,10 185,10
186,20 187,120 188,50 189,150
190,30 191,20 194,10 197,10
198,20 199,20 200,90 201,130
202,120 203,40 209,10 210,10
211,90 212,40 213,320 214,80
215,591 216,120 217,10 222,20
223,30 224,180 225,100 226,821
227,200 228,440 229,120 230,20
235,40 236,30 237,340 238,130
239,2582 240,761 241,9999 242,2312
243,250 244,20 247,10 248,30
249,20 250,150 251,50 252,450
253,350 254,160 255,190 256,50
263,80 264,20 265,140 266,50
267,50 268,90 269,160 270,8157
271,1852 272,220 273,20
##END=
