##TITLE=1H-Indene, 5-hexyl-2,3-dihydro-
##JCAMP-DX=4.24
##DATA TYPE=MASS SPECTRUM
##OWNER=NIST Mass Spectrometry Data Center
Collection (C) 2014 copyright by the U.S. Secretary of Commerce
on behalf of the United States of America. All rights reserved.
##CAS REGISTRY NO=54889-55-3
##$NIST MASS SPEC NO=9069
##MOLFORM=C15 H22
##MW=202
##$NIST SOURCE=MSDC
##XUNITS=M/Z
##YUNITS=RELATIVE INTENSITY
##XFACTOR=1
##YFACTOR=1
##FIRSTX=39
##LASTX=204
##FIRSTY=871
##MAXX=204
##MINX=39
##MAXY=9999
##MINY=10
##NPOINTS=126
##PEAK TABLE=(XY..XY)
39,871 40,100 41,1051 42,120
43,741 44,30 45,10 50,110
51,370 52,120 53,330 54,30
55,190 56,30 57,40 58,10
61,10 62,60 63,260 64,90
65,300 66,40 67,40 68,10
69,10 70,10 71,20 72,10
73,10 74,40 75,80 76,80
77,450 78,170 79,110 80,10
81,10 82,10 83,10 84,10
86,20 87,40 88,20 89,150
90,40 91,1301 92,120 93,10
94,10 95,10 96,10 98,10
99,10 100,10 101,40 102,160
103,230 104,240 105,140 106,20
107,20 108,10 109,10 110,10
111,10 113,20 114,30 115,1471
116,971 117,2042 118,530 119,100
120,30 121,20 122,10 123,10
124,10 125,10 126,30 127,340
128,941 129,1551 130,651 131,9999
132,3263 133,370 134,50 135,10
139,40 140,20 141,140 142,70
143,130 144,160 145,711 146,220
147,90 148,20 149,10 150,10
151,10 152,30 153,30 154,10
155,30 156,10 157,90 158,30
159,160 160,40 161,80 162,30
163,10 165,10 167,10 169,10
171,30 172,10 173,120 174,30
175,10 200,240 201,60 202,2292
203,390 204,30
##END=
