##TITLE=6-Benzylquinoline
##JCAMP-DX=4.24
##DATA TYPE=MASS SPECTRUM
##ORIGIN=E.V.BROWN, DEP. CHEM., UNIV. KENTUCKY, LEXINGTON, KENTUCKY,U
##OWNER=NIST Mass Spectrometry Data Center
Collection (C) 2014 copyright by the U.S. Secretary of Commerce
on behalf of the United States of America. All rights reserved.
##CAS REGISTRY NO=54884-99-0
##$NIST MASS SPEC NO=72705
##MOLFORM=C16 H13 N
##MW=219
##$NIST SOURCE=MSDC
##XUNITS=M/Z
##YUNITS=RELATIVE INTENSITY
##XFACTOR=1
##YFACTOR=1
##FIRSTX=91
##LASTX=220
##FIRSTY=400
##MAXX=220
##MINX=91
##MAXY=9999
##MINY=100
##NPOINTS=8
##PEAK TABLE=(XY..XY)
91,400 203,100 204,800 216,1500
217,3600 218,9999 219,8100 220,1400
##END=
