##TITLE=2-Hydroxyisocaproic acid, 2TMS derivative
##JCAMP-DX=4.24
##DATA TYPE=MASS SPECTRUM
##ORIGIN=NIST Mass Spectrometry Data Center
##OWNER=NIST Mass Spectrometry Data Center
Collection (C) 2014 copyright by the U.S. Secretary of Commerce
on behalf of the United States of America. All rights reserved.
##CAS REGISTRY NO=54890-08-3
##$NIST MASS SPEC NO=332758
##MOLFORM=C12 H28 O3 Si2
##MW=276
##$NIST SOURCE=MSDC
##XUNITS=M/Z
##YUNITS=RELATIVE INTENSITY
##XFACTOR=1
##YFACTOR=1
##FIRSTX=15
##LASTX=264
##FIRSTY=10
##MAXX=264
##MINX=15
##MAXY=9999
##MINY=10
##NPOINTS=143
##PEAK TABLE=(XY..XY)
15,10 27,80 28,10 29,90
31,20 39,70 40,10 41,380
42,50 43,621 44,200 45,1171
46,80 47,270 48,10 49,10
51,10 52,20 53,70 54,20
55,530 56,40 57,170 58,190
59,1061 60,120 61,230 62,10
63,10 65,10 66,110 67,70
68,30 69,961 70,100 71,90
72,270 73,9038 74,851 75,2042
76,140 77,90 79,10 81,30
82,10 83,20 85,100 86,20
87,60 88,20 89,40 90,10
91,50 94,10 95,30 96,30
97,130 98,10 99,60 100,10
101,380 103,7717 104,741 105,350
106,20 107,10 111,20 113,40
114,10 115,120 116,80 117,761
118,90 119,140 120,20 121,10
123,10 125,20 126,10 127,30
129,460 130,90 131,701 132,110
133,1281 134,180 135,100 136,10
141,10 143,460 144,70 145,110
147,7777 148,1251 149,811 150,80
151,30 155,10 157,40 159,9999
160,1411 161,470 162,40 163,10
169,50 170,10 171,330 172,40
173,20 175,80 176,10 177,711
178,120 179,60 180,10 185,20
186,10 187,50 188,10 189,10
190,340 191,100 192,40 193,10
203,100 204,40 205,10 217,50
218,20 219,190 220,70 221,20
222,10 233,591 234,120 235,50
236,10 245,20 246,10 261,540
262,120 263,50 264,10
##END=
