##TITLE=2,2-Dicyclohexylbutane
##JCAMP-DX=4.24
##DATA TYPE=MASS SPECTRUM
##OWNER=NIST Mass Spectrometry Data Center
Collection (C) 2014 copyright by the U.S. Secretary of Commerce
on behalf of the United States of America. All rights reserved.
##CAS REGISTRY NO=54890-02-7
##$NIST MASS SPEC NO=10433
##MOLFORM=C16 H30
##MW=222
##$NIST SOURCE=MSDC
##XUNITS=M/Z
##YUNITS=RELATIVE INTENSITY
##XFACTOR=1
##YFACTOR=1
##FIRSTX=36
##LASTX=208
##FIRSTY=10
##MAXX=208
##MINX=36
##MAXY=9999
##MINY=10
##NPOINTS=128
##PEAK TABLE=(XY..XY)
36,10 37,20 38,40 39,1702
40,290 41,8378 42,591 43,1571
44,60 45,10 46,10 47,10
48,10 49,10 50,30 51,140
52,100 53,1041 54,691 55,8678
56,641 57,3283 58,150 59,10
60,10 61,10 62,10 63,30
64,10 65,220 66,160 67,1902
68,550 69,4264 70,460 71,1001
72,60 73,10 74,10 75,10
76,10 77,300 78,80 79,460
80,250 81,1802 82,1571 83,9999
84,721 85,50 86,10 87,10
88,10 89,10 90,10 91,180
92,30 93,130 94,40 95,581
96,961 97,6226 98,490 99,20
100,10 101,10 102,10 103,10
104,10 105,40 106,10 107,50
108,80 109,2692 110,440 111,621
112,60 113,10 114,10 115,10
116,10 117,10 118,10 119,10
120,10 121,20 122,10 123,400
124,70 125,90 126,10 127,10
128,10 129,10 130,10 131,10
132,10 133,10 134,10 135,10
136,10 137,60 138,5545 139,5015
140,540 141,30 142,10 147,10
148,10 149,10 150,10 151,20
152,10 153,10 163,10 164,10
165,10 166,10 177,10 178,10
179,10 180,10 191,10 192,10
193,140 194,20 207,10 208,10
##END=
