##TITLE=1,2-Dicyclohexylbutane
##JCAMP-DX=4.24
##DATA TYPE=MASS SPECTRUM
##OWNER=NIST Mass Spectrometry Data Center
Collection (C) 2014 copyright by the U.S. Secretary of Commerce
on behalf of the United States of America. All rights reserved.
##CAS REGISTRY NO=54890-01-6
##$NIST MASS SPEC NO=10437
##MOLFORM=C16 H30
##MW=222
##$NIST SOURCE=MSDC
##XUNITS=M/Z
##YUNITS=RELATIVE INTENSITY
##XFACTOR=1
##YFACTOR=1
##FIRSTX=37
##LASTX=196
##FIRSTY=20
##MAXX=196
##MINX=37
##MAXY=9999
##MINY=10
##NPOINTS=131
##PEAK TABLE=(XY..XY)
37,20 38,30 39,1712 40,310
41,8468 42,781 43,1261 44,40
45,10 46,10 47,10 48,10
49,10 50,30 51,110 52,90
53,951 54,1391 55,8958 56,1091
57,1191 58,60 59,10 60,10
61,10 62,10 63,20 64,10
65,190 66,140 67,2833 68,490
69,4304 70,350 71,390 72,20
73,10 74,10 75,10 76,10
77,220 78,60 79,360 80,150
81,1221 82,4794 83,9999 84,711
85,50 86,10 87,10 88,10
89,10 90,10 91,100 92,20
93,60 94,30 95,500 96,1641
97,3503 98,290 99,10 100,10
101,10 102,10 103,10 104,10
105,20 106,10 107,20 108,30
109,911 110,230 111,771 112,70
113,10 114,10 115,10 116,10
117,10 118,10 119,10 120,10
121,10 122,10 123,150 124,480
125,1011 126,110 127,10 128,10
129,10 130,10 131,10 132,10
133,10 134,10 135,10 136,10
137,130 138,2302 139,1581 140,170
141,10 142,10 143,10 144,10
145,10 146,10 147,10 148,10
149,10 150,10 151,30 152,10
153,10 163,10 164,10 165,10
166,10 178,10 179,20 180,10
181,10 191,10 192,390 193,1952
194,310 195,20 196,10
##END=
