##TITLE=Hexanoic acid, 2-[(trimethylsilyl)oxy]-, trimethylsilyl ester
##JCAMP-DX=4.24
##DATA TYPE=MASS SPECTRUM
##ORIGIN=S. MARKEY UDIV. OF COLO. MED. CTR., DENVER, COLORADO, USA
##OWNER=NIST Mass Spectrometry Data Center
Collection (C) 2014 copyright by the U.S. Secretary of Commerce
on behalf of the United States of America. All rights reserved.
##CAS REGISTRY NO=54890-07-2
##$NIST MASS SPEC NO=13361
##MOLFORM=C12 H28 O3 Si2
##MW=276
##$NIST SOURCE=MSDC
##XUNITS=M/Z
##YUNITS=RELATIVE INTENSITY
##XFACTOR=1
##YFACTOR=1
##FIRSTX=39
##LASTX=262
##FIRSTY=190
##MAXX=262
##MINX=39
##MAXY=9999
##MINY=20
##NPOINTS=59
##PEAK TABLE=(XY..XY)
39,190 40,70 41,840 42,60
43,840 44,520 45,2290 46,50
47,470 55,530 57,170 58,340
59,1450 60,140 61,360 66,60
67,20 69,790 72,320 73,9999
74,930 75,2550 76,120 77,100
85,150 99,60 101,280 102,20
103,820 113,20 115,440 116,90
117,200 119,130 129,300 131,500
132,70 133,1290 134,110 135,60
143,150 147,4870 148,690 149,560
150,50 159,4760 160,660 161,250
169,30 171,70 175,20 187,110
190,150 208,20 217,90 233,760
234,140 261,410 262,90
##END=
