##TITLE=Octaverine
##JCAMP-DX=4.24
##DATA TYPE=MASS SPECTRUM
##ORIGIN=R.E.Ardrey ET AL.Pharmaceutical Mass Spectra,L.,1985
##OWNER=NIST Mass Spectrometry Data Center
Collection (C) 2014 copyright by the U.S. Secretary of Commerce
on behalf of the United States of America. All rights reserved.
##CAS REGISTRY NO=549-68-8
##$NIST MASS SPEC NO=298772
##MOLFORM=C23 H27 N O5
##MW=397
##$NIST SOURCE=MSDC
##XUNITS=M/Z
##YUNITS=RELATIVE INTENSITY
##XFACTOR=1
##YFACTOR=1
##FIRSTX=27
##LASTX=399
##FIRSTY=300
##MAXX=399
##MINX=27
##MAXY=9999
##MINY=100
##NPOINTS=94
##PEAK TABLE=(XY..XY)
27,300 29,2202 126,100 127,100
139,100 140,300 141,100 147,100
152,200 153,200 154,100 164,100
165,100 166,200 167,100 168,100
169,100 170,100 180,100 181,100
182,200 183,200 184,200 193,100
194,100 195,100 196,300 197,100
198,200 207,100 208,100 209,200
210,100 212,300 222,200 223,200
224,200 225,100 226,200 234,100
235,100 236,200 237,100 238,300
239,100 240,200 242,100 250,200
251,300 252,801 253,300 254,300
256,100 266,400 267,100 268,300
280,701 281,601 282,500 283,100
284,200 294,701 295,200 296,200
297,300 308,100 310,500 311,200
312,901 313,300 322,100 323,200
324,400 325,200 326,400 338,500
339,200 340,2002 341,400 352,500
353,100 354,2302 355,400 366,300
367,100 368,3503 369,801 370,100
382,3103 383,601 396,400 397,9999
398,2502 399,400
##END=
