##TITLE=Imidazole, TBDMS derivative
##JCAMP-DX=4.24
##DATA TYPE=MASS SPECTRUM
##ORIGIN=NIST Mass Spectrometry Data Center, 1994
##OWNER=NIST Mass Spectrometry Data Center
Collection (C) 2014 copyright by the U.S. Secretary of Commerce
on behalf of the United States of America. All rights reserved.
##CAS REGISTRY NO=54925-64-3
##$NIST MASS SPEC NO=135970
##MOLFORM=C9 H18 N2 Si
##MW=182
##$NIST SOURCE=MSDC
##XUNITS=M/Z
##YUNITS=RELATIVE INTENSITY
##XFACTOR=1
##YFACTOR=1
##FIRSTX=14
##LASTX=184
##FIRSTY=29
##MAXX=184
##MINX=14
##MAXY=9999
##MINY=18
##NPOINTS=78
##PEAK TABLE=(XY..XY)
14,29 15,179 26,48 27,492
28,570 29,1690 30,109 31,365
32,45 38,99 39,663 40,346
41,1685 42,485 43,3223 44,549
45,1188 46,107 47,58 51,57
53,291 54,345 55,800 56,500
57,1352 58,1091 59,1520 60,199
61,57 62,54 65,39 66,104
67,245 68,1033 69,653 70,2517
71,461 72,1225 73,2573 74,243
75,117 81,94 82,403 83,320
84,453 85,188 86,96 93,18
94,32 95,322 96,124 97,18
98,9152 99,4536 100,683 101,158
109,102 111,1331 112,182 113,103
125,9999 126,8280 127,1323 128,293
139,84 140,73 151,97 152,32
155,1410 156,222 157,82 165,52
167,434 168,94 169,58 182,2523
183,462 184,144
##END=
