##TITLE=Phenol, 2,5-bis(1-methylpropyl)-
##JCAMP-DX=4.24
##DATA TYPE=MASS SPECTRUM
##OWNER=NIST Mass Spectrometry Data Center
Collection (C) 2014 copyright by the U.S. Secretary of Commerce
on behalf of the United States of America. All rights reserved.
##CAS REGISTRY NO=54932-77-3
##$NIST MASS SPEC NO=9387
##MOLFORM=C14 H22 O
##MW=206
##$NIST SOURCE=MSDC
##XUNITS=M/Z
##YUNITS=RELATIVE INTENSITY
##XFACTOR=1
##YFACTOR=1
##FIRSTX=18
##LASTX=208
##FIRSTY=40
##MAXX=208
##MINX=18
##MAXY=9999
##MINY=10
##NPOINTS=84
##PEAK TABLE=(XY..XY)
18,40 27,90 28,90 29,230
32,30 39,100 41,290 43,60
50,10 51,70 52,20 53,80
55,180 57,480 58,30 63,40
64,20 65,90 66,20 67,30
69,30 76,10 77,220 78,50
81,10 83,10 89,30 91,320
92,40 93,70 94,10 95,20
102,40 103,160 104,40 105,140
106,20 107,400 108,30 115,210
116,70 117,130 118,20 119,80
120,40 121,591 122,60 127,70
128,190 129,140 130,90 131,100
132,40 133,290 134,70 135,180
136,20 141,30 142,20 143,20
144,30 145,40 146,20 147,300
148,500 149,140 150,10 159,110
160,20 161,170 162,110 163,330
164,40 173,20 175,110 177,9999
178,1331 179,110 191,410 192,60
205,80 206,1571 207,250 208,20
##END=
