##TITLE=Cyclohexane, 1-(cyclohexylmethyl)-2-ethyl-, trans-
##JCAMP-DX=4.24
##DATA TYPE=MASS SPECTRUM
##OWNER=NIST Mass Spectrometry Data Center
Collection (C) 2014 copyright by the U.S. Secretary of Commerce
on behalf of the United States of America. All rights reserved.
##CAS REGISTRY NO=54934-92-8
##$NIST MASS SPEC NO=9519
##MOLFORM=C15 H28
##MW=208
##$NIST SOURCE=MSDC
##XUNITS=M/Z
##YUNITS=RELATIVE INTENSITY
##XFACTOR=1
##YFACTOR=1
##FIRSTX=36
##LASTX=210
##FIRSTY=10
##MAXX=210
##MINX=36
##MAXY=9999
##MINY=10
##NPOINTS=121
##PEAK TABLE=(XY..XY)
36,10 37,20 38,50 39,2212
40,410 41,9589 42,1181 43,1611
44,60 45,10 46,10 47,10
48,10 49,10 50,40 51,160
52,130 53,1231 54,1551 55,9999
56,1041 57,591 58,30 59,10
60,10 61,10 62,10 63,30
64,10 65,280 66,250 67,3233
68,911 69,7487 70,711 71,130
72,10 73,10 74,10 75,10
76,10 77,370 78,100 79,581
80,250 81,2692 82,1862 83,5845
84,500 85,60 86,10 87,10
88,10 89,10 90,10 91,160
92,30 93,130 94,70 95,1211
96,2202 97,4144 98,350 99,20
100,10 101,10 102,10 103,10
104,10 105,30 106,10 107,40
108,60 109,1211 110,3233 111,9018
112,831 113,40 114,10 115,10
116,10 117,10 118,10 119,10
120,10 121,20 122,30 123,440
124,140 125,110 126,80 127,20
128,10 135,10 136,10 137,150
138,90 139,40 140,10 141,10
149,10 150,10 151,40 152,30
153,10 154,10 163,10 164,10
165,30 166,20 167,10 177,10
178,310 179,3383 180,520 181,40
182,10 207,10 208,601 209,100
210,10
##END=
