##TITLE=9H-Thioxanthen-9-one, 2-(1-methylethyl)-
##JCAMP-DX=4.24
##DATA TYPE=MASS SPECTRUM
##ORIGIN=Tony Mnjsce
##OWNER=NIST Mass Spectrometry Data Center
Collection (C) 2014 copyright by the U.S. Secretary of Commerce
on behalf of the United States of America. All rights reserved.
##CAS REGISTRY NO=5495-84-1
##$NIST MASS SPEC NO=215722
##MOLFORM=C16 H14 O S
##MW=254
##$NIST SOURCE=MSDC
##XUNITS=M/Z
##YUNITS=RELATIVE INTENSITY
##XFACTOR=1
##YFACTOR=1
##FIRSTX=27
##LASTX=257
##FIRSTY=400
##MAXX=257
##MINX=27
##MAXY=9999
##MINY=10
##NPOINTS=159
##PEAK TABLE=(XY..XY)
27,400 28,30 29,40 38,10
39,230 40,10 41,110 42,10
43,10 45,90 50,160 51,160
52,20 53,20 55,10 57,10
58,40 59,10 61,10 62,40
63,170 64,30 65,60 66,10
69,340 70,10 71,30 74,90
75,150 76,180 77,310 78,30
79,30 81,30 82,110 83,10
84,10 85,10 86,40 87,40
88,40 89,160 90,40 91,130
92,90 93,60 94,10 95,10
96,10 97,80 98,110 99,40
100,40 101,40 102,80 103,80
104,270 105,530 106,60 107,30
108,190 109,60 110,30 111,30
112,220 113,370 114,60 115,130
116,40 117,40 119,350 120,390
121,40 126,60 127,140 128,40
129,10 131,20 132,20 133,100
134,110 135,70 136,70 137,60
138,90 139,650 140,90 141,30
145,30 147,160 149,30 150,140
151,130 152,510 153,90 158,40
161,80 162,40 163,130 164,110
165,420 166,80 167,40 169,390
170,30 171,90 176,130 177,80
178,460 179,90 180,10 182,80
183,170 184,1141 185,240 186,60
187,10 189,30 193,40 195,130
196,890 197,540 198,110 199,30
205,30 206,30 207,60 208,700
209,430 210,370 211,190 212,160
213,210 214,30 215,10 219,10
221,310 222,80 223,50 224,750
225,260 226,100 227,40 234,30
235,60 236,30 237,170 238,140
239,9999 240,1671 241,600 242,90
251,20 252,20 253,460 254,5865
255,1090 256,370 257,50
##END=
