##TITLE=Naphthalene, 2-decyldecahydro-
##JCAMP-DX=4.24
##DATA TYPE=MASS SPECTRUM
##OWNER=NIST Mass Spectrometry Data Center
Collection (C) 2014 copyright by the U.S. Secretary of Commerce
on behalf of the United States of America. All rights reserved.
##CAS REGISTRY NO=54964-84-0
##$NIST MASS SPEC NO=13405
##MOLFORM=C20 H38
##MW=278
##$NIST SOURCE=MSDC
##XUNITS=M/Z
##YUNITS=RELATIVE INTENSITY
##XFACTOR=1
##YFACTOR=1
##FIRSTX=36
##LASTX=281
##FIRSTY=10
##MAXX=281
##MINX=36
##MAXY=9999
##MINY=10
##NPOINTS=154
##PEAK TABLE=(XY..XY)
36,10 37,20 38,40 39,1001
40,230 41,5635 42,841 43,3944
44,150 45,10 49,10 50,30
51,60 52,60 53,721 54,841
55,4014 56,691 57,1471 58,70
59,10 60,10 61,10 62,10
63,10 64,10 65,170 66,190
67,3693 68,1001 69,2582 70,370
71,440 72,20 74,10 75,10
76,10 77,280 78,100 79,811
80,390 81,7497 82,1071 83,1151
84,150 85,210 86,10 89,10
90,10 91,210 92,50 93,480
94,470 95,6496 96,1251 97,631
98,80 99,30 100,10 103,10
104,10 105,40 106,20 107,240
108,170 109,691 110,300 111,190
112,40 113,20 114,10 115,10
116,10 117,10 118,10 119,10
120,10 121,230 122,50 123,270
124,80 125,50 126,20 127,10
128,10 129,10 131,10 133,10
134,10 135,220 136,3233 137,9999
138,1521 139,110 140,40 141,10
142,10 143,10 145,10 147,10
148,10 149,20 150,30 151,80
152,80 153,20 154,10 155,10
163,10 164,10 165,20 166,10
167,10 168,10 169,10 177,10
178,10 179,10 180,30 181,10
182,40 183,10 184,10 191,10
192,10 193,10 194,10 195,10
196,10 197,10 206,10 207,90
208,30 209,10 220,10 221,190
222,50 223,10 226,10 234,10
235,10 236,40 237,10 248,10
249,40 250,40 251,10 263,10
276,10 277,10 278,1121 279,250
280,30 281,10
##END=
