##TITLE=Octadecane, 2,6,10,14-tetramethyl-
##JCAMP-DX=4.24
##DATA TYPE=MASS SPECTRUM
##OWNER=NIST Mass Spectrometry Data Center
Collection (C) 2014 copyright by the U.S. Secretary of Commerce
on behalf of the United States of America. All rights reserved.
##CAS REGISTRY NO=54964-82-8
##$NIST MASS SPEC NO=14668
##MOLFORM=C22 H46
##MW=310
##$NIST SOURCE=MSDC
##XUNITS=M/Z
##YUNITS=RELATIVE INTENSITY
##XFACTOR=1
##YFACTOR=1
##FIRSTX=55
##LASTX=312
##FIRSTY=2124
##MAXX=312
##MINX=55
##MAXY=9999
##MINY=37
##NPOINTS=60
##PEAK TABLE=(XY..XY)
55,2124 56,2198 57,9999 58,659
69,1612 70,1465 71,9962 72,586
83,659 84,2307 85,7618 86,586
97,952 98,476 99,3186 100,256
111,476 112,1831 113,3186 114,220
126,733 127,1831 128,220 139,147
141,1099 142,37 154,1172 155,2820
156,293 168,110 169,659 170,73
182,1026 183,1978 184,293 197,293
198,659 199,147 211,37 212,183
213,37 224,659 225,1831 226,256
238,73 239,110 252,293 253,659
254,147 266,73 267,147 280,73
281,147 282,37 294,37 295,293
296,73 310,952 311,220 312,37
##END=
