##TITLE=4-Isopropyldicyclohexylmethane
##JCAMP-DX=4.24
##DATA TYPE=MASS SPECTRUM
##ORIGIN=SHELL OIL CO., HOUSTON, TEXAS, USA
##OWNER=NIST Mass Spectrometry Data Center
Collection (C) 2014 copyright by the U.S. Secretary of Commerce
on behalf of the United States of America. All rights reserved.
##CAS REGISTRY NO=54965-61-6
##$NIST MASS SPEC NO=34567
##MOLFORM=C16 H30
##MW=222
##$NIST SOURCE=MSDC
##XUNITS=M/Z
##YUNITS=RELATIVE INTENSITY
##XFACTOR=1
##YFACTOR=1
##FIRSTX=37
##LASTX=225
##FIRSTY=20
##MAXX=225
##MINX=37
##MAXY=9999
##MINY=1
##NPOINTS=149
##PEAK TABLE=(XY..XY)
37,20 38,40 39,1720 40,334
41,7840 42,582 43,3333 44,116
45,4 46,3 47,2 48,4
49,5 50,30 51,110 52,94
53,1037 54,1446 55,8432 56,587
57,774 58,38 59,4 60,3
61,5 62,5 63,20 64,16
65,290 66,258 67,3203 68,772
69,4185 70,315 71,95 72,9
73,4 74,6 75,4 76,6
77,377 78,101 79,675 80,401
81,2320 82,1816 83,9999 84,726
85,62 86,4 87,4 88,4
89,10 90,6 91,179 92,35
93,157 94,127 95,1468 96,1673
97,8358 98,683 99,29 100,9
101,12 102,5 103,14 104,6
105,29 106,9 107,67 108,54
109,1043 110,125 111,468 112,43
113,5 114,4 115,11 116,5
117,10 118,5 119,8 120,6
121,62 122,111 123,800 124,390
125,638 126,67 127,8 128,6
129,5 130,5 131,5 132,3
133,4 134,4 135,133 136,47
137,242 138,73 139,39 140,7
141,6 142,4 143,2 144,2
145,2 146,1 147,2 148,2
149,41 150,53 151,22 152,8
153,4 154,3 155,4 156,4
157,4 158,3 159,4 160,2
161,2 162,2 163,12 164,4
165,16 166,8 167,4 177,11
178,2270 179,3327 180,989 181,111
182,9 183,2 192,4 193,12
194,4 207,16 208,4 220,6
221,7 222,724 223,129 224,12
225,2
##END=
