##TITLE=Naphthalene, decahydro-2,6-dimethyl-3-octyl-
##JCAMP-DX=4.24
##DATA TYPE=MASS SPECTRUM
##OWNER=NIST Mass Spectrometry Data Center
Collection (C) 2014 copyright by the U.S. Secretary of Commerce
on behalf of the United States of America. All rights reserved.
##CAS REGISTRY NO=54964-85-1
##$NIST MASS SPEC NO=13403
##MOLFORM=C20 H38
##MW=278
##$NIST SOURCE=MSDC
##XUNITS=M/Z
##YUNITS=RELATIVE INTENSITY
##XFACTOR=1
##YFACTOR=1
##FIRSTX=16
##LASTX=280
##FIRSTY=30
##MAXX=280
##MINX=16
##MAXY=9999
##MINY=10
##NPOINTS=211
##PEAK TABLE=(XY..XY)
16,30 17,50 18,210 24,10
25,20 26,140 27,1281 28,380
29,2833 30,70 31,20 32,10
36,10 37,30 38,40 39,831
40,210 41,5375 42,671 43,3323
44,120 45,10 48,10 49,10
50,30 51,70 52,50 53,691
54,581 55,6396 56,771 57,1371
58,70 59,10 60,10 61,10
62,10 63,10 64,10 65,190
66,130 67,3103 68,1181 69,3583
70,510 71,480 72,40 73,10
74,10 75,10 76,10 77,330
78,90 79,781 80,300 81,4694
82,1091 83,4064 84,370 85,200
86,10 89,20 90,10 91,310
92,80 93,611 94,350 95,8528
96,1141 97,1121 98,130 99,30
100,10 101,10 102,10 103,20
104,10 105,90 106,40 107,380
108,450 109,9999 110,1561 111,480
112,60 113,10 114,10 115,10
116,10 117,20 118,10 119,20
120,10 121,150 122,180 123,1371
124,210 125,90 126,20 127,10
128,10 129,10 130,10 131,10
132,10 133,10 134,10 135,270
136,150 137,410 138,410 139,130
140,30 141,10 142,10 143,10
144,10 145,10 146,10 147,10
148,10 149,510 150,100 151,200
152,40 153,30 154,10 155,10
156,10 157,10 158,10 159,10
160,10 161,10 162,10 163,130
164,1962 165,8708 166,1221 167,110
168,40 169,30 170,20 171,10
172,10 173,20 174,10 175,10
176,10 177,10 178,10 179,40
180,20 181,10 182,10 183,10
184,10 185,10 186,10 187,10
188,10 189,10 190,10 191,10
192,10 193,50 194,20 195,10
196,10 197,10 198,10 199,20
200,20 201,10 202,30 203,10
204,10 205,10 206,10 207,70
208,30 209,10 219,10 220,10
221,30 222,20 223,10 233,10
234,10 235,30 236,200 237,40
238,10 249,10 250,10 261,10
262,10 263,40 264,10 268,10
269,10 270,10 271,10 272,10
273,10 274,10 276,10 277,10
278,400 279,90 280,10
##END=
