##TITLE=Naphthalene, decahydro-1,4-dimethyl-5-octyl-
##JCAMP-DX=4.24
##DATA TYPE=MASS SPECTRUM
##ORIGIN=ATLANTIC REFINING CO., PHILADELPHIA, PA, USA
##OWNER=NIST Mass Spectrometry Data Center
Collection (C) 2014 copyright by the U.S. Secretary of Commerce
on behalf of the United States of America. All rights reserved.
##CAS REGISTRY NO=54964-83-9
##$NIST MASS SPEC NO=34657
##MOLFORM=C20 H38
##MW=278
##$NIST SOURCE=MSDC
##XUNITS=M/Z
##YUNITS=RELATIVE INTENSITY
##XFACTOR=1
##YFACTOR=1
##FIRSTX=37
##LASTX=280
##FIRSTY=32
##MAXX=280
##MINX=37
##MAXY=9999
##MINY=5
##NPOINTS=153
##PEAK TABLE=(XY..XY)
37,32 38,54 39,1190 40,283
41,5890 42,970 43,3970 44,135
50,51 51,107 52,81 53,848
54,515 55,6360 56,697 57,1310
58,60 60,8 61,10 62,11
63,35 64,20 65,254 66,216
67,3700 68,1400 69,3580 70,399
71,415 72,42 73,10 74,11
75,21 76,13 77,565 78,186
79,1260 80,454 81,5430 82,2000
83,3050 84,285 85,228 86,17
89,20 90,14 91,543 92,118
93,739 94,478 95,5870 96,1400
97,1750 98,185 99,43 100,5
103,39 104,28 105,184 106,55
107,507 108,455 109,9999 110,1670
111,643 112,66 113,15 114,7
115,33 116,17 117,42 118,14
119,57 120,23 121,241 122,404
123,1770 124,707 125,239 126,28
127,16 128,21 129,20 130,8
131,21 132,10 133,25 134,17
135,207 136,109 137,320 138,88
139,57 140,18 141,22 142,7
143,14 144,11 145,15 147,20
148,11 149,229 150,64 151,195
152,141 153,42 154,21 155,11
158,9 159,13 160,8 161,12
162,13 163,185 164,772 165,6090
166,1030 167,100 168,14 169,9
176,22 177,38 178,132 179,576
180,114 181,12 191,13 192,196
193,2300 194,456 195,47 206,7
207,54 208,22 218,11 219,36
220,200 221,510 223,99 232,11
233,13 234,43 235,164 236,34
249,64 250,11 263,283 264,67
276,38 277,23 278,2510 279,554
280,65
##END=
