##TITLE=2,4,6(1H,3H,5H)-Pyrimidinetrione, 5-(1-cyclohepten-1-yl)-5-ethyl-1,3-dimethyl-
##JCAMP-DX=4.24
##DATA TYPE=MASS SPECTRUM
##ORIGIN=FI-33-A11
##OWNER=NIST Mass Spectrometry Data Center
Collection (C) 2014 copyright by the U.S. Secretary of Commerce
on behalf of the United States of America. All rights reserved.
##CAS REGISTRY NO=54965-32-1
##$NIST MASS SPEC NO=13439
##MOLFORM=C15 H22 N2 O3
##MW=278
##$NIST SOURCE=MSDC
##XUNITS=M/Z
##YUNITS=RELATIVE INTENSITY
##XFACTOR=1
##YFACTOR=1
##FIRSTX=40
##LASTX=251
##FIRSTY=94
##MAXX=251
##MINX=40
##MAXY=9999
##MINY=31
##NPOINTS=125
##PEAK TABLE=(XY..XY)
40,94 41,893 42,282 43,266
44,47 51,157 52,110 53,392
54,94 55,627 56,204 57,188
58,549 59,63 65,360 66,219
67,737 68,110 69,282 70,78
71,47 73,110 74,392 75,78
77,815 78,219 79,940 80,157
81,972 82,204 83,204 84,94
85,31 87,282 91,784 92,157
93,893 94,204 95,345 96,94
97,219 98,31 103,94 104,31
105,282 106,110 107,407 108,157
109,94 110,125 111,63 112,1536
113,110 115,78 117,157 118,63
119,94 120,94 121,188 122,141
123,78 124,110 125,31 126,392
127,94 128,31 129,47 131,31
132,31 133,157 134,110 135,737
136,313 137,94 138,110 139,31
141,31 143,125 145,31 146,125
147,78 148,78 149,78 150,188
151,94 153,125 157,470 158,31
161,345 162,125 163,157 164,345
165,94 167,47 169,9999 170,784
171,110 174,110 178,125 180,78
181,266 182,63 183,1755 184,251
185,266 191,31 192,470 193,251
194,423 195,282 197,94 207,360
208,47 219,31 220,31 221,125
222,31 223,47 227,31 233,31
247,125 248,31 249,9403 250,3730
251,423
##END=
