##TITLE=Tyramine, 2TMS derivative
##JCAMP-DX=4.24
##DATA TYPE=MASS SPECTRUM
##ORIGIN=S. MARKEY UNIV. OF COLO. MED. CTR., DENVER, COLORADO, USA
##OWNER=NIST Mass Spectrometry Data Center
Collection (C) 2014 copyright by the U.S. Secretary of Commerce
on behalf of the United States of America. All rights reserved.
##CAS REGISTRY NO=54965-31-0
##$NIST MASS SPEC NO=13555
##MOLFORM=C14 H27 N O Si2
##MW=281
##$NIST SOURCE=MSDC
##XUNITS=M/Z
##YUNITS=RELATIVE INTENSITY
##XFACTOR=1
##YFACTOR=1
##FIRSTX=39
##LASTX=267
##FIRSTY=850
##MAXX=267
##MINX=39
##MAXY=9999
##MINY=60
##NPOINTS=27
##PEAK TABLE=(XY..XY)
39,850 41,80 43,270 44,110
45,750 58,320 59,550 72,60
73,5170 74,470 75,780 77,200
86,80 91,170 102,9999 103,1090
104,370 147,150 149,390 163,260
165,380 177,70 179,530 180,440
192,210 266,1060 267,250
##END=
