##TITLE=1H-Isoindole-1,3(2H)-dione, 2-methyl-
##JCAMP-DX=4.24
##DATA TYPE=MASS SPECTRUM
##ORIGIN=Japan AIST/NIMC Database- Spectrum MS-NW-3458
##OWNER=NIST Mass Spectrometry Data Center
Collection (C) 2014 copyright by the U.S. Secretary of Commerce
on behalf of the United States of America. All rights reserved.
##CAS REGISTRY NO=550-44-7
##$NIST MASS SPEC NO=231934
##MOLFORM=C9 H7 N O2
##MW=161
##$NIST SOURCE=MSDC
##XUNITS=M/Z
##YUNITS=RELATIVE INTENSITY
##XFACTOR=1
##YFACTOR=1
##FIRSTX=14
##LASTX=163
##FIRSTY=10
##MAXX=163
##MINX=14
##MAXY=9999
##MINY=10
##NPOINTS=79
##PEAK TABLE=(XY..XY)
14,10 15,50 18,10 25,10
26,40 27,80 28,30 29,30
30,20 36,30 37,259 38,459
39,139 40,20 41,20 42,20
43,20 44,20 48,20 49,149
50,2049 51,479 52,729 53,90
54,10 55,10 56,90 57,10
58,10 60,20 61,70 62,70
63,119 64,80 65,20 66,1579
67,20 70,30 72,20 73,159
74,819 75,969 76,4469 77,1359
78,299 79,20 80,20 85,10
86,20 87,10 88,20 89,80
90,249 91,40 92,30 99,10
101,20 102,109 103,209 104,4609
105,1409 106,269 107,20 115,30
116,90 117,2429 118,239 119,10
130,40 131,20 132,1409 133,1539
134,149 135,10 146,10 160,1419
161,9999 162,1089 163,99
##END=
