##TITLE=Picrolonic acid
##JCAMP-DX=4.24
##DATA TYPE=MASS SPECTRUM
##ORIGIN=Japan AIST/NIMC Database- Spectrum MS-NW- 637
##OWNER=NIST Mass Spectrometry Data Center
Collection (C) 2014 copyright by the U.S. Secretary of Commerce
on behalf of the United States of America. All rights reserved.
##CAS REGISTRY NO=550-74-3
##$NIST MASS SPEC NO=229371
##MOLFORM=C10 H8 N4 O5
##MW=264
##$NIST SOURCE=MSDC
##XUNITS=M/Z
##YUNITS=RELATIVE INTENSITY
##XFACTOR=1
##YFACTOR=1
##FIRSTX=12
##LASTX=265
##FIRSTY=20
##MAXX=265
##MINX=12
##MAXY=9999
##MINY=10
##NPOINTS=162
##PEAK TABLE=(XY..XY)
12,20 13,10 14,90 15,159
16,90 17,30 18,90 25,30
26,359 27,519 28,739 29,90
30,9999 31,40 32,30 36,10
37,499 38,819 39,2629 40,419
41,549 42,399 43,779 44,349
45,20 46,239 47,30 48,10
49,60 50,1299 51,799 52,779
53,239 54,129 55,119 56,20
57,20 60,30 61,269 62,1039
63,4159 64,1699 65,149 66,50
67,659 68,80 69,20 70,40
71,10 73,60 74,379 75,779
76,759 77,219 78,609 79,179
80,1189 81,70 82,10 83,519
84,30 85,10 86,20 87,70
88,249 89,1529 90,6839 91,559
92,239 93,30 94,30 95,10
96,10 97,10 101,20 102,129
103,50 104,70 105,149 106,609
107,70 108,20 109,30 115,20
116,30 117,40 118,279 119,90
120,159 121,20 122,619 123,60
128,10 129,30 130,30 131,509
132,60 133,20 134,539 135,90
136,6159 137,469 138,50 139,10
143,10 144,50 145,40 146,10
147,159 148,90 149,20 150,239
151,30 156,10 157,20 158,10
159,10 160,40 161,179 162,20
163,10 164,209 165,30 172,10
173,20 174,20 175,10 176,40
177,8669 178,869 179,90 180,10
185,10 186,10 187,10 188,10
189,10 190,10 201,10 202,30
203,119 204,229 205,40 216,20
217,50 218,30 219,90 220,20
230,10 231,30 232,899 233,3159
234,399 235,60 245,10 246,10
247,90 248,729 249,90 250,10
264,349 265,40
##END=
