##TITLE=11-Hexadecenoic acid, methyl ester
##JCAMP-DX=4.24
##DATA TYPE=MASS SPECTRUM
##OWNER=NIST Mass Spectrometry Data Center
Collection (C) 2014 copyright by the U.S. Secretary of Commerce
on behalf of the United States of America. All rights reserved.
##CAS REGISTRY NO=55000-42-5
##$NIST MASS SPEC NO=12995
##MOLFORM=C17 H32 O2
##MW=268
##$NIST SOURCE=MSDC
##XUNITS=M/Z
##YUNITS=RELATIVE INTENSITY
##XFACTOR=1
##YFACTOR=1
##FIRSTX=15
##LASTX=269
##FIRSTY=591
##MAXX=269
##MINX=15
##MAXY=9999
##MINY=70
##NPOINTS=142
##PEAK TABLE=(XY..XY)
15,591 17,140 18,170 26,100
27,651 28,450 29,1611 30,140
31,170 32,70 39,911 40,70
41,5955 42,1221 43,3153 44,210
45,350 53,561 54,1752 55,9999
56,2482 57,1752 58,210 59,1752
60,100 65,240 66,170 67,3003
68,2102 69,6005 70,1682 71,981
72,210 73,490 74,6566 75,981
77,210 78,170 79,661 80,490
81,2552 82,2172 83,4854 84,5065
85,881 87,4704 88,520 91,250
92,140 93,601 94,701 95,2202
96,4704 97,4804 98,4264 99,661
100,140 101,841 102,170 105,210
106,100 107,420 108,490 109,1431
110,2422 111,2242 112,1051 113,490
114,561 115,801 116,210 119,490
120,210 121,631 122,310 123,1682
124,1461 125,1361 126,350 127,490
128,731 129,561 130,210 133,420
134,561 135,490 136,310 137,771
138,1501 139,1051 140,240 141,1051
142,240 143,561 144,140 147,210
148,310 149,280 151,771 152,2602
153,911 154,280 155,380 157,210
158,100 161,280 162,210 163,210
164,140 165,561 166,601 167,280
168,140 169,170 171,240 172,210
176,140 177,100 179,350 180,280
181,210 182,100 183,140 185,210
186,140 189,140 192,701 193,561
194,2242 195,631 196,100 197,140
218,450 219,210 225,210 236,4004
237,2382 238,520 239,170 250,140
268,1752 269,490
##END=
