##TITLE=Methyl 3-(4-chlorophenylthio)-2-methylpropionate
##JCAMP-DX=4.24
##DATA TYPE=MASS SPECTRUM
##ORIGIN=NIST Mass Spectrometry Data Center, 1994
##OWNER=NIST Mass Spectrometry Data Center
Collection (C) 2014 copyright by the U.S. Secretary of Commerce
on behalf of the United States of America. All rights reserved.
##CAS REGISTRY NO=55009-84-2
##$NIST MASS SPEC NO=134657
##MOLFORM=C11 H13 Cl O2 S
##MW=244
##$NIST SOURCE=MSDC
##XUNITS=M/Z
##YUNITS=RELATIVE INTENSITY
##XFACTOR=1
##YFACTOR=1
##FIRSTX=15
##LASTX=248
##FIRSTY=6966
##MAXX=248
##MINX=15
##MAXY=9999
##MINY=54
##NPOINTS=125
##PEAK TABLE=(XY..XY)
15,6966 16,140 26,325 27,1678
28,348 29,1615 30,244 31,440
33,79 36,73 37,153 38,593
39,4019 40,653 41,5601 42,1453
43,520 44,73 45,9999 46,527
47,654 49,173 50,1310 51,890
52,86 53,131 54,86 55,545
56,113 57,350 58,714 59,6590
60,285 61,296 62,453 63,1885
64,196 65,434 69,2712 70,168
71,383 72,396 73,2791 74,979
75,2467 76,394 77,750 78,265
79,193 80,168 81,388 82,1020
83,155 84,176 85,389 86,94
87,268 88,71 89,179 91,142
93,203 97,97 99,1619 100,415
101,2936 102,299 103,149 105,136
106,149 107,699 108,5832 109,1445
110,416 111,501 112,275 113,235
114,93 115,221 116,164 117,105
118,72 121,658 122,478 123,159
124,79 125,217 127,91 131,54
133,87 134,266 135,244 139,166
143,3676 144,2525 145,1576 146,979
147,245 148,180 149,742 150,783
151,164 155,130 157,9873 158,1086
159,3722 160,360 161,180 169,99
171,77 183,229 184,1907 185,1623
186,890 187,676 188,92 197,107
199,69 213,299 214,68 215,117
244,5313 245,785 246,1826 247,288
248,110
##END=
