##TITLE=Naphthalene, 2-butyl-3-hexyl-
##JCAMP-DX=4.24
##DATA TYPE=MASS SPECTRUM
##ORIGIN=CONTINENTAL OIL CO., PONCA CITY, OKLA, USA
##OWNER=NIST Mass Spectrometry Data Center
Collection (C) 2014 copyright by the U.S. Secretary of Commerce
on behalf of the United States of America. All rights reserved.
##CAS REGISTRY NO=55000-56-1
##$NIST MASS SPEC NO=34786
##MOLFORM=C20 H28
##MW=268
##$NIST SOURCE=MSDC
##XUNITS=M/Z
##YUNITS=RELATIVE INTENSITY
##XFACTOR=1
##YFACTOR=1
##FIRSTX=14
##LASTX=271
##FIRSTY=36
##MAXX=271
##MINX=14
##MAXY=9999
##MINY=2
##NPOINTS=185
##PEAK TABLE=(XY..XY)
14,36 15,130 16,14 25,6
26,61 27,1229 28,336 29,1741
30,39 32,6 36,4 37,9
38,16 39,359 40,57 41,1195
42,122 43,878 44,30 50,21
51,78 52,21 53,94 54,12
55,733 56,55 57,220 58,12
62,15 63,79 64,33 65,49
66,6 67,30 68,6 69,34
70,15 71,39 72,2 74,38
75,70 76,99 77,137 78,33
79,12 81,21 82,32 83,77
84,9 85,13 86,18 87,42
88,37 89,104 90,15 91,76
92,7 95,13 96,6 97,5
98,11 99,14 100,11 101,37
102,59 103,26 104,9 105,20
109,14 111,9 112,6 113,34
114,34 115,603 116,80 117,18
118,6 119,10 123,22 125,21
126,85 127,281 128,554 129,350
130,47 131,12 133,6 137,13
138,29 139,310 140,117 141,1818
142,554 143,173 144,30 147,34
149,27 150,58 151,229 152,954
153,1015 154,916 155,9999 156,1718
157,208 158,23 159,12 163,79
164,113 165,1191 166,573 167,943
168,376 169,393 170,112 174,18
175,23 176,62 177,65 178,321
179,254 180,113 181,315 182,229
183,776 184,178 185,39 186,12
187,13 189,58 190,41 191,73
192,52 193,52 194,37 195,183
196,90 197,653 198,580 199,90
200,13 201,7 202,19 203,12
204,7 205,8 206,6 207,11
209,24 210,41 211,175 212,46
213,10 215,11 216,6 217,12
218,6 219,6 221,9 223,68
224,33 225,183 226,238 227,40
228,5 229,3 230,4 235,4
237,7 238,7 239,26 240,9
251,4 252,5 253,4 254,5
260,10 262,14 264,26 266,203
267,87 268,5573 269,1188 270,119
271,7
##END=
