##TITLE=Cinnamic acid, (E)-, TMS derivative
##JCAMP-DX=4.24
##DATA TYPE=MASS SPECTRUM
##ORIGIN=NIST Mass Spectrometry Data Center
##OWNER=NIST Mass Spectrometry Data Center
Collection (C) 2014 copyright by the U.S. Secretary of Commerce
on behalf of the United States of America. All rights reserved.
##CAS REGISTRY NO=55012-82-3
##$NIST MASS SPEC NO=352551
##MOLFORM=C12 H16 O2 Si
##MW=220
##$NIST SOURCE=MSDC
##XUNITS=M/Z
##YUNITS=RELATIVE INTENSITY
##XFACTOR=1
##YFACTOR=1
##FIRSTX=15
##LASTX=223
##FIRSTY=50
##MAXX=223
##MINX=15
##MAXY=9999
##MINY=10
##NPOINTS=144
##PEAK TABLE=(XY..XY)
15,50 26,20 27,90 29,100
30,20 31,50 32,10 37,10
38,40 39,220 40,30 41,20
42,40 43,520 44,200 45,1882
46,130 47,971 48,40 49,50
50,571 51,1792 52,330 53,230
54,30 55,90 56,30 57,90
58,140 59,651 60,170 61,410
62,130 63,370 64,60 65,50
66,20 67,10 68,10 69,20
70,30 71,40 72,210 73,1702
74,611 75,5175 76,1201 77,5465
78,420 79,40 81,30 82,10
83,30 84,10 85,270 86,50
87,80 88,20 89,110 90,40
91,170 92,20 93,10 94,20
95,20 97,10 98,70 99,360
100,50 101,300 102,3003 103,8297
104,731 105,100 106,10 107,20
108,10 109,30 113,10 115,220
116,60 117,70 118,70 119,30
120,10 121,70 122,10 127,20
128,60 129,260 130,200 131,9999
132,1011 133,350 134,60 135,2152
136,320 137,110 138,10 141,10
142,110 143,130 145,3063 146,480
147,260 148,490 149,80 150,20
151,10 158,10 159,500 160,130
161,6926 162,1131 163,300 164,30
165,10 173,10 174,10 175,20
176,110 177,30 178,10 179,10
185,10 186,10 187,10 189,20
192,180 193,30 194,10 201,10
203,20 205,9759 206,1641 207,480
208,50 209,10 218,10 219,350
220,2863 221,480 222,170 223,20
##END=
