##TITLE=Thymol, TMS derivative
##JCAMP-DX=4.24
##DATA TYPE=MASS SPECTRUM
##ORIGIN=Philip Morris R&D
##OWNER=NIST Mass Spectrometry Data Center
Collection (C) 2014 copyright by the U.S. Secretary of Commerce
on behalf of the United States of America. All rights reserved.
##CAS REGISTRY NO=55012-80-1
##$NIST MASS SPEC NO=108990
##MOLFORM=C13 H22 O Si
##MW=222
##$NIST SOURCE=MSDC
##XUNITS=M/Z
##YUNITS=RELATIVE INTENSITY
##XFACTOR=1
##YFACTOR=1
##FIRSTX=37
##LASTX=225
##FIRSTY=1
##MAXX=225
##MINX=37
##MAXY=9999
##MINY=1
##NPOINTS=130
##PEAK TABLE=(XY..XY)
37,1 39,139 40,52 41,151
42,82 43,204 44,255 45,811
46,32 47,97 48,1 49,4
50,8 51,47 52,19 53,67
54,1 55,41 56,15 57,37
58,45 59,299 60,21 61,58
62,15 63,35 64,5 65,103
66,21 67,41 68,60 69,23
71,13 72,35 73,7245 74,739
75,533 76,32 77,168 78,39
79,80 80,38 81,321 82,517
83,74 85,18 86,4 87,214
88,208 89,120 90,14 91,413
92,40 93,13 94,122 95,604
96,966 97,138 98,1 99,14
101,1 102,27 103,57 104,114
105,237 106,21 107,5 109,20
113,3 114,1 115,219 116,73
117,122 118,23 119,22 121,24
122,4 123,8 127,18 128,39
129,26 130,3 131,22 132,19
133,49 134,19 135,76 136,8
137,18 143,1 145,33 146,5
147,207 148,41 149,317 150,32
151,46 152,9 159,11 161,84
162,25 163,183 164,46 165,407
166,46 167,23 175,142 176,20
177,187 178,30 179,45 180,4
189,34 190,14 191,319 192,51
193,34 194,1 203,6 205,348
206,69 207,9999 208,1865 209,506
210,41 221,42 222,3300 223,640
224,164 225,16
##END=
