##TITLE=1-Propanone, 2-chloro-1-(4-ethylphenyl)-2-methyl-
##JCAMP-DX=4.24
##DATA TYPE=MASS SPECTRUM
##ORIGIN=DOW CHEMICAL COMPANY / ASTM E14-UNCERTIFIED SPECTRUM 448
##OWNER=NIST Mass Spectrometry Data Center
Collection (C) 2014 copyright by the U.S. Secretary of Commerce
on behalf of the United States of America. All rights reserved.
##CAS REGISTRY NO=55012-69-6
##$NIST MASS SPEC NO=34413
##MOLFORM=C12 H15 Cl O
##MW=210
##$NIST SOURCE=MSDC
##XUNITS=M/Z
##YUNITS=RELATIVE INTENSITY
##XFACTOR=1
##YFACTOR=1
##FIRSTX=28
##LASTX=212
##FIRSTY=151
##MAXX=212
##MINX=28
##MAXY=9999
##MINY=10
##NPOINTS=83
##PEAK TABLE=(XY..XY)
28,151 29,37 32,43 38,17
39,189 40,28 41,278 42,63
43,21 45,10 49,11 50,77
51,191 52,38 53,62 55,14
59,12 61,11 62,29 63,115
64,45 65,99 66,18 69,35
70,25 74,28 75,40 76,62
77,670 78,138 79,674 80,50
83,10 84,11 87,12 89,162
90,147 91,143 92,12 101,12
102,50 103,421 104,146 105,1135
106,100 107,11 115,56 116,18
117,43 118,34 119,112 120,14
127,15 128,29 129,29 131,55
132,41 133,9999 134,993 135,66
141,11 145,30 146,26 147,274
148,33 149,12 152,20 157,12
159,17 161,37 165,41 166,18
167,146 168,36 174,24 175,24
176,11 181,18 182,37 195,37
196,19 210,52 212,13
##END=
