##TITLE=Cyclohexane, 1,1'-(2-propyl-1,3-propanediyl)bis-
##JCAMP-DX=4.24
##DATA TYPE=MASS SPECTRUM
##OWNER=NIST Mass Spectrometry Data Center
Collection (C) 2014 copyright by the U.S. Secretary of Commerce
on behalf of the United States of America. All rights reserved.
##CAS REGISTRY NO=55030-21-2
##$NIST MASS SPEC NO=12119
##MOLFORM=C18 H34
##MW=250
##$NIST SOURCE=MSDC
##XUNITS=M/Z
##YUNITS=RELATIVE INTENSITY
##XFACTOR=1
##YFACTOR=1
##FIRSTX=36
##LASTX=251
##FIRSTY=10
##MAXX=251
##MINX=36
##MAXY=9999
##MINY=10
##NPOINTS=144
##PEAK TABLE=(XY..XY)
36,10 37,20 38,30 39,1341
40,260 41,7687 42,971 43,2052
44,70 49,10 50,20 51,70
52,60 53,781 54,1141 55,9999
56,771 57,871 58,40 59,10
60,10 61,10 62,10 63,10
64,10 65,150 66,130 67,1942
68,500 69,3443 70,490 71,891
72,50 73,10 74,10 75,10
76,10 77,170 78,50 79,310
80,130 81,1311 82,1471 83,9038
84,681 85,410 86,30 87,10
88,10 89,10 90,10 91,80
92,20 93,60 94,30 95,540
96,1441 97,6716 98,540 99,30
100,10 101,10 102,10 103,10
104,10 105,10 106,10 107,20
108,20 109,571 110,210 111,3013
112,270 113,10 114,10 115,10
116,10 117,10 118,10 119,10
120,10 121,10 122,10 123,300
124,120 125,871 126,90 127,10
128,10 129,10 130,10 131,10
132,10 133,10 134,10 135,30
136,10 137,200 138,40 139,60
140,10 141,10 142,10 143,10
144,10 145,10 146,10 147,10
148,10 149,10 150,10 151,160
152,1471 153,2042 154,240 155,20
156,10 163,10 164,10 165,40
166,100 167,90 168,10 169,10
176,10 177,10 178,10 179,20
180,10 191,10 192,10 193,30
194,10 205,10 206,791 207,2542
208,420 209,30 210,10 220,10
221,10 249,10 250,110 251,20
##END=
