##TITLE=Tridecane, 4,8-dimethyl-
##JCAMP-DX=4.24
##DATA TYPE=MASS SPECTRUM
##OWNER=NIST Mass Spectrometry Data Center
Collection (C) 2014 copyright by the U.S. Secretary of Commerce
on behalf of the United States of America. All rights reserved.
##CAS REGISTRY NO=55030-62-1
##$NIST MASS SPEC NO=9781
##MOLFORM=C15 H32
##MW=212
##$NIST SOURCE=MSDC
##XUNITS=M/Z
##YUNITS=RELATIVE INTENSITY
##XFACTOR=1
##YFACTOR=1
##FIRSTX=26
##LASTX=213
##FIRSTY=140
##MAXX=213
##MINX=26
##MAXY=9999
##MINY=10
##NPOINTS=89
##PEAK TABLE=(XY..XY)
26,140 27,2652 28,400 29,3894
30,90 31,10 37,30 38,50
39,1271 40,260 41,5145 42,1802
43,9238 44,300 49,10 50,30
51,60 52,30 53,330 54,170
55,2462 56,1551 57,9999 58,440
59,10 62,10 63,10 65,40
66,20 67,160 68,110 69,761
70,1752 71,4674 72,280 73,10
77,30 78,10 79,30 80,10
81,40 82,20 83,190 84,460
85,2893 86,190 87,10 91,10
93,10 95,10 96,90 97,370
98,1351 99,1011 100,70 109,10
110,10 111,50 112,240 113,380
114,30 124,10 125,20 126,30
127,150 128,10 139,10 140,350
141,971 142,110 143,10 153,10
154,10 155,40 156,10 168,110
169,550 170,80 171,10 182,30
183,90 184,10 185,10 196,10
197,130 198,20 211,10 212,80
213,10
##END=
