##TITLE=Cyclohexane, 1,1'-hexylidenebis-
##JCAMP-DX=4.24
##DATA TYPE=MASS SPECTRUM
##OWNER=NIST Mass Spectrometry Data Center
Collection (C) 2014 copyright by the U.S. Secretary of Commerce
on behalf of the United States of America. All rights reserved.
##CAS REGISTRY NO=55030-20-1
##$NIST MASS SPEC NO=12117
##MOLFORM=C18 H34
##MW=250
##$NIST SOURCE=MSDC
##XUNITS=M/Z
##YUNITS=RELATIVE INTENSITY
##XFACTOR=1
##YFACTOR=1
##FIRSTX=36
##LASTX=253
##FIRSTY=10
##MAXX=253
##MINX=36
##MAXY=9999
##MINY=10
##NPOINTS=156
##PEAK TABLE=(XY..XY)
36,10 37,20 38,30 39,1401
40,260 41,8748 42,731 43,2913
44,100 45,10 46,10 47,10
48,10 49,10 50,30 51,90
52,80 53,881 54,1882 55,9999
56,821 57,1491 58,70 59,10
60,10 61,10 62,10 63,20
64,10 65,210 66,190 67,3353
68,821 69,4114 70,350 71,871
72,50 73,10 74,10 75,10
76,10 77,290 78,90 79,540
80,220 81,1992 82,3723 83,9278
84,721 85,1211 86,80 87,10
88,10 89,10 90,10 91,160
92,30 93,140 94,60 95,821
96,3263 97,7216 98,571 99,80
100,10 101,10 102,10 103,10
104,10 105,30 106,10 107,40
108,60 109,1121 110,350 111,3443
112,320 113,20 114,10 115,10
116,10 117,10 118,10 119,10
120,10 121,20 122,20 123,210
124,280 125,761 126,80 127,10
128,10 129,10 130,10 131,10
132,10 133,10 134,10 135,20
136,10 137,100 138,150 139,40
140,10 141,10 142,10 143,10
144,10 145,10 146,10 147,10
148,10 149,10 150,10 151,10
152,20 153,30 154,10 155,10
156,10 157,10 158,10 159,10
160,10 161,10 162,10 163,10
164,10 165,40 166,4394 167,2953
168,370 169,30 170,10 171,10
177,10 178,100 179,530 180,80
181,10 182,10 183,10 191,10
192,10 193,30 194,10 206,10
207,10 208,10 248,10 249,10
250,60 251,10 252,10 253,10
##END=
