##TITLE=Tridecane, 5-propyl-
##JCAMP-DX=4.24
##DATA TYPE=MASS SPECTRUM
##ORIGIN=KONINKLIJKE SHELL LABORATORIUM AMSTERDAM
##OWNER=NIST Mass Spectrometry Data Center
Collection (C) 2014 copyright by the U.S. Secretary of Commerce
on behalf of the United States of America. All rights reserved.
##CAS REGISTRY NO=55045-11-9
##$NIST MASS SPEC NO=10730
##MOLFORM=C16 H34
##MW=226
##$NIST SOURCE=MSDC
##XUNITS=M/Z
##YUNITS=RELATIVE INTENSITY
##XFACTOR=1
##YFACTOR=1
##FIRSTX=30
##LASTX=227
##FIRSTY=63
##MAXX=227
##MINX=30
##MAXY=9999
##MINY=1
##NPOINTS=88
##PEAK TABLE=(XY..XY)
30,63 32,10 37,7 38,13
39,506 40,103 41,3926 42,850
43,6962 44,231 45,6 50,7
51,19 52,14 53,179 54,169
55,1900 56,1025 57,9999 58,432
59,8 65,27 66,17 67,160
68,109 69,756 70,756 71,6408
72,350 73,11 77,19 78,4
79,26 80,5 81,44 82,141
83,537 84,391 85,2571 86,167
87,6 91,6 92,1 93,4
95,10 96,57 97,256 98,141
99,841 100,64 101,3 109,4
110,38 111,153 112,983 113,813
114,67 115,3 124,20 125,96
126,79 127,325 128,36 129,3
138,9 139,40 140,63 141,103
142,11 152,2 153,11 154,44
155,25 156,4 168,381 169,294
170,36 171,3 182,380 183,394
184,53 185,5 196,9 197,14
198,2 225,3 226,10 227,1
##END=
