##TITLE=Tetradecane, 4,11-dimethyl-
##JCAMP-DX=4.24
##DATA TYPE=MASS SPECTRUM
##OWNER=NIST Mass Spectrometry Data Center
Collection (C) 2014 copyright by the U.S. Secretary of Commerce
on behalf of the United States of America. All rights reserved.
##CAS REGISTRY NO=55045-12-0
##$NIST MASS SPEC NO=10731
##MOLFORM=C16 H34
##MW=226
##$NIST SOURCE=MSDC
##XUNITS=M/Z
##YUNITS=RELATIVE INTENSITY
##XFACTOR=1
##YFACTOR=1
##FIRSTX=26
##LASTX=227
##FIRSTY=90
##MAXX=227
##MINX=26
##MAXY=9999
##MINY=10
##NPOINTS=88
##PEAK TABLE=(XY..XY)
26,90 27,1962 28,220 29,2923
30,70 37,10 38,20 39,931
40,200 41,4324 42,1171 43,9999
44,330 50,10 51,30 52,20
53,290 54,180 55,2692 56,1071
57,5345 58,230 63,10 65,40
66,20 67,200 68,150 69,831
70,3153 71,6446 72,350 73,10
77,30 78,10 79,30 80,10
81,60 82,60 83,320 84,681
85,2622 86,170 87,10 91,10
93,10 95,20 96,30 97,280
98,170 99,711 100,50 109,10
110,20 111,150 112,110 113,510
114,40 123,10 124,10 125,30
126,40 127,370 128,30 138,40
139,210 140,70 141,220 142,20
153,20 154,110 155,260 156,30
167,10 168,10 169,40 170,10
182,360 183,1141 184,170 185,10
196,30 197,80 198,10 210,20
211,110 212,20 226,50 227,10
##END=
