##TITLE=L-Norleucine, N-(trifluoroacetyl)-, butyl ester
##JCAMP-DX=4.24
##DATA TYPE=MASS SPECTRUM
##ORIGIN=S. MARKEY UNIV. OF COLO. MED. CTR., DENVER, COLORADO, USA
##OWNER=NIST Mass Spectrometry Data Center
Collection (C) 2014 copyright by the U.S. Secretary of Commerce
on behalf of the United States of America. All rights reserved.
##CAS REGISTRY NO=55044-47-8
##$NIST MASS SPEC NO=13653
##MOLFORM=C12 H20 F3 N O3
##MW=283
##$NIST SOURCE=MSDC
##XUNITS=M/Z
##YUNITS=RELATIVE INTENSITY
##XFACTOR=1
##YFACTOR=1
##FIRSTX=15
##LASTX=228
##FIRSTY=270
##MAXX=228
##MINX=15
##MAXY=9999
##MINY=10
##NPOINTS=49
##PEAK TABLE=(XY..XY)
15,270 18,170 26,60 27,3030
29,7260 30,340 31,100 39,1210
40,170 41,7450 42,690 43,2160
44,330 45,450 51,330 53,200
54,120 55,890 56,710 57,2800
58,110 67,220 68,180 69,9999
70,830 73,130 77,70 78,260
82,50 84,200 96,70 97,150
114,1350 119,140 126,1290 127,50
130,100 131,140 139,130 140,390
152,120 153,200 154,130 171,120
182,3100 183,320 184,35 227,90
228,10
##END=
