##TITLE=Tridecane, 6-propyl-
##JCAMP-DX=4.24
##DATA TYPE=MASS SPECTRUM
##ORIGIN=KONINKLIJKE SHELL LABORATORIUM AMSTERDAM
##OWNER=NIST Mass Spectrometry Data Center
Collection (C) 2014 copyright by the U.S. Secretary of Commerce
on behalf of the United States of America. All rights reserved.
##CAS REGISTRY NO=55045-10-8
##$NIST MASS SPEC NO=10729
##MOLFORM=C16 H34
##MW=226
##$NIST SOURCE=MSDC
##XUNITS=M/Z
##YUNITS=RELATIVE INTENSITY
##XFACTOR=1
##YFACTOR=1
##FIRSTX=38
##LASTX=227
##FIRSTY=65
##MAXX=227
##MINX=38
##MAXY=9999
##MINY=5
##NPOINTS=84
##PEAK TABLE=(XY..XY)
38,65 39,932 40,195 41,6000
42,1383 43,9999 44,325 48,33
50,19 51,42 52,28 53,337
54,290 55,3044 56,1425 57,9950
58,425 59,9 63,9 64,33
65,60 66,37 67,295 68,191
69,1141 70,955 71,7206 72,392
73,14 77,42 78,5 79,56
80,14 81,84 82,172 83,583
84,583 85,4741 86,304 87,5
91,19 93,5 95,23 96,107
97,537 98,318 99,1044 100,84
101,5 109,5 110,51 111,242
112,163 113,611 114,56 115,9
124,23 125,149 126,1250 127,727
128,70 138,9 139,28 140,98
141,181 142,23 153,19 154,925
155,532 156,60 168,84 169,65
170,5 182,853 183,960 184,135
185,9 196,19 197,28 198,5
224,9 225,9 226,33 227,9
##END=
