##TITLE=Pyrene, 1,6-bis(1,1-dimethylethyl)-
##JCAMP-DX=4.24
##DATA TYPE=MASS SPECTRUM
##OWNER=NIST Mass Spectrometry Data Center
Collection (C) 2014 copyright by the U.S. Secretary of Commerce
on behalf of the United States of America. All rights reserved.
##CAS REGISTRY NO=55044-29-6
##$NIST MASS SPEC NO=14825
##MOLFORM=C24 H26
##MW=314
##$NIST SOURCE=MSDC
##XUNITS=M/Z
##YUNITS=RELATIVE INTENSITY
##XFACTOR=1
##YFACTOR=1
##FIRSTX=65
##LASTX=317
##FIRSTY=10
##MAXX=317
##MINX=65
##MAXY=9999
##MINY=10
##NPOINTS=217
##PEAK TABLE=(XY..XY)
65,10 67,20 68,10 69,30
70,10 71,20 74,20 75,20
76,10 77,40 78,160 79,30
80,10 81,20 82,10 83,10
84,20 85,10 86,10 87,20
88,50 89,10 90,10 91,20
92,10 93,20 94,40 95,40
96,10 97,10 98,10 99,20
100,100 101,310 102,40 103,20
104,10 105,20 106,60 107,160
108,80 109,10 110,10 111,20
112,120 113,550 114,3273 115,190
116,40 117,20 118,70 119,280
120,741 121,170 122,100 123,20
124,40 125,200 126,340 127,170
128,991 129,50 130,10 131,30
132,80 133,30 134,30 135,50
136,70 137,20 138,30 139,10
140,10 141,10 142,1011 143,60
145,10 147,10 149,20 150,100
151,20 152,10 157,290 158,10
159,10 161,10 162,10 163,20
164,10 165,10 166,10 167,10
168,10 169,20 170,10 171,10
172,10 173,10 174,30 175,30
176,30 177,10 185,10 186,10
187,50 188,30 189,100 190,30
191,20 192,10 193,10 194,10
195,10 196,20 197,40 198,100
199,130 200,310 201,310 202,1421
203,721 204,120 205,10 206,10
207,10 208,10 209,10 210,10
211,50 212,40 213,210 214,140
215,781 216,190 217,40 218,20
219,10 220,10 221,10 222,30
223,40 224,180 225,170 226,981
227,801 228,601 229,270 230,80
231,30 232,20 233,20 234,20
235,30 236,30 237,130 238,100
239,741 240,330 241,671 242,581
243,1131 244,250 245,40 246,20
247,20 248,30 249,30 250,130
251,100 252,170 253,220 254,140
255,240 256,160 257,130 258,260
259,70 260,20 261,20 262,20
263,90 264,40 265,80 266,50
267,90 268,90 269,420 270,120
271,260 272,80 273,20 274,10
275,10 276,20 277,20 278,10
279,20 280,10 281,30 282,50
283,280 284,290 285,270 286,230
297,110 298,160 299,5795 300,1541
301,230 302,50 311,30 312,50
313,120 314,9999 315,2662 316,350
317,40
##END=
