##TITLE=2-Butenoic acid, 3-methyl-2-[(trimethylsilyl)oxy]-, trimethylsilyl ester
##JCAMP-DX=4.24
##DATA TYPE=MASS SPECTRUM
##ORIGIN=S. MARKEY UNIV. OF COLO. MED. CTR., DENVER, COLORADO, USA
##OWNER=NIST Mass Spectrometry Data Center
Collection (C) 2014 copyright by the U.S. Secretary of Commerce
on behalf of the United States of America. All rights reserved.
##CAS REGISTRY NO=55044-79-6
##$NIST MASS SPEC NO=12657
##MOLFORM=C11 H24 O3 Si2
##MW=260
##$NIST SOURCE=MSDC
##XUNITS=M/Z
##YUNITS=RELATIVE INTENSITY
##XFACTOR=1
##YFACTOR=1
##FIRSTX=36
##LASTX=260
##FIRSTY=100
##MAXX=260
##MINX=36
##MAXY=9999
##MINY=40
##NPOINTS=44
##PEAK TABLE=(XY..XY)
36,100 39,120 40,580 41,260
42,100 43,300 44,330 45,1230
47,190 52,100 53,50 55,50
57,40 58,80 59,360 61,140
66,330 67,40 69,190 70,280
72,170 73,5200 74,490 75,930
76,60 77,310 93,40 101,80
113,140 117,120 127,270 131,260
133,430 142,110 147,9999 148,1660
149,950 150,60 217,380 218,40
245,1690 246,360 247,120 260,160
##END=
