##TITLE=p-Cresyl isovalerate
##JCAMP-DX=4.24
##DATA TYPE=MASS SPECTRUM
##ORIGIN=Japan AIST/NIMC Database- Spectrum MS-NW-9467
##OWNER=NIST Mass Spectrometry Data Center
Collection (C) 2014 copyright by the U.S. Secretary of Commerce
on behalf of the United States of America. All rights reserved.
##CAS REGISTRY NO=55066-56-3
##$NIST MASS SPEC NO=236935
##MOLFORM=C12 H16 O2
##MW=192
##$NIST SOURCE=MSDC
##XUNITS=M/Z
##YUNITS=RELATIVE INTENSITY
##XFACTOR=1
##YFACTOR=1
##FIRSTX=15
##LASTX=193
##FIRSTY=10
##MAXX=193
##MINX=15
##MAXY=9999
##MINY=10
##NPOINTS=60
##PEAK TABLE=(XY..XY)
15,10 26,10 27,209 28,30
29,319 38,20 39,269 40,30
41,679 42,60 43,299 44,10
50,50 51,149 52,99 53,129
54,10 55,99 56,30 57,2389
58,99 62,10 63,50 64,10
65,179 66,20 67,10 69,179
70,10 74,10 75,10 77,489
78,129 79,279 80,189 81,20
83,20 84,20 85,909 86,50
88,10 89,30 90,129 91,369
92,30 105,80 106,30 107,1299
108,9999 109,979 110,60 121,10
133,20 135,169 136,10 149,30
150,20 177,10 192,599 193,80
##END=
