##TITLE=5-Acetyl-2-furanmethanol
##JCAMP-DX=4.24
##DATA TYPE=MASS SPECTRUM
##ORIGIN=O. THEANDER,DEP. CHEM. MOL. BIOL.,SWED. UNIV. AGRIC.,UPP
##OWNER=NIST Mass Spectrometry Data Center
Collection (C) 2014 copyright by the U.S. Secretary of Commerce
on behalf of the United States of America. All rights reserved.
##CAS REGISTRY NO=55087-82-6
##$NIST MASS SPEC NO=90685
##MOLFORM=C7 H8 O3
##MW=140
##$NIST SOURCE=MSDC
##XUNITS=M/Z
##YUNITS=RELATIVE INTENSITY
##XFACTOR=1
##YFACTOR=1
##FIRSTX=43
##LASTX=140
##FIRSTY=8300
##MAXX=140
##MINX=43
##MAXY=9999
##MINY=300
##NPOINTS=22
##PEAK TABLE=(XY..XY)
43,8300 50,1100 51,1700 52,1200
53,900 55,400 66,300 68,500
69,6100 70,300 79,400 80,400
81,1000 95,700 97,8000 98,500
111,1600 123,1400 125,9999 126,700
139,500 140,7700
##END=
