##TITLE=Nalmefene
##JCAMP-DX=4.24
##DATA TYPE=MASS SPECTRUM
##ORIGIN=NIST Mass Spectrometry Data Center
##OWNER=NIST Mass Spectrometry Data Center
Collection (C) 2014 copyright by the U.S. Secretary of Commerce
on behalf of the United States of America. All rights reserved.
##CAS REGISTRY NO=55096-26-9
##$NIST MASS SPEC NO=333477
##MOLFORM=C21 H25 N O3
##MW=339
##$NIST SOURCE=MSDC
##XUNITS=M/Z
##YUNITS=RELATIVE INTENSITY
##XFACTOR=1
##YFACTOR=1
##FIRSTX=15
##LASTX=342
##FIRSTY=20
##MAXX=342
##MINX=15
##MAXY=9999
##MINY=10
##NPOINTS=285
##PEAK TABLE=(XY..XY)
15,20 24,10 27,651 28,510
29,1712 30,430 31,100 32,150
35,50 36,100 38,40 39,1201
40,70 41,1001 42,1271 43,681
44,320 45,40 46,30 50,90
51,490 52,230 53,931 54,540
55,8848 56,1211 57,220 58,110
59,40 61,20 63,300 64,160
65,581 66,180 67,340 68,440
69,270 70,340 71,300 72,80
73,30 74,40 75,320 76,220
77,991 78,410 79,631 80,380
81,380 82,1942 83,611 84,1311
85,170 87,50 88,120 89,360
90,110 91,1031 92,240 93,220
94,410 95,360 96,1672 97,771
98,1361 99,190 100,110 101,180
102,350 103,420 104,240 105,330
106,240 107,490 108,631 109,210
110,3873 111,681 112,190 113,140
114,170 115,1922 116,360 117,480
118,270 119,180 120,300 121,130
122,220 123,480 124,270 125,60
126,150 127,861 128,1281 129,631
130,300 131,581 132,370 133,220
134,520 135,530 136,360 137,310
138,100 139,300 140,200 141,701
142,200 143,440 144,480 145,440
146,380 147,571 148,320 149,420
150,751 151,290 152,831 153,701
154,460 155,460 156,210 157,470
158,310 159,300 160,530 161,490
162,500 163,210 164,320 165,741
166,420 167,671 168,380 169,450
170,360 171,591 172,290 173,430
174,330 175,300 176,240 177,180
178,540 179,290 180,230 181,701
182,380 183,460 184,320 185,360
186,330 187,410 188,450 189,360
190,250 191,100 192,140 193,210
194,230 195,591 196,240 197,741
198,480 199,861 200,691 201,280
202,540 203,140 204,100 205,300
206,200 207,150 208,70 209,250
210,230 211,571 212,691 213,791
214,550 215,470 216,571 217,100
218,270 219,110 220,90 221,170
222,150 223,410 224,601 225,420
226,480 227,480 228,530 229,240
230,80 231,40 232,30 233,70
234,50 235,30 236,170 237,180
238,400 239,270 240,390 241,310
242,1942 243,1021 244,270 245,20
246,20 248,30 249,80 250,120
251,160 252,200 253,150 254,180
255,150 256,500 257,190 258,50
261,20 262,10 263,30 264,100
265,60 266,300 267,160 268,460
269,100 270,220 271,40 272,120
273,20 275,10 277,20 278,80
279,20 280,180 281,100 282,230
283,460 284,2122 285,400 286,40
291,50 292,120 293,60 294,150
295,40 296,390 297,30 298,2923
299,561 300,100 302,20 304,30
305,20 306,70 308,10 310,240
311,210 312,10 318,30 320,310
321,220 322,280 323,40 324,210
325,70 326,20 327,20 329,10
331,20 333,20 336,30 337,40
338,1011 339,9999 340,2272 341,300
342,90
##END=
