##TITLE=Dimetridazole
##JCAMP-DX=4.24
##DATA TYPE=MASS SPECTRUM
##ORIGIN=Japan AIST/NIMC Database- Spectrum MS-NW-3753
##OWNER=NIST Mass Spectrometry Data Center
Collection (C) 2014 copyright by the U.S. Secretary of Commerce
on behalf of the United States of America. All rights reserved.
##CAS REGISTRY NO=551-92-8
##$NIST MASS SPEC NO=230399
##MOLFORM=C5 H7 N3 O2
##MW=141
##$NIST SOURCE=MSDC
##XUNITS=M/Z
##YUNITS=RELATIVE INTENSITY
##XFACTOR=1
##YFACTOR=1
##FIRSTX=12
##LASTX=143
##FIRSTY=10
##MAXX=143
##MINX=12
##MAXY=9999
##MINY=10
##NPOINTS=76
##PEAK TABLE=(XY..XY)
12,10 13,20 14,70 15,1009
16,10 17,10 18,30 24,10
25,60 26,929 27,2159 28,2199
29,99 30,439 31,10 32,20
37,50 38,129 39,219 40,329
41,349 42,3139 43,1199 44,50
46,60 47,10 50,20 51,259
52,1559 53,1529 54,9999 55,629
56,1279 57,60 58,40 59,20
60,10 63,10 64,20 65,20
66,119 67,319 68,319 69,70
70,219 71,20 72,10 77,40
78,10 79,99 80,649 81,159
82,20 83,30 84,159 85,10
93,40 94,149 95,5849 96,549
97,30 106,10 108,109 109,20
110,10 111,209 112,159 113,10
124,50 125,119 126,10 139,10
140,20 141,6389 142,439 143,40
##END=
