##TITLE=Naphthalene, 1-isothiocyanato-
##JCAMP-DX=4.24
##DATA TYPE=MASS SPECTRUM
##ORIGIN=NIST Mass Spectrometry Data Center, 1998.
##OWNER=NIST Mass Spectrometry Data Center
Collection (C) 2014 copyright by the U.S. Secretary of Commerce
on behalf of the United States of America. All rights reserved.
##CAS REGISTRY NO=551-06-4
##$NIST MASS SPEC NO=291195
##MOLFORM=C11 H7 N S
##MW=185
##$NIST SOURCE=MSDC
##XUNITS=M/Z
##YUNITS=RELATIVE INTENSITY
##XFACTOR=1
##YFACTOR=1
##FIRSTX=26
##LASTX=189
##FIRSTY=10
##MAXX=189
##MINX=26
##MAXY=9999
##MINY=10
##NPOINTS=116
##PEAK TABLE=(XY..XY)
26,10 27,30 32,40 37,50
38,90 39,190 40,10 44,70
45,100 46,10 49,30 50,420
51,540 52,90 53,20 55,10
56,10 58,70 59,40 60,10
61,150 62,320 63,570 64,110
65,50 66,80 69,70 70,150
72,10 73,60 74,600 75,820
76,370 77,850 78,130 79,540
81,20 82,30 83,30 84,20
85,70 86,200 87,320 88,180
89,120 90,30 91,20 92,730
95,20 96,20 97,30 98,230
99,230 100,190 101,660 102,120
103,20 105,10 106,20 107,20
108,20 109,10 110,20 111,40
112,40 113,370 114,400 115,310
116,30 117,20 118,10 119,20
120,20 121,20 122,40 123,20
124,30 125,210 126,1630 127,3980
128,440 129,20 130,10 131,10
132,20 133,10 134,50 135,10
138,30 139,60 140,780 141,980
142,100 143,10 145,10 146,20
151,60 152,360 153,1340 154,160
155,10 156,10 157,30 158,900
159,250 160,60 161,10 169,10
170,10 183,50 184,240 185,9999
186,1380 187,550 188,60 189,10
##END=
