##TITLE=1(3H)-Isobenzofuranone, 3-butylidene-
##JCAMP-DX=4.24
##DATA TYPE=MASS SPECTRUM
##ORIGIN=NIST Mass Spectrometry Data Center
##OWNER=NIST Mass Spectrometry Data Center
Collection (C) 2014 copyright by the U.S. Secretary of Commerce
on behalf of the United States of America. All rights reserved.
##CAS REGISTRY NO=551-08-6
##$NIST MASS SPEC NO=340454
##MOLFORM=C12 H12 O2
##MW=188
##$NIST SOURCE=MSDC
##XUNITS=M/Z
##YUNITS=RELATIVE INTENSITY
##XFACTOR=1
##YFACTOR=1
##FIRSTX=15
##LASTX=190
##FIRSTY=20
##MAXX=190
##MINX=15
##MAXY=9999
##MINY=10
##NPOINTS=93
##PEAK TABLE=(XY..XY)
15,20 26,60 27,611 29,260
37,20 38,70 39,430 40,30
41,200 42,20 43,60 49,30
50,991 51,621 52,120 53,230
54,40 55,951 56,30 57,30
61,30 62,120 63,270 64,60
65,90 66,50 68,10 69,40
71,10 72,20 73,40 74,400
75,500 76,2072 77,2342 78,190
79,30 81,10 83,30 85,20
86,110 87,80 88,40 89,230
90,160 91,190 92,20 98,20
99,10 101,130 102,480 103,3013
104,1842 105,861 106,60 113,30
114,30 115,671 116,150 117,110
118,260 119,20 126,20 127,130
128,190 129,160 130,60 131,3113
132,390 133,130 134,10 139,20
141,100 142,40 143,40 144,70
145,140 146,3793 147,420 148,30
155,30 157,20 159,9999 160,1411
161,120 169,30 170,10 173,110
174,10 187,40 188,1682 189,220
190,20
##END=
