##TITLE=(E)-9,11-Dodecadien-1-ol
##JCAMP-DX=4.24
##DATA TYPE=MASS SPECTRUM
##ORIGIN=T. ANDO,FAC. AGRIC.,TOKYO UNIV. AGRIC. TECHNOL.,TOKYO,JAPAN
##OWNER=NIST Mass Spectrometry Data Center
Collection (C) 2014 copyright by the U.S. Secretary of Commerce
on behalf of the United States of America. All rights reserved.
##CAS REGISTRY NO=55110-79-7
##$NIST MASS SPEC NO=105159
##MOLFORM=C12 H22 O
##MW=182
##$NIST SOURCE=MSDC
##XUNITS=M/Z
##YUNITS=RELATIVE INTENSITY
##XFACTOR=1
##YFACTOR=1
##FIRSTX=54
##LASTX=183
##FIRSTY=7600
##MAXX=183
##MINX=54
##MAXY=9999
##MINY=400
##NPOINTS=32
##PEAK TABLE=(XY..XY)
54,7600 67,9400 68,9999 69,2000
70,800 71,1000 79,3600 80,5500
81,7600 82,6100 83,1400 84,500
85,600 93,2200 94,2000 95,3600
96,2500 97,1500 98,1400 107,1600
108,1200 109,2000 110,1000 111,500
112,400 121,800 122,600 123,600
135,1500 164,1300 182,3500 183,400
##END=
