##TITLE=Octadecanoic acid, 17-methyl-, methyl ester
##JCAMP-DX=4.24
##DATA TYPE=MASS SPECTRUM
##ORIGIN=R. RYHAGE KAROLINSKA INSTITUTET, STOCKHOLM
##OWNER=NIST Mass Spectrometry Data Center
Collection (C) 2014 copyright by the U.S. Secretary of Commerce
on behalf of the United States of America. All rights reserved.
##CAS REGISTRY NO=55124-97-5
##$NIST MASS SPEC NO=14742
##MOLFORM=C20 H40 O2
##MW=312
##$NIST SOURCE=MSDC
##XUNITS=M/Z
##YUNITS=RELATIVE INTENSITY
##XFACTOR=1
##YFACTOR=1
##FIRSTX=12
##LASTX=314
##FIRSTY=30
##MAXX=314
##MINX=12
##MAXY=9999
##MINY=20
##NPOINTS=188
##PEAK TABLE=(XY..XY)
12,30 13,40 14,70 15,340
16,30 17,140 18,510 19,20
26,100 27,640 28,1200 29,2100
30,1200 31,710 32,100 33,30
38,50 39,410 40,150 41,3300
42,1200 43,5500 44,780 45,410
52,20 53,120 54,260 55,3500
56,980 57,3000 58,480 59,990
60,100 61,110 65,60 66,30
67,510 68,250 69,2100 70,440
71,980 72,130 73,450 74,9999
75,2200 76,120 77,70 78,30
79,150 80,60 81,510 82,200
83,1100 84,440 85,630 86,80
87,6600 88,910 89,150 93,140
94,50 95,430 96,170 97,1100
98,440 99,220 100,50 101,780
102,110 103,30 106,20 107,130
108,40 109,260 110,100 111,540
112,150 113,130 114,30 115,270
116,130 117,50 120,40 121,190
122,40 123,170 124,60 125,300
126,70 127,80 128,50 129,710
130,220 131,40 135,180 136,40
137,110 138,40 139,180 140,50
141,60 142,40 143,1900 144,220
145,40 151,70 152,30 153,120
154,40 155,50 157,410 158,70
159,20 163,110 164,20 165,50
166,20 167,100 168,30 169,30
171,280 172,70 173,20 177,50
178,20 179,30 180,20 181,70
182,30 183,30 185,390 186,90
187,20 191,40 193,20 194,20
195,50 196,20 197,20 199,560
200,110 201,20 207,20 209,40
210,30 211,20 213,540 214,100
215,20 218,20 219,30 220,20
223,40 224,20 225,20 227,330
228,70 236,30 237,50 238,40
239,30 241,210 242,50 247,40
251,30 252,20 255,250 256,60
257,50 263,100 264,30 265,70
266,20 269,1100 270,230 271,40
279,40 280,30 281,210 282,40
283,200 297,40 298,20 299,20
311,30 312,1800 313,540 314,80
##END=
