##TITLE=Phenanthrene, 3,9-bis(1,1-dimethylethyl)-
##JCAMP-DX=4.24
##DATA TYPE=MASS SPECTRUM
##OWNER=NIST Mass Spectrometry Data Center
Collection (C) 2014 copyright by the U.S. Secretary of Commerce
on behalf of the United States of America. All rights reserved.
##CAS REGISTRY NO=55125-03-6
##$NIST MASS SPEC NO=13926
##MOLFORM=C22 H26
##MW=290
##$NIST SOURCE=MSDC
##XUNITS=M/Z
##YUNITS=RELATIVE INTENSITY
##XFACTOR=1
##YFACTOR=1
##FIRSTX=64
##LASTX=293
##FIRSTY=10
##MAXX=293
##MINX=64
##MAXY=9999
##MINY=10
##NPOINTS=199
##PEAK TABLE=(XY..XY)
64,10 65,20 66,10 67,20
68,10 69,20 70,10 71,20
74,20 75,40 76,90 77,40
78,20 79,10 80,10 81,20
82,30 83,20 84,10 85,20
86,20 87,30 88,100 89,270
90,30 91,30 92,10 93,20
94,70 95,170 96,40 97,10
98,10 99,20 100,100 101,470
102,2112 103,60 104,20 105,20
106,50 107,150 108,420 109,130
110,20 111,10 112,30 113,170
114,180 115,200 116,761 117,30
118,10 119,30 120,50 121,30
122,30 123,30 124,20 125,20
126,40 127,20 128,30 129,20
130,871 131,30 133,10 137,10
138,20 139,30 141,20 142,10
145,40 149,10 150,50 151,80
152,80 153,20 155,10 157,10
163,60 164,20 165,130 166,30
167,10 168,10 174,40 175,60
176,180 177,110 178,480 179,320
180,50 181,10 183,10 187,50
188,50 189,370 190,180 191,450
192,120 193,40 194,10 195,10
198,40 199,60 200,170 201,150
202,851 203,591 204,380 205,180
206,50 207,30 208,10 209,10
211,20 212,20 213,110 214,60
215,420 216,220 217,430 218,270
219,390 220,80 221,20 222,10
223,10 224,30 225,30 226,130
227,120 228,130 229,200 230,150
231,200 232,150 233,100 234,40
235,20 236,10 237,20 238,20
239,70 240,30 241,60 242,40
243,80 244,80 245,591 246,150
247,210 248,60 249,20 250,10
251,10 252,20 253,20 254,10
255,20 256,10 257,20 258,30
259,300 260,380 261,220 262,150
263,120 264,80 265,60 266,50
267,40 268,40 269,40 270,40
271,40 272,40 273,80 274,100
275,9999 276,2382 277,300 278,50
279,20 280,20 281,30 282,20
283,20 284,20 285,20 286,20
287,20 288,30 289,70 290,4684
291,1171 292,150 293,20
##END=
