##TITLE=Pent-2-ynal
##JCAMP-DX=4.24
##DATA TYPE=MASS SPECTRUM
##ORIGIN=ASES Database, Dalian Institute, P.R. China
##OWNER=NIST Mass Spectrometry Data Center
Collection (C) 2014 copyright by the U.S. Secretary of Commerce
on behalf of the United States of America. All rights reserved.
##CAS REGISTRY NO=55136-52-2
##$NIST MASS SPEC NO=143245
##MOLFORM=C5 H6 O
##MW=82
##$NIST SOURCE=MSDC
##XUNITS=M/Z
##YUNITS=RELATIVE INTENSITY
##XFACTOR=1
##YFACTOR=1
##FIRSTX=29
##LASTX=82
##FIRSTY=1281
##MAXX=82
##MINX=29
##MAXY=9999
##MINY=290
##NPOINTS=18
##PEAK TABLE=(XY..XY)
29,1281 31,390 36,300 37,1291
38,2372 39,9999 40,580 49,1090
50,2672 51,2572 52,1090 53,9058
54,7756 55,600 66,600 79,290
81,8567 82,3893
##END=
