##TITLE=.alpha.-Hydroxyisobutyric acid, 2TMS derivative
##JCAMP-DX=4.24
##DATA TYPE=MASS SPECTRUM
##ORIGIN=NIST Mass Spectrometry Data Center
##OWNER=NIST Mass Spectrometry Data Center
Collection (C) 2014 copyright by the U.S. Secretary of Commerce
on behalf of the United States of America. All rights reserved.
##CAS REGISTRY NO=55133-92-1
##$NIST MASS SPEC NO=332908
##MOLFORM=C10 H24 O3 Si2
##MW=248
##$NIST SOURCE=MSDC
##XUNITS=M/Z
##YUNITS=RELATIVE INTENSITY
##XFACTOR=1
##YFACTOR=1
##FIRSTX=15
##LASTX=236
##FIRSTY=20
##MAXX=236
##MINX=15
##MAXY=9999
##MINY=10
##NPOINTS=105
##PEAK TABLE=(XY..XY)
15,20 27,30 28,20 29,80
30,10 31,40 39,80 40,20
41,330 42,130 43,671 44,270
45,1471 46,100 47,370 48,20
49,10 51,20 52,70 53,30
54,10 55,100 56,30 57,140
58,300 59,530 60,90 61,350
62,20 63,20 66,480 68,10
69,260 70,90 71,60 73,8287
74,851 75,1752 76,120 77,180
78,10 79,10 80,20 81,50
83,10 85,30 86,10 87,80
88,20 89,30 90,10 91,10
95,751 99,40 101,270 102,40
103,130 104,20 105,50 106,10
109,40 113,30 115,410 116,120
117,260 118,30 119,60 120,10
129,50 131,9999 132,1411 133,1201
134,130 135,60 136,10 143,270
144,40 145,40 147,7447 148,1271
149,711 150,80 151,20 157,10
161,50 162,10 163,50 164,10
175,20 189,40 190,100 191,20
192,10 205,2032 206,390 207,180
208,20 217,70 218,10 219,10
231,20 233,581 234,120 235,50
236,10
##END=
