##TITLE=3-Hydroxybutyric acid, 2TMS derivative
##JCAMP-DX=4.24
##DATA TYPE=MASS SPECTRUM
##ORIGIN=S.Goodman ET AL.Diagnosis of Organic Acidemias
##OWNER=NIST Mass Spectrometry Data Center
Collection (C) 2014 copyright by the U.S. Secretary of Commerce
on behalf of the United States of America. All rights reserved.
##CAS REGISTRY NO=55133-94-3
##$NIST MASS SPEC NO=281713
##MOLFORM=C10 H24 O3 Si2
##MW=248
##$NIST SOURCE=MSDC
##XUNITS=M/Z
##YUNITS=RELATIVE INTENSITY
##XFACTOR=1
##YFACTOR=1
##FIRSTX=31
##LASTX=235
##FIRSTY=60
##MAXX=235
##MINX=31
##MAXY=9999
##MINY=20
##NPOINTS=59
##PEAK TABLE=(XY..XY)
31,60 38,90 39,320 40,921
41,1331 43,641 44,390 45,1621
46,60 47,550 57,90 58,420
59,591 60,70 61,320 66,751
69,350 72,320 73,7857 74,721
75,2122 76,140 77,80 87,20
88,1461 89,110 93,70 99,80
101,290 102,20 103,20 109,70
115,510 116,110 117,5135 118,540
119,220 129,50 130,871 131,420
132,70 133,801 134,110 143,140
146,60 147,9999 148,1441 149,771
150,50 189,240 191,2963 192,540
193,220 204,220 205,50 217,40
233,1782 234,320 235,130
##END=
