##TITLE=Hippuric acid, 2TMS derivative
##JCAMP-DX=4.24
##DATA TYPE=MASS SPECTRUM
##ORIGIN=NIST Mass Spectrometry Data Center
##OWNER=NIST Mass Spectrometry Data Center
Collection (C) 2014 copyright by the U.S. Secretary of Commerce
on behalf of the United States of America. All rights reserved.
##CAS REGISTRY NO=55133-85-2
##$NIST MASS SPEC NO=333154
##MOLFORM=C15 H25 N O3 Si2
##MW=323
##$NIST SOURCE=MSDC
##XUNITS=M/Z
##YUNITS=RELATIVE INTENSITY
##XFACTOR=1
##YFACTOR=1
##FIRSTX=15
##LASTX=326
##FIRSTY=10
##MAXX=326
##MINX=15
##MAXY=9999
##MINY=10
##NPOINTS=154
##PEAK TABLE=(XY..XY)
15,10 27,10 28,20 29,40
31,20 39,20 41,10 42,40
43,240 44,170 45,1041 46,70
47,160 48,10 49,10 50,60
51,260 52,30 53,20 54,10
55,50 56,30 57,70 58,150
59,480 60,60 61,110 62,20
63,50 64,10 65,20 66,20
67,10 69,10 70,40 71,40
72,210 73,4694 74,460 75,1001
76,170 77,1962 78,140 79,10
83,10 84,10 85,20 86,150
87,40 88,50 89,230 90,140
91,1712 92,140 93,20 95,10
99,10 100,110 101,80 102,40
103,180 104,260 105,9999 106,831
107,70 108,10 109,20 110,10
113,10 114,10 115,50 116,470
117,901 118,140 119,80 120,20
121,60 122,10 129,10 130,70
131,110 132,60 133,350 134,80
135,130 136,20 137,10 143,10
144,100 145,30 147,1301 148,250
149,210 150,20 151,10 153,10
158,10 159,10 160,20 161,50
162,100 163,240 164,40 165,10
174,70 175,20 176,50 177,260
178,801 179,150 180,40 188,10
189,10 190,300 191,70 192,170
193,40 194,10 204,500 205,310
206,3503 207,621 208,170 209,20
218,130 219,20 220,10 232,20
233,591 234,170 235,50 236,40
237,10 251,10 262,10 264,40
265,10 276,10 278,280 279,80
280,530 281,140 282,50 283,10
306,40 308,821 309,210 310,80
311,10 322,410 323,470 324,140
325,50 326,10
##END=
