##TITLE=L-Histidine, 1-methyl-N-(trifluoroacetyl)-, butyl ester
##JCAMP-DX=4.24
##DATA TYPE=MASS SPECTRUM
##ORIGIN=K.Leimer ET AL, J.Chrom., 141, 121(1977)
##OWNER=NIST Mass Spectrometry Data Center
Collection (C) 2014 copyright by the U.S. Secretary of Commerce
on behalf of the United States of America. All rights reserved.
##CAS REGISTRY NO=55145-65-8
##$NIST MASS SPEC NO=328301
##MOLFORM=C13 H18 F3 N3 O3
##MW=321
##$NIST SOURCE=MSDC
##XUNITS=M/Z
##YUNITS=RELATIVE INTENSITY
##XFACTOR=1
##YFACTOR=1
##FIRSTX=41
##LASTX=321
##FIRSTY=601
##MAXX=321
##MINX=41
##MAXY=9999
##MINY=140
##NPOINTS=16
##PEAK TABLE=(XY..XY)
41,601 42,1161 55,390 56,140
57,260 69,420 81,601 82,771
94,280 95,9999 96,1551 108,510
109,260 220,6896 221,931 321,841
##END=
