##TITLE=4-(Decyloxy)benzoic acid
##JCAMP-DX=4.24
##DATA TYPE=MASS SPECTRUM
##ORIGIN=NIST Mass Spectrometry Data Center
##OWNER=NIST Mass Spectrometry Data Center
Collection (C) 2014 copyright by the U.S. Secretary of Commerce
on behalf of the United States of America. All rights reserved.
##CAS REGISTRY NO=5519-23-3
##$NIST MASS SPEC NO=340768
##MOLFORM=C17 H26 O3
##MW=278
##$NIST SOURCE=MSDC
##XUNITS=M/Z
##YUNITS=RELATIVE INTENSITY
##XFACTOR=1
##YFACTOR=1
##FIRSTX=15
##LASTX=280
##FIRSTY=10
##MAXX=280
##MINX=15
##MAXY=9999
##MINY=10
##NPOINTS=139
##PEAK TABLE=(XY..XY)
15,10 18,10 26,20 27,540
29,1281 30,40 31,10 36,10
37,20 38,70 39,681 40,80
41,3023 42,651 43,4084 44,160
45,60 50,120 51,160 52,60
53,330 54,150 55,2442 56,1171
57,2662 58,130 61,10 62,50
63,190 64,120 65,911 66,110
67,250 68,160 69,1131 70,971
71,1011 72,60 73,10 74,30
75,90 76,150 77,270 78,80
79,190 80,40 81,280 82,210
83,561 84,601 85,871 86,60
89,30 90,20 91,120 92,150
93,370 94,100 95,270 96,130
97,741 98,330 99,100 102,20
103,100 104,80 105,210 106,70
107,130 108,30 109,110 110,110
111,490 112,260 113,30 114,10
115,50 116,10 117,30 118,50
119,70 120,120 121,2873 122,260
123,70 125,20 127,20 128,30
129,30 130,110 131,70 132,30
133,40 134,20 135,40 136,20
137,80 138,9999 139,4674 140,571
141,60 142,10 143,10 144,50
145,50 146,50 147,40 148,60
149,30 150,10 151,260 152,50
158,10 159,10 161,20 162,10
163,10 164,50 165,20 172,10
173,10 175,10 176,20 177,20
178,10 179,30 181,10 184,10
186,10 187,10 189,10 191,80
192,20 207,30 220,20 261,20
278,1121 279,220 280,20
##END=
