##TITLE=Nonadecane, 2,6,10,14,18-pentamethyl-
##JCAMP-DX=4.24
##DATA TYPE=MASS SPECTRUM
##OWNER=NIST Mass Spectrometry Data Center
Collection (C) 2014 copyright by the U.S. Secretary of Commerce
on behalf of the United States of America. All rights reserved.
##CAS REGISTRY NO=55191-61-2
##$NIST MASS SPEC NO=15592
##MOLFORM=C24 H50
##MW=338
##$NIST SOURCE=MSDC
##XUNITS=M/Z
##YUNITS=RELATIVE INTENSITY
##XFACTOR=1
##YFACTOR=1
##FIRSTX=55
##LASTX=339
##FIRSTY=1811
##MAXX=339
##MINX=55
##MAXY=9999
##MINY=36
##NPOINTS=68
##PEAK TABLE=(XY..XY)
55,1811 56,2101 57,9999 58,471
69,1522 70,1449 71,9963 72,580
83,652 84,797 85,5724 86,362
96,362 97,1014 98,471 99,2898
100,181 111,580 112,2790 113,4058
114,290 126,978 127,2427 128,181
139,109 140,217 141,1449 142,181
154,471 155,1449 156,181 167,145
168,145 169,906 170,145 182,2029
183,3442 184,362 196,254 197,797
198,181 210,36 211,217 212,36
224,507 225,652 226,72 238,36
239,145 240,36 252,507 253,1811
254,290 266,72 267,145 281,36
294,72 295,145 296,36 308,72
309,145 310,72 322,72 323,290
324,72 337,72 338,1087 339,217
##END=
