##TITLE=Octanedioic acid, 2-ethyl-, dimethyl ester
##JCAMP-DX=4.24
##DATA TYPE=MASS SPECTRUM
##ORIGIN=F.M.TRENT RES. DIV., U.S. IND. CHEM. CO., CINCINNATI, USA
##OWNER=NIST Mass Spectrometry Data Center
Collection (C) 2014 copyright by the U.S. Secretary of Commerce
on behalf of the United States of America. All rights reserved.
##CAS REGISTRY NO=55191-19-0
##$NIST MASS SPEC NO=22798
##MOLFORM=C12 H22 O4
##MW=230
##$NIST SOURCE=MSDC
##XUNITS=M/Z
##YUNITS=RELATIVE INTENSITY
##XFACTOR=1
##YFACTOR=1
##FIRSTX=15
##LASTX=202
##FIRSTY=740
##MAXX=202
##MINX=15
##MAXY=9999
##MINY=100
##NPOINTS=84
##PEAK TABLE=(XY..XY)
15,740 27,910 28,430 29,1330
31,190 39,1100 40,240 41,3870
42,980 43,2170 44,140 45,760
53,540 54,450 55,7340 56,1000
57,650 59,3850 60,150 67,870
68,430 69,5050 70,1450 71,460
72,130 73,1060 74,2630 75,160
79,230 81,900 82,380 83,1310
84,710 85,350 87,8710 88,620
93,190 94,220 95,780 96,1060
97,4440 98,1250 99,120 100,140
101,860 102,9999 103,580 109,400
110,530 111,690 112,320 113,420
114,1000 115,780 116,150 121,420
123,140 124,160 125,580 127,240
128,170 129,1810 130,160 137,850
138,2430 139,2300 141,250 142,440
143,110 144,210 148,300 149,130
151,100 156,150 157,2070 158,270
166,1510 167,260 170,1070 171,2520
172,270 198,290 199,400 202,230
##END=
