##TITLE=Hexanedioic acid, 2,5-diethyl-, dimethyl ester
##JCAMP-DX=4.24
##DATA TYPE=MASS SPECTRUM
##ORIGIN=F.M.TRENT RES. DIV., U.S. IND. CHEM. CO., CINCINNATI, USA
##OWNER=NIST Mass Spectrometry Data Center
Collection (C) 2014 copyright by the U.S. Secretary of Commerce
on behalf of the United States of America. All rights reserved.
##CAS REGISTRY NO=55191-18-9
##$NIST MASS SPEC NO=11041
##MOLFORM=C12 H22 O4
##MW=230
##$NIST SOURCE=MSDC
##XUNITS=M/Z
##YUNITS=RELATIVE INTENSITY
##XFACTOR=1
##YFACTOR=1
##FIRSTX=15
##LASTX=202
##FIRSTY=630
##MAXX=202
##MINX=15
##MAXY=9999
##MINY=13
##NPOINTS=67
##PEAK TABLE=(XY..XY)
15,630 27,700 28,310 29,680
31,100 39,680 40,150 41,3440
42,580 43,690 45,550 53,400
54,180 55,4020 56,790 57,370
59,2950 62,100 67,370 68,330
69,5690 70,1290 71,290 74,960
79,100 81,520 82,170 83,820
84,130 85,140 87,5900 88,450
95,180 96,120 97,480 98,120
99,210 101,730 102,9999 103,580
109,350 110,530 111,1520 112,240
113,440 114,470 115,750 127,190
129,2690 130,210 138,460 139,860
140,250 141,440 142,1230 143,120
155,190 157,129 158,13 166,2460
167,290 170,1350 171,1480 172,160
198,110 199,550 202,100
##END=
