##TITLE=Salsalate
##JCAMP-DX=4.24
##DATA TYPE=MASS SPECTRUM
##ORIGIN=Japan AIST/NIMC Database- Spectrum MS-NW-5565
##OWNER=NIST Mass Spectrometry Data Center
Collection (C) 2014 copyright by the U.S. Secretary of Commerce
on behalf of the United States of America. All rights reserved.
##CAS REGISTRY NO=552-94-3
##$NIST MASS SPEC NO=232767
##MOLFORM=C14 H10 O5
##MW=258
##$NIST SOURCE=MSDC
##XUNITS=M/Z
##YUNITS=RELATIVE INTENSITY
##XFACTOR=1
##YFACTOR=1
##FIRSTX=17
##LASTX=260
##FIRSTY=30
##MAXX=260
##MINX=17
##MAXY=9999
##MINY=10
##NPOINTS=86
##PEAK TABLE=(XY..XY)
17,30 18,90 25,10 26,40
27,129 28,129 29,50 31,30
32,20 36,10 37,119 38,329
39,1149 40,60 41,20 42,20
43,20 44,70 45,80 46,60
49,20 50,169 51,119 52,30
53,309 54,30 55,80 56,10
57,10 60,20 61,90 62,199
63,779 64,939 65,1699 66,139
67,20 68,10 69,20 71,10
73,20 74,80 75,60 76,60
77,30 78,10 79,10 81,139
82,10 83,10 90,10 91,60
92,2309 93,1049 94,119 95,10
104,10 105,10 109,30 119,30
120,2859 121,9999 122,839 123,80
127,10 128,20 137,20 138,979
139,99 140,20 149,10 155,10
168,10 196,20 197,10 211,10
212,20 213,30 214,10 239,10
240,569 241,129 242,20 258,1069
259,169 260,30
##END=
