##TITLE=Methylephedrine
##JCAMP-DX=4.24
##DATA TYPE=MASS SPECTRUM
##ORIGIN=Chuck Anderson, Aldrich Chemical Co.
##OWNER=NIST Mass Spectrometry Data Center
Collection (C) 2014 copyright by the U.S. Secretary of Commerce
on behalf of the United States of America. All rights reserved.
##CAS REGISTRY NO=552-79-4
##$NIST MASS SPEC NO=107881
##MOLFORM=C11 H17 N O
##MW=179
##$NIST SOURCE=MSDC
##XUNITS=M/Z
##YUNITS=RELATIVE INTENSITY
##XFACTOR=1
##YFACTOR=1
##FIRSTX=15
##LASTX=117
##FIRSTY=36
##MAXX=117
##MINX=15
##MAXY=9999
##MINY=6
##NPOINTS=37
##PEAK TABLE=(XY..XY)
15,36 18,27 27,85 28,111
29,116 30,57 36,51 38,29
39,68 41,46 42,376 43,96
44,333 50,50 51,143 52,40
54,6 55,47 56,267 57,131
58,101 63,29 65,28 70,299
71,271 72,9999 73,481 74,36
77,534 78,114 79,124 91,95
105,222 106,160 107,26 115,33
117,35
##END=
