##TITLE=Diampromide
##JCAMP-DX=4.24
##DATA TYPE=MASS SPECTRUM
##ORIGIN=R.E.Ardrey ET AL.Pharmaceutical Mass Spectra,L.,1985
##OWNER=NIST Mass Spectrometry Data Center
Collection (C) 2014 copyright by the U.S. Secretary of Commerce
on behalf of the United States of America. All rights reserved.
##CAS REGISTRY NO=552-25-0
##$NIST MASS SPEC NO=298633
##MOLFORM=C21 H28 N2 O
##MW=324
##$NIST SOURCE=MSDC
##XUNITS=M/Z
##YUNITS=RELATIVE INTENSITY
##XFACTOR=1
##YFACTOR=1
##FIRSTX=27
##LASTX=233
##FIRSTY=200
##MAXX=233
##MINX=27
##MAXY=9999
##MINY=100
##NPOINTS=28
##PEAK TABLE=(XY..XY)
27,200 29,601 42,200 44,300
56,300 57,400 58,300 65,100
70,100 71,200 77,400 79,200
91,300 93,100 103,100 104,200
105,2602 106,601 133,100 134,400
148,100 162,9999 163,1301 175,100
189,100 190,1301 191,200 233,200
##END=
