##TITLE=Benzoic acid, 2-nitro-
##JCAMP-DX=4.24
##DATA TYPE=MASS SPECTRUM
##ORIGIN=NIST Mass Spectrometry Data Center, 1994
##OWNER=NIST Mass Spectrometry Data Center
Collection (C) 2014 copyright by the U.S. Secretary of Commerce
on behalf of the United States of America. All rights reserved.
##CAS REGISTRY NO=552-16-9
##$NIST MASS SPEC NO=135508
##MOLFORM=C7 H5 N O4
##MW=167
##$NIST SOURCE=MSDC
##XUNITS=M/Z
##YUNITS=RELATIVE INTENSITY
##XFACTOR=1
##YFACTOR=1
##FIRSTX=12
##LASTX=169
##FIRSTY=95
##MAXX=169
##MINX=12
##MAXY=9999
##MINY=15
##NPOINTS=73
##PEAK TABLE=(XY..XY)
12,95 14,212 16,235 17,34
18,124 25,82 26,257 27,777
28,926 29,130 30,4190 32,109
36,103 37,845 38,1260 39,5219
40,228 41,74 42,53 43,89
44,652 45,1263 46,676 49,575
50,5722 51,4224 52,561 53,1295
54,89 55,123 60,73 61,348
62,472 63,1277 64,907 65,9999
66,756 67,129 69,60 73,678
74,2359 75,1644 76,2586 77,3969
78,518 79,112 80,60 81,1025
82,76 88,62 90,54 91,203
92,824 93,5958 94,418 103,70
104,284 105,105 106,187 107,69
108,69 109,875 119,374 121,1050
123,3750 124,276 137,598 138,90
150,479 151,229 167,3571 168,295
169,15
##END=
