##TITLE=1H-Cycloprop[e]azulen-4-ol, decahydro-1,1,4,7-tetramethyl-, [1aR-(1a.alpha.,4.beta.,4a.beta.,7.alpha.,7a.beta.,7b.alpha.)]-
##JCAMP-DX=4.24
##DATA TYPE=MASS SPECTRUM
##ORIGIN=NIST Mass Spectrometry Data Center
##OWNER=NIST Mass Spectrometry Data Center
Collection (C) 2014 copyright by the U.S. Secretary of Commerce
on behalf of the United States of America. All rights reserved.
##CAS REGISTRY NO=552-02-3
##$NIST MASS SPEC NO=412688
##MOLFORM=C15 H26 O
##MW=222
##$NIST SOURCE=MSDC
##XUNITS=M/Z
##YUNITS=RELATIVE INTENSITY
##XFACTOR=1
##YFACTOR=1
##FIRSTX=26
##LASTX=223
##FIRSTY=10
##MAXX=223
##MINX=26
##MAXY=9999
##MINY=10
##NPOINTS=154
##PEAK TABLE=(XY..XY)
26,10 27,460 28,80 29,761
30,20 31,90 37,10 38,30
39,1441 40,280 41,4864 42,430
43,7637 44,200 45,330 46,10
50,50 51,360 52,200 53,1702
54,350 55,3894 56,360 57,861
58,490 59,811 60,40 61,20
62,30 63,130 64,60 65,1111
66,410 67,5235 68,661 69,7577
70,611 71,2742 72,270 73,60
74,20 75,30 76,60 77,2402
78,510 79,3843 80,811 81,5205
82,2772 83,1501 84,380 85,380
86,50 87,20 88,10 89,60
90,20 91,3353 92,651 93,4634
94,1201 95,4074 96,1411 97,791
98,320 99,110 100,10 101,10
102,30 103,240 104,100 105,5125
106,1451 107,5905 108,3283 109,9999
110,1031 111,1011 112,150 113,100
114,10 115,270 116,110 117,380
118,120 119,3613 120,971 121,4724
122,4954 123,1792 124,300 125,851
126,500 127,510 128,140 129,110
130,50 131,270 132,80 133,2682
134,981 135,2452 136,1201 137,581
138,190 139,1371 140,681 141,90
142,20 143,20 144,20 145,190
146,80 147,2472 148,1992 149,2042
150,380 151,561 152,140 153,30
154,10 159,60 160,140 161,5975
162,1491 163,631 164,1021 165,270
166,70 167,20 173,30 174,20
175,681 176,500 177,90 178,20
179,360 180,60 181,10 187,10
188,10 189,3643 190,561 191,50
193,30 194,10 203,20 204,2973
205,510 206,40 207,350 208,60
222,310 223,50
##END=
