##TITLE=Acetamide, N-(2-nitrophenyl)-
##JCAMP-DX=4.24
##DATA TYPE=MASS SPECTRUM
##ORIGIN=Japan AIST/NIMC Database- Spectrum MS-NW-4720
##OWNER=NIST Mass Spectrometry Data Center
Collection (C) 2014 copyright by the U.S. Secretary of Commerce
on behalf of the United States of America. All rights reserved.
##CAS REGISTRY NO=552-32-9
##$NIST MASS SPEC NO=229964
##MOLFORM=C8 H8 N2 O3
##MW=180
##$NIST SOURCE=MSDC
##XUNITS=M/Z
##YUNITS=RELATIVE INTENSITY
##XFACTOR=1
##YFACTOR=1
##FIRSTX=14
##LASTX=182
##FIRSTY=60
##MAXX=182
##MINX=14
##MAXY=9999
##MINY=10
##NPOINTS=92
##PEAK TABLE=(XY..XY)
14,60 15,369 16,10 18,20
26,60 27,99 28,70 29,30
30,179 32,10 37,139 38,299
39,599 40,189 41,119 42,189
43,5389 44,159 45,30 46,10
49,40 50,319 51,409 52,729
53,139 54,30 55,10 56,20
57,30 60,20 61,99 62,179
63,829 64,739 65,1609 66,279
67,20 68,10 73,10 74,90
75,90 76,159 77,329 78,259
79,129 80,779 81,40 86,10
87,20 88,40 89,40 90,549
91,409 92,3479 93,299 94,20
102,20 103,50 104,169 105,99
106,50 107,20 108,819 109,60
117,10 118,30 119,50 120,90
121,329 122,289 123,20 129,10
130,20 131,869 132,1619 133,179
134,589 135,60 136,10 137,20
138,9999 139,739 140,80 146,10
147,30 148,119 149,20 164,30
165,20 180,1939 181,209 182,20
##END=
