##TITLE=1,1'-Biphenyl, 2,2',3,4,6-Pentachloro-
##JCAMP-DX=4.24
##DATA TYPE=MASS SPECTRUM
##ORIGIN=Organic Synthesis Lab, MSU, Moscow.TRC 1297
##OWNER=NIST Mass Spectrometry Data Center
Collection (C) 2014 copyright by the U.S. Secretary of Commerce
on behalf of the United States of America. All rights reserved.
##CAS REGISTRY NO=55215-17-3
##$NIST MASS SPEC NO=326667
##MOLFORM=C12 H5 Cl5
##MW=324
##$NIST SOURCE=MSDC
##XUNITS=M/Z
##YUNITS=RELATIVE INTENSITY
##XFACTOR=1
##YFACTOR=1
##FIRSTX=41
##LASTX=333
##FIRSTY=23
##MAXX=333
##MINX=41
##MAXY=9999
##MINY=14
##NPOINTS=158
##PEAK TABLE=(XY..XY)
41,23 43,28 44,125 47,44
49,85 50,261 51,193 56,29
57,37 60,54 61,283 62,174
63,86 66,22 67,31 71,37
72,65 73,329 74,419 75,311
76,35 79,103 83,36 84,170
85,224 86,204 87,92 91,95
92,391 93,126 95,39 96,174
97,260 98,346 99,202 100,39
101,19 107,72 108,241 109,833
110,566 111,167 112,14 113,45
114,76 115,64 116,27 118,28
119,35 120,133 121,131 122,230
123,214 124,40 127,1032 128,849
129,390 130,55 131,84 132,187
133,166 134,79 135,86 136,33
137,41 141,25 142,32 143,52
144,312 145,462 146,302 147,242
148,214 149,374 150,39 156,51
157,99 158,78 159,59 160,39
162,262 163,285 164,205 165,75
166,23 167,40 168,41 169,62
170,72 171,49 172,39 180,21
181,46 182,78 183,255 184,1234
185,266 186,436 187,43 192,85
193,42 194,75 195,25 196,50
203,39 204,33 205,44 206,35
207,23 215,43 216,36 217,67
218,430 219,386 220,320 221,329
222,76 223,27 228,50 229,39
230,53 238,29 239,23 241,21
242,26 249,14 251,22 252,41
253,88 254,4225 255,560 256,4101
257,546 258,1357 259,197 260,150
262,43 264,45 266,18 288,117
289,2277 290,497 291,2963 292,459
293,1365 294,166 295,306 296,71
324,6025 325,806 326,9999 327,1285
328,6517 329,842 330,1894 331,263
332,361 333,43
##END=
