##TITLE=1,1'-Biphenyl, 2,2',3,3',4,5-hexachloro-
##JCAMP-DX=4.24
##DATA TYPE=MASS SPECTRUM
##ORIGIN=Organic Synthesis Lab, MSU, Moscow.TRC 1258
##OWNER=NIST Mass Spectrometry Data Center
Collection (C) 2014 copyright by the U.S. Secretary of Commerce
on behalf of the United States of America. All rights reserved.
##CAS REGISTRY NO=55215-18-4
##$NIST MASS SPEC NO=326635
##MOLFORM=C12 H4 Cl6
##MW=358
##$NIST SOURCE=MSDC
##XUNITS=M/Z
##YUNITS=RELATIVE INTENSITY
##XFACTOR=1
##YFACTOR=1
##FIRSTX=42
##LASTX=368
##FIRSTY=22
##MAXX=368
##MINX=42
##MAXY=9999
##MINY=14
##NPOINTS=163
##PEAK TABLE=(XY..XY)
42,22 43,28 44,130 47,79
48,23 49,123 50,144 51,93
55,23 60,113 61,267 62,128
63,57 67,27 71,56 72,111
73,441 74,507 75,147 80,18
83,69 84,253 85,297 86,188
87,83 91,413 94,21 95,61
96,209 97,294 98,338 99,151
106,41 107,126 108,440 109,965
110,608 111,178 112,25 113,34
114,68 115,27 118,71 119,36
120,182 121,222 122,296 123,117
126,539 127,507 128,168 130,28
131,94 132,245 133,198 134,119
135,94 136,32 141,36 142,60
143,153 144,1186 145,1546 146,858
147,415 148,194 149,56 150,37
155,42 156,102 157,86 158,69
159,65 161,144 162,228 163,167
167,44 168,56 169,86 170,44
171,48 172,34 173,14 178,30
179,166 180,399 181,361 182,457
183,385 184,123 185,84 190,16
192,66 193,37 194,56 195,23
196,47 203,75 204,58 205,32
206,55 207,40 215,30 216,75
217,195 218,1314 219,296 220,931
221,143 222,147 228,35 229,22
230,40 231,18 238,24 239,24
240,42 241,28 242,21 243,18
251,37 252,328 253,419 254,392
255,372 256,174 257,154 258,30
262,21 264,53 274,16 276,20
286,20 288,4003 289,541 290,4825
291,631 292,2538 293,317 294,535
295,67 296,52 322,76 323,2044
324,401 325,3383 326,521 327,2033
328,365 329,679 330,99 331,118
358,4497 359,515 360,9999 361,1195
362,7773 363,1035 364,3179 365,409
366,875 367,101 368,90
##END=
