##TITLE=1-Nitropyrene
##JCAMP-DX=4.24
##DATA TYPE=MASS SPECTRUM
##ORIGIN=M. OEHME, NORW. INST. AIR RES., LILLESTROM, NORWAY
##OWNER=NIST Mass Spectrometry Data Center
Collection (C) 2014 copyright by the U.S. Secretary of Commerce
on behalf of the United States of America. All rights reserved.
##CAS REGISTRY NO=5522-43-0
##$NIST MASS SPEC NO=101258
##MOLFORM=C16 H9 N O2
##MW=247
##$NIST SOURCE=MSDC
##XUNITS=M/Z
##YUNITS=RELATIVE INTENSITY
##XFACTOR=1
##YFACTOR=1
##FIRSTX=50
##LASTX=249
##FIRSTY=210
##MAXX=249
##MINX=50
##MAXY=9999
##MINY=60
##NPOINTS=86
##PEAK TABLE=(XY..XY)
50,210 51,320 52,80 55,110
58,60 61,100 62,320 63,360
65,100 72,80 74,690 75,420
76,260 77,140 81,140 85,60
86,280 87,2070 89,70 90,80
92,90 94,820 98,600 99,1880
100,8210 103,100 104,100 107,180
108,420 110,310 111,220 112,70
113,90 119,70 122,300 123,340
124,310 125,90 126,90 130,60
132,100 134,110 135,90 146,110
147,100 149,340 150,850 151,470
152,220 153,80 157,60 161,130
162,140 163,440 164,90 167,80
173,220 174,870 175,650 176,120
180,280 186,140 187,790 188,760
189,5970 190,1160 191,1110 192,190
196,90 197,160 198,1120 199,1400
200,7590 201,9999 202,1690 203,200
214,170 216,150 217,3780 218,700
219,130 226,260 231,180 247,8500
248,1480 249,170
##END=
