##TITLE=2H-Pyran, 5,6-dihydro-2-methyl-
##JCAMP-DX=4.24
##DATA TYPE=MASS SPECTRUM
##ORIGIN=DR. C. C. VAN DE SANDE, STATE UNIVERSITY OF GENT, BELGIUM
##OWNER=NIST Mass Spectrometry Data Center
Collection (C) 2014 copyright by the U.S. Secretary of Commerce
on behalf of the United States of America. All rights reserved.
##CAS REGISTRY NO=55230-25-6
##$NIST MASS SPEC NO=51988
##MOLFORM=C6 H10 O
##MW=98
##$NIST SOURCE=MSDC
##XUNITS=M/Z
##YUNITS=RELATIVE INTENSITY
##XFACTOR=1
##YFACTOR=1
##FIRSTX=36
##LASTX=99
##FIRSTY=400
##MAXX=99
##MINX=36
##MAXY=9999
##MINY=80
##NPOINTS=38
##PEAK TABLE=(XY..XY)
36,400 37,950 38,1850 39,8800
40,3500 41,5600 42,2400 43,7500
44,1400 45,200 49,300 50,1250
51,1650 52,850 53,7000 54,700
55,3800 56,80 57,250 60,100
61,450 62,600 63,800 64,150
65,2000 66,1100 67,9999 68,6400
69,900 70,350 83,3700 84,250
85,200 95,100 96,100 97,1550
98,3300 99,250
##END=
