##TITLE=Naphthalen-1,4-imine, 1,2,3,4-tetrahydro-9-methyl-
##JCAMP-DX=4.24
##DATA TYPE=MASS SPECTRUM
##ORIGIN=A.Pleshkova, Nesmeyanov Inst.Org.Elem.Cpds, Moscow
##OWNER=NIST Mass Spectrometry Data Center
Collection (C) 2014 copyright by the U.S. Secretary of Commerce
on behalf of the United States of America. All rights reserved.
##CAS REGISTRY NO=55257-99-3
##$NIST MASS SPEC NO=306010
##MOLFORM=C11 H13 N
##MW=159
##$NIST SOURCE=MSDC
##XUNITS=M/Z
##YUNITS=RELATIVE INTENSITY
##XFACTOR=1
##YFACTOR=1
##FIRSTX=39
##LASTX=160
##FIRSTY=230
##MAXX=160
##MINX=39
##MAXY=9999
##MINY=60
##NPOINTS=43
##PEAK TABLE=(XY..XY)
39,230 40,90 41,370 42,120
43,440 44,110 51,651 52,90
63,981 64,230 65,440 66,120
75,450 76,120 77,991 78,430
79,120 89,1551 90,1431 91,540
102,440 103,721 104,781 105,90
115,1241 116,1872 117,450 118,80
127,430 128,981 129,721 130,2452
131,9999 132,2432 133,120 143,220
144,250 145,60 156,120 157,140
158,210 159,330 160,60
##END=
