##TITLE=Naphthalene, 1-decyl-1,2,3,4-tetrahydro-
##JCAMP-DX=4.24
##DATA TYPE=MASS SPECTRUM
##ORIGIN=COC 7465
##OWNER=NIST Mass Spectrometry Data Center
Collection (C) 2014 copyright by the U.S. Secretary of Commerce
on behalf of the United States of America. All rights reserved.
##CAS REGISTRY NO=55255-57-7
##$NIST MASS SPEC NO=13181
##MOLFORM=C20 H32
##MW=272
##$NIST SOURCE=MSDC
##XUNITS=M/Z
##YUNITS=RELATIVE INTENSITY
##XFACTOR=1
##YFACTOR=1
##FIRSTX=12
##LASTX=274
##FIRSTY=20
##MAXX=274
##MINX=12
##MAXY=9999
##MINY=10
##NPOINTS=130
##PEAK TABLE=(XY..XY)
12,20 13,10 14,20 15,30
20,10 22,10 25,10 26,20
27,420 28,230 29,741 30,20
31,10 32,10 37,10 38,10
39,210 40,40 41,771 42,130
43,621 44,170 45,10 50,20
51,50 52,20 53,160 54,30
55,210 56,50 57,120 58,10
62,10 63,40 64,20 65,70
66,10 67,40 68,10 69,50
70,20 71,20 74,10 75,10
76,20 77,100 78,50 79,40
80,10 81,10 82,10 83,20
84,10 85,10 87,10 88,10
89,30 90,20 91,851 92,70
93,10 95,10 97,10 98,10
99,10 101,20 102,40 103,110
104,120 105,90 106,10 107,10
113,10 114,20 115,460 116,370
117,290 118,70 119,10 125,10
126,20 127,140 128,370 129,681
130,410 131,9999 132,1161 133,60
134,10 139,30 140,20 141,601
142,190 143,60 144,190 145,90
146,20 151,10 152,30 153,40
154,40 155,40 156,10 157,50
158,10 159,10 163,10 165,30
166,10 167,30 168,10 169,10
170,10 171,10 172,10 175,10
178,10 179,10 180,10 181,10
183,10 266,10 267,10 268,330
269,70 270,40 271,10 272,530
273,120 274,10
##END=
