##TITLE=Tetratriacontane, 17-hexadecyl-
##JCAMP-DX=4.24
##DATA TYPE=MASS SPECTRUM
##OWNER=NIST Mass Spectrometry Data Center
Collection (C) 2014 copyright by the U.S. Secretary of Commerce
on behalf of the United States of America. All rights reserved.
##CAS REGISTRY NO=55256-07-0
##$NIST MASS SPEC NO=18654
##MOLFORM=C50 H102
##MW=702
##$NIST SOURCE=MSDC
##XUNITS=M/Z
##YUNITS=RELATIVE INTENSITY
##XFACTOR=1
##YFACTOR=1
##FIRSTX=37
##LASTX=562
##FIRSTY=20
##MAXX=562
##MINX=37
##MAXY=9999
##MINY=10
##NPOINTS=272
##PEAK TABLE=(XY..XY)
37,20 38,40 39,410 40,110
41,2322 42,791 43,7737 44,280
45,10 50,30 51,40 52,30
53,130 54,360 55,2863 56,1742
57,9999 58,480 59,20 62,10
63,20 64,10 65,40 66,50
67,480 68,510 69,2642 70,1271
71,6676 72,380 73,20 74,10
75,10 76,10 77,40 78,30
79,80 80,50 81,380 82,561
83,2682 84,741 85,4834 86,320
87,10 88,10 89,10 90,10
91,160 92,40 93,70 94,40
95,290 96,370 97,2122 98,440
99,1281 100,110 101,10 102,10
103,10 104,30 105,70 106,20
107,70 108,30 109,150 110,160
111,971 112,280 113,891 114,90
115,30 116,10 117,30 118,30
119,50 120,20 121,30 122,20
123,70 124,90 125,440 126,180
127,641 128,80 129,30 130,10
131,30 132,10 133,30 134,10
135,30 136,20 137,50 138,70
139,190 140,120 141,480 142,70
143,20 144,10 145,20 146,10
147,20 148,10 149,10 150,10
151,30 152,50 153,130 154,100
155,380 156,50 157,10 158,10
159,10 160,10 161,20 162,10
163,10 164,10 165,30 166,50
167,100 168,80 169,310 170,50
171,10 179,20 180,40 181,80
182,70 183,270 184,50 185,10
193,10 194,40 195,70 196,70
197,230 198,40 199,10 207,10
208,40 209,50 210,60 211,190
212,30 213,10 221,10 222,40
223,50 224,90 225,170 226,40
227,10 235,10 236,40 237,50
238,60 239,150 240,30 241,10
249,10 250,40 251,50 252,40
253,130 254,30 255,10 263,10
264,30 265,40 266,50 267,110
268,30 269,10 277,10 278,40
279,40 280,60 281,140 282,40
283,10 287,20 292,40 293,40
294,40 295,120 296,20 297,10
306,40 307,40 308,40 309,120
310,30 311,10 320,40 321,40
322,40 323,110 324,40 334,30
335,30 336,40 337,100 338,30
348,20 349,20 350,30 351,90
352,20 362,20 363,20 364,30
365,80 366,30 376,20 377,30
378,30 379,70 380,30 390,10
391,10 392,30 393,70 394,20
404,10 405,10 406,20 407,60
408,20 418,10 419,10 420,30
421,50 422,20 432,10 433,10
434,40 435,50 436,10 448,60
449,60 450,20 462,440 463,691
464,230 465,40 476,761 477,1281
478,440 479,90 480,10 490,30
491,60 492,20 504,10 505,20
506,10 518,10 519,10 520,10
532,10 533,10 534,10 546,10
547,10 548,10 561,10 562,10
##END=
