##TITLE=Benzene, 1,1'-tetradecylidenebis-
##JCAMP-DX=4.24
##DATA TYPE=MASS SPECTRUM
##OWNER=NIST Mass Spectrometry Data Center
Collection (C) 2014 copyright by the U.S. Secretary of Commerce
on behalf of the United States of America. All rights reserved.
##CAS REGISTRY NO=55268-63-8
##$NIST MASS SPEC NO=15906
##MOLFORM=C26 H38
##MW=350
##$NIST SOURCE=MSDC
##XUNITS=M/Z
##YUNITS=RELATIVE INTENSITY
##XFACTOR=1
##YFACTOR=1
##FIRSTX=37
##LASTX=352
##FIRSTY=10
##MAXX=352
##MINX=37
##MAXY=9999
##MINY=10
##NPOINTS=186
##PEAK TABLE=(XY..XY)
37,10 38,10 39,230 40,40
41,1001 42,230 43,1251 44,50
45,10 49,10 50,40 51,130
52,20 53,60 54,50 55,440
56,160 57,420 58,30 59,10
60,10 61,10 62,10 63,30
64,10 65,60 66,10 67,60
68,40 69,140 70,70 71,130
72,10 73,10 74,10 75,10
76,20 77,240 78,50 79,20
80,10 81,30 82,20 83,70
84,30 85,70 86,10 87,10
88,10 89,30 90,10 91,831
92,70 93,10 94,20 95,30
96,20 97,30 98,30 99,10
100,10 101,10 102,30 103,120
104,70 105,390 106,30 107,10
108,10 109,10 110,10 111,10
112,10 113,10 114,10 115,200
116,40 117,110 118,40 119,20
120,60 121,10 122,10 123,10
124,10 125,10 126,10 127,20
128,70 129,40 130,10 131,40
132,10 133,10 134,10 135,10
136,10 137,10 138,10 139,20
140,10 141,40 142,10 143,10
144,10 145,10 146,10 147,10
150,10 151,30 152,350 153,60
154,10 155,10 156,10 157,10
158,10 159,10 160,10 161,10
162,10 163,10 164,20 165,611
166,280 167,9999 168,1461 169,100
170,10 171,10 173,10 174,10
175,10 176,10 177,10 178,70
179,70 180,180 181,80 182,80
183,20 184,10 189,10 190,10
191,20 192,20 193,220 194,50
195,10 196,10 197,70 198,10
202,10 203,10 204,10 205,50
206,20 207,10 208,10 209,10
210,10 215,10 216,10 217,10
218,10 219,10 220,10 221,10
222,10 223,10 231,10 232,10
233,10 242,10 243,10 244,10
334,10 335,10 336,10 344,10
346,10 348,40 349,10 350,170
351,30 352,10
##END=
