##TITLE=Eicosane, 2,6,10,14,19-pentamethyl-
##JCAMP-DX=4.24
##DATA TYPE=MASS SPECTRUM
##OWNER=NIST Mass Spectrometry Data Center
Collection (C) 2014 copyright by the U.S. Secretary of Commerce
on behalf of the United States of America. All rights reserved.
##CAS REGISTRY NO=55268-60-5
##$NIST MASS SPEC NO=15949
##MOLFORM=C25 H52
##MW=352
##$NIST SOURCE=MSDC
##XUNITS=M/Z
##YUNITS=RELATIVE INTENSITY
##XFACTOR=1
##YFACTOR=1
##FIRSTX=55
##LASTX=354
##FIRSTY=2271
##MAXX=354
##MINX=55
##MAXY=9999
##MINY=37
##NPOINTS=78
##PEAK TABLE=(XY..XY)
55,2271 56,2271 57,9999 58,549
67,183 68,293 69,1758 70,1465
71,9999 72,476 83,110 84,879
85,916 86,6336 87,440 95,366
96,952 97,586 98,3186 99,183
111,733 112,1758 113,3296 114,256
125,366 126,1575 127,2820 128,256
139,73 140,366 141,1392 142,73
154,366 155,1099 156,110 167,220
168,366 169,916 170,73 182,1172
183,2051 184,293 196,842 197,1648
198,256 210,73 211,293 212,73
224,293 225,403 226,73 238,256
239,366 240,73 252,549 253,842
254,147 266,440 267,879 268,37
280,73 281,110 282,37 294,37
295,37 308,73 309,220 310,37
323,73 324,147 325,37 336,37
337,256 338,73 351,37 352,659
353,183 354,37
##END=
