##TITLE=Heneicosane, 11-(2,2-dimethylpropyl)-
##JCAMP-DX=4.24
##DATA TYPE=MASS SPECTRUM
##OWNER=NIST Mass Spectrometry Data Center
Collection (C) 2014 copyright by the U.S. Secretary of Commerce
on behalf of the United States of America. All rights reserved.
##CAS REGISTRY NO=55282-10-5
##$NIST MASS SPEC NO=16317
##MOLFORM=C26 H54
##MW=366
##$NIST SOURCE=MSDC
##XUNITS=M/Z
##YUNITS=RELATIVE INTENSITY
##XFACTOR=1
##YFACTOR=1
##FIRSTX=12
##LASTX=366
##FIRSTY=30
##MAXX=366
##MINX=12
##MAXY=9999
##MINY=10
##NPOINTS=127
##PEAK TABLE=(XY..XY)
12,30 13,50 15,300 16,240
24,30 25,100 26,561 27,1471
29,1601 30,70 36,20 37,100
38,160 39,1181 40,280 41,3633
42,1091 43,3293 44,90 49,20
50,80 51,90 52,40 53,240
54,310 55,2072 56,5495 57,9999
58,440 65,20 66,20 67,220
68,150 69,1001 70,561 71,1511
72,80 77,20 78,10 79,30
80,10 81,120 82,130 83,671
84,280 85,951 86,60 90,10
91,10 92,10 93,10 94,10
95,70 96,60 97,370 98,130
99,260 100,20 109,20 110,20
111,170 112,70 113,190 114,20
123,10 124,20 125,60 126,70
127,150 128,10 137,10 138,10
139,30 140,50 141,120 142,10
152,10 153,10 154,40 155,100
156,10 166,90 167,170 168,210
169,120 170,10 180,10 181,10
182,180 183,120 184,10 194,10
195,10 196,10 197,40 198,10
208,10 209,20 210,10 211,40
212,10 223,10 224,80 225,170
226,30 238,10 239,30 240,10
252,10 253,20 254,10 266,10
267,10 280,10 281,10 294,30
295,70 296,10 308,510 309,661
310,140 311,20 351,170 352,50
353,10 365,10 366,10
##END=
