##TITLE=Hexadecane, 8-hexyl-8-pentyl-
##JCAMP-DX=4.24
##DATA TYPE=MASS SPECTRUM
##OWNER=NIST Mass Spectrometry Data Center
Collection (C) 2014 copyright by the U.S. Secretary of Commerce
on behalf of the United States of America. All rights reserved.
##CAS REGISTRY NO=55282-29-6
##$NIST MASS SPEC NO=16597
##MOLFORM=C27 H56
##MW=380
##$NIST SOURCE=MSDC
##XUNITS=M/Z
##YUNITS=RELATIVE INTENSITY
##XFACTOR=1
##YFACTOR=1
##FIRSTX=36
##LASTX=312
##FIRSTY=20
##MAXX=312
##MINX=36
##MAXY=9999
##MINY=10
##NPOINTS=205
##PEAK TABLE=(XY..XY)
36,20 37,40 38,50 39,601
40,160 41,4594 42,1321 43,9699
44,330 45,20 46,10 47,10
48,10 49,10 50,30 51,40
52,20 53,240 54,270 55,4324
56,1952 57,9999 58,460 59,10
60,10 61,10 62,10 63,10
64,10 65,50 66,40 67,591
68,330 69,2712 70,691 71,6546
72,380 73,10 74,10 75,10
76,10 77,50 78,20 79,110
80,30 81,330 82,150 83,1461
84,330 85,4944 86,350 87,20
88,10 89,10 90,10 91,40
92,10 93,40 94,20 95,190
96,100 97,941 98,200 99,1561
100,130 101,10 102,10 103,10
105,10 106,10 107,10 108,10
109,70 110,60 111,480 112,260
113,1141 114,110 115,10 116,10
117,10 119,10 120,10 121,10
122,10 123,30 124,40 125,210
126,160 127,871 128,100 129,10
130,10 131,10 132,10 133,10
134,10 135,10 136,10 137,20
138,30 139,110 140,120 141,681
142,80 143,10 144,10 145,10
146,10 147,10 148,10 149,10
150,10 151,20 152,10 153,40
154,80 155,571 156,70 157,10
158,10 159,10 160,10 161,10
162,10 163,10 164,10 165,10
166,20 167,40 168,50 169,480
170,70 171,10 172,10 173,10
174,10 175,10 176,10 177,10
178,10 179,10 180,10 181,40
182,100 183,450 184,70 185,10
186,10 187,10 188,10 193,10
194,10 195,40 196,100 197,410
198,60 199,10 203,10 205,10
206,10 207,10 208,10 209,20
210,120 211,350 212,60 213,10
222,10 223,20 224,50 225,250
226,40 227,10 238,40 239,140
240,20 241,10 252,10 253,60
254,10 265,10 266,130 267,1661
268,470 269,50 270,10 279,10
280,140 281,1932 282,430 283,50
284,10 293,20 294,120 295,1712
296,400 297,50 298,10 307,10
308,100 309,1591 310,400 311,50
312,10
##END=
