##TITLE=Tetracosane, 5-ethyl-5-methyl-
##JCAMP-DX=4.24
##DATA TYPE=MASS SPECTRUM
##OWNER=NIST Mass Spectrometry Data Center
Collection (C) 2014 copyright by the U.S. Secretary of Commerce
on behalf of the United States of America. All rights reserved.
##CAS REGISTRY NO=55282-30-9
##$NIST MASS SPEC NO=16596
##MOLFORM=C27 H56
##MW=380
##$NIST SOURCE=MSDC
##XUNITS=M/Z
##YUNITS=RELATIVE INTENSITY
##XFACTOR=1
##YFACTOR=1
##FIRSTX=36
##LASTX=366
##FIRSTY=20
##MAXX=366
##MINX=36
##MAXY=9999
##MINY=10
##NPOINTS=210
##PEAK TABLE=(XY..XY)
36,20 37,30 38,40 39,540
40,140 41,4094 42,961 43,8558
44,300 45,40 46,10 47,10
48,10 49,10 50,30 51,30
52,20 53,210 54,270 55,3783
56,1531 57,9999 58,460 59,20
60,10 61,10 62,10 63,10
64,10 65,30 66,30 67,350
68,230 69,2042 70,2152 71,7096
72,400 73,20 74,10 75,10
76,10 77,30 78,10 79,50
80,20 81,200 82,160 83,1491
84,440 85,2702 86,190 87,10
88,10 89,10 90,10 91,20
92,10 93,20 94,10 95,100
96,70 97,721 98,190 99,821
100,70 101,10 102,10 103,10
104,10 105,10 106,10 107,10
108,10 109,40 110,30 111,310
112,2112 113,5885 114,530 115,30
116,10 117,10 119,10 120,10
121,10 122,10 123,20 124,10
125,100 126,40 127,430 128,50
129,10 130,10 131,10 132,10
133,10 134,10 135,10 136,10
137,10 138,10 139,40 140,20
141,340 142,40 143,10 144,10
145,10 146,10 147,10 151,10
152,10 153,20 154,10 155,280
156,40 157,10 158,10 163,10
164,10 165,10 166,10 167,20
168,10 169,240 170,30 171,10
177,10 179,10 180,10 181,10
182,10 183,200 184,30 185,10
193,10 194,10 195,10 196,10
197,180 198,30 199,10 208,10
209,10 210,10 211,160 212,30
213,10 222,10 223,10 224,10
225,140 226,30 227,10 237,10
238,10 239,130 240,20 251,10
252,10 253,130 254,30 255,10
264,10 265,10 266,10 267,110
268,30 269,10 270,10 271,10
272,10 273,10 274,10 275,10
276,10 277,10 278,10 279,10
280,10 281,70 282,20 283,10
292,30 293,70 294,30 295,40
296,10 308,30 309,30 310,10
320,10 321,10 322,180 323,1011
324,260 325,30 326,10 336,10
337,10 338,10 349,10 350,90
351,1151 352,320 353,50 354,10
365,50 366,10
##END=
