##TITLE=Docosane, 7-butyl-
##JCAMP-DX=4.24
##DATA TYPE=MASS SPECTRUM
##OWNER=NIST Mass Spectrometry Data Center
Collection (C) 2014 copyright by the U.S. Secretary of Commerce
on behalf of the United States of America. All rights reserved.
##CAS REGISTRY NO=55282-15-0
##$NIST MASS SPEC NO=16325
##MOLFORM=C26 H54
##MW=366
##$NIST SOURCE=MSDC
##XUNITS=M/Z
##YUNITS=RELATIVE INTENSITY
##XFACTOR=1
##YFACTOR=1
##FIRSTX=37
##LASTX=338
##FIRSTY=10
##MAXX=338
##MINX=37
##MAXY=9999
##MINY=10
##NPOINTS=153
##PEAK TABLE=(XY..XY)
37,10 38,10 39,370 40,90
41,4124 42,1031 43,9999 44,330
45,10 50,10 51,10 52,10
53,160 54,330 55,3443 56,1521
57,9388 58,420 59,10 62,10
65,20 66,20 67,310 68,260
69,1772 70,881 71,5425 72,300
73,10 76,10 77,20 78,10
79,30 80,10 81,140 82,210
83,1131 84,520 85,4084 86,270
87,10 91,10 92,10 93,10
94,10 95,60 96,110 97,741
98,270 99,961 100,70 101,10
104,10 105,10 106,10 107,10
109,20 110,50 111,350 112,160
113,530 114,50 115,10 116,10
117,20 118,10 119,10 123,10
124,30 125,160 126,150 127,270
128,30 129,10 130,10 137,10
138,20 139,40 140,60 141,190
142,20 143,10 151,10 152,10
153,30 154,1141 155,631 156,70
157,10 166,10 167,20 168,50
169,120 170,20 180,10 181,10
182,30 183,100 184,10 194,10
195,10 196,20 197,80 198,10
199,10 200,10 201,10 202,10
203,10 208,10 209,10 210,20
211,60 212,10 221,10 222,10
223,10 224,10 225,50 226,10
236,10 237,10 238,10 239,40
240,10 250,10 251,10 252,20
253,30 254,10 265,10 266,10
267,20 268,10 280,290 281,330
282,60 283,10 284,10 285,10
294,20 295,30 296,10 308,230
309,390 310,90 311,10 322,10
323,10 324,10 336,10 337,10
338,10
##END=
