##TITLE=Octadecane, 5,14-dibutyl-
##JCAMP-DX=4.24
##DATA TYPE=MASS SPECTRUM
##OWNER=NIST Mass Spectrometry Data Center
Collection (C) 2014 copyright by the U.S. Secretary of Commerce
on behalf of the United States of America. All rights reserved.
##CAS REGISTRY NO=55282-13-8
##$NIST MASS SPEC NO=16320
##MOLFORM=C26 H54
##MW=366
##$NIST SOURCE=MSDC
##XUNITS=M/Z
##YUNITS=RELATIVE INTENSITY
##XFACTOR=1
##YFACTOR=1
##FIRSTX=37
##LASTX=368
##FIRSTY=20
##MAXX=368
##MINX=37
##MAXY=9999
##MINY=10
##NPOINTS=240
##PEAK TABLE=(XY..XY)
37,20 38,30 39,530 40,110
41,4664 42,891 43,9999 44,350
45,10 46,10 47,10 48,10
49,10 50,20 51,30 52,20
53,230 54,340 55,4084 56,1661
57,180 58,571 59,30 60,10
61,10 62,10 63,10 64,10
65,50 66,30 67,450 68,290
69,2082 70,1191 71,8478 72,490
73,20 74,10 75,10 76,10
77,70 78,20 79,100 80,40
81,240 82,270 83,1361 84,631
85,5325 86,360 87,10 89,10
90,10 91,60 92,30 93,130
94,30 95,140 96,150 97,971
98,500 99,1221 100,120 101,30
102,10 103,10 104,10 105,30
106,10 107,20 108,10 109,60
110,50 111,320 112,120 113,761
114,80 115,10 116,10 117,10
118,10 119,10 120,10 121,40
122,10 123,30 124,30 125,160
126,1682 127,1011 128,100 129,10
130,10 131,10 132,10 133,10
134,10 135,10 136,20 137,20
138,20 139,70 140,390 141,500
142,70 143,10 144,10 145,10
146,10 147,10 148,10 149,10
150,10 151,10 152,10 153,50
154,40 155,300 156,40 157,10
158,10 159,10 160,10 161,10
162,10 163,10 164,10 165,10
166,10 167,30 168,30 169,240
170,30 171,10 172,10 173,10
174,10 175,10 176,10 177,10
178,10 179,10 180,10 181,30
182,30 183,190 184,30 185,10
187,10 188,10 189,10 190,10
191,10 192,10 193,10 194,10
195,10 196,20 197,150 198,20
199,10 200,10 201,10 202,10
203,10 204,10 205,10 206,10
207,10 208,20 209,70 210,20
211,130 212,20 213,10 221,10
222,10 223,10 224,40 225,110
226,20 227,10 234,10 235,10
236,10 237,10 238,20 239,80
240,20 241,10 249,10 250,10
251,60 252,30 253,50 254,10
255,10 256,10 257,10 263,10
264,10 265,10 266,180 267,80
268,10 269,10 277,10 278,10
279,10 280,10 281,10 282,10
294,10 295,20 296,10 305,10
306,10 307,10 308,310 309,861
310,200 311,30 312,10 318,10
319,10 320,10 321,10 322,10
323,20 324,10 325,10 334,10
335,10 336,10 337,10 338,10
364,10 366,10 367,10 368,10
##END=
