##TITLE=Tetracosane, 3-ethyl-
##JCAMP-DX=4.24
##DATA TYPE=MASS SPECTRUM
##ORIGIN=CONTINENTAL OIL CO., PONCA CITY, OKLA, USA
##OWNER=NIST Mass Spectrometry Data Center
Collection (C) 2014 copyright by the U.S. Secretary of Commerce
on behalf of the United States of America. All rights reserved.
##CAS REGISTRY NO=55282-17-2
##$NIST MASS SPEC NO=34742
##MOLFORM=C26 H54
##MW=366
##$NIST SOURCE=MSDC
##XUNITS=M/Z
##YUNITS=RELATIVE INTENSITY
##XFACTOR=1
##YFACTOR=1
##FIRSTX=25
##LASTX=366
##FIRSTY=7
##MAXX=366
##MINX=25
##MAXY=9999
##MINY=2
##NPOINTS=159
##PEAK TABLE=(XY..XY)
25,7 26,65 27,858 28,206
29,2250 30,59 36,12 37,14
38,22 39,375 40,120 41,3530
42,975 43,9999 44,347 45,16
50,15 51,22 52,17 53,161
54,287 55,3353 56,1206 57,7427
58,340 59,9 63,11 65,26
66,33 67,304 68,256 69,1712
70,3309 71,6397 72,356 73,12
76,10 77,25 78,9 79,40
80,16 81,135 82,168 83,1015
84,444 85,2197 86,147 87,5
91,36 92,8 93,9 94,6
95,68 96,94 97,642 98,178
99,482 100,40 101,4 104,15
105,23 106,4 107,5 108,3
109,28 110,43 111,265 112,98
113,326 114,30 115,5 117,6
118,3 119,8 123,12 124,24
125,104 126,58 127,240 128,26
131,3 133,6 137,7 138,17
139,44 140,38 141,185 142,20
151,7 152,15 153,27 154,29
155,150 156,17 165,3 166,12
167,22 168,26 169,129 170,20
180,10 181,16 182,19 183,109
184,15 194,9 195,13 196,17
197,95 198,15 208,8 209,12
210,16 211,89 212,18 222,8
223,10 224,13 225,79 226,13
236,11 237,12 238,15 239,73
240,14 250,6 251,8 252,12
253,66 254,12 264,6 265,7
266,16 267,56 268,11 278,3
279,6 280,13 281,42 282,10
292,3 293,6 294,36 295,53
296,12 307,6 308,27 309,19
310,4 322,23 323,50 324,12
336,912 337,2149 338,541 351,2
364,2 365,2 366,2
##END=
