##TITLE=Benzene, 1-bromo-2-methyl-3-nitro-
##JCAMP-DX=4.24
##DATA TYPE=MASS SPECTRUM
##ORIGIN=Japan AIST/NIMC Database- Spectrum MS-NW-9913
##OWNER=NIST Mass Spectrometry Data Center
Collection (C) 2014 copyright by the U.S. Secretary of Commerce
on behalf of the United States of America. All rights reserved.
##CAS REGISTRY NO=55289-35-5
##$NIST MASS SPEC NO=239118
##MOLFORM=C7 H6 Br N O2
##MW=215
##$NIST SOURCE=MSDC
##XUNITS=M/Z
##YUNITS=RELATIVE INTENSITY
##XFACTOR=1
##YFACTOR=1
##FIRSTX=26
##LASTX=219
##FIRSTY=50
##MAXX=219
##MINX=26
##MAXY=9999
##MINY=10
##NPOINTS=126
##PEAK TABLE=(XY..XY)
26,50 27,99 28,80 29,40
30,129 31,20 36,10 37,129
38,319 39,1109 40,129 41,50
42,10 43,139 44,30 45,40
46,10 48,10 49,80 50,519
51,849 52,249 53,70 55,10
57,20 58,10 59,10 60,20
61,269 62,869 63,2999 64,829
65,229 66,20 73,60 74,269
75,439 76,209 77,1079 78,1699
79,149 80,70 81,30 82,70
83,50 84,30 85,109 86,229
87,219 88,169 89,5469 90,9999
91,3029 92,519 93,40 95,10
99,50 101,10 102,10 103,10
104,30 105,109 106,229 107,40
108,20 111,239 112,209 113,20
114,10 116,10 117,149 118,60
119,2359 120,199 121,30 125,20
126,40 127,10 128,20 129,20
130,20 131,40 133,20 139,30
140,50 141,20 142,20 143,509
144,50 145,469 146,60 148,10
154,99 155,40 156,70 157,90
158,40 159,50 160,10 167,10
168,109 169,959 170,2039 171,1169
172,1899 173,229 174,20 175,40
177,20 182,10 183,10 184,20
185,70 186,20 187,60 197,10
198,7419 199,629 200,7279 201,619
202,30 215,1419 216,119 217,1379
218,109 219,10
##END=
