##TITLE=Carbosulfan
##JCAMP-DX=4.24
##DATA TYPE=MASS SPECTRUM
##ORIGIN=NIST Mass Spectrometry Data Center, 1998.
##OWNER=NIST Mass Spectrometry Data Center
Collection (C) 2014 copyright by the U.S. Secretary of Commerce
on behalf of the United States of America. All rights reserved.
##CAS REGISTRY NO=55285-14-8
##$NIST MASS SPEC NO=290463
##MOLFORM=C20 H32 N2 O3 S
##MW=380
##$NIST SOURCE=MSDC
##XUNITS=M/Z
##YUNITS=RELATIVE INTENSITY
##XFACTOR=1
##YFACTOR=1
##FIRSTX=15
##LASTX=381
##FIRSTY=10
##MAXX=381
##MINX=15
##MAXY=9999
##MINY=10
##NPOINTS=166
##PEAK TABLE=(XY..XY)
15,10 26,10 27,160 29,600
30,210 31,10 38,10 39,290
40,40 41,1310 42,420 43,530
44,240 45,50 46,20 47,30
48,10 49,10 50,40 51,280
52,60 53,160 54,50 55,630
56,270 57,1270 58,100 59,40
60,200 61,310 62,950 63,100
64,80 65,290 66,90 67,70
68,30 69,40 70,200 71,30
72,90 73,120 74,40 75,140
76,1270 77,460 78,180 79,310
80,40 81,30 82,20 83,20
84,480 85,60 86,270 87,50
88,70 89,70 90,60 91,880
92,140 93,100 94,70 95,320
96,30 97,50 98,50 99,50
100,10 101,10 102,130 103,310
104,270 105,330 106,80 107,1320
108,160 109,40 110,30 111,30
112,40 113,10 114,10 115,420
116,1770 117,680 118,8829 119,800
120,530 121,150 122,130 123,250
124,30 125,230 126,240 127,150
128,310 129,50 130,70 131,250
132,90 133,110 134,120 135,2200
136,230 137,40 138,10 139,40
140,100 142,10 143,10 144,50
145,400 146,140 147,10 148,370
149,490 150,50 151,50 152,60
153,30 154,10 155,10 158,80
159,360 160,9999 161,1160 162,690
163,4370 164,1970 165,270 166,30
167,590 174,10 175,10 176,20
177,50 178,20 179,20 180,10
181,10 189,30 190,30 191,10
192,10 193,10 194,30 195,180
196,40 197,10 204,10 219,10
220,10 221,10 222,10 223,10
251,10 252,20 323,700 324,150
325,50 326,10 337,30 338,10
380,40 381,10
##END=
