##TITLE=Eicosane, 10-hexyl-10-methyl-
##JCAMP-DX=4.24
##DATA TYPE=MASS SPECTRUM
##OWNER=NIST Mass Spectrometry Data Center
Collection (C) 2014 copyright by the U.S. Secretary of Commerce
on behalf of the United States of America. All rights reserved.
##CAS REGISTRY NO=55282-32-1
##$NIST MASS SPEC NO=16594
##MOLFORM=C27 H56
##MW=380
##$NIST SOURCE=MSDC
##XUNITS=M/Z
##YUNITS=RELATIVE INTENSITY
##XFACTOR=1
##YFACTOR=1
##FIRSTX=36
##LASTX=367
##FIRSTY=20
##MAXX=367
##MINX=36
##MAXY=9999
##MINY=10
##NPOINTS=189
##PEAK TABLE=(XY..XY)
36,20 37,30 38,50 39,611
40,170 41,4454 42,1191 43,9449
44,320 45,20 46,10 47,10
48,10 49,10 50,20 51,30
52,20 53,230 54,240 55,4134
56,2402 57,9999 58,460 59,10
60,10 61,10 62,10 63,10
64,10 65,30 66,30 67,400
68,340 69,2452 70,901 71,6226
72,360 73,10 74,10 75,10
76,10 77,30 78,10 79,70
80,30 81,260 82,150 83,1221
84,330 85,4474 86,310 87,10
88,10 89,10 91,20 92,10
93,20 94,10 95,130 96,60
97,761 98,190 99,1381 100,110
101,10 102,10 103,10 104,10
105,10 106,10 107,10 108,10
109,50 110,90 111,550 112,190
113,1001 114,100 115,10 116,10
117,10 118,10 119,10 120,10
121,10 122,10 123,20 124,30
125,120 126,290 127,841 128,90
129,10 130,10 131,10 132,10
133,10 134,10 135,10 136,10
137,10 138,10 139,50 140,80
141,641 142,80 143,10 145,10
149,10 150,10 151,10 152,50
153,160 154,90 155,561 156,70
157,10 163,10 164,10 165,10
166,40 167,130 168,190 169,530
170,70 171,10 172,10 173,10
179,10 180,10 181,10 182,140
183,430 184,60 185,10 193,10
194,10 195,10 196,10 197,280
198,40 199,10 207,10 208,10
209,10 210,20 211,170 212,30
213,10 215,10 216,10 217,10
223,10 224,10 225,90 226,20
227,10 237,10 238,300 239,2172
240,400 241,40 242,10 251,10
252,250 253,1922 254,370 255,30
256,10 266,10 267,20 268,10
279,10 280,10 281,20 282,10
292,10 293,10 294,220 295,1812
296,430 297,50 298,10 309,10
310,10 323,10 365,50 366,10
367,10
##END=
