##TITLE=Nicotinic acid hydrazide
##JCAMP-DX=4.24
##DATA TYPE=MASS SPECTRUM
##ORIGIN=MASS SPECTROMETRY CENTER, UNIV. OF UTAH, ALDRICH 10742-5
##OWNER=NIST Mass Spectrometry Data Center
Collection (C) 2014 copyright by the U.S. Secretary of Commerce
on behalf of the United States of America. All rights reserved.
##CAS REGISTRY NO=553-53-7
##$NIST MASS SPEC NO=52307
##MOLFORM=C6 H7 N3 O
##MW=137
##$NIST SOURCE=MSDC
##XUNITS=M/Z
##YUNITS=RELATIVE INTENSITY
##XFACTOR=1
##YFACTOR=1
##FIRSTX=16
##LASTX=138
##FIRSTY=67
##MAXX=138
##MINX=16
##MAXY=9999
##MINY=4
##NPOINTS=34
##PEAK TABLE=(XY..XY)
16,67 17,26 25,4 26,278
27,567 28,481 29,244 30,137
31,578 32,74 36,65 37,155
38,238 39,272 40,11 43,40
49,218 50,1039 51,3498 52,722
53,326 64,5 75,112 76,182
77,268 78,8763 79,767 104,150
106,9999 107,777 108,32 122,84
137,2907 138,311
##END=
