##TITLE=Bis(2-methoxyphenyl) carbonate
##JCAMP-DX=4.24
##DATA TYPE=MASS SPECTRUM
##ORIGIN=NIST Mass Spectrometry Data Center
##OWNER=NIST Mass Spectrometry Data Center
Collection (C) 2014 copyright by the U.S. Secretary of Commerce
on behalf of the United States of America. All rights reserved.
##CAS REGISTRY NO=553-17-3
##$NIST MASS SPEC NO=343351
##MOLFORM=C15 H14 O5
##MW=274
##$NIST SOURCE=MSDC
##XUNITS=M/Z
##YUNITS=RELATIVE INTENSITY
##XFACTOR=1
##YFACTOR=1
##FIRSTX=12
##LASTX=276
##FIRSTY=40
##MAXX=276
##MINX=12
##MAXY=9999
##MINY=10
##NPOINTS=107
##PEAK TABLE=(XY..XY)
12,40 14,20 15,410 16,10
18,50 26,440 27,230 28,120
29,130 31,120 37,90 38,480
39,1021 41,1521 42,70 43,90
44,260 50,881 51,1912 52,3273
53,520 54,170 55,340 59,40
61,50 62,230 63,1261 64,1641
65,2042 66,200 67,611 68,50
69,70 73,20 74,90 75,110
77,9999 78,911 79,4824 80,1151
81,240 92,3683 93,550 95,2783
96,240 97,20 105,40 107,480
108,90 109,380 110,30 115,100
116,40 118,40 121,550 122,350
123,2032 124,1051 125,90 127,150
128,370 129,120 130,10 131,110
132,10 135,40 136,60 138,6456
139,631 140,50 141,90 142,20
143,20 144,170 145,60 151,1431
152,160 153,50 155,240 156,70
157,60 158,10 159,80 168,30
169,110 170,40 171,140 172,120
173,10 181,20 183,120 184,1231
185,190 186,30 187,240 188,30
197,20 198,10 199,70 200,130
201,30 214,10 215,90 230,20
274,3683 275,621 276,80
##END=
