##TITLE=Ethanedioic acid, dimethyl ester
##JCAMP-DX=4.24
##DATA TYPE=MASS SPECTRUM
##ORIGIN=Japan AIST/NIMC Database- Spectrum MS-NW-5045
##OWNER=NIST Mass Spectrometry Data Center
Collection (C) 2014 copyright by the U.S. Secretary of Commerce
on behalf of the United States of America. All rights reserved.
##CAS REGISTRY NO=553-90-2
##$NIST MASS SPEC NO=228095
##MOLFORM=C4 H6 O4
##MW=118
##$NIST SOURCE=MSDC
##XUNITS=M/Z
##YUNITS=RELATIVE INTENSITY
##XFACTOR=1
##YFACTOR=1
##FIRSTX=15
##LASTX=119
##FIRSTY=7459
##MAXX=119
##MINX=15
##MAXY=9999
##MINY=10
##NPOINTS=28
##PEAK TABLE=(XY..XY)
15,7459 16,129 17,10 18,50
26,20 27,20 28,1059 29,1929
30,639 31,639 32,50 33,109
42,20 43,409 44,889 45,3289
46,99 47,10 56,50 58,10
59,9999 60,379 61,70 62,10
74,20 90,20 118,249 119,10
##END=
