##TITLE=2-Coumaranone
##JCAMP-DX=4.24
##DATA TYPE=MASS SPECTRUM
##ORIGIN=Chuck Anderson, Aldrich Chemical Co.
##OWNER=NIST Mass Spectrometry Data Center
Collection (C) 2014 copyright by the U.S. Secretary of Commerce
on behalf of the United States of America. All rights reserved.
##CAS REGISTRY NO=553-86-6
##$NIST MASS SPEC NO=107299
##MOLFORM=C8 H6 O2
##MW=134
##$NIST SOURCE=MSDC
##XUNITS=M/Z
##YUNITS=RELATIVE INTENSITY
##XFACTOR=1
##YFACTOR=1
##FIRSTX=12
##LASTX=136
##FIRSTY=13
##MAXX=136
##MINX=12
##MAXY=9999
##MINY=3
##NPOINTS=62
##PEAK TABLE=(XY..XY)
12,13 13,13 14,22 15,19
18,3 25,39 26,303 27,308
28,145 29,58 31,19 32,8
36,23 37,307 38,651 39,1176
40,63 41,26 42,56 43,49
44,17 45,14 48,18 49,165
50,1192 51,1869 52,1328 53,341
54,46 55,37 60,35 61,179
62,294 63,635 64,103 65,25
66,29 67,263 68,15 73,107
74,357 75,171 76,270 77,1659
78,9999 79,729 80,30 84,23
85,50 86,60 87,37 89,383
90,141 91,17 105,803 106,5188
107,388 108,35 133,47 134,7646
135,729 136,72
##END=
