##TITLE=Benzenepropanoic acid, .alpha.-hydroxy-4-methoxy-, methyl ester
##JCAMP-DX=4.24
##DATA TYPE=MASS SPECTRUM
##ORIGIN=INST.OF CLINICAL BIOCHEM,RIKSHOSP,UNIV.OF OSLO,E.JELLUM,ET.A
##OWNER=NIST Mass Spectrometry Data Center
Collection (C) 2014 copyright by the U.S. Secretary of Commerce
on behalf of the United States of America. All rights reserved.
##CAS REGISTRY NO=55301-58-1
##$NIST MASS SPEC NO=24714
##MOLFORM=C11 H14 O4
##MW=210
##$NIST SOURCE=MSDC
##XUNITS=M/Z
##YUNITS=RELATIVE INTENSITY
##XFACTOR=1
##YFACTOR=1
##FIRSTX=27
##LASTX=210
##FIRSTY=700
##MAXX=210
##MINX=27
##MAXY=9999
##MINY=500
##NPOINTS=28
##PEAK TABLE=(XY..XY)
27,700 29,1000 31,600 33,800
39,1100 41,800 51,1100 52,900
53,700 55,600 59,900 63,700
64,500 65,1100 77,3100 78,2600
79,1100 89,800 90,800 91,2500
92,700 107,800 108,600 121,9999
122,2900 151,1600 192,500 210,1900
##END=
