##TITLE=Docosane, 9-octyl-
##JCAMP-DX=4.24
##DATA TYPE=MASS SPECTRUM
##OWNER=NIST Mass Spectrometry Data Center
Collection (C) 2014 copyright by the U.S. Secretary of Commerce
on behalf of the United States of America. All rights reserved.
##CAS REGISTRY NO=55319-83-0
##$NIST MASS SPEC NO=17349
##MOLFORM=C30 H62
##MW=422
##$NIST SOURCE=MSDC
##XUNITS=M/Z
##YUNITS=RELATIVE INTENSITY
##XFACTOR=1
##YFACTOR=1
##FIRSTX=36
##LASTX=424
##FIRSTY=10
##MAXX=424
##MINX=36
##MAXY=9999
##MINY=10
##NPOINTS=232
##PEAK TABLE=(XY..XY)
36,10 37,20 38,60 39,741
40,160 41,4584 42,1261 43,9999
44,320 45,10 49,10 50,30
51,40 52,20 53,220 54,460
55,4094 56,2132 57,9078 58,410
59,20 62,10 63,10 64,10
65,40 66,40 67,751 68,540
69,2602 70,1151 71,5045 72,270
73,10 77,50 78,20 79,140
80,60 81,530 82,410 83,1942
84,601 85,3413 86,210 87,10
91,60 92,20 93,70 94,40
95,320 96,290 97,1351 98,410
99,961 100,70 101,10 103,10
104,10 105,40 106,10 107,30
108,20 109,130 110,140 111,681
112,240 113,631 114,60 115,10
116,10 117,10 118,10 119,30
120,10 121,20 122,10 123,50
124,70 125,320 126,190 127,460
128,50 129,10 130,10 131,10
132,10 133,10 134,10 135,10
136,10 137,40 138,100 139,330
140,140 141,380 142,40 143,10
144,10 145,10 146,10 147,10
148,10 149,10 150,10 151,20
152,70 153,90 154,320 155,380
156,50 157,10 159,10 160,10
161,10 163,10 164,10 165,20
166,40 167,70 168,80 169,230
170,30 171,10 173,10 175,10
176,10 177,10 178,10 179,20
180,30 181,60 182,70 183,180
184,30 185,10 189,10 190,10
191,10 192,10 193,20 194,30
195,40 196,60 197,140 198,20
199,10 203,10 204,10 205,10
206,10 207,10 208,40 209,70
210,80 211,110 212,20 215,10
217,10 219,10 221,10 222,20
223,20 224,110 225,130 226,20
227,10 235,10 236,20 237,30
238,901 239,801 240,130 241,10
245,10 247,10 249,10 250,10
251,20 252,80 253,90 254,20
255,10 263,10 264,10 265,10
266,30 267,40 268,10 277,10
278,10 279,10 280,50 281,30
282,10 291,10 294,40 295,40
296,10 305,10 306,20 307,20
308,991 309,1241 310,320 311,30
320,10 321,10 322,70 323,60
324,20 330,10 333,10 334,10
336,30 337,40 338,10 347,10
348,10 350,10 351,10 352,10
364,10 365,10 379,10 393,10
416,20 417,10 418,10 420,20
421,10 422,50 423,20 424,10
##END=
