##TITLE=1,1'-Biphenyl, 2,2',3,4,5-Pentachloro-
##JCAMP-DX=4.24
##DATA TYPE=MASS SPECTRUM
##ORIGIN=Organic Synthesis Lab, MSU, Moscow.TRC 1301
##OWNER=NIST Mass Spectrometry Data Center
Collection (C) 2014 copyright by the U.S. Secretary of Commerce
on behalf of the United States of America. All rights reserved.
##CAS REGISTRY NO=55312-69-1
##$NIST MASS SPEC NO=326669
##MOLFORM=C12 H5 Cl5
##MW=324
##$NIST SOURCE=MSDC
##XUNITS=M/Z
##YUNITS=RELATIVE INTENSITY
##XFACTOR=1
##YFACTOR=1
##FIRSTX=41
##LASTX=333
##FIRSTY=25
##MAXX=333
##MINX=41
##MAXY=9999
##MINY=18
##NPOINTS=158
##PEAK TABLE=(XY..XY)
41,25 43,31 44,108 47,68
49,100 50,320 51,277 55,30
60,67 61,306 62,207 63,126
67,46 71,39 72,80 73,365
74,501 75,395 76,52 78,78
79,133 80,38 82,23 83,54
84,232 85,285 86,261 87,91
89,18 92,567 93,145 94,36
96,177 97,312 98,379 99,231
100,40 101,58 106,42 107,92
108,271 109,795 110,687 113,54
114,122 115,64 116,26 118,71
119,44 120,156 121,177 122,345
123,239 124,239 125,60 127,32
128,1339 129,1165 130,458 131,57
132,58 133,180 134,125 135,94
136,68 137,48 138,21 141,38
142,47 143,72 144,426 145,500
146,393 147,276 148,288 149,442
150,47 154,27 155,36 156,96
157,105 158,70 159,56 160,64
162,218 163,360 164,222 165,84
166,33 167,39 168,49 169,80
170,64 171,33 172,36 180,19
181,74 182,86 183,354 184,1677
185,273 186,548 187,64 188,25
192,94 193,44 194,105 196,49
203,42 204,42 205,49 207,64
215,29 216,18 217,49 218,557
219,554 220,436 221,330 222,94
223,64 227,33 228,49 229,45
230,41 238,36 240,37 242,27
243,26 252,51 253,131 254,4608
255,683 256,4633 257,645 258,1417
259,212 260,156 288,158 289,2241
290,470 291,2930 292,461 293,1368
294,184 295,315 296,37 297,38
324,6241 325,851 326,9999 327,1421
328,6697 329,804 330,2116 331,296
332,364 333,61
##END=
