##TITLE=Xanthurenic acid, 3TMS derivative
##JCAMP-DX=4.24
##DATA TYPE=MASS SPECTRUM
##ORIGIN=S. MARKEY UNIV. OF COLO. MED. CTR., DENVER, COLORADO, USA
##OWNER=NIST Mass Spectrometry Data Center
Collection (C) 2014 copyright by the U.S. Secretary of Commerce
on behalf of the United States of America. All rights reserved.
##CAS REGISTRY NO=55319-89-6
##$NIST MASS SPEC NO=17345
##MOLFORM=C19 H31 N O4 Si3
##MW=421
##$NIST SOURCE=MSDC
##XUNITS=M/Z
##YUNITS=RELATIVE INTENSITY
##XFACTOR=1
##YFACTOR=1
##FIRSTX=44
##LASTX=422
##FIRSTY=180
##MAXX=422
##MINX=44
##MAXY=9999
##MINY=40
##NPOINTS=47
##PEAK TABLE=(XY..XY)
44,180 45,470 69,340 73,2700
74,250 75,390 77,330 131,100
147,70 188,60 200,110 216,60
229,170 230,130 231,100 232,100
244,120 258,90 274,320 288,180
289,200 290,360 291,100 302,280
303,210 304,340 305,130 306,120
318,470 319,260 333,60 334,160
347,80 348,180 362,150 378,80
392,40 404,190 405,180 406,9999
407,3760 408,1550 409,380 410,140
420,540 421,370 422,160
##END=
