##TITLE=Heneicosane, 11-decyl-
##JCAMP-DX=4.24
##DATA TYPE=MASS SPECTRUM
##OWNER=NIST Mass Spectrometry Data Center
Collection (C) 2014 copyright by the U.S. Secretary of Commerce
on behalf of the United States of America. All rights reserved.
##CAS REGISTRY NO=55320-06-4
##$NIST MASS SPEC NO=17546
##MOLFORM=C31 H64
##MW=436
##$NIST SOURCE=MSDC
##XUNITS=M/Z
##YUNITS=RELATIVE INTENSITY
##XFACTOR=1
##YFACTOR=1
##FIRSTX=12
##LASTX=436
##FIRSTY=10
##MAXX=436
##MINX=12
##MAXY=9999
##MINY=10
##NPOINTS=173
##PEAK TABLE=(XY..XY)
12,10 13,10 15,30 16,10
25,10 26,40 27,480 29,1682
30,40 36,10 37,10 38,10
39,190 40,40 41,2372 42,581
43,7967 44,270 49,10 50,10
51,10 52,10 53,80 54,280
55,2823 56,1341 57,9999 58,440
59,10 65,20 66,30 67,420
68,360 69,2152 70,961 71,5875
72,320 73,10 77,20 78,10
79,50 80,20 81,240 82,320
83,1682 84,540 85,4244 86,270
87,10 91,10 92,10 93,10
94,10 95,120 96,170 97,1131
98,310 99,1151 100,90 101,10
105,10 106,10 107,10 108,10
109,50 110,90 111,550 112,220
113,801 114,80 115,10 116,40
117,10 118,10 119,10 121,10
122,10 123,20 124,60 125,260
126,170 127,601 128,60 129,10
131,10 137,10 138,50 139,130
140,160 141,460 142,50 143,10
145,10 151,10 152,40 153,80
154,90 155,360 156,40 157,10
165,10 166,40 167,100 168,80
169,310 170,40 171,10 179,10
180,30 181,50 182,110 183,270
184,40 185,10 193,10 194,20
195,40 196,50 197,230 198,40
199,10 200,10 201,10 202,10
203,10 204,10 205,10 207,10
208,30 209,40 210,40 211,210
212,40 213,10 221,10 222,20
223,30 224,40 225,170 226,10
227,10 236,10 237,20 238,30
239,120 240,20 242,10 252,30
253,80 254,20 255,10 266,100
267,50 268,10 280,60 281,70
282,10 294,1872 295,2422 296,490
297,50 298,10 308,60 309,80
310,20 311,10 322,20 323,30
324,10 337,20 338,10 435,10
436,10
##END=
