##TITLE=1H-Indene, 1-hexadecyl-2,3-dihydro-
##JCAMP-DX=4.24
##DATA TYPE=MASS SPECTRUM
##ORIGIN=GULF OIL CANADA LIMITED, SHERIDAN PARK, ONTARIO, CANADA.
##OWNER=NIST Mass Spectrometry Data Center
Collection (C) 2014 copyright by the U.S. Secretary of Commerce
on behalf of the United States of America. All rights reserved.
##CAS REGISTRY NO=55334-29-7
##$NIST MASS SPEC NO=23422
##MOLFORM=C25 H42
##MW=342
##$NIST SOURCE=MSDC
##XUNITS=M/Z
##YUNITS=RELATIVE INTENSITY
##XFACTOR=1
##YFACTOR=1
##FIRSTX=14
##LASTX=344
##FIRSTY=22
##MAXX=344
##MINX=14
##MAXY=9999
##MINY=3
##NPOINTS=129
##PEAK TABLE=(XY..XY)
14,22 15,16 26,17 27,283
28,201 29,675 30,16 38,9
39,160 40,31 41,835 42,176
43,1202 44,44 50,9 51,28
52,9 53,56 54,38 55,383
56,132 57,355 58,19 62,6
63,19 64,6 65,38 66,6
67,45 68,20 69,122 70,58
71,77 72,6 74,6 75,10
76,10 77,50 78,23 79,16
80,4 81,15 82,9 83,48
84,17 85,25 86,43 87,4
88,4 89,28 90,9 91,367
92,34 93,4 95,7 96,4
97,19 98,7 99,3 101,6
102,23 103,26 104,22 105,29
106,4 109,3 110,3 111,7
112,6 114,28 115,500 116,508
117,9999 118,1058 119,61 120,4
121,4 125,4 126,6 127,41
128,146 129,172 130,375 131,200
132,32 133,7 134,3 139,4
140,3 141,29 142,22 143,122
144,32 145,20 146,4 152,6
153,6 154,4 155,13 156,6
157,9 158,4 159,4 165,6
166,3 167,4 168,4 169,10
170,3 171,4 172,3 178,4
179,4 180,3 181,5 183,4
191,4 192,3 193,9 194,3
334,4 336,3 338,6 339,3
340,19 341,10 342,344 343,96
344,13
##END=
