##TITLE=Cyclohexane, 1,4-didecyl-
##JCAMP-DX=4.24
##DATA TYPE=MASS SPECTRUM
##OWNER=NIST Mass Spectrometry Data Center
Collection (C) 2014 copyright by the U.S. Secretary of Commerce
on behalf of the United States of America. All rights reserved.
##CAS REGISTRY NO=55334-20-8
##$NIST MASS SPEC NO=16264
##MOLFORM=C26 H52
##MW=364
##$NIST SOURCE=MSDC
##XUNITS=M/Z
##YUNITS=RELATIVE INTENSITY
##XFACTOR=1
##YFACTOR=1
##FIRSTX=12
##LASTX=366
##FIRSTY=20
##MAXX=366
##MINX=12
##MAXY=9999
##MINY=10
##NPOINTS=217
##PEAK TABLE=(XY..XY)
12,20 13,20 14,40 15,120
16,40 17,20 18,70 19,10
20,10 24,10 25,30 26,150
27,1501 28,460 29,3813 30,100
32,10 33,10 34,10 35,10
36,10 37,20 38,40 39,691
40,170 41,6366 42,1051 43,9999
44,330 45,10 49,10 50,20
51,40 52,30 53,410 54,1481
55,9288 56,1551 57,8227 58,370
59,10 60,10 61,10 62,10
63,10 64,10 65,120 66,170
67,3483 68,1391 69,6386 70,1121
71,3743 72,210 73,10 74,10
75,10 76,20 77,140 78,50
79,420 80,330 81,3303 82,2002
83,9609 84,871 85,2352 86,160
87,10 88,10 89,10 90,10
91,90 92,20 93,180 94,130
95,1772 96,3363 97,8618 98,771
99,370 100,30 101,10 102,10
103,10 104,20 105,30 106,10
107,70 108,90 109,991 110,360
111,3833 112,420 113,170 114,20
115,10 116,10 117,10 118,10
119,10 120,10 121,30 122,30
123,280 124,140 125,1722 126,240
127,190 128,20 129,10 130,10
131,10 132,10 133,10 134,10
135,20 136,20 137,140 138,120
139,811 140,270 141,240 142,30
143,10 144,10 145,10 146,10
147,10 148,10 149,10 150,20
151,90 152,80 153,500 154,80
155,40 156,10 163,10 164,10
165,70 166,50 167,350 168,70
169,20 177,10 178,10 179,60
180,70 181,130 182,100 183,20
191,10 192,10 193,40 194,190
195,40 196,30 197,20 205,10
206,10 207,40 208,40 209,30
210,20 211,10 219,10 220,10
221,50 222,3273 223,3793 224,671
225,60 226,10 230,10 231,10
232,10 233,10 234,10 235,10
236,30 237,30 238,20 239,10
240,10 249,10 250,10 251,10
252,10 260,10 261,10 262,10
263,10 264,10 265,10 266,10
267,10 278,10 279,20 280,10
281,10 293,10 294,10 295,10
333,10 334,10 335,10 336,40
337,10 338,10 360,10 361,10
362,10 363,10 364,480 365,140
366,20
##END=
