##TITLE=1,1'-Bicyclopentyl, 2-hexadecyl-
##JCAMP-DX=4.24
##DATA TYPE=MASS SPECTRUM
##OWNER=NIST Mass Spectrometry Data Center
Collection (C) 2014 copyright by the U.S. Secretary of Commerce
on behalf of the United States of America. All rights reserved.
##CAS REGISTRY NO=55334-11-7
##$NIST MASS SPEC NO=16214
##MOLFORM=C26 H50
##MW=362
##$NIST SOURCE=MSDC
##XUNITS=M/Z
##YUNITS=RELATIVE INTENSITY
##XFACTOR=1
##YFACTOR=1
##FIRSTX=36
##LASTX=365
##FIRSTY=10
##MAXX=365
##MINX=36
##MAXY=9999
##MINY=10
##NPOINTS=241
##PEAK TABLE=(XY..XY)
36,10 37,10 38,30 39,1081
40,290 41,9659 42,1481 43,9999
44,350 45,10 50,20 51,60
52,60 53,761 54,1531 55,7847
56,1431 57,5335 58,290 59,40
60,10 61,10 62,10 63,10
64,10 65,170 66,891 67,8227
68,3944 69,6766 70,901 71,2022
72,120 73,20 74,10 75,10
76,10 77,230 78,70 79,791
80,671 81,5095 82,7947 83,6856
84,721 85,1171 86,80 87,10
88,10 89,10 90,10 91,220
92,60 93,470 94,791 95,6776
96,3033 97,3363 98,360 99,200
100,20 101,10 102,10 103,10
104,10 105,60 106,30 107,170
108,290 109,1461 110,661 111,1211
112,170 113,130 114,10 115,20
116,10 117,40 118,10 119,30
120,20 121,180 122,170 123,871
124,470 125,470 126,70 127,80
128,20 129,10 130,10 131,20
132,10 133,60 134,50 135,450
136,1071 137,4554 138,1141 139,260
140,40 141,50 142,10 143,10
144,10 145,10 146,10 147,30
148,30 149,70 150,40 151,180
152,90 153,110 154,30 155,40
156,10 157,10 158,10 159,10
160,10 161,20 162,20 163,20
164,20 165,40 166,20 167,100
168,20 169,20 170,10 171,10
172,10 173,10 174,10 175,10
176,10 177,10 178,10 179,20
180,20 181,40 182,10 183,20
184,10 185,10 186,10 187,10
188,10 189,10 190,10 191,10
192,10 193,10 194,10 195,30
196,10 197,20 198,10 199,10
200,10 201,10 202,10 203,10
207,10 208,10 209,30 210,20
211,20 212,10 220,10 221,10
222,10 223,20 224,10 225,10
226,10 234,10 235,20 236,20
237,20 238,10 239,10 249,10
250,20 251,10 252,10 253,10
263,10 264,40 265,10 266,10
267,10 268,10 277,10 278,20
279,10 280,20 281,10 289,10
290,10 291,30 292,801 293,340
294,60 295,10 304,10 305,120
306,70 307,30 308,10 309,10
318,10 319,80 320,40 321,10
322,10 329,10 330,10 331,10
332,10 333,10 334,60 335,20
344,10 345,10 346,10 347,10
348,10 354,10 355,10 356,10
357,10 358,10 359,10 360,20
361,10 362,961 363,250 364,30
365,10
##END=
