##TITLE=Cholestan-3-ol, (3.beta.,5.beta.)-, TMS derivative
##JCAMP-DX=4.24
##DATA TYPE=MASS SPECTRUM
##ORIGIN=John Halket,Royal Holloway, University of London, UK
##OWNER=NIST Mass Spectrometry Data Center
Collection (C) 2014 copyright by the U.S. Secretary of Commerce
on behalf of the United States of America. All rights reserved.
##CAS REGISTRY NO=55331-94-7
##$NIST MASS SPEC NO=331785
##MOLFORM=C30 H56 O Si
##MW=460
##$NIST SOURCE=MSDC
##XUNITS=M/Z
##YUNITS=RELATIVE INTENSITY
##XFACTOR=1
##YFACTOR=1
##FIRSTX=27
##LASTX=462
##FIRSTY=50
##MAXX=462
##MINX=27
##MAXY=9999
##MINY=10
##NPOINTS=284
##PEAK TABLE=(XY..XY)
27,50 29,140 39,60 41,631
42,90 43,1081 44,50 45,100
47,70 51,10 53,100 55,1161
56,300 57,1081 58,60 59,90
60,30 61,180 62,10 63,10
65,60 67,881 68,190 69,941
70,190 71,601 73,1371 74,190
75,2662 76,200 77,310 78,60
79,931 80,190 81,1611 82,230
83,641 84,70 85,130 86,20
87,30 88,20 89,130 91,811
92,200 93,1281 94,540 95,1722
96,200 97,440 98,40 99,50
101,140 102,20 103,80 104,80
105,941 106,741 107,1551 108,1471
109,1091 110,170 111,310 112,30
113,60 114,10 115,140 116,70
117,210 118,140 119,631 120,410
121,961 122,440 123,520 124,110
125,140 126,20 127,140 128,50
129,350 130,140 131,540 132,130
133,721 134,571 135,1001 136,360
137,210 138,260 140,10 141,50
142,631 143,430 144,120 145,801
146,280 147,1161 148,410 149,701
150,120 151,120 152,160 153,50
154,10 155,300 156,90 157,70
158,50 159,500 160,350 161,931
162,460 163,350 164,70 165,120
166,50 167,50 168,100 169,90
170,20 171,40 172,30 173,430
174,210 175,440 176,220 177,160
178,60 179,90 180,60 181,170
182,90 183,130 184,30 185,50
186,30 187,310 188,190 189,280
190,100 191,90 192,30 193,130
194,40 195,50 196,140 197,50
198,10 199,70 200,30 201,691
202,270 203,310 204,70 205,90
206,110 207,80 208,30 209,90
210,20 211,10 213,40 215,3033
216,1461 217,941 218,180 219,100
220,80 221,40 223,70 224,10
227,20 229,330 230,651 231,370
232,70 233,80 234,20 235,90
236,30 237,120 238,40 239,20
241,80 242,20 243,180 244,110
245,90 246,30 247,230 248,70
249,40 250,30 251,60 252,10
255,80 256,100 257,1551 258,340
259,120 260,260 261,150 262,220
263,110 264,30 265,10 269,20
271,20 273,70 274,340 275,160
276,60 277,30 278,10 283,10
285,110 286,50 287,170 288,190
289,80 290,20 291,70 292,20
293,10 299,60 300,80 301,130
302,110 303,50 304,20 305,220
306,110 307,30 313,190 314,180
315,270 316,280 317,80 318,20
319,30 320,220 321,60 322,20
327,70 328,250 329,300 330,100
331,100 332,30 333,10 341,70
342,60 343,10 344,30 345,20
346,10 347,20 353,20 355,4234
356,1221 357,170 358,20 369,921
370,9999 371,3103 372,440 373,50
375,10 389,30 390,10 403,520
404,170 405,50 406,10 431,10
445,200 446,70 447,20 458,10
459,20 460,120 461,40 462,10
##END=
