##TITLE=Ergosta-7,24(28)-dien-3-ol, 4-methyl-, acetate, (3.beta.,4.alpha.)-
##JCAMP-DX=4.24
##DATA TYPE=MASS SPECTRUM
##OWNER=NIST Mass Spectrometry Data Center
Collection (C) 2014 copyright by the U.S. Secretary of Commerce
on behalf of the United States of America. All rights reserved.
##CAS REGISTRY NO=55399-28-5
##$NIST MASS SPEC NO=17723
##MOLFORM=C31 H50 O2
##MW=454
##$NIST SOURCE=MSDC
##XUNITS=M/Z
##YUNITS=RELATIVE INTENSITY
##XFACTOR=1
##YFACTOR=1
##FIRSTX=228
##LASTX=455
##FIRSTY=2889
##MAXX=455
##MINX=228
##MAXY=9999
##MINY=167
##NPOINTS=25
##PEAK TABLE=(XY..XY)
228,2889 229,667 230,278 241,1389
242,1000 243,1000 267,1389 268,278
269,2777 270,444 287,667 310,667
311,278 312,278 313,167 327,9999
328,2944 370,3888 371,1222 380,1000
394,667 439,1778 440,611 454,2111
455,611
##END=
