##TITLE=1,3,5-Benzenetricarboxylic acid
##JCAMP-DX=4.24
##DATA TYPE=MASS SPECTRUM
##ORIGIN=RADIAN CORP
##OWNER=NIST Mass Spectrometry Data Center
Collection (C) 2014 copyright by the U.S. Secretary of Commerce
on behalf of the United States of America. All rights reserved.
##CAS REGISTRY NO=554-95-0
##$NIST MASS SPEC NO=76503
##MOLFORM=C9 H6 O6
##MW=210
##$NIST SOURCE=MSDC
##XUNITS=M/Z
##YUNITS=RELATIVE INTENSITY
##XFACTOR=1
##YFACTOR=1
##FIRSTX=35
##LASTX=212
##FIRSTY=40
##MAXX=212
##MINX=35
##MAXY=9999
##MINY=10
##NPOINTS=44
##PEAK TABLE=(XY..XY)
35,40 37,170 38,220 39,90
45,2870 46,40 49,120 50,700
51,350 53,650 62,290 63,540
65,2160 66,180 74,3610 75,3360
76,450 77,640 78,60 81,360
89,160 90,160 91,520 92,280
102,970 103,410 105,10 118,20
119,1470 120,1980 121,340 147,210
148,350 163,720 164,150 165,3800
166,790 193,9999 194,1020 195,150
209,60 210,6610 211,660 212,120
##END=
