##TITLE=2-Carene
##JCAMP-DX=4.24
##DATA TYPE=MASS SPECTRUM
##ORIGIN=Japan AIST/NIMC Database- Spectrum MS-NW-9408
##OWNER=NIST Mass Spectrometry Data Center
Collection (C) 2014 copyright by the U.S. Secretary of Commerce
on behalf of the United States of America. All rights reserved.
##CAS REGISTRY NO=554-61-0
##$NIST MASS SPEC NO=236870
##MOLFORM=C10 H16
##MW=136
##$NIST SOURCE=MSDC
##XUNITS=M/Z
##YUNITS=RELATIVE INTENSITY
##XFACTOR=1
##YFACTOR=1
##FIRSTX=15
##LASTX=138
##FIRSTY=60
##MAXX=138
##MINX=15
##MAXY=9999
##MINY=10
##NPOINTS=88
##PEAK TABLE=(XY..XY)
15,60 26,40 27,1059 28,70
29,959 30,20 31,10 37,10
38,80 39,1639 40,279 41,2239
42,149 43,2139 44,60 45,30
50,139 51,599 52,269 53,939
54,109 55,999 56,70 57,70
58,129 59,149 60,60 61,20
62,50 63,199 64,60 65,739
66,179 67,929 68,289 69,199
70,30 71,30 74,20 75,30
76,20 77,3329 78,529 79,3859
80,839 81,589 82,139 83,80
84,30 85,10 86,10 87,10
89,70 90,20 91,4049 92,1249
93,9999 94,1089 95,359 96,90
97,40 98,10 102,30 103,269
104,80 105,2029 106,539 107,1439
108,629 109,349 110,50 111,20
115,109 116,30 117,129 118,20
119,639 120,109 121,9039 122,909
123,70 132,30 133,20 134,99
135,139 136,5499 137,679 138,30
##END=
