##TITLE=2(1H)-Pyrimidinone, 4-amino-5-methyl-
##JCAMP-DX=4.24
##DATA TYPE=MASS SPECTRUM
##ORIGIN=Japan AIST/NIMC Database- Spectrum MS-NW-8179
##OWNER=NIST Mass Spectrometry Data Center
Collection (C) 2014 copyright by the U.S. Secretary of Commerce
on behalf of the United States of America. All rights reserved.
##CAS REGISTRY NO=554-01-8
##$NIST MASS SPEC NO=228118
##MOLFORM=C5 H7 N3 O
##MW=125
##$NIST SOURCE=MSDC
##XUNITS=M/Z
##YUNITS=RELATIVE INTENSITY
##XFACTOR=1
##YFACTOR=1
##FIRSTX=13
##LASTX=127
##FIRSTY=10
##MAXX=127
##MINX=13
##MAXY=9999
##MINY=10
##NPOINTS=59
##PEAK TABLE=(XY..XY)
13,10 14,10 15,50 16,20
17,30 18,429 25,20 26,179
27,429 28,1419 29,239 30,189
39,439 40,159 41,179 42,459
43,959 44,379 45,30 48,10
49,10 50,10 51,129 52,549
53,519 54,1829 55,2069 56,549
57,20 64,20 65,10 66,50
67,40 68,60 69,399 70,2799
71,299 72,10 77,10 79,80
80,159 81,1629 82,459 83,809
84,40 95,30 96,309 97,849
98,99 107,40 108,90 109,119
110,30 111,10 123,10 124,109
125,9999 126,749 127,40
##END=
