##TITLE=Methazolamide
##JCAMP-DX=4.24
##DATA TYPE=MASS SPECTRUM
##ORIGIN=Patti Price, Georgia Bureau of Investigation, Decatur, Georgia
##OWNER=NIST Mass Spectrometry Data Center
Collection (C) 2014 copyright by the U.S. Secretary of Commerce
on behalf of the United States of America. All rights reserved.
##CAS REGISTRY NO=554-57-4
##$NIST MASS SPEC NO=248035
##MOLFORM=C5 H8 N4 O3 S2
##MW=236
##$NIST SOURCE=MSDC
##XUNITS=M/Z
##YUNITS=RELATIVE INTENSITY
##XFACTOR=1
##YFACTOR=1
##FIRSTX=41
##LASTX=238
##FIRSTY=30
##MAXX=238
##MINX=41
##MAXY=9999
##MINY=10
##NPOINTS=61
##PEAK TABLE=(XY..XY)
41,30 42,500 43,8898 45,240
46,260 47,80 48,310 53,170
54,70 55,380 56,1111 57,90
58,180 59,220 60,50 61,60
64,200 65,60 67,20 69,30
70,50 72,280 73,130 74,40
79,10 80,380 81,10 82,10
83,1931 84,70 85,40 86,200
87,60 88,90 89,60 97,10
99,20 100,10 102,50 112,30
113,140 114,320 115,60 116,20
125,30 130,60 135,110 142,120
149,10 156,70 158,30 194,20
207,30 221,9999 222,770 223,990
224,60 225,20 236,1801 237,160
238,200
##END=
