##TITLE=3-Methylthiophene-2-carbonitrile
##JCAMP-DX=4.24
##DATA TYPE=MASS SPECTRUM
##ORIGIN=NIST Mass Spectrometry Data Center, 1994
##OWNER=NIST Mass Spectrometry Data Center
Collection (C) 2014 copyright by the U.S. Secretary of Commerce
on behalf of the United States of America. All rights reserved.
##CAS REGISTRY NO=55406-13-8
##$NIST MASS SPEC NO=136536
##MOLFORM=C6 H5 N S
##MW=123
##$NIST SOURCE=MSDC
##XUNITS=M/Z
##YUNITS=RELATIVE INTENSITY
##XFACTOR=1
##YFACTOR=1
##FIRSTX=12
##LASTX=126
##FIRSTY=74
##MAXX=126
##MINX=12
##MAXY=9999
##MINY=1
##NPOINTS=72
##PEAK TABLE=(XY..XY)
12,74 13,32 14,51 15,94
18,10 25,72 26,450 27,646
28,148 32,224 33,56 36,122
37,704 38,584 39,618 40,77
41,1 44,261 45,2033 46,159
47,175 48,74 49,302 50,887
51,999 52,556 53,343 56,96
57,689 58,877 59,80 60,118
61,206 62,257 63,461 64,445
65,109 68,171 69,847 70,1747
71,397 72,102 75,200 76,144
77,43 78,355 79,96 80,57
81,126 82,206 83,106 84,30
86,24 87,34 88,56 90,74
92,42 93,125 94,208 95,596
96,2175 97,778 98,131 99,36
106,45 107,66 120,43 122,9999
123,6360 124,916 125,303 126,27
##END=
