##TITLE=Cyclopentane, 1,1'-hexadecylidenebis-
##JCAMP-DX=4.24
##DATA TYPE=MASS SPECTRUM
##OWNER=NIST Mass Spectrometry Data Center
Collection (C) 2014 copyright by the U.S. Secretary of Commerce
on behalf of the United States of America. All rights reserved.
##CAS REGISTRY NO=55401-76-8
##$NIST MASS SPEC NO=23512
##MOLFORM=C26 H50
##MW=362
##$NIST SOURCE=MSDC
##XUNITS=M/Z
##YUNITS=RELATIVE INTENSITY
##XFACTOR=1
##YFACTOR=1
##FIRSTX=36
##LASTX=363
##FIRSTY=10
##MAXX=363
##MINX=36
##MAXY=9999
##MINY=10
##NPOINTS=165
##PEAK TABLE=(XY..XY)
36,10 37,10 38,20 39,801
40,220 41,9999 42,1291 43,8708
44,280 45,10 50,10 51,30
52,40 53,591 54,1031 55,8027
56,1111 57,5995 58,260 59,10
62,10 63,10 64,10 65,120
66,370 67,4894 68,5375 69,8468
70,761 71,3093 72,170 73,10
75,10 76,10 77,140 78,40
79,430 80,250 81,2642 82,3523
83,9529 84,711 85,1892 86,130
87,10 89,10 90,10 91,110
92,30 93,210 94,240 95,4114
96,1471 97,5925 98,490 99,440
100,30 101,10 102,10 103,10
104,20 105,20 106,10 107,60
108,100 109,1221 110,360 111,2492
112,240 113,270 114,20 115,10
116,10 117,10 118,10 119,10
120,10 121,50 122,60 123,340
124,180 125,1091 126,110 127,180
128,20 131,10 132,10 135,30
136,40 137,250 138,120 139,490
140,60 141,120 142,10 147,10
148,10 149,30 150,380 151,1571
152,230 153,310 154,40 155,80
156,10 161,10 163,10 164,10
165,30 166,30 167,210 168,30
169,40 170,10 178,10 179,10
180,10 181,150 182,20 183,30
184,10 191,10 192,10 193,10
194,10 195,110 196,20 197,60
198,10 207,10 208,10 209,90
210,30 211,60 212,10 221,10
222,10 223,60 224,10 225,10
235,10 236,20 237,40 238,10
249,10 250,10 251,20 252,10
263,10 264,40 265,10 266,10
278,10 279,10 292,1611 293,1952
294,390 295,40 305,10 306,10
307,10 310,10 311,10 362,20
363,10
##END=
