##TITLE=1H-Indene, 1-hexadecyloctahydro-
##JCAMP-DX=4.24
##DATA TYPE=MASS SPECTRUM
##ORIGIN=GULF R. ' D. CO., PITTSBURGH, PA, USA
##OWNER=NIST Mass Spectrometry Data Center
Collection (C) 2014 copyright by the U.S. Secretary of Commerce
on behalf of the United States of America. All rights reserved.
##CAS REGISTRY NO=55401-73-5
##$NIST MASS SPEC NO=34710
##MOLFORM=C25 H48
##MW=348
##$NIST SOURCE=MSDC
##XUNITS=M/Z
##YUNITS=RELATIVE INTENSITY
##XFACTOR=1
##YFACTOR=1
##FIRSTX=17
##LASTX=350
##FIRSTY=63
##MAXX=350
##MINX=17
##MAXY=9999
##MINY=1
##NPOINTS=220
##PEAK TABLE=(XY..XY)
17,63 18,61 20,7 24,1
25,5 26,32 27,347 28,1244
29,854 30,19 31,8 37,6
38,9 39,196 40,49 41,1634
42,236 43,1871 44,64 45,4
50,5 51,12 52,11 53,153
54,416 55,1570 56,273 57,824
58,45 59,6 60,1 61,1
62,1 63,3 64,2 65,37
66,146 67,1827 68,498 69,678
70,147 71,255 72,17 73,2
74,3 75,6 76,4 77,234
78,82 79,745 80,535 81,6600
82,3071 83,1827 84,243 85,350
86,26 87,3 88,3 89,7
90,6 91,178 92,53 93,397
94,351 95,2301 96,9999 97,3744
98,362 99,51 100,4 101,3
102,1 103,8 104,6 105,37
106,14 107,114 108,158 109,982
110,598 111,285 112,55 113,21
114,2 115,7 116,3 117,15
118,3 119,18 120,21 121,492
122,1003 123,3147 124,500 125,109
126,29 127,12 128,6 129,4
130,4 131,5 132,2 133,9
134,13 135,72 136,79 137,332
138,181 139,48 140,16 141,18
142,4 143,1 144,1 145,1
146,1 147,7 148,3 149,18
150,13 151,69 152,79 153,22
154,11 155,6 156,1 157,1
158,1 159,1 161,2 162,1
163,5 164,3 165,19 166,14
167,10 168,7 169,4 175,2
176,2 177,3 178,12 179,10
180,8 181,6 182,6 183,3
184,1 189,3 190,1 191,3
192,5 193,4 194,6 195,4
196,3 197,1 206,1 207,3
208,6 209,3 210,3 211,1
219,1 220,1 221,3 222,7
223,4 224,7 225,2 235,3
236,5 237,3 238,3 239,1
249,3 250,23 251,7 252,27
253,7 263,3 264,12 265,4
266,16 267,7 269,3 277,7
278,12 279,3 280,2 281,2
290,1 291,60 292,36 293,9
304,2 305,14 306,21 307,6
317,3 318,3 319,23 320,341
321,87 322,10 333,3 334,9
335,3 338,6 339,1 342,2
343,1 344,6 345,4 346,18
347,16 348,1816 349,503 350,68
##END=
