##TITLE=Docosane, 11-decyl-
##JCAMP-DX=4.24
##DATA TYPE=MASS SPECTRUM
##ORIGIN=SHELL OIL CO., HOUSTON, TEXAS, USA
##OWNER=NIST Mass Spectrometry Data Center
Collection (C) 2014 copyright by the U.S. Secretary of Commerce
on behalf of the United States of America. All rights reserved.
##CAS REGISTRY NO=55401-55-3
##$NIST MASS SPEC NO=34482
##MOLFORM=C32 H66
##MW=450
##$NIST SOURCE=MSDC
##XUNITS=M/Z
##YUNITS=RELATIVE INTENSITY
##XFACTOR=1
##YFACTOR=1
##FIRSTX=37
##LASTX=394
##FIRSTY=17
##MAXX=394
##MINX=37
##MAXY=9999
##MINY=1
##NPOINTS=247
##PEAK TABLE=(XY..XY)
37,17 38,29 39,398 40,101
41,3202 42,834 43,9141 44,315
45,7 46,2 47,1 48,4
49,4 50,18 51,31 52,18
53,145 54,325 55,3202 56,148
57,9999 58,458 59,12 60,2
61,2 62,4 63,9 64,18
65,34 66,35 67,464 68,385
69,2135 70,957 71,6135 72,342
73,9 74,4 75,4 76,2
77,66 78,18 79,96 80,44
81,261 82,340 83,1632 84,527
85,4178 86,279 87,9 88,3
89,4 90,2 91,66 92,40
93,160 94,39 95,144 96,207
97,1184 98,310 99,1387 100,112
101,6 102,2 103,5 104,4
105,28 106,10 107,24 108,11
109,58 110,104 111,603 112,215
113,975 114,91 115,9 116,2
117,6 118,3 119,20 120,8
121,40 122,9 123,28 124,77
125,316 126,167 127,736 128,77
129,6 130,2 131,5 132,4
133,6 134,13 135,6 136,19
137,17 138,62 139,174 140,145
141,570 142,66 143,6 144,3
145,4 146,2 147,2 148,2
149,3 150,2 151,8 152,53
153,124 154,114 155,456 156,56
157,6 158,2 159,3 160,2
161,2 162,1 163,2 164,1
165,5 166,49 167,118 168,85
169,377 170,51 171,5 172,2
173,2 174,1 175,1 176,1
177,1 178,2 179,4 180,37
181,80 182,92 183,318 184,48
185,7 186,2 187,2 192,1
193,4 194,30 195,54 196,60
197,270 198,42 199,6 200,6
201,4 202,7 203,1 204,2
205,1 206,2 207,4 208,26
209,45 210,42 211,221 212,37
213,4 221,2 222,18 223,35
224,33 225,185 226,33 227,4
228,1 229,1 235,2 236,13
237,25 238,29 239,139 240,27
241,6 242,1 243,1 250,7
251,16 252,24 253,88 254,19
255,4 256,2 257,1 262,1
263,1 264,4 265,10 266,39
267,49 268,11 269,2 278,2
279,5 280,58 281,39 282,7
283,1 291,2 292,2 293,4
294,320 295,396 296,87 297,11
304,1 305,2 306,3 307,6
308,526 309,693 310,161 311,21
312,2 322,19 323,24 324,6
336,6 337,9 338,2 350,4
351,6 352,1 364,2 365,3
366,1 378,1 379,2 380,1
392,1 393,2 394,1
##END=
