##TITLE=2,3-Dicyanodibenzo(f,h)quinoxaline
##JCAMP-DX=4.24
##DATA TYPE=MASS SPECTRUM
##ORIGIN=G. HOLZMANN, INST. ORG. CHEM., BERLIN, W. GE
##OWNER=NIST Mass Spectrometry Data Center
Collection (C) 2014 copyright by the U.S. Secretary of Commerce
on behalf of the United States of America. All rights reserved.
##CAS REGISTRY NO=55408-49-6
##$NIST MASS SPEC NO=75571
##MOLFORM=C18 H8 N4
##MW=280
##$NIST SOURCE=MSDC
##XUNITS=M/Z
##YUNITS=RELATIVE INTENSITY
##XFACTOR=1
##YFACTOR=1
##FIRSTX=75
##LASTX=281
##FIRSTY=1220
##MAXX=281
##MINX=75
##MAXY=9999
##MINY=130
##NPOINTS=25
##PEAK TABLE=(XY..XY)
75,1220 76,1060 87,1070 88,2220
114,1000 127,610 140,1110 149,410
150,290 151,220 200,210 201,850
202,510 203,350 204,220 226,130
227,480 228,1080 229,200 253,190
254,280 255,130 279,2070 280,9999
281,4070
##END=
