##TITLE=7-Ketocholesterol, TMS derivative
##JCAMP-DX=4.24
##DATA TYPE=MASS SPECTRUM
##ORIGIN=NIST Mass Spectrometry Data Center
##OWNER=NIST Mass Spectrometry Data Center
Collection (C) 2014 copyright by the U.S. Secretary of Commerce
on behalf of the United States of America. All rights reserved.
##CAS REGISTRY NO=55429-58-8
##$NIST MASS SPEC NO=333326
##MOLFORM=C30 H52 O2 Si
##MW=472
##$NIST SOURCE=MSDC
##XUNITS=M/Z
##YUNITS=RELATIVE INTENSITY
##XFACTOR=1
##YFACTOR=1
##FIRSTX=14
##LASTX=475
##FIRSTY=30
##MAXX=475
##MINX=14
##MAXY=9999
##MINY=10
##NPOINTS=268
##PEAK TABLE=(XY..XY)
14,30 15,40 26,40 29,210
31,30 39,70 41,691 42,110
43,1591 44,130 45,1261 46,120
47,881 48,70 49,130 51,40
53,130 55,1051 56,280 57,1311
58,80 59,330 60,130 61,400
63,40 67,490 68,110 69,921
70,170 71,741 72,170 73,5895
74,581 75,9999 76,791 77,751
78,90 79,851 80,210 81,1351
82,70 83,490 85,100 87,40
89,80 91,1311 92,240 93,1131
94,180 95,991 96,100 97,300
99,60 100,20 101,140 102,40
103,110 104,60 105,1141 106,250
107,1071 108,681 109,611 110,80
111,70 112,40 113,110 115,240
116,120 117,591 118,200 119,621
120,200 121,631 122,220 123,290
124,60 127,540 128,320 129,5065
130,711 131,1211 132,220 133,721
134,1081 135,671 136,240 137,140
138,60 139,40 141,260 142,1481
143,1181 144,300 145,691 146,200
147,601 148,500 149,280 150,40
151,100 153,30 155,270 156,110
157,410 158,370 159,1131 160,330
161,2082 162,380 163,150 164,70
165,110 166,50 167,140 168,80
169,260 170,80 171,310 172,230
173,450 174,1882 175,691 176,230
179,140 180,210 181,591 182,561
183,280 184,100 185,250 186,130
187,901 188,190 189,180 190,60
194,80 195,581 196,701 197,330
198,110 199,310 200,140 201,290
202,60 203,80 204,20 207,300
208,160 209,270 210,70 211,120
212,80 213,230 214,210 215,160
216,70 218,60 219,120 220,120
221,120 222,50 223,160 224,260
225,120 226,30 227,581 228,120
229,310 233,60 235,100 236,70
237,70 239,40 240,40 241,220
242,170 243,150 248,130 249,130
250,50 251,130 252,30 253,100
254,20 255,80 256,60 258,40
261,50 262,20 263,100 264,430
265,90 266,30 267,50 268,20
269,450 275,50 276,40 277,270
278,70 279,70 284,30 289,40
290,30 291,40 292,30 295,10
297,80 299,50 302,40 303,60
304,80 305,60 311,50 312,50
313,60 314,40 317,130 318,90
319,120 324,20 325,40 331,40
332,60 333,50 339,40 341,220
349,130 350,40 351,20 353,40
354,60 355,60 357,20 359,150
360,70 364,50 365,30 367,1892
368,540 369,80 370,40 381,30
382,951 383,320 384,100 387,90
388,30 402,50 403,220 404,50
415,110 416,290 417,70 439,40
444,40 454,50 455,611 456,180
457,520 458,170 459,70 471,861
472,3924 473,1641 474,410 475,90
##END=
