##TITLE=Hexacosane, 9-octyl-
##JCAMP-DX=4.24
##DATA TYPE=MASS SPECTRUM
##OWNER=NIST Mass Spectrometry Data Center
Collection (C) 2014 copyright by the U.S. Secretary of Commerce
on behalf of the United States of America. All rights reserved.
##CAS REGISTRY NO=55429-83-9
##$NIST MASS SPEC NO=17993
##MOLFORM=C34 H70
##MW=478
##$NIST SOURCE=MSDC
##XUNITS=M/Z
##YUNITS=RELATIVE INTENSITY
##XFACTOR=1
##YFACTOR=1
##FIRSTX=39
##LASTX=435
##FIRSTY=330
##MAXX=435
##MINX=39
##MAXY=9999
##MINY=10
##NPOINTS=248
##PEAK TABLE=(XY..XY)
39,330 40,90 41,2742 42,771
43,8568 44,300 49,10 50,20
51,20 52,10 53,110 54,320
55,3123 56,1531 57,9999 58,470
59,10 61,10 62,10 63,10
64,10 65,20 66,30 67,360
68,330 69,2082 70,1001 71,6236
72,360 73,10 74,10 75,10
76,10 77,20 78,10 79,50
80,30 81,220 82,350 83,1692
84,550 85,4244 86,300 87,10
88,10 89,10 90,10 91,20
92,10 93,20 94,10 95,130
96,220 97,1241 98,320 99,1451
100,110 101,10 102,10 103,10
104,10 105,20 106,10 107,10
108,10 109,50 110,110 111,641
112,240 113,991 114,90 115,10
116,10 117,10 118,10 119,10
120,10 121,10 122,10 123,30
124,80 125,340 126,160 127,731
128,80 129,10 130,10 131,10
132,10 133,10 134,10 135,10
136,10 137,20 138,70 139,200
140,120 141,571 142,70 143,10
144,10 145,10 146,10 147,10
148,10 149,10 150,10 151,10
152,40 153,110 154,110 155,460
156,60 157,10 158,10 159,10
160,10 163,10 164,10 165,10
166,40 167,80 168,70 169,370
170,50 171,10 172,10 173,10
174,10 175,10 176,10 177,10
178,10 179,10 180,30 181,60
182,50 183,290 184,40 185,10
186,10 187,10 189,10 193,10
194,30 195,50 196,40 197,210
198,30 199,10 200,10 207,10
208,20 209,30 210,70 211,150
212,20 213,10 214,10 215,10
216,10 217,10 218,10 219,10
220,10 221,10 222,10 223,20
224,40 225,120 226,20 227,10
235,10 236,20 237,20 238,540
239,520 240,90 241,10 242,10
243,10 250,10 251,10 252,30
253,100 254,20 255,10 263,10
264,10 265,20 266,30 267,100
268,20 269,10 278,10 279,10
280,20 281,80 282,20 283,10
292,10 293,10 294,20 295,70
296,20 297,10 306,10 307,10
308,10 309,50 310,10 311,10
320,10 321,10 322,10 323,30
324,10 325,10 334,10 335,10
336,40 337,20 338,10 339,10
350,20 351,30 352,10 353,10
362,10 363,10 364,550 365,911
366,250 367,40 368,10 378,20
379,30 380,10 392,10 393,20
394,10 406,10 407,10 408,10
420,10 421,10 422,10 435,10
##END=
