##TITLE=L-Tryptophan, 3TMS derivative
##JCAMP-DX=4.24
##DATA TYPE=MASS SPECTRUM
##ORIGIN=NIST Mass Spectrometry Data Center
##OWNER=NIST Mass Spectrometry Data Center
Collection (C) 2014 copyright by the U.S. Secretary of Commerce
on behalf of the United States of America. All rights reserved.
##CAS REGISTRY NO=55429-28-2
##$NIST MASS SPEC NO=333269
##MOLFORM=C20 H36 N2 O2 Si3
##MW=420
##$NIST SOURCE=MSDC
##XUNITS=M/Z
##YUNITS=RELATIVE INTENSITY
##XFACTOR=1
##YFACTOR=1
##FIRSTX=29
##LASTX=421
##FIRSTY=10
##MAXX=421
##MINX=29
##MAXY=9999
##MINY=10
##NPOINTS=142
##PEAK TABLE=(XY..XY)
29,10 31,10 43,70 44,60
45,400 46,30 47,30 53,10
55,10 56,10 57,20 58,40
59,100 60,10 61,10 70,20
71,20 72,90 73,4514 74,410
75,280 76,20 77,10 83,10
84,20 85,10 86,30 87,10
89,10 91,10 98,10 100,230
101,90 102,40 103,30 104,10
105,20 114,10 115,40 116,10
117,30 118,10 119,20 128,20
129,50 130,90 131,70 132,110
133,80 134,30 135,10 142,10
143,20 144,40 145,90 146,40
147,350 148,60 149,30 151,20
154,10 155,10 156,40 157,20
158,30 159,30 160,50 161,10
162,10 163,10 169,10 170,50
171,10 172,60 173,10 174,50
175,10 182,10 183,10 184,40
185,20 186,100 187,40 188,80
189,30 190,90 191,20 192,10
197,10 198,20 199,40 200,300
202,9999 203,2062 204,601 205,80
206,10 213,10 214,20 215,40
216,20 218,380 219,70 220,30
221,10 228,10 229,20 230,110
231,10 232,10 241,10 242,10
246,10 248,20 249,10 260,10
276,20 277,10 287,10 288,20
289,10 291,1141 292,320 293,160
294,30 295,10 301,10 302,60
303,130 304,40 305,10 306,10
315,10 329,10 377,60 378,30
379,10 405,80 406,30 407,20
420,10 421,10
##END=
