##TITLE=5-Chloro-2,4-dimethoxyphenyl isocyanate
##JCAMP-DX=4.24
##DATA TYPE=MASS SPECTRUM
##ORIGIN=NIST Mass Spectrometry Data Center
##OWNER=NIST Mass Spectrometry Data Center
Collection (C) 2014 copyright by the U.S. Secretary of Commerce
on behalf of the United States of America. All rights reserved.
##CAS REGISTRY NO=55440-55-6
##$NIST MASS SPEC NO=343334
##MOLFORM=C9 H8 Cl N O3
##MW=213
##$NIST SOURCE=MSDC
##XUNITS=M/Z
##YUNITS=RELATIVE INTENSITY
##XFACTOR=1
##YFACTOR=1
##FIRSTX=12
##LASTX=217
##FIRSTY=70
##MAXX=217
##MINX=12
##MAXY=9999
##MINY=10
##NPOINTS=150
##PEAK TABLE=(XY..XY)
12,70 13,90 15,3934 16,90
17,10 18,40 25,80 26,190
27,220 28,320 29,561 30,140
35,60 36,110 37,571 38,380
39,340 41,470 42,220 43,150
44,540 47,100 48,80 49,400
50,871 51,981 52,430 53,1021
54,360 55,100 56,80 57,20
59,440 60,380 61,410 62,470
63,711 64,1621 65,380 66,340
67,230 69,1912 70,510 71,70
72,220 73,601 74,180 75,981
76,2082 77,681 78,911 79,220
80,80 81,20 82,90 83,20
84,100 85,320 86,661 87,490
88,440 89,160 90,320 91,220
92,911 93,120 94,90 95,40
96,60 97,90 98,120 99,380
100,120 101,140 102,80 103,50
104,150 105,70 106,180 107,150
109,120 110,120 111,711 112,210
113,430 114,470 115,140 116,160
117,30 118,20 120,530 121,40
122,80 123,20 124,50 125,30
127,1541 128,140 129,801 130,50
131,130 132,20 133,60 134,70
135,50 138,30 139,70 140,130
141,100 142,811 143,100 144,250
145,20 147,30 148,200 149,80
150,150 151,20 154,270 155,1712
156,220 157,550 158,50 159,10
163,70 164,20 167,30 168,60
170,7126 171,651 172,2562 173,200
174,20 182,60 184,200 185,30
186,50 196,20 198,5985 199,550
200,2042 201,190 202,20 210,20
211,40 213,9999 214,1031 215,3123
216,360 217,30
##END=
