##TITLE=Eicosane, 10-heptyl-10-octyl-
##JCAMP-DX=4.24
##DATA TYPE=MASS SPECTRUM
##OWNER=NIST Mass Spectrometry Data Center
Collection (C) 2014 copyright by the U.S. Secretary of Commerce
on behalf of the United States of America. All rights reserved.
##CAS REGISTRY NO=55470-98-9
##$NIST MASS SPEC NO=18093
##MOLFORM=C35 H72
##MW=492
##$NIST SOURCE=MSDC
##XUNITS=M/Z
##YUNITS=RELATIVE INTENSITY
##XFACTOR=1
##YFACTOR=1
##FIRSTX=36
##LASTX=408
##FIRSTY=20
##MAXX=408
##MINX=36
##MAXY=9999
##MINY=10
##NPOINTS=270
##PEAK TABLE=(XY..XY)
36,20 37,50 38,60 39,561
40,150 41,3733 42,1251 43,9579
44,330 45,20 46,10 47,10
48,10 49,10 50,30 51,40
52,30 53,180 54,320 55,4054
56,2142 57,9999 58,480 59,10
60,10 61,10 62,10 63,20
64,10 65,30 66,30 67,601
68,380 69,2943 70,981 71,6226
72,370 73,10 74,10 75,10
76,10 77,40 78,20 79,100
80,40 81,420 82,220 83,2042
84,440 85,4704 86,320 87,10
88,10 89,10 90,10 91,30
92,10 93,40 94,20 95,260
96,130 97,1321 98,250 99,1491
100,130 101,40 102,20 103,10
104,10 105,20 106,10 107,20
108,10 109,100 110,70 111,611
112,200 113,1081 114,110 115,20
116,10 117,10 118,10 119,10
120,10 121,10 122,10 123,50
124,60 125,330 126,160 127,841
128,100 129,20 130,10 131,10
132,10 133,10 134,10 135,10
136,10 137,30 138,40 139,170
140,210 141,701 142,90 143,10
144,10 145,10 146,10 147,10
148,10 149,10 150,10 151,20
152,40 153,120 154,150 155,571
156,70 157,10 158,10 159,10
160,10 161,10 162,10 163,10
164,10 165,20 166,30 167,90
168,120 169,480 170,70 171,10
172,10 173,10 175,10 176,10
177,10 178,10 179,10 180,10
181,30 182,90 183,420 184,70
185,10 186,10 189,10 191,10
192,10 193,10 194,10 195,20
196,20 197,340 198,90 199,120
200,160 201,90 202,200 203,10
204,50 205,10 206,10 207,10
208,10 209,20 210,20 211,300
212,50 213,10 217,10 218,10
219,10 220,10 221,10 222,10
223,30 224,40 225,290 226,60
227,10 228,10 229,10 230,10
231,10 232,10 235,10 236,10
237,30 238,70 239,290 240,60
241,10 249,10 250,20 251,50
252,90 253,280 254,60 255,10
256,10 263,10 264,10 265,30
266,130 267,290 268,60 269,10
276,10 277,10 278,10 279,30
280,60 281,220 282,50 283,10
291,10 292,10 293,10 294,50
295,170 296,40 297,10 308,10
309,120 310,30 311,10 322,10
323,80 324,30 336,10 337,160
338,40 339,10 348,10 349,10
350,140 351,1952 352,550 353,80
354,10 362,10 363,10 364,120
365,1702 366,500 367,80 368,10
376,10 377,10 378,120 379,1692
380,510 381,80 382,10 389,10
390,10 391,10 392,90 393,1361
394,430 395,70 396,10 406,10
407,10 408,10
##END=
