##TITLE=2,5-Furandicarboxylic acid, 2TMS derivative
##JCAMP-DX=4.24
##DATA TYPE=MASS SPECTRUM
##ORIGIN=MO-120
##OWNER=NIST Mass Spectrometry Data Center
Collection (C) 2014 copyright by the U.S. Secretary of Commerce
on behalf of the United States of America. All rights reserved.
##CAS REGISTRY NO=55494-09-2
##$NIST MASS SPEC NO=30899
##MOLFORM=C12 H20 O5 Si2
##MW=300
##$NIST SOURCE=MSDC
##XUNITS=M/Z
##YUNITS=RELATIVE INTENSITY
##XFACTOR=1
##YFACTOR=1
##FIRSTX=15
##LASTX=300
##FIRSTY=348
##MAXX=300
##MINX=15
##MAXY=9999
##MINY=313
##NPOINTS=33
##PEAK TABLE=(XY..XY)
15,348 17,426 18,1697 28,840
38,409 43,755 44,568 45,1964
47,432 59,595 66,640 71,1609
72,649 73,8665 74,820 75,1702
85,351 95,320 98,414 99,347
133,735 135,921 147,9999 148,1616
149,916 183,313 197,383 211,392
241,576 285,6879 286,1622 287,745
300,447
##END=
