##TITLE=Nonane, 2,2,3-trimethyl-
##JCAMP-DX=4.24
##DATA TYPE=MASS SPECTRUM
##ORIGIN=D.HENNEBERG, MAX-PLANCK INSTITUTE, MULHEIM, WEST GERMANY
##OWNER=NIST Mass Spectrometry Data Center
Collection (C) 2014 copyright by the U.S. Secretary of Commerce
on behalf of the United States of America. All rights reserved.
##CAS REGISTRY NO=55499-04-2
##$NIST MASS SPEC NO=60942
##MOLFORM=C12 H26
##MW=170
##$NIST SOURCE=MSDC
##XUNITS=M/Z
##YUNITS=RELATIVE INTENSITY
##XFACTOR=1
##YFACTOR=1
##FIRSTX=26
##LASTX=169
##FIRSTY=186
##MAXX=169
##MINX=26
##MAXY=9999
##MINY=1
##NPOINTS=64
##PEAK TABLE=(XY..XY)
26,186 27,367 28,210 29,991
30,28 32,215 33,3 36,1
37,4 38,5 39,248 40,56
41,1918 42,272 43,1846 44,74
47,10 50,4 51,13 52,6
53,76 54,34 55,589 56,6838
57,9999 58,411 59,6 60,1
63,49 65,122 66,4 67,47
68,23 69,239 70,258 71,728
72,42 75,3 77,8 78,6
79,8 81,9 82,36 83,177
84,97 85,352 86,24 91,35
95,48 96,1 97,22 98,4
99,98 100,8 105,4 111,2
112,279 113,59 114,4 115,1
155,358 156,5 168,8 169,5
##END=
