##TITLE=Octanoic acid, TMS derivative
##JCAMP-DX=4.24
##DATA TYPE=MASS SPECTRUM
##ORIGIN=NIST Mass Spectrometry Data Center
##OWNER=NIST Mass Spectrometry Data Center
Collection (C) 2014 copyright by the U.S. Secretary of Commerce
on behalf of the United States of America. All rights reserved.
##CAS REGISTRY NO=55494-06-9
##$NIST MASS SPEC NO=333732
##MOLFORM=C11 H24 O2 Si
##MW=216
##$NIST SOURCE=MSDC
##XUNITS=M/Z
##YUNITS=RELATIVE INTENSITY
##XFACTOR=1
##YFACTOR=1
##FIRSTX=15
##LASTX=289
##FIRSTY=10
##MAXX=289
##MINX=15
##MAXY=9999
##MINY=10
##NPOINTS=129
##PEAK TABLE=(XY..XY)
15,10 27,250 28,80 29,490
30,10 31,10 39,290 40,60
41,951 42,260 43,801 44,150
45,911 46,70 47,510 48,30
49,20 50,10 51,20 52,10
53,130 54,60 55,1261 56,190
57,420 58,280 59,360 60,140
61,671 62,40 63,30 65,20
67,450 68,60 69,310 70,100
71,60 72,470 73,8748 74,1031
75,8868 76,661 77,380 78,20
79,40 80,20 81,130 82,40
83,180 84,120 85,120 86,150
87,90 88,100 89,140 90,40
91,50 92,10 93,20 95,30
96,10 97,150 98,190 99,200
100,40 101,240 102,30 103,30
105,290 106,20 107,50 108,20
109,230 110,20 111,40 112,10
113,30 114,20 115,90 116,571
117,7637 118,771 119,330 120,20
125,50 126,60 127,80 129,2973
130,420 131,2422 132,2913 133,440
134,120 135,10 141,20 142,10
143,230 144,30 145,1371 146,180
147,60 155,10 157,561 158,90
159,310 160,50 161,10 171,90
172,30 173,350 174,60 175,20
183,10 185,10 186,10 187,150
188,30 189,10 199,10 201,9999
202,1682 203,510 204,50 214,30
215,30 216,150 217,40 218,10
289,10
##END=
