##TITLE=Itaconic acid, 2TMS derivative
##JCAMP-DX=4.24
##DATA TYPE=MASS SPECTRUM
##ORIGIN=S. MARKEY UNIV. OF COLO. MED. CTR., DENVER, COLORADO, USA
##OWNER=NIST Mass Spectrometry Data Center
Collection (C) 2014 copyright by the U.S. Secretary of Commerce
on behalf of the United States of America. All rights reserved.
##CAS REGISTRY NO=55494-04-7
##$NIST MASS SPEC NO=24253
##MOLFORM=C11 H22 O4 Si2
##MW=274
##$NIST SOURCE=MSDC
##XUNITS=M/Z
##YUNITS=RELATIVE INTENSITY
##XFACTOR=1
##YFACTOR=1
##FIRSTX=39
##LASTX=274
##FIRSTY=380
##MAXX=274
##MINX=39
##MAXY=9999
##MINY=10
##NPOINTS=101
##PEAK TABLE=(XY..XY)
39,380 40,700 41,100 42,50
43,600 44,360 45,1980 46,130
47,570 48,10 49,30 51,20
52,20 53,70 54,30 55,150
56,30 57,150 58,370 59,470
60,110 61,280 62,10 66,110
67,590 68,540 69,210 70,70
71,100 72,400 73,9999 74,930
75,2570 76,160 77,100 82,10
83,1200 84,100 85,110 87,30
89,30 93,20 94,180 95,90
96,20 97,530 98,250 99,110
100,70 101,110 102,10 103,50
105,10 112,50 113,20 115,50
116,20 117,230 118,40 119,50
122,280 127,30 131,210 132,30
133,540 134,70 135,40 140,70
141,270 142,200 143,60 147,9360
148,1460 149,860 150,90 151,20
155,20 156,20 157,80 159,30
169,50 173,40 184,70 185,60
187,100 188,10 201,600 202,10
215,410 216,80 217,30 228,40
229,110 230,770 231,150 232,60
259,1580 260,340 261,140 262,10
274,30
##END=
