##TITLE=Stigmastanol, TMS derivative
##JCAMP-DX=4.24
##DATA TYPE=MASS SPECTRUM
##ORIGIN=NIST Mass Spectrometry Data Center
##OWNER=NIST Mass Spectrometry Data Center
Collection (C) 2014 copyright by the U.S. Secretary of Commerce
on behalf of the United States of America. All rights reserved.
##CAS REGISTRY NO=55493-85-1
##$NIST MASS SPEC NO=333327
##MOLFORM=C32 H60 O Si
##MW=488
##$NIST SOURCE=MSDC
##XUNITS=M/Z
##YUNITS=RELATIVE INTENSITY
##XFACTOR=1
##YFACTOR=1
##FIRSTX=27
##LASTX=491
##FIRSTY=90
##MAXX=491
##MINX=27
##MAXY=9999
##MINY=10
##NPOINTS=338
##PEAK TABLE=(XY..XY)
27,90 29,220 38,10 39,120
40,30 41,1351 42,190 43,3914
44,140 45,190 46,20 47,110
48,10 51,20 53,180 54,60
55,2783 56,330 57,3653 58,180
59,200 60,70 61,400 62,30
63,20 65,70 66,50 67,1752
68,420 69,2392 70,240 71,1451
72,110 73,3333 74,500 75,9999
76,711 77,771 78,100 79,1912
80,310 81,3553 82,520 83,1401
84,270 85,1541 86,100 87,50
88,40 89,420 90,50 91,1672
92,440 93,2712 94,791 95,3583
96,370 97,1231 98,240 99,300
100,30 101,350 102,50 103,200
104,240 105,1852 106,2582 107,4014
108,1441 109,2212 110,661 111,1161
112,100 113,150 114,30 115,220
116,130 117,420 118,250 119,1431
120,881 121,2342 122,761 123,1251
124,280 125,400 126,30 127,160
128,60 129,1081 130,500 131,1361
132,270 133,1441 134,701 135,1631
136,641 137,550 138,470 139,190
140,30 141,110 142,1341 143,490
144,180 145,1251 146,430 147,2362
148,1061 149,1371 150,230 151,290
152,260 153,90 154,50 155,801
156,190 157,170 158,140 159,1071
160,571 161,1361 162,470 163,480
164,70 165,360 166,180 167,100
168,70 169,160 170,40 171,90
172,210 173,771 174,280 175,571
176,230 177,230 178,60 179,230
180,200 181,200 182,160 183,220
184,50 185,90 186,40 187,520
188,250 189,360 190,390 191,270
192,90 193,60 194,20 195,80
196,500 197,170 198,50 199,140
200,60 201,991 202,310 203,290
204,100 205,80 206,20 207,70
208,30 209,190 210,60 211,30
212,20 213,90 215,6416 216,3523
217,2222 218,300 219,100 220,20
221,40 222,30 223,30 224,10
225,10 227,30 228,20 229,270
230,1061 231,410 232,80 233,50
234,40 235,70 236,70 237,470
238,210 239,70 240,20 241,100
242,30 243,100 244,60 245,70
246,20 247,80 248,30 249,60
250,30 251,30 254,10 255,270
256,80 257,420 258,100 259,20
260,10 261,50 262,20 263,140
264,60 265,40 269,60 270,20
271,30 272,10 273,30 274,20
275,100 276,40 277,90 278,70
279,30 283,30 284,20 285,210
286,80 287,50 288,40 289,60
290,581 291,380 292,140 293,40
294,10 297,10 299,30 300,60
301,60 302,40 303,70 304,110
305,1471 306,1481 307,380 308,80
309,10 313,30 314,20 315,40
316,90 317,140 318,40 319,80
320,230 321,50 322,30 327,20
328,10 329,30 330,40 331,320
332,110 333,80 334,40 335,10
339,10 341,70 342,30 343,180
344,130 345,170 346,70 347,60
348,20 355,80 356,80 357,60
358,160 359,240 360,70 361,20
369,90 370,50 371,10 372,150
373,90 374,30 375,130 376,50
377,10 381,20 383,2002 384,641
385,100 386,10 387,20 388,30
389,40 390,60 391,30 392,10
397,220 398,1271 399,420 400,80
403,10 404,10 416,10 429,10
431,851 432,300 433,70 434,10
445,10 457,10 459,20 471,10
473,2522 474,1021 475,230 476,50
477,10 486,30 488,2192 489,921
490,210 491,40
##END=
