##TITLE=4-(2-Methylamino)ethyl)pyridine
##JCAMP-DX=4.24
##DATA TYPE=MASS SPECTRUM
##ORIGIN=NIST Mass Spectrometry Data Center, 1994
##OWNER=NIST Mass Spectrometry Data Center
Collection (C) 2014 copyright by the U.S. Secretary of Commerce
on behalf of the United States of America. All rights reserved.
##CAS REGISTRY NO=55496-55-4
##$NIST MASS SPEC NO=134105
##MOLFORM=C8 H12 N2
##MW=136
##$NIST SOURCE=MSDC
##XUNITS=M/Z
##YUNITS=RELATIVE INTENSITY
##XFACTOR=1
##YFACTOR=1
##FIRSTX=13
##LASTX=136
##FIRSTY=13
##MAXX=136
##MINX=13
##MAXY=9999
##MINY=5
##NPOINTS=65
##PEAK TABLE=(XY..XY)
13,13 14,57 15,506 26,281
27,563 28,1515 29,225 30,328
31,16 37,107 38,310 39,1361
40,205 41,319 42,1031 43,16
44,9999 45,267 50,523 51,932
52,435 53,184 54,100 55,24
56,147 57,87 58,421 59,19
60,6 61,41 62,121 63,314
64,210 65,738 66,219 67,179
68,33 74,37 75,57 76,72
77,225 78,233 79,87 80,62
81,11 87,6 88,5 90,18
93,5622 94,510 95,25 102,7
104,58 105,55 106,211 108,28
117,7 118,13 119,71 120,23
132,12 133,57 134,20 135,74
136,13
##END=
