##TITLE=Hexanoylglycine, TMS derivative
##JCAMP-DX=4.24
##DATA TYPE=MASS SPECTRUM
##ORIGIN=S. MARKEY UNIV. OF COLO. MED. CTR., DENVER, COLORADO, USA
##OWNER=NIST Mass Spectrometry Data Center
Collection (C) 2014 copyright by the U.S. Secretary of Commerce
on behalf of the United States of America. All rights reserved.
##CAS REGISTRY NO=55494-05-8
##$NIST MASS SPEC NO=24258
##MOLFORM=C11 H23 N O3 Si
##MW=245
##$NIST SOURCE=MSDC
##XUNITS=M/Z
##YUNITS=RELATIVE INTENSITY
##XFACTOR=1
##YFACTOR=1
##FIRSTX=39
##LASTX=231
##FIRSTY=370
##MAXX=231
##MINX=39
##MAXY=9999
##MINY=80
##NPOINTS=41
##PEAK TABLE=(XY..XY)
39,370 41,1880 42,600 43,5490
44,810 45,1890 47,570 55,1380
56,520 58,430 59,110 61,530
69,220 71,2330 72,600 73,9999
74,910 75,4360 77,110 87,230
88,130 99,3060 102,510 104,520
116,130 129,100 130,760 131,290
132,380 145,1580 147,230 148,150
158,5480 159,1190 172,2450 173,360
186,180 189,2000 190,80 230,2780
231,230
##END=
