##TITLE=Hydrazine, (phenylmethyl)-
##JCAMP-DX=4.24
##DATA TYPE=MASS SPECTRUM
##ORIGIN=Japan AIST/NIMC Database- Spectrum MS-IW-1751
##OWNER=NIST Mass Spectrometry Data Center
Collection (C) 2014 copyright by the U.S. Secretary of Commerce
on behalf of the United States of America. All rights reserved.
##CAS REGISTRY NO=555-96-4
##$NIST MASS SPEC NO=235767
##MOLFORM=C7 H10 N2
##MW=122
##$NIST SOURCE=MSDC
##XUNITS=M/Z
##YUNITS=RELATIVE INTENSITY
##XFACTOR=1
##YFACTOR=1
##FIRSTX=26
##LASTX=124
##FIRSTY=10
##MAXX=124
##MINX=26
##MAXY=9999
##MINY=10
##NPOINTS=51
##PEAK TABLE=(XY..XY)
26,10 27,50 28,229 29,30
30,30 31,149 32,10 39,349
40,30 41,99 42,10 43,159
44,70 45,149 49,10 50,189
51,439 52,119 53,20 61,20
62,70 63,229 64,50 65,1149
66,80 73,10 74,50 75,40
76,70 77,509 78,169 79,80
86,10 87,10 89,189 90,80
91,9999 92,1509 93,289 94,30
103,20 104,199 105,40 106,119
107,70 119,30 120,50 121,80
122,3709 123,319 124,10
##END=
