##TITLE=.beta.-Phellandrene
##JCAMP-DX=4.24
##DATA TYPE=MASS SPECTRUM
##OWNER=NIST Mass Spectrometry Data Center
Collection (C) 2014 copyright by the U.S. Secretary of Commerce
on behalf of the United States of America. All rights reserved.
##CAS REGISTRY NO=555-10-2
##$NIST MASS SPEC NO=3307
##MOLFORM=C10 H16
##MW=136
##$NIST SOURCE=MSDC
##XUNITS=M/Z
##YUNITS=RELATIVE INTENSITY
##XFACTOR=1
##YFACTOR=1
##FIRSTX=27
##LASTX=137
##FIRSTY=591
##MAXX=137
##MINX=27
##MAXY=9999
##MINY=50
##NPOINTS=40
##PEAK TABLE=(XY..XY)
27,591 28,90 29,170 39,801
40,130 41,1101 42,60 43,550
50,70 51,300 52,150 53,360
54,50 55,150 63,130 64,70
65,500 66,130 67,150 69,500
77,2742 78,540 79,1682 80,891
81,130 89,150 90,50 91,2472
92,831 93,9999 94,1511 95,110
103,60 105,140 107,180 108,80
119,110 121,520 136,1772 137,200
##END=
