##TITLE=Pargyline
##JCAMP-DX=4.24
##DATA TYPE=MASS SPECTRUM
##ORIGIN=Japan AIST/NIMC Database- Spectrum MS-NW-5455
##OWNER=NIST Mass Spectrometry Data Center
Collection (C) 2014 copyright by the U.S. Secretary of Commerce
on behalf of the United States of America. All rights reserved.
##CAS REGISTRY NO=555-57-7
##$NIST MASS SPEC NO=235445
##MOLFORM=C11 H13 N
##MW=159
##$NIST SOURCE=MSDC
##XUNITS=M/Z
##YUNITS=RELATIVE INTENSITY
##XFACTOR=1
##YFACTOR=1
##FIRSTX=14
##LASTX=161
##FIRSTY=20
##MAXX=161
##MINX=14
##MAXY=9999
##MINY=10
##NPOINTS=111
##PEAK TABLE=(XY..XY)
14,20 15,459 17,30 18,129
25,10 26,70 27,199 28,269
29,30 30,40 32,20 36,10
37,109 38,309 39,2109 40,269
41,849 42,4389 43,209 44,379
45,30 49,20 50,319 51,769
52,209 53,90 54,90 55,99
56,20 57,50 58,30 59,10
61,50 62,159 63,559 64,179
65,2099 66,379 67,90 68,6689
69,339 70,20 71,20 72,20
73,10 74,70 75,70 76,99
77,569 78,239 79,169 80,339
81,179 82,9999 83,629 84,20
85,10 86,30 87,30 88,20
89,479 90,219 91,9629 92,3049
93,229 94,30 101,10 102,40
103,90 104,219 105,70 106,70
107,30 108,60 109,10 113,10
114,20 115,379 116,179 117,189
118,1199 119,259 120,289 121,40
127,40 128,119 129,109 130,50
131,60 132,579 133,70 134,379
135,60 140,10 141,20 142,60
143,119 144,149 145,20 146,10
148,50 149,70 150,40 154,10
155,10 156,80 157,149 158,3249
159,4189 160,629 161,40
##END=
