##TITLE=Benzeneacetonitrile, 4-nitro-
##JCAMP-DX=4.24
##DATA TYPE=MASS SPECTRUM
##ORIGIN=Japan AIST/NIMC Database- Spectrum MS-NW-1720
##OWNER=NIST Mass Spectrometry Data Center
Collection (C) 2014 copyright by the U.S. Secretary of Commerce
on behalf of the United States of America. All rights reserved.
##CAS REGISTRY NO=555-21-5
##$NIST MASS SPEC NO=229389
##MOLFORM=C8 H6 N2 O2
##MW=162
##$NIST SOURCE=MSDC
##XUNITS=M/Z
##YUNITS=RELATIVE INTENSITY
##XFACTOR=1
##YFACTOR=1
##FIRSTX=14
##LASTX=164
##FIRSTY=30
##MAXX=164
##MINX=14
##MAXY=9999
##MINY=10
##NPOINTS=83
##PEAK TABLE=(XY..XY)
14,30 15,10 16,30 25,10
26,129 27,219 28,40 29,10
30,1919 31,30 32,30 36,10
37,329 38,619 39,1909 40,169
41,109 42,10 43,50 44,149
46,149 48,20 49,139 50,1949
51,1229 52,319 53,50 54,10
60,30 61,389 62,1099 63,2969
64,799 65,539 66,159 69,10
73,99 74,599 75,589 76,689
77,1869 78,359 79,20 80,10
84,20 85,99 86,199 87,359
88,669 89,8729 90,1649 91,109
92,70 98,20 99,20 100,20
101,10 102,159 103,149 104,2249
105,239 106,40 107,10 108,30
110,10 111,30 112,20 114,349
115,369 116,9999 117,939 118,40
130,10 131,40 132,2539 133,229
134,10 145,30 146,179 147,10
162,6459 163,609 164,50
##END=
