##TITLE=5-Nitro-2-furaldoxime
##JCAMP-DX=4.24
##DATA TYPE=MASS SPECTRUM
##ORIGIN=NIST Mass Spectrometry Data Center
##OWNER=NIST Mass Spectrometry Data Center
Collection (C) 2014 copyright by the U.S. Secretary of Commerce
on behalf of the United States of America. All rights reserved.
##CAS REGISTRY NO=555-15-7
##$NIST MASS SPEC NO=340839
##MOLFORM=C5 H4 N2 O4
##MW=156
##$NIST SOURCE=MSDC
##XUNITS=M/Z
##YUNITS=RELATIVE INTENSITY
##XFACTOR=1
##YFACTOR=1
##FIRSTX=12
##LASTX=158
##FIRSTY=20
##MAXX=158
##MINX=12
##MAXY=9999
##MINY=10
##NPOINTS=89
##PEAK TABLE=(XY..XY)
12,20 13,30 14,10 15,90
16,140 17,100 18,380 24,30
25,190 26,1061 27,1641 28,440
29,831 30,3733 31,40 32,40
36,220 37,2602 38,5295 39,1722
40,310 41,440 42,290 43,821
44,2602 45,360 46,350 48,40
49,300 50,1732 51,4734 52,2432
53,971 54,2062 55,2122 56,120
57,40 61,10 62,170 63,540
64,2072 65,1131 66,260 67,230
68,801 69,280 70,190 71,1321
72,2412 73,70 74,20 75,10
77,60 78,80 79,3863 80,1101
81,310 82,1421 83,150 84,10
85,80 91,30 92,40 93,540
94,180 95,30 96,1922 97,180
98,470 99,1902 100,80 106,40
108,470 109,190 110,320 111,50
122,40 123,20 124,20 126,9999
127,591 128,80 138,520 139,160
140,540 141,40 156,8207 157,510
158,70
##END=
