##TITLE=Benzoic acid, 5-methoxy-2-[(trimethylsilyl)oxy]-, trimethylsilyl ester
##JCAMP-DX=4.24
##DATA TYPE=MASS SPECTRUM
##ORIGIN=S. MARKEY UNIV. OF COLO. MED. CTR., DENVER, COLORADO, USA
##OWNER=NIST Mass Spectrometry Data Center
Collection (C) 2014 copyright by the U.S. Secretary of Commerce
on behalf of the United States of America. All rights reserved.
##CAS REGISTRY NO=55517-47-0
##$NIST MASS SPEC NO=24188
##MOLFORM=C14 H24 O4 Si2
##MW=312
##$NIST SOURCE=MSDC
##XUNITS=M/Z
##YUNITS=RELATIVE INTENSITY
##XFACTOR=1
##YFACTOR=1
##FIRSTX=40
##LASTX=312
##FIRSTY=1740
##MAXX=312
##MINX=40
##MAXY=9999
##MINY=80
##NPOINTS=24
##PEAK TABLE=(XY..XY)
40,1740 41,80 44,400 45,500
69,270 73,4180 74,390 75,390
121,80 137,80 147,250 149,340
150,320 165,370 180,440 209,300
223,400 224,260 239,270 296,140
297,9999 298,2630 299,900 312,360
##END=
