##TITLE=Gluonic acid, .gamma.-lactone, 4TMS derivavative
##JCAMP-DX=4.24
##DATA TYPE=MASS SPECTRUM
##OWNER=NIST Mass Spectrometry Data Center
Collection (C) 2014 copyright by the U.S. Secretary of Commerce
on behalf of the United States of America. All rights reserved.
##CAS REGISTRY NO=55515-33-8
##$NIST MASS SPEC NO=17877
##MOLFORM=C18 H42 O6 Si4
##MW=466
##$NIST SOURCE=MSDC
##XUNITS=M/Z
##YUNITS=RELATIVE INTENSITY
##XFACTOR=1
##YFACTOR=1
##FIRSTX=15
##LASTX=468
##FIRSTY=300
##MAXX=468
##MINX=15
##MAXY=9999
##MINY=10
##NPOINTS=68
##PEAK TABLE=(XY..XY)
15,300 43,200 45,601 47,100
55,100 58,100 59,300 72,100
73,9999 74,701 75,901 81,200
89,100 101,100 103,1001 117,500
129,601 130,100 131,300 133,500
135,100 143,200 145,100 147,2102
148,300 149,400 155,100 189,601
190,200 191,200 203,200 204,1001
205,1201 206,300 207,200 217,4204
218,801 219,601 221,100 229,100
230,100 231,100 243,300 244,400
245,200 271,100 292,100 305,400
306,100 307,100 317,100 319,100
331,100 332,300 333,300 334,300
335,300 348,50 349,40 361,280
362,90 363,60 423,40 451,70
452,10 466,190 467,80 468,50
##END=
