##TITLE=Mannonic acid, lactone - 4TMS derivative
##JCAMP-DX=4.24
##DATA TYPE=MASS SPECTRUM
##OWNER=NIST Mass Spectrometry Data Center
Collection (C) 2014 copyright by the U.S. Secretary of Commerce
on behalf of the United States of America. All rights reserved.
##CAS REGISTRY NO=55515-28-1
##$NIST MASS SPEC NO=17886
##MOLFORM=C18 H42 O6 Si4
##MW=466
##$NIST SOURCE=MSDC
##XUNITS=M/Z
##YUNITS=RELATIVE INTENSITY
##XFACTOR=1
##YFACTOR=1
##FIRSTX=43
##LASTX=468
##FIRSTY=100
##MAXX=468
##MINX=43
##MAXY=9999
##MINY=10
##NPOINTS=65
##PEAK TABLE=(XY..XY)
43,100 44,200 45,601 55,100
59,300 72,200 73,9999 74,901
75,801 81,200 89,100 101,200
102,200 103,901 117,500 129,1301
130,400 131,300 133,500 143,300
147,2402 148,400 149,300 157,400
169,200 189,701 190,100 191,300
204,701 205,200 217,901 218,200
219,500 220,1001 221,300 222,100
229,801 230,300 231,200 243,300
245,100 305,200 317,100 319,2102
320,601 321,300 333,300 335,100
347,10 348,10 359,10 360,10
361,290 362,80 363,50 364,10
376,20 377,10 451,130 452,60
453,30 454,10 466,110 467,50
468,30
##END=
