##TITLE=Cyclohexane, (1-hexadecylheptadecyl)-
##JCAMP-DX=4.24
##DATA TYPE=MASS SPECTRUM
##ORIGIN=CONTINENTAL OIL CO., PONCA CITY, OKLA, USA
##OWNER=NIST Mass Spectrometry Data Center
Collection (C) 2014 copyright by the U.S. Secretary of Commerce
on behalf of the United States of America. All rights reserved.
##CAS REGISTRY NO=55517-75-4
##$NIST MASS SPEC NO=34827
##MOLFORM=C39 H78
##MW=546
##$NIST SOURCE=MSDC
##XUNITS=M/Z
##YUNITS=RELATIVE INTENSITY
##XFACTOR=1
##YFACTOR=1
##FIRSTX=13
##LASTX=546
##FIRSTY=31
##MAXX=546
##MINX=13
##MAXY=9999
##MINY=1
##NPOINTS=296
##PEAK TABLE=(XY..XY)
13,31 14,71 15,184 16,82
24,12 25,23 26,114 27,940
28,685 29,2289 30,76 37,46
38,60 39,562 40,158 41,4409
42,1015 43,9400 44,1682 45,45
46,20 49,25 50,58 51,82
52,57 53,243 54,871 55,7285
56,2032 57,9999 58,458 59,26
61,24 62,24 63,39 64,26
65,71 66,134 67,2032 68,857
69,4076 70,1327 71,5647 72,331
73,33 74,30 75,30 76,34
77,109 78,129 79,237 80,177
81,1327 82,7362 83,7618 84,1006
85,2444 86,153 91,378 92,81
93,87 94,68 95,686 96,1038
97,2984 98,426 99,519 100,34
102,2 103,18 104,54 105,247
106,40 107,43 108,46 109,523
110,292 111,1232 112,240 113,344
114,27 115,27 116,8 117,66
118,32 119,62 120,12 121,27
122,27 123,147 124,131 125,538
126,147 127,254 128,41 129,21
130,8 131,45 132,10 133,35
134,6 135,24 136,12 137,70
138,72 139,237 140,93 141,203
142,27 143,10 144,2 145,26
146,6 147,20 148,3 149,10
150,8 151,36 152,60 153,158
154,82 155,167 156,25 157,6
158,2 159,11 160,2 161,11
162,2 163,6 164,5 165,29
166,40 167,123 168,63 169,127
170,18 171,2 173,6 174,1
175,9 176,6 177,8 178,12
179,22 180,34 181,93 182,52
183,98 184,13 185,1 187,6
188,2 189,8 190,3 191,12
192,6 193,17 194,33 195,77
196,50 197,82 198,12 201,2
202,6 203,6 204,4 205,6
206,6 207,17 208,51 209,79
210,50 211,69 212,14 215,6
216,2 217,5 218,4 219,6
220,8 221,16 222,98 223,88
224,57 225,72 226,21 229,4
230,2 231,3 233,2 234,4
235,12 236,50 237,70 238,42
239,66 240,12 243,6 245,5
248,5 249,18 250,46 251,60
252,40 253,43 254,9 257,1
259,2 262,2 263,10 264,39
265,54 266,38 267,42 268,16
273,4 274,5 277,11 278,45
279,45 280,26 281,30 282,12
287,8 292,85 293,71 294,30
295,30 301,8 304,4 306,157
307,197 308,58 309,32 314,9
315,26 316,24 317,12 318,19
319,35 320,1485 321,1927 322,458
323,76 324,4 328,4 329,5
330,7 332,12 333,33 334,94
335,88 336,41 337,30 344,4
348,28 349,31 350,28 351,26
361,7 362,22 363,21 364,13
365,23 376,18 377,18 378,12
379,21 390,12 391,12 392,12
393,21 404,9 405,8 406,11
407,18 418,7 420,12 421,12
432,7 434,60 435,40 446,8
448,131 449,127 461,60 462,1140
463,1137 464,341 476,7 477,8
538,5 544,26 545,12 546,6
##END=
