##TITLE=Gluconolactone (3R,4S,5R,6R)-, 4TMS derivative
##JCAMP-DX=4.24
##DATA TYPE=MASS SPECTRUM
##OWNER=NIST Mass Spectrometry Data Center
Collection (C) 2014 copyright by the U.S. Secretary of Commerce
on behalf of the United States of America. All rights reserved.
##CAS REGISTRY NO=55515-29-2
##$NIST MASS SPEC NO=17885
##MOLFORM=C18 H42 O6 Si4
##MW=466
##$NIST SOURCE=MSDC
##XUNITS=M/Z
##YUNITS=RELATIVE INTENSITY
##XFACTOR=1
##YFACTOR=1
##FIRSTX=43
##LASTX=469
##FIRSTY=100
##MAXX=469
##MINX=43
##MAXY=9999
##MINY=10
##NPOINTS=85
##PEAK TABLE=(XY..XY)
43,100 44,200 45,601 47,100
55,100 59,300 72,200 73,9999
74,801 75,1101 81,100 89,200
101,200 102,200 103,901 117,601
129,1301 130,400 131,200 133,601
134,100 143,300 145,100 147,2202
148,400 149,300 157,400 169,300
189,701 190,200 191,400 201,100
203,100 204,901 205,300 206,100
215,200 217,901 218,200 219,601
220,1101 221,300 222,100 229,901
230,300 231,200 243,300 244,100
245,200 257,100 259,100 271,200
291,100 305,200 317,100 318,100
319,2602 320,901 321,400 331,200
332,100 333,400 334,100 335,200
348,20 359,20 360,20 361,240
362,80 363,60 376,70 377,60
378,30 379,10 393,10 395,10
423,10 451,240 452,110 453,50
454,20 466,250 467,120 468,60
469,20
##END=
