##TITLE=Pentacosane, 13-undecyl-
##JCAMP-DX=4.24
##DATA TYPE=MASS SPECTRUM
##OWNER=NIST Mass Spectrometry Data Center
Collection (C) 2014 copyright by the U.S. Secretary of Commerce
on behalf of the United States of America. All rights reserved.
##CAS REGISTRY NO=55517-89-0
##$NIST MASS SPEC NO=18163
##MOLFORM=C36 H74
##MW=506
##$NIST SOURCE=MSDC
##XUNITS=M/Z
##YUNITS=RELATIVE INTENSITY
##XFACTOR=1
##YFACTOR=1
##FIRSTX=39
##LASTX=436
##FIRSTY=400
##MAXX=436
##MINX=39
##MAXY=9999
##MINY=10
##NPOINTS=241
##PEAK TABLE=(XY..XY)
39,400 40,110 41,3333 42,1001
43,9909 44,340 45,10 47,10
49,10 50,20 51,30 52,20
53,140 54,380 55,3493 56,1732
57,9999 58,460 59,10 63,10
64,10 65,30 66,30 67,450
68,400 69,2422 70,1091 71,5995
72,340 73,10 74,10 75,10
76,10 77,30 78,10 79,60
80,30 81,300 82,370 83,1962
84,601 85,4264 86,290 87,10
91,30 92,10 93,40 94,20
95,190 96,230 97,1401 98,330
99,1211 100,100 101,10 102,10
103,10 104,10 105,20 106,10
107,20 108,10 109,80 110,110
111,671 112,210 113,831 114,80
115,10 116,10 117,10 118,10
119,20 120,10 121,10 122,10
123,40 124,70 125,310 126,150
127,621 128,70 129,10 130,10
131,10 132,10 133,10 134,10
135,20 136,10 137,40 138,60
139,150 140,120 141,480 142,60
143,10 144,10 145,10 146,10
147,10 148,10 149,10 150,10
151,10 152,50 153,100 154,110
155,380 156,50 157,10 158,10
159,10 162,10 163,10 164,10
165,10 166,40 167,80 168,110
169,320 170,50 171,10 172,10
173,10 178,10 179,10 180,40
181,80 182,70 183,260 184,50
185,10 186,10 187,10 188,10
189,10 190,10 191,10 192,10
193,10 194,40 195,60 196,60
197,230 198,40 199,10 200,10
201,10 202,10 203,10 204,10
205,10 206,10 207,10 208,30
209,50 210,60 211,200 212,40
213,10 221,10 222,30 223,40
224,40 225,170 226,40 227,10
235,10 236,30 237,40 238,40
239,160 240,40 241,10 250,20
251,30 252,40 253,140 254,30
255,10 264,20 265,20 266,30
267,120 268,30 269,10 278,10
279,20 280,30 281,100 282,30
283,10 292,10 293,10 294,30
295,70 296,20 297,10 306,10
307,10 308,70 309,60 310,10
311,10 320,10 321,10 322,60
323,60 324,10 335,10 336,1011
337,1391 338,340 339,50 340,10
349,10 350,460 351,701 352,180
353,30 354,10 364,40 365,60
366,20 367,10 377,10 378,20
379,30 380,10 392,10 393,10
394,10 406,10 407,10 408,10
420,10 421,10 434,10 435,10
436,10
##END=
