##TITLE=Idonic acid, .gamma.-lactone, 4TMS derivavative
##JCAMP-DX=4.24
##DATA TYPE=MASS SPECTRUM
##OWNER=NIST Mass Spectrometry Data Center
Collection (C) 2014 copyright by the U.S. Secretary of Commerce
on behalf of the United States of America. All rights reserved.
##CAS REGISTRY NO=55515-32-7
##$NIST MASS SPEC NO=17882
##MOLFORM=C18 H42 O6 Si4
##MW=466
##$NIST SOURCE=MSDC
##XUNITS=M/Z
##YUNITS=RELATIVE INTENSITY
##XFACTOR=1
##YFACTOR=1
##FIRSTX=43
##LASTX=469
##FIRSTY=100
##MAXX=469
##MINX=43
##MAXY=9999
##MINY=10
##NPOINTS=75
##PEAK TABLE=(XY..XY)
43,100 44,100 45,601 55,100
59,300 69,100 72,200 73,9999
74,801 75,1001 81,200 89,100
101,200 103,1902 104,200 105,100
117,601 119,100 129,601 130,100
131,300 133,601 143,200 147,2502
148,400 149,300 155,100 189,1101
190,200 191,300 203,100 204,801
205,1501 206,300 207,200 217,4304
218,901 219,901 220,200 221,100
230,100 231,100 243,300 244,1001
245,500 246,200 271,200 305,901
306,300 307,300 332,200 333,500
334,601 335,901 336,300 337,100
347,10 348,50 349,30 361,520
362,190 363,200 364,70 365,30
376,10 393,20 423,30 451,190
452,70 453,40 454,10 466,230
467,90 468,50 469,20
##END=
