##TITLE=Hexacosane, 13-dodecyl-
##JCAMP-DX=4.24
##DATA TYPE=MASS SPECTRUM
##OWNER=NIST Mass Spectrometry Data Center
Collection (C) 2014 copyright by the U.S. Secretary of Commerce
on behalf of the United States of America. All rights reserved.
##CAS REGISTRY NO=55517-73-2
##$NIST MASS SPEC NO=18277
##MOLFORM=C38 H78
##MW=534
##$NIST SOURCE=MSDC
##XUNITS=M/Z
##YUNITS=RELATIVE INTENSITY
##XFACTOR=1
##YFACTOR=1
##FIRSTX=37
##LASTX=421
##FIRSTY=20
##MAXX=421
##MINX=37
##MAXY=9999
##MINY=10
##NPOINTS=198
##PEAK TABLE=(XY..XY)
37,20 38,30 39,430 40,100
41,3283 42,1001 43,9999 44,350
45,10 50,30 51,30 52,20
53,140 54,400 55,3443 56,1722
57,9989 58,460 59,20 63,20
64,10 65,30 66,40 67,440
68,410 69,2302 70,1031 71,5685
72,320 73,20 74,20 75,20
76,20 77,40 78,20 79,60
80,40 81,270 82,360 83,1842
84,550 85,3763 86,260 87,10
91,80 92,40 93,40 94,20
95,160 96,210 97,1271 98,300
99,1041 100,90 101,20 103,10
104,20 105,70 106,20 107,20
108,10 109,70 110,100 111,591
112,190 113,701 114,70 115,10
116,10 117,20 118,10 119,40
120,10 121,10 122,10 123,40
124,60 125,280 126,130 127,510
128,60 129,10 130,10 131,10
132,10 133,20 134,10 135,10
136,10 137,30 138,50 139,130
140,100 141,400 142,50 143,20
151,10 152,40 153,80 154,80
155,310 156,40 165,10 166,40
167,70 168,90 169,250 170,40
171,10 179,10 180,40 181,60
182,80 183,220 184,40 185,10
193,20 194,40 195,60 196,50
197,180 198,30 208,30 209,40
210,60 211,160 212,30 213,10
214,10 221,10 222,20 223,30
224,40 225,140 226,30 227,10
228,10 229,10 230,20 231,10
236,20 237,30 238,30 239,130
240,30 241,10 250,40 251,40
252,40 253,140 254,40 264,40
265,40 266,40 267,120 268,40
278,30 279,30 280,40 281,110
282,30 292,20 293,20 294,40
295,100 296,30 305,20 306,20
307,20 308,30 309,70 310,30
321,20 322,50 323,60 324,20
336,70 337,60 338,30 350,440
351,611 352,160 353,30 363,20
364,751 365,1091 366,310 367,50
378,40 379,60 380,20 392,20
393,30 394,20 406,10 407,20
420,10 421,10
##END=
