##TITLE=Glycine, N-(trimethylsilyl)-N-[3-[(trimethylsilyl)oxy]benzoyl]-, trimethylsilyl ester
##JCAMP-DX=4.24
##DATA TYPE=MASS SPECTRUM
##ORIGIN=S. MARKEY UNIV. OF COLO. MED. CTR., DENVER, COLORADO, USA
##OWNER=NIST Mass Spectrometry Data Center
Collection (C) 2014 copyright by the U.S. Secretary of Commerce
on behalf of the United States of America. All rights reserved.
##CAS REGISTRY NO=55517-54-9
##$NIST MASS SPEC NO=24224
##MOLFORM=C18 H33 N O4 Si3
##MW=411
##$NIST SOURCE=MSDC
##XUNITS=M/Z
##YUNITS=RELATIVE INTENSITY
##XFACTOR=1
##YFACTOR=1
##FIRSTX=42
##LASTX=413
##FIRSTY=40
##MAXX=413
##MINX=42
##MAXY=9999
##MINY=20
##NPOINTS=121
##PEAK TABLE=(XY..XY)
42,40 43,360 44,280 45,1670
46,80 47,250 57,80 58,160
59,540 60,20 61,160 71,30
72,270 73,9999 74,890 75,1610
76,230 77,180 86,170 87,20
88,20 89,80 90,20 91,530
92,80 93,50 95,60 100,110
102,30 103,60 104,20 105,80
108,60 109,350 116,170 117,80
119,130 120,90 121,140 131,150
132,20 133,410 134,50 135,550
136,60 137,30 141,210 147,850
148,200 149,840 150,290 151,160
160,50 161,20 162,20 163,230
164,50 165,520 166,80 174,60
176,260 177,310 178,120 179,2560
180,400 181,160 188,20 190,90
191,210 192,220 193,5060 194,790
195,290 204,140 205,260 206,150
207,120 209,80 218,40 219,20
220,20 223,150 234,130 237,90
238,20 251,80 264,50 265,80
266,400 267,180 268,60 278,330
279,140 280,290 281,40 290,90
291,210 292,700 293,430 294,1720
295,460 296,170 306,70 308,160
309,20 321,220 322,130 323,70
324,90 339,100 366,200 367,60
368,240 369,80 396,770 397,270
398,110 410,470 411,840 412,340
413,140
##END=
