##TITLE=Tiglyl glycine, 2TMS derivative
##JCAMP-DX=4.24
##DATA TYPE=MASS SPECTRUM
##ORIGIN=James Shoemaker, St. Louis Online Library of Metabolic Mass Spectra
##OWNER=NIST Mass Spectrometry Data Center
Collection (C) 2014 copyright by the U.S. Secretary of Commerce
on behalf of the United States of America. All rights reserved.
##CAS REGISTRY NO=55517-45-8
##$NIST MASS SPEC NO=141467
##MOLFORM=C13 H27 N O3 Si2
##MW=301
##$NIST SOURCE=MSDC
##XUNITS=M/Z
##YUNITS=RELATIVE INTENSITY
##XFACTOR=1
##YFACTOR=1
##FIRSTX=53
##LASTX=303
##FIRSTY=99
##MAXX=303
##MINX=53
##MAXY=9999
##MINY=0
##NPOINTS=125
##PEAK TABLE=(XY..XY)
53,99 54,109 55,2459 56,129
58,99 59,319 61,80 66,10
67,60 68,20 69,9539 70,629
71,40 72,389 73,9999 74,859
75,1939 76,80 77,60 78,10
80,60 81,10 82,189 83,7929
84,499 85,30 86,149 87,10
88,30 94,229 95,50 96,20
97,20 98,269 99,20 100,109
101,30 102,309 103,30 110,40
111,10 112,109 113,149 114,0
115,20 116,429 117,70 118,10
119,0 122,20 124,0 125,70
126,209 127,20 128,20 129,169
130,30 131,80 132,10 133,229
134,10 136,50 139,70 140,50
141,199 142,30 143,10 147,2379
148,329 149,209 150,10 152,30
153,10 154,569 155,109 156,179
157,30 158,10 166,30 168,1549
169,189 170,2479 171,399 172,90
173,10 174,10 176,90 177,0
182,70 183,99 184,3449 185,469
186,129 187,0 191,0 196,80
197,0 198,10 200,10 211,209
212,189 214,249 215,119 216,10
218,20 226,0 228,229 229,109
230,0 231,20 242,279 243,109
256,70 257,10 258,159 259,259
260,20 272,10 286,5179 287,1179
288,439 289,20 301,209 302,20
303,0
##END=
