##TITLE=Allonic acid, .gamma.-lactone, 4TMS derivavative
##JCAMP-DX=4.24
##DATA TYPE=MASS SPECTRUM
##OWNER=NIST Mass Spectrometry Data Center
Collection (C) 2014 copyright by the U.S. Secretary of Commerce
on behalf of the United States of America. All rights reserved.
##CAS REGISTRY NO=55515-34-9
##$NIST MASS SPEC NO=17878
##MOLFORM=C18 H42 O6 Si4
##MW=466
##$NIST SOURCE=MSDC
##XUNITS=M/Z
##YUNITS=RELATIVE INTENSITY
##XFACTOR=1
##YFACTOR=1
##FIRSTX=43
##LASTX=469
##FIRSTY=100
##MAXX=469
##MINX=43
##MAXY=9999
##MINY=10
##NPOINTS=74
##PEAK TABLE=(XY..XY)
43,100 44,200 45,601 55,100
59,300 72,200 73,9999 74,901
75,901 81,200 89,100 97,100
101,100 102,100 103,1001 104,100
116,100 117,601 129,701 130,200
131,200 133,500 143,200 147,2702
148,400 149,300 157,100 189,801
190,200 191,300 203,100 204,801
205,1101 206,300 207,100 217,2602
218,500 219,400 220,200 221,100
229,200 230,200 231,200 243,400
244,500 245,200 246,100 271,200
292,100 305,100 318,100 319,100
333,200 334,100 347,10 348,170
349,50 350,20 361,581 362,200
363,320 364,80 365,40 367,10
393,20 423,20 451,190 452,70
453,40 454,10 466,310 467,130
468,80 469,20
##END=
