##TITLE=.beta.-Lactose, 8TMS derivative
##JCAMP-DX=4.24
##DATA TYPE=MASS SPECTRUM
##ORIGIN=WASHINGTON UNIVERSITY MEDICAL SCHOOL W.R. SHERMAN
##OWNER=NIST Mass Spectrometry Data Center
Collection (C) 2014 copyright by the U.S. Secretary of Commerce
on behalf of the United States of America. All rights reserved.
##CAS REGISTRY NO=55529-68-5
##$NIST MASS SPEC NO=24811
##MOLFORM=C36 H86 O11 Si8
##MW=918
##$NIST SOURCE=MSDC
##XUNITS=M/Z
##YUNITS=RELATIVE INTENSITY
##XFACTOR=1
##YFACTOR=1
##FIRSTX=55
##LASTX=815
##FIRSTY=37
##MAXX=815
##MINX=55
##MAXY=9999
##MINY=10
##NPOINTS=103
##PEAK TABLE=(XY..XY)
55,37 59,37 69,120 72,37
73,4119 74,325 75,311 81,56
89,32 101,42 103,814 104,66
116,46 117,281 119,32 129,917
130,115 131,169 133,169 142,61
143,135 145,56 147,1230 148,198
149,159 155,81 157,120 169,271
170,42 171,37 175,37 177,32
189,223 190,71 191,2113 192,374
193,179 203,149 204,9999 205,1996
206,839 207,149 215,32 217,2064
218,633 219,252 220,51 221,105
229,76 230,105 231,198 232,51
233,76 243,609 244,159 245,135
246,32 247,86 257,46 259,46
265,56 271,497 272,130 273,66
279,46 291,90 305,330 306,100
307,56 317,76 318,32 319,237
320,71 321,46 331,100 332,81
333,66 335,37 345,66 359,42
361,1181 362,389 363,193 364,42
435,56 451,66 521,213 522,95
523,46 539,22 569,32 570,16
571,10 649,10 683,20 684,13
685,10 723,13 724,10 725,10
813,31 814,24 815,16
##END=
