##TITLE=Dodecanoic acid, TMS derivative
##JCAMP-DX=4.24
##DATA TYPE=MASS SPECTRUM
##ORIGIN=NIST Mass Spectrometry Data Center
##OWNER=NIST Mass Spectrometry Data Center
Collection (C) 2014 copyright by the U.S. Secretary of Commerce
on behalf of the United States of America. All rights reserved.
##CAS REGISTRY NO=55520-95-1
##$NIST MASS SPEC NO=333721
##MOLFORM=C15 H32 O2 Si
##MW=272
##$NIST SOURCE=MSDC
##XUNITS=M/Z
##YUNITS=RELATIVE INTENSITY
##XFACTOR=1
##YFACTOR=1
##FIRSTX=15
##LASTX=274
##FIRSTY=10
##MAXX=274
##MINX=15
##MAXY=9999
##MINY=10
##NPOINTS=165
##PEAK TABLE=(XY..XY)
15,10 27,180 28,60 29,460
30,10 31,10 39,220 40,50
41,1371 42,310 43,1431 44,130
45,611 46,40 47,340 48,20
49,10 51,10 52,10 53,130
54,110 55,1922 56,320 57,581
58,220 59,290 60,110 61,561
62,40 63,20 65,30 66,10
67,310 68,70 69,591 70,130
71,150 72,370 73,8217 74,911
75,7257 76,520 77,330 78,20
79,90 80,20 81,380 82,50
83,370 84,200 85,150 86,110
87,90 88,80 89,200 90,40
91,60 92,10 93,90 94,10
95,450 96,50 97,320 98,280
99,210 100,30 101,160 102,30
103,40 105,240 106,20 107,50
108,10 109,130 110,30 111,130
112,90 113,30 114,10 115,100
116,781 117,9999 118,981 119,410
120,20 121,40 122,10 123,30
124,10 125,40 126,100 127,30
129,4434 130,601 131,1792 132,4424
133,711 134,200 135,40 136,10
137,10 138,10 139,60 140,20
141,30 142,10 143,320 145,2422
146,310 147,110 148,10 149,10
151,10 153,30 154,20 155,30
156,10 157,150 158,20 159,300
160,50 161,10 163,20 164,10
167,10 171,200 172,30 173,110
174,40 175,10 181,10 182,10
183,20 185,230 186,40 187,250
188,50 189,10 199,40 201,410
202,70 203,20 213,400 214,80
215,80 216,20 227,50 228,10
229,310 230,60 231,20 241,10
243,110 244,20 245,10 255,20
257,9048 258,1862 259,510 260,60
261,10 271,40 272,330 273,80
274,20
##END=
