##TITLE=Aconitic acid, (E)-, 3TMS derivative
##JCAMP-DX=4.24
##DATA TYPE=MASS SPECTRUM
##ORIGIN=S. MARKEY UNIV. OF COLO. MED. CTR., DENVER, COLORADO, USA
##OWNER=NIST Mass Spectrometry Data Center
Collection (C) 2014 copyright by the U.S. Secretary of Commerce
on behalf of the United States of America. All rights reserved.
##CAS REGISTRY NO=55530-72-8
##$NIST MASS SPEC NO=24252
##MOLFORM=C15 H30 O6 Si3
##MW=390
##$NIST SOURCE=MSDC
##XUNITS=M/Z
##YUNITS=RELATIVE INTENSITY
##XFACTOR=1
##YFACTOR=1
##FIRSTX=39
##LASTX=378
##FIRSTY=220
##MAXX=378
##MINX=39
##MAXY=9999
##MINY=10
##NPOINTS=101
##PEAK TABLE=(XY..XY)
39,220 43,300 44,250 45,1330
46,70 47,220 53,100 55,50
57,90 58,140 59,200 60,20
61,140 66,80 67,740 68,60
69,40 70,20 71,50 72,240
73,9999 74,810 75,1590 76,240
77,70 81,50 82,30 83,90
93,20 94,200 95,150 96,70
97,270 98,30 99,50 103,10
111,30 113,20 115,30 116,20
117,110 118,180 119,230 131,120
132,10 133,500 134,70 135,50
141,80 143,30 146,10 147,3470
148,550 149,620 150,70 152,470
153,30 155,40 156,20 157,50
159,10 169,50 171,20 183,40
184,110 185,30 207,30 211,470
212,70 213,50 215,320 216,160
217,140 221,40 228,90 229,1320
230,320 231,130 232,10 243,20
245,20 257,80 258,10 259,20
272,100 273,50 274,10 285,550
286,100 287,140 288,10 300,100
301,30 303,10 346,320 347,110
348,50 375,1120 376,330 377,180
378,30
##END=
