##TITLE=Glycine, N-(2-methyl-1-oxopropyl)-N-(trimethylsilyl)-, trimethylsilyl ester
##JCAMP-DX=4.24
##DATA TYPE=MASS SPECTRUM
##ORIGIN=ORVAL A. MAMER, ROYAL VICTORIA HOSPITAL, MONTREAL, CANADA
##OWNER=NIST Mass Spectrometry Data Center
Collection (C) 2014 copyright by the U.S. Secretary of Commerce
on behalf of the United States of America. All rights reserved.
##CAS REGISTRY NO=55530-55-7
##$NIST MASS SPEC NO=23914
##MOLFORM=C12 H27 N O3 Si2
##MW=289
##$NIST SOURCE=MSDC
##XUNITS=M/Z
##YUNITS=RELATIVE INTENSITY
##XFACTOR=1
##YFACTOR=1
##FIRSTX=15
##LASTX=291
##FIRSTY=135
##MAXX=291
##MINX=15
##MAXY=9999
##MINY=56
##NPOINTS=90
##PEAK TABLE=(XY..XY)
15,135 26,56 27,437 28,419
29,175 30,174 31,105 39,179
40,66 41,983 42,287 43,3849
44,445 45,2022 46,141 47,407
55,229 56,206 57,187 58,281
59,757 60,105 61,243 68,401
69,103 70,149 71,1789 72,509
73,9999 74,930 75,2131 76,151
77,101 82,182 83,207 84,81
86,430 87,94 88,104 98,64
100,722 101,702 102,6031 103,693
104,299 110,87 116,245 117,166
128,66 129,114 130,242 131,227
132,92 133,309 142,193 143,64
144,672 145,160 147,1659 148,279
149,161 156,278 158,388 159,61
170,64 171,199 172,3994 173,741
174,402 176,1487 177,267 178,132
184,179 199,698 200,218 201,63
202,192 218,768 219,172 220,90
230,56 246,1404 247,305 248,141
274,1917 275,447 276,194 289,912
290,255 291,98
##END=
