##TITLE=D-Glucuronic acid, 2,3,4,5-tetrakis-O-(trimethylsilyl)-, trimethylsilyl ester
##JCAMP-DX=4.24
##DATA TYPE=MASS SPECTRUM
##ORIGIN=O A MAMER, MCGILL UNIVERSITY, MONTRE
##OWNER=NIST Mass Spectrometry Data Center
Collection (C) 2014 copyright by the U.S. Secretary of Commerce
on behalf of the United States of America. All rights reserved.
##CAS REGISTRY NO=55530-80-8
##$NIST MASS SPEC NO=79257
##MOLFORM=C21 H50 O7 Si5
##MW=554
##$NIST SOURCE=MSDC
##XUNITS=M/Z
##YUNITS=RELATIVE INTENSITY
##XFACTOR=1
##YFACTOR=1
##FIRSTX=28
##LASTX=539
##FIRSTY=268
##MAXX=539
##MINX=28
##MAXY=9999
##MINY=15
##NPOINTS=97
##PEAK TABLE=(XY..XY)
28,268 43,99 45,614 47,81
55,97 72,183 73,9999 74,909
75,754 76,64 101,91 103,201
116,98 117,140 129,256 131,215
133,395 134,63 143,343 147,2427
148,417 149,272 169,146 189,286
190,85 191,995 192,196 193,107
203,64 204,3429 205,659 206,329
207,74 217,3295 218,844 219,342
220,71 221,149 222,46 223,33
229,26 230,31 231,23 232,108
233,346 234,83 235,43 243,51
245,143 246,34 247,23 257,108
258,35 259,34 265,47 277,24
278,24 279,27 285,45 291,158
292,784 293,231 294,156 295,15
303,24 305,1062 306,291 307,157
308,45 318,37 319,57 320,24
331,83 332,34 333,132 334,44
335,100 336,33 346,25 347,36
359,99 360,38 361,27 375,61
376,28 377,31 379,24 393,39
405,33 407,29 421,41 429,24
449,237 450,100 451,59 452,23
539,31
##END=
