##TITLE=Pimelic acid, 2TMS derivative
##JCAMP-DX=4.24
##DATA TYPE=MASS SPECTRUM
##ORIGIN=MO-18
##OWNER=NIST Mass Spectrometry Data Center
Collection (C) 2014 copyright by the U.S. Secretary of Commerce
on behalf of the United States of America. All rights reserved.
##CAS REGISTRY NO=55530-58-0
##$NIST MASS SPEC NO=30799
##MOLFORM=C13 H28 O4 Si2
##MW=304
##$NIST SOURCE=MSDC
##XUNITS=M/Z
##YUNITS=RELATIVE INTENSITY
##XFACTOR=1
##YFACTOR=1
##FIRSTX=15
##LASTX=291
##FIRSTY=252
##MAXX=291
##MINX=15
##MAXY=9999
##MINY=117
##NPOINTS=85
##PEAK TABLE=(XY..XY)
15,252 18,225 27,294 28,493
29,196 39,189 41,984 42,289
43,784 44,449 45,1745 46,141
47,850 53,132 55,3425 56,276
57,186 58,290 59,497 60,157
61,709 67,249 68,187 69,2586
70,216 72,563 73,9999 74,1061
75,7458 76,589 77,422 79,621
81,913 83,721 85,130 89,134
95,186 96,199 97,1300 98,128
99,206 101,181 105,138 111,286
116,633 117,1375 118,185 124,309
125,3153 126,272 129,1150 130,219
131,230 132,250 133,403 137,139
143,153 145,170 147,2962 148,495
149,865 150,136 155,2933 156,457
157,406 158,183 159,151 169,135
171,466 172,330 173,1719 174,265
186,605 187,144 199,318 204,448
205,117 214,222 215,153 217,766
218,192 245,126 289,1878 290,467
291,212
##END=
