##TITLE=m-Methoxymandelic acid, 2TMS derivative
##JCAMP-DX=4.24
##DATA TYPE=MASS SPECTRUM
##ORIGIN=MO-40
##OWNER=NIST Mass Spectrometry Data Center
Collection (C) 2014 copyright by the U.S. Secretary of Commerce
on behalf of the United States of America. All rights reserved.
##CAS REGISTRY NO=55530-67-1
##$NIST MASS SPEC NO=30821
##MOLFORM=C15 H26 O4 Si2
##MW=326
##$NIST SOURCE=MSDC
##XUNITS=M/Z
##YUNITS=RELATIVE INTENSITY
##XFACTOR=1
##YFACTOR=1
##FIRSTX=15
##LASTX=326
##FIRSTY=110
##MAXX=326
##MINX=15
##MAXY=9999
##MINY=100
##NPOINTS=46
##PEAK TABLE=(XY..XY)
15,110 18,290 28,261 29,102
43,329 44,286 45,1384 46,106
47,144 51,117 58,126 59,283
72,160 73,9907 74,878 75,867
76,107 77,278 89,133 91,252
92,112 105,138 107,100 119,122
131,137 133,328 134,159 135,336
141,252 147,2113 148,508 149,312
151,117 163,365 178,330 179,376
193,245 194,154 209,9999 210,1782
211,547 267,303 283,737 284,195
311,231 326,122
##END=
