##TITLE=o-Methoxymandelic acid, 2TMS derivative
##JCAMP-DX=4.24
##DATA TYPE=MASS SPECTRUM
##ORIGIN=ORVAL A. MAMER, ROYAL VICTORIA HOSPITAL, MONTREAL, CANADA
##OWNER=NIST Mass Spectrometry Data Center
Collection (C) 2014 copyright by the U.S. Secretary of Commerce
on behalf of the United States of America. All rights reserved.
##CAS REGISTRY NO=55530-66-0
##$NIST MASS SPEC NO=23955
##MOLFORM=C15 H26 O4 Si2
##MW=326
##$NIST SOURCE=MSDC
##XUNITS=M/Z
##YUNITS=RELATIVE INTENSITY
##XFACTOR=1
##YFACTOR=1
##FIRSTX=15
##LASTX=311
##FIRSTY=126
##MAXX=311
##MINX=15
##MAXY=9999
##MINY=58
##NPOINTS=59
##PEAK TABLE=(XY..XY)
15,126 18,185 28,265 29,107
31,65 39,77 43,336 44,306
45,1518 46,115 47,171 51,140
57,82 58,169 59,434 61,100
65,88 72,172 73,8342 74,745
75,919 76,111 77,339 78,68
89,190 90,80 91,342 92,107
103,192 104,164 105,188 119,346
120,88 121,70 131,128 133,393
134,95 135,676 136,83 147,1752
148,380 149,307 161,196 163,148
165,76 177,105 179,614 180,103
193,76 209,9999 210,1780 211,533
212,68 231,58 267,168 283,795
284,202 285,88 311,121
##END=
