##TITLE=Glycine, N-(1-oxopentyl)-N-(trimethylsilyl)-, trimethylsilyl ester
##JCAMP-DX=4.24
##DATA TYPE=MASS SPECTRUM
##ORIGIN=ORVAL A. MAMER, ROYAL VICTORIA HOSPITAL, MONTREAL, CANADA
##OWNER=NIST Mass Spectrometry Data Center
Collection (C) 2014 copyright by the U.S. Secretary of Commerce
on behalf of the United States of America. All rights reserved.
##CAS REGISTRY NO=55530-59-1
##$NIST MASS SPEC NO=23891
##MOLFORM=C13 H29 N O3 Si2
##MW=303
##$NIST SOURCE=MSDC
##XUNITS=M/Z
##YUNITS=RELATIVE INTENSITY
##XFACTOR=1
##YFACTOR=1
##FIRSTX=15
##LASTX=304
##FIRSTY=170
##MAXX=304
##MINX=15
##MAXY=9999
##MINY=76
##NPOINTS=106
##PEAK TABLE=(XY..XY)
15,170 26,95 27,444 28,552
29,1292 30,672 31,117 39,224
41,1306 42,279 43,645 44,462
45,2017 46,146 47,424 53,89
54,254 55,901 56,267 57,1994
58,349 59,815 60,118 61,312
67,82 68,463 69,170 70,92
71,138 72,456 73,9999 74,975
75,2541 76,188 77,114 82,135
83,108 84,105 85,1175 86,443
87,150 88,126 95,94 96,97
98,79 99,294 100,1004 101,367
102,7306 103,815 104,379 114,88
115,96 116,973 117,249 118,77
124,82 129,223 130,363 131,270
132,173 133,383 137,92 142,166
143,603 144,309 145,289 147,1664
148,301 149,166 156,523 157,120
158,845 159,164 170,154 171,1390
172,367 173,133 174,105 176,1787
177,312 178,158 184,256 186,2845
187,473 188,165 189,240 198,145
214,76 216,318 217,85 218,267
219,88 246,107 260,588 261,1698
262,397 263,166 274,725 275,185
276,82 288,1605 289,400 290,170
303,214 304,81
##END=
