##TITLE=Phenylpyruvic acid oxime, 2TMS derivative
##JCAMP-DX=4.24
##DATA TYPE=MASS SPECTRUM
##ORIGIN=O A MAMER, MCGILL UNIVERSITY, MONTRE
##OWNER=NIST Mass Spectrometry Data Center
Collection (C) 2014 copyright by the U.S. Secretary of Commerce
on behalf of the United States of America. All rights reserved.
##CAS REGISTRY NO=55530-64-8
##$NIST MASS SPEC NO=79141
##MOLFORM=C15 H25 N O3 Si2
##MW=323
##$NIST SOURCE=MSDC
##XUNITS=M/Z
##YUNITS=RELATIVE INTENSITY
##XFACTOR=1
##YFACTOR=1
##FIRSTX=1
##LASTX=324
##FIRSTY=77
##MAXX=324
##MINX=1
##MAXY=9999
##MINY=50
##NPOINTS=55
##PEAK TABLE=(XY..XY)
1,77 14,104 27,55 28,64
29,83 31,66 39,111 41,54
43,296 44,180 45,874 46,67
47,213 51,81 57,64 58,135
59,541 60,69 61,88 63,71
65,272 72,119 73,9999 74,918
75,998 76,89 77,96 84,154
89,376 90,178 91,1102 92,99
103,67 116,237 117,245 131,97
133,176 135,53 146,83 147,844
148,161 149,95 163,75 174,83
189,611 190,154 191,60 206,133
279,165 281,50 308,462 309,130
310,55 323,169 324,52
##END=
