##TITLE=Benzenepropanoic acid, 4-[(trimethylsilyl)oxy]-.alpha.-[[(trimethylsilyl)oxy]imino]-, trimethylsilyl ester
##JCAMP-DX=4.24
##DATA TYPE=MASS SPECTRUM
##ORIGIN=John Halket,Royal Holloway, University of London, UK
##OWNER=NIST Mass Spectrometry Data Center
Collection (C) 2014 copyright by the U.S. Secretary of Commerce
on behalf of the United States of America. All rights reserved.
##CAS REGISTRY NO=55530-68-2
##$NIST MASS SPEC NO=332267
##MOLFORM=C18 H33 N O4 Si3
##MW=411
##$NIST SOURCE=MSDC
##XUNITS=M/Z
##YUNITS=RELATIVE INTENSITY
##XFACTOR=1
##YFACTOR=1
##FIRSTX=29
##LASTX=414
##FIRSTY=30
##MAXX=414
##MINX=29
##MAXY=9999
##MINY=10
##NPOINTS=180
##PEAK TABLE=(XY..XY)
29,30 30,10 31,20 39,20
43,180 44,130 45,761 46,40
47,110 53,20 54,10 55,30
56,20 57,40 58,90 59,270
60,30 61,50 62,10 63,30
66,10 70,30 71,30 73,9999
74,871 75,971 76,70 77,100
78,40 82,10 84,230 85,40
86,30 87,20 88,10 89,130
90,50 91,90 92,20 98,10
99,10 100,50 101,10 102,20
103,70 104,50 105,70 106,10
107,30 109,10 114,10 115,50
116,230 117,70 118,10 119,30
121,50 122,10 123,10 127,10
128,20 129,20 130,40 131,160
132,40 133,170 134,30 135,200
136,30 137,20 143,10 144,10
145,20 146,30 147,621 148,130
149,220 150,80 151,30 153,10
158,70 159,30 160,100 161,50
162,40 163,230 164,100 165,40
166,10 170,10 172,20 173,10
174,60 175,40 176,30 177,240
179,1351 180,220 181,80 182,10
188,80 189,120 190,1161 191,250
192,60 193,30 195,20 202,20
204,611 205,230 206,50 209,20
210,10 216,10 217,10 218,40
219,30 220,20 221,20 222,10
223,20 224,10 231,20 232,70
233,30 234,90 235,30 236,20
237,20 238,10 239,10 240,10
246,20 247,10 248,30 249,10
251,30 253,50 254,20 255,10
262,110 263,40 264,100 265,10
266,10 267,60 268,20 269,10
277,4884 278,1321 279,540 280,90
281,30 291,10 293,10 295,20
296,10 297,10 298,10 306,20
307,10 308,10 309,10 321,10
323,30 324,10 338,10 352,10
368,10 378,20 379,10 396,851
397,290 398,160 399,30 400,10
411,250 412,100 413,50 414,10
##END=
