##TITLE=2-Methylglutaric acid, 2TMS derivative
##JCAMP-DX=4.24
##DATA TYPE=MASS SPECTRUM
##ORIGIN=ORVAL A. MAMER, ROYAL VICTORIA HOSPITAL, MONTREAL, CANADA
##OWNER=NIST Mass Spectrometry Data Center
Collection (C) 2014 copyright by the U.S. Secretary of Commerce
on behalf of the United States of America. All rights reserved.
##CAS REGISTRY NO=55530-53-5
##$NIST MASS SPEC NO=23912
##MOLFORM=C12 H26 O4 Si2
##MW=290
##$NIST SOURCE=MSDC
##XUNITS=M/Z
##YUNITS=RELATIVE INTENSITY
##XFACTOR=1
##YFACTOR=1
##FIRSTX=15
##LASTX=277
##FIRSTY=183
##MAXX=277
##MINX=15
##MAXY=9999
##MINY=61
##NPOINTS=88
##PEAK TABLE=(XY..XY)
15,183 17,147 18,606 26,94
27,300 28,547 29,261 31,76
39,171 41,606 42,172 43,1197
44,465 45,811 46,131 47,713
53,110 55,3893 56,875 57,194
58,310 59,439 60,126 61,473
69,969 70,95 72,713 73,9999
74,1000 75,4283 76,328 77,224
82,99 83,1809 84,138 85,107
86,241 87,74 88,101 89,91
99,125 101,182 103,75 111,220
113,154 115,137 116,476 117,453
129,813 130,750 131,381 133,421
134,73 141,83 143,499 144,511
145,198 146,482 147,6488 148,1071
149,1350 150,188 151,90 157,1197
158,167 159,203 162,166 163,62
172,1888 173,451 174,126 189,292
190,76 200,337 201,208 204,1944
205,414 206,189 218,234 231,545
232,124 233,69 247,520 248,119
249,61 275,2429 276,566 277,248
##END=
