##TITLE=N-2-Methylbutyrylglycine, 2TMS derivative
##JCAMP-DX=4.24
##DATA TYPE=MASS SPECTRUM
##ORIGIN=ORVAL A. MAMER, ROYAL VICTORIA HOSPITAL, MONTREAL, CANADA
##OWNER=NIST Mass Spectrometry Data Center
Collection (C) 2014 copyright by the U.S. Secretary of Commerce
on behalf of the United States of America. All rights reserved.
##CAS REGISTRY NO=55530-60-4
##$NIST MASS SPEC NO=23922
##MOLFORM=C13 H29 N O3 Si2
##MW=303
##$NIST SOURCE=MSDC
##XUNITS=M/Z
##YUNITS=RELATIVE INTENSITY
##XFACTOR=1
##YFACTOR=1
##FIRSTX=14
##LASTX=305
##FIRSTY=58
##MAXX=305
##MINX=14
##MAXY=9999
##MINY=47
##NPOINTS=114
##PEAK TABLE=(XY..XY)
14,58 15,204 26,83 27,386
28,458 29,1639 30,262 31,130
39,237 40,78 41,1577 42,280
43,633 44,444 45,2247 46,162
47,460 53,79 54,89 55,482
56,294 57,5005 58,494 59,786
60,114 61,252 66,56 67,67
68,311 69,353 70,107 71,82
72,416 73,9999 74,926 75,2371
76,173 77,111 82,314 83,93
84,107 85,1249 86,501 87,95
88,91 96,60 97,60 98,106
99,64 100,590 101,501 102,4842
103,552 104,244 105,51 111,63
113,91 114,65 115,54 116,172
117,167 124,60 129,101 130,511
131,234 132,96 133,253 137,69
140,65 142,114 143,101 147,1141
148,214 149,127 156,253 157,191
158,408 159,114 170,356 171,94
172,463 173,81 174,154 176,1083
177,199 178,95 184,111 185,317
186,1764 187,326 188,123 198,362
199,65 203,118 212,55 213,189
214,155 216,174 218,441 219,106
220,51 246,336 247,87 260,291
261,97 275,453 276,116 277,52
288,1328 289,334 290,144 303,298
304,121 305,47
##END=
