##TITLE=1H-Purine-2,6,8(3H)-trione, 4,9-dihydro-1,3,4,9-tetrakis(trimethylsilyl)-
##JCAMP-DX=4.24
##DATA TYPE=MASS SPECTRUM
##ORIGIN=S. MARKEY UNIV. OF COLO. MED. CTR., DENVER, COLORADO, USA
##OWNER=NIST Mass Spectrometry Data Center
Collection (C) 2014 copyright by the U.S. Secretary of Commerce
on behalf of the United States of America. All rights reserved.
##CAS REGISTRY NO=55530-45-5
##$NIST MASS SPEC NO=23713
##MOLFORM=C17 H36 N4 O3 Si4
##MW=456
##$NIST SOURCE=MSDC
##XUNITS=M/Z
##YUNITS=RELATIVE INTENSITY
##XFACTOR=1
##YFACTOR=1
##FIRSTX=41
##LASTX=458
##FIRSTY=550
##MAXX=458
##MINX=41
##MAXY=9999
##MINY=340
##NPOINTS=28
##PEAK TABLE=(XY..XY)
41,550 43,730 44,610 45,1670
58,980 59,610 73,9999 74,1090
75,3180 77,2770 84,410 93,650
100,1400 131,340 133,730 147,2870
369,1540 370,410 382,1110 383,690
384,1250 441,3070 442,1820 443,1150
444,530 456,3220 457,1510 458,1100
##END=
