##TITLE=[1,1'-Bicyclohexyl]-2-ol, 5-(1,1-dimethylethyl)-
##JCAMP-DX=4.24
##DATA TYPE=MASS SPECTRUM
##OWNER=NIST Mass Spectrometry Data Center
Collection (C) 2014 copyright by the U.S. Secretary of Commerce
on behalf of the United States of America. All rights reserved.
##CAS REGISTRY NO=55538-59-5
##$NIST MASS SPEC NO=11437
##MOLFORM=C16 H30 O
##MW=238
##$NIST SOURCE=MSDC
##XUNITS=M/Z
##YUNITS=RELATIVE INTENSITY
##XFACTOR=1
##YFACTOR=1
##FIRSTX=15
##LASTX=237
##FIRSTY=30
##MAXX=237
##MINX=15
##MAXY=9999
##MINY=10
##NPOINTS=113
##PEAK TABLE=(XY..XY)
15,30 17,20 18,110 27,540
28,400 29,1752 30,50 31,90
32,70 36,10 38,10 39,621
40,120 41,4094 42,260 43,1301
44,130 45,40 50,20 51,70
52,50 53,550 54,571 55,4564
56,1481 57,7447 58,350 59,50
63,20 65,200 66,821 67,4444
68,711 69,1682 70,530 71,310
72,20 77,370 78,310 79,1231
80,2092 81,7567 82,5515 83,5515
84,571 85,260 86,20 91,330
92,120 93,701 94,701 95,3843
96,2372 97,2212 98,410 99,390
100,50 103,30 105,140 107,841
108,681 109,2132 110,370 111,320
112,50 113,20 115,20 117,20
119,80 121,1441 122,2913 123,4544
124,911 125,390 126,170 131,20
133,90 135,651 136,661 137,841
138,1231 139,881 140,100 147,50
149,500 151,420 152,90 154,270
155,50 162,2002 163,9999 164,4954
165,2582 166,1171 167,140 176,320
177,90 178,50 180,220 181,70
192,30 201,90 205,801 206,140
207,90 210,20 217,50 220,4724
221,801 222,370 223,70 235,40
237,30
##END=
