##TITLE=Furoylglycine, 2TMS derivative
##JCAMP-DX=4.24
##DATA TYPE=MASS SPECTRUM
##ORIGIN=MO-139
##OWNER=NIST Mass Spectrometry Data Center
Collection (C) 2014 copyright by the U.S. Secretary of Commerce
on behalf of the United States of America. All rights reserved.
##CAS REGISTRY NO=55556-83-7
##$NIST MASS SPEC NO=30917
##MOLFORM=C13 H23 N O4 Si2
##MW=313
##$NIST SOURCE=MSDC
##XUNITS=M/Z
##YUNITS=RELATIVE INTENSITY
##XFACTOR=1
##YFACTOR=1
##FIRSTX=15
##LASTX=313
##FIRSTY=133
##MAXX=313
##MINX=15
##MAXY=9999
##MINY=106
##NPOINTS=70
##PEAK TABLE=(XY..XY)
15,133 27,117 28,510 29,195
38,165 39,1097 42,110 43,597
44,399 45,1957 46,142 47,422
51,157 52,117 53,125 55,108
57,127 58,255 59,634 61,268
67,162 72,307 73,9999 74,925
75,2000 76,148 77,139 79,236
81,1002 86,179 94,315 95,4892
96,334 97,109 100,128 106,136
107,351 111,106 124,225 125,320
133,298 141,122 142,154 143,354
147,2203 148,368 149,222 152,125
153,145 154,195 166,108 167,201
168,543 169,637 170,122 180,186
182,132 196,6094 197,1223 198,368
223,191 226,650 227,112 270,787
271,185 285,126 296,1052 298,892
299,216 313,247
##END=
