##TITLE=Cholan-24-oic acid, 3,7,12-trioxo-, methyl ester
##JCAMP-DX=4.24
##DATA TYPE=MASS SPECTRUM
##OWNER=NIST Mass Spectrometry Data Center
Collection (C) 2014 copyright by the U.S. Secretary of Commerce
on behalf of the United States of America. All rights reserved.
##CAS REGISTRY NO=55555-42-5
##$NIST MASS SPEC NO=17273
##MOLFORM=C25 H36 O5
##MW=416
##$NIST SOURCE=MSDC
##XUNITS=M/Z
##YUNITS=RELATIVE INTENSITY
##XFACTOR=1
##YFACTOR=1
##FIRSTX=255
##LASTX=418
##FIRSTY=175
##MAXX=418
##MINX=255
##MAXY=9999
##MINY=175
##NPOINTS=41
##PEAK TABLE=(XY..XY)
255,175 256,275 257,200 258,275
259,575 260,300 261,9524 262,1800
263,200 265,275 270,425 273,625
274,1800 275,825 283,3350 284,800
285,225 287,1425 288,800 291,300
301,3025 302,525 306,325 311,225
343,1900 344,475 366,325 367,200
380,275 381,300 382,175 383,250
384,800 385,1800 386,450 398,9999
399,2800 400,450 416,8899 417,2375
418,325
##END=
