##TITLE=4-Methoxymandelic acid, 2TMS derivative
##JCAMP-DX=4.24
##DATA TYPE=MASS SPECTRUM
##ORIGIN=G.S. KING, CHEM. PATHOL. DEP., QUEEN CHARLOTTE'S HOSP., LONDON
##OWNER=NIST Mass Spectrometry Data Center
Collection (C) 2014 copyright by the U.S. Secretary of Commerce
on behalf of the United States of America. All rights reserved.
##CAS REGISTRY NO=55556-95-1
##$NIST MASS SPEC NO=71852
##MOLFORM=C15 H26 O4 Si2
##MW=326
##$NIST SOURCE=MSDC
##XUNITS=M/Z
##YUNITS=RELATIVE INTENSITY
##XFACTOR=1
##YFACTOR=1
##FIRSTX=41
##LASTX=284
##FIRSTY=120
##MAXX=284
##MINX=41
##MAXY=9999
##MINY=120
##NPOINTS=29
##PEAK TABLE=(XY..XY)
41,120 43,240 44,440 45,640
47,240 73,5040 74,440 75,1240
76,120 77,840 78,120 91,120
93,240 95,120 105,120 133,240
135,520 147,1440 148,240 149,120
163,120 179,120 193,120 207,440
209,9999 210,1720 211,440 283,840
284,240
##END=
