##TITLE=Propanedioic acid, dimethyl-, bis(trimethylsilyl) ester
##JCAMP-DX=4.24
##DATA TYPE=MASS SPECTRUM
##ORIGIN=John Halket,Royal Holloway, University of London, UK
##OWNER=NIST Mass Spectrometry Data Center
Collection (C) 2014 copyright by the U.S. Secretary of Commerce
on behalf of the United States of America. All rights reserved.
##CAS REGISTRY NO=55557-23-8
##$NIST MASS SPEC NO=331793
##MOLFORM=C11 H24 O4 Si2
##MW=276
##$NIST SOURCE=MSDC
##XUNITS=M/Z
##YUNITS=RELATIVE INTENSITY
##XFACTOR=1
##YFACTOR=1
##FIRSTX=15
##LASTX=264
##FIRSTY=10
##MAXX=264
##MINX=15
##MAXY=9999
##MINY=10
##NPOINTS=130
##PEAK TABLE=(XY..XY)
15,10 26,10 27,30 29,60
31,30 39,100 40,40 41,731
42,430 43,360 44,220 45,1241
46,90 47,350 48,20 49,10
51,30 52,70 53,40 55,1251
56,60 57,100 58,190 59,410
60,80 61,180 62,10 63,10
66,1021 69,1101 70,2472 71,200
72,360 73,7227 74,791 75,1922
76,140 77,120 78,10 79,10
81,30 83,100 84,10 85,70
86,20 87,60 88,30 89,30
93,10 95,20 96,10 97,10
98,10 99,70 100,50 101,150
102,40 103,70 104,10 105,50
106,10 111,30 113,50 114,10
115,120 116,30 117,230 118,30
119,60 120,10 123,330 127,30
129,701 130,80 131,631 132,90
133,771 134,110 135,60 136,10
143,1091 144,390 145,100 147,9999
148,2082 149,1161 150,120 151,30
157,60 158,10 159,30 160,10
161,10 162,10 163,10 170,10
171,10 173,10 175,60 176,10
177,10 186,70 187,30 188,10
189,70 190,150 191,50 192,20
201,10 203,20 204,290 205,1231
206,250 207,120 208,20 217,2863
218,581 219,260 220,30 221,10
231,70 232,2032 233,450 234,190
235,30 245,10 261,1471 262,310
263,140 264,20
##END=
