##TITLE=2-Methylbutanoic acid, TMS derivative
##JCAMP-DX=4.24
##DATA TYPE=MASS SPECTRUM
##ORIGIN=ORVAL A. MAMER, ROYAL VICTORIA HOSPITAL, MONTREAL, CANADA
##OWNER=NIST Mass Spectrometry Data Center
Collection (C) 2014 copyright by the U.S. Secretary of Commerce
on behalf of the United States of America. All rights reserved.
##CAS REGISTRY NO=55557-14-7
##$NIST MASS SPEC NO=23917
##MOLFORM=C8 H18 O2 Si
##MW=174
##$NIST SOURCE=MSDC
##XUNITS=M/Z
##YUNITS=RELATIVE INTENSITY
##XFACTOR=1
##YFACTOR=1
##FIRSTX=15
##LASTX=161
##FIRSTY=59
##MAXX=161
##MINX=15
##MAXY=9999
##MINY=11
##NPOINTS=37
##PEAK TABLE=(XY..XY)
15,59 27,516 28,18 29,715
39,265 41,625 42,11 43,77
44,48 45,365 46,32 47,518
55,235 56,325 57,492 58,127
60,37 61,437 69,255 72,13
73,9999 74,989 75,7531 76,618
77,368 83,122 84,108 86,123
115,20 117,554 129,113 130,232
143,179 146,431 159,4148 160,565
161,205
##END=
