##TITLE=Pregnane-3,20-diol, (3.alpha.,5.beta.)-
##JCAMP-DX=4.24
##DATA TYPE=MASS SPECTRUM
##OWNER=NIST Mass Spectrometry Data Center
Collection (C) 2014 copyright by the U.S. Secretary of Commerce
on behalf of the United States of America. All rights reserved.
##CAS REGISTRY NO=55569-11-4
##$NIST MASS SPEC NO=15097
##MOLFORM=C21 H36 O2
##MW=320
##$NIST SOURCE=MSDC
##XUNITS=M/Z
##YUNITS=RELATIVE INTENSITY
##XFACTOR=1
##YFACTOR=1
##FIRSTX=159
##LASTX=320
##FIRSTY=701
##MAXX=320
##MINX=159
##MAXY=9999
##MINY=200
##NPOINTS=46
##PEAK TABLE=(XY..XY)
159,701 160,260 161,1403 162,1803
163,621 165,601 166,200 173,461
174,601 175,922 176,401 187,381
188,281 189,301 201,1222 202,361
203,301 206,200 213,260 215,3006
216,8075 217,1783 218,200 219,200
229,842 230,922 231,220 232,220
233,3988 234,9999 235,1643 244,421
247,621 248,220 249,220 255,220
257,601 261,441 269,1142 270,240
284,1643 285,541 287,1363 302,6152
303,1383 320,842
##END=
