##TITLE=Benzene, 1-(1-methylethenyl)-2-(1-methylethyl)-
##JCAMP-DX=4.24
##DATA TYPE=MASS SPECTRUM
##OWNER=NIST Mass Spectrometry Data Center
Collection (C) 2014 copyright by the U.S. Secretary of Commerce
on behalf of the United States of America. All rights reserved.
##CAS REGISTRY NO=5557-93-7
##$NIST MASS SPEC NO=5652
##MOLFORM=C12 H16
##MW=160
##$NIST SOURCE=MSDC
##XUNITS=M/Z
##YUNITS=RELATIVE INTENSITY
##XFACTOR=1
##YFACTOR=1
##FIRSTX=41
##LASTX=161
##FIRSTY=490
##MAXX=161
##MINX=41
##MAXY=9999
##MINY=172
##NPOINTS=37
##PEAK TABLE=(XY..XY)
41,490 50,196 51,613 52,196
53,294 58,196 63,294 64,417
65,490 67,196 71,196 73,196
77,784 78,196 79,172 89,172
91,1912 92,196 102,196 103,490
105,980 115,1617 116,588 117,2377
118,417 119,294 127,564 128,1593
129,1470 130,1470 131,417 141,294
143,490 145,9999 146,1593 160,2206
161,686
##END=
