##TITLE=2,2-Diphenylpropionitrile
##JCAMP-DX=4.24
##DATA TYPE=MASS SPECTRUM
##ORIGIN=NIST Mass Spectrometry Data Center
##OWNER=NIST Mass Spectrometry Data Center
Collection (C) 2014 copyright by the U.S. Secretary of Commerce
on behalf of the United States of America. All rights reserved.
##CAS REGISTRY NO=5558-67-8
##$NIST MASS SPEC NO=343055
##MOLFORM=C15 H13 N
##MW=207
##$NIST SOURCE=MSDC
##XUNITS=M/Z
##YUNITS=RELATIVE INTENSITY
##XFACTOR=1
##YFACTOR=1
##FIRSTX=14
##LASTX=209
##FIRSTY=10
##MAXX=209
##MINX=14
##MAXY=9999
##MINY=10
##NPOINTS=96
##PEAK TABLE=(XY..XY)
14,10 15,140 18,80 22,10
26,50 27,410 28,150 32,10
35,10 37,60 38,170 39,921
40,60 50,1051 51,2512 52,410
53,80 61,80 62,270 63,621
64,150 65,180 69,170 74,210
75,360 76,641 77,1862 78,611
79,60 83,911 85,30 86,120
87,230 88,290 89,480 90,110
91,90 95,160 97,10 98,50
99,60 100,60 101,180 102,470
103,1261 104,350 105,70 110,20
111,40 112,30 113,140 114,110
115,240 116,40 122,10 124,20
125,50 126,150 127,120 128,150
129,110 130,350 131,40 137,60
139,310 140,190 141,30 150,130
151,180 152,561 153,190 154,30
161,30 163,490 165,7747 166,1321
167,90 168,10 176,200 177,510
178,530 179,330 180,110 181,30
182,30 188,100 190,1551 192,9999
193,1611 194,120 202,20 203,20
204,60 207,4454 208,731 209,40
##END=
