##TITLE=Pentanedioic acid, 3-methyl-3-[(trimethylsilyl)oxy]-, bis(trimethylsilyl) ester
##JCAMP-DX=4.24
##DATA TYPE=MASS SPECTRUM
##ORIGIN=O A MAMER, MCGILL UNIVERSITY, MONTRE
##OWNER=NIST Mass Spectrometry Data Center
Collection (C) 2014 copyright by the U.S. Secretary of Commerce
on behalf of the United States of America. All rights reserved.
##CAS REGISTRY NO=55590-95-9
##$NIST MASS SPEC NO=79275
##MOLFORM=C15 H34 O5 Si3
##MW=378
##$NIST SOURCE=MSDC
##XUNITS=M/Z
##YUNITS=RELATIVE INTENSITY
##XFACTOR=1
##YFACTOR=1
##FIRSTX=27
##LASTX=366
##FIRSTY=134
##MAXX=366
##MINX=27
##MAXY=9999
##MINY=39
##NPOINTS=114
##PEAK TABLE=(XY..XY)
27,134 29,88 31,44 41,169
42,79 43,642 44,272 45,908
46,75 47,242 51,53 52,51
53,78 54,45 55,547 56,56
57,69 58,108 59,279 60,65
61,165 66,55 67,71 69,71
70,46 71,58 72,408 73,9999
74,952 75,2111 76,179 77,136
78,39 79,41 81,43 82,150
83,230 84,40 85,250 88,44
99,108 101,73 102,68 103,80
105,62 109,564 110,51 113,77
114,67 115,1409 116,296 117,411
118,61 119,75 129,151 130,59
131,250 132,49 133,483 134,88
135,72 143,101 147,3386 148,574
149,575 150,110 151,53 155,141
157,170 159,104 163,125 171,62
173,44 175,42 183,275 184,49
189,302 190,79 191,133 192,44
193,47 198,112 199,924 200,205
201,79 203,402 204,348 205,176
206,82 217,62 219,133 221,92
222,42 229,70 231,1229 232,257
233,150 247,2486 248,542 249,243
250,49 273,1111 274,251 275,125
277,40 292,154 293,53 294,39
319,95 321,60 363,1062 364,321
365,179 366,45
##END=
