##TITLE=Octanethioic acid, S-hexyl ester
##JCAMP-DX=4.24
##DATA TYPE=MASS SPECTRUM
##ORIGIN=W. UTILIZATION R & D DIV., U.S. DEPT. OF AGRIC., ALBANY, CAL.
##OWNER=NIST Mass Spectrometry Data Center
Collection (C) 2014 copyright by the U.S. Secretary of Commerce
on behalf of the United States of America. All rights reserved.
##CAS REGISTRY NO=55590-85-7
##$NIST MASS SPEC NO=25843
##MOLFORM=C14 H28 O S
##MW=244
##$NIST SOURCE=MSDC
##XUNITS=M/Z
##YUNITS=RELATIVE INTENSITY
##XFACTOR=1
##YFACTOR=1
##FIRSTX=29
##LASTX=244
##FIRSTY=341
##MAXX=244
##MINX=29
##MAXY=9999
##MINY=15
##NPOINTS=41
##PEAK TABLE=(XY..XY)
29,341 39,114 40,15 41,1765
42,237 43,1532 44,54 47,94
53,69 55,2041 56,306 57,9999
58,321 59,104 61,104 67,410
68,64 69,227 70,119 71,124
81,84 82,84 83,277 84,302
85,173 97,84 98,242 99,49
100,89 109,1008 116,84 117,99
127,9525 128,801 142,49 145,35
159,1532 160,124 161,183 184,40
244,40
##END=
