##TITLE=2-Pentenedioic acid, 2-[(trimethylsilyl)oxy]-, bis(trimethylsilyl) ester
##JCAMP-DX=4.24
##DATA TYPE=MASS SPECTRUM
##ORIGIN=NIST Mass Spectrometry Data Center
##OWNER=NIST Mass Spectrometry Data Center
Collection (C) 2014 copyright by the U.S. Secretary of Commerce
on behalf of the United States of America. All rights reserved.
##CAS REGISTRY NO=55590-97-1
##$NIST MASS SPEC NO=353276
##MOLFORM=C14 H30 O5 Si3
##MW=362
##$NIST SOURCE=MSDC
##XUNITS=M/Z
##YUNITS=RELATIVE INTENSITY
##XFACTOR=1
##YFACTOR=1
##FIRSTX=14
##LASTX=364
##FIRSTY=10
##MAXX=364
##MINX=14
##MAXY=9999
##MINY=10
##NPOINTS=193
##PEAK TABLE=(XY..XY)
14,10 15,30 16,10 26,10
27,50 28,70 29,40 31,20
39,30 41,10 42,20 43,210
44,210 45,1161 46,80 47,140
48,10 52,10 53,70 54,110
55,1792 56,70 57,60 58,100
59,220 60,30 61,100 62,10
63,10 65,10 66,20 67,70
68,10 69,20 70,40 71,50
72,240 73,9999 74,881 75,1241
76,80 77,50 79,10 81,30
82,50 83,80 84,50 85,70
86,10 87,30 88,20 89,30
93,10 95,10 96,10 97,20
98,20 99,90 100,90 101,60
102,30 103,60 104,10 105,40
109,10 111,40 112,10 113,1291
114,140 115,110 116,60 117,170
118,20 119,100 120,10 121,10
125,10 126,10 127,70 128,961
129,400 130,70 131,400 132,70
133,1021 134,140 135,110 136,10
137,10 141,360 142,40 143,70
144,10 145,40 147,6396 148,981
149,841 150,100 151,40 152,10
154,10 155,30 156,170 157,500
158,70 159,140 160,20 161,40
162,10 163,10 169,10 171,30
172,10 173,60 174,30 175,10
176,10 177,10 183,10 184,10
185,30 186,10 187,80 188,20
189,20 190,10 191,20 192,10
193,10 199,10 201,110 202,30
203,120 204,30 205,40 206,10
207,50 208,10 209,10 213,10
214,10 215,140 216,40 217,60
218,10 219,10 221,200 222,40
223,30 229,50 230,150 231,80
232,20 233,10 241,20 242,10
243,10 244,80 245,180 246,40
247,20 257,150 258,30 259,90
260,20 261,10 272,300 273,70
274,30 275,30 276,10 291,450
292,130 293,70 294,10 303,100
304,30 305,20 317,10 318,631
319,330 320,130 321,40 322,10
331,10 347,1862 348,550 349,280
350,50 351,20 362,90 363,30
364,10
##END=
