##TITLE=Prenol
##JCAMP-DX=4.24
##DATA TYPE=MASS SPECTRUM
##ORIGIN=NIST Mass Spectrometry Data Center
##OWNER=NIST Mass Spectrometry Data Center
Collection (C) 2014 copyright by the U.S. Secretary of Commerce
on behalf of the United States of America. All rights reserved.
##CAS REGISTRY NO=556-82-1
##$NIST MASS SPEC NO=352701
##MOLFORM=C5 H10 O
##MW=86
##$NIST SOURCE=MSDC
##XUNITS=M/Z
##YUNITS=RELATIVE INTENSITY
##XFACTOR=1
##YFACTOR=1
##FIRSTX=14
##LASTX=88
##FIRSTY=10
##MAXX=88
##MINX=14
##MAXY=9999
##MINY=10
##NPOINTS=54
##PEAK TABLE=(XY..XY)
14,10 15,90 19,20 25,10
26,130 27,1191 28,200 29,1141
30,50 31,691 32,10 36,10
37,150 38,370 39,2933 40,681
41,5365 42,641 43,4254 44,530
45,300 46,10 48,10 49,80
50,490 51,641 52,220 53,3453
54,300 55,711 56,140 57,380
58,150 59,90 60,10 61,40
62,60 63,80 64,10 65,360
66,110 67,1461 68,1461 69,550
71,9999 72,480 73,30 82,10
83,140 84,30 85,370 86,2232
87,130 88,10
##END=
