##TITLE=N-(N-Glycylglycyl)glycine
##JCAMP-DX=4.24
##DATA TYPE=MASS SPECTRUM
##ORIGIN=Japan AIST/NIMC Database- Spectrum MS-NW-2679
##OWNER=NIST Mass Spectrometry Data Center
Collection (C) 2014 copyright by the U.S. Secretary of Commerce
on behalf of the United States of America. All rights reserved.
##CAS REGISTRY NO=556-33-2
##$NIST MASS SPEC NO=230545
##MOLFORM=C6 H11 N3 O4
##MW=189
##$NIST SOURCE=MSDC
##XUNITS=M/Z
##YUNITS=RELATIVE INTENSITY
##XFACTOR=1
##YFACTOR=1
##FIRSTX=12
##LASTX=171
##FIRSTY=30
##MAXX=171
##MINX=12
##MAXY=9999
##MINY=10
##NPOINTS=105
##PEAK TABLE=(XY..XY)
12,30 13,30 14,119 15,139
16,239 17,389 18,1809 19,10
25,10 26,139 27,609 28,2459
29,1019 30,9999 31,239 32,30
38,60 39,80 40,209 41,369
42,1029 43,829 44,609 45,139
46,20 51,40 52,60 53,99
54,409 55,339 56,439 57,129
58,179 59,269 60,30 65,10
66,20 67,50 68,129 69,90
70,50 71,1479 72,109 73,20
74,40 75,119 76,60 77,20
78,10 80,30 81,60 82,60
83,60 84,40 85,159 86,239
87,119 88,40 89,40 93,20
94,10 95,20 96,109 97,60
98,109 99,50 100,20 101,10
104,30 105,10 108,10 109,90
110,109 111,50 112,60 113,119
114,2159 115,209 116,30 117,459
118,30 119,20 123,10 124,50
125,219 126,40 127,20 128,10
132,50 133,40 135,30 136,10
137,10 138,20 139,10 141,10
146,30 149,10 151,10 153,289
154,90 156,20 159,60 160,10
171,30
##END=
