##TITLE=Benzene, 1-bromo-3,5-dimethyl-
##JCAMP-DX=4.24
##DATA TYPE=MASS SPECTRUM
##ORIGIN=Chuck Anderson, Aldrich Chemical Co.
##OWNER=NIST Mass Spectrometry Data Center
Collection (C) 2014 copyright by the U.S. Secretary of Commerce
on behalf of the United States of America. All rights reserved.
##CAS REGISTRY NO=556-96-7
##$NIST MASS SPEC NO=107552
##MOLFORM=C8 H9 Br
##MW=184
##$NIST SOURCE=MSDC
##XUNITS=M/Z
##YUNITS=RELATIVE INTENSITY
##XFACTOR=1
##YFACTOR=1
##FIRSTX=26
##LASTX=188
##FIRSTY=77
##MAXX=188
##MINX=26
##MAXY=9999
##MINY=5
##NPOINTS=83
##PEAK TABLE=(XY..XY)
26,77 27,738 28,33 29,39
36,9 37,211 38,674 39,2244
40,221 41,172 42,6 43,44
44,40 45,6 49,142 50,1079
51,3636 52,880 53,575 54,35
55,20 60,24 61,307 62,901
63,2073 64,452 65,575 66,79
67,6 73,90 74,525 75,461
76,388 77,4431 78,1810 79,3579
80,241 81,59 82,19 83,11
84,16 85,79 86,159 87,165
88,60 89,610 90,433 91,262
92,266 93,79 95,9 97,12
98,58 99,11 101,47 102,324
103,2102 104,788 105,8635 106,703
107,35 117,48 118,5 119,51
129,5 130,5 131,8 141,9
143,39 145,28 156,8 158,7
169,852 170,56 171,830 172,51
182,22 183,546 184,9999 185,1136
186,9658 187,731 188,25
##END=
