##TITLE=Methane, isothiocyanato-
##JCAMP-DX=4.24
##DATA TYPE=MASS SPECTRUM
##ORIGIN=Japan AIST/NIMC Database- Spectrum MS-IW-3839
##OWNER=NIST Mass Spectrometry Data Center
Collection (C) 2014 copyright by the U.S. Secretary of Commerce
on behalf of the United States of America. All rights reserved.
##CAS REGISTRY NO=556-61-6
##$NIST MASS SPEC NO=227509
##MOLFORM=C2 H3 N S
##MW=73
##$NIST SOURCE=MSDC
##XUNITS=M/Z
##YUNITS=RELATIVE INTENSITY
##XFACTOR=1
##YFACTOR=1
##FIRSTX=12
##LASTX=76
##FIRSTY=10
##MAXX=76
##MINX=12
##MAXY=9999
##MINY=10
##NPOINTS=33
##PEAK TABLE=(XY..XY)
12,10 13,10 14,20 15,159
26,20 27,80 28,329 29,50
32,289 33,30 34,20 35,409
36,50 38,159 39,149 40,229
41,90 44,929 45,1779 46,419
47,139 48,20 57,10 58,359
59,80 60,20 70,859 71,489
72,5149 73,9999 74,569 75,479
76,30
##END=
