##TITLE=Glycidol
##JCAMP-DX=4.24
##DATA TYPE=MASS SPECTRUM
##OWNER=NIST Mass Spectrometry Data Center
Collection (C) 2014 copyright by the U.S. Secretary of Commerce
on behalf of the United States of America. All rights reserved.
##CAS REGISTRY NO=556-52-5
##$NIST MASS SPEC NO=348
##MOLFORM=C3 H6 O2
##MW=74
##$NIST SOURCE=MSDC
##XUNITS=M/Z
##YUNITS=RELATIVE INTENSITY
##XFACTOR=1
##YFACTOR=1
##FIRSTX=12
##LASTX=74
##FIRSTY=70
##MAXX=74
##MINX=12
##MAXY=9999
##MINY=10
##NPOINTS=44
##PEAK TABLE=(XY..XY)
12,70 13,200 14,791 15,2803
16,240 17,1081 18,4364 19,420
20,10 24,30 25,140 26,771
27,2152 28,1692 29,4244 30,440
31,5875 32,110 33,20 36,30
37,80 38,100 39,190 40,60
41,210 42,991 43,8938 44,9999
45,931 46,40 47,30 49,20
51,10 52,10 53,40 54,10
55,330 56,270 57,170 58,60
59,100 60,10 73,100 74,30
##END=
