##TITLE=Methyl isovalerate
##JCAMP-DX=4.24
##DATA TYPE=MASS SPECTRUM
##ORIGIN=Japan AIST/NIMC Database- Spectrum MS-NW- 796
##OWNER=NIST Mass Spectrometry Data Center
Collection (C) 2014 copyright by the U.S. Secretary of Commerce
on behalf of the United States of America. All rights reserved.
##CAS REGISTRY NO=556-24-1
##$NIST MASS SPEC NO=229527
##MOLFORM=C6 H12 O2
##MW=116
##$NIST SOURCE=MSDC
##XUNITS=M/Z
##YUNITS=RELATIVE INTENSITY
##XFACTOR=1
##YFACTOR=1
##FIRSTX=14
##LASTX=117
##FIRSTY=20
##MAXX=117
##MINX=14
##MAXY=9999
##MINY=10
##NPOINTS=52
##PEAK TABLE=(XY..XY)
14,20 15,609 18,30 26,60
27,769 28,179 29,1169 30,30
31,209 32,10 33,30 37,40
38,109 39,1139 40,179 41,2469
42,479 43,2999 44,189 45,99
50,40 51,50 52,10 53,90
54,20 55,339 56,469 57,2649
58,119 59,2509 60,90 61,20
68,10 69,559 70,30 71,20
72,10 73,289 74,9999 75,379
76,40 83,90 84,40 85,2999
86,169 87,20 88,20 101,1449
102,80 115,40 116,149 117,20
##END=
