##TITLE=Thiocyanic acid, methyl ester
##JCAMP-DX=4.24
##DATA TYPE=MASS SPECTRUM
##ORIGIN=Japan AIST/NIMC Database- Spectrum MS-NW- 994
##OWNER=NIST Mass Spectrometry Data Center
Collection (C) 2014 copyright by the U.S. Secretary of Commerce
on behalf of the United States of America. All rights reserved.
##CAS REGISTRY NO=556-64-9
##$NIST MASS SPEC NO=230450
##MOLFORM=C2 H3 N S
##MW=73
##$NIST SOURCE=MSDC
##XUNITS=M/Z
##YUNITS=RELATIVE INTENSITY
##XFACTOR=1
##YFACTOR=1
##FIRSTX=12
##LASTX=76
##FIRSTY=60
##MAXX=76
##MINX=12
##MAXY=9999
##MINY=10
##NPOINTS=35
##PEAK TABLE=(XY..XY)
12,60 13,60 14,169 15,2219
16,20 26,159 27,60 28,729
29,219 32,529 33,80 34,40
35,20 38,20 39,10 40,80
41,249 44,619 45,3629 46,3289
47,1319 48,169 49,60 56,20
57,40 58,749 59,50 60,30
70,219 71,299 72,5899 73,9999
74,569 75,459 76,70
##END=
