##TITLE=1-Propene, 3-iodo-
##JCAMP-DX=4.24
##DATA TYPE=MASS SPECTRUM
##ORIGIN=Japan AIST/NIMC Database- Spectrum MS-NW-6072
##OWNER=NIST Mass Spectrometry Data Center
Collection (C) 2014 copyright by the U.S. Secretary of Commerce
on behalf of the United States of America. All rights reserved.
##CAS REGISTRY NO=556-56-9
##$NIST MASS SPEC NO=229012
##MOLFORM=C3 H5 I
##MW=168
##$NIST SOURCE=MSDC
##XUNITS=M/Z
##YUNITS=RELATIVE INTENSITY
##XFACTOR=1
##YFACTOR=1
##FIRSTX=13
##LASTX=170
##FIRSTY=10
##MAXX=170
##MINX=13
##MAXY=9999
##MINY=10
##NPOINTS=36
##PEAK TABLE=(XY..XY)
13,10 14,30 15,179 25,20
26,119 27,159 28,30 29,40
31,20 36,20 37,229 38,489
39,3849 40,479 41,9999 42,369
43,30 54,30 55,20 56,20
57,70 58,30 63,20 67,20
69,20 81,10 83,10 127,739
128,209 139,20 140,20 141,60
167,10 168,3179 169,119 170,10
##END=
