##TITLE=cis-11-Eicosenoic acid
##JCAMP-DX=4.24
##DATA TYPE=MASS SPECTRUM
##ORIGIN=NIST Mass Spectrometry Data Center
##OWNER=NIST Mass Spectrometry Data Center
Collection (C) 2014 copyright by the U.S. Secretary of Commerce
on behalf of the United States of America. All rights reserved.
##CAS REGISTRY NO=5561-99-9
##$NIST MASS SPEC NO=333640
##MOLFORM=C20 H38 O2
##MW=310
##$NIST SOURCE=MSDC
##XUNITS=M/Z
##YUNITS=RELATIVE INTENSITY
##XFACTOR=1
##YFACTOR=1
##FIRSTX=15
##LASTX=311
##FIRSTY=10
##MAXX=311
##MINX=15
##MAXY=9999
##MINY=10
##NPOINTS=237
##PEAK TABLE=(XY..XY)
15,10 26,20 27,561 28,140
29,1371 30,40 31,50 36,10
38,10 39,821 40,190 41,5775
42,1041 43,4394 44,160 45,601
46,20 47,10 50,10 51,50
52,50 53,731 54,2162 55,9999
56,2793 57,3223 58,190 59,320
60,1381 61,120 62,20 63,10
65,250 66,190 67,2973 68,1641
69,5985 70,2342 71,1311 72,80
73,1151 74,120 75,40 76,10
77,250 78,90 79,811 80,390
81,2222 82,1912 83,5105 84,2562
85,891 86,90 87,410 88,40
89,10 91,290 93,390 94,380
95,1732 96,2282 97,4634 98,2182
99,450 100,330 101,540 102,80
103,20 104,20 105,150 106,60
107,310 108,270 109,981 110,1331
111,2202 112,841 113,340 114,651
115,350 116,110 117,50 118,20
119,260 120,100 121,340 122,190
123,871 124,791 125,1031 126,460
127,540 128,260 129,350 130,60
131,40 132,20 133,250 134,210
135,300 136,140 137,561 138,561
139,500 140,240 141,130 142,50
143,110 144,30 145,20 146,10
147,190 148,190 149,200 150,120
151,420 152,380 153,290 154,150
155,90 156,30 157,60 158,20
159,20 160,10 161,140 162,70
163,110 164,70 165,290 166,200
167,150 168,80 169,70 170,20
171,50 172,30 173,10 174,10
175,110 176,40 177,60 178,40
179,210 180,160 181,110 182,70
183,30 184,10 185,60 186,20
187,10 189,60 190,20 191,40
192,40 193,150 194,160 195,80
196,40 197,50 198,20 199,20
200,20 201,10 203,40 204,10
205,20 206,20 207,140 208,230
209,80 210,30 211,40 212,10
213,20 214,30 215,10 217,20
218,10 219,10 220,30 221,160
222,140 223,40 224,20 225,20
226,10 227,30 228,20 229,10
231,10 232,10 233,10 234,10
235,170 236,110 237,40 238,10
239,10 240,10 241,20 242,10
245,10 246,10 247,10 248,160
249,200 250,220 251,50 252,10
253,10 255,10 263,140 264,140
265,30 266,10 267,20 268,10
269,10 274,60 275,20 276,10
277,20 278,20 279,10 280,10
281,10 282,20 284,10 292,961
293,250 294,40 308,10 310,130
311,30
##END=
