##TITLE=Glycine, N-[4-[(trimethylsilyl)oxy]benzoyl]-, trimethylsilyl ester
##JCAMP-DX=4.24
##DATA TYPE=MASS SPECTRUM
##ORIGIN=S. MARKEY UNIV. OF COLO. MED. CTR., DENVER, COLORADO, USA
##OWNER=NIST Mass Spectrometry Data Center
Collection (C) 2014 copyright by the U.S. Secretary of Commerce
on behalf of the United States of America. All rights reserved.
##CAS REGISTRY NO=55622-53-2
##$NIST MASS SPEC NO=24221
##MOLFORM=C15 H25 N O4 Si2
##MW=339
##$NIST SOURCE=MSDC
##XUNITS=M/Z
##YUNITS=RELATIVE INTENSITY
##XFACTOR=1
##YFACTOR=1
##FIRSTX=57
##LASTX=341
##FIRSTY=160
##MAXX=341
##MINX=57
##MAXY=9999
##MINY=90
##NPOINTS=37
##PEAK TABLE=(XY..XY)
57,160 59,100 73,5730 74,540
75,1810 76,260 77,270 89,170
91,350 93,90 116,130 121,340
135,540 147,120 149,270 150,240
151,100 154,260 191,200 192,210
193,9999 194,1640 195,510 206,140
223,110 249,230 265,180 280,180
293,640 294,5350 295,1460 296,540
324,1020 325,310 339,1510 340,420
341,160
##END=
