##TITLE=5-Octen-2-one, 6-methyl-8-(2,6,6-trimethyl-1-cyclohexen-1-yl)-
##JCAMP-DX=4.24
##DATA TYPE=MASS SPECTRUM
##OWNER=NIST Mass Spectrometry Data Center
Collection (C) 2014 copyright by the U.S. Secretary of Commerce
on behalf of the United States of America. All rights reserved.
##CAS REGISTRY NO=55638-41-0
##$NIST MASS SPEC NO=29340
##MOLFORM=C18 H30 O
##MW=262
##$NIST SOURCE=MSDC
##XUNITS=M/Z
##YUNITS=RELATIVE INTENSITY
##XFACTOR=1
##YFACTOR=1
##FIRSTX=41
##LASTX=263
##FIRSTY=5759
##MAXX=263
##MINX=41
##MAXY=9999
##MINY=200
##NPOINTS=85
##PEAK TABLE=(XY..XY)
41,5759 42,480 43,9999 44,1640
45,800 53,1440 55,3920 56,480
57,520 61,400 65,400 67,2400
68,1200 69,4240 70,200 71,2320
77,1320 79,1680 80,1000 81,5959
82,2080 83,1600 84,440 91,1920
92,480 93,2840 94,1000 95,6399
96,1120 97,840 98,400 105,1720
106,440 107,3200 108,1240 109,8199
110,1080 111,960 119,1440 120,480
121,3520 122,1640 123,5039 124,2160
125,1680 126,320 133,1120 134,440
135,1640 136,2520 137,2800 138,1400
139,680 146,800 147,480 148,1280
149,920 158,840 160,760 161,280
162,680 163,360 164,400 173,480
175,520 176,400 177,3200 178,720
179,320 189,1280 190,400 191,3400
192,1400 193,320 204,960 205,440
219,280 229,2560 230,400 245,360
246,320 247,2000 248,440 262,4840
263,1200
##END=
