##TITLE=1,2-Cyclopropanedicarboxylic acid, 3-methylene-, diethyl ester
##JCAMP-DX=4.24
##DATA TYPE=MASS SPECTRUM
##ORIGIN=J.VOTH UNIV. OF CALIFORNIA, DAVIS, CALIFORNIA, 95616, USA
##OWNER=NIST Mass Spectrometry Data Center
Collection (C) 2014 copyright by the U.S. Secretary of Commerce
on behalf of the United States of America. All rights reserved.
##CAS REGISTRY NO=55638-55-6
##$NIST MASS SPEC NO=26758
##MOLFORM=C10 H14 O4
##MW=198
##$NIST SOURCE=MSDC
##XUNITS=M/Z
##YUNITS=RELATIVE INTENSITY
##XFACTOR=1
##YFACTOR=1
##FIRSTX=12
##LASTX=200
##FIRSTY=29
##MAXX=200
##MINX=12
##MAXY=9999
##MINY=3
##NPOINTS=124
##PEAK TABLE=(XY..XY)
12,29 13,71 14,334 15,1249
16,54 17,27 18,90 19,67
24,4 25,42 26,1055 27,4859
28,810 29,9999 30,315 31,275
32,5 36,4 37,75 38,171
39,1087 40,214 41,1970 42,669
43,2111 44,104 45,603 46,21
47,27 49,54 50,1641 51,3344
52,3903 53,1452 54,300 55,829
56,179 57,237 58,55 59,50
60,44 61,37 62,18 63,21
64,5 65,38 66,98 67,411
68,1061 69,1635 70,222 71,295
72,36 73,1296 74,224 75,73
76,18 77,57 78,22 79,884
80,339 81,250 82,139 83,203
84,60 85,168 86,65 87,199
88,123 89,20 93,25 94,21
95,159 96,2153 97,5141 98,1729
99,1024 100,103 101,308 102,203
103,35 107,45 108,85 109,49
110,13 111,113 112,30 113,208
114,1076 115,423 116,78 117,15
122,20 123,290 124,428 125,2398
126,668 127,225 128,28 129,217
130,16 139,55 140,35 141,25
142,5204 143,748 144,113 145,16
152,42 153,1782 154,361 155,148
156,16 166,8 167,9 168,39
169,46 170,1416 171,130 172,19
194,6 198,26 199,9 200,3
##END=
