##TITLE=2-Butenoic acid, 2-(acetylamino)-
##JCAMP-DX=4.24
##DATA TYPE=MASS SPECTRUM
##ORIGIN=H.FR.GRUTZMACHER HAMBURG UNIV., HAMBURG, GERMANY, F.R.G.
##OWNER=NIST Mass Spectrometry Data Center
Collection (C) 2014 copyright by the U.S. Secretary of Commerce
on behalf of the United States of America. All rights reserved.
##CAS REGISTRY NO=55649-71-3
##$NIST MASS SPEC NO=26165
##MOLFORM=C6 H9 N O3
##MW=143
##$NIST SOURCE=MSDC
##XUNITS=M/Z
##YUNITS=RELATIVE INTENSITY
##XFACTOR=1
##YFACTOR=1
##FIRSTX=14
##LASTX=144
##FIRSTY=310
##MAXX=144
##MINX=14
##MAXY=9999
##MINY=10
##NPOINTS=62
##PEAK TABLE=(XY..XY)
14,310 15,1830 25,40 26,520
27,1280 28,4840 29,680 30,310
31,100 32,250 38,230 39,700
40,240 41,420 42,880 43,9999
44,940 45,730 46,70 50,20
51,130 52,470 53,200 54,3730
55,7710 56,2940 57,550 58,190
59,210 60,230 61,80 66,270
67,50 68,110 69,40 70,50
71,30 72,30 73,60 74,40
80,50 81,80 82,80 83,5600
84,300 85,30 96,110 97,300
98,80 99,90 100,600 101,2640
102,180 103,10 110,170 124,20
125,1340 126,220 127,30 128,120
143,1130 144,120
##END=
