##TITLE=Camphenone, 6-
##JCAMP-DX=4.24
##DATA TYPE=MASS SPECTRUM
##ORIGIN=Mark Whitten, Florida Museum of Natural History, U. of Florida
##OWNER=NIST Mass Spectrometry Data Center
Collection (C) 2014 copyright by the U.S. Secretary of Commerce
on behalf of the United States of America. All rights reserved.
##CAS REGISTRY NO=55659-42-2
##$NIST MASS SPEC NO=141034
##MOLFORM=C10 H14 O
##MW=150
##$NIST SOURCE=MSDC
##XUNITS=M/Z
##YUNITS=RELATIVE INTENSITY
##XFACTOR=1
##YFACTOR=1
##FIRSTX=41
##LASTX=151
##FIRSTY=2244
##MAXX=151
##MINX=41
##MAXY=9999
##MINY=12
##NPOINTS=65
##PEAK TABLE=(XY..XY)
41,2244 42,483 43,257 44,36
45,34 46,19 50,488 51,1257
52,587 53,1106 54,165 55,294
56,31 57,119 58,55 59,93
60,26 61,39 62,134 63,422
65,1171 66,273 67,348 68,61
69,46 70,18 71,18 74,61
75,55 77,2280 78,479 79,1707
80,285 81,102 82,37 86,18
87,24 89,93 91,4368 92,770
93,9999 94,879 95,96 102,36
103,134 105,799 107,3623 108,7034
109,637 110,36 115,74 116,23
117,106 118,14 119,21 121,47
122,117 123,12 131,20 132,71
133,18 135,53 136,15 150,587
151,73
##END=
