##TITLE=1,4-Dimethylindanyl acetate
##JCAMP-DX=4.24
##DATA TYPE=MASS SPECTRUM
##ORIGIN=J. D. WEAVER - E. J. EISENBRAUN
##OWNER=NIST Mass Spectrometry Data Center
Collection (C) 2014 copyright by the U.S. Secretary of Commerce
on behalf of the United States of America. All rights reserved.
##CAS REGISTRY NO=55669-90-4
##$NIST MASS SPEC NO=31023
##MOLFORM=C13 H16 O2
##MW=204
##$NIST SOURCE=MSDC
##XUNITS=M/Z
##YUNITS=RELATIVE INTENSITY
##XFACTOR=1
##YFACTOR=1
##FIRSTX=13
##LASTX=206
##FIRSTY=65
##MAXX=206
##MINX=13
##MAXY=9999
##MINY=4
##NPOINTS=118
##PEAK TABLE=(XY..XY)
13,65 14,417 15,1941 16,30
17,29 18,81 25,8 26,61
27,519 28,380 29,139 30,8
31,10 32,141 37,17 38,71
39,835 40,124 41,608 42,168
43,2405 44,78 45,17 50,162
51,567 52,232 53,445 54,43
55,278 56,22 57,31 58,40
61,17 62,89 63,350 64,142
65,485 66,84 67,67 68,16
69,73 71,21 72,19 73,17
74,62 75,110 76,91 77,759
78,257 79,247 80,33 81,31
82,16 85,14 86,20 87,37
88,27 89,164 90,72 91,1105
92,156 93,103 94,19 97,23
98,26 99,15 101,42 102,171
103,450 104,127 105,425 106,50
107,130 108,25 114,62 115,871
116,321 117,709 118,299 119,295
120,106 121,132 122,21 126,34
127,221 128,380 129,284 130,131
131,671 132,506 133,382 134,204
139,47 141,77 142,47 143,66
144,138 145,604 146,493 147,9999
148,1358 149,118 157,31 158,31
159,59 160,76 161,524 162,7379
163,1101 164,97 175,14 176,30
189,13 190,4 203,11 204,1173
205,228 206,89
##END=
