##TITLE=Naphthalene, 1,2-dihydro-1,4,6-trimethyl-
##JCAMP-DX=4.24
##DATA TYPE=MASS SPECTRUM
##ORIGIN=CONTINENTAL OIL CO., PONCA CITY, OKLA, USA
##OWNER=NIST Mass Spectrometry Data Center
Collection (C) 2014 copyright by the U.S. Secretary of Commerce
on behalf of the United States of America. All rights reserved.
##CAS REGISTRY NO=55682-80-9
##$NIST MASS SPEC NO=27686
##MOLFORM=C13 H16
##MW=172
##$NIST SOURCE=MSDC
##XUNITS=M/Z
##YUNITS=RELATIVE INTENSITY
##XFACTOR=1
##YFACTOR=1
##FIRSTX=13
##LASTX=174
##FIRSTY=14
##MAXX=174
##MINX=13
##MAXY=9999
##MINY=5
##NPOINTS=111
##PEAK TABLE=(XY..XY)
13,14 14,61 15,925 16,27
26,104 27,931 28,310 29,254
30,10 37,21 38,100 39,894
40,102 41,251 42,22 43,33
44,31 50,251 51,743 52,170
53,224 54,20 55,41 56,24
57,48 58,64 61,28 62,164
63,607 64,464 65,325 66,33
67,16 69,73 70,165 71,355
72,37 74,130 75,235 76,540
77,911 78,386 79,100 82,77
83,77 84,108 85,123 86,139
87,99 88,44 89,185 90,31
91,313 92,31 97,5 98,49
99,33 100,15 101,70 102,187
103,116 104,27 105,81 110,13
111,17 113,62 114,64 115,1308
116,245 117,93 118,13 119,15
125,18 126,116 127,464 128,1296
129,800 130,158 131,73 132,79
138,36 139,354 140,230 141,2586
142,4065 143,1159 144,310 145,77
150,53 151,143 152,418 153,442
154,214 155,904 156,787 157,9999
158,1300 159,195 160,22 163,18
164,15 165,69 166,22 167,31
168,19 169,102 170,333 171,336
172,4610 173,656 174,43
##END=
