##TITLE=Silicic acid (H4SiO4), tributyl propyl ester
##JCAMP-DX=4.24
##DATA TYPE=MASS SPECTRUM
##ORIGIN=M. A. GRAYSON
##OWNER=NIST Mass Spectrometry Data Center
Collection (C) 2014 copyright by the U.S. Secretary of Commerce
on behalf of the United States of America. All rights reserved.
##CAS REGISTRY NO=55683-20-0
##$NIST MASS SPEC NO=27124
##MOLFORM=C15 H34 O4 Si
##MW=306
##$NIST SOURCE=MSDC
##XUNITS=M/Z
##YUNITS=RELATIVE INTENSITY
##XFACTOR=1
##YFACTOR=1
##FIRSTX=26
##LASTX=306
##FIRSTY=30
##MAXX=306
##MINX=26
##MAXY=9999
##MINY=20
##NPOINTS=73
##PEAK TABLE=(XY..XY)
26,30 27,30 39,120 41,470
42,50 43,110 45,110 55,230
56,230 57,70 59,20 63,70
79,2612 80,80 107,821 117,20
119,20 121,1772 122,110 123,771
125,631 133,70 135,1281 136,100
137,470 139,80 147,20 149,390
150,40 151,1051 152,80 161,90
163,681 164,60 165,3213 166,350
167,140 175,60 177,1351 178,180
179,7947 180,861 181,330 191,250
192,50 193,1571 194,160 195,80
205,490 206,80 207,120 219,470
220,50 221,4244 222,561 223,170
233,621 234,110 235,1772 236,260
237,100 247,130 249,240 250,20
277,9999 278,2002 279,500 280,60
291,2182 292,450 293,110 305,170
306,40
##END=
