##TITLE=Heptacosanoic acid, methyl ester
##JCAMP-DX=4.24
##DATA TYPE=MASS SPECTRUM
##ORIGIN=SERL
##OWNER=NIST Mass Spectrometry Data Center
Collection (C) 2014 copyright by the U.S. Secretary of Commerce
on behalf of the United States of America. All rights reserved.
##CAS REGISTRY NO=55682-91-2
##$NIST MASS SPEC NO=27748
##MOLFORM=C28 H56 O2
##MW=424
##$NIST SOURCE=MSDC
##XUNITS=M/Z
##YUNITS=RELATIVE INTENSITY
##XFACTOR=1
##YFACTOR=1
##FIRSTX=37
##LASTX=425
##FIRSTY=300
##MAXX=425
##MINX=37
##MAXY=9999
##MINY=200
##NPOINTS=101
##PEAK TABLE=(XY..XY)
37,300 39,400 40,500 41,4000
42,1000 43,8700 44,300 45,400
50,300 53,300 54,200 55,3600
56,900 57,5600 58,300 59,600
60,200 63,300 67,600 68,400
69,2700 70,600 71,1600 73,1200
74,9999 75,3800 76,300 79,300
81,500 82,300 83,1600 84,400
85,1100 86,300 87,7600 88,400
89,300 91,200 94,200 95,500
96,200 97,1300 98,200 99,300
101,800 102,300 104,200 107,300
109,300 111,600 112,300 115,400
117,200 120,300 123,200 125,500
129,700 130,500 133,200 135,600
138,400 140,200 143,2400 147,800
148,200 151,200 153,200 156,200
161,300 166,200 171,200 179,400
185,400 187,200 192,300 197,300
199,700 200,200 205,300 207,300
210,300 213,300 215,300 221,600
222,300 223,300 233,200 241,400
249,300 255,200 269,200 281,400
282,200 283,300 295,200 325,300
355,400 356,200 381,400 424,700
425,200
##END=
