##TITLE=1H-Trindene, 2,3,4,5,6,7,8,9-octahydro-1,1,4,4,9,9-hexamethyl-
##JCAMP-DX=4.24
##DATA TYPE=MASS SPECTRUM
##ORIGIN=CONTINENTAL OIL CO., PONCA CITY, OKLA, USA
##OWNER=NIST Mass Spectrometry Data Center
Collection (C) 2014 copyright by the U.S. Secretary of Commerce
on behalf of the United States of America. All rights reserved.
##CAS REGISTRY NO=55682-87-6
##$NIST MASS SPEC NO=27680
##MOLFORM=C21 H30
##MW=282
##$NIST SOURCE=MSDC
##XUNITS=M/Z
##YUNITS=RELATIVE INTENSITY
##XFACTOR=1
##YFACTOR=1
##FIRSTX=13
##LASTX=284
##FIRSTY=4
##MAXX=284
##MINX=13
##MAXY=9999
##MINY=1
##NPOINTS=174
##PEAK TABLE=(XY..XY)
13,4 14,10 15,31 16,2
27,31 28,22 29,100 39,25
40,64 41,71 42,8 43,44
44,8 51,9 52,1 53,18
55,26 56,17 57,22 63,7
65,16 67,8 69,24 71,12
75,11 76,48 77,118 78,33
79,38 81,19 82,48 83,100
84,62 85,17 88,48 89,266
90,120 91,200 92,26 93,14
94,22 95,79 96,153 97,125
98,198 99,15 100,15 101,131
102,98 103,103 104,94 105,200
106,14 107,20 108,36 109,30
110,48 111,242 112,28 113,27
114,18 115,200 116,48 117,37
118,106 119,27 120,17 125,13
126,1161 127,97 128,197 129,123
130,23 131,15 133,10 138,12
139,66 140,31 141,223 142,98
143,73 144,17 145,11 150,18
151,70 152,277 153,278 154,153
155,488 156,121 157,54 158,17
163,40 164,72 165,745 166,425
167,459 168,246 169,372 170,108
171,59 175,22 176,65 177,92
178,425 179,540 180,373 181,871
182,267 183,177 184,44 187,22
188,32 189,185 190,144 191,295
192,218 193,275 194,191 195,755
196,446 197,196 198,38 200,21
201,30 202,133 203,145 204,84
205,179 206,135 207,294 208,148
209,348 210,236 211,2387 212,432
213,47 215,40 216,21 217,29
218,21 219,57 220,53 221,231
222,134 223,230 224,73 225,290
226,73 227,21 233,13 234,14
235,87 236,66 237,361 238,81
239,82 240,22 249,17 250,23
251,269 252,403 253,160 254,92
265,147 266,229 267,9999 268,2180
269,40 280,20 281,68 282,1978
283,459 284,46
##END=
