##TITLE=3-Octen-5-yne, 2,2,7,7-tetramethyl-
##JCAMP-DX=4.24
##DATA TYPE=MASS SPECTRUM
##ORIGIN=J.VOTH UNIV. OF CALIFORNIA, DAVIS, CALIFORNIA, 95616, USA
##OWNER=NIST Mass Spectrometry Data Center
Collection (C) 2014 copyright by the U.S. Secretary of Commerce
on behalf of the United States of America. All rights reserved.
##CAS REGISTRY NO=55682-74-1
##$NIST MASS SPEC NO=26695
##MOLFORM=C12 H20
##MW=164
##$NIST SOURCE=MSDC
##XUNITS=M/Z
##YUNITS=RELATIVE INTENSITY
##XFACTOR=1
##YFACTOR=1
##FIRSTX=12
##LASTX=166
##FIRSTY=30
##MAXX=166
##MINX=12
##MAXY=9999
##MINY=21
##NPOINTS=112
##PEAK TABLE=(XY..XY)
12,30 13,54 14,244 15,2699
16,56 17,39 18,124 26,297
27,5163 28,737 29,4780 30,112
31,23 37,122 38,380 39,5671
40,703 41,9999 42,700 43,5168
44,202 45,83 49,42 50,1449
51,3864 52,1290 53,3725 54,976
55,3824 56,323 57,4280 58,470
59,86 60,25 61,177 62,617
63,1940 64,612 65,2627 66,780
67,1734 68,169 69,1758 70,522
71,309 72,37 73,65 74,473
76,288 77,5053 78,1250 79,3701
80,460 81,612 82,371 84,28
85,43 86,94 87,153 88,52
89,386 90,210 91,6742 92,1153
93,3929 94,2784 95,1068 96,124
97,38 98,88 99,107 101,83
102,207 103,768 104,417 105,4144
106,1034 107,7818 108,1087 109,312
110,48 113,36 114,43 115,634
116,271 117,682 118,296 119,3173
120,775 121,6948 122,764 123,95
124,54 127,22 128,75 129,60
130,32 131,100 132,68 133,984
134,2529 135,615 136,137 147,101
148,81 149,9723 150,1191 151,70
163,21 164,8396 165,1124 166,72
##END=
