##TITLE=Butanoic acid, 3-methyl-, propyl ester
##JCAMP-DX=4.24
##DATA TYPE=MASS SPECTRUM
##OWNER=NIST Mass Spectrometry Data Center
Collection (C) 2014 copyright by the U.S. Secretary of Commerce
on behalf of the United States of America. All rights reserved.
##CAS REGISTRY NO=557-00-6
##$NIST MASS SPEC NO=21290
##MOLFORM=C8 H16 O2
##MW=144
##$NIST SOURCE=MSDC
##XUNITS=M/Z
##YUNITS=RELATIVE INTENSITY
##XFACTOR=1
##YFACTOR=1
##FIRSTX=27
##LASTX=143
##FIRSTY=1191
##MAXX=143
##MINX=27
##MAXY=9999
##MINY=100
##NPOINTS=31
##PEAK TABLE=(XY..XY)
27,1191 29,1181 31,240 39,1101
40,110 41,4314 42,1892 43,5025
44,200 45,410 53,120 55,440
56,681 57,6776 58,420 59,1211
60,3393 61,4894 62,130 69,330
74,410 85,9999 86,591 87,2762
102,1902 103,8628 104,430 115,621
116,240 129,100 143,160
##END=
