##TITLE=Ethane, 1,1-dibromo-
##JCAMP-DX=4.24
##DATA TYPE=MASS SPECTRUM
##ORIGIN=Japan AIST/NIMC Database- Spectrum MS-NW-4429
##OWNER=NIST Mass Spectrometry Data Center
Collection (C) 2014 copyright by the U.S. Secretary of Commerce
on behalf of the United States of America. All rights reserved.
##CAS REGISTRY NO=557-91-5
##$NIST MASS SPEC NO=229839
##MOLFORM=C2 H4 Br2
##MW=186
##$NIST SOURCE=MSDC
##XUNITS=M/Z
##YUNITS=RELATIVE INTENSITY
##XFACTOR=1
##YFACTOR=1
##FIRSTX=12
##LASTX=191
##FIRSTY=10
##MAXX=191
##MINX=12
##MAXY=9999
##MINY=10
##NPOINTS=39
##PEAK TABLE=(XY..XY)
12,10 13,10 14,30 15,30
24,20 25,159 26,1129 27,9999
28,389 29,10 79,409 80,159
81,409 82,159 83,10 91,50
92,40 93,60 94,40 95,10
104,80 105,249 106,179 107,7449
108,269 109,6989 110,159 170,10
171,99 172,20 173,199 174,20
175,90 186,629 187,20 188,1189
189,40 190,589 191,10
##END=
