##TITLE=Urea, 2-propenyl-
##JCAMP-DX=4.24
##DATA TYPE=MASS SPECTRUM
##ORIGIN=Japan AIST/NIMC Database- Spectrum MS-NW- 243
##OWNER=NIST Mass Spectrometry Data Center
Collection (C) 2014 copyright by the U.S. Secretary of Commerce
on behalf of the United States of America. All rights reserved.
##CAS REGISTRY NO=557-11-9
##$NIST MASS SPEC NO=228437
##MOLFORM=C4 H8 N2 O
##MW=100
##$NIST SOURCE=MSDC
##XUNITS=M/Z
##YUNITS=RELATIVE INTENSITY
##XFACTOR=1
##YFACTOR=1
##FIRSTX=15
##LASTX=101
##FIRSTY=40
##MAXX=101
##MINX=15
##MAXY=9999
##MINY=10
##NPOINTS=48
##PEAK TABLE=(XY..XY)
15,40 16,119 17,269 18,169
25,20 26,239 27,559 28,2359
29,449 30,3659 31,99 37,90
38,209 39,1099 40,159 41,1239
42,179 43,209 44,1969 45,159
46,40 51,40 52,139 53,40
54,559 55,229 56,6219 57,9999
58,409 60,249 61,30 68,20
69,40 70,40 71,80 72,20
73,80 74,20 81,40 82,30
83,10 84,20 85,139 97,20
98,20 99,50 100,659 101,40
##END=
