##TITLE=Arsine, chlorodimethyl-
##JCAMP-DX=4.24
##DATA TYPE=MASS SPECTRUM
##ORIGIN=Dennis Rohrbaugh, CBDCOM/ERDEC, Edgewood, MD
##OWNER=NIST Mass Spectrometry Data Center
Collection (C) 2014 copyright by the U.S. Secretary of Commerce
on behalf of the United States of America. All rights reserved.
##CAS REGISTRY NO=557-89-1
##$NIST MASS SPEC NO=226747
##MOLFORM=C2 H6 As Cl
##MW=140
##$NIST SOURCE=MSDC
##XUNITS=M/Z
##YUNITS=RELATIVE INTENSITY
##XFACTOR=1
##YFACTOR=1
##FIRSTX=75
##LASTX=142
##FIRSTY=1340
##MAXX=142
##MINX=75
##MAXY=9999
##MINY=125
##NPOINTS=22
##PEAK TABLE=(XY..XY)
75,1340 76,429 77,251 87,125
88,2903 89,9999 90,1459 100,237
101,1703 102,666 103,2592 105,2814
110,1540 111,414 112,555 123,214
124,429 125,7406 127,2621 140,5614
141,177 142,1881
##END=
