##TITLE=Tetracosanoic acid
##JCAMP-DX=4.24
##DATA TYPE=MASS SPECTRUM
##ORIGIN=Japan AIST/NIMC Database- Spectrum MS-NW-2569
##OWNER=NIST Mass Spectrometry Data Center
Collection (C) 2014 copyright by the U.S. Secretary of Commerce
on behalf of the United States of America. All rights reserved.
##CAS REGISTRY NO=557-59-5
##$NIST MASS SPEC NO=231005
##MOLFORM=C24 H48 O2
##MW=368
##$NIST SOURCE=MSDC
##XUNITS=M/Z
##YUNITS=RELATIVE INTENSITY
##XFACTOR=1
##YFACTOR=1
##FIRSTX=15
##LASTX=371
##FIRSTY=20
##MAXX=371
##MINX=15
##MAXY=9999
##MINY=10
##NPOINTS=253
##PEAK TABLE=(XY..XY)
15,20 16,10 17,70 18,269
26,40 27,739 28,249 29,2309
30,60 31,60 38,10 39,519
40,109 41,5069 42,1099 43,9999
44,329 45,309 46,10 47,10
50,10 51,20 52,20 53,249
54,489 55,5829 56,1879 57,9989
58,439 59,259 60,6139 61,3389
62,109 63,20 65,50 66,60
67,769 68,739 69,4169 70,1409
71,5569 72,309 73,7979 74,769
75,60 76,10 77,40 78,30
79,149 80,119 81,689 82,939
83,3309 84,1209 85,3499 86,249
87,1829 88,189 89,20 91,30
92,20 93,129 94,109 95,549
96,759 97,2949 98,1749 99,1179
100,109 101,839 102,339 103,30
105,20 106,10 107,119 108,70
109,329 110,369 111,1589 112,579
113,799 114,99 115,1369 116,1189
117,90 118,20 119,20 120,10
121,209 122,60 123,199 124,249
125,969 126,329 127,569 128,70
129,5079 130,549 131,50 133,10
134,10 135,199 136,60 137,109
138,179 139,569 140,249 141,429
142,60 143,519 144,109 145,10
147,10 149,139 150,40 151,50
152,119 153,349 154,199 155,319
156,50 157,349 158,179 159,20
161,10 163,90 164,30 165,30
166,99 167,249 168,159 169,259
170,40 171,859 172,299 173,30
174,20 175,20 176,90 177,60
178,20 179,20 180,80 181,179
182,129 183,199 184,40 185,1359
186,209 187,20 191,30 192,10
193,10 194,70 195,129 196,129
197,149 198,30 199,229 200,90
201,10 205,20 206,10 207,10
208,60 209,99 210,119 211,129
212,30 213,409 214,129 215,20
219,10 220,10 221,10 222,50
223,70 224,109 225,99 226,20
227,409 228,99 229,10 233,10
234,10 235,10 236,40 237,60
238,80 239,70 240,20 241,299
242,70 243,10 246,179 247,30
248,109 249,30 250,40 251,50
252,70 253,50 254,10 255,129
256,70 257,10 263,10 264,40
265,40 266,50 267,30 269,569
270,139 271,20 278,10 279,20
280,70 281,20 283,269 284,70
285,10 293,10 294,30 295,10
297,80 298,20 306,99 307,30
308,129 309,90 310,20 311,99
312,40 322,20 325,639 326,149
327,20 332,50 333,10 339,80
340,50 341,10 348,10 349,10
350,50 351,20 365,10 366,10
367,10 368,3989 369,1049 370,149
371,10
##END=
