##TITLE=1,1'-Biphenyl, 2,3,6-trichloro-
##JCAMP-DX=4.24
##DATA TYPE=MASS SPECTRUM
##ORIGIN=T.L.Hayes, Battelle Columbus Laboratories, Columbus, OH 43221
##OWNER=NIST Mass Spectrometry Data Center
Collection (C) 2014 copyright by the U.S. Secretary of Commerce
on behalf of the United States of America. All rights reserved.
##CAS REGISTRY NO=55702-45-9
##$NIST MASS SPEC NO=80816
##MOLFORM=C12 H7 Cl3
##MW=256
##$NIST SOURCE=MSDC
##XUNITS=M/Z
##YUNITS=RELATIVE INTENSITY
##XFACTOR=1
##YFACTOR=1
##FIRSTX=35
##LASTX=262
##FIRSTY=54
##MAXX=262
##MINX=35
##MAXY=9999
##MINY=53
##NPOINTS=109
##PEAK TABLE=(XY..XY)
35,54 37,271 38,393 39,175
49,281 50,820 51,867 52,81
56,155 60,190 61,726 62,650
63,533 67,116 69,59 73,688
74,1455 75,2128 76,359 77,517
79,206 80,244 81,71 84,503
85,673 86,881 87,482 91,67
92,686 93,2049 94,694 96,245
97,777 98,1271 99,958 100,310
101,264 102,157 107,144 108,370
109,651 110,2036 111,1884 112,372
113,134 114,67 118,113 120,167
121,380 122,442 123,675 124,222
125,572 126,247 128,562 129,556
130,115 132,137 133,294 134,65
135,221 136,87 137,178 144,73
145,221 146,89 147,397 148,208
149,919 150,4470 151,2530 157,163
158,79 159,159 160,496 161,114
162,172 169,130 170,56 171,241
173,53 181,218 182,99 183,103
184,178 185,612 186,9862 187,1491
188,2901 189,544 193,87 195,167
196,112 204,118 206,61 208,215
209,68 220,804 221,390 222,461
223,330 224,191 256,9999 257,1301
258,9606 259,1229 260,3312 261,323
262,325
##END=
