##TITLE=2-Hexene, 4,4,5-trimethyl-
##JCAMP-DX=4.24
##DATA TYPE=MASS SPECTRUM
##ORIGIN=A. J. HORNG
##OWNER=NIST Mass Spectrometry Data Center
Collection (C) 2014 copyright by the U.S. Secretary of Commerce
on behalf of the United States of America. All rights reserved.
##CAS REGISTRY NO=55702-61-9
##$NIST MASS SPEC NO=26930
##MOLFORM=C9 H18
##MW=126
##$NIST SOURCE=MSDC
##XUNITS=M/Z
##YUNITS=RELATIVE INTENSITY
##XFACTOR=1
##YFACTOR=1
##FIRSTX=14
##LASTX=127
##FIRSTY=51
##MAXX=127
##MINX=14
##MAXY=9999
##MINY=7
##NPOINTS=65
##PEAK TABLE=(XY..XY)
14,51 15,583 16,15 18,18
26,106 27,1830 28,196 29,894
30,22 31,10 37,41 38,119
39,1761 40,280 41,3754 42,352
43,1507 44,56 45,11 46,11
49,8 50,75 51,194 52,89
53,528 54,129 55,5100 56,273
57,130 58,8 61,7 62,20
63,54 64,14 65,136 66,58
67,666 68,102 69,1082 70,263
71,48 72,21 74,8 75,8
77,101 78,32 79,101 80,30
81,150 82,1196 83,9999 84,802
85,64 91,26 93,14 95,55
96,11 97,19 109,8 110,7
111,144 112,15 125,7 126,174
127,19
##END=
