##TITLE=2-Pentanol, 5-(2-propynyloxy)-
##JCAMP-DX=4.24
##DATA TYPE=MASS SPECTRUM
##ORIGIN=J.VOTH UNIV. OF CALIFORNIA, DAVIS, CALIFORNIA, 95616, USA
##OWNER=NIST Mass Spectrometry Data Center
Collection (C) 2014 copyright by the U.S. Secretary of Commerce
on behalf of the United States of America. All rights reserved.
##CAS REGISTRY NO=55702-67-5
##$NIST MASS SPEC NO=26844
##MOLFORM=C8 H14 O2
##MW=142
##$NIST SOURCE=MSDC
##XUNITS=M/Z
##YUNITS=RELATIVE INTENSITY
##XFACTOR=1
##YFACTOR=1
##FIRSTX=12
##LASTX=123
##FIRSTY=58
##MAXX=123
##MINX=12
##MAXY=9999
##MINY=15
##NPOINTS=79
##PEAK TABLE=(XY..XY)
12,58 13,94 14,345 15,1673
16,92 17,143 18,475 19,559
24,31 25,156 26,773 27,4145
28,1168 29,4367 30,226 31,1784
32,88 36,32 37,389 38,951
39,9999 40,1237 41,5855 42,5742
43,7110 44,738 45,7734 46,273
47,39 49,20 50,82 51,128
52,256 53,1070 54,1265 55,2255
56,797 57,1532 58,2186 59,207
60,17 61,19 63,32 65,95
66,90 67,674 68,346 69,2427
70,2989 71,3690 72,185 73,40
74,41 75,20 77,71 78,36
79,624 80,108 81,831 82,2289
83,855 84,86 85,2697 86,310
87,95 91,24 93,26 94,19
95,190 96,110 97,126 98,205
99,45 101,71 103,148 104,15
109,72 112,86 123,26
##END=
