##TITLE=1,1'-Biphenyl, 2,3',4-trichloro-
##JCAMP-DX=4.24
##DATA TYPE=MASS SPECTRUM
##ORIGIN=N. Todua, WGM, MMES
##OWNER=NIST Mass Spectrometry Data Center
Collection (C) 2014 copyright by the U.S. Secretary of Commerce
on behalf of the United States of America. All rights reserved.
##CAS REGISTRY NO=55712-37-3
##$NIST MASS SPEC NO=334685
##MOLFORM=C12 H7 Cl3
##MW=256
##$NIST SOURCE=MSDC
##XUNITS=M/Z
##YUNITS=RELATIVE INTENSITY
##XFACTOR=1
##YFACTOR=1
##FIRSTX=42
##LASTX=263
##FIRSTY=271
##MAXX=263
##MINX=42
##MAXY=9999
##MINY=136
##NPOINTS=110
##PEAK TABLE=(XY..XY)
42,271 43,271 44,344 45,271
48,271 49,344 50,897 51,626
52,209 53,136 55,271 57,271
60,271 61,626 62,761 63,553
64,271 67,271 68,271 69,271
71,136 72,209 73,626 74,1314
75,2064 77,271 79,271 81,344
82,209 84,344 85,480 86,553
87,480 88,209 92,761 93,1585
94,626 96,209 97,417 98,761
99,824 100,344 101,344 102,209
108,271 109,344 110,1241 111,970
113,271 114,209 115,209 116,209
120,209 121,209 122,344 123,417
125,271 126,344 127,136 128,553
129,553 130,271 131,209 132,209
133,209 134,209 135,271 136,271
137,209 138,209 144,136 145,209
146,209 147,271 148,271 149,553
150,2064 151,1522 152,271 159,271
160,417 161,209 162,209 170,209
172,271 183,209 184,344 185,626
186,5307 187,1032 188,1929 189,344
194,209 195,136 196,209 207,209
220,417 221,271 222,417 223,271
224,209 255,209 256,9655 257,1449
258,9999 259,1314 260,3034 261,480
262,417 263,136
##END=
