##TITLE=Indol-5-ol, 2TMS derivative
##JCAMP-DX=4.24
##DATA TYPE=MASS SPECTRUM
##ORIGIN=M.HORNING
##OWNER=NIST Mass Spectrometry Data Center
Collection (C) 2014 copyright by the U.S. Secretary of Commerce
on behalf of the United States of America. All rights reserved.
##CAS REGISTRY NO=55712-57-7
##$NIST MASS SPEC NO=43424
##MOLFORM=C14 H23 N O Si2
##MW=277
##$NIST SOURCE=MSDC
##XUNITS=M/Z
##YUNITS=RELATIVE INTENSITY
##XFACTOR=1
##YFACTOR=1
##FIRSTX=41
##LASTX=281
##FIRSTY=50
##MAXX=281
##MINX=41
##MAXY=9999
##MINY=50
##NPOINTS=134
##PEAK TABLE=(XY..XY)
41,50 42,56 43,950 44,425
45,3500 46,218 47,175 51,75
53,150 55,150 57,168 58,256
59,450 61,50 63,68 67,75
69,100 70,87 71,75 72,156
73,9999 74,1000 75,668 76,668
77,150 79,100 81,68 83,200
84,125 85,56 87,50 88,75
89,125 91,100 93,100 94,68
95,56 96,50 101,50 102,100
103,168 104,100 105,106 106,50
107,56 109,50 114,68 115,250
116,187 117,187 118,68 119,218
120,100 121,50 123,237 124,75
128,100 129,118 130,725 131,268
132,125 133,256 134,156 135,118
143,68 144,175 145,125 146,250
147,237 148,68 149,50 156,150
157,68 158,150 159,150 160,268
161,118 162,100 163,150 170,150
171,56 172,418 173,187 174,775
175,150 176,125 177,50 184,56
186,150 187,106 188,375 189,456
190,218 191,50 193,50 200,50
202,256 203,187 204,500 205,237
206,100 207,100 208,50 217,56
218,56 219,350 220,118 221,100
230,56 231,75 232,525 233,168
234,350 235,100 236,50 246,468
247,287 248,368 249,168 250,100
260,150 261,150 262,5300 263,1500
264,525 265,100 274,68 275,150
276,500 277,9999 278,2700 279,1000
280,187 281,50
##END=
