##TITLE=Acetamide, N-[2-[3,4-bis(acetyloxy)phenyl]-2-hydroxyethyl]-N-methyl-
##JCAMP-DX=4.24
##DATA TYPE=MASS SPECTRUM
##OWNER=NIST Mass Spectrometry Data Center
Collection (C) 2014 copyright by the U.S. Secretary of Commerce
on behalf of the United States of America. All rights reserved.
##CAS REGISTRY NO=55712-68-0
##$NIST MASS SPEC NO=14662
##MOLFORM=C15 H19 N O6
##MW=309
##$NIST SOURCE=MSDC
##XUNITS=M/Z
##YUNITS=RELATIVE INTENSITY
##XFACTOR=1
##YFACTOR=1
##FIRSTX=41
##LASTX=310
##FIRSTY=250
##MAXX=310
##MINX=41
##MAXY=9999
##MINY=100
##NPOINTS=40
##PEAK TABLE=(XY..XY)
41,250 42,950 43,4750 44,8299
45,2250 57,250 65,500 74,675
81,250 82,200 86,3000 87,9999
88,1250 93,800 109,250 110,300
111,200 123,250 136,425 137,1125
138,1900 139,2500 140,325 152,1000
164,375 165,575 178,175 179,175
180,1625 181,5299 182,600 207,450
222,300 223,425 249,250 291,125
307,125 308,100 309,2400 310,425
##END=
