##TITLE=Naphthalene, 1,3,7-trichloro-
##JCAMP-DX=4.24
##DATA TYPE=MASS SPECTRUM
##ORIGIN=D.HENNEBERG, MAX-PLANCK INSTITUTE, MULHEIM, WEST GERMANY
##OWNER=NIST Mass Spectrometry Data Center
Collection (C) 2014 copyright by the U.S. Secretary of Commerce
on behalf of the United States of America. All rights reserved.
##CAS REGISTRY NO=55720-37-1
##$NIST MASS SPEC NO=61578
##MOLFORM=C10 H5 Cl3
##MW=230
##$NIST SOURCE=MSDC
##XUNITS=M/Z
##YUNITS=RELATIVE INTENSITY
##XFACTOR=1
##YFACTOR=1
##FIRSTX=35
##LASTX=237
##FIRSTY=16
##MAXX=237
##MINX=35
##MAXY=9999
##MINY=5
##NPOINTS=103
##PEAK TABLE=(XY..XY)
35,16 36,208 38,67 39,13
41,15 43,7 44,17 50,47
51,92 55,9 57,9 60,11
61,8 62,12 63,27 67,13
68,6 69,7 71,7 73,24
74,177 75,358 76,48 77,12
79,10 80,27 81,16 83,8
84,22 85,59 86,39 87,51
88,8 95,15 96,10 97,87
98,162 99,291 100,44 102,10
103,10 107,7 108,31 109,119
110,61 111,52 112,34 113,13
114,7 115,375 116,352 117,138
118,14 120,8 121,25 122,36
123,398 124,305 125,616 126,72
130,10 131,27 132,26 133,78
134,36 135,39 136,13 137,6
145,8 148,10 157,20 158,49
159,392 160,3205 161,416 162,980
163,111 164,20 166,34 169,13
170,19 172,11 183,13 185,7
192,6 193,15 194,374 195,1316
196,398 197,853 198,151 199,142
200,16 228,5 229,40 230,9999
231,994 232,9644 233,891 234,2991
235,287 236,288 237,31
##END=
