##TITLE=Naphthalene, 2,3,6-trichloro-
##JCAMP-DX=4.24
##DATA TYPE=MASS SPECTRUM
##ORIGIN=D.HENNEBERG, MAX-PLANCK INSTITUTE, MULHEIM, WEST GERMANY
##OWNER=NIST Mass Spectrometry Data Center
Collection (C) 2014 copyright by the U.S. Secretary of Commerce
on behalf of the United States of America. All rights reserved.
##CAS REGISTRY NO=55720-40-6
##$NIST MASS SPEC NO=61579
##MOLFORM=C10 H5 Cl3
##MW=230
##$NIST SOURCE=MSDC
##XUNITS=M/Z
##YUNITS=RELATIVE INTENSITY
##XFACTOR=1
##YFACTOR=1
##FIRSTX=26
##LASTX=237
##FIRSTY=49
##MAXX=237
##MINX=26
##MAXY=9999
##MINY=3
##NPOINTS=158
##PEAK TABLE=(XY..XY)
26,49 29,24 30,6 31,7
35,24 36,316 37,9 38,108
39,19 40,9 41,36 42,12
43,35 44,113 45,7 50,32
51,86 52,11 53,6 54,9
55,37 56,19 57,69 58,5
61,6 62,9 63,30 67,23
68,7 69,34 70,14 71,37
73,25 74,123 75,336 76,44
77,11 78,7 79,13 80,14
81,49 82,19 83,38 84,18
85,49 86,26 87,46 88,8
89,3 91,21 92,6 93,7
94,14 95,46 96,30 97,69
98,123 99,246 100,43 101,7
102,8 103,7 104,4 105,7
106,4 107,11 108,29 109,107
110,54 111,56 112,20 113,15
115,380 116,354 117,114 118,11
119,8 120,8 121,24 122,30
123,365 124,270 125,668 126,80
127,8 128,9 130,13 131,29
132,23 133,80 134,38 135,46
136,15 137,21 138,12 139,13
140,7 141,6 143,4 144,7
145,12 146,4 147,8 148,12
149,15 150,7 151,12 152,8
153,10 154,7 157,23 158,42
159,398 160,3344 161,477 162,1107
163,125 164,28 166,36 167,34
168,25 169,16 170,19 171,7
172,9 173,4 177,6 182,14
183,15 184,5 185,7 187,4
188,5 191,8 193,16 194,427
195,1351 196,442 197,845 198,150
199,129 200,23 204,4 206,5
208,4 209,15 211,4 221,5
222,3 225,3 230,9999 231,1117
232,9517 233,1028 234,3092 235,322
236,289 237,35
##END=
