##TITLE=3-Cyclohexene-1-ethanol, .alpha.-ethenyl-.alpha.,3-dimethyl-6-(1-methylethylidene)-
##JCAMP-DX=4.24
##DATA TYPE=MASS SPECTRUM
##OWNER=NIST Mass Spectrometry Data Center
Collection (C) 2014 copyright by the U.S. Secretary of Commerce
on behalf of the United States of America. All rights reserved.
##CAS REGISTRY NO=55780-93-3
##$NIST MASS SPEC NO=29586
##MOLFORM=C15 H24 O
##MW=220
##$NIST SOURCE=MSDC
##XUNITS=M/Z
##YUNITS=RELATIVE INTENSITY
##XFACTOR=1
##YFACTOR=1
##FIRSTX=91
##LASTX=220
##FIRSTY=4300
##MAXX=220
##MINX=91
##MAXY=9999
##MINY=300
##NPOINTS=17
##PEAK TABLE=(XY..XY)
91,4300 93,3000 105,2600 107,1600
119,9999 120,1000 131,500 133,6399
134,3700 135,1100 145,400 146,600
147,400 159,400 175,300 187,500
220,300
##END=
