##TITLE=Silane, dichlorocyclohexylmethyl-
##JCAMP-DX=4.24
##DATA TYPE=MASS SPECTRUM
##ORIGIN=RADIAN CORP
##OWNER=NIST Mass Spectrometry Data Center
Collection (C) 2014 copyright by the U.S. Secretary of Commerce
on behalf of the United States of America. All rights reserved.
##CAS REGISTRY NO=5578-42-7
##$NIST MASS SPEC NO=73234
##MOLFORM=C7 H14 Cl2 Si
##MW=196
##$NIST SOURCE=MSDC
##XUNITS=M/Z
##YUNITS=RELATIVE INTENSITY
##XFACTOR=1
##YFACTOR=1
##FIRSTX=26
##LASTX=201
##FIRSTY=20
##MAXX=201
##MINX=26
##MAXY=9999
##MINY=10
##NPOINTS=111
##PEAK TABLE=(XY..XY)
26,20 27,420 28,70 29,310
38,30 39,1620 40,230 41,2180
42,580 43,330 44,10 45,20
50,120 51,330 52,180 53,1040
54,1610 55,5340 56,280 63,3540
64,230 65,1670 66,310 67,4100
68,270 69,150 75,20 76,40
77,960 78,590 79,2240 80,620
81,1980 82,7880 83,8740 84,580
85,20 88,20 89,60 90,90
91,110 92,150 93,170 94,50
95,140 96,140 97,120 98,460
99,600 100,320 101,410 102,80
103,260 104,30 105,270 106,20
107,70 109,140 111,70 112,480
113,9999 114,970 115,7020 116,510
117,1750 118,170 119,300 120,30
121,40 123,80 125,330 126,30
127,220 129,60 131,20 132,100
133,60 134,40 135,10 139,310
140,30 141,290 142,10 143,100
145,100 147,20 153,140 154,860
155,180 156,570 157,80 158,90
159,10 160,60 161,140 162,30
163,40 167,540 168,250 169,380
170,170 171,70 172,20 181,120
183,80 196,2280 197,290 198,1540
199,180 200,270 201,10
##END=
