##TITLE=tert-Butyl iodide
##JCAMP-DX=4.24
##DATA TYPE=MASS SPECTRUM
##ORIGIN=ATLANTIC REFINING CO., PHILADELPHIA, PENNSYLVANIA
##OWNER=NIST Mass Spectrometry Data Center
Collection (C) 2014 copyright by the U.S. Secretary of Commerce
on behalf of the United States of America. All rights reserved.
##CAS REGISTRY NO=558-17-8
##$NIST MASS SPEC NO=34170
##MOLFORM=C4 H9 I
##MW=184
##$NIST SOURCE=MSDC
##XUNITS=M/Z
##YUNITS=RELATIVE INTENSITY
##XFACTOR=1
##YFACTOR=1
##FIRSTX=27
##LASTX=184
##FIRSTY=1547
##MAXX=184
##MINX=27
##MAXY=9999
##MINY=13
##NPOINTS=27
##PEAK TABLE=(XY..XY)
27,1547 28,24 29,4005 31,43
36,597 37,155 38,455 39,2315
41,5289 42,574 43,1320 44,64
45,200 50,111 51,142 52,48
53,224 54,62 55,864 56,353
57,9999 58,429 127,798 139,17
155,13 169,158 184,146
##END=
