##TITLE=Benzenamine, 2,3,4,5-tetrafluoro-
##JCAMP-DX=4.24
##DATA TYPE=MASS SPECTRUM
##ORIGIN=J.M. MILLER,BROCK UNIVERSITY,ONTARIO,CANADA
##OWNER=NIST Mass Spectrometry Data Center
Collection (C) 2014 copyright by the U.S. Secretary of Commerce
on behalf of the United States of America. All rights reserved.
##CAS REGISTRY NO=5580-80-3
##$NIST MASS SPEC NO=54134
##MOLFORM=C6 H3 F4 N
##MW=165
##$NIST SOURCE=MSDC
##XUNITS=M/Z
##YUNITS=RELATIVE INTENSITY
##XFACTOR=1
##YFACTOR=1
##FIRSTX=31
##LASTX=166
##FIRSTY=793
##MAXX=166
##MINX=31
##MAXY=9999
##MINY=20
##NPOINTS=54
##PEAK TABLE=(XY..XY)
31,793 40,103 46,87 50,35
51,154 52,35 55,35 56,173
57,103 64,68 68,241 69,446
70,310 72,68 74,68 75,585
76,138 79,68 80,68 82,620
86,35 87,138 88,587 89,20
93,173 94,344 95,344 96,103
98,68 99,758 100,68 106,68
113,52 114,68 117,174 118,1584
119,585 120,33 124,35 125,344
126,154 134,415 135,20 136,51
137,1378 138,414 139,20 144,258
145,379 146,68 163,35 164,515
165,9999 166,700
##END=
