##TITLE=3,4-Dimethylbenzamide
##JCAMP-DX=4.24
##DATA TYPE=MASS SPECTRUM
##ORIGIN=NIST Mass Spectrometry Data Center, 1994
##OWNER=NIST Mass Spectrometry Data Center
Collection (C) 2014 copyright by the U.S. Secretary of Commerce
on behalf of the United States of America. All rights reserved.
##CAS REGISTRY NO=5580-33-6
##$NIST MASS SPEC NO=136666
##MOLFORM=C9 H11 N O
##MW=149
##$NIST SOURCE=MSDC
##XUNITS=M/Z
##YUNITS=RELATIVE INTENSITY
##XFACTOR=1
##YFACTOR=1
##FIRSTX=16
##LASTX=151
##FIRSTY=51
##MAXX=151
##MINX=16
##MAXY=9999
##MINY=25
##NPOINTS=62
##PEAK TABLE=(XY..XY)
16,51 17,120 18,64 27,593
37,71 38,340 39,1641 40,126
41,53 42,25 43,25 44,1173
50,778 51,1849 52,515 53,629
54,75 59,107 61,118 62,429
63,972 64,258 65,606 66,155
67,35 75,200 76,258 77,3085
78,980 79,2089 80,188 85,27
86,80 87,83 88,27 89,321
90,128 91,652 92,73 93,66
98,73 101,66 102,268 103,1394
104,526 105,4903 106,498 107,31
116,233 117,30 118,74 120,164
121,37 130,66 131,218 133,9999
134,1043 135,60 147,26 149,5391
150,541 151,51
##END=
