##TITLE=Silane, methyltripropoxy-
##JCAMP-DX=4.24
##DATA TYPE=MASS SPECTRUM
##ORIGIN=RADIAN CORP
##OWNER=NIST Mass Spectrometry Data Center
Collection (C) 2014 copyright by the U.S. Secretary of Commerce
on behalf of the United States of America. All rights reserved.
##CAS REGISTRY NO=5581-66-8
##$NIST MASS SPEC NO=73313
##MOLFORM=C10 H24 O3 Si
##MW=220
##$NIST SOURCE=MSDC
##XUNITS=M/Z
##YUNITS=RELATIVE INTENSITY
##XFACTOR=1
##YFACTOR=1
##FIRSTX=26
##LASTX=221
##FIRSTY=40
##MAXX=221
##MINX=26
##MAXY=9999
##MINY=10
##NPOINTS=82
##PEAK TABLE=(XY..XY)
26,40 27,910 29,1670 31,20
39,260 41,690 42,110 43,530
44,10 45,1440 46,60 47,50
55,70 57,20 58,40 59,330
60,510 61,1300 62,220 63,460
71,10 74,60 75,180 76,350
77,9730 78,670 79,1900 80,80
81,60 83,140 85,40 87,530
88,40 89,140 90,270 91,1640
92,140 93,150 95,290 99,200
100,60 101,560 102,110 103,1210
104,200 105,330 107,180 115,20
117,520 118,50 119,3590 120,360
121,1660 122,130 123,50 131,260
133,9060 134,1020 135,890 136,50
137,140 145,110 147,260 149,4320
150,470 151,170 159,20 161,8240
162,1090 163,830 164,60 176,360
177,20 178,220 191,9999 192,1410
193,460 205,3180 206,470 207,130
220,110 221,20
##END=
