##TITLE=Hexadecanoic acid, 15-hydroxy-, methyl ester
##JCAMP-DX=4.24
##DATA TYPE=MASS SPECTRUM
##OWNER=NIST Mass Spectrometry Data Center
Collection (C) 2014 copyright by the U.S. Secretary of Commerce
on behalf of the United States of America. All rights reserved.
##CAS REGISTRY NO=55823-13-7
##$NIST MASS SPEC NO=28430
##MOLFORM=C17 H34 O3
##MW=286
##$NIST SOURCE=MSDC
##XUNITS=M/Z
##YUNITS=RELATIVE INTENSITY
##XFACTOR=1
##YFACTOR=1
##FIRSTX=41
##LASTX=286
##FIRSTY=1040
##MAXX=286
##MINX=41
##MAXY=9999
##MINY=40
##NPOINTS=37
##PEAK TABLE=(XY..XY)
41,1040 42,240 43,2560 44,280
45,5559 46,120 67,600 68,520
69,2680 70,480 71,800 73,280
74,8159 75,1320 81,880 82,640
83,2000 84,1360 85,520 87,7879
88,640 136,160 137,200 138,240
141,200 143,1520 144,120 199,1120
200,160 236,2160 237,640 239,960
240,160 242,9999 243,1920 244,200
286,40
##END=
