##TITLE=Propargyl alcohol, TMS derivative
##JCAMP-DX=4.24
##DATA TYPE=MASS SPECTRUM
##ORIGIN=NIST Mass Spectrometry Data Center
##OWNER=NIST Mass Spectrometry Data Center
Collection (C) 2014 copyright by the U.S. Secretary of Commerce
on behalf of the United States of America. All rights reserved.
##CAS REGISTRY NO=5582-62-7
##$NIST MASS SPEC NO=333043
##MOLFORM=C6 H12 O Si
##MW=128
##$NIST SOURCE=MSDC
##XUNITS=M/Z
##YUNITS=RELATIVE INTENSITY
##XFACTOR=1
##YFACTOR=1
##FIRSTX=15
##LASTX=128
##FIRSTY=50
##MAXX=128
##MINX=15
##MAXY=9999
##MINY=10
##NPOINTS=64
##PEAK TABLE=(XY..XY)
15,50 25,10 26,30 27,90
28,30 29,90 30,10 31,40
37,50 38,110 39,440 40,20
41,30 42,100 43,631 44,100
45,771 46,50 47,140 48,10
49,30 50,10 51,30 52,30
53,230 54,60 55,290 56,50
57,90 58,160 59,550 60,80
61,140 62,10 65,20 66,60
67,210 68,40 69,260 70,40
71,50 72,40 73,641 74,70
75,230 76,10 81,20 83,8988
84,1001 85,480 86,20 87,10
88,10 95,10 96,10 97,120
98,60 99,20 111,110 113,9999
114,1291 115,480 127,40 128,10
##END=
