##TITLE=N-Crotonylglycine, TMS derivative
##JCAMP-DX=4.24
##DATA TYPE=MASS SPECTRUM
##ORIGIN=O A MAMER, MCGILL UNIVERSITY, MONTRE
##OWNER=NIST Mass Spectrometry Data Center
Collection (C) 2014 copyright by the U.S. Secretary of Commerce
on behalf of the United States of America. All rights reserved.
##CAS REGISTRY NO=55836-39-0
##$NIST MASS SPEC NO=78832
##MOLFORM=C9 H17 N O3 Si
##MW=215
##$NIST SOURCE=MSDC
##XUNITS=M/Z
##YUNITS=RELATIVE INTENSITY
##XFACTOR=1
##YFACTOR=1
##FIRSTX=14
##LASTX=215
##FIRSTY=74
##MAXX=215
##MINX=14
##MAXY=9999
##MINY=31
##NPOINTS=98
##PEAK TABLE=(XY..XY)
14,74 15,356 16,50 26,114
27,266 28,769 29,201 30,519
31,80 32,37 38,105 39,1364
40,295 41,2771 42,322 43,673
44,415 45,1465 46,115 47,658
48,40 51,42 52,48 53,98
54,87 55,169 56,174 57,127
58,339 59,440 60,122 61,423
62,35 63,33 67,72 68,338
69,9999 70,538 71,158 72,275
73,7999 74,785 75,2528 76,194
77,160 79,34 80,99 81,112
82,168 83,48 84,53 85,56
86,109 87,124 88,231 89,49
93,51 95,31 96,97 97,83
98,499 99,197 100,107 101,59
102,187 103,45 104,156 105,66
112,59 116,85 117,96 125,117
127,143 128,91 129,39 130,90
131,65 132,117 140,276 141,89
142,139 143,155 145,35 146,36
147,74 154,64 156,4640 157,632
158,285 159,37 170,324 171,165
172,54 173,47 200,1077 201,166
202,98 215,92
##END=
