##TITLE=Buflomedil
##JCAMP-DX=4.24
##DATA TYPE=MASS SPECTRUM
##ORIGIN=NIST Mass Spectrometry Data Center, 1998.
##OWNER=NIST Mass Spectrometry Data Center
Collection (C) 2014 copyright by the U.S. Secretary of Commerce
on behalf of the United States of America. All rights reserved.
##CAS REGISTRY NO=55837-25-7
##$NIST MASS SPEC NO=292107
##MOLFORM=C17 H25 N O4
##MW=307
##$NIST SOURCE=MSDC
##XUNITS=M/Z
##YUNITS=RELATIVE INTENSITY
##XFACTOR=1
##YFACTOR=1
##FIRSTX=15
##LASTX=309
##FIRSTY=50
##MAXX=309
##MINX=15
##MAXY=9999
##MINY=10
##NPOINTS=165
##PEAK TABLE=(XY..XY)
15,50 26,10 27,90 28,170
29,140 30,130 31,10 38,20
39,180 40,30 41,490 42,1490
43,180 44,20 45,10 50,50
51,90 52,50 53,190 54,180
55,1110 56,360 57,80 58,10
59,120 61,10 62,40 63,120
64,60 65,100 66,130 67,80
68,180 69,1020 70,420 71,40
72,10 74,10 75,30 76,30
77,240 78,110 79,170 80,80
81,130 82,250 83,400 84,9999
85,680 86,20 89,30 90,30
91,100 92,100 93,90 94,100
95,160 96,1020 97,8049 98,1390
99,80 102,10 103,30 104,20
105,50 106,80 107,160 108,80
109,200 110,490 111,560 112,100
113,20 114,10 115,20 116,10
117,10 118,20 119,30 120,30
121,110 122,240 123,60 124,40
125,20 130,10 131,20 132,10
133,30 134,20 135,90 136,70
137,660 138,100 139,150 140,20
145,10 146,10 147,20 148,20
149,40 150,70 151,100 152,360
153,40 154,20 159,10 160,10
161,30 162,20 163,60 164,40
165,170 166,60 167,70 168,30
169,20 174,10 175,10 176,20
177,40 178,30 179,60 180,320
181,280 182,30 189,20 190,10
191,60 192,50 193,420 194,10
195,4210 196,480 197,80 198,10
204,10 205,20 206,10 207,30
208,20 209,10 210,630 211,660
212,80 213,10 220,10 221,10
222,10 223,230 224,30 235,20
236,10 237,170 238,30 250,10
276,20 279,10 289,10 292,10
305,10 306,10 307,220 308,50
309,10
##END=
