##TITLE=Isobutyrylglycine, TMS derivative
##JCAMP-DX=4.24
##DATA TYPE=MASS SPECTRUM
##ORIGIN=MO-145
##OWNER=NIST Mass Spectrometry Data Center
Collection (C) 2014 copyright by the U.S. Secretary of Commerce
on behalf of the United States of America. All rights reserved.
##CAS REGISTRY NO=55836-41-4
##$NIST MASS SPEC NO=30923
##MOLFORM=C9 H19 N O3 Si
##MW=217
##$NIST SOURCE=MSDC
##XUNITS=M/Z
##YUNITS=RELATIVE INTENSITY
##XFACTOR=1
##YFACTOR=1
##FIRSTX=15
##LASTX=204
##FIRSTY=188
##MAXX=204
##MINX=15
##MAXY=9999
##MINY=100
##NPOINTS=59
##PEAK TABLE=(XY..XY)
15,188 27,845 28,694 29,231
30,1514 39,350 41,1243 42,417
43,6667 44,436 45,1485 46,117
47,699 55,302 56,343 57,196
58,400 59,368 60,131 61,510
68,229 69,168 70,266 71,3318
72,956 73,9999 74,992 75,3080
76,236 77,193 82,100 84,138
86,153 87,166 88,431 100,333
101,177 102,694 103,134 104,654
105,121 116,652 117,272 130,336
131,803 132,444 142,104 145,827
146,275 147,105 158,3939 159,538
160,184 172,575 173,1842 174,319
202,2020 203,300 204,105
##END=
