##TITLE=N-Propionylglycine, TMS derivative
##JCAMP-DX=4.24
##DATA TYPE=MASS SPECTRUM
##ORIGIN=ORVAL A. MAMER, ROYAL VICTORIA HOSPITAL, MONTREAL, CANADA
##OWNER=NIST Mass Spectrometry Data Center
Collection (C) 2014 copyright by the U.S. Secretary of Commerce
on behalf of the United States of America. All rights reserved.
##CAS REGISTRY NO=55836-38-9
##$NIST MASS SPEC NO=23895
##MOLFORM=C8 H17 N O3 Si
##MW=203
##$NIST SOURCE=MSDC
##XUNITS=M/Z
##YUNITS=RELATIVE INTENSITY
##XFACTOR=1
##YFACTOR=1
##FIRSTX=15
##LASTX=190
##FIRSTY=197
##MAXX=190
##MINX=15
##MAXY=9999
##MINY=64
##NPOINTS=63
##PEAK TABLE=(XY..XY)
15,197 26,114 27,677 28,918
29,2811 30,2748 31,113 32,67
41,114 42,206 43,618 44,372
45,1564 46,129 47,752 54,90
55,249 56,324 57,4640 58,566
59,384 60,160 61,582 68,147
69,215 70,400 72,413 73,9999
74,1011 75,3172 76,266 77,193
79,64 85,106 86,540 87,221
88,532 89,102 100,95 101,221
102,473 104,992 105,111 113,75
114,83 116,595 117,187 130,403
131,1192 132,1210 133,177 142,126
144,891 145,129 146,128 147,80
158,866 159,3015 160,451 161,142
188,2108 189,306 190,117
##END=
