##TITLE=p-(Chlorophenyl)acetone
##JCAMP-DX=4.24
##DATA TYPE=MASS SPECTRUM
##ORIGIN=NIST Mass Spectrometry Data Center, 1994
##OWNER=NIST Mass Spectrometry Data Center
Collection (C) 2014 copyright by the U.S. Secretary of Commerce
on behalf of the United States of America. All rights reserved.
##CAS REGISTRY NO=5586-88-9
##$NIST MASS SPEC NO=134505
##MOLFORM=C9 H9 Cl O
##MW=168
##$NIST SOURCE=MSDC
##XUNITS=M/Z
##YUNITS=RELATIVE INTENSITY
##XFACTOR=1
##YFACTOR=1
##FIRSTX=13
##LASTX=171
##FIRSTY=16
##MAXX=171
##MINX=13
##MAXY=9999
##MINY=6
##NPOINTS=69
##PEAK TABLE=(XY..XY)
13,16 14,89 15,549 16,10
26,47 27,109 29,34 35,19
36,17 37,68 38,187 39,558
40,53 41,51 42,17 43,9999
44,266 47,14 48,6 49,66
50,302 51,326 52,42 53,17
57,13 60,22 61,118 62,353
63,911 64,150 65,148 66,14
72,25 73,250 74,123 75,228
76,47 77,117 78,17 79,13
84,23 85,68 86,95 87,95
88,13 89,1206 90,337 91,236
92,15 97,34 99,320 100,23
101,122 102,31 103,35 104,8
115,19 118,21 123,18 125,1804
126,452 127,597 128,139 129,9
131,7 168,573 169,63 170,211
171,17
##END=
