##TITLE=Isothiocyanic acid, hexamethylene ester
##JCAMP-DX=4.24
##DATA TYPE=MASS SPECTRUM
##ORIGIN=NIST Mass Spectrometry Data Center, 1994
##OWNER=NIST Mass Spectrometry Data Center
Collection (C) 2014 copyright by the U.S. Secretary of Commerce
on behalf of the United States of America. All rights reserved.
##CAS REGISTRY NO=5586-70-9
##$NIST MASS SPEC NO=134712
##MOLFORM=C8 H12 N2 S2
##MW=200
##$NIST SOURCE=MSDC
##XUNITS=M/Z
##YUNITS=RELATIVE INTENSITY
##XFACTOR=1
##YFACTOR=1
##FIRSTX=14
##LASTX=202
##FIRSTY=71
##MAXX=202
##MINX=14
##MAXY=9999
##MINY=24
##NPOINTS=118
##PEAK TABLE=(XY..XY)
14,71 15,164 26,373 27,2852
28,1556 29,2006 30,266 31,71
32,352 33,42 34,33 37,45
39,2986 40,687 41,6844 42,679
43,588 44,404 45,1116 46,169
47,68 50,123 51,232 52,178
53,723 54,749 55,7483 56,566
57,213 58,659 59,1026 60,874
61,73 62,184 63,35 64,68
65,122 66,109 67,874 68,300
69,853 70,455 71,35 72,9999
73,537 74,683 75,121 76,67
77,58 78,84 79,180 80,273
81,849 82,494 83,715 84,481
85,1814 86,1015 87,265 88,99
89,36 90,32 91,71 93,49
94,101 95,66 96,130 97,126
98,753 99,236 100,659 101,739
102,119 103,48 106,55 107,86
108,489 109,441 110,71 111,58
112,238 113,428 114,702 115,502
116,62 117,42 119,129 123,61
124,58 125,48 126,114 127,24
128,155 129,53 132,200 133,55
134,87 135,53 136,136 138,58
139,354 140,527 141,387 142,659
143,84 144,57 145,79 154,65
157,41 158,32 167,1668 168,173
169,76 171,66 172,38 200,2546
201,301 202,241
##END=
