##TITLE=Pentanoic acid, 2-[(trimethylsilyl)oxy]-, trimethylsilyl ester
##JCAMP-DX=4.24
##DATA TYPE=MASS SPECTRUM
##ORIGIN=MO-47
##OWNER=NIST Mass Spectrometry Data Center
Collection (C) 2014 copyright by the U.S. Secretary of Commerce
on behalf of the United States of America. All rights reserved.
##CAS REGISTRY NO=55887-46-2
##$NIST MASS SPEC NO=30828
##MOLFORM=C11 H26 O3 Si2
##MW=262
##$NIST SOURCE=MSDC
##XUNITS=M/Z
##YUNITS=RELATIVE INTENSITY
##XFACTOR=1
##YFACTOR=1
##FIRSTX=27
##LASTX=248
##FIRSTY=230
##MAXX=248
##MINX=27
##MAXY=9999
##MINY=105
##NPOINTS=40
##PEAK TABLE=(XY..XY)
27,230 28,206 29,211 41,154
43,458 44,343 45,1595 46,128
47,330 55,674 57,121 58,181
59,735 61,223 66,431 72,259
73,9999 74,919 75,1517 81,210
83,151 101,152 103,964 115,155
117,143 129,234 131,289 133,704
134,114 145,7770 146,1062 147,5456
148,856 149,566 157,154 190,308
219,696 220,163 247,435 248,105
##END=
