##TITLE=2-Pentenedioic acid, 3-methyl-, bis(trimethylsilyl) ester
##JCAMP-DX=4.24
##DATA TYPE=MASS SPECTRUM
##ORIGIN=O A MAMER, MCGILL UNIVERSITY, MONTREAL, CANADA
##OWNER=NIST Mass Spectrometry Data Center
Collection (C) 2014 copyright by the U.S. Secretary of Commerce
on behalf of the United States of America. All rights reserved.
##CAS REGISTRY NO=55887-63-3
##$NIST MASS SPEC NO=78956
##MOLFORM=C12 H24 O4 Si2
##MW=288
##$NIST SOURCE=MSDC
##XUNITS=M/Z
##YUNITS=RELATIVE INTENSITY
##XFACTOR=1
##YFACTOR=1
##FIRSTX=15
##LASTX=275
##FIRSTY=138
##MAXX=275
##MINX=15
##MAXY=9999
##MINY=73
##NPOINTS=57
##PEAK TABLE=(XY..XY)
15,138 18,215 27,187 28,309
29,150 39,291 43,619 44,383
45,1805 46,137 47,608 53,471
54,704 55,137 57,117 58,195
59,309 61,339 72,448 73,9999
74,959 75,2525 76,190 77,125
81,284 82,1647 83,168 97,275
99,321 101,115 103,179 108,162
109,833 111,187 112,278 117,143
131,108 133,335 142,253 147,4772
148,777 149,492 157,205 170,417
171,122 183,745 184,123 198,1025
199,201 201,117 215,73 229,518
230,123 244,263 273,764 274,184
275,87
##END=
