##TITLE=3-Morpholinone, 5-methyl-6-phenyl-
##JCAMP-DX=4.24
##DATA TYPE=MASS SPECTRUM
##ORIGIN=Finnigan MAT: Toxicological Library (LIBR-TX)
##OWNER=NIST Mass Spectrometry Data Center
Collection (C) 2014 copyright by the U.S. Secretary of Commerce
on behalf of the United States of America. All rights reserved.
##CAS REGISTRY NO=5588-29-4
##$NIST MASS SPEC NO=120708
##MOLFORM=C11 H13 N O2
##MW=191
##$NIST SOURCE=MSDC
##XUNITS=M/Z
##YUNITS=RELATIVE INTENSITY
##XFACTOR=1
##YFACTOR=1
##FIRSTX=42
##LASTX=191
##FIRSTY=687
##MAXX=191
##MINX=42
##MAXY=9999
##MINY=95
##NPOINTS=22
##PEAK TABLE=(XY..XY)
42,687 43,588 44,3860 51,566
57,7680 63,315 65,305 77,808
85,9999 86,511 89,494 90,594
91,1137 103,99 105,592 106,96
107,95 115,200 117,415 118,195
119,193 191,103
##END=
