##TITLE=2-Hydroxyhippuric acid, 2TMS derivative
##JCAMP-DX=4.24
##DATA TYPE=MASS SPECTRUM
##ORIGIN=NIST Mass Spectrometry Data Center
##OWNER=NIST Mass Spectrometry Data Center
Collection (C) 2014 copyright by the U.S. Secretary of Commerce
on behalf of the United States of America. All rights reserved.
##CAS REGISTRY NO=55887-56-4
##$NIST MASS SPEC NO=333688
##MOLFORM=C15 H25 N O4 Si2
##MW=339
##$NIST SOURCE=MSDC
##XUNITS=M/Z
##YUNITS=RELATIVE INTENSITY
##XFACTOR=1
##YFACTOR=1
##FIRSTX=15
##LASTX=342
##FIRSTY=10
##MAXX=342
##MINX=15
##MAXY=9999
##MINY=10
##NPOINTS=215
##PEAK TABLE=(XY..XY)
15,10 27,20 28,20 29,40
30,10 31,20 38,10 39,30
41,10 42,30 43,390 44,160
45,1181 46,80 47,250 48,20
49,10 50,40 51,70 52,20
53,50 54,10 55,70 56,50
57,150 58,160 59,440 60,70
61,200 62,20 63,80 64,70
65,180 66,20 67,20 68,10
69,20 70,40 71,40 72,240
73,5545 74,571 75,1842 76,230
77,360 78,60 79,60 80,10
81,20 82,20 83,20 84,30
85,120 86,110 87,80 88,70
89,200 90,120 91,901 92,220
93,90 94,20 95,90 97,20
98,10 99,20 100,70 101,80
102,210 103,120 104,80 105,200
106,30 107,60 108,10 109,20
110,10 111,20 112,10 113,10
114,10 115,150 116,160 117,130
118,60 119,120 120,120 121,370
122,50 123,100 124,20 125,10
126,20 127,10 128,10 129,20
130,70 131,230 132,140 133,300
134,80 135,1451 136,210 137,160
138,20 139,10 143,10 144,10
145,50 146,80 147,591 148,200
149,601 150,350 151,931 152,130
153,160 154,230 157,10 159,270
160,70 161,390 162,130 163,170
164,110 165,120 166,20 167,10
172,10 173,10 174,20 175,651
176,771 177,460 178,460 179,550
180,100 181,70 182,10 186,10
187,10 188,20 189,20 190,100
191,190 192,170 193,6736 194,1171
195,581 196,70 197,20 202,10
203,10 204,110 205,290 206,8217
207,1421 208,440 209,110 210,20
211,10 218,20 219,60 220,120
221,60 222,40 223,20 225,10
233,20 234,310 235,70 236,40
237,60 238,20 239,10 248,10
249,80 250,100 251,40 252,20
253,10 264,30 265,40 266,40
267,70 268,20 269,10 278,70
279,20 280,120 281,20 282,10
292,10 294,661 295,180 296,70
297,20 306,20 307,10 308,40
309,10 310,10 320,10 322,100
324,9999 325,2732 326,1101 327,200
328,30 329,10 338,30 339,330
340,90 341,30 342,10
##END=
