##TITLE=.beta.-Amyrin
##JCAMP-DX=4.24
##DATA TYPE=MASS SPECTRUM
##ORIGIN=NIST Mass Spectrometry Data Center, 2010
##OWNER=NIST Mass Spectrometry Data Center
Collection (C) 2014 copyright by the U.S. Secretary of Commerce
on behalf of the United States of America. All rights reserved.
##CAS REGISTRY NO=559-70-6
##$NIST MASS SPEC NO=374764
##MOLFORM=C30 H50 O
##MW=426
##$NIST SOURCE=MSDC
##XUNITS=M/Z
##YUNITS=RELATIVE INTENSITY
##XFACTOR=1
##YFACTOR=1
##FIRSTX=27
##LASTX=428
##FIRSTY=30
##MAXX=428
##MINX=27
##MAXY=9999
##MINY=10
##NPOINTS=228
##PEAK TABLE=(XY..XY)
27,30 28,10 29,170 30,10
31,20 39,60 40,20 41,891
42,50 43,931 44,40 45,40
51,10 52,10 53,190 54,30
55,1241 56,100 57,540 58,40
59,40 65,80 66,30 67,611
68,110 69,1471 70,100 71,260
72,30 73,10 75,10 77,270
78,60 79,751 80,210 81,1131
82,130 83,300 84,40 85,80
86,20 87,10 91,751 92,150
93,971 94,751 95,1431 96,160
97,210 98,30 99,20 100,10
101,10 102,10 103,60 104,40
105,951 106,220 107,1001 108,370
109,971 110,100 111,230 112,20
113,20 114,20 115,90 116,50
117,210 118,70 119,971 120,330
121,851 122,420 123,520 124,70
125,60 126,10 127,30 128,100
129,130 130,70 131,290 132,90
133,711 134,410 135,971 136,641
137,621 138,80 139,90 140,10
141,60 142,70 143,120 144,50
145,290 146,100 147,631 148,330
149,420 150,140 151,70 152,20
153,30 154,20 155,50 156,50
157,100 158,40 159,210 160,70
161,460 162,270 163,270 164,50
165,40 166,20 167,20 168,10
169,30 170,20 171,70 172,20
173,140 174,50 175,651 176,190
177,190 178,40 179,60 180,10
181,10 182,10 183,20 184,10
185,40 186,20 187,150 188,50
189,1301 190,581 191,290 192,50
193,30 194,10 195,10 197,10
198,10 199,30 200,10 201,110
203,4384 204,841 205,380 206,150
207,681 208,190 209,30 210,10
211,10 212,10 213,20 214,10
215,110 216,40 218,9999 219,1802
220,170 221,30 222,10 225,10
227,20 228,10 229,110 230,30
231,90 232,40 233,20 234,20
235,10 239,10 241,20 242,10
243,90 244,30 245,30 246,10
247,10 255,50 256,20 257,230
258,70 259,40 260,10 269,30
270,20 271,60 272,70 273,20
274,10 283,10 284,10 285,10
286,20 287,10 297,10 298,10
299,10 311,10 337,10 339,10
365,20 366,10 368,10 369,10
393,60 394,20 395,10 408,30
409,20 411,140 412,40 413,10
424,10 426,350 427,110 428,20
##END=
