##TITLE=Cyclopentene, octafluoro-
##JCAMP-DX=4.24
##DATA TYPE=MASS SPECTRUM
##ORIGIN=S.Huang, Org.Mass Spectrom. 24, 1065 (1989)
##OWNER=NIST Mass Spectrometry Data Center
Collection (C) 2014 copyright by the U.S. Secretary of Commerce
on behalf of the United States of America. All rights reserved.
##CAS REGISTRY NO=559-40-0
##$NIST MASS SPEC NO=279737
##MOLFORM=C5 F8
##MW=212
##$NIST SOURCE=MSDC
##XUNITS=M/Z
##YUNITS=RELATIVE INTENSITY
##XFACTOR=1
##YFACTOR=1
##FIRSTX=50
##LASTX=213
##FIRSTY=460
##MAXX=213
##MINX=50
##MAXY=9999
##MINY=210
##NPOINTS=26
##PEAK TABLE=(XY..XY)
50,460 55,510 62,420 69,1441
71,370 72,370 74,1021 86,420
93,9999 94,370 100,561 105,420
112,1631 113,280 117,320 124,1071
131,510 143,6025 144,510 162,8878
163,561 174,370 193,5845 194,370
212,3924 213,210
##END=
