##TITLE=Vanadium, oxotris(trimethylsilanolato)-, (T-4)-
##JCAMP-DX=4.24
##DATA TYPE=MASS SPECTRUM
##OWNER=NIST Mass Spectrometry Data Center
Collection (C) 2014 copyright by the U.S. Secretary of Commerce
on behalf of the United States of America. All rights reserved.
##CAS REGISTRY NO=5590-56-7
##$NIST MASS SPEC NO=15540
##MOLFORM=C9 H27 O4 Si3 V
##MW=334
##$NIST SOURCE=MSDC
##XUNITS=M/Z
##YUNITS=RELATIVE INTENSITY
##XFACTOR=1
##YFACTOR=1
##FIRSTX=44
##LASTX=321
##FIRSTY=100
##MAXX=321
##MINX=44
##MAXY=9999
##MINY=100
##NPOINTS=19
##PEAK TABLE=(XY..XY)
44,100 73,500 75,3000 147,500
257,500 258,1000 259,700 260,300
272,2000 273,2300 274,700 275,300
288,2000 289,1900 290,700 291,300
319,9999 320,2400 321,1300
##END=
