##TITLE=1-Pentanone, 1-(4-methoxyphenyl)-, oxime
##JCAMP-DX=4.24
##DATA TYPE=MASS SPECTRUM
##OWNER=NIST Mass Spectrometry Data Center
Collection (C) 2014 copyright by the U.S. Secretary of Commerce
on behalf of the United States of America. All rights reserved.
##CAS REGISTRY NO=55937-94-5
##$NIST MASS SPEC NO=31839
##MOLFORM=C12 H17 N O2
##MW=207
##$NIST SOURCE=MSDC
##XUNITS=M/Z
##YUNITS=RELATIVE INTENSITY
##XFACTOR=1
##YFACTOR=1
##FIRSTX=26
##LASTX=210
##FIRSTY=85
##MAXX=210
##MINX=26
##MAXY=9999
##MINY=18
##NPOINTS=166
##PEAK TABLE=(XY..XY)
26,85 27,679 28,674 29,806
30,190 31,62 32,74 36,49
37,81 38,221 39,742 40,89
41,855 42,262 43,294 44,244
45,77 46,20 48,18 49,28
50,412 51,508 52,212 53,249
54,139 55,366 59,48 60,48
61,62 62,19 63,855 64,1014
65,519 66,126 67,118 68,52
69,63 70,53 71,51 72,109
73,72 74,163 75,262 76,543
77,2463 78,525 79,339 83,31
84,43 85,47 86,271 87,67
88,57 89,248 90,869 91,1077
92,1449 93,215 94,140 95,126
96,38 97,56 98,45 99,54
100,35 101,56 102,312 103,815
104,375 105,269 106,166 107,1204
108,233 109,744 110,28 117,254
118,452 119,860 120,181 121,1104
122,366 123,570 124,118 125,26
126,24 127,81 128,316 129,184
130,149 131,240 132,452 133,3903
134,7969 135,9999 136,981 137,118
138,31 139,58 140,25 141,72
142,48 143,86 144,91 145,190
146,316 147,749 148,416 149,7009
150,4528 151,470 152,81 153,36
154,27 155,28 156,19 157,30
158,135 159,140 160,884 161,438
162,1669 163,624 164,2825 165,4329
166,460 167,67 168,28 169,71
170,103 172,67 173,131 174,520
175,570 176,434 177,109 178,372
179,126 180,72 181,19 183,27
184,27 185,40 186,54 187,64
188,206 189,493 190,1304 191,362
192,574 193,108 194,18 196,154
197,19 198,146 199,19 200,55
201,38 202,28 203,103 204,36
205,89 206,333 207,1403 208,222
209,27 210,19
##END=
