##TITLE=Tetrabutyl titanate
##JCAMP-DX=4.24
##DATA TYPE=MASS SPECTRUM
##ORIGIN=Japan AIST/NIMC Database- Spectrum MS-NW- 415
##OWNER=NIST Mass Spectrometry Data Center
Collection (C) 2014 copyright by the U.S. Secretary of Commerce
on behalf of the United States of America. All rights reserved.
##CAS REGISTRY NO=5593-70-4
##$NIST MASS SPEC NO=228827
##MOLFORM=C16 H36 O4 Ti
##MW=340
##$NIST SOURCE=MSDC
##XUNITS=M/Z
##YUNITS=RELATIVE INTENSITY
##XFACTOR=1
##YFACTOR=1
##FIRSTX=14
##LASTX=340
##FIRSTY=50
##MAXX=340
##MINX=14
##MAXY=9999
##MINY=20
##NPOINTS=232
##PEAK TABLE=(XY..XY)
14,50 15,179 16,40 17,20
18,70 25,50 26,579 27,3469
28,2129 29,3129 30,109 31,3129
32,139 33,309 36,40 37,199
38,319 39,2679 40,569 41,9999
42,2379 43,7389 44,999 45,369
49,90 50,329 51,329 52,129
53,649 54,639 55,3869 56,9559
57,3899 58,499 59,70 60,369
61,259 63,30 64,70 65,70
66,99 67,1039 68,649 69,1789
70,649 71,919 72,659 73,439
74,109 77,139 78,80 79,339
80,259 81,1009 82,729 83,1239
84,699 85,579 86,80 87,239
91,219 92,80 93,309 94,189
95,729 96,599 97,919 98,1239
99,229 100,80 101,209 102,40
103,40 104,40 105,199 106,80
107,189 108,139 109,419 110,299
111,559 112,349 113,119 114,90
115,129 116,309 117,199 118,50
119,119 120,80 121,199 122,99
123,279 124,199 125,249 126,119
127,99 128,60 129,409 130,80
131,80 132,40 133,99 134,70
135,199 136,109 137,229 138,189
139,149 140,80 141,80 143,119
144,40 145,99 146,40 147,119
148,60 149,119 150,70 151,129
152,189 153,129 154,60 155,80
156,40 157,109 158,50 159,70
160,50 161,80 162,40 163,70
164,50 165,179 166,109 167,109
168,60 169,90 171,80 173,30
175,50 177,40 178,40 179,60
180,99 181,80 182,50 183,60
185,169 186,50 187,50 189,40
191,60 192,70 193,109 194,199
195,70 196,50 197,50 199,80
201,40 203,30 206,50 207,50
208,109 209,80 210,50 211,109
212,50 213,90 214,40 215,50
218,50 219,50 220,40 221,50
222,109 223,80 224,159 225,289
226,80 227,70 228,60 229,159
230,50 234,40 235,80 236,299
237,149 238,60 239,159 240,50
241,99 242,50 243,149 244,30
247,70 250,70 251,40 252,50
253,60 254,50 255,149 256,109
257,289 258,50 259,40 260,40
263,40 264,129 265,239 266,219
267,1469 268,369 269,169 270,50
271,60 278,60 280,40 283,40
284,60 285,70 295,249 296,279
297,2209 298,499 299,239 300,40
312,90 313,40 339,40 340,40
##END=
