##TITLE=Undecanoic acid, 2-methyl-, methyl ester
##JCAMP-DX=4.24
##DATA TYPE=MASS SPECTRUM
##OWNER=NIST Mass Spectrometry Data Center
Collection (C) 2014 copyright by the U.S. Secretary of Commerce
on behalf of the United States of America. All rights reserved.
##CAS REGISTRY NO=55955-69-6
##$NIST MASS SPEC NO=31245
##MOLFORM=C13 H26 O2
##MW=214
##$NIST SOURCE=MSDC
##XUNITS=M/Z
##YUNITS=RELATIVE INTENSITY
##XFACTOR=1
##YFACTOR=1
##FIRSTX=15
##LASTX=215
##FIRSTY=260
##MAXX=215
##MINX=15
##MAXY=9999
##MINY=41
##NPOINTS=68
##PEAK TABLE=(XY..XY)
15,260 17,192 18,520 27,603
28,520 29,931 39,466 41,1726
42,520 43,1726 44,219 45,178
53,205 54,96 55,1274 56,753
57,1548 58,110 59,740 60,110
67,164 68,123 69,1096 70,137
71,794 72,96 73,466 74,822
75,137 81,205 82,110 83,520
84,110 85,575 87,2055 88,9999
89,384 97,247 98,315 99,233
101,2876 102,356 109,110 111,205
112,137 113,123 115,562 116,55
125,82 129,192 130,41 135,164
141,384 142,68 143,630 144,96
147,82 153,55 155,123 157,1205
158,82 171,397 172,68 183,603
184,41 185,110 214,890 215,192
##END=
