##TITLE=2-Hepten-3-ol, 4,5-dimethyl-
##JCAMP-DX=4.24
##DATA TYPE=MASS SPECTRUM
##ORIGIN=A. J. HORNG
##OWNER=NIST Mass Spectrometry Data Center
Collection (C) 2014 copyright by the U.S. Secretary of Commerce
on behalf of the United States of America. All rights reserved.
##CAS REGISTRY NO=55956-37-1
##$NIST MASS SPEC NO=26938
##MOLFORM=C9 H18 O
##MW=142
##$NIST SOURCE=MSDC
##XUNITS=M/Z
##YUNITS=RELATIVE INTENSITY
##XFACTOR=1
##YFACTOR=1
##FIRSTX=13
##LASTX=142
##FIRSTY=8
##MAXX=142
##MINX=13
##MAXY=9999
##MINY=4
##NPOINTS=80
##PEAK TABLE=(XY..XY)
13,8 14,38 15,402 16,13
17,19 18,61 19,27 25,5
26,109 27,1867 28,247 29,1193
30,46 31,305 37,32 38,89
39,1189 40,160 41,2018 42,285
43,4593 44,173 45,199 46,7
49,6 50,50 51,119 52,49
53,659 54,87 55,758 56,119
57,394 58,61 59,45 62,9
63,22 64,6 65,51 66,29
67,245 68,46 69,316 70,641
71,9999 72,695 73,47 74,7
75,5 77,61 78,17 79,76
80,14 81,193 82,86 83,100
84,39 85,69 86,8 87,31
91,22 92,5 93,12 94,9
95,31 96,8 97,17 98,46
99,121 100,218 101,20 107,7
109,147 110,14 111,8 113,4
124,44 125,16 127,26 142,13
##END=
