##TITLE=Nonanoic acid, 4,6-dimethyl-, methyl ester
##JCAMP-DX=4.24
##DATA TYPE=MASS SPECTRUM
##OWNER=NIST Mass Spectrometry Data Center
Collection (C) 2014 copyright by the U.S. Secretary of Commerce
on behalf of the United States of America. All rights reserved.
##CAS REGISTRY NO=55955-66-3
##$NIST MASS SPEC NO=31258
##MOLFORM=C12 H24 O2
##MW=200
##$NIST SOURCE=MSDC
##XUNITS=M/Z
##YUNITS=RELATIVE INTENSITY
##XFACTOR=1
##YFACTOR=1
##FIRSTX=15
##LASTX=201
##FIRSTY=471
##MAXX=201
##MINX=15
##MAXY=9999
##MINY=16
##NPOINTS=85
##PEAK TABLE=(XY..XY)
15,471 27,618 28,553 29,1089
30,49 31,49 39,520 40,98
41,2536 42,537 43,4845 44,211
45,195 53,211 54,65 55,3398
56,488 57,3496 58,65 59,959
60,114 61,49 64,33 65,65
67,195 68,130 69,2211 70,455
71,4357 72,260 73,683 74,504
75,520 76,98 79,65 81,325
82,163 83,1675 84,163 85,2032
86,98 87,9999 88,5040 89,309
91,98 92,65 95,130 97,1561
98,211 99,81 101,2406 102,260
107,98 108,81 109,341 110,244
111,325 115,553 116,65 124,650
125,797 126,488 127,3252 128,423
129,748 130,49 135,98 136,81
139,16 140,16 143,98 150,195
151,553 152,65 153,195 157,293
158,81 167,81 168,81 169,553
170,98 171,130 185,65 200,293
201,49
##END=
