##TITLE=3-Methylene-2-norbornanone
##JCAMP-DX=4.24
##DATA TYPE=MASS SPECTRUM
##ORIGIN=Japan AIST/NIMC Database- Spectrum MS-NW-5633
##OWNER=NIST Mass Spectrometry Data Center
Collection (C) 2014 copyright by the U.S. Secretary of Commerce
on behalf of the United States of America. All rights reserved.
##CAS REGISTRY NO=5597-27-3
##$NIST MASS SPEC NO=235405
##MOLFORM=C8 H10 O
##MW=122
##$NIST SOURCE=MSDC
##XUNITS=M/Z
##YUNITS=RELATIVE INTENSITY
##XFACTOR=1
##YFACTOR=1
##FIRSTX=13
##LASTX=124
##FIRSTY=20
##MAXX=124
##MINX=13
##MAXY=9999
##MINY=10
##NPOINTS=92
##PEAK TABLE=(XY..XY)
13,20 14,60 15,449 16,10
18,20 25,40 26,459 27,3019
28,339 29,309 30,239 31,40
32,70 33,20 36,10 37,209
38,539 39,3639 40,1079 41,1789
42,589 43,1309 44,2379 45,619
46,189 47,10 49,50 50,469
51,959 52,739 53,4499 54,959
55,1199 56,119 57,90 58,649
59,30 60,80 61,99 62,199
63,439 64,90 65,1669 66,3649
67,2439 68,599 69,139 70,30
71,30 72,359 73,30 74,40
75,40 76,20 77,3339 78,929
79,9999 80,959 81,1119 82,179
83,40 84,10 85,10 86,20
87,1419 88,80 89,50 90,20
91,1959 92,419 93,8979 94,1489
95,459 96,80 97,30 98,10
99,10 102,10 103,179 104,549
105,149 106,30 107,1039 108,109
109,30 118,10 119,20 120,10
121,799 122,9079 123,889 124,40
##END=
