##TITLE=Bicyclo[3.2.0]heptane, trans
##JCAMP-DX=4.24
##DATA TYPE=MASS SPECTRUM
##ORIGIN=R.Herzschuh ET AL. J.Prakt.Chem.,322,450(1980)
##OWNER=NIST Mass Spectrometry Data Center
Collection (C) 2014 copyright by the U.S. Secretary of Commerce
on behalf of the United States of America. All rights reserved.
##CAS REGISTRY NO=5597-72-8
##$NIST MASS SPEC NO=280227
##MOLFORM=C7 H12
##MW=96
##$NIST SOURCE=MSDC
##XUNITS=M/Z
##YUNITS=RELATIVE INTENSITY
##XFACTOR=1
##YFACTOR=1
##FIRSTX=39
##LASTX=96
##FIRSTY=5825
##MAXX=96
##MINX=39
##MAXY=9999
##MINY=190
##NPOINTS=21
##PEAK TABLE=(XY..XY)
39,5825 40,1201 41,3423 42,701
51,380 52,190 53,2532 54,9659
55,5825 56,250 65,440 66,631
67,9999 68,6206 69,380 77,250
78,701 81,3733 82,380 95,440
96,220
##END=
