##TITLE=Parathion
##JCAMP-DX=4.24
##DATA TYPE=MASS SPECTRUM
##ORIGIN=NIST Mass Spectrometry Data Center, 1990.
##OWNER=NIST Mass Spectrometry Data Center
Collection (C) 2014 copyright by the U.S. Secretary of Commerce
on behalf of the United States of America. All rights reserved.
##CAS REGISTRY NO=56-38-2
##$NIST MASS SPEC NO=118982
##MOLFORM=C10 H14 N O5 P S
##MW=291
##$NIST SOURCE=MSDC
##XUNITS=M/Z
##YUNITS=RELATIVE INTENSITY
##XFACTOR=1
##YFACTOR=1
##FIRSTX=15
##LASTX=294
##FIRSTY=179
##MAXX=294
##MINX=15
##MAXY=9999
##MINY=9
##NPOINTS=194
##PEAK TABLE=(XY..XY)
15,179 18,68 26,355 27,1662
28,913 29,3428 30,1100 31,87
32,65 33,14 35,22 36,11
37,56 38,366 39,537 40,21
41,29 42,46 43,241 44,49
45,621 46,96 47,601 48,50
49,11 50,549 51,280 52,211
53,286 54,110 55,41 57,38
58,54 59,73 60,156 61,171
62,314 63,1857 64,1093 65,2282
66,119 67,30 68,80 69,134
70,87 71,29 72,9 73,28
74,180 75,626 76,517 77,174
78,55 79,289 80,409 81,1313
82,129 83,121 84,25 85,14
87,17 89,15 91,519 92,494
93,1094 94,179 95,190 96,1112
97,7045 98,144 99,408 100,19
102,17 103,36 104,35 105,24
106,59 107,162 108,17 109,7149
110,344 111,190 112,68 113,42
114,215 115,120 116,17 118,11
119,73 120,105 121,240 122,268
123,2184 124,458 125,3049 126,202
127,215 128,27 129,10 131,13
132,13 133,36 134,48 135,46
137,4064 138,508 139,4197 140,1360
141,170 142,1122 143,91 144,58
147,10 149,302 150,732 151,98
152,91 153,460 154,10 155,3254
156,432 157,191 158,15 159,16
164,20 165,20 166,80 167,30
168,45 169,201 170,132 171,274
172,369 173,50 174,28 177,14
181,18 182,23 183,47 184,52
185,14 186,1626 187,345 188,1103
189,169 190,125 191,17 192,14
199,12 200,47 201,109 202,108
203,29 204,27 205,93 212,13
214,307 215,47 216,124 217,392
218,839 219,132 220,66 228,16
229,19 230,35 233,132 235,1639
236,925 237,174 238,54 240,9
244,17 246,277 247,88 248,212
249,22 250,12 261,307 262,249
263,1106 264,263 265,81 266,12
273,12 274,76 275,154 276,36
277,12 288,14 291,9999 292,1281
293,583 294,62
##END=
