##TITLE=Serine
##JCAMP-DX=4.24
##DATA TYPE=MASS SPECTRUM
##ORIGIN=Japan AIST/NIMC Database- Spectrum MS-NW-2507
##OWNER=NIST Mass Spectrometry Data Center
Collection (C) 2014 copyright by the U.S. Secretary of Commerce
on behalf of the United States of America. All rights reserved.
##CAS REGISTRY NO=56-45-1
##$NIST MASS SPEC NO=228085
##MOLFORM=C3 H7 N O3
##MW=105
##$NIST SOURCE=MSDC
##XUNITS=M/Z
##YUNITS=RELATIVE INTENSITY
##XFACTOR=1
##YFACTOR=1
##FIRSTX=12
##LASTX=104
##FIRSTY=10
##MAXX=104
##MINX=12
##MAXY=9999
##MINY=10
##NPOINTS=49
##PEAK TABLE=(XY..XY)
12,10 13,30 14,99 15,1439
16,50 17,49 18,419 19,10
25,20 26,80 27,279 28,5719
29,2459 30,1879 31,1209 32,60
33,20 38,30 39,50 40,159
41,509 42,4359 43,859 44,409
45,439 46,989 47,60 53,10
54,20 55,40 56,149 57,2649
58,289 59,219 60,9999 61,259
62,20 68,10 69,109 70,90
71,50 74,6109 75,3579 76,119
77,10 82,10 87,129 88,10
104,20
##END=
