##TITLE=Coumaphos
##JCAMP-DX=4.24
##DATA TYPE=MASS SPECTRUM
##ORIGIN=NIST Mass Spectrometry Data Center, 1998.
##OWNER=NIST Mass Spectrometry Data Center
Collection (C) 2014 copyright by the U.S. Secretary of Commerce
on behalf of the United States of America. All rights reserved.
##CAS REGISTRY NO=56-72-4
##$NIST MASS SPEC NO=290757
##MOLFORM=C14 H16 Cl O5 P S
##MW=362
##$NIST SOURCE=MSDC
##XUNITS=M/Z
##YUNITS=RELATIVE INTENSITY
##XFACTOR=1
##YFACTOR=1
##FIRSTX=15
##LASTX=367
##FIRSTY=30
##MAXX=367
##MINX=15
##MAXY=9999
##MINY=10
##NPOINTS=264
##PEAK TABLE=(XY..XY)
15,30 26,110 27,860 29,2700
30,70 31,40 35,20 36,10
37,20 38,70 39,360 40,20
41,60 42,30 43,240 44,30
45,460 46,20 47,320 48,50
49,50 50,290 51,840 52,150
53,160 54,20 55,70 57,10
58,20 59,70 60,90 61,150
62,280 63,1490 64,360 65,2460
66,80 67,80 68,20 69,610
70,30 71,30 72,20 73,310
74,310 75,960 76,380 77,660
78,100 79,290 80,220 81,1320
82,30 83,40 84,40 85,120
86,130 87,260 88,80 89,2390
90,930 91,1710 92,170 93,890
94,40 95,50 96,170 97,9029
98,160 99,1040 100,120 101,920
102,780 103,240 104,40 105,110
106,30 107,90 108,60 109,9999
110,300 111,240 112,80 113,160
114,60 115,100 116,40 117,230
118,550 119,1140 120,130 121,780
122,180 123,150 124,80 125,4570
126,270 127,680 128,90 129,110
130,50 131,210 132,50 133,170
134,370 135,270 136,180 137,2050
138,190 139,300 140,50 141,70
142,40 143,30 144,10 145,120
146,100 147,970 148,120 149,170
150,150 151,70 152,90 153,1120
154,790 155,320 156,250 157,160
158,40 159,50 160,10 161,40
162,190 163,370 164,100 165,410
166,100 167,130 168,90 169,170
170,70 171,80 172,20 173,30
174,30 175,230 176,30 177,80
178,50 179,30 180,40 181,1090
182,1940 183,540 184,660 185,280
186,40 187,90 188,10 189,20
190,30 191,210 192,90 193,300
194,130 195,80 196,60 197,330
198,380 199,150 200,150 201,40
202,20 203,20 205,40 206,10
207,10 208,30 209,360 210,4990
211,670 212,1660 213,480 214,70
215,100 216,20 217,10 219,20
220,210 221,920 222,180 223,350
224,60 225,410 226,6619 227,970
228,2620 229,330 230,160 231,40
237,90 238,40 239,70 240,30
241,450 242,170 243,160 244,30
245,30 249,20 251,30 252,50
253,110 254,130 255,40 256,170
257,290 258,60 259,130 260,40
261,30 262,20 269,10 270,30
271,290 272,70 273,150 274,30
275,20 276,10 278,10 283,10
285,30 287,230 288,240 289,430
290,140 291,120 292,20 299,20
301,10 305,500 306,1120 307,330
308,430 309,60 310,20 317,40
319,150 320,20 321,50 328,10
333,120 334,1340 335,240 336,530
337,60 338,30 362,7819 363,1290
364,2970 365,470 366,180 367,20
##END=
