##TITLE=L-Glutamine
##JCAMP-DX=4.24
##DATA TYPE=MASS SPECTRUM
##ORIGIN=Japan AIST/NIMC Database- Spectrum MS-NW-2549
##OWNER=NIST Mass Spectrometry Data Center
Collection (C) 2014 copyright by the U.S. Secretary of Commerce
on behalf of the United States of America. All rights reserved.
##CAS REGISTRY NO=56-85-9
##$NIST MASS SPEC NO=228123
##MOLFORM=C5 H10 N2 O3
##MW=146
##$NIST SOURCE=MSDC
##XUNITS=M/Z
##YUNITS=RELATIVE INTENSITY
##XFACTOR=1
##YFACTOR=1
##FIRSTX=14
##LASTX=130
##FIRSTY=30
##MAXX=130
##MINX=14
##MAXY=9999
##MINY=10
##NPOINTS=59
##PEAK TABLE=(XY..XY)
14,30 15,90 16,469 17,669
18,899 19,10 25,20 26,199
27,469 28,2609 29,339 30,339
31,20 32,30 37,30 38,60
39,289 40,99 41,2649 42,309
43,259 44,419 45,259 46,60
51,20 52,80 53,40 54,289
55,349 56,1869 57,189 58,20
59,449 60,30 66,139 67,20
68,40 69,30 70,20 71,30
72,179 73,299 74,159 75,30
81,20 82,80 83,969 84,9999
85,499 86,40 87,80 88,90
100,219 101,1039 102,60 103,10
128,30 129,409 130,30
##END=
