##TITLE=Pentanoic acid, 3-hydroxy-, methyl ester
##JCAMP-DX=4.24
##DATA TYPE=MASS SPECTRUM
##ORIGIN=INST.OF CLINICAL BIOCHEM,RIKSHOSP,UNIV.OF OSLO,E.JELLUM,ET.A
##OWNER=NIST Mass Spectrometry Data Center
Collection (C) 2014 copyright by the U.S. Secretary of Commerce
on behalf of the United States of America. All rights reserved.
##CAS REGISTRY NO=56009-31-5
##$NIST MASS SPEC NO=24643
##MOLFORM=C6 H12 O3
##MW=132
##$NIST SOURCE=MSDC
##XUNITS=M/Z
##YUNITS=RELATIVE INTENSITY
##XFACTOR=1
##YFACTOR=1
##FIRSTX=27
##LASTX=114
##FIRSTY=800
##MAXX=114
##MINX=27
##MAXY=9999
##MINY=500
##NPOINTS=24
##PEAK TABLE=(XY..XY)
27,800 29,2800 31,2900 33,800
39,500 41,2000 42,1100 43,9999
44,1000 45,500 55,1200 57,3600
59,6200 61,4500 71,8600 72,800
74,7200 75,500 83,800 99,500
101,2300 103,9600 104,500 114,500
##END=
