##TITLE=Glycine, N-(3-methyl-1-oxobutyl)-, methyl ester
##JCAMP-DX=4.24
##DATA TYPE=MASS SPECTRUM
##ORIGIN=INST.OF CLINICAL BIOCHEM,RIKSHOSP,UNIV.OF OSLO,E.JELLUM,ET.A
##OWNER=NIST Mass Spectrometry Data Center
Collection (C) 2014 copyright by the U.S. Secretary of Commerce
on behalf of the United States of America. All rights reserved.
##CAS REGISTRY NO=56009-37-1
##$NIST MASS SPEC NO=24610
##MOLFORM=C8 H15 N O3
##MW=173
##$NIST SOURCE=MSDC
##XUNITS=M/Z
##YUNITS=RELATIVE INTENSITY
##XFACTOR=1
##YFACTOR=1
##FIRSTX=27
##LASTX=173
##FIRSTY=1300
##MAXX=173
##MINX=27
##MAXY=9999
##MINY=300
##NPOINTS=23
##PEAK TABLE=(XY..XY)
27,1300 29,2900 30,9999 39,1200
41,3500 42,1200 43,2100 44,3300
55,700 56,2100 57,6400 59,600
69,1000 72,600 85,4200 88,2100
89,1000 90,2400 99,1000 103,1000
114,1500 131,7100 173,300
##END=
