##TITLE=2-Pyrimidinamine, 4-chloro-6-methyl-
##JCAMP-DX=4.24
##DATA TYPE=MASS SPECTRUM
##ORIGIN=Japan AIST/NIMC Database- Spectrum MS-NW-9300
##OWNER=NIST Mass Spectrometry Data Center
Collection (C) 2014 copyright by the U.S. Secretary of Commerce
on behalf of the United States of America. All rights reserved.
##CAS REGISTRY NO=5600-21-5
##$NIST MASS SPEC NO=238713
##MOLFORM=C5 H6 Cl N3
##MW=143
##$NIST SOURCE=MSDC
##XUNITS=M/Z
##YUNITS=RELATIVE INTENSITY
##XFACTOR=1
##YFACTOR=1
##FIRSTX=14
##LASTX=146
##FIRSTY=10
##MAXX=146
##MINX=14
##MAXY=9999
##MINY=10
##NPOINTS=82
##PEAK TABLE=(XY..XY)
14,10 15,80 25,10 26,40
27,90 28,319 29,10 36,40
37,129 38,269 39,689 40,379
41,149 42,549 43,1749 44,30
46,40 47,40 48,10 49,50
50,20 51,119 52,119 53,139
54,149 55,40 58,10 60,149
61,30 62,179 63,60 64,189
65,189 66,1079 67,3609 68,189
69,10 71,119 72,30 73,40
74,169 75,99 76,70 77,50
78,10 79,40 80,20 81,109
82,10 86,60 87,20 88,40
89,20 90,10 91,20 92,279
93,10 100,20 101,60 102,50
103,40 104,10 105,10 106,10
107,90 108,7119 109,479 110,10
115,199 116,149 117,70 118,40
126,10 127,10 128,539 129,30
130,169 142,30 143,9999 144,759
145,3249 146,249
##END=
