##TITLE=Heptanoic acid, phenyl ester
##JCAMP-DX=4.24
##DATA TYPE=MASS SPECTRUM
##ORIGIN=CARL DJERASSI DEPT OF CHEM STANFORD UNIV STANFORD CALIF 94305
##OWNER=NIST Mass Spectrometry Data Center
Collection (C) 2014 copyright by the U.S. Secretary of Commerce
on behalf of the United States of America. All rights reserved.
##CAS REGISTRY NO=56052-14-3
##$NIST MASS SPEC NO=47416
##MOLFORM=C13 H18 O2
##MW=206
##$NIST SOURCE=MSDC
##XUNITS=M/Z
##YUNITS=RELATIVE INTENSITY
##XFACTOR=1
##YFACTOR=1
##FIRSTX=40
##LASTX=207
##FIRSTY=100
##MAXX=207
##MINX=40
##MAXY=9999
##MINY=100
##NPOINTS=37
##PEAK TABLE=(XY..XY)
40,100 41,1800 42,300 43,9999
44,300 51,400 55,1100 56,200
57,1300 59,100 60,100 65,800
66,300 67,600 68,400 71,200
73,300 77,700 83,100 84,200
85,2000 86,100 91,100 92,200
93,2800 94,8400 95,900 99,300
106,200 113,6200 114,500 121,100
134,100 136,100 163,700 206,1100
207,100
##END=
