##TITLE=3-Hepten-2-one, (E)-
##JCAMP-DX=4.24
##DATA TYPE=MASS SPECTRUM
##ORIGIN=FOOD RESEARCH REPORT 118, K.E. MURRAY & COLLEAGUES, DIV. OF FOOD RESEARCH, CSIRO, AUSTRALIA
##OWNER=NIST Mass Spectrometry Data Center
Collection (C) 2014 copyright by the U.S. Secretary of Commerce
on behalf of the United States of America. All rights reserved.
##CAS REGISTRY NO=5609-09-6
##$NIST MASS SPEC NO=53386
##MOLFORM=C7 H12 O
##MW=112
##$NIST SOURCE=MSDC
##XUNITS=M/Z
##YUNITS=RELATIVE INTENSITY
##XFACTOR=1
##YFACTOR=1
##FIRSTX=25
##LASTX=113
##FIRSTY=20
##MAXX=113
##MINX=25
##MAXY=9999
##MINY=20
##NPOINTS=67
##PEAK TABLE=(XY..XY)
25,20 26,300 27,2390 28,790
29,1090 30,30 31,30 32,40
37,100 38,330 39,2690 40,510
41,4400 42,670 43,8650 44,690
45,70 47,20 49,20 50,240
51,370 52,160 53,750 54,360
55,9999 56,340 57,130 58,190
59,20 61,30 62,60 63,120
64,30 65,190 66,100 67,520
68,330 69,1160 70,120 71,540
72,30 74,20 77,120 78,30
79,240 80,30 81,390 82,40
83,150 84,30 85,20 91,40
92,20 93,20 94,120 95,240
96,180 97,5450 98,340 99,30
107,20 108,30 109,20 110,60
111,30 112,1870 113,150
##END=
