##TITLE=Barbituric acid, 5-allyl-5-neopentyl-
##JCAMP-DX=4.24
##DATA TYPE=MASS SPECTRUM
##ORIGIN=R RYHAGE MS-LAB KAROLINSKA INSTITUTET STOCKHOLM SWEDEN
##OWNER=NIST Mass Spectrometry Data Center
Collection (C) 2014 copyright by the U.S. Secretary of Commerce
on behalf of the United States of America. All rights reserved.
##CAS REGISTRY NO=561-83-1
##$NIST MASS SPEC NO=42312
##MOLFORM=C12 H18 N2 O3
##MW=238
##$NIST SOURCE=MSDC
##XUNITS=M/Z
##YUNITS=RELATIVE INTENSITY
##XFACTOR=1
##YFACTOR=1
##FIRSTX=15
##LASTX=239
##FIRSTY=134
##MAXX=239
##MINX=15
##MAXY=9999
##MINY=3
##NPOINTS=162
##PEAK TABLE=(XY..XY)
15,134 16,10 18,134 26,55
27,716 28,269 29,1463 30,117
31,3 35,107 36,162 37,65
38,17 39,1040 40,210 41,4196
42,351 43,1133 44,327 45,117
46,59 47,306 48,145 49,24
50,138 51,90 52,182 53,699
54,189 55,1260 56,812 57,9999
58,537 59,31 61,31 63,41
64,21 65,193 66,258 67,523
68,107 69,330 70,186 71,485
72,34 73,14 74,31 75,17
76,21 77,179 78,114 79,179
80,310 81,227 82,107 83,1346
84,103 85,874 86,14 87,72
89,28 90,24 91,131 92,59
93,52 94,193 95,310 96,355
97,275 98,668 99,65 100,17
103,24 105,38 106,124 107,65
108,131 109,145 110,69 111,76
112,90 113,17 114,52 115,31
116,17 117,17 118,83 119,17
120,41 121,59 122,148 123,65
124,565 125,41 126,86 127,28
128,45 129,21 130,10 131,17
132,7 134,24 135,59 136,72
137,76 138,114 139,86 140,62
141,3886 142,527 143,145 144,17
150,28 151,62 152,169 153,344
154,28 155,248 156,31 157,62
158,21 161,14 162,14 163,52
164,28 165,45 166,41 167,3583
168,2203 169,351 170,96 171,55
172,21 173,21 177,24 178,34
179,96 180,90 181,1508 182,1422
183,341 184,76 193,17 194,38
195,224 196,124 197,182 198,24
204,17 205,38 207,41 208,17
209,21 210,52 211,131 212,31
221,59 222,24 223,709 224,110
238,100 239,14
##END=
