##TITLE=Dihexyverine
##JCAMP-DX=4.24
##DATA TYPE=MASS SPECTRUM
##ORIGIN=Finnigan MAT: Toxicological Library (LIBR-TX)
##OWNER=NIST Mass Spectrometry Data Center
Collection (C) 2014 copyright by the U.S. Secretary of Commerce
on behalf of the United States of America. All rights reserved.
##CAS REGISTRY NO=561-77-3
##$NIST MASS SPEC NO=121114
##MOLFORM=C20 H35 N O2
##MW=321
##$NIST SOURCE=MSDC
##XUNITS=M/Z
##YUNITS=RELATIVE INTENSITY
##XFACTOR=1
##YFACTOR=1
##FIRSTX=54
##LASTX=240
##FIRSTY=111
##MAXX=240
##MINX=54
##MAXY=9999
##MINY=20
##NPOINTS=27
##PEAK TABLE=(XY..XY)
54,111 55,605 67,152 68,97
69,183 70,94 79,149 81,254
82,200 83,320 93,58 97,2163
98,9999 110,54 111,4647 113,418
125,34 128,42 154,43 155,35
156,24 164,48 165,57 166,20
238,39 239,42 240,33
##END=
