##TITLE=Norpipanone
##JCAMP-DX=4.24
##DATA TYPE=MASS SPECTRUM
##ORIGIN=Patti Price, Georgia Bureau of Investigation, Decatur, Georgia
##OWNER=NIST Mass Spectrometry Data Center
Collection (C) 2014 copyright by the U.S. Secretary of Commerce
on behalf of the United States of America. All rights reserved.
##CAS REGISTRY NO=561-48-8
##$NIST MASS SPEC NO=248481
##MOLFORM=C23 H29 N O
##MW=335
##$NIST SOURCE=MSDC
##XUNITS=M/Z
##YUNITS=RELATIVE INTENSITY
##XFACTOR=1
##YFACTOR=1
##FIRSTX=55
##LASTX=337
##FIRSTY=190
##MAXX=337
##MINX=55
##MAXY=9999
##MINY=10
##NPOINTS=72
##PEAK TABLE=(XY..XY)
55,190 56,50 57,230 58,10
67,20 68,50 69,130 70,210
71,10 77,50 78,10 83,40
84,30 85,10 89,20 91,140
92,10 96,310 97,100 98,9999
99,670 100,10 102,20 103,40
104,10 105,70 106,10 110,60
111,820 112,500 113,40 114,10
115,210 116,40 117,50 118,10
127,10 128,20 139,30 151,20
152,80 153,10 163,20 164,40
165,290 166,50 167,50 168,10
176,30 177,20 178,250 179,130
180,30 181,10 188,10 189,30
190,20 191,50 192,10 193,50
194,20 195,20 224,90 225,10
251,60 252,10 276,20 277,10
334,10 335,70 336,10 337,10
##END=
