##TITLE=Properidine
##JCAMP-DX=4.24
##DATA TYPE=MASS SPECTRUM
##ORIGIN=Patti Price, Georgia Bureau of Investigation, Decatur, Georgia
##OWNER=NIST Mass Spectrometry Data Center
Collection (C) 2014 copyright by the U.S. Secretary of Commerce
on behalf of the United States of America. All rights reserved.
##CAS REGISTRY NO=561-76-2
##$NIST MASS SPEC NO=248513
##MOLFORM=C16 H23 N O2
##MW=261
##$NIST SOURCE=MSDC
##XUNITS=M/Z
##YUNITS=RELATIVE INTENSITY
##XFACTOR=1
##YFACTOR=1
##FIRSTX=42
##LASTX=263
##FIRSTY=3373
##MAXX=263
##MINX=42
##MAXY=9999
##MINY=10
##NPOINTS=128
##PEAK TABLE=(XY..XY)
42,3373 43,2422 50,80 51,500
52,120 53,360 54,130 55,130
56,270 57,3182 58,250 59,50
60,10 62,40 63,240 64,30
65,380 66,60 67,50 68,110
69,40 70,5655 71,9999 72,460
74,50 75,110 76,200 77,1621
78,370 79,260 81,120 82,200
83,110 84,50 85,50 86,50
87,260 88,60 89,250 90,50
91,3102 92,320 94,270 95,50
96,1711 97,230 98,30 99,80
100,10 101,60 102,430 103,3423
104,380 105,170 106,30 110,30
112,20 113,10 114,20 115,1881
116,800 117,430 118,90 119,40
120,90 121,10 123,10 127,510
128,1030 129,1080 130,350 131,1551
132,240 133,40 134,60 135,10
140,1311 141,240 142,100 143,200
144,480 146,110 147,50 149,520
150,30 151,10 154,30 155,30
156,90 157,140 158,530 159,180
160,110 161,10 162,210 163,40
164,10 168,20 169,70 170,200
171,40 172,3072 173,790 174,3443
175,490 176,40 183,70 186,10
190,850 191,160 200,30 201,10
202,420 203,40 204,300 205,30
218,8657 219,1251 220,150 221,10
232,10 246,1070 247,200 259,10
260,1611 261,4684 262,860 263,80
##END=
