##TITLE=4-Chloro-3-nitrobenzophenone
##JCAMP-DX=4.24
##DATA TYPE=MASS SPECTRUM
##ORIGIN=NIST Mass Spectrometry Data Center, 1992
##OWNER=NIST Mass Spectrometry Data Center
Collection (C) 2014 copyright by the U.S. Secretary of Commerce
on behalf of the United States of America. All rights reserved.
##CAS REGISTRY NO=56107-02-9
##$NIST MASS SPEC NO=125145
##MOLFORM=C13 H8 Cl N O3
##MW=261
##$NIST SOURCE=MSDC
##XUNITS=M/Z
##YUNITS=RELATIVE INTENSITY
##XFACTOR=1
##YFACTOR=1
##FIRSTX=14
##LASTX=265
##FIRSTY=1
##MAXX=265
##MINX=14
##MAXY=9999
##MINY=1
##NPOINTS=157
##PEAK TABLE=(XY..XY)
14,1 16,4 17,7 18,85
26,14 27,130 28,187 29,1
30,326 32,16 35,8 36,15
37,35 38,72 39,110 40,14
41,4 44,5 46,62 47,6
48,4 49,46 50,572 51,1571
52,92 53,60 55,7 60,17
61,45 62,107 63,235 64,25
65,14 66,6 67,3 69,4
70,9 71,3 72,21 73,111
74,653 75,1040 76,553 77,4863
78,339 79,14 80,10 81,4
84,139 85,39 86,91 87,62
88,26 89,31 90,31 91,15
92,6 93,28 94,11 97,23
98,94 99,66 100,29 101,35
102,41 103,53 104,6 105,9999
106,724 107,57 108,27 109,130
110,711 111,117 112,240 113,39
114,14 115,16 117,40 119,7
121,10 122,21 123,18 124,15
125,47 126,155 127,21 128,31
134,7 135,5 136,7 138,883
139,174 140,301 141,28 146,3
147,3 149,44 150,196 151,240
152,382 153,52 154,47 155,8
156,18 160,4 161,5 162,7
163,10 164,6 166,6 167,11
168,39 169,5 170,4 173,3
174,5 175,35 176,7 177,13
178,5 179,22 180,47 181,12
184,944 185,104 186,369 187,44
188,23 189,8 195,4 196,7
200,10 202,8 203,6 214,212
215,128 216,102 217,50 218,8
226,173 227,24 228,4 231,25
232,9 233,19 244,163 245,55
246,58 247,22 258,4 259,9
261,2856 262,456 263,944 264,149
265,14
##END=
