##TITLE=3,4-Dihydroxyphenylglycol, 4TMS derivative
##JCAMP-DX=4.24
##DATA TYPE=MASS SPECTRUM
##ORIGIN=NIST Mass Spectrometry Data Center
##OWNER=NIST Mass Spectrometry Data Center
Collection (C) 2014 copyright by the U.S. Secretary of Commerce
on behalf of the United States of America. All rights reserved.
##CAS REGISTRY NO=56114-62-6
##$NIST MASS SPEC NO=333502
##MOLFORM=C20 H42 O4 Si4
##MW=458
##$NIST SOURCE=MSDC
##XUNITS=M/Z
##YUNITS=RELATIVE INTENSITY
##XFACTOR=1
##YFACTOR=1
##FIRSTX=29
##LASTX=460
##FIRSTY=10
##MAXX=460
##MINX=29
##MAXY=9999
##MINY=10
##NPOINTS=151
##PEAK TABLE=(XY..XY)
29,10 43,30 44,40 45,440
46,30 47,30 55,10 57,10
58,30 59,70 60,10 61,10
70,10 71,10 73,4444 74,380
75,290 76,20 77,10 78,10
83,10 87,10 88,10 89,30
90,10 91,20 101,10 102,10
103,160 104,20 105,40 107,10
115,40 116,10 117,70 118,10
119,40 120,10 121,10 128,10
129,10 131,150 132,30 133,210
134,30 135,40 136,10 137,10
143,10 145,10 147,1401 148,230
149,140 150,20 151,10 159,10
160,10 161,30 162,40 163,30
164,10 165,20 166,10 175,20
176,10 177,80 178,20 179,160
180,20 181,10 189,10 190,10
191,100 192,110 193,120 194,20
195,20 203,10 205,40 206,10
207,120 208,20 209,30 219,10
221,20 222,10 223,30 224,10
225,10 233,10 235,30 236,10
237,50 238,10 239,10 247,10
249,50 250,10 251,150 252,30
253,20 254,10 263,20 264,20
265,210 266,50 267,160 268,40
269,20 277,10 279,40 280,50
281,460 282,120 283,50 284,10
293,10 295,10 296,10 297,10
311,10 323,10 325,30 326,10
327,10 337,10 339,80 340,30
341,20 342,10 351,10 352,10
353,70 355,9999 356,3383 357,1601
358,370 359,90 360,10 367,10
368,110 369,70 370,50 371,20
372,10 443,50 444,20 445,10
458,50 459,20 460,10
##END=
