##TITLE=3-Indoleacetic acid, 2TMS derivative
##JCAMP-DX=4.24
##DATA TYPE=MASS SPECTRUM
##ORIGIN=NIST Mass Spectrometry Data Center
##OWNER=NIST Mass Spectrometry Data Center
Collection (C) 2014 copyright by the U.S. Secretary of Commerce
on behalf of the United States of America. All rights reserved.
##CAS REGISTRY NO=56114-66-0
##$NIST MASS SPEC NO=333670
##MOLFORM=C16 H25 N O2 Si2
##MW=319
##$NIST SOURCE=MSDC
##XUNITS=M/Z
##YUNITS=RELATIVE INTENSITY
##XFACTOR=1
##YFACTOR=1
##FIRSTX=28
##LASTX=323
##FIRSTY=10
##MAXX=323
##MINX=28
##MAXY=9999
##MINY=10
##NPOINTS=160
##PEAK TABLE=(XY..XY)
28,10 29,20 31,10 39,10
42,10 43,200 44,120 45,741
46,50 47,100 50,10 51,20
52,10 53,30 54,10 55,40
56,10 57,50 58,90 59,130
60,20 61,50 62,10 63,20
65,10 66,10 67,10 69,10
70,30 71,30 72,60 73,5175
74,490 75,651 76,80 77,80
78,20 79,10 83,10 84,20
85,10 87,10 88,10 89,20
90,10 91,20 92,10 93,10
94,10 99,10 100,10 101,80
102,150 103,90 104,20 105,50
106,10 107,10 113,10 114,10
115,70 116,20 117,70 118,20
119,50 120,10 121,10 127,20
128,130 129,290 130,290 131,100
132,40 133,50 134,30 135,10
140,30 141,10 142,30 143,70
144,70 145,320 146,80 147,430
148,70 149,30 152,90 154,20
155,10 156,130 157,40 158,30
159,50 160,140 161,30 162,20
168,10 169,40 170,150 171,30
172,180 173,40 174,30 175,10
182,30 183,10 184,80 185,40
186,490 187,200 188,90 189,20
196,10 198,30 199,40 200,621
202,9999 203,2382 204,641 205,70
206,10 208,10 214,20 215,10
216,30 217,10 218,10 228,10
229,30 230,50 231,40 232,20
233,10 244,20 245,10 246,10
247,10 248,20 258,10 259,10
260,40 261,10 262,10 274,10
275,30 276,330 277,90 278,30
279,10 290,20 291,10 304,591
305,160 306,60 307,10 319,2562
320,741 321,280 322,50 323,10
##END=
