##TITLE=2-Ethyl-2,3-dihydro-1H-indene
##JCAMP-DX=4.24
##DATA TYPE=MASS SPECTRUM
##ORIGIN=V.G.Zaikin, TIPS, Russian Acad. Sci.
##OWNER=NIST Mass Spectrometry Data Center
Collection (C) 2014 copyright by the U.S. Secretary of Commerce
on behalf of the United States of America. All rights reserved.
##CAS REGISTRY NO=56147-63-8
##$NIST MASS SPEC NO=214919
##MOLFORM=C11 H14
##MW=146
##$NIST SOURCE=MSDC
##XUNITS=M/Z
##YUNITS=RELATIVE INTENSITY
##XFACTOR=1
##YFACTOR=1
##FIRSTX=51
##LASTX=148
##FIRSTY=400
##MAXX=148
##MINX=51
##MAXY=9999
##MINY=40
##NPOINTS=37
##PEAK TABLE=(XY..XY)
51,400 52,100 53,230 63,400
64,200 65,500 74,100 75,200
76,100 77,700 78,600 79,150
89,500 90,150 91,2602 92,480
102,230 103,450 104,250 105,350
115,3403 116,1601 117,9999 118,1351
119,200 127,280 128,550 129,600
130,300 131,4103 132,600 143,100
144,110 145,1901 146,6235 147,740
148,40
##END=
