##TITLE=CH3NHCH2CN
##JCAMP-DX=4.24
##DATA TYPE=MASS SPECTRUM
##ORIGIN=Japan AIST/NIMC Database- Spectrum MS-NW-2846
##OWNER=NIST Mass Spectrometry Data Center
Collection (C) 2014 copyright by the U.S. Secretary of Commerce
on behalf of the United States of America. All rights reserved.
##CAS REGISTRY NO=5616-32-0
##$NIST MASS SPEC NO=231117
##MOLFORM=C3 H6 N2
##MW=70
##$NIST SOURCE=MSDC
##XUNITS=M/Z
##YUNITS=RELATIVE INTENSITY
##XFACTOR=1
##YFACTOR=1
##FIRSTX=12
##LASTX=71
##FIRSTY=139
##MAXX=71
##MINX=12
##MAXY=9999
##MINY=10
##NPOINTS=31
##PEAK TABLE=(XY..XY)
12,139 13,139 14,329 15,2849
16,60 25,10 26,979 27,6679
28,2099 29,129 30,339 31,60
32,40 38,379 39,519 40,1619
41,2139 42,9999 43,4999 44,1279
45,30 51,10 53,99 55,80
56,10 66,10 67,60 68,40
69,1899 70,1159 71,40
##END=
