##TITLE=Butyric acid, tridecyl ester
##JCAMP-DX=4.24
##DATA TYPE=MASS SPECTRUM
##ORIGIN=V.G.Zaikin, Petrochem. Synth. Inst., Moscow
##OWNER=NIST Mass Spectrometry Data Center
Collection (C) 2014 copyright by the U.S. Secretary of Commerce
on behalf of the United States of America. All rights reserved.
##CAS REGISTRY NO=56164-20-6
##$NIST MASS SPEC NO=280437
##MOLFORM=C17 H34 O2
##MW=270
##$NIST SOURCE=MSDC
##XUNITS=M/Z
##YUNITS=RELATIVE INTENSITY
##XFACTOR=1
##YFACTOR=1
##FIRSTX=26
##LASTX=228
##FIRSTY=150
##MAXX=228
##MINX=26
##MAXY=9999
##MINY=40
##NPOINTS=74
##PEAK TABLE=(XY..XY)
26,150 27,1041 28,540 29,1421
31,70 39,771 40,190 41,3863
42,1291 43,7717 44,550 45,150
51,80 52,70 53,180 54,691
55,4044 56,2913 57,4084 58,250
60,550 61,150 65,70 66,90
67,651 68,1171 69,3373 70,3483
71,8257 72,550 73,290 79,70
81,290 82,1371 83,3623 84,2142
85,1171 86,210 87,160 88,911
89,9999 90,480 91,70 95,160
96,651 97,2783 98,1371 99,290
101,150 109,70 110,290 111,1411
112,911 113,170 115,70 116,70
124,70 125,681 126,550 127,90
129,110 139,210 140,280 141,70
144,490 145,40 152,70 153,110
154,941 155,190 182,1181 183,240
227,120 228,70
##END=
