##TITLE=2-Methyl-1,3-dithiacyclopentane
##JCAMP-DX=4.24
##DATA TYPE=MASS SPECTRUM
##ORIGIN=A.Pleshkova, Nesmeyanov Inst.Org.Elem.Cpds, Moscow
##OWNER=NIST Mass Spectrometry Data Center
Collection (C) 2014 copyright by the U.S. Secretary of Commerce
on behalf of the United States of America. All rights reserved.
##CAS REGISTRY NO=5616-51-3
##$NIST MASS SPEC NO=306394
##MOLFORM=C4 H8 S2
##MW=120
##$NIST SOURCE=MSDC
##XUNITS=M/Z
##YUNITS=RELATIVE INTENSITY
##XFACTOR=1
##YFACTOR=1
##FIRSTX=26
##LASTX=124
##FIRSTY=390
##MAXX=124
##MINX=26
##MAXY=9999
##MINY=10
##NPOINTS=36
##PEAK TABLE=(XY..XY)
26,390 27,891 28,20 41,881
42,30 44,691 45,2682 46,520
47,420 48,20 58,991 59,3894
60,3193 61,2592 62,80 63,120
64,2092 65,30 66,180 74,591
75,10 76,50 92,2793 93,110
94,250 95,10 105,7297 106,360
107,651 108,30 119,591 120,9999
121,611 122,901 123,50 124,20
##END=
