##TITLE=3-Mercapto-2-methylpropanol
##JCAMP-DX=4.24
##DATA TYPE=MASS SPECTRUM
##ORIGIN=P.Bouchilloux ET AL.JAFC., 46,3095(1998)
##OWNER=NIST Mass Spectrometry Data Center
Collection (C) 2014 copyright by the U.S. Secretary of Commerce
on behalf of the United States of America. All rights reserved.
##CAS REGISTRY NO=56160-79-3
##$NIST MASS SPEC NO=281169
##MOLFORM=C4 H10 O S
##MW=106
##$NIST SOURCE=MSDC
##XUNITS=M/Z
##YUNITS=RELATIVE INTENSITY
##XFACTOR=1
##YFACTOR=1
##FIRSTX=37
##LASTX=108
##FIRSTY=280
##MAXX=108
##MINX=37
##MAXY=9999
##MINY=30
##NPOINTS=49
##PEAK TABLE=(XY..XY)
37,280 38,631 39,4904 40,591
41,3643 42,1061 43,3143 44,470
45,4064 46,1271 47,3483 48,230
53,540 54,2002 55,6856 56,500
57,6536 58,841 59,1481 60,1271
61,781 62,190 63,230 65,30
67,170 68,30 69,330 70,240
71,1481 72,9999 73,2042 74,561
75,1411 76,310 77,120 79,90
81,90 87,520 88,380 89,3013
90,170 91,310 93,120 103,70
104,90 105,540 106,1501 107,300
108,30
##END=
