##TITLE=1H-Inden-2-ol, 2,3-dihydro-1-methoxy-, cis-
##JCAMP-DX=4.24
##DATA TYPE=MASS SPECTRUM
##ORIGIN=J.E. WILKINSON S-CUBED, SAN DIEGO, CA.
##OWNER=NIST Mass Spectrometry Data Center
Collection (C) 2014 copyright by the U.S. Secretary of Commerce
on behalf of the United States of America. All rights reserved.
##CAS REGISTRY NO=56175-44-1
##$NIST MASS SPEC NO=92411
##MOLFORM=C10 H12 O2
##MW=164
##$NIST SOURCE=MSDC
##XUNITS=M/Z
##YUNITS=RELATIVE INTENSITY
##XFACTOR=1
##YFACTOR=1
##FIRSTX=41
##LASTX=165
##FIRSTY=366
##MAXX=165
##MINX=41
##MAXY=9999
##MINY=1
##NPOINTS=52
##PEAK TABLE=(XY..XY)
41,366 43,228 45,347 50,454
51,1595 52,253 53,176 55,278
57,29 58,19 59,19 61,80
62,168 63,904 65,1505 66,77
74,235 75,443 77,3216 78,1029
79,569 81,1 86,52 87,43
89,757 91,2948 92,192 93,236
101,42 103,3255 104,9999 105,1957
106,87 113,11 115,696 116,165
117,128 119,556 121,5597 122,288
129,4 131,2425 132,1511 133,739
134,85 135,58 136,287 146,55
147,36 149,60 164,1116 165,71
##END=
