##TITLE=Pregnan-20-one, 3,11,21-tris[(trimethylsilyl)oxy]-, (3.alpha.,5.beta.,11.beta.)-
##JCAMP-DX=4.24
##DATA TYPE=MASS SPECTRUM
##ORIGIN=CHARLES C.SWEELEY,MICHIGAN STATE UNIV.EAST LANSING,MICH
##OWNER=NIST Mass Spectrometry Data Center
Collection (C) 2014 copyright by the U.S. Secretary of Commerce
on behalf of the United States of America. All rights reserved.
##CAS REGISTRY NO=56196-42-0
##$NIST MASS SPEC NO=25720
##MOLFORM=C30 H58 O4 Si3
##MW=566
##$NIST SOURCE=MSDC
##XUNITS=M/Z
##YUNITS=RELATIVE INTENSITY
##XFACTOR=1
##YFACTOR=1
##FIRSTX=101
##LASTX=569
##FIRSTY=200
##MAXX=569
##MINX=101
##MAXY=9999
##MINY=100
##NPOINTS=114
##PEAK TABLE=(XY..XY)
101,200 103,500 105,800 106,300
107,1300 108,200 109,400 117,600
118,100 119,500 120,100 121,600
123,100 126,100 127,100 128,100
129,600 130,200 131,300 135,100
136,100 140,100 141,100 142,700
143,3500 144,500 145,700 156,400
157,700 158,400 159,2200 160,200
161,300 162,1800 164,1600 166,400
168,500 169,300 170,700 171,400
172,200 173,900 174,200 175,700
181,100 182,300 183,800 184,300
185,500 186,100 187,300 188,100
195,100 196,300 197,700 198,200
199,600 200,100 201,300 203,200
213,300 218,100 227,100 228,300
237,400 238,100 240,200 241,500
242,200 244,200 245,100 253,200
254,500 255,9999 256,1300 262,100
263,300 276,100 278,300 292,100
345,1800 346,300 373,1400 374,300
386,1100 387,100 393,100 394,100
406,100 408,100 434,300 435,400
436,100 461,100 462,200 463,3500
464,1200 465,400 466,100 469,200
476,1000 477,100 478,300 523,100
527,100 541,100 551,900 552,400
553,200 554,100 566,1100 567,600
568,200 569,100
##END=
