##TITLE=Phenoperidine
##JCAMP-DX=4.24
##DATA TYPE=MASS SPECTRUM
##ORIGIN=Patti Price, Georgia Bureau of Investigation, Decatur, Georgia
##OWNER=NIST Mass Spectrometry Data Center
Collection (C) 2014 copyright by the U.S. Secretary of Commerce
on behalf of the United States of America. All rights reserved.
##CAS REGISTRY NO=562-26-5
##$NIST MASS SPEC NO=248493
##MOLFORM=C23 H29 N O3
##MW=367
##$NIST SOURCE=MSDC
##XUNITS=M/Z
##YUNITS=RELATIVE INTENSITY
##XFACTOR=1
##YFACTOR=1
##FIRSTX=42
##LASTX=369
##FIRSTY=470
##MAXX=369
##MINX=42
##MAXY=9999
##MINY=10
##NPOINTS=97
##PEAK TABLE=(XY..XY)
42,470 43,120 44,80 53,40
54,30 55,50 56,240 57,220
58,40 59,40 63,20 65,40
68,30 69,30 70,210 71,200
77,400 78,100 79,310 80,40
82,80 83,20 86,40 91,570
92,40 99,20 102,40 103,360
104,120 105,250 106,20 107,70
115,320 116,130 117,200 119,20
120,20 127,60 128,190 129,250
130,110 131,220 132,90 133,70
140,20 142,20 143,100 144,70
145,50 146,40 155,30 156,100
157,20 158,360 159,80 160,70
170,40 171,70 172,390 173,190
174,290 175,70 176,30 184,30
186,30 187,60 188,140 189,20
190,120 191,10 192,20 202,20
204,30 216,50 218,370 219,80
232,260 233,320 234,70 244,40
245,40 246,9999 247,1561 248,160
258,40 259,20 260,130 261,60
276,30 292,20 294,90 322,100
323,30 366,90 367,1171 368,270
369,40
##END=
