##TITLE=2,2,6,6-Tetrachlorocyclohexanol
##JCAMP-DX=4.24
##DATA TYPE=MASS SPECTRUM
##ORIGIN=NIST Mass Spectrometry Data Center
##OWNER=NIST Mass Spectrometry Data Center
Collection (C) 2014 copyright by the U.S. Secretary of Commerce
on behalf of the United States of America. All rights reserved.
##CAS REGISTRY NO=56207-45-5
##$NIST MASS SPEC NO=341808
##MOLFORM=C6 H8 Cl4 O
##MW=236
##$NIST SOURCE=MSDC
##XUNITS=M/Z
##YUNITS=RELATIVE INTENSITY
##XFACTOR=1
##YFACTOR=1
##FIRSTX=15
##LASTX=240
##FIRSTY=200
##MAXX=240
##MINX=15
##MAXY=9999
##MINY=10
##NPOINTS=150
##PEAK TABLE=(XY..XY)
15,200 17,60 18,60 26,941
27,3553 28,330 29,2172 30,70
32,10 35,330 36,370 37,731
38,1331 39,6186 40,841 41,3043
42,410 43,190 44,200 47,440
48,340 49,1371 50,1041 51,1822
52,230 53,871 54,140 55,821
56,100 57,280 60,250 61,1621
62,571 63,2442 65,5035 66,520
67,1131 68,180 69,440 70,80
71,50 72,180 73,911 74,260
75,3533 76,891 77,1651 78,510
79,100 80,100 81,90 82,150
83,470 84,150 85,550 86,90
87,561 88,100 89,520 91,9999
92,460 93,3413 94,240 95,230
96,651 97,210 98,440 99,520
101,3773 102,430 103,1401 104,971
105,290 106,320 107,130 109,1631
110,2382 111,1431 112,2042 113,410
114,601 115,80 116,90 117,120
119,50 120,30 122,2692 123,310
124,1792 125,581 126,300 127,270
128,120 129,681 130,130 131,340
132,50 133,110 134,70 135,571
136,3213 137,1021 138,2072 139,561
140,360 141,120 143,130 144,30
145,130 146,50 147,400 148,60
149,250 150,30 151,70 156,20
158,20 159,30 165,921 166,100
167,530 169,510 170,1141 171,530
172,1111 173,170 174,370 175,40
176,40 183,1121 184,110 185,1161
186,90 187,390 188,30 189,60
200,561 201,901 202,581 203,871
204,200 205,270 206,30 207,30
218,90 220,120 222,60 236,70
238,110 240,40
##END=
