##TITLE=cis-9-Hexadecenal
##JCAMP-DX=4.24
##DATA TYPE=MASS SPECTRUM
##ORIGIN=Japan AIST/NIMC Database- Spectrum MS-IW-3652
##OWNER=NIST Mass Spectrometry Data Center
Collection (C) 2014 copyright by the U.S. Secretary of Commerce
on behalf of the United States of America. All rights reserved.
##CAS REGISTRY NO=56219-04-6
##$NIST MASS SPEC NO=238084
##MOLFORM=C16 H30 O
##MW=238
##$NIST SOURCE=MSDC
##XUNITS=M/Z
##YUNITS=RELATIVE INTENSITY
##XFACTOR=1
##YFACTOR=1
##FIRSTX=15
##LASTX=240
##FIRSTY=30
##MAXX=240
##MINX=15
##MAXY=9999
##MINY=10
##NPOINTS=165
##PEAK TABLE=(XY..XY)
15,30 26,30 27,1159 28,219
29,2509 30,60 31,199 36,10
38,20 39,1199 40,219 41,7399
42,1479 43,5109 44,429 45,199
50,20 51,80 52,60 53,879
54,3319 55,9999 56,3479 57,3589
58,349 59,139 60,80 61,10
63,20 64,10 65,249 66,469
67,5909 68,3809 69,8109 70,3849
71,1689 72,239 73,169 74,10
75,10 77,269 78,149 79,1629
80,1419 81,5529 82,5279 83,5359
84,2709 85,1019 86,199 87,80
88,10 91,219 92,70 93,1429
94,1199 95,4249 96,4079 97,3549
98,3999 99,509 100,139 101,80
102,10 103,10 104,10 105,90
106,40 107,899 108,829 109,1969
110,1749 111,2169 112,1359 113,249
114,129 115,80 116,10 117,20
118,10 119,80 120,60 121,1819
122,729 123,879 124,1119 125,729
126,369 127,179 128,70 129,50
130,10 131,20 132,10 133,60
134,40 135,1029 136,449 137,489
138,779 139,329 140,209 141,109
142,80 143,20 145,20 147,30
148,30 149,419 150,169 151,259
152,349 153,189 154,139 155,60
156,70 157,30 158,10 159,20
161,20 162,10 163,189 164,90
165,139 166,199 167,119 168,80
169,50 170,30 171,10 175,10
177,99 178,60 179,80 180,50
181,80 182,70 183,30 191,60
192,109 193,50 194,219 195,139
196,60 197,20 205,10 206,40
207,50 208,20 209,60 210,30
211,10 218,10 219,10 220,989
221,179 222,139 223,30 224,10
236,119 237,30 238,419 239,70
240,10
##END=
