##TITLE=Methanone, [5-chloro-2-(methylamino)phenyl](2-chlorophenyl)-
##JCAMP-DX=4.24
##DATA TYPE=MASS SPECTRUM
##ORIGIN=A.I. Gren, Phys.-Chem. Inst., Acad. Sci. Ukraine, Odessa 270080, Ukraine
##OWNER=NIST Mass Spectrometry Data Center
Collection (C) 2014 copyright by the U.S. Secretary of Commerce
on behalf of the United States of America. All rights reserved.
##CAS REGISTRY NO=5621-86-3
##$NIST MASS SPEC NO=142255
##MOLFORM=C14 H11 Cl2 N O
##MW=279
##$NIST SOURCE=MSDC
##XUNITS=M/Z
##YUNITS=RELATIVE INTENSITY
##XFACTOR=1
##YFACTOR=1
##FIRSTX=55
##LASTX=283
##FIRSTY=580
##MAXX=283
##MINX=55
##MAXY=9999
##MINY=120
##NPOINTS=77
##PEAK TABLE=(XY..XY)
55,580 56,220 57,420 67,650
68,120 69,580 70,150 75,650
76,370 77,580 78,190 99,470
100,140 111,970 112,320 113,490
114,140 122,520 123,260 125,490
126,180 138,250 139,770 140,430
141,350 142,210 143,340 144,130
145,250 149,200 150,360 151,270
152,340 153,150 166,770 167,230
168,1100 169,350 170,490 171,170
180,270 181,310 198,520 199,290
200,150 201,310 208,470 209,580
210,130 213,1100 214,550 215,580
216,300 226,370 227,1480 228,520
229,3550 230,710 231,1160 232,190
242,1480 243,610 244,9030 245,1290
246,2260 247,430 262,1680 263,430
264,1100 265,260 266,260 278,1350
279,9999 280,2190 281,7100 282,1030
283,970
##END=
