##TITLE=Androst-16-en-3-ol, (3.beta.,5.alpha.)-, TMS derivative
##JCAMP-DX=4.24
##DATA TYPE=MASS SPECTRUM
##ORIGIN=NIST Mass Spectrometry Data Center, 1998.
##OWNER=NIST Mass Spectrometry Data Center
Collection (C) 2014 copyright by the U.S. Secretary of Commerce
on behalf of the United States of America. All rights reserved.
##CAS REGISTRY NO=56210-81-2
##$NIST MASS SPEC NO=291994
##MOLFORM=C22 H38 O Si
##MW=346
##$NIST SOURCE=MSDC
##XUNITS=M/Z
##YUNITS=RELATIVE INTENSITY
##XFACTOR=1
##YFACTOR=1
##FIRSTX=15
##LASTX=349
##FIRSTY=10
##MAXX=349
##MINX=15
##MAXY=9999
##MINY=10
##NPOINTS=246
##PEAK TABLE=(XY..XY)
15,10 27,80 29,240 30,10
31,10 39,220 40,40 41,1350
42,70 43,390 44,100 45,690
46,40 47,400 48,20 49,20
50,10 51,70 52,50 53,640
54,120 55,2010 56,100 57,150
58,80 59,620 60,130 61,700
62,50 63,40 64,20 65,470
66,150 67,2240 68,220 69,520
70,60 71,70 72,130 73,4900
74,590 75,9999 76,730 77,2430
78,460 79,4500 80,680 81,3030
82,240 83,340 84,30 85,100
86,20 87,50 88,30 89,260
90,20 91,4820 92,860 93,5619
94,3940 95,2270 96,200 97,180
98,20 99,100 100,20 101,380
102,70 103,350 104,220 105,3150
106,1610 107,4200 108,1110 109,1070
110,110 111,80 112,10 113,80
114,20 115,520 116,250 117,1180
118,300 119,1760 120,640 121,1510
122,230 123,430 124,50 125,30
126,10 127,150 128,220 129,1140
130,500 131,2020 132,490 133,2640
134,600 135,970 136,140 137,160
138,20 139,20 140,10 141,120
142,500 143,520 144,210 145,1770
146,940 147,2960 148,3510 149,1910
150,360 151,180 152,40 153,50
154,30 155,640 156,160 157,330
158,790 159,1490 160,600 161,2070
162,740 163,250 164,40 166,90
167,50 168,40 169,150 170,50
171,370 172,160 173,720 174,310
175,460 176,120 177,30 178,10
179,20 180,10 181,130 182,130
183,230 184,60 185,560 186,170
187,550 188,200 189,230 190,40
191,40 192,10 193,20 194,10
195,60 196,490 197,160 198,60
199,980 200,360 201,970 202,300
203,50 204,10 207,10 208,10
209,140 210,30 211,30 212,20
213,290 214,190 215,270 216,280
217,1040 218,170 219,30 220,10
221,10 222,10 223,30 224,10
225,30 226,10 227,260 228,130
229,40 230,260 231,50 233,10
235,40 236,20 237,60 238,20
239,60 240,10 241,5849 242,1150
243,290 244,50 245,10 247,10
249,10 250,20 251,150 252,30
253,20 254,10 255,1040 256,1380
257,380 258,60 259,10 261,10
263,10 272,10 278,10 289,920
290,260 291,100 292,20 303,10
304,10 305,20 313,20 314,10
315,10 317,20 318,10 329,10
331,5029 332,1430 333,370 334,60
344,10 345,80 346,2660 347,780
348,190 349,30
##END=
