##TITLE=1H-Indene, 2-hexadecyl-2,3-dihydro-
##JCAMP-DX=4.24
##DATA TYPE=MASS SPECTRUM
##ORIGIN=CONTINENTAL OIL CO., PONCA CITY, OKLA, USA
##OWNER=NIST Mass Spectrometry Data Center
Collection (C) 2014 copyright by the U.S. Secretary of Commerce
on behalf of the United States of America. All rights reserved.
##CAS REGISTRY NO=56248-65-8
##$NIST MASS SPEC NO=34852
##MOLFORM=C25 H42
##MW=342
##$NIST SOURCE=MSDC
##XUNITS=M/Z
##YUNITS=RELATIVE INTENSITY
##XFACTOR=1
##YFACTOR=1
##FIRSTX=13
##LASTX=344
##FIRSTY=20
##MAXX=344
##MINX=13
##MAXY=9999
##MINY=1
##NPOINTS=134
##PEAK TABLE=(XY..XY)
13,20 14,40 15,75 16,8
26,53 27,865 28,473 29,2325
30,61 36,10 37,12 38,24
39,473 40,108 41,2919 42,509
43,4767 44,260 50,21 51,72
52,30 53,198 54,159 55,1308
56,292 57,1697 58,92 62,11
63,57 64,23 65,108 66,36
67,231 68,166 69,452 70,118
71,430 72,30 74,2 75,23
76,6 77,144 78,183 79,96
80,32 81,200 82,171 83,331
84,61 85,168 86,20 89,63
90,31 91,1446 92,181 93,32
94,16 95,94 96,94 97,200
98,35 99,19 101,17 102,86
103,282 104,4054 105,1768 106,406
107,43 108,8 109,40 110,26
111,72 112,23 113,50 114,54
115,1373 116,2535 117,7338 118,2343
119,324 120,27 123,19 124,14
125,29 126,1 127,150 128,428
129,1595 130,865 131,3056 132,503
133,65 134,10 137,9 139,16
140,10 141,62 142,54 143,254
144,110 145,486 146,103 147,45
148,6 152,9 153,11 154,10
155,19 156,6 157,26 158,10
159,28 160,10 165,5 166,5
167,5 169,6 171,14 172,24
173,16 186,21 187,35 188,14
200,17 214,17 228,17 242,17
256,14 340,99 341,82 342,9999
343,2757 344,357
##END=
