##TITLE=4-Heneicosanone, 1-cyclopentyl-
##JCAMP-DX=4.24
##DATA TYPE=MASS SPECTRUM
##OWNER=NIST Mass Spectrometry Data Center
Collection (C) 2014 copyright by the U.S. Secretary of Commerce
on behalf of the United States of America. All rights reserved.
##CAS REGISTRY NO=56247-96-2
##$NIST MASS SPEC NO=16567
##MOLFORM=C26 H50 O
##MW=378
##$NIST SOURCE=MSDC
##XUNITS=M/Z
##YUNITS=RELATIVE INTENSITY
##XFACTOR=1
##YFACTOR=1
##FIRSTX=39
##LASTX=379
##FIRSTY=1551
##MAXX=379
##MINX=39
##MAXY=9999
##MINY=10
##NPOINTS=171
##PEAK TABLE=(XY..XY)
39,1551 40,400 41,9058 42,1972
43,9999 44,370 45,80 50,50
51,100 52,70 53,671 54,981
55,7887 56,1531 57,5845 58,5365
59,2502 60,90 61,10 62,10
63,30 65,130 66,210 67,2863
68,1101 69,5205 70,1061 71,5635
72,490 73,60 74,10 77,140
78,60 79,911 80,1001 81,1631
82,1151 83,1882 84,571 85,1551
86,140 87,20 91,140 92,90
93,861 94,4134 95,3974 96,2192
97,1501 98,440 99,230 100,200
101,20 105,40 106,20 107,450
108,360 109,561 110,390 111,1041
112,260 113,220 114,110 115,20
117,10 118,10 119,60 120,90
121,6166 122,781 123,270 124,110
125,130 126,90 127,230 128,30
129,10 131,10 132,10 133,20
134,30 135,180 136,2062 137,731
138,180 139,3083 140,330 141,50
142,10 147,10 148,10 149,270
150,50 151,40 152,60 153,30
154,480 155,821 156,100 157,10
163,30 164,20 165,30 166,50
167,160 168,30 169,20 170,10
177,10 178,20 179,20 180,80
181,80 182,20 183,20 184,10
191,10 192,10 193,20 194,40
195,20 196,20 197,10 207,10
208,40 209,20 210,10 211,10
221,10 222,230 223,50 224,60
225,30 226,20 235,10 236,10
237,10 238,10 239,40 240,20
249,20 250,10 253,10 254,10
264,100 265,30 266,10 267,951
268,200 269,20 278,20 282,330
283,280 284,50 295,140 296,30
309,60 310,10 334,10 335,100
336,40 337,10 349,10 350,10
359,20 360,130 361,40 362,10
377,10 378,30 379,20
##END=
