##TITLE=1H-Indene, 2-butyl-1-hexyl-2,3-dihydro-
##JCAMP-DX=4.24
##DATA TYPE=MASS SPECTRUM
##ORIGIN=CONTINENTAL OIL CO., PONCA CITY, OKLA, USA
##OWNER=NIST Mass Spectrometry Data Center
Collection (C) 2014 copyright by the U.S. Secretary of Commerce
on behalf of the United States of America. All rights reserved.
##CAS REGISTRY NO=56247-75-7
##$NIST MASS SPEC NO=34850
##MOLFORM=C19 H30
##MW=258
##$NIST SOURCE=MSDC
##XUNITS=M/Z
##YUNITS=RELATIVE INTENSITY
##XFACTOR=1
##YFACTOR=1
##FIRSTX=15
##LASTX=260
##FIRSTY=120
##MAXX=260
##MINX=15
##MAXY=9999
##MINY=3
##NPOINTS=105
##PEAK TABLE=(XY..XY)
15,120 26,71 27,1341 28,424
29,2678 30,67 39,499 40,81
41,1929 42,164 43,1556 44,52
50,28 51,111 52,35 53,171
54,34 55,492 56,66 57,490
58,35 63,79 64,30 65,145
66,22 67,83 68,19 69,108
70,24 71,42 75,28 76,32
77,205 78,124 79,118 81,89
82,25 83,32 84,29 89,81
90,31 91,1312 92,117 93,17
95,29 96,32 97,21 101,32
102,115 103,172 104,214 105,355
106,40 113,44 114,86 115,1717
116,1383 117,9646 118,993 119,90
125,18 126,38 127,381 128,1093
129,1543 130,642 131,3016 132,342
133,34 139,38 140,19 141,226
142,109 143,237 144,72 145,182
146,26 151,11 152,45 153,42
154,20 155,35 156,14 157,32
158,82 159,54 165,22 171,38
172,177 173,9999 174,1405 175,97
180,12 186,13 187,24 188,12
201,3 202,5 213,13 215,9
256,19 257,19 258,1299 259,272
260,29
##END=
