##TITLE=9,12-Octadecadienoic acid (Z,Z)-, TMS derivative
##JCAMP-DX=4.24
##DATA TYPE=MASS SPECTRUM
##ORIGIN=O A MAMER, MCGILL UNIVERSITY, MONTRE
##OWNER=NIST Mass Spectrometry Data Center
Collection (C) 2014 copyright by the U.S. Secretary of Commerce
on behalf of the United States of America. All rights reserved.
##CAS REGISTRY NO=56259-07-5
##$NIST MASS SPEC NO=79023
##MOLFORM=C21 H40 O2 Si
##MW=352
##$NIST SOURCE=MSDC
##XUNITS=M/Z
##YUNITS=RELATIVE INTENSITY
##XFACTOR=1
##YFACTOR=1
##FIRSTX=13
##LASTX=352
##FIRSTY=31
##MAXX=352
##MINX=13
##MAXY=9999
##MINY=31
##NPOINTS=165
##PEAK TABLE=(XY..XY)
13,31 14,110 15,284 16,66
18,50 26,160 27,848 28,525
29,1794 30,60 31,50 32,44
39,768 40,166 41,4653 42,506
43,1873 44,265 45,1086 46,90
47,564 48,45 50,73 51,130
52,170 53,765 54,2653 55,5089
56,466 57,698 58,199 59,302
60,133 61,684 62,65 65,363
66,476 67,6502 68,2435 69,2118
70,234 71,285 72,385 73,9999
74,1076 75,9861 76,747 77,1193
78,408 79,2778 80,1915 81,5014
82,2485 83,1195 84,310 85,258
86,98 87,89 89,310 91,818
92,247 93,1474 94,1224 95,3160
96,2126 97,887 98,253 99,189
101,102 105,398 106,203 107,881
108,793 109,1548 110,1205 111,389
112,83 116,469 117,2301 118,285
119,370 120,214 121,1037 122,628
123,811 124,633 125,208 129,2536
130,370 131,780 132,503 133,404
134,172 135,943 136,835 137,490
138,393 139,140 143,218 145,816
146,168 147,351 149,656 150,1142
151,394 152,248 153,101 155,171
157,141 159,229 161,89 163,361
164,595 165,217 166,165 167,75
169,94 171,183 173,309 174,75
177,249 178,633 179,200 180,79
183,107 185,208 187,290 188,75
191,152 192,126 199,234 201,210
202,54 205,108 207,193 208,70
211,67 213,111 215,150 218,107
220,612 221,272 222,61 225,76
227,91 229,120 234,258 235,71
239,71 241,61 243,118 244,54
249,38 257,73 262,1288 263,283
267,59 281,123 282,45 295,86
309,31 337,2866 338,811 340,62
352,396
##END=
