##TITLE=Benzene, (2-methyl-1-butenyl)-
##JCAMP-DX=4.24
##DATA TYPE=MASS SPECTRUM
##ORIGIN=NIST Mass Spectrometry Data Center, 1990.
##OWNER=NIST Mass Spectrometry Data Center
Collection (C) 2014 copyright by the U.S. Secretary of Commerce
on behalf of the United States of America. All rights reserved.
##CAS REGISTRY NO=56253-64-6
##$NIST MASS SPEC NO=118594
##MOLFORM=C11 H14
##MW=146
##$NIST SOURCE=MSDC
##XUNITS=M/Z
##YUNITS=RELATIVE INTENSITY
##XFACTOR=1
##YFACTOR=1
##FIRSTX=13
##LASTX=147
##FIRSTY=62
##MAXX=147
##MINX=13
##MAXY=9999
##MINY=28
##NPOINTS=74
##PEAK TABLE=(XY..XY)
13,62 14,75 15,423 18,68
26,432 27,2053 28,408 29,828
37,115 38,573 39,2913 40,367
41,956 42,102 43,54 44,62
50,1166 51,2377 52,632 53,1018
54,106 55,233 57,186 58,28
61,156 62,724 63,1725 64,936
65,1693 66,202 67,545 68,574
69,60 70,41 71,38 73,62
74,436 75,400 76,431 77,1607
78,844 79,318 85,71 86,182
87,203 88,165 89,1007 90,62
91,7322 92,734 98,43 101,128
102,515 103,808 104,640 105,474
106,46 113,108 115,3958 116,2307
117,2233 118,288 127,530 128,1262
129,1782 130,108 131,9999 132,1114
133,77 141,65 143,65 145,891
146,4399 147,541
##END=
