##TITLE=3,6-Dimethylpiperazine-2,5-dione
##JCAMP-DX=4.24
##DATA TYPE=MASS SPECTRUM
##ORIGIN=NIST Mass Spectrometry Data Center
##OWNER=NIST Mass Spectrometry Data Center
Collection (C) 2014 copyright by the U.S. Secretary of Commerce
on behalf of the United States of America. All rights reserved.
##CAS REGISTRY NO=5625-46-7
##$NIST MASS SPEC NO=340580
##MOLFORM=C6 H10 N2 O2
##MW=142
##$NIST SOURCE=MSDC
##XUNITS=M/Z
##YUNITS=RELATIVE INTENSITY
##XFACTOR=1
##YFACTOR=1
##FIRSTX=14
##LASTX=143
##FIRSTY=160
##MAXX=143
##MINX=14
##MAXY=9999
##MINY=90
##NPOINTS=25
##PEAK TABLE=(XY..XY)
14,160 15,390 18,360 26,200
27,751 28,2012 29,250 39,90
40,320 41,510 42,1892 43,1251
44,9999 45,250 55,360 56,1391
57,130 70,390 71,1251 72,150
99,5985 100,390 114,310 142,1331
143,130
##END=
