##TITLE=4-Hepten-3-one, 2,6-dimethyl-
##JCAMP-DX=4.24
##DATA TYPE=MASS SPECTRUM
##ORIGIN=CARL DJERASSI DEPT OF CHEM STANFORD UNIV STANFORD CALIF 94305
##OWNER=NIST Mass Spectrometry Data Center
Collection (C) 2014 copyright by the U.S. Secretary of Commerce
on behalf of the United States of America. All rights reserved.
##CAS REGISTRY NO=56259-14-4
##$NIST MASS SPEC NO=46598
##MOLFORM=C9 H16 O
##MW=140
##$NIST SOURCE=MSDC
##XUNITS=M/Z
##YUNITS=RELATIVE INTENSITY
##XFACTOR=1
##YFACTOR=1
##FIRSTX=41
##LASTX=141
##FIRSTY=3960
##MAXX=141
##MINX=41
##MAXY=9999
##MINY=99
##NPOINTS=25
##PEAK TABLE=(XY..XY)
41,3960 42,297 43,1782 44,99
51,198 52,99 53,396 54,198
55,792 67,297 69,1089 70,99
71,495 79,198 81,99 82,99
83,99 95,99 96,99 97,9999
98,891 99,99 125,198 140,1485
141,297
##END=
