##TITLE=Uridine, 5,6-dihydro-
##JCAMP-DX=4.24
##DATA TYPE=MASS SPECTRUM
##OWNER=NIST Mass Spectrometry Data Center
Collection (C) 2014 copyright by the U.S. Secretary of Commerce
on behalf of the United States of America. All rights reserved.
##CAS REGISTRY NO=5627-05-4
##$NIST MASS SPEC NO=31716
##MOLFORM=C9 H14 N2 O6
##MW=246
##$NIST SOURCE=MSDC
##XUNITS=M/Z
##YUNITS=RELATIVE INTENSITY
##XFACTOR=1
##YFACTOR=1
##FIRSTX=25
##LASTX=229
##FIRSTY=41
##MAXX=229
##MINX=25
##MAXY=9999
##MINY=41
##NPOINTS=124
##PEAK TABLE=(XY..XY)
25,41 26,1024 27,3012 28,9999
29,2336 30,1803 31,1229 32,205
36,41 37,41 38,225 39,779
40,574 41,1106 42,2664 43,2643
44,1988 45,512 46,61 47,61
50,41 51,225 52,307 53,574
54,492 55,2295 56,1414 57,2213
58,1639 59,246 60,1844 61,287
64,41 65,41 66,82 67,143
68,943 69,697 70,1352 71,1004
72,820 73,6024 74,287 75,225
76,82 77,82 78,61 79,61
80,164 81,287 82,287 83,143
84,779 85,471 86,943 87,246
88,61 89,82 91,102 93,61
94,41 95,246 96,471 97,369
98,492 99,143 100,2172 101,164
102,61 103,41 104,717 105,61
108,61 109,41 110,164 111,389
112,266 113,2008 114,1229 115,61
123,82 125,82 126,143 127,553
128,246 129,61 130,82 132,246
133,82 138,102 139,82 140,205
141,82 142,82 143,5717 144,430
145,61 149,82 152,61 153,102
154,61 155,287 156,410 157,225
167,61 169,164 173,471 174,61
181,143 182,61 184,61 185,328
195,143 197,82 198,61 199,102
200,102 201,61 202,143 210,61
211,164 215,205 228,369 229,82
##END=
