##TITLE=Hexane, 1-[(1-methylethyl)thio]-
##JCAMP-DX=4.24
##DATA TYPE=MASS SPECTRUM
##ORIGIN=CARL DJERASSI DEPT OF CHEM STANFORD UNIV STANFORD CALIF 94305
##OWNER=NIST Mass Spectrometry Data Center
Collection (C) 2014 copyright by the U.S. Secretary of Commerce
on behalf of the United States of America. All rights reserved.
##CAS REGISTRY NO=56273-33-7
##$NIST MASS SPEC NO=46880
##MOLFORM=C9 H20 S
##MW=160
##$NIST SOURCE=MSDC
##XUNITS=M/Z
##YUNITS=RELATIVE INTENSITY
##XFACTOR=1
##YFACTOR=1
##FIRSTX=39
##LASTX=162
##FIRSTY=1199
##MAXX=162
##MINX=39
##MAXY=9999
##MINY=100
##NPOINTS=39
##PEAK TABLE=(XY..XY)
39,1199 40,1399 41,4598 42,1900
43,9999 44,300 45,400 46,100
47,2200 48,100 49,100 55,4898
56,4200 57,400 59,500 60,801
61,901 69,1199 74,300 75,2700
76,2700 77,801 83,2700 84,1900
85,100 87,400 89,2899 90,100
103,100 116,200 117,7699 118,600
119,300 131,100 145,1199 146,100
160,3399 161,300 162,200
##END=
