##TITLE=1H-Indene, 1-ethyl-2,3-dihydro-1-methyl-
##JCAMP-DX=4.24
##DATA TYPE=MASS SPECTRUM
##ORIGIN=AMERICAN OIL CO., WHITING, IND, USA
##OWNER=NIST Mass Spectrometry Data Center
Collection (C) 2014 copyright by the U.S. Secretary of Commerce
on behalf of the United States of America. All rights reserved.
##CAS REGISTRY NO=56298-75-0
##$NIST MASS SPEC NO=34632
##MOLFORM=C12 H16
##MW=160
##$NIST SOURCE=MSDC
##XUNITS=M/Z
##YUNITS=RELATIVE INTENSITY
##XFACTOR=1
##YFACTOR=1
##FIRSTX=15
##LASTX=160
##FIRSTY=700
##MAXX=160
##MINX=15
##MAXY=9999
##MINY=100
##NPOINTS=61
##PEAK TABLE=(XY..XY)
15,700 26,400 27,3600 28,1900
29,3600 30,100 31,100 38,200
39,1800 40,300 41,3600 42,1300
43,7600 44,1300 50,200 51,500
52,100 53,400 54,100 55,1100
56,1200 57,4400 58,300 62,100
63,300 64,100 65,300 67,100
69,200 70,800 71,1300 72,100
74,100 75,100 77,300 78,100
79,100 84,400 85,1500 86,100
89,200 91,1400 92,100 98,200
99,200 100,300 103,100 104,200
106,100 115,1000 116,400 117,300
127,300 128,900 129,700 130,300
131,9999 132,800 133,100 145,500
160,600
##END=
