##TITLE=Benzene, 3-heptynyl-
##JCAMP-DX=4.24
##DATA TYPE=MASS SPECTRUM
##ORIGIN=CARL DJERASSI DEPT OF CHEM STANFORD UNIV STANFORD CALIF 94305
##OWNER=NIST Mass Spectrometry Data Center
Collection (C) 2014 copyright by the U.S. Secretary of Commerce
on behalf of the United States of America. All rights reserved.
##CAS REGISTRY NO=56293-04-0
##$NIST MASS SPEC NO=47037
##MOLFORM=C13 H16
##MW=172
##$NIST SOURCE=MSDC
##XUNITS=M/Z
##YUNITS=RELATIVE INTENSITY
##XFACTOR=1
##YFACTOR=1
##FIRSTX=39
##LASTX=172
##FIRSTY=1000
##MAXX=172
##MINX=39
##MAXY=9999
##MINY=100
##NPOINTS=25
##PEAK TABLE=(XY..XY)
39,1000 40,100 41,600 50,100
51,600 52,300 53,300 55,100
63,400 65,1500 66,100 77,200
79,200 91,9999 92,700 115,400
116,100 127,500 128,600 129,2100
130,500 141,100 143,1800 144,800
172,100
##END=
