##TITLE=Tridecane, 2,5-dimethyl-
##JCAMP-DX=4.24
##DATA TYPE=MASS SPECTRUM
##ORIGIN=TECH. UNIVERSITY OF KARLSRUHE, KARLSRUHE, W. GERMANY
##OWNER=NIST Mass Spectrometry Data Center
Collection (C) 2014 copyright by the U.S. Secretary of Commerce
on behalf of the United States of America. All rights reserved.
##CAS REGISTRY NO=56292-66-1
##$NIST MASS SPEC NO=34616
##MOLFORM=C15 H32
##MW=212
##$NIST SOURCE=MSDC
##XUNITS=M/Z
##YUNITS=RELATIVE INTENSITY
##XFACTOR=1
##YFACTOR=1
##FIRSTX=12
##LASTX=214
##FIRSTY=1
##MAXX=214
##MINX=12
##MAXY=9999
##MINY=1
##NPOINTS=132
##PEAK TABLE=(XY..XY)
12,1 13,1 14,2 15,15
16,3 19,1 20,1 24,1
25,3 26,28 27,472 28,114
29,1110 30,27 31,2 32,3
36,11 37,5 38,8 39,262
40,63 41,1950 42,417 43,4420
44,148 45,6 46,1 47,1
48,2 49,2 50,17 51,16
52,9 53,96 54,78 55,1070
56,1490 57,9999 58,467 59,21
60,2 62,1 63,3 64,2
65,14 66,10 67,81 68,72
69,598 70,1100 71,2760 72,152
73,4 74,1 77,10 78,3
79,14 80,4 81,36 82,71
83,313 84,191 85,2220 86,147
87,6 88,6 91,6 92,3
93,4 94,3 95,9 96,48
97,206 98,712 99,1360 100,103
101,14 102,1 109,3 110,19
111,138 112,196 113,157 114,15
115,7 116,1 123,12 124,3
125,21 126,29 127,85 128,8
129,1 133,2 135,2 138,4
139,14 140,804 141,617 142,63
143,16 144,2 152,1 153,2
154,42 155,57 156,8 157,1
167,3 168,60 169,114 170,14
171,1 181,1 182,33 183,69
184,9 185,1 195,1 196,23
197,134 198,16 199,4 200,4
201,2 202,5 204,1 210,6
211,5 212,98 213,12 214,1
##END=
