##TITLE=Tetradecane, 2,5-dimethyl-
##JCAMP-DX=4.24
##DATA TYPE=MASS SPECTRUM
##ORIGIN=TECH. UNIVERSITY OF KARLSRUHE, KARLSRUHE, W. GERMANY
##OWNER=NIST Mass Spectrometry Data Center
Collection (C) 2014 copyright by the U.S. Secretary of Commerce
on behalf of the United States of America. All rights reserved.
##CAS REGISTRY NO=56292-69-4
##$NIST MASS SPEC NO=34617
##MOLFORM=C16 H34
##MW=226
##$NIST SOURCE=MSDC
##XUNITS=M/Z
##YUNITS=RELATIVE INTENSITY
##XFACTOR=1
##YFACTOR=1
##FIRSTX=12
##LASTX=228
##FIRSTY=1
##MAXX=228
##MINX=12
##MAXY=9999
##MINY=1
##NPOINTS=133
##PEAK TABLE=(XY..XY)
12,1 13,1 14,2 15,12
16,3 19,1 20,1 21,1
24,1 25,3 26,27 27,395
28,96 29,1030 30,25 31,1
32,2 36,4 37,4 38,7
39,220 40,55 41,1810 42,395
43,4070 44,138 45,5 46,1
47,7 48,2 49,2 50,16
51,10 52,7 53,85 54,77
55,1060 56,1450 57,9999 58,448
59,8 60,2 62,2 63,7
64,4 65,12 66,9 67,79
68,74 69,587 70,1080 71,2660
72,148 73,5 74,1 77,10
78,3 79,14 80,6 81,28
82,69 83,258 84,179 85,1850
86,123 87,4 91,5 92,2
93,3 94,2 95,9 96,46
97,208 98,716 99,1530 100,116
101,6 102,3 109,3 110,24
111,127 112,92 113,340 114,31
115,2 123,2 124,10 125,77
126,166 127,126 128,12 129,1
138,2 139,6 140,26 141,70
142,7 143,1 147,2 152,4
153,13 154,693 155,597 156,68
157,4 167,2 168,38 169,54
170,6 171,1 181,2 182,49
183,100 184,14 185,1 195,1
196,31 197,82 198,11 199,2
200,3 201,2 202,4 204,1
210,17 211,124 212,20 213,2
224,5 225,5 226,77 227,13
228,1
##END=
