##TITLE=1-Propene, 3-chloro-2-methyl-
##JCAMP-DX=4.24
##DATA TYPE=MASS SPECTRUM
##ORIGIN=Japan AIST/NIMC Database- Spectrum MS-NW- 832
##OWNER=NIST Mass Spectrometry Data Center
Collection (C) 2014 copyright by the U.S. Secretary of Commerce
on behalf of the United States of America. All rights reserved.
##CAS REGISTRY NO=563-47-3
##$NIST MASS SPEC NO=228908
##MOLFORM=C4 H7 Cl
##MW=90
##$NIST SOURCE=MSDC
##XUNITS=M/Z
##YUNITS=RELATIVE INTENSITY
##XFACTOR=1
##YFACTOR=1
##FIRSTX=13
##LASTX=93
##FIRSTY=10
##MAXX=93
##MINX=13
##MAXY=9999
##MINY=10
##NPOINTS=50
##PEAK TABLE=(XY..XY)
13,10 14,30 15,70 25,40
26,379 27,1919 28,589 29,2289
30,50 35,40 36,119 37,319
38,549 39,4529 40,559 41,1919
42,80 43,60 44,10 47,40
48,40 49,379 50,569 51,549
52,179 53,1819 54,2669 55,9999
56,489 57,50 60,20 61,60
62,459 63,80 64,149 65,20
70,10 71,10 72,10 73,60
74,30 75,1039 76,40 77,339
78,10 89,90 90,3159 91,169
92,999 93,50
##END=
