##TITLE=1-Butene, 2,3-dimethyl-
##JCAMP-DX=4.24
##DATA TYPE=MASS SPECTRUM
##ORIGIN=Japan AIST/NIMC Database- Spectrum MS-NW-9062
##OWNER=NIST Mass Spectrometry Data Center
Collection (C) 2014 copyright by the U.S. Secretary of Commerce
on behalf of the United States of America. All rights reserved.
##CAS REGISTRY NO=563-78-0
##$NIST MASS SPEC NO=230824
##MOLFORM=C6 H12
##MW=84
##$NIST SOURCE=MSDC
##XUNITS=M/Z
##YUNITS=RELATIVE INTENSITY
##XFACTOR=1
##YFACTOR=1
##FIRSTX=15
##LASTX=85
##FIRSTY=80
##MAXX=85
##MINX=15
##MAXY=9999
##MINY=10
##NPOINTS=38
##PEAK TABLE=(XY..XY)
15,80 26,60 27,849 28,80
29,359 37,60 38,159 39,1729
40,359 41,9999 42,889 43,689
44,20 49,10 50,109 51,179
52,70 53,559 54,109 55,909
56,699 57,50 61,10 62,30
63,50 65,90 66,30 67,509
68,99 69,9989 70,559 71,10
77,10 79,10 81,10 83,119
84,3469 85,239
##END=
