##TITLE=2-Butene, 2,3-dimethyl-
##JCAMP-DX=4.24
##DATA TYPE=MASS SPECTRUM
##ORIGIN=Japan AIST/NIMC Database- Spectrum MS-NW-3539
##OWNER=NIST Mass Spectrometry Data Center
Collection (C) 2014 copyright by the U.S. Secretary of Commerce
on behalf of the United States of America. All rights reserved.
##CAS REGISTRY NO=563-79-1
##$NIST MASS SPEC NO=230825
##MOLFORM=C6 H12
##MW=84
##$NIST SOURCE=MSDC
##XUNITS=M/Z
##YUNITS=RELATIVE INTENSITY
##XFACTOR=1
##YFACTOR=1
##FIRSTX=14
##LASTX=85
##FIRSTY=20
##MAXX=85
##MINX=14
##MAXY=9999
##MINY=10
##NPOINTS=39
##PEAK TABLE=(XY..XY)
14,20 15,219 24,10 26,90
27,1139 28,40 29,429 37,70
38,159 39,1799 40,419 41,9999
42,909 43,699 44,30 49,10
50,90 51,159 52,70 53,699
54,139 55,839 56,649 57,70
61,10 62,20 63,40 65,70
66,40 67,559 68,119 69,8999
70,529 71,10 79,10 81,10
83,99 84,2959 85,209
##END=
