##TITLE=2-Butanone, 3-methyl-
##JCAMP-DX=4.24
##DATA TYPE=MASS SPECTRUM
##ORIGIN=D.HENNEBERG, MAX-PLANCK INSTITUTE, MULHEIM, WEST GERMANY
##OWNER=NIST Mass Spectrometry Data Center
Collection (C) 2014 copyright by the U.S. Secretary of Commerce
on behalf of the United States of America. All rights reserved.
##CAS REGISTRY NO=563-80-4
##$NIST MASS SPEC NO=61712
##MOLFORM=C5 H10 O
##MW=86
##$NIST SOURCE=MSDC
##XUNITS=M/Z
##YUNITS=RELATIVE INTENSITY
##XFACTOR=1
##YFACTOR=1
##FIRSTX=26
##LASTX=88
##FIRSTY=44
##MAXX=88
##MINX=26
##MAXY=9999
##MINY=3
##NPOINTS=36
##PEAK TABLE=(XY..XY)
26,44 27,798 28,139 29,66
31,15 37,3 38,6 39,292
40,70 41,1527 42,306 43,9999
44,244 45,137 46,3 51,6
52,3 53,39 54,7 55,59
56,19 57,35 58,23 59,12
65,5 67,22 68,9 69,18
70,16 71,605 72,31 84,6
85,9 86,2117 87,165 88,10
##END=
