##TITLE=Ethion
##JCAMP-DX=4.24
##DATA TYPE=MASS SPECTRUM
##ORIGIN=NIST Mass Spectrometry Data Center, 1990.
##OWNER=NIST Mass Spectrometry Data Center
Collection (C) 2014 copyright by the U.S. Secretary of Commerce
on behalf of the United States of America. All rights reserved.
##CAS REGISTRY NO=563-12-2
##$NIST MASS SPEC NO=118999
##MOLFORM=C9 H22 O4 P2 S4
##MW=384
##$NIST SOURCE=MSDC
##XUNITS=M/Z
##YUNITS=RELATIVE INTENSITY
##XFACTOR=1
##YFACTOR=1
##FIRSTX=14
##LASTX=388
##FIRSTY=9
##MAXX=388
##MINX=14
##MAXY=9999
##MINY=7
##NPOINTS=160
##PEAK TABLE=(XY..XY)
14,9 15,56 17,25 18,41
19,19 25,14 26,102 27,649
28,491 29,1463 30,52 31,39
32,47 35,11 41,18 42,16
43,119 44,58 45,567 46,271
47,412 48,66 49,20 59,53
60,66 61,90 62,31 63,223
64,20 65,2033 66,23 67,19
74,13 75,62 76,28 77,51
78,131 79,239 80,185 81,139
82,15 83,11 91,39 93,1422
94,47 95,143 96,11 97,4620
98,60 99,233 105,7 107,27
108,41 109,114 110,48 111,71
112,216 113,157 114,76 115,35
119,16 121,2405 122,127 123,52
124,16 125,3188 126,150 127,195
128,16 129,1024 130,49 131,184
133,16 137,43 138,18 139,22
140,41 141,89 142,170 143,398
144,49 145,45 146,10 153,4046
154,598 155,261 156,58 157,317
158,68 159,112 160,18 161,32
169,22 171,687 172,61 173,77
174,18 175,639 176,35 177,85
183,13 185,431 186,235 187,279
188,40 189,32 191,11 193,33
199,667 200,78 201,96 202,11
203,783 204,49 205,118 207,16
209,12 213,13 214,17 215,37
216,13 217,24 218,20 221,13
225,39 227,16 231,9999 232,849
233,1365 234,96 235,90 236,14
237,20 245,22 248,9 249,15
253,25 261,219 262,20 263,19
265,36 277,9 281,14 293,115
294,18 295,24 306,11 309,8
322,47 323,14 338,329 339,120
340,69 341,29 368,17 384,1810
385,250 386,344 387,45 388,41
##END=
