##TITLE=Propanamide, 2-methyl-
##JCAMP-DX=4.24
##DATA TYPE=MASS SPECTRUM
##ORIGIN=Japan AIST/NIMC Database- Spectrum MS-NW-5080
##OWNER=NIST Mass Spectrometry Data Center
Collection (C) 2014 copyright by the U.S. Secretary of Commerce
on behalf of the United States of America. All rights reserved.
##CAS REGISTRY NO=563-83-7
##$NIST MASS SPEC NO=230186
##MOLFORM=C4 H9 N O
##MW=87
##$NIST SOURCE=MSDC
##XUNITS=M/Z
##YUNITS=RELATIVE INTENSITY
##XFACTOR=1
##YFACTOR=1
##FIRSTX=12
##LASTX=89
##FIRSTY=10
##MAXX=89
##MINX=12
##MAXY=9999
##MINY=10
##NPOINTS=55
##PEAK TABLE=(XY..XY)
12,10 13,10 14,50 15,289
16,149 17,119 18,30 25,30
26,369 27,2429 28,849 29,419
30,90 31,10 32,10 34,10
36,20 37,159 38,259 39,1269
40,349 41,3769 42,3139 43,7029
44,9999 45,729 46,1449 47,30
50,20 51,99 52,219 53,229
54,639 55,769 56,90 57,10
58,80 59,2559 60,80 61,10
63,10 64,30 66,30 67,40
68,1199 69,189 70,189 71,699
72,4359 73,169 74,10 86,439
87,2519 88,169 89,10
##END=
