##TITLE=Glycine, 3TMS derivative
##JCAMP-DX=4.24
##DATA TYPE=MASS SPECTRUM
##OWNER=NIST Mass Spectrometry Data Center
Collection (C) 2014 copyright by the U.S. Secretary of Commerce
on behalf of the United States of America. All rights reserved.
##CAS REGISTRY NO=5630-82-0
##$NIST MASS SPEC NO=28669
##MOLFORM=C11 H29 N O2 Si3
##MW=291
##$NIST SOURCE=MSDC
##XUNITS=M/Z
##YUNITS=RELATIVE INTENSITY
##XFACTOR=1
##YFACTOR=1
##FIRSTX=40
##LASTX=291
##FIRSTY=286
##MAXX=291
##MINX=40
##MAXY=9999
##MINY=122
##NPOINTS=32
##PEAK TABLE=(XY..XY)
40,286 41,388 43,122 44,122
45,755 59,612 73,5102 74,388
75,449 77,286 86,1326 87,143
100,735 101,163 102,326 117,163
130,265 131,224 133,612 147,2081
148,408 149,245 159,143 174,9999
175,1796 176,979 177,204 248,1632
276,816 277,224 278,122 291,143
##END=
