##TITLE=Ethanolamine, 3TMS derivative
##JCAMP-DX=4.24
##DATA TYPE=MASS SPECTRUM
##ORIGIN=NIST Mass Spectrometry Data Center
##OWNER=NIST Mass Spectrometry Data Center
Collection (C) 2014 copyright by the U.S. Secretary of Commerce
on behalf of the United States of America. All rights reserved.
##CAS REGISTRY NO=5630-81-9
##$NIST MASS SPEC NO=352331
##MOLFORM=C11 H31 N O Si3
##MW=277
##$NIST SOURCE=MSDC
##XUNITS=M/Z
##YUNITS=RELATIVE INTENSITY
##XFACTOR=1
##YFACTOR=1
##FIRSTX=29
##LASTX=277
##FIRSTY=20
##MAXX=277
##MINX=29
##MAXY=9999
##MINY=10
##NPOINTS=92
##PEAK TABLE=(XY..XY)
29,20 31,20 42,10 43,110
44,70 45,550 46,40 47,40
55,20 56,20 57,40 58,100
59,751 60,60 61,40 66,20
69,10 70,40 71,30 72,110
73,4144 74,360 75,220 76,10
83,10 84,20 85,40 86,1221
87,140 88,80 89,50 90,10
98,10 99,30 100,1621 101,210
102,120 103,120 104,20 105,30
113,50 114,280 115,100 116,130
117,200 118,40 119,90 120,10
121,10 128,10 129,40 130,550
131,420 132,120 133,941 134,140
135,70 136,10 142,10 143,10
144,90 145,30 146,80 147,2342
148,370 149,180 150,20 156,10
158,120 159,40 160,30 161,10
171,10 172,190 174,9999 175,2472
176,1091 177,130 178,20 186,10
187,20 188,130 189,30 190,20
204,30 205,10 246,10 262,370
263,100 264,50 265,10 277,10
##END=
