##TITLE=Piperazine, 1-nitroso-
##JCAMP-DX=4.24
##DATA TYPE=MASS SPECTRUM
##ORIGIN=W.T.RAINEY OAK RIDGE NATIONAL LABORATORY,OAK RIDGE,TN.USA
##OWNER=NIST Mass Spectrometry Data Center
Collection (C) 2014 copyright by the U.S. Secretary of Commerce
on behalf of the United States of America. All rights reserved.
##CAS REGISTRY NO=5632-47-3
##$NIST MASS SPEC NO=25548
##MOLFORM=C4 H9 N3 O
##MW=115
##$NIST SOURCE=MSDC
##XUNITS=M/Z
##YUNITS=RELATIVE INTENSITY
##XFACTOR=1
##YFACTOR=1
##FIRSTX=30
##LASTX=115
##FIRSTY=3107
##MAXX=115
##MINX=30
##MAXY=9999
##MINY=67
##NPOINTS=37
##PEAK TABLE=(XY..XY)
30,3107 31,135 32,1216 38,135
39,270 40,540 41,1553 42,4323
43,2634 44,2026 45,135 51,135
52,270 53,270 54,1351 55,2499
56,9999 57,1553 58,878 59,67
67,135 68,202 69,202 70,202
71,202 72,67 80,270 81,405
82,405 83,472 84,1148 85,6418
86,743 87,67 99,135 114,810
115,135
##END=
