##TITLE=Methyl 4,6-di-O-acetyl-2-deoxy-3-O-methyl-2-(N-methylacetamido)-.alpha.-D-glucopyranoside
##JCAMP-DX=4.24
##DATA TYPE=MASS SPECTRUM
##ORIGIN=Institute of Organic Chemistry, Novosibirsk, USSR 1988
##OWNER=NIST Mass Spectrometry Data Center
Collection (C) 2014 copyright by the U.S. Secretary of Commerce
on behalf of the United States of America. All rights reserved.
##CAS REGISTRY NO=56341-51-6
##$NIST MASS SPEC NO=102575
##MOLFORM=C15 H25 N O8
##MW=347
##$NIST SOURCE=MSDC
##XUNITS=M/Z
##YUNITS=RELATIVE INTENSITY
##XFACTOR=1
##YFACTOR=1
##FIRSTX=43
##LASTX=348
##FIRSTY=5999
##MAXX=348
##MINX=43
##MAXY=9999
##MINY=39
##NPOINTS=86
##PEAK TABLE=(XY..XY)
43,5999 44,399 45,199 58,49
59,299 60,39 69,899 70,699
71,1199 72,1999 73,2399 75,3999
80,119 81,249 82,519 83,499
84,799 86,899 87,9999 88,349
94,1299 96,839 97,839 98,6899
99,1599 100,1599 101,1899 112,2499
115,5299 122,439 124,879 126,1799
128,2999 129,7599 130,2099 138,349
139,349 140,1399 141,1599 142,3399
143,479 144,309 152,569 153,399
154,1699 155,359 156,359 157,709
158,269 168,799 169,529 170,1459
171,619 172,759 182,1099 183,179
184,199 185,269 186,269 195,219
196,239 197,79 198,169 199,99
200,149 214,969 215,209 224,259
225,39 227,199 228,179 242,799
243,109 244,59 245,439 255,439
256,489 274,759 275,199 284,359
285,49 287,109 288,109 316,149
347,79 348,59
##END=
