##TITLE=Clorethate
##JCAMP-DX=4.24
##DATA TYPE=MASS SPECTRUM
##ORIGIN=Zaikin V.G., TIPS RAS, Moscow, Russia
##OWNER=NIST Mass Spectrometry Data Center
Collection (C) 2014 copyright by the U.S. Secretary of Commerce
on behalf of the United States of America. All rights reserved.
##CAS REGISTRY NO=5634-37-7
##$NIST MASS SPEC NO=314564
##MOLFORM=C5 H4 Cl6 O3
##MW=322
##$NIST SOURCE=MSDC
##XUNITS=M/Z
##YUNITS=RELATIVE INTENSITY
##XFACTOR=1
##YFACTOR=1
##FIRSTX=25
##LASTX=207
##FIRSTY=20
##MAXX=207
##MINX=25
##MAXY=9999
##MINY=20
##NPOINTS=67
##PEAK TABLE=(XY..XY)
25,20 26,100 28,60 29,160
30,90 31,591 35,180 36,731
37,60 38,240 44,370 45,30
47,210 48,200 49,350 50,70
51,90 59,30 60,460 61,1331
62,180 63,510 76,40 77,230
78,20 79,70 82,561 83,340
84,370 85,210 86,60 87,30
94,30 95,3363 96,1331 97,2202
98,851 99,360 100,120 111,20
112,120 113,30 114,70 117,1742
119,1661 120,20 121,540 123,50
127,20 130,230 131,9999 132,420
133,9539 134,260 135,2833 136,60
137,310 147,30 149,30 157,2783
158,80 159,1752 160,50 161,300
193,20 195,20 207,20
##END=
