##TITLE=Betahistine
##JCAMP-DX=4.24
##DATA TYPE=MASS SPECTRUM
##ORIGIN=Japan AIST/NIMC Database- Spectrum MS-IW- 198
##OWNER=NIST Mass Spectrometry Data Center
Collection (C) 2014 copyright by the U.S. Secretary of Commerce
on behalf of the United States of America. All rights reserved.
##CAS REGISTRY NO=5638-76-6
##$NIST MASS SPEC NO=237914
##MOLFORM=C8 H12 N2
##MW=136
##$NIST SOURCE=MSDC
##XUNITS=M/Z
##YUNITS=RELATIVE INTENSITY
##XFACTOR=1
##YFACTOR=1
##FIRSTX=15
##LASTX=137
##FIRSTY=70
##MAXX=137
##MINX=15
##MAXY=9999
##MINY=10
##NPOINTS=53
##PEAK TABLE=(XY..XY)
15,70 26,20 27,109 28,60
29,10 30,70 39,209 40,50
41,70 42,319 43,90 44,4239
45,109 50,70 51,229 52,179
53,109 54,40 56,40 57,99
58,60 62,10 63,40 64,30
65,259 66,439 67,139 68,20
76,10 77,80 78,359 79,299
80,199 81,10 91,20 92,279
93,9999 94,1399 95,70 104,99
105,60 106,989 107,229 108,20
118,20 119,70 120,10 121,339
122,30 133,10 135,129 136,209
137,109
##END=
