##TITLE=3-Pentanone, 2,2-dimethyl-
##JCAMP-DX=4.24
##DATA TYPE=MASS SPECTRUM
##ORIGIN=A.QUAYLE, SHELL LTD., THORNTON RES. CENT., CHESTER, CHES., UK
##OWNER=NIST Mass Spectrometry Data Center
Collection (C) 2014 copyright by the U.S. Secretary of Commerce
on behalf of the United States of America. All rights reserved.
##CAS REGISTRY NO=564-04-5
##$NIST MASS SPEC NO=68032
##MOLFORM=C7 H14 O
##MW=114
##$NIST SOURCE=MSDC
##XUNITS=M/Z
##YUNITS=RELATIVE INTENSITY
##XFACTOR=1
##YFACTOR=1
##FIRSTX=26
##LASTX=115
##FIRSTY=90
##MAXX=115
##MINX=26
##MAXY=9999
##MINY=60
##NPOINTS=20
##PEAK TABLE=(XY..XY)
26,90 27,655 29,3356 30,86
39,484 40,93 41,2579 42,201
43,420 53,67 55,213 56,674
57,9999 58,452 59,60 71,206
85,535 99,79 114,1021 115,104
##END=
