##TITLE=Sclareolide
##JCAMP-DX=4.24
##DATA TYPE=MASS SPECTRUM
##OWNER=NIST Mass Spectrometry Data Center
Collection (C) 2014 copyright by the U.S. Secretary of Commerce
on behalf of the United States of America. All rights reserved.
##CAS REGISTRY NO=564-20-5
##$NIST MASS SPEC NO=12124
##MOLFORM=C16 H26 O2
##MW=250
##$NIST SOURCE=MSDC
##XUNITS=M/Z
##YUNITS=RELATIVE INTENSITY
##XFACTOR=1
##YFACTOR=1
##FIRSTX=41
##LASTX=251
##FIRSTY=8107
##MAXX=251
##MINX=41
##MAXY=9999
##MINY=100
##NPOINTS=65
##PEAK TABLE=(XY..XY)
41,8107 43,9999 44,300 52,2102
54,5005 55,300 56,801 65,300
67,4004 68,2302 69,4004 70,200
71,300 77,1201 79,1802 80,400
81,5105 82,5105 83,701 91,801
93,1001 94,200 95,5005 96,1101
97,200 99,200 105,400 107,1802
108,400 109,3603 110,300 111,901
121,1301 122,1001 123,6806 124,2302
125,4204 126,400 135,1001 136,2302
137,1201 138,100 139,500 147,200
149,801 150,1301 152,200 153,400
161,200 163,400 164,200 165,200
167,400 175,400 177,601 179,200
189,400 191,801 193,400 206,3803
207,1001 235,3603 236,500 250,1301
251,200
##END=
