##TITLE=2-Chloro-6-fluorobenzyl alcohol
##JCAMP-DX=4.24
##DATA TYPE=MASS SPECTRUM
##ORIGIN=NIST Mass Spectrometry Data Center
##OWNER=NIST Mass Spectrometry Data Center
Collection (C) 2014 copyright by the U.S. Secretary of Commerce
on behalf of the United States of America. All rights reserved.
##CAS REGISTRY NO=56456-50-9
##$NIST MASS SPEC NO=364008
##MOLFORM=C7 H6 Cl F O
##MW=160
##$NIST SOURCE=MSDC
##XUNITS=M/Z
##YUNITS=RELATIVE INTENSITY
##XFACTOR=1
##YFACTOR=1
##FIRSTX=14
##LASTX=164
##FIRSTY=10
##MAXX=164
##MINX=14
##MAXY=9999
##MINY=10
##NPOINTS=123
##PEAK TABLE=(XY..XY)
14,10 17,10 25,10 26,80
27,140 28,100 29,861 30,130
31,961 32,20 33,40 35,40
36,90 37,360 38,460 39,470
40,30 42,20 43,120 44,110
45,100 46,30 47,160 48,130
49,330 50,1732 51,1551 52,571
53,110 55,80 56,260 57,901
58,40 59,20 60,110 61,611
62,891 63,801 64,80 65,70
66,40 67,80 68,841 69,691
70,520 71,140 72,110 73,510
74,1631 75,4254 76,651 77,3053
78,270 79,350 81,681 82,120
83,220 84,230 85,320 86,270
87,230 88,60 89,80 90,40
91,180 92,260 93,911 94,1441
95,6616 96,1822 97,9999 98,681
99,70 100,10 101,10 102,50
103,130 104,120 105,520 106,110
107,2412 108,611 109,571 110,180
111,1732 112,480 113,651 114,160
115,90 116,10 117,460 118,30
119,150 120,10 121,20 123,4834
124,2732 125,8998 126,701 127,50
128,60 129,761 130,671 131,1161
132,280 133,280 134,20 139,2893
140,330 141,1001 142,220 143,2843
144,280 145,871 146,80 157,871
158,190 159,3303 160,6786 161,1471
162,2122 163,160 164,10
##END=
