##TITLE=3-Pentanol, 2-methyl-
##JCAMP-DX=4.24
##DATA TYPE=MASS SPECTRUM
##ORIGIN=CONTINENTAL OIL COMPANY, PONCA CITY, OKLAHOMA, USA
##OWNER=NIST Mass Spectrometry Data Center
Collection (C) 2014 copyright by the U.S. Secretary of Commerce
on behalf of the United States of America. All rights reserved.
##CAS REGISTRY NO=565-67-3
##$NIST MASS SPEC NO=69037
##MOLFORM=C6 H14 O
##MW=102
##$NIST SOURCE=MSDC
##XUNITS=M/Z
##YUNITS=RELATIVE INTENSITY
##XFACTOR=1
##YFACTOR=1
##FIRSTX=12
##LASTX=103
##FIRSTY=3
##MAXX=103
##MINX=12
##MAXY=9999
##MINY=1
##NPOINTS=67
##PEAK TABLE=(XY..XY)
12,3 13,29 14,165 15,775
16,54 17,24 18,53 19,6
25,19 26,330 27,2658 28,672
29,2142 30,220 31,4524 32,96
33,16 34,1 36,3 37,58
38,151 39,1374 40,239 41,2772
42,432 43,2179 44,156 45,1488
46,35 47,7 50,43 51,67
52,25 53,162 54,47 55,2114
56,241 57,944 58,1845 59,9999
60,334 61,30 62,4 63,15
64,1 65,17 66,1 67,36
68,1 69,234 70,25 71,82
72,137 73,4146 74,182 75,13
76,1 83,15 84,20 85,41
86,4 87,23 88,5 89,1
101,24 102,22 103,1
##END=
