##TITLE=3-Pentanone, 2-methyl-
##JCAMP-DX=4.24
##DATA TYPE=MASS SPECTRUM
##ORIGIN=Japan AIST/NIMC Database- Spectrum MS-NW-9734
##OWNER=NIST Mass Spectrometry Data Center
Collection (C) 2014 copyright by the U.S. Secretary of Commerce
on behalf of the United States of America. All rights reserved.
##CAS REGISTRY NO=565-69-5
##$NIST MASS SPEC NO=239347
##MOLFORM=C6 H12 O
##MW=100
##$NIST SOURCE=MSDC
##XUNITS=M/Z
##YUNITS=RELATIVE INTENSITY
##XFACTOR=1
##YFACTOR=1
##FIRSTX=14
##LASTX=102
##FIRSTY=10
##MAXX=102
##MINX=14
##MAXY=9999
##MINY=10
##NPOINTS=46
##PEAK TABLE=(XY..XY)
14,10 15,70 18,30 26,149
27,1399 28,399 29,4249 30,109
31,50 37,20 38,60 39,629
40,99 41,1869 42,419 43,7999
44,279 45,50 50,20 51,30
52,10 53,60 54,20 55,169
56,929 57,9999 58,449 59,80
63,10 65,20 67,109 68,10
69,60 70,349 71,2449 72,129
73,20 74,10 79,10 82,10
83,10 85,149 86,10 100,2769
101,359 102,20
##END=
