##TITLE=2-Pentanone, 3-methyl-
##JCAMP-DX=4.24
##DATA TYPE=MASS SPECTRUM
##ORIGIN=NIST Mass Spectrometry Data Center, 1990.
##OWNER=NIST Mass Spectrometry Data Center
Collection (C) 2014 copyright by the U.S. Secretary of Commerce
on behalf of the United States of America. All rights reserved.
##CAS REGISTRY NO=565-61-7
##$NIST MASS SPEC NO=114338
##MOLFORM=C6 H12 O
##MW=100
##$NIST SOURCE=MSDC
##XUNITS=M/Z
##YUNITS=RELATIVE INTENSITY
##XFACTOR=1
##YFACTOR=1
##FIRSTX=15
##LASTX=100
##FIRSTY=969
##MAXX=100
##MINX=15
##MAXY=9999
##MINY=188
##NPOINTS=23
##PEAK TABLE=(XY..XY)
15,969 26,417 27,2156 28,255
29,2296 38,227 39,1918 40,362
41,4456 42,1021 43,9999 44,291
50,203 51,286 53,318 55,538
56,1226 57,3806 58,200 71,188
72,1851 85,513 100,1177
##END=
