##TITLE=Butanoic acid, 2-bromo-3-methyl-
##JCAMP-DX=4.24
##DATA TYPE=MASS SPECTRUM
##ORIGIN=NIST Mass Spectrometry Data Center, 1998.
##OWNER=NIST Mass Spectrometry Data Center
Collection (C) 2014 copyright by the U.S. Secretary of Commerce
on behalf of the United States of America. All rights reserved.
##CAS REGISTRY NO=565-74-2
##$NIST MASS SPEC NO=291940
##MOLFORM=C5 H9 Br O2
##MW=180
##$NIST SOURCE=MSDC
##XUNITS=M/Z
##YUNITS=RELATIVE INTENSITY
##XFACTOR=1
##YFACTOR=1
##FIRSTX=14
##LASTX=181
##FIRSTY=10
##MAXX=181
##MINX=14
##MAXY=9999
##MINY=10
##NPOINTS=97
##PEAK TABLE=(XY..XY)
14,10 15,110 25,10 26,180
27,1550 28,260 29,1590 30,50
31,170 36,20 37,210 38,570
39,4280 40,630 41,5889 42,700
43,5279 44,280 45,2060 46,50
47,10 48,10 49,70 50,320
51,360 52,120 53,920 54,280
55,3680 56,530 57,1160 58,100
59,1680 60,260 61,20 65,10
66,30 67,80 68,670 69,510
70,20 71,180 72,20 73,260
74,10 75,10 79,130 80,120
81,170 82,380 83,960 84,110
85,780 86,280 87,50 91,30
92,50 93,130 94,100 95,110
96,40 99,30 100,100 101,2900
102,160 103,10 104,10 105,30
106,10 107,110 108,10 109,130
111,30 117,10 119,90 120,1040
121,190 122,1010 123,110 124,10
128,10 133,10 134,10 135,60
136,10 137,10 138,9999 139,270
140,9579 141,230 142,40 147,10
149,10 163,10 165,40 167,30
181,10
##END=
