##TITLE=2-Butenoic acid, 2-methyl-, (Z)-
##JCAMP-DX=4.24
##DATA TYPE=MASS SPECTRUM
##ORIGIN=Japan AIST/NIMC Database- Spectrum MS-IW-1352
##OWNER=NIST Mass Spectrometry Data Center
Collection (C) 2014 copyright by the U.S. Secretary of Commerce
on behalf of the United States of America. All rights reserved.
##CAS REGISTRY NO=565-63-9
##$NIST MASS SPEC NO=232575
##MOLFORM=C5 H8 O2
##MW=100
##$NIST SOURCE=MSDC
##XUNITS=M/Z
##YUNITS=RELATIVE INTENSITY
##XFACTOR=1
##YFACTOR=1
##FIRSTX=14
##LASTX=102
##FIRSTY=10
##MAXX=102
##MINX=14
##MAXY=9999
##MINY=10
##NPOINTS=60
##PEAK TABLE=(XY..XY)
14,10 15,70 17,30 18,119
25,40 26,399 27,2409 28,1019
29,3609 30,90 31,109 32,10
36,10 37,119 38,199 39,3099
40,229 41,1469 42,169 43,819
44,119 45,959 46,40 47,30
48,10 49,129 50,539 51,589
52,219 53,2009 54,3149 55,8979
56,929 57,559 58,149 59,10
60,209 61,10 66,10 67,90
68,10 69,169 70,20 71,179
72,259 73,209 74,70 81,309
82,3129 83,1339 84,80 85,3039
86,129 87,10 97,50 98,30
99,449 100,9999 101,699 102,60
##END=
