##TITLE=Methcathinone
##JCAMP-DX=4.24
##DATA TYPE=MASS SPECTRUM
##ORIGIN=Dr. P.K. Shah, NYC Police Laboratory, NY
##OWNER=NIST Mass Spectrometry Data Center
Collection (C) 2014 copyright by the U.S. Secretary of Commerce
on behalf of the United States of America. All rights reserved.
##CAS REGISTRY NO=5650-44-2
##$NIST MASS SPEC NO=313038
##MOLFORM=C10 H13 N O
##MW=163
##$NIST SOURCE=MSDC
##XUNITS=M/Z
##YUNITS=RELATIVE INTENSITY
##XFACTOR=1
##YFACTOR=1
##FIRSTX=38
##LASTX=148
##FIRSTY=40
##MAXX=148
##MINX=38
##MAXY=9999
##MINY=20
##NPOINTS=41
##PEAK TABLE=(XY..XY)
38,40 39,90 40,20 41,130
42,500 43,310 44,30 47,20
49,20 50,320 51,881 52,80
53,30 54,40 55,60 56,751
58,9999 59,400 62,20 63,50
65,20 74,100 75,60 76,90
77,1211 78,130 79,30 83,50
85,40 89,20 91,60 103,30
104,20 105,370 106,40 115,20
120,20 132,30 133,50 147,20
148,50
##END=
