##TITLE=Phenyl propargyl sulfide
##JCAMP-DX=4.24
##DATA TYPE=MASS SPECTRUM
##ORIGIN=NIST Mass Spectrometry Data Center
##OWNER=NIST Mass Spectrometry Data Center
Collection (C) 2014 copyright by the U.S. Secretary of Commerce
on behalf of the United States of America. All rights reserved.
##CAS REGISTRY NO=5651-88-7
##$NIST MASS SPEC NO=342795
##MOLFORM=C9 H8 S
##MW=148
##$NIST SOURCE=MSDC
##XUNITS=M/Z
##YUNITS=RELATIVE INTENSITY
##XFACTOR=1
##YFACTOR=1
##FIRSTX=12
##LASTX=151
##FIRSTY=10
##MAXX=151
##MINX=12
##MAXY=9999
##MINY=10
##NPOINTS=85
##PEAK TABLE=(XY..XY)
12,10 13,10 17,20 24,10
25,40 26,90 27,90 28,40
32,20 33,10 37,601 38,1061
39,3303 40,110 45,911 46,50
47,50 48,10 49,80 50,691
51,1121 52,140 53,20 54,10
55,10 57,230 58,210 60,20
61,100 62,210 63,420 65,2242
66,190 67,10 69,1571 70,240
71,460 72,30 73,130 74,160
75,150 76,100 77,540 78,260
79,30 80,10 81,170 82,350
83,170 84,60 85,10 86,10
87,10 88,10 89,130 90,10
91,80 92,10 93,60 94,20
95,20 96,10 97,10 102,220
103,571 104,140 105,30 106,20
108,500 109,2552 110,290 111,130
112,10 113,20 115,981 116,80
121,270 122,20 123,10 145,40
147,9999 148,2692 149,661 150,140
151,10
##END=
