##TITLE=2,3-Dimethoxybenzyl alcohol
##JCAMP-DX=4.24
##DATA TYPE=MASS SPECTRUM
##ORIGIN=Japan AIST/NIMC Database- Spectrum MS-NW-6349
##OWNER=NIST Mass Spectrometry Data Center
Collection (C) 2014 copyright by the U.S. Secretary of Commerce
on behalf of the United States of America. All rights reserved.
##CAS REGISTRY NO=5653-67-8
##$NIST MASS SPEC NO=235137
##MOLFORM=C9 H12 O3
##MW=168
##$NIST SOURCE=MSDC
##XUNITS=M/Z
##YUNITS=RELATIVE INTENSITY
##XFACTOR=1
##YFACTOR=1
##FIRSTX=14
##LASTX=171
##FIRSTY=40
##MAXX=171
##MINX=14
##MAXY=9999
##MINY=10
##NPOINTS=122
##PEAK TABLE=(XY..XY)
14,40 15,369 17,10 18,40
26,119 27,379 28,369 29,339
30,60 31,279 32,20 37,99
38,279 39,1009 40,129 41,429
42,50 43,179 44,70 45,129
46,20 47,10 49,50 50,459
51,1059 52,449 53,639 54,239
55,509 56,30 57,40 58,10
59,109 61,70 62,169 63,409
64,249 65,3169 66,429 67,489
68,80 69,80 70,10 71,10
73,10 74,119 75,129 76,289
77,1189 78,439 79,579 80,169
81,609 82,739 83,60 84,20
85,20 86,10 87,10 89,139
90,269 91,699 92,439 93,4549
94,689 95,259 96,179 97,369
98,30 102,30 103,20 104,169
105,439 106,539 107,1329 108,459
109,1049 110,1479 111,99 112,10
113,10 115,10 117,10 118,399
119,649 120,229 121,319 122,409
123,399 124,439 125,1049 126,80
127,10 131,70 132,20 133,40
134,40 135,1589 136,869 137,1559
138,459 139,1309 140,139 141,20
143,10 147,10 148,30 149,70
150,239 151,559 152,449 153,2289
154,179 155,30 157,10 165,50
166,80 167,489 168,9999 169,1229
170,119 171,10
##END=
