##TITLE=.beta.-Chlordene
##JCAMP-DX=4.24
##DATA TYPE=MASS SPECTRUM
##ORIGIN=J. SHAW, BORRISTON RESEARCH, ROCKVILLE, MD, USA
##OWNER=NIST Mass Spectrometry Data Center
Collection (C) 2014 copyright by the U.S. Secretary of Commerce
on behalf of the United States of America. All rights reserved.
##CAS REGISTRY NO=56534-03-3
##$NIST MASS SPEC NO=60162
##MOLFORM=C10 H6 Cl6
##MW=336
##$NIST SOURCE=MSDC
##XUNITS=M/Z
##YUNITS=RELATIVE INTENSITY
##XFACTOR=1
##YFACTOR=1
##FIRSTX=12
##LASTX=344
##FIRSTY=80
##MAXX=344
##MINX=12
##MAXY=9999
##MINY=10
##NPOINTS=236
##PEAK TABLE=(XY..XY)
12,80 13,70 14,440 15,2802
16,190 17,630 18,1761 19,110
24,10 25,200 26,3453 27,9999
28,510 29,320 30,20 31,50
32,20 35,2942 36,2972 37,3133
38,3933 39,8508 40,570 41,250
42,50 43,370 44,100 45,350
47,1781 48,740 49,7797 50,6236
51,8568 52,620 53,360 54,30
55,210 56,30 57,80 58,10
59,130 60,1991 61,4854 62,5125
63,3923 64,390 65,760 66,640
67,520 68,170 69,40 71,500
72,1801 73,5405 74,5105 75,5725
76,620 77,600 79,930 80,2022
81,650 82,290 83,2452 84,2492
85,6446 86,3403 87,2922 88,660
89,300 90,180 91,60 93,10
94,490 95,660 96,1791 97,4694
98,5135 99,4244 100,990 101,620
102,860 103,630 104,180 106,300
107,1691 108,1591 109,3393 110,1141
111,1711 112,230 113,370 114,610
115,2632 116,2372 117,930 118,370
119,630 120,1121 121,1451 122,1331
123,1901 124,990 125,1761 126,2682
127,270 130,220 131,490 132,1381
133,4144 134,1921 135,2132 136,970
137,410 138,180 139,10 141,90
142,50 143,460 144,260 145,990
146,640 147,900 148,440 149,350
150,90 151,40 154,20 155,130
156,290 157,490 158,590 159,1141
160,3733 161,2022 162,1291 163,500
164,20 165,20 167,720 168,400
169,3943 170,1081 171,3303 172,600
173,980 174,80 175,70 178,10
179,160 180,1061 181,520 182,1251
183,770 184,510 185,340 186,70
187,20 190,10 191,130 192,90
193,460 194,1141 195,1401 196,3673
197,1071 198,1991 199,280 200,260
201,30 202,40 203,100 204,460
205,170 206,400 207,90 208,100
209,10 214,200 215,90 216,360
217,840 218,400 219,730 220,220
221,220 222,40 227,60 228,190
229,480 230,5945 231,2702 232,5625
233,2222 234,1821 235,620 236,210
237,60 238,60 239,30 240,60
241,30 242,20 250,20 251,110
252,80 253,200 254,80 255,100
256,20 257,10 261,10 263,60
264,180 265,1731 266,760 267,2172
268,710 269,1001 270,280 271,190
272,30 301,2942 303,4684 304,570
305,2562 306,290 307,760 308,50
309,90 336,1721 338,3293 340,2732
341,280 342,930 343,80 344,170
##END=
