##TITLE=Benzonitrile, 2,3-dimethoxy-
##JCAMP-DX=4.24
##DATA TYPE=MASS SPECTRUM
##ORIGIN=MASS SPECTROMETRY CENTER, UNIV. OF UTAH ALDRICH 11568-1
##OWNER=NIST Mass Spectrometry Data Center
Collection (C) 2014 copyright by the U.S. Secretary of Commerce
on behalf of the United States of America. All rights reserved.
##CAS REGISTRY NO=5653-62-3
##$NIST MASS SPEC NO=52774
##MOLFORM=C9 H9 N O2
##MW=163
##$NIST SOURCE=MSDC
##XUNITS=M/Z
##YUNITS=RELATIVE INTENSITY
##XFACTOR=1
##YFACTOR=1
##FIRSTX=12
##LASTX=165
##FIRSTY=20
##MAXX=165
##MINX=12
##MAXY=9999
##MINY=11
##NPOINTS=72
##PEAK TABLE=(XY..XY)
12,20 14,81 15,1951 25,36
26,1152 27,355 29,652 30,174
31,376 37,638 38,1259 39,1176
42,407 49,292 50,2115 51,1796
52,486 53,752 54,417 55,40
61,487 62,1391 63,1516 64,640
65,3221 66,1307 67,54 68,24
73,57 74,279 75,1177 76,1795
77,4475 78,414 79,345 80,122
86,22 87,202 88,469 89,388
90,1242 91,64 92,6225 93,793
94,71 99,52 101,53 102,1180
103,239 104,398 105,608 106,196
107,133 117,505 118,391 119,99
120,4294 121,287 130,11 132,119
133,167 134,614 135,53 146,80
147,249 148,5878 149,597 150,15
162,263 163,9999 164,1171 165,100
##END=
