##TITLE=5-Octadecenal
##JCAMP-DX=4.24
##DATA TYPE=MASS SPECTRUM
##ORIGIN=R.T.HOLMAN,UNIVERSITY OF MINNESOTA
##OWNER=NIST Mass Spectrometry Data Center
Collection (C) 2014 copyright by the U.S. Secretary of Commerce
on behalf of the United States of America. All rights reserved.
##CAS REGISTRY NO=56554-88-2
##$NIST MASS SPEC NO=36156
##MOLFORM=C18 H34 O
##MW=266
##$NIST SOURCE=MSDC
##XUNITS=M/Z
##YUNITS=RELATIVE INTENSITY
##XFACTOR=1
##YFACTOR=1
##FIRSTX=14
##LASTX=256
##FIRSTY=50
##MAXX=256
##MINX=14
##MAXY=9999
##MINY=10
##NPOINTS=226
##PEAK TABLE=(XY..XY)
14,50 15,60 16,40 17,80
18,270 26,80 27,940 28,780
29,2700 30,580 31,200 32,130
33,40 36,50 37,60 38,60
39,690 40,280 41,5200 42,2700
43,9200 44,4100 45,1500 46,330
47,60 48,40 49,40 50,60
51,60 52,60 53,320 54,910
55,5200 56,4700 57,9999 58,3300
59,720 60,120 61,60 63,50
64,40 65,80 66,480 67,2400
68,4300 69,6500 70,4300 71,4800
72,2200 73,1600 74,220 75,100
76,40 77,100 78,80 79,160
80,260 81,1600 82,5000 83,7800
84,6100 85,3300 86,1600 87,500
88,80 89,30 91,90 92,50
93,100 94,150 95,1300 96,3700
97,5600 98,4200 99,1500 100,510
101,270 102,60 103,30 104,30
105,50 106,40 107,50 108,90
109,570 110,1600 111,2300 112,1600
113,600 114,270 115,130 116,40
117,40 118,30 119,40 120,30
121,40 122,60 123,360 124,870
125,1100 126,780 127,310 128,170
129,90 130,30 131,50 132,30
133,70 134,30 135,90 136,50
137,200 138,530 139,600 140,450
141,190 142,110 143,50 144,20
145,80 146,30 147,700 148,130
149,110 150,40 151,100 152,230
153,260 154,240 155,150 156,80
157,50 158,20 159,20 160,10
161,30 162,20 163,30 164,20
165,60 166,160 167,160 168,180
169,120 170,70 171,40 172,30
173,20 174,20 175,20 176,20
177,30 178,20 179,50 180,130
181,150 182,140 183,160 184,60
185,40 186,20 187,20 189,20
190,10 191,50 192,30 193,70
194,150 195,190 196,140 197,100
198,90 199,30 200,20 201,20
202,10 203,20 204,10 205,50
206,40 207,490 208,160 209,170
210,90 211,40 212,30 213,40
214,20 215,20 219,40 221,630
222,220 223,350 224,400 225,310
226,390 227,90 228,20 229,10
230,10 231,20 232,10 233,10
235,30 236,30 237,30 238,20
239,20 240,20 241,40 242,70
243,20 244,10 245,10 246,10
247,20 248,20 249,30 250,70
251,370 252,750 253,160 254,40
255,30 256,20
##END=
