##TITLE=13-Octadecenoic acid, methyl ester
##JCAMP-DX=4.24
##DATA TYPE=MASS SPECTRUM
##ORIGIN=R.T.HOLMAN,UNIVERSITY OF MINNESOTA
##OWNER=NIST Mass Spectrometry Data Center
Collection (C) 2014 copyright by the U.S. Secretary of Commerce
on behalf of the United States of America. All rights reserved.
##CAS REGISTRY NO=56554-47-3
##$NIST MASS SPEC NO=36216
##MOLFORM=C19 H36 O2
##MW=296
##$NIST SOURCE=MSDC
##XUNITS=M/Z
##YUNITS=RELATIVE INTENSITY
##XFACTOR=1
##YFACTOR=1
##FIRSTX=26
##LASTX=300
##FIRSTY=60
##MAXX=300
##MINX=26
##MAXY=9999
##MINY=10
##NPOINTS=240
##PEAK TABLE=(XY..XY)
26,60 27,1000 28,630 29,2000
30,60 31,110 32,80 33,30
34,10 35,20 36,40 37,20
38,30 39,800 40,180 41,6300
42,1300 43,3900 44,200 45,240
46,20 47,20 48,10 50,20
51,50 52,40 53,570 54,1700
55,9999 56,2100 57,1800 58,120
59,1500 60,70 61,30 62,10
63,20 64,20 65,140 66,130
67,2200 68,1400 69,5400 70,1400
71,700 72,70 73,360 74,5100
75,770 76,60 77,140 78,60
79,380 80,240 81,1900 82,1400
83,3600 84,2600 85,640 86,60
87,3500 88,320 89,30 90,20
91,110 92,40 93,230 94,270
95,1400 96,2400 97,3000 98,2000
99,300 100,70 101,480 102,60
103,20 104,10 105,60 106,40
107,200 108,190 109,820 110,1300
111,1400 112,450 113,200 114,280
115,480 116,90 117,20 118,20
119,140 120,60 121,250 122,130
123,850 124,700 125,720 126,150
127,190 128,340 129,380 130,110
131,30 132,10 133,140 134,120
135,240 136,100 137,500 138,570
139,460 140,90 141,370 142,110
143,490 144,60 145,20 146,20
147,120 148,100 149,210 150,80
151,330 152,420 153,290 154,60
155,110 156,30 157,50 158,40
159,20 160,10 161,90 162,50
163,130 164,80 165,230 166,340
167,210 168,40 169,140 170,30
171,110 172,30 173,10 174,10
175,80 176,30 177,60 178,40
179,150 180,630 181,210 182,50
183,90 184,20 185,90 186,30
187,20 189,60 190,20 191,40
192,30 193,120 194,150 195,70
196,20 197,30 198,10 199,100
200,50 201,20 202,10 203,40
204,10 205,20 206,20 207,110
208,110 209,50 210,20 211,20
212,10 213,70 214,40 215,10
217,20 218,10 219,10 220,240
221,200 222,900 223,190 224,20
225,20 226,10 227,30 228,30
229,10 231,10 235,150 236,140
237,30 238,10 239,20 240,10
241,20 242,10 245,10 246,100
247,40 248,10 249,20 250,10
251,10 252,10 253,60 254,20
255,40 256,10 263,40 264,2100
265,1300 266,220 267,60 268,10
269,10 270,10 278,20 279,10
292,10 294,10 295,10 296,354
297,80 298,90 299,20 300,10
##END=
