##TITLE=2-Hexadecene, 2,6,10,14-tetramethyl-
##JCAMP-DX=4.24
##DATA TYPE=MASS SPECTRUM
##ORIGIN=R.T.HOLMAN,UNIVERSITY OF MINNESOTA
##OWNER=NIST Mass Spectrometry Data Center
Collection (C) 2014 copyright by the U.S. Secretary of Commerce
on behalf of the United States of America. All rights reserved.
##CAS REGISTRY NO=56554-34-8
##$NIST MASS SPEC NO=35810
##MOLFORM=C20 H40
##MW=280
##$NIST SOURCE=MSDC
##XUNITS=M/Z
##YUNITS=RELATIVE INTENSITY
##XFACTOR=1
##YFACTOR=1
##FIRSTX=26
##LASTX=282
##FIRSTY=1400
##MAXX=282
##MINX=26
##MAXY=9999
##MINY=10
##NPOINTS=120
##PEAK TABLE=(XY..XY)
26,1400 27,1500 28,3200 29,70
31,310 37,40 38,30 39,1400
40,300 41,7200 42,1500 43,9999
44,310 50,20 51,80 52,60
53,800 54,500 55,8900 56,7100
57,8100 58,350 59,10 63,10
65,100 66,70 67,900 68,800
69,5000 70,5100 71,4500 72,240
73,10 74,40 75,20 77,90
78,20 79,150 80,40 81,790
82,530 83,260 84,1200 85,1700
86,110 87,40 91,50 92,10
93,40 94,30 95,440 96,420
97,1800 98,380 99,250 100,20
105,20 107,10 108,10 109,170
110,130 111,1300 112,420 113,210
114,10 115,10 118,10 119,10
121,10 122,10 123,100 124,170
125,1300 126,1100 127,280 128,30
129,10 137,40 138,20 139,100
140,740 141,200 142,20 151,10
152,10 153,40 154,100 155,40
156,100 165,10 166,10 167,20
168,30 169,20 179,10 180,10
181,30 182,60 183,30 184,10
193,10 194,10 195,20 196,180
197,40 210,90 211,20 212,10
222,10 223,10 224,40 225,10
238,10 239,10 240,20 252,20
270,10 280,524 281,120 282,20
##END=
