##TITLE=1,1'-Biphenyl, 2,3',4,5',6-Pentachloro-
##JCAMP-DX=4.24
##DATA TYPE=MASS SPECTRUM
##ORIGIN=Organic Synthesis Lab, MSU, Moscow.TRC 1263
##OWNER=NIST Mass Spectrometry Data Center
Collection (C) 2014 copyright by the U.S. Secretary of Commerce
on behalf of the United States of America. All rights reserved.
##CAS REGISTRY NO=56558-18-0
##$NIST MASS SPEC NO=326640
##MOLFORM=C12 H5 Cl5
##MW=324
##$NIST SOURCE=MSDC
##XUNITS=M/Z
##YUNITS=RELATIVE INTENSITY
##XFACTOR=1
##YFACTOR=1
##FIRSTX=42
##LASTX=334
##FIRSTY=14
##MAXX=334
##MINX=42
##MAXY=9999
##MINY=9
##NPOINTS=140
##PEAK TABLE=(XY..XY)
42,14 43,17 44,92 47,55
48,15 49,122 50,278 51,70
55,32 60,98 61,308 62,203
63,67 67,49 71,26 72,89
73,451 74,683 75,239 79,156
80,56 83,35 84,210 85,325
86,235 87,119 92,476 93,137
95,23 96,100 97,257 98,521
99,256 100,29 102,13 106,13
107,65 108,218 109,981 110,670
111,250 112,17 114,58 115,63
116,11 118,9 119,29 120,94
121,122 122,265 123,212 124,49
127,919 128,916 129,290 130,38
131,26 132,92 133,169 134,87
135,82 136,26 137,25 143,28
144,275 145,404 146,338 147,246
148,221 149,230 150,39 151,18
155,23 156,26 157,49 158,69
159,64 160,35 162,187 163,238
164,166 165,44 168,19 169,65
170,40 171,63 172,30 173,18
180,17 181,47 182,114 183,253
184,1016 185,222 186,299 187,49
193,20 194,84 196,40 204,78
205,20 206,70 207,21 208,34
209,15 217,38 218,433 219,413
220,313 221,246 222,72 223,36
228,50 230,33 232,14 252,28
254,3215 255,449 256,3045 257,409
258,989 259,131 260,111 288,88
289,179 290,156 291,234 292,89
293,99 294,31 324,6328 325,866
326,9999 328,6680 329,2129 330,1990
331,290 332,355 333,50 334,30
##END=
