##TITLE=5-Decen-1-ol, (E)-
##JCAMP-DX=4.24
##DATA TYPE=MASS SPECTRUM
##ORIGIN=NIST Mass Spectrometry Data Center, 1998.
##OWNER=NIST Mass Spectrometry Data Center
Collection (C) 2014 copyright by the U.S. Secretary of Commerce
on behalf of the United States of America. All rights reserved.
##CAS REGISTRY NO=56578-18-8
##$NIST MASS SPEC NO=291621
##MOLFORM=C10 H20 O
##MW=156
##$NIST SOURCE=MSDC
##XUNITS=M/Z
##YUNITS=RELATIVE INTENSITY
##XFACTOR=1
##YFACTOR=1
##FIRSTX=15
##LASTX=156
##FIRSTY=40
##MAXX=156
##MINX=15
##MAXY=9999
##MINY=10
##NPOINTS=82
##PEAK TABLE=(XY..XY)
15,40 26,80 27,1600 28,310
29,1610 30,70 31,2190 32,20
37,20 38,70 39,2810 40,470
41,7339 42,1310 43,2470 44,670
45,290 46,10 50,100 51,340
52,230 53,2000 54,8129 55,9929
56,1700 57,3040 58,260 59,50
62,20 63,80 64,20 65,670
66,710 67,9999 68,6829 69,2390
70,830 71,1040 72,130 73,50
74,10 75,10 76,10 77,590
78,110 79,1490 80,510 81,7969
82,5289 83,1120 84,280 85,170
86,50 87,10 89,10 91,240
92,30 93,420 94,140 95,4820
96,2210 97,470 98,60 99,120
100,30 105,10 107,30 108,30
109,1320 110,1910 111,170 112,80
113,60 114,10 123,90 124,10
127,10 128,50 137,10 138,870
139,90 156,60
##END=
