##TITLE=11,13-Eicosadienoic acid, methyl ester
##JCAMP-DX=4.24
##DATA TYPE=MASS SPECTRUM
##ORIGIN=R.T.HOLMAN,UNIVERSITY OF MINNESOTA
##OWNER=NIST Mass Spectrometry Data Center
Collection (C) 2014 copyright by the U.S. Secretary of Commerce
on behalf of the United States of America. All rights reserved.
##CAS REGISTRY NO=56599-57-6
##$NIST MASS SPEC NO=36320
##MOLFORM=C21 H38 O2
##MW=322
##$NIST SOURCE=MSDC
##XUNITS=M/Z
##YUNITS=RELATIVE INTENSITY
##XFACTOR=1
##YFACTOR=1
##FIRSTX=26
##LASTX=325
##FIRSTY=40
##MAXX=325
##MINX=26
##MAXY=9999
##MINY=10
##NPOINTS=231
##PEAK TABLE=(XY..XY)
26,40 27,850 28,1080 29,2090
30,60 31,110 32,240 33,20
38,30 39,870 40,190 41,6370
42,670 43,3540 44,160 45,270
50,30 51,70 52,80 53,1080
54,4030 55,7090 56,700 57,910
58,60 59,1530 60,80 61,40
63,30 65,480 66,660 67,9999
68,4670 69,4030 70,340 71,330
72,50 73,290 74,1450 75,160
77,960 78,330 79,3220 80,2410
81,8140 82,5640 83,2410 84,410
85,350 86,40 87,870 88,80
89,20 91,790 92,200 93,1410
94,1410 95,5960 96,4510 97,1690
98,320 99,160 100,40 101,240
102,20 103,30 104,40 105,240
106,140 107,700 108,700 109,3060
110,2330 111,700 112,120 113,120
114,80 115,340 116,60 117,80
118,40 119,210 120,140 121,800
122,620 123,1610 124,1610 125,430
126,80 127,130 128,90 129,270
130,50 131,160 132,50 133,200
134,120 135,750 136,800 137,880
138,880 139,270 140,120 141,170
142,50 143,220 144,30 145,130
146,80 147,200 148,90 149,50
150,1040 151,580 152,500 153,180
154,170 155,100 156,30 157,130
158,30 159,100 160,50 161,120
162,40 163,370 164,670 165,400
166,320 167,190 168,120 169,50
170,20 171,90 172,20 173,120
174,40 175,60 176,30 177,240
178,490 179,250 180,180 181,120
182,90 183,40 184,160 185,50
186,20 187,110 188,40 189,40
190,20 191,140 192,310 193,160
194,100 195,130 196,110 197,40
199,40 201,50 202,30 203,30
205,120 206,220 207,120 208,70
209,120 210,140 211,40 213,10
215,40 216,10 217,20 218,20
219,100 220,120 221,70 222,40
223,90 224,120 225,20 227,20
229,20 230,10 233,60 234,70
235,40 236,20 237,90 238,80
239,20 240,10 241,10 246,30
247,40 248,210 249,50 250,10
251,80 252,60 253,20 255,40
261,50 262,150 263,60 264,10
265,50 266,40 267,10 272,10
273,30 274,10 275,10 279,40
280,20 281,10 290,650 291,980
292,220 293,60 294,90 295,20
296,10 320,30 321,30 322,2014
323,410 324,60 325,20
##END=
