##TITLE=Cholestan-3-one, (5.alpha.)-
##JCAMP-DX=4.24
##DATA TYPE=MASS SPECTRUM
##ORIGIN=Japan AIST/NIMC Database- Spectrum MS-NW-6957
##OWNER=NIST Mass Spectrometry Data Center
Collection (C) 2014 copyright by the U.S. Secretary of Commerce
on behalf of the United States of America. All rights reserved.
##CAS REGISTRY NO=566-88-1
##$NIST MASS SPEC NO=235880
##MOLFORM=C27 H46 O
##MW=386
##$NIST SOURCE=MSDC
##XUNITS=M/Z
##YUNITS=RELATIVE INTENSITY
##XFACTOR=1
##YFACTOR=1
##FIRSTX=15
##LASTX=389
##FIRSTY=10
##MAXX=389
##MINX=15
##MAXY=9999
##MINY=10
##NPOINTS=270
##PEAK TABLE=(XY..XY)
15,10 18,10 26,10 27,329
28,70 29,769 30,10 38,10
39,249 40,70 41,2269 42,279
43,2989 44,109 51,20 52,20
53,479 54,149 55,2829 56,389
57,1559 58,80 59,10 63,10
65,169 66,99 67,1809 68,1019
69,1579 70,259 71,669 72,40
73,10 74,20 75,10 77,489
78,119 79,1609 80,379 81,2619
82,619 83,909 84,109 85,149
86,10 87,10 88,30 89,10
90,10 91,979 92,219 93,1719
94,529 95,2459 96,369 97,629
98,70 99,60 100,10 101,10
102,20 103,50 104,70 105,929
106,339 107,1539 108,739 109,1569
110,449 111,459 112,60 113,40
114,10 115,60 116,50 117,189
118,219 119,859 120,419 121,1579
122,859 123,1769 124,1489 125,279
126,70 127,30 128,50 129,80
130,40 131,349 132,159 133,609
134,249 135,829 136,449 137,689
138,119 139,50 140,60 141,30
142,20 143,109 144,50 145,359
146,149 147,539 148,209 149,649
150,139 151,209 152,109 153,30
154,10 155,20 156,20 157,139
158,60 159,459 160,229 161,699
162,339 163,1689 164,439 165,359
166,50 167,20 168,10 169,20
170,10 171,129 172,60 173,359
174,249 175,549 176,409 177,289
178,139 179,239 180,40 181,20
182,10 183,20 184,10 185,90
186,50 187,189 188,109 189,459
190,299 191,179 192,80 193,70
194,20 195,10 196,10 197,30
198,20 199,119 200,40 201,129
202,70 203,439 204,579 205,209
206,50 207,50 208,129 209,30
210,10 211,20 212,10 213,419
214,129 215,639 216,149 217,2089
218,499 219,149 220,30 221,20
226,10 227,80 228,99 229,129
230,259 231,9999 232,6539 233,1619
234,219 235,40 236,10 242,20
243,50 244,40 245,179 246,1229
247,449 248,90 249,30 250,40
251,10 253,30 254,10 255,179
256,50 257,149 258,60 259,109
260,159 261,259 262,159 263,329
264,70 265,10 267,10 269,20
270,10 271,60 272,109 273,299
274,70 275,189 276,60 277,20
278,10 283,70 284,20 285,30
286,10 287,40 288,10 289,20
290,10 297,10 298,10 299,20
300,30 301,159 302,40 303,10
313,30 314,60 315,60 316,99
317,40 318,10 328,20 329,90
330,30 331,30 332,10 351,20
352,10 353,119 354,40 366,30
367,30 368,50 369,30 370,70
371,1279 372,409 373,70 383,10
384,40 385,80 386,5709 387,1759
388,299 389,30
##END=
