##TITLE=Allopregnane-3.alpha.,20.alpha.-diol
##JCAMP-DX=4.24
##DATA TYPE=MASS SPECTRUM
##ORIGIN=NIST Mass Spectrometry Data Center
##OWNER=NIST Mass Spectrometry Data Center
Collection (C) 2014 copyright by the U.S. Secretary of Commerce
on behalf of the United States of America. All rights reserved.
##CAS REGISTRY NO=566-58-5
##$NIST MASS SPEC NO=333324
##MOLFORM=C21 H36 O2
##MW=320
##$NIST SOURCE=MSDC
##XUNITS=M/Z
##YUNITS=RELATIVE INTENSITY
##XFACTOR=1
##YFACTOR=1
##FIRSTX=15
##LASTX=320
##FIRSTY=20
##MAXX=320
##MINX=15
##MAXY=9999
##MINY=10
##NPOINTS=260
##PEAK TABLE=(XY..XY)
15,20 16,10 19,80 26,10
27,330 28,50 29,1021 30,50
31,200 35,10 36,10 37,10
38,20 39,561 40,130 41,3503
42,270 43,3073 44,260 45,5175
46,110 47,10 49,10 51,110
52,80 53,1411 54,400 55,4944
56,330 57,1471 58,160 59,90
60,10 61,20 62,10 63,40
64,10 65,821 66,400 67,5975
68,1722 69,2152 70,440 71,1001
72,80 73,80 74,20 75,120
77,2622 78,641 79,7457 80,1551
81,6846 82,1031 83,1361 84,380
85,390 86,60 87,40 88,10
89,30 91,6226 92,1351 93,7737
94,3343 95,7036 96,861 97,751
98,110 99,100 100,40 101,30
102,40 103,320 104,360 105,5755
106,2732 107,6686 108,3223 109,3233
110,571 111,571 112,90 113,70
114,20 115,440 116,210 117,1331
118,881 119,3964 120,3103 121,4154
122,2432 123,1471 124,611 125,280
126,90 127,130 128,330 129,460
130,210 131,1802 132,771 133,3453
134,1702 135,2963 136,811 137,420
138,160 139,100 140,20 141,120
142,120 143,410 144,240 145,2702
146,821 147,3813 148,1571 149,2532
150,520 151,200 152,80 153,60
154,20 155,80 156,50 157,460
158,230 159,2783 160,1451 161,3603
162,4814 163,1511 164,260 165,1121
166,370 167,100 168,10 169,50
170,30 171,390 172,230 173,1862
174,1802 175,2082 176,961 177,390
178,130 179,120 180,50 181,30
182,10 183,50 184,20 185,350
186,150 187,1201 188,941 189,811
190,360 191,230 192,200 193,80
194,20 195,10 196,10 197,30
198,20 199,540 200,260 201,3253
202,811 203,601 204,140 205,100
206,250 207,70 208,20 211,30
212,40 213,701 214,380 215,4914
216,9999 217,2342 218,420 219,400
220,100 221,10 222,10 225,20
226,30 227,440 228,390 229,1201
230,1211 231,420 232,360 233,2572
234,6606 235,1131 236,100 237,20
239,20 240,10 241,290 242,220
243,761 244,200 245,160 246,671
247,240 248,250 249,40 250,10
251,20 252,10 253,30 255,581
256,210 257,681 258,210 259,170
260,120 261,370 262,80 263,40
264,10 267,40 269,1942 270,400
271,90 272,20 273,190 274,190
275,40 276,10 282,20 283,60
284,1621 285,450 286,80 287,1501
288,330 289,40 295,10 296,10
298,10 300,100 301,30 302,2222
303,520 304,70 305,30 306,10
316,10 318,10 319,10 320,10
##END=
