##TITLE=Cholesta-4,6-dien-3-one
##JCAMP-DX=4.24
##DATA TYPE=MASS SPECTRUM
##ORIGIN=H. Fales, LC, NHLBI, NIH, Bethesda, MD 20892
##OWNER=NIST Mass Spectrometry Data Center
Collection (C) 2014 copyright by the U.S. Secretary of Commerce
on behalf of the United States of America. All rights reserved.
##CAS REGISTRY NO=566-93-8
##$NIST MASS SPEC NO=124396
##MOLFORM=C27 H42 O
##MW=382
##$NIST SOURCE=MSDC
##XUNITS=M/Z
##YUNITS=RELATIVE INTENSITY
##XFACTOR=1
##YFACTOR=1
##FIRSTX=41
##LASTX=384
##FIRSTY=3555
##MAXX=384
##MINX=41
##MAXY=9999
##MINY=30
##NPOINTS=203
##PEAK TABLE=(XY..XY)
41,3555 43,9999 44,309 51,40
53,500 55,3258 56,428 57,2728
58,140 65,273 66,123 67,1362
68,240 69,1491 70,175 71,1202
72,52 77,648 78,244 79,1301
80,256 81,2208 82,251 83,952
84,99 85,281 87,31 90,33
91,1719 92,250 93,1255 94,271
95,2651 96,269 97,688 98,45
99,78 102,49 103,313 104,266
105,1159 106,240 107,1374 108,300
109,1047 110,146 111,395 112,35
113,77 115,795 116,347 117,1070
118,461 119,727 120,176 121,745
122,212 123,362 124,218 125,178
127,314 128,611 129,896 130,367
131,1459 132,568 133,1415 134,338
135,753 136,4679 137,635 138,89
139,48 141,432 142,321 143,739
144,301 145,1083 146,381 147,884
148,323 149,466 150,86 151,141
152,100 153,189 154,128 155,508
156,229 157,515 158,306 159,799
160,2816 161,1464 162,545 163,536
164,94 165,222 166,107 167,193
168,109 169,306 170,185 171,424
172,318 173,1020 174,2128 175,1576
176,561 177,203 178,44 179,125
180,85 181,203 182,88 183,274
184,171 185,387 186,162 187,398
188,236 189,201 190,128 191,164
192,42 193,354 194,123 195,188
196,44 197,154 198,137 199,274
200,148 201,321 202,364 203,119
205,50 206,151 207,178 208,30
209,215 210,47 211,156 212,99
213,316 214,209 215,294 216,116
217,78 219,211 220,97 223,41
225,133 226,88 227,721 228,278
229,250 230,87 231,43 237,35
241,139 242,52 243,41 244,39
245,35 246,216 247,2135 248,436
249,38 251,142 253,36 254,31
255,160 256,371 257,117 258,88
259,160 260,33 261,126 267,39
268,99 269,1527 270,624 271,125
283,50 297,244 298,60 311,47
325,32 326,33 338,208 339,98
340,77 354,154 355,33 364,41
365,86 367,587 368,179 381,40
382,4474 383,1388 384,267
##END=
