##TITLE=Cholest-8(14)-en-3-ol, (3.beta.,5.alpha.)-
##JCAMP-DX=4.24
##DATA TYPE=MASS SPECTRUM
##ORIGIN=T.IIDA NIHON UNIVERSITY, KORIYAMA, FUKUSHIMA-KEN, JAPAN
##OWNER=NIST Mass Spectrometry Data Center
Collection (C) 2014 copyright by the U.S. Secretary of Commerce
on behalf of the United States of America. All rights reserved.
##CAS REGISTRY NO=566-99-4
##$NIST MASS SPEC NO=67288
##MOLFORM=C27 H46 O
##MW=386
##$NIST SOURCE=MSDC
##XUNITS=M/Z
##YUNITS=RELATIVE INTENSITY
##XFACTOR=1
##YFACTOR=1
##FIRSTX=18
##LASTX=388
##FIRSTY=400
##MAXX=388
##MINX=18
##MAXY=9999
##MINY=100
##NPOINTS=162
##PEAK TABLE=(XY..XY)
18,400 26,200 27,500 28,600
29,1500 39,300 41,4000 42,400
43,6100 44,300 53,700 54,100
55,5200 56,500 57,3900 58,200
65,400 66,200 67,2300 68,500
69,3500 70,500 71,1500 77,1000
78,400 79,2900 80,400 81,4400
82,800 83,2800 84,300 85,500
91,4300 92,900 93,3700 94,1000
95,4400 96,700 97,1400 98,200
99,200 103,400 104,300 105,4500
106,1300 107,7100 108,1700 109,2900
110,500 111,700 115,400 116,200
117,1400 118,600 119,600 120,1300
121,3100 122,1600 123,2000 124,600
125,400 127,500 128,400 129,800
130,300 131,2300 132,800 133,3600
134,1900 135,3900 136,1400 137,100
138,300 141,200 142,200 143,900
144,200 145,2300 146,900 147,4700
148,1100 149,2000 150,400 151,900
152,500 155,300 156,200 157,800
158,500 159,1900 160,500 161,2500
162,500 163,600 164,200 165,600
166,200 171,800 172,300 173,1400
174,500 175,700 176,200 177,400
185,700 186,200 187,700 188,300
189,500 191,300 197,500 199,600
200,200 201,900 202,300 203,500
205,300 213,3400 214,600 215,1000
216,500 217,400 218,500 219,400
227,500 228,600 229,4400 230,700
231,2500 232,700 233,600 234,200
241,400 245,1000 246,1300 247,1600
248,300 253,300 255,1800 256,400
257,300 259,1000 260,700 261,300
262,200 271,300 273,2200 274,600
301,300 328,200 329,300 353,1200
354,400 355,200 368,700 369,400
371,4000 372,1400 384,400 386,9999
387,3300 388,700
##END=
