##TITLE=Cyclopropane, isothiocyanato-
##JCAMP-DX=4.24
##DATA TYPE=MASS SPECTRUM
##ORIGIN=NIST Mass Spectrometry Data Center, 1994
##OWNER=NIST Mass Spectrometry Data Center
Collection (C) 2014 copyright by the U.S. Secretary of Commerce
on behalf of the United States of America. All rights reserved.
##CAS REGISTRY NO=56601-42-4
##$NIST MASS SPEC NO=134475
##MOLFORM=C4 H5 N S
##MW=99
##$NIST SOURCE=MSDC
##XUNITS=M/Z
##YUNITS=RELATIVE INTENSITY
##XFACTOR=1
##YFACTOR=1
##FIRSTX=12
##LASTX=102
##FIRSTY=93
##MAXX=102
##MINX=12
##MAXY=9999
##MINY=21
##NPOINTS=63
##PEAK TABLE=(XY..XY)
12,93 13,112 14,234 15,372
16,21 24,29 25,192 26,1229
27,1882 28,95 29,101 30,64
33,68 34,69 36,104 37,755
38,1547 39,8673 40,1169 41,9685
42,340 43,64 44,2342 45,1159
46,326 47,65 48,55 49,38
50,66 51,274 52,233 53,38
54,309 55,36 56,79 57,336
58,690 59,903 60,388 61,40
62,43 63,66 64,95 66,47
67,232 68,64 69,222 70,2179
71,3731 72,3533 73,326 74,164
82,50 83,94 84,227 85,30
94,30 96,31 98,1196 99,9999
100,604 101,494 102,28
##END=
