##TITLE=2,6-Dimethyl-3(2-methyl-1-butyl)pyrazine
##JCAMP-DX=4.24
##DATA TYPE=MASS SPECTRUM
##ORIGIN=Philip Morris R&D
##OWNER=NIST Mass Spectrometry Data Center
Collection (C) 2014 copyright by the U.S. Secretary of Commerce
on behalf of the United States of America. All rights reserved.
##CAS REGISTRY NO=56617-70-0
##$NIST MASS SPEC NO=109556
##MOLFORM=C11 H18 N2
##MW=178
##$NIST SOURCE=MSDC
##XUNITS=M/Z
##YUNITS=RELATIVE INTENSITY
##XFACTOR=1
##YFACTOR=1
##FIRSTX=36
##LASTX=180
##FIRSTY=11
##MAXX=180
##MINX=36
##MAXY=9999
##MINY=0
##NPOINTS=94
##PEAK TABLE=(XY..XY)
36,11 37,13 38,72 39,1128
40,272 41,739 42,1024 43,79
44,11 45,3 50,31 51,110
52,199 53,637 54,240 55,128
56,46 57,157 58,6 59,3
61,1 62,2 63,21 64,32
65,70 66,203 67,94 68,76
69,27 70,6 71,12 72,2
73,16 74,5 75,2 76,3
77,81 78,53 79,83 80,366
81,176 82,42 83,4 87,1
89,6 91,20 92,27 93,32
94,70 95,47 96,61 97,9
98,21 103,3 104,9 105,16
106,17 107,138 108,81 109,41
110,1 117,1 118,9 119,9
120,14 121,854 122,9999 123,1031
124,45 130,2 131,10 132,13
133,102 134,22 135,200 136,115
137,10 145,15 146,18 147,78
148,21 149,482 150,63 151,0
159,12 160,3 161,29 162,8
163,846 164,109 165,3 178,120
179,64 180,9
##END=
