##TITLE=Propanamide, N-(4-methoxyphenyl)-2,2-dimethyl-
##JCAMP-DX=4.24
##DATA TYPE=MASS SPECTRUM
##ORIGIN=Zaikin V.G., TIPS RAS, Moscow, Russia
##OWNER=NIST Mass Spectrometry Data Center
Collection (C) 2014 copyright by the U.S. Secretary of Commerce
on behalf of the United States of America. All rights reserved.
##CAS REGISTRY NO=56619-94-4
##$NIST MASS SPEC NO=307197
##MOLFORM=C12 H17 N O2
##MW=207
##$NIST SOURCE=MSDC
##XUNITS=M/Z
##YUNITS=RELATIVE INTENSITY
##XFACTOR=1
##YFACTOR=1
##FIRSTX=26
##LASTX=209
##FIRSTY=40
##MAXX=209
##MINX=26
##MAXY=9999
##MINY=30
##NPOINTS=61
##PEAK TABLE=(XY..XY)
26,40 27,140 28,230 29,591
38,30 39,300 40,50 41,1191
42,140 44,30 50,50 51,110
52,270 53,230 54,40 55,110
56,70 57,6156 58,280 63,110
64,130 65,180 66,30 67,50
69,90 70,30 77,130 78,120
79,160 80,390 81,80 85,220
90,40 91,60 92,160 93,40
94,30 95,370 96,30 106,140
107,110 108,4604 109,460 121,100
122,1351 123,4714 124,751 125,50
134,240 135,40 136,40 148,30
149,490 150,180 151,120 164,571
165,110 192,90 207,9999 208,1351
209,110
##END=
