##TITLE=Cyclopentathiazole
##JCAMP-DX=4.24
##DATA TYPE=MASS SPECTRUM
##ORIGIN=Philip Morris R&D
##OWNER=NIST Mass Spectrometry Data Center
Collection (C) 2014 copyright by the U.S. Secretary of Commerce
on behalf of the United States of America. All rights reserved.
##CAS REGISTRY NO=5661-10-9
##$NIST MASS SPEC NO=109869
##MOLFORM=C6 H7 N S
##MW=125
##$NIST SOURCE=MSDC
##XUNITS=M/Z
##YUNITS=RELATIVE INTENSITY
##XFACTOR=1
##YFACTOR=1
##FIRSTX=36
##LASTX=128
##FIRSTY=43
##MAXX=128
##MINX=36
##MAXY=9999
##MINY=2
##NPOINTS=68
##PEAK TABLE=(XY..XY)
36,43 37,261 38,340 39,1231
40,199 41,91 42,18 44,80
45,1678 46,95 47,165 48,41
49,154 50,206 51,352 52,320
53,682 54,231 55,30 56,30
57,165 58,1445 59,342 60,102
61,66 62,95 63,229 64,132
65,1011 66,229 67,86 68,89
69,1197 70,1225 71,637 72,200
73,29 75,5 76,2 78,7
79,18 80,342 81,297 82,68
83,159 84,80 85,38 87,2
88,4 90,7 91,55 92,1286
93,181 94,30 95,118 96,150
97,4754 98,2488 99,619 100,116
101,16 110,100 123,27 124,6194
125,9999 126,1037 127,422 128,5
##END=
