##TITLE=3,3-Tetramethyleneglutaric anhydride
##JCAMP-DX=4.24
##DATA TYPE=MASS SPECTRUM
##ORIGIN=Japan AIST/NIMC Database- Spectrum MS-IW- 616
##OWNER=NIST Mass Spectrometry Data Center
Collection (C) 2014 copyright by the U.S. Secretary of Commerce
on behalf of the United States of America. All rights reserved.
##CAS REGISTRY NO=5662-95-3
##$NIST MASS SPEC NO=232095
##MOLFORM=C9 H12 O3
##MW=168
##$NIST SOURCE=MSDC
##XUNITS=M/Z
##YUNITS=RELATIVE INTENSITY
##XFACTOR=1
##YFACTOR=1
##FIRSTX=15
##LASTX=170
##FIRSTY=20
##MAXX=170
##MINX=15
##MAXY=9999
##MINY=10
##NPOINTS=57
##PEAK TABLE=(XY..XY)
15,20 26,30 27,379 28,209
29,149 37,10 38,40 39,789
40,239 41,809 42,209 43,449
44,20 45,20 46,30 47,10
50,50 51,99 52,70 53,349
54,1229 55,279 56,30 57,20
63,20 65,99 66,449 67,9999
68,809 69,40 71,10 77,80
78,30 79,209 80,599 81,959
82,4689 83,349 84,10 91,30
93,10 94,10 95,1179 96,2139
97,159 98,10 99,20 106,509
107,40 109,30 123,10 124,639
125,80 127,10 168,159 169,229
170,20
##END=
