##TITLE=2-Octynoic acid
##JCAMP-DX=4.24
##DATA TYPE=MASS SPECTRUM
##ORIGIN=NIST Mass Spectrometry Data Center
##OWNER=NIST Mass Spectrometry Data Center
Collection (C) 2014 copyright by the U.S. Secretary of Commerce
on behalf of the United States of America. All rights reserved.
##CAS REGISTRY NO=5663-96-7
##$NIST MASS SPEC NO=340686
##MOLFORM=C8 H12 O2
##MW=140
##$NIST SOURCE=MSDC
##XUNITS=M/Z
##YUNITS=RELATIVE INTENSITY
##XFACTOR=1
##YFACTOR=1
##FIRSTX=12
##LASTX=140
##FIRSTY=60
##MAXX=140
##MINX=12
##MAXY=9999
##MINY=10
##NPOINTS=83
##PEAK TABLE=(XY..XY)
12,60 15,130 16,180 22,20
25,20 26,410 27,3883 28,290
29,5985 30,150 31,10 36,10
37,320 38,881 39,6216 40,1561
41,9999 42,1151 43,721 44,6996
45,260 46,30 47,10 49,90
50,861 51,1321 52,681 53,2422
54,3003 55,5655 56,2382 57,2372
58,120 59,10 60,10 61,90
62,210 63,360 64,60 65,981
66,991 67,4424 68,2592 69,290
70,200 71,70 73,30 74,60
75,20 76,10 77,520 78,100
79,1902 80,410 81,9479 82,691
83,240 84,851 85,220 86,280
87,20 89,10 91,140 92,20
93,290 94,150 95,1782 96,140
97,450 98,110 99,50 105,10
107,120 108,10 111,370 112,80
121,50 122,30 123,70 125,190
126,10 139,40 140,10
##END=
