##TITLE=Urea, triphenyl-
##JCAMP-DX=4.24
##DATA TYPE=MASS SPECTRUM
##OWNER=NIST Mass Spectrometry Data Center
Collection (C) 2014 copyright by the U.S. Secretary of Commerce
on behalf of the United States of America. All rights reserved.
##CAS REGISTRY NO=5663-04-7
##$NIST MASS SPEC NO=13863
##MOLFORM=C19 H16 N2 O
##MW=288
##$NIST SOURCE=MSDC
##XUNITS=M/Z
##YUNITS=RELATIVE INTENSITY
##XFACTOR=1
##YFACTOR=1
##FIRSTX=28
##LASTX=289
##FIRSTY=200
##MAXX=289
##MINX=28
##MAXY=9999
##MINY=75
##NPOINTS=45
##PEAK TABLE=(XY..XY)
28,200 37,275 38,800 39,3750
40,375 41,300 50,1200 51,6324
52,950 61,125 62,275 63,1300
64,1750 65,3000 66,1500 67,150
74,250 75,250 76,500 77,6374
78,875 89,300 90,225 91,1625
92,1550 93,1125 102,125 103,175
104,175 114,125 115,875 116,200
117,125 119,450 120,950 152,125
153,75 154,175 166,1000 167,5374
168,5249 169,9999 170,1250 288,1425
289,300
##END=
