##TITLE=13-Docosenoic acid, methyl ester
##JCAMP-DX=4.24
##DATA TYPE=MASS SPECTRUM
##ORIGIN=R.T.HOLMAN,UNIVERSITY OF MINNESOTA
##OWNER=NIST Mass Spectrometry Data Center
Collection (C) 2014 copyright by the U.S. Secretary of Commerce
on behalf of the United States of America. All rights reserved.
##CAS REGISTRY NO=56630-69-4
##$NIST MASS SPEC NO=35856
##MOLFORM=C23 H44 O2
##MW=352
##$NIST SOURCE=MSDC
##XUNITS=M/Z
##YUNITS=RELATIVE INTENSITY
##XFACTOR=1
##YFACTOR=1
##FIRSTX=26
##LASTX=354
##FIRSTY=800
##MAXX=354
##MINX=26
##MAXY=9999
##MINY=10
##NPOINTS=238
##PEAK TABLE=(XY..XY)
26,800 27,2700 28,800 29,3400
30,100 31,190 32,170 33,20
35,20 36,100 37,300 38,400
39,2000 40,400 41,7200 42,1700
43,9999 44,300 45,200 46,10
47,30 48,10 49,10 50,50
51,100 52,100 53,800 54,1500
55,6200 56,1600 57,2400 58,800
59,1500 60,100 61,30 62,20
63,60 64,20 65,200 66,200
67,1900 68,800 69,3100 70,1000
71,600 72,40 73,300 74,3000
75,300 76,30 77,200 78,60
79,500 80,200 81,1100 82,600
83,1800 84,700 85,300 86,30
87,1100 88,100 89,20 90,10
91,100 92,50 93,200 94,100
95,700 96,700 97,1100 98,600
99,100 100,20 101,200 102,20
103,20 104,20 105,100 106,30
107,100 108,100 109,300 110,300
111,400 112,100 113,100 114,60
115,100 116,30 117,20 118,10
119,70 120,40 121,100 122,50
123,200 124,200 125,200 126,100
127,100 128,100 129,100 130,40
131,20 132,10 133,50 134,50
135,100 136,40 137,100 138,100
139,100 140,50 141,100 142,40
143,100 144,20 145,10 147,30
148,40 149,70 150,40 151,100
152,100 153,100 154,30 155,40
156,20 157,40 158,10 159,10
161,30 162,20 163,50 164,20
165,60 166,70 167,70 168,20
169,30 170,10 171,30 172,10
173,10 175,30 176,20 177,30
178,20 179,40 180,50 181,50
182,20 183,20 184,10 185,40
186,20 189,20 190,10 191,20
192,10 193,40 194,50 195,30
196,20 197,20 199,30 200,20
201,10 203,20 204,10 205,10
206,10 207,40 208,60 209,30
210,20 211,20 212,10 213,30
214,10 219,10 220,20 221,40
222,100 223,40 224,20 225,20
226,10 227,20 228,10 235,40
236,130 237,30 238,40 239,20
240,20 241,10 242,20 243,10
249,50 250,40 251,20 252,20
253,20 254,10 255,20 256,20
263,40 264,40 265,20 266,20
267,10 268,10 269,20 270,20
271,10 276,50 277,50 278,130
279,40 280,20 281,20 291,30
292,40 293,20 302,40 303,20
309,20 320,800 321,300 322,50
323,20 324,10 326,20 352,134
353,30 354,20
##END=
