##TITLE=Levomoramide
##JCAMP-DX=4.24
##DATA TYPE=MASS SPECTRUM
##ORIGIN=HOME OFFICE, CENTRAL RES. EST., ALDERMASTON, BERKS., U.K.
##OWNER=NIST Mass Spectrometry Data Center
Collection (C) 2014 copyright by the U.S. Secretary of Commerce
on behalf of the United States of America. All rights reserved.
##CAS REGISTRY NO=5666-11-5
##$NIST MASS SPEC NO=58805
##MOLFORM=C25 H32 N2 O2
##MW=392
##$NIST SOURCE=MSDC
##XUNITS=M/Z
##YUNITS=RELATIVE INTENSITY
##XFACTOR=1
##YFACTOR=1
##FIRSTX=41
##LASTX=306
##FIRSTY=300
##MAXX=306
##MINX=41
##MAXY=9999
##MINY=100
##NPOINTS=31
##PEAK TABLE=(XY..XY)
41,300 42,500 43,100 44,100
45,100 55,600 56,200 57,100
69,200 70,300 90,400 91,300
100,9999 101,500 106,200 115,300
128,3300 129,700 149,200 165,400
166,200 167,200 172,100 194,200
195,100 238,100 265,5800 266,1100
267,100 284,100 306,200
##END=
