##TITLE=1,1'-Biphenyl, 3,3',4,4',5,5'-hexamethyl-
##JCAMP-DX=4.24
##DATA TYPE=MASS SPECTRUM
##ORIGIN=R.C. DOUGHERTY
##OWNER=NIST Mass Spectrometry Data Center
Collection (C) 2014 copyright by the U.S. Secretary of Commerce
on behalf of the United States of America. All rights reserved.
##CAS REGISTRY NO=56667-01-7
##$NIST MASS SPEC NO=36900
##MOLFORM=C18 H22
##MW=238
##$NIST SOURCE=MSDC
##XUNITS=M/Z
##YUNITS=RELATIVE INTENSITY
##XFACTOR=1
##YFACTOR=1
##FIRSTX=77
##LASTX=240
##FIRSTY=350
##MAXX=240
##MINX=77
##MAXY=9999
##MINY=150
##NPOINTS=24
##PEAK TABLE=(XY..XY)
77,350 103,200 104,500 119,500
178,200 179,300 180,1201 181,200
191,400 192,400 193,901 194,200
205,400 206,901 207,901 208,801
219,550 222,150 223,1601 224,300
237,601 238,9999 239,2002 240,200
##END=
