##TITLE=11-Hexadecen-1-ol, (Z)-
##JCAMP-DX=4.24
##DATA TYPE=MASS SPECTRUM
##ORIGIN=Chuck Anderson, Aldrich Chemical Co.
##OWNER=NIST Mass Spectrometry Data Center
Collection (C) 2014 copyright by the U.S. Secretary of Commerce
on behalf of the United States of America. All rights reserved.
##CAS REGISTRY NO=56683-54-6
##$NIST MASS SPEC NO=108369
##MOLFORM=C16 H32 O
##MW=240
##$NIST SOURCE=MSDC
##XUNITS=M/Z
##YUNITS=RELATIVE INTENSITY
##XFACTOR=1
##YFACTOR=1
##FIRSTX=17
##LASTX=222
##FIRSTY=114
##MAXX=222
##MINX=17
##MAXY=9999
##MINY=58
##NPOINTS=47
##PEAK TABLE=(XY..XY)
17,114 18,546 27,1081 28,303
29,1790 31,1526 36,393 38,58
39,1045 40,195 41,6345 42,1141
43,2607 44,270 53,642 54,3076
55,9999 56,1922 57,1646 65,210
66,417 67,5432 68,3845 69,4566
70,1117 71,606 77,120 79,597
80,288 81,5191 82,6441 83,2716
84,507 85,351 93,133 95,3797
96,4470 97,1514 98,354 109,1742
110,1454 111,435 123,760 124,673
137,300 138,300 222,195
##END=
