##TITLE=Propane, 1,1'-[ethylidenebis(oxy)]bis[2-methyl-
##JCAMP-DX=4.24
##DATA TYPE=MASS SPECTRUM
##OWNER=NIST Mass Spectrometry Data Center
Collection (C) 2014 copyright by the U.S. Secretary of Commerce
on behalf of the United States of America. All rights reserved.
##CAS REGISTRY NO=5669-09-0
##$NIST MASS SPEC NO=22104
##MOLFORM=C10 H22 O2
##MW=174
##$NIST SOURCE=MSDC
##XUNITS=M/Z
##YUNITS=RELATIVE INTENSITY
##XFACTOR=1
##YFACTOR=1
##FIRSTX=14
##LASTX=159
##FIRSTY=20
##MAXX=159
##MINX=14
##MAXY=9999
##MINY=10
##NPOINTS=31
##PEAK TABLE=(XY..XY)
14,20 15,40 16,30 27,280
28,80 29,1221 31,130 33,80
39,290 40,40 41,2062 42,240
43,631 44,70 45,2883 55,240
56,681 57,9999 58,681 59,70
61,90 73,80 83,220 85,50
101,5585 102,310 103,200 117,30
131,270 144,10 159,691
##END=
