##TITLE=1,3-Nonadiene, (E)-
##JCAMP-DX=4.24
##DATA TYPE=MASS SPECTRUM
##ORIGIN=G.R.LIST AGRICULTURAL RES. SERVICE, PEORIA, ILLINOIS, USA
##OWNER=NIST Mass Spectrometry Data Center
Collection (C) 2014 copyright by the U.S. Secretary of Commerce
on behalf of the United States of America. All rights reserved.
##CAS REGISTRY NO=56700-77-7
##$NIST MASS SPEC NO=37405
##MOLFORM=C9 H16
##MW=124
##$NIST SOURCE=MSDC
##XUNITS=M/Z
##YUNITS=RELATIVE INTENSITY
##XFACTOR=1
##YFACTOR=1
##FIRSTX=12
##LASTX=126
##FIRSTY=6
##MAXX=126
##MINX=12
##MAXY=9999
##MINY=3
##NPOINTS=76
##PEAK TABLE=(XY..XY)
12,6 13,9 14,20 15,118
16,16 17,24 18,86 24,6
25,17 26,224 27,3174 28,627
29,3261 30,80 31,7 36,4
37,36 38,179 39,4106 40,752
41,7429 42,1193 43,441 44,41
45,21 49,10 50,193 51,602
52,472 53,1491 54,9999 55,2689
56,273 57,652 58,31 59,11
61,10 62,43 63,155 64,43
65,87 66,752 67,6460 68,3391
69,969 70,385 71,32 73,15
74,14 75,14 76,11 77,503
78,137 79,851 80,304 81,2516
82,1497 83,354 84,43 85,7
86,3 91,143 92,24 93,87
94,50 95,1696 96,658 97,56
103,6 105,6 107,6 109,168
110,17 124,1689 125,211 126,20
##END=
