##TITLE=Cyclopentane, 2-methyl-1-methylene-3-(1-methylethenyl)-
##JCAMP-DX=4.24
##DATA TYPE=MASS SPECTRUM
##ORIGIN=H.STRICKLER FIRMENICH & CIE, GENEVA, SWITZERLAND
##OWNER=NIST Mass Spectrometry Data Center
Collection (C) 2014 copyright by the U.S. Secretary of Commerce
on behalf of the United States of America. All rights reserved.
##CAS REGISTRY NO=56710-83-9
##$NIST MASS SPEC NO=38853
##MOLFORM=C10 H16
##MW=136
##$NIST SOURCE=MSDC
##XUNITS=M/Z
##YUNITS=RELATIVE INTENSITY
##XFACTOR=1
##YFACTOR=1
##FIRSTX=27
##LASTX=137
##FIRSTY=1100
##MAXX=137
##MINX=27
##MAXY=9999
##MINY=10
##NPOINTS=49
##PEAK TABLE=(XY..XY)
27,1100 28,160 29,800 38,60
39,1700 40,300 41,1900 42,120
43,800 50,160 51,550 52,260
53,1000 54,100 55,1300 56,20
58,50 63,200 65,550 66,150
67,1800 68,150 69,60 77,1600
78,300 79,2200 80,320 81,250
91,1800 92,200 93,4000 94,600
95,4800 96,400 103,180 104,10
105,1400 106,350 107,1000 108,230
115,30 117,10 119,350 120,100
121,9999 122,1000 135,250 136,5000
137,600
##END=
