##TITLE=4-Penten-1-ol, 2-methyl-
##JCAMP-DX=4.24
##DATA TYPE=MASS SPECTRUM
##ORIGIN=D.HENNEBERG, MAX-PLANCK INSTITUTE, MULHEIM, WEST GERMANY
##OWNER=NIST Mass Spectrometry Data Center
Collection (C) 2014 copyright by the U.S. Secretary of Commerce
on behalf of the United States of America. All rights reserved.
##CAS REGISTRY NO=5673-98-3
##$NIST MASS SPEC NO=61227
##MOLFORM=C6 H12 O
##MW=100
##$NIST SOURCE=MSDC
##XUNITS=M/Z
##YUNITS=RELATIVE INTENSITY
##XFACTOR=1
##YFACTOR=1
##FIRSTX=25
##LASTX=101
##FIRSTY=3
##MAXX=101
##MINX=25
##MAXY=9999
##MINY=1
##NPOINTS=66
##PEAK TABLE=(XY..XY)
25,3 26,585 27,2420 28,1418
29,1586 30,218 31,6377 36,3
37,121 38,318 39,3515 40,620
41,9999 42,1445 43,789 44,122
45,153 46,5 47,3 48,4
49,25 50,136 51,208 52,115
53,720 54,808 55,1103 56,408
57,2116 58,2669 59,1228 60,47
61,15 62,36 63,93 64,15
65,268 66,107 67,6304 68,513
69,1783 70,360 71,533 72,103
73,13 74,10 75,14 77,56
78,17 79,101 80,28 81,466
82,2114 83,203 84,25 85,92
91,75 92,51 93,18 95,51
96,13 97,1 98,10 99,16
100,10 101,8
##END=
