##TITLE=1,4-Heptadiene
##JCAMP-DX=4.24
##DATA TYPE=MASS SPECTRUM
##ORIGIN=NIST Mass Spectrometry Data Center, 1990.
##OWNER=NIST Mass Spectrometry Data Center
Collection (C) 2014 copyright by the U.S. Secretary of Commerce
on behalf of the United States of America. All rights reserved.
##CAS REGISTRY NO=5675-22-9
##$NIST MASS SPEC NO=113639
##MOLFORM=C7 H12
##MW=96
##$NIST SOURCE=MSDC
##XUNITS=M/Z
##YUNITS=RELATIVE INTENSITY
##XFACTOR=1
##YFACTOR=1
##FIRSTX=26
##LASTX=96
##FIRSTY=561
##MAXX=96
##MINX=26
##MAXY=9999
##MINY=463
##NPOINTS=26
##PEAK TABLE=(XY..XY)
26,561 27,3101 28,989 29,1319
38,828 39,6798 40,1123 41,5320
42,540 50,712 51,1276 52,614
53,3403 54,9548 55,5205 63,463
65,2113 66,909 67,7061 68,1111
77,1142 79,3497 81,9999 82,634
95,463 96,3001
##END=
