##TITLE=Benzene, (2,2-dimethyl-1-methylenepropyl)-
##JCAMP-DX=4.24
##DATA TYPE=MASS SPECTRUM
##ORIGIN=D.HENNEBERG, MAX-PLANCK INSTITUTE, MULHEIM, WEST GERMANY
##OWNER=NIST Mass Spectrometry Data Center
Collection (C) 2014 copyright by the U.S. Secretary of Commerce
on behalf of the United States of America. All rights reserved.
##CAS REGISTRY NO=5676-29-9
##$NIST MASS SPEC NO=61080
##MOLFORM=C12 H16
##MW=160
##$NIST SOURCE=MSDC
##XUNITS=M/Z
##YUNITS=RELATIVE INTENSITY
##XFACTOR=1
##YFACTOR=1
##FIRSTX=26
##LASTX=163
##FIRSTY=87
##MAXX=163
##MINX=26
##MAXY=9999
##MINY=1
##NPOINTS=107
##PEAK TABLE=(XY..XY)
26,87 27,441 29,542 31,3
38,57 39,754 40,22 41,1529
42,37 43,776 45,6 46,3
49,2 50,218 51,721 52,158
53,254 54,39 55,255 56,60
57,2470 58,136 61,17 62,62
63,387 64,272 65,717 66,49
67,487 68,37 69,121 70,139
71,312 73,19 74,61 75,90
76,175 77,736 78,281 79,193
80,18 81,21 82,79 83,40
84,7 85,4 86,28 87,21
88,11 89,192 90,42 91,4054
92,454 93,40 94,14 95,10
97,8 99,11 101,47 102,199
103,461 104,250 105,1581 106,796
107,85 108,7 111,10 113,8
114,1 115,855 116,268 117,2634
118,293 119,69 120,48 121,87
122,6 126,51 127,315 128,893
129,812 130,971 131,283 132,43
133,12 139,16 140,5 141,86
142,38 143,488 144,104 145,9999
146,1181 147,186 148,19 149,10
150,7 151,8 152,10 154,6
155,7 156,4 159,73 160,3057
161,463 162,649 163,75
##END=
