##TITLE=Zimeldine
##JCAMP-DX=4.24
##DATA TYPE=MASS SPECTRUM
##ORIGIN=Tox21 Consortium/NIST Mass Spectrometry Data Center, 2012
##OWNER=NIST Mass Spectrometry Data Center
Collection (C) 2014 copyright by the U.S. Secretary of Commerce
on behalf of the United States of America. All rights reserved.
##CAS REGISTRY NO=56775-88-3
##$NIST MASS SPEC NO=408751
##MOLFORM=C16 H17 Br N2
##MW=316
##$NIST SOURCE=MSDC
##XUNITS=M/Z
##YUNITS=RELATIVE INTENSITY
##XFACTOR=1
##YFACTOR=1
##FIRSTX=15
##LASTX=320
##FIRSTY=170
##MAXX=320
##MINX=15
##MAXY=9999
##MINY=10
##NPOINTS=238
##PEAK TABLE=(XY..XY)
15,170 17,10 18,70 26,30
27,150 28,290 29,180 30,571
31,20 37,20 38,90 39,641
40,90 41,300 42,4974 43,621
44,601 45,90 46,50 49,10
50,550 51,971 52,250 53,100
54,90 55,100 56,440 57,1021
58,9999 59,360 61,50 62,390
63,1201 64,260 65,520 66,80
67,70 68,70 69,80 70,6356
71,490 72,30 73,20 74,380
75,801 76,651 77,490 78,290
79,150 80,130 81,210 82,1161
83,400 85,40 86,250 87,450
88,420 89,891 90,651 91,210
92,871 93,230 94,70 95,240
96,130 97,80 98,160 99,200
100,110 101,480 102,390 103,250
104,150 105,80 106,70 107,20
108,10 109,30 110,290 111,170
112,70 113,751 114,681 115,1551
116,801 117,941 118,981 119,200
120,90 121,30 122,20 123,40
124,30 125,210 126,561 127,390
128,260 129,80 130,200 131,140
132,120 133,50 134,30 135,70
136,10 137,240 138,360 139,1752
140,641 141,200 142,110 143,140
144,300 145,440 146,110 147,1381
148,140 149,50 150,420 151,791
152,981 153,380 154,160 155,50
156,70 157,200 158,260 159,791
160,230 161,4184 162,561 163,891
164,1021 165,2632 166,1491 167,1031
168,170 169,971 170,80 171,901
172,70 175,20 176,80 177,310
178,701 179,430 180,510 181,130
182,70 183,30 184,10 185,10
188,40 189,80 190,711 191,2622
192,4244 193,8338 194,1551 195,260
196,50 197,10 198,30 203,20
204,70 205,180 206,100 207,30
208,20 209,20 210,10 211,10
212,30 214,20 217,50 218,40
219,100 220,50 221,120 222,100
223,30 224,370 225,50 226,310
227,40 232,10 233,20 234,10
235,70 236,320 237,360 238,1992
239,280 240,1611 241,190 242,20
243,10 244,20 245,80 246,60
247,70 248,30 257,10 258,40
259,30 260,450 261,70 262,360
263,60 270,130 271,200 272,1091
273,831 274,1001 275,591 276,90
283,10 284,10 285,20 286,30
287,30 288,30 289,10 299,30
300,10 301,1221 302,230 303,1161
304,190 305,20 313,20 314,10
315,1431 316,2362 317,1752 318,2352
319,410 320,30
##END=
