##TITLE=Methyl 2-hydroxydocosanoate, TMS derivative
##JCAMP-DX=4.24
##DATA TYPE=MASS SPECTRUM
##ORIGIN=W.R.MORRISON DEPT. FOOD SCI., UNIV. STRATHCLYDE, GLASGOW, U
##OWNER=NIST Mass Spectrometry Data Center
Collection (C) 2014 copyright by the U.S. Secretary of Commerce
on behalf of the United States of America. All rights reserved.
##CAS REGISTRY NO=56784-02-2
##$NIST MASS SPEC NO=38429
##MOLFORM=C26 H54 O3 Si
##MW=442
##$NIST SOURCE=MSDC
##XUNITS=M/Z
##YUNITS=RELATIVE INTENSITY
##XFACTOR=1
##YFACTOR=1
##FIRSTX=41
##LASTX=442
##FIRSTY=2100
##MAXX=442
##MINX=41
##MAXY=9999
##MINY=100
##NPOINTS=87
##PEAK TABLE=(XY..XY)
41,2100 42,400 43,4300 44,200
45,500 53,100 54,200 55,1400
56,500 57,3400 58,200 59,1200
60,100 61,200 67,800 68,400
69,2000 70,300 71,1600 72,200
73,9999 74,600 75,2700 76,200
77,200 79,100 81,900 82,600
83,2400 84,300 85,900 87,300
89,4400 90,400 91,900 93,100
95,900 96,300 97,1700 98,200
99,200 101,500 102,100 103,2600
104,300 105,300 107,200 109,400
110,100 111,700 112,100 113,200
115,500 116,300 117,100 119,300
123,100 125,200 127,100 129,2400
130,300 131,300 143,300 145,300
146,300 147,100 149,100 159,1200
160,100 161,200 162,200 171,100
185,200 367,100 381,100 382,200
383,4700 384,1400 385,400 386,100
387,200 399,200 400,100 427,1800
428,600 429,200 442,100
##END=
