##TITLE=Methyl 2-hydroxypentacosanoate, TMS derivative
##JCAMP-DX=4.24
##DATA TYPE=MASS SPECTRUM
##ORIGIN=W.R.MORRISON DEPT. FOOD SCI., UNIV. STRATHCLYDE, GLASGOW, U
##OWNER=NIST Mass Spectrometry Data Center
Collection (C) 2014 copyright by the U.S. Secretary of Commerce
on behalf of the United States of America. All rights reserved.
##CAS REGISTRY NO=56784-05-5
##$NIST MASS SPEC NO=38425
##MOLFORM=C29 H60 O3 Si
##MW=484
##$NIST SOURCE=MSDC
##XUNITS=M/Z
##YUNITS=RELATIVE INTENSITY
##XFACTOR=1
##YFACTOR=1
##FIRSTX=40
##LASTX=484
##FIRSTY=400
##MAXX=484
##MINX=40
##MAXY=9999
##MINY=100
##NPOINTS=87
##PEAK TABLE=(XY..XY)
40,400 41,3200 42,700 43,6200
44,2100 45,900 51,300 53,300
54,400 55,3800 56,1100 57,5800
58,400 59,1300 60,300 61,200
67,1600 68,700 69,3200 70,900
71,3200 72,400 73,9999 74,1200
75,2700 76,500 77,1600 79,500
80,200 81,2000 82,1000 83,3200
84,700 85,1800 86,100 87,400
89,3800 90,400 91,1100 92,200
93,300 94,300 95,2100 96,1200
97,2600 98,500 99,600 100,200
101,300 103,2400 104,400 105,800
107,500 108,300 109,800 110,400
111,1300 112,300 113,300 115,700
116,300 117,500 119,500 121,300
123,500 125,600 127,300 129,2600
130,400 131,600 133,300 135,200
137,200 147,600 149,800 159,1500
185,200 425,4100 426,1400 427,500
428,200 441,200 442,100 469,2000
470,600 471,300 484,200
##END=
