##TITLE=3,6-Nonadien-1-ol, (E,Z)-
##JCAMP-DX=4.24
##DATA TYPE=MASS SPECTRUM
##ORIGIN=Japan AIST/NIMC Database- Spectrum MS-IW-6969
##OWNER=NIST Mass Spectrometry Data Center
Collection (C) 2014 copyright by the U.S. Secretary of Commerce
on behalf of the United States of America. All rights reserved.
##CAS REGISTRY NO=56805-23-3
##$NIST MASS SPEC NO=237549
##MOLFORM=C9 H16 O
##MW=140
##$NIST SOURCE=MSDC
##XUNITS=M/Z
##YUNITS=RELATIVE INTENSITY
##XFACTOR=1
##YFACTOR=1
##FIRSTX=15
##LASTX=141
##FIRSTY=50
##MAXX=141
##MINX=15
##MAXY=9999
##MINY=10
##NPOINTS=89
##PEAK TABLE=(XY..XY)
15,50 18,20 26,70 27,1389
28,419 29,1379 30,40 31,1049
32,50 37,20 38,99 39,2159
40,339 41,4399 42,379 43,989
44,80 45,60 50,169 51,509
52,279 53,1439 54,1479 55,4279
56,429 57,489 58,209 59,40
60,10 61,10 62,50 63,159
64,40 65,949 66,549 67,9999
68,3039 69,949 70,679 71,879
72,379 73,30 74,20 75,20
76,10 77,2339 78,519 79,4809
80,1489 81,3269 82,479 83,499
84,839 85,139 86,99 87,10
89,30 90,10 91,2339 92,389
93,5649 94,1049 95,1029 96,1299
97,659 98,959 99,80 103,50
104,10 105,339 106,50 107,1629
108,169 109,1819 110,299 111,419
112,209 113,20 115,20 117,10
119,20 120,30 121,80 122,1729
123,189 124,20 125,40 140,669
141,70
##END=
