##TITLE=Benzene, 1,2,3,5-tetrachloro-4-ethoxy-
##JCAMP-DX=4.24
##DATA TYPE=MASS SPECTRUM
##ORIGIN=R.SELF FOOD RESEARCH INSTITUTE, NORWICH, UK
##OWNER=NIST Mass Spectrometry Data Center
Collection (C) 2014 copyright by the U.S. Secretary of Commerce
on behalf of the United States of America. All rights reserved.
##CAS REGISTRY NO=56818-02-1
##$NIST MASS SPEC NO=39238
##MOLFORM=C8 H6 Cl4 O
##MW=258
##$NIST SOURCE=MSDC
##XUNITS=M/Z
##YUNITS=RELATIVE INTENSITY
##XFACTOR=1
##YFACTOR=1
##FIRSTX=26
##LASTX=264
##FIRSTY=167
##MAXX=264
##MINX=26
##MAXY=9999
##MINY=91
##NPOINTS=64
##PEAK TABLE=(XY..XY)
26,167 27,818 29,1394 36,758
38,242 43,91 60,91 61,227
71,91 73,91 83,167 84,91
85,106 95,136 96,303 97,136
98,121 106,91 107,227 108,167
109,152 130,121 131,758 132,136
133,500 135,91 141,106 143,182
145,91 165,167 166,591 167,318
168,591 169,212 170,197 178,91
179,91 180,106 194,530 196,515
198,197 200,106 201,212 202,106
203,258 205,136 213,91 215,106
228,91 230,8030 231,485 232,9999
233,545 234,4848 235,288 236,773
237,121 258,1348 259,212 260,1727
261,227 262,833 263,91 264,121
##END=
