##TITLE=Naphthalene, 1,2,3,4-tetrahydro-2-(1-naphthalenylmethyl)-
##JCAMP-DX=4.24
##DATA TYPE=MASS SPECTRUM
##ORIGIN=CONTINENTAL OIL CO., PONCA CITY, OKLA., USA
##OWNER=NIST Mass Spectrometry Data Center
Collection (C) 2014 copyright by the U.S. Secretary of Commerce
on behalf of the United States of America. All rights reserved.
##CAS REGISTRY NO=56818-06-5
##$NIST MASS SPEC NO=39317
##MOLFORM=C21 H20
##MW=272
##$NIST SOURCE=MSDC
##XUNITS=M/Z
##YUNITS=RELATIVE INTENSITY
##XFACTOR=1
##YFACTOR=1
##FIRSTX=13
##LASTX=274
##FIRSTY=3
##MAXX=274
##MINX=13
##MAXY=9999
##MINY=2
##NPOINTS=196
##PEAK TABLE=(XY..XY)
13,3 14,9 15,59 16,4
25,3 26,40 27,370 28,184
29,46 30,2 37,11 38,49
39,678 40,60 41,121 42,8
43,21 44,2 49,6 50,162
51,494 52,150 53,470 54,28
55,19 56,6 57,13 58,13
60,6 61,11 62,91 63,463
64,108 65,345 66,29 67,8
68,5 69,16 70,12 71,17
72,3 73,15 74,98 75,168
76,128 77,554 78,323 79,99
80,9 81,11 82,11 85,9
86,29 87,74 88,63 89,247
90,55 91,2437 92,197 93,22
94,31 95,28 96,3 97,8
98,47 99,44 100,36 101,138
102,316 103,550 104,548 105,150
106,21 107,13 108,11 109,6
110,15 111,23 112,22 113,136
114,181 115,3452 116,1369 117,236
118,36 119,21 120,22 121,11
122,13 123,10 124,9 125,49
126,230 127,593 128,1563 129,1635
130,2036 131,8188 132,893 133,59
134,16 135,12 136,180 137,34
138,62 139,690 140,301 141,5545
142,9999 143,1255 144,300 145,33
149,11 150,46 151,107 152,372
153,310 154,64 155,30 156,6
161,4 162,12 163,79 164,63
165,397 166,123 167,278 168,105
169,12 170,3 174,3 175,8
176,29 177,16 178,42 179,33
180,11 181,14 182,2 186,2
187,15 188,8 189,30 190,7
191,6 198,2 199,3 200,14
201,9 202,29 203,9 204,2
210,4 211,6 212,4 213,19
214,6 215,51 216,18 217,6
224,8 225,7 226,29 227,16
228,36 229,42 230,10 237,15
238,9 239,54 240,20 241,25
242,14 243,11 244,4 249,6
250,12 251,8 252,46 253,32
254,10 255,9 256,5 261,3
262,4 263,22 264,9 265,37
266,19 267,42 268,73 269,20
270,25 272,4196 273,980 274,107
##END=
