##TITLE=2,4-Pentanediol, 3-methyl-
##JCAMP-DX=4.24
##DATA TYPE=MASS SPECTRUM
##ORIGIN=D.HENNEBERG, MAX-PLANCK INSTITUTE, MULHEIM, WEST GERMANY
##OWNER=NIST Mass Spectrometry Data Center
Collection (C) 2014 copyright by the U.S. Secretary of Commerce
on behalf of the United States of America. All rights reserved.
##CAS REGISTRY NO=5683-44-3
##$NIST MASS SPEC NO=63567
##MOLFORM=C6 H14 O2
##MW=118
##$NIST SOURCE=MSDC
##XUNITS=M/Z
##YUNITS=RELATIVE INTENSITY
##XFACTOR=1
##YFACTOR=1
##FIRSTX=26
##LASTX=117
##FIRSTY=73
##MAXX=117
##MINX=26
##MAXY=9999
##MINY=2
##NPOINTS=62
##PEAK TABLE=(XY..XY)
26,73 27,660 28,705 29,954
30,65 31,543 33,5 38,5
39,293 40,177 41,3243 42,360
43,2199 44,250 45,4100 46,106
47,56 50,5 51,12 52,6
53,108 54,90 55,984 56,9999
57,1163 58,171 59,926 60,36
61,54 62,6 63,159 64,4
65,9 67,85 68,10 69,138
70,33 71,272 72,251 73,237
74,40 75,50 77,6 79,4
81,15 82,28 83,62 84,72
85,397 86,24 87,34 89,92
95,8 97,9 98,19 99,46
100,95 101,30 103,72 104,2
115,14 117,10
##END=
