##TITLE=Benzoic acid, 2,4-dichloro-, ethyl ester
##JCAMP-DX=4.24
##DATA TYPE=MASS SPECTRUM
##ORIGIN=A.A.Kutin, Moscow, Russia
##OWNER=NIST Mass Spectrometry Data Center
Collection (C) 2014 copyright by the U.S. Secretary of Commerce
on behalf of the United States of America. All rights reserved.
##CAS REGISTRY NO=56882-52-1
##$NIST MASS SPEC NO=262010
##MOLFORM=C9 H8 Cl2 O2
##MW=218
##$NIST SOURCE=MSDC
##XUNITS=M/Z
##YUNITS=RELATIVE INTENSITY
##XFACTOR=1
##YFACTOR=1
##FIRSTX=35
##LASTX=223
##FIRSTY=40
##MAXX=223
##MINX=35
##MAXY=9999
##MINY=3
##NPOINTS=121
##PEAK TABLE=(XY..XY)
35,40 36,118 37,162 38,148
39,58 40,191 41,25 42,48
43,206 45,1432 46,14 47,33
48,4 49,135 50,712 51,145
52,5 53,75 54,71 55,54
56,9 57,3 60,52 61,135
62,95 63,225 64,34 65,5
67,3 69,19 70,6 72,94
73,456 74,1916 75,2100 76,137
77,66 78,5 82,3 84,465
85,326 86,191 87,156 89,16
91,35 92,4 95,13 96,10
97,36 98,31 99,220 100,14
101,90 102,11 103,29 107,25
108,150 109,2126 110,931 111,882
112,301 113,79 118,3 119,57
120,14 121,31 123,10 125,15
126,9 127,48 128,4 129,8
133,26 135,20 137,75 138,272
139,117 140,90 141,23 143,4
144,119 145,2126 146,341 147,1344
148,152 149,206 150,23 155,74
157,20 159,14 161,10 162,20
164,18 165,19 170,12 171,93
173,9999 174,1142 175,6205 176,642
177,1040 178,96 183,86 185,27
188,10 190,2390 191,238 192,1490
193,127 194,222 195,15 203,69
205,38 207,3 217,195 218,1306
219,247 220,736 221,89 222,123
223,8
##END=
