##TITLE=Benzo[lmn][3,8]phenanthroline-1,3,6,8(2H,7H)-tetrone
##JCAMP-DX=4.24
##DATA TYPE=MASS SPECTRUM
##ORIGIN=Japan AIST/NIMC Database- Spectrum MS-IW-1770
##OWNER=NIST Mass Spectrometry Data Center
Collection (C) 2014 copyright by the U.S. Secretary of Commerce
on behalf of the United States of America. All rights reserved.
##CAS REGISTRY NO=5690-24-4
##$NIST MASS SPEC NO=234367
##MOLFORM=C14 H6 N2 O4
##MW=266
##$NIST SOURCE=MSDC
##XUNITS=M/Z
##YUNITS=RELATIVE INTENSITY
##XFACTOR=1
##YFACTOR=1
##FIRSTX=28
##LASTX=269
##FIRSTY=50
##MAXX=269
##MINX=28
##MAXY=9999
##MINY=10
##NPOINTS=108
##PEAK TABLE=(XY..XY)
28,50 37,10 38,10 39,10
43,10 44,20 49,20 50,40
51,30 52,20 53,20 55,40
56,30 60,10 61,249 62,899
63,90 64,30 68,30 69,129
70,60 73,30 74,509 75,149
76,529 77,60 82,10 83,70
84,20 85,70 86,149 87,80
88,109 89,30 90,279 91,40
97,50 98,279 99,90 100,70
101,20 102,50 103,20 105,559
109,20 110,60 111,109 112,129
113,40 119,10 120,20 121,50
122,219 123,249 124,789 125,159
126,60 127,30 133,129 136,10
137,20 138,289 139,359 140,80
141,10 149,20 150,80 151,449
152,709 153,429 154,80 155,10
163,10 164,20 165,80 166,90
167,149 168,60 177,40 178,1259
179,469 180,399 181,139 182,20
192,10 193,40 194,299 195,899
196,259 197,30 205,10 209,80
210,20 221,50 222,1519 223,1159
224,1129 225,159 226,10 237,30
238,159 239,20 249,50 265,80
266,9999 267,1629 268,209 269,20
##END=
