##TITLE=Pyrrole, 4-ethyl-2-methyl-
##JCAMP-DX=4.24
##DATA TYPE=MASS SPECTRUM
##ORIGIN=D. GAMES, M. HEWLINS, A. JACKSON, CHEM DEPT, UNIV COLL, CARDIFF, U.K.
##OWNER=NIST Mass Spectrometry Data Center
Collection (C) 2014 copyright by the U.S. Secretary of Commerce
on behalf of the United States of America. All rights reserved.
##CAS REGISTRY NO=5690-96-0
##$NIST MASS SPEC NO=51946
##MOLFORM=C7 H11 N
##MW=109
##$NIST SOURCE=MSDC
##XUNITS=M/Z
##YUNITS=RELATIVE INTENSITY
##XFACTOR=1
##YFACTOR=1
##FIRSTX=47
##LASTX=110
##FIRSTY=159
##MAXX=110
##MINX=47
##MAXY=9999
##MINY=91
##NPOINTS=23
##PEAK TABLE=(XY..XY)
47,159 51,136 52,210 53,1059
54,227 65,376 66,290 67,1207
68,91 77,461 78,153 79,302
80,410 81,205 92,136 93,1105
94,9999 95,495 106,307 107,193
108,831 109,5213 110,427
##END=
