##TITLE=3-Methyl-2-butenoic acid, propyl ester
##JCAMP-DX=4.24
##DATA TYPE=MASS SPECTRUM
##ORIGIN=V.G.Zaikin,TIPS,Russian Acad.Sci.Moscow
##OWNER=NIST Mass Spectrometry Data Center
Collection (C) 2014 copyright by the U.S. Secretary of Commerce
on behalf of the United States of America. All rights reserved.
##CAS REGISTRY NO=56922-71-5
##$NIST MASS SPEC NO=280132
##MOLFORM=C8 H14 O2
##MW=142
##$NIST SOURCE=MSDC
##XUNITS=M/Z
##YUNITS=RELATIVE INTENSITY
##XFACTOR=1
##YFACTOR=1
##FIRSTX=25
##LASTX=143
##FIRSTY=120
##MAXX=143
##MINX=25
##MAXY=9999
##MINY=10
##NPOINTS=56
##PEAK TABLE=(XY..XY)
25,120 26,1031 27,5055 28,440
29,5015 30,130 31,290 35,110
36,751 37,410 38,981 39,5475
40,791 41,2823 42,721 43,2873
44,350 45,390 46,20 48,20
49,290 50,1091 51,1581 52,2442
53,1651 54,1161 55,5385 56,510
57,290 58,130 59,490 60,130
61,10 62,20 66,60 67,260
68,20 69,140 71,40 72,60
77,60 78,280 79,1812 80,110
82,2452 83,9999 84,651 85,1481
86,20 100,5535 101,951 102,20
113,20 127,20 142,991 143,120
##END=
