##TITLE=2-Butenoic acid, 3-methyl-, 3-methylbutyl ester
##JCAMP-DX=4.24
##DATA TYPE=MASS SPECTRUM
##ORIGIN=V.G.Zaikin, TIPS RAS, Moscow, Russia
##OWNER=NIST Mass Spectrometry Data Center
Collection (C) 2014 copyright by the U.S. Secretary of Commerce
on behalf of the United States of America. All rights reserved.
##CAS REGISTRY NO=56922-73-7
##$NIST MASS SPEC NO=279222
##MOLFORM=C10 H18 O2
##MW=170
##$NIST SOURCE=MSDC
##XUNITS=M/Z
##YUNITS=RELATIVE INTENSITY
##XFACTOR=1
##YFACTOR=1
##FIRSTX=26
##LASTX=172
##FIRSTY=280
##MAXX=172
##MINX=26
##MAXY=9999
##MINY=10
##NPOINTS=46
##PEAK TABLE=(XY..XY)
26,280 27,2052 28,530 29,2182
30,130 31,130 37,170 38,310
39,2482 40,480 41,1812 42,651
43,2692 44,611 45,230 49,60
50,330 51,480 52,190 53,971
54,390 55,3493 56,370 57,210
59,180 67,290 69,230 70,1561
71,1471 72,80 74,60 79,120
82,1081 83,9999 84,591 85,561
86,70 91,70 92,70 100,3293
101,1682 102,70 113,90 170,440
171,70 172,10
##END=
