##TITLE=2-Hexen-1-ol, acetate, (Z)-
##JCAMP-DX=4.24
##DATA TYPE=MASS SPECTRUM
##ORIGIN=NIST Mass Spectrometry Data Center
##OWNER=NIST Mass Spectrometry Data Center
Collection (C) 2014 copyright by the U.S. Secretary of Commerce
on behalf of the United States of America. All rights reserved.
##CAS REGISTRY NO=56922-75-9
##$NIST MASS SPEC NO=352737
##MOLFORM=C8 H14 O2
##MW=142
##$NIST SOURCE=MSDC
##XUNITS=M/Z
##YUNITS=RELATIVE INTENSITY
##XFACTOR=1
##YFACTOR=1
##FIRSTX=14
##LASTX=142
##FIRSTY=20
##MAXX=142
##MINX=14
##MAXY=9999
##MINY=10
##NPOINTS=65
##PEAK TABLE=(XY..XY)
14,20 15,190 26,70 27,811
28,200 29,631 30,20 31,60
37,20 38,80 39,1391 40,210
41,2062 42,490 43,9999 44,350
45,90 50,90 51,180 52,110
53,651 54,1021 55,1682 56,641
57,1511 58,250 59,40 60,10
61,290 62,20 63,40 64,10
65,240 66,100 67,5145 68,310
69,150 70,90 71,941 72,380
73,70 74,10 77,80 78,20
79,210 80,40 81,661 82,3763
83,550 84,40 85,130 86,80
87,80 95,10 97,20 98,100
99,851 100,2382 101,180 102,10
109,10 113,200 114,40 127,30
142,40
##END=
