##TITLE=m-Methoxybenzoic acid, octadecyl ester
##JCAMP-DX=4.24
##DATA TYPE=MASS SPECTRUM
##ORIGIN=Zaikin V.G., TIPS RAS, Moscow, Russia
##OWNER=NIST Mass Spectrometry Data Center
Collection (C) 2014 copyright by the U.S. Secretary of Commerce
on behalf of the United States of America. All rights reserved.
##CAS REGISTRY NO=56954-76-8
##$NIST MASS SPEC NO=292374
##MOLFORM=C26 H44 O3
##MW=404
##$NIST SOURCE=MSDC
##XUNITS=M/Z
##YUNITS=RELATIVE INTENSITY
##XFACTOR=1
##YFACTOR=1
##FIRSTX=26
##LASTX=408
##FIRSTY=10
##MAXX=408
##MINX=26
##MAXY=9999
##MINY=10
##NPOINTS=113
##PEAK TABLE=(XY..XY)
26,10 27,40 29,70 31,20
35,10 36,80 38,40 39,50
40,20 41,180 42,40 43,260
44,260 45,10 50,40 51,20
52,10 53,20 54,40 55,320
56,90 57,220 58,10 62,10
63,50 64,60 65,50 66,10
67,90 68,70 69,260 70,80
71,90 73,40 74,10 75,20
76,40 77,280 78,50 79,60
80,10 81,90 82,90 83,220
84,60 85,60 91,30 92,190
93,50 94,90 95,60 96,150
97,170 98,40 99,10 103,10
104,20 105,80 106,20 107,470
108,110 109,370 110,60 111,80
112,20 113,10 115,10 119,30
120,20 121,70 122,40 123,20
124,10 125,40 126,10 133,70
134,10 135,2062 136,350 137,70
138,30 139,10 147,10 150,20
151,60 152,9999 153,3523 154,540
155,60 156,10 163,10 165,60
166,10 176,10 177,10 179,30
180,10 191,50 192,10 193,40
194,20 210,10 221,10 249,10
251,10 265,10 267,30 341,10
355,20 376,10 404,2472 406,901
408,10
##END=
