##TITLE=p-Methoxybenzoic acid, octadecyl ester
##JCAMP-DX=4.24
##DATA TYPE=MASS SPECTRUM
##ORIGIN=Zaikin V.G., TIPS RAS, Moscow, Russia
##OWNER=NIST Mass Spectrometry Data Center
Collection (C) 2014 copyright by the U.S. Secretary of Commerce
on behalf of the United States of America. All rights reserved.
##CAS REGISTRY NO=56954-78-0
##$NIST MASS SPEC NO=292420
##MOLFORM=C26 H44 O3
##MW=404
##$NIST SOURCE=MSDC
##XUNITS=M/Z
##YUNITS=RELATIVE INTENSITY
##XFACTOR=1
##YFACTOR=1
##FIRSTX=26
##LASTX=406
##FIRSTY=10
##MAXX=406
##MINX=26
##MAXY=9999
##MINY=10
##NPOINTS=64
##PEAK TABLE=(XY..XY)
26,10 27,30 29,70 36,10
38,10 39,30 40,10 41,210
42,50 43,320 44,30 53,10
54,40 55,320 56,90 57,220
63,10 64,30 65,10 67,70
68,60 69,210 70,70 71,80
76,10 77,150 78,20 79,20
81,40 82,60 83,160 84,40
85,40 92,110 93,10 94,10
95,20 96,30 97,110 98,20
104,10 105,10 107,90 108,20
109,80 110,10 111,40 112,10
121,30 125,10 135,1872 136,200
137,20 138,10 139,10 152,9999
153,2943 154,270 155,20 165,20
387,30 404,320 405,90 406,10
##END=
