##TITLE=Benzaldehyde, 2-chloro-4-hydroxy-
##JCAMP-DX=4.24
##DATA TYPE=MASS SPECTRUM
##ORIGIN=Chuck Anderson, Aldrich Chemical Co.
##OWNER=NIST Mass Spectrometry Data Center
Collection (C) 2014 copyright by the U.S. Secretary of Commerce
on behalf of the United States of America. All rights reserved.
##CAS REGISTRY NO=56962-11-9
##$NIST MASS SPEC NO=117811
##MOLFORM=C7 H5 Cl O2
##MW=156
##$NIST SOURCE=MSDC
##XUNITS=M/Z
##YUNITS=RELATIVE INTENSITY
##XFACTOR=1
##YFACTOR=1
##FIRSTX=18
##LASTX=159
##FIRSTY=24
##MAXX=159
##MINX=18
##MAXY=9999
##MINY=10
##NPOINTS=64
##PEAK TABLE=(XY..XY)
18,24 25,21 26,103 27,96
28,155 29,519 31,126 32,108
35,20 36,166 37,413 38,550
39,814 40,21 42,51 43,20
46,102 47,22 48,10 49,211
50,382 51,233 53,519 55,57
60,152 61,580 62,1047 63,2446
64,1034 65,1043 66,220 67,24
72,106 73,1100 74,404 75,523
76,21 77,53 84,58 85,44
86,10 87,55 89,50 90,40
91,75 92,585 93,121 97,41
98,22 99,2006 100,176 101,673
102,40 120,65 126,90 127,1601
128,316 129,536 130,88 155,9999
156,6196 157,3573 158,2042 159,144
##END=
