##TITLE=4-Biphenylamine, 3-methoxy-
##JCAMP-DX=4.24
##DATA TYPE=MASS SPECTRUM
##ORIGIN=NIST Mass Spectrometry Data Center, 1994
##OWNER=NIST Mass Spectrometry Data Center
Collection (C) 2014 copyright by the U.S. Secretary of Commerce
on behalf of the United States of America. All rights reserved.
##CAS REGISTRY NO=56970-24-2
##$NIST MASS SPEC NO=135037
##MOLFORM=C13 H13 N O
##MW=199
##$NIST SOURCE=MSDC
##XUNITS=M/Z
##YUNITS=RELATIVE INTENSITY
##XFACTOR=1
##YFACTOR=1
##FIRSTX=14
##LASTX=201
##FIRSTY=54
##MAXX=201
##MINX=14
##MAXY=9999
##MINY=10
##NPOINTS=119
##PEAK TABLE=(XY..XY)
14,54 15,74 18,44 26,36
27,186 28,411 29,77 30,53
31,35 32,10 37,20 38,103
39,430 40,95 41,221 42,95
43,45 44,23 50,250 51,581
52,345 53,134 54,229 55,65
56,25 58,54 59,63 61,42
62,220 63,573 64,281 65,552
66,84 67,36 68,109 70,180
72,275 73,29 74,174 75,253
76,330 77,756 78,469 79,78
80,69 84,380 86,173 87,171
88,136 89,369 90,159 91,1030
93,53 94,32 99,349 100,393
101,142 102,388 103,187 104,108
105,34 106,101 109,15 110,23
111,38 112,32 113,175 114,158
115,716 116,232 117,105 118,22
120,22 122,51 126,194 127,721
128,1368 129,558 130,245 131,33
133,79 134,80 137,34 139,595
140,228 141,179 142,57 143,78
144,37 146,39 147,21 150,39
151,85 152,157 153,261 154,489
155,21 156,3841 157,496 158,40
164,23 165,72 166,520 167,480
168,323 169,172 170,367 171,189
172,87 180,94 181,119 182,183
183,736 184,1217 185,178 196,71
199,9999 200,1460 201,113
##END=
