##TITLE=p-Toluenesulfonylacetonitrile
##JCAMP-DX=4.24
##DATA TYPE=MASS SPECTRUM
##ORIGIN=NIST Mass Spectrometry Data Center
##OWNER=NIST Mass Spectrometry Data Center
Collection (C) 2014 copyright by the U.S. Secretary of Commerce
on behalf of the United States of America. All rights reserved.
##CAS REGISTRY NO=5697-44-9
##$NIST MASS SPEC NO=343264
##MOLFORM=C9 H9 N O2 S
##MW=195
##$NIST SOURCE=MSDC
##XUNITS=M/Z
##YUNITS=RELATIVE INTENSITY
##XFACTOR=1
##YFACTOR=1
##FIRSTX=12
##LASTX=196
##FIRSTY=70
##MAXX=196
##MINX=12
##MAXY=9999
##MINY=10
##NPOINTS=41
##PEAK TABLE=(XY..XY)
12,70 13,90 16,80 17,90
26,70 27,320 28,130 32,10
38,300 39,1641 40,781 41,470
44,120 45,180 48,210 50,490
51,591 52,230 53,120 61,150
62,490 63,1161 64,440 65,3453
66,220 69,170 74,140 75,110
77,410 78,140 85,100 86,90
89,921 91,9999 92,831 139,130
155,3944 156,370 157,190 195,480
196,70
##END=
