##TITLE=13-Methyltritriacontane
##JCAMP-DX=4.24
##DATA TYPE=MASS SPECTRUM
##ORIGIN=J. Klune, Insect Chem. Ecol. Lab., USDA, Beltsville, MD 20705
##OWNER=NIST Mass Spectrometry Data Center
Collection (C) 2014 copyright by the U.S. Secretary of Commerce
on behalf of the United States of America. All rights reserved.
##CAS REGISTRY NO=56987-76-9
##$NIST MASS SPEC NO=131201
##MOLFORM=C34 H70
##MW=478
##$NIST SOURCE=MSDC
##XUNITS=M/Z
##YUNITS=RELATIVE INTENSITY
##XFACTOR=1
##YFACTOR=1
##FIRSTX=41
##LASTX=479
##FIRSTY=2177
##MAXX=479
##MINX=41
##MAXY=9999
##MINY=46
##NPOINTS=141
##PEAK TABLE=(XY..XY)
41,2177 42,840 43,6741 44,259
47,118 48,68 49,411 51,102
53,134 55,3730 56,2115 57,9999
58,432 67,773 68,733 69,3037
70,1653 71,6407 72,387 79,221
80,146 81,862 82,980 83,2536
84,1070 85,4194 86,357 93,158
94,124 95,758 96,831 97,2518
98,604 99,1573 100,151 107,122
108,57 109,460 110,419 111,1493
112,446 113,1092 114,123 119,60
121,133 123,312 124,299 125,830
126,327 127,834 131,118 135,133
137,239 138,237 139,438 140,268
141,613 149,122 151,161 152,179
153,276 154,226 155,429 163,96
165,124 166,132 167,222 168,890
169,444 177,46 179,97 180,108
181,126 182,171 183,242 191,128
193,118 194,214 195,292 196,5384
197,2391 198,307 207,47 208,111
209,103 210,356 211,303 219,257
224,175 225,252 227,58 238,123
239,200 241,55 252,147 253,153
264,143 266,107 267,119 278,206
280,922 281,392 282,49 283,62
294,110 295,274 297,345 306,124
307,61 308,3066 309,2380 310,501
322,211 323,162 324,50 336,144
337,139 350,100 351,68 352,80
364,102 365,144 379,112 392,48
393,50 394,81 406,116 407,136
420,60 421,156 434,47 435,154
448,108 449,261 463,346 464,62
465,81 476,93 477,101 478,195
479,54
##END=
