##TITLE=15,19-Dimethylpentatriacontane
##JCAMP-DX=4.24
##DATA TYPE=MASS SPECTRUM
##ORIGIN=J. Klune, Insect Chem. Ecol. Lab., USDA, Beltsville, MD 20705
##OWNER=NIST Mass Spectrometry Data Center
Collection (C) 2014 copyright by the U.S. Secretary of Commerce
on behalf of the United States of America. All rights reserved.
##CAS REGISTRY NO=56987-86-1
##$NIST MASS SPEC NO=131208
##MOLFORM=C37 H76
##MW=520
##$NIST SOURCE=MSDC
##XUNITS=M/Z
##YUNITS=RELATIVE INTENSITY
##XFACTOR=1
##YFACTOR=1
##FIRSTX=41
##LASTX=522
##FIRSTY=2799
##MAXX=522
##MINX=41
##MAXY=9999
##MINY=2
##NPOINTS=204
##PEAK TABLE=(XY..XY)
41,2799 42,1160 43,7481 44,269
45,6 47,3 49,26 50,5
51,18 52,4 53,128 54,126
55,4047 56,2878 57,9999 58,136
59,10 61,2 65,20 66,14
67,423 68,523 69,2815 70,1997
71,7333 72,435 73,12 77,15
79,54 80,22 81,312 82,617
83,2071 84,1033 85,5862 86,377
87,11 91,14 93,15 94,11
95,195 96,836 97,2320 98,640
99,2114 100,141 101,5 105,11
107,5 108,3 109,78 110,247
111,1104 112,651 113,1463 114,112
115,3 119,7 121,3 122,2
123,41 124,144 125,547 126,273
127,935 128,77 129,2 133,3
135,2 136,2 137,23 138,106
139,249 140,152 141,708 142,72
149,3 151,11 152,76 153,148
154,119 155,540 156,61 157,2
165,3 166,54 167,106 168,95
169,419 170,51 171,3 180,43
181,71 182,102 183,310 184,41
185,2 189,3 191,3 194,35
195,36 196,653 197,358 198,47
208,30 209,36 210,121 211,195
212,30 222,155 223,267 224,4476
225,1960 226,263 227,24 236,21
237,33 238,366 239,252 240,42
242,2 250,119 251,192 252,2434
253,1210 254,186 255,14 264,17
265,24 266,853 267,578 268,95
269,10 278,10 279,11 280,97
281,95 282,19 292,9 293,6
294,2106 295,2989 296,618 297,67
298,3 307,2 308,70 309,94
310,20 320,2 322,1479 323,2402
324,532 325,65 326,3 336,56
337,82 338,20 350,47 351,79
352,22 364,31 365,55 366,16
378,31 379,58 380,17 392,28
393,53 394,14 406,24 407,59
408,18 420,30 421,57 422,26
423,3 434,23 435,47 436,17
448,31 449,77 450,26 462,18
463,50 464,16 476,22 477,74
478,28 479,2 490,37 491,165
492,64 493,9 494,5 504,18
505,226 506,89 507,16 518,30
519,29 520,93 521,36 522,7
##END=
