##TITLE=2-Oxonanone
##JCAMP-DX=4.24
##DATA TYPE=MASS SPECTRUM
##ORIGIN=CARL DJERASSI DEPT OF CHEM STANFORD UNIV STANFORD CALIF 94305
##OWNER=NIST Mass Spectrometry Data Center
Collection (C) 2014 copyright by the U.S. Secretary of Commerce
on behalf of the United States of America. All rights reserved.
##CAS REGISTRY NO=5698-29-3
##$NIST MASS SPEC NO=46617
##MOLFORM=C8 H14 O2
##MW=142
##$NIST SOURCE=MSDC
##XUNITS=M/Z
##YUNITS=RELATIVE INTENSITY
##XFACTOR=1
##YFACTOR=1
##FIRSTX=40
##LASTX=126
##FIRSTY=700
##MAXX=126
##MINX=40
##MAXY=9999
##MINY=100
##NPOINTS=43
##PEAK TABLE=(XY..XY)
40,700 41,7800 42,5200 43,2700
44,400 45,100 53,500 54,1400
55,9999 56,3900 57,1300 58,200
59,3900 60,500 67,2100 68,5900
69,2800 70,2500 71,400 73,300
79,200 80,300 81,600 82,1600
83,1700 84,2800 85,300 86,100
87,100 94,400 95,500 96,1900
97,900 98,600 99,4100 100,400
112,800 113,600 114,100 123,100
124,800 125,100 126,100
##END=
