##TITLE=13,17-Dimethylhentriacontane
##JCAMP-DX=4.24
##DATA TYPE=MASS SPECTRUM
##ORIGIN=J. Klune, Insect Chem. Ecol. Lab., USDA, Beltsville, MD 20705
##OWNER=NIST Mass Spectrometry Data Center
Collection (C) 2014 copyright by the U.S. Secretary of Commerce
on behalf of the United States of America. All rights reserved.
##CAS REGISTRY NO=56987-75-8
##$NIST MASS SPEC NO=131193
##MOLFORM=C33 H68
##MW=464
##$NIST SOURCE=MSDC
##XUNITS=M/Z
##YUNITS=RELATIVE INTENSITY
##XFACTOR=1
##YFACTOR=1
##FIRSTX=41
##LASTX=466
##FIRSTY=3071
##MAXX=466
##MINX=41
##MAXY=9999
##MINY=3
##NPOINTS=169
##PEAK TABLE=(XY..XY)
41,3071 42,1207 43,8280 44,268
49,3 51,3 53,116 54,258
55,3288 56,2518 57,9999 58,536
59,8 65,19 66,26 67,325
68,379 69,2145 70,1836 71,8323
72,494 73,11 77,11 79,42
80,24 81,224 82,571 83,1747
84,1092 85,7009 86,443 87,11
91,7 93,11 94,7 95,128
96,1294 97,2528 98,794 99,2908
100,202 101,6 105,4 109,50
110,304 111,1200 112,932 113,2187
114,173 115,7 123,26 124,182
125,688 126,337 127,1481 128,126
133,3 137,17 138,130 139,339
140,224 141,1118 142,118 147,3
151,6 152,101 153,195 154,223
155,798 156,90 157,3 166,62
167,139 168,985 169,716 170,88
171,3 180,44 181,75 182,165
183,429 184,54 194,221 195,464
196,6952 197,3150 198,382 199,27
208,30 209,59 210,447 211,388
212,55 222,195 223,363 224,4545
225,2219 226,323 227,26 236,21
237,42 238,1349 239,1097 240,179
241,18 250,4 251,17 252,104
253,130 254,25 264,10 265,20
266,3167 267,5248 268,1060 269,99
278,4 279,4 280,75 281,128
282,27 294,2145 295,4119 296,889
297,97 298,7 308,68 309,127
310,27 322,67 323,124 324,29
336,47 337,82 338,21 350,56
351,107 352,29 364,54 365,99
366,25 378,46 379,89 380,26
392,62 393,144 394,42 395,3
400,8 406,34 407,97 408,29
420,39 421,136 422,43 423,7
434,69 435,298 436,98 437,15
448,35 449,446 450,154 451,25
462,30 463,83 464,239 465,80
466,12
##END=
