##TITLE=11,15-Dimethylheptatriacontane
##JCAMP-DX=4.24
##DATA TYPE=MASS SPECTRUM
##ORIGIN=J. Klune, Insect Chem. Ecol. Lab., USDA, Beltsville, MD 20705
##OWNER=NIST Mass Spectrometry Data Center
Collection (C) 2014 copyright by the U.S. Secretary of Commerce
on behalf of the United States of America. All rights reserved.
##CAS REGISTRY NO=56987-89-4
##$NIST MASS SPEC NO=131306
##MOLFORM=C39 H80
##MW=548
##$NIST SOURCE=MSDC
##XUNITS=M/Z
##YUNITS=RELATIVE INTENSITY
##XFACTOR=1
##YFACTOR=1
##FIRSTX=41
##LASTX=549
##FIRSTY=1636
##MAXX=549
##MINX=41
##MAXY=9999
##MINY=6
##NPOINTS=174
##PEAK TABLE=(XY..XY)
41,1636 42,643 43,6106 44,196
47,14 49,60 51,26 53,71
54,205 55,2593 56,1925 57,9999
58,405 65,13 66,25 67,315
68,366 69,2209 70,1428 71,6637
72,314 73,6 79,43 80,24
81,252 82,422 83,1720 84,794
85,4741 86,316 87,6 91,26
93,13 94,6 95,166 96,491
97,1701 98,689 99,1431 100,106
105,26 109,83 110,162 111,860
112,450 113,867 114,79 123,47
124,93 125,399 126,552 127,647
128,53 133,14 137,25 138,62
139,155 140,527 141,449 142,45
147,6 149,16 152,38 153,82
154,104 155,291 156,33 166,117
167,228 168,2967 169,991 170,101
180,29 181,51 182,218 183,232
184,35 194,24 195,29 196,68
197,140 198,23 208,26 209,33
210,403 211,339 212,51 222,22
223,23 224,41 225,98 226,14
236,23 237,14 238,1264 239,1975
240,349 241,31 250,21 251,12
252,50 253,99 254,24 264,13
266,34 267,76 268,22 280,34
281,68 282,14 292,6 294,46
295,60 296,7 308,275 309,154
310,32 322,71 323,76 324,14
334,61 335,71 336,1210 337,955
338,217 339,25 350,118 351,80
352,23 364,114 365,131 366,35
378,255 379,293 380,76 392,31
393,54 394,22 406,525 407,1293
408,386 409,64 420,34 421,73
422,24 434,37 435,72 436,33
448,33 449,67 450,27 462,22
463,68 464,27 476,28 477,65
478,36 490,6 491,45 492,20
505,58 506,15 507,9 518,30
519,137 520,54 532,6 533,185
534,84 535,13 546,8 547,21
548,58 549,26
##END=
