##TITLE=Hydrazine, 1,1-dimethyl-
##JCAMP-DX=4.24
##DATA TYPE=MASS SPECTRUM
##ORIGIN=Japan AIST/NIMC Database- Spectrum MS-NW-1126
##OWNER=NIST Mass Spectrometry Data Center
Collection (C) 2014 copyright by the U.S. Secretary of Commerce
on behalf of the United States of America. All rights reserved.
##CAS REGISTRY NO=57-14-7
##$NIST MASS SPEC NO=229632
##MOLFORM=C2 H8 N2
##MW=60
##$NIST SOURCE=MSDC
##XUNITS=M/Z
##YUNITS=RELATIVE INTENSITY
##XFACTOR=1
##YFACTOR=1
##FIRSTX=12
##LASTX=61
##FIRSTY=10
##MAXX=61
##MINX=12
##MAXY=9999
##MINY=10
##NPOINTS=31
##PEAK TABLE=(XY..XY)
12,10 13,80 14,369 15,2669
16,419 17,249 18,3509 19,10
26,40 27,299 28,3009 29,729
30,2989 31,299 32,50 38,50
39,99 40,319 41,419 42,7309
43,2419 44,1259 45,4769 46,119
55,30 56,30 57,559 58,379
59,4679 60,9999 61,279
##END=
