##TITLE=Strychnine
##JCAMP-DX=4.24
##DATA TYPE=MASS SPECTRUM
##ORIGIN=Japan AIST/NIMC Database- Spectrum MS-NW-5950
##OWNER=NIST Mass Spectrometry Data Center
Collection (C) 2014 copyright by the U.S. Secretary of Commerce
on behalf of the United States of America. All rights reserved.
##CAS REGISTRY NO=57-24-9
##$NIST MASS SPEC NO=232994
##MOLFORM=C21 H22 N2 O2
##MW=334
##$NIST SOURCE=MSDC
##XUNITS=M/Z
##YUNITS=RELATIVE INTENSITY
##XFACTOR=1
##YFACTOR=1
##FIRSTX=15
##LASTX=337
##FIRSTY=119
##MAXX=337
##MINX=15
##MAXY=9999
##MINY=10
##NPOINTS=277
##PEAK TABLE=(XY..XY)
15,119 17,10 18,40 26,20
27,299 28,339 29,90 30,199
31,30 39,449 40,70 41,659
42,569 43,259 44,169 45,10
50,50 51,289 52,149 53,369
54,259 55,959 56,559 57,99
58,80 59,10 62,30 63,169
64,80 65,279 66,129 67,219
68,299 69,229 70,189 71,70
72,20 74,40 75,119 76,109
77,699 78,239 79,679 80,459
81,239 82,249 83,70 84,40
85,20 86,20 87,30 88,50
89,179 90,109 91,519 92,179
93,399 94,629 95,219 96,139
97,379 98,70 99,60 100,20
101,99 102,189 103,189 104,99
105,329 106,359 107,1229 108,669
109,279 110,70 111,30 112,50
113,50 114,70 115,519 116,189
117,359 118,309 119,609 120,1489
121,789 122,389 123,70 124,60
125,40 126,60 127,149 128,249
129,359 130,1049 131,299 132,429
133,339 134,839 135,429 136,569
137,219 138,299 139,119 140,109
141,90 142,189 143,1009 144,969
145,179 146,209 147,259 148,149
149,60 150,90 151,60 152,109
153,60 154,259 155,139 156,239
157,109 158,169 159,60 160,70
161,1049 162,1409 163,709 164,99
165,60 166,139 167,559 168,429
169,149 170,109 171,119 172,309
173,80 174,60 175,249 176,99
177,50 178,80 179,70 180,279
181,159 182,179 183,169 184,189
185,119 186,109 187,30 188,20
189,20 190,50 191,109 192,109
193,139 194,169 195,80 196,189
197,129 198,90 199,40 200,20
201,50 202,40 203,30 204,139
205,109 206,159 207,99 208,139
209,139 210,119 211,60 212,70
213,20 214,50 215,20 216,30
217,80 218,119 219,90 220,249
221,159 222,119 223,129 224,40
225,30 226,20 227,20 228,30
229,20 230,30 231,30 232,90
233,219 234,149 235,119 236,109
237,60 238,50 239,30 240,99
241,30 242,10 243,10 244,20
245,30 246,70 247,80 248,90
249,149 250,60 251,50 252,30
253,20 254,20 256,10 257,10
258,30 259,50 260,60 261,109
262,90 263,239 264,129 265,109
266,40 267,10 270,10 271,10
272,20 273,40 274,60 275,90
276,99 277,209 278,90 279,179
280,70 281,20 282,10 284,10
285,10 286,10 287,40 288,50
289,80 290,60 291,189 292,159
293,50 294,10 301,10 302,10
303,99 304,179 305,329 306,359
307,99 308,10 315,20 316,20
317,50 318,40 319,389 320,80
321,20 322,10 330,10 332,99
333,799 334,9999 335,2419 336,359
337,60
##END=
