##TITLE=Phenytoin
##JCAMP-DX=4.24
##DATA TYPE=MASS SPECTRUM
##ORIGIN=NIST Mass Spectrometry Data Center, 1998.
##OWNER=NIST Mass Spectrometry Data Center
Collection (C) 2014 copyright by the U.S. Secretary of Commerce
on behalf of the United States of America. All rights reserved.
##CAS REGISTRY NO=57-41-0
##$NIST MASS SPEC NO=290661
##MOLFORM=C15 H12 N2 O2
##MW=252
##$NIST SOURCE=MSDC
##XUNITS=M/Z
##YUNITS=RELATIVE INTENSITY
##XFACTOR=1
##YFACTOR=1
##FIRSTX=26
##LASTX=254
##FIRSTY=10
##MAXX=254
##MINX=26
##MAXY=9999
##MINY=10
##NPOINTS=122
##PEAK TABLE=(XY..XY)
26,10 27,100 29,10 37,20
38,60 39,310 40,20 42,10
43,60 44,110 49,20 50,610
51,2200 52,390 53,40 56,10
61,30 62,140 63,380 64,90
65,80 66,10 70,340 73,20
74,250 75,300 76,820 77,4570
78,1240 79,90 82,1000 85,10
86,90 87,150 88,90 89,220
90,550 92,30 93,60 98,40
99,50 100,40 101,60 102,170
103,350 104,6139 105,700 106,40
110,20 111,50 112,20 113,120
114,70 115,240 116,20 117,30
118,30 119,20 120,10 121,20
125,30 126,170 127,120 128,60
129,20 130,210 131,20 132,110
133,10 137,50 138,50 139,400
140,90 141,20 145,80 146,30
147,980 148,100 149,10 150,90
151,230 152,570 153,230 154,80
155,10 156,10 162,30 163,390
164,510 165,2760 166,560 167,60
175,360 176,40 177,60 178,110
179,180 180,9999 181,2020 182,190
183,10 190,10 191,10 192,10
193,20 194,10 195,10 205,50
206,50 207,30 208,1420 209,3430
210,540 211,50 221,20 222,10
223,3720 224,710 225,70 252,2800
253,490 254,50
##END=
