##TITLE=Amobarbital
##JCAMP-DX=4.24
##DATA TYPE=MASS SPECTRUM
##ORIGIN=Virginia Division of Forensic Science
##OWNER=NIST Mass Spectrometry Data Center
Collection (C) 2014 copyright by the U.S. Secretary of Commerce
on behalf of the United States of America. All rights reserved.
##CAS REGISTRY NO=57-43-2
##$NIST MASS SPEC NO=250567
##MOLFORM=C11 H18 N2 O3
##MW=226
##$NIST SOURCE=MSDC
##XUNITS=M/Z
##YUNITS=RELATIVE INTENSITY
##XFACTOR=1
##YFACTOR=1
##FIRSTX=15
##LASTX=227
##FIRSTY=60
##MAXX=227
##MINX=15
##MAXY=9999
##MINY=10
##NPOINTS=143
##PEAK TABLE=(XY..XY)
15,60 16,10 19,10 26,70
27,690 28,160 29,630 30,30
33,10 37,10 39,830 40,210
41,1791 42,310 43,1020 44,450
45,20 46,10 47,10 48,10
49,10 50,20 51,80 52,80
53,430 54,310 55,1441 56,300
57,250 58,10 59,10 60,10
61,20 62,10 63,20 64,10
65,90 66,80 67,240 68,150
69,730 70,520 71,240 72,20
73,10 74,10 75,10 77,80
78,20 79,80 80,220 81,110
82,80 83,280 84,90 85,180
86,60 87,20 88,10 89,10
91,20 92,20 93,40 94,170
95,120 96,110 97,370 98,880
99,60 100,30 101,10 102,10
104,10 105,10 106,10 107,10
108,20 109,40 110,40 112,680
113,120 114,170 115,10 116,10
119,10 120,10 121,10 122,20
123,40 124,30 125,20 126,80
127,40 128,60 129,120 130,10
131,10 135,10 136,10 137,10
138,30 141,8007 142,1381 143,130
144,10 148,10 149,10 150,10
151,10 152,10 153,50 156,9999
157,3102 158,280 159,20 160,10
163,10 165,10 166,10 167,10
168,10 169,20 170,10 171,10
179,10 181,110 183,660 184,60
185,20 186,10 193,10 195,10
197,990 198,470 199,50 200,10
209,10 211,70 212,10 213,10
225,10 226,10 227,10
##END=
