##TITLE=Hydrazinecarboxamide
##JCAMP-DX=4.24
##DATA TYPE=MASS SPECTRUM
##ORIGIN=Japan AIST/NIMC Database- Spectrum MS-NW- 332
##OWNER=NIST Mass Spectrometry Data Center
Collection (C) 2014 copyright by the U.S. Secretary of Commerce
on behalf of the United States of America. All rights reserved.
##CAS REGISTRY NO=57-56-7
##$NIST MASS SPEC NO=228503
##MOLFORM=C H5 N3 O
##MW=75
##$NIST SOURCE=MSDC
##XUNITS=M/Z
##YUNITS=RELATIVE INTENSITY
##XFACTOR=1
##YFACTOR=1
##FIRSTX=15
##LASTX=75
##FIRSTY=20
##MAXX=75
##MINX=15
##MAXY=9999
##MINY=20
##NPOINTS=17
##PEAK TABLE=(XY..XY)
15,20 16,249 17,229 18,90
27,60 28,209 29,559 30,369
31,2929 32,9999 33,70 41,30
42,80 43,329 44,2579 45,50
75,209
##END=
