##TITLE=Meprobamate
##JCAMP-DX=4.24
##DATA TYPE=MASS SPECTRUM
##ORIGIN=Virginia Division of Forensic Science
##OWNER=NIST Mass Spectrometry Data Center
Collection (C) 2014 copyright by the U.S. Secretary of Commerce
on behalf of the United States of America. All rights reserved.
##CAS REGISTRY NO=57-53-4
##$NIST MASS SPEC NO=250606
##MOLFORM=C9 H18 N2 O4
##MW=218
##$NIST SOURCE=MSDC
##XUNITS=M/Z
##YUNITS=RELATIVE INTENSITY
##XFACTOR=1
##YFACTOR=1
##FIRSTX=15
##LASTX=175
##FIRSTY=110
##MAXX=175
##MINX=15
##MAXY=9999
##MINY=10
##NPOINTS=88
##PEAK TABLE=(XY..XY)
15,110 16,220 17,110 18,130
19,20 26,110 27,1491 28,270
29,2081 30,170 31,1721 32,10
33,10 37,20 39,1911 40,340
41,4163 42,860 43,2972 44,6355
45,1651 46,350 47,30 50,40
51,160 52,80 53,830 55,6635
56,2892 57,1691 58,470 59,1101
62,3543 63,100 64,20 65,200
66,90 67,960 68,410 69,1481
71,4464 72,1131 73,110 74,370
75,2161 76,140 77,100 78,10
79,260 81,2081 83,9999 84,3062
85,690 86,400 87,50 88,20
89,20 92,390 93,50 94,30
96,3072 97,330 98,40 99,300
100,270 101,1111 102,90 103,10
104,80 105,40 112,20 114,2552
115,540 116,30 128,10 131,20
132,70 135,140 136,30 142,20
144,2822 145,220 146,10 147,10
157,20 158,10 174,10 175,10
##END=
