##TITLE=Propylene Glycol
##JCAMP-DX=4.24
##DATA TYPE=MASS SPECTRUM
##ORIGIN=NIST Mass Spectrometry Data Center, 1998.
##OWNER=NIST Mass Spectrometry Data Center
Collection (C) 2014 copyright by the U.S. Secretary of Commerce
on behalf of the United States of America. All rights reserved.
##CAS REGISTRY NO=57-55-6
##$NIST MASS SPEC NO=291457
##MOLFORM=C3 H8 O2
##MW=76
##$NIST SOURCE=MSDC
##XUNITS=M/Z
##YUNITS=RELATIVE INTENSITY
##XFACTOR=1
##YFACTOR=1
##FIRSTX=14
##LASTX=76
##FIRSTY=20
##MAXX=76
##MINX=14
##MAXY=9999
##MINY=10
##NPOINTS=38
##PEAK TABLE=(XY..XY)
14,20 15,150 18,10 19,200
25,10 26,110 27,690 28,90
29,1040 30,100 31,990 32,40
33,110 36,10 37,40 38,60
39,170 40,30 41,200 42,300
43,1810 44,640 45,9999 46,270
47,40 53,20 54,10 55,70
56,10 57,260 58,70 59,40
60,30 61,600 62,10 73,10
75,20 76,40
##END=
