##TITLE=Propiolactone
##JCAMP-DX=4.24
##DATA TYPE=MASS SPECTRUM
##OWNER=NIST Mass Spectrometry Data Center
Collection (C) 2014 copyright by the U.S. Secretary of Commerce
on behalf of the United States of America. All rights reserved.
##CAS REGISTRY NO=57-57-8
##$NIST MASS SPEC NO=19145
##MOLFORM=C3 H4 O2
##MW=72
##$NIST SOURCE=MSDC
##XUNITS=M/Z
##YUNITS=RELATIVE INTENSITY
##XFACTOR=1
##YFACTOR=1
##FIRSTX=12
##LASTX=73
##FIRSTY=100
##MAXX=73
##MINX=12
##MAXY=9999
##MINY=20
##NPOINTS=26
##PEAK TABLE=(XY..XY)
12,100 13,300 14,1021 15,1591
16,40 24,60 25,290 26,1161
27,821 28,3733 29,1411 30,140
31,30 36,20 37,20 40,60
41,260 42,9999 43,3153 44,280
45,100 53,50 55,50 69,30
71,30 73,80
##END=
