##TITLE=Sulfaguanidine
##JCAMP-DX=4.24
##DATA TYPE=MASS SPECTRUM
##ORIGIN=Patti Price, Georgia Bureau of Investigation, Decatur, Georgia
##OWNER=NIST Mass Spectrometry Data Center
Collection (C) 2014 copyright by the U.S. Secretary of Commerce
on behalf of the United States of America. All rights reserved.
##CAS REGISTRY NO=57-67-0
##$NIST MASS SPEC NO=248704
##MOLFORM=C7 H10 N4 O2 S
##MW=214
##$NIST SOURCE=MSDC
##XUNITS=M/Z
##YUNITS=RELATIVE INTENSITY
##XFACTOR=1
##YFACTOR=1
##FIRSTX=40
##LASTX=217
##FIRSTY=120
##MAXX=217
##MINX=40
##MAXY=9999
##MINY=20
##NPOINTS=79
##PEAK TABLE=(XY..XY)
40,120 41,450 42,460 43,1931
44,200 45,60 46,70 48,120
50,160 51,190 52,610 53,420
54,220 58,310 59,40 60,60
61,90 62,340 63,1090 64,1000
65,6165 66,790 67,90 68,30
69,90 70,40 71,40 74,120
75,290 76,50 78,130 79,210
80,1461 81,320 82,50 84,20
88,80 89,250 90,230 91,620
92,7526 93,720 94,50 95,70
96,60 97,30 105,190 106,1731
107,1551 108,9678 109,2752 110,190
112,30 121,30 122,150 123,110
124,80 132,280 133,470 134,140
140,460 147,80 148,2181 149,340
150,1631 151,140 154,40 156,2101
157,160 158,110 172,600 173,50
174,50 195,80 196,130 214,9999
215,980 216,470 217,40
##END=
