##TITLE=Ethinyl Estradiol
##JCAMP-DX=4.24
##DATA TYPE=MASS SPECTRUM
##ORIGIN=Japan AIST/NIMC Database- Spectrum MS-NW-9235
##OWNER=NIST Mass Spectrometry Data Center
Collection (C) 2014 copyright by the U.S. Secretary of Commerce
on behalf of the United States of America. All rights reserved.
##CAS REGISTRY NO=57-63-6
##$NIST MASS SPEC NO=234172
##MOLFORM=C20 H24 O2
##MW=296
##$NIST SOURCE=MSDC
##XUNITS=M/Z
##YUNITS=RELATIVE INTENSITY
##XFACTOR=1
##YFACTOR=1
##FIRSTX=25
##LASTX=299
##FIRSTY=30
##MAXX=299
##MINX=25
##MAXY=9999
##MINY=10
##NPOINTS=225
##PEAK TABLE=(XY..XY)
25,30 26,209 27,119 28,99
29,99 39,199 40,60 41,449
42,30 43,259 44,10 50,10
51,99 52,30 53,379 54,40
55,499 56,30 57,60 63,40
64,30 65,199 66,50 67,339
68,189 69,209 70,20 71,40
72,10 75,10 76,40 77,479
78,99 79,459 80,50 81,369
82,60 83,90 84,20 85,50
86,50 88,10 89,70 90,20
91,619 92,119 93,249 94,90
95,219 96,50 97,159 98,30
99,60 100,60 101,20 102,40
103,199 104,70 105,479 106,70
107,729 108,199 109,99 110,50
111,40 112,10 113,20 114,60
115,539 116,239 117,309 118,70
119,189 120,269 121,469 122,99
123,99 124,969 125,109 126,30
127,409 128,309 129,239 130,70
131,689 132,309 133,1989 134,299
135,119 136,629 137,249 138,50
139,50 140,20 141,309 142,80
143,99 144,599 145,1329 146,1019
147,519 148,80 149,70 150,119
151,50 152,99 153,109 154,40
155,80 156,20 157,999 158,859
159,1729 160,3619 161,669 162,80
163,40 164,10 165,119 166,40
167,70 168,30 169,99 170,239
171,539 172,1139 173,599 174,129
175,50 176,20 177,20 178,40
179,60 180,20 181,109 182,80
183,259 184,209 185,669 186,439
187,99 188,30 189,40 190,10
191,20 192,10 193,40 194,50
195,159 196,139 197,309 198,259
199,419 200,329 201,70 202,20
203,10 205,20 206,10 207,80
208,149 209,199 210,239 211,629
212,259 213,9999 214,1699 215,339
216,40 217,10 219,20 220,20
221,119 222,70 223,109 224,209
225,179 226,419 227,179 228,1459
229,259 230,20 233,20 234,20
235,119 236,149 237,139 238,40
239,409 240,109 241,40 242,30
243,10 247,10 248,10 249,109
250,349 251,90 252,50 253,129
254,90 255,20 261,20 262,10
263,159 264,30 265,10 267,60
268,309 269,70 270,439 271,90
272,10 277,40 278,209 279,99
280,30 281,90 282,20 294,20
295,60 296,5479 297,1199 298,159
299,10
##END=
