##TITLE=Ergosterol
##JCAMP-DX=4.24
##DATA TYPE=MASS SPECTRUM
##ORIGIN=Japan AIST/NIMC Database- Spectrum MS-NW-1727
##OWNER=NIST Mass Spectrometry Data Center
Collection (C) 2014 copyright by the U.S. Secretary of Commerce
on behalf of the United States of America. All rights reserved.
##CAS REGISTRY NO=57-87-4
##$NIST MASS SPEC NO=229095
##MOLFORM=C28 H44 O
##MW=396
##$NIST SOURCE=MSDC
##XUNITS=M/Z
##YUNITS=RELATIVE INTENSITY
##XFACTOR=1
##YFACTOR=1
##FIRSTX=14
##LASTX=400
##FIRSTY=10
##MAXX=400
##MINX=14
##MAXY=9999
##MINY=10
##NPOINTS=364
##PEAK TABLE=(XY..XY)
14,10 15,80 16,10 17,99
18,549 26,30 27,639 28,239
29,1109 30,40 31,99 32,20
38,20 39,509 40,90 41,4079
42,269 43,4779 44,169 45,90
50,20 51,90 52,40 53,849
54,139 55,7799 56,409 57,2439
58,109 59,189 60,30 61,10
63,30 64,20 65,399 66,129
67,2619 68,269 69,9999 70,719
71,1009 72,60 73,20 74,10
75,10 76,30 77,1039 78,229
79,1889 80,279 81,4739 82,629
83,2969 84,229 85,189 86,20
87,20 88,10 89,50 90,40
91,2469 92,399 93,2289 94,439
95,2409 96,309 97,899 98,179
99,129 100,20 101,40 102,50
103,259 104,209 105,2399 106,409
107,2459 108,439 109,2439 110,309
111,379 112,60 113,60 114,20
115,779 116,389 117,1239 118,749
119,2559 120,459 121,1089 122,219
123,839 124,309 125,1459 126,169
127,319 128,1349 129,1559 130,559
131,1979 132,559 133,1509 134,379
135,759 136,169 137,439 138,70
139,90 140,40 141,1429 142,959
143,4329 144,1169 145,3659 146,749
147,1469 148,259 149,439 150,149
151,269 152,199 153,409 154,359
155,1339 156,699 157,3539 158,1619
159,3039 160,619 161,699 162,169
163,319 164,169 165,479 166,259
167,589 168,409 169,1459 170,709
171,2149 172,599 173,869 174,219
175,1369 176,469 177,509 178,269
179,379 180,249 181,759 182,419
183,1589 184,569 185,1629 186,639
187,539 188,269 189,259 190,90
191,179 192,109 193,289 194,229
195,879 196,479 197,2009 198,679
199,1779 200,399 201,409 202,129
203,159 204,70 205,139 206,80
207,239 208,169 209,839 210,469
211,2879 212,779 213,1479 214,389
215,369 216,169 217,739 218,209
219,149 220,90 221,199 222,149
223,549 224,419 225,829 226,799
227,1019 228,369 229,589 230,259
231,259 232,139 233,159 234,109
235,339 236,249 237,1149 238,539
239,889 240,289 241,249 242,139
243,199 244,319 245,389 246,219
247,129 248,80 249,279 250,249
251,1729 252,569 253,5019 254,1129
255,779 256,269 257,309 258,129
259,90 260,40 261,50 262,40
263,90 264,70 265,309 266,139
267,339 268,329 269,659 270,339
271,2469 272,589 273,239 274,60
275,40 276,20 277,80 278,40
279,219 280,159 281,169 282,70
283,169 284,70 285,90 286,50
287,40 288,20 289,30 290,20
291,70 292,30 293,219 294,90
295,119 296,70 297,149 298,99
299,99 300,99 301,50 302,20
303,30 304,10 305,50 306,20
307,99 308,50 309,179 310,70
311,119 312,60 313,60 314,80
315,40 316,30 317,30 318,10
319,50 320,20 321,70 322,30
323,139 324,70 325,139 326,90
327,40 328,30 329,10 330,20
331,20 332,20 333,70 334,40
335,349 336,139 337,3329 338,1289
339,409 340,119 341,60 342,40
343,20 344,20 345,20 346,20
347,40 348,50 349,90 350,90
351,90 352,60 353,189 354,70
355,50 356,30 357,20 358,40
359,40 360,80 361,259 362,199
363,8119 364,2389 365,679 366,169
367,90 368,189 369,80 370,30
371,20 372,30 373,20 374,70
375,60 376,499 377,319 378,969
379,409 380,289 381,369 382,119
383,59 390,30 391,20 392,109
393,50 394,329 395,169 396,6959
397,2199 398,339 399,40 400,10
##END=
