##TITLE=Cholesterol
##JCAMP-DX=4.24
##DATA TYPE=MASS SPECTRUM
##ORIGIN=NIST Mass Spectrometry Data Center
##OWNER=NIST Mass Spectrometry Data Center
Collection (C) 2014 copyright by the U.S. Secretary of Commerce
on behalf of the United States of America. All rights reserved.
##CAS REGISTRY NO=57-88-5
##$NIST MASS SPEC NO=332884
##MOLFORM=C27 H46 O
##MW=386
##$NIST SOURCE=MSDC
##XUNITS=M/Z
##YUNITS=RELATIVE INTENSITY
##XFACTOR=1
##YFACTOR=1
##FIRSTX=26
##LASTX=389
##FIRSTY=40
##MAXX=389
##MINX=26
##MAXY=9999
##MINY=10
##NPOINTS=274
##PEAK TABLE=(XY..XY)
26,40 27,360 29,1281 30,30
31,90 38,30 39,480 40,130
41,5595 42,761 43,9999 44,360
45,60 50,30 51,80 52,30
53,1251 54,210 55,8868 56,811
57,7447 58,340 59,80 64,20
65,520 66,210 67,3753 68,641
69,3183 70,290 71,2292 72,120
74,30 77,1661 78,540 79,4984
80,781 81,5825 82,681 83,2222
84,210 85,530 86,60 90,20
91,5675 92,1361 93,5225 94,1451
95,6105 96,681 97,1401 98,150
99,130 100,110 102,30 103,420
104,430 105,6866 106,1661 107,6616
108,1571 109,3363 110,480 111,1031
112,100 113,110 114,80 115,631
116,430 117,2272 118,1131 119,4574
120,3173 121,3553 122,831 123,1651
124,621 125,921 126,140 127,190
128,671 129,1451 130,751 131,3383
132,1051 133,3733 134,1291 135,2853
136,591 137,661 138,310 139,120
141,310 142,370 143,2322 144,1001
145,5515 146,1431 147,2923 148,951
149,1872 150,380 151,681 152,300
153,100 154,90 155,290 156,210
157,1571 158,1581 159,4294 160,2142
161,3683 162,931 163,2783 164,510
165,550 166,100 167,40 168,80
169,230 170,110 171,1281 172,561
173,1892 174,581 175,851 176,310
177,611 178,1301 179,460 180,40
181,40 182,40 183,180 184,150
185,1181 186,480 187,991 188,280
189,581 190,130 191,621 192,180
193,340 194,110 195,20 196,30
197,200 198,100 199,1391 200,390
201,711 202,160 203,270 204,100
205,470 206,290 207,200 208,70
211,110 212,110 213,3343 214,961
215,591 216,180 217,310 218,140
219,480 220,300 221,60 225,80
226,40 227,550 228,581 229,771
230,250 231,1611 232,480 233,220
234,110 239,120 240,50 241,360
242,110 243,150 244,70 245,330
246,420 247,891 248,290 249,30
252,10 253,60 254,50 255,2032
256,440 257,180 258,70 259,240
260,320 261,250 262,120 263,30
267,50 269,40 271,170 272,90
273,1651 274,1421 275,4694 276,1081
277,80 278,10 283,110 284,30
285,100 286,50 287,140 288,50
289,30 290,10 295,20 297,60
298,30 299,120 300,210 301,4114
302,931 303,200 304,30 311,140
312,60 313,270 314,200 315,140
316,90 317,40 318,30 325,60
326,611 327,420 328,200 329,360
330,100 331,40 337,10 338,20
339,100 340,140 341,50 342,140
343,130 344,70 345,30 351,20
353,2853 354,871 355,180 356,40
357,90 358,50 367,40 368,3013
369,1021 371,2592 372,731 373,130
384,160 385,40 386,6816 387,2092
388,290 389,30
##END=
