##TITLE=Benz[a]anthracene, 7,12-dimethyl-
##JCAMP-DX=4.24
##DATA TYPE=MASS SPECTRUM
##ORIGIN=NIST Mass Spectrometry Data Center
##OWNER=NIST Mass Spectrometry Data Center
Collection (C) 2014 copyright by the U.S. Secretary of Commerce
on behalf of the United States of America. All rights reserved.
##CAS REGISTRY NO=57-97-6
##$NIST MASS SPEC NO=341606
##MOLFORM=C20 H16
##MW=256
##$NIST SOURCE=MSDC
##XUNITS=M/Z
##YUNITS=RELATIVE INTENSITY
##XFACTOR=1
##YFACTOR=1
##FIRSTX=27
##LASTX=259
##FIRSTY=60
##MAXX=259
##MINX=27
##MAXY=9999
##MINY=10
##NPOINTS=121
##PEAK TABLE=(XY..XY)
27,60 38,10 39,100 50,60
51,130 52,20 62,40 63,150
64,10 65,20 74,80 75,110
76,60 77,110 78,20 79,20
80,30 81,30 83,30 84,30
86,50 87,130 88,160 89,60
91,20 93,110 94,210 98,60
99,100 100,280 101,440 103,50
106,540 107,340 110,30 111,90
112,500 113,1521 114,561 115,130
120,3103 122,30 123,30 124,180
125,641 126,1181 127,861 128,1021
134,10 135,10 137,30 139,80
141,30 149,40 150,140 151,110
152,170 153,40 161,30 162,40
163,120 164,40 165,70 166,10
173,10 174,80 175,60 176,130
177,50 178,80 179,20 185,20
186,30 187,150 188,70 189,160
190,30 198,40 199,50 200,170
201,90 202,230 203,40 209,10
210,10 211,110 212,50 213,290
214,70 215,410 216,80 222,30
223,40 224,240 225,170 226,861
227,290 228,320 229,290 230,60
235,40 236,40 237,480 238,250
239,4414 240,3113 241,5525 242,1091
243,110 248,90 249,60 250,561
251,190 252,971 253,561 254,240
255,1121 256,9999 257,2132 258,240
259,20
##END=
