##TITLE=.alpha.-Estradiol
##JCAMP-DX=4.24
##DATA TYPE=MASS SPECTRUM
##ORIGIN=NIST Mass Spectrometry Data Center, 1994
##OWNER=NIST Mass Spectrometry Data Center
Collection (C) 2014 copyright by the U.S. Secretary of Commerce
on behalf of the United States of America. All rights reserved.
##CAS REGISTRY NO=57-91-0
##$NIST MASS SPEC NO=133787
##MOLFORM=C18 H24 O2
##MW=272
##$NIST SOURCE=MSDC
##XUNITS=M/Z
##YUNITS=RELATIVE INTENSITY
##XFACTOR=1
##YFACTOR=1
##FIRSTX=16
##LASTX=274
##FIRSTY=41
##MAXX=274
##MINX=16
##MAXY=9999
##MINY=40
##NPOINTS=151
##PEAK TABLE=(XY..XY)
16,41 27,214 28,170 29,406
30,45 31,129 39,325 40,88
41,708 42,107 43,428 44,132
45,73 51,152 52,55 53,353
54,66 55,611 56,70 57,426
58,51 63,97 64,40 65,263
66,77 67,394 68,95 69,150
71,74 77,661 78,173 79,568
80,60 81,293 82,79 83,108
84,42 85,64 89,89 91,785
92,133 93,277 94,131 95,216
97,86 98,53 99,51 102,87
103,292 104,80 105,572 106,111
107,753 108,293 109,105 115,802
116,334 117,343 118,70 119,132
120,357 121,410 122,79 123,45
127,586 128,443 129,297 130,104
131,863 132,375 133,1349 134,315
135,79 139,45 141,342 142,81
143,108 144,715 145,1358 146,2343
147,872 148,134 151,119 152,162
153,141 154,76 155,79 156,45
157,1129 158,1032 159,1616 160,2345
161,348 162,45 165,205 166,66
167,84 169,129 170,283 171,568
172,2495 173,611 174,96 175,320
176,75 178,51 179,85 181,138
182,81 183,332 184,242 185,875
186,1399 187,298 188,694 189,131
195,71 196,89 197,432 198,259
199,498 200,347 201,191 202,73
209,64 210,58 211,599 212,236
213,2903 214,561 215,334 216,71
225,458 226,1044 227,215 228,277
229,92 237,99 239,247 240,44
243,56 244,236 252,56 253,486
254,555 255,119 257,43 270,183
272,9999 273,2052 274,210
##END=
