##TITLE=Cholestan-6-one, (5.alpha.)-
##JCAMP-DX=4.24
##DATA TYPE=MASS SPECTRUM
##ORIGIN=Japan AIST/NIMC Database- Spectrum MS-IW-6557
##OWNER=NIST Mass Spectrometry Data Center
Collection (C) 2014 copyright by the U.S. Secretary of Commerce
on behalf of the United States of America. All rights reserved.
##CAS REGISTRY NO=570-46-7
##$NIST MASS SPEC NO=241890
##MOLFORM=C27 H46 O
##MW=386
##$NIST SOURCE=MSDC
##XUNITS=M/Z
##YUNITS=RELATIVE INTENSITY
##XFACTOR=1
##YFACTOR=1
##FIRSTX=27
##LASTX=389
##FIRSTY=129
##MAXX=389
##MINX=27
##MAXY=9999
##MINY=10
##NPOINTS=302
##PEAK TABLE=(XY..XY)
27,129 28,319 29,359 39,159
40,40 41,1269 42,129 43,1549
44,50 51,30 52,10 53,259
54,139 55,2249 56,409 57,1189
58,50 63,20 65,119 66,90
67,1589 68,709 69,1439 70,259
71,599 72,30 74,40 76,20
77,349 78,109 79,1279 80,369
81,2339 82,689 83,899 84,139
85,169 88,30 89,30 91,819
92,229 93,1749 94,779 95,2679
96,709 97,719 98,70 99,60
101,30 102,20 103,50 104,50
105,729 106,329 107,2039 108,1989
109,3209 110,399 111,289 112,70
113,60 114,20 115,129 116,40
117,189 118,129 119,559 120,259
121,1289 122,1839 123,5309 124,629
125,399 126,60 127,50 128,129
129,169 130,80 131,329 132,119
133,639 134,299 135,1279 136,1769
137,599 138,239 139,159 140,30
141,169 142,119 143,249 144,99
145,609 146,229 147,739 148,339
149,1309 150,639 151,309 152,719
153,129 154,40 155,129 156,119
157,199 158,139 159,569 160,309
161,1219 162,399 163,939 164,1069
165,679 166,109 167,70 168,40
169,99 170,50 171,169 172,80
173,249 174,119 175,329 176,289
177,789 178,359 179,179 180,40
181,60 182,40 183,90 184,40
185,179 186,60 187,249 188,80
189,279 190,189 191,549 192,159
193,149 194,60 195,60 196,30
197,90 198,80 199,229 200,90
201,269 202,159 203,399 204,259
205,419 206,299 207,119 208,60
209,60 210,40 211,229 212,99
213,379 214,129 215,429 216,149
217,549 218,189 219,189 220,80
221,40 222,20 223,40 224,20
225,50 226,70 227,129 228,159
229,249 230,259 231,7599 232,2569
233,509 234,80 235,50 236,20
237,60 238,20 239,80 240,40
241,119 242,60 243,119 244,70
245,989 246,1609 247,789 248,259
249,90 250,60 251,139 252,80
253,349 254,109 255,1079 256,269
257,529 258,149 259,189 260,139
261,149 262,519 263,139 264,20
265,10 267,20 269,30 270,20
271,109 272,149 273,3959 274,879
275,199 276,40 277,40 278,20
279,109 280,40 281,80 282,30
283,279 284,119 285,80 286,40
287,50 288,30 289,40 290,179
291,50 295,10 297,60 298,20
299,50 300,30 301,179 302,50
303,60 304,20 311,70 312,30
313,70 314,30 315,60 316,50
317,60 318,70 319,20 325,20
326,20 327,20 328,20 329,50
330,60 331,2849 332,739 333,99
339,30 340,10 341,30 342,20
343,70 344,50 345,20 347,20
348,20 349,60 350,20 351,139
352,50 353,719 354,219 355,239
356,90 357,70 360,50 361,10
362,90 363,30 364,139 365,40
366,389 367,149 368,1119 369,369
370,369 371,3929 372,1149 373,169
374,20 384,60 386,9999 387,3069
388,459 389,50
##END=
