##TITLE=Cholest-5-ene
##JCAMP-DX=4.24
##DATA TYPE=MASS SPECTRUM
##ORIGIN=Japan AIST/NIMC Database- Spectrum MS-IW-2440
##OWNER=NIST Mass Spectrometry Data Center
Collection (C) 2014 copyright by the U.S. Secretary of Commerce
on behalf of the United States of America. All rights reserved.
##CAS REGISTRY NO=570-74-1
##$NIST MASS SPEC NO=243472
##MOLFORM=C27 H46
##MW=370
##$NIST SOURCE=MSDC
##XUNITS=M/Z
##YUNITS=RELATIVE INTENSITY
##XFACTOR=1
##YFACTOR=1
##FIRSTX=27
##LASTX=373
##FIRSTY=99
##MAXX=373
##MINX=27
##MAXY=9999
##MINY=10
##NPOINTS=241
##PEAK TABLE=(XY..XY)
27,99 28,20 29,319 39,119
40,30 41,1109 42,99 43,1479
44,50 51,20 52,10 53,219
54,40 55,1799 56,139 57,1169
58,50 65,109 66,50 67,1279
68,189 69,1109 70,99 71,639
72,40 77,399 78,109 79,1209
80,259 81,1909 82,239 83,1039
84,80 85,149 86,20 87,20
91,1209 92,269 93,1599 94,539
95,1989 96,219 97,489 98,40
99,40 100,20 101,30 103,70
104,90 105,1349 106,439 107,1439
108,1789 109,2279 110,229 111,329
112,30 113,50 114,20 115,129
116,50 117,319 118,169 119,839
120,419 121,1209 122,849 123,609
124,80 125,139 126,20 127,70
128,90 129,149 130,80 131,449
132,169 133,1009 134,669 135,1789
136,429 137,239 138,50 139,50
140,10 141,40 142,40 143,129
144,80 145,1399 146,389 147,1809
148,529 149,999 150,159 151,169
152,60 153,50 154,10 155,30
156,20 157,90 158,70 159,649
160,669 161,1489 162,1299 163,1029
164,169 165,159 166,30 167,20
168,10 169,20 170,10 171,70
172,40 173,389 174,169 175,569
176,259 177,169 178,40 179,99
180,20 181,20 183,10 185,60
186,30 187,289 188,119 189,329
190,70 191,159 192,40 193,179
194,30 195,10 197,20 198,10
199,109 200,40 201,479 202,219
203,379 204,80 205,169 206,229
207,139 208,30 211,20 212,10
213,90 214,70 215,2909 216,849
217,409 218,179 219,179 220,159
221,40 227,40 228,30 229,379
230,629 231,599 232,139 233,129
234,30 235,20 239,10 241,80
242,30 243,209 244,129 245,149
246,129 247,549 248,169 249,30
251,10 253,50 254,20 255,169
256,149 257,3739 258,819 259,229
260,289 261,189 262,99 263,20
269,30 270,10 271,30 272,10
273,80 274,749 275,1239 276,279
277,30 279,10 283,30 284,20
285,169 286,70 287,129 288,99
289,30 297,10 298,10 299,50
300,99 301,1409 302,379 303,50
312,10 313,109 314,80 315,40
316,50 317,10 326,10 327,50
328,40 329,30 339,10 341,90
342,10 353,109 355,3949 356,1139
357,189 358,20 366,50 368,469
369,229 370,9999 371,2979 372,509
373,60
##END=
