##TITLE=4,5-Imidazoledicarboxylic acid
##JCAMP-DX=4.24
##DATA TYPE=MASS SPECTRUM
##ORIGIN=Japan AIST/NIMC Database- Spectrum MS-IW- 829
##OWNER=NIST Mass Spectrometry Data Center
Collection (C) 2014 copyright by the U.S. Secretary of Commerce
on behalf of the United States of America. All rights reserved.
##CAS REGISTRY NO=570-22-9
##$NIST MASS SPEC NO=238654
##MOLFORM=C5 H4 N2 O4
##MW=156
##$NIST SOURCE=MSDC
##XUNITS=M/Z
##YUNITS=RELATIVE INTENSITY
##XFACTOR=1
##YFACTOR=1
##FIRSTX=12
##LASTX=158
##FIRSTY=20
##MAXX=158
##MINX=12
##MAXY=9999
##MINY=10
##NPOINTS=68
##PEAK TABLE=(XY..XY)
12,20 13,10 14,30 16,80
18,20 25,10 26,30 27,219
28,1589 29,279 30,20 33,60
34,10 36,40 38,309 39,549
40,2099 41,1079 42,119 43,20
44,3299 45,199 46,20 50,10
51,20 52,40 53,80 54,50
55,60 56,99 57,109 64,20
65,109 66,249 67,3489 68,3239
69,159 70,10 71,10 73,10
81,10 82,10 83,30 84,149
85,99 91,10 93,99 94,4549
95,2059 96,119 97,10 107,10
110,10 111,40 112,9999 113,669
114,60 118,30 121,819 122,50
134,10 135,10 138,90 139,209
140,10 156,1039 157,159 158,10
##END=
