##TITLE=3-Aminosalicylic acid
##JCAMP-DX=4.24
##DATA TYPE=MASS SPECTRUM
##ORIGIN=NIST Mass Spectrometry Data Center
##OWNER=NIST Mass Spectrometry Data Center
Collection (C) 2014 copyright by the U.S. Secretary of Commerce
on behalf of the United States of America. All rights reserved.
##CAS REGISTRY NO=570-23-0
##$NIST MASS SPEC NO=340622
##MOLFORM=C7 H7 N O3
##MW=153
##$NIST SOURCE=MSDC
##XUNITS=M/Z
##YUNITS=RELATIVE INTENSITY
##XFACTOR=1
##YFACTOR=1
##FIRSTX=18
##LASTX=154
##FIRSTY=150
##MAXX=154
##MINX=18
##MAXY=9999
##MINY=60
##NPOINTS=29
##PEAK TABLE=(XY..XY)
18,150 27,611 29,90 32,60
38,470 39,671 40,210 41,370
42,330 44,410 50,711 51,1031
52,3183 53,1631 54,1121 63,510
67,561 78,601 79,6236 80,1061
90,290 107,1802 108,430 109,410
134,520 135,9999 136,1051 153,4474
154,310
##END=
