##TITLE=1,2,4-Triazin-5(4H)-one, 6-(1,1-dimethylethyl)-4-[(2-methylpropylidene)amino]-3-(methylthio)-
##JCAMP-DX=4.24
##DATA TYPE=MASS SPECTRUM
##ORIGIN=NIST Mass Spectrometry Data Center, 1995
##OWNER=NIST Mass Spectrometry Data Center
Collection (C) 2014 copyright by the U.S. Secretary of Commerce
on behalf of the United States of America. All rights reserved.
##CAS REGISTRY NO=57052-04-7
##$NIST MASS SPEC NO=245282
##MOLFORM=C12 H20 N4 O S
##MW=268
##$NIST SOURCE=MSDC
##XUNITS=M/Z
##YUNITS=RELATIVE INTENSITY
##XFACTOR=1
##YFACTOR=1
##FIRSTX=13
##LASTX=270
##FIRSTY=24
##MAXX=270
##MINX=13
##MAXY=9999
##MINY=3
##NPOINTS=133
##PEAK TABLE=(XY..XY)
13,24 15,304 18,6 23,31
26,88 27,1182 28,218 29,759
30,47 33,24 37,30 38,126
39,1282 40,236 41,3670 42,693
43,2169 44,90 45,267 46,299
47,751 48,140 49,73 50,47
51,112 52,105 53,364 54,253
55,658 56,335 57,1477 58,109
59,3 60,36 61,35 62,46
65,54 66,114 67,778 68,509
69,849 70,253 71,105 72,135
73,339 74,871 75,83 76,53
79,44 80,58 81,83 82,1310
83,936 84,420 85,51 86,104
87,44 88,849 89,727 90,76
91,38 94,52 95,62 96,101
97,218 98,44 99,37 100,21
101,25 107,46 108,119 109,78
110,560 111,268 112,52 113,80
114,91 115,358 116,100 117,103
122,39 123,41 124,100 125,33
126,85 127,22 128,156 129,65
130,39 135,28 136,36 137,31
138,25 139,47 141,72 142,41
143,28 144,39 150,42 151,182
152,113 153,354 154,49 155,70
156,359 157,667 158,102 159,48
165,28 166,30 170,146 171,58
172,29 181,66 182,112 183,151
184,986 185,97 186,284 197,565
198,7108 199,1032 200,418 201,61
225,9999 226,1215 227,525 228,57
253,185 254,33 268,580 269,85
270,43
##END=
