##TITLE=Naphthalene, 1,5-dimethyl-
##JCAMP-DX=4.24
##DATA TYPE=MASS SPECTRUM
##ORIGIN=Japan AIST/NIMC Database- Spectrum MS-NW-4406
##OWNER=NIST Mass Spectrometry Data Center
Collection (C) 2014 copyright by the U.S. Secretary of Commerce
on behalf of the United States of America. All rights reserved.
##CAS REGISTRY NO=571-61-9
##$NIST MASS SPEC NO=228336
##MOLFORM=C12 H12
##MW=156
##$NIST SOURCE=MSDC
##XUNITS=M/Z
##YUNITS=RELATIVE INTENSITY
##XFACTOR=1
##YFACTOR=1
##FIRSTX=15
##LASTX=158
##FIRSTY=10
##MAXX=158
##MINX=15
##MAXY=9999
##MINY=10
##NPOINTS=76
##PEAK TABLE=(XY..XY)
15,10 26,10 27,109 28,10
37,10 38,50 39,249 40,20
41,20 49,10 50,159 51,389
52,60 53,40 55,10 57,119
58,10 61,40 62,139 63,459
64,379 65,109 69,80 70,209
71,30 73,10 74,139 75,169
76,589 77,749 78,299 79,10
85,20 86,60 87,90 88,40
89,139 90,10 91,60 98,40
99,30 100,10 101,50 102,109
103,40 109,10 110,20 111,20
113,60 114,60 115,1119 116,149
117,10 125,10 126,119 127,429
128,719 129,409 130,40 137,10
138,30 139,539 140,209 141,5829
142,889 143,60 149,10 150,60
151,199 152,709 153,959 154,379
155,2829 156,9999 157,1209 158,80
##END=
