##TITLE=Naphthalene, 1,4-dimethyl-
##JCAMP-DX=4.24
##DATA TYPE=MASS SPECTRUM
##ORIGIN=Japan AIST/NIMC Database- Spectrum MS-NW-5165
##OWNER=NIST Mass Spectrometry Data Center
Collection (C) 2014 copyright by the U.S. Secretary of Commerce
on behalf of the United States of America. All rights reserved.
##CAS REGISTRY NO=571-58-4
##$NIST MASS SPEC NO=228347
##MOLFORM=C12 H12
##MW=156
##$NIST SOURCE=MSDC
##XUNITS=M/Z
##YUNITS=RELATIVE INTENSITY
##XFACTOR=1
##YFACTOR=1
##FIRSTX=15
##LASTX=159
##FIRSTY=20
##MAXX=159
##MINX=15
##MAXY=9999
##MINY=10
##NPOINTS=86
##PEAK TABLE=(XY..XY)
15,20 26,20 27,159 28,10
37,10 38,40 39,289 40,20
41,30 45,10 49,10 50,199
51,529 52,80 53,60 56,10
57,189 58,20 59,10 61,30
62,159 63,499 64,349 65,119
66,10 67,10 69,80 70,349
71,40 73,10 74,189 75,239
76,629 77,709 78,389 79,10
80,10 81,10 85,30 86,80
87,109 88,40 89,169 90,20
91,80 98,50 99,30 100,20
101,70 102,149 103,70 104,10
109,10 110,20 111,20 113,80
114,40 115,1319 116,179 117,10
125,20 126,139 127,539 128,899
129,459 130,50 134,10 135,10
137,10 138,20 139,469 140,119
141,7689 142,949 143,60 149,10
150,80 151,229 152,759 153,859
154,409 155,2269 156,9999 157,1309
158,80 159,10
##END=
