##TITLE=1,4-Naphthalenediol
##JCAMP-DX=4.24
##DATA TYPE=MASS SPECTRUM
##ORIGIN=Japan AIST/NIMC Database- Spectrum MS-NW-4033
##OWNER=NIST Mass Spectrometry Data Center
Collection (C) 2014 copyright by the U.S. Secretary of Commerce
on behalf of the United States of America. All rights reserved.
##CAS REGISTRY NO=571-60-8
##$NIST MASS SPEC NO=229812
##MOLFORM=C10 H8 O2
##MW=160
##$NIST SOURCE=MSDC
##XUNITS=M/Z
##YUNITS=RELATIVE INTENSITY
##XFACTOR=1
##YFACTOR=1
##FIRSTX=17
##LASTX=162
##FIRSTY=70
##MAXX=162
##MINX=17
##MAXY=9999
##MINY=10
##NPOINTS=90
##PEAK TABLE=(XY..XY)
17,70 18,319 25,10 26,80
27,179 28,40 29,50 36,10
37,80 38,149 39,179 40,10
41,10 42,10 43,20 44,10
48,10 49,60 50,599 51,719
52,179 53,209 54,109 55,179
56,10 57,40 60,10 61,70
62,109 63,209 64,50 65,169
66,299 67,10 69,10 71,10
72,10 73,60 74,309 75,339
76,1049 77,1499 78,289 79,50
80,289 81,10 82,149 83,10
84,10 85,30 86,60 87,70
88,50 89,50 90,20 91,20
92,10 97,10 98,30 99,10
100,10 101,90 102,549 103,1139
104,1919 105,1629 106,139 107,10
108,10 109,20 110,20 111,10
113,50 114,99 115,279 116,40
118,20 129,40 130,269 131,3569
132,1449 133,169 134,10 142,10
157,20 158,509 159,659 160,9999
161,1119 162,109
##END=
