##TITLE=Androstane-3,17-diol, (3.beta.,5.alpha.,17.beta.)-
##JCAMP-DX=4.24
##DATA TYPE=MASS SPECTRUM
##ORIGIN=NIST Mass Spectrometry Data Center
##OWNER=NIST Mass Spectrometry Data Center
Collection (C) 2014 copyright by the U.S. Secretary of Commerce
on behalf of the United States of America. All rights reserved.
##CAS REGISTRY NO=571-20-0
##$NIST MASS SPEC NO=332982
##MOLFORM=C19 H32 O2
##MW=292
##$NIST SOURCE=MSDC
##XUNITS=M/Z
##YUNITS=RELATIVE INTENSITY
##XFACTOR=1
##YFACTOR=1
##FIRSTX=14
##LASTX=295
##FIRSTY=10
##MAXX=295
##MINX=14
##MAXY=9999
##MINY=10
##NPOINTS=240
##PEAK TABLE=(XY..XY)
14,10 19,10 26,20 27,490
28,120 29,1722 30,110 31,410
36,20 39,1191 40,330 41,7036
42,561 43,4574 44,981 45,430
46,20 47,10 48,10 50,40
51,250 52,190 53,3163 54,901
55,9999 56,851 57,4604 58,490
59,230 60,40 61,40 62,30
63,70 64,40 65,1211 66,611
67,7337 68,2072 69,2422 70,641
71,1311 72,100 73,50 74,40
75,30 77,3263 78,711 79,7567
80,1631 81,7166 82,1301 83,1601
84,530 85,430 86,60 87,40
88,60 89,50 91,6636 92,1431
93,8127 94,3433 95,6085 96,1191
97,1762 98,250 99,130 100,40
101,100 102,50 103,430 104,310
105,5195 106,2793 107,8948 108,3653
109,3363 110,941 111,1521 112,200
113,60 114,10 115,581 116,230
117,1111 118,500 119,3763 120,2602
121,5115 122,3093 123,3413 124,1661
125,641 126,160 127,70 128,260
129,450 130,180 131,1621 132,460
133,3233 134,1331 135,2572 136,1181
137,851 138,611 139,170 140,20
141,90 142,120 143,360 144,180
145,2352 146,791 147,3944 148,3433
149,3553 150,661 151,821 152,220
153,240 154,60 155,30 156,30
157,250 158,140 159,1611 160,1041
161,1892 162,1011 163,821 164,571
165,5595 166,4234 167,781 168,120
169,80 170,30 171,260 172,120
173,1211 174,711 175,991 176,380
177,330 178,480 179,270 180,150
181,10 182,30 183,20 184,20
185,330 186,100 187,831 188,430
189,390 190,280 191,500 192,851
193,210 194,40 195,20 196,10
197,20 199,500 200,220 201,1121
202,390 203,230 204,130 205,260
206,390 207,90 208,30 212,20
213,200 214,50 215,7517 216,1591
217,3873 218,801 219,601 220,270
221,50 227,80 228,50 229,80
230,731 231,310 232,300 233,6486
234,1351 235,841 236,160 237,20
238,10 239,30 241,1061 242,190
243,40 244,20 245,90 246,120
247,40 248,1381 249,250 250,30
251,10 254,10 255,60 256,140
257,50 259,1692 260,330 261,40
262,10 263,100 264,50 265,10
266,10 267,10 268,10 270,10
272,30 273,20 274,1661 275,370
276,10 277,2813 278,540 279,100
284,10 286,10 288,10 290,90
292,7547 293,1571 294,240 295,30
##END=
