##TITLE=1,2,3,7,8-Pentachlorodibenzofuran
##JCAMP-DX=4.24
##DATA TYPE=MASS SPECTRUM
##ORIGIN=NIST Mass Spectrometry Data Center, 1998.
##OWNER=NIST Mass Spectrometry Data Center
Collection (C) 2014 copyright by the U.S. Secretary of Commerce
on behalf of the United States of America. All rights reserved.
##CAS REGISTRY NO=57117-41-6
##$NIST MASS SPEC NO=291895
##MOLFORM=C12 H3 Cl5 O
##MW=338
##$NIST SOURCE=MSDC
##XUNITS=M/Z
##YUNITS=RELATIVE INTENSITY
##XFACTOR=1
##YFACTOR=1
##FIRSTX=36
##LASTX=346
##FIRSTY=60
##MAXX=346
##MINX=36
##MAXY=9999
##MINY=10
##NPOINTS=121
##PEAK TABLE=(XY..XY)
36,60 37,120 38,20 49,50
50,80 53,70 55,100 60,110
61,290 62,160 63,50 66,50
67,640 72,320 73,330 74,190
75,30 83,30 84,480 85,730
86,410 87,80 89,80 90,110
91,20 95,60 96,140 97,380
98,400 99,150 102,610 103,410
107,300 108,280 109,520 110,390
111,100 113,10 114,20 116,20
118,10 120,780 121,810 122,330
123,90 131,150 132,300 133,410
134,810 135,920 136,140 137,820
138,1040 139,480 140,50 141,70
143,70 144,130 145,180 146,70
147,80 151,20 152,40 153,10
155,120 156,70 157,80 167,50
168,60 169,1190 170,1580 171,940
172,330 173,60 181,70 191,40
193,10 204,40 205,2460 206,300
207,1540 208,130 209,230 215,60
217,80 233,10 235,20 239,220
240,350 241,290 242,320 243,90
244,60 268,500 269,70 270,500
271,60 272,140 275,1500 276,140
277,1880 278,190 279,900 280,80
281,160 303,210 304,110 305,350
306,110 307,140 308,50 309,60
338,6299 339,770 340,9999 341,1220
342,6419 343,730 344,1950 345,230
346,320
##END=
