##TITLE=3,4-Dimethylcyclohexanol
##JCAMP-DX=4.24
##DATA TYPE=MASS SPECTRUM
##ORIGIN=NIST Mass Spectrometry Data Center, 1994
##OWNER=NIST Mass Spectrometry Data Center
Collection (C) 2014 copyright by the U.S. Secretary of Commerce
on behalf of the United States of America. All rights reserved.
##CAS REGISTRY NO=5715-23-1
##$NIST MASS SPEC NO=133430
##MOLFORM=C8 H16 O
##MW=128
##$NIST SOURCE=MSDC
##XUNITS=M/Z
##YUNITS=RELATIVE INTENSITY
##XFACTOR=1
##YFACTOR=1
##FIRSTX=4
##LASTX=128
##FIRSTY=28
##MAXX=128
##MINX=4
##MAXY=9999
##MINY=27
##NPOINTS=62
##PEAK TABLE=(XY..XY)
4,28 14,57 15,322 19,56
27,2379 28,289 29,2665 30,127
31,661 32,41 37,31 39,2731
40,618 41,5350 42,1314 43,5866
44,2140 45,489 50,135 51,358
52,143 53,1035 54,555 55,3473
56,2229 57,3196 58,743 59,95
62,35 63,77 65,274 66,294
67,2173 68,2033 69,3406 70,1525
71,9999 72,731 73,159 77,203
78,52 79,253 80,52 81,4248
82,2995 83,508 84,1844 85,518
86,80 91,80 93,188 95,5993
96,453 97,117 99,44 100,79
109,464 110,2580 111,265 126,27
127,123 128,109
##END=
