##TITLE=2,5-Octadecadiynoic acid, methyl ester
##JCAMP-DX=4.24
##DATA TYPE=MASS SPECTRUM
##ORIGIN=R.T.HOLMAN,UNIVERSITY OF MINNESOTA
##OWNER=NIST Mass Spectrometry Data Center
Collection (C) 2014 copyright by the U.S. Secretary of Commerce
on behalf of the United States of America. All rights reserved.
##CAS REGISTRY NO=57156-91-9
##$NIST MASS SPEC NO=35988
##MOLFORM=C19 H30 O2
##MW=290
##$NIST SOURCE=MSDC
##XUNITS=M/Z
##YUNITS=RELATIVE INTENSITY
##XFACTOR=1
##YFACTOR=1
##FIRSTX=26
##LASTX=192
##FIRSTY=100
##MAXX=192
##MINX=26
##MAXY=9999
##MINY=100
##NPOINTS=145
##PEAK TABLE=(XY..XY)
26,100 27,1500 28,700 29,2700
30,100 31,100 32,200 38,100
39,1300 40,200 41,5500 42,700
43,5000 44,200 45,200 50,700
51,1000 52,300 53,800 54,600
55,4300 56,900 57,3000 58,200
59,3700 60,200 61,100 62,200
63,800 64,400 65,1700 66,600
67,3900 68,700 69,2600 70,600
71,1300 72,100 73,600 74,1500
75,1000 76,1500 77,4500 78,2500
79,4700 80,1200 81,3500 82,1500
83,1800 84,700 85,700 86,100
87,400 88,200 89,900 90,500
91,9999 92,2400 93,3100 94,900
95,2500 96,900 97,1300 98,1000
99,300 100,200 101,200 102,200
103,2400 104,2500 105,7100 106,1600
107,2300 108,1000 109,1500 110,700
111,700 112,300 113,200 114,100
115,1800 116,800 117,6100 118,2400
119,3700 120,900 121,2300 122,1000
123,800 124,400 125,200 126,100
127,200 128,300 129,800 130,400
131,3700 132,1100 133,1800 134,500
135,1300 136,900 137,900 138,300
139,100 140,100 141,800 142,200
143,200 144,100 145,2000 146,600
147,900 148,200 149,1600 150,800
151,300 152,100 153,100 154,100
155,200 156,100 157,100 158,100
159,900 160,200 161,200 162,100
163,600 164,200 165,100 166,100
167,100 169,100 171,100 173,300
174,100 175,100 177,600 178,400
179,100 187,100 189,100 191,200
192,100
##END=
