##TITLE=Propanoic acid, 2-(triphenylphosphoranylidene)-, ethyl ester
##JCAMP-DX=4.24
##DATA TYPE=MASS SPECTRUM
##ORIGIN=Humboldt-Universitat zu Berlin, Department of Chemistry, Analytical Group
##OWNER=NIST Mass Spectrometry Data Center
Collection (C) 2014 copyright by the U.S. Secretary of Commerce
on behalf of the United States of America. All rights reserved.
##CAS REGISTRY NO=5717-37-3
##$NIST MASS SPEC NO=286377
##MOLFORM=C23 H23 O2 P
##MW=362
##$NIST SOURCE=MSDC
##XUNITS=M/Z
##YUNITS=RELATIVE INTENSITY
##XFACTOR=1
##YFACTOR=1
##FIRSTX=12
##LASTX=364
##FIRSTY=45
##MAXX=364
##MINX=12
##MAXY=9999
##MINY=7
##NPOINTS=203
##PEAK TABLE=(XY..XY)
12,45 13,37 14,131 15,721
16,82 17,56 18,131 19,90
26,478 27,3876 28,982 29,9999
30,381 31,194 38,71 39,653
40,52 41,116 42,119 43,1542
44,138 45,358 47,799 48,34
50,620 51,2632 52,358 53,134
54,131 55,429 56,127 57,429
58,45 61,34 62,52 63,254
64,56 65,456 66,90 68,37
69,105 70,41 71,34 73,52
74,142 75,187 76,265 77,2472
78,1169 79,217 80,90 81,213
82,93 83,265 87,37 88,37
89,168 91,624 92,75 93,37
94,71 95,134 96,30 98,26
99,30 101,45 102,243 103,1034
104,388 105,1695 106,217 107,1811
108,2909 109,859 110,71 113,49
115,624 116,175 117,30 119,26
120,101 121,205 122,34 123,71
124,45 125,149 126,97 127,82
128,198 129,86 130,26 131,224
132,149 133,1090 134,306 135,56
139,194 140,34 141,183 142,30
144,67 145,37 146,22 147,22
149,146 150,60 151,131 152,907
153,284 154,205 155,52 157,302
158,60 159,45 163,34 164,30
165,407 166,93 167,41 168,22
169,30 170,175 171,71 173,67
176,34 177,67 178,213 179,123
180,37 181,116 183,3401 184,620
185,728 186,385 187,56 189,19
191,30 192,19 194,37 195,41
196,71 197,63 198,15 199,127
201,594 202,105 203,22 207,63
208,22 209,56 210,26 211,37
212,22 213,15 215,22 220,19
221,19 225,19 226,19 227,26
228,67 229,34 230,22 233,22
239,15 240,15 241,15 245,11
257,45 258,15 259,60 260,97
261,239 262,889 263,228 264,34
270,7 271,11 273,11 277,131
278,45 279,26 287,82 289,597
290,403 291,78 292,11 301,11
303,19 304,7 305,11 315,19
317,474 318,108 319,15 331,7
333,302 334,67 335,11 361,239
362,351 363,90 364,11
##END=
