##TITLE=Ribonic acid, 2,3,4,5-tetrakis-O-(trimethylsilyl)-, trimethylsilyl ester
##JCAMP-DX=4.24
##DATA TYPE=MASS SPECTRUM
##ORIGIN=B.R. PETTIT, QUEEN CHARLOTTE'S MAT. HOSP., LONDON, U.K.
##OWNER=NIST Mass Spectrometry Data Center
Collection (C) 2014 copyright by the U.S. Secretary of Commerce
on behalf of the United States of America. All rights reserved.
##CAS REGISTRY NO=57197-35-0
##$NIST MASS SPEC NO=99899
##MOLFORM=C20 H50 O6 Si5
##MW=526
##$NIST SOURCE=MSDC
##XUNITS=M/Z
##YUNITS=RELATIVE INTENSITY
##XFACTOR=1
##YFACTOR=1
##FIRSTX=41
##LASTX=431
##FIRSTY=50
##MAXX=431
##MINX=41
##MAXY=9999
##MINY=10
##NPOINTS=95
##PEAK TABLE=(XY..XY)
41,50 43,100 44,140 45,530
46,50 47,90 55,70 58,50
59,240 72,140 73,9999 74,830
75,990 77,70 89,100 101,110
102,180 103,2870 104,250 105,120
116,80 117,590 118,70 119,50
129,220 130,130 131,180 133,400
134,70 135,50 141,70 143,220
145,50 147,2880 148,480 149,310
150,50 157,100 175,100 189,610
190,140 191,230 192,60 204,510
205,990 206,220 207,150 215,50
217,1720 218,370 219,260 220,70
221,230 222,50 223,50 231,60
257,130 277,420 278,120 279,60
291,60 292,2380 293,720 294,370
295,70 303,50 305,550 306,190
307,780 308,230 309,100 319,120
320,40 321,70 331,150 332,40
333,510 334,140 335,80 341,10
347,40 355,20 356,10 377,30
379,50 393,70 394,20 401,30
415,30 421,120 422,50 423,50
429,40 430,10 431,30
##END=
