##TITLE=Phenol, 2,6-dinitro-
##JCAMP-DX=4.24
##DATA TYPE=MASS SPECTRUM
##ORIGIN=Japan AIST/NIMC Database- Spectrum MS-NW-4174
##OWNER=NIST Mass Spectrometry Data Center
Collection (C) 2014 copyright by the U.S. Secretary of Commerce
on behalf of the United States of America. All rights reserved.
##CAS REGISTRY NO=573-56-8
##$NIST MASS SPEC NO=231260
##MOLFORM=C6 H4 N2 O5
##MW=184
##$NIST SOURCE=MSDC
##XUNITS=M/Z
##YUNITS=RELATIVE INTENSITY
##XFACTOR=1
##YFACTOR=1
##FIRSTX=12
##LASTX=187
##FIRSTY=30
##MAXX=187
##MINX=12
##MAXY=9999
##MINY=10
##NPOINTS=106
##PEAK TABLE=(XY..XY)
12,30 13,10 14,169 15,30
16,99 17,129 18,479 20,30
23,30 24,10 25,80 26,419
27,379 28,929 29,369 30,4829
31,50 36,70 37,919 38,2089
39,2039 40,299 41,60 42,129
43,80 44,619 45,709 46,229
48,40 49,239 50,1209 51,3049
52,2099 53,2589 54,419 55,989
56,90 57,10 60,80 61,699
62,2289 63,7929 64,2719 65,1239
66,759 67,269 68,909 69,389
70,169 71,20 72,10 73,60
74,249 75,279 76,399 77,719
78,129 79,1859 80,699 81,179
82,259 83,109 84,10 87,10
88,10 89,10 90,119 91,3959
92,1309 93,1589 94,149 95,90
96,289 97,30 98,70 104,40
105,20 106,20 107,1389 108,649
109,569 110,90 111,10 120,40
121,1669 122,129 123,319 124,40
126,4889 127,319 128,50 137,40
138,20 139,10 151,149 152,20
154,1009 155,90 156,10 167,30
168,399 169,40 184,9999 185,789
186,139 187,10
##END=
