##TITLE=Phenanthrene, 9-bromo-
##JCAMP-DX=4.24
##DATA TYPE=MASS SPECTRUM
##ORIGIN=NIST Mass Spectrometry Data Center, 1990.
##OWNER=NIST Mass Spectrometry Data Center
Collection (C) 2014 copyright by the U.S. Secretary of Commerce
on behalf of the United States of America. All rights reserved.
##CAS REGISTRY NO=573-17-1
##$NIST MASS SPEC NO=118490
##MOLFORM=C14 H9 Br
##MW=256
##$NIST SOURCE=MSDC
##XUNITS=M/Z
##YUNITS=RELATIVE INTENSITY
##XFACTOR=1
##YFACTOR=1
##FIRSTX=26
##LASTX=260
##FIRSTY=43
##MAXX=260
##MINX=26
##MAXY=9999
##MINY=21
##NPOINTS=76
##PEAK TABLE=(XY..XY)
26,43 27,100 37,35 38,135
39,303 50,526 51,419 52,66
55,21 61,227 62,646 63,550
64,51 67,27 73,160 74,1115
75,2101 77,188 78,34 79,35
81,45 85,227 86,501 87,1487
88,5991 97,76 98,651 99,492
100,233 101,186 102,106 109,92
110,267 111,285 112,55 113,72
114,45 115,145 116,155 120,47
121,68 122,272 123,228 124,123
125,162 126,367 127,222 128,1360
129,1137 133,37 134,81 135,65
137,108 138,42 139,77 146,69
147,26 149,606 150,2259 151,2181
152,269 153,37 163,27 164,24
173,140 174,1158 175,1553 176,7463
177,6671 178,1056 179,60 256,9999
257,1899 258,9835 259,1504 260,127
##END=
