##TITLE=16.beta.,17.alpha.-Estriol, 3TMS derivative
##JCAMP-DX=4.24
##DATA TYPE=MASS SPECTRUM
##ORIGIN=NIST Mass Spectrometry Data Center
##OWNER=NIST Mass Spectrometry Data Center
Collection (C) 2014 copyright by the U.S. Secretary of Commerce
on behalf of the United States of America. All rights reserved.
##CAS REGISTRY NO=57305-22-3
##$NIST MASS SPEC NO=333337
##MOLFORM=C27 H48 O3 Si3
##MW=504
##$NIST SOURCE=MSDC
##XUNITS=M/Z
##YUNITS=RELATIVE INTENSITY
##XFACTOR=1
##YFACTOR=1
##FIRSTX=29
##LASTX=508
##FIRSTY=40
##MAXX=508
##MINX=29
##MAXY=9999
##MINY=10
##NPOINTS=320
##PEAK TABLE=(XY..XY)
29,40 39,10 41,100 42,10
43,100 44,60 45,550 46,40
47,60 51,10 52,10 53,50
54,10 55,180 56,20 57,40
58,30 59,280 60,30 61,80
62,10 63,10 65,20 66,10
67,140 68,20 69,70 70,20
71,40 72,50 73,9999 74,871
75,1021 76,60 77,140 78,30
79,190 80,30 81,310 82,30
83,40 85,40 86,10 87,30
88,10 89,50 90,10 91,220
92,30 93,230 94,40 95,140
96,20 97,50 98,10 99,40
100,10 101,130 102,30 103,631
104,70 105,210 106,30 107,210
108,40 109,120 110,10 111,20
113,60 114,20 115,350 116,100
117,420 118,50 119,150 120,30
121,60 122,10 123,20 125,20
126,10 127,110 128,220 129,2372
130,330 131,380 132,50 133,490
134,80 135,100 136,10 137,20
139,20 140,20 141,210 142,90
143,430 144,70 145,130 147,2062
148,350 149,330 150,50 151,70
152,40 153,70 154,50 155,290
156,90 157,120 158,30 159,110
160,20 161,150 162,40 163,330
164,80 165,180 166,60 167,190
168,60 169,160 170,40 171,70
172,20 173,50 174,10 175,100
176,40 177,380 178,100 179,240
180,130 181,130 182,120 183,210
184,40 185,100 186,30 187,120
188,50 189,320 190,80 191,160
192,80 193,130 194,30 195,60
196,20 197,40 198,10 199,80
200,50 201,250 202,70 203,380
204,230 205,831 206,190 207,80
208,10 209,40 210,10 211,30
212,10 213,60 214,40 215,240
216,130 217,480 218,480 219,210
220,50 221,30 222,10 223,20
225,30 226,10 227,80 228,20
229,691 230,250 231,851 232,470
233,130 234,30 235,40 236,10
237,50 238,10 239,90 240,30
241,100 242,110 243,250 244,470
245,240 246,70 247,20 249,10
250,10 251,60 252,20 253,110
254,80 255,310 256,200 257,410
258,160 259,60 260,10 263,10
264,10 265,20 266,10 267,120
268,150 269,340 270,841 271,370
272,160 273,40 274,10 279,20
280,10 281,130 282,160 283,520
284,290 285,500 286,310 287,80
288,20 289,10 291,10 293,20
294,20 295,490 296,771 297,1261
298,470 299,410 300,110 301,30
302,10 304,10 305,10 306,20
307,30 308,20 309,240 310,200
311,1752 312,460 313,140 314,40
315,20 317,10 318,10 319,30
320,10 321,10 322,30 323,130
324,591 325,460 326,140 327,40
328,20 331,10 332,10 333,10
341,30 342,110 343,40 345,1682
346,520 347,230 348,40 349,10
357,30 358,40 359,50 360,240
361,80 362,30 363,10 371,10
372,10 373,10 385,60 386,991
387,480 388,200 389,50 390,10
397,10 399,160 400,50 401,40
402,20 403,10 412,10 413,50
414,350 415,140 416,60 417,10
487,10 488,10 489,190 490,80
491,40 492,20 502,20 504,1461
505,681 506,310 507,90 508,20
##END=
