##TITLE=16.beta.,17.beta.-Estriol, 3TMS derivative
##JCAMP-DX=4.24
##DATA TYPE=MASS SPECTRUM
##ORIGIN=John Halket,Royal Holloway, University of London, UK
##OWNER=NIST Mass Spectrometry Data Center
Collection (C) 2014 copyright by the U.S. Secretary of Commerce
on behalf of the United States of America. All rights reserved.
##CAS REGISTRY NO=57305-21-2
##$NIST MASS SPEC NO=331783
##MOLFORM=C27 H48 O3 Si3
##MW=504
##$NIST SOURCE=MSDC
##XUNITS=M/Z
##YUNITS=RELATIVE INTENSITY
##XFACTOR=1
##YFACTOR=1
##FIRSTX=29
##LASTX=509
##FIRSTY=30
##MAXX=509
##MINX=29
##MAXY=9999
##MINY=10
##NPOINTS=313
##PEAK TABLE=(XY..XY)
29,30 39,20 41,90 43,100
44,60 45,480 46,40 47,60
53,50 54,20 55,150 56,10
57,30 58,30 59,260 60,30
61,80 65,30 66,20 67,140
68,20 69,70 70,20 71,50
73,9999 74,911 75,1061 76,70
77,130 78,20 79,200 80,30
81,340 82,30 83,30 85,50
87,30 88,10 89,60 90,10
91,240 92,50 93,250 94,60
95,170 96,20 97,50 99,50
101,110 102,40 103,681 104,80
105,230 106,30 107,220 108,50
109,130 110,10 111,30 113,80
114,30 115,360 116,100 117,430
118,60 119,170 120,30 121,70
123,30 125,20 126,20 127,130
128,220 129,2752 130,350 131,410
132,70 133,540 134,90 135,120
136,20 137,20 139,30 140,20
141,260 142,100 143,510 144,90
145,160 147,2042 148,340 149,320
150,50 151,90 152,60 153,90
154,60 155,420 156,130 157,140
158,40 159,120 160,30 161,200
162,60 163,390 164,90 165,210
166,70 167,250 168,90 169,230
170,50 171,140 173,70 174,20
175,110 176,50 177,550 178,160
179,370 180,180 181,170 182,210
183,360 184,80 185,160 186,40
187,140 188,60 189,470 190,120
191,220 192,130 193,180 194,50
195,90 196,30 197,60 198,20
199,130 200,80 201,390 202,120
203,841 204,450 205,1401 206,310
207,130 208,40 209,70 210,20
211,50 212,10 213,100 214,80
215,410 216,260 217,801 218,711
219,360 220,90 221,60 222,30
223,50 224,10 225,60 226,20
227,140 228,60 229,1091 230,500
231,1481 232,821 233,230 234,60
235,70 236,20 237,70 238,30
239,160 240,50 241,190 242,180
243,470 244,761 245,470 246,120
247,40 249,20 250,10 251,100
252,60 253,220 254,140 255,691
256,400 257,761 258,360 259,120
260,30 261,10 265,60 266,40
267,250 268,390 269,781 270,1962
271,811 272,310 273,90 274,20
275,10 277,10 279,50 280,40
281,350 282,340 283,1251 284,661
285,1001 286,661 287,180 288,40
289,10 291,20 292,10 293,40
294,50 295,1041 296,1682 297,2883
298,1081 299,861 300,220 301,60
305,30 306,50 307,50 308,40
309,591 310,500 311,4224 312,1161
313,340 314,80 315,30 316,10
317,20 318,20 319,60 320,40
321,30 322,30 323,410 324,1601
325,1041 326,300 327,100 328,20
329,10 330,10 331,20 332,30
333,20 341,60 342,140 343,80
345,4154 346,1321 347,540 348,110
349,20 355,20 357,80 358,90
359,140 360,911 361,300 362,110
363,20 371,50 372,30 373,30
374,10 385,270 386,2913 387,1491
388,581 389,150 390,30 397,10
399,450 400,170 401,140 402,40
403,10 413,140 414,1291 415,470
416,170 417,40 489,671 490,300
491,130 492,40 502,40 504,6326
505,2803 506,1251 507,340 508,80
509,10
##END=
