##TITLE=Androst-16-ene, 3,17-bis[(trimethylsilyl)oxy]-, (3.alpha.,5.beta.)-
##JCAMP-DX=4.24
##DATA TYPE=MASS SPECTRUM
##ORIGIN=STER ANDR TMSI L 00 0000 E M.HORN
##OWNER=NIST Mass Spectrometry Data Center
Collection (C) 2014 copyright by the U.S. Secretary of Commerce
on behalf of the United States of America. All rights reserved.
##CAS REGISTRY NO=57305-19-8
##$NIST MASS SPEC NO=43240
##MOLFORM=C25 H46 O2 Si2
##MW=434
##$NIST SOURCE=MSDC
##XUNITS=M/Z
##YUNITS=RELATIVE INTENSITY
##XFACTOR=1
##YFACTOR=1
##FIRSTX=41
##LASTX=438
##FIRSTY=2400
##MAXX=438
##MINX=41
##MAXY=9999
##MINY=96
##NPOINTS=178
##PEAK TABLE=(XY..XY)
41,2400 42,296 43,1696 44,800
45,4248 46,400 47,1496 49,96
51,96 53,696 54,248 55,3296
56,400 57,1000 58,496 59,2000
60,496 61,1496 62,248 65,296
67,2296 68,400 69,1000 70,296
71,496 72,800 73,9999 74,4096
75,9999 76,2000 77,2000 78,400
79,2496 80,400 81,3000 82,296
85,496 89,296 91,3400 92,600
93,3096 94,600 95,2096 96,344
97,400 99,296 101,696 103,600
104,296 105,3200 106,696 107,2496
108,400 109,1000 110,96 111,296
113,296 115,496 116,296 117,1496
118,400 119,1600 120,400 121,896
123,200 125,96 127,1000 128,296
129,2400 130,600 131,2200 132,496
133,1296 134,200 135,696 141,600
142,600 143,1600 144,400 145,1800
146,496 147,1496 148,344 149,600
151,400 153,296 154,200 155,2496
156,1400 157,1600 158,496 159,1096
160,400 161,1096 162,200 163,200
165,600 166,296 167,2800 168,1400
169,5800 170,1000 171,896 172,200
173,600 174,200 175,496 179,400
180,296 181,2496 182,3496 183,1600
184,496 185,696 186,200 187,600
188,200 193,400 194,296 195,896
196,200 197,696 198,296 199,496
200,296 201,296 202,800 203,200
205,200 207,800 208,200 209,296
210,200 211,296 213,496 214,400
215,296 219,400 220,296 221,896
222,200 223,200 233,296 234,96
235,400 236,96 239,3200 240,600
247,400 248,96 253,400 254,496
255,600 256,96 272,200 273,96
275,200 328,496 329,8200 330,2496
331,800 332,96 343,296 344,400
345,200 346,96 355,96 418,400
419,8600 420,3296 421,1296 422,400
433,496 434,9999 435,3696 436,1600
437,496 438,96
##END=
