##TITLE=4'-Ethyl-4-biphenylcarboxylic acid
##JCAMP-DX=4.24
##DATA TYPE=MASS SPECTRUM
##ORIGIN=NIST Mass Spectrometry Data Center, 1994
##OWNER=NIST Mass Spectrometry Data Center
Collection (C) 2014 copyright by the U.S. Secretary of Commerce
on behalf of the United States of America. All rights reserved.
##CAS REGISTRY NO=5731-13-5
##$NIST MASS SPEC NO=136157
##MOLFORM=C15 H14 O2
##MW=226
##$NIST SOURCE=MSDC
##XUNITS=M/Z
##YUNITS=RELATIVE INTENSITY
##XFACTOR=1
##YFACTOR=1
##FIRSTX=6
##LASTX=229
##FIRSTY=47
##MAXX=229
##MINX=6
##MAXY=9999
##MINY=3
##NPOINTS=113
##PEAK TABLE=(XY..XY)
6,47 8,36 11,31 17,48
22,12 37,35 38,59 39,311
44,10 45,292 46,8 50,194
51,423 52,105 53,75 55,56
61,43 62,159 63,451 64,81
65,176 67,30 69,63 70,91
75,231 76,384 77,483 78,118
79,83 80,23 81,23 82,377
83,228 84,36 85,115 86,86
87,226 88,108 89,329 90,64
91,97 93,22 97,357 98,101
99,97 101,130 102,159 103,143
104,78 105,188 106,108 107,34
110,38 113,129 114,87 115,749
116,91 119,28 121,23 122,21
125,68 126,161 127,229 128,310
129,120 137,46 138,67 139,358
140,82 141,139 145,23 149,39
150,203 151,392 152,1615 153,467
154,77 155,31 157,27 159,53
160,174 161,43 162,69 163,284
164,399 165,2830 166,1108 167,316
168,59 173,115 175,31 176,154
177,105 178,411 179,228 180,99
181,959 182,162 183,75 198,106
205,16 207,109 209,167 211,9999
212,1589 213,173 215,22 223,19
224,55 226,5661 227,945 228,77
229,3
##END=
