##TITLE=4'-Butoxyacetophenone
##JCAMP-DX=4.24
##DATA TYPE=MASS SPECTRUM
##ORIGIN=NIST Mass Spectrometry Data Center
##OWNER=NIST Mass Spectrometry Data Center
Collection (C) 2014 copyright by the U.S. Secretary of Commerce
on behalf of the United States of America. All rights reserved.
##CAS REGISTRY NO=5736-89-0
##$NIST MASS SPEC NO=343701
##MOLFORM=C12 H16 O2
##MW=192
##$NIST SOURCE=MSDC
##XUNITS=M/Z
##YUNITS=RELATIVE INTENSITY
##XFACTOR=1
##YFACTOR=1
##FIRSTX=14
##LASTX=194
##FIRSTY=10
##MAXX=194
##MINX=14
##MAXY=9999
##MINY=10
##NPOINTS=68
##PEAK TABLE=(XY..XY)
14,10 15,130 18,10 26,50
27,540 28,160 29,1281 30,30
31,10 37,10 38,110 39,671
40,40 41,981 42,80 43,1341
44,30 50,210 51,200 52,70
53,140 54,10 55,140 56,70
57,380 58,10 62,60 63,290
64,250 65,791 66,90 67,50
74,60 75,70 76,190 77,410
78,90 79,150 80,10 89,50
90,20 91,230 92,290 93,761
94,70 103,10 104,70 105,30
106,20 107,270 108,110 109,10
119,90 121,9999 122,781 123,60
133,10 136,731 137,200 138,10
147,30 149,80 177,1411 178,170
179,10 192,2562 193,310 194,30
##END=
