##TITLE=Pyroquilon
##JCAMP-DX=4.24
##DATA TYPE=MASS SPECTRUM
##ORIGIN=NIST Mass Spectrometry Data Center, 2009
##OWNER=NIST Mass Spectrometry Data Center
Collection (C) 2014 copyright by the U.S. Secretary of Commerce
on behalf of the United States of America. All rights reserved.
##CAS REGISTRY NO=57369-32-1
##$NIST MASS SPEC NO=373117
##MOLFORM=C11 H11 N O
##MW=173
##$NIST SOURCE=MSDC
##XUNITS=M/Z
##YUNITS=RELATIVE INTENSITY
##XFACTOR=1
##YFACTOR=1
##FIRSTX=15
##LASTX=175
##FIRSTY=10
##MAXX=175
##MINX=15
##MAXY=9999
##MINY=10
##NPOINTS=81
##PEAK TABLE=(XY..XY)
15,10 26,40 27,250 28,110
29,10 30,10 37,40 38,120
39,540 40,80 41,100 42,150
43,20 49,20 50,320 51,671
52,270 53,130 54,30 55,561
56,30 58,130 59,340 61,60
62,240 63,671 64,240 65,440
66,60 67,20 71,150 72,430
73,270 74,150 75,210 76,220
77,941 78,430 79,80 80,30
86,100 87,140 88,120 89,701
90,370 91,631 92,70 93,10
101,100 102,370 103,821 104,250
105,90 106,10 113,90 114,130
115,1211 116,430 117,2002 118,911
119,250 120,20 129,260 130,7957
131,1672 132,460 133,40 143,691
144,3883 145,1041 146,90 147,10
155,30 156,90 157,10 158,10
171,160 172,4504 173,9999 174,1211
175,80
##END=
