##TITLE=Cyclopenta(def)phenanthrenone
##JCAMP-DX=4.24
##DATA TYPE=MASS SPECTRUM
##ORIGIN=M. OEHME, NORW. INST. AIR RES., LILLESTROM, NORWAY
##OWNER=NIST Mass Spectrometry Data Center
Collection (C) 2014 copyright by the U.S. Secretary of Commerce
on behalf of the United States of America. All rights reserved.
##CAS REGISTRY NO=5737-13-3
##$NIST MASS SPEC NO=101287
##MOLFORM=C15 H8 O
##MW=204
##$NIST SOURCE=MSDC
##XUNITS=M/Z
##YUNITS=RELATIVE INTENSITY
##XFACTOR=1
##YFACTOR=1
##FIRSTX=61
##LASTX=206
##FIRSTY=60
##MAXX=206
##MINX=61
##MAXY=9999
##MINY=60
##NPOINTS=31
##PEAK TABLE=(XY..XY)
61,60 62,110 63,80 74,280
75,710 76,90 86,130 87,750
88,1700 98,250 99,140 100,70
102,370 110,70 111,80 122,110
123,70 124,80 126,70 149,330
150,760 151,70 173,90 174,950
175,1000 176,3110 177,460 203,60
204,9999 205,1810 206,150
##END=
