##TITLE=Ethyl 2-thiopheneacetate
##JCAMP-DX=4.24
##DATA TYPE=MASS SPECTRUM
##ORIGIN=NIST Mass Spectrometry Data Center
##OWNER=NIST Mass Spectrometry Data Center
Collection (C) 2014 copyright by the U.S. Secretary of Commerce
on behalf of the United States of America. All rights reserved.
##CAS REGISTRY NO=57382-97-5
##$NIST MASS SPEC NO=340436
##MOLFORM=C8 H10 O2 S
##MW=170
##$NIST SOURCE=MSDC
##XUNITS=M/Z
##YUNITS=RELATIVE INTENSITY
##XFACTOR=1
##YFACTOR=1
##FIRSTX=15
##LASTX=173
##FIRSTY=30
##MAXX=173
##MINX=15
##MAXY=9999
##MINY=10
##NPOINTS=63
##PEAK TABLE=(XY..XY)
15,30 26,70 27,460 29,1221
30,40 31,30 37,40 38,110
39,410 40,10 41,10 42,30
43,50 44,20 45,1341 46,40
47,120 48,50 50,120 51,210
52,110 53,1041 54,40 55,20
57,110 58,210 59,40 60,10
61,30 62,80 63,200 64,20
65,20 68,10 69,360 70,220
71,170 72,10 73,10 81,30
82,50 83,10 84,50 85,60
93,40 95,150 96,250 97,9999
98,881 99,591 100,40 111,30
113,40 124,70 125,80 126,10
141,10 142,20 155,10 170,2662
171,250 172,140 173,10
##END=
