##TITLE=7-Octadecenoic acid, methyl ester
##JCAMP-DX=4.24
##DATA TYPE=MASS SPECTRUM
##ORIGIN=EP-1283
##OWNER=NIST Mass Spectrometry Data Center
Collection (C) 2014 copyright by the U.S. Secretary of Commerce
on behalf of the United States of America. All rights reserved.
##CAS REGISTRY NO=57396-98-2
##$NIST MASS SPEC NO=43709
##MOLFORM=C19 H36 O2
##MW=296
##$NIST SOURCE=MSDC
##XUNITS=M/Z
##YUNITS=RELATIVE INTENSITY
##XFACTOR=1
##YFACTOR=1
##FIRSTX=26
##LASTX=299
##FIRSTY=70
##MAXX=299
##MINX=26
##MAXY=9999
##MINY=10
##NPOINTS=241
##PEAK TABLE=(XY..XY)
26,70 27,1600 28,800 29,4000
30,100 31,150 32,100 33,40
36,30 37,30 38,40 39,1400
40,290 41,8899 42,1400 43,7599
44,300 45,340 46,20 47,20
48,20 49,10 50,30 51,90
52,80 53,1000 54,3000 55,9999
56,2200 57,3600 58,200 59,2400
60,110 61,60 62,30 63,30
64,20 65,260 66,280 67,4500
68,2900 69,5799 70,1700 71,1600
72,240 73,900 74,7399 75,1100
76,80 77,320 78,180 79,1100
80,900 81,3500 82,2500 83,4900
84,5099 85,1400 86,120 87,4600
88,450 89,50 90,10 91,340
92,120 93,650 94,710 95,3300
96,4400 97,4100 98,3900 99,560
100,160 101,810 102,100 103,30
104,20 105,140 106,100 107,300
108,340 109,1600 110,2200 111,2000
112,750 113,490 114,650 115,1100
116,140 117,40 118,30 119,330
120,120 121,320 122,170 123,1700
124,1100 125,1100 126,230 127,420
128,640 129,540 130,130 131,30
132,20 133,240 134,200 135,280
136,120 137,1100 138,850 139,600
140,140 141,750 142,200 143,390
144,60 145,20 146,20 147,160
148,140 149,150 150,100 151,540
152,600 153,300 154,70 155,200
156,50 157,160 158,40 159,20
160,10 161,110 162,50 163,80
164,100 165,310 166,510 167,200
168,60 169,300 170,50 171,120
172,30 173,10 175,80 176,30
177,40 178,40 179,180 180,1300
181,290 182,50 183,160 184,30
185,100 186,30 187,20 189,40
190,20 191,30 192,20 193,140
194,210 195,60 196,20 197,40
198,10 199,120 200,60 201,10
203,30 204,20 205,20 206,20
207,130 208,110 209,50 210,30
211,50 212,10 213,120 214,70
215,20 217,20 218,20 219,10
220,480 221,330 222,1800 223,370
224,40 225,20 226,10 227,50
228,40 229,20 230,20 231,20
233,10 234,10 235,230 236,220
237,50 238,10 239,30 240,10
241,30 242,10 245,20 246,170
247,100 248,20 249,30 250,20
251,10 253,80 254,20 255,20
256,10 257,10 260,10 262,20
263,60 264,3300 265,1900 266,310
267,60 268,20 269,10 278,30
279,10 281,10 282,10 294,20
295,20 296,580 297,130 298,40
299,10
##END=
