##TITLE=Glycine, N-(3-pyridinylcarbonyl)-, methyl ester
##JCAMP-DX=4.24
##DATA TYPE=MASS SPECTRUM
##ORIGIN=ACIR AROM METH SE30 05 1687 E M.HORN
##OWNER=NIST Mass Spectrometry Data Center
Collection (C) 2014 copyright by the U.S. Secretary of Commerce
on behalf of the United States of America. All rights reserved.
##CAS REGISTRY NO=57397-47-4
##$NIST MASS SPEC NO=43532
##MOLFORM=C9 H10 N2 O3
##MW=194
##$NIST SOURCE=MSDC
##XUNITS=M/Z
##YUNITS=RELATIVE INTENSITY
##XFACTOR=1
##YFACTOR=1
##FIRSTX=41
##LASTX=195
##FIRSTY=118
##MAXX=195
##MINX=41
##MAXY=9999
##MINY=50
##NPOINTS=48
##PEAK TABLE=(XY..XY)
41,118 42,125 43,156 44,156
45,325 47,187 49,100 50,825
51,3000 52,625 53,250 55,50
56,225 58,56 59,256 61,56
65,50 68,87 73,506 74,68
75,1200 76,237 77,350 78,5250
79,718 80,75 88,100 93,168
95,68 104,50 105,125 106,9999
107,1150 108,87 118,56 134,100
135,2800 136,287 138,68 147,100
151,100 162,1500 163,337 164,268
165,75 176,50 194,1000 195,150
##END=
