##TITLE=Ethanone, 2-(acetyloxy)-1,2-diphenyl-
##JCAMP-DX=4.24
##DATA TYPE=MASS SPECTRUM
##ORIGIN=NIST Mass Spectrometry Data Center, 1992
##OWNER=NIST Mass Spectrometry Data Center
Collection (C) 2014 copyright by the U.S. Secretary of Commerce
on behalf of the United States of America. All rights reserved.
##CAS REGISTRY NO=574-06-1
##$NIST MASS SPEC NO=125154
##MOLFORM=C16 H14 O3
##MW=254
##$NIST SOURCE=MSDC
##XUNITS=M/Z
##YUNITS=RELATIVE INTENSITY
##XFACTOR=1
##YFACTOR=1
##FIRSTX=12
##LASTX=254
##FIRSTY=8
##MAXX=254
##MINX=12
##MAXY=9999
##MINY=1
##NPOINTS=102
##PEAK TABLE=(XY..XY)
12,8 14,50 15,354 16,5
17,1 18,54 25,2 26,16
27,136 29,59 36,3 37,8
38,62 39,221 40,27 43,4586
44,110 45,18 50,409 51,1498
52,163 53,34 55,5 57,7
60,3 62,83 63,219 64,70
65,44 66,4 69,15 70,12
73,14 74,93 75,98 76,3
77,3562 78,399 79,935 80,60
83,72 85,4 86,17 87,26
89,308 90,247 91,37 92,4
97,21 99,7 100,4 101,10
102,20 105,9999 106,1016 107,3223
108,258 109,14 110,4 111,3
113,12 115,65 116,7 118,44
119,5 126,14 127,16 128,35
129,4 133,12 134,2 137,5
139,51 140,7 141,12 149,1081
150,115 151,51 152,201 153,30
154,5 155,4 162,7 163,40
164,80 165,379 166,114 167,140
168,21 176,6 178,4 181,9
182,1 183,3 194,55 195,37
196,7 209,2 210,8 211,42
212,23 254,16
##END=
