##TITLE=Benzenamine, N-(diphenylmethylene)-
##JCAMP-DX=4.24
##DATA TYPE=MASS SPECTRUM
##ORIGIN=D.HENNEBERG, MAX-PLANCK INSTITUTE, MULHEIM, WEST GERMANY
##OWNER=NIST Mass Spectrometry Data Center
Collection (C) 2014 copyright by the U.S. Secretary of Commerce
on behalf of the United States of America. All rights reserved.
##CAS REGISTRY NO=574-45-8
##$NIST MASS SPEC NO=63759
##MOLFORM=C19 H15 N
##MW=257
##$NIST SOURCE=MSDC
##XUNITS=M/Z
##YUNITS=RELATIVE INTENSITY
##XFACTOR=1
##YFACTOR=1
##FIRSTX=26
##LASTX=259
##FIRSTY=69
##MAXX=259
##MINX=26
##MAXY=9999
##MINY=3
##NPOINTS=133
##PEAK TABLE=(XY..XY)
26,69 27,230 28,4 33,21
34,19 37,13 38,49 39,297
40,20 41,7 49,11 50,380
51,3630 52,223 53,19 61,8
62,70 63,221 64,58 65,65
66,4 70,6 73,9 74,94
75,182 76,325 77,9844 78,688
79,22 80,3 81,5 85,8
86,28 87,68 88,70 89,84
90,14 91,17 94,5 98,19
99,25 100,36 101,54 102,78
103,84 104,148 105,118 106,76
107,24 108,8 109,19 110,11
111,15 112,19 113,97 114,65
115,126 116,19 120,17 121,82
122,6 123,7 124,12 125,29
126,158 127,302 129,83 130,8
137,24 138,23 139,131 140,56
141,6 146,3 149,13 150,55
151,199 152,431 153,165 154,100
155,13 158,7 161,8 162,26
163,175 164,156 165,3911 166,543
167,48 174,8 175,14 176,34
177,90 178,204 179,165 180,9999
181,1477 182,148 183,12 187,6
188,11 189,18 190,24 191,8
200,13 201,11 202,19 203,9
204,9 214,8 215,22 216,15
224,8 225,12 226,25 227,22
228,38 229,14 230,48 231,9
239,12 240,13 241,17 250,9
251,23 252,45 253,54 254,211
255,251 256,2863 257,7943 258,1658
259,172
##END=
