##TITLE=Thioinosine
##JCAMP-DX=4.24
##DATA TYPE=MASS SPECTRUM
##ORIGIN=Japan AIST/NIMC Database- Spectrum MS-IW-1221
##OWNER=NIST Mass Spectrometry Data Center
Collection (C) 2014 copyright by the U.S. Secretary of Commerce
on behalf of the United States of America. All rights reserved.
##CAS REGISTRY NO=574-25-4
##$NIST MASS SPEC NO=238348
##MOLFORM=C10 H12 N4 O4 S
##MW=284
##$NIST SOURCE=MSDC
##XUNITS=M/Z
##YUNITS=RELATIVE INTENSITY
##XFACTOR=1
##YFACTOR=1
##FIRSTX=14
##LASTX=258
##FIRSTY=20
##MAXX=258
##MINX=14
##MAXY=9999
##MINY=10
##NPOINTS=171
##PEAK TABLE=(XY..XY)
14,20 15,119 17,100 18,569
19,40 25,10 26,60 27,339
28,1419 29,589 30,90 31,469
32,179 33,119 34,359 35,10
36,20 37,10 38,249 39,399
40,189 41,329 42,249 43,1029
44,679 45,709 46,99 47,189
48,10 49,10 50,20 51,40
52,50 53,469 54,619 55,579
56,229 57,2309 58,319 59,129
60,819 61,369 62,20 63,10
64,369 65,279 66,429 67,139
68,289 69,469 70,729 71,1539
72,399 73,1489 74,159 75,30
76,449 77,60 78,10 79,10
80,129 81,729 82,219 83,209
84,149 85,449 86,369 87,99
88,30 89,50 90,10 91,50
92,409 93,259 94,40 95,50
96,80 97,839 98,1239 99,169
100,90 101,99 102,40 103,139
104,20 105,10 107,20 108,309
109,149 110,30 111,60 112,50
113,90 114,169 115,319 116,70
117,30 118,20 119,1709 120,169
121,20 122,10 123,10 124,479
125,1859 126,219 127,119 128,60
129,20 130,50 131,70 132,50
133,259 134,30 135,109 136,1749
137,209 138,10 139,30 141,10
143,169 144,60 145,50 146,20
147,10 148,30 149,10 150,10
151,529 152,9999 153,1009 154,489
155,50 156,10 157,40 159,10
160,99 161,169 162,20 163,20
164,30 165,10 166,10 169,20
171,10 173,20 174,40 175,20
176,20 177,10 181,10 187,10
189,10 191,40 192,70 193,10
194,20 195,10 199,20 203,50
204,10 208,10 215,20 216,10
217,10 224,20 232,40 233,30
248,10 256,50 258,20
##END=
