##TITLE=Acridophosphine, 10-methyl-
##JCAMP-DX=4.24
##DATA TYPE=MASS SPECTRUM
##ORIGIN=ORMSBG,10(7)515(1975); C. JONGSMA
##OWNER=NIST Mass Spectrometry Data Center
Collection (C) 2014 copyright by the U.S. Secretary of Commerce
on behalf of the United States of America. All rights reserved.
##CAS REGISTRY NO=57422-79-4
##$NIST MASS SPEC NO=54457
##MOLFORM=C14 H11 P
##MW=210
##$NIST SOURCE=MSDC
##XUNITS=M/Z
##YUNITS=RELATIVE INTENSITY
##XFACTOR=1
##YFACTOR=1
##FIRSTX=151
##LASTX=211
##FIRSTY=200
##MAXX=211
##MINX=151
##MAXY=9999
##MINY=100
##NPOINTS=23
##PEAK TABLE=(XY..XY)
151,200 152,1400 157,200 159,300
163,200 164,100 165,1600 166,200
176,700 177,600 178,9999 179,1800
181,200 183,2000 184,100 194,200
205,200 206,200 207,2800 208,800
209,1400 210,9999 211,1600
##END=
