##TITLE=Phenanthrene, tetradecahydro-
##JCAMP-DX=4.24
##DATA TYPE=MASS SPECTRUM
##OWNER=NIST Mass Spectrometry Data Center
Collection (C) 2014 copyright by the U.S. Secretary of Commerce
on behalf of the United States of America. All rights reserved.
##CAS REGISTRY NO=5743-97-5
##$NIST MASS SPEC NO=8306
##MOLFORM=C14 H24
##MW=192
##$NIST SOURCE=MSDC
##XUNITS=M/Z
##YUNITS=RELATIVE INTENSITY
##XFACTOR=1
##YFACTOR=1
##FIRSTX=36
##LASTX=195
##FIRSTY=10
##MAXX=195
##MINX=36
##MAXY=9999
##MINY=10
##NPOINTS=147
##PEAK TABLE=(XY..XY)
36,10 37,40 38,150 39,4354
40,791 41,9999 42,1121 43,741
44,30 45,10 46,10 47,10
48,10 49,10 50,150 51,631
52,430 53,2512 54,2352 55,5125
56,370 57,210 58,30 59,20
60,30 61,70 62,30 63,170
64,70 65,911 66,741 67,9238
68,2572 69,1521 70,100 71,30
72,10 73,10 74,30 75,80
76,30 77,1481 78,460 79,2973
80,1241 81,7827 82,2532 83,971
84,70 85,10 86,10 87,10
88,10 89,40 90,20 91,1201
92,260 93,1922 94,1321 95,3883
96,7777 97,3623 98,260 99,10
100,10 101,10 102,30 103,90
104,50 105,270 106,110 107,731
108,931 109,1511 110,1261 111,360
112,30 113,10 114,10 115,90
116,30 117,70 118,20 119,90
120,100 121,2993 122,1692 123,1842
124,240 125,40 126,10 127,20
128,40 129,20 130,10 131,20
132,10 133,70 134,210 135,9238
136,1331 137,140 138,20 139,10
140,10 141,30 142,20 143,10
144,10 145,10 146,10 147,40
148,50 149,591 150,1021 151,160
152,20 153,10 154,10 155,10
156,10 157,10 158,10 159,10
160,10 161,30 162,20 163,520
164,330 165,50 166,10 167,10
175,10 176,10 177,40 178,10
179,10 186,10 187,10 188,10
189,10 190,40 191,80 192,8317
193,1281 194,100 195,10
##END=
