##TITLE=1H-Fluorene, dodecahydro-
##JCAMP-DX=4.24
##DATA TYPE=MASS SPECTRUM
##ORIGIN=Japan AIST/NIMC Database- Spectrum MS-NW- 85
##OWNER=NIST Mass Spectrometry Data Center
Collection (C) 2014 copyright by the U.S. Secretary of Commerce
on behalf of the United States of America. All rights reserved.
##CAS REGISTRY NO=5744-03-6
##$NIST MASS SPEC NO=229754
##MOLFORM=C13 H22
##MW=178
##$NIST SOURCE=MSDC
##XUNITS=M/Z
##YUNITS=RELATIVE INTENSITY
##XFACTOR=1
##YFACTOR=1
##FIRSTX=15
##LASTX=180
##FIRSTY=20
##MAXX=180
##MINX=15
##MAXY=9999
##MINY=10
##NPOINTS=84
##PEAK TABLE=(XY..XY)
15,20 26,30 27,589 28,129
29,619 38,30 39,1019 40,169
41,2499 42,189 43,219 50,40
51,199 52,119 53,889 54,1529
55,2789 56,149 57,99 58,10
63,70 64,30 65,399 66,389
67,5649 68,1499 69,439 70,30
71,30 73,30 74,20 76,10
77,739 78,189 79,1639 80,1049
81,5479 82,4199 83,789 84,50
85,20 89,40 90,10 91,689
92,149 93,839 94,579 95,1299
96,8759 97,9999 98,769 99,30
103,40 104,20 105,129 106,50
107,269 108,169 109,299 110,149
111,50 115,40 116,20 117,30
119,70 120,159 121,1649 122,279
123,50 128,10 133,40 134,40
135,559 136,189 137,40 147,20
149,179 150,189 151,20 163,30
177,20 178,2539 179,379 180,30
##END=
