##TITLE=1,7-Dihydroxynaphthalene
##JCAMP-DX=4.24
##DATA TYPE=MASS SPECTRUM
##ORIGIN=Japan AIST/NIMC Database- Spectrum MS-NW- 130
##OWNER=NIST Mass Spectrometry Data Center
Collection (C) 2014 copyright by the U.S. Secretary of Commerce
on behalf of the United States of America. All rights reserved.
##CAS REGISTRY NO=575-38-2
##$NIST MASS SPEC NO=229818
##MOLFORM=C10 H8 O2
##MW=160
##$NIST SOURCE=MSDC
##XUNITS=M/Z
##YUNITS=RELATIVE INTENSITY
##XFACTOR=1
##YFACTOR=1
##FIRSTX=18
##LASTX=162
##FIRSTY=10
##MAXX=162
##MINX=18
##MAXY=9999
##MINY=10
##NPOINTS=60
##PEAK TABLE=(XY..XY)
18,10 26,30 27,80 28,20
29,60 37,40 38,99 39,199
41,20 43,20 49,30 50,289
51,749 52,169 53,139 55,60
56,20 57,80 61,70 62,189
63,329 64,70 65,239 66,229
67,30 73,40 74,249 75,259
76,269 77,1169 78,249 79,80
80,529 85,20 86,70 87,109
88,70 89,60 98,30 99,10
101,99 102,539 103,1099 104,469
105,129 106,20 113,129 114,159
115,379 116,40 129,30 130,60
131,4639 132,1699 133,159 144,20
159,429 160,9999 161,1119 162,99
##END=
