##TITLE=Naphthalene, 1,6-dimethyl-
##JCAMP-DX=4.24
##DATA TYPE=MASS SPECTRUM
##ORIGIN=Japan AIST/NIMC Database- Spectrum MS-NW-7696
##OWNER=NIST Mass Spectrometry Data Center
Collection (C) 2014 copyright by the U.S. Secretary of Commerce
on behalf of the United States of America. All rights reserved.
##CAS REGISTRY NO=575-43-9
##$NIST MASS SPEC NO=230548
##MOLFORM=C12 H12
##MW=156
##$NIST SOURCE=MSDC
##XUNITS=M/Z
##YUNITS=RELATIVE INTENSITY
##XFACTOR=1
##YFACTOR=1
##FIRSTX=15
##LASTX=159
##FIRSTY=10
##MAXX=159
##MINX=15
##MAXY=9999
##MINY=10
##NPOINTS=84
##PEAK TABLE=(XY..XY)
15,10 26,10 27,99 28,10
37,10 38,40 39,289 40,20
41,30 50,169 51,499 52,70
53,50 55,10 57,159 58,10
61,30 62,159 63,549 64,569
65,119 66,10 67,10 69,90
70,309 71,40 73,10 74,149
75,209 76,839 77,1029 78,419
79,20 80,10 81,10 85,20
86,70 87,109 88,50 89,179
90,20 91,80 95,10 98,50
99,30 100,20 101,80 102,139
103,60 105,10 109,10 110,20
111,10 113,80 114,50 115,1109
116,159 117,10 122,10 123,10
125,20 126,149 127,509 128,819
129,429 130,50 131,10 137,10
138,30 139,569 140,179 141,5999
142,729 143,50 150,90 151,269
152,829 153,999 154,409 155,3039
156,9999 157,1309 158,90 159,10
##END=
