##TITLE=Furan, 2-[(methyldithio)methyl]-
##JCAMP-DX=4.24
##DATA TYPE=MASS SPECTRUM
##ORIGIN=Chuck Anderson, Aldrich Chemical Co.
##OWNER=NIST Mass Spectrometry Data Center
Collection (C) 2014 copyright by the U.S. Secretary of Commerce
on behalf of the United States of America. All rights reserved.
##CAS REGISTRY NO=57500-00-2
##$NIST MASS SPEC NO=118082
##MOLFORM=C6 H8 O S2
##MW=160
##$NIST SOURCE=MSDC
##XUNITS=M/Z
##YUNITS=RELATIVE INTENSITY
##XFACTOR=1
##YFACTOR=1
##FIRSTX=14
##LASTX=162
##FIRSTY=10
##MAXX=162
##MINX=14
##MAXY=9999
##MINY=6
##NPOINTS=54
##PEAK TABLE=(XY..XY)
14,10 15,22 26,47 27,381
28,6 29,65 32,12 37,28
38,67 39,177 40,14 41,62
42,30 44,14 45,606 46,111
47,105 48,17 49,23 50,150
51,300 52,180 53,1840 54,86
55,11 57,23 58,74 59,59
61,11 64,150 65,16 66,21
68,24 69,107 70,12 71,17
78,14 79,517 80,73 81,9999
82,538 83,62 84,49 85,224
86,13 87,13 93,11 111,42
112,24 113,36 116,18 160,353
161,28 162,33
##END=
