##TITLE=Butane, 2-cyclopropyl-
##JCAMP-DX=4.24
##DATA TYPE=MASS SPECTRUM
##ORIGIN=NIST Mass Spectrometry Data Center, 1990.
##OWNER=NIST Mass Spectrometry Data Center
Collection (C) 2014 copyright by the U.S. Secretary of Commerce
on behalf of the United States of America. All rights reserved.
##CAS REGISTRY NO=5750-02-7
##$NIST MASS SPEC NO=113636
##MOLFORM=C7 H14
##MW=98
##$NIST SOURCE=MSDC
##XUNITS=M/Z
##YUNITS=RELATIVE INTENSITY
##XFACTOR=1
##YFACTOR=1
##FIRSTX=26
##LASTX=83
##FIRSTY=336
##MAXX=83
##MINX=26
##MAXY=9999
##MINY=243
##NPOINTS=19
##PEAK TABLE=(XY..XY)
26,336 27,2253 28,1057 29,1939
39,3400 41,7896 42,2596 43,440
50,243 51,424 53,1045 55,8360
56,2492 57,1796 67,669 69,4404
70,9999 71,549 83,477
##END=
