##TITLE=Ethyl 5-chlorothiophene-2-carboxylate
##JCAMP-DX=4.24
##DATA TYPE=MASS SPECTRUM
##ORIGIN=NIST Mass Spectrometry Data Center, 1994
##OWNER=NIST Mass Spectrometry Data Center
Collection (C) 2014 copyright by the U.S. Secretary of Commerce
on behalf of the United States of America. All rights reserved.
##CAS REGISTRY NO=5751-82-6
##$NIST MASS SPEC NO=135954
##MOLFORM=C7 H7 Cl O2 S
##MW=190
##$NIST SOURCE=MSDC
##XUNITS=M/Z
##YUNITS=RELATIVE INTENSITY
##XFACTOR=1
##YFACTOR=1
##FIRSTX=12
##LASTX=194
##FIRSTY=45
##MAXX=194
##MINX=12
##MAXY=9999
##MINY=12
##NPOINTS=110
##PEAK TABLE=(XY..XY)
12,45 13,60 14,244 15,781
16,49 17,12 18,35 19,25
25,90 26,581 27,2094 28,386
29,2608 30,223 32,75 33,23
35,60 36,86 37,614 38,919
39,392 40,30 41,57 42,81
43,219 44,189 45,1196 46,37
47,171 48,65 49,237 50,194
51,36 52,18 53,417 54,24
55,30 56,93 57,1056 58,186
59,32 60,80 61,39 62,22
65,22 67,22 68,59 69,360
70,71 71,139 72,206 73,3422
74,145 75,1127 76,39 77,36
79,256 80,129 81,1076 82,1199
83,365 84,217 85,61 86,28
87,22 89,24 91,133 92,47
93,56 94,17 95,15 98,20
99,12 105,34 107,13 109,73
110,37 111,98 115,27 116,99
117,854 118,615 119,348 120,225
121,25 127,28 131,24 133,19
134,85 136,35 145,9999 146,1347
147,3612 148,494 149,174 150,17
155,20 162,3096 163,227 164,1158
165,84 166,53 175,274 176,23
177,98 190,1911 191,196 192,682
193,53 194,37
##END=
