##TITLE=Imidazoline, 1,3-dinitro-
##JCAMP-DX=4.24
##DATA TYPE=MASS SPECTRUM
##ORIGIN=LAC, NIDDK, NIH, Bethesda, MD 20892
##OWNER=NIST Mass Spectrometry Data Center
Collection (C) 2014 copyright by the U.S. Secretary of Commerce
on behalf of the United States of America. All rights reserved.
##CAS REGISTRY NO=5754-91-6
##$NIST MASS SPEC NO=253383
##MOLFORM=C3 H6 N4 O4
##MW=162
##$NIST SOURCE=MSDC
##XUNITS=M/Z
##YUNITS=RELATIVE INTENSITY
##XFACTOR=1
##YFACTOR=1
##FIRSTX=42
##LASTX=162
##FIRSTY=9999
##MAXX=162
##MINX=42
##MAXY=9999
##MINY=4
##NPOINTS=29
##PEAK TABLE=(XY..XY)
42,9999 43,546 44,29 46,831
48,10 49,27 51,11 53,15
54,76 56,130 57,1065 58,324
59,153 60,4 67,21 69,415
70,103 72,4 73,14 85,768
86,37 89,206 99,270 115,1378
116,38 117,21 129,4 145,113
162,27
##END=
