##TITLE=Pentane, 1-(1-methylethoxy)-
##JCAMP-DX=4.24
##DATA TYPE=MASS SPECTRUM
##ORIGIN=DM6-146-F18
##OWNER=NIST Mass Spectrometry Data Center
Collection (C) 2014 copyright by the U.S. Secretary of Commerce
on behalf of the United States of America. All rights reserved.
##CAS REGISTRY NO=5756-37-6
##$NIST MASS SPEC NO=31276
##MOLFORM=C8 H18 O
##MW=130
##$NIST SOURCE=MSDC
##XUNITS=M/Z
##YUNITS=RELATIVE INTENSITY
##XFACTOR=1
##YFACTOR=1
##FIRSTX=15
##LASTX=130
##FIRSTY=100
##MAXX=130
##MINX=15
##MAXY=9999
##MINY=100
##NPOINTS=28
##PEAK TABLE=(XY..XY)
15,100 27,700 29,1900 30,100
31,300 39,400 40,100 41,1500
42,100 43,9999 44,400 45,2200
46,100 47,200 48,100 49,400
61,100 69,300 70,700 71,5199
72,200 73,2300 74,100 87,100
97,100 115,1800 116,200 130,600
##END=
