##TITLE=Benzene, 2-bromo-1,3-dimethyl-
##JCAMP-DX=4.24
##DATA TYPE=MASS SPECTRUM
##ORIGIN=Japan AIST/NIMC Database- Spectrum MS-NW-3376
##OWNER=NIST Mass Spectrometry Data Center
Collection (C) 2014 copyright by the U.S. Secretary of Commerce
on behalf of the United States of America. All rights reserved.
##CAS REGISTRY NO=576-22-7
##$NIST MASS SPEC NO=231811
##MOLFORM=C8 H9 Br
##MW=184
##$NIST SOURCE=MSDC
##XUNITS=M/Z
##YUNITS=RELATIVE INTENSITY
##XFACTOR=1
##YFACTOR=1
##FIRSTX=15
##LASTX=188
##FIRSTY=40
##MAXX=188
##MINX=15
##MAXY=9999
##MINY=10
##NPOINTS=72
##PEAK TABLE=(XY..XY)
15,40 26,50 27,409 29,10
36,10 37,99 38,219 39,799
40,70 41,60 43,20 44,10
49,70 50,509 51,1429 52,439
53,269 54,20 55,10 59,10
60,30 61,139 62,319 63,709
64,179 65,289 66,40 73,50
74,239 75,199 76,199 77,2049
78,1539 79,1509 80,99 81,30
82,30 84,10 85,30 86,70
87,80 88,30 89,279 90,189
91,159 92,189 93,40 97,10
98,40 99,10 101,50 102,319
103,2479 104,1369 105,9999 106,899
107,40 117,30 119,30 131,10
143,10 145,10 169,259 170,20
171,249 172,20 183,339 184,5489
185,819 186,5319 187,489 188,20
##END=
