##TITLE=Benzo[a]pyrene, 4,5-dihydro-
##JCAMP-DX=4.24
##DATA TYPE=MASS SPECTRUM
##ORIGIN=R.A.HITES, INDIANA UNIV., BLOOMINGTON, IN
##OWNER=NIST Mass Spectrometry Data Center
Collection (C) 2014 copyright by the U.S. Secretary of Commerce
on behalf of the United States of America. All rights reserved.
##CAS REGISTRY NO=57652-66-1
##$NIST MASS SPEC NO=80169
##MOLFORM=C20 H14
##MW=254
##$NIST SOURCE=MSDC
##XUNITS=M/Z
##YUNITS=RELATIVE INTENSITY
##XFACTOR=1
##YFACTOR=1
##FIRSTX=99
##LASTX=256
##FIRSTY=100
##MAXX=256
##MINX=99
##MAXY=9999
##MINY=100
##NPOINTS=27
##PEAK TABLE=(XY..XY)
99,100 100,300 101,200 111,200
112,700 113,1500 114,100 119,500
124,500 125,1000 126,2500 127,100
223,100 224,400 225,300 226,400
239,400 240,100 248,400 249,300
250,2200 251,700 252,7300 253,7600
254,9999 255,1900 256,200
##END=
