##TITLE=Isoxazole, 5-methyl-
##JCAMP-DX=4.24
##DATA TYPE=MASS SPECTRUM
##ORIGIN=Japan AIST/NIMC Database- Spectrum MS-NW-6437
##OWNER=NIST Mass Spectrometry Data Center
Collection (C) 2014 copyright by the U.S. Secretary of Commerce
on behalf of the United States of America. All rights reserved.
##CAS REGISTRY NO=5765-44-6
##$NIST MASS SPEC NO=233404
##MOLFORM=C4 H5 N O
##MW=83
##$NIST SOURCE=MSDC
##XUNITS=M/Z
##YUNITS=RELATIVE INTENSITY
##XFACTOR=1
##YFACTOR=1
##FIRSTX=12
##LASTX=85
##FIRSTY=60
##MAXX=85
##MINX=12
##MAXY=9999
##MINY=10
##NPOINTS=44
##PEAK TABLE=(XY..XY)
12,60 13,149 14,249 15,1179
16,20 24,30 25,149 26,679
27,1589 28,669 29,219 30,149
31,40 32,10 36,60 37,249
38,369 39,559 40,2149 41,2149
42,409 43,9999 44,269 45,40
47,10 48,10 49,109 50,379
51,489 52,249 53,259 54,819
55,329 56,119 57,10 67,80
68,3749 69,139 70,20 81,10
82,269 83,7139 84,369 85,30
##END=
