##TITLE=3-Hydroxyflavone
##JCAMP-DX=4.24
##DATA TYPE=MASS SPECTRUM
##ORIGIN=NIST Mass Spectrometry Data Center, 1990.
##OWNER=NIST Mass Spectrometry Data Center
Collection (C) 2014 copyright by the U.S. Secretary of Commerce
on behalf of the United States of America. All rights reserved.
##CAS REGISTRY NO=577-85-5
##$NIST MASS SPEC NO=118656
##MOLFORM=C15 H10 O3
##MW=238
##$NIST SOURCE=MSDC
##XUNITS=M/Z
##YUNITS=RELATIVE INTENSITY
##XFACTOR=1
##YFACTOR=1
##FIRSTX=17
##LASTX=241
##FIRSTY=13
##MAXX=241
##MINX=17
##MAXY=9999
##MINY=1
##NPOINTS=99
##PEAK TABLE=(XY..XY)
17,13 18,62 26,46 27,194
28,14 29,68 36,48 37,72
38,237 39,627 40,76 44,1
50,1030 51,1611 52,158 53,212
54,22 55,29 61,111 62,400
63,1040 64,626 65,493 66,98
69,44 73,47 74,283 75,383
76,1338 77,2665 78,255 79,54
82,75 83,18 85,39 86,89
87,109 88,112 89,906 90,406
91,160 92,727 93,306 94,33
96,29 98,27 99,27 100,27
101,72 102,68 103,27 104,551
105,1711 106,140 110,67 111,26
113,34 114,32 115,58 116,18
117,61 118,293 119,479 120,208
121,446 122,38 126,96 127,104
128,63 133,45 139,54 149,19
150,74 151,357 152,1268 153,690
154,124 155,30 161,33 163,107
164,118 165,351 166,43 181,2679
182,378 183,31 193,18 209,424
210,637 211,114 221,27 223,21
234,36 235,60 237,9999 238,8633
239,1285 240,111 241,20
##END=
