##TITLE=2-Acetylbenzoic acid
##JCAMP-DX=4.24
##DATA TYPE=MASS SPECTRUM
##ORIGIN=NIST Mass Spectrometry Data Center, 1990.
##OWNER=NIST Mass Spectrometry Data Center
Collection (C) 2014 copyright by the U.S. Secretary of Commerce
on behalf of the United States of America. All rights reserved.
##CAS REGISTRY NO=577-56-0
##$NIST MASS SPEC NO=118385
##MOLFORM=C9 H8 O3
##MW=164
##$NIST SOURCE=MSDC
##XUNITS=M/Z
##YUNITS=RELATIVE INTENSITY
##XFACTOR=1
##YFACTOR=1
##FIRSTX=14
##LASTX=164
##FIRSTY=63
##MAXX=164
##MINX=14
##MAXY=9999
##MINY=26
##NPOINTS=59
##PEAK TABLE=(XY..XY)
14,63 15,213 18,29 26,54
27,140 29,68 37,130 38,263
39,906 40,48 41,49 42,175
43,1458 44,127 45,159 46,45
49,112 50,1419 51,941 52,198
53,181 59,53 61,65 62,143
63,299 64,208 65,1578 66,169
73,167 74,559 75,462 76,1180
77,1276 78,406 79,51 86,45
87,26 89,140 90,195 91,518
92,26 93,1490 94,92 101,38
102,52 104,705 105,1731 106,145
118,102 119,33 120,174 121,1298
122,131 146,312 147,355 149,9999
150,946 151,114 164,114
##END=
