##TITLE=Ledol
##JCAMP-DX=4.24
##DATA TYPE=MASS SPECTRUM
##ORIGIN=R.I.REED CHEMISTRY DEPT., UNIV. OF GLASGOW
##OWNER=NIST Mass Spectrometry Data Center
Collection (C) 2014 copyright by the U.S. Secretary of Commerce
on behalf of the United States of America. All rights reserved.
##CAS REGISTRY NO=577-27-5
##$NIST MASS SPEC NO=35173
##MOLFORM=C15 H26 O
##MW=222
##$NIST SOURCE=MSDC
##XUNITS=M/Z
##YUNITS=RELATIVE INTENSITY
##XFACTOR=1
##YFACTOR=1
##FIRSTX=26
##LASTX=224
##FIRSTY=230
##MAXX=224
##MINX=26
##MAXY=9999
##MINY=5
##NPOINTS=159
##PEAK TABLE=(XY..XY)
26,230 27,1789 28,315 29,2190
30,45 31,193 32,11 37,43
38,70 39,1980 40,426 41,7615
42,1102 43,9999 44,955 45,406
46,17 47,7 48,5 49,5
50,111 51,387 52,245 53,1907
54,370 55,4609 56,483 57,728
58,434 59,357 60,19 61,16
62,31 63,115 64,64 65,852
66,336 67,4102 68,662 69,7383
70,703 71,2278 72,247 73,45
74,23 75,37 76,51 77,1837
78,380 79,330 80,852 81,5719
82,4061 83,1952 84,388 85,2004
86,70 87,26 88,8 89,53
90,20 91,2784 92,596 93,4108
94,1261 95,4510 96,1237 97,837
98,1500 99,262 100,25 101,12
102,56 103,163 104,83 105,3132
106,882 107,4672 108,2334 109,6591
110,894 111,3846 112,537 113,81
115,155 116,69 117,235 118,85
119,1836 120,651 121,3542 122,6615
123,1793 124,426 125,649 126,322
127,298 128,151 129,81 130,38
131,173 132,71 133,1574 134,494
135,1274 136,739 137,639 138,786
139,672 140,392 141,63 142,21
143,33 144,23 145,141 146,86
147,1957 148,1459 149,1289 150,235
151,522 152,122 153,65 159,68
160,73 161,3570 162,800 163,218
164,247 165,576 166,193 167,71
173,23 174,20 175,282 176,170
177,28 178,24 179,428 180,145
181,20 187,16 188,18 189,1641
190,258 191,42 192,9 193,42
194,26 202,16 203,23 204,2046
205,344 206,35 207,364 208,53
222,824 223,127 224,12
##END=
