##TITLE=Ethanone, 1-(2-nitrophenyl)-
##JCAMP-DX=4.24
##DATA TYPE=MASS SPECTRUM
##ORIGIN=NIST Mass Spectrometry Data Center, 1990.
##OWNER=NIST Mass Spectrometry Data Center
Collection (C) 2014 copyright by the U.S. Secretary of Commerce
on behalf of the United States of America. All rights reserved.
##CAS REGISTRY NO=577-59-3
##$NIST MASS SPEC NO=118821
##MOLFORM=C8 H7 N O3
##MW=165
##$NIST SOURCE=MSDC
##XUNITS=M/Z
##YUNITS=RELATIVE INTENSITY
##XFACTOR=1
##YFACTOR=1
##FIRSTX=13
##LASTX=166
##FIRSTY=26
##MAXX=166
##MINX=13
##MAXY=9999
##MINY=9
##NPOINTS=78
##PEAK TABLE=(XY..XY)
13,26 14,111 15,644 16,23
18,21 26,99 27,447 28,404
29,21 30,1090 31,11 32,19
36,29 37,230 38,377 39,685
40,63 41,93 42,524 43,5584
44,146 45,29 46,58 50,2806
51,5519 52,712 53,167 54,9
61,152 62,321 63,753 64,400
65,719 66,60 67,9 72,21
73,172 74,954 75,824 76,2769
77,1029 78,1275 79,127 84,11
85,38 86,42 87,57 88,37
89,242 90,11 91,944 92,402
93,61 94,15 98,27 99,9
101,52 102,20 104,597 105,78
106,92 107,19 120,80 121,22
123,1356 124,97 131,14 132,11
133,17 134,37 135,193 136,17
147,12 150,9999 151,826 152,85
165,115 166,16
##END=
