##TITLE=[1,1'-Biphenyl]-2-ol, 5-(1,1-dimethylethyl)-
##JCAMP-DX=4.24
##DATA TYPE=MASS SPECTRUM
##OWNER=NIST Mass Spectrometry Data Center
Collection (C) 2014 copyright by the U.S. Secretary of Commerce
on behalf of the United States of America. All rights reserved.
##CAS REGISTRY NO=577-92-4
##$NIST MASS SPEC NO=10737
##MOLFORM=C16 H18 O
##MW=226
##$NIST SOURCE=MSDC
##XUNITS=M/Z
##YUNITS=RELATIVE INTENSITY
##XFACTOR=1
##YFACTOR=1
##FIRSTX=14
##LASTX=228
##FIRSTY=10
##MAXX=228
##MINX=14
##MAXY=9999
##MINY=10
##NPOINTS=154
##PEAK TABLE=(XY..XY)
14,10 15,10 17,10 18,30
27,60 28,330 29,90 32,90
36,20 38,10 39,160 40,20
41,350 42,20 43,40 50,10
51,140 52,30 53,50 55,130
56,20 57,240 58,20 62,30
63,120 64,80 65,100 66,20
67,10 68,20 69,40 70,40
71,20 74,30 75,50 76,210
77,260 78,50 79,50 80,10
81,20 82,120 83,90 84,150
85,10 86,20 87,30 88,60
89,150 90,50 91,671 92,160
93,20 94,10 95,20 96,20
97,80 98,50 99,40 100,10
101,20 102,60 103,80 104,30
105,70 106,60 107,20 110,10
111,10 112,10 113,120 114,30
115,430 116,60 117,30 118,10
119,10 121,10 123,20 125,10
126,30 127,100 128,140 129,80
130,40 131,30 132,10 133,20
134,10 135,20 137,10 138,10
139,120 140,30 141,160 142,40
143,30 144,10 149,50 150,20
151,100 152,400 153,440 154,80
155,70 156,10 157,10 163,20
164,40 165,400 166,120 167,110
168,120 169,150 170,160 171,400
172,50 176,70 177,80 178,460
179,110 180,20 181,170 182,100
183,711 184,100 185,20 189,40
190,20 191,60 192,40 193,210
194,80 195,160 196,120 197,30
198,10 200,10 201,10 202,10
203,20 205,10 207,30 208,140
209,100 210,130 211,9999 212,1591
213,140 214,10 225,10 226,2602
227,460 228,40
##END=
