##TITLE=2-Oxabicyclo[2.2.2]octan-6-ol, 1,3,3-trimethyl-, acetate
##JCAMP-DX=4.24
##DATA TYPE=MASS SPECTRUM
##ORIGIN=N.W. Davies, Centr. Sci. Lab., Univ. Tasmania, Hobart, Australia
##OWNER=NIST Mass Spectrometry Data Center
Collection (C) 2014 copyright by the U.S. Secretary of Commerce
on behalf of the United States of America. All rights reserved.
##CAS REGISTRY NO=57709-95-2
##$NIST MASS SPEC NO=107041
##MOLFORM=C12 H20 O3
##MW=212
##$NIST SOURCE=MSDC
##XUNITS=M/Z
##YUNITS=RELATIVE INTENSITY
##XFACTOR=1
##YFACTOR=1
##FIRSTX=24
##LASTX=213
##FIRSTY=60
##MAXX=213
##MINX=24
##MAXY=9999
##MINY=60
##NPOINTS=79
##PEAK TABLE=(XY..XY)
24,60 26,380 27,270 29,250
34,290 36,60 37,70 38,60
39,1060 40,170 41,1320 42,60
43,9999 44,1400 45,1380 48,200
50,70 51,170 53,480 54,100
55,1060 56,540 57,90 58,1150
59,440 60,200 62,200 63,60
66,60 67,970 68,760 69,1400
70,70 71,2560 72,130 73,590
74,60 75,120 76,70 77,640
79,590 81,500 82,2280 83,1150
84,430 88,150 91,220 92,200
93,1990 94,470 95,440 96,210
97,320 98,220 101,150 103,130
106,70 108,4850 109,2030 110,240
111,1930 112,470 113,100 114,150
123,120 124,380 125,350 126,2950
127,440 128,90 132,200 137,480
141,130 152,410 153,170 154,200
155,220 212,1020 213,150
##END=
