##TITLE=2-Propanone, methylhydrazone
##JCAMP-DX=4.24
##DATA TYPE=MASS SPECTRUM
##ORIGIN=ATLAS OF MASS SPECTRA OF ORGANIC COMPOUNDS, V. A. KOPTYUG, ED.
##OWNER=NIST Mass Spectrometry Data Center
Collection (C) 2014 copyright by the U.S. Secretary of Commerce
on behalf of the United States of America. All rights reserved.
##CAS REGISTRY NO=5771-02-8
##$NIST MASS SPEC NO=64483
##MOLFORM=C4 H10 N2
##MW=86
##$NIST SOURCE=MSDC
##XUNITS=M/Z
##YUNITS=RELATIVE INTENSITY
##XFACTOR=1
##YFACTOR=1
##FIRSTX=26
##LASTX=87
##FIRSTY=350
##MAXX=87
##MINX=26
##MAXY=9999
##MINY=160
##NPOINTS=25
##PEAK TABLE=(XY..XY)
26,350 27,1170 28,3690 29,1520
30,9999 31,1130 38,240 39,780
40,570 41,1780 42,5390 43,870
44,780 45,350 54,1080 55,810
56,4560 57,1300 58,300 69,650
71,3390 72,160 85,570 86,8700
87,650
##END=
