##TITLE=2-Propanone, 1,1-diethoxy-
##JCAMP-DX=4.24
##DATA TYPE=MASS SPECTRUM
##ORIGIN=DOW CHEMICAL COMPANY / ASTM E14-UNCERTIFIED SPECTRUM 255
##OWNER=NIST Mass Spectrometry Data Center
Collection (C) 2014 copyright by the U.S. Secretary of Commerce
on behalf of the United States of America. All rights reserved.
##CAS REGISTRY NO=5774-26-5
##$NIST MASS SPEC NO=34364
##MOLFORM=C7 H14 O3
##MW=146
##$NIST SOURCE=MSDC
##XUNITS=M/Z
##YUNITS=RELATIVE INTENSITY
##XFACTOR=1
##YFACTOR=1
##FIRSTX=14
##LASTX=147
##FIRSTY=152
##MAXX=147
##MINX=14
##MAXY=9999
##MINY=9
##NPOINTS=110
##PEAK TABLE=(XY..XY)
14,152 15,908 16,57 17,213
18,967 19,245 25,34 26,158
27,838 28,1137 29,2171 30,140
31,966 32,9 36,59 37,36
38,54 39,208 40,82 41,578
42,531 43,9999 44,1357 45,2689
46,127 47,4456 48,61 49,31
50,47 51,96 52,70 53,96
54,59 55,293 56,219 57,464
58,362 59,661 60,281 61,345
62,30 63,68 64,42 65,146
67,53 68,75 69,172 70,110
71,186 72,244 73,1866 74,587
75,2234 76,134 77,185 78,40
79,36 80,96 81,57 82,67
83,124 84,75 85,457 86,183
87,1026 88,171 89,183 90,152
91,53 93,30 95,39 96,52
97,140 98,168 99,373 100,148
101,2637 102,488 103,2599 104,183
105,99 108,393 109,323 110,53
111,96 112,51 113,171 114,112
115,326 116,126 117,222 118,186
119,57 125,82 126,61 127,124
128,87 129,225 132,89 133,61
137,238 138,37 139,53 140,37
141,70 143,96 144,146 145,126
146,20 147,26
##END=
