##TITLE=Benzaldehyde, 2,4,5-trimethyl-
##JCAMP-DX=4.24
##DATA TYPE=MASS SPECTRUM
##ORIGIN=Japan AIST/NIMC Database- Spectrum MS-IW-4854
##OWNER=NIST Mass Spectrometry Data Center
Collection (C) 2014 copyright by the U.S. Secretary of Commerce
on behalf of the United States of America. All rights reserved.
##CAS REGISTRY NO=5779-72-6
##$NIST MASS SPEC NO=237336
##MOLFORM=C10 H12 O
##MW=148
##$NIST SOURCE=MSDC
##XUNITS=M/Z
##YUNITS=RELATIVE INTENSITY
##XFACTOR=1
##YFACTOR=1
##FIRSTX=26
##LASTX=150
##FIRSTY=10
##MAXX=150
##MINX=26
##MAXY=9999
##MINY=10
##NPOINTS=79
##PEAK TABLE=(XY..XY)
26,10 27,259 28,80 29,50
37,10 38,50 39,579 40,60
41,599 42,20 43,20 44,10
45,10 50,179 51,579 52,179
53,289 54,10 55,30 57,80
58,70 59,20 60,109 61,20
62,99 63,309 64,99 65,449
66,119 67,40 72,60 73,70
74,349 75,90 76,70 77,1019
78,319 79,439 80,30 85,10
86,30 87,30 88,10 89,109
90,30 91,1609 92,149 93,159
94,10 96,10 98,10 101,20
102,119 103,539 104,359 105,1349
106,119 107,10 114,10 115,489
116,119 117,589 118,199 119,5189
120,699 121,80 127,10 128,10
129,10 131,20 132,20 133,289
134,30 145,40 146,40 147,9999
148,7719 149,829 150,50
##END=
