##TITLE=5-Quinolinol
##JCAMP-DX=4.24
##DATA TYPE=MASS SPECTRUM
##ORIGIN=Japan AIST/NIMC Database- Spectrum MS-NW-7800
##OWNER=NIST Mass Spectrometry Data Center
Collection (C) 2014 copyright by the U.S. Secretary of Commerce
on behalf of the United States of America. All rights reserved.
##CAS REGISTRY NO=578-67-6
##$NIST MASS SPEC NO=236027
##MOLFORM=C9 H7 N O
##MW=145
##$NIST SOURCE=MSDC
##XUNITS=M/Z
##YUNITS=RELATIVE INTENSITY
##XFACTOR=1
##YFACTOR=1
##FIRSTX=26
##LASTX=147
##FIRSTY=60
##MAXX=147
##MINX=26
##MAXY=9999
##MINY=10
##NPOINTS=82
##PEAK TABLE=(XY..XY)
26,60 27,70 28,99 29,50
31,10 36,10 37,129 38,239
39,509 40,60 41,40 42,10
43,90 44,70 45,99 46,10
49,60 50,289 51,339 52,119
53,129 54,20 55,20 56,10
57,40 58,309 59,90 60,20
61,139 62,399 63,939 64,359
65,129 66,50 67,20 69,10
72,319 73,50 74,169 75,149
76,119 77,99 78,169 79,50
80,10 84,10 85,40 86,80
87,119 88,159 89,1609 90,1459
91,209 92,60 93,10 94,10
95,10 98,30 99,40 100,90
101,50 102,40 103,20 104,10
105,10 106,40 114,50 115,99
116,969 117,2629 118,419 119,50
126,10 127,40 128,20 130,10
142,20 143,70 144,859 145,9999
146,1059 147,70
##END=
