##TITLE=Benzene, 1-methoxy-2-methyl-
##JCAMP-DX=4.24
##DATA TYPE=MASS SPECTRUM
##ORIGIN=NIST Mass Spectrometry Data Center, 1990.
##OWNER=NIST Mass Spectrometry Data Center
Collection (C) 2014 copyright by the U.S. Secretary of Commerce
on behalf of the United States of America. All rights reserved.
##CAS REGISTRY NO=578-58-5
##$NIST MASS SPEC NO=118456
##MOLFORM=C8 H10 O
##MW=122
##$NIST SOURCE=MSDC
##XUNITS=M/Z
##YUNITS=RELATIVE INTENSITY
##XFACTOR=1
##YFACTOR=1
##FIRSTX=13
##LASTX=124
##FIRSTY=35
##MAXX=124
##MINX=13
##MAXY=9999
##MINY=4
##NPOINTS=67
##PEAK TABLE=(XY..XY)
13,35 14,79 15,561 16,5
17,4 18,8 26,194 27,805
28,165 29,190 30,23 31,29
32,12 36,26 37,189 38,524
39,1994 40,166 41,193 42,30
43,102 44,13 45,28 49,117
50,1065 51,1983 52,1101 53,886
54,59 55,80 60,103 61,206
62,486 63,1077 64,315 65,1420
66,127 67,20 68,16 73,61
74,232 75,147 76,16 77,5814
78,1631 79,3203 80,223 81,26
85,33 86,87 87,63 88,26
89,839 90,945 91,4133 92,1575
93,375 94,34 105,97 107,6766
108,558 109,32 119,20 121,2384
122,9999 123,908 124,44
##END=
