##TITLE=Thiophene, 2-(methylthio)-
##JCAMP-DX=4.24
##DATA TYPE=MASS SPECTRUM
##ORIGIN=NIST Mass Spectrometry Data Center
##OWNER=NIST Mass Spectrometry Data Center
Collection (C) 2014 copyright by the U.S. Secretary of Commerce
on behalf of the United States of America. All rights reserved.
##CAS REGISTRY NO=5780-36-9
##$NIST MASS SPEC NO=333802
##MOLFORM=C5 H6 S2
##MW=130
##$NIST SOURCE=MSDC
##XUNITS=M/Z
##YUNITS=RELATIVE INTENSITY
##XFACTOR=1
##YFACTOR=1
##FIRSTX=14
##LASTX=134
##FIRSTY=10
##MAXX=134
##MINX=14
##MAXY=9999
##MINY=10
##NPOINTS=84
##PEAK TABLE=(XY..XY)
14,10 15,70 25,10 26,30
27,30 32,40 33,10 34,10
36,20 37,150 38,260 39,601
40,20 41,10 44,100 45,1521
46,180 47,140 48,30 49,70
50,120 51,80 52,10 53,50
54,10 56,80 57,781 58,510
59,130 60,30 61,10 62,10
63,10 64,50 65,110 66,20
68,130 69,1161 70,400 71,4934
72,290 73,240 74,10 76,120
77,30 78,10 79,10 80,50
81,500 82,641 83,120 84,340
85,340 86,30 87,20 88,150
89,130 90,20 91,90 92,10
93,20 95,20 96,30 97,430
98,30 99,20 100,10 101,10
102,10 103,30 112,30 113,20
115,9258 116,711 117,1021 118,60
119,30 127,40 128,10 130,9999
131,891 132,1101 133,70 134,30
##END=
