##TITLE=Metalaxyl
##JCAMP-DX=4.24
##DATA TYPE=MASS SPECTRUM
##ORIGIN=Tox21 Consortium/NIST Mass Spectrometry Data Center, 2012
##OWNER=NIST Mass Spectrometry Data Center
Collection (C) 2014 copyright by the U.S. Secretary of Commerce
on behalf of the United States of America. All rights reserved.
##CAS REGISTRY NO=57837-19-1
##$NIST MASS SPEC NO=408754
##MOLFORM=C15 H21 N O4
##MW=279
##$NIST SOURCE=MSDC
##XUNITS=M/Z
##YUNITS=RELATIVE INTENSITY
##XFACTOR=1
##YFACTOR=1
##FIRSTX=14
##LASTX=281
##FIRSTY=10
##MAXX=281
##MINX=14
##MAXY=9999
##MINY=10
##NPOINTS=162
##PEAK TABLE=(XY..XY)
14,10 15,410 16,10 17,10
26,30 27,300 28,200 29,591
30,50 31,100 32,10 33,10
38,20 39,410 40,50 41,210
42,210 43,130 44,260 45,9999
46,220 47,20 50,70 51,400
52,170 53,300 54,70 55,540
56,100 57,40 58,10 59,1591
60,40 61,20 62,30 63,220
64,80 65,571 66,100 67,30
68,20 69,20 70,30 71,10
72,40 73,10 74,20 75,90
76,80 77,1992 78,561 79,1341
80,130 81,10 86,10 87,350
88,50 89,220 90,130 91,931
92,190 93,110 94,20 95,10
98,70 99,70 100,30 101,30
102,400 103,1051 104,460 105,2312
106,290 107,70 108,10 114,10
115,150 116,190 117,1431 118,691
119,791 120,971 121,701 122,80
123,10 127,20 128,160 129,60
130,2732 131,891 132,4184 133,581
134,160 135,30 136,20 137,10
142,30 143,60 144,350 145,290
146,3433 147,1451 148,1621 149,260
150,30 156,30 158,1141 159,150
160,3573 161,450 162,1591 163,500
164,60 170,10 172,20 173,30
174,1041 175,150 176,60 177,10
178,10 186,10 187,10 188,60
189,30 190,851 191,130 192,2172
193,320 194,20 202,180 203,20
204,70 206,4394 207,691 208,70
209,10 216,30 217,90 218,30
219,20 220,1631 221,240 222,30
231,10 232,10 233,10 234,1151
235,170 236,20 246,10 247,100
248,210 249,1591 250,260 251,30
264,40 265,10 278,10 279,380
280,50 281,10
##END=
