##TITLE=2-Fluoro-4-bromobenzaldehyde
##JCAMP-DX=4.24
##DATA TYPE=MASS SPECTRUM
##ORIGIN=NIST Mass Spectrometry Data Center
##OWNER=NIST Mass Spectrometry Data Center
Collection (C) 2014 copyright by the U.S. Secretary of Commerce
on behalf of the United States of America. All rights reserved.
##CAS REGISTRY NO=57848-46-1
##$NIST MASS SPEC NO=343078
##MOLFORM=C7 H4 Br F O
##MW=202
##$NIST SOURCE=MSDC
##XUNITS=M/Z
##YUNITS=RELATIVE INTENSITY
##XFACTOR=1
##YFACTOR=1
##FIRSTX=11
##LASTX=206
##FIRSTY=10
##MAXX=206
##MINX=11
##MAXY=9999
##MINY=10
##NPOINTS=99
##PEAK TABLE=(XY..XY)
11,10 12,30 13,10 16,20
17,30 19,60 20,20 24,20
25,110 26,40 29,1611 32,10
33,40 36,230 37,1061 38,621
39,200 40,10 44,20 47,260
48,140 49,641 50,2412 51,571
52,30 53,90 55,90 56,310
57,260 58,10 60,190 61,1021
62,691 63,450 64,20 68,1802
69,661 70,50 71,70 72,150
73,781 74,2612 75,3273 76,260
77,50 79,430 80,190 81,561
82,130 83,10 84,60 85,130
86,100 87,260 88,160 92,621
93,1341 94,4464 95,2252 96,130
100,30 101,50 103,30 104,50
105,60 106,60 107,60 116,40
117,40 118,30 119,30 122,510
123,80 128,40 130,50 131,10
135,20 137,10 141,40 143,30
146,20 147,20 148,20 153,100
154,80 155,90 156,50 173,2292
174,520 175,2302 176,350 177,10
198,10 201,9999 202,6326 203,9679
204,5825 205,410 206,20
##END=
