##TITLE=Decanoic acid, 2-propenyl ester
##JCAMP-DX=4.24
##DATA TYPE=MASS SPECTRUM
##ORIGIN=Japan AIST/NIMC Database- Spectrum MS-IW-4265
##OWNER=NIST Mass Spectrometry Data Center
Collection (C) 2014 copyright by the U.S. Secretary of Commerce
on behalf of the United States of America. All rights reserved.
##CAS REGISTRY NO=57856-81-2
##$NIST MASS SPEC NO=237181
##MOLFORM=C13 H24 O2
##MW=212
##$NIST SOURCE=MSDC
##XUNITS=M/Z
##YUNITS=RELATIVE INTENSITY
##XFACTOR=1
##YFACTOR=1
##FIRSTX=14
##LASTX=213
##FIRSTY=20
##MAXX=213
##MINX=14
##MAXY=9999
##MINY=10
##NPOINTS=130
##PEAK TABLE=(XY..XY)
14,20 15,80 17,10 18,30
25,20 26,179 27,1519 28,579
29,2549 30,99 31,129 32,10
36,20 37,119 38,229 39,2209
40,849 41,8919 42,1539 43,9999
44,399 45,269 47,10 50,20
51,60 52,30 53,339 54,2269
55,7639 56,2689 57,7459 58,2099
59,369 60,509 61,119 63,20
65,80 66,60 67,1489 68,609
69,5759 70,1109 71,6329 72,479
73,859 74,99 75,20 77,90
78,40 79,409 80,119 81,2719
82,1979 83,2839 84,1279 85,3769
86,249 87,399 88,30 89,40
91,119 92,40 93,429 94,99
95,2539 96,309 97,1839 98,1999
99,979 100,6619 101,989 102,129
103,50 104,10 105,40 106,10
107,319 108,60 109,439 110,249
111,1339 112,419 113,3309 114,309
115,219 116,40 117,30 118,10
119,20 121,30 123,109 124,60
125,139 126,50 127,439 128,60
129,219 130,30 131,10 132,10
133,30 134,30 135,939 136,129
137,539 138,70 139,30 141,149
142,30 143,30 151,30 152,70
153,569 154,80 155,6719 156,749
157,60 169,909 170,109 171,109
172,20 173,90 174,10 183,209
184,30 197,90 198,10 211,20
212,139 213,20
##END=
