##TITLE=Clozapine
##JCAMP-DX=4.24
##DATA TYPE=MASS SPECTRUM
##ORIGIN=Drug Lab
##OWNER=NIST Mass Spectrometry Data Center
Collection (C) 2014 copyright by the U.S. Secretary of Commerce
on behalf of the United States of America. All rights reserved.
##CAS REGISTRY NO=5786-21-0
##$NIST MASS SPEC NO=379498
##MOLFORM=C18 H19 Cl N4
##MW=326
##$NIST SOURCE=MSDC
##XUNITS=M/Z
##YUNITS=RELATIVE INTENSITY
##XFACTOR=1
##YFACTOR=1
##FIRSTX=37
##LASTX=329
##FIRSTY=10
##MAXX=329
##MINX=37
##MAXY=9999
##MINY=10
##NPOINTS=209
##PEAK TABLE=(XY..XY)
37,10 38,60 39,260 40,70
41,320 42,3433 43,1631 44,571
45,10 49,20 50,170 51,270
52,150 53,60 54,230 55,240
56,1651 57,250 58,310 59,10
61,30 62,140 63,480 64,200
65,170 66,50 67,30 68,50
70,3233 71,350 72,90 73,100
74,110 75,370 76,320 77,200
78,60 79,10 80,40 81,40
82,400 83,410 84,160 85,50
86,40 87,80 88,130 89,150
90,170 91,80 92,10 95,30
96,110 97,160 98,190 99,1281
100,200 101,110 102,280 103,100
104,30 105,20 109,10 110,40
111,60 112,40 113,110 114,170
115,80 116,60 117,40 118,20
122,10 123,20 124,140 125,70
126,80 127,80 128,60 129,70
130,20 131,10 136,40 137,100
138,270 139,240 140,250 141,250
142,60 147,10 148,20 149,10
150,30 151,60 152,90 153,60
154,30 155,20 156,10 159,10
161,10 162,50 163,190 164,1171
165,661 166,460 167,100 168,40
172,10 173,50 174,50 175,30
176,40 177,60 178,80 179,140
180,80 181,40 182,10 185,10
186,10 187,20 188,20 189,80
191,1201 192,4754 193,941 194,120
195,10 198,30 199,30 200,130
201,130 202,80 203,70 204,60
205,130 206,110 207,120 208,120
209,20 213,60 214,60 215,130
216,60 217,70 218,80 219,100
220,160 221,220 222,40 226,631
227,3213 228,1431 229,1321 230,430
231,110 232,70 233,80 234,40
235,10 239,220 240,220 241,310
243,9999 244,1742 245,3273 246,530
247,50 248,10 251,10 252,40
253,110 254,320 255,400 256,7877
257,1551 258,2562 259,410 260,30
265,10 266,30 267,50 268,891
269,440 270,530 271,170 272,80
273,10 280,30 281,70 282,340
283,90 284,110 285,10 294,30
295,10 296,50 297,30 298,20
299,10 309,10 311,40 313,10
325,190 326,1311 327,340 328,440
329,100
##END=
