##TITLE=Hexane, 3,4-diphenyl-
##JCAMP-DX=4.24
##DATA TYPE=MASS SPECTRUM
##ORIGIN=A.A.Kutin, Moscow, Russia
##OWNER=NIST Mass Spectrometry Data Center
Collection (C) 2014 copyright by the U.S. Secretary of Commerce
on behalf of the United States of America. All rights reserved.
##CAS REGISTRY NO=5789-31-1
##$NIST MASS SPEC NO=260723
##MOLFORM=C18 H22
##MW=238
##$NIST SOURCE=MSDC
##XUNITS=M/Z
##YUNITS=RELATIVE INTENSITY
##XFACTOR=1
##YFACTOR=1
##FIRSTX=29
##LASTX=180
##FIRSTY=3778
##MAXX=180
##MINX=29
##MAXY=9999
##MINY=39
##NPOINTS=47
##PEAK TABLE=(XY..XY)
29,3778 34,389 36,107 40,331
41,1782 42,175 43,535 44,1256
50,58 51,302 52,49 53,127
55,351 56,68 57,282 63,107
65,321 69,117 70,49 71,204
76,156 77,730 78,351 79,234
80,117 89,156 91,9999 92,662
93,78 103,243 104,351 105,360
106,876 112,39 115,643 116,68
117,604 118,2015 119,4926 120,555
121,49 129,127 131,88 165,224
178,195 179,49 180,39
##END=
