##TITLE=meso-Hydrobenzoin
##JCAMP-DX=4.24
##DATA TYPE=MASS SPECTRUM
##ORIGIN=Japan AIST/NIMC Database- Spectrum MS-IW-5082
##OWNER=NIST Mass Spectrometry Data Center
Collection (C) 2014 copyright by the U.S. Secretary of Commerce
on behalf of the United States of America. All rights reserved.
##CAS REGISTRY NO=579-43-1
##$NIST MASS SPEC NO=242091
##MOLFORM=C14 H14 O2
##MW=214
##$NIST SOURCE=MSDC
##XUNITS=M/Z
##YUNITS=RELATIVE INTENSITY
##XFACTOR=1
##YFACTOR=1
##FIRSTX=17
##LASTX=215
##FIRSTY=20
##MAXX=215
##MINX=17
##MAXY=9999
##MINY=10
##NPOINTS=93
##PEAK TABLE=(XY..XY)
17,20 18,70 27,90 28,80
29,99 38,20 39,239 40,20
41,20 50,169 51,699 52,159
53,99 55,10 57,20 58,10
61,10 62,60 63,209 64,40
65,199 66,20 69,50 70,30
71,10 74,70 75,70 76,189
77,3279 78,509 79,4779 80,369
81,40 82,179 83,169 84,20
86,10 87,30 88,40 89,279
90,219 91,339 92,30 98,10
99,10 101,10 102,50 103,10
104,10 105,4679 106,629 107,8939
108,9999 109,799 110,50 113,20
114,10 115,139 116,10 118,10
126,20 127,30 128,80 129,10
135,10 138,10 139,90 140,10
141,30 150,20 151,90 152,769
153,129 154,10 163,80 164,119
165,1369 166,519 167,4729 168,719
169,50 176,40 177,30 178,179
179,249 180,299 181,40 195,10
196,469 197,80 198,20 214,109
215,20
##END=
