##TITLE=Bicyclo[2.2.1]heptane, 2,2-dimethyl-3-methylene-, (1R)-
##JCAMP-DX=4.24
##DATA TYPE=MASS SPECTRUM
##ORIGIN=RESEARCH LABORATORY, STATE ALCOHOL MONOPOLY ALKO, HELSINKI, FINLAND; IRMA NYKANEN ET AL
##OWNER=NIST Mass Spectrometry Data Center
Collection (C) 2014 copyright by the U.S. Secretary of Commerce
on behalf of the United States of America. All rights reserved.
##CAS REGISTRY NO=5794-03-6
##$NIST MASS SPEC NO=77624
##MOLFORM=C10 H16
##MW=136
##$NIST SOURCE=MSDC
##XUNITS=M/Z
##YUNITS=RELATIVE INTENSITY
##XFACTOR=1
##YFACTOR=1
##FIRSTX=26
##LASTX=137
##FIRSTY=101
##MAXX=137
##MINX=26
##MAXY=9999
##MINY=33
##NPOINTS=51
##PEAK TABLE=(XY..XY)
26,101 27,574 28,743 29,675
38,135 39,2466 40,439 41,3817
42,270 43,945 50,337 51,878
52,506 53,1452 54,202 55,1047
56,148 57,148 63,270 64,101
65,1250 66,439 67,1824 68,574
69,1216 70,101 77,4054 78,945
79,7702 80,3716 81,2162 82,337
89,67 91,4729 92,2331 93,9999
94,2702 95,709 103,202 104,67
105,844 106,202 107,2635 108,1047
109,148 119,135 121,3750 122,405
135,33 136,878 137,101
##END=
