##TITLE=Benzenamine, 2-bromo-4-(trifluoromethyl)-
##JCAMP-DX=4.24
##DATA TYPE=MASS SPECTRUM
##ORIGIN=NIST Mass Spectrometry Data Center, 1994
##OWNER=NIST Mass Spectrometry Data Center
Collection (C) 2014 copyright by the U.S. Secretary of Commerce
on behalf of the United States of America. All rights reserved.
##CAS REGISTRY NO=57946-63-1
##$NIST MASS SPEC NO=136600
##MOLFORM=C7 H5 Br F3 N
##MW=239
##$NIST SOURCE=MSDC
##XUNITS=M/Z
##YUNITS=RELATIVE INTENSITY
##XFACTOR=1
##YFACTOR=1
##FIRSTX=14
##LASTX=242
##FIRSTY=88
##MAXX=242
##MINX=14
##MAXY=9999
##MINY=50
##NPOINTS=120
##PEAK TABLE=(XY..XY)
14,88 15,77 16,93 17,81
18,74 20,116 25,95 26,352
27,281 28,1291 29,119 30,74
31,876 36,96 37,1121 38,1690
39,958 40,451 41,1054 42,110
45,511 46,635 48,61 49,261
50,942 51,1068 52,3162 53,468
54,61 55,783 56,370 57,773
58,64 59,50 60,50 61,1379
62,2088 63,3938 64,1390 65,1045
66,190 68,258 69,1676 70,582
72,102 73,213 74,511 75,974
76,272 79,431 80,550 81,883
82,490 83,1124 84,171 85,123
86,178 87,592 88,801 89,673
90,940 91,712 92,139 93,267
94,1094 95,1034 99,221 100,221
101,70 102,50 104,75 105,65
106,230 107,141 108,216 109,522
110,758 111,322 112,467 113,2731
114,748 115,128 116,75 117,106
118,87 119,50 120,1416 122,84
123,78 130,69 132,1532 133,992
134,93 135,54 137,65 138,160
139,639 140,3543 141,945 142,90
143,289 144,71 145,58 158,303
159,857 160,3240 161,339 188,151
189,2094 190,293 191,2032 192,278
194,162 220,2511 222,2359 223,213
239,9999 240,1146 241,9784 242,779
##END=
