##TITLE=Apomorphine
##JCAMP-DX=4.24
##DATA TYPE=MASS SPECTRUM
##ORIGIN=Patti Price, Georgia Bureau of Investigation, Decatur, Georgia
##OWNER=NIST Mass Spectrometry Data Center
Collection (C) 2014 copyright by the U.S. Secretary of Commerce
on behalf of the United States of America. All rights reserved.
##CAS REGISTRY NO=58-00-4
##$NIST MASS SPEC NO=248048
##MOLFORM=C17 H17 N O2
##MW=267
##$NIST SOURCE=MSDC
##XUNITS=M/Z
##YUNITS=RELATIVE INTENSITY
##XFACTOR=1
##YFACTOR=1
##FIRSTX=41
##LASTX=269
##FIRSTY=80
##MAXX=269
##MINX=41
##MAXY=9999
##MINY=10
##NPOINTS=139
##PEAK TABLE=(XY..XY)
41,80 42,1161 43,220 44,340
50,50 51,110 52,50 53,60
55,100 57,10 62,20 63,110
64,20 65,30 66,20 75,90
76,70 77,120 78,30 81,10
82,10 86,50 87,100 88,90
89,140 90,20 91,30 95,20
97,10 98,30 99,50 100,20
101,50 102,120 103,60 104,10
110,50 111,60 113,90 114,60
115,420 116,70 123,10 126,180
127,200 128,200 129,40 130,20
137,60 138,70 139,600 140,210
141,210 142,60 143,20 144,30
149,40 150,330 151,660 152,1561
153,610 154,180 155,70 156,10
162,70 163,490 164,430 165,1391
166,510 167,390 168,290 169,80
170,20 174,60 175,100 176,770
177,570 178,1151 179,410 180,200
181,570 182,210 183,120 184,40
187,50 188,70 189,380 190,460
191,450 192,270 193,200 194,330
195,480 196,340 197,100 201,60
202,100 203,270 204,620 205,1111
206,1060 207,490 208,240 209,280
210,110 211,20 216,40 217,90
218,380 219,320 220,2051 221,460
222,230 223,370 224,2031 225,310
231,20 232,90 233,100 234,160
235,140 236,270 237,90 238,130
239,40 246,40 247,60 248,1060
249,330 250,810 251,270 252,400
263,60 264,220 265,340 266,9999
267,6175 268,990 269,100
##END=
