##TITLE=Pyrimethamine
##JCAMP-DX=4.24
##DATA TYPE=MASS SPECTRUM
##ORIGIN=NIST Mass Spectrometry Data Center, 1998.
##OWNER=NIST Mass Spectrometry Data Center
Collection (C) 2014 copyright by the U.S. Secretary of Commerce
on behalf of the United States of America. All rights reserved.
##CAS REGISTRY NO=58-14-0
##$NIST MASS SPEC NO=290938
##MOLFORM=C12 H13 Cl N4
##MW=248
##$NIST SOURCE=MSDC
##XUNITS=M/Z
##YUNITS=RELATIVE INTENSITY
##XFACTOR=1
##YFACTOR=1
##FIRSTX=26
##LASTX=252
##FIRSTY=10
##MAXX=252
##MINX=26
##MAXY=9999
##MINY=10
##NPOINTS=196
##PEAK TABLE=(XY..XY)
26,10 27,90 28,110 29,70
30,10 37,10 38,40 39,130
40,20 41,60 42,150 43,880
44,60 45,10 49,20 50,110
51,180 52,110 53,120 54,140
55,50 56,180 57,30 58,10
59,10 60,20 61,50 62,150
63,310 64,100 65,110 66,60
67,50 68,190 69,50 70,30
71,30 73,110 74,100 75,280
76,160 77,270 78,90 79,50
80,10 81,20 82,10 83,80
84,60 85,100 86,110 87,200
88,240 89,640 90,130 91,50
94,10 95,20 96,20 98,110
99,240 100,80 101,190 102,220
103,90 104,40 105,180 106,610
108,10 109,20 110,230 111,150
112,60 113,200 114,650 115,470
116,320 117,200 118,40 119,20
120,20 121,10 122,30 123,670
124,230 125,400 126,220 127,480
128,510 129,220 130,120 131,90
132,20 133,10 135,70 136,120
137,470 138,210 139,100 140,260
141,140 142,320 143,260 144,90
145,30 146,10 147,10 148,50
149,300 150,290 151,490 152,320
153,390 154,280 155,350 156,170
157,90 158,30 159,10 160,10
161,90 162,110 163,110 164,140
165,300 166,90 167,170 168,220
169,300 170,230 171,120 172,40
173,10 174,60 175,50 176,120
177,190 178,140 179,130 180,100
181,50 182,20 183,20 184,120
185,200 186,40 187,20 188,130
189,100 190,120 191,80 192,100
193,60 194,210 195,100 196,40
197,140 198,140 199,20 201,20
202,70 203,100 204,60 205,150
206,70 207,60 208,20 209,20
210,20 211,590 212,1050 213,350
214,50 215,30 216,10 217,10
218,50 219,1320 220,280 221,520
222,90 223,30 228,30 229,10
230,260 231,60 232,430 233,90
234,120 235,30 247,9999 248,4860
249,3990 250,1610 251,200 252,10
##END=
