##TITLE=Aminopyrine
##JCAMP-DX=4.24
##DATA TYPE=MASS SPECTRUM
##ORIGIN=NIST Mass Spectrometry Data Center, 1998.
##OWNER=NIST Mass Spectrometry Data Center
Collection (C) 2014 copyright by the U.S. Secretary of Commerce
on behalf of the United States of America. All rights reserved.
##CAS REGISTRY NO=58-15-1
##$NIST MASS SPEC NO=291055
##MOLFORM=C13 H17 N3 O
##MW=231
##$NIST SOURCE=MSDC
##XUNITS=M/Z
##YUNITS=RELATIVE INTENSITY
##XFACTOR=1
##YFACTOR=1
##FIRSTX=15
##LASTX=233
##FIRSTY=170
##MAXX=233
##MINX=15
##MAXY=9999
##MINY=10
##NPOINTS=147
##PEAK TABLE=(XY..XY)
15,170 26,20 27,90 28,210
29,150 30,70 37,30 38,90
39,280 40,110 41,220 42,810
43,190 44,140 45,50 50,110
51,490 52,140 53,60 54,410
55,650 56,9999 57,520 58,60
61,10 62,40 63,210 64,400
65,180 66,230 67,410 68,640
69,190 70,600 71,960 72,100
73,10 74,30 75,30 76,80
77,1370 78,130 79,30 80,80
81,80 82,540 83,480 84,150
85,80 86,10 87,10 88,10
89,20 90,60 91,550 92,90
93,60 94,40 95,90 96,140
97,5469 98,410 99,30 101,10
102,20 103,90 104,240 105,170
106,130 107,20 108,10 109,120
110,110 111,1920 112,530 113,40
114,10 115,220 117,40 118,110
119,350 120,60 121,200 122,40
123,800 124,60 125,30 126,50
127,10 128,20 129,20 130,60
131,140 132,300 133,60 134,30
135,10 136,10 137,150 138,30
139,20 140,10 142,10 143,20
144,40 145,80 146,40 147,250
148,40 154,90 155,10 156,20
157,20 158,30 159,90 160,70
161,90 162,10 170,10 171,20
172,20 173,120 174,20 175,140
176,20 184,10 185,100 186,30
187,70 188,80 189,20 198,30
199,70 200,30 201,50 202,30
203,10 212,10 214,10 215,10
216,250 217,40 228,10 230,730
231,5029 232,780 233,70
##END=
