##TITLE=Perphenazine
##JCAMP-DX=4.24
##DATA TYPE=MASS SPECTRUM
##ORIGIN=Drug Lab
##OWNER=NIST Mass Spectrometry Data Center
Collection (C) 2014 copyright by the U.S. Secretary of Commerce
on behalf of the United States of America. All rights reserved.
##CAS REGISTRY NO=58-39-9
##$NIST MASS SPEC NO=334844
##MOLFORM=C21 H26 Cl N3 O S
##MW=403
##$NIST SOURCE=MSDC
##XUNITS=M/Z
##YUNITS=RELATIVE INTENSITY
##XFACTOR=1
##YFACTOR=1
##FIRSTX=41
##LASTX=407
##FIRSTY=460
##MAXX=407
##MINX=41
##MAXY=9999
##MINY=70
##NPOINTS=166
##PEAK TABLE=(XY..XY)
41,460 42,2182 43,641 44,891
45,440 54,140 55,470 56,1411
57,581 58,761 63,150 65,100
68,170 69,480 70,2442 71,510
72,250 73,420 74,220 75,100
77,110 82,320 83,270 84,621
85,200 86,190 88,200 95,120
96,280 97,550 98,1411 99,561
100,1131 101,130 102,90 107,80
108,120 109,100 111,661 112,200
113,1321 114,150 115,270 123,150
125,741 126,190 127,200 128,270
129,170 131,140 133,70 134,80
138,130 139,801 140,240 141,601
143,3443 144,380 147,90 150,100
151,270 152,400 153,861 154,140
157,1391 158,210 164,170 165,200
166,200 167,90 168,90 169,190
170,150 171,1742 172,330 177,180
178,180 179,230 180,150 183,140
184,180 185,450 186,901 187,320
188,310 190,100 191,150 193,110
196,821 197,741 198,380 200,220
201,130 202,90 204,80 207,581
208,110 209,250 210,420 211,550
212,470 213,340 214,2452 215,440
216,991 217,100 221,80 222,90
223,270 224,260 225,100 230,110
232,3944 233,1291 234,1321 235,320
236,280 237,110 238,160 239,160
240,70 244,110 246,9999 247,1932
248,3523 249,701 250,200 258,280
259,530 260,460 261,290 262,250
263,90 272,1381 273,761 274,390
275,210 276,70 281,170 283,80
302,90 304,100 316,280 318,100
329,230 331,80 341,140 344,160
349,100 355,100 357,80 368,110
370,70 372,1041 373,671 374,450
375,300 376,80 385,400 386,180
387,190 403,3483 404,891 405,1371
406,410 407,90
##END=
