##TITLE=Prochlorperazine
##JCAMP-DX=4.24
##DATA TYPE=MASS SPECTRUM
##ORIGIN=NIST Mass Spectrometry Data Center, 1998.
##OWNER=NIST Mass Spectrometry Data Center
Collection (C) 2014 copyright by the U.S. Secretary of Commerce
on behalf of the United States of America. All rights reserved.
##CAS REGISTRY NO=58-38-8
##$NIST MASS SPEC NO=291984
##MOLFORM=C20 H24 Cl N3 S
##MW=373
##$NIST SOURCE=MSDC
##XUNITS=M/Z
##YUNITS=RELATIVE INTENSITY
##XFACTOR=1
##YFACTOR=1
##FIRSTX=15
##LASTX=378
##FIRSTY=50
##MAXX=378
##MINX=15
##MAXY=9999
##MINY=10
##NPOINTS=263
##PEAK TABLE=(XY..XY)
15,50 26,20 27,100 28,330
29,200 30,180 31,10 36,20
38,10 39,140 40,30 41,710
42,3580 43,3910 44,1480 45,210
50,50 51,110 52,40 53,30
54,250 55,410 56,1950 57,930
58,1580 59,130 62,30 63,160
64,30 65,80 67,30 68,210
69,440 70,8889 71,2160 72,520
73,50 74,30 75,110 76,70
77,180 78,40 79,40 80,40
81,70 82,400 83,490 84,760
85,990 86,150 87,20 88,20
89,60 90,30 91,40 92,20
93,50 94,50 95,160 96,350
97,630 98,1120 99,880 100,130
101,90 102,50 103,40 104,30
105,60 107,60 108,160 109,130
110,50 111,960 112,250 113,9999
114,1050 115,90 116,30 117,30
118,20 119,30 120,40 121,30
122,20 123,50 124,60 125,190
126,150 127,1950 128,220 129,30
130,40 132,10 133,30 134,40
135,20 136,40 137,50 138,80
139,550 140,190 141,4700 142,440
143,40 144,20 145,40 146,50
147,20 148,20 149,30 150,40
151,160 152,350 153,260 154,90
155,20 157,10 158,30 159,20
160,20 161,20 162,50 163,30
164,190 165,120 166,160 167,200
168,50 169,80 170,110 171,110
172,40 173,40 174,30 175,30
176,40 177,150 178,210 179,230
180,110 181,30 182,50 183,110
184,150 185,50 186,40 187,50
188,230 189,50 190,90 191,80
192,40 193,20 194,30 195,30
196,600 197,610 198,400 199,130
200,200 201,140 202,80 203,50
204,100 205,110 206,70 207,50
208,40 209,120 210,290 211,430
212,650 213,370 214,1820 215,350
216,580 217,90 218,50 219,20
220,30 221,10 222,40 223,300
224,160 225,150 226,60 227,50
228,60 229,20 230,30 231,90
232,2210 233,1230 234,960 235,440
236,160 237,100 238,200 239,170
240,90 241,50 242,30 243,10
244,110 245,80 246,1240 247,890
248,560 249,310 250,60 251,20
253,10 257,60 258,280 259,650
260,810 261,320 262,270 263,50
264,10 266,10 268,30 270,20
271,20 272,1770 273,920 274,780
275,330 276,60 277,20 286,20
287,20 288,10 301,20 302,90
303,40 304,40 305,10 314,20
315,30 316,210 317,70 318,70
319,20 329,190 330,50 331,70
332,20 337,20 338,90 339,30
344,20 358,40 360,10 371,50
372,30 373,3930 374,920 375,1670
376,350 377,100 378,20
##END=
