##TITLE=Promazine
##JCAMP-DX=4.24
##DATA TYPE=MASS SPECTRUM
##ORIGIN=NIST Mass Spectrometry Data Center
##OWNER=NIST Mass Spectrometry Data Center
Collection (C) 2014 copyright by the U.S. Secretary of Commerce
on behalf of the United States of America. All rights reserved.
##CAS REGISTRY NO=58-40-2
##$NIST MASS SPEC NO=352155
##MOLFORM=C17 H20 N2 S
##MW=284
##$NIST SOURCE=MSDC
##XUNITS=M/Z
##YUNITS=RELATIVE INTENSITY
##XFACTOR=1
##YFACTOR=1
##FIRSTX=15
##LASTX=287
##FIRSTY=20
##MAXX=287
##MINX=15
##MAXY=9999
##MINY=10
##NPOINTS=186
##PEAK TABLE=(XY..XY)
15,20 27,30 28,40 29,70
30,250 38,10 39,120 40,20
41,120 42,671 43,210 44,390
45,160 46,10 47,10 50,70
51,130 52,30 53,10 54,20
55,20 56,190 57,250 58,9999
59,440 60,10 62,30 63,130
64,30 65,110 66,10 67,10
68,30 69,200 70,390 71,180
72,230 73,20 74,30 75,60
76,60 77,190 78,50 79,10
80,10 81,10 82,80 83,20
84,390 85,951 86,2312 87,150
88,20 89,70 90,30 91,50
92,10 93,40 94,20 95,60
96,30 97,10 98,30 101,50
102,50 103,30 104,30 105,20
106,20 107,10 108,110 109,120
110,20 111,10 113,40 114,40
115,80 116,40 117,30 118,10
119,10 120,30 121,40 122,20
123,10 124,20 125,30 126,80
127,280 128,190 129,20 130,60
131,10 132,10 133,10 134,40
135,20 136,30 137,20 138,40
139,220 140,180 141,30 142,30
144,10 145,30 146,40 147,20
148,50 149,10 150,30 151,110
152,320 153,190 154,480 155,60
156,10 158,20 159,30 160,10
162,10 163,10 164,80 165,60
166,270 167,230 168,40 169,30
170,50 171,210 172,80 173,30
174,10 176,10 177,30 178,130
179,220 180,991 181,150 182,20
183,50 184,110 185,30 186,10
190,10 191,40 192,30 193,60
194,50 195,20 196,140 197,270
198,1351 199,1431 200,250 201,80
202,10 204,60 205,30 206,80
207,20 208,10 209,20 210,130
211,70 212,510 213,310 214,60
215,20 222,20 223,130 224,190
225,150 226,180 227,30 228,10
236,20 238,1792 239,530 240,150
241,30 281,10 284,2672 285,540
286,160 287,30
##END=
