##TITLE=Inosine
##JCAMP-DX=4.24
##DATA TYPE=MASS SPECTRUM
##ORIGIN=Japan AIST/NIMC Database- Spectrum MS-NW-2579
##OWNER=NIST Mass Spectrometry Data Center
Collection (C) 2014 copyright by the U.S. Secretary of Commerce
on behalf of the United States of America. All rights reserved.
##CAS REGISTRY NO=58-63-9
##$NIST MASS SPEC NO=228186
##MOLFORM=C10 H12 N4 O5
##MW=268
##$NIST SOURCE=MSDC
##XUNITS=M/Z
##YUNITS=RELATIVE INTENSITY
##XFACTOR=1
##YFACTOR=1
##FIRSTX=12
##LASTX=195
##FIRSTY=30
##MAXX=195
##MINX=12
##MAXY=9999
##MINY=10
##NPOINTS=114
##PEAK TABLE=(XY..XY)
12,30 13,20 14,40 15,189
16,10 17,119 18,399 19,20
24,30 25,30 26,90 27,619
28,3779 29,809 30,99 31,499
32,30 33,10 36,20 37,10
38,369 39,479 40,149 41,239
42,239 43,809 44,449 45,359
46,10 47,109 50,20 51,20
52,90 53,1109 54,3309 55,649
56,189 57,1349 58,149 59,30
60,469 61,209 64,40 65,129
66,329 67,129 68,269 69,239
70,179 71,379 72,159 73,769
74,109 75,20 77,10 78,10
79,20 80,319 81,1099 82,439
83,30 84,50 85,199 86,199
87,40 88,10 89,20 91,10
92,30 93,60 94,30 95,40
96,70 97,149 98,90 99,20
101,30 102,10 103,80 107,60
108,549 109,569 110,40 111,10
112,10 113,20 114,60 115,129
116,20 119,30 120,30 121,10
126,20 127,10 129,10 131,20
132,20 133,99 134,10 135,559
136,9999 137,799 138,50 139,10
143,50 144,10 145,20 149,10
157,10 161,70 165,40 174,10
179,10 195,20
##END=
