##TITLE=Benadryl
##JCAMP-DX=4.24
##DATA TYPE=MASS SPECTRUM
##ORIGIN=Virginia Division of Forensic Science
##OWNER=NIST Mass Spectrometry Data Center
Collection (C) 2014 copyright by the U.S. Secretary of Commerce
on behalf of the United States of America. All rights reserved.
##CAS REGISTRY NO=58-73-1
##$NIST MASS SPEC NO=250549
##MOLFORM=C17 H21 N O
##MW=255
##$NIST SOURCE=MSDC
##XUNITS=M/Z
##YUNITS=RELATIVE INTENSITY
##XFACTOR=1
##YFACTOR=1
##FIRSTX=14
##LASTX=256
##FIRSTY=10
##MAXX=256
##MINX=14
##MAXY=9999
##MINY=10
##NPOINTS=131
##PEAK TABLE=(XY..XY)
14,10 15,60 16,10 19,10
25,10 26,10 27,40 28,30
29,90 30,260 31,10 37,10
38,10 39,100 40,10 42,690
43,180 44,350 45,630 46,10
50,70 51,230 52,30 53,10
54,10 55,20 56,180 58,9999
59,370 60,10 61,10 62,30
63,100 64,20 65,60 66,10
68,10 70,60 71,60 73,1701
74,110 75,30 76,50 77,370
78,60 79,10 80,10 82,30
83,30 86,40 87,20 88,40
89,110 90,30 91,50 92,10
93,10 98,10 99,10 100,10
101,10 102,30 103,10 105,130
106,10 107,10 109,10 110,10
111,10 112,10 113,20 115,170
116,10 117,10 118,10 119,10
120,10 121,10 122,10 123,10
126,30 127,20 128,80 129,10
130,10 131,10 132,10 133,10
134,10 135,10 137,10 139,130
140,10 141,30 142,10 146,10
147,10 148,10 150,10 152,580
153,90 154,10 155,10 156,10
159,10 161,10 163,110 165,1521
166,550 167,620 168,90 169,10
176,10 177,10 178,10 179,10
180,10 181,10 182,10 183,10
184,10 195,10 196,10 208,10
209,10 223,10 224,10 227,40
228,10 255,10 256,10
##END=
