##TITLE=Benzene, 1,1',1''-(1-ethenyl-2-ylidene)tris-
##JCAMP-DX=4.24
##DATA TYPE=MASS SPECTRUM
##ORIGIN=Japan AIST/NIMC Database- Spectrum MS-NW-6742
##OWNER=NIST Mass Spectrometry Data Center
Collection (C) 2014 copyright by the U.S. Secretary of Commerce
on behalf of the United States of America. All rights reserved.
##CAS REGISTRY NO=58-72-0
##$NIST MASS SPEC NO=235652
##MOLFORM=C20 H16
##MW=256
##$NIST SOURCE=MSDC
##XUNITS=M/Z
##YUNITS=RELATIVE INTENSITY
##XFACTOR=1
##YFACTOR=1
##FIRSTX=14
##LASTX=259
##FIRSTY=90
##MAXX=259
##MINX=14
##MAXY=9999
##MINY=10
##NPOINTS=176
##PEAK TABLE=(XY..XY)
14,90 15,10 26,30 27,239
28,99 29,30 37,10 38,70
39,559 40,50 41,50 42,10
43,10 44,70 50,369 51,1089
52,219 53,50 55,10 61,30
62,199 63,549 64,80 65,189
66,10 68,10 69,10 73,10
74,289 75,359 76,329 77,729
78,339 79,40 81,30 82,20
83,10 84,10 85,20 86,139
87,239 88,179 89,269 90,40
91,389 92,40 93,30 94,99
95,30 98,129 99,99 100,169
101,289 102,239 103,90 104,80
105,30 106,99 107,129 108,60
109,30 110,60 111,70 112,109
113,439 114,279 115,339 116,60
117,109 118,60 119,359 120,349
121,20 122,40 123,30 124,40
125,159 126,609 127,269 128,219
129,60 130,179 131,30 133,10
134,10 135,10 137,60 138,60
139,299 140,40 141,50 142,10
144,10 145,10 146,10 149,40
150,259 151,589 152,829 153,249
154,119 155,20 158,10 159,20
161,30 162,40 163,229 164,149
165,1479 166,249 167,30 172,10
173,10 174,139 175,129 176,909
177,749 178,4139 179,2749 180,389
181,30 185,10 186,20 187,109
188,70 189,279 190,70 191,70
192,10 198,20 199,40 200,159
201,119 202,369 203,119 204,30
211,40 212,30 213,209 214,70
215,689 216,159 217,20 222,10
223,20 224,99 225,99 226,459
227,269 228,549 229,299 230,60
231,20 232,10 235,10 237,50
238,60 239,1199 240,769 241,1239
242,259 243,40 246,10 247,10
248,30 249,30 250,219 251,119
252,899 253,999 254,639 255,2159
256,9999 257,2209 258,249 259,20
##END=
