##TITLE=Xylose
##JCAMP-DX=4.24
##DATA TYPE=MASS SPECTRUM
##ORIGIN=Japan AIST/NIMC Database- Spectrum MS-IW-4308
##OWNER=NIST Mass Spectrometry Data Center
Collection (C) 2014 copyright by the U.S. Secretary of Commerce
on behalf of the United States of America. All rights reserved.
##CAS REGISTRY NO=58-86-6
##$NIST MASS SPEC NO=228124
##MOLFORM=C5 H10 O5
##MW=150
##$NIST SOURCE=MSDC
##XUNITS=M/Z
##YUNITS=RELATIVE INTENSITY
##XFACTOR=1
##YFACTOR=1
##FIRSTX=12
##LASTX=149
##FIRSTY=20
##MAXX=149
##MINX=12
##MAXY=9999
##MINY=10
##NPOINTS=97
##PEAK TABLE=(XY..XY)
12,20 13,60 14,319 15,1679
16,40 17,439 18,2269 19,169
24,10 25,50 26,249 27,649
28,1239 29,4019 30,1519 31,7979
32,5049 33,579 34,20 36,10
37,20 38,40 39,219 40,189
41,359 42,2459 43,6449 44,1769
45,1009 46,40 47,369 49,30
51,10 52,10 53,50 54,139
55,719 56,559 57,1569 58,499
59,189 60,8259 61,5319 62,279
63,30 67,10 68,269 69,329
70,50 71,1549 72,2689 73,9999
74,879 75,109 76,20 77,60
78,10 79,20 81,10 82,10
83,90 84,50 85,409 86,629
87,90 88,30 89,159 90,279
91,549 92,20 93,10 95,30
96,60 97,50 98,40 99,10
101,369 102,179 103,429 104,40
105,20 107,10 110,10 111,10
113,10 114,119 115,90 116,10
119,309 120,20 121,20 132,10
133,159 134,10 135,60 136,10
149,20
##END=
