##TITLE=Lindane
##JCAMP-DX=4.24
##DATA TYPE=MASS SPECTRUM
##ORIGIN=Japan AIST/NIMC Database- Spectrum MS-NW-8478
##OWNER=NIST Mass Spectrometry Data Center
Collection (C) 2014 copyright by the U.S. Secretary of Commerce
on behalf of the United States of America. All rights reserved.
##CAS REGISTRY NO=58-89-9
##$NIST MASS SPEC NO=229009
##MOLFORM=C6 H6 Cl6
##MW=288
##$NIST SOURCE=MSDC
##XUNITS=M/Z
##YUNITS=RELATIVE INTENSITY
##XFACTOR=1
##YFACTOR=1
##FIRSTX=17
##LASTX=296
##FIRSTY=20
##MAXX=296
##MINX=17
##MAXY=9999
##MINY=10
##NPOINTS=162
##PEAK TABLE=(XY..XY)
17,20 18,89 25,10 26,149
27,229 28,60 32,10 35,99
36,389 37,199 38,739 39,509
40,20 41,10 43,10 44,10
47,60 48,50 49,499 50,989
51,1899 52,209 53,40 54,50
55,269 56,349 57,80 60,129
61,609 62,159 63,309 64,30
65,70 71,10 72,109 73,1069
74,559 75,1449 76,159 77,1479
78,319 79,20 83,1639 84,139
85,1779 86,219 87,1039 88,80
89,219 90,50 91,60 92,30
95,129 96,729 97,209 98,479
99,439 100,149 101,129 102,20
107,90 108,20 109,5939 110,269
111,5259 112,769 113,1249 114,239
115,50 117,30 119,90 120,40
121,1029 122,469 123,669 124,289
125,129 126,40 130,10 131,119
132,10 133,429 134,229 135,479
136,149 137,189 138,30 139,20
143,549 144,70 145,1879 146,1449
147,1709 148,979 149,599 150,189
151,70 152,10 155,70 156,999
157,519 158,989 159,459 160,319
161,129 162,40 163,10 167,20
168,50 169,289 170,60 171,259
172,30 173,90 179,20 180,90
181,9999 182,809 183,9669 184,699
185,3109 186,229 187,349 188,30
189,10 191,20 192,10 193,30
194,10 195,10 203,10 205,40
207,30 209,10 215,10 216,949
217,7029 218,1679 219,8999 220,1179
221,4339 222,399 223,939 224,70
225,80 252,1399 253,119 254,2249
255,179 256,1429 257,119 258,449
259,30 260,70 288,399 289,30
290,759 291,40 292,609 293,30
294,249 296,60
##END=
