##TITLE=Uridine
##JCAMP-DX=4.24
##DATA TYPE=MASS SPECTRUM
##ORIGIN=R.SELF AGRICULTURAL RES., FOOD RES. INSTITUTE, NORWICH, U.K.
##OWNER=NIST Mass Spectrometry Data Center
Collection (C) 2014 copyright by the U.S. Secretary of Commerce
on behalf of the United States of America. All rights reserved.
##CAS REGISTRY NO=58-96-8
##$NIST MASS SPEC NO=22908
##MOLFORM=C9 H12 N2 O6
##MW=244
##$NIST SOURCE=MSDC
##XUNITS=M/Z
##YUNITS=RELATIVE INTENSITY
##XFACTOR=1
##YFACTOR=1
##FIRSTX=26
##LASTX=244
##FIRSTY=450
##MAXX=244
##MINX=26
##MAXY=9999
##MINY=100
##NPOINTS=66
##PEAK TABLE=(XY..XY)
26,450 27,680 28,140 29,860
30,220 31,1450 32,100 39,320
40,500 41,860 42,630 43,1730
45,1450 47,160 53,280 54,630
55,1950 56,680 57,6220 58,630
59,220 60,590 61,1140 68,730
69,2180 70,1320 71,1400 72,140
73,8180 74,550 75,360 81,320
82,500 83,360 84,410 85,1090
86,1820 87,320 95,360 96,590
97,550 98,1400 101,140 103,630
104,280 110,420 112,1590 113,9999
114,1000 115,1140 132,910 139,450
141,1820 142,270 152,230 153,230
154,140 155,450 166,220 171,1230
179,220 183,220 209,220 226,1450
227,220 244,320
##END=
