##TITLE=Phenol, 2,3,4,6-tetrachloro-
##JCAMP-DX=4.24
##DATA TYPE=MASS SPECTRUM
##ORIGIN=NIST Mass Spectrometry Data Center
##OWNER=NIST Mass Spectrometry Data Center
Collection (C) 2014 copyright by the U.S. Secretary of Commerce
on behalf of the United States of America. All rights reserved.
##CAS REGISTRY NO=58-90-2
##$NIST MASS SPEC NO=333387
##MOLFORM=C6 H2 Cl4 O
##MW=230
##$NIST SOURCE=MSDC
##XUNITS=M/Z
##YUNITS=RELATIVE INTENSITY
##XFACTOR=1
##YFACTOR=1
##FIRSTX=24
##LASTX=238
##FIRSTY=20
##MAXX=238
##MINX=24
##MAXY=9999
##MINY=10
##NPOINTS=143
##PEAK TABLE=(XY..XY)
24,20 25,30 26,10 28,20
29,100 35,210 36,300 37,410
38,70 47,350 48,611 49,550
50,90 51,10 52,30 53,490
54,30 55,10 59,70 60,971
61,2342 62,881 63,150 64,20
65,1281 66,911 67,130 70,10
71,550 72,500 73,571 74,170
75,60 76,50 77,110 78,20
79,30 80,90 81,40 82,80
83,1211 84,1211 85,540 86,150
87,550 88,40 89,270 90,160
91,20 94,90 95,791 96,2612
97,1561 98,1131 99,510 100,130
101,50 102,40 106,460 107,1121
108,631 109,731 110,170 111,160
112,10 113,20 115,380 116,480
117,300 118,160 119,130 120,80
121,50 122,10 123,60 124,330
125,110 126,120 127,40 128,10
130,350 131,5875 132,561 133,3753
134,280 135,621 136,50 137,10
141,240 142,60 143,300 144,50
145,120 146,10 147,20 149,10
154,10 156,10 158,10 159,120
160,130 161,80 162,80 163,20
164,20 166,3603 167,1101 168,3543
169,1021 170,1171 171,330 172,140
173,30 177,10 178,20 179,10
180,20 182,10 194,1722 195,160
196,1692 197,140 198,550 199,50
200,70 201,280 202,20 203,360
204,20 205,170 206,10 207,30
225,10 227,10 230,7877 231,601
232,9999 233,711 234,4884 235,330
236,1061 237,70 238,90
##END=
