##TITLE=6-Quinolinamine
##JCAMP-DX=4.24
##DATA TYPE=MASS SPECTRUM
##OWNER=NIST Mass Spectrometry Data Center
Collection (C) 2014 copyright by the U.S. Secretary of Commerce
on behalf of the United States of America. All rights reserved.
##CAS REGISTRY NO=580-15-4
##$NIST MASS SPEC NO=4060
##MOLFORM=C9 H8 N2
##MW=144
##$NIST SOURCE=MSDC
##XUNITS=M/Z
##YUNITS=RELATIVE INTENSITY
##XFACTOR=1
##YFACTOR=1
##FIRSTX=27
##LASTX=145
##FIRSTY=300
##MAXX=145
##MINX=27
##MAXY=9999
##MINY=100
##NPOINTS=27
##PEAK TABLE=(XY..XY)
27,300 28,1200 37,300 38,600
39,1000 41,500 50,500 51,500
52,900 62,700 63,1500 64,600
65,400 72,800 74,300 75,300
76,300 78,300 89,1800 90,1200
104,100 116,1500 117,2300 118,500
143,1100 144,9999 145,1100
##END=
