##TITLE=7-Quinolinamine
##JCAMP-DX=4.24
##DATA TYPE=MASS SPECTRUM
##OWNER=NIST Mass Spectrometry Data Center
Collection (C) 2014 copyright by the U.S. Secretary of Commerce
on behalf of the United States of America. All rights reserved.
##CAS REGISTRY NO=580-19-8
##$NIST MASS SPEC NO=4061
##MOLFORM=C9 H8 N2
##MW=144
##$NIST SOURCE=MSDC
##XUNITS=M/Z
##YUNITS=RELATIVE INTENSITY
##XFACTOR=1
##YFACTOR=1
##FIRSTX=27
##LASTX=145
##FIRSTY=300
##MAXX=145
##MINX=27
##MAXY=9999
##MINY=100
##NPOINTS=27
##PEAK TABLE=(XY..XY)
27,300 28,1100 37,300 38,600
39,1200 41,600 50,900 51,1000
52,900 62,1000 63,1800 64,600
65,500 72,900 74,400 75,400
76,500 78,300 89,2300 90,1700
104,100 116,2100 117,6199 118,700
143,900 144,9999 145,1100
##END=
