##TITLE=3-Quinolinamine
##JCAMP-DX=4.24
##DATA TYPE=MASS SPECTRUM
##ORIGIN=Japan AIST/NIMC Database- Spectrum MS-NW-2595
##OWNER=NIST Mass Spectrometry Data Center
Collection (C) 2014 copyright by the U.S. Secretary of Commerce
on behalf of the United States of America. All rights reserved.
##CAS REGISTRY NO=580-17-6
##$NIST MASS SPEC NO=234266
##MOLFORM=C9 H8 N2
##MW=144
##$NIST SOURCE=MSDC
##XUNITS=M/Z
##YUNITS=RELATIVE INTENSITY
##XFACTOR=1
##YFACTOR=1
##FIRSTX=17
##LASTX=146
##FIRSTY=20
##MAXX=146
##MINX=17
##MAXY=9999
##MINY=10
##NPOINTS=73
##PEAK TABLE=(XY..XY)
17,20 26,20 27,30 28,129
32,10 37,60 38,99 39,279
40,50 41,109 42,40 43,20
44,30 45,50 49,20 50,189
51,179 52,119 53,30 54,30
56,10 57,50 58,219 59,20
61,70 62,219 63,519 64,159
65,109 66,60 67,30 71,40
72,289 73,10 74,80 75,119
76,159 77,129 78,99 79,30
85,30 86,50 87,80 88,149
89,1649 90,1289 91,169 92,10
93,10 99,20 100,30 101,70
102,50 103,60 104,169 105,20
114,80 115,129 116,1189 117,2019
118,319 119,20 127,99 128,60
129,80 130,50 131,50 141,10
142,149 143,1439 144,9999 145,1069
146,50
##END=
