##TITLE=Naphthalene, 2-bromo-
##JCAMP-DX=4.24
##DATA TYPE=MASS SPECTRUM
##ORIGIN=Japan AIST/NIMC Database- Spectrum MS-NW-1816
##OWNER=NIST Mass Spectrometry Data Center
Collection (C) 2014 copyright by the U.S. Secretary of Commerce
on behalf of the United States of America. All rights reserved.
##CAS REGISTRY NO=580-13-2
##$NIST MASS SPEC NO=228719
##MOLFORM=C10 H7 Br
##MW=206
##$NIST SOURCE=MSDC
##XUNITS=M/Z
##YUNITS=RELATIVE INTENSITY
##XFACTOR=1
##YFACTOR=1
##FIRSTX=14
##LASTX=210
##FIRSTY=10
##MAXX=210
##MINX=14
##MAXY=9999
##MINY=10
##NPOINTS=79
##PEAK TABLE=(XY..XY)
14,10 25,10 26,70 27,149
28,20 36,10 37,169 38,299
39,409 40,20 41,10 44,30
48,10 49,149 50,1309 51,1269
52,169 53,40 60,40 61,399
62,769 63,1929 64,149 65,10
72,10 73,169 74,1519 75,1619
76,899 77,1779 78,109 79,70
80,30 81,60 82,30 84,30
85,179 86,399 87,579 88,109
89,50 90,80 91,70 96,10
97,80 98,569 99,489 100,409
101,1169 102,119 103,369 104,359
106,10 109,10 110,20 111,40
117,20 118,10 119,20 120,20
121,40 122,109 123,30 124,20
125,229 126,2779 127,9999 128,1109
129,60 130,10 141,10 143,10
204,10 205,60 206,6829 207,799
208,6599 209,759 210,40
##END=
