##TITLE=Hexacosanoic acid, methyl ester
##JCAMP-DX=4.24
##DATA TYPE=MASS SPECTRUM
##ORIGIN=NIST Mass Spectrometry Data Center
##OWNER=NIST Mass Spectrometry Data Center
Collection (C) 2014 copyright by the U.S. Secretary of Commerce
on behalf of the United States of America. All rights reserved.
##CAS REGISTRY NO=5802-82-4
##$NIST MASS SPEC NO=333148
##MOLFORM=C27 H54 O2
##MW=410
##$NIST SOURCE=MSDC
##XUNITS=M/Z
##YUNITS=RELATIVE INTENSITY
##XFACTOR=1
##YFACTOR=1
##FIRSTX=15
##LASTX=413
##FIRSTY=30
##MAXX=413
##MINX=15
##MAXY=9999
##MINY=10
##NPOINTS=211
##PEAK TABLE=(XY..XY)
15,30 26,10 27,200 28,160
29,711 30,20 31,50 33,10
37,10 38,10 39,190 40,40
41,2592 42,661 43,6055 44,310
45,110 50,10 53,130 54,320
55,4254 56,981 57,4904 58,260
59,771 60,50 61,50 65,20
66,10 67,480 68,220 69,2192
70,510 71,1641 72,120 73,270
74,9999 75,3833 76,170 77,30
78,10 79,90 80,50 81,450
82,200 83,1601 84,540 85,931
87,8167 88,621 89,70 91,20
93,90 94,40 95,410 96,190
97,1391 98,530 99,210 100,10
101,691 102,80 106,10 107,110
108,20 109,230 110,90 111,591
112,130 113,100 114,40 115,260
116,190 117,20 119,10 121,160
122,10 123,130 124,50 125,310
126,50 127,50 128,10 129,891
130,260 131,30 135,180 136,30
137,70 138,30 139,140 140,30
141,30 143,2803 144,270 145,20
149,100 150,20 151,30 152,20
153,90 154,20 155,10 157,230
158,40 159,10 161,10 163,50
164,10 165,10 167,60 168,20
169,10 170,10 171,80 172,40
175,10 177,40 180,10 181,40
182,20 183,10 184,10 185,370
186,60 191,20 193,10 194,10
195,30 196,10 197,10 199,561
200,80 201,20 205,20 209,20
210,10 213,90 214,20 219,10
222,10 223,30 224,20 227,80
228,30 233,10 235,10 237,10
238,10 241,130 242,30 243,10
247,10 249,10 251,20 252,10
255,240 256,50 257,10 264,10
265,10 266,10 267,10 269,130
270,30 275,10 279,10 280,10
282,10 283,70 284,20 293,20
294,10 297,90 298,30 307,10
308,10 311,420 312,110 313,20
317,10 321,10 325,190 326,60
327,10 334,10 335,10 336,10
339,40 340,10 352,10 353,130
354,50 359,10 361,10 363,10
367,841 368,230 369,20 370,10
377,20 378,10 379,150 380,60
381,100 382,20 383,10 410,2142
411,641 412,90 413,10
##END=
