##TITLE=2',5'-Dimethoxypropiophenone
##JCAMP-DX=4.24
##DATA TYPE=MASS SPECTRUM
##ORIGIN=Dr. Jiri Zamecnik, DCIEM, North York, Canada, GP Library
##OWNER=NIST Mass Spectrometry Data Center
Collection (C) 2014 copyright by the U.S. Secretary of Commerce
on behalf of the United States of America. All rights reserved.
##CAS REGISTRY NO=5803-30-5
##$NIST MASS SPEC NO=123928
##MOLFORM=C11 H14 O3
##MW=194
##$NIST SOURCE=MSDC
##XUNITS=M/Z
##YUNITS=RELATIVE INTENSITY
##XFACTOR=1
##YFACTOR=1
##FIRSTX=51
##LASTX=195
##FIRSTY=1010
##MAXX=195
##MINX=51
##MAXY=9999
##MINY=90
##NPOINTS=25
##PEAK TABLE=(XY..XY)
51,1010 53,880 63,930 64,700
65,510 77,2790 78,440 79,1900
91,450 92,1310 94,520 107,3300
108,390 109,410 122,2040 123,300
135,350 136,90 150,1660 151,260
163,120 165,9999 166,2090 194,5340
195,670
##END=
