##TITLE=Silane, dichloro(2-methoxyethyl)methyl-
##JCAMP-DX=4.24
##DATA TYPE=MASS SPECTRUM
##ORIGIN=RADIAN CORP
##OWNER=NIST Mass Spectrometry Data Center
Collection (C) 2014 copyright by the U.S. Secretary of Commerce
on behalf of the United States of America. All rights reserved.
##CAS REGISTRY NO=58066-88-9
##$NIST MASS SPEC NO=73304
##MOLFORM=C4 H10 Cl2 O Si
##MW=172
##$NIST SOURCE=MSDC
##XUNITS=M/Z
##YUNITS=RELATIVE INTENSITY
##XFACTOR=1
##YFACTOR=1
##FIRSTX=14
##LASTX=175
##FIRSTY=60
##MAXX=175
##MINX=14
##MAXY=9999
##MINY=10
##NPOINTS=88
##PEAK TABLE=(XY..XY)
14,60 15,460 26,190 27,580
28,640 29,1660 30,200 31,310
39,110 41,170 42,320 43,760
44,100 45,9999 46,250 53,150
55,40 57,20 58,180 59,740
60,60 63,3270 64,260 65,1300
66,110 67,80 76,60 77,340
78,580 79,1380 80,290 81,470
91,40 92,100 93,90 94,130
95,310 96,30 97,110 98,620
99,1370 100,480 101,920 102,110
103,180 105,80 108,320 109,5430
110,520 111,1990 112,840 113,7160
114,950 115,4930 116,390 117,980
118,20 119,60 121,510 122,10
123,190 125,460 126,20 127,280
128,50 129,6800 130,460 131,4620
132,280 133,840 139,30 140,10
141,320 142,40 143,3390 144,620
145,3100 146,470 147,1040 148,100
149,110 157,510 159,350 161,40
171,480 172,10 173,330 175,40
##END=
