##TITLE=3,3'-Bipyridine
##JCAMP-DX=4.24
##DATA TYPE=MASS SPECTRUM
##ORIGIN=D.HENNEBERG, MAX-PLANCK INSTITUTE, MULHEIM, WEST GERMANY
##OWNER=NIST Mass Spectrometry Data Center
Collection (C) 2014 copyright by the U.S. Secretary of Commerce
on behalf of the United States of America. All rights reserved.
##CAS REGISTRY NO=581-46-4
##$NIST MASS SPEC NO=62529
##MOLFORM=C10 H8 N2
##MW=156
##$NIST SOURCE=MSDC
##XUNITS=M/Z
##YUNITS=RELATIVE INTENSITY
##XFACTOR=1
##YFACTOR=1
##FIRSTX=26
##LASTX=158
##FIRSTY=224
##MAXX=158
##MINX=26
##MAXY=9999
##MINY=3
##NPOINTS=73
##PEAK TABLE=(XY..XY)
26,224 27,137 29,4 32,4
37,6 38,26 39,187 40,17
41,30 42,4 43,5 44,5
49,7 50,503 51,926 52,347
53,92 54,34 55,3 56,5
57,11 61,3 62,77 63,400
64,65 65,49 66,8 67,4
71,3 74,110 75,466 76,848
77,371 78,437 79,237 80,19
81,4 86,5 87,40 88,39
89,206 90,41 91,11 92,14
99,14 100,62 101,501 102,773
103,669 104,143 105,20 106,7
107,3 114,19 115,26 116,365
117,49 118,3 126,22 127,123
128,942 129,907 130,463 131,43
140,5 141,15 149,6 153,44
154,79 155,3157 156,9999 157,1091
158,58
##END=
