##TITLE=2H-1-Benzopyran-2-one, 7-methoxy-6-(3-methyl-2-butenyl)-
##JCAMP-DX=4.24
##DATA TYPE=MASS SPECTRUM
##OWNER=NIST Mass Spectrometry Data Center
Collection (C) 2014 copyright by the U.S. Secretary of Commerce
on behalf of the United States of America. All rights reserved.
##CAS REGISTRY NO=581-31-7
##$NIST MASS SPEC NO=11815
##MOLFORM=C15 H16 O3
##MW=244
##$NIST SOURCE=MSDC
##XUNITS=M/Z
##YUNITS=RELATIVE INTENSITY
##XFACTOR=1
##YFACTOR=1
##FIRSTX=41
##LASTX=245
##FIRSTY=1023
##MAXX=245
##MINX=41
##MAXY=9999
##MINY=91
##NPOINTS=56
##PEAK TABLE=(XY..XY)
41,1023 43,409 50,159 51,682
52,159 53,364 55,364 63,386
64,273 65,273 67,182 69,682
76,159 77,727 78,159 79,227
89,273 90,136 91,341 93,159
102,182 103,364 108,227 115,455
122,227 127,159 128,409 129,159
131,636 141,273 148,182 158,159
159,795 160,91 161,182 169,159
171,227 173,182 175,545 176,636
185,182 187,455 189,2318 190,273
197,159 198,182 199,159 201,455
213,341 214,409 215,182 229,9999
230,1364 243,273 244,7545 245,1136
##END=
