##TITLE=2,6-Dihydroxynaphthalene
##JCAMP-DX=4.24
##DATA TYPE=MASS SPECTRUM
##ORIGIN=Japan AIST/NIMC Database- Spectrum MS-NW-6350
##OWNER=NIST Mass Spectrometry Data Center
Collection (C) 2014 copyright by the U.S. Secretary of Commerce
on behalf of the United States of America. All rights reserved.
##CAS REGISTRY NO=581-43-1
##$NIST MASS SPEC NO=235125
##MOLFORM=C10 H8 O2
##MW=160
##$NIST SOURCE=MSDC
##XUNITS=M/Z
##YUNITS=RELATIVE INTENSITY
##XFACTOR=1
##YFACTOR=1
##FIRSTX=26
##LASTX=163
##FIRSTY=30
##MAXX=163
##MINX=26
##MAXY=9999
##MINY=10
##NPOINTS=76
##PEAK TABLE=(XY..XY)
26,30 27,70 28,20 29,60
37,30 38,80 39,119 40,20
41,30 42,10 43,30 44,30
49,30 50,209 51,489 52,99
53,70 55,60 56,30 57,30
58,10 61,40 62,109 63,169
64,30 65,139 66,60 67,20
69,20 70,10 71,20 73,30
74,129 75,159 76,149 77,749
78,139 79,60 80,489 81,20
83,20 85,20 86,50 87,60
88,50 89,50 91,10 95,10
97,20 98,20 99,10 101,70
102,309 103,639 104,239 105,70
109,10 110,10 111,10 113,40
114,70 115,239 116,50 128,10
129,30 130,70 131,2299 132,589
133,60 157,10 158,20 159,229
160,9999 161,1049 162,109 163,10
##END=
