##TITLE=Naphthalene, 2,3-dimethyl-
##JCAMP-DX=4.24
##DATA TYPE=MASS SPECTRUM
##ORIGIN=NIST Mass Spectrometry Data Center, 1990.
##OWNER=NIST Mass Spectrometry Data Center
Collection (C) 2014 copyright by the U.S. Secretary of Commerce
on behalf of the United States of America. All rights reserved.
##CAS REGISTRY NO=581-40-8
##$NIST MASS SPEC NO=118774
##MOLFORM=C12 H12
##MW=156
##$NIST SOURCE=MSDC
##XUNITS=M/Z
##YUNITS=RELATIVE INTENSITY
##XFACTOR=1
##YFACTOR=1
##FIRSTX=15
##LASTX=158
##FIRSTY=49
##MAXX=158
##MINX=15
##MAXY=9999
##MINY=8
##NPOINTS=78
##PEAK TABLE=(XY..XY)
15,49 17,20 18,8 26,57
27,289 28,52 29,15 37,20
38,88 39,484 40,50 41,48
50,316 51,667 52,116 53,93
55,11 56,15 57,241 61,56
62,354 63,980 64,523 65,191
66,20 68,16 69,156 70,379
73,40 74,351 75,492 76,1163
77,921 78,542 85,39 86,158
87,203 88,114 89,384 90,43
91,106 98,110 99,85 100,47
101,129 102,252 103,65 109,13
110,41 111,40 112,18 113,150
114,13 115,2272 116,277 117,19
122,15 125,41 126,303 127,802
128,1610 129,683 130,65 137,39
139,815 141,9999 142,1160 143,65
149,30 150,177 151,411 152,1198
153,1275 154,553 155,2939 156,9811
157,1286 158,83
##END=
