##TITLE=8-Carboxynaphyhalene-1-carboxamide
##JCAMP-DX=4.24
##DATA TYPE=MASS SPECTRUM
##ORIGIN=NIST Mass Spectrometry Data Center
##OWNER=NIST Mass Spectrometry Data Center
Collection (C) 2014 copyright by the U.S. Secretary of Commerce
on behalf of the United States of America. All rights reserved.
##CAS REGISTRY NO=5811-88-1
##$NIST MASS SPEC NO=343344
##MOLFORM=C12 H9 N O3
##MW=215
##$NIST SOURCE=MSDC
##XUNITS=M/Z
##YUNITS=RELATIVE INTENSITY
##XFACTOR=1
##YFACTOR=1
##FIRSTX=12
##LASTX=199
##FIRSTY=80
##MAXX=199
##MINX=12
##MAXY=9999
##MINY=20
##NPOINTS=51
##PEAK TABLE=(XY..XY)
12,80 15,90 17,20 18,90
27,140 28,40 29,120 31,80
32,30 38,180 39,270 44,120
49,100 50,581 51,370 52,110
57,140 61,290 62,561 63,1511
64,130 71,480 73,90 74,791
75,771 76,641 77,350 85,520
86,390 87,500 88,190 98,480
99,460 100,380 101,120 113,430
114,370 115,90 125,460 126,3443
127,841 140,601 141,200 151,90
153,4444 154,1211 155,711 169,420
197,9999 198,1511 199,220
##END=
