##TITLE=Tridiphane
##JCAMP-DX=4.24
##DATA TYPE=MASS SPECTRUM
##ORIGIN=NIST Mass Spectrometry Data Center, 1990.
##OWNER=NIST Mass Spectrometry Data Center
Collection (C) 2014 copyright by the U.S. Secretary of Commerce
on behalf of the United States of America. All rights reserved.
##CAS REGISTRY NO=58138-08-2
##$NIST MASS SPEC NO=119019
##MOLFORM=C10 H7 Cl5 O
##MW=318
##$NIST SOURCE=MSDC
##XUNITS=M/Z
##YUNITS=RELATIVE INTENSITY
##XFACTOR=1
##YFACTOR=1
##FIRSTX=13
##LASTX=326
##FIRSTY=33
##MAXX=326
##MINX=13
##MAXY=9999
##MINY=8
##NPOINTS=245
##PEAK TABLE=(XY..XY)
13,33 14,124 15,53 16,18
17,128 18,453 25,92 26,458
27,311 28,616 29,895 30,211
31,190 32,56 35,224 36,249
37,391 38,374 39,662 40,32
41,35 42,368 43,196 44,8
47,310 48,102 49,876 50,1468
51,1007 52,79 53,68 54,8
55,382 56,312 57,77 60,458
61,1577 62,1278 63,2267 64,114
65,159 67,41 68,71 69,30
71,55 72,327 73,2261 74,3216
75,3539 76,340 77,197 78,32
79,57 80,91 82,226 83,421
84,707 85,1101 86,1140 87,1188
88,328 89,1419 90,203 91,511
95,278 96,662 97,1168 98,887
99,1944 100,500 101,958 102,353
103,179 106,127 107,408 108,439
109,2424 110,1079 111,1127 112,307
113,934 114,273 115,375 116,127
117,497 118,127 119,573 120,141
121,480 122,127 123,2153 124,825
125,897 126,309 127,115 130,24
131,291 133,709 134,240 135,1261
136,2656 137,901 138,1015 139,195
140,75 141,29 143,46 145,1745
146,396 147,2177 148,1148 149,1293
150,490 151,334 152,215 153,55
154,64 155,34 156,29 157,740
158,29 159,4679 160,720 161,2888
162,304 163,475 164,63 165,168
166,239 167,109 168,97 169,109
170,474 171,3018 172,34 173,9847
174,1159 175,5506 176,514 177,913
178,102 179,37 180,48 181,279
182,818 183,3954 184,1158 185,2517
186,37 187,9999 188,1190 189,6142
190,625 191,1060 192,201 193,805
194,209 195,682 196,218 197,254
198,114 199,189 200,65 201,305
202,53 203,181 204,75 205,82
206,83 207,66 208,60 209,47
210,39 211,164 212,178 213,279
214,137 215,158 216,39 217,4298
218,1080 219,4966 220,989 221,3126
222,562 223,1622 224,188 225,495
226,76 227,236 228,46 229,295
230,74 231,226 232,100 233,176
234,89 235,107 236,30 237,42
241,89 242,33 243,147 244,31
245,95 246,61 247,654 248,169
249,567 250,166 251,268 252,30
253,859 254,155 255,983 256,153
257,483 258,77 259,106 267,49
269,107 271,125 273,35 281,36
283,1877 284,366 285,2516 286,397
287,1297 288,158 289,316 290,61
291,35 292,56 304,38 317,273
318,1059 319,535 320,1703 321,475
322,1035 323,227 324,356 325,58
326,52
##END=
