##TITLE=Neopentylamine
##JCAMP-DX=4.24
##DATA TYPE=MASS SPECTRUM
##ORIGIN=Japan AIST/NIMC Database- Spectrum MS-NW-8551
##OWNER=NIST Mass Spectrometry Data Center
Collection (C) 2014 copyright by the U.S. Secretary of Commerce
on behalf of the United States of America. All rights reserved.
##CAS REGISTRY NO=5813-64-9
##$NIST MASS SPEC NO=236104
##MOLFORM=C5 H13 N
##MW=87
##$NIST SOURCE=MSDC
##XUNITS=M/Z
##YUNITS=RELATIVE INTENSITY
##XFACTOR=1
##YFACTOR=1
##FIRSTX=15
##LASTX=88
##FIRSTY=70
##MAXX=88
##MINX=15
##MAXY=9999
##MINY=10
##NPOINTS=37
##PEAK TABLE=(XY..XY)
15,70 17,10 18,30 26,30
27,349 28,609 29,1089 30,9999
31,429 32,659 33,10 37,20
38,40 39,469 40,70 41,1329
42,169 43,149 44,229 50,20
51,30 52,20 53,70 54,50
55,1349 56,439 57,809 58,40
68,10 69,50 70,90 71,70
72,1009 73,50 86,40 87,389
88,50
##END=
