##TITLE=3-(Benzylmethylamino)-1-propanol
##JCAMP-DX=4.24
##DATA TYPE=MASS SPECTRUM
##ORIGIN=Japan AIST/NIMC Database- Spectrum MS-NW-9908
##OWNER=NIST Mass Spectrometry Data Center
Collection (C) 2014 copyright by the U.S. Secretary of Commerce
on behalf of the United States of America. All rights reserved.
##CAS REGISTRY NO=5814-42-6
##$NIST MASS SPEC NO=239290
##MOLFORM=C11 H17 N O
##MW=179
##$NIST SOURCE=MSDC
##XUNITS=M/Z
##YUNITS=RELATIVE INTENSITY
##XFACTOR=1
##YFACTOR=1
##FIRSTX=15
##LASTX=180
##FIRSTY=40
##MAXX=180
##MINX=15
##MAXY=9999
##MINY=10
##NPOINTS=74
##PEAK TABLE=(XY..XY)
15,40 27,50 28,70 29,40
30,60 31,139 38,10 39,169
40,20 41,119 42,489 43,99
44,429 45,10 50,30 51,119
52,30 53,10 54,10 55,10
56,30 57,50 58,369 59,20
62,20 63,99 64,30 65,649
66,50 67,30 68,10 70,30
72,10 74,10 76,10 77,109
78,50 79,40 84,10 86,30
88,10 89,129 90,80 91,9999
92,859 93,30 100,10 102,70
103,20 104,30 105,30 106,30
107,20 108,20 117,30 118,90
119,20 120,439 121,139 122,10
131,10 132,90 133,20 134,6249
135,649 136,30 146,20 149,10
160,10 161,10 176,10 178,50
179,389 180,50
##END=
