##TITLE=2-Chlorobenzoic acid hydrazide
##JCAMP-DX=4.24
##DATA TYPE=MASS SPECTRUM
##ORIGIN=NIST Mass Spectrometry Data Center, 1994
##OWNER=NIST Mass Spectrometry Data Center
Collection (C) 2014 copyright by the U.S. Secretary of Commerce
on behalf of the United States of America. All rights reserved.
##CAS REGISTRY NO=5814-05-1
##$NIST MASS SPEC NO=134970
##MOLFORM=C7 H7 Cl N2 O
##MW=170
##$NIST SOURCE=MSDC
##XUNITS=M/Z
##YUNITS=RELATIVE INTENSITY
##XFACTOR=1
##YFACTOR=1
##FIRSTX=16
##LASTX=173
##FIRSTY=96
##MAXX=173
##MINX=16
##MAXY=9999
##MINY=10
##NPOINTS=73
##PEAK TABLE=(XY..XY)
16,96 17,39 18,24 25,17
26,60 27,119 28,122 29,347
30,193 31,646 32,10 35,25
36,61 37,209 38,279 39,183
40,18 43,40 44,33 47,23
49,211 50,1442 51,756 52,94
53,59 55,27 60,35 61,157
62,87 63,150 64,68 65,44
69,22 72,56 73,232 74,860
75,3000 76,756 77,282 78,32
80,22 84,134 85,353 86,85
87,129 88,20 89,19 90,72
91,26 92,21 99,40 101,25
102,34 104,61 105,49 109,26
111,4937 112,427 113,1713 114,118
135,95 136,17 139,9999 140,838
141,3282 142,280 143,15 155,35
157,17 170,1186 171,115 172,394
173,37
##END=
