##TITLE=2-Propyl-1-pentanol
##JCAMP-DX=4.24
##DATA TYPE=MASS SPECTRUM
##ORIGIN=NIST Mass Spectrometry Data Center
##OWNER=NIST Mass Spectrometry Data Center
Collection (C) 2014 copyright by the U.S. Secretary of Commerce
on behalf of the United States of America. All rights reserved.
##CAS REGISTRY NO=58175-57-8
##$NIST MASS SPEC NO=364045
##MOLFORM=C8 H18 O
##MW=130
##$NIST SOURCE=MSDC
##XUNITS=M/Z
##YUNITS=RELATIVE INTENSITY
##XFACTOR=1
##YFACTOR=1
##FIRSTX=15
##LASTX=113
##FIRSTY=30
##MAXX=113
##MINX=15
##MAXY=9999
##MINY=10
##NPOINTS=56
##PEAK TABLE=(XY..XY)
15,30 19,10 26,50 27,891
28,120 29,1251 30,50 31,661
32,10 33,10 37,10 39,831
41,3603 42,841 43,3023 44,150
45,170 50,30 51,70 52,30
53,250 54,160 55,2032 56,1842
57,9999 58,460 59,60 62,10
63,20 65,50 66,20 67,190
68,240 69,2042 70,3133 71,440
72,20 73,20 77,30 78,10
79,30 81,30 82,330 83,1371
84,951 85,70 86,50 87,10
91,10 95,10 97,250 98,831
99,110 100,20 112,340 113,30
##END=
