##TITLE=Naphthalene, 1-(1-cyclopenten-1-yl)-
##JCAMP-DX=4.24
##DATA TYPE=MASS SPECTRUM
##ORIGIN=D.HENNEBERG, MAX-PLANCK INSTITUTE, MULHEIM, WEST GERMANY
##OWNER=NIST Mass Spectrometry Data Center
Collection (C) 2014 copyright by the U.S. Secretary of Commerce
on behalf of the United States of America. All rights reserved.
##CAS REGISTRY NO=58195-37-2
##$NIST MASS SPEC NO=63486
##MOLFORM=C15 H14
##MW=194
##$NIST SOURCE=MSDC
##XUNITS=M/Z
##YUNITS=RELATIVE INTENSITY
##XFACTOR=1
##YFACTOR=1
##FIRSTX=27
##LASTX=197
##FIRSTY=49
##MAXX=197
##MINX=27
##MAXY=9999
##MINY=3
##NPOINTS=116
##PEAK TABLE=(XY..XY)
27,49 28,418 29,26 31,12
32,16 36,4 37,5 39,167
40,59 41,229 42,13 43,9
44,68 49,8 50,31 51,41
52,16 53,25 55,6 56,3
57,6 62,5 63,43 65,149
66,100 67,135 68,12 69,6
74,9 75,38 76,34 77,142
78,58 79,25 81,10 82,73
83,178 84,10 85,9 87,12
88,17 89,226 90,25 91,66
92,7 96,143 97,141 101,61
102,103 103,20 113,26 114,23
115,574 116,95 117,14 120,4
121,7 122,5 125,20 126,146
127,269 128,2065 129,322 130,19
131,5 137,5 138,13 139,328
140,69 141,408 142,87 143,34
144,10 145,5 147,5 149,18
150,123 151,498 152,2050 153,1540
154,208 155,23 162,32 163,392
164,827 165,7920 166,4388 167,775
168,64 169,8 172,6 173,7
174,10 175,23 176,250 177,348
178,3472 179,3572 180,488 181,28
182,5 183,5 184,6 185,8
186,10 187,20 188,36 189,626
190,344 191,859 192,407 193,3138
194,9999 195,1590 196,127 197,10
##END=
