##TITLE=3-(Cyclopropylamino)propionitrile
##JCAMP-DX=4.24
##DATA TYPE=MASS SPECTRUM
##ORIGIN=NIST Mass Spectrometry Data Center, 1994
##OWNER=NIST Mass Spectrometry Data Center
Collection (C) 2014 copyright by the U.S. Secretary of Commerce
on behalf of the United States of America. All rights reserved.
##CAS REGISTRY NO=58196-47-7
##$NIST MASS SPEC NO=134608
##MOLFORM=C6 H10 N2
##MW=110
##$NIST SOURCE=MSDC
##XUNITS=M/Z
##YUNITS=RELATIVE INTENSITY
##XFACTOR=1
##YFACTOR=1
##FIRSTX=4
##LASTX=111
##FIRSTY=18
##MAXX=111
##MINX=4
##MAXY=9999
##MINY=11
##NPOINTS=45
##PEAK TABLE=(XY..XY)
4,18 13,30 14,111 15,257
18,32 26,583 27,1378 28,5500
29,482 30,1898 31,31 34,22
37,96 38,315 39,1705 40,627
41,4066 42,1897 43,1121 44,91
50,19 51,184 52,518 53,310
54,2050 55,496 56,583 57,41
65,16 66,47 68,1900 70,9999
71,513 78,66 80,176 81,493
82,207 83,141 84,12 92,11
95,328 96,23 109,158 110,248
111,23
##END=
