##TITLE=Naphthalene, 2,7-dimethyl-
##JCAMP-DX=4.24
##DATA TYPE=MASS SPECTRUM
##ORIGIN=CONTINENTAL OIL CO., PONCA CITY, OKLA., USA
##OWNER=NIST Mass Spectrometry Data Center
Collection (C) 2014 copyright by the U.S. Secretary of Commerce
on behalf of the United States of America. All rights reserved.
##CAS REGISTRY NO=582-16-1
##$NIST MASS SPEC NO=39301
##MOLFORM=C12 H12
##MW=156
##$NIST SOURCE=MSDC
##XUNITS=M/Z
##YUNITS=RELATIVE INTENSITY
##XFACTOR=1
##YFACTOR=1
##FIRSTX=13
##LASTX=158
##FIRSTY=22
##MAXX=158
##MINX=13
##MAXY=9999
##MINY=2
##NPOINTS=108
##PEAK TABLE=(XY..XY)
13,22 14,101 15,343 16,5
25,7 26,117 27,527 28,104
29,22 30,2 36,8 37,47
38,155 39,660 40,45 41,78
42,11 43,29 44,2 48,6
49,11 50,178 51,407 52,66
53,44 54,8 55,14 56,10
57,13 58,3 60,5 61,38
62,154 63,459 64,408 65,91
66,9 67,6 68,8 69,29
70,34 71,8 72,4 73,7
74,137 75,212 76,557 77,716
78,273 81,6 83,6 84,7
85,27 86,72 87,107 88,40
89,119 90,16 91,32 92,5
93,4 95,8 97,9 98,46
99,30 100,16 101,37 102,90
103,31 104,7 105,8 107,8
109,11 110,17 111,17 112,8
113,40 114,34 115,432 116,56
117,6 121,3 122,8 123,5
124,4 125,17 126,203 127,631
128,1234 129,553 130,112 137,47
138,76 139,732 140,303 141,4662
142,587 143,48 149,35 150,101
151,314 152,863 153,865 154,503
155,3291 156,9999 157,1329 158,86
##END=
