##TITLE=Benzeneethanamine, .beta.-methyl-
##JCAMP-DX=4.24
##DATA TYPE=MASS SPECTRUM
##ORIGIN=Drug Lab
##OWNER=NIST Mass Spectrometry Data Center
Collection (C) 2014 copyright by the U.S. Secretary of Commerce
on behalf of the United States of America. All rights reserved.
##CAS REGISTRY NO=582-22-9
##$NIST MASS SPEC NO=379968
##MOLFORM=C9 H13 N
##MW=135
##$NIST SOURCE=MSDC
##XUNITS=M/Z
##YUNITS=RELATIVE INTENSITY
##XFACTOR=1
##YFACTOR=1
##FIRSTX=30
##LASTX=136
##FIRSTY=9999
##MAXX=136
##MINX=30
##MAXY=9999
##MINY=10
##NPOINTS=63
##PEAK TABLE=(XY..XY)
30,9999 31,170 37,10 38,50
39,370 40,40 41,80 42,70
43,10 47,10 49,10 50,260
51,711 52,190 53,110 54,40
55,10 56,80 57,10 59,90
60,20 61,10 62,80 63,260
64,50 65,300 66,40 67,10
73,10 74,100 75,90 76,120
77,1491 78,681 79,861 80,60
86,10 87,20 89,160 90,60
91,1531 92,130 93,20 98,10
101,20 102,160 103,851 104,571
105,1401 106,310 107,20 115,170
116,50 117,160 118,160 119,50
120,20 130,20 132,30 133,20
134,30 135,450 136,50
##END=
