##TITLE=1-Butanone, 3-methyl-1-phenyl-
##JCAMP-DX=4.24
##DATA TYPE=MASS SPECTRUM
##ORIGIN=Japan AIST/NIMC Database- Spectrum MS-NW-5146
##OWNER=NIST Mass Spectrometry Data Center
Collection (C) 2014 copyright by the U.S. Secretary of Commerce
on behalf of the United States of America. All rights reserved.
##CAS REGISTRY NO=582-62-7
##$NIST MASS SPEC NO=232465
##MOLFORM=C11 H14 O
##MW=162
##$NIST SOURCE=MSDC
##XUNITS=M/Z
##YUNITS=RELATIVE INTENSITY
##XFACTOR=1
##YFACTOR=1
##FIRSTX=15
##LASTX=164
##FIRSTY=20
##MAXX=164
##MINX=15
##MAXY=9999
##MINY=10
##NPOINTS=72
##PEAK TABLE=(XY..XY)
15,20 18,10 26,10 27,249
28,50 29,219 37,10 38,30
39,319 40,30 41,399 42,40
43,119 50,259 51,979 52,80
53,30 55,40 56,40 57,129
58,10 62,20 63,60 64,30
65,80 66,30 69,169 70,10
72,20 73,30 74,70 75,60
76,149 77,3549 78,569 79,50
83,10 85,20 89,20 91,159
92,40 102,20 103,30 104,20
105,9999 106,789 107,50 115,30
116,10 117,10 119,10 120,2489
121,239 122,10 127,10 128,30
129,70 131,20 132,10 133,10
134,70 135,10 143,10 144,40
145,20 146,10 147,479 148,50
161,70 162,1609 163,199 164,10
##END=
