##TITLE=1,3,5-Triselena-2,4,6-tristannacyclohexane, 2,2,4,4,6,6-hexamethyl-
##JCAMP-DX=4.24
##DATA TYPE=MASS SPECTRUM
##ORIGIN=B.MATHIASCH JOHANNES GUTENBERG UNIV., MAINZ, GERMANY, F.R.G.
##OWNER=NIST Mass Spectrometry Data Center
Collection (C) 2014 copyright by the U.S. Secretary of Commerce
on behalf of the United States of America. All rights reserved.
##CAS REGISTRY NO=58258-49-4
##$NIST MASS SPEC NO=67919
##MOLFORM=C6 H18 Se3 Sn3
##MW=690
##$NIST SOURCE=MSDC
##XUNITS=M/Z
##YUNITS=RELATIVE INTENSITY
##XFACTOR=1
##YFACTOR=1
##FIRSTX=96
##LASTX=686
##FIRSTY=400
##MAXX=686
##MINX=96
##MAXY=9999
##MINY=400
##NPOINTS=176
##PEAK TABLE=(XY..XY)
96,400 131,1080 132,690 133,1680
134,600 135,2290 146,480 148,610
150,860 157,620 159,400 161,8510
162,4870 163,9260 164,5710 165,9680
166,760 167,3220 169,3790 181,500
183,860 184,400 185,1260 187,410
196,510 198,520 200,650 201,400
203,660 205,1120 207,850 209,980
210,600 211,2490 212,1040 213,2860
214,700 215,2620 217,800 218,400
226,460 227,550 228,530 229,540
230,470 237,770 238,720 239,2180
240,1610 241,5630 242,3210 243,7190
244,1950 245,6630 246,780 247,2230
249,1240 256,480 258,600 260,480
387,570 388,550 389,880 390,890
391,1490 392,1410 393,1570 394,1810
395,1520 396,1900 397,1330 398,1680
399,850 400,1280 401,570 402,840
403,1080 404,1250 405,2630 406,2450
407,4570 408,3770 409,6540 410,4590
411,7400 412,3790 413,6510 414,2460
415,4880 416,1180 417,2550 418,560
419,1350 420,770 421,920 422,1380
423,920 424,1470 425,920 426,1700
427,1040 428,1510 429,840 430,1470
431,1360 432,1810 433,3260 434,3530
435,8020 436,7370 437,9220 438,9130
439,9690 440,9240 441,9999 442,9230
443,9700 444,8370 445,9300 446,4160
447,7970 448,1810 449,4390 450,2090
451,2670 452,2700 453,2850 454,4090
455,3150 456,4890 457,2780 458,4480
459,1620 460,2820 461,710 462,1650
464,780 469,480 471,470 473,480
635,520 636,410 637,630 638,540
639,790 640,510 641,550 642,420
643,510 658,440 659,690 660,850
661,1370 662,1710 663,2610 664,2680
665,4070 666,3880 667,5040 668,4200
669,5410 670,3830 671,4960 672,3150
673,3810 674,2030 675,3030 676,1070
677,1600 678,610 679,940 680,620
681,530 682,470 684,430 686,450
##END=
