##TITLE=Hexane, 3,4-dimethyl-
##JCAMP-DX=4.24
##DATA TYPE=MASS SPECTRUM
##OWNER=NIST Mass Spectrometry Data Center
Collection (C) 2014 copyright by the U.S. Secretary of Commerce
on behalf of the United States of America. All rights reserved.
##CAS REGISTRY NO=583-48-2
##$NIST MASS SPEC NO=1744
##MOLFORM=C8 H18
##MW=114
##$NIST SOURCE=MSDC
##XUNITS=M/Z
##YUNITS=RELATIVE INTENSITY
##XFACTOR=1
##YFACTOR=1
##FIRSTX=1
##LASTX=115
##FIRSTY=30
##MAXX=115
##MINX=1
##MAXY=9999
##MINY=10
##NPOINTS=61
##PEAK TABLE=(XY..XY)
1,30 2,40 12,10 13,10
14,20 15,270 26,110 27,2452
28,461 29,4804 30,100 31,10
37,20 38,30 39,1281 40,210
41,5655 42,400 43,6816 44,220
45,10 46,10 50,20 51,70
52,30 53,310 54,100 55,991
56,9999 57,7927 58,330 59,10
63,10 65,30 66,10 67,70
68,10 69,330 70,190 71,150
72,10 77,10 78,10 79,10
80,10 81,10 82,10 83,40
84,731 85,3813 86,240 87,10
91,10 93,10 97,10 98,10
99,30 100,10 113,10 114,220
115,20
##END=
