##TITLE=Benzoic acid, 2-propenyl ester
##JCAMP-DX=4.24
##DATA TYPE=MASS SPECTRUM
##ORIGIN=Japan AIST/NIMC Database- Spectrum MS-IW-2856
##OWNER=NIST Mass Spectrometry Data Center
Collection (C) 2014 copyright by the U.S. Secretary of Commerce
on behalf of the United States of America. All rights reserved.
##CAS REGISTRY NO=583-04-0
##$NIST MASS SPEC NO=245094
##MOLFORM=C10 H10 O2
##MW=162
##$NIST SOURCE=MSDC
##XUNITS=M/Z
##YUNITS=RELATIVE INTENSITY
##XFACTOR=1
##YFACTOR=1
##FIRSTX=26
##LASTX=163
##FIRSTY=20
##MAXX=163
##MINX=26
##MAXY=9999
##MINY=10
##NPOINTS=50
##PEAK TABLE=(XY..XY)
26,20 27,70 28,40 29,20
37,20 38,50 39,319 40,40
41,369 42,10 49,10 50,239
51,759 52,50 53,10 55,10
57,80 62,10 63,10 65,10
73,10 74,80 75,60 76,129
77,2839 78,239 79,60 91,40
103,10 104,20 105,9999 106,849
107,50 115,50 116,30 117,319
118,40 122,60 123,50 125,20
133,10 134,10 139,30 141,10
144,10 145,10 147,50 161,20
162,669 163,70
##END=
