##TITLE=Hydantoin, 5-benzylidene-2-thio-
##JCAMP-DX=4.24
##DATA TYPE=MASS SPECTRUM
##ORIGIN=Japan AIST/NIMC Database- Spectrum MS-IW-7522
##OWNER=NIST Mass Spectrometry Data Center
Collection (C) 2014 copyright by the U.S. Secretary of Commerce
on behalf of the United States of America. All rights reserved.
##CAS REGISTRY NO=583-46-0
##$NIST MASS SPEC NO=241312
##MOLFORM=C10 H8 N2 O S
##MW=204
##$NIST SOURCE=MSDC
##XUNITS=M/Z
##YUNITS=RELATIVE INTENSITY
##XFACTOR=1
##YFACTOR=1
##FIRSTX=26
##LASTX=207
##FIRSTY=20
##MAXX=207
##MINX=26
##MAXY=9999
##MINY=10
##NPOINTS=106
##PEAK TABLE=(XY..XY)
26,20 27,119 28,90 32,50
33,20 34,70 37,30 38,70
39,229 40,30 41,20 43,20
44,60 45,20 49,10 50,189
51,319 52,80 53,10 55,10
57,20 58,109 59,99 60,269
61,60 62,149 63,379 64,149
65,70 66,30 67,10 69,10
70,10 71,20 73,20 74,90
75,139 76,139 77,329 78,40
79,70 80,20 83,40 85,20
86,209 87,60 88,99 89,1149
90,1709 91,209 92,10 93,80
97,10 98,10 99,30 100,60
101,199 102,409 103,70 104,10
114,70 115,159 116,859 117,5299
118,979 119,60 121,10 126,50
127,159 128,249 129,60 130,20
132,10 133,30 134,129 135,30
141,30 142,329 143,60 144,179
145,109 146,40 148,30 149,10
153,949 154,159 155,10 158,10
159,119 160,60 161,10 169,10
170,219 171,30 172,10 176,10
185,219 186,1849 187,239 188,109
189,10 203,329 204,9999 205,1309
206,539 207,50
##END=
