##TITLE=Benzenamine, 2-bromo-4-methyl-
##JCAMP-DX=4.24
##DATA TYPE=MASS SPECTRUM
##ORIGIN=Japan AIST/NIMC Database- Spectrum MS-NW-1580
##OWNER=NIST Mass Spectrometry Data Center
Collection (C) 2014 copyright by the U.S. Secretary of Commerce
on behalf of the United States of America. All rights reserved.
##CAS REGISTRY NO=583-68-6
##$NIST MASS SPEC NO=233975
##MOLFORM=C7 H8 Br N
##MW=185
##$NIST SOURCE=MSDC
##XUNITS=M/Z
##YUNITS=RELATIVE INTENSITY
##XFACTOR=1
##YFACTOR=1
##FIRSTX=14
##LASTX=189
##FIRSTY=20
##MAXX=189
##MINX=14
##MAXY=9999
##MINY=10
##NPOINTS=93
##PEAK TABLE=(XY..XY)
14,20 15,30 16,10 25,20
26,149 27,489 28,459 29,50
30,219 36,10 37,179 38,349
39,709 40,169 41,199 42,129
43,20 44,40 45,20 48,10
49,119 50,719 51,1619 52,1549
53,1539 54,259 55,30 56,10
57,10 59,10 60,20 61,139
62,279 63,479 64,179 65,299
66,189 67,70 71,10 73,50
74,169 75,199 76,319 77,2459
78,1589 79,1549 80,259 81,30
82,20 85,30 86,40 87,40
88,40 89,179 90,90 91,119
92,289 93,259 94,20 99,10
100,10 102,70 103,50 104,1749
105,1329 106,9289 107,909 108,40
117,30 118,10 119,30 130,10
131,20 132,10 133,10 141,10
143,10 145,10 156,10 157,40
158,40 159,40 160,30 169,30
171,20 182,10 183,40 184,4399
185,9999 186,4929 187,9649 188,759
189,20
##END=
