##TITLE=Ethyl 4-(trifluoromethyl)benzoate
##JCAMP-DX=4.24
##DATA TYPE=MASS SPECTRUM
##ORIGIN=V.G.Zaikin,TIPS,Russian Acad.Sci.Moscow
##OWNER=NIST Mass Spectrometry Data Center
Collection (C) 2014 copyright by the U.S. Secretary of Commerce
on behalf of the United States of America. All rights reserved.
##CAS REGISTRY NO=583-02-8
##$NIST MASS SPEC NO=280044
##MOLFORM=C10 H9 F3 O2
##MW=218
##$NIST SOURCE=MSDC
##XUNITS=M/Z
##YUNITS=RELATIVE INTENSITY
##XFACTOR=1
##YFACTOR=1
##FIRSTX=26
##LASTX=219
##FIRSTY=380
##MAXX=219
##MINX=26
##MAXY=9999
##MINY=10
##NPOINTS=79
##PEAK TABLE=(XY..XY)
26,380 27,1591 28,260 29,2022
30,210 31,170 36,50 37,80
38,130 39,130 40,30 41,30
42,90 43,240 44,290 45,2372
46,20 47,10 50,1121 51,490
52,20 53,50 57,210 61,20
62,100 63,240 68,60 69,370
73,80 74,460 75,1251 76,430
77,310 79,30 81,90 87,30
88,30 93,60 94,110 95,1091
96,170 99,210 100,70 104,30
105,60 106,30 107,110 118,20
119,110 123,110 125,591 126,410
127,110 141,20 143,250 144,290
145,5105 146,480 149,260 154,90
157,20 159,20 161,20 162,20
171,110 172,170 173,9999 174,971
175,90 189,70 190,3153 191,380
199,591 200,160 203,60 204,10
217,190 218,1431 219,170
##END=
