##TITLE=Benzene, 1,2-dibromo-
##JCAMP-DX=4.24
##DATA TYPE=MASS SPECTRUM
##ORIGIN=S.FACCHETTI EURATOM, C.C.R., ISPRA, ITALY
##OWNER=NIST Mass Spectrometry Data Center
Collection (C) 2014 copyright by the U.S. Secretary of Commerce
on behalf of the United States of America. All rights reserved.
##CAS REGISTRY NO=583-53-9
##$NIST MASS SPEC NO=11290
##MOLFORM=C6 H4 Br2
##MW=234
##$NIST SOURCE=MSDC
##XUNITS=M/Z
##YUNITS=RELATIVE INTENSITY
##XFACTOR=1
##YFACTOR=1
##FIRSTX=25
##LASTX=240
##FIRSTY=20
##MAXX=240
##MINX=25
##MAXY=9999
##MINY=4
##NPOINTS=61
##PEAK TABLE=(XY..XY)
25,20 26,54 27,47 28,8
36,35 37,230 38,475 39,65
40,9 41,8 48,28 49,285
50,1869 51,260 60,18 61,53
62,34 72,29 73,262 74,1063
75,2475 76,1708 77,650 78,549
79,262 80,114 81,255 82,113
91,16 93,16 104,54 105,73
106,39 107,52 115,12 116,44
117,463 118,868 119,424 127,4
128,122 129,135 130,130 131,125
132,10 152,17 153,43 154,97
155,3676 156,316 157,3564 158,232
159,6 233,39 234,5143 235,401
236,9999 237,692 238,4879 239,304
240,10
##END=
