##TITLE=N,N-Dimethylhexanamide
##JCAMP-DX=4.24
##DATA TYPE=MASS SPECTRUM
##ORIGIN=Zaikin V.G., TIPS RAS, Moscow, Russia
##OWNER=NIST Mass Spectrometry Data Center
Collection (C) 2014 copyright by the U.S. Secretary of Commerce
on behalf of the United States of America. All rights reserved.
##CAS REGISTRY NO=5830-30-8
##$NIST MASS SPEC NO=340138
##MOLFORM=C8 H17 N O
##MW=143
##$NIST SOURCE=MSDC
##XUNITS=M/Z
##YUNITS=RELATIVE INTENSITY
##XFACTOR=1
##YFACTOR=1
##FIRSTX=27
##LASTX=144
##FIRSTY=210
##MAXX=144
##MINX=27
##MAXY=9999
##MINY=20
##NPOINTS=43
##PEAK TABLE=(XY..XY)
27,210 28,100 29,250 30,70
39,160 40,30 41,390 42,490
43,1842 44,1862 45,4094 46,621
53,30 54,20 55,470 56,110
57,70 58,170 68,20 69,80
70,100 71,510 72,3193 73,190
74,20 81,20 83,20 86,40
87,9999 88,430 89,20 98,50
99,200 100,1591 101,360 113,40
114,721 115,60 126,20 128,70
142,80 143,490 144,160
##END=
