##TITLE=1-Naphthalenecarbothioic acid, O-ethyl ester
##JCAMP-DX=4.24
##DATA TYPE=MASS SPECTRUM
##ORIGIN=D.HENNEBERG, MAX-PLANCK INSTITUTE, MULHEIM, WEST GERMANY
##OWNER=NIST Mass Spectrometry Data Center
Collection (C) 2014 copyright by the U.S. Secretary of Commerce
on behalf of the United States of America. All rights reserved.
##CAS REGISTRY NO=58303-26-7
##$NIST MASS SPEC NO=62651
##MOLFORM=C13 H12 O S
##MW=216
##$NIST SOURCE=MSDC
##XUNITS=M/Z
##YUNITS=RELATIVE INTENSITY
##XFACTOR=1
##YFACTOR=1
##FIRSTX=26
##LASTX=219
##FIRSTY=314
##MAXX=219
##MINX=26
##MAXY=9999
##MINY=6
##NPOINTS=119
##PEAK TABLE=(XY..XY)
26,314 27,627 28,446 29,1002
30,23 31,30 32,68 33,29
34,64 39,83 40,66 41,12
43,45 44,100 45,70 46,12
49,18 50,98 51,285 52,33
53,16 58,14 59,7 60,29
61,23 62,25 63,125 64,23
65,52 69,107 70,10 71,8
74,74 75,394 76,192 77,1205
78,100 79,12 82,17 85,12
86,27 87,84 88,47 89,155
90,18 93,50 94,17 95,17
98,16 99,50 100,66 101,693
102,171 103,14 105,11 106,10
108,12 111,9 113,80 114,263
115,2833 116,307 117,18 119,12
120,8 121,23 125,159 126,1492
127,7170 128,1386 129,141 132,16
133,12 134,20 135,30 136,32
137,16 138,12 139,112 140,26
141,104 142,26 144,11 145,33
154,11 155,390 156,49 157,6
158,38 159,427 160,58 161,23
162,8 168,16 169,179 170,346
171,9999 172,1810 173,631 174,80
181,12 182,59 183,264 184,52
185,17 186,127 187,5354 188,762
189,277 190,35 200,12 201,33
202,21 203,17 215,287 216,6685
217,1033 218,378 219,50
##END=
