##TITLE=Ethyl 3-iodobenzoate
##JCAMP-DX=4.24
##DATA TYPE=MASS SPECTRUM
##ORIGIN=NIST Mass Spectrometry Data Center
##OWNER=NIST Mass Spectrometry Data Center
Collection (C) 2014 copyright by the U.S. Secretary of Commerce
on behalf of the United States of America. All rights reserved.
##CAS REGISTRY NO=58313-23-8
##$NIST MASS SPEC NO=343621
##MOLFORM=C9 H9 I O2
##MW=276
##$NIST SOURCE=MSDC
##XUNITS=M/Z
##YUNITS=RELATIVE INTENSITY
##XFACTOR=1
##YFACTOR=1
##FIRSTX=13
##LASTX=278
##FIRSTY=10
##MAXX=278
##MINX=13
##MAXY=9999
##MINY=10
##NPOINTS=95
##PEAK TABLE=(XY..XY)
13,10 14,90 15,380 16,20
18,20 19,20 25,30 26,380
27,1611 28,450 29,2362 30,300
31,20 36,10 37,190 38,320
39,410 41,10 42,50 43,270
44,40 45,601 46,20 49,260
50,4894 51,731 52,40 53,170
55,10 61,50 62,80 63,140
64,90 65,1481 66,110 67,10
73,330 74,1872 75,1902 76,7066
77,981 78,90 79,50 89,10
90,30 91,50 92,90 93,160
94,10 101,30 103,510 104,921
105,460 106,40 115,90 119,30
121,871 122,70 127,601 128,30
131,350 132,20 149,701 150,70
152,40 153,20 176,30 177,30
191,20 201,30 203,3673 204,270
205,10 217,10 219,10 227,10
228,20 231,9729 232,1311 233,80
244,10 245,10 248,6946 249,480
250,40 257,20 258,230 259,30
261,150 262,10 272,10 273,10
276,9999 277,1011 278,100
##END=
