##TITLE=4-Methyl-3-nitropyridine
##JCAMP-DX=4.24
##DATA TYPE=MASS SPECTRUM
##ORIGIN=NIST Mass Spectrometry Data Center, 1994
##OWNER=NIST Mass Spectrometry Data Center
Collection (C) 2014 copyright by the U.S. Secretary of Commerce
on behalf of the United States of America. All rights reserved.
##CAS REGISTRY NO=5832-44-0
##$NIST MASS SPEC NO=136027
##MOLFORM=C6 H6 N2 O2
##MW=138
##$NIST SOURCE=MSDC
##XUNITS=M/Z
##YUNITS=RELATIVE INTENSITY
##XFACTOR=1
##YFACTOR=1
##FIRSTX=12
##LASTX=140
##FIRSTY=33
##MAXX=140
##MINX=12
##MAXY=9999
##MINY=10
##NPOINTS=65
##PEAK TABLE=(XY..XY)
12,33 13,49 14,31 15,183
16,69 17,19 18,48 24,20
25,83 26,603 27,1047 28,765
29,125 30,1932 36,62 37,864
38,1864 39,9999 40,658 41,310
42,67 43,10 44,31 45,10
46,390 48,42 49,329 50,1481
51,1347 52,1120 53,1108 54,152
55,119 56,25 60,60 61,429
62,962 63,2472 64,1559 65,9653
66,1300 67,106 68,55 75,191
76,179 77,41 78,116 79,72
80,160 81,68 82,15 87,23
88,29 90,56 92,3949 93,880
94,121 108,41 109,12 121,6715
122,482 123,31 138,1781 139,163
140,15
##END=
