##TITLE=14-Methyldotriacontane
##JCAMP-DX=4.24
##DATA TYPE=MASS SPECTRUM
##ORIGIN=J. Klune, Insect Chem. Ecol. Lab., USDA, Beltsville, MD 20705
##OWNER=NIST Mass Spectrometry Data Center
Collection (C) 2014 copyright by the U.S. Secretary of Commerce
on behalf of the United States of America. All rights reserved.
##CAS REGISTRY NO=58349-84-1
##$NIST MASS SPEC NO=131197
##MOLFORM=C33 H68
##MW=464
##$NIST SOURCE=MSDC
##XUNITS=M/Z
##YUNITS=RELATIVE INTENSITY
##XFACTOR=1
##YFACTOR=1
##FIRSTX=41
##LASTX=465
##FIRSTY=3043
##MAXX=465
##MINX=41
##MAXY=9999
##MINY=9
##NPOINTS=202
##PEAK TABLE=(XY..XY)
41,3043 42,1046 43,8421 44,277
45,25 49,18 51,9 53,155
54,334 55,3340 56,3038 57,9999
58,713 59,467 60,18 65,27
66,73 67,671 68,823 69,3497
70,1608 71,6605 72,387 73,28
77,13 79,120 80,81 81,732
82,1297 83,2892 84,1169 85,4724
86,320 87,25 91,24 93,69
94,44 95,599 96,1126 97,3681
98,761 99,1943 100,284 101,19
107,30 108,25 109,296 110,486
111,2308 112,591 113,1213 114,174
115,14 119,109 121,36 122,13
123,162 124,297 125,1216 126,376
127,955 128,90 129,12 131,400
132,10 135,33 136,10 137,95
138,223 139,578 140,279 141,713
142,80 149,20 150,24 151,46
152,156 153,359 154,235 155,539
156,72 165,22 166,188 167,239
168,396 169,441 170,69 179,10
180,122 181,210 182,1519 183,613
184,85 185,20 193,18 194,77
195,101 196,286 197,287 198,44
199,24 207,35 208,708 209,805
210,9091 211,4659 212,615 213,56
219,781 220,25 221,19 222,80
223,90 224,919 225,893 226,366
227,1465 228,211 229,22 235,23
236,109 237,135 238,329 239,357
240,142 241,52 243,9 250,120
251,185 252,1597 253,1332 254,234
255,39 264,301 265,62 266,384
267,347 268,89 269,102 278,657
279,585 280,5016 281,4151 282,782
283,95 292,45 293,59 294,840
295,1730 296,440 297,267 298,54
307,76 308,173 309,232 310,70
311,67 312,9 319,9 321,30
322,127 323,218 324,58 336,124
337,150 338,40 350,96 351,120
352,26 353,12 364,90 365,117
366,26 367,10 378,84 379,128
380,28 392,102 393,159 394,38
406,98 407,174 408,61 414,65
420,95 421,202 422,66 426,9
434,176 435,386 436,125 437,22
448,70 449,491 450,174 451,30
460,82 461,144 462,179 463,420
464,822 465,106
##END=
