##TITLE=9-Methyltritriacontane
##JCAMP-DX=4.24
##DATA TYPE=MASS SPECTRUM
##ORIGIN=J. Klune, Insect Chem. Ecol. Lab., USDA, Beltsville, MD 20705
##OWNER=NIST Mass Spectrometry Data Center
Collection (C) 2014 copyright by the U.S. Secretary of Commerce
on behalf of the United States of America. All rights reserved.
##CAS REGISTRY NO=58349-86-3
##$NIST MASS SPEC NO=131205
##MOLFORM=C34 H70
##MW=478
##$NIST SOURCE=MSDC
##XUNITS=M/Z
##YUNITS=RELATIVE INTENSITY
##XFACTOR=1
##YFACTOR=1
##FIRSTX=41
##LASTX=479
##FIRSTY=2642
##MAXX=479
##MINX=41
##MAXY=9999
##MINY=7
##NPOINTS=220
##PEAK TABLE=(XY..XY)
41,2642 42,279 43,8575 44,232
45,29 49,44 51,23 53,178
54,107 55,3743 56,1631 57,9999
58,415 59,70 65,44 66,21
67,678 68,655 69,2437 70,879
71,6038 72,306 73,32 77,37
79,146 80,24 81,666 82,801
83,2066 84,819 85,4049 86,252
91,54 93,66 94,56 95,402
96,629 97,2207 98,607 99,1267
100,98 105,44 106,9 107,39
108,20 109,244 110,301 111,1285
112,582 113,542 114,56 115,23
117,7 119,31 121,32 122,17
123,117 124,127 125,444 126,235
127,340 128,54 129,31 131,20
132,7 133,32 134,7 135,40
136,20 137,95 138,352 139,767
140,4899 141,1409 142,123 143,16
145,15 149,28 150,7 151,51
152,87 153,152 154,474 155,385
156,83 157,212 158,20 159,27
161,18 163,18 165,57 166,61
167,115 168,131 169,221 170,66
171,78 173,28 177,7 179,37
180,69 181,120 182,143 183,290
184,51 185,42 187,16 189,17
191,21 192,8 193,21 194,46
195,52 196,86 197,125 198,9
203,8 205,10 207,17 208,48
209,58 210,72 211,122 212,18
221,14 222,58 223,65 224,82
225,138 226,29 229,7 236,29
237,31 238,39 239,82 240,18
241,21 250,47 251,42 252,46
253,87 254,17 255,7 263,7
264,38 265,35 266,47 267,90
268,24 269,16 278,38 279,33
280,36 281,64 282,17 292,33
293,28 294,41 295,76 296,10
297,18 306,26 307,16 308,44
309,50 312,7 320,43 321,17
322,53 323,49 324,7 334,113
335,47 336,572 337,278 338,59
339,17 350,69 351,154 352,55
353,301 354,81 356,7 362,171
363,135 364,1648 365,1798 366,455
367,62 378,211 379,285 380,107
381,47 392,65 393,97 394,30
404,7 406,96 407,127 408,43
420,86 421,152 422,54 434,77
435,146 436,52 438,7 448,106
449,240 450,87 462,43 463,276
464,103 465,20 474,57 475,33
476,140 477,246 478,500 479,53
##END=
