##TITLE=17-Methyltritriacontane
##JCAMP-DX=4.24
##DATA TYPE=MASS SPECTRUM
##ORIGIN=J. Klune, Insect Chem. Ecol. Lab., USDA, Beltsville, MD 20705
##OWNER=NIST Mass Spectrometry Data Center
Collection (C) 2014 copyright by the U.S. Secretary of Commerce
on behalf of the United States of America. All rights reserved.
##CAS REGISTRY NO=58349-88-5
##$NIST MASS SPEC NO=131204
##MOLFORM=C34 H70
##MW=478
##$NIST SOURCE=MSDC
##XUNITS=M/Z
##YUNITS=RELATIVE INTENSITY
##XFACTOR=1
##YFACTOR=1
##FIRSTX=41
##LASTX=479
##FIRSTY=2173
##MAXX=479
##MINX=41
##MAXY=9999
##MINY=20
##NPOINTS=140
##PEAK TABLE=(XY..XY)
41,2173 42,886 43,6948 44,226
47,81 49,311 51,100 53,95
54,292 55,2679 56,1775 57,9999
58,393 67,393 68,429 69,1977
70,1210 71,6454 72,322 79,71
81,282 82,578 83,1775 84,893
85,4243 86,390 95,187 96,399
97,1702 98,530 99,1630 100,117
109,90 110,218 111,936 112,449
113,1045 114,100 123,32 124,153
125,512 126,368 127,748 128,71
137,46 138,119 139,249 140,343
141,582 142,45 152,106 153,174
154,306 155,495 156,53 166,60
167,109 168,266 169,432 170,28
171,25 180,20 181,77 182,235
183,353 184,20 194,29 195,27
196,246 197,304 208,21 209,22
210,226 211,247 222,42 223,20
224,1135 225,482 226,62 238,186
239,248 240,47 241,20 250,50
251,26 252,4570 253,2557 254,427
255,21 266,289 267,283 268,24
280,228 281,256 282,25 294,186
295,220 296,58 308,164 309,254
310,42 322,132 323,218 324,20
336,138 337,229 338,49 350,118
351,209 352,56 364,86 365,217
366,62 378,77 379,200 380,49
392,81 393,205 394,52 406,74
407,179 408,54 420,66 421,150
422,36 423,56 434,46 435,92
448,147 449,244 450,1274 451,440
452,71 462,21 463,265 464,113
476,44 477,48 478,149 479,24
##END=
