##TITLE=Anthracene, 9-(2-nitroethenyl)-
##JCAMP-DX=4.24
##DATA TYPE=MASS SPECTRUM
##ORIGIN=J.E. WILKINSON S-CUBED, SAN DIEGO, CA.
##OWNER=NIST Mass Spectrometry Data Center
Collection (C) 2014 copyright by the U.S. Secretary of Commerce
on behalf of the United States of America. All rights reserved.
##CAS REGISTRY NO=58349-77-2
##$NIST MASS SPEC NO=91188
##MOLFORM=C16 H11 N O2
##MW=249
##$NIST SOURCE=MSDC
##XUNITS=M/Z
##YUNITS=RELATIVE INTENSITY
##XFACTOR=1
##YFACTOR=1
##FIRSTX=63
##LASTX=250
##FIRSTY=60
##MAXX=250
##MINX=63
##MAXY=9999
##MINY=2
##NPOINTS=28
##PEAK TABLE=(XY..XY)
63,60 74,47 75,245 87,230
88,1174 99,29 100,1397 101,3228
150,295 151,98 152,73 163,40
165,90 174,138 175,107 176,401
177,7 178,390 189,226 190,2
199,7 200,1374 201,970 202,9999
203,2935 204,223 249,2099 250,188
##END=
