##TITLE=2H-1-Benzopyran-2-one, 4-hydroxy-3-(1,2,3,4-tetrahydro-1-naphthalenyl)-
##JCAMP-DX=4.24
##DATA TYPE=MASS SPECTRUM
##ORIGIN=NIST Mass Spectrometry Data Center, 1998.
##OWNER=NIST Mass Spectrometry Data Center
Collection (C) 2014 copyright by the U.S. Secretary of Commerce
on behalf of the United States of America. All rights reserved.
##CAS REGISTRY NO=5836-29-3
##$NIST MASS SPEC NO=291854
##MOLFORM=C19 H16 O3
##MW=292
##$NIST SOURCE=MSDC
##XUNITS=M/Z
##YUNITS=RELATIVE INTENSITY
##XFACTOR=1
##YFACTOR=1
##FIRSTX=27
##LASTX=295
##FIRSTY=270
##MAXX=295
##MINX=27
##MAXY=9999
##MINY=10
##NPOINTS=207
##PEAK TABLE=(XY..XY)
27,270 29,60 37,20 38,170
39,1240 40,100 41,210 42,10
43,70 50,430 51,1120 52,250
53,620 54,40 55,160 61,40
62,290 63,1330 64,790 65,2450
66,250 67,70 68,100 69,110
73,10 74,200 75,430 76,680
77,1750 78,480 79,280 80,20
81,70 82,130 84,10 86,70
87,190 88,330 89,930 90,180
91,2850 92,1470 93,1480 94,370
96,50 97,40 98,50 99,70
100,80 101,450 102,530 103,670
104,1330 105,680 106,40 107,440
108,70 109,100 110,40 111,40
112,10 113,260 114,460 115,5079
116,1780 117,2300 118,490 119,80
120,1090 121,7909 122,640 123,80
124,10 125,1090 126,360 127,1210
128,3640 129,3380 130,5149 131,2260
132,340 133,90 134,50 136,50
137,70 138,130 139,600 140,120
141,1030 142,560 143,890 144,620
145,290 146,160 147,140 148,50
149,100 150,100 151,160 152,370
153,170 154,40 155,120 156,50
157,230 158,50 159,60 160,470
161,120 162,190 163,1630 164,230
165,430 166,60 167,40 168,50
169,110 170,910 171,1180 172,260
173,320 174,60 175,1820 176,790
177,180 178,360 179,130 180,30
181,40 183,50 185,10 187,1800
188,7609 189,1420 190,230 191,170
192,50 193,10 194,30 195,10
197,80 198,200 199,90 200,120
201,1070 202,690 203,300 204,60
205,110 206,30 207,170 208,50
209,20 213,80 214,50 215,270
216,70 217,120 218,260 219,430
220,70 221,120 222,30 223,100
224,10 226,120 227,60 228,80
229,120 230,40 231,270 232,100
233,50 234,40 235,590 236,380
237,50 243,20 244,30 245,280
246,390 247,780 248,140 249,910
250,160 251,280 252,60 255,20
257,30 259,30 263,1170 264,710
265,100 273,140 274,80 275,300
276,60 277,1010 278,190 279,20
289,170 290,100 291,1020 292,9999
293,2050 294,240 295,10
##END=
