##TITLE=2-Pentanol, formate
##JCAMP-DX=4.24
##DATA TYPE=MASS SPECTRUM
##ORIGIN=A.QUAYLE SHELL LTD., THORNTON RES. CENT., CHESTER, CHES., UK
##OWNER=NIST Mass Spectrometry Data Center
Collection (C) 2014 copyright by the U.S. Secretary of Commerce
on behalf of the United States of America. All rights reserved.
##CAS REGISTRY NO=58368-66-4
##$NIST MASS SPEC NO=68042
##MOLFORM=C6 H12 O2
##MW=116
##$NIST SOURCE=MSDC
##XUNITS=M/Z
##YUNITS=RELATIVE INTENSITY
##XFACTOR=1
##YFACTOR=1
##FIRSTX=27
##LASTX=101
##FIRSTY=1459
##MAXX=101
##MINX=27
##MAXY=9999
##MINY=364
##NPOINTS=16
##PEAK TABLE=(XY..XY)
27,1459 29,1592 31,1658 39,1144
41,2321 42,2189 43,3814 44,1061
45,9999 55,5555 59,3847 70,6069
71,1824 73,2802 87,995 101,364
##END=
