##TITLE=Chloropropylate
##JCAMP-DX=4.24
##DATA TYPE=MASS SPECTRUM
##ORIGIN=MASS SPECTROMETRY CENTER, UNIV. OF UTAH EPA-PTSEL 1440
##OWNER=NIST Mass Spectrometry Data Center
Collection (C) 2014 copyright by the U.S. Secretary of Commerce
on behalf of the United States of America. All rights reserved.
##CAS REGISTRY NO=5836-10-2
##$NIST MASS SPEC NO=52560
##MOLFORM=C17 H16 Cl2 O3
##MW=338
##$NIST SOURCE=MSDC
##XUNITS=M/Z
##YUNITS=RELATIVE INTENSITY
##XFACTOR=1
##YFACTOR=1
##FIRSTX=26
##LASTX=256
##FIRSTY=79
##MAXX=256
##MINX=26
##MAXY=9999
##MINY=2
##NPOINTS=56
##PEAK TABLE=(XY..XY)
26,79 27,587 32,2 36,23
38,113 39,368 40,85 41,732
43,2223 50,10 51,509 53,133
62,91 63,143 73,81 74,222
75,1404 76,711 77,431 85,136
87,142 89,33 90,169 99,117
104,431 105,196 111,3616 112,337
113,1210 114,53 125,11 127,25
138,75 139,8555 140,740 141,2770
142,255 149,83 150,132 151,162
152,485 153,151 163,168 164,90
181,7 186,105 199,144 215,151
216,207 217,87 251,9999 252,1753
253,7457 254,1097 255,1274 256,184
##END=
