##TITLE=Ethyl tiglate
##JCAMP-DX=4.24
##DATA TYPE=MASS SPECTRUM
##ORIGIN=Chuck Anderson, Aldrich Chemical Co.
##OWNER=NIST Mass Spectrometry Data Center
Collection (C) 2014 copyright by the U.S. Secretary of Commerce
on behalf of the United States of America. All rights reserved.
##CAS REGISTRY NO=5837-78-5
##$NIST MASS SPEC NO=107779
##MOLFORM=C7 H12 O2
##MW=128
##$NIST SOURCE=MSDC
##XUNITS=M/Z
##YUNITS=RELATIVE INTENSITY
##XFACTOR=1
##YFACTOR=1
##FIRSTX=14
##LASTX=130
##FIRSTY=23
##MAXX=130
##MINX=14
##MAXY=9999
##MINY=1
##NPOINTS=72
##PEAK TABLE=(XY..XY)
14,23 15,169 16,7 19,7
25,11 26,334 27,3439 28,814
29,5439 30,157 31,78 32,1
36,4 37,45 38,139 39,2019
40,201 41,469 42,80 43,489
44,43 45,419 46,7 47,4
49,13 50,152 51,249 52,126
53,864 54,789 55,6799 56,584
57,101 58,33 59,52 60,14
65,4 66,7 67,67 68,8
69,186 70,47 71,77 72,63
73,122 74,17 79,5 81,154
82,1479 83,9999 84,639 85,1539
86,73 87,27 95,119 96,5
97,10 98,21 99,324 100,3439
101,198 102,16 109,8 110,38
111,15 113,4019 114,267 115,20
127,28 128,2499 129,214 130,15
##END=
