##TITLE=3,4-Dimethylcyclopentanone
##JCAMP-DX=4.24
##DATA TYPE=MASS SPECTRUM
##ORIGIN=NIST Mass Spectrometry Data Center, 1990.
##OWNER=NIST Mass Spectrometry Data Center
Collection (C) 2014 copyright by the U.S. Secretary of Commerce
on behalf of the United States of America. All rights reserved.
##CAS REGISTRY NO=58372-16-0
##$NIST MASS SPEC NO=113032
##MOLFORM=C7 H12 O
##MW=112
##$NIST SOURCE=MSDC
##XUNITS=M/Z
##YUNITS=RELATIVE INTENSITY
##XFACTOR=1
##YFACTOR=1
##FIRSTX=14
##LASTX=113
##FIRSTY=108
##MAXX=113
##MINX=14
##MAXY=9999
##MINY=17
##NPOINTS=36
##PEAK TABLE=(XY..XY)
14,108 15,270 16,17 26,208
27,1360 28,358 29,559 37,122
38,383 39,2845 40,740 41,4340
42,9999 43,792 50,162 51,265
52,105 53,434 54,202 55,2163
56,382 62,46 63,62 65,80
66,47 67,199 68,46 69,4838
70,2680 71,155 79,80 83,273
84,76 97,116 112,2193 113,165
##END=
