##TITLE=Bioallethrin
##JCAMP-DX=4.24
##DATA TYPE=MASS SPECTRUM
##ORIGIN=NIST Mass Spectrometry Data Center, 1995
##OWNER=NIST Mass Spectrometry Data Center
Collection (C) 2014 copyright by the U.S. Secretary of Commerce
on behalf of the United States of America. All rights reserved.
##CAS REGISTRY NO=584-79-2
##$NIST MASS SPEC NO=245236
##MOLFORM=C19 H26 O3
##MW=302
##$NIST SOURCE=MSDC
##XUNITS=M/Z
##YUNITS=RELATIVE INTENSITY
##XFACTOR=1
##YFACTOR=1
##FIRSTX=12
##LASTX=303
##FIRSTY=13
##MAXX=303
##MINX=12
##MAXY=9999
##MINY=10
##NPOINTS=94
##PEAK TABLE=(XY..XY)
12,13 14,17 15,83 16,19
17,24 18,44 27,957 28,213
29,1526 30,49 31,36 36,10
37,13 39,1501 40,338 41,3137
42,213 43,2242 44,120 45,32
50,92 51,352 52,210 53,1084
54,170 55,1280 56,105 57,392
58,21 59,52 61,10 63,115
65,1000 66,241 67,1061 68,115
69,699 70,48 71,67 75,16
77,1365 79,3886 80,445 81,3267
82,269 83,228 84,16 85,55
89,37 91,2869 92,460 93,1865
94,235 95,668 96,82 97,70
98,15 100,15 102,18 103,106
105,653 107,2561 108,485 109,269
110,45 111,57 112,18 113,14
115,36 116,14 117,53 119,116
121,464 123,9999 124,1053 125,197
126,26 133,101 134,109 135,381
136,1953 137,210 138,19 139,74
149,50 150,20 151,65 153,242
154,27 167,127 168,369 169,46
302,142 303,31
##END=
