##TITLE=1,2-Butanediol
##JCAMP-DX=4.24
##DATA TYPE=MASS SPECTRUM
##ORIGIN=Japan AIST/NIMC Database- Spectrum MS-NW-4362
##OWNER=NIST Mass Spectrometry Data Center
Collection (C) 2014 copyright by the U.S. Secretary of Commerce
on behalf of the United States of America. All rights reserved.
##CAS REGISTRY NO=584-03-2
##$NIST MASS SPEC NO=230332
##MOLFORM=C4 H10 O2
##MW=90
##$NIST SOURCE=MSDC
##XUNITS=M/Z
##YUNITS=RELATIVE INTENSITY
##XFACTOR=1
##YFACTOR=1
##FIRSTX=14
##LASTX=89
##FIRSTY=40
##MAXX=89
##MINX=14
##MAXY=9999
##MINY=10
##NPOINTS=46
##PEAK TABLE=(XY..XY)
14,40 15,419 17,20 18,99
19,90 25,20 26,189 27,909
28,139 29,749 30,80 31,5409
32,99 33,109 37,40 38,70
39,519 40,90 41,2509 42,229
43,1949 44,269 45,179 47,40
49,10 50,30 51,20 53,50
54,20 55,149 56,30 57,559
58,1029 59,9999 60,409 61,2279
62,60 63,10 69,10 71,60
72,80 73,20 75,20 87,20
88,10 89,30
##END=
