##TITLE=Benzene, 2,4-diisocyanato-1-methyl-
##JCAMP-DX=4.24
##DATA TYPE=MASS SPECTRUM
##ORIGIN=Japan AIST/NIMC Database- Spectrum MS-NW-9240
##OWNER=NIST Mass Spectrometry Data Center
Collection (C) 2014 copyright by the U.S. Secretary of Commerce
on behalf of the United States of America. All rights reserved.
##CAS REGISTRY NO=584-84-9
##$NIST MASS SPEC NO=227935
##MOLFORM=C9 H6 N2 O2
##MW=174
##$NIST SOURCE=MSDC
##XUNITS=M/Z
##YUNITS=RELATIVE INTENSITY
##XFACTOR=1
##YFACTOR=1
##FIRSTX=15
##LASTX=176
##FIRSTY=20
##MAXX=176
##MINX=15
##MAXY=9999
##MINY=10
##NPOINTS=127
##PEAK TABLE=(XY..XY)
15,20 16,30 17,10 18,30
26,109 27,349 28,409 29,60
30,10 36,10 37,129 38,279
39,489 40,169 41,259 42,60
43,169 44,919 45,129 46,30
49,40 50,399 51,659 52,449
53,159 54,90 55,179 56,109
57,189 58,129 59,499 60,90
61,70 62,129 63,429 64,519
65,279 66,139 67,159 68,70
69,179 70,70 71,109 72,99
73,259 74,70 75,209 76,599
77,609 78,239 79,70 80,40
81,99 82,70 83,119 84,60
85,70 86,10 87,339 88,50
89,70 90,479 91,1089 92,179
93,70 94,30 95,60 96,50
97,99 98,50 99,30 100,10
101,20 102,269 103,289 104,259
105,60 106,179 107,40 108,10
109,40 110,20 111,50 112,20
113,20 115,20 116,50 117,489
118,749 119,729 120,269 121,60
122,30 123,30 124,20 125,20
126,10 127,10 129,99 130,30
131,109 132,1299 133,129 134,10
135,10 136,10 137,20 138,10
139,10 141,10 143,10 144,50
145,4579 146,4369 147,769 148,599
149,70 151,10 152,10 153,10
157,20 171,10 172,10 173,2309
174,9999 175,1079 176,99
##END=
