##TITLE=2-Oxazolidinethione
##JCAMP-DX=4.24
##DATA TYPE=MASS SPECTRUM
##ORIGIN=R.SELF FOOD RESEARCH INSTITUTE, NORWICH, UK
##OWNER=NIST Mass Spectrometry Data Center
Collection (C) 2014 copyright by the U.S. Secretary of Commerce
on behalf of the United States of America. All rights reserved.
##CAS REGISTRY NO=5840-81-3
##$NIST MASS SPEC NO=39250
##MOLFORM=C3 H5 N O S
##MW=103
##$NIST SOURCE=MSDC
##XUNITS=M/Z
##YUNITS=RELATIVE INTENSITY
##XFACTOR=1
##YFACTOR=1
##FIRSTX=29
##LASTX=105
##FIRSTY=836
##MAXX=105
##MINX=29
##MAXY=9999
##MINY=31
##NPOINTS=29
##PEAK TABLE=(XY..XY)
29,836 30,390 31,3696 32,76
33,113 34,189 38,133 39,92
40,617 41,6016 42,1493 43,693
44,258 45,600 46,391 47,201
48,32 51,89 52,121 54,31
72,554 73,1476 74,133 75,86
76,263 78,66 103,9999 104,510
105,491
##END=
