##TITLE=3-Methyl-2,5-oxazolidine-dione
##JCAMP-DX=4.24
##DATA TYPE=MASS SPECTRUM
##ORIGIN=James Little,Eastman Chem.Co.,Kingsport,TN
##OWNER=NIST Mass Spectrometry Data Center
Collection (C) 2014 copyright by the U.S. Secretary of Commerce
on behalf of the United States of America. All rights reserved.
##CAS REGISTRY NO=5840-76-6
##$NIST MASS SPEC NO=288545
##MOLFORM=C4 H5 N O3
##MW=115
##$NIST SOURCE=MSDC
##XUNITS=M/Z
##YUNITS=RELATIVE INTENSITY
##XFACTOR=1
##YFACTOR=1
##FIRSTX=27
##LASTX=117
##FIRSTY=1912
##MAXX=117
##MINX=27
##MAXY=9999
##MINY=70
##NPOINTS=29
##PEAK TABLE=(XY..XY)
27,1912 28,5005 29,951 35,1251
40,2122 41,3363 42,9999 43,9529
44,2682 51,120 54,230 55,360
56,1001 57,200 60,100 67,100
69,120 70,90 71,2732 72,120
76,80 81,80 83,70 91,140
97,70 104,80 115,8668 116,490
117,110
##END=
