##TITLE=Benzene, 1-nitro-3-(phenylmethyl)-
##JCAMP-DX=4.24
##DATA TYPE=MASS SPECTRUM
##OWNER=NIST Mass Spectrometry Data Center
Collection (C) 2014 copyright by the U.S. Secretary of Commerce
on behalf of the United States of America. All rights reserved.
##CAS REGISTRY NO=5840-41-5
##$NIST MASS SPEC NO=31475
##MOLFORM=C13 H11 N O2
##MW=213
##$NIST SOURCE=MSDC
##XUNITS=M/Z
##YUNITS=RELATIVE INTENSITY
##XFACTOR=1
##YFACTOR=1
##FIRSTX=38
##LASTX=215
##FIRSTY=190
##MAXX=215
##MINX=38
##MAXY=9999
##MINY=63
##NPOINTS=52
##PEAK TABLE=(XY..XY)
38,190 39,823 41,190 50,380
51,664 52,158 62,253 63,854
64,253 65,886 74,348 75,253
76,380 77,1044 78,316 89,728
90,411 91,2183 92,253 102,221
105,253 107,728 113,221 115,791
116,221 126,63 127,221 128,570
129,158 139,570 140,158 141,285
151,253 152,2088 153,506 163,380
164,443 165,5885 166,4019 167,1867
168,506 178,316 179,253 182,190
183,380 195,253 196,1867 197,316
212,221 213,9999 214,1234 215,221
##END=
