##TITLE=2-(Diisopropylamino)ethanethiol
##JCAMP-DX=4.24
##DATA TYPE=MASS SPECTRUM
##ORIGIN=VERIFIN - Methodology B2-1980
##OWNER=NIST Mass Spectrometry Data Center
Collection (C) 2014 copyright by the U.S. Secretary of Commerce
on behalf of the United States of America. All rights reserved.
##CAS REGISTRY NO=5842-07-9
##$NIST MASS SPEC NO=226234
##MOLFORM=C8 H19 N S
##MW=161
##$NIST SOURCE=MSDC
##XUNITS=M/Z
##YUNITS=RELATIVE INTENSITY
##XFACTOR=1
##YFACTOR=1
##FIRSTX=27
##LASTX=161
##FIRSTY=500
##MAXX=161
##MINX=27
##MAXY=9999
##MINY=50
##NPOINTS=35
##PEAK TABLE=(XY..XY)
27,500 28,300 30,1000 32,100
39,300 41,1201 42,1101 43,1301
44,4103 45,300 47,50 54,70
55,60 56,600 58,700 59,500
60,400 61,900 68,80 70,900
71,50 72,2702 73,200 84,200
86,2702 87,100 101,100 104,60
114,9999 115,500 118,200 128,200
144,60 146,500 161,200
##END=
