##TITLE=Ethaneperoxoic acid, 1-cyano-1-[2-(2-phenyl-1,3-dioxolan-2-yl)ethyl]pentyl ester
##JCAMP-DX=4.24
##DATA TYPE=MASS SPECTRUM
##ORIGIN=JACSAT, 99(5)1536(1977); D. S. WATT ET AL.
##OWNER=NIST Mass Spectrometry Data Center
Collection (C) 2014 copyright by the U.S. Secretary of Commerce
on behalf of the United States of America. All rights reserved.
##CAS REGISTRY NO=58422-92-7
##$NIST MASS SPEC NO=66370
##MOLFORM=C19 H25 N O5
##MW=347
##$NIST SOURCE=MSDC
##XUNITS=M/Z
##YUNITS=RELATIVE INTENSITY
##XFACTOR=1
##YFACTOR=1
##FIRSTX=105
##LASTX=210
##FIRSTY=2800
##MAXX=210
##MINX=105
##MAXY=9999
##MINY=100
##NPOINTS=9
##PEAK TABLE=(XY..XY)
105,2800 149,9999 150,1000 151,200
159,100 161,100 185,200 205,200
210,100
##END=
