##TITLE=Ethaneperoxoic acid, 1-cyano-1-(2-methylphenyl)ethyl ester
##JCAMP-DX=4.24
##DATA TYPE=MASS SPECTRUM
##ORIGIN=JACSAT, 99(5)1536(1977); D. S. WATT ET AL.
##OWNER=NIST Mass Spectrometry Data Center
Collection (C) 2014 copyright by the U.S. Secretary of Commerce
on behalf of the United States of America. All rights reserved.
##CAS REGISTRY NO=58422-67-6
##$NIST MASS SPEC NO=66376
##MOLFORM=C12 H13 N O3
##MW=219
##$NIST SOURCE=MSDC
##XUNITS=M/Z
##YUNITS=RELATIVE INTENSITY
##XFACTOR=1
##YFACTOR=1
##FIRSTX=130
##LASTX=191
##FIRSTY=9999
##MAXX=191
##MINX=130
##MAXY=9999
##MINY=100
##NPOINTS=15
##PEAK TABLE=(XY..XY)
130,9999 131,1300 132,3100 134,600
144,2600 145,4400 146,500 147,100
148,100 149,400 160,100 161,100
175,100 176,100 191,100
##END=
