##TITLE=Hexane, 1,2,5,6-tetrabromo-
##JCAMP-DX=4.24
##DATA TYPE=MASS SPECTRUM
##ORIGIN=NIST Mass Spectrometry Data Center, 1990.
##OWNER=NIST Mass Spectrometry Data Center
Collection (C) 2014 copyright by the U.S. Secretary of Commerce
on behalf of the United States of America. All rights reserved.
##CAS REGISTRY NO=58443-86-0
##$NIST MASS SPEC NO=113064
##MOLFORM=C6 H10 Br4
##MW=398
##$NIST SOURCE=MSDC
##XUNITS=M/Z
##YUNITS=RELATIVE INTENSITY
##XFACTOR=1
##YFACTOR=1
##FIRSTX=14
##LASTX=325
##FIRSTY=1
##MAXX=325
##MINX=14
##MAXY=9999
##MINY=1
##NPOINTS=67
##PEAK TABLE=(XY..XY)
14,1 15,348 18,40 26,777
27,4632 28,646 29,933 32,33
37,236 38,977 39,8204 40,1582
41,6787 42,268 49,88 50,732
51,1249 52,649 53,4213 54,568
55,915 62,87 63,214 65,691
66,426 67,644 77,1773 79,9999
80,4411 81,2945 82,390 83,91
93,648 95,569 105,460 106,232
107,1015 108,217 109,508 117,72
119,2098 120,350 121,2390 122,285
131,93 133,1329 135,1132 159,1872
160,300 161,1887 162,182 185,134
187,251 189,94 199,176 201,125
213,82 239,3639 241,7283 242,510
243,3447 244,187 319,382 321,1010
323,953 324,81 325,339
##END=
