##TITLE=Thiazesim
##JCAMP-DX=4.24
##DATA TYPE=MASS SPECTRUM
##OWNER=NIST Mass Spectrometry Data Center
Collection (C) 2014 copyright by the U.S. Secretary of Commerce
on behalf of the United States of America. All rights reserved.
##CAS REGISTRY NO=5845-26-1
##$NIST MASS SPEC NO=15277
##MOLFORM=C19 H22 N2 O S
##MW=326
##$NIST SOURCE=MSDC
##XUNITS=M/Z
##YUNITS=RELATIVE INTENSITY
##XFACTOR=1
##YFACTOR=1
##FIRSTX=41
##LASTX=326
##FIRSTY=354
##MAXX=326
##MINX=41
##MAXY=9999
##MINY=76
##NPOINTS=30
##PEAK TABLE=(XY..XY)
41,354 42,1645 43,797 44,557
55,316 56,1013 57,1063 58,4999
59,2101 65,506 70,506 71,9999
72,499 77,886 91,797 103,1114
104,1063 109,861 131,1114 136,886
149,165 150,152 151,278 178,114
179,127 223,190 236,127 255,76
282,76 326,127
##END=
