##TITLE=4-Hexen-1-ol, 5-methyl-2-(1-methylethenyl)-
##JCAMP-DX=4.24
##DATA TYPE=MASS SPECTRUM
##ORIGIN=NIST Mass Spectrometry Data Center
##OWNER=NIST Mass Spectrometry Data Center
Collection (C) 2014 copyright by the U.S. Secretary of Commerce
on behalf of the United States of America. All rights reserved.
##CAS REGISTRY NO=58461-27-1
##$NIST MASS SPEC NO=352630
##MOLFORM=C10 H18 O
##MW=154
##$NIST SOURCE=MSDC
##XUNITS=M/Z
##YUNITS=RELATIVE INTENSITY
##XFACTOR=1
##YFACTOR=1
##FIRSTX=15
##LASTX=154
##FIRSTY=20
##MAXX=154
##MINX=15
##MAXY=9999
##MINY=10
##NPOINTS=90
##PEAK TABLE=(XY..XY)
15,20 26,20 27,500 28,80
29,641 30,30 31,450 37,10
38,60 39,1521 40,310 41,6296
42,390 43,871 44,60 45,40
50,100 51,340 52,160 53,1201
54,140 55,1051 56,240 57,390
58,30 59,40 61,10 62,30
63,100 64,20 65,410 66,150
67,1772 68,2242 69,9999 70,861
71,701 72,50 73,10 74,10
75,10 77,701 78,130 79,881
80,290 81,1181 82,160 83,390
84,480 85,390 86,70 87,10
89,20 91,861 92,260 93,2182
94,270 95,260 96,50 97,120
98,50 99,10 102,10 103,50
104,10 105,270 106,60 107,390
108,110 109,130 110,390 111,3543
112,290 113,20 115,10 117,10
119,50 120,20 121,881 122,150
123,1511 124,180 125,20 134,10
135,10 136,190 137,30 139,90
140,10 154,30
##END=
