##TITLE=Glycopyrrolate
##JCAMP-DX=4.24
##DATA TYPE=MASS SPECTRUM
##ORIGIN=R. Greene, CPB, DCT, NCI, Bethesda, MD 20892
##OWNER=NIST Mass Spectrometry Data Center
Collection (C) 2014 copyright by the U.S. Secretary of Commerce
on behalf of the United States of America. All rights reserved.
##CAS REGISTRY NO=58493-54-2
##$NIST MASS SPEC NO=226952
##MOLFORM=C19 H28 Br N O3
##MW=397
##$NIST SOURCE=MSDC
##XUNITS=M/Z
##YUNITS=RELATIVE INTENSITY
##XFACTOR=1
##YFACTOR=1
##FIRSTX=41
##LASTX=318
##FIRSTY=203
##MAXX=318
##MINX=41
##MAXY=9999
##MINY=4
##NPOINTS=148
##PEAK TABLE=(XY..XY)
41,203 42,333 43,75 44,90
45,66 46,6 50,47 51,152
52,48 53,108 54,56 55,502
56,56 57,530 58,431 59,92
60,8 61,5 62,11 63,60
64,33 65,160 66,57 67,400
68,152 69,760 70,76 71,80
72,29 73,39 74,40 75,48
76,27 77,2207 78,317 79,1169
80,213 81,450 82,3113 83,9999
84,352 85,395 86,33 87,22
88,43 89,83 91,1930 92,155
93,375 94,1478 95,267 96,1434
97,163 98,176 99,21 100,208
101,246 102,221 103,227 105,3883
106,922 107,1213 108,91 109,20
110,12 111,14 112,7 113,18
115,726 116,157 117,215 118,50
119,31 120,19 121,26 122,45
123,19 124,13 125,15 126,8
127,202 128,250 129,492 130,54
131,293 133,378 134,102 135,32
136,17 137,19 138,6 139,15
140,5 141,85 142,103 143,35
145,210 146,58 147,23 148,4
149,17 150,7 151,91 152,797
153,97 154,34 155,80 157,441
158,53 159,7 163,4 165,131
166,238 167,26 169,9 170,6
171,4 173,63 175,4686 176,548
177,90 178,13 179,48 180,9
183,7 184,23 185,8 186,4
187,4 202,9 203,4 205,5
207,4 215,4 216,6 217,6
220,12 234,198 236,38 237,5
269,8 286,32 287,6 297,7
302,9 303,9 304,41 318,4
##END=
