##TITLE=Pyridine, 2,6-bis(1,1-dimethylethyl)-
##JCAMP-DX=4.24
##DATA TYPE=MASS SPECTRUM
##ORIGIN=Japan AIST/NIMC Database- Spectrum MS-NW-8815
##OWNER=NIST Mass Spectrometry Data Center
Collection (C) 2014 copyright by the U.S. Secretary of Commerce
on behalf of the United States of America. All rights reserved.
##CAS REGISTRY NO=585-48-8
##$NIST MASS SPEC NO=235923
##MOLFORM=C13 H21 N
##MW=191
##$NIST SOURCE=MSDC
##XUNITS=M/Z
##YUNITS=RELATIVE INTENSITY
##XFACTOR=1
##YFACTOR=1
##FIRSTX=15
##LASTX=193
##FIRSTY=20
##MAXX=193
##MINX=15
##MAXY=9999
##MINY=10
##NPOINTS=108
##PEAK TABLE=(XY..XY)
15,20 27,149 28,90 29,339
30,20 38,10 39,309 40,50
41,659 42,80 43,40 50,30
51,189 52,119 53,189 54,40
55,80 56,30 57,159 58,70
59,20 60,30 63,50 64,50
65,319 66,189 67,99 68,50
69,10 70,10 71,40 72,70
73,10 74,10 75,10 76,30
77,479 78,269 79,249 80,159
81,50 82,10 88,10 89,50
90,50 91,619 92,219 93,299
94,80 95,30 102,40 103,70
104,239 105,129 106,99 107,109
108,30 115,40 116,90 117,369
118,479 119,249 120,489 121,149
122,10 128,20 129,10 130,119
131,90 132,159 133,409 134,439
135,2119 136,389 137,30 141,20
142,80 143,60 144,289 145,90
146,689 147,179 148,70 149,5929
150,679 151,30 154,10 156,30
157,20 158,289 159,109 160,2189
161,1919 162,289 163,30 172,50
173,20 174,909 175,769 176,9999
177,1379 178,90 188,40 189,10
190,5239 191,3389 192,429 193,30
##END=
