##TITLE=Benzene, (1-bromoethyl)-
##JCAMP-DX=4.24
##DATA TYPE=MASS SPECTRUM
##ORIGIN=Japan AIST/NIMC Database- Spectrum MS-NW-8350
##OWNER=NIST Mass Spectrometry Data Center
Collection (C) 2014 copyright by the U.S. Secretary of Commerce
on behalf of the United States of America. All rights reserved.
##CAS REGISTRY NO=585-71-7
##$NIST MASS SPEC NO=228689
##MOLFORM=C8 H9 Br
##MW=184
##$NIST SOURCE=MSDC
##XUNITS=M/Z
##YUNITS=RELATIVE INTENSITY
##XFACTOR=1
##YFACTOR=1
##FIRSTX=15
##LASTX=186
##FIRSTY=10
##MAXX=186
##MINX=15
##MAXY=9999
##MINY=10
##NPOINTS=53
##PEAK TABLE=(XY..XY)
15,10 26,40 27,349 28,10
36,10 37,40 38,99 39,399
40,30 41,30 43,60 49,30
50,399 51,1059 52,319 53,70
55,10 61,40 62,109 63,279
64,60 65,109 66,10 69,10
73,30 74,149 75,109 76,139
77,1419 78,809 79,1429 80,99
81,40 82,80 86,10 87,20
89,129 90,60 91,169 92,20
98,10 101,20 102,169 103,1189
104,1359 105,9999 106,939 107,60
169,20 171,20 184,40 185,10
186,30
##END=
