##TITLE=3-Aminobutyric acid, 2TMS derivative
##JCAMP-DX=4.24
##DATA TYPE=MASS SPECTRUM
##ORIGIN=A.Pleshkova, Nesmeyanov Inst.Org.Elem.Cpds, Moscow
##OWNER=NIST Mass Spectrometry Data Center
Collection (C) 2014 copyright by the U.S. Secretary of Commerce
on behalf of the United States of America. All rights reserved.
##CAS REGISTRY NO=58521-54-3
##$NIST MASS SPEC NO=283832
##MOLFORM=C10 H25 N O2 Si2
##MW=247
##$NIST SOURCE=MSDC
##XUNITS=M/Z
##YUNITS=RELATIVE INTENSITY
##XFACTOR=1
##YFACTOR=1
##FIRSTX=44
##LASTX=249
##FIRSTY=2192
##MAXX=249
##MINX=44
##MAXY=9999
##MINY=20
##NPOINTS=34
##PEAK TABLE=(XY..XY)
44,2192 45,2582 46,130 47,100
59,1752 60,120 61,70 73,8518
74,731 75,2132 76,170 77,80
88,530 89,50 100,3413 101,250
102,120 116,9999 117,1111 118,370
119,20 130,320 147,1081 148,170
149,80 150,20 188,250 189,120
232,480 233,100 234,50 247,170
248,30 249,20
##END=
