##TITLE=Dihydro-cis-.alpha.-copaene-8-ol
##JCAMP-DX=4.24
##DATA TYPE=MASS SPECTRUM
##ORIGIN=J.TASKINEN, RES. LAB. STATE ALCOHOL MONOP., HELSINKI, FINLAN
##OWNER=NIST Mass Spectrometry Data Center
Collection (C) 2014 copyright by the U.S. Secretary of Commerce
on behalf of the United States of America. All rights reserved.
##CAS REGISTRY NO=58569-27-0
##$NIST MASS SPEC NO=72638
##MOLFORM=C15 H26 O
##MW=222
##$NIST SOURCE=MSDC
##XUNITS=M/Z
##YUNITS=RELATIVE INTENSITY
##XFACTOR=1
##YFACTOR=1
##FIRSTX=41
##LASTX=222
##FIRSTY=6500
##MAXX=222
##MINX=41
##MAXY=9999
##MINY=100
##NPOINTS=15
##PEAK TABLE=(XY..XY)
41,6500 43,4000 55,4500 69,4000
81,5400 93,4200 95,4800 105,7000
119,3000 133,2400 149,2800 161,9999
189,3300 204,3500 222,100
##END=
