##TITLE=cis-.alpha.-Copaene-8-ol
##JCAMP-DX=4.24
##DATA TYPE=MASS SPECTRUM
##ORIGIN=J.TASKINEN, RES. LAB. STATE ALCOHOL MONOP., HELSINKI
##OWNER=NIST Mass Spectrometry Data Center
Collection (C) 2014 copyright by the U.S. Secretary of Commerce
on behalf of the United States of America. All rights reserved.
##CAS REGISTRY NO=58569-25-8
##$NIST MASS SPEC NO=72637
##MOLFORM=C15 H24 O
##MW=220
##$NIST SOURCE=MSDC
##XUNITS=M/Z
##YUNITS=RELATIVE INTENSITY
##XFACTOR=1
##YFACTOR=1
##FIRSTX=41
##LASTX=220
##FIRSTY=2200
##MAXX=220
##MINX=41
##MAXY=9999
##MINY=500
##NPOINTS=28
##PEAK TABLE=(XY..XY)
41,2200 43,1200 55,1400 77,1600
79,1500 81,1000 91,3300 92,1300
93,2300 105,5000 106,1400 107,1900
109,1500 117,1800 119,9999 120,2500
121,1500 132,3600 133,3100 134,1400
145,5900 146,1200 159,8500 160,4500
177,500 187,600 202,1000 220,1000
##END=
