##TITLE=1-Butanol, 2-amino-, (S)-
##JCAMP-DX=4.24
##DATA TYPE=MASS SPECTRUM
##ORIGIN=Japan AIST/NIMC Database- Spectrum MS-NW-6037
##OWNER=NIST Mass Spectrometry Data Center
Collection (C) 2014 copyright by the U.S. Secretary of Commerce
on behalf of the United States of America. All rights reserved.
##CAS REGISTRY NO=5856-62-2
##$NIST MASS SPEC NO=235713
##MOLFORM=C4 H11 N O
##MW=89
##$NIST SOURCE=MSDC
##XUNITS=M/Z
##YUNITS=RELATIVE INTENSITY
##XFACTOR=1
##YFACTOR=1
##FIRSTX=14
##LASTX=90
##FIRSTY=30
##MAXX=90
##MINX=14
##MAXY=9999
##MINY=10
##NPOINTS=46
##PEAK TABLE=(XY..XY)
14,30 15,369 16,10 17,30
18,109 25,10 26,119 27,459
28,1019 29,319 30,1609 31,369
32,20 37,20 38,50 39,299
40,80 41,2669 42,1559 43,829
44,219 45,20 46,20 50,20
51,30 52,50 53,70 54,129
55,70 56,529 57,179 58,9999
59,459 60,1899 61,50 67,10
68,20 69,20 70,179 71,90
72,40 85,20 86,10 88,20
89,10 90,10
##END=
