##TITLE=R(-)-2-Amino-1-butanol
##JCAMP-DX=4.24
##DATA TYPE=MASS SPECTRUM
##ORIGIN=Chuck Anderson, Aldrich Chemical Co.
##OWNER=NIST Mass Spectrometry Data Center
Collection (C) 2014 copyright by the U.S. Secretary of Commerce
on behalf of the United States of America. All rights reserved.
##CAS REGISTRY NO=5856-63-3
##$NIST MASS SPEC NO=108433
##MOLFORM=C4 H11 N O
##MW=89
##$NIST SOURCE=MSDC
##XUNITS=M/Z
##YUNITS=RELATIVE INTENSITY
##XFACTOR=1
##YFACTOR=1
##FIRSTX=14
##LASTX=91
##FIRSTY=15
##MAXX=91
##MINX=14
##MAXY=9999
##MINY=1
##NPOINTS=49
##PEAK TABLE=(XY..XY)
14,15 15,283 16,9 17,25
18,516 19,10 25,7 26,114
27,535 28,1141 29,593 30,2168
31,510 32,29 33,1 36,3
37,17 38,44 39,368 40,85
41,3367 42,1709 43,1033 44,255
45,19 46,25 50,15 51,28
52,47 53,68 54,119 55,80
56,408 57,62 58,9999 59,465
60,1734 61,49 62,2 68,4
69,6 70,38 71,48 72,20
86,4 88,20 89,9 90,119
91,4
##END=
