##TITLE=Mercury, chloro-2-thienyl-
##JCAMP-DX=4.24
##DATA TYPE=MASS SPECTRUM
##ORIGIN=Japan AIST/NIMC Database- Spectrum MS-IW-2595
##OWNER=NIST Mass Spectrometry Data Center
Collection (C) 2014 copyright by the U.S. Secretary of Commerce
on behalf of the United States of America. All rights reserved.
##CAS REGISTRY NO=5857-39-6
##$NIST MASS SPEC NO=243412
##MOLFORM=C4 H3 Cl Hg S
##MW=320
##$NIST SOURCE=MSDC
##XUNITS=M/Z
##YUNITS=RELATIVE INTENSITY
##XFACTOR=1
##YFACTOR=1
##FIRSTX=12
##LASTX=327
##FIRSTY=10
##MAXX=327
##MINX=12
##MAXY=9999
##MINY=10
##NPOINTS=212
##PEAK TABLE=(XY..XY)
12,10 17,70 24,10 25,40
26,99 27,30 28,80 29,20
32,129 33,30 34,10 35,99
36,219 37,769 38,1429 39,7589
40,269 41,80 42,10 43,90
44,269 45,2199 46,60 47,119
48,50 49,449 50,789 51,189
52,10 53,10 54,10 55,90
56,299 57,4479 58,1039 59,219
60,90 61,20 62,10 63,10
65,10 67,30 68,109 69,329
70,40 71,80 72,30 73,179
74,30 75,40 76,20 77,30
79,80 80,179 81,1829 82,2099
83,8439 84,649 85,429 86,40
87,20 89,10 90,30 91,30
92,609 93,30 94,239 95,40
96,30 97,70 98,30 99,30
100,40 101,60 102,20 105,10
108,30 109,20 110,10 111,40
112,10 113,10 115,20 116,10
117,60 118,4579 119,249 120,1649
121,239 122,99 123,20 124,10
125,20 126,10 127,50 129,40
134,80 135,10 136,10 137,20
139,10 140,50 141,20 142,20
149,30 157,10 158,60 159,109
160,139 161,60 162,40 164,20
165,60 166,129 167,20 168,10
183,10 184,30 185,20 198,459
199,749 200,1029 201,609 202,1309
203,40 204,299 205,10 210,60
211,20 212,30 213,20 214,30
223,40 224,70 225,80 226,60
227,90 228,10 229,20 230,40
231,80 232,109 233,169 234,309
235,299 236,239 237,409 238,60
239,179 240,20 241,20 242,30
243,40 244,60 245,40 246,80
248,30 249,10 251,10 255,20
256,30 257,20 258,30 259,20
260,20 261,10 262,10 263,20
268,20 269,20 270,40 271,40
272,70 273,50 274,60 275,60
276,10 277,60 278,70 279,109
280,70 281,609 282,869 283,1209
284,729 285,1489 286,109 287,399
288,20 289,20 290,169 291,269
292,429 293,319 294,619 295,99
296,279 297,10 298,40 314,40
316,2549 317,4439 318,6979 319,5259
320,9999 321,1799 322,4619 323,289
324,739 325,50 326,50 327,30
##END=
