##TITLE=2,2,4-Trimethyl-3-pentanone
##JCAMP-DX=4.24
##DATA TYPE=MASS SPECTRUM
##ORIGIN=NIST Mass Spectrometry Data Center, 1990.
##OWNER=NIST Mass Spectrometry Data Center
Collection (C) 2014 copyright by the U.S. Secretary of Commerce
on behalf of the United States of America. All rights reserved.
##CAS REGISTRY NO=5857-36-3
##$NIST MASS SPEC NO=113758
##MOLFORM=C8 H16 O
##MW=128
##$NIST SOURCE=MSDC
##XUNITS=M/Z
##YUNITS=RELATIVE INTENSITY
##XFACTOR=1
##YFACTOR=1
##FIRSTX=14
##LASTX=128
##FIRSTY=101
##MAXX=128
##MINX=14
##MAXY=9999
##MINY=81
##NPOINTS=22
##PEAK TABLE=(XY..XY)
14,101 15,226 26,152 27,1430
28,1032 29,1568 32,137 39,1660
41,4682 42,722 43,4745 44,172
51,81 53,140 55,341 57,9999
58,445 70,1101 71,2396 72,115
85,494 128,708
##END=
