##TITLE=Piconol
##JCAMP-DX=4.24
##DATA TYPE=MASS SPECTRUM
##ORIGIN=Japan AIST/NIMC Database- Spectrum MS-NW-3076
##OWNER=NIST Mass Spectrometry Data Center
Collection (C) 2014 copyright by the U.S. Secretary of Commerce
on behalf of the United States of America. All rights reserved.
##CAS REGISTRY NO=586-98-1
##$NIST MASS SPEC NO=231280
##MOLFORM=C6 H7 N O
##MW=109
##$NIST SOURCE=MSDC
##XUNITS=M/Z
##YUNITS=RELATIVE INTENSITY
##XFACTOR=1
##YFACTOR=1
##FIRSTX=14
##LASTX=111
##FIRSTY=10
##MAXX=111
##MINX=14
##MAXY=9999
##MINY=10
##NPOINTS=62
##PEAK TABLE=(XY..XY)
14,10 15,30 18,20 25,40
26,369 27,889 28,439 29,389
30,40 31,579 32,20 36,30
37,199 38,349 39,869 40,109
41,99 42,40 43,60 44,20
45,10 48,20 49,169 50,879
51,2139 52,2929 53,2169 54,179
55,80 56,20 57,10 60,20
61,80 62,119 63,279 64,309
65,479 66,70 67,10 68,10
74,20 75,99 76,129 77,60
78,3239 79,3289 80,5829 81,419
82,20 90,20 91,99 92,199
93,60 94,10 104,10 105,10
106,259 107,109 108,9999 109,5439
110,379 111,30
##END=
