##TITLE=Benzenamine, 4-bromo-N,N-dimethyl-
##JCAMP-DX=4.24
##DATA TYPE=MASS SPECTRUM
##ORIGIN=Japan AIST/NIMC Database- Spectrum MS-NW-4324
##OWNER=NIST Mass Spectrometry Data Center
Collection (C) 2014 copyright by the U.S. Secretary of Commerce
on behalf of the United States of America. All rights reserved.
##CAS REGISTRY NO=586-77-6
##$NIST MASS SPEC NO=229184
##MOLFORM=C8 H10 Br N
##MW=199
##$NIST SOURCE=MSDC
##XUNITS=M/Z
##YUNITS=RELATIVE INTENSITY
##XFACTOR=1
##YFACTOR=1
##FIRSTX=14
##LASTX=203
##FIRSTY=30
##MAXX=203
##MINX=14
##MAXY=9999
##MINY=10
##NPOINTS=114
##PEAK TABLE=(XY..XY)
14,30 15,589 17,10 18,10
26,70 27,199 28,119 29,20
30,90 36,20 37,189 38,399
39,479 40,80 41,179 42,1449
43,199 44,379 45,20 46,50
49,90 50,1079 51,789 52,399
53,109 54,40 55,50 56,10
57,10 58,429 59,399 60,199
61,119 62,229 63,809 64,289
65,199 66,129 67,30 68,109
69,70 70,10 71,10 72,10
73,119 74,489 75,849 76,919
77,1499 78,689 79,299 80,50
81,30 82,30 86,10 87,30
88,70 89,119 90,419 91,429
92,359 93,90 94,30 95,10
99,449 100,399 101,40 102,80
103,90 104,1069 105,1009 106,90
107,10 116,10 117,119 118,2389
119,829 120,239 121,20 128,10
129,20 130,20 131,30 141,10
142,10 143,40 144,10 145,40
155,639 156,109 157,609 158,109
159,20 168,50 169,90 170,80
171,90 172,40 181,10 182,689
183,1199 184,949 185,1229 186,269
187,40 195,10 196,99 197,90
198,9469 199,9639 200,9999 201,9179
202,839 203,30
##END=
