##TITLE=3-Cyclohexen-1-ol, 1-methyl-4-(1-methylethyl)-
##JCAMP-DX=4.24
##DATA TYPE=MASS SPECTRUM
##OWNER=NIST Mass Spectrometry Data Center
Collection (C) 2014 copyright by the U.S. Secretary of Commerce
on behalf of the United States of America. All rights reserved.
##CAS REGISTRY NO=586-82-3
##$NIST MASS SPEC NO=5065
##MOLFORM=C10 H18 O
##MW=154
##$NIST SOURCE=MSDC
##XUNITS=M/Z
##YUNITS=RELATIVE INTENSITY
##XFACTOR=1
##YFACTOR=1
##FIRSTX=15
##LASTX=155
##FIRSTY=250
##MAXX=155
##MINX=15
##MAXY=9999
##MINY=50
##NPOINTS=81
##PEAK TABLE=(XY..XY)
15,250 26,70 27,1541 29,891
31,180 38,90 39,1722 40,290
41,3063 42,260 43,7437 44,150
45,270 50,130 51,490 52,260
53,1321 54,741 55,3093 56,330
57,520 58,3603 59,1321 60,90
61,70 62,230 63,190 64,50
65,571 66,230 67,1321 68,601
69,2402 70,270 71,691 72,140
75,50 77,1491 78,280 79,1922
80,691 81,9999 82,801 83,691
84,571 85,100 89,80 91,1181
92,731 93,4204 94,571 95,1061
96,3063 97,1261 98,160 103,100
105,430 106,170 107,2002 108,340
109,170 110,120 111,1631 112,160
115,60 117,70 119,290 120,120
121,3914 122,430 123,150 125,861
126,90 134,70 135,80 136,3743
137,520 139,771 140,80 154,430
155,50
##END=
