##TITLE=Benzene, 1-bromo-4-nitro-
##JCAMP-DX=4.24
##DATA TYPE=MASS SPECTRUM
##ORIGIN=Japan AIST/NIMC Database- Spectrum MS-NW-8782
##OWNER=NIST Mass Spectrometry Data Center
Collection (C) 2014 copyright by the U.S. Secretary of Commerce
on behalf of the United States of America. All rights reserved.
##CAS REGISTRY NO=586-78-7
##$NIST MASS SPEC NO=229160
##MOLFORM=C6 H4 Br N O2
##MW=201
##$NIST SOURCE=MSDC
##XUNITS=M/Z
##YUNITS=RELATIVE INTENSITY
##XFACTOR=1
##YFACTOR=1
##FIRSTX=17
##LASTX=205
##FIRSTY=10
##MAXX=205
##MINX=17
##MAXY=9999
##MINY=10
##NPOINTS=98
##PEAK TABLE=(XY..XY)
17,10 18,30 25,20 26,99
27,70 28,399 29,20 30,1729
31,10 32,10 36,60 37,559
38,849 39,289 40,20 43,20
44,20 45,10 46,40 48,30
49,399 50,6019 51,849 52,60
53,40 60,50 61,269 62,299
63,759 64,649 65,80 66,20
72,40 73,659 74,3169 75,9999
76,8039 77,529 78,20 79,70
80,129 81,60 82,119 86,20
87,40 88,30 89,10 90,109
91,30 92,379 93,40 95,10
104,30 105,99 106,30 107,99
111,10 116,20 117,219 118,30
119,209 120,10 128,70 129,279
130,80 131,279 132,10 134,10
143,2499 144,139 145,2419 146,139
147,10 152,10 153,20 154,90
155,7389 156,559 157,7159 158,489
159,20 166,10 169,10 170,10
171,4499 172,309 173,4399 174,299
175,20 185,259 186,20 187,259
188,20 201,8399 202,599 203,8159
204,589 205,50
##END=
