##TITLE=13,17,21-Trimethylpentatriacontane
##JCAMP-DX=4.24
##DATA TYPE=MASS SPECTRUM
##ORIGIN=J. Klune, Insect Chem. Ecol. Lab., USDA, Beltsville, MD 20705
##OWNER=NIST Mass Spectrometry Data Center
Collection (C) 2014 copyright by the U.S. Secretary of Commerce
on behalf of the United States of America. All rights reserved.
##CAS REGISTRY NO=58668-39-6
##$NIST MASS SPEC NO=131207
##MOLFORM=C38 H78
##MW=534
##$NIST SOURCE=MSDC
##XUNITS=M/Z
##YUNITS=RELATIVE INTENSITY
##XFACTOR=1
##YFACTOR=1
##FIRSTX=41
##LASTX=535
##FIRSTY=2757
##MAXX=535
##MINX=41
##MAXY=9999
##MINY=3
##NPOINTS=193
##PEAK TABLE=(XY..XY)
41,2757 42,917 43,7984 44,231
49,8 51,10 53,125 55,3390
56,2242 57,9999 58,405 59,14
65,22 67,363 68,346 69,2295
70,1576 71,7908 72,392 73,10
77,11 79,49 81,282 82,506
83,1816 85,7174 86,346 87,11
91,13 93,17 95,30 96,1157
97,2129 98,736 99,2379 100,159
101,7 105,7 107,3 109,81
110,336 111,1165 112,761 113,1807
114,134 115,7 119,8 123,46
124,203 125,669 126,425 127,1333
128,115 129,9 133,7 137,5
138,164 139,367 140,246 141,1030
142,103 151,12 152,103 153,198
154,280 155,829 156,91 157,3
165,4 166,73 167,208 168,697
169,668 170,83 171,7 180,40
181,80 182,267 183,468 184,55
185,4 194,177 195,194 196,5151
197,2212 198,270 199,17 208,22
209,44 210,343 211,361 212,51
213,4 222,150 223,142 224,5871
225,3276 226,459 227,40 236,32
237,26 238,803 239,685 240,112
241,13 250,10 251,8 252,182
253,273 254,52 263,9 264,22
265,25 266,1791 267,2072 268,367
269,36 278,4 279,6 280,173
281,253 282,49 283,4 286,3
292,4 293,12 294,1087 295,1570
296,309 297,33 308,476 309,418
310,85 311,10 322,72 323,110
324,25 336,1061 337,1367 338,301
339,38 350,70 351,122 352,29
364,642 365,1096 366,263 367,32
368,7 369,3 378,53 379,190
380,54 381,3 392,45 393,105
394,105 395,28 406,27 407,110
408,33 410,3 420,27 421,71
422,66 423,21 434,18 435,42
436,14 448,15 449,38 450,12
462,30 463,61 464,23 476,10
477,29 478,10 490,13 491,50
492,15 504,30 505,114 506,44
507,5 518,15 519,176 520,66
521,11 532,20 533,20 534,79
535,30
##END=
