##TITLE=4H-1,2,4-Triazol-3-amine, 4-propyl-
##JCAMP-DX=4.24
##DATA TYPE=MASS SPECTRUM
##ORIGIN=ORMSBG,10(11)946(1975); R.G.COOKS
##OWNER=NIST Mass Spectrometry Data Center
Collection (C) 2014 copyright by the U.S. Secretary of Commerce
on behalf of the United States of America. All rights reserved.
##CAS REGISTRY NO=58661-97-5
##$NIST MASS SPEC NO=54624
##MOLFORM=C5 H10 N4
##MW=126
##$NIST SOURCE=MSDC
##XUNITS=M/Z
##YUNITS=RELATIVE INTENSITY
##XFACTOR=1
##YFACTOR=1
##FIRSTX=39
##LASTX=127
##FIRSTY=590
##MAXX=127
##MINX=39
##MAXY=9999
##MINY=250
##NPOINTS=16
##PEAK TABLE=(XY..XY)
39,590 41,2940 42,880 43,4610
44,250 55,590 56,390 57,2250
70,590 71,490 84,8040 85,640
97,490 98,830 126,9999 127,880
##END=
