##TITLE=3-Methylbenzyl alcohol
##JCAMP-DX=4.24
##DATA TYPE=MASS SPECTRUM
##ORIGIN=NIST Mass Spectrometry Data Center
##OWNER=NIST Mass Spectrometry Data Center
Collection (C) 2014 copyright by the U.S. Secretary of Commerce
on behalf of the United States of America. All rights reserved.
##CAS REGISTRY NO=587-03-1
##$NIST MASS SPEC NO=365039
##MOLFORM=C8 H10 O
##MW=122
##$NIST SOURCE=MSDC
##XUNITS=M/Z
##YUNITS=RELATIVE INTENSITY
##XFACTOR=1
##YFACTOR=1
##FIRSTX=15
##LASTX=124
##FIRSTY=20
##MAXX=124
##MINX=15
##MAXY=9999
##MINY=10
##NPOINTS=78
##PEAK TABLE=(XY..XY)
15,20 26,50 27,300 28,30
29,240 30,30 31,240 37,80
38,260 39,1511 40,180 41,370
42,30 43,110 44,30 45,110
46,50 47,20 48,10 49,60
50,671 51,1531 52,420 53,490
54,40 55,110 56,10 57,10
59,80 60,661 61,210 62,510
63,1251 64,270 65,2112 66,250
67,60 68,20 69,10 73,40
74,230 75,170 76,170 77,5635
78,1391 79,5935 80,380 81,40
82,10 84,10 85,60 86,120
87,100 88,20 89,711 90,220
91,6626 92,681 93,5235 94,440
95,30 97,10 98,20 99,10
101,20 102,170 103,951 104,1812
105,1201 107,8287 108,621 109,40
119,480 120,170 121,1621 122,9999
123,871 124,50
##END=
