##TITLE=Benzaldehyde, 3-chloro-
##JCAMP-DX=4.24
##DATA TYPE=MASS SPECTRUM
##ORIGIN=Japan AIST/NIMC Database- Spectrum MS-NW-3732
##OWNER=NIST Mass Spectrometry Data Center
Collection (C) 2014 copyright by the U.S. Secretary of Commerce
on behalf of the United States of America. All rights reserved.
##CAS REGISTRY NO=587-04-2
##$NIST MASS SPEC NO=228290
##MOLFORM=C7 H5 Cl O
##MW=140
##$NIST SOURCE=MSDC
##XUNITS=M/Z
##YUNITS=RELATIVE INTENSITY
##XFACTOR=1
##YFACTOR=1
##FIRSTX=12
##LASTX=144
##FIRSTY=10
##MAXX=144
##MINX=12
##MAXY=9999
##MINY=10
##NPOINTS=80
##PEAK TABLE=(XY..XY)
12,10 14,10 15,50 17,10
18,30 25,20 26,90 27,189
28,169 29,489 30,10 31,40
32,30 35,40 36,90 37,389
38,449 39,209 40,10 41,10
43,70 44,20 47,40 48,40
49,299 50,2259 51,1929 52,149
53,60 55,70 56,20 57,10
59,40 60,80 61,239 62,159
63,149 64,10 65,20 69,50
70,20 71,20 72,60 73,349
74,1159 75,2939 76,1049 77,2659
78,179 79,10 84,159 85,389
86,129 87,129 88,20 89,80
90,10 91,289 92,40 96,10
97,10 99,10 103,10 104,50
105,30 108,20 109,20 110,80
111,5599 112,1039 113,1839 114,329
115,20 138,20 139,9999 140,8219
141,3869 142,2649 143,239 144,20
##END=
