##TITLE=Propyliodone
##JCAMP-DX=4.24
##DATA TYPE=MASS SPECTRUM
##ORIGIN=Finnigan MAT: Toxicological Library (LIBR-TX)
##OWNER=NIST Mass Spectrometry Data Center
Collection (C) 2014 copyright by the U.S. Secretary of Commerce
on behalf of the United States of America. All rights reserved.
##CAS REGISTRY NO=587-61-1
##$NIST MASS SPEC NO=119134
##MOLFORM=C10 H11 I2 N O3
##MW=447
##$NIST SOURCE=MSDC
##XUNITS=M/Z
##YUNITS=RELATIVE INTENSITY
##XFACTOR=1
##YFACTOR=1
##FIRSTX=51
##LASTX=448
##FIRSTY=3371
##MAXX=448
##MINX=51
##MAXY=9999
##MINY=114
##NPOINTS=38
##PEAK TABLE=(XY..XY)
51,3371 53,5547 64,1240 78,3000
79,2012 91,872 94,664 105,452
106,2159 127,9999 128,1950 135,2351
151,943 152,483 164,235 165,378
178,1493 180,565 191,431 197,587
205,1578 207,1311 208,1200 219,614
220,271 232,943 233,1414 252,682
253,1426 269,776 278,6609 279,352
320,114 332,122 360,4261 361,428
447,3580 448,258
##END=
