##TITLE=Mercury, diphenyl-
##JCAMP-DX=4.24
##DATA TYPE=MASS SPECTRUM
##ORIGIN=Japan AIST/NIMC Database- Spectrum MS-NW-7218
##OWNER=NIST Mass Spectrometry Data Center
Collection (C) 2014 copyright by the U.S. Secretary of Commerce
on behalf of the United States of America. All rights reserved.
##CAS REGISTRY NO=587-85-9
##$NIST MASS SPEC NO=235965
##MOLFORM=C12 H10 Hg
##MW=356
##$NIST SOURCE=MSDC
##XUNITS=M/Z
##YUNITS=RELATIVE INTENSITY
##XFACTOR=1
##YFACTOR=1
##FIRSTX=27
##LASTX=359
##FIRSTY=109
##MAXX=359
##MINX=27
##MAXY=9999
##MINY=10
##NPOINTS=55
##PEAK TABLE=(XY..XY)
27,109 37,30 38,60 39,109
49,40 50,699 51,2559 52,159
61,10 62,30 63,30 64,10
73,40 74,239 75,169 76,309
77,9999 78,759 79,20 115,50
126,30 127,30 128,40 139,20
150,20 151,70 152,259 153,279
154,459 155,60 176,10 177,10
178,10 198,10 199,20 200,30
201,20 202,40 204,10 275,209
276,359 277,499 278,299 279,639
280,40 281,139 282,10 352,349
353,619 354,889 355,549 356,1079
357,149 358,249 359,30
##END=
