##TITLE=Pentanoic acid, 3-methyl-, ethyl ester
##JCAMP-DX=4.24
##DATA TYPE=MASS SPECTRUM
##OWNER=NIST Mass Spectrometry Data Center
Collection (C) 2014 copyright by the U.S. Secretary of Commerce
on behalf of the United States of America. All rights reserved.
##CAS REGISTRY NO=5870-68-8
##$NIST MASS SPEC NO=4071
##MOLFORM=C8 H16 O2
##MW=144
##$NIST SOURCE=MSDC
##XUNITS=M/Z
##YUNITS=RELATIVE INTENSITY
##XFACTOR=1
##YFACTOR=1
##FIRSTX=14
##LASTX=144
##FIRSTY=40
##MAXX=144
##MINX=14
##MAXY=9999
##MINY=20
##NPOINTS=40
##PEAK TABLE=(XY..XY)
14,40 15,110 16,20 17,40
18,220 26,100 27,1471 28,1391
29,4534 30,160 31,140 32,190
39,771 40,160 41,2642 42,1211
43,4154 44,180 45,1401 53,190
55,1211 56,540 57,811 59,200
60,3233 61,2342 69,701 70,3083
71,2392 73,1141 83,290 87,851
88,9999 89,691 97,130 99,2943
101,400 115,1021 129,120 144,470
##END=
