##TITLE=Butanoic acid, heptyl ester
##JCAMP-DX=4.24
##DATA TYPE=MASS SPECTRUM
##ORIGIN=V.G.Zaikin, Petrochem. Synth. Inst., Moscow
##OWNER=NIST Mass Spectrometry Data Center
Collection (C) 2014 copyright by the U.S. Secretary of Commerce
on behalf of the United States of America. All rights reserved.
##CAS REGISTRY NO=5870-93-9
##$NIST MASS SPEC NO=280432
##MOLFORM=C11 H22 O2
##MW=186
##$NIST SOURCE=MSDC
##XUNITS=M/Z
##YUNITS=RELATIVE INTENSITY
##XFACTOR=1
##YFACTOR=1
##FIRSTX=26
##LASTX=144
##FIRSTY=150
##MAXX=144
##MINX=26
##MAXY=9999
##MINY=40
##NPOINTS=51
##PEAK TABLE=(XY..XY)
26,150 27,2492 28,1021 29,2192
30,70 31,180 39,1241 40,290
41,4554 42,2382 43,8858 44,360
45,190 50,70 51,130 52,70
53,190 54,450 55,3093 56,5735
57,4384 58,360 60,891 61,490
66,40 67,120 68,550 69,2582
70,4494 71,9999 72,510 73,480
79,110 81,140 83,540 86,170
87,90 88,651 89,6916 90,410
93,70 96,130 97,310 98,3143
99,310 101,310 113,120 115,90
129,90 143,80 144,130
##END=
