##TITLE=[1,1'-Biphenyl]-4-carbonitrile, 4'-propyl-
##JCAMP-DX=4.24
##DATA TYPE=MASS SPECTRUM
##ORIGIN=Japan AIST/NIMC Database- Spectrum MS-NW-4515
##OWNER=NIST Mass Spectrometry Data Center
Collection (C) 2014 copyright by the U.S. Secretary of Commerce
on behalf of the United States of America. All rights reserved.
##CAS REGISTRY NO=58743-76-3
##$NIST MASS SPEC NO=237756
##MOLFORM=C16 H15 N
##MW=221
##$NIST SOURCE=MSDC
##XUNITS=M/Z
##YUNITS=RELATIVE INTENSITY
##XFACTOR=1
##YFACTOR=1
##FIRSTX=26
##LASTX=223
##FIRSTY=10
##MAXX=223
##MINX=26
##MAXY=9999
##MINY=10
##NPOINTS=103
##PEAK TABLE=(XY..XY)
26,10 27,119 28,20 29,60
38,20 39,199 40,10 41,109
43,10 44,10 50,70 51,119
52,30 53,20 62,50 63,159
64,40 65,80 66,10 69,40
70,10 74,60 75,90 76,90
77,90 78,20 81,40 82,70
83,20 86,30 87,60 88,90
89,99 90,30 91,50 94,30
95,70 96,60 98,20 99,30
100,30 101,50 102,60 103,30
108,10 110,10 111,20 112,10
113,60 114,30 115,90 116,40
117,10 125,30 126,40 127,70
128,40 137,10 138,20 139,90
140,199 141,30 142,10 149,10
150,60 151,109 152,159 153,119
154,20 162,10 163,90 164,199
165,589 166,179 167,40 175,20
176,70 177,409 178,139 179,149
180,40 187,10 188,40 189,60
190,1059 191,409 192,9999 193,1599
194,129 195,20 201,20 202,20
203,90 204,70 205,60 206,40
207,20 218,20 219,20 220,20
221,2909 222,539 223,50
##END=
