##TITLE=Phenol, 2,5-bis(1,1-dimethylethyl)-
##JCAMP-DX=4.24
##DATA TYPE=MASS SPECTRUM
##ORIGIN=Japan AIST/NIMC Database- Spectrum MS-IW-6773
##OWNER=NIST Mass Spectrometry Data Center
Collection (C) 2014 copyright by the U.S. Secretary of Commerce
on behalf of the United States of America. All rights reserved.
##CAS REGISTRY NO=5875-45-6
##$NIST MASS SPEC NO=242101
##MOLFORM=C14 H22 O
##MW=206
##$NIST SOURCE=MSDC
##XUNITS=M/Z
##YUNITS=RELATIVE INTENSITY
##XFACTOR=1
##YFACTOR=1
##FIRSTX=27
##LASTX=208
##FIRSTY=70
##MAXX=208
##MINX=27
##MAXY=9999
##MINY=10
##NPOINTS=106
##PEAK TABLE=(XY..XY)
27,70 28,40 29,179 39,189
40,30 41,619 42,20 43,119
50,20 51,90 52,30 53,70
54,10 55,179 56,129 57,1479
58,80 59,10 60,10 63,40
64,80 65,99 66,60 67,40
69,40 70,10 71,90 72,80
73,329 74,329 75,10 76,10
77,159 78,40 79,99 80,40
81,20 83,90 87,60 88,299
89,30 90,10 91,239 92,20
93,30 94,20 95,50 97,10
102,20 103,50 104,20 105,109
106,30 107,209 108,20 109,20
115,219 116,80 117,129 118,30
119,70 120,20 121,129 122,10
127,40 128,149 129,90 130,30
131,80 132,40 133,159 134,90
135,329 136,30 141,60 142,40
143,90 144,20 145,40 146,30
147,139 148,70 149,119 150,50
157,20 158,70 159,30 160,50
161,229 162,40 163,469 164,50
173,70 174,40 175,319 176,319
177,50 189,20 190,949 191,9999
192,1429 193,109 205,329 206,1809
207,279 208,20
##END=
