##TITLE=3-Chloropropionamide
##JCAMP-DX=4.24
##DATA TYPE=MASS SPECTRUM
##ORIGIN=Japan AIST/NIMC Database- Spectrum MS-NW-7639
##OWNER=NIST Mass Spectrometry Data Center
Collection (C) 2014 copyright by the U.S. Secretary of Commerce
on behalf of the United States of America. All rights reserved.
##CAS REGISTRY NO=5875-24-1
##$NIST MASS SPEC NO=235874
##MOLFORM=C3 H6 Cl N O
##MW=107
##$NIST SOURCE=MSDC
##XUNITS=M/Z
##YUNITS=RELATIVE INTENSITY
##XFACTOR=1
##YFACTOR=1
##FIRSTX=12
##LASTX=110
##FIRSTY=10
##MAXX=110
##MINX=12
##MAXY=9999
##MINY=10
##NPOINTS=65
##PEAK TABLE=(XY..XY)
12,10 13,30 14,80 15,90
16,239 17,179 18,189 24,10
25,99 26,949 27,3199 28,3959
29,219 30,189 31,80 32,10
35,99 36,569 37,40 38,179
39,40 40,50 41,109 42,179
43,479 44,9999 45,719 46,40
47,20 48,30 49,289 50,40
51,149 52,279 53,329 54,209
55,1079 56,60 58,10 60,50
61,139 62,159 63,1479 64,259
65,479 66,70 70,40 71,1529
72,7229 73,299 74,20 78,20
80,50 82,20 88,10 89,90
90,30 91,469 92,20 93,139
106,80 107,659 108,80 109,239
110,20
##END=
