##TITLE=1-Iodo-3,4-methylenedioxybenzene
##JCAMP-DX=4.24
##DATA TYPE=MASS SPECTRUM
##ORIGIN=NIST Mass Spectrometry Data Center, 1994
##OWNER=NIST Mass Spectrometry Data Center
Collection (C) 2014 copyright by the U.S. Secretary of Commerce
on behalf of the United States of America. All rights reserved.
##CAS REGISTRY NO=5876-51-7
##$NIST MASS SPEC NO=134683
##MOLFORM=C7 H5 I O2
##MW=248
##$NIST SOURCE=MSDC
##XUNITS=M/Z
##YUNITS=RELATIVE INTENSITY
##XFACTOR=1
##YFACTOR=1
##FIRSTX=4
##LASTX=250
##FIRSTY=29
##MAXX=250
##MINX=4
##MAXY=9999
##MINY=28
##NPOINTS=62
##PEAK TABLE=(XY..XY)
4,29 13,30 14,140 25,78
26,149 27,58 28,157 29,497
30,158 31,53 32,37 36,101
37,770 38,595 39,911 40,43
41,31 42,106 48,46 49,356
50,870 51,778 52,31 53,763
54,36 60,191 61,1299 62,2860
63,5944 64,609 65,3119 66,225
73,53 74,137 75,44 76,43
77,66 78,43 79,472 80,31
90,69 91,478 92,228 93,76
120,654 121,2140 122,181 123,181
124,903 127,761 128,64 152,49
164,51 165,28 189,58 190,187
191,48 218,40 247,3393 248,9999
249,743 250,72
##END=
