##TITLE=1,11-Dodecadiene
##JCAMP-DX=4.24
##DATA TYPE=MASS SPECTRUM
##OWNER=NIST Mass Spectrometry Data Center
Collection (C) 2014 copyright by the U.S. Secretary of Commerce
on behalf of the United States of America. All rights reserved.
##CAS REGISTRY NO=5876-87-9
##$NIST MASS SPEC NO=6213
##MOLFORM=C12 H22
##MW=166
##$NIST SOURCE=MSDC
##XUNITS=M/Z
##YUNITS=RELATIVE INTENSITY
##XFACTOR=1
##YFACTOR=1
##FIRSTX=14
##LASTX=167
##FIRSTY=50
##MAXX=167
##MINX=14
##MAXY=9999
##MINY=10
##NPOINTS=115
##PEAK TABLE=(XY..XY)
14,50 15,290 25,10 26,230
27,3073 28,781 29,3213 30,80
31,20 36,10 37,50 38,140
39,3793 40,601 41,9999 42,1251
43,1822 44,100 45,20 49,10
50,100 51,270 52,180 53,1331
54,5425 55,9989 56,1211 57,871
58,60 59,10 62,20 63,60
64,20 65,240 66,420 67,5855
68,4134 69,4624 70,831 71,230
72,80 73,20 74,10 75,10
76,10 77,240 78,180 79,440
80,320 81,5425 82,4784 83,2632
84,340 85,80 86,20 91,220
92,80 93,180 94,190 95,3113
96,3183 97,741 98,150 99,20
101,20 103,20 104,20 105,110
106,40 107,80 108,80 109,1451
110,651 111,150 112,40 113,10
115,30 116,10 117,30 118,20
119,70 120,20 121,50 122,30
123,390 124,510 125,80 126,20
128,20 129,20 131,50 132,10
133,60 134,10 135,40 136,20
137,180 138,360 139,60 141,10
142,10 143,10 145,20 146,20
147,20 148,10 149,20 151,60
152,20 160,10 162,50 164,20
165,20 166,180 167,30
##END=
