##TITLE=2-Propanone, 1-methoxy-
##JCAMP-DX=4.24
##DATA TYPE=MASS SPECTRUM
##ORIGIN=RADIAN CORP
##OWNER=NIST Mass Spectrometry Data Center
Collection (C) 2014 copyright by the U.S. Secretary of Commerce
on behalf of the United States of America. All rights reserved.
##CAS REGISTRY NO=5878-19-3
##$NIST MASS SPEC NO=69519
##MOLFORM=C4 H8 O2
##MW=88
##$NIST SOURCE=MSDC
##XUNITS=M/Z
##YUNITS=RELATIVE INTENSITY
##XFACTOR=1
##YFACTOR=1
##FIRSTX=14
##LASTX=89
##FIRSTY=20
##MAXX=89
##MINX=14
##MAXY=9999
##MINY=10
##NPOINTS=31
##PEAK TABLE=(XY..XY)
14,20 15,180 26,90 27,270
28,130 29,1390 30,80 31,180
32,30 33,10 37,30 38,50
39,130 40,20 41,110 42,700
43,7550 44,350 45,9999 46,250
47,30 53,30 55,20 56,20
57,200 58,3870 59,190 60,20
61,80 88,150 89,10
##END=
