##TITLE=2-Propenoic acid, 3-(3-hydroxyphenyl)-
##JCAMP-DX=4.24
##DATA TYPE=MASS SPECTRUM
##ORIGIN=Japan AIST/NIMC Database- Spectrum MS-NW-6526
##OWNER=NIST Mass Spectrometry Data Center
Collection (C) 2014 copyright by the U.S. Secretary of Commerce
on behalf of the United States of America. All rights reserved.
##CAS REGISTRY NO=588-30-7
##$NIST MASS SPEC NO=235295
##MOLFORM=C9 H8 O3
##MW=164
##$NIST SOURCE=MSDC
##XUNITS=M/Z
##YUNITS=RELATIVE INTENSITY
##XFACTOR=1
##YFACTOR=1
##FIRSTX=14
##LASTX=167
##FIRSTY=20
##MAXX=167
##MINX=14
##MAXY=9999
##MINY=10
##NPOINTS=125
##PEAK TABLE=(XY..XY)
14,20 15,40 16,10 17,10
18,30 25,20 26,159 27,409
28,109 29,259 30,10 31,40
32,10 36,20 37,229 38,609
39,2369 40,259 41,259 42,99
43,239 44,80 45,519 46,40
48,10 49,129 50,709 51,1089
52,249 53,489 54,139 55,409
56,20 57,20 58,20 59,389
60,60 61,289 62,679 63,1659
64,649 65,2609 66,329 67,109
68,129 69,189 70,20 71,70
72,10 73,109 74,349 75,389
76,129 77,859 78,239 79,889
80,389 81,129 82,149 83,10
84,30 85,70 86,109 87,129
88,50 89,1519 90,879 91,3979
92,469 93,169 94,409 95,279
96,30 97,20 98,70 99,30
100,20 101,259 102,129 103,229
104,30 105,70 106,50 107,1299
108,419 109,50 110,349 111,30
112,10 115,10 116,10 117,139
118,3159 119,2249 120,389 121,199
122,189 123,109 124,10 127,10
129,30 130,10 131,10 132,10
133,10 134,60 135,519 136,909
137,99 138,20 141,10 144,10
145,109 146,539 147,3979 148,429
149,60 150,10 161,10 162,50
163,4369 164,9999 165,1049 166,129
167,10
##END=
