##TITLE=Acetamide, N-(3-chlorophenyl)-
##JCAMP-DX=4.24
##DATA TYPE=MASS SPECTRUM
##ORIGIN=Japan AIST/NIMC Database- Spectrum MS-NW-3581
##OWNER=NIST Mass Spectrometry Data Center
Collection (C) 2014 copyright by the U.S. Secretary of Commerce
on behalf of the United States of America. All rights reserved.
##CAS REGISTRY NO=588-07-8
##$NIST MASS SPEC NO=231791
##MOLFORM=C8 H8 Cl N O
##MW=169
##$NIST SOURCE=MSDC
##XUNITS=M/Z
##YUNITS=RELATIVE INTENSITY
##XFACTOR=1
##YFACTOR=1
##FIRSTX=13
##LASTX=172
##FIRSTY=10
##MAXX=172
##MINX=13
##MAXY=9999
##MINY=10
##NPOINTS=93
##PEAK TABLE=(XY..XY)
13,10 14,60 15,449 26,30
27,40 28,40 29,20 35,10
36,30 37,109 38,239 39,369
40,60 41,119 42,109 43,4259
44,109 45,40 47,10 49,60
50,179 51,139 52,149 53,20
54,20 59,20 60,20 61,90
62,179 63,579 64,359 65,689
66,80 67,20 72,30 73,229
74,99 75,309 76,70 77,60
78,20 79,10 84,10 85,30
86,30 87,20 88,30 89,40
90,169 91,349 92,829 93,70
97,10 98,20 99,469 100,359
101,169 102,119 103,10 104,20
105,20 110,10 111,209 112,30
113,70 114,10 116,10 117,10
124,10 125,40 126,109 127,9999
128,739 129,3139 130,239 131,20
133,10 134,20 138,10 140,60
141,10 142,10 151,80 152,10
153,50 154,30 155,10 156,10
168,10 169,2329 170,229 171,759
172,70
##END=
