##TITLE=Benzene, 1-bromo-4-ethoxy-
##JCAMP-DX=4.24
##DATA TYPE=MASS SPECTRUM
##ORIGIN=Japan AIST/NIMC Database- Spectrum MS-NW-5822
##OWNER=NIST Mass Spectrometry Data Center
Collection (C) 2014 copyright by the U.S. Secretary of Commerce
on behalf of the United States of America. All rights reserved.
##CAS REGISTRY NO=588-96-5
##$NIST MASS SPEC NO=234814
##MOLFORM=C8 H9 Br O
##MW=200
##$NIST SOURCE=MSDC
##XUNITS=M/Z
##YUNITS=RELATIVE INTENSITY
##XFACTOR=1
##YFACTOR=1
##FIRSTX=14
##LASTX=204
##FIRSTY=30
##MAXX=204
##MINX=14
##MAXY=9999
##MINY=10
##NPOINTS=105
##PEAK TABLE=(XY..XY)
14,30 15,60 16,10 25,20
26,169 27,849 28,199 29,1359
30,30 31,40 36,20 37,219
38,619 39,1279 40,50 41,40
42,20 43,90 45,20 46,20
49,60 50,739 51,239 52,20
53,209 54,10 55,60 56,10
60,30 61,189 62,429 63,1299
64,759 65,3289 66,209 67,30
68,10 71,10 73,70 74,309
75,579 76,519 77,289 78,90
79,30 80,30 81,20 82,30
89,10 90,20 91,149 92,279
93,2389 94,219 95,30 99,10
100,10 103,20 105,10 106,20
107,10 116,20 117,209 118,30
119,209 120,90 121,50 122,20
128,10 129,30 130,10 131,30
133,10 135,10 142,10 143,479
144,90 145,429 146,80 147,10
148,20 149,10 150,10 155,279
156,30 157,279 158,30 159,30
169,10 170,10 171,129 172,9999
173,759 174,9589 175,679 176,40
183,10 185,50 187,40 199,20
200,4209 201,409 202,4179 203,389
204,30
##END=
