##TITLE=Stilbene
##JCAMP-DX=4.24
##DATA TYPE=MASS SPECTRUM
##OWNER=NIST Mass Spectrometry Data Center
Collection (C) 2014 copyright by the U.S. Secretary of Commerce
on behalf of the United States of America. All rights reserved.
##CAS REGISTRY NO=588-59-0
##$NIST MASS SPEC NO=22186
##MOLFORM=C14 H12
##MW=180
##$NIST SOURCE=MSDC
##XUNITS=M/Z
##YUNITS=RELATIVE INTENSITY
##XFACTOR=1
##YFACTOR=1
##FIRSTX=50
##LASTX=182
##FIRSTY=364
##MAXX=182
##MINX=50
##MAXY=9999
##MINY=182
##NPOINTS=36
##PEAK TABLE=(XY..XY)
50,364 51,673 52,309 62,236
63,509 64,218 65,255 74,273
75,327 76,964 77,545 78,327
87,182 88,400 89,1563 90,582
102,727 103,182 115,309 125,218
126,218 127,218 139,309 150,236
151,418 152,673 153,218 165,2363
166,382 176,509 177,509 178,3363
179,5781 180,9999 181,1545 182,182
##END=
