##TITLE=Benzaldehyde, (phenylmethylene)hydrazone
##JCAMP-DX=4.24
##DATA TYPE=MASS SPECTRUM
##ORIGIN=Japan AIST/NIMC Database- Spectrum MS-NW-4552
##OWNER=NIST Mass Spectrometry Data Center
Collection (C) 2014 copyright by the U.S. Secretary of Commerce
on behalf of the United States of America. All rights reserved.
##CAS REGISTRY NO=588-68-1
##$NIST MASS SPEC NO=232774
##MOLFORM=C14 H12 N2
##MW=208
##$NIST SOURCE=MSDC
##XUNITS=M/Z
##YUNITS=RELATIVE INTENSITY
##XFACTOR=1
##YFACTOR=1
##FIRSTX=17
##LASTX=210
##FIRSTY=20
##MAXX=210
##MINX=17
##MAXY=9999
##MINY=10
##NPOINTS=101
##PEAK TABLE=(XY..XY)
17,20 18,80 26,80 27,299
28,259 29,10 37,90 38,229
39,659 40,109 41,20 43,10
44,10 49,60 50,949 51,3259
52,509 53,50 57,10 61,60
62,179 63,609 64,319 65,109
73,40 74,179 75,289 76,889
77,6939 78,1619 79,139 80,10
82,20 83,10 84,10 85,10
86,20 87,30 88,30 89,1059
90,739 91,389 92,30 96,30
97,10 99,20 100,10 101,10
102,289 103,1579 104,4199 105,929
106,99 107,10 115,80 116,40
117,149 118,20 126,20 127,40
128,40 129,909 130,369 131,9999
132,979 133,50 139,20 140,20
141,20 142,10 150,10 151,70
152,269 153,149 154,70 155,20
156,20 164,10 165,169 166,50
167,30 168,10 176,40 177,70
178,569 179,389 180,2559 181,1409
182,199 183,20 184,10 190,40
191,10 192,30 193,30 205,80
206,149 207,5799 208,5759 209,879
210,80
##END=
