##TITLE=3-Methoxyacetanilide
##JCAMP-DX=4.24
##DATA TYPE=MASS SPECTRUM
##ORIGIN=M. ODA, MIN. AGRIC. CHEM. INSP. STN., TOKYO, JAPAN
##OWNER=NIST Mass Spectrometry Data Center
Collection (C) 2014 copyright by the U.S. Secretary of Commerce
on behalf of the United States of America. All rights reserved.
##CAS REGISTRY NO=588-16-9
##$NIST MASS SPEC NO=98045
##MOLFORM=C9 H11 N O2
##MW=165
##$NIST SOURCE=MSDC
##XUNITS=M/Z
##YUNITS=RELATIVE INTENSITY
##XFACTOR=1
##YFACTOR=1
##FIRSTX=43
##LASTX=165
##FIRSTY=4000
##MAXX=165
##MINX=43
##MAXY=9999
##MINY=700
##NPOINTS=8
##PEAK TABLE=(XY..XY)
43,4000 80,800 93,2300 94,3100
95,700 122,1000 123,9999 165,6600
##END=
