##TITLE=1,2,4,7,8-Pentachlorodibenzo-p-dioxin
##JCAMP-DX=4.24
##DATA TYPE=MASS SPECTRUM
##ORIGIN=W. MILES, AGRIC. CAN., LAB. SERV. DIV., OTTAWA, ONT., CAN.
##OWNER=NIST Mass Spectrometry Data Center
Collection (C) 2014 copyright by the U.S. Secretary of Commerce
on behalf of the United States of America. All rights reserved.
##CAS REGISTRY NO=58802-08-7
##$NIST MASS SPEC NO=98814
##MOLFORM=C12 H3 Cl5 O2
##MW=354
##$NIST SOURCE=MSDC
##XUNITS=M/Z
##YUNITS=RELATIVE INTENSITY
##XFACTOR=1
##YFACTOR=1
##FIRSTX=50
##LASTX=360
##FIRSTY=210
##MAXX=360
##MINX=50
##MAXY=9999
##MINY=130
##NPOINTS=46
##PEAK TABLE=(XY..XY)
50,210 63,250 74,620 84,260
85,260 87,250 97,440 108,690
113,470 115,400 122,220 131,330
132,280 133,280 143,340 145,340
147,360 158,360 177,740 178,1180
179,730 192,180 193,390 195,240
221,180 228,1700 230,1640 232,520
256,140 263,210 265,270 267,130
284,220 291,2280 293,2740 295,1340
319,680 321,860 323,410 354,6260
355,870 356,9999 357,1360 358,6430
359,860 360,2120
##END=
