##TITLE=4-(Trifluoroacetyl)benzoic acid
##JCAMP-DX=4.24
##DATA TYPE=MASS SPECTRUM
##ORIGIN=NIST Mass Spectrometry Data Center
##OWNER=NIST Mass Spectrometry Data Center
Collection (C) 2014 copyright by the U.S. Secretary of Commerce
on behalf of the United States of America. All rights reserved.
##CAS REGISTRY NO=58808-59-6
##$NIST MASS SPEC NO=342812
##MOLFORM=C9 H5 F3 O3
##MW=218
##$NIST SOURCE=MSDC
##XUNITS=M/Z
##YUNITS=RELATIVE INTENSITY
##XFACTOR=1
##YFACTOR=1
##FIRSTX=10
##LASTX=218
##FIRSTY=20
##MAXX=218
##MINX=10
##MAXY=9999
##MINY=10
##NPOINTS=40
##PEAK TABLE=(XY..XY)
10,20 11,40 12,30 13,10
25,10 27,170 37,230 38,430
39,931 49,200 50,2272 51,1001
52,320 53,360 61,20 62,80
63,120 65,4444 66,430 69,1041
73,110 75,1291 76,1461 77,330
91,70 92,90 93,571 95,340
103,430 104,631 105,120 121,3053
122,290 123,380 149,9999 150,941
151,30 173,210 201,360 218,300
##END=
