##TITLE=Benzene, 4-ethyl-1,2-dimethoxy-
##JCAMP-DX=4.24
##DATA TYPE=MASS SPECTRUM
##ORIGIN=Insect Chem. Ecol. Lab., USDA, Beltsville, MD 20705
##OWNER=NIST Mass Spectrometry Data Center
Collection (C) 2014 copyright by the U.S. Secretary of Commerce
on behalf of the United States of America. All rights reserved.
##CAS REGISTRY NO=5888-51-7
##$NIST MASS SPEC NO=131766
##MOLFORM=C10 H14 O2
##MW=166
##$NIST SOURCE=MSDC
##XUNITS=M/Z
##YUNITS=RELATIVE INTENSITY
##XFACTOR=1
##YFACTOR=1
##FIRSTX=41
##LASTX=169
##FIRSTY=478
##MAXX=169
##MINX=41
##MAXY=9999
##MINY=3
##NPOINTS=102
##PEAK TABLE=(XY..XY)
41,478 42,110 43,297 44,49
45,371 46,8 47,313 48,150
49,159 50,567 51,1817 52,634
53,775 54,133 55,464 56,50
57,129 58,11 59,65 60,17
61,57 62,218 63,618 64,242
65,1183 66,209 67,278 68,80
69,120 70,33 71,46 72,9
73,23 74,113 75,169 76,195
77,2412 78,949 79,1660 80,431
81,131 82,49 83,186 87,36
88,109 89,332 90,341 91,2042
92,315 93,203 94,95 95,2168
96,144 97,37 98,14 99,11
101,11 102,56 103,356 104,91
105,933 106,421 107,1002 108,1173
109,158 110,19 111,19 112,9
113,3 115,7 117,12 118,86
119,222 120,149 121,242 122,71
123,586 124,54 125,15 131,12
132,6 133,41 134,65 135,918
136,204 137,105 138,60 139,15
147,11 148,3 149,78 150,243
151,9999 152,1175 153,108 154,9
164,24 165,181 166,7543 167,907
168,79 169,3
##END=
