##TITLE=1-(4-Chlorophenyl)-1-cyclohexane-carboxylic acid
##JCAMP-DX=4.24
##DATA TYPE=MASS SPECTRUM
##ORIGIN=NIST Mass Spectrometry Data Center
##OWNER=NIST Mass Spectrometry Data Center
Collection (C) 2014 copyright by the U.S. Secretary of Commerce
on behalf of the United States of America. All rights reserved.
##CAS REGISTRY NO=58880-37-8
##$NIST MASS SPEC NO=343364
##MOLFORM=C13 H15 Cl O2
##MW=238
##$NIST SOURCE=MSDC
##XUNITS=M/Z
##YUNITS=RELATIVE INTENSITY
##XFACTOR=1
##YFACTOR=1
##FIRSTX=12
##LASTX=241
##FIRSTY=30
##MAXX=241
##MINX=12
##MAXY=9999
##MINY=10
##NPOINTS=140
##PEAK TABLE=(XY..XY)
12,30 15,70 16,10 17,10
18,90 19,20 26,100 27,751
28,290 29,661 30,20 31,40
32,20 35,20 36,50 37,30
39,971 40,120 41,871 42,80
43,310 44,340 45,400 46,30
47,20 50,300 51,691 52,140
53,390 55,1151 56,70 57,90
59,10 61,40 62,110 63,430
64,220 65,260 66,70 67,701
68,60 69,80 70,70 73,100
74,190 75,601 76,280 77,841
78,150 79,330 81,1491 82,140
83,20 84,20 85,60 86,60
87,140 88,60 89,561 90,220
91,380 92,40 96,40 97,50
98,40 99,150 101,691 102,601
103,330 104,60 105,30 107,20
110,20 111,110 112,130 113,140
114,200 115,1391 116,581 117,150
118,20 121,10 123,60 125,9999
126,931 127,3563 128,991 129,931
130,190 131,50 132,20 133,20
135,30 136,130 137,671 138,240
139,450 140,100 141,230 142,130
143,80 144,20 147,20 149,220
150,70 151,761 152,130 153,240
154,60 155,50 156,30 157,230
158,60 159,50 162,30 163,80
164,60 165,60 166,50 167,40
169,10 170,20 176,20 177,100
178,40 179,30 181,20 182,190
183,50 184,90 191,80 193,6786
194,1061 195,2392 196,310 197,20
238,1411 239,210 240,500 241,90
##END=
