##TITLE=2-Butenoic acid, 2-methylpropyl ester
##JCAMP-DX=4.24
##DATA TYPE=MASS SPECTRUM
##ORIGIN=James Little,Eastman Chem.Co.,Kingsport,TN
##OWNER=NIST Mass Spectrometry Data Center
Collection (C) 2014 copyright by the U.S. Secretary of Commerce
on behalf of the United States of America. All rights reserved.
##CAS REGISTRY NO=589-66-2
##$NIST MASS SPEC NO=288951
##MOLFORM=C8 H14 O2
##MW=142
##$NIST SOURCE=MSDC
##XUNITS=M/Z
##YUNITS=RELATIVE INTENSITY
##XFACTOR=1
##YFACTOR=1
##FIRSTX=38
##LASTX=127
##FIRSTY=981
##MAXX=127
##MINX=38
##MAXY=9999
##MINY=40
##NPOINTS=25
##PEAK TABLE=(XY..XY)
38,981 39,8448 40,1251 41,8067
42,761 43,1301 53,190 54,60
55,370 56,2212 57,711 58,60
67,40 68,310 69,9999 70,530
71,80 73,160 85,80 86,60
87,3133 88,150 99,220 112,40
127,60
##END=
