##TITLE=Cyclohexanol, 4-methyl-
##JCAMP-DX=4.24
##DATA TYPE=MASS SPECTRUM
##ORIGIN=Japan AIST/NIMC Database- Spectrum MS-NW- 654
##OWNER=NIST Mass Spectrometry Data Center
Collection (C) 2014 copyright by the U.S. Secretary of Commerce
on behalf of the United States of America. All rights reserved.
##CAS REGISTRY NO=589-91-3
##$NIST MASS SPEC NO=229342
##MOLFORM=C7 H14 O
##MW=114
##$NIST SOURCE=MSDC
##XUNITS=M/Z
##YUNITS=RELATIVE INTENSITY
##XFACTOR=1
##YFACTOR=1
##FIRSTX=14
##LASTX=115
##FIRSTY=10
##MAXX=115
##MINX=14
##MAXY=9999
##MINY=10
##NPOINTS=69
##PEAK TABLE=(XY..XY)
14,10 15,149 17,10 18,49
19,20 26,109 27,1349 28,369
29,1979 30,169 31,569 32,30
37,20 38,70 39,1269 40,259
41,3479 42,989 43,779 44,1699
45,329 46,10 47,10 50,70
51,149 52,60 53,549 54,769
55,3109 56,1199 57,9999 58,5279
59,269 60,20 62,10 63,30
65,99 66,90 67,1069 68,1179
69,309 70,3409 71,1259 72,70
73,169 74,10 77,99 78,20
79,199 80,60 81,4719 82,369
83,219 84,70 85,379 86,309
87,20 91,30 93,40 94,20
95,599 96,3499 97,309 98,10
99,20 112,60 113,139 114,279
115,20
##END=
