##TITLE=Pyridine, 2,5-dimethyl-
##JCAMP-DX=4.24
##DATA TYPE=MASS SPECTRUM
##ORIGIN=Japan AIST/NIMC Database- Spectrum MS-NW-6047
##OWNER=NIST Mass Spectrometry Data Center
Collection (C) 2014 copyright by the U.S. Secretary of Commerce
on behalf of the United States of America. All rights reserved.
##CAS REGISTRY NO=589-93-5
##$NIST MASS SPEC NO=227865
##MOLFORM=C7 H9 N
##MW=107
##$NIST SOURCE=MSDC
##XUNITS=M/Z
##YUNITS=RELATIVE INTENSITY
##XFACTOR=1
##YFACTOR=1
##FIRSTX=14
##LASTX=109
##FIRSTY=10
##MAXX=109
##MINX=14
##MAXY=9999
##MINY=10
##NPOINTS=55
##PEAK TABLE=(XY..XY)
14,10 15,70 26,119 27,539
28,229 29,20 30,20 36,10
37,149 38,319 39,1429 40,369
41,349 42,289 43,20 44,10
46,30 49,60 50,459 51,719
52,509 53,489 54,149 55,40
56,10 59,10 60,10 61,60
62,109 63,299 64,149 65,929
66,979 67,199 68,60 73,20
74,80 75,70 76,70 77,1169
78,409 79,2569 80,579 81,80
89,20 90,30 91,80 92,1159
93,99 104,90 105,99 106,6069
107,9999 108,819 109,30
##END=
