##TITLE=Carbamic acid, hydroxy-, ethyl ester
##JCAMP-DX=4.24
##DATA TYPE=MASS SPECTRUM
##ORIGIN=C.VOIGT, HEINRICH-HEINE-STRASSE, RODENBACH, WEST GER
##OWNER=NIST Mass Spectrometry Data Center
Collection (C) 2014 copyright by the U.S. Secretary of Commerce
on behalf of the United States of America. All rights reserved.
##CAS REGISTRY NO=589-41-3
##$NIST MASS SPEC NO=72303
##MOLFORM=C3 H7 N O3
##MW=105
##$NIST SOURCE=MSDC
##XUNITS=M/Z
##YUNITS=RELATIVE INTENSITY
##XFACTOR=1
##YFACTOR=1
##FIRSTX=56
##LASTX=105
##FIRSTY=6000
##MAXX=105
##MINX=56
##MAXY=9999
##MINY=900
##NPOINTS=13
##PEAK TABLE=(XY..XY)
56,6000 57,1300 58,6000 59,4000
60,4100 61,9000 62,1800 71,1000
72,4800 73,9999 74,7100 89,2200
105,900
##END=
