##TITLE=Benzeneethanamine, N-methyl-
##JCAMP-DX=4.24
##DATA TYPE=MASS SPECTRUM
##ORIGIN=NIST Mass Spectrometry Data Center, 1990.
##OWNER=NIST Mass Spectrometry Data Center
Collection (C) 2014 copyright by the U.S. Secretary of Commerce
on behalf of the United States of America. All rights reserved.
##CAS REGISTRY NO=589-08-2
##$NIST MASS SPEC NO=118564
##MOLFORM=C9 H13 N
##MW=135
##$NIST SOURCE=MSDC
##XUNITS=M/Z
##YUNITS=RELATIVE INTENSITY
##XFACTOR=1
##YFACTOR=1
##FIRSTX=14
##LASTX=135
##FIRSTY=33
##MAXX=135
##MINX=14
##MAXY=9999
##MINY=6
##NPOINTS=51
##PEAK TABLE=(XY..XY)
14,33 15,141 16,25 17,6
26,16 27,112 28,323 29,65
30,99 38,55 39,334 40,49
41,160 42,551 43,16 44,9999
45,294 50,155 51,332 52,130
53,27 56,42 57,23 61,25
62,76 63,166 64,75 65,418
66,40 74,41 75,32 76,47
77,252 78,109 79,77 80,19
89,88 91,485 92,62 102,37
103,107 104,105 105,140 106,28
117,49 118,60 119,68 132,60
133,45 134,45 135,83
##END=
