##TITLE=3-Heptanol
##JCAMP-DX=4.24
##DATA TYPE=MASS SPECTRUM
##ORIGIN=Japan AIST/NIMC Database- Spectrum MS-NW-3155
##OWNER=NIST Mass Spectrometry Data Center
Collection (C) 2014 copyright by the U.S. Secretary of Commerce
on behalf of the United States of America. All rights reserved.
##CAS REGISTRY NO=589-82-2
##$NIST MASS SPEC NO=231742
##MOLFORM=C7 H16 O
##MW=116
##$NIST SOURCE=MSDC
##XUNITS=M/Z
##YUNITS=RELATIVE INTENSITY
##XFACTOR=1
##YFACTOR=1
##FIRSTX=14
##LASTX=115
##FIRSTY=10
##MAXX=115
##MINX=14
##MAXY=9999
##MINY=10
##NPOINTS=53
##PEAK TABLE=(XY..XY)
14,10 15,80 17,20 18,80
19,30 26,80 27,979 28,209
29,1109 30,109 31,2209 32,50
38,30 39,529 40,90 41,3489
42,289 43,1139 44,289 45,809
46,10 50,20 51,40 52,10
53,109 54,50 55,799 56,579
57,809 58,799 59,9999 60,329
61,20 65,10 67,60 68,30
69,7019 70,539 71,50 72,40
73,99 83,40 84,10 85,40
86,269 87,3129 88,179 89,10
97,10 98,289 99,20 101,20
115,50
##END=
