##TITLE=Benzene, 1-bromo-4-iodo-
##JCAMP-DX=4.24
##DATA TYPE=MASS SPECTRUM
##ORIGIN=Japan AIST/NIMC Database- Spectrum MS-NW-9318
##OWNER=NIST Mass Spectrometry Data Center
Collection (C) 2014 copyright by the U.S. Secretary of Commerce
on behalf of the United States of America. All rights reserved.
##CAS REGISTRY NO=589-87-7
##$NIST MASS SPEC NO=228550
##MOLFORM=C6 H4 Br I
##MW=282
##$NIST SOURCE=MSDC
##XUNITS=M/Z
##YUNITS=RELATIVE INTENSITY
##XFACTOR=1
##YFACTOR=1
##FIRSTX=26
##LASTX=286
##FIRSTY=20
##MAXX=286
##MINX=26
##MAXY=9999
##MINY=10
##NPOINTS=52
##PEAK TABLE=(XY..XY)
26,20 27,10 36,20 37,199
38,179 39,30 48,20 49,199
50,1909 51,209 60,20 61,50
62,20 72,30 73,319 74,1309
75,2319 76,2309 77,139 79,10
80,10 81,10 82,10 104,10
105,20 106,10 107,20 117,10
127,229 128,80 129,80 130,30
131,70 139,10 141,319 142,309
152,40 153,10 154,50 155,4149
156,309 157,4059 158,259 164,10
176,40 177,10 203,90 282,9999
283,669 284,9779 285,649 286,10
##END=
