##TITLE=1-Pentanol, 3-methyl-
##JCAMP-DX=4.24
##DATA TYPE=MASS SPECTRUM
##ORIGIN=Japan AIST/NIMC Database- Spectrum MS-NW-3063
##OWNER=NIST Mass Spectrometry Data Center
Collection (C) 2014 copyright by the U.S. Secretary of Commerce
on behalf of the United States of America. All rights reserved.
##CAS REGISTRY NO=589-35-5
##$NIST MASS SPEC NO=231373
##MOLFORM=C6 H14 O
##MW=102
##$NIST SOURCE=MSDC
##XUNITS=M/Z
##YUNITS=RELATIVE INTENSITY
##XFACTOR=1
##YFACTOR=1
##FIRSTX=14
##LASTX=99
##FIRSTY=10
##MAXX=99
##MINX=14
##MAXY=9999
##MINY=10
##NPOINTS=61
##PEAK TABLE=(XY..XY)
14,10 15,119 17,30 18,109
19,10 26,109 27,1579 28,439
29,2789 30,60 31,2379 32,30
33,10 36,10 37,30 38,80
39,1109 40,179 41,5269 42,1599
43,5519 44,239 45,1189 46,319
47,30 49,10 50,70 51,90
52,40 53,299 54,199 55,6699
56,9999 57,2619 58,109 59,199
60,10 62,10 63,10 65,20
66,10 67,129 68,60 69,6169
70,489 71,439 72,70 73,119
74,30 77,10 79,10 81,20
82,10 83,229 84,1659 85,159
86,10 87,20 97,10 98,10
99,10
##END=
