##TITLE=Benzamide, N-(1,1-dimethylethyl)-
##JCAMP-DX=4.24
##DATA TYPE=MASS SPECTRUM
##ORIGIN=NIST Mass Spectrometry Data Center, 1994
##OWNER=NIST Mass Spectrometry Data Center
Collection (C) 2014 copyright by the U.S. Secretary of Commerce
on behalf of the United States of America. All rights reserved.
##CAS REGISTRY NO=5894-65-5
##$NIST MASS SPEC NO=135694
##MOLFORM=C11 H15 N O
##MW=177
##$NIST SOURCE=MSDC
##XUNITS=M/Z
##YUNITS=RELATIVE INTENSITY
##XFACTOR=1
##YFACTOR=1
##FIRSTX=7
##LASTX=179
##FIRSTY=11
##MAXX=179
##MINX=7
##MAXY=9999
##MINY=5
##NPOINTS=64
##PEAK TABLE=(XY..XY)
7,11 14,22 15,386 16,5
17,19 18,27 26,35 27,335
28,293 29,327 30,50 37,22
38,69 39,519 40,88 41,724
42,825 43,17 44,234 50,545
51,1719 52,158 53,54 54,38
55,67 56,279 57,262 58,46
60,7 62,14 63,41 64,19
65,57 66,25 70,6 74,292
75,134 76,333 77,4124 78,352
79,554 80,61 81,67 91,28
92,31 102,15 105,9999 106,763
107,47 120,21 122,1148 123,104
124,12 134,147 135,84 136,10
146,10 160,18 162,1235 163,162
164,11 177,1082 178,137 179,7
##END=
