##TITLE=Methotrexate
##JCAMP-DX=4.24
##DATA TYPE=MASS SPECTRUM
##ORIGIN=OGDEN BioServices Corp., NCI, Rockville, MD 20852
##OWNER=NIST Mass Spectrometry Data Center
Collection (C) 2014 copyright by the U.S. Secretary of Commerce
on behalf of the United States of America. All rights reserved.
##CAS REGISTRY NO=59-05-2
##$NIST MASS SPEC NO=131571
##MOLFORM=C20 H22 N8 O5
##MW=454
##$NIST SOURCE=MSDC
##XUNITS=M/Z
##YUNITS=RELATIVE INTENSITY
##XFACTOR=1
##YFACTOR=1
##FIRSTX=41
##LASTX=436
##FIRSTY=2107
##MAXX=436
##MINX=41
##MAXY=9999
##MINY=4
##NPOINTS=222
##PEAK TABLE=(XY..XY)
41,2107 42,872 43,995 44,1465
45,1567 46,74 47,11 49,33
50,318 51,434 52,468 53,483
54,529 55,550 56,1413 57,114
58,12 59,8 60,26 62,252
63,285 64,281 65,760 66,560
67,231 68,300 69,120 70,32
71,37 72,21 73,175 74,203
75,172 76,246 77,1055 78,399
79,590 80,260 81,134 82,134
83,269 84,9999 85,537 86,44
87,12 88,38 89,24 90,98
91,182 92,194 93,96 94,58
95,73 96,55 97,32 98,10
99,12 100,7 101,86 102,43
103,54 104,347 105,296 106,1553
107,1130 108,391 109,66 110,16
111,26 112,5 113,12 114,5
115,15 116,4 117,21 118,72
119,44 120,339 121,178 122,157
123,44 124,25 125,17 126,4
127,5 128,21 129,1046 130,297
131,94 132,331 133,451 134,6249
135,1003 136,99 137,228 138,28
139,11 140,14 141,25 142,15
143,14 144,21 145,19 146,35
147,26 148,544 149,344 150,3887
151,7054 152,659 153,78 154,19
155,9 156,8 157,12 158,39
159,175 160,104 161,58 162,64
163,61 164,171 165,33 166,8
167,9 168,9 169,13 170,23
171,4 172,11 173,23 174,19
175,2074 176,7689 177,987 178,80
179,12 183,17 184,4 186,5
187,58 188,33 189,55 190,57
191,34 192,49 193,13 194,12
195,4 197,4 199,8 200,17
201,31 202,58 203,109 204,24
205,14 206,46 207,14 208,4
211,15 213,21 214,29 215,28
216,45 217,22 218,25 219,15
221,4 222,21 225,17 226,26
227,8 228,4 234,54 235,27
236,115 237,20 238,4 239,12
240,22 241,8 242,21 243,18
244,22 247,8 248,20 253,5
254,14 256,8 260,4 261,192
262,424 263,82 264,17 270,9
272,10 275,9 276,14 277,18
278,16 279,9 280,42 281,101
282,26 284,11 287,5 290,4
294,12 307,4 308,24 309,13
310,4 322,17 323,5 324,6
325,87 326,37 335,10 350,27
351,5 436,5
##END=
