##TITLE=Vitamin E
##JCAMP-DX=4.24
##DATA TYPE=MASS SPECTRUM
##ORIGIN=NIST Mass Spectrometry Data Center, 2010
##OWNER=NIST Mass Spectrometry Data Center
Collection (C) 2014 copyright by the U.S. Secretary of Commerce
on behalf of the United States of America. All rights reserved.
##CAS REGISTRY NO=59-02-9
##$NIST MASS SPEC NO=374713
##MOLFORM=C29 H50 O2
##MW=430
##$NIST SOURCE=MSDC
##XUNITS=M/Z
##YUNITS=RELATIVE INTENSITY
##XFACTOR=1
##YFACTOR=1
##FIRSTX=27
##LASTX=433
##FIRSTY=50
##MAXX=433
##MINX=27
##MAXY=9999
##MINY=10
##NPOINTS=164
##PEAK TABLE=(XY..XY)
27,50 28,10 29,170 39,60
40,20 41,561 42,110 43,1371
44,40 51,10 52,10 53,90
54,30 55,581 56,130 57,771
58,40 65,40 66,10 67,170
68,30 69,330 70,50 71,340
72,20 77,90 78,20 79,110
80,20 81,190 82,30 83,160
84,20 85,70 86,10 91,220
92,30 93,100 94,20 95,130
96,10 97,80 98,10 99,10
103,30 104,10 105,90 106,10
107,130 108,30 109,100 110,10
111,40 112,10 115,40 116,20
117,40 118,10 119,110 120,20
121,561 122,160 123,60 124,10
125,40 126,10 127,10 128,30
129,20 130,10 131,40 132,10
133,40 134,20 135,250 136,360
137,250 138,40 139,10 141,10
142,10 143,20 144,20 145,50
146,30 147,40 148,20 149,190
150,30 151,90 152,130 153,30
157,20 158,10 159,70 160,20
161,90 162,80 163,130 164,3073
165,9999 166,1161 167,100 168,10
171,10 172,20 173,40 174,20
175,130 176,100 177,210 178,80
179,50 180,10 185,10 186,10
187,40 188,30 189,150 190,150
191,120 192,20 201,10 202,10
203,170 204,60 205,1001 206,140
207,20 215,10 217,20 218,10
219,30 220,10 232,10 233,10
246,10 247,10 260,10 274,20
275,10 288,40 289,10 302,30
303,10 316,20 317,10 318,10
330,10 344,20 345,10 358,20
359,10 372,10 386,10 387,10
388,10 414,20 415,10 428,30
430,7897 431,2432 432,390 433,40
##END=
