##TITLE=D-Galactose
##JCAMP-DX=4.24
##DATA TYPE=MASS SPECTRUM
##ORIGIN=RADIAN CORP
##OWNER=NIST Mass Spectrometry Data Center
Collection (C) 2014 copyright by the U.S. Secretary of Commerce
on behalf of the United States of America. All rights reserved.
##CAS REGISTRY NO=59-23-4
##$NIST MASS SPEC NO=76356
##MOLFORM=C6 H12 O6
##MW=180
##$NIST SOURCE=MSDC
##XUNITS=M/Z
##YUNITS=RELATIVE INTENSITY
##XFACTOR=1
##YFACTOR=1
##FIRSTX=15
##LASTX=168
##FIRSTY=40
##MAXX=168
##MINX=15
##MAXY=9999
##MINY=10
##NPOINTS=94
##PEAK TABLE=(XY..XY)
15,40 17,20 18,80 19,120
26,40 27,230 28,410 29,1140
30,220 31,1110 32,140 36,160
38,70 39,190 40,60 41,450
42,930 43,2320 44,1670 45,1060
46,80 47,310 49,30 51,30
53,80 54,150 55,840 56,920
57,1940 58,410 59,180 60,6080
61,2890 62,170 63,20 67,70
68,110 69,630 70,350 71,3080
72,720 73,9999 74,780 75,120
76,20 77,120 79,30 81,90
82,60 83,250 84,130 85,640
86,270 87,260 88,40 89,250
90,110 91,550 92,20 93,10
95,70 96,70 97,410 98,260
99,100 100,20 101,880 102,700
103,440 104,30 109,30 110,10
111,60 112,10 113,80 115,110
116,110 117,10 119,380 120,70
121,30 125,20 127,40 128,10
129,70 131,480 132,50 133,200
139,20 141,30 144,70 147,30
149,140 168,20
##END=
