##TITLE=2(1H)-Quinolinone
##JCAMP-DX=4.24
##DATA TYPE=MASS SPECTRUM
##ORIGIN=Japan AIST/NIMC Database- Spectrum MS-NW-3596
##OWNER=NIST Mass Spectrometry Data Center
Collection (C) 2014 copyright by the U.S. Secretary of Commerce
on behalf of the United States of America. All rights reserved.
##CAS REGISTRY NO=59-31-4
##$NIST MASS SPEC NO=231933
##MOLFORM=C9 H7 N O
##MW=145
##$NIST SOURCE=MSDC
##XUNITS=M/Z
##YUNITS=RELATIVE INTENSITY
##XFACTOR=1
##YFACTOR=1
##FIRSTX=25
##LASTX=147
##FIRSTY=10
##MAXX=147
##MINX=25
##MAXY=9999
##MINY=10
##NPOINTS=78
##PEAK TABLE=(XY..XY)
25,10 26,99 27,129 28,69
29,20 31,10 36,10 37,219
38,339 39,649 40,119 41,80
42,10 43,80 44,40 45,90
49,70 50,409 51,519 52,249
53,60 54,20 55,10 56,10
57,90 58,729 59,70 60,20
61,189 62,449 63,1069 64,489
65,169 66,40 67,20 69,10
72,109 73,40 74,169 75,209
76,159 77,90 78,90 79,20
84,10 85,40 86,80 87,119
88,159 89,2169 90,3319 91,319
92,40 94,10 95,10 98,20
99,20 100,20 101,40 102,30
103,20 104,10 106,10 114,60
115,60 116,879 117,6429 118,649
119,50 127,10 128,20 129,10
130,40 131,10 144,60 145,9999
146,1069 147,90
##END=
