##TITLE=5-Acetamido-1,3,4-thiadiazole-2-sulfonamide
##JCAMP-DX=4.24
##DATA TYPE=MASS SPECTRUM
##ORIGIN=Japan AIST/NIMC Database- Spectrum MS-NW-9996
##OWNER=NIST Mass Spectrometry Data Center
Collection (C) 2014 copyright by the U.S. Secretary of Commerce
on behalf of the United States of America. All rights reserved.
##CAS REGISTRY NO=59-66-5
##$NIST MASS SPEC NO=239163
##MOLFORM=C4 H6 N4 O3 S2
##MW=222
##$NIST SOURCE=MSDC
##XUNITS=M/Z
##YUNITS=RELATIVE INTENSITY
##XFACTOR=1
##YFACTOR=1
##FIRSTX=13
##LASTX=225
##FIRSTY=20
##MAXX=225
##MINX=13
##MAXY=9999
##MINY=10
##NPOINTS=135
##PEAK TABLE=(XY..XY)
13,20 14,80 15,539 16,80
17,128 18,667 20,10 26,20
27,129 28,210 29,99 30,129
31,10 32,110 33,30 34,30
35,10 36,109 38,40 39,50
40,60 41,299 42,539 43,9999
44,389 45,469 46,169 47,70
48,289 49,10 50,20 51,10
53,20 54,40 55,279 56,149
57,409 58,149 59,559 60,209
61,40 62,10 63,70 64,599
65,60 66,40 67,70 68,70
69,229 70,159 71,209 72,129
73,189 74,279 75,20 76,40
77,10 79,10 80,409 81,40
82,90 83,209 84,90 85,119
86,10 87,10 88,189 89,20
90,10 91,70 92,10 93,20
94,10 95,20 96,40 97,169
98,60 99,359 100,739 101,119
102,40 105,20 107,10 109,10
110,20 111,90 112,30 113,20
114,119 115,40 116,399 117,50
118,20 119,10 121,40 123,10
124,20 125,30 126,20 127,10
128,10 129,10 130,20 133,10
135,10 138,10 139,20 140,10
141,20 142,10 143,10 147,10
148,20 149,10 153,10 154,10
155,10 157,10 158,10 159,10
164,50 167,10 180,5539 181,429
182,539 183,40 184,20 194,989
195,70 196,99 207,80 222,1219
223,100 224,129 225,20
##END=
