##TITLE=Nitrofurazone
##JCAMP-DX=4.24
##DATA TYPE=MASS SPECTRUM
##ORIGIN=RADIAN CORP
##OWNER=NIST Mass Spectrometry Data Center
Collection (C) 2014 copyright by the U.S. Secretary of Commerce
on behalf of the United States of America. All rights reserved.
##CAS REGISTRY NO=59-87-0
##$NIST MASS SPEC NO=75963
##MOLFORM=C6 H6 N4 O4
##MW=198
##$NIST SOURCE=MSDC
##XUNITS=M/Z
##YUNITS=RELATIVE INTENSITY
##XFACTOR=1
##YFACTOR=1
##FIRSTX=16
##LASTX=200
##FIRSTY=40
##MAXX=200
##MINX=16
##MAXY=9999
##MINY=10
##NPOINTS=49
##PEAK TABLE=(XY..XY)
16,40 17,20 26,130 27,50
29,30 30,600 33,40 34,30
36,30 37,350 38,820 39,420
42,30 44,4220 46,120 47,30
48,10 49,210 50,1670 51,4420
52,1150 53,260 54,1000 59,160
60,1500 62,40 63,80 64,590
65,120 66,80 70,1180 74,150
76,10 79,4190 80,960 81,980
108,1100 116,380 117,20 125,100
139,70 154,110 155,9999 156,690
181,30 182,20 198,2310 199,140
200,30
##END=
