##TITLE=Morpholine, 4-nitroso-
##JCAMP-DX=4.24
##DATA TYPE=MASS SPECTRUM
##ORIGIN=NIST Mass Spectrometry Data Center, 1998.
##OWNER=NIST Mass Spectrometry Data Center
Collection (C) 2014 copyright by the U.S. Secretary of Commerce
on behalf of the United States of America. All rights reserved.
##CAS REGISTRY NO=59-89-2
##$NIST MASS SPEC NO=291320
##MOLFORM=C4 H8 N2 O2
##MW=116
##$NIST SOURCE=MSDC
##XUNITS=M/Z
##YUNITS=RELATIVE INTENSITY
##XFACTOR=1
##YFACTOR=1
##FIRSTX=13
##LASTX=118
##FIRSTY=10
##MAXX=118
##MINX=13
##MAXY=9999
##MINY=10
##NPOINTS=39
##PEAK TABLE=(XY..XY)
13,10 14,40 15,240 16,10
25,20 26,420 27,1240 28,3190
29,2370 30,1860 31,210 33,10
38,20 39,60 40,240 41,1080
42,1720 43,510 44,220 45,100
51,30 52,140 53,30 54,1040
55,1090 56,9999 57,590 58,50
59,30 68,10 70,10 84,10
85,140 86,4200 87,220 88,10
116,4010 117,230 118,10
##END=
