##TITLE=1H-Imidazole, 4,5-dihydro-2-(phenylmethyl)-
##JCAMP-DX=4.24
##DATA TYPE=MASS SPECTRUM
##ORIGIN=Tox21 Consortium/NIST Mass Spectrometry Data Center, 2012
##OWNER=NIST Mass Spectrometry Data Center
Collection (C) 2014 copyright by the U.S. Secretary of Commerce
on behalf of the United States of America. All rights reserved.
##CAS REGISTRY NO=59-98-3
##$NIST MASS SPEC NO=408031
##MOLFORM=C10 H12 N2
##MW=160
##$NIST SOURCE=MSDC
##XUNITS=M/Z
##YUNITS=RELATIVE INTENSITY
##XFACTOR=1
##YFACTOR=1
##FIRSTX=15
##LASTX=162
##FIRSTY=70
##MAXX=162
##MINX=15
##MAXY=9999
##MINY=20
##NPOINTS=78
##PEAK TABLE=(XY..XY)
15,70 27,80 28,490 29,50
30,70 37,30 38,50 39,410
40,110 41,180 42,320 43,90
50,210 51,581 52,130 54,80
55,50 56,40 57,20 62,190
63,360 64,120 65,1101 66,170
67,60 69,40 71,20 72,20
73,40 74,170 75,120 76,150
77,671 78,220 79,140 81,901
82,130 85,20 86,30 88,70
89,681 90,380 91,9999 92,951
93,60 98,20 101,40 102,210
103,661 104,320 106,140 107,30
112,20 114,20 116,270 117,330
118,160 120,30 127,20 128,70
129,90 130,611 131,1672 132,380
133,70 134,20 141,20 142,30
143,40 145,20 146,20 156,80
157,350 158,240 159,9479 160,2372
161,170 162,30
##END=
