##TITLE=Levodopa
##JCAMP-DX=4.24
##DATA TYPE=MASS SPECTRUM
##ORIGIN=Japan AIST/NIMC Database- Spectrum MS-NW- 470
##OWNER=NIST Mass Spectrometry Data Center
Collection (C) 2014 copyright by the U.S. Secretary of Commerce
on behalf of the United States of America. All rights reserved.
##CAS REGISTRY NO=59-92-7
##$NIST MASS SPEC NO=229075
##MOLFORM=C9 H11 N O4
##MW=197
##$NIST SOURCE=MSDC
##XUNITS=M/Z
##YUNITS=RELATIVE INTENSITY
##XFACTOR=1
##YFACTOR=1
##FIRSTX=15
##LASTX=199
##FIRSTY=20
##MAXX=199
##MINX=15
##MAXY=9999
##MINY=10
##NPOINTS=113
##PEAK TABLE=(XY..XY)
15,20 17,50 18,149 26,30
27,149 28,239 29,99 30,139
31,10 37,20 38,60 39,259
40,70 41,189 42,99 43,199
44,409 45,40 46,99 50,109
51,499 52,119 53,249 54,50
55,189 56,60 57,149 58,10
60,40 61,30 62,50 63,99
64,50 65,149 66,149 67,179
68,60 69,99 70,50 71,60
73,50 74,529 75,279 76,169
77,909 78,269 79,139 80,70
81,99 82,60 83,90 84,50
85,40 87,20 88,20 89,90
90,30 91,40 92,30 93,40
94,169 95,90 96,50 97,70
98,70 103,50 104,60 105,249
106,149 107,269 108,50 109,70
110,109 111,40 112,20 113,20
115,20 116,30 117,30 119,20
120,20 121,20 122,249 123,9999
124,1509 125,119 126,10 129,30
132,30 133,30 134,90 135,99
136,209 137,40 138,20 148,20
149,99 150,60 151,299 152,339
153,40 161,50 162,40 163,40
164,30 177,20 178,30 179,30
180,20 195,10 197,439 198,50
199,10
##END=
