##TITLE=Propanoic acid, butyl ester
##JCAMP-DX=4.24
##DATA TYPE=MASS SPECTRUM
##ORIGIN=Japan AIST/NIMC Database- Spectrum MS-NW- 903
##OWNER=NIST Mass Spectrometry Data Center
Collection (C) 2014 copyright by the U.S. Secretary of Commerce
on behalf of the United States of America. All rights reserved.
##CAS REGISTRY NO=590-01-2
##$NIST MASS SPEC NO=228724
##MOLFORM=C7 H14 O2
##MW=130
##$NIST SOURCE=MSDC
##XUNITS=M/Z
##YUNITS=RELATIVE INTENSITY
##XFACTOR=1
##YFACTOR=1
##FIRSTX=14
##LASTX=101
##FIRSTY=10
##MAXX=101
##MINX=14
##MAXY=9999
##MINY=10
##NPOINTS=38
##PEAK TABLE=(XY..XY)
14,10 15,60 18,40 26,189
27,1339 28,699 29,4829 30,119
31,299 32,10 38,20 39,399
40,80 41,1889 42,109 43,319
44,30 45,30 51,20 53,40
54,30 55,659 56,3709 57,9999
58,359 59,30 71,269 72,40
73,149 74,279 75,2799 76,99
77,10 87,709 88,40 89,10
100,40 101,99
##END=
