##TITLE=Acetonitrile, bromo-
##JCAMP-DX=4.24
##DATA TYPE=MASS SPECTRUM
##ORIGIN=Japan AIST/NIMC Database- Spectrum MS-IW-4256
##OWNER=NIST Mass Spectrometry Data Center
Collection (C) 2014 copyright by the U.S. Secretary of Commerce
on behalf of the United States of America. All rights reserved.
##CAS REGISTRY NO=590-17-0
##$NIST MASS SPEC NO=234569
##MOLFORM=C2 H2 Br N
##MW=119
##$NIST SOURCE=MSDC
##XUNITS=M/Z
##YUNITS=RELATIVE INTENSITY
##XFACTOR=1
##YFACTOR=1
##FIRSTX=12
##LASTX=122
##FIRSTY=109
##MAXX=122
##MINX=12
##MAXY=9999
##MINY=10
##NPOINTS=60
##PEAK TABLE=(XY..XY)
12,109 13,109 14,90 15,50
24,30 25,99 26,199 27,229
28,319 29,149 30,10 31,30
36,10 38,569 39,739 40,9679
41,669 42,119 43,90 44,30
45,70 47,10 48,109 49,10
50,40 52,10 57,20 58,20
59,99 60,10 70,199 71,10
72,40 74,20 75,159 76,10
77,50 79,1129 80,409 81,1129
82,419 84,10 91,629 92,949
93,759 94,929 95,149 96,10
103,10 104,20 105,20 106,20
107,10 108,20 117,99 118,249
119,9999 120,559 121,9759 122,309
##END=
