##TITLE=Cyclohexane, 1,1-dimethyl-
##JCAMP-DX=4.24
##DATA TYPE=MASS SPECTRUM
##ORIGIN=Japan AIST/NIMC Database- Spectrum MS-NW-5331
##OWNER=NIST Mass Spectrometry Data Center
Collection (C) 2014 copyright by the U.S. Secretary of Commerce
on behalf of the United States of America. All rights reserved.
##CAS REGISTRY NO=590-66-9
##$NIST MASS SPEC NO=234851
##MOLFORM=C8 H16
##MW=112
##$NIST SOURCE=MSDC
##XUNITS=M/Z
##YUNITS=RELATIVE INTENSITY
##XFACTOR=1
##YFACTOR=1
##FIRSTX=15
##LASTX=113
##FIRSTY=70
##MAXX=113
##MINX=15
##MAXY=9999
##MINY=10
##NPOINTS=54
##PEAK TABLE=(XY..XY)
15,70 26,40 27,899 28,159
29,829 30,20 37,10 38,60
39,1119 40,219 41,3509 42,529
43,1209 44,40 45,10 46,20
50,50 51,139 52,60 53,429
54,149 55,7199 56,4089 57,1319
58,50 62,10 63,40 65,90
66,40 67,379 68,549 69,4929
70,1149 71,80 77,80 78,20
79,80 80,20 81,139 82,30
83,329 84,539 85,30 91,40
92,10 93,10 95,40 96,479
97,9999 98,799 99,30 111,10
112,419 113,40
##END=
