##TITLE=CH3C(O)CH2CH2OH
##JCAMP-DX=4.24
##DATA TYPE=MASS SPECTRUM
##ORIGIN=NIST Mass Spectrometry Data Center
##OWNER=NIST Mass Spectrometry Data Center
Collection (C) 2014 copyright by the U.S. Secretary of Commerce
on behalf of the United States of America. All rights reserved.
##CAS REGISTRY NO=590-90-9
##$NIST MASS SPEC NO=343590
##MOLFORM=C4 H8 O2
##MW=88
##$NIST SOURCE=MSDC
##XUNITS=M/Z
##YUNITS=RELATIVE INTENSITY
##XFACTOR=1
##YFACTOR=1
##FIRSTX=13
##LASTX=89
##FIRSTY=40
##MAXX=89
##MINX=13
##MAXY=9999
##MINY=10
##NPOINTS=45
##PEAK TABLE=(XY..XY)
13,40 14,190 15,901 16,20
18,30 19,290 25,50 26,290
27,911 28,420 29,1061 30,70
31,1651 33,10 36,20 37,70
38,100 39,310 40,80 41,330
42,1371 43,9999 44,410 45,1151
46,30 47,10 50,40 51,30
53,40 55,681 56,20 57,150
58,450 59,40 60,50 61,1361
62,20 69,110 70,2102 71,130
73,781 74,10 87,50 88,1141
89,60
##END=
