##TITLE=Cyclohexanol, 1-methyl-
##JCAMP-DX=4.24
##DATA TYPE=MASS SPECTRUM
##ORIGIN=Chuck Anderson, Aldrich Chemical Co.
##OWNER=NIST Mass Spectrometry Data Center
Collection (C) 2014 copyright by the U.S. Secretary of Commerce
on behalf of the United States of America. All rights reserved.
##CAS REGISTRY NO=590-67-0
##$NIST MASS SPEC NO=108528
##MOLFORM=C7 H14 O
##MW=114
##$NIST SOURCE=MSDC
##XUNITS=M/Z
##YUNITS=RELATIVE INTENSITY
##XFACTOR=1
##YFACTOR=1
##FIRSTX=14
##LASTX=115
##FIRSTY=9
##MAXX=115
##MINX=14
##MAXY=9999
##MINY=1
##NPOINTS=72
##PEAK TABLE=(XY..XY)
14,9 15,149 17,1 18,5
19,15 26,75 27,790 28,204
29,656 30,26 31,197 32,6
36,10 37,14 38,54 39,746
40,133 41,950 42,294 43,3443
44,98 45,255 46,7 47,24
48,18 49,6 50,37 51,80
52,31 53,282 54,90 55,835
56,87 57,398 58,2550 59,695
60,27 61,3 62,10 63,22
65,61 66,25 67,183 68,68
69,137 70,89 71,9999 72,1090
73,61 74,5 77,66 78,12
79,237 80,22 81,1479 82,100
83,31 84,6 85,656 86,83
87,2 91,15 93,6 95,40
96,97 97,151 98,13 99,1492
100,87 101,3 114,376 115,26
##END=
