##TITLE=2-Pentanone, 4,4-dimethyl-
##JCAMP-DX=4.24
##DATA TYPE=MASS SPECTRUM
##ORIGIN=KONINKLIJKE SHELL LABORATORIUM AMSTERDAM
##OWNER=NIST Mass Spectrometry Data Center
Collection (C) 2014 copyright by the U.S. Secretary of Commerce
on behalf of the United States of America. All rights reserved.
##CAS REGISTRY NO=590-50-1
##$NIST MASS SPEC NO=1757
##MOLFORM=C7 H14 O
##MW=114
##$NIST SOURCE=MSDC
##XUNITS=M/Z
##YUNITS=RELATIVE INTENSITY
##XFACTOR=1
##YFACTOR=1
##FIRSTX=12
##LASTX=116
##FIRSTY=18
##MAXX=116
##MINX=12
##MAXY=9999
##MINY=1
##NPOINTS=81
##PEAK TABLE=(XY..XY)
12,18 13,31 14,214 15,1361
16,40 17,53 18,180 19,3
20,7 25,8 26,137 27,1252
28,592 29,1425 30,40 31,36
32,61 33,2 34,2 36,2
37,37 38,103 39,1134 40,182
41,1950 42,284 43,9999 44,246
45,33 46,1 47,1 48,2
49,9 50,68 51,99 52,30
53,153 54,31 55,300 56,407
57,4070 58,3203 59,587 60,25
61,4 62,7 63,11 64,3
65,13 66,5 67,18 68,3
69,15 70,22 71,202 72,17
73,1 74,2 75,1 76,1
77,6 78,2 79,4 80,1
81,6 82,3 83,30 84,3
85,23 86,58 87,3 95,1
96,2 97,3 98,2 99,366
100,25 101,2 114,784 115,64
116,4
##END=
