##TITLE=Propanoic acid, 3-bromo-
##JCAMP-DX=4.24
##DATA TYPE=MASS SPECTRUM
##ORIGIN=Japan AIST/NIMC Database- Spectrum MS-NW-4958
##OWNER=NIST Mass Spectrometry Data Center
Collection (C) 2014 copyright by the U.S. Secretary of Commerce
on behalf of the United States of America. All rights reserved.
##CAS REGISTRY NO=590-92-1
##$NIST MASS SPEC NO=230046
##MOLFORM=C3 H5 Br O2
##MW=152
##$NIST SOURCE=MSDC
##XUNITS=M/Z
##YUNITS=RELATIVE INTENSITY
##XFACTOR=1
##YFACTOR=1
##FIRSTX=12
##LASTX=155
##FIRSTY=40
##MAXX=155
##MINX=12
##MAXY=9999
##MINY=10
##NPOINTS=76
##PEAK TABLE=(XY..XY)
12,40 13,70 14,249 15,219
16,20 17,70 18,209 19,50
24,50 25,229 26,1639 27,5889
28,3529 29,2349 30,60 31,269
32,10 35,10 36,129 37,30
38,40 39,10 40,10 41,60
42,849 43,649 44,269 45,3059
46,149 47,60 52,20 53,99
54,40 55,1659 56,90 57,10
60,10 67,20 68,10 71,60
72,529 73,9999 74,369 75,50
79,289 80,729 81,299 82,699
83,10 91,20 92,20 93,149
94,20 95,129 104,10 105,50
106,209 107,819 108,209 109,789
110,50 117,10 119,10 126,10
127,10 128,10 133,40 134,10
135,119 136,20 137,80 151,20
152,699 153,50 154,669 155,30
##END=
