##TITLE=2-Methyl-3-pentyn-2-ol
##JCAMP-DX=4.24
##DATA TYPE=MASS SPECTRUM
##ORIGIN=NIST Mass Spectrometry Data Center, 1990.
##OWNER=NIST Mass Spectrometry Data Center
Collection (C) 2014 copyright by the U.S. Secretary of Commerce
on behalf of the United States of America. All rights reserved.
##CAS REGISTRY NO=590-38-5
##$NIST MASS SPEC NO=114763
##MOLFORM=C6 H10 O
##MW=98
##$NIST SOURCE=MSDC
##XUNITS=M/Z
##YUNITS=RELATIVE INTENSITY
##XFACTOR=1
##YFACTOR=1
##FIRSTX=15
##LASTX=84
##FIRSTY=149
##MAXX=84
##MINX=15
##MAXY=9999
##MINY=92
##NPOINTS=38
##PEAK TABLE=(XY..XY)
15,149 26,112 27,449 29,250
31,109 37,228 38,449 39,1721
40,390 41,516 42,109 43,6089
44,173 49,92 50,485 51,653
52,303 53,696 54,131 55,445
58,95 59,132 61,181 62,283
63,505 64,128 65,525 66,205
67,399 74,120 77,797 78,150
79,931 80,1007 81,398 82,120
83,9999 84,498
##END=
