##TITLE=1,1'-Bicyclopropyl, 1,1'-dimethyl-
##JCAMP-DX=4.24
##DATA TYPE=MASS SPECTRUM
##ORIGIN=D.HENNEBERG, MAX-PLANCK INSTITUTE, MULHEIM, WEST GERMANY
##OWNER=NIST Mass Spectrometry Data Center
Collection (C) 2014 copyright by the U.S. Secretary of Commerce
on behalf of the United States of America. All rights reserved.
##CAS REGISTRY NO=59020-33-6
##$NIST MASS SPEC NO=62859
##MOLFORM=C8 H14
##MW=110
##$NIST SOURCE=MSDC
##XUNITS=M/Z
##YUNITS=RELATIVE INTENSITY
##XFACTOR=1
##YFACTOR=1
##FIRSTX=22
##LASTX=110
##FIRSTY=10
##MAXX=110
##MINX=22
##MAXY=9999
##MINY=2
##NPOINTS=59
##PEAK TABLE=(XY..XY)
22,10 23,6 24,3 25,33
26,231 27,3005 28,378 29,2793
30,65 33,6 37,97 38,212
39,3811 40,635 41,5996 42,546
43,187 45,19 46,3 47,9
48,8 49,25 50,237 51,494
52,254 53,1740 54,2173 55,9999
56,939 57,35 61,16 62,33
63,121 64,25 65,420 66,328
67,8481 68,3511 69,1468 70,72
73,2 74,8 75,21 76,11
77,308 78,65 79,462 80,161
81,3035 82,3033 83,191 91,85
92,8 93,59 94,5 95,1229
96,88 109,22 110,3
##END=
