##TITLE=Disulfide, methyl 1-propenyl
##JCAMP-DX=4.24
##DATA TYPE=MASS SPECTRUM
##ORIGIN=H.NISHIMURA HOKKAIDO UNIV., SAPPORO, JAPAN
##OWNER=NIST Mass Spectrometry Data Center
Collection (C) 2014 copyright by the U.S. Secretary of Commerce
on behalf of the United States of America. All rights reserved.
##CAS REGISTRY NO=5905-47-5
##$NIST MASS SPEC NO=58235
##MOLFORM=C4 H8 S2
##MW=120
##$NIST SOURCE=MSDC
##XUNITS=M/Z
##YUNITS=RELATIVE INTENSITY
##XFACTOR=1
##YFACTOR=1
##FIRSTX=39
##LASTX=122
##FIRSTY=4280
##MAXX=122
##MINX=39
##MAXY=9999
##MINY=100
##NPOINTS=27
##PEAK TABLE=(XY..XY)
39,4280 40,150 41,6350 42,150
43,830 44,3270 45,6650 46,650
47,1200 48,150 49,150 71,1260
72,3180 73,9999 74,1200 75,1320
79,850 80,2000 87,2250 88,520
89,430 105,1000 106,150 107,100
120,7750 121,700 122,730
##END=
