##TITLE=1H-Azepin-1-amine, hexahydro-
##JCAMP-DX=4.24
##DATA TYPE=MASS SPECTRUM
##ORIGIN=ATLAS OF MASS SPECTRA OF ORGANIC COMPOUNDS, V. A. KOPTYUG, ED.
##OWNER=NIST Mass Spectrometry Data Center
Collection (C) 2014 copyright by the U.S. Secretary of Commerce
on behalf of the United States of America. All rights reserved.
##CAS REGISTRY NO=5906-35-4
##$NIST MASS SPEC NO=64437
##MOLFORM=C6 H14 N2
##MW=114
##$NIST SOURCE=MSDC
##XUNITS=M/Z
##YUNITS=RELATIVE INTENSITY
##XFACTOR=1
##YFACTOR=1
##FIRSTX=27
##LASTX=115
##FIRSTY=1610
##MAXX=115
##MINX=27
##MAXY=9999
##MINY=90
##NPOINTS=40
##PEAK TABLE=(XY..XY)
27,1610 29,1000 30,1220 31,290
39,1390 40,280 41,3890 42,5610
43,2280 44,5500 45,3000 46,540
53,250 54,270 55,1110 56,710
57,890 58,2890 59,2280 60,220
67,220 68,440 69,1060 70,380
71,1890 72,2830 73,640 82,160
84,140 85,5000 86,1060 87,110
96,200 97,140 98,9999 99,6440
100,90 113,2330 114,7210 115,1110
##END=
