##TITLE=Butanoic acid, 4-hydroxy-
##JCAMP-DX=4.24
##DATA TYPE=MASS SPECTRUM
##ORIGIN=Patti Price, Georgia Bureau of Investigation, Decatur, Georgia
##OWNER=NIST Mass Spectrometry Data Center
Collection (C) 2014 copyright by the U.S. Secretary of Commerce
on behalf of the United States of America. All rights reserved.
##CAS REGISTRY NO=591-81-1
##$NIST MASS SPEC NO=248930
##MOLFORM=C4 H8 O3
##MW=104
##$NIST SOURCE=MSDC
##XUNITS=M/Z
##YUNITS=RELATIVE INTENSITY
##XFACTOR=1
##YFACTOR=1
##FIRSTX=31
##LASTX=103
##FIRSTY=260
##MAXX=103
##MINX=31
##MAXY=9999
##MINY=20
##NPOINTS=34
##PEAK TABLE=(XY..XY)
31,260 32,60 34,20 36,60
37,320 38,460 39,1581 40,1151
41,4724 42,9999 43,640 44,270
45,130 49,20 51,20 52,40
53,180 54,80 55,950 56,3573
57,690 58,40 61,20 73,20
75,20 78,20 82,20 85,1221
86,4844 87,230 88,30 89,20
96,130 103,20
##END=
