##TITLE=Phenol, 3,5-dichloro-
##JCAMP-DX=4.24
##DATA TYPE=MASS SPECTRUM
##ORIGIN=Japan AIST/NIMC Database- Spectrum MS-NW-1278
##OWNER=NIST Mass Spectrometry Data Center
Collection (C) 2014 copyright by the U.S. Secretary of Commerce
on behalf of the United States of America. All rights reserved.
##CAS REGISTRY NO=591-35-5
##$NIST MASS SPEC NO=233457
##MOLFORM=C6 H4 Cl2 O
##MW=162
##$NIST SOURCE=MSDC
##XUNITS=M/Z
##YUNITS=RELATIVE INTENSITY
##XFACTOR=1
##YFACTOR=1
##FIRSTX=14
##LASTX=167
##FIRSTY=10
##MAXX=167
##MINX=14
##MAXY=9999
##MINY=10
##NPOINTS=101
##PEAK TABLE=(XY..XY)
14,10 18,20 25,30 26,50
27,20 28,139 29,99 31,159
32,20 35,40 36,109 37,379
38,429 39,289 41,10 42,30
43,10 44,20 45,40 46,20
47,60 48,129 49,499 50,269
51,70 52,10 53,329 54,20
55,20 56,10 57,10 60,159
61,519 62,829 63,2459 64,249
65,20 66,80 67,20 68,10
69,10 71,20 72,109 73,1039
74,249 75,339 76,30 77,10
81,369 82,229 83,99 84,80
85,70 86,20 87,119 88,10
89,90 90,40 91,159 92,50
95,10 96,40 97,179 98,1169
99,3089 100,549 101,1019 102,70
107,60 108,20 109,80 110,20
111,20 113,10 115,10 120,10
123,10 125,10 126,379 127,409
128,169 129,139 130,20 133,329
134,299 135,229 136,199 137,40
138,30 144,10 145,10 146,10
158,50 160,20 161,30 162,9999
163,669 164,6369 165,439 166,1059
167,70
##END=
