##TITLE=Cyclohexene, 1-methyl-
##JCAMP-DX=4.24
##DATA TYPE=MASS SPECTRUM
##ORIGIN=Japan AIST/NIMC Database- Spectrum MS-NW-9258
##OWNER=NIST Mass Spectrometry Data Center
Collection (C) 2014 copyright by the U.S. Secretary of Commerce
on behalf of the United States of America. All rights reserved.
##CAS REGISTRY NO=591-49-1
##$NIST MASS SPEC NO=231491
##MOLFORM=C7 H12
##MW=96
##$NIST SOURCE=MSDC
##XUNITS=M/Z
##YUNITS=RELATIVE INTENSITY
##XFACTOR=1
##YFACTOR=1
##FIRSTX=15
##LASTX=98
##FIRSTY=20
##MAXX=98
##MINX=15
##MAXY=9999
##MINY=10
##NPOINTS=55
##PEAK TABLE=(XY..XY)
15,20 26,40 27,639 28,109
29,399 30,10 37,20 38,80
39,1249 40,359 41,1069 42,189
43,70 44,10 45,60 46,80
47,10 50,129 51,329 52,179
53,1259 54,1569 55,2839 56,179
57,10 58,10 61,10 62,50
63,109 64,20 65,369 66,289
67,4159 68,3599 69,239 70,10
71,10 74,10 75,10 77,529
78,109 79,1139 80,179 81,9999
82,689 83,40 89,20 91,239
92,40 93,129 94,50 95,809
96,4139 97,399 98,20
##END=
