##TITLE=Propanoic acid, 1-methylpropyl ester
##JCAMP-DX=4.24
##DATA TYPE=MASS SPECTRUM
##OWNER=NIST Mass Spectrometry Data Center
Collection (C) 2014 copyright by the U.S. Secretary of Commerce
on behalf of the United States of America. All rights reserved.
##CAS REGISTRY NO=591-34-4
##$NIST MASS SPEC NO=2869
##MOLFORM=C7 H14 O2
##MW=130
##$NIST SOURCE=MSDC
##XUNITS=M/Z
##YUNITS=RELATIVE INTENSITY
##XFACTOR=1
##YFACTOR=1
##FIRSTX=15
##LASTX=131
##FIRSTY=60
##MAXX=131
##MINX=15
##MAXY=9999
##MINY=10
##NPOINTS=38
##PEAK TABLE=(XY..XY)
15,60 18,10 19,40 26,60
27,571 28,200 29,3213 30,100
31,90 39,230 40,40 41,1591
42,130 43,270 44,50 45,270
46,20 53,40 54,20 55,310
56,1902 57,9999 58,390 59,60
72,10 73,390 74,260 75,1091
76,50 86,140 87,110 101,1031
102,60 115,180 116,20 129,10
130,30 131,10
##END=
