##TITLE=2,3-Pentadiene
##JCAMP-DX=4.24
##DATA TYPE=MASS SPECTRUM
##OWNER=NIST Mass Spectrometry Data Center
Collection (C) 2014 copyright by the U.S. Secretary of Commerce
on behalf of the United States of America. All rights reserved.
##CAS REGISTRY NO=591-96-8
##$NIST MASS SPEC NO=210
##MOLFORM=C5 H8
##MW=68
##$NIST SOURCE=MSDC
##XUNITS=M/Z
##YUNITS=RELATIVE INTENSITY
##XFACTOR=1
##YFACTOR=1
##FIRSTX=1
##LASTX=70
##FIRSTY=280
##MAXX=70
##MINX=1
##MAXY=9999
##MINY=10
##NPOINTS=46
##PEAK TABLE=(XY..XY)
1,280 2,20 12,50 13,60
14,150 15,791 16,20 19,10
20,10 24,20 25,100 26,761
27,4104 28,550 29,440 30,20
31,791 32,190 33,110 36,90
37,701 38,1261 39,5865 40,2963
41,5025 42,1551 43,70 48,30
49,220 50,951 51,1161 52,540
53,6856 54,300 55,10 60,90
61,390 62,520 63,591 64,100
65,1531 66,1041 67,3113 68,9999
69,530 70,10
##END=
