##TITLE=Hexane, 2-methyl-
##JCAMP-DX=4.24
##DATA TYPE=MASS SPECTRUM
##ORIGIN=Japan AIST/NIMC Database- Spectrum MS-NW-4009
##OWNER=NIST Mass Spectrometry Data Center
Collection (C) 2014 copyright by the U.S. Secretary of Commerce
on behalf of the United States of America. All rights reserved.
##CAS REGISTRY NO=591-76-4
##$NIST MASS SPEC NO=231737
##MOLFORM=C7 H16
##MW=100
##$NIST SOURCE=MSDC
##XUNITS=M/Z
##YUNITS=RELATIVE INTENSITY
##XFACTOR=1
##YFACTOR=1
##FIRSTX=15
##LASTX=101
##FIRSTY=80
##MAXX=101
##MINX=15
##MAXY=9999
##MINY=10
##NPOINTS=39
##PEAK TABLE=(XY..XY)
15,80 26,60 27,1139 28,90
29,1459 30,30 37,10 38,50
39,749 40,139 41,3049 42,3519
43,9999 44,319 50,30 51,50
52,20 53,119 54,30 55,509
56,2099 57,2929 58,129 59,20
63,10 65,10 67,30 69,109
70,159 71,219 72,10 77,10
78,10 84,499 85,3699 86,259
99,10 100,299 101,20
##END=
