##TITLE=4-Pentenoic acid
##JCAMP-DX=4.24
##DATA TYPE=MASS SPECTRUM
##ORIGIN=Japan AIST/NIMC Database- Spectrum MS-NW-5391
##OWNER=NIST Mass Spectrometry Data Center
Collection (C) 2014 copyright by the U.S. Secretary of Commerce
on behalf of the United States of America. All rights reserved.
##CAS REGISTRY NO=591-80-0
##$NIST MASS SPEC NO=231213
##MOLFORM=C5 H8 O2
##MW=100
##$NIST SOURCE=MSDC
##XUNITS=M/Z
##YUNITS=RELATIVE INTENSITY
##XFACTOR=1
##YFACTOR=1
##FIRSTX=14
##LASTX=101
##FIRSTY=99
##MAXX=101
##MINX=14
##MAXY=9999
##MINY=10
##NPOINTS=62
##PEAK TABLE=(XY..XY)
14,99 15,219 17,30 18,119
25,40 26,799 27,3859 28,1699
29,3659 30,179 31,259 32,10
37,209 38,419 39,4339 40,479
41,5199 42,899 43,2949 44,419
45,1229 46,99 47,60 49,149
50,509 51,589 52,249 53,1589
54,4069 55,9999 56,2009 57,1289
58,2469 59,129 60,1019 61,40
67,169 68,90 69,80 70,80
71,239 72,199 73,569 74,10
77,70 79,129 80,129 81,339
82,1259 83,489 84,40 85,249
86,10 93,40 94,99 95,259
96,20 97,119 98,99 99,469
100,2179 101,159
##END=
