##TITLE=Benzene, iodo-
##JCAMP-DX=4.24
##DATA TYPE=MASS SPECTRUM
##ORIGIN=Chuck Anderson, Aldrich Chemical Co.
##OWNER=NIST Mass Spectrometry Data Center
Collection (C) 2014 copyright by the U.S. Secretary of Commerce
on behalf of the United States of America. All rights reserved.
##CAS REGISTRY NO=591-50-4
##$NIST MASS SPEC NO=107742
##MOLFORM=C6 H5 I
##MW=204
##$NIST SOURCE=MSDC
##XUNITS=M/Z
##YUNITS=RELATIVE INTENSITY
##XFACTOR=1
##YFACTOR=1
##FIRSTX=25
##LASTX=206
##FIRSTY=15
##MAXX=206
##MINX=25
##MAXY=9999
##MINY=5
##NPOINTS=39
##PEAK TABLE=(XY..XY)
25,15 26,69 27,270 28,7
36,44 37,302 38,342 39,290
40,7 48,15 49,212 50,1783
51,2754 52,119 60,11 61,44
62,51 63,11 72,13 73,204
74,835 75,433 76,513 77,9999
78,696 79,17 127,732 128,32
139,8 152,38 153,5 164,8
165,5 176,18 177,5 203,13
204,7451 205,445 206,9
##END=
