##TITLE=Benzaldehyde, 3-methoxy-
##JCAMP-DX=4.24
##DATA TYPE=MASS SPECTRUM
##ORIGIN=Japan AIST/NIMC Database- Spectrum MS-NW- 750
##OWNER=NIST Mass Spectrometry Data Center
Collection (C) 2014 copyright by the U.S. Secretary of Commerce
on behalf of the United States of America. All rights reserved.
##CAS REGISTRY NO=591-31-1
##$NIST MASS SPEC NO=228630
##MOLFORM=C8 H8 O2
##MW=136
##$NIST SOURCE=MSDC
##XUNITS=M/Z
##YUNITS=RELATIVE INTENSITY
##XFACTOR=1
##YFACTOR=1
##FIRSTX=14
##LASTX=138
##FIRSTY=10
##MAXX=138
##MINX=14
##MAXY=9999
##MINY=10
##NPOINTS=66
##PEAK TABLE=(XY..XY)
14,10 15,90 17,20 18,70
26,30 27,99 28,109 29,229
31,30 32,10 37,159 38,449
39,1029 40,40 41,30 42,20
43,20 49,80 50,679 51,819
52,119 53,139 54,10 55,20
56,10 57,20 60,20 61,129
62,329 63,1039 64,1029 65,1639
66,119 67,30 68,40 73,80
74,309 75,239 76,429 77,2989
78,769 79,359 80,30 85,20
86,10 89,20 91,70 92,1469
93,279 94,20 104,40 105,309
106,119 107,3369 108,479 109,50
119,80 120,40 121,50 122,10
133,20 134,50 135,8799 136,9999
137,899 138,99
##END=
