##TITLE=Acetamide, N-(aminocarbonyl)-
##JCAMP-DX=4.24
##DATA TYPE=MASS SPECTRUM
##ORIGIN=Japan AIST/NIMC Database- Spectrum MS-NW-5013
##OWNER=NIST Mass Spectrometry Data Center
Collection (C) 2014 copyright by the U.S. Secretary of Commerce
on behalf of the United States of America. All rights reserved.
##CAS REGISTRY NO=591-07-1
##$NIST MASS SPEC NO=230115
##MOLFORM=C3 H6 N2 O2
##MW=102
##$NIST SOURCE=MSDC
##XUNITS=M/Z
##YUNITS=RELATIVE INTENSITY
##XFACTOR=1
##YFACTOR=1
##FIRSTX=12
##LASTX=102
##FIRSTY=139
##MAXX=102
##MINX=12
##MAXY=9999
##MINY=10
##NPOINTS=37
##PEAK TABLE=(XY..XY)
12,139 13,139 14,589 15,2019
16,909 17,1159 18,60 24,30
25,50 26,189 27,319 28,1019
29,939 30,109 31,199 32,119
34,10 38,299 39,479 40,1229
41,2279 42,2639 43,9999 44,3859
45,80 46,10 54,40 56,30
59,3679 60,129 61,50 70,1129
71,30 74,70 85,309 86,10
102,139
##END=
