##TITLE=2-Hexanone
##JCAMP-DX=4.24
##DATA TYPE=MASS SPECTRUM
##ORIGIN=NIST Mass Spectrometry Data Center
##OWNER=NIST Mass Spectrometry Data Center
Collection (C) 2014 copyright by the U.S. Secretary of Commerce
on behalf of the United States of America. All rights reserved.
##CAS REGISTRY NO=591-78-6
##$NIST MASS SPEC NO=341357
##MOLFORM=C6 H12 O
##MW=100
##$NIST SOURCE=MSDC
##XUNITS=M/Z
##YUNITS=RELATIVE INTENSITY
##XFACTOR=1
##YFACTOR=1
##FIRSTX=14
##LASTX=101
##FIRSTY=20
##MAXX=101
##MINX=14
##MAXY=9999
##MINY=10
##NPOINTS=41
##PEAK TABLE=(XY..XY)
14,20 15,190 26,140 27,901
28,240 29,1161 30,30 31,30
37,30 38,110 39,1061 40,120
41,2152 42,661 43,9999 44,250
45,80 49,10 50,110 51,130
52,40 53,180 54,40 55,360
56,130 57,2632 58,6646 59,400
60,20 62,10 63,10 65,10
67,30 69,10 71,841 72,150
83,10 85,1191 86,60 100,1611
101,140
##END=
