##TITLE=Pyrazine, 2,3-dimethyl-
##JCAMP-DX=4.24
##DATA TYPE=MASS SPECTRUM
##ORIGIN=NIST Mass Spectrometry Data Center, 1990.
##OWNER=NIST Mass Spectrometry Data Center
Collection (C) 2014 copyright by the U.S. Secretary of Commerce
on behalf of the United States of America. All rights reserved.
##CAS REGISTRY NO=5910-89-4
##$NIST MASS SPEC NO=118520
##MOLFORM=C6 H8 N2
##MW=108
##$NIST SOURCE=MSDC
##XUNITS=M/Z
##YUNITS=RELATIVE INTENSITY
##XFACTOR=1
##YFACTOR=1
##FIRSTX=12
##LASTX=110
##FIRSTY=31
##MAXX=110
##MINX=12
##MAXY=9999
##MINY=3
##NPOINTS=48
##PEAK TABLE=(XY..XY)
12,31 13,25 14,113 15,443
16,5 18,23 26,1798 27,1316
28,799 29,23 32,3 36,39
37,360 38,683 39,1722 40,3102
41,1764 42,2333 43,77 48,40
49,125 50,569 51,864 52,1025
53,626 54,301 55,35 63,86
64,232 65,161 66,919 67,9999
68,532 76,35 77,23 78,30
79,58 80,139 81,134 82,29
92,44 93,334 94,40 96,21
106,56 108,9070 109,720 110,29
##END=
