##TITLE=Nonane, 3-methyl-
##JCAMP-DX=4.24
##DATA TYPE=MASS SPECTRUM
##ORIGIN=Japan AIST/NIMC Database- Spectrum MS-NW-4605
##OWNER=NIST Mass Spectrometry Data Center
Collection (C) 2014 copyright by the U.S. Secretary of Commerce
on behalf of the United States of America. All rights reserved.
##CAS REGISTRY NO=5911-04-6
##$NIST MASS SPEC NO=227579
##MOLFORM=C10 H22
##MW=142
##$NIST SOURCE=MSDC
##XUNITS=M/Z
##YUNITS=RELATIVE INTENSITY
##XFACTOR=1
##YFACTOR=1
##FIRSTX=15
##LASTX=143
##FIRSTY=30
##MAXX=143
##MINX=15
##MAXY=9999
##MINY=10
##NPOINTS=50
##PEAK TABLE=(XY..XY)
15,30 26,40 27,849 28,90
29,1859 30,40 38,20 39,559
40,90 41,2759 42,559 43,5019
44,169 50,10 51,40 52,10
53,139 54,60 55,959 56,3169
57,9999 58,449 59,10 65,20
66,10 67,50 68,30 69,319
70,539 71,5919 72,349 73,10
77,10 81,10 82,60 83,249
84,379 85,549 86,40 97,40
98,70 99,30 112,1259 113,1199
114,109 126,20 127,60 128,10
142,90 143,10
##END=
