##TITLE=Butanenitrile, 4-(methylthio)-
##JCAMP-DX=4.24
##DATA TYPE=MASS SPECTRUM
##ORIGIN=DR. C. C. VAN DE SANDE, STATE UNIVERSITY OF GENT, BELGIUM
##OWNER=NIST Mass Spectrometry Data Center
Collection (C) 2014 copyright by the U.S. Secretary of Commerce
on behalf of the United States of America. All rights reserved.
##CAS REGISTRY NO=59121-24-3
##$NIST MASS SPEC NO=51994
##MOLFORM=C5 H9 N S
##MW=115
##$NIST SOURCE=MSDC
##XUNITS=M/Z
##YUNITS=RELATIVE INTENSITY
##XFACTOR=1
##YFACTOR=1
##FIRSTX=33
##LASTX=117
##FIRSTY=100
##MAXX=117
##MINX=33
##MAXY=9999
##MINY=40
##NPOINTS=49
##PEAK TABLE=(XY..XY)
33,100 34,180 35,1050 36,70
37,330 38,370 39,1400 40,900
41,3400 42,330 43,130 44,4500
45,2450 46,1300 47,2000 48,1600
49,410 50,200 51,210 52,250
53,130 54,1500 55,140 56,50
57,130 58,400 59,500 60,200
61,9999 62,2300 63,500 64,230
65,70 66,300 67,200 68,1050
69,250 71,100 72,100 73,270
74,850 75,800 76,100 87,90
88,60 114,40 115,2900 116,220
117,160
##END=
