##TITLE=Haloxazolam
##JCAMP-DX=4.24
##DATA TYPE=MASS SPECTRUM
##ORIGIN=Patti Price, Georgia Bureau of Investigation, Decatur, Georgia
##OWNER=NIST Mass Spectrometry Data Center
Collection (C) 2014 copyright by the U.S. Secretary of Commerce
on behalf of the United States of America. All rights reserved.
##CAS REGISTRY NO=59128-97-1
##$NIST MASS SPEC NO=248206
##MOLFORM=C17 H14 Br F N2 O2
##MW=376
##$NIST SOURCE=MSDC
##XUNITS=M/Z
##YUNITS=RELATIVE INTENSITY
##XFACTOR=1
##YFACTOR=1
##FIRSTX=32
##LASTX=379
##FIRSTY=90
##MAXX=379
##MINX=32
##MAXY=9999
##MINY=10
##NPOINTS=258
##PEAK TABLE=(XY..XY)
32,90 39,160 40,70 41,1221
42,420 43,620 44,60 45,90
50,70 51,100 52,80 53,190
54,180 55,740 56,1421 57,730
58,20 60,260 61,70 62,80
63,310 64,80 65,80 66,30
67,590 68,480 69,3172 70,300
71,260 72,20 73,380 74,150
75,750 76,150 77,270 78,60
79,310 80,130 81,1621 82,280
83,440 84,160 85,200 86,50
87,150 88,100 89,130 90,140
91,320 92,120 93,430 94,250
95,1621 96,310 97,280 98,170
99,160 100,80 101,130 102,120
103,170 104,90 105,180 106,60
107,340 108,130 109,510 110,110
111,210 112,70 113,60 114,40
115,110 116,80 117,130 118,100
119,270 120,140 121,430 122,160
123,1971 124,230 125,120 126,60
127,60 128,40 129,260 130,130
131,160 132,150 133,200 134,170
135,320 136,440 137,460 138,130
139,70 140,40 141,40 142,40
143,150 144,170 145,190 146,110
147,140 149,430 150,190 151,130
152,70 153,30 154,30 155,120
156,60 157,290 158,160 159,70
161,120 162,90 163,130 164,140
165,110 166,420 167,90 168,260
169,230 170,440 171,210 172,110
173,80 174,70 175,160 176,110
177,160 178,110 179,50 180,60
181,90 182,180 183,170 184,280
185,250 186,40 187,20 188,20
189,90 190,60 191,120 192,100
193,50 194,80 195,200 196,210
197,280 198,200 199,140 200,100
201,40 202,440 203,150 204,50
205,120 206,2011 207,310 208,110
209,230 210,410 211,630 212,380
213,320 214,40 215,20 218,60
219,70 220,50 221,30 222,60
223,140 224,410 225,110 226,440
227,90 228,80 231,50 235,10
236,50 237,190 238,80 239,110
241,20 242,40 243,30 248,20
250,10 251,40 252,10 253,400
254,100 255,530 256,240 257,60
258,20 260,20 264,30 265,20
266,30 268,10 270,30 273,50
274,20 275,40 276,50 277,20
278,50 279,10 281,9999 282,1321
283,9678 284,1181 285,120 286,20
289,30 290,80 291,50 292,110
293,40 294,40 297,40 298,10
299,70 300,40 301,50 302,30
303,140 304,60 305,150 306,40
317,60 318,30 319,70 320,50
326,20 327,260 328,80 329,270
330,40 333,20 334,20 335,20
341,60 345,490 346,260 347,530
348,240 349,70 376,480 377,130
378,480 379,90
##END=
