##TITLE=Terbuthylazine
##JCAMP-DX=4.24
##DATA TYPE=MASS SPECTRUM
##ORIGIN=Humboldt-Universitat zu Berlin, Department of Chemistry, Analytical Group
##OWNER=NIST Mass Spectrometry Data Center
Collection (C) 2014 copyright by the U.S. Secretary of Commerce
on behalf of the United States of America. All rights reserved.
##CAS REGISTRY NO=5915-41-3
##$NIST MASS SPEC NO=287319
##MOLFORM=C9 H16 Cl N5
##MW=229
##$NIST SOURCE=MSDC
##XUNITS=M/Z
##YUNITS=RELATIVE INTENSITY
##XFACTOR=1
##YFACTOR=1
##FIRSTX=12
##LASTX=232
##FIRSTY=38
##MAXX=232
##MINX=12
##MAXY=9999
##MINY=21
##NPOINTS=167
##PEAK TABLE=(XY..XY)
12,38 13,31 14,93 15,1050
16,93 17,773 18,3176 26,221
27,2154 28,2237 29,4682 30,1198
31,35 32,35 35,28 36,86
37,35 38,93 39,1512 40,459
41,4792 42,3342 43,5497 44,2693
45,114 49,38 50,31 51,62
52,73 53,632 54,325 55,1830
56,867 57,1536 58,490 59,41
60,24 62,939 63,38 64,304
65,31 66,73 67,508 68,4392
69,1340 70,380 71,2907 72,148
73,38 74,55 76,41 77,45
78,104 79,414 80,197 81,304
82,249 83,2141 84,200 85,76
87,566 88,93 89,207 90,235
91,915 92,142 93,936 94,356
95,394 96,2058 97,280 98,59
100,1740 101,587 102,55 103,90
104,1892 105,255 106,646 107,383
108,487 109,135 110,691 111,228
112,41 113,28 114,28 115,24
116,117 117,41 118,62 119,936
120,73 121,394 122,176 123,207
124,59 125,45 128,24 129,238
130,376 131,228 132,3515 133,259
134,1112 135,110 136,1371 137,356
138,2935 139,242 143,38 144,249
145,1391 146,432 147,463 148,162
149,31 150,131 151,48 152,52
153,31 155,45 156,41 157,131
158,1443 159,169 160,494 161,55
162,31 164,28 166,31 169,45
170,62 171,100 172,1702 173,5856
174,1671 175,1940 176,438 177,31
178,266 179,66 184,69 185,21
186,359 187,193 188,131 189,66
194,35 197,48 198,117 199,38
200,117 201,93 202,35 203,35
212,207 214,9999 215,1115 216,3259
217,338 218,24 228,59 229,2679
230,363 231,818 232,114
##END=
