##TITLE=Butane, 1-isothiocyanato-
##JCAMP-DX=4.24
##DATA TYPE=MASS SPECTRUM
##ORIGIN=Japan AIST/NIMC Database- Spectrum MS-NW-1121
##OWNER=NIST Mass Spectrometry Data Center
Collection (C) 2014 copyright by the U.S. Secretary of Commerce
on behalf of the United States of America. All rights reserved.
##CAS REGISTRY NO=592-82-5
##$NIST MASS SPEC NO=233600
##MOLFORM=C5 H9 N S
##MW=115
##$NIST SOURCE=MSDC
##XUNITS=M/Z
##YUNITS=RELATIVE INTENSITY
##XFACTOR=1
##YFACTOR=1
##FIRSTX=14
##LASTX=118
##FIRSTY=30
##MAXX=118
##MINX=14
##MAXY=9999
##MINY=10
##NPOINTS=73
##PEAK TABLE=(XY..XY)
14,30 15,149 17,20 18,90
25,10 26,349 27,3129 28,529
29,7339 30,339 32,129 33,30
34,30 37,70 38,169 39,1699
40,309 41,8549 42,399 43,1019
44,339 45,979 46,219 47,60
48,10 49,20 50,99 51,139
52,70 53,189 54,219 55,979
56,3199 57,5139 58,269 59,929
60,679 61,50 62,40 63,20
64,20 67,20 68,20 69,20
70,179 71,239 72,4279 73,999
74,379 75,50 76,30 78,10
80,10 81,40 82,529 83,30
84,80 85,80 86,549 87,119
88,30 90,10 97,20 98,60
100,569 101,30 102,30 113,30
114,1559 115,9999 116,749 117,469
118,30
##END=
