##TITLE=Acetaldehyde, ethylidenehydrazone
##JCAMP-DX=4.24
##DATA TYPE=MASS SPECTRUM
##OWNER=NIST Mass Spectrometry Data Center
Collection (C) 2014 copyright by the U.S. Secretary of Commerce
on behalf of the United States of America. All rights reserved.
##CAS REGISTRY NO=592-56-3
##$NIST MASS SPEC NO=527
##MOLFORM=C4 H8 N2
##MW=84
##$NIST SOURCE=MSDC
##XUNITS=M/Z
##YUNITS=RELATIVE INTENSITY
##XFACTOR=1
##YFACTOR=1
##FIRSTX=12
##LASTX=86
##FIRSTY=140
##MAXX=86
##MINX=12
##MAXY=9999
##MINY=10
##NPOINTS=46
##PEAK TABLE=(XY..XY)
12,140 13,220 14,591 15,5115
16,110 17,50 18,180 24,60
25,340 26,2682 27,3123 28,4984
29,420 30,200 31,20 37,10
38,210 39,390 40,851 41,1161
42,9999 43,701 44,220 45,10
49,10 50,10 51,30 52,30
53,60 54,70 55,150 56,641
57,180 58,40 66,10 67,10
68,60 69,4134 70,160 71,10
81,10 82,10 83,160 84,2512
85,130 86,10
##END=
