##TITLE=Silane, trichloro(3,3,3-trifluoropropyl)-
##JCAMP-DX=4.24
##DATA TYPE=MASS SPECTRUM
##ORIGIN=RADIAN CORP
##OWNER=NIST Mass Spectrometry Data Center
Collection (C) 2014 copyright by the U.S. Secretary of Commerce
on behalf of the United States of America. All rights reserved.
##CAS REGISTRY NO=592-09-6
##$NIST MASS SPEC NO=73272
##MOLFORM=C3 H4 Cl3 F3 Si
##MW=230
##$NIST SOURCE=MSDC
##XUNITS=M/Z
##YUNITS=RELATIVE INTENSITY
##XFACTOR=1
##YFACTOR=1
##FIRSTX=25
##LASTX=213
##FIRSTY=28
##MAXX=213
##MINX=25
##MAXY=9999
##MINY=14
##NPOINTS=91
##PEAK TABLE=(XY..XY)
25,28 26,374 27,942 28,554
29,83 31,402 33,360 35,194
36,42 37,111 38,111 39,928
40,69 42,28 44,55 45,125
46,55 47,568 48,55 49,263
50,208 51,1620 52,14 53,263
54,42 55,42 56,69 57,554
58,249 59,3628 60,55 63,291
64,429 65,1122 66,97 67,97
69,2714 73,42 75,845 76,22
82,83 83,69 84,14 85,42
87,14 88,55 89,14 90,28
95,69 96,138 98,1537 99,526
100,1053 101,457 102,208 103,97
109,28 111,28 112,97 113,14
114,69 117,997 118,55 119,665
120,28 121,125 123,125 125,138
126,28 127,42 129,14 131,42
133,9999 134,554 135,9833 136,360
137,3379 138,111 139,471 147,55
149,55 161,42 163,28 175,55
177,42 195,623 196,55 197,415
199,55 211,28 213,28
##END=
