##TITLE=Propane, 1,1'-thiobis[2-methyl-
##JCAMP-DX=4.24
##DATA TYPE=MASS SPECTRUM
##ORIGIN=Japan AIST/NIMC Database- Spectrum MS-NW-3129
##OWNER=NIST Mass Spectrometry Data Center
Collection (C) 2014 copyright by the U.S. Secretary of Commerce
on behalf of the United States of America. All rights reserved.
##CAS REGISTRY NO=592-65-4
##$NIST MASS SPEC NO=229268
##MOLFORM=C8 H18 S
##MW=146
##$NIST SOURCE=MSDC
##XUNITS=M/Z
##YUNITS=RELATIVE INTENSITY
##XFACTOR=1
##YFACTOR=1
##FIRSTX=15
##LASTX=149
##FIRSTY=50
##MAXX=149
##MINX=15
##MAXY=9999
##MINY=10
##NPOINTS=70
##PEAK TABLE=(XY..XY)
15,50 18,10 26,30 27,739
28,70 29,1919 30,40 32,20
34,10 35,30 37,10 38,30
39,799 40,90 41,2759 42,189
43,809 44,30 45,389 46,269
47,799 48,179 49,99 50,20
51,30 52,10 53,129 54,50
55,1229 56,4649 57,9999 58,449
59,129 60,109 61,1589 62,119
63,70 67,10 69,449 70,50
71,40 72,10 73,60 74,60
75,409 76,20 77,20 85,10
87,40 88,159 89,449 90,759
91,419 92,50 93,20 103,4329
104,329 105,209 106,10 117,529
118,40 119,20 122,10 131,169
132,10 145,40 146,3049 147,289
148,139 149,10
##END=
