##TITLE=1,3-Cyclohexadiene
##JCAMP-DX=4.24
##DATA TYPE=MASS SPECTRUM
##ORIGIN=NIST Mass Spectrometry Data Center, 1990.
##OWNER=NIST Mass Spectrometry Data Center
Collection (C) 2014 copyright by the U.S. Secretary of Commerce
on behalf of the United States of America. All rights reserved.
##CAS REGISTRY NO=592-57-4
##$NIST MASS SPEC NO=118700
##MOLFORM=C6 H8
##MW=80
##$NIST SOURCE=MSDC
##XUNITS=M/Z
##YUNITS=RELATIVE INTENSITY
##XFACTOR=1
##YFACTOR=1
##FIRSTX=15
##LASTX=81
##FIRSTY=82
##MAXX=81
##MINX=15
##MAXY=9999
##MINY=26
##NPOINTS=33
##PEAK TABLE=(XY..XY)
15,82 25,67 26,405 27,1121
28,109 29,31 36,39 37,314
38,563 39,1995 40,325 41,264
49,270 50,1398 51,1785 52,1023
53,557 54,217 61,55 62,122
63,322 64,64 65,552 66,26
73,144 74,285 75,72 76,26
77,4484 78,1221 79,9999 80,4472
81,265
##END=
