##TITLE=1,4-Hexadiene
##JCAMP-DX=4.24
##DATA TYPE=MASS SPECTRUM
##ORIGIN=M. IWAMOTO TOYO RAYON CO., SONOYANA, OTSU, SHIGA-KEN, JAPAN
##OWNER=NIST Mass Spectrometry Data Center
Collection (C) 2014 copyright by the U.S. Secretary of Commerce
on behalf of the United States of America. All rights reserved.
##CAS REGISTRY NO=592-45-0
##$NIST MASS SPEC NO=444
##MOLFORM=C6 H10
##MW=82
##$NIST SOURCE=MSDC
##XUNITS=M/Z
##YUNITS=RELATIVE INTENSITY
##XFACTOR=1
##YFACTOR=1
##FIRSTX=12
##LASTX=84
##FIRSTY=18
##MAXX=84
##MINX=12
##MAXY=9999
##MINY=2
##NPOINTS=56
##PEAK TABLE=(XY..XY)
12,18 13,25 14,72 15,338
16,17 24,7 25,87 26,706
27,3350 28,732 29,909 30,22
31,22 32,7 36,28 37,393
38,737 39,5630 40,834 41,5090
42,638 43,105 44,29 48,22
49,161 50,812 51,1008 52,461
53,1930 54,2190 55,1222 56,153
57,7 60,19 61,85 62,125
63,261 64,79 65,1160 66,385
67,9999 68,559 69,16 72,2
73,36 74,96 75,65 76,18
77,431 78,104 79,788 80,159
81,1072 82,4150 83,274 84,11
##END=
