##TITLE=Heptane, 2-methyl-
##JCAMP-DX=4.24
##DATA TYPE=MASS SPECTRUM
##ORIGIN=Japan AIST/NIMC Database- Spectrum MS-NW-4071
##OWNER=NIST Mass Spectrometry Data Center
Collection (C) 2014 copyright by the U.S. Secretary of Commerce
on behalf of the United States of America. All rights reserved.
##CAS REGISTRY NO=592-27-8
##$NIST MASS SPEC NO=230535
##MOLFORM=C8 H18
##MW=114
##$NIST SOURCE=MSDC
##XUNITS=M/Z
##YUNITS=RELATIVE INTENSITY
##XFACTOR=1
##YFACTOR=1
##FIRSTX=15
##LASTX=115
##FIRSTY=80
##MAXX=115
##MINX=15
##MAXY=9999
##MINY=10
##NPOINTS=40
##PEAK TABLE=(XY..XY)
15,80 26,60 27,1269 28,50
29,1679 30,40 37,10 38,40
39,869 40,169 41,3049 42,3959
43,9999 44,349 50,30 51,60
52,20 53,139 54,60 55,1089
56,799 57,8609 58,409 63,10
65,20 67,40 68,10 69,139
70,1949 71,1499 72,80 83,10
84,70 85,179 86,10 98,409
99,1489 100,129 114,409 115,40
##END=
