##TITLE=3-Heptene
##JCAMP-DX=4.24
##DATA TYPE=MASS SPECTRUM
##ORIGIN=Japan AIST/NIMC Database- Spectrum MS-NW-3106
##OWNER=NIST Mass Spectrometry Data Center
Collection (C) 2014 copyright by the U.S. Secretary of Commerce
on behalf of the United States of America. All rights reserved.
##CAS REGISTRY NO=592-78-9
##$NIST MASS SPEC NO=231710
##MOLFORM=C7 H14
##MW=98
##$NIST SOURCE=MSDC
##XUNITS=M/Z
##YUNITS=RELATIVE INTENSITY
##XFACTOR=1
##YFACTOR=1
##FIRSTX=15
##LASTX=100
##FIRSTY=99
##MAXX=100
##MINX=15
##MAXY=9999
##MINY=10
##NPOINTS=55
##PEAK TABLE=(XY..XY)
15,99 26,139 27,1759 28,229
29,1449 30,50 31,20 37,40
38,139 39,1929 40,359 41,9999
42,1899 43,1469 44,50 45,10
49,10 50,119 51,239 52,99
53,699 54,639 55,5519 56,7919
57,949 58,50 59,20 61,20
62,30 63,60 64,10 65,119
66,50 67,529 68,339 69,5839
70,1559 71,169 72,50 73,10
74,10 77,60 78,10 79,80
80,10 81,139 82,20 83,429
84,30 95,10 96,30 97,70
98,3609 99,289 100,20
##END=
