##TITLE=1,5-Hexadiene
##JCAMP-DX=4.24
##DATA TYPE=MASS SPECTRUM
##ORIGIN=Japan AIST/NIMC Database- Spectrum MS-NW-1213
##OWNER=NIST Mass Spectrometry Data Center
Collection (C) 2014 copyright by the U.S. Secretary of Commerce
on behalf of the United States of America. All rights reserved.
##CAS REGISTRY NO=592-42-7
##$NIST MASS SPEC NO=227588
##MOLFORM=C6 H10
##MW=82
##$NIST SOURCE=MSDC
##XUNITS=M/Z
##YUNITS=RELATIVE INTENSITY
##XFACTOR=1
##YFACTOR=1
##FIRSTX=14
##LASTX=84
##FIRSTY=20
##MAXX=84
##MINX=14
##MAXY=9999
##MINY=10
##NPOINTS=46
##PEAK TABLE=(XY..XY)
14,20 15,169 25,10 26,289
27,1769 28,339 29,509 30,10
31,20 32,40 37,149 38,379
39,5199 40,559 41,9989 42,579
43,90 44,40 49,40 50,339
51,459 52,229 53,949 54,5879
55,569 56,80 57,30 61,20
62,30 63,70 65,339 66,169
67,9999 68,559 69,30 73,20
74,40 75,20 77,209 78,40
79,319 80,50 81,789 82,149
83,10 84,10
##END=
