##TITLE=1H-Pyrazole, 3-ethyl-4,5-dihydro-
##JCAMP-DX=4.24
##DATA TYPE=MASS SPECTRUM
##ORIGIN=ATLAS OF MASS SPECTRA OF ORGANIC COMPOUNDS, V. A. KOPTYUG, ED.
##OWNER=NIST Mass Spectrometry Data Center
Collection (C) 2014 copyright by the U.S. Secretary of Commerce
on behalf of the United States of America. All rights reserved.
##CAS REGISTRY NO=5920-29-6
##$NIST MASS SPEC NO=64557
##MOLFORM=C5 H10 N2
##MW=98
##$NIST SOURCE=MSDC
##XUNITS=M/Z
##YUNITS=RELATIVE INTENSITY
##XFACTOR=1
##YFACTOR=1
##FIRSTX=26
##LASTX=99
##FIRSTY=410
##MAXX=99
##MINX=26
##MAXY=9999
##MINY=190
##NPOINTS=32
##PEAK TABLE=(XY..XY)
26,410 27,2310 28,3850 29,2020
30,960 38,260 39,1730 40,380
41,5000 42,4130 43,860 44,210
51,190 52,210 53,570 54,1060
55,1250 56,770 57,330 67,230
68,540 69,3460 70,1250 81,350
82,320 83,9999 84,530 95,360
96,220 97,3650 98,7020 99,440
##END=
