##TITLE=1-Ethylpentyl acetate
##JCAMP-DX=4.24
##DATA TYPE=MASS SPECTRUM
##ORIGIN=NIST Mass Spectrometry Data Center, 2010
##OWNER=NIST Mass Spectrometry Data Center
Collection (C) 2014 copyright by the U.S. Secretary of Commerce
on behalf of the United States of America. All rights reserved.
##CAS REGISTRY NO=5921-83-5
##$NIST MASS SPEC NO=417280
##MOLFORM=C9 H18 O2
##MW=158
##$NIST SOURCE=MSDC
##XUNITS=M/Z
##YUNITS=RELATIVE INTENSITY
##XFACTOR=1
##YFACTOR=1
##FIRSTX=14
##LASTX=140
##FIRSTY=10
##MAXX=140
##MINX=14
##MAXY=9999
##MINY=10
##NPOINTS=62
##PEAK TABLE=(XY..XY)
14,10 15,80 26,40 27,480
28,110 29,701 30,30 31,90
39,500 40,90 41,1401 42,470
43,9999 44,390 45,120 50,20
51,50 52,20 53,170 54,170
55,1031 56,1471 57,1331 58,460
59,400 61,380 62,10 63,10
65,30 66,10 67,120 68,130
69,1461 70,941 71,120 72,80
73,350 74,20 77,20 79,20
81,30 82,10 83,230 84,20
85,210 86,40 87,90 96,10
97,70 98,2032 99,180 100,140
101,4514 102,250 114,20 115,180
116,300 117,20 129,3813 130,300
131,30 140,10
##END=
