##TITLE=Benzenecarbothioic acid, S-methyl ester
##JCAMP-DX=4.24
##DATA TYPE=MASS SPECTRUM
##OWNER=NIST Mass Spectrometry Data Center
Collection (C) 2014 copyright by the U.S. Secretary of Commerce
on behalf of the United States of America. All rights reserved.
##CAS REGISTRY NO=5925-68-8
##$NIST MASS SPEC NO=4914
##MOLFORM=C8 H8 O S
##MW=152
##$NIST SOURCE=MSDC
##XUNITS=M/Z
##YUNITS=RELATIVE INTENSITY
##XFACTOR=1
##YFACTOR=1
##FIRSTX=28
##LASTX=154
##FIRSTY=631
##MAXX=154
##MINX=28
##MAXY=9999
##MINY=30
##NPOINTS=42
##PEAK TABLE=(XY..XY)
28,631 31,30 32,150 37,100
38,130 39,250 45,530 46,180
47,340 49,120 50,1271 51,2933
52,180 53,60 61,60 62,90
63,90 65,130 69,130 73,100
74,480 75,370 76,400 77,6376
78,470 79,40 82,40 91,40
93,40 95,40 104,60 105,9999
106,811 107,70 108,90 109,130
121,40 125,60 151,100 152,1461
153,150 154,90
##END=
