##TITLE=Methane, bromochlorofluoro-
##JCAMP-DX=4.24
##DATA TYPE=MASS SPECTRUM
##OWNER=NIST Mass Spectrometry Data Center
Collection (C) 2014 copyright by the U.S. Secretary of Commerce
on behalf of the United States of America. All rights reserved.
##CAS REGISTRY NO=593-98-6
##$NIST MASS SPEC NO=4392
##MOLFORM=C H Br Cl F
##MW=146
##$NIST SOURCE=MSDC
##XUNITS=M/Z
##YUNITS=RELATIVE INTENSITY
##XFACTOR=1
##YFACTOR=1
##FIRSTX=12
##LASTX=150
##FIRSTY=340
##MAXX=150
##MINX=12
##MAXY=9999
##MINY=10
##NPOINTS=48
##PEAK TABLE=(XY..XY)
12,340 13,591 19,40 20,10
31,1151 32,941 35,550 36,60
37,170 38,20 47,771 48,781
49,240 50,240 63,10 64,10
65,10 66,160 67,9999 68,50
69,3203 79,791 80,60 81,761
82,60 91,190 92,100 93,190
94,100 110,60 111,921 112,60
113,891 114,30 116,30 118,10
126,30 127,120 128,30 129,150
130,10 131,40 145,40 146,360
147,50 148,470 149,10 150,110
##END=
