##TITLE=Heptacosane
##JCAMP-DX=4.24
##DATA TYPE=MASS SPECTRUM
##ORIGIN=Japan AIST/NIMC Database- Spectrum MS-NW-5892
##OWNER=NIST Mass Spectrometry Data Center
Collection (C) 2014 copyright by the U.S. Secretary of Commerce
on behalf of the United States of America. All rights reserved.
##CAS REGISTRY NO=593-49-7
##$NIST MASS SPEC NO=233087
##MOLFORM=C27 H56
##MW=380
##$NIST SOURCE=MSDC
##XUNITS=M/Z
##YUNITS=RELATIVE INTENSITY
##XFACTOR=1
##YFACTOR=1
##FIRSTX=15
##LASTX=382
##FIRSTY=10
##MAXX=382
##MINX=15
##MAXY=9999
##MINY=10
##NPOINTS=146
##PEAK TABLE=(XY..XY)
15,10 26,20 27,579 28,80
29,1899 30,40 38,10 39,349
40,90 41,3899 42,999 43,9099
44,279 45,10 51,20 52,10
53,179 54,299 55,3059 56,1449
57,9999 58,459 63,10 65,30
66,30 67,339 68,339 69,1679
70,1039 71,6089 72,359 73,10
74,10 75,10 77,20 79,50
80,20 81,149 82,329 83,1289
84,659 85,4159 86,279 87,20
91,10 93,10 94,10 95,60
96,209 97,1019 98,569 99,1749
100,129 109,30 110,109 111,499
112,549 113,1109 114,109 115,10
123,20 124,70 125,269 126,449
127,919 128,90 129,10 137,10
138,60 139,139 140,399 141,769
142,90 152,40 153,70 154,339
155,669 156,70 157,10 161,10
166,30 167,50 168,319 169,569
170,70 180,20 181,40 182,269
183,499 184,80 186,10 194,10
195,20 196,239 197,459 198,90
208,10 209,20 210,219 211,389
212,70 222,10 223,10 224,169
225,359 226,50 227,10 236,10
237,10 238,149 239,299 240,70
241,10 250,10 252,139 253,289
254,80 255,10 266,119 267,299
268,70 280,109 281,269 282,70
283,10 294,90 295,239 296,60
297,10 308,70 309,229 310,70
322,60 323,219 324,50 336,30
337,109 338,40 350,10 351,80
352,20 378,10 379,10 380,829
381,269 382,40
##END=
