##TITLE=Ethene, iodo-
##JCAMP-DX=4.24
##DATA TYPE=MASS SPECTRUM
##ORIGIN=NIST Mass Spectrometry Data Center, 1998.
##OWNER=NIST Mass Spectrometry Data Center
Collection (C) 2014 copyright by the U.S. Secretary of Commerce
on behalf of the United States of America. All rights reserved.
##CAS REGISTRY NO=593-66-8
##$NIST MASS SPEC NO=291931
##MOLFORM=C2 H3 I
##MW=154
##$NIST SOURCE=MSDC
##XUNITS=M/Z
##YUNITS=RELATIVE INTENSITY
##XFACTOR=1
##YFACTOR=1
##FIRSTX=12
##LASTX=155
##FIRSTY=10
##MAXX=155
##MINX=12
##MAXY=9999
##MINY=10
##NPOINTS=21
##PEAK TABLE=(XY..XY)
12,10 13,10 14,10 24,40
25,200 26,700 27,3750 28,80
63,40 77,100 127,4300 128,970
129,10 139,120 140,80 141,10
151,50 152,190 153,110 154,9999
155,230
##END=
