##TITLE=Vinyl bromide
##JCAMP-DX=4.24
##DATA TYPE=MASS SPECTRUM
##OWNER=NIST Mass Spectrometry Data Center
Collection (C) 2014 copyright by the U.S. Secretary of Commerce
on behalf of the United States of America. All rights reserved.
##CAS REGISTRY NO=593-60-2
##$NIST MASS SPEC NO=20069
##MOLFORM=C2 H3 Br
##MW=106
##$NIST SOURCE=MSDC
##XUNITS=M/Z
##YUNITS=RELATIVE INTENSITY
##XFACTOR=1
##YFACTOR=1
##FIRSTX=24
##LASTX=109
##FIRSTY=70
##MAXX=109
##MINX=24
##MAXY=9999
##MINY=40
##NPOINTS=22
##PEAK TABLE=(XY..XY)
24,70 25,490 26,1461 27,9999
28,280 52,130 54,110 79,681
80,270 81,691 82,230 91,180
92,40 93,180 94,40 103,100
104,290 105,440 106,9879 107,591
108,9268 109,70
##END=
