##TITLE=Ethyne, chloro-
##JCAMP-DX=4.24
##DATA TYPE=MASS SPECTRUM
##OWNER=NIST Mass Spectrometry Data Center
Collection (C) 2014 copyright by the U.S. Secretary of Commerce
on behalf of the United States of America. All rights reserved.
##CAS REGISTRY NO=593-63-5
##$NIST MASS SPEC NO=163
##MOLFORM=C2 H Cl
##MW=60
##$NIST SOURCE=MSDC
##XUNITS=M/Z
##YUNITS=RELATIVE INTENSITY
##XFACTOR=1
##YFACTOR=1
##FIRSTX=24
##LASTX=63
##FIRSTY=851
##MAXX=63
##MINX=24
##MAXY=9999
##MINY=10
##NPOINTS=19
##PEAK TABLE=(XY..XY)
24,851 25,2262 26,470 27,70
35,801 36,190 37,220 38,70
39,20 41,10 47,811 48,40
49,250 50,60 59,1281 60,9999
61,601 62,3173 63,50
##END=
