##TITLE=Guanidine carbonate
##JCAMP-DX=4.24
##DATA TYPE=MASS SPECTRUM
##ORIGIN=Japan AIST/NIMC Database- Spectrum MS-NW-4913
##OWNER=NIST Mass Spectrometry Data Center
Collection (C) 2014 copyright by the U.S. Secretary of Commerce
on behalf of the United States of America. All rights reserved.
##CAS REGISTRY NO=593-85-1
##$NIST MASS SPEC NO=230044
##MOLFORM=C3 H12 N6 O3
##MW=180
##$NIST SOURCE=MSDC
##XUNITS=M/Z
##YUNITS=RELATIVE INTENSITY
##XFACTOR=1
##YFACTOR=1
##FIRSTX=12
##LASTX=125
##FIRSTY=169
##MAXX=125
##MINX=12
##MAXY=9999
##MINY=10
##NPOINTS=46
##PEAK TABLE=(XY..XY)
12,169 13,259 14,119 15,80
16,569 17,969 18,109 26,60
27,269 28,1249 29,249 30,50
31,629 32,10 36,50 38,10
40,30 41,439 42,2889 43,9999
44,5629 45,70 46,30 55,30
56,10 57,60 58,10 59,7889
60,189 69,20 70,10 71,30
81,10 82,10 83,30 85,30
95,10 96,10 97,20 98,10
99,10 109,10 110,10 111,20
123,10 125,10
##END=
