##TITLE=Mercury, dimethyl-
##JCAMP-DX=4.24
##DATA TYPE=MASS SPECTRUM
##ORIGIN=NATIONAL BUREAU OF STANDARDS, WASHINGTON D.C., USA
##OWNER=NIST Mass Spectrometry Data Center
Collection (C) 2014 copyright by the U.S. Secretary of Commerce
on behalf of the United States of America. All rights reserved.
##CAS REGISTRY NO=593-74-8
##$NIST MASS SPEC NO=34446
##MOLFORM=C2 H6 Hg
##MW=232
##$NIST SOURCE=MSDC
##XUNITS=M/Z
##YUNITS=RELATIVE INTENSITY
##XFACTOR=1
##YFACTOR=1
##FIRSTX=13
##LASTX=234
##FIRSTY=464
##MAXX=234
##MINX=13
##MAXY=9999
##MINY=5
##NPOINTS=40
##PEAK TABLE=(XY..XY)
13,464 14,2080 15,9999 99,8
100,19 101,25 102,7 196,21
197,5 198,1262 199,2280 200,3152
201,1998 202,3951 203,433 204,864
205,99 210,86 211,363 212,906
213,4269 214,6540 215,8056 216,5286
217,9083 218,317 219,2071 220,7
223,5 224,6 225,9 226,49
227,65 228,1308 229,2153 230,2916
231,1689 232,3660 233,25 234,830
##END=
