##TITLE=Arsonous dichloride, methyl-
##JCAMP-DX=4.24
##DATA TYPE=MASS SPECTRUM
##ORIGIN=A.A.Kutin, Moscow, Russia
##OWNER=NIST Mass Spectrometry Data Center
Collection (C) 2014 copyright by the U.S. Secretary of Commerce
on behalf of the United States of America. All rights reserved.
##CAS REGISTRY NO=593-89-5
##$NIST MASS SPEC NO=273384
##MOLFORM=C H3 As Cl2
##MW=160
##$NIST SOURCE=MSDC
##XUNITS=M/Z
##YUNITS=RELATIVE INTENSITY
##XFACTOR=1
##YFACTOR=1
##FIRSTX=36
##LASTX=164
##FIRSTY=3563
##MAXX=164
##MINX=36
##MAXY=9999
##MINY=200
##NPOINTS=18
##PEAK TABLE=(XY..XY)
36,3563 38,1281 75,500 88,1001
89,2913 110,2402 112,791 123,200
124,1001 125,3293 126,200 127,1081
145,9999 147,6306 149,1001 160,3603
162,2502 164,510
##END=
