##TITLE=Methyl isocyanide
##JCAMP-DX=4.24
##DATA TYPE=MASS SPECTRUM
##ORIGIN=R.G.GILLIS AUST SCI SERVICE, ASCOT VALE, VIC., AUSTRALIA
##OWNER=NIST Mass Spectrometry Data Center
Collection (C) 2014 copyright by the U.S. Secretary of Commerce
on behalf of the United States of America. All rights reserved.
##CAS REGISTRY NO=593-75-9
##$NIST MASS SPEC NO=47
##MOLFORM=C2 H3 N
##MW=41
##$NIST SOURCE=MSDC
##XUNITS=M/Z
##YUNITS=RELATIVE INTENSITY
##XFACTOR=1
##YFACTOR=1
##FIRSTX=15
##LASTX=42
##FIRSTY=800
##MAXX=42
##MINX=15
##MAXY=9999
##MINY=200
##NPOINTS=9
##PEAK TABLE=(XY..XY)
15,800 26,200 27,400 28,800
38,1300 39,2000 40,4900 41,9999
42,300
##END=
