##TITLE=6-Octadecenoic acid, (Z)-
##JCAMP-DX=4.24
##DATA TYPE=MASS SPECTRUM
##ORIGIN=Japan AIST/NIMC Database- Spectrum MS-NW-5978
##OWNER=NIST Mass Spectrometry Data Center
Collection (C) 2014 copyright by the U.S. Secretary of Commerce
on behalf of the United States of America. All rights reserved.
##CAS REGISTRY NO=593-39-5
##$NIST MASS SPEC NO=233200
##MOLFORM=C18 H34 O2
##MW=282
##$NIST SOURCE=MSDC
##XUNITS=M/Z
##YUNITS=RELATIVE INTENSITY
##XFACTOR=1
##YFACTOR=1
##FIRSTX=15
##LASTX=285
##FIRSTY=50
##MAXX=285
##MINX=15
##MAXY=9999
##MINY=10
##NPOINTS=230
##PEAK TABLE=(XY..XY)
15,50 17,20 18,70 26,50
27,1899 28,399 29,4129 30,109
31,129 36,10 37,10 38,20
39,1539 40,319 41,9819 42,1599
43,8339 44,279 45,579 46,20
47,20 50,20 51,99 52,90
53,1099 54,2979 55,9999 56,3789
57,5669 58,269 59,279 60,1249
61,219 62,20 63,20 64,20
65,289 66,289 67,4049 68,3289
69,6769 70,3489 71,2369 72,149
73,1529 74,179 75,20 76,10
77,339 78,139 79,1129 80,969
81,4219 82,3349 83,6079 84,4069
85,1379 86,119 87,779 88,109
89,20 90,10 91,259 92,90
93,479 94,729 95,2629 96,2969
97,5099 98,3369 99,629 100,719
101,939 102,139 103,20 104,20
105,129 106,90 107,249 108,409
109,1149 110,1799 111,2529 112,1319
113,499 114,1349 115,589 116,159
117,30 118,40 119,289 120,119
121,279 122,239 123,1249 124,1079
125,1279 126,749 127,899 128,319
129,479 130,90 131,20 132,20
133,299 134,379 135,259 136,169
137,909 138,829 139,689 140,529
141,249 142,119 143,219 144,50
145,10 146,10 147,239 148,299
149,169 150,129 151,669 152,639
153,419 154,309 155,199 156,99
157,159 158,50 159,10 161,169
162,109 163,90 164,119 165,469
166,489 167,299 168,199 169,249
170,90 171,129 172,60 173,20
175,109 176,50 177,60 178,70
179,319 180,689 181,259 182,129
183,129 184,60 185,139 186,129
187,20 189,70 190,30 191,40
192,40 193,249 194,249 195,129
196,70 197,70 198,40 199,129
200,80 201,10 203,40 204,20
205,20 206,20 207,219 208,199
209,80 210,70 211,50 212,40
213,90 214,50 215,10 217,20
218,20 219,10 220,669 221,359
222,809 223,199 224,40 225,40
226,20 227,30 228,10 229,10
233,10 235,209 236,179 237,30
238,10 239,80 240,30 241,30
242,10 245,10 246,249 247,90
248,20 249,30 250,10 252,10
253,30 254,40 255,10 256,119
257,30 258,10 262,10 263,30
264,3079 265,719 266,90 267,10
280,60 281,20 282,1039 283,229
284,129 285,20
##END=
