##TITLE=Phenol, 4-amino-2,6-dichloro-
##JCAMP-DX=4.24
##DATA TYPE=MASS SPECTRUM
##ORIGIN=RADIAN CORP
##OWNER=NIST Mass Spectrometry Data Center
Collection (C) 2014 copyright by the U.S. Secretary of Commerce
on behalf of the United States of America. All rights reserved.
##CAS REGISTRY NO=5930-28-9
##$NIST MASS SPEC NO=76281
##MOLFORM=C6 H5 Cl2 N O
##MW=177
##$NIST SOURCE=MSDC
##XUNITS=M/Z
##YUNITS=RELATIVE INTENSITY
##XFACTOR=1
##YFACTOR=1
##FIRSTX=25
##LASTX=182
##FIRSTY=80
##MAXX=182
##MINX=25
##MAXY=9999
##MINY=10
##NPOINTS=108
##PEAK TABLE=(XY..XY)
25,80 26,140 27,120 28,640
29,160 30,20 31,20 35,90
36,130 37,260 39,830 40,30
41,190 42,40 43,30 44,180
47,80 48,70 49,270 50,710
51,1240 52,1860 53,1620 54,260
55,60 57,530 58,180 59,20
60,330 61,530 62,590 63,400
64,120 65,130 66,60 67,10
68,60 71,370 73,180 74,130
75,240 76,910 77,330 78,6090
79,600 80,130 81,40 83,30
84,130 85,460 86,680 87,590
95,40 96,90 97,210 98,60
99,90 100,20 101,50 102,40
104,20 106,70 107,100 108,20
109,80 110,40 111,40 112,430
113,7820 114,1350 115,2670 116,400
117,70 120,40 121,160 122,40
123,120 124,60 125,80 126,30
127,20 128,10 132,30 133,90
134,30 135,50 140,230 141,560
142,250 143,220 144,60 148,390
149,110 150,260 151,70 152,50
160,20 161,40 162,10 163,30
175,140 176,630 177,9999 178,1110
179,6240 180,520 181,1010 182,80
##END=
