##TITLE=Niflumic acid methyl derivative
##JCAMP-DX=4.24
##DATA TYPE=MASS SPECTRUM
##ORIGIN=NIST Mass Spectrometry Data Center
##OWNER=NIST Mass Spectrometry Data Center
Collection (C) 2014 copyright by the U.S. Secretary of Commerce
on behalf of the United States of America. All rights reserved.
##CAS REGISTRY NO=59361-45-4
##$NIST MASS SPEC NO=333179
##MOLFORM=C14 H11 F3 N2 O2
##MW=296
##$NIST SOURCE=MSDC
##XUNITS=M/Z
##YUNITS=RELATIVE INTENSITY
##XFACTOR=1
##YFACTOR=1
##FIRSTX=15
##LASTX=298
##FIRSTY=70
##MAXX=298
##MINX=15
##MAXY=9999
##MINY=10
##NPOINTS=198
##PEAK TABLE=(XY..XY)
15,70 27,20 28,10 29,30
30,10 31,20 37,10 38,60
39,180 40,20 41,20 45,20
50,230 51,240 52,100 53,40
54,10 55,10 56,10 57,70
58,10 59,160 61,20 62,110
63,450 64,460 65,190 66,20
67,10 69,260 70,40 73,10
74,110 75,370 76,260 77,290
78,40 79,20 80,10 81,50
83,130 85,30 86,20 87,50
88,90 89,130 90,110 91,160
92,1161 93,130 94,130 95,410
96,50 97,50 98,30 99,70
100,40 101,40 102,130 103,30
104,30 105,30 108,290 110,10
111,20 112,30 113,130 114,160
115,110 116,50 117,60 119,80
120,40 122,160 124,10 125,260
126,90 127,50 128,40 129,10
130,40 132,110 133,60 134,20
135,10 137,40 138,100 139,591
140,510 141,80 142,10 143,30
144,30 145,791 146,80 147,10
149,20 150,20 151,60 152,60
153,10 154,40 155,10 156,10
157,70 158,60 159,20 160,80
161,20 162,20 163,30 164,210
165,170 166,1641 167,1201 168,180
169,120 170,50 171,20 172,10
174,10 175,10 176,50 177,30
178,30 179,10 180,40 181,40
182,50 183,40 184,150 185,510
186,90 187,80 188,180 189,70
190,20 193,30 194,450 195,360
196,240 197,60 198,20 200,10
202,10 203,10 206,50 207,60
208,30 209,20 210,10 211,10
212,10 213,100 214,180 215,500
216,831 217,120 218,10 222,10
224,40 225,10 226,10 230,10
231,10 232,20 233,50 234,550
235,1762 236,440 237,50 238,10
241,10 242,40 243,771 244,270
245,30 246,10 248,10 250,10
251,10 256,20 257,10 259,10
261,50 263,9999 264,2352 265,250
266,20 276,380 277,60 278,20
279,20 293,10 295,5105 296,881
297,90 298,10
##END=
