##TITLE=.tau.-Cadinol
##JCAMP-DX=4.24
##DATA TYPE=MASS SPECTRUM
##ORIGIN=Mark Whitten, Florida Museum of Natural History, U. of Florida
##OWNER=NIST Mass Spectrometry Data Center
Collection (C) 2014 copyright by the U.S. Secretary of Commerce
on behalf of the United States of America. All rights reserved.
##CAS REGISTRY NO=5937-11-1
##$NIST MASS SPEC NO=140992
##MOLFORM=C15 H26 O
##MW=222
##$NIST SOURCE=MSDC
##XUNITS=M/Z
##YUNITS=RELATIVE INTENSITY
##XFACTOR=1
##YFACTOR=1
##FIRSTX=41
##LASTX=222
##FIRSTY=4723
##MAXX=222
##MINX=41
##MAXY=9999
##MINY=47
##NPOINTS=94
##PEAK TABLE=(XY..XY)
41,4723 43,9445 44,284 45,414
50,47 51,316 52,178 53,1200
55,2237 56,280 57,493 58,1568
59,208 63,92 65,727 66,198
67,1498 68,234 69,1616 70,227
71,1585 72,113 77,1881 78,390
79,2869 80,467 81,3583 82,368
83,241 84,68 85,90 91,2189
92,616 93,2381 94,1186 95,3722
96,482 97,172 103,210 105,3929
106,671 107,871 108,655 109,1253
110,190 111,111 113,49 115,244
116,101 117,366 118,383 119,2631
120,633 121,2561 122,429 123,292
127,159 128,124 129,131 131,328
132,160 133,1029 134,1787 135,450
136,147 137,315 138,68 139,142
143,53 144,53 145,347 146,162
147,417 148,181 149,255 150,114
151,133 152,148 159,373 161,9999
162,2171 163,270 164,648 165,107
175,107 176,172 177,85 179,208
189,1427 190,246 204,4658 205,814
206,77 222,140
##END=
