##TITLE=Podocarpa-6,13-diene, 13-isopropyl-
##JCAMP-DX=4.24
##DATA TYPE=MASS SPECTRUM
##ORIGIN=R RYHAGE MS-LAB KAROLINSKA INSTITUTET STOCKHOLM SWEDEN
##OWNER=NIST Mass Spectrometry Data Center
Collection (C) 2014 copyright by the U.S. Secretary of Commerce
on behalf of the United States of America. All rights reserved.
##CAS REGISTRY NO=5939-62-8
##$NIST MASS SPEC NO=42567
##MOLFORM=C20 H32
##MW=272
##$NIST SOURCE=MSDC
##XUNITS=M/Z
##YUNITS=RELATIVE INTENSITY
##XFACTOR=1
##YFACTOR=1
##FIRSTX=17
##LASTX=274
##FIRSTY=160
##MAXX=274
##MINX=17
##MAXY=9999
##MINY=100
##NPOINTS=128
##PEAK TABLE=(XY..XY)
17,160 18,630 27,440 29,850
39,760 40,210 41,3890 42,330
43,1330 44,280 51,190 52,130
53,1150 54,230 55,3260 56,720
57,770 65,740 66,280 67,2330
68,780 69,3050 70,350 71,280
77,2390 78,690 79,2850 80,850
81,3050 82,980 83,980 84,120
85,150 87,100 91,5210 92,1670
93,4160 94,4580 95,2920 96,650
97,780 103,440 104,320 105,5410
106,7500 107,3470 108,920 109,1650
110,290 111,630 115,530 116,290
117,1020 118,1060 119,4160 120,4510
121,2230 122,900 123,2920 124,640
125,600 127,120 128,290 129,440
130,240 131,1330 132,630 133,2500
134,3610 135,2120 136,720 137,1290
138,260 139,130 141,180 142,150
143,290 144,170 145,1040 146,440
147,1810 148,1310 149,980 150,590
151,180 155,100 157,180 158,100
159,1290 160,420 161,1810 162,620
163,2140 164,390 165,130 171,120
173,630 174,290 175,990 176,610
177,490 178,170 187,1270 188,540
189,560 190,450 191,180 192,150
201,660 202,390 203,480 204,330
215,430 216,470 217,260 228,100
229,1150 230,870 231,320 243,330
244,630 245,160 257,5480 258,1170
259,130 272,9999 273,2220 274,250
##END=
