##TITLE=Propane, 2-chloro-2-nitro-
##JCAMP-DX=4.24
##DATA TYPE=MASS SPECTRUM
##ORIGIN=J.E. WILKINSON S-CUBED, SAN DIEGO, CA.
##OWNER=NIST Mass Spectrometry Data Center
Collection (C) 2014 copyright by the U.S. Secretary of Commerce
on behalf of the United States of America. All rights reserved.
##CAS REGISTRY NO=594-71-8
##$NIST MASS SPEC NO=90181
##MOLFORM=C3 H6 Cl N O2
##MW=123
##$NIST SOURCE=MSDC
##XUNITS=M/Z
##YUNITS=RELATIVE INTENSITY
##XFACTOR=1
##YFACTOR=1
##FIRSTX=46
##LASTX=84
##FIRSTY=506
##MAXX=84
##MINX=46
##MAXY=9999
##MINY=1
##NPOINTS=26
##PEAK TABLE=(XY..XY)
46,506 47,29 49,1049 50,13
51,381 52,22 53,5 54,7
55,3 57,7 58,4 59,2
61,539 62,131 63,165 64,27
72,13 73,31 74,1 75,107
76,298 77,9999 78,393 79,3243
80,84 84,1
##END=
