##TITLE=Ethyl methyl sulphone
##JCAMP-DX=4.24
##DATA TYPE=MASS SPECTRUM
##ORIGIN=Japan AIST/NIMC Database- Spectrum MS-IW-8102
##OWNER=NIST Mass Spectrometry Data Center
Collection (C) 2014 copyright by the U.S. Secretary of Commerce
on behalf of the United States of America. All rights reserved.
##CAS REGISTRY NO=594-43-4
##$NIST MASS SPEC NO=237719
##MOLFORM=C3 H8 O2 S
##MW=108
##$NIST SOURCE=MSDC
##XUNITS=M/Z
##YUNITS=RELATIVE INTENSITY
##XFACTOR=1
##YFACTOR=1
##FIRSTX=14
##LASTX=110
##FIRSTY=40
##MAXX=110
##MINX=14
##MAXY=9999
##MINY=10
##NPOINTS=52
##PEAK TABLE=(XY..XY)
14,40 15,699 16,10 18,20
25,10 26,289 27,2989 28,639
29,7759 30,199 31,379 32,70
33,40 34,30 35,10 39,30
41,40 42,10 43,70 44,40
45,169 46,80 47,109 48,209
49,70 50,189 57,10 58,20
59,20 60,10 61,30 62,20
63,439 64,179 65,3579 66,50
67,169 76,40 77,20 79,449
80,9999 81,379 82,519 83,10
92,10 93,1099 94,40 95,60
107,10 108,919 109,119 110,50
##END=
