##TITLE=Butane, 2-chloro-2-methyl-
##JCAMP-DX=4.24
##DATA TYPE=MASS SPECTRUM
##ORIGIN=Japan AIST/NIMC Database- Spectrum MS-NW-4936
##OWNER=NIST Mass Spectrometry Data Center
Collection (C) 2014 copyright by the U.S. Secretary of Commerce
on behalf of the United States of America. All rights reserved.
##CAS REGISTRY NO=594-36-5
##$NIST MASS SPEC NO=227753
##MOLFORM=C5 H11 Cl
##MW=106
##$NIST SOURCE=MSDC
##XUNITS=M/Z
##YUNITS=RELATIVE INTENSITY
##XFACTOR=1
##YFACTOR=1
##FIRSTX=14
##LASTX=94
##FIRSTY=50
##MAXX=94
##MINX=14
##MAXY=9999
##MINY=10
##NPOINTS=58
##PEAK TABLE=(XY..XY)
14,50 15,389 25,20 26,349
27,2779 28,109 29,3239 30,80
31,50 32,10 35,99 36,789
37,139 38,279 39,2819 40,419
41,8489 42,1809 43,8439 44,329
45,20 48,10 49,229 50,189
51,269 52,99 53,749 54,179
55,8949 56,569 57,50 59,60
60,10 61,99 62,50 63,709
64,30 65,239 66,20 67,99
68,30 69,299 70,2049 71,9519
72,539 73,40 75,70 76,6019
77,9999 78,2289 79,3379 80,119
89,20 90,159 91,1849 92,129
93,569 94,30
##END=
