##TITLE=2-Butanamine, 2-methyl-
##JCAMP-DX=4.24
##DATA TYPE=MASS SPECTRUM
##ORIGIN=Japan AIST/NIMC Database- Spectrum MS-NW-5727
##OWNER=NIST Mass Spectrometry Data Center
Collection (C) 2014 copyright by the U.S. Secretary of Commerce
on behalf of the United States of America. All rights reserved.
##CAS REGISTRY NO=594-39-8
##$NIST MASS SPEC NO=234737
##MOLFORM=C5 H13 N
##MW=87
##$NIST SOURCE=MSDC
##XUNITS=M/Z
##YUNITS=RELATIVE INTENSITY
##XFACTOR=1
##YFACTOR=1
##FIRSTX=14
##LASTX=86
##FIRSTY=20
##MAXX=86
##MINX=14
##MAXY=9999
##MINY=10
##NPOINTS=45
##PEAK TABLE=(XY..XY)
14,20 15,319 16,10 17,10
18,30 26,90 27,509 28,309
29,339 30,759 31,299 32,20
37,20 38,60 39,379 40,90
41,989 42,1009 43,519 44,159
45,119 46,40 50,20 51,60
52,40 53,90 54,99 55,1759
56,259 57,479 58,9999 59,409
60,10 62,10 63,10 65,20
67,10 68,20 69,40 70,259
71,149 72,2859 73,169 74,20
86,10
##END=
