##TITLE=2,3-Dibromo-2,3-dimethylbutane
##JCAMP-DX=4.24
##DATA TYPE=MASS SPECTRUM
##ORIGIN=Japan AIST/NIMC Database- Spectrum MS-NW-8901
##OWNER=NIST Mass Spectrometry Data Center
Collection (C) 2014 copyright by the U.S. Secretary of Commerce
on behalf of the United States of America. All rights reserved.
##CAS REGISTRY NO=594-81-0
##$NIST MASS SPEC NO=231321
##MOLFORM=C6 H12 Br2
##MW=242
##$NIST SOURCE=MSDC
##XUNITS=M/Z
##YUNITS=RELATIVE INTENSITY
##XFACTOR=1
##YFACTOR=1
##FIRSTX=15
##LASTX=231
##FIRSTY=109
##MAXX=231
##MINX=15
##MAXY=9999
##MINY=10
##NPOINTS=72
##PEAK TABLE=(XY..XY)
15,109 26,70 27,1389 28,179
29,829 30,20 36,10 37,40
38,189 39,3529 40,829 41,9999
42,829 43,3529 44,109 50,149
51,389 52,189 53,1039 54,239
55,5809 56,559 57,249 58,10
59,10 62,30 63,99 64,20
65,349 66,119 67,1319 68,209
69,4829 70,269 74,10 77,70
78,10 79,229 80,649 81,229
82,639 83,5809 84,2809 85,249
93,40 95,40 100,10 105,20
107,109 109,80 119,30 120,519
121,1859 122,559 123,1789 124,60
133,10 135,10 147,40 148,109
149,50 150,99 151,10 162,20
163,9639 164,659 165,9419 166,619
167,20 227,10 229,30 231,10
##END=
