##TITLE=Trimethylphosphine
##JCAMP-DX=4.24
##DATA TYPE=MASS SPECTRUM
##ORIGIN=D.HENNEBERG, MAX-PLANCK INSTITUTE, MULHEIM, WEST GERMANY
##OWNER=NIST Mass Spectrometry Data Center
Collection (C) 2014 copyright by the U.S. Secretary of Commerce
on behalf of the United States of America. All rights reserved.
##CAS REGISTRY NO=594-09-2
##$NIST MASS SPEC NO=63691
##MOLFORM=C3 H9 P
##MW=76
##$NIST SOURCE=MSDC
##XUNITS=M/Z
##YUNITS=RELATIVE INTENSITY
##XFACTOR=1
##YFACTOR=1
##FIRSTX=27
##LASTX=78
##FIRSTY=729
##MAXX=78
##MINX=27
##MAXY=9999
##MINY=9
##NPOINTS=44
##PEAK TABLE=(XY..XY)
27,729 28,103 29,176 31,32
32,41 33,113 34,74 35,70
39,114 40,41 41,934 42,77
43,26 44,439 45,3761 46,710
47,1076 48,121 49,64 50,14
53,12 54,10 55,35 56,171
57,2688 58,1057 59,7000 60,659
61,9999 62,211 64,17 65,12
67,49 68,29 69,27 70,28
71,85 72,19 73,447 74,54
75,1649 76,6723 77,270 78,9
##END=
