##TITLE=Butane, 2-bromo-2,3-dimethyl-
##JCAMP-DX=4.24
##DATA TYPE=MASS SPECTRUM
##ORIGIN=Japan AIST/NIMC Database- Spectrum MS-IW-5291
##OWNER=NIST Mass Spectrometry Data Center
Collection (C) 2014 copyright by the U.S. Secretary of Commerce
on behalf of the United States of America. All rights reserved.
##CAS REGISTRY NO=594-52-5
##$NIST MASS SPEC NO=237188
##MOLFORM=C6 H13 Br
##MW=164
##$NIST SOURCE=MSDC
##XUNITS=M/Z
##YUNITS=RELATIVE INTENSITY
##XFACTOR=1
##YFACTOR=1
##FIRSTX=14
##LASTX=165
##FIRSTY=10
##MAXX=165
##MINX=14
##MAXY=9999
##MINY=10
##NPOINTS=71
##PEAK TABLE=(XY..XY)
14,10 15,139 26,90 27,1449
28,119 29,789 30,10 31,10
37,70 38,189 39,1979 40,389
41,7119 42,949 43,9679 44,459
45,10 49,20 50,169 51,259
52,169 53,499 54,80 55,879
56,269 57,1769 58,90 59,70
61,10 62,30 63,50 64,10
65,70 66,30 67,259 68,40
69,2869 70,249 71,30 73,20
74,30 75,10 76,20 77,109
78,529 79,60 80,99 81,60
82,99 83,99 84,569 85,9999
86,729 87,20 91,10 92,10
93,20 95,20 101,10 105,10
107,50 109,40 120,159 121,589
122,169 123,579 124,20 149,80
151,80 163,50 165,40
##END=
