##TITLE=Butane, 2,2,3,3-tetramethyl-
##JCAMP-DX=4.24
##DATA TYPE=MASS SPECTRUM
##OWNER=NIST Mass Spectrometry Data Center
Collection (C) 2014 copyright by the U.S. Secretary of Commerce
on behalf of the United States of America. All rights reserved.
##CAS REGISTRY NO=594-82-1
##$NIST MASS SPEC NO=1735
##MOLFORM=C8 H18
##MW=114
##$NIST SOURCE=MSDC
##XUNITS=M/Z
##YUNITS=RELATIVE INTENSITY
##XFACTOR=1
##YFACTOR=1
##FIRSTX=1
##LASTX=114
##FIRSTY=10
##MAXX=114
##MINX=1
##MAXY=9999
##MINY=10
##NPOINTS=56
##PEAK TABLE=(XY..XY)
1,10 2,10 12,10 13,10
14,20 15,470 26,20 27,701
28,160 29,1621 30,30 37,10
38,20 39,701 40,130 41,2823
42,150 43,1772 44,60 45,10
46,10 50,10 51,30 52,10
53,130 54,30 55,450 56,2732
57,9999 58,440 59,10 63,10
64,10 65,20 66,10 67,50
68,10 69,130 70,10 71,30
72,10 77,10 78,10 79,10
80,10 81,10 82,10 83,90
84,30 85,10 97,10 98,10
99,621 100,50 101,10 114,10
##END=
