##TITLE=Propane, 2-methyl-2-nitro-
##JCAMP-DX=4.24
##DATA TYPE=MASS SPECTRUM
##ORIGIN=NIST Mass Spectrometry Data Center, 1992
##OWNER=NIST Mass Spectrometry Data Center
Collection (C) 2014 copyright by the U.S. Secretary of Commerce
on behalf of the United States of America. All rights reserved.
##CAS REGISTRY NO=594-70-7
##$NIST MASS SPEC NO=125413
##MOLFORM=C4 H9 N O2
##MW=103
##$NIST SOURCE=MSDC
##XUNITS=M/Z
##YUNITS=RELATIVE INTENSITY
##XFACTOR=1
##YFACTOR=1
##FIRSTX=13
##LASTX=59
##FIRSTY=31
##MAXX=59
##MINX=13
##MAXY=9999
##MINY=6
##NPOINTS=33
##PEAK TABLE=(XY..XY)
13,31 14,95 15,480 16,27
17,12 18,6 26,319 27,1710
28,951 29,5344 30,1559 31,48
32,91 37,191 38,538 39,3325
40,48 41,9625 42,443 43,181
44,31 46,237 49,42 50,170
51,254 52,68 53,204 54,81
55,669 56,31 57,9999 58,464
59,33
##END=
