##TITLE=Butane, 1,1,1,2,3,3,4,4,4-nonafluoro-2-(trifluoromethyl)-
##JCAMP-DX=4.24
##DATA TYPE=MASS SPECTRUM
##OWNER=NIST Mass Spectrometry Data Center
Collection (C) 2014 copyright by the U.S. Secretary of Commerce
on behalf of the United States of America. All rights reserved.
##CAS REGISTRY NO=594-91-2
##$NIST MASS SPEC NO=13897
##MOLFORM=C5 F12
##MW=288
##$NIST SOURCE=MSDC
##XUNITS=M/Z
##YUNITS=RELATIVE INTENSITY
##XFACTOR=1
##YFACTOR=1
##FIRSTX=12
##LASTX=288
##FIRSTY=10
##MAXX=288
##MINX=12
##MAXY=9999
##MINY=10
##NPOINTS=26
##PEAK TABLE=(XY..XY)
12,10 19,10 31,430 43,10
50,160 55,10 62,20 69,9999
74,20 81,40 93,220 100,320
105,10 112,50 119,1651 124,10
131,821 143,10 150,180 162,10
169,20 181,450 200,110 219,90
269,180 288,10
##END=
