##TITLE=Methane, dibromodichloro-
##JCAMP-DX=4.24
##DATA TYPE=MASS SPECTRUM
##OWNER=NIST Mass Spectrometry Data Center
Collection (C) 2014 copyright by the U.S. Secretary of Commerce
on behalf of the United States of America. All rights reserved.
##CAS REGISTRY NO=594-18-3
##$NIST MASS SPEC NO=11633
##MOLFORM=C Br2 Cl2
##MW=240
##$NIST SOURCE=MSDC
##XUNITS=M/Z
##YUNITS=RELATIVE INTENSITY
##XFACTOR=1
##YFACTOR=1
##FIRSTX=12
##LASTX=211
##FIRSTY=250
##MAXX=211
##MINX=12
##MAXY=9999
##MINY=10
##NPOINTS=40
##PEAK TABLE=(XY..XY)
12,250 13,10 35,761 37,250
47,1531 48,70 49,510 50,20
79,2252 81,2222 82,740 83,30
84,741 85,30 91,731 93,731
114,50 116,60 126,881 127,50
128,1151 129,60 130,280 131,10
159,70 160,130 161,6226 162,140
163,9999 164,110 165,4484 166,50
167,631 168,30 169,70 170,30
205,681 207,1611 209,1111 211,220
##END=
