##TITLE=1-Butene, 2,3,3-trimethyl-
##JCAMP-DX=4.24
##DATA TYPE=MASS SPECTRUM
##ORIGIN=Japan AIST/NIMC Database- Spectrum MS-NW-4819
##OWNER=NIST Mass Spectrometry Data Center
Collection (C) 2014 copyright by the U.S. Secretary of Commerce
on behalf of the United States of America. All rights reserved.
##CAS REGISTRY NO=594-56-9
##$NIST MASS SPEC NO=231719
##MOLFORM=C7 H14
##MW=98
##$NIST SOURCE=MSDC
##XUNITS=M/Z
##YUNITS=RELATIVE INTENSITY
##XFACTOR=1
##YFACTOR=1
##FIRSTX=14
##LASTX=100
##FIRSTY=30
##MAXX=100
##MINX=14
##MAXY=9999
##MINY=10
##NPOINTS=63
##PEAK TABLE=(XY..XY)
14,30 15,249 16,10 26,70
27,969 28,70 29,1549 30,30
31,20 36,20 37,40 38,149
39,1979 40,329 41,5719 42,379
43,1409 44,60 45,30 49,10
50,99 51,179 52,80 53,499
54,129 55,8589 56,1599 57,1809
58,129 59,439 60,20 61,10
62,30 63,50 64,10 65,139
66,60 67,559 68,90 69,589
70,99 71,40 72,10 73,10
74,20 75,60 77,60 78,20
79,90 80,20 81,179 82,80
83,9999 84,789 85,109 86,10
91,10 95,10 96,30 97,30
98,1839 99,199 100,10
##END=
