##TITLE=Butane, 2-iodo-2,3-dimethyl-
##JCAMP-DX=4.24
##DATA TYPE=MASS SPECTRUM
##OWNER=NIST Mass Spectrometry Data Center
Collection (C) 2014 copyright by the U.S. Secretary of Commerce
on behalf of the United States of America. All rights reserved.
##CAS REGISTRY NO=594-59-2
##$NIST MASS SPEC NO=9875
##MOLFORM=C6 H13 I
##MW=212
##$NIST SOURCE=MSDC
##XUNITS=M/Z
##YUNITS=RELATIVE INTENSITY
##XFACTOR=1
##YFACTOR=1
##FIRSTX=26
##LASTX=212
##FIRSTY=140
##MAXX=212
##MINX=26
##MAXY=9999
##MINY=10
##NPOINTS=51
##PEAK TABLE=(XY..XY)
26,140 27,2052 29,1521 30,60
37,100 38,270 39,2302 40,480
41,9869 42,901 43,9999 44,320
48,20 49,30 50,170 51,270
52,100 53,701 54,140 55,1641
56,581 57,2002 58,100 63,70
64,50 65,120 66,50 67,460
68,100 69,5755 70,1401 71,150
72,20 80,10 81,60 82,40
83,120 84,1521 85,9048 86,621
87,30 127,350 128,430 129,40
141,20 142,20 155,100 169,10
197,340 198,20 212,10
##END=
