##TITLE=1-Methoxy-3-(trimethylsilyloxy)butadiene
##JCAMP-DX=4.24
##DATA TYPE=MASS SPECTRUM
##ORIGIN=NIST Mass Spectrometry Data Center, 1994
##OWNER=NIST Mass Spectrometry Data Center
Collection (C) 2014 copyright by the U.S. Secretary of Commerce
on behalf of the United States of America. All rights reserved.
##CAS REGISTRY NO=59414-23-2
##$NIST MASS SPEC NO=135971
##MOLFORM=C8 H16 O2 Si
##MW=172
##$NIST SOURCE=MSDC
##XUNITS=M/Z
##YUNITS=RELATIVE INTENSITY
##XFACTOR=1
##YFACTOR=1
##FIRSTX=13
##LASTX=174
##FIRSTY=55
##MAXX=174
##MINX=13
##MAXY=9999
##MINY=27
##NPOINTS=109
##PEAK TABLE=(XY..XY)
13,55 14,207 15,2981 16,76
18,46 26,203 27,1515 28,660
29,2220 30,165 31,234 32,45
33,52 37,89 38,258 39,2229
40,533 41,693 42,851 43,2999
44,933 45,5201 46,357 47,1588
48,96 49,83 50,252 51,509
52,187 53,1529 54,219 55,1372
56,237 57,343 58,438 59,2049
60,387 61,1004 62,88 63,96
64,29 65,177 66,202 67,386
68,423 69,264 70,170 71,486
72,29 73,9999 74,950 75,7108
76,490 77,518 79,115 81,125
82,107 83,1040 84,141 85,1092
86,90 87,131 88,90 89,4353
90,378 91,404 92,39 95,55
97,489 98,300 99,1554 100,187
101,424 102,36 103,46 107,35
109,238 110,49 111,270 112,271
113,670 114,200 115,1402 116,162
117,60 123,195 124,88 125,542
126,49 127,1844 128,253 129,199
130,30 131,90 133,73 139,231
141,5646 142,6025 143,949 144,292
155,60 157,6140 158,865 159,320
160,27 171,674 172,1874 173,288
174,78
##END=
