##TITLE=2-tert-Butylpyridine
##JCAMP-DX=4.24
##DATA TYPE=MASS SPECTRUM
##ORIGIN=NIST Mass Spectrometry Data Center, 1990.
##OWNER=NIST Mass Spectrometry Data Center
Collection (C) 2014 copyright by the U.S. Secretary of Commerce
on behalf of the United States of America. All rights reserved.
##CAS REGISTRY NO=5944-41-2
##$NIST MASS SPEC NO=114655
##MOLFORM=C9 H13 N
##MW=135
##$NIST SOURCE=MSDC
##XUNITS=M/Z
##YUNITS=RELATIVE INTENSITY
##XFACTOR=1
##YFACTOR=1
##FIRSTX=14
##LASTX=136
##FIRSTY=60
##MAXX=136
##MINX=14
##MAXY=9999
##MINY=37
##NPOINTS=57
##PEAK TABLE=(XY..XY)
14,60 15,174 26,85 27,418
28,62 29,181 37,42 38,164
39,864 40,166 41,699 42,80
50,528 51,1398 52,1068 53,491
54,91 55,54 56,60 57,130
58,54 59,477 61,37 62,108
63,277 64,128 65,603 66,212
67,99 68,64 74,73 75,92
76,155 77,513 78,1480 79,1972
80,969 81,52 89,117 90,123
91,428 92,2146 93,3533 94,328
103,84 104,669 105,144 106,151
117,452 118,908 120,9999 121,928
122,42 132,56 134,2687 135,1676
136,153
##END=
