##TITLE=3,6-Octadien-1-ol, 3,7-dimethyl-, (Z)-
##JCAMP-DX=4.24
##DATA TYPE=MASS SPECTRUM
##OWNER=NIST Mass Spectrometry Data Center
Collection (C) 2014 copyright by the U.S. Secretary of Commerce
on behalf of the United States of America. All rights reserved.
##CAS REGISTRY NO=5944-20-7
##$NIST MASS SPEC NO=5123
##MOLFORM=C10 H18 O
##MW=154
##$NIST SOURCE=MSDC
##XUNITS=M/Z
##YUNITS=RELATIVE INTENSITY
##XFACTOR=1
##YFACTOR=1
##FIRSTX=15
##LASTX=155
##FIRSTY=100
##MAXX=155
##MINX=15
##MAXY=9999
##MINY=50
##NPOINTS=81
##PEAK TABLE=(XY..XY)
15,100 26,100 27,2642 29,2482
30,160 31,1842 37,50 38,150
39,3583 40,681 41,9999 42,651
43,4864 44,190 45,190 50,210
51,741 52,380 53,2873 54,370
55,4684 56,901 57,901 58,70
59,210 62,70 63,230 64,60
65,1031 66,450 67,6156 68,1842
69,6786 70,651 71,581 72,150
73,80 75,100 77,2322 78,490
79,3223 80,941 81,8057 82,1101
83,941 84,941 85,250 89,100
91,2552 92,530 93,4204 94,971
95,3873 96,520 97,711 98,480
99,90 103,150 104,60 105,1451
106,390 107,1481 108,581 109,8057
110,1481 111,1291 112,420 119,450
121,5805 122,681 123,1812 124,200
125,70 134,90 135,90 136,380
137,110 139,550 152,110 154,3003
155,340
##END=
