##TITLE=Butanoic acid, 2,2-dimethyl-
##JCAMP-DX=4.24
##DATA TYPE=MASS SPECTRUM
##ORIGIN=D.HENNEBERG, MAX-PLANCK INSTITUTE, MULHEIM, WEST GERMANY
##OWNER=NIST Mass Spectrometry Data Center
Collection (C) 2014 copyright by the U.S. Secretary of Commerce
on behalf of the United States of America. All rights reserved.
##CAS REGISTRY NO=595-37-9
##$NIST MASS SPEC NO=62150
##MOLFORM=C6 H12 O2
##MW=116
##$NIST SOURCE=MSDC
##XUNITS=M/Z
##YUNITS=RELATIVE INTENSITY
##XFACTOR=1
##YFACTOR=1
##FIRSTX=26
##LASTX=116
##FIRSTY=305
##MAXX=116
##MINX=26
##MAXY=9999
##MINY=3
##NPOINTS=63
##PEAK TABLE=(XY..XY)
26,305 27,1926 28,481 29,1990
30,46 31,214 32,29 36,4
37,36 38,106 39,1270 40,175
41,2213 42,447 43,9999 44,307
45,759 46,23 47,18 49,9
50,66 51,108 52,31 53,215
54,45 55,1419 56,113 57,385
58,32 59,408 60,60 61,18
62,8 63,7 65,17 66,5
67,26 68,37 69,161 70,445
71,9023 72,508 73,718 74,45
75,8 77,3 78,5 79,5
81,4 82,10 83,90 84,7
85,23 86,54 87,225 88,1507
89,64 90,7 99,14 100,11
101,360 102,19 116,9
##END=
