##TITLE=dl-Camphoric anhydride
##JCAMP-DX=4.24
##DATA TYPE=MASS SPECTRUM
##ORIGIN=NIST Mass Spectrometry Data Center
##OWNER=NIST Mass Spectrometry Data Center
Collection (C) 2014 copyright by the U.S. Secretary of Commerce
on behalf of the United States of America. All rights reserved.
##CAS REGISTRY NO=595-30-2
##$NIST MASS SPEC NO=340913
##MOLFORM=C10 H14 O3
##MW=182
##$NIST SOURCE=MSDC
##XUNITS=M/Z
##YUNITS=RELATIVE INTENSITY
##XFACTOR=1
##YFACTOR=1
##FIRSTX=15
##LASTX=140
##FIRSTY=110
##MAXX=140
##MINX=15
##MAXY=9999
##MINY=10
##NPOINTS=74
##PEAK TABLE=(XY..XY)
15,110 26,90 27,1221 29,611
30,10 31,10 37,30 38,130
39,2262 40,400 41,4514 42,280
43,500 44,60 45,80 46,30
49,10 50,180 51,470 52,240
53,1081 54,240 55,4094 56,200
57,20 59,10 61,10 62,40
63,130 64,20 65,410 66,140
67,1852 68,290 69,5165 70,290
71,20 74,10 75,10 76,10
77,671 78,160 79,731 80,210
81,330 82,390 83,3703 84,260
85,10 91,370 92,50 93,400
94,180 95,9999 96,1071 97,150
98,10 105,60 106,10 107,60
108,30 109,270 110,1341 111,130
112,10 120,20 121,10 123,1952
124,170 125,10 137,50 138,3033
139,310 140,20
##END=
