##TITLE=Megestrol acetate
##JCAMP-DX=4.24
##DATA TYPE=MASS SPECTRUM
##ORIGIN=NIST Mass Spectrometry Data Center, 1998.
##OWNER=NIST Mass Spectrometry Data Center
Collection (C) 2014 copyright by the U.S. Secretary of Commerce
on behalf of the United States of America. All rights reserved.
##CAS REGISTRY NO=595-33-5
##$NIST MASS SPEC NO=291988
##MOLFORM=C24 H32 O4
##MW=384
##$NIST SOURCE=MSDC
##XUNITS=M/Z
##YUNITS=RELATIVE INTENSITY
##XFACTOR=1
##YFACTOR=1
##FIRSTX=15
##LASTX=385
##FIRSTY=30
##MAXX=385
##MINX=15
##MAXY=9999
##MINY=10
##NPOINTS=224
##PEAK TABLE=(XY..XY)
15,30 27,30 29,60 39,70
40,10 41,310 42,50 43,4540
44,110 45,40 51,30 52,20
53,180 54,20 55,490 56,20
57,50 59,20 60,10 63,10
65,130 66,20 67,240 68,20
69,100 71,30 76,10 77,330
78,70 79,430 80,40 81,230
82,20 83,80 84,10 85,30
87,10 89,20 90,10 91,740
92,90 93,320 94,40 95,210
96,20 97,180 98,10 99,20
102,20 103,100 104,40 105,490
106,60 107,750 108,90 109,140
110,20 111,30 112,10 115,340
116,140 117,330 118,80 119,280
120,40 121,230 122,30 123,90
124,10 125,20 126,10 127,100
128,300 129,350 130,150 131,380
132,110 133,310 134,50 135,180
136,30 137,70 138,20 139,10
141,180 142,180 143,280 144,130
145,480 146,130 147,150 148,20
149,110 150,130 151,30 152,60
153,90 154,60 155,180 156,90
157,290 158,90 159,320 160,90
161,320 162,50 163,30 164,10
165,100 166,50 167,100 168,60
169,210 170,60 171,210 172,90
173,350 174,150 175,420 176,80
177,10 178,40 179,80 180,40
181,110 182,50 183,170 184,50
185,240 186,100 187,1290 188,290
189,100 190,20 191,30 192,20
193,60 194,40 195,130 196,50
197,160 198,70 199,150 200,40
201,50 202,20 203,20 204,10
205,10 206,20 207,70 208,50
209,110 210,60 211,130 212,50
213,70 214,40 215,20 216,10
217,10 218,10 219,20 220,20
221,80 222,30 223,200 224,120
225,200 226,60 227,70 228,20
229,10 233,50 234,20 235,30
237,110 238,40 239,120 240,40
241,220 242,40 243,40 247,30
248,20 249,30 250,10 251,70
252,40 253,70 254,20 255,30
256,130 257,20 263,60 264,20
265,70 266,110 267,100 268,20
269,10 279,20 280,60 281,9999
282,2180 283,280 284,30 291,10
298,10 299,310 300,70 301,10
307,20 309,310 310,70 311,20
324,220 325,60 326,10 327,10
342,30 343,10 384,100 385,20
##END=
