##TITLE=Methyltartronic acid
##JCAMP-DX=4.24
##DATA TYPE=MASS SPECTRUM
##ORIGIN=NIST Mass Spectrometry Data Center, 1994
##OWNER=NIST Mass Spectrometry Data Center
Collection (C) 2014 copyright by the U.S. Secretary of Commerce
on behalf of the United States of America. All rights reserved.
##CAS REGISTRY NO=595-98-2
##$NIST MASS SPEC NO=134414
##MOLFORM=C4 H6 O5
##MW=134
##$NIST SOURCE=MSDC
##XUNITS=M/Z
##YUNITS=RELATIVE INTENSITY
##XFACTOR=1
##YFACTOR=1
##FIRSTX=12
##LASTX=133
##FIRSTY=30
##MAXX=133
##MINX=12
##MAXY=9999
##MINY=4
##NPOINTS=36
##PEAK TABLE=(XY..XY)
12,30 13,83 14,222 15,595
16,41 17,74 18,94 19,1056
24,26 25,72 26,475 27,1440
28,501 29,2577 30,197 31,115
37,22 40,14 41,86 42,377
43,1555 44,14 45,9999 46,365
47,80 53,44 55,88 56,32
57,11 71,4 72,4 74,6
75,58 76,12 90,23 133,20
##END=
