##TITLE=Plumbane, tetraphenyl-
##JCAMP-DX=4.24
##DATA TYPE=MASS SPECTRUM
##ORIGIN=D.HENNEBERG, MAX-PLANCK INSTITUTE, MULHEIM, WEST GERMANY
##OWNER=NIST Mass Spectrometry Data Center
Collection (C) 2014 copyright by the U.S. Secretary of Commerce
on behalf of the United States of America. All rights reserved.
##CAS REGISTRY NO=595-89-1
##$NIST MASS SPEC NO=62154
##MOLFORM=C24 H20 Pb
##MW=516
##$NIST SOURCE=MSDC
##XUNITS=M/Z
##YUNITS=RELATIVE INTENSITY
##XFACTOR=1
##YFACTOR=1
##FIRSTX=26
##LASTX=516
##FIRSTY=311
##MAXX=516
##MINX=26
##MAXY=9999
##MINY=3
##NPOINTS=137
##PEAK TABLE=(XY..XY)
26,311 27,145 31,39 35,18
36,9 37,44 38,54 39,216
40,16 42,6 43,4 47,28
48,22 49,41 50,401 51,1086
52,221 53,12 55,6 60,4
61,11 62,33 63,102 64,49
65,27 66,17 73,23 74,97
75,83 76,210 77,618 78,860
79,61 82,4 83,140 84,3
85,95 86,9 87,16 88,10
89,31 91,11 92,4 93,5
94,27 98,16 99,10 100,9
101,16 102,44 103,10 104,3
112,3 113,7 114,3 115,72
116,9 118,5 119,5 120,6
125,8 126,41 127,67 128,58
129,4 139,20 140,3 149,11
150,41 151,133 152,475 153,400
154,960 155,143 156,9 165,7
185,66 186,35 187,16 188,3
190,3 198,4 200,7 201,4
202,9 203,4 204,257 205,5
206,4693 207,4161 208,9999 209,36
215,10 216,5 226,6 228,5
229,6 230,7 231,38 232,20
233,30 255,5 256,3 257,9
259,4 265,3 270,3 271,3
274,5 277,6 278,6 279,4
280,8 281,179 282,40 283,3121
284,2924 285,6677 286,433 287,17
359,59 360,117 361,198 362,154
363,21 434,8 435,209 436,70
437,3989 438,4234 439,8979 440,1748
441,174 442,9 514,5 515,6
516,5
##END=
