##TITLE=para-Tolyl octanoate
##JCAMP-DX=4.24
##DATA TYPE=MASS SPECTRUM
##ORIGIN=Japan AIST/NIMC Database- Spectrum MS-NW-9433
##OWNER=NIST Mass Spectrometry Data Center
Collection (C) 2014 copyright by the U.S. Secretary of Commerce
on behalf of the United States of America. All rights reserved.
##CAS REGISTRY NO=59558-23-5
##$NIST MASS SPEC NO=236898
##MOLFORM=C15 H22 O2
##MW=234
##$NIST SOURCE=MSDC
##XUNITS=M/Z
##YUNITS=RELATIVE INTENSITY
##XFACTOR=1
##YFACTOR=1
##FIRSTX=15
##LASTX=235
##FIRSTY=10
##MAXX=235
##MINX=15
##MAXY=9999
##MINY=10
##NPOINTS=65
##PEAK TABLE=(XY..XY)
15,10 26,20 27,389 28,119
29,579 30,10 38,10 39,269
40,40 41,989 42,209 43,1149
44,40 50,30 51,99 52,80
53,139 54,30 55,779 56,90
57,3059 58,139 59,20 63,40
64,10 65,169 66,20 67,119
68,20 69,90 70,30 71,40
77,439 78,119 79,279 80,159
81,50 82,20 83,90 84,30
85,10 89,30 90,90 91,239
92,30 93,10 94,10 97,30
98,30 105,80 106,50 107,919
108,9999 109,1049 110,70 111,10
121,10 125,10 127,419 128,30
149,30 150,40 163,10 234,339
235,60
##END=
