##TITLE=.DELTA.8-Tetrahydrocannabinol
##JCAMP-DX=4.24
##DATA TYPE=MASS SPECTRUM
##ORIGIN=NIST Mass Spectrometry Data Center
##OWNER=NIST Mass Spectrometry Data Center
Collection (C) 2014 copyright by the U.S. Secretary of Commerce
on behalf of the United States of America. All rights reserved.
##CAS REGISTRY NO=5957-75-5
##$NIST MASS SPEC NO=352180
##MOLFORM=C21 H30 O2
##MW=314
##$NIST SOURCE=MSDC
##XUNITS=M/Z
##YUNITS=RELATIVE INTENSITY
##XFACTOR=1
##YFACTOR=1
##FIRSTX=26
##LASTX=317
##FIRSTY=10
##MAXX=317
##MINX=26
##MAXY=9999
##MINY=10
##NPOINTS=240
##PEAK TABLE=(XY..XY)
26,10 27,190 29,530 30,10
31,10 38,10 39,320 40,60
41,1241 42,90 43,1802 44,40
45,10 50,20 51,130 52,70
53,450 54,50 55,841 56,100
57,120 58,10 59,40 62,10
63,60 64,40 65,350 66,100
67,601 68,130 69,360 70,30
71,190 72,20 73,10 74,10
75,20 76,50 77,861 78,220
79,711 80,150 81,370 82,70
83,80 84,10 85,20 86,10
87,40 88,20 89,110 90,60
91,1361 92,250 93,631 94,160
95,270 96,30 97,40 98,20
99,20 100,80 102,90 103,280
104,90 105,831 106,200 107,1181
108,300 109,330 110,40 111,40
112,10 113,40 115,741 116,200
117,310 118,80 119,1271 120,260
121,841 122,490 123,621 124,310
125,40 126,30 127,250 128,621
129,430 130,100 131,350 132,110
133,310 134,711 135,330 136,300
137,220 138,100 139,80 140,30
141,320 142,150 143,150 144,150
145,320 146,90 147,500 148,150
149,290 150,210 151,90 152,280
153,260 154,110 155,190 156,60
157,220 158,110 159,250 160,280
161,460 162,110 163,170 164,80
165,500 166,130 167,100 168,100
169,150 170,70 171,170 172,100
173,480 174,1772 175,661 176,170
177,100 178,210 179,120 180,50
181,270 182,130 183,350 184,100
185,150 186,130 187,621 188,350
189,611 190,370 191,170 192,60
193,2252 194,330 195,170 196,70
197,200 198,80 199,220 200,160
201,1261 202,370 203,200 204,40
205,40 206,60 207,120 208,30
209,50 210,40 211,90 212,50
213,180 214,230 215,380 216,100
217,180 218,70 219,50 220,10
221,40 222,10 223,20 224,30
225,60 226,30 227,100 228,70
229,250 231,9999 232,1661 233,480
234,70 235,10 237,10 238,10
239,20 240,30 241,40 242,50
243,450 244,120 245,621 246,1321
247,230 248,30 251,10 253,50
254,20 255,50 256,30 257,420
258,3463 259,1281 260,190 261,20
267,10 269,40 271,2923 272,1141
273,190 274,20 281,10 283,30
284,10 285,100 286,50 287,10
295,10 296,10 297,70 298,20
299,701 300,140 301,20 312,10
314,5175 315,1221 316,150 317,20
##END=
