##TITLE=Benzene, 1,1',1''-(bromomethylidyne)tris-
##JCAMP-DX=4.24
##DATA TYPE=MASS SPECTRUM
##ORIGIN=Japan AIST/NIMC Database- Spectrum MS-IW-3413
##OWNER=NIST Mass Spectrometry Data Center
Collection (C) 2014 copyright by the U.S. Secretary of Commerce
on behalf of the United States of America. All rights reserved.
##CAS REGISTRY NO=596-43-0
##$NIST MASS SPEC NO=232895
##MOLFORM=C19 H15 Br
##MW=322
##$NIST SOURCE=MSDC
##XUNITS=M/Z
##YUNITS=RELATIVE INTENSITY
##XFACTOR=1
##YFACTOR=1
##FIRSTX=27
##LASTX=260
##FIRSTY=10
##MAXX=260
##MINX=27
##MAXY=9999
##MINY=10
##NPOINTS=116
##PEAK TABLE=(XY..XY)
27,10 39,70 50,40 51,109
52,20 62,40 63,109 64,10
65,30 74,50 75,60 76,50
77,109 78,40 79,20 80,40
81,20 82,40 86,40 87,70
88,80 89,60 91,169 92,10
93,60 94,189 95,50 98,20
99,20 100,70 101,199 102,30
105,80 106,219 107,289 108,109
110,10 111,20 112,40 113,329
114,169 115,219 116,20 117,10
118,159 119,579 120,439 121,199
122,40 126,50 127,20 128,20
137,20 138,20 139,159 140,20
141,30 150,40 151,40 152,90
153,20 154,30 155,20 161,40
162,60 163,239 164,269 165,4509
166,799 167,229 168,20 174,10
175,10 176,60 177,20 178,30
182,10 183,99 184,10 186,10
187,60 188,30 189,119 190,20
200,50 201,50 202,229 203,60
204,10 211,20 212,20 213,149
214,50 215,449 216,109 217,20
224,20 225,30 226,279 227,169
228,659 229,139 230,10 235,10
236,10 237,149 238,99 239,1159
240,489 241,2019 242,1839 243,9999
244,2339 245,269 246,20 260,50
##END=
