##TITLE=Propanedioic acid, dibutyl-, diethyl ester
##JCAMP-DX=4.24
##DATA TYPE=MASS SPECTRUM
##ORIGIN=Japan AIST/NIMC Database- Spectrum MS-NW-5282
##OWNER=NIST Mass Spectrometry Data Center
Collection (C) 2014 copyright by the U.S. Secretary of Commerce
on behalf of the United States of America. All rights reserved.
##CAS REGISTRY NO=596-75-8
##$NIST MASS SPEC NO=232900
##MOLFORM=C15 H28 O4
##MW=272
##$NIST SOURCE=MSDC
##XUNITS=M/Z
##YUNITS=RELATIVE INTENSITY
##XFACTOR=1
##YFACTOR=1
##FIRSTX=14
##LASTX=244
##FIRSTY=10
##MAXX=244
##MINX=14
##MAXY=9999
##MINY=10
##NPOINTS=164
##PEAK TABLE=(XY..XY)
14,10 15,50 18,40 19,20
26,70 27,989 28,259 29,3219
30,80 31,149 32,40 38,10
39,379 40,109 41,1969 42,269
43,799 44,70 45,409 46,10
47,20 50,10 51,40 52,20
53,289 54,129 55,2459 56,279
57,719 58,60 59,359 60,30
61,10 63,10 65,60 66,50
67,339 68,229 69,2839 70,279
71,209 72,40 73,679 74,80
75,10 76,10 77,60 78,20
79,109 80,50 81,469 82,80
83,1139 84,90 85,169 86,209
87,499 88,219 89,20 91,30
92,10 93,40 94,30 95,199
96,529 97,539 98,439 99,609
100,80 101,769 102,349 103,20
104,80 105,60 106,10 107,20
108,20 109,249 110,139 111,269
112,40 113,199 114,449 115,599
116,119 117,20 121,20 122,20
123,229 124,1309 125,489 126,60
127,2009 128,219 129,969 130,99
131,30 132,219 133,409 134,30
135,20 136,10 137,40 138,50
139,20 140,10 141,239 142,889
143,319 144,80 145,269 146,20
147,10 151,40 152,60 153,369
154,80 155,439 156,80 157,1119
158,129 159,279 160,509 161,50
162,10 165,10 167,10 168,10
169,629 170,609 171,879 172,109
173,9999 174,969 175,139 176,10
179,20 180,20 181,10 183,229
184,50 185,219 186,30 187,30
188,40 189,20 197,40 198,319
199,1729 200,319 201,60 202,50
213,10 215,139 216,1559 217,209
218,30 220,20 226,30 227,489
228,70 229,30 243,60 244,10
##END=
