##TITLE=1H-Naphtho[2,1-b]pyran, 3-ethenyldodecahydro-3,4a,7,7,10a-pentamethyl-, [3R-(3.alpha.,4a.beta.,6a.alpha.,10a.beta.,10b.alpha.)]-
##JCAMP-DX=4.24
##DATA TYPE=MASS SPECTRUM
##ORIGIN=NIST Mass Spectrometry Data Center
##OWNER=NIST Mass Spectrometry Data Center
Collection (C) 2014 copyright by the U.S. Secretary of Commerce
on behalf of the United States of America. All rights reserved.
##CAS REGISTRY NO=596-84-9
##$NIST MASS SPEC NO=413069
##MOLFORM=C20 H34 O
##MW=290
##$NIST SOURCE=MSDC
##XUNITS=M/Z
##YUNITS=RELATIVE INTENSITY
##XFACTOR=1
##YFACTOR=1
##FIRSTX=27
##LASTX=290
##FIRSTY=280
##MAXX=290
##MINX=27
##MAXY=9999
##MINY=10
##NPOINTS=167
##PEAK TABLE=(XY..XY)
27,280 29,480 30,10 39,601
40,170 41,3553 42,330 43,4734
44,120 45,80 46,10 51,100
52,50 53,1451 54,260 55,5485
56,440 57,681 58,130 62,20
63,30 65,540 66,240 67,4934
68,1621 69,4964 70,440 71,791
73,40 74,40 75,40 77,1031
78,190 79,2512 80,540 81,6816
82,2662 83,2162 84,160 85,250
88,110 89,90 91,1311 92,150
93,1661 94,470 95,4624 96,961
97,881 98,130 99,170 102,290
103,140 104,40 105,1111 106,280
107,2392 108,671 109,3683 110,490
111,911 112,80 113,260 114,30
115,140 116,80 117,250 118,40
119,1221 120,340 121,2372 122,1712
123,4404 124,681 125,1141 126,110
127,50 128,50 129,50 130,50
131,210 132,80 133,1321 134,290
135,1491 136,1211 137,5275 138,721
139,450 140,60 145,220 146,40
147,731 148,220 149,1571 150,450
151,941 152,120 153,160 159,180
160,30 161,681 162,130 163,861
164,250 165,280 166,70 167,70
173,200 174,60 175,510 176,100
177,4284 178,601 179,270 180,30
187,380 188,80 189,671 190,180
191,3273 192,5225 193,1111 194,100
201,350 202,70 203,280 204,90
205,510 206,80 207,310 208,60
215,120 216,40 217,90 219,60
220,500 221,110 222,50 229,70
230,210 231,90 232,30 233,20
243,30 244,20 245,1021 246,190
247,90 248,20 255,10 256,10
257,9198 258,1932 259,200 261,20
262,40 263,120 264,20 272,60
273,30 275,9999 276,2132 277,200
278,10 279,10 290,40
##END=
