##TITLE=2-Acetylphenanthrene
##JCAMP-DX=4.24
##DATA TYPE=MASS SPECTRUM
##ORIGIN=NIST Mass Spectrometry Data Center
##OWNER=NIST Mass Spectrometry Data Center
Collection (C) 2014 copyright by the U.S. Secretary of Commerce
on behalf of the United States of America. All rights reserved.
##CAS REGISTRY NO=5960-69-0
##$NIST MASS SPEC NO=340666
##MOLFORM=C16 H12 O
##MW=220
##$NIST SOURCE=MSDC
##XUNITS=M/Z
##YUNITS=RELATIVE INTENSITY
##XFACTOR=1
##YFACTOR=1
##FIRSTX=15
##LASTX=222
##FIRSTY=90
##MAXX=222
##MINX=15
##MAXY=9999
##MINY=10
##NPOINTS=97
##PEAK TABLE=(XY..XY)
15,90 27,30 38,30 39,130
42,60 43,981 44,20 50,190
51,240 52,40 53,10 61,40
62,220 63,360 64,30 65,20
68,10 69,90 73,20 74,440
75,871 76,230 77,180 78,20
81,150 82,190 85,40 86,220
87,631 88,3823 94,460 96,60
97,10 98,330 99,270 100,170
101,150 102,1461 109,70 110,280
111,170 112,20 113,80 114,10
115,60 121,10 122,130 123,110
124,70 125,170 126,380 127,140
128,20 134,30 135,30 137,70
138,30 139,130 140,10 146,20
147,10 148,20 149,380 150,2002
151,2993 152,530 153,40 161,30
162,40 163,150 164,60 165,140
166,20 173,40 174,751 175,931
176,6906 177,8568 178,1371 179,100
186,20 187,130 188,90 189,460
190,170 191,130 192,20 200,30
201,20 202,30 203,20 205,9999
206,1641 207,130 220,5095 221,871
222,80
##END=
