##TITLE=Benzenamine, 4-methoxy-N-methyl-
##JCAMP-DX=4.24
##DATA TYPE=MASS SPECTRUM
##ORIGIN=E.M.EMERY COLGATE-PALMOLIVE CO., PISCATAWAY, N.J., USA
##OWNER=NIST Mass Spectrometry Data Center
Collection (C) 2014 copyright by the U.S. Secretary of Commerce
on behalf of the United States of America. All rights reserved.
##CAS REGISTRY NO=5961-59-1
##$NIST MASS SPEC NO=39013
##MOLFORM=C8 H11 N O
##MW=137
##$NIST SOURCE=MSDC
##XUNITS=M/Z
##YUNITS=RELATIVE INTENSITY
##XFACTOR=1
##YFACTOR=1
##FIRSTX=30
##LASTX=139
##FIRSTY=190
##MAXX=139
##MINX=30
##MAXY=9999
##MINY=30
##NPOINTS=53
##PEAK TABLE=(XY..XY)
30,190 31,170 38,510 39,600
40,200 41,460 42,300 43,50
44,50 50,360 51,420 52,600
53,420 54,180 61,90 62,260
63,420 64,360 65,850 66,360
67,330 68,330 74,170 75,130
76,160 77,360 78,300 79,180
80,150 81,50 90,70 91,130
92,360 93,350 94,2180 95,260
104,90 105,60 106,120 107,90
108,180 109,70 120,260 121,480
122,9999 123,910 124,50 134,100
135,160 136,540 137,5920 138,540
139,30
##END=
