##TITLE=2-Propanol, 1,3-bis(dimethylamino)-
##JCAMP-DX=4.24
##DATA TYPE=MASS SPECTRUM
##ORIGIN=Japan AIST/NIMC Database- Spectrum MS-NW-8904
##OWNER=NIST Mass Spectrometry Data Center
Collection (C) 2014 copyright by the U.S. Secretary of Commerce
on behalf of the United States of America. All rights reserved.
##CAS REGISTRY NO=5966-51-8
##$NIST MASS SPEC NO=234908
##MOLFORM=C7 H18 N2 O
##MW=146
##$NIST SOURCE=MSDC
##XUNITS=M/Z
##YUNITS=RELATIVE INTENSITY
##XFACTOR=1
##YFACTOR=1
##FIRSTX=15
##LASTX=147
##FIRSTY=109
##MAXX=147
##MINX=15
##MAXY=9999
##MINY=10
##NPOINTS=49
##PEAK TABLE=(XY..XY)
15,109 18,60 27,30 28,77
29,109 30,439 31,20 39,20
40,10 41,70 42,689 43,219
44,639 45,179 46,30 52,10
55,20 56,80 57,159 58,9999
59,1009 60,179 68,20 70,99
71,40 72,70 73,60 74,10
77,10 78,60 82,40 83,149
84,2849 85,179 86,70 87,70
88,2269 89,109 99,10 100,80
101,10 102,30 103,40 113,159
114,10 127,40 128,299 129,40
147,10
##END=
