##TITLE=Dimethyl morpholinophosphoramidate
##JCAMP-DX=4.24
##DATA TYPE=MASS SPECTRUM
##ORIGIN=CBDCOM/ERDEC, Edgewood, MD
##OWNER=NIST Mass Spectrometry Data Center
Collection (C) 2014 copyright by the U.S. Secretary of Commerce
on behalf of the United States of America. All rights reserved.
##CAS REGISTRY NO=597-25-1
##$NIST MASS SPEC NO=226498
##MOLFORM=C6 H14 N O4 P
##MW=195
##$NIST SOURCE=MSDC
##XUNITS=M/Z
##YUNITS=RELATIVE INTENSITY
##XFACTOR=1
##YFACTOR=1
##FIRSTX=15
##LASTX=196
##FIRSTY=1191
##MAXX=196
##MINX=15
##MAXY=9999
##MINY=40
##NPOINTS=50
##PEAK TABLE=(XY..XY)
15,1191 27,290 29,290 30,390
31,190 41,290 42,590 47,590
54,490 55,390 56,2492 57,290
58,190 68,290 69,190 70,190
79,990 80,690 84,190 86,1090
93,190 95,490 96,140 106,140
107,1391 108,290 109,6495 110,7496
111,390 120,90 122,140 124,140
127,90 136,190 137,1491 138,9999
139,390 150,790 151,240 152,4994
153,390 162,40 164,1591 165,690
166,140 179,40 180,390 194,590
195,1991 196,240
##END=
