##TITLE=Tetraethylgermanium
##JCAMP-DX=4.24
##DATA TYPE=MASS SPECTRUM
##ORIGIN=Japan AIST/NIMC Database- Spectrum MS-NW-8638
##OWNER=NIST Mass Spectrometry Data Center
Collection (C) 2014 copyright by the U.S. Secretary of Commerce
on behalf of the United States of America. All rights reserved.
##CAS REGISTRY NO=597-63-7
##$NIST MASS SPEC NO=236751
##MOLFORM=C8 H20 Ge
##MW=190
##$NIST SOURCE=MSDC
##XUNITS=M/Z
##YUNITS=RELATIVE INTENSITY
##XFACTOR=1
##YFACTOR=1
##FIRSTX=26
##LASTX=192
##FIRSTY=99
##MAXX=192
##MINX=26
##MAXY=9999
##MINY=10
##NPOINTS=94
##PEAK TABLE=(XY..XY)
26,99 27,499 28,169 29,369
30,10 39,50 41,70 43,20
45,10 53,10 55,60 56,10
57,10 70,379 71,739 72,509
73,1529 74,939 75,1859 76,329
77,1059 79,169 84,40 85,169
86,70 87,289 88,149 89,379
90,60 91,159 93,20 95,50
96,20 97,219 98,70 99,1259
100,279 101,4319 102,719 103,5429
104,1379 105,5139 106,169 107,1009
108,30 109,20 110,10 111,20
112,10 113,20 114,10 115,30
116,10 117,20 118,20 119,20
127,60 128,129 129,5739 130,459
131,7689 132,2689 133,9999 134,499
135,2099 136,90 137,20 139,30
141,10 153,10 155,20 156,10
157,3939 158,279 159,5199 160,1829
161,6949 162,459 163,1449 164,99
165,30 167,40 169,10 179,10
181,20 183,20 185,10 186,80
187,10 188,109 189,50 190,149
191,20 192,30
##END=
