##TITLE=3-Pentanol, 3-ethyl-2-methyl-
##JCAMP-DX=4.24
##DATA TYPE=MASS SPECTRUM
##OWNER=NIST Mass Spectrometry Data Center
Collection (C) 2014 copyright by the U.S. Secretary of Commerce
on behalf of the United States of America. All rights reserved.
##CAS REGISTRY NO=597-05-7
##$NIST MASS SPEC NO=2820
##MOLFORM=C8 H18 O
##MW=130
##$NIST SOURCE=MSDC
##XUNITS=M/Z
##YUNITS=RELATIVE INTENSITY
##XFACTOR=1
##YFACTOR=1
##FIRSTX=18
##LASTX=130
##FIRSTY=380
##MAXX=130
##MINX=18
##MAXY=9999
##MINY=10
##NPOINTS=45
##PEAK TABLE=(XY..XY)
18,380 19,20 27,6085 28,1491
29,7477 30,300 31,3083 32,70
33,20 41,4604 42,681 43,4324
44,220 45,9999 46,220 55,2062
56,410 57,7166 58,601 59,6025
60,200 67,180 68,60 69,1301
70,40 71,470 72,50 73,190
74,20 81,40 82,20 83,701
84,110 85,200 86,741 87,6286
88,330 97,70 98,10 99,80
100,60 101,5375 102,390 115,30
130,10
##END=
