##TITLE=2,2-Dimethylbutanedioic acid
##JCAMP-DX=4.24
##DATA TYPE=MASS SPECTRUM
##ORIGIN=NIST Mass Spectrometry Data Center, 1994
##OWNER=NIST Mass Spectrometry Data Center
Collection (C) 2014 copyright by the U.S. Secretary of Commerce
on behalf of the United States of America. All rights reserved.
##CAS REGISTRY NO=597-43-3
##$NIST MASS SPEC NO=133559
##MOLFORM=C6 H10 O4
##MW=146
##$NIST SOURCE=MSDC
##XUNITS=M/Z
##YUNITS=RELATIVE INTENSITY
##XFACTOR=1
##YFACTOR=1
##FIRSTX=14
##LASTX=129
##FIRSTY=168
##MAXX=129
##MINX=14
##MAXY=9999
##MINY=83
##NPOINTS=45
##PEAK TABLE=(XY..XY)
14,168 15,368 26,230 27,1230
28,282 29,1803 30,168 31,649
32,83 37,196 38,524 39,3445
40,737 41,4841 42,1126 43,2232
44,83 45,2925 50,236 51,318
53,691 54,417 55,2624 56,3913
57,1008 58,236 59,9999 60,1346
69,1803 70,150 71,148 72,1194
73,131 82,382 83,449 85,847
87,6462 88,363 100,3122 101,1092
102,755 113,424 118,97 128,464
129,143
##END=
