##TITLE=Citalopram
##JCAMP-DX=4.24
##DATA TYPE=MASS SPECTRUM
##ORIGIN=Drug Lab
##OWNER=NIST Mass Spectrometry Data Center
Collection (C) 2014 copyright by the U.S. Secretary of Commerce
on behalf of the United States of America. All rights reserved.
##CAS REGISTRY NO=59729-33-8
##$NIST MASS SPEC NO=335092
##MOLFORM=C20 H21 F N2 O
##MW=324
##$NIST SOURCE=MSDC
##XUNITS=M/Z
##YUNITS=RELATIVE INTENSITY
##XFACTOR=1
##YFACTOR=1
##FIRSTX=41
##LASTX=325
##FIRSTY=70
##MAXX=325
##MINX=41
##MAXY=9999
##MINY=10
##NPOINTS=130
##PEAK TABLE=(XY..XY)
41,70 42,550 43,150 44,160
45,240 46,10 51,30 55,10
56,130 57,160 58,9999 59,370
62,20 63,50 68,20 69,20
70,90 71,200 72,20 73,80
74,20 75,100 76,20 77,20
81,10 82,10 83,40 84,160
85,20 86,40 87,20 88,40
89,40 90,10 94,10 95,220
96,20 99,10 100,10 101,30
102,20 103,20 107,10 109,130
110,10 113,10 114,70 115,120
116,60 117,10 120,20 121,10
123,110 125,10 126,10 127,30
128,40 129,20 130,10 131,10
133,50 134,10 135,10 140,60
141,10 142,10 143,20 144,20
146,10 150,10 152,20 153,10
154,10 155,10 156,50 157,40
158,20 163,40 164,30 165,10
166,10 168,10 169,10 170,60
171,20 175,10 176,10 177,20
180,10 181,80 182,90 183,270
184,50 188,30 189,20 190,350
191,50 192,10 193,20 194,20
195,70 196,10 200,30 201,20
202,10 203,10 206,30 207,40
208,540 209,140 210,20 211,10
218,180 219,70 220,210 221,210
222,40 232,10 234,20 235,10
236,20 237,170 238,611 239,100
240,10 245,10 295,20 323,10
324,180 325,40
##END=
