##TITLE=5-Methyl-4-octanol
##JCAMP-DX=4.24
##DATA TYPE=MASS SPECTRUM
##ORIGIN=NIST Mass Spectrometry Data Center, 1990.
##OWNER=NIST Mass Spectrometry Data Center
Collection (C) 2014 copyright by the U.S. Secretary of Commerce
on behalf of the United States of America. All rights reserved.
##CAS REGISTRY NO=59734-23-5
##$NIST MASS SPEC NO=113734
##MOLFORM=C9 H20 O
##MW=144
##$NIST SOURCE=MSDC
##XUNITS=M/Z
##YUNITS=RELATIVE INTENSITY
##XFACTOR=1
##YFACTOR=1
##FIRSTX=14
##LASTX=126
##FIRSTY=11
##MAXX=126
##MINX=14
##MAXY=9999
##MINY=11
##NPOINTS=48
##PEAK TABLE=(XY..XY)
14,11 15,119 17,31 18,111
19,92 27,1859 28,412 29,1645
30,108 31,980 32,18 39,1051
40,252 41,2546 42,672 43,4023
44,456 45,1172 50,34 51,112
53,349 55,9999 56,896 57,1185
58,265 59,749 65,51 67,143
68,62 69,482 70,647 71,874
72,1597 73,5363 74,256 77,39
79,45 81,54 83,1770 84,347
85,49 97,181 98,29 99,42
100,155 101,755 102,49 126,196
##END=
