##TITLE=4-Bromo-2-chlorobenzoic acid
##JCAMP-DX=4.24
##DATA TYPE=MASS SPECTRUM
##ORIGIN=NIST Mass Spectrometry Data Center, 1994
##OWNER=NIST Mass Spectrometry Data Center
Collection (C) 2014 copyright by the U.S. Secretary of Commerce
on behalf of the United States of America. All rights reserved.
##CAS REGISTRY NO=59748-90-2
##$NIST MASS SPEC NO=136282
##MOLFORM=C7 H4 Br Cl O2
##MW=234
##$NIST SOURCE=MSDC
##XUNITS=M/Z
##YUNITS=RELATIVE INTENSITY
##XFACTOR=1
##YFACTOR=1
##FIRSTX=25
##LASTX=239
##FIRSTY=121
##MAXX=239
##MINX=25
##MAXY=9999
##MINY=20
##NPOINTS=110
##PEAK TABLE=(XY..XY)
25,121 26,20 35,175 36,268
37,1574 38,911 39,316 44,95
45,1381 47,179 48,150 49,899
50,2339 51,544 52,68 53,607
54,68 55,379 56,140 60,211
61,563 62,537 63,1474 64,386
65,97 66,74 69,234 70,86
71,95 72,383 73,1970 74,5381
75,5553 76,567 77,265 78,87
79,263 80,149 81,353 82,120
83,54 84,863 85,300 86,332
87,179 89,57 90,80 91,413
92,181 93,66 95,117 96,57
99,749 101,318 103,317 104,506
105,177 106,88 108,250 109,1090
110,1749 111,877 112,657 113,183
117,144 118,81 119,227 126,76
127,103 128,115 129,90 130,120
133,276 137,80 138,76 141,46
142,110 143,207 144,128 145,344
153,278 154,296 155,349 156,304
170,57 171,62 172,79 173,284
178,88 179,65 189,2115 190,453
191,2643 192,341 193,627 194,98
206,324 208,433 210,103 217,8051
219,9999 220,879 221,2430 222,187
234,7465 235,577 236,9758 237,753
238,2409 239,187
##END=
