##TITLE=1,3-Dioxolane, 2-(3-chloropropyl)-2-methyl-
##JCAMP-DX=4.24
##DATA TYPE=MASS SPECTRUM
##ORIGIN=Japan AIST/NIMC Database- Spectrum MS-NW-8659
##OWNER=NIST Mass Spectrometry Data Center
Collection (C) 2014 copyright by the U.S. Secretary of Commerce
on behalf of the United States of America. All rights reserved.
##CAS REGISTRY NO=5978-08-5
##$NIST MASS SPEC NO=238975
##MOLFORM=C7 H13 Cl O2
##MW=164
##$NIST SOURCE=MSDC
##XUNITS=M/Z
##YUNITS=RELATIVE INTENSITY
##XFACTOR=1
##YFACTOR=1
##FIRSTX=14
##LASTX=163
##FIRSTY=30
##MAXX=163
##MINX=14
##MAXY=9999
##MINY=10
##NPOINTS=80
##PEAK TABLE=(XY..XY)
14,30 15,309 26,70 27,519
28,209 29,299 30,20 31,179
32,20 33,10 35,10 36,40
37,20 38,60 39,609 40,109
41,1329 42,439 43,5859 44,209
45,259 49,169 50,20 51,70
52,10 53,109 54,20 55,559
56,50 57,70 58,259 59,179
60,40 61,40 62,20 63,60
65,40 66,10 67,239 68,40
69,189 70,30 71,209 72,349
73,50 74,10 75,60 76,99
77,699 78,50 79,229 80,10
83,20 84,30 85,459 86,90
87,9999 88,449 89,50 91,10
99,1019 100,80 101,30 103,30
105,1219 106,60 107,399 108,20
113,30 115,20 120,20 121,30
123,10 129,10 134,10 149,3079
150,209 151,999 152,70 163,10
##END=
