##TITLE=Ethanol, 2,2-dichloro-
##JCAMP-DX=4.24
##DATA TYPE=MASS SPECTRUM
##ORIGIN=NIST Mass Spectrometry Data Center
##OWNER=NIST Mass Spectrometry Data Center
Collection (C) 2014 copyright by the U.S. Secretary of Commerce
on behalf of the United States of America. All rights reserved.
##CAS REGISTRY NO=598-38-9
##$NIST MASS SPEC NO=333064
##MOLFORM=C2 H4 Cl2 O
##MW=114
##$NIST SOURCE=MSDC
##XUNITS=M/Z
##YUNITS=RELATIVE INTENSITY
##XFACTOR=1
##YFACTOR=1
##FIRSTX=14
##LASTX=118
##FIRSTY=100
##MAXX=118
##MINX=14
##MAXY=9999
##MINY=10
##NPOINTS=58
##PEAK TABLE=(XY..XY)
14,100 15,280 16,10 17,10
24,20 25,100 26,370 27,290
29,851 31,9999 32,130 33,20
35,310 36,110 37,120 38,40
39,10 40,20 41,130 42,641
43,961 47,571 48,1021 49,1351
50,430 51,390 52,30 59,30
60,200 61,661 62,280 63,230
64,70 65,20 70,10 76,140
77,100 78,190 79,641 80,60
81,200 82,70 83,741 84,60
85,480 86,20 87,80 95,10
96,40 97,30 98,20 99,10
112,10 114,661 115,30 116,420
117,10 118,70
##END=
