##TITLE=Ethane, 1,2-dibromo-1-chloro-
##JCAMP-DX=4.24
##DATA TYPE=MASS SPECTRUM
##ORIGIN=NIST Mass Spectrometry Data Center, 1998.
##OWNER=NIST Mass Spectrometry Data Center
Collection (C) 2014 copyright by the U.S. Secretary of Commerce
on behalf of the United States of America. All rights reserved.
##CAS REGISTRY NO=598-20-9
##$NIST MASS SPEC NO=291971
##MOLFORM=C2 H3 Br2 Cl
##MW=220
##$NIST SOURCE=MSDC
##XUNITS=M/Z
##YUNITS=RELATIVE INTENSITY
##XFACTOR=1
##YFACTOR=1
##FIRSTX=13
##LASTX=226
##FIRSTY=10
##MAXX=226
##MINX=13
##MAXY=9999
##MINY=10
##NPOINTS=75
##PEAK TABLE=(XY..XY)
13,10 14,10 24,30 25,190
26,930 27,890 35,120 36,30
37,40 38,10 47,80 48,80
49,40 50,30 51,10 59,30
60,340 61,2440 62,1110 63,790
64,310 65,10 70,10 71,10
79,690 80,140 81,690 82,140
83,10 91,90 92,60 93,220
94,70 95,140 103,30 104,200
105,1810 106,370 107,1730 108,170
114,20 116,30 118,10 126,20
127,290 128,20 129,380 130,10
131,90 138,10 139,60 140,130
141,7989 142,300 143,9999 144,240
145,2450 146,50 158,30 160,70
162,40 173,10 183,10 184,10
185,90 186,20 187,160 188,10
189,70 220,70 221,10 222,170
223,10 224,120 226,20
##END=
