##TITLE=Ethene, tribromo-
##JCAMP-DX=4.24
##DATA TYPE=MASS SPECTRUM
##ORIGIN=Japan AIST/NIMC Database- Spectrum MS-NW-4414
##OWNER=NIST Mass Spectrometry Data Center
Collection (C) 2014 copyright by the U.S. Secretary of Commerce
on behalf of the United States of America. All rights reserved.
##CAS REGISTRY NO=598-16-3
##$NIST MASS SPEC NO=230385
##MOLFORM=C2 H Br3
##MW=262
##$NIST SOURCE=MSDC
##XUNITS=M/Z
##YUNITS=RELATIVE INTENSITY
##XFACTOR=1
##YFACTOR=1
##FIRSTX=12
##LASTX=270
##FIRSTY=90
##MAXX=270
##MINX=12
##MAXY=9999
##MINY=10
##NPOINTS=54
##PEAK TABLE=(XY..XY)
12,90 13,50 14,10 24,229
25,1589 26,20 79,1799 80,279
81,1739 82,279 91,429 92,139
93,469 94,119 103,499 104,3839
105,899 106,3829 107,489 108,40
127,10 128,10 129,10 131,80
132,199 133,199 134,70 158,169
160,319 162,149 170,30 171,129
172,70 173,229 174,60 175,119
176,20 182,169 183,4999 184,569
185,9999 186,659 187,5179 188,259
189,259 262,2719 263,299 264,7839
265,789 266,7719 267,759 268,2539
269,259 270,10
##END=
