##TITLE=2-Pentene, 3,4,4-trimethyl-
##JCAMP-DX=4.24
##DATA TYPE=MASS SPECTRUM
##OWNER=NIST Mass Spectrometry Data Center
Collection (C) 2014 copyright by the U.S. Secretary of Commerce
on behalf of the United States of America. All rights reserved.
##CAS REGISTRY NO=598-96-9
##$NIST MASS SPEC NO=1587
##MOLFORM=C8 H16
##MW=112
##$NIST SOURCE=MSDC
##XUNITS=M/Z
##YUNITS=RELATIVE INTENSITY
##XFACTOR=1
##YFACTOR=1
##FIRSTX=12
##LASTX=114
##FIRSTY=10
##MAXX=114
##MINX=12
##MAXY=9999
##MINY=10
##NPOINTS=74
##PEAK TABLE=(XY..XY)
12,10 13,20 14,100 15,1241
16,50 25,10 26,210 27,2772
28,500 29,2212 30,50 31,10
37,50 38,170 39,2672 40,370
41,4214 42,290 43,1301 44,40
45,20 46,50 47,10 48,10
49,20 50,230 51,490 52,200
53,1051 54,220 55,7877 56,861
57,2422 58,110 61,10 62,40
63,100 64,20 65,210 66,100
67,470 68,70 69,2082 70,210
71,10 73,10 74,20 75,10
76,10 77,200 78,50 79,270
80,60 81,400 82,50 83,50
84,40 85,10 86,10 89,10
91,30 92,10 93,10 94,10
95,70 96,170 97,9999 98,791
99,30 110,10 111,10 112,2662
113,240 114,10
##END=
