##TITLE=Dimethylketene
##JCAMP-DX=4.24
##DATA TYPE=MASS SPECTRUM
##OWNER=NIST Mass Spectrometry Data Center
Collection (C) 2014 copyright by the U.S. Secretary of Commerce
on behalf of the United States of America. All rights reserved.
##CAS REGISTRY NO=598-26-5
##$NIST MASS SPEC NO=259
##MOLFORM=C4 H6 O
##MW=70
##$NIST SOURCE=MSDC
##XUNITS=M/Z
##YUNITS=RELATIVE INTENSITY
##XFACTOR=1
##YFACTOR=1
##FIRSTX=25
##LASTX=71
##FIRSTY=330
##MAXX=71
##MINX=25
##MAXY=9999
##MINY=20
##NPOINTS=24
##PEAK TABLE=(XY..XY)
25,330 26,1001 27,3143 29,440
36,200 37,1001 38,1331 39,5805
40,3143 41,9999 42,3453 43,1221
51,60 52,50 53,220 54,70
55,310 56,200 57,20 58,40
68,130 69,70 70,4654 71,240
##END=
