##TITLE=4-Heptanol, 4-methyl-
##JCAMP-DX=4.24
##DATA TYPE=MASS SPECTRUM
##OWNER=NIST Mass Spectrometry Data Center
Collection (C) 2014 copyright by the U.S. Secretary of Commerce
on behalf of the United States of America. All rights reserved.
##CAS REGISTRY NO=598-01-6
##$NIST MASS SPEC NO=2824
##MOLFORM=C8 H18 O
##MW=130
##$NIST SOURCE=MSDC
##XUNITS=M/Z
##YUNITS=RELATIVE INTENSITY
##XFACTOR=1
##YFACTOR=1
##FIRSTX=13
##LASTX=129
##FIRSTY=10
##MAXX=129
##MINX=13
##MAXY=9999
##MINY=10
##NPOINTS=85
##PEAK TABLE=(XY..XY)
13,10 14,60 15,561 16,20
17,60 18,210 19,20 25,10
26,190 27,2933 28,480 29,1561
30,50 31,611 32,20 33,10
36,10 37,50 38,120 39,1371
40,230 41,2873 42,450 43,3974
44,190 45,6946 46,160 47,30
49,10 50,50 51,100 52,40
53,260 54,60 55,1972 56,510
57,530 58,510 59,380 60,20
61,10 62,10 63,30 64,10
65,50 66,20 67,150 68,80
69,1832 70,390 71,571 72,40
73,280 74,20 75,10 77,30
78,10 79,30 80,10 81,40
82,20 83,170 84,100 85,30
86,180 87,9999 88,540 89,30
91,20 92,10 93,10 95,20
97,100 98,10 99,10 101,40
102,10 109,10 110,10 112,180
113,40 115,1081 116,80 117,10
129,10
##END=
