##TITLE=Urea, N,N-dimethyl-
##JCAMP-DX=4.24
##DATA TYPE=MASS SPECTRUM
##ORIGIN=Japan AIST/NIMC Database- Spectrum MS-NW-5005
##OWNER=NIST Mass Spectrometry Data Center
Collection (C) 2014 copyright by the U.S. Secretary of Commerce
on behalf of the United States of America. All rights reserved.
##CAS REGISTRY NO=598-94-7
##$NIST MASS SPEC NO=230091
##MOLFORM=C3 H8 N2 O
##MW=88
##$NIST SOURCE=MSDC
##XUNITS=M/Z
##YUNITS=RELATIVE INTENSITY
##XFACTOR=1
##YFACTOR=1
##FIRSTX=12
##LASTX=90
##FIRSTY=50
##MAXX=90
##MINX=12
##MAXY=9999
##MINY=10
##NPOINTS=42
##PEAK TABLE=(XY..XY)
12,50 13,60 14,179 15,1949
16,239 17,99 18,839 19,10
26,80 27,329 28,1789 29,429
30,1129 31,30 32,10 38,50
39,90 40,259 41,339 42,2139
43,1649 44,9999 45,4289 46,119
53,70 54,20 55,40 56,199
57,30 58,20 59,70 60,10
67,10 69,459 70,289 71,20
72,659 73,99 87,10 88,4319
89,219 90,20
##END=
