##TITLE=Carbamic acid, methyl ester
##JCAMP-DX=4.24
##DATA TYPE=MASS SPECTRUM
##ORIGIN=NIST Mass Spectrometry Data Center, 1998.
##OWNER=NIST Mass Spectrometry Data Center
Collection (C) 2014 copyright by the U.S. Secretary of Commerce
on behalf of the United States of America. All rights reserved.
##CAS REGISTRY NO=598-55-0
##$NIST MASS SPEC NO=291053
##MOLFORM=C2 H5 N O2
##MW=75
##$NIST SOURCE=MSDC
##XUNITS=M/Z
##YUNITS=RELATIVE INTENSITY
##XFACTOR=1
##YFACTOR=1
##FIRSTX=14
##LASTX=76
##FIRSTY=50
##MAXX=76
##MINX=14
##MAXY=9999
##MINY=40
##NPOINTS=22
##PEAK TABLE=(XY..XY)
14,50 15,360 16,260 17,120
18,90 27,50 28,230 29,950
30,470 31,1650 32,340 33,50
42,130 43,640 44,9999 45,2090
46,2820 47,240 59,240 74,40
75,2510 76,60
##END=
