##TITLE=Bromoacetyl bromide
##JCAMP-DX=4.24
##DATA TYPE=MASS SPECTRUM
##ORIGIN=Japan AIST/NIMC Database- Spectrum MS-NW-2899
##OWNER=NIST Mass Spectrometry Data Center
Collection (C) 2014 copyright by the U.S. Secretary of Commerce
on behalf of the United States of America. All rights reserved.
##CAS REGISTRY NO=598-21-0
##$NIST MASS SPEC NO=230574
##MOLFORM=C2 H2 Br2 O
##MW=200
##$NIST SOURCE=MSDC
##XUNITS=M/Z
##YUNITS=RELATIVE INTENSITY
##XFACTOR=1
##YFACTOR=1
##FIRSTX=12
##LASTX=125
##FIRSTY=109
##MAXX=125
##MINX=12
##MAXY=9999
##MINY=10
##NPOINTS=27
##PEAK TABLE=(XY..XY)
12,109 13,419 14,1059 28,20
29,10 40,60 41,549 42,3449
43,99 79,799 80,209 81,779
82,209 91,259 92,449 93,2989
94,609 95,2759 96,189 107,60
109,60 120,439 121,9999 122,649
123,9619 124,219 125,20
##END=
