##TITLE=Methyl nitrate
##JCAMP-DX=4.24
##DATA TYPE=MASS SPECTRUM
##OWNER=NIST Mass Spectrometry Data Center
Collection (C) 2014 copyright by the U.S. Secretary of Commerce
on behalf of the United States of America. All rights reserved.
##CAS REGISTRY NO=598-58-3
##$NIST MASS SPEC NO=387
##MOLFORM=C H3 N O3
##MW=77
##$NIST SOURCE=MSDC
##XUNITS=M/Z
##YUNITS=RELATIVE INTENSITY
##XFACTOR=1
##YFACTOR=1
##FIRSTX=2
##LASTX=77
##FIRSTY=50
##MAXX=77
##MINX=2
##MAXY=9999
##MINY=10
##NPOINTS=25
##PEAK TABLE=(XY..XY)
2,50 12,90 13,140 14,350
15,631 16,200 17,40 18,60
19,10 20,10 25,10 26,10
27,40 28,270 29,2492 30,3143
31,90 32,280 46,9999 47,50
48,40 60,10 61,10 76,50
77,10
##END=
