##TITLE=Propanoic acid, 2,2-dimethyl-, methyl ester
##JCAMP-DX=4.24
##DATA TYPE=MASS SPECTRUM
##ORIGIN=NIST Mass Spectrometry Data Center, 1992
##OWNER=NIST Mass Spectrometry Data Center
Collection (C) 2014 copyright by the U.S. Secretary of Commerce
on behalf of the United States of America. All rights reserved.
##CAS REGISTRY NO=598-98-1
##$NIST MASS SPEC NO=125388
##MOLFORM=C6 H12 O2
##MW=116
##$NIST SOURCE=MSDC
##XUNITS=M/Z
##YUNITS=RELATIVE INTENSITY
##XFACTOR=1
##YFACTOR=1
##FIRSTX=12
##LASTX=118
##FIRSTY=9
##MAXX=118
##MINX=12
##MAXY=9999
##MINY=2
##NPOINTS=57
##PEAK TABLE=(XY..XY)
12,9 13,33 14,209 15,2210
16,33 17,5 18,15 24,3
26,193 27,1198 28,390 29,3294
30,155 31,112 33,37 37,84
38,296 39,2166 40,3 41,5849
42,587 43,357 44,30 45,147
46,3 49,16 50,75 51,99
52,31 53,169 54,3 55,546
56,2969 57,9999 58,494 59,893
60,35 61,68 67,8 69,407
70,88 71,26 72,8 73,1579
74,84 75,8 82,8 83,24
85,759 86,39 87,4 99,19
101,369 102,23 116,470 117,39
118,2
##END=
