##TITLE=5,7-Octadien-2-ol, 2,6-dimethyl-
##JCAMP-DX=4.24
##DATA TYPE=MASS SPECTRUM
##ORIGIN=J.E. WILKINSON S-CUBED, SAN DIEGO, CA.
##OWNER=NIST Mass Spectrometry Data Center
Collection (C) 2014 copyright by the U.S. Secretary of Commerce
on behalf of the United States of America. All rights reserved.
##CAS REGISTRY NO=5986-38-9
##$NIST MASS SPEC NO=90779
##MOLFORM=C10 H18 O
##MW=154
##$NIST SOURCE=MSDC
##XUNITS=M/Z
##YUNITS=RELATIVE INTENSITY
##XFACTOR=1
##YFACTOR=1
##FIRSTX=41
##LASTX=139
##FIRSTY=4240
##MAXX=139
##MINX=41
##MAXY=9999
##MINY=3
##NPOINTS=50
##PEAK TABLE=(XY..XY)
41,4240 42,266 43,5493 44,156
45,99 50,79 51,550 52,295
53,2908 54,204 55,2111 56,264
57,196 58,300 59,8401 60,136
63,62 65,624 66,278 67,1236
68,658 69,332 70,45 71,91
77,1805 78,173 79,5051 80,2868
81,8786 82,468 83,176 84,128
85,11 91,1686 92,1426 93,9999
94,1017 95,332 97,14 105,485
106,57 107,921 108,74 109,3
119,23 121,2372 122,102 136,2341
137,119 139,88
##END=
