##TITLE=(S)-2,6-Dioxohexahydro-4-pyrimidinecarboxylic acid
##JCAMP-DX=4.24
##DATA TYPE=MASS SPECTRUM
##ORIGIN=Japan AIST/NIMC Database- Spectrum MS-NW-6083
##OWNER=NIST Mass Spectrometry Data Center
Collection (C) 2014 copyright by the U.S. Secretary of Commerce
on behalf of the United States of America. All rights reserved.
##CAS REGISTRY NO=5988-19-2
##$NIST MASS SPEC NO=235937
##MOLFORM=C5 H6 N2 O4
##MW=158
##$NIST SOURCE=MSDC
##XUNITS=M/Z
##YUNITS=RELATIVE INTENSITY
##XFACTOR=1
##YFACTOR=1
##FIRSTX=12
##LASTX=160
##FIRSTY=10
##MAXX=160
##MINX=12
##MAXY=9999
##MINY=10
##NPOINTS=60
##PEAK TABLE=(XY..XY)
12,10 13,10 14,109 15,199
16,50 17,10 18,30 25,20
26,199 27,489 28,2859 29,149
30,40 31,30 32,10 38,50
39,99 40,409 41,539 42,1099
43,4419 44,879 45,449 46,30
51,20 52,30 53,60 54,50
55,479 56,50 57,20 59,20
60,30 67,30 68,149 69,279
70,5579 71,279 72,129 73,40
74,30 78,10 80,10 81,10
83,10 84,20 85,20 86,60
87,10 95,10 96,30 97,40
99,20 112,259 113,9999 114,649
115,70 158,479 159,40 160,10
##END=
