##TITLE=D-Limonene
##JCAMP-DX=4.24
##DATA TYPE=MASS SPECTRUM
##ORIGIN=Japan AIST/NIMC Database- Spectrum MS-NW-1514
##OWNER=NIST Mass Spectrometry Data Center
Collection (C) 2014 copyright by the U.S. Secretary of Commerce
on behalf of the United States of America. All rights reserved.
##CAS REGISTRY NO=5989-27-5
##$NIST MASS SPEC NO=229344
##MOLFORM=C10 H16
##MW=136
##$NIST SOURCE=MSDC
##XUNITS=M/Z
##YUNITS=RELATIVE INTENSITY
##XFACTOR=1
##YFACTOR=1
##FIRSTX=15
##LASTX=138
##FIRSTY=50
##MAXX=138
##MINX=15
##MAXY=9999
##MINY=10
##NPOINTS=85
##PEAK TABLE=(XY..XY)
15,50 26,40 27,929 28,99
29,559 30,10 32,30 37,10
38,80 39,1559 40,579 41,1929
42,289 43,349 44,30 45,10
50,129 51,459 52,239 53,1709
54,159 55,709 56,70 57,60
58,50 59,30 60,10 61,10
62,40 63,159 64,40 65,489
66,289 67,4469 68,9999 69,909
70,60 71,50 72,10 73,10
74,40 75,30 76,20 77,1169
78,299 79,2279 80,1109 81,1089
82,239 83,40 84,30 85,10
87,20 89,40 90,10 91,1269
92,1879 93,5909 94,2259 95,759
96,70 97,10 98,10 102,10
103,80 104,40 105,439 106,139
107,1709 108,489 109,70 115,70
116,20 117,50 118,10 119,139
120,40 121,1949 122,189 123,20
134,40 135,40 136,2259 137,269
138,10
##END=
