##TITLE=Tricyclo[5.4.0.0(2,8)]undec-9-ene, 2,6,6,9-tetramethyl-, (1R,2S,7R,8R)-
##JCAMP-DX=4.24
##DATA TYPE=MASS SPECTRUM
##ORIGIN=G.BRAMMER,UNIVERSITY OF TEXAS
##OWNER=NIST Mass Spectrometry Data Center
Collection (C) 2014 copyright by the U.S. Secretary of Commerce
on behalf of the United States of America. All rights reserved.
##CAS REGISTRY NO=5989-08-2
##$NIST MASS SPEC NO=43939
##MOLFORM=C15 H24
##MW=204
##$NIST SOURCE=MSDC
##XUNITS=M/Z
##YUNITS=RELATIVE INTENSITY
##XFACTOR=1
##YFACTOR=1
##FIRSTX=26
##LASTX=205
##FIRSTY=1
##MAXX=205
##MINX=26
##MAXY=9999
##MINY=1
##NPOINTS=157
##PEAK TABLE=(XY..XY)
26,1 27,309 29,417 30,9
33,2 35,1 37,21 38,17
39,582 41,1560 42,177 43,560
45,4 46,2 47,2 48,1
49,2 50,34 51,210 52,88
53,604 54,104 55,1461 56,868
57,406 58,33 59,23 60,2
61,12 62,20 63,122 64,48
65,516 66,150 67,593 68,217
69,1384 70,307 71,52 72,20
73,8 74,53 75,19 76,39
77,994 78,304 79,1192 80,752
81,1005 82,254 83,251 84,191
85,23 86,6 87,18 88,4
89,107 90,15 91,2554 92,1818
93,3500 94,862 95,719 96,226
97,192 98,12 99,6 100,8
101,24 102,53 103,295 104,139
105,5164 106,1236 107,2719 108,1060
109,1181 110,138 111,48 112,194
113,24 114,20 115,434 116,153
117,467 118,329 119,9999 120,2335
121,2049 122,719 123,339 124,90
125,9 126,2 127,45 128,198
129,178 130,101 131,390 132,226
133,4225 134,1137 135,686 136,1181
137,131 138,12 139,15 140,2
141,101 142,31 143,65 144,78
145,275 146,93 147,851 148,521
149,284 150,43 151,20 152,10
153,5 154,7 155,8 156,2
157,31 158,5 159,48 160,86
161,2390 162,478 163,83 164,12
165,30 166,6 167,7 168,8
169,5 170,10 171,7 172,1
173,26 174,12 175,262 176,118
187,23 188,5 189,1076 190,219
191,16 193,5 194,6 200,7
201,4 202,14 203,32 204,2109
205,406
##END=
