##TITLE=Phenol, 4-(1-methyl-1-phenylethyl)-
##JCAMP-DX=4.24
##DATA TYPE=MASS SPECTRUM
##ORIGIN=V.G. Zaikin, TIPS RAS, Moscow, Russia
##OWNER=NIST Mass Spectrometry Data Center
Collection (C) 2014 copyright by the U.S. Secretary of Commerce
on behalf of the United States of America. All rights reserved.
##CAS REGISTRY NO=599-64-4
##$NIST MASS SPEC NO=278584
##MOLFORM=C15 H16 O
##MW=212
##$NIST SOURCE=MSDC
##XUNITS=M/Z
##YUNITS=RELATIVE INTENSITY
##XFACTOR=1
##YFACTOR=1
##FIRSTX=29
##LASTX=214
##FIRSTY=220
##MAXX=214
##MINX=29
##MAXY=9999
##MINY=50
##NPOINTS=101
##PEAK TABLE=(XY..XY)
29,220 31,90 38,50 39,440
40,190 41,490 42,50 43,110
44,410 50,150 51,621 52,110
53,110 54,280 56,70 62,50
63,190 64,50 65,440 66,50
69,140 70,50 74,70 75,110
76,270 77,961 78,190 79,90
82,190 83,170 84,170 85,50
87,50 88,80 89,290 90,140
91,1581 92,220 93,50 94,60
95,190 96,50 97,130 98,440
99,50 101,70 102,90 103,1611
104,190 105,130 106,110 107,250
113,70 115,280 116,50 117,60
118,50 119,961 120,110 121,50
127,90 128,130 129,110 132,70
133,50 134,50 135,791 136,70
139,90 141,160 142,50 151,80
152,290 153,260 154,50 155,50
163,70 164,50 165,260 166,90
167,180 168,80 169,80 170,50
176,50 177,140 178,260 179,260
180,90 181,440 182,330 183,260
195,140 196,210 197,9999 198,1481
199,130 211,50 212,2793 213,460
214,50
##END=
