##TITLE=2,4,6,8-Tetramethyl-1-undecene
##JCAMP-DX=4.24
##DATA TYPE=MASS SPECTRUM
##ORIGIN=T. KOJIMA, DEP. CHEM., NATL. DEF. ACAD., YOKOSUKA-SHI, JAPAN
##OWNER=NIST Mass Spectrometry Data Center
Collection (C) 2014 copyright by the U.S. Secretary of Commerce
on behalf of the United States of America. All rights reserved.
##CAS REGISTRY NO=59920-26-2
##$NIST MASS SPEC NO=99765
##MOLFORM=C15 H30
##MW=210
##$NIST SOURCE=MSDC
##XUNITS=M/Z
##YUNITS=RELATIVE INTENSITY
##XFACTOR=1
##YFACTOR=1
##FIRSTX=27
##LASTX=112
##FIRSTY=5300
##MAXX=112
##MINX=27
##MAXY=9999
##MINY=100
##NPOINTS=24
##PEAK TABLE=(XY..XY)
27,5300 28,5400 29,6000 39,2300
41,7500 42,2000 43,9999 44,1200
53,600 55,4000 56,1800 57,3600
68,1300 69,3000 70,1700 71,1600
83,1200 84,1100 85,1000 97,100
98,100 99,100 111,100 112,100
##END=
