##TITLE=Acetic acid, bromo-, 2-methylpropyl ester
##JCAMP-DX=4.24
##DATA TYPE=MASS SPECTRUM
##ORIGIN=V.Zaikin,Topchiev Inst.Petrochem.Synth.,Moscow
##OWNER=NIST Mass Spectrometry Data Center
Collection (C) 2014 copyright by the U.S. Secretary of Commerce
on behalf of the United States of America. All rights reserved.
##CAS REGISTRY NO=59956-48-8
##$NIST MASS SPEC NO=282362
##MOLFORM=C6 H11 Br O2
##MW=194
##$NIST SOURCE=MSDC
##XUNITS=M/Z
##YUNITS=RELATIVE INTENSITY
##XFACTOR=1
##YFACTOR=1
##FIRSTX=26
##LASTX=155
##FIRSTY=90
##MAXX=155
##MINX=26
##MAXY=9999
##MINY=10
##NPOINTS=51
##PEAK TABLE=(XY..XY)
26,90 27,601 28,180 29,1081
30,50 31,130 35,20 36,150
37,20 38,60 39,651 40,140
41,2442 42,1161 43,1702 44,20
45,30 49,10 54,20 55,380
56,9999 57,2372 58,90 59,80
60,20 69,100 71,320 72,470
73,310 74,10 82,50 91,10
92,30 93,480 94,60 95,470
96,30 97,20 115,30 120,60
121,1581 122,90 123,1541 124,30
139,40 141,30 151,160 152,50
153,170 154,50 155,20
##END=
