##TITLE=Methyl lithocholate, (3.alpha.,5.beta.)-, TMS derivative
##JCAMP-DX=4.24
##DATA TYPE=MASS SPECTRUM
##ORIGIN=H. ALDERCREUTZ, UNIVERSITY OF HELSINKI, HELSINKI, FINLAND
##OWNER=NIST Mass Spectrometry Data Center
Collection (C) 2014 copyright by the U.S. Secretary of Commerce
on behalf of the United States of America. All rights reserved.
##CAS REGISTRY NO=59953-47-8
##$NIST MASS SPEC NO=54979
##MOLFORM=C28 H50 O3 Si
##MW=462
##$NIST SOURCE=MSDC
##XUNITS=M/Z
##YUNITS=RELATIVE INTENSITY
##XFACTOR=1
##YFACTOR=1
##FIRSTX=67
##LASTX=462
##FIRSTY=291
##MAXX=462
##MINX=67
##MAXY=9999
##MINY=2
##NPOINTS=134
##PEAK TABLE=(XY..XY)
67,291 69,111 71,124 75,834
79,206 81,857 82,156 83,338
85,569 86,217 87,323 91,307
92,243 93,550 94,624 95,1077
96,105 97,333 101,444 105,1038
106,1106 107,1324 108,1069 109,937
110,254 111,137 115,349 117,206
118,180 119,884 120,985 121,1101
122,863 123,511 124,227 125,264
129,397 131,519 132,233 133,953
134,1355 135,1437 136,418 137,222
141,190 142,476 143,275 145,900
146,349 147,1482 148,603 149,1101
150,254 154,667 155,391 157,233
158,206 159,1016 160,752 161,1991
162,1742 163,545 164,195 173,820
174,683 175,1069 176,836 177,344
181,174 185,164 187,624 188,492
189,561 191,68 195,296 197,180
199,206 201,1345 202,693 203,677
204,185 209,2 213,365 214,312
215,9999 216,4406 217,1533 218,587
227,201 229,1038 230,2669 231,895
235,180 241,185 243,190 249,233
255,275 256,206 257,3558 258,677
259,164 262,741 263,561 264,529
276,857 277,354 278,164 285,312
299,264 315,270 316,381 317,609
318,863 319,238 323,895 324,296
325,450 329,180 330,312 331,301
341,346 342,105 343,201 344,349
357,2912 358,826 359,180 371,376
372,9151 373,2420 374,503 447,439
448,180 462,222
##END=
