##TITLE=(S)-(-)-1-Amino-2-(methoxymethyl)-pyrrolidine
##JCAMP-DX=4.24
##DATA TYPE=MASS SPECTRUM
##ORIGIN=Chuck Anderson, Aldrich Chemical Co.
##OWNER=NIST Mass Spectrometry Data Center
Collection (C) 2014 copyright by the U.S. Secretary of Commerce
on behalf of the United States of America. All rights reserved.
##CAS REGISTRY NO=59983-39-0
##$NIST MASS SPEC NO=108405
##MOLFORM=C6 H14 N2 O
##MW=130
##$NIST SOURCE=MSDC
##XUNITS=M/Z
##YUNITS=RELATIVE INTENSITY
##XFACTOR=1
##YFACTOR=1
##FIRSTX=15
##LASTX=131
##FIRSTY=222
##MAXX=131
##MINX=15
##MAXY=9999
##MINY=4
##NPOINTS=43
##PEAK TABLE=(XY..XY)
15,222 17,36 18,193 26,72
27,469 28,544 29,599 30,449
31,187 32,20 33,18 38,25
39,434 40,68 41,1759 42,304
43,1014 44,219 45,694 51,18
52,10 53,90 54,81 55,242
56,242 57,359 58,79 67,82
68,1419 69,133 70,73 71,164
80,22 82,34 83,153 84,5
85,9999 86,399 87,4 97,45
98,10 130,232 131,4
##END=
