##TITLE=4,4-Dimethyl-3-oxopentanenitrile
##JCAMP-DX=4.24
##DATA TYPE=MASS SPECTRUM
##ORIGIN=Japan AIST/NIMC Database- Spectrum MS-IW-2678
##OWNER=NIST Mass Spectrometry Data Center
Collection (C) 2014 copyright by the U.S. Secretary of Commerce
on behalf of the United States of America. All rights reserved.
##CAS REGISTRY NO=59997-51-2
##$NIST MASS SPEC NO=234576
##MOLFORM=C7 H11 N O
##MW=125
##$NIST SOURCE=MSDC
##XUNITS=M/Z
##YUNITS=RELATIVE INTENSITY
##XFACTOR=1
##YFACTOR=1
##FIRSTX=14
##LASTX=125
##FIRSTY=20
##MAXX=125
##MINX=14
##MAXY=9999
##MINY=10
##NPOINTS=43
##PEAK TABLE=(XY..XY)
14,20 15,90 26,70 27,639
28,209 29,3799 30,90 31,10
37,50 38,129 39,1339 40,879
41,6139 42,479 43,119 49,10
50,70 51,90 52,40 53,139
54,99 55,639 56,179 57,9999
58,549 59,10 63,10 64,10
65,30 66,20 67,50 68,899
69,819 70,90 82,409 83,50
85,249 86,10 92,20 97,1089
98,70 110,90 125,40
##END=
