##TITLE=Benzenamine, N,N-dimethyl-4-(phenylazo)-
##JCAMP-DX=4.24
##DATA TYPE=MASS SPECTRUM
##ORIGIN=NIST Mass Spectrometry Data Center, 1998.
##OWNER=NIST Mass Spectrometry Data Center
Collection (C) 2014 copyright by the U.S. Secretary of Commerce
on behalf of the United States of America. All rights reserved.
##CAS REGISTRY NO=60-11-7
##$NIST MASS SPEC NO=290734
##MOLFORM=C14 H15 N3
##MW=225
##$NIST SOURCE=MSDC
##XUNITS=M/Z
##YUNITS=RELATIVE INTENSITY
##XFACTOR=1
##YFACTOR=1
##FIRSTX=15
##LASTX=227
##FIRSTY=40
##MAXX=227
##MINX=15
##MAXY=9999
##MINY=10
##NPOINTS=119
##PEAK TABLE=(XY..XY)
15,40 26,10 27,90 29,10
30,10 37,40 38,120 39,360
40,40 41,120 42,2270 43,120
44,150 49,10 50,540 51,1720
52,330 53,120 54,60 55,40
56,10 58,10 60,10 61,20
62,100 63,620 64,340 65,480
66,260 67,80 68,150 69,70
70,10 73,10 74,130 75,140
76,440 77,4980 78,1370 79,1580
80,270 81,70 82,20 87,10
88,20 89,70 90,510 91,1370
92,750 93,550 94,160 95,10
98,10 101,10 102,60 103,370
104,1960 105,2590 106,230 107,20
108,10 111,10 112,200 114,10
115,60 116,20 117,180 118,960
119,1030 120,9999 121,970 122,40
126,10 127,30 128,20 129,10
131,10 132,10 133,90 134,30
135,20 136,20 139,20 140,20
141,20 142,10 144,10 145,10
146,20 148,1440 149,140 150,20
151,50 152,210 153,150 154,60
155,10 165,10 166,20 167,30
168,10 178,10 179,10 180,80
181,110 182,20 183,10 194,10
195,10 196,80 197,20 208,10
210,10 211,10 222,10 224,150
225,6249 226,1040 227,80
##END=
