##TITLE=Aminocaproic acid
##JCAMP-DX=4.24
##DATA TYPE=MASS SPECTRUM
##ORIGIN=James Little,Eastman Chem.Co.,Kingsport,TN
##OWNER=NIST Mass Spectrometry Data Center
Collection (C) 2014 copyright by the U.S. Secretary of Commerce
on behalf of the United States of America. All rights reserved.
##CAS REGISTRY NO=60-32-2
##$NIST MASS SPEC NO=298481
##MOLFORM=C6 H13 N O2
##MW=131
##$NIST SOURCE=MSDC
##XUNITS=M/Z
##YUNITS=RELATIVE INTENSITY
##XFACTOR=1
##YFACTOR=1
##FIRSTX=27
##LASTX=132
##FIRSTY=611
##MAXX=132
##MINX=27
##MAXY=9999
##MINY=20
##NPOINTS=32
##PEAK TABLE=(XY..XY)
27,611 28,460 29,380 30,9999
31,310 39,450 41,681 42,390
43,310 44,340 45,1401 54,90
55,480 56,340 59,290 60,130
67,200 69,180 70,60 72,801
73,190 74,30 83,30 84,90
85,30 86,130 95,20 112,40
114,120 130,20 131,150 132,140
##END=
