##TITLE=2H-Imidazole-2-thione, 1,3-dihydro-1-methyl-
##JCAMP-DX=4.24
##DATA TYPE=MASS SPECTRUM
##ORIGIN=Japan AIST/NIMC Database- Spectrum MS-NW-7239
##OWNER=NIST Mass Spectrometry Data Center
Collection (C) 2014 copyright by the U.S. Secretary of Commerce
on behalf of the United States of America. All rights reserved.
##CAS REGISTRY NO=60-56-0
##$NIST MASS SPEC NO=236047
##MOLFORM=C4 H6 N2 S
##MW=114
##$NIST SOURCE=MSDC
##XUNITS=M/Z
##YUNITS=RELATIVE INTENSITY
##XFACTOR=1
##YFACTOR=1
##FIRSTX=13
##LASTX=117
##FIRSTY=10
##MAXX=117
##MINX=13
##MAXY=9999
##MINY=10
##NPOINTS=68
##PEAK TABLE=(XY..XY)
13,10 14,30 15,199 25,20
26,149 27,219 28,839 29,129
30,109 32,90 33,30 34,10
38,50 39,80 40,269 41,289
42,1389 43,90 44,199 45,519
46,139 47,50 50,10 51,50
52,199 53,119 54,739 55,529
56,419 57,559 58,189 59,419
60,209 61,30 62,10 66,20
67,20 68,239 69,1079 70,129
71,139 72,1679 73,149 74,149
75,10 76,10 79,129 80,50
81,859 82,149 83,20 84,80
85,40 86,409 87,50 88,20
97,40 98,40 99,219 100,10
101,10 111,20 112,20 113,1229
114,9999 115,669 116,479 117,30
##END=
