##TITLE=Propanoic acid, 2,3-dibromo-
##JCAMP-DX=4.24
##DATA TYPE=MASS SPECTRUM
##ORIGIN=Japan AIST/NIMC Database- Spectrum MS-NW-8809
##OWNER=NIST Mass Spectrometry Data Center
Collection (C) 2014 copyright by the U.S. Secretary of Commerce
on behalf of the United States of America. All rights reserved.
##CAS REGISTRY NO=600-05-5
##$NIST MASS SPEC NO=227642
##MOLFORM=C3 H4 Br2 O2
##MW=230
##$NIST SOURCE=MSDC
##XUNITS=M/Z
##YUNITS=RELATIVE INTENSITY
##XFACTOR=1
##YFACTOR=1
##FIRSTX=12
##LASTX=232
##FIRSTY=40
##MAXX=232
##MINX=12
##MAXY=9999
##MINY=10
##NPOINTS=107
##PEAK TABLE=(XY..XY)
12,40 13,60 14,139 15,209
16,50 17,30 18,149 24,90
25,709 26,3809 27,9999 28,869
29,309 30,10 31,40 32,20
34,20 36,99 37,40 38,40
39,30 40,50 41,149 42,549
43,769 44,2099 45,3169 46,99
47,10 51,10 52,70 53,849
54,369 55,1909 56,139 57,30
60,60 61,20 62,30 63,10
64,20 66,20 67,20 69,30
70,10 71,6419 72,2719 73,229
74,20 77,30 79,939 80,2159
81,959 82,2109 83,20 84,60
87,10 89,10 91,60 92,50
93,149 94,80 95,99 96,30
103,40 104,239 105,2149 106,3029
107,2409 108,2719 109,379 110,10
111,40 120,139 121,20 122,199
123,119 124,60 125,109 127,20
128,10 133,919 134,30 135,909
136,30 149,80 150,5439 151,5049
152,5459 153,4819 154,189 155,20
158,20 159,50 160,40 161,30
162,20 185,109 186,10 187,209
188,10 189,99 204,10 206,10
224,10 226,10 232,10
##END=
