##TITLE=Propanoic acid, 2-oxo-, methyl ester
##JCAMP-DX=4.24
##DATA TYPE=MASS SPECTRUM
##ORIGIN=NIST Mass Spectrometry Data Center, 1998.
##OWNER=NIST Mass Spectrometry Data Center
Collection (C) 2014 copyright by the U.S. Secretary of Commerce
on behalf of the United States of America. All rights reserved.
##CAS REGISTRY NO=600-22-6
##$NIST MASS SPEC NO=291583
##MOLFORM=C4 H6 O3
##MW=102
##$NIST SOURCE=MSDC
##XUNITS=M/Z
##YUNITS=RELATIVE INTENSITY
##XFACTOR=1
##YFACTOR=1
##FIRSTX=13
##LASTX=104
##FIRSTY=20
##MAXX=104
##MINX=13
##MAXY=9999
##MINY=10
##NPOINTS=30
##PEAK TABLE=(XY..XY)
13,20 14,100 15,640 16,10
24,10 25,30 26,70 27,50
28,20 29,450 30,90 31,60
33,10 37,10 40,20 41,150
42,780 43,9999 44,390 45,150
52,10 53,50 54,10 56,100
59,590 60,20 74,10 102,1150
103,50 104,10
##END=
