##TITLE=2,3-Dibromobutyric acid
##JCAMP-DX=4.24
##DATA TYPE=MASS SPECTRUM
##ORIGIN=NIST Mass Spectrometry Data Center, 1994
##OWNER=NIST Mass Spectrometry Data Center
Collection (C) 2014 copyright by the U.S. Secretary of Commerce
on behalf of the United States of America. All rights reserved.
##CAS REGISTRY NO=600-30-6
##$NIST MASS SPEC NO=133732
##MOLFORM=C4 H6 Br2 O2
##MW=244
##$NIST SOURCE=MSDC
##XUNITS=M/Z
##YUNITS=RELATIVE INTENSITY
##XFACTOR=1
##YFACTOR=1
##FIRSTX=4
##LASTX=201
##FIRSTY=17
##MAXX=201
##MINX=4
##MAXY=9999
##MINY=17
##NPOINTS=69
##PEAK TABLE=(XY..XY)
4,17 14,98 15,342 16,68
25,135 26,630 27,1119 28,333
29,2348 30,89 31,298 32,41
36,160 37,922 38,2017 39,9557
40,1650 41,9940 42,905 43,501
44,415 45,3479 46,75 50,58
53,222 55,205 57,2141 58,158
66,76 68,1714 69,1025 70,69
71,473 79,586 80,731 81,623
82,667 85,9999 86,1695 87,113
91,67 92,117 93,331 94,105
95,323 105,267 106,95 107,443
108,67 109,361 111,56 118,59
119,674 120,665 121,1476 122,602
123,845 137,178 138,211 139,125
140,261 147,351 148,89 149,306
165,9594 167,9103 168,444 181,83
201,49
##END=
