##TITLE=3-Pentanol, 2,4-dimethyl-
##JCAMP-DX=4.24
##DATA TYPE=MASS SPECTRUM
##ORIGIN=Japan AIST/NIMC Database- Spectrum MS-NW- 962
##OWNER=NIST Mass Spectrometry Data Center
Collection (C) 2014 copyright by the U.S. Secretary of Commerce
on behalf of the United States of America. All rights reserved.
##CAS REGISTRY NO=600-36-2
##$NIST MASS SPEC NO=230228
##MOLFORM=C7 H16 O
##MW=116
##$NIST SOURCE=MSDC
##XUNITS=M/Z
##YUNITS=RELATIVE INTENSITY
##XFACTOR=1
##YFACTOR=1
##FIRSTX=15
##LASTX=101
##FIRSTY=50
##MAXX=101
##MINX=15
##MAXY=9999
##MINY=10
##NPOINTS=44
##PEAK TABLE=(XY..XY)
15,50 17,10 18,50 19,10
26,30 27,799 28,109 29,509
30,30 31,619 37,10 38,40
39,609 40,90 41,1129 42,149
43,2299 44,90 45,1089 46,20
50,10 51,30 52,10 53,99
54,40 55,4379 56,459 57,519
58,60 59,169 65,10 67,40
69,40 70,20 71,119 72,849
73,9999 74,449 75,30 83,179
84,10 85,30 98,30 101,10
##END=
