##TITLE=Propanoic acid, 2-bromo-2-methyl-, ethyl ester
##JCAMP-DX=4.24
##DATA TYPE=MASS SPECTRUM
##ORIGIN=Japan AIST/NIMC Database- Spectrum MS-NW-1320
##OWNER=NIST Mass Spectrometry Data Center
Collection (C) 2014 copyright by the U.S. Secretary of Commerce
on behalf of the United States of America. All rights reserved.
##CAS REGISTRY NO=600-00-0
##$NIST MASS SPEC NO=230729
##MOLFORM=C6 H11 Br O2
##MW=194
##$NIST SOURCE=MSDC
##XUNITS=M/Z
##YUNITS=RELATIVE INTENSITY
##XFACTOR=1
##YFACTOR=1
##FIRSTX=13
##LASTX=197
##FIRSTY=10
##MAXX=197
##MINX=13
##MAXY=9999
##MINY=10
##NPOINTS=85
##PEAK TABLE=(XY..XY)
13,10 14,70 15,389 16,10
18,20 25,30 26,399 27,2259
28,349 29,7479 30,169 31,319
32,99 36,20 37,70 38,159
39,1909 40,539 41,9999 42,2069
43,829 44,80 45,919 46,30
47,20 53,50 54,10 55,70
56,10 57,40 58,30 59,3779
60,129 68,30 69,839 70,689
71,249 72,10 73,90 75,20
76,20 77,159 78,20 79,60
80,70 81,50 82,60 85,20
86,99 87,4359 88,269 89,20
93,60 95,50 99,30 105,40
106,20 107,50 108,20 109,20
113,10 114,20 115,7079 116,499
117,50 120,409 121,6539 122,619
123,6419 124,199 125,20 133,10
135,30 137,20 149,409 150,20
151,389 152,20 153,20 166,20
168,20 194,199 195,20 196,189
197,10
##END=
