##TITLE=Propanoic acid, 3-chloro-, methyl ester
##JCAMP-DX=4.24
##DATA TYPE=MASS SPECTRUM
##ORIGIN=NIST Mass Spectrometry Data Center
##OWNER=NIST Mass Spectrometry Data Center
Collection (C) 2014 copyright by the U.S. Secretary of Commerce
on behalf of the United States of America. All rights reserved.
##CAS REGISTRY NO=6001-87-2
##$NIST MASS SPEC NO=333910
##MOLFORM=C4 H7 Cl O2
##MW=122
##$NIST SOURCE=MSDC
##XUNITS=M/Z
##YUNITS=RELATIVE INTENSITY
##XFACTOR=1
##YFACTOR=1
##FIRSTX=14
##LASTX=125
##FIRSTY=30
##MAXX=125
##MINX=14
##MAXY=9999
##MINY=10
##NPOINTS=61
##PEAK TABLE=(XY..XY)
14,30 15,230 24,10 25,40
26,420 27,1481 28,781 29,460
30,100 31,120 33,10 35,40
36,10 37,40 38,20 39,60
40,10 41,90 42,270 43,120
44,40 45,350 46,10 47,30
48,40 49,280 50,30 51,110
52,20 53,110 54,40 55,1241
56,90 57,30 59,2943 60,240
61,320 62,520 63,5515 64,290
65,1862 66,40 71,10 77,10
79,20 81,10 85,20 87,9999
88,661 89,210 90,130 91,5695
92,250 93,1942 94,70 95,10
121,40 122,300 123,70 124,100
125,20
##END=
