##TITLE=Crotonyl isothiocyanate
##JCAMP-DX=4.24
##DATA TYPE=MASS SPECTRUM
##ORIGIN=NIST Mass Spectrometry Data Center, 1994
##OWNER=NIST Mass Spectrometry Data Center
Collection (C) 2014 copyright by the U.S. Secretary of Commerce
on behalf of the United States of America. All rights reserved.
##CAS REGISTRY NO=60034-28-8
##$NIST MASS SPEC NO=134473
##MOLFORM=C5 H5 N O S
##MW=127
##$NIST SOURCE=MSDC
##XUNITS=M/Z
##YUNITS=RELATIVE INTENSITY
##XFACTOR=1
##YFACTOR=1
##FIRSTX=4
##LASTX=127
##FIRSTY=4
##MAXX=127
##MINX=4
##MAXY=9999
##MINY=4
##NPOINTS=52
##PEAK TABLE=(XY..XY)
4,4 12,21 13,19 14,45
15,206 16,13 24,11 25,65
26,297 27,249 28,118 29,56
32,337 33,17 34,24 36,74
37,523 38,1063 39,6091 40,752
41,6633 42,310 43,15 44,158
45,109 46,36 49,31 50,62
51,68 52,35 53,132 54,57
55,8 56,26 57,8 58,702
59,220 60,83 62,13 63,17
64,21 66,23 69,9999 70,493
71,74 72,40 75,16 83,15
84,15 86,247 88,12 127,14
##END=
