##TITLE=4,7-Methano-1H-indene, octahydro-
##JCAMP-DX=4.24
##DATA TYPE=MASS SPECTRUM
##ORIGIN=Japan AIST/NIMC Database- Spectrum MS-NW-8667
##OWNER=NIST Mass Spectrometry Data Center
Collection (C) 2014 copyright by the U.S. Secretary of Commerce
on behalf of the United States of America. All rights reserved.
##CAS REGISTRY NO=6004-38-2
##$NIST MASS SPEC NO=232340
##MOLFORM=C10 H16
##MW=136
##$NIST SOURCE=MSDC
##XUNITS=M/Z
##YUNITS=RELATIVE INTENSITY
##XFACTOR=1
##YFACTOR=1
##FIRSTX=15
##LASTX=138
##FIRSTY=40
##MAXX=138
##MINX=15
##MAXY=9999
##MINY=10
##NPOINTS=71
##PEAK TABLE=(XY..XY)
15,40 18,10 26,50 27,859
28,169 29,359 37,20 38,90
39,1769 40,369 41,2589 42,189
43,70 50,119 51,409 52,229
53,999 54,659 55,729 56,30
57,10 58,20 61,10 62,30
63,129 64,40 65,689 66,2789
67,7089 68,3819 69,609 70,30
74,20 75,20 76,10 77,1099
78,439 79,3289 80,2319 81,1329
82,839 83,60 84,10 89,20
90,10 91,839 92,159 93,2249
94,4719 95,9999 96,789 97,30
102,10 103,50 104,10 105,109
106,50 107,1679 108,1669 109,159
110,10 115,20 117,10 119,10
121,2899 122,289 123,10 135,149
136,4089 137,459 138,20
##END=
