##TITLE=N,N-Dimethylformamide dipropyl acetal
##JCAMP-DX=4.24
##DATA TYPE=MASS SPECTRUM
##ORIGIN=Chuck Anderson, Aldrich Chemical Co.
##OWNER=NIST Mass Spectrometry Data Center
Collection (C) 2014 copyright by the U.S. Secretary of Commerce
on behalf of the United States of America. All rights reserved.
##CAS REGISTRY NO=6006-65-1
##$NIST MASS SPEC NO=108303
##MOLFORM=C9 H21 N O2
##MW=175
##$NIST SOURCE=MSDC
##XUNITS=M/Z
##YUNITS=RELATIVE INTENSITY
##XFACTOR=1
##YFACTOR=1
##FIRSTX=14
##LASTX=132
##FIRSTY=58
##MAXX=132
##MINX=14
##MAXY=9999
##MINY=16
##NPOINTS=38
##PEAK TABLE=(XY..XY)
14,58 15,606 18,507 19,16
26,422 27,2199 28,1785 29,1992
30,1240 31,3600 32,185 33,65
37,33 38,133 39,596 40,300
41,1597 42,2762 43,5563 44,3495
45,390 46,563 47,592 56,42
57,132 58,493 59,902 60,516
72,775 73,5488 74,9999 75,390
89,1804 90,123 116,3834 117,250
131,2011 132,136
##END=
