##TITLE=1,3-Dithiolane, 2,2-dimethyl-
##JCAMP-DX=4.24
##DATA TYPE=MASS SPECTRUM
##ORIGIN=P. Vainiotalo, Dep. Chem., Univ. Joensuu, Joensuu, Finland
##OWNER=NIST Mass Spectrometry Data Center
Collection (C) 2014 copyright by the U.S. Secretary of Commerce
on behalf of the United States of America. All rights reserved.
##CAS REGISTRY NO=6008-78-2
##$NIST MASS SPEC NO=115120
##MOLFORM=C5 H10 S2
##MW=134
##$NIST SOURCE=MSDC
##XUNITS=M/Z
##YUNITS=RELATIVE INTENSITY
##XFACTOR=1
##YFACTOR=1
##FIRSTX=27
##LASTX=136
##FIRSTY=500
##MAXX=136
##MINX=27
##MAXY=9999
##MINY=200
##NPOINTS=29
##PEAK TABLE=(XY..XY)
27,500 39,900 41,2200 44,200
45,1600 46,400 47,600 55,400
58,900 59,9700 60,900 61,1700
64,400 66,400 73,600 74,3300
75,900 76,600 78,300 87,400
106,4500 107,300 108,400 119,7100
120,500 121,700 134,9999 135,900
136,1000
##END=
