##TITLE=1,2-Dithiepane
##JCAMP-DX=4.24
##DATA TYPE=MASS SPECTRUM
##ORIGIN=D. CORINA, DEP. BIOCHEM., UNIV. SOUTHAMPTON, SOUTHAMPTON, U.
##OWNER=NIST Mass Spectrometry Data Center
Collection (C) 2014 copyright by the U.S. Secretary of Commerce
on behalf of the United States of America. All rights reserved.
##CAS REGISTRY NO=6008-51-1
##$NIST MASS SPEC NO=73786
##MOLFORM=C5 H10 S2
##MW=134
##$NIST SOURCE=MSDC
##XUNITS=M/Z
##YUNITS=RELATIVE INTENSITY
##XFACTOR=1
##YFACTOR=1
##FIRSTX=41
##LASTX=136
##FIRSTY=9500
##MAXX=136
##MINX=41
##MAXY=9999
##MINY=260
##NPOINTS=24
##PEAK TABLE=(XY..XY)
41,9500 45,1900 47,1700 55,2300
60,1600 61,1500 64,1100 67,1900
68,2200 69,9999 74,630 85,540
87,3900 88,290 89,260 97,290
100,330 101,1000 102,2000 103,1300
105,330 134,7800 135,520 136,760
##END=
