##TITLE=Stigmastane
##JCAMP-DX=4.24
##DATA TYPE=MASS SPECTRUM
##OWNER=NIST Mass Spectrometry Data Center
Collection (C) 2014 copyright by the U.S. Secretary of Commerce
on behalf of the United States of America. All rights reserved.
##CAS REGISTRY NO=601-58-1
##$NIST MASS SPEC NO=16991
##MOLFORM=C29 H52
##MW=400
##$NIST SOURCE=MSDC
##XUNITS=M/Z
##YUNITS=RELATIVE INTENSITY
##XFACTOR=1
##YFACTOR=1
##FIRSTX=36
##LASTX=403
##FIRSTY=50
##MAXX=403
##MINX=36
##MAXY=9999
##MINY=10
##NPOINTS=279
##PEAK TABLE=(XY..XY)
36,50 37,50 38,100 39,701
40,2522 41,4824 42,901 43,7907
44,557 46,50 48,300 50,100
51,100 52,80 53,621 54,400
55,5725 56,801 57,3703 58,200
59,100 60,360 61,100 64,500
65,200 66,200 67,2953 68,1101
69,3103 70,821 71,1682 72,120
73,400 74,100 75,50 76,200
77,500 78,150 79,1601 80,500
81,3924 82,901 83,2022 84,500
85,1001 86,100 87,180 88,50
91,851 92,250 93,1902 94,801
95,4224 96,651 97,1381 98,300
99,200 100,110 101,170 102,80
103,140 104,450 105,931 106,380
107,1802 108,1802 109,4654 110,701
111,621 112,320 113,320 114,90
115,180 116,110 117,230 118,80
119,571 120,350 121,1802 122,1551
123,2052 124,330 125,220 126,70
127,90 128,100 129,220 130,90
131,270 132,180 133,621 134,420
135,1601 136,701 137,891 138,190
139,110 140,50 141,100 142,60
143,100 144,60 145,190 146,130
147,981 148,931 149,5405 150,2052
151,1051 152,170 153,70 154,50
155,70 156,40 157,70 158,60
159,150 160,130 161,711 162,711
163,1101 164,320 165,180 166,70
167,270 168,100 169,60 170,30
171,50 172,40 173,100 174,110
175,961 176,440 177,400 178,180
179,110 180,80 181,50 182,30
183,40 184,20 185,60 186,20
187,90 188,70 189,470 190,450
191,260 192,110 193,100 194,50
195,40 196,30 197,40 198,30
199,50 200,30 201,160 202,120
203,1421 204,410 205,210 206,70
207,120 208,50 209,50 210,50
211,60 212,50 213,80 214,70
215,150 216,400 217,9999 218,5805
219,2002 220,290 221,70 222,30
223,20 224,20 225,20 226,20
227,30 228,30 229,30 230,50
231,210 232,1651 233,440 234,70
235,40 236,90 237,30 238,20
239,40 240,10 241,20 242,20
243,80 244,40 245,70 246,100
247,50 248,30 249,20 250,20
251,10 252,10 253,20 254,20
255,20 256,50 257,140 258,130
259,300 260,80 261,50 262,20
263,20 264,30 271,40 272,30
273,50 274,20 275,70 276,50
277,30 278,20 280,50 281,30
284,20 285,40 286,40 287,260
288,80 289,70 290,611 291,180
292,50 299,10 300,40 301,40
302,160 303,120 304,70 305,20
315,20 316,20 317,80 318,30
329,80 330,80 331,80 341,20
342,10 343,150 344,60 345,30
346,10 356,60 357,50 358,10
370,260 371,160 372,100 383,70
384,120 385,3153 386,230 387,200
388,30 398,70 399,100 400,3403
401,1051 402,170 403,20
##END=
