##TITLE=1,1'-Biphenyl, 2,2',4,4',5',6-Hexachloro-
##JCAMP-DX=4.24
##DATA TYPE=MASS SPECTRUM
##ORIGIN=Organic Synthesis Lab, MSU, Moscow.TRC 1233
##OWNER=NIST Mass Spectrometry Data Center
Collection (C) 2014 copyright by the U.S. Secretary of Commerce
on behalf of the United States of America. All rights reserved.
##CAS REGISTRY NO=60145-22-4
##$NIST MASS SPEC NO=326615
##MOLFORM=C12 H4 Cl6
##MW=358
##$NIST SOURCE=MSDC
##XUNITS=M/Z
##YUNITS=RELATIVE INTENSITY
##XFACTOR=1
##YFACTOR=1
##FIRSTX=41
##LASTX=369
##FIRSTY=19
##MAXX=369
##MINX=41
##MAXY=9999
##MINY=11
##NPOINTS=153
##PEAK TABLE=(XY..XY)
41,19 44,128 47,55 48,28
49,108 50,114 51,22 55,26
60,91 61,235 62,154 63,36
66,11 67,15 71,39 72,134
73,457 74,415 75,63 80,24
81,15 83,34 84,285 85,233
86,192 87,48 91,188 94,16
95,51 96,156 97,213 98,384
99,98 102,17 106,31 107,123
108,329 109,787 110,530 111,149
112,15 114,35 115,28 116,25
118,24 119,46 120,130 121,158
122,225 123,107 124,18 126,476
127,509 130,19 131,69 132,181
133,188 134,86 135,78 136,20
142,22 144,946 145,1279 146,828
147,345 148,158 149,18 156,48
157,104 158,80 159,47 160,26
163,132 166,14 167,47 168,40
169,68 170,38 171,44 179,169
180,346 181,364 182,417 183,324
184,131 185,79 192,47 193,55
194,31 195,32 196,15 203,34
204,56 205,80 206,45 207,26
208,23 216,57 217,165 218,1002
219,224 220,743 221,113 222,116
227,16 228,55 229,26 230,79
232,11 238,51 240,75 241,20
242,47 243,17 252,309 253,357
254,345 255,332 256,110 257,128
258,22 285,13 288,3495 289,493
290,4213 291,611 292,2210 293,247
294,405 295,58 296,40 322,49
323,936 324,184 325,1488 326,274
327,933 328,135 329,320 330,44
331,62 358,5247 359,687 360,9999
361,1317 362,8429 363,1110 364,3543
365,467 366,851 367,99 368,113
369,14
##END=
