##TITLE=1,1'-Biphenyl, 2,2',4,5',6-Pentachloro-
##JCAMP-DX=4.24
##DATA TYPE=MASS SPECTRUM
##ORIGIN=N. Todua, WGM, MMES
##OWNER=NIST Mass Spectrometry Data Center
Collection (C) 2014 copyright by the U.S. Secretary of Commerce
on behalf of the United States of America. All rights reserved.
##CAS REGISTRY NO=60145-21-3
##$NIST MASS SPEC NO=334735
##MOLFORM=C12 H5 Cl5
##MW=324
##$NIST SOURCE=MSDC
##XUNITS=M/Z
##YUNITS=RELATIVE INTENSITY
##XFACTOR=1
##YFACTOR=1
##FIRSTX=41
##LASTX=334
##FIRSTY=64
##MAXX=334
##MINX=41
##MAXY=9999
##MINY=64
##NPOINTS=148
##PEAK TABLE=(XY..XY)
41,64 44,129 47,129 48,129
49,257 50,386 51,193 55,129
56,64 60,193 61,514 62,386
63,193 65,64 66,129 67,64
68,64 71,129 72,193 73,579
74,836 75,386 79,193 80,129
81,129 83,129 84,322 85,514
86,386 87,257 91,322 92,643
95,129 96,193 97,386 98,707
99,386 100,129 103,64 107,257
108,386 109,1222 110,836 111,450
114,129 115,129 116,129 118,64
119,129 120,193 121,257 122,450
123,386 124,193 125,193 127,1350
128,1286 129,514 131,129 132,193
133,257 134,193 135,193 138,64
143,129 144,322 145,514 146,386
147,386 148,322 149,386 150,129
155,64 156,129 157,129 158,257
159,257 160,193 161,193 162,386
163,450 164,386 165,193 166,193
167,193 168,193 169,257 170,193
171,193 172,193 180,193 181,193
182,257 183,386 184,1350 185,322
186,514 187,193 193,64 194,193
195,257 196,193 197,193 204,193
205,193 206,257 207,193 208,193
209,64 216,193 217,193 218,514
219,643 220,386 221,386 222,257
223,193 228,193 230,193 232,193
252,129 253,193 254,3997 255,643
256,3740 257,579 258,1415 259,322
288,193 289,2004 290,450 291,2390
292,450 293,1286 294,257 295,322
296,129 324,6387 325,965 326,9999
327,1286 328,6645 329,965 330,2004
331,322 332,450 333,129 334,129
##END=
