##TITLE=n-Capric acid n-heptyl ester
##JCAMP-DX=4.24
##DATA TYPE=MASS SPECTRUM
##ORIGIN=Japan AIST/NIMC Database- Spectrum MS-NW-5306
##OWNER=NIST Mass Spectrometry Data Center
Collection (C) 2014 copyright by the U.S. Secretary of Commerce
on behalf of the United States of America. All rights reserved.
##CAS REGISTRY NO=60160-17-0
##$NIST MASS SPEC NO=233153
##MOLFORM=C17 H34 O2
##MW=270
##$NIST SOURCE=MSDC
##XUNITS=M/Z
##YUNITS=RELATIVE INTENSITY
##XFACTOR=1
##YFACTOR=1
##FIRSTX=14
##LASTX=271
##FIRSTY=10
##MAXX=271
##MINX=14
##MAXY=9999
##MINY=10
##NPOINTS=135
##PEAK TABLE=(XY..XY)
14,10 15,50 17,10 18,30
25,10 26,109 27,1459 28,249
29,2959 30,60 31,129 32,20
37,20 38,40 39,969 40,239
41,5539 42,1959 43,6979 44,269
45,169 46,10 49,10 50,30
51,50 52,40 53,329 54,619
55,4419 56,5429 57,9999 58,499
59,139 60,1439 61,2369 62,70
63,30 65,40 66,40 67,529
68,1069 69,3599 70,5169 71,2549
72,159 73,1949 74,239 75,60
77,30 78,20 79,99 80,40
81,609 82,239 83,1269 84,599
85,1109 86,99 87,639 88,60
89,319 90,20 91,40 92,10
93,60 94,30 95,489 96,139
97,609 98,4799 99,489 100,50
101,349 102,70 103,279 104,20
105,10 107,40 108,30 109,60
110,219 111,249 112,209 113,119
114,40 115,399 116,159 117,109
118,10 121,20 122,10 123,20
124,10 125,80 126,50 127,30
128,30 129,1209 130,119 131,50
132,10 135,90 136,40 137,90
138,20 139,30 141,20 143,299
144,30 145,20 152,20 153,129
154,30 155,3709 156,449 157,60
158,20 159,40 169,10 170,20
171,119 172,669 173,5489 174,619
175,60 183,10 185,10 199,60
213,70 214,10 227,40 228,20
241,10 270,30 271,10
##END=
