##TITLE=3-Tridecene
##JCAMP-DX=4.24
##DATA TYPE=MASS SPECTRUM
##ORIGIN=S.A. Rang et al., IR & MS of Unsatd. Hydrocarbons, 1977
##OWNER=NIST Mass Spectrometry Data Center
Collection (C) 2014 copyright by the U.S. Secretary of Commerce
on behalf of the United States of America. All rights reserved.
##CAS REGISTRY NO=60186-78-9
##$NIST MASS SPEC NO=142644
##MOLFORM=C13 H24
##MW=180
##$NIST SOURCE=MSDC
##XUNITS=M/Z
##YUNITS=RELATIVE INTENSITY
##XFACTOR=1
##YFACTOR=1
##FIRSTX=15
##LASTX=182
##FIRSTY=23
##MAXX=182
##MINX=15
##MAXY=9999
##MINY=5
##NPOINTS=115
##PEAK TABLE=(XY..XY)
15,23 24,5 25,19 26,172
27,2330 29,3976 30,93 36,5
37,19 38,70 39,2182 40,684
41,8675 42,1498 43,5422 44,140
45,28 46,5 49,14 50,79
51,302 52,326 53,1726 54,1693
55,6024 56,1856 57,2247 58,121
59,19 60,37 61,9 62,19
63,84 64,47 65,651 66,1009
67,9999 68,4819 69,4578 70,1270
71,651 72,42 73,33 74,9
75,19 76,9 77,570 78,149
79,1172 80,344 81,5542 82,3855
83,1303 84,505 85,168 86,19
87,9 89,9 90,5 91,219
92,37 93,335 94,191 95,4819
96,1237 97,521 98,195 99,37
100,5 101,5 102,5 103,9
104,5 105,33 106,9 107,116
108,121 109,4699 110,1856 111,288
112,79 113,28 114,5 115,9
117,5 119,5 121,28 122,33
123,847 124,423 125,84 126,56
127,19 128,5 129,5 133,5
135,28 136,14 137,298 138,149
139,28 140,47 141,14 149,23
151,537 152,79 153,9 154,51
155,9 165,19 166,9 179,5
180,23 181,5 182,5
##END=
