##TITLE=Phenanthrene, 9,10-diphenyl-
##JCAMP-DX=4.24
##DATA TYPE=MASS SPECTRUM
##OWNER=NIST Mass Spectrometry Data Center
Collection (C) 2014 copyright by the U.S. Secretary of Commerce
on behalf of the United States of America. All rights reserved.
##CAS REGISTRY NO=602-15-3
##$NIST MASS SPEC NO=15370
##MOLFORM=C26 H18
##MW=330
##$NIST SOURCE=MSDC
##XUNITS=M/Z
##YUNITS=RELATIVE INTENSITY
##XFACTOR=1
##YFACTOR=1
##FIRSTX=37
##LASTX=333
##FIRSTY=10
##MAXX=333
##MINX=37
##MAXY=9999
##MINY=10
##NPOINTS=230
##PEAK TABLE=(XY..XY)
37,10 38,60 39,781 40,60
41,240 42,50 43,150 44,10
45,10 49,10 50,230 51,711
52,120 53,50 54,20 55,80
56,50 57,100 58,10 61,10
62,80 63,220 64,30 65,50
66,10 67,20 68,10 69,40
70,30 71,40 73,10 74,100
75,120 76,60 77,450 78,390
79,40 80,10 81,10 82,10
83,20 84,10 85,20 86,50
87,90 88,30 89,40 90,10
91,50 92,20 93,10 94,10
95,10 96,10 97,20 98,50
99,50 100,100 101,30 102,20
103,10 104,10 105,30 106,20
107,10 108,50 109,30 110,30
111,50 112,80 113,80 114,10
115,30 116,30 117,30 118,30
119,60 120,20 122,20 123,30
124,110 125,170 126,180 127,20
128,10 129,20 130,40 131,60
132,50 133,20 134,10 135,20
136,90 137,260 138,230 139,40
140,10 141,10 142,20 143,60
144,120 145,100 146,10 147,10
148,60 149,300 150,871 151,420
152,50 153,10 154,10 155,30
156,130 157,611 158,50 159,10
160,20 161,140 162,641 163,681
164,330 165,530 166,40 167,10
173,10 174,30 175,20 176,30
177,10 178,10 182,10 185,10
186,10 187,40 188,10 189,20
190,10 191,10 197,10 198,30
199,20 200,60 201,20 202,30
203,10 209,10 210,10 211,40
212,10 213,40 214,10 215,20
222,30 223,30 224,120 225,70
226,100 227,20 228,10 234,10
235,30 236,20 237,70 238,20
239,60 240,10 241,10 246,10
247,10 248,100 249,60 250,520
251,250 252,1972 253,1692 254,350
255,40 256,10 259,20 260,10
261,70 262,20 263,120 264,30
265,70 266,20 270,10 271,10
272,40 273,20 274,140 275,40
276,170 277,50 278,10 283,10
284,10 285,50 286,20 287,170
288,50 289,300 290,80 291,20
296,20 297,10 298,120 299,50
300,390 301,170 302,410 303,190
304,40 312,20 313,500 314,240
315,210 316,50 322,60 323,30
324,370 325,160 326,851 327,781
328,651 329,1511 330,9999 331,2823
332,430 333,40
##END=
