##TITLE=Naphthalene, 1,8-dinitro-
##JCAMP-DX=4.24
##DATA TYPE=MASS SPECTRUM
##ORIGIN=Japan AIST/NIMC Database- Spectrum MS-NW- 229
##OWNER=NIST Mass Spectrometry Data Center
Collection (C) 2014 copyright by the U.S. Secretary of Commerce
on behalf of the United States of America. All rights reserved.
##CAS REGISTRY NO=602-38-0
##$NIST MASS SPEC NO=228182
##MOLFORM=C10 H6 N2 O4
##MW=218
##$NIST SOURCE=MSDC
##XUNITS=M/Z
##YUNITS=RELATIVE INTENSITY
##XFACTOR=1
##YFACTOR=1
##FIRSTX=16
##LASTX=220
##FIRSTY=10
##MAXX=220
##MINX=16
##MAXY=9999
##MINY=10
##NPOINTS=104
##PEAK TABLE=(XY..XY)
16,10 18,40 26,10 27,50
28,90 30,519 32,20 37,50
38,119 39,339 40,20 41,20
46,80 49,30 50,669 51,519
52,119 53,20 55,10 57,10
61,179 62,669 63,1189 64,409
65,50 73,70 74,1129 75,1179
76,799 77,309 78,50 79,10
85,70 86,369 87,649 88,1549
89,619 90,159 91,70 92,20
93,10 97,40 98,409 99,399
100,359 101,469 102,859 103,99
104,189 105,80 106,10 109,10
110,40 111,60 112,50 113,2069
114,9999 115,1079 116,1169 117,159
118,70 119,349 120,80 121,30
122,99 123,30 124,10 125,129
126,1179 127,269 128,179 129,99
130,289 131,50 132,169 133,40
137,10 140,20 141,90 142,2139
143,249 144,259 145,40 146,30
149,10 156,60 157,20 158,199
159,60 160,30 169,10 170,10
171,30 172,7379 173,929 174,80
175,20 187,20 188,40 202,60
217,50 218,2389 219,269 220,30
##END=
