##TITLE=3-Methyl-2,4,6-trinitro-phenol
##JCAMP-DX=4.24
##DATA TYPE=MASS SPECTRUM
##ORIGIN=LAC, NIDDK, NIH, Bethesda, MD 20892
##OWNER=NIST Mass Spectrometry Data Center
Collection (C) 2014 copyright by the U.S. Secretary of Commerce
on behalf of the United States of America. All rights reserved.
##CAS REGISTRY NO=602-99-3
##$NIST MASS SPEC NO=253387
##MOLFORM=C7 H5 N3 O7
##MW=243
##$NIST SOURCE=MSDC
##XUNITS=M/Z
##YUNITS=RELATIVE INTENSITY
##XFACTOR=1
##YFACTOR=1
##FIRSTX=41
##LASTX=244
##FIRSTY=163
##MAXX=244
##MINX=41
##MAXY=9999
##MINY=22
##NPOINTS=91
##PEAK TABLE=(XY..XY)
41,163 43,2172 44,69 45,656
46,537 47,97 50,5209 51,3535
53,4909 54,421 55,451 56,126
60,291 61,574 62,799 63,2807
64,1609 65,662 67,2709 68,771
69,443 70,385 71,111 74,1733
75,1579 76,2702 77,1680 78,709
79,757 80,784 81,252 82,93
83,271 84,298 86,385 87,89
88,206 89,126 91,1337 92,1002
93,632 94,552 95,95 96,199
97,49 101,51 103,604 105,3096
106,751 107,451 108,268 109,119
118,150 119,366 121,1039 122,259
123,104 125,29 132,472 133,105
134,242 135,125 136,183 137,149
147,49 148,170 150,1478 151,232
161,28 162,103 164,52 165,88
166,66 167,75 168,261 177,22
178,79 180,1042 181,46 196,1307
197,26 198,37 206,32 208,9999
209,179 210,31 225,222 226,1625
227,85 243,4965 244,389
##END=
