##TITLE=2-Undecyne
##JCAMP-DX=4.24
##DATA TYPE=MASS SPECTRUM
##ORIGIN=NIST Mass Spectrometry Data Center, 1990.
##OWNER=NIST Mass Spectrometry Data Center
Collection (C) 2014 copyright by the U.S. Secretary of Commerce
on behalf of the United States of America. All rights reserved.
##CAS REGISTRY NO=60212-29-5
##$NIST MASS SPEC NO=114187
##MOLFORM=C11 H20
##MW=152
##$NIST SOURCE=MSDC
##XUNITS=M/Z
##YUNITS=RELATIVE INTENSITY
##XFACTOR=1
##YFACTOR=1
##FIRSTX=14
##LASTX=137
##FIRSTY=164
##MAXX=137
##MINX=14
##MAXY=9999
##MINY=36
##NPOINTS=53
##PEAK TABLE=(XY..XY)
14,164 16,77 27,2545 28,171
29,2134 30,56 37,42 39,3852
40,966 41,7402 42,1095 43,2746
44,189 50,466 51,1240 52,958
53,4235 54,3429 55,6359 56,1031
57,1799 58,80 62,70 63,297
65,1261 66,1162 67,9999 68,4759
69,1718 70,455 71,68 77,1191
78,292 79,2531 80,935 81,7564
82,1736 83,289 84,69 91,461
93,782 95,9626 96,2783 97,418
98,36 105,51 107,123 109,2111
110,803 111,70 123,553 124,93
137,91
##END=
