##TITLE=3-Undecyne
##JCAMP-DX=4.24
##DATA TYPE=MASS SPECTRUM
##ORIGIN=NIST Mass Spectrometry Data Center, 1990.
##OWNER=NIST Mass Spectrometry Data Center
Collection (C) 2014 copyright by the U.S. Secretary of Commerce
on behalf of the United States of America. All rights reserved.
##CAS REGISTRY NO=60212-30-8
##$NIST MASS SPEC NO=113282
##MOLFORM=C11 H20
##MW=152
##$NIST SOURCE=MSDC
##XUNITS=M/Z
##YUNITS=RELATIVE INTENSITY
##XFACTOR=1
##YFACTOR=1
##FIRSTX=14
##LASTX=124
##FIRSTY=22
##MAXX=124
##MINX=14
##MAXY=9999
##MINY=22
##NPOINTS=47
##PEAK TABLE=(XY..XY)
14,22 15,70 27,2015 28,666
29,1703 32,30 39,2545 40,809
41,5162 42,660 43,2277 44,123
50,220 51,531 52,440 53,1416
54,658 55,2978 56,473 57,263
62,53 63,196 64,89 65,789
66,53 67,9999 68,2198 69,976
70,143 77,621 78,165 79,1187
80,89 81,3659 82,1302 83,214
84,42 91,263 93,274 95,1618
96,368 107,92 109,2059 110,875
111,87 123,989 124,109
##END=
