##TITLE=1,1'-Biphenyl, 2,2',3',4,6-Pentachloro-
##JCAMP-DX=4.24
##DATA TYPE=MASS SPECTRUM
##ORIGIN=Organic Synthesis Lab, MSU, Moscow.TRC 1294
##OWNER=NIST Mass Spectrometry Data Center
Collection (C) 2014 copyright by the U.S. Secretary of Commerce
on behalf of the United States of America. All rights reserved.
##CAS REGISTRY NO=60233-25-2
##$NIST MASS SPEC NO=326664
##MOLFORM=C12 H5 Cl5
##MW=324
##$NIST SOURCE=MSDC
##XUNITS=M/Z
##YUNITS=RELATIVE INTENSITY
##XFACTOR=1
##YFACTOR=1
##FIRSTX=43
##LASTX=333
##FIRSTY=18
##MAXX=333
##MINX=43
##MAXY=9999
##MINY=17
##NPOINTS=137
##PEAK TABLE=(XY..XY)
43,18 44,162 47,108 48,42
49,146 50,306 51,130 55,45
57,37 60,100 61,431 62,233
63,83 66,25 67,46 71,42
72,157 73,581 74,832 75,364
78,43 79,167 80,45 82,19
83,64 84,281 85,395 86,322
87,149 92,564 93,182 94,22
95,27 96,143 97,297 98,549
99,260 100,31 107,103 108,290
109,1272 110,896 111,355 113,17
114,88 115,75 116,40 119,49
120,112 121,161 122,411 123,339
124,54 127,1480 128,1230 129,498
130,67 131,79 132,181 133,230
134,100 135,121 137,41 143,46
144,309 145,454 146,411 147,402
148,263 149,392 150,44 157,85
158,96 159,112 160,52 162,251
163,438 164,256 165,80 168,29
169,86 170,49 171,88 180,49
181,58 182,139 183,436 184,1619
185,317 186,447 187,54 193,61
194,119 195,58 196,55 204,52
205,23 206,73 207,40 208,31
217,52 218,390 219,584 220,367
221,377 222,94 223,30 228,67
230,70 252,37 253,78 254,4533
255,590 256,4546 257,517 258,1480
259,190 260,146 288,72 289,2753
290,475 291,3374 292,521 293,1605
294,181 295,296 296,64 324,6026
325,851 326,9999 327,1244 328,6465
329,870 330,2000 331,278 332,333
333,46
##END=
