##TITLE=4'-Methyl-3-(2-thienyl)acrylophenone
##JCAMP-DX=4.24
##DATA TYPE=MASS SPECTRUM
##ORIGIN=NIST Mass Spectrometry Data Center
##OWNER=NIST Mass Spectrometry Data Center
Collection (C) 2014 copyright by the U.S. Secretary of Commerce
on behalf of the United States of America. All rights reserved.
##CAS REGISTRY NO=6028-89-3
##$NIST MASS SPEC NO=341183
##MOLFORM=C14 H12 O S
##MW=228
##$NIST SOURCE=MSDC
##XUNITS=M/Z
##YUNITS=RELATIVE INTENSITY
##XFACTOR=1
##YFACTOR=1
##FIRSTX=27
##LASTX=231
##FIRSTY=30
##MAXX=231
##MINX=27
##MAXY=9999
##MINY=10
##NPOINTS=151
##PEAK TABLE=(XY..XY)
27,30 37,20 38,80 39,791
40,30 41,130 45,300 47,10
50,210 51,450 52,70 53,70
54,10 57,80 58,150 59,60
60,10 61,40 62,210 63,741
64,190 65,3173 66,180 67,10
69,390 70,60 71,50 73,10
74,120 75,140 76,90 77,160
78,30 79,60 81,50 82,160
83,130 84,110 85,60 86,140
87,70 88,20 89,581 90,260
91,3723 92,430 93,40 95,10
96,10 97,40 98,150 99,961
101,30 102,50 103,30 104,10
105,40 106,10 107,20 108,500
109,2312 110,200 111,160 112,10
113,90 114,40 115,460 116,490
117,60 118,30 119,3143 120,270
121,50 122,10 126,40 127,100
128,180 129,110 130,10 134,30
135,70 136,50 137,3673 138,310
139,360 140,50 141,210 142,40
144,2292 145,280 146,20 147,30
150,20 151,90 152,621 153,180
154,30 155,270 156,40 157,10
158,30 159,10 160,10 161,10
163,30 164,40 165,410 166,180
167,681 168,120 169,20 170,10
171,210 172,40 173,50 174,100
175,10 176,10 178,10 181,20
182,30 183,110 184,1722 185,2983
186,470 187,260 188,30 194,20
195,1551 196,240 197,160 198,90
199,2092 200,941 201,220 202,40
208,20 209,20 210,10 211,340
212,70 213,3543 214,530 215,200
216,20 226,30 227,2052 228,9999
229,1722 230,611 231,80
##END=
