##TITLE=Trisulfide, dipropyl
##JCAMP-DX=4.24
##DATA TYPE=MASS SPECTRUM
##ORIGIN=R.SELF AGRICULTURAL RES., FOOD RES. INSTITUTE, NORWICH, U.K.
##OWNER=NIST Mass Spectrometry Data Center
Collection (C) 2014 copyright by the U.S. Secretary of Commerce
on behalf of the United States of America. All rights reserved.
##CAS REGISTRY NO=6028-61-1
##$NIST MASS SPEC NO=7692
##MOLFORM=C6 H14 S3
##MW=182
##$NIST SOURCE=MSDC
##XUNITS=M/Z
##YUNITS=RELATIVE INTENSITY
##XFACTOR=1
##YFACTOR=1
##FIRSTX=26
##LASTX=184
##FIRSTY=209
##MAXX=184
##MINX=26
##MAXY=9999
##MINY=100
##NPOINTS=46
##PEAK TABLE=(XY..XY)
26,209 27,2090 28,400 29,533
32,356 33,124 34,356 37,124
38,178 39,1534 40,333 41,4665
42,1402 43,9999 44,356 45,1156
46,622 47,1556 48,156 55,120
57,511 58,178 59,271 61,156
64,711 66,511 71,320 73,978
74,711 75,5332 76,2356 77,356
78,200 79,200 85,122 89,191
97,169 98,689 103,158 105,260
117,233 118,100 140,356 182,5778
183,533 184,755
##END=
