##TITLE=Hydrazinecarboxamide, N,N-diphenyl-
##JCAMP-DX=4.24
##DATA TYPE=MASS SPECTRUM
##ORIGIN=Japan AIST/NIMC Database- Spectrum MS-NW-2452
##OWNER=NIST Mass Spectrometry Data Center
Collection (C) 2014 copyright by the U.S. Secretary of Commerce
on behalf of the United States of America. All rights reserved.
##CAS REGISTRY NO=603-51-0
##$NIST MASS SPEC NO=230991
##MOLFORM=C13 H13 N3 O
##MW=227
##$NIST SOURCE=MSDC
##XUNITS=M/Z
##YUNITS=RELATIVE INTENSITY
##XFACTOR=1
##YFACTOR=1
##FIRSTX=14
##LASTX=229
##FIRSTY=10
##MAXX=229
##MINX=14
##MAXY=9999
##MINY=10
##NPOINTS=121
##PEAK TABLE=(XY..XY)
14,10 15,10 16,80 17,99
18,199 26,20 27,129 28,479
29,139 30,119 31,149 32,20
37,30 38,109 39,549 40,80
41,50 42,60 43,259 44,149
49,10 50,289 51,1509 52,189
53,20 54,10 57,20 58,209
59,20 61,20 62,60 63,259
64,199 65,669 66,919 67,60
69,60 70,109 71,179 72,20
74,90 75,90 76,129 77,2299
78,259 79,20 82,50 83,809
84,219 85,30 86,10 87,10
88,20 89,109 90,70 91,189
92,129 93,399 94,70 101,20
102,40 103,50 104,219 105,40
107,30 108,169 109,10 113,30
114,40 115,309 116,80 117,40
118,10 119,40 126,20 127,70
128,119 129,50 130,30 138,10
139,219 140,179 141,319 142,189
143,99 144,10 151,60 152,129
153,80 154,139 155,20 164,20
165,20 166,479 167,3109 168,6519
169,9999 170,1289 171,80 177,10
178,219 179,30 181,20 182,10
185,30 193,30 194,159 195,40
196,4359 197,1069 198,109 199,10
209,20 210,20 211,20 212,179
213,30 226,10 227,2689 228,399
229,30
##END=
