##TITLE=2-Methyl-3-nitroaniline
##JCAMP-DX=4.24
##DATA TYPE=MASS SPECTRUM
##ORIGIN=NIST Mass Spectrometry Data Center, 1998.
##OWNER=NIST Mass Spectrometry Data Center
Collection (C) 2014 copyright by the U.S. Secretary of Commerce
on behalf of the United States of America. All rights reserved.
##CAS REGISTRY NO=603-83-8
##$NIST MASS SPEC NO=291136
##MOLFORM=C7 H8 N2 O2
##MW=152
##$NIST SOURCE=MSDC
##XUNITS=M/Z
##YUNITS=RELATIVE INTENSITY
##XFACTOR=1
##YFACTOR=1
##FIRSTX=15
##LASTX=154
##FIRSTY=10
##MAXX=154
##MINX=15
##MAXY=9999
##MINY=10
##NPOINTS=93
##PEAK TABLE=(XY..XY)
15,10 25,10 26,100 27,330
28,520 29,90 30,740 31,10
36,10 37,150 38,390 39,1460
40,230 41,610 42,390 43,70
44,30 46,190 48,10 49,100
50,1080 51,2520 52,2310 53,1830
54,920 55,110 56,10 60,10
61,170 62,450 63,1180 64,490
65,1120 66,1140 67,590 68,150
69,10 70,10 72,10 73,60
74,400 75,380 76,610 77,9999
78,3070 79,6489 80,5099 81,410
82,60 83,10 84,10 85,20
86,50 87,60 88,20 89,320
90,480 91,500 92,480 93,960
94,610 95,130 96,10 99,10
100,20 101,10 102,160 103,100
104,3890 105,1560 106,3420 107,6129
108,750 109,50 110,10 117,130
118,230 119,90 120,30 121,80
122,170 123,20 124,10 131,10
132,10 133,10 134,50 135,5919
136,540 137,30 152,7619 153,680
154,50
##END=
