##TITLE=Benzene, 1,3,5-trimethyl-2-nitro-
##JCAMP-DX=4.24
##DATA TYPE=MASS SPECTRUM
##ORIGIN=Japan AIST/NIMC Database- Spectrum MS-NW-8743
##OWNER=NIST Mass Spectrometry Data Center
Collection (C) 2014 copyright by the U.S. Secretary of Commerce
on behalf of the United States of America. All rights reserved.
##CAS REGISTRY NO=603-71-4
##$NIST MASS SPEC NO=238456
##MOLFORM=C9 H11 N O2
##MW=165
##$NIST SOURCE=MSDC
##XUNITS=M/Z
##YUNITS=RELATIVE INTENSITY
##XFACTOR=1
##YFACTOR=1
##FIRSTX=15
##LASTX=167
##FIRSTY=30
##MAXX=167
##MINX=15
##MAXY=9999
##MINY=10
##NPOINTS=106
##PEAK TABLE=(XY..XY)
15,30 17,10 18,60 26,40
27,809 28,399 29,319 30,149
31,20 37,40 38,169 39,1869
40,259 41,2339 42,309 43,439
44,20 45,20 46,20 49,10
50,459 51,1379 52,559 53,1029
54,139 55,209 56,10 57,149
58,70 59,10 60,10 61,50
62,219 63,759 64,229 65,1599
66,269 67,359 68,70 69,20
70,10 72,20 73,40 74,179
75,219 76,189 77,4289 78,1119
79,1869 80,479 81,189 82,30
85,10 86,40 87,60 88,20
89,309 90,119 91,6829 92,1149
93,5709 94,589 95,80 96,10
97,10 98,30 99,20 101,50
102,329 103,2139 104,1499 105,749
106,529 107,259 108,70 109,10
113,10 114,20 115,1209 116,409
117,1599 118,1059 119,2159 120,4629
121,829 122,60 123,10 128,10
130,139 131,119 132,90 133,259
134,129 135,309 136,50 145,10
146,90 147,70 148,9999 149,1079
150,80 163,10 164,30 165,5249
166,589 167,50
##END=
