##TITLE=Benzenamine, N,N-diphenyl-
##JCAMP-DX=4.24
##DATA TYPE=MASS SPECTRUM
##ORIGIN=Japan AIST/NIMC Database- Spectrum MS-NW-1448
##OWNER=NIST Mass Spectrometry Data Center
Collection (C) 2014 copyright by the U.S. Secretary of Commerce
on behalf of the United States of America. All rights reserved.
##CAS REGISTRY NO=603-34-9
##$NIST MASS SPEC NO=229683
##MOLFORM=C18 H15 N
##MW=245
##$NIST SOURCE=MSDC
##XUNITS=M/Z
##YUNITS=RELATIVE INTENSITY
##XFACTOR=1
##YFACTOR=1
##FIRSTX=27
##LASTX=248
##FIRSTY=80
##MAXX=248
##MINX=27
##MAXY=9999
##MINY=10
##NPOINTS=100
##PEAK TABLE=(XY..XY)
27,80 28,10 38,20 39,249
41,10 43,30 44,20 50,129
51,879 52,70 62,30 63,129
64,50 65,159 66,50 74,30
75,50 76,60 77,879 78,90
87,10 88,20 89,80 90,30
91,80 92,10 94,10 95,30
101,30 102,80 103,30 104,40
106,10 107,30 108,209 109,40
113,30 114,80 115,409 116,80
117,40 119,10 120,99 121,119
122,319 123,70 126,20 127,30
128,90 129,10 130,10 138,10
139,159 140,149 141,679 142,739
143,109 150,10 151,40 152,80
153,80 154,40 164,20 165,40
166,729 167,1169 168,359 169,40
177,10 178,20 179,30 180,40
189,10 190,10 191,10 202,20
203,10 204,30 213,10 214,10
215,30 216,30 217,99 218,60
219,20 226,10 227,10 228,40
229,20 230,50 239,10 240,30
241,169 242,239 243,589 244,2689
245,9999 246,1999 247,179 248,10
##END=
