##TITLE=Bisacodyl
##JCAMP-DX=4.24
##DATA TYPE=MASS SPECTRUM
##ORIGIN=Tox21 Consortium/NIST Mass Spectrometry Data Center, 2012
##OWNER=NIST Mass Spectrometry Data Center
Collection (C) 2014 copyright by the U.S. Secretary of Commerce
on behalf of the United States of America. All rights reserved.
##CAS REGISTRY NO=603-50-9
##$NIST MASS SPEC NO=408689
##MOLFORM=C22 H19 N O4
##MW=361
##$NIST SOURCE=MSDC
##XUNITS=M/Z
##YUNITS=RELATIVE INTENSITY
##XFACTOR=1
##YFACTOR=1
##FIRSTX=14
##LASTX=364
##FIRSTY=20
##MAXX=364
##MINX=14
##MAXY=9999
##MINY=10
##NPOINTS=227
##PEAK TABLE=(XY..XY)
14,20 15,160 26,10 27,50
28,70 29,10 38,20 39,150
40,20 41,50 42,210 43,6226
44,150 45,20 50,90 51,470
52,240 53,130 54,10 55,420
56,20 62,60 63,300 64,100
65,230 66,50 67,10 69,10
74,40 75,110 76,110 77,320
78,771 79,460 80,220 81,60
82,10 86,20 87,50 88,70
89,220 90,70 91,90 92,60
93,60 94,100 95,10 96,10
98,10 99,20 100,20 101,110
102,160 103,130 104,70 105,30
106,20 107,140 108,20 111,20
112,10 113,80 114,110 115,801
116,140 117,270 118,130 119,30
120,20 121,20 125,30 126,150
127,490 128,561 129,250 130,200
131,390 132,50 133,10 134,10
137,20 138,40 139,460 140,200
141,581 142,160 143,70 144,160
145,30 146,10 149,10 150,70
151,310 152,851 153,651 154,1481
155,571 156,200 157,140 158,30
159,10 161,10 162,10 163,90
164,100 165,190 166,200 167,661
168,280 169,811 170,340 171,110
172,20 174,10 175,20 176,70
177,50 178,100 179,60 180,90
181,751 182,1091 183,2082 184,1481
185,200 186,20 187,20 188,30
189,150 190,140 191,290 192,160
193,90 194,40 195,10 196,80
197,410 198,330 199,5255 200,801
201,110 202,140 203,90 204,350
205,130 206,50 207,50 208,50
209,50 210,60 211,60 212,10
213,10 214,30 215,90 216,180
217,440 218,360 219,100 220,240
221,90 222,150 223,40 224,20
225,20 226,70 227,50 228,170
229,80 230,270 231,130 232,90
233,520 234,220 235,60 236,10
239,10 240,20 241,200 242,60
243,30 244,70 245,40 246,1031
247,350 248,530 249,120 250,20
256,20 257,120 258,250 259,460
260,310 261,70 262,320 263,50
264,10 271,10 272,10 273,20
274,140 275,390 276,8928 277,6946
278,1271 279,150 280,10 283,10
288,10 290,30 301,10 302,80
303,20 304,50 305,10 316,10
318,4184 319,4744 320,971 321,110
322,10 346,20 360,2062 361,9999
362,2292 363,350 364,40
##END=
