##TITLE=Benzene, 1,1',1''-methylidynetris[4-nitro-
##JCAMP-DX=4.24
##DATA TYPE=MASS SPECTRUM
##ORIGIN=Asinex Ltd, Moscow, Russia
##OWNER=NIST Mass Spectrometry Data Center
Collection (C) 2014 copyright by the U.S. Secretary of Commerce
on behalf of the United States of America. All rights reserved.
##CAS REGISTRY NO=603-49-6
##$NIST MASS SPEC NO=277270
##MOLFORM=C19 H13 N3 O6
##MW=379
##$NIST SOURCE=MSDC
##XUNITS=M/Z
##YUNITS=RELATIVE INTENSITY
##XFACTOR=1
##YFACTOR=1
##FIRSTX=34
##LASTX=381
##FIRSTY=90
##MAXX=381
##MINX=34
##MAXY=9999
##MINY=26
##NPOINTS=244
##PEAK TABLE=(XY..XY)
34,90 37,49 38,202 39,1072
40,800 41,430 42,247 43,751
44,2676 45,422 46,318 50,1342
51,1132 52,366 53,265 54,135
55,471 56,123 57,262 58,52
59,49 60,258 61,105 62,381
63,1405 64,400 65,620 66,142
67,101 68,41 69,239 70,146
71,153 73,153 74,475 75,1102
76,1906 77,2922 78,613 79,269
80,120 81,299 82,116 83,164
84,138 85,112 86,213 87,478
88,422 89,699 90,239 91,370
92,684 93,288 94,632 95,120
96,86 97,131 98,202 99,258
100,232 101,650 102,404 103,220
104,1312 105,1058 107,9999 108,785
109,146 110,78 111,168 112,250
113,923 114,452 115,1117 116,213
117,97 118,1054 119,2123 120,975
121,135 122,123 123,157 124,127
126,811 127,602 128,463 129,71
130,161 131,86 132,82 133,198
134,164 135,202 136,135 137,299
139,1921 140,460 141,553 142,138
143,198 144,30 146,26 147,52
148,26 149,617 150,4559 151,2549
152,4918 153,2261 154,351 155,116
156,194 157,26 161,146 162,441
163,3247 164,3520 165,4013 166,732
167,284 168,340 169,224 170,49
173,30 174,146 175,123 176,299
177,168 178,157 179,191 180,949
181,1177 182,583 183,123 184,187
187,561 188,254 189,624 190,179
191,49 193,60 194,164 195,164
196,135 197,512 198,538 199,422
200,486 201,467 202,886 203,206
204,34 205,56 207,127 209,400
210,807 211,972 212,456 213,740
214,575 215,490 216,116 217,82
218,49 219,30 220,26 223,64
224,232 225,392 226,1988 227,1925
228,3307 229,934 230,243 231,67
233,30 235,108 236,168 237,1170
238,815 239,5253 240,2945 241,1413
242,344 244,1035 245,247 246,71
251,52 252,82 253,149 254,164
255,295 256,467 257,1667 258,336
259,86 260,90 261,34 268,90
269,146 270,153 271,97 273,2250
274,437 275,213 276,176 284,49
285,325 286,830 287,1289 288,329
289,149 297,34 298,41 299,37
300,41 301,52 302,250 303,250
304,82 315,153 316,329 317,191
318,64 319,82 331,172 332,2081
333,4043 334,841 335,161 345,37
347,191 348,108 349,471 350,116
362,3333 363,1734 364,392 365,45
378,325 379,5537 380,1229 381,220
##END=
