##TITLE=Ethyl diacetoacetate
##JCAMP-DX=4.24
##DATA TYPE=MASS SPECTRUM
##ORIGIN=NIST Mass Spectrometry Data Center
##OWNER=NIST Mass Spectrometry Data Center
Collection (C) 2014 copyright by the U.S. Secretary of Commerce
on behalf of the United States of America. All rights reserved.
##CAS REGISTRY NO=603-69-0
##$NIST MASS SPEC NO=343534
##MOLFORM=C8 H12 O4
##MW=172
##$NIST SOURCE=MSDC
##XUNITS=M/Z
##YUNITS=RELATIVE INTENSITY
##XFACTOR=1
##YFACTOR=1
##FIRSTX=12
##LASTX=173
##FIRSTY=10
##MAXX=173
##MINX=12
##MAXY=9999
##MINY=10
##NPOINTS=63
##PEAK TABLE=(XY..XY)
12,10 13,30 14,200 15,1161
16,10 19,70 25,50 26,320
27,1071 29,1191 30,100 31,1061
37,70 38,90 39,240 40,90
41,200 42,530 43,9999 44,280
45,450 46,170 47,10 50,10
51,10 52,20 53,90 54,30
55,210 56,40 61,410 66,40
67,200 68,80 69,440 70,310
71,50 82,30 83,30 84,470
85,1111 86,60 87,120 89,100
98,1111 99,80 100,50 101,10
102,40 111,220 115,40 125,40
126,340 127,611 128,40 129,330
130,180 131,10 143,30 157,430
158,30 172,350 173,20
##END=
