##TITLE=Phosphine, triphenyl-
##JCAMP-DX=4.24
##DATA TYPE=MASS SPECTRUM
##ORIGIN=Japan AIST/NIMC Database- Spectrum MS-NW-1445
##OWNER=NIST Mass Spectrometry Data Center
Collection (C) 2014 copyright by the U.S. Secretary of Commerce
on behalf of the United States of America. All rights reserved.
##CAS REGISTRY NO=603-35-0
##$NIST MASS SPEC NO=229596
##MOLFORM=C18 H15 P
##MW=262
##$NIST SOURCE=MSDC
##XUNITS=M/Z
##YUNITS=RELATIVE INTENSITY
##XFACTOR=1
##YFACTOR=1
##FIRSTX=16
##LASTX=265
##FIRSTY=10
##MAXX=265
##MINX=16
##MAXY=9999
##MINY=10
##NPOINTS=116
##PEAK TABLE=(XY..XY)
16,10 26,10 27,70 28,80
30,20 32,40 38,10 39,239
40,10 41,20 42,10 43,10
44,60 45,20 50,129 51,529
52,50 56,60 57,249 58,10
62,20 63,129 64,20 65,139
68,20 69,40 74,50 75,50
76,50 77,219 78,80 79,10
80,70 81,179 82,60 83,99
87,20 88,10 89,50 91,50
92,20 93,10 94,10 95,10
101,10 102,80 103,10 104,10
105,20 106,20 107,1129 108,3319
109,279 110,10 113,20 114,10
115,259 116,30 120,40 126,30
127,30 128,99 129,20 130,10
131,169 132,20 133,229 134,20
139,99 140,20 141,119 142,20
144,20 145,20 146,20 150,20
151,50 152,589 153,139 154,159
155,20 156,10 157,259 158,30
159,50 160,10 165,10 169,20
170,209 171,30 181,90 182,60
183,5049 184,1189 185,979 186,129
187,10 202,10 207,10 215,20
217,10 220,10 226,10 228,20
229,10 230,20 233,10 257,30
258,10 259,30 260,50 261,1349
262,9999 263,1979 264,179 265,10
##END=
