##TITLE=3-Dipropylamino-1,2-propanediol
##JCAMP-DX=4.24
##DATA TYPE=MASS SPECTRUM
##ORIGIN=Japan AIST/NIMC Database- Spectrum MS-NW-8525
##OWNER=NIST Mass Spectrometry Data Center
Collection (C) 2014 copyright by the U.S. Secretary of Commerce
on behalf of the United States of America. All rights reserved.
##CAS REGISTRY NO=60302-96-7
##$NIST MASS SPEC NO=238831
##MOLFORM=C9 H21 N O2
##MW=175
##$NIST SOURCE=MSDC
##XUNITS=M/Z
##YUNITS=RELATIVE INTENSITY
##XFACTOR=1
##YFACTOR=1
##FIRSTX=14
##LASTX=176
##FIRSTY=10
##MAXX=176
##MINX=14
##MAXY=9999
##MINY=10
##NPOINTS=70
##PEAK TABLE=(XY..XY)
14,10 15,259 17,20 18,70
19,30 26,40 27,979 28,479
29,379 30,3189 31,389 32,10
38,10 39,269 40,40 41,1549
42,1919 43,2889 44,1219 45,149
53,10 54,70 55,80 56,359
57,319 58,289 59,30 60,789
61,40 67,20 68,50 69,20
70,489 71,70 72,2669 73,139
74,30 75,20 82,20 84,259
85,20 86,2209 87,139 88,10
98,70 99,10 100,90 101,50
102,379 103,20 104,20 110,10
112,70 113,20 114,9999 115,829
116,70 118,40 128,139 129,10
132,10 142,10 144,1299 145,119
146,739 147,60 160,10 174,30
175,80 176,20
##END=
