##TITLE=2-Heptanol, (S)-
##JCAMP-DX=4.24
##DATA TYPE=MASS SPECTRUM
##ORIGIN=Chuck Anderson, Aldrich Chemical Co.
##OWNER=NIST Mass Spectrometry Data Center
Collection (C) 2014 copyright by the U.S. Secretary of Commerce
on behalf of the United States of America. All rights reserved.
##CAS REGISTRY NO=6033-23-4
##$NIST MASS SPEC NO=108474
##MOLFORM=C7 H16 O
##MW=116
##$NIST SOURCE=MSDC
##XUNITS=M/Z
##YUNITS=RELATIVE INTENSITY
##XFACTOR=1
##YFACTOR=1
##FIRSTX=15
##LASTX=101
##FIRSTY=27
##MAXX=101
##MINX=15
##MAXY=9999
##MINY=12
##NPOINTS=36
##PEAK TABLE=(XY..XY)
15,27 19,50 26,23 27,532
28,105 29,684 30,13 31,185
38,12 39,378 40,74 41,1223
42,370 43,1249 44,736 45,9999
46,194 47,32 51,24 53,69
54,32 55,1427 56,397 57,281
58,50 59,45 67,13 68,24
69,172 70,343 71,56 83,480
84,29 97,23 98,149 101,171
##END=
