##TITLE=24-Norcholan-23-oic acid, 3,12-bis(acetyloxy)-, methyl ester, (3.alpha.,5.beta.,12.alpha.)-
##JCAMP-DX=4.24
##DATA TYPE=MASS SPECTRUM
##ORIGIN=P.A. SZCZEPANIK, ARGONNE NATIONAL LABORATORY, USA
##OWNER=NIST Mass Spectrometry Data Center
Collection (C) 2014 copyright by the U.S. Secretary of Commerce
on behalf of the United States of America. All rights reserved.
##CAS REGISTRY NO=60354-47-4
##$NIST MASS SPEC NO=56050
##MOLFORM=C28 H44 O6
##MW=476
##$NIST SOURCE=MSDC
##XUNITS=M/Z
##YUNITS=RELATIVE INTENSITY
##XFACTOR=1
##YFACTOR=1
##FIRSTX=100
##LASTX=473
##FIRSTY=90
##MAXX=473
##MINX=100
##MAXY=9999
##MINY=30
##NPOINTS=214
##PEAK TABLE=(XY..XY)
100,90 101,310 102,180 103,200
104,160 105,3400 106,1230 107,2930
108,1090 109,1710 110,360 111,330
112,40 113,160 114,60 115,310
116,120 117,950 118,1120 119,2930
120,1250 121,2750 122,770 123,770
124,90 125,170 126,130 127,290
128,390 129,740 130,330 131,1940
132,690 133,1800 134,650 135,1200
136,270 137,350 138,80 140,180
141,500 142,350 143,1050 144,410
145,2550 146,730 147,2740 148,520
149,800 150,160 151,220 152,90
153,100 154,110 155,190 156,180
157,1160 158,580 159,2160 160,750
161,1540 162,440 163,670 164,120
165,240 166,130 167,220 168,110
169,380 170,120 171,830 172,460
173,1530 174,460 175,640 176,130
177,230 178,90 179,120 180,70
181,250 182,60 183,290 184,160
185,760 186,350 187,770 188,240
189,390 190,90 191,160 192,90
193,260 194,250 195,430 196,110
197,450 198,140 199,920 200,470
201,1130 202,290 203,220 204,60
205,70 206,80 207,180 208,110
209,140 210,70 211,330 212,160
213,1610 214,840 215,880 216,480
217,270 218,40 219,110 220,60
221,90 222,50 223,100 224,60
226,180 227,610 228,1800 229,660
230,150 231,550 232,190 233,150
234,150 235,180 237,170 238,100
239,210 240,80 241,220 242,140
243,110 245,110 247,650 249,160
251,260 252,170 253,790 255,9999
256,2570 257,440 258,50 260,190
261,200 262,140 263,50 265,120
267,190 268,110 269,120 272,70
274,150 275,120 277,40 281,250
282,560 283,860 284,310 286,80
288,210 289,80 291,120 294,50
295,70 296,60 299,260 300,180
302,1020 303,310 305,70 306,70
308,50 309,210 310,100 311,70
315,980 316,310 321,40 325,270
327,150 328,120 329,30 332,40
336,50 339,80 342,1410 343,890
345,70 348,50 350,50 356,4860
361,30 368,50 369,30 374,240
376,40 386,40 388,40 402,100
403,100 414,40 416,200 428,30
433,110 473,30
##END=
