##TITLE=Cholan-24-oic acid, 3,7,12-tris(acetyloxy)-, methyl ester, (3.alpha.,5.beta.,7.beta.,12.alpha.)-
##JCAMP-DX=4.24
##DATA TYPE=MASS SPECTRUM
##ORIGIN=P.A. SZCZEPANIK, ARGONNE NATIONAL LABORATORY, USA
##OWNER=NIST Mass Spectrometry Data Center
Collection (C) 2014 copyright by the U.S. Secretary of Commerce
on behalf of the United States of America. All rights reserved.
##CAS REGISTRY NO=60384-32-9
##$NIST MASS SPEC NO=56027
##MOLFORM=C31 H48 O8
##MW=548
##$NIST SOURCE=MSDC
##XUNITS=M/Z
##YUNITS=RELATIVE INTENSITY
##XFACTOR=1
##YFACTOR=1
##FIRSTX=101
##LASTX=429
##FIRSTY=170
##MAXX=429
##MINX=101
##MAXY=9999
##MINY=80
##NPOINTS=195
##PEAK TABLE=(XY..XY)
101,170 103,170 104,380 105,4030
106,560 107,1320 108,930 109,2350
110,550 111,560 112,280 113,360
114,130 115,1750 116,610 117,1450
118,570 119,2540 120,960 121,1150
122,760 123,1030 124,250 125,510
126,220 127,360 128,820 129,1330
130,440 131,1690 132,610 133,1590
134,580 135,1220 136,300 137,160
138,150 139,230 140,180 141,1450
142,950 143,2400 144,1170 145,3440
146,840 147,1200 148,370 149,1120
150,460 151,220 152,130 153,420
154,1210 155,970 156,520 157,1570
158,890 159,2690 160,470 161,600
162,210 163,280 164,160 165,420
166,200 167,500 168,370 169,1650
170,260 171,1760 172,860 173,1310
174,300 175,500 176,180 177,360
179,190 180,240 181,490 182,150
183,850 184,360 185,700 186,530
187,760 188,180 189,290 191,400
192,150 194,160 195,430 196,400
197,1440 198,690 199,2230 200,240
201,430 203,370 205,150 206,310
207,740 208,770 209,740 210,350
211,1820 212,580 213,440 214,210
215,340 216,260 217,150 221,280
222,370 223,150 224,190 225,450
226,1080 227,810 228,510 229,470
230,130 233,210 234,170 235,190
237,420 238,230 239,280 240,210
241,260 243,220 244,160 245,120
246,180 247,100 248,80 251,720
253,9999 254,2660 255,480 257,150
260,220 261,540 262,150 263,270
265,170 267,210 271,140 274,290
275,270 276,120 277,240 278,120
280,420 282,540 286,110 289,100
291,150 293,130 295,410 296,230
299,270 303,140 310,110 311,240
312,260 313,3730 314,1670 315,600
316,230 320,160 321,240 325,120
326,160 327,160 329,100 335,130
337,290 339,180 341,270 349,200
352,110 353,820 355,630 356,230
364,120 366,100 368,2710 369,1250
370,410 386,160 397,130 424,100
426,300 428,850 429,300
##END=
