##TITLE=.beta.-D-Glucopyranose pentaacetate
##JCAMP-DX=4.24
##DATA TYPE=MASS SPECTRUM
##ORIGIN=Japan AIST/NIMC Database- Spectrum MS-NW-8113
##OWNER=NIST Mass Spectrometry Data Center
Collection (C) 2014 copyright by the U.S. Secretary of Commerce
on behalf of the United States of America. All rights reserved.
##CAS REGISTRY NO=604-69-3
##$NIST MASS SPEC NO=233092
##MOLFORM=C16 H22 O11
##MW=390
##$NIST SOURCE=MSDC
##XUNITS=M/Z
##YUNITS=RELATIVE INTENSITY
##XFACTOR=1
##YFACTOR=1
##FIRSTX=15
##LASTX=331
##FIRSTY=179
##MAXX=331
##MINX=15
##MAXY=9999
##MINY=10
##NPOINTS=123
##PEAK TABLE=(XY..XY)
15,179 17,30 18,99 27,10
28,39 29,30 30,10 31,10
39,20 41,30 42,80 43,9999
44,249 45,50 51,10 52,20
53,20 54,10 55,40 56,20
57,40 60,70 61,99 65,10
67,10 68,20 69,219 70,139
71,70 73,459 74,20 77,10
79,20 80,159 81,329 82,40
83,10 84,40 85,339 86,169
87,20 89,10 92,10 95,20
96,30 97,399 98,2289 99,249
100,20 101,40 102,159 103,989
104,50 107,10 109,239 110,30
111,20 112,149 113,169 114,249
115,2959 116,259 117,30 122,40
123,10 125,40 126,339 127,199
128,30 129,20 131,119 138,20
139,209 140,1029 141,139 142,20
143,129 144,80 145,709 146,50
153,50 155,229 156,50 157,2009
158,589 159,50 167,10 168,339
169,319 170,30 171,20 173,20
182,169 183,20 185,30 186,70
187,50 197,129 198,10 199,329
200,969 201,99 202,10 203,60
210,40 211,109 212,10 215,219
216,20 217,10 228,129 229,40
242,1169 243,159 244,20 245,109
246,10 259,10 270,10 287,10
288,20 317,30 331,40
##END=
