##TITLE=.alpha.-D-Glucopyranose, pentaacetate
##JCAMP-DX=4.24
##DATA TYPE=MASS SPECTRUM
##ORIGIN=Japan AIST/NIMC Database- Spectrum MS-NW-7031
##OWNER=NIST Mass Spectrometry Data Center
Collection (C) 2014 copyright by the U.S. Secretary of Commerce
on behalf of the United States of America. All rights reserved.
##CAS REGISTRY NO=604-68-2
##$NIST MASS SPEC NO=238467
##MOLFORM=C16 H22 O11
##MW=390
##$NIST SOURCE=MSDC
##XUNITS=M/Z
##YUNITS=RELATIVE INTENSITY
##XFACTOR=1
##YFACTOR=1
##FIRSTX=14
##LASTX=332
##FIRSTY=30
##MAXX=332
##MINX=14
##MAXY=9999
##MINY=10
##NPOINTS=112
##PEAK TABLE=(XY..XY)
14,30 15,359 17,30 18,139
27,40 28,90 29,40 31,20
39,30 41,50 42,109 43,9999
44,239 45,60 52,10 53,30
54,10 55,50 56,30 57,50
60,80 61,109 68,20 69,169
70,99 71,60 72,10 73,379
74,30 80,99 81,229 82,30
83,10 84,40 85,189 86,119
87,20 89,10 96,30 97,299
98,1329 99,169 100,20 101,40
102,109 103,619 104,30 109,469
110,50 111,20 112,99 113,80
114,159 115,1739 116,179 117,20
122,10 125,30 126,179 127,209
128,30 129,10 131,70 138,10
139,159 140,569 141,90 142,10
143,80 144,60 145,399 146,30
153,10 155,90 156,30 157,1089
158,319 159,40 168,90 169,549
170,60 171,20 173,10 182,90
183,10 185,20 186,50 187,40
197,70 198,10 199,159 200,479
201,50 202,10 203,40 210,30
211,80 212,10 215,60 217,10
228,40 229,30 242,709 243,99
244,10 245,60 246,10 270,10
271,30 288,10 331,99 332,20
##END=
