##TITLE=Oxazepam
##JCAMP-DX=4.24
##DATA TYPE=MASS SPECTRUM
##ORIGIN=NIST Mass Spectrometry Data Center
##OWNER=NIST Mass Spectrometry Data Center
Collection (C) 2014 copyright by the U.S. Secretary of Commerce
on behalf of the United States of America. All rights reserved.
##CAS REGISTRY NO=604-75-1
##$NIST MASS SPEC NO=352197
##MOLFORM=C15 H11 Cl N2 O2
##MW=286
##$NIST SOURCE=MSDC
##XUNITS=M/Z
##YUNITS=RELATIVE INTENSITY
##XFACTOR=1
##YFACTOR=1
##FIRSTX=26
##LASTX=272
##FIRSTY=30
##MAXX=272
##MINX=26
##MAXY=9999
##MINY=10
##NPOINTS=181
##PEAK TABLE=(XY..XY)
26,30 27,150 28,40 29,701
30,10 35,10 36,30 37,70
38,180 39,520 40,30 41,10
43,10 47,10 48,10 49,90
50,1832 51,4824 52,711 53,100
54,10 55,30 56,20 60,40
61,310 62,661 63,961 64,240
65,70 66,10 67,20 68,30
69,20 70,10 72,40 73,310
74,1471 75,3463 76,1782 77,9999
78,1271 79,70 80,50 81,60
84,220 85,270 86,480 87,581
88,771 93,130 94,50 95,10
96,20 97,90 98,470 99,801
100,1952 101,671 102,1631 104,3253
105,280 106,130 108,40 109,260
110,1571 111,480 112,621 113,310
114,210 115,70 116,20 120,270
122,140 123,310 124,280 125,460
126,691 127,550 128,150 129,80
130,10 132,10 133,20 134,90
135,110 136,941 137,631 138,550
139,300 140,120 141,20 145,10
146,20 147,50 148,80 149,550
150,1732 151,2492 152,921 153,220
154,30 159,20 160,40 161,100
162,180 163,1021 164,250 165,290
166,40 167,10 171,10 172,10
173,20 174,90 175,520 176,1591
177,3303 178,1061 179,210 180,20
183,10 184,20 185,80 186,150
187,70 188,80 189,50 190,40
193,10 197,10 198,30 199,160
200,30 201,80 202,370 203,941
204,1221 205,8968 206,1411 207,100
210,10 211,160 212,110 213,210
214,250 215,70 216,70 217,30
219,20 224,40 225,10 226,10
231,10 232,20 233,5985 234,1001
235,90 236,10 237,60 238,320
239,6976 240,3393 241,2682 242,1071
243,160 244,10 253,10 254,10
255,10 256,10 261,10 263,10
264,10 265,10 266,10 267,6156
268,6446 269,3033 270,2122 271,340
272,40
##END=
