##TITLE=17.alpha.-Hydroxyprogesterone
##JCAMP-DX=4.24
##DATA TYPE=MASS SPECTRUM
##ORIGIN=Patti Price, Georgia Bureau of Investigation, Decatur, Georgia
##OWNER=NIST Mass Spectrometry Data Center
Collection (C) 2014 copyright by the U.S. Secretary of Commerce
on behalf of the United States of America. All rights reserved.
##CAS REGISTRY NO=604-09-1
##$NIST MASS SPEC NO=248385
##MOLFORM=C21 H30 O3
##MW=330
##$NIST SOURCE=MSDC
##XUNITS=M/Z
##YUNITS=RELATIVE INTENSITY
##XFACTOR=1
##YFACTOR=1
##FIRSTX=43
##LASTX=332
##FIRSTY=9999
##MAXX=332
##MINX=43
##MAXY=9999
##MINY=30
##NPOINTS=156
##PEAK TABLE=(XY..XY)
43,9999 45,310 51,630 52,300
53,2051 54,390 55,4353 57,1291
58,490 59,440 64,120 65,1471
66,680 67,3683 68,550 69,1050
70,200 71,2272 72,270 73,70
74,170 77,5024 79,6816 80,940
81,2582 82,390 83,1361 84,390
85,430 87,1541 89,80 91,7246
92,1281 93,3092 94,980 95,2642
96,620 97,2272 100,400 103,970
104,600 105,3493 106,710 107,3573
108,1281 109,2792 110,490 111,520
115,1481 116,450 117,1311 118,570
119,2602 120,1221 121,3182 122,2171
123,3252 124,3272 125,550 127,260
128,780 129,910 130,430 131,1871
132,580 133,1761 134,1050 135,1671
136,1851 137,1151 138,300 141,550
143,1111 144,400 145,2302 146,780
147,2502 148,1391 149,1281 150,190
151,200 154,260 155,340 157,830
158,540 159,1621 160,750 161,1541
162,630 163,730 165,190 167,210
168,160 169,460 171,860 172,440
174,1181 177,210 178,170 183,160
184,330 185,720 187,840 190,200
191,270 195,190 196,90 197,380
198,340 199,920 200,700 201,1161
202,920 203,390 207,210 209,250
211,1281 212,250 213,710 214,340
215,590 217,330 224,110 226,500
227,810 228,630 229,7056 230,1721
232,130 237,90 241,410 242,1471
243,1491 244,2542 245,1020 251,340
255,100 260,190 269,1781 270,350
280,130 284,380 285,190 287,2302
288,520 295,40 297,650 302,1941
303,530 312,1581 313,480 314,30
315,490 330,7376 331,1971 332,190
##END=
