##TITLE=Benz(a)anthracene, 7,8-dimethyl-
##JCAMP-DX=4.24
##DATA TYPE=MASS SPECTRUM
##ORIGIN=Organic Synthesis Lab, MSU, Moscow.TRC 427
##OWNER=NIST Mass Spectrometry Data Center
Collection (C) 2014 copyright by the U.S. Secretary of Commerce
on behalf of the United States of America. All rights reserved.
##CAS REGISTRY NO=604-81-9
##$NIST MASS SPEC NO=326128
##MOLFORM=C20 H16
##MW=256
##$NIST SOURCE=MSDC
##XUNITS=M/Z
##YUNITS=RELATIVE INTENSITY
##XFACTOR=1
##YFACTOR=1
##FIRSTX=27
##LASTX=258
##FIRSTY=40
##MAXX=258
##MINX=27
##MAXY=9999
##MINY=10
##NPOINTS=109
##PEAK TABLE=(XY..XY)
27,40 39,40 40,10 41,10
50,20 51,40 62,10 63,50
65,10 74,20 75,40 76,20
77,20 84,10 86,10 87,40
88,60 89,20 94,20 95,20
98,10 99,30 100,110 101,180
102,10 105,10 106,40 107,60
108,80 110,10 111,20 112,140
113,490 114,340 115,30 118,40
119,200 120,420 121,90 124,60
125,320 126,701 127,320 128,751
129,20 137,10 138,10 139,20
149,10 150,40 151,30 152,20
161,10 162,10 163,50 164,10
165,30 174,30 175,20 176,40
177,10 178,10 185,10 186,10
187,70 188,30 189,80 190,10
198,20 199,20 200,80 201,50
202,120 203,20 211,50 212,40
213,160 214,40 215,230 216,50
222,10 223,20 224,110 225,90
226,410 227,160 228,250 229,160
230,20 235,20 236,30 237,230
238,150 239,1692 240,721 241,2322
242,470 243,60 248,50 249,40
250,290 251,140 252,841 253,671
254,270 255,1501 256,9999 257,2102
258,230
##END=
