##TITLE=3-Bromo-2,5-dichlorothiophene
##JCAMP-DX=4.24
##DATA TYPE=MASS SPECTRUM
##ORIGIN=NIST Mass Spectrometry Data Center, 1994
##OWNER=NIST Mass Spectrometry Data Center
Collection (C) 2014 copyright by the U.S. Secretary of Commerce
on behalf of the United States of America. All rights reserved.
##CAS REGISTRY NO=60404-18-4
##$NIST MASS SPEC NO=135958
##MOLFORM=C4 H Br Cl2 S
##MW=230
##$NIST SOURCE=MSDC
##XUNITS=M/Z
##YUNITS=RELATIVE INTENSITY
##XFACTOR=1
##YFACTOR=1
##FIRSTX=12
##LASTX=238
##FIRSTY=846
##MAXX=238
##MINX=12
##MAXY=9999
##MINY=26
##NPOINTS=112
##PEAK TABLE=(XY..XY)
12,846 13,83 18,75 24,337
25,424 32,1361 33,58 34,101
35,1258 36,1567 37,4248 38,170
40,32 41,45 44,1765 45,1535
46,119 47,1537 48,580 49,1275
50,71 56,759 57,713 58,568
59,246 60,383 61,67 62,121
67,76 68,906 69,1668 70,135
71,1054 72,2022 73,421 74,505
75,527 76,325 77,76 78,67
79,4472 80,1335 81,5896 82,391
83,430 84,493 85,92 86,163
91,666 92,160 93,417 94,67
97,103 98,128 99,40 103,241
104,66 105,127 106,40 107,3430
108,182 109,2272 110,86 111,410
113,48 114,81 115,1204 116,3239
117,761 118,1289 119,107 120,107
123,89 125,78 126,61 128,109
130,45 135,212 137,233 138,103
139,26 140,86 147,45 149,50
151,6258 152,487 153,4864 154,266
155,906 156,40 159,51 160,68
161,52 162,74 170,130 172,153
174,40 187,46 195,782 197,1128
198,87 199,280 228,30 230,5977
231,312 232,9999 233,522 234,4885
235,251 236,858 237,36 238,31
##END=
