##TITLE=1-Decanone, 1-phenyl-
##JCAMP-DX=4.24
##DATA TYPE=MASS SPECTRUM
##ORIGIN=Chuck Anderson, Aldrich Chemical Co.
##OWNER=NIST Mass Spectrometry Data Center
Collection (C) 2014 copyright by the U.S. Secretary of Commerce
on behalf of the United States of America. All rights reserved.
##CAS REGISTRY NO=6048-82-4
##$NIST MASS SPEC NO=117746
##MOLFORM=C16 H24 O
##MW=232
##$NIST SOURCE=MSDC
##XUNITS=M/Z
##YUNITS=RELATIVE INTENSITY
##XFACTOR=1
##YFACTOR=1
##FIRSTX=26
##LASTX=233
##FIRSTY=27
##MAXX=233
##MINX=26
##MAXY=9999
##MINY=3
##NPOINTS=62
##PEAK TABLE=(XY..XY)
26,27 27,416 28,107 29,610
30,9 39,253 40,44 41,875
42,181 43,539 44,23 50,101
51,563 52,55 53,80 54,38
55,624 56,98 57,124 63,23
65,62 67,55 68,16 69,136
70,34 71,31 74,23 75,31
76,127 77,3427 78,615 79,99
81,24 83,9 89,9 91,182
92,58 103,46 104,6 105,8787
106,643 107,94 110,29 115,59
117,26 120,9999 121,946 122,67
128,10 129,34 131,12 133,1065
134,119 143,3 145,11 147,44
148,8 175,9 189,38 231,15
232,359 233,67
##END=
