##TITLE=Artemiseole
##JCAMP-DX=4.24
##DATA TYPE=MASS SPECTRUM
##ORIGIN=H.Buttkus ET.AL. JAOCS, 54,212(1977)
##OWNER=NIST Mass Spectrometry Data Center
Collection (C) 2014 copyright by the U.S. Secretary of Commerce
on behalf of the United States of America. All rights reserved.
##CAS REGISTRY NO=60485-46-3
##$NIST MASS SPEC NO=281195
##MOLFORM=C10 H16 O
##MW=152
##$NIST SOURCE=MSDC
##XUNITS=M/Z
##YUNITS=RELATIVE INTENSITY
##XFACTOR=1
##YFACTOR=1
##FIRSTX=38
##LASTX=153
##FIRSTY=400
##MAXX=153
##MINX=38
##MAXY=9999
##MINY=60
##NPOINTS=54
##PEAK TABLE=(XY..XY)
38,400 39,4234 40,591 41,4644
42,460 43,9999 44,250 45,170
50,380 51,841 52,480 53,2222
54,310 55,3473 56,170 57,561
58,100 59,130 63,270 64,170
65,861 66,330 67,5195 68,330
69,440 70,270 77,2262 78,500
79,5925 80,611 81,3934 82,440
83,150 91,1281 92,330 93,1321
94,3393 95,6075 97,520 98,190
104,60 106,150 108,190 109,711
110,190 119,190 121,100 123,440
124,130 137,1672 138,130 151,100
152,2072 153,130
##END=
