##TITLE=Anthracene, 9,10-dichloro-
##JCAMP-DX=4.24
##DATA TYPE=MASS SPECTRUM
##ORIGIN=Japan AIST/NIMC Database- Spectrum MS-NW-2566
##OWNER=NIST Mass Spectrometry Data Center
Collection (C) 2014 copyright by the U.S. Secretary of Commerce
on behalf of the United States of America. All rights reserved.
##CAS REGISTRY NO=605-48-1
##$NIST MASS SPEC NO=230877
##MOLFORM=C14 H8 Cl2
##MW=246
##$NIST SOURCE=MSDC
##XUNITS=M/Z
##YUNITS=RELATIVE INTENSITY
##XFACTOR=1
##YFACTOR=1
##FIRSTX=26
##LASTX=252
##FIRSTY=20
##MAXX=252
##MINX=26
##MAXY=9999
##MINY=10
##NPOINTS=125
##PEAK TABLE=(XY..XY)
26,20 27,20 28,30 35,20
36,129 37,50 38,50 39,119
49,30 50,189 51,159 52,20
55,10 58,20 60,10 61,189
62,269 63,219 64,10 67,20
70,10 72,20 73,139 74,609
75,639 76,119 77,50 79,20
80,20 82,20 84,50 85,159
86,269 87,1119 88,1249 89,20
92,149 93,189 94,40 96,20
97,80 98,429 99,309 100,99
101,40 102,30 104,40 105,649
106,209 108,30 109,80 110,479
111,319 112,50 113,20 120,30
121,50 122,209 123,1309 124,769
125,189 126,149 127,10 132,30
133,30 134,50 135,60 136,20
137,70 138,20 144,10 145,20
146,50 147,50 148,50 149,479
150,779 151,129 152,30 159,10
160,30 161,20 162,20 163,20
164,10 170,10 171,10 172,10
173,129 174,1499 175,1819 176,7899
177,1159 178,80 180,20 181,10
183,10 184,80 185,70 186,70
187,30 188,10 197,10 199,30
201,10 207,20 208,30 209,40
210,839 211,859 212,399 213,279
214,40 220,60 221,10 222,30
244,10 245,50 246,9999 247,1539
248,6199 249,929 250,1049 251,139
252,10
##END=
