##TITLE=2,2'-Dimethylbiphenyl
##JCAMP-DX=4.24
##DATA TYPE=MASS SPECTRUM
##OWNER=NIST Mass Spectrometry Data Center
Collection (C) 2014 copyright by the U.S. Secretary of Commerce
on behalf of the United States of America. All rights reserved.
##CAS REGISTRY NO=605-39-0
##$NIST MASS SPEC NO=7569
##MOLFORM=C14 H14
##MW=182
##$NIST SOURCE=MSDC
##XUNITS=M/Z
##YUNITS=RELATIVE INTENSITY
##XFACTOR=1
##YFACTOR=1
##FIRSTX=26
##LASTX=184
##FIRSTY=20
##MAXX=184
##MINX=26
##MAXY=9999
##MINY=10
##NPOINTS=82
##PEAK TABLE=(XY..XY)
26,20 27,80 29,10 38,30
39,290 40,30 41,60 50,90
51,260 52,50 53,60 61,20
62,90 63,380 64,190 65,250
66,30 67,40 69,40 70,60
74,80 75,160 76,901 77,430
78,80 79,30 81,110 82,621
83,731 86,50 87,80 88,240
89,1431 90,641 91,460 92,30
98,30 99,20 100,10 101,40
102,80 103,60 104,30 105,40
113,50 114,30 115,520 116,80
126,80 127,150 128,370 129,90
137,20 138,40 139,270 140,60
141,300 142,80 150,80 151,250
152,1641 153,581 154,140 155,80
162,30 163,250 164,380 165,4014
166,2242 167,9999 168,1471 169,110
175,30 176,180 177,130 178,500
179,320 180,110 181,1591 182,7267
183,1111 184,80
##END=
