##TITLE=Naphthalene, 1-phenyl-
##JCAMP-DX=4.24
##DATA TYPE=MASS SPECTRUM
##ORIGIN=Japan AIST/NIMC Database- Spectrum MS-NW-3092
##OWNER=NIST Mass Spectrometry Data Center
Collection (C) 2014 copyright by the U.S. Secretary of Commerce
on behalf of the United States of America. All rights reserved.
##CAS REGISTRY NO=605-02-7
##$NIST MASS SPEC NO=228788
##MOLFORM=C16 H12
##MW=204
##$NIST SOURCE=MSDC
##XUNITS=M/Z
##YUNITS=RELATIVE INTENSITY
##XFACTOR=1
##YFACTOR=1
##FIRSTX=27
##LASTX=207
##FIRSTY=30
##MAXX=207
##MINX=27
##MAXY=9999
##MINY=10
##NPOINTS=91
##PEAK TABLE=(XY..XY)
27,30 38,20 39,109 50,109
51,179 52,30 61,20 62,90
63,189 64,10 65,20 67,20
74,139 75,239 76,289 77,90
78,20 81,20 82,10 85,20
86,70 87,159 88,459 89,499
90,10 91,10 93,20 94,109
95,20 98,70 99,70 100,379
101,1589 102,369 103,10 110,20
111,30 113,30 115,50 116,10
122,20 123,10 125,20 126,109
127,50 128,60 129,20 130,10
131,10 137,10 138,10 139,60
141,20 142,10 149,30 150,149
151,149 152,149 153,30 154,10
161,10 162,20 163,109 164,50
165,119 166,20 167,40 174,70
175,99 176,229 177,60 178,80
179,30 180,50 181,10 187,40
188,30 189,199 190,40 191,10
193,10 198,20 199,60 200,539
201,619 202,3699 203,6849 204,9999
205,1639 206,129 207,20
##END=
