##TITLE=1-Naphthalenol, 2,4-dinitro-
##JCAMP-DX=4.24
##DATA TYPE=MASS SPECTRUM
##ORIGIN=RADIAN CORP
##OWNER=NIST Mass Spectrometry Data Center
Collection (C) 2014 copyright by the U.S. Secretary of Commerce
on behalf of the United States of America. All rights reserved.
##CAS REGISTRY NO=605-69-6
##$NIST MASS SPEC NO=73721
##MOLFORM=C10 H6 N2 O5
##MW=234
##$NIST SOURCE=MSDC
##XUNITS=M/Z
##YUNITS=RELATIVE INTENSITY
##XFACTOR=1
##YFACTOR=1
##FIRSTX=17
##LASTX=237
##FIRSTY=60
##MAXX=237
##MINX=17
##MAXY=9999
##MINY=10
##NPOINTS=182
##PEAK TABLE=(XY..XY)
17,60 18,210 23,30 26,40
27,150 28,20 29,120 30,1660
31,20 36,20 37,80 38,180
39,880 40,90 41,180 42,60
43,260 44,340 45,90 46,240
47,20 49,50 50,820 51,1000
52,250 53,810 54,100 55,250
56,10 57,80 58,30 59,30
60,100 61,330 62,1180 63,2940
64,600 65,280 66,110 67,130
68,180 69,190 70,90 71,100
72,20 73,320 74,1390 75,2290
76,1460 77,830 78,200 79,110
80,60 81,130 82,70 83,100
84,80 85,330 86,1290 87,1880
88,2490 89,1090 90,360 91,140
92,140 93,90 94,10 95,70
96,70 97,130 98,320 99,330
100,440 101,3500 102,2370 103,860
104,700 105,690 106,110 107,50
108,80 109,130 110,280 111,250
112,250 113,6830 114,3980 115,1330
116,320 117,180 118,230 119,70
120,60 121,70 122,80 123,60
124,30 125,50 126,180 127,630
128,290 129,3540 130,1280 131,410
132,210 133,160 134,80 135,70
136,20 137,20 139,30 140,30
141,3540 142,2050 143,660 144,300
145,200 146,210 147,140 148,60
149,50 152,20 153,20 154,140
155,80 156,100 157,3090 158,860
159,680 160,160 161,80 162,40
163,20 165,10 168,20 169,30
170,160 171,530 172,420 173,230
174,70 175,30 176,110 177,30
178,30 179,20 183,20 184,20
185,30 186,110 187,4110 188,800
189,650 190,90 191,40 192,30
193,30 195,10 197,30 198,20
199,20 200,20 201,220 202,100
203,20 204,830 205,130 206,440
207,110 208,20 209,20 213,20
214,40 215,30 217,3900 218,1160
219,160 220,20 234,9999 235,1170
236,180 237,20
##END=
