##TITLE=Benzo[h]quinoline, 2,4-dimethyl-
##JCAMP-DX=4.24
##DATA TYPE=MASS SPECTRUM
##ORIGIN=A.A.Kutin, Moscow, Russia
##OWNER=NIST Mass Spectrometry Data Center
Collection (C) 2014 copyright by the U.S. Secretary of Commerce
on behalf of the United States of America. All rights reserved.
##CAS REGISTRY NO=605-67-4
##$NIST MASS SPEC NO=258719
##MOLFORM=C15 H13 N
##MW=207
##$NIST SOURCE=MSDC
##XUNITS=M/Z
##YUNITS=RELATIVE INTENSITY
##XFACTOR=1
##YFACTOR=1
##FIRSTX=35
##LASTX=210
##FIRSTY=51
##MAXX=210
##MINX=35
##MAXY=9999
##MINY=1
##NPOINTS=134
##PEAK TABLE=(XY..XY)
35,51 36,34 37,66 38,292
39,1213 40,212 41,251 42,742
43,22 44,2 45,7 50,446
51,521 52,238 53,97 54,36
55,15 56,4 60,2 61,49
62,263 63,520 64,125 65,86
66,21 67,2 69,21 70,2
74,315 75,295 76,206 77,159
78,44 79,6 80,6 81,22
82,52 83,19 85,29 86,159
87,278 88,125 89,139 90,54
91,22 92,1 95,15 96,21
97,12 98,133 99,133 100,89
101,75 102,102 103,63 104,48
105,1 107,3 110,53 111,107
112,42 113,137 114,70 115,166
116,31 117,8 121,4 122,32
123,33 124,27 125,52 126,197
127,177 128,78 129,14 130,8
131,2 134,9 135,15 137,96
138,90 139,382 140,188 141,46
142,9 143,3 146,3 148,1
149,39 150,247 151,240 152,315
153,129 154,69 155,7 156,3
159,1 161,31 162,94 163,456
164,451 165,874 166,264 167,146
168,94 169,6 174,17 175,43
176,141 177,214 178,413 179,236
180,362 181,68 182,6 186,1
188,41 189,69 190,434 191,654
192,461 193,77 194,7 199,1
201,13 202,36 203,83 204,394
205,312 206,1797 207,9999 208,1555
209,127 210,6
##END=
