##TITLE=1,2-Benzenedicarboxylic acid, bis(1-methylethyl) ester
##JCAMP-DX=4.24
##DATA TYPE=MASS SPECTRUM
##ORIGIN=Japan AIST/NIMC Database- Spectrum MS-NW-5328
##OWNER=NIST Mass Spectrometry Data Center
Collection (C) 2014 copyright by the U.S. Secretary of Commerce
on behalf of the United States of America. All rights reserved.
##CAS REGISTRY NO=605-45-8
##$NIST MASS SPEC NO=228032
##MOLFORM=C14 H18 O4
##MW=250
##$NIST SOURCE=MSDC
##XUNITS=M/Z
##YUNITS=RELATIVE INTENSITY
##XFACTOR=1
##YFACTOR=1
##FIRSTX=15
##LASTX=250
##FIRSTY=50
##MAXX=250
##MINX=15
##MAXY=9999
##MINY=10
##NPOINTS=80
##PEAK TABLE=(XY..XY)
15,50 18,10 26,20 27,399
28,90 29,20 31,30 32,10
37,20 38,40 39,319 40,50
41,609 42,189 43,1039 44,40
45,209 49,10 50,249 51,90
52,30 53,20 55,10 57,20
58,10 59,349 60,10 63,10
64,10 65,439 66,139 69,10
70,10 71,10 74,60 75,70
76,529 77,169 78,20 79,10
87,20 91,20 92,20 93,339
94,30 103,10 104,479 105,579
106,70 117,10 119,10 120,10
121,259 122,589 123,80 124,10
129,10 131,20 132,50 133,10
145,10 146,10 147,20 148,30
149,9999 150,1109 151,119 152,10
163,10 164,30 165,10 167,399
168,40 191,199 192,289 193,40
208,10 209,389 210,50 250,20
##END=
