##TITLE=Diphenic anhydride
##JCAMP-DX=4.24
##DATA TYPE=MASS SPECTRUM
##ORIGIN=NIST Mass Spectrometry Data Center
##OWNER=NIST Mass Spectrometry Data Center
Collection (C) 2014 copyright by the U.S. Secretary of Commerce
on behalf of the United States of America. All rights reserved.
##CAS REGISTRY NO=6050-13-1
##$NIST MASS SPEC NO=341277
##MOLFORM=C14 H8 O3
##MW=224
##$NIST SOURCE=MSDC
##XUNITS=M/Z
##YUNITS=RELATIVE INTENSITY
##XFACTOR=1
##YFACTOR=1
##FIRSTX=26
##LASTX=226
##FIRSTY=20
##MAXX=226
##MINX=26
##MAXY=9999
##MINY=10
##NPOINTS=74
##PEAK TABLE=(XY..XY)
26,20 27,50 37,30 38,90
39,370 41,10 44,30 49,30
50,581 51,410 52,90 53,40
54,10 55,10 61,150 62,390
63,1271 65,20 67,50 69,20
73,70 74,791 75,921 76,2062
77,240 78,60 82,20 84,20
85,110 86,340 87,490 88,90
89,70 90,90 96,10 97,40
98,460 99,360 100,190 101,140
102,340 103,30 109,30 110,110
111,130 112,20 113,180 114,40
115,10 121,20 122,100 123,50
124,40 125,350 126,1251 127,140
128,10 137,20 138,10 139,190
140,30 149,120 150,1682 151,3033
152,6075 153,821 154,50 168,20
180,9999 181,1431 182,110 224,1301
225,200 226,20
##END=
