##TITLE=1H-Naphtho[2,1-b]pyran-1-one, 3-phenyl-
##JCAMP-DX=4.24
##DATA TYPE=MASS SPECTRUM
##ORIGIN=NIST Mass Spectrometry Data Center, 1994
##OWNER=NIST Mass Spectrometry Data Center
Collection (C) 2014 copyright by the U.S. Secretary of Commerce
on behalf of the United States of America. All rights reserved.
##CAS REGISTRY NO=6051-87-2
##$NIST MASS SPEC NO=134253
##MOLFORM=C19 H12 O2
##MW=272
##$NIST SOURCE=MSDC
##XUNITS=M/Z
##YUNITS=RELATIVE INTENSITY
##XFACTOR=1
##YFACTOR=1
##FIRSTX=18
##LASTX=274
##FIRSTY=27
##MAXX=274
##MINX=18
##MAXY=9999
##MINY=18
##NPOINTS=99
##PEAK TABLE=(XY..XY)
18,27 26,38 27,123 38,57
39,338 44,24 50,368 51,611
52,228 53,47 61,63 62,423
63,791 64,177 65,51 69,77
74,489 75,515 76,649 77,442
78,32 81,105 85,30 86,254
87,464 88,970 89,262 90,44
91,18 95,743 96,41 98,144
99,126 100,124 101,207 102,661
103,63 105,97 107,1318 109,71
110,56 111,80 112,41 113,1538
114,5645 115,721 116,39 122,1984
126,318 127,43 129,134 136,359
137,96 138,73 139,232 140,32
141,32 142,2979 143,328 144,32
149,21 150,94 151,45 161,32
162,52 163,143 164,36 165,54
170,6042 171,698 172,78 174,64
175,38 176,70 186,36 187,171
188,122 189,408 190,73 200,48
201,35 202,84 211,70 213,802
214,313 215,1719 216,344 217,30
224,28 225,28 226,49 242,147
244,8972 245,1632 246,209 271,1265
272,9999 273,2027 274,228
##END=
