##TITLE=1,1':3',1''-Tercyclopentane
##JCAMP-DX=4.24
##DATA TYPE=MASS SPECTRUM
##OWNER=NIST Mass Spectrometry Data Center
Collection (C) 2014 copyright by the U.S. Secretary of Commerce
on behalf of the United States of America. All rights reserved.
##CAS REGISTRY NO=6051-40-7
##$NIST MASS SPEC NO=9377
##MOLFORM=C15 H26
##MW=206
##$NIST SOURCE=MSDC
##XUNITS=M/Z
##YUNITS=RELATIVE INTENSITY
##XFACTOR=1
##YFACTOR=1
##FIRSTX=36
##LASTX=208
##FIRSTY=10
##MAXX=208
##MINX=36
##MAXY=9999
##MINY=10
##NPOINTS=127
##PEAK TABLE=(XY..XY)
36,10 37,30 38,100 39,2923
40,691 41,9999 42,1261 43,621
44,20 45,10 46,10 47,10
48,20 49,10 50,60 51,250
52,190 53,1511 54,1031 55,3183
56,200 57,250 58,20 59,10
60,10 61,10 62,10 63,60
64,30 65,561 66,1271 67,7457
68,5085 69,4364 70,260 71,100
72,10 74,10 75,10 76,10
77,691 78,190 79,1281 80,631
81,5435 82,1251 83,661 84,50
85,50 86,10 89,10 90,10
91,470 92,100 93,751 94,811
95,5925 96,1601 97,430 98,30
99,10 102,10 103,30 104,10
105,80 106,30 107,320 108,581
109,691 110,1091 111,450 112,50
113,10 115,20 116,10 117,20
118,10 119,20 120,10 121,520
122,150 123,180 124,250 125,70
126,10 127,10 128,10 129,10
131,10 132,10 133,30 134,60
135,2232 136,3883 137,5805 138,821
139,60 140,10 141,10 147,10
148,10 149,390 150,230 151,40
152,10 153,10 155,10 159,10
161,10 162,10 163,180 164,120
165,30 166,10 169,10 175,10
176,10 177,90 178,150 179,20
191,10 202,10 204,20 205,10
206,661 207,110 208,10
##END=
