##TITLE=Cyclohexaneacetic acid, .alpha.-ethyl-
##JCAMP-DX=4.24
##DATA TYPE=MASS SPECTRUM
##ORIGIN=Div. of Experiment Therapeutics WRAIR, WRAMC, Washington DC 20307
##OWNER=NIST Mass Spectrometry Data Center
Collection (C) 2014 copyright by the U.S. Secretary of Commerce
on behalf of the United States of America. All rights reserved.
##CAS REGISTRY NO=6051-00-9
##$NIST MASS SPEC NO=251678
##MOLFORM=C10 H18 O2
##MW=170
##$NIST SOURCE=MSDC
##XUNITS=M/Z
##YUNITS=RELATIVE INTENSITY
##XFACTOR=1
##YFACTOR=1
##FIRSTX=41
##LASTX=171
##FIRSTY=4958
##MAXX=171
##MINX=41
##MAXY=9999
##MINY=6
##NPOINTS=62
##PEAK TABLE=(XY..XY)
41,4958 42,1164 43,1471 44,630
45,575 47,12 51,245 53,974
55,4686 56,278 57,264 58,101
60,164 62,25 63,41 65,102
67,636 69,1044 70,282 71,161
73,3406 74,54 77,119 79,269
81,558 83,503 84,71 85,41
86,16 88,9999 89,550 91,26
93,23 95,94 97,76 98,161
99,62 100,30 105,6 107,26
108,35 109,15 110,6 111,29
112,67 113,26 114,28 116,51
123,37 125,45 126,17 128,37
130,19 139,14 141,100 142,26
151,13 153,32 168,8 169,14
170,47 171,6
##END=
