##TITLE=Ethyl homovanillate
##JCAMP-DX=4.24
##DATA TYPE=MASS SPECTRUM
##ORIGIN=Japan AIST/NIMC Database- Spectrum MS-NW-8035
##OWNER=NIST Mass Spectrometry Data Center
Collection (C) 2014 copyright by the U.S. Secretary of Commerce
on behalf of the United States of America. All rights reserved.
##CAS REGISTRY NO=60563-13-5
##$NIST MASS SPEC NO=238912
##MOLFORM=C11 H14 O4
##MW=210
##$NIST SOURCE=MSDC
##XUNITS=M/Z
##YUNITS=RELATIVE INTENSITY
##XFACTOR=1
##YFACTOR=1
##FIRSTX=14
##LASTX=212
##FIRSTY=20
##MAXX=212
##MINX=14
##MAXY=9999
##MINY=10
##NPOINTS=90
##PEAK TABLE=(XY..XY)
14,20 15,139 18,10 26,80
27,509 28,90 29,1159 30,40
31,80 37,10 38,90 39,539
40,129 41,60 42,50 43,149
44,10 45,70 49,10 50,159
51,549 52,209 53,169 54,30
55,189 56,10 61,20 62,60
63,139 64,90 65,529 66,609
67,99 68,50 69,40 73,10
74,30 75,40 76,50 77,419
78,209 79,169 80,40 81,90
82,20 86,10 87,10 89,20
90,60 91,119 92,40 93,90
94,1319 95,139 96,10 104,10
105,199 106,159 107,269 108,40
109,50 110,20 111,10 119,30
120,10 121,50 122,1249 123,269
124,50 125,20 133,20 134,10
135,99 136,80 137,9999 138,939
139,80 149,30 150,10 151,10
153,20 164,60 165,30 181,20
182,50 195,10 209,20 210,2259
211,289 212,50
##END=
