##TITLE=Furmecyclox
##JCAMP-DX=4.24
##DATA TYPE=MASS SPECTRUM
##ORIGIN=NIST Mass Spectral Data Center
##OWNER=NIST Mass Spectrometry Data Center
Collection (C) 2014 copyright by the U.S. Secretary of Commerce
on behalf of the United States of America. All rights reserved.
##CAS REGISTRY NO=60568-05-0
##$NIST MASS SPEC NO=320493
##MOLFORM=C14 H21 N O3
##MW=251
##$NIST SOURCE=MSDC
##XUNITS=M/Z
##YUNITS=RELATIVE INTENSITY
##XFACTOR=1
##YFACTOR=1
##FIRSTX=43
##LASTX=252
##FIRSTY=530
##MAXX=252
##MINX=43
##MAXY=9999
##MINY=100
##NPOINTS=16
##PEAK TABLE=(XY..XY)
43,530 51,130 53,1001 81,1041
94,120 95,100 122,210 123,9999
124,801 138,120 139,180 169,571
220,561 221,320 251,1101 252,170
##END=
