##TITLE=Benzenepropanoic acid, .beta.-phenyl-
##JCAMP-DX=4.24
##DATA TYPE=MASS SPECTRUM
##ORIGIN=Japan AIST/NIMC Database- Spectrum MS-NW-6426
##OWNER=NIST Mass Spectrometry Data Center
Collection (C) 2014 copyright by the U.S. Secretary of Commerce
on behalf of the United States of America. All rights reserved.
##CAS REGISTRY NO=606-83-7
##$NIST MASS SPEC NO=235193
##MOLFORM=C15 H14 O2
##MW=226
##$NIST SOURCE=MSDC
##XUNITS=M/Z
##YUNITS=RELATIVE INTENSITY
##XFACTOR=1
##YFACTOR=1
##FIRSTX=18
##LASTX=228
##FIRSTY=20
##MAXX=228
##MINX=18
##MAXY=9999
##MINY=10
##NPOINTS=103
##PEAK TABLE=(XY..XY)
18,20 26,10 27,99 28,20
29,10 38,20 39,209 40,10
41,20 42,20 43,20 44,40
45,60 50,139 51,419 52,90
53,40 55,10 57,20 60,10
61,10 62,50 63,189 64,40
65,99 66,10 69,40 70,40
74,70 75,90 76,199 77,699
78,189 79,139 80,10 81,30
82,229 83,219 86,20 87,30
88,50 89,309 90,129 91,139
92,10 98,10 99,10 101,30
102,149 103,589 104,189 105,90
106,10 107,90 113,30 114,10
115,189 116,20 126,40 127,40
128,119 129,20 130,10 131,50
138,10 139,119 140,20 141,80
142,10 147,40 148,10 149,10
150,30 151,119 152,989 153,159
154,30 155,10 162,10 163,80
164,119 165,1999 166,899 167,9999
168,1469 169,99 176,60 177,50
178,299 179,379 180,1149 181,259
182,30 183,30 191,10 193,10
207,40 208,99 209,20 225,30
226,3719 227,619 228,70
##END=
