##TITLE=Benzoic acid, 2-benzoyl-, methyl ester
##JCAMP-DX=4.24
##DATA TYPE=MASS SPECTRUM
##ORIGIN=T.A.BLAZER, DU PONT, GIBBSTOWN, N.J., USA
##OWNER=NIST Mass Spectrometry Data Center
Collection (C) 2014 copyright by the U.S. Secretary of Commerce
on behalf of the United States of America. All rights reserved.
##CAS REGISTRY NO=606-28-0
##$NIST MASS SPEC NO=35560
##MOLFORM=C15 H12 O3
##MW=240
##$NIST SOURCE=MSDC
##XUNITS=M/Z
##YUNITS=RELATIVE INTENSITY
##XFACTOR=1
##YFACTOR=1
##FIRSTX=15
##LASTX=241
##FIRSTY=559
##MAXX=241
##MINX=15
##MAXY=9999
##MINY=8
##NPOINTS=101
##PEAK TABLE=(XY..XY)
15,559 17,8 26,21 27,126
29,236 30,21 31,15 34,17
37,19 38,53 39,166 40,278
44,13 49,22 50,706 51,1205
52,84 53,51 59,35 61,15
62,56 63,164 64,105 65,52
66,10 74,204 75,263 76,839
77,3976 78,290 79,52 82,8
86,28 87,94 88,35 89,27
90,25 91,51 92,738 93,66
97,13 98,63 99,53 100,30
101,61 102,61 103,13 104,427
105,7242 106,650 107,53 108,35
109,21 110,16 111,55 113,52
114,29 115,45 119,47 120,169
121,28 122,19 125,40 126,164
127,146 128,29 132,15 133,193
134,40 135,271 136,38 137,15
138,15 139,52 140,20 141,19
149,40 150,130 151,460 152,1326
153,512 154,70 163,9999 164,1403
165,212 168,24 179,25 180,232
181,586 182,122 195,28 196,42
208,78 209,2207 210,533 211,132
212,135 225,111 239,45 240,2400
241,550
##END=
