##TITLE=Benzoic acid, 2-methoxy-, methyl ester
##JCAMP-DX=4.24
##DATA TYPE=MASS SPECTRUM
##ORIGIN=Zaikin V.G., TIPS RAS, Moscow, Russia
##OWNER=NIST Mass Spectrometry Data Center
Collection (C) 2014 copyright by the U.S. Secretary of Commerce
on behalf of the United States of America. All rights reserved.
##CAS REGISTRY NO=606-45-1
##$NIST MASS SPEC NO=292295
##MOLFORM=C9 H10 O3
##MW=166
##$NIST SOURCE=MSDC
##XUNITS=M/Z
##YUNITS=RELATIVE INTENSITY
##XFACTOR=1
##YFACTOR=1
##FIRSTX=26
##LASTX=168
##FIRSTY=30
##MAXX=168
##MINX=26
##MAXY=9999
##MINY=10
##NPOINTS=73
##PEAK TABLE=(XY..XY)
26,30 27,50 28,50 29,140
30,60 31,40 35,20 36,170
37,50 38,240 39,190 40,10
41,40 43,10 44,110 45,110
49,20 50,330 51,500 52,110
53,120 54,10 55,10 59,100
61,50 62,130 63,641 64,611
65,150 66,40 67,20 69,10
73,10 74,110 75,100 76,330
77,3303 78,340 79,390 80,40
89,10 90,30 91,210 92,1391
93,200 94,110 95,60 96,20
104,110 105,1311 106,230 107,220
108,40 118,30 119,80 120,380
121,180 122,20 123,30 133,3453
134,761 135,9999 136,811 137,981
138,80 149,100 150,20 151,280
152,40 165,50 166,3273 167,310
168,30
##END=
