##TITLE=1-Chloro-2,6-dinitrobenzene
##JCAMP-DX=4.24
##DATA TYPE=MASS SPECTRUM
##ORIGIN=NIST Mass Spectrometry Data Center, 1994
##OWNER=NIST Mass Spectrometry Data Center
Collection (C) 2014 copyright by the U.S. Secretary of Commerce
on behalf of the United States of America. All rights reserved.
##CAS REGISTRY NO=606-21-3
##$NIST MASS SPEC NO=133302
##MOLFORM=C6 H3 Cl N2 O4
##MW=202
##$NIST SOURCE=MSDC
##XUNITS=M/Z
##YUNITS=RELATIVE INTENSITY
##XFACTOR=1
##YFACTOR=1
##FIRSTX=12
##LASTX=206
##FIRSTY=13
##MAXX=206
##MINX=12
##MAXY=9999
##MINY=8
##NPOINTS=102
##PEAK TABLE=(XY..XY)
12,13 16,59 17,9 18,8
25,31 26,120 28,116 30,9999
35,98 36,119 37,542 38,407
39,188 40,12 42,11 44,12
46,472 47,71 48,76 49,430
50,567 51,246 52,64 53,97
54,39 55,139 60,113 61,351
62,653 63,3004 64,283 65,155
66,23 67,10 68,19 69,22
72,395 73,1085 74,3261 75,5971
76,589 77,61 78,10 79,466
80,39 81,10 84,1221 85,199
86,775 87,381 88,196 89,111
90,10 91,1213 92,89 93,35
96,47 97,191 98,815 99,121
100,298 101,28 102,14 105,8
107,705 108,177 109,494 110,2209
111,283 112,711 113,136 114,280
116,211 117,16 118,40 121,861
122,76 123,10 124,22 126,239
127,56 128,116 129,17 140,129
141,180 142,78 143,73 144,13
156,71 157,9 158,23 172,567
173,47 174,222 175,18 186,180
188,66 202,6454 203,589 204,2026
205,162 206,25
##END=
