##TITLE=Cholest-8-en-3-ol, 14-methyl-, (3.beta.,5.alpha.)-
##JCAMP-DX=4.24
##DATA TYPE=MASS SPECTRUM
##ORIGIN=CARL DJERASSI DEPT OF CHEM STANFORD UNIV STANFORD CALIF 94305
##OWNER=NIST Mass Spectrometry Data Center
Collection (C) 2014 copyright by the U.S. Secretary of Commerce
on behalf of the United States of America. All rights reserved.
##CAS REGISTRY NO=6062-47-1
##$NIST MASS SPEC NO=48739
##MOLFORM=C28 H48 O
##MW=400
##$NIST SOURCE=MSDC
##XUNITS=M/Z
##YUNITS=RELATIVE INTENSITY
##XFACTOR=1
##YFACTOR=1
##FIRSTX=41
##LASTX=401
##FIRSTY=6200
##MAXX=401
##MINX=41
##MAXY=9999
##MINY=100
##NPOINTS=153
##PEAK TABLE=(XY..XY)
41,6200 42,1000 43,9999 44,3000
45,200 53,700 54,200 55,6500
56,700 57,4500 58,200 65,200
66,100 67,2200 68,500 69,4000
70,600 71,2000 72,100 73,100
77,600 78,100 79,1700 80,400
81,3000 82,600 83,2700 84,300
85,600 91,1800 92,400 93,2000
94,400 95,3000 96,500 97,1500
98,100 105,1700 106,400 107,2500
108,400 109,1300 110,200 111,600
115,100 117,400 118,100 119,1500
120,400 121,1200 122,200 123,400
124,200 125,200 127,100 128,100
129,200 130,100 131,600 132,100
133,1000 134,300 135,800 136,100
137,300 141,100 143,300 144,100
145,700 146,100 147,800 148,300
149,400 150,100 151,100 157,200
159,600 160,200 161,700 162,100
163,200 165,100 171,200 173,200
174,100 175,300 176,100 177,100
178,400 179,200 185,100 187,300
189,100 191,100 192,100 193,100
199,400 200,100 201,600 202,100
203,300 204,100 205,300 206,100
207,100 213,300 214,100 215,400
216,100 217,600 218,100 219,700
220,100 227,600 228,100 229,300
231,600 232,100 233,100 241,200
242,300 243,200 244,100 245,700
246,100 247,500 248,100 253,100
255,100 257,200 258,100 259,600
260,400 261,200 262,200 269,200
271,300 273,500 274,100 275,200
285,100 287,200 367,900 368,200
369,100 383,600 384,100 385,2900
386,1000 387,200 398,100 400,400
401,100
##END=
