##TITLE=6-Dodecanone
##JCAMP-DX=4.24
##DATA TYPE=MASS SPECTRUM
##ORIGIN=NIST Mass Spectrometry Data Center, 1990.
##OWNER=NIST Mass Spectrometry Data Center
Collection (C) 2014 copyright by the U.S. Secretary of Commerce
on behalf of the United States of America. All rights reserved.
##CAS REGISTRY NO=6064-27-3
##$NIST MASS SPEC NO=114069
##MOLFORM=C12 H24 O
##MW=184
##$NIST SOURCE=MSDC
##XUNITS=M/Z
##YUNITS=RELATIVE INTENSITY
##XFACTOR=1
##YFACTOR=1
##FIRSTX=14
##LASTX=184
##FIRSTY=125
##MAXX=184
##MINX=14
##MAXY=9999
##MINY=66
##NPOINTS=56
##PEAK TABLE=(XY..XY)
14,125 27,1557 28,274 29,2180
31,74 39,1344 41,4657 42,1759
43,9999 44,390 45,69 51,99
52,66 53,507 54,66 55,2898
56,784 57,2168 58,6641 59,2110
60,88 65,99 67,420 68,696
69,648 70,88 71,8115 72,2031
73,117 77,88 79,101 80,67
81,451 82,75 83,286 84,67
85,3937 86,887 95,499 96,198
97,141 98,75 99,4917 100,435
109,70 110,184 113,4670 114,949
115,417 127,643 128,503 129,151
141,456 142,117 155,85 184,146
##END=
