##TITLE=Heneicosanoic acid, methyl ester
##JCAMP-DX=4.24
##DATA TYPE=MASS SPECTRUM
##ORIGIN=NIST Mass Spectrometry Data Center
##OWNER=NIST Mass Spectrometry Data Center
Collection (C) 2014 copyright by the U.S. Secretary of Commerce
on behalf of the United States of America. All rights reserved.
##CAS REGISTRY NO=6064-90-0
##$NIST MASS SPEC NO=333175
##MOLFORM=C22 H44 O2
##MW=340
##$NIST SOURCE=MSDC
##XUNITS=M/Z
##YUNITS=RELATIVE INTENSITY
##XFACTOR=1
##YFACTOR=1
##FIRSTX=15
##LASTX=343
##FIRSTY=40
##MAXX=343
##MINX=15
##MAXY=9999
##MINY=10
##NPOINTS=177
##PEAK TABLE=(XY..XY)
15,40 26,10 27,190 28,50
29,661 30,20 31,30 33,10
38,10 39,240 41,2522 42,591
43,4594 44,160 45,110 51,10
52,10 53,170 54,270 55,3763
56,781 57,3173 58,200 59,961
60,50 61,30 65,30 66,20
67,440 68,210 69,1902 70,370
71,1051 72,70 74,9999 75,2903
76,130 77,30 78,10 79,110
80,40 81,370 82,170 83,1301
84,440 85,561 87,7687 88,651
89,50 91,20 92,10 93,90
94,30 95,320 96,150 97,1091
98,410 99,120 100,30 101,701
102,70 103,10 105,10 107,90
108,20 109,170 110,70 111,450
112,110 113,70 114,20 115,260
116,130 117,10 119,10 121,120
122,20 123,90 124,40 125,210
126,40 127,30 129,821 130,210
131,20 133,10 135,110 136,20
137,40 138,20 139,110 140,20
141,20 143,2312 144,230 145,20
149,70 150,10 151,20 152,20
153,70 154,20 155,10 157,190
158,30 163,40 164,10 165,10
166,10 167,40 168,10 169,10
171,120 172,40 173,10 177,20
179,10 180,10 181,20 182,10
185,440 186,80 187,10 191,20
194,10 195,20 196,10 199,571
200,90 201,10 205,10 208,10
209,20 210,10 213,100 214,20
219,10 222,10 223,10 224,10
227,120 228,40 229,10 233,10
237,10 238,10 241,561 242,110
243,10 251,10 255,370 256,70
257,10 264,10 265,10 266,20
269,80 270,20 279,10 283,160
284,40 285,10 289,10 291,10
297,1041 298,220 299,30 307,10
309,340 310,80 311,200 312,50
313,10 340,1932 341,480 342,60
343,10
##END=
