##TITLE=Acetic acid, diethoxy-, ethyl ester
##JCAMP-DX=4.24
##DATA TYPE=MASS SPECTRUM
##ORIGIN=NIST Mass Spectrometry Data Center, 1994
##OWNER=NIST Mass Spectrometry Data Center
Collection (C) 2014 copyright by the U.S. Secretary of Commerce
on behalf of the United States of America. All rights reserved.
##CAS REGISTRY NO=6065-82-3
##$NIST MASS SPEC NO=133392
##MOLFORM=C8 H16 O4
##MW=176
##$NIST SOURCE=MSDC
##XUNITS=M/Z
##YUNITS=RELATIVE INTENSITY
##XFACTOR=1
##YFACTOR=1
##FIRSTX=12
##LASTX=132
##FIRSTY=11
##MAXX=132
##MINX=12
##MAXY=9999
##MINY=9
##NPOINTS=40
##PEAK TABLE=(XY..XY)
12,11 14,55 15,236 16,16
19,787 26,274 27,1949 28,758
29,5365 30,354 31,775 32,28
39,12 41,77 42,66 43,322
44,82 45,819 46,12 47,9999
48,99 49,40 55,9 56,23
57,206 58,222 59,45 60,107
73,57 75,6617 76,239 77,32
86,116 88,20 91,21 103,7186
104,418 105,40 131,282 132,48
##END=
