##TITLE=Cyclohexane, 1-methyl-4-(1-methylethyl)-, cis-
##JCAMP-DX=4.24
##DATA TYPE=MASS SPECTRUM
##ORIGIN=NIST Mass Spectrometry Data Center, 1998.
##OWNER=NIST Mass Spectrometry Data Center
Collection (C) 2014 copyright by the U.S. Secretary of Commerce
on behalf of the United States of America. All rights reserved.
##CAS REGISTRY NO=6069-98-3
##$NIST MASS SPEC NO=291245
##MOLFORM=C10 H20
##MW=140
##$NIST SOURCE=MSDC
##XUNITS=M/Z
##YUNITS=RELATIVE INTENSITY
##XFACTOR=1
##YFACTOR=1
##FIRSTX=15
##LASTX=142
##FIRSTY=20
##MAXX=142
##MINX=15
##MAXY=9999
##MINY=10
##NPOINTS=61
##PEAK TABLE=(XY..XY)
15,20 26,20 27,570 29,570
30,10 37,10 38,30 39,1070
40,180 41,2560 42,410 43,1040
44,30 46,10 50,40 51,150
52,80 53,630 54,640 55,9999
56,820 57,330 58,20 62,10
63,30 64,10 65,160 66,90
67,770 68,380 69,1900 70,240
71,40 77,180 78,40 79,220
80,50 81,2700 82,270 83,660
84,70 85,10 91,70 92,10
93,30 94,10 95,150 96,4940
97,8149 98,730 99,30 109,10
111,10 112,10 123,10 125,70
126,10 139,10 140,1410 141,150
142,10
##END=
