##TITLE=2-Nitro-1-naphthol
##JCAMP-DX=4.24
##DATA TYPE=MASS SPECTRUM
##ORIGIN=Japan AIST/NIMC Database- Spectrum MS-IW- 743
##OWNER=NIST Mass Spectrometry Data Center
Collection (C) 2014 copyright by the U.S. Secretary of Commerce
on behalf of the United States of America. All rights reserved.
##CAS REGISTRY NO=607-24-9
##$NIST MASS SPEC NO=239437
##MOLFORM=C10 H7 N O3
##MW=189
##$NIST SOURCE=MSDC
##XUNITS=M/Z
##YUNITS=RELATIVE INTENSITY
##XFACTOR=1
##YFACTOR=1
##FIRSTX=18
##LASTX=191
##FIRSTY=10
##MAXX=191
##MINX=18
##MAXY=9999
##MINY=10
##NPOINTS=71
##PEAK TABLE=(XY..XY)
18,10 27,10 28,60 30,20
38,20 39,90 41,10 43,10
50,70 51,129 52,20 53,20
55,10 57,50 61,20 62,129
63,289 64,80 65,99 66,10
71,50 74,90 75,119 76,60
77,199 78,10 85,10 86,60
87,99 88,339 89,359 90,30
94,129 95,10 98,10 99,10
100,20 101,249 102,129 103,189
104,20 110,10 113,449 114,1609
115,1079 116,359 117,30 126,10
127,30 128,529 129,70 130,99
131,439 132,40 141,20 142,159
143,609 144,90 156,379 157,80
158,10 159,359 160,40 171,10
172,1229 173,519 174,60 188,10
189,9999 190,1149 191,119
##END=
