##TITLE=Quinoline, 4-methoxy-
##JCAMP-DX=4.24
##DATA TYPE=MASS SPECTRUM
##OWNER=NIST Mass Spectrometry Data Center
Collection (C) 2014 copyright by the U.S. Secretary of Commerce
on behalf of the United States of America. All rights reserved.
##CAS REGISTRY NO=607-31-8
##$NIST MASS SPEC NO=5616
##MOLFORM=C10 H9 N O
##MW=159
##$NIST SOURCE=MSDC
##XUNITS=M/Z
##YUNITS=RELATIVE INTENSITY
##XFACTOR=1
##YFACTOR=1
##FIRSTX=50
##LASTX=160
##FIRSTY=3673
##MAXX=160
##MINX=50
##MAXY=9999
##MINY=163
##NPOINTS=34
##PEAK TABLE=(XY..XY)
50,3673 51,3306 52,326 53,204
54,163 61,286 62,735 63,1551
64,531 65,326 74,490 75,1224
76,531 77,286 87,163 88,408
89,2653 90,571 101,735 102,816
103,245 115,204 116,5224 117,694
121,204 122,449 128,612 129,2122
130,1020 144,286 157,326 158,1632
159,9999 160,1143
##END=
