##TITLE=1-Naphthalenol, benzoate
##JCAMP-DX=4.24
##DATA TYPE=MASS SPECTRUM
##ORIGIN=J. Little, Eastman chemical company.
##OWNER=NIST Mass Spectrometry Data Center
Collection (C) 2014 copyright by the U.S. Secretary of Commerce
on behalf of the United States of America. All rights reserved.
##CAS REGISTRY NO=607-55-6
##$NIST MASS SPEC NO=403711
##MOLFORM=C17 H12 O2
##MW=248
##$NIST SOURCE=MSDC
##XUNITS=M/Z
##YUNITS=RELATIVE INTENSITY
##XFACTOR=1
##YFACTOR=1
##FIRSTX=31
##LASTX=250
##FIRSTY=200
##MAXX=250
##MINX=31
##MAXY=9999
##MINY=40
##NPOINTS=34
##PEAK TABLE=(XY..XY)
31,200 39,110 45,90 46,110
50,160 51,571 62,80 63,220
64,50 65,120 74,80 75,110
76,160 77,3303 78,250 88,80
89,290 105,9999 106,1111 113,100
114,140 115,1481 116,190 126,80
127,170 128,811 129,90 143,140
144,70 165,40 189,70 248,1832
249,330 250,40
##END=
