##TITLE=Benzene, 1,3,5-tribromo-2-methoxy-
##JCAMP-DX=4.24
##DATA TYPE=MASS SPECTRUM
##ORIGIN=NIST Mass Spectrometry Data Center, 2010
##OWNER=NIST Mass Spectrometry Data Center
Collection (C) 2014 copyright by the U.S. Secretary of Commerce
on behalf of the United States of America. All rights reserved.
##CAS REGISTRY NO=607-99-8
##$NIST MASS SPEC NO=384264
##MOLFORM=C7 H5 Br3 O
##MW=342
##$NIST SOURCE=MSDC
##XUNITS=M/Z
##YUNITS=RELATIVE INTENSITY
##XFACTOR=1
##YFACTOR=1
##FIRSTX=14
##LASTX=349
##FIRSTY=30
##MAXX=349
##MINX=14
##MAXY=9999
##MINY=10
##NPOINTS=151
##PEAK TABLE=(XY..XY)
14,30 15,420 16,10 25,30
26,30 27,30 29,260 30,70
31,20 36,170 37,831 38,300
39,30 43,30 48,60 49,390
50,540 51,310 52,50 53,701
54,20 55,10 60,561 61,3193
62,5665 63,400 64,10 65,70
70,120 71,120 72,130 73,1361
74,3843 75,2112 76,320 77,490
78,70 79,280 80,90 81,250
82,80 89,60 90,320 91,130
92,10 93,130 94,20 95,20
104,100 105,100 106,100 109,20
110,100 111,150 112,60 115,150
116,380 117,340 118,400 119,150
124,10 125,40 127,10 128,210
129,70 130,220 131,70 133,30
139,90 140,490 141,3863 142,671
143,3653 144,210 151,10 152,270
153,1031 154,1041 155,1181 156,971
157,150 158,200 159,10 168,20
169,80 171,130 173,120 175,50
183,40 184,30 185,40 186,30
194,20 195,230 196,40 197,420
198,20 199,220 219,100 220,470
221,230 222,941 223,170 224,450
225,40 231,10 232,200 233,410
234,440 235,781 236,280 237,390
238,50 248,861 250,1682 251,130
252,811 262,30 263,40 265,70
267,30 275,10 299,1141 300,60
301,3323 302,180 303,3623 304,190
305,1201 306,60 311,20 313,100
314,10 315,100 317,30 327,2402
328,180 329,7066 330,480 331,7567
332,500 333,2432 334,160 342,3393
343,290 344,9999 345,771 346,9629
347,741 348,3063 349,230
##END=
