##TITLE=4-Quinolinol, 2-methyl-
##JCAMP-DX=4.24
##DATA TYPE=MASS SPECTRUM
##ORIGIN=Japan AIST/NIMC Database- Spectrum MS-IW-1982
##OWNER=NIST Mass Spectrometry Data Center
Collection (C) 2014 copyright by the U.S. Secretary of Commerce
on behalf of the United States of America. All rights reserved.
##CAS REGISTRY NO=607-67-0
##$NIST MASS SPEC NO=240729
##MOLFORM=C10 H9 N O
##MW=159
##$NIST SOURCE=MSDC
##XUNITS=M/Z
##YUNITS=RELATIVE INTENSITY
##XFACTOR=1
##YFACTOR=1
##FIRSTX=15
##LASTX=161
##FIRSTY=10
##MAXX=161
##MINX=15
##MAXY=9999
##MINY=10
##NPOINTS=78
##PEAK TABLE=(XY..XY)
15,10 17,50 18,129 26,10
27,90 28,149 37,40 38,109
39,399 40,50 41,50 42,109
43,20 49,10 50,179 51,329
52,169 53,50 54,40 55,30
57,10 58,10 61,30 62,119
63,369 64,389 65,419 66,99
67,179 68,109 73,10 74,80
75,139 76,209 77,799 78,129
79,129 80,20 86,10 87,30
88,60 89,439 90,259 91,139
92,339 93,179 94,10 101,80
102,219 103,609 104,199 105,20
113,10 114,30 115,60 116,80
117,50 118,99 119,60 120,219
121,20 128,129 129,119 130,4379
131,2559 132,239 133,10 135,10
140,10 142,10 143,10 144,70
145,10 157,20 158,619 159,9999
160,1139 161,80
##END=
