##TITLE=Tetrahydroionone
##JCAMP-DX=4.24
##DATA TYPE=MASS SPECTRUM
##ORIGIN=Insect Chem. Ecol. Lab., USDA, Beltsville, MD 20705
##OWNER=NIST Mass Spectrometry Data Center
Collection (C) 2014 copyright by the U.S. Secretary of Commerce
on behalf of the United States of America. All rights reserved.
##CAS REGISTRY NO=60761-23-1
##$NIST MASS SPEC NO=132308
##MOLFORM=C13 H24 O
##MW=196
##$NIST SOURCE=MSDC
##XUNITS=M/Z
##YUNITS=RELATIVE INTENSITY
##XFACTOR=1
##YFACTOR=1
##FIRSTX=41
##LASTX=199
##FIRSTY=3637
##MAXX=199
##MINX=41
##MAXY=9999
##MINY=5
##NPOINTS=125
##PEAK TABLE=(XY..XY)
41,3637 42,137 43,9999 44,75
45,493 47,31 49,85 50,19
51,139 52,65 53,719 54,216
55,2955 56,888 57,1853 58,1175
59,566 60,26 61,14 63,36
65,233 66,96 67,1664 68,1447
69,4152 70,680 71,1549 72,426
73,52 74,14 77,335 78,70
79,603 80,279 81,2305 82,3911
83,2414 84,345 85,335 86,84
87,38 88,5 91,351 93,889
94,436 95,3448 96,1360 97,624
98,113 99,190 100,41 101,28
103,31 105,212 106,58 107,760
108,358 109,1890 110,329 111,734
112,195 113,172 114,38 115,48
116,6 117,41 118,5 119,276
120,23 121,786 122,819 123,4186
124,842 125,921 126,193 127,71
128,17 129,23 131,32 132,6
133,318 134,39 135,512 136,757
137,338 138,1864 139,1071 140,217
141,49 142,15 143,11 145,22
147,57 149,143 150,65 151,82
152,331 153,205 154,63 155,29
157,5 159,37 161,175 163,1344
164,172 165,262 166,56 167,130
168,25 169,15 177,19 178,177
179,76 180,123 181,545 182,74
183,29 185,7 193,31 194,123
195,104 196,1331 197,349 198,41
199,6
##END=
