##TITLE=Phenol, pentabromo-
##JCAMP-DX=4.24
##DATA TYPE=MASS SPECTRUM
##ORIGIN=Japan AIST/NIMC Database- Spectrum MS-NW-1630
##OWNER=NIST Mass Spectrometry Data Center
Collection (C) 2014 copyright by the U.S. Secretary of Commerce
on behalf of the United States of America. All rights reserved.
##CAS REGISTRY NO=608-71-9
##$NIST MASS SPEC NO=233601
##MOLFORM=C6 H Br5 O
##MW=484
##$NIST SOURCE=MSDC
##XUNITS=M/Z
##YUNITS=RELATIVE INTENSITY
##XFACTOR=1
##YFACTOR=1
##FIRSTX=12
##LASTX=495
##FIRSTY=239
##MAXX=495
##MINX=12
##MAXY=9999
##MINY=10
##NPOINTS=313
##PEAK TABLE=(XY..XY)
12,239 13,20 16,10 24,259
25,179 28,709 29,559 30,10
36,2489 37,709 38,40 39,70
40,60 41,379 42,90 43,499
44,269 45,60 48,599 49,269
50,20 52,229 53,169 54,90
55,499 56,189 57,489 58,20
59,20 60,9809 61,7709 62,509
63,10 64,30 65,40 66,20
67,169 68,109 69,439 70,219
71,259 72,1299 73,249 74,40
76,60 77,60 78,20 79,1969
80,2379 81,1849 82,2329 83,299
84,1539 85,1459 86,20 87,40
88,509 89,399 90,109 91,709
92,40 93,689 94,50 95,139
96,169 97,239 98,129 99,60
101,40 103,269 104,90 105,319
106,99 107,60 108,20 109,2559
110,5149 111,2569 112,50 113,40
114,20 115,1099 116,439 117,1099
118,229 119,30 120,40 121,50
122,40 123,659 124,1219 125,629
126,20 127,369 128,70 129,409
130,70 131,2269 132,90 133,2139
134,80 135,40 136,20 137,60
138,50 139,7939 140,2899 141,8129
142,2729 143,259 144,99 145,60
146,80 147,20 148,629 149,1849
150,1869 151,1159 152,259 153,609
154,50 155,109 156,50 157,109
158,99 160,189 161,20 162,129
163,269 164,819 165,739 166,239
167,1179 168,3299 169,1429 170,3089
171,239 172,60 173,80 174,20
175,40 176,20 177,20 178,10
179,10 180,20 182,60 183,20
184,129 185,30 186,60 187,20
188,589 189,2259 190,3369 191,2029
192,599 194,219 195,289 196,429
197,479 198,239 199,229 200,40
202,329 203,1419 204,2089 205,1269
206,449 207,20 208,269 209,10
210,119 211,20 213,20 218,2729
219,1899 220,5429 221,3539 222,2859
223,1769 224,269 225,10 226,80
228,60 229,99 230,249 231,30
232,499 233,40 234,229 235,30
236,80 237,40 238,20 239,20
241,20 242,269 243,1289 244,2599
245,2519 246,1799 247,749 248,1269
249,1129 250,719 251,579 252,60
253,60 254,10 255,30 256,30
257,20 264,20 265,20 273,99
274,10 275,229 276,20 277,229
278,20 279,80 297,1609 298,259
299,4879 300,799 301,4719 302,699
303,1539 304,229 305,20 309,20
311,40 313,30 315,20 325,359
326,379 327,1009 328,959 329,1129
330,949 331,409 332,319 333,30
340,20 342,20 343,20 344,20
352,20 355,20 357,10 359,10
360,10 362,10 364,20 366,20
368,30 376,119 377,289 378,419
379,1079 380,589 381,1659 382,499
383,1039 384,159 385,259 386,20
389,10 390,20 392,20 394,20
396,20 397,10 398,10 403,10
404,389 405,60 406,1439 407,179
408,2289 409,249 410,1549 411,169
412,549 413,50 414,40 444,20
446,20 455,20 457,60 459,119
461,119 463,60 465,20 467,10
473,10 478,10 479,10 481,10
482,20 484,1079 485,90 486,4919
487,399 488,9499 489,629 490,9999
491,649 492,4379 493,309 494,939
495,60
##END=
