##TITLE=Benzene, pentachloro-
##JCAMP-DX=4.24
##DATA TYPE=MASS SPECTRUM
##ORIGIN=NIST Mass Spectrometry Data Center, 1998.
##OWNER=NIST Mass Spectrometry Data Center
Collection (C) 2014 copyright by the U.S. Secretary of Commerce
on behalf of the United States of America. All rights reserved.
##CAS REGISTRY NO=608-93-5
##$NIST MASS SPEC NO=291098
##MOLFORM=C6 H Cl5
##MW=248
##$NIST SOURCE=MSDC
##XUNITS=M/Z
##YUNITS=RELATIVE INTENSITY
##XFACTOR=1
##YFACTOR=1
##FIRSTX=35
##LASTX=258
##FIRSTY=170
##MAXX=258
##MINX=35
##MAXY=9999
##MINY=10
##NPOINTS=110
##PEAK TABLE=(XY..XY)
35,170 36,150 37,280 38,10
47,240 48,70 49,170 50,10
54,40 55,10 59,20 60,220
61,260 62,30 70,10 71,360
72,380 73,810 74,100 82,50
83,150 84,360 85,70 86,110
89,270 90,260 91,80 92,10
94,110 95,160 96,260 97,60
98,70 106,270 107,600 108,2020
109,330 110,640 111,50 118,550
119,90 120,360 121,60 122,60
123,10 124,450 125,720 126,470
127,150 128,20 129,10 130,60
131,150 132,50 133,90 134,10
135,10 141,80 142,550 143,1070
144,420 145,670 146,100 147,110
153,30 154,40 155,30 156,40
157,10 158,10 165,40 166,10
167,40 169,10 177,570 178,1010
179,620 180,980 181,240 182,320
183,30 184,20 188,60 190,70
192,20 194,10 201,40 203,50
205,20 212,110 213,1960 214,280
215,2510 216,240 217,1220 218,100
219,270 220,10 221,20 248,6779
249,510 250,9999 251,740 252,6769
253,460 254,2280 255,150 256,380
257,20 258,20
##END=
