##TITLE=Benzene, 2-iodo-1,3-dimethyl-
##JCAMP-DX=4.24
##DATA TYPE=MASS SPECTRUM
##OWNER=NIST Mass Spectrometry Data Center
Collection (C) 2014 copyright by the U.S. Secretary of Commerce
on behalf of the United States of America. All rights reserved.
##CAS REGISTRY NO=608-28-6
##$NIST MASS SPEC NO=11165
##MOLFORM=C8 H9 I
##MW=232
##$NIST SOURCE=MSDC
##XUNITS=M/Z
##YUNITS=RELATIVE INTENSITY
##XFACTOR=1
##YFACTOR=1
##FIRSTX=18
##LASTX=234
##FIRSTY=40
##MAXX=234
##MINX=18
##MAXY=9999
##MINY=10
##NPOINTS=47
##PEAK TABLE=(XY..XY)
18,40 27,220 28,200 29,10
32,60 38,80 39,360 40,40
41,30 43,10 50,190 51,440
52,150 53,110 57,10 61,50
62,130 63,290 64,70 65,110
66,20 74,90 75,70 76,80
77,1131 78,490 79,1391 80,90
89,90 90,50 91,20 102,110
103,1121 104,490 105,4114 106,370
107,20 116,130 117,100 127,150
128,30 217,20 218,20 231,120
232,9999 233,901 234,40
##END=
