##TITLE=Butanedioic acid, 2,3-dihydroxy- [R-(R*,R*)]-, dimethyl ester
##JCAMP-DX=4.24
##DATA TYPE=MASS SPECTRUM
##ORIGIN=NIST Mass Spectrometry Data Center
##OWNER=NIST Mass Spectrometry Data Center
Collection (C) 2014 copyright by the U.S. Secretary of Commerce
on behalf of the United States of America. All rights reserved.
##CAS REGISTRY NO=608-68-4
##$NIST MASS SPEC NO=352520
##MOLFORM=C6 H10 O6
##MW=178
##$NIST SOURCE=MSDC
##XUNITS=M/Z
##YUNITS=RELATIVE INTENSITY
##XFACTOR=1
##YFACTOR=1
##FIRSTX=14
##LASTX=179
##FIRSTY=40
##MAXX=179
##MINX=14
##MAXY=9999
##MINY=10
##NPOINTS=62
##PEAK TABLE=(XY..XY)
14,40 15,771 16,10 19,380
26,20 27,80 28,140 29,1661
30,440 31,1141 32,60 33,4234
34,50 35,10 41,70 42,841
43,250 44,60 45,851 46,30
47,50 53,30 54,10 55,10
56,20 57,90 58,851 59,1712
60,1231 61,180 62,180 63,751
64,20 69,160 70,40 71,230
72,30 73,1001 74,40 75,601
76,30 77,20 85,40 87,40
89,751 90,9999 91,1311 92,100
93,10 100,20 101,150 102,30
103,50 104,10 113,20 117,30
119,3193 120,140 121,90 146,20
150,10 179,10
##END=
