##TITLE=Benzenamine, 2,6-dichloro-
##JCAMP-DX=4.24
##DATA TYPE=MASS SPECTRUM
##ORIGIN=Japan AIST/NIMC Database- Spectrum MS-NW-1866
##OWNER=NIST Mass Spectrometry Data Center
Collection (C) 2014 copyright by the U.S. Secretary of Commerce
on behalf of the United States of America. All rights reserved.
##CAS REGISTRY NO=608-31-1
##$NIST MASS SPEC NO=228523
##MOLFORM=C6 H5 Cl2 N
##MW=161
##$NIST SOURCE=MSDC
##XUNITS=M/Z
##YUNITS=RELATIVE INTENSITY
##XFACTOR=1
##YFACTOR=1
##FIRSTX=12
##LASTX=166
##FIRSTY=10
##MAXX=166
##MINX=12
##MAXY=9999
##MINY=10
##NPOINTS=98
##PEAK TABLE=(XY..XY)
12,10 15,10 24,10 25,40
26,109 27,70 28,90 29,10
30,10 31,20 35,80 36,149
37,809 38,929 39,709 40,80
41,249 42,70 43,20 44,679
45,199 46,10 47,179 48,119
49,249 50,299 51,279 52,1199
53,109 54,50 60,179 61,769
62,1339 63,2909 64,719 65,679
66,109 67,40 68,20 71,50
72,289 73,959 74,349 75,429
76,119 77,40 78,30 80,329
81,189 82,30 83,60 84,90
85,70 86,149 87,109 88,239
89,699 90,4119 91,629 92,30
95,30 96,80 97,289 98,519
99,1259 100,299 101,429 102,40
103,10 107,70 108,30 109,70
110,20 111,20 112,20 114,10
122,10 123,10 124,209 125,1289
126,1259 127,509 128,389 129,30
133,369 134,199 135,259 136,129
137,50 138,20 159,10 160,109
161,9999 162,779 163,6389 164,459
165,999 166,70
##END=
