##TITLE=Acetic acid, [(3,5,6-trichloro-2-pyridinyl)oxy]-, methyl ester
##JCAMP-DX=4.24
##DATA TYPE=MASS SPECTRUM
##ORIGIN=S.M. Lee, CA Export Lab. Services, CA, USA
##OWNER=NIST Mass Spectrometry Data Center
Collection (C) 2014 copyright by the U.S. Secretary of Commerce
on behalf of the United States of America. All rights reserved.
##CAS REGISTRY NO=60825-26-5
##$NIST MASS SPEC NO=290213
##MOLFORM=C8 H6 Cl3 N O3
##MW=269
##$NIST SOURCE=MSDC
##XUNITS=M/Z
##YUNITS=RELATIVE INTENSITY
##XFACTOR=1
##YFACTOR=1
##FIRSTX=51
##LASTX=277
##FIRSTY=70
##MAXX=277
##MINX=51
##MAXY=9999
##MINY=10
##NPOINTS=177
##PEAK TABLE=(XY..XY)
51,70 52,30 53,80 54,10
57,40 59,991 60,160 61,40
62,310 63,440 64,80 65,80
66,10 71,120 72,310 73,460
74,260 75,591 76,150 77,20
78,10 82,40 83,100 84,290
85,200 86,170 87,70 88,30
89,10 90,10 91,50 92,40
93,20 94,190 95,70 96,140
97,150 98,1081 99,110 100,350
101,30 102,10 105,40 106,120
107,681 108,150 109,901 110,1131
111,310 112,641 113,50 114,110
115,20 116,10 117,20 118,70
119,420 120,90 121,300 122,40
123,70 124,80 125,20 126,40
127,10 129,20 130,10 131,20
132,50 133,300 134,130 135,230
136,60 137,60 138,20 139,10
140,80 141,30 142,90 144,1261
145,681 146,2893 147,601 148,1441
149,200 150,220 151,20 152,10
153,60 154,50 155,100 156,50
157,40 158,20 159,50 160,170
161,250 162,200 163,190 164,70
165,60 166,20 167,20 168,370
169,220 170,350 171,220 172,130
173,70 174,90 175,70 176,100
177,60 178,130 180,2382 181,791
182,2923 183,801 184,1381 185,280
186,300 187,40 188,30 189,10
190,10 191,90 192,10 193,50
194,20 195,50 196,40 197,270
198,160 199,240 200,140 201,90
202,40 203,20 204,20 206,140
207,40 208,240 210,9999 211,861
212,9579 213,691 214,2853 215,210
216,320 217,20 224,20 225,10
226,30 227,10 228,10 234,370
235,40 236,240 237,891 238,711
239,891 240,651 241,310 242,210
243,60 244,30 245,10 246,10
269,2993 270,280 271,2853 272,260
273,941 274,90 275,110 276,10
277,10
##END=
