##TITLE=2,3,4,6,7,8-Hexachlorodibenzofuran
##JCAMP-DX=4.24
##DATA TYPE=MASS SPECTRUM
##ORIGIN=USEPA, J EICHELBERGER CINCINNATI
##OWNER=NIST Mass Spectrometry Data Center
Collection (C) 2014 copyright by the U.S. Secretary of Commerce
on behalf of the United States of America. All rights reserved.
##CAS REGISTRY NO=60851-34-5
##$NIST MASS SPEC NO=97229
##MOLFORM=C12 H2 Cl6 O
##MW=372
##$NIST SOURCE=MSDC
##XUNITS=M/Z
##YUNITS=RELATIVE INTENSITY
##XFACTOR=1
##YFACTOR=1
##FIRSTX=36
##LASTX=381
##FIRSTY=607
##MAXX=381
##MINX=36
##MAXY=9999
##MINY=3
##NPOINTS=200
##PEAK TABLE=(XY..XY)
36,607 37,70 38,420 39,242
41,152 43,187 45,90 49,61
50,123 52,61 53,289 54,193
57,330 58,82 60,268 61,633
62,257 63,70 66,204 67,863
71,513 72,403 73,928 74,391
75,44 76,175 77,35 78,248
79,175 81,190 82,114 83,382
84,2013 85,1852 86,639 87,394
89,615 90,443 91,146 92,117
95,502 96,790 97,1190 98,898
99,327 100,70 101,779 102,2287
103,1114 104,149 105,414 106,467
107,1155 108,1540 109,1394 110,674
111,257 112,222 114,286 115,85
116,274 117,341 118,172 119,3185
120,5017 121,1108 122,665 123,286
124,341 125,225 126,283 127,93
131,1286 132,1846 133,2173 134,1666
135,732 137,3063 138,3850 139,1251
140,528 141,592 143,630 144,1202
145,817 146,318 147,88 149,385
151,1178 152,1377 153,1132 154,1502
155,6079 156,4078 157,3045 158,1491
159,96 161,260 162,12 164,236
165,225 166,254 167,461 168,770
169,3314 170,636 171,895 172,388
173,184 174,111 177,137 178,175
179,440 180,175 181,484 182,193
184,64 186,3080 187,4970 188,4089
189,1759 190,750 191,204 192,265
193,230 194,73 196,58 199,20
201,172 202,309 203,595 204,580
205,951 206,636 207,615 210,70
211,260 213,120 214,3 215,143
217,330 219,350 220,70 222,82
225,175 226,195 227,306 229,47
230,61 232,61 235,163 236,70
239,6102 241,5810 242,464 243,1878
244,283 245,242 249,140 251,160
254,93 260,88 265,125 273,397
274,837 275,478 276,1140 277,344
278,604 279,193 281,216 282,64
302,545 304,598 306,286 309,2564
310,88 311,4119 312,146 313,2503
314,309 315,907 331,70 337,79
338,207 339,274 340,251 341,169
343,149 354,79 372,5239 373,263
374,9999 375,805 376,8727 377,893
378,3938 379,341 380,866 381,140
##END=
