##TITLE=2-Methyl-8-nitroindolizine
##JCAMP-DX=4.24
##DATA TYPE=MASS SPECTRUM
##ORIGIN=V.G.Zaikin, TIPS, Russian Acad. Sci.
##OWNER=NIST Mass Spectrometry Data Center
Collection (C) 2014 copyright by the U.S. Secretary of Commerce
on behalf of the United States of America. All rights reserved.
##CAS REGISTRY NO=60891-78-3
##$NIST MASS SPEC NO=215454
##MOLFORM=C9 H8 N2 O2
##MW=176
##$NIST SOURCE=MSDC
##XUNITS=M/Z
##YUNITS=RELATIVE INTENSITY
##XFACTOR=1
##YFACTOR=1
##FIRSTX=50
##LASTX=178
##FIRSTY=500
##MAXX=178
##MINX=50
##MAXY=9999
##MINY=50
##NPOINTS=20
##PEAK TABLE=(XY..XY)
50,500 51,1901 63,500 76,490
77,3503 78,700 102,1201 103,4554
104,1010 117,450 118,660 128,1901
129,580 130,7356 131,980 146,710
149,490 176,9999 177,1061 178,50
##END=
