##TITLE=Benzenamine, N,N,2-trimethyl-
##JCAMP-DX=4.24
##DATA TYPE=MASS SPECTRUM
##ORIGIN=Japan AIST/NIMC Database- Spectrum MS-NW- 586
##OWNER=NIST Mass Spectrometry Data Center
Collection (C) 2014 copyright by the U.S. Secretary of Commerce
on behalf of the United States of America. All rights reserved.
##CAS REGISTRY NO=609-72-3
##$NIST MASS SPEC NO=229669
##MOLFORM=C9 H13 N
##MW=135
##$NIST SOURCE=MSDC
##XUNITS=M/Z
##YUNITS=RELATIVE INTENSITY
##XFACTOR=1
##YFACTOR=1
##FIRSTX=14
##LASTX=137
##FIRSTY=10
##MAXX=137
##MINX=14
##MAXY=9999
##MINY=10
##NPOINTS=79
##PEAK TABLE=(XY..XY)
14,10 15,319 26,40 27,239
28,30 29,10 30,90 37,40
38,129 39,839 40,80 41,269
42,809 43,99 44,1099 45,30
46,10 49,10 50,219 51,599
52,259 53,149 54,40 55,30
56,20 58,139 59,50 60,30
61,40 62,129 63,469 64,149
65,1539 66,489 67,159 68,50
73,10 74,60 75,70 76,90
77,839 78,329 79,219 80,60
81,10 85,10 86,20 87,20
88,10 89,309 90,179 91,3059
92,539 93,329 94,60 102,30
103,109 104,1649 105,499 106,279
107,60 108,30 109,10 115,30
116,50 117,379 118,2209 119,909
120,6929 121,779 122,40 130,30
131,20 132,329 133,70 134,8229
135,9999 136,979 137,40
##END=
