##TITLE=Propanedioic acid, oxo-, diethyl ester
##JCAMP-DX=4.24
##DATA TYPE=MASS SPECTRUM
##ORIGIN=Japan AIST/NIMC Database- Spectrum MS-NW-8993
##OWNER=NIST Mass Spectrometry Data Center
Collection (C) 2014 copyright by the U.S. Secretary of Commerce
on behalf of the United States of America. All rights reserved.
##CAS REGISTRY NO=609-09-6
##$NIST MASS SPEC NO=236689
##MOLFORM=C7 H10 O5
##MW=174
##$NIST SOURCE=MSDC
##XUNITS=M/Z
##YUNITS=RELATIVE INTENSITY
##XFACTOR=1
##YFACTOR=1
##FIRSTX=14
##LASTX=175
##FIRSTY=10
##MAXX=175
##MINX=14
##MAXY=9999
##MINY=10
##NPOINTS=35
##PEAK TABLE=(XY..XY)
14,10 15,80 18,30 19,10
26,129 27,1469 28,729 29,9999
30,429 31,929 32,10 41,80
42,50 43,369 44,169 45,939
46,119 47,179 55,10 56,149
57,269 58,20 59,179 73,359
74,1499 75,179 76,30 91,20
102,499 103,60 104,20 119,60
147,40 174,30 175,40
##END=
