##TITLE=Benzoyl chloride, 2-chloro-
##JCAMP-DX=4.24
##DATA TYPE=MASS SPECTRUM
##ORIGIN=Japan AIST/NIMC Database- Spectrum MS-NW- 866
##OWNER=NIST Mass Spectrometry Data Center
Collection (C) 2014 copyright by the U.S. Secretary of Commerce
on behalf of the United States of America. All rights reserved.
##CAS REGISTRY NO=609-65-4
##$NIST MASS SPEC NO=228863
##MOLFORM=C7 H4 Cl2 O
##MW=174
##$NIST SOURCE=MSDC
##XUNITS=M/Z
##YUNITS=RELATIVE INTENSITY
##XFACTOR=1
##YFACTOR=1
##FIRSTX=25
##LASTX=178
##FIRSTY=10
##MAXX=178
##MINX=25
##MAXY=9999
##MINY=10
##NPOINTS=68
##PEAK TABLE=(XY..XY)
25,10 26,50 27,50 28,239
32,20 35,80 36,179 37,359
38,669 39,99 41,10 43,20
44,50 47,30 48,30 49,269
50,1559 51,499 52,50 53,30
54,20 55,339 56,99 60,50
61,189 62,80 63,60 69,319
70,439 71,99 72,70 73,319
74,929 75,2669 76,569 77,60
84,209 85,369 86,80 87,129
96,10 97,10 104,50 105,10
108,30 109,50 110,99 111,3929
112,299 113,1289 114,80 123,10
138,10 139,9999 140,779 141,3319
142,249 143,10 145,20 146,30
147,10 148,20 173,10 174,399
175,40 176,249 177,20 178,40
##END=
