##TITLE=Propanedioic acid, methyl-, diethyl ester
##JCAMP-DX=4.24
##DATA TYPE=MASS SPECTRUM
##ORIGIN=Japan AIST/NIMC Database- Spectrum MS-NW-1304
##OWNER=NIST Mass Spectrometry Data Center
Collection (C) 2014 copyright by the U.S. Secretary of Commerce
on behalf of the United States of America. All rights reserved.
##CAS REGISTRY NO=609-08-5
##$NIST MASS SPEC NO=229807
##MOLFORM=C8 H14 O4
##MW=174
##$NIST SOURCE=MSDC
##XUNITS=M/Z
##YUNITS=RELATIVE INTENSITY
##XFACTOR=1
##YFACTOR=1
##FIRSTX=14
##LASTX=175
##FIRSTY=20
##MAXX=175
##MINX=14
##MAXY=9999
##MINY=10
##NPOINTS=59
##PEAK TABLE=(XY..XY)
14,20 15,159 17,10 18,50
19,60 26,269 27,1869 28,1319
29,9999 30,389 31,279 32,20
39,20 41,499 42,40 43,199
44,60 45,819 46,20 47,50
53,20 54,20 55,579 56,1999
57,2059 58,90 59,30 69,20
71,10 72,60 73,1259 74,4199
75,479 76,30 82,10 83,90
84,40 85,10 86,10 87,10
99,30 100,129 101,819 102,1889
103,199 104,10 110,10 119,50
127,10 128,719 129,4669 130,309
131,30 145,10 146,259 147,859
148,60 174,429 175,50
##END=
