##TITLE=2-Nitrofuran
##JCAMP-DX=4.24
##DATA TYPE=MASS SPECTRUM
##ORIGIN=Chuck Anderson, Aldrich Chemical Co.
##OWNER=NIST Mass Spectrometry Data Center
Collection (C) 2014 copyright by the U.S. Secretary of Commerce
on behalf of the United States of America. All rights reserved.
##CAS REGISTRY NO=609-39-2
##$NIST MASS SPEC NO=118067
##MOLFORM=C4 H3 N O3
##MW=113
##$NIST SOURCE=MSDC
##XUNITS=M/Z
##YUNITS=RELATIVE INTENSITY
##XFACTOR=1
##YFACTOR=1
##FIRSTX=13
##LASTX=115
##FIRSTY=165
##MAXX=115
##MINX=13
##MAXY=9999
##MINY=10
##NPOINTS=44
##PEAK TABLE=(XY..XY)
13,165 14,146 16,103 17,51
18,34 24,56 25,215 26,800
27,2111 28,254 29,2681 30,2402
36,181 37,1225 38,2426 39,6018
40,297 41,697 42,116 43,52
44,28 46,224 49,10 50,91
51,321 52,725 53,458 54,200
55,1953 56,61 57,37 66,473
67,116 68,970 69,215 80,236
81,113 83,4611 84,164 96,194
97,655 113,9999 114,376 115,60
##END=
