##TITLE=2H-1-Benzopyran-2-one, 6-hydroxy-
##JCAMP-DX=4.24
##DATA TYPE=MASS SPECTRUM
##ORIGIN=LAC, NIDDK, NIH, Bethesda, MD 20892
##OWNER=NIST Mass Spectrometry Data Center
Collection (C) 2014 copyright by the U.S. Secretary of Commerce
on behalf of the United States of America. All rights reserved.
##CAS REGISTRY NO=6093-68-1
##$NIST MASS SPEC NO=128658
##MOLFORM=C9 H6 O3
##MW=162
##$NIST SOURCE=MSDC
##XUNITS=M/Z
##YUNITS=RELATIVE INTENSITY
##XFACTOR=1
##YFACTOR=1
##FIRSTX=41
##LASTX=165
##FIRSTY=128
##MAXX=165
##MINX=41
##MAXY=9999
##MINY=5
##NPOINTS=80
##PEAK TABLE=(XY..XY)
41,128 42,166 43,277 44,122
45,50 46,14 47,15 48,52
49,596 50,3113 51,5449 52,2322
53,2131 54,1050 55,745 56,38
57,21 60,79 61,448 62,779
63,1077 64,152 65,117 66,306
67,406 68,36 69,100 70,13
71,13 72,7 73,129 74,414
75,267 76,392 77,2677 78,3927
79,1168 80,168 81,161 82,317
83,25 84,46 85,122 86,181
87,174 88,60 89,112 90,23
92,23 93,17 94,24 95,7
97,12 98,20 99,5 101,13
103,18 105,1722 106,910 107,79
108,121 109,85 110,11 116,16
117,13 118,14 121,6 124,6
132,7 133,318 134,8270 135,729
136,69 146,13 150,40 161,182
162,9999 163,1342 164,140 165,15
##END=
