##TITLE=1-Hexene, 2-methyl-
##JCAMP-DX=4.24
##DATA TYPE=MASS SPECTRUM
##ORIGIN=Japan AIST/NIMC Database- Spectrum MS-NW-4834
##OWNER=NIST Mass Spectrometry Data Center
Collection (C) 2014 copyright by the U.S. Secretary of Commerce
on behalf of the United States of America. All rights reserved.
##CAS REGISTRY NO=6094-02-6
##$NIST MASS SPEC NO=231711
##MOLFORM=C7 H14
##MW=98
##$NIST SOURCE=MSDC
##XUNITS=M/Z
##YUNITS=RELATIVE INTENSITY
##XFACTOR=1
##YFACTOR=1
##FIRSTX=15
##LASTX=99
##FIRSTY=70
##MAXX=99
##MINX=15
##MAXY=9999
##MINY=10
##NPOINTS=39
##PEAK TABLE=(XY..XY)
15,70 26,60 27,1169 28,249
29,889 30,20 37,20 38,70
39,1049 40,289 41,4659 42,559
43,1149 44,40 50,60 51,80
52,40 53,319 54,159 55,1769
56,9999 57,1049 58,40 62,10
63,20 65,30 66,10 67,149
68,60 69,989 70,1239 71,90
77,20 79,30 81,40 83,109
84,20 98,309 99,30
##END=
