##TITLE=2,4,6-Trimethylphenyl isothiocyanate
##JCAMP-DX=4.24
##DATA TYPE=MASS SPECTRUM
##ORIGIN=NIST Mass Spectrometry Data Center, 1994
##OWNER=NIST Mass Spectrometry Data Center
Collection (C) 2014 copyright by the U.S. Secretary of Commerce
on behalf of the United States of America. All rights reserved.
##CAS REGISTRY NO=6095-82-5
##$NIST MASS SPEC NO=134890
##MOLFORM=C10 H11 N S
##MW=177
##$NIST SOURCE=MSDC
##XUNITS=M/Z
##YUNITS=RELATIVE INTENSITY
##XFACTOR=1
##YFACTOR=1
##FIRSTX=26
##LASTX=180
##FIRSTY=230
##MAXX=180
##MINX=26
##MAXY=9999
##MINY=42
##NPOINTS=116
##PEAK TABLE=(XY..XY)
26,230 27,1892 28,342 29,146
32,246 33,54 37,182 38,570
39,3766 40,482 41,1273 42,92
43,54 44,350 45,912 46,59
47,43 50,1139 51,2634 52,1033
53,885 54,94 55,43 57,139
58,405 59,489 60,168 61,252
62,570 63,1617 64,608 65,1778
66,299 67,180 69,231 70,418
71,160 72,282 73,147 74,509
75,600 76,542 77,2756 78,1109
79,489 80,152 81,150 82,102
83,127 84,192 85,83 86,174
87,221 88,83 89,1056 90,386
91,3101 92,440 93,186 94,68
95,119 96,149 97,57 98,81
99,55 101,181 102,628 103,1280
104,605 105,225 106,97 107,60
108,81 109,92 110,53 113,66
115,1807 116,875 117,1443 118,895
119,3776 120,403 121,186 122,109
123,48 127,77 128,364 129,231
130,1192 131,235 132,366 133,109
134,418 135,407 136,140 137,53
140,79 142,304 144,6971 145,1301
146,159 147,133 148,165 149,440
150,148 159,42 160,104 162,4119
163,447 164,213 174,80 176,2117
177,9999 178,1333 179,459 180,49
##END=
