##TITLE=Anisole, 2-sec-butyl-4,6-dinitro-
##JCAMP-DX=4.24
##DATA TYPE=MASS SPECTRUM
##ORIGIN=ACCUSTANDARD Chemicals / NIST MS Data Center.
##OWNER=NIST Mass Spectrometry Data Center
Collection (C) 2014 copyright by the U.S. Secretary of Commerce
on behalf of the United States of America. All rights reserved.
##CAS REGISTRY NO=6099-79-2
##$NIST MASS SPEC NO=125589
##MOLFORM=C11 H14 N2 O5
##MW=254
##$NIST SOURCE=MSDC
##XUNITS=M/Z
##YUNITS=RELATIVE INTENSITY
##XFACTOR=1
##YFACTOR=1
##FIRSTX=12
##LASTX=256
##FIRSTY=12
##MAXX=256
##MINX=12
##MAXY=9999
##MINY=4
##NPOINTS=186
##PEAK TABLE=(XY..XY)
12,12 14,13 15,436 16,4
17,7 18,57 25,15 27,1235
28,709 29,1729 30,1880 31,124
32,55 37,41 38,167 39,1292
40,234 41,859 42,101 43,537
44,21 45,47 46,95 48,7
50,518 51,1198 52,547 53,1025
54,163 55,594 56,93 57,562
58,33 59,40 61,95 62,479
63,1235 64,398 65,1154 66,423
67,200 68,216 69,200 70,31
71,19 73,47 74,376 75,934
76,704 77,2550 78,967 79,917
80,239 81,118 82,91 83,68
84,9 85,23 86,114 87,186
88,164 89,1428 90,929 91,1465
92,440 93,432 94,154 95,56
96,30 97,32 98,50 99,36
101,205 102,805 103,1225 104,597
105,586 106,344 107,1849 108,241
109,67 110,31 111,11 112,8
113,41 115,811 116,325 117,596
118,1458 119,437 120,470 121,546
122,121 123,47 124,13 125,9
126,24 127,110 128,172 129,112
130,480 131,1535 132,1225 133,431
134,251 135,174 136,118 137,73
138,16 141,8 142,17 143,41
144,126 145,287 146,285 147,449
148,734 149,371 150,153 151,34
152,27 157,14 158,49 159,109
160,210 161,817 162,287 163,227
164,169 165,139 166,50 167,30
170,8 171,10 172,29 173,89
174,52 175,52 176,94 177,294
178,153 179,66 180,38 181,121
182,107 183,12 188,19 189,76
190,78 191,283 192,115 193,183
194,12 195,2863 196,299 197,49
202,15 203,20 204,43 205,155
206,33 207,125 208,202 209,124
210,31 211,42 212,12 219,120
220,50 221,49 222,26 225,9999
226,1120 227,148 228,11 235,12
236,46 237,189 238,109 239,338
240,40 241,8 251,9 254,2459
255,331 256,48
##END=
