##TITLE=Acepromazine
##JCAMP-DX=4.24
##DATA TYPE=MASS SPECTRUM
##OWNER=NIST Mass Spectrometry Data Center
Collection (C) 2014 copyright by the U.S. Secretary of Commerce
on behalf of the United States of America. All rights reserved.
##CAS REGISTRY NO=61-00-7
##$NIST MASS SPEC NO=15278
##MOLFORM=C19 H22 N2 O S
##MW=326
##$NIST SOURCE=MSDC
##XUNITS=M/Z
##YUNITS=RELATIVE INTENSITY
##XFACTOR=1
##YFACTOR=1
##FIRSTX=41
##LASTX=326
##FIRSTY=500
##MAXX=326
##MINX=41
##MAXY=9999
##MINY=100
##NPOINTS=30
##PEAK TABLE=(XY..XY)
41,500 42,1301 43,1101 44,801
58,9999 59,601 85,701 86,1601
87,200 179,200 196,701 197,1702
198,400 210,200 211,100 212,100
222,400 223,200 224,200 225,300
226,100 240,601 241,300 254,200
255,200 266,100 267,100 268,100
280,300 326,500
##END=
