##TITLE=1H-Indole-3-ethanamine, N-methyl-
##JCAMP-DX=4.24
##DATA TYPE=MASS SPECTRUM
##ORIGIN=Japan AIST/NIMC Database- Spectrum MS-NW-8073
##OWNER=NIST Mass Spectrometry Data Center
Collection (C) 2014 copyright by the U.S. Secretary of Commerce
on behalf of the United States of America. All rights reserved.
##CAS REGISTRY NO=61-49-4
##$NIST MASS SPEC NO=238854
##MOLFORM=C11 H14 N2
##MW=174
##$NIST SOURCE=MSDC
##XUNITS=M/Z
##YUNITS=RELATIVE INTENSITY
##XFACTOR=1
##YFACTOR=1
##FIRSTX=15
##LASTX=176
##FIRSTY=40
##MAXX=176
##MINX=15
##MAXY=9999
##MINY=10
##NPOINTS=78
##PEAK TABLE=(XY..XY)
15,40 17,10 18,219 27,50
28,169 29,10 30,20 38,20
39,99 40,10 41,30 42,199
43,90 44,9149 45,239 50,70
51,179 52,70 53,20 54,10
56,10 57,20 58,90 61,10
62,40 63,139 64,40 65,70
70,20 71,20 74,50 75,90
76,119 77,799 78,99 79,20
84,10 85,20 86,30 87,20
88,20 89,139 90,90 91,40
101,80 102,269 103,659 104,80
105,10 113,20 114,30 115,239
116,70 117,169 118,30 127,20
128,199 129,179 130,5709 131,9999
132,1069 133,50 140,20 141,20
142,80 143,199 144,189 145,20
155,20 156,20 157,30 158,30
171,30 172,70 173,50 174,1039
175,209 176,20
##END=
