##TITLE=Tryptamine
##JCAMP-DX=4.24
##DATA TYPE=MASS SPECTRUM
##ORIGIN=Japan AIST/NIMC Database- Spectrum MS-NW-2570
##OWNER=NIST Mass Spectrometry Data Center
Collection (C) 2014 copyright by the U.S. Secretary of Commerce
on behalf of the United States of America. All rights reserved.
##CAS REGISTRY NO=61-54-1
##$NIST MASS SPEC NO=231006
##MOLFORM=C10 H12 N2
##MW=160
##$NIST SOURCE=MSDC
##XUNITS=M/Z
##YUNITS=RELATIVE INTENSITY
##XFACTOR=1
##YFACTOR=1
##FIRSTX=15
##LASTX=162
##FIRSTY=10
##MAXX=162
##MINX=15
##MAXY=9999
##MINY=10
##NPOINTS=75
##PEAK TABLE=(XY..XY)
15,10 17,80 18,30 26,10
27,60 28,159 29,30 30,1789
31,30 39,129 40,10 41,20
42,20 43,20 44,129 50,119
51,259 52,99 53,30 54,10
55,10 57,10 58,10 61,20
62,60 63,149 64,50 65,70
66,10 70,10 73,10 74,90
75,129 76,159 77,1069 78,119
79,40 86,20 87,30 88,20
89,99 90,80 91,30 98,10
99,10 100,10 101,90 102,379
103,929 104,119 105,10 113,20
114,20 115,129 116,50 117,139
118,20 127,10 128,239 129,269
130,9999 131,5979 132,629 133,30
140,10 141,20 142,60 143,109
144,20 157,30 158,80 159,40
160,2019 161,239 162,10
##END=
