##TITLE=N,N-Dimethyltryptamine
##JCAMP-DX=4.24
##DATA TYPE=MASS SPECTRUM
##ORIGIN=NIST Mass Spectrometry Data Center
##OWNER=NIST Mass Spectrometry Data Center
Collection (C) 2014 copyright by the U.S. Secretary of Commerce
on behalf of the United States of America. All rights reserved.
##CAS REGISTRY NO=61-50-7
##$NIST MASS SPEC NO=352147
##MOLFORM=C12 H16 N2
##MW=188
##$NIST SOURCE=MSDC
##XUNITS=M/Z
##YUNITS=RELATIVE INTENSITY
##XFACTOR=1
##YFACTOR=1
##FIRSTX=15
##LASTX=189
##FIRSTY=20
##MAXX=189
##MINX=15
##MAXY=9999
##MINY=10
##NPOINTS=80
##PEAK TABLE=(XY..XY)
15,20 27,20 28,40 29,40
30,180 38,10 39,60 40,10
41,30 42,410 43,100 44,30
50,50 51,120 52,50 53,10
54,10 55,10 56,60 57,160
58,9999 59,400 60,10 61,10
62,40 63,120 64,30 65,50
66,10 70,10 71,10 74,40
75,70 76,90 77,400 78,50
79,10 85,10 86,10 87,20
88,30 89,130 90,60 91,50
92,10 99,10 100,10 101,50
102,190 103,240 104,40 113,30
114,40 115,330 116,90 117,110
118,20 127,30 128,130 129,90
130,671 131,70 140,20 141,20
142,80 143,200 144,190 145,20
154,10 155,20 156,10 157,20
169,10 171,10 172,10 185,10
186,10 187,10 188,390 189,60
##END=
