##TITLE=Indole, 3-(2-(diethylamino)ethyl)-
##JCAMP-DX=4.24
##DATA TYPE=MASS SPECTRUM
##ORIGIN=AAFS Toxicology Section MS DB Committee, U. Alberta, Canada
##OWNER=NIST Mass Spectrometry Data Center
Collection (C) 2014 copyright by the U.S. Secretary of Commerce
on behalf of the United States of America. All rights reserved.
##CAS REGISTRY NO=61-51-8
##$NIST MASS SPEC NO=246229
##MOLFORM=C14 H20 N2
##MW=216
##$NIST SOURCE=MSDC
##XUNITS=M/Z
##YUNITS=RELATIVE INTENSITY
##XFACTOR=1
##YFACTOR=1
##FIRSTX=40
##LASTX=218
##FIRSTY=10
##MAXX=218
##MINX=40
##MAXY=9999
##MINY=10
##NPOINTS=88
##PEAK TABLE=(XY..XY)
40,10 41,70 42,280 43,130
44,20 45,10 50,50 51,100
52,40 53,10 54,30 55,30
56,230 57,80 58,660 59,20
60,10 61,10 62,20 63,100
64,20 65,50 66,10 67,10
68,10 69,20 70,60 71,90
72,40 73,10 74,40 75,90
76,160 77,610 78,80 79,10
81,10 83,10 84,30 86,9999
87,620 88,40 89,160 90,90
91,80 92,10 93,10 96,10
98,10 99,10 100,20 101,80
102,300 103,440 104,100 105,10
106,10 107,10 113,30 114,30
115,450 116,130 117,160 118,30
126,10 127,40 128,220 129,130
130,1411 131,170 132,10 140,30
141,30 142,110 143,300 144,410
145,40 154,10 155,20 156,10
171,10 172,60 173,10 213,10
214,10 216,430 217,80 218,10
##END=
