##TITLE=Mefenamic Acid
##JCAMP-DX=4.24
##DATA TYPE=MASS SPECTRUM
##ORIGIN=R.E.Ardrey ET AL.Pharmaceutical Mass Spectra,L.,1985
##OWNER=NIST Mass Spectrometry Data Center
Collection (C) 2014 copyright by the U.S. Secretary of Commerce
on behalf of the United States of America. All rights reserved.
##CAS REGISTRY NO=61-68-7
##$NIST MASS SPEC NO=298720
##MOLFORM=C15 H15 N O2
##MW=241
##$NIST SOURCE=MSDC
##XUNITS=M/Z
##YUNITS=RELATIVE INTENSITY
##XFACTOR=1
##YFACTOR=1
##FIRSTX=36
##LASTX=242
##FIRSTY=300
##MAXX=242
##MINX=36
##MAXY=9999
##MINY=100
##NPOINTS=88
##PEAK TABLE=(XY..XY)
36,300 39,901 40,400 41,400
42,100 43,300 44,1201 45,200
50,300 51,801 52,300 53,300
54,100 55,100 57,200 62,200
63,601 64,300 65,701 66,100
69,100 75,300 76,400 77,1802
78,400 79,400 83,701 84,100
88,100 89,400 90,701 91,500
92,601 93,100 95,200 96,801
97,300 98,200 102,300 103,300
104,200 105,300 110,100 111,200
114,100 115,200 116,100 117,100
118,100 120,400 121,100 127,100
128,200 139,200 140,100 142,100
151,200 152,400 153,200 154,200
164,100 165,300 166,200 167,601
168,300 178,400 179,601 180,2202
181,801 182,300 183,200 191,200
192,400 194,2202 195,601 196,801
197,801 198,100 206,200 208,3803
209,601 210,100 222,2803 223,9999
224,1702 225,200 241,7006 242,1101
##END=
