##TITLE=ortho-Hydroxypropiophenone
##JCAMP-DX=4.24
##DATA TYPE=MASS SPECTRUM
##ORIGIN=NIST Mass Spectrometry Data Center
##OWNER=NIST Mass Spectrometry Data Center
Collection (C) 2014 copyright by the U.S. Secretary of Commerce
on behalf of the United States of America. All rights reserved.
##CAS REGISTRY NO=610-99-1
##$NIST MASS SPEC NO=342503
##MOLFORM=C9 H10 O2
##MW=150
##$NIST SOURCE=MSDC
##XUNITS=M/Z
##YUNITS=RELATIVE INTENSITY
##XFACTOR=1
##YFACTOR=1
##FIRSTX=12
##LASTX=152
##FIRSTY=20
##MAXX=152
##MINX=12
##MAXY=9999
##MINY=10
##NPOINTS=69
##PEAK TABLE=(XY..XY)
12,20 13,20 14,20 15,70
17,10 18,20 25,10 26,300
27,921 28,230 29,591 30,30
32,40 37,240 38,681 39,2883
40,180 42,60 43,40 46,30
48,10 49,60 50,410 51,500
53,731 54,60 55,200 56,50
57,110 60,20 61,180 62,400
63,941 64,601 65,3103 66,320
67,70 73,20 74,10 75,150
76,110 77,460 78,120 79,50
81,10 85,20 86,20 89,40
90,30 91,120 92,410 93,1942
94,190 95,20 102,40 103,110
104,50 105,30 107,30 118,20
121,9999 122,801 123,80 131,150
132,30 147,10 150,2382 151,230
152,20
##END=
