##TITLE=Benzoic acid, 2-chloro-, methyl ester
##JCAMP-DX=4.24
##DATA TYPE=MASS SPECTRUM
##ORIGIN=Zaikin V.G., TIPS RAS, Moscow, Russia
##OWNER=NIST Mass Spectrometry Data Center
Collection (C) 2014 copyright by the U.S. Secretary of Commerce
on behalf of the United States of America. All rights reserved.
##CAS REGISTRY NO=610-96-8
##$NIST MASS SPEC NO=292421
##MOLFORM=C8 H7 Cl O2
##MW=170
##$NIST SOURCE=MSDC
##XUNITS=M/Z
##YUNITS=RELATIVE INTENSITY
##XFACTOR=1
##YFACTOR=1
##FIRSTX=26
##LASTX=176
##FIRSTY=40
##MAXX=176
##MINX=26
##MAXY=9999
##MINY=30
##NPOINTS=51
##PEAK TABLE=(XY..XY)
26,40 27,40 28,30 29,70
35,80 36,69 37,90 38,33
39,70 40,50 41,30 49,70
50,651 51,320 52,120 55,30
61,50 63,60 69,70 73,100
74,430 75,1551 76,420 77,140
78,40 79,200 84,70 85,190
86,30 87,60 92,40 93,40
104,60 110,60 111,2742 112,250
113,911 114,50 135,40 137,40
139,9999 140,781 141,3333 142,250
169,140 170,2793 171,270 172,951
173,60 174,50 176,30
##END=
