##TITLE=Benzene, 4-chloro-1,2-dinitro-
##JCAMP-DX=4.24
##DATA TYPE=MASS SPECTRUM
##ORIGIN=Japan AIST/NIMC Database- Spectrum MS-NW-8290
##OWNER=NIST Mass Spectrometry Data Center
Collection (C) 2014 copyright by the U.S. Secretary of Commerce
on behalf of the United States of America. All rights reserved.
##CAS REGISTRY NO=610-40-2
##$NIST MASS SPEC NO=238575
##MOLFORM=C6 H3 Cl N2 O4
##MW=202
##$NIST SOURCE=MSDC
##XUNITS=M/Z
##YUNITS=RELATIVE INTENSITY
##XFACTOR=1
##YFACTOR=1
##FIRSTX=16
##LASTX=206
##FIRSTY=10
##MAXX=206
##MINX=16
##MAXY=9999
##MINY=10
##NPOINTS=104
##PEAK TABLE=(XY..XY)
16,10 26,30 27,259 28,339
29,40 30,9369 31,60 32,30
35,10 36,80 37,199 38,289
39,119 40,40 44,10 45,20
46,419 47,40 48,10 49,199
50,849 51,249 52,50 53,209
54,20 60,80 61,209 62,489
63,4239 64,399 65,99 66,90
67,20 68,40 69,10 71,10
72,129 73,729 74,1899 75,3299
76,979 77,99 78,10 79,479
80,30 84,459 85,179 86,399
87,249 88,129 89,70 90,50
91,90 92,50 93,50 96,10
97,109 98,1279 99,119 100,479
101,40 102,40 103,10 104,60
108,50 109,239 110,1059 111,229
112,509 113,80 114,749 115,50
116,229 117,10 120,10 121,10
124,10 125,20 126,279 127,40
128,609 129,40 130,169 131,10
139,10 140,10 154,10 156,349
157,30 158,119 159,10 170,40
172,169 173,20 174,50 186,419
187,40 188,139 189,10 202,9999
203,849 204,3289 205,279 206,40
##END=
