##TITLE=Methyl-2-bromobenzoate
##JCAMP-DX=4.24
##DATA TYPE=MASS SPECTRUM
##ORIGIN=NIST Mass Spectrometry Data Center
##OWNER=NIST Mass Spectrometry Data Center
Collection (C) 2014 copyright by the U.S. Secretary of Commerce
on behalf of the United States of America. All rights reserved.
##CAS REGISTRY NO=610-94-6
##$NIST MASS SPEC NO=340610
##MOLFORM=C8 H7 Br O2
##MW=214
##$NIST SOURCE=MSDC
##XUNITS=M/Z
##YUNITS=RELATIVE INTENSITY
##XFACTOR=1
##YFACTOR=1
##FIRSTX=15
##LASTX=218
##FIRSTY=410
##MAXX=218
##MINX=15
##MAXY=9999
##MINY=10
##NPOINTS=95
##PEAK TABLE=(XY..XY)
15,410 25,10 26,50 27,60
29,450 30,160 31,50 36,20
37,290 38,490 39,240 41,10
44,10 45,10 48,20 49,380
50,4234 51,771 52,80 53,120
59,200 60,20 61,100 62,130
63,330 64,220 65,110 66,20
67,30 72,20 73,370 74,2082
75,3873 76,4154 77,1231 78,120
79,100 80,20 81,60 82,10
85,10 86,10 89,50 90,40
91,120 92,470 93,40 101,10
103,50 104,651 105,180 106,20
107,50 116,30 117,30 118,30
119,130 120,110 128,80 129,180
130,90 131,190 133,10 135,270
136,20 143,30 145,30 153,10
154,60 155,4364 156,360 157,4034
158,270 169,20 170,20 171,30
172,20 173,10 181,10 183,9999
184,831 185,9529 186,741 187,40
197,10 198,10 199,50 200,10
201,30 213,200 214,2332 215,390
216,2252 217,190 218,10
##END=
