##TITLE=1,2-Cyclohexanedicarboxylic acid, cis-
##JCAMP-DX=4.24
##DATA TYPE=MASS SPECTRUM
##ORIGIN=Japan AIST/NIMC Database- Spectrum MS-NW- 391
##OWNER=NIST Mass Spectrometry Data Center
Collection (C) 2014 copyright by the U.S. Secretary of Commerce
on behalf of the United States of America. All rights reserved.
##CAS REGISTRY NO=610-09-3
##$NIST MASS SPEC NO=230692
##MOLFORM=C8 H12 O4
##MW=172
##$NIST SOURCE=MSDC
##XUNITS=M/Z
##YUNITS=RELATIVE INTENSITY
##XFACTOR=1
##YFACTOR=1
##FIRSTX=15
##LASTX=156
##FIRSTY=70
##MAXX=156
##MINX=15
##MAXY=9999
##MINY=10
##NPOINTS=100
##PEAK TABLE=(XY..XY)
15,70 17,129 18,439 19,10
26,189 27,1579 28,329 29,709
30,10 31,139 32,40 37,50
38,139 39,2069 40,339 41,2899
42,259 43,1169 44,109 45,789
46,40 47,109 49,20 50,199
51,429 52,229 53,1239 54,2869
55,1209 56,289 57,279 58,70
59,60 60,249 61,80 62,20
63,70 64,10 65,209 66,949
67,4749 68,1189 69,299 70,169
71,119 72,70 73,1059 74,70
75,20 76,10 77,449 78,99
79,1279 80,3139 81,9079 82,3599
83,359 84,129 85,169 86,479
87,549 88,20 91,30 92,20
93,20 94,259 95,439 96,40
97,859 98,199 99,829 100,369
101,20 103,10 105,10 107,109
108,4749 109,719 110,129 111,469
112,539 113,99 117,119 118,30
123,20 124,30 125,209 126,9999
127,919 128,509 129,30 135,10
136,279 137,30 149,20 152,10
153,20 154,3119 155,379 156,30
##END=
