##TITLE=1-Anthracenamine
##JCAMP-DX=4.24
##DATA TYPE=MASS SPECTRUM
##ORIGIN=NIST Mass Spectrometry Data Center, 1990.
##OWNER=NIST Mass Spectrometry Data Center
Collection (C) 2014 copyright by the U.S. Secretary of Commerce
on behalf of the United States of America. All rights reserved.
##CAS REGISTRY NO=610-49-1
##$NIST MASS SPEC NO=113364
##MOLFORM=C14 H11 N
##MW=193
##$NIST SOURCE=MSDC
##XUNITS=M/Z
##YUNITS=RELATIVE INTENSITY
##XFACTOR=1
##YFACTOR=1
##FIRSTX=39
##LASTX=195
##FIRSTY=174
##MAXX=195
##MINX=39
##MAXY=9999
##MINY=103
##NPOINTS=49
##PEAK TABLE=(XY..XY)
39,174 50,175 51,189 52,116
62,261 63,403 64,103 70,284
74,303 75,283 76,167 82,743
86,211 87,319 88,189 89,200
96,465 97,1103 98,179 99,134
111,129 113,197 115,338 126,158
127,122 137,137 138,122 139,648
140,221 141,117 150,140 151,164
152,221 153,158 162,163 163,870
164,987 165,4733 166,1140 167,228
176,200 177,136 178,155 190,378
191,525 192,1445 193,9999 194,1542
195,128
##END=
