##TITLE=2-Nitrophenyl acetate
##JCAMP-DX=4.24
##DATA TYPE=MASS SPECTRUM
##ORIGIN=NIST Mass Spectrometry Data Center
##OWNER=NIST Mass Spectrometry Data Center
Collection (C) 2014 copyright by the U.S. Secretary of Commerce
on behalf of the United States of America. All rights reserved.
##CAS REGISTRY NO=610-69-5
##$NIST MASS SPEC NO=342644
##MOLFORM=C8 H7 N O4
##MW=181
##$NIST SOURCE=MSDC
##XUNITS=M/Z
##YUNITS=RELATIVE INTENSITY
##XFACTOR=1
##YFACTOR=1
##FIRSTX=12
##LASTX=182
##FIRSTY=10
##MAXX=182
##MINX=12
##MAXY=9999
##MINY=10
##NPOINTS=57
##PEAK TABLE=(XY..XY)
12,10 13,30 14,150 15,761
16,10 18,20 26,50 28,60
30,691 37,160 38,571 39,611
40,40 43,9999 44,200 46,10
49,30 50,320 51,360 52,290
53,300 54,30 55,10 61,90
62,300 63,1281 64,651 65,601
66,70 67,20 68,10 75,50
76,80 77,50 78,140 79,30
81,500 82,30 92,150 93,190
94,90 95,30 104,10 106,180
107,10 109,490 110,30 122,110
123,170 124,10 133,20 135,10
139,3944 140,290 141,20 181,210
182,20
##END=
