##TITLE=2',4'-Dinitroacetanilide
##JCAMP-DX=4.24
##DATA TYPE=MASS SPECTRUM
##ORIGIN=NIST Mass Spectrometry Data Center, 1990.
##OWNER=NIST Mass Spectrometry Data Center
Collection (C) 2014 copyright by the U.S. Secretary of Commerce
on behalf of the United States of America. All rights reserved.
##CAS REGISTRY NO=610-53-7
##$NIST MASS SPEC NO=118329
##MOLFORM=C8 H7 N3 O5
##MW=225
##$NIST SOURCE=MSDC
##XUNITS=M/Z
##YUNITS=RELATIVE INTENSITY
##XFACTOR=1
##YFACTOR=1
##FIRSTX=14
##LASTX=226
##FIRSTY=11
##MAXX=226
##MINX=14
##MAXY=9999
##MINY=11
##NPOINTS=72
##PEAK TABLE=(XY..XY)
14,11 15,384 26,56 27,76
29,80 30,571 37,115 38,343
39,417 40,144 41,161 42,56
43,9999 44,373 45,60 46,40
49,36 50,259 51,415 52,747
53,96 54,81 55,34 60,35
61,201 62,717 63,946 64,858
65,204 66,184 67,95 68,34
70,33 74,186 75,225 76,282
77,198 78,212 79,289 80,105
87,61 88,121 89,179 90,214
91,795 92,176 93,79 95,147
103,101 104,93 105,61 106,129
107,612 108,58 119,36 120,75
131,65 133,65 137,264 147,40
153,1081 154,84 166,104 167,320
177,121 179,164 183,8684 184,657
185,87 210,33 225,1205 226,173
##END=
