##TITLE=2-Phenyl-4-penten-2-ol
##JCAMP-DX=4.24
##DATA TYPE=MASS SPECTRUM
##ORIGIN=NIST Mass Spectrometry Data Center, 1990.
##OWNER=NIST Mass Spectrometry Data Center
Collection (C) 2014 copyright by the U.S. Secretary of Commerce
on behalf of the United States of America. All rights reserved.
##CAS REGISTRY NO=61077-65-4
##$NIST MASS SPEC NO=113189
##MOLFORM=C11 H14 O
##MW=162
##$NIST SOURCE=MSDC
##XUNITS=M/Z
##YUNITS=RELATIVE INTENSITY
##XFACTOR=1
##YFACTOR=1
##FIRSTX=14
##LASTX=145
##FIRSTY=36
##MAXX=145
##MINX=14
##MAXY=9999
##MINY=36
##NPOINTS=62
##PEAK TABLE=(XY..XY)
14,36 15,126 16,83 26,132
27,577 28,825 32,161 38,233
39,1660 40,302 41,730 42,132
43,9999 44,272 50,839 51,2030
52,478 53,169 55,81 58,140
61,77 62,299 63,862 64,304
65,830 66,391 69,96 70,129
71,327 74,422 75,406 76,569
77,3465 78,801 79,154 86,91
87,113 89,406 91,864 92,81
101,138 102,746 103,2115 104,316
105,1377 106,138 115,1458 116,295
117,178 121,7772 122,665 126,166
127,1354 128,4281 129,6733 130,718
139,87 141,480 142,235 143,1539
144,2913 145,368
##END=
