##TITLE=2,3,4-Trifluorobenzoic acid
##JCAMP-DX=4.24
##DATA TYPE=MASS SPECTRUM
##ORIGIN=NIST Mass Spectrometry Data Center, 1994
##OWNER=NIST Mass Spectrometry Data Center
Collection (C) 2014 copyright by the U.S. Secretary of Commerce
on behalf of the United States of America. All rights reserved.
##CAS REGISTRY NO=61079-72-9
##$NIST MASS SPEC NO=136808
##MOLFORM=C7 H3 F3 O2
##MW=176
##$NIST SOURCE=MSDC
##XUNITS=M/Z
##YUNITS=RELATIVE INTENSITY
##XFACTOR=1
##YFACTOR=1
##FIRSTX=13
##LASTX=178
##FIRSTY=21
##MAXX=178
##MINX=13
##MAXY=9999
##MINY=9
##NPOINTS=72
##PEAK TABLE=(XY..XY)
13,21 17,73 18,47 20,35
25,37 36,65 37,369 38,157
39,42 44,49 45,332 48,28
49,111 50,340 51,177 53,51
55,160 56,373 57,403 60,81
61,913 62,980 63,559 64,78
65,56 66,48 67,48 68,541
69,222 70,48 71,60 73,9
75,567 76,33 77,39 80,733
81,4760 82,342 86,162 87,132
88,197 91,46 92,283 93,209
95,28 98,55 99,559 100,256
101,277 105,54 106,107 110,60
111,190 112,763 113,74 119,144
127,22 128,178 129,57 130,404
131,5025 132,568 133,39 148,137
156,89 157,80 159,9999 160,774
161,56 176,6806 177,551 178,52
##END=
