##TITLE=Acridine, 9-methyl-
##JCAMP-DX=4.24
##DATA TYPE=MASS SPECTRUM
##ORIGIN=Japan AIST/NIMC Database- Spectrum MS-IW-3231
##OWNER=NIST Mass Spectrometry Data Center
Collection (C) 2014 copyright by the U.S. Secretary of Commerce
on behalf of the United States of America. All rights reserved.
##CAS REGISTRY NO=611-64-3
##$NIST MASS SPEC NO=230903
##MOLFORM=C14 H11 N
##MW=193
##$NIST SOURCE=MSDC
##XUNITS=M/Z
##YUNITS=RELATIVE INTENSITY
##XFACTOR=1
##YFACTOR=1
##FIRSTX=27
##LASTX=195
##FIRSTY=20
##MAXX=195
##MINX=27
##MAXY=9999
##MINY=10
##NPOINTS=87
##PEAK TABLE=(XY..XY)
27,20 28,20 38,20 39,119
50,90 51,149 52,30 61,20
62,70 63,169 64,40 65,40
66,20 69,99 70,70 74,80
75,129 76,90 77,109 78,10
81,119 82,189 83,679 84,90
85,10 86,30 87,60 88,50
89,149 90,60 91,10 94,40
95,579 96,569 97,90 98,30
99,30 100,20 101,50 102,40
103,10 110,10 111,10 112,10
113,50 114,40 115,80 116,30
117,10 125,30 126,50 127,50
128,40 137,20 138,30 139,159
140,129 141,30 149,10 150,70
151,80 152,90 153,40 154,20
162,20 163,149 164,209 165,549
166,229 167,319 168,129 169,229
170,30 175,10 176,20 177,159
178,80 179,40 180,50 188,30
189,50 190,479 191,1169 192,2319
193,9999 194,1549 195,119
##END=
