##TITLE=1,1'-Biphenyl, 2,3'-dimethyl-
##JCAMP-DX=4.24
##DATA TYPE=MASS SPECTRUM
##OWNER=NIST Mass Spectrometry Data Center
Collection (C) 2014 copyright by the U.S. Secretary of Commerce
on behalf of the United States of America. All rights reserved.
##CAS REGISTRY NO=611-43-8
##$NIST MASS SPEC NO=7570
##MOLFORM=C14 H14
##MW=182
##$NIST SOURCE=MSDC
##XUNITS=M/Z
##YUNITS=RELATIVE INTENSITY
##XFACTOR=1
##YFACTOR=1
##FIRSTX=26
##LASTX=184
##FIRSTY=20
##MAXX=184
##MINX=26
##MAXY=9999
##MINY=10
##NPOINTS=91
##PEAK TABLE=(XY..XY)
26,20 27,90 29,10 38,30
39,310 40,40 41,70 50,100
51,290 52,50 53,80 55,10
56,10 61,10 62,90 63,410
64,220 65,270 66,30 67,30
69,40 70,50 71,10 74,80
75,170 76,1001 77,460 78,80
79,30 81,90 82,561 83,661
86,40 87,80 88,220 89,1501
90,741 91,550 92,30 98,30
99,20 100,10 101,40 102,80
103,60 104,30 105,40 110,10
111,10 113,50 114,30 115,561
116,80 117,20 125,10 126,80
127,150 128,400 129,100 130,10
137,20 138,40 139,280 140,50
141,380 142,90 143,10 150,80
151,270 152,1672 153,641 154,150
155,80 162,30 163,220 164,360
165,4214 166,2642 167,9999 168,1481
169,10 175,20 176,170 177,150
178,550 179,380 180,160 181,2212
182,7577 183,1171 184,80
##END=
