##TITLE=Benzoylformic acid
##JCAMP-DX=4.24
##DATA TYPE=MASS SPECTRUM
##ORIGIN=NIST Mass Spectrometry Data Center, 1992
##OWNER=NIST Mass Spectrometry Data Center
Collection (C) 2014 copyright by the U.S. Secretary of Commerce
on behalf of the United States of America. All rights reserved.
##CAS REGISTRY NO=611-73-4
##$NIST MASS SPEC NO=125243
##MOLFORM=C8 H6 O3
##MW=150
##$NIST SOURCE=MSDC
##XUNITS=M/Z
##YUNITS=RELATIVE INTENSITY
##XFACTOR=1
##YFACTOR=1
##FIRSTX=12
##LASTX=151
##FIRSTY=4
##MAXX=151
##MINX=12
##MAXY=9999
##MINY=4
##NPOINTS=60
##PEAK TABLE=(XY..XY)
12,4 14,19 16,9 25,34
26,106 28,538 29,90 30,27
35,10 36,57 37,247 38,385
39,284 40,42 42,13 44,369
45,338 46,27 47,15 48,48
49,187 50,1440 51,3123 52,235
54,15 60,34 61,90 62,108
63,80 64,24 65,60 66,8
72,23 73,138 74,417 75,268
76,8 77,7348 78,471 79,22
84,22 85,12 86,17 87,27
89,18 90,21 91,55 92,20
94,7 99,29 105,9999 106,833
107,38 110,14 111,27 112,16
122,180 123,14 150,66 151,14
##END=
