##TITLE=Isopropyl phenyl ketone
##JCAMP-DX=4.24
##DATA TYPE=MASS SPECTRUM
##ORIGIN=NIST Mass Spectrometry Data Center, 1994
##OWNER=NIST Mass Spectrometry Data Center
Collection (C) 2014 copyright by the U.S. Secretary of Commerce
on behalf of the United States of America. All rights reserved.
##CAS REGISTRY NO=611-70-1
##$NIST MASS SPEC NO=134109
##MOLFORM=C10 H12 O
##MW=148
##$NIST SOURCE=MSDC
##XUNITS=M/Z
##YUNITS=RELATIVE INTENSITY
##XFACTOR=1
##YFACTOR=1
##FIRSTX=12
##LASTX=150
##FIRSTY=8
##MAXX=150
##MINX=12
##MAXY=9999
##MINY=3
##NPOINTS=65
##PEAK TABLE=(XY..XY)
12,8 14,77 15,409 16,3
26,306 27,1554 29,57 31,8
37,91 38,319 39,1236 40,8
41,1117 42,165 43,541 44,17
50,1051 51,2750 52,224 53,80
55,141 56,24 57,8 58,8
61,34 62,69 63,116 64,23
65,51 66,15 69,14 70,10
71,14 73,54 74,297 75,215
76,10 77,5427 78,448 79,32
85,7 86,17 87,16 88,8
89,41 91,76 92,9 101,7
102,31 103,57 104,7 105,9999
106,805 107,51 115,45 116,9
117,8 119,13 128,11 129,15
131,14 133,12 148,818 149,90
150,4
##END=
