##TITLE=Benzene, 1-ethenyl-2-methyl-
##JCAMP-DX=4.24
##DATA TYPE=MASS SPECTRUM
##ORIGIN=NIST Mass Spectrometry Data Center, 1990.
##OWNER=NIST Mass Spectrometry Data Center
Collection (C) 2014 copyright by the U.S. Secretary of Commerce
on behalf of the United States of America. All rights reserved.
##CAS REGISTRY NO=611-15-4
##$NIST MASS SPEC NO=118193
##MOLFORM=C9 H10
##MW=118
##$NIST SOURCE=MSDC
##XUNITS=M/Z
##YUNITS=RELATIVE INTENSITY
##XFACTOR=1
##YFACTOR=1
##FIRSTX=15
##LASTX=120
##FIRSTY=80
##MAXX=120
##MINX=15
##MAXY=9999
##MINY=47
##NPOINTS=50
##PEAK TABLE=(XY..XY)
15,80 26,222 27,761 28,104
37,183 38,450 39,2060 40,239
41,243 43,72 49,116 50,913
51,1521 52,453 53,182 55,48
58,844 61,224 62,673 63,1550
64,355 65,1188 66,130 73,96
74,343 75,301 76,252 77,913
78,488 79,88 85,98 86,156
87,202 88,113 89,837 90,359
91,3256 92,351 98,47 101,70
102,414 103,972 104,113 105,124
115,4317 116,1456 117,9999 118,6540
119,570 120,62
##END=
