##TITLE=1,1'-Biphenyl, 2,4'-dimethyl-
##JCAMP-DX=4.24
##DATA TYPE=MASS SPECTRUM
##OWNER=NIST Mass Spectrometry Data Center
Collection (C) 2014 copyright by the U.S. Secretary of Commerce
on behalf of the United States of America. All rights reserved.
##CAS REGISTRY NO=611-61-0
##$NIST MASS SPEC NO=7571
##MOLFORM=C14 H14
##MW=182
##$NIST SOURCE=MSDC
##XUNITS=M/Z
##YUNITS=RELATIVE INTENSITY
##XFACTOR=1
##YFACTOR=1
##FIRSTX=26
##LASTX=184
##FIRSTY=20
##MAXX=184
##MINX=26
##MAXY=9999
##MINY=10
##NPOINTS=90
##PEAK TABLE=(XY..XY)
26,20 27,100 29,10 38,30
39,330 40,40 41,70 44,60
50,110 51,330 52,60 53,90
61,20 62,90 63,440 64,240
65,350 66,30 67,40 69,50
70,60 71,20 74,90 75,180
76,1141 77,571 78,90 79,30
81,100 82,621 83,731 86,40
87,80 88,260 89,1752 90,971
91,1471 92,100 98,30 99,20
100,10 101,40 102,100 103,80
104,60 105,60 110,10 111,10
113,50 114,30 115,591 116,90
117,20 125,20 126,90 127,180
128,470 129,120 130,10 137,20
138,40 139,300 140,60 141,470
142,120 143,20 150,80 151,290
152,1692 153,871 154,230 155,90
162,30 163,240 164,310 165,4424
166,2722 167,9999 168,1812 169,150
175,20 176,190 177,170 178,661
179,460 180,220 181,2672 182,9509
183,1471 184,110
##END=
