##TITLE=Phenol, 5-chloro-2-nitro-
##JCAMP-DX=4.24
##DATA TYPE=MASS SPECTRUM
##ORIGIN=LAC, NIDDK, NIH, Bethesda, MD 20892
##OWNER=NIST Mass Spectrometry Data Center
Collection (C) 2014 copyright by the U.S. Secretary of Commerce
on behalf of the United States of America. All rights reserved.
##CAS REGISTRY NO=611-07-4
##$NIST MASS SPEC NO=128514
##MOLFORM=C6 H4 Cl N O3
##MW=173
##$NIST SOURCE=MSDC
##XUNITS=M/Z
##YUNITS=RELATIVE INTENSITY
##XFACTOR=1
##YFACTOR=1
##FIRSTX=41
##LASTX=176
##FIRSTY=528
##MAXX=176
##MINX=41
##MAXY=9999
##MINY=108
##NPOINTS=69
##PEAK TABLE=(XY..XY)
41,528 42,242 43,852 44,270
45,298 46,374 47,264 49,1060
50,1083 51,1901 52,372 53,1778
54,115 55,625 56,314 57,532
60,571 61,1364 62,2833 63,7222
64,770 65,290 66,134 69,337
71,342 72,314 73,2651 74,595
75,1172 76,1531 77,422 78,370
79,394 83,266 84,502 85,411
86,376 87,601 89,123 91,257
97,452 98,1034 99,3023 100,582
101,1018 102,231 111,115 112,508
114,136 115,3758 116,242 117,1220
126,558 127,532 128,556 129,337
140,530 142,234 143,5138 144,339
145,1717 146,283 156,242 157,314
172,108 173,9999 174,618 175,3265
176,281
##END=
