##TITLE=Quinoline, 8-chloro-
##JCAMP-DX=4.24
##DATA TYPE=MASS SPECTRUM
##ORIGIN=Japan AIST/NIMC Database- Spectrum MS-NW-3300
##OWNER=NIST Mass Spectrometry Data Center
Collection (C) 2014 copyright by the U.S. Secretary of Commerce
on behalf of the United States of America. All rights reserved.
##CAS REGISTRY NO=611-33-6
##$NIST MASS SPEC NO=231920
##MOLFORM=C9 H6 Cl N
##MW=163
##$NIST SOURCE=MSDC
##XUNITS=M/Z
##YUNITS=RELATIVE INTENSITY
##XFACTOR=1
##YFACTOR=1
##FIRSTX=26
##LASTX=169
##FIRSTY=40
##MAXX=169
##MINX=26
##MAXY=9999
##MINY=10
##NPOINTS=90
##PEAK TABLE=(XY..XY)
26,40 27,60 35,10 36,30
37,129 38,149 39,179 40,10
41,10 47,10 48,10 49,129
50,759 51,569 52,139 53,10
55,20 60,30 61,129 62,189
63,269 64,299 65,50 67,10
68,469 69,149 72,30 73,129
74,599 75,899 76,309 77,399
78,80 79,10 81,379 82,129
83,20 84,70 85,70 86,80
87,80 88,50 89,20 90,10
91,20 92,30 96,10 97,60
98,129 99,409 100,509 101,959
102,389 103,50 104,10 108,20
109,50 110,129 111,40 112,90
113,20 114,20 115,10 117,20
123,40 124,20 125,20 126,259
127,1219 128,2589 129,479 130,60
131,20 132,20 135,80 136,779
137,259 138,259 139,70 140,70
141,10 161,20 162,539 163,9999
164,1199 165,3249 166,389 167,80
168,30 169,30
##END=
