##TITLE=Naphthalene, 1-(phenylmethyl)-
##JCAMP-DX=4.24
##DATA TYPE=MASS SPECTRUM
##ORIGIN=NIST Mass Spectrometry Data Center, 1990.
##OWNER=NIST Mass Spectrometry Data Center
Collection (C) 2014 copyright by the U.S. Secretary of Commerce
on behalf of the United States of America. All rights reserved.
##CAS REGISTRY NO=611-45-0
##$NIST MASS SPEC NO=113426
##MOLFORM=C17 H14
##MW=218
##$NIST SOURCE=MSDC
##XUNITS=M/Z
##YUNITS=RELATIVE INTENSITY
##XFACTOR=1
##YFACTOR=1
##FIRSTX=27
##LASTX=220
##FIRSTY=157
##MAXX=220
##MINX=27
##MAXY=9999
##MINY=59
##NPOINTS=72
##PEAK TABLE=(XY..XY)
27,157 28,346 32,155 38,73
39,437 50,363 51,806 52,124
62,247 63,825 64,132 65,639
74,357 75,476 76,323 77,478
82,178 83,149 86,176 87,309
88,296 89,819 90,139 91,744
92,79 95,954 98,148 99,126
101,956 107,671 108,1225 109,479
113,236 115,2174 116,234 125,59
126,396 127,414 128,115 137,78
139,1078 140,400 141,1812 142,225
150,196 151,222 152,255 162,97
163,342 164,194 165,362 175,68
176,216 177,76 178,184 187,285
188,238 189,936 190,268 191,207
200,151 202,4089 203,3969 204,607
205,60 213,806 215,3552 216,1259
217,7814 218,9999 219,1797 220,163
##END=
