##TITLE=Benzene, 2,4-dichloro-1-nitro-
##JCAMP-DX=4.24
##DATA TYPE=MASS SPECTRUM
##ORIGIN=Japan AIST/NIMC Database- Spectrum MS-NW-7626
##OWNER=NIST Mass Spectrometry Data Center
Collection (C) 2014 copyright by the U.S. Secretary of Commerce
on behalf of the United States of America. All rights reserved.
##CAS REGISTRY NO=611-06-3
##$NIST MASS SPEC NO=229432
##MOLFORM=C6 H3 Cl2 N O2
##MW=191
##$NIST SOURCE=MSDC
##XUNITS=M/Z
##YUNITS=RELATIVE INTENSITY
##XFACTOR=1
##YFACTOR=1
##FIRSTX=12
##LASTX=197
##FIRSTY=20
##MAXX=197
##MINX=12
##MAXY=9999
##MINY=10
##NPOINTS=128
##PEAK TABLE=(XY..XY)
12,20 14,10 16,30 18,10
24,20 25,50 26,109 27,50
28,129 29,10 30,4469 31,30
35,169 36,679 37,1069 38,619
39,149 40,10 43,20 44,129
46,179 47,209 48,129 49,589
50,2189 51,359 52,60 53,50
54,119 55,99 56,20 59,20
60,299 61,649 62,589 63,919
64,149 65,20 66,20 71,99
72,379 73,1919 74,5889 75,4629
76,369 77,30 80,10 81,10
82,20 83,379 84,1519 85,1229
86,589 87,459 88,139 89,40
90,40 91,30 94,20 95,80
96,70 97,299 98,199 99,119
100,80 101,10 104,10 106,20
107,259 108,339 109,9999 110,2089
111,3319 112,669 113,50 118,50
119,239 120,40 121,159 122,20
123,30 124,129 125,40 126,159
127,20 128,50 130,10 131,10
132,10 133,6199 134,379 135,4109
136,249 137,639 138,50 139,10
141,10 142,10 143,20 144,169
145,7689 146,629 147,4899 148,369
149,819 150,60 160,10 161,6269
162,469 163,4079 164,289 165,669
166,60 167,10 175,549 176,50
177,379 178,30 179,70 180,10
186,10 191,9199 192,699 193,5899
194,459 195,999 196,80 197,10
##END=
