##TITLE=Benz[a]anthracene, 11-methyl-
##JCAMP-DX=4.24
##DATA TYPE=MASS SPECTRUM
##OWNER=NIST Mass Spectrometry Data Center
Collection (C) 2014 copyright by the U.S. Secretary of Commerce
on behalf of the United States of America. All rights reserved.
##CAS REGISTRY NO=6111-78-0
##$NIST MASS SPEC NO=11681
##MOLFORM=C19 H14
##MW=242
##$NIST SOURCE=MSDC
##XUNITS=M/Z
##YUNITS=RELATIVE INTENSITY
##XFACTOR=1
##YFACTOR=1
##FIRSTX=36
##LASTX=245
##FIRSTY=20
##MAXX=245
##MINX=36
##MAXY=9999
##MINY=10
##NPOINTS=147
##PEAK TABLE=(XY..XY)
36,20 37,20 38,60 39,220
40,200 41,70 42,10 43,30
44,50 45,40 47,10 50,120
51,130 52,40 53,10 55,20
56,30 57,70 58,10 59,10
61,10 62,70 63,140 64,20
65,20 67,10 68,10 69,10
70,10 71,20 72,10 73,10
74,100 75,90 76,40 77,40
78,110 79,30 80,20 81,30
82,20 83,10 85,20 86,90
87,130 88,60 89,30 91,10
93,30 94,90 95,70 97,10
98,70 99,70 100,100 101,40
102,10 103,10 105,30 106,120
107,170 108,220 109,10 110,40
111,50 112,90 113,220 114,20
115,20 117,10 118,80 119,220
120,310 121,1151 122,50 123,20
124,10 125,10 126,30 127,10
128,10 134,10 135,20 137,20
138,10 139,40 140,10 146,10
147,10 149,20 150,60 151,40
152,30 161,20 162,20 163,80
164,20 165,40 166,10 173,10
174,40 175,30 176,60 177,10
178,10 185,20 186,30 187,120
188,50 189,130 190,30 191,10
197,10 198,30 199,30 200,100
201,40 202,110 203,30 209,10
210,10 211,80 212,40 213,260
214,60 215,450 216,90 217,10
222,10 223,20 224,120 225,70
226,390 227,110 228,30 229,10
235,30 236,20 237,290 238,110
239,1651 240,490 241,1902 242,9999
243,2032 244,200 245,10
##END=
