##TITLE=3,4-Octadiene, 7,7-dimethyl-
##JCAMP-DX=4.24
##DATA TYPE=MASS SPECTRUM
##ORIGIN=S.A. Rang et al., IR & MS of Unsatd. Hydrocarbons, 1977
##OWNER=NIST Mass Spectrometry Data Center
Collection (C) 2014 copyright by the U.S. Secretary of Commerce
on behalf of the United States of America. All rights reserved.
##CAS REGISTRY NO=61129-34-8
##$NIST MASS SPEC NO=142730
##MOLFORM=C10 H18
##MW=138
##$NIST SOURCE=MSDC
##XUNITS=M/Z
##YUNITS=RELATIVE INTENSITY
##XFACTOR=1
##YFACTOR=1
##FIRSTX=15
##LASTX=138
##FIRSTY=450
##MAXX=138
##MINX=15
##MAXY=9999
##MINY=20
##NPOINTS=42
##PEAK TABLE=(XY..XY)
15,450 26,220 27,2600 29,3770
39,3420 41,7660 42,420 43,750
50,250 51,770 52,420 53,1340
54,390 55,1170 56,340 57,9999
63,270 65,750 66,350 67,5080
68,360 69,360 70,90 77,910
78,180 79,1180 80,180 81,2320
82,2670 83,190 84,20 85,440
93,230 94,100 95,940 107,70
108,40 109,750 110,110 123,950
124,91 138,110
##END=
