##TITLE=1,1'-Biphenyl, 3,4-diethyl-
##JCAMP-DX=4.24
##DATA TYPE=MASS SPECTRUM
##ORIGIN=D.HENNEBERG, MAX-PLANCK INSTITUTE, MULHEIM, WEST GERMANY
##OWNER=NIST Mass Spectrometry Data Center
Collection (C) 2014 copyright by the U.S. Secretary of Commerce
on behalf of the United States of America. All rights reserved.
##CAS REGISTRY NO=61141-66-0
##$NIST MASS SPEC NO=62426
##MOLFORM=C16 H18
##MW=210
##$NIST SOURCE=MSDC
##XUNITS=M/Z
##YUNITS=RELATIVE INTENSITY
##XFACTOR=1
##YFACTOR=1
##FIRSTX=27
##LASTX=212
##FIRSTY=279
##MAXX=212
##MINX=27
##MAXY=9999
##MINY=79
##NPOINTS=157
##PEAK TABLE=(XY..XY)
27,279 28,129 29,259 31,79
36,79 38,79 39,479 40,89
41,419 42,89 43,229 44,119
50,189 51,529 52,159 53,249
54,139 55,319 56,100 57,149
58,79 59,100 62,129 63,409
64,159 65,389 66,100 67,339
68,100 69,189 70,100 71,119
74,149 75,279 76,600 77,909
78,329 79,319 80,139 81,189
82,339 83,369 84,129 85,89
86,89 87,189 88,229 89,869
90,329 91,1169 92,239 93,200
94,139 95,209 96,229 97,149
98,109 99,89 100,89 101,159
102,309 103,519 104,219 105,339
106,119 107,129 108,89 109,119
110,89 111,79 113,119 114,119
115,1209 116,300 117,379 118,119
119,179 120,119 121,139 122,89
123,89 125,89 126,200 127,369
128,729 129,809 130,200 131,200
132,89 133,129 135,100 137,89
138,89 139,329 140,119 141,489
142,349 143,1159 144,239 145,149
147,100 149,100 150,179 151,419
152,1429 153,909 154,1009 155,409
156,229 157,409 158,119 163,229
164,300 165,4119 166,1959 167,1949
168,369 169,209 170,89 171,139
175,109 176,279 177,329 178,2129
179,1839 180,2809 181,5179 182,900
183,169 184,159 185,109 186,389
187,129 188,100 189,279 190,159
191,300 192,149 193,679 194,300
195,9869 196,1829 197,209 198,89
199,109 200,89 201,79 202,109
203,89 205,89 206,79 207,89
208,89 209,229 210,9999 211,1919
212,219
##END=
