##TITLE=Cyclohexane, (1,2-dimethylbutyl)-
##JCAMP-DX=4.24
##DATA TYPE=MASS SPECTRUM
##ORIGIN=D.HENNEBERG, MAX-PLANCK INSTITUTE, MULHEIM, WEST GERMANY
##OWNER=NIST Mass Spectrometry Data Center
Collection (C) 2014 copyright by the U.S. Secretary of Commerce
on behalf of the United States of America. All rights reserved.
##CAS REGISTRY NO=61142-37-8
##$NIST MASS SPEC NO=61001
##MOLFORM=C12 H24
##MW=168
##$NIST SOURCE=MSDC
##XUNITS=M/Z
##YUNITS=RELATIVE INTENSITY
##XFACTOR=1
##YFACTOR=1
##FIRSTX=24
##LASTX=168
##FIRSTY=5
##MAXX=168
##MINX=24
##MAXY=9999
##MINY=4
##NPOINTS=58
##PEAK TABLE=(XY..XY)
24,5 25,18 26,26 27,933
29,1903 30,39 35,17 37,59
38,17 39,830 40,145 41,3807
42,309 43,4523 44,117 50,9
51,56 52,36 53,373 54,397
55,5841 56,1737 57,1743 58,62
60,7 63,4 64,4 65,86
66,71 67,1390 68,334 69,9999
70,570 71,134 72,6 77,79
78,9 79,96 80,71 81,1132
82,1430 83,2229 84,1519 85,1543
86,91 91,10 95,1362 96,12
97,278 98,15 109,37 110,2367
111,4817 112,439 113,6 125,4
139,28 168,47
##END=
