##TITLE=(E)-9-Octadecenoic acid ethyl ester
##JCAMP-DX=4.24
##DATA TYPE=MASS SPECTRUM
##ORIGIN=NIST Mass Spectrometry Data Center
##OWNER=NIST Mass Spectrometry Data Center
Collection (C) 2014 copyright by the U.S. Secretary of Commerce
on behalf of the United States of America. All rights reserved.
##CAS REGISTRY NO=6114-18-7
##$NIST MASS SPEC NO=413912
##MOLFORM=C20 H38 O2
##MW=310
##$NIST SOURCE=MSDC
##XUNITS=M/Z
##YUNITS=RELATIVE INTENSITY
##XFACTOR=1
##YFACTOR=1
##FIRSTX=27
##LASTX=313
##FIRSTY=390
##MAXX=313
##MINX=27
##MAXY=9999
##MINY=20
##NPOINTS=155
##PEAK TABLE=(XY..XY)
27,390 29,1481 30,60 39,671
40,110 41,5015 42,1001 43,4184
44,210 45,520 52,60 53,550
54,1902 55,9999 56,2182 57,2732
58,150 59,220 60,1011 61,901
65,200 66,160 67,3683 68,2042
69,8758 70,3883 71,1672 73,1461
74,220 79,571 80,330 81,2742
82,1962 83,5645 84,3974 85,811
86,90 87,310 88,5245 89,1001
90,40 93,350 94,340 95,2412
96,3934 97,5495 98,3553 99,550
100,120 101,4584 102,360 107,450
108,320 109,1742 110,2242 111,2793
112,1281 113,370 114,170 115,921
119,370 120,130 121,681 122,140
123,1702 124,1101 125,1331 126,400
127,430 128,360 129,571 130,120
133,360 134,360 135,550 136,140
137,931 138,831 139,651 141,470
142,320 143,480 144,190 145,220
147,330 148,210 149,270 151,681
152,761 153,420 154,80 155,871
156,150 157,520 158,60 161,140
162,100 163,110 165,480 166,571
167,260 168,110 169,370 170,50
171,120 175,180 176,70 177,100
179,260 180,1421 181,300 182,60
183,330 184,80 185,140 189,90
193,250 194,230 195,90 197,100
199,110 200,110 201,360 203,50
207,280 208,150 209,80 213,180
214,80 220,440 221,420 222,1912
223,470 224,30 227,150 228,60
235,360 236,270 237,40 242,60
245,70 246,190 247,100 249,50
264,2783 265,2422 266,490 267,170
268,50 269,40 281,50 292,20
310,671 311,160 313,50
##END=
