##TITLE=1-Decene, 9-methyl-
##JCAMP-DX=4.24
##DATA TYPE=MASS SPECTRUM
##ORIGIN=D.HENNEBERG, MAX-PLANCK INSTITUTE, MULHEIM, WEST GERMANY
##OWNER=NIST Mass Spectrometry Data Center
Collection (C) 2014 copyright by the U.S. Secretary of Commerce
on behalf of the United States of America. All rights reserved.
##CAS REGISTRY NO=61142-78-7
##$NIST MASS SPEC NO=61171
##MOLFORM=C11 H22
##MW=154
##$NIST SOURCE=MSDC
##XUNITS=M/Z
##YUNITS=RELATIVE INTENSITY
##XFACTOR=1
##YFACTOR=1
##FIRSTX=21
##LASTX=154
##FIRSTY=6
##MAXX=154
##MINX=21
##MAXY=9999
##MINY=3
##NPOINTS=62
##PEAK TABLE=(XY..XY)
21,6 22,6 23,4 24,17
25,17 26,68 27,1675 28,288
29,2708 32,9 34,4 36,16
38,43 39,1702 40,238 41,6413
42,1471 43,7953 44,209 47,3
49,12 50,35 51,49 52,33
53,450 54,577 55,5649 56,9999
57,6146 58,215 63,16 65,169
66,48 67,620 68,666 69,6360
70,2772 71,881 72,71 77,39
78,15 79,42 80,13 81,161
82,212 83,1713 84,1014 85,157
95,45 96,105 97,807 98,521
99,25 110,52 111,308 112,126
113,11 125,22 126,229 127,7
139,61 154,68
##END=
