##TITLE=2,4-Dimethyldodecane
##JCAMP-DX=4.24
##DATA TYPE=MASS SPECTRUM
##ORIGIN=N.Chernjak
##OWNER=NIST Mass Spectrometry Data Center
Collection (C) 2014 copyright by the U.S. Secretary of Commerce
on behalf of the United States of America. All rights reserved.
##CAS REGISTRY NO=6117-99-3
##$NIST MASS SPEC NO=280203
##MOLFORM=C14 H30
##MW=198
##$NIST SOURCE=MSDC
##XUNITS=M/Z
##YUNITS=RELATIVE INTENSITY
##XFACTOR=1
##YFACTOR=1
##FIRSTX=15
##LASTX=198
##FIRSTY=50
##MAXX=198
##MINX=15
##MAXY=9999
##MINY=10
##NPOINTS=56
##PEAK TABLE=(XY..XY)
15,50 27,1241 29,2202 39,561
40,200 41,4084 42,1051 43,9999
53,190 54,40 55,1341 56,1551
57,6506 58,260 65,30 66,20
67,170 68,100 69,941 70,420
71,3533 72,220 82,100 83,40
84,1391 85,7677 86,480 95,10
96,80 97,370 98,160 99,851
100,120 110,30 111,210 112,230
113,260 114,20 125,20 126,50
127,80 128,10 139,30 140,721
141,601 142,60 154,200 155,370
156,50 168,10 169,30 170,10
182,10 183,120 184,20 198,20
##END=
