##TITLE=Benzene, 1-(chloromethyl)-2-nitro-
##JCAMP-DX=4.24
##DATA TYPE=MASS SPECTRUM
##ORIGIN=Japan AIST/NIMC Database- Spectrum MS-NW-8850
##OWNER=NIST Mass Spectrometry Data Center
Collection (C) 2014 copyright by the U.S. Secretary of Commerce
on behalf of the United States of America. All rights reserved.
##CAS REGISTRY NO=612-23-7
##$NIST MASS SPEC NO=235002
##MOLFORM=C7 H6 Cl N O2
##MW=171
##$NIST SOURCE=MSDC
##XUNITS=M/Z
##YUNITS=RELATIVE INTENSITY
##XFACTOR=1
##YFACTOR=1
##FIRSTX=16
##LASTX=171
##FIRSTY=10
##MAXX=171
##MINX=16
##MAXY=9999
##MINY=10
##NPOINTS=107
##PEAK TABLE=(XY..XY)
16,10 18,10 26,139 27,359
28,559 29,279 30,1009 31,10
35,80 36,309 37,299 38,829
39,2859 40,359 41,189 42,20
43,99 44,139 45,60 46,129
47,20 48,10 49,249 50,1609
51,3159 52,1099 53,469 54,60
55,40 59,50 60,70 61,479
62,1569 63,4919 64,1549 65,7499
66,599 67,40 68,40 69,10
72,30 73,699 74,409 75,779
76,629 77,4979 78,4419 79,1359
80,1729 81,229 82,10 84,40
85,189 86,349 87,359 88,159
89,9999 90,4779 91,1239 92,8839
93,709 94,30 96,10 97,119
98,20 99,2659 100,209 101,849
102,80 103,30 104,119 105,1519
106,479 107,70 108,2989 109,229
110,20 111,50 112,129 113,70
114,40 115,20 117,10 118,239
119,659 120,279 121,60 123,99
124,299 125,1929 126,1149 127,699
128,349 129,30 135,60 136,5369
137,429 138,40 139,20 141,30
142,20 143,20 154,169 155,40
156,60 157,10 171,10
##END=
