##TITLE=trans-2-Nitrocinnamic acid
##JCAMP-DX=4.24
##DATA TYPE=MASS SPECTRUM
##ORIGIN=Japan AIST/NIMC Database- Spectrum MS-NW-4222
##OWNER=NIST Mass Spectrometry Data Center
Collection (C) 2014 copyright by the U.S. Secretary of Commerce
on behalf of the United States of America. All rights reserved.
##CAS REGISTRY NO=612-41-9
##$NIST MASS SPEC NO=231936
##MOLFORM=C9 H7 N O4
##MW=193
##$NIST SOURCE=MSDC
##XUNITS=M/Z
##YUNITS=RELATIVE INTENSITY
##XFACTOR=1
##YFACTOR=1
##FIRSTX=12
##LASTX=194
##FIRSTY=10
##MAXX=194
##MINX=12
##MAXY=9999
##MINY=10
##NPOINTS=135
##PEAK TABLE=(XY..XY)
12,10 14,10 15,60 16,30
17,30 18,109 25,20 26,159
27,559 28,229 29,389 30,509
31,40 32,40 36,20 37,279
38,499 39,2359 40,219 41,539
42,80 43,359 44,709 45,1059
46,80 47,10 48,20 49,189
50,2259 51,4369 52,989 53,369
54,60 55,119 56,20 57,20
58,50 59,60 60,40 61,289
62,729 63,2269 64,1109 65,9999
66,1249 67,229 68,40 69,469
70,20 71,20 72,10 73,169
74,1309 75,2309 76,2369 77,5059
78,959 79,1419 80,219 81,129
82,20 83,10 84,20 85,60
86,119 87,269 88,139 89,2699
90,1719 91,7299 92,9059 93,2369
94,219 95,30 96,10 97,40
98,199 99,99 100,60 101,1179
102,1959 103,1779 104,1649 105,1079
106,139 107,549 108,99 109,40
110,20 111,10 114,40 115,149
116,569 117,739 118,789 119,2119
120,5519 121,979 122,90 123,10
128,30 129,239 130,1439 131,249
132,1069 133,539 134,159 135,80
136,20 137,60 138,10 143,109
144,20 145,129 146,299 147,3809
148,4579 149,459 150,50 157,10
158,359 159,99 160,10 161,99
162,20 163,20 164,20 169,20
175,579 176,659 177,70 178,10
192,10 193,359 194,40
##END=
