##TITLE=Quinoline, 2-phenyl-
##JCAMP-DX=4.24
##DATA TYPE=MASS SPECTRUM
##ORIGIN=Japan AIST/NIMC Database- Spectrum MS-IW-1988
##OWNER=NIST Mass Spectrometry Data Center
Collection (C) 2014 copyright by the U.S. Secretary of Commerce
on behalf of the United States of America. All rights reserved.
##CAS REGISTRY NO=612-96-4
##$NIST MASS SPEC NO=240713
##MOLFORM=C15 H11 N
##MW=205
##$NIST SOURCE=MSDC
##XUNITS=M/Z
##YUNITS=RELATIVE INTENSITY
##XFACTOR=1
##YFACTOR=1
##FIRSTX=14
##LASTX=207
##FIRSTY=20
##MAXX=207
##MINX=14
##MAXY=9999
##MINY=10
##NPOINTS=67
##PEAK TABLE=(XY..XY)
14,20 27,20 38,10 39,70
40,20 50,159 51,209 52,70
61,10 62,50 63,129 64,20
65,20 74,90 75,249 76,369
77,239 78,40 86,20 87,40
88,209 89,209 90,10 93,10
98,20 99,20 100,20 101,349
102,979 103,139 104,20 113,20
114,10 115,30 125,10 126,40
127,60 128,209 129,50 138,10
139,30 140,30 149,10 150,50
151,209 152,119 153,40 154,20
163,10 164,30 165,10 174,10
175,70 176,439 177,309 178,229
179,50 180,20 181,10 190,20
201,80 202,299 203,1029 204,7859
205,9999 206,1589 207,119
##END=
