##TITLE=Benzenemethanamine, N-nitroso-N-phenyl-
##JCAMP-DX=4.24
##DATA TYPE=MASS SPECTRUM
##ORIGIN=W.T.RAINEY OAK RIDGE NATIONAL LABORATORY,OAK RIDGE,TN.USA
##OWNER=NIST Mass Spectrometry Data Center
Collection (C) 2014 copyright by the U.S. Secretary of Commerce
on behalf of the United States of America. All rights reserved.
##CAS REGISTRY NO=612-98-6
##$NIST MASS SPEC NO=25588
##MOLFORM=C13 H12 N2 O
##MW=212
##$NIST SOURCE=MSDC
##XUNITS=M/Z
##YUNITS=RELATIVE INTENSITY
##XFACTOR=1
##YFACTOR=1
##FIRSTX=30
##LASTX=213
##FIRSTY=2086
##MAXX=213
##MINX=30
##MAXY=9999
##MINY=86
##NPOINTS=94
##PEAK TABLE=(XY..XY)
30,2086 31,260 32,260 37,173
38,347 39,1565 40,260 41,869
42,347 43,347 44,434 45,86
50,695 51,2782 52,521 53,173
54,173 55,521 56,347 57,260
58,86 61,86 62,260 63,782
64,434 65,1912 66,173 67,173
68,173 69,347 70,260 71,86
74,260 75,260 76,347 77,8086
78,1217 79,347 80,86 81,173
82,173 83,260 84,260 86,86
87,86 88,86 89,521 90,347
91,6173 92,608 93,173 95,86
96,173 97,173 98,173 103,86
104,173 105,3304 106,521 107,608
108,173 110,173 112,86 115,173
116,86 117,86 126,86 127,173
128,173 129,86 138,86 139,86
140,86 141,86 151,86 152,260
153,173 154,347 155,173 165,173
166,173 167,347 168,86 178,173
179,173 180,1478 181,956 182,9999
183,2956 184,347 195,347 196,86
212,1304 213,260
##END=
