##TITLE=[1,1'-Biphenyl]-3,3'-diol
##JCAMP-DX=4.24
##DATA TYPE=MASS SPECTRUM
##ORIGIN=P.A. Leclercq, Lab. Instrum. Anal., Tech. Univ. Eindhoven, Netherlands
##OWNER=NIST Mass Spectrometry Data Center
Collection (C) 2014 copyright by the U.S. Secretary of Commerce
on behalf of the United States of America. All rights reserved.
##CAS REGISTRY NO=612-76-0
##$NIST MASS SPEC NO=221583
##MOLFORM=C12 H10 O2
##MW=186
##$NIST SOURCE=MSDC
##XUNITS=M/Z
##YUNITS=RELATIVE INTENSITY
##XFACTOR=1
##YFACTOR=1
##FIRSTX=27
##LASTX=188
##FIRSTY=299
##MAXX=188
##MINX=27
##MAXY=9999
##MINY=89
##NPOINTS=46
##PEAK TABLE=(XY..XY)
27,299 38,209 39,889 50,389
51,529 53,99 55,359 62,139
63,459 64,449 65,219 66,119
69,109 70,269 74,99 75,139
76,109 77,549 78,139 79,109
84,139 89,169 92,139 93,649
102,169 103,159 115,569 118,89
127,519 128,929 129,589 130,99
131,739 132,119 139,429 140,139
141,209 155,99 157,1689 158,299
168,89 169,149 185,359 186,9999
187,1369 188,129
##END=
