##TITLE=1,4-Dihydronaphthalene
##JCAMP-DX=4.24
##DATA TYPE=MASS SPECTRUM
##ORIGIN=NIST Mass Spectrometry Data Center, 1998.
##OWNER=NIST Mass Spectrometry Data Center
Collection (C) 2014 copyright by the U.S. Secretary of Commerce
on behalf of the United States of America. All rights reserved.
##CAS REGISTRY NO=612-17-9
##$NIST MASS SPEC NO=291981
##MOLFORM=C10 H10
##MW=130
##$NIST SOURCE=MSDC
##XUNITS=M/Z
##YUNITS=RELATIVE INTENSITY
##XFACTOR=1
##YFACTOR=1
##FIRSTX=15
##LASTX=132
##FIRSTY=10
##MAXX=132
##MINX=15
##MAXY=9999
##MINY=10
##NPOINTS=64
##PEAK TABLE=(XY..XY)
15,10 26,40 27,140 37,40
38,120 39,520 40,30 41,20
49,40 50,690 51,1470 52,310
53,90 54,10 55,10 56,10
57,60 60,10 61,120 62,370
63,1200 64,1260 65,450 73,50
74,510 75,510 76,420 77,1020
78,400 79,30 84,10 85,40
86,130 87,190 88,50 89,380
90,40 91,140 92,10 97,20
98,140 99,60 100,50 101,310
102,990 103,290 104,60 110,10
111,10 113,50 114,40 115,5659
116,560 117,30 121,10 122,20
125,40 126,650 127,2650 128,5029
129,9379 130,9999 131,1070 132,50
##END=
