##TITLE=Quinoline, 6-chloro-
##JCAMP-DX=4.24
##DATA TYPE=MASS SPECTRUM
##ORIGIN=Japan AIST/NIMC Database- Spectrum MS-NW-3556
##OWNER=NIST Mass Spectrometry Data Center
Collection (C) 2014 copyright by the U.S. Secretary of Commerce
on behalf of the United States of America. All rights reserved.
##CAS REGISTRY NO=612-57-7
##$NIST MASS SPEC NO=231919
##MOLFORM=C9 H6 Cl N
##MW=163
##$NIST SOURCE=MSDC
##XUNITS=M/Z
##YUNITS=RELATIVE INTENSITY
##XFACTOR=1
##YFACTOR=1
##FIRSTX=26
##LASTX=167
##FIRSTY=40
##MAXX=167
##MINX=26
##MAXY=9999
##MINY=10
##NPOINTS=80
##PEAK TABLE=(XY..XY)
26,40 27,50 28,40 35,10
36,30 37,109 38,139 39,139
40,10 44,10 47,10 48,10
49,129 50,729 51,509 52,119
53,10 55,20 56,10 60,30
61,129 62,189 63,239 64,219
65,20 67,10 68,469 69,159
72,20 73,139 74,539 75,829
76,269 77,329 78,70 81,299
82,99 83,10 84,60 85,80
86,80 87,70 88,40 89,10
96,10 97,60 98,139 99,389
100,359 101,889 102,339 103,40
108,10 109,40 110,119 111,40
112,99 113,20 114,20 123,40
124,20 125,10 126,179 127,469
128,2829 129,349 130,20 135,109
136,809 137,299 138,289 139,90
140,10 161,20 162,539 163,9999
164,1189 165,3139 166,339 167,20
##END=
