##TITLE=Quinoline, 3-methyl-
##JCAMP-DX=4.24
##DATA TYPE=MASS SPECTRUM
##ORIGIN=M. OEHME, NORW. INST. AIR RES., LILLESTROM, NORWAY
##OWNER=NIST Mass Spectrometry Data Center
Collection (C) 2014 copyright by the U.S. Secretary of Commerce
on behalf of the United States of America. All rights reserved.
##CAS REGISTRY NO=612-58-8
##$NIST MASS SPEC NO=101278
##MOLFORM=C10 H9 N
##MW=143
##$NIST SOURCE=MSDC
##XUNITS=M/Z
##YUNITS=RELATIVE INTENSITY
##XFACTOR=1
##YFACTOR=1
##FIRSTX=50
##LASTX=144
##FIRSTY=480
##MAXX=144
##MINX=50
##MAXY=9999
##MINY=60
##NPOINTS=36
##PEAK TABLE=(XY..XY)
50,480 51,540 52,120 57,610
58,270 61,90 62,270 63,620
64,140 65,230 70,170 71,110
74,170 75,250 76,160 77,140
86,110 87,170 88,170 89,810
90,280 101,120 102,80 104,80
113,220 114,240 115,3860 116,1280
117,720 118,60 128,290 140,250
141,160 142,3000 143,9999 144,1100
##END=
