##TITLE=3-Heptyne, 5-methyl-
##JCAMP-DX=4.24
##DATA TYPE=MASS SPECTRUM
##ORIGIN=JACSAT, 98(26) 8413(1976); R. WEST, UNIV OF WISCONSIN, USA
##OWNER=NIST Mass Spectrometry Data Center
Collection (C) 2014 copyright by the U.S. Secretary of Commerce
on behalf of the United States of America. All rights reserved.
##CAS REGISTRY NO=61228-09-9
##$NIST MASS SPEC NO=54059
##MOLFORM=C8 H14
##MW=110
##$NIST SOURCE=MSDC
##XUNITS=M/Z
##YUNITS=RELATIVE INTENSITY
##XFACTOR=1
##YFACTOR=1
##FIRSTX=41
##LASTX=111
##FIRSTY=3700
##MAXX=111
##MINX=41
##MAXY=9999
##MINY=500
##NPOINTS=9
##PEAK TABLE=(XY..XY)
41,3700 53,3200 55,2700 67,2900
79,2700 81,9999 95,4500 110,4800
111,500
##END=
