##TITLE=Quinoline, 2-(tribromomethyl)-
##JCAMP-DX=4.24
##DATA TYPE=MASS SPECTRUM
##ORIGIN=Japan AIST/NIMC Database- Spectrum MS-IW- 689
##OWNER=NIST Mass Spectrometry Data Center
Collection (C) 2014 copyright by the U.S. Secretary of Commerce
on behalf of the United States of America. All rights reserved.
##CAS REGISTRY NO=613-53-6
##$NIST MASS SPEC NO=239448
##MOLFORM=C10 H6 Br3 N
##MW=377
##$NIST SOURCE=MSDC
##XUNITS=M/Z
##YUNITS=RELATIVE INTENSITY
##XFACTOR=1
##YFACTOR=1
##FIRSTX=27
##LASTX=384
##FIRSTY=10
##MAXX=384
##MINX=27
##MAXY=9999
##MINY=10
##NPOINTS=107
##PEAK TABLE=(XY..XY)
27,10 28,40 37,30 38,50
39,159 40,10 43,20 44,10
45,10 49,10 50,139 51,119
52,20 55,20 56,109 57,40
60,10 61,50 62,139 63,369
64,80 65,40 69,159 70,519
71,10 73,10 74,99 75,149
76,60 77,50 79,139 80,519
81,139 82,519 85,20 86,80
87,139 88,159 89,109 90,70
96,60 97,60 98,20 99,20
100,20 101,109 102,30 109,559
110,549 111,109 112,60 113,699
114,279 115,50 116,20 117,10
118,10 119,10 127,10 128,90
129,20 138,50 139,229 140,4329
141,709 142,80 143,50 149,369
150,729 151,359 158,10 160,20
162,10 167,10 174,10 189,20
190,10 193,169 194,40 195,159
196,30 218,169 219,539 220,819
221,589 222,639 223,70 273,10
297,10 298,5119 299,649 300,9999
301,1249 302,4939 303,609 304,30
332,10 334,30 336,20 377,159
378,20 379,469 380,50 381,459
382,50 383,139 384,10
##END=
