##TITLE=Acridine, 2-methyl-
##JCAMP-DX=4.24
##DATA TYPE=MASS SPECTRUM
##ORIGIN=A.A.Kutin, Moscow, Russia
##OWNER=NIST Mass Spectrometry Data Center
Collection (C) 2014 copyright by the U.S. Secretary of Commerce
on behalf of the United States of America. All rights reserved.
##CAS REGISTRY NO=613-15-0
##$NIST MASS SPEC NO=258324
##MOLFORM=C14 H11 N
##MW=193
##$NIST SOURCE=MSDC
##XUNITS=M/Z
##YUNITS=RELATIVE INTENSITY
##XFACTOR=1
##YFACTOR=1
##FIRSTX=33
##LASTX=196
##FIRSTY=17
##MAXX=196
##MINX=33
##MAXY=9999
##MINY=1
##NPOINTS=131
##PEAK TABLE=(XY..XY)
33,17 34,10 37,247 38,664
39,1856 40,294 41,126 42,27
43,48 44,51 45,7 50,1727
51,1663 52,622 53,156 55,115
56,85 57,124 61,445 62,1634
63,2598 64,795 65,428 66,49
67,34 69,836 71,359 74,1525
75,1383 76,823 77,573 78,107
79,17 81,505 82,500 84,1614
85,141 86,500 87,690 88,352
89,479 90,141 91,50 92,6
93,9 95,808 97,703 98,337
99,336 100,254 101,268 102,222
103,67 104,15 105,5 106,1
107,1 109,63 110,221 111,365
113,1141 114,525 115,860 116,239
117,49 118,6 119,5 120,10
122,177 123,148 124,167 125,479
126,848 127,644 128,368 129,65
130,22 131,9 132,7 133,19
134,49 135,83 137,593 138,568
139,2513 140,2107 141,329 142,63
143,26 144,6 146,7 147,28
150,960 151,835 152,772 153,356
154,230 155,23 156,4 157,5
159,12 161,94 163,1412 164,1397
165,1761 166,1334 167,1397 168,155
169,10 171,4 175,51 176,92
177,510 178,276 179,290 180,190
181,188 182,25 183,3 184,2
185,4 186,10 188,112 189,174
190,812 191,1796 192,3868 193,9999
194,1414 195,121 196,6
##END=
