##TITLE=Benzeneacetonitrile, .alpha.-oxo-
##JCAMP-DX=4.24
##DATA TYPE=MASS SPECTRUM
##ORIGIN=Japan AIST/NIMC Database- Spectrum MS-NW-4895
##OWNER=NIST Mass Spectrometry Data Center
Collection (C) 2014 copyright by the U.S. Secretary of Commerce
on behalf of the United States of America. All rights reserved.
##CAS REGISTRY NO=613-90-1
##$NIST MASS SPEC NO=231762
##MOLFORM=C8 H5 N O
##MW=131
##$NIST SOURCE=MSDC
##XUNITS=M/Z
##YUNITS=RELATIVE INTENSITY
##XFACTOR=1
##YFACTOR=1
##FIRSTX=12
##LASTX=133
##FIRSTY=20
##MAXX=133
##MINX=12
##MAXY=9999
##MINY=10
##NPOINTS=63
##PEAK TABLE=(XY..XY)
12,20 14,10 24,10 25,30
26,129 27,339 28,90 29,20
36,50 37,349 38,439 39,389
40,20 43,20 44,30 45,10
48,40 49,229 50,1799 51,3419
52,309 53,80 54,169 55,10
56,10 60,30 61,129 62,129
63,149 64,50 65,20 66,10
72,20 73,149 74,549 75,549
76,1179 77,6909 78,479 79,20
84,10 85,20 86,30 87,30
88,50 89,10 94,20 99,20
100,10 101,10 102,149 103,1429
104,179 105,9999 106,809 107,50
111,10 114,10 115,10 130,129
131,6389 132,589 133,40
##END=
