##TITLE=N,N'-Diacetyl benzidine
##JCAMP-DX=4.24
##DATA TYPE=MASS SPECTRUM
##ORIGIN=Japan AIST/NIMC Database- Spectrum MS-NW-5973
##OWNER=NIST Mass Spectrometry Data Center
Collection (C) 2014 copyright by the U.S. Secretary of Commerce
on behalf of the United States of America. All rights reserved.
##CAS REGISTRY NO=613-35-4
##$NIST MASS SPEC NO=232940
##MOLFORM=C16 H16 N2 O2
##MW=268
##$NIST SOURCE=MSDC
##XUNITS=M/Z
##YUNITS=RELATIVE INTENSITY
##XFACTOR=1
##YFACTOR=1
##FIRSTX=14
##LASTX=271
##FIRSTY=40
##MAXX=271
##MINX=14
##MAXY=9999
##MINY=10
##NPOINTS=169
##PEAK TABLE=(XY..XY)
14,40 15,379 26,10 27,40
38,30 39,149 40,30 41,50
42,119 43,2589 44,70 45,109
50,70 51,139 52,99 53,40
54,50 55,20 56,10 57,30
60,80 62,50 63,159 64,60
65,99 66,40 67,20 68,10
69,20 70,10 71,20 74,60
75,109 76,80 77,199 78,80
79,20 80,20 83,30 84,10
85,20 86,20 87,40 88,40
89,109 90,50 91,70 92,50
93,299 94,30 95,10 97,20
98,10 99,20 100,30 101,90
102,169 103,90 104,60 105,20
106,40 111,20 112,20 113,50
114,60 115,169 116,90 117,169
118,40 119,20 125,30 126,90
127,309 128,419 129,119 130,349
131,60 132,30 134,10 137,20
138,40 139,249 140,179 141,109
142,40 143,70 144,30 149,20
150,30 151,80 152,99 153,119
154,329 155,229 156,1259 157,249
158,50 162,10 164,50 165,60
166,209 167,299 168,179 169,80
170,30 176,10 177,10 178,10
179,40 180,60 181,339 182,469
183,2309 184,9789 185,2029 186,219
187,20 190,20 191,30 192,20
193,20 194,40 195,40 196,50
197,60 198,60 199,20 203,10
205,10 206,10 207,30 208,129
209,50 210,489 211,99 212,30
213,10 215,10 216,10 218,20
219,10 221,10 222,10 223,20
224,50 225,459 226,6259 227,1189
228,129 229,20 232,50 233,10
234,20 236,10 239,30 240,10
249,20 250,60 251,20 252,70
253,40 254,10 264,10 266,10
267,149 268,9999 269,2029 270,239
271,20
##END=
