##TITLE=2-Methyl-6-nitroquinoline
##JCAMP-DX=4.24
##DATA TYPE=MASS SPECTRUM
##ORIGIN=NIST Mass Spectrometry Data Center, 1994
##OWNER=NIST Mass Spectrometry Data Center
Collection (C) 2014 copyright by the U.S. Secretary of Commerce
on behalf of the United States of America. All rights reserved.
##CAS REGISTRY NO=613-30-9
##$NIST MASS SPEC NO=136002
##MOLFORM=C10 H8 N2 O2
##MW=188
##$NIST SOURCE=MSDC
##XUNITS=M/Z
##YUNITS=RELATIVE INTENSITY
##XFACTOR=1
##YFACTOR=1
##FIRSTX=12
##LASTX=190
##FIRSTY=33
##MAXX=190
##MINX=12
##MAXY=9999
##MINY=29
##NPOINTS=81
##PEAK TABLE=(XY..XY)
12,33 14,39 15,110 18,29
26,173 27,413 28,243 29,29
30,1968 37,258 38,588 39,1824
40,218 41,168 42,136 46,550
49,110 50,1480 51,1677 52,652
53,235 56,37 58,112 61,365
62,1048 63,2193 64,605 65,719
66,101 71,78 73,138 74,1633
75,1567 76,803 77,1101 78,309
79,59 80,54 85,141 86,353
87,584 88,732 89,2229 90,407
91,138 98,359 99,292 100,564
101,346 102,539 103,1207 104,258
110,49 111,58 112,95 113,765
114,1077 115,9244 116,2175 117,187
126,33 127,396 128,220 129,33
130,5511 131,607 132,46 138,29
140,1718 141,1054 142,3601 143,467
155,53 156,38 158,1614 159,195
172,138 186,45 188,9999 189,1175
190,63
##END=
