##TITLE=Quinoline, 6-nitro-
##JCAMP-DX=4.24
##DATA TYPE=MASS SPECTRUM
##ORIGIN=Japan AIST/NIMC Database- Spectrum MS-NW-3713
##OWNER=NIST Mass Spectrometry Data Center
Collection (C) 2014 copyright by the U.S. Secretary of Commerce
on behalf of the United States of America. All rights reserved.
##CAS REGISTRY NO=613-50-3
##$NIST MASS SPEC NO=231924
##MOLFORM=C9 H6 N2 O2
##MW=174
##$NIST SOURCE=MSDC
##XUNITS=M/Z
##YUNITS=RELATIVE INTENSITY
##XFACTOR=1
##YFACTOR=1
##FIRSTX=15
##LASTX=177
##FIRSTY=10
##MAXX=177
##MINX=15
##MAXY=9999
##MINY=10
##NPOINTS=91
##PEAK TABLE=(XY..XY)
15,10 16,20 25,10 26,90
27,179 28,69 29,20 30,429
31,20 32,10 36,20 37,199
38,329 39,429 40,30 41,30
42,20 43,50 44,40 46,70
48,10 49,129 50,979 51,1609
52,339 53,40 54,10 57,10
60,30 61,209 62,449 63,779
64,229 65,80 66,20 70,30
72,20 73,119 74,1029 75,1919
76,619 77,1919 78,299 79,20
80,20 84,10 85,40 86,90
87,129 88,149 89,839 90,169
91,20 97,40 98,199 99,259
100,479 101,3679 102,1749 103,139
104,10 105,10 112,10 113,10
114,60 115,99 116,3809 117,389
118,30 119,10 123,20 124,10
126,70 127,709 128,8739 129,949
130,60 131,10 132,20 142,30
143,20 144,679 145,80 146,30
158,129 159,20 173,20 174,9999
175,1059 176,99 177,10
##END=
