##TITLE=S-(-)-1-Phenylpropanol
##JCAMP-DX=4.24
##DATA TYPE=MASS SPECTRUM
##ORIGIN=NIST Mass Spectrometry Data Center, 1994
##OWNER=NIST Mass Spectrometry Data Center
Collection (C) 2014 copyright by the U.S. Secretary of Commerce
on behalf of the United States of America. All rights reserved.
##CAS REGISTRY NO=613-87-6
##$NIST MASS SPEC NO=135945
##MOLFORM=C9 H12 O
##MW=136
##$NIST SOURCE=MSDC
##XUNITS=M/Z
##YUNITS=RELATIVE INTENSITY
##XFACTOR=1
##YFACTOR=1
##FIRSTX=12
##LASTX=137
##FIRSTY=5
##MAXX=137
##MINX=12
##MAXY=9999
##MINY=5
##NPOINTS=67
##PEAK TABLE=(XY..XY)
12,5 14,37 15,246 17,5
18,39 19,25 26,322 27,1788
28,269 29,1746 30,53 31,271
37,64 38,240 39,1082 40,103
41,220 42,46 43,368 44,24
49,61 50,1016 51,2540 52,643
53,403 55,145 57,473 61,53
62,193 63,472 64,86 65,316
66,54 67,15 73,43 74,229
75,192 76,15 77,5772 78,1255
79,9999 80,673 81,29 85,19
86,34 87,37 88,18 89,178
90,18 91,539 92,46 93,20
102,66 103,152 105,1415 107,9785
108,761 109,51 115,222 116,45
117,148 118,49 119,33 133,31
134,103 136,1082 137,105
##END=
