##TITLE=Benzaldehyde, 2,4-dimethoxy-
##JCAMP-DX=4.24
##DATA TYPE=MASS SPECTRUM
##ORIGIN=NIST Mass Spectrometry Data Center
##OWNER=NIST Mass Spectrometry Data Center
Collection (C) 2014 copyright by the U.S. Secretary of Commerce
on behalf of the United States of America. All rights reserved.
##CAS REGISTRY NO=613-45-6
##$NIST MASS SPEC NO=352921
##MOLFORM=C9 H10 O3
##MW=166
##$NIST SOURCE=MSDC
##XUNITS=M/Z
##YUNITS=RELATIVE INTENSITY
##XFACTOR=1
##YFACTOR=1
##FIRSTX=14
##LASTX=169
##FIRSTY=80
##MAXX=169
##MINX=14
##MAXY=9999
##MINY=10
##NPOINTS=111
##PEAK TABLE=(XY..XY)
14,80 15,1001 16,20 18,30
25,10 26,130 27,180 28,250
29,961 30,100 31,130 32,20
36,10 37,240 38,671 39,1011
40,80 41,581 42,80 43,100
44,10 45,20 48,10 49,100
50,961 51,1651 52,1061 53,871
54,120 55,180 56,30 57,10
59,140 60,30 61,360 62,1071
63,3693 64,1521 65,1241 66,470
67,200 68,50 69,721 70,30
71,10 73,110 74,621 75,540
76,430 77,2502 78,781 79,2042
80,731 81,110 82,30 83,30
84,10 85,20 86,20 87,10
89,60 90,130 91,731 92,1762
93,440 94,661 95,1541 96,120
97,10 101,10 102,10 103,50
104,60 105,440 106,3093 107,2622
108,901 109,1131 110,90 111,20
118,30 119,290 120,3183 121,3283
122,2903 123,400 124,380 125,40
127,20 128,20 132,10 133,110
134,1101 135,3894 136,470 137,891
138,150 139,10 142,10 148,2582
149,5905 150,1511 151,931 152,80
153,10 163,40 165,8097 166,9999
167,1001 168,100 169,10
##END=
