##TITLE=Phenol, 2-methoxy-, acetate
##JCAMP-DX=4.24
##DATA TYPE=MASS SPECTRUM
##OWNER=NIST Mass Spectrometry Data Center
Collection (C) 2014 copyright by the U.S. Secretary of Commerce
on behalf of the United States of America. All rights reserved.
##CAS REGISTRY NO=613-70-7
##$NIST MASS SPEC NO=33987
##MOLFORM=C9 H10 O3
##MW=166
##$NIST SOURCE=MSDC
##XUNITS=M/Z
##YUNITS=RELATIVE INTENSITY
##XFACTOR=1
##YFACTOR=1
##FIRSTX=39
##LASTX=167
##FIRSTY=200
##MAXX=167
##MINX=39
##MAXY=9999
##MINY=100
##NPOINTS=22
##PEAK TABLE=(XY..XY)
39,200 41,200 43,1400 50,100
51,200 52,500 53,100 63,200
64,100 65,300 77,300 80,200
81,1000 92,100 95,200 109,5099
110,300 123,100 124,9999 125,800
166,1000 167,100
##END=
