##TITLE=Benzene, 1,2,4-trichloro-5-methoxy-
##JCAMP-DX=4.24
##DATA TYPE=MASS SPECTRUM
##ORIGIN=CHEM. RES. LAB., WRIGHT-PATTERSON AIR FORCE BASE, OHIO, USA
##OWNER=NIST Mass Spectrometry Data Center
Collection (C) 2014 copyright by the U.S. Secretary of Commerce
on behalf of the United States of America. All rights reserved.
##CAS REGISTRY NO=6130-75-2
##$NIST MASS SPEC NO=68944
##MOLFORM=C7 H5 Cl3 O
##MW=210
##$NIST SOURCE=MSDC
##XUNITS=M/Z
##YUNITS=RELATIVE INTENSITY
##XFACTOR=1
##YFACTOR=1
##FIRSTX=29
##LASTX=216
##FIRSTY=179
##MAXX=216
##MINX=29
##MAXY=9999
##MINY=101
##NPOINTS=74
##PEAK TABLE=(XY..XY)
29,179 30,122 31,162 35,186
36,497 37,822 38,217 47,210
48,440 49,494 50,338 53,311
55,210 56,101 60,304 61,1022
62,1309 63,213 71,125 72,612
73,1123 74,1167 75,890 77,203
83,636 84,595 85,511 86,176
87,176 95,118 96,558 97,2720
98,321 99,815 107,1147 108,524
109,1708 110,423 111,785 112,213
113,193 118,122 131,277 132,413
134,244 143,470 144,386 145,771
146,281 147,548 148,101 149,240
160,379 162,277 167,6309 169,6522
171,1793 173,176 175,240 177,210
179,362 181,484 195,6478 196,396
197,6526 198,382 199,2087 201,254
210,9999 211,727 212,9127 213,721
214,2886 216,436
##END=
