##TITLE=Thiazole, 4-methyl-2-(2-methylpropyl)-
##JCAMP-DX=4.24
##DATA TYPE=MASS SPECTRUM
##ORIGIN=Japan AIST/NIMC Database- Spectrum MS-IW-5086
##OWNER=NIST Mass Spectrometry Data Center
Collection (C) 2014 copyright by the U.S. Secretary of Commerce
on behalf of the United States of America. All rights reserved.
##CAS REGISTRY NO=61323-24-8
##$NIST MASS SPEC NO=237415
##MOLFORM=C8 H13 N S
##MW=155
##$NIST SOURCE=MSDC
##XUNITS=M/Z
##YUNITS=RELATIVE INTENSITY
##XFACTOR=1
##YFACTOR=1
##FIRSTX=15
##LASTX=157
##FIRSTY=20
##MAXX=157
##MINX=15
##MAXY=9999
##MINY=10
##NPOINTS=77
##PEAK TABLE=(XY..XY)
15,20 26,20 27,259 28,99
29,90 32,30 37,10 38,40
39,519 40,70 41,569 42,219
43,609 44,30 45,769 46,50
47,60 50,10 51,30 52,30
53,70 54,40 55,70 56,50
57,50 58,40 59,90 60,10
64,10 65,20 66,30 67,30
68,649 69,129 70,80 71,1539
72,1979 73,779 74,109 75,30
78,20 79,10 80,30 81,10
82,30 83,10 84,30 85,159
86,20 91,10 92,10 94,10
97,20 98,40 99,40 100,60
101,10 110,10 111,10 112,1609
113,9999 114,749 115,479 116,30
124,10 126,30 127,10 137,10
138,60 139,60 140,1359 141,119
142,60 154,429 155,769 156,99
157,40
##END=
