##TITLE=2-Pentanone, 3-ethyl-
##JCAMP-DX=4.24
##DATA TYPE=MASS SPECTRUM
##ORIGIN=NIST Mass Spectrometry Data Center, 1990.
##OWNER=NIST Mass Spectrometry Data Center
Collection (C) 2014 copyright by the U.S. Secretary of Commerce
on behalf of the United States of America. All rights reserved.
##CAS REGISTRY NO=6137-03-7
##$NIST MASS SPEC NO=114080
##MOLFORM=C7 H14 O
##MW=114
##$NIST SOURCE=MSDC
##XUNITS=M/Z
##YUNITS=RELATIVE INTENSITY
##XFACTOR=1
##YFACTOR=1
##FIRSTX=15
##LASTX=114
##FIRSTY=222
##MAXX=114
##MINX=15
##MAXY=9999
##MINY=83
##NPOINTS=29
##PEAK TABLE=(XY..XY)
15,222 26,142 27,1035 28,582
29,841 38,147 39,1208 40,234
41,1578 42,140 43,9999 44,357
45,83 51,157 53,279 55,1647
56,136 57,113 58,163 67,171
69,176 70,1154 71,3161 72,336
85,635 86,2358 87,143 99,168
114,469
##END=
