##TITLE=4-Dodecanone
##JCAMP-DX=4.24
##DATA TYPE=MASS SPECTRUM
##OWNER=NIST Mass Spectrometry Data Center
Collection (C) 2014 copyright by the U.S. Secretary of Commerce
on behalf of the United States of America. All rights reserved.
##CAS REGISTRY NO=6137-26-4
##$NIST MASS SPEC NO=7768
##MOLFORM=C12 H24 O
##MW=184
##$NIST SOURCE=MSDC
##XUNITS=M/Z
##YUNITS=RELATIVE INTENSITY
##XFACTOR=1
##YFACTOR=1
##FIRSTX=12
##LASTX=186
##FIRSTY=10
##MAXX=186
##MINX=12
##MAXY=9999
##MINY=10
##NPOINTS=122
##PEAK TABLE=(XY..XY)
12,10 13,10 14,30 15,230
16,10 17,10 18,20 25,10
26,320 27,4394 28,901 29,3183
30,80 31,90 32,10 36,10
37,30 38,80 39,1591 40,340
41,4874 42,1341 43,9999 44,340
45,110 46,10 47,10 48,10
49,10 50,30 51,70 52,40
53,300 54,190 55,2072 56,490
57,4194 58,6386 59,320 60,20
62,10 63,20 64,10 65,50
66,30 67,360 68,130 69,430
70,310 71,9018 72,561 73,120
74,10 75,10 77,40 78,10
79,50 80,20 81,450 82,110
83,190 84,110 85,170 86,4584
87,1321 88,80 89,10 91,20
92,10 93,20 94,10 95,80
96,230 97,120 98,150 99,1471
100,140 101,10 103,10 105,10
108,40 109,60 110,50 111,30
112,30 113,220 114,40 115,10
117,10 119,10 121,10 123,230
124,40 125,20 126,10 127,140
128,120 129,10 133,10 134,10
137,20 138,20 139,30 141,3493
142,400 143,40 151,10 153,10
155,110 156,50 157,10 165,10
166,20 167,10 168,10 169,40
170,10 182,10 183,10 184,460
185,100 186,10
##END=
