##TITLE=Benzoic acid, 4-methylphenyl ester
##JCAMP-DX=4.24
##DATA TYPE=MASS SPECTRUM
##ORIGIN=NIST Mass Spectrometry Data Center
##OWNER=NIST Mass Spectrometry Data Center
Collection (C) 2014 copyright by the U.S. Secretary of Commerce
on behalf of the United States of America. All rights reserved.
##CAS REGISTRY NO=614-34-6
##$NIST MASS SPEC NO=341170
##MOLFORM=C14 H12 O2
##MW=212
##$NIST SOURCE=MSDC
##XUNITS=M/Z
##YUNITS=RELATIVE INTENSITY
##XFACTOR=1
##YFACTOR=1
##FIRSTX=27
##LASTX=214
##FIRSTY=70
##MAXX=214
##MINX=27
##MAXY=9999
##MINY=10
##NPOINTS=38
##PEAK TABLE=(XY..XY)
27,70 38,30 39,130 41,10
49,10 50,300 51,961 52,180
53,150 62,30 63,90 64,20
65,100 73,10 74,80 75,70
76,170 77,4204 78,450 79,180
80,10 89,30 90,10 91,40
105,9999 106,921 107,280 108,50
115,30 127,10 128,20 139,10
152,10 153,10 168,10 212,1531
213,230 214,20
##END=
