##TITLE=5-Methylbenzimidazole
##JCAMP-DX=4.24
##DATA TYPE=MASS SPECTRUM
##ORIGIN=NIST Mass Spectrometry Data Center
##OWNER=NIST Mass Spectrometry Data Center
Collection (C) 2014 copyright by the U.S. Secretary of Commerce
on behalf of the United States of America. All rights reserved.
##CAS REGISTRY NO=614-97-1
##$NIST MASS SPEC NO=340742
##MOLFORM=C8 H8 N2
##MW=132
##$NIST SOURCE=MSDC
##XUNITS=M/Z
##YUNITS=RELATIVE INTENSITY
##XFACTOR=1
##YFACTOR=1
##FIRSTX=15
##LASTX=134
##FIRSTY=10
##MAXX=134
##MINX=15
##MAXY=9999
##MINY=10
##NPOINTS=57
##PEAK TABLE=(XY..XY)
15,10 26,70 27,180 30,10
37,140 38,240 39,450 40,60
41,60 42,10 49,70 50,631
51,1231 52,881 53,280 54,50
60,10 61,90 62,190 63,350
64,170 65,220 66,410 73,30
74,150 75,250 76,520 77,1511
78,671 79,80 80,20 86,20
87,30 88,40 89,60 90,60
91,20 92,10 93,20 99,20
100,10 101,10 102,170 103,240
104,1261 105,330 106,40 114,20
115,10 116,20 117,10 129,60
130,100 131,9999 132,8478 133,811
134,30
##END=
