##TITLE=3-Nitrochalcone
##JCAMP-DX=4.24
##DATA TYPE=MASS SPECTRUM
##ORIGIN=NIST Mass Spectrometry Data Center
##OWNER=NIST Mass Spectrometry Data Center
Collection (C) 2014 copyright by the U.S. Secretary of Commerce
on behalf of the United States of America. All rights reserved.
##CAS REGISTRY NO=614-48-2
##$NIST MASS SPEC NO=342564
##MOLFORM=C15 H11 N O3
##MW=253
##$NIST SOURCE=MSDC
##XUNITS=M/Z
##YUNITS=RELATIVE INTENSITY
##XFACTOR=1
##YFACTOR=1
##FIRSTX=12
##LASTX=255
##FIRSTY=40
##MAXX=255
##MINX=12
##MAXY=9999
##MINY=30
##NPOINTS=97
##PEAK TABLE=(XY..XY)
12,40 16,60 17,80 18,170
20,30 27,120 28,40 30,701
32,50 36,50 37,80 38,290
39,1011 40,110 44,90 46,130
50,3163 51,4874 52,881 53,210
54,40 61,110 62,500 63,1191
64,280 65,170 69,30 74,981
75,1481 76,2883 77,9999 78,851
82,40 86,110 87,240 88,170
89,691 90,260 91,110 92,50
97,50 98,110 99,80 101,701
102,3093 103,530 105,6836 106,561
107,50 115,180 116,50 118,671
119,60 126,80 127,90 129,771
130,480 131,130 139,150 146,190
148,210 149,50 150,130 151,300
152,470 153,150 163,60 164,70
165,470 166,130 167,90 174,40
176,1982 177,781 178,2422 179,761
180,340 181,90 189,100 190,100
191,70 194,90 195,60 206,1601
207,761 208,310 209,70 222,140
223,130 225,460 226,90 236,2032
237,400 252,1431 253,3283 254,621
255,70
##END=
