##TITLE=Benzene, 1-chloro-2-ethoxy-
##JCAMP-DX=4.24
##DATA TYPE=MASS SPECTRUM
##OWNER=NIST Mass Spectrometry Data Center
Collection (C) 2014 copyright by the U.S. Secretary of Commerce
on behalf of the United States of America. All rights reserved.
##CAS REGISTRY NO=614-72-2
##$NIST MASS SPEC NO=5364
##MOLFORM=C8 H9 Cl O
##MW=156
##$NIST SOURCE=MSDC
##XUNITS=M/Z
##YUNITS=RELATIVE INTENSITY
##XFACTOR=1
##YFACTOR=1
##FIRSTX=15
##LASTX=160
##FIRSTY=30
##MAXX=160
##MINX=15
##MAXY=9999
##MINY=10
##NPOINTS=107
##PEAK TABLE=(XY..XY)
15,30 16,10 18,10 25,10
26,70 27,410 28,10 29,510
30,10 31,10 35,10 36,10
37,70 38,180 39,350 40,20
41,20 42,10 43,50 44,10
45,10 46,10 47,20 48,10
49,60 50,180 51,180 52,20
53,80 54,10 55,30 56,10
57,10 60,10 61,70 62,130
63,701 64,1441 65,530 66,70
67,10 68,10 71,10 72,40
73,430 74,120 75,530 76,70
77,170 78,20 79,10 84,20
85,60 86,20 87,30 88,10
89,20 90,10 91,110 92,811
93,110 94,200 95,20 96,10
97,20 98,10 99,400 100,220
101,140 102,80 103,10 104,10
105,10 106,10 107,10 108,10
109,10 110,10 111,250 112,30
113,110 114,10 115,20 119,10
120,40 121,10 122,80 123,10
125,10 126,10 127,60 128,9999
129,701 130,3243 131,220 132,20
134,10 139,10 141,50 142,10
143,20 155,40 156,3053 157,280
158,991 159,90 160,10
##END=
