##TITLE=Benzenamine, N-methyl-N-nitroso-
##JCAMP-DX=4.24
##DATA TYPE=MASS SPECTRUM
##ORIGIN=Japan AIST/NIMC Database- Spectrum MS-NW-2854
##OWNER=NIST Mass Spectrometry Data Center
Collection (C) 2014 copyright by the U.S. Secretary of Commerce
on behalf of the United States of America. All rights reserved.
##CAS REGISTRY NO=614-00-6
##$NIST MASS SPEC NO=227857
##MOLFORM=C7 H8 N2 O
##MW=136
##$NIST SOURCE=MSDC
##XUNITS=M/Z
##YUNITS=RELATIVE INTENSITY
##XFACTOR=1
##YFACTOR=1
##FIRSTX=14
##LASTX=137
##FIRSTY=40
##MAXX=137
##MINX=14
##MAXY=9999
##MINY=10
##NPOINTS=70
##PEAK TABLE=(XY..XY)
14,40 15,109 16,10 17,10
18,20 26,60 27,189 28,389
29,20 30,1789 31,10 32,10
36,10 37,119 38,269 39,859
40,80 41,80 42,99 43,40
44,20 45,10 49,50 50,509
51,1369 52,419 53,229 54,80
55,20 57,10 59,10 60,10
61,50 62,109 63,359 64,289
65,719 66,209 67,30 73,40
74,159 75,109 76,119 77,5089
78,1189 79,1709 80,149 81,10
88,10 89,20 90,90 91,169
92,139 93,259 94,20 102,10
103,20 104,1109 105,829 106,9999
107,4439 108,339 109,10 118,10
119,10 120,30 121,30 135,20
136,339 137,30
##END=
