##TITLE=5-Phenyl-2,4-pentadienophenone
##JCAMP-DX=4.24
##DATA TYPE=MASS SPECTRUM
##ORIGIN=NIST Mass Spectrometry Data Center
##OWNER=NIST Mass Spectrometry Data Center
Collection (C) 2014 copyright by the U.S. Secretary of Commerce
on behalf of the United States of America. All rights reserved.
##CAS REGISTRY NO=614-57-3
##$NIST MASS SPEC NO=343159
##MOLFORM=C17 H14 O
##MW=234
##$NIST SOURCE=MSDC
##XUNITS=M/Z
##YUNITS=RELATIVE INTENSITY
##XFACTOR=1
##YFACTOR=1
##FIRSTX=14
##LASTX=236
##FIRSTY=70
##MAXX=236
##MINX=14
##MAXY=9999
##MINY=20
##NPOINTS=90
##PEAK TABLE=(XY..XY)
14,70 17,60 26,70 27,450
28,50 29,40 32,50 38,130
39,721 40,70 44,20 50,1041
51,3924 52,450 53,170 55,170
62,230 63,741 64,190 65,280
73,50 74,350 75,550 76,981
77,7126 78,991 79,90 86,60
87,150 88,110 89,721 90,200
91,2312 92,150 95,110 101,470
102,1321 103,561 105,4274 106,340
107,50 113,50 115,981 116,180
117,50 118,60 126,490 127,2562
128,6516 129,3043 130,370 131,170
132,70 139,70 150,40 151,60
152,90 155,150 156,871 157,3823
158,450 163,40 164,70 165,390
176,80 177,60 178,340 179,240
189,290 190,420 191,981 192,150
201,70 202,591 203,701 204,450
205,1171 206,500 207,130 213,40
215,1211 216,440 217,320 218,170
219,320 231,140 233,4424 234,9999
235,1882 236,210
##END=
