##TITLE=Ethyl 3-furoate
##JCAMP-DX=4.24
##DATA TYPE=MASS SPECTRUM
##ORIGIN=Chuck Anderson, Aldrich Chemical Co.
##OWNER=NIST Mass Spectrometry Data Center
Collection (C) 2014 copyright by the U.S. Secretary of Commerce
on behalf of the United States of America. All rights reserved.
##CAS REGISTRY NO=614-98-2
##$NIST MASS SPEC NO=118074
##MOLFORM=C7 H8 O3
##MW=140
##$NIST SOURCE=MSDC
##XUNITS=M/Z
##YUNITS=RELATIVE INTENSITY
##XFACTOR=1
##YFACTOR=1
##FIRSTX=14
##LASTX=142
##FIRSTY=11
##MAXX=142
##MINX=14
##MAXY=9999
##MINY=3
##NPOINTS=51
##PEAK TABLE=(XY..XY)
14,11 15,37 18,5 25,10
26,67 27,265 28,45 29,402
30,18 31,10 36,9 37,115
38,296 39,1054 40,65 41,37
42,23 43,48 44,12 45,208
49,6 50,13 51,3 53,54
54,3 55,69 56,19 65,19
66,120 67,394 68,138 69,43
83,23 84,73 93,3 94,29
95,9999 96,781 97,253 98,16
111,38 112,3312 113,158 114,23
122,12 125,427 126,24 139,14
140,1406 141,95 142,10
##END=
