##TITLE=1,2,3-Propanetriol, tribenzoate
##JCAMP-DX=4.24
##DATA TYPE=MASS SPECTRUM
##ORIGIN=Japan AIST/NIMC Database- Spectrum MS-NW-6492
##OWNER=NIST Mass Spectrometry Data Center
Collection (C) 2014 copyright by the U.S. Secretary of Commerce
on behalf of the United States of America. All rights reserved.
##CAS REGISTRY NO=614-33-5
##$NIST MASS SPEC NO=235020
##MOLFORM=C24 H20 O6
##MW=404
##$NIST SOURCE=MSDC
##XUNITS=M/Z
##YUNITS=RELATIVE INTENSITY
##XFACTOR=1
##YFACTOR=1
##FIRSTX=17
##LASTX=405
##FIRSTY=40
##MAXX=405
##MINX=17
##MAXY=9999
##MINY=10
##NPOINTS=47
##PEAK TABLE=(XY..XY)
17,40 18,239 27,30 28,20
29,10 32,10 39,20 41,10
44,30 50,70 51,269 52,20
55,20 74,10 75,20 76,70
77,1369 78,119 79,10 91,10
103,10 104,30 105,9999 106,799
107,50 118,30 122,70 123,10
149,10 152,10 153,10 160,90
161,10 163,10 177,269 178,40
181,10 210,30 227,50 228,10
269,169 270,30 282,1779 283,359
284,50 404,30 405,10
##END=
