##TITLE=Diazene, (4-chlorophenyl)phenyl-, (E)-
##JCAMP-DX=4.24
##DATA TYPE=MASS SPECTRUM
##ORIGIN=K.YAMADA CHIBA UNIVERSITY, YAYOI-CHO, CHIBA, JAPAN
##OWNER=NIST Mass Spectrometry Data Center
Collection (C) 2014 copyright by the U.S. Secretary of Commerce
on behalf of the United States of America. All rights reserved.
##CAS REGISTRY NO=6141-95-3
##$NIST MASS SPEC NO=38670
##MOLFORM=C12 H9 Cl N2
##MW=216
##$NIST SOURCE=MSDC
##XUNITS=M/Z
##YUNITS=RELATIVE INTENSITY
##XFACTOR=1
##YFACTOR=1
##FIRSTX=51
##LASTX=218
##FIRSTY=359
##MAXX=218
##MINX=51
##MAXY=9999
##MINY=40
##NPOINTS=14
##PEAK TABLE=(XY..XY)
51,359 75,3705 77,9999 105,1912
111,8845 113,2948 139,2629 141,876
151,637 152,1952 153,478 188,40
216,3586 218,1195
##END=
