##TITLE=Chloromethyl octanoate
##JCAMP-DX=4.24
##DATA TYPE=MASS SPECTRUM
##ORIGIN=ASES Database, Dalian Institute, P.R. China
##OWNER=NIST Mass Spectrometry Data Center
Collection (C) 2014 copyright by the U.S. Secretary of Commerce
on behalf of the United States of America. All rights reserved.
##CAS REGISTRY NO=61413-70-5
##$NIST MASS SPEC NO=145483
##MOLFORM=C9 H17 Cl O2
##MW=192
##$NIST SOURCE=MSDC
##XUNITS=M/Z
##YUNITS=RELATIVE INTENSITY
##XFACTOR=1
##YFACTOR=1
##FIRSTX=39
##LASTX=192
##FIRSTY=1581
##MAXX=192
##MINX=39
##MAXY=9999
##MINY=50
##NPOINTS=43
##PEAK TABLE=(XY..XY)
39,1581 41,6025 42,3272 43,6125
44,720 49,1251 51,600 55,8117
56,1891 57,4844 58,350 67,1211
68,470 69,2212 70,1121 71,650
72,6976 73,660 82,1491 83,1801
84,2932 85,3603 86,120 97,1261
98,2392 99,660 108,9999 109,1311
110,3212 111,530 121,3002 123,1020
126,1621 127,5274 128,590 135,650
137,180 149,1201 151,420 163,170
164,110 165,170 192,50
##END=
