##TITLE=Furan, 2-(1,1-dimethylethyl)-4-methyl-
##JCAMP-DX=4.24
##DATA TYPE=MASS SPECTRUM
##OWNER=NIST Mass Spectrometry Data Center
Collection (C) 2014 copyright by the U.S. Secretary of Commerce
on behalf of the United States of America. All rights reserved.
##CAS REGISTRY NO=6141-68-0
##$NIST MASS SPEC NO=3553
##MOLFORM=C9 H14 O
##MW=138
##$NIST SOURCE=MSDC
##XUNITS=M/Z
##YUNITS=RELATIVE INTENSITY
##XFACTOR=1
##YFACTOR=1
##FIRSTX=38
##LASTX=138
##FIRSTY=601
##MAXX=138
##MINX=38
##MAXY=9999
##MINY=500
##NPOINTS=22
##PEAK TABLE=(XY..XY)
38,601 39,4504 40,701 41,3803
43,701 50,1001 51,2102 52,901
53,2202 55,1601 63,601 65,1001
67,2202 77,1902 78,601 79,1601
91,901 93,500 95,1401 123,9999
124,901 138,1001
##END=
