##TITLE=Benzene, (3,3-diethoxy-1-propynyl)-
##JCAMP-DX=4.24
##DATA TYPE=MASS SPECTRUM
##OWNER=NIST Mass Spectrometry Data Center
Collection (C) 2014 copyright by the U.S. Secretary of Commerce
on behalf of the United States of America. All rights reserved.
##CAS REGISTRY NO=6142-95-6
##$NIST MASS SPEC NO=9284
##MOLFORM=C13 H16 O2
##MW=204
##$NIST SOURCE=MSDC
##XUNITS=M/Z
##YUNITS=RELATIVE INTENSITY
##XFACTOR=1
##YFACTOR=1
##FIRSTX=27
##LASTX=204
##FIRSTY=771
##MAXX=204
##MINX=27
##MAXY=9999
##MINY=30
##NPOINTS=36
##PEAK TABLE=(XY..XY)
27,771 28,1672 29,2462 30,130
31,601 39,210 40,30 41,90
42,60 43,380 44,200 45,330
46,110 47,210 51,661 52,230
53,210 63,270 65,150 69,150
74,160 75,561 76,581 77,2742
78,280 89,180 91,1041 102,2042
103,3633 113,130 114,300 130,1281
131,9999 159,9248 175,1541 204,510
##END=
