##TITLE=5-Phenylbicyclo[2.2.1]hept-2-ene
##JCAMP-DX=4.24
##DATA TYPE=MASS SPECTRUM
##ORIGIN=NIST Mass Spectrometry Data Center, 1990.
##OWNER=NIST Mass Spectrometry Data Center
Collection (C) 2014 copyright by the U.S. Secretary of Commerce
on behalf of the United States of America. All rights reserved.
##CAS REGISTRY NO=6143-30-2
##$NIST MASS SPEC NO=114668
##MOLFORM=C13 H14
##MW=170
##$NIST SOURCE=MSDC
##XUNITS=M/Z
##YUNITS=RELATIVE INTENSITY
##XFACTOR=1
##YFACTOR=1
##FIRSTX=26
##LASTX=171
##FIRSTY=39
##MAXX=171
##MINX=26
##MAXY=9999
##MINY=35
##NPOINTS=58
##PEAK TABLE=(XY..XY)
26,39 27,225 38,127 39,913
40,321 41,148 50,340 51,895
52,258 53,130 62,163 63,587
64,161 65,1143 66,5304 67,309
70,44 71,44 74,157 75,184
76,292 77,1207 78,1672 79,379
82,53 83,50 86,49 87,67
88,35 89,285 90,35 91,636
92,92 101,55 102,317 103,1452
104,9999 105,969 106,47 115,664
116,119 126,63 127,182 128,406
129,165 139,83 141,294 142,420
143,58 151,49 152,149 153,162
154,71 155,116 165,117 166,50
170,1550 171,226
##END=
