##TITLE=8-Phenyl-1-octyl chloride
##JCAMP-DX=4.24
##DATA TYPE=MASS SPECTRUM
##ORIGIN=NIST Mass Spectrometry Data Center, 1994
##OWNER=NIST Mass Spectrometry Data Center
Collection (C) 2014 copyright by the U.S. Secretary of Commerce
on behalf of the United States of America. All rights reserved.
##CAS REGISTRY NO=61440-32-2
##$NIST MASS SPEC NO=135937
##MOLFORM=C14 H21 Cl
##MW=224
##$NIST SOURCE=MSDC
##XUNITS=M/Z
##YUNITS=RELATIVE INTENSITY
##XFACTOR=1
##YFACTOR=1
##FIRSTX=14
##LASTX=227
##FIRSTY=3
##MAXX=227
##MINX=14
##MAXY=9999
##MINY=3
##NPOINTS=90
##PEAK TABLE=(XY..XY)
14,3 15,62 16,7 26,103
27,1566 28,338 29,1220 30,19
35,13 36,25 37,19 38,82
39,1450 40,221 41,2528 42,343
43,609 44,15 49,229 50,154
51,588 52,161 53,314 54,123
55,1673 56,154 57,185 58,13
61,27 62,71 63,426 64,13
65,1534 66,123 67,159 68,67
69,168 70,27 71,17 73,7
75,70 76,61 77,703 78,690
79,449 80,66 81,39 82,17
83,14 86,7 87,10 89,239
91,9999 92,8521 93,670 94,48
95,10 97,98 98,8 101,10
102,55 103,291 104,561 105,771
106,133 107,17 115,200 116,57
117,205 118,54 119,153 120,52
125,26 127,20 128,34 129,20
130,8 131,24 133,400 134,127
135,13 145,18 147,46 148,9
170,10 181,16 224,744 225,121
226,236 227,37
##END=
