##TITLE=L-Tryptophan, N(1)-(trimethylsilyl)-, trimethylsilyl ester
##JCAMP-DX=4.24
##DATA TYPE=MASS SPECTRUM
##ORIGIN=O A MAMER, MCGILL UNIVERSITY, MO
##OWNER=NIST Mass Spectrometry Data Center
Collection (C) 2014 copyright by the U.S. Secretary of Commerce
on behalf of the United States of America. All rights reserved.
##CAS REGISTRY NO=61445-27-0
##$NIST MASS SPEC NO=79179
##MOLFORM=C17 H28 N2 O2 Si2
##MW=348
##$NIST SOURCE=MSDC
##XUNITS=M/Z
##YUNITS=RELATIVE INTENSITY
##XFACTOR=1
##YFACTOR=1
##FIRSTX=26
##LASTX=355
##FIRSTY=102
##MAXX=355
##MINX=26
##MAXY=9999
##MINY=37
##NPOINTS=116
##PEAK TABLE=(XY..XY)
26,102 27,142 28,315 29,117
32,70 39,113 41,62 42,71
44,197 45,755 46,58 47,120
50,54 51,105 52,39 53,57
54,78 55,60 56,88 58,65
59,174 60,44 61,66 66,38
67,187 68,69 70,56 72,85
73,5114 74,599 75,814 76,88
77,134 78,67 79,104 80,64
81,193 82,88 84,58 85,65
87,51 91,102 93,84 94,39
95,142 96,62 97,94 100,64
102,49 103,84 105,84 107,39
109,85 110,42 111,49 115,79
116,47 117,169 118,39 119,69
120,38 121,38 123,54 128,41
129,156 130,543 131,204 132,185
133,86 134,39 135,58 141,56
142,40 143,56 144,48 145,139
146,73 148,78 149,69 156,49
157,53 158,51 159,58 160,39
170,52 172,58 174,54 184,46
186,83 187,52 188,53 189,42
190,37 199,40 200,243 201,105
202,9999 203,1926 204,612 205,101
208,43 215,62 218,83 219,219
220,59 222,57 230,94 231,216
232,51 233,37 291,72 333,73
337,56 348,142 349,46 355,58
##END=
