##TITLE=Octanoic acid, 3-hexenyl ester, (Z)-
##JCAMP-DX=4.24
##DATA TYPE=MASS SPECTRUM
##ORIGIN=W.Jennings, T.Shibamoto
##OWNER=NIST Mass Spectrometry Data Center
Collection (C) 2014 copyright by the U.S. Secretary of Commerce
on behalf of the United States of America. All rights reserved.
##CAS REGISTRY NO=61444-41-5
##$NIST MASS SPEC NO=285327
##MOLFORM=C14 H26 O2
##MW=226
##$NIST SOURCE=MSDC
##XUNITS=M/Z
##YUNITS=RELATIVE INTENSITY
##XFACTOR=1
##YFACTOR=1
##FIRSTX=29
##LASTX=128
##FIRSTY=70
##MAXX=128
##MINX=29
##MAXY=9999
##MINY=70
##NPOINTS=14
##PEAK TABLE=(XY..XY)
29,70 41,480 43,891 54,190
55,1591 57,2793 58,70 67,3994
68,190 81,190 82,9999 83,1291
127,1291 128,70
##END=
