##TITLE=(4-Chloro-2-methylphenoxy)acetic acid, pentafluorobenzyl ester
##JCAMP-DX=4.24
##DATA TYPE=MASS SPECTRUM
##ORIGIN=H.Meiring ET AL.J.Chromatogr.,644,357(1993)
##OWNER=NIST Mass Spectrometry Data Center
Collection (C) 2014 copyright by the U.S. Secretary of Commerce
on behalf of the United States of America. All rights reserved.
##CAS REGISTRY NO=61443-55-8
##$NIST MASS SPEC NO=281651
##MOLFORM=C16 H10 Cl F5 O3
##MW=380
##$NIST SOURCE=MSDC
##XUNITS=M/Z
##YUNITS=RELATIVE INTENSITY
##XFACTOR=1
##YFACTOR=1
##FIRSTX=101
##LASTX=383
##FIRSTY=991
##MAXX=383
##MINX=101
##MAXY=9999
##MINY=40
##NPOINTS=32
##PEAK TABLE=(XY..XY)
101,991 104,120 106,120 111,160
113,40 116,60 118,120 125,5065
127,1641 130,40 141,7116 142,490
143,2432 144,100 155,3853 156,300
157,1361 161,470 169,40 171,550
172,120 181,9999 182,691 195,120
198,1421 199,711 201,120 207,60
380,7277 381,901 382,2412 383,280
##END=
