##TITLE=Guanidine, N,N-dimethyl-
##JCAMP-DX=4.24
##DATA TYPE=MASS SPECTRUM
##ORIGIN=Japan AIST/NIMC Database- Spectrum MS-NW-6355
##OWNER=NIST Mass Spectrometry Data Center
Collection (C) 2014 copyright by the U.S. Secretary of Commerce
on behalf of the United States of America. All rights reserved.
##CAS REGISTRY NO=6145-42-2
##$NIST MASS SPEC NO=235168
##MOLFORM=C3 H9 N3
##MW=87
##$NIST SOURCE=MSDC
##XUNITS=M/Z
##YUNITS=RELATIVE INTENSITY
##XFACTOR=1
##YFACTOR=1
##FIRSTX=12
##LASTX=88
##FIRSTY=20
##MAXX=88
##MINX=12
##MAXY=9999
##MINY=10
##NPOINTS=37
##PEAK TABLE=(XY..XY)
12,20 13,60 14,129 15,929
16,50 17,430 18,539 26,30
27,199 28,1349 29,129 30,1649
31,30 39,60 40,229 41,399
42,2239 43,4689 44,9999 45,739
46,30 53,90 54,20 55,379
56,189 57,90 58,1569 59,319
60,10 67,10 69,259 70,109
71,539 72,2189 73,80 87,4029
88,239
##END=
