##TITLE=Dimethyl tetrathiooxalate
##JCAMP-DX=4.24
##DATA TYPE=MASS SPECTRUM
##ORIGIN=P. JEROSCHEWSKI, SEKT. CHEM., WILHELM-PIECK ROSTOCK UNIV., DDR
##OWNER=NIST Mass Spectrometry Data Center
Collection (C) 2014 copyright by the U.S. Secretary of Commerce
on behalf of the United States of America. All rights reserved.
##CAS REGISTRY NO=61485-47-0
##$NIST MASS SPEC NO=100019
##MOLFORM=C4 H6 S4
##MW=182
##$NIST SOURCE=MSDC
##XUNITS=M/Z
##YUNITS=RELATIVE INTENSITY
##XFACTOR=1
##YFACTOR=1
##FIRSTX=45
##LASTX=182
##FIRSTY=1700
##MAXX=182
##MINX=45
##MAXY=9999
##MINY=800
##NPOINTS=8
##PEAK TABLE=(XY..XY)
45,1700 59,800 76,1300 88,2600
91,9999 103,2000 118,1800 182,6000
##END=
