##TITLE=Phenol, 4-(2-propenyl)-, acetate
##JCAMP-DX=4.24
##DATA TYPE=MASS SPECTRUM
##ORIGIN=P.A. Leclercq, Lab. Instrum. Anal., Tech. Univ. Eindhoven, Netherlands
##OWNER=NIST Mass Spectrometry Data Center
Collection (C) 2014 copyright by the U.S. Secretary of Commerce
on behalf of the United States of America. All rights reserved.
##CAS REGISTRY NO=61499-22-7
##$NIST MASS SPEC NO=221594
##MOLFORM=C11 H12 O2
##MW=176
##$NIST SOURCE=MSDC
##XUNITS=M/Z
##YUNITS=RELATIVE INTENSITY
##XFACTOR=1
##YFACTOR=1
##FIRSTX=13
##LASTX=177
##FIRSTY=69
##MAXX=177
##MINX=13
##MAXY=9999
##MINY=19
##NPOINTS=82
##PEAK TABLE=(XY..XY)
13,69 14,409 15,1789 16,59
17,39 18,89 26,159 27,979
28,19 29,179 31,29 37,69
38,229 39,1209 40,159 41,379
43,3809 44,99 45,29 50,539
51,1059 52,519 53,449 54,59
55,549 56,49 57,59 61,59
62,199 63,559 64,159 65,459
66,139 67,79 68,59 69,39
71,29 73,19 74,139 75,139
77,2089 78,1009 79,1009 80,79
81,79 82,29 83,29 84,49
85,29 86,29 87,29 89,249
91,1409 92,319 93,219 94,149
95,49 96,19 98,29 101,29
102,139 103,579 104,239 105,1619
106,329 107,2079 108,329 109,109
115,759 116,649 117,869 119,1019
120,119 121,199 122,29 131,309
133,7990 134,9999 135,1019 136,119
176,909 177,109
##END=
