##TITLE=Butanoic acid, 3-hydroxy-3-methyl-, methyl ester
##JCAMP-DX=4.24
##DATA TYPE=MASS SPECTRUM
##ORIGIN=INST.OF CLINICAL BIOCHEM,RIKSHOSP,UNIV.OF OSLO,E.JELLUM,ET.A
##OWNER=NIST Mass Spectrometry Data Center
Collection (C) 2014 copyright by the U.S. Secretary of Commerce
on behalf of the United States of America. All rights reserved.
##CAS REGISTRY NO=6149-45-7
##$NIST MASS SPEC NO=24654
##MOLFORM=C6 H12 O3
##MW=132
##$NIST SOURCE=MSDC
##XUNITS=M/Z
##YUNITS=RELATIVE INTENSITY
##XFACTOR=1
##YFACTOR=1
##FIRSTX=27
##LASTX=117
##FIRSTY=800
##MAXX=117
##MINX=27
##MAXY=9999
##MINY=500
##NPOINTS=15
##PEAK TABLE=(XY..XY)
27,800 29,1100 31,1900 39,600
41,1000 42,1100 43,9999 58,600
59,7400 73,500 74,1600 75,600
85,2900 101,500 117,2400
##END=
