##TITLE=Phenol, 3-chloro-4-methyl-
##JCAMP-DX=4.24
##DATA TYPE=MASS SPECTRUM
##ORIGIN=NIST Mass Spectrometry Data Center, 1994
##OWNER=NIST Mass Spectrometry Data Center
Collection (C) 2014 copyright by the U.S. Secretary of Commerce
on behalf of the United States of America. All rights reserved.
##CAS REGISTRY NO=615-62-3
##$NIST MASS SPEC NO=134973
##MOLFORM=C7 H7 Cl O
##MW=142
##$NIST SOURCE=MSDC
##XUNITS=M/Z
##YUNITS=RELATIVE INTENSITY
##XFACTOR=1
##YFACTOR=1
##FIRSTX=13
##LASTX=145
##FIRSTY=26
##MAXX=145
##MINX=13
##MAXY=9999
##MINY=12
##NPOINTS=88
##PEAK TABLE=(XY..XY)
13,26 14,85 15,156 18,22
19,38 25,83 26,542 27,994
28,80 29,475 30,22 31,37
35,76 36,110 37,436 38,738
39,1286 40,97 41,47 42,98
43,171 44,83 47,57 48,57
49,442 50,1757 51,3097 52,966
53,1224 54,105 55,279 56,32
57,29 58,12 60,176 61,438
62,590 63,936 64,109 65,82
66,89 67,88 68,27 71,198
72,143 73,353 74,431 75,429
76,27 77,4498 78,1333 79,1028
80,99 81,83 84,73 85,122
86,134 87,239 88,54 89,243
90,32 91,26 96,15 97,62
99,56 100,28 101,23 105,538
107,9999 108,747 109,53 111,43
112,69 113,188 114,42 115,115
117,16 123,31 124,43 125,67
126,22 127,22 139,28 141,2392
142,4165 143,1111 144,1341 145,104
##END=
