##TITLE=3-Hexanol, 4-methyl-
##JCAMP-DX=4.24
##DATA TYPE=MASS SPECTRUM
##ORIGIN=NIST Mass Spectrometry Data Center, 1990.
##OWNER=NIST Mass Spectrometry Data Center
Collection (C) 2014 copyright by the U.S. Secretary of Commerce
on behalf of the United States of America. All rights reserved.
##CAS REGISTRY NO=615-29-2
##$NIST MASS SPEC NO=113975
##MOLFORM=C7 H16 O
##MW=116
##$NIST SOURCE=MSDC
##XUNITS=M/Z
##YUNITS=RELATIVE INTENSITY
##XFACTOR=1
##YFACTOR=1
##FIRSTX=15
##LASTX=98
##FIRSTY=193
##MAXX=98
##MINX=15
##MAXY=9999
##MINY=46
##NPOINTS=41
##PEAK TABLE=(XY..XY)
15,193 16,46 18,143 26,279
27,1888 28,921 29,2665 30,46
31,3196 32,82 39,1316 40,339
41,4645 42,439 43,1243 44,82
45,3895 46,94 50,94 51,156
52,62 53,327 54,62 55,1094
56,902 57,1883 58,2579 59,9999
60,332 65,73 67,160 69,2093
70,289 71,135 73,50 83,97
85,66 86,157 87,1536 88,96
98,211
##END=
