##TITLE=N,N'-Dimethyloxamide
##JCAMP-DX=4.24
##DATA TYPE=MASS SPECTRUM
##ORIGIN=NIST Mass Spectrometry Data Center, 1994
##OWNER=NIST Mass Spectrometry Data Center
Collection (C) 2014 copyright by the U.S. Secretary of Commerce
on behalf of the United States of America. All rights reserved.
##CAS REGISTRY NO=615-35-0
##$NIST MASS SPEC NO=133796
##MOLFORM=C4 H8 N2 O2
##MW=116
##$NIST SOURCE=MSDC
##XUNITS=M/Z
##YUNITS=RELATIVE INTENSITY
##XFACTOR=1
##YFACTOR=1
##FIRSTX=14
##LASTX=117
##FIRSTY=62
##MAXX=117
##MINX=14
##MAXY=9999
##MINY=62
##NPOINTS=22
##PEAK TABLE=(XY..XY)
14,62 15,818 16,81 27,287
28,1662 29,397 30,1563 31,541
32,94 40,103 41,75 42,104
43,75 44,1838 56,188 58,9999
59,2904 60,178 88,1804 89,92
116,4726 117,227
##END=
