##TITLE=2,5-Cyclohexadiene-1,4-dione, 2,5-dihydroxy-
##JCAMP-DX=4.24
##DATA TYPE=MASS SPECTRUM
##ORIGIN=NIST Mass Spectrometry Data Center, 1994
##OWNER=NIST Mass Spectrometry Data Center
Collection (C) 2014 copyright by the U.S. Secretary of Commerce
on behalf of the United States of America. All rights reserved.
##CAS REGISTRY NO=615-94-1
##$NIST MASS SPEC NO=133665
##MOLFORM=C6 H4 O4
##MW=140
##$NIST SOURCE=MSDC
##XUNITS=M/Z
##YUNITS=RELATIVE INTENSITY
##XFACTOR=1
##YFACTOR=1
##FIRSTX=13
##LASTX=142
##FIRSTY=138
##MAXX=142
##MINX=13
##MAXY=9999
##MINY=59
##NPOINTS=43
##PEAK TABLE=(XY..XY)
13,138 14,445 15,205 16,68
25,178 26,144 27,158 28,345
29,551 31,59 32,74 36,112
37,328 38,620 39,348 40,402
41,1687 42,3944 43,1187 44,111
45,85 49,139 50,120 51,146
52,85 53,1243 54,156 55,615
56,146 66,1220 67,160 69,3784
70,1709 71,2984 72,123 84,1472
94,596 95,370 111,151 112,902
140,9999 141,673 142,121
##END=
