##TITLE=N-dl-Leucylglycine
##JCAMP-DX=4.24
##DATA TYPE=MASS SPECTRUM
##ORIGIN=Japan AIST/NIMC Database- Spectrum MS-NW-1865
##OWNER=NIST Mass Spectrometry Data Center
Collection (C) 2014 copyright by the U.S. Secretary of Commerce
on behalf of the United States of America. All rights reserved.
##CAS REGISTRY NO=615-82-7
##$NIST MASS SPEC NO=233638
##MOLFORM=C8 H16 N2 O3
##MW=188
##$NIST SOURCE=MSDC
##XUNITS=M/Z
##YUNITS=RELATIVE INTENSITY
##XFACTOR=1
##YFACTOR=1
##FIRSTX=14
##LASTX=173
##FIRSTY=20
##MAXX=173
##MINX=14
##MAXY=9999
##MINY=10
##NPOINTS=113
##PEAK TABLE=(XY..XY)
14,20 15,99 16,20 17,30
18,119 26,30 27,519 28,799
29,379 30,4609 31,109 32,40
36,40 37,10 38,20 39,289
40,80 41,909 42,489 43,1879
44,4339 45,179 46,20 48,10
50,10 51,20 52,20 53,80
54,80 55,249 56,279 57,289
58,70 59,30 60,60 61,10
65,10 66,10 67,99 68,90
69,189 70,349 71,80 72,70
73,60 74,169 75,30 76,70
77,10 79,20 80,20 81,90
82,60 83,70 84,259 85,519
86,9999 87,609 88,30 91,10
93,10 94,10 95,40 96,50
97,80 98,80 99,70 100,20
101,10 104,20 105,10 107,20
108,10 109,20 110,50 111,30
112,30 113,179 114,549 115,40
116,10 117,10 121,10 123,10
124,10 125,20 126,20 127,90
128,20 129,20 130,10 131,239
132,50 133,10 135,10 137,10
138,10 139,10 140,10 141,10
142,10 143,20 144,10 145,10
153,10 154,10 155,10 156,20
157,10 168,10 170,10 171,10
173,10
##END=
