##TITLE=1,3-Benzenediamine, 4-methoxy-
##JCAMP-DX=4.24
##DATA TYPE=MASS SPECTRUM
##ORIGIN=Japan AIST/NIMC Database- Spectrum MS-NW-4167
##OWNER=NIST Mass Spectrometry Data Center
Collection (C) 2014 copyright by the U.S. Secretary of Commerce
on behalf of the United States of America. All rights reserved.
##CAS REGISTRY NO=615-05-4
##$NIST MASS SPEC NO=231469
##MOLFORM=C7 H10 N2 O
##MW=138
##$NIST SOURCE=MSDC
##XUNITS=M/Z
##YUNITS=RELATIVE INTENSITY
##XFACTOR=1
##YFACTOR=1
##FIRSTX=14
##LASTX=140
##FIRSTY=40
##MAXX=140
##MINX=14
##MAXY=9999
##MINY=10
##NPOINTS=69
##PEAK TABLE=(XY..XY)
14,40 15,269 25,10 26,60
27,129 28,119 29,30 30,70
39,289 40,199 41,589 42,359
43,90 44,30 46,10 47,259
48,20 49,10 50,70 51,239
52,419 53,379 54,339 55,50
56,10 61,20 62,30 63,80
64,40 65,109 66,149 67,499
68,429 69,99 75,10 76,40
77,40 78,489 79,129 80,389
81,60 82,50 90,50 91,20
92,159 93,99 94,90 95,3099
96,1099 97,60 105,40 106,40
107,179 108,60 109,139 110,529
111,40 120,10 121,20 122,80
123,9999 124,779 125,50 135,30
136,20 137,459 138,6179 139,559
140,30
##END=
