##TITLE=2H-Inden-2-one, 1,3-dihydro-
##JCAMP-DX=4.24
##DATA TYPE=MASS SPECTRUM
##ORIGIN=Japan AIST/NIMC Database- Spectrum MS-IW-2325
##OWNER=NIST Mass Spectrometry Data Center
Collection (C) 2014 copyright by the U.S. Secretary of Commerce
on behalf of the United States of America. All rights reserved.
##CAS REGISTRY NO=615-13-4
##$NIST MASS SPEC NO=235325
##MOLFORM=C9 H8 O
##MW=132
##$NIST SOURCE=MSDC
##XUNITS=M/Z
##YUNITS=RELATIVE INTENSITY
##XFACTOR=1
##YFACTOR=1
##FIRSTX=26
##LASTX=134
##FIRSTY=30
##MAXX=134
##MINX=26
##MAXY=9999
##MINY=10
##NPOINTS=65
##PEAK TABLE=(XY..XY)
26,30 27,119 28,109 29,90
31,20 37,60 38,149 39,479
40,30 41,20 42,10 43,40
44,70 45,99 46,119 49,60
50,549 51,1549 52,679 53,90
54,10 55,10 57,10 59,10
60,20 61,90 62,219 63,549
64,90 65,139 66,20 73,40
74,249 75,219 76,409 77,1429
78,2449 79,169 82,10 84,10
85,30 86,40 87,50 88,10
89,169 90,20 91,60 92,10
97,10 98,50 99,10 101,50
102,529 103,3289 104,9999 105,1069
106,50 107,10 108,10 115,40
116,10 131,20 132,4969 133,509
134,30
##END=
