##TITLE=Benzene, 1,2-diiodo-
##JCAMP-DX=4.24
##DATA TYPE=MASS SPECTRUM
##ORIGIN=NIST Mass Spectrometry Data Center, 1994
##OWNER=NIST Mass Spectrometry Data Center
Collection (C) 2014 copyright by the U.S. Secretary of Commerce
on behalf of the United States of America. All rights reserved.
##CAS REGISTRY NO=615-42-9
##$NIST MASS SPEC NO=133897
##MOLFORM=C6 H4 I2
##MW=330
##$NIST SOURCE=MSDC
##XUNITS=M/Z
##YUNITS=RELATIVE INTENSITY
##XFACTOR=1
##YFACTOR=1
##FIRSTX=25
##LASTX=332
##FIRSTY=37
##MAXX=332
##MINX=25
##MAXY=9999
##MINY=15
##NPOINTS=34
##PEAK TABLE=(XY..XY)
25,37 26,92 27,55 36,78
37,394 38,306 39,104 48,58
49,562 50,3691 51,237 60,36
61,94 62,37 63,16 73,464
74,1795 75,1304 76,4761 77,326
78,15 127,1834 128,88 152,22
153,17 164,32 165,263 176,81
177,40 203,2830 204,192 330,9999
331,658 332,20
##END=
