##TITLE=2-Furancarboxylic acid, 3-methylbutyl ester
##JCAMP-DX=4.24
##DATA TYPE=MASS SPECTRUM
##ORIGIN=Japan AIST/NIMC Database- Spectrum MS-IW-2219
##OWNER=NIST Mass Spectrometry Data Center
Collection (C) 2014 copyright by the U.S. Secretary of Commerce
on behalf of the United States of America. All rights reserved.
##CAS REGISTRY NO=615-12-3
##$NIST MASS SPEC NO=228029
##MOLFORM=C10 H14 O3
##MW=182
##$NIST SOURCE=MSDC
##XUNITS=M/Z
##YUNITS=RELATIVE INTENSITY
##XFACTOR=1
##YFACTOR=1
##FIRSTX=15
##LASTX=183
##FIRSTY=30
##MAXX=183
##MINX=15
##MAXY=9999
##MINY=10
##NPOINTS=92
##PEAK TABLE=(XY..XY)
15,30 26,50 27,619 28,199
29,779 30,20 31,149 36,10
37,99 38,339 39,1849 40,179
41,1489 42,1619 43,2479 44,109
45,219 46,30 50,20 51,90
52,10 53,169 54,99 55,4379
56,399 57,349 58,20 59,20
65,30 66,90 67,299 68,299
69,699 70,9709 71,1769 72,80
73,60 74,30 77,10 79,10
81,30 82,10 83,30 84,199
85,169 86,20 87,40 91,10
93,10 94,20 95,9999 96,739
97,139 98,10 99,30 100,20
101,139 103,10 107,10 109,10
110,90 111,20 112,3829 113,4109
114,269 115,50 117,40 119,30
123,10 124,20 125,50 126,40
127,10 128,10 129,10 133,10
136,10 137,30 138,10 139,129
140,10 141,10 144,10 149,10
153,30 157,20 159,30 165,30
167,20 168,10 182,169 183,20
##END=
