##TITLE=Nonanoic acid, pentyl ester
##JCAMP-DX=4.24
##DATA TYPE=MASS SPECTRUM
##ORIGIN=V.G. Zaikin, R.S.Borisov, TIPS RAS, Moscow, Russia
##OWNER=NIST Mass Spectrometry Data Center
Collection (C) 2014 copyright by the U.S. Secretary of Commerce
on behalf of the United States of America. All rights reserved.
##CAS REGISTRY NO=61531-45-1
##$NIST MASS SPEC NO=340271
##MOLFORM=C14 H28 O2
##MW=228
##$NIST SOURCE=MSDC
##XUNITS=M/Z
##YUNITS=RELATIVE INTENSITY
##XFACTOR=1
##YFACTOR=1
##FIRSTX=26
##LASTX=229
##FIRSTY=70
##MAXX=229
##MINX=26
##MAXY=9999
##MINY=10
##NPOINTS=93
##PEAK TABLE=(XY..XY)
26,70 27,611 29,1201 30,30
31,40 39,440 40,100 41,2332
42,1742 43,5085 44,230 45,110
53,140 54,170 55,2692 56,480
57,2542 58,170 59,110 60,1802
61,1581 62,40 65,10 66,10
67,300 68,220 69,1131 70,9999
71,3153 72,170 73,1902 74,190
75,50 80,10 81,340 82,50
83,400 84,390 85,120 86,70
87,601 88,50 89,380 90,10
93,20 94,40 95,90 96,190
97,440 98,320 99,70 100,50
101,330 102,280 103,290 104,10
109,10 111,90 112,160 113,40
114,10 115,1261 116,90 117,60
121,50 122,20 123,130 124,10
125,40 127,10 129,831 130,500
131,100 138,30 139,150 140,20
141,5535 142,571 143,280 144,20
156,10 157,60 158,711 159,8498
160,871 161,70 171,10 185,110
186,10 199,100 200,10 228,80
229,20
##END=
