##TITLE=trans-2,4-Dimethylthiane
##JCAMP-DX=4.24
##DATA TYPE=MASS SPECTRUM
##ORIGIN=V.G.Zaikin, TIPS, Russian Acad. Sci.
##OWNER=NIST Mass Spectrometry Data Center
Collection (C) 2014 copyright by the U.S. Secretary of Commerce
on behalf of the United States of America. All rights reserved.
##CAS REGISTRY NO=61568-42-1
##$NIST MASS SPEC NO=215073
##MOLFORM=C7 H14 S
##MW=130
##$NIST SOURCE=MSDC
##XUNITS=M/Z
##YUNITS=RELATIVE INTENSITY
##XFACTOR=1
##YFACTOR=1
##FIRSTX=51
##LASTX=133
##FIRSTY=300
##MAXX=133
##MINX=51
##MAXY=9999
##MINY=20
##NPOINTS=31
##PEAK TABLE=(XY..XY)
51,300 53,400 55,5805 59,2402
60,2602 61,2302 67,1201 68,600
69,2602 70,1301 73,1451 74,1501
75,1801 81,5504 82,600 83,500
87,900 88,200 96,1301 97,400
101,3252 102,1000 103,200 115,9999
116,700 117,500 129,150 130,5605
131,480 132,261 133,20
##END=
