##TITLE=Propane, 2,2-bis(methylthio)-
##JCAMP-DX=4.24
##DATA TYPE=MASS SPECTRUM
##OWNER=NIST Mass Spectrometry Data Center
Collection (C) 2014 copyright by the U.S. Secretary of Commerce
on behalf of the United States of America. All rights reserved.
##CAS REGISTRY NO=6156-18-9
##$NIST MASS SPEC NO=3416
##MOLFORM=C5 H12 S2
##MW=136
##$NIST SOURCE=MSDC
##XUNITS=M/Z
##YUNITS=RELATIVE INTENSITY
##XFACTOR=1
##YFACTOR=1
##FIRSTX=14
##LASTX=139
##FIRSTY=50
##MAXX=139
##MINX=14
##MAXY=9999
##MINY=10
##NPOINTS=64
##PEAK TABLE=(XY..XY)
14,50 15,220 16,40 26,20
29,70 32,80 33,70 34,110
35,50 37,40 38,90 39,911
40,150 41,3023 42,130 43,100
44,480 45,1621 46,450 47,1571
48,1231 49,3293 50,110 51,140
53,50 54,210 55,791 56,40
57,50 58,240 59,821 60,210
61,420 62,30 63,20 64,20
69,40 71,100 72,50 73,861
74,260 75,80 76,130 78,10
79,60 80,10 81,10 87,30
88,901 89,9999 90,571 91,480
92,20 94,20 105,10 106,20
119,10 121,100 122,10 123,10
136,1041 137,80 138,100 139,10
##END=
