##TITLE=cis-2-Ethyl-3-methylthiophane
##JCAMP-DX=4.24
##DATA TYPE=MASS SPECTRUM
##ORIGIN=V.G.Zaikin, TIPS, Russian Acad. Sci., Moscow
##OWNER=NIST Mass Spectrometry Data Center
Collection (C) 2014 copyright by the U.S. Secretary of Commerce
on behalf of the United States of America. All rights reserved.
##CAS REGISTRY NO=61568-37-4
##$NIST MASS SPEC NO=216626
##MOLFORM=C7 H14 S
##MW=130
##$NIST SOURCE=MSDC
##XUNITS=M/Z
##YUNITS=RELATIVE INTENSITY
##XFACTOR=1
##YFACTOR=1
##FIRSTX=38
##LASTX=133
##FIRSTY=100
##MAXX=133
##MINX=38
##MAXY=9999
##MINY=10
##NPOINTS=66
##PEAK TABLE=(XY..XY)
38,100 39,1321 40,300 41,2662
42,380 43,210 44,300 45,1381
46,750 47,750 48,30 50,90
51,350 52,50 53,410 54,170
55,1771 56,310 57,170 58,240
59,1781 60,410 61,410 62,60
63,50 64,50 65,170 66,40
67,1631 68,150 69,650 70,180
71,270 72,70 73,1040 74,540
75,150 76,50 77,130 78,20
79,90 80,30 81,620 82,110
83,160 84,100 85,320 86,50
87,250 88,270 95,140 96,140
97,120 99,190 100,120 101,9999
102,810 103,490 104,60 115,200
116,20 129,110 130,2442 131,210
132,120 133,10
##END=
