##TITLE=cis-2,4-Dimethylthiane
##JCAMP-DX=4.24
##DATA TYPE=MASS SPECTRUM
##ORIGIN=V.G.Zaikin, TIPS, Russian Acad. Sci.
##OWNER=NIST Mass Spectrometry Data Center
Collection (C) 2014 copyright by the U.S. Secretary of Commerce
on behalf of the United States of America. All rights reserved.
##CAS REGISTRY NO=61568-43-2
##$NIST MASS SPEC NO=215072
##MOLFORM=C7 H14 S
##MW=130
##$NIST SOURCE=MSDC
##XUNITS=M/Z
##YUNITS=RELATIVE INTENSITY
##XFACTOR=1
##YFACTOR=1
##FIRSTX=53
##LASTX=133
##FIRSTY=1101
##MAXX=133
##MINX=53
##MAXY=9999
##MINY=20
##NPOINTS=33
##PEAK TABLE=(XY..XY)
53,1101 54,600 55,6305 56,700
58,500 59,2402 60,2902 61,2602
67,1401 68,700 69,3102 70,1501
71,400 73,1601 74,1801 75,2201
81,5905 82,600 83,600 87,1000
88,300 96,1101 97,600 101,4403
102,1401 103,400 115,9999 116,950
117,600 130,6305 131,540 132,300
133,20
##END=
