##TITLE=N-1H-Tetrazol-5-ylacetamide
##JCAMP-DX=4.24
##DATA TYPE=MASS SPECTRUM
##ORIGIN=James Little,Eastman Chem.Co.,Kingsport,TN
##OWNER=NIST Mass Spectrometry Data Center
Collection (C) 2014 copyright by the U.S. Secretary of Commerce
on behalf of the United States of America. All rights reserved.
##CAS REGISTRY NO=6158-77-6
##$NIST MASS SPEC NO=288688
##MOLFORM=C3 H5 N5 O
##MW=127
##$NIST SOURCE=MSDC
##XUNITS=M/Z
##YUNITS=RELATIVE INTENSITY
##XFACTOR=1
##YFACTOR=1
##FIRSTX=27
##LASTX=129
##FIRSTY=340
##MAXX=129
##MINX=27
##MAXY=9999
##MINY=40
##NPOINTS=34
##PEAK TABLE=(XY..XY)
27,340 28,1371 29,360 30,100
40,80 41,320 42,611 43,9999
44,631 45,290 55,150 56,90
57,460 58,60 60,90 67,60
69,270 70,70 71,100 73,130
81,60 83,90 84,60 85,641
86,160 95,40 96,50 97,70
98,40 99,290 112,50 127,1682
128,320 129,40
##END=
