##TITLE=Benzoic acid, 4-benzoyl-, methyl ester
##JCAMP-DX=4.24
##DATA TYPE=MASS SPECTRUM
##OWNER=NIST Mass Spectrometry Data Center
Collection (C) 2014 copyright by the U.S. Secretary of Commerce
on behalf of the United States of America. All rights reserved.
##CAS REGISTRY NO=6158-54-9
##$NIST MASS SPEC NO=11577
##MOLFORM=C15 H12 O3
##MW=240
##$NIST SOURCE=MSDC
##XUNITS=M/Z
##YUNITS=RELATIVE INTENSITY
##XFACTOR=1
##YFACTOR=1
##FIRSTX=50
##LASTX=241
##FIRSTY=601
##MAXX=241
##MINX=50
##MAXY=9999
##MINY=100
##NPOINTS=23
##PEAK TABLE=(XY..XY)
50,601 51,1001 52,100 75,500
76,1001 77,5405 78,300 103,601
104,500 105,9999 106,701 119,300
120,300 135,601 152,400 153,200
163,4704 164,500 181,801 209,1501
210,200 240,4404 241,701
##END=
