##TITLE=1-Propanol, 2,3-dichloro-
##JCAMP-DX=4.24
##DATA TYPE=MASS SPECTRUM
##ORIGIN=NIST Mass Spectrometry Data Center, 1998.
##OWNER=NIST Mass Spectrometry Data Center
Collection (C) 2014 copyright by the U.S. Secretary of Commerce
on behalf of the United States of America. All rights reserved.
##CAS REGISTRY NO=616-23-9
##$NIST MASS SPEC NO=291278
##MOLFORM=C3 H6 Cl2 O
##MW=128
##$NIST SOURCE=MSDC
##XUNITS=M/Z
##YUNITS=RELATIVE INTENSITY
##XFACTOR=1
##YFACTOR=1
##FIRSTX=13
##LASTX=129
##FIRSTY=10
##MAXX=129
##MINX=13
##MAXY=9999
##MINY=10
##NPOINTS=73
##PEAK TABLE=(XY..XY)
13,10 14,20 15,80 24,10
25,60 26,380 27,1110 28,110
29,1190 30,120 31,2200 32,30
35,110 36,100 37,210 38,250
39,590 40,60 41,90 42,140
43,380 44,20 47,70 48,90
49,560 50,50 51,180 52,10
53,80 54,10 55,270 56,30
57,1010 58,40 59,10 60,140
61,780 62,9999 63,970 64,5309
65,380 66,700 67,50 72,10
73,40 74,10 75,260 76,20
77,80 78,40 79,40 80,10
81,10 83,30 85,10 89,10
91,70 92,750 93,50 94,240
95,20 96,50 97,80 98,80
99,50 100,30 101,10 102,10
110,10 111,10 112,10 127,10
129,10
##END=
