##TITLE=L-Cysteine, N-acetyl-
##JCAMP-DX=4.24
##DATA TYPE=MASS SPECTRUM
##ORIGIN=Japan AIST/NIMC Database- Spectrum MS-NW-2509
##OWNER=NIST Mass Spectrometry Data Center
Collection (C) 2014 copyright by the U.S. Secretary of Commerce
on behalf of the United States of America. All rights reserved.
##CAS REGISTRY NO=616-91-1
##$NIST MASS SPEC NO=230766
##MOLFORM=C5 H9 N O3 S
##MW=163
##$NIST SOURCE=MSDC
##XUNITS=M/Z
##YUNITS=RELATIVE INTENSITY
##XFACTOR=1
##YFACTOR=1
##FIRSTX=14
##LASTX=165
##FIRSTY=70
##MAXX=165
##MINX=14
##MAXY=9999
##MINY=10
##NPOINTS=79
##PEAK TABLE=(XY..XY)
14,70 15,719 18,29 19,20
26,60 27,249 28,99 29,99
30,359 31,20 33,50 34,90
35,30 36,10 38,10 39,20
40,80 41,229 42,829 43,8359
44,949 45,399 46,249 47,499
48,119 49,20 52,10 53,10
54,20 55,70 56,90 57,689
58,309 59,1299 60,9999 61,269
62,20 68,20 69,10 70,289
71,169 72,20 73,30 74,3179
75,589 76,2609 77,90 78,109
83,10 84,179 85,289 86,779
87,289 88,289 89,10 92,10
99,869 100,249 101,99 102,60
103,30 104,90 105,20 111,30
112,20 116,70 117,209 118,329
119,20 120,70 121,149 122,20
129,30 130,99 145,60 146,10
163,259 164,30 165,10
##END=
