##TITLE=2-Pyrrolidinone
##JCAMP-DX=4.24
##DATA TYPE=MASS SPECTRUM
##ORIGIN=Japan AIST/NIMC Database- Spectrum MS-NW-4213
##OWNER=NIST Mass Spectrometry Data Center
Collection (C) 2014 copyright by the U.S. Secretary of Commerce
on behalf of the United States of America. All rights reserved.
##CAS REGISTRY NO=616-45-5
##$NIST MASS SPEC NO=227720
##MOLFORM=C4 H7 N O
##MW=85
##$NIST SOURCE=MSDC
##XUNITS=M/Z
##YUNITS=RELATIVE INTENSITY
##XFACTOR=1
##YFACTOR=1
##FIRSTX=12
##LASTX=87
##FIRSTY=10
##MAXX=87
##MINX=12
##MAXY=9999
##MINY=10
##NPOINTS=45
##PEAK TABLE=(XY..XY)
12,10 13,30 14,149 15,299
16,20 17,10 18,30 24,20
25,90 26,659 27,1609 28,4549
29,1499 30,6979 31,109 32,30
36,20 37,119 38,169 39,939
40,1349 41,6179 42,7389 43,279
44,219 50,10 51,60 52,149
53,70 54,219 55,389 56,1149
57,159 58,20 66,50 67,20
68,20 69,10 70,10 82,10
83,30 84,1939 85,9999 86,559
87,30
##END=
