##TITLE=1H-Imidazole, 1-methyl-
##JCAMP-DX=4.24
##DATA TYPE=MASS SPECTRUM
##ORIGIN=Japan AIST/NIMC Database- Spectrum MS-NW-4944
##OWNER=NIST Mass Spectrometry Data Center
Collection (C) 2014 copyright by the U.S. Secretary of Commerce
on behalf of the United States of America. All rights reserved.
##CAS REGISTRY NO=616-47-7
##$NIST MASS SPEC NO=230021
##MOLFORM=C4 H6 N2
##MW=82
##$NIST SOURCE=MSDC
##XUNITS=M/Z
##YUNITS=RELATIVE INTENSITY
##XFACTOR=1
##YFACTOR=1
##FIRSTX=12
##LASTX=84
##FIRSTY=30
##MAXX=84
##MINX=12
##MAXY=9999
##MINY=10
##NPOINTS=37
##PEAK TABLE=(XY..XY)
12,30 13,60 14,99 15,829
16,10 24,20 25,80 26,679
27,719 28,1509 29,319 30,149
36,50 37,10 38,149 39,269
40,1589 41,1469 42,2379 43,60
44,10 50,30 51,179 52,419
53,219 54,2239 55,1049 56,90
66,80 67,129 68,20 79,20
80,10 81,1599 82,9999 83,519
84,10
##END=
