##TITLE=Benzenamine, 4-ethoxy-2-nitro-
##JCAMP-DX=4.24
##DATA TYPE=MASS SPECTRUM
##ORIGIN=Japan AIST/NIMC Database- Spectrum MS-IW-7738
##OWNER=NIST Mass Spectrometry Data Center
Collection (C) 2014 copyright by the U.S. Secretary of Commerce
on behalf of the United States of America. All rights reserved.
##CAS REGISTRY NO=616-86-4
##$NIST MASS SPEC NO=241420
##MOLFORM=C8 H10 N2 O3
##MW=182
##$NIST SOURCE=MSDC
##XUNITS=M/Z
##YUNITS=RELATIVE INTENSITY
##XFACTOR=1
##YFACTOR=1
##FIRSTX=26
##LASTX=184
##FIRSTY=30
##MAXX=184
##MINX=26
##MAXY=9999
##MINY=10
##NPOINTS=79
##PEAK TABLE=(XY..XY)
26,30 27,139 28,109 29,179
30,20 38,20 39,80 40,20
41,70 42,20 43,20 44,20
46,20 50,40 51,149 52,799
53,359 54,60 55,40 61,10
62,50 63,129 64,99 65,90
66,40 67,70 68,569 69,30
70,20 75,10 76,30 77,30
78,149 79,649 80,389 81,449
82,40 83,30 89,10 90,80
91,199 92,70 93,60 94,30
95,239 96,189 97,10 98,20
106,219 107,1659 108,4419 109,319
110,20 120,60 121,20 122,20
123,99 124,129 125,20 133,10
134,20 135,40 136,399 137,179
138,20 148,10 152,10 153,2199
154,6429 155,489 156,50 164,30
165,20 166,50 167,10 181,40
182,9999 183,1009 184,109
##END=
