##TITLE=Sulfurous acid, dimethyl ester
##JCAMP-DX=4.24
##DATA TYPE=MASS SPECTRUM
##ORIGIN=Japan AIST/NIMC Database- Spectrum MS-NW- 988
##OWNER=NIST Mass Spectrometry Data Center
Collection (C) 2014 copyright by the U.S. Secretary of Commerce
on behalf of the United States of America. All rights reserved.
##CAS REGISTRY NO=616-42-2
##$NIST MASS SPEC NO=230475
##MOLFORM=C2 H6 O3 S
##MW=110
##$NIST SOURCE=MSDC
##XUNITS=M/Z
##YUNITS=RELATIVE INTENSITY
##XFACTOR=1
##YFACTOR=1
##FIRSTX=14
##LASTX=112
##FIRSTY=40
##MAXX=112
##MINX=14
##MAXY=9999
##MINY=10
##NPOINTS=34
##PEAK TABLE=(XY..XY)
14,40 15,3319 16,20 17,10
18,109 28,299 29,1039 30,149
31,319 32,70 33,20 34,10
44,40 45,889 46,449 47,10
48,349 49,109 50,109 63,40
64,159 65,359 66,10 67,20
73,10 78,40 79,9999 80,349
81,489 82,10 95,10 110,1289
111,40 112,70
##END=
