##TITLE=Hexanoic acid, 2-bromo-
##JCAMP-DX=4.24
##DATA TYPE=MASS SPECTRUM
##ORIGIN=Japan AIST/NIMC Database- Spectrum MS-NW-3304
##OWNER=NIST Mass Spectrometry Data Center
Collection (C) 2014 copyright by the U.S. Secretary of Commerce
on behalf of the United States of America. All rights reserved.
##CAS REGISTRY NO=616-05-7
##$NIST MASS SPEC NO=231308
##MOLFORM=C6 H11 Br O2
##MW=194
##$NIST SOURCE=MSDC
##XUNITS=M/Z
##YUNITS=RELATIVE INTENSITY
##XFACTOR=1
##YFACTOR=1
##FIRSTX=12
##LASTX=197
##FIRSTY=20
##MAXX=197
##MINX=12
##MAXY=9999
##MINY=10
##NPOINTS=147
##PEAK TABLE=(XY..XY)
12,20 13,10 14,50 15,269
16,30 17,10 18,30 25,40
26,599 27,4789 28,709 29,4199
30,129 31,309 32,109 33,10
35,10 36,99 37,169 38,409
39,3779 40,869 41,9019 42,4839
43,2579 44,1079 45,1309 46,60
47,40 48,10 49,40 50,209
51,259 52,129 53,849 54,279
55,3899 56,409 57,1439 58,449
59,549 60,1299 61,109 62,60
63,70 64,20 65,129 66,70
67,499 68,839 69,4459 70,639
71,479 72,99 73,8979 74,389
75,70 76,20 77,50 78,20
79,559 80,1459 81,549 82,1449
83,60 84,30 85,579 86,309
87,3529 88,289 89,30 91,20
92,20 93,80 94,50 95,149
96,219 97,959 98,169 99,1099
100,99 101,40 102,10 104,10
105,50 106,149 107,229 108,149
109,229 110,10 111,40 112,20
113,90 114,459 115,3329 116,239
117,30 119,90 120,359 121,149
122,379 123,99 124,10 125,30
126,10 127,10 128,20 129,10
131,10 133,70 134,10 135,80
136,10 137,20 138,9999 139,259
140,9839 141,259 142,50 147,30
148,10 149,60 150,10 151,409
152,30 153,409 154,20 162,10
163,30 164,10 165,219 166,10
167,209 168,10 169,10 172,30
175,10 176,20 177,99 178,30
179,90 180,10 181,10 194,40
195,10 196,40 197,10
##END=
