##TITLE=2,4-Imidazolidinedione, 1-methyl-
##JCAMP-DX=4.24
##DATA TYPE=MASS SPECTRUM
##OWNER=NIST Mass Spectrometry Data Center
Collection (C) 2014 copyright by the U.S. Secretary of Commerce
on behalf of the United States of America. All rights reserved.
##CAS REGISTRY NO=616-04-6
##$NIST MASS SPEC NO=1840
##MOLFORM=C4 H6 N2 O2
##MW=114
##$NIST SOURCE=MSDC
##XUNITS=M/Z
##YUNITS=RELATIVE INTENSITY
##XFACTOR=1
##YFACTOR=1
##FIRSTX=41
##LASTX=115
##FIRSTY=500
##MAXX=115
##MINX=41
##MAXY=9999
##MINY=100
##NPOINTS=10
##PEAK TABLE=(XY..XY)
41,500 42,3803 43,3904 44,100
55,100 70,300 71,300 86,400
114,9999 115,701
##END=
