##TITLE=2-Butanone, 1-chloro-
##JCAMP-DX=4.24
##DATA TYPE=MASS SPECTRUM
##ORIGIN=COMPAGNIE FRANCAISE DE RAFFINAGE, FRANCE.
##OWNER=NIST Mass Spectrometry Data Center
Collection (C) 2014 copyright by the U.S. Secretary of Commerce
on behalf of the United States of America. All rights reserved.
##CAS REGISTRY NO=616-27-3
##$NIST MASS SPEC NO=1379
##MOLFORM=C4 H7 Cl O
##MW=106
##$NIST SOURCE=MSDC
##XUNITS=M/Z
##YUNITS=RELATIVE INTENSITY
##XFACTOR=1
##YFACTOR=1
##FIRSTX=27
##LASTX=109
##FIRSTY=3623
##MAXX=109
##MINX=27
##MAXY=9999
##MINY=6
##NPOINTS=62
##PEAK TABLE=(XY..XY)
27,3623 28,1107 29,9999 30,309
31,80 35,43 36,154 37,117
38,169 39,404 40,66 41,504
42,1365 43,1516 44,207 45,28
46,10 47,64 48,50 49,1308
50,194 51,475 52,45 53,48
54,67 55,208 56,111 57,9938
58,426 59,33 60,24 61,31
62,17 63,64 64,12 65,24
67,12 68,9 69,35 70,52
71,175 72,41 73,13 75,10
76,106 77,921 78,68 79,304
80,12 81,12 82,7 83,17
84,10 85,16 91,58 92,6
93,17 105,18 106,591 107,33
108,196 109,13
##END=
