##TITLE=2-Pentene, 3-methyl-, (E)-
##JCAMP-DX=4.24
##DATA TYPE=MASS SPECTRUM
##OWNER=NIST Mass Spectrometry Data Center
Collection (C) 2014 copyright by the U.S. Secretary of Commerce
on behalf of the United States of America. All rights reserved.
##CAS REGISTRY NO=616-12-6
##$NIST MASS SPEC NO=491
##MOLFORM=C6 H12
##MW=84
##$NIST SOURCE=MSDC
##XUNITS=M/Z
##YUNITS=RELATIVE INTENSITY
##XFACTOR=1
##YFACTOR=1
##FIRSTX=1
##LASTX=86
##FIRSTY=40
##MAXX=86
##MINX=1
##MAXY=9999
##MINY=10
##NPOINTS=58
##PEAK TABLE=(XY..XY)
1,40 2,40 12,10 13,10
14,30 15,480 16,10 26,240
27,3233 28,681 29,1842 30,50
31,10 32,10 33,10 36,10
37,50 38,160 39,2783 40,510
41,9999 42,1401 43,771 44,30
49,10 50,180 51,430 52,200
53,1141 54,450 55,4424 56,2132
57,110 58,10 61,10 62,20
63,60 64,10 65,150 66,80
67,641 68,140 69,7987 70,440
71,10 72,10 74,10 75,10
77,50 78,10 79,40 80,10
81,40 82,10 83,100 84,3793
85,240 86,10
##END=
