##TITLE=4-Hydroxy-3-nitrobenzoic acid
##JCAMP-DX=4.24
##DATA TYPE=MASS SPECTRUM
##ORIGIN=Japan AIST/NIMC Database- Spectrum MS-NW-9576
##OWNER=NIST Mass Spectrometry Data Center
Collection (C) 2014 copyright by the U.S. Secretary of Commerce
on behalf of the United States of America. All rights reserved.
##CAS REGISTRY NO=616-82-0
##$NIST MASS SPEC NO=236022
##MOLFORM=C7 H5 N O5
##MW=183
##$NIST SOURCE=MSDC
##XUNITS=M/Z
##YUNITS=RELATIVE INTENSITY
##XFACTOR=1
##YFACTOR=1
##FIRSTX=16
##LASTX=186
##FIRSTY=30
##MAXX=186
##MINX=16
##MAXY=9999
##MINY=10
##NPOINTS=101
##PEAK TABLE=(XY..XY)
16,30 18,20 26,30 27,159
28,70 29,50 30,259 31,10
36,10 37,99 38,209 39,399
40,30 41,70 42,20 43,40
44,60 45,149 46,10 49,30
50,159 51,299 52,239 53,689
54,70 55,189 56,10 60,10
61,129 62,379 63,849 64,259
65,80 66,80 67,40 68,30
69,239 70,40 71,109 73,30
74,70 75,90 76,60 77,109
78,50 79,199 80,169 81,799
82,70 83,20 90,30 91,479
92,329 93,99 94,50 95,30
96,40 97,449 98,20 99,60
101,20 104,10 106,10 107,169
108,269 109,489 110,50 111,30
115,20 118,30 119,849 120,619
121,149 122,20 123,20 125,499
126,40 135,20 136,509 137,319
138,109 139,80 140,10 141,20
143,10 149,50 150,99 151,10
153,949 154,80 155,20 156,50
157,10 158,20 166,1819 167,199
168,20 183,9999 184,859 185,129
186,10
##END=
