##TITLE=Bicyclo[4.2.0]oct-7-ene
##JCAMP-DX=4.24
##DATA TYPE=MASS SPECTRUM
##ORIGIN=L.L. MILLER, DEP. CHEM., UNIV. MINNESOTA, MINN., USA
##OWNER=NIST Mass Spectrometry Data Center
Collection (C) 2014 copyright by the U.S. Secretary of Commerce
on behalf of the United States of America. All rights reserved.
##CAS REGISTRY NO=616-10-4
##$NIST MASS SPEC NO=105780
##MOLFORM=C8 H12
##MW=108
##$NIST SOURCE=MSDC
##XUNITS=M/Z
##YUNITS=RELATIVE INTENSITY
##XFACTOR=1
##YFACTOR=1
##FIRSTX=37
##LASTX=108
##FIRSTY=200
##MAXX=108
##MINX=37
##MAXY=9999
##MINY=100
##NPOINTS=30
##PEAK TABLE=(XY..XY)
37,200 38,600 39,6600 40,1000
41,4200 42,300 50,800 51,1700
52,1000 53,1300 54,1600 55,200
62,200 63,400 65,1700 66,2600
67,5800 68,200 77,2900 78,1100
79,9999 80,6500 81,400 82,100
91,1600 92,200 93,4000 94,200
107,200 108,1000
##END=
