##TITLE=Hydrazine, 1,1-diethyl-
##JCAMP-DX=4.24
##DATA TYPE=MASS SPECTRUM
##ORIGIN=ATLAS OF MASS SPECTRA OF ORGANIC COMPOUNDS, V. A. KOPTYUG, ED.
##OWNER=NIST Mass Spectrometry Data Center
Collection (C) 2014 copyright by the U.S. Secretary of Commerce
on behalf of the United States of America. All rights reserved.
##CAS REGISTRY NO=616-40-0
##$NIST MASS SPEC NO=64426
##MOLFORM=C4 H12 N2
##MW=88
##$NIST SOURCE=MSDC
##XUNITS=M/Z
##YUNITS=RELATIVE INTENSITY
##XFACTOR=1
##YFACTOR=1
##FIRSTX=26
##LASTX=89
##FIRSTY=250
##MAXX=89
##MINX=26
##MAXY=9999
##MINY=50
##NPOINTS=27
##PEAK TABLE=(XY..XY)
26,250 27,1250 28,1750 29,1620
30,1250 31,810 39,50 40,110
41,340 42,2250 43,910 44,1750
45,4630 46,100 54,60 55,60
56,1000 57,160 58,260 59,830
70,150 71,70 73,9999 74,480
87,490 88,4880 89,480
##END=
