##TITLE=1,1'-Biphenyl, 3,3'-dimethoxy-
##JCAMP-DX=4.24
##DATA TYPE=MASS SPECTRUM
##ORIGIN=Japan AIST/NIMC Database- Spectrum MS-NW-8790
##OWNER=NIST Mass Spectrometry Data Center
Collection (C) 2014 copyright by the U.S. Secretary of Commerce
on behalf of the United States of America. All rights reserved.
##CAS REGISTRY NO=6161-50-8
##$NIST MASS SPEC NO=238415
##MOLFORM=C14 H14 O2
##MW=214
##$NIST SOURCE=MSDC
##XUNITS=M/Z
##YUNITS=RELATIVE INTENSITY
##XFACTOR=1
##YFACTOR=1
##FIRSTX=15
##LASTX=217
##FIRSTY=50
##MAXX=217
##MINX=15
##MAXY=9999
##MINY=10
##NPOINTS=115
##PEAK TABLE=(XY..XY)
15,50 27,20 28,20 29,10
30,10 31,10 38,20 39,119
40,10 41,10 43,20 50,60
51,119 52,30 53,20 55,30
57,10 62,50 63,229 64,90
65,60 67,10 69,30 70,40
71,10 74,50 75,109 76,139
77,169 78,109 79,40 84,10
85,30 86,20 87,40 88,40
89,109 90,10 91,90 92,70
93,10 98,10 99,20 100,10
101,60 102,239 103,40 105,10
106,60 107,549 108,40 113,70
114,50 115,499 116,60 117,10
121,40 125,10 126,99 127,289
128,1019 129,139 130,80 131,60
132,20 133,10 137,10 138,20
139,489 140,239 141,649 142,109
143,40 144,10 145,50 146,10
147,10 148,10 150,20 151,60
152,249 153,519 154,699 155,539
156,229 157,40 158,10 159,10
165,50 166,20 167,60 168,159
169,179 170,419 171,1609 172,219
173,20 181,30 182,20 183,139
184,669 185,569 186,80 195,20
197,10 198,40 199,80 200,20
211,10 212,10 213,90 214,9999
215,1549 216,149 217,10
##END=
