##TITLE=Phosphonic acid, ethyl-, dimethyl ester
##JCAMP-DX=4.24
##DATA TYPE=MASS SPECTRUM
##ORIGIN=VERIFIN - Methodology B2-1980
##OWNER=NIST Mass Spectrometry Data Center
Collection (C) 2014 copyright by the U.S. Secretary of Commerce
on behalf of the United States of America. All rights reserved.
##CAS REGISTRY NO=6163-75-3
##$NIST MASS SPEC NO=226187
##MOLFORM=C4 H11 O3 P
##MW=138
##$NIST SOURCE=MSDC
##XUNITS=M/Z
##YUNITS=RELATIVE INTENSITY
##XFACTOR=1
##YFACTOR=1
##FIRSTX=27
##LASTX=138
##FIRSTY=600
##MAXX=138
##MINX=27
##MAXY=9999
##MINY=50
##NPOINTS=26
##PEAK TABLE=(XY..XY)
27,600 28,400 29,600 31,300
45,100 47,1301 48,200 49,200
62,50 63,100 65,200 77,100
78,60 79,5204 80,1801 81,50
93,200 95,900 105,300 107,200
108,300 109,3202 110,9999 111,200
137,400 138,500
##END=
