##TITLE=4-Methylthio-2-5-dimethoxyamphetamine
##JCAMP-DX=4.24
##DATA TYPE=MASS SPECTRUM
##ORIGIN=Dr. Jiri Zamecnik, DCIEM, North York, Canada, GP Library
##OWNER=NIST Mass Spectrometry Data Center
Collection (C) 2014 copyright by the U.S. Secretary of Commerce
on behalf of the United States of America. All rights reserved.
##CAS REGISTRY NO=61638-07-1
##$NIST MASS SPEC NO=121432
##MOLFORM=C12 H19 N O2 S
##MW=241
##$NIST SOURCE=MSDC
##XUNITS=M/Z
##YUNITS=RELATIVE INTENSITY
##XFACTOR=1
##YFACTOR=1
##FIRSTX=42
##LASTX=242
##FIRSTY=190
##MAXX=242
##MINX=42
##MAXY=9999
##MINY=20
##NPOINTS=35
##PEAK TABLE=(XY..XY)
42,190 44,9999 45,420 53,150
65,130 67,110 77,210 79,100
91,210 105,120 109,110 111,70
121,130 122,100 123,100 137,210
138,90 139,130 151,200 152,270
153,130 167,400 168,130 169,40
183,1260 184,130 185,60 197,290
198,4560 199,530 200,240 210,30
225,20 241,150 242,30
##END=
