##TITLE=Phosphine, tris(2-methylphenyl)-
##JCAMP-DX=4.24
##DATA TYPE=MASS SPECTRUM
##ORIGIN=Japan AIST/NIMC Database- Spectrum MS-IW-3912
##OWNER=NIST Mass Spectrometry Data Center
Collection (C) 2014 copyright by the U.S. Secretary of Commerce
on behalf of the United States of America. All rights reserved.
##CAS REGISTRY NO=6163-58-2
##$NIST MASS SPEC NO=236441
##MOLFORM=C21 H21 P
##MW=304
##$NIST SOURCE=MSDC
##XUNITS=M/Z
##YUNITS=RELATIVE INTENSITY
##XFACTOR=1
##YFACTOR=1
##FIRSTX=27
##LASTX=307
##FIRSTY=10
##MAXX=307
##MINX=27
##MAXY=9999
##MINY=10
##NPOINTS=163
##PEAK TABLE=(XY..XY)
27,10 28,10 39,109 40,10
41,40 45,10 50,10 51,90
52,20 53,30 57,30 62,10
63,90 64,20 65,239 66,20
69,70 70,20 71,20 75,10
76,20 77,429 78,599 79,90
80,10 81,30 83,20 87,10
89,99 90,20 91,429 92,70
93,20 94,10 95,159 96,30
97,10 98,10 101,10 102,20
103,40 104,20 105,129 106,10
107,99 108,20 109,50 113,10
115,129 116,20 119,10 120,90
121,349 122,129 123,40 124,30
125,40 126,30 127,30 128,80
129,40 131,10 133,259 134,50
135,40 136,10 137,10 139,40
140,10 141,50 142,20 143,10
144,40 145,30 146,20 147,40
149,10 150,10 151,70 152,309
153,70 154,20 155,10 157,40
159,10 163,20 164,30 165,1139
166,319 167,60 168,10 169,20
170,109 171,70 172,10 176,30
177,40 178,449 179,829 180,419
181,109 182,20 183,309 184,50
185,10 191,10 192,10 193,10
194,99 195,199 196,1019 197,1349
198,189 199,80 200,10 202,10
207,70 208,20 209,90 210,169
211,629 212,229 213,99 214,20
215,10 220,10 221,10 223,10
224,10 225,10 226,10 228,10
229,10 233,10 239,20 240,10
241,10 242,10 247,10 252,20
253,30 254,20 255,20 257,20
258,10 259,10 270,40 271,60
272,50 273,30 275,30 285,80
287,259 289,9999 290,2219 291,229
292,10 301,60 303,1939 304,6209
305,1429 306,159 307,10
##END=
