##TITLE=Methylpyrazine-2-carboxylate
##JCAMP-DX=4.24
##DATA TYPE=MASS SPECTRUM
##ORIGIN=NIST Mass Spectrometry Data Center
##OWNER=NIST Mass Spectrometry Data Center
Collection (C) 2014 copyright by the U.S. Secretary of Commerce
on behalf of the United States of America. All rights reserved.
##CAS REGISTRY NO=6164-79-0
##$NIST MASS SPEC NO=343164
##MOLFORM=C6 H6 N2 O2
##MW=138
##$NIST SOURCE=MSDC
##XUNITS=M/Z
##YUNITS=RELATIVE INTENSITY
##XFACTOR=1
##YFACTOR=1
##FIRSTX=12
##LASTX=139
##FIRSTY=120
##MAXX=139
##MINX=12
##MAXY=9999
##MINY=30
##NPOINTS=38
##PEAK TABLE=(XY..XY)
12,120 14,150 15,1872 16,130
17,30 25,520 26,1922 27,450
28,2302 29,961 30,290 31,260
38,360 39,641 40,711 41,330
42,350 44,140 45,160 51,2903
52,8157 53,3203 54,480 55,160
59,1161 66,200 67,490 68,190
77,200 79,5115 80,9999 81,571
95,120 107,1211 108,4444 109,260
138,1031 139,190
##END=
