##TITLE=Chlordimeform
##JCAMP-DX=4.24
##DATA TYPE=MASS SPECTRUM
##ORIGIN=MASS SPECTROMETRY CENTER, UNIV. OF UTAH EPA-PTSEL 1480
##OWNER=NIST Mass Spectrometry Data Center
Collection (C) 2014 copyright by the U.S. Secretary of Commerce
on behalf of the United States of America. All rights reserved.
##CAS REGISTRY NO=6164-98-3
##$NIST MASS SPEC NO=52559
##MOLFORM=C10 H13 Cl N2
##MW=196
##$NIST SOURCE=MSDC
##XUNITS=M/Z
##YUNITS=RELATIVE INTENSITY
##XFACTOR=1
##YFACTOR=1
##FIRSTX=15
##LASTX=199
##FIRSTY=1138
##MAXX=199
##MINX=15
##MAXY=9999
##MINY=38
##NPOINTS=133
##PEAK TABLE=(XY..XY)
15,1138 16,116 17,329 18,355
26,191 27,893 28,210 29,192
30,2521 31,51 36,183 37,163
38,369 39,1412 40,346 41,750
42,4942 43,1204 44,8994 45,5345
46,600 49,165 50,603 51,1050
52,301 53,117 54,105 55,119
56,147 57,1903 58,427 59,51
61,229 62,604 63,1855 64,415
65,512 66,108 67,105 69,84
71,196 72,152 73,688 74,258
75,679 76,318 77,778 78,242
79,344 80,1340 81,112 83,44
85,142 86,170 87,221 88,180
89,3016 90,1459 91,732 92,121
97,863 98,983 99,1187 100,120
101,358 102,266 103,392 104,274
105,135 106,90 111,119 112,135
113,97 114,121 115,99 116,1081
117,6387 118,892 119,146 120,126
123,156 124,165 125,3070 126,324
127,1389 128,156 129,207 130,103
131,185 132,107 137,105 138,2591
139,1102 140,2054 141,502 142,427
143,82 144,54 145,312 146,229
150,242 151,1817 152,5627 153,1378
154,4612 155,532 156,944 157,106
159,103 160,132 161,110 164,671
165,525 166,542 167,409 168,935
169,202 170,272 171,108 178,267
179,226 180,472 181,6506 182,915
183,2367 184,270 193,96 194,38
195,484 196,9999 197,2176 198,4032
199,464
##END=
