##TITLE=Cyclohexane, 1,1'-(1,4-butanediyl)bis-
##JCAMP-DX=4.24
##DATA TYPE=MASS SPECTRUM
##ORIGIN=CONTINENTAL OIL CO., PONCA CITY, OKLA, USA
##OWNER=NIST Mass Spectrometry Data Center
Collection (C) 2014 copyright by the U.S. Secretary of Commerce
on behalf of the United States of America. All rights reserved.
##CAS REGISTRY NO=6165-44-2
##$NIST MASS SPEC NO=34928
##MOLFORM=C16 H30
##MW=222
##$NIST SOURCE=MSDC
##XUNITS=M/Z
##YUNITS=RELATIVE INTENSITY
##XFACTOR=1
##YFACTOR=1
##FIRSTX=13
##LASTX=223
##FIRSTY=3
##MAXX=223
##MINX=13
##MAXY=9999
##MINY=3
##NPOINTS=73
##PEAK TABLE=(XY..XY)
13,3 14,17 15,67 16,4
26,43 27,886 28,420 29,1250
30,27 37,50 38,20 39,955
40,207 41,4644 42,455 43,650
44,50 50,14 51,57 52,50
53,500 54,825 55,6689 56,418
57,196 58,8 63,12 65,94
66,115 67,2177 68,435 69,1055
70,99 71,51 77,112 78,45
79,199 80,93 81,929 82,7517
83,9999 84,665 85,35 91,38
92,7 93,27 94,22 95,261
96,939 97,485 98,37 107,6
108,18 109,233 110,81 111,40
112,6 122,6 123,21 124,14
125,17 136,20 137,39 138,198
139,1489 140,163 141,8 151,6
152,6 194,9 221,7 222,307
223,52
##END=
