##TITLE=Cyclopent-3-ene, 1,1-dimethoxy-1-sila-
##JCAMP-DX=4.24
##DATA TYPE=MASS SPECTRUM
##ORIGIN=V.A.KOPTYUG, ATLAS OF MASS SPECTRA OF ORGANIC COMPOUNDS
##OWNER=NIST Mass Spectrometry Data Center
Collection (C) 2014 copyright by the U.S. Secretary of Commerce
on behalf of the United States of America. All rights reserved.
##CAS REGISTRY NO=61667-33-2
##$NIST MASS SPEC NO=78408
##MOLFORM=C6 H12 O2 Si
##MW=144
##$NIST SOURCE=MSDC
##XUNITS=M/Z
##YUNITS=RELATIVE INTENSITY
##XFACTOR=1
##YFACTOR=1
##FIRSTX=39
##LASTX=146
##FIRSTY=300
##MAXX=146
##MINX=39
##MAXY=9999
##MINY=100
##NPOINTS=23
##PEAK TABLE=(XY..XY)
39,300 40,100 41,200 43,200
54,200 59,5199 60,2900 61,1100
75,300 76,400 82,300 87,400
89,300 90,6599 91,1600 113,9999
114,1700 115,500 116,300 143,700
144,4900 145,700 146,200
##END=
