##TITLE=2-Octanol, (S)-
##JCAMP-DX=4.24
##DATA TYPE=MASS SPECTRUM
##ORIGIN=Japan AIST/NIMC Database- Spectrum MS-NW-2694
##OWNER=NIST Mass Spectrometry Data Center
Collection (C) 2014 copyright by the U.S. Secretary of Commerce
on behalf of the United States of America. All rights reserved.
##CAS REGISTRY NO=6169-06-8
##$NIST MASS SPEC NO=231575
##MOLFORM=C8 H18 O
##MW=130
##$NIST SOURCE=MSDC
##XUNITS=M/Z
##YUNITS=RELATIVE INTENSITY
##XFACTOR=1
##YFACTOR=1
##FIRSTX=15
##LASTX=129
##FIRSTY=50
##MAXX=129
##MINX=15
##MAXY=9999
##MINY=10
##NPOINTS=49
##PEAK TABLE=(XY..XY)
15,50 17,10 18,30 19,10
26,20 27,529 28,119 29,559
30,10 31,119 32,30 38,10
39,309 40,50 41,1139 42,509
43,1159 44,619 45,9999 46,229
47,20 50,10 51,20 53,70
54,50 55,2059 56,689 57,559
58,239 59,90 67,50 68,60
69,559 70,609 71,159 81,20
82,60 83,289 84,519 85,70
86,40 97,639 98,50 112,319
113,30 115,269 116,20 128,10
129,30
##END=
