##TITLE=1H-Pyrrole, 1-ethyl-
##JCAMP-DX=4.24
##DATA TYPE=MASS SPECTRUM
##ORIGIN=AP-2100
##OWNER=NIST Mass Spectrometry Data Center
Collection (C) 2014 copyright by the U.S. Secretary of Commerce
on behalf of the United States of America. All rights reserved.
##CAS REGISTRY NO=617-92-5
##$NIST MASS SPEC NO=824
##MOLFORM=C6 H9 N
##MW=95
##$NIST SOURCE=MSDC
##XUNITS=M/Z
##YUNITS=RELATIVE INTENSITY
##XFACTOR=1
##YFACTOR=1
##FIRSTX=12
##LASTX=97
##FIRSTY=39
##MAXX=97
##MINX=12
##MAXY=9999
##MINY=2
##NPOINTS=64
##PEAK TABLE=(XY..XY)
12,39 13,49 14,106 15,364
16,8 17,3 18,6 24,19
25,105 26,867 27,2375 28,1485
29,888 30,42 31,5 36,43
37,470 38,960 39,2552 40,1409
41,1766 42,273 43,13 44,6
46,10 47,22 48,32 49,86
50,434 51,655 52,501 53,2009
54,244 55,30 56,48 57,3
60,3 61,13 62,32 63,84
64,105 65,273 66,487 67,2716
68,446 69,32 70,3 74,3
75,13 76,39 77,48 78,510
79,199 80,9999 81,587 82,16
90,2 91,9 92,96 93,301
94,1027 95,6933 96,494 97,16
##END=
