##TITLE=Stibine, triethyl-
##JCAMP-DX=4.24
##DATA TYPE=MASS SPECTRUM
##OWNER=NIST Mass Spectrometry Data Center
Collection (C) 2014 copyright by the U.S. Secretary of Commerce
on behalf of the United States of America. All rights reserved.
##CAS REGISTRY NO=617-85-6
##$NIST MASS SPEC NO=9605
##MOLFORM=C6 H15 Sb
##MW=208
##$NIST SOURCE=MSDC
##XUNITS=M/Z
##YUNITS=RELATIVE INTENSITY
##XFACTOR=1
##YFACTOR=1
##FIRSTX=121
##LASTX=211
##FIRSTY=699
##MAXX=211
##MINX=121
##MAXY=9999
##MINY=420
##NPOINTS=26
##PEAK TABLE=(XY..XY)
121,699 122,1259 123,1608 124,1259
125,559 134,4195 135,9090 136,5594
137,9789 138,5594 139,2797 147,489
148,420 149,4056 150,2098 151,9999
152,1958 153,5034 179,1958 180,699
181,1259 182,559 208,3496 209,559
210,2937 211,489
##END=
