##TITLE=Bismuthine, triethyl-
##JCAMP-DX=4.24
##DATA TYPE=MASS SPECTRUM
##ORIGIN=ETHYL CORPORATION, FERNDALE, MICHIGAN
##OWNER=NIST Mass Spectrometry Data Center
Collection (C) 2014 copyright by the U.S. Secretary of Commerce
on behalf of the United States of America. All rights reserved.
##CAS REGISTRY NO=617-77-6
##$NIST MASS SPEC NO=34313
##MOLFORM=C6 H15 Bi
##MW=296
##$NIST SOURCE=MSDC
##XUNITS=M/Z
##YUNITS=RELATIVE INTENSITY
##XFACTOR=1
##YFACTOR=1
##FIRSTX=26
##LASTX=296
##FIRSTY=1240
##MAXX=296
##MINX=26
##MAXY=9999
##MINY=880
##NPOINTS=8
##PEAK TABLE=(XY..XY)
26,1240 27,4330 28,880 29,3930
209,9999 238,4670 267,3490 296,1800
##END=
