##TITLE=2-Furancarbonitrile
##JCAMP-DX=4.24
##DATA TYPE=MASS SPECTRUM
##ORIGIN=Chuck Anderson, Aldrich Chemical Co.
##OWNER=NIST Mass Spectrometry Data Center
Collection (C) 2014 copyright by the U.S. Secretary of Commerce
on behalf of the United States of America. All rights reserved.
##CAS REGISTRY NO=617-90-3
##$NIST MASS SPEC NO=118117
##MOLFORM=C5 H3 N O
##MW=93
##$NIST SOURCE=MSDC
##XUNITS=M/Z
##YUNITS=RELATIVE INTENSITY
##XFACTOR=1
##YFACTOR=1
##FIRSTX=13
##LASTX=95
##FIRSTY=25
##MAXX=95
##MINX=13
##MAXY=9999
##MINY=6
##NPOINTS=39
##PEAK TABLE=(XY..XY)
13,25 14,65 24,31 25,81
26,176 27,53 28,105 29,760
30,6 32,24 36,203 37,1441
38,2249 39,1602 40,72 41,98
42,492 43,15 46,136 48,44
49,112 50,112 51,139 52,45
53,53 54,208 62,257 63,624
64,5117 65,3014 66,768 67,148
74,25 75,59 76,7 92,6
93,9999 94,514 95,34
##END=
