##TITLE=Ethyl oxamate
##JCAMP-DX=4.24
##DATA TYPE=MASS SPECTRUM
##ORIGIN=NIST Mass Spectrometry Data Center, 1994
##OWNER=NIST Mass Spectrometry Data Center
Collection (C) 2014 copyright by the U.S. Secretary of Commerce
on behalf of the United States of America. All rights reserved.
##CAS REGISTRY NO=617-36-7
##$NIST MASS SPEC NO=133488
##MOLFORM=C4 H7 N O3
##MW=117
##$NIST SOURCE=MSDC
##XUNITS=M/Z
##YUNITS=RELATIVE INTENSITY
##XFACTOR=1
##YFACTOR=1
##FIRSTX=15
##LASTX=117
##FIRSTY=264
##MAXX=117
##MINX=15
##MAXY=9999
##MINY=22
##NPOINTS=21
##PEAK TABLE=(XY..XY)
15,264 26,452 27,1861 28,431
29,2874 30,195 31,347 32,22
42,135 43,913 44,9999 45,2052
46,563 56,191 57,448 61,77
72,586 73,160 74,585 89,1104
117,188
##END=
