##TITLE=2,3-Butanedione, mono(O-methyloxime)
##JCAMP-DX=4.24
##DATA TYPE=MASS SPECTRUM
##ORIGIN=A.Pleshkova, Nesmeyanov Inst.Org.Elem.Cpds, Moscow
##OWNER=NIST Mass Spectrometry Data Center
Collection (C) 2014 copyright by the U.S. Secretary of Commerce
on behalf of the United States of America. All rights reserved.
##CAS REGISTRY NO=617-32-3
##$NIST MASS SPEC NO=284195
##MOLFORM=C5 H9 N O2
##MW=115
##$NIST SOURCE=MSDC
##XUNITS=M/Z
##YUNITS=RELATIVE INTENSITY
##XFACTOR=1
##YFACTOR=1
##FIRSTX=27
##LASTX=117
##FIRSTY=240
##MAXX=117
##MINX=27
##MAXY=9999
##MINY=60
##NPOINTS=16
##PEAK TABLE=(XY..XY)
27,240 28,350 29,490 30,120
31,120 40,240 41,661 42,2612
43,9999 44,420 45,120 72,2472
73,210 115,3653 116,320 117,60
##END=
