##TITLE=Carbamodithioic acid, dimethyl-, ethyl ester
##JCAMP-DX=4.24
##DATA TYPE=MASS SPECTRUM
##ORIGIN=F.I.ONUSKA CANADA CENTRE FOR INLAND WATERS, ONTARIO, CANADA
##OWNER=NIST Mass Spectrometry Data Center
Collection (C) 2014 copyright by the U.S. Secretary of Commerce
on behalf of the United States of America. All rights reserved.
##CAS REGISTRY NO=617-38-9
##$NIST MASS SPEC NO=38069
##MOLFORM=C5 H11 N S2
##MW=149
##$NIST SOURCE=MSDC
##XUNITS=M/Z
##YUNITS=RELATIVE INTENSITY
##XFACTOR=1
##YFACTOR=1
##FIRSTX=29
##LASTX=149
##FIRSTY=1543
##MAXX=149
##MINX=29
##MAXY=9999
##MINY=225
##NPOINTS=30
##PEAK TABLE=(XY..XY)
29,1543 40,1077 41,1093 42,1961
43,1785 44,4469 55,772 56,740
57,1254 58,225 59,305 60,305
61,370 69,691 71,804 72,611
73,981 76,9999 83,531 85,643
88,9469 90,595 97,450 105,257
111,257 120,225 121,4823 122,305
135,418 149,4469
##END=
