##TITLE=3-Hexanol, 2-methyl-
##JCAMP-DX=4.24
##DATA TYPE=MASS SPECTRUM
##ORIGIN=Japan AIST/NIMC Database- Spectrum MS-NW-8555
##OWNER=NIST Mass Spectrometry Data Center
Collection (C) 2014 copyright by the U.S. Secretary of Commerce
on behalf of the United States of America. All rights reserved.
##CAS REGISTRY NO=617-29-8
##$NIST MASS SPEC NO=238787
##MOLFORM=C7 H16 O
##MW=116
##$NIST SOURCE=MSDC
##XUNITS=M/Z
##YUNITS=RELATIVE INTENSITY
##XFACTOR=1
##YFACTOR=1
##FIRSTX=15
##LASTX=115
##FIRSTY=70
##MAXX=115
##MINX=15
##MAXY=9999
##MINY=10
##NPOINTS=43
##PEAK TABLE=(XY..XY)
15,70 18,20 26,40 27,899
28,119 29,729 30,20 31,1079
32,10 38,30 39,529 40,70
41,1169 42,169 43,3809 44,379
45,779 46,10 50,10 51,30
52,10 53,129 54,50 55,9999
56,669 57,699 58,40 59,189
67,20 69,149 70,30 71,229
72,1079 73,8529 74,389 75,20
83,70 97,10 98,10 99,20
101,10 114,20 115,20
##END=
