##TITLE=Diethylcyanamide
##JCAMP-DX=4.24
##DATA TYPE=MASS SPECTRUM
##ORIGIN=Japan AIST/NIMC Database- Spectrum MS-IW- 572
##OWNER=NIST Mass Spectrometry Data Center
Collection (C) 2014 copyright by the U.S. Secretary of Commerce
on behalf of the United States of America. All rights reserved.
##CAS REGISTRY NO=617-83-4
##$NIST MASS SPEC NO=238938
##MOLFORM=C5 H10 N2
##MW=98
##$NIST SOURCE=MSDC
##XUNITS=M/Z
##YUNITS=RELATIVE INTENSITY
##XFACTOR=1
##YFACTOR=1
##FIRSTX=14
##LASTX=100
##FIRSTY=10
##MAXX=100
##MINX=14
##MAXY=9999
##MINY=10
##NPOINTS=35
##PEAK TABLE=(XY..XY)
14,10 15,209 26,169 27,1229
28,689 29,2089 30,109 38,10
39,50 40,119 41,219 42,799
43,369 44,90 52,20 53,299
54,119 55,9999 56,409 57,30
58,20 66,10 67,129 68,40
69,859 70,589 71,50 81,20
83,2789 84,139 95,10 97,99
98,3049 99,269 100,10
##END=
