##TITLE=Benzoyl bromide
##JCAMP-DX=4.24
##DATA TYPE=MASS SPECTRUM
##ORIGIN=RADIAN CORP
##OWNER=NIST Mass Spectrometry Data Center
Collection (C) 2014 copyright by the U.S. Secretary of Commerce
on behalf of the United States of America. All rights reserved.
##CAS REGISTRY NO=618-32-6
##$NIST MASS SPEC NO=72949
##MOLFORM=C7 H5 Br O
##MW=184
##$NIST SOURCE=MSDC
##XUNITS=M/Z
##YUNITS=RELATIVE INTENSITY
##XFACTOR=1
##YFACTOR=1
##FIRSTX=25
##LASTX=107
##FIRSTY=10
##MAXX=107
##MINX=25
##MAXY=9999
##MINY=10
##NPOINTS=36
##PEAK TABLE=(XY..XY)
25,10 26,60 27,80 29,20
35,70 36,30 37,220 38,300
39,220 48,20 49,200 50,1230
51,1720 52,20 53,70 60,20
61,100 62,120 63,110 64,10
65,40 72,20 73,190 74,690
75,380 76,390 77,5580 78,380
79,40 84,20 85,30 86,20
104,40 105,9999 106,760 107,50
##END=
