##TITLE=Benzoic acid, 3-nitro-, methyl ester
##JCAMP-DX=4.24
##DATA TYPE=MASS SPECTRUM
##ORIGIN=Japan AIST/NIMC Database- Spectrum MS-NW-4872
##OWNER=NIST Mass Spectrometry Data Center
Collection (C) 2014 copyright by the U.S. Secretary of Commerce
on behalf of the United States of America. All rights reserved.
##CAS REGISTRY NO=618-95-1
##$NIST MASS SPEC NO=229984
##MOLFORM=C8 H7 N O4
##MW=181
##$NIST SOURCE=MSDC
##XUNITS=M/Z
##YUNITS=RELATIVE INTENSITY
##XFACTOR=1
##YFACTOR=1
##FIRSTX=14
##LASTX=183
##FIRSTY=20
##MAXX=183
##MINX=14
##MAXY=9999
##MINY=10
##NPOINTS=83
##PEAK TABLE=(XY..XY)
14,20 15,669 16,10 17,10
18,30 26,30 27,40 28,229
29,119 30,239 31,40 36,10
37,109 38,169 39,249 40,10
41,60 43,10 44,30 45,10
46,40 49,60 50,1509 51,289
52,50 53,60 54,10 59,269
60,10 61,50 62,80 63,279
64,329 65,159 66,20 67,10
72,10 73,80 74,519 75,1409
76,2419 77,879 78,80 79,70
80,20 87,10 89,20 90,20
91,99 92,859 93,80 95,70
102,10 103,769 104,2709 105,259
106,30 107,99 108,10 117,10
118,10 119,669 120,869 121,219
122,209 123,30 133,20 134,119
135,959 136,469 137,40 149,10
150,9999 151,1679 152,159 153,10
164,209 165,90 166,10 180,169
181,2369 182,229 183,30
##END=
