##TITLE=Benzoyl chloride, 3-chloro-
##JCAMP-DX=4.24
##DATA TYPE=MASS SPECTRUM
##ORIGIN=Japan AIST/NIMC Database- Spectrum MS-NW-5124
##OWNER=NIST Mass Spectrometry Data Center
Collection (C) 2014 copyright by the U.S. Secretary of Commerce
on behalf of the United States of America. All rights reserved.
##CAS REGISTRY NO=618-46-2
##$NIST MASS SPEC NO=230524
##MOLFORM=C7 H4 Cl2 O
##MW=174
##$NIST SOURCE=MSDC
##XUNITS=M/Z
##YUNITS=RELATIVE INTENSITY
##XFACTOR=1
##YFACTOR=1
##FIRSTX=12
##LASTX=179
##FIRSTY=10
##MAXX=179
##MINX=12
##MAXY=9999
##MINY=10
##NPOINTS=78
##PEAK TABLE=(XY..XY)
12,10 25,20 26,50 27,50
28,129 29,20 32,10 35,90
36,229 37,369 38,749 39,70
43,20 44,20 47,30 48,40
49,249 50,1619 51,499 52,60
53,50 54,30 55,439 56,129
57,10 60,60 61,179 62,70
63,60 64,10 65,10 69,709
70,239 71,30 72,50 73,309
74,929 75,2549 76,649 77,70
84,159 85,329 86,70 87,99
88,10 96,10 97,10 103,10
104,40 105,10 108,20 109,60
110,109 111,4759 112,349 113,1509
114,109 123,10 137,20 138,20
139,9999 140,789 141,3139 142,259
143,20 145,20 146,20 147,10
148,20 156,20 158,10 173,30
174,1079 175,109 176,719 177,60
178,119 179,10
##END=
