##TITLE=3,5-Dibromobenzoic acid
##JCAMP-DX=4.24
##DATA TYPE=MASS SPECTRUM
##ORIGIN=Japan AIST/NIMC Database- Spectrum MS-IW-7695
##OWNER=NIST Mass Spectrometry Data Center
Collection (C) 2014 copyright by the U.S. Secretary of Commerce
on behalf of the United States of America. All rights reserved.
##CAS REGISTRY NO=618-58-6
##$NIST MASS SPEC NO=237696
##MOLFORM=C7 H4 Br2 O2
##MW=278
##$NIST SOURCE=MSDC
##XUNITS=M/Z
##YUNITS=RELATIVE INTENSITY
##XFACTOR=1
##YFACTOR=1
##FIRSTX=26
##LASTX=284
##FIRSTY=10
##MAXX=284
##MINX=26
##MAXY=9999
##MINY=10
##NPOINTS=123
##PEAK TABLE=(XY..XY)
26,10 28,70 29,10 36,20
37,199 38,129 39,40 43,10
44,40 45,129 46,10 48,10
49,99 50,529 51,80 53,109
60,20 61,60 62,70 63,269
64,199 65,20 66,10 72,40
73,389 74,949 75,1039 76,329
77,279 78,259 79,30 80,30
81,30 82,30 85,30 86,30
90,20 91,60 92,179 93,10
97,10 99,329 100,289 101,40
102,10 103,10 104,20 105,10
106,20 107,10 116,70 117,129
118,60 119,80 120,10 125,10
126,20 127,10 128,50 129,30
130,99 131,209 132,80 133,10
135,10 139,40 140,99 141,70
142,10 143,349 144,30 145,319
146,20 152,10 153,239 154,349
155,449 156,319 157,169 158,10
170,20 171,70 172,30 173,80
181,30 183,20 199,169 200,10
201,149 202,10 217,10 219,10
221,10 223,10 232,20 233,669
234,109 235,959 236,159 237,619
238,60 245,10 247,10 249,10
250,30 252,40 254,20 260,40
261,1409 262,249 263,2989 264,349
265,1429 266,189 267,10 277,30
278,5049 279,569 280,9999 281,819
282,4929 283,439 284,40
##END=
