##TITLE=3,4,5-Trihydroxybenzamide
##JCAMP-DX=4.24
##DATA TYPE=MASS SPECTRUM
##ORIGIN=Pu Leung, NIH, Bethesda, MD
##OWNER=NIST Mass Spectrometry Data Center
Collection (C) 2014 copyright by the U.S. Secretary of Commerce
on behalf of the United States of America. All rights reserved.
##CAS REGISTRY NO=618-73-5
##$NIST MASS SPEC NO=214009
##MOLFORM=C7 H7 N O4
##MW=169
##$NIST SOURCE=MSDC
##XUNITS=M/Z
##YUNITS=RELATIVE INTENSITY
##XFACTOR=1
##YFACTOR=1
##FIRSTX=41
##LASTX=171
##FIRSTY=658
##MAXX=171
##MINX=41
##MAXY=9999
##MINY=5
##NPOINTS=94
##PEAK TABLE=(XY..XY)
41,658 42,503 43,574 44,3359
45,238 46,45 47,38 48,99
49,450 50,2035 51,2958 52,1143
53,1933 54,306 55,501 56,143
57,73 58,103 59,34 60,72
61,181 62,291 63,97 64,91
65,272 66,846 67,886 68,779
69,896 70,664 72,12 73,49
74,19 75,32 77,925 78,934
79,3498 80,308 81,50 82,30
83,73 84,89 85,41 86,50
87,18 88,5 89,12 90,16
91,16 92,23 93,108 94,164
95,303 96,162 97,332 98,29
100,197 101,5 104,12 105,20
106,83 107,841 108,169 109,24
110,12 112,766 113,46 114,82
122,81 123,171 124,769 125,2823
126,191 127,36 129,14 132,15
134,6 135,119 136,15 138,11
139,11 140,413 141,41 150,39
151,20 152,602 153,9999 154,719
155,106 167,22 168,62 169,8721
170,715 171,26
##END=
