##TITLE=Benzene, 1-methyl-3,5-dinitro-
##JCAMP-DX=4.24
##DATA TYPE=MASS SPECTRUM
##ORIGIN=Japan AIST/NIMC Database- Spectrum MS-IW-6042
##OWNER=NIST Mass Spectrometry Data Center
Collection (C) 2014 copyright by the U.S. Secretary of Commerce
on behalf of the United States of America. All rights reserved.
##CAS REGISTRY NO=618-85-9
##$NIST MASS SPEC NO=242971
##MOLFORM=C7 H6 N2 O4
##MW=182
##$NIST SOURCE=MSDC
##XUNITS=M/Z
##YUNITS=RELATIVE INTENSITY
##XFACTOR=1
##YFACTOR=1
##FIRSTX=15
##LASTX=184
##FIRSTY=10
##MAXX=184
##MINX=15
##MAXY=9999
##MINY=10
##NPOINTS=75
##PEAK TABLE=(XY..XY)
15,10 26,10 27,109 28,239
29,20 30,3329 31,50 37,60
38,169 39,899 40,169 41,50
42,10 43,269 44,10 45,30
46,40 49,20 50,279 51,489
52,449 53,329 54,30 55,20
56,30 61,109 62,469 63,1669
64,599 65,259 66,199 67,30
68,20 69,60 73,20 74,159
75,209 76,99 77,429 78,579
79,90 80,10 85,50 86,129
87,149 88,90 89,6459 90,2779
91,289 92,10 93,30 94,40
104,20 105,119 106,2199 107,179
108,10 119,10 120,10 121,239
122,30 134,30 135,109 136,3079
137,259 138,20 152,60 165,10
166,109 167,10 180,10 181,90
182,9999 183,889 184,109
##END=
