##TITLE=3-Nitrobenzhydrazide
##JCAMP-DX=4.24
##DATA TYPE=MASS SPECTRUM
##ORIGIN=NIST Mass Spectrometry Data Center, 1994
##OWNER=NIST Mass Spectrometry Data Center
Collection (C) 2014 copyright by the U.S. Secretary of Commerce
on behalf of the United States of America. All rights reserved.
##CAS REGISTRY NO=618-94-0
##$NIST MASS SPEC NO=134235
##MOLFORM=C7 H7 N3 O3
##MW=181
##$NIST SOURCE=MSDC
##XUNITS=M/Z
##YUNITS=RELATIVE INTENSITY
##XFACTOR=1
##YFACTOR=1
##FIRSTX=14
##LASTX=182
##FIRSTY=10
##MAXX=182
##MINX=14
##MAXY=9999
##MINY=7
##NPOINTS=61
##PEAK TABLE=(XY..XY)
14,10 15,24 16,92 17,32
18,42 26,42 29,296 30,539
31,792 37,130 38,236 39,199
40,7 43,41 44,24 45,22
46,89 50,1923 51,492 52,120
53,110 61,64 62,132 63,342
64,412 65,107 66,33 67,16
73,123 74,685 75,1322 76,4454
77,388 78,50 79,23 80,20
86,17 87,17 89,25 90,80
92,710 93,73 102,29 104,4651
105,388 106,39 118,20 120,62
122,267 123,27 134,278 135,33
148,20 150,9999 151,1091 152,126
163,8 164,50 166,50 181,1524
182,154
##END=
