##TITLE=Benzoic acid, 3-iodo-, methyl ester
##JCAMP-DX=4.24
##DATA TYPE=MASS SPECTRUM
##ORIGIN=Japan AIST/NIMC Database- Spectrum MS-IW-5218
##OWNER=NIST Mass Spectrometry Data Center
Collection (C) 2014 copyright by the U.S. Secretary of Commerce
on behalf of the United States of America. All rights reserved.
##CAS REGISTRY NO=618-91-7
##$NIST MASS SPEC NO=242261
##MOLFORM=C8 H7 I O2
##MW=262
##$NIST SOURCE=MSDC
##XUNITS=M/Z
##YUNITS=RELATIVE INTENSITY
##XFACTOR=1
##YFACTOR=1
##FIRSTX=14
##LASTX=264
##FIRSTY=10
##MAXX=264
##MINX=14
##MAXY=9999
##MINY=10
##NPOINTS=81
##PEAK TABLE=(XY..XY)
14,10 15,149 26,10 27,20
28,20 29,10 31,10 37,60
38,90 39,80 40,10 41,40
42,30 43,50 44,10 49,70
50,1499 51,169 52,10 53,40
55,10 56,20 57,30 59,90
61,20 62,30 63,99 64,70
65,50 73,99 74,639 75,839
76,3259 77,529 78,40 79,40
89,10 90,10 91,40 92,129
93,10 101,50 103,289 104,429
105,70 107,30 115,179 116,10
119,249 120,299 121,20 127,139
128,20 133,10 135,409 136,30
152,10 153,10 176,20 177,10
183,10 185,10 201,10 202,10
203,3599 204,249 205,10 216,10
217,20 218,20 230,10 231,9999
232,799 233,50 244,30 245,20
246,20 261,149 262,8519 263,769
264,70
##END=
