##TITLE=1-Propanol, 3-phenoxy-
##JCAMP-DX=4.24
##DATA TYPE=MASS SPECTRUM
##ORIGIN=NIST Mass Spectrometry Data Center, 2010
##OWNER=NIST Mass Spectrometry Data Center
Collection (C) 2014 copyright by the U.S. Secretary of Commerce
on behalf of the United States of America. All rights reserved.
##CAS REGISTRY NO=6180-61-6
##$NIST MASS SPEC NO=378350
##MOLFORM=C9 H12 O2
##MW=152
##$NIST SOURCE=MSDC
##XUNITS=M/Z
##YUNITS=RELATIVE INTENSITY
##XFACTOR=1
##YFACTOR=1
##FIRSTX=26
##LASTX=154
##FIRSTY=30
##MAXX=154
##MINX=26
##MAXY=9999
##MINY=10
##NPOINTS=64
##PEAK TABLE=(XY..XY)
26,30 27,120 28,40 29,170
30,20 31,671 32,10 37,30
38,120 39,791 40,180 41,260
42,30 43,80 44,10 45,10
49,10 50,200 51,611 52,60
53,50 54,10 55,170 56,10
57,140 58,80 59,80 61,30
62,80 63,260 64,110 65,1151
66,1211 67,80 68,20 69,10
73,10 74,50 75,40 76,40
77,951 78,130 79,110 80,10
91,110 92,30 93,210 94,9999
95,931 96,50 103,20 105,20
107,110 108,20 119,20 120,10
121,60 122,10 133,30 134,30
150,10 152,2002 153,200 154,20
##END=
