##TITLE=3-Octadecyne
##JCAMP-DX=4.24
##DATA TYPE=MASS SPECTRUM
##ORIGIN=D.HENNEBERG, MAX-PLANCK INSTITUTE, MULHEIM, WEST GERMANY
##OWNER=NIST Mass Spectrometry Data Center
Collection (C) 2014 copyright by the U.S. Secretary of Commerce
on behalf of the United States of America. All rights reserved.
##CAS REGISTRY NO=61886-64-4
##$NIST MASS SPEC NO=62814
##MOLFORM=C18 H34
##MW=250
##$NIST SOURCE=MSDC
##XUNITS=M/Z
##YUNITS=RELATIVE INTENSITY
##XFACTOR=1
##YFACTOR=1
##FIRSTX=22
##LASTX=250
##FIRSTY=1
##MAXX=250
##MINX=22
##MAXY=9999
##MINY=1
##NPOINTS=121
##PEAK TABLE=(XY..XY)
22,1 23,9 24,8 25,29
26,90 27,1035 28,243 29,2685
30,61 33,5 34,6 35,16
36,7 37,52 38,30 39,1042
40,327 41,6182 42,723 43,5403
44,89 47,22 48,14 49,10
50,44 51,139 52,156 53,982
54,1236 55,5029 56,778 57,2510
58,110 59,12 60,19 61,22
62,19 63,67 64,32 65,495
66,892 67,9999 68,5415 69,3344
70,469 71,606 72,35 73,15
74,8 75,40 76,25 77,501
78,262 79,1392 80,609 81,6097
82,5732 83,2134 84,243 85,235
86,16 89,13 90,12 91,355
92,126 93,544 94,346 95,5152
96,2005 97,888 98,102 99,12
102,1 103,13 104,21 105,119
106,52 107,282 108,211 109,4751
110,2163 111,404 112,48 115,12
116,7 117,39 118,12 119,44
120,11 121,117 122,76 123,1131
124,450 125,122 126,18 127,1
128,7 129,15 131,11 133,11
135,66 136,13 137,218 138,104
139,27 149,16 151,65 152,53
153,5 163,7 165,25 166,19
179,9 180,16 194,25 207,26
208,23 221,84 222,11 248,8
250,29
##END=
