##TITLE=Benzoic acid, 4-(dimethylamino)-
##JCAMP-DX=4.24
##DATA TYPE=MASS SPECTRUM
##ORIGIN=RADIAN CORP
##OWNER=NIST Mass Spectrometry Data Center
Collection (C) 2014 copyright by the U.S. Secretary of Commerce
on behalf of the United States of America. All rights reserved.
##CAS REGISTRY NO=619-84-1
##$NIST MASS SPEC NO=70807
##MOLFORM=C9 H11 N O2
##MW=165
##$NIST SOURCE=MSDC
##XUNITS=M/Z
##YUNITS=RELATIVE INTENSITY
##XFACTOR=1
##YFACTOR=1
##FIRSTX=15
##LASTX=167
##FIRSTY=150
##MAXX=167
##MINX=15
##MAXY=9999
##MINY=10
##NPOINTS=105
##PEAK TABLE=(XY..XY)
15,150 26,20 27,60 28,60
29,80 30,30 36,30 37,50
38,130 39,380 40,110 41,250
42,870 43,230 44,330 45,290
47,20 49,40 50,520 51,630
52,240 53,180 54,60 55,150
56,50 57,90 59,220 60,190
61,80 62,140 63,460 64,190
65,720 66,160 67,90 69,570
70,50 71,50 74,620 75,280
76,320 77,1200 78,460 79,340
80,80 81,190 82,10 83,110
84,40 85,40 86,20 87,40
88,40 89,60 90,160 91,370
92,210 93,190 94,120 95,70
96,30 97,40 98,20 99,10
100,20 101,20 102,50 103,200
104,620 105,430 106,90 107,80
108,30 109,30 110,10 111,20
115,20 116,10 117,100 118,520
119,240 120,280 121,320 122,80
123,40 129,40 130,10 132,400
133,90 134,90 135,70 136,60
137,40 146,30 147,20 148,1550
149,730 150,210 151,120 152,20
162,120 164,9999 165,7740 166,780
167,70
##END=
