##TITLE=1,4-Cyclohexanedicarboxylic acid, trans-
##JCAMP-DX=4.24
##DATA TYPE=MASS SPECTRUM
##ORIGIN=Japan AIST/NIMC Database- Spectrum MS-NW-1667
##OWNER=NIST Mass Spectrometry Data Center
Collection (C) 2014 copyright by the U.S. Secretary of Commerce
on behalf of the United States of America. All rights reserved.
##CAS REGISTRY NO=619-82-9
##$NIST MASS SPEC NO=230696
##MOLFORM=C8 H12 O4
##MW=172
##$NIST SOURCE=MSDC
##XUNITS=M/Z
##YUNITS=RELATIVE INTENSITY
##XFACTOR=1
##YFACTOR=1
##FIRSTX=15
##LASTX=172
##FIRSTY=70
##MAXX=172
##MINX=15
##MAXY=9999
##MINY=10
##NPOINTS=89
##PEAK TABLE=(XY..XY)
15,70 17,40 18,149 26,129
27,1409 28,269 29,819 30,20
31,149 37,30 38,99 39,1649
40,259 41,2439 42,189 43,1819
44,80 45,679 46,30 47,109
49,10 50,129 51,299 52,169
53,989 54,1649 55,1269 56,119
57,369 58,60 59,50 60,50
61,20 62,10 63,40 65,159
66,509 67,1849 68,349 69,329
70,80 71,99 72,30 73,679
74,50 75,10 77,349 78,90
79,1119 80,2719 81,9999 82,829
83,129 84,80 85,119 86,369
87,90 91,50 92,40 93,30
94,169 95,369 96,30 97,319
98,169 99,129 100,80 105,10
106,10 107,90 108,4139 109,1369
110,129 111,249 112,459 113,40
118,10 123,10 125,129 126,5349
127,599 128,50 136,569 137,60
153,10 154,2279 155,219 156,20
172,10
##END=
