##TITLE=Benzonitrile, 4-nitro-
##JCAMP-DX=4.24
##DATA TYPE=MASS SPECTRUM
##ORIGIN=NIST Mass Spectrometry Data Center, 1998.
##OWNER=NIST Mass Spectrometry Data Center
Collection (C) 2014 copyright by the U.S. Secretary of Commerce
on behalf of the United States of America. All rights reserved.
##CAS REGISTRY NO=619-72-7
##$NIST MASS SPEC NO=292006
##MOLFORM=C7 H4 N2 O2
##MW=148
##$NIST SOURCE=MSDC
##XUNITS=M/Z
##YUNITS=RELATIVE INTENSITY
##XFACTOR=1
##YFACTOR=1
##FIRSTX=26
##LASTX=149
##FIRSTY=40
##MAXX=149
##MINX=26
##MAXY=9999
##MINY=10
##NPOINTS=50
##PEAK TABLE=(XY..XY)
26,40 27,220 28,110 29,40
30,2410 36,30 37,400 38,390
39,420 40,30 41,60 46,80
48,50 49,360 50,2320 51,2680
52,690 53,20 60,50 61,150
62,430 63,820 64,590 65,40
72,20 73,190 74,970 75,4020
76,2210 77,90 85,30 86,40
87,60 88,70 89,50 90,2710
91,350 98,10 99,340 100,120
101,110 102,9999 103,790 104,20
117,30 118,1280 119,60 132,200
148,3610 149,280
##END=
