##TITLE=Benzamide, 4-chloro-
##JCAMP-DX=4.24
##DATA TYPE=MASS SPECTRUM
##ORIGIN=NIST Mass Spectrometry Data Center, 1992
##OWNER=NIST Mass Spectrometry Data Center
Collection (C) 2014 copyright by the U.S. Secretary of Commerce
on behalf of the United States of America. All rights reserved.
##CAS REGISTRY NO=619-56-7
##$NIST MASS SPEC NO=125152
##MOLFORM=C7 H6 Cl N O
##MW=155
##$NIST SOURCE=MSDC
##XUNITS=M/Z
##YUNITS=RELATIVE INTENSITY
##XFACTOR=1
##YFACTOR=1
##FIRSTX=12
##LASTX=159
##FIRSTY=9
##MAXX=159
##MINX=12
##MAXY=9999
##MINY=1
##NPOINTS=90
##PEAK TABLE=(XY..XY)
12,9 13,16 14,1 15,19
16,143 17,71 18,131 25,23
26,86 27,145 28,391 29,25
30,11 32,42 35,48 36,66
37,372 38,505 39,173 40,15
41,24 42,17 43,110 44,954
46,109 47,35 48,46 49,306
50,2071 51,971 52,174 53,84
54,16 55,81 56,21 60,87
61,232 62,148 63,281 65,127
66,15 67,5 69,31 70,55
71,22 72,92 73,501 74,1526
75,3506 76,833 77,489 78,41
83,18 84,197 85,349 86,96
87,127 88,17 89,19 90,43
91,29 92,24 97,16 99,121
100,56 101,78 102,292 103,91
104,150 105,16 108,31 109,58
111,5060 112,521 113,1643 114,126
126,33 127,25 128,13 137,766
139,9999 140,852 141,2925 142,260
143,5 155,4942 156,400 157,1624
158,132 159,4
##END=
