##TITLE=3-Hydroxy-4-nitrobenzoic acid
##JCAMP-DX=4.24
##DATA TYPE=MASS SPECTRUM
##ORIGIN=Japan AIST/NIMC Database- Spectrum MS-NW-6935
##OWNER=NIST Mass Spectrometry Data Center
Collection (C) 2014 copyright by the U.S. Secretary of Commerce
on behalf of the United States of America. All rights reserved.
##CAS REGISTRY NO=619-14-7
##$NIST MASS SPEC NO=236021
##MOLFORM=C7 H5 N O5
##MW=183
##$NIST SOURCE=MSDC
##XUNITS=M/Z
##YUNITS=RELATIVE INTENSITY
##XFACTOR=1
##YFACTOR=1
##FIRSTX=14
##LASTX=186
##FIRSTY=10
##MAXX=186
##MINX=14
##MAXY=9999
##MINY=10
##NPOINTS=104
##PEAK TABLE=(XY..XY)
14,10 15,10 16,10 18,20
25,30 26,99 27,399 28,239
29,169 30,619 31,50 32,20
36,20 37,299 38,639 39,1199
40,80 41,169 42,50 43,70
44,60 45,459 46,40 48,10
49,80 50,379 51,679 52,399
53,1279 54,109 55,379 56,10
60,40 61,329 62,869 63,1989
64,549 65,169 66,159 67,90
68,50 69,449 70,50 71,90
72,10 73,40 74,129 75,129
76,109 77,149 78,119 79,259
80,339 81,1269 82,99 83,20
90,70 91,559 92,249 93,209
94,70 95,30 96,109 97,929
98,50 104,40 105,20 106,10
107,209 108,489 109,519 110,60
111,10 118,40 119,1249 120,299
121,299 122,139 123,10 125,829
126,60 127,10 135,30 136,389
137,289 138,579 139,80 140,10
148,40 149,20 150,99 151,10
153,1349 154,109 155,10 164,10
165,10 166,449 167,90 168,10
183,9999 184,829 185,139 186,10
##END=
