##TITLE=Benzoic acid, 4-formyl-
##JCAMP-DX=4.24
##DATA TYPE=MASS SPECTRUM
##ORIGIN=Japan AIST/NIMC Database- Spectrum MS-NW-8858
##OWNER=NIST Mass Spectrometry Data Center
Collection (C) 2014 copyright by the U.S. Secretary of Commerce
on behalf of the United States of America. All rights reserved.
##CAS REGISTRY NO=619-66-9
##$NIST MASS SPEC NO=228047
##MOLFORM=C8 H6 O3
##MW=150
##$NIST SOURCE=MSDC
##XUNITS=M/Z
##YUNITS=RELATIVE INTENSITY
##XFACTOR=1
##YFACTOR=1
##FIRSTX=17
##LASTX=152
##FIRSTY=20
##MAXX=152
##MINX=17
##MAXY=9999
##MINY=10
##NPOINTS=60
##PEAK TABLE=(XY..XY)
17,20 18,80 26,20 27,129
28,139 29,149 36,10 37,80
38,189 39,489 40,20 43,10
44,10 45,139 47,30 49,70
50,1009 51,1439 52,279 53,149
55,10 61,40 62,70 63,80
64,30 65,2209 66,269 67,10
73,99 74,509 75,559 76,579
77,1429 78,139 79,10 85,10
86,10 87,10 91,30 92,20
93,419 94,40 102,10 103,239
104,209 105,1209 106,119 119,20
120,50 121,3229 122,369 123,30
132,20 133,679 134,80 148,30
149,9999 150,8669 151,859 152,80
##END=
