##TITLE=Benzoic acid, 4-cyano-
##JCAMP-DX=4.24
##DATA TYPE=MASS SPECTRUM
##ORIGIN=Japan AIST/NIMC Database- Spectrum MS-NW-3481
##OWNER=NIST Mass Spectrometry Data Center
Collection (C) 2014 copyright by the U.S. Secretary of Commerce
on behalf of the United States of America. All rights reserved.
##CAS REGISTRY NO=619-65-8
##$NIST MASS SPEC NO=231763
##MOLFORM=C8 H5 N O2
##MW=147
##$NIST SOURCE=MSDC
##XUNITS=M/Z
##YUNITS=RELATIVE INTENSITY
##XFACTOR=1
##YFACTOR=1
##FIRSTX=14
##LASTX=150
##FIRSTY=30
##MAXX=150
##MINX=14
##MAXY=9999
##MINY=10
##NPOINTS=89
##PEAK TABLE=(XY..XY)
14,30 16,20 18,10 25,20
26,80 27,159 28,40 29,50
30,10 31,10 36,40 37,279
38,249 39,269 40,10 41,20
42,10 43,20 44,99 45,389
46,10 48,40 49,179 50,1229
51,959 52,279 53,80 54,10
55,20 56,10 57,20 59,20
60,50 61,109 62,129 63,249
64,189 65,139 66,10 67,10
69,20 72,30 73,149 74,449
75,1359 76,1389 77,179 78,20
79,20 80,20 81,10 83,10
84,10 85,20 86,30 87,20
88,20 89,10 90,70 91,109
92,30 98,20 99,189 100,119
101,229 102,4729 103,619 104,40
105,20 111,10 115,20 116,10
117,30 118,30 119,519 120,50
121,30 122,20 128,20 129,80
130,9999 131,949 132,70 133,10
146,50 147,6069 148,559 149,129
150,20
##END=
