##TITLE=Benzoic acid, 4-iodo-, methyl ester
##JCAMP-DX=4.24
##DATA TYPE=MASS SPECTRUM
##ORIGIN=RADIAN CORP
##OWNER=NIST Mass Spectrometry Data Center
Collection (C) 2014 copyright by the U.S. Secretary of Commerce
on behalf of the United States of America. All rights reserved.
##CAS REGISTRY NO=619-44-3
##$NIST MASS SPEC NO=73548
##MOLFORM=C8 H7 I O2
##MW=262
##$NIST SOURCE=MSDC
##XUNITS=M/Z
##YUNITS=RELATIVE INTENSITY
##XFACTOR=1
##YFACTOR=1
##FIRSTX=14
##LASTX=263
##FIRSTY=70
##MAXX=263
##MINX=14
##MAXY=9999
##MINY=10
##NPOINTS=40
##PEAK TABLE=(XY..XY)
14,70 15,890 26,30 27,10
29,1120 30,370 31,150 37,250
38,370 39,180 49,80 50,4620
51,390 53,160 59,220 61,40
62,70 63,190 64,70 73,450
74,2230 75,1790 76,4980 77,770
92,130 103,320 104,1400 105,70
115,10 119,210 120,190 127,1670
128,20 135,400 203,3690 204,30
231,9999 232,170 262,6010 263,130
##END=
