##TITLE=Benzoic acid, 4-bromo-, methyl ester
##JCAMP-DX=4.24
##DATA TYPE=MASS SPECTRUM
##ORIGIN=Japan AIST/NIMC Database- Spectrum MS-NW-1561
##OWNER=NIST Mass Spectrometry Data Center
Collection (C) 2014 copyright by the U.S. Secretary of Commerce
on behalf of the United States of America. All rights reserved.
##CAS REGISTRY NO=619-42-1
##$NIST MASS SPEC NO=228049
##MOLFORM=C8 H7 Br O2
##MW=214
##$NIST SOURCE=MSDC
##XUNITS=M/Z
##YUNITS=RELATIVE INTENSITY
##XFACTOR=1
##YFACTOR=1
##FIRSTX=14
##LASTX=218
##FIRSTY=30
##MAXX=218
##MINX=14
##MAXY=9999
##MINY=10
##NPOINTS=113
##PEAK TABLE=(XY..XY)
14,30 15,599 16,10 17,20
18,70 25,20 26,60 27,70
28,139 29,269 30,70 31,50
32,20 36,30 37,409 38,909
39,219 40,20 41,20 43,10
44,60 45,20 48,30 49,349
50,4539 51,719 52,169 53,169
59,219 60,30 61,129 62,149
63,269 64,119 65,70 66,10
67,139 68,50 72,30 73,499
74,2349 75,4379 76,4349 77,529
78,50 79,40 80,30 81,30
82,30 85,20 86,20 87,10
89,30 90,30 91,139 92,109
93,30 94,20 98,30 99,20
103,149 104,629 105,70 106,20
107,50 111,10 116,10 117,30
118,10 119,109 120,99 121,10
128,40 129,119 130,40 131,109
133,10 135,519 136,60 139,30
141,10 142,10 143,40 144,10
145,30 153,20 154,60 155,3819
156,319 157,3709 158,259 159,10
169,30 170,30 171,70 172,30
173,40 182,10 183,9999 184,799
185,9699 186,799 187,50 197,20
198,20 199,20 200,10 213,169
214,3529 215,479 216,3439 217,309
218,30
##END=
