##TITLE=Benzenemethanol, 3-nitro-
##JCAMP-DX=4.24
##DATA TYPE=MASS SPECTRUM
##ORIGIN=NIST Mass Spectrometry Data Center, 2010
##OWNER=NIST Mass Spectrometry Data Center
Collection (C) 2014 copyright by the U.S. Secretary of Commerce
on behalf of the United States of America. All rights reserved.
##CAS REGISTRY NO=619-25-0
##$NIST MASS SPEC NO=374647
##MOLFORM=C7 H7 N O3
##MW=153
##$NIST SOURCE=MSDC
##XUNITS=M/Z
##YUNITS=RELATIVE INTENSITY
##XFACTOR=1
##YFACTOR=1
##FIRSTX=18
##LASTX=155
##FIRSTY=60
##MAXX=155
##MINX=18
##MAXY=9999
##MINY=10
##NPOINTS=92
##PEAK TABLE=(XY..XY)
18,60 25,10 26,70 27,390
28,70 29,390 30,410 31,500
36,20 37,170 38,280 39,1031
40,170 41,290 42,60 43,60
45,10 46,140 48,10 49,90
50,1571 51,2883 52,751 53,961
54,70 55,180 56,20 57,40
58,40 60,30 61,170 62,440
63,1221 64,400 65,420 66,280
67,170 68,50 69,20 71,10
73,130 74,721 75,571 76,951
77,9999 78,2983 79,1131 80,70
81,40 84,20 85,60 86,90
87,90 88,40 89,5455 90,771
91,190 92,210 93,110 94,510
95,100 98,20 99,10 103,30
104,150 105,1862 106,2973 107,3743
108,1471 109,90 120,80 121,270
122,140 123,270 124,520 125,80
127,100 128,200 134,20 135,70
136,3053 137,581 138,40 139,30
147,10 149,10 150,160 151,120
152,520 153,2933 154,200 155,20
##END=
