##TITLE=Cyclohexene, 4-methyl-1-(1-methylethyl)-, (R)-
##JCAMP-DX=4.24
##DATA TYPE=MASS SPECTRUM
##OWNER=NIST Mass Spectrometry Data Center
Collection (C) 2014 copyright by the U.S. Secretary of Commerce
on behalf of the United States of America. All rights reserved.
##CAS REGISTRY NO=619-52-3
##$NIST MASS SPEC NO=21099
##MOLFORM=C10 H18
##MW=138
##$NIST SOURCE=MSDC
##XUNITS=M/Z
##YUNITS=RELATIVE INTENSITY
##XFACTOR=1
##YFACTOR=1
##FIRSTX=27
##LASTX=139
##FIRSTY=1001
##MAXX=139
##MINX=27
##MAXY=9999
##MINY=100
##NPOINTS=32
##PEAK TABLE=(XY..XY)
27,1001 29,601 39,1101 40,100
41,2302 42,100 43,1101 53,901
54,300 55,2002 56,100 57,200
67,601 68,1101 69,901 77,601
79,1001 80,200 81,6606 82,1702
83,300 91,400 93,400 94,1201
95,9999 96,2202 97,200 109,400
123,2302 124,200 138,2702 139,200
##END=
