##TITLE=Cyclohexanol, 2-methyl-5-(1-methylethenyl)-
##JCAMP-DX=4.24
##DATA TYPE=MASS SPECTRUM
##ORIGIN=Japan AIST/NIMC Database- Spectrum MS-NW-7606
##OWNER=NIST Mass Spectrometry Data Center
Collection (C) 2014 copyright by the U.S. Secretary of Commerce
on behalf of the United States of America. All rights reserved.
##CAS REGISTRY NO=619-01-2
##$NIST MASS SPEC NO=237954
##MOLFORM=C10 H18 O
##MW=154
##$NIST SOURCE=MSDC
##XUNITS=M/Z
##YUNITS=RELATIVE INTENSITY
##XFACTOR=1
##YFACTOR=1
##FIRSTX=14
##LASTX=155
##FIRSTY=20
##MAXX=155
##MINX=14
##MAXY=9999
##MINY=10
##NPOINTS=123
##PEAK TABLE=(XY..XY)
14,20 15,219 16,10 17,30
18,109 26,139 27,2539 28,449
29,2149 30,119 31,519 32,70
37,40 38,189 39,3769 40,989
41,7069 42,889 43,3019 44,249
45,389 46,10 47,10 48,10
49,20 50,249 51,679 52,429
53,2789 54,869 55,4859 56,1229
57,1239 58,1569 59,459 60,30
61,20 62,90 63,249 64,80
65,819 66,509 67,5449 68,6629
69,4099 70,1349 71,1549 72,1149
73,80 74,40 75,30 76,30
77,1579 78,419 79,7059 80,1889
81,5489 82,3119 83,1679 84,919
85,309 86,70 87,20 88,10
89,50 90,20 91,1769 92,2159
93,9999 94,4559 95,2509 96,1509
97,2269 98,409 99,109 100,20
101,10 102,20 103,109 104,50
105,749 106,349 107,8669 108,2449
109,509 110,369 111,999 112,219
113,50 115,99 116,30 117,129
118,30 119,409 120,99 121,8149
122,879 123,239 124,40 125,80
126,30 127,10 128,20 129,10
130,10 131,30 132,109 133,40
134,209 135,249 136,7179 137,879
138,60 139,259 140,30 148,20
149,10 150,70 151,20 152,159
153,40 154,269 155,30
##END=
