##TITLE=Ethane, 1,1-dichloro-2,2-diethoxy-
##JCAMP-DX=4.24
##DATA TYPE=MASS SPECTRUM
##ORIGIN=Japan AIST/NIMC Database- Spectrum MS-NW-1284
##OWNER=NIST Mass Spectrometry Data Center
Collection (C) 2014 copyright by the U.S. Secretary of Commerce
on behalf of the United States of America. All rights reserved.
##CAS REGISTRY NO=619-33-0
##$NIST MASS SPEC NO=228537
##MOLFORM=C6 H12 Cl2 O2
##MW=186
##$NIST SOURCE=MSDC
##XUNITS=M/Z
##YUNITS=RELATIVE INTENSITY
##XFACTOR=1
##YFACTOR=1
##FIRSTX=13
##LASTX=159
##FIRSTY=10
##MAXX=159
##MINX=13
##MAXY=9999
##MINY=10
##NPOINTS=93
##PEAK TABLE=(XY..XY)
13,10 14,99 15,329 16,10
17,10 18,30 25,10 26,259
27,2039 28,409 29,6479 30,149
31,1139 32,50 35,20 36,80
38,30 39,30 40,10 41,169
42,229 43,379 44,70 45,989
46,30 47,9999 48,199 49,719
50,90 51,229 52,10 54,10
55,10 57,20 59,209 60,40
61,119 62,10 63,199 65,119
67,30 73,20 74,10 75,6269
76,219 77,699 78,659 79,269
80,219 81,20 82,10 83,219
84,40 85,139 86,30 87,70
93,90 94,40 95,70 96,40
97,20 98,20 103,4419 104,249
105,60 106,70 107,30 108,20
109,40 111,40 112,119 113,3229
114,129 115,2099 116,60 117,329
118,10 127,10 129,60 131,40
133,10 137,20 140,10 141,1739
142,90 143,1099 144,50 145,169
146,10 147,20 149,20 157,20
159,10
##END=
