##TITLE=Phenol, 2-chloro-4-nitro-
##JCAMP-DX=4.24
##DATA TYPE=MASS SPECTRUM
##ORIGIN=RADIAN CORP
##OWNER=NIST Mass Spectrometry Data Center
Collection (C) 2014 copyright by the U.S. Secretary of Commerce
on behalf of the United States of America. All rights reserved.
##CAS REGISTRY NO=619-08-9
##$NIST MASS SPEC NO=70378
##MOLFORM=C6 H4 Cl N O3
##MW=173
##$NIST SOURCE=MSDC
##XUNITS=M/Z
##YUNITS=RELATIVE INTENSITY
##XFACTOR=1
##YFACTOR=1
##FIRSTX=16
##LASTX=177
##FIRSTY=70
##MAXX=177
##MINX=16
##MAXY=9999
##MINY=10
##NPOINTS=109
##PEAK TABLE=(XY..XY)
16,70 17,20 25,70 26,250
27,90 29,370 30,3570 31,30
35,250 36,130 37,580 38,560
39,350 40,40 41,60 42,60
43,10 46,1950 47,190 48,110
49,470 50,910 51,1560 52,1020
53,2400 54,210 55,120 59,30
60,660 61,2250 62,4100 63,7360
64,980 65,300 66,330 67,60
68,40 69,50 71,100 72,530
73,4000 74,1250 75,1640 76,270
77,190 78,530 79,3200 80,480
81,60 82,30 84,260 85,180
86,350 87,790 88,160 89,380
90,280 91,3340 92,680 93,50
94,10 95,50 96,190 97,510
98,370 99,6770 100,520 101,2190
102,150 103,20 105,10 106,420
107,4960 108,470 109,110 110,30
111,20 112,10 113,100 114,60
115,880 116,60 117,290 121,50
122,20 123,30 126,460 127,1880
128,280 129,620 130,40 138,30
140,20 141,570 142,70 143,9999
144,710 145,3220 146,220 147,20
155,20 157,490 158,30 159,150
173,9920 174,790 175,3270 176,250
177,30
##END=
