##TITLE=cis-Hept-4-enol
##JCAMP-DX=4.24
##DATA TYPE=MASS SPECTRUM
##ORIGIN=Japan AIST/NIMC Database- Spectrum MS-IW-6651
##OWNER=NIST Mass Spectrometry Data Center
Collection (C) 2014 copyright by the U.S. Secretary of Commerce
on behalf of the United States of America. All rights reserved.
##CAS REGISTRY NO=6191-71-5
##$NIST MASS SPEC NO=237511
##MOLFORM=C7 H14 O
##MW=114
##$NIST SOURCE=MSDC
##XUNITS=M/Z
##YUNITS=RELATIVE INTENSITY
##XFACTOR=1
##YFACTOR=1
##FIRSTX=14
##LASTX=115
##FIRSTY=10
##MAXX=115
##MINX=14
##MAXY=9999
##MINY=10
##NPOINTS=72
##PEAK TABLE=(XY..XY)
14,10 15,119 17,10 18,30
26,109 27,1779 28,339 29,1659
30,70 31,1529 32,40 37,30
38,119 39,2179 40,439 41,7239
42,2379 43,1989 44,1279 45,479
46,30 47,10 49,10 50,129
51,279 52,129 53,1419 54,3339
55,6129 56,929 57,1759 58,229
59,60 61,10 62,30 63,60
64,10 65,349 66,279 67,3849
68,4039 69,1059 70,809 71,3219
72,299 73,30 74,10 75,10
77,219 78,40 79,1039 80,119
81,9999 82,689 83,209 84,80
85,349 86,359 87,20 91,50
93,50 94,20 95,459 96,3169
97,329 98,20 99,30 110,20
112,10 113,40 114,549 115,50
##END=
