##TITLE=cis-3-Hexenyllactate
##JCAMP-DX=4.24
##DATA TYPE=MASS SPECTRUM
##ORIGIN=Japan AIST/NIMC Database- Spectrum MS-NW-1484
##OWNER=NIST Mass Spectrometry Data Center
Collection (C) 2014 copyright by the U.S. Secretary of Commerce
on behalf of the United States of America. All rights reserved.
##CAS REGISTRY NO=61931-81-5
##$NIST MASS SPEC NO=233913
##MOLFORM=C9 H16 O3
##MW=172
##$NIST SOURCE=MSDC
##XUNITS=M/Z
##YUNITS=RELATIVE INTENSITY
##XFACTOR=1
##YFACTOR=1
##FIRSTX=13
##LASTX=128
##FIRSTY=10
##MAXX=128
##MINX=13
##MAXY=9999
##MINY=10
##NPOINTS=82
##PEAK TABLE=(XY..XY)
13,10 14,60 15,409 16,20
17,20 18,70 25,10 26,159
27,1819 28,339 29,1169 30,80
31,279 32,50 36,10 37,30
38,90 39,1569 40,289 41,4349
42,739 43,1699 44,299 45,9999
46,239 47,20 49,10 50,99
51,199 52,99 53,769 54,1009
55,5279 56,439 57,369 58,159
59,139 60,40 61,10 62,10
63,40 64,10 65,159 66,129
67,9319 68,619 69,429 70,349
71,109 72,50 73,40 74,20
75,269 76,10 77,80 78,30
79,229 80,129 81,969 82,9929
83,1659 84,109 85,80 86,90
87,70 89,10 91,20 95,40
96,90 97,60 98,90 99,439
100,70 101,20 102,20 103,10
113,60 114,20 115,20 124,10
127,20 128,10
##END=
