##TITLE=2-Amino-3,4,5-trimethoxybenzoic acid
##JCAMP-DX=4.24
##DATA TYPE=MASS SPECTRUM
##ORIGIN=NIST Mass Spectrometry Data Center, 1994
##OWNER=NIST Mass Spectrometry Data Center
Collection (C) 2014 copyright by the U.S. Secretary of Commerce
on behalf of the United States of America. All rights reserved.
##CAS REGISTRY NO=61948-85-4
##$NIST MASS SPEC NO=136142
##MOLFORM=C10 H13 N O5
##MW=227
##$NIST SOURCE=MSDC
##XUNITS=M/Z
##YUNITS=RELATIVE INTENSITY
##XFACTOR=1
##YFACTOR=1
##FIRSTX=7
##LASTX=230
##FIRSTY=27
##MAXX=230
##MINX=7
##MAXY=9999
##MINY=2
##NPOINTS=166
##PEAK TABLE=(XY..XY)
7,27 8,29 11,4 12,34
13,52 14,41 15,4454 16,43
17,11 18,77 21,21 25,26
26,3 27,133 28,836 29,223
30,130 33,53 37,223 38,506
39,780 40,230 41,255 42,262
43,128 44,463 45,273 46,47
47,25 49,92 50,268 51,492
52,3231 53,3028 54,1283 55,362
56,99 57,48 58,93 61,103
62,144 63,283 64,383 65,1070
66,607 67,706 68,752 69,477
70,189 71,160 72,45 75,153
76,426 77,448 78,513 79,354
80,902 81,818 82,404 83,212
84,65 85,70 86,20 89,62
90,254 91,328 92,438 93,863
94,586 95,1067 96,502 97,443
98,1580 99,196 100,30 105,246
106,424 107,243 108,849 109,283
110,929 111,304 112,97 113,123
114,116 115,30 117,18 118,63
119,162 120,461 121,273 122,431
123,892 124,503 125,207 126,553
127,92 128,23 131,11 132,52
133,108 134,226 135,265 136,461
137,300 138,618 139,274 140,98
141,47 142,17 146,32 147,118
148,693 149,177 150,466 151,2710
152,708 153,225 154,204 155,38
160,13 162,90 163,239 164,283
165,502 166,3970 167,2106 168,405
169,241 170,29 173,32 175,31
176,242 177,100 178,371 179,822
180,245 181,1008 182,143 183,110
184,46 185,18 188,12 191,27
192,89 194,7689 195,836 196,146
197,224 198,41 203,24 207,30
208,613 209,509 210,224 211,24
212,7403 213,827 214,121 223,33
224,31 225,47 227,9999 228,1140
229,61 230,2
##END=
