##TITLE=Phenacetin
##JCAMP-DX=4.24
##DATA TYPE=MASS SPECTRUM
##ORIGIN=N.W. Davies, Centr. Sci. Lab., Univ. Tasmania, Hobart, Australia
##OWNER=NIST Mass Spectrometry Data Center
Collection (C) 2014 copyright by the U.S. Secretary of Commerce
on behalf of the United States of America. All rights reserved.
##CAS REGISTRY NO=62-44-2
##$NIST MASS SPEC NO=107172
##MOLFORM=C10 H13 N O2
##MW=179
##$NIST SOURCE=MSDC
##XUNITS=M/Z
##YUNITS=RELATIVE INTENSITY
##XFACTOR=1
##YFACTOR=1
##FIRSTX=26
##LASTX=180
##FIRSTY=170
##MAXX=180
##MINX=26
##MAXY=9999
##MINY=100
##NPOINTS=43
##PEAK TABLE=(XY..XY)
26,170 27,740 29,670 38,110
39,400 41,150 42,150 43,3400
44,1030 49,110 50,110 51,240
52,670 53,850 54,170 55,110
57,140 63,300 64,290 65,500
77,100 78,130 79,230 80,1090
81,1100 82,110 83,210 85,130
91,160 92,170 93,110 107,200
108,9999 109,8600 110,710 122,100
135,190 136,190 137,4240 138,570
151,110 179,6460 180,760
##END=
