##TITLE=Methanesulfonic acid, ethyl ester
##JCAMP-DX=4.24
##DATA TYPE=MASS SPECTRUM
##ORIGIN=NIST Mass Spectrometry Data Center, 1998.
##OWNER=NIST Mass Spectrometry Data Center
Collection (C) 2014 copyright by the U.S. Secretary of Commerce
on behalf of the United States of America. All rights reserved.
##CAS REGISTRY NO=62-50-0
##$NIST MASS SPEC NO=291426
##MOLFORM=C3 H8 O3 S
##MW=124
##$NIST SOURCE=MSDC
##XUNITS=M/Z
##YUNITS=RELATIVE INTENSITY
##XFACTOR=1
##YFACTOR=1
##FIRSTX=13
##LASTX=126
##FIRSTY=10
##MAXX=126
##MINX=13
##MAXY=9999
##MINY=10
##NPOINTS=60
##PEAK TABLE=(XY..XY)
13,10 14,50 15,750 16,20
19,10 25,10 26,200 27,830
28,690 29,2480 30,190 31,270
32,40 33,50 34,30 35,10
39,10 41,40 42,150 43,640
44,80 45,1740 46,120 47,60
48,460 49,100 50,80 51,20
56,10 59,210 60,10 62,20
63,280 64,300 65,1060 66,40
67,50 69,10 78,120 79,9999
80,1440 81,590 82,60 83,40
92,10 94,10 95,110 96,180
97,2300 98,50 99,110 107,20
109,7119 110,220 111,360 112,10
123,190 124,310 125,30 126,10
##END=
