##TITLE=Nalorphine
##JCAMP-DX=4.24
##DATA TYPE=MASS SPECTRUM
##ORIGIN=Patti Price, Georgia Bureau of Investigation, Decatur, Georgia
##OWNER=NIST Mass Spectrometry Data Center
Collection (C) 2014 copyright by the U.S. Secretary of Commerce
on behalf of the United States of America. All rights reserved.
##CAS REGISTRY NO=62-67-9
##$NIST MASS SPEC NO=247880
##MOLFORM=C19 H21 N O3
##MW=311
##$NIST SOURCE=MSDC
##XUNITS=M/Z
##YUNITS=RELATIVE INTENSITY
##XFACTOR=1
##YFACTOR=1
##FIRSTX=41
##LASTX=313
##FIRSTY=2031
##MAXX=313
##MINX=41
##MAXY=9999
##MINY=60
##NPOINTS=219
##PEAK TABLE=(XY..XY)
41,2031 42,470 43,270 44,130
47,60 50,80 51,290 52,140
53,380 54,300 55,660 56,450
57,350 58,110 63,310 64,160
65,570 66,180 67,380 68,870
69,310 70,850 71,100 74,70
75,260 76,280 77,1391 78,510
79,430 80,910 81,1611 82,650
83,650 84,750 85,670 86,90
87,120 88,80 89,520 90,160
91,1161 92,240 93,270 94,290
95,190 96,810 97,130 98,80
101,200 102,420 103,750 104,290
105,440 106,210 107,300 108,430
109,220 110,160 111,120 113,150
114,190 115,2592 116,620 117,660
118,340 119,230 120,480 121,330
122,310 123,180 124,60 126,250
127,1401 128,1431 129,660 130,330
131,1221 132,450 133,260 134,210
135,580 136,190 137,110 138,180
139,980 140,290 141,1000 142,280
143,350 144,700 145,600 146,360
147,640 148,330 149,180 150,820
151,580 152,1731 153,1161 154,430
155,520 156,320 157,610 158,320
159,310 160,570 161,930 162,610
163,270 164,250 165,890 166,320
167,400 168,500 169,630 170,460
171,1121 172,670 173,930 174,1291
175,700 176,250 177,180 178,280
179,270 180,280 181,1191 182,470
183,310 184,590 185,680 186,580
187,520 188,4163 189,660 190,170
191,190 192,100 193,210 194,230
195,390 196,300 197,960 198,750
199,800 200,1581 201,510 202,420
203,100 204,100 205,100 206,140
207,230 208,180 209,580 210,460
211,670 212,480 213,570 214,410
215,190 216,150 217,70 218,70
219,80 220,80 221,130 222,170
223,350 224,440 225,340 226,1050
227,770 228,750 229,290 230,130
231,110 234,110 235,130 236,170
237,170 238,220 239,170 240,840
241,2712 242,930 243,170 250,130
251,120 252,570 253,240 254,410
255,140 256,100 264,70 266,230
267,90 268,330 269,140 270,690
271,170 278,100 280,120 282,860
283,200 284,510 285,90 292,1040
293,1261 294,1691 295,340 296,290
297,60 308,70 309,380 310,1661
311,9999 312,2021 313,290
##END=
