##TITLE=N-Nitrosodimethylamine
##JCAMP-DX=4.24
##DATA TYPE=MASS SPECTRUM
##ORIGIN=Japan AIST/NIMC Database- Spectrum MS-NW- 697
##OWNER=NIST Mass Spectrometry Data Center
Collection (C) 2014 copyright by the U.S. Secretary of Commerce
on behalf of the United States of America. All rights reserved.
##CAS REGISTRY NO=62-75-9
##$NIST MASS SPEC NO=229457
##MOLFORM=C2 H6 N2 O
##MW=74
##$NIST SOURCE=MSDC
##XUNITS=M/Z
##YUNITS=RELATIVE INTENSITY
##XFACTOR=1
##YFACTOR=1
##FIRSTX=12
##LASTX=76
##FIRSTY=30
##MAXX=76
##MINX=12
##MAXY=9999
##MINY=10
##NPOINTS=29
##PEAK TABLE=(XY..XY)
12,30 13,80 14,279 15,2329
16,30 17,40 18,99 26,10
27,339 28,569 29,40 30,619
38,50 39,60 40,209 41,349
42,5139 43,2519 44,629 45,30
55,10 56,109 57,129 58,10
59,139 73,10 74,9999 75,299
76,10
##END=
