##TITLE=Benzyl sulfone
##JCAMP-DX=4.24
##DATA TYPE=MASS SPECTRUM
##ORIGIN=NIST Mass Spectrometry Data Center
##OWNER=NIST Mass Spectrometry Data Center
Collection (C) 2014 copyright by the U.S. Secretary of Commerce
on behalf of the United States of America. All rights reserved.
##CAS REGISTRY NO=620-32-6
##$NIST MASS SPEC NO=343155
##MOLFORM=C14 H14 O2 S
##MW=246
##$NIST SOURCE=MSDC
##XUNITS=M/Z
##YUNITS=RELATIVE INTENSITY
##XFACTOR=1
##YFACTOR=1
##FIRSTX=16
##LASTX=246
##FIRSTY=30
##MAXX=246
##MINX=16
##MAXY=9999
##MINY=30
##NPOINTS=23
##PEAK TABLE=(XY..XY)
16,30 27,50 38,180 39,1001
40,70 41,230 50,150 51,350
52,110 62,150 63,500 64,200
65,2102 66,130 76,30 77,60
89,350 91,9999 92,821 104,210
182,1101 183,150 246,60
##END=
