##TITLE=Ethanediamide, N,N'-diphenyl-
##JCAMP-DX=4.24
##DATA TYPE=MASS SPECTRUM
##ORIGIN=RADIAN CORP
##OWNER=NIST Mass Spectrometry Data Center
Collection (C) 2014 copyright by the U.S. Secretary of Commerce
on behalf of the United States of America. All rights reserved.
##CAS REGISTRY NO=620-81-5
##$NIST MASS SPEC NO=76480
##MOLFORM=C14 H12 N2 O2
##MW=240
##$NIST SOURCE=MSDC
##XUNITS=M/Z
##YUNITS=RELATIVE INTENSITY
##XFACTOR=1
##YFACTOR=1
##FIRSTX=27
##LASTX=242
##FIRSTY=70
##MAXX=242
##MINX=27
##MAXY=9999
##MINY=10
##NPOINTS=63
##PEAK TABLE=(XY..XY)
27,70 29,20 37,40 38,170
39,870 40,140 41,100 42,20
44,50 50,280 51,1220 52,260
53,40 54,50 55,10 60,20
61,20 62,80 63,420 64,560
65,2060 66,1490 67,130 74,90
75,110 76,240 77,5230 78,480
79,30 80,20 88,10 89,20
90,110 91,740 92,3050 93,9999
94,850 95,40 102,20 103,20
104,120 105,200 106,30 111,20
115,20 119,860 120,3960 121,3440
122,280 123,20 136,60 146,30
147,10 163,40 166,10 167,20
198,80 199,10 221,20 239,50
240,4770 241,790 242,80
##END=
