##TITLE=Benzene, 1-methyl-4-(phenylmethyl)-
##JCAMP-DX=4.24
##DATA TYPE=MASS SPECTRUM
##ORIGIN=NIST Mass Spectrometry Data Center, 1990.
##OWNER=NIST Mass Spectrometry Data Center
Collection (C) 2014 copyright by the U.S. Secretary of Commerce
on behalf of the United States of America. All rights reserved.
##CAS REGISTRY NO=620-83-7
##$NIST MASS SPEC NO=118484
##MOLFORM=C14 H14
##MW=182
##$NIST SOURCE=MSDC
##XUNITS=M/Z
##YUNITS=RELATIVE INTENSITY
##XFACTOR=1
##YFACTOR=1
##FIRSTX=15
##LASTX=184
##FIRSTY=61
##MAXX=184
##MINX=15
##MAXY=9999
##MINY=12
##NPOINTS=92
##PEAK TABLE=(XY..XY)
15,61 17,14 26,51 27,381
28,12 29,51 32,27 37,38
38,151 39,1210 40,106 41,143
50,473 51,1062 52,271 53,193
54,23 57,38 61,45 62,290
63,892 64,264 65,1226 66,88
67,37 69,98 70,49 74,208
75,257 76,740 77,1171 78,822
79,384 80,43 81,37 82,419
85,21 86,110 87,130 88,220
89,1525 90,770 91,1761 92,109
98,74 99,61 100,22 101,68
102,239 103,758 104,3279 105,883
106,59 111,25 113,63 115,758
116,119 125,29 126,148 127,240
128,618 129,101 138,36 139,309
140,72 141,323 142,73 149,22
150,112 151,404 152,1890 153,535
154,135 155,41 162,45 163,163
165,3799 166,2500 167,9999 168,1311
169,100 174,21 175,25 176,193
177,172 178,667 179,403 180,21
181,1311 182,6504 183,958 184,68
##END=
