##TITLE=Pyridine, 4-methoxy-
##JCAMP-DX=4.24
##DATA TYPE=MASS SPECTRUM
##OWNER=NIST Mass Spectrometry Data Center
Collection (C) 2014 copyright by the U.S. Secretary of Commerce
on behalf of the United States of America. All rights reserved.
##CAS REGISTRY NO=620-08-6
##$NIST MASS SPEC NO=1476
##MOLFORM=C6 H7 N O
##MW=109
##$NIST SOURCE=MSDC
##XUNITS=M/Z
##YUNITS=RELATIVE INTENSITY
##XFACTOR=1
##YFACTOR=1
##FIRSTX=50
##LASTX=110
##FIRSTY=901
##MAXX=110
##MINX=50
##MAXY=9999
##MINY=200
##NPOINTS=15
##PEAK TABLE=(XY..XY)
50,901 51,1101 52,3103 53,500
66,901 67,500 68,601 78,1201
79,3303 80,601 93,200 94,400
108,300 109,9999 110,801
##END=
