##TITLE=Benzoic acid, 4-(phenylmethyl)-
##JCAMP-DX=4.24
##DATA TYPE=MASS SPECTRUM
##ORIGIN=NIST Mass Spectrometry Data Center, 1994
##OWNER=NIST Mass Spectrometry Data Center
Collection (C) 2014 copyright by the U.S. Secretary of Commerce
on behalf of the United States of America. All rights reserved.
##CAS REGISTRY NO=620-86-0
##$NIST MASS SPEC NO=134946
##MOLFORM=C14 H12 O2
##MW=212
##$NIST SOURCE=MSDC
##XUNITS=M/Z
##YUNITS=RELATIVE INTENSITY
##XFACTOR=1
##YFACTOR=1
##FIRSTX=18
##LASTX=214
##FIRSTY=17
##MAXX=214
##MINX=18
##MAXY=9999
##MINY=16
##NPOINTS=93
##PEAK TABLE=(XY..XY)
18,17 26,47 27,232 28,197
29,47 32,16 37,40 38,155
39,976 40,111 41,99 45,533
50,656 51,1017 52,179 53,133
55,61 57,80 61,82 62,319
63,933 64,256 65,997 66,78
69,262 70,125 73,34 74,255
75,283 76,376 77,679 78,150
79,82 82,824 84,90 85,48
86,141 87,201 88,135 89,834
90,387 91,1463 92,140 96,143
97,349 99,44 100,25 101,91
102,137 103,39 104,115 105,201
106,33 107,257 108,21 111,55
112,22 113,115 114,91 115,604
116,54 126,123 127,170 128,367
129,59 133,25 135,92 137,60
138,62 139,421 140,69 141,163
142,25 150,61 151,332 152,2488
153,580 154,68 162,50 163,421
164,583 165,4460 166,1822 167,9999
168,1561 169,132 193,138 194,659
195,272 196,47 212,4738 213,735
214,55
##END=
