##TITLE=Benzaldehyde, 3-methyl-
##JCAMP-DX=4.24
##DATA TYPE=MASS SPECTRUM
##ORIGIN=Japan AIST/NIMC Database- Spectrum MS-NW-3491
##OWNER=NIST Mass Spectrometry Data Center
Collection (C) 2014 copyright by the U.S. Secretary of Commerce
on behalf of the United States of America. All rights reserved.
##CAS REGISTRY NO=620-23-5
##$NIST MASS SPEC NO=229279
##MOLFORM=C8 H8 O
##MW=120
##$NIST SOURCE=MSDC
##XUNITS=M/Z
##YUNITS=RELATIVE INTENSITY
##XFACTOR=1
##YFACTOR=1
##FIRSTX=15
##LASTX=122
##FIRSTY=20
##MAXX=122
##MINX=15
##MAXY=9999
##MINY=10
##NPOINTS=68
##PEAK TABLE=(XY..XY)
15,20 18,10 26,60 27,209
28,50 29,229 31,10 36,30
37,169 38,309 39,1529 40,149
41,359 42,20 43,70 44,20
45,40 48,10 49,80 50,529
51,859 52,189 53,90 55,20
56,10 57,10 59,50 60,40
61,219 62,469 63,1139 64,299
65,2539 66,179 67,10 69,20
70,10 73,40 74,169 75,129
76,80 77,159 78,40 79,10
84,20 85,80 86,129 87,90
88,30 89,769 90,419 91,9999
92,1149 93,60 98,10 101,10
102,30 103,60 104,20 105,90
106,10 116,10 117,10 118,80
119,9329 120,8639 121,789 122,50
##END=
