##TITLE=Octane, 2,5,6-trimethyl-
##JCAMP-DX=4.24
##DATA TYPE=MASS SPECTRUM
##ORIGIN=D.HENNEBERG, MAX-PLANCK INSTITUTE, MULHEIM, WEST GERMANY
##OWNER=NIST Mass Spectrometry Data Center
Collection (C) 2014 copyright by the U.S. Secretary of Commerce
on behalf of the United States of America. All rights reserved.
##CAS REGISTRY NO=62016-14-2
##$NIST MASS SPEC NO=61435
##MOLFORM=C11 H24
##MW=156
##$NIST SOURCE=MSDC
##XUNITS=M/Z
##YUNITS=RELATIVE INTENSITY
##XFACTOR=1
##YFACTOR=1
##FIRSTX=24
##LASTX=156
##FIRSTY=6
##MAXX=156
##MINX=24
##MAXY=9999
##MINY=2
##NPOINTS=61
##PEAK TABLE=(XY..XY)
24,6 26,34 27,520 28,12
29,1054 30,36 31,12 32,18
35,21 36,6 37,14 38,10
39,381 40,88 41,1908 42,246
43,4493 44,98 45,22 47,7
48,2 50,15 51,30 52,13
53,106 54,82 55,536 56,2984
57,9999 58,473 59,10 63,10
65,18 67,42 68,17 69,547
70,1141 71,941 72,57 73,10
77,11 78,26 79,9 81,10
83,121 84,178 85,1026 86,60
91,8 97,25 98,405 99,415
100,37 111,5 112,11 113,13
115,7 117,22 118,12 127,111
156,35
##END=
