##TITLE=Butane, 2-methoxy-3-methyl-
##JCAMP-DX=4.24
##DATA TYPE=MASS SPECTRUM
##ORIGIN=D.HENNEBERG, MAX-PLANCK INSTITUTE, MULHEIM, WEST GERMANY
##OWNER=NIST Mass Spectrometry Data Center
Collection (C) 2014 copyright by the U.S. Secretary of Commerce
on behalf of the United States of America. All rights reserved.
##CAS REGISTRY NO=62016-49-3
##$NIST MASS SPEC NO=62568
##MOLFORM=C6 H14 O
##MW=102
##$NIST SOURCE=MSDC
##XUNITS=M/Z
##YUNITS=RELATIVE INTENSITY
##XFACTOR=1
##YFACTOR=1
##FIRSTX=26
##LASTX=103
##FIRSTY=60
##MAXX=103
##MINX=26
##MAXY=9999
##MINY=3
##NPOINTS=46
##PEAK TABLE=(XY..XY)
26,60 27,321 28,170 29,1146
30,30 31,1108 32,32 33,37
35,5 39,205 40,31 41,630
42,138 43,867 44,28 45,342
46,5 50,7 51,9 53,64
54,14 55,947 56,55 57,47
58,753 59,9999 60,358 61,13
65,4 67,13 69,89 70,112
71,241 72,18 73,29 79,6
80,5 81,3 85,19 86,4
87,516 88,27 91,4 101,55
102,33 103,5
##END=
