##TITLE=Octane, 2,4,6-trimethyl-
##JCAMP-DX=4.24
##DATA TYPE=MASS SPECTRUM
##ORIGIN=D.HENNEBERG, MAX-PLANCK INSTITUTE, MULHEIM, WEST GERMANY
##OWNER=NIST Mass Spectrometry Data Center
Collection (C) 2014 copyright by the U.S. Secretary of Commerce
on behalf of the United States of America. All rights reserved.
##CAS REGISTRY NO=62016-37-9
##$NIST MASS SPEC NO=61432
##MOLFORM=C11 H24
##MW=156
##$NIST SOURCE=MSDC
##XUNITS=M/Z
##YUNITS=RELATIVE INTENSITY
##XFACTOR=1
##YFACTOR=1
##FIRSTX=24
##LASTX=156
##FIRSTY=8
##MAXX=156
##MINX=24
##MAXY=9999
##MINY=2
##NPOINTS=62
##PEAK TABLE=(XY..XY)
24,8 25,4 26,64 27,681
28,35 29,1307 30,42 32,21
33,15 34,2 39,518 40,132
41,2319 42,450 43,6848 44,185
45,13 46,9 49,4 50,16
51,20 52,7 53,137 54,128
55,806 56,1310 57,9999 58,404
63,6 65,15 66,13 67,131
68,83 69,578 70,659 71,2574
72,125 77,24 79,94 81,50
82,16 83,157 84,455 85,2321
86,170 89,5 91,12 94,5
95,8 98,253 99,633 100,34
110,10 111,2 112,22 113,56
114,5 126,18 127,179 128,9
141,26 156,6
##END=
