##TITLE=1-Naphthalenol, TMS derivative
##JCAMP-DX=4.24
##DATA TYPE=MASS SPECTRUM
##ORIGIN=Tox21 Consortium/NIST Mass Spectrometry Data Center, 2012
##OWNER=NIST Mass Spectrometry Data Center
Collection (C) 2014 copyright by the U.S. Secretary of Commerce
on behalf of the United States of America. All rights reserved.
##CAS REGISTRY NO=6202-48-8
##$NIST MASS SPEC NO=408479
##MOLFORM=C13 H16 O Si
##MW=216
##$NIST SOURCE=MSDC
##XUNITS=M/Z
##YUNITS=RELATIVE INTENSITY
##XFACTOR=1
##YFACTOR=1
##FIRSTX=15
##LASTX=219
##FIRSTY=20
##MAXX=219
##MINX=15
##MAXY=9999
##MINY=10
##NPOINTS=153
##PEAK TABLE=(XY..XY)
15,20 26,10 27,40 28,40
29,90 30,10 31,30 37,10
38,20 39,160 40,10 41,20
42,60 43,631 44,260 45,1531
46,100 47,160 48,10 49,10
50,120 51,270 52,40 53,150
54,20 55,100 56,20 57,100
58,160 59,150 60,30 61,70
62,150 63,450 64,110 65,170
66,40 67,40 68,10 69,30
70,40 71,70 72,100 73,4444
74,540 75,741 76,200 77,520
78,70 79,50 81,10 83,20
86,190 87,160 88,140 89,420
90,60 91,70 93,1381 95,10
98,60 99,110 101,1251 102,110
103,50 104,10 105,70 106,10
107,20 109,10 110,10 111,10
112,10 113,220 114,240 115,3183
116,380 117,70 118,10 119,40
120,10 121,10 122,10 125,90
126,1081 127,2182 128,480 129,150
130,30 131,70 132,10 133,20
135,10 137,20 138,30 139,550
140,230 141,2192 142,450 143,591
144,130 145,530 146,80 147,40
150,10 151,20 152,70 153,80
154,30 155,220 156,30 157,60
158,20 159,20 160,10 161,10
167,60 168,40 169,90 170,621
171,591 172,110 173,60 174,10
179,10 180,10 181,110 182,30
183,300 184,250 185,5955 186,1041
187,280 188,40 189,10 195,10
197,20 198,40 199,210 200,310
201,9939 202,1842 203,500 204,50
205,10 211,10 213,30 214,60
215,250 216,9999 217,1952 218,530
219,50
##END=
