##TITLE=1-Cyclohexyl-2,2-dimethyl-1-propanol
##JCAMP-DX=4.24
##DATA TYPE=MASS SPECTRUM
##ORIGIN=NIST Mass Spectrometry Data Center, 1990.
##OWNER=NIST Mass Spectrometry Data Center
Collection (C) 2014 copyright by the U.S. Secretary of Commerce
on behalf of the United States of America. All rights reserved.
##CAS REGISTRY NO=62039-14-9
##$NIST MASS SPEC NO=113797
##MOLFORM=C11 H22 O
##MW=170
##$NIST SOURCE=MSDC
##XUNITS=M/Z
##YUNITS=RELATIVE INTENSITY
##XFACTOR=1
##YFACTOR=1
##FIRSTX=27
##LASTX=137
##FIRSTY=718
##MAXX=137
##MINX=27
##MAXY=9999
##MINY=71
##NPOINTS=44
##PEAK TABLE=(XY..XY)
27,718 28,533 29,1395 31,269
32,80 39,985 41,2993 42,284
43,910 44,142 45,551 51,89
53,392 54,251 55,1866 56,468
57,2149 58,115 59,96 65,109
67,1493 68,238 69,1362 70,492
71,227 73,143 77,150 79,246
80,87 81,472 82,148 83,647
84,71 87,1314 88,88 93,275
95,9999 96,834 97,147 111,164
112,1020 113,2469 114,186 137,105
##END=
