##TITLE=Methyl 2,4-dichlorobutanoate
##JCAMP-DX=4.24
##DATA TYPE=MASS SPECTRUM
##ORIGIN=ASES Database, Dalian Institute, P.R. China
##OWNER=NIST Mass Spectrometry Data Center
Collection (C) 2014 copyright by the U.S. Secretary of Commerce
on behalf of the United States of America. All rights reserved.
##CAS REGISTRY NO=62093-65-6
##$NIST MASS SPEC NO=143980
##MOLFORM=C5 H8 Cl2 O2
##MW=170
##$NIST SOURCE=MSDC
##XUNITS=M/Z
##YUNITS=RELATIVE INTENSITY
##XFACTOR=1
##YFACTOR=1
##FIRSTX=39
##LASTX=141
##FIRSTY=3593
##MAXX=141
##MINX=39
##MAXY=9999
##MINY=180
##NPOINTS=32
##PEAK TABLE=(XY..XY)
39,3593 41,5344 42,970 43,1090
49,3032 51,1191 55,2702 56,360
59,9999 60,530 61,340 62,610
63,720 74,610 75,6055 76,4844
77,2242 78,1621 99,970 102,410
103,610 108,8447 109,470 110,2902
111,2332 113,1391 121,600 123,180
135,600 137,180 139,1090 141,600
##END=
