##TITLE=Phenoxyacetamide
##JCAMP-DX=4.24
##DATA TYPE=MASS SPECTRUM
##ORIGIN=NIST Mass Spectrometry Data Center, 1994
##OWNER=NIST Mass Spectrometry Data Center
Collection (C) 2014 copyright by the U.S. Secretary of Commerce
on behalf of the United States of America. All rights reserved.
##CAS REGISTRY NO=621-88-5
##$NIST MASS SPEC NO=134346
##MOLFORM=C8 H9 N O2
##MW=151
##$NIST SOURCE=MSDC
##XUNITS=M/Z
##YUNITS=RELATIVE INTENSITY
##XFACTOR=1
##YFACTOR=1
##FIRSTX=15
##LASTX=153
##FIRSTY=65
##MAXX=153
##MINX=15
##MAXY=9999
##MINY=11
##NPOINTS=64
##PEAK TABLE=(XY..XY)
15,65 16,44 17,45 18,63
25,11 26,81 27,287 29,287
30,1154 31,137 37,164 38,507
39,1538 40,134 41,119 42,445
43,81 44,1564 45,28 50,942
51,2652 52,323 53,114 54,25
55,60 58,955 59,25 60,15
61,82 62,218 63,516 64,210
65,1070 66,330 67,24 73,48
74,313 75,189 76,15 77,7032
78,2224 79,2631 80,212 81,21
89,15 90,48 91,45 92,69
93,295 94,1123 95,117 105,154
107,5708 108,2242 109,168 110,27
121,235 122,113 133,55 134,234
135,32 151,9999 152,924 153,79
##END=
