##TITLE=Benzeneacetonitrile, 3-nitro-
##JCAMP-DX=4.24
##DATA TYPE=MASS SPECTRUM
##ORIGIN=NIST Mass Spectrometry Data Center, 1994
##OWNER=NIST Mass Spectrometry Data Center
Collection (C) 2014 copyright by the U.S. Secretary of Commerce
on behalf of the United States of America. All rights reserved.
##CAS REGISTRY NO=621-50-1
##$NIST MASS SPEC NO=134897
##MOLFORM=C8 H6 N2 O2
##MW=162
##$NIST SOURCE=MSDC
##XUNITS=M/Z
##YUNITS=RELATIVE INTENSITY
##XFACTOR=1
##YFACTOR=1
##FIRSTX=26
##LASTX=164
##FIRSTY=140
##MAXX=164
##MINX=26
##MAXY=9999
##MINY=28
##NPOINTS=53
##PEAK TABLE=(XY..XY)
26,140 27,191 28,293 29,140
30,1894 32,38 37,331 38,767
39,1894 40,206 41,122 43,54
46,304 49,187 50,1854 51,1007
52,263 53,63 61,460 62,1191
63,3035 64,911 65,560 66,129
73,117 74,747 75,679 76,611
77,1350 78,244 85,120 86,232
87,360 88,906 89,8923 90,1623
91,105 92,57 99,28 100,32
102,94 104,1394 105,175 114,428
116,9999 117,889 132,1299 133,106
145,64 146,86 162,5707 163,589
164,55
##END=
