##TITLE=Benzenemethanamine, N-hydroxy-N-(phenylmethyl)-
##JCAMP-DX=4.24
##DATA TYPE=MASS SPECTRUM
##ORIGIN=Japan AIST/NIMC Database- Spectrum MS-IW- 794
##OWNER=NIST Mass Spectrometry Data Center
Collection (C) 2014 copyright by the U.S. Secretary of Commerce
on behalf of the United States of America. All rights reserved.
##CAS REGISTRY NO=621-07-8
##$NIST MASS SPEC NO=237028
##MOLFORM=C14 H15 N O
##MW=213
##$NIST SOURCE=MSDC
##XUNITS=M/Z
##YUNITS=RELATIVE INTENSITY
##XFACTOR=1
##YFACTOR=1
##FIRSTX=18
##LASTX=215
##FIRSTY=20
##MAXX=215
##MINX=18
##MAXY=9999
##MINY=10
##NPOINTS=70
##PEAK TABLE=(XY..XY)
18,20 27,20 28,60 30,10
38,20 39,199 40,20 41,70
50,70 51,209 52,50 53,10
62,30 63,139 64,40 65,969
66,60 74,10 75,20 76,40
77,279 78,80 79,90 82,10
83,10 89,259 90,179 91,9999
92,1859 93,109 96,10 97,20
103,60 104,189 105,179 106,1379
107,119 116,70 117,229 118,199
119,20 120,159 121,60 122,219
123,20 135,10 136,30 152,30
153,10 165,70 166,40 167,60
168,99 169,10 178,10 181,119
182,20 192,10 193,30 194,719
195,949 196,379 197,339 198,50
210,10 211,209 212,50 213,1849
214,299 215,30
##END=
