##TITLE=1,4-Dibenzyloxybenzene
##JCAMP-DX=4.24
##DATA TYPE=MASS SPECTRUM
##ORIGIN=NIST Mass Spectrometry Data Center
##OWNER=NIST Mass Spectrometry Data Center
Collection (C) 2014 copyright by the U.S. Secretary of Commerce
on behalf of the United States of America. All rights reserved.
##CAS REGISTRY NO=621-91-0
##$NIST MASS SPEC NO=341181
##MOLFORM=C20 H18 O2
##MW=290
##$NIST SOURCE=MSDC
##XUNITS=M/Z
##YUNITS=RELATIVE INTENSITY
##XFACTOR=1
##YFACTOR=1
##FIRSTX=38
##LASTX=292
##FIRSTY=20
##MAXX=292
##MINX=38
##MAXY=9999
##MINY=10
##NPOINTS=46
##PEAK TABLE=(XY..XY)
38,20 39,230 41,80 50,50
51,160 52,70 53,30 54,70
55,10 62,40 63,280 64,120
65,1411 66,70 75,10 76,10
77,50 82,30 89,290 90,170
91,9999 92,1031 93,30 104,40
105,10 108,10 110,10 115,40
116,10 128,10 141,40 142,20
152,10 153,10 165,10 167,10
169,20 171,30 181,40 182,10
198,10 199,70 200,10 290,1742
291,380 292,40
##END=
