##TITLE=1-Pentanamine, N,N-dipentyl-
##JCAMP-DX=4.24
##DATA TYPE=MASS SPECTRUM
##ORIGIN=NIST Mass Spectrometry Data Center, 1998.
##OWNER=NIST Mass Spectrometry Data Center
Collection (C) 2014 copyright by the U.S. Secretary of Commerce
on behalf of the United States of America. All rights reserved.
##CAS REGISTRY NO=621-77-2
##$NIST MASS SPEC NO=290602
##MOLFORM=C15 H33 N
##MW=227
##$NIST SOURCE=MSDC
##XUNITS=M/Z
##YUNITS=RELATIVE INTENSITY
##XFACTOR=1
##YFACTOR=1
##FIRSTX=15
##LASTX=228
##FIRSTY=10
##MAXX=228
##MINX=15
##MAXY=9999
##MINY=10
##NPOINTS=69
##PEAK TABLE=(XY..XY)
15,10 26,10 27,160 28,10
29,510 30,180 39,130 40,20
41,810 42,520 43,1480 44,830
45,20 53,50 54,40 55,310
56,170 57,300 58,670 59,20
65,10 67,30 68,50 69,160
70,200 71,220 72,30 80,10
81,10 82,50 83,20 84,790
85,50 86,60 94,10 96,30
97,10 98,200 99,20 100,210
101,20 110,20 112,490 113,50
114,3110 115,260 116,10 126,40
128,20 138,10 140,60 141,10
142,20 154,20 156,80 157,10
168,100 170,9999 171,1360 172,80
184,10 196,20 198,70 199,10
212,30 225,10 226,70 227,170
228,30
##END=
