##TITLE=Benzaldehyde, 3-hydroxy-4-methoxy-
##JCAMP-DX=4.24
##DATA TYPE=MASS SPECTRUM
##ORIGIN=NIST Mass Spectrometry Data Center
##OWNER=NIST Mass Spectrometry Data Center
Collection (C) 2014 copyright by the U.S. Secretary of Commerce
on behalf of the United States of America. All rights reserved.
##CAS REGISTRY NO=621-59-0
##$NIST MASS SPEC NO=352849
##MOLFORM=C8 H8 O3
##MW=152
##$NIST SOURCE=MSDC
##XUNITS=M/Z
##YUNITS=RELATIVE INTENSITY
##XFACTOR=1
##YFACTOR=1
##FIRSTX=14
##LASTX=155
##FIRSTY=60
##MAXX=155
##MINX=14
##MAXY=9999
##MINY=10
##NPOINTS=90
##PEAK TABLE=(XY..XY)
14,60 15,430 16,10 17,10
25,20 26,140 27,490 28,120
29,841 30,30 31,110 32,20
36,10 37,160 38,340 39,651
40,40 41,220 42,50 43,50
44,10 45,20 46,10 48,10
49,110 50,771 51,1271 52,1151
53,1341 54,140 55,310 56,10
57,10 59,10 60,20 61,220
62,460 63,761 64,160 65,741
66,140 67,240 68,20 69,70
73,30 74,150 75,100 76,50
77,571 78,80 79,751 80,490
81,3053 82,170 83,20 86,10
90,20 91,140 92,60 93,180
94,40 95,220 96,10 103,20
104,10 105,40 106,10 107,80
108,881 109,2002 110,140 111,20
119,240 120,50 121,60 123,1281
124,200 125,10 127,40 128,50
135,30 136,220 137,400 138,30
149,20 151,9999 152,9078 153,811
154,90 155,10
##END=
