##TITLE=Urea, N-ethyl-N'-phenyl-
##JCAMP-DX=4.24
##DATA TYPE=MASS SPECTRUM
##OWNER=NIST Mass Spectrometry Data Center
Collection (C) 2014 copyright by the U.S. Secretary of Commerce
on behalf of the United States of America. All rights reserved.
##CAS REGISTRY NO=621-04-5
##$NIST MASS SPEC NO=6097
##MOLFORM=C9 H12 N2 O
##MW=164
##$NIST SOURCE=MSDC
##XUNITS=M/Z
##YUNITS=RELATIVE INTENSITY
##XFACTOR=1
##YFACTOR=1
##FIRSTX=38
##LASTX=165
##FIRSTY=125
##MAXX=165
##MINX=38
##MAXY=9999
##MINY=50
##NPOINTS=45
##PEAK TABLE=(XY..XY)
38,125 39,500 40,375 41,700
42,500 43,2500 44,1250 50,125
51,475 52,125 55,250 56,200
57,125 63,250 64,375 65,450
66,75 67,125 68,75 69,200
70,75 71,100 72,9999 73,700
74,125 77,625 78,125 79,75
91,800 92,250 93,275 94,75
95,75 97,75 105,200 106,200
107,50 109,50 119,1875 120,250
121,75 161,125 163,200 164,3750
165,450
##END=
