##TITLE=Benzene, 1,1'-[sulfinylbis(methylene)]bis-
##JCAMP-DX=4.24
##DATA TYPE=MASS SPECTRUM
##ORIGIN=Japan AIST/NIMC Database- Spectrum MS-NW-7895
##OWNER=NIST Mass Spectrometry Data Center
Collection (C) 2014 copyright by the U.S. Secretary of Commerce
on behalf of the United States of America. All rights reserved.
##CAS REGISTRY NO=621-08-9
##$NIST MASS SPEC NO=232800
##MOLFORM=C14 H14 O S
##MW=230
##$NIST SOURCE=MSDC
##XUNITS=M/Z
##YUNITS=RELATIVE INTENSITY
##XFACTOR=1
##YFACTOR=1
##FIRSTX=27
##LASTX=232
##FIRSTY=20
##MAXX=232
##MINX=27
##MAXY=9999
##MINY=10
##NPOINTS=57
##PEAK TABLE=(XY..XY)
27,20 28,10 32,10 38,30
39,369 40,30 41,99 44,10
45,129 50,60 51,179 52,40
53,10 61,10 62,40 63,189
64,60 65,1019 66,70 69,10
74,10 75,10 76,10 77,119
78,30 79,20 87,10 89,159
90,70 91,9999 92,829 93,30
105,80 106,50 109,10 121,60
122,40 123,60 124,60 125,10
137,10 139,10 140,10 152,70
153,10 165,10 166,10 178,10
179,10 180,289 181,179 182,30
213,10 214,40 230,429 231,80
232,20
##END=
