##TITLE=Tricaproin
##JCAMP-DX=4.24
##DATA TYPE=MASS SPECTRUM
##ORIGIN=Japan AIST/NIMC Database- Spectrum MS-NW-2755
##OWNER=NIST Mass Spectrometry Data Center
Collection (C) 2014 copyright by the U.S. Secretary of Commerce
on behalf of the United States of America. All rights reserved.
##CAS REGISTRY NO=621-70-5
##$NIST MASS SPEC NO=231537
##MOLFORM=C21 H38 O6
##MW=386
##$NIST SOURCE=MSDC
##XUNITS=M/Z
##YUNITS=RELATIVE INTENSITY
##XFACTOR=1
##YFACTOR=1
##FIRSTX=14
##LASTX=315
##FIRSTY=30
##MAXX=315
##MINX=14
##MAXY=9999
##MINY=10
##NPOINTS=113
##PEAK TABLE=(XY..XY)
14,30 15,30 16,10 17,10
18,50 26,30 27,379 28,239
29,509 30,10 31,40 32,20
38,10 39,189 40,40 41,789
42,229 43,2289 44,70 45,80
51,20 53,40 54,30 55,839
56,139 57,189 58,20 59,20
60,729 61,60 67,20 68,30
69,269 70,299 71,2069 72,109
73,369 74,70 75,20 77,10
78,10 80,50 81,40 83,60
85,10 87,119 88,10 89,10
91,20 96,10 97,70 98,409
99,9999 100,679 101,50 111,10
112,30 113,10 115,20 116,159
117,70 121,119 122,10 129,60
130,10 135,10 137,10 140,40
141,30 142,10 143,20 154,20
155,10 157,10 158,449 159,179
160,20 164,20 168,10 171,489
172,229 173,409 174,40 176,10
185,119 186,20 191,20 196,20
197,10 198,40 199,20 201,30
202,10 214,289 215,109 216,10
227,759 228,119 229,10 241,109
242,30 255,20 257,469 258,70
259,10 269,20 270,129 271,749
272,119 273,20 313,60 314,10
315,10
##END=
