##TITLE=m-Tolylacetic acid
##JCAMP-DX=4.24
##DATA TYPE=MASS SPECTRUM
##ORIGIN=NIST Mass Spectrometry Data Center, 1990.
##OWNER=NIST Mass Spectrometry Data Center
Collection (C) 2014 copyright by the U.S. Secretary of Commerce
on behalf of the United States of America. All rights reserved.
##CAS REGISTRY NO=621-36-3
##$NIST MASS SPEC NO=118361
##MOLFORM=C9 H10 O2
##MW=150
##$NIST SOURCE=MSDC
##XUNITS=M/Z
##YUNITS=RELATIVE INTENSITY
##XFACTOR=1
##YFACTOR=1
##FIRSTX=17
##LASTX=152
##FIRSTY=13
##MAXX=152
##MINX=17
##MAXY=9999
##MINY=13
##NPOINTS=54
##PEAK TABLE=(XY..XY)
17,13 18,23 26,82 27,529
28,105 29,92 32,13 37,61
38,279 39,894 40,131 41,123
43,34 44,58 45,311 49,49
50,502 51,1092 52,333 53,364
55,54 61,79 62,228 63,531
64,131 65,416 66,97 67,26
74,148 75,143 76,264 77,2354
78,976 79,1984 80,167 87,49
89,234 91,2446 92,217 93,49
102,246 103,1255 105,9999 106,1818
107,194 108,35 121,107 122,47
131,20 132,85 148,34 150,3811
151,399 152,45
##END=
