##TITLE=3-Chloropropanoic acid 2-methylpropyl ester
##JCAMP-DX=4.24
##DATA TYPE=MASS SPECTRUM
##ORIGIN=V.Zaikin,Topchiev Inst.Petrochem.Synth.,Moscow
##OWNER=NIST Mass Spectrometry Data Center
Collection (C) 2014 copyright by the U.S. Secretary of Commerce
on behalf of the United States of America. All rights reserved.
##CAS REGISTRY NO=62108-68-3
##$NIST MASS SPEC NO=282324
##MOLFORM=C7 H13 Cl O2
##MW=164
##$NIST SOURCE=MSDC
##XUNITS=M/Z
##YUNITS=RELATIVE INTENSITY
##XFACTOR=1
##YFACTOR=1
##FIRSTX=25
##LASTX=149
##FIRSTY=20
##MAXX=149
##MINX=25
##MAXY=9999
##MINY=10
##NPOINTS=63
##PEAK TABLE=(XY..XY)
25,20 26,150 27,831 28,100
29,420 30,30 31,60 35,40
36,340 37,20 38,110 39,370
40,100 41,1151 42,160 43,510
44,20 45,40 49,50 50,60
51,90 52,180 53,50 54,20
55,540 56,6176 57,1191 58,60
59,20 61,40 62,100 63,2372
64,90 65,741 66,20 70,20
71,891 72,80 73,400 74,20
75,10 78,40 79,320 80,20
85,30 87,360 88,20 89,30
90,40 91,9999 92,360 93,2843
94,120 108,290 109,430 110,110
111,140 121,961 122,210 123,360
124,70 125,20 149,20
##END=
