##TITLE=Decane, 2,6,7-trimethyl-
##JCAMP-DX=4.24
##DATA TYPE=MASS SPECTRUM
##ORIGIN=D.HENNEBERG, MAX-PLANCK INSTITUTE, MULHEIM, WEST GERMANY
##OWNER=NIST Mass Spectrometry Data Center
Collection (C) 2014 copyright by the U.S. Secretary of Commerce
on behalf of the United States of America. All rights reserved.
##CAS REGISTRY NO=62108-25-2
##$NIST MASS SPEC NO=61642
##MOLFORM=C13 H28
##MW=184
##$NIST SOURCE=MSDC
##XUNITS=M/Z
##YUNITS=RELATIVE INTENSITY
##XFACTOR=1
##YFACTOR=1
##FIRSTX=39
##LASTX=141
##FIRSTY=509
##MAXX=141
##MINX=39
##MAXY=9999
##MINY=39
##NPOINTS=35
##PEAK TABLE=(XY..XY)
39,509 40,189 41,2467 42,899
43,6103 44,200 53,149 54,79
55,1528 56,2117 57,9999 58,419
67,89 68,109 69,699 70,2487
71,4885 72,329 73,109 82,169
83,189 84,529 85,799 86,89
96,59 97,159 98,129 99,299
100,59 111,69 112,809 113,609
114,69 140,39 141,109
##END=
