##TITLE=Butane, 2,2,3-tribromo-
##JCAMP-DX=4.24
##DATA TYPE=MASS SPECTRUM
##ORIGIN=RADIAN CORP
##OWNER=NIST Mass Spectrometry Data Center
Collection (C) 2014 copyright by the U.S. Secretary of Commerce
on behalf of the United States of America. All rights reserved.
##CAS REGISTRY NO=62127-47-3
##$NIST MASS SPEC NO=73455
##MOLFORM=C4 H7 Br3
##MW=292
##$NIST SOURCE=MSDC
##XUNITS=M/Z
##YUNITS=RELATIVE INTENSITY
##XFACTOR=1
##YFACTOR=1
##FIRSTX=15
##LASTX=217
##FIRSTY=690
##MAXX=217
##MINX=15
##MAXY=9999
##MINY=70
##NPOINTS=30
##PEAK TABLE=(XY..XY)
15,690 25,260 26,2230 27,9150
29,2490 37,590 38,1020 39,3670
49,430 50,1910 51,2310 52,850
53,9999 54,1130 55,4160 79,1920
80,960 81,1980 82,890 105,540
107,810 109,750 133,2900 134,820
135,2880 136,700 160,70 213,2110
215,4980 217,2450
##END=
