##TITLE=2-Propenoic acid, 3-bromo-, methyl ester, (Z)-
##JCAMP-DX=4.24
##DATA TYPE=MASS SPECTRUM
##ORIGIN=PYTCAS, 18(4)617(1979); F. X. WOOLARD ET AL.
##OWNER=NIST Mass Spectrometry Data Center
Collection (C) 2014 copyright by the U.S. Secretary of Commerce
on behalf of the United States of America. All rights reserved.
##CAS REGISTRY NO=6214-22-8
##$NIST MASS SPEC NO=66854
##MOLFORM=C4 H5 Br O2
##MW=164
##$NIST SOURCE=MSDC
##XUNITS=M/Z
##YUNITS=RELATIVE INTENSITY
##XFACTOR=1
##YFACTOR=1
##FIRSTX=59
##LASTX=166
##FIRSTY=2200
##MAXX=166
##MINX=59
##MAXY=9999
##MINY=1100
##NPOINTS=8
##PEAK TABLE=(XY..XY)
59,2200 85,4700 105,3500 107,3400
133,9999 135,9900 164,1200 166,1100
##END=
