##TITLE=4-Butoxybenzyl alcohol
##JCAMP-DX=4.24
##DATA TYPE=MASS SPECTRUM
##ORIGIN=NIST Mass Spectrometry Data Center
##OWNER=NIST Mass Spectrometry Data Center
Collection (C) 2014 copyright by the U.S. Secretary of Commerce
on behalf of the United States of America. All rights reserved.
##CAS REGISTRY NO=6214-45-5
##$NIST MASS SPEC NO=340632
##MOLFORM=C11 H16 O2
##MW=180
##$NIST SOURCE=MSDC
##XUNITS=M/Z
##YUNITS=RELATIVE INTENSITY
##XFACTOR=1
##YFACTOR=1
##FIRSTX=15
##LASTX=182
##FIRSTY=40
##MAXX=182
##MINX=15
##MAXY=9999
##MINY=10
##NPOINTS=87
##PEAK TABLE=(XY..XY)
15,40 26,100 27,1051 29,2552
30,70 31,250 37,30 38,170
39,1872 40,290 41,3383 42,170
43,150 44,10 49,10 50,410
51,1131 52,410 53,490 54,60
55,731 56,150 57,871 58,30
61,20 62,130 63,530 64,220
65,1111 66,601 67,1061 68,180
69,50 74,80 75,80 76,200
77,3593 78,2412 79,771 80,60
81,100 82,10 86,10 87,10
89,1001 90,170 91,190 92,80
93,270 94,410 95,9999 96,811
97,50 103,40 104,20 105,2632
106,7527 107,4674 108,430 109,40
115,10 119,40 120,20 121,631
122,200 123,8658 124,7477 125,571
126,40 131,10 133,50 135,20
137,240 138,20 147,10 149,40
150,10 151,90 152,10 163,80
164,20 177,10 178,30 179,110
180,4984 181,591 182,40
##END=
