##TITLE=2,2,4,4-Tetramethyloctane
##JCAMP-DX=4.24
##DATA TYPE=MASS SPECTRUM
##ORIGIN=NIST Mass Spectrometry Data Center, 1990.
##OWNER=NIST Mass Spectrometry Data Center
Collection (C) 2014 copyright by the U.S. Secretary of Commerce
on behalf of the United States of America. All rights reserved.
##CAS REGISTRY NO=62183-79-3
##$NIST MASS SPEC NO=114707
##MOLFORM=C12 H26
##MW=170
##$NIST SOURCE=MSDC
##XUNITS=M/Z
##YUNITS=RELATIVE INTENSITY
##XFACTOR=1
##YFACTOR=1
##FIRSTX=27
##LASTX=114
##FIRSTY=300
##MAXX=114
##MINX=27
##MAXY=9999
##MINY=18
##NPOINTS=33
##PEAK TABLE=(XY..XY)
27,300 28,50 29,649 32,18
39,404 41,2022 42,171 43,1058
44,39 51,29 53,173 55,889
56,1525 57,9999 58,425 65,32
67,83 69,265 70,485 71,290
77,27 79,31 81,28 83,172
84,27 85,98 97,97 98,485
99,1771 100,132 112,262 113,600
114,52
##END=
