##TITLE=Triethylene glycol, 2TMS derivative
##JCAMP-DX=4.24
##DATA TYPE=MASS SPECTRUM
##ORIGIN=NIST Mass Spectrometry Data Center, 2007
##OWNER=NIST Mass Spectrometry Data Center
Collection (C) 2014 copyright by the U.S. Secretary of Commerce
on behalf of the United States of America. All rights reserved.
##CAS REGISTRY NO=62185-58-4
##$NIST MASS SPEC NO=352052
##MOLFORM=C12 H30 O4 Si2
##MW=294
##$NIST SOURCE=MSDC
##XUNITS=M/Z
##YUNITS=RELATIVE INTENSITY
##XFACTOR=1
##YFACTOR=1
##FIRSTX=14
##LASTX=279
##FIRSTY=10
##MAXX=279
##MINX=14
##MAXY=9999
##MINY=10
##NPOINTS=99
##PEAK TABLE=(XY..XY)
14,10 15,50 19,10 26,10
27,60 28,130 29,130 30,20
31,70 39,10 41,40 42,40
43,390 44,170 45,791 46,50
47,150 48,10 49,10 51,10
52,20 53,10 55,30 56,10
57,60 58,320 59,781 60,80
61,290 62,20 63,20 66,520
69,10 70,80 71,80 72,290
73,9999 74,921 75,1321 76,90
77,170 78,10 79,10 85,20
86,20 87,380 88,641 89,240
90,30 91,10 99,30 101,1251
102,160 103,2672 104,240 105,190
106,10 115,90 116,4134 117,6806
118,901 119,450 120,30 121,10
129,10 131,60 132,20 133,370
134,50 135,40 145,330 146,50
147,1241 148,180 149,100 150,10
159,10 160,40 161,1441 162,190
163,70 164,10 175,20 176,10
177,20 189,30 190,10 191,160
192,30 193,10 204,10 205,10
207,10 235,60 236,10 237,10
251,50 252,10 279,30
##END=
