##TITLE=3-Ethylthiolane
##JCAMP-DX=4.24
##DATA TYPE=MASS SPECTRUM
##ORIGIN=V.G.Zaikin, TIPS, Russian Acad. Sci.
##OWNER=NIST Mass Spectrometry Data Center
Collection (C) 2014 copyright by the U.S. Secretary of Commerce
on behalf of the United States of America. All rights reserved.
##CAS REGISTRY NO=62184-67-2
##$NIST MASS SPEC NO=215082
##MOLFORM=C6 H12 S
##MW=116
##$NIST SOURCE=MSDC
##XUNITS=M/Z
##YUNITS=RELATIVE INTENSITY
##XFACTOR=1
##YFACTOR=1
##FIRSTX=41
##LASTX=119
##FIRSTY=6706
##MAXX=119
##MINX=41
##MAXY=9999
##MINY=30
##NPOINTS=42
##PEAK TABLE=(XY..XY)
41,6706 42,2402 43,1201 44,8307
45,4003 46,2101 47,1901 53,1501
54,1601 55,6405 56,900 57,700
58,600 59,2101 60,6906 61,3102
62,500 67,3503 68,1401 69,5104
70,2201 71,700 73,1000 74,1401
75,500 81,700 82,2502 83,1000
84,250 85,1000 86,200 87,5404
88,2502 89,400 101,6105 102,600
103,400 115,600 116,9999 117,761
118,401 119,30
##END=
