##TITLE=Hydroxylamine, O-(phenylmethyl)-
##JCAMP-DX=4.24
##DATA TYPE=MASS SPECTRUM
##ORIGIN=Japan AIST/NIMC Database- Spectrum MS-NW-2091
##OWNER=NIST Mass Spectrometry Data Center
Collection (C) 2014 copyright by the U.S. Secretary of Commerce
on behalf of the United States of America. All rights reserved.
##CAS REGISTRY NO=622-33-3
##$NIST MASS SPEC NO=230938
##MOLFORM=C7 H9 N O
##MW=123
##$NIST SOURCE=MSDC
##XUNITS=M/Z
##YUNITS=RELATIVE INTENSITY
##XFACTOR=1
##YFACTOR=1
##FIRSTX=16
##LASTX=123
##FIRSTY=70
##MAXX=123
##MINX=16
##MAXY=9999
##MINY=10
##NPOINTS=44
##PEAK TABLE=(XY..XY)
16,70 17,20 18,50 26,20
27,90 28,70 29,70 30,20
32,60 39,439 40,20 41,99
49,20 50,259 51,559 52,129
53,30 61,20 62,60 63,179
64,50 65,1229 66,80 73,10
74,60 75,40 76,40 77,759
78,139 79,139 80,10 89,139
90,80 91,9999 92,759 93,60
103,10 104,10 105,329 106,249
107,99 108,129 109,10 123,80
##END=
