##TITLE=Benzene, (isothiocyanatomethyl)-
##JCAMP-DX=4.24
##DATA TYPE=MASS SPECTRUM
##ORIGIN=Japan AIST/NIMC Database- Spectrum MS-IW-1565
##OWNER=NIST Mass Spectrometry Data Center
Collection (C) 2014 copyright by the U.S. Secretary of Commerce
on behalf of the United States of America. All rights reserved.
##CAS REGISTRY NO=622-78-6
##$NIST MASS SPEC NO=238297
##MOLFORM=C8 H7 N S
##MW=149
##$NIST SOURCE=MSDC
##XUNITS=M/Z
##YUNITS=RELATIVE INTENSITY
##XFACTOR=1
##YFACTOR=1
##FIRSTX=26
##LASTX=152
##FIRSTY=20
##MAXX=152
##MINX=26
##MAXY=9999
##MINY=10
##NPOINTS=65
##PEAK TABLE=(XY..XY)
26,20 27,60 32,10 37,40
38,109 39,569 40,40 41,129
43,10 44,50 45,90 46,10
49,20 50,239 51,429 52,99
53,10 58,30 59,10 60,20
61,60 62,139 63,419 64,129
65,1359 66,80 69,20 70,30
71,30 72,70 73,30 74,70
75,60 76,60 77,169 78,50
79,10 85,10 86,30 87,20
88,20 89,409 90,209 91,9999
92,839 93,30 94,10 96,10
103,30 104,80 105,50 106,10
116,70 117,70 120,10 121,109
122,10 132,40 133,90 134,10
148,30 149,1859 150,189 151,90
152,10
##END=
