##TITLE=Ethanol, 2-(phenylmethoxy)-
##JCAMP-DX=4.24
##DATA TYPE=MASS SPECTRUM
##ORIGIN=Japan AIST/NIMC Database- Spectrum MS-NW-6069
##OWNER=NIST Mass Spectrometry Data Center
Collection (C) 2014 copyright by the U.S. Secretary of Commerce
on behalf of the United States of America. All rights reserved.
##CAS REGISTRY NO=622-08-2
##$NIST MASS SPEC NO=227679
##MOLFORM=C9 H12 O2
##MW=152
##$NIST SOURCE=MSDC
##XUNITS=M/Z
##YUNITS=RELATIVE INTENSITY
##XFACTOR=1
##YFACTOR=1
##FIRSTX=14
##LASTX=154
##FIRSTY=10
##MAXX=154
##MINX=14
##MAXY=9999
##MINY=10
##NPOINTS=70
##PEAK TABLE=(XY..XY)
14,10 15,70 17,10 18,40
19,20 26,30 27,229 28,159
29,199 30,30 31,369 32,20
33,20 37,20 38,70 39,539
40,40 41,149 42,20 43,119
44,60 45,499 46,20 49,10
50,149 51,409 52,119 53,40
58,10 59,20 61,60 62,70
63,239 64,90 65,1049 66,60
73,10 74,30 75,60 76,40
77,449 78,129 79,619 80,50
86,10 87,10 89,289 90,189
91,9999 92,2449 93,159 94,10
103,10 104,50 105,239 106,149
107,2339 108,239 109,20 119,10
121,30 122,10 123,10 133,20
134,10 149,10 151,149 152,1439
153,149 154,20
##END=
