##TITLE=Benzene, (2-chloroethyl)-
##JCAMP-DX=4.24
##DATA TYPE=MASS SPECTRUM
##ORIGIN=NIST Mass Spectrometry Data Center, 1994
##OWNER=NIST Mass Spectrometry Data Center
Collection (C) 2014 copyright by the U.S. Secretary of Commerce
on behalf of the United States of America. All rights reserved.
##CAS REGISTRY NO=622-24-2
##$NIST MASS SPEC NO=134094
##MOLFORM=C8 H9 Cl
##MW=140
##$NIST SOURCE=MSDC
##XUNITS=M/Z
##YUNITS=RELATIVE INTENSITY
##XFACTOR=1
##YFACTOR=1
##FIRSTX=13
##LASTX=143
##FIRSTY=19
##MAXX=143
##MINX=13
##MAXY=9999
##MINY=8
##NPOINTS=55
##PEAK TABLE=(XY..XY)
13,19 14,44 15,90 26,357
27,807 35,82 36,57 37,184
38,365 39,1079 40,81 41,113
43,9 47,31 49,796 50,1000
51,1825 52,376 53,99 60,23
61,130 62,286 63,645 64,23
65,1222 66,81 73,89 74,347
75,232 76,222 77,1068 78,614
79,273 80,20 84,8 85,26
86,40 87,41 89,303 91,9999
92,767 93,24 97,11 98,24
99,14 101,38 102,170 103,578
104,335 105,290 106,34 140,1881
141,199 142,583 143,51
##END=
