##TITLE=Benzenamine, N-propyl-
##JCAMP-DX=4.24
##DATA TYPE=MASS SPECTRUM
##ORIGIN=RADIAN CORP
##OWNER=NIST Mass Spectrometry Data Center
Collection (C) 2014 copyright by the U.S. Secretary of Commerce
on behalf of the United States of America. All rights reserved.
##CAS REGISTRY NO=622-80-0
##$NIST MASS SPEC NO=73731
##MOLFORM=C9 H13 N
##MW=135
##$NIST SOURCE=MSDC
##XUNITS=M/Z
##YUNITS=RELATIVE INTENSITY
##XFACTOR=1
##YFACTOR=1
##FIRSTX=15
##LASTX=136
##FIRSTY=40
##MAXX=136
##MINX=15
##MAXY=9999
##MINY=10
##NPOINTS=54
##PEAK TABLE=(XY..XY)
15,40 26,60 27,460 28,100
29,280 30,90 37,30 38,110
39,600 40,90 41,240 42,60
43,40 50,260 51,830 52,250
53,90 54,50 56,10 59,30
62,60 63,200 64,130 65,560
66,210 67,40 74,90 75,80
76,130 77,2250 78,480 79,1020
80,90 89,30 90,30 91,220
92,180 93,150 94,30 103,30
104,350 105,160 106,9999 107,820
108,30 117,90 118,240 119,70
120,20 130,10 132,50 134,100
135,1770 136,200
##END=
