##TITLE=Benzaldehyde, oxime, (Z)-
##JCAMP-DX=4.24
##DATA TYPE=MASS SPECTRUM
##ORIGIN=E.M.EMERY COLGATE-PALMOLIVE CO., PISCATAWAY, N.J., USA
##OWNER=NIST Mass Spectrometry Data Center
Collection (C) 2014 copyright by the U.S. Secretary of Commerce
on behalf of the United States of America. All rights reserved.
##CAS REGISTRY NO=622-32-2
##$NIST MASS SPEC NO=39001
##MOLFORM=C7 H7 N O
##MW=121
##$NIST SOURCE=MSDC
##XUNITS=M/Z
##YUNITS=RELATIVE INTENSITY
##XFACTOR=1
##YFACTOR=1
##FIRSTX=27
##LASTX=122
##FIRSTY=440
##MAXX=122
##MINX=27
##MAXY=9999
##MINY=50
##NPOINTS=47
##PEAK TABLE=(XY..XY)
27,440 28,570 29,70 30,340
36,100 37,590 38,530 39,1010
40,190 44,90 48,60 49,290
50,2390 51,2410 52,860 53,110
61,160 62,220 63,460 64,200
65,210 66,360 67,90 73,150
74,530 75,840 76,2960 77,2240
78,1530 79,100 88,80 89,120
91,60 92,70 93,80 94,370
99,120 100,50 102,230 103,9999
104,2920 105,2100 106,570 119,60
120,170 121,1000 122,80
##END=
