##TITLE=Benzene, 1-(ethylthio)-4-methyl-
##JCAMP-DX=4.24
##DATA TYPE=MASS SPECTRUM
##ORIGIN=J.E. DOOLEY, U.S. BUREAU OF MINES, BARTLESVILLE, OKLA., USA
##OWNER=NIST Mass Spectrometry Data Center
Collection (C) 2014 copyright by the U.S. Secretary of Commerce
on behalf of the United States of America. All rights reserved.
##CAS REGISTRY NO=622-63-9
##$NIST MASS SPEC NO=4875
##MOLFORM=C9 H12 S
##MW=152
##$NIST SOURCE=MSDC
##XUNITS=M/Z
##YUNITS=RELATIVE INTENSITY
##XFACTOR=1
##YFACTOR=1
##FIRSTX=24
##LASTX=156
##FIRSTY=7
##MAXX=156
##MINX=24
##MAXY=9999
##MINY=4
##NPOINTS=119
##PEAK TABLE=(XY..XY)
24,7 25,60 26,775 27,2741
28,281 29,1679 30,36 32,50
33,32 34,34 35,58 36,6
37,103 38,278 39,1576 40,114
41,237 42,10 43,11 44,32
45,3328 46,157 47,200 48,12
49,43 50,450 51,875 52,268
53,401 54,23 55,9 56,8
57,128 58,241 59,348 60,113
61,238 62,322 63,859 64,194
65,1038 66,97 67,35 68,34
69,897 70,216 71,335 72,28
73,39 74,107 75,107 76,95
77,1498 78,571 79,1066 80,159
81,77 82,190 83,101 84,117
85,49 86,64 87,58 88,27
89,440 90,297 91,5888 92,777
93,512 94,56 95,181 96,80
97,354 98,50 99,20 100,8
101,19 102,33 103,103 104,97
105,107 106,23 107,18 108,332
109,132 110,31 111,18 115,50
116,22 117,81 118,55 119,237
120,39 121,733 122,310 123,2085
124,2614 125,330 126,141 127,23
133,11 134,67 135,156 136,90
137,5184 138,499 139,248 140,23
141,4 147,14 148,10 149,38
150,28 151,222 152,9999 153,1068
154,488 155,45 156,4
##END=
