##TITLE=Benzene, 1-chloro-4-ethoxy-
##JCAMP-DX=4.24
##DATA TYPE=MASS SPECTRUM
##ORIGIN=Japan AIST/NIMC Database- Spectrum MS-NW-3411
##OWNER=NIST Mass Spectrometry Data Center
Collection (C) 2014 copyright by the U.S. Secretary of Commerce
on behalf of the United States of America. All rights reserved.
##CAS REGISTRY NO=622-61-7
##$NIST MASS SPEC NO=231822
##MOLFORM=C8 H9 Cl O
##MW=156
##$NIST SOURCE=MSDC
##XUNITS=M/Z
##YUNITS=RELATIVE INTENSITY
##XFACTOR=1
##YFACTOR=1
##FIRSTX=14
##LASTX=159
##FIRSTY=10
##MAXX=159
##MINX=14
##MAXY=9999
##MINY=10
##NPOINTS=89
##PEAK TABLE=(XY..XY)
14,10 15,50 18,10 25,20
26,139 27,659 28,30 29,879
30,20 31,30 35,10 36,30
37,159 38,379 39,709 40,30
41,20 42,20 43,80 47,40
48,20 49,90 50,469 51,229
52,20 53,119 54,10 55,50
60,30 61,169 62,369 63,929
64,549 65,1379 66,99 67,10
68,20 70,20 71,10 72,90
73,719 74,259 75,709 76,139
77,179 78,30 79,20 84,30
85,109 86,30 87,30 89,40
91,149 92,139 93,219 94,40
97,20 98,30 99,919 100,679
101,319 102,209 103,10 105,10
110,10 111,419 112,50 113,169
114,20 115,20 119,10 120,20
121,20 122,10 125,10 126,20
127,209 128,9999 129,759 130,3249
131,229 132,10 141,50 143,10
155,30 156,3109 157,269 158,989
159,99
##END=
