##TITLE=Methanamine, N-(phenylmethylene)-
##JCAMP-DX=4.24
##DATA TYPE=MASS SPECTRUM
##ORIGIN=RADIAN CORP
##OWNER=NIST Mass Spectrometry Data Center
Collection (C) 2014 copyright by the U.S. Secretary of Commerce
on behalf of the United States of America. All rights reserved.
##CAS REGISTRY NO=622-29-7
##$NIST MASS SPEC NO=70928
##MOLFORM=C8 H9 N
##MW=119
##$NIST SOURCE=MSDC
##XUNITS=M/Z
##YUNITS=RELATIVE INTENSITY
##XFACTOR=1
##YFACTOR=1
##FIRSTX=32
##LASTX=120
##FIRSTY=150
##MAXX=120
##MINX=32
##MAXY=9999
##MINY=10
##NPOINTS=42
##PEAK TABLE=(XY..XY)
32,150 37,340 38,510 39,1150
40,330 41,1000 42,4610 43,220
49,210 50,1120 51,2190 52,550
59,260 60,10 61,170 62,390
63,870 64,250 65,640 66,100
73,110 74,140 75,190 76,510
77,3130 78,1570 79,150 85,10
86,160 87,110 89,580 90,320
91,1930 92,250 102,40 103,200
104,80 116,160 117,290 118,9999
119,5260 120,690
##END=
