##TITLE=Formic acid, 2-phenylhydrazide
##JCAMP-DX=4.24
##DATA TYPE=MASS SPECTRUM
##ORIGIN=NIST Mass Spectrometry Data Center, 1994
##OWNER=NIST Mass Spectrometry Data Center
Collection (C) 2014 copyright by the U.S. Secretary of Commerce
on behalf of the United States of America. All rights reserved.
##CAS REGISTRY NO=622-84-4
##$NIST MASS SPEC NO=135421
##MOLFORM=C7 H8 N2 O
##MW=136
##$NIST SOURCE=MSDC
##XUNITS=M/Z
##YUNITS=RELATIVE INTENSITY
##XFACTOR=1
##YFACTOR=1
##FIRSTX=12
##LASTX=138
##FIRSTY=119
##MAXX=138
##MINX=12
##MAXY=9999
##MINY=17
##NPOINTS=47
##PEAK TABLE=(XY..XY)
12,119 14,126 16,383 18,58
26,106 27,373 28,864 29,3678
30,240 37,644 38,1297 39,2934
40,407 41,188 43,203 44,227
49,294 50,2354 51,5492 52,1319
53,618 54,133 61,368 62,471
63,1212 64,1195 65,3324 66,557
73,162 74,310 75,347 76,162
77,9999 78,1804 79,520 80,1151
81,144 90,240 91,1486 92,1838
93,824 105,1297 107,7770 108,1595
136,5403 137,459 138,17
##END=
