##TITLE=N-Ethyl-p-toluidine
##JCAMP-DX=4.24
##DATA TYPE=MASS SPECTRUM
##ORIGIN=Japan AIST/NIMC Database- Spectrum MS-NW- 555
##OWNER=NIST Mass Spectrometry Data Center
Collection (C) 2014 copyright by the U.S. Secretary of Commerce
on behalf of the United States of America. All rights reserved.
##CAS REGISTRY NO=622-57-1
##$NIST MASS SPEC NO=229109
##MOLFORM=C9 H13 N
##MW=135
##$NIST SOURCE=MSDC
##XUNITS=M/Z
##YUNITS=RELATIVE INTENSITY
##XFACTOR=1
##YFACTOR=1
##FIRSTX=15
##LASTX=137
##FIRSTY=30
##MAXX=137
##MINX=15
##MAXY=9999
##MINY=10
##NPOINTS=75
##PEAK TABLE=(XY..XY)
15,30 26,30 27,249 28,60
29,99 30,50 37,10 38,50
39,369 40,40 41,139 42,90
43,20 44,99 45,10 46,20
50,119 51,319 52,199 53,149
54,40 55,10 58,109 59,189
60,199 61,20 62,60 63,199
64,70 65,649 66,60 67,50
68,10 69,10 70,10 74,20
75,30 76,40 77,679 78,199
79,289 80,80 81,10 86,10
87,10 88,10 89,179 90,139
91,1629 92,439 93,259 94,30
102,10 103,40 104,129 105,129
106,339 107,90 108,10 115,20
116,10 117,70 118,519 119,359
120,9999 121,909 122,40 130,20
131,10 132,109 133,199 134,759
135,4429 136,449 137,20
##END=
