##TITLE=1-Methoxyadamantane
##JCAMP-DX=4.24
##DATA TYPE=MASS SPECTRUM
##ORIGIN=A.A.Kutin, Moscow, Russia
##OWNER=NIST Mass Spectrometry Data Center
Collection (C) 2014 copyright by the U.S. Secretary of Commerce
on behalf of the United States of America. All rights reserved.
##CAS REGISTRY NO=6221-74-5
##$NIST MASS SPEC NO=301500
##MOLFORM=C11 H18 O
##MW=166
##$NIST SOURCE=MSDC
##XUNITS=M/Z
##YUNITS=RELATIVE INTENSITY
##XFACTOR=1
##YFACTOR=1
##FIRSTX=33
##LASTX=168
##FIRSTY=98
##MAXX=168
##MINX=33
##MAXY=9999
##MINY=5
##NPOINTS=79
##PEAK TABLE=(XY..XY)
33,98 34,80 35,11 36,215
38,124 39,1043 40,174 41,1453
42,346 43,600 44,594 45,291
50,58 51,182 52,109 53,414
54,125 55,556 56,126 57,355
58,35 59,35 63,52 64,29
65,289 66,139 67,478 68,126
69,223 70,82 71,151 72,155
73,322 74,6 77,748 78,192
79,980 80,175 81,291 82,116
83,110 84,56 85,71 91,546
92,189 93,516 94,771 95,363
96,122 97,165 98,40 103,28
104,56 105,107 106,9 107,186
109,9999 110,841 111,95 112,31
117,7 119,19 121,28 123,380
124,51 125,113 127,15 131,5
134,65 135,612 136,103 139,11
149,71 151,11 152,29 164,23
166,2338 167,292 168,8
##END=
