##TITLE=1-Tetradecanol, TMS derivative
##JCAMP-DX=4.24
##DATA TYPE=MASS SPECTRUM
##ORIGIN=NIST Mass Spectrometry Data Center
##OWNER=NIST Mass Spectrometry Data Center
Collection (C) 2014 copyright by the U.S. Secretary of Commerce
on behalf of the United States of America. All rights reserved.
##CAS REGISTRY NO=6221-89-2
##$NIST MASS SPEC NO=333298
##MOLFORM=C17 H38 O Si
##MW=286
##$NIST SOURCE=MSDC
##XUNITS=M/Z
##YUNITS=RELATIVE INTENSITY
##XFACTOR=1
##YFACTOR=1
##FIRSTX=27
##LASTX=286
##FIRSTY=100
##MAXX=286
##MINX=27
##MAXY=9999
##MINY=10
##NPOINTS=128
##PEAK TABLE=(XY..XY)
27,100 28,30 29,290 30,10
31,10 39,100 40,20 41,811
42,150 43,1011 44,70 45,230
46,20 47,130 48,10 53,60
54,80 55,821 56,180 57,781
58,130 59,310 60,50 61,450
62,30 63,20 65,10 66,10
67,210 68,120 69,1001 70,170
71,390 72,120 73,2262 74,250
75,4554 76,330 77,230 78,10
79,40 80,10 81,170 82,130
83,1271 84,150 85,260 86,30
87,150 88,80 89,1071 90,110
91,360 92,30 93,30 94,10
95,120 96,70 97,1181 98,130
99,230 100,40 101,591 102,80
103,1922 104,180 105,70 107,10
109,60 110,30 111,500 112,70
113,130 114,20 115,390 116,50
117,40 118,10 123,20 124,20
125,140 126,30 127,60 128,10
129,220 130,30 131,60 132,10
137,10 138,10 139,40 140,20
141,20 143,80 144,10 145,30
153,20 154,10 155,10 157,70
158,10 159,20 167,10 168,40
169,10 171,80 172,10 173,10
185,80 186,10 187,10 196,40
197,10 199,80 200,20 201,10
213,50 214,10 255,60 256,10
269,20 271,9999 272,2342 273,621
274,80 275,10 285,10 286,10
##END=
