##TITLE=Bicyclo[3.2.1]octane
##JCAMP-DX=4.24
##DATA TYPE=MASS SPECTRUM
##OWNER=NIST Mass Spectrometry Data Center
Collection (C) 2014 copyright by the U.S. Secretary of Commerce
on behalf of the United States of America. All rights reserved.
##CAS REGISTRY NO=6221-55-2
##$NIST MASS SPEC NO=1503
##MOLFORM=C8 H14
##MW=110
##$NIST SOURCE=MSDC
##XUNITS=M/Z
##YUNITS=RELATIVE INTENSITY
##XFACTOR=1
##YFACTOR=1
##FIRSTX=25
##LASTX=112
##FIRSTY=10
##MAXX=112
##MINX=25
##MAXY=9999
##MINY=10
##NPOINTS=63
##PEAK TABLE=(XY..XY)
25,10 26,460 27,3813 28,1611
29,1371 30,40 31,150 32,50
36,10 37,100 38,330 39,4844
40,811 41,5445 42,480 43,170
44,30 45,30 49,20 50,310
51,701 52,380 53,1571 54,4414
55,1531 56,410 57,30 58,10
61,40 62,60 63,170 64,50
65,500 66,781 67,9999 68,2322
69,1061 70,70 74,30 75,40
76,30 77,520 78,180 79,761
80,601 81,6826 82,8538 83,591
84,30 91,130 92,20 93,60
94,30 95,1351 96,110 105,20
106,10 107,20 108,20 109,110
110,3883 111,370 112,20
##END=
