##TITLE=Butyric acid, tetradecyl ester
##JCAMP-DX=4.24
##DATA TYPE=MASS SPECTRUM
##ORIGIN=V.G.Zaikin, Petrochem. Synth. Inst., Moscow
##OWNER=NIST Mass Spectrometry Data Center
Collection (C) 2014 copyright by the U.S. Secretary of Commerce
on behalf of the United States of America. All rights reserved.
##CAS REGISTRY NO=6221-98-3
##$NIST MASS SPEC NO=280438
##MOLFORM=C18 H36 O2
##MW=284
##$NIST SOURCE=MSDC
##XUNITS=M/Z
##YUNITS=RELATIVE INTENSITY
##XFACTOR=1
##YFACTOR=1
##FIRSTX=26
##LASTX=241
##FIRSTY=110
##MAXX=241
##MINX=26
##MAXY=9999
##MINY=10
##NPOINTS=76
##PEAK TABLE=(XY..XY)
26,110 27,1481 28,490 29,2052
30,90 31,110 36,50 38,90
39,761 40,180 41,4624 42,1661
43,9158 44,420 45,130 51,50
53,280 54,711 55,4614 56,3193
57,4594 58,290 60,490 61,130
66,70 67,751 68,1271 69,3833
70,3153 71,8998 72,450 73,220
75,40 79,50 81,450 82,1431
83,3914 84,2082 85,1251 86,210
87,120 88,1121 89,9999 90,490
91,50 95,110 96,611 97,2783
98,1311 99,350 101,120 102,10
109,40 110,290 111,1471 112,781
113,150 115,80 124,140 125,550
126,611 127,80 129,60 138,60
139,270 140,290 144,390 145,30
153,110 154,160 167,50 168,681
169,80 196,791 197,160 241,190
##END=
