##TITLE=Pentafluoropropionic acid, dodecyl ester
##JCAMP-DX=4.24
##DATA TYPE=MASS SPECTRUM
##ORIGIN=NIST Mass Spectrometry Data Center
##OWNER=NIST Mass Spectrometry Data Center
Collection (C) 2014 copyright by the U.S. Secretary of Commerce
on behalf of the United States of America. All rights reserved.
##CAS REGISTRY NO=6222-04-4
##$NIST MASS SPEC NO=351797
##MOLFORM=C15 H25 F5 O2
##MW=332
##$NIST SOURCE=MSDC
##XUNITS=M/Z
##YUNITS=RELATIVE INTENSITY
##XFACTOR=1
##YFACTOR=1
##FIRSTX=15
##LASTX=314
##FIRSTY=10
##MAXX=314
##MINX=15
##MAXY=9999
##MINY=10
##NPOINTS=101
##PEAK TABLE=(XY..XY)
15,10 26,40 27,761 28,250
29,1912 30,60 33,30 37,10
39,1091 40,280 41,6816 42,1902
43,8478 44,230 47,30 50,40
51,70 52,40 53,621 54,1081
55,9999 56,5095 57,8798 58,380
59,30 61,20 63,10 65,120
66,130 67,1551 68,2112 69,8888
70,5395 71,3934 72,200 77,80
78,50 79,180 80,60 81,751
82,3663 83,7597 84,4104 85,2532
86,160 87,10 89,10 91,30
93,40 94,10 95,250 96,1441
97,6116 98,2582 99,581 100,260
101,10 109,90 110,591 111,3493
112,1451 113,310 114,20 117,20
119,3323 120,70 121,10 123,20
124,220 125,1391 126,651 127,130
128,70 137,10 138,100 139,340
140,1281 141,140 142,10 145,10
147,480 148,20 149,130 153,10
163,10 165,50 166,30 168,961
169,130 170,10 177,60 188,10
191,10 195,30 202,10 203,10
205,20 213,220 214,30 243,10
314,30
##END=
