##TITLE=Trifluoroacetoxy hexadecane
##JCAMP-DX=4.24
##DATA TYPE=MASS SPECTRUM
##ORIGIN=NIST Mass Spectrometry Data Center
##OWNER=NIST Mass Spectrometry Data Center
Collection (C) 2014 copyright by the U.S. Secretary of Commerce
on behalf of the United States of America. All rights reserved.
##CAS REGISTRY NO=6222-03-3
##$NIST MASS SPEC NO=351756
##MOLFORM=C18 H33 F3 O2
##MW=338
##$NIST SOURCE=MSDC
##XUNITS=M/Z
##YUNITS=RELATIVE INTENSITY
##XFACTOR=1
##YFACTOR=1
##FIRSTX=15
##LASTX=321
##FIRSTY=10
##MAXX=321
##MINX=15
##MAXY=9999
##MINY=10
##NPOINTS=113
##PEAK TABLE=(XY..XY)
15,10 26,30 27,571 28,210
29,1762 30,50 31,20 33,20
37,10 38,20 39,711 40,190
41,6236 42,1682 43,9579 44,370
45,40 47,40 50,50 51,60
52,20 53,420 54,971 55,8768
56,3904 57,9999 58,450 59,30
61,20 65,70 66,110 67,1151
68,1461 69,7347 70,3403 71,4384
72,240 73,10 77,50 78,30
79,130 80,50 81,731 82,2933
83,6646 84,2512 85,2552 86,170
87,20 91,20 93,20 94,20
95,380 96,1411 97,6796 98,1742
99,761 100,40 101,10 107,10
108,10 109,150 110,661 111,3944
112,1201 113,290 114,20 115,20
122,10 123,80 124,380 125,1772
126,761 127,190 128,20 137,40
138,250 139,520 140,510 141,120
142,10 151,10 152,180 153,200
154,270 155,80 156,10 165,10
166,70 167,90 168,150 169,30
170,10 179,10 180,40 181,50
182,60 183,10 194,20 195,20
196,290 197,40 221,10 222,30
223,10 224,240 225,50 251,20
269,290 270,60 271,10 320,60
321,10
##END=
