##TITLE=Pentafluoropropionic acid, hexadecyl ester
##JCAMP-DX=4.24
##DATA TYPE=MASS SPECTRUM
##ORIGIN=NIST Mass Spectrometry Data Center
##OWNER=NIST Mass Spectrometry Data Center
Collection (C) 2014 copyright by the U.S. Secretary of Commerce
on behalf of the United States of America. All rights reserved.
##CAS REGISTRY NO=6222-07-7
##$NIST MASS SPEC NO=351805
##MOLFORM=C19 H33 F5 O2
##MW=388
##$NIST SOURCE=MSDC
##XUNITS=M/Z
##YUNITS=RELATIVE INTENSITY
##XFACTOR=1
##YFACTOR=1
##FIRSTX=15
##LASTX=371
##FIRSTY=10
##MAXX=371
##MINX=15
##MAXY=9999
##MINY=10
##NPOINTS=115
##PEAK TABLE=(XY..XY)
15,10 26,20 27,420 29,1301
30,40 31,20 33,20 37,10
39,601 41,5325 42,1471 43,8087
44,310 47,20 50,30 51,40
52,20 53,410 54,951 55,8638
56,3733 57,9999 58,460 59,20
61,10 65,80 66,120 67,1251
68,1531 69,6946 70,3453 71,4924
72,270 77,50 78,30 79,150
80,60 81,831 82,3313 83,7056
84,2712 85,3173 86,210 87,10
91,20 93,40 94,20 95,440
96,1611 97,7257 98,1972 99,801
100,180 101,10 108,10 109,190
110,791 111,4434 112,1431 113,450
114,30 117,10 119,1672 120,30
122,10 123,90 124,480 125,2122
126,951 127,280 128,50 137,50
138,300 139,681 140,651 141,180
142,20 147,220 148,10 149,60
151,10 152,160 153,270 154,350
155,120 156,10 163,10 165,30
166,90 167,140 168,200 169,50
170,10 177,20 180,40 181,70
182,80 183,20 188,10 194,30
195,40 196,380 197,60 202,10
205,10 221,10 222,20 224,440
225,80 226,10 251,20 269,180
270,40 370,80 371,20
##END=
