##TITLE=Tetradecyl trifluoroacetate
##JCAMP-DX=4.24
##DATA TYPE=MASS SPECTRUM
##ORIGIN=NIST Mass Spectrometry Data Center
##OWNER=NIST Mass Spectrometry Data Center
Collection (C) 2014 copyright by the U.S. Secretary of Commerce
on behalf of the United States of America. All rights reserved.
##CAS REGISTRY NO=6222-02-2
##$NIST MASS SPEC NO=351767
##MOLFORM=C16 H29 F3 O2
##MW=310
##$NIST SOURCE=MSDC
##XUNITS=M/Z
##YUNITS=RELATIVE INTENSITY
##XFACTOR=1
##YFACTOR=1
##FIRSTX=15
##LASTX=293
##FIRSTY=10
##MAXX=293
##MINX=15
##MAXY=9999
##MINY=10
##NPOINTS=105
##PEAK TABLE=(XY..XY)
15,10 26,30 27,611 28,130
29,1692 30,50 33,20 37,10
38,20 39,891 40,230 41,6536
42,1732 43,8588 45,30 50,20
51,70 52,30 53,571 54,1101
55,9999 56,4444 57,9659 58,440
59,40 61,20 63,10 65,110
66,140 67,1521 68,1902 69,9609
70,4714 71,4454 72,240 73,10
77,70 78,60 79,170 80,70
81,901 82,3633 83,8257 84,3603
85,2552 86,170 87,20 91,30
93,30 94,20 95,410 96,1571
97,7687 98,2392 99,921 100,30
101,10 107,10 108,10 109,120
110,741 111,4154 112,1641 113,290
114,20 115,40 122,10 123,50
124,380 125,1722 126,931 127,220
128,10 137,30 138,230 139,480
140,500 141,110 151,10 152,150
153,190 154,200 155,60 156,10
165,10 166,50 167,80 168,661
169,90 170,20 179,10 180,10
181,10 193,30 194,40 196,470
197,70 198,10 207,10 223,20
241,360 242,60 243,10 292,50
293,10
##END=
