##TITLE=2-Butanone, methyl-2-propenylhydrazone
##JCAMP-DX=4.24
##DATA TYPE=MASS SPECTRUM
##ORIGIN=ATLAS OF MASS SPECTRA OF ORGANIC COMPOUNDS, V. A. KOPTYUG, ED.
##OWNER=NIST Mass Spectrometry Data Center
Collection (C) 2014 copyright by the U.S. Secretary of Commerce
on behalf of the United States of America. All rights reserved.
##CAS REGISTRY NO=62237-77-8
##$NIST MASS SPEC NO=64531
##MOLFORM=C8 H16 N2
##MW=140
##$NIST SOURCE=MSDC
##XUNITS=M/Z
##YUNITS=RELATIVE INTENSITY
##XFACTOR=1
##YFACTOR=1
##FIRSTX=26
##LASTX=141
##FIRSTY=200
##MAXX=141
##MINX=26
##MAXY=9999
##MINY=80
##NPOINTS=41
##PEAK TABLE=(XY..XY)
26,200 27,1500 28,1240 29,1670
30,1900 31,80 32,290 39,1570
40,290 41,3480 42,9999 43,4290
44,1930 45,190 53,230 54,330
55,3000 56,1290 57,270 58,2290
59,120 68,1570 69,520 70,3390
71,1050 72,360 82,160 83,220
84,200 97,1290 98,210 99,6200
100,430 111,360 112,160 113,3390
114,240 125,330 139,220 140,4290
141,520
##END=
