##TITLE=2-Propanone, methyl-2-propenylhydrazone
##JCAMP-DX=4.24
##DATA TYPE=MASS SPECTRUM
##ORIGIN=ATLAS OF MASS SPECTRA OF ORGANIC COMPOUNDS, V. A. KOPTYUG, ED.
##OWNER=NIST Mass Spectrometry Data Center
Collection (C) 2014 copyright by the U.S. Secretary of Commerce
on behalf of the United States of America. All rights reserved.
##CAS REGISTRY NO=62237-76-7
##$NIST MASS SPEC NO=64527
##MOLFORM=C7 H14 N2
##MW=126
##$NIST SOURCE=MSDC
##XUNITS=M/Z
##YUNITS=RELATIVE INTENSITY
##XFACTOR=1
##YFACTOR=1
##FIRSTX=29
##LASTX=127
##FIRSTY=830
##MAXX=127
##MINX=29
##MAXY=9999
##MINY=240
##NPOINTS=26
##PEAK TABLE=(XY..XY)
29,830 30,940 39,2540 40,620
41,4610 42,5930 43,1650 44,3520
54,320 55,2300 56,9999 57,570
58,510 68,830 69,310 70,1040
71,240 83,3100 84,500 85,5530
86,340 99,2010 111,360 125,310
126,4460 127,460
##END=
