##TITLE=Decane, 2,2,8-trimethyl-
##JCAMP-DX=4.24
##DATA TYPE=MASS SPECTRUM
##ORIGIN=D.HENNEBERG, MAX-PLANCK INSTITUTE, MULHEIM, WEST GERMANY
##OWNER=NIST Mass Spectrometry Data Center
Collection (C) 2014 copyright by the U.S. Secretary of Commerce
on behalf of the United States of America. All rights reserved.
##CAS REGISTRY NO=62238-01-1
##$NIST MASS SPEC NO=60756
##MOLFORM=C13 H28
##MW=184
##$NIST SOURCE=MSDC
##XUNITS=M/Z
##YUNITS=RELATIVE INTENSITY
##XFACTOR=1
##YFACTOR=1
##FIRSTX=25
##LASTX=170
##FIRSTY=3
##MAXX=170
##MINX=25
##MAXY=9999
##MINY=1
##NPOINTS=47
##PEAK TABLE=(XY..XY)
25,3 26,16 27,268 29,927
30,42 33,5 37,5 38,8
39,206 40,33 41,1519 42,159
43,1459 51,77 53,62 54,31
55,494 56,4469 57,9999 58,389
59,6 67,31 68,14 69,179
70,169 71,1191 72,57 79,8
80,3 83,483 84,23 85,579
86,29 95,1 96,29 97,83
98,16 99,212 100,13 113,113
114,3 126,190 127,214 128,12
168,2 169,103 170,14
##END=
