##TITLE=1-Acetyl-3-methylurea
##JCAMP-DX=4.24
##DATA TYPE=MASS SPECTRUM
##ORIGIN=Japan AIST/NIMC Database- Spectrum MS-NW-2993
##OWNER=NIST Mass Spectrometry Data Center
Collection (C) 2014 copyright by the U.S. Secretary of Commerce
on behalf of the United States of America. All rights reserved.
##CAS REGISTRY NO=623-59-6
##$NIST MASS SPEC NO=231151
##MOLFORM=C4 H8 N2 O2
##MW=116
##$NIST SOURCE=MSDC
##XUNITS=M/Z
##YUNITS=RELATIVE INTENSITY
##XFACTOR=1
##YFACTOR=1
##FIRSTX=12
##LASTX=118
##FIRSTY=40
##MAXX=118
##MINX=12
##MAXY=9999
##MINY=10
##NPOINTS=49
##PEAK TABLE=(XY..XY)
12,40 13,60 14,289 15,2499
16,99 17,20 25,20 26,60
27,489 28,2279 29,409 30,9099
31,2149 32,90 38,90 39,109
40,249 41,439 42,1289 43,9999
44,2559 45,139 46,20 53,10
54,50 55,159 56,719 57,2639
58,3949 59,2579 60,1049 61,30
69,10 70,389 71,10 72,20
73,309 74,789 75,119 85,80
86,60 87,50 88,90 98,20
99,10 101,179 116,3459 117,179
118,20
##END=
