##TITLE=2-Butenoic acid, methyl ester, (E)-
##JCAMP-DX=4.24
##DATA TYPE=MASS SPECTRUM
##ORIGIN=Japan AIST/NIMC Database- Spectrum MS-NW- 668
##OWNER=NIST Mass Spectrometry Data Center
Collection (C) 2014 copyright by the U.S. Secretary of Commerce
on behalf of the United States of America. All rights reserved.
##CAS REGISTRY NO=623-43-8
##$NIST MASS SPEC NO=229491
##MOLFORM=C5 H8 O2
##MW=100
##$NIST SOURCE=MSDC
##XUNITS=M/Z
##YUNITS=RELATIVE INTENSITY
##XFACTOR=1
##YFACTOR=1
##FIRSTX=15
##LASTX=102
##FIRSTY=959
##MAXX=102
##MINX=15
##MAXY=9999
##MINY=10
##NPOINTS=48
##PEAK TABLE=(XY..XY)
15,959 16,10 17,20 18,70
25,20 26,139 27,209 28,139
29,259 30,40 31,109 32,20
33,10 36,20 37,179 38,419
39,2849 40,479 41,5079 42,249
43,80 44,30 45,50 50,20
51,10 53,80 54,20 55,80
56,10 57,50 58,10 59,499
60,10 66,10 67,30 68,329
69,9999 70,469 71,60 72,30
74,10 85,2049 86,90 87,10
99,30 100,1529 101,90 102,10
##END=
