##TITLE=Urea, N,N'-diethyl-
##JCAMP-DX=4.24
##DATA TYPE=MASS SPECTRUM
##ORIGIN=Japan AIST/NIMC Database- Spectrum MS-NW- 205
##OWNER=NIST Mass Spectrometry Data Center
Collection (C) 2014 copyright by the U.S. Secretary of Commerce
on behalf of the United States of America. All rights reserved.
##CAS REGISTRY NO=623-76-7
##$NIST MASS SPEC NO=228130
##MOLFORM=C5 H12 N2 O
##MW=116
##$NIST SOURCE=MSDC
##XUNITS=M/Z
##YUNITS=RELATIVE INTENSITY
##XFACTOR=1
##YFACTOR=1
##FIRSTX=14
##LASTX=118
##FIRSTY=30
##MAXX=118
##MINX=14
##MAXY=9999
##MINY=10
##NPOINTS=43
##PEAK TABLE=(XY..XY)
14,30 15,299 16,10 17,10
18,99 26,90 27,1039 28,859
29,1869 30,9999 31,129 38,10
39,20 40,109 41,179 42,639
43,399 44,5179 45,399 46,229
50,50 55,10 56,129 57,10
58,99 59,10 60,219 61,10
70,20 71,40 72,639 73,399
74,20 85,10 86,10 87,30
88,159 101,359 102,20 115,10
116,4579 117,679 118,40
##END=
