##TITLE=1,2-Propanediol, 3-(dimethylamino)-
##JCAMP-DX=4.24
##DATA TYPE=MASS SPECTRUM
##ORIGIN=RADIAN CORP
##OWNER=NIST Mass Spectrometry Data Center
Collection (C) 2014 copyright by the U.S. Secretary of Commerce
on behalf of the United States of America. All rights reserved.
##CAS REGISTRY NO=623-57-4
##$NIST MASS SPEC NO=71139
##MOLFORM=C5 H13 N O2
##MW=119
##$NIST SOURCE=MSDC
##XUNITS=M/Z
##YUNITS=RELATIVE INTENSITY
##XFACTOR=1
##YFACTOR=1
##FIRSTX=14
##LASTX=119
##FIRSTY=60
##MAXX=119
##MINX=14
##MAXY=9999
##MINY=20
##NPOINTS=33
##PEAK TABLE=(XY..XY)
14,60 15,250 16,60 18,100
27,150 28,450 29,600 30,990
31,500 39,30 40,140 41,260
42,1900 43,780 44,1500 45,410
46,30 55,90 56,310 57,480
58,9999 59,460 70,190 71,70
72,220 73,330 77,20 84,80
86,90 87,60 88,900 89,20
119,80
##END=
