##TITLE=1,2-Propanediol, 3-methoxy-
##JCAMP-DX=4.24
##DATA TYPE=MASS SPECTRUM
##ORIGIN=Japan AIST/NIMC Database- Spectrum MS-NW-2950
##OWNER=NIST Mass Spectrometry Data Center
Collection (C) 2014 copyright by the U.S. Secretary of Commerce
on behalf of the United States of America. All rights reserved.
##CAS REGISTRY NO=623-39-2
##$NIST MASS SPEC NO=228801
##MOLFORM=C4 H10 O3
##MW=106
##$NIST SOURCE=MSDC
##XUNITS=M/Z
##YUNITS=RELATIVE INTENSITY
##XFACTOR=1
##YFACTOR=1
##FIRSTX=14
##LASTX=89
##FIRSTY=99
##MAXX=89
##MINX=14
##MAXY=9999
##MINY=20
##NPOINTS=45
##PEAK TABLE=(XY..XY)
14,99 15,2119 16,30 17,50
18,219 19,40 26,99 27,489
28,459 29,1379 30,139 31,2239
32,109 33,1079 34,50 38,20
39,60 40,20 41,80 42,269
43,4299 44,3289 45,9999 46,399
47,509 55,109 56,149 57,319
58,249 59,139 60,679 61,2149
62,50 63,199 71,109 72,30
73,60 74,419 75,3569 76,849
77,40 86,20 87,109 88,459
89,60
##END=
