##TITLE=Ethyl propiolate
##JCAMP-DX=4.24
##DATA TYPE=MASS SPECTRUM
##ORIGIN=NIST Mass Spectrometry Data Center, 1990.
##OWNER=NIST Mass Spectrometry Data Center
Collection (C) 2014 copyright by the U.S. Secretary of Commerce
on behalf of the United States of America. All rights reserved.
##CAS REGISTRY NO=623-47-2
##$NIST MASS SPEC NO=118311
##MOLFORM=C5 H6 O2
##MW=98
##$NIST SOURCE=MSDC
##XUNITS=M/Z
##YUNITS=RELATIVE INTENSITY
##XFACTOR=1
##YFACTOR=1
##FIRSTX=12
##LASTX=98
##FIRSTY=50
##MAXX=98
##MINX=12
##MAXY=9999
##MINY=28
##NPOINTS=43
##PEAK TABLE=(XY..XY)
12,50 13,58 14,129 15,293
16,36 18,65 19,65 24,129
25,777 26,635 27,1379 28,748
29,1343 30,100 31,89 32,126
37,41 39,687 40,247 41,401
42,966 43,683 44,193 45,1171
46,45 53,9999 54,859 55,640
56,68 57,46 59,32 67,71
68,389 69,886 70,214 71,477
72,28 74,31 80,91 81,75
83,458 97,485 98,39
##END=
