##TITLE=Benzenamine, N,4-dimethyl-
##JCAMP-DX=4.24
##DATA TYPE=MASS SPECTRUM
##ORIGIN=Japan AIST/NIMC Database- Spectrum MS-NW-6442
##OWNER=NIST Mass Spectrometry Data Center
Collection (C) 2014 copyright by the U.S. Secretary of Commerce
on behalf of the United States of America. All rights reserved.
##CAS REGISTRY NO=623-08-5
##$NIST MASS SPEC NO=236092
##MOLFORM=C8 H11 N
##MW=121
##$NIST SOURCE=MSDC
##XUNITS=M/Z
##YUNITS=RELATIVE INTENSITY
##XFACTOR=1
##YFACTOR=1
##FIRSTX=15
##LASTX=123
##FIRSTY=80
##MAXX=123
##MINX=15
##MAXY=9999
##MINY=10
##NPOINTS=76
##PEAK TABLE=(XY..XY)
15,80 26,30 27,189 28,149
29,30 30,119 37,50 38,99
39,489 40,60 41,149 42,119
43,30 44,20 45,30 46,50
47,50 48,10 49,20 50,219
51,479 52,339 53,209 54,70
55,30 56,20 57,10 58,239
59,559 60,339 61,70 62,129
63,349 64,119 65,749 66,119
67,30 68,20 69,10 72,10
73,20 74,50 75,60 76,90
77,859 78,429 79,499 80,139
81,20 82,10 85,20 86,40
87,40 88,20 89,249 90,179
91,1739 92,469 93,249 94,70
95,10 102,30 103,50 104,249
105,159 106,829 107,149 108,30
116,20 117,50 118,399 119,429
120,9999 121,9409 122,809 123,50
##END=
