##TITLE=Benzene, 1-methyl-4-nitroso-
##JCAMP-DX=4.24
##DATA TYPE=MASS SPECTRUM
##OWNER=NIST Mass Spectrometry Data Center
Collection (C) 2014 copyright by the U.S. Secretary of Commerce
on behalf of the United States of America. All rights reserved.
##CAS REGISTRY NO=623-11-0
##$NIST MASS SPEC NO=2220
##MOLFORM=C7 H7 N O
##MW=121
##$NIST SOURCE=MSDC
##XUNITS=M/Z
##YUNITS=RELATIVE INTENSITY
##XFACTOR=1
##YFACTOR=1
##FIRSTX=26
##LASTX=122
##FIRSTY=169
##MAXX=122
##MINX=26
##MAXY=9999
##MINY=68
##NPOINTS=37
##PEAK TABLE=(XY..XY)
26,169 27,508 28,169 30,508
37,339 38,508 39,2881 40,169
41,508 49,68 50,1186 51,1424
52,678 61,339 62,746 63,2034
64,678 65,8474 66,610 74,610
75,102 76,169 77,339 78,271
79,68 85,102 86,203 87,68
89,1186 90,373 91,9999 92,949
104,102 105,169 106,339 121,7287
122,678
##END=
