##TITLE=Caprylic anhydride
##JCAMP-DX=4.24
##DATA TYPE=MASS SPECTRUM
##ORIGIN=NIST Mass Spectrometry Data Center
##OWNER=NIST Mass Spectrometry Data Center
Collection (C) 2014 copyright by the U.S. Secretary of Commerce
on behalf of the United States of America. All rights reserved.
##CAS REGISTRY NO=623-66-5
##$NIST MASS SPEC NO=333900
##MOLFORM=C16 H30 O3
##MW=270
##$NIST SOURCE=MSDC
##XUNITS=M/Z
##YUNITS=RELATIVE INTENSITY
##XFACTOR=1
##YFACTOR=1
##FIRSTX=26
##LASTX=214
##FIRSTY=10
##MAXX=214
##MINX=26
##MAXY=9999
##MINY=10
##NPOINTS=80
##PEAK TABLE=(XY..XY)
26,10 27,180 28,80 29,380
30,10 38,10 39,210 40,50
41,1141 42,490 43,1151 44,40
45,30 51,10 52,10 53,80
54,60 55,1211 56,300 57,4904
58,250 59,70 60,70 61,10
65,10 66,10 67,200 68,40
69,180 70,120 71,80 72,10
73,50 77,10 79,20 80,40
81,40 82,90 83,210 84,430
85,60 86,20 87,10 93,10
95,10 96,20 97,100 98,470
99,50 100,20 101,20 107,10
108,20 109,310 110,30 111,30
112,20 113,10 114,10 115,20
116,10 124,20 125,80 127,9999
128,1001 129,80 130,160 131,10
140,10 142,30 143,60 144,40
145,30 153,10 155,10 168,10
169,10 171,30 172,10 214,10
##END=
