##TITLE=Butane, 1,4-dichloro-2-methyl-
##JCAMP-DX=4.24
##DATA TYPE=MASS SPECTRUM
##ORIGIN=COMPAGNIE FRANCAISE DE RAFFINAGE, FRANCE.
##OWNER=NIST Mass Spectrometry Data Center
Collection (C) 2014 copyright by the U.S. Secretary of Commerce
on behalf of the United States of America. All rights reserved.
##CAS REGISTRY NO=623-34-7
##$NIST MASS SPEC NO=3775
##MOLFORM=C5 H10 Cl2
##MW=140
##$NIST SOURCE=MSDC
##XUNITS=M/Z
##YUNITS=RELATIVE INTENSITY
##XFACTOR=1
##YFACTOR=1
##FIRSTX=25
##LASTX=141
##FIRSTY=19
##MAXX=141
##MINX=25
##MAXY=9999
##MINY=10
##NPOINTS=74
##PEAK TABLE=(XY..XY)
25,19 26,331 27,2738 28,538
29,2797 30,65 31,28 35,92
36,607 37,130 38,386 39,2131
40,365 41,4214 42,1793 43,300
47,38 48,48 49,922 50,194
51,598 52,86 53,1250 54,202
55,9999 56,509 57,49 60,27
61,182 62,226 63,1357 64,98
65,476 66,41 67,365 68,1033
69,6071 70,361 71,21 73,61
75,377 76,643 77,928 78,234
79,262 83,42 85,38 87,48
88,17 89,544 90,619 91,4218
92,377 93,1327 94,60 96,17
97,77 98,12 103,222 104,2083
105,194 106,678 107,43 109,12
110,17 111,14 112,12 123,38
125,30 127,10 138,26 139,62
140,19 141,40
##END=
