##TITLE=3-Hexanol, 5-methyl-
##JCAMP-DX=4.24
##DATA TYPE=MASS SPECTRUM
##ORIGIN=NIST Mass Spectrometry Data Center, 1990.
##OWNER=NIST Mass Spectrometry Data Center
Collection (C) 2014 copyright by the U.S. Secretary of Commerce
on behalf of the United States of America. All rights reserved.
##CAS REGISTRY NO=623-55-2
##$NIST MASS SPEC NO=114005
##MOLFORM=C7 H16 O
##MW=116
##$NIST SOURCE=MSDC
##XUNITS=M/Z
##YUNITS=RELATIVE INTENSITY
##XFACTOR=1
##YFACTOR=1
##FIRSTX=14
##LASTX=99
##FIRSTY=94
##MAXX=99
##MINX=14
##MAXY=9999
##MINY=81
##NPOINTS=44
##PEAK TABLE=(XY..XY)
14,94 15,357 16,95 17,92
18,228 19,85 26,312 27,2913
28,1051 29,2578 30,85 31,2937
32,197 39,2053 40,509 41,5863
42,723 43,5691 44,1007 45,3169
46,100 50,148 51,193 52,81
53,426 54,221 55,1675 56,1319
57,2537 58,1215 59,9999 60,310
67,224 69,8094 70,765 71,315
72,123 83,318 85,346 86,356
87,3084 88,180 98,435 99,105
##END=
