##TITLE=Sulfurous acid, dipropyl ester
##JCAMP-DX=4.24
##DATA TYPE=MASS SPECTRUM
##ORIGIN=Japan AIST/NIMC Database- Spectrum MS-NW-5126
##OWNER=NIST Mass Spectrometry Data Center
Collection (C) 2014 copyright by the U.S. Secretary of Commerce
on behalf of the United States of America. All rights reserved.
##CAS REGISTRY NO=623-98-3
##$NIST MASS SPEC NO=233611
##MOLFORM=C6 H14 O3 S
##MW=166
##$NIST SOURCE=MSDC
##XUNITS=M/Z
##YUNITS=RELATIVE INTENSITY
##XFACTOR=1
##YFACTOR=1
##FIRSTX=14
##LASTX=151
##FIRSTY=10
##MAXX=151
##MINX=14
##MAXY=9999
##MINY=10
##NPOINTS=51
##PEAK TABLE=(XY..XY)
14,10 15,60 26,60 27,969
28,179 29,399 30,50 31,479
32,20 38,20 39,249 40,60
41,1329 42,579 43,9999 44,309
45,179 48,60 49,10 50,30
55,169 56,30 57,60 58,30
59,369 60,40 61,179 64,60
65,20 66,30 69,10 73,749
74,40 76,20 78,50 83,379
85,30 87,70 94,109 95,109
96,10 107,90 108,10 109,10
124,50 125,349 126,20 127,20
136,10 137,60 151,10
##END=
