##TITLE=Ethyl diazoacetate
##JCAMP-DX=4.24
##DATA TYPE=MASS SPECTRUM
##ORIGIN=NIST Mass Spectrometry Data Center, 1990.
##OWNER=NIST Mass Spectrometry Data Center
Collection (C) 2014 copyright by the U.S. Secretary of Commerce
on behalf of the United States of America. All rights reserved.
##CAS REGISTRY NO=623-73-4
##$NIST MASS SPEC NO=118508
##MOLFORM=C4 H6 N2 O2
##MW=114
##$NIST SOURCE=MSDC
##XUNITS=M/Z
##YUNITS=RELATIVE INTENSITY
##XFACTOR=1
##YFACTOR=1
##FIRSTX=15
##LASTX=115
##FIRSTY=639
##MAXX=115
##MINX=15
##MAXY=9999
##MINY=9
##NPOINTS=34
##PEAK TABLE=(XY..XY)
15,639 16,10 17,9 24,27
25,121 26,769 27,3110 28,2459
29,9999 30,891 31,239 37,32
38,49 39,201 40,246 41,2415
42,1469 43,788 44,246 45,392
46,38 54,55 55,52 56,56
57,340 58,300 69,3512 70,124
71,35 85,23 86,144 99,76
114,2597 115,128
##END=
