##TITLE=Butanoic acid, methyl ester
##JCAMP-DX=4.24
##DATA TYPE=MASS SPECTRUM
##ORIGIN=NIST Mass Spectrometry Data Center, 1990.
##OWNER=NIST Mass Spectrometry Data Center
Collection (C) 2014 copyright by the U.S. Secretary of Commerce
on behalf of the United States of America. All rights reserved.
##CAS REGISTRY NO=623-42-7
##$NIST MASS SPEC NO=118791
##MOLFORM=C5 H10 O2
##MW=102
##$NIST SOURCE=MSDC
##XUNITS=M/Z
##YUNITS=RELATIVE INTENSITY
##XFACTOR=1
##YFACTOR=1
##FIRSTX=12
##LASTX=102
##FIRSTY=27
##MAXX=102
##MINX=12
##MAXY=9999
##MINY=8
##NPOINTS=42
##PEAK TABLE=(XY..XY)
12,27 13,57 14,267 15,2252
16,72 18,19 26,643 27,3152
28,862 29,1393 30,158 31,481
32,8 33,125 36,32 37,146
38,404 39,2037 40,427 41,3831
42,2168 43,9999 44,487 45,512
53,52 55,1246 56,68 57,113
58,52 59,2607 60,112 61,69
69,172 71,5509 72,274 74,7666
75,272 76,37 87,1929 88,84
101,130 102,165
##END=
