##TITLE=Ethyl iodoacetate
##JCAMP-DX=4.24
##DATA TYPE=MASS SPECTRUM
##ORIGIN=Japan AIST/NIMC Database- Spectrum MS-IW-1540
##OWNER=NIST Mass Spectrometry Data Center
Collection (C) 2014 copyright by the U.S. Secretary of Commerce
on behalf of the United States of America. All rights reserved.
##CAS REGISTRY NO=623-48-3
##$NIST MASS SPEC NO=238294
##MOLFORM=C4 H7 I O2
##MW=214
##$NIST SOURCE=MSDC
##XUNITS=M/Z
##YUNITS=RELATIVE INTENSITY
##XFACTOR=1
##YFACTOR=1
##FIRSTX=13
##LASTX=216
##FIRSTY=20
##MAXX=216
##MINX=13
##MAXY=9999
##MINY=10
##NPOINTS=84
##PEAK TABLE=(XY..XY)
13,20 14,239 15,319 16,10
18,10 25,10 26,219 27,1899
28,599 29,7259 30,209 31,589
32,10 36,20 39,20 40,10
41,999 42,2569 43,1229 44,139
45,1179 46,40 49,80 51,20
57,10 58,20 59,1619 60,199
61,70 63,10 69,20 70,30
73,109 77,219 79,80 80,10
87,6639 88,409 89,40 92,10
93,129 94,99 95,139 96,70
101,10 103,10 107,50 109,40
120,10 121,369 122,20 123,369
124,10 127,1259 128,439 129,20
138,169 139,199 140,569 141,4399
142,2419 143,40 144,30 151,10
153,10 155,119 156,30 157,40
162,20 166,70 167,10 168,689
169,8479 170,189 171,20 172,70
186,9259 187,249 188,40 199,109
213,10 214,9999 215,479 216,50
##END=
