##TITLE=1,4-Benzenedicarboxaldehyde
##JCAMP-DX=4.24
##DATA TYPE=MASS SPECTRUM
##ORIGIN=Japan AIST/NIMC Database- Spectrum MS-NW-4739
##OWNER=NIST Mass Spectrometry Data Center
Collection (C) 2014 copyright by the U.S. Secretary of Commerce
on behalf of the United States of America. All rights reserved.
##CAS REGISTRY NO=623-27-8
##$NIST MASS SPEC NO=230032
##MOLFORM=C8 H6 O2
##MW=134
##$NIST SOURCE=MSDC
##XUNITS=M/Z
##YUNITS=RELATIVE INTENSITY
##XFACTOR=1
##YFACTOR=1
##FIRSTX=12
##LASTX=136
##FIRSTY=10
##MAXX=136
##MINX=12
##MAXY=9999
##MINY=10
##NPOINTS=67
##PEAK TABLE=(XY..XY)
12,10 14,10 16,10 17,20
18,70 25,20 26,90 27,389
28,149 29,719 30,10 36,50
37,299 38,329 39,359 40,20
43,40 44,10 48,30 49,209
50,1919 51,4269 52,549 53,139
54,10 55,20 56,10 60,40
61,149 62,189 63,219 64,30
65,30 66,30 67,20 72,20
73,189 74,819 75,579 76,869
77,5039 78,579 79,30 83,10
84,30 85,40 86,60 87,30
88,10 89,60 90,20 91,99
92,10 101,10 102,99 103,109
104,329 105,6019 106,489 107,30
130,159 131,109 132,60 133,8949
134,9999 135,929 136,80
##END=
