##TITLE=1,2,3-Propanetriol, 1,3-dinitrate
##JCAMP-DX=4.24
##DATA TYPE=MASS SPECTRUM
##ORIGIN=MINISTRY OF TECH. E.R.D.E., WALTHAM ABBEY, UK
##OWNER=NIST Mass Spectrometry Data Center
Collection (C) 2014 copyright by the U.S. Secretary of Commerce
on behalf of the United States of America. All rights reserved.
##CAS REGISTRY NO=623-87-0
##$NIST MASS SPEC NO=7697
##MOLFORM=C3 H6 N2 O7
##MW=182
##$NIST SOURCE=MSDC
##XUNITS=M/Z
##YUNITS=RELATIVE INTENSITY
##XFACTOR=1
##YFACTOR=1
##FIRSTX=12
##LASTX=76
##FIRSTY=30
##MAXX=76
##MINX=12
##MAXY=9999
##MINY=20
##NPOINTS=32
##PEAK TABLE=(XY..XY)
12,30 13,40 14,80 15,320
16,60 17,210 18,740 19,70
20,30 25,20 26,190 27,510
28,1330 29,2140 30,5080 31,2790
32,820 39,180 41,220 42,290
43,2790 44,630 45,640 46,9999
47,50 55,170 57,160 58,640
60,630 61,300 73,290 76,720
##END=
