##TITLE=Carbonic acid, ethyl-, methyl ester
##JCAMP-DX=4.24
##DATA TYPE=MASS SPECTRUM
##ORIGIN=Japan AIST/NIMC Database- Spectrum MS-IW-2906
##OWNER=NIST Mass Spectrometry Data Center
Collection (C) 2014 copyright by the U.S. Secretary of Commerce
on behalf of the United States of America. All rights reserved.
##CAS REGISTRY NO=623-53-0
##$NIST MASS SPEC NO=245156
##MOLFORM=C4 H8 O3
##MW=104
##$NIST SOURCE=MSDC
##XUNITS=M/Z
##YUNITS=RELATIVE INTENSITY
##XFACTOR=1
##YFACTOR=1
##FIRSTX=13
##LASTX=105
##FIRSTY=10
##MAXX=105
##MINX=13
##MAXY=9999
##MINY=10
##NPOINTS=46
##PEAK TABLE=(XY..XY)
13,10 14,99 15,1929 16,50
18,10 25,20 26,339 27,2189
28,1639 29,7889 30,379 31,5869
32,179 33,739 34,10 39,10
40,10 41,159 42,90 43,589
44,279 45,9999 46,429 47,189
55,10 56,20 57,20 58,30
59,3069 60,229 61,149 62,99
63,859 64,10 65,10 73,40
74,20 75,109 76,169 77,3999
78,90 79,30 89,50 103,10
104,30 105,10
##END=
