##TITLE=3-Hexanone, 5-methyl-
##JCAMP-DX=4.24
##DATA TYPE=MASS SPECTRUM
##ORIGIN=NIST Mass Spectrometry Data Center, 1990.
##OWNER=NIST Mass Spectrometry Data Center
Collection (C) 2014 copyright by the U.S. Secretary of Commerce
on behalf of the United States of America. All rights reserved.
##CAS REGISTRY NO=623-56-3
##$NIST MASS SPEC NO=114235
##MOLFORM=C7 H14 O
##MW=114
##$NIST SOURCE=MSDC
##XUNITS=M/Z
##YUNITS=RELATIVE INTENSITY
##XFACTOR=1
##YFACTOR=1
##FIRSTX=14
##LASTX=115
##FIRSTY=14
##MAXX=115
##MINX=14
##MAXY=9999
##MINY=14
##NPOINTS=43
##PEAK TABLE=(XY..XY)
14,14 15,88 16,64 26,171
27,1300 28,164 29,1790 30,43
31,63 37,36 38,146 39,1329
40,283 41,2666 42,792 43,1437
44,123 45,41 50,86 51,106
52,39 53,169 54,68 55,309
56,450 57,9999 58,404 59,40
67,30 69,128 70,29 71,108
72,740 73,51 74,19 81,43
83,21 85,2769 86,163 99,321
100,23 114,1276 115,109
##END=
