##TITLE=4-Decene, 8-methyl-, (E)-
##JCAMP-DX=4.24
##DATA TYPE=MASS SPECTRUM
##ORIGIN=D.HENNEBERG, MAX-PLANCK INSTITUTE, MULHEIM, WEST GERMANY
##OWNER=NIST Mass Spectrometry Data Center
Collection (C) 2014 copyright by the U.S. Secretary of Commerce
on behalf of the United States of America. All rights reserved.
##CAS REGISTRY NO=62338-50-5
##$NIST MASS SPEC NO=60849
##MOLFORM=C11 H22
##MW=154
##$NIST SOURCE=MSDC
##XUNITS=M/Z
##YUNITS=RELATIVE INTENSITY
##XFACTOR=1
##YFACTOR=1
##FIRSTX=24
##LASTX=155
##FIRSTY=25
##MAXX=155
##MINX=24
##MAXY=9999
##MINY=5
##NPOINTS=71
##PEAK TABLE=(XY..XY)
24,25 25,37 26,90 27,2417
28,328 29,4515 30,118 31,18
33,25 35,30 38,76 39,1959
40,219 41,6927 42,2082 43,5250
44,133 49,17 50,23 51,146
52,75 53,649 54,990 55,9724
56,3533 57,3283 58,86 59,12
62,17 63,15 64,7 65,124
66,71 67,727 68,237 69,4766
70,9999 71,2541 72,113 75,14
77,145 78,18 79,184 80,6
81,290 82,238 83,2804 84,703
85,123 86,6 93,6 95,75
96,49 97,389 98,279 99,35
100,12 105,5 106,10 109,12
111,19 112,35 113,7 123,9
124,106 125,602 126,94 127,6
139,5 154,669 155,90
##END=
