##TITLE=Cyclohexane, 1-ethyl-4-methyl-, trans-
##JCAMP-DX=4.24
##DATA TYPE=MASS SPECTRUM
##ORIGIN=NIST Mass Spectrometry Data Center, 1990.
##OWNER=NIST Mass Spectrometry Data Center
Collection (C) 2014 copyright by the U.S. Secretary of Commerce
on behalf of the United States of America. All rights reserved.
##CAS REGISTRY NO=6236-88-0
##$NIST MASS SPEC NO=113504
##MOLFORM=C9 H18
##MW=126
##$NIST SOURCE=MSDC
##XUNITS=M/Z
##YUNITS=RELATIVE INTENSITY
##XFACTOR=1
##YFACTOR=1
##FIRSTX=27
##LASTX=127
##FIRSTY=1061
##MAXX=127
##MINX=27
##MAXY=9999
##MINY=63
##NPOINTS=38
##PEAK TABLE=(XY..XY)
27,1061 28,494 29,1219 39,1893
40,421 41,3374 42,705 43,704
50,92 51,270 52,142 53,826
54,92 55,9999 56,1203 57,273
63,73 65,243 66,112 67,824
68,421 69,2687 70,503 71,82
77,227 78,63 79,260 80,63
81,1302 82,148 83,275 91,75
96,3383 97,9918 98,836 111,160
126,2450 127,223
##END=
