##TITLE=Theophylline, TMS derivative
##JCAMP-DX=4.24
##DATA TYPE=MASS SPECTRUM
##ORIGIN=Association of Official Racing Chemists
##OWNER=NIST Mass Spectrometry Data Center
Collection (C) 2014 copyright by the U.S. Secretary of Commerce
on behalf of the United States of America. All rights reserved.
##CAS REGISTRY NO=62374-32-7
##$NIST MASS SPEC NO=137226
##MOLFORM=C10 H16 N4 O2 Si
##MW=252
##$NIST SOURCE=MSDC
##XUNITS=M/Z
##YUNITS=RELATIVE INTENSITY
##XFACTOR=1
##YFACTOR=1
##FIRSTX=46
##LASTX=255
##FIRSTY=144
##MAXX=255
##MINX=46
##MAXY=9999
##MINY=4
##NPOINTS=150
##PEAK TABLE=(XY..XY)
46,144 47,160 48,12 50,18
51,8 52,81 53,254 54,336
55,248 56,473 57,282 58,414
59,376 60,64 61,69 63,23
64,21 65,50 66,143 67,646
68,355 69,152 70,432 71,105
72,607 73,5356 74,628 75,533
76,79 77,43 78,14 79,100
80,150 81,258 82,99 84,1137
85,167 86,231 87,121 88,55
89,24 90,20 91,211 93,161
94,536 95,204 96,90 97,96
98,204 99,137 100,303 101,30
102,133 103,19 104,38 106,40
107,90 108,135 109,46 110,70
111,145 112,79 113,84 114,35
115,25 116,39 117,14 119,299
120,92 121,68 122,137 123,147
124,88 125,195 126,60 127,52
128,17 129,15 130,16 131,4
133,11 135,821 136,146 137,60
138,74 139,282 140,165 141,156
142,19 147,13 148,91 149,69
150,88 151,64 152,276 153,85
154,97 155,38 156,18 161,19
162,15 163,70 164,26 165,48
166,158 167,259 168,76 169,33
170,21 175,14 176,23 177,97
178,865 179,155 180,302 181,164
182,244 183,49 184,11 192,30
193,66 194,192 195,149 196,96
197,64 198,19 207,179 208,55
209,717 210,265 211,64 212,23
219,9 221,132 222,81 223,1107
224,224 225,113 226,22 232,20
233,21 235,138 237,9999 238,1433
239,563 240,69 252,5420 253,1211
254,407 255,36
##END=
