##TITLE=Benzaldehyde, 3-(4-methoxyphenoxy)-
##JCAMP-DX=4.24
##DATA TYPE=MASS SPECTRUM
##ORIGIN=Japan AIST/NIMC Database- Spectrum MS-NW-7483
##OWNER=NIST Mass Spectrometry Data Center
Collection (C) 2014 copyright by the U.S. Secretary of Commerce
on behalf of the United States of America. All rights reserved.
##CAS REGISTRY NO=62373-80-2
##$NIST MASS SPEC NO=238550
##MOLFORM=C14 H12 O3
##MW=228
##$NIST SOURCE=MSDC
##XUNITS=M/Z
##YUNITS=RELATIVE INTENSITY
##XFACTOR=1
##YFACTOR=1
##FIRSTX=14
##LASTX=231
##FIRSTY=20
##MAXX=231
##MINX=14
##MAXY=9999
##MINY=10
##NPOINTS=177
##PEAK TABLE=(XY..XY)
14,20 15,129 18,20 26,119
27,179 28,539 29,159 31,50
32,20 37,40 38,249 39,349
40,20 41,419 42,30 43,40
44,30 45,60 49,20 50,619
51,1629 52,349 53,179 54,169
55,309 56,20 57,20 58,109
59,179 60,10 61,40 62,169
63,659 64,639 65,279 66,50
67,40 69,90 70,80 71,10
73,20 74,189 75,259 76,639
77,2559 78,239 79,139 80,169
81,90 82,60 83,10 84,50
85,10 86,20 87,20 88,10
89,80 90,30 91,139 92,489
93,70 94,10 95,469 96,40
97,10 98,40 99,20 100,70
101,50 102,109 103,90 104,50
105,1949 106,209 107,60 108,60
109,119 110,20 113,189 114,60
115,219 116,30 117,20 118,10
119,30 120,60 121,30 122,20
123,1039 124,149 125,30 126,50
127,249 128,579 129,1149 130,129
131,109 132,20 133,80 134,10
135,30 137,10 138,10 139,129
140,40 141,189 142,40 143,50
144,10 145,40 146,10 147,10
148,30 149,20 150,10 151,10
152,10 153,20 154,10 155,99
156,109 157,809 158,119 159,20
160,10 161,10 163,10 164,10
166,10 167,60 168,99 169,99
170,20 171,199 172,70 173,10
176,10 178,10 179,10 180,10
181,10 182,10 183,70 184,109
185,569 186,80 187,20 193,10
195,30 196,20 197,50 198,30
199,229 200,70 201,20 202,10
203,10 204,10 205,10 206,10
207,10 208,10 209,10 210,10
211,99 212,40 213,3099 214,599
215,109 216,10 225,20 226,20
227,179 228,9999 229,1549 230,199
231,10
##END=
