##TITLE=1-Dimethyl(pentafluorophenyl)silyloxybutane
##JCAMP-DX=4.24
##DATA TYPE=MASS SPECTRUM
##ORIGIN=V.G.Zaikin, TIPS, Russian Acad. Sci., Moscow
##OWNER=NIST Mass Spectrometry Data Center
Collection (C) 2014 copyright by the U.S. Secretary of Commerce
on behalf of the United States of America. All rights reserved.
##CAS REGISTRY NO=62394-61-0
##$NIST MASS SPEC NO=216737
##MOLFORM=C12 H15 F5 O Si
##MW=298
##$NIST SOURCE=MSDC
##XUNITS=M/Z
##YUNITS=RELATIVE INTENSITY
##XFACTOR=1
##YFACTOR=1
##FIRSTX=30
##LASTX=299
##FIRSTY=270
##MAXX=299
##MINX=30
##MAXY=9999
##MINY=9
##NPOINTS=152
##PEAK TABLE=(XY..XY)
30,270 31,510 32,230 36,210
37,120 38,190 39,1461 40,140
41,3853 42,490 43,1291 44,300
45,920 47,2722 48,160 49,1531
50,210 51,760 52,80 53,350
54,70 55,2141 56,970 57,4373
58,380 59,380 60,80 61,420
62,250 63,790 64,60 65,490
67,100 68,80 69,360 70,80
71,170 72,40 73,150 74,240
75,3693 76,510 77,9999 78,1211
79,7156 80,770 81,3112 82,190
83,420 84,60 85,420 86,60
87,190 88,100 89,530 90,80
91,600 92,280 93,1030 94,150
95,580 96,60 98,210 99,880
100,60 101,600 102,160 103,80
104,80 105,400 106,80 107,670
108,60 109,160 110,350 111,400
112,100 113,600 114,170 115,490
116,80 117,370 118,120 119,620
120,70 121,70 123,200 124,140
125,3553 126,380 127,320 129,830
130,3433 131,790 132,300 133,120
134,50 135,400 136,60 137,140
138,100 139,210 140,100 141,830
142,120 143,420 144,120 145,1301
146,140 147,100 148,70 149,60
157,120 158,140 159,1050 160,100
161,470 162,80 163,380 164,70
165,100 168,80 185,120 191,90
203,50 204,30 205,90 207,250
208,70 209,70 211,230 212,70
224,200 225,2522 226,520 227,350
239,230 240,90 241,450 242,50
253,130 255,2792 257,480 258,170
282,340 283,4604 284,960 285,220
286,40 297,40 298,20 299,9
##END=
