##TITLE=2-Dimethyl(pentafluorophenyl)silyloxybutane
##JCAMP-DX=4.24
##DATA TYPE=MASS SPECTRUM
##ORIGIN=V.G.Zaikin, TIPS, Russian Acad. Sci., Moscow
##OWNER=NIST Mass Spectrometry Data Center
Collection (C) 2014 copyright by the U.S. Secretary of Commerce
on behalf of the United States of America. All rights reserved.
##CAS REGISTRY NO=62394-62-1
##$NIST MASS SPEC NO=216738
##MOLFORM=C12 H15 F5 O Si
##MW=298
##$NIST SOURCE=MSDC
##XUNITS=M/Z
##YUNITS=RELATIVE INTENSITY
##XFACTOR=1
##YFACTOR=1
##FIRSTX=30
##LASTX=299
##FIRSTY=90
##MAXX=299
##MINX=30
##MAXY=9999
##MINY=9
##NPOINTS=129
##PEAK TABLE=(XY..XY)
30,90 31,650 39,1020 40,120
41,1201 42,160 43,1481 44,600
45,760 47,2412 48,210 49,1721
50,250 51,850 52,120 53,230
55,330 56,350 57,790 58,120
59,210 60,70 61,230 62,210
63,460 64,70 65,550 66,50
67,70 68,90 69,310 70,70
71,160 72,20 73,70 74,300
75,5434 76,780 77,9999 78,880
79,3783 80,510 81,2702 82,200
83,370 84,50 85,250 86,110
87,120 88,70 89,90 90,50
91,1341 92,590 93,440 94,120
95,700 96,70 97,50 98,160
99,780 101,440 102,100 103,180
104,120 105,480 110,140 111,300
112,70 113,160 114,160 115,140
117,900 118,430 119,590 120,150
123,140 124,120 125,4363 126,270
127,140 129,690 130,100 131,160
132,100 133,140 134,390 135,160
136,140 137,110 138,140 139,110
140,140 141,550 143,330 144,70
145,380 146,100 148,100 157,100
158,80 159,1141 160,120 161,350
163,160 164,80 165,140 189,100
203,60 205,70 207,210 224,120
225,2021 226,370 227,500 228,70
229,50 239,140 267,270 268,180
269,8247 270,1521 271,690 283,990
284,160 285,70 297,90 298,20
299,9
##END=
