##TITLE=Ethyl isocyanide
##JCAMP-DX=4.24
##DATA TYPE=MASS SPECTRUM
##ORIGIN=R.G.GILLIS AUST SCI SERVICE, ASCOT VALE, VIC., AUSTRALIA
##OWNER=NIST Mass Spectrometry Data Center
Collection (C) 2014 copyright by the U.S. Secretary of Commerce
on behalf of the United States of America. All rights reserved.
##CAS REGISTRY NO=624-79-3
##$NIST MASS SPEC NO=100
##MOLFORM=C3 H5 N
##MW=55
##$NIST SOURCE=MSDC
##XUNITS=M/Z
##YUNITS=RELATIVE INTENSITY
##XFACTOR=1
##YFACTOR=1
##FIRSTX=15
##LASTX=56
##FIRSTY=500
##MAXX=56
##MINX=15
##MAXY=9999
##MINY=200
##NPOINTS=17
##PEAK TABLE=(XY..XY)
15,500 26,2000 27,5200 28,9300
29,9999 30,200 38,500 39,800
40,2900 41,200 50,200 51,900
52,1500 53,300 54,3300 55,7800
56,400
##END=
