##TITLE=3-Heptanone, 6-methyl-
##JCAMP-DX=4.24
##DATA TYPE=MASS SPECTRUM
##OWNER=NIST Mass Spectrometry Data Center
Collection (C) 2014 copyright by the U.S. Secretary of Commerce
on behalf of the United States of America. All rights reserved.
##CAS REGISTRY NO=624-42-0
##$NIST MASS SPEC NO=2670
##MOLFORM=C8 H16 O
##MW=128
##$NIST SOURCE=MSDC
##XUNITS=M/Z
##YUNITS=RELATIVE INTENSITY
##XFACTOR=1
##YFACTOR=1
##FIRSTX=12
##LASTX=130
##FIRSTY=10
##MAXX=130
##MINX=12
##MAXY=9999
##MINY=10
##NPOINTS=89
##PEAK TABLE=(XY..XY)
12,10 13,20 14,110 15,490
16,20 17,20 18,60 19,10
25,20 26,701 27,5555 28,1692
29,7537 30,180 31,120 32,20
33,10 34,10 36,10 37,60
38,160 39,1832 40,290 41,2853
42,761 43,9028 44,320 45,60
48,10 49,10 50,90 51,160
52,60 53,370 54,130 55,1251
56,651 57,9999 58,440 59,80
61,10 62,10 63,20 64,10
65,30 66,110 67,130 68,30
69,130 70,70 71,2192 72,5625
73,701 74,40 75,10 77,30
78,10 79,30 81,2853 82,200
83,50 84,20 85,510 86,120
87,10 91,10 93,10 94,10
95,20 96,10 97,30 98,20
99,2312 100,160 101,10 105,10
106,10 107,10 109,30 110,10
111,10 112,10 113,50 114,10
126,10 127,20 128,1171 129,130
130,10
##END=
