##TITLE=Alpha-monopropionin
##JCAMP-DX=4.24
##DATA TYPE=MASS SPECTRUM
##ORIGIN=Japan AIST/NIMC Database- Spectrum MS-NW-1426
##OWNER=NIST Mass Spectrometry Data Center
Collection (C) 2014 copyright by the U.S. Secretary of Commerce
on behalf of the United States of America. All rights reserved.
##CAS REGISTRY NO=624-47-5
##$NIST MASS SPEC NO=229872
##MOLFORM=C6 H12 O4
##MW=148
##$NIST SOURCE=MSDC
##XUNITS=M/Z
##YUNITS=RELATIVE INTENSITY
##XFACTOR=1
##YFACTOR=1
##FIRSTX=14
##LASTX=133
##FIRSTY=40
##MAXX=133
##MINX=14
##MAXY=9999
##MINY=10
##NPOINTS=53
##PEAK TABLE=(XY..XY)
14,40 15,689 16,10 17,30
18,139 25,10 26,119 27,699
28,309 29,3399 30,90 31,999
32,30 33,20 39,40 40,20
41,30 42,159 43,1359 44,1029
45,259 46,10 47,10 53,10
55,129 56,339 57,9999 58,359
59,80 60,139 61,1459 62,60
63,10 71,50 73,70 74,219
75,809 76,30 87,90 88,729
89,50 100,179 101,20 103,10
114,20 115,10 117,1279 118,80
119,10 129,30 130,40 131,80
133,10
##END=
