##TITLE=9-Heptadecanol
##JCAMP-DX=4.24
##DATA TYPE=MASS SPECTRUM
##ORIGIN=NIST Mass Spectrometry Data Center, 1990.
##OWNER=NIST Mass Spectrometry Data Center
Collection (C) 2014 copyright by the U.S. Secretary of Commerce
on behalf of the United States of America. All rights reserved.
##CAS REGISTRY NO=624-08-8
##$NIST MASS SPEC NO=114175
##MOLFORM=C17 H36 O
##MW=256
##$NIST SOURCE=MSDC
##XUNITS=M/Z
##YUNITS=RELATIVE INTENSITY
##XFACTOR=1
##YFACTOR=1
##FIRSTX=14
##LASTX=239
##FIRSTY=189
##MAXX=239
##MINX=14
##MAXY=9999
##MINY=32
##NPOINTS=77
##PEAK TABLE=(XY..XY)
14,189 16,115 18,53 27,886
28,173 29,2123 30,67 31,91
39,1054 41,6661 42,1292 43,5691
44,483 45,104 51,74 53,810
54,1984 55,8028 56,3222 57,5347
58,508 59,126 65,237 66,266
67,2199 68,1244 69,9999 70,3178
71,1957 72,140 77,197 78,43
79,420 80,147 81,1043 82,1413
83,6536 84,1686 85,865 86,78
91,77 93,49 94,53 95,481
96,808 97,3214 98,886 99,208
100,53 109,121 110,320 111,1350
112,482 113,128 114,47 123,60
124,219 125,763 126,262 127,83
138,96 139,149 140,163 141,264
142,83 143,1383 144,150 152,44
153,66 154,81 157,48 167,32
168,46 169,41 210,67 238,659
239,131
##END=
