##TITLE=Cyclohexane, 1,4-dimethyl-, cis-
##JCAMP-DX=4.24
##DATA TYPE=MASS SPECTRUM
##OWNER=NIST Mass Spectrometry Data Center
Collection (C) 2014 copyright by the U.S. Secretary of Commerce
on behalf of the United States of America. All rights reserved.
##CAS REGISTRY NO=624-29-3
##$NIST MASS SPEC NO=1622
##MOLFORM=C8 H16
##MW=112
##$NIST SOURCE=MSDC
##XUNITS=M/Z
##YUNITS=RELATIVE INTENSITY
##XFACTOR=1
##YFACTOR=1
##FIRSTX=13
##LASTX=114
##FIRSTY=10
##MAXX=114
##MINX=13
##MAXY=9999
##MINY=10
##NPOINTS=66
##PEAK TABLE=(XY..XY)
13,10 14,10 15,340 16,10
26,100 27,2122 28,621 29,1922
30,50 37,20 38,50 39,1922
40,390 41,4404 42,1732 43,1001
44,30 45,10 46,20 47,10
50,30 51,150 52,90 53,621
54,420 55,9999 56,2592 57,751
58,30 62,10 63,20 64,10
65,90 66,60 67,430 68,220
69,1541 70,1201 71,150 72,10
75,10 77,90 78,20 79,80
80,20 81,200 82,230 83,1031
84,731 85,60 89,10 91,30
92,10 93,10 94,10 95,60
96,891 97,8648 98,651 99,20
109,10 110,10 111,80 112,3093
113,270 114,10
##END=
