##TITLE=Disulfide, dimethyl
##JCAMP-DX=4.24
##DATA TYPE=MASS SPECTRUM
##ORIGIN=NIST Mass Spectrometry Data Center, 1998.
##OWNER=NIST Mass Spectrometry Data Center
Collection (C) 2014 copyright by the U.S. Secretary of Commerce
on behalf of the United States of America. All rights reserved.
##CAS REGISTRY NO=624-92-0
##$NIST MASS SPEC NO=291515
##MOLFORM=C2 H6 S2
##MW=94
##$NIST SOURCE=MSDC
##XUNITS=M/Z
##YUNITS=RELATIVE INTENSITY
##XFACTOR=1
##YFACTOR=1
##FIRSTX=12
##LASTX=98
##FIRSTY=10
##MAXX=98
##MINX=12
##MAXY=9999
##MINY=10
##NPOINTS=41
##PEAK TABLE=(XY..XY)
12,10 13,20 14,50 15,200
27,20 32,160 33,60 34,20
35,30 44,280 45,4780 46,2500
47,1930 48,900 49,310 50,40
51,10 57,20 58,20 59,20
60,30 61,1490 62,50 63,70
64,1150 65,50 66,110 76,50
77,60 78,330 79,5709 80,210
81,540 82,10 83,10 91,10
94,9999 95,450 96,1030 97,30
98,30
##END=
