##TITLE=1-Propyne, 3-chloro-
##JCAMP-DX=4.24
##DATA TYPE=MASS SPECTRUM
##ORIGIN=Japan AIST/NIMC Database- Spectrum MS-NW-4389
##OWNER=NIST Mass Spectrometry Data Center
Collection (C) 2014 copyright by the U.S. Secretary of Commerce
on behalf of the United States of America. All rights reserved.
##CAS REGISTRY NO=624-65-7
##$NIST MASS SPEC NO=230373
##MOLFORM=C3 H3 Cl
##MW=74
##$NIST SOURCE=MSDC
##XUNITS=M/Z
##YUNITS=RELATIVE INTENSITY
##XFACTOR=1
##YFACTOR=1
##FIRSTX=12
##LASTX=77
##FIRSTY=70
##MAXX=77
##MINX=12
##MAXY=9999
##MINY=10
##NPOINTS=30
##PEAK TABLE=(XY..XY)
12,70 13,50 14,30 24,70
25,139 26,119 27,30 35,229
36,649 37,1689 38,2269 39,9999
40,359 41,10 44,10 47,269
48,50 49,139 50,20 51,30
59,10 60,10 61,10 71,40
72,119 73,439 74,3189 75,409
76,1019 77,99
##END=
