##TITLE=Ethane, 1-chloro-2-iodo-
##JCAMP-DX=4.24
##DATA TYPE=MASS SPECTRUM
##ORIGIN=NIST Mass Spectrometry Data Center
##OWNER=NIST Mass Spectrometry Data Center
Collection (C) 2014 copyright by the U.S. Secretary of Commerce
on behalf of the United States of America. All rights reserved.
##CAS REGISTRY NO=624-70-4
##$NIST MASS SPEC NO=343563
##MOLFORM=C2 H4 Cl I
##MW=190
##$NIST SOURCE=MSDC
##XUNITS=M/Z
##YUNITS=RELATIVE INTENSITY
##XFACTOR=1
##YFACTOR=1
##FIRSTX=12
##LASTX=193
##FIRSTY=50
##MAXX=193
##MINX=12
##MAXY=9999
##MINY=10
##NPOINTS=44
##PEAK TABLE=(XY..XY)
12,50 13,80 14,130 15,20
24,60 25,260 26,1722 27,9999
28,290 29,20 35,120 36,70
37,40 38,10 47,30 48,30
49,100 50,20 51,20 60,60
61,260 63,7477 64,250 65,2302
66,50 95,10 127,1702 128,340
129,40 139,60 140,50 141,250
142,10 151,10 152,40 153,70
155,661 156,10 162,60 164,20
190,2422 191,70 192,771 193,20
##END=
