##TITLE=Decanedioic acid, bis(2-ethoxyethyl) ester
##JCAMP-DX=4.24
##DATA TYPE=MASS SPECTRUM
##ORIGIN=V.G. Zaikin, R.S.Borisov, TIPS RAS, Moscow, Russia
##OWNER=NIST Mass Spectrometry Data Center
Collection (C) 2014 copyright by the U.S. Secretary of Commerce
on behalf of the United States of America. All rights reserved.
##CAS REGISTRY NO=624-10-2
##$NIST MASS SPEC NO=355643
##MOLFORM=C18 H34 O6
##MW=346
##$NIST SOURCE=MSDC
##XUNITS=M/Z
##YUNITS=RELATIVE INTENSITY
##XFACTOR=1
##YFACTOR=1
##FIRSTX=26
##LASTX=302
##FIRSTY=60
##MAXX=302
##MINX=26
##MAXY=9999
##MINY=10
##NPOINTS=110
##PEAK TABLE=(XY..XY)
26,60 27,410 29,1151 30,50
31,1541 39,120 41,861 42,470
43,1201 44,1571 45,3363 46,70
53,60 54,130 55,1291 56,210
57,80 58,50 59,2813 60,80
61,30 67,260 68,110 69,841
70,140 71,60 72,9999 73,3353
74,160 79,170 80,90 81,300
82,60 83,320 84,550 85,50
86,530 87,90 88,310 89,370
91,50 93,210 94,80 95,350
96,110 97,450 98,991 99,1111
100,110 101,20 103,20 107,100
109,40 110,60 111,210 112,140
113,180 115,30 119,40 120,30
121,460 122,50 123,50 124,100
125,210 127,100 132,871 133,60
137,50 138,350 139,340 140,260
141,290 145,280 146,20 148,50
149,30 155,210 156,20 159,120
165,20 166,390 167,400 168,40
169,701 170,60 173,120 174,20
183,120 184,240 202,10 211,2032
212,290 213,2082 214,280 215,731
216,80 227,20 228,30 229,1021
230,390 231,40 256,70 257,4874
258,781 259,90 273,30 300,30
301,711 302,130
##END=
