##TITLE=Benzene, 1-iodo-4-methyl-
##JCAMP-DX=4.24
##DATA TYPE=MASS SPECTRUM
##ORIGIN=NIST Mass Spectrometry Data Center, 1990.
##OWNER=NIST Mass Spectrometry Data Center
Collection (C) 2014 copyright by the U.S. Secretary of Commerce
on behalf of the United States of America. All rights reserved.
##CAS REGISTRY NO=624-31-7
##$NIST MASS SPEC NO=118807
##MOLFORM=C7 H7 I
##MW=218
##$NIST SOURCE=MSDC
##XUNITS=M/Z
##YUNITS=RELATIVE INTENSITY
##XFACTOR=1
##YFACTOR=1
##FIRSTX=14
##LASTX=220
##FIRSTY=22
##MAXX=220
##MINX=14
##MAXY=9999
##MINY=10
##NPOINTS=52
##PEAK TABLE=(XY..XY)
14,22 15,50 25,18 26,110
27,233 28,14 37,294 38,595
39,2031 40,177 41,348 42,14
43,51 44,20 48,24 49,167
50,1238 51,861 52,238 53,67
60,51 61,404 62,983 63,2101
64,728 65,5076 66,256 73,109
74,353 75,200 76,130 77,26
84,48 85,157 86,256 87,160
88,26 89,1696 90,1183 91,9999
92,759 93,22 109,117 127,965
128,88 152,24 164,16 165,32
214,10 218,9744 219,728 220,30
##END=
