##TITLE=Iodoacetonitrile
##JCAMP-DX=4.24
##DATA TYPE=MASS SPECTRUM
##ORIGIN=NIST Mass Spectrometry Data Center
##OWNER=NIST Mass Spectrometry Data Center
Collection (C) 2014 copyright by the U.S. Secretary of Commerce
on behalf of the United States of America. All rights reserved.
##CAS REGISTRY NO=624-75-9
##$NIST MASS SPEC NO=343540
##MOLFORM=C2 H2 I N
##MW=167
##$NIST SOURCE=MSDC
##XUNITS=M/Z
##YUNITS=RELATIVE INTENSITY
##XFACTOR=1
##YFACTOR=1
##FIRSTX=12
##LASTX=168
##FIRSTY=430
##MAXX=168
##MINX=12
##MAXY=9999
##MINY=20
##NPOINTS=22
##PEAK TABLE=(XY..XY)
12,430 13,540 14,300 15,30
24,80 25,120 26,330 27,100
38,711 39,681 40,9999 41,240
64,60 127,5355 128,200 139,410
140,80 141,60 152,20 165,60
167,5715 168,140
##END=
