##TITLE=Hydrazine, ethyl-
##JCAMP-DX=4.24
##DATA TYPE=MASS SPECTRUM
##ORIGIN=ATLAS OF MASS SPECTRA OF ORGANIC COMPOUNDS, V. A. KOPTYUG, ED.
##OWNER=NIST Mass Spectrometry Data Center
Collection (C) 2014 copyright by the U.S. Secretary of Commerce
on behalf of the United States of America. All rights reserved.
##CAS REGISTRY NO=624-80-6
##$NIST MASS SPEC NO=64411
##MOLFORM=C2 H8 N2
##MW=60
##$NIST SOURCE=MSDC
##XUNITS=M/Z
##YUNITS=RELATIVE INTENSITY
##XFACTOR=1
##YFACTOR=1
##FIRSTX=26
##LASTX=61
##FIRSTY=310
##MAXX=61
##MINX=26
##MAXY=9999
##MINY=80
##NPOINTS=17
##PEAK TABLE=(XY..XY)
26,310 27,1260 28,1190 29,1050
30,1050 31,3100 32,1140 39,100
43,2590 44,460 45,9999 46,220
57,80 58,140 59,560 60,4280
61,190
##END=
