##TITLE=Propanoic acid, pentyl ester
##JCAMP-DX=4.24
##DATA TYPE=MASS SPECTRUM
##ORIGIN=R.I. ZALEWSKI, INST. COMMOD. SCI., AKAD. EKON., POZNAN, POLAND
##OWNER=NIST Mass Spectrometry Data Center
Collection (C) 2014 copyright by the U.S. Secretary of Commerce
on behalf of the United States of America. All rights reserved.
##CAS REGISTRY NO=624-54-4
##$NIST MASS SPEC NO=75750
##MOLFORM=C8 H16 O2
##MW=144
##$NIST SOURCE=MSDC
##XUNITS=M/Z
##YUNITS=RELATIVE INTENSITY
##XFACTOR=1
##YFACTOR=1
##FIRSTX=27
##LASTX=144
##FIRSTY=5300
##MAXX=144
##MINX=27
##MAXY=9999
##MINY=20
##NPOINTS=27
##PEAK TABLE=(XY..XY)
27,5300 28,1900 29,7500 30,300
31,400 39,200 40,300 41,2800
42,1500 43,3300 44,200 45,300
55,3200 57,9999 59,50 69,600
70,4700 71,800 73,100 74,100
75,1200 85,300 87,700 88,100
115,200 129,20 144,50
##END=
