##TITLE=2-Butenedioic acid (Z)-, dimethyl ester
##JCAMP-DX=4.24
##DATA TYPE=MASS SPECTRUM
##ORIGIN=Japan AIST/NIMC Database- Spectrum MS-NW- 60
##OWNER=NIST Mass Spectrometry Data Center
Collection (C) 2014 copyright by the U.S. Secretary of Commerce
on behalf of the United States of America. All rights reserved.
##CAS REGISTRY NO=624-48-6
##$NIST MASS SPEC NO=229041
##MOLFORM=C6 H8 O4
##MW=144
##$NIST SOURCE=MSDC
##XUNITS=M/Z
##YUNITS=RELATIVE INTENSITY
##XFACTOR=1
##YFACTOR=1
##FIRSTX=14
##LASTX=144
##FIRSTY=30
##MAXX=144
##MINX=14
##MAXY=9999
##MINY=10
##NPOINTS=50
##PEAK TABLE=(XY..XY)
14,30 15,1039 17,20 18,70
25,40 26,539 27,159 28,109
29,259 30,60 31,80 32,10
38,10 39,119 41,99 42,60
43,90 44,20 45,40 53,309
54,499 55,229 56,20 57,40
58,20 59,1779 60,50 61,20
68,10 69,20 70,30 71,10
73,20 75,60 81,40 82,209
83,40 85,959 86,70 87,10
97,10 99,70 113,9999 114,799
115,99 117,30 129,10 141,10
142,10 144,70
##END=
