##TITLE=Methyl nitrite
##JCAMP-DX=4.24
##DATA TYPE=MASS SPECTRUM
##ORIGIN=A.E.WILLIAMS ICI DYESTUFFS DIVISION, BLACKLEY, MANCHESTER, UK
##OWNER=NIST Mass Spectrometry Data Center
Collection (C) 2014 copyright by the U.S. Secretary of Commerce
on behalf of the United States of America. All rights reserved.
##CAS REGISTRY NO=624-91-9
##$NIST MASS SPEC NO=19008
##MOLFORM=C H3 N O2
##MW=61
##$NIST SOURCE=MSDC
##XUNITS=M/Z
##YUNITS=RELATIVE INTENSITY
##XFACTOR=1
##YFACTOR=1
##FIRSTX=14
##LASTX=61
##FIRSTY=160
##MAXX=61
##MINX=14
##MAXY=9999
##MINY=70
##NPOINTS=12
##PEAK TABLE=(XY..XY)
14,160 15,608 18,70 28,1123
29,3000 30,9999 31,1122 32,527
44,70 46,150 60,267 61,484
##END=
