##TITLE=5-Methyl-2-hexanone oxime
##JCAMP-DX=4.24
##DATA TYPE=MASS SPECTRUM
##ORIGIN=Japan AIST/NIMC Database- Spectrum MS-NW-4983
##OWNER=NIST Mass Spectrometry Data Center
Collection (C) 2014 copyright by the U.S. Secretary of Commerce
on behalf of the United States of America. All rights reserved.
##CAS REGISTRY NO=624-44-2
##$NIST MASS SPEC NO=230130
##MOLFORM=C7 H15 N O
##MW=129
##$NIST SOURCE=MSDC
##XUNITS=M/Z
##YUNITS=RELATIVE INTENSITY
##XFACTOR=1
##YFACTOR=1
##FIRSTX=14
##LASTX=129
##FIRSTY=40
##MAXX=129
##MINX=14
##MAXY=9999
##MINY=10
##NPOINTS=86
##PEAK TABLE=(XY..XY)
14,40 15,559 16,10 17,30
18,109 25,10 26,129 27,1129
28,599 29,1189 30,239 31,209
32,30 33,199 34,10 37,20
38,80 39,919 40,289 41,2509
42,4119 43,1679 44,159 45,99
46,139 48,10 49,10 50,50
51,80 52,60 53,249 54,349
55,1969 56,739 57,2389 58,439
59,70 60,159 63,10 64,10
65,30 66,30 67,119 68,379
69,259 70,1369 71,179 72,189
73,9999 74,419 75,30 77,40
78,10 79,80 80,70 81,459
82,179 83,159 84,109 85,20
86,2419 87,299 88,20 91,10
93,20 94,60 95,109 96,369
97,559 98,249 99,30 100,129
101,10 106,10 107,20 108,30
109,20 110,70 111,60 112,139
113,50 114,599 115,50 127,10
128,40 129,20
##END=
