##TITLE=Bicyclo[2.2.1]heptane, 2-ethylidene-1,7,7-trimethyl-, (E)-
##JCAMP-DX=4.24
##DATA TYPE=MASS SPECTRUM
##ORIGIN=D.HENNEBERG, MAX-PLANCK INSTITUTE, MULHEIM, WEST GERMANY
##OWNER=NIST Mass Spectrometry Data Center
Collection (C) 2014 copyright by the U.S. Secretary of Commerce
on behalf of the United States of America. All rights reserved.
##CAS REGISTRY NO=62413-60-9
##$NIST MASS SPEC NO=60866
##MOLFORM=C12 H20
##MW=164
##$NIST SOURCE=MSDC
##XUNITS=M/Z
##YUNITS=RELATIVE INTENSITY
##XFACTOR=1
##YFACTOR=1
##FIRSTX=24
##LASTX=166
##FIRSTY=18
##MAXX=166
##MINX=24
##MAXY=9999
##MINY=1
##NPOINTS=117
##PEAK TABLE=(XY..XY)
24,18 26,121 27,2405 29,2827
30,54 31,1 34,20 36,14
38,80 39,2720 40,518 41,6387
42,564 43,2207 44,11 46,27
47,10 48,11 49,26 50,95
51,710 52,406 53,1874 54,339
55,5073 56,862 57,4128 58,312
59,54 60,16 61,19 62,52
63,242 64,117 65,1261 66,449
67,2477 68,374 69,1692 70,384
71,313 72,43 73,3 75,89
76,28 77,2329 78,854 79,6453
80,913 81,1117 82,932 83,4798
84,672 85,55 87,26 88,24
89,145 90,80 91,3172 92,696
93,7700 94,2930 95,2395 96,986
97,802 98,266 99,48 102,50
103,281 104,115 105,2144 106,783
107,5512 108,5272 109,1178 110,295
111,260 112,164 113,8 114,23
115,183 116,72 117,197 118,49
119,527 120,815 121,9999 122,1795
123,238 124,25 125,88 127,19
128,18 129,23 130,7 131,41
132,24 133,84 134,44 135,1619
136,529 137,41 138,4 139,45
140,90 145,13 146,7 147,38
149,2242 150,532 157,6 161,17
162,23 163,31 164,4803 165,731
166,52
##END=
