##TITLE=Methyl 4-octyloxybenzoate
##JCAMP-DX=4.24
##DATA TYPE=MASS SPECTRUM
##ORIGIN=NIST Mass Spectrometry Data Center
##OWNER=NIST Mass Spectrometry Data Center
Collection (C) 2014 copyright by the U.S. Secretary of Commerce
on behalf of the United States of America. All rights reserved.
##CAS REGISTRY NO=62435-37-4
##$NIST MASS SPEC NO=342919
##MOLFORM=C16 H24 O3
##MW=264
##$NIST SOURCE=MSDC
##XUNITS=M/Z
##YUNITS=RELATIVE INTENSITY
##XFACTOR=1
##YFACTOR=1
##FIRSTX=15
##LASTX=266
##FIRSTY=190
##MAXX=266
##MINX=15
##MAXY=9999
##MINY=20
##NPOINTS=85
##PEAK TABLE=(XY..XY)
15,190 17,40 18,30 26,80
27,1181 29,2702 30,80 31,60
38,150 39,1151 41,4384 42,751
43,4044 44,190 45,30 50,250
51,110 52,70 53,320 54,160
55,1932 56,701 57,2252 58,110
59,390 62,80 63,350 64,380
65,781 66,120 67,210 68,80
69,841 70,751 71,1151 72,60
74,60 75,210 76,330 77,340
78,90 79,100 80,70 81,80
82,90 83,440 84,250 85,30
91,300 92,571 93,761 94,150
95,180 96,30 97,50 103,290
104,200 105,140 106,50 107,120
108,60 109,140 112,130 119,190
121,9999 122,741 123,330 124,110
133,90 135,350 136,30 137,40
147,110 149,20 152,8988 153,3043
154,270 155,20 161,30 165,150
233,420 234,80 264,1842 265,360
266,40
##END=
