##TITLE=1,3,7,9-Tetrachlorodibenzo-p-dioxin
##JCAMP-DX=4.24
##DATA TYPE=MASS SPECTRUM
##ORIGIN=W. MILES, AGRIC. CAN., LAB. SERV. DIV., OTTAWA, ONT., CAN.
##OWNER=NIST Mass Spectrometry Data Center
Collection (C) 2014 copyright by the U.S. Secretary of Commerce
on behalf of the United States of America. All rights reserved.
##CAS REGISTRY NO=62470-53-5
##$NIST MASS SPEC NO=98823
##MOLFORM=C12 H4 Cl4 O2
##MW=320
##$NIST SOURCE=MSDC
##XUNITS=M/Z
##YUNITS=RELATIVE INTENSITY
##XFACTOR=1
##YFACTOR=1
##FIRSTX=97
##LASTX=326
##FIRSTY=1600
##MAXX=326
##MINX=97
##MAXY=9999
##MINY=230
##NPOINTS=35
##PEAK TABLE=(XY..XY)
97,1600 98,770 109,1230 111,610
113,850 122,590 123,640 132,460
144,520 160,1310 161,1680 162,830
172,370 194,3560 195,660 196,2280
221,270 222,230 229,580 230,290
231,540 250,330 257,4690 259,4470
261,1570 285,1030 287,890 289,260
320,7830 321,1110 322,9999 323,1380
324,4950 325,700 326,1050
##END=
