##TITLE=3-Vinyl-1,2-dithiacyclohex-4-ene
##JCAMP-DX=4.24
##DATA TYPE=MASS SPECTRUM
##ORIGIN=NIST Mass Spectrometry Data Center
##OWNER=NIST Mass Spectrometry Data Center
Collection (C) 2014 copyright by the U.S. Secretary of Commerce
on behalf of the United States of America. All rights reserved.
##CAS REGISTRY NO=62488-52-2
##$NIST MASS SPEC NO=413581
##MOLFORM=C6 H8 S2
##MW=144
##$NIST SOURCE=MSDC
##XUNITS=M/Z
##YUNITS=RELATIVE INTENSITY
##XFACTOR=1
##YFACTOR=1
##FIRSTX=25
##LASTX=148
##FIRSTY=10
##MAXX=148
##MINX=25
##MAXY=9999
##MINY=10
##NPOINTS=101
##PEAK TABLE=(XY..XY)
25,10 26,110 27,701 28,110
29,30 32,90 33,50 34,30
36,20 37,190 38,420 39,2582
40,190 41,561 42,30 44,80
45,3713 46,270 47,320 48,20
49,100 50,731 51,1221 52,490
53,941 54,310 55,60 56,30
57,430 58,1281 59,831 60,190
61,160 62,200 63,320 64,771
65,1051 66,871 67,1481 68,150
69,991 70,240 71,5695 72,4524
73,721 74,360 75,80 76,60
77,4584 78,1121 79,3573 80,490
81,130 82,130 83,90 84,761
85,1441 86,120 87,70 88,20
89,10 90,180 91,20 92,40
93,40 94,10 95,50 96,30
97,5815 98,450 99,420 100,30
101,30 102,20 103,5985 104,280
105,540 106,20 107,30 108,30
109,360 110,711 111,9999 112,791
113,480 114,30 115,30 116,110
117,90 118,20 127,10 129,120
130,10 131,10 141,10 143,50
144,5335 145,430 146,470 147,40
148,10
##END=
