##TITLE=5,7-Dimethylchromone-3-carboxaldehyde
##JCAMP-DX=4.24
##DATA TYPE=MASS SPECTRUM
##ORIGIN=NIST Mass Spectrometry Data Center, 1994
##OWNER=NIST Mass Spectrometry Data Center
Collection (C) 2014 copyright by the U.S. Secretary of Commerce
on behalf of the United States of America. All rights reserved.
##CAS REGISTRY NO=62484-76-8
##$NIST MASS SPEC NO=136295
##MOLFORM=C12 H10 O3
##MW=202
##$NIST SOURCE=MSDC
##XUNITS=M/Z
##YUNITS=RELATIVE INTENSITY
##XFACTOR=1
##YFACTOR=1
##FIRSTX=12
##LASTX=203
##FIRSTY=43
##MAXX=203
##MINX=12
##MAXY=9999
##MINY=10
##NPOINTS=97
##PEAK TABLE=(XY..XY)
12,43 13,45 15,253 18,10
26,225 27,885 29,1306 37,223
38,649 39,2923 40,368 41,633
42,195 43,216 44,59 46,32
49,85 50,1299 51,2783 52,816
53,3402 54,196 55,361 58,248
61,252 62,878 63,2134 64,622
65,1978 66,356 67,299 68,98
69,302 71,89 72,155 73,112
74,556 75,788 76,534 77,2511
78,940 79,290 85,141 86,405
87,516 88,137 89,807 90,290
91,3802 92,644 93,189 98,160
99,83 100,368 101,278 102,1080
103,1155 104,722 105,414 106,90
113,119 115,1894 116,615 117,1331
118,368 119,687 120,574 121,138
126,193 127,1260 128,3927 129,714
130,119 131,5631 132,785 133,103
134,52 135,86 143,51 145,3356
146,3439 147,515 148,328 149,375
155,523 156,339 157,268 158,51
159,656 160,77 171,43 173,1520
174,9999 175,1250 176,124 202,1197
203,191
##END=
