##TITLE=Urea, ethyl-
##JCAMP-DX=4.24
##DATA TYPE=MASS SPECTRUM
##ORIGIN=RADIAN CORP
##OWNER=NIST Mass Spectrometry Data Center
Collection (C) 2014 copyright by the U.S. Secretary of Commerce
on behalf of the United States of America. All rights reserved.
##CAS REGISTRY NO=625-52-5
##$NIST MASS SPEC NO=76308
##MOLFORM=C3 H8 N2 O
##MW=88
##$NIST SOURCE=MSDC
##XUNITS=M/Z
##YUNITS=RELATIVE INTENSITY
##XFACTOR=1
##YFACTOR=1
##FIRSTX=14
##LASTX=89
##FIRSTY=60
##MAXX=89
##MINX=14
##MAXY=9999
##MINY=30
##NPOINTS=32
##PEAK TABLE=(XY..XY)
14,60 15,310 16,150 17,390
18,640 26,410 27,1410 28,3490
29,1930 30,9999 31,350 32,90
38,40 39,160 40,670 41,740
42,2320 43,3260 44,9490 45,1000
51,80 56,1000 60,400 71,410
72,50 73,7010 74,90 77,60
84,40 86,30 88,5830 89,130
##END=
