##TITLE=Butane, 1,1-dichloro-3-methyl-
##JCAMP-DX=4.24
##DATA TYPE=MASS SPECTRUM
##ORIGIN=A. A. POLYAKOVA MOSCOW LOMONOSOV STATE UNIV., MOSCOW, USSR
##OWNER=NIST Mass Spectrometry Data Center
Collection (C) 2014 copyright by the U.S. Secretary of Commerce
on behalf of the United States of America. All rights reserved.
##CAS REGISTRY NO=625-66-1
##$NIST MASS SPEC NO=3772
##MOLFORM=C5 H10 Cl2
##MW=140
##$NIST SOURCE=MSDC
##XUNITS=M/Z
##YUNITS=RELATIVE INTENSITY
##XFACTOR=1
##YFACTOR=1
##FIRSTX=26
##LASTX=142
##FIRSTY=230
##MAXX=142
##MINX=26
##MAXY=9999
##MINY=5
##NPOINTS=55
##PEAK TABLE=(XY..XY)
26,230 27,3550 29,1780 35,110
36,600 37,100 38,300 39,1650
41,4950 42,1950 43,8780 47,20
48,30 49,30 50,120 51,470
53,1650 55,560 57,330 61,30
62,1570 63,1710 64,560 65,580
66,10 67,130 68,170 69,9999
70,560 71,15 72,5 73,43
74,5 75,200 76,40 77,400
78,20 79,80 82,5 83,310
84,10 85,190 87,50 89,1960
91,530 93,20 96,40 97,50
98,30 104,150 106,40 109,40
111,40 140,23 142,13
##END=
