##TITLE=Thiophene, 2,5-diiodo-
##JCAMP-DX=4.24
##DATA TYPE=MASS SPECTRUM
##OWNER=NIST Mass Spectrometry Data Center
Collection (C) 2014 copyright by the U.S. Secretary of Commerce
on behalf of the United States of America. All rights reserved.
##CAS REGISTRY NO=625-88-7
##$NIST MASS SPEC NO=15584
##MOLFORM=C4 H2 I2 S
##MW=336
##$NIST SOURCE=MSDC
##XUNITS=M/Z
##YUNITS=RELATIVE INTENSITY
##XFACTOR=1
##YFACTOR=1
##FIRSTX=36
##LASTX=338
##FIRSTY=200
##MAXX=338
##MINX=36
##MAXY=9999
##MINY=100
##NPOINTS=42
##PEAK TABLE=(XY..XY)
36,200 37,901 38,1601 41,100
44,200 45,701 48,100 49,300
50,200 55,100 56,200 57,1001
58,100 59,100 68,100 69,200
80,300 81,1401 82,5605 83,400
84,300 127,2402 128,200 139,200
151,100 152,300 159,200 164,100
165,500 168,300 171,200 176,100
183,100 184,100 207,100 208,100
209,1101 210,100 211,100 336,9999
337,601 338,500
##END=
