##TITLE=2,4-Pentanediol
##JCAMP-DX=4.24
##DATA TYPE=MASS SPECTRUM
##ORIGIN=Japan AIST/NIMC Database- Spectrum MS-NW- 799
##OWNER=NIST Mass Spectrometry Data Center
Collection (C) 2014 copyright by the U.S. Secretary of Commerce
on behalf of the United States of America. All rights reserved.
##CAS REGISTRY NO=625-69-4
##$NIST MASS SPEC NO=229436
##MOLFORM=C5 H12 O2
##MW=104
##$NIST SOURCE=MSDC
##XUNITS=M/Z
##YUNITS=RELATIVE INTENSITY
##XFACTOR=1
##YFACTOR=1
##FIRSTX=14
##LASTX=90
##FIRSTY=10
##MAXX=90
##MINX=14
##MAXY=9999
##MINY=10
##NPOINTS=42
##PEAK TABLE=(XY..XY)
14,10 15,199 17,10 18,119
19,159 26,40 27,619 28,109
29,339 31,299 37,70 38,70
39,509 40,229 41,1379 42,4639
43,2149 44,369 45,9999 46,219
47,109 50,10 51,20 53,70
58,149 59,139 60,40 61,70
62,10 63,459 65,10 67,99
68,50 69,60 71,1869 72,60
73,10 85,10 86,299 87,10
89,389 90,10
##END=
