##TITLE=Ethane, 1-chloro-2-nitro-
##JCAMP-DX=4.24
##DATA TYPE=MASS SPECTRUM
##ORIGIN=MINISTRY OF TECH. E.R.D.E., WALTHAM ABBEY, UK
##OWNER=NIST Mass Spectrometry Data Center
Collection (C) 2014 copyright by the U.S. Secretary of Commerce
on behalf of the United States of America. All rights reserved.
##CAS REGISTRY NO=625-47-8
##$NIST MASS SPEC NO=1479
##MOLFORM=C2 H4 Cl N O2
##MW=109
##$NIST SOURCE=MSDC
##XUNITS=M/Z
##YUNITS=RELATIVE INTENSITY
##XFACTOR=1
##YFACTOR=1
##FIRSTX=14
##LASTX=109
##FIRSTY=130
##MAXX=109
##MINX=14
##MAXY=9999
##MINY=10
##NPOINTS=34
##PEAK TABLE=(XY..XY)
14,130 15,380 26,480 27,3810
28,890 29,830 30,1910 31,220
36,230 38,100 39,120 41,230
42,220 43,280 44,480 45,950
46,4190 47,200 48,170 49,540
51,220 55,200 57,170 60,130
61,530 62,920 63,9999 64,470
65,3180 71,110 74,100 93,50
95,20 109,10
##END=
