##TITLE=Nitric acid, ethyl ester
##JCAMP-DX=4.24
##DATA TYPE=MASS SPECTRUM
##ORIGIN=Japan AIST/NIMC Database- Spectrum MS-IW-1349
##OWNER=NIST Mass Spectrometry Data Center
Collection (C) 2014 copyright by the U.S. Secretary of Commerce
on behalf of the United States of America. All rights reserved.
##CAS REGISTRY NO=625-58-1
##$NIST MASS SPEC NO=233251
##MOLFORM=C2 H5 N O3
##MW=91
##$NIST SOURCE=MSDC
##XUNITS=M/Z
##YUNITS=RELATIVE INTENSITY
##XFACTOR=1
##YFACTOR=1
##FIRSTX=13
##LASTX=92
##FIRSTY=10
##MAXX=92
##MINX=13
##MAXY=9999
##MINY=10
##NPOINTS=33
##PEAK TABLE=(XY..XY)
13,10 14,70 15,399 16,20
17,40 18,19 19,20 25,10
26,80 27,619 28,459 29,2079
30,1269 31,239 32,30 41,20
42,70 43,889 44,229 45,179
46,9999 47,60 48,50 60,30
61,10 62,30 64,10 70,10
76,3519 77,60 78,20 90,109
92,20
##END=
