##TITLE=Pentane, 2,4-dichloro-
##JCAMP-DX=4.24
##DATA TYPE=MASS SPECTRUM
##ORIGIN=GAZ DE FRANCE, DELORME, PARIS, FRANCE
##OWNER=NIST Mass Spectrometry Data Center
Collection (C) 2014 copyright by the U.S. Secretary of Commerce
on behalf of the United States of America. All rights reserved.
##CAS REGISTRY NO=625-67-2
##$NIST MASS SPEC NO=3771
##MOLFORM=C5 H10 Cl2
##MW=140
##$NIST SOURCE=MSDC
##XUNITS=M/Z
##YUNITS=RELATIVE INTENSITY
##XFACTOR=1
##YFACTOR=1
##FIRSTX=25
##LASTX=107
##FIRSTY=20
##MAXX=107
##MINX=25
##MAXY=9999
##MINY=10
##NPOINTS=57
##PEAK TABLE=(XY..XY)
25,20 26,250 27,2200 28,600
29,370 30,10 31,40 32,150
33,20 34,10 35,90 36,180
37,120 38,250 39,1370 40,300
41,3540 42,1380 43,430 44,40
45,50 47,10 48,10 49,190
50,100 51,230 52,50 53,890
54,70 55,280 56,20 60,30
61,150 62,180 63,1510 64,90
65,500 66,40 67,180 68,370
69,9999 70,560 71,20 73,30
75,110 76,180 77,360 78,70
79,100 89,850 90,40 91,280
103,20 104,280 105,50 106,90
107,20
##END=
