##TITLE=trans-Crotonamide
##JCAMP-DX=4.24
##DATA TYPE=MASS SPECTRUM
##ORIGIN=Japan AIST/NIMC Database- Spectrum MS-NW-5008
##OWNER=NIST Mass Spectrometry Data Center
Collection (C) 2014 copyright by the U.S. Secretary of Commerce
on behalf of the United States of America. All rights reserved.
##CAS REGISTRY NO=625-37-6
##$NIST MASS SPEC NO=230150
##MOLFORM=C4 H7 N O
##MW=85
##$NIST SOURCE=MSDC
##XUNITS=M/Z
##YUNITS=RELATIVE INTENSITY
##XFACTOR=1
##YFACTOR=1
##FIRSTX=12
##LASTX=87
##FIRSTY=20
##MAXX=87
##MINX=12
##MAXY=9999
##MINY=10
##NPOINTS=54
##PEAK TABLE=(XY..XY)
12,20 13,20 14,60 15,269
16,159 17,70 18,30 24,20
25,90 26,399 27,1019 28,689
29,90 30,90 31,20 32,90
33,20 35,20 36,239 37,829
38,1289 39,5259 40,1639 41,9999
42,689 43,139 44,3249 45,139
46,20 48,10 49,40 50,70
51,149 52,409 53,159 54,60
55,20 56,119 57,20 59,10
62,60 63,149 64,359 65,149
66,679 67,1999 68,979 69,6029
70,379 71,20 84,80 85,7639
86,409 87,20
##END=
