##TITLE=1H-Pyrrole, 2,4-dimethyl-
##JCAMP-DX=4.24
##DATA TYPE=MASS SPECTRUM
##ORIGIN=D. GAMES, M. HEWLINS, A. JACKSON, CHEM DEPT, UNIV COLL, CARDIFF, U.K.
##OWNER=NIST Mass Spectrometry Data Center
Collection (C) 2014 copyright by the U.S. Secretary of Commerce
on behalf of the United States of America. All rights reserved.
##CAS REGISTRY NO=625-82-1
##$NIST MASS SPEC NO=51944
##MOLFORM=C6 H9 N
##MW=95
##$NIST SOURCE=MSDC
##XUNITS=M/Z
##YUNITS=RELATIVE INTENSITY
##XFACTOR=1
##YFACTOR=1
##FIRSTX=42
##LASTX=96
##FIRSTY=70
##MAXX=96
##MINX=42
##MAXY=9999
##MINY=23
##NPOINTS=27
##PEAK TABLE=(XY..XY)
42,70 46,87 47,772 48,210
51,117 52,269 53,269 54,995
55,47 61,23 62,64 63,152
64,35 65,650 66,351 67,1340
68,88 77,152 78,450 79,23
80,1791 81,87 92,117 93,696
94,9999 95,6651 96,462
##END=
