##TITLE=2-Heptanol, 2-methyl-
##JCAMP-DX=4.24
##DATA TYPE=MASS SPECTRUM
##ORIGIN=CONTINENTAL OIL COMPANY, PONCA CITY, OKLAHOMA, USA
##OWNER=NIST Mass Spectrometry Data Center
Collection (C) 2014 copyright by the U.S. Secretary of Commerce
on behalf of the United States of America. All rights reserved.
##CAS REGISTRY NO=625-25-2
##$NIST MASS SPEC NO=27544
##MOLFORM=C8 H18 O
##MW=130
##$NIST SOURCE=MSDC
##XUNITS=M/Z
##YUNITS=RELATIVE INTENSITY
##XFACTOR=1
##YFACTOR=1
##FIRSTX=12
##LASTX=130
##FIRSTY=2
##MAXX=130
##MINX=12
##MAXY=9999
##MINY=1
##NPOINTS=72
##PEAK TABLE=(XY..XY)
12,2 13,11 14,43 15,397
16,14 17,21 18,70 19,5
25,5 26,87 27,1071 28,264
29,1068 30,36 31,779 32,25
33,6 36,2 37,15 38,45
39,674 40,123 41,1472 42,235
43,1821 44,66 45,722 46,19
47,7 48,7 49,20 50,22
51,46 52,22 53,117 54,34
55,1249 56,614 57,484 58,521
59,9999 60,342 61,27 62,6
63,16 65,16 66,8 67,36
68,25 69,394 70,76 71,300
72,20 73,60 77,10 79,8
81,13 82,26 83,43 84,31
85,11 87,9 95,5 97,67
98,8 101,4 112,48 113,11
115,837 116,65 117,4 130,1
##END=
