##TITLE=Propane, 2-ethoxy-
##JCAMP-DX=4.24
##DATA TYPE=MASS SPECTRUM
##OWNER=NIST Mass Spectrometry Data Center
Collection (C) 2014 copyright by the U.S. Secretary of Commerce
on behalf of the United States of America. All rights reserved.
##CAS REGISTRY NO=625-54-7
##$NIST MASS SPEC NO=663
##MOLFORM=C5 H12 O
##MW=88
##$NIST SOURCE=MSDC
##XUNITS=M/Z
##YUNITS=RELATIVE INTENSITY
##XFACTOR=1
##YFACTOR=1
##FIRSTX=2
##LASTX=90
##FIRSTY=10
##MAXX=90
##MINX=2
##MAXY=9999
##MINY=10
##NPOINTS=50
##PEAK TABLE=(XY..XY)
2,10 12,10 13,40 14,200
15,1021 16,40 17,10 18,10
19,160 25,20 26,240 27,1682
28,260 29,1672 30,70 31,550
32,10 33,10 35,10 36,10
37,30 38,70 39,540 40,90
41,901 42,420 43,3193 44,210
45,9999 46,220 47,50 53,10
55,40 56,10 57,20 58,40
59,550 60,20 61,10 69,10
71,10 72,10 73,2813 74,150
75,10 76,10 87,50 88,180
89,10 90,10
##END=
