##TITLE=Butanenitrile, 3-methyl-
##JCAMP-DX=4.24
##DATA TYPE=MASS SPECTRUM
##ORIGIN=Japan AIST/NIMC Database- Spectrum MS-NW-2699
##OWNER=NIST Mass Spectrometry Data Center
Collection (C) 2014 copyright by the U.S. Secretary of Commerce
on behalf of the United States of America. All rights reserved.
##CAS REGISTRY NO=625-28-5
##$NIST MASS SPEC NO=231215
##MOLFORM=C5 H9 N
##MW=83
##$NIST SOURCE=MSDC
##XUNITS=M/Z
##YUNITS=RELATIVE INTENSITY
##XFACTOR=1
##YFACTOR=1
##FIRSTX=13
##LASTX=82
##FIRSTY=10
##MAXX=82
##MINX=13
##MAXY=9999
##MINY=10
##NPOINTS=36
##PEAK TABLE=(XY..XY)
13,10 14,30 15,159 18,30
25,10 26,129 27,1599 28,129
29,259 36,10 37,139 38,229
39,1189 40,309 41,5039 42,369
43,9999 44,339 49,20 50,60
51,80 52,159 53,80 54,239
55,469 56,40 57,10 62,10
63,20 64,80 65,20 66,129
67,169 68,689 69,30 82,149
##END=
