##TITLE=Sulphuric acid dibutyl ester
##JCAMP-DX=4.24
##DATA TYPE=MASS SPECTRUM
##ORIGIN=NIST Mass Spectrometry Data Center
##OWNER=NIST Mass Spectrometry Data Center
Collection (C) 2014 copyright by the U.S. Secretary of Commerce
on behalf of the United States of America. All rights reserved.
##CAS REGISTRY NO=625-22-9
##$NIST MASS SPEC NO=343309
##MOLFORM=C8 H18 O4 S
##MW=210
##$NIST SOURCE=MSDC
##XUNITS=M/Z
##YUNITS=RELATIVE INTENSITY
##XFACTOR=1
##YFACTOR=1
##FIRSTX=15
##LASTX=139
##FIRSTY=240
##MAXX=139
##MINX=15
##MAXY=9999
##MINY=10
##NPOINTS=45
##PEAK TABLE=(XY..XY)
15,240 16,10 18,10 19,30
27,2382 28,1551 29,3914 30,240
31,470 37,10 39,1151 41,5555
42,500 43,841 44,160 45,160
48,30 49,10 50,30 51,30
52,10 53,110 55,1151 56,9999
57,8267 58,380 59,80 64,20
65,40 69,20 70,30 71,30
72,10 73,140 74,10 81,20
83,40 87,270 88,10 99,30
101,10 113,20 125,10 126,20
139,10
##END=
