##TITLE=Pentane, 2-chloro-
##JCAMP-DX=4.24
##DATA TYPE=MASS SPECTRUM
##ORIGIN=CONTINENTAL OIL CO., PONCA CITY, OKLAHOMA, USA
##OWNER=NIST Mass Spectrometry Data Center
Collection (C) 2014 copyright by the U.S. Secretary of Commerce
on behalf of the United States of America. All rights reserved.
##CAS REGISTRY NO=625-29-6
##$NIST MASS SPEC NO=58842
##MOLFORM=C5 H11 Cl
##MW=106
##$NIST SOURCE=MSDC
##XUNITS=M/Z
##YUNITS=RELATIVE INTENSITY
##XFACTOR=1
##YFACTOR=1
##FIRSTX=13
##LASTX=106
##FIRSTY=132
##MAXX=106
##MINX=13
##MAXY=9999
##MINY=11
##NPOINTS=57
##PEAK TABLE=(XY..XY)
13,132 14,299 15,1642 16,66
25,125 26,1073 27,7437 28,1000
29,3160 30,125 31,149 35,125
36,166 37,346 38,635 39,4028
40,260 41,6577 42,7166 43,9979
44,186 48,83 49,354 50,275
51,428 52,153 53,559 54,266
55,8083 56,438 57,235 58,17
60,72 61,214 62,403 63,1223
64,184 65,436 66,81 67,124
68,84 69,354 70,9999 71,1764
72,143 73,107 74,11 75,141
76,158 77,352 78,109 79,161
80,39 89,89 91,132 93,50
106,14
##END=
