##TITLE=4-Penten-2-ol
##JCAMP-DX=4.24
##DATA TYPE=MASS SPECTRUM
##ORIGIN=NIST Mass Spectrometry Data Center
##OWNER=NIST Mass Spectrometry Data Center
Collection (C) 2014 copyright by the U.S. Secretary of Commerce
on behalf of the United States of America. All rights reserved.
##CAS REGISTRY NO=625-31-0
##$NIST MASS SPEC NO=333825
##MOLFORM=C5 H10 O
##MW=86
##$NIST SOURCE=MSDC
##XUNITS=M/Z
##YUNITS=RELATIVE INTENSITY
##XFACTOR=1
##YFACTOR=1
##FIRSTX=15
##LASTX=86
##FIRSTY=70
##MAXX=86
##MINX=15
##MAXY=9999
##MINY=10
##NPOINTS=42
##PEAK TABLE=(XY..XY)
15,70 19,130 26,70 27,530
29,360 30,20 31,110 35,30
37,80 38,190 39,1191 40,230
41,1331 42,1191 43,2182 44,230
45,9999 46,220 47,20 49,10
50,70 51,90 52,30 53,180
54,20 57,60 58,50 59,60
60,10 61,20 62,30 63,40
65,60 66,20 67,180 68,80
69,140 70,20 71,430 72,20
85,10 86,10
##END=
