##TITLE=1-Propanamine, N,2-dimethyl-
##JCAMP-DX=4.24
##DATA TYPE=MASS SPECTRUM
##ORIGIN=Japan AIST/NIMC Database- Spectrum MS-NW-3920
##OWNER=NIST Mass Spectrometry Data Center
Collection (C) 2014 copyright by the U.S. Secretary of Commerce
on behalf of the United States of America. All rights reserved.
##CAS REGISTRY NO=625-43-4
##$NIST MASS SPEC NO=231240
##MOLFORM=C5 H13 N
##MW=87
##$NIST SOURCE=MSDC
##XUNITS=M/Z
##YUNITS=RELATIVE INTENSITY
##XFACTOR=1
##YFACTOR=1
##FIRSTX=15
##LASTX=88
##FIRSTY=149
##MAXX=88
##MINX=15
##MAXY=9999
##MINY=10
##NPOINTS=39
##PEAK TABLE=(XY..XY)
15,149 26,20 27,239 28,299
29,169 30,369 31,20 32,10
37,10 38,30 39,269 40,40
41,409 42,429 43,229 44,9999
45,269 50,10 51,10 52,10
53,20 54,30 55,169 56,169
57,179 58,30 67,10 68,99
69,109 70,179 71,109 72,249
73,10 82,10 83,40 84,50
86,109 87,699 88,40
##END=
