##TITLE=Propane, 2-methyl-1-nitro-
##JCAMP-DX=4.24
##DATA TYPE=MASS SPECTRUM
##ORIGIN=HCACAV,61(3)984(1978); P. DUBS AND H-P. SCHENK
##OWNER=NIST Mass Spectrometry Data Center
Collection (C) 2014 copyright by the U.S. Secretary of Commerce
on behalf of the United States of America. All rights reserved.
##CAS REGISTRY NO=625-74-1
##$NIST MASS SPEC NO=65890
##MOLFORM=C4 H9 N O2
##MW=103
##$NIST SOURCE=MSDC
##XUNITS=M/Z
##YUNITS=RELATIVE INTENSITY
##XFACTOR=1
##YFACTOR=1
##FIRSTX=39
##LASTX=103
##FIRSTY=3600
##MAXX=103
##MINX=39
##MAXY=9999
##MINY=100
##NPOINTS=9
##PEAK TABLE=(XY..XY)
39,3600 40,600 41,9999 42,1100
43,1300 55,1400 56,2300 57,7600
103,100
##END=
