##TITLE=2,5-Furandione, 3-(2-decenyl)dihydro-
##JCAMP-DX=4.24
##DATA TYPE=MASS SPECTRUM
##ORIGIN=NIST Mass Spectrometry Data Center, 1990.
##OWNER=NIST Mass Spectrometry Data Center
Collection (C) 2014 copyright by the U.S. Secretary of Commerce
on behalf of the United States of America. All rights reserved.
##CAS REGISTRY NO=62568-81-4
##$NIST MASS SPEC NO=114597
##MOLFORM=C14 H22 O3
##MW=238
##$NIST SOURCE=MSDC
##XUNITS=M/Z
##YUNITS=RELATIVE INTENSITY
##XFACTOR=1
##YFACTOR=1
##FIRSTX=14
##LASTX=239
##FIRSTY=75
##MAXX=239
##MINX=14
##MAXY=9999
##MINY=10
##NPOINTS=112
##PEAK TABLE=(XY..XY)
14,75 15,115 18,312 27,4088
28,1453 29,4121 30,138 32,10
39,3728 40,1036 41,9999 42,1728
43,7088 44,408 45,149 50,135
51,480 52,456 53,2305 54,4519
55,6641 56,2268 57,1353 60,115
65,847 66,931 67,4732 68,2803
69,2605 70,1005 71,949 72,320
73,141 77,1285 78,454 79,3697
80,1317 81,4010 82,1932 83,3559
84,740 85,364 86,202 91,680
92,253 93,1062 94,1317 95,2960
96,1835 97,1668 98,549 99,1338
100,1785 101,182 105,279 106,177
107,892 108,1094 109,1429 110,1850
111,817 112,250 113,192 114,105
117,380 119,396 120,157 121,844
122,458 123,1288 124,560 125,229
126,173 127,238 128,1281 129,142
130,105 131,348 133,136 135,483
136,534 137,863 138,443 139,276
140,424 141,1602 142,402 145,167
149,558 150,316 151,280 152,124
153,217 154,669 155,328 163,443
164,453 165,213 166,124 167,1969
168,292 175,312 177,317 178,251
181,177 191,208 192,161 193,229
195,94 220,155 238,577 239,138
##END=
