##TITLE=2-Pentene, 4-methyl-2,4-diphenyl-
##JCAMP-DX=4.24
##DATA TYPE=MASS SPECTRUM
##ORIGIN=T. SPANDE, LBC, NIDDK, NIH, Bethesda, MD 20892
##OWNER=NIST Mass Spectrometry Data Center
Collection (C) 2014 copyright by the U.S. Secretary of Commerce
on behalf of the United States of America. All rights reserved.
##CAS REGISTRY NO=6258-73-7
##$NIST MASS SPEC NO=111579
##MOLFORM=C18 H20
##MW=236
##$NIST SOURCE=MSDC
##XUNITS=M/Z
##YUNITS=RELATIVE INTENSITY
##XFACTOR=1
##YFACTOR=1
##FIRSTX=41
##LASTX=238
##FIRSTY=202
##MAXX=238
##MINX=41
##MAXY=9999
##MINY=1
##NPOINTS=141
##PEAK TABLE=(XY..XY)
41,202 43,124 46,6 50,78
51,345 52,86 53,79 55,13
57,20 58,4 60,4 61,4
62,41 63,172 64,38 65,251
66,24 67,12 68,14 70,25
72,4 74,50 75,105 76,256
77,608 78,192 79,164 81,51
82,160 83,159 87,50 88,161
89,1128 91,3859 92,285 93,29
94,352 95,244 96,114 97,46
98,8 99,11 100,82 101,593
102,609 103,1498 104,80 105,1350
106,140 107,40 108,53 109,50
110,207 111,218 112,4 113,24
115,735 116,97 117,392 118,78
119,10 122,15 123,6 124,7
126,22 127,113 128,356 129,168
130,41 131,55 132,4 137,7
138,15 139,81 141,66 143,1148
144,108 145,25 150,47 151,89
152,124 153,47 154,12 155,12
156,12 157,36 159,347 160,46
161,16 162,13 163,57 164,65
165,387 166,82 167,22 174,12
175,14 176,100 177,73 178,464
179,324 180,50 183,4 186,10
187,31 188,29 189,378 190,236
191,584 192,362 193,136 194,27
195,1 196,4 200,57 201,56
202,306 203,278 204,175 205,249
206,210 207,34 208,6 209,10
213,8 215,43 216,10 217,16
218,14 219,33 221,9999 222,1767
223,154 224,12 226,4 227,4
233,4 234,6 236,1479 237,267
238,30
##END=
