##TITLE=2-Thiophenemethanethiol
##JCAMP-DX=4.24
##DATA TYPE=MASS SPECTRUM
##ORIGIN=G.A.M.S., PARIS, FRANCE.
##OWNER=NIST Mass Spectrometry Data Center
Collection (C) 2014 copyright by the U.S. Secretary of Commerce
on behalf of the United States of America. All rights reserved.
##CAS REGISTRY NO=6258-63-5
##$NIST MASS SPEC NO=2933
##MOLFORM=C5 H6 S2
##MW=130
##$NIST SOURCE=MSDC
##XUNITS=M/Z
##YUNITS=RELATIVE INTENSITY
##XFACTOR=1
##YFACTOR=1
##FIRSTX=25
##LASTX=132
##FIRSTY=13
##MAXX=132
##MINX=25
##MAXY=9999
##MINY=4
##NPOINTS=84
##PEAK TABLE=(XY..XY)
25,13 26,73 27,229 28,40
30,4 31,18 32,178 33,154
34,220 35,14 36,26 37,117
38,226 39,615 40,32 41,100
42,27 43,100 44,149 45,2857
46,134 47,288 48,35 49,62
50,182 51,259 52,98 53,1017
54,63 55,112 56,50 57,238
58,341 59,89 60,91 61,98
62,102 63,190 64,68 65,171
66,62 67,53 68,73 69,627
70,213 71,218 72,23 73,16
74,8 75,6 76,315 77,45
78,67 79,13 80,20 81,218
82,143 83,59 84,103 85,324
86,23 87,21 88,16 89,12
90,9 91,28 92,28 93,89
94,13 95,157 96,104 97,9999
98,800 99,472 100,43 101,19
102,6 103,14 127,158 128,115
129,75 130,1525 131,124 132,140
##END=
