##TITLE=4-Chlorobenzyl mercaptan
##JCAMP-DX=4.24
##DATA TYPE=MASS SPECTRUM
##ORIGIN=Japan AIST/NIMC Database- Spectrum MS-NW-3382
##OWNER=NIST Mass Spectrometry Data Center
Collection (C) 2014 copyright by the U.S. Secretary of Commerce
on behalf of the United States of America. All rights reserved.
##CAS REGISTRY NO=6258-66-8
##$NIST MASS SPEC NO=233345
##MOLFORM=C7 H7 Cl S
##MW=158
##$NIST SOURCE=MSDC
##XUNITS=M/Z
##YUNITS=RELATIVE INTENSITY
##XFACTOR=1
##YFACTOR=1
##FIRSTX=26
##LASTX=162
##FIRSTY=20
##MAXX=162
##MINX=26
##MAXY=9999
##MINY=10
##NPOINTS=85
##PEAK TABLE=(XY..XY)
26,20 27,40 32,10 33,50
34,20 35,10 36,30 37,60
38,90 39,319 40,30 41,10
43,30 44,20 45,889 46,30
47,70 49,40 50,209 51,249
52,30 58,10 59,10 60,169
61,259 62,219 63,609 64,119
65,99 69,80 70,10 71,20
72,20 73,189 74,80 75,209
76,40 77,219 78,50 79,40
80,10 81,10 82,10 84,20
85,60 86,60 87,50 88,20
89,1319 90,449 91,189 92,10
93,30 94,10 95,30 96,10
97,30 99,449 100,20 101,149
102,10 111,70 112,50 113,30
114,10 119,10 120,30 121,129
122,60 123,80 124,30 125,9999
126,819 127,3219 128,259 129,10
142,10 155,129 156,20 157,109
158,2009 159,199 160,739 161,60
162,30
##END=
