##TITLE=4-Methoxy-.alpha.-toluenethiol
##JCAMP-DX=4.24
##DATA TYPE=MASS SPECTRUM
##ORIGIN=Japan AIST/NIMC Database- Spectrum MS-IW-2310
##OWNER=NIST Mass Spectrometry Data Center
Collection (C) 2014 copyright by the U.S. Secretary of Commerce
on behalf of the United States of America. All rights reserved.
##CAS REGISTRY NO=6258-60-2
##$NIST MASS SPEC NO=235377
##MOLFORM=C8 H10 O S
##MW=154
##$NIST SOURCE=MSDC
##XUNITS=M/Z
##YUNITS=RELATIVE INTENSITY
##XFACTOR=1
##YFACTOR=1
##FIRSTX=15
##LASTX=156
##FIRSTY=20
##MAXX=156
##MINX=15
##MAXY=9999
##MINY=10
##NPOINTS=80
##PEAK TABLE=(XY..XY)
15,20 26,10 27,40 28,10
29,10 32,10 33,10 34,10
37,10 38,40 39,189 40,10
41,60 43,10 44,20 45,369
46,10 47,40 50,119 51,329
52,189 53,80 55,80 58,20
59,10 60,10 61,20 62,50
63,159 64,70 65,219 66,70
67,40 69,40 71,20 74,20
75,20 76,40 77,969 78,609
79,119 80,10 81,10 82,20
84,30 85,20 86,10 87,10
89,189 90,90 91,519 92,70
93,30 94,109 95,20 97,10
103,10 105,40 106,139 107,139
108,60 109,249 110,50 111,30
119,10 120,10 121,9999 122,939
123,80 135,30 136,30 137,60
138,90 139,30 151,80 152,30
153,70 154,1089 155,99 156,50
##END=
