##TITLE=1,3-Benzenediacetonitrile
##JCAMP-DX=4.24
##DATA TYPE=MASS SPECTRUM
##ORIGIN=Japan AIST/NIMC Database- Spectrum MS-IW- 278
##OWNER=NIST Mass Spectrometry Data Center
Collection (C) 2014 copyright by the U.S. Secretary of Commerce
on behalf of the United States of America. All rights reserved.
##CAS REGISTRY NO=626-22-2
##$NIST MASS SPEC NO=238449
##MOLFORM=C10 H8 N2
##MW=156
##$NIST SOURCE=MSDC
##XUNITS=M/Z
##YUNITS=RELATIVE INTENSITY
##XFACTOR=1
##YFACTOR=1
##FIRSTX=14
##LASTX=158
##FIRSTY=10
##MAXX=158
##MINX=14
##MAXY=9999
##MINY=10
##NPOINTS=84
##PEAK TABLE=(XY..XY)
14,10 26,20 27,109 28,10
29,10 31,20 36,30 37,70
38,139 39,439 40,50 41,40
43,80 44,30 45,10 49,30
50,329 51,589 52,159 53,30
57,10 61,90 62,239 63,559
64,289 65,139 66,30 68,10
69,20 73,30 74,119 75,269
76,289 77,549 78,149 79,30
85,20 86,40 87,99 88,159
89,1129 90,199 91,99 92,10
97,10 98,20 99,60 100,90
101,419 102,669 103,549 104,99
105,10 107,20 111,10 112,10
113,10 114,90 115,50 116,9999
117,929 118,40 119,10 121,10
124,10 125,40 126,30 127,169
128,719 129,1369 130,1249 131,149
132,10 137,10 138,10 139,10
141,20 142,10 153,20 154,20
155,239 156,3469 157,419 158,20
##END=
