##TITLE=2-Butanamine, N-(1-methylpropyl)-
##JCAMP-DX=4.24
##DATA TYPE=MASS SPECTRUM
##OWNER=NIST Mass Spectrometry Data Center
Collection (C) 2014 copyright by the U.S. Secretary of Commerce
on behalf of the United States of America. All rights reserved.
##CAS REGISTRY NO=626-23-3
##$NIST MASS SPEC NO=20724
##MOLFORM=C8 H19 N
##MW=129
##$NIST SOURCE=MSDC
##XUNITS=M/Z
##YUNITS=RELATIVE INTENSITY
##XFACTOR=1
##YFACTOR=1
##FIRSTX=15
##LASTX=129
##FIRSTY=80
##MAXX=129
##MINX=15
##MAXY=9999
##MINY=10
##NPOINTS=34
##PEAK TABLE=(XY..XY)
15,80 27,400 28,600 29,1000
30,300 31,10 41,1000 42,500
43,200 44,9999 45,300 55,400
56,300 57,800 58,2800 59,100
69,20 70,200 71,60 72,500
73,30 83,10 84,200 85,20
86,40 98,90 99,20 100,6999
101,500 112,20 114,900 115,70
128,100 129,100
##END=
