##TITLE=Ethanol, 2-methoxy-, carbonate (2:1)
##JCAMP-DX=4.24
##DATA TYPE=MASS SPECTRUM
##OWNER=NIST Mass Spectrometry Data Center
Collection (C) 2014 copyright by the U.S. Secretary of Commerce
on behalf of the United States of America. All rights reserved.
##CAS REGISTRY NO=626-84-6
##$NIST MASS SPEC NO=7314
##MOLFORM=C7 H14 O5
##MW=178
##$NIST SOURCE=MSDC
##XUNITS=M/Z
##YUNITS=RELATIVE INTENSITY
##XFACTOR=1
##YFACTOR=1
##FIRSTX=12
##LASTX=147
##FIRSTY=40
##MAXX=147
##MINX=12
##MAXY=9999
##MINY=10
##NPOINTS=65
##PEAK TABLE=(XY..XY)
12,40 13,70 14,310 15,2572
16,130 19,160 24,10 25,50
26,330 27,941 28,1191 29,4034
30,420 31,3333 32,400 33,100
35,20 36,50 37,20 38,20
39,20 40,20 41,100 42,360
43,1471 44,711 45,9999 46,420
47,540 48,30 49,40 50,10
51,20 55,20 56,40 57,160
58,1832 59,811 60,90 61,20
62,60 63,60 64,20 65,20
71,10 72,10 73,60 74,30
75,30 76,380 77,50 78,10
79,10 85,10 86,20 87,20
88,280 89,40 90,10 94,10
103,20 104,10 114,10 121,20
147,40
##END=
