##TITLE=Ethyl allophanate
##JCAMP-DX=4.24
##DATA TYPE=MASS SPECTRUM
##ORIGIN=Japan AIST/NIMC Database- Spectrum MS-NW-5040
##OWNER=NIST Mass Spectrometry Data Center
Collection (C) 2014 copyright by the U.S. Secretary of Commerce
on behalf of the United States of America. All rights reserved.
##CAS REGISTRY NO=626-36-8
##$NIST MASS SPEC NO=230114
##MOLFORM=C4 H8 N2 O3
##MW=132
##$NIST SOURCE=MSDC
##XUNITS=M/Z
##YUNITS=RELATIVE INTENSITY
##XFACTOR=1
##YFACTOR=1
##FIRSTX=12
##LASTX=134
##FIRSTY=30
##MAXX=134
##MINX=12
##MAXY=9999
##MINY=10
##NPOINTS=59
##PEAK TABLE=(XY..XY)
12,30 13,30 14,109 15,419
16,479 17,2099 18,1279 25,20
26,369 27,1889 28,969 29,4469
30,469 31,2419 32,70 36,30
38,10 40,10 41,50 42,629
43,2969 44,9999 45,4319 46,739
47,30 54,10 56,10 59,40
60,1829 61,1549 62,4449 63,80
64,20 69,10 70,429 71,70
72,10 73,10 74,969 75,30
83,20 85,10 86,219 87,1509
88,1819 89,1419 90,70 91,10
103,30 104,119 105,8229 106,269
107,60 116,60 117,249 118,10
132,1619 133,129 134,10
##END=
