##TITLE=Pentane, 1,4-dibromo-
##JCAMP-DX=4.24
##DATA TYPE=MASS SPECTRUM
##ORIGIN=Japan AIST/NIMC Database- Spectrum MS-NW-1055
##OWNER=NIST Mass Spectrometry Data Center
Collection (C) 2014 copyright by the U.S. Secretary of Commerce
on behalf of the United States of America. All rights reserved.
##CAS REGISTRY NO=626-87-9
##$NIST MASS SPEC NO=230700
##MOLFORM=C5 H10 Br2
##MW=228
##$NIST SOURCE=MSDC
##XUNITS=M/Z
##YUNITS=RELATIVE INTENSITY
##XFACTOR=1
##YFACTOR=1
##FIRSTX=14
##LASTX=152
##FIRSTY=20
##MAXX=152
##MINX=14
##MAXY=9999
##MINY=10
##NPOINTS=60
##PEAK TABLE=(XY..XY)
14,20 15,80 25,10 26,179
27,1679 28,70 29,619 30,10
36,20 37,50 38,149 39,1279
40,239 41,6209 42,809 43,1179
44,40 49,10 50,50 51,90
52,30 53,399 54,60 55,509
56,30 61,10 62,20 63,20
65,40 66,20 67,239 68,109
69,9999 70,579 71,20 79,50
80,70 81,60 82,80 91,30
93,80 95,80 105,20 106,50
107,639 108,60 109,599 110,10
119,40 120,30 121,99 122,30
123,70 133,10 135,20 148,90
149,3089 150,249 151,2929 152,169
##END=
