##TITLE=Cyclohexane, iodo-
##JCAMP-DX=4.24
##DATA TYPE=MASS SPECTRUM
##OWNER=NIST Mass Spectrometry Data Center
Collection (C) 2014 copyright by the U.S. Secretary of Commerce
on behalf of the United States of America. All rights reserved.
##CAS REGISTRY NO=626-62-0
##$NIST MASS SPEC NO=9743
##MOLFORM=C6 H11 I
##MW=210
##$NIST SOURCE=MSDC
##XUNITS=M/Z
##YUNITS=RELATIVE INTENSITY
##XFACTOR=1
##YFACTOR=1
##FIRSTX=15
##LASTX=211
##FIRSTY=30
##MAXX=211
##MINX=15
##MAXY=9999
##MINY=10
##NPOINTS=44
##PEAK TABLE=(XY..XY)
15,30 26,60 27,581 28,130
29,480 36,190 38,110 39,1051
40,150 41,2993 42,240 43,280
44,70 50,130 51,240 52,110
53,410 54,1251 55,6246 56,320
57,60 63,40 65,110 66,50
67,1762 68,80 69,30 70,10
71,10 77,150 78,90 79,210
80,160 81,300 82,540 83,9999
84,701 85,30 127,210 128,120
155,20 167,20 210,1722 211,110
##END=
