##TITLE=2-Hexanol
##JCAMP-DX=4.24
##DATA TYPE=MASS SPECTRUM
##ORIGIN=Japan AIST/NIMC Database- Spectrum MS-NW-1207
##OWNER=NIST Mass Spectrometry Data Center
Collection (C) 2014 copyright by the U.S. Secretary of Commerce
on behalf of the United States of America. All rights reserved.
##CAS REGISTRY NO=626-93-7
##$NIST MASS SPEC NO=230747
##MOLFORM=C6 H14 O
##MW=102
##$NIST SOURCE=MSDC
##XUNITS=M/Z
##YUNITS=RELATIVE INTENSITY
##XFACTOR=1
##YFACTOR=1
##FIRSTX=15
##LASTX=101
##FIRSTY=109
##MAXX=101
##MINX=15
##MAXY=9999
##MINY=10
##NPOINTS=43
##PEAK TABLE=(XY..XY)
15,109 17,10 18,60 19,109
26,50 27,639 28,149 29,509
30,20 31,199 32,10 38,20
39,319 40,50 41,1199 42,339
43,699 44,689 45,9999 46,229
47,30 50,20 51,20 52,10
53,50 54,30 55,389 56,359
57,239 58,129 59,50 67,20
69,1449 70,80 71,30 83,20
84,409 85,50 86,20 87,529
88,30 100,20 101,40
##END=
