##TITLE=Piperidine, 3-methyl-
##JCAMP-DX=4.24
##DATA TYPE=MASS SPECTRUM
##ORIGIN=Japan AIST/NIMC Database- Spectrum MS-NW-3266
##OWNER=NIST Mass Spectrometry Data Center
Collection (C) 2014 copyright by the U.S. Secretary of Commerce
on behalf of the United States of America. All rights reserved.
##CAS REGISTRY NO=626-56-2
##$NIST MASS SPEC NO=233614
##MOLFORM=C6 H13 N
##MW=99
##$NIST SOURCE=MSDC
##XUNITS=M/Z
##YUNITS=RELATIVE INTENSITY
##XFACTOR=1
##YFACTOR=1
##FIRSTX=15
##LASTX=101
##FIRSTY=309
##MAXX=101
##MINX=15
##MAXY=9999
##MINY=10
##NPOINTS=64
##PEAK TABLE=(XY..XY)
15,309 25,10 26,169 27,1129
28,2029 29,1839 30,4659 31,80
32,40 33,20 34,20 36,10
37,90 38,229 39,1719 40,409
41,2419 42,3219 43,2389 44,9999
45,289 46,50 47,10 48,10
49,20 50,109 51,189 52,129
53,359 54,329 55,1039 56,4089
57,4899 58,429 59,10 61,30
62,60 63,109 64,50 65,359
66,519 67,369 68,359 69,509
70,2429 71,979 72,70 75,10
77,20 78,60 79,60 80,129
81,189 82,319 83,99 84,4749
85,299 86,10 96,99 97,60
98,5639 99,5679 100,419 101,20
##END=
