##TITLE=4-Pyridinol
##JCAMP-DX=4.24
##DATA TYPE=MASS SPECTRUM
##ORIGIN=Insect Chem. Ecol. Lab., USDA, Beltsville, MD 20705
##OWNER=NIST Mass Spectrometry Data Center
Collection (C) 2014 copyright by the U.S. Secretary of Commerce
on behalf of the United States of America. All rights reserved.
##CAS REGISTRY NO=626-64-2
##$NIST MASS SPEC NO=132292
##MOLFORM=C5 H5 N O
##MW=95
##$NIST SOURCE=MSDC
##XUNITS=M/Z
##YUNITS=RELATIVE INTENSITY
##XFACTOR=1
##YFACTOR=1
##FIRSTX=41
##LASTX=97
##FIRSTY=1222
##MAXX=97
##MINX=41
##MAXY=9999
##MINY=5
##NPOINTS=33
##PEAK TABLE=(XY..XY)
41,1222 42,379 43,92 44,41
45,5 47,105 48,6 50,277
51,331 52,226 53,334 54,107
55,438 56,26 57,6 62,7
63,19 64,45 65,49 66,350
67,1574 68,1495 69,168 70,19
77,35 78,76 79,7 80,27
81,17 94,294 95,9999 96,908
97,59
##END=
