##TITLE=Isophthalaldehyde
##JCAMP-DX=4.24
##DATA TYPE=MASS SPECTRUM
##ORIGIN=NIST Mass Spectrometry Data Center, 1994
##OWNER=NIST Mass Spectrometry Data Center
Collection (C) 2014 copyright by the U.S. Secretary of Commerce
on behalf of the United States of America. All rights reserved.
##CAS REGISTRY NO=626-19-7
##$NIST MASS SPEC NO=134233
##MOLFORM=C8 H6 O2
##MW=134
##$NIST SOURCE=MSDC
##XUNITS=M/Z
##YUNITS=RELATIVE INTENSITY
##XFACTOR=1
##YFACTOR=1
##FIRSTX=4
##LASTX=136
##FIRSTY=12
##MAXX=136
##MINX=4
##MAXY=9999
##MINY=2
##NPOINTS=52
##PEAK TABLE=(XY..XY)
4,12 13,14 14,2 16,5
18,16 25,47 26,160 27,422
28,110 29,1735 30,29 36,70
37,396 38,442 39,347 43,44
44,15 48,41 49,385 50,2359
51,3934 52,515 53,152 55,14
60,51 61,227 62,286 63,254
64,24 66,36 67,15 73,343
74,1216 75,675 76,1041 77,4533
78,459 79,32 84,34 85,112
86,117 87,59 88,14 89,44
103,45 105,5421 106,409 107,29
133,9280 134,9999 135,931 136,86
##END=
