##TITLE=Heptanoic acid, anhydride
##JCAMP-DX=4.24
##DATA TYPE=MASS SPECTRUM
##ORIGIN=NIST Mass Spectrometry Data Center
##OWNER=NIST Mass Spectrometry Data Center
Collection (C) 2014 copyright by the U.S. Secretary of Commerce
on behalf of the United States of America. All rights reserved.
##CAS REGISTRY NO=626-27-7
##$NIST MASS SPEC NO=334066
##MOLFORM=C14 H26 O3
##MW=242
##$NIST SOURCE=MSDC
##XUNITS=M/Z
##YUNITS=RELATIVE INTENSITY
##XFACTOR=1
##YFACTOR=1
##FIRSTX=26
##LASTX=157
##FIRSTY=10
##MAXX=157
##MINX=26
##MAXY=9999
##MINY=10
##NPOINTS=60
##PEAK TABLE=(XY..XY)
26,10 27,240 28,130 29,350
30,10 38,10 39,240 40,60
41,1061 42,460 43,3333 44,120
45,50 51,10 52,10 53,70
54,40 55,851 56,330 57,781
58,60 59,20 60,70 61,10
65,10 67,50 68,120 69,180
70,70 71,30 72,10 73,30
79,10 81,10 82,10 83,100
84,440 85,1451 86,110 87,20
89,10 94,40 95,180 96,20
97,30 101,20 110,20 111,50
113,9999 114,841 115,60 116,10
128,20 129,40 130,90 131,40
141,10 144,10 154,10 157,20
##END=
