##TITLE=Hexanedioic acid, monoethyl ester
##JCAMP-DX=4.24
##DATA TYPE=MASS SPECTRUM
##ORIGIN=RADIAN CORP
##OWNER=NIST Mass Spectrometry Data Center
Collection (C) 2014 copyright by the U.S. Secretary of Commerce
on behalf of the United States of America. All rights reserved.
##CAS REGISTRY NO=626-86-8
##$NIST MASS SPEC NO=76413
##MOLFORM=C8 H14 O4
##MW=174
##$NIST SOURCE=MSDC
##XUNITS=M/Z
##YUNITS=RELATIVE INTENSITY
##XFACTOR=1
##YFACTOR=1
##FIRSTX=14
##LASTX=175
##FIRSTY=10
##MAXX=175
##MINX=14
##MAXY=9999
##MINY=10
##NPOINTS=85
##PEAK TABLE=(XY..XY)
14,10 15,20 17,40 18,120
19,10 26,360 27,2420 28,1780
29,5070 30,350 31,1160 32,500
38,70 39,1510 40,260 41,2570
42,2280 43,3350 44,360 45,4670
46,160 47,80 50,90 51,170
52,80 53,620 54,830 55,9999
56,2130 57,890 58,470 59,2170
60,4250 61,1890 62,40 65,10
66,10 67,50 68,590 69,1460
70,1560 71,230 72,100 73,5930
74,690 75,90 81,150 82,690
83,4600 84,1400 85,420 86,290
87,1330 88,6160 89,340 90,20
97,20 98,10 99,610 100,4790
101,5270 102,720 103,50 108,20
109,50 110,570 111,9370 112,1140
113,130 114,110 115,3870 116,260
127,290 128,8530 129,8870 130,690
131,60 139,30 146,10 147,20
156,900 157,2330 158,210 159,30
175,20
##END=
