##TITLE=1,4-Pentanediol
##JCAMP-DX=4.24
##DATA TYPE=MASS SPECTRUM
##ORIGIN=Japan AIST/NIMC Database- Spectrum MS-NW-6456
##OWNER=NIST Mass Spectrometry Data Center
Collection (C) 2014 copyright by the U.S. Secretary of Commerce
on behalf of the United States of America. All rights reserved.
##CAS REGISTRY NO=626-95-9
##$NIST MASS SPEC NO=236118
##MOLFORM=C5 H12 O2
##MW=104
##$NIST SOURCE=MSDC
##XUNITS=M/Z
##YUNITS=RELATIVE INTENSITY
##XFACTOR=1
##YFACTOR=1
##FIRSTX=13
##LASTX=103
##FIRSTY=10
##MAXX=103
##MINX=13
##MAXY=9999
##MINY=10
##NPOINTS=61
##PEAK TABLE=(XY..XY)
13,10 14,60 15,429 16,20
17,90 18,469 19,519 25,10
26,159 27,1679 28,379 29,959
30,70 31,1699 32,20 33,10
37,40 38,90 39,749 40,399
41,3639 42,7889 43,3269 44,1519
45,9999 46,249 47,80 49,20
50,30 51,50 52,20 53,339
54,70 55,459 56,1329 57,569
58,1199 59,139 60,209 61,80
62,109 63,30 65,30 66,20
67,219 68,179 69,239 70,30
71,6779 72,329 73,30 74,20
75,20 83,10 84,30 85,279
86,90 87,10 89,219 90,10
103,10
##END=
