##TITLE=Sulfurous acid, dibutyl ester
##JCAMP-DX=4.24
##DATA TYPE=MASS SPECTRUM
##ORIGIN=NIST Mass Spectrometry Data Center, 1992
##OWNER=NIST Mass Spectrometry Data Center
Collection (C) 2014 copyright by the U.S. Secretary of Commerce
on behalf of the United States of America. All rights reserved.
##CAS REGISTRY NO=626-85-7
##$NIST MASS SPEC NO=125397
##MOLFORM=C8 H18 O3 S
##MW=194
##$NIST SOURCE=MSDC
##XUNITS=M/Z
##YUNITS=RELATIVE INTENSITY
##XFACTOR=1
##YFACTOR=1
##FIRSTX=14
##LASTX=165
##FIRSTY=32
##MAXX=165
##MINX=14
##MAXY=9999
##MINY=3
##NPOINTS=70
##PEAK TABLE=(XY..XY)
14,32 15,122 16,7 17,3
18,14 19,17 26,176 27,1507
28,900 29,2734 30,132 31,295
32,73 33,14 37,19 39,825
41,3748 42,314 43,775 44,134
45,147 46,6 48,103 49,24
50,86 51,28 52,14 53,75
54,6 55,643 56,1599 57,9999
58,421 59,59 63,7 64,73
65,39 66,12 69,28 70,12
71,32 72,27 73,122 74,10
75,98 76,6 78,119 79,6
80,5 83,353 84,7 85,20
86,5 87,335 88,15 95,7
101,21 109,249 110,12 111,16
121,87 122,11 123,6 137,5
139,428 140,21 141,22 151,74
152,6 165,7
##END=
