##TITLE=Butane, 2,2'-thiobis-
##JCAMP-DX=4.24
##DATA TYPE=MASS SPECTRUM
##ORIGIN=Japan AIST/NIMC Database- Spectrum MS-NW-5841
##OWNER=NIST Mass Spectrometry Data Center
Collection (C) 2014 copyright by the U.S. Secretary of Commerce
on behalf of the United States of America. All rights reserved.
##CAS REGISTRY NO=626-26-6
##$NIST MASS SPEC NO=234821
##MOLFORM=C8 H18 S
##MW=146
##$NIST SOURCE=MSDC
##XUNITS=M/Z
##YUNITS=RELATIVE INTENSITY
##XFACTOR=1
##YFACTOR=1
##FIRSTX=15
##LASTX=149
##FIRSTY=50
##MAXX=149
##MINX=15
##MAXY=9999
##MINY=10
##NPOINTS=72
##PEAK TABLE=(XY..XY)
15,50 18,40 26,80 27,1069
28,149 29,2989 30,70 32,40
33,10 34,20 35,139 37,20
38,30 39,729 40,80 41,3359
42,159 43,80 44,40 45,339
46,50 47,439 48,10 49,30
50,30 51,50 52,20 53,179
54,50 55,1199 56,2359 57,6219
58,299 59,519 60,839 61,9999
62,349 63,459 64,10 67,10
69,20 70,20 71,40 72,10
73,80 74,50 75,1289 76,70
77,80 83,50 85,10 87,20
88,99 89,469 90,409 91,489
92,50 93,30 101,20 103,40
106,10 117,5539 118,479 119,289
120,20 131,359 132,50 133,20
146,3279 147,309 148,189 149,20
##END=
