##TITLE=Pyridine, 3-chloro-
##JCAMP-DX=4.24
##DATA TYPE=MASS SPECTRUM
##ORIGIN=NIST Mass Spectrometry Data Center, 1998.
##OWNER=NIST Mass Spectrometry Data Center
Collection (C) 2014 copyright by the U.S. Secretary of Commerce
on behalf of the United States of America. All rights reserved.
##CAS REGISTRY NO=626-60-8
##$NIST MASS SPEC NO=291977
##MOLFORM=C5 H4 Cl N
##MW=113
##$NIST SOURCE=MSDC
##XUNITS=M/Z
##YUNITS=RELATIVE INTENSITY
##XFACTOR=1
##YFACTOR=1
##FIRSTX=24
##LASTX=116
##FIRSTY=10
##MAXX=116
##MINX=24
##MAXY=9999
##MINY=10
##NPOINTS=53
##PEAK TABLE=(XY..XY)
24,10 25,60 26,200 27,110
28,220 35,70 36,90 37,380
38,400 39,210 40,60 41,10
43,50 44,20 47,110 48,160
49,1060 50,3730 51,5279 52,750
53,70 56,20 57,10 59,30
60,680 61,120 62,320 63,60
64,40 71,20 72,40 73,170
74,90 75,460 76,690 77,540
78,7199 79,430 80,10 83,20
84,200 85,460 86,990 87,260
88,310 89,40 109,10 110,10
112,190 113,9999 114,680 115,3280
116,200
##END=
