##TITLE=Pentane, 1-bromo-4-methyl-
##JCAMP-DX=4.24
##DATA TYPE=MASS SPECTRUM
##ORIGIN=Japan AIST/NIMC Database- Spectrum MS-NW-3296
##OWNER=NIST Mass Spectrometry Data Center
Collection (C) 2014 copyright by the U.S. Secretary of Commerce
on behalf of the United States of America. All rights reserved.
##CAS REGISTRY NO=626-88-0
##$NIST MASS SPEC NO=231326
##MOLFORM=C6 H13 Br
##MW=164
##$NIST SOURCE=MSDC
##XUNITS=M/Z
##YUNITS=RELATIVE INTENSITY
##XFACTOR=1
##YFACTOR=1
##FIRSTX=14
##LASTX=167
##FIRSTY=10
##MAXX=167
##MINX=14
##MAXY=9999
##MINY=10
##NPOINTS=64
##PEAK TABLE=(XY..XY)
14,10 15,99 26,80 27,1339
28,49 29,749 30,20 37,30
38,109 39,1109 40,229 41,4409
42,4239 43,9999 44,339 50,50
51,70 52,30 53,169 54,40
55,539 56,1239 57,859 58,40
59,10 62,10 63,20 65,30
66,10 67,90 68,30 69,3129
70,199 71,20 79,30 80,40
81,30 82,50 83,119 84,199
85,5929 86,399 87,10 93,60
95,60 105,10 106,10 107,259
108,10 109,239 119,10 120,30
121,60 122,30 123,60 148,10
149,299 150,20 151,289 152,20
164,199 165,20 166,189 167,10
##END=
