##TITLE=6-Methyluracil
##JCAMP-DX=4.24
##DATA TYPE=MASS SPECTRUM
##ORIGIN=NIST Mass Spectrometry Data Center, 1998.
##OWNER=NIST Mass Spectrometry Data Center
Collection (C) 2014 copyright by the U.S. Secretary of Commerce
on behalf of the United States of America. All rights reserved.
##CAS REGISTRY NO=626-48-2
##$NIST MASS SPEC NO=292139
##MOLFORM=C5 H6 N2 O2
##MW=126
##$NIST SOURCE=MSDC
##XUNITS=M/Z
##YUNITS=RELATIVE INTENSITY
##XFACTOR=1
##YFACTOR=1
##FIRSTX=25
##LASTX=127
##FIRSTY=60
##MAXX=127
##MINX=25
##MAXY=9999
##MINY=60
##NPOINTS=24
##PEAK TABLE=(XY..XY)
25,60 26,350 27,540 37,460
38,320 39,900 41,1040 42,9999
43,640 44,680 50,150 51,840
53,230 55,330 56,160 67,230
68,6709 69,300 70,330 82,170
83,2880 84,240 126,8469 127,660
##END=
