##TITLE=Benzene, 1,3-diiodo-
##JCAMP-DX=4.24
##DATA TYPE=MASS SPECTRUM
##ORIGIN=NIST Mass Spectrometry Data Center, 2010
##OWNER=NIST Mass Spectrometry Data Center
Collection (C) 2014 copyright by the U.S. Secretary of Commerce
on behalf of the United States of America. All rights reserved.
##CAS REGISTRY NO=626-00-6
##$NIST MASS SPEC NO=417443
##MOLFORM=C6 H4 I2
##MW=330
##$NIST SOURCE=MSDC
##XUNITS=M/Z
##YUNITS=RELATIVE INTENSITY
##XFACTOR=1
##YFACTOR=1
##FIRSTX=26
##LASTX=332
##FIRSTY=10
##MAXX=332
##MINX=26
##MAXY=9999
##MINY=10
##NPOINTS=41
##PEAK TABLE=(XY..XY)
26,10 27,10 36,20 37,150
38,140 39,30 48,20 49,250
50,2372 51,160 60,20 61,60
62,30 63,10 72,30 73,380
74,1641 75,1061 76,4194 77,270
78,10 101,10 127,1131 128,70
139,20 151,10 152,70 153,20
163,10 165,601 175,10 176,80
177,40 200,10 203,3783 204,260
205,10 254,20 330,9999 331,741
332,20
##END=
