##TITLE=Benzene, 1,3-bis(bromomethyl)-
##JCAMP-DX=4.24
##DATA TYPE=MASS SPECTRUM
##ORIGIN=Japan AIST/NIMC Database- Spectrum MS-NW-1775
##OWNER=NIST Mass Spectrometry Data Center
Collection (C) 2014 copyright by the U.S. Secretary of Commerce
on behalf of the United States of America. All rights reserved.
##CAS REGISTRY NO=626-15-3
##$NIST MASS SPEC NO=229006
##MOLFORM=C8 H8 Br2
##MW=262
##$NIST SOURCE=MSDC
##XUNITS=M/Z
##YUNITS=RELATIVE INTENSITY
##XFACTOR=1
##YFACTOR=1
##FIRSTX=14
##LASTX=267
##FIRSTY=10
##MAXX=267
##MINX=14
##MAXY=9999
##MINY=10
##NPOINTS=78
##PEAK TABLE=(XY..XY)
14,10 26,99 27,309 28,30
36,20 37,149 38,439 39,1249
40,80 41,60 42,10 43,20
44,70 49,99 50,999 51,2649
52,1539 53,169 54,20 55,10
56,10 60,20 61,179 62,459
63,1059 64,209 65,279 66,20
73,60 74,379 75,329 76,419
77,2029 78,1949 79,169 80,119
81,169 82,129 85,30 86,50
87,90 88,20 89,199 90,50
91,199 92,179 93,20 95,20
97,10 98,60 99,30 101,70
102,619 103,2219 104,9999 105,1049
106,60 107,10 117,20 119,10
139,50 141,20 160,10 169,20
171,20 182,169 183,8599 184,929
185,8439 186,749 187,30 261,99
262,469 263,239 264,849 265,169
266,419 267,30
##END=
