##TITLE=Cedran-diol, (8S,14)-
##JCAMP-DX=4.24
##DATA TYPE=MASS SPECTRUM
##ORIGIN=Mark Whitten, Florida Museum of Natural History, U. of Florida
##OWNER=NIST Mass Spectrometry Data Center
Collection (C) 2014 copyright by the U.S. Secretary of Commerce
on behalf of the United States of America. All rights reserved.
##CAS REGISTRY NO=62600-05-9
##$NIST MASS SPEC NO=141108
##MOLFORM=C15 H26 O2
##MW=238
##$NIST SOURCE=MSDC
##XUNITS=M/Z
##YUNITS=RELATIVE INTENSITY
##XFACTOR=1
##YFACTOR=1
##FIRSTX=41
##LASTX=238
##FIRSTY=5277
##MAXX=238
##MINX=41
##MAXY=9999
##MINY=64
##NPOINTS=122
##PEAK TABLE=(XY..XY)
41,5277 43,9999 44,447 45,729
50,66 51,433 53,1739 55,3535
56,462 57,1184 58,526 59,357
63,133 65,974 66,328 67,2096
68,414 69,1570 70,250 71,1762
72,295 73,142 74,64 75,519
77,2256 78,569 79,2939 80,464
81,3478 82,481 83,707 84,223
85,578 86,116 89,95 91,3232
92,686 93,4214 94,836 95,3078
96,435 97,552 98,114 99,135
102,76 103,304 105,3137 106,695
107,3680 108,671 109,1608 110,350
111,400 112,76 113,102 115,502
116,145 117,505 119,2661 120,519
121,2487 122,528 123,867 124,176
125,162 127,102 128,159 129,226
130,126 131,600 132,214 133,1772
134,431 135,1515 136,536 137,400
138,111 139,100 141,88 143,104
144,83 145,538 146,173 147,1824
148,490 149,3680 150,721 151,350
152,116 153,66 159,254 160,116
161,1360 162,316 163,543 164,207
165,295 166,1350 167,695 168,119
171,76 173,135 175,216 176,202
177,569 178,138 179,119 187,283
189,6956 190,1184 191,431 192,150
202,85 205,240 206,126 207,2218
208,443 209,88 220,114 223,221
237,81 238,111
##END=
