##TITLE=Benzenethiol, o-isopropyl-,
##JCAMP-DX=4.24
##DATA TYPE=MASS SPECTRUM
##ORIGIN=NIST Mass Spectrometry Data Center
##OWNER=NIST Mass Spectrometry Data Center
Collection (C) 2014 copyright by the U.S. Secretary of Commerce
on behalf of the United States of America. All rights reserved.
##CAS REGISTRY NO=6262-87-9
##$NIST MASS SPEC NO=353044
##MOLFORM=C9 H12 S
##MW=152
##$NIST SOURCE=MSDC
##XUNITS=M/Z
##YUNITS=RELATIVE INTENSITY
##XFACTOR=1
##YFACTOR=1
##FIRSTX=15
##LASTX=155
##FIRSTY=60
##MAXX=155
##MINX=15
##MAXY=9999
##MINY=10
##NPOINTS=110
##PEAK TABLE=(XY..XY)
15,60 26,20 27,190 28,20
29,20 33,20 34,30 37,20
38,70 39,601 40,50 41,360
42,20 43,40 45,430 46,20
47,40 49,10 50,220 51,520
52,110 53,110 54,20 55,10
57,40 58,110 59,530 60,40
61,70 62,140 63,380 64,60
65,510 66,140 67,270 68,90
69,370 70,50 71,110 72,20
73,120 74,200 75,320 76,190
77,1461 78,530 79,200 80,10
81,60 82,120 83,50 84,70
85,30 86,40 87,50 88,20
89,330 90,140 91,1922 92,200
93,120 94,20 95,70 96,20
97,120 98,30 99,10 101,60
102,380 103,1621 104,1421 105,240
106,30 107,20 108,140 109,1491
110,520 111,290 112,40 113,20
114,20 115,861 116,220 117,761
118,250 119,410 120,60 121,230
122,60 123,571 124,70 125,40
132,10 133,50 134,801 135,4924
136,651 137,9999 138,1061 139,530
140,40 145,10 147,80 148,20
149,300 150,50 152,6136 153,701
154,320 155,30
##END=
