##TITLE=Cyclopropene, tetrachloro-
##JCAMP-DX=4.24
##DATA TYPE=MASS SPECTRUM
##ORIGIN=Japan AIST/NIMC Database- Spectrum MS-IW-3649
##OWNER=NIST Mass Spectrometry Data Center
Collection (C) 2014 copyright by the U.S. Secretary of Commerce
on behalf of the United States of America. All rights reserved.
##CAS REGISTRY NO=6262-42-6
##$NIST MASS SPEC NO=235583
##MOLFORM=C3 Cl4
##MW=176
##$NIST SOURCE=MSDC
##XUNITS=M/Z
##YUNITS=RELATIVE INTENSITY
##XFACTOR=1
##YFACTOR=1
##FIRSTX=12
##LASTX=182
##FIRSTY=40
##MAXX=182
##MINX=12
##MAXY=9999
##MINY=10
##NPOINTS=49
##PEAK TABLE=(XY..XY)
12,40 24,60 35,259 37,90
47,699 49,229 53,499 54,319
55,50 59,179 60,10 61,60
70,30 71,1699 72,60 73,549
74,10 82,289 83,20 84,189
85,10 86,30 94,319 95,20
96,209 97,10 98,30 106,2519
107,80 108,1629 109,50 110,269
129,20 131,20 141,9999 142,319
143,9769 144,319 145,3129 146,99
147,349 148,10 176,619 177,20
178,799 179,20 180,399 181,10
182,80
##END=
