##TITLE=2,4,6-Cycloheptatrien-1-one, 2-amino-
##JCAMP-DX=4.24
##DATA TYPE=MASS SPECTRUM
##ORIGIN=CARL DJERASSI DEPT OF CHEM STANFORD UNIV STANFORD CALIF 94305
##OWNER=NIST Mass Spectrometry Data Center
Collection (C) 2014 copyright by the U.S. Secretary of Commerce
on behalf of the United States of America. All rights reserved.
##CAS REGISTRY NO=6264-93-3
##$NIST MASS SPEC NO=46399
##MOLFORM=C7 H7 N O
##MW=121
##$NIST SOURCE=MSDC
##XUNITS=M/Z
##YUNITS=RELATIVE INTENSITY
##XFACTOR=1
##YFACTOR=1
##FIRSTX=41
##LASTX=122
##FIRSTY=808
##MAXX=122
##MINX=41
##MAXY=9999
##MINY=101
##NPOINTS=26
##PEAK TABLE=(XY..XY)
41,808 42,202 44,202 45,404
46,303 47,1010 50,404 51,505
52,505 53,202 54,404 60,404
62,202 63,505 64,202 65,1717
66,2626 67,404 76,101 77,202
78,202 92,606 93,3434 94,404
121,9999 122,808
##END=
