##TITLE=Benzene, (3-chloroallyl)-
##JCAMP-DX=4.24
##DATA TYPE=MASS SPECTRUM
##OWNER=NIST Mass Spectrometry Data Center
Collection (C) 2014 copyright by the U.S. Secretary of Commerce
on behalf of the United States of America. All rights reserved.
##CAS REGISTRY NO=6268-37-7
##$NIST MASS SPEC NO=4880
##MOLFORM=C9 H9 Cl
##MW=152
##$NIST SOURCE=MSDC
##XUNITS=M/Z
##YUNITS=RELATIVE INTENSITY
##XFACTOR=1
##YFACTOR=1
##FIRSTX=26
##LASTX=155
##FIRSTY=50
##MAXX=155
##MINX=26
##MAXY=9999
##MINY=20
##NPOINTS=74
##PEAK TABLE=(XY..XY)
26,50 27,150 37,70 38,150
39,831 40,60 41,120 43,30
47,20 48,20 49,200 50,330
51,671 52,130 53,40 55,30
57,280 58,470 61,210 62,280
63,611 64,130 65,721 66,50
73,130 74,150 75,811 76,160
77,470 78,150 79,30 81,30
83,70 85,80 86,70 87,100
88,50 89,510 90,130 91,2272
92,360 93,20 96,30 97,130
98,30 99,110 101,50 102,110
103,90 104,30 105,70 109,130
110,250 111,120 112,170 113,80
114,100 115,4014 116,1001 117,9999
118,991 119,50 123,30 125,80
126,20 127,30 131,60 132,30
133,30 151,70 152,2482 153,270
154,841 155,90
##END=
