##TITLE=1-(4-Nitrophenyl)piperazine
##JCAMP-DX=4.24
##DATA TYPE=MASS SPECTRUM
##ORIGIN=MUS116 A. Mujsce, AT&T Bell Labs., Murray Hill, N.J., USA
##OWNER=NIST Mass Spectrometry Data Center
Collection (C) 2014 copyright by the U.S. Secretary of Commerce
on behalf of the United States of America. All rights reserved.
##CAS REGISTRY NO=6269-89-2
##$NIST MASS SPEC NO=115504
##MOLFORM=C10 H13 N3 O2
##MW=207
##$NIST SOURCE=MSDC
##XUNITS=M/Z
##YUNITS=RELATIVE INTENSITY
##XFACTOR=1
##YFACTOR=1
##FIRSTX=41
##LASTX=209
##FIRSTY=169
##MAXX=209
##MINX=41
##MAXY=9999
##MINY=10
##NPOINTS=87
##PEAK TABLE=(XY..XY)
41,169 42,347 43,106 46,18
50,366 51,448 52,125 53,76
54,164 55,118 56,1266 57,464
58,65 61,30 62,78 63,269
64,127 65,198 66,47 68,48
70,22 74,100 75,212 76,543
77,774 78,484 79,65 81,93
87,15 89,143 90,146 91,169
92,169 93,71 94,15 95,148
96,15 102,73 103,260 104,323
105,225 106,164 107,50 113,13
115,21 116,22 117,106 118,208
119,2621 120,850 121,86 122,70
129,19 130,83 132,44 133,27
134,86 135,133 136,100 137,11
142,11 146,25 147,13 149,476
150,344 151,84 152,83 154,12
157,12 158,21 159,30 160,36
161,25 162,10 165,9999 166,904
167,95 170,18 174,17 177,90
178,20 191,69 192,23 205,22
207,2637 208,311 209,32
##END=
