##TITLE=1-Propanol, 3-iodo-
##JCAMP-DX=4.24
##DATA TYPE=MASS SPECTRUM
##ORIGIN=NIST Mass Spectrometry Data Center, 1994
##OWNER=NIST Mass Spectrometry Data Center
Collection (C) 2014 copyright by the U.S. Secretary of Commerce
on behalf of the United States of America. All rights reserved.
##CAS REGISTRY NO=627-32-7
##$NIST MASS SPEC NO=134719
##MOLFORM=C3 H7 I O
##MW=186
##$NIST SOURCE=MSDC
##XUNITS=M/Z
##YUNITS=RELATIVE INTENSITY
##XFACTOR=1
##YFACTOR=1
##FIRSTX=4
##LASTX=187
##FIRSTY=11
##MAXX=187
##MINX=4
##MAXY=9999
##MINY=11
##NPOINTS=43
##PEAK TABLE=(XY..XY)
4,11 13,18 14,36 15,149
17,21 18,20 25,61 26,513
27,1984 28,987 29,1973 30,18
31,9999 32,96 33,29 36,17
37,103 38,200 39,909 40,17
41,2315 42,155 43,280 44,22
53,28 55,94 57,726 59,7012
60,241 127,954 128,313 129,79
139,23 140,20 141,123 153,16
154,35 155,310 157,30 158,142
168,24 186,2553 187,94
##END=
