##TITLE=Propane, 1-(1-methylethoxy)-
##JCAMP-DX=4.24
##DATA TYPE=MASS SPECTRUM
##ORIGIN=D.HENNEBERG, MAX-PLANCK INSTITUTE, MULHEIM, WEST GERMANY
##OWNER=NIST Mass Spectrometry Data Center
Collection (C) 2014 copyright by the U.S. Secretary of Commerce
on behalf of the United States of America. All rights reserved.
##CAS REGISTRY NO=627-08-7
##$NIST MASS SPEC NO=61392
##MOLFORM=C6 H14 O
##MW=102
##$NIST SOURCE=MSDC
##XUNITS=M/Z
##YUNITS=RELATIVE INTENSITY
##XFACTOR=1
##YFACTOR=1
##FIRSTX=24
##LASTX=102
##FIRSTY=4
##MAXX=102
##MINX=24
##MAXY=9999
##MINY=3
##NPOINTS=36
##PEAK TABLE=(XY..XY)
24,4 26,86 27,1329 28,241
29,251 30,32 31,645 32,9
37,38 38,46 39,578 40,114
41,2049 42,650 43,9999 44,347
45,6482 46,147 47,13 55,266
56,21 57,89 58,62 59,760
60,27 61,7 69,38 71,10
72,10 73,1068 74,50 86,3
87,1700 88,92 101,6 102,51
##END=
