##TITLE=Diethyl selenide
##JCAMP-DX=4.24
##DATA TYPE=MASS SPECTRUM
##ORIGIN=Japan AIST/NIMC Database- Spectrum MS-NW-5372
##OWNER=NIST Mass Spectrometry Data Center
Collection (C) 2014 copyright by the U.S. Secretary of Commerce
on behalf of the United States of America. All rights reserved.
##CAS REGISTRY NO=627-53-2
##$NIST MASS SPEC NO=230172
##MOLFORM=C4 H10 Se
##MW=138
##$NIST SOURCE=MSDC
##XUNITS=M/Z
##YUNITS=RELATIVE INTENSITY
##XFACTOR=1
##YFACTOR=1
##FIRSTX=14
##LASTX=141
##FIRSTY=30
##MAXX=141
##MINX=14
##MAXY=9999
##MINY=10
##NPOINTS=80
##PEAK TABLE=(XY..XY)
14,30 15,80 24,10 25,60
26,829 27,5499 28,209 29,9999
30,239 39,90 40,10 41,2059
42,70 43,30 44,40 45,10
47,20 53,20 55,329 56,40
57,109 58,10 61,20 62,10
70,10 75,30 76,109 77,119
78,879 79,859 80,2089 81,709
82,3729 83,789 84,649 85,139
86,10 87,10 88,10 89,129
90,149 91,609 92,399 93,1289
94,329 95,1669 96,99 97,279
101,40 102,70 103,239 104,469
105,909 106,2369 107,3009 108,4879
109,2469 110,8739 111,619 112,1569
113,40 117,40 119,309 120,269
121,779 122,30 123,1649 124,60
125,299 126,20 132,139 133,20
134,1379 135,1189 136,3349 137,219
138,7079 139,339 140,1289 141,70
##END=
