##TITLE=2-Propanone, (1-methylethylidene)hydrazone
##JCAMP-DX=4.24
##DATA TYPE=MASS SPECTRUM
##OWNER=NIST Mass Spectrometry Data Center
Collection (C) 2014 copyright by the U.S. Secretary of Commerce
on behalf of the United States of America. All rights reserved.
##CAS REGISTRY NO=627-70-3
##$NIST MASS SPEC NO=1661
##MOLFORM=C6 H12 N2
##MW=112
##$NIST SOURCE=MSDC
##XUNITS=M/Z
##YUNITS=RELATIVE INTENSITY
##XFACTOR=1
##YFACTOR=1
##FIRSTX=12
##LASTX=114
##FIRSTY=30
##MAXX=114
##MINX=12
##MAXY=9999
##MINY=10
##NPOINTS=63
##PEAK TABLE=(XY..XY)
12,30 13,50 14,200 15,3183
16,50 17,20 18,40 24,10
25,50 26,400 27,1441 28,1712
29,891 30,460 31,30 32,20
35,10 36,10 37,170 38,380
39,2642 40,821 41,2212 42,2072
43,360 44,60 45,10 50,10
51,40 52,90 53,60 54,591
55,500 56,9999 57,571 58,230
59,10 65,10 66,10 67,20
68,20 70,911 71,230 72,60
73,10 76,10 77,10 78,10
79,10 80,30 81,10 82,30
83,20 84,10 94,10 95,10
96,40 97,3143 98,180 111,20
112,3153 113,210 114,10
##END=
