##TITLE=Propanal, oxime
##JCAMP-DX=4.24
##DATA TYPE=MASS SPECTRUM
##ORIGIN=Organic Synthesis Lab, MSU, Moscow.TRC 1461
##OWNER=NIST Mass Spectrometry Data Center
Collection (C) 2014 copyright by the U.S. Secretary of Commerce
on behalf of the United States of America. All rights reserved.
##CAS REGISTRY NO=627-39-4
##$NIST MASS SPEC NO=326792
##MOLFORM=C3 H7 N O
##MW=73
##$NIST SOURCE=MSDC
##XUNITS=M/Z
##YUNITS=RELATIVE INTENSITY
##XFACTOR=1
##YFACTOR=1
##FIRSTX=31
##LASTX=74
##FIRSTY=2339
##MAXX=74
##MINX=31
##MAXY=9999
##MINY=429
##NPOINTS=21
##PEAK TABLE=(XY..XY)
31,2339 37,739 38,1379 39,3619
40,1909 41,4249 42,959 43,1269
44,7869 45,3509 46,2229 51,849
52,849 54,4149 55,1059 56,7979
57,429 58,639 72,3189 73,9999
74,599
##END=
