##TITLE=1-Propanol, 3-chloro-
##JCAMP-DX=4.24
##DATA TYPE=MASS SPECTRUM
##ORIGIN=NIST Mass Spectrometry Data Center, 1990.
##OWNER=NIST Mass Spectrometry Data Center
Collection (C) 2014 copyright by the U.S. Secretary of Commerce
on behalf of the United States of America. All rights reserved.
##CAS REGISTRY NO=627-30-5
##$NIST MASS SPEC NO=113000
##MOLFORM=C3 H7 Cl O
##MW=94
##$NIST SOURCE=MSDC
##XUNITS=M/Z
##YUNITS=RELATIVE INTENSITY
##XFACTOR=1
##YFACTOR=1
##FIRSTX=14
##LASTX=95
##FIRSTY=168
##MAXX=95
##MINX=14
##MAXY=9999
##MINY=52
##NPOINTS=35
##PEAK TABLE=(XY..XY)
14,168 15,372 16,99 25,182
26,1538 27,4074 28,7344 29,4892
30,2087 31,9378 36,255 37,348
38,649 39,1376 40,567 41,1939
42,272 43,743 44,203 45,288
49,630 51,246 55,171 57,6392
58,9999 59,356 61,135 62,194
63,285 64,169 65,201 76,1445
78,444 93,153 95,52
##END=
