##TITLE=Acetic acid, ethoxy-
##JCAMP-DX=4.24
##DATA TYPE=MASS SPECTRUM
##ORIGIN=Japan AIST/NIMC Database- Spectrum MS-NW-5478
##OWNER=NIST Mass Spectrometry Data Center
Collection (C) 2014 copyright by the U.S. Secretary of Commerce
on behalf of the United States of America. All rights reserved.
##CAS REGISTRY NO=627-03-2
##$NIST MASS SPEC NO=235208
##MOLFORM=C4 H8 O3
##MW=104
##$NIST SOURCE=MSDC
##XUNITS=M/Z
##YUNITS=RELATIVE INTENSITY
##XFACTOR=1
##YFACTOR=1
##FIRSTX=12
##LASTX=103
##FIRSTY=10
##MAXX=103
##MINX=12
##MAXY=9999
##MINY=10
##NPOINTS=43
##PEAK TABLE=(XY..XY)
12,10 13,40 14,179 15,309
16,20 17,30 18,109 19,10
25,20 26,279 27,1539 28,539
29,3769 30,179 31,9999 32,139
33,20 36,20 39,10 41,329
42,689 43,689 44,159 45,1399
46,80 47,30 55,10 56,10
57,60 58,40 59,5269 60,2809
61,779 62,30 70,10 73,20
75,30 77,10 86,179 87,10
88,70 89,20 103,10
##END=
