##TITLE=Octadecanoic acid, 1,2-ethanediyl ester
##JCAMP-DX=4.24
##DATA TYPE=MASS SPECTRUM
##ORIGIN=R.T.HOLMAN,UNIVERSITY OF MINNESOTA
##OWNER=NIST Mass Spectrometry Data Center
Collection (C) 2014 copyright by the U.S. Secretary of Commerce
on behalf of the United States of America. All rights reserved.
##CAS REGISTRY NO=627-83-8
##$NIST MASS SPEC NO=36041
##MOLFORM=C38 H74 O4
##MW=594
##$NIST SOURCE=MSDC
##XUNITS=M/Z
##YUNITS=RELATIVE INTENSITY
##XFACTOR=1
##YFACTOR=1
##FIRSTX=26
##LASTX=597
##FIRSTY=60
##MAXX=597
##MINX=26
##MAXY=9999
##MINY=10
##NPOINTS=337
##PEAK TABLE=(XY..XY)
26,60 27,530 28,360 29,1380
30,50 31,70 32,30 33,20
34,20 35,20 36,10 37,20
38,30 39,360 40,100 41,2840
42,920 43,5380 44,290 45,290
46,30 47,30 48,20 49,10
50,30 51,30 52,20 53,170
54,360 55,3690 56,1070 57,4460
58,330 59,150 60,920 61,360
62,30 63,30 65,30 66,50
67,610 68,440 69,2230 70,690
71,2460 72,150 73,980 74,170
75,40 76,20 77,50 78,30
79,140 80,640 82,410 83,1690
84,2460 85,1530 86,1920 87,1690
88,110 89,40 90,20 91,50
92,30 93,130 94,110 95,690
96,360 97,1530 98,4070 99,3460
100,330 101,170 102,50 103,40
104,260 105,80 106,30 107,110
108,70 109,390 110,150 111,730
112,1460 113,420 114,90 115,170
116,70 117,180 118,30 119,30
120,20 121,160 122,60 123,230
124,110 125,300 126,300 127,190
128,70 129,340 130,60 131,50
132,20 133,30 134,20 135,130
136,60 137,110 138,60 139,130
140,130 141,300 142,90 143,90
144,50 145,130 146,70 147,30
148,10 149,60 150,30 151,60
152,60 153,80 154,140 155,630
156,150 157,100 158,30 159,60
160,40 161,30 162,10 163,50
164,30 165,50 166,50 167,60
168,100 169,200 170,60 171,80
172,30 173,40 174,190 175,30
176,20 177,30 178,20 179,30
180,50 181,60 182,100 183,210
184,70 185,150 186,30 187,50
188,60 189,30 190,20 191,20
192,10 193,20 194,30 195,60
196,110 197,250 198,60 199,60
200,20 201,30 202,40 203,20
204,20 205,30 206,20 207,20
208,20 209,60 210,130 211,320
212,70 213,40 214,30 215,40
220,30 221,30 222,70 223,70
224,110 225,210 226,60 227,60
228,30 229,40 230,50 235,30
236,30 237,50 238,50 239,160
240,60 241,190 242,60 243,30
244,30 245,20 246,10 247,40
248,40 249,40 250,20 251,30
252,30 253,160 254,60 255,60
256,20 257,30 258,30 264,100
265,160 266,670 267,3690 268,840
269,110 270,20 271,30 272,20
273,10 274,10 280,30 281,150
282,140 283,160 284,320 285,150
286,60 287,30 288,60 289,30
290,20 291,20 292,20 293,30
294,20 295,80 296,60 297,100
298,60 299,30 300,30 301,30
302,20 308,90 309,370 310,2150
311,9999 312,2380 313,300 314,60
315,30 316,20 320,10 321,30
322,30 323,20 324,30 325,40
326,30 327,60 328,130 329,1530
330,310 331,70 335,50 336,50
337,30 338,30 339,30 340,20
341,20 342,10 343,10 350,30
351,30 352,130 353,50 354,20
355,160 356,130 357,30 358,20
366,30 367,20 368,10 370,160
371,60 372,20 373,10 380,60
381,30 382,10 394,30 395,20
396,10 398,30 399,30 400,10
408,30 412,30 422,30 426,20
436,30 440,20 450,30 451,20
454,20 464,30 465,20 468,20
478,30 479,20 480,10 531,30
532,20 533,10 577,30 578,30
579,20 594,34 595,50 596,30
597,20
##END=
