##TITLE=Carbonochloridic acid, 2-chloroethyl ester
##JCAMP-DX=4.24
##DATA TYPE=MASS SPECTRUM
##ORIGIN=Japan AIST/NIMC Database- Spectrum MS-NW-7376
##OWNER=NIST Mass Spectrometry Data Center
Collection (C) 2014 copyright by the U.S. Secretary of Commerce
on behalf of the United States of America. All rights reserved.
##CAS REGISTRY NO=627-11-2
##$NIST MASS SPEC NO=230180
##MOLFORM=C3 H4 Cl2 O2
##MW=142
##$NIST SOURCE=MSDC
##XUNITS=M/Z
##YUNITS=RELATIVE INTENSITY
##XFACTOR=1
##YFACTOR=1
##FIRSTX=13
##LASTX=127
##FIRSTY=10
##MAXX=127
##MINX=13
##MAXY=9999
##MINY=10
##NPOINTS=65
##PEAK TABLE=(XY..XY)
13,10 14,50 15,70 18,10
25,60 26,459 27,3909 28,259
29,509 30,309 31,269 32,10
35,339 36,159 37,119 38,60
39,10 41,40 42,119 43,159
44,469 45,99 47,109 48,129
49,849 50,189 51,319 52,40
53,70 54,20 56,10 57,40
58,10 60,50 61,229 62,9389
63,9999 64,3179 65,3299 66,70
67,10 69,10 76,30 77,399
78,30 79,169 80,10 81,109
82,10 83,40 84,10 92,10
93,5369 94,139 95,1749 96,40
97,10 106,70 107,159 108,30
109,60 113,50 115,30 125,50
127,20
##END=
