##TITLE=2-Chloroethyl methyl ether
##JCAMP-DX=4.24
##DATA TYPE=MASS SPECTRUM
##ORIGIN=Chuck Anderson, Aldrich Chemical Co.
##OWNER=NIST Mass Spectrometry Data Center
Collection (C) 2014 copyright by the U.S. Secretary of Commerce
on behalf of the United States of America. All rights reserved.
##CAS REGISTRY NO=627-42-9
##$NIST MASS SPEC NO=108177
##MOLFORM=C3 H7 Cl O
##MW=94
##$NIST SOURCE=MSDC
##XUNITS=M/Z
##YUNITS=RELATIVE INTENSITY
##XFACTOR=1
##YFACTOR=1
##FIRSTX=13
##LASTX=97
##FIRSTY=10
##MAXX=97
##MINX=13
##MAXY=9999
##MINY=1
##NPOINTS=51
##PEAK TABLE=(XY..XY)
13,10 14,58 15,644 16,14
17,17 25,14 26,154 27,691
28,161 29,937 30,58 31,242
32,3 33,21 35,20 36,13
37,9 38,5 39,8 40,4
41,27 42,103 43,591 45,9999
46,219 47,54 48,46 49,274
50,43 51,87 52,9 53,3
57,11 58,24 59,10 60,15
61,45 62,68 63,267 64,26
65,80 66,1 76,7 77,9
78,5 79,3 93,20 94,671
95,27 96,232 97,8
##END=
