##TITLE=Mercury, diethyl-
##JCAMP-DX=4.24
##DATA TYPE=MASS SPECTRUM
##ORIGIN=NATIONAL BUREAU OF STANDARDS, WASHINGTON D.C., USA
##OWNER=NIST Mass Spectrometry Data Center
Collection (C) 2014 copyright by the U.S. Secretary of Commerce
on behalf of the United States of America. All rights reserved.
##CAS REGISTRY NO=627-44-1
##$NIST MASS SPEC NO=34447
##MOLFORM=C4 H10 Hg
##MW=260
##$NIST SOURCE=MSDC
##XUNITS=M/Z
##YUNITS=RELATIVE INTENSITY
##XFACTOR=1
##YFACTOR=1
##FIRSTX=13
##LASTX=262
##FIRSTY=16
##MAXX=262
##MINX=13
##MAXY=9999
##MINY=2
##NPOINTS=76
##PEAK TABLE=(XY..XY)
13,16 14,81 15,111 16,2
24,5 25,32 26,590 27,2890
28,1130 29,9999 37,10 38,16
39,65 40,6 41,121 42,19
43,237 49,2 50,6 51,6
52,2 53,6 54,2 55,10
56,8 57,11 58,79 98,2
99,4 100,8 101,10 102,3
196,4 198,174 199,332 200,470
201,317 202,575 203,114 204,125
205,26 211,6 212,24 213,42
214,55 215,47 216,54 217,23
218,11 219,5 224,6 225,21
226,38 227,313 228,533 229,700
230,481 231,810 232,119 233,176
234,22 240,3 241,7 242,8
243,7 244,10 245,7 246,3
247,2 256,215 257,363 258,504
259,284 260,639 261,3 262,147
##END=
