##TITLE=Propane, 1-ethoxy-2-methyl-
##JCAMP-DX=4.24
##DATA TYPE=MASS SPECTRUM
##OWNER=NIST Mass Spectrometry Data Center
Collection (C) 2014 copyright by the U.S. Secretary of Commerce
on behalf of the United States of America. All rights reserved.
##CAS REGISTRY NO=627-02-1
##$NIST MASS SPEC NO=1184
##MOLFORM=C6 H14 O
##MW=102
##$NIST SOURCE=MSDC
##XUNITS=M/Z
##YUNITS=RELATIVE INTENSITY
##XFACTOR=1
##YFACTOR=1
##FIRSTX=2
##LASTX=104
##FIRSTY=30
##MAXX=104
##MINX=2
##MAXY=9999
##MINY=10
##NPOINTS=66
##PEAK TABLE=(XY..XY)
2,30 12,20 13,50 14,220
15,1161 16,60 17,10 18,10
19,10 25,20 26,420 27,3023
28,641 29,4264 30,220 31,7637
32,90 33,130 35,10 36,10
37,60 38,140 39,1391 40,210
41,2522 42,661 43,10 44,1501
45,530 46,10 47,10 49,10
50,50 51,60 52,40 53,70
54,20 55,400 56,440 57,1341
58,130 59,9999 60,340 61,180
62,10 63,10 69,10 70,10
71,20 72,10 73,841 74,20
75,10 76,10 77,10 78,100
79,10 83,10 85,10 86,10
87,30 88,10 101,40 102,701
103,50 104,10
##END=
