##TITLE=Propane, 1,3-diiodo-
##JCAMP-DX=4.24
##DATA TYPE=MASS SPECTRUM
##ORIGIN=RADIAN CORP
##OWNER=NIST Mass Spectrometry Data Center
Collection (C) 2014 copyright by the U.S. Secretary of Commerce
on behalf of the United States of America. All rights reserved.
##CAS REGISTRY NO=627-31-6
##$NIST MASS SPEC NO=73366
##MOLFORM=C3 H6 I2
##MW=296
##$NIST SOURCE=MSDC
##XUNITS=M/Z
##YUNITS=RELATIVE INTENSITY
##XFACTOR=1
##YFACTOR=1
##FIRSTX=15
##LASTX=296
##FIRSTY=280
##MAXX=296
##MINX=15
##MAXY=9999
##MINY=10
##NPOINTS=22
##PEAK TABLE=(XY..XY)
15,280 25,50 26,390 27,1510
36,30 37,460 38,900 39,5720
40,740 41,9999 42,1540 43,30
127,3610 128,570 129,10 139,120
141,1370 153,60 155,120 169,9350
254,480 296,1820
##END=
