##TITLE=Propane, 1-isocyano-
##JCAMP-DX=4.24
##DATA TYPE=MASS SPECTRUM
##ORIGIN=W HEERMA
##OWNER=NIST Mass Spectrometry Data Center
Collection (C) 2014 copyright by the U.S. Secretary of Commerce
on behalf of the United States of America. All rights reserved.
##CAS REGISTRY NO=627-36-1
##$NIST MASS SPEC NO=36735
##MOLFORM=C4 H7 N
##MW=69
##$NIST SOURCE=MSDC
##XUNITS=M/Z
##YUNITS=RELATIVE INTENSITY
##XFACTOR=1
##YFACTOR=1
##FIRSTX=12
##LASTX=70
##FIRSTY=38
##MAXX=70
##MINX=12
##MAXY=9999
##MINY=38
##NPOINTS=26
##PEAK TABLE=(XY..XY)
12,38 13,38 14,153 15,314
25,65 26,648 27,3677 28,2538
29,4850 36,65 37,268 38,460
39,1572 40,932 41,9999 42,4133
43,817 51,192 52,387 53,54
54,3048 64,130 66,100 68,1231
69,778 70,54
##END=
