##TITLE=Divinyl sulfide
##JCAMP-DX=4.24
##DATA TYPE=MASS SPECTRUM
##ORIGIN=A.A.Kutin, Moscow, Russia
##OWNER=NIST Mass Spectrometry Data Center
Collection (C) 2014 copyright by the U.S. Secretary of Commerce
on behalf of the United States of America. All rights reserved.
##CAS REGISTRY NO=627-51-0
##$NIST MASS SPEC NO=273378
##MOLFORM=C4 H6 S
##MW=86
##$NIST SOURCE=MSDC
##XUNITS=M/Z
##YUNITS=RELATIVE INTENSITY
##XFACTOR=1
##YFACTOR=1
##FIRSTX=25
##LASTX=88
##FIRSTY=1141
##MAXX=88
##MINX=25
##MAXY=9999
##MINY=200
##NPOINTS=22
##PEAK TABLE=(XY..XY)
25,1141 26,731 27,2032 34,200
41,561 43,420 45,3894 46,330
47,300 53,500 56,290 57,1051
58,2712 59,3964 60,1601 61,430
62,270 71,641 85,9999 86,6886
87,1001 88,500
##END=
