##TITLE=Urea, propyl-
##JCAMP-DX=4.24
##DATA TYPE=MASS SPECTRUM
##ORIGIN=RADIAN CORP
##OWNER=NIST Mass Spectrometry Data Center
Collection (C) 2014 copyright by the U.S. Secretary of Commerce
on behalf of the United States of America. All rights reserved.
##CAS REGISTRY NO=627-06-5
##$NIST MASS SPEC NO=73558
##MOLFORM=C4 H10 N2 O
##MW=102
##$NIST SOURCE=MSDC
##XUNITS=M/Z
##YUNITS=RELATIVE INTENSITY
##XFACTOR=1
##YFACTOR=1
##FIRSTX=27
##LASTX=102
##FIRSTY=210
##MAXX=102
##MINX=27
##MAXY=9999
##MINY=40
##NPOINTS=9
##PEAK TABLE=(XY..XY)
27,210 30,9999 41,840 43,190
44,4790 73,5690 77,40 87,2640
102,1730
##END=
