##TITLE=Morpholine, 4-(oxiranylmethyl)-
##JCAMP-DX=4.24
##DATA TYPE=MASS SPECTRUM
##ORIGIN=NIST Mass Spectrometry Data Center, 1994
##OWNER=NIST Mass Spectrometry Data Center
Collection (C) 2014 copyright by the U.S. Secretary of Commerce
on behalf of the United States of America. All rights reserved.
##CAS REGISTRY NO=6270-19-5
##$NIST MASS SPEC NO=134575
##MOLFORM=C7 H13 N O2
##MW=143
##$NIST SOURCE=MSDC
##XUNITS=M/Z
##YUNITS=RELATIVE INTENSITY
##XFACTOR=1
##YFACTOR=1
##FIRSTX=14
##LASTX=144
##FIRSTY=180
##MAXX=144
##MINX=14
##MAXY=9999
##MINY=19
##NPOINTS=54
##PEAK TABLE=(XY..XY)
14,180 15,1254 16,32 18,65
26,470 27,2429 28,3616 29,2825
30,1205 31,1296 37,22 38,66
39,378 40,251 41,1480 42,4810
43,712 44,373 45,175 46,19
51,20 52,113 53,96 54,906
55,1600 56,3601 57,3139 58,303
59,43 68,541 69,104 70,924
71,166 72,301 73,19 80,21
82,136 83,112 84,448 85,199
86,182 87,245 94,21 96,25
98,315 100,9999 101,538 102,37
111,34 112,116 113,23 124,22
143,976 144,76
##END=
