##TITLE=p-Pentyloxycinnamic acid
##JCAMP-DX=4.24
##DATA TYPE=MASS SPECTRUM
##ORIGIN=NIST Mass Spectrometry Data Center, 1994
##OWNER=NIST Mass Spectrometry Data Center
Collection (C) 2014 copyright by the U.S. Secretary of Commerce
on behalf of the United States of America. All rights reserved.
##CAS REGISTRY NO=62718-63-2
##$NIST MASS SPEC NO=135737
##MOLFORM=C14 H18 O3
##MW=234
##$NIST SOURCE=MSDC
##XUNITS=M/Z
##YUNITS=RELATIVE INTENSITY
##XFACTOR=1
##YFACTOR=1
##FIRSTX=14
##LASTX=236
##FIRSTY=20
##MAXX=236
##MINX=14
##MAXY=9999
##MINY=20
##NPOINTS=83
##PEAK TABLE=(XY..XY)
14,20 15,87 17,45 18,121
26,93 27,1371 28,199 29,1643
30,61 31,70 38,218 39,1266
40,203 41,1693 42,283 43,1893
44,143 45,206 50,293 51,493
52,166 53,358 54,62 55,461
62,178 63,660 64,304 65,1026
66,207 67,99 68,62 69,372
71,105 73,95 74,102 75,201
76,296 77,1193 78,162 79,670
80,92 89,883 90,367 91,1173
92,192 93,79 94,577 95,181
101,230 102,314 103,127 105,168
107,603 108,111 115,83 117,175
118,1306 119,994 120,334 121,210
122,90 123,123 125,82 131,74
133,128 135,1173 136,429 146,401
147,2279 148,232 152,75 163,2673
164,9999 165,1104 166,127 170,111
177,187 206,72 217,94 225,89
234,2038 235,314 236,22
##END=
