##TITLE=Trimethylzeatin
##JCAMP-DX=4.24
##DATA TYPE=MASS SPECTRUM
##ORIGIN=G.C. MARTIN, DEP. POMOL., CALIF. UNIV., DAVIS, CALIF., USA
##OWNER=NIST Mass Spectrometry Data Center
Collection (C) 2014 copyright by the U.S. Secretary of Commerce
on behalf of the United States of America. All rights reserved.
##CAS REGISTRY NO=62747-81-3
##$NIST MASS SPEC NO=101028
##MOLFORM=C13 H19 N5 O
##MW=261
##$NIST SOURCE=MSDC
##XUNITS=M/Z
##YUNITS=RELATIVE INTENSITY
##XFACTOR=1
##YFACTOR=1
##FIRSTX=45
##LASTX=261
##FIRSTY=2530
##MAXX=261
##MINX=45
##MAXY=9999
##MINY=20
##NPOINTS=88
##PEAK TABLE=(XY..XY)
45,2530 50,330 51,430 53,1030
59,1020 60,1000 61,720 63,1030
67,740 70,460 71,570 72,250
73,2210 74,320 75,2570 76,40
77,3100 80,1020 83,890 84,90
86,660 90,170 92,830 93,180
94,1020 95,160 98,800 99,700
102,140 103,1140 108,700 109,270
110,240 111,1120 113,260 115,830
116,500 117,260 119,890 121,690
123,730 125,1500 126,180 128,340
130,510 131,110 132,340 133,1200
134,1090 135,60 137,220 139,60
140,80 141,450 142,120 148,590
149,1980 151,210 162,1310 163,20
165,100 173,420 174,170 176,1020
177,650 178,180 183,310 186,220
187,830 188,1000 189,50 190,460
191,1470 192,330 193,760 194,880
198,170 205,960 210,70 211,120
218,630 222,110 228,680 229,400
230,9999 231,2080 235,70 261,850
##END=
