##TITLE=Diethyl 2-methylbenzylphosphonate
##JCAMP-DX=4.24
##DATA TYPE=MASS SPECTRUM
##ORIGIN=NIST Mass Spectrometry Data Center
##OWNER=NIST Mass Spectrometry Data Center
Collection (C) 2014 copyright by the U.S. Secretary of Commerce
on behalf of the United States of America. All rights reserved.
##CAS REGISTRY NO=62778-16-9
##$NIST MASS SPEC NO=343322
##MOLFORM=C12 H19 O3 P
##MW=242
##$NIST SOURCE=MSDC
##XUNITS=M/Z
##YUNITS=RELATIVE INTENSITY
##XFACTOR=1
##YFACTOR=1
##FIRSTX=12
##LASTX=244
##FIRSTY=10
##MAXX=244
##MINX=12
##MAXY=9999
##MINY=10
##NPOINTS=113
##PEAK TABLE=(XY..XY)
12,10 13,10 14,30 15,370
16,30 17,20 18,80 19,60
26,460 27,3243 28,851 29,3934
30,120 31,140 37,10 39,1111
40,120 41,190 43,300 44,30
45,260 47,360 48,30 49,30
50,290 51,1111 52,370 53,470
54,20 55,40 61,20 62,100
63,561 64,200 65,1491 66,70
67,10 74,50 75,140 77,3883
78,2272 79,2672 81,1752 82,100
83,60 87,30 89,260 91,2562
92,220 93,390 94,20 96,400
97,971 98,30 99,10 102,470
103,2833 104,7747 105,9999 106,1762
107,190 109,671 110,30 111,30
115,50 116,50 117,350 118,140
119,1672 120,200 121,290 122,20
124,1391 125,60 126,10 129,20
131,410 132,2502 133,631 134,70
136,10 137,100 147,60 149,150
150,50 151,20 153,10 160,50
161,10 167,550 168,260 169,50
171,20 181,30 183,20 185,1952
186,3403 187,340 188,30 195,20
196,20 197,10 199,641 200,70
213,871 214,1351 215,160 216,10
227,180 228,20 242,2783 243,350
244,40
##END=
