##TITLE=p-Cresol, TBDMS derivative
##JCAMP-DX=4.24
##DATA TYPE=MASS SPECTRUM
##ORIGIN=John Halket,Royal Holloway, University of London, UK
##OWNER=NIST Mass Spectrometry Data Center
Collection (C) 2014 copyright by the U.S. Secretary of Commerce
on behalf of the United States of America. All rights reserved.
##CAS REGISTRY NO=62790-85-6
##$NIST MASS SPEC NO=331762
##MOLFORM=C13 H22 O Si
##MW=222
##$NIST SOURCE=MSDC
##XUNITS=M/Z
##YUNITS=RELATIVE INTENSITY
##XFACTOR=1
##YFACTOR=1
##FIRSTX=15
##LASTX=225
##FIRSTY=10
##MAXX=225
##MINX=15
##MAXY=9999
##MINY=10
##NPOINTS=120
##PEAK TABLE=(XY..XY)
15,10 26,10 27,90 29,230
30,10 31,30 38,10 39,240
40,30 41,380 42,60 43,230
44,30 45,280 46,20 47,100
48,10 50,40 51,120 52,50
53,90 54,20 55,70 56,30
57,260 58,100 59,510 60,50
61,90 62,30 63,120 64,40
65,530 66,40 67,70 68,90
69,60 70,10 71,30 73,500
74,80 75,871 76,80 77,320
78,90 79,200 80,20 81,50
82,200 83,150 84,10 85,70
86,10 87,10 89,200 90,130
91,2022 92,210 93,50 95,140
96,20 97,70 98,10 99,40
102,10 103,130 104,50 105,500
106,50 107,110 108,20 109,330
110,40 111,30 115,20 117,20
119,50 120,10 121,70 122,20
123,40 124,10 125,10 131,30
132,10 133,80 135,831 136,120
137,140 138,20 139,10 145,80
146,20 147,80 148,50 149,741
150,170 151,290 152,40 153,10
161,60 162,20 163,280 165,9999
166,3243 167,881 168,110 169,10
175,10 177,10 191,20 205,10
207,140 208,30 209,10 220,20
222,2823 223,571 224,150 225,20
##END=
