##TITLE=Dimethyl-(isopropyl)-silyloxybenzene
##JCAMP-DX=4.24
##DATA TYPE=MASS SPECTRUM
##ORIGIN=Zaikin V.G., TIPS RAS, Moscow, Russia
##OWNER=NIST Mass Spectrometry Data Center
Collection (C) 2014 copyright by the U.S. Secretary of Commerce
on behalf of the United States of America. All rights reserved.
##CAS REGISTRY NO=62790-74-3
##$NIST MASS SPEC NO=292670
##MOLFORM=C11 H18 O Si
##MW=194
##$NIST SOURCE=MSDC
##XUNITS=M/Z
##YUNITS=RELATIVE INTENSITY
##XFACTOR=1
##YFACTOR=1
##FIRSTX=39
##LASTX=196
##FIRSTY=30
##MAXX=196
##MINX=39
##MAXY=9999
##MINY=30
##NPOINTS=29
##PEAK TABLE=(XY..XY)
39,30 43,60 45,100 47,30
51,90 59,100 61,40 65,40
73,60 75,350 76,40 77,310
78,30 91,230 95,180 121,180
123,60 135,200 136,30 137,170
149,40 151,9999 152,1101 153,350
163,30 179,90 194,1241 195,210
196,50
##END=
