##TITLE=m-Cresol, TBDMS derivative
##JCAMP-DX=4.24
##DATA TYPE=MASS SPECTRUM
##ORIGIN=Zaikin V.G., TIPS RAS, Moscow, Russia
##OWNER=NIST Mass Spectrometry Data Center
Collection (C) 2014 copyright by the U.S. Secretary of Commerce
on behalf of the United States of America. All rights reserved.
##CAS REGISTRY NO=62790-75-4
##$NIST MASS SPEC NO=307919
##MOLFORM=C13 H22 O Si
##MW=222
##$NIST SOURCE=MSDC
##XUNITS=M/Z
##YUNITS=RELATIVE INTENSITY
##XFACTOR=1
##YFACTOR=1
##FIRSTX=28
##LASTX=224
##FIRSTY=40
##MAXX=224
##MINX=28
##MAXY=9999
##MINY=30
##NPOINTS=26
##PEAK TABLE=(XY..XY)
28,40 59,50 65,30 73,60
75,140 79,30 91,571 92,40
105,90 109,80 135,230 136,30
137,40 149,250 150,50 151,110
163,80 164,50 165,9999 166,2012
167,561 168,50 207,150 222,1982
223,380 224,90
##END=
