##TITLE=5-Aminohexanoic acid
##JCAMP-DX=4.24
##DATA TYPE=MASS SPECTRUM
##ORIGIN=Leung Pu, NIH, Bethesda, Maryland, U.S.
##OWNER=NIST Mass Spectrometry Data Center
Collection (C) 2014 copyright by the U.S. Secretary of Commerce
on behalf of the United States of America. All rights reserved.
##CAS REGISTRY NO=628-47-7
##$NIST MASS SPEC NO=127545
##MOLFORM=C6 H13 N O2
##MW=131
##$NIST SOURCE=MSDC
##XUNITS=M/Z
##YUNITS=RELATIVE INTENSITY
##XFACTOR=1
##YFACTOR=1
##FIRSTX=41
##LASTX=133
##FIRSTY=6984
##MAXX=133
##MINX=41
##MAXY=9999
##MINY=30
##NPOINTS=70
##PEAK TABLE=(XY..XY)
41,6984 42,4281 43,3223 44,3681
45,9999 46,410 47,52 50,217
51,334 52,222 53,608 54,641
55,3369 56,2514 57,587 58,216
59,1533 60,843 61,39 63,90
64,30 65,242 66,60 67,1434
68,457 69,1730 70,455 71,364
72,5009 73,1432 74,246 76,67
77,272 78,451 79,237 80,89
81,108 82,190 83,249 84,709
85,302 86,1050 87,148 89,42
91,176 92,31 94,107 95,254
96,146 97,199 98,80 99,158
100,83 103,90 105,106 106,159
107,107 108,39 112,393 113,176
114,1678 115,246 116,81 117,73
127,39 128,185 129,1193 131,3067
132,260 133,39
##END=
