##TITLE=Thiocyanic acid, butyl ester
##JCAMP-DX=4.24
##DATA TYPE=MASS SPECTRUM
##OWNER=NIST Mass Spectrometry Data Center
Collection (C) 2014 copyright by the U.S. Secretary of Commerce
on behalf of the United States of America. All rights reserved.
##CAS REGISTRY NO=628-83-1
##$NIST MASS SPEC NO=29285
##MOLFORM=C5 H9 N S
##MW=115
##$NIST SOURCE=MSDC
##XUNITS=M/Z
##YUNITS=RELATIVE INTENSITY
##XFACTOR=1
##YFACTOR=1
##FIRSTX=26
##LASTX=116
##FIRSTY=481
##MAXX=116
##MINX=26
##MAXY=9999
##MINY=240
##NPOINTS=25
##PEAK TABLE=(XY..XY)
26,481 27,3846 28,1442 29,8989
39,1683 40,2356 41,9999 42,481
43,673 45,769 46,529 55,1106
56,2211 57,6826 58,385 59,817
60,625 72,481 86,385 87,721
88,288 100,481 114,433 115,2404
116,240
##END=
