##TITLE=Hexanenitrile
##JCAMP-DX=4.24
##DATA TYPE=MASS SPECTRUM
##ORIGIN=Japan AIST/NIMC Database- Spectrum MS-NW-1009
##OWNER=NIST Mass Spectrometry Data Center
Collection (C) 2014 copyright by the U.S. Secretary of Commerce
on behalf of the United States of America. All rights reserved.
##CAS REGISTRY NO=628-73-9
##$NIST MASS SPEC NO=228551
##MOLFORM=C6 H11 N
##MW=97
##$NIST SOURCE=MSDC
##XUNITS=M/Z
##YUNITS=RELATIVE INTENSITY
##XFACTOR=1
##YFACTOR=1
##FIRSTX=13
##LASTX=98
##FIRSTY=10
##MAXX=98
##MINX=13
##MAXY=9999
##MINY=10
##NPOINTS=46
##PEAK TABLE=(XY..XY)
13,10 14,30 15,239 25,10
26,449 27,3329 28,899 29,4299
30,159 37,139 38,289 39,2189
40,489 41,9999 42,1369 43,2759
44,90 49,10 50,129 51,199
52,269 53,359 54,8169 55,4179
56,439 57,3219 58,139 61,20
62,20 63,30 64,70 65,40
66,109 67,109 68,3039 69,2299
70,379 71,139 79,80 80,70
81,20 82,2449 83,129 96,1199
97,80 98,10
##END=
