##TITLE=2-Octanol, 2-methyl-
##JCAMP-DX=4.24
##DATA TYPE=MASS SPECTRUM
##ORIGIN=NIST Mass Spectrometry Data Center, 1990.
##OWNER=NIST Mass Spectrometry Data Center
Collection (C) 2014 copyright by the U.S. Secretary of Commerce
on behalf of the United States of America. All rights reserved.
##CAS REGISTRY NO=628-44-4
##$NIST MASS SPEC NO=113703
##MOLFORM=C9 H20 O
##MW=144
##$NIST SOURCE=MSDC
##XUNITS=M/Z
##YUNITS=RELATIVE INTENSITY
##XFACTOR=1
##YFACTOR=1
##FIRSTX=15
##LASTX=130
##FIRSTY=115
##MAXX=130
##MINX=15
##MAXY=9999
##MINY=50
##NPOINTS=29
##PEAK TABLE=(XY..XY)
15,115 27,666 28,441 29,806
30,115 31,723 32,68 39,569
41,1506 42,273 43,2004 44,93
45,416 53,142 55,747 56,659
57,438 58,93 59,9999 60,346
67,80 69,1612 70,167 71,352
84,50 85,142 111,70 129,916
130,84
##END=
