##TITLE=1,2-Hydrazinedicarboxaldehyde
##JCAMP-DX=4.24
##DATA TYPE=MASS SPECTRUM
##ORIGIN=Japan AIST/NIMC Database- Spectrum MS-NW-6351
##OWNER=NIST Mass Spectrometry Data Center
Collection (C) 2014 copyright by the U.S. Secretary of Commerce
on behalf of the United States of America. All rights reserved.
##CAS REGISTRY NO=628-36-4
##$NIST MASS SPEC NO=235117
##MOLFORM=C2 H4 N2 O2
##MW=88
##$NIST SOURCE=MSDC
##XUNITS=M/Z
##YUNITS=RELATIVE INTENSITY
##XFACTOR=1
##YFACTOR=1
##FIRSTX=12
##LASTX=90
##FIRSTY=40
##MAXX=90
##MINX=12
##MAXY=9999
##MINY=10
##NPOINTS=32
##PEAK TABLE=(XY..XY)
12,40 13,50 14,40 15,99
16,659 17,439 18,409 26,40
27,299 28,719 29,5959 30,1079
31,8389 32,9999 33,60 41,50
42,279 43,769 44,699 45,699
46,30 56,10 59,70 60,4169
61,229 62,10 70,50 71,20
87,10 88,3329 89,129 90,10
##END=
