##TITLE=1-Heptyne
##JCAMP-DX=4.24
##DATA TYPE=MASS SPECTRUM
##ORIGIN=Japan AIST/NIMC Database- Spectrum MS-IW-5640
##OWNER=NIST Mass Spectrometry Data Center
Collection (C) 2014 copyright by the U.S. Secretary of Commerce
on behalf of the United States of America. All rights reserved.
##CAS REGISTRY NO=628-71-7
##$NIST MASS SPEC NO=231489
##MOLFORM=C7 H12
##MW=96
##$NIST SOURCE=MSDC
##XUNITS=M/Z
##YUNITS=RELATIVE INTENSITY
##XFACTOR=1
##YFACTOR=1
##FIRSTX=15
##LASTX=96
##FIRSTY=50
##MAXX=96
##MINX=15
##MAXY=9999
##MINY=10
##NPOINTS=51
##PEAK TABLE=(XY..XY)
15,50 26,129 27,1839 28,379
29,4569 30,109 37,99 38,289
39,2979 40,1169 41,7059 42,799
43,399 44,10 45,99 49,30
50,339 51,589 52,339 53,1789
54,3539 55,5099 56,2609 57,2839
58,129 61,40 62,90 63,179
64,30 65,709 66,309 67,4399
68,3019 69,209 70,209 71,20
74,20 75,10 77,319 78,50
79,1059 80,129 81,9999 82,729
83,20 91,90 92,10 93,70
94,20 95,939 96,99
##END=
