##TITLE=Carbonochloridic acid, 3-chloropropyl ester
##JCAMP-DX=4.24
##DATA TYPE=MASS SPECTRUM
##ORIGIN=NIST Mass Spectrometry Data Center, 2010
##OWNER=NIST Mass Spectrometry Data Center
Collection (C) 2014 copyright by the U.S. Secretary of Commerce
on behalf of the United States of America. All rights reserved.
##CAS REGISTRY NO=628-11-5
##$NIST MASS SPEC NO=375849
##MOLFORM=C4 H6 Cl2 O2
##MW=156
##$NIST SOURCE=MSDC
##XUNITS=M/Z
##YUNITS=RELATIVE INTENSITY
##XFACTOR=1
##YFACTOR=1
##FIRSTX=14
##LASTX=155
##FIRSTY=30
##MAXX=155
##MINX=14
##MAXY=9999
##MINY=10
##NPOINTS=77
##PEAK TABLE=(XY..XY)
14,30 15,80 16,20 25,40
26,470 27,1551 28,1591 29,1121
30,180 31,130 35,330 36,170
37,330 38,420 39,2432 40,611
41,9999 42,591 43,90 44,1621
45,240 46,10 47,90 48,90
49,1601 50,70 51,550 52,10
53,30 54,10 55,70 56,80
57,520 58,90 59,10 60,40
61,240 62,220 63,7277 64,260
65,2322 66,50 67,10 72,10
73,50 74,10 75,280 76,9418
77,2472 78,3103 79,751 80,40
81,420 82,10 83,130 84,20
85,90 86,10 89,10 91,50
92,30 93,3904 94,180 95,1221
96,60 97,10 99,20 101,10
107,190 108,10 109,60 112,10
119,10 120,30 121,10 122,10
155,10
##END=
