##TITLE=2-Nonanol
##JCAMP-DX=4.24
##DATA TYPE=MASS SPECTRUM
##ORIGIN=Japan AIST/NIMC Database- Spectrum MS-NW-4041
##OWNER=NIST Mass Spectrometry Data Center
Collection (C) 2014 copyright by the U.S. Secretary of Commerce
on behalf of the United States of America. All rights reserved.
##CAS REGISTRY NO=628-99-9
##$NIST MASS SPEC NO=232186
##MOLFORM=C9 H20 O
##MW=144
##$NIST SOURCE=MSDC
##XUNITS=M/Z
##YUNITS=RELATIVE INTENSITY
##XFACTOR=1
##YFACTOR=1
##FIRSTX=15
##LASTX=143
##FIRSTY=60
##MAXX=143
##MINX=15
##MAXY=9999
##MINY=10
##NPOINTS=54
##PEAK TABLE=(XY..XY)
15,60 18,20 26,20 27,559
28,40 29,649 30,20 31,119
38,10 39,339 40,70 41,1259
42,539 43,1299 44,599 45,9999
46,249 47,30 50,10 51,20
52,10 53,80 54,70 55,1349
56,839 57,739 58,139 59,60
65,10 67,80 68,60 69,1689
70,629 71,359 72,20 73,10
81,20 82,90 83,349 84,379
85,80 87,10 96,30 97,259
98,439 99,40 100,80 111,239
112,20 126,189 127,20 129,209
130,20 143,30
##END=
