##TITLE=Isobutyl ether
##JCAMP-DX=4.24
##DATA TYPE=MASS SPECTRUM
##ORIGIN=Japan AIST/NIMC Database- Spectrum MS-NW- 971
##OWNER=NIST Mass Spectrometry Data Center
Collection (C) 2014 copyright by the U.S. Secretary of Commerce
on behalf of the United States of America. All rights reserved.
##CAS REGISTRY NO=628-55-7
##$NIST MASS SPEC NO=230221
##MOLFORM=C8 H18 O
##MW=130
##$NIST SOURCE=MSDC
##XUNITS=M/Z
##YUNITS=RELATIVE INTENSITY
##XFACTOR=1
##YFACTOR=1
##FIRSTX=15
##LASTX=131
##FIRSTY=30
##MAXX=131
##MINX=15
##MAXY=9999
##MINY=10
##NPOINTS=35
##PEAK TABLE=(XY..XY)
15,30 18,10 26,20 27,399
28,80 29,1239 30,30 31,99
38,10 39,419 40,70 41,1929
42,219 43,359 44,40 45,199
47,50 51,10 53,30 54,10
55,199 56,469 57,9999 58,459
59,169 69,10 71,10 72,10
73,99 87,819 88,70 89,10
101,40 130,259 131,20
##END=
