##TITLE=1,5-Hexadiyne
##JCAMP-DX=4.24
##DATA TYPE=MASS SPECTRUM
##ORIGIN=Japan AIST/NIMC Database- Spectrum MS-NW-4647
##OWNER=NIST Mass Spectrometry Data Center
Collection (C) 2014 copyright by the U.S. Secretary of Commerce
on behalf of the United States of America. All rights reserved.
##CAS REGISTRY NO=628-16-0
##$NIST MASS SPEC NO=231272
##MOLFORM=C6 H6
##MW=78
##$NIST SOURCE=MSDC
##XUNITS=M/Z
##YUNITS=RELATIVE INTENSITY
##XFACTOR=1
##YFACTOR=1
##FIRSTX=12
##LASTX=80
##FIRSTY=40
##MAXX=80
##MINX=12
##MAXY=9999
##MINY=10
##NPOINTS=48
##PEAK TABLE=(XY..XY)
12,40 13,20 14,10 15,20
24,30 25,109 26,429 27,709
28,219 29,20 31,20 32,20
35,10 36,159 37,1209 38,1969
39,9999 40,349 41,50 42,10
43,30 44,309 45,10 48,60
49,429 50,3629 51,5119 52,8019
53,379 54,10 55,20 56,20
57,40 60,60 61,169 62,239
63,1029 64,60 65,10 72,40
73,359 74,1169 75,509 76,1649
77,7599 78,9759 79,649 80,20
##END=
