##TITLE=Butane, 1-(methylthio)-
##JCAMP-DX=4.24
##DATA TYPE=MASS SPECTRUM
##OWNER=NIST Mass Spectrometry Data Center
Collection (C) 2014 copyright by the U.S. Secretary of Commerce
on behalf of the United States of America. All rights reserved.
##CAS REGISTRY NO=628-29-5
##$NIST MASS SPEC NO=1294
##MOLFORM=C5 H12 S
##MW=104
##$NIST SOURCE=MSDC
##XUNITS=M/Z
##YUNITS=RELATIVE INTENSITY
##XFACTOR=1
##YFACTOR=1
##FIRSTX=12
##LASTX=107
##FIRSTY=20
##MAXX=107
##MINX=12
##MAXY=9999
##MINY=10
##NPOINTS=75
##PEAK TABLE=(XY..XY)
12,20 13,40 14,140 15,711
16,20 25,20 26,390 27,3513
28,1071 29,3253 30,90 32,30
33,30 34,50 35,1041 36,20
37,100 38,120 39,1251 40,210
41,4924 42,230 43,270 44,40
45,1641 46,991 47,2262 48,2542
49,1641 50,210 51,170 52,40
53,180 54,100 55,1021 56,7086
57,1391 58,260 59,370 60,130
61,9999 62,1251 63,480 64,60
65,10 67,10 68,10 69,40
70,30 71,70 72,20 73,50
74,30 75,1661 76,100 77,80
78,10 79,10 81,10 82,10
83,10 84,10 85,30 86,10
87,20 88,10 89,390 90,20
91,30 92,10 103,50 104,4834
105,300 106,220 107,10
##END=
