##TITLE=Pentane, 1-nitro-
##JCAMP-DX=4.24
##DATA TYPE=MASS SPECTRUM
##ORIGIN=Japan AIST/NIMC Database- Spectrum MS-NW-7424
##OWNER=NIST Mass Spectrometry Data Center
Collection (C) 2014 copyright by the U.S. Secretary of Commerce
on behalf of the United States of America. All rights reserved.
##CAS REGISTRY NO=628-05-7
##$NIST MASS SPEC NO=238162
##MOLFORM=C5 H11 N O2
##MW=117
##$NIST SOURCE=MSDC
##XUNITS=M/Z
##YUNITS=RELATIVE INTENSITY
##XFACTOR=1
##YFACTOR=1
##FIRSTX=14
##LASTX=100
##FIRSTY=10
##MAXX=100
##MINX=14
##MAXY=9999
##MINY=10
##NPOINTS=52
##PEAK TABLE=(XY..XY)
14,10 15,70 26,169 27,2119
28,379 29,2789 30,559 31,269
32,20 37,50 38,119 39,1489
40,289 41,5209 42,1929 43,9999
44,369 45,779 46,179 49,10
50,60 51,99 52,40 53,249
54,99 55,1939 56,299 57,189
58,40 59,259 60,179 61,60
62,979 63,40 65,20 67,99
68,40 69,1199 70,649 71,1989
72,129 74,10 75,40 76,70
77,10 82,10 83,10 84,10
85,20 88,329 89,20 100,20
##END=
