##TITLE=1-Chloro-2-ethoxyethane
##JCAMP-DX=4.24
##DATA TYPE=MASS SPECTRUM
##ORIGIN=Japan AIST/NIMC Database- Spectrum MS-IW- 599
##OWNER=NIST Mass Spectrometry Data Center
Collection (C) 2014 copyright by the U.S. Secretary of Commerce
on behalf of the United States of America. All rights reserved.
##CAS REGISTRY NO=628-34-2
##$NIST MASS SPEC NO=237017
##MOLFORM=C4 H9 Cl O
##MW=108
##$NIST SOURCE=MSDC
##XUNITS=M/Z
##YUNITS=RELATIVE INTENSITY
##XFACTOR=1
##YFACTOR=1
##FIRSTX=14
##LASTX=111
##FIRSTY=40
##MAXX=111
##MINX=14
##MAXY=9999
##MINY=10
##NPOINTS=55
##PEAK TABLE=(XY..XY)
14,40 15,159 16,10 25,10
26,159 27,1709 28,419 29,2159
30,80 31,4959 32,70 33,10
35,10 36,50 38,20 39,10
41,629 42,80 43,449 44,99
45,609 46,10 47,10 48,20
49,119 50,40 51,40 52,10
57,10 58,20 59,9999 60,349
61,40 62,90 63,2249 64,80
65,719 66,20 72,10 73,40
77,10 78,10 79,189 80,10
81,90 83,10 88,10 93,259
94,10 95,80 107,40 108,1039
109,90 110,339 111,20
##END=
