##TITLE=Hexanamide
##JCAMP-DX=4.24
##DATA TYPE=MASS SPECTRUM
##ORIGIN=J.A.GILPIN DOW CHEMICAL CO., MIDLAND, MICHIGAN, USA
##OWNER=NIST Mass Spectrometry Data Center
Collection (C) 2014 copyright by the U.S. Secretary of Commerce
on behalf of the United States of America. All rights reserved.
##CAS REGISTRY NO=628-02-4
##$NIST MASS SPEC NO=20287
##MOLFORM=C6 H13 N O
##MW=115
##$NIST SOURCE=MSDC
##XUNITS=M/Z
##YUNITS=RELATIVE INTENSITY
##XFACTOR=1
##YFACTOR=1
##FIRSTX=15
##LASTX=116
##FIRSTY=40
##MAXX=116
##MINX=15
##MAXY=9999
##MINY=20
##NPOINTS=28
##PEAK TABLE=(XY..XY)
15,40 27,700 28,200 29,600
30,60 31,40 41,900 42,500
43,2400 44,2700 45,100 55,600
56,100 57,200 58,20 59,9999
60,300 71,200 72,1800 73,400
74,20 86,900 87,50 99,100
100,30 114,40 115,50 116,70
##END=
