##TITLE=Pentane, 1,5-diiodo-
##JCAMP-DX=4.24
##DATA TYPE=MASS SPECTRUM
##ORIGIN=RADIAN CORP
##OWNER=NIST Mass Spectrometry Data Center
Collection (C) 2014 copyright by the U.S. Secretary of Commerce
on behalf of the United States of America. All rights reserved.
##CAS REGISTRY NO=628-77-3
##$NIST MASS SPEC NO=70822
##MOLFORM=C5 H10 I2
##MW=324
##$NIST SOURCE=MSDC
##XUNITS=M/Z
##YUNITS=RELATIVE INTENSITY
##XFACTOR=1
##YFACTOR=1
##FIRSTX=15
##LASTX=324
##FIRSTY=80
##MAXX=324
##MINX=15
##MAXY=9999
##MINY=20
##NPOINTS=40
##PEAK TABLE=(XY..XY)
15,80 26,480 27,2140 29,460
37,230 38,600 39,4660 40,670
41,9999 42,1440 43,150 50,180
51,240 52,70 53,590 55,480
62,80 63,110 65,130 67,460
68,50 69,8420 70,670 77,30
105,20 127,4560 128,1680 129,80
139,50 140,60 141,1010 153,60
154,90 155,6770 156,160 167,40
169,860 197,9860 198,560 324,710
##END=
