##TITLE=ortho-Formylphenoxyacetic acid
##JCAMP-DX=4.24
##DATA TYPE=MASS SPECTRUM
##ORIGIN=Japan AIST/NIMC Database- Spectrum MS-IW- 713
##OWNER=NIST Mass Spectrometry Data Center
Collection (C) 2014 copyright by the U.S. Secretary of Commerce
on behalf of the United States of America. All rights reserved.
##CAS REGISTRY NO=6280-80-4
##$NIST MASS SPEC NO=239416
##MOLFORM=C9 H8 O4
##MW=180
##$NIST SOURCE=MSDC
##XUNITS=M/Z
##YUNITS=RELATIVE INTENSITY
##XFACTOR=1
##YFACTOR=1
##FIRSTX=26
##LASTX=182
##FIRSTY=10
##MAXX=182
##MINX=26
##MAXY=9999
##MINY=10
##NPOINTS=92
##PEAK TABLE=(XY..XY)
26,10 27,70 28,229 29,99
30,10 31,80 32,20 37,30
38,129 39,639 40,40 41,20
42,80 43,50 44,239 45,60
46,10 49,10 50,419 51,1049
52,129 53,129 54,20 55,40
57,20 59,30 60,109 61,30
62,90 63,329 64,319 65,1089
66,129 67,50 68,20 69,10
71,10 73,10 74,109 75,119
76,839 77,3689 78,559 79,549
80,40 81,30 82,20 83,10
85,10 87,10 89,60 90,239
91,279 92,1029 93,1599 94,449
95,80 96,10 97,10 104,429
105,1629 106,579 107,559 108,60
109,20 110,10 111,10 118,599
119,409 120,2279 121,9999 122,1039
123,169 124,10 133,119 134,869
135,1649 136,1099 137,99 138,10
146,10 149,20 150,10 151,40
152,20 162,3659 163,389 164,40
179,10 180,1869 181,249 182,30
##END=
