##TITLE=ENT-337
##JCAMP-DX=4.24
##DATA TYPE=MASS SPECTRUM
##ORIGIN=Japan AIST/NIMC Database- Spectrum MS-NW-2733
##OWNER=NIST Mass Spectrometry Data Center
Collection (C) 2014 copyright by the U.S. Secretary of Commerce
on behalf of the United States of America. All rights reserved.
##CAS REGISTRY NO=6280-99-5
##$NIST MASS SPEC NO=231561
##MOLFORM=C12 H22 O5
##MW=246
##$NIST SOURCE=MSDC
##XUNITS=M/Z
##YUNITS=RELATIVE INTENSITY
##XFACTOR=1
##YFACTOR=1
##FIRSTX=14
##LASTX=199
##FIRSTY=20
##MAXX=199
##MINX=14
##MAXY=9999
##MINY=10
##NPOINTS=85
##PEAK TABLE=(XY..XY)
14,20 15,99 17,20 18,70
26,80 27,709 28,579 29,2519
30,50 31,249 32,129 33,10
38,10 39,359 40,60 41,2629
42,189 43,739 44,639 45,99
47,50 50,10 51,10 53,60
54,50 55,529 56,1439 57,5549
58,309 59,10 60,179 61,40
69,20 70,10 71,2149 72,499
73,199 74,40 75,20 76,10
81,20 82,30 83,10 85,20
87,50 88,169 89,9999 90,1559
91,169 92,10 99,349 100,99
101,60 102,10 103,30 107,40
115,20 116,389 117,1709 118,80
119,20 127,30 128,10 129,10
133,10 134,159 135,169 136,10
143,20 144,40 145,3049 146,579
147,60 154,10 155,279 156,30
157,10 171,10 172,70 173,789
174,70 175,10 190,70 191,60
199,10
##END=
