##TITLE=5-Chlorovaleronitrile
##JCAMP-DX=4.24
##DATA TYPE=MASS SPECTRUM
##ORIGIN=NIST Mass Spectrometry Data Center, 1992
##OWNER=NIST Mass Spectrometry Data Center
Collection (C) 2014 copyright by the U.S. Secretary of Commerce
on behalf of the United States of America. All rights reserved.
##CAS REGISTRY NO=6280-87-1
##$NIST MASS SPEC NO=125129
##MOLFORM=C5 H8 Cl N
##MW=117
##$NIST SOURCE=MSDC
##XUNITS=M/Z
##YUNITS=RELATIVE INTENSITY
##XFACTOR=1
##YFACTOR=1
##FIRSTX=12
##LASTX=118
##FIRSTY=16
##MAXX=118
##MINX=12
##MAXY=9999
##MINY=1
##NPOINTS=67
##PEAK TABLE=(XY..XY)
12,16 13,40 14,87 15,204
16,1 24,11 25,75 26,820
27,2711 28,1420 29,332 30,24
35,61 36,82 37,251 38,489
39,2247 40,715 41,5980 42,367
43,14 44,1 47,41 49,830
50,240 51,652 52,498 53,1
54,9999 55,2560 56,114 57,3
59,3 60,27 61,123 62,160
63,337 64,140 65,148 66,189
67,95 68,506 69,22 72,6
73,34 75,236 76,59 77,157
78,26 79,47 80,411 81,178
82,1275 83,71 84,4 87,7
88,55 89,58 90,37 91,23
92,9 102,15 103,3 104,7
116,36 117,3 118,21
##END=
