##TITLE=Benzenamine, 2-chloro-5-nitro-
##JCAMP-DX=4.24
##DATA TYPE=MASS SPECTRUM
##ORIGIN=Japan AIST/NIMC Database- Spectrum MS-NW-1374
##OWNER=NIST Mass Spectrometry Data Center
Collection (C) 2014 copyright by the U.S. Secretary of Commerce
on behalf of the United States of America. All rights reserved.
##CAS REGISTRY NO=6283-25-6
##$NIST MASS SPEC NO=230604
##MOLFORM=C6 H5 Cl N2 O2
##MW=172
##$NIST SOURCE=MSDC
##XUNITS=M/Z
##YUNITS=RELATIVE INTENSITY
##XFACTOR=1
##YFACTOR=1
##FIRSTX=14
##LASTX=176
##FIRSTY=20
##MAXX=176
##MINX=14
##MAXY=9999
##MINY=10
##NPOINTS=106
##PEAK TABLE=(XY..XY)
14,20 15,10 16,10 25,20
26,90 27,119 28,399 29,20
30,349 35,20 36,80 37,409
38,699 39,1109 40,219 41,549
42,99 43,10 44,149 45,70
46,70 47,50 48,40 49,179
50,269 51,539 52,1769 53,229
54,109 55,20 57,10 60,90
61,529 62,1049 63,3669 64,1009
65,739 66,579 67,50 68,20
71,20 72,90 73,1009 74,279
75,479 76,149 77,90 78,429
79,169 80,30 84,20 85,30
86,119 87,229 88,169 89,349
90,9999 91,1529 92,90 96,30
97,109 98,99 99,3119 100,329
101,999 102,109 103,10 104,20
105,80 106,229 107,80 108,20
109,30 110,10 112,20 113,40
114,2059 115,149 116,669 117,50
119,10 120,10 124,40 125,349
126,6759 127,609 128,2209 129,159
130,20 137,30 139,10 140,10
141,10 142,719 143,80 144,279
145,20 146,10 156,99 158,30
171,50 172,9649 173,739 174,3159
175,229 176,20
##END=
