##TITLE=Hexane, 3,4-bis(1,1-dimethylethyl)-2,2,5,5-tetramethyl-
##JCAMP-DX=4.24
##DATA TYPE=MASS SPECTRUM
##ORIGIN=CHBEAM,111( )72(1978); C. RUCHARDT
##OWNER=NIST Mass Spectrometry Data Center
Collection (C) 2014 copyright by the U.S. Secretary of Commerce
on behalf of the United States of America. All rights reserved.
##CAS REGISTRY NO=62850-21-9
##$NIST MASS SPEC NO=60130
##MOLFORM=C18 H38
##MW=254
##$NIST SOURCE=MSDC
##XUNITS=M/Z
##YUNITS=RELATIVE INTENSITY
##XFACTOR=1
##YFACTOR=1
##FIRSTX=41
##LASTX=141
##FIRSTY=700
##MAXX=141
##MINX=41
##MAXY=9999
##MINY=100
##NPOINTS=13
##PEAK TABLE=(XY..XY)
41,700 43,300 56,300 57,9999
58,400 69,200 70,100 71,600
85,200 97,200 112,100 127,100
141,100
##END=
