##TITLE=Pentadecane
##JCAMP-DX=4.24
##DATA TYPE=MASS SPECTRUM
##ORIGIN=Japan AIST/NIMC Database- Spectrum MS-NW-5200
##OWNER=NIST Mass Spectrometry Data Center
Collection (C) 2014 copyright by the U.S. Secretary of Commerce
on behalf of the United States of America. All rights reserved.
##CAS REGISTRY NO=629-62-9
##$NIST MASS SPEC NO=232906
##MOLFORM=C15 H32
##MW=212
##$NIST SOURCE=MSDC
##XUNITS=M/Z
##YUNITS=RELATIVE INTENSITY
##XFACTOR=1
##YFACTOR=1
##FIRSTX=15
##LASTX=213
##FIRSTY=10
##MAXX=213
##MINX=15
##MAXY=9999
##MINY=10
##NPOINTS=76
##PEAK TABLE=(XY..XY)
15,10 18,10 26,30 27,689
28,90 29,1679 30,40 32,10
33,10 38,10 39,389 40,80
41,2699 42,789 43,7349 44,259
51,20 52,10 53,129 54,139
55,1429 56,1289 57,9999 58,479
59,10 65,20 66,10 67,109
68,109 69,629 70,999 71,6129
72,359 73,10 77,30 79,20
81,20 82,109 83,399 84,629
85,3789 86,269 87,10 95,10
96,50 97,239 98,439 99,939
100,70 105,40 109,10 110,20
111,99 112,289 113,559 114,50
123,10 125,30 126,219 127,419
128,50 139,10 140,149 141,309
142,40 154,99 155,239 156,30
168,50 169,139 170,30 182,30
183,80 184,10 212,249 213,40
##END=
