##TITLE=Nonadecane
##JCAMP-DX=4.24
##DATA TYPE=MASS SPECTRUM
##ORIGIN=Japan AIST/NIMC Database- Spectrum MS-NW-8200
##OWNER=NIST Mass Spectrometry Data Center
Collection (C) 2014 copyright by the U.S. Secretary of Commerce
on behalf of the United States of America. All rights reserved.
##CAS REGISTRY NO=629-92-5
##$NIST MASS SPEC NO=232930
##MOLFORM=C19 H40
##MW=268
##$NIST SOURCE=MSDC
##XUNITS=M/Z
##YUNITS=RELATIVE INTENSITY
##XFACTOR=1
##YFACTOR=1
##FIRSTX=15
##LASTX=270
##FIRSTY=10
##MAXX=270
##MINX=15
##MAXY=9999
##MINY=10
##NPOINTS=85
##PEAK TABLE=(XY..XY)
15,10 26,30 27,709 28,189
29,2319 30,50 39,369 40,80
41,3679 42,929 43,8199 44,269
51,10 53,139 54,219 55,2169
56,1399 57,9999 58,459 65,20
66,10 67,189 68,189 69,1039
70,1019 71,6599 72,359 77,10
79,20 81,60 82,219 83,679
84,679 85,4299 86,279 95,20
96,119 97,489 98,579 99,1609
100,119 105,10 110,60 111,259
112,519 113,1169 114,99 124,30
125,129 126,469 127,939 128,90
138,10 139,50 140,409 141,789
142,80 153,20 154,339 155,679
156,80 167,10 168,279 169,599
170,80 182,219 183,529 184,70
196,159 197,459 198,70 210,129
211,389 212,60 224,60 225,229
226,40 238,30 239,119 240,20
266,10 267,80 268,2189 269,459
270,40
##END=
