##TITLE=Pentacosane
##JCAMP-DX=4.24
##DATA TYPE=MASS SPECTRUM
##ORIGIN=Japan AIST/NIMC Database- Spectrum MS-NW-2053
##OWNER=NIST Mass Spectrometry Data Center
Collection (C) 2014 copyright by the U.S. Secretary of Commerce
on behalf of the United States of America. All rights reserved.
##CAS REGISTRY NO=629-99-2
##$NIST MASS SPEC NO=230923
##MOLFORM=C25 H52
##MW=352
##$NIST SOURCE=MSDC
##XUNITS=M/Z
##YUNITS=RELATIVE INTENSITY
##XFACTOR=1
##YFACTOR=1
##FIRSTX=15
##LASTX=355
##FIRSTY=80
##MAXX=355
##MINX=15
##MAXY=9999
##MINY=10
##NPOINTS=124
##PEAK TABLE=(XY..XY)
15,80 26,30 27,299 28,40
29,1149 30,20 39,189 40,40
41,2119 42,569 43,6219 44,209
51,10 53,80 54,189 55,2029
56,1199 57,9999 58,459 65,20
66,20 67,219 68,249 69,1299
70,1039 71,7149 72,389 77,10
79,20 80,10 81,109 82,329
83,1109 84,809 85,5029 86,329
91,10 95,50 96,209 97,919
98,679 99,2049 100,159 109,20
110,109 111,539 112,649 113,1489
114,129 123,10 124,70 125,299
126,609 127,1249 128,119 138,50
139,149 140,559 141,1079 142,119
149,10 152,30 153,90 154,489
155,939 156,119 166,20 167,70
168,459 169,869 170,109 180,20
181,40 182,399 183,799 184,109
194,10 195,30 196,359 197,749
198,109 209,20 210,319 211,669
212,99 213,10 223,10 224,279
225,649 226,119 227,10 238,249
239,609 240,109 241,10 252,209
253,569 254,109 255,10 266,179
267,529 268,109 269,10 280,149
281,499 282,109 283,10 294,129
295,449 296,90 297,10 308,60
309,269 310,60 322,40 323,159
324,50 337,10 350,20 351,40
352,3619 353,1019 354,129 355,10
##END=
