##TITLE=2-Dodecyne
##JCAMP-DX=4.24
##DATA TYPE=MASS SPECTRUM
##ORIGIN=S.A. Rang et al., IR & MS of Unsatd. Hydrocarbons, 1977
##OWNER=NIST Mass Spectrometry Data Center
Collection (C) 2014 copyright by the U.S. Secretary of Commerce
on behalf of the United States of America. All rights reserved.
##CAS REGISTRY NO=629-49-2
##$NIST MASS SPEC NO=142638
##MOLFORM=C12 H22
##MW=166
##$NIST SOURCE=MSDC
##XUNITS=M/Z
##YUNITS=RELATIVE INTENSITY
##XFACTOR=1
##YFACTOR=1
##FIRSTX=15
##LASTX=168
##FIRSTY=22
##MAXX=168
##MINX=15
##MAXY=9999
##MINY=4
##NPOINTS=115
##PEAK TABLE=(XY..XY)
15,22 24,4 25,17 26,168
27,3003 29,3560 30,82 31,4
37,17 38,60 39,2225 40,541
41,7119 42,1335 43,5784 44,146
45,9 49,9 50,107 51,406
52,406 53,2670 54,4227 55,6340
56,1446 57,2447 58,137 59,17
62,13 63,60 64,34 65,466
66,692 67,5784 68,5784 69,3893
70,812 71,737 72,47 73,4
74,13 75,26 76,9 77,436
78,112 79,992 80,496 81,6785
82,2114 83,752 84,219 85,129
86,9 87,9 89,9 91,206
92,34 93,376 94,361 95,9999
96,3003 97,511 98,99 99,30
100,4 102,4 103,9 104,17
105,43 106,9 107,95 108,90
109,3003 110,1052 111,228 112,78
113,52 114,4 115,17 116,9
117,22 118,9 119,26 120,90
121,39 122,22 123,309 124,206
125,73 126,22 127,17 128,9
129,13 130,4 131,22 132,4
133,39 134,4 135,30 136,17
137,331 138,69 139,22 149,26
150,4 151,112 152,22 153,13
162,13 163,17 164,13 165,39
166,39 167,13 168,9
##END=
