##TITLE=Docosane
##JCAMP-DX=4.24
##DATA TYPE=MASS SPECTRUM
##ORIGIN=Japan AIST/NIMC Database- Spectrum MS-NW-6005
##OWNER=NIST Mass Spectrometry Data Center
Collection (C) 2014 copyright by the U.S. Secretary of Commerce
on behalf of the United States of America. All rights reserved.
##CAS REGISTRY NO=629-97-0
##$NIST MASS SPEC NO=227537
##MOLFORM=C22 H46
##MW=310
##$NIST SOURCE=MSDC
##XUNITS=M/Z
##YUNITS=RELATIVE INTENSITY
##XFACTOR=1
##YFACTOR=1
##FIRSTX=26
##LASTX=312
##FIRSTY=20
##MAXX=312
##MINX=26
##MAXY=9999
##MINY=10
##NPOINTS=106
##PEAK TABLE=(XY..XY)
26,20 27,519 28,129 29,1689
30,30 39,319 40,80 41,3269
42,859 43,7389 44,259 51,10
52,10 53,139 54,239 55,2469
56,1369 57,9999 58,429 65,30
66,20 67,259 68,259 69,1339
70,1049 71,6459 72,369 77,20
79,30 80,10 81,99 82,269
83,959 84,739 85,4449 86,319
87,10 91,10 95,40 96,149
97,709 98,589 99,1629 100,139
109,10 110,80 111,369 112,529
113,1199 114,109 123,10 124,40
125,199 126,479 127,979 128,99
129,10 138,30 139,90 140,429
141,829 142,90 152,20 153,50
154,359 155,699 156,80 166,10
167,30 168,309 169,649 170,90
181,20 182,249 183,569 184,80
195,10 196,219 197,509 198,90
199,10 210,189 211,479 212,80
224,159 225,429 226,70 227,10
238,109 239,379 240,70 252,109
253,319 254,60 266,50 267,199
268,40 280,30 281,109 282,30
295,10 308,10 309,20 310,1779
311,439 312,60
##END=
