##TITLE=Heptanonitrile
##JCAMP-DX=4.24
##DATA TYPE=MASS SPECTRUM
##OWNER=NIST Mass Spectrometry Data Center
Collection (C) 2014 copyright by the U.S. Secretary of Commerce
on behalf of the United States of America. All rights reserved.
##CAS REGISTRY NO=629-08-3
##$NIST MASS SPEC NO=20173
##MOLFORM=C7 H13 N
##MW=111
##$NIST SOURCE=MSDC
##XUNITS=M/Z
##YUNITS=RELATIVE INTENSITY
##XFACTOR=1
##YFACTOR=1
##FIRSTX=12
##LASTX=112
##FIRSTY=30
##MAXX=112
##MINX=12
##MAXY=9999
##MINY=10
##NPOINTS=85
##PEAK TABLE=(XY..XY)
12,30 13,70 14,180 15,771
16,30 17,20 18,100 19,10
24,10 25,50 26,991 27,6246
28,2092 29,3773 30,170 31,20
32,40 33,10 36,10 37,180
38,430 39,3583 40,871 41,9999
42,1481 43,5035 44,200 45,110
49,30 50,200 51,340 52,380
53,581 54,4364 55,3743 56,671
57,1031 58,50 59,20 60,10
61,20 62,30 63,60 64,80
65,80 66,150 67,190 68,1481
69,971 70,170 71,510 72,30
73,10 74,20 75,20 76,20
77,40 78,30 79,90 80,60
81,611 82,6826 83,5185 84,350
85,30 86,20 87,10 88,10
89,10 90,10 91,60 92,20
93,30 94,20 95,10 96,991
97,90 98,10 105,20 106,10
108,10 109,10 110,420 111,30
112,20
##END=
