##TITLE=n-Pentadecanol
##JCAMP-DX=4.24
##DATA TYPE=MASS SPECTRUM
##ORIGIN=NIST Mass Spectrometry Data Center
##OWNER=NIST Mass Spectrometry Data Center
Collection (C) 2014 copyright by the U.S. Secretary of Commerce
on behalf of the United States of America. All rights reserved.
##CAS REGISTRY NO=629-76-5
##$NIST MASS SPEC NO=351791
##MOLFORM=C15 H32 O
##MW=228
##$NIST SOURCE=MSDC
##XUNITS=M/Z
##YUNITS=RELATIVE INTENSITY
##XFACTOR=1
##YFACTOR=1
##FIRSTX=15
##LASTX=211
##FIRSTY=10
##MAXX=211
##MINX=15
##MAXY=9999
##MINY=10
##NPOINTS=89
##PEAK TABLE=(XY..XY)
15,10 19,10 27,641 28,180
29,1651 31,1541 32,10 33,10
39,811 40,200 41,5995 42,1541
43,6446 44,320 45,160 46,10
50,10 51,40 52,30 53,510
54,991 55,9418 56,5055 57,6896
58,300 59,30 63,10 65,100
66,150 67,1712 68,3473 69,8598
70,5625 71,3133 72,170 73,210
74,10 77,60 78,10 79,160
80,50 81,931 82,4434 83,9999
84,4134 85,1942 86,120 87,30
93,20 94,20 95,390 96,1621
97,8137 98,2642 99,410 100,20
109,120 110,751 111,4274 112,1661
113,200 114,10 123,50 124,390
125,1802 126,961 127,130 128,10
137,20 138,200 139,460 140,520
141,80 142,10 152,90 153,190
154,400 155,50 166,40 167,80
168,100 169,10 180,20 181,30
182,591 183,80 184,10 210,160
211,30
##END=
