##TITLE=Disulfide, dibutyl
##JCAMP-DX=4.24
##DATA TYPE=MASS SPECTRUM
##ORIGIN=Japan AIST/NIMC Database- Spectrum MS-NW-2125
##OWNER=NIST Mass Spectrometry Data Center
Collection (C) 2014 copyright by the U.S. Secretary of Commerce
on behalf of the United States of America. All rights reserved.
##CAS REGISTRY NO=629-45-8
##$NIST MASS SPEC NO=233772
##MOLFORM=C8 H18 S2
##MW=178
##$NIST SOURCE=MSDC
##XUNITS=M/Z
##YUNITS=RELATIVE INTENSITY
##XFACTOR=1
##YFACTOR=1
##FIRSTX=15
##LASTX=182
##FIRSTY=40
##MAXX=182
##MINX=15
##MAXY=9999
##MINY=10
##NPOINTS=69
##PEAK TABLE=(XY..XY)
15,40 17,10 18,70 26,60
27,859 28,139 29,3239 30,70
32,30 34,10 35,30 38,10
39,429 40,40 41,3189 42,149
43,229 44,30 45,349 46,189
47,479 48,20 49,20 50,10
51,20 53,109 54,119 55,709
56,569 57,9999 58,439 59,129
60,179 61,149 62,10 64,60
65,10 66,169 68,10 71,20
73,50 75,10 76,30 78,20
79,299 80,10 81,20 85,20
86,10 87,449 88,329 89,219
90,70 91,20 93,40 94,10
103,20 117,10 121,10 122,3369
123,209 124,299 125,10 146,10
178,3359 179,359 180,309 181,30
182,10
##END=
