##TITLE=Octadecane, 1-iodo-
##JCAMP-DX=4.24
##DATA TYPE=MASS SPECTRUM
##ORIGIN=Japan AIST/NIMC Database- Spectrum MS-NW-5922
##OWNER=NIST Mass Spectrometry Data Center
Collection (C) 2014 copyright by the U.S. Secretary of Commerce
on behalf of the United States of America. All rights reserved.
##CAS REGISTRY NO=629-93-6
##$NIST MASS SPEC NO=233207
##MOLFORM=C18 H37 I
##MW=380
##$NIST SOURCE=MSDC
##XUNITS=M/Z
##YUNITS=RELATIVE INTENSITY
##XFACTOR=1
##YFACTOR=1
##FIRSTX=18
##LASTX=381
##FIRSTY=20
##MAXX=381
##MINX=18
##MAXY=9999
##MINY=10
##NPOINTS=77
##PEAK TABLE=(XY..XY)
18,20 26,10 27,489 28,119
29,1249 30,20 39,319 40,70
41,2869 42,599 43,5679 44,189
53,139 54,189 55,2709 56,739
57,9999 58,459 65,20 66,10
67,209 68,129 69,1409 70,419
71,7359 72,419 77,10 79,30
81,70 82,70 83,749 84,169
85,5309 86,359 87,10 95,30
96,30 97,409 98,80 99,2059
100,159 109,10 110,10 111,149
112,40 113,1369 114,119 125,50
126,20 127,1029 128,99 135,10
137,10 139,20 140,20 141,739
142,80 153,10 154,10 155,599
156,80 169,499 170,70 183,379
184,60 197,239 198,40 211,109
212,20 225,50 226,10 252,10
253,2259 254,469 255,40 380,50
381,10
##END=
