##TITLE=Disulfide, dipropyl
##JCAMP-DX=4.24
##DATA TYPE=MASS SPECTRUM
##ORIGIN=Japan AIST/NIMC Database- Spectrum MS-NW-1258
##OWNER=NIST Mass Spectrometry Data Center
Collection (C) 2014 copyright by the U.S. Secretary of Commerce
on behalf of the United States of America. All rights reserved.
##CAS REGISTRY NO=629-19-6
##$NIST MASS SPEC NO=233697
##MOLFORM=C6 H14 S2
##MW=150
##$NIST SOURCE=MSDC
##XUNITS=M/Z
##YUNITS=RELATIVE INTENSITY
##XFACTOR=1
##YFACTOR=1
##FIRSTX=15
##LASTX=153
##FIRSTY=80
##MAXX=153
##MINX=15
##MAXY=9999
##MINY=10
##NPOINTS=56
##PEAK TABLE=(XY..XY)
15,80 17,10 18,70 26,50
27,1329 28,159 29,229 32,40
33,10 34,20 37,10 38,40
39,589 40,60 41,2259 42,189
43,9999 44,339 45,439 46,219
47,349 48,20 49,20 55,10
57,40 58,60 59,70 60,10
61,20 64,90 65,20 66,739
67,20 68,70 69,10 71,20
72,10 73,339 74,399 75,139
76,30 78,20 79,229 80,10
81,20 89,10 93,10 107,20
108,2389 109,119 110,199 111,10
150,3369 151,279 152,309 153,20
##END=
