##TITLE=Acetic acid, methoxy-, methyl ester
##JCAMP-DX=4.24
##DATA TYPE=MASS SPECTRUM
##ORIGIN=Japan AIST/NIMC Database- Spectrum MS-NW-8954
##OWNER=NIST Mass Spectrometry Data Center
Collection (C) 2014 copyright by the U.S. Secretary of Commerce
on behalf of the United States of America. All rights reserved.
##CAS REGISTRY NO=6290-49-9
##$NIST MASS SPEC NO=236678
##MOLFORM=C4 H8 O3
##MW=104
##$NIST SOURCE=MSDC
##XUNITS=M/Z
##YUNITS=RELATIVE INTENSITY
##XFACTOR=1
##YFACTOR=1
##FIRSTX=14
##LASTX=105
##FIRSTY=60
##MAXX=105
##MINX=14
##MAXY=9999
##MINY=10
##NPOINTS=29
##PEAK TABLE=(XY..XY)
14,60 15,589 16,10 18,10
27,20 28,80 29,1359 30,99
31,319 32,50 33,20 41,30
42,609 43,569 44,169 45,9999
46,239 47,70 58,10 59,419
60,99 61,10 62,10 73,30
74,4229 75,949 76,50 88,10
105,10
##END=
