##TITLE=Hexanoic acid, 2-phenylethyl ester
##JCAMP-DX=4.24
##DATA TYPE=MASS SPECTRUM
##ORIGIN=V.G.Zaikin, TIPS RAS, Moscow, Russia
##OWNER=NIST Mass Spectrometry Data Center
Collection (C) 2014 copyright by the U.S. Secretary of Commerce
on behalf of the United States of America. All rights reserved.
##CAS REGISTRY NO=6290-37-5
##$NIST MASS SPEC NO=279289
##MOLFORM=C14 H20 O2
##MW=220
##$NIST SOURCE=MSDC
##XUNITS=M/Z
##YUNITS=RELATIVE INTENSITY
##XFACTOR=1
##YFACTOR=1
##FIRSTX=26
##LASTX=117
##FIRSTY=190
##MAXX=117
##MINX=26
##MAXY=9999
##MINY=20
##NPOINTS=72
##PEAK TABLE=(XY..XY)
26,190 27,1091 28,260 29,821
30,20 31,40 37,80 38,170
39,951 40,210 41,1291 42,651
43,1972 44,280 45,150 50,290
51,681 52,190 53,210 54,120
55,931 56,210 57,170 58,30
59,30 60,380 61,60 62,80
63,270 64,60 65,490 66,110
67,180 68,110 69,270 70,110
71,861 72,60 73,180 74,130
75,90 76,70 77,811 78,520
79,520 80,30 81,150 82,110
83,110 86,60 87,30 89,180
90,110 91,1091 92,210 93,60
94,30 95,60 96,30 97,150
98,170 99,1481 100,120 101,20
102,120 103,691 104,9999 105,2392
106,190 109,140 110,160 117,70
##END=
