##TITLE=1-Propanamine, 3-ethoxy-
##JCAMP-DX=4.24
##DATA TYPE=MASS SPECTRUM
##ORIGIN=Japan AIST/NIMC Database- Spectrum MS-NW-1031
##OWNER=NIST Mass Spectrometry Data Center
Collection (C) 2014 copyright by the U.S. Secretary of Commerce
on behalf of the United States of America. All rights reserved.
##CAS REGISTRY NO=6291-85-6
##$NIST MASS SPEC NO=230677
##MOLFORM=C5 H13 N O
##MW=103
##$NIST SOURCE=MSDC
##XUNITS=M/Z
##YUNITS=RELATIVE INTENSITY
##XFACTOR=1
##YFACTOR=1
##FIRSTX=14
##LASTX=103
##FIRSTY=30
##MAXX=103
##MINX=14
##MAXY=9999
##MINY=10
##NPOINTS=39
##PEAK TABLE=(XY..XY)
14,30 15,149 17,40 18,149
19,10 26,90 27,549 28,779
29,899 30,9999 31,1229 32,50
38,10 39,90 40,40 41,379
42,259 43,239 44,549 45,639
46,60 47,169 52,10 54,50
55,50 56,1709 57,1739 58,859
59,539 60,80 68,20 69,20
72,30 73,20 74,1219 75,50
86,1399 87,80 103,20
##END=
