##TITLE=4,4'-Stilbenedicarbonitrile
##JCAMP-DX=4.24
##DATA TYPE=MASS SPECTRUM
##ORIGIN=D.HENNEBERG, MAX-PLANCK INSTITUTE, MULHEIM, WEST GERMANY
##OWNER=NIST Mass Spectrometry Data Center
Collection (C) 2014 copyright by the U.S. Secretary of Commerce
on behalf of the United States of America. All rights reserved.
##CAS REGISTRY NO=6292-62-2
##$NIST MASS SPEC NO=63781
##MOLFORM=C16 H10 N2
##MW=230
##$NIST SOURCE=MSDC
##XUNITS=M/Z
##YUNITS=RELATIVE INTENSITY
##XFACTOR=1
##YFACTOR=1
##FIRSTX=27
##LASTX=234
##FIRSTY=184
##MAXX=234
##MINX=27
##MAXY=9999
##MINY=2
##NPOINTS=176
##PEAK TABLE=(XY..XY)
27,184 28,75 29,2 30,8
31,8 32,3 37,55 38,110
39,422 40,30 41,19 42,28
43,12 44,24 49,82 50,464
51,583 52,208 53,37 54,3
55,8 56,6 57,7 58,87
59,7 61,67 62,253 63,546
64,207 65,72 66,35 67,6
70,5 71,3 72,7 73,62
74,324 75,735 76,677 77,287
78,37 79,8 80,6 81,11
82,16 83,4 84,3 85,25
86,100 87,333 88,1078 89,291
90,110 91,90 92,60 93,6
95,47 97,9 98,78 99,157
100,350 101,691 102,378 103,165
104,28 105,3 109,5 110,23
111,45 112,55 113,154 114,180
115,403 116,624 117,104 118,7
122,18 123,46 124,49 125,82
126,101 127,739 128,174 129,17
130,5 132,3 134,6 135,12
136,17 137,44 138,56 139,47
140,227 141,25 142,3 143,3
147,10 148,14 149,79 150,129
151,259 152,135 153,71 154,13
155,3 156,26 157,76 158,38
159,47 160,28 161,12 162,25
163,51 164,147 165,50 166,29
167,6 171,4 173,22 174,107
175,499 176,473 177,369 178,198
179,70 180,25 181,15 182,8
184,4 185,7 186,18 187,27
188,119 189,85 190,1994 191,306
192,28 193,4 194,3 195,5
196,4 197,6 198,11 199,59
200,226 201,870 202,1206 203,952
204,402 205,65 206,6 207,4
209,4 212,7 213,26 214,42
215,1461 216,262 217,26 218,6
219,4 220,6 221,6 222,3
223,5 224,7 225,17 226,108
227,221 228,1281 229,4421 230,9999
231,1705 232,235 233,25 234,3
##END=
