##TITLE=Hexane, 1-bromo-6-chloro-
##JCAMP-DX=4.24
##DATA TYPE=MASS SPECTRUM
##ORIGIN=Japan AIST/NIMC Database- Spectrum MS-NW-7489
##OWNER=NIST Mass Spectrometry Data Center
Collection (C) 2014 copyright by the U.S. Secretary of Commerce
on behalf of the United States of America. All rights reserved.
##CAS REGISTRY NO=6294-17-3
##$NIST MASS SPEC NO=238055
##MOLFORM=C6 H12 Br Cl
##MW=198
##$NIST SOURCE=MSDC
##XUNITS=M/Z
##YUNITS=RELATIVE INTENSITY
##XFACTOR=1
##YFACTOR=1
##FIRSTX=14
##LASTX=200
##FIRSTY=10
##MAXX=200
##MINX=14
##MAXY=9999
##MINY=10
##NPOINTS=84
##PEAK TABLE=(XY..XY)
14,10 15,99 26,249 27,2399
28,439 29,1799 30,40 31,90
35,20 36,90 37,40 38,109
39,1689 40,349 41,5979 42,1349
43,3319 44,109 45,10 48,10
49,299 50,80 51,149 52,60
53,539 54,509 55,9999 56,1549
57,1119 58,50 61,30 62,129
63,379 64,40 65,129 66,30
67,1209 68,109 69,1729 70,119
71,10 73,20 75,129 76,119
77,669 78,60 79,209 80,80
81,289 82,1749 83,9609 84,649
85,20 89,40 90,279 91,249
92,109 93,109 95,99 105,20
106,40 107,379 108,50 109,359
110,10 117,20 118,649 119,369
120,239 121,119 122,50 123,60
134,119 135,199 136,129 137,179
138,10 149,10 162,179 163,30
164,189 165,20 198,10 200,10
##END=
