##TITLE=Bis-2-chloroethyl-2-chloroethylphosphonate
##JCAMP-DX=4.24
##DATA TYPE=MASS SPECTRUM
##ORIGIN=ALPHA Chemicals / NIST MS Data Center.
##OWNER=NIST Mass Spectrometry Data Center
Collection (C) 2014 copyright by the U.S. Secretary of Commerce
on behalf of the United States of America. All rights reserved.
##CAS REGISTRY NO=6294-34-4
##$NIST MASS SPEC NO=125343
##MOLFORM=C6 H12 Cl3 O3 P
##MW=268
##$NIST SOURCE=MSDC
##XUNITS=M/Z
##YUNITS=RELATIVE INTENSITY
##XFACTOR=1
##YFACTOR=1
##FIRSTX=12
##LASTX=271
##FIRSTY=15
##MAXX=271
##MINX=12
##MAXY=9999
##MINY=3
##NPOINTS=162
##PEAK TABLE=(XY..XY)
12,15 13,25 14,122 15,485
16,10 17,3 18,46 19,55
24,13 26,1424 27,9999 28,2756
29,886 30,152 31,322 33,25
34,9 35,77 36,98 37,41
38,53 39,66 41,99 42,263
43,515 44,234 45,1092 46,9
47,1441 48,284 49,1430 50,160
51,455 52,32 53,26 55,46
56,13 57,75 58,41 59,13
60,56 61,379 62,2034 63,7890
64,923 65,3108 66,78 69,11
70,16 71,143 72,13 73,9
74,50 75,33 76,9 77,327
78,96 79,79 80,9 81,608
82,264 83,465 84,18 85,56
89,75 91,1225 92,68 93,68
94,11 95,28 96,54 97,48
98,11 99,1110 100,66 101,398
102,17 103,14 105,36 106,10
107,54 108,110 109,1157 110,133
111,99 112,61 113,28 114,15
115,14 117,609 119,209 121,32
122,10 123,20 125,61 127,4026
129,1309 130,34 131,14 133,11
135,875 137,446 139,83 140,12
141,15 142,11 143,414 144,11
145,2317 146,11 147,766 148,20
149,22 153,96 154,10 155,43
156,13 157,18 161,1228 163,819
164,33 165,155 166,9 169,13
171,2069 172,161 173,697 174,35
175,9 179,46 181,28 183,21
189,3140 191,2012 192,110 193,344
194,16 197,197 198,15 199,62
205,71 207,2128 208,254 209,1390
210,97 211,225 212,15 219,717
221,457 222,42 223,85 230,9
233,6719 234,749 235,4255 236,340
237,725 238,56 241,17 243,17
269,25 271,29
##END=
