##TITLE=Hydrazinecarboxylic acid, methyl ester
##JCAMP-DX=4.24
##DATA TYPE=MASS SPECTRUM
##ORIGIN=Japan AIST/NIMC Database- Spectrum MS-IW- 902
##OWNER=NIST Mass Spectrometry Data Center
Collection (C) 2014 copyright by the U.S. Secretary of Commerce
on behalf of the United States of America. All rights reserved.
##CAS REGISTRY NO=6294-89-9
##$NIST MASS SPEC NO=239414
##MOLFORM=C2 H6 N2 O2
##MW=90
##$NIST SOURCE=MSDC
##XUNITS=M/Z
##YUNITS=RELATIVE INTENSITY
##XFACTOR=1
##YFACTOR=1
##FIRSTX=12
##LASTX=92
##FIRSTY=10
##MAXX=92
##MINX=12
##MAXY=9999
##MINY=10
##NPOINTS=33
##PEAK TABLE=(XY..XY)
12,10 13,10 14,80 15,3409
16,289 17,789 18,409 27,30
28,2529 29,1499 30,1319 31,9999
32,1169 33,199 41,10 42,99
43,469 44,2219 45,6029 46,579
47,50 56,10 58,2399 59,4629
60,169 61,20 73,10 74,10
75,519 76,40 90,8699 91,609
92,50
##END=
