##TITLE=Hexane, 1,1'-thiobis-
##JCAMP-DX=4.24
##DATA TYPE=MASS SPECTRUM
##ORIGIN=NIST Mass Spectrometry Data Center, 1994
##OWNER=NIST Mass Spectrometry Data Center
Collection (C) 2014 copyright by the U.S. Secretary of Commerce
on behalf of the United States of America. All rights reserved.
##CAS REGISTRY NO=6294-31-1
##$NIST MASS SPEC NO=133255
##MOLFORM=C12 H26 S
##MW=202
##$NIST SOURCE=MSDC
##XUNITS=M/Z
##YUNITS=RELATIVE INTENSITY
##XFACTOR=1
##YFACTOR=1
##FIRSTX=15
##LASTX=205
##FIRSTY=202
##MAXX=205
##MINX=15
##MAXY=9999
##MINY=4
##NPOINTS=87
##PEAK TABLE=(XY..XY)
15,202 16,4 27,4488 28,374
29,6268 30,146 33,13 34,34
35,144 36,8 37,45 38,8
39,2272 40,8 41,8532 42,2829
43,8891 44,357 45,1082 46,722
47,1301 48,137 49,108 50,48
51,106 52,98 53,570 54,45
55,7986 56,7093 57,1146 58,202
59,558 60,1270 61,5065 62,260
63,253 65,84 67,498 69,2544
70,241 71,135 73,234 74,145
75,389 76,58 77,53 78,16
79,52 81,98 83,4598 84,6397
85,1494 86,16 87,754 88,170
89,596 90,37 91,29 97,18
99,18 101,78 103,175 104,15
105,7 117,9999 118,1711 119,979
120,91 121,30 129,11 131,1133
132,131 133,60 145,348 146,35
147,20 159,94 160,10 173,332
174,34 175,16 187,27 202,3957
203,562 204,224 205,24
##END=
