##TITLE=Butyl glyoxylate
##JCAMP-DX=4.24
##DATA TYPE=MASS SPECTRUM
##ORIGIN=NIST Mass Spectrometry Data Center, 1992
##OWNER=NIST Mass Spectrometry Data Center
Collection (C) 2014 copyright by the U.S. Secretary of Commerce
on behalf of the United States of America. All rights reserved.
##CAS REGISTRY NO=6295-06-3
##$NIST MASS SPEC NO=125085
##MOLFORM=C6 H10 O3
##MW=130
##$NIST SOURCE=MSDC
##XUNITS=M/Z
##YUNITS=RELATIVE INTENSITY
##XFACTOR=1
##YFACTOR=1
##FIRSTX=12
##LASTX=101
##FIRSTY=19
##MAXX=101
##MINX=12
##MAXY=9999
##MINY=6
##NPOINTS=43
##PEAK TABLE=(XY..XY)
12,19 13,43 14,69 15,259
16,7 17,16 18,158 19,45
26,434 27,2744 28,1392 29,9999
30,373 31,1223 33,12 36,8
37,59 38,177 39,1662 40,8
41,8127 42,480 43,491 44,234
45,164 46,15 49,14 50,54
51,64 52,23 53,127 54,14
55,810 56,591 57,5517 58,330
59,39 71,8 72,9 73,14
76,6 88,8 101,8
##END=
