##TITLE=Acetonitrile, ethoxy-
##JCAMP-DX=4.24
##DATA TYPE=MASS SPECTRUM
##ORIGIN=James Little,Eastman Chem.Co.,Kingsport,TN
##OWNER=NIST Mass Spectrometry Data Center
Collection (C) 2014 copyright by the U.S. Secretary of Commerce
on behalf of the United States of America. All rights reserved.
##CAS REGISTRY NO=62957-60-2
##$NIST MASS SPEC NO=288336
##MOLFORM=C4 H7 N O
##MW=85
##$NIST SOURCE=MSDC
##XUNITS=M/Z
##YUNITS=RELATIVE INTENSITY
##XFACTOR=1
##YFACTOR=1
##FIRSTX=25
##LASTX=86
##FIRSTY=210
##MAXX=86
##MINX=25
##MAXY=9999
##MINY=10
##NPOINTS=24
##PEAK TABLE=(XY..XY)
25,210 26,510 27,1261 28,871
39,681 40,1421 41,3583 42,1351
43,170 44,561 54,230 55,70
56,60 57,550 58,80 59,160
69,30 70,9999 71,440 72,30
81,10 83,10 85,430 86,50
##END=
