##TITLE=Butanedioic acid, 2,3-dihydroxy-, bis(1-methylethyl) ester, [S-(R*,R*)]-
##JCAMP-DX=4.24
##DATA TYPE=MASS SPECTRUM
##ORIGIN=Chuck Anderson, Aldrich Chemical Co.
##OWNER=NIST Mass Spectrometry Data Center
Collection (C) 2014 copyright by the U.S. Secretary of Commerce
on behalf of the United States of America. All rights reserved.
##CAS REGISTRY NO=62961-64-2
##$NIST MASS SPEC NO=107431
##MOLFORM=C10 H18 O6
##MW=234
##$NIST SOURCE=MSDC
##XUNITS=M/Z
##YUNITS=RELATIVE INTENSITY
##XFACTOR=1
##YFACTOR=1
##FIRSTX=14
##LASTX=235
##FIRSTY=28
##MAXX=235
##MINX=14
##MAXY=9999
##MINY=3
##NPOINTS=97
##PEAK TABLE=(XY..XY)
14,28 15,173 16,17 19,210
25,5 26,54 27,1377 28,245
29,488 30,181 31,688 32,21
33,4 36,19 37,23 38,57
39,752 40,149 41,3128 42,1011
43,9114 44,433 45,1190 46,28
47,17 49,138 53,3 55,16
57,22 58,238 59,931 60,760
61,179 62,6 63,4 69,53
70,229 71,257 72,14 73,39
74,12 75,78 76,4557 77,1802
78,69 79,19 83,21 84,13
85,14 87,206 88,1411 89,994
90,44 91,6 93,4 97,6
99,36 100,14 101,561 102,60
103,31 104,59 105,9999 106,318
107,102 108,3 111,11 112,50
113,11 115,41 116,7 117,480
118,3673 119,204 120,27 123,7
128,5 129,153 130,98 131,35
132,43 133,22 141,12 146,5
147,2822 148,183 149,36 150,5
151,17 159,6 173,4 174,6
175,27 177,58 191,4 193,10
235,5
##END=
