##TITLE=2,5-Bis(chloromethyl)-p-xylene
##JCAMP-DX=4.24
##DATA TYPE=MASS SPECTRUM
##ORIGIN=ALPHA Chemicals / NIST MS Data Center.
##OWNER=NIST Mass Spectrometry Data Center
Collection (C) 2014 copyright by the U.S. Secretary of Commerce
on behalf of the United States of America. All rights reserved.
##CAS REGISTRY NO=6298-72-2
##$NIST MASS SPEC NO=125356
##MOLFORM=C10 H12 Cl2
##MW=202
##$NIST SOURCE=MSDC
##XUNITS=M/Z
##YUNITS=RELATIVE INTENSITY
##XFACTOR=1
##YFACTOR=1
##FIRSTX=14
##LASTX=211
##FIRSTY=19
##MAXX=211
##MINX=14
##MAXY=9999
##MINY=4
##NPOINTS=93
##PEAK TABLE=(XY..XY)
14,19 15,94 16,4 18,25
26,83 27,487 28,314 29,32
32,115 35,55 36,28 37,62
38,171 39,901 40,114 41,170
44,8 49,114 50,336 51,803
52,226 53,294 55,39 57,110
61,52 62,212 63,598 64,1014
65,716 69,43 73,42 74,147
75,206 76,103 77,585 78,195
79,130 81,26 82,27 83,100
84,30 85,25 86,44 87,80
88,36 89,206 90,25 91,1673
92,170 98,31 99,35 101,59
102,201 103,288 104,102 105,133
109,17 113,34 115,1683 116,968
117,907 118,168 125,60 126,55
127,237 128,393 129,420 130,34
131,2461 132,1950 133,174 134,26
139,141 140,27 141,52 151,60
152,85 153,273 154,55 155,89
167,9999 168,1261 169,3099 170,309
187,32 189,32 200,26 202,1903
203,339 204,1305 205,176 206,224
211,26
##END=
