##TITLE=Androstenedione
##JCAMP-DX=4.24
##DATA TYPE=MASS SPECTRUM
##ORIGIN=Japan AIST/NIMC Database- Spectrum MS-NW-9322
##OWNER=NIST Mass Spectrometry Data Center
Collection (C) 2014 copyright by the U.S. Secretary of Commerce
on behalf of the United States of America. All rights reserved.
##CAS REGISTRY NO=63-05-8
##$NIST MASS SPEC NO=227996
##MOLFORM=C19 H26 O2
##MW=286
##$NIST SOURCE=MSDC
##XUNITS=M/Z
##YUNITS=RELATIVE INTENSITY
##XFACTOR=1
##YFACTOR=1
##FIRSTX=16
##LASTX=289
##FIRSTY=10
##MAXX=289
##MINX=16
##MAXY=9999
##MINY=10
##NPOINTS=235
##PEAK TABLE=(XY..XY)
16,10 17,40 18,159 26,20
27,269 28,199 29,369 30,10
39,499 40,99 41,1399 42,90
43,459 44,30 45,10 50,20
51,159 52,90 53,639 54,119
55,1369 56,90 57,169 58,40
59,20 60,10 63,50 64,70
65,539 66,179 67,1399 68,159
69,329 70,50 71,179 72,99
73,90 74,10 75,10 76,30
77,1299 78,359 79,2369 80,399
81,1139 82,209 83,309 84,60
85,129 86,409 87,309 89,40
90,30 91,2369 92,499 93,1799
94,799 95,1079 96,569 97,2539
98,279 99,99 100,40 101,129
102,30 103,209 104,169 105,1969
106,959 107,2729 108,1039 109,3619
110,899 111,459 112,50 113,30
114,10 115,359 116,129 117,719
118,319 119,1509 120,749 121,1329
122,1359 123,1859 124,8089 125,1009
126,80 127,70 128,249 129,539
130,219 131,1049 132,389 133,1049
134,729 135,979 136,879 137,639
138,179 139,40 140,20 141,239
142,169 143,519 144,849 145,1389
146,929 147,1189 148,5169 149,1809
150,1649 151,309 152,70 153,60
154,40 155,269 156,209 157,459
158,279 159,769 160,419 161,499
162,1659 163,1149 164,439 165,139
166,30 167,60 168,60 169,239
170,289 171,399 172,269 173,909
174,569 175,379 176,189 177,199
178,119 179,50 180,20 181,80
182,60 183,719 184,259 185,389
186,449 187,909 188,619 189,389
190,309 191,99 192,20 193,40
194,30 195,99 196,60 197,429
198,199 199,279 200,619 201,2279
202,709 203,209 204,199 205,60
206,20 207,40 208,30 209,189
210,99 211,539 212,379 213,309
214,169 215,539 216,599 217,139
218,30 219,10 221,20 222,30
223,40 224,159 225,299 226,369
227,469 228,209 229,909 230,469
231,159 232,30 233,20 234,10
235,189 236,40 237,30 238,10
239,99 240,239 241,90 242,1029
243,629 244,5589 245,1069 246,159
247,20 249,20 250,129 251,80
252,20 253,369 254,70 255,60
256,30 257,219 258,599 259,119
260,10 266,30 267,40 268,659
269,239 270,149 271,809 272,179
273,40 284,189 285,99 286,9999
287,2309 288,429 289,60
##END=
