##TITLE=Benzquinamide
##JCAMP-DX=4.24
##DATA TYPE=MASS SPECTRUM
##ORIGIN=AAFS Toxicology Section MS DB Committee, U. Alberta, Canada
##OWNER=NIST Mass Spectrometry Data Center
Collection (C) 2014 copyright by the U.S. Secretary of Commerce
on behalf of the United States of America. All rights reserved.
##CAS REGISTRY NO=63-12-7
##$NIST MASS SPEC NO=247108
##MOLFORM=C22 H32 N2 O5
##MW=404
##$NIST SOURCE=MSDC
##XUNITS=M/Z
##YUNITS=RELATIVE INTENSITY
##XFACTOR=1
##YFACTOR=1
##FIRSTX=42
##LASTX=405
##FIRSTY=290
##MAXX=405
##MINX=42
##MAXY=9999
##MINY=60
##NPOINTS=154
##PEAK TABLE=(XY..XY)
42,290 43,1411 44,550 45,100
51,80 53,120 54,60 55,460
56,140 57,160 58,240 64,60
65,100 67,60 68,80 69,120
70,90 71,180 72,1651 73,120
74,160 77,450 78,140 79,70
80,70 81,140 82,120 83,80
84,60 85,90 86,110 90,70
91,330 92,90 93,150 94,90
100,880 101,100 102,70 103,180
104,90 105,140 106,70 107,120
115,180 116,70 117,140 118,100
119,140 120,80 121,130 122,100
123,60 126,60 128,150 129,90
130,120 131,180 132,80 133,150
134,60 135,160 143,60 144,130
145,90 146,230 147,150 148,90
149,60 154,330 155,70 156,60
158,70 159,130 160,140 161,90
164,60 165,80 170,70 172,60
174,180 175,90 176,620 177,190
181,100 182,240 183,360 184,220
185,80 186,90 189,90 190,670
191,630 192,410 193,140 198,130
199,100 200,130 201,70 202,110
203,70 204,380 205,9999 206,1561
207,170 212,120 213,90 214,110
215,90 216,130 217,290 218,880
219,230 226,350 227,160 228,480
229,180 230,330 231,60 232,80
234,1101 235,160 242,920 243,240
244,4243 245,950 246,1090 247,190
256,70 262,70 264,60 270,180
272,1040 273,230 276,500 277,110
288,130 289,70 290,80 304,340
305,90 308,60 315,80 317,190
324,70 328,70 329,70 343,160
344,60 345,1131 346,260 361,110
404,450 405,120
##END=
