##TITLE=Arecoline
##JCAMP-DX=4.24
##DATA TYPE=MASS SPECTRUM
##ORIGIN=Japan AIST/NIMC Database- Spectrum MS-NW-2274
##OWNER=NIST Mass Spectrometry Data Center
Collection (C) 2014 copyright by the U.S. Secretary of Commerce
on behalf of the United States of America. All rights reserved.
##CAS REGISTRY NO=63-75-2
##$NIST MASS SPEC NO=233747
##MOLFORM=C8 H13 N O2
##MW=155
##$NIST SOURCE=MSDC
##XUNITS=M/Z
##YUNITS=RELATIVE INTENSITY
##XFACTOR=1
##YFACTOR=1
##FIRSTX=13
##LASTX=157
##FIRSTY=10
##MAXX=157
##MINX=13
##MAXY=9999
##MINY=10
##NPOINTS=109
##PEAK TABLE=(XY..XY)
13,10 14,80 15,1929 16,40
17,10 18,40 25,10 26,199
27,1549 28,619 29,189 30,239
31,129 32,50 33,10 34,40
36,20 37,70 38,219 39,1119
40,309 41,1239 42,7789 43,6859
44,1689 45,529 46,80 47,80
48,30 49,40 50,299 51,629
52,589 53,4489 54,809 55,589
56,219 57,219 58,99 59,739
60,60 61,179 62,149 63,80
64,40 65,279 66,489 67,639
68,539 69,309 70,139 71,159
72,50 74,30 75,10 76,10
77,50 78,169 79,149 80,459
81,4129 82,1359 83,509 84,119
85,70 86,20 88,30 91,10
92,209 93,239 94,4219 95,1429
96,9489 97,979 98,99 99,90
100,20 105,10 106,40 107,20
108,179 109,30 110,40 111,119
112,1079 113,419 114,70 121,10
122,849 123,149 124,2729 125,249
126,80 127,10 128,10 136,10
137,10 138,259 139,60 140,9999
141,809 142,70 151,10 152,579
153,70 154,2439 155,8219 156,759
157,60
##END=
