##TITLE=Dihydroxyphenylalanine
##JCAMP-DX=4.24
##DATA TYPE=MASS SPECTRUM
##ORIGIN=Japan AIST/NIMC Database- Spectrum MS-NW- 427
##OWNER=NIST Mass Spectrometry Data Center
Collection (C) 2014 copyright by the U.S. Secretary of Commerce
on behalf of the United States of America. All rights reserved.
##CAS REGISTRY NO=63-84-3
##$NIST MASS SPEC NO=229073
##MOLFORM=C9 H11 N O4
##MW=197
##$NIST SOURCE=MSDC
##XUNITS=M/Z
##YUNITS=RELATIVE INTENSITY
##XFACTOR=1
##YFACTOR=1
##FIRSTX=17
##LASTX=198
##FIRSTY=20
##MAXX=198
##MINX=17
##MAXY=9999
##MINY=10
##NPOINTS=80
##PEAK TABLE=(XY..XY)
17,20 18,70 26,20 27,99
28,319 29,80 30,119 32,10
36,20 38,50 39,199 40,50
41,80 42,80 43,109 44,109
45,30 46,99 50,90 51,529
52,119 53,339 54,30 55,139
56,30 57,149 62,40 63,99
64,40 65,109 66,80 67,119
68,40 69,20 70,20 74,539
75,279 76,209 77,899 78,199
79,99 80,40 81,60 89,70
90,20 91,20 92,20 93,20
94,90 95,50 96,10 103,10
104,50 105,219 106,119 107,219
108,30 109,80 110,80 116,20
117,30 122,70 123,9999 124,1309
125,129 132,30 133,20 134,80
135,90 136,80 149,40 150,30
151,149 152,309 153,30 163,10
179,20 180,20 197,659 198,80
##END=
