##TITLE=Urea, (3-methylphenyl)-
##JCAMP-DX=4.24
##DATA TYPE=MASS SPECTRUM
##ORIGIN=Japan AIST/NIMC Database- Spectrum MS-NW-3719
##OWNER=NIST Mass Spectrometry Data Center
Collection (C) 2014 copyright by the U.S. Secretary of Commerce
on behalf of the United States of America. All rights reserved.
##CAS REGISTRY NO=63-99-0
##$NIST MASS SPEC NO=231843
##MOLFORM=C8 H10 N2 O
##MW=150
##$NIST SOURCE=MSDC
##XUNITS=M/Z
##YUNITS=RELATIVE INTENSITY
##XFACTOR=1
##YFACTOR=1
##FIRSTX=15
##LASTX=152
##FIRSTY=10
##MAXX=152
##MINX=15
##MAXY=9999
##MINY=10
##NPOINTS=69
##PEAK TABLE=(XY..XY)
15,10 16,20 17,10 18,30
26,40 27,229 28,50 29,30
30,70 37,70 38,159 39,629
40,109 41,169 42,99 43,219
44,519 45,10 49,20 50,209
51,449 52,359 53,279 54,90
55,10 61,30 62,80 63,229
64,129 65,369 66,129 67,60
68,30 73,10 74,60 75,50
76,70 77,1179 78,449 79,1009
80,389 81,60 86,10 87,10
88,10 89,159 90,219 91,399
92,70 93,20 94,10 102,20
103,10 104,249 105,119 106,5879
107,9999 108,819 109,30 119,10
121,10 132,169 133,179 134,40
148,10 149,80 150,4499 151,449
152,30
##END=
