##TITLE=Tritriacontane
##JCAMP-DX=4.24
##DATA TYPE=MASS SPECTRUM
##ORIGIN=Japan AIST/NIMC Database- Spectrum MS-NW-7070
##OWNER=NIST Mass Spectrometry Data Center
Collection (C) 2014 copyright by the U.S. Secretary of Commerce
on behalf of the United States of America. All rights reserved.
##CAS REGISTRY NO=630-05-7
##$NIST MASS SPEC NO=236546
##MOLFORM=C33 H68
##MW=464
##$NIST SOURCE=MSDC
##XUNITS=M/Z
##YUNITS=RELATIVE INTENSITY
##XFACTOR=1
##YFACTOR=1
##FIRSTX=17
##LASTX=466
##FIRSTY=10
##MAXX=466
##MINX=17
##MAXY=9999
##MINY=10
##NPOINTS=194
##PEAK TABLE=(XY..XY)
17,10 18,40 26,10 27,229
28,60 29,869 30,20 39,159
40,40 41,2079 42,569 43,6729
44,239 51,10 52,10 53,80
54,249 55,2479 56,1329 57,9999
58,459 59,10 65,20 66,20
67,309 68,339 69,1879 70,1109
71,7149 72,419 73,10 77,20
78,10 79,40 80,20 81,189
82,459 83,1709 84,809 85,5289
86,369 87,10 91,20 92,10
93,20 94,10 95,99 96,309
97,1499 98,619 99,2139 100,169
101,10 105,20 106,10 109,50
110,169 111,809 112,549 113,1649
114,149 115,10 119,10 123,30
124,109 125,479 126,489 127,1299
128,139 129,10 133,10 137,20
138,90 139,259 140,439 141,1079
142,129 143,10 151,10 152,60
153,169 154,399 155,929 156,119
157,10 165,10 166,50 167,119
168,369 169,799 170,109 171,10
179,10 180,40 181,90 182,329
183,709 184,99 185,10 194,30
195,70 196,299 197,629 198,99
199,10 208,30 209,60 210,269
211,569 212,90 213,10 222,20
223,40 224,249 225,549 226,90
227,10 236,20 237,30 238,219
239,489 240,90 241,10 250,20
251,30 252,199 253,439 254,90
255,10 264,20 265,20 266,179
267,409 268,90 269,10 278,10
279,20 280,159 281,379 282,80
283,10 292,10 293,10 294,159
295,359 296,80 297,10 306,10
307,10 308,139 309,349 310,80
311,10 321,10 322,139 323,339
324,80 325,10 336,119 337,319
338,80 339,10 350,109 351,309
352,80 353,10 364,99 365,289
366,80 367,10 378,90 379,279
380,80 381,10 392,70 393,269
394,80 395,10 406,70 407,229
408,70 409,10 420,30 421,139
422,50 423,10 434,20 435,99
436,40 449,10 463,10 464,519
465,189 466,40
##END=
