##TITLE=Propane, 1-bromo-2,2-dimethyl-
##JCAMP-DX=4.24
##DATA TYPE=MASS SPECTRUM
##ORIGIN=NIST Mass Spectrometry Data Center, 1990.
##OWNER=NIST Mass Spectrometry Data Center
Collection (C) 2014 copyright by the U.S. Secretary of Commerce
on behalf of the United States of America. All rights reserved.
##CAS REGISTRY NO=630-17-1
##$NIST MASS SPEC NO=113220
##MOLFORM=C5 H11 Br
##MW=150
##$NIST SOURCE=MSDC
##XUNITS=M/Z
##YUNITS=RELATIVE INTENSITY
##XFACTOR=1
##YFACTOR=1
##FIRSTX=14
##LASTX=152
##FIRSTY=150
##MAXX=152
##MINX=14
##MAXY=9999
##MINY=25
##NPOINTS=41
##PEAK TABLE=(XY..XY)
14,150 15,467 16,25 26,335
27,2314 28,419 29,3169 30,67
32,77 37,179 38,385 39,3230
40,526 41,5177 42,376 43,1914
44,108 49,73 50,339 51,329
52,120 53,700 54,73 55,7442
56,4472 57,9999 58,411 69,57
70,93 71,1094 79,51 81,59
82,58 93,131 95,140 107,274
109,268 135,875 137,912 150,122
152,169
##END=
