##TITLE=Propanal, 2,2-dimethyl-
##JCAMP-DX=4.24
##DATA TYPE=MASS SPECTRUM
##ORIGIN=Japan AIST/NIMC Database- Spectrum MS-NW-5375
##OWNER=NIST Mass Spectrometry Data Center
Collection (C) 2014 copyright by the U.S. Secretary of Commerce
on behalf of the United States of America. All rights reserved.
##CAS REGISTRY NO=630-19-3
##$NIST MASS SPEC NO=231221
##MOLFORM=C5 H10 O
##MW=86
##$NIST SOURCE=MSDC
##XUNITS=M/Z
##YUNITS=RELATIVE INTENSITY
##XFACTOR=1
##YFACTOR=1
##FIRSTX=15
##LASTX=87
##FIRSTY=229
##MAXX=87
##MINX=15
##MAXY=9999
##MINY=20
##NPOINTS=32
##PEAK TABLE=(XY..XY)
15,229 17,20 18,70 26,169
27,1639 28,319 29,5149 30,109
31,70 32,99 37,109 38,249
39,1939 40,259 41,8349 42,879
43,2659 44,40 45,70 50,119
51,129 53,209 55,549 56,279
57,9999 58,519 59,149 69,90
70,80 71,159 86,1809 87,309
##END=
