##TITLE=Hentriacontane
##JCAMP-DX=4.24
##DATA TYPE=MASS SPECTRUM
##ORIGIN=LAC, NIDDK, NIH, Bethesda, MD 20892
##OWNER=NIST Mass Spectrometry Data Center
Collection (C) 2014 copyright by the U.S. Secretary of Commerce
on behalf of the United States of America. All rights reserved.
##CAS REGISTRY NO=630-04-6
##$NIST MASS SPEC NO=211723
##MOLFORM=C31 H64
##MW=436
##$NIST SOURCE=MSDC
##XUNITS=M/Z
##YUNITS=RELATIVE INTENSITY
##XFACTOR=1
##YFACTOR=1
##FIRSTX=41
##LASTX=438
##FIRSTY=1944
##MAXX=438
##MINX=41
##MAXY=9999
##MINY=5
##NPOINTS=200
##PEAK TABLE=(XY..XY)
41,1944 42,648 43,6915 44,235
45,13 53,77 54,247 55,2397
56,1451 57,9999 58,419 59,8
65,17 66,23 67,243 68,367
69,1769 70,1206 71,6659 72,379
75,6 77,8 79,35 80,10
81,199 82,433 83,1586 84,788
85,4912 86,326 87,16 91,20
95,52 96,267 97,1447 98,566
99,1476 100,114 101,6 107,6
108,9 110,149 111,717 112,440
113,898 114,95 115,22 117,6
124,71 125,345 126,368 127,633
128,70 137,19 138,42 139,138
140,357 141,490 142,62 147,11
148,20 151,22 152,41 153,72
154,341 155,374 156,62 157,6
159,6 161,6 162,6 164,10
166,25 167,34 168,280 169,336
170,49 176,9 180,11 181,28
182,270 183,285 184,42 189,7
190,7 194,34 195,24 196,240
197,269 198,46 203,5 205,10
206,19 209,15 210,238 211,257
212,51 218,8 220,7 222,28
223,36 224,217 225,253 226,44
233,10 236,18 237,22 238,198
239,259 240,53 243,9 245,6
246,9 249,7 251,18 252,196
253,257 254,46 259,8 260,6
261,8 263,9 264,24 265,10
266,174 267,223 268,41 275,6
276,13 277,15 278,5 279,14
280,167 281,209 282,51 283,11
284,22 287,9 289,6 291,15
292,26 294,153 295,235 296,45
297,6 298,9 302,6 304,13
306,8 308,137 309,229 310,57
311,6 316,8 319,6 320,10
321,6 322,106 323,219 324,64
327,7 331,7 336,101 337,184
338,62 339,7 341,7 348,8
350,98 351,229 352,55 355,5
356,6 364,86 365,233 366,57
373,6 375,9 378,65 379,176
380,56 381,8 390,6 392,62
393,117 394,38 395,7 399,15
403,7 406,33 407,66 408,33
420,6 421,39 422,7 434,8
435,31 436,641 437,237 438,43
##END=
