##TITLE=Octacosane
##JCAMP-DX=4.24
##DATA TYPE=MASS SPECTRUM
##ORIGIN=Japan AIST/NIMC Database- Spectrum MS-NW- 729
##OWNER=NIST Mass Spectrometry Data Center
Collection (C) 2014 copyright by the U.S. Secretary of Commerce
on behalf of the United States of America. All rights reserved.
##CAS REGISTRY NO=630-02-4
##$NIST MASS SPEC NO=229447
##MOLFORM=C28 H58
##MW=394
##$NIST SOURCE=MSDC
##XUNITS=M/Z
##YUNITS=RELATIVE INTENSITY
##XFACTOR=1
##YFACTOR=1
##FIRSTX=26
##LASTX=396
##FIRSTY=10
##MAXX=396
##MINX=26
##MAXY=9999
##MINY=10
##NPOINTS=128
##PEAK TABLE=(XY..XY)
26,10 27,269 28,70 29,1119
30,20 39,169 40,40 41,2249
42,579 43,6839 44,229 53,90
54,229 55,2359 56,1259 57,9999
58,439 65,10 66,20 67,249
68,279 69,1519 70,1019 71,6769
72,379 77,10 79,30 80,10
81,129 82,349 83,1249 84,699
85,4669 86,309 87,10 91,10
95,60 96,209 97,1019 98,569
99,1929 100,149 105,30 106,40
109,30 110,109 111,569 112,509
113,1399 114,129 119,10 123,20
124,80 125,329 126,449 127,1139
128,99 138,50 139,169 140,409
141,919 142,99 152,40 153,109
154,359 155,789 156,90 166,30
167,80 168,319 169,679 170,90
180,20 181,50 182,279 183,609
184,80 194,10 195,40 196,269
197,579 198,80 208,10 209,20
210,229 211,509 212,80 222,10
223,20 224,189 225,439 226,80
237,10 238,179 239,409 240,80
252,159 253,379 254,70 266,139
267,339 268,70 280,129 281,309
282,70 294,109 295,289 296,70
302,10 308,80 309,259 310,60
322,70 323,229 324,60 336,60
337,179 338,50 350,30 351,109
352,30 364,20 365,70 366,20
393,10 394,729 395,219 396,40
##END=
