##TITLE=N-(Cyclohexyl)succinimide
##JCAMP-DX=4.24
##DATA TYPE=MASS SPECTRUM
##ORIGIN=NIST Mass Spectrometry Data Center
##OWNER=NIST Mass Spectrometry Data Center
Collection (C) 2014 copyright by the U.S. Secretary of Commerce
on behalf of the United States of America. All rights reserved.
##CAS REGISTRY NO=6301-71-9
##$NIST MASS SPEC NO=343341
##MOLFORM=C10 H15 N O2
##MW=181
##$NIST SOURCE=MSDC
##XUNITS=M/Z
##YUNITS=RELATIVE INTENSITY
##XFACTOR=1
##YFACTOR=1
##FIRSTX=14
##LASTX=181
##FIRSTY=10
##MAXX=181
##MINX=14
##MAXY=9999
##MINY=10
##NPOINTS=61
##PEAK TABLE=(XY..XY)
14,10 15,80 18,360 26,230
27,1201 28,1501 29,450 30,100
37,10 39,691 40,160 41,1181
42,450 43,200 44,591 45,10
50,20 51,70 52,60 53,310
54,761 55,1732 56,821 57,120
58,30 63,10 65,50 67,851
68,170 69,260 70,170 72,941
73,30 77,70 78,20 79,160
80,70 81,210 82,931 83,130
84,130 85,30 94,10 96,130
97,110 98,80 100,9999 101,470
102,50 110,180 111,40 112,40
113,30 124,30 125,40 126,20
138,150 139,10 152,20 153,10
181,20
##END=
