##TITLE=n-Pentylpyrazine
##JCAMP-DX=4.24
##DATA TYPE=MASS SPECTRUM
##ORIGIN=NIST Mass Spectrometry Data Center, 1994
##OWNER=NIST Mass Spectrometry Data Center
Collection (C) 2014 copyright by the U.S. Secretary of Commerce
on behalf of the United States of America. All rights reserved.
##CAS REGISTRY NO=6303-75-9
##$NIST MASS SPEC NO=135967
##MOLFORM=C9 H14 N2
##MW=150
##$NIST SOURCE=MSDC
##XUNITS=M/Z
##YUNITS=RELATIVE INTENSITY
##XFACTOR=1
##YFACTOR=1
##FIRSTX=13
##LASTX=151
##FIRSTY=6
##MAXX=151
##MINX=13
##MAXY=9999
##MINY=3
##NPOINTS=72
##PEAK TABLE=(XY..XY)
13,6 14,20 15,169 16,3
17,7 18,19 26,793 27,1566
28,939 29,1173 30,37 37,73
38,268 39,1911 40,497 41,1167
42,462 43,142 44,11 49,10
50,108 51,272 52,767 53,628
54,256 55,173 56,26 57,11
61,7 62,19 63,54 64,87
65,160 66,545 67,566 68,226
69,42 75,8 76,12 77,37
78,59 79,283 80,270 81,137
82,21 89,4 90,5 91,21
93,797 94,9999 95,720 96,27
104,6 105,31 107,1556 108,289
109,26 117,5 118,36 119,139
120,5 121,604 122,110 123,7
131,14 132,7 133,26 135,150
136,17 149,77 150,174 151,25
##END=
