##TITLE=1-(2-Chlorophenyl)propan-2-one
##JCAMP-DX=4.24
##DATA TYPE=MASS SPECTRUM
##ORIGIN=NIST Mass Spectrometry Data Center, 1994
##OWNER=NIST Mass Spectrometry Data Center
Collection (C) 2014 copyright by the U.S. Secretary of Commerce
on behalf of the United States of America. All rights reserved.
##CAS REGISTRY NO=6305-95-9
##$NIST MASS SPEC NO=136491
##MOLFORM=C9 H9 Cl O
##MW=168
##$NIST SOURCE=MSDC
##XUNITS=M/Z
##YUNITS=RELATIVE INTENSITY
##XFACTOR=1
##YFACTOR=1
##FIRSTX=13
##LASTX=171
##FIRSTY=35
##MAXX=171
##MINX=13
##MAXY=9999
##MINY=7
##NPOINTS=70
##PEAK TABLE=(XY..XY)
13,35 14,174 15,896 16,8
26,56 27,82 35,15 36,19
37,95 38,213 39,707 40,65
41,41 42,15 43,9999 44,243
47,16 49,70 50,332 51,406
52,46 53,17 55,9 57,9
60,19 61,143 62,417 63,1094
64,190 65,139 66,15 72,28
73,266 74,90 75,237 76,46
77,161 78,30 79,26 84,26
85,77 86,109 87,99 88,26
89,1336 90,313 91,349 92,32
97,40 99,362 100,23 101,142
102,38 103,57 105,58 113,10
115,30 118,21 123,20 125,1506
126,336 127,530 128,107 131,30
133,1450 134,152 168,244 169,26
170,86 171,7
##END=
