##TITLE=Isoamyl laurate
##JCAMP-DX=4.24
##DATA TYPE=MASS SPECTRUM
##ORIGIN=Japan AIST/NIMC Database- Spectrum MS-NW-8464
##OWNER=NIST Mass Spectrometry Data Center
Collection (C) 2014 copyright by the U.S. Secretary of Commerce
on behalf of the United States of America. All rights reserved.
##CAS REGISTRY NO=6309-51-9
##$NIST MASS SPEC NO=228629
##MOLFORM=C17 H34 O2
##MW=270
##$NIST SOURCE=MSDC
##XUNITS=M/Z
##YUNITS=RELATIVE INTENSITY
##XFACTOR=1
##YFACTOR=1
##FIRSTX=15
##LASTX=270
##FIRSTY=10
##MAXX=270
##MINX=15
##MAXY=9999
##MINY=10
##NPOINTS=110
##PEAK TABLE=(XY..XY)
15,10 17,10 18,30 26,20
27,339 28,149 29,899 30,40
31,30 39,219 40,50 41,1619
42,759 43,5009 44,189 45,99
51,10 53,80 54,119 55,2149
56,609 57,1799 58,99 59,40
60,629 61,249 65,10 67,159
68,109 69,669 70,9999 71,4749
72,259 73,619 74,80 75,10
79,30 80,10 81,159 82,60
83,389 84,249 85,499 86,40
87,209 88,30 89,30 93,20
94,10 95,219 96,50 97,259
98,239 99,99 100,20 101,159
102,30 103,30 107,10 109,119
110,30 111,99 112,50 113,30
114,10 115,239 116,30 117,10
121,10 123,40 124,10 125,30
126,10 127,20 129,249 130,90
131,50 135,10 137,10 138,30
139,20 140,20 141,10 143,129
144,10 153,10 155,169 156,20
157,139 158,10 163,20 165,10
171,60 172,30 173,50 181,10
183,949 184,129 185,40 199,30
200,249 201,349 202,40 211,90
212,10 227,50 228,40 229,40
255,20 270,20
##END=
