##TITLE=Ammonium acetate
##JCAMP-DX=4.24
##DATA TYPE=MASS SPECTRUM
##ORIGIN=Japan AIST/NIMC Database- Spectrum MS-NW-9218
##OWNER=NIST Mass Spectrometry Data Center
Collection (C) 2014 copyright by the U.S. Secretary of Commerce
on behalf of the United States of America. All rights reserved.
##CAS REGISTRY NO=631-61-8
##$NIST MASS SPEC NO=228590
##MOLFORM=C2 H7 N O2
##MW=77
##$NIST SOURCE=MSDC
##XUNITS=M/Z
##YUNITS=RELATIVE INTENSITY
##XFACTOR=1
##YFACTOR=1
##FIRSTX=12
##LASTX=62
##FIRSTY=70
##MAXX=62
##MINX=12
##MAXY=9999
##MINY=10
##NPOINTS=26
##PEAK TABLE=(XY..XY)
12,70 13,269 14,649 15,2719
16,4889 17,7339 18,419 25,50
26,40 27,10 28,569 29,789
30,40 31,209 40,90 41,319
42,1159 43,9999 44,419 45,8949
46,109 47,40 59,10 60,6509
61,619 62,40
##END=
