##TITLE=Ethanethioamide, N,N-dimethyl-
##JCAMP-DX=4.24
##DATA TYPE=MASS SPECTRUM
##ORIGIN=NIST Mass Spectrometry Data Center, 1994
##OWNER=NIST Mass Spectrometry Data Center
Collection (C) 2014 copyright by the U.S. Secretary of Commerce
on behalf of the United States of America. All rights reserved.
##CAS REGISTRY NO=631-67-4
##$NIST MASS SPEC NO=135769
##MOLFORM=C4 H9 N S
##MW=103
##$NIST SOURCE=MSDC
##XUNITS=M/Z
##YUNITS=RELATIVE INTENSITY
##XFACTOR=1
##YFACTOR=1
##FIRSTX=12
##LASTX=106
##FIRSTY=60
##MAXX=106
##MINX=12
##MAXY=9999
##MINY=13
##NPOINTS=57
##PEAK TABLE=(XY..XY)
12,60 13,101 15,1964 16,42
25,97 26,537 27,847 28,223
29,112 30,2322 32,257 33,224
34,109 35,41 36,16 37,80
38,154 39,380 40,612 41,777
42,5120 43,488 44,6198 45,1714
46,448 47,1542 48,53 49,75
50,22 51,175 52,387 53,105
54,800 55,2072 56,3928 57,965
58,2329 59,7879 60,562 61,558
62,41 66,13 68,159 70,4365
71,300 72,432 73,701 75,41
85,15 86,31 88,2373 89,124
90,123 103,9999 104,561 105,456
106,22
##END=
