##TITLE=Tetrapropylammonium iodide
##JCAMP-DX=4.24
##DATA TYPE=MASS SPECTRUM
##ORIGIN=Japan AIST/NIMC Database- Spectrum MS-NW-1767
##OWNER=NIST Mass Spectrometry Data Center
Collection (C) 2014 copyright by the U.S. Secretary of Commerce
on behalf of the United States of America. All rights reserved.
##CAS REGISTRY NO=631-40-3
##$NIST MASS SPEC NO=228030
##MOLFORM=C12 H28 I N
##MW=313
##$NIST SOURCE=MSDC
##XUNITS=M/Z
##YUNITS=RELATIVE INTENSITY
##XFACTOR=1
##YFACTOR=1
##FIRSTX=14
##LASTX=187
##FIRSTY=20
##MAXX=187
##MINX=14
##MAXY=9999
##MINY=10
##NPOINTS=124
##PEAK TABLE=(XY..XY)
14,20 15,229 25,10 26,169
27,2729 28,709 29,249 30,2409
31,40 32,20 36,10 37,80
38,139 39,1099 40,159 41,3709
42,1079 43,8619 44,629 45,40
50,10 51,30 52,20 53,40
54,119 55,209 56,319 57,229
58,409 59,30 60,60 63,10
64,10 65,20 66,10 67,90
68,80 69,129 70,369 71,119
72,2329 73,119 74,10 77,30
78,20 79,40 80,30 81,70
82,70 83,90 84,309 85,80
86,1169 87,60 91,50 92,20
93,30 94,30 95,60 96,40
97,60 98,109 99,30 100,139
101,10 104,10 105,30 106,10
107,30 108,20 109,30 110,20
111,40 112,129 113,20 114,9999
115,789 116,30 117,10 119,10
121,20 122,10 123,20 124,10
125,20 126,10 127,499 128,239
129,30 130,10 131,10 133,10
135,10 136,10 137,10 138,10
139,10 140,10 141,80 142,149
143,529 144,60 145,10 147,10
149,10 150,10 151,10 152,10
153,10 155,60 156,10 165,10
167,10 168,10 169,10 170,1669
171,60 181,10 182,10 183,10
184,30 185,10 186,70 187,10
##END=
