##TITLE=Diethyl dibromomalonate
##JCAMP-DX=4.24
##DATA TYPE=MASS SPECTRUM
##ORIGIN=NIST Mass Spectrometry Data Center, 1994
##OWNER=NIST Mass Spectrometry Data Center
Collection (C) 2014 copyright by the U.S. Secretary of Commerce
on behalf of the United States of America. All rights reserved.
##CAS REGISTRY NO=631-22-1
##$NIST MASS SPEC NO=133642
##MOLFORM=C7 H10 Br2 O4
##MW=316
##$NIST SOURCE=MSDC
##XUNITS=M/Z
##YUNITS=RELATIVE INTENSITY
##XFACTOR=1
##YFACTOR=1
##FIRSTX=13
##LASTX=240
##FIRSTY=92
##MAXX=240
##MINX=13
##MAXY=9999
##MINY=72
##NPOINTS=61
##PEAK TABLE=(XY..XY)
13,92 14,268 15,334 19,137
26,534 27,3348 28,1099 29,9999
30,369 31,388 39,72 41,1982
42,1079 43,1127 44,133 45,1288
55,171 60,179 69,2294 70,206
71,90 72,90 73,478 75,102
79,79 81,96 86,937 87,1103
88,264 92,360 93,296 94,339
95,254 96,76 109,310 111,267
115,579 120,2761 121,1113 122,2627
123,1106 133,212 138,7885 140,7577
141,248 159,169 165,289 166,3122
167,624 168,2913 169,387 193,1936
194,215 195,1871 196,152 210,429
211,340 212,415 213,363 238,522
240,481
##END=
