##TITLE=2-Acetyl-5-chlorothiophene
##JCAMP-DX=4.24
##DATA TYPE=MASS SPECTRUM
##ORIGIN=Chuck Anderson, Aldrich Chemical Co.
##OWNER=NIST Mass Spectrometry Data Center
Collection (C) 2014 copyright by the U.S. Secretary of Commerce
on behalf of the United States of America. All rights reserved.
##CAS REGISTRY NO=6310-09-4
##$NIST MASS SPEC NO=118018
##MOLFORM=C6 H5 Cl O S
##MW=160
##$NIST SOURCE=MSDC
##XUNITS=M/Z
##YUNITS=RELATIVE INTENSITY
##XFACTOR=1
##YFACTOR=1
##FIRSTX=14
##LASTX=164
##FIRSTY=80
##MAXX=164
##MINX=14
##MAXY=9999
##MINY=5
##NPOINTS=78
##PEAK TABLE=(XY..XY)
14,80 15,423 25,11 26,49
27,54 29,11 32,59 35,42
36,112 37,593 38,901 39,514
40,38 41,112 42,272 43,3164
44,197 45,885 46,42 47,183
48,86 49,249 50,304 51,205
52,42 53,314 56,72 57,767
58,247 59,117 60,108 61,116
62,100 63,90 68,84 69,480
70,80 71,75 72,120 73,2499
74,142 75,822 76,13 77,6
79,292 80,93 81,965 82,949
83,601 84,183 85,52 87,63
91,104 92,107 93,154 94,43
95,126 96,30 97,56 108,5
109,38 116,50 117,1147 118,265
119,466 120,96 131,84 133,19
145,9999 146,585 147,3733 148,225
149,162 160,4113 161,286 162,1558
163,109 164,70
##END=
