##TITLE=3-Ethyl-4-octanol
##JCAMP-DX=4.24
##DATA TYPE=MASS SPECTRUM
##ORIGIN=NIST Mass Spectrometry Data Center, 1990.
##OWNER=NIST Mass Spectrometry Data Center
Collection (C) 2014 copyright by the U.S. Secretary of Commerce
on behalf of the United States of America. All rights reserved.
##CAS REGISTRY NO=63126-48-7
##$NIST MASS SPEC NO=113694
##MOLFORM=C10 H22 O
##MW=158
##$NIST SOURCE=MSDC
##XUNITS=M/Z
##YUNITS=RELATIVE INTENSITY
##XFACTOR=1
##YFACTOR=1
##FIRSTX=15
##LASTX=101
##FIRSTY=105
##MAXX=101
##MINX=15
##MAXY=9999
##MINY=98
##NPOINTS=30
##PEAK TABLE=(XY..XY)
15,105 27,1376 28,774 29,2132
30,123 31,698 32,98 39,809
41,3851 42,476 43,2627 44,659
45,1101 53,264 55,1826 56,233
57,1678 58,324 59,2063 67,191
69,9999 70,1705 71,621 72,169
83,869 84,138 86,1564 87,3925
88,218 101,1159
##END=
