##TITLE=(S)-(-)-2-(Methoxymethyl)-1-pyrrolidinecarboxaldehyde
##JCAMP-DX=4.24
##DATA TYPE=MASS SPECTRUM
##ORIGIN=Chuck Anderson, Aldrich Chemical Co.
##OWNER=NIST Mass Spectrometry Data Center
Collection (C) 2014 copyright by the U.S. Secretary of Commerce
on behalf of the United States of America. All rights reserved.
##CAS REGISTRY NO=63126-45-4
##$NIST MASS SPEC NO=108211
##MOLFORM=C7 H13 N O2
##MW=143
##$NIST SOURCE=MSDC
##XUNITS=M/Z
##YUNITS=RELATIVE INTENSITY
##XFACTOR=1
##YFACTOR=1
##FIRSTX=14
##LASTX=144
##FIRSTY=29
##MAXX=144
##MINX=14
##MAXY=9999
##MINY=1
##NPOINTS=64
##PEAK TABLE=(XY..XY)
14,29 15,620 16,14 17,15
18,102 26,91 27,807 28,3847
29,1168 30,710 31,151 32,9
33,38 37,26 38,87 39,1071
40,288 41,2873 42,1168 43,3262
44,267 45,1558 46,72 47,6
50,32 51,65 52,65 53,296
54,316 55,657 56,332 57,65
58,148 59,174 60,8 64,5
65,54 66,37 67,316 68,1347
70,9414 71,677 72,66 73,5
74,1 80,78 81,18 82,255
83,118 84,87 85,57 86,25
94,3 96,26 98,9999 99,535
100,77 111,2970 112,220 113,36
114,21 128,10 143,10 144,30
##END=
