##TITLE=Benzo(b)thiophene-2-carboxamide
##JCAMP-DX=4.24
##DATA TYPE=MASS SPECTRUM
##ORIGIN=NIST Mass Spectrometry Data Center, 1994
##OWNER=NIST Mass Spectrometry Data Center
Collection (C) 2014 copyright by the U.S. Secretary of Commerce
on behalf of the United States of America. All rights reserved.
##CAS REGISTRY NO=6314-42-7
##$NIST MASS SPEC NO=136618
##MOLFORM=C9 H7 N O S
##MW=177
##$NIST SOURCE=MSDC
##XUNITS=M/Z
##YUNITS=RELATIVE INTENSITY
##XFACTOR=1
##YFACTOR=1
##FIRSTX=17
##LASTX=179
##FIRSTY=60
##MAXX=179
##MINX=17
##MAXY=9999
##MINY=60
##NPOINTS=46
##PEAK TABLE=(XY..XY)
17,60 18,71 37,217 38,308
39,918 44,967 50,546 51,346
53,157 57,189 58,207 61,341
62,676 63,1483 64,220 65,109
66,109 67,510 68,109 69,980
70,129 75,445 76,136 77,242
81,405 82,350 83,98 86,178
87,259 89,5106 90,756 93,498
106,175 108,233 121,302 132,421
133,2324 134,752 135,172 159,980
161,9999 162,1177 163,537 177,7482
178,928 179,432
##END=
