##TITLE=Benzenamine, 3,4-dimethoxy-
##JCAMP-DX=4.24
##DATA TYPE=MASS SPECTRUM
##ORIGIN=NIST Mass Spectrometry Data Center, 1998.
##OWNER=NIST Mass Spectrometry Data Center
Collection (C) 2014 copyright by the U.S. Secretary of Commerce
on behalf of the United States of America. All rights reserved.
##CAS REGISTRY NO=6315-89-5
##$NIST MASS SPEC NO=290956
##MOLFORM=C8 H11 N O2
##MW=153
##$NIST SOURCE=MSDC
##XUNITS=M/Z
##YUNITS=RELATIVE INTENSITY
##XFACTOR=1
##YFACTOR=1
##FIRSTX=14
##LASTX=155
##FIRSTY=20
##MAXX=155
##MINX=14
##MAXY=9999
##MINY=10
##NPOINTS=88
##PEAK TABLE=(XY..XY)
14,20 15,240 25,10 26,60
27,90 28,130 29,170 30,60
31,40 33,120 37,70 38,210
39,700 40,320 41,1300 42,190
43,50 44,90 45,20 47,20
49,50 50,300 51,620 52,1510
53,980 54,370 55,250 56,40
57,10 58,20 59,10 60,10
62,190 63,280 64,160 65,1310
66,410 67,1950 68,780 69,230
70,20 74,30 75,30 76,90
77,160 78,410 79,690 80,1790
81,270 82,480 83,60 84,10
87,10 88,10 89,30 90,80
91,100 92,1210 93,1040 94,340
95,3050 96,230 97,20 106,60
107,290 108,540 109,380 110,7429
111,530 112,30 120,80 121,40
122,80 123,10 124,20 125,430
126,30 135,10 136,80 137,330
138,9999 139,830 140,70 150,10
152,330 153,8679 154,810 155,70
##END=
