##TITLE=Benzene, 1,1',1'',1'''-(1,2-ethenediylidene)tetrakis-
##JCAMP-DX=4.24
##DATA TYPE=MASS SPECTRUM
##ORIGIN=Japan AIST/NIMC Database- Spectrum MS-IW-7531
##OWNER=NIST Mass Spectrometry Data Center
Collection (C) 2014 copyright by the U.S. Secretary of Commerce
on behalf of the United States of America. All rights reserved.
##CAS REGISTRY NO=632-51-9
##$NIST MASS SPEC NO=229745
##MOLFORM=C26 H20
##MW=332
##$NIST SOURCE=MSDC
##XUNITS=M/Z
##YUNITS=RELATIVE INTENSITY
##XFACTOR=1
##YFACTOR=1
##FIRSTX=27
##LASTX=335
##FIRSTY=10
##MAXX=335
##MINX=27
##MAXY=9999
##MINY=10
##NPOINTS=170
##PEAK TABLE=(XY..XY)
27,10 39,40 41,10 50,10
51,109 52,10 63,40 65,10
74,10 75,20 76,20 77,119
78,40 87,20 88,10 89,30
91,40 99,10 100,30 101,40
102,20 103,30 104,10 105,10
106,10 111,10 112,20 113,119
114,70 115,60 118,20 119,119
120,30 124,20 125,99 126,389
127,339 128,40 129,10 130,30
131,80 132,30 133,10 136,10
137,70 138,189 139,70 141,10
142,10 143,139 144,259 145,209
146,20 149,60 150,309 151,419
152,279 153,70 154,50 155,50
156,249 157,199 158,159 159,20
161,20 162,90 163,159 164,80
165,449 166,329 167,289 168,40
174,10 175,20 176,169 177,159
178,349 179,70 187,20 188,10
189,50 190,10 191,10 200,40
201,20 202,80 203,30 204,10
211,10 212,10 213,40 214,10
215,129 216,30 217,10 224,40
225,40 226,139 227,70 228,109
229,50 230,10 237,30 238,10
239,569 240,359 241,709 242,149
243,10 248,20 249,10 250,209
251,99 252,1169 253,1749 254,1309
255,1299 256,249 257,20 261,20
262,10 263,60 264,20 265,99
266,30 267,10 274,30 275,20
276,109 277,60 278,40 279,10
287,40 288,20 289,259 290,109
291,259 292,70 293,10 298,10
299,10 300,80 301,70 302,209
303,169 304,90 305,50 306,10
311,10 312,10 313,109 314,70
315,299 316,179 317,329 318,90
319,10 322,10 324,40 325,10
326,99 327,99 328,90 329,149
330,149 331,439 332,9999 333,2849
334,399 335,30
##END=
