##TITLE=Thiophene, 3,4-dimethyl-
##JCAMP-DX=4.24
##DATA TYPE=MASS SPECTRUM
##ORIGIN=Dr. Jiri Zamecnik, DCIEM, North York, Canada, GP Library
##OWNER=NIST Mass Spectrometry Data Center
Collection (C) 2014 copyright by the U.S. Secretary of Commerce
on behalf of the United States of America. All rights reserved.
##CAS REGISTRY NO=632-15-5
##$NIST MASS SPEC NO=122089
##MOLFORM=C6 H8 S
##MW=112
##$NIST SOURCE=MSDC
##XUNITS=M/Z
##YUNITS=RELATIVE INTENSITY
##XFACTOR=1
##YFACTOR=1
##FIRSTX=38
##LASTX=114
##FIRSTY=240
##MAXX=114
##MINX=38
##MAXY=9999
##MINY=80
##NPOINTS=30
##PEAK TABLE=(XY..XY)
38,240 39,1090 41,430 45,1750
47,110 50,180 51,340 53,350
55,110 58,160 59,200 65,190
67,450 69,480 70,140 71,490
77,690 78,300 79,250 84,80
85,170 97,6700 98,180 99,120
109,90 110,120 111,9999 112,8420
113,540 114,140
##END=
