##TITLE=2-Propanone, 1,1,3,3-tetrachloro-
##JCAMP-DX=4.24
##DATA TYPE=MASS SPECTRUM
##ORIGIN=Japan AIST/NIMC Database- Spectrum MS-NW-9502
##OWNER=NIST Mass Spectrometry Data Center
Collection (C) 2014 copyright by the U.S. Secretary of Commerce
on behalf of the United States of America. All rights reserved.
##CAS REGISTRY NO=632-21-3
##$NIST MASS SPEC NO=235580
##MOLFORM=C3 H2 Cl4 O
##MW=194
##$NIST SOURCE=MSDC
##XUNITS=M/Z
##YUNITS=RELATIVE INTENSITY
##XFACTOR=1
##YFACTOR=1
##FIRSTX=12
##LASTX=200
##FIRSTY=10
##MAXX=200
##MINX=12
##MAXY=9999
##MINY=10
##NPOINTS=86
##PEAK TABLE=(XY..XY)
12,10 13,40 14,10 24,20
25,109 26,199 27,10 28,90
29,70 35,139 36,279 37,99
38,90 40,10 41,119 42,50
43,20 44,20 47,359 48,809
49,309 50,259 51,60 52,10
53,60 59,40 60,229 61,299
62,80 63,169 65,30 71,10
72,20 73,30 74,10 75,10
76,1399 77,589 78,449 79,179
82,119 83,9999 84,199 85,6429
86,90 87,1069 88,10 89,30
91,10 94,20 95,319 96,99
97,219 98,50 99,40 110,169
111,2359 112,159 113,1519 114,50
115,239 117,109 119,99 121,40
123,30 125,20 127,30 129,40
130,40 131,219 132,40 133,199
134,20 135,60 136,10 155,10
157,20 159,90 161,90 163,30
194,279 195,10 196,359 197,10
198,169 200,30
##END=
