##TITLE=Hydrazine, tetraphenyl-
##JCAMP-DX=4.24
##DATA TYPE=MASS SPECTRUM
##ORIGIN=A.ALM RES. INST. SWEDISH NAT. DEFENCE, SUNDBYBERG, SWEDEN
##OWNER=NIST Mass Spectrometry Data Center
Collection (C) 2014 copyright by the U.S. Secretary of Commerce
on behalf of the United States of America. All rights reserved.
##CAS REGISTRY NO=632-52-0
##$NIST MASS SPEC NO=38123
##MOLFORM=C24 H20 N2
##MW=336
##$NIST SOURCE=MSDC
##XUNITS=M/Z
##YUNITS=RELATIVE INTENSITY
##XFACTOR=1
##YFACTOR=1
##FIRSTX=39
##LASTX=337
##FIRSTY=800
##MAXX=337
##MINX=39
##MAXY=9999
##MINY=200
##NPOINTS=24
##PEAK TABLE=(XY..XY)
39,800 50,400 51,1500 52,400
63,300 64,200 65,600 66,700
76,200 77,1500 78,1500 84,400
115,300 139,300 140,200 141,400
142,200 166,800 167,3900 168,7700
169,9999 170,1400 336,1700 337,400
##END=
