##TITLE=Thiophene, 2,3-dimethyl-
##JCAMP-DX=4.24
##DATA TYPE=MASS SPECTRUM
##OWNER=NIST Mass Spectrometry Data Center
Collection (C) 2014 copyright by the U.S. Secretary of Commerce
on behalf of the United States of America. All rights reserved.
##CAS REGISTRY NO=632-16-6
##$NIST MASS SPEC NO=1675
##MOLFORM=C6 H8 S
##MW=112
##$NIST SOURCE=MSDC
##XUNITS=M/Z
##YUNITS=RELATIVE INTENSITY
##XFACTOR=1
##YFACTOR=1
##FIRSTX=12
##LASTX=115
##FIRSTY=40
##MAXX=115
##MINX=12
##MAXY=9999
##MINY=10
##NPOINTS=84
##PEAK TABLE=(XY..XY)
12,40 13,40 14,40 15,360
16,10 24,10 25,50 26,400
27,1762 28,150 29,120 32,70
33,50 34,30 35,20 36,30
37,260 38,390 39,1742 40,210
41,651 42,50 43,30 44,80
45,2993 46,130 47,240 48,40
49,180 50,771 51,1191 52,330
53,1031 54,130 55,330 56,50
57,370 58,1001 59,1381 60,120
61,180 62,170 63,260 64,40
65,340 66,170 67,721 68,90
69,631 70,190 71,460 72,70
73,50 74,60 75,20 76,20
77,1111 78,470 79,240 80,30
81,90 82,110 83,80 84,170
85,460 86,40 87,20 92,20
93,90 94,10 95,110 96,30
97,9999 98,1041 99,470 100,40
108,20 109,210 110,210 111,8327
112,8348 113,941 114,390 115,20
##END=
