##TITLE=1,3-Isobenzofurandione, 4,5,6,7-tetrabromo-
##JCAMP-DX=4.24
##DATA TYPE=MASS SPECTRUM
##ORIGIN=Japan AIST/NIMC Database- Spectrum MS-NW- 259
##OWNER=NIST Mass Spectrometry Data Center
Collection (C) 2014 copyright by the U.S. Secretary of Commerce
on behalf of the United States of America. All rights reserved.
##CAS REGISTRY NO=632-79-1
##$NIST MASS SPEC NO=228038
##MOLFORM=C8 Br4 O3
##MW=460
##$NIST SOURCE=MSDC
##XUNITS=M/Z
##YUNITS=RELATIVE INTENSITY
##XFACTOR=1
##YFACTOR=1
##FIRSTX=12
##LASTX=470
##FIRSTY=30
##MAXX=470
##MINX=12
##MAXY=9999
##MINY=10
##NPOINTS=265
##PEAK TABLE=(XY..XY)
12,30 17,29 18,99 24,40
27,70 28,189 29,109 32,20
36,1229 37,90 39,70 40,20
41,319 42,70 43,389 44,159
45,40 48,249 49,20 50,20
51,20 52,40 53,40 54,80
55,429 56,139 57,359 58,20
60,739 61,70 64,20 67,179
68,119 69,389 70,119 71,189
72,3679 73,449 74,40 75,149
76,149 77,40 79,459 80,229
81,479 82,239 83,249 84,99
85,119 87,30 88,30 89,339
90,329 91,259 92,20 93,259
94,30 95,139 96,129 97,209
98,129 99,30 100,159 101,40
103,50 105,60 106,20 107,50
108,20 109,80 110,60 111,109
112,40 113,30 114,20 115,1219
116,1529 117,1199 118,20 119,30
121,40 122,20 123,60 124,50
125,50 126,20 127,179 128,20
129,209 130,149 131,139 133,80
135,30 136,30 137,50 138,40
139,289 140,30 141,279 142,20
143,30 145,20 147,20 149,30
150,20 151,3239 152,319 153,3159
154,379 155,819 156,769 157,209
158,60 160,70 161,10 162,30
163,20 165,30 166,30 167,40
168,20 169,40 170,50 171,20
172,20 174,20 175,10 176,20
177,10 178,109 179,479 180,40
181,459 182,50 183,20 184,40
185,20 186,60 188,60 189,20
190,20 191,20 192,30 193,20
194,259 195,889 196,1369 197,849
198,249 199,20 202,80 203,30
204,20 205,10 206,70 208,209
209,299 210,499 211,279 212,70
213,20 218,40 219,20 220,70
222,30 229,20 230,2419 231,289
232,4799 233,489 234,2299 235,189
236,90 237,40 239,20 243,20
248,20 250,20 254,20 255,40
256,50 257,30 259,30 260,40
261,50 262,30 263,30 264,30
265,20 267,40 269,30 278,50
280,40 295,30 297,30 299,20
301,20 309,779 310,80 311,2249
312,249 313,2219 314,259 315,749
316,80 337,619 338,139 339,1769
340,389 341,1739 342,359 343,589
344,129 346,40 348,50 350,20
357,20 359,40 361,20 368,40
372,30 374,99 376,119 378,60
380,20 382,80 383,20 384,229
385,40 386,229 387,50 388,629
389,60 390,2209 391,149 392,3219
393,229 394,2099 395,149 396,529
397,30 416,1549 417,129 418,5989
419,479 420,8739 421,689 422,5719
423,459 424,1399 425,109 436,20
438,40 440,30 460,1759 461,159
462,6849 463,639 464,9999 465,899
466,6729 467,609 468,1779 469,169
470,70
##END=
