##TITLE=Urea, trimethyl-
##JCAMP-DX=4.24
##DATA TYPE=MASS SPECTRUM
##ORIGIN=M.A.BALDWIN, UNIVERSITY COLLEGE, LONDON, UK
##OWNER=NIST Mass Spectrometry Data Center
Collection (C) 2014 copyright by the U.S. Secretary of Commerce
on behalf of the United States of America. All rights reserved.
##CAS REGISTRY NO=632-14-4
##$NIST MASS SPEC NO=1223
##MOLFORM=C4 H10 N2 O
##MW=102
##$NIST SOURCE=MSDC
##XUNITS=M/Z
##YUNITS=RELATIVE INTENSITY
##XFACTOR=1
##YFACTOR=1
##FIRSTX=28
##LASTX=103
##FIRSTY=770
##MAXX=103
##MINX=28
##MAXY=9999
##MINY=80
##NPOINTS=23
##PEAK TABLE=(XY..XY)
28,770 29,180 30,1320 31,90
39,100 40,210 41,400 42,2060
43,2910 44,9999 45,1840 55,230
56,210 57,220 58,1060 59,190
69,200 70,100 71,280 72,1620
73,130 102,1130 103,80
##END=
