##TITLE=Sulfasomizole
##JCAMP-DX=4.24
##DATA TYPE=MASS SPECTRUM
##ORIGIN=Finnigan MAT: Toxicological Library (LIBR-TX)
##OWNER=NIST Mass Spectrometry Data Center
Collection (C) 2014 copyright by the U.S. Secretary of Commerce
on behalf of the United States of America. All rights reserved.
##CAS REGISTRY NO=632-00-8
##$NIST MASS SPEC NO=120993
##MOLFORM=C10 H11 N3 O2 S2
##MW=269
##$NIST SOURCE=MSDC
##XUNITS=M/Z
##YUNITS=RELATIVE INTENSITY
##XFACTOR=1
##YFACTOR=1
##FIRSTX=41
##LASTX=271
##FIRSTY=637
##MAXX=271
##MINX=41
##MAXY=9999
##MINY=92
##NPOINTS=25
##PEAK TABLE=(XY..XY)
41,637 42,480 52,265 54,323
64,408 65,3840 66,672 72,616
80,410 91,192 92,7804 93,724
108,4416 109,301 114,101 124,210
125,92 140,680 156,9999 157,685
158,394 205,494 269,1875 270,888
271,195
##END=
