##TITLE=2-Bromothiophenol
##JCAMP-DX=4.24
##DATA TYPE=MASS SPECTRUM
##ORIGIN=NIST Mass Spectrometry Data Center
##OWNER=NIST Mass Spectrometry Data Center
Collection (C) 2014 copyright by the U.S. Secretary of Commerce
on behalf of the United States of America. All rights reserved.
##CAS REGISTRY NO=6320-02-1
##$NIST MASS SPEC NO=342365
##MOLFORM=C6 H5 Br S
##MW=188
##$NIST SOURCE=MSDC
##XUNITS=M/Z
##YUNITS=RELATIVE INTENSITY
##XFACTOR=1
##YFACTOR=1
##FIRSTX=17
##LASTX=193
##FIRSTY=10
##MAXX=193
##MINX=17
##MAXY=9999
##MINY=10
##NPOINTS=93
##PEAK TABLE=(XY..XY)
17,10 24,10 25,60 26,90
32,200 33,210 34,20 36,110
37,641 38,741 39,1071 40,40
44,80 45,550 46,10 47,40
48,40 49,290 50,1231 51,370
53,170 54,661 56,60 57,290
58,711 60,100 61,330 62,470
63,981 64,220 65,1722 66,110
69,2742 70,180 71,150 72,40
73,230 74,530 75,540 76,270
77,100 79,190 80,170 81,821
82,1401 83,230 84,100 91,10
93,250 94,200 95,220 96,10
104,30 105,100 106,110 108,3063
109,9999 110,911 111,500 112,40
113,20 116,20 117,60 118,20
119,60 123,10 125,10 128,20
129,10 130,20 131,20 135,10
137,10 143,30 144,30 145,20
146,20 149,10 155,50 156,20
157,40 158,20 162,20 164,20
183,10 184,40 185,20 188,4244
189,591 190,4414 191,350 192,180
193,10
##END=
