##TITLE=3-Bromothiophenol
##JCAMP-DX=4.24
##DATA TYPE=MASS SPECTRUM
##ORIGIN=Chuck Anderson, Aldrich Chemical Co.
##OWNER=NIST Mass Spectrometry Data Center
Collection (C) 2014 copyright by the U.S. Secretary of Commerce
on behalf of the United States of America. All rights reserved.
##CAS REGISTRY NO=6320-01-0
##$NIST MASS SPEC NO=107908
##MOLFORM=C6 H5 Br S
##MW=188
##$NIST SOURCE=MSDC
##XUNITS=M/Z
##YUNITS=RELATIVE INTENSITY
##XFACTOR=1
##YFACTOR=1
##FIRSTX=36
##LASTX=192
##FIRSTY=112
##MAXX=192
##MINX=36
##MAXY=9999
##MINY=12
##NPOINTS=56
##PEAK TABLE=(XY..XY)
36,112 37,238 38,369 39,472
45,422 49,110 50,560 51,195
53,108 54,480 55,43 57,158
58,301 59,31 61,198 62,320
63,819 64,135 65,1768 66,105
68,70 69,1600 70,91 71,100
73,165 74,628 75,636 76,373
77,91 79,31 80,58 81,457
82,781 83,208 84,72 93,144
94,354 95,373 105,67 106,77
107,156 108,2149 109,9999 110,800
111,468 117,30 119,12 144,13
155,80 157,76 187,207 188,4877
189,544 190,4999 191,362 192,223
##END=
