##TITLE=Tris(2-methylallyl)amine
##JCAMP-DX=4.24
##DATA TYPE=MASS SPECTRUM
##ORIGIN=Japan AIST/NIMC Database- Spectrum MS-IW- 865
##OWNER=NIST Mass Spectrometry Data Center
Collection (C) 2014 copyright by the U.S. Secretary of Commerce
on behalf of the United States of America. All rights reserved.
##CAS REGISTRY NO=6321-40-0
##$NIST MASS SPEC NO=239441
##MOLFORM=C12 H21 N
##MW=179
##$NIST SOURCE=MSDC
##XUNITS=M/Z
##YUNITS=RELATIVE INTENSITY
##XFACTOR=1
##YFACTOR=1
##FIRSTX=15
##LASTX=181
##FIRSTY=20
##MAXX=181
##MINX=15
##MAXY=9999
##MINY=10
##NPOINTS=77
##PEAK TABLE=(XY..XY)
15,20 27,229 28,10 29,709
30,219 38,10 39,349 40,40
41,399 42,439 43,189 44,119
51,20 52,10 53,209 54,70
55,3219 56,359 57,70 58,99
59,10 65,20 66,10 67,679
68,199 69,199 70,229 71,20
72,10 77,20 79,70 80,129
81,309 82,799 83,109 84,409
85,30 91,40 92,10 93,70
94,149 95,159 96,269 97,50
98,30 105,20 106,20 107,80
108,319 109,279 110,119 111,99
112,20 120,10 121,20 122,259
123,559 124,249 125,20 134,10
136,769 137,99 138,9999 139,1029
140,60 148,10 150,70 151,50
152,10 162,20 164,1239 165,159
166,10 178,129 179,1219 180,179
181,10
##END=
