##TITLE=1-Diethylamino-2-butyne
##JCAMP-DX=4.24
##DATA TYPE=MASS SPECTRUM
##ORIGIN=NIST Mass Spectrometry Data Center, 1994
##OWNER=NIST Mass Spectrometry Data Center
Collection (C) 2014 copyright by the U.S. Secretary of Commerce
on behalf of the United States of America. All rights reserved.
##CAS REGISTRY NO=6323-82-6
##$NIST MASS SPEC NO=136955
##MOLFORM=C8 H15 N
##MW=125
##$NIST SOURCE=MSDC
##XUNITS=M/Z
##YUNITS=RELATIVE INTENSITY
##XFACTOR=1
##YFACTOR=1
##FIRSTX=13
##LASTX=126
##FIRSTY=22
##MAXX=126
##MINX=13
##MAXY=9999
##MINY=22
##NPOINTS=63
##PEAK TABLE=(XY..XY)
13,22 14,96 15,531 16,22
17,45 18,330 26,421 27,3812
28,3365 29,1957 30,1497 31,29
32,122 37,96 38,227 39,921
40,250 41,1166 42,4608 43,218
44,580 48,32 49,41 50,403
51,774 52,443 53,5571 54,847
55,376 56,1538 57,192 58,3356
59,158 63,24 64,36 65,114
66,157 67,221 68,400 69,78
70,868 71,85 72,269 77,56
79,86 80,256 81,162 82,227
84,127 86,271 87,27 93,30
94,195 95,68 96,168 108,190
110,9999 111,868 112,35 122,39
124,515 125,1418 126,136
##END=
