##TITLE=2,4,6,8,9,10-Hexathiatricyclo[3.3.1.1(3,7)]decane, 1,3,5,7-tetramethylll-
##JCAMP-DX=4.24
##DATA TYPE=MASS SPECTRUM
##OWNER=NIST Mass Spectrometry Data Center
Collection (C) 2014 copyright by the U.S. Secretary of Commerce
on behalf of the United States of America. All rights reserved.
##CAS REGISTRY NO=6327-74-8
##$NIST MASS SPEC NO=14386
##MOLFORM=C8 H12 S6
##MW=300
##$NIST SOURCE=MSDC
##XUNITS=M/Z
##YUNITS=RELATIVE INTENSITY
##XFACTOR=1
##YFACTOR=1
##FIRSTX=15
##LASTX=304
##FIRSTY=20
##MAXX=304
##MINX=15
##MAXY=9999
##MINY=20
##NPOINTS=41
##PEAK TABLE=(XY..XY)
15,20 18,40 44,200 45,100
57,140 58,611 59,9999 60,410
61,470 62,20 64,20 76,200
91,140 92,20 93,40 117,801
118,2772 119,230 120,230 123,20
125,60 145,180 146,140 147,200
149,510 150,4064 151,681 152,550
153,20 177,390 179,20 183,200
209,2462 210,200 211,100 241,40
300,4734 301,470 302,1191 303,80
304,100
##END=
