##TITLE=Cholest-5-en-3-ol (3.beta.)-, propanoate
##JCAMP-DX=4.24
##DATA TYPE=MASS SPECTRUM
##ORIGIN=Organic Synthesis Lab, MSU, Moscow.TRC 797
##OWNER=NIST Mass Spectrometry Data Center
Collection (C) 2014 copyright by the U.S. Secretary of Commerce
on behalf of the United States of America. All rights reserved.
##CAS REGISTRY NO=633-31-8
##$NIST MASS SPEC NO=326311
##MOLFORM=C30 H50 O2
##MW=442
##$NIST SOURCE=MSDC
##XUNITS=M/Z
##YUNITS=RELATIVE INTENSITY
##XFACTOR=1
##YFACTOR=1
##FIRSTX=26
##LASTX=371
##FIRSTY=19
##MAXX=371
##MINX=26
##MAXY=9999
##MINY=9
##NPOINTS=171
##PEAK TABLE=(XY..XY)
26,19 27,229 29,1439 30,19
39,79 41,1079 42,99 43,1928
44,49 53,139 54,19 55,1528
56,119 57,2799 58,79 65,49
66,19 67,899 68,109 69,929
70,69 71,559 72,19 74,9
75,19 77,229 78,69 79,729
80,109 81,1979 82,179 83,509
84,19 85,89 91,929 92,229
93,1099 94,299 95,1309 96,99
97,269 103,39 104,69 105,1199
106,439 107,1309 108,419 109,689
110,69 111,159 113,9 114,9
115,59 116,39 117,369 118,239
119,809 120,889 121,869 122,179
123,309 124,19 125,39 128,69
129,199 130,109 131,599 132,179
133,839 134,219 135,579 136,99
137,109 141,39 142,59 143,569
144,199 145,1499 146,509 147,1909
148,409 149,369 150,39 151,69
155,29 156,19 157,289 158,299
159,729 160,469 161,509 162,139
163,219 164,9 165,49 169,29
171,159 172,69 173,269 174,89
175,149 176,29 177,69 179,29
183,19 185,159 186,59 187,119
188,19 189,49 191,59 192,19
197,49 198,9 199,199 200,89
201,139 202,19 203,19 205,209
206,149 207,49 211,19 212,39
213,669 214,179 215,109 216,29
219,49 226,9 227,69 228,169
229,89 239,19 241,49 245,139
246,109 247,1049 248,249 249,19
253,49 254,29 255,819 256,169
257,19 258,9 259,109 260,779
261,259 262,39 273,9 274,49
275,49 283,79 284,19 314,19
326,139 327,29 339,9 340,9
351,19 352,19 353,1309 354,369
355,39 366,179 367,149 368,9999
369,3039 370,449 371,29
##END=
