##TITLE=Benzamide, 4-amino-N,N-dimethyl-
##JCAMP-DX=4.24
##DATA TYPE=MASS SPECTRUM
##ORIGIN=A.A.Kutin, Moscow, Russia
##OWNER=NIST Mass Spectrometry Data Center
Collection (C) 2014 copyright by the U.S. Secretary of Commerce
on behalf of the United States of America. All rights reserved.
##CAS REGISTRY NO=6331-71-1
##$NIST MASS SPEC NO=297772
##MOLFORM=C9 H12 N2 O
##MW=164
##$NIST SOURCE=MSDC
##XUNITS=M/Z
##YUNITS=RELATIVE INTENSITY
##XFACTOR=1
##YFACTOR=1
##FIRSTX=38
##LASTX=164
##FIRSTY=172
##MAXX=164
##MINX=38
##MAXY=9999
##MINY=39
##NPOINTS=26
##PEAK TABLE=(XY..XY)
38,172 39,1643 41,844 42,1870
43,549 44,821 51,155 52,322
54,105 55,39 62,50 63,866
65,4789 66,411 75,50 90,83
91,1043 92,3341 93,400 106,105
119,128 120,9999 121,832 135,377
163,560 164,2048
##END=
