##TITLE=Butane, 1,1'-oxybis[4-chloro-
##JCAMP-DX=4.24
##DATA TYPE=MASS SPECTRUM
##ORIGIN=Japan AIST/NIMC Database- Spectrum MS-NW-3320
##OWNER=NIST Mass Spectrometry Data Center
Collection (C) 2014 copyright by the U.S. Secretary of Commerce
on behalf of the United States of America. All rights reserved.
##CAS REGISTRY NO=6334-96-9
##$NIST MASS SPEC NO=229870
##MOLFORM=C8 H16 Cl2 O
##MW=198
##$NIST SOURCE=MSDC
##XUNITS=M/Z
##YUNITS=RELATIVE INTENSITY
##XFACTOR=1
##YFACTOR=1
##FIRSTX=14
##LASTX=202
##FIRSTY=10
##MAXX=202
##MINX=14
##MAXY=9999
##MINY=10
##NPOINTS=76
##PEAK TABLE=(XY..XY)
14,10 15,50 17,10 18,30
26,90 27,979 28,189 29,1149
30,40 31,439 32,10 35,10
36,119 37,10 38,40 39,619
40,119 41,1149 42,979 43,429
44,239 45,109 49,219 50,20
51,80 52,10 53,229 54,169
55,7749 56,459 57,80 58,20
59,20 60,10 61,20 62,179
63,369 64,60 65,119 67,20
69,20 70,10 71,539 72,199
73,259 74,20 75,60 76,10
77,30 79,10 85,60 88,10
89,99 90,179 91,9999 92,499
93,3339 94,139 105,10 107,109
108,10 109,50 121,469 122,30
123,159 124,10 134,10 135,10
136,10 137,20 163,10 198,99
199,10 200,60 201,10 202,10
##END=
