##TITLE=1H-Imidazole, 1,4-dimethyl-
##JCAMP-DX=4.24
##DATA TYPE=MASS SPECTRUM
##ORIGIN=L.Muller ET.AL.J.Agric.Food Chem.,46,3172(1998)
##OWNER=NIST Mass Spectrometry Data Center
Collection (C) 2014 copyright by the U.S. Secretary of Commerce
on behalf of the United States of America. All rights reserved.
##CAS REGISTRY NO=6338-45-0
##$NIST MASS SPEC NO=293067
##MOLFORM=C5 H8 N2
##MW=96
##$NIST SOURCE=MSDC
##XUNITS=M/Z
##YUNITS=RELATIVE INTENSITY
##XFACTOR=1
##YFACTOR=1
##FIRSTX=41
##LASTX=97
##FIRSTY=1511
##MAXX=97
##MINX=41
##MAXY=9999
##MINY=50
##NPOINTS=23
##PEAK TABLE=(XY..XY)
41,1511 42,4154 44,150 51,170
52,440 53,190 54,1862 55,460
56,90 65,50 66,380 67,200
68,4444 69,290 79,70 81,1842
82,310 83,90 91,70 93,70
95,7877 96,9999 97,591
##END=
