##TITLE=Benzenamine, 2,3,4,5-tetrachloro-
##JCAMP-DX=4.24
##DATA TYPE=MASS SPECTRUM
##ORIGIN=Japan AIST/NIMC Database- Spectrum MS-NW-6812
##OWNER=NIST Mass Spectrometry Data Center
Collection (C) 2014 copyright by the U.S. Secretary of Commerce
on behalf of the United States of America. All rights reserved.
##CAS REGISTRY NO=634-83-3
##$NIST MASS SPEC NO=235581
##MOLFORM=C6 H3 Cl4 N
##MW=229
##$NIST SOURCE=MSDC
##XUNITS=M/Z
##YUNITS=RELATIVE INTENSITY
##XFACTOR=1
##YFACTOR=1
##FIRSTX=12
##LASTX=238
##FIRSTY=10
##MAXX=238
##MINX=12
##MAXY=9999
##MINY=10
##NPOINTS=161
##PEAK TABLE=(XY..XY)
12,10 14,20 24,10 25,10
26,10 27,20 28,40 29,10
35,109 36,199 37,139 38,60
39,20 40,30 41,90 43,20
44,119 47,119 48,90 49,99
50,40 51,70 52,149 53,20
59,10 60,179 61,619 62,449
63,90 64,50 65,60 66,40
67,20 70,10 71,149 72,179
73,189 74,70 75,159 76,50
77,30 78,50 79,449 80,269
81,50 82,20 83,199 84,109
85,129 86,249 87,129 88,229
89,439 90,40 94,20 95,149
96,479 97,419 98,319 99,229
100,50 101,40 102,10 106,80
107,289 108,139 109,189 110,80
111,40 112,30 114,439 115,589
116,279 117,60 118,70 119,40
120,50 121,40 122,359 123,209
124,519 125,99 126,139 127,10
130,50 131,599 132,109 133,459
134,70 135,119 136,20 137,20
141,60 142,30 143,90 144,20
145,30 146,10 147,10 153,10
155,10 156,20 157,149 158,1489
159,699 160,1049 161,419 162,199
163,80 164,10 165,30 166,80
167,1089 168,129 169,999 170,90
171,359 172,30 173,50 177,10
178,10 179,10 180,20 181,10
182,30 183,10 184,30 186,10
188,10 190,10 192,50 193,449
194,669 195,539 196,659 197,269
198,219 199,60 200,30 201,239
202,60 203,299 204,70 205,149
206,30 207,40 208,10 212,10
214,10 216,10 228,70 229,7839
230,639 231,9999 232,749 233,4769
234,359 235,1059 236,80 237,99
238,10
##END=
