##TITLE=Benzene, 1,2,3,4-tetrachloro-
##JCAMP-DX=4.24
##DATA TYPE=MASS SPECTRUM
##ORIGIN=Chuck Anderson, Aldrich Chemical Co.
##OWNER=NIST Mass Spectrometry Data Center
Collection (C) 2014 copyright by the U.S. Secretary of Commerce
on behalf of the United States of America. All rights reserved.
##CAS REGISTRY NO=634-66-2
##$NIST MASS SPEC NO=107311
##MOLFORM=C6 H2 Cl4
##MW=214
##$NIST SOURCE=MSDC
##XUNITS=M/Z
##YUNITS=RELATIVE INTENSITY
##XFACTOR=1
##YFACTOR=1
##FIRSTX=25
##LASTX=222
##FIRSTY=19
##MAXX=222
##MINX=25
##MAXY=9999
##MINY=14
##NPOINTS=84
##PEAK TABLE=(XY..XY)
25,19 26,26 35,297 36,329
37,1009 38,242 47,294 48,96
49,384 50,156 54,192 55,98
59,16 60,177 61,289 62,137
71,249 72,659 73,1169 74,1619
75,114 82,19 83,184 84,1119
85,219 86,359 87,46 89,387
90,392 91,148 92,14 94,109
95,114 96,194 97,147 98,53
99,33 106,100 107,799 108,2439
109,1879 110,679 111,479 112,24
118,452 119,197 120,312 121,126
122,63 123,15 130,19 131,89
132,20 133,54 141,34 142,74
143,1979 144,859 145,1259 146,527
147,219 148,78 155,20 156,58
158,14 167,36 169,24 178,197
179,2069 180,304 181,2009 182,162
183,612 184,35 185,56 214,7359
215,379 216,9999 217,539 218,4879
219,264 220,1029 221,57 222,76
##END=
