##TITLE=3-(4-Bromobenzoyl)propionic acid
##JCAMP-DX=4.24
##DATA TYPE=MASS SPECTRUM
##ORIGIN=NIST Mass Spectrometry Data Center, 1994
##OWNER=NIST Mass Spectrometry Data Center
Collection (C) 2014 copyright by the U.S. Secretary of Commerce
on behalf of the United States of America. All rights reserved.
##CAS REGISTRY NO=6340-79-0
##$NIST MASS SPEC NO=136287
##MOLFORM=C10 H9 Br O3
##MW=256
##$NIST SOURCE=MSDC
##XUNITS=M/Z
##YUNITS=RELATIVE INTENSITY
##XFACTOR=1
##YFACTOR=1
##FIRSTX=17
##LASTX=259
##FIRSTY=53
##MAXX=259
##MINX=17
##MAXY=9999
##MINY=14
##NPOINTS=92
##PEAK TABLE=(XY..XY)
17,53 18,74 25,35 26,355
27,1264 28,510 29,432 37,148
38,336 39,217 41,14 42,167
43,137 44,135 45,1665 46,52
49,132 50,2883 51,797 52,116
53,201 54,42 55,772 56,99
57,61 58,33 61,86 62,150
63,191 64,62 65,56 66,68
67,31 73,462 74,1187 75,2954
76,3020 77,593 78,102 79,75
80,39 81,59 82,67 85,37
86,52 87,51 89,113 90,101
91,51 93,22 98,27 101,133
102,98 103,162 104,717 105,129
107,46 115,123 116,45 117,31
128,31 129,100 130,52 131,187
132,187 133,202 145,40 155,3356
156,326 157,3239 158,223 159,47
169,28 181,29 183,9999 185,9395
186,819 187,57 211,31 212,73
214,36 217,31 219,41 234,35
236,40 238,35 239,89 240,39
241,82 256,715 258,687 259,83
##END=
