##TITLE=4-Methoxyphenoxyphenylacetamide
##JCAMP-DX=4.24
##DATA TYPE=MASS SPECTRUM
##ORIGIN=NIST Mass Spectrometry Data Center
##OWNER=NIST Mass Spectrometry Data Center
Collection (C) 2014 copyright by the U.S. Secretary of Commerce
on behalf of the United States of America. All rights reserved.
##CAS REGISTRY NO=6343-93-7
##$NIST MASS SPEC NO=343371
##MOLFORM=C9 H11 N O2
##MW=165
##$NIST SOURCE=MSDC
##XUNITS=M/Z
##YUNITS=RELATIVE INTENSITY
##XFACTOR=1
##YFACTOR=1
##FIRSTX=11
##LASTX=166
##FIRSTY=20
##MAXX=166
##MINX=11
##MAXY=9999
##MINY=10
##NPOINTS=66
##PEAK TABLE=(XY..XY)
11,20 14,50 15,210 16,90
18,10 26,60 27,170 28,90
29,140 30,40 31,20 37,30
38,110 39,380 40,50 41,140
42,30 44,781 49,40 50,410
51,801 52,550 53,210 55,80
61,50 62,160 63,380 64,140
65,340 66,60 67,40 74,60
75,80 77,1581 78,1211 79,260
80,30 86,40 87,20 89,360
90,180 91,841 92,140 93,70
94,30 103,30 104,40 105,90
106,190 107,410 108,30 109,20
116,30 118,20 119,20 121,9999
122,1141 123,90 132,50 133,40
146,60 147,70 148,50 164,20
165,2012 166,200
##END=
