##TITLE=Quinoxaline, 6-methyl-
##JCAMP-DX=4.24
##DATA TYPE=MASS SPECTRUM
##OWNER=NIST Mass Spectrometry Data Center
Collection (C) 2014 copyright by the U.S. Secretary of Commerce
on behalf of the United States of America. All rights reserved.
##CAS REGISTRY NO=6344-72-5
##$NIST MASS SPEC NO=4044
##MOLFORM=C9 H8 N2
##MW=144
##$NIST SOURCE=MSDC
##XUNITS=M/Z
##YUNITS=RELATIVE INTENSITY
##XFACTOR=1
##YFACTOR=1
##FIRSTX=26
##LASTX=145
##FIRSTY=90
##MAXX=145
##MINX=26
##MAXY=9999
##MINY=90
##NPOINTS=25
##PEAK TABLE=(XY..XY)
26,90 27,230 38,190 39,681
40,140 50,260 51,350 52,230
62,300 63,861 64,510 65,160
72,470 75,120 76,120 89,1872
90,3183 91,260 116,300 117,1682
118,190 142,210 143,1591 144,9999
145,1051
##END=
