##TITLE=Quinoline, 1,2,3,4-tetrahydro-
##JCAMP-DX=4.24
##DATA TYPE=MASS SPECTRUM
##ORIGIN=Japan AIST/NIMC Database- Spectrum MS-NW- 57
##OWNER=NIST Mass Spectrometry Data Center
Collection (C) 2014 copyright by the U.S. Secretary of Commerce
on behalf of the United States of America. All rights reserved.
##CAS REGISTRY NO=635-46-1
##$NIST MASS SPEC NO=229749
##MOLFORM=C9 H11 N
##MW=133
##$NIST SOURCE=MSDC
##XUNITS=M/Z
##YUNITS=RELATIVE INTENSITY
##XFACTOR=1
##YFACTOR=1
##FIRSTX=15
##LASTX=135
##FIRSTY=10
##MAXX=135
##MINX=15
##MAXY=9999
##MINY=10
##NPOINTS=64
##PEAK TABLE=(XY..XY)
15,10 26,20 27,159 28,50
29,10 30,60 37,20 38,70
39,349 40,30 41,50 42,30
49,10 50,229 51,609 52,249
53,80 54,60 55,10 57,10
58,129 59,70 61,10 62,60
63,229 64,249 65,469 66,199
67,40 74,99 75,109 76,149
77,1009 78,559 79,299 80,30
87,10 89,159 90,219 91,719
92,70 93,50 94,40 101,40
102,179 103,409 104,739 105,479
106,209 107,20 115,459 116,119
117,1749 118,2059 119,189 120,20
128,60 129,119 130,1229 131,409
132,9999 133,8439 134,819 135,40
##END=
