##TITLE=Benzenamine, 4-chloro-3-nitro-
##JCAMP-DX=4.24
##DATA TYPE=MASS SPECTRUM
##ORIGIN=Japan AIST/NIMC Database- Spectrum MS-NW-7383
##OWNER=NIST Mass Spectrometry Data Center
Collection (C) 2014 copyright by the U.S. Secretary of Commerce
on behalf of the United States of America. All rights reserved.
##CAS REGISTRY NO=635-22-3
##$NIST MASS SPEC NO=235854
##MOLFORM=C6 H5 Cl N2 O2
##MW=172
##$NIST SOURCE=MSDC
##XUNITS=M/Z
##YUNITS=RELATIVE INTENSITY
##XFACTOR=1
##YFACTOR=1
##FIRSTX=25
##LASTX=176
##FIRSTY=20
##MAXX=176
##MINX=25
##MAXY=9999
##MINY=10
##NPOINTS=117
##PEAK TABLE=(XY..XY)
25,20 26,30 27,60 28,389
29,20 30,299 35,30 36,50
37,279 38,329 39,579 40,189
41,909 42,80 43,10 44,149
45,80 46,119 47,50 48,30
49,179 50,249 51,419 52,809
53,169 54,169 55,20 57,10
58,10 60,70 61,399 62,949
63,3259 64,969 65,659 66,239
67,30 68,30 71,40 72,239
73,1049 74,269 75,449 76,209
77,80 78,439 79,199 80,30
81,20 82,20 83,60 84,70
85,30 86,159 87,209 88,159
89,459 90,4329 91,1759 92,139
93,20 94,10 95,10 96,20
97,109 98,139 99,5919 100,499
101,1959 102,149 103,20 105,50
106,109 107,70 108,30 109,149
110,50 111,10 112,20 113,50
114,1599 115,119 116,559 117,40
119,10 120,10 121,10 122,10
123,10 124,60 125,379 126,9089
127,829 128,2979 129,259 130,10
136,10 137,509 138,40 139,20
140,20 141,20 142,279 143,99
144,179 145,30 146,20 155,10
156,90 157,10 170,10 171,80
172,9999 173,829 174,3309 175,259
176,20
##END=
