##TITLE=1,2,4,5-Benzenetetracarboxylic acid, tetramethyl ester
##JCAMP-DX=4.24
##DATA TYPE=MASS SPECTRUM
##ORIGIN=NIST Mass Spectrometry Data Center, 1994
##OWNER=NIST Mass Spectrometry Data Center
Collection (C) 2014 copyright by the U.S. Secretary of Commerce
on behalf of the United States of America. All rights reserved.
##CAS REGISTRY NO=635-10-9
##$NIST MASS SPEC NO=135910
##MOLFORM=C14 H14 O8
##MW=310
##$NIST SOURCE=MSDC
##XUNITS=M/Z
##YUNITS=RELATIVE INTENSITY
##XFACTOR=1
##YFACTOR=1
##FIRSTX=12
##LASTX=312
##FIRSTY=18
##MAXX=312
##MINX=12
##MAXY=9999
##MINY=3
##NPOINTS=124
##PEAK TABLE=(XY..XY)
12,18 13,10 15,3042 16,32
17,4 18,35 28,20 29,448
30,136 31,65 33,12 37,46
38,36 39,122 44,3 45,28
49,10 50,137 51,210 52,30
53,137 55,14 59,352 61,69
62,268 63,190 64,31 65,50
66,19 69,28 73,154 74,483
75,981 76,569 77,309 78,176
79,42 83,33 85,13 86,14
87,13 89,68 90,156 91,148
92,50 93,66 94,24 101,165
102,204 103,353 104,310 105,168
106,62 107,18 108,9 109,27
110,17 117,28 118,112 119,174
120,47 121,35 122,17 124,206
130,20 131,83 132,32 133,201
134,247 135,64 136,14 137,22
145,12 146,49 147,415 148,66
149,40 150,26 159,12 161,932
162,1093 163,226 164,23 165,25
174,58 175,54 177,499 178,72
179,22 180,25 189,87 190,101
191,63 192,19 193,66 203,18
205,173 206,20 207,44 208,33
219,36 220,138 221,158 223,215
224,29 233,441 234,51 235,15
236,15 248,84 249,271 251,499
252,68 253,12 265,50 277,23
279,9999 280,1426 281,265 282,24
295,8 310,374 311,67 312,12
##END=
