##TITLE=Trimetozine
##JCAMP-DX=4.24
##DATA TYPE=MASS SPECTRUM
##ORIGIN=Tox21 Consortium/NIST Mass Spectrometry Data Center, 2012
##OWNER=NIST Mass Spectrometry Data Center
Collection (C) 2014 copyright by the U.S. Secretary of Commerce
on behalf of the United States of America. All rights reserved.
##CAS REGISTRY NO=635-41-6
##$NIST MASS SPEC NO=408228
##MOLFORM=C14 H19 N O5
##MW=281
##$NIST SOURCE=MSDC
##XUNITS=M/Z
##YUNITS=RELATIVE INTENSITY
##XFACTOR=1
##YFACTOR=1
##FIRSTX=15
##LASTX=284
##FIRSTY=70
##MAXX=284
##MINX=15
##MAXY=9999
##MINY=10
##NPOINTS=157
##PEAK TABLE=(XY..XY)
15,70 26,10 27,90 28,290
29,140 30,80 31,20 37,10
38,80 39,110 40,20 41,70
42,180 43,80 44,20 45,70
49,10 50,130 51,100 52,50
53,340 54,80 55,110 56,420
57,50 58,10 59,40 61,10
62,50 63,140 64,70 65,150
66,550 67,120 68,30 69,80
70,150 71,10 72,20 74,20
75,110 76,190 77,520 78,180
79,220 80,50 81,601 82,90
84,20 85,20 86,240 87,10
89,20 90,30 91,80 92,280
93,210 94,150 95,160 96,180
97,70 99,20 100,90 101,10
103,30 104,80 105,70 106,180
107,290 108,100 109,561 110,210
112,10 113,30 114,40 118,30
119,70 120,70 121,120 122,540
123,130 124,260 125,130 126,10
127,10 132,20 133,40 134,180
135,90 136,70 137,661 138,80
139,170 140,20 147,10 148,20
149,140 150,200 151,200 152,751
153,330 154,30 161,10 162,20
163,50 164,20 165,60 166,30
167,320 168,460 169,60 170,10
175,10 176,10 177,10 178,20
179,100 180,50 181,80 182,20
184,10 190,10 191,10 192,10
193,50 195,9999 196,1591 197,190
198,20 204,10 206,20 207,10
208,10 210,30 211,10 212,10
222,10 223,10 224,10 234,10
236,20 237,10 238,30 248,10
250,50 251,10 253,20 264,10
266,270 267,40 268,10 279,10
280,1011 281,2572 282,390 283,50
284,10
##END=
