##TITLE=Quinoline, 5-chloro-
##JCAMP-DX=4.24
##DATA TYPE=MASS SPECTRUM
##ORIGIN=A.A.Kutin, Moscow, Russia
##OWNER=NIST Mass Spectrometry Data Center
Collection (C) 2014 copyright by the U.S. Secretary of Commerce
on behalf of the United States of America. All rights reserved.
##CAS REGISTRY NO=635-27-8
##$NIST MASS SPEC NO=265882
##MOLFORM=C9 H6 Cl N
##MW=163
##$NIST SOURCE=MSDC
##XUNITS=M/Z
##YUNITS=RELATIVE INTENSITY
##XFACTOR=1
##YFACTOR=1
##FIRSTX=45
##LASTX=166
##FIRSTY=60
##MAXX=166
##MINX=45
##MAXY=9999
##MINY=40
##NPOINTS=71
##PEAK TABLE=(XY..XY)
45,60 49,50 50,2112 51,1291
52,180 53,230 54,60 55,240
56,410 57,611 59,100 61,190
62,460 63,561 64,601 65,60
67,80 68,430 69,280 70,90
71,80 72,430 73,180 74,1822
75,2292 76,510 77,941 79,60
82,150 83,100 85,100 86,100
87,90 92,100 96,50 97,60
98,200 99,831 100,991 101,1371
102,691 103,80 105,60 108,70
109,50 110,100 111,70 112,40
117,60 119,60 121,40 124,40
126,300 127,390 128,3763 129,410
130,60 131,90 133,60 135,120
136,891 137,120 138,400 141,40
146,50 155,50 162,270 163,9999
164,1181 165,3033 166,230
##END=
