##TITLE=4(1H)-Pyrimidinone, 2,3-dihydro-5-methyl-2-thioxo-
##JCAMP-DX=4.24
##DATA TYPE=MASS SPECTRUM
##ORIGIN=Japan AIST/NIMC Database- Spectrum MS-IW- 42
##OWNER=NIST Mass Spectrometry Data Center
Collection (C) 2014 copyright by the U.S. Secretary of Commerce
on behalf of the United States of America. All rights reserved.
##CAS REGISTRY NO=636-26-0
##$NIST MASS SPEC NO=239062
##MOLFORM=C5 H6 N2 O S
##MW=142
##$NIST SOURCE=MSDC
##XUNITS=M/Z
##YUNITS=RELATIVE INTENSITY
##XFACTOR=1
##YFACTOR=1
##FIRSTX=15
##LASTX=145
##FIRSTY=10
##MAXX=145
##MINX=15
##MAXY=9999
##MINY=10
##NPOINTS=72
##PEAK TABLE=(XY..XY)
15,10 25,10 26,139 27,429
28,1699 29,109 30,30 32,99
33,20 34,20 36,20 37,40
38,80 39,409 40,169 41,109
42,80 43,60 44,80 45,70
46,30 47,20 49,30 51,40
52,179 53,169 54,1249 55,3249
56,489 57,40 58,60 59,269
60,299 61,70 62,20 66,10
67,10 68,10 69,80 70,60
71,90 72,179 73,20 74,10
79,10 80,20 81,259 82,399
83,369 84,1909 85,109 86,239
87,40 88,10 96,10 97,129
98,40 99,20 109,269 110,50
112,10 113,129 114,70 115,10
125,40 126,30 140,50 141,30
142,9999 143,749 144,499 145,30
##END=
