##TITLE=Benzene, 1,2,4,5-tetrabromo-
##JCAMP-DX=4.24
##DATA TYPE=MASS SPECTRUM
##ORIGIN=Japan AIST/NIMC Database- Spectrum MS-NW- 267
##OWNER=NIST Mass Spectrometry Data Center
Collection (C) 2014 copyright by the U.S. Secretary of Commerce
on behalf of the United States of America. All rights reserved.
##CAS REGISTRY NO=636-28-2
##$NIST MASS SPEC NO=228134
##MOLFORM=C6 H2 Br4
##MW=390
##$NIST SOURCE=MSDC
##XUNITS=M/Z
##YUNITS=RELATIVE INTENSITY
##XFACTOR=1
##YFACTOR=1
##FIRSTX=36
##LASTX=399
##FIRSTY=149
##MAXX=399
##MINX=36
##MAXY=9999
##MINY=20
##NPOINTS=80
##PEAK TABLE=(XY..XY)
36,149 37,589 38,189 48,50
49,229 50,129 55,40 57,30
60,90 61,149 62,60 69,30
71,20 72,179 73,1329 74,3379
75,239 76,159 77,169 79,139
80,70 81,139 82,70 83,20
91,50 93,40 104,30 106,30
115,80 116,339 117,549 118,309
127,30 128,159 129,30 130,149
151,50 152,459 153,879 154,509
155,849 156,199 157,179 158,60
182,30 184,50 186,30 195,119
196,369 197,559 198,349 199,99
202,20 208,30 230,30 231,99
232,749 233,259 234,1419 235,219
236,719 237,60 311,589 312,109
313,1669 314,229 315,1679 316,209
317,569 318,70 390,1819 391,149
392,6869 393,489 394,9999 395,699
396,6519 397,449 398,1599 399,109
##END=
