##TITLE=1-Cyclohexene-1-carboxylic acid
##JCAMP-DX=4.24
##DATA TYPE=MASS SPECTRUM
##OWNER=NIST Mass Spectrometry Data Center
Collection (C) 2014 copyright by the U.S. Secretary of Commerce
on behalf of the United States of America. All rights reserved.
##CAS REGISTRY NO=636-82-8
##$NIST MASS SPEC NO=2528
##MOLFORM=C7 H10 O2
##MW=126
##$NIST SOURCE=MSDC
##XUNITS=M/Z
##YUNITS=RELATIVE INTENSITY
##XFACTOR=1
##YFACTOR=1
##FIRSTX=15
##LASTX=129
##FIRSTY=40
##MAXX=129
##MINX=15
##MAXY=9999
##MINY=10
##NPOINTS=80
##PEAK TABLE=(XY..XY)
15,40 18,10 26,120 27,240
28,370 29,300 31,60 32,50
37,70 38,190 39,1361 40,270
41,2022 42,350 43,300 44,50
45,300 46,20 47,40 49,40
50,360 51,681 52,420 53,1591
54,190 55,671 56,80 57,120
58,20 60,40 61,20 62,50
63,100 64,20 65,350 66,420
67,931 68,350 69,601 70,260
71,80 72,50 73,80 74,70
75,30 76,20 77,861 78,180
79,2833 80,4474 81,9999 82,721
83,310 84,140 85,70 86,30
91,10 92,10 93,110 94,20
95,30 96,10 97,811 98,430
99,50 105,50 107,100 108,2212
109,300 110,30 111,981 112,60
122,30 123,30 124,10 125,170
126,3843 127,330 128,50 129,10
##END=
