##TITLE=Clofibrate
##JCAMP-DX=4.24
##DATA TYPE=MASS SPECTRUM
##ORIGIN=Japan AIST/NIMC Database- Spectrum MS-IW-2900
##OWNER=NIST Mass Spectrometry Data Center
Collection (C) 2014 copyright by the U.S. Secretary of Commerce
on behalf of the United States of America. All rights reserved.
##CAS REGISTRY NO=637-07-0
##$NIST MASS SPEC NO=245138
##MOLFORM=C12 H15 Cl O3
##MW=242
##$NIST SOURCE=MSDC
##XUNITS=M/Z
##YUNITS=RELATIVE INTENSITY
##XFACTOR=1
##YFACTOR=1
##FIRSTX=15
##LASTX=245
##FIRSTY=20
##MAXX=245
##MINX=15
##MAXY=9999
##MINY=10
##NPOINTS=96
##PEAK TABLE=(XY..XY)
15,20 26,20 27,149 28,40
29,409 30,10 31,40 36,10
37,10 38,60 39,299 40,50
41,879 42,209 43,259 44,10
45,99 49,20 50,109 51,80
53,20 55,20 57,20 59,619
60,20 61,20 62,50 63,209
64,119 65,309 66,20 69,509
70,219 71,20 72,10 73,189
74,50 75,509 76,109 77,40
79,10 82,10 84,50 85,50
86,10 87,1319 88,60 89,20
91,40 92,20 93,109 94,50
99,289 100,119 101,99 102,30
103,10 105,90 106,20 110,10
111,609 112,50 113,199 114,20
115,579 116,40 125,10 127,90
128,9999 129,1149 130,3339 131,359
132,20 133,10 134,20 135,10
139,10 141,169 142,10 143,50
149,50 153,10 155,10 168,10
169,2389 170,239 171,779 172,70
181,10 227,10 228,30 230,10
242,819 243,99 244,279 245,30
##END=
