##TITLE=Ethanethioamide, N-phenyl-
##JCAMP-DX=4.24
##DATA TYPE=MASS SPECTRUM
##ORIGIN=NIST Mass Spectrometry Data Center, 1994
##OWNER=NIST Mass Spectrometry Data Center
Collection (C) 2014 copyright by the U.S. Secretary of Commerce
on behalf of the United States of America. All rights reserved.
##CAS REGISTRY NO=637-53-6
##$NIST MASS SPEC NO=134364
##MOLFORM=C8 H9 N S
##MW=151
##$NIST SOURCE=MSDC
##XUNITS=M/Z
##YUNITS=RELATIVE INTENSITY
##XFACTOR=1
##YFACTOR=1
##FIRSTX=13
##LASTX=154
##FIRSTY=22
##MAXX=154
##MINX=13
##MAXY=9999
##MINY=12
##NPOINTS=104
##PEAK TABLE=(XY..XY)
13,22 14,73 15,520 17,19
18,47 26,198 27,546 28,135
29,14 30,15 32,48 33,116
34,52 35,12 37,273 38,690
39,1821 40,395 41,413 42,1763
43,74 44,63 45,448 46,106
47,62 48,18 49,12 50,1326
51,2664 52,509 53,82 54,102
57,259 58,1090 59,5561 60,254
61,413 62,336 63,699 64,415
65,1811 66,1792 67,173 69,269
70,67 71,39 72,24 73,94
74,519 75,409 76,24 77,3762
78,483 79,54 80,15 81,33
82,77 83,101 84,170 85,24
86,19 87,20 88,28 89,109
90,145 91,561 92,15 93,6498
94,472 95,32 96,22 97,20
102,14 103,56 104,176 105,28
106,79 107,49 108,14 109,2090
110,4074 111,404 112,202 113,15
117,455 118,2576 119,295 120,23
121,65 122,25 123,32 124,80
133,21 134,22 135,121 136,452
137,53 138,17 148,68 150,8515
151,9999 152,1259 153,483 154,44
##END=
