##TITLE=Propanoic acid, phenyl ester
##JCAMP-DX=4.24
##DATA TYPE=MASS SPECTRUM
##ORIGIN=Japan AIST/NIMC Database- Spectrum MS-NW- 663
##OWNER=NIST Mass Spectrometry Data Center
Collection (C) 2014 copyright by the U.S. Secretary of Commerce
on behalf of the United States of America. All rights reserved.
##CAS REGISTRY NO=637-27-4
##$NIST MASS SPEC NO=229442
##MOLFORM=C9 H10 O2
##MW=150
##$NIST SOURCE=MSDC
##XUNITS=M/Z
##YUNITS=RELATIVE INTENSITY
##XFACTOR=1
##YFACTOR=1
##FIRSTX=14
##LASTX=152
##FIRSTY=10
##MAXX=152
##MINX=14
##MAXY=9999
##MINY=10
##NPOINTS=59
##PEAK TABLE=(XY..XY)
14,10 15,20 17,30 18,109
25,10 26,149 27,649 28,129
29,2869 30,70 37,70 38,209
39,1029 40,189 41,50 42,40
43,40 44,50 47,10 49,20
50,179 51,399 52,30 53,50
54,30 55,249 56,319 57,4259
58,139 59,10 61,40 62,99
63,239 64,99 65,859 66,699
67,40 68,20 69,10 70,20
71,10 73,10 74,50 75,20
76,30 77,489 78,60 79,30
83,10 93,99 94,9999 95,719
96,40 105,10 107,20 121,20
150,1959 151,209 152,20
##END=
