##TITLE=Propanal, 2,2-dimethyl-, oxime
##JCAMP-DX=4.24
##DATA TYPE=MASS SPECTRUM
##ORIGIN=CARL DJERASSI DEPT OF CHEM STANFORD UNIV STANFORD CALIF 94305
##OWNER=NIST Mass Spectrometry Data Center
Collection (C) 2014 copyright by the U.S. Secretary of Commerce
on behalf of the United States of America. All rights reserved.
##CAS REGISTRY NO=637-91-2
##$NIST MASS SPEC NO=46275
##MOLFORM=C5 H11 N O
##MW=101
##$NIST SOURCE=MSDC
##XUNITS=M/Z
##YUNITS=RELATIVE INTENSITY
##XFACTOR=1
##YFACTOR=1
##FIRSTX=23
##LASTX=101
##FIRSTY=100
##MAXX=101
##MINX=23
##MAXY=9999
##MINY=100
##NPOINTS=40
##PEAK TABLE=(XY..XY)
23,100 25,700 26,4500 27,3500
28,3300 29,900 30,600 36,200
37,600 38,4200 39,800 40,9999
41,5400 42,2400 43,800 45,100
48,100 49,200 50,400 51,300
52,500 53,200 54,1100 55,1000
56,2300 57,1000 58,800 59,100
66,500 67,1600 68,1400 69,200
72,3500 82,200 83,100 84,7900
85,400 86,4400 87,100 101,300
##END=
