##TITLE=2-Furanmethanol, tetrahydro-, acetate
##JCAMP-DX=4.24
##DATA TYPE=MASS SPECTRUM
##ORIGIN=Japan AIST/NIMC Database- Spectrum MS-NW-1487
##OWNER=NIST Mass Spectrometry Data Center
Collection (C) 2014 copyright by the U.S. Secretary of Commerce
on behalf of the United States of America. All rights reserved.
##CAS REGISTRY NO=637-64-9
##$NIST MASS SPEC NO=229929
##MOLFORM=C7 H12 O3
##MW=144
##$NIST SOURCE=MSDC
##XUNITS=M/Z
##YUNITS=RELATIVE INTENSITY
##XFACTOR=1
##YFACTOR=1
##FIRSTX=13
##LASTX=103
##FIRSTY=10
##MAXX=103
##MINX=13
##MAXY=9999
##MINY=10
##NPOINTS=49
##PEAK TABLE=(XY..XY)
13,10 14,80 15,549 17,10
18,70 26,70 27,939 28,219
29,419 30,30 31,199 32,50
37,10 38,40 39,569 40,109
41,1619 42,789 43,5009 44,199
45,40 50,10 51,20 52,10
53,90 54,249 55,249 56,119
57,99 58,40 59,20 60,30
61,50 67,40 69,60 70,179
71,9999 72,509 73,139 74,70
81,30 82,20 83,99 84,909
85,109 86,50 100,20 101,20
103,10
##END=
