##TITLE=Benzene, 1-chloro-4-iodo-
##JCAMP-DX=4.24
##DATA TYPE=MASS SPECTRUM
##ORIGIN=Chuck Anderson, Aldrich Chemical Co.
##OWNER=NIST Mass Spectrometry Data Center
Collection (C) 2014 copyright by the U.S. Secretary of Commerce
on behalf of the United States of America. All rights reserved.
##CAS REGISTRY NO=637-87-6
##$NIST MASS SPEC NO=107245
##MOLFORM=C6 H4 Cl I
##MW=238
##$NIST SOURCE=MSDC
##XUNITS=M/Z
##YUNITS=RELATIVE INTENSITY
##XFACTOR=1
##YFACTOR=1
##FIRSTX=25
##LASTX=241
##FIRSTY=18
##MAXX=241
##MINX=25
##MAXY=9999
##MINY=6
##NPOINTS=49
##PEAK TABLE=(XY..XY)
25,18 26,50 27,46 35,18
36,66 37,437 38,373 39,71
47,28 48,35 49,433 50,3087
51,669 52,23 60,79 61,224
62,83 63,59 72,81 73,588
74,1970 75,4646 76,999 77,54
83,6 84,200 85,393 86,78
87,123 108,31 109,21 111,9999
112,249 113,3470 114,167 119,705
120,194 127,676 128,27 139,9
152,47 176,44 177,9 203,14
237,71 238,9646 239,470 240,3087
241,158
##END=
