##TITLE=.alpha.-Amyrin
##JCAMP-DX=4.24
##DATA TYPE=MASS SPECTRUM
##ORIGIN=NIST Mass Spectrometry Data Center, 2010
##OWNER=NIST Mass Spectrometry Data Center
Collection (C) 2014 copyright by the U.S. Secretary of Commerce
on behalf of the United States of America. All rights reserved.
##CAS REGISTRY NO=638-95-9
##$NIST MASS SPEC NO=374456
##MOLFORM=C30 H50 O
##MW=426
##$NIST SOURCE=MSDC
##XUNITS=M/Z
##YUNITS=RELATIVE INTENSITY
##XFACTOR=1
##YFACTOR=1
##FIRSTX=27
##LASTX=428
##FIRSTY=50
##MAXX=428
##MINX=27
##MAXY=9999
##MINY=10
##NPOINTS=234
##PEAK TABLE=(XY..XY)
27,50 28,30 29,240 30,10
31,20 38,10 39,80 40,20
41,1111 42,80 43,1251 44,50
45,30 51,10 53,230 54,40
55,1531 56,140 57,651 58,50
59,40 65,120 66,30 67,731
68,110 69,1411 70,100 71,340
72,30 77,340 78,70 79,851
80,210 81,1331 82,180 83,400
84,70 85,130 86,30 87,10
90,10 91,941 92,190 93,1221
94,480 95,1451 96,180 97,220
98,40 99,20 100,10 103,80
104,30 105,1191 106,340 107,1311
108,540 109,1241 110,150 111,190
112,30 113,30 114,30 115,100
116,70 117,280 118,90 119,1501
120,561 121,1151 122,1692 123,1141
124,140 125,110 126,20 127,60
128,100 129,40 130,70 131,430
132,170 133,1441 134,891 135,1641
136,1291 137,510 138,60 139,120
140,30 141,110 142,100 143,120
144,40 145,420 146,160 147,951
148,731 149,791 150,230 151,50
152,20 153,40 154,20 155,80
156,50 157,100 158,40 159,320
160,100 161,931 162,480 163,400
164,60 165,50 166,20 167,20
168,20 169,40 170,10 171,110
172,40 173,210 174,60 175,530
176,170 177,170 178,40 179,90
180,20 182,10 183,20 184,10
185,70 186,30 187,200 188,80
189,1491 190,240 191,160 192,30
193,30 194,10 195,10 196,10
197,20 199,50 201,110 202,30
203,1972 204,380 205,180 206,120
207,1301 208,280 209,30 210,10
213,40 214,20 215,100 216,30
218,9999 219,1812 220,220 221,50
222,10 223,10 225,10 227,30
228,10 229,70 230,30 231,110
232,50 233,30 234,10 239,10
240,10 241,20 242,20 243,100
244,30 245,40 246,20 247,10
255,40 256,20 257,220 258,60
259,40 260,10 269,20 270,30
271,40 272,150 273,30 274,10
283,10 284,20 285,20 286,60
287,20 288,10 295,10 297,10
298,10 299,10 309,10 311,10
315,10 325,10 326,10 327,10
337,10 339,20 340,10 341,10
342,10 343,10 365,20 366,10
368,10 369,10 393,30 394,10
395,10 408,40 409,20 411,190
412,60 413,10 424,20 426,671
427,220 428,30
##END=
