##TITLE=Hexane, 2-chloro-
##JCAMP-DX=4.24
##DATA TYPE=MASS SPECTRUM
##ORIGIN=Japan AIST/NIMC Database- Spectrum MS-NW-3058
##OWNER=NIST Mass Spectrometry Data Center
Collection (C) 2014 copyright by the U.S. Secretary of Commerce
on behalf of the United States of America. All rights reserved.
##CAS REGISTRY NO=638-28-8
##$NIST MASS SPEC NO=231327
##MOLFORM=C6 H13 Cl
##MW=120
##$NIST SOURCE=MSDC
##XUNITS=M/Z
##YUNITS=RELATIVE INTENSITY
##XFACTOR=1
##YFACTOR=1
##FIRSTX=14
##LASTX=93
##FIRSTY=10
##MAXX=93
##MINX=14
##MAXY=9999
##MINY=10
##NPOINTS=58
##PEAK TABLE=(XY..XY)
14,10 15,159 26,239 27,3009
28,339 29,4049 30,90 31,10
35,50 36,399 37,70 38,169
39,2089 40,389 41,7959 42,8339
43,7119 44,229 45,10 49,129
50,139 51,199 52,70 53,479
54,559 55,8349 56,9999 57,3809
58,149 61,60 62,129 63,829
64,50 65,259 66,20 67,159
68,80 69,5599 70,339 71,80
73,10 74,10 75,70 76,129
77,239 78,40 79,70 80,10
81,10 82,10 83,129 84,6159
85,989 86,50 89,30 90,10
91,50 93,10
##END=
