##TITLE=Butanoic acid, 4-chloro-3-oxo-, ethyl ester
##JCAMP-DX=4.24
##DATA TYPE=MASS SPECTRUM
##ORIGIN=RADIAN CORP
##OWNER=NIST Mass Spectrometry Data Center
Collection (C) 2014 copyright by the U.S. Secretary of Commerce
on behalf of the United States of America. All rights reserved.
##CAS REGISTRY NO=638-07-3
##$NIST MASS SPEC NO=75286
##MOLFORM=C6 H9 Cl O3
##MW=164
##$NIST SOURCE=MSDC
##XUNITS=M/Z
##YUNITS=RELATIVE INTENSITY
##XFACTOR=1
##YFACTOR=1
##FIRSTX=13
##LASTX=166
##FIRSTY=20
##MAXX=166
##MINX=13
##MAXY=9999
##MINY=10
##NPOINTS=88
##PEAK TABLE=(XY..XY)
13,20 14,60 15,60 19,10
24,20 25,100 26,540 27,2150
28,390 29,4710 30,220 31,770
35,110 36,90 37,150 38,170
39,240 40,90 41,1190 42,4320
43,6710 44,310 45,1030 46,210
47,150 48,250 49,2780 50,140
51,860 52,50 53,140 54,40
55,420 56,190 57,30 58,20
60,420 61,240 62,120 63,110
64,40 65,50 66,20 67,40
68,60 69,5500 70,280 71,90
72,30 73,490 74,30 75,30
76,450 77,4900 78,260 79,1570
80,50 83,180 84,60 85,30
86,50 87,1390 88,130 89,40
90,60 91,40 92,400 93,30
94,130 95,10 100,40 115,9999
116,580 117,100 118,1070 119,3690
120,530 121,1220 122,70 128,60
129,20 136,230 137,20 138,80
149,20 164,520 165,40 166,170
##END=
