##TITLE=Carbonochloridic acid, pentyl ester
##JCAMP-DX=4.24
##DATA TYPE=MASS SPECTRUM
##ORIGIN=Japan AIST/NIMC Database- Spectrum MS-NW-1575
##OWNER=NIST Mass Spectrometry Data Center
Collection (C) 2014 copyright by the U.S. Secretary of Commerce
on behalf of the United States of America. All rights reserved.
##CAS REGISTRY NO=638-41-5
##$NIST MASS SPEC NO=233985
##MOLFORM=C6 H11 Cl O2
##MW=150
##$NIST SOURCE=MSDC
##XUNITS=M/Z
##YUNITS=RELATIVE INTENSITY
##XFACTOR=1
##YFACTOR=1
##FIRSTX=14
##LASTX=123
##FIRSTY=10
##MAXX=123
##MINX=14
##MAXY=9999
##MINY=10
##NPOINTS=53
##PEAK TABLE=(XY..XY)
14,10 15,139 16,20 18,20
26,179 27,1789 28,549 29,2729
30,70 31,109 32,20 35,50
36,109 37,30 38,90 39,1059
40,269 41,3849 42,9999 43,4179
44,529 45,30 49,10 50,40
51,50 52,20 53,159 54,149
55,7179 56,449 57,629 58,30
63,1859 64,20 65,609 66,60
67,60 68,30 69,389 70,5599
71,1129 72,50 77,10 81,50
83,20 93,199 94,10 95,70
107,90 109,30 121,259 122,20
123,80
##END=
