##TITLE=Hexane, 1-iodo-
##JCAMP-DX=4.24
##DATA TYPE=MASS SPECTRUM
##ORIGIN=NIST Mass Spectrometry Data Center, 1994
##OWNER=NIST Mass Spectrometry Data Center
Collection (C) 2014 copyright by the U.S. Secretary of Commerce
on behalf of the United States of America. All rights reserved.
##CAS REGISTRY NO=638-45-9
##$NIST MASS SPEC NO=133578
##MOLFORM=C6 H13 I
##MW=212
##$NIST SOURCE=MSDC
##XUNITS=M/Z
##YUNITS=RELATIVE INTENSITY
##XFACTOR=1
##YFACTOR=1
##FIRSTX=14
##LASTX=213
##FIRSTY=25
##MAXX=213
##MINX=14
##MAXY=9999
##MINY=11
##NPOINTS=39
##PEAK TABLE=(XY..XY)
14,25 15,143 26,287 27,2293
28,738 29,2014 30,42 32,22
37,44 39,1595 41,4033 43,9999
44,357 49,11 50,84 51,124
52,54 53,239 54,106 55,895
56,320 57,1183 58,49 63,19
65,27 67,41 69,77 83,26
85,4858 86,310 127,452 128,170
129,14 141,134 153,11 155,317
169,14 212,868 213,51
##END=
