##TITLE=Octadecanenitrile
##JCAMP-DX=4.24
##DATA TYPE=MASS SPECTRUM
##ORIGIN=Japan AIST/NIMC Database- Spectrum MS-IW- 901
##OWNER=NIST Mass Spectrometry Data Center
Collection (C) 2014 copyright by the U.S. Secretary of Commerce
on behalf of the United States of America. All rights reserved.
##CAS REGISTRY NO=638-65-3
##$NIST MASS SPEC NO=239315
##MOLFORM=C18 H35 N
##MW=265
##$NIST SOURCE=MSDC
##XUNITS=M/Z
##YUNITS=RELATIVE INTENSITY
##XFACTOR=1
##YFACTOR=1
##FIRSTX=26
##LASTX=267
##FIRSTY=10
##MAXX=267
##MINX=26
##MAXY=9999
##MINY=10
##NPOINTS=150
##PEAK TABLE=(XY..XY)
26,10 27,279 28,139 29,909
30,209 39,269 40,60 41,2549
42,699 43,4119 44,379 45,10
51,10 52,10 53,169 54,759
55,2519 56,1489 57,9999 58,759
59,20 65,40 66,40 67,609
68,399 69,1949 70,4869 71,4559
72,379 73,10 77,50 78,10
79,469 80,229 81,659 82,2419
83,3059 84,2429 85,3539 86,319
87,10 91,90 92,10 93,539
94,309 95,519 96,5439 97,9159
98,2319 99,2279 100,239 101,10
105,50 106,10 107,369 108,239
109,279 110,7259 111,4519 112,1779
113,1709 114,209 115,10 119,20
120,20 121,299 122,409 123,189
124,5089 125,2569 126,1799 127,1239
128,189 129,10 133,10 134,20
135,239 136,329 137,109 138,2889
139,1239 140,1129 141,749 142,129
143,10 147,10 148,10 149,139
150,159 151,60 152,2239 153,769
154,879 155,339 156,50 163,60
164,159 165,40 166,2029 167,719
168,699 169,209 170,40 177,30
178,149 179,40 180,2139 181,989
182,669 183,139 184,20 191,20
192,169 193,40 194,2629 195,1419
196,509 197,90 198,10 205,20
206,109 207,30 208,3109 209,1739
210,559 211,80 219,10 220,60
221,20 222,3579 223,1589 224,619
225,90 234,30 235,20 236,2599
237,819 238,119 239,10 248,40
249,20 250,479 251,139 252,20
262,10 263,40 264,169 265,1289
266,319 267,40
##END=
