##TITLE=Cyclohexane, 1,3-dimethyl-, cis-
##JCAMP-DX=4.24
##DATA TYPE=MASS SPECTRUM
##ORIGIN=Japan AIST/NIMC Database- Spectrum MS-NW-4269
##OWNER=NIST Mass Spectrometry Data Center
Collection (C) 2014 copyright by the U.S. Secretary of Commerce
on behalf of the United States of America. All rights reserved.
##CAS REGISTRY NO=638-04-0
##$NIST MASS SPEC NO=230532
##MOLFORM=C8 H16
##MW=112
##$NIST SOURCE=MSDC
##XUNITS=M/Z
##YUNITS=RELATIVE INTENSITY
##XFACTOR=1
##YFACTOR=1
##FIRSTX=15
##LASTX=114
##FIRSTY=90
##MAXX=114
##MINX=15
##MAXY=9999
##MINY=10
##NPOINTS=62
##PEAK TABLE=(XY..XY)
15,90 26,50 27,919 28,119
29,889 30,20 31,10 37,20
38,60 39,1099 40,209 41,2879
42,1559 43,1159 44,30 45,30
46,10 50,50 51,99 52,40
53,349 54,189 55,9169 56,2169
57,449 58,109 59,20 62,10
63,30 65,70 66,30 67,349
68,239 69,2089 70,1039 71,259
72,20 74,20 77,60 78,10
79,60 80,10 81,189 82,139
83,639 84,339 85,119 86,10
91,20 93,20 95,129 96,289
97,9999 98,809 99,40 108,10
109,10 110,30 111,149 112,2449
113,229 114,10
##END=
