##TITLE=Triacontane
##JCAMP-DX=4.24
##DATA TYPE=MASS SPECTRUM
##ORIGIN=Japan AIST/NIMC Database- Spectrum MS-NW-2836
##OWNER=NIST Mass Spectrometry Data Center
Collection (C) 2014 copyright by the U.S. Secretary of Commerce
on behalf of the United States of America. All rights reserved.
##CAS REGISTRY NO=638-68-6
##$NIST MASS SPEC NO=231640
##MOLFORM=C30 H62
##MW=422
##$NIST SOURCE=MSDC
##XUNITS=M/Z
##YUNITS=RELATIVE INTENSITY
##XFACTOR=1
##YFACTOR=1
##FIRSTX=26
##LASTX=424
##FIRSTY=10
##MAXX=424
##MINX=26
##MAXY=9999
##MINY=10
##NPOINTS=134
##PEAK TABLE=(XY..XY)
26,10 27,189 28,40 29,759
30,20 39,109 40,30 41,1469
42,429 43,5259 44,179 53,60
54,159 55,1719 56,1119 57,9999
58,439 65,10 66,20 67,179
68,259 69,1289 70,989 71,7209
72,399 73,10 79,20 80,10
81,99 82,349 83,1259 84,769
85,5349 86,359 87,10 95,60
96,219 97,1089 98,629 99,2099
100,159 109,20 110,119 111,609
112,559 113,1529 114,129 123,10
124,70 125,359 126,489 127,1219
128,119 137,10 138,60 139,189
140,449 141,999 142,99 152,40
153,119 154,399 155,849 156,99
166,30 167,80 168,359 169,759
170,99 180,20 181,60 182,319
183,689 184,99 194,20 195,50
196,289 197,609 198,90 208,10
209,30 210,259 211,549 212,90
222,10 223,20 224,229 225,499
226,90 227,10 236,10 237,20
238,189 239,429 240,70 241,10
250,10 251,10 252,159 253,369
254,70 265,10 266,129 267,319
268,60 280,109 281,279 282,50
294,90 295,229 296,50 308,70
309,209 310,50 322,60 323,179
324,40 336,50 337,149 338,40
350,30 351,129 352,30 364,30
365,99 366,30 378,10 379,60
380,20 393,30 394,10 422,239
423,70 424,10
##END=
