##TITLE=1-Tetradecyl acetate
##JCAMP-DX=4.24
##DATA TYPE=MASS SPECTRUM
##ORIGIN=NIST Mass Spectrometry Data Center
##OWNER=NIST Mass Spectrometry Data Center
Collection (C) 2014 copyright by the U.S. Secretary of Commerce
on behalf of the United States of America. All rights reserved.
##CAS REGISTRY NO=638-59-5
##$NIST MASS SPEC NO=351776
##MOLFORM=C16 H32 O2
##MW=256
##$NIST SOURCE=MSDC
##XUNITS=M/Z
##YUNITS=RELATIVE INTENSITY
##XFACTOR=1
##YFACTOR=1
##FIRSTX=15
##LASTX=241
##FIRSTY=60
##MAXX=241
##MINX=15
##MAXY=9999
##MINY=10
##NPOINTS=102
##PEAK TABLE=(XY..XY)
15,60 26,20 27,350 28,120
29,981 30,30 31,30 37,10
39,450 40,110 41,3413 42,1131
43,9999 44,310 45,60 50,10
51,20 52,20 53,270 54,731
55,5075 56,3323 57,3944 58,340
59,80 61,3934 62,90 63,20
65,40 66,70 67,871 68,1351
69,4074 70,3023 71,1672 72,100
73,450 74,30 75,10 77,30
78,10 79,90 80,30 81,460
82,2212 83,4654 84,2062 85,901
86,70 87,60 88,20 91,10
93,10 94,20 95,210 96,921
97,3813 98,1431 99,190 100,20
101,90 102,30 108,10 109,70
110,380 111,1952 112,811 113,110
114,10 115,20 116,430 117,30
123,20 124,200 125,821 126,450
127,70 128,10 129,20 130,50
137,10 138,100 139,220 140,260
141,40 142,10 152,40 153,80
154,90 155,20 156,10 166,30
167,40 168,530 169,80 170,20
184,20 194,10 196,260 197,40
198,10 241,10
##END=
