##TITLE=Tricosane
##JCAMP-DX=4.24
##DATA TYPE=MASS SPECTRUM
##ORIGIN=Japan AIST/NIMC Database- Spectrum MS-NW-5921
##OWNER=NIST Mass Spectrometry Data Center
Collection (C) 2014 copyright by the U.S. Secretary of Commerce
on behalf of the United States of America. All rights reserved.
##CAS REGISTRY NO=638-67-5
##$NIST MASS SPEC NO=233043
##MOLFORM=C23 H48
##MW=324
##$NIST SOURCE=MSDC
##XUNITS=M/Z
##YUNITS=RELATIVE INTENSITY
##XFACTOR=1
##YFACTOR=1
##FIRSTX=26
##LASTX=326
##FIRSTY=10
##MAXX=326
##MINX=26
##MAXY=9999
##MINY=10
##NPOINTS=100
##PEAK TABLE=(XY..XY)
26,10 27,389 28,90 29,1429
30,30 39,209 40,50 41,2579
42,679 43,6969 44,229 53,99
54,209 55,2169 56,1219 57,9999
58,439 65,10 66,10 67,209
68,219 69,1219 70,999 71,6719
72,389 73,10 77,10 79,20
81,90 82,259 83,949 84,689
85,4619 86,309 87,10 95,30
96,149 97,729 98,549 99,1729
100,129 109,10 110,80 111,369
112,479 113,1189 114,109 124,40
125,199 126,429 127,949 128,99
138,30 139,90 140,369 141,779
142,90 152,20 153,50 154,319
155,679 156,80 166,10 167,30
168,279 169,579 170,70 181,20
182,239 183,539 184,80 195,10
196,209 197,479 198,70 210,179
211,419 212,70 224,149 225,389
226,60 238,129 239,349 240,60
252,99 253,309 254,60 266,80
267,269 268,60 280,40 281,159
282,30 294,30 295,99 296,20
323,20 324,1349 325,349 326,40
##END=
