##TITLE=Formic acid, pentyl ester
##JCAMP-DX=4.24
##DATA TYPE=MASS SPECTRUM
##ORIGIN=Japan AIST/NIMC Database- Spectrum MS-NW-1034
##OWNER=NIST Mass Spectrometry Data Center
Collection (C) 2014 copyright by the U.S. Secretary of Commerce
on behalf of the United States of America. All rights reserved.
##CAS REGISTRY NO=638-49-3
##$NIST MASS SPEC NO=229631
##MOLFORM=C6 H12 O2
##MW=116
##$NIST SOURCE=MSDC
##XUNITS=M/Z
##YUNITS=RELATIVE INTENSITY
##XFACTOR=1
##YFACTOR=1
##FIRSTX=14
##LASTX=88
##FIRSTY=20
##MAXX=88
##MINX=14
##MAXY=9999
##MINY=10
##NPOINTS=53
##PEAK TABLE=(XY..XY)
14,20 15,139 16,10 17,60
18,279 19,60 26,159 27,1769
28,689 29,2639 30,80 31,3189
32,119 33,10 37,40 38,80
39,1099 40,219 41,3969 42,9999
43,1929 44,209 45,389 46,20
47,819 48,10 49,10 50,99
51,119 52,80 53,169 54,129
55,6929 56,559 57,659 58,50
59,219 60,90 61,20 62,10
63,20 65,10 67,80 68,50
69,419 70,7029 71,419 72,20
73,329 74,60 75,10 87,539
88,90
##END=
