##TITLE=Benzene, 4-ethenyl-1,2-dimethoxy-
##JCAMP-DX=4.24
##DATA TYPE=MASS SPECTRUM
##ORIGIN=RADIAN CORP
##OWNER=NIST Mass Spectrometry Data Center
Collection (C) 2014 copyright by the U.S. Secretary of Commerce
on behalf of the United States of America. All rights reserved.
##CAS REGISTRY NO=6380-23-0
##$NIST MASS SPEC NO=71207
##MOLFORM=C10 H12 O2
##MW=164
##$NIST SOURCE=MSDC
##XUNITS=M/Z
##YUNITS=RELATIVE INTENSITY
##XFACTOR=1
##YFACTOR=1
##FIRSTX=15
##LASTX=166
##FIRSTY=190
##MAXX=166
##MINX=15
##MAXY=9999
##MINY=10
##NPOINTS=77
##PEAK TABLE=(XY..XY)
15,190 26,30 27,70 29,80
30,20 31,20 37,30 38,100
39,370 40,40 41,80 43,50
45,10 49,30 50,520 51,930
52,800 53,370 54,20 55,250
56,10 61,80 62,300 63,760
64,220 65,870 66,100 67,40
69,30 73,20 74,200 75,180
76,310 77,3070 78,1990 79,360
80,20 81,40 82,60 85,20
86,50 87,50 88,20 89,810
90,230 91,3550 92,340 93,660
94,60 95,40 98,30 101,50
102,310 103,2010 104,200 105,160
106,300 107,70 117,50 118,250
119,150 120,40 121,1700 122,160
123,10 131,50 132,30 133,50
134,20 147,150 148,210 149,3730
150,360 163,20 164,9999 165,1110
166,40
##END=
