##TITLE=Phosphoramidocyanidic acid, N,N-dimethyl-, isopropyl ester
##JCAMP-DX=4.24
##DATA TYPE=MASS SPECTRUM
##ORIGIN=VERIFIN - Methodology B1-1979
##OWNER=NIST Mass Spectrometry Data Center
Collection (C) 2014 copyright by the U.S. Secretary of Commerce
on behalf of the United States of America. All rights reserved.
##CAS REGISTRY NO=63815-55-4
##$NIST MASS SPEC NO=226145
##MOLFORM=C6 H13 N2 O2 P
##MW=176
##$NIST SOURCE=MSDC
##XUNITS=M/Z
##YUNITS=RELATIVE INTENSITY
##XFACTOR=1
##YFACTOR=1
##FIRSTX=26
##LASTX=176
##FIRSTY=200
##MAXX=176
##MINX=26
##MAXY=9999
##MINY=50
##NPOINTS=38
##PEAK TABLE=(XY..XY)
26,200 27,900 28,700 30,100
32,50 38,200 39,800 40,300
41,2201 42,4504 43,9999 44,4504
45,400 47,700 54,50 58,100
65,200 69,500 70,7206 71,300
76,300 90,300 91,200 92,400
98,70 106,1401 107,1401 108,1701
117,3302 119,200 122,90 133,2702
134,3803 135,5204 150,200 161,2302
162,100 176,1000
##END=
