##TITLE=Phthalaldehydic acid, oxime
##JCAMP-DX=4.24
##DATA TYPE=MASS SPECTRUM
##OWNER=NIST Mass Spectrometry Data Center
Collection (C) 2014 copyright by the U.S. Secretary of Commerce
on behalf of the United States of America. All rights reserved.
##CAS REGISTRY NO=6383-59-1
##$NIST MASS SPEC NO=32546
##MOLFORM=C8 H7 N O3
##MW=165
##$NIST SOURCE=MSDC
##XUNITS=M/Z
##YUNITS=RELATIVE INTENSITY
##XFACTOR=1
##YFACTOR=1
##FIRSTX=44
##LASTX=141
##FIRSTY=540
##MAXX=141
##MINX=44
##MAXY=9999
##MINY=47
##NPOINTS=49
##PEAK TABLE=(XY..XY)
44,540 45,710 46,47 48,47
49,450 50,3981 51,336 52,995
53,189 55,142 56,66 57,289
58,331 59,289 60,104 61,227
62,103 63,142 64,71 65,47
66,284 68,85 69,151 70,75
71,165 72,90 73,545 74,1655
75,1113 76,435 77,853 78,203
79,47 80,47 81,52 83,47
84,90 85,213 90,66 92,56
98,187 99,187 102,52 103,616
104,9999 105,995 106,85 130,118
141,56
##END=
