##TITLE=Bis(2-chloroethylthio)methane
##JCAMP-DX=4.24
##DATA TYPE=MASS SPECTRUM
##ORIGIN=VERIFINN
##OWNER=NIST Mass Spectrometry Data Center
Collection (C) 2014 copyright by the U.S. Secretary of Commerce
on behalf of the United States of America. All rights reserved.
##CAS REGISTRY NO=63869-13-6
##$NIST MASS SPEC NO=289534
##MOLFORM=C5 H10 Cl2 S2
##MW=204
##$NIST SOURCE=MSDC
##XUNITS=M/Z
##YUNITS=RELATIVE INTENSITY
##XFACTOR=1
##YFACTOR=1
##FIRSTX=26
##LASTX=208
##FIRSTY=430
##MAXX=208
##MINX=26
##MAXY=9999
##MINY=110
##NPOINTS=36
##PEAK TABLE=(XY..XY)
26,430 27,3453 28,330 29,120
36,110 41,110 45,2632 46,1361
47,1571 49,360 57,150 58,430
59,761 60,280 61,290 63,3183
65,1011 73,2272 75,120 78,280
79,781 81,350 83,110 108,340
109,9999 110,310 111,3723 112,130
113,290 141,170 142,130 168,611
170,300 204,1621 206,1251 208,290
##END=
