##TITLE=1-Hydroxy-p-menth-3-one
##JCAMP-DX=4.24
##DATA TYPE=MASS SPECTRUM
##ORIGIN=T. NAGASAWA, LAB. CHEM., NAGOYA GAKUIN UNIV., OSAKA, JAP
##OWNER=NIST Mass Spectrometry Data Center
Collection (C) 2014 copyright by the U.S. Secretary of Commerce
on behalf of the United States of America. All rights reserved.
##CAS REGISTRY NO=63865-64-5
##$NIST MASS SPEC NO=72666
##MOLFORM=C10 H18 O2
##MW=170
##$NIST SOURCE=MSDC
##XUNITS=M/Z
##YUNITS=RELATIVE INTENSITY
##XFACTOR=1
##YFACTOR=1
##FIRSTX=39
##LASTX=170
##FIRSTY=1900
##MAXX=170
##MINX=39
##MAXY=9999
##MINY=200
##NPOINTS=37
##PEAK TABLE=(XY..XY)
39,1900 40,300 41,4000 42,300
43,9999 53,700 54,400 55,2000
56,1000 57,400 58,4000 59,300
67,700 68,300 69,4500 70,600
71,2200 81,900 82,2000 83,1300
85,1900 87,1500 95,2000 97,300
100,900 108,1700 109,3000 111,300
113,1000 124,200 127,900 128,1000
137,900 152,800 153,200 155,400
170,200
##END=
