##TITLE=1,5-Benzothiazepin-4(5H)-one, 2-methyl-
##JCAMP-DX=4.24
##DATA TYPE=MASS SPECTRUM
##ORIGIN=MASS SPECTROMETRY CENTER, UNIV. OF UTAH ALDRICH 14206-9
##OWNER=NIST Mass Spectrometry Data Center
Collection (C) 2014 copyright by the U.S. Secretary of Commerce
on behalf of the United States of America. All rights reserved.
##CAS REGISTRY NO=63870-02-0
##$NIST MASS SPEC NO=52651
##MOLFORM=C10 H9 N O S
##MW=191
##$NIST SOURCE=MSDC
##XUNITS=M/Z
##YUNITS=RELATIVE INTENSITY
##XFACTOR=1
##YFACTOR=1
##FIRSTX=13
##LASTX=193
##FIRSTY=12
##MAXX=193
##MINX=13
##MAXY=9999
##MINY=11
##NPOINTS=98
##PEAK TABLE=(XY..XY)
13,12 14,162 15,1431 16,14
26,252 27,533 28,105 29,160
31,100 34,105 37,287 38,648
39,1523 40,155 41,139 42,278
43,8455 44,422 45,4559 46,183
47,221 49,18 50,752 51,946
52,380 53,90 54,38 57,238
58,871 59,92 60,45 61,190
62,473 63,1623 64,482 65,785
66,28 68,91 69,3302 70,388
71,265 72,11 73,51 74,596
75,497 76,605 77,1281 78,292
79,11 81,431 82,1309 83,138
84,92 88,133 89,168 90,162
91,122 93,222 94,87 95,192
96,160 102,304 103,311 104,1218
105,149 106,73 107,165 108,2393
109,989 110,179 111,12 116,260
117,324 120,168 121,1026 122,241
123,28 133,36 134,13 135,30
136,14 146,234 147,141 148,4451
149,9999 150,2328 151,1062 152,93
162,154 163,12 173,112 175,52
176,5047 177,560 178,246 191,5861
192,747 193,331
##END=
