##TITLE=Ethyl n-butyl disulphide
##JCAMP-DX=4.24
##DATA TYPE=MASS SPECTRUM
##ORIGIN=H.J. MOECKEL & J. WEISS, HAHN-MEITNER-INST. BERLIN, W. G
##OWNER=NIST Mass Spectrometry Data Center
Collection (C) 2014 copyright by the U.S. Secretary of Commerce
on behalf of the United States of America. All rights reserved.
##CAS REGISTRY NO=63986-03-8
##$NIST MASS SPEC NO=75509
##MOLFORM=C6 H14 S2
##MW=150
##$NIST SOURCE=MSDC
##XUNITS=M/Z
##YUNITS=RELATIVE INTENSITY
##XFACTOR=1
##YFACTOR=1
##FIRSTX=15
##LASTX=154
##FIRSTY=104
##MAXX=154
##MINX=15
##MAXY=9999
##MINY=1
##NPOINTS=86
##PEAK TABLE=(XY..XY)
15,104 24,2 25,18 26,338
27,3573 29,9999 30,324 33,36
34,53 35,349 36,5 37,28
38,69 39,977 40,160 41,6480
42,292 43,185 44,69 45,842
46,433 47,630 48,33 49,31
50,27 51,46 52,16 53,160
54,166 55,737 56,305 57,3889
58,361 59,468 60,361 61,217
62,49 63,24 64,218 65,168
66,1973 67,75 68,173 69,11
70,6 71,21 72,6 73,46
74,2 75,20 76,10 77,7
78,40 79,370 80,26 81,34
82,2 83,1 84,1 85,20
86,4 87,121 88,135 89,54
90,13 91,6 92,24 93,396
94,4332 95,225 96,407 97,15
98,9 103,1 106,1 107,41
109,3 117,1 121,9 148,3
149,74 150,2434 151,234 152,219
153,18 154,5
##END=
