##TITLE=Diethyl sulfate
##JCAMP-DX=4.24
##DATA TYPE=MASS SPECTRUM
##ORIGIN=NIST Mass Spectrometry Data Center, 1994
##OWNER=NIST Mass Spectrometry Data Center
Collection (C) 2014 copyright by the U.S. Secretary of Commerce
on behalf of the United States of America. All rights reserved.
##CAS REGISTRY NO=64-67-5
##$NIST MASS SPEC NO=133650
##MOLFORM=C4 H10 O4 S
##MW=154
##$NIST SOURCE=MSDC
##XUNITS=M/Z
##YUNITS=RELATIVE INTENSITY
##XFACTOR=1
##YFACTOR=1
##FIRSTX=13
##LASTX=153
##FIRSTY=45
##MAXX=153
##MINX=13
##MAXY=9999
##MINY=35
##NPOINTS=52
##PEAK TABLE=(XY..XY)
13,45 14,232 15,1348 16,71
19,193 26,970 27,3981 28,3027
29,9999 30,1344 31,7163 32,137
41,3193 42,505 43,1923 44,130
45,5847 46,1301 47,134 48,360
50,66 56,519 57,101 59,4898
60,154 64,283 65,507 66,61
75,207 80,50 81,189 82,314
83,344 92,35 93,98 95,89
97,41 99,3025 101,169 109,171
111,4011 112,84 113,236 125,4847
126,1256 127,2428 128,140 129,109
139,4307 140,196 141,234 153,105
##END=
