##TITLE=Tolbutamide
##JCAMP-DX=4.24
##DATA TYPE=MASS SPECTRUM
##ORIGIN=Japan AIST/NIMC Database- Spectrum MS-IW-6771
##OWNER=NIST Mass Spectrometry Data Center
Collection (C) 2014 copyright by the U.S. Secretary of Commerce
on behalf of the United States of America. All rights reserved.
##CAS REGISTRY NO=64-77-7
##$NIST MASS SPEC NO=242090
##MOLFORM=C12 H18 N2 O3 S
##MW=270
##$NIST SOURCE=MSDC
##XUNITS=M/Z
##YUNITS=RELATIVE INTENSITY
##XFACTOR=1
##YFACTOR=1
##FIRSTX=15
##LASTX=272
##FIRSTY=40
##MAXX=272
##MINX=15
##MAXY=9999
##MINY=10
##NPOINTS=131
##PEAK TABLE=(XY..XY)
15,40 17,10 18,209 26,30
27,279 28,329 29,269 30,7179
31,149 37,20 38,90 39,729
40,80 41,549 42,129 43,349
44,249 45,40 46,10 48,20
49,10 50,189 51,319 52,109
53,70 54,20 55,99 56,199
57,139 58,50 61,40 62,149
63,509 64,149 65,1789 66,109
67,30 69,30 70,40 71,30
72,409 73,1019 74,119 75,60
76,40 77,269 78,109 79,139
80,20 82,10 84,10 85,20
86,40 87,40 88,10 89,619
90,359 91,9999 92,839 93,40
95,10 97,10 98,50 99,519
100,50 101,10 104,50 105,20
106,229 107,1149 108,2599 109,209
110,10 111,10 113,10 115,279
116,20 120,20 121,20 122,10
123,20 124,40 125,429 126,40
127,129 128,10 132,30 133,10
137,10 139,99 140,20 141,169
142,129 143,60 144,40 149,10
154,20 155,5989 156,519 157,309
158,20 163,20 171,279 172,60
173,20 184,10 189,449 190,40
191,159 192,10 196,10 197,2569
198,289 199,139 200,10 205,20
206,359 207,50 215,40 227,99
228,60 229,10 231,209 232,20
233,80 241,10 255,10 269,10
270,90 271,70 272,10
##END=
