##TITLE=Colchicine
##JCAMP-DX=4.24
##DATA TYPE=MASS SPECTRUM
##ORIGIN=Japan AIST/NIMC Database- Spectrum MS-NW-2286
##OWNER=NIST Mass Spectrometry Data Center
Collection (C) 2014 copyright by the U.S. Secretary of Commerce
on behalf of the United States of America. All rights reserved.
##CAS REGISTRY NO=64-86-8
##$NIST MASS SPEC NO=234039
##MOLFORM=C22 H25 N O6
##MW=399
##$NIST SOURCE=MSDC
##XUNITS=M/Z
##YUNITS=RELATIVE INTENSITY
##XFACTOR=1
##YFACTOR=1
##FIRSTX=14
##LASTX=402
##FIRSTY=189
##MAXX=402
##MINX=14
##MAXY=9999
##MINY=20
##NPOINTS=344
##PEAK TABLE=(XY..XY)
14,189 15,969 16,40 17,20
18,70 26,60 27,189 28,1079
29,219 30,319 31,269 32,169
38,50 39,259 40,159 41,389
42,319 43,3239 44,239 45,159
47,70 48,50 50,80 51,249
52,99 53,129 54,90 55,189
56,119 57,149 58,30 59,109
60,149 62,70 63,309 64,90
65,159 66,50 67,80 68,50
69,109 70,99 71,80 72,50
73,119 74,99 75,219 76,279
77,289 78,129 79,80 80,60
81,70 82,80 83,80 84,109
85,60 86,70 87,149 88,129
89,229 90,99 91,149 92,80
93,50 94,60 95,60 96,70
97,80 98,119 99,109 100,99
101,149 102,159 103,139 104,109
105,90 106,70 107,50 108,30
109,50 110,60 111,90 112,99
113,169 114,199 115,449 116,129
117,99 118,109 119,90 120,90
121,80 122,40 123,40 124,50
125,90 126,249 127,449 128,369
129,179 130,109 131,109 132,90
133,119 134,99 135,70 136,60
137,80 138,99 139,549 140,389
141,439 142,189 143,109 144,60
145,90 146,70 147,99 148,129
149,109 150,119 151,289 152,569
153,349 154,229 155,299 156,239
157,179 158,90 159,80 160,90
161,60 162,70 163,159 164,149
165,389 166,239 167,299 168,369
169,299 170,299 171,179 172,99
173,70 174,50 175,60 176,119
177,129 178,189 179,179 180,229
181,419 182,289 183,499 184,259
185,209 186,90 187,70 188,60
189,70 190,109 191,129 192,159
193,149 194,219 195,349 196,339
197,289 198,229 199,259 200,149
201,70 202,60 203,40 204,70
205,139 206,129 207,309 208,249
209,319 210,309 211,679 212,339
213,249 214,109 215,60 216,50
217,40 218,60 219,80 220,149
221,189 222,359 223,429 224,419
225,389 226,329 227,329 228,209
229,90 230,50 231,60 232,50
233,70 234,99 235,279 236,289
237,369 238,619 239,729 240,429
241,329 242,239 243,129 244,70
245,40 246,50 247,50 248,90
249,149 250,269 251,629 252,479
253,429 254,1489 255,579 256,369
257,169 258,90 259,50 260,40
261,50 262,60 263,129 264,169
265,489 266,839 267,809 268,769
269,1229 270,959 271,419 272,119
273,50 274,40 275,40 276,50
277,60 278,129 279,269 280,319
281,3079 282,1559 283,779 284,519
285,299 286,429 287,119 288,60
289,60 290,50 291,70 292,90
293,129 294,719 295,349 296,689
297,3849 298,2079 299,979 300,959
301,239 302,70 303,30 304,40
305,40 306,50 307,99 308,179
309,319 310,339 311,1609 312,9999
313,2149 314,1039 315,269 316,70
320,30 321,40 322,419 323,159
324,199 325,609 326,349 327,209
328,899 329,249 330,50 336,50
337,50 338,149 339,179 340,869
341,269 342,239 343,219 344,70
345,40 346,40 348,40 349,40
350,40 351,40 352,40 353,119
354,80 355,90 356,779 357,409
358,99 359,40 363,30 365,30
366,40 367,70 368,90 369,80
370,179 371,2939 372,689 373,109
374,30 381,139 382,50 383,60
384,60 395,30 397,60 398,80
399,4149 400,989 401,169 402,30
##END=
