##TITLE=Deoxycorticosterone
##JCAMP-DX=4.24
##DATA TYPE=MASS SPECTRUM
##ORIGIN=Japan AIST/NIMC Database- Spectrum MS-NW-6959
##OWNER=NIST Mass Spectrometry Data Center
Collection (C) 2014 copyright by the U.S. Secretary of Commerce
on behalf of the United States of America. All rights reserved.
##CAS REGISTRY NO=64-85-7
##$NIST MASS SPEC NO=235904
##MOLFORM=C21 H30 O3
##MW=330
##$NIST SOURCE=MSDC
##XUNITS=M/Z
##YUNITS=RELATIVE INTENSITY
##XFACTOR=1
##YFACTOR=1
##FIRSTX=17
##LASTX=332
##FIRSTY=119
##MAXX=332
##MINX=17
##MAXY=9999
##MINY=10
##NPOINTS=283
##PEAK TABLE=(XY..XY)
17,119 18,399 26,20 27,369
28,90 29,489 30,30 31,669
32,20 38,10 39,549 40,109
41,1649 42,99 43,649 44,30
45,30 50,40 51,159 52,99
53,759 54,109 55,1709 56,129
57,129 58,20 59,30 62,10
63,60 64,40 65,459 66,179
67,1319 68,149 69,439 70,40
71,109 72,30 73,30 74,20
75,30 76,40 77,1209 78,339
79,1729 80,269 81,1439 82,179
83,319 84,50 85,129 86,179
87,109 88,40 89,50 90,30
91,1949 92,329 93,1599 94,349
95,1819 96,199 97,379 98,40
99,70 100,429 101,109 102,60
103,169 104,129 105,1399 106,249
107,1369 108,299 109,819 110,119
111,209 112,30 113,40 114,90
115,329 116,139 117,499 118,139
119,769 120,209 121,1299 122,399
123,1289 124,599 125,149 126,40
127,99 128,219 129,329 130,139
131,649 132,199 133,1159 134,339
135,1299 136,299 137,539 138,70
139,99 140,20 141,149 142,109
143,379 144,149 145,1059 146,239
147,2989 148,489 149,1539 150,249
151,70 152,60 153,70 154,40
155,129 156,90 157,519 158,139
159,739 160,199 161,1339 162,219
163,569 164,139 165,629 166,479
167,99 168,30 169,119 170,70
171,459 172,199 173,469 174,139
175,659 176,159 177,209 178,129
179,60 180,30 181,60 182,40
183,169 184,60 185,219 186,90
187,359 188,129 189,239 190,50
191,80 192,30 193,40 194,20
195,50 196,229 197,319 198,99
199,129 200,109 201,209 202,80
203,60 204,20 205,30 206,20
207,40 208,10 209,50 210,40
211,189 212,60 213,239 214,70
215,309 216,80 217,40 218,20
219,20 220,20 221,30 222,10
223,40 224,30 225,189 226,60
227,379 228,139 229,769 230,179
231,70 232,10 233,30 234,20
235,40 236,30 237,60 238,50
239,80 240,20 241,80 242,50
243,319 244,229 245,99 246,90
247,40 248,30 249,40 250,20
251,60 252,40 253,3379 254,709
255,169 256,70 257,70 258,70
259,30 260,30 261,20 262,20
263,30 264,20 265,40 266,40
267,40 268,60 269,299 270,219
271,5259 272,1119 273,169 274,60
275,20 276,30 277,10 278,20
279,60 280,20 281,60 282,30
283,90 284,40 285,30 286,20
287,30 288,40 289,20 290,10
291,10 292,10 293,20 294,30
295,40 296,30 297,209 298,70
299,9999 300,2199 301,429 302,70
303,20 310,10 311,20 312,169
313,80 314,80 315,129 316,40
317,20 326,10 328,70 329,60
330,529 331,129 332,20
##END=
