##TITLE=1,1':2',1'':2'',1'''-Quaterphenyl
##JCAMP-DX=4.24
##DATA TYPE=MASS SPECTRUM
##ORIGIN=W.BEYRICH, J.N.R.C., ISPRA, ITALY
##OWNER=NIST Mass Spectrometry Data Center
Collection (C) 2014 copyright by the U.S. Secretary of Commerce
on behalf of the United States of America. All rights reserved.
##CAS REGISTRY NO=641-96-3
##$NIST MASS SPEC NO=14543
##MOLFORM=C24 H18
##MW=306
##$NIST SOURCE=MSDC
##XUNITS=M/Z
##YUNITS=RELATIVE INTENSITY
##XFACTOR=1
##YFACTOR=1
##FIRSTX=39
##LASTX=308
##FIRSTY=90
##MAXX=308
##MINX=39
##MAXY=9999
##MINY=25
##NPOINTS=94
##PEAK TABLE=(XY..XY)
39,90 50,40 51,215 63,120
74,35 75,70 76,50 77,200
78,65 87,45 88,35 89,40
91,300 100,70 101,70 102,40
103,40 112,80 113,235 114,40
115,100 119,35 120,30 124,50
125,290 126,240 127,35 128,60
131,70 132,180 133,105 137,265
138,1000 139,330 143,65 144,335
145,1740 146,60 149,105 150,640
151,880 152,500 153,400 163,75
165,320 176,70 178,170 187,50
189,120 191,90 200,165 201,115
202,485 203,145 213,70 215,1420
216,230 224,125 225,145 226,975
227,585 228,2000 229,2310 230,385
239,140 241,65 250,95 252,190
253,45 263,140 264,25 265,355
266,45 274,90 275,85 276,575
277,375 278,280 279,135 287,70
288,120 289,1620 290,950 291,1010
292,195 300,280 301,210 302,825
303,740 304,665 305,1760 306,9999
307,2570 308,305
##END=
