##TITLE=1H-Indene-1,3(2H)-dione, 2-(2-pyridinyl)-
##JCAMP-DX=4.24
##DATA TYPE=MASS SPECTRUM
##OWNER=NIST Mass Spectrometry Data Center
Collection (C) 2014 copyright by the U.S. Secretary of Commerce
on behalf of the United States of America. All rights reserved.
##CAS REGISTRY NO=641-63-4
##$NIST MASS SPEC NO=33155
##MOLFORM=C14 H9 N O2
##MW=223
##$NIST SOURCE=MSDC
##XUNITS=M/Z
##YUNITS=RELATIVE INTENSITY
##XFACTOR=1
##YFACTOR=1
##FIRSTX=62
##LASTX=224
##FIRSTY=500
##MAXX=224
##MINX=62
##MAXY=9999
##MINY=500
##NPOINTS=27
##PEAK TABLE=(XY..XY)
62,500 63,900 64,500 74,500
75,700 76,1300 77,2000 78,800
84,500 85,1800 89,500 91,500
105,2200 111,800 112,600 139,2600
140,1500 154,1000 155,1400 166,2700
167,4600 168,700 194,1500 195,1200
222,2900 223,9999 224,2600
##END=
