##TITLE=Dibenzo[def,mno]chrysene-6,12-dione
##JCAMP-DX=4.24
##DATA TYPE=MASS SPECTRUM
##ORIGIN=Japan AIST/NIMC Database- Spectrum MS-NW-2540
##OWNER=NIST Mass Spectrometry Data Center
Collection (C) 2014 copyright by the U.S. Secretary of Commerce
on behalf of the United States of America. All rights reserved.
##CAS REGISTRY NO=641-13-4
##$NIST MASS SPEC NO=231072
##MOLFORM=C22 H10 O2
##MW=306
##$NIST SOURCE=MSDC
##XUNITS=M/Z
##YUNITS=RELATIVE INTENSITY
##XFACTOR=1
##YFACTOR=1
##FIRSTX=27
##LASTX=309
##FIRSTY=10
##MAXX=309
##MINX=27
##MAXY=9999
##MINY=10
##NPOINTS=109
##PEAK TABLE=(XY..XY)
27,10 28,10 36,10 39,20
41,20 43,30 44,20 50,20
51,20 55,30 56,10 57,50
61,10 62,20 63,30 67,10
69,30 70,10 71,30 73,10
74,60 75,30 76,10 81,10
82,50 83,119 84,10 85,30
86,60 87,40 91,10 94,10
95,10 96,10 97,20 98,70
99,90 100,30 102,10 109,20
110,40 111,219 112,259 113,10
117,10 121,10 122,50 123,199
124,879 125,1329 126,30 129,20
130,10 131,10 133,10 134,20
135,20 137,10 138,30 139,409
140,20 146,30 147,10 149,20
150,10 153,509 154,30 158,10
159,10 170,10 171,10 174,20
197,10 198,40 199,20 200,20
211,10 221,30 222,90 223,90
224,129 225,30 226,10 245,20
246,119 247,149 248,819 249,629
250,1369 251,309 252,40 253,10
254,10 255,10 259,10 260,10
261,20 263,10 276,20 277,109
278,1689 279,379 280,50 291,20
305,30 306,9999 307,2489 308,379
309,40
##END=
