##TITLE=Dipropyl methylphosphonate
##JCAMP-DX=4.24
##DATA TYPE=MASS SPECTRUM
##ORIGIN=VERIFINN
##OWNER=NIST Mass Spectrometry Data Center
Collection (C) 2014 copyright by the U.S. Secretary of Commerce
on behalf of the United States of America. All rights reserved.
##CAS REGISTRY NO=6410-56-6
##$NIST MASS SPEC NO=289531
##MOLFORM=C7 H17 O3 P
##MW=180
##$NIST SOURCE=MSDC
##XUNITS=M/Z
##YUNITS=RELATIVE INTENSITY
##XFACTOR=1
##YFACTOR=1
##FIRSTX=26
##LASTX=151
##FIRSTY=80
##MAXX=151
##MINX=26
##MAXY=9999
##MINY=60
##NPOINTS=34
##PEAK TABLE=(XY..XY)
26,80 27,1071 28,190 29,450
31,230 39,440 41,1111 42,260
43,1692 45,200 47,370 49,90
57,60 59,120 62,120 63,100
65,270 77,100 79,2442 80,711
81,210 92,80 97,9999 98,70
99,110 109,440 110,130 111,180
121,1431 123,881 137,210 139,1712
140,60 151,601
##END=
