##TITLE=Catechine (2R-E)-, 5TMS derivative
##JCAMP-DX=4.24
##DATA TYPE=MASS SPECTRUM
##ORIGIN=NIST Mass Spectrometry Data Center
##OWNER=NIST Mass Spectrometry Data Center
Collection (C) 2014 copyright by the U.S. Secretary of Commerce
on behalf of the United States of America. All rights reserved.
##CAS REGISTRY NO=64138-54-1
##$NIST MASS SPEC NO=413866
##MOLFORM=C30 H54 O6 Si5
##MW=650
##$NIST SOURCE=MSDC
##XUNITS=M/Z
##YUNITS=RELATIVE INTENSITY
##XFACTOR=1
##YFACTOR=1
##FIRSTX=44
##LASTX=653
##FIRSTY=20
##MAXX=653
##MINX=44
##MAXY=9999
##MINY=10
##NPOINTS=220
##PEAK TABLE=(XY..XY)
44,20 45,280 46,20 59,80
72,40 73,8968 74,741 75,450
76,30 85,40 89,60 91,50
99,40 102,20 103,130 111,40
115,80 117,60 119,60 131,140
132,30 133,250 134,30 135,80
137,20 143,50 146,60 147,671
148,120 149,110 150,20 151,30
152,10 153,20 160,40 161,50
162,20 163,50 164,20 165,50
166,20 175,30 176,20 177,70
178,50 179,1221 180,210 181,80
191,140 192,80 193,170 194,40
195,40 199,20 203,90 206,70
207,110 208,30 209,50 210,20
211,20 215,20 218,90 221,40
223,50 225,20 233,70 235,70
236,30 237,220 238,50 239,140
240,40 241,30 245,30 247,220
248,30 249,410 250,110 252,130
253,170 254,110 255,40 256,30
257,30 261,20 263,40 264,20
265,300 266,100 267,1171 268,290
269,130 270,30 271,50 273,20
277,40 278,30 279,70 280,781
281,611 282,260 283,250 284,70
285,30 286,10 288,10 289,20
291,30 293,140 294,150 295,80
296,40 297,30 298,10 301,10
307,60 308,30 309,20 310,20
311,50 312,10 317,70 318,50
323,20 324,20 325,70 326,30
327,20 331,30 337,30 338,20
339,70 340,40 341,50 342,10
351,20 352,40 353,250 354,70
355,3373 356,1061 357,530 358,130
359,30 361,120 366,50 367,20
368,9999 369,3603 370,1641 371,380
372,100 373,20 379,10 381,30
382,40 383,320 384,110 385,60
395,40 396,10 397,30 398,60
399,30 400,10 401,10 413,10
415,10 427,10 429,10 431,10
441,10 443,160 444,80 445,40
446,10 450,20 455,10 456,30
457,20 458,20 459,20 461,110
462,40 463,20 471,30 472,20
473,20 474,20 475,10 487,30
488,20 489,10 490,10 519,20
531,20 532,40 533,30 534,10
535,10 544,10 547,30 559,40
560,80 561,40 562,20 563,10
577,40 578,20 579,10 621,10
635,60 636,30 637,20 638,10
650,390 651,230 652,140 653,50
##END=
