##TITLE=2,7-Octadiene-1,6-diol, 2,6-dimethyl-
##JCAMP-DX=4.24
##DATA TYPE=MASS SPECTRUM
##ORIGIN=Insect Chem. Ecol. Lab., USDA, Beltsville, MD 20705
##OWNER=NIST Mass Spectrometry Data Center
Collection (C) 2014 copyright by the U.S. Secretary of Commerce
on behalf of the United States of America. All rights reserved.
##CAS REGISTRY NO=64142-78-5
##$NIST MASS SPEC NO=131834
##MOLFORM=C10 H18 O2
##MW=170
##$NIST SOURCE=MSDC
##XUNITS=M/Z
##YUNITS=RELATIVE INTENSITY
##XFACTOR=1
##YFACTOR=1
##FIRSTX=41
##LASTX=153
##FIRSTY=3694
##MAXX=153
##MINX=41
##MAXY=9999
##MINY=8
##NPOINTS=94
##PEAK TABLE=(XY..XY)
41,3694 42,796 43,9999 44,431
45,472 46,21 47,21 48,11
50,103 51,305 52,179 53,1367
54,456 55,3524 56,569 57,1071
58,353 59,129 60,28 61,24
62,13 63,79 64,42 65,405
66,244 67,5275 68,2266 69,1168
70,621 71,7144 72,573 73,68
74,16 75,67 76,8 77,475
78,141 79,1762 80,942 81,1467
82,1855 83,808 84,1279 85,177
86,14 87,84 88,40 89,24
91,626 92,500 93,1292 94,800
95,797 96,1180 97,545 98,134
99,34 100,25 101,10 102,35
103,45 104,19 105,395 106,344
107,331 108,181 109,792 110,1022
111,215 112,26 113,11 115,26
117,68 118,10 119,1221 120,130
121,614 122,86 123,431 124,142
125,272 126,26 131,17 133,45
134,212 135,57 137,998 138,106
139,21 141,10 149,17 151,12
152,185 153,26
##END=
