##TITLE=Tetramethylhydrazine
##JCAMP-DX=4.24
##DATA TYPE=MASS SPECTRUM
##ORIGIN=NIST Mass Spectrometry Data Center, 1990.
##OWNER=NIST Mass Spectrometry Data Center
Collection (C) 2014 copyright by the U.S. Secretary of Commerce
on behalf of the United States of America. All rights reserved.
##CAS REGISTRY NO=6415-12-9
##$NIST MASS SPEC NO=118867
##MOLFORM=C4 H12 N2
##MW=88
##$NIST SOURCE=MSDC
##XUNITS=M/Z
##YUNITS=RELATIVE INTENSITY
##XFACTOR=1
##YFACTOR=1
##FIRSTX=12
##LASTX=89
##FIRSTY=39
##MAXX=89
##MINX=12
##MAXY=9999
##MINY=13
##NPOINTS=43
##PEAK TABLE=(XY..XY)
12,39 13,99 14,399 15,4354
16,66 17,39 18,1794 19,18
25,13 26,64 27,559 28,2462
29,366 30,2457 31,294 32,2076
33,38 38,71 39,132 40,484
41,996 42,9999 43,6148 44,8740
45,1034 46,4912 47,131 53,17
54,29 55,56 56,103 57,600
58,640 59,37 69,23 71,661
72,518 73,5478 74,267 83,20
85,17 88,7057 89,377
##END=
