##TITLE=4,4'-Trimethylenebis(1-methylpiperidine)
##JCAMP-DX=4.24
##DATA TYPE=MASS SPECTRUM
##ORIGIN=Japan AIST/NIMC Database- Spectrum MS-IW-1270
##OWNER=NIST Mass Spectrometry Data Center
Collection (C) 2014 copyright by the U.S. Secretary of Commerce
on behalf of the United States of America. All rights reserved.
##CAS REGISTRY NO=64168-11-2
##$NIST MASS SPEC NO=239476
##MOLFORM=C15 H30 N2
##MW=238
##$NIST SOURCE=MSDC
##XUNITS=M/Z
##YUNITS=RELATIVE INTENSITY
##XFACTOR=1
##YFACTOR=1
##FIRSTX=15
##LASTX=240
##FIRSTY=50
##MAXX=240
##MINX=15
##MAXY=9999
##MINY=10
##NPOINTS=137
##PEAK TABLE=(XY..XY)
15,50 26,10 27,99 28,60
29,259 30,119 32,10 36,10
39,139 40,20 41,589 42,1549
43,1299 44,2999 45,90 46,10
51,10 52,10 53,139 54,90
55,979 56,239 57,729 58,2719
59,149 60,10 65,40 66,20
67,199 68,129 69,159 70,3479
71,1039 72,359 73,20 77,40
78,10 79,99 80,60 81,199
82,239 83,129 84,209 85,40
86,10 91,40 92,20 93,50
94,209 95,90 96,5219 97,549
98,2399 99,1399 100,99 105,10
106,20 107,40 108,60 109,90
110,409 111,90 112,2099 113,499
114,40 117,10 118,409 119,90
120,20 121,20 122,129 123,30
124,129 125,60 126,2069 127,619
128,50 134,10 135,20 136,50
137,10 138,219 139,50 140,3199
141,429 142,40 148,10 149,10
150,40 151,10 152,109 153,40
154,139 155,20 164,60 165,10
166,459 167,149 168,1329 169,179
170,10 176,20 178,129 179,50
180,379 181,589 182,459 183,60
190,10 192,219 193,40 194,1119
195,699 196,149 197,20 204,10
206,90 207,129 208,519 209,599
210,249 211,30 219,10 221,99
222,20 223,9999 224,1609 225,119
232,10 233,10 234,10 235,70
236,189 237,3469 238,5899 239,1039
240,90
##END=
