##TITLE=Nonadecane, 3-methyl-
##JCAMP-DX=4.24
##DATA TYPE=MASS SPECTRUM
##ORIGIN=W.L.MEAD BRITISH PETROLEUM CO. LTD., SUNBURY-ON-THAMES, UK
##OWNER=NIST Mass Spectrometry Data Center
Collection (C) 2014 copyright by the U.S. Secretary of Commerce
on behalf of the United States of America. All rights reserved.
##CAS REGISTRY NO=6418-45-7
##$NIST MASS SPEC NO=68918
##MOLFORM=C20 H42
##MW=282
##$NIST SOURCE=MSDC
##XUNITS=M/Z
##YUNITS=RELATIVE INTENSITY
##XFACTOR=1
##YFACTOR=1
##FIRSTX=39
##LASTX=282
##FIRSTY=930
##MAXX=282
##MINX=39
##MAXY=9999
##MINY=30
##NPOINTS=66
##PEAK TABLE=(XY..XY)
39,930 40,200 41,5540 42,1110
43,7710 44,240 53,310 54,380
55,3440 56,3470 57,9999 58,440
67,410 68,220 69,1440 70,1110
71,4660 72,200 79,140 81,220
82,240 83,920 84,330 85,3160
86,160 96,180 97,480 98,200
99,1020 100,90 111,200 112,80
113,900 114,90 125,180 126,60
127,640 128,70 139,50 140,60
141,640 142,40 153,70 154,40
155,510 156,70 167,60 168,70
169,470 170,50 181,50 182,30
183,340 184,30 196,30 197,280
198,40 209,40 211,140 224,90
225,170 252,600 253,1580 254,330
267,50 282,30
##END=
