##TITLE=2,3-Difluorophenol
##JCAMP-DX=4.24
##DATA TYPE=MASS SPECTRUM
##ORIGIN=Japan AIST/NIMC Database- Spectrum MS-NW-7628
##OWNER=NIST Mass Spectrometry Data Center
Collection (C) 2014 copyright by the U.S. Secretary of Commerce
on behalf of the United States of America. All rights reserved.
##CAS REGISTRY NO=6418-38-8
##$NIST MASS SPEC NO=238220
##MOLFORM=C6 H4 F2 O
##MW=130
##$NIST SOURCE=MSDC
##XUNITS=M/Z
##YUNITS=RELATIVE INTENSITY
##XFACTOR=1
##YFACTOR=1
##FIRSTX=14
##LASTX=132
##FIRSTY=10
##MAXX=132
##MINX=14
##MAXY=9999
##MINY=10
##NPOINTS=79
##PEAK TABLE=(XY..XY)
14,10 25,10 26,60 27,50
28,99 29,60 31,519 32,20
33,20 36,40 37,209 38,179
39,159 40,10 41,40 42,20
43,20 44,60 45,40 48,20
49,90 50,329 51,589 52,239
53,209 54,10 55,99 56,349
57,479 58,30 60,40 61,229
62,239 63,919 64,70 65,259
66,30 67,20 68,139 69,90
70,50 71,80 72,10 73,70
74,90 75,699 76,199 77,30
79,60 80,119 81,1049 82,3509
83,399 84,30 86,10 87,30
88,40 91,269 92,40 93,40
94,10 98,10 99,169 100,90
101,2049 102,759 103,40 104,30
108,10 109,10 110,449 111,70
112,60 113,30 128,30 129,149
130,9999 131,679 132,40
##END=
