##TITLE=Longiverbenone
##JCAMP-DX=4.24
##DATA TYPE=MASS SPECTRUM
##ORIGIN=NIST Mass Spectrometry Data Center
##OWNER=NIST Mass Spectrometry Data Center
Collection (C) 2014 copyright by the U.S. Secretary of Commerce
on behalf of the United States of America. All rights reserved.
##CAS REGISTRY NO=64180-68-3
##$NIST MASS SPEC NO=413227
##MOLFORM=C15 H22 O
##MW=218
##$NIST SOURCE=MSDC
##XUNITS=M/Z
##YUNITS=RELATIVE INTENSITY
##XFACTOR=1
##YFACTOR=1
##FIRSTX=26
##LASTX=219
##FIRSTY=20
##MAXX=219
##MINX=26
##MAXY=9999
##MINY=10
##NPOINTS=120
##PEAK TABLE=(XY..XY)
26,20 27,510 28,90 29,581
30,10 31,90 38,70 39,2102
40,410 41,3863 42,320 50,200
51,991 52,530 53,2222 54,370
55,2682 56,320 59,2332 60,80
61,10 62,60 63,400 64,220
65,1621 66,470 67,1862 68,360
69,2472 70,180 73,40 74,100
75,100 76,110 77,4724 78,1261
79,4224 80,1181 81,1972 82,1111
83,591 86,40 87,60 88,20
89,270 90,110 91,7717 92,1131
93,3153 94,1121 95,2993 96,951
97,320 101,40 102,170 103,1001
104,370 105,5525 106,1291 107,3883
108,4604 109,4584 110,2783 111,340
112,30 115,1191 116,440 117,1071
118,240 119,3853 120,1091 121,4774
122,3183 123,2042 124,290 127,130
128,550 129,661 130,210 131,791
133,3743 134,1141 135,5635 136,2122
137,400 141,230 142,210 144,200
145,891 146,520 147,8558 148,9999
149,4464 150,1051 154,10 155,50
156,50 157,320 160,370 161,3553
162,2202 163,390 170,40 171,70
172,60 173,120 174,130 175,2552
176,350 185,150 186,40 189,280
190,130 200,40 201,40 203,1491
216,10 217,40 218,1261 219,250
##END=
