##TITLE=Hexadecane, 3-methyl-
##JCAMP-DX=4.24
##DATA TYPE=MASS SPECTRUM
##ORIGIN=W.L.MEAD BRITISH PETROLEUM CO. LTD., SUNBURY-ON-THAMES, UK
##OWNER=NIST Mass Spectrometry Data Center
Collection (C) 2014 copyright by the U.S. Secretary of Commerce
on behalf of the United States of America. All rights reserved.
##CAS REGISTRY NO=6418-43-5
##$NIST MASS SPEC NO=68902
##MOLFORM=C17 H36
##MW=240
##$NIST SOURCE=MSDC
##XUNITS=M/Z
##YUNITS=RELATIVE INTENSITY
##XFACTOR=1
##YFACTOR=1
##FIRSTX=39
##LASTX=241
##FIRSTY=860
##MAXX=241
##MINX=39
##MAXY=9999
##MINY=10
##NPOINTS=65
##PEAK TABLE=(XY..XY)
39,860 40,180 41,5330 42,1100
43,6670 44,230 53,40 54,40
55,2670 56,3180 57,9999 58,410
67,240 68,160 69,990 70,720
71,4150 72,220 81,80 82,130
83,530 84,260 85,2360 86,170
96,80 97,310 98,130 99,810
100,70 110,40 111,150 112,70
113,520 114,50 124,20 125,80
126,50 127,400 128,30 138,20
139,40 140,30 141,280 142,30
153,20 154,20 155,190 156,20
167,20 168,10 169,70 170,10
181,10 182,80 183,90 184,20
197,10 210,300 211,640 212,90
213,10 224,10 225,20 240,20
241,10
##END=
