##TITLE=1-Propanamine, N,N-dimethyl-3-[[1-(phenylmethyl)-1H-indazol-3-yl]oxy]-
##JCAMP-DX=4.24
##DATA TYPE=MASS SPECTRUM
##ORIGIN=Tox21 Consortium/NIST Mass Spectrometry Data Center, 2012
##OWNER=NIST Mass Spectrometry Data Center
Collection (C) 2014 copyright by the U.S. Secretary of Commerce
on behalf of the United States of America. All rights reserved.
##CAS REGISTRY NO=642-72-8
##$NIST MASS SPEC NO=408054
##MOLFORM=C19 H23 N3 O
##MW=309
##$NIST SOURCE=MSDC
##XUNITS=M/Z
##YUNITS=RELATIVE INTENSITY
##XFACTOR=1
##YFACTOR=1
##FIRSTX=15
##LASTX=310
##FIRSTY=20
##MAXX=310
##MINX=15
##MAXY=9999
##MINY=10
##NPOINTS=138
##PEAK TABLE=(XY..XY)
15,20 18,10 26,10 27,40
28,70 29,60 30,200 31,10
36,10 38,20 39,160 40,20
41,220 42,841 43,270 44,260
45,40 46,10 50,120 51,140
52,30 53,10 54,10 55,30
56,210 57,540 58,8608 59,320
62,20 63,110 64,50 65,621
66,40 67,10 68,60 69,30
70,1912 71,420 72,80 73,20
74,40 75,90 76,651 77,250
78,50 79,10 82,50 84,2112
85,9999 86,5065 87,270 88,50
89,210 90,180 91,4074 92,360
93,20 100,10 101,10 102,110
103,50 104,691 105,120 106,10
115,30 116,10 117,20 118,40
119,40 120,20 126,10 127,10
128,10 129,40 130,20 131,50
132,30 133,20 134,20 139,20
140,10 145,50 146,80 147,140
148,10 150,10 151,30 152,60
153,10 160,40 161,10 163,10
164,20 165,90 166,40 167,20
168,10 173,20 174,70 175,20
176,10 177,10 178,20 179,20
180,50 181,10 186,10 192,10
193,10 194,30 195,30 196,10
205,20 206,10 207,20 208,20
218,100 219,10 221,40 222,70
223,70 224,50 225,340 226,50
227,10 234,30 235,20 236,20
237,10 238,20 250,10 251,30
252,10 264,170 265,60 266,30
309,100 310,20
##END=
