##TITLE=1,2-Propanediol, dinitrate
##JCAMP-DX=4.24
##DATA TYPE=MASS SPECTRUM
##ORIGIN=MINISTRY OF TECH. E.R.D.E., WALTHAM ABBEY, UK
##OWNER=NIST Mass Spectrometry Data Center
Collection (C) 2014 copyright by the U.S. Secretary of Commerce
on behalf of the United States of America. All rights reserved.
##CAS REGISTRY NO=6423-43-4
##$NIST MASS SPEC NO=6353
##MOLFORM=C3 H6 N2 O6
##MW=166
##$NIST SOURCE=MSDC
##XUNITS=M/Z
##YUNITS=RELATIVE INTENSITY
##XFACTOR=1
##YFACTOR=1
##FIRSTX=12
##LASTX=104
##FIRSTY=10
##MAXX=104
##MINX=12
##MAXY=9999
##MINY=10
##NPOINTS=28
##PEAK TABLE=(XY..XY)
12,10 13,20 14,110 15,420
25,30 26,120 27,430 28,1110
29,1680 30,1610 31,320 39,110
40,100 41,320 42,340 43,1190
44,270 45,80 46,9999 55,100
56,30 57,320 58,130 60,40
71,60 76,330 90,80 104,10
##END=
