##TITLE=Morpholine, 4-cyclohexyl-
##JCAMP-DX=4.24
##DATA TYPE=MASS SPECTRUM
##ORIGIN=J.E. WILKINSON S-CUBED, SAN DIEGO, CA.
##OWNER=NIST Mass Spectrometry Data Center
Collection (C) 2014 copyright by the U.S. Secretary of Commerce
on behalf of the United States of America. All rights reserved.
##CAS REGISTRY NO=6425-41-8
##$NIST MASS SPEC NO=97045
##MOLFORM=C10 H19 N O
##MW=169
##$NIST SOURCE=MSDC
##XUNITS=M/Z
##YUNITS=RELATIVE INTENSITY
##XFACTOR=1
##YFACTOR=1
##FIRSTX=41
##LASTX=171
##FIRSTY=3281
##MAXX=171
##MINX=41
##MAXY=9999
##MINY=2
##NPOINTS=62
##PEAK TABLE=(XY..XY)
41,3281 43,365 44,232 45,131
50,6 51,52 53,417 54,763
55,2733 56,1180 57,542 58,692
59,25 65,43 66,30 67,396
68,760 69,243 70,200 71,25
72,14 77,61 78,6 79,136
80,94 81,209 82,1002 83,884
84,156 85,53 86,435 87,50
88,15 93,2 94,52 96,338
97,43 98,400 99,19 100,421
101,9 108,22 109,3 110,89
111,89 112,339 113,429 114,21
124,125 126,9999 127,858 128,38
138,14 139,20 140,178 141,6
154,2 167,2 168,118 169,1415
170,150 171,2
##END=
