##TITLE=4-Azidobenzoic acid
##JCAMP-DX=4.24
##DATA TYPE=MASS SPECTRUM
##ORIGIN=Japan AIST/NIMC Database- Spectrum MS-NW-2879
##OWNER=NIST Mass Spectrometry Data Center
Collection (C) 2014 copyright by the U.S. Secretary of Commerce
on behalf of the United States of America. All rights reserved.
##CAS REGISTRY NO=6427-66-3
##$NIST MASS SPEC NO=231540
##MOLFORM=C7 H5 N3 O2
##MW=163
##$NIST SOURCE=MSDC
##XUNITS=M/Z
##YUNITS=RELATIVE INTENSITY
##XFACTOR=1
##YFACTOR=1
##FIRSTX=12
##LASTX=165
##FIRSTY=10
##MAXX=165
##MINX=12
##MAXY=9999
##MINY=10
##NPOINTS=96
##PEAK TABLE=(XY..XY)
12,10 14,80 15,30 16,40
24,10 25,60 26,269 27,419
28,2299 29,199 30,149 31,80
32,70 36,99 37,1309 38,1969
39,2549 40,459 41,659 42,90
43,309 44,369 45,2049 46,50
48,40 49,229 50,1099 51,1259
52,2819 53,449 54,669 55,139
56,10 57,10 58,10 59,99
60,119 61,639 62,1869 63,5259
64,5749 65,1899 66,229 67,139
68,149 69,70 70,40 71,10
72,10 73,119 74,369 75,219
76,269 77,70 78,1119 79,2549
80,699 81,60 83,10 84,30
85,10 86,50 87,159 88,349
89,2769 90,1999 91,829 92,2089
93,1619 94,119 95,20 103,10
104,50 105,20 106,599 107,2419
108,339 109,40 111,10 117,2499
118,529 119,60 120,959 121,159
122,20 134,30 135,9999 136,819
137,1119 138,129 139,20 141,10
146,60 163,3849 164,359 165,30
##END=
