##TITLE=1,2-Benzenedicarboxaldehyde
##JCAMP-DX=4.24
##DATA TYPE=MASS SPECTRUM
##ORIGIN=Japan AIST/NIMC Database- Spectrum MS-NW-4256
##OWNER=NIST Mass Spectrometry Data Center
Collection (C) 2014 copyright by the U.S. Secretary of Commerce
on behalf of the United States of America. All rights reserved.
##CAS REGISTRY NO=643-79-8
##$NIST MASS SPEC NO=228422
##MOLFORM=C8 H6 O2
##MW=134
##$NIST SOURCE=MSDC
##XUNITS=M/Z
##YUNITS=RELATIVE INTENSITY
##XFACTOR=1
##YFACTOR=1
##FIRSTX=18
##LASTX=136
##FIRSTY=30
##MAXX=136
##MINX=18
##MAXY=9999
##MINY=10
##NPOINTS=57
##PEAK TABLE=(XY..XY)
18,30 25,20 26,90 27,389
28,159 29,529 30,10 36,40
37,249 38,299 39,639 40,30
43,40 44,10 48,20 49,169
50,1669 51,3849 52,959 53,239
54,10 55,30 60,30 61,129
62,219 63,329 64,40 65,10
66,30 72,10 73,119 74,569
75,389 76,849 77,7619 78,1639
79,109 84,30 85,40 86,50
87,40 88,10 89,109 90,30
91,60 92,20 103,10 104,229
105,9999 106,3649 107,259 108,10
118,20 133,709 134,3509 135,339
136,20
##END=
