##TITLE=1H-Pyrrolizine, hexahydro-
##JCAMP-DX=4.24
##DATA TYPE=MASS SPECTRUM
##ORIGIN=A.E.FONTAINE DYESTUFFS DIV., I.C.I., MANCHESTER
##OWNER=NIST Mass Spectrometry Data Center
Collection (C) 2014 copyright by the U.S. Secretary of Commerce
on behalf of the United States of America. All rights reserved.
##CAS REGISTRY NO=643-20-9
##$NIST MASS SPEC NO=1565
##MOLFORM=C7 H13 N
##MW=111
##$NIST SOURCE=MSDC
##XUNITS=M/Z
##YUNITS=RELATIVE INTENSITY
##XFACTOR=1
##YFACTOR=1
##FIRSTX=12
##LASTX=113
##FIRSTY=2
##MAXX=113
##MINX=12
##MAXY=9999
##MINY=1
##NPOINTS=97
##PEAK TABLE=(XY..XY)
12,2 13,2 14,10 15,204
16,9 17,42 18,230 19,3
24,1 25,5 26,115 27,926
28,1000 29,430 30,322 31,60
32,7 33,2 35,5 36,16
37,17 38,66 39,1037 40,237
41,2333 42,2666 43,441 44,270
45,58 46,7 47,11 48,5
49,9 50,56 51,130 52,133
53,448 54,660 55,5502 56,633
57,115 58,1074 59,7 60,2
61,3 62,7 63,22 64,14
65,107 66,81 67,407 68,777
69,548 70,537 71,81 72,22
73,6 74,14 75,4 76,6
77,107 78,58 79,119 80,470
81,348 82,1741 83,9999 84,7222
85,404 86,22 87,52 88,2
89,2 90,1 91,43 92,27
93,148 94,104 95,52 96,289
97,321 98,322 99,37 100,15
101,6 102,1 103,1 104,16
105,10 106,107 107,62 108,556
109,156 110,2741 111,3270 112,370
113,25
##END=
