##TITLE=Allo-Inositol
##JCAMP-DX=4.24
##DATA TYPE=MASS SPECTRUM
##OWNER=NIST Mass Spectrometry Data Center
Collection (C) 2014 copyright by the U.S. Secretary of Commerce
on behalf of the United States of America. All rights reserved.
##CAS REGISTRY NO=643-10-7
##$NIST MASS SPEC NO=7492
##MOLFORM=C6 H12 O6
##MW=180
##$NIST SOURCE=MSDC
##XUNITS=M/Z
##YUNITS=RELATIVE INTENSITY
##XFACTOR=1
##YFACTOR=1
##FIRSTX=39
##LASTX=181
##FIRSTY=170
##MAXX=181
##MINX=39
##MAXY=9999
##MINY=10
##NPOINTS=52
##PEAK TABLE=(XY..XY)
39,170 41,400 42,540 43,1041
44,230 45,480 47,100 53,80
54,120 55,490 56,240 57,581
58,110 59,50 60,2002 61,370
69,270 70,110 71,951 72,480
73,9999 74,440 75,60 81,140
83,140 84,80 85,180 89,260
90,50 91,250 94,30 95,100
96,40 97,150 98,70 99,30
100,10 101,30 102,1091 103,70
109,80 115,70 119,50 125,40
126,40 127,30 144,140 145,40
149,20 162,20 163,30 181,30
##END=
