##TITLE=1,2-Bis(benzoyloxy)benzene
##JCAMP-DX=4.24
##DATA TYPE=MASS SPECTRUM
##ORIGIN=W. ADAM, INST. ORG. CHEM., UNIV. WURZBURG, WURZBURG, W. GER.
##OWNER=NIST Mass Spectrometry Data Center
Collection (C) 2014 copyright by the U.S. Secretary of Commerce
on behalf of the United States of America. All rights reserved.
##CAS REGISTRY NO=643-94-7
##$NIST MASS SPEC NO=103685
##MOLFORM=C20 H14 O4
##MW=318
##$NIST SOURCE=MSDC
##XUNITS=M/Z
##YUNITS=RELATIVE INTENSITY
##XFACTOR=1
##YFACTOR=1
##FIRSTX=39
##LASTX=319
##FIRSTY=92
##MAXX=319
##MINX=39
##MAXY=9999
##MINY=16
##NPOINTS=40
##PEAK TABLE=(XY..XY)
39,92 40,62 41,87 43,95
44,144 45,16 49,31 50,169
51,869 52,296 53,40 55,49
57,105 63,32 65,46 67,22
69,91 71,46 74,23 75,38
76,136 77,3987 78,274 79,46
80,113 81,27 85,18 104,40
105,9999 106,798 107,54 115,22
119,31 121,36 137,38 149,24
197,85 213,37 318,292 319,61
##END=
