##TITLE=1,1'-Biphenyl, 2-methyl-
##JCAMP-DX=4.24
##DATA TYPE=MASS SPECTRUM
##OWNER=NIST Mass Spectrometry Data Center
Collection (C) 2014 copyright by the U.S. Secretary of Commerce
on behalf of the United States of America. All rights reserved.
##CAS REGISTRY NO=643-58-3
##$NIST MASS SPEC NO=6409
##MOLFORM=C13 H12
##MW=168
##$NIST SOURCE=MSDC
##XUNITS=M/Z
##YUNITS=RELATIVE INTENSITY
##XFACTOR=1
##YFACTOR=1
##FIRSTX=36
##LASTX=171
##FIRSTY=10
##MAXX=171
##MINX=36
##MAXY=9999
##MINY=10
##NPOINTS=112
##PEAK TABLE=(XY..XY)
36,10 37,110 38,360 39,1561
40,160 41,130 42,10 43,20
44,20 48,10 49,40 50,751
51,1281 52,280 53,100 54,10
55,30 56,20 57,30 58,40
60,10 61,110 62,470 63,1201
64,230 65,500 66,60 67,10
68,10 69,90 70,190 71,240
72,10 73,30 74,430 75,440
76,641 77,460 78,120 79,10
80,10 81,140 82,901 83,1341
84,420 85,50 86,200 87,310
88,120 89,601 90,190 91,581
92,40 93,10 95,10 96,10
97,10 98,120 99,80 100,40
101,90 102,270 103,70 104,10
105,10 109,10 110,40 111,50
112,10 113,150 114,80 115,1061
116,120 117,10 121,10 122,20
123,10 124,10 125,30 126,220
127,240 128,631 129,120 130,10
134,10 135,10 136,10 137,40
138,60 139,611 140,160 141,651
142,130 143,10 149,10 150,110
151,360 152,2212 153,2592 154,340
155,20 161,10 162,40 163,320
164,340 165,3173 166,1271 167,7467
168,9999 169,1401 170,90 171,10
##END=
