##TITLE=Benzenamine, 2-(1-methylethyl)-
##JCAMP-DX=4.24
##DATA TYPE=MASS SPECTRUM
##ORIGIN=NIST Mass Spectrometry Data Center
##OWNER=NIST Mass Spectrometry Data Center
Collection (C) 2014 copyright by the U.S. Secretary of Commerce
on behalf of the United States of America. All rights reserved.
##CAS REGISTRY NO=643-28-7
##$NIST MASS SPEC NO=342538
##MOLFORM=C9 H13 N
##MW=135
##$NIST SOURCE=MSDC
##XUNITS=M/Z
##YUNITS=RELATIVE INTENSITY
##XFACTOR=1
##YFACTOR=1
##FIRSTX=13
##LASTX=137
##FIRSTY=30
##MAXX=137
##MINX=13
##MAXY=9999
##MINY=20
##NPOINTS=64
##PEAK TABLE=(XY..XY)
13,30 15,330 16,30 17,20
18,50 26,50 27,611 28,550
30,120 37,140 38,440 39,1822
40,280 41,591 42,470 44,30
46,90 50,490 51,1031 52,611
53,460 54,300 58,420 60,200
61,100 62,300 63,611 64,280
65,1091 66,530 67,160 68,40
75,210 77,1742 78,460 79,280
80,200 85,20 87,60 89,260
90,260 91,1121 92,410 93,1081
94,811 95,70 101,50 102,280
103,1141 104,240 106,581 107,80
114,40 115,220 117,480 118,851
120,9999 121,981 122,70 132,100
133,100 135,2883 136,310 137,20
##END=
