##TITLE=cis-2-Nonene
##JCAMP-DX=4.24
##DATA TYPE=MASS SPECTRUM
##ORIGIN=NIST Mass Spectrometry Data Center, 1990.
##OWNER=NIST Mass Spectrometry Data Center
Collection (C) 2014 copyright by the U.S. Secretary of Commerce
on behalf of the United States of America. All rights reserved.
##CAS REGISTRY NO=6434-77-1
##$NIST MASS SPEC NO=113508
##MOLFORM=C9 H18
##MW=126
##$NIST SOURCE=MSDC
##XUNITS=M/Z
##YUNITS=RELATIVE INTENSITY
##XFACTOR=1
##YFACTOR=1
##FIRSTX=26
##LASTX=127
##FIRSTY=225
##MAXX=127
##MINX=26
##MAXY=9999
##MINY=68
##NPOINTS=38
##PEAK TABLE=(XY..XY)
26,225 27,2282 28,790 29,2729
30,68 39,3842 40,799 41,6748
42,2945 43,4520 44,183 50,192
51,412 52,240 53,1362 54,1396
55,9999 56,6156 57,1026 63,90
65,253 66,135 67,1186 68,823
69,4363 70,4352 71,819 77,168
79,165 81,177 82,379 83,1478
84,1458 85,202 97,1846 98,589
126,2929 127,271
##END=
