##TITLE=6-Tridecene, (E)-
##JCAMP-DX=4.24
##DATA TYPE=MASS SPECTRUM
##ORIGIN=S.A. Rang et al., IR & MS of Unsatd. Hydrocarbons, 1977
##OWNER=NIST Mass Spectrometry Data Center
Collection (C) 2014 copyright by the U.S. Secretary of Commerce
on behalf of the United States of America. All rights reserved.
##CAS REGISTRY NO=6434-76-0
##$NIST MASS SPEC NO=142621
##MOLFORM=C13 H26
##MW=182
##$NIST SOURCE=MSDC
##XUNITS=M/Z
##YUNITS=RELATIVE INTENSITY
##XFACTOR=1
##YFACTOR=1
##FIRSTX=15
##LASTX=184
##FIRSTY=62
##MAXX=184
##MINX=15
##MAXY=9999
##MINY=4
##NPOINTS=86
##PEAK TABLE=(XY..XY)
15,62 24,6 25,24 26,177
27,2532 28,377 29,5469 30,118
31,6 32,11 37,17 38,37
39,2047 40,355 41,9500 42,2425
43,6406 44,156 45,4 49,4
50,30 51,99 52,99 53,1035
54,2910 55,9999 56,6250 57,4063
58,170 59,6 60,4 63,13
64,4 65,234 66,184 67,1886
68,950 69,9219 70,5313 71,1455
72,71 77,177 78,41 79,305
80,79 81,638 82,822 83,4375
84,2371 85,638 86,37 91,64
92,11 93,30 94,11 95,206
96,369 97,2317 98,1078 99,11
105,6 107,6 108,4 109,54
110,156 111,893 112,482 113,49
123,11 124,54 125,225 126,191
127,22 137,4 138,19 139,71
140,73 141,11 151,6 152,11
153,30 154,118 155,15 182,1239
183,163 184,11
##END=
