##TITLE=2H-1-Benzopyran, 6,7-dimethoxy-2,2-dimethyl-
##JCAMP-DX=4.24
##DATA TYPE=MASS SPECTRUM
##ORIGIN=Japan AIST/NIMC Database- Spectrum MS-NW-6745
##OWNER=NIST Mass Spectrometry Data Center
Collection (C) 2014 copyright by the U.S. Secretary of Commerce
on behalf of the United States of America. All rights reserved.
##CAS REGISTRY NO=644-06-4
##$NIST MASS SPEC NO=235552
##MOLFORM=C13 H16 O3
##MW=220
##$NIST SOURCE=MSDC
##XUNITS=M/Z
##YUNITS=RELATIVE INTENSITY
##XFACTOR=1
##YFACTOR=1
##FIRSTX=15
##LASTX=222
##FIRSTY=159
##MAXX=222
##MINX=15
##MAXY=9999
##MINY=10
##NPOINTS=118
##PEAK TABLE=(XY..XY)
15,159 26,10 27,109 28,30
29,40 31,10 38,40 39,239
40,30 41,149 42,10 43,279
45,20 50,119 51,239 52,70
53,139 54,10 55,50 57,20
58,20 59,30 61,10 62,60
63,149 64,50 65,189 66,50
67,30 69,409 70,10 72,10
73,10 74,40 75,60 76,70
77,359 78,119 79,99 80,40
81,20 85,70 86,20 87,30
88,20 89,80 90,40 91,389
92,60 93,80 94,50 95,109
96,10 101,20 102,319 103,149
104,50 105,99 106,20 107,40
109,10 110,179 113,10 115,169
116,60 117,99 118,40 119,159
120,30 121,50 127,20 128,30
129,40 130,10 131,119 132,129
133,70 134,30 135,20 137,10
141,10 143,20 144,209 145,189
146,50 147,99 148,20 149,30
157,10 158,30 159,80 160,219
161,709 162,139 163,20 172,50
173,159 174,109 175,119 176,30
177,40 178,10 187,20 188,60
189,659 190,379 191,70 192,10
203,70 204,50 205,9999 206,1339
207,139 208,10 219,50 220,2849
221,409 222,40
##END=
