##TITLE=Phenol, 2-propyl-
##JCAMP-DX=4.24
##DATA TYPE=MASS SPECTRUM
##ORIGIN=Japan AIST/NIMC Database- Spectrum MS-NW-3401
##OWNER=NIST Mass Spectrometry Data Center
Collection (C) 2014 copyright by the U.S. Secretary of Commerce
on behalf of the United States of America. All rights reserved.
##CAS REGISTRY NO=644-35-9
##$NIST MASS SPEC NO=229732
##MOLFORM=C9 H12 O
##MW=136
##$NIST SOURCE=MSDC
##XUNITS=M/Z
##YUNITS=RELATIVE INTENSITY
##XFACTOR=1
##YFACTOR=1
##FIRSTX=15
##LASTX=138
##FIRSTY=20
##MAXX=138
##MINX=15
##MAXY=9999
##MINY=10
##NPOINTS=66
##PEAK TABLE=(XY..XY)
15,20 26,40 27,309 28,30
29,90 37,30 38,80 39,479
40,50 41,99 42,10 43,20
49,10 50,169 51,359 52,179
53,239 54,10 55,60 61,30
62,60 63,189 64,60 65,239
66,70 67,20 74,50 75,50
76,40 77,1599 78,359 79,739
80,50 81,20 86,10 87,20
89,80 90,40 91,359 92,60
93,10 94,139 95,20 101,10
102,20 103,60 104,10 105,50
106,20 107,9999 108,769 109,50
115,179 116,30 117,60 118,10
119,50 120,50 121,80 131,20
133,30 134,20 135,20 136,2559
137,259 138,20
##END=
