##TITLE=Propanoic acid, 2-methyl-, propyl ester
##JCAMP-DX=4.24
##DATA TYPE=MASS SPECTRUM
##OWNER=NIST Mass Spectrometry Data Center
Collection (C) 2014 copyright by the U.S. Secretary of Commerce
on behalf of the United States of America. All rights reserved.
##CAS REGISTRY NO=644-49-5
##$NIST MASS SPEC NO=2874
##MOLFORM=C7 H14 O2
##MW=130
##$NIST SOURCE=MSDC
##XUNITS=M/Z
##YUNITS=RELATIVE INTENSITY
##XFACTOR=1
##YFACTOR=1
##FIRSTX=27
##LASTX=130
##FIRSTY=3473
##MAXX=130
##MINX=27
##MAXY=9999
##MINY=10
##NPOINTS=42
##PEAK TABLE=(XY..XY)
27,3473 28,761 29,911 30,150
31,340 32,10 33,10 40,240
41,2853 42,1241 43,9999 44,340
45,160 46,10 47,10 55,160
56,100 57,280 58,40 59,360
60,30 61,10 69,20 70,60
71,4434 72,200 73,330 74,30
75,10 83,10 85,10 86,10
87,50 88,140 89,3063 99,10
100,20 101,240 102,20 103,10
115,20 130,10
##END=
