##TITLE=Pyridine, 2-(1-methylethyl)-
##JCAMP-DX=4.24
##DATA TYPE=MASS SPECTRUM
##ORIGIN=NIST Mass Spectrometry Data Center, 1990.
##OWNER=NIST Mass Spectrometry Data Center
Collection (C) 2014 copyright by the U.S. Secretary of Commerce
on behalf of the United States of America. All rights reserved.
##CAS REGISTRY NO=644-98-4
##$NIST MASS SPEC NO=114728
##MOLFORM=C8 H11 N
##MW=121
##$NIST SOURCE=MSDC
##XUNITS=M/Z
##YUNITS=RELATIVE INTENSITY
##XFACTOR=1
##YFACTOR=1
##FIRSTX=15
##LASTX=122
##FIRSTY=121
##MAXX=122
##MINX=15
##MAXY=9999
##MINY=52
##NPOINTS=45
##PEAK TABLE=(XY..XY)
15,121 26,109 27,392 28,95
37,90 38,193 39,742 40,135
41,323 42,54 43,59 49,76
50,744 51,1760 52,1356 53,667
54,173 58,126 62,126 63,283
64,120 65,332 66,139 67,65
74,114 75,118 76,189 77,832
78,2687 79,1967 80,705 89,52
90,54 91,185 92,779 93,2504
94,185 104,467 106,9999 107,738
117,108 118,241 120,2450 121,1327
122,102
##END=
