##TITLE=Hexadecen-1-ol, trans-9-
##JCAMP-DX=4.24
##DATA TYPE=MASS SPECTRUM
##ORIGIN=Mark Whitten, Florida Museum of Natural History, U. of Florida
##OWNER=NIST Mass Spectrometry Data Center
Collection (C) 2014 copyright by the U.S. Secretary of Commerce
on behalf of the United States of America. All rights reserved.
##CAS REGISTRY NO=64437-47-4
##$NIST MASS SPEC NO=141055
##MOLFORM=C16 H32 O
##MW=240
##$NIST SOURCE=MSDC
##XUNITS=M/Z
##YUNITS=RELATIVE INTENSITY
##XFACTOR=1
##YFACTOR=1
##FIRSTX=41
##LASTX=224
##FIRSTY=9999
##MAXX=224
##MINX=41
##MAXY=9999
##MINY=56
##NPOINTS=54
##PEAK TABLE=(XY..XY)
41,9999 42,2336 43,9655 44,594
45,243 51,56 53,556 54,1126
55,8853 56,4390 57,6608 58,302
65,101 66,204 67,1543 68,2582
69,6209 70,3722 71,2426 72,156
73,153 77,65 79,145 81,763
82,3062 83,5946 84,2305 85,1245
86,90 95,281 96,1255 97,4749
98,1291 99,304 109,124 110,575
111,2595 112,930 113,164 123,69
124,368 125,1259 126,502 127,94
138,208 139,439 140,308 152,108
153,187 154,204 167,92 168,172
196,312 224,178
##END=
