##TITLE=Benzene, 1,2,3-trimethoxy-5-methyl-
##JCAMP-DX=4.24
##DATA TYPE=MASS SPECTRUM
##ORIGIN=Japan AIST/NIMC Database- Spectrum MS-NW-9767
##OWNER=NIST Mass Spectrometry Data Center
Collection (C) 2014 copyright by the U.S. Secretary of Commerce
on behalf of the United States of America. All rights reserved.
##CAS REGISTRY NO=6443-69-2
##$NIST MASS SPEC NO=236982
##MOLFORM=C10 H14 O3
##MW=182
##$NIST SOURCE=MSDC
##XUNITS=M/Z
##YUNITS=RELATIVE INTENSITY
##XFACTOR=1
##YFACTOR=1
##FIRSTX=15
##LASTX=184
##FIRSTY=60
##MAXX=184
##MINX=15
##MAXY=9999
##MINY=10
##NPOINTS=92
##PEAK TABLE=(XY..XY)
15,60 26,10 27,119 28,50
29,20 37,10 38,50 39,349
40,40 41,70 42,10 43,80
45,50 50,80 51,169 52,169
53,709 54,40 55,60 57,10
59,20 61,10 62,30 63,99
64,60 65,429 66,139 67,90
68,20 69,80 71,10 74,10
75,20 76,20 77,339 78,139
79,679 80,109 81,199 82,20
83,10 85,10 89,50 90,50
91,399 92,60 93,70 94,119
95,159 96,209 97,30 105,60
106,99 107,1809 108,239 109,1079
110,90 111,119 112,10 119,20
120,30 121,289 122,389 123,90
124,1449 125,119 126,10 134,10
135,50 136,139 137,109 138,40
139,2529 140,219 141,10 148,40
149,30 150,10 151,90 152,209
153,60 154,10 165,60 166,219
167,7989 168,819 169,90 180,10
181,149 182,9999 183,1109 184,109
##END=
