##TITLE=(Z)-2-Heptene
##JCAMP-DX=4.24
##DATA TYPE=MASS SPECTRUM
##ORIGIN=NIST Mass Spectrometry Data Center
##OWNER=NIST Mass Spectrometry Data Center
Collection (C) 2014 copyright by the U.S. Secretary of Commerce
on behalf of the United States of America. All rights reserved.
##CAS REGISTRY NO=6443-92-1
##$NIST MASS SPEC NO=343731
##MOLFORM=C7 H14
##MW=98
##$NIST SOURCE=MSDC
##XUNITS=M/Z
##YUNITS=RELATIVE INTENSITY
##XFACTOR=1
##YFACTOR=1
##FIRSTX=14
##LASTX=99
##FIRSTY=20
##MAXX=99
##MINX=14
##MAXY=9999
##MINY=10
##NPOINTS=47
##PEAK TABLE=(XY..XY)
14,20 15,500 26,510 27,5085
28,20 29,3603 30,70 36,10
37,110 38,420 39,4624 40,861
41,9999 42,2182 43,2082 44,40
49,20 50,270 51,430 52,200
53,1151 54,1191 55,6956 56,8578
57,981 58,30 61,10 62,50
63,100 64,20 65,170 66,70
67,470 68,370 69,3873 70,1802
71,80 74,10 77,70 78,10
79,70 81,60 82,20 83,330
84,20 98,2622 99,180
##END=
