##TITLE=6,8-Dichlorochromone-3-carboxaldehyde
##JCAMP-DX=4.24
##DATA TYPE=MASS SPECTRUM
##ORIGIN=NIST Mass Spectrometry Data Center, 1994
##OWNER=NIST Mass Spectrometry Data Center
Collection (C) 2014 copyright by the U.S. Secretary of Commerce
on behalf of the United States of America. All rights reserved.
##CAS REGISTRY NO=64481-11-4
##$NIST MASS SPEC NO=136317
##MOLFORM=C10 H4 Cl2 O3
##MW=242
##$NIST SOURCE=MSDC
##XUNITS=M/Z
##YUNITS=RELATIVE INTENSITY
##XFACTOR=1
##YFACTOR=1
##FIRSTX=12
##LASTX=246
##FIRSTY=62
##MAXX=246
##MINX=12
##MAXY=9999
##MINY=38
##NPOINTS=116
##PEAK TABLE=(XY..XY)
12,62 13,62 17,61 18,309
25,157 35,204 36,178 37,712
38,375 39,68 40,68 47,148
48,136 49,424 50,457 51,95
52,68 53,5525 54,213 60,311
61,1496 62,1914 63,777 64,43
65,80 66,111 68,82 69,480
71,156 72,468 73,1291 74,437
75,541 76,81 77,162 79,75
80,270 81,169 83,135 84,500
85,664 86,857 87,1295 88,202
89,71 90,102 94,218 95,202
96,392 97,2538 98,521 99,915
100,83 103,69 106,38 107,343
108,374 109,825 110,158 111,267
113,44 115,48 120,78 121,230
122,186 123,1460 124,211 125,666
126,110 127,63 132,762 133,402
134,501 135,253 136,101 137,50
144,1017 145,155 146,574 147,104
148,108 151,72 153,245 154,48
155,82 157,299 158,627 159,225
160,1609 161,170 162,788 163,84
164,100 172,1627 173,318 174,1014
175,198 176,182 179,102 186,330
188,5449 189,792 190,3347 191,480
192,556 193,81 214,9999 215,979
216,6310 217,709 218,1037 219,87
242,358 243,86 244,238 246,52
##END=
