##TITLE=3-Hydroxy-4-methoxybenzoic acid
##JCAMP-DX=4.24
##DATA TYPE=MASS SPECTRUM
##ORIGIN=NIST Mass Spectrometry Data Center, 1994
##OWNER=NIST Mass Spectrometry Data Center
Collection (C) 2014 copyright by the U.S. Secretary of Commerce
on behalf of the United States of America. All rights reserved.
##CAS REGISTRY NO=645-08-9
##$NIST MASS SPEC NO=133825
##MOLFORM=C8 H8 O4
##MW=168
##$NIST SOURCE=MSDC
##XUNITS=M/Z
##YUNITS=RELATIVE INTENSITY
##XFACTOR=1
##YFACTOR=1
##FIRSTX=15
##LASTX=170
##FIRSTY=378
##MAXX=170
##MINX=15
##MAXY=9999
##MINY=81
##NPOINTS=60
##PEAK TABLE=(XY..XY)
15,378 26,105 27,223 28,121
29,277 31,133 37,142 38,231
39,520 40,131 41,418 43,173
45,358 49,187 50,862 51,1371
52,964 53,1013 54,133 55,330
61,188 62,447 63,595 64,137
65,458 66,112 67,178 68,161
69,430 71,195 77,513 78,146
79,951 80,410 81,280 91,144
93,197 94,81 95,127 96,81
97,3169 98,198 107,371 108,523
109,112 119,178 121,141 122,130
123,734 124,112 125,2261 126,206
136,108 151,1803 153,7842 154,611
155,109 168,9999 169,872 170,159
##END=
