##TITLE=1-Hexadecanol, 3,7,11,15-tetramethyl-
##JCAMP-DX=4.24
##DATA TYPE=MASS SPECTRUM
##OWNER=NIST Mass Spectrometry Data Center
Collection (C) 2014 copyright by the U.S. Secretary of Commerce
on behalf of the United States of America. All rights reserved.
##CAS REGISTRY NO=645-72-7
##$NIST MASS SPEC NO=14205
##MOLFORM=C20 H42 O
##MW=298
##$NIST SOURCE=MSDC
##XUNITS=M/Z
##YUNITS=RELATIVE INTENSITY
##XFACTOR=1
##YFACTOR=1
##FIRSTX=15
##LASTX=298
##FIRSTY=20
##MAXX=298
##MINX=15
##MAXY=9999
##MINY=10
##NPOINTS=140
##PEAK TABLE=(XY..XY)
15,20 19,20 26,20 27,490
29,1251 30,60 31,651 38,20
39,280 40,80 41,4024 42,1051
43,7817 44,300 45,270 46,40
47,20 50,20 52,20 53,280
54,160 55,6676 56,4654 57,9999
58,540 59,300 61,40 63,20
66,40 67,681 68,671 69,7317
70,4594 71,6116 72,440 73,200
74,40 75,20 77,40 78,40
79,70 80,100 81,1151 82,851
83,4144 84,1672 85,2732 86,160
87,120 88,40 89,60 91,20
92,20 93,10 94,60 95,581
96,1922 97,3713 98,811 99,871
100,140 101,80 102,20 105,20
106,40 107,20 109,260 110,260
111,2602 112,1441 113,991 114,60
115,100 117,40 121,30 122,40
123,260 124,871 125,3113 126,2853
127,791 128,40 137,20 138,40
139,320 140,1501 141,530 142,80
143,80 144,70 145,10 151,20
152,20 153,180 154,360 155,180
156,40 157,40 161,20 162,60
163,60 165,10 166,40 167,380
168,110 169,120 170,40 172,20
179,60 180,80 181,200 182,651
183,611 184,70 185,40 186,20
189,60 190,40 193,60 194,120
195,270 196,771 197,180 198,60
201,40 202,20 209,10 210,360
211,40 223,20 224,20 229,60
252,430 253,140 254,60 265,100
280,931 281,250 282,80 298,60
##END=
