##TITLE=Pentanoic acid, 4-oxo-, propyl ester
##JCAMP-DX=4.24
##DATA TYPE=MASS SPECTRUM
##ORIGIN=W.Jennings, T.Shibamoto
##OWNER=NIST Mass Spectrometry Data Center
Collection (C) 2014 copyright by the U.S. Secretary of Commerce
on behalf of the United States of America. All rights reserved.
##CAS REGISTRY NO=645-67-0
##$NIST MASS SPEC NO=285526
##MOLFORM=C8 H14 O3
##MW=158
##$NIST SOURCE=MSDC
##XUNITS=M/Z
##YUNITS=RELATIVE INTENSITY
##XFACTOR=1
##YFACTOR=1
##FIRSTX=27
##LASTX=143
##FIRSTY=180
##MAXX=143
##MINX=27
##MAXY=9999
##MINY=70
##NPOINTS=26
##PEAK TABLE=(XY..XY)
27,180 28,70 29,270 30,70
41,450 42,260 43,9999 44,180
55,380 56,380 57,260 58,70
59,70 61,70 71,881 72,180
73,430 74,2793 75,1061 98,450
99,6326 100,370 101,1311 116,681
117,591 143,370
##END=
