##TITLE=Ethanone, 1-[4-(1-methylethyl)phenyl]-
##JCAMP-DX=4.24
##DATA TYPE=MASS SPECTRUM
##ORIGIN=NIST Mass Spectrometry Data Center, 1990.
##OWNER=NIST Mass Spectrometry Data Center
Collection (C) 2014 copyright by the U.S. Secretary of Commerce
on behalf of the United States of America. All rights reserved.
##CAS REGISTRY NO=645-13-6
##$NIST MASS SPEC NO=114719
##MOLFORM=C11 H14 O
##MW=162
##$NIST SOURCE=MSDC
##XUNITS=M/Z
##YUNITS=RELATIVE INTENSITY
##XFACTOR=1
##YFACTOR=1
##FIRSTX=14
##LASTX=163
##FIRSTY=15
##MAXX=163
##MINX=14
##MAXY=9999
##MINY=15
##NPOINTS=57
##PEAK TABLE=(XY..XY)
14,15 15,112 27,204 38,76
39,507 40,80 41,506 42,76
43,2806 44,88 50,481 51,948
52,204 53,160 57,57 58,54
62,171 63,492 64,95 65,480
66,122 67,62 73,41 74,222
75,238 76,412 77,1440 78,726
79,313 80,56 86,47 87,74
89,283 91,2346 92,169 93,83
101,66 102,282 103,866 104,667
105,325 115,481 116,104 117,475
118,166 119,1234 120,111 129,101
131,178 132,346 133,72 145,59
147,9999 148,1092 149,79 162,2470
163,276
##END=
