##TITLE=1-Hydroxy-2-pentanone
##JCAMP-DX=4.24
##DATA TYPE=MASS SPECTRUM
##ORIGIN=M. PECHAL, SHOE & LEATHER RES. INST., GOTTWALDOV, CZ
##OWNER=NIST Mass Spectrometry Data Center
Collection (C) 2014 copyright by the U.S. Secretary of Commerce
on behalf of the United States of America. All rights reserved.
##CAS REGISTRY NO=64502-89-2
##$NIST MASS SPEC NO=90639
##MOLFORM=C5 H10 O2
##MW=102
##$NIST SOURCE=MSDC
##XUNITS=M/Z
##YUNITS=RELATIVE INTENSITY
##XFACTOR=1
##YFACTOR=1
##FIRSTX=15
##LASTX=103
##FIRSTY=380
##MAXX=103
##MINX=15
##MAXY=9999
##MINY=80
##NPOINTS=43
##PEAK TABLE=(XY..XY)
15,380 16,180 17,1270 18,5550
26,460 27,3160 28,4720 29,810
30,290 31,2580 32,200 37,160
38,210 39,1220 40,370 41,4070
42,620 43,9999 44,1340 45,150
50,170 51,190 52,190 53,230
54,110 55,470 56,120 57,160
58,160 65,180 66,250 67,180
69,400 70,350 71,6330 72,340
80,160 82,170 84,130 86,170
100,80 102,400 103,90
##END=
