##TITLE=Ethyl 2-isocyanato-4-methyl valerate
##JCAMP-DX=4.24
##DATA TYPE=MASS SPECTRUM
##ORIGIN=NIST Mass Spectrometry Data Center, 1994
##OWNER=NIST Mass Spectrometry Data Center
Collection (C) 2014 copyright by the U.S. Secretary of Commerce
on behalf of the United States of America. All rights reserved.
##CAS REGISTRY NO=64505-10-8
##$NIST MASS SPEC NO=136753
##MOLFORM=C9 H15 N O3
##MW=185
##$NIST SOURCE=MSDC
##XUNITS=M/Z
##YUNITS=RELATIVE INTENSITY
##XFACTOR=1
##YFACTOR=1
##FIRSTX=12
##LASTX=157
##FIRSTY=14
##MAXX=157
##MINX=12
##MAXY=9999
##MINY=3
##NPOINTS=78
##PEAK TABLE=(XY..XY)
12,14 13,24 14,47 15,666
16,38 17,23 18,33 19,19
25,24 26,403 27,4298 28,1768
29,7459 30,1834 37,36 38,155
39,1834 40,573 41,5185 42,1704
43,9999 44,749 45,140 46,56
47,36 50,45 51,99 52,77
53,291 54,350 55,1005 56,931
57,520 58,56 60,14 64,15
65,31 66,39 67,222 68,712
69,4056 70,3011 71,344 72,143
73,357 75,3 78,60 79,17
80,34 81,80 82,296 83,2181
84,418 85,65 86,24 87,34
88,43 94,25 95,58 96,253
97,51 98,314 99,292 100,160
101,1546 102,77 110,36 112,3863
113,295 114,205 115,133 128,464
129,1628 130,111 141,18 142,153
143,81 157,86
##END=
