##TITLE=n-Butyl n-hexyl disulfide
##JCAMP-DX=4.24
##DATA TYPE=MASS SPECTRUM
##ORIGIN=H.J. MOECKEL & J. WEISS, HAHN-MEITNER-INST. BERLIN, W. G+
##OWNER=NIST Mass Spectrometry Data Center
Collection (C) 2014 copyright by the U.S. Secretary of Commerce
on behalf of the United States of America. All rights reserved.
##CAS REGISTRY NO=64580-57-0
##$NIST MASS SPEC NO=75540
##MOLFORM=C10 H22 S2
##MW=206
##$NIST SOURCE=MSDC
##XUNITS=M/Z
##YUNITS=RELATIVE INTENSITY
##XFACTOR=1
##YFACTOR=1
##FIRSTX=15
##LASTX=210
##FIRSTY=130
##MAXX=210
##MINX=15
##MAXY=9999
##MINY=1
##NPOINTS=98
##PEAK TABLE=(XY..XY)
15,130 24,3 25,12 26,237
27,3798 29,8382 30,480 33,38
35,91 36,24 37,10 38,33
39,929 40,309 41,3726 42,4630
43,9821 44,500 45,863 46,563
47,885 48,257 49,37 50,16
51,40 52,22 53,248 54,189
55,1527 56,666 57,9999 58,890
59,353 60,375 61,164 62,25
63,5 64,152 65,63 66,150
67,109 68,28 69,171 70,13
71,16 72,12 73,105 74,105
75,41 76,9 77,10 78,75
79,574 80,32 81,139 82,110
83,181 84,186 85,2646 86,234
87,612 88,347 89,221 90,35
91,9 92,11 93,66 94,8
100,2 101,93 102,2 106,6
107,8 115,25 116,70 117,602
118,50 119,24 121,198 122,2819
123,205 124,276 125,15 126,5
135,4 136,1 149,27 150,528
151,52 152,47 153,2 177,3
205,86 206,2068 207,304 208,190
209,23 210,2
##END=
