##TITLE=Heptanedinitrile
##JCAMP-DX=4.24
##DATA TYPE=MASS SPECTRUM
##ORIGIN=Japan AIST/NIMC Database- Spectrum MS-NW-3067
##OWNER=NIST Mass Spectrometry Data Center
Collection (C) 2014 copyright by the U.S. Secretary of Commerce
on behalf of the United States of America. All rights reserved.
##CAS REGISTRY NO=646-20-8
##$NIST MASS SPEC NO=231467
##MOLFORM=C7 H10 N2
##MW=122
##$NIST SOURCE=MSDC
##XUNITS=M/Z
##YUNITS=RELATIVE INTENSITY
##XFACTOR=1
##YFACTOR=1
##FIRSTX=13
##LASTX=123
##FIRSTY=10
##MAXX=123
##MINX=13
##MAXY=9999
##MINY=10
##NPOINTS=56
##PEAK TABLE=(XY..XY)
13,10 14,30 15,149 25,10
26,339 27,1539 28,839 29,1369
30,50 37,139 38,229 39,1709
40,539 41,6829 42,469 43,80
44,20 49,20 50,109 51,269
52,509 53,709 54,5079 55,9999
56,469 57,10 61,20 62,30
63,60 64,159 65,109 66,279
67,529 68,1999 69,1089 70,50
75,20 76,20 77,30 78,20
79,99 80,239 81,749 82,8289
83,499 84,20 93,159 94,689
95,109 96,20 104,10 107,90
108,10 121,239 122,20 123,10
##END=
