##TITLE=1,3-Dioxolane
##JCAMP-DX=4.24
##DATA TYPE=MASS SPECTRUM
##ORIGIN=Japan AIST/NIMC Database- Spectrum MS-NW-4402
##OWNER=NIST Mass Spectrometry Data Center
Collection (C) 2014 copyright by the U.S. Secretary of Commerce
on behalf of the United States of America. All rights reserved.
##CAS REGISTRY NO=646-06-0
##$NIST MASS SPEC NO=230380
##MOLFORM=C3 H6 O2
##MW=74
##$NIST SOURCE=MSDC
##XUNITS=M/Z
##YUNITS=RELATIVE INTENSITY
##XFACTOR=1
##YFACTOR=1
##FIRSTX=12
##LASTX=75
##FIRSTY=20
##MAXX=75
##MINX=12
##MAXY=9999
##MINY=10
##NPOINTS=30
##PEAK TABLE=(XY..XY)
12,20 13,80 14,399 15,2149
16,369 17,20 18,90 19,449
25,30 26,209 27,1119 28,219
29,4389 30,249 31,729 32,50
36,40 40,10 41,40 42,429
43,2139 44,6369 45,2979 46,80
47,10 71,40 72,10 73,9999
74,569 75,60
##END=
