##TITLE=4-Penten-2-ol, 1,1,1-trifluoro-2-(trifluoromethyl)-
##JCAMP-DX=4.24
##DATA TYPE=MASS SPECTRUM
##ORIGIN=A.S.GORDON DEPT. OF THE NAVY, CHINA LAKE, CALIF., USA
##OWNER=NIST Mass Spectrometry Data Center
Collection (C) 2014 copyright by the U.S. Secretary of Commerce
on behalf of the United States of America. All rights reserved.
##CAS REGISTRY NO=646-97-9
##$NIST MASS SPEC NO=39225
##MOLFORM=C6 H6 F6 O
##MW=208
##$NIST SOURCE=MSDC
##XUNITS=M/Z
##YUNITS=RELATIVE INTENSITY
##XFACTOR=1
##YFACTOR=1
##FIRSTX=12
##LASTX=209
##FIRSTY=69
##MAXX=209
##MINX=12
##MAXY=9999
##MINY=69
##NPOINTS=56
##PEAK TABLE=(XY..XY)
12,69 14,300 15,765 27,871
28,647 29,941 31,1206 32,267
33,314 37,776 38,1765 39,7647
40,1412 41,9999 42,3529 43,882
44,382 45,265 47,1235 49,294
50,271 51,1824 53,441 55,529
57,553 59,1373 61,275 63,304
64,359 65,265 67,618 68,412
69,8235 70,488 71,765 75,824
77,765 78,824 89,588 91,1824
95,412 97,847 99,265 100,294
101,729 103,300 119,300 121,1412
128,435 139,2098 141,269 147,218
149,567 169,273 208,3333 209,235
##END=
