##TITLE=1-Penten-3-yne
##JCAMP-DX=4.24
##DATA TYPE=MASS SPECTRUM
##ORIGIN=D.HENNEBERG, MAX-PLANCK INSTITUTE, MULHEIM, WEST GERMANY
##OWNER=NIST Mass Spectrometry Data Center
Collection (C) 2014 copyright by the U.S. Secretary of Commerce
on behalf of the United States of America. All rights reserved.
##CAS REGISTRY NO=646-05-9
##$NIST MASS SPEC NO=63074
##MOLFORM=C5 H6
##MW=66
##$NIST SOURCE=MSDC
##XUNITS=M/Z
##YUNITS=RELATIVE INTENSITY
##XFACTOR=1
##YFACTOR=1
##FIRSTX=24
##LASTX=68
##FIRSTY=22
##MAXX=68
##MINX=24
##MAXY=9999
##MINY=4
##NPOINTS=32
##PEAK TABLE=(XY..XY)
24,22 25,48 26,178 27,539
30,4 36,106 37,580 38,1050
39,6109 40,3233 41,107 42,11
43,105 48,357 49,187 50,423
51,884 52,105 53,306 54,18
56,9 57,4 58,4 60,161
61,716 62,1062 63,1530 64,446
65,3934 66,9999 67,534 68,8
##END=
