##TITLE=Pentanoic acid, 4-methyl-
##JCAMP-DX=4.24
##DATA TYPE=MASS SPECTRUM
##OWNER=NIST Mass Spectrometry Data Center
Collection (C) 2014 copyright by the U.S. Secretary of Commerce
on behalf of the United States of America. All rights reserved.
##CAS REGISTRY NO=646-07-1
##$NIST MASS SPEC NO=1910
##MOLFORM=C6 H12 O2
##MW=116
##$NIST SOURCE=MSDC
##XUNITS=M/Z
##YUNITS=RELATIVE INTENSITY
##XFACTOR=1
##YFACTOR=1
##FIRSTX=15
##LASTX=117
##FIRSTY=200
##MAXX=117
##MINX=15
##MAXY=9999
##MINY=10
##NPOINTS=56
##PEAK TABLE=(XY..XY)
15,200 17,60 18,230 26,230
27,2552 28,1191 29,2242 30,360
31,460 36,70 37,60 38,160
39,1742 40,250 41,4544 42,1171
43,5845 44,250 45,1692 46,80
47,60 50,110 51,170 52,50
53,370 54,130 55,4614 56,1471
57,9999 58,520 59,1661 60,4124
61,350 67,60 69,450 70,360
71,110 72,130 73,5765 74,6286
75,641 76,60 81,60 83,1541
84,180 85,100 87,671 88,70
89,60 97,150 98,50 99,110
101,540 115,60 116,10 117,10
##END=
