##TITLE=H2N(CH2)7NH2
##JCAMP-DX=4.24
##DATA TYPE=MASS SPECTRUM
##ORIGIN=NIST Mass Spectrometry Data Center
##OWNER=NIST Mass Spectrometry Data Center
Collection (C) 2014 copyright by the U.S. Secretary of Commerce
on behalf of the United States of America. All rights reserved.
##CAS REGISTRY NO=646-19-5
##$NIST MASS SPEC NO=342675
##MOLFORM=C7 H18 N2
##MW=130
##$NIST SOURCE=MSDC
##XUNITS=M/Z
##YUNITS=RELATIVE INTENSITY
##XFACTOR=1
##YFACTOR=1
##FIRSTX=16
##LASTX=128
##FIRSTY=120
##MAXX=128
##MINX=16
##MAXY=9999
##MINY=60
##NPOINTS=37
##PEAK TABLE=(XY..XY)
16,120 18,871 27,550 28,1321
30,9999 39,440 41,981 42,661
43,671 44,1231 45,691 51,60
53,110 54,170 55,701 56,1661
58,100 59,240 67,150 68,140
69,420 70,330 72,250 73,230
81,90 83,100 84,250 86,420
87,130 96,70 98,160 100,370
101,761 102,80 112,110 114,561
128,150
##END=
