##TITLE=1,9-Diaminononane
##JCAMP-DX=4.24
##DATA TYPE=MASS SPECTRUM
##ORIGIN=Japan AIST/NIMC Database- Spectrum MS-NW-8186
##OWNER=NIST Mass Spectrometry Data Center
Collection (C) 2014 copyright by the U.S. Secretary of Commerce
on behalf of the United States of America. All rights reserved.
##CAS REGISTRY NO=646-24-2
##$NIST MASS SPEC NO=232197
##MOLFORM=C9 H22 N2
##MW=158
##$NIST SOURCE=MSDC
##XUNITS=M/Z
##YUNITS=RELATIVE INTENSITY
##XFACTOR=1
##YFACTOR=1
##FIRSTX=15
##LASTX=159
##FIRSTY=20
##MAXX=159
##MINX=15
##MAXY=9999
##MINY=10
##NPOINTS=77
##PEAK TABLE=(XY..XY)
15,20 16,50 17,99 18,449
26,10 27,179 28,579 29,239
30,9999 31,279 32,40 39,169
40,30 41,639 42,349 43,479
44,2949 45,1079 46,40 47,60
51,10 53,60 54,90 55,749
56,1069 57,139 58,109 59,359
60,20 65,10 66,10 67,129
68,80 69,439 70,289 71,30
72,459 73,239 74,10 77,10
79,20 80,10 81,119 82,159
83,249 84,219 85,30 86,719
87,149 88,10 95,40 96,129
97,40 98,70 100,599 101,90
109,10 110,30 111,10 112,90
113,10 114,429 115,109 124,20
126,10 128,219 129,1329 130,129
138,10 140,60 141,40 142,1039
143,109 156,10 157,50 158,159
159,20
##END=
