##TITLE=Tetracosane
##JCAMP-DX=4.24
##DATA TYPE=MASS SPECTRUM
##ORIGIN=Japan AIST/NIMC Database- Spectrum MS-NW-2437
##OWNER=NIST Mass Spectrometry Data Center
Collection (C) 2014 copyright by the U.S. Secretary of Commerce
on behalf of the United States of America. All rights reserved.
##CAS REGISTRY NO=646-31-1
##$NIST MASS SPEC NO=234324
##MOLFORM=C24 H50
##MW=338
##$NIST SOURCE=MSDC
##XUNITS=M/Z
##YUNITS=RELATIVE INTENSITY
##XFACTOR=1
##YFACTOR=1
##FIRSTX=26
##LASTX=340
##FIRSTY=10
##MAXX=340
##MINX=26
##MAXY=9999
##MINY=10
##NPOINTS=104
##PEAK TABLE=(XY..XY)
26,10 27,279 28,80 29,1079
30,30 32,10 39,159 40,40
41,1969 42,489 43,5619 44,199
53,90 54,159 55,1619 56,1019
57,9999 58,439 65,10 66,10
67,149 68,179 69,919 70,809
71,6799 72,369 73,10 77,10
79,10 81,70 82,249 83,839
84,649 85,4819 86,319 95,20
96,149 97,699 98,539 99,1969
100,149 101,10 109,10 110,80
111,409 112,499 113,1369 114,109
124,40 125,229 126,499 127,1059
128,109 138,40 139,109 140,439
141,929 142,99 152,20 153,70
154,329 155,719 156,80 166,10
167,50 168,289 169,639 170,80
180,10 181,20 182,249 183,579
184,60 195,20 196,209 197,479
198,80 209,10 210,139 211,409
212,50 224,129 225,319 226,50
238,90 239,249 240,40 252,60
253,189 254,30 266,50 267,159
268,30 280,30 281,119 282,20
294,10 295,60 296,10 309,40
310,10 338,249 339,70 340,10
##END=
