##TITLE=4-Methylpyrrolo[1,2-a]pyrazine
##JCAMP-DX=4.24
##DATA TYPE=MASS SPECTRUM
##ORIGIN=Philip Morris R&D
##OWNER=NIST Mass Spectrometry Data Center
Collection (C) 2014 copyright by the U.S. Secretary of Commerce
on behalf of the United States of America. All rights reserved.
##CAS REGISTRY NO=64608-60-2
##$NIST MASS SPEC NO=108801
##MOLFORM=C8 H8 N2
##MW=132
##$NIST SOURCE=MSDC
##XUNITS=M/Z
##YUNITS=RELATIVE INTENSITY
##XFACTOR=1
##YFACTOR=1
##FIRSTX=36
##LASTX=134
##FIRSTY=17
##MAXX=134
##MINX=36
##MAXY=9999
##MINY=17
##NPOINTS=42
##PEAK TABLE=(XY..XY)
36,17 37,260 38,602 39,1143
40,265 41,170 42,153 44,54
49,58 50,412 51,1095 52,1403
53,412 54,99 61,99 62,284
63,975 64,502 65,373 66,1125
67,160 74,22 75,100 76,185
77,799 78,1557 79,1373 80,162
90,95 91,138 92,142 102,80
103,73 104,3730 105,1198 106,113
117,60 129,62 131,5786 132,9999
133,858 134,28
##END=
