##TITLE=Propan-1,3-dioic acid, di[3-methylbutyl] ester
##JCAMP-DX=4.24
##DATA TYPE=MASS SPECTRUM
##ORIGIN=L.N.Kulikova, V.G. Zaikin, RPFU, Moscow, Russia
##OWNER=NIST Mass Spectrometry Data Center
Collection (C) 2014 copyright by the U.S. Secretary of Commerce
on behalf of the United States of America. All rights reserved.
##CAS REGISTRY NO=64617-96-5
##$NIST MASS SPEC NO=348988
##MOLFORM=C13 H24 O4
##MW=244
##$NIST SOURCE=MSDC
##XUNITS=M/Z
##YUNITS=RELATIVE INTENSITY
##XFACTOR=1
##YFACTOR=1
##FIRSTX=26
##LASTX=245
##FIRSTY=30
##MAXX=245
##MINX=26
##MAXY=9999
##MINY=10
##NPOINTS=47
##PEAK TABLE=(XY..XY)
26,30 27,561 29,621 30,30
39,430 40,70 41,1461 42,1081
43,4614 44,40 45,40 53,140
54,120 55,2873 56,140 57,60
60,90 67,50 68,70 69,631
70,6556 71,9999 72,530 86,110
87,701 88,20 89,30 99,20
105,2402 106,80 113,40 114,50
115,90 118,10 131,150 132,290
133,100 141,20 157,1081 158,90
159,140 175,581 176,50 201,581
202,80 229,30 245,30
##END=
