##TITLE=Serine, 3TMS derivative
##JCAMP-DX=4.24
##DATA TYPE=MASS SPECTRUM
##ORIGIN=NIST Mass Spectrometry Data Center
##OWNER=NIST Mass Spectrometry Data Center
Collection (C) 2014 copyright by the U.S. Secretary of Commerce
on behalf of the United States of America. All rights reserved.
##CAS REGISTRY NO=64625-17-8
##$NIST MASS SPEC NO=333286
##MOLFORM=C12 H31 N O3 Si3
##MW=321
##$NIST SOURCE=MSDC
##XUNITS=M/Z
##YUNITS=RELATIVE INTENSITY
##XFACTOR=1
##YFACTOR=1
##FIRSTX=27
##LASTX=309
##FIRSTY=10
##MAXX=309
##MINX=27
##MAXY=9999
##MINY=10
##NPOINTS=140
##PEAK TABLE=(XY..XY)
27,10 28,30 29,40 30,10
31,30 41,20 42,60 43,220
44,200 45,1171 46,80 47,130
52,10 53,10 54,10 55,100
56,40 57,90 58,180 59,641
60,80 61,110 62,10 66,40
68,10 69,10 70,110 71,50
72,280 73,9388 74,911 75,1051
76,60 77,30 79,10 80,10
82,10 83,10 84,40 85,40
86,130 87,70 88,120 89,110
90,10 91,10 98,40 99,40
100,2182 101,370 102,170 103,380
104,40 105,50 106,10 112,10
113,40 114,330 115,290 116,711
117,470 118,100 119,110 120,20
121,10 126,10 128,40 129,40
130,190 131,320 132,390 133,841
134,150 135,80 136,10 142,30
143,30 144,100 145,30 146,100
147,2532 148,420 149,250 150,30
151,10 156,10 157,10 158,90
159,60 160,50 161,20 162,30
163,80 164,10 165,10 172,120
173,30 174,190 175,50 176,20
177,10 186,10 188,1001 189,380
190,170 191,80 192,20 200,10
201,10 202,30 203,210 204,9999
205,1972 206,871 207,120 208,20
214,10 216,260 218,5625 219,1091
220,480 221,120 222,20 223,10
230,10 231,20 232,10 233,10
260,10 262,20 263,10 278,631
279,180 280,80 281,20 291,10
306,330 307,90 308,50 309,10
##END=
