##TITLE=1,2-Dibromo-4,5-difluorobenzene
##JCAMP-DX=4.24
##DATA TYPE=MASS SPECTRUM
##ORIGIN=NIST Mass Spectrometry Data Center
##OWNER=NIST Mass Spectrometry Data Center
Collection (C) 2014 copyright by the U.S. Secretary of Commerce
on behalf of the United States of America. All rights reserved.
##CAS REGISTRY NO=64695-78-9
##$NIST MASS SPEC NO=343382
##MOLFORM=C6 H2 Br2 F2
##MW=270
##$NIST SOURCE=MSDC
##XUNITS=M/Z
##YUNITS=RELATIVE INTENSITY
##XFACTOR=1
##YFACTOR=1
##FIRSTX=12
##LASTX=276
##FIRSTY=40
##MAXX=276
##MINX=12
##MAXY=9999
##MINY=10
##NPOINTS=107
##PEAK TABLE=(XY..XY)
12,40 13,10 18,10 19,10
20,10 24,20 25,50 26,20
31,1391 32,30 36,220 37,651
38,110 43,10 44,70 48,80
49,270 50,380 51,50 55,150
56,490 57,80 60,220 61,1561
62,2432 63,150 68,751 69,40
71,10 72,70 73,220 74,450
75,180 79,851 80,450 81,1291
82,90 86,110 87,60 91,110
92,671 93,490 94,30 96,470
99,10 104,30 105,10 106,30
110,120 111,801 112,6586 113,440
114,10 115,30 116,50 117,40
118,50 119,10 126,10 127,10
128,40 129,10 130,40 131,10
135,290 136,540 137,300 139,20
140,80 141,140 142,80 143,110
146,50 147,10 148,60 149,10
152,10 153,10 154,10 155,10
158,30 159,30 160,50 161,30
162,30 168,10 171,20 172,40
173,30 174,40 189,10 191,2392
192,280 193,2242 194,150 195,10
239,10 241,20 253,20 255,10
267,10 270,5385 272,9999 273,811
274,5335 275,390 276,10
##END=
