##TITLE=1,3-Butadiyne, 1,4-difluoro-
##JCAMP-DX=4.24
##DATA TYPE=MASS SPECTRUM
##ORIGIN=HCACAV,61(1)357(1978); G. BIERI ET AL
##OWNER=NIST Mass Spectrometry Data Center
Collection (C) 2014 copyright by the U.S. Secretary of Commerce
on behalf of the United States of America. All rights reserved.
##CAS REGISTRY NO=64788-23-4
##$NIST MASS SPEC NO=65541
##MOLFORM=C4 F2
##MW=86
##$NIST SOURCE=MSDC
##XUNITS=M/Z
##YUNITS=RELATIVE INTENSITY
##XFACTOR=1
##YFACTOR=1
##FIRSTX=31
##LASTX=86
##FIRSTY=1100
##MAXX=86
##MINX=31
##MAXY=9999
##MINY=400
##NPOINTS=6
##PEAK TABLE=(XY..XY)
31,1100 36,400 43,400 55,1000
67,500 86,9999
##END=
