##TITLE=1,3-Pentadiyne, 1,5,5,5-tetrafluoro-
##JCAMP-DX=4.24
##DATA TYPE=MASS SPECTRUM
##ORIGIN=HCACAV,61(1)357(1978); G. BIERI ET AL
##OWNER=NIST Mass Spectrometry Data Center
Collection (C) 2014 copyright by the U.S. Secretary of Commerce
on behalf of the United States of America. All rights reserved.
##CAS REGISTRY NO=64788-24-5
##$NIST MASS SPEC NO=65542
##MOLFORM=C5 F4
##MW=136
##$NIST SOURCE=MSDC
##XUNITS=M/Z
##YUNITS=RELATIVE INTENSITY
##XFACTOR=1
##YFACTOR=1
##FIRSTX=31
##LASTX=136
##FIRSTY=600
##MAXX=136
##MINX=31
##MAXY=9999
##MINY=200
##NPOINTS=9
##PEAK TABLE=(XY..XY)
31,600 67,200 69,800 74,200
79,300 93,200 98,700 117,8000
136,9999
##END=
