##TITLE=Ethane, 1-bromo-2-methoxy-
##JCAMP-DX=4.24
##DATA TYPE=MASS SPECTRUM
##ORIGIN=NIST Mass Spectrometry Data Center, 1994
##OWNER=NIST Mass Spectrometry Data Center
Collection (C) 2014 copyright by the U.S. Secretary of Commerce
on behalf of the United States of America. All rights reserved.
##CAS REGISTRY NO=6482-24-2
##$NIST MASS SPEC NO=135330
##MOLFORM=C3 H7 Br O
##MW=138
##$NIST SOURCE=MSDC
##XUNITS=M/Z
##YUNITS=RELATIVE INTENSITY
##XFACTOR=1
##YFACTOR=1
##FIRSTX=4
##LASTX=141
##FIRSTY=25
##MAXX=141
##MINX=4
##MAXY=9999
##MINY=4
##NPOINTS=54
##PEAK TABLE=(XY..XY)
4,25 8,4 12,45 13,124
14,475 15,2023 16,43 17,45
18,7 24,14 25,118 26,954
27,2371 28,968 29,3160 30,253
31,680 32,14 33,48 39,15
40,13 41,77 42,256 43,977
44,13 45,9999 46,222 47,23
58,1224 59,72 79,231 80,109
81,209 82,100 83,12 91,45
92,55 93,321 94,88 95,280
96,36 97,8 104,15 105,32
106,60 107,302 108,55 109,255
110,9 120,7 122,12 138,475
140,474 141,17
##END=
