##TITLE=Uridine, 3TBDMS derivative
##JCAMP-DX=4.24
##DATA TYPE=MASS SPECTRUM
##ORIGIN=M.Quilliam ET AL.Anal.Chem.,50,59(1978)
##OWNER=NIST Mass Spectrometry Data Center
Collection (C) 2014 copyright by the U.S. Secretary of Commerce
on behalf of the United States of America. All rights reserved.
##CAS REGISTRY NO=64898-15-3
##$NIST MASS SPEC NO=280270
##MOLFORM=C27 H54 N2 O6 Si3
##MW=586
##$NIST SOURCE=MSDC
##XUNITS=M/Z
##YUNITS=RELATIVE INTENSITY
##XFACTOR=1
##YFACTOR=1
##FIRSTX=52
##LASTX=572
##FIRSTY=20
##MAXX=572
##MINX=52
##MAXY=9999
##MINY=20
##NPOINTS=139
##PEAK TABLE=(XY..XY)
52,20 55,140 57,370 59,480
69,120 70,20 73,9999 74,1011
75,1411 76,20 77,20 81,460
82,40 83,40 85,120 89,5165
90,420 91,160 95,80 96,20
97,80 99,691 100,100 101,180
103,60 111,60 112,20 113,80
115,1451 116,270 117,691 118,20
119,40 124,40 125,40 126,120
127,100 129,901 130,60 131,80
133,1011 134,100 135,100 137,20
143,140 145,691 146,60 147,2672
148,1301 149,781 150,60 151,60
153,160 155,160 157,20 159,40
167,60 168,230 169,4574 170,711
171,711 172,40 173,100 174,60
175,100 177,20 185,80 187,160
189,230 190,20 191,2402 195,20
203,60 207,140 211,1621 212,270
213,100 215,20 221,40 222,20
225,40 226,20 228,250 229,60
232,611 233,20 243,370 244,60
245,160 259,60 261,2572 262,611
263,230 264,40 265,3483 266,691
267,210 269,350 270,20 283,420
284,100 285,801 286,180 287,80
293,80 301,561 302,140 303,270
304,40 307,40 313,751 314,210
315,60 323,40 325,20 327,100
341,20 343,60 355,40 357,60
367,40 383,1581 384,540 385,180
397,330 398,80 399,80 417,711
418,250 419,100 439,60 471,20
529,9649 530,4684 531,2252 532,631
533,100 571,210 572,60
##END=
