##TITLE=o-Tetramethylene(tert-butyl)silylandrosterone
##JCAMP-DX=4.24
##DATA TYPE=MASS SPECTRUM
##ORIGIN=M.Quilliam ET AL.Anal.Chem.,50,59(1978)
##OWNER=NIST Mass Spectrometry Data Center
Collection (C) 2014 copyright by the U.S. Secretary of Commerce
on behalf of the United States of America. All rights reserved.
##CAS REGISTRY NO=64898-17-5
##$NIST MASS SPEC NO=280272
##MOLFORM=C27 H46 O2 Si
##MW=430
##$NIST SOURCE=MSDC
##XUNITS=M/Z
##YUNITS=RELATIVE INTENSITY
##XFACTOR=1
##YFACTOR=1
##FIRSTX=53
##LASTX=431
##FIRSTY=80
##MAXX=431
##MINX=53
##MAXY=9999
##MINY=20
##NPOINTS=125
##PEAK TABLE=(XY..XY)
53,80 55,761 56,80 57,500
59,290 60,50 61,410 65,20
67,851 68,140 69,290 71,110
72,50 73,1141 74,140 75,881
77,230 79,851 80,140 81,2022
82,200 83,701 84,80 85,350
87,110 90,20 91,941 92,170
93,1231 94,230 95,1051 96,80
97,941 99,1291 100,110 101,4674
102,500 103,200 105,1051 106,410
107,1291 108,320 109,671 110,80
111,110 113,170 115,110 117,290
118,80 119,611 120,140 121,611
122,110 123,260 127,50 129,140
131,470 132,50 133,581 134,110
135,581 136,50 137,260 138,80
141,80 143,170 145,761 146,80
147,821 148,110 149,260 150,50
151,550 157,200 158,80 159,611
160,110 161,1141 162,170 163,200
165,260 168,20 171,260 172,50
173,290 174,80 175,701 176,50
177,50 185,110 187,350 189,350
194,20 196,80 198,140 200,140
203,80 205,20 209,20 213,230
215,260 220,20 223,20 227,110
229,140 253,821 254,200 255,671
256,110 257,140 271,9999 272,2002
273,260 316,50 355,50 356,50
371,50 373,7026 374,2232 375,641
376,80 415,80 416,50 430,260
431,50
##END=
