##TITLE=3,4-Pyridinedimethanol, 5-hydroxy-6-methyl-
##JCAMP-DX=4.24
##DATA TYPE=MASS SPECTRUM
##ORIGIN=Japan AIST/NIMC Database- Spectrum MS-NW-9241
##OWNER=NIST Mass Spectrometry Data Center
Collection (C) 2014 copyright by the U.S. Secretary of Commerce
on behalf of the United States of America. All rights reserved.
##CAS REGISTRY NO=65-23-6
##$NIST MASS SPEC NO=228913
##MOLFORM=C8 H11 N O3
##MW=169
##$NIST SOURCE=MSDC
##XUNITS=M/Z
##YUNITS=RELATIVE INTENSITY
##XFACTOR=1
##YFACTOR=1
##FIRSTX=15
##LASTX=172
##FIRSTY=80
##MAXX=172
##MINX=15
##MAXY=9999
##MINY=10
##NPOINTS=102
##PEAK TABLE=(XY..XY)
15,80 17,20 18,70 26,119
27,729 28,599 29,349 30,40
31,459 32,30 39,1919 40,239
41,559 42,1209 43,469 44,50
45,10 46,20 47,20 49,10
50,269 51,979 52,649 53,1429
54,1219 55,559 56,80 57,50
58,10 60,10 61,30 62,50
63,219 64,189 65,609 66,419
67,919 68,259 69,189 70,60
71,40 74,20 75,30 76,50
77,459 78,349 79,399 80,1169
81,1819 82,1309 83,139 84,40
85,20 89,10 90,30 91,60
92,479 93,469 94,9209 95,1009
96,119 97,50 98,10 99,10
104,159 105,579 106,8249 107,1819
108,899 109,169 110,249 111,30
119,20 120,429 121,189 122,2889
123,1029 124,219 125,30 132,20
133,1119 134,249 135,129 136,1529
137,149 138,279 139,30 140,10
147,20 148,30 149,169 150,1059
151,9999 152,1239 153,309 154,30
167,80 168,20 169,7759 170,1149
171,119 172,10
##END=
