##TITLE=Cytidine
##JCAMP-DX=4.24
##DATA TYPE=MASS SPECTRUM
##ORIGIN=Japan AIST/NIMC Database- Spectrum MS-NW-9238
##OWNER=NIST Mass Spectrometry Data Center
Collection (C) 2014 copyright by the U.S. Secretary of Commerce
on behalf of the United States of America. All rights reserved.
##CAS REGISTRY NO=65-46-3
##$NIST MASS SPEC NO=228181
##MOLFORM=C9 H13 N3 O5
##MW=243
##$NIST SOURCE=MSDC
##XUNITS=M/Z
##YUNITS=RELATIVE INTENSITY
##XFACTOR=1
##YFACTOR=1
##FIRSTX=14
##LASTX=245
##FIRSTY=30
##MAXX=245
##MINX=14
##MAXY=9999
##MINY=10
##NPOINTS=156
##PEAK TABLE=(XY..XY)
14,30 15,179 16,109 17,279
18,1019 19,20 26,90 27,289
28,899 29,539 30,179 31,569
32,70 33,10 37,10 38,40
39,169 40,339 41,619 42,909
43,919 44,729 45,409 46,70
47,60 51,30 52,249 53,109
54,209 55,459 56,349 57,999
58,159 59,70 60,349 61,309
62,10 64,10 65,30 66,119
67,499 68,949 69,1459 70,449
71,369 72,129 73,869 74,189
75,20 77,10 78,20 79,159
80,50 81,169 82,99 83,489
84,249 85,309 86,139 87,50
88,10 89,20 91,10 92,20
93,70 94,579 95,969 96,429
97,249 98,50 99,10 100,20
101,30 102,20 103,40 105,20
106,10 107,30 108,30 109,129
110,199 111,2909 112,9999 113,689
114,169 115,60 116,10 118,10
119,20 120,20 121,40 122,149
123,109 124,119 125,119 126,129
127,20 128,10 132,60 133,109
134,60 135,99 136,159 137,50
138,109 139,60 140,4249 141,329
142,40 143,10 144,20 146,10
147,10 148,40 149,20 150,20
151,2689 152,269 153,60 154,609
155,50 160,40 161,10 162,10
163,20 164,20 165,30 166,30
167,10 168,20 169,80 170,819
171,70 172,10 175,10 176,10
177,20 178,199 179,20 182,30
183,10 184,10 194,30 196,20
200,20 208,20 212,30 213,50
214,20 215,10 225,10 226,20
242,10 243,30 244,119 245,10
##END=
