##TITLE=Benzoic acid, 4-nitro-, octyl ester
##JCAMP-DX=4.24
##DATA TYPE=MASS SPECTRUM
##ORIGIN=V.Zaikin,Topchiev Inst.Petrochem.Synth.,Moscow
##OWNER=NIST Mass Spectrometry Data Center
Collection (C) 2014 copyright by the U.S. Secretary of Commerce
on behalf of the United States of America. All rights reserved.
##CAS REGISTRY NO=6500-50-1
##$NIST MASS SPEC NO=281861
##MOLFORM=C15 H21 N O4
##MW=279
##$NIST SOURCE=MSDC
##XUNITS=M/Z
##YUNITS=RELATIVE INTENSITY
##XFACTOR=1
##YFACTOR=1
##FIRSTX=27
##LASTX=280
##FIRSTY=1882
##MAXX=280
##MINX=27
##MAXY=9999
##MINY=20
##NPOINTS=133
##PEAK TABLE=(XY..XY)
27,1882 28,791 29,3553 30,771
31,80 35,50 36,140 37,200
38,400 39,2472 40,430 41,8478
42,3773 43,6926 44,591 45,200
46,90 47,30 49,60 50,2592
51,901 52,250 53,851 54,1041
55,7567 56,8257 57,3083 58,170
59,60 60,50 61,100 62,220
63,571 64,751 65,2232 66,370
67,891 68,1802 69,7627 70,8808
71,1491 72,60 73,280 74,961
75,1992 76,5525 77,1011 78,200
79,110 80,30 81,410 82,1471
83,5875 84,6226 85,430 86,30
87,30 90,70 91,350 92,2402
93,400 94,80 95,100 96,120
97,631 98,90 99,20 103,591
104,6596 105,971 106,100 107,70
108,40 109,120 110,170 111,1501
112,4224 113,380 115,60 116,60
119,80 120,1291 121,1071 122,440
123,190 125,20 127,30 129,40
133,40 134,811 135,210 136,80
137,671 138,130 139,30 145,70
147,50 148,40 149,170 150,9999
151,2532 152,530 153,100 161,30
165,140 166,40 167,651 168,3123
169,1772 170,130 171,40 173,140
176,30 178,70 180,40 190,30
193,30 194,70 195,40 205,60
206,70 207,50 208,140 209,50
218,40 221,20 223,80 249,30
251,30 262,20 263,100 279,40
280,60
##END=
