##TITLE=4-Nitrobenzoic acid, decyl ester
##JCAMP-DX=4.24
##DATA TYPE=MASS SPECTRUM
##ORIGIN=V.Zaikin,Topchiev Inst.Petrochem.Synth.,Moscow
##OWNER=NIST Mass Spectrometry Data Center
Collection (C) 2014 copyright by the U.S. Secretary of Commerce
on behalf of the United States of America. All rights reserved.
##CAS REGISTRY NO=6500-30-7
##$NIST MASS SPEC NO=281862
##MOLFORM=C17 H25 N O4
##MW=307
##$NIST SOURCE=MSDC
##XUNITS=M/Z
##YUNITS=RELATIVE INTENSITY
##XFACTOR=1
##YFACTOR=1
##FIRSTX=27
##LASTX=308
##FIRSTY=1802
##MAXX=308
##MINX=27
##MAXY=9999
##MINY=20
##NPOINTS=154
##PEAK TABLE=(XY..XY)
27,1802 28,290 29,3383 30,781
31,120 35,50 36,190 37,310
38,430 39,2762 40,571 41,9799
42,2783 43,8167 44,721 45,180
46,90 48,40 49,140 50,2482
51,841 52,250 53,1001 54,1331
55,8398 56,5675 57,4174 58,120
60,40 61,100 62,120 63,500
64,530 65,2382 66,330 67,1271
68,2152 69,5605 70,5705 71,1141
72,120 73,240 74,1121 75,1902
76,4914 77,841 78,220 79,220
80,60 81,681 82,1561 83,6065
84,3193 85,791 86,40 87,50
88,30 89,30 90,90 91,230
92,2502 93,350 94,100 95,260
96,681 97,3243 98,2072 99,220
101,30 102,60 103,480 104,5955
105,1191 106,110 107,50 109,220
110,260 111,2182 112,2482 113,190
115,30 116,30 117,60 119,120
120,1481 121,1191 122,400 123,210
124,70 125,70 126,40 128,30
129,40 134,921 135,270 136,70
137,1291 138,320 139,250 140,2692
141,230 142,20 145,90 147,20
149,90 150,9999 151,2742 152,621
153,190 154,60 155,40 157,30
158,30 163,60 165,130 166,70
167,961 168,3383 169,2142 170,190
171,40 173,110 174,40 178,60
179,60 180,40 188,40 190,40
192,40 194,110 195,40 205,80
206,90 207,110 208,200 209,40
218,60 220,40 221,40 223,140
224,40 235,40 236,50 237,50
272,30 277,80 278,30 281,30
289,30 290,70 291,40 292,30
307,60 308,50
##END=
