##TITLE=9H-Purine, 6-chloro-9-(methoxymethyl)-
##JCAMP-DX=4.24
##DATA TYPE=MASS SPECTRUM
##ORIGIN=S. MARKEY UNIV. OF COLO. MED. CTR., DENVER, COLORADO, USA
##OWNER=NIST Mass Spectrometry Data Center
Collection (C) 2014 copyright by the U.S. Secretary of Commerce
on behalf of the United States of America. All rights reserved.
##CAS REGISTRY NO=6504-64-9
##$NIST MASS SPEC NO=8906
##MOLFORM=C7 H7 Cl N4 O
##MW=198
##$NIST SOURCE=MSDC
##XUNITS=M/Z
##YUNITS=RELATIVE INTENSITY
##XFACTOR=1
##YFACTOR=1
##FIRSTX=36
##LASTX=200
##FIRSTY=600
##MAXX=200
##MINX=36
##MAXY=9999
##MINY=60
##NPOINTS=32
##PEAK TABLE=(XY..XY)
36,600 38,210 39,280 40,60
41,190 44,200 45,9999 46,220
51,430 52,370 53,320 64,140
74,190 75,220 76,190 77,860
78,180 79,560 85,320 86,610
104,410 113,80 119,80 133,300
166,830 167,3250 168,9460 169,1740
170,3080 171,90 198,930 200,310
##END=
