##TITLE=Nimorazole
##JCAMP-DX=4.24
##DATA TYPE=MASS SPECTRUM
##ORIGIN=Finnigan MAT: Toxicological Library (LIBR-TX)
##OWNER=NIST Mass Spectrometry Data Center
Collection (C) 2014 copyright by the U.S. Secretary of Commerce
on behalf of the United States of America. All rights reserved.
##CAS REGISTRY NO=6506-37-2
##$NIST MASS SPEC NO=120849
##MOLFORM=C9 H14 N4 O3
##MW=226
##$NIST SOURCE=MSDC
##XUNITS=M/Z
##YUNITS=RELATIVE INTENSITY
##XFACTOR=1
##YFACTOR=1
##FIRSTX=41
##LASTX=180
##FIRSTY=294
##MAXX=180
##MINX=41
##MAXY=9999
##MINY=90
##NPOINTS=16
##PEAK TABLE=(XY..XY)
41,294 42,1148 53,196 54,310
55,403 56,1503 57,107 67,91
68,90 70,211 94,110 98,106
100,9999 101,623 122,211 180,93
##END=
