##TITLE=Sulfameter
##JCAMP-DX=4.24
##DATA TYPE=MASS SPECTRUM
##ORIGIN=Japan AIST/NIMC Database- Spectrum MS-NW-9909
##OWNER=NIST Mass Spectrometry Data Center
Collection (C) 2014 copyright by the U.S. Secretary of Commerce
on behalf of the United States of America. All rights reserved.
##CAS REGISTRY NO=651-06-9
##$NIST MASS SPEC NO=239043
##MOLFORM=C11 H12 N4 O3 S
##MW=280
##$NIST SOURCE=MSDC
##XUNITS=M/Z
##YUNITS=RELATIVE INTENSITY
##XFACTOR=1
##YFACTOR=1
##FIRSTX=15
##LASTX=282
##FIRSTY=129
##MAXX=282
##MINX=15
##MAXY=9999
##MINY=10
##NPOINTS=127
##PEAK TABLE=(XY..XY)
15,129 17,25 18,109 26,20
27,119 28,203 29,30 30,20
32,10 37,10 38,70 39,659
40,80 41,209 42,149 43,50
44,40 45,20 48,30 50,30
51,60 52,179 53,199 54,619
55,119 56,50 57,30 58,10
60,10 61,10 62,40 63,229
64,349 65,3469 66,419 67,60
68,50 69,40 70,239 71,20
74,10 75,20 76,20 77,20
78,30 79,40 80,169 81,60
82,589 83,99 84,10 85,20
86,10 89,10 90,70 91,339
92,5339 93,539 94,40 95,20
96,20 97,149 98,30 99,10
104,10 105,30 106,40 107,80
108,2709 109,319 110,1219 111,119
112,20 117,30 118,109 119,349
120,40 121,20 123,50 124,109
125,1639 126,169 127,10 129,10
130,10 131,80 132,70 133,40
134,20 140,279 141,40 142,20
143,10 144,40 145,90 146,219
147,30 156,899 157,109 158,80
159,30 160,30 170,10 171,30
172,249 173,649 174,159 175,30
184,10 185,60 186,10 187,20
188,20 189,10 199,10 200,279
201,1219 202,149 203,10 214,50
215,9999 216,9359 217,1199 218,90
280,10 281,139 282,20
##END=
