##TITLE=Benzene, 1,2,4,5-tetrafluoro-3-(trifluoromethyl)-
##JCAMP-DX=4.24
##DATA TYPE=MASS SPECTRUM
##ORIGIN=Chuck Anderson, Aldrich Chemical Co.
##OWNER=NIST Mass Spectrometry Data Center
Collection (C) 2014 copyright by the U.S. Secretary of Commerce
on behalf of the United States of America. All rights reserved.
##CAS REGISTRY NO=651-80-9
##$NIST MASS SPEC NO=107605
##MOLFORM=C7 H F7
##MW=218
##$NIST SOURCE=MSDC
##XUNITS=M/Z
##YUNITS=RELATIVE INTENSITY
##XFACTOR=1
##YFACTOR=1
##FIRSTX=31
##LASTX=220
##FIRSTY=1061
##MAXX=220
##MINX=31
##MAXY=9999
##MINY=6
##NPOINTS=78
##PEAK TABLE=(XY..XY)
31,1061 32,14 36,31 37,138
44,27 48,10 49,25 50,86
51,55 55,182 56,186 60,51
61,497 62,37 65,36 67,24
68,221 69,2815 70,22 72,11
73,12 74,297 75,958 76,25
79,655 80,1061 81,56 84,19
86,285 87,76 91,37 92,192
93,879 94,31 99,4926 100,361
103,21 104,8 105,83 106,69
109,75 110,124 111,216 112,13
113,27 117,388 118,95 122,17
123,17 124,58 129,106 130,455
131,35 136,7 137,119 141,47
143,6 148,160 149,934 150,55
155,14 161,138 162,6 167,165
168,8931 169,503 170,10 179,406
180,54 186,6 187,16 198,89
199,9999 200,612 201,17 218,9513
219,570 220,14
##END=
