##TITLE=Ethanone,2,2,2-trifluoro-1-(2-thienyl)-
##JCAMP-DX=4.24
##DATA TYPE=MASS SPECTRUM
##ORIGIN=NIST Mass Spectrometry Data Center
##OWNER=NIST Mass Spectrometry Data Center
Collection (C) 2014 copyright by the U.S. Secretary of Commerce
on behalf of the United States of America. All rights reserved.
##CAS REGISTRY NO=651-70-7
##$NIST MASS SPEC NO=342721
##MOLFORM=C6 H3 F3 O S
##MW=180
##$NIST SOURCE=MSDC
##XUNITS=M/Z
##YUNITS=RELATIVE INTENSITY
##XFACTOR=1
##YFACTOR=1
##FIRSTX=12
##LASTX=182
##FIRSTY=20
##MAXX=182
##MINX=12
##MAXY=9999
##MINY=10
##NPOINTS=75
##PEAK TABLE=(XY..XY)
12,20 13,10 14,10 16,10
18,20 20,10 24,10 25,90
26,100 28,250 31,70 32,210
33,20 34,10 36,70 37,550
38,841 39,4944 40,170 41,80
44,150 45,951 46,40 47,60
48,60 49,300 50,691 51,80
53,330 54,10 56,150 57,1221
58,220 60,20 61,50 62,20
63,40 65,10 66,30 67,10
69,1682 70,20 71,10 72,20
75,30 76,10 77,60 78,10
79,10 80,80 81,480 82,561
83,1762 84,150 85,90 86,10
87,30 92,20 93,30 95,10
99,20 101,10 102,10 106,10
107,30 108,10 109,30 111,9999
112,611 113,500 114,20 129,30
180,2572 181,180 182,140
##END=
