##TITLE=7-Tetradecenal, (Z)-
##JCAMP-DX=4.24
##DATA TYPE=MASS SPECTRUM
##ORIGIN=NIST Mass Spectrometry Data Center, 1998.
##OWNER=NIST Mass Spectrometry Data Center
Collection (C) 2014 copyright by the U.S. Secretary of Commerce
on behalf of the United States of America. All rights reserved.
##CAS REGISTRY NO=65128-96-3
##$NIST MASS SPEC NO=291639
##MOLFORM=C14 H26 O
##MW=210
##$NIST SOURCE=MSDC
##XUNITS=M/Z
##YUNITS=RELATIVE INTENSITY
##XFACTOR=1
##YFACTOR=1
##FIRSTX=15
##LASTX=211
##FIRSTY=30
##MAXX=211
##MINX=15
##MAXY=9999
##MINY=10
##NPOINTS=117
##PEAK TABLE=(XY..XY)
15,30 26,60 27,1340 28,280
29,2860 30,60 31,80 37,10
38,40 39,2200 40,370 41,8119
42,1340 43,4490 44,580 45,80
50,50 51,200 52,150 53,1550
54,3580 55,9999 56,2380 57,2930
58,260 59,60 62,10 63,40
64,10 65,550 66,640 67,6229
68,2620 69,5249 70,3470 71,1120
72,110 73,20 77,610 78,280
79,3440 80,2050 81,4570 82,3190
83,3800 84,2140 85,560 86,80
87,10 89,10 91,480 92,110
93,2400 94,1400 95,2790 96,2400
97,2840 98,3350 99,300 100,40
103,20 104,10 105,110 106,50
107,1050 108,910 109,1080 110,1530
111,2030 112,950 113,90 114,50
115,20 117,10 119,30 120,60
121,2670 122,680 123,450 124,440
125,380 126,130 127,20 128,90
129,10 133,10 134,10 135,1230
136,390 137,150 138,160 139,120
140,30 141,10 142,20 149,360
150,160 151,60 152,10 153,60
154,30 155,10 163,180 164,120
165,20 166,120 167,70 168,10
177,10 179,30 181,20 182,10
192,600 193,90 194,10 210,40
211,10
##END=
