##TITLE=Benzoic acid, 4-hydroxy-, pentyl ester
##JCAMP-DX=4.24
##DATA TYPE=MASS SPECTRUM
##ORIGIN=NIST Mass Spectrometry Data Center
##OWNER=NIST Mass Spectrometry Data Center
Collection (C) 2014 copyright by the U.S. Secretary of Commerce
on behalf of the United States of America. All rights reserved.
##CAS REGISTRY NO=6521-29-5
##$NIST MASS SPEC NO=341193
##MOLFORM=C12 H16 O3
##MW=208
##$NIST SOURCE=MSDC
##XUNITS=M/Z
##YUNITS=RELATIVE INTENSITY
##XFACTOR=1
##YFACTOR=1
##FIRSTX=26
##LASTX=209
##FIRSTY=10
##MAXX=209
##MINX=26
##MAXY=9999
##MINY=10
##NPOINTS=61
##PEAK TABLE=(XY..XY)
26,10 27,160 29,230 37,10
38,70 39,731 40,40 41,480
42,270 43,290 44,20 45,10
50,50 51,50 52,10 53,200
54,20 55,430 56,20 57,20
61,10 62,80 63,320 64,250
65,1702 66,160 67,40 68,10
69,100 70,220 71,20 74,30
75,30 76,20 77,70 81,60
91,20 92,320 93,1501 94,160
95,190 96,10 107,30 109,50
110,20 119,20 120,160 121,9999
122,901 123,90 136,10 138,9719
139,2462 140,220 141,10 151,90
152,10 179,10 191,40 208,440
209,60
##END=
