##TITLE=2,6-Diethylbromobenzene
##JCAMP-DX=4.24
##DATA TYPE=MASS SPECTRUM
##ORIGIN=NIST Mass Spectrometry Data Center, 1994
##OWNER=NIST Mass Spectrometry Data Center
Collection (C) 2014 copyright by the U.S. Secretary of Commerce
on behalf of the United States of America. All rights reserved.
##CAS REGISTRY NO=65232-57-7
##$NIST MASS SPEC NO=136236
##MOLFORM=C10 H13 Br
##MW=212
##$NIST SOURCE=MSDC
##XUNITS=M/Z
##YUNITS=RELATIVE INTENSITY
##XFACTOR=1
##YFACTOR=1
##FIRSTX=15
##LASTX=216
##FIRSTY=1915
##MAXX=216
##MINX=15
##MAXY=9999
##MINY=29
##NPOINTS=86
##PEAK TABLE=(XY..XY)
15,1915 18,140 26,366 27,3195
28,56 29,1329 30,66 37,127
38,645 39,3689 40,367 41,721
42,57 44,91 49,125 50,1802
51,4056 52,975 53,849 55,178
58,853 61,226 62,1164 63,2859
64,965 65,1788 66,192 73,139
74,689 75,1129 76,1007 77,4864
78,1474 79,1389 80,151 81,115
82,68 85,73 86,291 87,444
88,193 89,1773 90,773 91,4997
92,515 93,120 98,198 99,101
101,263 102,1183 103,2790 104,2282
105,6139 106,537 107,59 113,127
115,5676 116,1661 117,8474 118,3093
119,353 126,88 127,293 128,594
129,363 130,121 131,500 132,88
133,9999 134,1067 169,266 171,235
183,1129 184,192 185,1033 186,135
195,70 197,7604 198,933 199,7522
200,715 212,5801 213,639 214,5712
215,626 216,29
##END=
