##TITLE=2,6-Difluorophenyl isocyanate
##JCAMP-DX=4.24
##DATA TYPE=MASS SPECTRUM
##ORIGIN=NIST Mass Spectrometry Data Center
##OWNER=NIST Mass Spectrometry Data Center
Collection (C) 2014 copyright by the U.S. Secretary of Commerce
on behalf of the United States of America. All rights reserved.
##CAS REGISTRY NO=65295-69-4
##$NIST MASS SPEC NO=342715
##MOLFORM=C7 H3 F2 N S
##MW=171
##$NIST SOURCE=MSDC
##XUNITS=M/Z
##YUNITS=RELATIVE INTENSITY
##XFACTOR=1
##YFACTOR=1
##FIRSTX=12
##LASTX=174
##FIRSTY=30
##MAXX=174
##MINX=12
##MAXY=9999
##MINY=10
##NPOINTS=97
##PEAK TABLE=(XY..XY)
12,30 13,10 14,20 17,10
18,20 20,10 25,20 26,90
28,210 31,1221 32,611 33,60
34,20 36,50 37,350 38,230
39,180 44,540 45,310 46,50
47,10 48,20 49,130 50,410
51,300 52,40 55,50 56,310
57,530 58,260 59,30 60,50
61,370 62,500 63,2562 64,200
65,10 68,460 69,450 70,801
71,40 72,70 73,80 74,330
75,540 76,230 77,60 79,50
80,120 81,400 82,260 83,50
85,611 87,300 88,230 89,80
90,10 92,150 93,440 94,220
95,60 96,30 98,10 99,200
100,370 101,370 102,50 106,80
107,90 108,110 109,10 110,10
111,60 112,410 113,1351 114,140
118,20 119,50 120,60 121,20
124,40 126,410 127,941 128,70
139,2372 140,200 141,10 144,460
145,110 146,20 151,571 152,110
153,30 171,9999 172,911 173,480
174,30
##END=
