##TITLE=Hexafluoro-2,2-bis-(3,4-dimethylphenyl)-propane
##JCAMP-DX=4.24
##DATA TYPE=MASS SPECTRUM
##ORIGIN=Japan AIST/NIMC Database- Spectrum MS-IW-1784
##OWNER=NIST Mass Spectrometry Data Center
Collection (C) 2014 copyright by the U.S. Secretary of Commerce
on behalf of the United States of America. All rights reserved.
##CAS REGISTRY NO=65294-20-4
##$NIST MASS SPEC NO=237067
##MOLFORM=C19 H18 F6
##MW=360
##$NIST SOURCE=MSDC
##XUNITS=M/Z
##YUNITS=RELATIVE INTENSITY
##XFACTOR=1
##YFACTOR=1
##FIRSTX=15
##LASTX=363
##FIRSTY=10
##MAXX=363
##MINX=15
##MAXY=9999
##MINY=10
##NPOINTS=242
##PEAK TABLE=(XY..XY)
15,10 27,70 28,10 29,30
39,109 40,10 41,60 43,20
50,30 51,119 52,30 53,60
55,10 57,10 62,10 63,70
64,20 65,70 66,10 67,10
69,50 74,10 75,40 76,60
77,239 78,70 79,90 80,10
81,10 82,20 83,30 85,10
87,10 88,30 89,169 90,20
91,80 92,10 94,50 95,60
96,169 97,40 98,50 99,20
100,10 101,99 102,119 103,309
104,60 105,179 106,20 107,40
108,20 109,70 110,279 111,199
112,50 113,20 114,40 115,99
116,40 117,40 118,30 119,60
120,50 121,30 122,10 123,30
124,20 125,40 126,40 127,149
128,139 129,30 130,40 131,10
132,10 133,40 134,50 135,99
136,40 137,149 138,60 139,40
140,10 141,40 142,10 143,20
144,80 145,60 146,30 147,10
150,20 151,80 152,90 153,50
154,10 155,60 156,20 157,10
159,20 160,20 161,10 162,20
163,40 164,50 165,189 166,60
167,30 168,10 169,129 170,139
171,40 172,10 173,10 175,10
176,40 177,40 178,199 179,169
180,149 181,20 182,20 183,50
184,10 185,20 186,10 187,20
188,30 189,199 190,129 191,379
192,479 193,199 194,50 195,20
196,60 197,40 198,10 199,10
200,20 201,50 202,90 203,99
204,60 205,259 206,459 207,1859
208,359 209,99 210,60 211,159
212,30 213,10 214,30 215,40
216,10 217,10 218,10 219,50
220,119 221,439 222,429 223,109
224,30 225,99 226,30 227,40
228,20 229,20 232,10 233,50
234,30 235,50 236,10 237,30
238,109 239,70 240,30 241,129
242,80 243,30 244,10 245,30
246,70 247,90 248,30 249,70
250,20 251,50 254,60 255,70
256,979 257,209 258,40 259,99
260,229 261,829 262,179 263,20
270,60 271,479 272,129 273,60
274,99 275,509 276,1949 277,379
278,40 289,90 290,149 291,8129
292,1609 293,159 294,10 301,10
305,99 306,30 311,20 315,10
316,10 317,10 319,10 321,50
322,10 325,129 326,20 329,99
330,249 341,369 342,80 343,60
344,99 345,4149 346,829 347,80
358,70 359,419 360,9999 361,2089
362,199 363,10
##END=
