##TITLE=Pentafluorobenzaldehyde
##JCAMP-DX=4.24
##DATA TYPE=MASS SPECTRUM
##ORIGIN=NIST Mass Spectrometry Data Center, 1994
##OWNER=NIST Mass Spectrometry Data Center
Collection (C) 2014 copyright by the U.S. Secretary of Commerce
on behalf of the United States of America. All rights reserved.
##CAS REGISTRY NO=653-37-2
##$NIST MASS SPEC NO=134044
##MOLFORM=C7 H F5 O
##MW=196
##$NIST SOURCE=MSDC
##XUNITS=M/Z
##YUNITS=RELATIVE INTENSITY
##XFACTOR=1
##YFACTOR=1
##FIRSTX=24
##LASTX=198
##FIRSTY=27
##MAXX=198
##MINX=24
##MAXY=9999
##MINY=27
##NPOINTS=67
##PEAK TABLE=(XY..XY)
24,27 29,4867 31,3434 36,160
37,159 43,51 48,89 49,53
50,38 51,70 55,434 56,191
60,134 61,276 62,97 67,101
68,234 69,326 71,107 72,51
74,610 75,533 76,27 79,1647
80,490 81,35 84,41 86,420
87,96 91,85 93,1681 94,54
95,36 98,1975 99,4068 100,264
103,47 104,27 105,67 106,83
110,307 111,127 117,4719 118,823
119,57 122,37 124,164 129,266
130,134 137,972 138,63 141,74
148,1393 149,574 150,54 161,139
164,90 167,4656 168,2663 169,150
176,96 177,91 180,53 195,9662
196,9999 197,756 198,68
##END=
