##TITLE=2,4,6-Trinitrophenyl-hydrazine
##JCAMP-DX=4.24
##DATA TYPE=MASS SPECTRUM
##ORIGIN=Japan AIST/NIMC Database- Spectrum MS-IW-4617
##OWNER=NIST Mass Spectrometry Data Center
Collection (C) 2014 copyright by the U.S. Secretary of Commerce
on behalf of the United States of America. All rights reserved.
##CAS REGISTRY NO=653-49-6
##$NIST MASS SPEC NO=244668
##MOLFORM=C6 H5 N5 O6
##MW=243
##$NIST SOURCE=MSDC
##XUNITS=M/Z
##YUNITS=RELATIVE INTENSITY
##XFACTOR=1
##YFACTOR=1
##FIRSTX=14
##LASTX=245
##FIRSTY=30
##MAXX=245
##MINX=14
##MAXY=9999
##MINY=10
##NPOINTS=156
##PEAK TABLE=(XY..XY)
14,30 15,30 16,30 17,50
25,10 26,70 27,199 28,1149
29,719 30,7599 31,369 32,60
36,20 37,399 38,579 39,459
40,169 41,159 42,149 43,119
44,279 45,99 46,379 47,20
48,90 49,149 50,2019 51,1279
52,959 53,549 54,219 55,119
56,90 57,20 59,10 60,60
61,1019 62,2449 63,1919 64,1439
65,479 66,349 67,189 68,329
69,149 70,40 71,20 72,20
73,459 74,5699 75,9999 76,2599
77,1479 78,789 79,319 80,719
81,199 82,30 83,30 84,70
85,10 86,90 87,349 88,609
89,409 90,469 91,2339 92,1149
93,359 94,99 95,50 96,30
97,20 99,10 100,20 101,60
102,70 103,299 104,349 105,319
106,559 107,179 108,169 109,169
110,20 111,10 116,20 117,30
118,60 119,30 120,3329 121,529
122,159 123,119 124,20 125,10
131,10 132,10 133,20 134,159
135,60 136,149 137,899 138,119
139,40 147,10 148,30 149,20
150,179 151,1739 152,429 153,90
154,10 163,10 164,30 165,10
166,50 167,7279 168,789 169,149
170,10 179,90 180,159 181,369
182,90 183,619 184,60 185,10
192,10 193,30 194,20 195,10
196,20 197,139 198,409 199,169
200,10 208,20 209,859 210,90
211,30 212,10 213,4959 214,389
215,80 222,10 223,10 225,269
226,119 227,30 228,589 229,90
230,10 243,3329 244,319 245,50
##END=
