##TITLE=Benzene, ethenylpentafluoro-
##JCAMP-DX=4.24
##DATA TYPE=MASS SPECTRUM
##ORIGIN=Japan AIST/NIMC Database- Spectrum MS-IW-2405
##OWNER=NIST Mass Spectrometry Data Center
Collection (C) 2014 copyright by the U.S. Secretary of Commerce
on behalf of the United States of America. All rights reserved.
##CAS REGISTRY NO=653-34-9
##$NIST MASS SPEC NO=239526
##MOLFORM=C8 H3 F5
##MW=194
##$NIST SOURCE=MSDC
##XUNITS=M/Z
##YUNITS=RELATIVE INTENSITY
##XFACTOR=1
##YFACTOR=1
##FIRSTX=20
##LASTX=196
##FIRSTY=20
##MAXX=196
##MINX=20
##MAXY=9999
##MINY=10
##NPOINTS=107
##PEAK TABLE=(XY..XY)
20,20 26,40 27,309 28,40
31,569 36,10 37,70 38,40
39,70 44,10 45,10 49,20
50,80 51,139 55,80 56,80
57,139 60,20 61,229 62,119
63,50 67,10 68,149 69,309
70,10 71,20 72,10 73,30
74,299 75,609 76,20 77,10
79,269 80,259 81,209 82,10
84,40 85,129 86,159 87,409
88,40 91,10 92,249 93,699
94,109 95,10 96,119 97,359
98,299 99,989 100,70 101,10
103,90 104,209 105,499 106,119
107,10 110,70 111,90 112,50
113,50 116,20 117,709 118,109
119,70 122,40 123,1159 124,479
125,1399 126,109 129,30 130,90
131,10 132,50 135,10 136,20
137,159 138,10 141,90 142,339
143,2579 144,1469 145,99 148,149
149,30 150,349 151,20 154,30
155,459 156,109 157,10 161,419
162,30 163,459 164,30 167,50
168,1229 169,80 173,489 174,1209
175,1349 176,129 192,549 193,1809
194,9999 195,869 196,30
##END=
