##TITLE=Butaperazine
##JCAMP-DX=4.24
##DATA TYPE=MASS SPECTRUM
##ORIGIN=AAFS Toxicology Section MS DB Committee, U. Alberta, Canada
##OWNER=NIST Mass Spectrometry Data Center
Collection (C) 2014 copyright by the U.S. Secretary of Commerce
on behalf of the United States of America. All rights reserved.
##CAS REGISTRY NO=653-03-2
##$NIST MASS SPEC NO=247115
##MOLFORM=C24 H31 N3 O S
##MW=409
##$NIST SOURCE=MSDC
##XUNITS=M/Z
##YUNITS=RELATIVE INTENSITY
##XFACTOR=1
##YFACTOR=1
##FIRSTX=42
##LASTX=411
##FIRSTY=3032
##MAXX=411
##MINX=42
##MAXY=9999
##MINY=120
##NPOINTS=126
##PEAK TABLE=(XY..XY)
42,3032 43,3933 44,1341 45,1111
46,220 53,410 54,620 55,990
56,1741 57,840 58,1301 59,150
67,170 68,280 69,650 70,9999
71,3643 72,2552 73,190 77,300
79,130 81,170 82,550 83,670
84,890 85,890 86,170 91,200
95,440 96,590 97,1030 98,1581
99,1301 100,220 105,140 107,120
109,200 111,1321 112,280 113,9999
114,1221 115,160 123,240 125,240
126,140 127,2302 128,250 129,130
135,240 139,660 140,290 141,4474
142,450 152,160 153,230 154,150
166,130 167,240 171,180 178,230
179,450 180,270 190,220 191,130
193,220 194,140 196,930 197,1821
198,740 199,330 204,220 205,140
206,240 208,190 209,160 210,610
211,560 212,730 213,220 222,310
223,480 224,640 225,350 226,390
234,160 236,200 237,370 238,410
239,330 240,280 250,990 251,250
252,240 254,610 255,140 264,130
266,480 267,150 268,890 269,1301
270,300 271,180 280,520 281,150
282,1401 283,4333 284,750 285,390
294,210 295,680 296,1040 297,390
298,160 308,1010 309,730 310,260
322,170 323,140 338,180 352,360
365,320 366,140 408,200 409,4063
410,1060 411,420
##END=
