##TITLE=Benzene, (chloromethyl)pentafluoro-
##JCAMP-DX=4.24
##DATA TYPE=MASS SPECTRUM
##ORIGIN=NIST Mass Spectrometry Data Center
##OWNER=NIST Mass Spectrometry Data Center
Collection (C) 2014 copyright by the U.S. Secretary of Commerce
on behalf of the United States of America. All rights reserved.
##CAS REGISTRY NO=653-35-0
##$NIST MASS SPEC NO=342791
##MOLFORM=C7 H2 Cl F5
##MW=216
##$NIST SOURCE=MSDC
##XUNITS=M/Z
##YUNITS=RELATIVE INTENSITY
##XFACTOR=1
##YFACTOR=1
##FIRSTX=14
##LASTX=219
##FIRSTY=10
##MAXX=219
##MINX=14
##MAXY=9999
##MINY=10
##NPOINTS=106
##PEAK TABLE=(XY..XY)
14,10 19,10 26,10 28,160
31,1511 32,70 33,40 35,310
36,60 37,220 38,70 47,20
48,30 49,100 50,100 51,300
55,110 56,160 57,140 60,30
61,300 62,210 63,10 65,20
67,40 68,210 69,681 70,10
72,10 73,60 74,220 75,430
76,20 79,210 80,360 81,611
82,40 83,60 84,40 85,60
86,160 87,50 88,20 91,290
92,240 93,751 94,30 95,20
98,250 99,500 100,50 103,50
104,40 105,130 106,50 108,30
109,20 110,70 111,280 112,330
113,80 115,20 117,290 118,20
119,40 122,30 123,120 124,70
129,60 130,280 131,500 132,30
133,10 137,130 141,110 143,230
144,10 146,10 147,10 148,30
150,270 151,20 155,430 156,20
161,1581 162,310 163,10 165,10
166,20 167,10 168,20 171,10
177,20 179,120 181,9999 182,731
183,20 184,10 195,10 197,160
198,10 199,50 216,1862 217,190
218,561 219,40
##END=
