##TITLE=Ergostanol
##JCAMP-DX=4.24
##DATA TYPE=MASS SPECTRUM
##ORIGIN=LONG ASHTON RESEARCH STATION, LONG ASHTON, BRISTOL, ENGLAND, TOM LOEFFLER
##OWNER=NIST Mass Spectrometry Data Center
Collection (C) 2014 copyright by the U.S. Secretary of Commerce
on behalf of the United States of America. All rights reserved.
##CAS REGISTRY NO=6538-02-9
##$NIST MASS SPEC NO=79740
##MOLFORM=C28 H50 O
##MW=402
##$NIST SOURCE=MSDC
##XUNITS=M/Z
##YUNITS=RELATIVE INTENSITY
##XFACTOR=1
##YFACTOR=1
##FIRSTX=41
##LASTX=404
##FIRSTY=358
##MAXX=404
##MINX=41
##MAXY=9999
##MINY=103
##NPOINTS=131
##PEAK TABLE=(XY..XY)
41,358 42,115 43,2630 44,130
55,1455 56,139 57,1861 67,1160
68,510 69,1759 70,358 71,1796
79,988 80,271 81,2931 82,819
83,1445 84,401 85,743 91,639
92,245 93,2107 94,877 95,3662
96,602 97,1623 98,108 105,1136
106,1047 107,4183 108,3913 109,2841
110,566 111,1010 117,110 118,117
119,1235 120,986 121,2936 122,2310
123,2485 124,1656 125,591 131,334
132,143 133,1323 134,1081 135,2059
136,1191 137,932 138,487 139,103
145,898 146,282 147,2255 148,1216
149,2177 150,390 151,391 159,689
160,474 161,1400 162,720 163,966
164,400 165,5271 166,1984 167,371
173,646 174,315 175,767 176,320
177,409 178,460 179,240 187,477
188,319 189,472 190,999 191,674
192,312 193,123 201,1264 202,304
203,428 204,229 205,302 206,426
207,137 213,124 215,9999 216,4223
217,3732 218,673 219,1145 220,365
222,189 229,265 230,768 231,1924
232,992 233,9118 234,6242 235,1005
246,105 247,132 248,1070 249,175
257,520 261,155 262,106 273,130
274,118 276,1093 277,288 285,188
289,107 302,230 303,247 330,105
345,403 369,972 370,282 384,198
385,172 387,2162 388,587 400,363
402,3407 403,1021 404,111
##END=
