##TITLE=2-Methoxy-5-nitrobenzotrifluoride
##JCAMP-DX=4.24
##DATA TYPE=MASS SPECTRUM
##ORIGIN=NIST Mass Spectrometry Data Center
##OWNER=NIST Mass Spectrometry Data Center
Collection (C) 2014 copyright by the U.S. Secretary of Commerce
on behalf of the United States of America. All rights reserved.
##CAS REGISTRY NO=654-76-2
##$NIST MASS SPEC NO=343218
##MOLFORM=C8 H6 F3 N O3
##MW=221
##$NIST SOURCE=MSDC
##XUNITS=M/Z
##YUNITS=RELATIVE INTENSITY
##XFACTOR=1
##YFACTOR=1
##FIRSTX=12
##LASTX=223
##FIRSTY=50
##MAXX=223
##MINX=12
##MAXY=9999
##MINY=10
##NPOINTS=148
##PEAK TABLE=(XY..XY)
12,50 13,50 14,200 15,1351
16,60 17,20 18,10 25,30
26,170 27,80 28,160 29,561
30,2482 31,320 33,100 36,20
37,320 38,561 39,290 40,30
41,100 42,40 43,40 44,50
45,40 46,440 47,20 49,80
50,731 51,651 52,170 53,490
54,140 55,60 56,180 57,270
58,20 59,20 60,50 61,510
62,1201 63,4604 64,270 65,110
66,90 67,40 68,230 69,921
70,220 71,110 72,20 73,220
74,1061 75,1912 76,270 77,500
78,160 79,260 80,260 81,1051
82,260 83,100 84,20 85,70
86,40 87,290 88,130 89,70
90,70 91,50 92,120 93,330
94,500 95,881 96,220 97,140
99,350 101,2102 102,130 103,40
104,30 105,60 106,290 107,641
108,340 109,80 110,100 111,70
112,440 113,490 114,270 115,110
117,50 118,80 119,190 120,300
121,50 122,50 123,200 125,1371
126,731 127,4504 128,510 129,3773
130,320 131,540 132,3503 133,380
134,30 135,10 136,70 141,470
142,200 143,611 144,591 145,3123
146,300 147,120 148,300 149,10
152,200 154,210 155,40 157,1211
158,120 159,100 160,1241 161,130
163,751 164,70 172,20 174,120
175,691 176,180 188,30 189,50
191,7827 192,661 193,50 202,1071
203,90 205,561 206,40 218,20
219,30 221,9999 222,1001 223,120
##END=
