##TITLE=Quinoline, 6-(1-methylpropyl)-
##JCAMP-DX=4.24
##DATA TYPE=MASS SPECTRUM
##ORIGIN=W.Jennings, T.Shibamoto
##OWNER=NIST Mass Spectrometry Data Center
Collection (C) 2014 copyright by the U.S. Secretary of Commerce
on behalf of the United States of America. All rights reserved.
##CAS REGISTRY NO=65442-31-1
##$NIST MASS SPEC NO=285085
##MOLFORM=C13 H15 N
##MW=185
##$NIST SOURCE=MSDC
##XUNITS=M/Z
##YUNITS=RELATIVE INTENSITY
##XFACTOR=1
##YFACTOR=1
##FIRSTX=41
##LASTX=186
##FIRSTY=70
##MAXX=186
##MINX=41
##MAXY=9999
##MINY=70
##NPOINTS=21
##PEAK TABLE=(XY..XY)
41,70 117,70 127,190 128,390
129,240 130,240 132,70 141,70
142,791 143,70 152,70 153,190
154,1311 155,711 156,9999 157,2192
158,70 168,70 170,591 185,3623
186,490
##END=
