##TITLE=2-Fluorobenzyl mercaptan
##JCAMP-DX=4.24
##DATA TYPE=MASS SPECTRUM
##ORIGIN=NIST Mass Spectrometry Data Center, 1994
##OWNER=NIST Mass Spectrometry Data Center
Collection (C) 2014 copyright by the U.S. Secretary of Commerce
on behalf of the United States of America. All rights reserved.
##CAS REGISTRY NO=655-20-9
##$NIST MASS SPEC NO=136515
##MOLFORM=C7 H7 F S
##MW=142
##$NIST SOURCE=MSDC
##XUNITS=M/Z
##YUNITS=RELATIVE INTENSITY
##XFACTOR=1
##YFACTOR=1
##FIRSTX=9
##LASTX=145
##FIRSTY=1
##MAXX=145
##MINX=9
##MAXY=9999
##MINY=1
##NPOINTS=100
##PEAK TABLE=(XY..XY)
9,1 10,1 11,3 13,5
18,19 20,12 24,2 25,10
26,76 27,67 31,66 32,137
33,484 34,61 35,19 36,20
37,129 38,234 39,591 40,22
45,1645 46,114 47,165 48,17
49,89 50,501 51,453 52,72
53,14 55,20 56,132 57,979
58,90 59,123 60,192 61,263
62,362 63,655 64,57 65,30
66,5 68,128 69,336 70,178
71,137 72,11 73,25 74,99
75,293 76,59 77,210 78,34
79,14 80,59 81,400 82,176
83,2298 84,143 85,55 86,76
87,103 88,38 89,291 90,30
91,14 92,26 93,95 94,64
95,238 96,190 97,70 98,8
100,4 101,2 102,4 103,6
104,7 105,41 107,641 109,9999
110,741 111,32 112,8 113,13
114,6 115,16 117,10 119,15
120,8 121,77 122,9 123,10
124,6 126,11 127,3 140,39
142,2582 143,215 144,119 145,8
##END=
