##TITLE=Thozalinone
##JCAMP-DX=4.24
##DATA TYPE=MASS SPECTRUM
##ORIGIN=Finnigan MAT: Toxicological Library (LIBR-TX)
##OWNER=NIST Mass Spectrometry Data Center
Collection (C) 2014 copyright by the U.S. Secretary of Commerce
on behalf of the United States of America. All rights reserved.
##CAS REGISTRY NO=655-05-0
##$NIST MASS SPEC NO=121014
##MOLFORM=C11 H12 N2 O2
##MW=204
##$NIST SOURCE=MSDC
##XUNITS=M/Z
##YUNITS=RELATIVE INTENSITY
##XFACTOR=1
##YFACTOR=1
##FIRSTX=42
##LASTX=205
##FIRSTY=473
##MAXX=205
##MINX=42
##MAXY=9999
##MINY=195
##NPOINTS=19
##PEAK TABLE=(XY..XY)
42,473 51,710 63,516 69,973
70,9999 71,808 72,671 77,1010
83,1004 89,1209 90,1056 98,4661
99,785 105,310 113,594 114,285
132,195 204,2671 205,406
##END=
