##TITLE=1,2-Ethanediol, 1,2-diphenyl-, (R*,R*)-(.+/-.)-
##JCAMP-DX=4.24
##DATA TYPE=MASS SPECTRUM
##ORIGIN=Leung Pu, NIH, Bethesda, Maryland, U.S.
##OWNER=NIST Mass Spectrometry Data Center
Collection (C) 2014 copyright by the U.S. Secretary of Commerce
on behalf of the United States of America. All rights reserved.
##CAS REGISTRY NO=655-48-1
##$NIST MASS SPEC NO=127756
##MOLFORM=C14 H14 O2
##MW=214
##$NIST SOURCE=MSDC
##XUNITS=M/Z
##YUNITS=RELATIVE INTENSITY
##XFACTOR=1
##YFACTOR=1
##FIRSTX=41
##LASTX=215
##FIRSTY=178
##MAXX=215
##MINX=41
##MAXY=9999
##MINY=6
##NPOINTS=112
##PEAK TABLE=(XY..XY)
41,178 42,73 43,234 44,269
45,62 46,8 47,8 49,57
50,426 51,1332 52,422 53,338
54,30 55,79 56,81 57,59
58,13 59,8 60,23 61,13
62,61 63,233 64,62 65,135
66,35 67,30 68,19 69,110
70,32 71,32 72,8 73,13
74,78 75,67 76,142 77,5073
78,1094 79,7444 80,527 81,48
82,30 83,41 84,15 85,23
86,29 87,27 88,21 89,249
90,227 91,275 92,41 93,28
94,8 95,19 97,22 98,13
99,17 100,19 101,10 102,33
103,8 105,1010 106,352 107,9999
108,8374 109,648 111,14 113,10
114,7 115,38 116,7 118,12
119,26 120,8 121,15 123,7
124,21 125,9 126,13 127,14
128,22 129,6 131,32 139,26
141,16 149,56 150,16 151,29
152,103 153,19 155,6 163,18
164,24 165,176 166,43 167,58
168,14 169,27 176,19 177,14
178,34 179,32 180,36 181,18
182,7 183,8 195,8 196,11
197,107 198,19 214,59 215,9
##END=
