##TITLE=Benzoic acid, 2-(methylamino)-, 2-methylpropyl ester
##JCAMP-DX=4.24
##DATA TYPE=MASS SPECTRUM
##ORIGIN=W.Jennings, T.Shibamoto
##OWNER=NIST Mass Spectrometry Data Center
Collection (C) 2014 copyright by the U.S. Secretary of Commerce
on behalf of the United States of America. All rights reserved.
##CAS REGISTRY NO=65505-24-0
##$NIST MASS SPEC NO=285069
##MOLFORM=C12 H17 N O2
##MW=207
##$NIST SOURCE=MSDC
##XUNITS=M/Z
##YUNITS=RELATIVE INTENSITY
##XFACTOR=1
##YFACTOR=1
##FIRSTX=28
##LASTX=208
##FIRSTY=70
##MAXX=208
##MINX=28
##MAXY=9999
##MINY=70
##NPOINTS=36
##PEAK TABLE=(XY..XY)
28,70 29,1041 30,1041 41,861
43,70 57,641 73,390 77,1121
78,1231 79,851 83,1732 85,70
91,320 92,190 100,70 103,1441
104,4094 105,9999 106,2843 107,290
110,1621 116,290 117,1832 118,190
120,70 123,70 132,3133 133,5915
134,4394 135,490 149,70 150,390
151,8197 152,851 207,5995 208,861
##END=
