##TITLE=Pentakis(methylthio)benzene
##JCAMP-DX=4.24
##DATA TYPE=MASS SPECTRUM
##ORIGIN=NIST Mass Spectrometry Data Center, 1994
##OWNER=NIST Mass Spectrometry Data Center
Collection (C) 2014 copyright by the U.S. Secretary of Commerce
on behalf of the United States of America. All rights reserved.
##CAS REGISTRY NO=65516-74-7
##$NIST MASS SPEC NO=136179
##MOLFORM=C11 H16 S5
##MW=308
##$NIST SOURCE=MSDC
##XUNITS=M/Z
##YUNITS=RELATIVE INTENSITY
##XFACTOR=1
##YFACTOR=1
##FIRSTX=15
##LASTX=313
##FIRSTY=434
##MAXX=313
##MINX=15
##MAXY=9999
##MINY=26
##NPOINTS=153
##PEAK TABLE=(XY..XY)
15,434 17,28 18,52 35,40
39,60 45,449 46,337 47,352
48,67 51,34 58,47 61,245
62,70 63,91 64,62 65,46
68,36 69,606 70,91 71,140
72,26 75,38 76,42 77,69
79,62 81,152 82,109 83,76
84,53 85,43 88,154 89,38
90,35 91,235 92,85 93,607
94,150 95,127 96,101 97,80
98,50 100,218 101,290 102,51
103,106 105,136 106,128 107,101
108,179 109,89 110,27 112,236
113,84 114,225 115,384 116,89
117,57 120,47 121,157 122,259
124,159 125,277 126,74 127,158
128,50 131,255 134,89 135,39
136,142 137,231 138,141 139,221
140,267 141,88 147,127 151,137
152,276 153,316 154,206 155,93
159,35 165,78 166,99 167,285
168,60 169,54 170,56 171,168
172,97 173,62 181,46 183,262
184,323 185,257 186,136 187,72
196,42 197,240 198,215 199,539
200,185 201,158 202,98 203,49
204,38 213,73 214,102 215,334
216,277 217,219 218,80 219,43
228,45 229,347 230,735 231,422
232,393 233,152 234,59 243,47
244,54 245,505 246,2181 247,557
248,765 249,129 250,116 259,40
260,276 261,269 262,413 263,456
264,141 265,103 275,34 278,5584
279,874 280,1299 281,178 282,123
291,47 292,422 293,1597 294,355
295,395 296,84 297,45 308,9999
309,1780 310,2325 311,386 312,261
313,43
##END=
