##TITLE=Cyclohexanecarboxylic acid isopropyl ester
##JCAMP-DX=4.24
##DATA TYPE=MASS SPECTRUM
##ORIGIN=Japan AIST/NIMC Database- Spectrum MS-NW-3837
##OWNER=NIST Mass Spectrometry Data Center
Collection (C) 2014 copyright by the U.S. Secretary of Commerce
on behalf of the United States of America. All rights reserved.
##CAS REGISTRY NO=6553-80-6
##$NIST MASS SPEC NO=232365
##MOLFORM=C10 H18 O2
##MW=170
##$NIST SOURCE=MSDC
##XUNITS=M/Z
##YUNITS=RELATIVE INTENSITY
##XFACTOR=1
##YFACTOR=1
##FIRSTX=14
##LASTX=171
##FIRSTY=20
##MAXX=171
##MINX=14
##MAXY=9999
##MINY=10
##NPOINTS=93
##PEAK TABLE=(XY..XY)
14,20 15,229 17,20 18,70
26,90 27,1559 28,169 29,759
30,20 31,80 32,20 36,20
37,20 38,60 39,1269 40,229
41,4019 42,689 43,9689 44,359
45,259 47,60 50,40 51,99
52,60 53,419 54,529 55,6479
56,1309 57,109 58,60 59,1419
60,239 61,199 62,10 63,20
65,60 66,70 67,899 68,1049
69,539 70,60 71,40 72,20
73,1769 74,99 75,10 77,80
78,30 79,169 80,80 81,899
82,789 83,9999 84,699 85,40
86,179 87,269 88,10 91,20
92,10 93,149 94,20 95,20
96,10 97,30 98,30 99,399
100,80 101,10 102,10 105,30
108,40 109,109 110,689 111,2799
112,219 113,139 114,20 115,249
116,20 119,30 125,10 126,30
127,109 128,4109 129,4929 130,409
131,40 155,90 156,10 170,249
171,30
##END=
