##TITLE=Cyclobutane, 1,2-diethenyl-, trans-
##JCAMP-DX=4.24
##DATA TYPE=MASS SPECTRUM
##ORIGIN=D.HENNEBERG, MAX-PLANCK INSTITUTE, MULHEIM, WEST GERMANY
##OWNER=NIST Mass Spectrometry Data Center
Collection (C) 2014 copyright by the U.S. Secretary of Commerce
on behalf of the United States of America. All rights reserved.
##CAS REGISTRY NO=6553-48-6
##$NIST MASS SPEC NO=60708
##MOLFORM=C8 H12
##MW=108
##$NIST SOURCE=MSDC
##XUNITS=M/Z
##YUNITS=RELATIVE INTENSITY
##XFACTOR=1
##YFACTOR=1
##FIRSTX=26
##LASTX=109
##FIRSTY=167
##MAXX=109
##MINX=26
##MAXY=9999
##MINY=1
##NPOINTS=76
##PEAK TABLE=(XY..XY)
26,167 27,1288 28,783 29,157
30,3 31,66 32,58 33,2
34,2 36,21 37,38 38,116
39,2857 40,214 41,828 42,40
43,16 44,34 45,26 46,1
47,3 48,5 49,35 50,223
51,431 52,276 53,987 54,9999
55,506 56,20 57,6 58,7
59,27 60,2 61,16 62,31
63,78 64,17 65,285 66,734
67,1282 68,77 69,15 70,7
71,4 73,45 74,36 75,26
76,14 77,476 78,344 79,2220
80,1050 81,78 82,6 87,3
88,2 89,14 90,2 91,229
92,32 93,844 94,79 95,7
96,6 97,4 98,3 101,3
102,6 103,15 104,8 105,22
106,4 107,58 108,57 109,9
##END=
