##TITLE=Cyclohexanecarboxylic acid, pentyl ester
##JCAMP-DX=4.24
##DATA TYPE=MASS SPECTRUM
##ORIGIN=V.G.Zaikin, TIPS RAS, Moscow, Russia
##OWNER=NIST Mass Spectrometry Data Center
Collection (C) 2014 copyright by the U.S. Secretary of Commerce
on behalf of the United States of America. All rights reserved.
##CAS REGISTRY NO=6553-83-9
##$NIST MASS SPEC NO=279534
##MOLFORM=C12 H22 O2
##MW=198
##$NIST SOURCE=MSDC
##XUNITS=M/Z
##YUNITS=RELATIVE INTENSITY
##XFACTOR=1
##YFACTOR=1
##FIRSTX=26
##LASTX=198
##FIRSTY=230
##MAXX=198
##MINX=26
##MAXY=9999
##MINY=20
##NPOINTS=63
##PEAK TABLE=(XY..XY)
26,230 27,1381 28,390 29,1792
38,100 39,1351 40,290 41,4384
42,1792 43,4054 44,661 45,120
47,90 51,260 52,70 53,561
54,791 55,6946 56,1181 57,380
60,280 61,210 65,110 66,90
67,1181 68,1051 69,951 70,3883
71,821 73,1672 74,90 77,150
79,250 80,90 81,1031 82,751
83,7767 84,591 85,150 86,250
87,210 91,60 93,450 94,30
95,110 96,110 97,160 98,90
99,290 109,180 110,761 111,3453
112,250 113,170 115,190 127,180
128,1111 129,9999 130,961 131,90
143,250 144,30 198,20
##END=
