##TITLE=N-t-Butylmethacrylamide
##JCAMP-DX=4.24
##DATA TYPE=MASS SPECTRUM
##ORIGIN=NIST Mass Spectrometry Data Center
##OWNER=NIST Mass Spectrometry Data Center
Collection (C) 2014 copyright by the U.S. Secretary of Commerce
on behalf of the United States of America. All rights reserved.
##CAS REGISTRY NO=6554-73-0
##$NIST MASS SPEC NO=340780
##MOLFORM=C8 H15 N O
##MW=141
##$NIST SOURCE=MSDC
##XUNITS=M/Z
##YUNITS=RELATIVE INTENSITY
##XFACTOR=1
##YFACTOR=1
##FIRSTX=15
##LASTX=143
##FIRSTY=160
##MAXX=143
##MINX=15
##MAXY=9999
##MINY=10
##NPOINTS=52
##PEAK TABLE=(XY..XY)
15,160 18,10 26,40 27,300
29,571 30,120 37,40 38,140
39,1962 40,410 41,5745 42,1431
43,130 44,210 45,10 50,20
51,30 52,40 53,120 54,80
55,290 56,991 57,1922 58,961
59,50 66,10 67,20 69,9999
70,550 71,40 72,10 80,10
82,30 83,30 84,50 85,110
86,2592 87,120 96,70 97,30
98,390 99,180 100,30 110,30
124,10 126,3904 127,310 128,10
140,20 141,1772 142,190 143,10
##END=
