##TITLE=Silane, dimethyl(octadecyloxy)propyl-
##JCAMP-DX=4.24
##DATA TYPE=MASS SPECTRUM
##ORIGIN=D.J.HARVEY UNIV. DEPT. OF PHARMACOLOGY, OXFORD, UK
##OWNER=NIST Mass Spectrometry Data Center
Collection (C) 2014 copyright by the U.S. Secretary of Commerce
on behalf of the United States of America. All rights reserved.
##CAS REGISTRY NO=65597-99-1
##$NIST MASS SPEC NO=68339
##MOLFORM=C23 H50 O Si
##MW=370
##$NIST SOURCE=MSDC
##XUNITS=M/Z
##YUNITS=RELATIVE INTENSITY
##XFACTOR=1
##YFACTOR=1
##FIRSTX=40
##LASTX=330
##FIRSTY=281
##MAXX=330
##MINX=40
##MAXY=9999
##MINY=99
##NPOINTS=43
##PEAK TABLE=(XY..XY)
40,281 41,121 43,324 55,339
57,2010 59,132 61,278 67,99
69,1296 70,124 71,1367 73,104
75,3516 76,289 77,344 79,127
81,152 83,2496 84,182 85,931
89,1379 90,116 95,99 97,2726
98,223 99,372 101,339 103,223
111,1577 112,144 113,165 115,152
119,106 125,701 129,167 133,109
139,261 153,139 313,157 327,9999
328,2764 329,739 330,129
##END=
