##TITLE=Benzene, 1,3,5-tris(1-methylpropyl)-
##JCAMP-DX=4.24
##DATA TYPE=MASS SPECTRUM
##OWNER=NIST Mass Spectrometry Data Center
Collection (C) 2014 copyright by the U.S. Secretary of Commerce
on behalf of the United States of America. All rights reserved.
##CAS REGISTRY NO=6565-55-5
##$NIST MASS SPEC NO=11885
##MOLFORM=C18 H30
##MW=246
##$NIST SOURCE=MSDC
##XUNITS=M/Z
##YUNITS=RELATIVE INTENSITY
##XFACTOR=1
##YFACTOR=1
##FIRSTX=41
##LASTX=246
##FIRSTY=2722
##MAXX=246
##MINX=41
##MAXY=9999
##MINY=40
##NPOINTS=53
##PEAK TABLE=(XY..XY)
41,2722 42,280 43,1021 51,200
53,240 55,811 56,160 57,3173
58,160 60,80 62,240 63,80
64,80 65,240 66,80 67,160
77,280 78,160 79,200 91,891
92,80 93,80 95,80 98,80
103,80 104,80 105,651 106,80
107,40 115,330 116,160 117,410
118,80 119,370 120,80 128,120
129,280 130,80 131,120 132,40
133,160 145,120 147,280 159,120
161,330 188,80 189,120 203,330
204,160 217,9999 218,1021 231,200
246,1021
##END=
