##TITLE=10,18-Bisnorabieta-5,7,9(10),11,13-pentaene
##JCAMP-DX=4.24
##DATA TYPE=MASS SPECTRUM
##ORIGIN=P.-A.Hynning ET AL.J.Chrom.,643,439(1993)
##OWNER=NIST Mass Spectrometry Data Center
Collection (C) 2014 copyright by the U.S. Secretary of Commerce
on behalf of the United States of America. All rights reserved.
##CAS REGISTRY NO=6566-19-4
##$NIST MASS SPEC NO=293167
##MOLFORM=C18 H22
##MW=238
##$NIST SOURCE=MSDC
##XUNITS=M/Z
##YUNITS=RELATIVE INTENSITY
##XFACTOR=1
##YFACTOR=1
##FIRSTX=51
##LASTX=240
##FIRSTY=150
##MAXX=240
##MINX=51
##MAXY=9999
##MINY=50
##NPOINTS=119
##PEAK TABLE=(XY..XY)
51,150 53,430 55,871 59,130
65,200 67,380 68,200 69,641
76,150 77,530 78,150 79,310
80,230 81,761 82,280 83,460
84,150 87,100 89,410 90,330
91,530 93,150 94,180 95,871
96,330 97,480 101,130 102,180
103,330 104,941 105,360 106,130
107,200 109,741 110,80 111,811
115,430 116,80 117,100 118,180
120,50 121,130 122,80 123,460
124,100 125,100 128,230 129,100
130,150 131,230 135,230 136,250
137,871 138,200 139,250 141,360
148,100 149,150 150,200 151,641
152,1251 153,1932 154,330 155,50
159,50 160,130 161,180 163,180
164,100 165,4634 166,2292 167,3743
168,530 175,280 176,280 177,360
178,2342 179,2442 180,1351 181,6466
182,941 183,360 184,150 185,80
188,80 189,430 190,310 191,591
192,561 193,761 194,480 195,3443
196,711 199,80 200,80 203,180
204,230 205,250 206,150 207,761
208,380 209,410 210,791 211,150
215,100 216,130 217,130 220,100
221,230 222,100 223,9999 224,1882
225,360 226,130 236,150 237,330
238,5955 239,1171 240,230
##END=
