##TITLE=.alpha.,.alpha.,.alpha.-Trifluoro-m-formotoluidide
##JCAMP-DX=4.24
##DATA TYPE=MASS SPECTRUM
##ORIGIN=NIST Mass Spectrometry Data Center, 1994
##OWNER=NIST Mass Spectrometry Data Center
Collection (C) 2014 copyright by the U.S. Secretary of Commerce
on behalf of the United States of America. All rights reserved.
##CAS REGISTRY NO=657-78-3
##$NIST MASS SPEC NO=135729
##MOLFORM=C8 H6 F3 N O
##MW=189
##$NIST SOURCE=MSDC
##XUNITS=M/Z
##YUNITS=RELATIVE INTENSITY
##XFACTOR=1
##YFACTOR=1
##FIRSTX=12
##LASTX=191
##FIRSTY=21
##MAXX=191
##MINX=12
##MAXY=9999
##MINY=8
##NPOINTS=128
##PEAK TABLE=(XY..XY)
12,21 14,8 16,82 17,34
18,74 19,11 20,76 25,34
26,121 27,91 28,1434 29,4707
30,116 31,107 32,20 33,65
36,37 37,725 38,1691 39,2291
40,476 41,664 42,139 43,11
44,53 46,82 48,32 49,166
50,1395 51,831 52,924 53,128
54,177 55,60 56,181 57,911
58,58 60,66 61,514 62,1016
63,2845 64,1461 65,2386 66,425
67,109 68,181 69,1129 70,220
71,135 72,50 73,113 74,466
75,1723 76,370 77,195 78,53
79,50 80,106 81,261 82,152
83,1245 84,652 85,82 86,62
87,229 88,1010 89,200 90,323
91,909 92,490 93,172 94,185
95,849 96,150 97,28 98,38
99,296 100,212 101,172 102,209
103,32 104,27 106,75 107,144
108,71 109,148 110,27 111,4401
112,534 113,2028 114,6956 115,854
116,58 118,31 119,116 120,737
121,192 122,326 123,56 124,31
125,470 126,71 127,115 132,382
133,1046 134,770 135,66 138,41
140,1628 141,1192 142,3293 143,340
144,41 145,817 146,88 158,42
160,1875 161,9999 162,1018 163,39
168,99 170,1834 171,193 172,50
187,94 189,9021 190,834 191,34
##END=
