##TITLE=2,3,4-Trimethyl-1-pentanol
##JCAMP-DX=4.24
##DATA TYPE=MASS SPECTRUM
##ORIGIN=K.Yu ET AL.,Biomed. Mass Spectrom.,14,639(1987)
##OWNER=NIST Mass Spectrometry Data Center
Collection (C) 2014 copyright by the U.S. Secretary of Commerce
on behalf of the United States of America. All rights reserved.
##CAS REGISTRY NO=6570-88-3
##$NIST MASS SPEC NO=292777
##MOLFORM=C8 H18 O
##MW=130
##$NIST SOURCE=MSDC
##XUNITS=M/Z
##YUNITS=RELATIVE INTENSITY
##XFACTOR=1
##YFACTOR=1
##FIRSTX=39
##LASTX=98
##FIRSTY=420
##MAXX=98
##MINX=39
##MAXY=9999
##MINY=90
##NPOINTS=23
##PEAK TABLE=(XY..XY)
39,420 40,280 41,2132 42,420
43,3243 45,1852 53,140 55,2552
56,741 57,5695 58,370 59,190
67,90 68,230 69,3563 70,9999
71,4174 72,90 83,1762 84,90
87,190 97,3293 98,190
##END=
