##TITLE=3,4-Dichlorobenzonitrile
##JCAMP-DX=4.24
##DATA TYPE=MASS SPECTRUM
##ORIGIN=NIST Mass Spectrometry Data Center, 1994
##OWNER=NIST Mass Spectrometry Data Center
Collection (C) 2014 copyright by the U.S. Secretary of Commerce
on behalf of the United States of America. All rights reserved.
##CAS REGISTRY NO=6574-99-8
##$NIST MASS SPEC NO=135038
##MOLFORM=C7 H3 Cl2 N
##MW=171
##$NIST SOURCE=MSDC
##XUNITS=M/Z
##YUNITS=RELATIVE INTENSITY
##XFACTOR=1
##YFACTOR=1
##FIRSTX=12
##LASTX=176
##FIRSTY=22
##MAXX=176
##MINX=12
##MAXY=9999
##MINY=5
##NPOINTS=79
##PEAK TABLE=(XY..XY)
12,22 18,19 24,12 25,47
26,82 27,47 28,109 32,5
35,201 36,152 37,545 38,258
39,53 43,17 47,142 48,90
49,468 50,1399 51,262 52,58
54,53 55,35 60,226 61,328
62,327 63,156 64,92 68,185
71,59 72,365 73,625 74,847
75,963 76,295 77,20 83,46
84,469 85,461 86,409 88,59
94,31 95,18 96,59 97,70
98,137 99,673 100,2158 101,255
107,85 108,117 109,417 110,363
111,188 112,108 113,19 119,18
120,39 121,22 122,59 124,26
133,21 134,79 135,366 136,2028
137,262 138,655 139,58 143,19
144,129 145,38 146,81 147,15
148,15 171,9999 172,950 173,6328
174,499 175,1014 176,76
##END=
