##TITLE=6-Chloroanthranilonitrile
##JCAMP-DX=4.24
##DATA TYPE=MASS SPECTRUM
##ORIGIN=NIST Mass Spectrometry Data Center, 1994
##OWNER=NIST Mass Spectrometry Data Center
Collection (C) 2014 copyright by the U.S. Secretary of Commerce
on behalf of the United States of America. All rights reserved.
##CAS REGISTRY NO=6575-11-7
##$NIST MASS SPEC NO=133961
##MOLFORM=C7 H5 Cl N2
##MW=152
##$NIST SOURCE=MSDC
##XUNITS=M/Z
##YUNITS=RELATIVE INTENSITY
##XFACTOR=1
##YFACTOR=1
##FIRSTX=15
##LASTX=156
##FIRSTY=78
##MAXX=156
##MINX=15
##MAXY=9999
##MINY=10
##NPOINTS=77
##PEAK TABLE=(XY..XY)
15,78 17,34 24,27 25,86
26,374 27,370 28,300 29,95
35,238 36,225 37,1132 38,1182
39,1114 40,411 41,618 42,100
45,288 47,203 48,133 49,480
50,654 51,649 52,1221 53,220
54,123 59,515 60,246 61,939
62,1465 63,2414 64,931 65,633
66,276 67,47 71,58 72,168
73,398 74,315 75,557 76,708
77,311 78,71 84,87 85,120
86,359 87,446 88,875 89,975
90,2830 91,323 92,30 96,40
97,236 98,391 99,270 100,226
101,62 109,23 110,25 112,43
114,22 115,112 116,670 117,1395
118,127 124,693 125,2762 126,386
127,927 128,70 138,49 139,30
152,9999 153,849 154,3299 155,277
156,10
##END=
