##TITLE=Benzonitrile, 2-chloro-6-methyl-
##JCAMP-DX=4.24
##DATA TYPE=MASS SPECTRUM
##ORIGIN=J.T. CLERC, ORGANIC CHEM. LAB., ETH, ZURICH, SWITZ.
##OWNER=NIST Mass Spectrometry Data Center
Collection (C) 2014 copyright by the U.S. Secretary of Commerce
on behalf of the United States of America. All rights reserved.
##CAS REGISTRY NO=6575-09-3
##$NIST MASS SPEC NO=65094
##MOLFORM=C8 H6 Cl N
##MW=151
##$NIST SOURCE=MSDC
##XUNITS=M/Z
##YUNITS=RELATIVE INTENSITY
##XFACTOR=1
##YFACTOR=1
##FIRSTX=25
##LASTX=154
##FIRSTY=10
##MAXX=154
##MINX=25
##MAXY=9999
##MINY=10
##NPOINTS=68
##PEAK TABLE=(XY..XY)
25,10 26,246 27,483 28,483
29,10 32,10 35,69 36,128
37,778 38,778 39,1665 40,128
41,128 43,128 44,10 47,10
48,10 49,424 50,1015 51,956
52,246 53,10 57,483 60,246
61,719 62,1074 63,1901 64,601
65,187 66,10 72,10 73,542
74,305 75,719 76,424 77,10
84,128 85,187 86,365 87,601
88,897 89,2256 90,424 91,10
97,128 98,128 99,246 100,246
101,10 102,10 110,10 111,10
112,69 113,69 114,719 115,2315
116,9999 117,837 118,69 123,365
124,246 125,187 126,69 150,719
151,5093 152,660 153,1606 154,187
##END=
