##TITLE=3,5-Dichlorobenzonitrile
##JCAMP-DX=4.24
##DATA TYPE=MASS SPECTRUM
##ORIGIN=Japan AIST/NIMC Database- Spectrum MS-NW-6528
##OWNER=NIST Mass Spectrometry Data Center
Collection (C) 2014 copyright by the U.S. Secretary of Commerce
on behalf of the United States of America. All rights reserved.
##CAS REGISTRY NO=6575-00-4
##$NIST MASS SPEC NO=235077
##MOLFORM=C7 H3 Cl2 N
##MW=171
##$NIST SOURCE=MSDC
##XUNITS=M/Z
##YUNITS=RELATIVE INTENSITY
##XFACTOR=1
##YFACTOR=1
##FIRSTX=25
##LASTX=176
##FIRSTY=20
##MAXX=176
##MINX=25
##MAXY=9999
##MINY=10
##NPOINTS=78
##PEAK TABLE=(XY..XY)
25,20 26,20 27,10 28,10
35,40 36,99 37,289 38,159
39,30 43,10 47,80 48,50
49,239 50,1039 51,139 52,40
54,30 55,20 60,139 61,179
62,149 63,90 64,40 67,139
68,80 69,20 71,30 72,169
73,339 74,529 75,679 76,249
77,20 83,20 84,259 85,349
86,209 87,109 88,30 95,10
96,20 97,40 98,80 99,399
100,1589 101,209 102,10 107,30
108,60 109,279 110,239 111,139
112,80 113,20 119,10 120,30
121,10 122,30 124,10 133,10
134,60 135,249 136,1839 137,219
138,609 139,50 144,80 145,40
146,60 147,20 148,10 170,20
171,9999 172,839 173,6429 174,519
175,1069 176,90
##END=
