##TITLE=1,2,5-Trithiepane
##JCAMP-DX=4.24
##DATA TYPE=MASS SPECTRUM
##ORIGIN=VERIFINN
##OWNER=NIST Mass Spectrometry Data Center
Collection (C) 2014 copyright by the U.S. Secretary of Commerce
on behalf of the United States of America. All rights reserved.
##CAS REGISTRY NO=6576-93-8
##$NIST MASS SPEC NO=289545
##MOLFORM=C4 H8 S3
##MW=152
##$NIST SOURCE=MSDC
##XUNITS=M/Z
##YUNITS=RELATIVE INTENSITY
##XFACTOR=1
##YFACTOR=1
##FIRSTX=26
##LASTX=156
##FIRSTY=440
##MAXX=156
##MINX=26
##MAXY=9999
##MINY=60
##NPOINTS=41
##PEAK TABLE=(XY..XY)
26,440 27,1712 28,380 32,180
35,190 41,210 45,3363 46,1021
47,631 57,360 58,1541 59,4284
60,4994 61,1201 64,2202 66,220
72,80 73,380 78,1972 79,110
80,170 87,3753 88,220 89,210
92,1621 93,170 96,831 105,671
106,1571 107,110 108,140 119,410
123,60 124,2482 125,90 126,310
152,9999 153,621 154,1291 155,70
156,60
##END=
