##TITLE=2,6-Dichlorobenzenesulfonyl chloride
##JCAMP-DX=4.24
##DATA TYPE=MASS SPECTRUM
##ORIGIN=NIST Mass Spectrometry Data Center, 1994
##OWNER=NIST Mass Spectrometry Data Center
Collection (C) 2014 copyright by the U.S. Secretary of Commerce
on behalf of the United States of America. All rights reserved.
##CAS REGISTRY NO=6579-54-0
##$NIST MASS SPEC NO=136709
##MOLFORM=C6 H3 Cl3 O2 S
##MW=244
##$NIST SOURCE=MSDC
##XUNITS=M/Z
##YUNITS=RELATIVE INTENSITY
##XFACTOR=1
##YFACTOR=1
##FIRSTX=12
##LASTX=250
##FIRSTY=147
##MAXX=250
##MINX=12
##MAXY=9999
##MINY=32
##NPOINTS=111
##PEAK TABLE=(XY..XY)
12,147 16,365 17,32 18,142
25,143 26,141 34,91 35,1388
36,1551 37,2489 38,1701 39,555
44,119 47,608 48,6446 49,1836
50,4110 51,1040 53,207 55,1150
56,364 57,82 60,509 61,1293
62,836 63,1195 64,7030 65,178
66,433 68,144 69,783 70,118
71,366 72,839 73,3023 74,7321
75,7964 76,746 79,333 80,77
81,360 82,152 83,514 84,3345
85,1688 86,1307 87,546 90,141
91,187 92,112 93,179 94,77
95,407 96,186 97,389 98,150
99,239 101,84 103,91 105,364
106,344 107,444 108,708 109,8565
110,1786 111,5599 112,814 113,955
118,127 119,328 120,105 121,290
123,88 129,109 130,148 133,796
135,534 137,126 142,304 143,150
145,9999 146,7011 147,7049 148,4644
149,1296 150,766 161,3678 162,347
163,2376 164,172 165,520 167,110
178,124 180,695 182,604 184,186
193,136 209,9469 210,848 211,6768
212,488 213,1314 214,138 224,103
226,189 244,2751 246,2913 247,257
248,1046 249,77 250,169
##END=
