##TITLE=Acetic acid, trifluoro-, 4-nitrophenyl ester
##JCAMP-DX=4.24
##DATA TYPE=MASS SPECTRUM
##ORIGIN=NIST Mass Spectrometry Data Center, 2010
##OWNER=NIST Mass Spectrometry Data Center
Collection (C) 2014 copyright by the U.S. Secretary of Commerce
on behalf of the United States of America. All rights reserved.
##CAS REGISTRY NO=658-78-6
##$NIST MASS SPEC NO=374261
##MOLFORM=C8 H4 F3 N O4
##MW=235
##$NIST SOURCE=MSDC
##XUNITS=M/Z
##YUNITS=RELATIVE INTENSITY
##XFACTOR=1
##YFACTOR=1
##FIRSTX=25
##LASTX=237
##FIRSTY=10
##MAXX=237
##MINX=25
##MAXY=9999
##MINY=10
##NPOINTS=127
##PEAK TABLE=(XY..XY)
25,10 26,90 27,30 29,30
30,801 31,80 36,10 37,160
38,711 39,140 40,40 41,30
42,10 43,10 44,100 45,80
46,50 47,10 48,10 49,60
50,1161 51,340 52,310 53,200
54,160 55,20 57,90 60,40
61,270 62,821 63,3063 64,2672
65,190 66,70 67,20 68,120
69,9999 70,90 71,20 73,100
74,550 75,2572 76,761 77,70
78,140 79,100 80,290 81,40
82,80 83,701 84,40 85,20
86,10 87,10 88,10 89,10
90,10 91,80 92,2702 93,210
94,80 95,4844 96,330 97,891
98,20 99,20 100,10 101,240
102,50 104,10 106,30 107,40
108,350 109,50 110,20 111,160
112,10 113,380 114,60 119,40
120,30 121,70 122,761 123,80
124,10 127,10 128,10 130,30
131,10 132,60 133,240 134,20
138,10 139,480 140,40 141,40
142,420 143,30 147,10 149,1011
150,70 158,30 160,20 161,480
162,40 166,130 167,10 170,50
171,10 177,1692 178,120 179,10
188,160 189,781 190,70 191,10
204,10 205,981 206,80 207,10
219,300 220,30 221,10 231,10
235,6536 236,520 237,70
##END=
