##TITLE=3-(Trifluoromethoxy)benzamide
##JCAMP-DX=4.24
##DATA TYPE=MASS SPECTRUM
##ORIGIN=NIST Mass Spectrometry Data Center, 1994
##OWNER=NIST Mass Spectrometry Data Center
Collection (C) 2014 copyright by the U.S. Secretary of Commerce
on behalf of the United States of America. All rights reserved.
##CAS REGISTRY NO=658-91-3
##$NIST MASS SPEC NO=136621
##MOLFORM=C8 H6 F3 N O2
##MW=205
##$NIST SOURCE=MSDC
##XUNITS=M/Z
##YUNITS=RELATIVE INTENSITY
##XFACTOR=1
##YFACTOR=1
##FIRSTX=16
##LASTX=206
##FIRSTY=80
##MAXX=206
##MINX=16
##MAXY=9999
##MINY=35
##NPOINTS=60
##PEAK TABLE=(XY..XY)
16,80 17,85 18,81 26,130
27,36 36,35 37,398 38,1106
39,892 40,59 41,71 44,2601
47,98 49,119 50,1042 51,458
52,309 53,375 57,78 61,248
62,694 63,2157 64,1935 65,950
66,172 69,2938 70,63 73,104
74,384 75,1389 76,596 77,124
78,50 79,75 80,199 83,121
90,177 91,149 92,1583 93,299
94,50 95,7284 96,583 102,54
103,121 104,60 108,105 119,75
120,724 121,126 133,106 149,54
161,3571 162,305 187,325 189,9999
190,854 191,84 205,6309 206,654
##END=
