##TITLE=3-Quinuclidinyl benzilate
##JCAMP-DX=4.24
##DATA TYPE=MASS SPECTRUM
##ORIGIN=VERIFIN - Methodology B3-1982
##OWNER=NIST Mass Spectrometry Data Center
Collection (C) 2014 copyright by the U.S. Secretary of Commerce
on behalf of the United States of America. All rights reserved.
##CAS REGISTRY NO=6581-06-2
##$NIST MASS SPEC NO=226246
##MOLFORM=C21 H23 N O3
##MW=337
##$NIST SOURCE=MSDC
##XUNITS=M/Z
##YUNITS=RELATIVE INTENSITY
##XFACTOR=1
##YFACTOR=1
##FIRSTX=41
##LASTX=338
##FIRSTY=700
##MAXX=338
##MINX=41
##MAXY=9999
##MINY=40
##NPOINTS=47
##PEAK TABLE=(XY..XY)
41,700 42,1901 43,100 44,100
51,400 54,200 55,1101 56,200
57,200 58,100 67,200 68,200
69,400 70,200 75,40 77,3403
78,300 79,300 81,600 82,800
83,200 96,400 97,200 98,1101
99,200 105,5404 106,300 108,200
110,2602 111,3403 112,300 126,5304
127,1201 128,80 152,400 164,80
165,400 166,70 181,400 182,200
183,9999 184,1501 185,70 187,300
204,400 337,2101 338,200
##END=
