##TITLE=2,1,3-Benzothiadiazole, 4-nitro-
##JCAMP-DX=4.24
##DATA TYPE=MASS SPECTRUM
##ORIGIN=MASS SPECTROMETRY CENTER, UNIV. OF UTAH ALDRICH N01210-4
##OWNER=NIST Mass Spectrometry Data Center
Collection (C) 2014 copyright by the U.S. Secretary of Commerce
on behalf of the United States of America. All rights reserved.
##CAS REGISTRY NO=6583-06-8
##$NIST MASS SPEC NO=52715
##MOLFORM=C6 H3 N3 O2 S
##MW=181
##$NIST SOURCE=MSDC
##XUNITS=M/Z
##YUNITS=RELATIVE INTENSITY
##XFACTOR=1
##YFACTOR=1
##FIRSTX=26
##LASTX=183
##FIRSTY=1424
##MAXX=183
##MINX=26
##MAXY=9999
##MINY=63
##NPOINTS=61
##PEAK TABLE=(XY..XY)
26,1424 27,881 28,906 29,352
30,9999 32,1572 33,239 37,1451
38,1704 39,1345 40,878 41,492
43,328 44,63 45,2194 46,2054
49,352 50,1924 51,1388 52,2254
53,178 55,125 57,1707 58,1204
59,91 60,643 61,405 62,719
63,925 64,5655 65,448 69,1372
70,1597 71,694 74,336 75,1562
76,3740 77,882 81,319 82,650
83,1713 84,1342 91,1511 93,448
94,437 96,594 103,2902 108,3894
109,696 110,95 123,6343 124,535
125,115 135,6067 136,601 151,6488
152,678 153,211 181,8435 182,890
183,507
##END=
