##TITLE=[1,1'-Biphenyl]-4-carbonitrile, 4'-undecyl-
##JCAMP-DX=4.24
##DATA TYPE=MASS SPECTRUM
##ORIGIN=Asinex Ltd, Moscow, Russia
##OWNER=NIST Mass Spectrometry Data Center
Collection (C) 2014 copyright by the U.S. Secretary of Commerce
on behalf of the United States of America. All rights reserved.
##CAS REGISTRY NO=65860-74-4
##$NIST MASS SPEC NO=277835
##MOLFORM=C24 H31 N
##MW=333
##$NIST SOURCE=MSDC
##XUNITS=M/Z
##YUNITS=RELATIVE INTENSITY
##XFACTOR=1
##YFACTOR=1
##FIRSTX=32
##LASTX=337
##FIRSTY=63
##MAXX=337
##MINX=32
##MAXY=9999
##MINY=1
##NPOINTS=222
##PEAK TABLE=(XY..XY)
32,63 34,2 36,2 38,13
39,123 40,61 41,706 42,100
43,782 44,65 45,6 46,2
48,1 50,8 51,25 52,11
53,39 54,26 55,238 56,50
57,302 58,15 59,2 60,5
61,3 62,5 63,26 64,11
65,35 66,8 67,32 68,14
69,63 70,21 71,83 72,6
73,7 74,7 75,15 76,16
77,68 78,22 79,15 80,6
81,20 82,17 83,27 84,9
85,56 86,8 87,8 88,12
89,33 90,16 91,47 92,8
93,6 94,6 95,15 96,22
97,16 98,6 99,8 100,8
101,18 102,22 103,27 104,9
105,7 106,4 107,6 108,6
109,9 110,5 111,8 112,6
113,23 114,17 115,57 116,39
117,22 118,5 119,6 120,3
121,6 122,3 123,6 124,5
125,14 126,21 127,32 128,33
129,10 130,4 131,6 132,2
133,3 134,2 135,4 136,3
137,10 138,13 139,49 140,102
141,22 142,6 143,3 145,4
147,3 149,24 150,39 151,88
152,150 153,83 154,15 155,3
156,2 157,1 159,2 161,4
163,79 164,166 165,624 166,197
167,59 168,11 169,2 170,1
171,1 173,3 175,21 176,71
177,338 178,198 179,351 180,114
181,56 182,9 183,2 184,2
185,4 186,6 188,42 190,1090
192,9999 193,2911 194,385 195,41
196,5 199,2 200,4 201,16
202,26 203,118 204,167 205,620
206,273 207,72 208,13 209,4
211,6 212,2 213,3 214,8
215,7 216,18 217,29 218,99
219,51 220,97 221,28 222,7
223,2 224,1 225,3 226,7
227,5 228,6 229,4 230,5
232,16 233,14 234,106 235,36
236,7 239,16 240,5 241,2
246,3 247,5 248,24 249,7
250,2 252,1 254,1 255,1
256,1 261,10 262,11 263,4
275,3 276,6 277,3 279,2
289,1 290,4 291,4 292,2
303,1 304,2 305,3 306,2
318,2 319,10 320,2 328,1
329,7 333,5892 334,1495 335,209
336,21 337,2
##END=
