##TITLE=Benzaldehyde, 4-(trifluoromethoxy)-
##JCAMP-DX=4.24
##DATA TYPE=MASS SPECTRUM
##ORIGIN=NIST Mass Spectrometry Data Center, 1994
##OWNER=NIST Mass Spectrometry Data Center
Collection (C) 2014 copyright by the U.S. Secretary of Commerce
on behalf of the United States of America. All rights reserved.
##CAS REGISTRY NO=659-28-9
##$NIST MASS SPEC NO=136534
##MOLFORM=C8 H5 F3 O2
##MW=190
##$NIST SOURCE=MSDC
##XUNITS=M/Z
##YUNITS=RELATIVE INTENSITY
##XFACTOR=1
##YFACTOR=1
##FIRSTX=18
##LASTX=192
##FIRSTY=83
##MAXX=192
##MINX=18
##MAXY=9999
##MINY=7
##NPOINTS=61
##PEAK TABLE=(XY..XY)
18,83 25,85 26,224 27,70
28,234 29,1012 32,47 36,87
37,784 38,1737 39,2955 40,97
41,7 42,46 47,185 48,28
49,287 50,1989 51,1175 52,169
53,387 57,85 60,83 61,494
62,974 63,2498 64,1920 65,2247
66,316 67,45 68,45 69,3853
70,92 73,196 74,648 75,1575
76,566 77,577 78,50 83,102
85,79 91,77 92,1191 93,473
94,50 95,7986 96,694 97,35
104,101 105,1080 106,95 113,72
119,44 133,111 161,2822 162,479
171,59 189,9999 190,7585 191,700
192,63
##END=
