##TITLE=1-Propyne, 3-iodo-
##JCAMP-DX=4.24
##DATA TYPE=MASS SPECTRUM
##OWNER=NIST Mass Spectrometry Data Center
Collection (C) 2014 copyright by the U.S. Secretary of Commerce
on behalf of the United States of America. All rights reserved.
##CAS REGISTRY NO=659-86-9
##$NIST MASS SPEC NO=6357
##MOLFORM=C3 H3 I
##MW=166
##$NIST SOURCE=MSDC
##XUNITS=M/Z
##YUNITS=RELATIVE INTENSITY
##XFACTOR=1
##YFACTOR=1
##FIRSTX=12
##LASTX=168
##FIRSTY=60
##MAXX=168
##MINX=12
##MAXY=9999
##MINY=10
##NPOINTS=43
##PEAK TABLE=(XY..XY)
12,60 14,110 15,80 16,40
17,90 18,330 19,40 20,40
24,40 25,100 26,300 27,500
28,22 29,10 30,30 31,80
32,510 34,30 35,140 36,1361
37,1561 38,2993 39,9999 40,1461
41,240 42,40 127,2452 128,450
141,100 142,220 151,40 152,90
153,70 154,40 155,40 156,40
157,30 163,150 164,100 165,671
166,9749 167,400 168,20
##END=
