##TITLE=2,6-Dichlorophenyl isothiocyanate
##JCAMP-DX=4.24
##DATA TYPE=MASS SPECTRUM
##ORIGIN=NIST Mass Spectrometry Data Center, 1994
##OWNER=NIST Mass Spectrometry Data Center
Collection (C) 2014 copyright by the U.S. Secretary of Commerce
on behalf of the United States of America. All rights reserved.
##CAS REGISTRY NO=6590-95-0
##$NIST MASS SPEC NO=134912
##MOLFORM=C7 H3 Cl2 N S
##MW=203
##$NIST SOURCE=MSDC
##XUNITS=M/Z
##YUNITS=RELATIVE INTENSITY
##XFACTOR=1
##YFACTOR=1
##FIRSTX=12
##LASTX=209
##FIRSTY=51
##MAXX=209
##MINX=12
##MAXY=9999
##MINY=15
##NPOINTS=122
##PEAK TABLE=(XY..XY)
12,51 14,35 18,70 25,72
26,215 27,82 28,100 32,771
34,59 35,271 36,296 37,1220
38,832 39,331 44,1020 45,244
46,78 47,372 48,172 49,955
50,1181 51,543 52,75 56,60
57,82 58,530 59,78 60,420
61,1001 62,827 63,900 64,382
66,136 68,80 69,364 70,1025
71,189 72,479 73,1562 74,2873
75,2390 76,301 79,677 80,98
81,336 82,255 83,309 84,1197
85,659 86,530 87,488 88,790
89,127 91,42 93,82 94,177
95,182 96,168 97,455 98,395
99,431 100,668 101,42 102,730
105,87 106,190 107,368 108,356
109,2113 110,550 111,705 112,144
116,58 117,77 118,102 119,136
120,57 121,70 122,61 123,57
124,977 125,90 126,308 130,41
131,57 133,2075 134,240 135,305
136,229 137,64 138,72 141,63
142,105 143,64 144,41 145,1691
146,176 147,1080 148,88 149,178
158,42 159,353 160,51 161,230
167,229 168,1255 169,188 170,482
171,755 172,93 173,464 174,44
175,92 176,117 178,82 203,9999
204,890 205,7000 206,625 207,1377
208,117 209,15
##END=
