##TITLE=N-Acetylcolchinol methyl ether
##JCAMP-DX=4.24
##DATA TYPE=MASS SPECTRUM
##ORIGIN=A. Brossi, LAC, NIDDK, NIH, Bethesda, MD 20892
##OWNER=NIST Mass Spectrometry Data Center
Collection (C) 2014 copyright by the U.S. Secretary of Commerce
on behalf of the United States of America. All rights reserved.
##CAS REGISTRY NO=65967-01-3
##$NIST MASS SPEC NO=129866
##MOLFORM=C21 H25 N O5
##MW=371
##$NIST SOURCE=MSDC
##XUNITS=M/Z
##YUNITS=RELATIVE INTENSITY
##XFACTOR=1
##YFACTOR=1
##FIRSTX=41
##LASTX=373
##FIRSTY=93
##MAXX=373
##MINX=41
##MAXY=9999
##MINY=42
##NPOINTS=231
##PEAK TABLE=(XY..XY)
41,93 43,9999 44,378 45,293
50,50 51,193 52,87 53,237
54,113 55,240 56,141 57,140
59,170 60,332 62,69 63,274
64,107 65,188 66,63 67,114
68,65 69,150 70,111 71,68
72,53 73,234 74,110 75,283
76,317 77,491 78,169 79,104
80,59 81,64 82,114 83,146
84,131 85,140 86,74 87,101
88,133 89,297 90,153 91,380
92,127 93,61 94,43 95,68
96,64 97,82 98,118 99,210
100,92 101,182 102,270 103,190
104,195 105,212 106,154 107,62
109,46 110,56 111,111 112,145
113,327 114,284 115,701 116,188
117,165 118,163 119,186 120,285
121,199 125,172 126,452 127,928
128,636 129,247 130,134 131,80
132,118 133,262 134,191 135,134
136,64 137,69 138,117 139,967
140,788 141,859 142,242 143,147
144,94 145,147 146,114 147,67
149,515 150,176 151,400 152,955
153,598 154,434 155,363 156,400
157,242 158,125 159,76 160,129
161,47 162,55 163,166 164,221
165,683 166,358 167,493 168,659
169,456 170,267 171,372 172,111
173,59 174,42 176,103 177,155
178,282 179,231 180,303 181,459
182,421 183,885 184,380 185,227
186,101 189,58 190,90 191,108
192,133 193,186 194,283 195,532
196,425 197,391 198,321 199,417
200,164 201,45 205,100 206,118
207,216 208,284 209,378 210,443
211,1042 212,426 213,240 214,78
219,56 220,118 221,193 222,382
223,527 224,425 225,473 226,439
227,383 228,221 229,52 234,64
235,293 236,301 237,452 238,811
239,957 240,479 241,356 242,347
243,100 249,139 250,305 251,585
252,400 253,486 254,1862 255,628
256,380 257,127 263,73 264,102
265,574 266,1037 267,748 268,732
269,1235 270,1094 271,354 272,88
279,109 280,295 281,2939 282,1252
283,533 284,497 285,232 286,376
287,74 294,42 295,94 296,426
297,3317 298,1722 299,604 300,1038
301,194 309,86 310,52 311,336
312,5318 313,1601 314,424 315,68
324,55 325,98 326,48 328,411
329,93 340,236 341,68 356,50
371,6028 372,1914 373,309
##END=
