##TITLE=1,3-Dimethylimidazole-2(3H)-thione
##JCAMP-DX=4.24
##DATA TYPE=MASS SPECTRUM
##ORIGIN=James Little,Eastman Chem.Co.,Kingsport,TN
##OWNER=NIST Mass Spectrometry Data Center
Collection (C) 2014 copyright by the U.S. Secretary of Commerce
on behalf of the United States of America. All rights reserved.
##CAS REGISTRY NO=6596-81-2
##$NIST MASS SPEC NO=288705
##MOLFORM=C5 H8 N2 S
##MW=128
##$NIST SOURCE=MSDC
##XUNITS=M/Z
##YUNITS=RELATIVE INTENSITY
##XFACTOR=1
##YFACTOR=1
##FIRSTX=27
##LASTX=130
##FIRSTY=891
##MAXX=130
##MINX=27
##MAXY=9999
##MINY=180
##NPOINTS=30
##PEAK TABLE=(XY..XY)
27,891 40,591 41,921 42,4584
45,881 52,701 54,1031 55,621
58,400 59,661 68,1982 69,1551
70,1061 72,2312 73,370 74,360
82,500 83,781 84,390 86,410
95,3303 96,530 97,200 100,420
112,180 113,991 127,1702 128,9999
129,861 130,480
##END=
