##TITLE=Arsenous acid, trimethyl ester
##JCAMP-DX=4.24
##DATA TYPE=MASS SPECTRUM
##ORIGIN=Frank Antolasic, RMIT Appl. Chem. Department, Victoria Australia
##OWNER=NIST Mass Spectrometry Data Center
Collection (C) 2014 copyright by the U.S. Secretary of Commerce
on behalf of the United States of America. All rights reserved.
##CAS REGISTRY NO=6596-95-8
##$NIST MASS SPEC NO=289405
##MOLFORM=C3 H9 As O3
##MW=168
##$NIST SOURCE=MSDC
##XUNITS=M/Z
##YUNITS=RELATIVE INTENSITY
##XFACTOR=1
##YFACTOR=1
##FIRSTX=16
##LASTX=169
##FIRSTY=10
##MAXX=169
##MINX=16
##MAXY=9999
##MINY=10
##NPOINTS=46
##PEAK TABLE=(XY..XY)
16,10 17,10 18,40 19,20
20,10 28,711 29,2662 30,400
31,480 32,50 40,20 44,10
45,120 69,60 73,10 75,751
76,510 77,751 78,140 79,440
88,10 89,50 91,3823 92,621
93,250 95,10 103,40 105,200
106,3123 107,9999 108,140 109,20
119,20 121,430 123,40 125,10
131,10 136,1431 137,8688 138,4394
139,140 140,10 149,10 153,60
168,250 169,10
##END=
