##TITLE=Morpholine, 4-(4-chloro-2-nitrophenyl)-
##JCAMP-DX=4.24
##DATA TYPE=MASS SPECTRUM
##ORIGIN=Japan AIST/NIMC Database- Spectrum MS-IW-4980
##OWNER=NIST Mass Spectrometry Data Center
Collection (C) 2014 copyright by the U.S. Secretary of Commerce
on behalf of the United States of America. All rights reserved.
##CAS REGISTRY NO=65976-60-5
##$NIST MASS SPEC NO=244914
##MOLFORM=C10 H11 Cl N2 O3
##MW=242
##$NIST SOURCE=MSDC
##XUNITS=M/Z
##YUNITS=RELATIVE INTENSITY
##XFACTOR=1
##YFACTOR=1
##FIRSTX=14
##LASTX=246
##FIRSTY=10
##MAXX=246
##MINX=14
##MAXY=9999
##MINY=10
##NPOINTS=194
##PEAK TABLE=(XY..XY)
14,10 15,169 16,10 26,119
27,639 28,999 29,409 30,229
31,119 36,40 37,60 38,159
39,349 40,80 41,309 42,739
43,469 44,139 45,789 46,20
47,20 49,139 50,609 51,909
52,379 53,109 54,279 55,239
56,209 57,159 58,60 59,60
60,30 61,159 62,349 63,949
64,379 65,309 66,99 67,40
68,20 69,80 70,50 71,20
72,139 73,2369 74,659 75,3239
76,1369 77,1059 78,969 79,99
80,40 81,10 82,60 83,60
84,129 85,259 86,119 87,169
88,169 89,819 90,1279 91,559
92,159 93,119 94,20 95,10
96,10 97,129 98,179 99,2049
100,309 101,809 102,1189 103,2069
104,559 105,1549 106,479 107,139
108,20 109,60 110,589 111,3659
112,1169 113,1929 114,479 115,299
116,389 117,1879 118,589 119,399
120,70 121,30 122,10 123,60
124,569 125,1349 126,2329 127,1639
128,959 129,539 130,1119 131,959
132,1629 133,319 134,179 135,20
136,109 137,469 138,3859 139,3039
140,4079 141,1499 142,1099 143,299
144,269 145,70 146,60 147,70
148,20 149,179 150,109 151,289
152,1229 153,5959 154,1449 155,2329
156,399 157,159 158,40 159,50
160,269 161,199 162,60 163,40
164,629 165,2439 166,4709 167,4329
168,2189 169,3739 170,499 171,849
172,99 173,20 174,10 176,10
177,109 178,579 179,4629 180,819
181,2189 182,559 183,329 184,1749
185,219 186,539 187,60 189,30
190,129 191,30 192,30 194,189
195,2189 196,359 197,1429 198,189
199,259 200,30 205,10 206,90
207,1809 208,4689 209,1179 210,1539
211,309 212,179 213,99 214,60
215,20 223,139 224,249 225,9999
226,1229 227,3299 228,389 229,30
241,909 242,8679 243,1399 244,2899
245,359 246,40
##END=
