##TITLE=Dicumarol
##JCAMP-DX=4.24
##DATA TYPE=MASS SPECTRUM
##ORIGIN=AAFS Toxicology Section MS DB Committee, U. Alberta, Canada
##OWNER=NIST Mass Spectrometry Data Center
Collection (C) 2014 copyright by the U.S. Secretary of Commerce
on behalf of the United States of America. All rights reserved.
##CAS REGISTRY NO=66-76-2
##$NIST MASS SPEC NO=246974
##MOLFORM=C19 H12 O6
##MW=336
##$NIST SOURCE=MSDC
##XUNITS=M/Z
##YUNITS=RELATIVE INTENSITY
##XFACTOR=1
##YFACTOR=1
##FIRSTX=41
##LASTX=338
##FIRSTY=190
##MAXX=338
##MINX=41
##MAXY=9999
##MINY=100
##NPOINTS=102
##PEAK TABLE=(XY..XY)
41,190 43,300 50,200 51,330
53,230 55,640 56,170 57,630
60,180 61,180 62,210 63,790
64,660 65,1491 66,220 67,410
68,200 69,860 70,290 71,920
73,420 74,360 75,390 76,570
77,1181 78,200 79,230 81,330
82,320 83,790 84,330 85,690
86,180 87,260 88,130 89,340
90,140 91,470 92,2962 93,2282
94,420 95,450 96,330 97,680
98,330 99,300 101,250 102,400
103,420 104,290 105,380 107,830
109,200 110,160 111,370 112,130
113,270 114,150 115,570 116,150
118,180 119,180 120,5214 121,9468
122,860 123,170 125,190 127,130
129,240 130,170 131,870 132,290
133,110 134,830 135,340 137,110
139,120 143,160 146,530 147,590
159,130 160,320 162,4243 163,540
173,140 174,1161 175,1151 176,220
185,110 187,1921 188,740 189,150
213,100 215,3453 216,480 262,200
289,260 290,500 291,140 336,9999
337,2091 338,220
##END=
