##TITLE=Pencycuron
##JCAMP-DX=4.24
##DATA TYPE=MASS SPECTRUM
##ORIGIN=Leung Pu, NIH, Bethesda, Maryland, U.S.
##OWNER=NIST Mass Spectrometry Data Center
Collection (C) 2014 copyright by the U.S. Secretary of Commerce
on behalf of the United States of America. All rights reserved.
##CAS REGISTRY NO=66063-05-6
##$NIST MASS SPEC NO=214158
##MOLFORM=C19 H21 Cl N2 O
##MW=328
##$NIST SOURCE=MSDC
##XUNITS=M/Z
##YUNITS=RELATIVE INTENSITY
##XFACTOR=1
##YFACTOR=1
##FIRSTX=41
##LASTX=332
##FIRSTY=1909
##MAXX=332
##MINX=41
##MAXY=9999
##MINY=6
##NPOINTS=165
##PEAK TABLE=(XY..XY)
41,1909 42,225 43,148 44,40
45,20 47,81 48,37 49,342
50,119 51,474 52,97 53,111
54,168 55,147 56,200 57,84
58,7 60,13 61,18 62,50
63,316 64,226 65,840 66,250
67,365 68,116 69,639 70,59
71,27 72,7 73,72 74,27
75,120 76,66 77,1140 78,113
79,32 80,27 81,17 82,103
83,63 84,844 85,70 86,120
87,22 88,32 89,899 90,426
91,414 92,593 93,1500 94,162
95,19 96,18 97,28 98,8
99,264 100,16 101,95 102,39
103,44 104,91 105,63 106,171
107,26 108,7 110,22 111,115
112,40 113,77 114,18 115,45
116,22 117,38 118,32 119,279
120,152 121,24 123,12 124,94
125,9999 126,881 127,3730 128,262
129,34 130,45 131,76 132,200
133,39 134,16 135,18 137,15
138,99 139,67 140,867 141,113
142,278 143,42 144,49 145,17
146,16 147,33 149,32 150,36
151,76 152,36 153,18 154,16
160,15 164,35 165,26 166,258
167,83 168,92 169,21 172,14
173,6 175,8 178,63 179,21
180,280 181,89 182,298 183,61
184,6 185,26 187,6 200,46
201,23 202,31 203,631 204,93
205,8 206,68 207,132 208,167
209,73 210,50 211,17 214,13
216,213 217,327 218,105 219,100
220,18 225,9 230,64 231,7
232,23 235,50 236,69 237,35
238,29 239,6 259,537 260,121
261,181 262,32 293,6 294,7
328,2142 329,531 330,863 331,187
332,24
##END=
