##TITLE=1,3,3-Trimethoxybutane
##JCAMP-DX=4.24
##DATA TYPE=MASS SPECTRUM
##ORIGIN=Chuck Anderson, Aldrich Chemical Co.
##OWNER=NIST Mass Spectrometry Data Center
Collection (C) 2014 copyright by the U.S. Secretary of Commerce
on behalf of the United States of America. All rights reserved.
##CAS REGISTRY NO=6607-66-5
##$NIST MASS SPEC NO=108163
##MOLFORM=C7 H16 O3
##MW=148
##$NIST SOURCE=MSDC
##XUNITS=M/Z
##YUNITS=RELATIVE INTENSITY
##XFACTOR=1
##YFACTOR=1
##FIRSTX=14
##LASTX=134
##FIRSTY=21
##MAXX=134
##MINX=14
##MAXY=9999
##MINY=4
##NPOINTS=67
##PEAK TABLE=(XY..XY)
14,21 15,447 16,10 17,8
26,41 27,298 28,144 29,718
30,62 31,419 32,199 33,236
34,4 37,10 38,30 39,441
40,117 41,679 42,609 43,4499
44,28 45,9999 46,222 47,531
48,13 49,6 50,33 51,46
52,25 53,359 54,85 55,843
56,140 57,412 58,103 59,585
60,22 61,10 67,9 68,18
69,62 70,23 71,292 72,140
73,150 74,9 75,136 76,5
83,51 84,83 85,2187 86,273
87,96 89,6436 90,259 91,29
99,7 101,1257 102,65 103,9
115,62 116,126 117,2812 118,158
119,15 133,314 134,19
##END=
