##TITLE=Hexamethylcyclotriphosphazene
##JCAMP-DX=4.24
##DATA TYPE=MASS SPECTRUM
##ORIGIN=P. HARRIS,DEP. CHEM.,VIRGINIA POLYTECH. INST.,BLACKSBURG,USA
##OWNER=NIST Mass Spectrometry Data Center
Collection (C) 2014 copyright by the U.S. Secretary of Commerce
on behalf of the United States of America. All rights reserved.
##CAS REGISTRY NO=6607-30-3
##$NIST MASS SPEC NO=103229
##MOLFORM=C6 H18 N3 P3
##MW=225
##$NIST SOURCE=MSDC
##XUNITS=M/Z
##YUNITS=RELATIVE INTENSITY
##XFACTOR=1
##YFACTOR=1
##FIRSTX=60
##LASTX=226
##FIRSTY=116
##MAXX=226
##MINX=60
##MAXY=9999
##MINY=49
##NPOINTS=28
##PEAK TABLE=(XY..XY)
60,116 61,229 74,136 75,91
76,125 89,85 90,96 91,131
92,134 105,156 106,600 120,98
121,206 122,435 135,195 136,252
150,135 165,54 166,61 180,551
195,79 196,136 210,9999 211,738
212,49 224,133 225,933 226,75
##END=
