##TITLE=3-Chlorobenzoyl isothiocyanate
##JCAMP-DX=4.24
##DATA TYPE=MASS SPECTRUM
##ORIGIN=NIST Mass Spectrometry Data Center
##OWNER=NIST Mass Spectrometry Data Center
Collection (C) 2014 copyright by the U.S. Secretary of Commerce
on behalf of the United States of America. All rights reserved.
##CAS REGISTRY NO=66090-36-6
##$NIST MASS SPEC NO=343398
##MOLFORM=C8 H4 Cl N O S
##MW=197
##$NIST SOURCE=MSDC
##XUNITS=M/Z
##YUNITS=RELATIVE INTENSITY
##XFACTOR=1
##YFACTOR=1
##FIRSTX=12
##LASTX=199
##FIRSTY=10
##MAXX=199
##MINX=12
##MAXY=9999
##MINY=10
##NPOINTS=71
##PEAK TABLE=(XY..XY)
12,10 14,10 25,20 26,60
27,70 28,90 29,10 32,270
33,10 34,10 35,30 36,50
37,260 38,350 39,100 40,10
44,80 45,30 46,20 47,20
49,230 50,1692 51,561 52,40
53,50 54,20 55,50 58,440
59,60 60,100 61,200 62,80
63,120 64,10 70,40 71,20
72,60 73,240 74,981 75,3133
76,661 77,50 84,140 85,360
86,150 87,140 88,20 90,20
98,10 99,20 100,20 101,10
102,30 103,10 104,30 108,20
109,20 111,5165 112,390 113,1722
114,110 133,20 139,9999 140,831
141,3173 142,240 143,10 181,20
197,170 198,10 199,50
##END=
