##TITLE=1,2-Dibromohexafluoropropane
##JCAMP-DX=4.24
##DATA TYPE=MASS SPECTRUM
##ORIGIN=Thomas J.Bruno
##OWNER=NIST Mass Spectrometry Data Center
Collection (C) 2014 copyright by the U.S. Secretary of Commerce
on behalf of the United States of America. All rights reserved.
##CAS REGISTRY NO=661-95-0
##$NIST MASS SPEC NO=215706
##MOLFORM=C3 Br2 F6
##MW=308
##$NIST SOURCE=MSDC
##XUNITS=M/Z
##YUNITS=RELATIVE INTENSITY
##XFACTOR=1
##YFACTOR=1
##FIRSTX=31
##LASTX=312
##FIRSTY=5575
##MAXX=312
##MINX=31
##MAXY=9999
##MINY=100
##NPOINTS=20
##PEAK TABLE=(XY..XY)
31,5575 50,890 69,9028 81,1331
93,960 100,2522 129,6916 131,6966
150,280 160,1050 162,940 179,580
181,520 191,410 193,220 229,9999
231,9528 308,100 310,210 312,100
##END=
