##TITLE=Propane, 1,1,1,2,2,3-hexachloro-3,3-difluoro-
##JCAMP-DX=4.24
##DATA TYPE=MASS SPECTRUM
##OWNER=NIST Mass Spectrometry Data Center
Collection (C) 2014 copyright by the U.S. Secretary of Commerce
on behalf of the United States of America. All rights reserved.
##CAS REGISTRY NO=661-96-1
##$NIST MASS SPEC NO=13724
##MOLFORM=C3 Cl6 F2
##MW=284
##$NIST SOURCE=MSDC
##XUNITS=M/Z
##YUNITS=RELATIVE INTENSITY
##XFACTOR=1
##YFACTOR=1
##FIRSTX=24
##LASTX=257
##FIRSTY=20
##MAXX=257
##MINX=24
##MAXY=9999
##MINY=10
##NPOINTS=127
##PEAK TABLE=(XY..XY)
24,20 28,150 31,320 32,40
35,150 36,60 37,50 38,10
43,10 45,10 47,370 48,10
49,120 50,40 51,10 53,10
54,10 55,190 56,10 59,120
61,40 66,30 68,10 70,10
71,50 72,40 73,40 74,240
75,10 77,10 78,60 80,30
81,10 82,350 83,120 84,230
85,9999 86,150 87,3233 88,40
89,110 90,110 91,30 94,510
95,10 96,340 97,30 98,60
99,10 101,621 102,10 103,400
104,30 105,60 106,20 107,60
108,90 109,591 110,30 111,180
112,10 113,30 115,20 116,10
117,5485 118,60 119,5275 120,60
121,1702 122,20 123,180 125,120
126,10 127,80 128,10 129,200
131,180 132,120 133,60 134,70
135,10 136,10 141,10 143,10
144,10 145,10 146,10 147,10
148,30 150,30 152,10 164,761
165,20 166,991 167,260 168,480
169,240 170,110 171,80 172,10
173,10 179,741 180,20 181,721
182,20 183,230 184,10 185,30
195,20 197,30 199,320 201,480
202,10 203,310 204,10 205,100
207,10 214,40 216,50 218,30
220,10 249,2132 251,3423 253,2162
255,701 256,20 257,120
##END=
