##TITLE=5,8-Dimethyl-1,2,3,4-tetrahydroquinoxaline
##JCAMP-DX=4.24
##DATA TYPE=MASS SPECTRUM
##ORIGIN=V.A.KOPTYUG, ATLAS OF MASS SPECTRA OF ORGANIC COMPOUNDS
##OWNER=NIST Mass Spectrometry Data Center
Collection (C) 2014 copyright by the U.S. Secretary of Commerce
on behalf of the United States of America. All rights reserved.
##CAS REGISTRY NO=66102-39-4
##$NIST MASS SPEC NO=78546
##MOLFORM=C10 H14 N2
##MW=162
##$NIST SOURCE=MSDC
##XUNITS=M/Z
##YUNITS=RELATIVE INTENSITY
##XFACTOR=1
##YFACTOR=1
##FIRSTX=38
##LASTX=164
##FIRSTY=100
##MAXX=164
##MINX=38
##MAXY=9999
##MINY=40
##NPOINTS=40
##PEAK TABLE=(XY..XY)
38,100 39,740 40,90 41,190
42,220 44,110 50,270 51,740
52,360 53,370 54,140 116,160
117,490 118,430 119,250 120,810
121,90 127,50 128,60 129,480
131,810 132,240 133,300 134,50
135,40 141,40 142,430 143,210
144,960 145,1930 146,1930 147,200
157,330 158,810 159,960 160,810
161,9999 162,9629 163,1070 164,60
##END=
