##TITLE=7-Benzoylheptanoic acid
##JCAMP-DX=4.24
##DATA TYPE=MASS SPECTRUM
##ORIGIN=NIST Mass Spectrometry Data Center, 1994
##OWNER=NIST Mass Spectrometry Data Center
Collection (C) 2014 copyright by the U.S. Secretary of Commerce
on behalf of the United States of America. All rights reserved.
##CAS REGISTRY NO=66147-75-9
##$NIST MASS SPEC NO=136456
##MOLFORM=C14 H18 O3
##MW=234
##$NIST SOURCE=MSDC
##XUNITS=M/Z
##YUNITS=RELATIVE INTENSITY
##XFACTOR=1
##YFACTOR=1
##FIRSTX=15
##LASTX=235
##FIRSTY=25
##MAXX=235
##MINX=15
##MAXY=9999
##MINY=9
##NPOINTS=101
##PEAK TABLE=(XY..XY)
15,25 17,60 18,182 19,9
26,55 27,952 28,430 29,513
30,9 36,34 38,64 39,777
40,134 41,1319 42,430 43,368
44,39 45,735 46,29 47,19
50,429 51,1738 52,165 53,189
54,72 55,1005 56,111 57,55
58,18 59,18 60,356 61,16
62,32 63,99 64,41 65,160
66,27 67,91 68,86 69,187
70,34 71,33 73,103 75,97
76,292 77,5726 78,834 79,103
81,33 82,13 83,68 84,48
86,31 87,16 88,16 89,41
91,357 92,85 93,17 94,17
95,17 97,29 102,25 103,63
105,9999 106,738 107,68 111,23
112,25 115,77 116,23 117,27
118,20 120,5571 121,697 122,54
123,14 127,14 128,55 129,69
130,21 131,32 132,14 133,426
134,48 137,14 145,29 146,17
147,14 157,14 159,13 161,13
170,14 171,17 175,31 187,17
188,81 216,186 217,37 234,63
235,9
##END=
