##TITLE=3-Pyridinecarboxylic acid, hexadecyl ester
##JCAMP-DX=4.24
##DATA TYPE=MASS SPECTRUM
##ORIGIN=Zaikin V.G., TIPS RAS, Moscow, Russia
##OWNER=NIST Mass Spectrometry Data Center
Collection (C) 2014 copyright by the U.S. Secretary of Commerce
on behalf of the United States of America. All rights reserved.
##CAS REGISTRY NO=66170-39-6
##$NIST MASS SPEC NO=299866
##MOLFORM=C22 H37 N O2
##MW=347
##$NIST SOURCE=MSDC
##XUNITS=M/Z
##YUNITS=RELATIVE INTENSITY
##XFACTOR=1
##YFACTOR=1
##FIRSTX=26
##LASTX=348
##FIRSTY=120
##MAXX=348
##MINX=26
##MAXY=9999
##MINY=30
##NPOINTS=118
##PEAK TABLE=(XY..XY)
26,120 27,230 28,190 29,480
36,170 38,40 39,290 40,60
41,1592 42,400 43,1952 44,280
50,140 51,521 52,150 53,140
54,320 55,1802 56,601 57,1141
58,40 65,30 66,40 67,420
68,270 69,1021 70,390 71,390
73,40 77,160 78,1722 79,2052
80,470 81,240 82,210 83,661
84,200 85,180 91,30 93,320
94,40 95,130 96,100 97,400
98,90 99,30 105,220 106,2793
107,4084 108,300 109,60 110,60
111,150 112,50 119,50 120,130
121,170 122,30 123,280 124,9999
125,781 126,60 133,40 134,50
135,90 137,210 148,30 149,80
150,80 151,460 152,40 162,50
163,80 164,320 165,400 166,40
176,30 177,30 178,671 179,210
191,80 192,661 193,120 206,701
207,601 208,60 209,30 218,30
219,40 220,611 221,150 233,30
234,681 235,140 247,30 248,851
249,160 260,40 261,30 262,951
263,180 275,50 276,901 277,210
282,40 290,891 291,190 302,50
303,130 304,891 305,180 318,751
319,160 332,230 333,40 346,250
347,330 348,70
##END=
