##TITLE=2H-1-Benzopyran-2-one, 7-methoxy-8-(3-methylbutyl)-
##JCAMP-DX=4.24
##DATA TYPE=MASS SPECTRUM
##OWNER=NIST Mass Spectrometry Data Center
Collection (C) 2014 copyright by the U.S. Secretary of Commerce
on behalf of the United States of America. All rights reserved.
##CAS REGISTRY NO=6619-22-3
##$NIST MASS SPEC NO=11920
##MOLFORM=C15 H18 O3
##MW=246
##$NIST SOURCE=MSDC
##XUNITS=M/Z
##YUNITS=RELATIVE INTENSITY
##XFACTOR=1
##YFACTOR=1
##FIRSTX=90
##LASTX=248
##FIRSTY=304
##MAXX=248
##MINX=90
##MAXY=9999
##MINY=217
##NPOINTS=37
##PEAK TABLE=(XY..XY)
90,304 91,435 92,261 102,261
103,783 104,261 105,261 115,435
117,348 118,348 119,261 128,304
131,3565 132,739 133,304 147,348
148,261 149,522 159,652 160,348
161,435 162,522 163,304 175,391
176,2174 177,783 178,348 188,348
189,9999 190,2174 191,956 192,348
203,739 215,217 246,3913 247,739
248,348
##END=
