##TITLE=N-Serylserine
##JCAMP-DX=4.24
##DATA TYPE=MASS SPECTRUM
##ORIGIN=LAC, NIDDK, NIH, Bethesda, MD 20892
##OWNER=NIST Mass Spectrometry Data Center
Collection (C) 2014 copyright by the U.S. Secretary of Commerce
on behalf of the United States of America. All rights reserved.
##CAS REGISTRY NO=6620-95-7
##$NIST MASS SPEC NO=130295
##MOLFORM=C6 H12 N2 O5
##MW=192
##$NIST SOURCE=MSDC
##XUNITS=M/Z
##YUNITS=RELATIVE INTENSITY
##XFACTOR=1
##YFACTOR=1
##FIRSTX=42
##LASTX=193
##FIRSTY=4937
##MAXX=193
##MINX=42
##MAXY=9999
##MINY=35
##NPOINTS=83
##PEAK TABLE=(XY..XY)
42,4937 43,4491 44,9999 45,2767
46,469 49,73 50,240 51,153
52,83 53,153 54,196 55,437
56,731 57,714 58,402 59,76
60,2458 61,590 63,67 65,178
66,74 67,85 68,232 69,315
70,438 71,226 72,456 73,179
74,2395 75,863 76,348 77,348
78,129 80,117 81,189 82,85
83,115 84,183 85,122 86,658
87,5151 88,810 89,168 91,141
92,171 93,96 94,233 97,122
98,184 99,251 100,116 101,35
102,149 104,364 105,229 106,83
111,123 113,167 114,251 121,107
126,38 128,145 130,168 131,303
132,224 133,157 135,152 136,37
138,93 139,79 140,35 147,38
148,646 149,86 158,35 160,123
161,183 162,1428 163,233 174,434
175,37 192,132 193,35
##END=
