##TITLE=6-Bromohexanenitrile
##JCAMP-DX=4.24
##DATA TYPE=MASS SPECTRUM
##ORIGIN=Japan AIST/NIMC Database- Spectrum MS-NW-6007
##OWNER=NIST Mass Spectrometry Data Center
Collection (C) 2014 copyright by the U.S. Secretary of Commerce
on behalf of the United States of America. All rights reserved.
##CAS REGISTRY NO=6621-59-6
##$NIST MASS SPEC NO=235790
##MOLFORM=C6 H10 Br N
##MW=175
##$NIST SOURCE=MSDC
##XUNITS=M/Z
##YUNITS=RELATIVE INTENSITY
##XFACTOR=1
##YFACTOR=1
##FIRSTX=13
##LASTX=178
##FIRSTY=10
##MAXX=178
##MINX=13
##MAXY=9999
##MINY=10
##NPOINTS=86
##PEAK TABLE=(XY..XY)
13,10 14,50 15,199 25,20
26,469 27,2839 28,749 29,1879
30,149 31,10 36,10 37,139
38,289 39,2099 40,499 41,7149
42,2449 43,609 44,30 46,10
47,10 49,20 50,119 51,219
52,239 53,669 54,4799 55,9999
56,549 57,30 61,20 62,20
63,50 64,90 65,109 66,209
67,569 68,1109 69,3779 70,229
71,10 75,20 76,10 77,30
78,20 79,259 80,109 81,119
82,599 83,60 85,10 87,10
91,10 92,10 93,149 94,129
95,279 96,9859 97,719 98,30
105,20 106,50 107,549 108,60
109,529 110,40 111,10 119,30
120,10 121,30 122,10 123,10
132,20 133,10 134,20 135,129
137,119 138,10 147,109 148,40
149,109 150,40 175,50 176,20
177,50 178,10
##END=
