##TITLE=2-Heptene, 4-methyl-, (E)-
##JCAMP-DX=4.24
##DATA TYPE=MASS SPECTRUM
##ORIGIN=NIST Mass Spectrometry Data Center, 1990.
##OWNER=NIST Mass Spectrometry Data Center
Collection (C) 2014 copyright by the U.S. Secretary of Commerce
on behalf of the United States of America. All rights reserved.
##CAS REGISTRY NO=66225-17-0
##$NIST MASS SPEC NO=113478
##MOLFORM=C8 H16
##MW=112
##$NIST SOURCE=MSDC
##XUNITS=M/Z
##YUNITS=RELATIVE INTENSITY
##XFACTOR=1
##YFACTOR=1
##FIRSTX=26
##LASTX=113
##FIRSTY=114
##MAXX=113
##MINX=26
##MAXY=9999
##MINY=102
##NPOINTS=31
##PEAK TABLE=(XY..XY)
26,114 27,1090 28,411 29,681
39,2168 41,5585 42,731 43,477
44,105 50,134 51,293 52,140
53,853 55,4944 56,795 57,102
63,108 65,254 66,135 67,1072
69,9999 70,3590 71,193 77,140
79,144 81,124 83,713 84,349
97,470 112,1759 113,161
##END=
