##TITLE=2,3-Pentanediol, 2,4-dimethyl-
##JCAMP-DX=4.24
##DATA TYPE=MASS SPECTRUM
##ORIGIN=J.T. CLERC, ORGANIC CHEM. LAB., ETH, ZURICH, SWITZ.
##OWNER=NIST Mass Spectrometry Data Center
Collection (C) 2014 copyright by the U.S. Secretary of Commerce
on behalf of the United States of America. All rights reserved.
##CAS REGISTRY NO=66225-53-4
##$NIST MASS SPEC NO=65203
##MOLFORM=C7 H16 O2
##MW=132
##$NIST SOURCE=MSDC
##XUNITS=M/Z
##YUNITS=RELATIVE INTENSITY
##XFACTOR=1
##YFACTOR=1
##FIRSTX=17
##LASTX=130
##FIRSTY=790
##MAXX=130
##MINX=17
##MAXY=9999
##MINY=92
##NPOINTS=37
##PEAK TABLE=(XY..XY)
17,790 28,1360 29,2442 30,92
31,1290 39,1152 40,276 41,6681
42,369 43,8755 44,369 45,2304
53,276 55,6681 56,9999 57,6359
58,230 59,2673 61,184 67,369
69,461 70,230 71,4239 72,875
73,5069 74,184 83,875 84,92
85,3732 86,92 89,184 97,184
98,276 103,2534 111,276 129,369
130,138
##END=
