##TITLE=Methyl tiglate
##JCAMP-DX=4.24
##DATA TYPE=MASS SPECTRUM
##ORIGIN=NIST Mass Spectrometry Data Center
##OWNER=NIST Mass Spectrometry Data Center
Collection (C) 2014 copyright by the U.S. Secretary of Commerce
on behalf of the United States of America. All rights reserved.
##CAS REGISTRY NO=6622-76-0
##$NIST MASS SPEC NO=352567
##MOLFORM=C6 H10 O2
##MW=114
##$NIST SOURCE=MSDC
##XUNITS=M/Z
##YUNITS=RELATIVE INTENSITY
##XFACTOR=1
##YFACTOR=1
##FIRSTX=14
##LASTX=116
##FIRSTY=20
##MAXX=116
##MINX=14
##MAXY=9999
##MINY=10
##NPOINTS=62
##PEAK TABLE=(XY..XY)
14,20 15,530 16,10 17,10
25,10 26,240 27,1882 28,420
29,2132 31,130 32,50 33,10
36,10 37,100 38,220 39,2172
40,200 41,480 43,711 45,230
46,10 47,10 48,10 49,80
50,540 51,711 52,310 53,1842
54,1411 55,9999 56,561 57,80
59,1411 60,30 61,20 62,10
63,10 65,20 66,20 67,100
68,30 69,210 70,20 71,280
74,20 75,10 77,10 80,10
81,230 82,1391 83,5605 84,340
85,80 97,10 99,1822 100,120
101,10 112,10 113,80 114,5185
115,340 116,30
##END=
