##TITLE=Benzene, 1,2-dichloro-4-ethyl-
##JCAMP-DX=4.24
##DATA TYPE=MASS SPECTRUM
##OWNER=NIST Mass Spectrometry Data Center
Collection (C) 2014 copyright by the U.S. Secretary of Commerce
on behalf of the United States of America. All rights reserved.
##CAS REGISTRY NO=6623-59-2
##$NIST MASS SPEC NO=7033
##MOLFORM=C8 H8 Cl2
##MW=174
##$NIST SOURCE=MSDC
##XUNITS=M/Z
##YUNITS=RELATIVE INTENSITY
##XFACTOR=1
##YFACTOR=1
##FIRSTX=107
##LASTX=179
##FIRSTY=50
##MAXX=179
##MINX=107
##MAXY=9999
##MINY=10
##NPOINTS=53
##PEAK TABLE=(XY..XY)
107,50 108,30 109,220 110,70
111,310 112,70 113,100 114,20
115,10 120,10 121,10 122,10
123,561 124,250 125,200 126,80
127,10 131,10 133,180 134,20
135,160 136,130 137,280 138,160
139,4844 140,460 141,1571 142,130
143,10 145,30 146,160 147,40
148,100 149,20 150,20 157,10
158,10 159,9999 160,771 161,6316
162,490 163,1051 164,80 170,10
171,20 172,50 173,140 174,4044
175,440 176,2592 177,240 178,420
179,40
##END=
