##TITLE=Benzeneacetic acid, 4-chloro-.alpha.-(1-methylethyl)-, cyano (3-phenoxyphenyl)methyl ester,(S-(R*,R*))-
##JCAMP-DX=4.24
##DATA TYPE=MASS SPECTRUM
##ORIGIN=NIST Mass Spectrometry Data Center, 1998.
##OWNER=NIST Mass Spectrometry Data Center
Collection (C) 2014 copyright by the U.S. Secretary of Commerce
on behalf of the United States of America. All rights reserved.
##CAS REGISTRY NO=66230-04-4
##$NIST MASS SPEC NO=291863
##MOLFORM=C25 H22 Cl N O3
##MW=419
##$NIST SOURCE=MSDC
##XUNITS=M/Z
##YUNITS=RELATIVE INTENSITY
##XFACTOR=1
##YFACTOR=1
##FIRSTX=26
##LASTX=423
##FIRSTY=10
##MAXX=423
##MINX=26
##MAXY=9999
##MINY=10
##NPOINTS=201
##PEAK TABLE=(XY..XY)
26,10 27,310 28,20 29,250
36,10 37,10 38,80 39,620
40,60 41,550 42,50 43,1300
44,60 45,10 49,10 50,300
51,1290 52,120 53,160 54,10
55,1650 56,80 57,10 59,40
61,20 62,190 63,480 64,220
65,400 66,70 67,10 68,10
69,30 73,40 74,80 75,280
76,400 77,2320 78,270 79,40
80,10 83,10 84,10 85,10
86,30 87,100 88,340 89,1150
90,340 91,460 92,100 93,40
94,100 95,10 97,10 99,110
100,10 101,140 102,190 103,520
104,120 105,60 106,10 107,10
111,40 112,60 113,200 114,580
115,1940 116,770 117,750 118,100
119,10 120,10 121,10 123,40
124,620 125,9999 126,1010 127,3570
128,440 129,140 130,110 131,150
132,110 133,80 134,30 135,10
136,20 137,50 138,40 139,1030
140,270 141,1130 142,150 143,130
144,30 147,20 149,50 150,120
151,470 152,4120 153,1010 154,1140
155,150 156,20 157,10 160,10
163,40 164,50 165,150 166,10
167,8399 168,1350 169,4080 170,510
171,380 172,40 173,10 175,10
176,20 177,100 178,220 179,150
180,980 181,5229 182,780 183,90
184,10 188,10 189,20 190,130
191,50 192,30 193,60 194,50
195,40 196,40 197,610 198,440
199,80 200,10 201,10 202,10
203,20 204,10 205,20 206,460
207,350 208,1070 209,940 210,180
211,30 212,20 213,10 214,10
215,10 217,10 219,10 220,10
221,10 222,10 223,110 224,160
225,2860 226,460 227,50 228,10
229,10 230,10 237,10 238,10
239,10 240,10 241,10 254,10
255,10 257,10 259,10 267,10
269,10 270,10 282,10 291,10
293,130 294,30 295,50 296,20
297,10 305,10 321,10 323,10
330,10 331,70 332,20 333,20
419,1380 420,360 421,500 422,120
423,20
##END=
