##TITLE=Propanamide, 2,2-dimethyl-N-phenyl-
##JCAMP-DX=4.24
##DATA TYPE=MASS SPECTRUM
##ORIGIN=NIST Mass Spectrometry Data Center, 1994
##OWNER=NIST Mass Spectrometry Data Center
Collection (C) 2014 copyright by the U.S. Secretary of Commerce
on behalf of the United States of America. All rights reserved.
##CAS REGISTRY NO=6625-74-7
##$NIST MASS SPEC NO=135682
##MOLFORM=C11 H15 N O
##MW=177
##$NIST SOURCE=MSDC
##XUNITS=M/Z
##YUNITS=RELATIVE INTENSITY
##XFACTOR=1
##YFACTOR=1
##FIRSTX=12
##LASTX=179
##FIRSTY=16
##MAXX=179
##MINX=12
##MAXY=9999
##MINY=5
##NPOINTS=86
##PEAK TABLE=(XY..XY)
12,16 13,14 14,24 15,277
16,18 17,5 18,30 26,70
27,794 28,339 29,2021 30,40
37,83 38,340 39,2445 40,423
41,3581 42,362 43,43 44,18
45,12 46,7 50,244 51,771
52,212 53,152 54,86 55,259
56,7 57,9999 58,450 61,27
62,76 63,333 64,380 65,1477
66,823 67,83 68,16 69,124
70,51 71,9 73,22 74,94
75,33 76,9 77,1030 78,107
79,26 80,10 83,18 85,607
86,34 88,9 89,14 90,42
91,289 92,962 93,6108 94,537
95,27 103,8 104,19 105,13
106,51 115,21 116,9 117,32
118,60 119,271 120,351 121,171
122,26 128,9 130,10 132,17
134,522 135,108 136,10 144,8
146,21 160,11 162,32 177,2853
178,384 179,25
##END=
