##TITLE=Naphthalene, 1-bromo-4-methyl-
##JCAMP-DX=4.24
##DATA TYPE=MASS SPECTRUM
##ORIGIN=Chuck Anderson, Aldrich Chemical Co.
##OWNER=NIST Mass Spectrometry Data Center
Collection (C) 2014 copyright by the U.S. Secretary of Commerce
on behalf of the United States of America. All rights reserved.
##CAS REGISTRY NO=6627-78-7
##$NIST MASS SPEC NO=107642
##MOLFORM=C11 H9 Br
##MW=220
##$NIST SOURCE=MSDC
##XUNITS=M/Z
##YUNITS=RELATIVE INTENSITY
##XFACTOR=1
##YFACTOR=1
##FIRSTX=26
##LASTX=224
##FIRSTY=31
##MAXX=224
##MINX=26
##MAXY=9999
##MINY=3
##NPOINTS=88
##PEAK TABLE=(XY..XY)
26,31 27,87 28,3 36,8
37,51 38,145 39,548 40,28
41,20 43,11 44,6 49,17
50,314 51,301 52,60 53,8
55,48 56,58 57,526 58,16
61,95 62,337 63,678 64,79
65,129 66,5 67,12 69,642
70,1258 71,562 73,32 74,377
75,270 76,139 77,55 78,9
79,8 81,8 84,10 85,95
86,305 87,422 88,230 89,526
90,47 91,128 92,8 96,63
98,275 99,127 100,57 101,33
102,92 103,9 109,44 110,263
111,286 112,43 113,472 114,382
115,3057 116,287 117,20 119,9
121,5 122,26 123,6 125,26
126,179 127,27 128,5 133,6
134,13 137,165 138,207 139,3578
140,1348 141,9999 142,1141 143,65
193,49 195,44 219,305 220,3614
221,669 222,3668 223,391 224,17
##END=
