##TITLE=2-Allyl-4-methylphenol
##JCAMP-DX=4.24
##DATA TYPE=MASS SPECTRUM
##ORIGIN=Japan AIST/NIMC Database- Spectrum MS-NW-5755
##OWNER=NIST Mass Spectrometry Data Center
Collection (C) 2014 copyright by the U.S. Secretary of Commerce
on behalf of the United States of America. All rights reserved.
##CAS REGISTRY NO=6628-06-4
##$NIST MASS SPEC NO=234679
##MOLFORM=C10 H12 O
##MW=148
##$NIST SOURCE=MSDC
##XUNITS=M/Z
##YUNITS=RELATIVE INTENSITY
##XFACTOR=1
##YFACTOR=1
##FIRSTX=15
##LASTX=150
##FIRSTY=40
##MAXX=150
##MINX=15
##MAXY=9999
##MINY=10
##NPOINTS=102
##PEAK TABLE=(XY..XY)
15,40 26,70 27,529 28,90
29,50 31,10 37,30 38,119
39,839 40,129 41,479 42,30
43,179 44,10 45,30 46,20
49,20 50,259 51,789 52,329
53,399 54,40 55,429 56,20
57,50 58,70 59,40 60,40
61,50 62,129 63,379 64,319
65,589 66,169 67,60 68,10
69,50 71,10 72,149 73,209
74,109 75,99 76,70 77,1429
78,529 79,529 80,80 81,40
82,50 83,30 85,20 86,30
87,40 88,20 89,169 90,70
91,1609 92,489 93,229 94,50
95,20 98,20 99,10 101,40
102,129 103,529 104,269 105,2969
106,309 107,739 108,119 109,10
113,10 114,30 115,1129 116,249
117,209 118,70 119,629 120,369
121,1109 122,119 123,10 125,10
126,20 127,179 128,339 129,529
130,129 131,819 132,519 133,5669
134,559 135,50 136,10 144,20
145,269 146,139 147,1559 148,9999
149,1109 150,80
##END=
