##TITLE=Cyclohexanol, 2-chloro-, trans-
##JCAMP-DX=4.24
##DATA TYPE=MASS SPECTRUM
##ORIGIN=A.CAMBON LAB. OF STRUCTURAL CHEM., UNIV. OF NICE, NICE, FRANCE
##OWNER=NIST Mass Spectrometry Data Center
Collection (C) 2014 copyright by the U.S. Secretary of Commerce
on behalf of the United States of America. All rights reserved.
##CAS REGISTRY NO=6628-80-4
##$NIST MASS SPEC NO=3217
##MOLFORM=C6 H11 Cl O
##MW=134
##$NIST SOURCE=MSDC
##XUNITS=M/Z
##YUNITS=RELATIVE INTENSITY
##XFACTOR=1
##YFACTOR=1
##FIRSTX=28
##LASTX=136
##FIRSTY=1000
##MAXX=136
##MINX=28
##MAXY=9999
##MINY=100
##NPOINTS=25
##PEAK TABLE=(XY..XY)
28,1000 29,500 39,800 41,1600
42,700 44,700 45,1400 54,5600
55,900 56,100 57,9999 58,400
67,500 69,1100 79,400 80,3200
81,2100 88,1300 90,400 98,1200
99,200 116,500 118,100 134,2700
136,700
##END=
