##TITLE=Cyclohexanamine, N-2-propenyl-
##JCAMP-DX=4.24
##DATA TYPE=MASS SPECTRUM
##ORIGIN=Chuck Anderson, Aldrich Chemical Co.
##OWNER=NIST Mass Spectrometry Data Center
Collection (C) 2014 copyright by the U.S. Secretary of Commerce
on behalf of the United States of America. All rights reserved.
##CAS REGISTRY NO=6628-00-8
##$NIST MASS SPEC NO=108497
##MOLFORM=C9 H17 N
##MW=139
##$NIST SOURCE=MSDC
##XUNITS=M/Z
##YUNITS=RELATIVE INTENSITY
##XFACTOR=1
##YFACTOR=1
##FIRSTX=15
##LASTX=140
##FIRSTY=41
##MAXX=140
##MINX=15
##MAXY=9999
##MINY=1
##NPOINTS=58
##PEAK TABLE=(XY..XY)
15,41 18,21 26,49 27,450
28,918 29,436 30,818 31,12
37,5 38,33 39,906 40,113
41,2632 42,351 43,301 44,73
50,16 51,52 52,43 53,199
54,450 55,785 56,918 57,87
58,87 65,43 66,23 67,309
68,1526 69,251 70,392 71,28
77,96 78,11 79,312 80,235
81,392 82,1194 83,1327 84,98
91,6 93,16 94,271 96,9999
97,597 98,138 99,5 108,26
110,525 111,43 112,94 122,9
124,132 125,6 136,1 138,105
139,1083 140,110
##END=
