##TITLE=Ethyl pentafluoropropanoyl acetate
##JCAMP-DX=4.24
##DATA TYPE=MASS SPECTRUM
##ORIGIN=NIST Mass Spectrometry Data Center, 1994
##OWNER=NIST Mass Spectrometry Data Center
Collection (C) 2014 copyright by the U.S. Secretary of Commerce
on behalf of the United States of America. All rights reserved.
##CAS REGISTRY NO=663-35-4
##$NIST MASS SPEC NO=136412
##MOLFORM=C7 H7 F5 O3
##MW=234
##$NIST SOURCE=MSDC
##XUNITS=M/Z
##YUNITS=RELATIVE INTENSITY
##XFACTOR=1
##YFACTOR=1
##FIRSTX=12
##LASTX=236
##FIRSTY=18
##MAXX=236
##MINX=12
##MAXY=9999
##MINY=1
##NPOINTS=79
##PEAK TABLE=(XY..XY)
12,18 13,128 14,423 15,734
16,47 19,176 25,71 26,671
27,2631 28,1052 29,7063 30,377
31,2451 32,246 33,118 37,59
40,103 41,1467 42,2488 43,2566
44,321 45,1950 46,248 47,88
49,48 50,193 51,254 53,107
55,83 56,172 59,108 60,112
61,104 62,65 63,177 64,238
67,95 69,9999 70,414 71,272
72,38 73,208 74,58 75,354
77,66 81,74 82,27 83,69
87,6978 88,231 89,160 90,27
91,1102 92,130 93,156 94,74
100,332 109,71 111,116 113,91
115,5246 116,305 117,81 118,71
119,1964 120,141 139,106 141,395
147,668 159,238 162,90 169,106
170,60 187,398 189,3966 190,281
234,588 235,47 236,1
##END=
