##TITLE=Benzaldehyde, 2-bromo-
##JCAMP-DX=4.24
##DATA TYPE=MASS SPECTRUM
##ORIGIN=RADIAN CORP
##OWNER=NIST Mass Spectrometry Data Center
Collection (C) 2014 copyright by the U.S. Secretary of Commerce
on behalf of the United States of America. All rights reserved.
##CAS REGISTRY NO=6630-33-7
##$NIST MASS SPEC NO=71104
##MOLFORM=C7 H5 Br O
##MW=184
##$NIST SOURCE=MSDC
##XUNITS=M/Z
##YUNITS=RELATIVE INTENSITY
##XFACTOR=1
##YFACTOR=1
##FIRSTX=16
##LASTX=188
##FIRSTY=20
##MAXX=188
##MINX=16
##MAXY=9999
##MINY=10
##NPOINTS=73
##PEAK TABLE=(XY..XY)
16,20 18,20 25,50 26,170
27,210 29,1230 32,10 36,100
37,840 38,940 39,490 40,20
43,50 44,50 48,100 49,1040
50,7740 51,3680 52,320 53,150
60,130 61,550 62,520 63,310
64,20 65,20 72,80 73,950
74,4130 75,4000 76,6780 77,4390
78,410 79,520 80,140 81,410
82,130 84,70 85,140 86,140
87,60 88,10 89,60 91,20
92,50 101,10 103,20 104,2340
105,230 107,60 116,40 117,40
118,40 119,30 128,100 129,140
130,110 131,140 139,30 140,20
141,30 154,20 155,3600 156,600
157,3440 158,560 159,30 183,9999
184,7790 185,9980 186,7820 187,570
188,40
##END=
