##TITLE=3-tert-Butyl-1-phenyl-2-pyrazolin-5-one
##JCAMP-DX=4.24
##DATA TYPE=MASS SPECTRUM
##ORIGIN=NIST Mass Spectrometry Data Center, 1994
##OWNER=NIST Mass Spectrometry Data Center
Collection (C) 2014 copyright by the U.S. Secretary of Commerce
on behalf of the United States of America. All rights reserved.
##CAS REGISTRY NO=6631-89-6
##$NIST MASS SPEC NO=136143
##MOLFORM=C13 H16 N2 O
##MW=216
##$NIST SOURCE=MSDC
##XUNITS=M/Z
##YUNITS=RELATIVE INTENSITY
##XFACTOR=1
##YFACTOR=1
##FIRSTX=4
##LASTX=218
##FIRSTY=31
##MAXX=218
##MINX=4
##MAXY=9999
##MINY=7
##NPOINTS=146
##PEAK TABLE=(XY..XY)
4,31 5,18 6,13 8,18
10,28 12,29 13,28 14,51
15,760 17,38 18,149 19,8
21,7 25,16 26,154 27,2023
28,532 29,2358 30,156 37,159
38,626 39,3929 40,1069 41,6373
42,1601 43,576 44,53 45,12
46,10 50,816 51,4125 52,786
53,1173 54,255 55,2925 56,253
57,1225 58,79 61,41 62,181
63,929 64,2130 65,1734 66,325
67,1183 68,713 69,178 70,145
71,11 73,19 74,76 75,151
76,11 77,9999 78,750 79,226
80,137 81,177 82,627 83,6259
84,454 85,29 86,88 87,66
88,31 89,53 90,19 91,4801
92,1229 93,519 94,121 95,142
96,84 97,422 98,67 101,121
102,41 103,81 104,241 105,1876
106,832 107,126 108,64 109,41
110,64 111,67 115,133 116,84
117,252 118,568 119,329 120,73
121,13 122,15 123,50 124,29
127,15 128,51 129,84 130,110
131,197 132,411 133,127 134,282
135,156 136,12 141,16 142,20
143,63 144,107 145,115 146,96
147,271 148,35 154,7 155,9
156,78 157,58 158,176 159,397
160,129 161,76 169,13 171,128
172,91 173,622 174,306 175,40
176,10 183,17 184,21 185,101
186,75 187,62 188,15 197,7
199,71 201,9574 202,1263 203,102
212,11 213,16 214,38 216,6788
217,1016 218,78
##END=
