##TITLE=Flutolanil
##JCAMP-DX=4.24
##DATA TYPE=MASS SPECTRUM
##ORIGIN=Richard Turcotte. Direction des laboratoires d'expertises et d'analyses alimentaires, Quebec, Canada.
##OWNER=NIST Mass Spectrometry Data Center
Collection (C) 2014 copyright by the U.S. Secretary of Commerce
on behalf of the United States of America. All rights reserved.
##CAS REGISTRY NO=66332-96-5
##$NIST MASS SPEC NO=366461
##MOLFORM=C17 H16 F3 N O2
##MW=323
##$NIST SOURCE=MSDC
##XUNITS=M/Z
##YUNITS=RELATIVE INTENSITY
##XFACTOR=1
##YFACTOR=1
##FIRSTX=41
##LASTX=325
##FIRSTY=210
##MAXX=325
##MINX=41
##MAXY=9999
##MINY=20
##NPOINTS=67
##PEAK TABLE=(XY..XY)
41,210 42,30 43,210 44,20
50,40 51,50 52,70 53,70
57,20 62,20 63,80 64,90
65,70 68,30 69,20 74,20
75,120 76,40 78,20 79,30
80,70 81,140 83,20 91,40
92,50 93,30 94,20 95,250
96,20 99,20 107,30 108,30
109,130 110,70 119,30 125,190
126,150 127,20 130,20 135,40
143,30 144,70 145,2742 146,200
152,50 154,40 172,70 173,9999
174,841 175,50 184,30 212,20
232,20 242,20 252,90 260,20
261,70 262,30 280,20 281,1802
282,280 283,30 304,70 308,20
323,1121 324,210 325,20
##END=
