##TITLE=Ranitidine
##JCAMP-DX=4.24
##DATA TYPE=MASS SPECTRUM
##ORIGIN=Finnigan MAT: Toxicological Library (LIBR-TX)
##OWNER=NIST Mass Spectrometry Data Center
Collection (C) 2014 copyright by the U.S. Secretary of Commerce
on behalf of the United States of America. All rights reserved.
##CAS REGISTRY NO=66357-35-5
##$NIST MASS SPEC NO=120443
##MOLFORM=C13 H22 N4 O3 S
##MW=314
##$NIST SOURCE=MSDC
##XUNITS=M/Z
##YUNITS=RELATIVE INTENSITY
##XFACTOR=1
##YFACTOR=1
##FIRSTX=56
##LASTX=315
##FIRSTY=5783
##MAXX=315
##MINX=56
##MAXY=9999
##MINY=224
##NPOINTS=47
##PEAK TABLE=(XY..XY)
56,5783 58,8254 81,2676 84,2653
85,2767 94,7869 95,3032 97,5122
108,1586 110,7031 117,1751 125,4898
130,6305 131,5646 137,9999 138,5522
139,1692 151,1642 152,3896 160,7115
168,3525 169,6099 176,1967 191,615
192,501 195,672 213,268 223,1518
224,1224 225,393 234,483 236,1162
237,254 252,252 254,1646 255,224
266,956 267,1268 269,5036 279,374
281,418 284,368 297,9155 298,1111
299,392 314,3669 315,493
##END=
