##TITLE=Carbamic acid, dimethyl-, 2,4-dichlorophenyl ester
##JCAMP-DX=4.24
##DATA TYPE=MASS SPECTRUM
##ORIGIN=NIST Mass Spectrometry Data Center, 1994
##OWNER=NIST Mass Spectrometry Data Center
Collection (C) 2014 copyright by the U.S. Secretary of Commerce
on behalf of the United States of America. All rights reserved.
##CAS REGISTRY NO=6639-32-3
##$NIST MASS SPEC NO=136887
##MOLFORM=C9 H9 Cl2 N O2
##MW=233
##$NIST SOURCE=MSDC
##XUNITS=M/Z
##YUNITS=RELATIVE INTENSITY
##XFACTOR=1
##YFACTOR=1
##FIRSTX=12
##LASTX=235
##FIRSTY=7
##MAXX=235
##MINX=12
##MAXY=9999
##MINY=4
##NPOINTS=89
##PEAK TABLE=(XY..XY)
12,7 13,11 14,46 15,1405
16,12 17,7 18,911 19,4
25,7 26,5 27,41 28,388
30,11 35,18 36,29 37,107
38,106 39,41 40,44 41,76
42,883 43,209 44,125 47,31
48,12 49,65 50,50 51,23
53,43 54,7 56,376 57,19
60,27 61,100 62,196 63,402
64,26 65,13 66,6 72,9999
73,673 74,145 75,202 76,12
77,7 83,65 84,48 85,60
86,20 87,15 96,17 97,94
98,49 99,39 100,14 107,72
109,147 110,25 111,46 112,8
113,5 126,23 128,9 133,256
135,175 136,9 137,27 141,6
145,73 146,8 147,52 149,9
161,57 162,37 163,40 164,26
165,7 175,8 177,6 182,4
186,4 189,8 191,7 198,508
199,55 200,171 201,17 233,6
235,5
##END=
