##TITLE=2-Methylquinoxaline-1,4-dioxide
##JCAMP-DX=4.24
##DATA TYPE=MASS SPECTRUM
##ORIGIN=Dmitri Zagorevskii, Scientific Instruments & Applications
##OWNER=NIST Mass Spectrometry Data Center
Collection (C) 2014 copyright by the U.S. Secretary of Commerce
on behalf of the United States of America. All rights reserved.
##CAS REGISTRY NO=6639-86-7
##$NIST MASS SPEC NO=301922
##MOLFORM=C9 H8 N2 O2
##MW=176
##$NIST SOURCE=MSDC
##XUNITS=M/Z
##YUNITS=RELATIVE INTENSITY
##XFACTOR=1
##YFACTOR=1
##FIRSTX=37
##LASTX=178
##FIRSTY=200
##MAXX=178
##MINX=37
##MAXY=9999
##MINY=50
##NPOINTS=66
##PEAK TABLE=(XY..XY)
37,200 38,270 39,1882 50,1561
51,881 52,591 61,80 62,380
63,861 64,350 65,390 66,100
68,70 69,130 70,50 72,260
73,200 74,400 75,1121 76,2032
77,1501 78,1291 79,400 80,120
81,90 82,50 85,100 87,100
88,781 89,941 90,1201 91,450
92,210 93,90 94,80 99,90
101,90 102,2342 103,530 104,621
105,540 106,340 115,150 116,440
117,1341 118,280 119,60 128,160
129,1041 130,350 131,480 132,260
133,110 141,100 142,190 143,3703
144,1281 145,140 158,150 159,2272
160,4454 161,490 175,200 176,9999
177,1101 178,180
##END=
