##TITLE=2,4,5-Trichlorotoluene
##JCAMP-DX=4.24
##DATA TYPE=MASS SPECTRUM
##ORIGIN=S.M. Lee, CA Export Lab. Services, CA, USA
##OWNER=NIST Mass Spectrometry Data Center
Collection (C) 2014 copyright by the U.S. Secretary of Commerce
on behalf of the United States of America. All rights reserved.
##CAS REGISTRY NO=6639-30-1
##$NIST MASS SPEC NO=290231
##MOLFORM=C7 H5 Cl3
##MW=194
##$NIST SOURCE=MSDC
##XUNITS=M/Z
##YUNITS=RELATIVE INTENSITY
##XFACTOR=1
##YFACTOR=1
##FIRSTX=51
##LASTX=200
##FIRSTY=230
##MAXX=200
##MINX=51
##MAXY=9999
##MINY=20
##NPOINTS=70
##PEAK TABLE=(XY..XY)
51,230 52,90 53,50 55,200
59,140 60,390 61,1912 62,1441
63,1461 65,180 67,80 68,80
70,100 72,240 73,1251 74,490
75,701 76,80 77,110 79,951
80,721 81,110 83,100 84,300
85,671 86,591 87,981 88,210
89,631 96,400 97,931 98,500
99,631 100,40 102,100 103,80
105,130 107,360 108,120 109,520
110,80 119,70 121,110 123,2953
124,911 125,1231 126,240 127,80
131,20 133,520 135,300 136,80
143,90 149,70 157,430 158,831
159,9999 160,1311 161,5755 162,741
163,981 164,200 193,330 194,5295
195,1201 196,5575 197,530 198,1802
199,390 200,280
##END=
