##TITLE=2H-1,3-Benzoxazine, 6-chloro-3-cyclohexyl-3,4-dihydro-8-methyl-
##JCAMP-DX=4.24
##DATA TYPE=MASS SPECTRUM
##OWNER=NIST Mass Spectrometry Data Center
Collection (C) 2014 copyright by the U.S. Secretary of Commerce
on behalf of the United States of America. All rights reserved.
##CAS REGISTRY NO=6640-34-2
##$NIST MASS SPEC NO=32630
##MOLFORM=C15 H20 Cl N O
##MW=265
##$NIST SOURCE=MSDC
##XUNITS=M/Z
##YUNITS=RELATIVE INTENSITY
##XFACTOR=1
##YFACTOR=1
##FIRSTX=15
##LASTX=251
##FIRSTY=371
##MAXX=251
##MINX=15
##MAXY=9999
##MINY=148
##NPOINTS=60
##PEAK TABLE=(XY..XY)
15,371 18,177 26,175 27,1423
28,730 29,1097 30,1513 31,491
38,202 39,1847 40,334 41,6167
42,1472 43,1072 44,670 45,625
50,293 51,536 52,237 53,742
54,1402 55,9999 56,2961 57,1155
59,161 62,151 63,381 65,579
66,148 67,1814 68,5112 69,641
70,856 77,452 79,398 80,181
81,647 82,9071 83,5566 84,489
89,285 91,2837 92,1118 93,155
96,1010 97,192 99,371 103,202
110,705 111,557 121,639 125,202
126,346 127,161 154,1113 155,1043
156,1072 157,402 158,252 251,412
##END=
