##TITLE=Phenol, 2-chloro-4-methyl-
##JCAMP-DX=4.24
##DATA TYPE=MASS SPECTRUM
##ORIGIN=NIST Mass Spectrometry Data Center, 1994
##OWNER=NIST Mass Spectrometry Data Center
Collection (C) 2014 copyright by the U.S. Secretary of Commerce
on behalf of the United States of America. All rights reserved.
##CAS REGISTRY NO=6640-27-3
##$NIST MASS SPEC NO=134613
##MOLFORM=C7 H7 Cl O
##MW=142
##$NIST SOURCE=MSDC
##XUNITS=M/Z
##YUNITS=RELATIVE INTENSITY
##XFACTOR=1
##YFACTOR=1
##FIRSTX=14
##LASTX=145
##FIRSTY=73
##MAXX=145
##MINX=14
##MAXY=9999
##MINY=16
##NPOINTS=81
##PEAK TABLE=(XY..XY)
14,73 15,185 18,27 19,28
25,87 26,471 27,1028 28,170
29,334 31,46 35,90 36,101
37,467 38,902 39,1495 40,104
41,42 42,67 43,195 44,63
47,47 48,74 49,427 50,1838
51,3827 52,1190 53,1546 54,121
55,216 56,49 57,51 58,19
59,19 60,130 61,423 62,573
63,892 64,118 65,63 66,99
67,70 71,225 72,133 73,361
74,456 75,387 76,19 77,4787
78,1202 79,1130 80,80 81,57
84,100 85,161 86,149 87,209
88,39 89,182 90,28 91,24
97,54 99,50 100,22 101,16
105,506 107,9999 108,676 109,55
111,29 112,46 113,84 114,20
115,49 124,19 125,48 127,24
141,1692 142,3694 143,820 144,1185
145,99
##END=
