##TITLE=Benzoic acid,3-methyl, (2-methylpropyl)ester
##JCAMP-DX=4.24
##DATA TYPE=MASS SPECTRUM
##ORIGIN=V.Zaikin,Inst.Petrochem.Synth.,RAS,Moscow
##OWNER=NIST Mass Spectrometry Data Center
Collection (C) 2014 copyright by the U.S. Secretary of Commerce
on behalf of the United States of America. All rights reserved.
##CAS REGISTRY NO=6640-78-4
##$NIST MASS SPEC NO=293428
##MOLFORM=C12 H16 O2
##MW=192
##$NIST SOURCE=MSDC
##XUNITS=M/Z
##YUNITS=RELATIVE INTENSITY
##XFACTOR=1
##YFACTOR=1
##FIRSTX=25
##LASTX=193
##FIRSTY=30
##MAXX=193
##MINX=25
##MAXY=9999
##MINY=10
##NPOINTS=82
##PEAK TABLE=(XY..XY)
25,30 26,160 27,911 28,220
29,1221 30,120 39,1982 40,300
41,2072 42,230 43,591 44,70
50,400 51,681 52,280 53,190
54,40 55,250 56,2562 57,520
58,30 59,20 61,70 62,250
63,781 64,280 65,2392 66,160
67,20 69,90 70,120 72,20
73,170 74,70 75,110 76,90
77,280 78,70 79,200 83,20
85,30 86,50 87,40 88,60
89,751 90,681 91,7737 92,961
93,490 94,40 95,30 97,20
98,30 102,40 103,30 105,150
106,20 107,60 108,20 113,20
115,30 117,20 118,240 119,9999
120,1932 121,180 122,20 130,50
131,20 133,20 134,50 135,250
136,5375 137,6676 138,571 139,50
145,20 147,30 149,110 191,30
192,100 193,10
##END=
