##TITLE=5-Benzyloxyindole-2-carboxylic acid
##JCAMP-DX=4.24
##DATA TYPE=MASS SPECTRUM
##ORIGIN=Japan AIST/NIMC Database- Spectrum MS-IW-5898
##OWNER=NIST Mass Spectrometry Data Center
Collection (C) 2014 copyright by the U.S. Secretary of Commerce
on behalf of the United States of America. All rights reserved.
##CAS REGISTRY NO=6640-09-1
##$NIST MASS SPEC NO=242800
##MOLFORM=C16 H13 N O3
##MW=267
##$NIST SOURCE=MSDC
##XUNITS=M/Z
##YUNITS=RELATIVE INTENSITY
##XFACTOR=1
##YFACTOR=1
##FIRSTX=17
##LASTX=269
##FIRSTY=30
##MAXX=269
##MINX=17
##MAXY=9999
##MINY=10
##NPOINTS=90
##PEAK TABLE=(XY..XY)
17,30 18,119 27,10 28,60
38,20 39,129 40,10 41,50
44,70 45,10 50,70 51,149
52,50 53,20 57,10 62,30
63,90 64,30 65,609 66,30
74,10 75,99 76,119 77,60
78,30 80,10 82,20 83,10
87,20 88,20 89,99 90,50
91,9999 92,889 93,30 95,10
96,10 97,10 100,20 101,20
102,359 103,70 104,40 105,20
110,10 114,80 115,20 116,10
117,10 124,10 130,529 131,109
132,129 133,50 142,30 143,10
146,10 152,10 158,1819 159,289
160,30 165,30 166,10 167,10
171,10 176,1189 177,169 178,20
189,20 190,40 191,20 192,20
193,20 194,30 204,10 219,10
220,30 221,20 222,50 223,90
224,10 247,10 248,20 249,159
250,60 251,10 266,10 267,3129
268,569 269,70
##END=
