##TITLE=4,5-Dichloro-2-nitroaniline
##JCAMP-DX=4.24
##DATA TYPE=MASS SPECTRUM
##ORIGIN=NIST Mass Spectrometry Data Center
##OWNER=NIST Mass Spectrometry Data Center
Collection (C) 2014 copyright by the U.S. Secretary of Commerce
on behalf of the United States of America. All rights reserved.
##CAS REGISTRY NO=6641-64-1
##$NIST MASS SPEC NO=343335
##MOLFORM=C6 H4 Cl2 N2 O2
##MW=206
##$NIST SOURCE=MSDC
##XUNITS=M/Z
##YUNITS=RELATIVE INTENSITY
##XFACTOR=1
##YFACTOR=1
##FIRSTX=14
##LASTX=211
##FIRSTY=30
##MAXX=211
##MINX=14
##MAXY=9999
##MINY=30
##NPOINTS=108
##PEAK TABLE=(XY..XY)
14,30 16,210 17,70 18,40
26,120 27,120 28,901 30,2192
35,310 36,330 37,1041 38,741
39,460 40,190 41,370 44,360
46,420 47,330 48,220 49,691
50,811 51,851 52,2793 53,400
60,561 61,2382 62,3273 63,2642
64,591 65,711 71,240 72,761
73,1631 74,901 75,1071 76,1301
77,270 78,330 83,410 84,340
85,651 86,470 87,460 88,1231
89,1521 90,1501 91,240 95,100
96,400 97,3063 98,1081 99,1351
100,330 101,240 103,90 107,631
108,150 109,550 110,410 111,200
112,681 113,170 114,250 115,90
121,310 122,100 123,260 124,1491
125,1621 126,591 127,520 131,90
133,7727 134,791 135,5555 136,400
137,1101 139,120 145,80 146,140
147,190 148,2342 149,200 150,1571
151,100 152,270 158,270 159,651
160,6546 161,731 162,4404 163,380
164,711 176,3083 177,240 178,2022
179,200 180,310 189,440 190,300
191,300 192,180 206,9999 207,881
208,6396 209,450 210,1151 211,100
##END=
