##TITLE=Methyl ethylphosphonofluoridate
##JCAMP-DX=4.24
##DATA TYPE=MASS SPECTRUM
##ORIGIN=VERIFIN - Methodology B1-1979
##OWNER=NIST Mass Spectrometry Data Center
Collection (C) 2014 copyright by the U.S. Secretary of Commerce
on behalf of the United States of America. All rights reserved.
##CAS REGISTRY NO=665-03-2
##$NIST MASS SPEC NO=226130
##MOLFORM=C3 H8 F O2 P
##MW=126
##$NIST SOURCE=MSDC
##XUNITS=M/Z
##YUNITS=RELATIVE INTENSITY
##XFACTOR=1
##YFACTOR=1
##FIRSTX=26
##LASTX=127
##FIRSTY=100
##MAXX=127
##MINX=26
##MAXY=9999
##MINY=50
##NPOINTS=28
##PEAK TABLE=(XY..XY)
26,100 27,400 29,800 31,1101
32,600 41,100 47,300 49,60
67,1101 68,800 69,100 78,100
79,100 80,700 81,400 83,300
84,60 91,200 93,100 95,200
96,1301 97,500 98,9999 99,300
105,80 125,1701 126,1401 127,50
##END=
