##TITLE=N-(4-Bromo-phenyl)-2-chloro-benzamide
##JCAMP-DX=4.24
##DATA TYPE=MASS SPECTRUM
##ORIGIN=Zaikin V.G., TIPS RAS, Moscow, Russia
##OWNER=NIST Mass Spectrometry Data Center
Collection (C) 2014 copyright by the U.S. Secretary of Commerce
on behalf of the United States of America. All rights reserved.
##CAS REGISTRY NO=66569-05-9
##$NIST MASS SPEC NO=306982
##MOLFORM=C13 H9 Br Cl N O
##MW=309
##$NIST SOURCE=MSDC
##XUNITS=M/Z
##YUNITS=RELATIVE INTENSITY
##XFACTOR=1
##YFACTOR=1
##FIRSTX=28
##LASTX=314
##FIRSTY=10
##MAXX=314
##MINX=28
##MAXY=9999
##MINY=10
##NPOINTS=46
##PEAK TABLE=(XY..XY)
28,10 36,40 38,30 39,50
50,130 51,100 62,30 63,150
64,110 65,80 74,70 75,550
76,220 77,140 85,40 90,70
91,210 92,60 104,30 105,90
110,40 111,1591 112,150 113,540
114,40 138,30 139,9999 140,661
141,3413 142,220 143,90 145,70
166,50 167,60 170,30 171,140
172,50 173,120 195,70 229,30
309,1501 310,220 311,2002 312,280
313,500 314,60
##END=
