##TITLE=3-Ethyl-3-methyl-2-pentanol
##JCAMP-DX=4.24
##DATA TYPE=MASS SPECTRUM
##ORIGIN=NIST Mass Spectrometry Data Center, 1990.
##OWNER=NIST Mass Spectrometry Data Center
Collection (C) 2014 copyright by the U.S. Secretary of Commerce
on behalf of the United States of America. All rights reserved.
##CAS REGISTRY NO=66576-22-5
##$NIST MASS SPEC NO=114882
##MOLFORM=C8 H18 O
##MW=130
##$NIST SOURCE=MSDC
##XUNITS=M/Z
##YUNITS=RELATIVE INTENSITY
##XFACTOR=1
##YFACTOR=1
##FIRSTX=26
##LASTX=115
##FIRSTY=181
##MAXX=115
##MINX=26
##MAXY=9999
##MINY=95
##NPOINTS=40
##PEAK TABLE=(XY..XY)
26,181 27,1723 28,117 29,1732
31,209 39,2034 40,478 41,4861
42,117 43,9999 44,557 45,5160
46,138 50,154 51,373 52,168
53,972 54,138 55,5974 56,1305
57,4020 58,269 59,2056 65,239
67,609 69,3416 70,417 71,676
72,95 73,589 79,123 81,123
83,3158 84,8661 85,8027 86,478
97,294 101,548 112,554 115,233
##END=
