##TITLE=1,2,4-Butanetriol, trinitrate
##JCAMP-DX=4.24
##DATA TYPE=MASS SPECTRUM
##ORIGIN=MINISTRY OF TECH. E.R.D.E., WALTHAM ABBEY, UK
##OWNER=NIST Mass Spectrometry Data Center
Collection (C) 2014 copyright by the U.S. Secretary of Commerce
on behalf of the United States of America. All rights reserved.
##CAS REGISTRY NO=6659-60-5
##$NIST MASS SPEC NO=11668
##MOLFORM=C4 H7 N3 O9
##MW=241
##$NIST SOURCE=MSDC
##XUNITS=M/Z
##YUNITS=RELATIVE INTENSITY
##XFACTOR=1
##YFACTOR=1
##FIRSTX=12
##LASTX=165
##FIRSTY=20
##MAXX=165
##MINX=12
##MAXY=9999
##MINY=20
##NPOINTS=38
##PEAK TABLE=(XY..XY)
12,20 13,20 14,70 15,1110
16,100 26,210 27,900 28,3880
29,2090 30,1520 31,610 32,60
38,40 39,410 40,320 41,1090
42,700 43,4380 44,590 45,410
46,9999 47,40 50,80 51,70
55,1020 56,310 57,990 58,700
59,100 71,3280 72,1210 73,1320
74,90 76,820 77,110 90,80
104,60 165,50
##END=
