##TITLE=Acetone-D6
##JCAMP-DX=4.24
##DATA TYPE=MASS SPECTRUM
##OWNER=NIST Mass Spectrometry Data Center
Collection (C) 2014 copyright by the U.S. Secretary of Commerce
on behalf of the United States of America. All rights reserved.
##CAS REGISTRY NO=666-52-4
##$NIST MASS SPEC NO=32587
##MOLFORM=C3 D6 O
##MW=64
##$NIST SOURCE=MSDC
##XUNITS=M/Z
##YUNITS=RELATIVE INTENSITY
##XFACTOR=1
##YFACTOR=1
##FIRSTX=14
##LASTX=66
##FIRSTY=70
##MAXX=66
##MINX=14
##MAXY=9999
##MINY=6
##NPOINTS=25
##PEAK TABLE=(XY..XY)
14,70 16,267 18,1841 26,51
28,457 29,19 30,476 31,13
32,89 33,6 34,140 36,25
38,121 40,165 42,381 44,514
45,10 46,9999 47,221 48,22
62,121 63,10 64,3682 65,121
66,10
##END=
