##TITLE=Diphosphine, 1,1-dimethyl-2,2-bis(trifluoromethyl)-
##JCAMP-DX=4.24
##DATA TYPE=MASS SPECTRUM
##ORIGIN=A.Pleshkova, Nesmeyanov Inst.Org.Elem.Cpds, Moscow
##OWNER=NIST Mass Spectrometry Data Center
Collection (C) 2014 copyright by the U.S. Secretary of Commerce
on behalf of the United States of America. All rights reserved.
##CAS REGISTRY NO=666-62-6
##$NIST MASS SPEC NO=284342
##MOLFORM=C4 H6 F6 P2
##MW=230
##$NIST SOURCE=MSDC
##XUNITS=M/Z
##YUNITS=RELATIVE INTENSITY
##XFACTOR=1
##YFACTOR=1
##FIRSTX=31
##LASTX=232
##FIRSTY=1802
##MAXX=232
##MINX=31
##MAXY=9999
##MINY=10
##NPOINTS=35
##PEAK TABLE=(XY..XY)
31,1802 32,20 45,4264 46,711
50,1561 51,20 57,2582 58,60
59,4564 60,100 61,8167 62,190
65,3783 66,40 69,3723 70,40
75,721 76,10 77,841 78,10
79,1682 80,961 81,20 92,601
93,10 111,3603 112,10 131,901
132,20 161,9999 162,340 163,10
230,6546 231,290 232,10
##END=
