##TITLE=2-Ethyl-6-(1-methylpropyl)phenyl isothiocyanate
##JCAMP-DX=4.24
##DATA TYPE=MASS SPECTRUM
##ORIGIN=NIST Mass Spectrometry Data Center, 1994
##OWNER=NIST Mass Spectrometry Data Center
Collection (C) 2014 copyright by the U.S. Secretary of Commerce
on behalf of the United States of America. All rights reserved.
##CAS REGISTRY NO=66609-02-7
##$NIST MASS SPEC NO=134570
##MOLFORM=C13 H17 N S
##MW=219
##$NIST SOURCE=MSDC
##XUNITS=M/Z
##YUNITS=RELATIVE INTENSITY
##XFACTOR=1
##YFACTOR=1
##FIRSTX=14
##LASTX=222
##FIRSTY=27
##MAXX=222
##MINX=14
##MAXY=9999
##MINY=27
##NPOINTS=119
##PEAK TABLE=(XY..XY)
14,27 15,238 27,1950 28,145
29,2436 30,66 38,144 39,1587
40,188 41,721 42,123 45,519
50,354 51,1164 52,336 53,665
54,81 55,173 58,101 59,290
60,91 62,208 63,909 64,296
65,774 66,106 67,68 69,124
71,170 72,163 74,203 75,444
76,466 77,2210 78,535 79,361
80,115 83,50 84,69 87,141
88,160 89,668 90,298 91,1694
92,160 93,59 94,63 95,48
101,270 102,598 103,721 104,307
105,169 106,59 113,99 115,2390
116,906 117,800 118,397 119,111
121,144 126,92 127,618 128,3485
129,1213 130,1164 131,249 132,110
133,56 134,138 135,92 140,155
141,372 142,419 143,526 144,350
145,141 146,303 147,176 148,177
149,69 153,70 154,689 155,546
156,5493 157,997 158,470 159,110
160,162 161,1005 162,2851 163,378
164,158 168,123 169,75 170,397
171,696 172,222 173,170 174,307
175,603 176,318 177,90 184,82
185,102 186,349 187,113 188,203
189,82 190,9999 191,2104 192,585
193,108 204,1053 205,166 219,5434
220,787 221,264 222,57
##END=
