##TITLE=2-Ethyl-6-methylphenyl isothiocyanate
##JCAMP-DX=4.24
##DATA TYPE=MASS SPECTRUM
##ORIGIN=NIST Mass Spectrometry Data Center, 1994
##OWNER=NIST Mass Spectrometry Data Center
Collection (C) 2014 copyright by the U.S. Secretary of Commerce
on behalf of the United States of America. All rights reserved.
##CAS REGISTRY NO=66609-04-9
##$NIST MASS SPEC NO=134524
##MOLFORM=C10 H11 N S
##MW=177
##$NIST SOURCE=MSDC
##XUNITS=M/Z
##YUNITS=RELATIVE INTENSITY
##XFACTOR=1
##YFACTOR=1
##FIRSTX=14
##LASTX=179
##FIRSTY=49
##MAXX=179
##MINX=14
##MAXY=9999
##MINY=48
##NPOINTS=118
##PEAK TABLE=(XY..XY)
14,49 15,638 18,52 26,412
27,2364 28,337 29,250 32,200
33,82 37,265 38,764 39,4066
40,458 41,849 42,76 43,76
44,300 45,1703 46,113 47,114
50,1400 51,3051 52,1030 53,752
54,136 57,159 58,415 59,593
60,208 61,277 62,902 63,2320
64,796 65,2156 66,335 67,315
68,136 69,357 70,532 71,262
72,343 73,154 74,565 75,791
76,877 77,3648 78,1416 79,327
80,154 81,460 82,166 83,87
84,209 85,89 86,195 87,411
88,87 89,1499 90,577 91,3769
92,370 93,204 94,93 95,177
96,164 97,50 98,79 99,51
100,64 101,349 102,981 103,1544
104,645 105,91 107,71 108,103
109,117 113,93 115,2020 116,902
117,1822 118,1803 119,1604 120,256
121,362 122,175 123,61 128,768
129,386 130,863 131,185 132,211
133,127 134,650 135,2133 136,330
137,129 140,76 141,119 142,1100
143,596 144,4540 145,793 146,174
147,98 148,451 149,200 150,157
159,48 160,205 162,7569 163,880
164,378 174,88 176,3769 177,9999
178,1280 179,481
##END=
