##TITLE=Benzene, 1,2-bis(2,2-dimethylpropyl)-3,4,5,6-tetramethyl-
##JCAMP-DX=4.24
##DATA TYPE=MASS SPECTRUM
##ORIGIN=CONTINENTAL OIL CO., PONCA CITY, OKLA, USA
##OWNER=NIST Mass Spectrometry Data Center
Collection (C) 2014 copyright by the U.S. Secretary of Commerce
on behalf of the United States of America. All rights reserved.
##CAS REGISTRY NO=6668-20-8
##$NIST MASS SPEC NO=27570
##MOLFORM=C20 H34
##MW=274
##$NIST SOURCE=MSDC
##XUNITS=M/Z
##YUNITS=RELATIVE INTENSITY
##XFACTOR=1
##YFACTOR=1
##FIRSTX=13
##LASTX=276
##FIRSTY=18
##MAXX=276
##MINX=13
##MAXY=9999
##MINY=2
##NPOINTS=222
##PEAK TABLE=(XY..XY)
13,18 14,183 15,440 16,57
24,3 25,11 26,62 27,824
28,208 29,2830 30,81 32,4
36,5 37,28 38,48 39,778
40,136 41,2983 42,213 43,597
44,54 45,7 46,2 48,2
49,9 50,45 51,155 52,58
53,347 54,42 55,680 56,125
57,3043 58,139 59,7 61,4
62,12 63,66 64,47 65,187
66,34 67,116 68,20 69,905
70,151 71,350 72,22 73,5
74,18 75,43 76,61 77,395
78,124 79,170 80,21 81,49
82,23 83,40 84,26 85,24
86,18 87,16 88,15 89,68
90,27 91,568 92,75 93,75
94,13 95,17 96,9 97,10
98,7 99,13 100,13 101,22
102,51 103,123 104,58 105,400
106,64 107,58 108,18 109,10
110,8 111,9 112,9 113,15
114,21 115,466 116,184 117,241
118,73 119,335 120,95 121,24
125,13 126,23 127,170 128,517
129,568 130,332 131,370 132,108
133,313 134,67 135,85 136,21
137,15 138,17 139,51 140,45
141,383 142,319 143,334 144,222
145,679 146,193 147,966 148,181
149,400 150,61 151,36 152,110
153,152 154,93 155,319 156,343
157,531 158,222 159,357 160,1355
161,9999 162,1717 163,149 164,23
165,92 166,45 167,75 168,45
169,163 170,234 171,568 172,404
173,295 174,66 175,217 176,43
177,15 178,25 179,28 180,17
181,28 182,23 183,146 184,104
185,351 186,268 187,597 188,103
189,115 190,23 191,17 192,9
193,10 194,7 195,12 196,13
197,138 198,154 199,151 200,182
201,370 202,182 203,275 204,62
205,10 207,7 208,4 209,6
210,6 211,26 212,20 213,54
214,39 215,282 216,121 217,7713
218,1704 219,172 220,12 223,2
225,3 227,4 229,4 231,11
232,4 239,4 240,4 241,4
242,4 243,6 244,3 245,6
253,6 254,18 255,13 256,9
257,9 258,20 259,307 260,100
261,14 268,12 269,5 270,40
271,12 272,92 273,32 274,1913
275,416 276,43
##END=
