##TITLE=1,2,3-Trithiolane
##JCAMP-DX=4.24
##DATA TYPE=MASS SPECTRUM
##ORIGIN=A.A.Kutin, Moscow, Russia
##OWNER=NIST Mass Spectrometry Data Center
Collection (C) 2014 copyright by the U.S. Secretary of Commerce
on behalf of the United States of America. All rights reserved.
##CAS REGISTRY NO=6669-39-2
##$NIST MASS SPEC NO=297591
##MOLFORM=C2 H4 S3
##MW=124
##$NIST SOURCE=MSDC
##XUNITS=M/Z
##YUNITS=RELATIVE INTENSITY
##XFACTOR=1
##YFACTOR=1
##FIRSTX=42
##LASTX=130
##FIRSTY=1
##MAXX=130
##MINX=42
##MAXY=9999
##MINY=1
##NPOINTS=63
##PEAK TABLE=(XY..XY)
42,1 43,1 45,2483 46,656
47,218 48,29 50,1 53,5
56,64 57,440 58,1077 59,4088
60,4337 61,309 62,247 64,2476
65,163 66,248 67,14 68,8
69,7 70,2 71,6 72,3
75,2 76,26 78,929 79,107
80,95 81,12 82,2 84,2
85,20 87,17 88,27 89,21
90,32 91,88 92,32 93,12
94,8 96,3762 97,127 98,521
99,11 100,28 101,5 107,5
109,6 111,2 112,1 117,3
118,1 120,5 121,5 122,9
124,9999 125,495 126,1379 127,51
128,67 129,4 130,5
##END=
