##TITLE=Ethyl bromodifluoroacetate
##JCAMP-DX=4.24
##DATA TYPE=MASS SPECTRUM
##ORIGIN=NIST Mass Spectrometry Data Center
##OWNER=NIST Mass Spectrometry Data Center
Collection (C) 2014 copyright by the U.S. Secretary of Commerce
on behalf of the United States of America. All rights reserved.
##CAS REGISTRY NO=667-27-6
##$NIST MASS SPEC NO=343618
##MOLFORM=C4 H5 Br F2 O2
##MW=202
##$NIST SOURCE=MSDC
##XUNITS=M/Z
##YUNITS=RELATIVE INTENSITY
##XFACTOR=1
##YFACTOR=1
##FIRSTX=12
##LASTX=203
##FIRSTY=10
##MAXX=203
##MINX=12
##MAXY=9999
##MINY=10
##NPOINTS=54
##PEAK TABLE=(XY..XY)
12,10 13,10 14,100 15,290
16,20 25,20 26,360 27,2372
28,1061 29,9999 30,350 31,360
32,10 33,10 41,20 42,80
43,240 44,80 45,170 47,50
50,781 51,410 59,300 60,10
73,380 74,10 78,440 79,510
80,90 81,170 82,10 91,10
93,90 94,10 95,170 96,20
107,80 109,100 110,70 111,30
112,60 113,30 123,851 124,40
129,931 131,971 138,10 140,10
157,10 159,20 161,20 187,20
189,20 203,10
##END=
