##TITLE=(R)-(+)-3-Methylcyclopentanone
##JCAMP-DX=4.24
##DATA TYPE=MASS SPECTRUM
##ORIGIN=Chuck Anderson, Aldrich Chemical Co.
##OWNER=NIST Mass Spectrometry Data Center
Collection (C) 2014 copyright by the U.S. Secretary of Commerce
on behalf of the United States of America. All rights reserved.
##CAS REGISTRY NO=6672-30-6
##$NIST MASS SPEC NO=108529
##MOLFORM=C6 H10 O
##MW=98
##$NIST SOURCE=MSDC
##XUNITS=M/Z
##YUNITS=RELATIVE INTENSITY
##XFACTOR=1
##YFACTOR=1
##FIRSTX=14
##LASTX=100
##FIRSTY=77
##MAXX=100
##MINX=14
##MAXY=9999
##MINY=4
##NPOINTS=51
##PEAK TABLE=(XY..XY)
14,77 15,202 18,5 25,30
26,620 27,2790 28,3294 29,1240
30,27 31,50 32,23 33,4
34,22 37,133 38,324 39,2674
40,629 41,4437 42,6200 43,804
44,30 49,36 50,211 51,259
52,101 53,498 54,236 55,6433
56,4437 57,259 58,16 61,19
62,36 63,42 65,52 66,19
67,129 68,70 69,9999 70,1395
71,109 77,9 79,69 80,42
81,23 83,779 84,41 97,100
98,6278 99,436 100,22
##END=
