##TITLE=1-tert-Butoxy-2-methoxyethane
##JCAMP-DX=4.24
##DATA TYPE=MASS SPECTRUM
##ORIGIN=Chuck Anderson, Aldrich Chemical Co.
##OWNER=NIST Mass Spectrometry Data Center
Collection (C) 2014 copyright by the U.S. Secretary of Commerce
on behalf of the United States of America. All rights reserved.
##CAS REGISTRY NO=66728-50-5
##$NIST MASS SPEC NO=108217
##MOLFORM=C7 H16 O2
##MW=132
##$NIST SOURCE=MSDC
##XUNITS=M/Z
##YUNITS=RELATIVE INTENSITY
##XFACTOR=1
##YFACTOR=1
##FIRSTX=14
##LASTX=133
##FIRSTY=12
##MAXX=133
##MINX=14
##MAXY=9999
##MINY=1
##NPOINTS=62
##PEAK TABLE=(XY..XY)
14,12 15,332 16,9 17,4
19,6 26,36 27,284 28,148
29,1767 30,67 31,959 32,11
33,42 37,8 38,25 39,517
40,102 41,2979 42,359 43,1136
44,58 45,1136 46,35 47,530
48,12 49,3 50,16 51,24
52,7 53,52 54,14 55,220
56,2196 57,9999 58,675 59,5075
60,167 61,21 69,4 70,7
71,9 72,33 73,59 74,30
75,65 77,1616 78,52 79,7
83,1 85,14 86,15 87,321
88,17 89,3 100,21 101,14
102,129 103,8 117,1350 118,82
119,7 133,3
##END=
