##TITLE=1-(Methylthio)-3-pentanone
##JCAMP-DX=4.24
##DATA TYPE=MASS SPECTRUM
##ORIGIN=J. MADSEN,DEP. ORG. CHEM.,TECH. UNIV. DENMARK,LYNGBY,DENMARK
##OWNER=NIST Mass Spectrometry Data Center
Collection (C) 2014 copyright by the U.S. Secretary of Commerce
on behalf of the United States of America. All rights reserved.
##CAS REGISTRY NO=66735-69-1
##$NIST MASS SPEC NO=99486
##MOLFORM=C6 H12 O S
##MW=132
##$NIST SOURCE=MSDC
##XUNITS=M/Z
##YUNITS=RELATIVE INTENSITY
##XFACTOR=1
##YFACTOR=1
##FIRSTX=26
##LASTX=134
##FIRSTY=350
##MAXX=134
##MINX=26
##MAXY=9999
##MINY=30
##NPOINTS=52
##PEAK TABLE=(XY..XY)
26,350 27,2870 28,1100 29,8550
30,200 31,50 34,40 35,580
37,30 38,30 39,260 40,380
41,1900 42,150 43,960 44,70
45,1010 46,570 47,1790 48,410
49,530 50,50 51,50 53,70
55,850 56,290 57,9999 58,350
59,540 60,240 61,8050 62,270
63,370 67,70 71,40 73,130
74,220 75,6950 76,330 77,310
83,180 84,170 85,2890 86,190
99,30 103,2010 104,390 105,100
117,120 132,5910 133,460 134,290
##END=
