##TITLE=1H-Indene, 2,3-dihydro-4,7-dimethyl-
##JCAMP-DX=4.24
##DATA TYPE=MASS SPECTRUM
##OWNER=NIST Mass Spectrometry Data Center
Collection (C) 2014 copyright by the U.S. Secretary of Commerce
on behalf of the United States of America. All rights reserved.
##CAS REGISTRY NO=6682-71-9
##$NIST MASS SPEC NO=4239
##MOLFORM=C11 H14
##MW=146
##$NIST SOURCE=MSDC
##XUNITS=M/Z
##YUNITS=RELATIVE INTENSITY
##XFACTOR=1
##YFACTOR=1
##FIRSTX=24
##LASTX=149
##FIRSTY=10
##MAXX=149
##MINX=24
##MAXY=9999
##MINY=10
##NPOINTS=112
##PEAK TABLE=(XY..XY)
24,10 25,10 26,120 27,831
28,220 29,100 30,10 32,10
37,30 38,130 39,1101 40,120
41,320 42,10 43,10 44,10
45,10 46,10 47,10 49,10
50,290 51,851 52,220 53,390
54,20 55,20 56,10 57,50
58,120 59,20 60,10 61,30
62,160 63,530 64,450 65,490
66,50 67,40 68,10 69,30
70,110 71,500 72,230 73,110
74,120 75,140 76,90 77,601
78,180 79,140 80,10 81,10
84,10 85,10 86,40 87,60
88,20 89,160 90,30 91,1041
92,90 93,10 94,10 97,10
98,20 99,10 100,10 101,40
102,150 103,220 104,60 105,290
106,30 107,10 109,10 110,10
111,10 112,10 113,20 114,30
115,1311 116,731 117,310 118,150
119,80 120,10 121,10 122,10
125,10 126,50 127,400 128,1121
129,1221 130,611 131,9999 132,1121
133,60 134,10 135,10 137,10
138,10 139,50 140,10 141,130
142,40 143,130 144,300 145,1461
146,3984 147,470 148,30 149,10
##END=
