##TITLE=1H-Indene, 2,3-dihydro-4,5,7-trimethyl-
##JCAMP-DX=4.24
##DATA TYPE=MASS SPECTRUM
##OWNER=NIST Mass Spectrometry Data Center
Collection (C) 2014 copyright by the U.S. Secretary of Commerce
on behalf of the United States of America. All rights reserved.
##CAS REGISTRY NO=6682-06-0
##$NIST MASS SPEC NO=5666
##MOLFORM=C12 H16
##MW=160
##$NIST SOURCE=MSDC
##XUNITS=M/Z
##YUNITS=RELATIVE INTENSITY
##XFACTOR=1
##YFACTOR=1
##FIRSTX=14
##LASTX=162
##FIRSTY=20
##MAXX=162
##MINX=14
##MAXY=9999
##MINY=10
##NPOINTS=110
##PEAK TABLE=(XY..XY)
14,20 15,310 16,10 17,10
18,20 26,160 27,1041 28,260
29,300 30,10 37,30 38,140
39,1101 40,120 41,420 42,20
43,30 49,10 50,220 51,601
52,170 54,30 55,40 56,10
57,30 58,60 59,10 61,30
62,130 63,440 64,260 65,460
66,50 67,60 68,10 69,30
70,90 71,240 72,40 73,10
74,100 75,130 76,130 77,581
78,220 79,230 80,110 81,10
85,10 86,40 87,60 88,20
89,140 90,20 91,611 92,20
93,20 94,10 96,10 98,20
99,10 100,10 101,40 102,120
103,170 104,50 105,370 106,10
107,10 110,10 111,10 113,30
114,40 115,991 116,180 117,350
118,40 119,110 120,10 125,20
126,50 127,370 128,1231 129,1111
130,741 131,240 132,150 133,160
134,40 139,80 140,40 141,400
142,200 143,500 144,430 145,9999
146,10 147,10 148,30 151,20
152,40 153,30 154,10 155,30
156,20 157,60 158,140 159,1161
160,3663 162,10
##END=
