##TITLE=4-Methoxyphenol, TMS derivative
##JCAMP-DX=4.24
##DATA TYPE=MASS SPECTRUM
##ORIGIN=NIST Mass Spectrometry Data Center
##OWNER=NIST Mass Spectrometry Data Center
Collection (C) 2014 copyright by the U.S. Secretary of Commerce
on behalf of the United States of America. All rights reserved.
##CAS REGISTRY NO=6689-38-9
##$NIST MASS SPEC NO=352897
##MOLFORM=C10 H16 O2 Si
##MW=196
##$NIST SOURCE=MSDC
##XUNITS=M/Z
##YUNITS=RELATIVE INTENSITY
##XFACTOR=1
##YFACTOR=1
##FIRSTX=15
##LASTX=199
##FIRSTY=60
##MAXX=199
##MINX=15
##MAXY=9999
##MINY=10
##NPOINTS=122
##PEAK TABLE=(XY..XY)
15,60 26,20 27,30 28,20
29,60 30,10 31,20 38,30
39,80 40,10 41,100 42,40
43,340 44,110 45,561 46,40
47,70 48,10 50,70 51,120
52,110 53,140 54,80 55,110
56,20 57,50 58,160 59,200
60,40 61,90 62,60 63,260
64,260 65,160 66,40 67,60
68,20 69,130 70,30 71,40
73,3013 74,290 75,561 76,120
77,450 78,200 79,130 80,70
81,50 82,40 83,230 84,50
85,80 86,10 87,10 89,250
91,611 92,390 93,90 94,20
95,490 96,90 97,50 98,20
99,40 101,10 103,20 104,10
105,70 106,40 107,210 108,70
109,140 110,220 111,70 112,20
113,20 119,30 120,30 121,641
122,120 123,841 124,110 125,90
126,10 127,10 131,20 133,50
134,20 135,340 136,110 137,200
138,280 139,40 140,10 147,30
148,30 149,330 150,180 151,611
152,90 153,210 154,30 155,10
161,10 163,20 164,20 165,280
166,500 167,100 168,20 177,10
179,140 181,9999 182,1922 183,571
184,50 194,10 196,7427 197,1281
198,390 199,40
##END=
