##TITLE=Vanillin, TMS derivative
##JCAMP-DX=4.24
##DATA TYPE=MASS SPECTRUM
##ORIGIN=NIST Mass Spectrometry Data Center
##OWNER=NIST Mass Spectrometry Data Center
Collection (C) 2014 copyright by the U.S. Secretary of Commerce
on behalf of the United States of America. All rights reserved.
##CAS REGISTRY NO=6689-43-6
##$NIST MASS SPEC NO=352847
##MOLFORM=C11 H16 O3 Si
##MW=224
##$NIST SOURCE=MSDC
##XUNITS=M/Z
##YUNITS=RELATIVE INTENSITY
##XFACTOR=1
##YFACTOR=1
##FIRSTX=15
##LASTX=227
##FIRSTY=50
##MAXX=227
##MINX=15
##MAXY=9999
##MINY=10
##NPOINTS=138
##PEAK TABLE=(XY..XY)
15,50 26,10 27,20 28,20
29,130 30,10 31,30 37,10
38,20 39,60 41,40 42,30
43,280 44,110 45,721 46,50
47,60 49,10 50,80 51,220
52,100 53,140 54,30 55,90
56,20 57,60 58,130 59,781
60,70 61,100 62,70 63,220
64,70 65,170 66,40 67,80
68,20 69,80 70,30 71,40
72,70 73,2112 74,240 75,330
76,100 77,280 78,80 79,230
80,80 81,60 82,30 83,260
84,30 85,70 86,10 87,10
88,30 89,561 90,80 91,390
92,100 93,100 94,20 95,190
96,30 97,20 98,10 99,30
101,10 102,10 103,40 104,611
105,220 106,40 107,260 108,70
109,150 110,20 111,30 117,10
118,10 119,130 120,40 121,230
122,50 123,100 124,20 125,10
131,10 132,10 133,50 134,40
135,490 136,470 137,871 138,120
139,40 147,70 148,40 149,390
150,130 151,510 152,70 153,20
161,50 163,941 164,410 165,911
166,410 167,80 168,20 175,10
176,10 177,90 178,20 179,671
180,150 181,70 182,10 189,20
191,20 193,5065 194,9999 195,1752
196,510 197,40 205,10 206,10
207,110 209,3883 210,651 211,200
212,20 223,60 224,2312 225,410
226,120 227,10
##END=
