##TITLE=iso-Amyl tiglate
##JCAMP-DX=4.24
##DATA TYPE=MASS SPECTRUM
##ORIGIN=W.Jennings, T.Shibamoto
##OWNER=NIST Mass Spectrometry Data Center
Collection (C) 2014 copyright by the U.S. Secretary of Commerce
on behalf of the United States of America. All rights reserved.
##CAS REGISTRY NO=66917-62-2
##$NIST MASS SPEC NO=284985
##MOLFORM=C10 H18 O2
##MW=170
##$NIST SOURCE=MSDC
##XUNITS=M/Z
##YUNITS=RELATIVE INTENSITY
##XFACTOR=1
##YFACTOR=1
##FIRSTX=25
##LASTX=127
##FIRSTY=90
##MAXX=127
##MINX=25
##MAXY=9999
##MINY=80
##NPOINTS=30
##PEAK TABLE=(XY..XY)
25,90 27,210 29,1221 36,320
39,320 41,751 42,1431 43,4434
44,90 45,210 53,190 54,520
55,9128 56,751 57,420 69,651
70,9999 71,1551 72,80 73,80
82,530 83,7527 84,751 85,420
99,80 100,1131 101,5925 102,320
113,80 127,80
##END=
