##TITLE=Hexahydrocannabinol
##JCAMP-DX=4.24
##DATA TYPE=MASS SPECTRUM
##ORIGIN=Patti Price, Georgia Bureau of Investigation, Decatur, Georgia
##OWNER=NIST Mass Spectrometry Data Center
Collection (C) 2014 copyright by the U.S. Secretary of Commerce
on behalf of the United States of America. All rights reserved.
##CAS REGISTRY NO=6692-85-9
##$NIST MASS SPEC NO=247943
##MOLFORM=C21 H32 O2
##MW=316
##$NIST SOURCE=MSDC
##XUNITS=M/Z
##YUNITS=RELATIVE INTENSITY
##XFACTOR=1
##YFACTOR=1
##FIRSTX=41
##LASTX=318
##FIRSTY=9999
##MAXX=318
##MINX=41
##MAXY=9999
##MINY=10
##NPOINTS=195
##PEAK TABLE=(XY..XY)
41,9999 42,1231 43,6565 44,90
51,360 52,290 53,1781 54,290
55,5354 56,1010 57,1381 58,70
59,140 63,220 64,120 65,1521
66,490 67,3142 68,500 69,4504
70,400 71,690 72,70 75,100
76,150 77,3573 78,910 79,3252
80,790 81,4283 82,610 83,840
85,90 87,120 88,70 89,400
90,230 91,4684 92,740 93,2562
94,630 95,2432 96,280 97,400
98,50 101,140 102,300 103,1191
104,340 105,1621 106,300 107,3423
108,970 109,2672 110,290 111,200
115,2532 116,740 117,950 118,190
119,790 120,350 121,3353 122,920
123,4874 124,1631 125,230 126,70
127,820 128,1651 129,1141 130,370
131,1511 132,320 133,1090 134,310
135,1411 136,5374 137,2362 138,700
139,210 140,50 141,690 142,320
143,370 144,510 145,1171 146,330
147,2232 148,680 149,2252 150,1741
151,490 152,390 153,300 154,110
155,200 156,80 157,590 158,330
159,720 160,1201 161,1891 162,530
163,1211 164,460 165,510 166,110
167,80 168,60 169,140 170,100
171,350 172,150 173,1111 174,1761
175,1401 176,430 177,1781 178,700
179,160 180,290 181,200 182,70
183,110 184,70 185,310 186,200
187,890 188,630 189,630 190,210
191,650 192,310 193,8137 194,1301
195,180 197,70 198,50 199,270
200,210 201,410 202,230 203,950
204,510 205,250 206,210 207,590
208,100 211,40 213,110 214,90
215,370 216,240 217,1201 218,420
219,410 220,100 221,70 227,100
229,230 230,100 231,2552 232,440
233,1541 234,310 235,50 242,40
243,150 244,80 245,750 246,310
247,200 248,40 255,160 257,50
258,10 259,730 260,8627 261,1541
262,190 272,210 273,8387 274,3793
275,610 276,60 287,130 288,50
299,100 301,440 302,90 315,120
316,4223 317,1111 318,150
##END=
