##TITLE=Nitrofurantoin
##JCAMP-DX=4.24
##DATA TYPE=MASS SPECTRUM
##ORIGIN=NIST Mass Spectrometry Data Center, 1998.
##OWNER=NIST Mass Spectrometry Data Center
Collection (C) 2014 copyright by the U.S. Secretary of Commerce
on behalf of the United States of America. All rights reserved.
##CAS REGISTRY NO=67-20-9
##$NIST MASS SPEC NO=290698
##MOLFORM=C8 H6 N4 O5
##MW=238
##$NIST SOURCE=MSDC
##XUNITS=M/Z
##YUNITS=RELATIVE INTENSITY
##XFACTOR=1
##YFACTOR=1
##FIRSTX=25
##LASTX=239
##FIRSTY=140
##MAXX=239
##MINX=25
##MAXY=9999
##MINY=30
##NPOINTS=73
##PEAK TABLE=(XY..XY)
25,140 26,140 27,330 28,870
29,520 30,620 37,450 38,1310
39,710 41,240 42,2280 43,520
44,740 45,50 46,60 49,130
50,1370 51,4830 52,1030 53,440
54,710 55,1210 56,370 57,730
63,170 64,820 65,950 66,350
67,170 68,170 69,80 70,320
71,80 72,880 77,100 78,80
79,6189 80,1120 81,270 82,1690
83,110 93,930 94,100 95,30
96,460 97,80 98,430 99,140
100,9999 101,510 102,80 108,160
109,100 110,90 120,130 121,80
122,290 123,220 124,60 125,200
126,850 127,70 137,300 138,70
139,110 151,110 153,70 166,50
167,2420 168,300 192,100 238,1860
239,250
##END=
