##TITLE=4-Phenoxybenzaldehyde
##JCAMP-DX=4.24
##DATA TYPE=MASS SPECTRUM
##ORIGIN=Chuck Anderson, Aldrich Chemical Co.
##OWNER=NIST Mass Spectrometry Data Center
Collection (C) 2014 copyright by the U.S. Secretary of Commerce
on behalf of the United States of America. All rights reserved.
##CAS REGISTRY NO=67-36-7
##$NIST MASS SPEC NO=108166
##MOLFORM=C13 H10 O2
##MW=198
##$NIST SOURCE=MSDC
##XUNITS=M/Z
##YUNITS=RELATIVE INTENSITY
##XFACTOR=1
##YFACTOR=1
##FIRSTX=26
##LASTX=200
##FIRSTY=62
##MAXX=200
##MINX=26
##MAXY=9999
##MINY=19
##NPOINTS=66
##PEAK TABLE=(XY..XY)
26,62 27,316 28,43 29,243
37,110 38,453 39,1472 40,115
44,19 49,44 50,1198 51,3612
52,209 53,98 55,63 58,196
61,68 62,278 63,834 64,432
65,706 66,170 69,83 70,171
71,79 73,44 74,393 75,333
76,380 77,2790 78,201 84,61
86,37 87,35 88,39 89,153
90,32 91,142 92,240 93,133
94,154 98,54 99,359 102,58
104,40 113,62 114,62 115,2003
116,207 120,39 121,175 139,517
140,116 141,2636 142,398 143,32
151,38 152,34 168,286 169,569
170,126 171,65 197,9999 198,8766
199,1130 200,114
##END=
