##TITLE=3,5-Dimethylpyrazole
##JCAMP-DX=4.24
##DATA TYPE=MASS SPECTRUM
##ORIGIN=Japan AIST/NIMC Database- Spectrum MS-NW-6290
##OWNER=NIST Mass Spectrometry Data Center
Collection (C) 2014 copyright by the U.S. Secretary of Commerce
on behalf of the United States of America. All rights reserved.
##CAS REGISTRY NO=67-51-6
##$NIST MASS SPEC NO=234855
##MOLFORM=C5 H8 N2
##MW=96
##$NIST SOURCE=MSDC
##XUNITS=M/Z
##YUNITS=RELATIVE INTENSITY
##XFACTOR=1
##YFACTOR=1
##FIRSTX=14
##LASTX=98
##FIRSTY=20
##MAXX=98
##MINX=14
##MAXY=9999
##MINY=10
##NPOINTS=52
##PEAK TABLE=(XY..XY)
14,20 15,199 25,30 26,239
27,599 28,799 29,239 30,229
31,50 36,10 37,139 38,279
39,1539 40,489 41,1499 42,1439
43,329 44,90 47,159 48,10
49,20 50,109 51,249 52,309
53,239 54,2129 55,689 56,369
57,80 60,10 61,70 62,109
63,199 64,50 65,479 66,219
67,419 68,559 69,199 70,10
77,20 78,90 79,80 80,50
81,1799 82,99 93,10 94,109
95,7709 96,9999 97,629 98,20
##END=
