##TITLE=Triamcinolone diacetate
##JCAMP-DX=4.24
##DATA TYPE=MASS SPECTRUM
##ORIGIN=Finnigan MAT: Toxicological Library (LIBR-TX)
##OWNER=NIST Mass Spectrometry Data Center
Collection (C) 2014 copyright by the U.S. Secretary of Commerce
on behalf of the United States of America. All rights reserved.
##CAS REGISTRY NO=67-78-7
##$NIST MASS SPEC NO=120333
##MOLFORM=C25 H31 F O8
##MW=478
##$NIST SOURCE=MSDC
##XUNITS=M/Z
##YUNITS=RELATIVE INTENSITY
##XFACTOR=1
##YFACTOR=1
##FIRSTX=41
##LASTX=480
##FIRSTY=730
##MAXX=480
##MINX=41
##MAXY=9999
##MINY=6
##NPOINTS=42
##PEAK TABLE=(XY..XY)
41,730 43,9999 55,1019 73,533
77,655 91,1181 107,537 121,4952
122,3174 135,1032 147,1264 159,534
160,530 187,323 191,316 209,303
223,438 225,401 237,350 251,444
261,984 279,888 281,259 297,280
299,693 317,364 338,73 339,104
356,87 359,152 377,557 378,126
398,28 399,25 416,33 418,50
441,21 442,6 458,79 459,23
479,71 480,18
##END=
