##TITLE=Dimethyl sulfone
##JCAMP-DX=4.24
##DATA TYPE=MASS SPECTRUM
##ORIGIN=Japan AIST/NIMC Database- Spectrum MS-NW-5085
##OWNER=NIST Mass Spectrometry Data Center
Collection (C) 2014 copyright by the U.S. Secretary of Commerce
on behalf of the United States of America. All rights reserved.
##CAS REGISTRY NO=67-71-0
##$NIST MASS SPEC NO=229649
##MOLFORM=C2 H6 O2 S
##MW=94
##$NIST SOURCE=MSDC
##XUNITS=M/Z
##YUNITS=RELATIVE INTENSITY
##XFACTOR=1
##YFACTOR=1
##FIRSTX=12
##LASTX=96
##FIRSTY=10
##MAXX=96
##MINX=12
##MAXY=9999
##MINY=10
##NPOINTS=44
##PEAK TABLE=(XY..XY)
12,10 13,30 14,169 15,8309
16,90 18,30 19,10 26,80
27,289 28,189 29,309 30,20
32,329 33,90 34,109 35,90
36,30 43,10 44,80 45,449
46,179 47,119 48,389 49,129
50,30 51,10 57,10 58,10
59,10 60,10 61,30 62,70
63,459 64,189 65,119 66,20
76,30 78,99 79,9999 80,209
81,499 94,4779 95,169 96,249
##END=
