##TITLE=Tetracyanoethylene
##JCAMP-DX=4.24
##DATA TYPE=MASS SPECTRUM
##ORIGIN=Japan AIST/NIMC Database- Spectrum MS-NW-1390
##OWNER=NIST Mass Spectrometry Data Center
Collection (C) 2014 copyright by the U.S. Secretary of Commerce
on behalf of the United States of America. All rights reserved.
##CAS REGISTRY NO=670-54-2
##$NIST MASS SPEC NO=233488
##MOLFORM=C6 N4
##MW=128
##$NIST SOURCE=MSDC
##XUNITS=M/Z
##YUNITS=RELATIVE INTENSITY
##XFACTOR=1
##YFACTOR=1
##FIRSTX=12
##LASTX=130
##FIRSTY=199
##MAXX=130
##MINX=12
##MAXY=9999
##MINY=10
##NPOINTS=30
##PEAK TABLE=(XY..XY)
12,199 14,30 24,159 26,279
28,80 36,289 37,10 38,2049
39,30 48,309 49,10 50,949
51,70 52,80 62,319 63,10
64,1099 65,40 66,50 74,10
76,8369 77,459 78,20 88,40
102,1039 103,179 104,10 128,9999
129,799 130,20
##END=
