##TITLE=Morpholine, 4-(1-cyclohexen-1-yl)-
##JCAMP-DX=4.24
##DATA TYPE=MASS SPECTRUM
##ORIGIN=Japan AIST/NIMC Database- Spectrum MS-IW-1538
##OWNER=NIST Mass Spectrometry Data Center
Collection (C) 2014 copyright by the U.S. Secretary of Commerce
on behalf of the United States of America. All rights reserved.
##CAS REGISTRY NO=670-80-4
##$NIST MASS SPEC NO=238778
##MOLFORM=C10 H17 N O
##MW=167
##$NIST SOURCE=MSDC
##XUNITS=M/Z
##YUNITS=RELATIVE INTENSITY
##XFACTOR=1
##YFACTOR=1
##FIRSTX=14
##LASTX=169
##FIRSTY=20
##MAXX=169
##MINX=14
##MAXY=9999
##MINY=10
##NPOINTS=119
##PEAK TABLE=(XY..XY)
14,20 15,139 18,20 26,99
27,989 28,379 29,559 30,449
31,90 36,60 37,10 38,70
39,999 40,219 41,2499 42,1289
43,489 44,459 45,339 46,10
50,99 51,379 52,309 53,1309
54,1709 55,1789 56,719 57,349
58,239 59,60 60,20 61,10
62,10 63,50 64,30 65,289
66,269 67,1159 68,799 69,489
70,259 71,219 72,149 73,10
74,40 75,20 76,20 77,949
78,249 79,1269 80,1119 81,4729
82,1169 83,409 84,119 85,119
86,409 87,109 88,20 91,189
92,90 93,309 94,2289 95,1039
96,589 97,309 98,329 99,60
100,20 103,20 104,239 105,489
106,349 107,269 108,6299 109,4019
110,1759 111,299 112,90 113,50
115,10 117,20 118,40 119,40
120,199 121,70 122,1319 123,1359
124,1479 125,199 126,229 127,20
130,10 132,40 133,20 134,129
135,70 136,2829 137,1229 138,1369
139,1229 140,119 141,10 146,10
148,20 150,109 151,40 152,4509
153,479 154,30 161,50 162,40
163,329 164,149 165,259 166,5849
167,9999 168,1149 169,90
##END=
