##TITLE=(SR)- or (RS)-4-methyl-2,3-pentanediol
##JCAMP-DX=4.24
##DATA TYPE=MASS SPECTRUM
##ORIGIN=R.ERRA BALSELLS,DEP. QUIM. ORG.,CITY UNIV. BUENOS AIRES,ARGENT
##OWNER=NIST Mass Spectrometry Data Center
Collection (C) 2014 copyright by the U.S. Secretary of Commerce
on behalf of the United States of America. All rights reserved.
##CAS REGISTRY NO=6702-10-9
##$NIST MASS SPEC NO=99079
##MOLFORM=C6 H14 O2
##MW=118
##$NIST SOURCE=MSDC
##XUNITS=M/Z
##YUNITS=RELATIVE INTENSITY
##XFACTOR=1
##YFACTOR=1
##FIRSTX=27
##LASTX=85
##FIRSTY=2800
##MAXX=85
##MINX=27
##MAXY=9999
##MINY=500
##NPOINTS=13
##PEAK TABLE=(XY..XY)
27,2800 41,2600 43,5300 44,500
45,4500 55,6800 57,3500 59,2600
71,500 72,2600 73,9999 84,600
85,3900
##END=
