##TITLE=Morphinan-6-ol, 7,8-didehydro-4,5-epoxy-3-methoxy-17-methyl-, acetate (ester), (5.alpha.,6.alpha.)-
##JCAMP-DX=4.24
##DATA TYPE=MASS SPECTRUM
##ORIGIN=NIST Mass Spectrometry Data Center
##OWNER=NIST Mass Spectrometry Data Center
Collection (C) 2014 copyright by the U.S. Secretary of Commerce
on behalf of the United States of America. All rights reserved.
##CAS REGISTRY NO=6703-27-1
##$NIST MASS SPEC NO=352193
##MOLFORM=C20 H23 N O4
##MW=341
##$NIST SOURCE=MSDC
##XUNITS=M/Z
##YUNITS=RELATIVE INTENSITY
##XFACTOR=1
##YFACTOR=1
##FIRSTX=14
##LASTX=344
##FIRSTY=10
##MAXX=344
##MINX=14
##MAXY=9999
##MINY=10
##NPOINTS=262
##PEAK TABLE=(XY..XY)
14,10 15,110 26,10 27,80
28,70 29,80 30,260 31,310
38,10 39,230 40,30 41,220
42,2412 43,3793 44,1261 45,80
50,60 51,280 52,110 53,390
54,100 55,440 56,230 57,290
58,591 59,2002 60,150 62,40
63,280 64,110 65,350 66,90
67,170 68,150 69,90 70,1001
71,100 72,60 73,10 74,50
75,120 76,200 77,771 78,270
79,240 80,190 81,1872 82,510
83,170 84,80 86,50 87,60
88,90 89,350 90,140 91,721
92,150 93,140 94,1401 95,230
96,390 97,110 98,60 99,60
100,30 101,190 102,350 103,510
104,190 105,360 106,180 107,220
108,220 109,250 110,210 112,110
113,130 114,200 115,2062 116,641
117,420 118,280 119,160 120,170
121,110 122,170 123,150 124,2072
125,260 126,270 127,801 128,1081
129,520 130,250 131,490 132,370
133,230 134,290 135,70 136,90
137,100 138,110 139,611 140,320
141,801 142,230 143,260 144,751
145,410 146,1001 147,260 148,170
149,550 151,440 152,1441 153,911
154,340 155,470 156,210 157,290
158,290 159,300 160,290 161,380
162,1611 163,340 164,200 165,1161
166,841 167,450 168,550 169,480
170,320 171,310 172,150 173,350
174,300 175,811 176,380 177,290
178,611 179,390 180,250 181,771
182,350 183,340 184,300 185,490
186,310 187,310 188,1181 189,460
190,300 191,180 192,120 193,320
194,280 195,390 196,300 197,500
198,470 199,360 200,240 201,180
202,220 203,120 204,2242 205,420
206,160 207,260 208,190 209,510
210,360 211,480 212,310 213,270
214,1531 215,330 216,280 217,120
218,90 219,100 220,110 221,150
222,390 223,490 224,991 225,1431
226,380 227,200 228,300 229,3563
230,761 231,100 232,20 233,30
234,90 235,90 236,140 237,150
238,330 239,340 240,781 241,360
242,350 243,80 244,20 245,10
246,10 247,10 248,50 249,50
250,240 251,210 252,260 253,140
254,240 255,100 256,170 257,30
258,10 262,30 263,20 264,90
265,80 266,781 267,681 268,210
269,50 270,120 271,50 272,10
278,10 279,10 280,611 281,330
282,6886 283,1381 284,601 285,100
286,10 294,10 296,30 297,20
298,871 299,230 300,40 310,10
312,20 313,20 314,10 324,30
325,10 326,350 327,80 328,10
339,40 340,921 341,9999 342,2172
343,310 344,30
##END=
