##TITLE=Heneicosane, 11-cyclopentyl-
##JCAMP-DX=4.24
##DATA TYPE=MASS SPECTRUM
##OWNER=NIST Mass Spectrometry Data Center
Collection (C) 2014 copyright by the U.S. Secretary of Commerce
on behalf of the United States of America. All rights reserved.
##CAS REGISTRY NO=6703-81-7
##$NIST MASS SPEC NO=16261
##MOLFORM=C26 H52
##MW=364
##$NIST SOURCE=MSDC
##XUNITS=M/Z
##YUNITS=RELATIVE INTENSITY
##XFACTOR=1
##YFACTOR=1
##FIRSTX=15
##LASTX=365
##FIRSTY=60
##MAXX=365
##MINX=15
##MAXY=9999
##MINY=10
##NPOINTS=169
##PEAK TABLE=(XY..XY)
15,60 16,10 17,30 18,140
24,10 25,10 26,90 27,991
28,280 29,3003 30,70 37,10
38,20 39,460 40,130 41,6196
42,1001 43,9408 44,300 45,10
50,20 51,20 52,20 53,280
54,631 55,6226 56,1661 57,9999
58,430 59,10 65,50 66,140
67,1842 68,4244 69,5435 70,1131
71,5745 72,310 73,10 76,10
77,50 78,10 79,160 80,90
81,811 82,1191 83,5795 84,801
85,3643 86,240 87,10 91,40
92,10 93,60 94,50 95,711
96,470 97,4064 98,490 99,761
100,60 101,10 103,10 104,10
105,10 106,10 107,20 108,20
109,220 110,150 111,2022 112,340
113,500 114,50 115,10 117,10
118,10 119,10 120,10 121,10
122,20 123,110 124,110 125,1101
126,210 127,390 128,40 129,10
135,10 136,10 137,70 138,80
139,611 140,150 141,330 142,40
143,10 151,20 152,50 153,400
154,110 155,180 156,20 157,10
165,20 166,50 167,270 168,80
169,130 170,20 179,10 180,30
181,100 182,70 183,110 184,20
185,10 193,10 194,50 195,50
196,40 197,90 198,10 199,10
207,10 208,30 209,60 210,30
211,80 212,10 213,10 221,10
222,741 223,1511 224,270 225,80
226,10 235,10 236,20 237,40
238,40 239,50 240,10 250,10
251,20 252,10 253,20 254,10
264,10 265,10 266,40 267,10
278,10 279,10 280,10 281,10
282,10 292,10 293,10 294,561
295,510 296,100 297,10 307,10
308,10 362,10 363,10 364,20
365,10
##END=
