##TITLE=Cyclohexane, (1-decylundecyl)-
##JCAMP-DX=4.24
##DATA TYPE=MASS SPECTRUM
##ORIGIN=CONTINENTAL OIL CO., PONCA CITY, OKLA, USA
##OWNER=NIST Mass Spectrometry Data Center
Collection (C) 2014 copyright by the U.S. Secretary of Commerce
on behalf of the United States of America. All rights reserved.
##CAS REGISTRY NO=6703-99-7
##$NIST MASS SPEC NO=34823
##MOLFORM=C27 H54
##MW=378
##$NIST SOURCE=MSDC
##XUNITS=M/Z
##YUNITS=RELATIVE INTENSITY
##XFACTOR=1
##YFACTOR=1
##FIRSTX=14
##LASTX=379
##FIRSTY=59
##MAXX=379
##MINX=14
##MAXY=9999
##MINY=2
##NPOINTS=189
##PEAK TABLE=(XY..XY)
14,59 15,103 16,41 24,13
25,19 26,80 27,1276 28,548
29,3415 30,112 31,12 32,11
36,12 37,27 38,32 39,617
40,165 41,6618 42,1131 43,9673
44,367 45,18 49,11 50,25
51,40 52,34 53,346 54,1005
55,9372 56,2010 57,9472 58,416
59,19 63,18 65,74 66,111
67,2003 68,815 69,4071 70,1326
71,4583 72,254 73,23 74,11
75,14 76,13 77,141 78,60
79,307 80,128 81,1284 82,6988
83,9999 84,1257 85,3867 86,203
87,11 89,10 91,150 92,77
93,89 94,44 95,543 96,847
97,3498 98,588 99,677 100,59
101,8 103,12 104,23 105,35
106,10 107,35 108,29 109,362
110,187 111,1520 112,353 113,437
114,42 115,12 116,6 117,14
118,10 119,12 121,15 122,17
123,85 124,127 125,721 126,238
127,308 128,35 129,10 131,10
133,16 135,10 136,10 137,42
138,87 139,361 140,172 141,250
142,31 143,6 145,5 147,8
149,6 150,8 151,26 152,75
153,250 154,131 155,214 156,16
161,6 163,6 165,20 166,55
167,192 168,121 169,150 170,21
177,9 178,6 179,15 180,47
181,136 182,87 183,120 184,20
191,15 192,8 193,17 194,48
195,120 196,64 197,101 198,17
207,9 208,84 209,84 210,49
211,91 212,16 221,9 222,85
223,142 224,52 225,75 226,15
236,1500 237,2615 238,483 239,94
240,16 249,10 250,76 251,92
252,38 253,38 254,9 264,23
265,39 266,99 267,26 278,10
279,15 280,17 281,34 282,11
283,6 291,8 292,42 294,2458
295,1759 296,338 297,35 306,2
307,5 336,8 341,2 355,2
364,10 376,9 377,6 378,25
379,8
##END=
