##TITLE=Cyclohexane, (2-decyldodecyl)-
##JCAMP-DX=4.24
##DATA TYPE=MASS SPECTRUM
##OWNER=NIST Mass Spectrometry Data Center
Collection (C) 2014 copyright by the U.S. Secretary of Commerce
on behalf of the United States of America. All rights reserved.
##CAS REGISTRY NO=6704-00-3
##$NIST MASS SPEC NO=23609
##MOLFORM=C28 H56
##MW=392
##$NIST SOURCE=MSDC
##XUNITS=M/Z
##YUNITS=RELATIVE INTENSITY
##XFACTOR=1
##YFACTOR=1
##FIRSTX=37
##LASTX=393
##FIRSTY=10
##MAXX=393
##MINX=37
##MAXY=9999
##MINY=10
##NPOINTS=175
##PEAK TABLE=(XY..XY)
37,10 38,10 39,510 40,120
41,6356 42,1101 43,9999 44,330
45,10 50,10 51,20 52,20
53,290 54,831 55,9018 56,1912
57,8688 58,370 59,10 63,10
64,10 65,50 66,70 67,1521
68,611 69,4014 70,1011 71,4774
72,250 73,10 77,50 78,20
79,150 80,120 81,1081 82,1521
83,7547 84,861 85,3213 86,200
87,10 89,10 90,10 91,490
92,210 93,60 94,40 95,490
96,1952 97,5345 98,561 99,751
100,50 101,10 103,10 104,20
105,40 106,10 107,20 108,30
109,410 110,180 111,2182 112,280
113,440 114,40 115,10 116,10
117,30 118,10 119,10 120,10
121,10 122,10 123,110 124,100
125,1011 126,170 127,270 128,30
129,10 130,10 131,10 132,10
133,10 135,10 136,10 137,50
138,80 139,470 140,120 141,180
142,20 143,10 145,10 147,10
150,10 151,30 152,50 153,300
154,80 155,170 156,20 161,10
165,10 166,30 167,230 168,100
169,160 170,20 178,10 179,10
180,20 181,150 182,60 183,80
184,10 191,10 193,10 194,20
195,90 196,30 197,50 198,10
207,10 208,20 209,40 210,10
211,40 212,10 221,10 222,60
223,50 224,10 225,30 226,10
235,10 236,30 237,40 238,10
239,20 240,10 249,40 250,1511
251,1972 252,350 253,40 254,10
264,30 265,30 266,30 267,10
278,10 279,20 280,20 281,20
282,10 292,10 293,10 294,540
295,591 296,120 306,10 307,10
308,40 309,40 319,10 320,10
321,10 322,10 386,20 390,10
391,10 392,10 393,10
##END=
