##TITLE=1,1-Diethoxy-1-silacyclo-3-pentene
##JCAMP-DX=4.24
##DATA TYPE=MASS SPECTRUM
##ORIGIN=V.A.KOPTYUG, ATLAS OF MASS SPECTRA OF ORGANIC COMPOUNDS
##OWNER=NIST Mass Spectrometry Data Center
Collection (C) 2014 copyright by the U.S. Secretary of Commerce
on behalf of the United States of America. All rights reserved.
##CAS REGISTRY NO=67059-49-8
##$NIST MASS SPEC NO=78428
##MOLFORM=C8 H16 O2 Si
##MW=172
##$NIST SOURCE=MSDC
##XUNITS=M/Z
##YUNITS=RELATIVE INTENSITY
##XFACTOR=1
##YFACTOR=1
##FIRSTX=45
##LASTX=174
##FIRSTY=2700
##MAXX=174
##MINX=45
##MAXY=9999
##MINY=100
##NPOINTS=46
##PEAK TABLE=(XY..XY)
45,2700 53,600 54,3200 55,200
62,4500 63,2100 64,100 73,5199
74,1100 75,100 89,1500 90,4200
91,3000 92,200 93,100 98,3300
99,3400 100,900 101,200 103,4800
104,300 105,200 113,900 114,100
115,1200 116,2100 117,2800 118,4700
119,2200 120,200 126,9999 127,4500
128,1500 129,1800 130,100 143,2400
144,3600 145,500 146,100 157,2100
158,300 159,100 171,900 172,7799
173,1100 174,300
##END=
