##TITLE=3,3-Dimethylheptanoic acid
##JCAMP-DX=4.24
##DATA TYPE=MASS SPECTRUM
##ORIGIN=Japan AIST/NIMC Database- Spectrum MS-IW-2911
##OWNER=NIST Mass Spectrometry Data Center
Collection (C) 2014 copyright by the U.S. Secretary of Commerce
on behalf of the United States of America. All rights reserved.
##CAS REGISTRY NO=67061-30-7
##$NIST MASS SPEC NO=245160
##MOLFORM=C9 H18 O2
##MW=158
##$NIST SOURCE=MSDC
##XUNITS=M/Z
##YUNITS=RELATIVE INTENSITY
##XFACTOR=1
##YFACTOR=1
##FIRSTX=15
##LASTX=158
##FIRSTY=50
##MAXX=158
##MINX=15
##MAXY=9999
##MINY=10
##NPOINTS=92
##PEAK TABLE=(XY..XY)
15,50 17,10 18,20 26,20
27,619 28,179 29,1419 30,30
31,60 32,10 37,10 38,30
39,789 40,139 41,3099 42,279
43,1529 44,50 45,559 46,20
47,10 48,10 50,30 51,60
52,20 53,179 54,40 55,1379
56,2579 57,9999 58,599 59,929
60,2039 61,189 62,10 63,30
64,10 65,30 66,10 67,90
68,20 69,489 70,60 71,169
72,20 73,129 74,40 75,10
77,30 78,10 79,30 81,50
82,30 83,4449 84,309 85,119
86,10 87,339 88,50 89,30
91,10 95,20 96,10 97,489
98,80 99,199 100,30 101,609
102,689 103,1649 104,90 105,20
106,10 107,20 109,10 111,40
113,10 114,20 115,359 116,20
125,719 126,60 127,20 128,10
129,70 130,10 139,30 141,60
142,10 143,499 144,40 158,10
##END=
