##TITLE=cis-Bicyclo[2.2.2]oct-5-en-2,3-dicarboxylic acid, anhydride
##JCAMP-DX=4.24
##DATA TYPE=MASS SPECTRUM
##ORIGIN=Humboldt-Universitat zu Berlin, Department of Chemistry, Analytical Group
##OWNER=NIST Mass Spectrometry Data Center
Collection (C) 2014 copyright by the U.S. Secretary of Commerce
on behalf of the United States of America. All rights reserved.
##CAS REGISTRY NO=6708-37-8
##$NIST MASS SPEC NO=287098
##MOLFORM=C10 H10 O3
##MW=178
##$NIST SOURCE=MSDC
##XUNITS=M/Z
##YUNITS=RELATIVE INTENSITY
##XFACTOR=1
##YFACTOR=1
##FIRSTX=12
##LASTX=180
##FIRSTY=10
##MAXX=180
##MINX=12
##MAXY=9999
##MINY=2
##NPOINTS=121
##PEAK TABLE=(XY..XY)
12,10 13,9 14,18 15,123
16,17 17,88 18,319 19,6
24,5 25,30 26,454 27,1238
28,479 29,106 30,5 31,13
32,12 33,4 34,7 36,11
37,93 38,295 39,1916 40,197
41,395 42,45 43,284 44,115
45,92 48,4 49,52 50,771
51,1556 52,1131 53,404 54,83
55,185 56,34 57,35 58,7
59,9 60,21 61,37 62,116
63,321 64,60 65,350 66,85
67,35 68,26 69,29 70,14
71,22 72,51 73,28 74,94
75,61 76,111 77,1204 78,9999
79,2169 80,2743 81,215 82,25
83,14 84,9 85,10 86,11
87,16 88,4 89,52 91,1121
92,209 93,27 94,9 95,11
96,6 97,30 98,17 100,1235
101,65 102,37 103,136 104,54
105,323 106,2213 107,195 108,21
109,7 110,5 111,8 112,9
113,5 115,26 116,14 117,9
118,9 119,18 120,5 121,9
122,4 123,4 127,5 128,9
129,4 131,10 132,7 133,39
134,193 135,22 136,7 137,5
149,6 150,77 151,8 152,4
160,2 171,3 178,559 179,72
180,9
##END=
