##TITLE=Piperidine, 1,2-dimethyl-
##JCAMP-DX=4.24
##DATA TYPE=MASS SPECTRUM
##ORIGIN=V.A.KOPTYUG, ATLAS OF MASS SPECTRA OF ORGANIC COMPOUNDS
##OWNER=NIST Mass Spectrometry Data Center
Collection (C) 2014 copyright by the U.S. Secretary of Commerce
on behalf of the United States of America. All rights reserved.
##CAS REGISTRY NO=671-36-3
##$NIST MASS SPEC NO=78026
##MOLFORM=C7 H15 N
##MW=113
##$NIST SOURCE=MSDC
##XUNITS=M/Z
##YUNITS=RELATIVE INTENSITY
##XFACTOR=1
##YFACTOR=1
##FIRSTX=26
##LASTX=114
##FIRSTY=230
##MAXX=114
##MINX=26
##MAXY=9999
##MINY=100
##NPOINTS=52
##PEAK TABLE=(XY..XY)
26,230 27,1570 28,1420 29,780
30,1170 38,150 39,2060 40,420
41,3350 42,7769 43,1230 44,540
45,120 50,100 51,170 52,120
53,310 54,420 55,930 56,1660
57,1850 58,380 65,110 66,100
67,250 68,410 69,270 70,3300
71,500 72,220 77,100 78,110
79,110 80,140 81,200 82,290
83,170 84,680 85,240 91,100
93,100 94,210 95,100 96,580
97,180 98,9999 99,920 110,190
111,180 112,830 113,3560 114,400
##END=
