##TITLE=Benzamide, N-(1-methylethyl)-4-[(2-methylhydrazino)methyl]-
##JCAMP-DX=4.24
##DATA TYPE=MASS SPECTRUM
##ORIGIN=NIST Mass Spectrometry Data Center, 1998.
##OWNER=NIST Mass Spectrometry Data Center
Collection (C) 2014 copyright by the U.S. Secretary of Commerce
on behalf of the United States of America. All rights reserved.
##CAS REGISTRY NO=671-16-9
##$NIST MASS SPEC NO=290939
##MOLFORM=C12 H19 N3 O
##MW=221
##$NIST SOURCE=MSDC
##XUNITS=M/Z
##YUNITS=RELATIVE INTENSITY
##XFACTOR=1
##YFACTOR=1
##FIRSTX=15
##LASTX=222
##FIRSTY=90
##MAXX=222
##MINX=15
##MAXY=9999
##MINY=10
##NPOINTS=102
##PEAK TABLE=(XY..XY)
15,90 16,20 27,260 28,450
29,200 30,390 31,70 32,30
38,50 39,410 40,100 41,610
42,410 43,1210 44,660 45,4250
46,100 50,370 51,660 52,170
53,90 54,60 56,40 57,190
58,480 59,90 60,70 62,110
63,550 64,260 65,600 66,70
67,20 74,100 75,200 76,620
77,1380 78,400 79,350 80,90
81,40 84,40 86,60 87,40
88,30 89,2420 90,4990 91,3810
92,1690 93,210 94,10 102,200
103,280 104,1130 105,1280 106,1990
107,330 115,40 116,120 117,670
118,9659 119,2600 120,280 121,60
122,90 129,20 130,200 131,140
132,1520 133,430 134,1950 135,3030
136,290 145,20 146,40 147,100
148,500 149,260 150,30 158,70
159,50 160,50 161,810 162,130
163,330 164,160 175,210 176,860
177,9999 178,1240 179,90 188,20
189,70 190,280 191,480 192,380
193,30 218,20 219,280 220,50
221,1330 222,190
##END=
