##TITLE=Indenone ethylene ketal
##JCAMP-DX=4.24
##DATA TYPE=MASS SPECTRUM
##ORIGIN=NIST Mass Spectrometry Data Center, 1994
##OWNER=NIST Mass Spectrometry Data Center
Collection (C) 2014 copyright by the U.S. Secretary of Commerce
on behalf of the United States of America. All rights reserved.
##CAS REGISTRY NO=6710-43-6
##$NIST MASS SPEC NO=136712
##MOLFORM=C11 H10 O2
##MW=174
##$NIST SOURCE=MSDC
##XUNITS=M/Z
##YUNITS=RELATIVE INTENSITY
##XFACTOR=1
##YFACTOR=1
##FIRSTX=13
##LASTX=176
##FIRSTY=39
##MAXX=176
##MINX=13
##MAXY=9999
##MINY=12
##NPOINTS=70
##PEAK TABLE=(XY..XY)
13,39 14,56 15,567 16,12
18,22 26,98 29,76 30,171
37,74 38,259 39,556 40,17
42,93 43,212 49,88 50,1328
51,1084 52,308 53,124 55,26
57,176 58,205 61,173 62,678
63,1176 64,294 65,121 71,70
73,30 74,506 75,1177 76,1664
77,415 78,26 85,73 86,243
87,326 88,649 89,820 90,3145
91,341 92,69 98,96 99,49
101,667 102,1890 103,385 104,358
105,58 110,37 113,661 114,1437
115,2217 116,791 117,37 118,9999
119,894 120,52 129,289 130,273
131,123 143,28 144,99 145,36
146,308 147,92 148,21 174,1941
175,244 176,27
##END=
