##TITLE=5-Hepten-2-one
##JCAMP-DX=4.24
##DATA TYPE=MASS SPECTRUM
##ORIGIN=CARL DJERASSI DEPT OF CHEM STANFORD UNIV STANFORD CALIF 94305
##OWNER=NIST Mass Spectrometry Data Center
Collection (C) 2014 copyright by the U.S. Secretary of Commerce
on behalf of the United States of America. All rights reserved.
##CAS REGISTRY NO=6714-00-7
##$NIST MASS SPEC NO=46316
##MOLFORM=C7 H12 O
##MW=112
##$NIST SOURCE=MSDC
##XUNITS=M/Z
##YUNITS=RELATIVE INTENSITY
##XFACTOR=1
##YFACTOR=1
##FIRSTX=41
##LASTX=113
##FIRSTY=2500
##MAXX=113
##MINX=41
##MAXY=9999
##MINY=100
##NPOINTS=21
##PEAK TABLE=(XY..XY)
41,2500 42,200 43,9999 44,300
51,100 53,300 54,200 55,1800
56,100 58,1100 67,300 68,400
69,1100 70,100 71,200 79,200
83,200 94,700 97,1200 112,1400
113,100
##END=
