##TITLE=4-Chloro-3-iodobenzotrifluoride
##JCAMP-DX=4.24
##DATA TYPE=MASS SPECTRUM
##ORIGIN=Chuck Anderson, Aldrich Chemical Co.
##OWNER=NIST Mass Spectrometry Data Center
Collection (C) 2014 copyright by the U.S. Secretary of Commerce
on behalf of the United States of America. All rights reserved.
##CAS REGISTRY NO=672-57-1
##$NIST MASS SPEC NO=107602
##MOLFORM=C7 H3 Cl F3 I
##MW=306
##$NIST SOURCE=MSDC
##XUNITS=M/Z
##YUNITS=RELATIVE INTENSITY
##XFACTOR=1
##YFACTOR=1
##FIRSTX=25
##LASTX=310
##FIRSTY=4
##MAXX=310
##MINX=25
##MAXY=9999
##MINY=3
##NPOINTS=125
##PEAK TABLE=(XY..XY)
25,4 26,13 27,5 31,120
35,40 36,39 37,357 38,202
39,28 44,6 47,29 48,39
49,354 50,1277 51,185 52,3
55,20 56,63 57,140 60,58
61,205 62,145 63,80 64,4
67,52 68,150 69,902 70,12
71,17 72,160 73,666 74,2277
75,2666 76,130 77,5 79,53
80,69 81,49 83,7 84,371
85,270 86,148 87,97 88,15
90,4 91,202 92,151 93,552
94,618 95,111 96,13 97,22
98,26 99,444 100,37 102,21
103,65 104,92 105,45 106,18
107,10 108,82 109,461 110,281
111,157 112,84 113,12 114,5
115,32 117,48 118,67 119,109
120,3 123,195 124,74 125,867
127,1152 128,78 129,454 130,32
131,143 132,7 133,38 135,33
136,10 139,6 141,6 143,1027
144,1597 145,104 148,6 152,19
153,229 154,67 155,9 159,288
160,194 161,107 162,85 163,6
164,21 176,53 177,14 178,155
179,6332 180,385 181,2208 183,8
186,4 200,16 201,15 225,3
237,10 256,34 258,10 271,43
287,680 288,34 289,222 290,11
306,9999 307,552 308,3249 309,197
310,5
##END=
