##TITLE=Glycolic acid, 2TBDMS derivative
##JCAMP-DX=4.24
##DATA TYPE=MASS SPECTRUM
##ORIGIN=NIST Mass Spectrometry Data Center
##OWNER=NIST Mass Spectrometry Data Center
Collection (C) 2014 copyright by the U.S. Secretary of Commerce
on behalf of the United States of America. All rights reserved.
##CAS REGISTRY NO=67226-76-0
##$NIST MASS SPEC NO=352445
##MOLFORM=C14 H32 O3 Si2
##MW=304
##$NIST SOURCE=MSDC
##XUNITS=M/Z
##YUNITS=RELATIVE INTENSITY
##XFACTOR=1
##YFACTOR=1
##FIRSTX=15
##LASTX=291
##FIRSTY=10
##MAXX=291
##MINX=15
##MAXY=9999
##MINY=10
##NPOINTS=129
##PEAK TABLE=(XY..XY)
15,10 27,50 28,20 29,320
30,10 31,50 38,10 39,140
40,30 41,681 42,80 43,310
44,70 45,571 46,40 47,170
48,10 49,10 51,20 52,40
53,30 54,10 55,120 56,180
57,931 58,571 59,991 60,120
61,130 62,10 66,400 69,30
70,20 71,40 73,9088 74,871
75,1271 76,80 77,40 81,120
83,40 84,10 85,160 86,30
87,50 88,210 89,290 90,30
91,30 94,10 95,40 97,30
98,10 99,140 100,60 101,160
102,60 103,150 104,30 105,140
106,10 107,10 113,30 115,1101
116,240 117,691 118,110 119,661
120,90 121,50 129,40 131,390
132,120 133,2312 134,330 135,210
136,20 137,10 143,30 144,10
145,30 147,9999 148,1712 149,1181
150,140 151,50 157,30 158,10
159,70 160,10 161,40 162,50
163,641 164,100 165,50 166,10
173,30 174,10 175,170 176,30
177,50 178,10 187,10 189,7277
190,1381 191,641 192,80 193,20
203,10 205,80 206,20 207,10
215,10 217,10 219,1001 220,200
221,90 222,10 231,260 232,60
233,30 247,6706 248,1461 249,641
250,90 251,20 289,170 290,40
291,20
##END=
