##TITLE=Ethyl 9-decenoate
##JCAMP-DX=4.24
##DATA TYPE=MASS SPECTRUM
##ORIGIN=NIST Mass Spectrometry Data Center
##OWNER=NIST Mass Spectrometry Data Center
Collection (C) 2014 copyright by the U.S. Secretary of Commerce
on behalf of the United States of America. All rights reserved.
##CAS REGISTRY NO=67233-91-4
##$NIST MASS SPEC NO=413921
##MOLFORM=C12 H22 O2
##MW=198
##$NIST SOURCE=MSDC
##XUNITS=M/Z
##YUNITS=RELATIVE INTENSITY
##XFACTOR=1
##YFACTOR=1
##FIRSTX=26
##LASTX=198
##FIRSTY=30
##MAXX=198
##MINX=26
##MAXY=9999
##MINY=20
##NPOINTS=108
##PEAK TABLE=(XY..XY)
26,30 27,851 28,360 29,2102
30,20 31,70 39,1912 40,370
41,6146 42,1311 43,981 45,1011
46,40 47,40 50,30 51,110
52,100 53,841 54,1702 55,9288
56,1631 57,360 58,90 59,240
60,1391 61,2432 62,120 63,50
64,20 65,250 66,150 67,3263
68,3133 69,7046 70,4114 72,40
73,1802 74,470 75,100 76,20
77,60 79,490 81,1331 82,1862
83,3633 84,3763 85,641 86,70
87,591 88,9999 89,831 90,80
91,110 92,100 93,420 94,400
95,1151 96,3023 97,1521 98,841
100,200 101,4874 102,561 103,90
104,40 105,80 106,70 107,410
108,1151 109,1641 110,5975 111,1832
113,280 114,160 115,390 116,130
119,160 123,1461 124,961 125,120
126,30 127,711 128,360 130,50
133,200 134,530 135,3553 136,420
137,310 138,80 141,350 142,270
145,280 146,50 149,30 151,210
152,2772 153,691 154,130 155,420
156,210 157,180 158,20 165,20
169,120 170,40 183,20 198,30
##END=
