##TITLE=5-Chloro-5-methylnonane
##JCAMP-DX=4.24
##DATA TYPE=MASS SPECTRUM
##ORIGIN=NIST Mass Spectrometry Data Center, 1990.
##OWNER=NIST Mass Spectrometry Data Center
Collection (C) 2014 copyright by the U.S. Secretary of Commerce
on behalf of the United States of America. All rights reserved.
##CAS REGISTRY NO=67282-24-0
##$NIST MASS SPEC NO=114633
##MOLFORM=C10 H21 Cl
##MW=176
##$NIST SOURCE=MSDC
##XUNITS=M/Z
##YUNITS=RELATIVE INTENSITY
##XFACTOR=1
##YFACTOR=1
##FIRSTX=27
##LASTX=141
##FIRSTY=1256
##MAXX=141
##MINX=27
##MAXY=9999
##MINY=72
##NPOINTS=51
##PEAK TABLE=(XY..XY)
27,1256 29,1389 35,230 36,525
37,110 38,350 39,1666 40,502
41,4213 42,520 43,1447 50,87
51,305 52,196 53,1142 54,87
55,9999 56,6429 57,2174 58,83
63,132 65,340 66,143 67,1209
68,638 69,5739 70,3729 71,465
76,238 77,417 78,137 79,452
80,72 81,406 82,72 83,4546
84,1005 85,370 89,84 90,79
91,108 95,100 97,234 98,828
99,217 111,243 112,158 118,110
119,160 140,1595 141,243
##END=
