##TITLE=2-Hexenal, (E)-
##JCAMP-DX=4.24
##DATA TYPE=MASS SPECTRUM
##ORIGIN=Japan AIST/NIMC Database- Spectrum MS-NW-5339
##OWNER=NIST Mass Spectrometry Data Center
Collection (C) 2014 copyright by the U.S. Secretary of Commerce
on behalf of the United States of America. All rights reserved.
##CAS REGISTRY NO=6728-26-3
##$NIST MASS SPEC NO=233617
##MOLFORM=C6 H10 O
##MW=98
##$NIST SOURCE=MSDC
##XUNITS=M/Z
##YUNITS=RELATIVE INTENSITY
##XFACTOR=1
##YFACTOR=1
##FIRSTX=13
##LASTX=100
##FIRSTY=20
##MAXX=100
##MINX=13
##MAXY=9999
##MINY=10
##NPOINTS=74
##PEAK TABLE=(XY..XY)
13,20 14,70 15,319 17,10
18,80 25,40 26,619 27,4459
28,599 29,3979 30,90 31,199
32,30 33,10 36,20 37,299
38,669 39,5219 40,1069 41,9999
42,5809 43,1729 44,229 45,50
46,10 47,20 48,10 49,70
50,389 51,529 52,219 53,1039
54,969 55,4609 56,1139 57,4049
58,199 59,40 60,60 61,90
62,129 63,159 64,30 65,269
66,109 67,449 68,549 69,4689
70,1589 71,179 72,20 73,189
74,30 75,10 77,179 78,40
79,769 80,819 81,269 82,50
83,5049 84,279 85,40 86,20
91,70 92,10 93,40 94,10
95,80 96,50 97,1089 98,2069
99,209 100,10
##END=
