##TITLE=Phenprobamate
##JCAMP-DX=4.24
##DATA TYPE=MASS SPECTRUM
##ORIGIN=Tox21 Consortium/NIST Mass Spectrometry Data Center, 2012
##OWNER=NIST Mass Spectrometry Data Center
Collection (C) 2014 copyright by the U.S. Secretary of Commerce
on behalf of the United States of America. All rights reserved.
##CAS REGISTRY NO=673-31-4
##$NIST MASS SPEC NO=408772
##MOLFORM=C10 H13 N O2
##MW=179
##$NIST SOURCE=MSDC
##XUNITS=M/Z
##YUNITS=RELATIVE INTENSITY
##XFACTOR=1
##YFACTOR=1
##FIRSTX=15
##LASTX=179
##FIRSTY=10
##MAXX=179
##MINX=15
##MAXY=9999
##MINY=10
##NPOINTS=78
##PEAK TABLE=(XY..XY)
15,10 16,20 17,10 18,20
19,10 26,30 27,180 28,70
29,120 30,20 31,170 37,10
38,50 39,500 40,50 41,210
42,80 43,300 44,1011 45,270
46,10 49,10 50,210 51,651
52,170 53,90 54,10 55,30
57,70 59,10 61,20 62,140
63,300 64,80 65,951 66,70
67,10 74,80 75,70 76,80
77,901 78,651 79,490 80,40
85,10 86,20 87,20 88,30
89,280 90,130 91,4024 92,781
93,50 94,10 95,10 101,20
102,100 103,761 104,290 105,390
106,50 107,80 108,10 113,10
114,10 115,891 116,240 117,9999
118,8408 119,761 120,30 131,10
132,10 133,10 134,10 136,180
137,10 179,10
##END=
