##TITLE=Benzene, 1-propynyl-
##JCAMP-DX=4.24
##DATA TYPE=MASS SPECTRUM
##ORIGIN=Japan AIST/NIMC Database- Spectrum MS-NW-2681
##OWNER=NIST Mass Spectrometry Data Center
Collection (C) 2014 copyright by the U.S. Secretary of Commerce
on behalf of the United States of America. All rights reserved.
##CAS REGISTRY NO=673-32-5
##$NIST MASS SPEC NO=231573
##MOLFORM=C9 H8
##MW=116
##$NIST SOURCE=MSDC
##XUNITS=M/Z
##YUNITS=RELATIVE INTENSITY
##XFACTOR=1
##YFACTOR=1
##FIRSTX=18
##LASTX=118
##FIRSTY=20
##MAXX=118
##MINX=18
##MAXY=9999
##MINY=10
##NPOINTS=51
##PEAK TABLE=(XY..XY)
18,20 26,30 27,80 37,60
38,129 39,489 40,40 41,20
43,40 44,10 45,10 49,30
50,309 51,469 52,70 53,20
55,30 56,10 57,239 58,199
60,20 61,119 62,349 63,899
64,179 65,309 66,20 73,30
74,209 75,199 76,80 77,149
78,20 84,10 85,60 86,129
87,189 88,159 89,839 90,169
91,10 100,20 101,10 110,20
111,10 113,199 114,349 115,9999
116,7829 117,719 118,30
##END=
