##TITLE=2,4,6-Octatriene, 2,6-dimethyl-
##JCAMP-DX=4.24
##DATA TYPE=MASS SPECTRUM
##OWNER=NIST Mass Spectrometry Data Center
Collection (C) 2014 copyright by the U.S. Secretary of Commerce
on behalf of the United States of America. All rights reserved.
##CAS REGISTRY NO=673-84-7
##$NIST MASS SPEC NO=21035
##MOLFORM=C10 H16
##MW=136
##$NIST SOURCE=MSDC
##XUNITS=M/Z
##YUNITS=RELATIVE INTENSITY
##XFACTOR=1
##YFACTOR=1
##FIRSTX=28
##LASTX=137
##FIRSTY=232
##MAXX=137
##MINX=28
##MAXY=9999
##MINY=72
##NPOINTS=29
##PEAK TABLE=(XY..XY)
28,232 41,348 43,551 53,116
55,377 67,261 77,667 78,200
79,1811 80,246 81,261 91,1666
92,362 93,1840 94,217 96,72
103,116 105,2826 106,667 107,725
108,116 117,174 119,217 121,9999
122,1014 132,72 134,478 136,5159
137,652
##END=
