##TITLE=Benzaldehyde, 2-hydroxy-4-methoxy-
##JCAMP-DX=4.24
##DATA TYPE=MASS SPECTRUM
##ORIGIN=NIST Mass Spectrometry Data Center
##OWNER=NIST Mass Spectrometry Data Center
Collection (C) 2014 copyright by the U.S. Secretary of Commerce
on behalf of the United States of America. All rights reserved.
##CAS REGISTRY NO=673-22-3
##$NIST MASS SPEC NO=352922
##MOLFORM=C8 H8 O3
##MW=152
##$NIST SOURCE=MSDC
##XUNITS=M/Z
##YUNITS=RELATIVE INTENSITY
##XFACTOR=1
##YFACTOR=1
##FIRSTX=14
##LASTX=154
##FIRSTY=10
##MAXX=154
##MINX=14
##MAXY=9999
##MINY=10
##NPOINTS=87
##PEAK TABLE=(XY..XY)
14,10 15,120 25,10 26,60
27,260 28,70 29,330 30,30
31,30 32,10 36,10 37,110
38,280 39,771 40,90 41,240
42,80 43,110 44,10 45,60
46,10 47,10 48,10 49,60
50,340 51,571 52,530 53,931
54,110 55,370 56,20 57,10
59,30 60,50 61,130 62,330
63,771 64,220 65,581 66,250
67,130 68,50 69,490 70,30
71,10 73,20 74,120 75,80
76,40 77,140 78,30 79,310
80,310 81,520 82,40 83,10
90,10 91,70 92,80 93,160
94,130 95,991 96,80 97,10
104,10 105,10 106,460 107,110
108,751 109,180 110,20 119,30
120,20 121,100 122,40 123,70
124,50 134,160 135,30 136,80
137,30 138,10 149,10 151,9999
152,6736 153,611 154,60
##END=
