##TITLE=2-Ethyl-6-isopropylphenyl isothiocyanate
##JCAMP-DX=4.24
##DATA TYPE=MASS SPECTRUM
##ORIGIN=NIST Mass Spectrometry Data Center, 1994
##OWNER=NIST Mass Spectrometry Data Center
Collection (C) 2014 copyright by the U.S. Secretary of Commerce
on behalf of the United States of America. All rights reserved.
##CAS REGISTRY NO=67330-54-5
##$NIST MASS SPEC NO=134578
##MOLFORM=C12 H15 N S
##MW=205
##$NIST SOURCE=MSDC
##XUNITS=M/Z
##YUNITS=RELATIVE INTENSITY
##XFACTOR=1
##YFACTOR=1
##FIRSTX=15
##LASTX=209
##FIRSTY=753
##MAXX=209
##MINX=15
##MAXY=9999
##MINY=3
##NPOINTS=130
##PEAK TABLE=(XY..XY)
15,753 26,246 27,3667 28,752
29,1796 32,40 37,106 39,4543
40,541 41,2691 42,229 43,532
44,242 45,1429 46,100 47,147
50,1313 51,3687 52,963 53,1364
54,170 57,194 58,460 59,840
60,317 61,265 62,715 63,2880
64,1000 65,2102 66,340 67,247
68,170 69,454 70,170 71,917
72,405 73,170 74,894 75,1313
76,1464 77,5346 78,1513 79,1053
80,363 81,166 82,151 83,154
84,202 85,131 88,1155 89,2051
90,731 91,3893 92,384 93,249
94,187 95,244 96,144 98,169
100,138 101,692 102,1376 103,2108
104,973 105,483 106,117 107,133
108,118 109,119 113,304 115,5553
116,2085 117,2287 118,1127 119,539
120,145 121,394 125,90 126,281
127,1320 128,6073 129,2172 130,2811
131,785 132,355 133,160 134,343
135,227 136,187 140,319 141,612
142,1230 143,1071 144,780 145,327
146,573 147,690 148,556 149,187
150,142 152,116 154,1191 156,7543
157,2113 158,849 159,204 160,344
161,1452 162,4032 163,632 164,223
168,115 170,568 172,3380 173,725
174,512 175,847 176,1278 177,170
188,240 190,9999 191,1413 192,518
204,3125 205,8564 206,1337 207,457
208,54 209,3
##END=
