##TITLE=2-Chloro-4-nitrobenzhydrazide
##JCAMP-DX=4.24
##DATA TYPE=MASS SPECTRUM
##ORIGIN=NIST Mass Spectrometry Data Center, 1994
##OWNER=NIST Mass Spectrometry Data Center
Collection (C) 2014 copyright by the U.S. Secretary of Commerce
on behalf of the United States of America. All rights reserved.
##CAS REGISTRY NO=67345-78-2
##$NIST MASS SPEC NO=134923
##MOLFORM=C7 H6 Cl N3 O3
##MW=215
##$NIST SOURCE=MSDC
##XUNITS=M/Z
##YUNITS=RELATIVE INTENSITY
##XFACTOR=1
##YFACTOR=1
##FIRSTX=4
##LASTX=218
##FIRSTY=35
##MAXX=218
##MINX=4
##MAXY=9999
##MINY=35
##NPOINTS=90
##PEAK TABLE=(XY..XY)
4,35 16,125 17,53 18,64
28,429 29,571 30,1334 31,1740
32,115 36,75 37,303 38,337
39,151 43,62 44,125 46,205
49,193 50,953 51,265 52,133
53,208 60,72 61,256 62,459
63,1079 64,165 65,77 66,75
72,141 73,653 74,2843 75,5092
76,592 77,106 78,80 79,60
84,613 85,131 86,270 87,163
88,92 89,118 90,111 91,67
92,73 93,61 97,77 98,219
99,134 100,140 101,88 102,61
103,309 104,86 108,112 109,625
110,3850 111,556 112,1158 113,117
119,149 124,95 126,2874 127,235
128,914 129,84 138,6426 139,539
140,2110 141,200 152,49 154,1036
155,168 156,297 157,53 168,700
169,122 170,259 171,35 180,68
184,9999 185,3336 186,3493 187,1085
188,114 200,58 215,2026 216,180
217,670 218,61
##END=
