##TITLE=D-Glucose, 5TMS derivative
##JCAMP-DX=4.24
##DATA TYPE=MASS SPECTRUM
##ORIGIN=O A MAMER, MCGILL UNIVERSITY, MONTRE
##OWNER=NIST Mass Spectrometry Data Center
Collection (C) 2014 copyright by the U.S. Secretary of Commerce
on behalf of the United States of America. All rights reserved.
##CAS REGISTRY NO=6736-97-6
##$NIST MASS SPEC NO=79231
##MOLFORM=C21 H52 O6 Si5
##MW=540
##$NIST SOURCE=MSDC
##XUNITS=M/Z
##YUNITS=RELATIVE INTENSITY
##XFACTOR=1
##YFACTOR=1
##FIRSTX=11
##LASTX=437
##FIRSTY=28
##MAXX=437
##MINX=11
##MAXY=9999
##MINY=1
##NPOINTS=154
##PEAK TABLE=(XY..XY)
11,28 12,13 13,76 15,191
16,40 26,37 27,41 28,83
29,24 39,20 40,7 41,70
42,7 43,67 44,92 45,427
46,42 47,64 50,25 51,5
52,9 53,54 54,47 55,100
56,28 57,40 58,44 59,256
60,32 61,54 66,28 67,15
68,1 69,37 70,24 71,33
72,171 73,9974 74,903 75,704
76,51 77,39 79,3 81,59
83,24 85,43 87,41 88,27
89,110 97,27 99,48 101,140
102,41 103,685 104,73 105,52
111,27 113,61 115,49 116,98
117,475 118,62 119,73 127,35
129,697 130,104 131,246 132,44
133,434 134,73 135,62 141,28
142,36 143,136 144,26 145,79
146,27 147,2324 148,385 149,293
150,40 151,27 153,27 155,46
157,97 159,36 161,53 163,38
169,88 170,27 171,27 173,33
175,110 177,70 189,385 190,133
191,4659 192,890 193,407 194,61
201,31 203,209 204,9999 205,2076
206,920 207,127 208,27 209,3
215,28 217,1827 218,541 219,259
220,56 221,91 222,41 223,28
229,65 230,57 231,246 232,59
233,76 242,25 243,173 244,40
245,46 257,24 265,50 271,60
279,30 291,176 292,57 293,37
303,39 304,34 305,208 306,75
307,48 317,76 318,36 319,158
320,49 321,45 331,36 332,46
333,35 345,108 346,38 347,49
361,91 362,35 393,48 435,190
436,81 437,46
##END=
