##TITLE=1,1'-Biphenyl, 2-phenoxy-
##JCAMP-DX=4.24
##DATA TYPE=MASS SPECTRUM
##ORIGIN=G.A.M.S., PARIS, FRANCE.
##OWNER=NIST Mass Spectrometry Data Center
Collection (C) 2014 copyright by the U.S. Secretary of Commerce
on behalf of the United States of America. All rights reserved.
##CAS REGISTRY NO=6738-04-1
##$NIST MASS SPEC NO=22920
##MOLFORM=C18 H14 O
##MW=246
##$NIST SOURCE=MSDC
##XUNITS=M/Z
##YUNITS=RELATIVE INTENSITY
##XFACTOR=1
##YFACTOR=1
##FIRSTX=26
##LASTX=249
##FIRSTY=50
##MAXX=249
##MINX=26
##MAXY=9999
##MINY=10
##NPOINTS=138
##PEAK TABLE=(XY..XY)
26,50 27,120 29,140 30,20
37,20 38,50 39,630 40,60
41,100 42,50 43,210 45,40
46,10 50,270 51,1220 52,100
53,60 55,170 56,30 57,70
58,50 61,20 62,150 63,500
64,90 65,220 66,60 67,40
68,40 69,110 70,20 71,60
74,200 75,350 76,270 77,1000
78,190 79,30 81,70 82,30
83,40 84,80 85,30 86,70
87,130 88,100 89,220 90,30
91,120 92,30 94,100 95,140
96,40 97,40 98,60 99,70
100,40 101,230 102,190 103,60
105,60 106,20 107,60 108,130
109,70 111,70 113,170 114,260
115,1170 116,120 122,30 123,220
125,40 126,370 127,580 128,90
129,20 130,40 131,90 139,640
140,200 141,620 142,100 144,60
150,280 151,940 152,3960 153,590
154,180 155,20 163,40 165,540
166,140 167,20 168,460 169,870
170,190 171,20 175,20 176,90
177,70 178,240 179,30 180,40
181,120 182,30 189,200 190,70
191,110 192,40 201,40 202,680
203,630 204,100 205,290 206,40
213,70 215,520 216,190 217,770
218,230 219,240 220,30 226,290
227,780 228,740 229,920 230,270
231,500 232,90 242,40 243,40
244,180 245,900 246,9999 247,2000
248,180 249,30
##END=
