##TITLE=Cyclohexanecarboxylic acid, propyl ester
##JCAMP-DX=4.24
##DATA TYPE=MASS SPECTRUM
##ORIGIN=V.G.Zaikin, TIPS RAS, Moscow, Russia
##OWNER=NIST Mass Spectrometry Data Center
Collection (C) 2014 copyright by the U.S. Secretary of Commerce
on behalf of the United States of America. All rights reserved.
##CAS REGISTRY NO=6739-34-0
##$NIST MASS SPEC NO=279532
##MOLFORM=C10 H18 O2
##MW=170
##$NIST SOURCE=MSDC
##XUNITS=M/Z
##YUNITS=RELATIVE INTENSITY
##XFACTOR=1
##YFACTOR=1
##FIRSTX=26
##LASTX=171
##FIRSTY=220
##MAXX=171
##MINX=26
##MAXY=9999
##MINY=20
##NPOINTS=66
##PEAK TABLE=(XY..XY)
26,220 27,1832 28,430 29,1211
30,110 31,170 38,110 39,1712
40,370 41,4454 42,991 43,2993
44,480 45,150 47,150 50,50
51,210 52,100 53,591 54,791
55,6376 56,911 57,240 58,50
59,240 60,380 61,390 65,120
66,150 67,1381 68,1381 69,741
70,80 71,60 73,1932 74,110
77,180 78,60 79,350 80,160
81,1281 82,891 83,8418 84,561
85,110 86,250 87,310 91,20
93,360 95,80 99,450 100,120
101,80 109,150 110,821 111,3673
112,290 113,170 127,210 128,1281
129,9999 130,811 131,90 141,50
170,150 171,30
##END=
