##TITLE=dl-Mevalonic acid lactone
##JCAMP-DX=4.24
##DATA TYPE=MASS SPECTRUM
##ORIGIN=Japan AIST/NIMC Database- Spectrum MS-NW-5353
##OWNER=NIST Mass Spectrometry Data Center
Collection (C) 2014 copyright by the U.S. Secretary of Commerce
on behalf of the United States of America. All rights reserved.
##CAS REGISTRY NO=674-26-0
##$NIST MASS SPEC NO=231305
##MOLFORM=C6 H10 O3
##MW=130
##$NIST SOURCE=MSDC
##XUNITS=M/Z
##YUNITS=RELATIVE INTENSITY
##XFACTOR=1
##YFACTOR=1
##FIRSTX=13
##LASTX=131
##FIRSTY=20
##MAXX=131
##MINX=13
##MAXY=9999
##MINY=10
##NPOINTS=76
##PEAK TABLE=(XY..XY)
13,20 14,159 15,569 16,20
17,30 18,109 19,10 25,20
26,179 27,959 28,499 29,559
30,70 31,519 32,80 35,10
36,10 37,60 38,139 39,849
40,229 41,1109 42,1389 43,9999
44,319 45,279 46,10 49,20
50,80 51,99 52,40 53,1139
54,309 55,409 56,209 57,469
58,2579 59,179 60,149 61,519
62,20 63,10 65,20 66,20
67,109 68,50 69,249 70,379
71,6299 72,359 73,309 74,20
79,10 81,10 82,619 83,70
84,229 85,559 86,50 87,339
88,99 89,109 91,10 92,10
97,10 101,10 102,349 103,559
104,30 111,30 112,319 113,40
115,189 116,10 130,40 131,20
##END=
