##TITLE=2-Oxetanone, 4-methylene-
##JCAMP-DX=4.24
##DATA TYPE=MASS SPECTRUM
##ORIGIN=NIST Mass Spectrometry Data Center
##OWNER=NIST Mass Spectrometry Data Center
Collection (C) 2014 copyright by the U.S. Secretary of Commerce
on behalf of the United States of America. All rights reserved.
##CAS REGISTRY NO=674-82-8
##$NIST MASS SPEC NO=334003
##MOLFORM=C4 H4 O2
##MW=84
##$NIST SOURCE=MSDC
##XUNITS=M/Z
##YUNITS=RELATIVE INTENSITY
##XFACTOR=1
##YFACTOR=1
##FIRSTX=14
##LASTX=85
##FIRSTY=240
##MAXX=85
##MINX=14
##MAXY=9999
##MINY=10
##NPOINTS=34
##PEAK TABLE=(XY..XY)
14,240 15,40 16,10 19,10
24,40 25,170 26,681 27,581
28,1041 29,260 30,10 36,160
37,701 38,941 39,3033 40,2542
41,490 42,9999 43,571 44,250
45,50 48,10 49,30 50,20
52,40 53,120 54,10 56,5605
57,200 58,20 68,10 69,80
84,591 85,30
##END=
