##TITLE=1,3-Dithiolo[4,5-b]furan, tetrahydro-3a-methyl-
##JCAMP-DX=4.24
##DATA TYPE=MASS SPECTRUM
##ORIGIN=JAFCAU, 26(5)1173(1978); R. SEIFERT, ET AL
##OWNER=NIST Mass Spectrometry Data Center
Collection (C) 2014 copyright by the U.S. Secretary of Commerce
on behalf of the United States of America. All rights reserved.
##CAS REGISTRY NO=67411-25-0
##$NIST MASS SPEC NO=64593
##MOLFORM=C6 H10 O S2
##MW=162
##$NIST SOURCE=MSDC
##XUNITS=M/Z
##YUNITS=RELATIVE INTENSITY
##XFACTOR=1
##YFACTOR=1
##FIRSTX=39
##LASTX=164
##FIRSTY=900
##MAXX=164
##MINX=39
##MAXY=9999
##MINY=40
##NPOINTS=23
##PEAK TABLE=(XY..XY)
39,900 41,600 43,9999 44,400
45,1400 46,500 47,300 53,400
55,700 58,200 59,300 69,300
71,400 73,400 74,200 83,1200
84,3400 99,100 116,150 117,100
162,400 163,40 164,40
##END=
