##TITLE=1H-Pyrazolo[4,3-d]pyrimidine, 7-amino-3-.beta.-D-ribofuranosyl-
##JCAMP-DX=4.24
##DATA TYPE=MASS SPECTRUM
##OWNER=NIST Mass Spectrometry Data Center
Collection (C) 2014 copyright by the U.S. Secretary of Commerce
on behalf of the United States of America. All rights reserved.
##CAS REGISTRY NO=6742-12-7
##$NIST MASS SPEC NO=28141
##MOLFORM=C10 H13 N5 O4
##MW=267
##$NIST SOURCE=MSDC
##XUNITS=M/Z
##YUNITS=RELATIVE INTENSITY
##XFACTOR=1
##YFACTOR=1
##FIRSTX=15
##LASTX=268
##FIRSTY=2550
##MAXX=268
##MINX=15
##MAXY=9999
##MINY=400
##NPOINTS=127
##PEAK TABLE=(XY..XY)
15,2550 17,3799 18,2999 19,910
25,660 26,1310 27,2780 28,3755
29,5559 30,1340 31,4660 32,400
36,660 37,1160 38,1430 39,2140
40,1870 41,2320 42,1870 43,4420
44,8399 45,8099 46,1520 50,770
51,770 52,1700 53,2730 54,4400
55,1860 56,910 57,1300 58,730
59,1260 60,3050 61,1320 62,750
63,910 64,1760 65,2460 66,1360
67,1870 68,2680 69,960 70,980
72,800 73,1110 76,1200 77,730
78,1180 79,1280 80,1070 81,2940
82,1090 90,730 91,870 92,2360
93,1320 94,2230 95,1280 103,1090
105,870 106,1360 107,1070 108,1980
109,1180 110,730 118,870 119,2070
120,1180 121,1090 122,1090 132,730
133,730 134,640 135,2500 136,1910
137,1020 144,4280 145,1480 146,820
147,1090 148,2960 149,4550 150,1140
160,960 161,1090 162,2500 163,1430
164,9999 165,3420 166,820 173,820
174,870 176,1800 177,1770 178,3480
179,840 185,1320 186,1830 188,730
191,800 192,2960 193,960 194,960
200,1540 201,1800 202,960 206,910
212,730 215,870 218,770 219,770
220,770 221,870 227,910 230,2000
231,2000 232,890 237,1090 238,730
240,960 241,1070 247,730 249,840
250,960 267,4999 268,770
##END=
