##TITLE=Methyl isobutyl disulphide
##JCAMP-DX=4.24
##DATA TYPE=MASS SPECTRUM
##ORIGIN=D. GUPTA, DEP. CHEM., GOV. COLL., AJMER, INDIA
##OWNER=NIST Mass Spectrometry Data Center
Collection (C) 2014 copyright by the U.S. Secretary of Commerce
on behalf of the United States of America. All rights reserved.
##CAS REGISTRY NO=67421-83-4
##$NIST MASS SPEC NO=98927
##MOLFORM=C5 H12 S2
##MW=136
##$NIST SOURCE=MSDC
##XUNITS=M/Z
##YUNITS=RELATIVE INTENSITY
##XFACTOR=1
##YFACTOR=1
##FIRSTX=27
##LASTX=138
##FIRSTY=1900
##MAXX=138
##MINX=27
##MAXY=9999
##MINY=300
##NPOINTS=31
##PEAK TABLE=(XY..XY)
27,1900 29,5600 32,1600 38,400
39,2200 40,500 41,8300 42,800
43,1400 44,2200 45,2200 46,1000
47,1400 48,500 53,300 55,1200
56,1600 57,9999 58,400 61,300
64,600 73,500 79,1200 80,5500
82,500 87,400 93,500 94,600
136,5700 137,400 138,700
##END=
