##TITLE=cis-5-Decen-1-yl acetate
##JCAMP-DX=4.24
##DATA TYPE=MASS SPECTRUM
##ORIGIN=Japan AIST/NIMC Database- Spectrum MS-IW-2306
##OWNER=NIST Mass Spectrometry Data Center
Collection (C) 2014 copyright by the U.S. Secretary of Commerce
on behalf of the United States of America. All rights reserved.
##CAS REGISTRY NO=67446-07-5
##$NIST MASS SPEC NO=238086
##MOLFORM=C12 H22 O2
##MW=198
##$NIST SOURCE=MSDC
##XUNITS=M/Z
##YUNITS=RELATIVE INTENSITY
##XFACTOR=1
##YFACTOR=1
##FIRSTX=14
##LASTX=196
##FIRSTY=40
##MAXX=196
##MINX=14
##MAXY=9999
##MINY=10
##NPOINTS=137
##PEAK TABLE=(XY..XY)
14,40 15,409 16,10 26,99
27,1379 28,1099 29,1789 30,60
31,329 32,309 37,10 38,50
39,1459 40,329 41,5379 42,1219
43,9999 44,819 45,319 46,10
47,10 50,40 51,139 52,90
53,1009 54,6529 55,8099 56,1219
57,1739 58,419 59,129 60,259
61,899 62,30 63,30 64,10
65,329 66,789 67,8449 68,7189
69,2619 70,769 71,1769 72,189
73,379 74,30 75,30 76,10
77,349 78,90 79,1319 80,609
81,9319 82,5729 83,1749 84,689
85,1559 86,269 87,939 88,70
89,20 91,239 92,70 93,589
94,299 95,6559 96,2899 97,3469
98,499 99,359 100,80 101,509
102,50 103,30 104,20 105,70
106,20 107,219 108,119 109,1989
110,5719 111,2199 112,429 113,1389
114,129 115,80 116,20 117,20
118,10 119,30 120,10 121,289
122,60 123,949 124,239 125,229
126,329 127,889 128,90 129,129
130,20 131,10 133,20 134,30
135,40 136,129 137,309 138,2689
139,379 140,40 141,70 142,30
143,30 144,10 145,40 147,10
148,20 149,50 150,80 151,60
152,799 153,169 154,50 155,50
156,10 157,20 165,10 166,20
167,10 168,10 169,90 170,129
171,40 172,10 183,10 194,10
196,10
##END=
