##TITLE=Sinapinic acid, (E)-, 2TMS derivative
##JCAMP-DX=4.24
##DATA TYPE=MASS SPECTRUM
##ORIGIN=H. Ohashi, Dep. Botany, Univ. British Columbia, Vancouver, Canada
##OWNER=NIST Mass Spectrometry Data Center
Collection (C) 2014 copyright by the U.S. Secretary of Commerce
on behalf of the United States of America. All rights reserved.
##CAS REGISTRY NO=67460-48-4
##$NIST MASS SPEC NO=115302
##MOLFORM=C17 H28 O5 Si2
##MW=368
##$NIST SOURCE=MSDC
##XUNITS=M/Z
##YUNITS=RELATIVE INTENSITY
##XFACTOR=1
##YFACTOR=1
##FIRSTX=43
##LASTX=370
##FIRSTY=1500
##MAXX=370
##MINX=43
##MAXY=9999
##MINY=1000
##NPOINTS=24
##PEAK TABLE=(XY..XY)
43,1500 45,7500 58,1600 59,2500
73,9900 74,2500 75,2400 89,1400
162,2400 218,1000 249,1800 279,5100
280,1200 323,4800 324,1300 338,9999
339,2500 340,2300 353,6900 354,3000
355,1300 368,8500 369,4000 370,1000
##END=
