##TITLE=Hydramethylnon
##JCAMP-DX=4.24
##DATA TYPE=MASS SPECTRUM
##ORIGIN=NIST Mass Spectrometry Data Center, 1998.
##OWNER=NIST Mass Spectrometry Data Center
Collection (C) 2014 copyright by the U.S. Secretary of Commerce
on behalf of the United States of America. All rights reserved.
##CAS REGISTRY NO=67485-29-4
##$NIST MASS SPEC NO=291698
##MOLFORM=C25 H24 F6 N4
##MW=494
##$NIST SOURCE=MSDC
##XUNITS=M/Z
##YUNITS=RELATIVE INTENSITY
##XFACTOR=1
##YFACTOR=1
##FIRSTX=27
##LASTX=496
##FIRSTY=80
##MAXX=496
##MINX=27
##MAXY=9999
##MINY=10
##NPOINTS=338
##PEAK TABLE=(XY..XY)
27,80 28,190 29,200 30,260
38,10 39,190 40,60 41,890
42,290 43,480 44,60 50,30
51,60 52,30 53,150 54,110
55,2750 56,1100 57,450 58,40
62,10 63,50 64,10 65,20
66,30 67,80 68,130 69,490
70,530 71,260 72,60 74,30
75,100 76,50 77,150 78,50
79,20 80,40 81,110 82,220
83,110 84,160 85,50 86,20
87,20 88,20 89,50 90,20
91,30 92,10 93,30 94,40
95,170 96,250 97,140 98,50
99,60 100,20 101,120 102,310
103,440 104,50 105,10 106,10
107,50 108,40 109,290 110,140
111,170 112,440 113,90 114,80
115,380 116,130 117,50 118,30
119,90 120,100 121,60 122,70
123,30 124,40 125,140 126,170
127,320 128,450 129,80 130,50
131,50 132,50 133,270 134,50
135,10 136,20 137,30 138,1380
139,240 140,130 141,120 142,150
143,170 144,210 145,460 146,210
147,130 148,20 149,20 150,40
151,1210 152,1370 153,250 154,50
155,20 156,50 157,70 158,140
159,950 160,100 161,40 162,10
163,60 164,180 165,140 166,80
167,30 168,60 169,190 170,220
171,760 172,1150 173,150 174,250
175,60 176,100 177,390 178,940
179,170 180,30 181,10 182,100
183,470 184,280 185,180 186,210
187,190 188,110 189,60 190,90
191,50 192,120 193,100 194,30
195,70 196,310 197,720 198,390
199,500 200,210 201,50 202,100
203,40 204,20 205,20 206,10
207,30 208,30 209,100 210,410
211,340 212,820 213,520 214,120
215,290 216,140 217,80 218,80
219,380 220,70 221,20 222,30
223,30 224,50 225,170 226,140
227,100 228,70 229,20 230,10
231,10 232,10 233,40 234,10
235,10 236,20 237,150 238,90
239,870 240,700 241,660 242,110
243,10 244,20 245,20 246,40
247,160 249,10 250,10 251,60
252,60 253,50 254,130 255,1320
256,220 257,20 258,10 259,20
262,20 263,50 264,70 265,100
266,50 267,40 268,50 269,60
270,260 271,70 272,20 273,10
274,50 275,10 276,10 277,20
278,70 279,40 280,60 281,60
282,3130 283,580 284,110 285,120
286,40 287,10 288,10 289,10
290,10 291,10 292,10 293,20
294,30 295,40 296,5809 297,9999
298,1700 299,150 300,20 301,20
302,10 305,10 306,10 307,10
308,20 309,10 310,10 311,10
312,10 313,20 314,20 315,50
316,20 319,20 320,20 321,70
322,30 323,280 324,50 325,10
327,10 328,10 332,10 333,10
334,10 335,50 336,10 340,10
342,40 343,10 347,10 348,20
349,230 350,50 351,10 353,30
354,20 355,10 356,10 362,20
363,90 364,20 365,10 366,60
367,10 368,150 369,40 370,20
380,10 381,30 382,10 383,1190
384,400 385,60 386,10 395,10
397,410 398,90 399,10 408,30
409,10 410,10 424,40 425,10
437,10 451,10 455,10 464,40
465,20 466,10 473,10 475,530
476,150 477,30 479,40 480,10
491,40 492,20 493,430 494,840
495,220 496,30
##END=
