##TITLE=2H-Pyran-2-one, 4,6-dimethyl-
##JCAMP-DX=4.24
##DATA TYPE=MASS SPECTRUM
##ORIGIN=TAT 0219
##OWNER=NIST Mass Spectrometry Data Center
Collection (C) 2014 copyright by the U.S. Secretary of Commerce
on behalf of the United States of America. All rights reserved.
##CAS REGISTRY NO=675-09-2
##$NIST MASS SPEC NO=2372
##MOLFORM=C7 H8 O2
##MW=124
##$NIST SOURCE=MSDC
##XUNITS=M/Z
##YUNITS=RELATIVE INTENSITY
##XFACTOR=1
##YFACTOR=1
##FIRSTX=15
##LASTX=125
##FIRSTY=400
##MAXX=125
##MINX=15
##MAXY=9999
##MINY=100
##NPOINTS=39
##PEAK TABLE=(XY..XY)
15,400 26,500 27,1702 28,400
37,601 38,1001 39,1802 40,400
41,801 42,601 43,4304 44,300
49,400 50,1301 51,1601 52,901
53,8207 54,500 55,100 62,400
63,500 64,100 65,500 66,801
67,2402 68,1601 69,701 81,1802
82,400 85,701 94,500 95,2602
96,9999 97,901 98,200 109,3403
110,300 124,5805 125,500
##END=
