##TITLE=1-Dodecanol, 3,7,11-trimethyl-
##JCAMP-DX=4.24
##DATA TYPE=MASS SPECTRUM
##ORIGIN=NIST Mass Spectrometry Data Center, 1990.
##OWNER=NIST Mass Spectrometry Data Center
Collection (C) 2014 copyright by the U.S. Secretary of Commerce
on behalf of the United States of America. All rights reserved.
##CAS REGISTRY NO=6750-34-1
##$NIST MASS SPEC NO=114065
##MOLFORM=C15 H32 O
##MW=228
##$NIST SOURCE=MSDC
##XUNITS=M/Z
##YUNITS=RELATIVE INTENSITY
##XFACTOR=1
##YFACTOR=1
##FIRSTX=27
##LASTX=140
##FIRSTY=976
##MAXX=140
##MINX=27
##MAXY=9999
##MINY=230
##NPOINTS=44
##PEAK TABLE=(XY..XY)
27,976 28,1322 29,1719 31,1646
32,355 39,1308 41,7340 42,1959
43,8405 44,480 45,298 53,834
55,9999 56,5386 57,8382 58,351
67,1443 68,1312 69,9343 70,5924
71,6021 72,355 79,302 81,1516
82,1051 83,5061 84,1825 85,1232
95,745 96,1487 97,3545 98,1003
99,299 109,240 110,230 111,1533
112,1071 113,309 123,234 124,394
125,1805 126,1301 127,271 140,336
##END=
