##TITLE=1,2,3,4,6,7,8-Heptachlorodibenzofuran
##JCAMP-DX=4.24
##DATA TYPE=MASS SPECTRUM
##ORIGIN=USEPA, J EICHELBERGER CINCINNATI
##OWNER=NIST Mass Spectrometry Data Center
Collection (C) 2014 copyright by the U.S. Secretary of Commerce
on behalf of the United States of America. All rights reserved.
##CAS REGISTRY NO=67562-39-4
##$NIST MASS SPEC NO=97231
##MOLFORM=C12 H Cl7 O
##MW=406
##$NIST SOURCE=MSDC
##XUNITS=M/Z
##YUNITS=RELATIVE INTENSITY
##XFACTOR=1
##YFACTOR=1
##FIRSTX=36
##LASTX=416
##FIRSTY=1049
##MAXX=416
##MINX=36
##MAXY=9999
##MINY=6
##NPOINTS=215
##PEAK TABLE=(XY..XY)
36,1049 37,87 38,702 40,414
42,10 45,27 47,274 50,100
51,63 53,77 55,67 56,40
59,184 60,264 61,421 62,84
63,114 64,107 66,291 67,237
71,444 72,204 73,628 76,27
77,254 79,40 81,110 83,465
84,3198 85,1099 86,180 87,692
89,922 90,468 91,174 92,30
93,187 95,812 96,1417 97,772
98,498 99,84 101,3095 102,1397
103,759 104,317 105,20 106,401
107,1146 108,1567 109,1400 110,201
111,167 112,180 113,33 114,37
115,167 116,134 117,107 118,408
119,4879 120,2563 121,1514 122,491
124,207 125,431 126,107 127,104
128,70 129,7 131,2099 132,3158
133,3065 134,531 135,471 136,3609
137,3502 138,5949 140,344 141,906
142,511 143,2273 144,1323 145,321
146,334 147,87 148,77 149,307
150,274 151,184 152,10 154,4164
155,4772 156,3522 157,1534 158,184
159,174 162,221 163,60 165,662
166,334 167,1430 168,4211 169,2650
170,2266 171,3482 172,5888 173,2008
174,6136 175,1243 176,662 177,134
178,625 179,328 180,545 181,70
182,358 184,107 186,211 187,618
188,307 189,548 190,297 191,485
192,194 193,207 194,84 196,398
198,147 201,48 202,612 203,638
204,757 205,320 206,157 207,13
213,244 214,207 215,114 219,307
221,94 223,170 225,194 226,247
228,33 231,184 232,67 235,174
236,80 237,404 238,825 239,638
240,485 241,602 242,314 243,80
244,74 249,50 251,328 253,267
255,80 259,20 264,110 265,140
266,164 268,224 270,84 273,4926
275,7058 276,247 277,3325 278,374
279,565 281,251 283,104 307,94
308,568 309,381 310,939 311,448
312,414 313,180 314,301 336,364
338,735 340,431 341,74 342,150
343,1942 344,77 345,3222 346,184
347,2413 348,301 349,1089 350,87
351,274 354,87 371,25 372,18
373,35 374,21 375,71 377,6
406,4558 407,180 408,9371 409,892
410,9999 411,972 412,5434 413,475
414,2092 415,107 416,448
##END=
