##TITLE=Cyclohexanecarboxylic acid, 4-butyl-, 4-ethoxyphenyl ester, trans-
##JCAMP-DX=4.24
##DATA TYPE=MASS SPECTRUM
##ORIGIN=Japan AIST/NIMC Database- Spectrum MS-NW-4490
##OWNER=NIST Mass Spectrometry Data Center
Collection (C) 2014 copyright by the U.S. Secretary of Commerce
on behalf of the United States of America. All rights reserved.
##CAS REGISTRY NO=67589-47-3
##$NIST MASS SPEC NO=237736
##MOLFORM=C19 H28 O3
##MW=304
##$NIST SOURCE=MSDC
##XUNITS=M/Z
##YUNITS=RELATIVE INTENSITY
##XFACTOR=1
##YFACTOR=1
##FIRSTX=14
##LASTX=305
##FIRSTY=20
##MAXX=305
##MINX=14
##MAXY=9999
##MINY=10
##NPOINTS=72
##PEAK TABLE=(XY..XY)
14,20 16,10 18,20 26,30
27,209 28,60 29,369 38,10
39,169 40,30 41,619 42,50
43,259 44,30 50,10 51,30
52,40 53,179 54,189 55,929
56,60 57,389 58,20 63,30
64,50 65,109 66,30 67,399
68,70 69,819 70,50 71,129
77,60 78,20 79,80 80,30
81,569 82,119 83,1859 84,139
85,10 88,10 91,30 92,20
93,50 94,20 95,159 96,80
97,649 98,50 107,20 108,10
109,379 110,1629 111,149 112,10
121,20 123,30 124,20 135,30
136,10 137,70 138,9999 139,989
140,99 141,10 165,10 166,50
167,60 180,20 304,209 305,50
##END=
