##TITLE=Methyldichlorophosphine
##JCAMP-DX=4.24
##DATA TYPE=MASS SPECTRUM
##ORIGIN=CBDCOM/ERDEC, Edgewood, MD
##OWNER=NIST Mass Spectrometry Data Center
Collection (C) 2014 copyright by the U.S. Secretary of Commerce
on behalf of the United States of America. All rights reserved.
##CAS REGISTRY NO=676-83-5
##$NIST MASS SPEC NO=226506
##MOLFORM=C H3 Cl2 P
##MW=116
##$NIST SOURCE=MSDC
##XUNITS=M/Z
##YUNITS=RELATIVE INTENSITY
##XFACTOR=1
##YFACTOR=1
##FIRSTX=15
##LASTX=120
##FIRSTY=190
##MAXX=120
##MINX=15
##MAXY=9999
##MINY=10
##NPOINTS=30
##PEAK TABLE=(XY..XY)
15,190 31,190 35,190 36,990
38,190 43,90 44,1391 45,3993
46,40 47,90 62,40 66,490
67,40 68,90 69,40 78,40
79,390 80,490 81,690 82,190
83,260 101,9999 103,5995 105,990
115,10 116,4994 117,90 118,3493
119,40 120,490
##END=
