##TITLE=Dimethylarsine bromide
##JCAMP-DX=4.24
##DATA TYPE=MASS SPECTRUM
##ORIGIN=Dennis Rohrbaugh, CBDCOM/ERDEC, Edgewood, MD
##OWNER=NIST Mass Spectrometry Data Center
Collection (C) 2014 copyright by the U.S. Secretary of Commerce
on behalf of the United States of America. All rights reserved.
##CAS REGISTRY NO=676-71-1
##$NIST MASS SPEC NO=226750
##MOLFORM=C2 H6 As Br
##MW=184
##$NIST SOURCE=MSDC
##XUNITS=M/Z
##YUNITS=RELATIVE INTENSITY
##XFACTOR=1
##YFACTOR=1
##FIRSTX=75
##LASTX=187
##FIRSTY=749
##MAXX=187
##MINX=75
##MAXY=9999
##MINY=109
##NPOINTS=27
##PEAK TABLE=(XY..XY)
75,749 76,189 77,189 79,149
87,139 88,1519 89,6549 90,879
100,159 101,1129 102,399 103,1239
105,9999 106,219 120,119 125,109
140,119 154,439 155,139 156,409
157,129 169,2569 171,2419 184,4059
185,209 186,3899 187,179
##END=
