##TITLE=Methylphosphonyl dichloride
##JCAMP-DX=4.24
##DATA TYPE=MASS SPECTRUM
##ORIGIN=VERIFIN - Methodology B4-1983
##OWNER=NIST Mass Spectrometry Data Center
Collection (C) 2014 copyright by the U.S. Secretary of Commerce
on behalf of the United States of America. All rights reserved.
##CAS REGISTRY NO=676-97-1
##$NIST MASS SPEC NO=226264
##MOLFORM=C H3 Cl2 O P
##MW=132
##$NIST SOURCE=MSDC
##XUNITS=M/Z
##YUNITS=RELATIVE INTENSITY
##XFACTOR=1
##YFACTOR=1
##FIRSTX=35
##LASTX=136
##FIRSTY=300
##MAXX=136
##MINX=35
##MAXY=9999
##MINY=60
##NPOINTS=21
##PEAK TABLE=(XY..XY)
35,300 36,1301 37,70 38,300
47,5204 66,200 67,80 68,70
82,60 83,400 96,400 97,9999
98,300 99,3403 101,70 103,70
117,1501 119,1000 132,3302 134,2101
136,300
##END=
