##TITLE=Dimethylphosphine
##JCAMP-DX=4.24
##DATA TYPE=MASS SPECTRUM
##OWNER=NIST Mass Spectrometry Data Center
Collection (C) 2014 copyright by the U.S. Secretary of Commerce
on behalf of the United States of America. All rights reserved.
##CAS REGISTRY NO=676-59-5
##$NIST MASS SPEC NO=176
##MOLFORM=C2 H7 P
##MW=62
##$NIST SOURCE=MSDC
##XUNITS=M/Z
##YUNITS=RELATIVE INTENSITY
##XFACTOR=1
##YFACTOR=1
##FIRSTX=15
##LASTX=62
##FIRSTY=133
##MAXX=62
##MINX=15
##MAXY=9999
##MINY=133
##NPOINTS=17
##PEAK TABLE=(XY..XY)
15,133 27,667 29,333 32,200
33,333 34,333 44,1200 45,5333
46,9999 47,2333 56,133 57,1800
58,667 59,2533 60,200 61,1533
62,7866
##END=
