##TITLE=p-Octyloxybenzyl alcohol
##JCAMP-DX=4.24
##DATA TYPE=MASS SPECTRUM
##ORIGIN=NIST Mass Spectrometry Data Center, 1994
##OWNER=NIST Mass Spectrometry Data Center
Collection (C) 2014 copyright by the U.S. Secretary of Commerce
on behalf of the United States of America. All rights reserved.
##CAS REGISTRY NO=67698-68-4
##$NIST MASS SPEC NO=135704
##MOLFORM=C15 H24 O2
##MW=236
##$NIST SOURCE=MSDC
##XUNITS=M/Z
##YUNITS=RELATIVE INTENSITY
##XFACTOR=1
##YFACTOR=1
##FIRSTX=6
##LASTX=238
##FIRSTY=15
##MAXX=238
##MINX=6
##MAXY=9999
##MINY=2
##NPOINTS=84
##PEAK TABLE=(XY..XY)
6,15 15,44 17,23 18,35
26,93 27,2038 28,560 29,3774
30,76 32,2 37,22 38,120
39,1796 40,404 41,6120 42,774
43,3865 44,123 50,203 51,583
52,231 53,435 54,22 55,1948
56,338 57,1612 58,84 62,56
63,260 64,111 65,650 66,411
67,922 68,147 69,705 70,177
71,659 72,34 75,46 77,2050
78,1177 79,491 80,40 81,97
82,27 83,115 84,47 85,13
89,805 90,118 91,160 92,62
93,143 94,13 95,5694 96,489
97,54 103,24 105,1212 106,4986
107,2582 108,231 109,28 112,12
119,53 121,282 123,3736 124,9999
125,773 126,65 133,39 135,25
137,215 138,18 147,26 149,23
150,19 165,19 219,16 233,10
234,33 236,1535 237,255 238,19
##END=
