##TITLE=Propane, 1,2,2,3-tetrachloro-1,1,3,3-tetrafluoro-
##JCAMP-DX=4.24
##DATA TYPE=MASS SPECTRUM
##OWNER=NIST Mass Spectrometry Data Center
Collection (C) 2014 copyright by the U.S. Secretary of Commerce
on behalf of the United States of America. All rights reserved.
##CAS REGISTRY NO=677-68-9
##$NIST MASS SPEC NO=12297
##MOLFORM=C3 Cl4 F4
##MW=252
##$NIST SOURCE=MSDC
##XUNITS=M/Z
##YUNITS=RELATIVE INTENSITY
##XFACTOR=1
##YFACTOR=1
##FIRSTX=24
##LASTX=223
##FIRSTY=10
##MAXX=223
##MINX=24
##MAXY=9999
##MINY=10
##NPOINTS=109
##PEAK TABLE=(XY..XY)
24,10 28,40 31,400 32,20
35,90 36,20 37,30 43,30
47,400 48,10 49,130 50,70
55,50 59,40 61,10 62,20
66,60 67,10 68,20 69,951
70,10 71,10 72,10 73,10
74,30 75,110 76,10 78,160
80,50 82,230 83,10 84,150
85,9999 86,130 87,3183 88,30
90,10 91,10 92,10 93,300
94,90 96,50 97,130 98,10
99,40 100,10 101,380 102,10
103,250 104,10 105,40 109,60
110,10 111,20 112,70 113,100
115,60 116,10 117,480 118,10
119,450 120,10 121,150 123,10
125,10 128,10 129,180 130,10
131,170 132,340 133,130 134,220
135,50 136,350 137,10 147,791
148,661 149,270 150,621 151,20
152,200 153,10 154,20 159,10
161,10 163,70 164,220 165,50
166,280 167,931 168,150 169,881
170,50 171,280 172,10 173,30
182,10 183,20 184,10 185,20
187,10 189,10 217,721 218,20
219,691 220,20 221,220 222,10
223,20
##END=
