##TITLE=Methyl dichlorophosphate
##JCAMP-DX=4.24
##DATA TYPE=MASS SPECTRUM
##ORIGIN=NIST Mass Spectrometry Data Center, 1994
##OWNER=NIST Mass Spectrometry Data Center
Collection (C) 2014 copyright by the U.S. Secretary of Commerce
on behalf of the United States of America. All rights reserved.
##CAS REGISTRY NO=677-24-7
##$NIST MASS SPEC NO=134336
##MOLFORM=C H3 Cl2 O2 P
##MW=148
##$NIST SOURCE=MSDC
##XUNITS=M/Z
##YUNITS=RELATIVE INTENSITY
##XFACTOR=1
##YFACTOR=1
##FIRSTX=15
##LASTX=151
##FIRSTY=2774
##MAXX=151
##MINX=15
##MAXY=9999
##MINY=8
##NPOINTS=58
##PEAK TABLE=(XY..XY)
15,2774 16,52 17,22 18,23
28,276 29,1607 30,291 31,1148
32,39 33,24 34,22 35,635
36,99 37,198 38,29 44,17
45,13 47,4069 48,390 49,187
50,40 51,53 59,8 63,605
64,21 66,349 67,25 68,122
77,278 78,34 82,537 83,1177
84,209 85,397 86,15 98,519
99,75 100,177 101,103 103,52
105,12 113,7367 115,2509 117,2816
118,9999 119,2334 120,6717 121,631
122,1090 123,65 133,111 135,73
137,14 147,251 148,34 149,197
150,24 151,56
##END=
