##TITLE=4a,trans-8a-Perhydro-cis-2-(2-hydroxy-2-propyl)-4a,cis-8-dimethylnaphthalene
##JCAMP-DX=4.24
##DATA TYPE=MASS SPECTRUM
##ORIGIN=Japan AIST/NIMC Database- Spectrum MS-IW-3122
##OWNER=NIST Mass Spectrometry Data Center
Collection (C) 2014 copyright by the U.S. Secretary of Commerce
on behalf of the United States of America. All rights reserved.
##CAS REGISTRY NO=6770-16-7
##$NIST MASS SPEC NO=243792
##MOLFORM=C15 H28 O
##MW=224
##$NIST SOURCE=MSDC
##XUNITS=M/Z
##YUNITS=RELATIVE INTENSITY
##XFACTOR=1
##YFACTOR=1
##FIRSTX=15
##LASTX=224
##FIRSTY=20
##MAXX=224
##MINX=15
##MAXY=9999
##MINY=10
##NPOINTS=110
##PEAK TABLE=(XY..XY)
15,20 17,60 18,319 27,169
28,50 29,329 31,219 39,249
40,50 41,1259 42,90 43,879
44,20 45,90 51,40 52,20
53,299 54,80 55,1539 56,149
57,139 58,789 59,9999 60,379
61,30 62,20 63,10 65,109
66,129 67,1119 68,399 69,799
70,90 71,189 72,10 76,40
77,219 78,40 79,399 80,109
81,1489 82,599 83,719 84,70
85,30 90,20 91,229 92,40
93,409 94,139 95,2109 96,2189
97,729 98,90 99,10 103,10
104,10 105,90 106,20 107,299
108,189 109,6229 110,2069 111,239
112,10 115,10 117,10 119,40
120,10 121,309 122,129 123,1379
124,419 125,90 133,20 134,10
135,359 136,60 137,189 138,40
139,10 147,20 149,239 150,119
151,1969 152,239 153,10 161,10
162,10 163,169 164,379 165,189
166,7459 167,999 168,60 175,10
177,20 189,10 190,10 191,839
192,129 193,10 204,10 205,30
206,159 207,50 208,10 209,279
210,40 224,10
##END=
