##TITLE=Disulfide, pentyl propyl
##JCAMP-DX=4.24
##DATA TYPE=MASS SPECTRUM
##ORIGIN=H.J. MOECKEL & J. WEISS, HAHN-MEITNER-INST. BERLIN, W. G
##OWNER=NIST Mass Spectrometry Data Center
Collection (C) 2014 copyright by the U.S. Secretary of Commerce
on behalf of the United States of America. All rights reserved.
##CAS REGISTRY NO=67727-99-5
##$NIST MASS SPEC NO=75526
##MOLFORM=C8 H18 S2
##MW=178
##$NIST SOURCE=MSDC
##XUNITS=M/Z
##YUNITS=RELATIVE INTENSITY
##XFACTOR=1
##YFACTOR=1
##FIRSTX=15
##LASTX=182
##FIRSTY=233
##MAXX=182
##MINX=15
##MAXY=9999
##MINY=1
##NPOINTS=87
##PEAK TABLE=(XY..XY)
15,233 23,1 24,3 25,18
26,245 27,3515 29,2844 30,201
33,14 34,2 35,62 37,39
38,194 39,2172 40,214 41,6386
42,1351 43,9999 44,735 45,1152
46,626 47,825 48,45 49,40
50,15 51,34 52,18 53,143
54,63 55,735 56,47 58,141
59,284 60,133 61,129 62,12
63,22 64,177 65,77 66,354
67,102 68,88 69,318 70,171
71,1562 72,134 73,389 74,173
75,76 76,17 77,9 78,65
79,269 80,16 81,17 86,1
87,64 88,2 89,3 91,1
92,6 93,16 94,2 99,1
101,38 102,65 103,239 104,20
105,10 106,21 107,173 108,1832
109,115 110,161 111,6 112,3
121,8 135,9 136,128 137,12
138,11 177,59 178,1240 179,178
180,120 181,13 182,3
##END=
