##TITLE=5-Amino-2'-fluoro-2-methylaminobenzophenone
##JCAMP-DX=4.24
##DATA TYPE=MASS SPECTRUM
##ORIGIN=H.Maurer ET AL.J.Chromatogr. 222,409(1981)
##OWNER=NIST Mass Spectrometry Data Center
Collection (C) 2014 copyright by the U.S. Secretary of Commerce
on behalf of the United States of America. All rights reserved.
##CAS REGISTRY NO=67739-73-5
##$NIST MASS SPEC NO=280338
##MOLFORM=C14 H13 F N2 O
##MW=244
##$NIST SOURCE=MSDC
##XUNITS=M/Z
##YUNITS=RELATIVE INTENSITY
##XFACTOR=1
##YFACTOR=1
##FIRSTX=44
##LASTX=245
##FIRSTY=3503
##MAXX=245
##MINX=44
##MAXY=9999
##MINY=310
##NPOINTS=32
##PEAK TABLE=(XY..XY)
44,3503 52,310 57,1121 65,741
77,540 79,340 92,370 93,540
94,340 95,340 105,340 106,540
119,571 120,370 121,571 122,571
123,971 149,771 209,801 210,801
211,1001 212,370 224,1001 225,1581
226,801 227,4394 228,1201 229,601
230,370 243,2582 244,9999 245,1601
##END=
