##TITLE=2,5-Dimethyl-5-hexen-3-ol
##JCAMP-DX=4.24
##DATA TYPE=MASS SPECTRUM
##ORIGIN=NIST Mass Spectrometry Data Center, 1990.
##OWNER=NIST Mass Spectrometry Data Center
Collection (C) 2014 copyright by the U.S. Secretary of Commerce
on behalf of the United States of America. All rights reserved.
##CAS REGISTRY NO=67760-91-2
##$NIST MASS SPEC NO=113800
##MOLFORM=C8 H16 O
##MW=128
##$NIST SOURCE=MSDC
##XUNITS=M/Z
##YUNITS=RELATIVE INTENSITY
##XFACTOR=1
##YFACTOR=1
##FIRSTX=15
##LASTX=95
##FIRSTY=321
##MAXX=95
##MINX=15
##MAXY=9999
##MINY=175
##NPOINTS=32
##PEAK TABLE=(XY..XY)
15,321 27,2869 28,1538 29,3189
31,826 32,214 39,3674 40,945
41,6840 42,760 43,4913 44,569
45,1533 50,205 51,394 53,740
55,8028 56,9999 57,4742 58,238
67,942 68,224 69,580 70,935
71,2768 72,902 73,6171 74,255
83,211 84,175 85,1533 95,549
##END=
