##TITLE=4-Bromo-2-methylbenzonitrile
##JCAMP-DX=4.24
##DATA TYPE=MASS SPECTRUM
##ORIGIN=NIST Mass Spectrometry Data Center, 1994
##OWNER=NIST Mass Spectrometry Data Center
Collection (C) 2014 copyright by the U.S. Secretary of Commerce
on behalf of the United States of America. All rights reserved.
##CAS REGISTRY NO=67832-11-5
##$NIST MASS SPEC NO=134983
##MOLFORM=C8 H6 Br N
##MW=195
##$NIST SOURCE=MSDC
##XUNITS=M/Z
##YUNITS=RELATIVE INTENSITY
##XFACTOR=1
##YFACTOR=1
##FIRSTX=14
##LASTX=198
##FIRSTY=45
##MAXX=198
##MINX=14
##MAXY=9999
##MINY=16
##NPOINTS=77
##PEAK TABLE=(XY..XY)
14,45 15,88 25,47 26,220
27,293 37,612 38,885 39,1601
40,119 41,70 43,150 44,140
48,42 49,298 50,1347 51,847
52,300 53,41 58,618 60,108
61,720 62,1350 63,2309 64,689
65,270 66,59 72,32 73,127
74,361 75,534 76,332 77,49
79,156 80,60 81,154 82,44
83,24 84,85 85,249 86,343
87,620 88,1044 89,3843 90,640
91,59 93,36 95,20 98,119
99,157 100,112 101,37 102,19
104,28 105,16 106,26 110,24
111,52 112,31 113,16 114,680
115,16 116,9999 117,967 118,85
119,86 128,19 130,23 141,21
143,26 167,27 168,58 169,30
170,60 195,3750 196,597 197,3730
198,325
##END=
