##TITLE=1,2-Dimethyldiaziridine
##JCAMP-DX=4.24
##DATA TYPE=MASS SPECTRUM
##ORIGIN=A.Pleshkova, Nesmeyanov Inst.Org.Elem.Cpds, Moscow
##OWNER=NIST Mass Spectrometry Data Center
Collection (C) 2014 copyright by the U.S. Secretary of Commerce
on behalf of the United States of America. All rights reserved.
##CAS REGISTRY NO=6794-95-2
##$NIST MASS SPEC NO=283153
##MOLFORM=C3 H8 N2
##MW=72
##$NIST SOURCE=MSDC
##XUNITS=M/Z
##YUNITS=RELATIVE INTENSITY
##XFACTOR=1
##YFACTOR=1
##FIRSTX=27
##LASTX=74
##FIRSTY=941
##MAXX=74
##MINX=27
##MAXY=9999
##MINY=30
##NPOINTS=16
##PEAK TABLE=(XY..XY)
27,941 28,1251 29,350 30,3313
31,140 41,430 42,7867 43,2012
44,651 57,3803 58,270 70,450
71,9999 72,4454 73,250 74,30
##END=
