##TITLE=Pentane, 2-methoxy-
##JCAMP-DX=4.24
##DATA TYPE=MASS SPECTRUM
##ORIGIN=NIST Mass Spectrometry Data Center
##OWNER=NIST Mass Spectrometry Data Center
Collection (C) 2014 copyright by the U.S. Secretary of Commerce
on behalf of the United States of America. All rights reserved.
##CAS REGISTRY NO=6795-88-6
##$NIST MASS SPEC NO=333822
##MOLFORM=C6 H14 O
##MW=102
##$NIST SOURCE=MSDC
##XUNITS=M/Z
##YUNITS=RELATIVE INTENSITY
##XFACTOR=1
##YFACTOR=1
##FIRSTX=15
##LASTX=102
##FIRSTY=70
##MAXX=102
##MINX=15
##MAXY=9999
##MINY=10
##NPOINTS=45
##PEAK TABLE=(XY..XY)
15,70 26,40 27,380 28,100
29,761 30,30 31,621 32,10
33,60 37,10 38,50 39,480
40,100 41,711 42,330 43,1031
44,40 45,1581 46,30 47,10
50,10 51,30 52,10 53,80
54,20 55,721 56,40 57,130
58,480 59,9999 60,320 61,20
63,10 65,10 67,10 69,30
70,150 71,150 72,30 73,50
85,20 87,530 88,20 101,40
102,60
##END=
