##TITLE=17,21-Dimethylheptatriacontane
##JCAMP-DX=4.24
##DATA TYPE=MASS SPECTRUM
##ORIGIN=V.N. Odinokov, Bashkir Inst. Chem., Acad. Sci. USSR, Ufa, USSR
##OWNER=NIST Mass Spectrometry Data Center
Collection (C) 2014 copyright by the U.S. Secretary of Commerce
on behalf of the United States of America. All rights reserved.
##CAS REGISTRY NO=67979-79-7
##$NIST MASS SPEC NO=112094
##MOLFORM=C39 H80
##MW=548
##$NIST SOURCE=MSDC
##XUNITS=M/Z
##YUNITS=RELATIVE INTENSITY
##XFACTOR=1
##YFACTOR=1
##FIRSTX=57
##LASTX=548
##FIRSTY=9999
##MAXX=548
##MINX=57
##MAXY=9999
##MINY=15
##NPOINTS=37
##PEAK TABLE=(XY..XY)
57,9999 71,7640 85,5320 97,3830
111,2762 113,1920 125,1620 127,1490
141,1253 155,1042 169,936 183,788
197,641 211,532 225,511 239,425
253,1320 295,1150 309,234 323,1150
337,170 366,276 374,94 393,81
407,77 421,59 435,59 449,57
463,59 471,34 491,30 505,36
519,64 533,85 546,19 547,15
548,15
##END=
