##TITLE=Ethanaminium, N,N,N-triethyl-, iodide
##JCAMP-DX=4.24
##DATA TYPE=MASS SPECTRUM
##ORIGIN=J.T. CLERC, ORGANIC CHEM. LAB., ETH, ZURICH, SWITZ.
##OWNER=NIST Mass Spectrometry Data Center
Collection (C) 2014 copyright by the U.S. Secretary of Commerce
on behalf of the United States of America. All rights reserved.
##CAS REGISTRY NO=68-05-3
##$NIST MASS SPEC NO=65109
##MOLFORM=C8 H20 I N
##MW=257
##$NIST SOURCE=MSDC
##XUNITS=M/Z
##YUNITS=RELATIVE INTENSITY
##XFACTOR=1
##YFACTOR=1
##FIRSTX=26
##LASTX=157
##FIRSTY=694
##MAXX=157
##MINX=26
##MAXY=9999
##MINY=173
##NPOINTS=24
##PEAK TABLE=(XY..XY)
26,694 27,4566 28,1561 29,7745
30,4046 41,347 42,1272 43,347
44,1445 56,636 57,173 58,3468
59,289 70,231 72,347 86,9999
87,578 100,636 101,1792 102,173
127,809 128,347 156,5028 157,173
##END=
