##TITLE=Acetic acid, mercapto-
##JCAMP-DX=4.24
##DATA TYPE=MASS SPECTRUM
##ORIGIN=NIST Mass Spectrometry Data Center, 1998.
##OWNER=NIST Mass Spectrometry Data Center
Collection (C) 2014 copyright by the U.S. Secretary of Commerce
on behalf of the United States of America. All rights reserved.
##CAS REGISTRY NO=68-11-1
##$NIST MASS SPEC NO=290605
##MOLFORM=C2 H4 O2 S
##MW=92
##$NIST SOURCE=MSDC
##XUNITS=M/Z
##YUNITS=RELATIVE INTENSITY
##XFACTOR=1
##YFACTOR=1
##FIRSTX=12
##LASTX=94
##FIRSTY=10
##MAXX=94
##MINX=12
##MAXY=9999
##MINY=10
##NPOINTS=56
##PEAK TABLE=(XY..XY)
12,10 13,30 14,80 15,30
16,10 17,20 18,20 19,10
25,10 26,10 29,430 30,20
31,380 32,240 33,350 34,90
35,40 36,20 37,10 40,40
41,170 42,880 43,70 44,560
45,5009 46,4020 47,9999 48,900
49,490 50,50 51,10 52,10
56,30 57,30 58,10 59,30
60,20 61,20 62,10 63,50
64,210 65,10 66,10 72,50
73,10 74,1380 75,140 76,70
77,20 78,10 79,10 82,10
89,10 92,6079 93,190 94,290
##END=
