##TITLE=Norethynodrel
##JCAMP-DX=4.24
##DATA TYPE=MASS SPECTRUM
##ORIGIN=Organic Synthesis Lab, MSU, Moscow.TRC 858
##OWNER=NIST Mass Spectrometry Data Center
Collection (C) 2014 copyright by the U.S. Secretary of Commerce
on behalf of the United States of America. All rights reserved.
##CAS REGISTRY NO=68-23-5
##$NIST MASS SPEC NO=326332
##MOLFORM=C20 H26 O2
##MW=298
##$NIST SOURCE=MSDC
##XUNITS=M/Z
##YUNITS=RELATIVE INTENSITY
##XFACTOR=1
##YFACTOR=1
##FIRSTX=26
##LASTX=300
##FIRSTY=199
##MAXX=300
##MINX=26
##MAXY=9999
##MINY=19
##NPOINTS=175
##PEAK TABLE=(XY..XY)
26,199 27,539 29,599 39,919
40,299 41,2489 42,169 43,959
51,279 52,159 53,1139 54,169
55,1259 56,29 57,139 63,69
64,49 65,889 66,249 67,1469
68,429 69,408 71,49 77,2009
78,679 79,2589 80,419 81,1099
82,128 83,149 89,49 91,4619
92,899 93,1649 94,349 95,619
96,129 97,1109 98,59 103,449
104,639 105,2719 106,1009 107,1149
108,489 109,279 110,759 111,139
115,699 116,329 117,1639 118,1169
119,1659 120,1529 121,959 122,519
123,409 124,2069 125,189 127,109
128,479 129,859 130,409 131,1449
132,669 133,689 134,329 135,1049
136,909 137,1399 138,159 141,339
142,299 143,729 144,439 145,1269
146,519 147,709 148,519 149,389
150,269 151,49 152,29 153,79
154,69 155,469 156,229 157,849
158,509 159,1249 160,1249 161,959
162,2339 163,449 164,19 165,59
167,139 168,89 169,289 170,329
171,569 172,659 173,1979 174,729
175,549 176,129 179,29 181,209
182,119 183,279 184,199 185,339
186,349 187,629 188,779 189,209
195,229 196,129 197,499 198,189
199,419 200,229 201,669 202,469
203,249 207,59 209,199 210,189
211,299 212,399 213,1609 214,619
215,9999 216,1679 217,479 218,39
222,79 223,369 224,179 225,169
226,559 227,299 228,569 229,159
230,2669 231,549 237,169 238,229
239,129 240,59 241,459 242,169
243,69 244,79 251,149 252,589
253,129 254,49 255,149 256,79
265,439 266,39 269,199 270,279
272,419 273,39 280,649 281,129
283,519 284,89 296,69 297,29
298,3859 299,809 300,69
##END=
