##TITLE=Retinol
##JCAMP-DX=4.24
##DATA TYPE=MASS SPECTRUM
##ORIGIN=Japan AIST/NIMC Database- Spectrum MS-IW-1573
##OWNER=NIST Mass Spectrometry Data Center
Collection (C) 2014 copyright by the U.S. Secretary of Commerce
on behalf of the United States of America. All rights reserved.
##CAS REGISTRY NO=68-26-8
##$NIST MASS SPEC NO=238604
##MOLFORM=C20 H30 O
##MW=286
##$NIST SOURCE=MSDC
##XUNITS=M/Z
##YUNITS=RELATIVE INTENSITY
##XFACTOR=1
##YFACTOR=1
##FIRSTX=15
##LASTX=290
##FIRSTY=30
##MAXX=290
##MINX=15
##MAXY=9999
##MINY=10
##NPOINTS=253
##PEAK TABLE=(XY..XY)
15,30 18,10 27,179 28,50
29,319 30,20 31,70 32,10
39,329 40,50 41,1249 42,70
43,1039 44,60 45,60 46,20
50,10 51,109 52,40 53,379
54,40 55,1199 56,99 57,259
58,50 59,20 60,30 61,10
63,50 64,30 65,309 66,80
67,649 68,80 69,1689 70,129
71,239 72,30 73,20 74,20
75,10 76,30 77,849 78,189
79,949 80,199 81,1279 82,189
83,619 84,109 85,229 86,139
87,40 88,10 89,80 90,30
91,1689 92,299 93,1379 94,289
95,1519 96,249 97,359 98,99
99,109 100,60 101,40 102,50
103,239 104,139 105,2149 106,499
107,1659 108,389 109,1179 110,219
111,719 112,129 113,139 114,50
115,589 116,239 117,679 118,259
119,2689 120,799 121,1699 122,529
123,959 124,169 125,139 126,60
127,229 128,669 129,789 130,339
131,1209 132,629 133,1609 134,569
135,939 136,299 137,649 138,149
139,149 140,60 141,499 142,549
143,1269 144,619 145,2119 146,569
147,1199 148,529 149,509 150,509
151,209 152,229 153,329 154,209
155,649 156,519 157,2199 158,629
159,2189 160,459 161,1299 162,389
163,299 164,119 165,369 166,239
167,289 168,239 169,719 170,459
171,1889 172,559 173,1589 174,429
175,1199 176,499 177,519 178,209
179,219 180,259 181,319 182,279
183,1049 184,399 185,2079 186,579
187,829 188,289 189,349 190,149
191,149 192,109 193,199 194,99
195,279 196,209 197,1529 198,509
199,1459 200,379 201,489 202,209
203,239 204,149 205,119 206,80
207,99 208,80 209,189 210,139
211,599 212,559 213,789 214,319
215,449 216,199 217,199 218,80
219,50 220,40 221,60 222,50
223,139 224,90 225,499 226,149
227,219 228,80 229,159 230,149
231,109 232,40 233,40 234,30
235,30 236,30 237,129 238,90
239,219 240,149 241,359 242,109
243,299 244,80 245,40 246,20
247,30 248,20 249,40 250,30
251,149 252,249 253,1319 254,519
255,6349 256,1509 257,269 258,90
259,70 260,20 261,10 262,20
263,10 264,30 265,20 266,199
267,90 268,3559 269,1009 270,1089
271,1209 272,319 273,70 274,10
278,10 279,10 280,10 281,10
282,109 283,40 284,539 285,179
286,9999 287,2329 288,379 289,50
290,10
##END=
