##TITLE=Norethindrone
##JCAMP-DX=4.24
##DATA TYPE=MASS SPECTRUM
##ORIGIN=Japan AIST/NIMC Database- Spectrum MS-IW-3439
##OWNER=NIST Mass Spectrometry Data Center
Collection (C) 2014 copyright by the U.S. Secretary of Commerce
on behalf of the United States of America. All rights reserved.
##CAS REGISTRY NO=68-22-4
##$NIST MASS SPEC NO=234126
##MOLFORM=C20 H26 O2
##MW=298
##$NIST SOURCE=MSDC
##XUNITS=M/Z
##YUNITS=RELATIVE INTENSITY
##XFACTOR=1
##YFACTOR=1
##FIRSTX=15
##LASTX=301
##FIRSTY=10
##MAXX=301
##MINX=15
##MAXY=9999
##MINY=10
##NPOINTS=251
##PEAK TABLE=(XY..XY)
15,10 16,10 17,60 18,199
25,20 26,99 27,419 28,99
29,359 31,20 38,20 39,989
40,269 41,1919 42,139 43,569
44,20 45,20 49,10 50,40
51,349 52,229 53,1529 54,229
55,1559 56,80 57,129 58,20
59,10 60,10 62,10 63,139
64,109 65,889 66,329 67,1879
68,669 69,429 70,50 71,99
72,30 73,30 74,20 75,30
76,60 77,2269 78,669 79,2839
80,709 81,1659 82,279 83,469
84,70 85,70 86,60 87,60
88,20 89,119 90,90 91,3589
92,799 93,1869 94,609 95,1199
96,359 97,929 98,99 99,80
100,40 101,90 102,80 103,429
104,389 105,2269 106,799 107,2159
108,1209 109,1659 110,3769 111,539
112,60 113,80 114,50 115,709
116,299 117,1279 118,569 119,1689
120,1469 121,2139 122,1559 123,1149
124,809 125,129 126,30 127,169
128,509 129,789 130,359 131,1109
132,599 133,1339 134,1189 135,2159
136,579 137,569 138,139 139,50
140,20 141,349 142,289 143,589
144,389 145,1189 146,809 147,1939
148,1069 149,969 150,329 151,159
152,109 153,119 154,90 155,429
156,269 157,639 158,629 159,1309
160,2259 161,1569 162,2599 163,739
164,209 165,139 166,50 167,139
168,99 169,359 170,549 171,789
172,579 173,1669 174,949 175,1439
176,489 177,419 178,269 179,119
180,50 181,169 182,119 183,349
184,279 185,469 186,759 187,999
188,1159 189,1449 190,409 191,159
192,40 193,60 194,60 195,259
196,159 197,529 198,329 199,659
200,419 201,699 202,539 203,239
204,80 205,40 206,20 207,60
208,60 209,209 210,239 211,319
212,609 213,1479 214,629 215,2969
216,719 217,729 218,359 219,80
220,30 221,70 222,60 223,309
224,229 225,219 226,419 227,349
228,1399 229,449 230,979 231,5909
232,1039 233,119 234,40 235,30
236,70 237,229 238,279 239,179
240,99 241,629 242,299 243,199
244,269 245,60 246,10 247,70
248,20 249,10 250,10 251,189
252,299 253,99 254,189 255,369
256,479 257,159 258,20 261,20
262,50 263,70 265,339 266,80
267,30 269,509 270,1019 271,219
272,1209 273,239 274,40 279,70
280,469 281,159 282,40 283,619
284,129 285,20 297,80 298,9999
299,2229 300,299 301,30
##END=
