##TITLE=Sulfadiazine
##JCAMP-DX=4.24
##DATA TYPE=MASS SPECTRUM
##ORIGIN=Patti Price, Georgia Bureau of Investigation, Decatur, Georgia
##OWNER=NIST Mass Spectrometry Data Center
Collection (C) 2014 copyright by the U.S. Secretary of Commerce
on behalf of the United States of America. All rights reserved.
##CAS REGISTRY NO=68-35-9
##$NIST MASS SPEC NO=248149
##MOLFORM=C10 H10 N4 O2 S
##MW=250
##$NIST SOURCE=MSDC
##XUNITS=M/Z
##YUNITS=RELATIVE INTENSITY
##XFACTOR=1
##YFACTOR=1
##FIRSTX=37
##LASTX=251
##FIRSTY=10
##MAXX=251
##MINX=37
##MAXY=9999
##MINY=10
##NPOINTS=126
##PEAK TABLE=(XY..XY)
37,10 38,50 39,310 40,390
41,130 42,50 43,40 44,10
45,10 46,10 48,10 50,20
51,40 52,180 53,150 54,40
55,10 56,10 57,10 58,10
59,10 61,10 62,50 63,250
64,250 65,2091 66,320 67,280
68,100 69,30 70,10 71,10
72,10 73,10 74,20 75,20
76,10 77,10 78,40 79,160
80,240 81,40 82,10 83,10
84,10 85,10 86,10 87,10
88,10 89,20 90,60 91,260
92,2962 93,420 94,50 95,90
96,70 97,10 98,10 99,10
100,10 104,20 105,40 106,30
107,110 108,1581 109,100 110,10
111,10 112,10 114,10 115,10
116,10 117,30 118,90 119,40
120,10 121,10 122,10 123,40
124,20 125,10 126,10 127,10
128,10 129,10 130,10 131,100
132,70 133,40 134,10 135,10
136,10 139,10 140,210 141,30
142,40 143,20 144,30 145,30
146,10 147,10 149,10 156,250
157,60 158,130 159,110 160,10
165,10 167,10 168,140 169,30
170,290 171,30 172,10 183,10
184,80 185,9999 186,6325 187,570
188,30 189,10 197,10 198,10
250,10 251,10
##END=
