##TITLE=6H-Purin-6-one, 1,7-dihydro-
##JCAMP-DX=4.24
##DATA TYPE=MASS SPECTRUM
##ORIGIN=Japan AIST/NIMC Database- Spectrum MS-NW-8160
##OWNER=NIST Mass Spectrometry Data Center
Collection (C) 2014 copyright by the U.S. Secretary of Commerce
on behalf of the United States of America. All rights reserved.
##CAS REGISTRY NO=68-94-0
##$NIST MASS SPEC NO=228106
##MOLFORM=C5 H4 N4 O
##MW=136
##$NIST SOURCE=MSDC
##XUNITS=M/Z
##YUNITS=RELATIVE INTENSITY
##XFACTOR=1
##YFACTOR=1
##FIRSTX=12
##LASTX=138
##FIRSTY=10
##MAXX=138
##MINX=12
##MAXY=9999
##MINY=10
##NPOINTS=57
##PEAK TABLE=(XY..XY)
12,10 13,10 17,20 18,70
24,10 25,20 26,20 27,369
28,3139 29,639 30,10 32,10
36,10 38,269 39,299 40,70
41,30 42,20 43,209 44,30
45,20 46,10 50,10 51,10
52,70 53,849 54,2989 55,299
56,20 57,10 64,30 65,99
66,279 67,109 68,119 69,10
70,139 71,20 78,10 79,10
80,259 81,1029 82,449 83,20
92,20 93,60 94,20 107,60
108,549 109,579 110,30 119,10
120,20 135,539 136,9999 137,739
138,40
##END=
