##TITLE=L-Proline, 1-acetyl-
##JCAMP-DX=4.24
##DATA TYPE=MASS SPECTRUM
##ORIGIN=H.FR.GRUTZMACHER, HAMBURG UNIV., HAMBURG, GERMANY, F.R.G.
##OWNER=NIST Mass Spectrometry Data Center
Collection (C) 2014 copyright by the U.S. Secretary of Commerce
on behalf of the United States of America. All rights reserved.
##CAS REGISTRY NO=68-95-1
##$NIST MASS SPEC NO=26163
##MOLFORM=C7 H11 N O3
##MW=157
##$NIST SOURCE=MSDC
##XUNITS=M/Z
##YUNITS=RELATIVE INTENSITY
##XFACTOR=1
##YFACTOR=1
##FIRSTX=14
##LASTX=158
##FIRSTY=170
##MAXX=158
##MINX=14
##MAXY=9999
##MINY=10
##NPOINTS=66
##PEAK TABLE=(XY..XY)
14,170 15,1060 25,10 26,160
27,600 28,850 29,210 30,310
31,70 37,40 38,110 39,840
40,270 41,1930 42,1060 43,6310
44,510 45,540 46,20 50,20
51,40 52,50 53,100 54,100
55,190 56,160 57,80 58,50
59,20 60,60 64,20 65,10
66,30 67,110 68,970 69,400
70,9999 71,730 72,140 73,30
80,10 81,20 82,20 83,60
84,20 85,1450 86,80 87,40
94,10 95,10 96,50 97,30
98,60 99,10 100,10 110,10
111,80 112,1930 113,2760 114,260
115,10 116,10 139,20 156,100
157,220 158,20
##END=
