##TITLE=Pentafluoropropionic acid, pentyl ester
##JCAMP-DX=4.24
##DATA TYPE=MASS SPECTRUM
##ORIGIN=NIST Mass Spectrometry Data Center
##OWNER=NIST Mass Spectrometry Data Center
Collection (C) 2014 copyright by the U.S. Secretary of Commerce
on behalf of the United States of America. All rights reserved.
##CAS REGISTRY NO=680-29-5
##$NIST MASS SPEC NO=351799
##MOLFORM=C8 H11 F5 O2
##MW=234
##$NIST SOURCE=MSDC
##XUNITS=M/Z
##YUNITS=RELATIVE INTENSITY
##XFACTOR=1
##YFACTOR=1
##FIRSTX=15
##LASTX=206
##FIRSTY=50
##MAXX=206
##MINX=15
##MAXY=9999
##MINY=10
##NPOINTS=82
##PEAK TABLE=(XY..XY)
15,50 26,150 27,1792 28,641
29,3003 30,100 31,260 32,10
33,80 37,20 38,90 39,1852
40,440 41,6646 42,9308 43,8498
44,400 45,180 47,80 50,280
51,150 52,40 53,400 54,280
55,9999 56,550 57,621 58,30
59,50 60,10 61,80 62,20
63,10 64,10 65,40 66,20
67,250 68,150 69,3403 70,8748
71,3543 72,180 73,10 77,10
78,110 80,20 81,100 82,10
83,10 85,30 87,10 90,10
93,30 97,140 99,30 100,1011
101,30 109,70 115,150 116,10
117,50 119,8187 120,170 127,10
128,160 129,10 131,10 145,20
147,771 148,20 149,240 150,20
163,30 165,50 169,10 175,10
177,30 190,10 191,90 192,10
205,320 206,20
##END=
