##TITLE=5-Methyl-5-hexen-3-yn-2-ol
##JCAMP-DX=4.24
##DATA TYPE=MASS SPECTRUM
##ORIGIN=NIST Mass Spectrometry Data Center, 1990.
##OWNER=NIST Mass Spectrometry Data Center
Collection (C) 2014 copyright by the U.S. Secretary of Commerce
on behalf of the United States of America. All rights reserved.
##CAS REGISTRY NO=68017-33-4
##$NIST MASS SPEC NO=113139
##MOLFORM=C7 H10 O
##MW=110
##$NIST SOURCE=MSDC
##XUNITS=M/Z
##YUNITS=RELATIVE INTENSITY
##XFACTOR=1
##YFACTOR=1
##FIRSTX=14
##LASTX=111
##FIRSTY=219
##MAXX=111
##MINX=14
##MAXY=9999
##MINY=44
##NPOINTS=56
##PEAK TABLE=(XY..XY)
14,219 15,696 16,229 18,153
26,343 27,1464 28,756 29,1097
31,140 32,44 37,499 38,942
39,4758 40,1154 41,6106 42,677
43,6189 44,478 45,338 48,109
49,327 50,1719 51,2627 52,831
53,1593 54,238 55,845 60,74
61,482 62,822 63,1398 64,74
65,3738 66,1500 67,6360 68,536
69,262 73,131 74,452 75,193
76,156 77,1615 78,369 79,657
80,133 81,258 82,117 91,1097
92,343 93,586 94,117 95,9999
96,625 109,1292 110,1271 111,112
##END=
