##TITLE=Diethyl isopropylidenemalonate
##JCAMP-DX=4.24
##DATA TYPE=MASS SPECTRUM
##ORIGIN=J. MADSEN,DEP. ORG. CHEM.,TECH. UNIV. DENMARK,LYNGBY,DENMARK
##OWNER=NIST Mass Spectrometry Data Center
Collection (C) 2014 copyright by the U.S. Secretary of Commerce
on behalf of the United States of America. All rights reserved.
##CAS REGISTRY NO=6802-75-1
##$NIST MASS SPEC NO=98642
##MOLFORM=C10 H16 O4
##MW=200
##$NIST SOURCE=MSDC
##XUNITS=M/Z
##YUNITS=RELATIVE INTENSITY
##XFACTOR=1
##YFACTOR=1
##FIRSTX=26
##LASTX=200
##FIRSTY=100
##MAXX=200
##MINX=26
##MAXY=9999
##MINY=70
##NPOINTS=55
##PEAK TABLE=(XY..XY)
26,100 27,1590 29,4500 30,100
31,160 38,70 39,810 40,280
41,610 42,180 43,950 45,200
51,130 52,100 53,510 54,270
55,560 56,70 57,170 59,490
66,100 67,1820 68,130 69,830
70,230 71,80 73,90 81,80
82,1550 83,730 85,200 86,70
87,260 88,100 97,170 98,1430
99,9999 100,750 101,110 108,150
109,3020 110,230 111,130 115,360
125,320 126,450 127,1520 128,140
133,170 154,5790 155,6400 156,590
157,90 160,270 200,260
##END=
