##TITLE=Butanoic acid, 2-methyl-, pentyl ester
##JCAMP-DX=4.24
##DATA TYPE=MASS SPECTRUM
##ORIGIN=NIST Mass Spectrometry Data Center, 2010
##OWNER=NIST Mass Spectrometry Data Center
Collection (C) 2014 copyright by the U.S. Secretary of Commerce
on behalf of the United States of America. All rights reserved.
##CAS REGISTRY NO=68039-26-9
##$NIST MASS SPEC NO=372891
##MOLFORM=C10 H20 O2
##MW=172
##$NIST SOURCE=MSDC
##XUNITS=M/Z
##YUNITS=RELATIVE INTENSITY
##XFACTOR=1
##YFACTOR=1
##FIRSTX=15
##LASTX=173
##FIRSTY=20
##MAXX=173
##MINX=15
##MAXY=9999
##MINY=10
##NPOINTS=62
##PEAK TABLE=(XY..XY)
15,20 26,60 27,741 28,350
29,1571 30,40 31,50 37,10
38,30 39,651 40,140 41,2512
42,1131 43,3163 44,130 45,110
47,40 51,30 53,140 54,80
55,1561 56,731 57,5805 58,270
59,60 60,10 61,40 67,50
68,30 69,510 70,3583 71,821
72,60 73,190 74,1682 75,220
76,10 83,20 85,5385 86,310
87,911 88,40 97,10 99,10
100,20 101,40 102,490 103,9999
104,571 105,50 113,10 115,561
116,50 129,40 130,10 142,20
143,40 144,480 145,40 157,10
172,10 173,10
##END=
