##TITLE=Phosphoramidochloridothioic acid, methyl-, O-methyl ester
##JCAMP-DX=4.24
##DATA TYPE=MASS SPECTRUM
##OWNER=NIST Mass Spectrometry Data Center
Collection (C) 2014 copyright by the U.S. Secretary of Commerce
on behalf of the United States of America. All rights reserved.
##CAS REGISTRY NO=681-04-9
##$NIST MASS SPEC NO=32533
##MOLFORM=C2 H7 Cl N O P S
##MW=159
##$NIST SOURCE=MSDC
##XUNITS=M/Z
##YUNITS=RELATIVE INTENSITY
##XFACTOR=1
##YFACTOR=1
##FIRSTX=13
##LASTX=163
##FIRSTY=9
##MAXX=163
##MINX=13
##MAXY=9999
##MINY=9
##NPOINTS=116
##PEAK TABLE=(XY..XY)
13,9 14,43 15,524 16,12
17,18 18,89 26,9 27,49
28,1280 29,373 30,8666 31,453
32,213 33,175 34,20 35,63
36,52 37,14 38,18 39,12
40,10 41,40 42,120 43,71
44,419 45,238 46,717 47,3378
48,126 49,267 50,452 51,28
52,150 55,25 56,34 57,49
58,76 59,276 60,1822 61,309
62,996 63,2133 64,486 65,137
66,172 67,141 68,65 69,64
70,19 71,16 72,15 73,53
74,37 75,33 76,575 77,492
78,1218 79,436 80,111 81,102
82,51 83,128 84,15 85,44
88,12 90,62 91,76 92,1022
93,420 94,884 95,318 96,3609
97,5190 98,1218 99,1804 100,122
101,76 102,16 103,13 105,11
106,29 108,76 109,70 110,63
111,13 112,97 113,19 114,100
115,122 116,68 117,47 118,16
122,53 123,12 124,4916 125,242
126,2827 127,128 128,1556 129,1938
130,1733 131,760 132,569 133,60
134,34 135,10 144,15 155,138
156,14 157,14 158,48 159,9999
160,485 161,3751 162,172 163,190
##END=
