##TITLE=Tetramethyl silicate
##JCAMP-DX=4.24
##DATA TYPE=MASS SPECTRUM
##ORIGIN=R.W.CRAWFORD UNIV. OF CALIFORNIA, LIVERMORE, CALIFORNIA, USA
##OWNER=NIST Mass Spectrometry Data Center
Collection (C) 2014 copyright by the U.S. Secretary of Commerce
on behalf of the United States of America. All rights reserved.
##CAS REGISTRY NO=681-84-5
##$NIST MASS SPEC NO=4938
##MOLFORM=C4 H12 O4 Si
##MW=152
##$NIST SOURCE=MSDC
##XUNITS=M/Z
##YUNITS=RELATIVE INTENSITY
##XFACTOR=1
##YFACTOR=1
##FIRSTX=15
##LASTX=154
##FIRSTY=1904
##MAXX=154
##MINX=15
##MAXY=9999
##MINY=1
##NPOINTS=84
##PEAK TABLE=(XY..XY)
15,1904 16,45 17,20 18,31
19,3 25,3 26,13 27,17
28,245 29,1099 30,179 31,713
32,236 33,30 34,2 38,1
39,5 40,4 41,12 42,9
43,25 44,45 45,1249 46,214
47,701 48,42 49,26 51,2
52,3 53,3 56,25 57,14
58,128 59,1661 60,649 61,1510
62,192 63,206 64,13 65,8
67,17 68,240 69,116 72,16
73,37 74,64 75,700 76,507
77,920 78,80 79,52 80,5
84,18 87,10 89,84 90,3209
91,4656 92,457 93,223 94,12
95,8 97,84 103,9 104,16
105,243 106,123 107,1524 108,123
109,73 110,13 120,747 121,9999
122,953 123,459 124,69 125,59
135,56 137,721 138,77 139,48
151,893 152,5801 153,605 154,260
##END=
