##TITLE=2,2',3,4',6,6'-Hexachloro-1,1'-biphenyl
##JCAMP-DX=4.24
##DATA TYPE=MASS SPECTRUM
##ORIGIN=Organic Synthesis Lab, MSU, Moscow.TRC 1237
##OWNER=NIST Mass Spectrometry Data Center
Collection (C) 2014 copyright by the U.S. Secretary of Commerce
on behalf of the United States of America. All rights reserved.
##CAS REGISTRY NO=68194-08-1
##$NIST MASS SPEC NO=326619
##MOLFORM=C12 H4 Cl6
##MW=358
##$NIST SOURCE=MSDC
##XUNITS=M/Z
##YUNITS=RELATIVE INTENSITY
##XFACTOR=1
##YFACTOR=1
##FIRSTX=44
##LASTX=368
##FIRSTY=292
##MAXX=368
##MINX=44
##MAXY=9999
##MINY=54
##NPOINTS=116
##PEAK TABLE=(XY..XY)
44,292 47,140 49,192 50,286
60,195 61,674 62,195 72,270
73,1027 74,992 75,145 78,217
79,216 80,54 83,106 84,403
85,688 86,434 87,101 91,576
96,352 97,418 98,596 99,204
107,214 108,735 109,1999 110,1272
111,406 114,137 115,112 118,57
119,107 120,290 121,264 122,645
123,257 126,1325 127,1310 128,452
131,165 132,402 133,313 134,172
135,105 142,58 144,2379 145,3199
146,1857 147,619 148,300 149,69
156,123 157,239 158,240 160,70
161,274 162,422 167,117 168,78
169,92 170,88 179,596 180,1128
181,1137 182,844 183,638 184,221
185,144 192,115 193,118 194,94
203,84 204,77 216,95 217,313
218,1924 219,385 220,1214 221,177
222,201 228,106 229,68 230,113
238,67 240,110 242,66 252,498
253,518 254,400 255,406 256,195
257,142 288,3714 289,617 290,4420
291,704 292,2241 293,320 294,518
323,211 324,102 325,289 326,80
327,217 329,81 358,4480 360,9999
361,1477 362,8050 363,1073 364,3596
365,400 366,718 367,115 368,133
##END=
