##TITLE=1,1'-Biphenyl, 2,3,4',5,6-Pentachloro-
##JCAMP-DX=4.24
##DATA TYPE=MASS SPECTRUM
##ORIGIN=T.L.Hayes, Battelle Columbus Laboratories, Columbus, OH 43221
##OWNER=NIST Mass Spectrometry Data Center
Collection (C) 2014 copyright by the U.S. Secretary of Commerce
on behalf of the United States of America. All rights reserved.
##CAS REGISTRY NO=68194-11-6
##$NIST MASS SPEC NO=80819
##MOLFORM=C12 H5 Cl5
##MW=324
##$NIST SOURCE=MSDC
##XUNITS=M/Z
##YUNITS=RELATIVE INTENSITY
##XFACTOR=1
##YFACTOR=1
##FIRSTX=35
##LASTX=334
##FIRSTY=64
##MAXX=334
##MINX=35
##MAXY=9999
##MINY=12
##NPOINTS=174
##PEAK TABLE=(XY..XY)
35,64 36,49 37,154 38,109
39,31 46,17 47,74 48,21
49,22 50,465 51,265 56,20
60,94 61,479 62,309 63,175
67,27 71,26 72,224 73,694
74,944 75,611 76,51 78,130
79,247 80,101 83,44 84,405
85,529 86,472 87,178 88,41
89,15 91,49 92,1444 93,355
94,73 95,106 96,247 97,692
98,997 99,492 100,61 101,31
104,46 105,23 106,55 107,216
108,608 109,1878 110,1581 111,572
112,60 113,54 114,192 115,114
116,67 118,73 119,73 120,294
121,349 122,597 123,463 124,101
125,31 127,2829 128,2459 129,792
131,178 132,420 133,326 134,231
135,162 136,43 137,61 138,19
141,24 142,54 143,166 144,804
145,1292 146,822 147,671 148,522
149,690 150,118 154,16 155,33
156,131 157,163 158,135 159,103
160,95 162,486 163,726 164,464
165,193 166,17 167,98 168,101
169,96 170,116 171,62 172,67
173,22 178,25 179,22 180,39
181,121 182,207 183,503 184,2489
185,463 186,786 187,109 192,87
193,68 194,129 195,41 196,55
203,68 204,50 205,77 206,40
208,13 210,21 215,16 216,28
217,78 218,673 219,572 220,533
221,344 222,106 223,76 227,16
228,58 229,20 230,43 232,12
238,29 240,28 242,20 252,32
253,40 254,4319 255,689 256,4289
257,556 258,1332 259,163 260,159
261,16 262,22 264,25 266,13
288,182 289,97 290,237 291,130
292,129 293,66 294,40 324,6412
325,879 326,9999 327,1308 328,6639
329,794 330,2276 331,272 332,297
333,39 334,18
##END=
