##TITLE=2,3,3,',5',6-Pentachloro-1,1'-biphenyl
##JCAMP-DX=4.24
##DATA TYPE=MASS SPECTRUM
##ORIGIN=Organic Synthesis Lab, MSU, Moscow.TRC 1273
##OWNER=NIST Mass Spectrometry Data Center
Collection (C) 2014 copyright by the U.S. Secretary of Commerce
on behalf of the United States of America. All rights reserved.
##CAS REGISTRY NO=68194-10-5
##$NIST MASS SPEC NO=326646
##MOLFORM=C12 H5 Cl5
##MW=324
##$NIST SOURCE=MSDC
##XUNITS=M/Z
##YUNITS=RELATIVE INTENSITY
##XFACTOR=1
##YFACTOR=1
##FIRSTX=51
##LASTX=334
##FIRSTY=121
##MAXX=334
##MINX=51
##MAXY=9999
##MINY=17
##NPOINTS=142
##PEAK TABLE=(XY..XY)
51,121 55,46 57,20 59,36
60,171 61,712 62,370 63,102
67,54 68,20 71,45 72,205
73,895 74,1443 75,639 79,228
83,64 84,376 85,525 86,422
87,203 92,1051 93,318 96,243
97,433 98,938 99,508 100,33
102,17 103,23 104,24 106,35
107,134 108,402 109,2128 110,1223
114,88 115,100 116,45 118,29
119,42 120,184 121,215 122,471
123,417 124,116 125,42 127,2504
128,1999 129,577 130,72 131,61
132,149 133,287 134,158 135,163
136,30 137,55 143,75 144,732
145,859 146,562 147,553 148,388
149,454 150,81 156,52 157,76
158,120 159,127 160,76 161,45
162,410 163,615 164,403 165,138
166,35 167,26 168,32 169,93
170,54 171,72 172,33 173,20
180,41 181,75 182,218 183,475
184,1833 185,351 186,589 187,87
193,37 194,113 195,42 196,56
204,114 205,46 206,96 207,34
208,60 217,81 218,558 219,515
220,547 221,325 222,105 223,41
224,33 228,50 229,20 230,47
232,26 240,19 243,18 252,42
254,4306 255,644 256,4472 257,605
258,1463 259,174 260,148 288,94
289,166 290,232 291,254 292,130
293,133 294,39 295,40 324,5614
325,853 326,9999 327,1104 328,4917
329,676 330,1500 331,232 332,298
333,36 334,22
##END=
