##TITLE=Silicic acid (H4SiO4), tetrapropyl ester
##JCAMP-DX=4.24
##DATA TYPE=MASS SPECTRUM
##ORIGIN=Japan AIST/NIMC Database- Spectrum MS-NW-8608
##OWNER=NIST Mass Spectrometry Data Center
Collection (C) 2014 copyright by the U.S. Secretary of Commerce
on behalf of the United States of America. All rights reserved.
##CAS REGISTRY NO=682-01-9
##$NIST MASS SPEC NO=238685
##MOLFORM=C12 H28 O4 Si
##MW=264
##$NIST SOURCE=MSDC
##XUNITS=M/Z
##YUNITS=RELATIVE INTENSITY
##XFACTOR=1
##YFACTOR=1
##FIRSTX=15
##LASTX=265
##FIRSTY=10
##MAXX=265
##MINX=15
##MAXY=9999
##MINY=10
##NPOINTS=150
##PEAK TABLE=(XY..XY)
15,10 26,20 27,359 28,99
29,289 30,10 31,269 38,10
39,129 40,20 41,769 42,149
43,1029 44,30 45,409 46,30
47,40 55,219 56,10 57,99
58,20 59,60 60,20 61,30
62,379 63,1619 64,99 65,60
67,30 69,20 71,10 73,20
74,10 75,40 76,179 77,329
78,30 79,5459 80,289 81,269
82,10 83,589 84,40 85,30
86,20 87,129 88,20 89,249
90,50 91,149 92,109 93,1149
94,80 95,60 97,339 98,20
99,20 100,20 101,149 102,50
103,609 104,80 105,669 106,70
107,239 108,10 109,209 110,10
111,129 113,10 115,50 116,30
117,429 118,99 119,469 120,50
121,2439 122,209 123,489 124,30
125,20 129,10 131,60 132,10
133,379 134,50 135,1059 136,99
137,809 138,70 139,159 140,10
141,10 143,10 145,179 146,30
147,509 148,60 149,169 150,20
151,5119 152,489 153,239 154,10
157,10 158,10 159,20 161,90
162,10 163,1219 164,149 165,389
166,40 167,20 173,10 175,99
176,20 177,3079 178,399 179,459
180,60 181,109 182,10 189,10
191,109 192,20 193,3039 194,399
195,149 196,10 203,10 205,2309
206,349 207,139 208,10 219,10
221,479 222,99 223,119 224,20
225,10 233,40 235,9999 236,1639
237,529 238,50 249,20 263,189
264,159 265,30
##END=
