##TITLE=2-Bromoacetamide
##JCAMP-DX=4.24
##DATA TYPE=MASS SPECTRUM
##ORIGIN=NIST Mass Spectrometry Data Center, 1994
##OWNER=NIST Mass Spectrometry Data Center
Collection (C) 2014 copyright by the U.S. Secretary of Commerce
on behalf of the United States of America. All rights reserved.
##CAS REGISTRY NO=683-57-8
##$NIST MASS SPEC NO=135727
##MOLFORM=C2 H4 Br N O
##MW=137
##$NIST SOURCE=MSDC
##XUNITS=M/Z
##YUNITS=RELATIVE INTENSITY
##XFACTOR=1
##YFACTOR=1
##FIRSTX=5
##LASTX=140
##FIRSTY=42
##MAXX=140
##MINX=5
##MAXY=9999
##MINY=1
##NPOINTS=41
##PEAK TABLE=(XY..XY)
5,42 12,182 13,370 14,973
15,78 16,639 17,63 18,101
25,95 26,10 28,1971 30,3709
32,1 38,164 39,192 40,521
41,731 42,3576 43,377 44,9999
46,35 58,233 79,834 80,253
81,848 82,232 91,248 92,285
93,1445 94,752 95,1292 96,492
119,59 120,128 121,168 122,123
123,118 137,2674 138,69 139,2623
140,69
##END=
