##TITLE=Acetamide, 2,2-dichloro-
##JCAMP-DX=4.24
##DATA TYPE=MASS SPECTRUM
##ORIGIN=Japan AIST/NIMC Database- Spectrum MS-NW-4909
##OWNER=NIST Mass Spectrometry Data Center
Collection (C) 2014 copyright by the U.S. Secretary of Commerce
on behalf of the United States of America. All rights reserved.
##CAS REGISTRY NO=683-72-7
##$NIST MASS SPEC NO=230034
##MOLFORM=C2 H3 Cl2 N O
##MW=127
##$NIST SOURCE=MSDC
##XUNITS=M/Z
##YUNITS=RELATIVE INTENSITY
##XFACTOR=1
##YFACTOR=1
##FIRSTX=12
##LASTX=131
##FIRSTY=20
##MAXX=131
##MINX=12
##MAXY=9999
##MINY=10
##NPOINTS=48
##PEAK TABLE=(XY..XY)
12,20 13,60 14,20 15,10
16,109 17,10 26,10 27,119
28,419 29,80 35,80 36,159
37,30 38,50 39,20 40,20
41,60 42,10 43,99 44,9999
45,149 46,20 47,139 48,379
49,179 50,119 51,50 62,20
63,10 64,159 66,50 74,10
75,10 76,209 78,60 82,30
83,259 84,20 85,159 87,20
92,50 94,10 110,20 112,10
127,239 128,10 129,139 131,20
##END=
