##TITLE=1,2,4,5-Tetrazine, 3,6-diphenyl-
##JCAMP-DX=4.24
##DATA TYPE=MASS SPECTRUM
##ORIGIN=V.I. COHEN, 38 MODABER AVE., TEHRAN, IRA
##OWNER=NIST Mass Spectrometry Data Center
Collection (C) 2014 copyright by the U.S. Secretary of Commerce
on behalf of the United States of America. All rights reserved.
##CAS REGISTRY NO=6830-78-0
##$NIST MASS SPEC NO=75418
##MOLFORM=C14 H10 N4
##MW=234
##$NIST SOURCE=MSDC
##XUNITS=M/Z
##YUNITS=RELATIVE INTENSITY
##XFACTOR=1
##YFACTOR=1
##FIRSTX=39
##LASTX=234
##FIRSTY=300
##MAXX=234
##MINX=39
##MAXY=9999
##MINY=300
##NPOINTS=10
##PEAK TABLE=(XY..XY)
39,300 50,600 51,400 52,300
75,300 76,2100 77,400 103,9999
104,1000 234,1000
##END=
