##TITLE=2H-Cyclopropa[a]naphthalen-2-one, 1,1a,4,5,6,7,7a,7b-octahydro-1,1,7,7a-tetramethyl-, (1a.alpha.,7.alpha.,7a.alpha.,7b.alpha.)-
##JCAMP-DX=4.24
##DATA TYPE=MASS SPECTRUM
##ORIGIN=L. BAUER COLLEGE OF PHARMACY, UNIV. OF ILLINOIS, CHICAGO, USA
##OWNER=NIST Mass Spectrometry Data Center
Collection (C) 2014 copyright by the U.S. Secretary of Commerce
on behalf of the United States of America. All rights reserved.
##CAS REGISTRY NO=6831-17-0
##$NIST MASS SPEC NO=10188
##MOLFORM=C15 H22 O
##MW=218
##$NIST SOURCE=MSDC
##XUNITS=M/Z
##YUNITS=RELATIVE INTENSITY
##XFACTOR=1
##YFACTOR=1
##FIRSTX=26
##LASTX=219
##FIRSTY=1700
##MAXX=219
##MINX=26
##MAXY=9999
##MINY=500
##NPOINTS=67
##PEAK TABLE=(XY..XY)
26,1700 29,1400 39,3000 40,500
41,3200 43,1800 51,1300 52,600
53,2400 55,2300 63,500 65,1600
67,2000 68,800 69,3700 71,500
77,5300 78,800 79,2300 80,700
81,1700 83,900 91,4800 92,1000
93,3500 94,500 95,1800 96,2000
103,800 105,3800 106,900 107,1700
108,1400 109,2500 110,500 115,1000
116,500 117,1200 119,3800 120,900
121,1800 122,1700 123,700 128,500
129,600 131,1000 133,3100 134,1100
135,1500 136,800 145,1000 147,4300
148,1400 149,1300 150,500 159,500
161,4200 162,2000 163,1700 175,3400
176,2000 185,1000 189,500 203,7700
204,1700 218,9999 219,2000
##END=
