##TITLE=1H-Pyrazole, 5-methyl-1-phenyl-
##JCAMP-DX=4.24
##DATA TYPE=MASS SPECTRUM
##ORIGIN=V.A. KOPTYUG, VOL.4, ATLAS OF MASS SPECTRA OF ORGANIC COMPOUNDS
##OWNER=NIST Mass Spectrometry Data Center
Collection (C) 2014 copyright by the U.S. Secretary of Commerce
on behalf of the United States of America. All rights reserved.
##CAS REGISTRY NO=6831-91-0
##$NIST MASS SPEC NO=73085
##MOLFORM=C10 H10 N2
##MW=158
##$NIST SOURCE=MSDC
##XUNITS=M/Z
##YUNITS=RELATIVE INTENSITY
##XFACTOR=1
##YFACTOR=1
##FIRSTX=26
##LASTX=160
##FIRSTY=370
##MAXX=160
##MINX=26
##MAXY=9999
##MINY=80
##NPOINTS=61
##PEAK TABLE=(XY..XY)
26,370 27,1460 28,840 29,150
37,170 38,600 39,2000 40,560
41,620 42,510 43,150 50,1060
51,4530 52,1020 53,500 54,490
55,500 62,230 63,940 64,860
65,980 66,700 67,180 74,220
75,270 76,470 77,6470 78,1140
79,400 81,600 89,860 90,1560
91,800 92,280 93,1060 94,80
102,180 103,570 104,680 105,170
106,180 115,380 116,640 117,900
118,680 119,120 128,290 129,360
130,3670 131,540 132,350 142,330
143,650 144,440 154,170 155,230
156,540 157,5940 158,9999 159,1190
160,140
##END=
