##TITLE=p-(1H-1,2,4-Triazol-1-yl) phenol
##JCAMP-DX=4.24
##DATA TYPE=MASS SPECTRUM
##ORIGIN=NIST Mass Spectrometry Data Center, 1994
##OWNER=NIST Mass Spectrometry Data Center
Collection (C) 2014 copyright by the U.S. Secretary of Commerce
on behalf of the United States of America. All rights reserved.
##CAS REGISTRY NO=68337-15-5
##$NIST MASS SPEC NO=136640
##MOLFORM=C8 H7 N3 O
##MW=161
##$NIST SOURCE=MSDC
##XUNITS=M/Z
##YUNITS=RELATIVE INTENSITY
##XFACTOR=1
##YFACTOR=1
##FIRSTX=13
##LASTX=162
##FIRSTY=130
##MAXX=162
##MINX=13
##MAXY=9999
##MINY=29
##NPOINTS=47
##PEAK TABLE=(XY..XY)
13,130 14,43 15,113 16,173
17,45 18,72 26,675 27,1036
28,1396 29,233 30,45 37,276
38,624 39,1542 40,349 41,120
42,136 43,104 44,29 50,539
51,1480 52,5303 53,1748 54,520
55,317 61,239 62,405 63,692
64,334 65,630 66,146 67,129
74,108 75,110 76,158 77,241
78,675 79,3176 80,1752 81,473
93,150 107,9623 108,791 133,287
134,1213 161,9999 162,863
##END=
