##TITLE=6-Dodecanol
##JCAMP-DX=4.24
##DATA TYPE=MASS SPECTRUM
##ORIGIN=D.HENNEBERG, MAX-PLANCK INSTITUTE, MULHEIM, WEST GERMANY
##OWNER=NIST Mass Spectrometry Data Center
Collection (C) 2014 copyright by the U.S. Secretary of Commerce
on behalf of the United States of America. All rights reserved.
##CAS REGISTRY NO=6836-38-0
##$NIST MASS SPEC NO=62251
##MOLFORM=C12 H26 O
##MW=186
##$NIST SOURCE=MSDC
##XUNITS=M/Z
##YUNITS=RELATIVE INTENSITY
##XFACTOR=1
##YFACTOR=1
##FIRSTX=20
##LASTX=185
##FIRSTY=5
##MAXX=185
##MINX=20
##MAXY=9999
##MINY=1
##NPOINTS=105
##PEAK TABLE=(XY..XY)
20,5 26,61 27,811 28,244
29,1549 30,58 31,467 32,26
33,13 34,7 35,16 36,33
37,40 38,1 39,327 40,93
41,2329 42,394 43,2455 44,569
46,10 47,14 49,26 50,20
51,16 52,27 53,152 54,138
55,9999 56,841 57,955 58,209
59,176 65,55 66,36 67,221
68,246 69,1412 70,508 71,241
72,56 73,37 75,24 77,10
78,42 79,32 80,2 81,115
82,276 83,5538 84,467 85,93
86,39 87,72 88,7 89,39
90,7 91,53 92,8 93,14
95,32 96,97 97,3927 98,320
99,49 100,99 101,1683 102,123
103,7 107,4 108,11 109,10
110,17 111,49 112,13 113,27
114,85 115,1016 116,78 118,26
120,7 121,4 122,11 125,40
126,30 128,2 129,8 131,4
133,32 134,5 135,26 137,14
141,14 146,8 149,5 151,10
159,13 162,4 163,29 164,8
168,117 169,16 176,16 179,10
185,14
##END=
