##TITLE=Silane, trichloro(1,2-dichloroethyl)-
##JCAMP-DX=4.24
##DATA TYPE=MASS SPECTRUM
##ORIGIN=RADIAN CORP
##OWNER=NIST Mass Spectrometry Data Center
Collection (C) 2014 copyright by the U.S. Secretary of Commerce
on behalf of the United States of America. All rights reserved.
##CAS REGISTRY NO=684-00-4
##$NIST MASS SPEC NO=73263
##MOLFORM=C2 H3 Cl5 Si
##MW=230
##$NIST SOURCE=MSDC
##XUNITS=M/Z
##YUNITS=RELATIVE INTENSITY
##XFACTOR=1
##YFACTOR=1
##FIRSTX=25
##LASTX=204
##FIRSTY=110
##MAXX=204
##MINX=25
##MAXY=9999
##MINY=10
##NPOINTS=85
##PEAK TABLE=(XY..XY)
25,110 26,680 27,1740 28,90
29,30 35,650 36,160 37,220
38,50 41,70 42,50 47,70
48,80 49,470 51,130 52,70
53,280 54,20 55,10 59,10
60,240 61,820 62,9999 63,2860
64,3440 65,910 66,40 67,10
69,10 83,190 85,120 87,60
88,60 89,10 90,10 96,120
97,170 98,1500 99,480 100,970
101,260 102,180 103,20 113,20
115,10 121,20 123,240 124,70
125,270 126,70 127,110 128,10
129,40 131,30 133,6250 134,380
135,6440 136,340 137,2200 138,90
139,280 146,70 148,70 159,70
160,30 161,60 162,20 168,90
170,70 171,20 181,370 182,30
183,460 184,20 185,230 187,30
195,710 196,80 197,890 198,70
199,450 200,10 201,80 202,80
204,70
##END=
