##TITLE=2,4-Imidazolidinedione, 5-methyl-5-phenyl-
##JCAMP-DX=4.24
##DATA TYPE=MASS SPECTRUM
##ORIGIN=Japan AIST/NIMC Database- Spectrum MS-NW-7237
##OWNER=NIST Mass Spectrometry Data Center
Collection (C) 2014 copyright by the U.S. Secretary of Commerce
on behalf of the United States of America. All rights reserved.
##CAS REGISTRY NO=6843-49-8
##$NIST MASS SPEC NO=236085
##MOLFORM=C10 H10 N2 O2
##MW=190
##$NIST SOURCE=MSDC
##XUNITS=M/Z
##YUNITS=RELATIVE INTENSITY
##XFACTOR=1
##YFACTOR=1
##FIRSTX=15
##LASTX=192
##FIRSTY=139
##MAXX=192
##MINX=15
##MAXY=9999
##MINY=10
##NPOINTS=100
##PEAK TABLE=(XY..XY)
15,139 16,10 17,80 18,399
26,40 27,199 28,139 29,20
32,10 37,50 38,119 39,449
40,80 41,259 42,1639 43,139
44,139 45,10 46,20 49,40
50,689 51,1809 52,849 53,60
54,10 55,10 57,10 58,139
59,50 61,40 62,119 63,289
64,80 65,189 66,30 68,30
69,10 70,299 71,10 73,50
74,229 75,209 76,439 77,2829
78,1089 79,90 80,10 85,10
86,20 87,30 88,20 89,119
90,70 91,299 92,159 93,30
98,20 99,10 100,10 101,40
102,179 103,789 104,9999 105,919
106,50 112,10 113,119 114,10
116,60 117,80 118,269 119,3929
120,389 121,30 128,20 129,10
130,10 131,10 132,619 133,60
134,10 143,20 144,40 145,40
146,529 147,789 148,80 149,10
160,40 161,1189 162,569 163,60
174,10 175,7759 176,829 177,80
178,10 190,2279 191,299 192,30
##END=
