##TITLE=2-Propenoic acid, 3-(2-furanyl)-, 2-methylpropyl ester
##JCAMP-DX=4.24
##DATA TYPE=MASS SPECTRUM
##ORIGIN=W.Jennings, T.Shibamoto
##OWNER=NIST Mass Spectrometry Data Center
Collection (C) 2014 copyright by the U.S. Secretary of Commerce
on behalf of the United States of America. All rights reserved.
##CAS REGISTRY NO=68480-18-2
##$NIST MASS SPEC NO=285060
##MOLFORM=C11 H14 O3
##MW=194
##$NIST SOURCE=MSDC
##XUNITS=M/Z
##YUNITS=RELATIVE INTENSITY
##XFACTOR=1
##YFACTOR=1
##FIRSTX=29
##LASTX=195
##FIRSTY=751
##MAXX=195
##MINX=29
##MAXY=9999
##MINY=70
##NPOINTS=36
##PEAK TABLE=(XY..XY)
29,751 39,190 41,1251 55,721
56,631 57,2923 58,70 64,190
65,3443 66,1922 68,190 73,70
81,721 82,1251 88,70 92,721
93,1321 94,6456 95,510 96,190
97,70 98,190 109,190 110,3453
111,190 120,70 121,9999 122,1912
123,310 137,70 138,9529 139,2392
140,190 151,70 194,4654 195,851
##END=
