##TITLE=Acetamide, N,N-diethyl-
##JCAMP-DX=4.24
##DATA TYPE=MASS SPECTRUM
##ORIGIN=Japan AIST/NIMC Database- Spectrum MS-NW-1298
##OWNER=NIST Mass Spectrometry Data Center
Collection (C) 2014 copyright by the U.S. Secretary of Commerce
on behalf of the United States of America. All rights reserved.
##CAS REGISTRY NO=685-91-6
##$NIST MASS SPEC NO=233706
##MOLFORM=C6 H13 N O
##MW=115
##$NIST SOURCE=MSDC
##XUNITS=M/Z
##YUNITS=RELATIVE INTENSITY
##XFACTOR=1
##YFACTOR=1
##FIRSTX=14
##LASTX=117
##FIRSTY=60
##MAXX=117
##MINX=14
##MAXY=9999
##MINY=10
##NPOINTS=41
##PEAK TABLE=(XY..XY)
14,60 15,649 17,10 18,30
26,90 27,639 28,559 29,829
30,1899 31,30 32,20 38,10
39,30 40,50 41,169 42,659
43,2759 44,3289 45,99 52,10
54,40 55,30 56,299 57,60
58,9999 59,369 60,10 68,10
70,80 71,30 72,1509 73,70
86,399 87,119 88,10 100,589
101,30 114,10 115,3349 116,239
117,10
##END=
