##TITLE=Propanedioic acid, bromo-, diethyl ester
##JCAMP-DX=4.24
##DATA TYPE=MASS SPECTRUM
##ORIGIN=Japan AIST/NIMC Database- Spectrum MS-NW-8545
##OWNER=NIST Mass Spectrometry Data Center
Collection (C) 2014 copyright by the U.S. Secretary of Commerce
on behalf of the United States of America. All rights reserved.
##CAS REGISTRY NO=685-87-0
##$NIST MASS SPEC NO=238826
##MOLFORM=C7 H11 Br O4
##MW=238
##$NIST SOURCE=MSDC
##XUNITS=M/Z
##YUNITS=RELATIVE INTENSITY
##XFACTOR=1
##YFACTOR=1
##FIRSTX=13
##LASTX=241
##FIRSTY=20
##MAXX=241
##MINX=13
##MAXY=9999
##MINY=10
##NPOINTS=105
##PEAK TABLE=(XY..XY)
13,20 14,70 15,229 16,10
18,10 25,10 26,189 27,1949
28,489 29,9999 30,269 31,389
36,30 38,10 39,30 40,30
41,829 42,539 43,679 44,99
45,849 46,40 47,40 48,10
49,10 55,80 57,20 58,30
59,40 60,109 61,30 65,10
68,30 69,1019 70,80 71,30
73,219 74,10 75,30 76,139
77,40 78,40 79,30 80,30
81,20 82,30 86,339 87,389
88,109 89,10 91,20 92,80
93,99 94,569 95,80 96,179
99,10 104,10 105,10 107,10
109,80 111,60 114,40 115,289
116,10 120,759 121,349 122,799
123,319 124,30 132,10 133,99
137,30 138,2139 139,90 140,2089
141,60 147,10 149,70 151,20
152,10 159,10 164,10 165,50
166,649 167,109 168,629 169,60
192,10 193,329 194,30 195,309
196,10 200,10 210,20 211,40
212,20 213,40 216,20 218,40
220,20 238,20 239,10 240,20
241,10
##END=
