##TITLE=2-Propanamine, 2-methyl-N-(phenylmethylene)-
##JCAMP-DX=4.24
##DATA TYPE=MASS SPECTRUM
##ORIGIN=NIST Mass Spectrometry Data Center, 1994
##OWNER=NIST Mass Spectrometry Data Center
Collection (C) 2014 copyright by the U.S. Secretary of Commerce
on behalf of the United States of America. All rights reserved.
##CAS REGISTRY NO=6852-58-0
##$NIST MASS SPEC NO=135134
##MOLFORM=C11 H15 N
##MW=161
##$NIST SOURCE=MSDC
##XUNITS=M/Z
##YUNITS=RELATIVE INTENSITY
##XFACTOR=1
##YFACTOR=1
##FIRSTX=5
##LASTX=162
##FIRSTY=10
##MAXX=162
##MINX=5
##MAXY=9999
##MINY=2
##NPOINTS=97
##PEAK TABLE=(XY..XY)
5,10 6,10 8,6 11,9
13,9 15,660 16,9 17,5
18,27 22,6 26,153 27,1048
28,723 29,1763 30,48 32,2
35,10 37,94 38,333 39,2208
40,2 41,4370 42,1077 43,118
44,23 45,7 50,823 51,1943
52,412 53,156 54,67 55,314
56,682 57,4743 58,250 60,14
61,58 62,304 63,853 64,342
65,14 66,940 67,14 68,303
69,18 70,11 72,54 73,161
74,175 75,217 76,537 77,2163
78,644 79,903 80,82 82,11
84,11 85,16 86,46 87,58
88,11 89,1633 90,1094 91,1631
92,121 93,11 99,10 100,10
104,2689 105,1030 106,2331 107,174
108,8 115,85 116,243 117,86
118,54 119,309 120,43 128,41
130,497 131,164 132,52 133,12
141,11 142,13 143,41 144,110
145,11 146,9999 147,1111 148,67
149,6 158,6 160,264 161,512
162,77
##END=
