##TITLE=Benzaldehyde, 4-pentyl-
##JCAMP-DX=4.24
##DATA TYPE=MASS SPECTRUM
##ORIGIN=NIST Mass Spectrometry Data Center, 1994
##OWNER=NIST Mass Spectrometry Data Center
Collection (C) 2014 copyright by the U.S. Secretary of Commerce
on behalf of the United States of America. All rights reserved.
##CAS REGISTRY NO=6853-57-2
##$NIST MASS SPEC NO=135140
##MOLFORM=C12 H16 O
##MW=176
##$NIST SOURCE=MSDC
##XUNITS=M/Z
##YUNITS=RELATIVE INTENSITY
##XFACTOR=1
##YFACTOR=1
##FIRSTX=12
##LASTX=177
##FIRSTY=26
##MAXX=177
##MINX=12
##MAXY=9999
##MINY=16
##NPOINTS=80
##PEAK TABLE=(XY..XY)
12,26 14,42 15,216 17,47
18,16 27,2143 28,416 29,2881
30,62 37,52 38,209 39,1925
40,221 41,2829 42,229 43,229
44,20 50,475 51,1165 52,238
53,224 54,33 55,268 56,73
57,759 58,62 61,37 62,236
63,810 64,314 65,1610 66,122
67,45 69,46 74,163 75,211
76,314 77,1508 78,474 79,490
80,49 87,88 89,1057 90,1383
91,9999 92,6057 93,461 94,58
101,66 102,177 103,604 104,236
105,941 106,121 107,101 115,524
116,136 117,199 118,526 119,2761
120,4682 121,455 122,52 127,42
128,47 129,105 130,58 131,323
132,101 133,387 134,92 143,59
145,158 147,414 148,78 158,45
161,113 175,1009 176,3161 177,487
##END=
