##TITLE=Benzoic acid, 2-hydroxy-, 3-methyl-2-butenyl ester
##JCAMP-DX=4.24
##DATA TYPE=MASS SPECTRUM
##ORIGIN=Insect Chem. Ecol. Lab., USDA, Beltsville, MD 20705
##OWNER=NIST Mass Spectrometry Data Center
Collection (C) 2014 copyright by the U.S. Secretary of Commerce
on behalf of the United States of America. All rights reserved.
##CAS REGISTRY NO=68555-58-8
##$NIST MASS SPEC NO=131790
##MOLFORM=C12 H14 O3
##MW=206
##$NIST SOURCE=MSDC
##XUNITS=M/Z
##YUNITS=RELATIVE INTENSITY
##XFACTOR=1
##YFACTOR=1
##FIRSTX=41
##LASTX=207
##FIRSTY=8376
##MAXX=207
##MINX=41
##MAXY=9999
##MINY=5
##NPOINTS=96
##PEAK TABLE=(XY..XY)
41,8376 42,487 43,430 44,45
45,70 46,16 47,44 48,24
49,256 50,228 51,428 52,160
53,1734 54,237 55,251 56,40
57,60 59,48 60,12 61,56
62,192 63,816 64,661 65,2158
66,259 67,1330 68,1434 69,9999
70,564 71,117 72,6 73,14
74,53 75,61 76,57 77,89
78,24 79,38 80,12 81,228
82,27 83,57 84,136 85,71
86,86 88,14 89,24 90,14
91,82 92,1519 93,613 94,70
95,20 97,6 103,7 104,15
105,65 106,7 107,71 108,13
109,50 115,16 117,13 118,18
119,32 120,6580 121,1937 122,158
123,23 128,5 129,5 131,8
133,22 135,17 136,5 137,18
138,6482 139,603 140,58 141,6
144,5 145,16 147,22 152,44
153,5 159,6 161,8 162,14
163,7 166,7 173,7 177,8
179,8 188,5 206,200 207,28
##END=
