##TITLE=Trimethylsilyl O,O'-bis(trimethylsilyl)vanilpyruvate
##JCAMP-DX=4.24
##DATA TYPE=MASS SPECTRUM
##ORIGIN=O A MAMER, MCGILL UNIVERSITY, MONTRE
##OWNER=NIST Mass Spectrometry Data Center
Collection (C) 2014 copyright by the U.S. Secretary of Commerce
on behalf of the United States of America. All rights reserved.
##CAS REGISTRY NO=68595-71-1
##$NIST MASS SPEC NO=79355
##MOLFORM=C19 H34 O5 Si3
##MW=426
##$NIST SOURCE=MSDC
##XUNITS=M/Z
##YUNITS=RELATIVE INTENSITY
##XFACTOR=1
##YFACTOR=1
##FIRSTX=26
##LASTX=429
##FIRSTY=38
##MAXX=429
##MINX=26
##MAXY=9999
##MINY=34
##NPOINTS=117
##PEAK TABLE=(XY..XY)
26,38 29,68 39,49 43,173
44,256 46,128 47,119 55,76
59,557 60,54 61,75 67,48
71,57 72,228 73,9999 74,893
75,827 76,83 77,76 79,46
81,46 83,51 85,35 89,270
90,40 91,99 97,38 103,86
105,59 115,69 117,137 119,80
121,35 129,89 131,222 132,56
133,347 135,231 136,37 145,50
147,6691 148,1166 149,630 150,94
159,35 161,76 163,71 165,40
175,42 177,68 178,354 179,104
187,112 190,54 191,58 192,110
193,109 203,52 204,76 205,56
206,743 207,193 208,84 209,85
219,46 220,43 221,592 222,117
223,83 233,36 235,41 236,289
237,88 239,41 249,53 250,42
252,38 253,55 264,36 265,44
266,44 267,49 278,40 279,64
280,113 281,73 295,66 297,34
308,468 309,186 310,83 311,43
323,58 325,240 326,99 327,61
338,131 339,59 340,90 341,35
355,839 356,296 357,152 358,51
359,60 368,36 381,67 397,88
399,47 411,1128 412,436 413,215
414,67 426,926 427,361 428,179
429,57
##END=
