##TITLE=Isovanillic acid, 2TMS derivative
##JCAMP-DX=4.24
##DATA TYPE=MASS SPECTRUM
##ORIGIN=NIST Mass Spectrometry Data Center
##OWNER=NIST Mass Spectrometry Data Center
Collection (C) 2014 copyright by the U.S. Secretary of Commerce
on behalf of the United States of America. All rights reserved.
##CAS REGISTRY NO=68595-68-6
##$NIST MASS SPEC NO=352853
##MOLFORM=C14 H24 O4 Si2
##MW=312
##$NIST SOURCE=MSDC
##XUNITS=M/Z
##YUNITS=RELATIVE INTENSITY
##XFACTOR=1
##YFACTOR=1
##FIRSTX=15
##LASTX=316
##FIRSTY=50
##MAXX=316
##MINX=15
##MAXY=9999
##MINY=10
##NPOINTS=209
##PEAK TABLE=(XY..XY)
15,50 27,30 28,20 29,80
30,10 31,30 38,10 39,30
41,10 42,30 43,370 44,240
45,1471 46,90 47,170 48,10
49,20 50,50 51,200 52,40
53,110 54,20 55,100 56,30
57,110 58,200 59,1251 60,110
61,160 62,40 63,240 64,60
65,100 66,70 67,70 68,30
69,130 70,70 71,180 72,250
73,8478 74,801 75,1191 76,250
77,480 78,170 79,490 80,40
81,80 82,40 83,651 84,90
85,120 86,10 87,30 88,30
89,1381 90,250 91,761 92,140
93,300 94,70 95,180 96,70
97,130 98,711 99,200 100,20
101,30 102,30 103,250 104,450
105,520 106,110 107,500 108,110
109,410 110,80 111,200 112,170
115,80 116,20 117,140 118,230
119,981 120,290 121,1251 122,530
123,290 124,60 126,6596 129,30
130,10 131,100 132,40 133,2382
135,1121 136,240 137,2262 138,300
139,110 141,1982 143,60 144,10
145,40 146,30 147,420 148,280
149,1311 150,480 151,480 152,90
153,90 154,20 155,20 157,30
158,10 159,20 160,20 161,90
162,40 163,550 164,310 165,2452
166,420 167,160 168,30 169,10
175,30 176,20 177,150 178,460
179,1041 180,691 181,240 182,40
183,30 184,10 189,10 190,10
191,150 192,100 193,3273 194,581
195,480 196,80 197,30 198,10
203,10 205,30 206,30 207,420
208,80 209,140 210,90 211,90
212,20 213,10 219,10 220,20
221,120 223,5475 224,1081 225,410
226,50 227,10 233,10 235,20
236,20 237,240 238,80 239,160
240,30 241,10 249,10 251,50
253,4774 254,1141 255,470 256,80
257,10 264,10 265,30 267,8117
268,1842 269,781 270,120 271,30
279,10 280,20 281,200 282,3543
283,871 284,370 285,50 286,10
295,40 297,9999 298,2492 299,1051
300,180 301,30 302,10 311,80
312,6926 313,1792 314,741 315,130
316,30
##END=
