##TITLE=2,3-Dihydroxystearic acid
##JCAMP-DX=4.24
##DATA TYPE=MASS SPECTRUM
##ORIGIN=LAC, NIDDK, NIH, Bethesda, MD 20892
##OWNER=NIST Mass Spectrometry Data Center
Collection (C) 2014 copyright by the U.S. Secretary of Commerce
on behalf of the United States of America. All rights reserved.
##CAS REGISTRY NO=68601-97-8
##$NIST MASS SPEC NO=251995
##MOLFORM=C18 H36 O4
##MW=316
##$NIST SOURCE=MSDC
##XUNITS=M/Z
##YUNITS=RELATIVE INTENSITY
##XFACTOR=1
##YFACTOR=1
##FIRSTX=41
##LASTX=316
##FIRSTY=2768
##MAXX=316
##MINX=41
##MAXY=9999
##MINY=3
##NPOINTS=159
##PEAK TABLE=(XY..XY)
41,2768 42,577 43,4922 44,512
45,209 46,8 47,30 49,47
51,16 52,4 53,158 54,294
55,2851 56,444 57,2898 58,375
59,188 60,284 61,62 63,6
65,25 66,45 67,637 68,371
69,2760 70,511 71,1492 72,58
73,105 74,43 76,9999 77,381
78,60 79,151 80,71 81,639
82,369 83,1755 84,282 85,651
86,98 87,71 88,28 89,119
91,40 93,84 94,64 95,529
96,271 97,2069 98,326 99,204
100,38 101,26 102,56 103,37
105,164 107,80 108,45 109,206
110,53 111,765 112,290 113,162
114,41 115,65 116,46 117,14
118,11 119,13 121,65 122,40
123,123 124,60 125,401 126,89
127,89 129,38 130,15 131,13
132,12 133,14 135,51 136,25
137,42 138,31 139,133 140,59
141,48 142,3 143,23 145,8
147,4 149,37 150,26 151,31
152,26 153,76 154,32 155,20
157,13 159,8 161,4 163,17
165,19 166,16 167,45 168,27
169,22 171,17 177,17 179,13
180,7 181,17 182,7 183,12
185,19 186,7 189,3 193,9
195,14 196,14 197,13 205,11
208,8 210,3 211,4 213,8
214,6 215,4 220,20 221,4
223,17 228,8 233,8 234,12
235,16 236,13 239,38 241,316
242,53 244,5 251,34 252,13
253,158 254,31 255,4 256,9
262,9 265,4 269,15 270,14
271,71 272,15 280,28 281,13
298,40 299,13 316,13
##END=
