##TITLE=2-Fluoro-5-nitrophenyl isocyanate
##JCAMP-DX=4.24
##DATA TYPE=MASS SPECTRUM
##ORIGIN=NIST Mass Spectrometry Data Center
##OWNER=NIST Mass Spectrometry Data Center
Collection (C) 2014 copyright by the U.S. Secretary of Commerce
on behalf of the United States of America. All rights reserved.
##CAS REGISTRY NO=68622-14-0
##$NIST MASS SPEC NO=343042
##MOLFORM=C7 H3 F N2 O3
##MW=182
##$NIST SOURCE=MSDC
##XUNITS=M/Z
##YUNITS=RELATIVE INTENSITY
##XFACTOR=1
##YFACTOR=1
##FIRSTX=12
##LASTX=184
##FIRSTY=70
##MAXX=184
##MINX=12
##MAXY=9999
##MINY=10
##NPOINTS=96
##PEAK TABLE=(XY..XY)
12,70 16,130 17,10 18,10
20,10 24,30 25,90 26,150
28,450 30,4364 31,1411 32,80
33,691 34,10 36,130 37,891
38,821 39,370 40,70 42,10
44,270 46,671 47,60 48,60
49,300 50,1181 51,711 52,240
53,70 54,100 55,150 56,981
57,3153 58,651 60,100 61,811
62,561 63,540 64,430 65,50
66,20 68,340 69,270 70,170
71,30 72,40 73,80 74,140
75,360 76,771 77,80 78,10
79,80 80,450 81,1651 82,1571
83,130 84,10 86,100 87,220
88,320 89,60 90,10 92,60
93,100 94,110 95,160 96,691
97,60 98,40 99,30 100,40
101,10 104,20 106,330 108,9999
109,711 110,30 114,10 120,10
122,50 124,2602 125,190 126,10
136,1331 137,120 150,10 152,891
153,70 154,10 156,10 166,150
167,10 182,6216 183,561 184,70
##END=
