##TITLE=1-Octanol, 3,7-dimethyl-, (S)-
##JCAMP-DX=4.24
##DATA TYPE=MASS SPECTRUM
##ORIGIN=NIST Mass Spectrometry Data Center, 1994
##OWNER=NIST Mass Spectrometry Data Center
Collection (C) 2014 copyright by the U.S. Secretary of Commerce
on behalf of the United States of America. All rights reserved.
##CAS REGISTRY NO=68680-98-8
##$NIST MASS SPEC NO=135339
##MOLFORM=C10 H22 O
##MW=158
##$NIST SOURCE=MSDC
##XUNITS=M/Z
##YUNITS=RELATIVE INTENSITY
##XFACTOR=1
##YFACTOR=1
##FIRSTX=14
##LASTX=140
##FIRSTY=68
##MAXX=140
##MINX=14
##MAXY=9999
##MINY=18
##NPOINTS=58
##PEAK TABLE=(XY..XY)
14,68 15,417 16,34 18,59
19,246 27,4029 28,845 29,4564
30,34 31,4665 32,51 37,25
39,2916 41,9866 42,2924 43,9999
44,578 45,488 46,94 50,43
51,172 52,92 53,746 54,25
55,8853 56,8364 57,6208 58,285
59,23 65,118 67,623 68,528
69,5556 70,6059 71,2505 72,141
73,72 77,84 79,75 81,375
82,411 83,1931 84,1905 85,420
86,34 87,39 91,18 95,85
96,514 97,1598 98,273 99,21
111,594 112,1135 113,109 125,230
126,26 140,33
##END=
