##TITLE=1,2-Bis(2-cyano-2-propyl)-hydrazine
##JCAMP-DX=4.24
##DATA TYPE=MASS SPECTRUM
##ORIGIN=A.Pleshkova, Nesmeyanov Inst.Org.Elem.Cpds, Moscow
##OWNER=NIST Mass Spectrometry Data Center
Collection (C) 2014 copyright by the U.S. Secretary of Commerce
on behalf of the United States of America. All rights reserved.
##CAS REGISTRY NO=6869-07-4
##$NIST MASS SPEC NO=284246
##MOLFORM=C8 H14 N4
##MW=166
##$NIST SOURCE=MSDC
##XUNITS=M/Z
##YUNITS=RELATIVE INTENSITY
##XFACTOR=1
##YFACTOR=1
##FIRSTX=41
##LASTX=168
##FIRSTY=220
##MAXX=168
##MINX=41
##MAXY=9999
##MINY=50
##NPOINTS=22
##PEAK TABLE=(XY..XY)
41,220 42,1011 43,3323 44,190
53,611 54,190 55,2232 56,240
68,9999 69,5145 70,2642 71,240
96,520 97,831 111,631 123,851
124,210 138,621 139,350 166,651
167,240 168,50
##END=
