##TITLE=Propanoic acid, 2-hydroxy-, ethyl ester, (L)-
##JCAMP-DX=4.24
##DATA TYPE=MASS SPECTRUM
##ORIGIN=NIST Mass Spectrometry Data Center
##OWNER=NIST Mass Spectrometry Data Center
Collection (C) 2014 copyright by the U.S. Secretary of Commerce
on behalf of the United States of America. All rights reserved.
##CAS REGISTRY NO=687-47-8
##$NIST MASS SPEC NO=342690
##MOLFORM=C5 H10 O3
##MW=118
##$NIST SOURCE=MSDC
##XUNITS=M/Z
##YUNITS=RELATIVE INTENSITY
##XFACTOR=1
##YFACTOR=1
##FIRSTX=13
##LASTX=103
##FIRSTY=20
##MAXX=103
##MINX=13
##MAXY=9999
##MINY=10
##NPOINTS=31
##PEAK TABLE=(XY..XY)
13,20 14,130 15,500 16,30
19,571 25,30 26,340 27,1501
28,390 29,2432 30,240 31,50
41,10 42,190 43,1001 45,9999
46,250 47,190 53,10 55,60
56,90 57,10 58,40 71,10
72,10 73,10 75,721 76,20
89,20 90,10 103,50
##END=
