##TITLE=1,6-Heptadiene, 3,3-dimethyl-
##JCAMP-DX=4.24
##DATA TYPE=MASS SPECTRUM
##ORIGIN=D.HENNEBERG, MAX-PLANCK INSTITUTE, MULHEIM, WEST GERMANY
##OWNER=NIST Mass Spectrometry Data Center
Collection (C) 2014 copyright by the U.S. Secretary of Commerce
on behalf of the United States of America. All rights reserved.
##CAS REGISTRY NO=68701-61-1
##$NIST MASS SPEC NO=61689
##MOLFORM=C9 H16
##MW=124
##$NIST SOURCE=MSDC
##XUNITS=M/Z
##YUNITS=RELATIVE INTENSITY
##XFACTOR=1
##YFACTOR=1
##FIRSTX=24
##LASTX=110
##FIRSTY=29
##MAXX=110
##MINX=24
##MAXY=9999
##MINY=29
##NPOINTS=43
##PEAK TABLE=(XY..XY)
24,29 25,41 26,145 27,2540
29,1606 35,41 37,153 38,119
39,2627 40,403 41,9999 42,707
43,884 50,114 51,340 52,170
53,1140 54,588 55,6820 56,597
57,252 63,60 65,230 66,230
67,2763 68,984 69,5892 70,2617
71,140 77,179 78,53 79,272
80,233 81,2355 82,1762 83,729
84,29 91,82 95,624 96,262
97,51 109,670 110,48
##END=
