##TITLE=(2,4-Dichlorophenoxy)acetic acid, pentafluorobenzyl ester
##JCAMP-DX=4.24
##DATA TYPE=MASS SPECTRUM
##ORIGIN=V.Lopez-Avila ET AL.J.Agr.Food Chem.,34,530(1986)
##OWNER=NIST Mass Spectrometry Data Center
Collection (C) 2014 copyright by the U.S. Secretary of Commerce
on behalf of the United States of America. All rights reserved.
##CAS REGISTRY NO=68704-50-7
##$NIST MASS SPEC NO=281667
##MOLFORM=C15 H7 Cl2 F5 O3
##MW=400
##$NIST SOURCE=MSDC
##XUNITS=M/Z
##YUNITS=RELATIVE INTENSITY
##XFACTOR=1
##YFACTOR=1
##FIRSTX=50
##LASTX=402
##FIRSTY=310
##MAXX=402
##MINX=50
##MAXY=9999
##MINY=30
##NPOINTS=73
##PEAK TABLE=(XY..XY)
50,310 51,310 61,150 62,280
63,621 65,60 69,190 72,90
73,430 74,460 75,901 76,90
77,90 81,280 83,120 84,60
85,220 86,60 87,120 93,190
94,30 96,60 97,120 98,120
99,150 100,30 109,1271 110,280
111,2262 112,530 113,500 117,90
119,120 126,90 128,90 130,90
131,250 133,681 135,400 137,150
139,30 140,60 141,60 144,120
145,2292 146,150 147,2142 148,90
149,591 150,150 156,120 161,1241
162,400 163,430 164,120 167,150
168,90 175,5885 177,3683 179,621
180,30 181,9999 182,1051 184,120
188,30 191,250 192,90 193,30
194,370 196,120 197,30 400,961
402,621
##END=
