##TITLE=Tripropyl borate
##JCAMP-DX=4.24
##DATA TYPE=MASS SPECTRUM
##ORIGIN=P.J.FALLON UNIV. OF NEWCASTLE UPON TYNE, UK
##OWNER=NIST Mass Spectrometry Data Center
Collection (C) 2014 copyright by the U.S. Secretary of Commerce
on behalf of the United States of America. All rights reserved.
##CAS REGISTRY NO=688-71-1
##$NIST MASS SPEC NO=8102
##MOLFORM=C9 H21 B O3
##MW=188
##$NIST SOURCE=MSDC
##XUNITS=M/Z
##YUNITS=RELATIVE INTENSITY
##XFACTOR=1
##YFACTOR=1
##FIRSTX=27
##LASTX=188
##FIRSTY=1800
##MAXX=188
##MINX=27
##MAXY=9999
##MINY=300
##NPOINTS=27
##PEAK TABLE=(XY..XY)
27,1800 28,600 29,700 31,1500
39,800 41,3100 42,1100 43,9999
44,1300 45,4900 55,500 56,600
57,700 58,800 59,1200 87,8400
101,1000 103,2300 104,300 117,5100
129,2700 145,1300 146,600 159,3800
173,1400 187,600 188,1100
##END=
