##TITLE=2-Ethylhexyl methacrylate
##JCAMP-DX=4.24
##DATA TYPE=MASS SPECTRUM
##ORIGIN=Japan AIST/NIMC Database- Spectrum MS-NW-3424
##OWNER=NIST Mass Spectrometry Data Center
Collection (C) 2014 copyright by the U.S. Secretary of Commerce
on behalf of the United States of America. All rights reserved.
##CAS REGISTRY NO=688-84-6
##$NIST MASS SPEC NO=232033
##MOLFORM=C12 H22 O2
##MW=198
##$NIST SOURCE=MSDC
##XUNITS=M/Z
##YUNITS=RELATIVE INTENSITY
##XFACTOR=1
##YFACTOR=1
##FIRSTX=14
##LASTX=170
##FIRSTY=10
##MAXX=170
##MINX=14
##MAXY=9999
##MINY=10
##NPOINTS=84
##PEAK TABLE=(XY..XY)
14,10 15,80 17,10 18,30
26,70 27,1019 28,199 29,1429
30,40 31,90 32,50 37,40
38,109 39,1859 40,489 41,7029
42,1079 43,1889 44,70 45,50
50,30 51,50 52,30 53,239
54,249 55,3419 56,2189 57,3179
58,159 59,119 60,10 63,10
65,30 66,20 67,189 68,229
69,9369 70,9999 71,1369 72,90
73,30 74,30 77,20 79,30
81,80 82,329 83,2399 84,1109
85,179 86,259 87,1309 88,99
89,10 95,50 96,40 97,289
98,129 99,529 100,319 101,109
109,20 110,50 111,139 112,3179
113,289 114,20 123,20 124,30
125,70 126,30 127,10 128,20
129,30 137,10 138,10 139,40
140,30 141,40 142,10 151,30
155,10 156,10 169,40 170,10
##END=
