##TITLE=tri-n-Butyltin hydride
##JCAMP-DX=4.24
##DATA TYPE=MASS SPECTRUM
##ORIGIN=Japan AIST/NIMC Database- Spectrum MS-NW-9644
##OWNER=NIST Mass Spectrometry Data Center
Collection (C) 2014 copyright by the U.S. Secretary of Commerce
on behalf of the United States of America. All rights reserved.
##CAS REGISTRY NO=688-73-3
##$NIST MASS SPEC NO=239133
##MOLFORM=C12 H28 Sn
##MW=292
##$NIST SOURCE=MSDC
##XUNITS=M/Z
##YUNITS=RELATIVE INTENSITY
##XFACTOR=1
##YFACTOR=1
##FIRSTX=26
##LASTX=297
##FIRSTY=40
##MAXX=297
##MINX=26
##MAXY=9999
##MINY=10
##NPOINTS=161
##PEAK TABLE=(XY..XY)
26,40 27,209 28,229 29,529
30,10 31,20 38,10 39,169
40,30 41,729 42,60 43,189
44,10 50,10 51,10 53,30
54,10 55,179 56,239 57,489
58,40 59,20 69,10 70,10
71,30 73,20 75,10 85,10
89,60 90,10 91,10 105,50
112,20 113,50 114,10 115,80
116,379 117,999 118,1029 119,2019
120,1519 121,2599 122,419 123,1399
124,139 125,479 127,209 130,10
131,80 132,70 133,149 134,90
135,199 136,20 137,40 139,30
141,10 143,30 144,20 145,129
146,70 147,209 148,70 149,239
150,10 151,80 152,10 153,70
154,10 155,50 157,20 159,10
163,10 165,20 169,60 170,10
171,359 172,99 173,1119 174,809
175,5879 176,3309 177,9309 178,3159
179,9999 180,509 181,1709 182,119
183,1699 184,90 193,20 194,10
195,40 196,10 197,80 198,30
199,119 200,10 201,70 203,20
205,10 207,20 209,70 210,30
211,109 212,40 213,109 214,10
215,40 217,10 223,20 225,50
226,30 227,109 228,20 229,80
230,349 231,1759 232,1469 233,2889
234,1859 235,3599 236,409 237,519
238,169 239,669 240,70 241,10
251,10 253,80 254,40 255,179
256,70 257,209 258,40 259,129
261,40 263,20 265,80 266,50
267,159 268,70 269,269 270,40
271,99 272,10 273,40 275,10
283,30 284,20 285,40 286,10
287,99 288,60 289,159 290,70
291,199 292,20 293,30 295,30
297,10
##END=
