##TITLE=N-(4-Chlorophenyl)-1,2-phenylenediamine
##JCAMP-DX=4.24
##DATA TYPE=MASS SPECTRUM
##ORIGIN=Chuck Anderson, Aldrich Chemical Co.
##OWNER=NIST Mass Spectrometry Data Center
Collection (C) 2014 copyright by the U.S. Secretary of Commerce
on behalf of the United States of America. All rights reserved.
##CAS REGISTRY NO=68817-71-0
##$NIST MASS SPEC NO=107984
##MOLFORM=C12 H11 Cl N2
##MW=218
##$NIST SOURCE=MSDC
##XUNITS=M/Z
##YUNITS=RELATIVE INTENSITY
##XFACTOR=1
##YFACTOR=1
##FIRSTX=18
##LASTX=221
##FIRSTY=44
##MAXX=221
##MINX=18
##MAXY=9999
##MINY=39
##NPOINTS=88
##PEAK TABLE=(XY..XY)
18,44 27,330 28,563 38,226
39,862 41,187 50,514 51,783
52,862 53,968 54,259 61,47
62,217 63,871 64,563 65,1839
66,347 73,200 74,312 75,1276
76,510 77,1293 78,783 79,556
80,2429 81,341 83,89 85,126
89,156 90,534 91,4013 92,871
93,184 99,244 100,182 101,200
102,266 105,398 106,264 107,1188
108,134 109,259 111,503 112,86
113,211 115,39 117,389 118,774
119,277 126,140 127,464 128,345
129,259 130,40 132,140 138,158
139,228 140,255 143,41 151,147
152,55 153,178 154,695 155,294
156,250 158,41 164,158 166,616
167,532 168,411 179,200 180,167
181,2605 182,5985 183,5985 184,712
190,86 203,2288 204,275 205,712
214,117 215,303 216,224 217,2006
218,9999 219,1971 220,3379 221,404
##END=
