##TITLE=Sophoramine
##JCAMP-DX=4.24
##DATA TYPE=MASS SPECTRUM
##ORIGIN=V.G.Zaikin, TIPS, Russian Acad. Sci.
##OWNER=NIST Mass Spectrometry Data Center
Collection (C) 2014 copyright by the U.S. Secretary of Commerce
on behalf of the United States of America. All rights reserved.
##CAS REGISTRY NO=6882-66-2
##$NIST MASS SPEC NO=215535
##MOLFORM=C15 H20 N2 O
##MW=244
##$NIST SOURCE=MSDC
##XUNITS=M/Z
##YUNITS=RELATIVE INTENSITY
##XFACTOR=1
##YFACTOR=1
##FIRSTX=53
##LASTX=247
##FIRSTY=110
##MAXX=247
##MINX=53
##MAXY=9999
##MINY=10
##NPOINTS=114
##PEAK TABLE=(XY..XY)
53,110 54,210 55,310 56,150
57,250 65,160 66,100 67,410
68,480 69,400 70,250 71,180
77,330 78,180 79,400 80,510
81,480 82,280 83,410 84,180
85,110 91,330 92,100 93,350
94,510 95,650 96,1321 97,310
103,110 104,280 105,260 106,460
107,380 108,680 109,1321 110,910
111,200 112,150 113,60 115,80
116,130 117,810 118,500 119,200
120,600 121,460 122,1121 123,560
124,100 125,60 128,100 129,110
130,810 131,550 132,560 133,550
134,1351 135,660 136,6976 137,700
138,100 143,150 144,350 145,360
146,1471 147,800 148,2071 149,2692
150,810 151,100 153,60 154,50
155,110 156,110 158,310 159,910
160,1271 161,110 163,50 170,50
171,60 172,880 173,530 174,230
175,210 176,60 182,110 183,100
184,110 185,260 186,430 187,330
188,360 189,510 201,800 202,430
203,700 204,80 213,80 214,160
215,1831 216,560 217,110 226,160
228,100 229,560 230,110 240,110
242,110 243,7046 244,9999 245,1611
246,130 247,10
##END=
