##TITLE=Isopropyl acrylate
##JCAMP-DX=4.24
##DATA TYPE=MASS SPECTRUM
##ORIGIN=NIST Mass Spectrometry Data Center, 1994
##OWNER=NIST Mass Spectrometry Data Center
Collection (C) 2014 copyright by the U.S. Secretary of Commerce
on behalf of the United States of America. All rights reserved.
##CAS REGISTRY NO=689-12-3
##$NIST MASS SPEC NO=133594
##MOLFORM=C6 H10 O2
##MW=114
##$NIST SOURCE=MSDC
##XUNITS=M/Z
##YUNITS=RELATIVE INTENSITY
##XFACTOR=1
##YFACTOR=1
##FIRSTX=15
##LASTX=114
##FIRSTY=424
##MAXX=114
##MINX=15
##MAXY=9999
##MINY=16
##NPOINTS=38
##PEAK TABLE=(XY..XY)
15,424 25,68 26,673 27,2793
28,273 29,324 31,151 32,18
37,51 38,140 39,851 40,193
41,1685 42,843 43,2934 44,150
45,222 53,117 55,9999 56,875
57,30 58,30 59,1554 60,63
68,103 69,240 70,46 71,50
72,30 73,3526 74,132 75,18
81,31 96,69 99,1294 100,69
113,17 114,16
##END=
