##TITLE=2,3,4-Trimethoxyphenylacetonitrile
##JCAMP-DX=4.24
##DATA TYPE=MASS SPECTRUM
##ORIGIN=NIST Mass Spectrometry Data Center, 1994
##OWNER=NIST Mass Spectrometry Data Center
Collection (C) 2014 copyright by the U.S. Secretary of Commerce
on behalf of the United States of America. All rights reserved.
##CAS REGISTRY NO=68913-85-9
##$NIST MASS SPEC NO=134666
##MOLFORM=C11 H13 N O3
##MW=207
##$NIST SOURCE=MSDC
##XUNITS=M/Z
##YUNITS=RELATIVE INTENSITY
##XFACTOR=1
##YFACTOR=1
##FIRSTX=14
##LASTX=209
##FIRSTY=92
##MAXX=209
##MINX=14
##MAXY=9999
##MINY=32
##NPOINTS=110
##PEAK TABLE=(XY..XY)
14,92 15,871 26,80 27,196
28,353 29,186 31,70 32,93
37,114 38,240 39,450 40,73
41,113 42,64 43,86 45,81
46,42 49,52 50,457 51,1063
52,447 53,535 54,74 55,70
56,41 59,56 61,106 62,189
63,657 64,425 65,267 66,236
67,111 68,42 69,50 73,32
74,90 75,190 76,425 77,825
78,1723 79,535 80,235 81,93
88,99 89,328 90,471 91,302
92,207 93,133 94,219 95,268
96,113 102,70 103,202 104,259
105,222 106,416 107,218 108,79
109,201 115,58 116,123 117,79
118,83 119,173 120,345 121,355
122,155 123,483 124,790 125,66
130,103 131,193 132,546 133,225
134,1234 135,214 136,109 137,337
138,69 145,41 146,284 147,123
148,41 149,2477 150,355 151,171
152,730 153,65 159,49 160,74
161,83 162,84 163,49 164,2083
165,1601 166,303 167,147 174,40
176,923 177,470 178,81 190,76
192,6534 193,765 194,82 207,9999
208,1303 209,142
##END=
