##TITLE=2-Pentene, 4,4-dimethyl-, (E)-
##JCAMP-DX=4.24
##DATA TYPE=MASS SPECTRUM
##OWNER=NIST Mass Spectrometry Data Center
Collection (C) 2014 copyright by the U.S. Secretary of Commerce
on behalf of the United States of America. All rights reserved.
##CAS REGISTRY NO=690-08-4
##$NIST MASS SPEC NO=908
##MOLFORM=C7 H14
##MW=98
##$NIST SOURCE=MSDC
##XUNITS=M/Z
##YUNITS=RELATIVE INTENSITY
##XFACTOR=1
##YFACTOR=1
##FIRSTX=1
##LASTX=100
##FIRSTY=60
##MAXX=100
##MINX=1
##MAXY=9999
##MINY=10
##NPOINTS=70
##PEAK TABLE=(XY..XY)
1,60 2,30 12,10 13,20
14,80 15,941 16,50 25,10
26,190 27,2262 28,320 29,1581
30,30 31,10 32,10 33,10
37,120 38,260 39,2973 40,480
41,5575 42,380 43,1661 44,60
45,10 46,10 47,10 49,20
50,180 51,340 52,130 53,681
54,160 55,8518 56,801 57,460
58,20 60,10 61,20 62,40
63,100 64,20 65,180 66,90
67,611 68,110 69,671 70,240
71,20 73,10 74,20 75,10
76,10 77,80 78,20 79,80
80,10 81,130 82,140 83,9999
84,651 85,20 91,10 93,10
95,10 96,10 97,10 98,2722
99,200 100,10
##END=
