##TITLE=Propane, 1,1,1,3,3,3-hexafluoro-
##JCAMP-DX=4.24
##DATA TYPE=MASS SPECTRUM
##OWNER=NIST Mass Spectrometry Data Center
Collection (C) 2014 copyright by the U.S. Secretary of Commerce
on behalf of the United States of America. All rights reserved.
##CAS REGISTRY NO=690-39-1
##$NIST MASS SPEC NO=4947
##MOLFORM=C3 H2 F6
##MW=152
##$NIST SOURCE=MSDC
##XUNITS=M/Z
##YUNITS=RELATIVE INTENSITY
##XFACTOR=1
##YFACTOR=1
##FIRSTX=2
##LASTX=134
##FIRSTY=10
##MAXX=134
##MINX=2
##MAXY=9999
##MINY=10
##NPOINTS=46
##PEAK TABLE=(XY..XY)
2,10 12,90 13,50 14,100
19,40 20,10 24,20 25,50
26,90 31,1031 32,80 33,601
34,10 36,10 37,20 38,10
43,40 44,290 45,761 46,20
50,180 51,270 52,10 55,20
56,10 57,170 62,30 63,180
64,3373 65,90 69,9999 70,110
81,20 82,180 83,140 93,110
94,10 100,20 101,10 112,20
113,641 114,20 131,70 132,100
133,2973 134,100
##END=
