##TITLE=1-Propene, 1,1,3,3,3-pentafluoro-
##JCAMP-DX=4.24
##DATA TYPE=MASS SPECTRUM
##ORIGIN=THE M.W. KELLOGG CO., JERSEY CITY, N.J., USA
##OWNER=NIST Mass Spectrometry Data Center
Collection (C) 2014 copyright by the U.S. Secretary of Commerce
on behalf of the United States of America. All rights reserved.
##CAS REGISTRY NO=690-27-7
##$NIST MASS SPEC NO=25892
##MOLFORM=C3 H F5
##MW=132
##$NIST SOURCE=MSDC
##XUNITS=M/Z
##YUNITS=RELATIVE INTENSITY
##XFACTOR=1
##YFACTOR=1
##FIRSTX=19
##LASTX=133
##FIRSTY=204
##MAXX=133
##MINX=19
##MAXY=9999
##MINY=8
##NPOINTS=35
##PEAK TABLE=(XY..XY)
19,204 20,21 24,202 25,273
26,8 31,4240 32,413 36,67
37,179 43,263 44,1228 45,35
47,287 50,617 51,1037 52,12
55,175 56,81 62,122 63,1305
69,8610 70,93 74,228 75,232
81,79 82,2924 83,63 93,1111
94,80 112,158 113,9999 114,321
131,28 132,4180 133,130
##END=
