##TITLE=Isopropyl methyl methylphosphonate
##JCAMP-DX=4.24
##DATA TYPE=MASS SPECTRUM
##ORIGIN=VERIFIN - Methodology B2-1980
##OWNER=NIST Mass Spectrometry Data Center
Collection (C) 2014 copyright by the U.S. Secretary of Commerce
on behalf of the United States of America. All rights reserved.
##CAS REGISTRY NO=690-64-2
##$NIST MASS SPEC NO=226176
##MOLFORM=C5 H13 O3 P
##MW=152
##$NIST SOURCE=MSDC
##XUNITS=M/Z
##YUNITS=RELATIVE INTENSITY
##XFACTOR=1
##YFACTOR=1
##FIRSTX=27
##LASTX=151
##FIRSTY=500
##MAXX=151
##MINX=27
##MAXY=9999
##MINY=70
##NPOINTS=23
##PEAK TABLE=(XY..XY)
27,500 28,100 29,100 32,100
33,80 39,600 41,800 42,300
43,1000 47,800 48,90 63,800
65,400 79,1601 80,900 93,9408
94,800 95,600 110,200 111,9999
112,100 137,4403 151,70
##END=
