##TITLE=Furo[2,3-c]pyridine, 2-methyl-
##JCAMP-DX=4.24
##DATA TYPE=MASS SPECTRUM
##ORIGIN=HCACAV,61(7)2542(1978); H. SCHMID ET AL
##OWNER=NIST Mass Spectrometry Data Center
Collection (C) 2014 copyright by the U.S. Secretary of Commerce
on behalf of the United States of America. All rights reserved.
##CAS REGISTRY NO=69022-76-0
##$NIST MASS SPEC NO=65510
##MOLFORM=C8 H7 N O
##MW=133
##$NIST SOURCE=MSDC
##XUNITS=M/Z
##YUNITS=RELATIVE INTENSITY
##XFACTOR=1
##YFACTOR=1
##FIRSTX=38
##LASTX=134
##FIRSTY=900
##MAXX=134
##MINX=38
##MAXY=9999
##MINY=900
##NPOINTS=14
##PEAK TABLE=(XY..XY)
38,900 39,1100 43,900 50,1800
51,2200 52,1900 63,1100 77,1700
78,3900 79,1100 104,3000 132,5600
133,9999 134,1100
##END=
