##TITLE=3-Trifluoromethylcrotonic acid
##JCAMP-DX=4.24
##DATA TYPE=MASS SPECTRUM
##ORIGIN=NIST Mass Spectrometry Data Center
##OWNER=NIST Mass Spectrometry Data Center
Collection (C) 2014 copyright by the U.S. Secretary of Commerce
on behalf of the United States of America. All rights reserved.
##CAS REGISTRY NO=69056-67-3
##$NIST MASS SPEC NO=343555
##MOLFORM=C5 H5 F3 O2
##MW=154
##$NIST SOURCE=MSDC
##XUNITS=M/Z
##YUNITS=RELATIVE INTENSITY
##XFACTOR=1
##YFACTOR=1
##FIRSTX=12
##LASTX=154
##FIRSTY=50
##MAXX=154
##MINX=12
##MAXY=9999
##MINY=20
##NPOINTS=69
##PEAK TABLE=(XY..XY)
12,50 13,20 15,170 18,50
25,20 26,190 27,370 29,1011
31,911 33,300 35,20 36,100
37,781 38,1672 39,7136 40,841
41,1321 42,490 43,731 44,130
45,2482 46,30 49,110 50,350
51,661 53,120 55,230 56,280
57,1021 58,1972 59,1682 60,160
63,20 64,1061 65,110 66,591
67,2222 68,270 69,1672 70,130
71,20 73,20 74,20 75,901
76,190 77,470 83,50 84,140
86,9999 87,951 88,480 89,2752
90,300 91,100 93,20 95,50
105,300 107,991 108,40 109,300
114,2712 115,250 117,90 134,6916
135,1391 136,390 137,2652 138,150
154,741
##END=
