##TITLE=1,2,3,4,4a,9b-Hexahydrodibenzothiophene
##JCAMP-DX=4.24
##DATA TYPE=MASS SPECTRUM
##ORIGIN=Organic Synthesis Lab, MSU, Moscow.TRC 330
##OWNER=NIST Mass Spectrometry Data Center
Collection (C) 2014 copyright by the U.S. Secretary of Commerce
on behalf of the United States of America. All rights reserved.
##CAS REGISTRY NO=69076-07-9
##$NIST MASS SPEC NO=326052
##MOLFORM=C12 H14 S
##MW=190
##$NIST SOURCE=MSDC
##XUNITS=M/Z
##YUNITS=RELATIVE INTENSITY
##XFACTOR=1
##YFACTOR=1
##FIRSTX=51
##LASTX=192
##FIRSTY=530
##MAXX=192
##MINX=51
##MAXY=9999
##MINY=530
##NPOINTS=23
##PEAK TABLE=(XY..XY)
51,530 53,821 65,1251 66,571
69,571 77,2542 78,711 79,6336
80,9999 81,6836 82,711 91,1211
109,1892 110,7377 111,1141 112,571
123,601 135,4044 136,5045 137,681
190,6516 191,961 192,641
##END=
