##TITLE=2-Pentene, 4-methyl-, (Z)-
##JCAMP-DX=4.24
##DATA TYPE=MASS SPECTRUM
##ORIGIN=NIST Mass Spectrometry Data Center, 1990.
##OWNER=NIST Mass Spectrometry Data Center
Collection (C) 2014 copyright by the U.S. Secretary of Commerce
on behalf of the United States of America. All rights reserved.
##CAS REGISTRY NO=691-38-3
##$NIST MASS SPEC NO=114454
##MOLFORM=C6 H12
##MW=84
##$NIST SOURCE=MSDC
##XUNITS=M/Z
##YUNITS=RELATIVE INTENSITY
##XFACTOR=1
##YFACTOR=1
##FIRSTX=15
##LASTX=85
##FIRSTY=585
##MAXX=85
##MINX=15
##MAXY=9999
##MINY=27
##NPOINTS=34
##PEAK TABLE=(XY..XY)
15,585 18,37 26,226 27,1834
28,100 29,611 37,153 38,472
39,3337 40,100 41,9999 42,823
43,580 44,29 49,37 50,267
51,400 52,153 53,876 54,211
55,1001 56,700 57,40 61,43
62,89 63,141 65,243 67,839
69,8875 70,474 77,36 79,27
84,2601 85,188
##END=
