##TITLE=3-Iodobenzonitrile
##JCAMP-DX=4.24
##DATA TYPE=MASS SPECTRUM
##ORIGIN=NIST Mass Spectrometry Data Center, 1994
##OWNER=NIST Mass Spectrometry Data Center
Collection (C) 2014 copyright by the U.S. Secretary of Commerce
on behalf of the United States of America. All rights reserved.
##CAS REGISTRY NO=69113-59-3
##$NIST MASS SPEC NO=135013
##MOLFORM=C7 H4 I N
##MW=229
##$NIST SOURCE=MSDC
##XUNITS=M/Z
##YUNITS=RELATIVE INTENSITY
##XFACTOR=1
##YFACTOR=1
##FIRSTX=4
##LASTX=231
##FIRSTY=31
##MAXX=231
##MINX=4
##MAXY=9999
##MINY=6
##NPOINTS=49
##PEAK TABLE=(XY..XY)
4,31 14,21 18,34 25,42
26,102 27,294 28,149 32,6
36,81 37,482 38,496 39,236
40,15 48,72 49,490 50,2106
51,1637 52,339 60,66 61,203
62,261 63,187 64,102 72,60
73,328 74,986 75,3086 76,1446
77,69 84,28 85,48 86,57
87,43 98,41 99,336 100,194
101,28 102,9999 103,788 104,28
114,309 127,1219 128,80 152,54
164,22 176,25 229,9973 230,771
231,34
##END=
