##TITLE=3-Heptene, 2-methyl-, (E)-
##JCAMP-DX=4.24
##DATA TYPE=MASS SPECTRUM
##ORIGIN=NIST Mass Spectrometry Data Center, 1990.
##OWNER=NIST Mass Spectrometry Data Center
Collection (C) 2014 copyright by the U.S. Secretary of Commerce
on behalf of the United States of America. All rights reserved.
##CAS REGISTRY NO=692-96-6
##$NIST MASS SPEC NO=113456
##MOLFORM=C8 H16
##MW=112
##$NIST SOURCE=MSDC
##XUNITS=M/Z
##YUNITS=RELATIVE INTENSITY
##XFACTOR=1
##YFACTOR=1
##FIRSTX=15
##LASTX=113
##FIRSTY=179
##MAXX=113
##MINX=15
##MAXY=9999
##MINY=83
##NPOINTS=38
##PEAK TABLE=(XY..XY)
15,179 26,169 27,1460 28,605
29,1131 39,2904 40,686 41,6464
42,721 43,1000 44,135 50,274
51,513 52,282 53,1437 54,135
55,9521 56,4996 57,1077 63,181
65,449 66,237 67,1472 68,1230
69,9999 70,1970 71,117 77,335
78,83 79,323 80,83 81,326
82,106 83,631 84,562 97,924
112,2375 113,229
##END=
