##TITLE=3-Hexene, 2,2,5,5-tetramethyl-, (Z)-
##JCAMP-DX=4.24
##DATA TYPE=MASS SPECTRUM
##OWNER=NIST Mass Spectrometry Data Center
Collection (C) 2014 copyright by the U.S. Secretary of Commerce
on behalf of the United States of America. All rights reserved.
##CAS REGISTRY NO=692-47-7
##$NIST MASS SPEC NO=3652
##MOLFORM=C10 H20
##MW=140
##$NIST SOURCE=MSDC
##XUNITS=M/Z
##YUNITS=RELATIVE INTENSITY
##XFACTOR=1
##YFACTOR=1
##FIRSTX=26
##LASTX=141
##FIRSTY=240
##MAXX=141
##MINX=26
##MAXY=9999
##MINY=10
##NPOINTS=77
##PEAK TABLE=(XY..XY)
26,240 27,4174 28,701 29,4234
30,100 37,60 38,220 39,4354
40,661 41,9999 42,1451 43,2973
44,100 45,50 46,50 49,10
50,220 51,701 52,320 53,1902
54,410 55,7967 56,991 57,7437
58,340 59,10 61,10 62,50
63,160 64,30 65,430 66,150
67,1311 68,220 69,9358 70,9619
71,1231 72,50 73,10 74,20
75,20 76,20 77,561 78,130
79,500 80,100 81,500 82,981
83,8307 84,2682 85,210 86,20
87,10 89,20 90,10 91,280
92,50 93,160 94,70 95,450
96,130 97,2012 98,170 105,20
107,30 108,20 109,170 110,110
111,60 112,10 123,20 124,10
125,1972 126,200 127,40 140,130
141,20
##END=
