##TITLE=3-Hexene, 2,5-dimethyl-, (E)-
##JCAMP-DX=4.24
##DATA TYPE=MASS SPECTRUM
##OWNER=NIST Mass Spectrometry Data Center
Collection (C) 2014 copyright by the U.S. Secretary of Commerce
on behalf of the United States of America. All rights reserved.
##CAS REGISTRY NO=692-70-6
##$NIST MASS SPEC NO=1593
##MOLFORM=C8 H16
##MW=112
##$NIST SOURCE=MSDC
##XUNITS=M/Z
##YUNITS=RELATIVE INTENSITY
##XFACTOR=1
##YFACTOR=1
##FIRSTX=12
##LASTX=114
##FIRSTY=10
##MAXX=114
##MINX=12
##MAXY=9999
##MINY=10
##NPOINTS=78
##PEAK TABLE=(XY..XY)
12,10 13,20 14,80 15,851
16,20 25,10 26,150 27,2432
28,390 29,1201 30,30 31,10
36,10 37,40 38,160 39,2282
40,340 41,6105 42,440 43,1371
44,50 45,20 46,30 47,10
48,10 49,10 50,170 51,370
52,160 53,991 54,200 55,5295
56,4004 57,1371 58,60 59,10
60,10 61,10 62,40 63,110
64,20 65,200 66,100 67,571
68,1041 69,9999 70,1601 71,80
72,10 73,10 74,20 75,10
76,10 77,210 78,50 79,220
80,40 81,360 82,50 83,60
84,20 85,10 86,10 87,10
89,10 91,30 92,10 93,10
94,10 95,60 96,30 97,200
98,20 110,10 111,40 112,1782
113,160 114,10
##END=
