##TITLE=Formic acid, ethenyl ester
##JCAMP-DX=4.24
##DATA TYPE=MASS SPECTRUM
##ORIGIN=Japan AIST/NIMC Database- Spectrum MS-NW-4432
##OWNER=NIST Mass Spectrometry Data Center
Collection (C) 2014 copyright by the U.S. Secretary of Commerce
on behalf of the United States of America. All rights reserved.
##CAS REGISTRY NO=692-45-5
##$NIST MASS SPEC NO=230235
##MOLFORM=C3 H4 O2
##MW=72
##$NIST SOURCE=MSDC
##XUNITS=M/Z
##YUNITS=RELATIVE INTENSITY
##XFACTOR=1
##YFACTOR=1
##FIRSTX=12
##LASTX=74
##FIRSTY=80
##MAXX=74
##MINX=12
##MAXY=9999
##MINY=10
##NPOINTS=30
##PEAK TABLE=(XY..XY)
12,80 13,229 15,2649 17,20
18,70 24,60 25,219 26,1159
27,3149 28,429 29,6929 30,109
31,109 32,10 36,10 39,30
40,40 41,199 42,1179 43,9999
44,8639 45,1539 46,679 47,30
69,20 70,30 71,10 72,979
73,50 74,10
##END=
