##TITLE=10-Dodecyn-1-ol
##JCAMP-DX=4.24
##DATA TYPE=MASS SPECTRUM
##ORIGIN=NIST Mass Spectrometry Data Center, 1994
##OWNER=NIST Mass Spectrometry Data Center
Collection (C) 2014 copyright by the U.S. Secretary of Commerce
on behalf of the United States of America. All rights reserved.
##CAS REGISTRY NO=69221-99-4
##$NIST MASS SPEC NO=136601
##MOLFORM=C12 H22 O
##MW=182
##$NIST SOURCE=MSDC
##XUNITS=M/Z
##YUNITS=RELATIVE INTENSITY
##XFACTOR=1
##YFACTOR=1
##FIRSTX=17
##LASTX=149
##FIRSTY=42
##MAXX=149
##MINX=17
##MAXY=9999
##MINY=7
##NPOINTS=63
##PEAK TABLE=(XY..XY)
17,42 18,81 19,88 26,7
27,3132 29,2271 31,2653 39,3630
40,892 41,9470 42,1272 43,2321
44,237 50,230 51,772 52,658
53,3420 54,3630 55,7463 56,718
57,982 58,135 62,43 63,142
65,947 66,1152 67,9220 68,9999
69,2994 70,516 71,841 72,101
77,955 79,3781 80,1455 81,4864
82,1644 83,509 84,296 85,319
86,40 91,748 93,2559 94,976
95,4376 96,1112 97,469 98,323
99,71 105,128 107,841 108,382
109,1053 110,263 111,245 112,102
121,545 122,243 123,137 125,86
135,441 136,180 149,48
##END=
