##TITLE=Isothiazole, 3-methyl-
##JCAMP-DX=4.24
##DATA TYPE=MASS SPECTRUM
##ORIGIN=DK268-13-2A
##OWNER=NIST Mass Spectrometry Data Center
Collection (C) 2014 copyright by the U.S. Secretary of Commerce
on behalf of the United States of America. All rights reserved.
##CAS REGISTRY NO=693-92-5
##$NIST MASS SPEC NO=33876
##MOLFORM=C4 H5 N S
##MW=99
##$NIST SOURCE=MSDC
##XUNITS=M/Z
##YUNITS=RELATIVE INTENSITY
##XFACTOR=1
##YFACTOR=1
##FIRSTX=39
##LASTX=101
##FIRSTY=600
##MAXX=101
##MINX=39
##MAXY=9999
##MINY=200
##NPOINTS=19
##PEAK TABLE=(XY..XY)
39,600 41,390 42,460 45,800
46,300 53,400 54,500 57,1200
58,2800 59,900 60,240 71,1100
72,3400 73,1200 74,200 98,1200
99,9999 100,460 101,340
##END=
