##TITLE=Undecane, 1-bromo-
##JCAMP-DX=4.24
##DATA TYPE=MASS SPECTRUM
##ORIGIN=Japan AIST/NIMC Database- Spectrum MS-NW-3825
##OWNER=NIST Mass Spectrometry Data Center
Collection (C) 2014 copyright by the U.S. Secretary of Commerce
on behalf of the United States of America. All rights reserved.
##CAS REGISTRY NO=693-67-4
##$NIST MASS SPEC NO=232530
##MOLFORM=C11 H23 Br
##MW=234
##$NIST SOURCE=MSDC
##XUNITS=M/Z
##YUNITS=RELATIVE INTENSITY
##XFACTOR=1
##YFACTOR=1
##FIRSTX=14
##LASTX=236
##FIRSTY=10
##MAXX=236
##MINX=14
##MAXY=9999
##MINY=10
##NPOINTS=100
##PEAK TABLE=(XY..XY)
14,10 15,50 26,80 27,1769
28,99 29,2759 30,50 38,30
39,1029 40,219 41,5389 42,1479
43,9999 44,359 45,10 50,30
51,60 52,40 53,339 54,289
55,5519 56,1689 57,9359 58,449
59,10 63,20 65,50 66,30
67,249 68,229 69,3849 70,1049
71,3999 72,249 73,10 74,40
75,10 77,40 79,30 80,40
81,109 82,119 83,1459 84,449
85,2629 86,179 87,40 91,219
92,20 93,70 95,40 96,40
97,629 98,179 99,629 100,60
101,10 105,99 106,10 107,189
108,10 109,199 110,20 111,179
112,80 113,289 114,30 119,10
120,10 121,129 122,20 123,119
125,40 126,40 127,10 129,10
134,20 135,5909 136,299 137,5709
138,269 143,20 148,40 149,1009
150,99 151,999 152,60 153,10
154,10 155,40 162,10 163,119
164,10 165,99 166,10 169,20
177,10 179,10 234,30 236,20
##END=
