##TITLE=2-Octanamine
##JCAMP-DX=4.24
##DATA TYPE=MASS SPECTRUM
##ORIGIN=V.G.Zaikin, TIPS, Russian Acad. Sci., Moscow
##OWNER=NIST Mass Spectrometry Data Center
Collection (C) 2014 copyright by the U.S. Secretary of Commerce
on behalf of the United States of America. All rights reserved.
##CAS REGISTRY NO=693-16-3
##$NIST MASS SPEC NO=216655
##MOLFORM=C8 H19 N
##MW=129
##$NIST SOURCE=MSDC
##XUNITS=M/Z
##YUNITS=RELATIVE INTENSITY
##XFACTOR=1
##YFACTOR=1
##FIRSTX=29
##LASTX=129
##FIRSTY=410
##MAXX=129
##MINX=29
##MAXY=9999
##MINY=10
##NPOINTS=22
##PEAK TABLE=(XY..XY)
29,410 30,470 39,270 41,650
42,500 43,480 44,9999 45,280
55,270 56,250 57,140 65,10
67,20 69,40 70,80 71,20
72,210 84,10 114,250 115,30
128,40 129,10
##END=
