##TITLE=Isothiazole, 5-methyl-
##JCAMP-DX=4.24
##DATA TYPE=MASS SPECTRUM
##ORIGIN=B.J.MILLARD, SCHOOL OF PHARMACY, UNIV. OF LONDON, LONDON, UK
##OWNER=NIST Mass Spectrometry Data Center
Collection (C) 2014 copyright by the U.S. Secretary of Commerce
on behalf of the United States of America. All rights reserved.
##CAS REGISTRY NO=693-97-0
##$NIST MASS SPEC NO=1035
##MOLFORM=C4 H5 N S
##MW=99
##$NIST SOURCE=MSDC
##XUNITS=M/Z
##YUNITS=RELATIVE INTENSITY
##XFACTOR=1
##YFACTOR=1
##FIRSTX=45
##LASTX=99
##FIRSTY=2200
##MAXX=99
##MINX=45
##MAXY=9999
##MINY=900
##NPOINTS=11
##PEAK TABLE=(XY..XY)
45,2200 53,1700 57,1100 58,900
59,2200 60,900 69,900 71,5600
72,4200 98,2600 99,9999
##END=
