##TITLE=Ethanol, 2,2'-oxybis-, dinitrate
##JCAMP-DX=4.24
##DATA TYPE=MASS SPECTRUM
##ORIGIN=MINISTRY OF TECH. E.R.D.E., WALTHAM ABBEY, UK
##OWNER=NIST Mass Spectrometry Data Center
Collection (C) 2014 copyright by the U.S. Secretary of Commerce
on behalf of the United States of America. All rights reserved.
##CAS REGISTRY NO=693-21-0
##$NIST MASS SPEC NO=8738
##MOLFORM=C4 H8 N2 O7
##MW=196
##$NIST SOURCE=MSDC
##XUNITS=M/Z
##YUNITS=RELATIVE INTENSITY
##XFACTOR=1
##YFACTOR=1
##FIRSTX=15
##LASTX=134
##FIRSTY=520
##MAXX=134
##MINX=15
##MAXY=9999
##MINY=10
##NPOINTS=33
##PEAK TABLE=(XY..XY)
15,520 26,110 27,200 28,390
29,1110 30,1320 31,310 39,70
40,20 41,80 42,110 43,720
44,890 45,1110 46,9999 47,50
55,30 57,110 58,60 60,40
61,10 69,50 71,80 72,20
73,3770 74,180 76,320 77,10
90,280 105,20 119,10 120,20
134,20
##END=
