##TITLE=3-(Butylamino)propionitrile
##JCAMP-DX=4.24
##DATA TYPE=MASS SPECTRUM
##ORIGIN=NIST Mass Spectrometry Data Center, 1994
##OWNER=NIST Mass Spectrometry Data Center
Collection (C) 2014 copyright by the U.S. Secretary of Commerce
on behalf of the United States of America. All rights reserved.
##CAS REGISTRY NO=693-51-6
##$NIST MASS SPEC NO=134708
##MOLFORM=C7 H14 N2
##MW=126
##$NIST SOURCE=MSDC
##XUNITS=M/Z
##YUNITS=RELATIVE INTENSITY
##XFACTOR=1
##YFACTOR=1
##FIRSTX=15
##LASTX=127
##FIRSTY=271
##MAXX=127
##MINX=15
##MAXY=9999
##MINY=6
##NPOINTS=45
##PEAK TABLE=(XY..XY)
15,271 18,6 26,176 27,1239
28,716 29,1405 30,2359 31,50
32,6 37,19 38,83 39,642
40,213 41,1477 42,5356 43,734
44,2080 45,83 50,29 51,77
52,166 53,19 54,2214 55,334
56,848 57,578 58,43 66,19
67,43 68,126 69,111 70,113
71,25 72,13 80,16 81,68
83,9999 84,693 86,1505 87,76
96,17 97,26 125,37 126,375
127,35
##END=
