##TITLE=2-Chloroethyl ethyl sulfide
##JCAMP-DX=4.24
##DATA TYPE=MASS SPECTRUM
##ORIGIN=Japan AIST/NIMC Database- Spectrum MS-IW-1535
##OWNER=NIST Mass Spectrometry Data Center
Collection (C) 2014 copyright by the U.S. Secretary of Commerce
on behalf of the United States of America. All rights reserved.
##CAS REGISTRY NO=693-07-2
##$NIST MASS SPEC NO=238064
##MOLFORM=C4 H9 Cl S
##MW=124
##$NIST SOURCE=MSDC
##XUNITS=M/Z
##YUNITS=RELATIVE INTENSITY
##XFACTOR=1
##YFACTOR=1
##FIRSTX=15
##LASTX=128
##FIRSTY=20
##MAXX=128
##MINX=15
##MAXY=9999
##MINY=10
##NPOINTS=75
##PEAK TABLE=(XY..XY)
15,20 25,10 26,219 27,1529
28,359 29,1259 30,30 31,20
32,20 33,20 34,60 35,419
36,50 37,20 38,10 39,20
41,419 42,20 43,30 44,50
45,869 46,559 47,3439 48,109
49,279 50,20 51,40 53,10
55,30 57,119 58,369 59,779
60,439 61,1689 62,1049 63,949
64,239 65,269 66,50 68,10
69,10 73,179 74,20 75,9999
76,459 77,499 78,20 80,10
81,60 83,20 87,10 88,60
89,499 90,60 91,30 92,30
93,30 94,40 95,90 96,199
97,40 98,70 104,10 105,10
109,419 110,20 111,149 121,10
122,30 123,40 124,2849 125,169
126,1049 127,50 128,40
##END=
