##TITLE=2-Decanone
##JCAMP-DX=4.24
##DATA TYPE=MASS SPECTRUM
##ORIGIN=NIST Mass Spectrometry Data Center, 1990.
##OWNER=NIST Mass Spectrometry Data Center
Collection (C) 2014 copyright by the U.S. Secretary of Commerce
on behalf of the United States of America. All rights reserved.
##CAS REGISTRY NO=693-54-9
##$NIST MASS SPEC NO=114026
##MOLFORM=C10 H20 O
##MW=156
##$NIST SOURCE=MSDC
##XUNITS=M/Z
##YUNITS=RELATIVE INTENSITY
##XFACTOR=1
##YFACTOR=1
##FIRSTX=14
##LASTX=156
##FIRSTY=106
##MAXX=156
##MINX=14
##MAXY=9999
##MINY=94
##NPOINTS=43
##PEAK TABLE=(XY..XY)
14,106 15,125 27,978 28,107
29,1036 39,1212 40,288 41,2730
42,1183 43,8453 44,262 45,99
51,113 53,348 54,224 55,1344
56,616 57,1919 58,9999 59,2798
60,98 67,299 68,163 69,390
70,98 71,3770 72,253 81,350
82,253 83,141 84,141 85,547
95,158 96,507 97,106 98,500
99,141 100,145 113,253 114,94
127,153 141,224 156,442
##END=
