##TITLE=3H-Diazirine, 3,3-difluoro-
##JCAMP-DX=4.24
##DATA TYPE=MASS SPECTRUM
##ORIGIN=R.A.MITSCH MINNESOTA MINING AND MFG CO ST.PAUL MINNESOTA USA
##OWNER=NIST Mass Spectrometry Data Center
Collection (C) 2014 copyright by the U.S. Secretary of Commerce
on behalf of the United States of America. All rights reserved.
##CAS REGISTRY NO=693-85-6
##$NIST MASS SPEC NO=407
##MOLFORM=C F2 N2
##MW=78
##$NIST SOURCE=MSDC
##XUNITS=M/Z
##YUNITS=RELATIVE INTENSITY
##XFACTOR=1
##YFACTOR=1
##FIRSTX=12
##LASTX=78
##FIRSTY=580
##MAXX=78
##MINX=12
##MAXY=9999
##MINY=10
##NPOINTS=11
##PEAK TABLE=(XY..XY)
12,580 14,390 26,300 31,6360
33,200 40,100 45,470 50,9999
59,4680 64,690 78,10
##END=
