##TITLE=Quinoline, 2-methoxy-
##JCAMP-DX=4.24
##DATA TYPE=MASS SPECTRUM
##ORIGIN=P.BEAK ROGER ADAMS LAB., ILLINOIS UNIV., URBANA, ILL., USA
##OWNER=NIST Mass Spectrometry Data Center
Collection (C) 2014 copyright by the U.S. Secretary of Commerce
on behalf of the United States of America. All rights reserved.
##CAS REGISTRY NO=6931-16-4
##$NIST MASS SPEC NO=57859
##MOLFORM=C10 H9 N O
##MW=159
##$NIST SOURCE=MSDC
##XUNITS=M/Z
##YUNITS=RELATIVE INTENSITY
##XFACTOR=1
##YFACTOR=1
##FIRSTX=24
##LASTX=161
##FIRSTY=29
##MAXX=161
##MINX=24
##MAXY=9999
##MINY=1
##NPOINTS=81
##PEAK TABLE=(XY..XY)
24,29 25,105 26,479 27,326
28,1429 29,353 30,115 31,331
36,4 37,115 38,282 39,1130
40,147 41,32 42,14 43,278
49,68 50,957 51,1710 52,408
53,39 55,1 57,3 58,259
59,18 61,134 62,710 63,1827
64,662 65,558 66,203 67,19
70,43 71,2 73,52 74,554
75,1568 76,1224 77,1677 78,696
79,173 80,253 81,21 85,20
86,64 87,241 88,589 89,2203
90,542 91,35 98,54 99,93
100,281 101,1870 102,4177 103,1771
104,176 105,20 114,388 115,503
116,787 117,196 118,19 127,288
128,4617 129,9090 130,6287 131,682
132,50 139,3 140,44 141,41
143,146 144,31 145,65 156,36
157,61 158,9999 159,8760 160,1082
161,72
##END=
