##TITLE=2,6-Dibromotoluene
##JCAMP-DX=4.24
##DATA TYPE=MASS SPECTRUM
##ORIGIN=NIST Mass Spectrometry Data Center, 1990.
##OWNER=NIST Mass Spectrometry Data Center
Collection (C) 2014 copyright by the U.S. Secretary of Commerce
on behalf of the United States of America. All rights reserved.
##CAS REGISTRY NO=69321-60-4
##$NIST MASS SPEC NO=119038
##MOLFORM=C7 H6 Br2
##MW=248
##$NIST SOURCE=MSDC
##XUNITS=M/Z
##YUNITS=RELATIVE INTENSITY
##XFACTOR=1
##YFACTOR=1
##FIRSTX=12
##LASTX=254
##FIRSTY=18
##MAXX=254
##MINX=12
##MAXY=9999
##MINY=11
##NPOINTS=102
##PEAK TABLE=(XY..XY)
12,18 13,34 15,61 17,29
18,197 24,16 25,88 26,394
27,404 36,138 37,896 38,1406
39,2309 40,163 41,32 42,32
43,768 44,1729 48,69 49,489
50,1501 51,1117 52,127 53,11
60,280 61,1445 62,3374 63,6174
64,1132 65,131 71,12 72,47
73,290 74,872 75,534 76,67
77,15 78,12 79,347 80,227
81,405 82,210 83,147 84,729
85,1147 86,1005 87,904 88,12
89,9785 90,6465 91,453 92,37
93,65 94,23 95,60 103,11
104,60 105,55 106,66 107,37
115,23 116,88 117,326 118,108
119,370 120,15 121,15 124,126
125,234 126,99 128,79 129,44
130,85 131,28 140,33 141,197
142,60 143,339 144,46 145,141
146,11 152,23 153,18 154,26
155,18 156,11 160,14 168,1550
169,8250 170,2163 171,7922 172,565
173,34 197,11 223,21 248,4852
249,1529 250,9999 251,1198 252,4634
253,361 254,17
##END=
