##TITLE=Buprofezin
##JCAMP-DX=4.24
##DATA TYPE=MASS SPECTRUM
##ORIGIN=NIST Mass Spectrometry Data Center, 1998.
##OWNER=NIST Mass Spectrometry Data Center
Collection (C) 2014 copyright by the U.S. Secretary of Commerce
on behalf of the United States of America. All rights reserved.
##CAS REGISTRY NO=69327-76-0
##$NIST MASS SPEC NO=291756
##MOLFORM=C16 H23 N3 O S
##MW=305
##$NIST SOURCE=MSDC
##XUNITS=M/Z
##YUNITS=RELATIVE INTENSITY
##XFACTOR=1
##YFACTOR=1
##FIRSTX=15
##LASTX=308
##FIRSTY=40
##MAXX=308
##MINX=15
##MAXY=9999
##MINY=10
##NPOINTS=190
##PEAK TABLE=(XY..XY)
15,40 26,20 27,380 28,90
29,680 30,50 37,10 38,50
39,590 40,130 41,2610 42,530
43,1570 44,60 45,130 46,90
47,60 49,10 50,130 51,700
52,140 53,80 54,60 55,520
56,620 57,3510 58,800 59,70
60,130 61,20 62,30 63,110
64,220 65,180 66,60 67,110
68,60 69,690 70,470 71,110
72,710 73,70 74,90 75,120
76,110 77,3160 78,470 79,190
80,30 81,20 82,20 83,4080
84,1820 85,860 86,540 87,270
88,90 89,120 90,60 91,720
92,140 93,300 94,170 95,20
96,10 97,250 98,290 99,10
100,2500 101,220 102,450 103,410
104,4050 105,9999 106,6029 107,940
108,70 109,200 110,60 111,270
112,40 113,40 114,170 115,1530
116,1580 117,230 118,250 119,2880
120,350 121,40 123,20 124,10
125,610 126,60 127,20 129,190
130,180 131,880 132,210 133,140
134,80 135,20 136,290 137,50
138,150 139,790 140,1580 141,200
142,30 143,100 144,60 145,40
146,20 147,60 148,20 149,60
150,10 155,20 157,770 158,640
159,110 160,210 161,110 162,30
163,20 164,30 165,170 166,80
167,10 171,1940 172,5899 173,730
174,430 175,4000 176,480 177,50
178,10 179,10 185,450 186,60
187,20 188,40 189,240 190,1940
191,300 192,140 193,270 194,40
195,10 200,20 201,10 202,10
203,50 204,10 205,10 206,40
207,40 208,30 216,330 217,70
218,30 219,10 220,10 221,10
222,20 230,60 231,10 233,10
234,10 244,10 248,790 249,1010
250,180 251,50 252,10 258,10
263,280 264,50 265,10 272,10
277,230 278,40 279,10 290,150
291,30 292,10 305,2080 306,420
307,140 308,20
##END=
