##TITLE=Benzamide, N,N,3-trimethyl-
##JCAMP-DX=4.24
##DATA TYPE=MASS SPECTRUM
##ORIGIN=Zaikin V.G., TIPS RAS, Moscow, Russia
##OWNER=NIST Mass Spectrometry Data Center
Collection (C) 2014 copyright by the U.S. Secretary of Commerce
on behalf of the United States of America. All rights reserved.
##CAS REGISTRY NO=6935-65-5
##$NIST MASS SPEC NO=339097
##MOLFORM=C10 H13 N O
##MW=163
##$NIST SOURCE=MSDC
##XUNITS=M/Z
##YUNITS=RELATIVE INTENSITY
##XFACTOR=1
##YFACTOR=1
##FIRSTX=39
##LASTX=164
##FIRSTY=160
##MAXX=164
##MINX=39
##MAXY=9999
##MINY=20
##NPOINTS=31
##PEAK TABLE=(XY..XY)
39,160 41,60 42,110 43,20
44,70 50,30 51,80 62,40
63,180 64,50 65,831 66,50
67,90 72,110 73,30 74,20
80,90 81,50 89,300 90,200
91,4154 92,330 105,30 118,30
119,9999 120,841 121,50 148,140
162,4214 163,2853 164,350
##END=
