##TITLE=2-Cyanobenzenesulfonyl chloride
##JCAMP-DX=4.24
##DATA TYPE=MASS SPECTRUM
##ORIGIN=NIST Mass Spectrometry Data Center, 1994
##OWNER=NIST Mass Spectrometry Data Center
Collection (C) 2014 copyright by the U.S. Secretary of Commerce
on behalf of the United States of America. All rights reserved.
##CAS REGISTRY NO=69360-26-5
##$NIST MASS SPEC NO=136899
##MOLFORM=C7 H4 Cl N O2 S
##MW=201
##$NIST SOURCE=MSDC
##XUNITS=M/Z
##YUNITS=RELATIVE INTENSITY
##XFACTOR=1
##YFACTOR=1
##FIRSTX=16
##LASTX=204
##FIRSTY=46
##MAXX=204
##MINX=16
##MAXY=9999
##MINY=32
##NPOINTS=78
##PEAK TABLE=(XY..XY)
16,46 18,45 26,106 27,259
35,232 36,362 37,475 38,563
39,896 40,53 44,85 48,1032
49,343 50,1700 51,1968 52,482
53,69 57,64 60,54 61,179
62,235 63,461 64,1476 65,80
66,63 69,211 70,61 71,41
72,44 73,238 74,588 75,3204
76,2169 77,298 78,104 81,58
82,95 83,163 84,49 85,53
87,56 88,57 90,298 91,94
93,32 94,42 95,77 96,49
98,48 99,315 100,178 101,32
102,9999 103,1941 104,144 106,42
108,63 110,40 111,40 112,33
118,82 122,132 134,54 135,91
137,235 138,35 139,85 141,50
150,92 151,85 166,6499 167,585
168,357 169,34 201,1335 202,133
203,539 204,56
##END=
