##TITLE=Rhodium, bis(.eta.2-ethene)(1,1,1-trifluoro-2,4-pentanedionato-O,O')-
##JCAMP-DX=4.24
##DATA TYPE=MASS SPECTRUM
##ORIGIN=D.HENNEBERG, MAX-PLANCK INSTITUTE, MULHEIM, WEST GERMANY
##OWNER=NIST Mass Spectrometry Data Center
Collection (C) 2014 copyright by the U.S. Secretary of Commerce
on behalf of the United States of America. All rights reserved.
##CAS REGISTRY NO=69372-77-6
##$NIST MASS SPEC NO=63497
##MOLFORM=C9 H12 F3 O2 Rh
##MW=312
##$NIST SOURCE=MSDC
##XUNITS=M/Z
##YUNITS=RELATIVE INTENSITY
##XFACTOR=1
##YFACTOR=1
##FIRSTX=26
##LASTX=315
##FIRSTY=555
##MAXX=315
##MINX=26
##MAXY=9999
##MINY=3
##NPOINTS=208
##PEAK TABLE=(XY..XY)
26,555 27,589 28,1050 29,48
31,38 32,3 39,34 40,6
41,33 42,23 43,1086 44,33
45,16 50,3 51,5 53,4
54,3 55,93 56,11 57,9
58,3 59,160 60,6 67,14
68,4 69,111 70,3 71,4
72,6 73,11 74,6 75,4
76,3 77,21 78,4 83,4
84,7 85,139 86,8 87,9
89,5 91,39 92,4 97,3
103,1500 104,82 105,6 108,5
115,50 116,51 117,153 118,314
119,14 120,9 123,12 128,17
129,832 130,574 131,2881 132,2300
133,36 134,27 135,12 136,12
137,11 138,5 139,27 140,7
141,13 142,96 143,127 144,159
145,178 146,308 147,13 148,10
149,3 150,12 151,4 152,3
153,42 154,368 155,83 156,94
157,306 158,214 159,883 160,95
161,26 162,88 163,8 164,13
165,18 166,141 167,16 168,8
169,9 170,6 171,47 172,157
173,13 174,8 176,23 177,7
178,89 179,24 180,690 181,72
182,31 183,8 184,38 185,134
186,47 187,1872 188,95 189,25
190,8 191,12 192,15 193,52
194,73 195,7 196,3 197,10
198,305 199,20 200,1249 201,47
202,15 203,47 205,7 206,7
207,6 208,52 209,44 210,17
211,25 212,42 213,129 214,49
215,27 216,3 217,10 219,6
220,3 221,10 222,3 223,4
224,29 225,22 226,705 227,82
228,696 229,50 232,11 233,5
234,3 235,5 237,71 238,8
239,30 240,52 241,39 242,8
243,11 244,3 250,4 251,6
253,22 254,24 255,56 256,9999
257,622 258,102 261,8 262,4
263,5 265,161 266,14 267,5
268,4 269,4 270,3 272,3
278,3 279,4 281,20 282,23
284,7209 285,582 286,55 287,5
289,3 293,21 295,3 296,25
297,4 298,3 301,17 302,3
303,10 304,3 305,8 310,8
312,5502 313,556 314,50 315,4
##END=
