##TITLE=Benzoic acid, 4-methoxy-, propyl ester
##JCAMP-DX=4.24
##DATA TYPE=MASS SPECTRUM
##ORIGIN=NIST Mass Spectrometry Data Center, 2010
##OWNER=NIST Mass Spectrometry Data Center
Collection (C) 2014 copyright by the U.S. Secretary of Commerce
on behalf of the United States of America. All rights reserved.
##CAS REGISTRY NO=6938-39-2
##$NIST MASS SPEC NO=374511
##MOLFORM=C11 H14 O3
##MW=194
##$NIST SOURCE=MSDC
##XUNITS=M/Z
##YUNITS=RELATIVE INTENSITY
##XFACTOR=1
##YFACTOR=1
##FIRSTX=25
##LASTX=196
##FIRSTY=10
##MAXX=196
##MINX=25
##MAXY=9999
##MINY=10
##NPOINTS=74
##PEAK TABLE=(XY..XY)
25,10 27,220 28,70 29,120
31,30 32,20 37,10 38,130
39,160 41,270 42,80 43,280
45,20 46,10 50,220 51,150
52,20 53,90 59,20 61,20
62,80 63,460 64,731 65,170
66,50 67,10 74,90 75,120
76,230 77,1601 78,160 79,90
80,10 81,50 91,20 92,1231
93,100 94,30 95,10 103,40
104,70 105,70 106,50 107,851
108,130 109,70 115,110 119,40
120,40 121,30 122,10 124,10
127,100 133,10 135,9999 136,1021
137,100 138,10 149,20 150,20
152,5915 153,591 154,60 156,40
157,10 163,10 165,160 166,20
175,10 177,80 193,10 194,1161
195,150 196,10
##END=
