##TITLE=Butyl nicotinate
##JCAMP-DX=4.24
##DATA TYPE=MASS SPECTRUM
##ORIGIN=Japan AIST/NIMC Database- Spectrum MS-NW-3670
##OWNER=NIST Mass Spectrometry Data Center
Collection (C) 2014 copyright by the U.S. Secretary of Commerce
on behalf of the United States of America. All rights reserved.
##CAS REGISTRY NO=6938-06-3
##$NIST MASS SPEC NO=232293
##MOLFORM=C10 H13 N O2
##MW=179
##$NIST SOURCE=MSDC
##XUNITS=M/Z
##YUNITS=RELATIVE INTENSITY
##XFACTOR=1
##YFACTOR=1
##FIRSTX=15
##LASTX=181
##FIRSTY=60
##MAXX=181
##MINX=15
##MAXY=9999
##MINY=10
##NPOINTS=79
##PEAK TABLE=(XY..XY)
15,60 17,10 18,30 25,10
26,179 27,1049 28,399 29,1739
30,40 31,70 37,40 38,109
39,619 40,109 41,2019 42,109
43,219 44,40 45,40 49,80
50,819 51,3119 52,519 53,209
54,50 55,649 56,3219 57,449
58,20 65,20 66,30 67,20
68,10 73,80 75,50 76,119
77,349 78,5659 79,979 80,189
81,10 89,10 91,10 92,10
93,20 94,30 95,20 101,20
104,20 105,1379 106,9999 107,739
108,90 109,10 117,10 118,10
119,10 121,20 122,20 123,1859
124,9399 125,669 126,60 134,30
135,20 136,50 137,1329 138,119
139,10 146,10 150,529 151,499
152,40 164,1079 165,129 166,10
179,729 180,90 181,10
##END=
