##TITLE=Hexanoic acid, phenylmethyl ester
##JCAMP-DX=4.24
##DATA TYPE=MASS SPECTRUM
##ORIGIN=W.Jennings, T.Shibamoto
##OWNER=NIST Mass Spectrometry Data Center
Collection (C) 2014 copyright by the U.S. Secretary of Commerce
on behalf of the United States of America. All rights reserved.
##CAS REGISTRY NO=6938-45-0
##$NIST MASS SPEC NO=285009
##MOLFORM=C13 H18 O2
##MW=206
##$NIST SOURCE=MSDC
##XUNITS=M/Z
##YUNITS=RELATIVE INTENSITY
##XFACTOR=1
##YFACTOR=1
##FIRSTX=26
##LASTX=207
##FIRSTY=210
##MAXX=207
##MINX=26
##MAXY=9999
##MINY=70
##NPOINTS=45
##PEAK TABLE=(XY..XY)
26,210 29,430 41,651 42,90
43,4974 44,90 51,320 55,751
57,220 58,90 64,190 65,410
69,1912 70,190 71,3023 72,80
73,611 77,210 78,80 79,1061
80,80 82,80 89,70 90,1882
91,9999 92,3793 93,210 97,1321
98,90 99,3313 100,210 104,80
105,80 106,80 107,1141 108,7397
109,851 114,90 115,1521 116,90
117,90 119,90 188,120 206,941
207,80
##END=
