##TITLE=Hexanoic acid, dodecyl ester
##JCAMP-DX=4.24
##DATA TYPE=MASS SPECTRUM
##ORIGIN=V.G.Zaikin, TIPS RAS, Moscow, Russia
##OWNER=NIST Mass Spectrometry Data Center
Collection (C) 2014 copyright by the U.S. Secretary of Commerce
on behalf of the United States of America. All rights reserved.
##CAS REGISTRY NO=6938-60-9
##$NIST MASS SPEC NO=279265
##MOLFORM=C18 H36 O2
##MW=284
##$NIST SOURCE=MSDC
##XUNITS=M/Z
##YUNITS=RELATIVE INTENSITY
##XFACTOR=1
##YFACTOR=1
##FIRSTX=25
##LASTX=214
##FIRSTY=70
##MAXX=214
##MINX=25
##MAXY=9999
##MINY=10
##NPOINTS=97
##PEAK TABLE=(XY..XY)
25,70 26,390 27,2382 28,641
29,3583 30,170 31,170 36,40
37,60 38,170 39,1782 40,480
41,6816 42,2592 43,9999 44,881
45,410 50,110 51,170 52,80
53,490 54,821 55,5835 56,3313
57,4194 58,290 59,90 60,1031
61,791 62,40 63,20 65,70
66,110 67,831 68,1221 69,3613
70,3163 71,3653 72,240 73,1031
74,150 75,70 77,90 79,150
80,70 81,410 82,1291 83,2933
84,1912 85,1031 86,90 87,510
88,30 89,170 91,80 93,60
94,20 95,190 96,510 97,2092
98,1381 99,4474 100,350 101,180
102,30 106,30 109,30 110,190
111,1031 112,691 113,150 114,70
115,190 116,861 117,8818 118,621
119,70 124,120 125,440 126,390
127,90 129,60 130,60 138,70
139,170 140,881 141,120 143,70
157,70 158,10 168,1491 169,220
172,110 183,30 185,30 213,180
214,30
##END=
