##TITLE=2,6-Difluorobenzylamine
##JCAMP-DX=4.24
##DATA TYPE=MASS SPECTRUM
##ORIGIN=Chuck Anderson, Aldrich Chemical Co.
##OWNER=NIST Mass Spectrometry Data Center
Collection (C) 2014 copyright by the U.S. Secretary of Commerce
on behalf of the United States of America. All rights reserved.
##CAS REGISTRY NO=69385-30-4
##$NIST MASS SPEC NO=107915
##MOLFORM=C7 H7 F2 N
##MW=143
##$NIST SOURCE=MSDC
##XUNITS=M/Z
##YUNITS=RELATIVE INTENSITY
##XFACTOR=1
##YFACTOR=1
##FIRSTX=27
##LASTX=144
##FIRSTY=54
##MAXX=144
##MINX=27
##MAXY=9999
##MINY=11
##NPOINTS=79
##PEAK TABLE=(XY..XY)
27,54 28,2603 29,1910 30,3553
31,276 37,134 38,158 39,240
41,11 44,11 45,81 46,49
48,206 49,53 50,408 51,531
52,83 56,85 57,392 58,12
60,82 61,387 62,299 63,909
64,111 65,12 68,348 69,335
70,317 71,542 72,39 73,74
74,431 75,1415 76,253 77,351
78,40 80,71 81,348 82,51
83,67 85,37 86,56 87,98
88,276 89,44 92,108 93,289
94,369 95,2551 96,764 97,170
99,109 100,291 101,712 102,459
103,42 105,46 107,405 108,26
112,70 113,196 114,1363 115,950
116,65 120,423 121,71 122,1239
123,4627 124,640 125,351 126,160
127,2406 128,178 140,627 141,250
142,9999 143,2406 144,180
##END=
