##TITLE=Pentanoic acid, 4-oxo-, phenylmethyl ester
##JCAMP-DX=4.24
##DATA TYPE=MASS SPECTRUM
##ORIGIN=NIST Mass Spectrometry Data Center
##OWNER=NIST Mass Spectrometry Data Center
Collection (C) 2014 copyright by the U.S. Secretary of Commerce
on behalf of the United States of America. All rights reserved.
##CAS REGISTRY NO=6939-75-9
##$NIST MASS SPEC NO=341130
##MOLFORM=C12 H14 O3
##MW=206
##$NIST SOURCE=MSDC
##XUNITS=M/Z
##YUNITS=RELATIVE INTENSITY
##XFACTOR=1
##YFACTOR=1
##FIRSTX=15
##LASTX=207
##FIRSTY=20
##MAXX=207
##MINX=15
##MAXY=9999
##MINY=10
##NPOINTS=75
##PEAK TABLE=(XY..XY)
15,20 26,30 27,150 29,40
37,10 38,50 39,460 40,20
41,170 42,170 43,3433 44,80
45,30 50,200 51,621 52,170
53,90 54,30 55,290 56,120
57,270 58,611 59,60 60,20
61,20 62,90 63,410 64,130
65,1682 66,90 70,10 71,591
72,831 73,50 74,50 75,40
76,60 77,991 78,220 79,1091
80,80 81,70 86,10 87,10
89,751 90,831 91,9999 92,801
93,20 99,5365 100,631 101,50
103,10 104,210 105,370 106,90
107,6936 108,2682 109,190 110,10
115,10 117,70 118,20 120,1361
121,140 131,10 145,30 146,10
160,40 164,30 178,370 179,40
188,20 206,220 207,40
##END=
