##TITLE=1H-Pyrazole, 1,3-dimethyl-
##JCAMP-DX=4.24
##DATA TYPE=MASS SPECTRUM
##ORIGIN=V.A. KOPTYUG, VOL.4, ATLAS OF MASS SPECTRA OF ORGANIC COMPOUNDS
##OWNER=NIST Mass Spectrometry Data Center
Collection (C) 2014 copyright by the U.S. Secretary of Commerce
on behalf of the United States of America. All rights reserved.
##CAS REGISTRY NO=694-48-4
##$NIST MASS SPEC NO=73051
##MOLFORM=C5 H8 N2
##MW=96
##$NIST SOURCE=MSDC
##XUNITS=M/Z
##YUNITS=RELATIVE INTENSITY
##XFACTOR=1
##YFACTOR=1
##FIRSTX=26
##LASTX=98
##FIRSTY=370
##MAXX=98
##MINX=26
##MAXY=9999
##MINY=30
##NPOINTS=31
##PEAK TABLE=(XY..XY)
26,370 27,870 28,1100 29,140
30,130 38,180 39,510 40,420
41,920 42,1410 43,600 50,330
51,570 52,660 53,940 54,1270
55,690 56,380 66,300 67,320
68,1210 69,160 80,110 81,1740
82,110 93,70 94,140 95,6980
96,9999 97,640 98,30
##END=
