##TITLE=1H-Pyrazole, 1,5-dimethyl-
##JCAMP-DX=4.24
##DATA TYPE=MASS SPECTRUM
##ORIGIN=V.A. KOPTYUG, VOL.4, ATLAS OF MASS SPECTRA OF ORGANIC COMPOUNDS
##OWNER=NIST Mass Spectrometry Data Center
Collection (C) 2014 copyright by the U.S. Secretary of Commerce
on behalf of the United States of America. All rights reserved.
##CAS REGISTRY NO=694-31-5
##$NIST MASS SPEC NO=73053
##MOLFORM=C5 H8 N2
##MW=96
##$NIST SOURCE=MSDC
##XUNITS=M/Z
##YUNITS=RELATIVE INTENSITY
##XFACTOR=1
##YFACTOR=1
##FIRSTX=26
##LASTX=97
##FIRSTY=260
##MAXX=97
##MINX=26
##MAXY=9999
##MINY=70
##NPOINTS=31
##PEAK TABLE=(XY..XY)
26,260 27,900 28,1170 29,180
30,200 37,140 38,300 39,920
40,340 41,1070 42,890 43,590
50,340 51,580 52,620 53,1260
54,1150 55,540 56,1020 65,110
66,300 67,330 68,1410 69,170
80,80 81,670 82,70 94,100
95,5900 96,9999 97,640
##END=
