##TITLE=Bicyclo[2.2.1]hept-2-ene, 5-methylene-
##JCAMP-DX=4.24
##DATA TYPE=MASS SPECTRUM
##ORIGIN=NIST Mass Spectrometry Data Center, 1990.
##OWNER=NIST Mass Spectrometry Data Center
Collection (C) 2014 copyright by the U.S. Secretary of Commerce
on behalf of the United States of America. All rights reserved.
##CAS REGISTRY NO=694-91-7
##$NIST MASS SPEC NO=114367
##MOLFORM=C8 H10
##MW=106
##$NIST SOURCE=MSDC
##XUNITS=M/Z
##YUNITS=RELATIVE INTENSITY
##XFACTOR=1
##YFACTOR=1
##FIRSTX=14
##LASTX=107
##FIRSTY=386
##MAXX=107
##MINX=14
##MAXY=9999
##MINY=150
##NPOINTS=36
##PEAK TABLE=(XY..XY)
14,386 15,192 16,200 26,450
27,1414 28,196 37,323 38,891
39,3901 40,1076 41,489 49,173
50,1250 51,2070 52,811 53,527
61,189 62,469 63,949 64,234
65,2652 66,9999 67,682 74,261
76,228 77,2505 78,5536 79,1836
89,223 91,9522 92,696 102,150
103,543 105,1758 106,3287 107,256
##END=
