##TITLE=Benzene, 1-bromo-2-chloro-
##JCAMP-DX=4.24
##DATA TYPE=MASS SPECTRUM
##ORIGIN=Japan AIST/NIMC Database- Spectrum MS-NW- 837
##OWNER=NIST Mass Spectrometry Data Center
Collection (C) 2014 copyright by the U.S. Secretary of Commerce
on behalf of the United States of America. All rights reserved.
##CAS REGISTRY NO=694-80-4
##$NIST MASS SPEC NO=228903
##MOLFORM=C6 H4 Br Cl
##MW=190
##$NIST SOURCE=MSDC
##XUNITS=M/Z
##YUNITS=RELATIVE INTENSITY
##XFACTOR=1
##YFACTOR=1
##FIRSTX=25
##LASTX=195
##FIRSTY=30
##MAXX=195
##MINX=25
##MAXY=9999
##MINY=10
##NPOINTS=78
##PEAK TABLE=(XY..XY)
25,30 26,70 27,90 35,70
36,99 37,499 38,479 39,139
47,40 48,60 49,479 50,2379
51,659 52,30 54,20 55,329
56,109 60,60 61,179 62,90
63,50 71,10 72,129 73,429
74,1689 75,4699 76,989 77,149
78,149 79,139 80,40 81,149
82,40 83,20 84,329 85,439
86,119 87,139 91,10 93,10
95,349 96,429 97,119 104,10
105,20 106,20 107,20 108,50
109,80 110,199 111,6359 112,489
113,1949 114,129 116,20 117,20
118,20 119,20 128,60 129,50
130,70 131,50 140,10 141,10
143,10 151,10 153,30 154,20
155,169 156,30 157,149 189,30
190,7869 191,539 192,9999 193,689
194,2429 195,169
##END=
