##TITLE=Pyrimidine, 4,5-dimethyl-
##JCAMP-DX=4.24
##DATA TYPE=MASS SPECTRUM
##ORIGIN=A.J. MACLEOD, DEP. CHEM., QUEEN ELIZ. COLL., UNIV. LONDON, U
##OWNER=NIST Mass Spectrometry Data Center
Collection (C) 2014 copyright by the U.S. Secretary of Commerce
on behalf of the United States of America. All rights reserved.
##CAS REGISTRY NO=694-81-5
##$NIST MASS SPEC NO=74961
##MOLFORM=C6 H8 N2
##MW=108
##$NIST SOURCE=MSDC
##XUNITS=M/Z
##YUNITS=RELATIVE INTENSITY
##XFACTOR=1
##YFACTOR=1
##FIRSTX=39
##LASTX=109
##FIRSTY=4000
##MAXX=109
##MINX=39
##MAXY=9999
##MINY=800
##NPOINTS=13
##PEAK TABLE=(XY..XY)
39,4000 40,2800 41,1200 42,2300
51,1400 52,1600 66,1000 67,1000
81,800 93,1000 107,2500 108,9999
109,800
##END=
