##TITLE=2H-Pyran-2-ol, tetrahydro-
##JCAMP-DX=4.24
##DATA TYPE=MASS SPECTRUM
##ORIGIN=CARL DJERASSI DEPT OF CHEM STANFORD UNIV STANFORD CALIF 94305
##OWNER=NIST Mass Spectrometry Data Center
Collection (C) 2014 copyright by the U.S. Secretary of Commerce
on behalf of the United States of America. All rights reserved.
##CAS REGISTRY NO=694-54-2
##$NIST MASS SPEC NO=46286
##MOLFORM=C5 H10 O2
##MW=102
##$NIST SOURCE=MSDC
##XUNITS=M/Z
##YUNITS=RELATIVE INTENSITY
##XFACTOR=1
##YFACTOR=1
##FIRSTX=41
##LASTX=102
##FIRSTY=6600
##MAXX=102
##MINX=41
##MAXY=9999
##MINY=100
##NPOINTS=25
##PEAK TABLE=(XY..XY)
41,6600 42,700 43,2300 44,2400
45,300 47,300 50,100 51,100
53,400 54,200 55,2400 56,4700
57,1600 58,100 67,1200 68,100
69,200 71,200 74,200 83,600
84,900 85,9999 86,500 101,700
102,200
##END=
