##TITLE=1-Methyl-1,2,3,6-tetrahydropyridine
##JCAMP-DX=4.24
##DATA TYPE=MASS SPECTRUM
##ORIGIN=Japan AIST/NIMC Database- Spectrum MS-NW-6409
##OWNER=NIST Mass Spectrometry Data Center
Collection (C) 2014 copyright by the U.S. Secretary of Commerce
on behalf of the United States of America. All rights reserved.
##CAS REGISTRY NO=694-55-3
##$NIST MASS SPEC NO=236089
##MOLFORM=C6 H11 N
##MW=97
##$NIST SOURCE=MSDC
##XUNITS=M/Z
##YUNITS=RELATIVE INTENSITY
##XFACTOR=1
##YFACTOR=1
##FIRSTX=13
##LASTX=99
##FIRSTY=10
##MAXX=99
##MINX=13
##MAXY=9999
##MINY=10
##NPOINTS=68
##PEAK TABLE=(XY..XY)
13,10 14,60 15,939 16,20
25,10 26,269 27,1289 28,719
29,299 30,339 31,40 36,10
37,109 38,229 39,2039 40,289
41,1409 42,9999 43,5509 44,1919
45,329 46,30 47,60 48,20
49,40 50,229 51,389 52,409
53,979 54,4209 55,869 56,229
57,149 58,50 59,20 60,10
61,30 62,40 63,70 64,30
65,199 66,149 67,609 68,1769
69,459 70,239 71,40 72,20
74,10 75,20 76,10 77,60
78,149 79,329 80,589 81,969
82,2349 83,169 84,20 91,119
92,129 93,109 94,1819 95,249
96,8649 97,9239 98,789 99,40
##END=
