##TITLE=Bicyclo[2.2.1]hept-2-en-5-one
##JCAMP-DX=4.24
##DATA TYPE=MASS SPECTRUM
##ORIGIN=P. VAINIOTALO, DEPT. CHEM., UNIV. JOENSUU, JOENSUU, FINLAND
##OWNER=NIST Mass Spectrometry Data Center
Collection (C) 2014 copyright by the U.S. Secretary of Commerce
on behalf of the United States of America. All rights reserved.
##CAS REGISTRY NO=694-98-4
##$NIST MASS SPEC NO=138871
##MOLFORM=C7 H8 O
##MW=108
##$NIST SOURCE=MSDC
##XUNITS=M/Z
##YUNITS=RELATIVE INTENSITY
##XFACTOR=1
##YFACTOR=1
##FIRSTX=17
##LASTX=109
##FIRSTY=20
##MAXX=109
##MINX=17
##MAXY=9999
##MINY=1
##NPOINTS=29
##PEAK TABLE=(XY..XY)
17,20 18,120 20,20 26,90
27,420 29,30 32,40 37,80
38,180 39,860 40,1 41,110
42,90 43,50 44,360 50,220
51,360 52,210 53,130 63,110
65,700 66,9999 67,600 77,380
78,130 79,780 80,140 108,1700
109,160
##END=
