##TITLE=1,2,3,6-Tetrahydropyridine
##JCAMP-DX=4.24
##DATA TYPE=MASS SPECTRUM
##ORIGIN=Chuck Anderson, Aldrich Chemical Co.
##OWNER=NIST Mass Spectrometry Data Center
Collection (C) 2014 copyright by the U.S. Secretary of Commerce
on behalf of the United States of America. All rights reserved.
##CAS REGISTRY NO=694-05-3
##$NIST MASS SPEC NO=107803
##MOLFORM=C5 H9 N
##MW=83
##$NIST SOURCE=MSDC
##XUNITS=M/Z
##YUNITS=RELATIVE INTENSITY
##XFACTOR=1
##YFACTOR=1
##FIRSTX=14
##LASTX=85
##FIRSTY=25
##MAXX=85
##MINX=14
##MAXY=9999
##MINY=8
##NPOINTS=48
##PEAK TABLE=(XY..XY)
14,25 15,196 18,21 25,31
26,483 27,2355 28,4157 29,1407
30,1999 31,40 36,19 37,201
38,539 39,6104 40,677 41,1749
42,1315 43,368 44,74 48,15
49,144 50,766 51,1039 52,842
53,2657 54,9156 55,2447 56,733
57,94 61,8 62,17 63,26
64,23 65,414 66,67 67,1184
68,4683 69,223 75,32 76,26
78,206 79,31 80,2920 81,361
82,9999 83,6209 84,427 85,10
##END=
