##TITLE=Propane, 1-chloro-3-iodo-
##JCAMP-DX=4.24
##DATA TYPE=MASS SPECTRUM
##ORIGIN=RADIAN CORP
##OWNER=NIST Mass Spectrometry Data Center
Collection (C) 2014 copyright by the U.S. Secretary of Commerce
on behalf of the United States of America. All rights reserved.
##CAS REGISTRY NO=6940-76-7
##$NIST MASS SPEC NO=73324
##MOLFORM=C3 H6 Cl I
##MW=204
##$NIST SOURCE=MSDC
##XUNITS=M/Z
##YUNITS=RELATIVE INTENSITY
##XFACTOR=1
##YFACTOR=1
##FIRSTX=14
##LASTX=207
##FIRSTY=30
##MAXX=207
##MINX=14
##MAXY=9999
##MINY=10
##NPOINTS=43
##PEAK TABLE=(XY..XY)
14,30 15,70 25,50 26,520
27,1540 28,470 35,140 36,110
37,480 38,770 39,3630 40,460
41,9999 42,540 47,80 48,100
49,1930 50,50 51,600 61,170
63,70 73,40 75,210 76,180
77,4980 78,230 79,1580 80,40
127,4240 128,650 129,10 139,90
140,80 141,700 142,20 153,20
154,20 155,620 162,20 204,4060
205,130 206,1280 207,10
##END=
