##TITLE=1-Propanol, dl-2-benzylamino-,
##JCAMP-DX=4.24
##DATA TYPE=MASS SPECTRUM
##ORIGIN=Japan AIST/NIMC Database- Spectrum MS-NW-8120
##OWNER=NIST Mass Spectrometry Data Center
Collection (C) 2014 copyright by the U.S. Secretary of Commerce
on behalf of the United States of America. All rights reserved.
##CAS REGISTRY NO=6940-81-4
##$NIST MASS SPEC NO=234891
##MOLFORM=C10 H15 N O
##MW=165
##$NIST SOURCE=MSDC
##XUNITS=M/Z
##YUNITS=RELATIVE INTENSITY
##XFACTOR=1
##YFACTOR=1
##FIRSTX=15
##LASTX=167
##FIRSTY=20
##MAXX=167
##MINX=15
##MAXY=9999
##MINY=10
##NPOINTS=60
##PEAK TABLE=(XY..XY)
15,20 18,50 27,60 28,249
29,50 30,189 31,169 38,20
39,229 40,20 41,139 42,99
43,20 44,259 50,40 51,139
52,40 53,10 54,10 55,10
56,60 57,20 58,10 59,20
62,20 63,90 64,30 65,609
66,40 67,159 74,10 75,10
76,10 77,119 78,40 79,119
88,40 89,109 90,60 91,9999
92,809 93,30 103,10 104,40
105,40 106,189 107,10 117,10
118,20 130,10 132,50 133,20
134,6729 135,689 136,30 150,30
164,40 165,20 166,129 167,10
##END=
