##TITLE=Butane, 1-bromo-4-chloro-
##JCAMP-DX=4.24
##DATA TYPE=MASS SPECTRUM
##ORIGIN=Japan AIST/NIMC Database- Spectrum MS-NW-9671
##OWNER=NIST Mass Spectrometry Data Center
Collection (C) 2014 copyright by the U.S. Secretary of Commerce
on behalf of the United States of America. All rights reserved.
##CAS REGISTRY NO=6940-78-9
##$NIST MASS SPEC NO=236964
##MOLFORM=C4 H8 Br Cl
##MW=170
##$NIST SOURCE=MSDC
##XUNITS=M/Z
##YUNITS=RELATIVE INTENSITY
##XFACTOR=1
##YFACTOR=1
##FIRSTX=14
##LASTX=172
##FIRSTY=10
##MAXX=172
##MINX=14
##MAXY=9999
##MINY=10
##NPOINTS=66
##PEAK TABLE=(XY..XY)
14,10 15,30 25,10 26,239
27,2049 28,359 29,1769 30,40
31,10 35,10 36,90 37,40
38,80 39,1039 40,80 41,1589
42,129 43,10 47,10 48,10
49,319 50,99 51,179 52,30
53,519 54,229 55,9999 56,569
57,10 60,10 61,60 62,619
63,789 64,209 65,249 67,10
71,10 73,10 75,229 76,10
77,80 79,40 80,80 81,40
82,80 89,50 90,419 91,7169
92,449 93,2359 94,99 95,139
105,30 106,189 107,469 108,199
109,429 110,10 119,30 121,30
134,189 135,60 136,189 137,50
170,10 172,10
##END=
