##TITLE=4-Chlorobenzoic acid, 3-methylbutyl ester
##JCAMP-DX=4.24
##DATA TYPE=MASS SPECTRUM
##ORIGIN=V.Zaikin,Topchiev Inst.Petrochem.Synth.,Moscow
##OWNER=NIST Mass Spectrometry Data Center
Collection (C) 2014 copyright by the U.S. Secretary of Commerce
on behalf of the United States of America. All rights reserved.
##CAS REGISTRY NO=6942-75-2
##$NIST MASS SPEC NO=282268
##MOLFORM=C12 H15 Cl O2
##MW=226
##$NIST SOURCE=MSDC
##XUNITS=M/Z
##YUNITS=RELATIVE INTENSITY
##XFACTOR=1
##YFACTOR=1
##FIRSTX=26
##LASTX=183
##FIRSTY=40
##MAXX=183
##MINX=26
##MAXY=9999
##MINY=30
##NPOINTS=56
##PEAK TABLE=(XY..XY)
26,40 27,130 28,70 29,180
36,100 38,30 39,180 40,110
41,370 42,350 43,250 44,60
45,40 50,180 51,110 52,30
53,60 54,50 55,1161 56,130
57,130 65,30 67,50 68,40
69,180 70,6976 71,380 73,30
74,120 75,711 76,240 77,140
79,40 83,60 85,80 87,30
97,50 104,120 105,50 110,60
111,2162 112,210 113,681 114,60
135,30 139,9999 140,731 141,3353
142,240 156,1071 157,1411 158,440
159,440 160,40 169,80 183,40
##END=
