##TITLE=Benzene, 2,4-dibromo-1,3,5-trimethyl-
##JCAMP-DX=4.24
##DATA TYPE=MASS SPECTRUM
##ORIGIN=K.OLSSON INST. OF ORG. CHEM., GOTEBORG 5, SWEDEN
##OWNER=NIST Mass Spectrometry Data Center
Collection (C) 2014 copyright by the U.S. Secretary of Commerce
on behalf of the United States of America. All rights reserved.
##CAS REGISTRY NO=6942-99-0
##$NIST MASS SPEC NO=37838
##MOLFORM=C9 H10 Br2
##MW=276
##$NIST SOURCE=MSDC
##XUNITS=M/Z
##YUNITS=RELATIVE INTENSITY
##XFACTOR=1
##YFACTOR=1
##FIRSTX=37
##LASTX=282
##FIRSTY=200
##MAXX=282
##MINX=37
##MAXY=9999
##MINY=20
##NPOINTS=58
##PEAK TABLE=(XY..XY)
37,200 38,400 39,2400 40,300
44,200 50,1300 51,2600 52,700
53,700 57,1000 58,2300 59,200
61,200 62,600 63,1500 64,400
65,1200 66,200 74,700 75,800
76,500 77,1300 78,600 80,300
82,300 86,200 87,300 89,600
90,300 91,2200 92,300 98,300
99,200 101,200 102,800 103,1000
104,200 115,3300 116,1100 117,3700
118,2100 119,1200 196,200 197,6000
198,1400 199,5900 200,1200 261,200
263,300 265,200 275,200 276,4450
277,940 278,9999 279,1240 280,4880
281,530 282,20
##END=
