##TITLE=Cyclohexanecarboxylic acid, TMS derivative
##JCAMP-DX=4.24
##DATA TYPE=MASS SPECTRUM
##ORIGIN=O A MAMER, MCGILL UNIVERSITY, MONTRE9
##OWNER=NIST Mass Spectrometry Data Center
Collection (C) 2014 copyright by the U.S. Secretary of Commerce
on behalf of the United States of America. All rights reserved.
##CAS REGISTRY NO=69435-89-8
##$NIST MASS SPEC NO=79301
##MOLFORM=C10 H20 O2 Si
##MW=200
##$NIST SOURCE=MSDC
##XUNITS=M/Z
##YUNITS=RELATIVE INTENSITY
##XFACTOR=1
##YFACTOR=1
##FIRSTX=15
##LASTX=201
##FIRSTY=88
##MAXX=201
##MINX=15
##MAXY=9999
##MINY=39
##NPOINTS=77
##PEAK TABLE=(XY..XY)
15,88 26,55 27,424 28,44
29,449 31,46 39,466 40,88
41,1097 42,109 43,367 44,175
45,698 46,60 47,491 51,62
52,46 53,248 54,243 55,906
56,83 57,85 58,150 59,247
60,97 61,417 65,41 66,54
67,421 68,137 69,62 71,39
72,162 73,9999 74,954 75,5875
76,431 77,287 79,135 80,50
81,334 82,462 83,431 84,50
85,56 89,62 91,42 93,47
99,57 103,121 109,193 110,329
111,67 116,53 117,843 118,85
119,47 129,417 130,92 131,45
132,115 141,107 142,45 143,48
145,381 146,54 155,156 156,165
157,45 159,72 183,42 184,150
185,4260 186,708 187,291 200,574
201,103
##END=
