##TITLE=N-(.alpha.-Methylbenzyl)-formamide
##JCAMP-DX=4.24
##DATA TYPE=MASS SPECTRUM
##ORIGIN=Drug Lab
##OWNER=NIST Mass Spectrometry Data Center
Collection (C) 2014 copyright by the U.S. Secretary of Commerce
on behalf of the United States of America. All rights reserved.
##CAS REGISTRY NO=6948-01-2
##$NIST MASS SPEC NO=378900
##MOLFORM=C9 H11 N O
##MW=149
##$NIST SOURCE=MSDC
##XUNITS=M/Z
##YUNITS=RELATIVE INTENSITY
##XFACTOR=1
##YFACTOR=1
##FIRSTX=37
##LASTX=151
##FIRSTY=60
##MAXX=151
##MINX=37
##MAXY=9999
##MINY=20
##NPOINTS=73
##PEAK TABLE=(XY..XY)
37,60 38,150 39,651 40,100
41,220 42,2122 43,260 44,971
45,80 46,90 50,1001 51,2102
52,601 53,360 54,80 59,50
60,50 61,90 62,200 63,561
64,140 65,460 66,90 67,30
68,20 70,30 71,160 72,550
73,110 74,390 75,360 76,490
77,5575 78,2502 79,6896 80,500
81,30 86,50 87,40 88,30
89,230 90,90 91,771 92,120
93,100 94,50 98,40 99,30
101,60 102,350 103,2132 104,4364
105,2732 106,6796 107,1722 108,140
116,60 117,80 118,230 119,120
120,1221 121,250 130,430 131,510
132,400 134,6796 135,661 136,50
146,50 148,7026 149,9999 150,1031
151,80
##END=
