##TITLE=1-Hexanamine, N-hexyl-N-nitroso-
##JCAMP-DX=4.24
##DATA TYPE=MASS SPECTRUM
##ORIGIN=T. BRYCE UNILEVER RESEARCH COLWORTH/WELWYN. BEDFORD U.K.
##OWNER=NIST Mass Spectrometry Data Center
Collection (C) 2014 copyright by the U.S. Secretary of Commerce
on behalf of the United States of America. All rights reserved.
##CAS REGISTRY NO=6949-28-6
##$NIST MASS SPEC NO=9978
##MOLFORM=C12 H26 N2 O
##MW=214
##$NIST SOURCE=MSDC
##XUNITS=M/Z
##YUNITS=RELATIVE INTENSITY
##XFACTOR=1
##YFACTOR=1
##FIRSTX=39
##LASTX=215
##FIRSTY=762
##MAXX=215
##MINX=39
##MAXY=9999
##MINY=38
##NPOINTS=60
##PEAK TABLE=(XY..XY)
39,762 40,173 41,3730 42,2108
43,9999 44,2703 45,303 53,124
54,243 55,1589 56,1892 57,4270
58,670 59,130 60,76 67,81
68,103 69,432 70,1514 71,405
72,119 73,97 74,486 75,38
82,97 83,270 84,1368 85,1027
86,92 87,97 97,81 98,595
99,92 100,189 112,2368 113,43
114,811 115,70 126,281 127,2892
128,422 129,324 131,908 132,76
140,157 141,384 142,59 143,541
144,427 145,92 154,303 155,81
157,222 158,130 184,449 185,114
197,2189 198,411 214,330 215,49
##END=
