##TITLE=Piperidine, 1,4-dimethyl-
##JCAMP-DX=4.24
##DATA TYPE=MASS SPECTRUM
##ORIGIN=V.A.KOPTYUG, ATLAS OF MASS SPECTRA OF ORGANIC COMPOUNDS
##OWNER=NIST Mass Spectrometry Data Center
Collection (C) 2014 copyright by the U.S. Secretary of Commerce
on behalf of the United States of America. All rights reserved.
##CAS REGISTRY NO=695-15-8
##$NIST MASS SPEC NO=78024
##MOLFORM=C7 H15 N
##MW=113
##$NIST SOURCE=MSDC
##XUNITS=M/Z
##YUNITS=RELATIVE INTENSITY
##XFACTOR=1
##YFACTOR=1
##FIRSTX=26
##LASTX=114
##FIRSTY=230
##MAXX=114
##MINX=26
##MAXY=9999
##MINY=100
##NPOINTS=47
##PEAK TABLE=(XY..XY)
26,230 27,1440 29,800 30,390
38,110 39,1270 40,230 41,2240
42,5099 43,5709 45,150 50,100
51,190 52,170 53,450 54,400
55,1480 56,630 57,1390 58,1780
59,120 65,130 66,110 68,330
69,460 70,4000 71,1410 72,130
77,100 78,120 79,100 80,180
81,220 82,350 83,140 84,330
85,140 94,220 96,610 97,130
98,1410 99,160 110,180 111,200
112,9999 113,4500 114,320
##END=
