##TITLE=Phenol, 2-bromo-4-chloro-
##JCAMP-DX=4.24
##DATA TYPE=MASS SPECTRUM
##ORIGIN=Japan AIST/NIMC Database- Spectrum MS-NW-7114
##OWNER=NIST Mass Spectrometry Data Center
Collection (C) 2014 copyright by the U.S. Secretary of Commerce
on behalf of the United States of America. All rights reserved.
##CAS REGISTRY NO=695-96-5
##$NIST MASS SPEC NO=235794
##MOLFORM=C6 H4 Br Cl O
##MW=206
##$NIST SOURCE=MSDC
##XUNITS=M/Z
##YUNITS=RELATIVE INTENSITY
##XFACTOR=1
##YFACTOR=1
##FIRSTX=12
##LASTX=212
##FIRSTY=10
##MAXX=212
##MINX=12
##MAXY=9999
##MINY=10
##NPOINTS=132
##PEAK TABLE=(XY..XY)
12,10 14,30 16,10 24,10
25,60 26,99 27,50 28,70
29,129 30,10 31,179 35,30
36,149 37,609 38,549 39,369
40,20 41,20 42,30 43,20
44,70 45,60 46,50 47,70
48,139 49,519 50,349 51,90
52,20 53,769 54,50 55,40
57,20 60,169 61,689 62,1169
63,4179 64,519 65,80 66,129
67,20 70,20 71,179 72,359
73,919 74,329 75,339 76,30
77,20 78,10 79,80 80,60
81,70 82,50 83,10 84,40
85,229 86,229 87,40 88,10
89,50 90,90 91,179 92,159
93,30 94,10 95,10 96,30
97,189 98,2549 99,2439 100,979
101,829 102,60 103,309 104,409
105,119 106,10 107,10 108,10
109,20 110,30 111,10 112,10
115,10 116,30 117,119 118,40
119,129 120,10 123,10 125,10
126,969 127,669 128,419 129,249
130,50 131,30 133,20 140,10
141,50 142,50 143,139 144,50
145,90 146,10 150,10 151,40
152,10 153,60 154,10 155,20
162,30 164,20 170,119 171,30
172,109 173,30 177,179 178,30
179,239 180,20 181,70 204,10
205,50 206,7519 207,569 208,9999
209,689 210,2399 211,179 212,10
##END=
