##TITLE=Pyridine, 2,3,5-trimethyl-
##JCAMP-DX=4.24
##DATA TYPE=MASS SPECTRUM
##OWNER=NIST Mass Spectrometry Data Center
Collection (C) 2014 copyright by the U.S. Secretary of Commerce
on behalf of the United States of America. All rights reserved.
##CAS REGISTRY NO=695-98-7
##$NIST MASS SPEC NO=2202
##MOLFORM=C8 H11 N
##MW=121
##$NIST SOURCE=MSDC
##XUNITS=M/Z
##YUNITS=RELATIVE INTENSITY
##XFACTOR=1
##YFACTOR=1
##FIRSTX=26
##LASTX=122
##FIRSTY=430
##MAXX=122
##MINX=26
##MAXY=9999
##MINY=30
##NPOINTS=45
##PEAK TABLE=(XY..XY)
26,430 27,1992 28,1371 29,200
30,30 32,150 37,220 38,661
39,2993 40,480 41,841 42,791
43,420 50,701 51,1521 52,961
53,1181 54,260 62,240 63,571
64,200 65,621 66,230 67,140
74,120 75,160 76,100 77,1722
78,671 79,2903 80,701 83,180
91,530 92,190 93,631 94,280
104,140 105,110 106,2642 107,60
118,120 119,490 120,4714 121,9999
122,931
##END=
