##TITLE=2,5-Cyclohexadiene-1,4-dione, 2-chloro-
##JCAMP-DX=4.24
##DATA TYPE=MASS SPECTRUM
##OWNER=NIST Mass Spectrometry Data Center
Collection (C) 2014 copyright by the U.S. Secretary of Commerce
on behalf of the United States of America. All rights reserved.
##CAS REGISTRY NO=695-99-8
##$NIST MASS SPEC NO=3949
##MOLFORM=C6 H3 Cl O2
##MW=142
##$NIST SOURCE=MSDC
##XUNITS=M/Z
##YUNITS=RELATIVE INTENSITY
##XFACTOR=1
##YFACTOR=1
##FIRSTX=15
##LASTX=145
##FIRSTY=100
##MAXX=145
##MINX=15
##MAXY=9999
##MINY=100
##NPOINTS=82
##PEAK TABLE=(XY..XY)
15,100 17,240 18,469 24,700
25,3200 26,7999 27,300 28,1300
29,500 30,100 31,300 32,200
35,635 36,700 37,1507 38,400
39,200 40,200 41,300 42,100
43,300 44,400 45,200 47,300
48,400 49,1250 50,2230 51,2700
52,1300 53,5920 54,8799 55,300
56,100 57,100 58,100 59,300
60,5670 61,1000 62,2120 63,300
64,100 69,100 71,100 72,200
73,200 74,100 77,200 78,100
79,4600 80,400 81,100 82,6499
83,300 84,200 85,210 86,2200
87,500 88,4800 89,400 90,1240
91,200 94,100 95,100 96,100
97,100 98,100 99,100 107,300
108,200 109,100 114,4300 115,290
116,1630 117,200 118,200 123,100
124,100 141,200 142,9999 143,700
144,3800 145,300
##END=
