##TITLE=Cyclohexane, ethenyl-
##JCAMP-DX=4.24
##DATA TYPE=MASS SPECTRUM
##ORIGIN=Japan AIST/NIMC Database- Spectrum MS-IW-1591
##OWNER=NIST Mass Spectrometry Data Center
Collection (C) 2014 copyright by the U.S. Secretary of Commerce
on behalf of the United States of America. All rights reserved.
##CAS REGISTRY NO=695-12-5
##$NIST MASS SPEC NO=235658
##MOLFORM=C8 H14
##MW=110
##$NIST SOURCE=MSDC
##XUNITS=M/Z
##YUNITS=RELATIVE INTENSITY
##XFACTOR=1
##YFACTOR=1
##FIRSTX=15
##LASTX=112
##FIRSTY=10
##MAXX=112
##MINX=15
##MAXY=9999
##MINY=10
##NPOINTS=52
##PEAK TABLE=(XY..XY)
15,10 26,40 27,689 28,169
29,359 37,10 38,60 39,1409
40,259 41,2709 42,219 43,129
45,10 46,10 50,99 51,239
52,149 53,849 54,2929 55,1269
56,219 57,10 62,20 63,50
64,10 65,329 66,369 67,6799
68,2279 69,1259 70,80 74,10
77,259 78,60 79,729 80,609
81,9999 82,3919 83,279 84,10
91,99 92,10 93,99 94,20
95,2079 96,169 97,10 107,10
109,169 110,2499 111,229 112,10
##END=
