##TITLE=Benzenethiol, 4-methoxy-
##JCAMP-DX=4.24
##DATA TYPE=MASS SPECTRUM
##ORIGIN=NIST Mass Spectrometry Data Center
##OWNER=NIST Mass Spectrometry Data Center
Collection (C) 2014 copyright by the U.S. Secretary of Commerce
on behalf of the United States of America. All rights reserved.
##CAS REGISTRY NO=696-63-9
##$NIST MASS SPEC NO=352990
##MOLFORM=C7 H8 O S
##MW=140
##$NIST SOURCE=MSDC
##XUNITS=M/Z
##YUNITS=RELATIVE INTENSITY
##XFACTOR=1
##YFACTOR=1
##FIRSTX=14
##LASTX=143
##FIRSTY=10
##MAXX=143
##MINX=14
##MAXY=9999
##MINY=10
##NPOINTS=98
##PEAK TABLE=(XY..XY)
14,10 15,170 25,10 26,50
27,80 28,20 29,80 30,20
31,20 32,20 33,20 34,10
35,10 36,10 37,80 38,180
39,330 40,20 41,60 42,10
43,10 44,20 45,721 46,30
47,70 48,10 49,50 50,280
51,260 52,130 53,761 54,50
55,50 56,10 57,90 58,120
59,40 60,20 61,120 62,260
63,601 64,220 65,380 66,140
67,70 68,60 69,1091 70,811
71,320 72,50 73,50 74,160
75,110 76,50 77,320 78,140
79,190 80,30 81,150 82,180
83,50 84,80 85,50 86,10
87,10 92,180 93,110 94,130
95,721 96,981 97,3523 98,410
99,190 100,20 105,30 106,30
107,140 108,260 109,310 110,300
111,130 112,30 113,10 114,20
121,20 122,10 123,50 124,480
125,7827 126,641 127,400 128,30
137,10 139,1311 140,9999 141,951
142,520 143,40
##END=
