##TITLE=Aziridine, 1-phenyl-
##JCAMP-DX=4.24
##DATA TYPE=MASS SPECTRUM
##OWNER=NIST Mass Spectrometry Data Center
Collection (C) 2014 copyright by the U.S. Secretary of Commerce
on behalf of the United States of America. All rights reserved.
##CAS REGISTRY NO=696-18-4
##$NIST MASS SPEC NO=2110
##MOLFORM=C8 H9 N
##MW=119
##$NIST SOURCE=MSDC
##XUNITS=M/Z
##YUNITS=RELATIVE INTENSITY
##XFACTOR=1
##YFACTOR=1
##FIRSTX=27
##LASTX=120
##FIRSTY=300
##MAXX=120
##MINX=27
##MAXY=9999
##MINY=100
##NPOINTS=21
##PEAK TABLE=(XY..XY)
27,300 28,200 38,200 39,500
40,100 41,400 42,601 50,400
51,1201 52,300 63,300 64,400
65,701 77,2702 78,400 91,9999
92,1001 104,701 118,901 119,4004
120,400
##END=
