##TITLE=Cyclooctyl alcohol
##JCAMP-DX=4.24
##DATA TYPE=MASS SPECTRUM
##ORIGIN=Japan AIST/NIMC Database- Spectrum MS-NW-1321
##OWNER=NIST Mass Spectrometry Data Center
Collection (C) 2014 copyright by the U.S. Secretary of Commerce
on behalf of the United States of America. All rights reserved.
##CAS REGISTRY NO=696-71-9
##$NIST MASS SPEC NO=229932
##MOLFORM=C8 H16 O
##MW=128
##$NIST SOURCE=MSDC
##XUNITS=M/Z
##YUNITS=RELATIVE INTENSITY
##XFACTOR=1
##YFACTOR=1
##FIRSTX=14
##LASTX=128
##FIRSTY=10
##MAXX=128
##MINX=14
##MAXY=9999
##MINY=10
##NPOINTS=75
##PEAK TABLE=(XY..XY)
14,10 15,149 16,10 17,30
18,109 26,109 27,1649 28,339
29,1739 30,119 31,779 32,30
37,20 38,60 39,1479 40,319
41,4359 42,1749 43,2409 44,2429
45,689 46,20 48,10 49,10
50,50 51,129 52,50 53,549
54,2129 55,2919 56,2149 57,9999
58,979 59,119 60,10 62,10
63,20 65,99 66,739 67,4159
68,4359 69,1599 70,299 71,989
72,499 73,80 77,70 78,20
79,159 80,159 81,3329 82,4009
83,369 84,869 85,899 86,259
87,30 91,20 93,30 94,10
95,1269 96,119 97,159 98,149
99,499 100,189 101,10 108,10
109,90 110,1129 111,119 113,20
126,30 127,70 128,10
##END=
