##TITLE=Arsine,dimethylphenyl-
##JCAMP-DX=4.24
##DATA TYPE=MASS SPECTRUM
##ORIGIN=Frank Antolasic, RMIT Applied Chemistry Department, Victoria Australia 3001
##OWNER=NIST Mass Spectrometry Data Center
Collection (C) 2014 copyright by the U.S. Secretary of Commerce
on behalf of the United States of America. All rights reserved.
##CAS REGISTRY NO=696-26-4
##$NIST MASS SPEC NO=334197
##MOLFORM=C8 H11 As
##MW=182
##$NIST SOURCE=MSDC
##XUNITS=M/Z
##YUNITS=RELATIVE INTENSITY
##XFACTOR=1
##YFACTOR=1
##FIRSTX=18
##LASTX=183
##FIRSTY=0
##MAXX=183
##MINX=18
##MAXY=9999
##MINY=0
##NPOINTS=44
##PEAK TABLE=(XY..XY)
18,0 26,90 27,360 38,200
39,561 50,871 51,2152 52,280
61,120 62,110 63,601 65,821
73,90 74,370 75,390 76,200
77,1241 78,631 79,470 89,1982
91,9999 92,751 100,841 101,611
102,170 103,641 105,320 112,320
113,410 114,130 123,100 124,571
125,611 126,330 139,360 148,110
151,3133 152,1942 153,250 165,2432
167,9469 168,671 182,7257 183,621
##END=
