##TITLE=Phenyldichloroarsine
##JCAMP-DX=4.24
##DATA TYPE=MASS SPECTRUM
##ORIGIN=A.A.Kutin, Moscow, Russia
##OWNER=NIST Mass Spectrometry Data Center
Collection (C) 2014 copyright by the U.S. Secretary of Commerce
on behalf of the United States of America. All rights reserved.
##CAS REGISTRY NO=696-28-6
##$NIST MASS SPEC NO=273363
##MOLFORM=C6 H5 As Cl2
##MW=222
##$NIST SOURCE=MSDC
##XUNITS=M/Z
##YUNITS=RELATIVE INTENSITY
##XFACTOR=1
##YFACTOR=1
##FIRSTX=36
##LASTX=226
##FIRSTY=721
##MAXX=226
##MINX=36
##MAXY=9999
##MINY=190
##NPOINTS=29
##PEAK TABLE=(XY..XY)
36,721 38,190 39,190 50,1001
51,2372 74,400 75,300 76,300
77,7517 78,811 100,390 101,210
110,911 112,2072 114,791 124,190
125,190 151,2172 152,801 154,1501
186,1081 187,9999 188,1001 189,3363
222,5815 223,400 224,4574 225,290
226,701
##END=
