##TITLE=4-Isopropylpyridine
##JCAMP-DX=4.24
##DATA TYPE=MASS SPECTRUM
##ORIGIN=NIST Mass Spectrometry Data Center, 2009
##OWNER=NIST Mass Spectrometry Data Center
Collection (C) 2014 copyright by the U.S. Secretary of Commerce
on behalf of the United States of America. All rights reserved.
##CAS REGISTRY NO=696-30-0
##$NIST MASS SPEC NO=373155
##MOLFORM=C8 H11 N
##MW=121
##$NIST SOURCE=MSDC
##XUNITS=M/Z
##YUNITS=RELATIVE INTENSITY
##XFACTOR=1
##YFACTOR=1
##FIRSTX=15
##LASTX=123
##FIRSTY=30
##MAXX=123
##MINX=15
##MAXY=9999
##MINY=10
##NPOINTS=61
##PEAK TABLE=(XY..XY)
15,30 26,70 27,260 28,170
29,20 37,40 38,120 39,641
40,100 41,310 42,40 43,70
45,10 46,10 49,50 50,661
51,1561 52,751 53,510 54,240
55,20 58,30 59,30 61,40
62,110 63,290 64,90 65,380
66,90 67,90 68,20 73,10
74,80 75,90 76,140 77,1541
78,1391 79,1221 80,510 81,30
86,10 87,10 88,10 89,50
90,40 91,220 92,290 93,230
94,50 102,20 103,30 104,430
105,260 106,9999 107,841 108,30
119,220 120,1541 121,6126 122,571
123,20
##END=
