##TITLE=Benzenamine, N,3-dimethyl-
##JCAMP-DX=4.24
##DATA TYPE=MASS SPECTRUM
##ORIGIN=Japan AIST/NIMC Database- Spectrum MS-NW-5064
##OWNER=NIST Mass Spectrometry Data Center
Collection (C) 2014 copyright by the U.S. Secretary of Commerce
on behalf of the United States of America. All rights reserved.
##CAS REGISTRY NO=696-44-6
##$NIST MASS SPEC NO=229639
##MOLFORM=C8 H11 N
##MW=121
##$NIST SOURCE=MSDC
##XUNITS=M/Z
##YUNITS=RELATIVE INTENSITY
##XFACTOR=1
##YFACTOR=1
##FIRSTX=14
##LASTX=123
##FIRSTY=10
##MAXX=123
##MINX=14
##MAXY=9999
##MINY=10
##NPOINTS=74
##PEAK TABLE=(XY..XY)
14,10 15,70 26,30 27,189
28,109 29,30 30,209 36,20
37,50 38,129 39,589 40,70
41,159 42,129 43,20 44,20
45,30 46,40 47,50 49,20
50,219 51,469 52,279 53,209
54,80 55,30 56,20 57,10
58,269 59,619 60,339 61,60
62,139 63,379 64,139 65,909
66,119 67,40 68,20 72,10
73,10 74,60 75,60 76,90
77,989 78,339 79,519 80,149
81,20 85,20 86,40 87,30
88,10 89,249 90,179 91,2239
92,659 93,439 94,80 102,20
103,70 104,209 105,139 106,679
107,99 108,10 116,20 117,40
118,339 119,249 120,9999 121,9579
122,869 123,40
##END=
