##TITLE=Pervinyloctasilsesquioxane
##JCAMP-DX=4.24
##DATA TYPE=MASS SPECTRUM
##ORIGIN=Institute of Organic Chemistry, Novosibirsk, USSR 1988
##OWNER=NIST Mass Spectrometry Data Center
Collection (C) 2014 copyright by the U.S. Secretary of Commerce
on behalf of the United States of America. All rights reserved.
##CAS REGISTRY NO=69655-76-1
##$NIST MASS SPEC NO=102823
##MOLFORM=C16 H24 O12 Si8
##MW=632
##$NIST SOURCE=MSDC
##XUNITS=M/Z
##YUNITS=RELATIVE INTENSITY
##XFACTOR=1
##YFACTOR=1
##FIRSTX=54
##LASTX=635
##FIRSTY=309
##MAXX=635
##MINX=54
##MAXY=9999
##MINY=39
##NPOINTS=110
##PEAK TABLE=(XY..XY)
54,309 223,139 224,89 235,89
236,349 237,189 242,39 243,109
248,189 249,709 250,329 255,109
256,309 257,129 261,289 262,1299
263,699 264,149 268,179 269,1339
270,539 271,99 274,269 275,2489
276,319 277,569 281,249 282,529
283,259 288,629 289,2589 290,969
291,339 295,319 296,169 302,239
303,299 316,59 447,49 453,149
454,59 455,279 473,149 474,69
479,139 480,59 481,499 482,219
483,219 485,99 486,59 497,389
498,209 499,479 500,209 501,179
505,149 507,609 508,289 509,309
510,149 511,179 512,109 513,149
525,1039 526,479 527,529 528,189
529,119 535,159 536,89 537,289
538,249 539,429 540,219 541,209
549,789 550,489 551,2969 552,1779
553,1729 554,789 555,439 556,149
565,1059 566,849 567,529 577,179
578,89 579,49 580,139 581,749
582,289 591,419 592,389 593,109
594,469 603,469 604,299 605,9999
606,5769 607,2489 608,1459 609,919
610,949 611,339 632,1709 633,989
634,799 635,389
##END=
