##TITLE=3-Octenoic acid, ethyl ester, (Z)-
##JCAMP-DX=4.24
##DATA TYPE=MASS SPECTRUM
##ORIGIN=FOOD RESEARCH REPORT 118, K.E. MURRAY & COLLEAGUES, DIV. OF FOOD RESEARCH, CSIRO, AUSTRALIA
##OWNER=NIST Mass Spectrometry Data Center
Collection (C) 2014 copyright by the U.S. Secretary of Commerce
on behalf of the United States of America. All rights reserved.
##CAS REGISTRY NO=69668-87-7
##$NIST MASS SPEC NO=53383
##MOLFORM=C10 H18 O2
##MW=170
##$NIST SOURCE=MSDC
##XUNITS=M/Z
##YUNITS=RELATIVE INTENSITY
##XFACTOR=1
##YFACTOR=1
##FIRSTX=25
##LASTX=171
##FIRSTY=10
##MAXX=171
##MINX=25
##MAXY=9999
##MINY=10
##NPOINTS=97
##PEAK TABLE=(XY..XY)
25,10 26,210 27,2650 28,930
29,7110 30,160 31,240 32,10
37,10 38,60 39,1810 40,270
41,3560 42,570 43,1930 44,1690
45,400 46,40 47,10 49,10
50,60 51,160 52,120 53,820
54,1930 55,9999 56,860 57,710
58,100 59,60 60,520 61,550
62,20 63,40 64,10 65,160
66,110 67,1060 68,330 69,660
70,620 71,510 72,40 73,330
74,100 75,10 77,110 78,40
79,160 80,70 81,1570 82,2650
83,840 84,80 85,220 86,70
87,160 88,2650 89,160 90,10
91,40 92,10 93,50 94,40
95,630 96,2170 97,1750 98,150
99,580 100,120 101,360 102,70
103,10 105,10 106,40 107,10
109,50 110,10 111,20 112,10
113,130 114,20 115,80 122,10
123,190 124,1450 125,550 126,50
127,130 128,160 129,20 141,170
142,40 155,10 169,20 170,240
171,10
##END=
