##TITLE=2,6-Dibromo-4-methylaniline
##JCAMP-DX=4.24
##DATA TYPE=MASS SPECTRUM
##ORIGIN=NIST Mass Spectrometry Data Center
##OWNER=NIST Mass Spectrometry Data Center
Collection (C) 2014 copyright by the U.S. Secretary of Commerce
on behalf of the United States of America. All rights reserved.
##CAS REGISTRY NO=6968-24-7
##$NIST MASS SPEC NO=342581
##MOLFORM=C7 H7 Br2 N
##MW=263
##$NIST SOURCE=MSDC
##XUNITS=M/Z
##YUNITS=RELATIVE INTENSITY
##XFACTOR=1
##YFACTOR=1
##FIRSTX=12
##LASTX=268
##FIRSTY=100
##MAXX=268
##MINX=12
##MAXY=9999
##MINY=20
##NPOINTS=99
##PEAK TABLE=(XY..XY)
12,100 13,20 14,150 15,310
16,140 17,20 24,40 25,270
26,1411 27,2402 28,2172 29,150
30,230 31,60 37,1541 38,2282
39,2082 40,310 41,340 42,300
43,80 44,200 48,180 49,1191
50,4714 51,7687 52,8177 54,921
55,70 60,240 61,1121 62,1531
63,1461 64,881 65,1601 66,390
72,120 73,490 74,1531 75,2042
76,3033 77,5435 78,4104 79,1271
80,490 81,771 82,350 83,130
84,100 85,230 86,370 87,310
88,230 89,280 90,270 92,1071
93,851 99,100 100,170 102,801
104,6326 105,4194 106,601 107,180
108,100 116,80 117,160 118,190
119,220 120,60 128,90 129,120
130,160 131,170 132,410 134,80
141,70 142,60 143,90 154,40
155,80 156,230 157,270 158,420
159,240 160,90 169,50 182,540
184,7026 185,1481 186,6516 187,571
262,2062 263,5185 264,4754 265,9999
266,2813 267,4914 268,420
##END=
