##TITLE=Cyclobutene, hexafluoro-
##JCAMP-DX=4.24
##DATA TYPE=MASS SPECTRUM
##ORIGIN=MC-110
##OWNER=NIST Mass Spectrometry Data Center
Collection (C) 2014 copyright by the U.S. Secretary of Commerce
on behalf of the United States of America. All rights reserved.
##CAS REGISTRY NO=697-11-0
##$NIST MASS SPEC NO=30286
##MOLFORM=C4 F6
##MW=162
##$NIST SOURCE=MSDC
##XUNITS=M/Z
##YUNITS=RELATIVE INTENSITY
##XFACTOR=1
##YFACTOR=1
##FIRSTX=19
##LASTX=164
##FIRSTY=131
##MAXX=164
##MINX=19
##MAXY=9999
##MINY=1
##NPOINTS=44
##PEAK TABLE=(XY..XY)
19,131 24,104 25,290 31,5139
32,55 36,117 37,8 43,164
44,4 48,9 49,1 50,400
51,5 55,465 56,16 62,587
63,12 67,6 69,748 70,8
74,768 75,26 81,64 82,2
86,23 87,1 90,10 93,9999
94,332 95,3 100,374 101,8
105,11 112,1917 113,60 124,137
125,5 131,234 132,6 143,1870
144,76 162,2930 163,123 164,3
##END=
