##TITLE=2,5-Cyclohexadiene-1,4-dione, 2,6-dichloro-
##JCAMP-DX=4.24
##DATA TYPE=MASS SPECTRUM
##ORIGIN=Japan AIST/NIMC Database- Spectrum MS-NW-1105
##OWNER=NIST Mass Spectrometry Data Center
Collection (C) 2014 copyright by the U.S. Secretary of Commerce
on behalf of the United States of America. All rights reserved.
##CAS REGISTRY NO=697-91-6
##$NIST MASS SPEC NO=233501
##MOLFORM=C6 H2 Cl2 O2
##MW=176
##$NIST SOURCE=MSDC
##XUNITS=M/Z
##YUNITS=RELATIVE INTENSITY
##XFACTOR=1
##YFACTOR=1
##FIRSTX=12
##LASTX=182
##FIRSTY=60
##MAXX=182
##MINX=12
##MAXY=9999
##MINY=10
##NPOINTS=106
##PEAK TABLE=(XY..XY)
12,60 13,30 14,70 16,40
24,219 25,879 26,109 27,20
28,70 29,119 31,20 35,239
36,299 37,559 38,90 39,50
40,50 41,80 42,20 43,20
44,179 45,20 47,239 48,249
49,979 50,1589 51,279 52,429
53,6629 54,259 55,30 56,40
57,20 58,10 59,219 60,5919
61,649 62,1839 63,319 65,90
69,50 71,60 72,109 73,90
74,30 75,30 76,10 77,149
78,50 79,229 80,40 81,10
82,10 83,50 84,389 85,1829
86,359 87,1129 88,6239 89,519
90,2059 91,90 94,50 95,40
96,70 97,80 98,20 99,20
105,70 106,10 108,10 111,10
113,3949 114,539 115,1329 116,1659
117,80 118,499 119,50 120,3999
121,189 122,2539 123,169 124,419
125,60 141,2329 142,249 143,759
144,80 145,10 147,40 148,2199
149,159 150,1429 151,90 152,229
153,10 156,10 175,10 176,9999
177,679 178,6969 179,489 180,1509
181,109 182,99
##END=
