##TITLE=Phenol, 2,3,5-trimethyl-
##JCAMP-DX=4.24
##DATA TYPE=MASS SPECTRUM
##ORIGIN=Japan AIST/NIMC Database- Spectrum MS-NW-4230
##OWNER=NIST Mass Spectrometry Data Center
Collection (C) 2014 copyright by the U.S. Secretary of Commerce
on behalf of the United States of America. All rights reserved.
##CAS REGISTRY NO=697-82-5
##$NIST MASS SPEC NO=232023
##MOLFORM=C9 H12 O
##MW=136
##$NIST SOURCE=MSDC
##XUNITS=M/Z
##YUNITS=RELATIVE INTENSITY
##XFACTOR=1
##YFACTOR=1
##FIRSTX=15
##LASTX=138
##FIRSTY=50
##MAXX=138
##MINX=15
##MAXY=9999
##MINY=10
##NPOINTS=89
##PEAK TABLE=(XY..XY)
15,50 18,40 26,50 27,439
28,40 29,139 31,10 37,40
38,109 39,819 40,139 41,509
42,30 43,259 44,10 45,20
46,10 49,20 50,199 51,549
52,199 53,439 54,50 55,189
56,10 57,40 58,30 59,20
60,40 61,30 62,90 63,249
64,70 65,559 66,189 67,359
68,99 69,30 73,10 74,60
75,60 76,40 77,1199 78,289
79,569 80,60 81,60 82,30
85,10 86,20 87,20 88,10
89,90 90,50 91,2199 92,369
93,1029 94,149 95,50 96,20
98,10 101,10 102,70 103,389
104,70 105,329 106,80 107,339
108,219 109,40 110,10 114,10
115,279 116,80 117,539 118,289
119,229 120,80 121,9999 122,959
123,60 131,10 132,10 133,50
134,99 135,2359 136,8719 137,869
138,60
##END=
