##TITLE=4-Bromo-2,6-dichloroaniline
##JCAMP-DX=4.24
##DATA TYPE=MASS SPECTRUM
##ORIGIN=NIST Mass Spectrometry Data Center, 1994
##OWNER=NIST Mass Spectrometry Data Center
Collection (C) 2014 copyright by the U.S. Secretary of Commerce
on behalf of the United States of America. All rights reserved.
##CAS REGISTRY NO=697-86-9
##$NIST MASS SPEC NO=133729
##MOLFORM=C6 H4 Br Cl2 N
##MW=239
##$NIST SOURCE=MSDC
##XUNITS=M/Z
##YUNITS=RELATIVE INTENSITY
##XFACTOR=1
##YFACTOR=1
##FIRSTX=25
##LASTX=246
##FIRSTY=58
##MAXX=246
##MINX=25
##MAXY=9999
##MINY=30
##NPOINTS=118
##PEAK TABLE=(XY..XY)
25,58 26,96 28,577 35,173
36,264 37,862 38,564 39,233
40,59 41,119 45,715 47,290
48,269 49,426 50,392 51,348
52,1207 53,134 60,533 61,1737
62,2477 63,1492 64,289 65,423
66,58 71,151 72,478 73,797
74,558 75,520 76,259 77,113
78,71 79,58 80,475 81,440
83,122 84,151 85,139 86,350
87,348 88,1089 89,953 90,980
91,103 93,45 95,146 96,371
97,1306 98,375 99,543 100,135
101,119 102,165 104,62 106,68
107,142 108,109 109,133 110,47
115,41 116,62 117,122 118,71
119,433 120,581 121,323 124,3213
125,823 126,1092 127,368 128,37
129,57 131,154 133,659 134,110
135,470 137,76 140,35 141,107
142,30 143,118 151,93 152,41
153,116 160,2630 161,278 162,1588
163,146 164,270 167,67 168,206
169,103 170,201 171,37 176,79
177,121 178,113 179,144 180,32
181,47 202,32 203,271 204,142
205,318 206,148 207,89 208,34
211,137 213,234 215,100 239,6292
241,9999 242,751 243,4340 244,354
245,586 246,53
##END=
