##TITLE=3,4,5-Triethoxybenzoic acid
##JCAMP-DX=4.24
##DATA TYPE=MASS SPECTRUM
##ORIGIN=NIST Mass Spectrometry Data Center
##OWNER=NIST Mass Spectrometry Data Center
Collection (C) 2014 copyright by the U.S. Secretary of Commerce
on behalf of the United States of America. All rights reserved.
##CAS REGISTRY NO=6970-19-0
##$NIST MASS SPEC NO=343380
##MOLFORM=C13 H18 O5
##MW=254
##$NIST SOURCE=MSDC
##XUNITS=M/Z
##YUNITS=RELATIVE INTENSITY
##XFACTOR=1
##YFACTOR=1
##FIRSTX=15
##LASTX=256
##FIRSTY=130
##MAXX=256
##MINX=15
##MAXY=9999
##MINY=50
##NPOINTS=77
##PEAK TABLE=(XY..XY)
15,130 17,50 27,1341 29,2322
38,250 39,881 40,160 41,360
43,370 44,190 45,350 50,260
51,591 52,130 53,400 55,330
57,160 62,80 63,190 64,160
65,240 66,330 67,621 68,180
69,470 71,100 77,210 78,220
79,701 80,120 81,220 84,190
91,220 93,190 95,310 96,190
97,190 107,450 108,130 109,140
111,150 112,110 113,1301 119,130
120,90 121,190 123,370 124,200
125,290 126,90 135,310 136,120
137,160 141,891 142,120 151,200
152,400 153,1381 154,210 169,5045
170,9999 171,881 172,170 181,510
182,130 197,711 198,2682 199,280
207,80 209,160 225,390 226,2893
227,390 240,180 254,6376 255,901
256,90
##END=
