##TITLE=Cyclohexanone, 2-(dimethylamino)-
##JCAMP-DX=4.24
##DATA TYPE=MASS SPECTRUM
##OWNER=NIST Mass Spectrometry Data Center
Collection (C) 2014 copyright by the U.S. Secretary of Commerce
on behalf of the United States of America. All rights reserved.
##CAS REGISTRY NO=6970-60-1
##$NIST MASS SPEC NO=3792
##MOLFORM=C8 H15 N O
##MW=141
##$NIST SOURCE=MSDC
##XUNITS=M/Z
##YUNITS=RELATIVE INTENSITY
##XFACTOR=1
##YFACTOR=1
##FIRSTX=38
##LASTX=142
##FIRSTY=61
##MAXX=142
##MINX=38
##MAXY=9999
##MINY=61
##NPOINTS=36
##PEAK TABLE=(XY..XY)
38,61 39,703 40,158 41,970
42,2569 43,545 44,970 45,400
46,97 50,97 51,182 53,109
54,121 55,364 56,509 57,242
58,1212 67,61 68,242 69,109
70,2363 71,667 77,461 82,364
83,267 84,9999 85,1091 86,85
97,61 98,461 110,145 112,242
113,1115 114,97 141,824 142,97
##END=
