##TITLE=2H-Pyran-2-one, 5,6-dihydro-4,6,6-trimethyl-
##JCAMP-DX=4.24
##DATA TYPE=MASS SPECTRUM
##OWNER=NIST Mass Spectrometry Data Center
Collection (C) 2014 copyright by the U.S. Secretary of Commerce
on behalf of the United States of America. All rights reserved.
##CAS REGISTRY NO=6970-56-5
##$NIST MASS SPEC NO=3703
##MOLFORM=C8 H12 O2
##MW=140
##$NIST SOURCE=MSDC
##XUNITS=M/Z
##YUNITS=RELATIVE INTENSITY
##XFACTOR=1
##YFACTOR=1
##FIRSTX=27
##LASTX=140
##FIRSTY=1051
##MAXX=140
##MINX=27
##MAXY=9999
##MINY=100
##NPOINTS=23
##PEAK TABLE=(XY..XY)
27,1051 28,1571 29,150 39,1932
40,200 41,711 43,7196 44,701
51,170 52,100 53,530 54,1231
55,881 56,350 67,170 81,100
82,9999 83,1051 84,100 97,440
125,2462 126,250 140,170
##END=
