##TITLE=2(3H)-Furanone, dihydro-4,5-dimethyl-
##JCAMP-DX=4.24
##DATA TYPE=MASS SPECTRUM
##OWNER=NIST Mass Spectrometry Data Center
Collection (C) 2014 copyright by the U.S. Secretary of Commerce
on behalf of the United States of America. All rights reserved.
##CAS REGISTRY NO=6971-63-7
##$NIST MASS SPEC NO=32336
##MOLFORM=C6 H10 O2
##MW=114
##$NIST SOURCE=MSDC
##XUNITS=M/Z
##YUNITS=RELATIVE INTENSITY
##XFACTOR=1
##YFACTOR=1
##FIRSTX=37
##LASTX=115
##FIRSTY=378
##MAXX=115
##MINX=37
##MAXY=9999
##MINY=13
##NPOINTS=25
##PEAK TABLE=(XY..XY)
37,378 38,644 39,3089 41,3822
42,9999 43,4311 45,3911 46,178
50,244 51,244 52,156 53,400
54,133 55,2489 56,933 57,67
67,111 69,200 70,1533 71,578
85,267 99,289 113,24 114,91
115,13
##END=
