##TITLE=Butanoic acid, 4-hexenyl ester, (Z)-
##JCAMP-DX=4.24
##DATA TYPE=MASS SPECTRUM
##ORIGIN=FOOD RESEARCH REPORT 120, K.E. MURRAY & COLLEAGUES, DIV. OF FOOD RESEARCH, CSIRO, AUSTRALIA
##OWNER=NIST Mass Spectrometry Data Center
Collection (C) 2014 copyright by the U.S. Secretary of Commerce
on behalf of the United States of America. All rights reserved.
##CAS REGISTRY NO=69727-41-9
##$NIST MASS SPEC NO=53542
##MOLFORM=C10 H18 O2
##MW=170
##$NIST SOURCE=MSDC
##XUNITS=M/Z
##YUNITS=RELATIVE INTENSITY
##XFACTOR=1
##YFACTOR=1
##FIRSTX=26
##LASTX=89
##FIRSTY=200
##MAXX=89
##MINX=26
##MAXY=9999
##MINY=100
##NPOINTS=33
##PEAK TABLE=(XY..XY)
26,200 27,2500 29,1500 31,200
38,100 39,1800 40,400 41,3500
42,800 43,5100 45,200 51,100
52,100 53,700 54,1600 55,2800
56,3000 57,200 65,100 66,100
67,9999 68,800 69,400 71,2800
72,200 79,200 80,100 81,800
82,5700 83,600 84,200 85,400
89,200
##END=
