##TITLE=Thiourea, N,N-dimethyl-
##JCAMP-DX=4.24
##DATA TYPE=MASS SPECTRUM
##ORIGIN=A G. LOUDON.
##OWNER=NIST Mass Spectrometry Data Center
Collection (C) 2014 copyright by the U.S. Secretary of Commerce
on behalf of the United States of America. All rights reserved.
##CAS REGISTRY NO=6972-05-0
##$NIST MASS SPEC NO=39691
##MOLFORM=C3 H8 N2 S
##MW=104
##$NIST SOURCE=MSDC
##XUNITS=M/Z
##YUNITS=RELATIVE INTENSITY
##XFACTOR=1
##YFACTOR=1
##FIRSTX=30
##LASTX=106
##FIRSTY=1900
##MAXX=106
##MINX=30
##MAXY=9999
##MINY=100
##NPOINTS=35
##PEAK TABLE=(XY..XY)
30,1900 33,100 34,100 36,100
40,100 41,200 42,1200 43,500
44,5700 45,600 46,100 47,100
52,100 53,100 55,200 56,100
57,100 58,100 59,400 60,1700
61,300 62,100 63,200 70,100
71,400 72,200 73,100 75,100
76,100 84,100 88,300 89,100
104,9999 105,500 106,500
##END=
