##TITLE=6-(Octylthio)purine
##JCAMP-DX=4.24
##DATA TYPE=MASS SPECTRUM
##ORIGIN=NIST Mass Spectrometry Data Center, 1994
##OWNER=NIST Mass Spectrometry Data Center
Collection (C) 2014 copyright by the U.S. Secretary of Commerce
on behalf of the United States of America. All rights reserved.
##CAS REGISTRY NO=6974-89-6
##$NIST MASS SPEC NO=136164
##MOLFORM=C13 H20 N4 S
##MW=264
##$NIST SOURCE=MSDC
##XUNITS=M/Z
##YUNITS=RELATIVE INTENSITY
##XFACTOR=1
##YFACTOR=1
##FIRSTX=18
##LASTX=267
##FIRSTY=397
##MAXX=267
##MINX=18
##MAXY=9999
##MINY=7
##NPOINTS=124
##PEAK TABLE=(XY..XY)
18,397 26,88 27,1858 28,1263
38,225 39,1254 40,381 41,4012
42,546 43,1822 44,178 45,703
46,137 47,206 51,91 52,90
53,566 54,160 55,1191 56,220
57,299 58,88 59,134 60,140
61,125 64,89 65,751 66,638
67,520 68,91 69,421 70,814
71,353 72,169 73,109 77,87
79,75 80,111 81,61 82,68
83,198 84,118 85,61 87,97
88,31 91,79 92,837 93,1083
94,347 96,48 97,581 98,364
99,106 100,49 101,52 105,57
106,73 107,47 108,51 109,65
110,54 111,66 119,2417 120,1071
121,985 122,78 123,47 124,516
125,1690 126,346 127,79 133,37
134,339 135,162 136,146 138,232
145,120 147,1756 148,383 149,67
152,9999 153,4316 154,753 155,196
158,74 159,107 160,75 161,452
162,177 163,55 164,55 165,1320
166,7423 167,671 168,346 173,111
175,87 176,433 177,177 178,55
179,3094 180,298 181,146 187,78
189,234 190,45 193,44 194,234
203,507 204,336 205,62 207,261
208,67 217,1201 218,148 221,446
222,101 231,566 232,90 235,268
264,1169 265,195 266,65 267,7
##END=
