##TITLE=Benzoic acid, 4-methoxy-, decyl ester
##JCAMP-DX=4.24
##DATA TYPE=MASS SPECTRUM
##ORIGIN=Zaikin V.G., TIPS RAS, Moscow, Russia
##OWNER=NIST Mass Spectrometry Data Center
Collection (C) 2014 copyright by the U.S. Secretary of Commerce
on behalf of the United States of America. All rights reserved.
##CAS REGISTRY NO=6974-04-5
##$NIST MASS SPEC NO=292415
##MOLFORM=C18 H28 O3
##MW=292
##$NIST SOURCE=MSDC
##XUNITS=M/Z
##YUNITS=RELATIVE INTENSITY
##XFACTOR=1
##YFACTOR=1
##FIRSTX=27
##LASTX=294
##FIRSTY=10
##MAXX=294
##MINX=27
##MAXY=9999
##MINY=10
##NPOINTS=63
##PEAK TABLE=(XY..XY)
27,10 29,40 36,10 38,10
39,30 41,130 42,30 43,110
44,20 50,10 51,10 53,10
54,10 55,170 56,70 57,50
63,30 64,60 65,20 67,30
68,20 69,90 70,70 71,10
76,30 77,270 78,30 79,20
81,20 82,10 83,60 84,30
92,230 93,20 94,10 97,30
98,10 104,20 105,20 106,10
107,170 108,30 109,60 110,10
111,10 112,10 119,10 120,10
121,20 135,3263 136,310 137,30
138,10 151,10 152,9999 153,2112
154,200 155,10 165,30 275,20
292,460 293,100 294,10
##END=
