##TITLE=1H-Indene, 4,7-dimethyl-
##JCAMP-DX=4.24
##DATA TYPE=MASS SPECTRUM
##ORIGIN=James Little,Eastman Chem.Co.,Kingsport,TN
##OWNER=NIST Mass Spectrometry Data Center
Collection (C) 2014 copyright by the U.S. Secretary of Commerce
on behalf of the United States of America. All rights reserved.
##CAS REGISTRY NO=6974-97-6
##$NIST MASS SPEC NO=289011
##MOLFORM=C11 H12
##MW=144
##$NIST SOURCE=MSDC
##XUNITS=M/Z
##YUNITS=RELATIVE INTENSITY
##XFACTOR=1
##YFACTOR=1
##FIRSTX=39
##LASTX=145
##FIRSTY=671
##MAXX=145
##MINX=39
##MAXY=9999
##MINY=130
##NPOINTS=38
##PEAK TABLE=(XY..XY)
39,671 43,220 50,430 51,711
55,480 62,340 63,741 64,310
65,310 71,390 74,310 76,200
77,470 78,200 87,210 88,771
89,340 91,240 100,380 101,160
102,440 103,170 109,350 110,370
115,1531 116,340 125,130 126,260
127,1611 128,4234 129,9999 130,1231
139,240 141,671 142,270 143,1551
144,7547 145,1001
##END=
