##TITLE=Acetamide, N-(2,4-dichlorophenyl)-
##JCAMP-DX=4.24
##DATA TYPE=MASS SPECTRUM
##ORIGIN=Japan AIST/NIMC Database- Spectrum MS-IW-4339
##OWNER=NIST Mass Spectrometry Data Center
Collection (C) 2014 copyright by the U.S. Secretary of Commerce
on behalf of the United States of America. All rights reserved.
##CAS REGISTRY NO=6975-29-7
##$NIST MASS SPEC NO=244383
##MOLFORM=C8 H7 Cl2 N O
##MW=203
##$NIST SOURCE=MSDC
##XUNITS=M/Z
##YUNITS=RELATIVE INTENSITY
##XFACTOR=1
##YFACTOR=1
##FIRSTX=14
##LASTX=208
##FIRSTY=10
##MAXX=208
##MINX=14
##MAXY=9999
##MINY=10
##NPOINTS=101
##PEAK TABLE=(XY..XY)
14,10 15,90 28,40 36,20
37,70 38,80 39,60 40,20
41,30 42,80 43,2659 44,60
47,20 49,50 50,70 51,50
52,119 53,10 60,20 61,139
62,269 63,539 64,129 65,60
66,10 71,10 72,80 73,349
74,159 75,189 76,30 77,20
78,10 83,60 84,30 85,60
86,30 87,50 88,99 89,90
90,479 91,99 96,20 97,159
98,169 99,409 100,90 101,129
102,20 103,10 104,10 105,20
107,50 108,10 109,109 110,30
111,70 112,10 113,10 124,219
125,369 126,439 127,179 128,119
129,20 133,469 134,109 135,299
136,80 137,50 138,20 139,10
140,10 145,20 147,10 159,30
160,129 161,9999 162,809 163,6499
164,469 165,1039 166,70 167,20
168,979 169,99 170,329 171,30
172,10 174,40 176,20 187,40
188,30 189,20 190,10 203,1879
204,179 205,1219 206,109 207,199
208,20
##END=
