##TITLE=2-Propenamide, N,N,2-trimethyl-
##JCAMP-DX=4.24
##DATA TYPE=MASS SPECTRUM
##ORIGIN=Japan AIST/NIMC Database- Spectrum MS-NW-3119
##OWNER=NIST Mass Spectrometry Data Center
Collection (C) 2014 copyright by the U.S. Secretary of Commerce
on behalf of the United States of America. All rights reserved.
##CAS REGISTRY NO=6976-91-6
##$NIST MASS SPEC NO=231310
##MOLFORM=C6 H11 N O
##MW=113
##$NIST SOURCE=MSDC
##XUNITS=M/Z
##YUNITS=RELATIVE INTENSITY
##XFACTOR=1
##YFACTOR=1
##FIRSTX=14
##LASTX=115
##FIRSTY=40
##MAXX=115
##MINX=14
##MAXY=9999
##MINY=10
##NPOINTS=60
##PEAK TABLE=(XY..XY)
14,40 15,899 16,10 17,10
18,30 25,10 26,70 27,189
28,339 29,50 30,99 31,10
37,99 38,229 39,1749 40,539
41,9999 42,1959 43,379 44,1439
45,249 46,40 50,20 51,20
52,20 53,99 54,30 55,229
56,249 57,20 58,2459 59,90
66,20 67,20 68,189 69,5399
70,379 71,40 72,3269 73,149
74,10 77,20 81,20 82,20
83,20 84,80 85,30 86,10
94,20 96,20 97,40 98,989
99,70 100,10 110,20 111,70
112,4889 113,5149 114,439 115,30
##END=
