##TITLE=p-Toluic acid, pentyl ester
##JCAMP-DX=4.24
##DATA TYPE=MASS SPECTRUM
##ORIGIN=Zaikin V.G., TIPS RAS, Moscow, Russia
##OWNER=NIST Mass Spectrometry Data Center
Collection (C) 2014 copyright by the U.S. Secretary of Commerce
on behalf of the United States of America. All rights reserved.
##CAS REGISTRY NO=6976-74-5
##$NIST MASS SPEC NO=292400
##MOLFORM=C13 H18 O2
##MW=206
##$NIST SOURCE=MSDC
##XUNITS=M/Z
##YUNITS=RELATIVE INTENSITY
##XFACTOR=1
##YFACTOR=1
##FIRSTX=28
##LASTX=207
##FIRSTY=10
##MAXX=207
##MINX=28
##MAXY=9999
##MINY=10
##NPOINTS=33
##PEAK TABLE=(XY..XY)
28,10 36,70 41,30 44,50
55,80 63,70 65,360 69,50
70,240 77,60 89,240 90,200
91,2542 92,390 93,260 105,50
107,60 118,80 119,9999 120,981
121,90 135,100 136,8568 137,6846
138,641 139,50 149,150 150,30
177,60 189,100 205,40 206,480
207,80
##END=
