##TITLE=2H-Pyran-2-one, tetrahydro-6-propyl-
##JCAMP-DX=4.24
##DATA TYPE=MASS SPECTRUM
##ORIGIN=Japan AIST/NIMC Database- Spectrum MS-IW-4029
##OWNER=NIST Mass Spectrometry Data Center
Collection (C) 2014 copyright by the U.S. Secretary of Commerce
on behalf of the United States of America. All rights reserved.
##CAS REGISTRY NO=698-76-0
##$NIST MASS SPEC NO=237168
##MOLFORM=C8 H14 O2
##MW=142
##$NIST SOURCE=MSDC
##XUNITS=M/Z
##YUNITS=RELATIVE INTENSITY
##XFACTOR=1
##YFACTOR=1
##FIRSTX=15
##LASTX=143
##FIRSTY=40
##MAXX=143
##MINX=15
##MAXY=9999
##MINY=10
##NPOINTS=64
##PEAK TABLE=(XY..XY)
15,40 18,30 26,40 27,779
28,169 29,509 30,10 31,30
38,20 39,609 40,129 41,1679
42,4009 43,2209 44,209 45,40
50,10 51,30 52,10 53,129
54,139 55,2819 56,629 57,189
58,70 59,10 60,70 65,20
66,10 67,179 68,169 69,399
70,3489 71,4409 72,289 73,80
74,10 77,10 79,20 80,10
81,80 82,149 83,109 84,20
85,30 86,129 87,20 91,10
95,40 96,129 97,30 98,70
99,9999 100,819 101,70 109,10
113,109 114,879 115,70 124,359
125,60 141,40 142,99 143,10
##END=
