##TITLE=Phenol, 3-ethyl-5-methyl-
##JCAMP-DX=4.24
##DATA TYPE=MASS SPECTRUM
##OWNER=NIST Mass Spectrometry Data Center
Collection (C) 2014 copyright by the U.S. Secretary of Commerce
on behalf of the United States of America. All rights reserved.
##CAS REGISTRY NO=698-71-5
##$NIST MASS SPEC NO=3350
##MOLFORM=C9 H12 O
##MW=136
##$NIST SOURCE=MSDC
##XUNITS=M/Z
##YUNITS=RELATIVE INTENSITY
##XFACTOR=1
##YFACTOR=1
##FIRSTX=12
##LASTX=138
##FIRSTY=10
##MAXX=138
##MINX=12
##MAXY=9999
##MINY=10
##NPOINTS=104
##PEAK TABLE=(XY..XY)
12,10 13,10 14,40 15,330
16,10 17,10 18,10 19,10
25,10 26,220 27,1041 28,200
29,300 30,10 31,30 32,10
36,10 37,70 38,250 39,1171
40,170 41,430 42,60 43,170
44,20 45,20 46,10 48,10
49,40 50,330 51,761 52,320
53,601 54,70 55,290 56,20
57,30 58,30 59,30 60,30
61,50 62,140 63,360 64,110
65,550 66,290 67,340 68,50
69,40 70,10 71,10 73,20
74,100 75,90 76,70 77,1571
78,360 79,390 80,60 81,90
82,20 83,10 85,20 86,30
87,40 89,120 90,90 91,1561
92,240 93,270 94,110 95,60
96,10 97,10 98,10 99,10
101,20 102,70 103,310 104,50
105,190 106,50 107,751 108,691
109,180 113,20 114,20 115,190
116,60 117,130 118,60 119,150
120,160 121,9999 122,891 123,60
131,30 132,20 133,90 134,80
135,611 136,5885 137,571 138,40
##END=
