##TITLE=Dioxacarb
##JCAMP-DX=4.24
##DATA TYPE=MASS SPECTRUM
##ORIGIN=NIST Mass Spectrometry Data Center, 1998.
##OWNER=NIST Mass Spectrometry Data Center
Collection (C) 2014 copyright by the U.S. Secretary of Commerce
on behalf of the United States of America. All rights reserved.
##CAS REGISTRY NO=6988-21-2
##$NIST MASS SPEC NO=290481
##MOLFORM=C11 H13 N O4
##MW=223
##$NIST SOURCE=MSDC
##XUNITS=M/Z
##YUNITS=RELATIVE INTENSITY
##XFACTOR=1
##YFACTOR=1
##FIRSTX=14
##LASTX=178
##FIRSTY=20
##MAXX=178
##MINX=14
##MAXY=9999
##MINY=10
##NPOINTS=91
##PEAK TABLE=(XY..XY)
14,20 15,150 26,80 27,550
28,870 29,500 30,60 31,50
37,60 38,250 39,1190 40,170
41,40 42,100 43,300 44,70
45,1650 46,50 47,20 49,20
50,450 51,1030 52,300 53,360
54,90 55,280 56,880 57,2240
58,720 59,30 61,60 62,180
63,580 64,340 65,1650 66,460
67,60 68,30 69,10 73,2650
74,210 75,120 76,590 77,1450
78,660 79,260 80,40 81,90
82,50 87,10 89,60 90,80
91,150 92,460 93,850 94,1210
95,160 102,30 103,30 104,1310
105,720 106,110 107,1660 108,210
109,50 110,10 118,30 119,80
120,420 121,9999 122,4590 123,460
124,40 133,30 134,20 135,260
136,70 137,50 138,60 147,20
148,150 149,1250 150,110 151,10
162,10 163,90 165,3920 166,4930
167,470 168,50 178,20
##END=
