##TITLE=2-(Phenylthio)ethanol
##JCAMP-DX=4.24
##DATA TYPE=MASS SPECTRUM
##ORIGIN=NIST Mass Spectrometry Data Center
##OWNER=NIST Mass Spectrometry Data Center
Collection (C) 2014 copyright by the U.S. Secretary of Commerce
on behalf of the United States of America. All rights reserved.
##CAS REGISTRY NO=699-12-7
##$NIST MASS SPEC NO=342468
##MOLFORM=C8 H10 O S
##MW=154
##$NIST SOURCE=MSDC
##XUNITS=M/Z
##YUNITS=RELATIVE INTENSITY
##XFACTOR=1
##YFACTOR=1
##FIRSTX=14
##LASTX=157
##FIRSTY=110
##MAXX=157
##MINX=14
##MAXY=9999
##MINY=10
##NPOINTS=88
##PEAK TABLE=(XY..XY)
14,110 15,180 16,10 17,10
18,30 19,150 25,20 26,200
27,721 28,210 29,581 31,961
32,50 37,70 38,270 39,1211
40,90 41,20 42,140 43,430
45,6746 46,400 47,430 48,40
49,80 50,951 51,2302 52,230
53,110 54,10 55,20 56,30
57,200 58,290 59,180 60,40
61,80 62,150 63,350 65,1541
66,1021 67,60 69,911 70,90
71,150 73,60 74,320 75,190
76,180 77,1982 78,671 79,971
80,70 81,150 82,280 83,130
84,400 85,30 89,90 91,651
92,60 93,60 94,20 95,30
97,160 98,10 104,20 105,20
107,40 108,350 109,1441 110,4564
111,460 112,260 121,240 123,9999
124,1091 125,571 126,40 134,30
135,240 136,50 137,20 152,30
154,6856 155,741 156,370 157,10
##END=
