##TITLE=Resorcinol, 2-acetyl-
##JCAMP-DX=4.24
##DATA TYPE=MASS SPECTRUM
##ORIGIN=NIST Mass Spectrometry Data Center
##OWNER=NIST Mass Spectrometry Data Center
Collection (C) 2014 copyright by the U.S. Secretary of Commerce
on behalf of the United States of America. All rights reserved.
##CAS REGISTRY NO=699-83-2
##$NIST MASS SPEC NO=341973
##MOLFORM=C8 H8 O3
##MW=152
##$NIST SOURCE=MSDC
##XUNITS=M/Z
##YUNITS=RELATIVE INTENSITY
##XFACTOR=1
##YFACTOR=1
##FIRSTX=14
##LASTX=153
##FIRSTY=240
##MAXX=153
##MINX=14
##MAXY=9999
##MINY=60
##NPOINTS=55
##PEAK TABLE=(XY..XY)
14,240 15,440 19,70 26,220
27,711 28,70 29,460 31,130
37,210 38,460 39,1131 40,140
41,340 42,260 43,1311 44,150
49,90 50,530 51,791 52,550
53,1231 54,230 55,811 61,150
62,330 63,651 64,190 65,170
66,230 67,150 69,410 74,130
75,120 76,90 77,510 78,621
79,230 80,310 81,1922 82,210
91,150 105,320 106,130 107,360
108,460 109,310 110,130 123,120
134,100 135,60 137,9999 138,731
139,180 152,4014 153,350
##END=
