##TITLE=Bicyclo[2.2.2]octane-1-carboxylic acid
##JCAMP-DX=4.24
##DATA TYPE=MASS SPECTRUM
##ORIGIN=RH-5
##OWNER=NIST Mass Spectrometry Data Center
Collection (C) 2014 copyright by the U.S. Secretary of Commerce
on behalf of the United States of America. All rights reserved.
##CAS REGISTRY NO=699-55-8
##$NIST MASS SPEC NO=5134
##MOLFORM=C9 H14 O2
##MW=154
##$NIST SOURCE=MSDC
##XUNITS=M/Z
##YUNITS=RELATIVE INTENSITY
##XFACTOR=1
##YFACTOR=1
##FIRSTX=13
##LASTX=156
##FIRSTY=10
##MAXX=156
##MINX=13
##MAXY=9999
##MINY=10
##NPOINTS=92
##PEAK TABLE=(XY..XY)
13,10 14,60 15,400 16,50
17,60 18,110 19,50 26,700
27,3210 28,1270 29,1270 31,120
37,210 38,580 39,4999 40,960
41,3820 42,480 43,760 44,60
45,3920 46,150 47,50 49,120
50,990 51,1900 52,920 53,2870
54,1160 55,1930 56,190 57,180
61,110 62,230 63,560 64,140
65,1160 66,910 67,6649 68,840
69,700 70,140 71,100 73,160
74,230 75,260 76,60 77,2760
78,1210 79,5229 80,2160 81,3800
82,400 83,250 84,60 85,70
86,130 87,50 89,60 91,1030
92,230 93,760 94,380 95,240
96,100 97,500 98,180 99,180
103,120 105,300 106,140 107,640
108,1000 109,8989 110,830 111,540
112,150 121,100 122,110 123,870
124,1150 125,6509 126,880 127,90
136,110 137,60 139,140 152,260
153,230 154,9999 155,1050 156,100
##END=
