##TITLE=Benzaldehyde, 4-hydroxy-, oxime
##JCAMP-DX=4.24
##DATA TYPE=MASS SPECTRUM
##ORIGIN=LAC, NIDDK, NIH, Bethesda, MD 20892
##OWNER=NIST Mass Spectrometry Data Center
Collection (C) 2014 copyright by the U.S. Secretary of Commerce
on behalf of the United States of America. All rights reserved.
##CAS REGISTRY NO=699-06-9
##$NIST MASS SPEC NO=128921
##MOLFORM=C7 H7 N O2
##MW=137
##$NIST SOURCE=MSDC
##XUNITS=M/Z
##YUNITS=RELATIVE INTENSITY
##XFACTOR=1
##YFACTOR=1
##FIRSTX=41
##LASTX=139
##FIRSTY=92
##MAXX=139
##MINX=41
##MAXY=9999
##MINY=14
##NPOINTS=56
##PEAK TABLE=(XY..XY)
41,92 42,71 43,91 44,111
45,49 46,61 49,57 50,360
51,466 52,296 53,527 54,148
55,230 60,152 61,145 62,306
63,807 64,645 65,2474 66,368
67,101 68,129 69,197 73,19
74,147 75,134 76,94 77,351
78,240 79,93 80,275 81,388
82,306 90,149 91,302 92,314
93,1629 94,5165 95,384 102,34
105,178 106,72 107,14 108,62
109,92 110,683 111,56 118,63
119,550 120,647 121,296 122,58
136,548 137,9999 138,863 139,80
##END=
