##TITLE=endo-5,6-Bis(hydroxymethyl)bicyclo[2.2.1]hept-2-ene
##JCAMP-DX=4.24
##DATA TYPE=MASS SPECTRUM
##ORIGIN=F. TURECEK,HEYROVSKY INST PHYS CHEM & ELECTROCHEM,PRAGUE,CZECH
##OWNER=NIST Mass Spectrometry Data Center
Collection (C) 2014 copyright by the U.S. Secretary of Commerce
on behalf of the United States of America. All rights reserved.
##CAS REGISTRY NO=699-97-8
##$NIST MASS SPEC NO=105267
##MOLFORM=C9 H14 O2
##MW=154
##$NIST SOURCE=MSDC
##XUNITS=M/Z
##YUNITS=RELATIVE INTENSITY
##XFACTOR=1
##YFACTOR=1
##FIRSTX=26
##LASTX=136
##FIRSTY=100
##MAXX=136
##MINX=26
##MAXY=9999
##MINY=60
##NPOINTS=44
##PEAK TABLE=(XY..XY)
26,100 27,660 28,280 29,360
31,660 38,160 39,1330 40,520
41,900 42,320 43,280 44,160
50,120 51,340 52,110 53,250
54,80 55,160 57,360 63,160
65,800 66,9999 67,1090 68,90
69,420 70,300 71,620 77,570
78,300 79,530 80,200 85,120
86,120 87,220 89,480 91,560
92,160 93,120 103,100 105,230
106,100 118,90 121,60 136,60
##END=
