##TITLE=5-Hydroxyindoleacetic acid, 2TMS derivative
##JCAMP-DX=4.24
##DATA TYPE=MASS SPECTRUM
##ORIGIN=NIST Mass Spectrometry Data Center
##OWNER=NIST Mass Spectrometry Data Center
Collection (C) 2014 copyright by the U.S. Secretary of Commerce
on behalf of the United States of America. All rights reserved.
##CAS REGISTRY NO=69937-41-3
##$NIST MASS SPEC NO=333517
##MOLFORM=C16 H25 N O3 Si2
##MW=335
##$NIST SOURCE=MSDC
##XUNITS=M/Z
##YUNITS=RELATIVE INTENSITY
##XFACTOR=1
##YFACTOR=1
##FIRSTX=28
##LASTX=339
##FIRSTY=10
##MAXX=339
##MINX=28
##MAXY=9999
##MINY=10
##NPOINTS=183
##PEAK TABLE=(XY..XY)
28,10 29,20 31,10 39,10
42,10 43,110 44,60 45,591
46,40 47,140 48,10 50,10
51,30 52,20 53,20 54,10
55,20 56,10 57,30 58,50
59,90 60,20 61,90 62,10
63,40 64,10 65,20 66,10
67,10 69,10 70,10 71,20
73,3663 74,360 75,1041 76,110
77,100 78,20 79,10 83,10
85,10 86,70 88,20 89,110
90,60 91,60 92,10 93,20
95,10 99,10 100,20 101,140
102,190 103,100 104,20 105,30
106,10 107,10 108,10 109,10
113,10 114,30 115,230 116,90
117,160 118,50 119,30 120,10
121,30 122,10 123,10 127,40
128,350 129,490 130,160 131,60
132,30 133,70 134,20 135,20
136,10 140,20 141,40 142,210
143,200 144,150 145,110 146,500
147,310 148,60 149,40 150,10
152,150 154,30 155,10 156,60
157,20 158,50 159,40 160,110
161,30 162,30 163,10 169,10
170,90 171,30 172,130 173,50
174,100 175,40 176,20 177,10
182,10 183,10 184,50 185,60
186,150 187,60 188,761 189,140
190,50 191,10 198,10 199,10
200,80 201,50 202,641 203,420
204,140 205,30 206,10 214,20
215,30 216,430 217,300 218,9999
219,2102 220,571 221,70 222,10
230,40 231,20 232,80 233,30
234,30 235,10 244,10 245,30
246,40 247,20 248,20 249,10
258,10 260,40 261,10 262,50
263,10 264,10 272,10 274,50
275,20 276,200 277,60 278,20
288,10 290,260 291,160 292,370
293,100 294,30 295,10 304,20
305,10 306,20 320,891 321,240
322,90 323,20 335,3954 336,1121
337,450 338,80 339,20
##END=
