##TITLE=Mephenoxalone
##JCAMP-DX=4.24
##DATA TYPE=MASS SPECTRUM
##ORIGIN=MI-0123
##OWNER=NIST Mass Spectrometry Data Center
Collection (C) 2014 copyright by the U.S. Secretary of Commerce
on behalf of the United States of America. All rights reserved.
##CAS REGISTRY NO=70-07-5
##$NIST MASS SPEC NO=10575
##MOLFORM=C11 H13 N O4
##MW=223
##$NIST SOURCE=MSDC
##XUNITS=M/Z
##YUNITS=RELATIVE INTENSITY
##XFACTOR=1
##YFACTOR=1
##FIRSTX=38
##LASTX=225
##FIRSTY=290
##MAXX=225
##MINX=38
##MAXY=9999
##MINY=10
##NPOINTS=70
##PEAK TABLE=(XY..XY)
38,290 39,731 40,200 41,881
42,711 43,591 44,520 45,120
50,480 51,891 52,1291 53,430
54,290 55,430 56,891 57,500
58,320 62,170 63,510 64,530
65,951 66,180 67,310 68,50
69,270 70,300 71,210 72,40
74,160 75,120 76,190 77,2092
78,390 79,360 80,450 81,1041
82,170 83,100 86,210 91,170
92,661 93,370 94,210 95,1291
96,250 97,140 98,100 99,10
100,320 107,250 108,360 109,4064
110,450 111,160 121,440 122,1591
123,1451 124,9999 125,951 126,170
135,190 136,10 137,831 138,520
139,120 148,200 149,190 223,6946
224,991 225,190
##END=
