##TITLE=Ethanone, 2-bromo-1-phenyl-
##JCAMP-DX=4.24
##DATA TYPE=MASS SPECTRUM
##ORIGIN=Japan AIST/NIMC Database- Spectrum MS-NW-1802
##OWNER=NIST Mass Spectrometry Data Center
Collection (C) 2014 copyright by the U.S. Secretary of Commerce
on behalf of the United States of America. All rights reserved.
##CAS REGISTRY NO=70-11-1
##$NIST MASS SPEC NO=228686
##MOLFORM=C8 H7 Br O
##MW=198
##$NIST SOURCE=MSDC
##XUNITS=M/Z
##YUNITS=RELATIVE INTENSITY
##XFACTOR=1
##YFACTOR=1
##FIRSTX=14
##LASTX=201
##FIRSTY=40
##MAXX=201
##MINX=14
##MAXY=9999
##MINY=10
##NPOINTS=64
##PEAK TABLE=(XY..XY)
14,40 15,10 17,10 18,50
26,40 27,159 28,40 29,10
32,10 37,109 38,229 39,529
40,30 41,70 42,239 43,60
44,20 45,40 49,99 50,1229
51,2579 52,169 53,20 60,10
61,80 62,189 63,329 64,70
65,459 66,20 73,80 74,399
75,249 76,369 77,4919 78,359
79,60 80,20 81,50 82,20
85,20 86,30 87,20 89,149
90,90 91,1459 92,109 93,80
94,10 95,70 98,10 102,40
103,10 104,30 105,9999 106,769
107,40 118,10 120,30 171,10
198,149 199,10 200,149 201,10
##END=
