##TITLE=Chrysanthemumic acid 2,4-dimethylbenzyl ester
##JCAMP-DX=4.24
##DATA TYPE=MASS SPECTRUM
##ORIGIN=H. Fales, LC, NHLBI, NIH, Bethesda, MD 20892
##OWNER=NIST Mass Spectrometry Data Center
Collection (C) 2014 copyright by the U.S. Secretary of Commerce
on behalf of the United States of America. All rights reserved.
##CAS REGISTRY NO=70-38-2
##$NIST MASS SPEC NO=116738
##MOLFORM=C19 H26 O2
##MW=286
##$NIST SOURCE=MSDC
##XUNITS=M/Z
##YUNITS=RELATIVE INTENSITY
##XFACTOR=1
##YFACTOR=1
##FIRSTX=41
##LASTX=287
##FIRSTY=857
##MAXX=287
##MINX=41
##MAXY=9999
##MINY=1
##NPOINTS=150
##PEAK TABLE=(XY..XY)
41,857 42,60 43,558 44,39
45,21 50,30 51,112 52,55
53,284 54,33 55,307 56,36
57,87 58,19 59,112 60,5
62,11 63,53 64,18 65,237
66,57 67,271 68,34 69,210
70,23 71,37 72,13 73,4
74,5 75,13 76,18 77,565
78,183 79,493 80,69 81,874
82,77 83,164 84,34 85,44
86,18 87,12 89,41 90,20
91,1180 92,123 93,345 94,46
95,203 96,44 97,54 98,19
99,12 101,14 102,46 103,302
104,304 105,295 106,40 107,259
108,88 109,140 110,43 111,71
112,18 113,18 114,1 115,241
116,54 117,488 118,480 119,9999
120,1555 121,245 122,81 123,4557
124,464 125,65 126,55 127,13
128,1 129,6 130,1 131,5
132,21 133,126 134,33 135,49
136,21 137,22 138,2 139,45
140,9 141,10 143,13 145,10
147,6 149,41 150,17 151,39
152,23 153,30 154,1 155,9
157,11 158,1 159,17 160,22
161,13 165,6 166,27 167,83
168,21 169,8 171,18 172,8
173,10 176,7 180,11 181,1
183,7 185,13 186,121 187,73
188,13 191,1 197,6 199,1
205,1 215,3 218,1 223,2
225,2 227,2 230,25 231,11
236,2 237,19 238,2 241,7
243,17 244,16 251,1 253,1
262,3 267,1 271,7 285,13
286,131 287,29
##END=
