##TITLE=Butanedioic acid, mercapto-
##JCAMP-DX=4.24
##DATA TYPE=MASS SPECTRUM
##ORIGIN=MASS SPECTROMETRY CENTER, UNIV. OF UTAH ALDRICH M00618-2
##OWNER=NIST Mass Spectrometry Data Center
Collection (C) 2014 copyright by the U.S. Secretary of Commerce
on behalf of the United States of America. All rights reserved.
##CAS REGISTRY NO=70-49-5
##$NIST MASS SPEC NO=52541
##MOLFORM=C4 H6 O4 S
##MW=150
##$NIST SOURCE=MSDC
##XUNITS=M/Z
##YUNITS=RELATIVE INTENSITY
##XFACTOR=1
##YFACTOR=1
##FIRSTX=12
##LASTX=134
##FIRSTY=125
##MAXX=134
##MINX=12
##MAXY=9999
##MINY=19
##NPOINTS=68
##PEAK TABLE=(XY..XY)
12,125 13,122 15,457 24,27
25,390 26,1967 27,6895 28,970
29,1341 31,201 32,280 33,1223
34,1768 35,1851 36,387 37,167
38,145 39,43 41,163 42,1011
43,2102 44,3239 45,9999 46,809
47,820 48,89 52,99 53,685
54,468 55,2828 56,436 57,691
58,4463 59,5490 60,4112 61,1295
62,293 63,986 64,42 69,112
71,626 72,1312 73,719 74,388
75,207 76,583 77,19 81,98
85,152 86,2545 87,4323 88,1188
89,315 90,175 91,108 98,206
99,1040 100,263 101,29 103,114
104,6006 105,878 106,465 114,241
117,20 132,5922 133,334 134,319
##END=
