##TITLE=Benzenamine, 2-methoxy-N,N-dimethyl-
##JCAMP-DX=4.24
##DATA TYPE=MASS SPECTRUM
##ORIGIN=NIST Mass Spectrometry Data Center, 2010
##OWNER=NIST Mass Spectrometry Data Center
Collection (C) 2014 copyright by the U.S. Secretary of Commerce
on behalf of the United States of America. All rights reserved.
##CAS REGISTRY NO=700-75-4
##$NIST MASS SPEC NO=374449
##MOLFORM=C9 H13 N O
##MW=151
##$NIST SOURCE=MSDC
##XUNITS=M/Z
##YUNITS=RELATIVE INTENSITY
##XFACTOR=1
##YFACTOR=1
##FIRSTX=14
##LASTX=153
##FIRSTY=10
##MAXX=153
##MINX=14
##MAXY=9999
##MINY=10
##NPOINTS=84
##PEAK TABLE=(XY..XY)
14,10 15,210 26,30 27,90
29,50 30,80 31,10 37,50
38,150 39,530 40,80 41,190
42,2762 43,140 44,450 45,20
46,30 49,20 50,320 51,801
52,500 53,190 54,50 55,60
56,10 58,70 59,10 61,60
62,140 63,540 64,390 65,1441
66,641 67,450 68,70 69,10
73,10 74,110 75,170 76,180
77,1121 78,540 79,480 80,280
81,70 82,20 87,10 88,20
89,30 90,130 91,631 92,791
93,821 94,130 95,150 96,10
102,20 103,30 104,340 105,220
106,611 107,1191 108,1752 109,190
110,10 116,10 117,70 118,571
119,150 120,2752 121,601 122,100
123,10 132,90 134,2652 135,1201
136,7116 137,631 138,40 148,20
150,1171 151,9999 152,991 153,70
##END=
