##TITLE=2,3,5,6-Tetrafluoroaniline
##JCAMP-DX=4.24
##DATA TYPE=MASS SPECTRUM
##ORIGIN=Japan AIST/NIMC Database- Spectrum MS-NW-7082
##OWNER=NIST Mass Spectrometry Data Center
Collection (C) 2014 copyright by the U.S. Secretary of Commerce
on behalf of the United States of America. All rights reserved.
##CAS REGISTRY NO=700-17-4
##$NIST MASS SPEC NO=235588
##MOLFORM=C6 H3 F4 N
##MW=165
##$NIST SOURCE=MSDC
##XUNITS=M/Z
##YUNITS=RELATIVE INTENSITY
##XFACTOR=1
##YFACTOR=1
##FIRSTX=14
##LASTX=167
##FIRSTY=40
##MAXX=167
##MINX=14
##MAXY=9999
##MINY=10
##NPOINTS=116
##PEAK TABLE=(XY..XY)
14,40 20,20 26,10 27,20
28,739 29,20 31,949 32,40
33,10 36,40 37,179 38,70
39,20 40,20 41,20 43,20
44,90 45,20 46,239 47,10
48,20 49,40 50,80 51,299
52,99 53,10 55,109 56,249
57,209 58,30 59,60 60,40
61,99 62,50 63,80 64,209
65,40 66,20 67,20 68,389
69,649 70,509 71,50 72,129
73,20 74,189 75,739 76,309
77,30 79,169 80,159 81,80
82,619 83,99 84,10 85,50
86,90 87,249 88,949 89,60
90,90 91,10 92,10 93,299
94,469 95,519 96,129 97,10
98,109 99,1089 100,209 101,40
102,10 103,20 105,30 106,149
107,60 108,20 110,10 112,20
113,90 114,169 115,60 116,10
117,259 118,2239 119,709 120,90
121,90 124,90 125,479 126,289
127,40 128,10 129,10 130,10
132,10 133,10 134,529 135,40
136,30 137,1639 138,829 139,50
143,10 144,359 145,959 146,209
147,20 149,20 150,10 163,30
164,499 165,9999 166,739 167,30
##END=
