##TITLE=1,4-Benzenediol, 2,3,5-trimethyl-
##JCAMP-DX=4.24
##DATA TYPE=MASS SPECTRUM
##ORIGIN=Japan AIST/NIMC Database- Spectrum MS-NW-2664
##OWNER=NIST Mass Spectrometry Data Center
Collection (C) 2014 copyright by the U.S. Secretary of Commerce
on behalf of the United States of America. All rights reserved.
##CAS REGISTRY NO=700-13-0
##$NIST MASS SPEC NO=231611
##MOLFORM=C9 H12 O2
##MW=152
##$NIST SOURCE=MSDC
##XUNITS=M/Z
##YUNITS=RELATIVE INTENSITY
##XFACTOR=1
##YFACTOR=1
##FIRSTX=15
##LASTX=154
##FIRSTY=40
##MAXX=154
##MINX=15
##MAXY=9999
##MINY=10
##NPOINTS=95
##PEAK TABLE=(XY..XY)
15,40 18,20 26,40 27,399
28,109 29,119 31,20 37,30
38,90 39,669 40,189 41,469
42,30 43,769 44,20 45,20
46,10 47,10 49,10 50,99
51,279 52,119 53,389 54,119
55,339 56,20 57,20 59,10
60,30 61,30 62,60 63,90
64,30 65,259 66,119 67,369
68,149 69,309 70,20 74,30
75,60 76,249 77,529 78,129
79,539 80,109 81,429 82,50
83,109 87,10 89,30 90,40
91,619 92,70 93,109 94,109
95,299 96,50 97,20 102,10
103,90 104,30 105,279 106,99
107,559 108,309 109,1309 110,229
111,20 115,50 116,20 117,40
118,20 119,249 120,40 121,159
122,159 123,649 124,199 125,20
131,10 132,10 133,299 134,199
135,649 136,70 137,5419 138,519
139,40 149,20 150,209 151,2059
152,9999 153,1039 154,90
##END=
