##TITLE=Benzene, 1-isocyanato-2-methoxy-
##JCAMP-DX=4.24
##DATA TYPE=MASS SPECTRUM
##ORIGIN=Japan AIST/NIMC Database- Spectrum MS-NW-9669
##OWNER=NIST Mass Spectrometry Data Center
Collection (C) 2014 copyright by the U.S. Secretary of Commerce
on behalf of the United States of America. All rights reserved.
##CAS REGISTRY NO=700-87-8
##$NIST MASS SPEC NO=239143
##MOLFORM=C8 H7 N O2
##MW=149
##$NIST SOURCE=MSDC
##XUNITS=M/Z
##YUNITS=RELATIVE INTENSITY
##XFACTOR=1
##YFACTOR=1
##FIRSTX=15
##LASTX=151
##FIRSTY=80
##MAXX=151
##MINX=15
##MAXY=9999
##MINY=10
##NPOINTS=65
##PEAK TABLE=(XY..XY)
15,80 26,109 27,309 28,249
29,40 31,10 37,129 38,209
39,349 40,40 41,20 42,10
43,30 44,30 45,20 46,40
49,40 50,349 51,1709 52,499
53,90 54,70 56,10 60,10
61,50 62,99 63,289 64,249
65,159 66,129 67,30 73,10
74,50 75,80 76,149 77,219
78,2509 79,279 80,60 87,10
88,20 89,10 90,209 91,90
92,129 93,349 94,60 104,30
105,40 106,3739 107,269 108,449
109,30 119,60 120,4449 121,439
122,30 133,10 134,5129 135,429
136,30 148,119 149,9999 150,959
151,80
##END=
