##TITLE=2,4,6,8-Tetrathiatricyclo[3.3.1.1(3,7)]decane, 1,3,5,7-tetramethyl-
##JCAMP-DX=4.24
##DATA TYPE=MASS SPECTRUM
##ORIGIN=R RYHAGE MS-LAB KAROLINSKA INSTITUTET STOCKHOLM SWEDEN
##OWNER=NIST Mass Spectrometry Data Center
Collection (C) 2014 copyright by the U.S. Secretary of Commerce
on behalf of the United States of America. All rights reserved.
##CAS REGISTRY NO=7000-79-5
##$NIST MASS SPEC NO=42557
##MOLFORM=C10 H16 S4
##MW=264
##$NIST SOURCE=MSDC
##XUNITS=M/Z
##YUNITS=RELATIVE INTENSITY
##XFACTOR=1
##YFACTOR=1
##FIRSTX=18
##LASTX=268
##FIRSTY=180
##MAXX=268
##MINX=18
##MAXY=9999
##MINY=50
##NPOINTS=103
##PEAK TABLE=(XY..XY)
18,180 27,100 28,100 29,70
32,50 38,60 39,520 40,90
41,520 43,120 44,430 45,540
46,60 47,150 51,60 53,130
55,90 57,100 58,540 59,5650
60,240 61,340 64,70 65,240
66,100 67,240 69,100 71,160
72,60 73,450 74,100 75,60
76,80 77,60 79,60 83,80
84,100 85,380 87,170 91,140
93,70 97,290 98,340 99,880
100,210 101,240 105,60 106,80
107,120 108,60 110,50 111,240
112,50 113,100 116,90 117,3050
118,240 119,340 125,2570 126,2610
127,1070 128,240 129,80 130,80
131,3650 132,540 133,720 134,100
135,100 139,2530 140,280 141,260
143,100 151,50 157,1200 158,470
159,530 160,90 161,70 165,180
166,360 167,130 168,50 171,60
173,100 183,80 189,80 191,200
197,140 199,3330 200,480 201,360
202,60 231,2690 232,380 233,420
234,60 248,160 264,9999 265,1600
266,2210 267,300 268,180
##END=
