##TITLE=Bicyclo[9.3.1]pentadeca-3,7-dien-12-ol, 4,8,12,15,15-pentamethyl-, [1R-(1R*,3E,7E,11R*,12R*)]-
##JCAMP-DX=4.24
##DATA TYPE=MASS SPECTRUM
##ORIGIN=R RYHAGE MS-LAB KAROLINSKA INSTITUTET STOCKHOLM SWEDEN
##OWNER=NIST Mass Spectrometry Data Center
Collection (C) 2014 copyright by the U.S. Secretary of Commerce
on behalf of the United States of America. All rights reserved.
##CAS REGISTRY NO=70000-19-0
##$NIST MASS SPEC NO=42598
##MOLFORM=C20 H34 O
##MW=290
##$NIST SOURCE=MSDC
##XUNITS=M/Z
##YUNITS=RELATIVE INTENSITY
##XFACTOR=1
##YFACTOR=1
##FIRSTX=15
##LASTX=273
##FIRSTY=100
##MAXX=273
##MINX=15
##MAXY=9999
##MINY=50
##NPOINTS=154
##PEAK TABLE=(XY..XY)
15,100 16,70 26,120 27,1210
29,1600 30,50 37,50 38,90
39,2060 40,600 41,7140 42,500
43,2800 44,120 50,100 51,460
52,330 53,3020 54,410 55,4500
56,420 57,830 58,90 63,180
64,70 65,1100 66,550 67,3490
68,2650 69,3860 70,130 71,520
77,3070 78,790 79,4970 80,1290
81,6720 82,980 83,1020 84,120
85,110 89,100 91,5400 92,1440
93,7940 94,1960 95,4130 96,760
97,860 98,110 99,80 102,50
103,480 104,280 105,5450 106,1940
107,7140 108,3020 109,4550 110,650
111,530 112,80 113,70 114,50
115,530 116,220 117,790 118,430
119,7460 120,2960 121,9680 122,3070
123,4660 124,550 125,160 126,50
127,120 128,280 129,320 130,160
131,1490 132,680 133,8090 134,6030
135,7300 136,2860 137,1030 138,110
139,70 141,140 142,110 143,180
144,120 145,2430 146,1870 147,3920
148,3070 149,2010 150,440 151,180
152,120 153,100 154,60 155,70
156,50 157,160 158,130 159,2280
160,910 161,5660 162,2910 163,1480
164,250 165,120 171,110 172,100
173,2010 174,640 175,2490 176,1020
177,460 178,110 185,90 186,70
187,2220 188,1160 189,4020 190,1170
191,490 192,110 199,60 200,70
201,2380 202,810 203,1110 204,730
205,150 215,670 216,840 217,400
218,80 228,50 229,2540 230,760
231,200 243,410 244,370 245,80
256,50 257,9999 258,2120 259,250
272,3650 273,810
##END=
