##TITLE=2-Methylcyclohexylamine
##JCAMP-DX=4.24
##DATA TYPE=MASS SPECTRUM
##ORIGIN=NIST Mass Spectrometry Data Center
##OWNER=NIST Mass Spectrometry Data Center
Collection (C) 2014 copyright by the U.S. Secretary of Commerce
on behalf of the United States of America. All rights reserved.
##CAS REGISTRY NO=7003-32-9
##$NIST MASS SPEC NO=342683
##MOLFORM=C7 H15 N
##MW=113
##$NIST SOURCE=MSDC
##XUNITS=M/Z
##YUNITS=RELATIVE INTENSITY
##XFACTOR=1
##YFACTOR=1
##FIRSTX=15
##LASTX=114
##FIRSTY=240
##MAXX=114
##MINX=15
##MAXY=9999
##MINY=10
##NPOINTS=51
##PEAK TABLE=(XY..XY)
15,240 17,30 18,240 26,110
27,971 28,1782 29,581 30,1732
37,20 39,1041 40,170 41,1181
42,891 43,2752 44,410 45,20
47,20 50,60 51,110 52,80
53,240 54,310 56,9999 57,1031
58,50 62,10 63,20 65,70
66,40 67,310 68,180 70,4074
71,200 77,60 78,10 79,40
80,50 81,170 82,80 83,40
84,370 85,20 91,20 93,30
94,10 95,80 96,70 97,10
98,40 113,1331 114,110
##END=
