##TITLE=4-Bromobenzenesulfonamide
##JCAMP-DX=4.24
##DATA TYPE=MASS SPECTRUM
##ORIGIN=Japan AIST/NIMC Database- Spectrum MS-IW-3957
##OWNER=NIST Mass Spectrometry Data Center
Collection (C) 2014 copyright by the U.S. Secretary of Commerce
on behalf of the United States of America. All rights reserved.
##CAS REGISTRY NO=701-34-8
##$NIST MASS SPEC NO=244173
##MOLFORM=C6 H6 Br N O2 S
##MW=235
##$NIST SOURCE=MSDC
##XUNITS=M/Z
##YUNITS=RELATIVE INTENSITY
##XFACTOR=1
##YFACTOR=1
##FIRSTX=16
##LASTX=240
##FIRSTY=50
##MAXX=240
##MINX=16
##MAXY=9999
##MINY=10
##NPOINTS=149
##PEAK TABLE=(XY..XY)
16,50 17,30 18,109 26,30
27,50 28,159 29,10 30,10
31,10 32,60 36,10 37,219
38,479 39,319 40,20 41,50
42,20 43,30 44,70 45,159
46,90 47,40 48,159 49,219
50,3939 51,699 52,90 53,70
54,50 55,30 56,10 57,50
58,30 60,20 61,149 62,229
63,649 64,979 65,979 66,109
67,20 68,10 69,189 70,50
71,20 72,20 73,439 74,2399
75,6029 76,5199 77,509 78,40
79,40 80,179 81,70 82,99
83,20 84,10 85,199 86,179
87,20 90,80 91,349 92,799
93,379 94,30 95,70 96,259
97,30 98,10 99,10 104,30
105,90 106,40 107,99 108,209
109,119 110,40 111,10 116,20
117,129 118,20 119,119 123,10
124,30 125,20 128,70 129,219
130,70 131,229 132,10 133,10
138,30 139,50 140,60 141,20
142,10 143,309 144,30 145,299
146,20 149,40 150,10 151,10
152,30 153,30 154,129 155,9999
156,839 157,9829 158,689 159,40
160,10 161,20 168,20 170,80
171,2699 172,3699 173,2849 174,3609
175,299 176,20 177,80 186,20
187,30 188,70 189,30 190,60
203,609 204,50 205,629 206,60
207,30 209,10 213,10 217,20
219,5359 220,429 221,5459 222,419
223,269 224,20 233,10 235,9029
236,729 237,9259 238,729 239,449
240,30
##END=
