##TITLE=1-Acetoxy-3-fluorobenzene
##JCAMP-DX=4.24
##DATA TYPE=MASS SPECTRUM
##ORIGIN=NIST Mass Spectrometry Data Center
##OWNER=NIST Mass Spectrometry Data Center
Collection (C) 2014 copyright by the U.S. Secretary of Commerce
on behalf of the United States of America. All rights reserved.
##CAS REGISTRY NO=701-83-7
##$NIST MASS SPEC NO=342412
##MOLFORM=C8 H7 F O2
##MW=154
##$NIST SOURCE=MSDC
##XUNITS=M/Z
##YUNITS=RELATIVE INTENSITY
##XFACTOR=1
##YFACTOR=1
##FIRSTX=12
##LASTX=156
##FIRSTY=10
##MAXX=156
##MINX=12
##MAXY=9999
##MINY=10
##NPOINTS=69
##PEAK TABLE=(XY..XY)
12,10 13,60 14,270 15,981
16,20 18,20 25,20 26,80
27,50 28,170 29,90 31,340
32,30 33,60 36,10 37,160
38,320 39,360 40,20 41,100
43,7126 44,210 45,70 48,10
49,50 50,240 51,140 52,20
53,60 55,30 56,190 57,1732
58,110 60,10 61,140 62,210
63,500 64,460 65,50 66,40
68,90 69,120 70,30 71,20
72,10 73,140 74,120 75,370
76,30 77,10 79,10 81,280
83,1431 84,1411 85,80 86,20
92,60 93,20 94,60 95,260
96,60 97,20 112,9999 113,641
114,40 125,10 154,1461 155,120
156,10
##END=
