##TITLE=Methyl 4-nitrophenyl sulphide
##JCAMP-DX=4.24
##DATA TYPE=MASS SPECTRUM
##ORIGIN=R.T. LOEFFLER,LONG ASHTON RES. STN.,LONG ASHTON,BRISTOL,U.K.
##OWNER=NIST Mass Spectrometry Data Center
Collection (C) 2014 copyright by the U.S. Secretary of Commerce
on behalf of the United States of America. All rights reserved.
##CAS REGISTRY NO=701-57-5
##$NIST MASS SPEC NO=103350
##MOLFORM=C7 H7 N O2 S
##MW=169
##$NIST SOURCE=MSDC
##XUNITS=M/Z
##YUNITS=RELATIVE INTENSITY
##XFACTOR=1
##YFACTOR=1
##FIRSTX=30
##LASTX=171
##FIRSTY=1000
##MAXX=171
##MINX=30
##MAXY=9999
##MINY=600
##NPOINTS=19
##PEAK TABLE=(XY..XY)
30,1000 45,5600 50,2000 51,900
63,1700 69,2500 74,1000 75,900
77,2700 79,2400 82,1500 108,3200
111,1800 121,800 123,1500 139,7900
169,9999 170,900 171,600
##END=
