##TITLE=Benzenamine, 4-methoxy-N,N-dimethyl-
##JCAMP-DX=4.24
##DATA TYPE=MASS SPECTRUM
##ORIGIN=NIST Mass Spectrometry Data Center
##OWNER=NIST Mass Spectrometry Data Center
Collection (C) 2014 copyright by the U.S. Secretary of Commerce
on behalf of the United States of America. All rights reserved.
##CAS REGISTRY NO=701-56-4
##$NIST MASS SPEC NO=332872
##MOLFORM=C9 H13 N O
##MW=151
##$NIST SOURCE=MSDC
##XUNITS=M/Z
##YUNITS=RELATIVE INTENSITY
##XFACTOR=1
##YFACTOR=1
##FIRSTX=14
##LASTX=153
##FIRSTY=10
##MAXX=153
##MINX=14
##MAXY=9999
##MINY=10
##NPOINTS=84
##PEAK TABLE=(XY..XY)
14,10 15,130 26,10 27,30
28,30 29,40 30,20 31,10
37,20 38,100 39,290 40,50
41,130 42,420 43,30 44,30
46,10 49,10 50,230 51,320
52,260 53,150 54,50 55,50
56,20 58,40 59,30 61,50
62,160 63,550 64,400 65,1101
66,611 67,651 68,80 69,20
73,10 75,230 76,180 77,520
78,300 79,260 80,130 81,60
82,90 83,10 87,10 88,10
89,20 90,100 91,160 92,811
93,490 94,90 95,30 98,10
102,20 103,30 104,200 105,120
106,310 107,260 108,1892 109,180
110,10 117,30 118,130 119,100
120,1091 121,280 122,90 123,10
132,10 133,20 134,120 135,871
136,9999 137,1241 138,80 148,140
150,831 151,6886 152,761 153,50
##END=
