##TITLE=2-Chlorobenzoic acid, hexadecyl ester
##JCAMP-DX=4.24
##DATA TYPE=MASS SPECTRUM
##ORIGIN=Zaikin V.G., TIPS RAS, Moscow, Russia
##OWNER=NIST Mass Spectrometry Data Center
Collection (C) 2014 copyright by the U.S. Secretary of Commerce
on behalf of the United States of America. All rights reserved.
##CAS REGISTRY NO=70152-86-2
##$NIST MASS SPEC NO=292431
##MOLFORM=C23 H37 Cl O2
##MW=380
##$NIST SOURCE=MSDC
##XUNITS=M/Z
##YUNITS=RELATIVE INTENSITY
##XFACTOR=1
##YFACTOR=1
##FIRSTX=27
##LASTX=380
##FIRSTY=50
##MAXX=380
##MINX=27
##MAXY=9999
##MINY=20
##NPOINTS=64
##PEAK TABLE=(XY..XY)
27,50 28,20 29,100 36,30
39,60 41,390 42,110 43,561
44,40 50,40 51,30 53,30
54,130 55,691 56,350 57,581
67,190 68,200 69,661 70,380
71,290 75,150 76,80 77,110
79,20 81,140 82,250 83,681
84,280 85,190 95,100 96,140
97,651 98,190 99,40 104,60
105,90 109,40 110,70 111,911
112,220 113,230 121,50 123,50
124,40 125,170 126,90 139,3073
140,320 141,991 142,80 153,30
154,40 156,1491 157,9999 158,1201
159,3163 160,250 168,30 196,90
224,180 225,30 344,30 380,50
##END=
