##TITLE=2-Methyl-5-butylpyridine
##JCAMP-DX=4.24
##DATA TYPE=MASS SPECTRUM
##ORIGIN=V.A.KOPTYUG, ATLAS OF MASS SPECTRA OF ORGANIC COMPOUNDS
##OWNER=NIST Mass Spectrometry Data Center
Collection (C) 2014 copyright by the U.S. Secretary of Commerce
on behalf of the United States of America. All rights reserved.
##CAS REGISTRY NO=702-16-9
##$NIST MASS SPEC NO=78045
##MOLFORM=C10 H15 N
##MW=149
##$NIST SOURCE=MSDC
##XUNITS=M/Z
##YUNITS=RELATIVE INTENSITY
##XFACTOR=1
##YFACTOR=1
##FIRSTX=39
##LASTX=150
##FIRSTY=390
##MAXX=150
##MINX=39
##MAXY=9999
##MINY=100
##NPOINTS=28
##PEAK TABLE=(XY..XY)
39,390 41,270 43,140 44,550
51,270 52,180 53,290 63,100
65,370 66,120 77,1340 78,360
79,950 80,120 91,230 92,200
93,230 104,100 105,140 106,9999
107,1570 108,120 118,160 120,410
121,250 134,200 149,3480 150,410
##END=
