##TITLE=1,3-Cyclohexanedione, 2,2,5,5-tetramethyl-
##JCAMP-DX=4.24
##DATA TYPE=MASS SPECTRUM
##OWNER=NIST Mass Spectrometry Data Center
Collection (C) 2014 copyright by the U.S. Secretary of Commerce
on behalf of the United States of America. All rights reserved.
##CAS REGISTRY NO=702-50-1
##$NIST MASS SPEC NO=6456
##MOLFORM=C10 H16 O2
##MW=168
##$NIST SOURCE=MSDC
##XUNITS=M/Z
##YUNITS=RELATIVE INTENSITY
##XFACTOR=1
##YFACTOR=1
##FIRSTX=39
##LASTX=169
##FIRSTY=550
##MAXX=169
##MINX=39
##MAXY=9999
##MINY=60
##NPOINTS=22
##PEAK TABLE=(XY..XY)
39,550 40,150 41,921 42,981
43,150 44,250 54,150 56,1381
57,310 67,60 69,250 70,1381
71,150 83,9999 84,681 85,60
97,60 98,150 125,250 153,60
168,1541 169,250
##END=
