##TITLE=Bicyclo[2.2.2]octane-1-carboxylic acid, 4-methyl-
##JCAMP-DX=4.24
##DATA TYPE=MASS SPECTRUM
##ORIGIN=RH-12
##OWNER=NIST Mass Spectrometry Data Center
Collection (C) 2014 copyright by the U.S. Secretary of Commerce
on behalf of the United States of America. All rights reserved.
##CAS REGISTRY NO=702-67-0
##$NIST MASS SPEC NO=6446
##MOLFORM=C10 H16 O2
##MW=168
##$NIST SOURCE=MSDC
##XUNITS=M/Z
##YUNITS=RELATIVE INTENSITY
##XFACTOR=1
##YFACTOR=1
##FIRSTX=26
##LASTX=170
##FIRSTY=69
##MAXX=170
##MINX=26
##MAXY=9999
##MINY=10
##NPOINTS=94
##PEAK TABLE=(XY..XY)
26,69 27,5059 28,2670 29,3310
30,60 31,10 37,170 38,540
39,6739 40,1040 41,7229 42,1040
43,2340 44,1190 45,4070 46,270
50,760 51,1790 52,930 53,3930
54,1220 55,5039 56,700 57,910
59,240 60,220 62,270 63,710
64,200 65,1650 66,1070 67,7079
68,5459 69,1920 70,480 71,480
73,420 74,270 75,230 77,3280
78,930 79,4999 80,1740 81,9999
82,2870 83,960 84,240 85,240
86,240 87,620 91,2180 92,840
93,4790 94,2830 95,4750 96,920
97,800 98,290 99,260 100,300
101,260 105,500 106,260 107,1480
108,880 109,790 110,790 111,1050
112,470 113,1280 115,240 121,960
122,6529 123,9769 124,2320 125,3120
126,780 127,250 134,290 135,520
136,250 137,140 139,5719 140,2450
141,280 149,280 150,1300 151,280
152,860 165,220 167,220 168,6609
169,760 170,70
##END=
