##TITLE=Benzeneacetic acid, .alpha.-methoxy-, (.+/-.)-
##JCAMP-DX=4.24
##DATA TYPE=MASS SPECTRUM
##ORIGIN=Japan AIST/NIMC Database- Spectrum MS-NW-8771
##OWNER=NIST Mass Spectrometry Data Center
Collection (C) 2014 copyright by the U.S. Secretary of Commerce
on behalf of the United States of America. All rights reserved.
##CAS REGISTRY NO=7021-09-2
##$NIST MASS SPEC NO=236059
##MOLFORM=C9 H10 O3
##MW=166
##$NIST SOURCE=MSDC
##XUNITS=M/Z
##YUNITS=RELATIVE INTENSITY
##XFACTOR=1
##YFACTOR=1
##FIRSTX=15
##LASTX=136
##FIRSTY=40
##MAXX=136
##MINX=15
##MAXY=9999
##MINY=10
##NPOINTS=58
##PEAK TABLE=(XY..XY)
15,40 18,10 26,10 27,60
28,30 29,99 30,10 31,30
37,10 38,50 39,209 40,20
41,40 42,10 43,30 44,40
45,70 50,159 51,519 52,109
53,50 55,10 59,10 60,10
61,20 62,80 63,209 64,70
65,139 66,10 74,40 75,30
76,40 77,2389 78,329 79,279
80,10 86,10 87,10 89,309
90,269 91,1329 92,129 93,139
94,10 103,10 105,709 106,129
107,209 108,10 118,80 119,20
120,10 121,9999 122,889 123,50
135,40 136,50
##END=
