##TITLE=3-Hexene, 1-methoxy-, (Z)-
##JCAMP-DX=4.24
##DATA TYPE=MASS SPECTRUM
##ORIGIN=NIST Mass Spectrometry Data Center
##OWNER=NIST Mass Spectrometry Data Center
Collection (C) 2014 copyright by the U.S. Secretary of Commerce
on behalf of the United States of America. All rights reserved.
##CAS REGISTRY NO=70220-06-3
##$NIST MASS SPEC NO=333810
##MOLFORM=C7 H14 O
##MW=114
##$NIST SOURCE=MSDC
##XUNITS=M/Z
##YUNITS=RELATIVE INTENSITY
##XFACTOR=1
##YFACTOR=1
##FIRSTX=14
##LASTX=114
##FIRSTY=10
##MAXX=114
##MINX=14
##MAXY=9999
##MINY=10
##NPOINTS=56
##PEAK TABLE=(XY..XY)
14,10 15,120 26,50 27,530
28,140 29,661 30,30 31,70
33,10 37,30 38,100 39,1231
40,200 41,2172 42,230 43,230
45,9999 46,260 47,40 49,10
50,130 51,240 52,110 53,641
54,420 55,671 56,110 57,40
58,320 59,40 61,10 62,30
63,60 64,10 65,190 66,90
67,3143 68,681 69,330 70,20
71,330 72,30 73,10 74,10
77,60 78,10 79,110 80,20
81,240 82,4204 83,320 84,10
85,60 86,50 97,30 114,20
##END=
