##TITLE=Hexestrol, 2TMS derivative
##JCAMP-DX=4.24
##DATA TYPE=MASS SPECTRUM
##ORIGIN=D. JAHR, NATL. RES. OFFICE HEALTH SUDBAYERN, MUNICH, W.
##OWNER=NIST Mass Spectrometry Data Center
Collection (C) 2014 copyright by the U.S. Secretary of Commerce
on behalf of the United States of America. All rights reserved.
##CAS REGISTRY NO=70244-15-4
##$NIST MASS SPEC NO=75709
##MOLFORM=C24 H38 O2 Si2
##MW=414
##$NIST SOURCE=MSDC
##XUNITS=M/Z
##YUNITS=RELATIVE INTENSITY
##XFACTOR=1
##YFACTOR=1
##FIRSTX=41
##LASTX=415
##FIRSTY=220
##MAXX=415
##MINX=41
##MAXY=9999
##MINY=110
##NPOINTS=40
##PEAK TABLE=(XY..XY)
41,220 43,160 44,160 45,830
59,170 73,9440 74,770 75,830
77,170 82,110 91,330 105,170
115,220 117,280 135,220 147,110
149,280 151,720 161,170 163,500
164,110 165,110 175,110 177,1670
178,220 179,1780 180,220 191,830
192,500 193,220 205,110 206,1170
207,9999 208,4780 209,1330 210,110
399,390 400,110 414,280 415,110
##END=
