##TITLE=Citric acid, tripentyl ester
##JCAMP-DX=4.24
##DATA TYPE=MASS SPECTRUM
##ORIGIN=Japan AIST/NIMC Database- Spectrum MS-NW-5714
##OWNER=NIST Mass Spectrometry Data Center
Collection (C) 2014 copyright by the U.S. Secretary of Commerce
on behalf of the United States of America. All rights reserved.
##CAS REGISTRY NO=70289-34-8
##$NIST MASS SPEC NO=233001
##MOLFORM=C21 H38 O7
##MW=402
##$NIST SOURCE=MSDC
##XUNITS=M/Z
##YUNITS=RELATIVE INTENSITY
##XFACTOR=1
##YFACTOR=1
##FIRSTX=12
##LASTX=369
##FIRSTY=10
##MAXX=369
##MINX=12
##MAXY=9999
##MINY=10
##NPOINTS=196
##PEAK TABLE=(XY..XY)
12,10 14,60 15,149 16,30
17,30 18,109 25,30 26,239
27,1409 28,839 29,2789 30,80
31,1689 32,109 33,10 36,30
37,189 38,299 39,1429 40,199
41,3569 42,4589 43,8319 44,309
45,229 46,20 48,20 54,90
55,3559 56,649 57,839 58,119
59,60 60,169 61,219 62,50
63,189 64,10 65,30 66,20
67,80 68,99 69,819 70,2969
71,4059 72,229 73,139 74,299
75,139 76,269 80,20 81,20
82,10 83,30 84,279 85,169
86,60 87,739 88,50 89,50
91,40 92,10 93,10 94,10
95,10 96,10 97,60 98,10
99,30 100,50 101,90 102,579
103,339 104,20 105,90 106,10
107,10 109,10 110,20 111,809
112,329 113,159 114,50 115,119
116,20 117,20 119,20 120,10
123,10 125,10 126,10 127,20
128,119 129,7799 130,529 131,129
132,10 133,199 134,50 135,20
137,10 138,109 139,389 140,70
141,40 142,10 143,20 144,10
145,60 146,20 147,1809 148,119
149,30 150,10 152,10 154,20
155,20 156,119 157,839 158,90
159,99 160,30 161,10 163,10
164,10 169,30 170,10 171,10
172,289 173,50 174,10 175,309
176,30 180,10 181,10 182,30
183,40 184,10 185,30 186,10
187,20 193,10 196,20 197,20
198,40 199,9999 200,1199 201,169
202,20 203,99 204,20 210,10
211,20 212,10 213,20 214,20
215,50 216,20 217,759 218,99
219,20 226,40 227,229 228,40
229,40 230,10 231,20 233,10
244,10 245,149 246,20 257,10
263,20 268,10 269,20 270,20
271,10 273,90 274,20 275,10
285,10 286,10 287,2719 288,499
289,90 290,10 296,10 297,50
298,20 315,40 316,10 333,50
334,10 341,10 355,10 369,10
##END=
