##TITLE=Ethanone, 1-(2-hydroxy-6-methoxyphenyl)-
##JCAMP-DX=4.24
##DATA TYPE=MASS SPECTRUM
##ORIGIN=NIST Mass Spectrometry Data Center
##OWNER=NIST Mass Spectrometry Data Center
Collection (C) 2014 copyright by the U.S. Secretary of Commerce
on behalf of the United States of America. All rights reserved.
##CAS REGISTRY NO=703-23-1
##$NIST MASS SPEC NO=352926
##MOLFORM=C9 H10 O3
##MW=166
##$NIST SOURCE=MSDC
##XUNITS=M/Z
##YUNITS=RELATIVE INTENSITY
##XFACTOR=1
##YFACTOR=1
##FIRSTX=14
##LASTX=168
##FIRSTY=10
##MAXX=168
##MINX=14
##MAXY=9999
##MINY=10
##NPOINTS=99
##PEAK TABLE=(XY..XY)
14,10 15,170 25,10 26,40
27,120 28,50 29,100 30,10
31,30 36,10 37,70 38,200
39,731 40,80 41,120 42,100
43,1121 44,30 45,40 46,10
47,10 49,30 50,260 51,530
52,530 53,450 54,70 55,190
56,10 59,10 60,20 61,80
62,200 63,430 64,180 65,751
66,240 67,200 68,50 69,180
70,10 73,10 74,80 75,80
76,60 77,561 78,110 79,260
80,300 81,190 82,10 83,20
84,10 85,10 86,20 87,10
88,10 89,40 90,40 91,200
92,170 93,550 94,150 95,190
96,10 97,10 103,10 104,10
105,240 106,30 107,310 108,1451
109,120 110,10 118,20 119,90
120,90 121,320 122,70 123,180
124,20 131,40 132,10 133,90
134,10 135,30 136,1752 137,170
138,20 147,450 148,621 149,100
151,9999 152,901 153,100 154,10
166,3573 167,350 168,40
##END=
