##TITLE=Homophthalic anhydride
##JCAMP-DX=4.24
##DATA TYPE=MASS SPECTRUM
##ORIGIN=LAC, NIDDK, NIH, Bethesda, MD 20892
##OWNER=NIST Mass Spectrometry Data Center
Collection (C) 2014 copyright by the U.S. Secretary of Commerce
on behalf of the United States of America. All rights reserved.
##CAS REGISTRY NO=703-59-3
##$NIST MASS SPEC NO=129675
##MOLFORM=C9 H6 O3
##MW=162
##$NIST SOURCE=MSDC
##XUNITS=M/Z
##YUNITS=RELATIVE INTENSITY
##XFACTOR=1
##YFACTOR=1
##FIRSTX=41
##LASTX=164
##FIRSTY=602
##MAXX=164
##MINX=41
##MAXY=9999
##MINY=16
##NPOINTS=78
##PEAK TABLE=(XY..XY)
41,602 42,324 43,713 45,8423
46,172 47,85 49,254 50,2081
51,4493 52,1064 53,2221 54,155
55,606 56,122 57,179 59,421
60,27 61,606 62,2103 63,5612
64,1375 65,2033 66,263 67,238
68,73 69,129 71,86 73,232
74,479 75,366 77,9999 78,1860
79,3564 80,221 81,161 83,26
84,66 85,152 86,347 87,328
88,420 89,4553 90,6485 91,5933
92,663 93,88 95,25 99,16
101,25 102,34 103,145 104,59
105,5065 106,432 107,330 108,18
111,18 115,71 116,23 117,42
118,7780 119,1187 120,54 121,124
122,100 131,106 133,717 134,7559
135,2397 136,355 137,242 144,26
145,86 146,41 161,53 162,3870
163,621 164,115
##END=
