##TITLE=Trifluoroacetic acid, cyclopentyl ester
##JCAMP-DX=4.24
##DATA TYPE=MASS SPECTRUM
##ORIGIN=NIST Mass Spectrometry Data Center, 2010
##OWNER=NIST Mass Spectrometry Data Center
Collection (C) 2014 copyright by the U.S. Secretary of Commerce
on behalf of the United States of America. All rights reserved.
##CAS REGISTRY NO=703-13-9
##$NIST MASS SPEC NO=417258
##MOLFORM=C7 H9 F3 O2
##MW=182
##$NIST SOURCE=MSDC
##XUNITS=M/Z
##YUNITS=RELATIVE INTENSITY
##XFACTOR=1
##YFACTOR=1
##FIRSTX=15
##LASTX=182
##FIRSTY=40
##MAXX=182
##MINX=15
##MAXY=9999
##MINY=10
##NPOINTS=60
##PEAK TABLE=(XY..XY)
15,40 26,90 27,571 28,250
29,601 30,10 31,50 33,10
37,40 38,120 39,1301 40,530
41,2983 42,1822 43,300 44,70
46,20 47,40 50,210 51,80
52,40 53,460 54,60 55,320
56,50 57,440 59,571 60,100
61,20 62,20 63,40 64,10
65,190 67,3373 68,6776 69,9999
70,430 71,40 78,70 83,30
84,60 85,260 97,210 99,80
106,20 112,180 113,120 114,10
115,60 125,611 126,40 140,260
141,220 152,120 153,1471 154,290
155,20 167,10 181,30 182,30
##END=
