##TITLE=2,3,5,6-Tetrafluoro-p-xylene
##JCAMP-DX=4.24
##DATA TYPE=MASS SPECTRUM
##ORIGIN=Chuck Anderson, Aldrich Chemical Co.
##OWNER=NIST Mass Spectrometry Data Center
Collection (C) 2014 copyright by the U.S. Secretary of Commerce
on behalf of the United States of America. All rights reserved.
##CAS REGISTRY NO=703-87-7
##$NIST MASS SPEC NO=107611
##MOLFORM=C8 H6 F4
##MW=178
##$NIST SOURCE=MSDC
##XUNITS=M/Z
##YUNITS=RELATIVE INTENSITY
##XFACTOR=1
##YFACTOR=1
##FIRSTX=26
##LASTX=180
##FIRSTY=20
##MAXX=180
##MINX=26
##MAXY=9999
##MINY=13
##NPOINTS=108
##PEAK TABLE=(XY..XY)
26,20 27,312 31,448 32,14
33,42 37,93 38,146 39,269
44,25 45,83 49,24 50,219
51,436 52,20 55,20 56,129
57,550 58,20 59,19 61,178
62,238 63,479 64,56 65,24
68,219 69,433 70,80 73,27
74,250 75,711 76,60 77,146
78,131 79,99 80,163 81,556
82,49 83,89 84,13 85,67
86,101 87,355 88,222 89,100
92,72 93,185 94,54 95,61
98,42 99,278 100,43 101,309
102,21 103,15 104,35 105,163
106,109 107,352 108,61 109,232
110,27 111,50 112,87 113,167
114,108 117,137 118,28 119,386
120,34 123,96 124,61 125,559
126,225 127,2400 128,915 129,55
130,54 131,33 132,340 133,68
136,29 137,1225 138,281 139,126
141,36 143,488 144,45 145,696
146,49 150,318 151,115 155,106
156,473 157,510 158,358 159,1546
160,117 161,133 163,8860 164,553
165,14 174,55 175,197 176,841
177,9504 178,9999 179,708 180,21
##END=
