##TITLE=3,5-Dimethyl-2-isobutylpyrazine
##JCAMP-DX=4.24
##DATA TYPE=MASS SPECTRUM
##ORIGIN=Philip Morris R&D
##OWNER=NIST Mass Spectrometry Data Center
Collection (C) 2014 copyright by the U.S. Secretary of Commerce
on behalf of the United States of America. All rights reserved.
##CAS REGISTRY NO=70303-42-3
##$NIST MASS SPEC NO=109600
##MOLFORM=C10 H16 N2
##MW=164
##$NIST SOURCE=MSDC
##XUNITS=M/Z
##YUNITS=RELATIVE INTENSITY
##XFACTOR=1
##YFACTOR=1
##FIRSTX=36
##LASTX=166
##FIRSTY=18
##MAXX=166
##MINX=36
##MAXY=9999
##MINY=0
##NPOINTS=81
##PEAK TABLE=(XY..XY)
36,18 37,22 38,46 39,967
40,246 41,524 42,899 43,256
44,20 45,26 49,1 50,33
51,99 52,173 53,506 54,148
55,66 56,29 57,56 58,0
60,4 61,0 62,1 63,6
64,20 65,52 66,142 67,140
68,49 69,14 70,0 72,0
73,12 74,19 75,5 76,3
77,56 78,48 79,54 80,317
81,180 82,49 83,0 84,74
88,0 89,0 91,2 92,9
93,21 94,53 95,45 96,40
106,18 107,203 108,189 109,76
117,0 118,0 119,4 120,10
121,856 122,9999 123,833 124,28
132,6 133,66 134,16 135,15
145,2 146,9 147,70 148,19
149,1294 150,145 151,4 161,14
162,3 163,519 164,1127 165,117
166,4
##END=
