##TITLE=2-(2-Methylpropyl)-3,5-di(1-methylethyl)pyridine
##JCAMP-DX=4.24
##DATA TYPE=MASS SPECTRUM
##ORIGIN=Philip Morris R&D
##OWNER=NIST Mass Spectrometry Data Center
Collection (C) 2014 copyright by the U.S. Secretary of Commerce
on behalf of the United States of America. All rights reserved.
##CAS REGISTRY NO=7033-68-3
##$NIST MASS SPEC NO=108697
##MOLFORM=C15 H25 N
##MW=219
##$NIST SOURCE=MSDC
##XUNITS=M/Z
##YUNITS=RELATIVE INTENSITY
##XFACTOR=1
##YFACTOR=1
##FIRSTX=36
##LASTX=220
##FIRSTY=32
##MAXX=220
##MINX=36
##MAXY=9999
##MINY=22
##NPOINTS=107
##PEAK TABLE=(XY..XY)
36,32 38,48 39,823 40,119
41,1780 42,238 43,1246 44,50
50,70 51,360 52,151 53,434
54,108 55,240 56,36 57,42
59,94 63,163 64,86 65,456
66,123 67,189 68,40 69,48
72,103 76,30 77,742 78,207
79,370 80,121 81,71 84,27
87,40 89,74 90,39 91,697
92,144 93,170 94,100 95,32
102,60 103,135 104,129 105,271
106,166 107,100 115,149 116,81
117,275 118,300 119,290 120,559
121,280 122,30 128,62 129,35
130,197 131,163 132,310 133,303
134,592 135,1151 136,147 142,49
143,142 144,362 145,145 146,1008
147,325 148,793 149,9999 150,1114
151,60 154,22 156,127 157,76
158,294 159,129 160,833 161,292
162,6024 163,784 164,81 170,73
171,34 172,287 173,94 174,441
175,109 176,2316 177,4134 178,566
179,72 186,164 187,44 188,617
189,145 190,31 200,34 202,424
203,108 204,6008 205,979 206,65
218,1059 219,2982 220,510
##END=
