##TITLE=Bis(1,2,2-trimethylpropyl) methylphosphonate
##JCAMP-DX=4.24
##DATA TYPE=MASS SPECTRUM
##ORIGIN=CBDCOM/ERDEC, Edgewood, MD
##OWNER=NIST Mass Spectrometry Data Center
Collection (C) 2014 copyright by the U.S. Secretary of Commerce
on behalf of the United States of America. All rights reserved.
##CAS REGISTRY NO=7040-58-6
##$NIST MASS SPEC NO=226276
##MOLFORM=C13 H29 O3 P
##MW=264
##$NIST SOURCE=MSDC
##XUNITS=M/Z
##YUNITS=RELATIVE INTENSITY
##XFACTOR=1
##YFACTOR=1
##FIRSTX=51
##LASTX=249
##FIRSTY=20
##MAXX=249
##MINX=51
##MAXY=9999
##MINY=10
##NPOINTS=50
##PEAK TABLE=(XY..XY)
51,20 53,140 54,50 55,720
56,140 57,1211 58,40 62,10
63,120 65,150 67,120 68,50
69,900 70,270 71,40 78,20
79,480 80,1050 81,130 82,10
83,100 84,500 85,3443 86,220
87,70 91,110 94,10 95,10
97,9999 98,130 99,50 101,60
106,10 111,190 112,10 123,9418
124,5695 125,840 126,50 163,10
165,760 166,50 179,10 180,70
181,140 182,10 207,200 208,230
209,30 249,10
##END=
