##TITLE=(E)-1,3-Butadien-1-ol
##JCAMP-DX=4.24
##DATA TYPE=MASS SPECTRUM
##ORIGIN=F. TURECEK,HEYROVSKY INST.PHYS.CHEM.ELECTROCHEM.,PRAGUE,CZECH.
##OWNER=NIST Mass Spectrometry Data Center
Collection (C) 2014 copyright by the U.S. Secretary of Commerce
on behalf of the United States of America. All rights reserved.
##CAS REGISTRY NO=70411-98-2
##$NIST MASS SPEC NO=112759
##MOLFORM=C4 H6 O
##MW=70
##$NIST SOURCE=MSDC
##XUNITS=M/Z
##YUNITS=RELATIVE INTENSITY
##XFACTOR=1
##YFACTOR=1
##FIRSTX=14
##LASTX=71
##FIRSTY=200
##MAXX=71
##MINX=14
##MAXY=9999
##MINY=100
##NPOINTS=29
##PEAK TABLE=(XY..XY)
14,200 15,700 25,100 26,700
27,2800 28,600 29,2100 30,200
31,400 36,100 37,400 38,1000
39,5900 40,600 41,9999 42,3700
43,2000 44,200 49,100 50,800
51,900 52,400 53,600 54,200
55,700 68,400 69,4600 70,9200
71,500
##END=
