##TITLE=2,5-Dihydroxyheptane
##JCAMP-DX=4.24
##DATA TYPE=MASS SPECTRUM
##ORIGIN=James Little,Eastman Chem.Co.,Kingsport,TN
##OWNER=NIST Mass Spectrometry Data Center
Collection (C) 2014 copyright by the U.S. Secretary of Commerce
on behalf of the United States of America. All rights reserved.
##CAS REGISTRY NO=70444-25-6
##$NIST MASS SPEC NO=288758
##MOLFORM=C7 H16 O2
##MW=132
##$NIST SOURCE=MSDC
##XUNITS=M/Z
##YUNITS=RELATIVE INTENSITY
##XFACTOR=1
##YFACTOR=1
##FIRSTX=28
##LASTX=103
##FIRSTY=1331
##MAXX=103
##MINX=28
##MAXY=9999
##MINY=130
##NPOINTS=25
##PEAK TABLE=(XY..XY)
28,1331 29,8498 31,5625 39,1672
41,8958 42,4944 43,9999 44,1221
45,6616 55,6246 56,8588 57,6706
58,2522 59,5785 67,2843 69,280
70,2712 71,500 72,1261 73,130
81,1471 85,8828 86,530 99,661
103,410
##END=
