##TITLE=Ethanone, 1-(2-hydroxy-5-methoxyphenyl)-
##JCAMP-DX=4.24
##DATA TYPE=MASS SPECTRUM
##ORIGIN=NIST Mass Spectrometry Data Center
##OWNER=NIST Mass Spectrometry Data Center
Collection (C) 2014 copyright by the U.S. Secretary of Commerce
on behalf of the United States of America. All rights reserved.
##CAS REGISTRY NO=705-15-7
##$NIST MASS SPEC NO=352909
##MOLFORM=C9 H10 O3
##MW=166
##$NIST SOURCE=MSDC
##XUNITS=M/Z
##YUNITS=RELATIVE INTENSITY
##XFACTOR=1
##YFACTOR=1
##FIRSTX=14
##LASTX=169
##FIRSTY=20
##MAXX=169
##MINX=14
##MAXY=9999
##MINY=10
##NPOINTS=98
##PEAK TABLE=(XY..XY)
14,20 15,240 25,10 26,130
27,140 28,60 29,140 30,20
31,30 32,10 36,10 37,70
38,160 39,510 40,90 41,300
42,140 43,2072 44,60 45,80
46,10 47,20 48,10 49,40
50,350 51,801 52,1021 53,1141
54,340 55,380 56,10 59,10
60,50 61,100 62,270 63,520
64,160 65,540 66,240 67,220
68,60 69,330 70,20 73,20
74,90 75,70 76,40 77,1021
78,130 79,500 80,340 81,190
82,80 83,50 85,10 86,20
87,10 89,40 90,40 91,120
92,180 93,220 94,140 95,1461
96,100 97,10 105,751 106,80
107,190 108,1081 109,390 110,30
118,30 119,20 120,70 121,40
122,60 123,1031 124,110 125,10
128,10 133,1061 134,100 135,80
136,140 137,100 138,10 147,10
148,430 149,60 151,9999 152,901
153,100 154,10 166,7307 167,731
168,70 169,10
##END=
