##TITLE=3,5-Dichlorobenzenesulfonyl chloride
##JCAMP-DX=4.24
##DATA TYPE=MASS SPECTRUM
##ORIGIN=NIST Mass Spectrometry Data Center, 1994
##OWNER=NIST Mass Spectrometry Data Center
Collection (C) 2014 copyright by the U.S. Secretary of Commerce
on behalf of the United States of America. All rights reserved.
##CAS REGISTRY NO=705-21-5
##$NIST MASS SPEC NO=136119
##MOLFORM=C6 H3 Cl3 O2 S
##MW=244
##$NIST SOURCE=MSDC
##XUNITS=M/Z
##YUNITS=RELATIVE INTENSITY
##XFACTOR=1
##YFACTOR=1
##FIRSTX=12
##LASTX=250
##FIRSTY=95
##MAXX=250
##MINX=12
##MAXY=9999
##MINY=24
##NPOINTS=135
##PEAK TABLE=(XY..XY)
12,95 13,26 16,389 17,40
18,71 24,39 25,90 26,82
32,490 33,37 35,1645 36,627
37,1766 38,1102 39,145 44,146
45,262 47,527 48,4596 49,1015
50,2915 51,334 53,169 55,363
56,148 57,188 58,55 59,55
60,564 61,899 62,1071 63,1150
64,1804 65,277 66,100 67,47
68,121 69,598 70,56 71,195
72,617 73,2322 74,6756 75,5107
76,355 77,34 79,222 80,48
81,246 82,166 83,399 84,1352
85,913 86,453 87,277 88,27
90,68 91,95 92,87 93,161
94,56 95,201 96,137 97,309
98,148 99,325 100,39 101,101
103,90 105,244 107,307 109,6025
110,1410 111,2044 112,441 113,80
118,56 119,142 120,51 121,116
122,24 123,37 126,39 129,68
130,59 131,55 132,24 133,706
134,95 135,476 136,43 137,92
142,227 143,132 145,9999 146,1185
147,6378 148,621 149,1002 150,111
161,45 162,29 163,48 165,246
166,24 167,161 168,43 169,45
176,32 177,34 178,79 179,24
180,2372 181,24 182,2176 183,153
184,696 185,51 186,80 193,117
195,68 209,3679 211,2491 212,227
213,526 214,43 215,31 226,32
244,1861 245,140 246,1904 247,143
248,683 249,50 250,93
##END=
