##TITLE=2H-Pyran-2-one, tetrahydro-6-pentyl-
##JCAMP-DX=4.24
##DATA TYPE=MASS SPECTRUM
##OWNER=NIST Mass Spectrometry Data Center
Collection (C) 2014 copyright by the U.S. Secretary of Commerce
on behalf of the United States of America. All rights reserved.
##CAS REGISTRY NO=705-86-2
##$NIST MASS SPEC NO=22022
##MOLFORM=C10 H18 O2
##MW=170
##$NIST SOURCE=MSDC
##XUNITS=M/Z
##YUNITS=RELATIVE INTENSITY
##XFACTOR=1
##YFACTOR=1
##FIRSTX=17
##LASTX=170
##FIRSTY=791
##MAXX=170
##MINX=17
##MAXY=9999
##MINY=30
##NPOINTS=59
##PEAK TABLE=(XY..XY)
17,791 29,1111 39,571 40,130
41,2412 42,3143 43,2662 44,300
45,100 53,230 54,430 55,3033
56,1692 57,550 58,180 60,190
67,430 68,641 69,991 70,3383
71,4094 72,280 73,290 77,30
79,140 81,360 82,270 83,510
84,681 85,270 86,550 87,110
88,60 95,220 96,460 97,460
98,380 99,9999 100,1241 101,210
102,80 108,380 109,180 110,370
111,250 113,180 114,1581 115,250
119,60 123,240 124,140 127,240
128,150 134,571 137,80 141,170
142,120 152,841 170,350
##END=
