##TITLE=6H-Pyrazolo[1,2-a][1,2,4,5]tetrazine, hexahydro-2,3-dimethyl-
##JCAMP-DX=4.24
##DATA TYPE=MASS SPECTRUM
##ORIGIN=D.HENNEBERG, MAX-PLANCK INSTITUTE, MULHEIM, WEST GERMANY
##OWNER=NIST Mass Spectrometry Data Center
Collection (C) 2014 copyright by the U.S. Secretary of Commerce
on behalf of the United States of America. All rights reserved.
##CAS REGISTRY NO=70517-50-9
##$NIST MASS SPEC NO=63384
##MOLFORM=C7 H16 N4
##MW=156
##$NIST SOURCE=MSDC
##XUNITS=M/Z
##YUNITS=RELATIVE INTENSITY
##XFACTOR=1
##YFACTOR=1
##FIRSTX=24
##LASTX=157
##FIRSTY=7
##MAXX=157
##MINX=24
##MAXY=9999
##MINY=3
##NPOINTS=61
##PEAK TABLE=(XY..XY)
24,7 25,37 26,356 27,1420
28,3201 29,469 30,1634 31,69
32,110 33,3 35,4 36,12
37,40 38,146 39,468 40,582
41,1666 42,8397 43,5035 44,9999
45,592 46,95 50,6 51,33
52,81 53,68 54,210 55,325
56,1134 57,1773 58,159 59,80
60,53 66,9 67,14 68,96
69,174 70,347 71,2209 72,1760
73,652 74,26 80,8 81,62
82,114 83,1506 84,799 85,309
86,152 87,13 95,6 96,31
97,111 98,70 99,16 112,5
113,6 114,396 115,22 156,628
157,59
##END=
