##TITLE=1-Chloro-2,4-dimethoxybenzene
##JCAMP-DX=4.24
##DATA TYPE=MASS SPECTRUM
##ORIGIN=NIST Mass Spectrometry Data Center, 1994
##OWNER=NIST Mass Spectrometry Data Center
Collection (C) 2014 copyright by the U.S. Secretary of Commerce
on behalf of the United States of America. All rights reserved.
##CAS REGISTRY NO=7051-13-0
##$NIST MASS SPEC NO=134497
##MOLFORM=C8 H9 Cl O2
##MW=172
##$NIST SOURCE=MSDC
##XUNITS=M/Z
##YUNITS=RELATIVE INTENSITY
##XFACTOR=1
##YFACTOR=1
##FIRSTX=13
##LASTX=176
##FIRSTY=83
##MAXX=176
##MINX=13
##MAXY=9999
##MINY=11
##NPOINTS=101
##PEAK TABLE=(XY..XY)
13,83 14,341 15,2954 16,47
25,56 26,207 27,288 28,47
29,811 30,165 31,112 35,48
36,99 37,499 38,802 39,1073
40,91 41,340 42,59 43,251
47,106 48,53 49,404 50,1408
51,2771 52,230 53,847 54,98
55,83 59,98 60,282 61,831
62,1827 63,4593 64,922 65,4164
66,590 69,741 70,47 71,66
72,424 73,1050 74,787 75,1033
76,196 77,1578 78,565 79,2826
80,178 84,132 85,313 86,1152
87,269 88,373 89,74 90,58
91,97 92,417 93,233 94,254
95,152 96,59 97,216 98,710
99,1005 100,308 101,323 105,150
107,1005 108,625 109,967 110,149
111,270 112,251 113,304 114,1287
115,170 116,342 122,189 126,620
127,838 129,6361 130,509 131,2057
132,114 137,552 138,55 141,299
142,1222 143,951 144,512 145,350
157,1047 158,119 159,405 169,37
172,9999 173,888 174,3300 175,290
176,11
##END=
