##TITLE=Cyclopropane, (bromomethyl)-
##JCAMP-DX=4.24
##DATA TYPE=MASS SPECTRUM
##ORIGIN=NIST Mass Spectrometry Data Center, 1990.
##OWNER=NIST Mass Spectrometry Data Center
Collection (C) 2014 copyright by the U.S. Secretary of Commerce
on behalf of the United States of America. All rights reserved.
##CAS REGISTRY NO=7051-34-5
##$NIST MASS SPEC NO=113128
##MOLFORM=C4 H7 Br
##MW=134
##$NIST SOURCE=MSDC
##XUNITS=M/Z
##YUNITS=RELATIVE INTENSITY
##XFACTOR=1
##YFACTOR=1
##FIRSTX=13
##LASTX=136
##FIRSTY=28
##MAXX=136
##MINX=13
##MAXY=9999
##MINY=28
##NPOINTS=38
##PEAK TABLE=(XY..XY)
13,28 14,70 15,68 25,96
26,729 27,2709 28,1060 29,2491
30,55 32,92 37,191 38,385
39,2181 40,165 41,453 48,28
49,101 50,409 51,408 52,159
53,1026 54,28 55,9999 56,429
79,128 80,50 81,117 82,42
93,74 95,57 105,37 106,209
107,56 108,189 119,31 121,41
134,53 136,54
##END=
