##TITLE=Cyclohexane, (1-methylpropyl)-
##JCAMP-DX=4.24
##DATA TYPE=MASS SPECTRUM
##ORIGIN=NIST Mass Spectrometry Data Center, 1990.
##OWNER=NIST Mass Spectrometry Data Center
Collection (C) 2014 copyright by the U.S. Secretary of Commerce
on behalf of the United States of America. All rights reserved.
##CAS REGISTRY NO=7058-01-7
##$NIST MASS SPEC NO=114236
##MOLFORM=C10 H20
##MW=140
##$NIST SOURCE=MSDC
##XUNITS=M/Z
##YUNITS=RELATIVE INTENSITY
##XFACTOR=1
##YFACTOR=1
##FIRSTX=14
##LASTX=141
##FIRSTY=174
##MAXX=141
##MINX=14
##MAXY=9999
##MINY=27
##NPOINTS=49
##PEAK TABLE=(XY..XY)
14,174 15,56 16,79 27,1310
28,176 29,2000 30,53 39,2444
40,559 41,6009 42,806 43,691
44,95 50,85 51,332 52,184
53,1258 54,1521 55,9999 56,3347
57,1126 58,54 63,71 65,336
67,4646 68,946 69,4202 70,403
71,77 77,327 78,80 79,412
80,106 81,77 82,8272 83,7586
84,503 91,76 93,27 95,70
96,31 97,69 109,54 110,579
111,2484 112,211 125,41 140,1457
141,152
##END=
