##TITLE=1-(Pentachloroethyl)benzene
##JCAMP-DX=4.24
##DATA TYPE=MASS SPECTRUM
##ORIGIN=Institute of Organic Chemistry, USSR, 1990
##OWNER=NIST Mass Spectrometry Data Center
Collection (C) 2014 copyright by the U.S. Secretary of Commerce
on behalf of the United States of America. All rights reserved.
##CAS REGISTRY NO=706-93-4
##$NIST MASS SPEC NO=110282
##MOLFORM=C8 H5 Cl5
##MW=276
##$NIST SOURCE=MSDC
##XUNITS=M/Z
##YUNITS=RELATIVE INTENSITY
##XFACTOR=1
##YFACTOR=1
##FIRSTX=100
##LASTX=284
##FIRSTY=810
##MAXX=284
##MINX=100
##MAXY=9999
##MINY=80
##NPOINTS=49
##PEAK TABLE=(XY..XY)
100,810 101,2210 102,450 103,180
108,210 109,590 110,240 111,240
112,240 117,180 119,240 121,180
123,670 124,540 125,1350 126,240
127,290 135,189 136,740 137,154
138,283 159,9999 160,788 161,6540
162,502 163,1035 164,80 170,1590
171,2540 172,1480 173,1620 174,480
175,270 205,560 206,3290 207,1020
208,3180 209,590 210,1080 240,590
241,400 242,700 243,450 244,370
276,1290 278,2000 280,1290 282,450
284,80
##END=
