##TITLE=Cyclopentene, octachloro-
##JCAMP-DX=4.24
##DATA TYPE=MASS SPECTRUM
##ORIGIN=Japan AIST/NIMC Database- Spectrum MS-NW-9807
##OWNER=NIST Mass Spectrometry Data Center
Collection (C) 2014 copyright by the U.S. Secretary of Commerce
on behalf of the United States of America. All rights reserved.
##CAS REGISTRY NO=706-78-5
##$NIST MASS SPEC NO=239722
##MOLFORM=C5 Cl8
##MW=340
##$NIST SOURCE=MSDC
##XUNITS=M/Z
##YUNITS=RELATIVE INTENSITY
##XFACTOR=1
##YFACTOR=1
##FIRSTX=18
##LASTX=350
##FIRSTY=20
##MAXX=350
##MINX=18
##MAXY=9999
##MINY=10
##NPOINTS=148
##PEAK TABLE=(XY..XY)
18,20 24,10 35,129 36,219
37,40 38,40 47,199 48,40
49,70 59,40 60,409 61,30
65,239 66,149 67,20 70,20
71,229 72,20 73,70 82,60
83,129 84,30 85,40 94,119
95,899 96,119 97,299 98,30
100,259 101,349 102,169 103,30
106,309 107,10 108,209 109,10
110,30 117,859 118,1389 119,919
120,299 121,289 122,20 123,30
129,10 130,1149 131,80 132,759
133,40 134,129 135,249 136,479
137,379 138,159 139,40 141,1309
142,40 143,1279 144,40 145,419
146,10 147,40 152,70 153,179
154,169 155,90 156,30 157,20
164,10 165,1169 166,80 167,1149
168,70 169,379 170,20 171,40
188,40 190,50 192,20 200,40
201,119 202,60 203,159 204,40
205,70 206,10 207,20 213,10
221,20 222,10 223,60 224,20
225,99 226,10 227,70 229,30
231,10 235,6189 236,369 237,9999
238,589 239,6479 240,389 241,2099
242,119 243,349 244,20 245,20
260,10 262,10 270,2559 271,149
272,4879 273,279 274,3939 275,219
276,1689 277,90 278,409 279,30
280,50 281,20 283,20 285,10
305,3869 306,219 307,8659 308,489
309,8329 310,459 311,4419 312,239
313,1409 314,80 315,269 316,30
317,30 318,10 340,169 341,10
342,439 343,20 344,479 345,20
346,299 347,10 348,119 350,30
##END=
