##TITLE=2(3H)-Furanone, 5-hexyldihydro-
##JCAMP-DX=4.24
##DATA TYPE=MASS SPECTRUM
##OWNER=NIST Mass Spectrometry Data Center
Collection (C) 2014 copyright by the U.S. Secretary of Commerce
on behalf of the United States of America. All rights reserved.
##CAS REGISTRY NO=706-14-9
##$NIST MASS SPEC NO=22021
##MOLFORM=C10 H18 O2
##MW=170
##$NIST SOURCE=MSDC
##XUNITS=M/Z
##YUNITS=RELATIVE INTENSITY
##XFACTOR=1
##YFACTOR=1
##FIRSTX=14
##LASTX=170
##FIRSTY=10
##MAXX=170
##MINX=14
##MAXY=9999
##MINY=10
##NPOINTS=82
##PEAK TABLE=(XY..XY)
14,10 15,20 26,50 27,601
28,430 29,1381 30,40 31,40
32,20 38,10 39,420 40,60
41,871 42,400 43,871 44,110
45,40 50,10 51,30 52,10
53,90 54,130 55,861 56,841
57,550 58,90 59,30 60,60
65,20 66,20 67,110 68,160
69,340 70,300 71,120 72,190
73,80 77,20 78,10 79,20
80,10 81,110 82,100 83,170
84,310 85,9999 86,530 87,70
88,10 93,30 94,10 95,110
96,110 97,150 98,80 99,30
100,450 101,150 102,20 108,70
109,40 110,200 111,180 112,20
113,270 114,150 115,50 123,60
124,40 126,10 127,50 128,871
129,80 130,10 134,40 137,10
141,40 142,20 151,10 152,70
169,10 170,10
##END=
