##TITLE=Cyclopentene, 1,2-dichloro-3,3,4,4,5,5-hexafluoro-
##JCAMP-DX=4.24
##DATA TYPE=MASS SPECTRUM
##OWNER=NIST Mass Spectrometry Data Center
Collection (C) 2014 copyright by the U.S. Secretary of Commerce
on behalf of the United States of America. All rights reserved.
##CAS REGISTRY NO=706-79-6
##$NIST MASS SPEC NO=11865
##MOLFORM=C5 Cl2 F6
##MW=244
##$NIST SOURCE=MSDC
##XUNITS=M/Z
##YUNITS=RELATIVE INTENSITY
##XFACTOR=1
##YFACTOR=1
##FIRSTX=18
##LASTX=249
##FIRSTY=20
##MAXX=249
##MINX=18
##MAXY=9999
##MINY=10
##NPOINTS=144
##PEAK TABLE=(XY..XY)
18,20 28,310 29,10 31,1381
32,100 35,80 36,80 37,30
43,20 44,100 47,230 48,20
49,70 50,180 55,641 56,20
59,50 60,10 61,20 62,60
66,30 67,40 68,10 69,1081
70,80 71,330 72,40 73,120
74,851 75,30 77,40 78,110
79,90 80,30 81,20 82,20
83,10 84,10 85,1932 86,280
87,631 90,821 91,30 92,270
93,410 94,150 95,140 96,140
97,330 98,270 99,50 100,661
101,140 102,140 103,90 104,50
105,360 106,60 108,30 109,7357
110,250 111,2392 112,90 113,90
114,60 116,60 117,220 118,30
119,20 121,250 123,80 124,601
125,1001 126,30 127,631 128,50
129,120 130,10 131,120 132,30
133,30 134,20 135,10 136,90
137,20 139,20 140,440 141,20
142,140 143,20 144,100 146,60
147,70 148,20 149,20 155,450
156,130 158,60 159,1561 160,80
161,500 162,20 163,150 164,20
165,100 166,20 167,70 169,60
171,180 173,60 175,5355 176,240
177,3423 178,200 179,550 180,30
188,30 190,20 191,70 192,40
193,30 194,30 195,5025 196,230
197,3253 198,150 199,530 200,20
209,2532 210,200 211,811 212,80
215,20 226,3063 227,170 228,1982
229,110 230,260 231,30 244,9999
245,561 246,6366 248,350 249,1031
##END=
