##TITLE=1-Butanamine, N-methyl-N-nitroso-
##JCAMP-DX=4.24
##DATA TYPE=MASS SPECTRUM
##ORIGIN=T. BRYCE UNILEVER RESEARCH COLWORTH/WELWYN, BEDFORD U.K.
##OWNER=NIST Mass Spectrometry Data Center
Collection (C) 2014 copyright by the U.S. Secretary of Commerce
on behalf of the United States of America. All rights reserved.
##CAS REGISTRY NO=7068-83-9
##$NIST MASS SPEC NO=1978
##MOLFORM=C5 H12 N2 O
##MW=116
##$NIST SOURCE=MSDC
##XUNITS=M/Z
##YUNITS=RELATIVE INTENSITY
##XFACTOR=1
##YFACTOR=1
##FIRSTX=27
##LASTX=117
##FIRSTY=2750
##MAXX=117
##MINX=27
##MAXY=9999
##MINY=75
##NPOINTS=32
##PEAK TABLE=(XY..XY)
27,2750 29,2000 30,1150 31,180
38,115 39,900 40,235 41,3500
42,9500 43,9999 44,8000 45,375
53,115 54,135 55,670 56,950
57,1875 58,415 59,150 61,600
70,350 71,125 73,6250 74,4500
75,170 84,500 85,75 87,240
99,1400 100,95 116,1700 117,130
##END=
