##TITLE=1,3,5-Trimethyladamantane
##JCAMP-DX=4.24
##DATA TYPE=MASS SPECTRUM
##ORIGIN=V.G.Zaikin, TIPS, Russian Acad. Sci.
##OWNER=NIST Mass Spectrometry Data Center
Collection (C) 2014 copyright by the U.S. Secretary of Commerce
on behalf of the United States of America. All rights reserved.
##CAS REGISTRY NO=707-35-7
##$NIST MASS SPEC NO=214982
##MOLFORM=C13 H22
##MW=178
##$NIST SOURCE=MSDC
##XUNITS=M/Z
##YUNITS=RELATIVE INTENSITY
##XFACTOR=1
##YFACTOR=1
##FIRSTX=51
##LASTX=180
##FIRSTY=200
##MAXX=180
##MINX=51
##MAXY=9999
##MINY=9
##NPOINTS=35
##PEAK TABLE=(XY..XY)
51,200 53,550 54,100 55,900
56,200 57,200 65,300 67,500
69,450 70,100 77,600 78,200
79,700 80,100 81,550 83,200
91,900 92,200 93,1101 94,200
95,450 105,400 107,4604 108,500
109,200 121,900 122,150 135,300
149,200 163,9999 164,1201 165,200
178,600 179,81 180,9
##END=
