##TITLE=3-Methyl-1-phenyl-2-phospholene-1-oxide
##JCAMP-DX=4.24
##DATA TYPE=MASS SPECTRUM
##ORIGIN=NIST Mass Spectrometry Data Center
##OWNER=NIST Mass Spectrometry Data Center
Collection (C) 2014 copyright by the U.S. Secretary of Commerce
on behalf of the United States of America. All rights reserved.
##CAS REGISTRY NO=707-61-9
##$NIST MASS SPEC NO=342608
##MOLFORM=C11 H13 O P
##MW=192
##$NIST SOURCE=MSDC
##XUNITS=M/Z
##YUNITS=RELATIVE INTENSITY
##XFACTOR=1
##YFACTOR=1
##FIRSTX=13
##LASTX=194
##FIRSTY=40
##MAXX=194
##MINX=13
##MAXY=9999
##MINY=20
##NPOINTS=129
##PEAK TABLE=(XY..XY)
13,40 14,70 15,310 16,40
17,170 18,681 19,20 26,631
27,3263 28,741 29,621 31,90
33,40 37,230 38,901 39,5085
40,1071 41,2903 42,330 43,761
44,170 45,420 47,9999 48,490
49,550 50,2783 51,6936 52,971
53,1561 54,200 55,380 56,270
57,821 58,130 59,160 60,30
61,100 62,370 63,811 64,220
65,1271 66,440 67,2102 68,1141
69,721 70,290 71,811 72,70
73,350 74,611 75,841 77,5285
78,1051 79,370 80,170 81,270
82,170 83,711 84,90 85,170
86,150 87,540 89,350 91,871
92,150 93,50 94,220 95,430
96,721 97,1772 98,1331 99,3994
100,340 101,110 102,160 103,210
105,1261 106,160 107,761 108,330
109,330 110,50 113,721 115,4714
116,601 117,811 118,110 119,30
120,60 121,190 122,30 124,550
125,661 126,100 127,320 128,921
129,1051 130,561 131,110 133,340
134,440 135,80 139,40 141,220
142,230 143,380 144,130 146,1601
147,280 149,520 150,170 151,410
152,370 153,40 159,50 162,70
164,7006 165,781 166,80 171,40
173,50 174,50 175,40 177,1912
178,180 191,2853 192,7156 193,911
194,90
##END=
