##TITLE=10-Methylanthracene-9-carboxaldehyde
##JCAMP-DX=4.24
##DATA TYPE=MASS SPECTRUM
##ORIGIN=Japan AIST/NIMC Database- Spectrum MS-NW-6710
##OWNER=NIST Mass Spectrometry Data Center
Collection (C) 2014 copyright by the U.S. Secretary of Commerce
on behalf of the United States of America. All rights reserved.
##CAS REGISTRY NO=7072-00-6
##$NIST MASS SPEC NO=235384
##MOLFORM=C16 H12 O
##MW=220
##$NIST SOURCE=MSDC
##XUNITS=M/Z
##YUNITS=RELATIVE INTENSITY
##XFACTOR=1
##YFACTOR=1
##FIRSTX=26
##LASTX=223
##FIRSTY=10
##MAXX=223
##MINX=26
##MAXY=9999
##MINY=10
##NPOINTS=118
##PEAK TABLE=(XY..XY)
26,10 27,70 28,50 29,70
37,10 38,30 39,209 40,10
50,139 51,209 52,30 55,10
56,10 61,40 62,159 63,369
64,30 65,50 67,20 68,30
69,209 70,40 73,20 74,219
75,239 76,109 77,60 78,10
80,10 81,399 82,899 83,229
84,10 85,40 86,149 87,239
88,289 89,139 90,10 91,10
93,319 94,1159 95,619 96,459
97,10 98,129 99,90 100,60
101,60 102,159 103,30 109,219
110,439 111,80 112,20 113,80
114,20 115,149 116,10 122,40
123,30 124,10 125,20 126,70
127,30 128,20 134,20 135,20
137,60 138,40 139,229 140,30
141,20 146,10 149,30 150,169
151,159 152,259 153,30 161,50
162,90 163,469 164,239 165,1339
166,189 167,20 174,70 175,90
176,549 177,399 178,80 179,20
185,20 186,50 187,479 188,399
189,3199 190,1369 191,4739 192,2839
193,439 194,30 197,10 200,20
201,20 202,40 203,20 204,10
205,2839 206,499 207,50 217,10
218,60 219,4359 220,9999 221,1709
222,159 223,10
##END=
