##TITLE=1-Naphthalenecarboxaldehyde, 2-hydroxy-
##JCAMP-DX=4.24
##DATA TYPE=MASS SPECTRUM
##ORIGIN=Japan AIST/NIMC Database- Spectrum MS-NW-2658
##OWNER=NIST Mass Spectrometry Data Center
Collection (C) 2014 copyright by the U.S. Secretary of Commerce
on behalf of the United States of America. All rights reserved.
##CAS REGISTRY NO=708-06-5
##$NIST MASS SPEC NO=231551
##MOLFORM=C11 H8 O2
##MW=172
##$NIST SOURCE=MSDC
##XUNITS=M/Z
##YUNITS=RELATIVE INTENSITY
##XFACTOR=1
##YFACTOR=1
##FIRSTX=18
##LASTX=174
##FIRSTY=10
##MAXX=174
##MINX=18
##MAXY=9999
##MINY=10
##NPOINTS=83
##PEAK TABLE=(XY..XY)
18,10 26,30 27,70 28,109
29,119 37,60 38,99 39,439
40,30 41,30 43,20 44,10
49,30 50,239 51,309 52,50
53,60 55,30 56,20 57,209
58,189 59,20 61,99 62,329
63,899 64,139 65,469 66,30
71,119 72,289 73,30 74,229
75,249 76,159 77,159 78,10
79,10 84,10 85,50 86,379
87,199 88,259 89,919 90,129
91,20 93,10 98,50 99,50
100,40 101,60 102,30 109,10
110,20 111,10 113,279 114,729
115,6799 116,1639 117,119 118,10
119,10 120,10 121,10 122,10
125,30 126,1249 127,259 128,30
129,10 142,129 143,1079 144,5359
145,629 146,40 154,259 155,129
156,10 158,10 170,50 171,5849
172,9999 173,1149 174,109
##END=
