##TITLE=4'-(Trifluoromethyl)acetophenone
##JCAMP-DX=4.24
##DATA TYPE=MASS SPECTRUM
##ORIGIN=Japan AIST/NIMC Database- Spectrum MS-NW-9905
##OWNER=NIST Mass Spectrometry Data Center
Collection (C) 2014 copyright by the U.S. Secretary of Commerce
on behalf of the United States of America. All rights reserved.
##CAS REGISTRY NO=709-63-7
##$NIST MASS SPEC NO=239058
##MOLFORM=C9 H7 F3 O
##MW=188
##$NIST SOURCE=MSDC
##XUNITS=M/Z
##YUNITS=RELATIVE INTENSITY
##XFACTOR=1
##YFACTOR=1
##FIRSTX=15
##LASTX=190
##FIRSTY=70
##MAXX=190
##MINX=15
##MAXY=9999
##MINY=10
##NPOINTS=85
##PEAK TABLE=(XY..XY)
15,70 18,10 27,20 28,40
31,20 37,10 38,40 39,60
41,10 42,80 43,1309 44,20
49,10 50,269 51,159 52,10
53,10 57,99 59,30 61,20
62,60 63,139 64,10 65,10
68,10 69,119 70,10 73,20
74,139 75,489 76,119 77,60
80,10 81,40 83,20 85,10
86,10 87,20 88,20 89,40
90,10 91,40 93,20 94,50
95,739 96,80 99,90 100,30
101,30 102,10 105,10 107,50
108,10 109,80 113,10 114,10
118,10 119,119 120,10 123,10
125,399 126,209 127,50 137,10
138,10 141,80 143,50 144,90
145,6319 146,519 147,20 151,20
154,10 158,10 159,60 169,369
170,40 171,10 172,20 173,9999
174,889 175,50 188,1019 189,439
190,40
##END=
