##TITLE=(E,E)-7,11,15-Trimethyl-3-methylene-hexadeca-1,6,10,14-tetraene
##JCAMP-DX=4.24
##DATA TYPE=MASS SPECTRUM
##ORIGIN=B.V. BURGER, DEP. CHEM., UNIV. STELLENBOSCH, SOUTH AFRIC
##OWNER=NIST Mass Spectrometry Data Center
Collection (C) 2014 copyright by the U.S. Secretary of Commerce
on behalf of the United States of America. All rights reserved.
##CAS REGISTRY NO=70901-63-2
##$NIST MASS SPEC NO=72848
##MOLFORM=C20 H32
##MW=272
##$NIST SOURCE=MSDC
##XUNITS=M/Z
##YUNITS=RELATIVE INTENSITY
##XFACTOR=1
##YFACTOR=1
##FIRSTX=41
##LASTX=272
##FIRSTY=5430
##MAXX=272
##MINX=41
##MAXY=9999
##MINY=80
##NPOINTS=68
##PEAK TABLE=(XY..XY)
41,5430 42,290 43,800 53,760
54,110 55,2000 56,230 57,590
58,200 65,310 66,110 67,1960
68,1260 69,9999 70,850 71,270
77,750 78,140 79,1610 80,320
81,3890 82,560 83,350 85,130
91,1050 92,430 93,3900 94,570
95,1550 96,200 97,190 105,730
106,240 107,1190 108,200 109,720
117,100 118,100 119,920 120,1270
121,780 122,240 123,430 124,100
131,120 132,350 133,1490 134,480
135,580 136,140 137,290 145,130
146,240 147,500 148,250 149,150
159,310 160,140 161,610 162,180
187,300 188,150 189,190 190,180
203,180 229,90 257,80 272,260
##END=
