##TITLE=Spermine
##JCAMP-DX=4.24
##DATA TYPE=MASS SPECTRUM
##ORIGIN=NIST Mass Spectrometry Data Center, 1992
##OWNER=NIST Mass Spectrometry Data Center
Collection (C) 2014 copyright by the U.S. Secretary of Commerce
on behalf of the United States of America. All rights reserved.
##CAS REGISTRY NO=71-44-3
##$NIST MASS SPEC NO=125168
##MOLFORM=C10 H26 N4
##MW=202
##$NIST SOURCE=MSDC
##XUNITS=M/Z
##YUNITS=RELATIVE INTENSITY
##XFACTOR=1
##YFACTOR=1
##FIRSTX=13
##LASTX=203
##FIRSTY=1
##MAXX=203
##MINX=13
##MAXY=9999
##MINY=1
##NPOINTS=143
##PEAK TABLE=(XY..XY)
13,1 14,17 15,461 16,131
17,397 18,1577 25,17 26,199
27,942 28,3490 29,1442 30,9999
31,275 32,40 34,14 36,41
37,26 38,144 39,737 40,302
41,2976 42,3473 43,2637 44,9571
45,795 46,149 47,19 48,16
49,25 50,62 51,120 52,110
53,187 54,622 55,1414 56,3544
57,6853 58,2360 59,247 60,208
62,24 63,39 64,23 65,80
66,49 67,298 68,1398 69,1023
70,5214 71,1024 72,2282 73,304
74,598 75,166 76,25 77,150
78,61 79,28 80,221 81,329
82,849 83,987 84,8259 85,1556
86,788 87,1225 88,118 89,702
90,62 91,13 92,28 93,31
94,112 95,85 96,717 97,797
98,2859 99,789 100,253 101,299
102,463 103,179 105,171 106,18
107,21 108,39 109,204 110,376
111,198 112,588 113,1164 114,189
115,371 116,208 117,28 118,14
120,28 121,49 122,33 123,144
124,14 125,1309 126,851 127,1879
128,189 129,496 130,415 131,44
133,19 135,7 136,18 137,27
138,23 139,68 140,110 141,69
142,33 144,24 145,55 146,61
147,15 149,78 150,23 151,33
152,25 153,60 154,40 155,33
156,31 158,1016 159,346 160,34
165,33 166,14 168,14 172,218
173,25 181,39 182,18 184,22
186,13 202,45 203,14
##END=
