##TITLE=2H-Pyran-2-one, 6-hexyltetrahydro-
##JCAMP-DX=4.24
##DATA TYPE=MASS SPECTRUM
##ORIGIN=Japan AIST/NIMC Database- Spectrum MS-NW-3938
##OWNER=NIST Mass Spectrometry Data Center
Collection (C) 2014 copyright by the U.S. Secretary of Commerce
on behalf of the United States of America. All rights reserved.
##CAS REGISTRY NO=710-04-3
##$NIST MASS SPEC NO=232511
##MOLFORM=C11 H20 O2
##MW=184
##$NIST SOURCE=MSDC
##XUNITS=M/Z
##YUNITS=RELATIVE INTENSITY
##XFACTOR=1
##YFACTOR=1
##FIRSTX=14
##LASTX=185
##FIRSTY=10
##MAXX=185
##MINX=14
##MAXY=9999
##MINY=10
##NPOINTS=104
##PEAK TABLE=(XY..XY)
14,10 15,70 18,40 26,60
27,1189 28,229 29,1049 30,20
31,40 32,30 38,30 39,739
40,149 41,2299 42,2029 43,2639
44,149 45,70 50,20 51,40
52,30 53,199 54,309 55,2039
56,909 57,409 58,149 59,30
60,209 61,20 63,10 65,40
66,30 67,329 68,639 69,1029
70,2779 71,3559 72,199 73,219
74,10 77,30 78,10 79,60
80,40 81,269 82,289 83,559
84,439 85,169 86,279 87,70
88,10 91,30 92,10 93,30
94,30 95,199 96,339 97,389
98,239 99,9999 100,929 101,149
102,30 105,10 107,20 108,10
109,80 110,119 111,90 112,119
113,379 114,999 115,179 116,20
119,40 120,10 121,10 122,209
123,129 124,209 125,70 126,10
127,50 128,60 129,20 133,10
137,90 138,40 141,80 142,70
143,10 147,10 148,159 149,20
151,10 155,60 156,20 166,139
167,20 183,20 184,30 185,10
##END=
