##TITLE=Cathinone
##JCAMP-DX=4.24
##DATA TYPE=MASS SPECTRUM
##ORIGIN=NIST Mass Spectrometry Data Center
##OWNER=NIST Mass Spectrometry Data Center
Collection (C) 2014 copyright by the U.S. Secretary of Commerce
on behalf of the United States of America. All rights reserved.
##CAS REGISTRY NO=71031-15-7
##$NIST MASS SPEC NO=352955
##MOLFORM=C9 H11 N O
##MW=149
##$NIST SOURCE=MSDC
##XUNITS=M/Z
##YUNITS=RELATIVE INTENSITY
##XFACTOR=1
##YFACTOR=1
##FIRSTX=26
##LASTX=150
##FIRSTY=20
##MAXX=150
##MINX=26
##MAXY=9999
##MINY=10
##NPOINTS=63
##PEAK TABLE=(XY..XY)
26,20 27,150 28,210 29,50
30,10 37,20 38,50 39,110
40,40 41,90 42,571 43,260
44,9999 45,280 49,20 50,430
51,1161 52,120 53,30 54,10
55,20 57,10 61,10 62,30
63,50 64,10 65,20 66,10
73,20 74,150 75,90 76,140
77,1812 78,320 79,100 80,10
86,10 87,10 89,20 90,10
91,20 92,10 102,10 103,20
104,30 105,841 106,180 107,20
115,10 116,10 117,10 118,10
119,10 120,10 130,10 131,10
132,10 133,20 134,110 135,10
148,10 149,10 150,10
##END=
