##TITLE=1,3,4-Thiadiazole-2(3H)-thione, 3,5-dimethyl-
##JCAMP-DX=4.24
##DATA TYPE=MASS SPECTRUM
##OWNER=NIST Mass Spectrometry Data Center
Collection (C) 2014 copyright by the U.S. Secretary of Commerce
on behalf of the United States of America. All rights reserved.
##CAS REGISTRY NO=7111-96-8
##$NIST MASS SPEC NO=4378
##MOLFORM=C4 H6 N2 S2
##MW=146
##$NIST SOURCE=MSDC
##XUNITS=M/Z
##YUNITS=RELATIVE INTENSITY
##XFACTOR=1
##YFACTOR=1
##FIRSTX=15
##LASTX=148
##FIRSTY=1403
##MAXX=148
##MINX=15
##MAXY=9999
##MINY=100
##NPOINTS=43
##PEAK TABLE=(XY..XY)
15,1403 26,200 27,621 28,1544
29,1823 32,210 33,100 34,100
38,200 39,581 40,1262 41,2184
42,3807 43,501 44,2204 45,1102
46,822 47,381 57,140 58,1403
59,781 60,100 61,301 64,2184
65,160 66,220 69,1623 70,1302
71,160 72,5851 73,2044 74,401
76,1583 77,701 78,200 79,200
90,200 105,4609 106,240 107,421
146,9999 147,621 148,902
##END=
