##TITLE=1,1'-Biphenyl, 4-(1-methylethyl)-
##JCAMP-DX=4.24
##DATA TYPE=MASS SPECTRUM
##ORIGIN=Japan AIST/NIMC Database- Spectrum MS-NW-7586
##OWNER=NIST Mass Spectrometry Data Center
Collection (C) 2014 copyright by the U.S. Secretary of Commerce
on behalf of the United States of America. All rights reserved.
##CAS REGISTRY NO=7116-95-2
##$NIST MASS SPEC NO=238193
##MOLFORM=C15 H16
##MW=196
##$NIST SOURCE=MSDC
##XUNITS=M/Z
##YUNITS=RELATIVE INTENSITY
##XFACTOR=1
##YFACTOR=1
##FIRSTX=15
##LASTX=198
##FIRSTY=10
##MAXX=198
##MINX=15
##MAXY=9999
##MINY=10
##NPOINTS=107
##PEAK TABLE=(XY..XY)
15,10 27,119 28,30 29,10
38,10 39,179 40,10 41,159
42,10 43,30 44,10 50,80
51,279 52,60 53,70 57,20
62,50 63,189 64,80 65,90
69,50 70,40 71,20 74,70
75,149 76,489 77,669 78,109
79,30 81,40 82,179 83,389
84,299 86,30 87,60 88,159
89,469 90,409 91,189 92,10
94,20 95,10 96,10 97,10
98,99 99,20 100,10 101,50
102,129 103,289 104,40 110,10
111,10 113,40 114,20 115,369
116,50 117,20 118,10 119,40
125,20 126,99 127,159 128,169
129,60 137,10 138,10 139,129
140,20 141,179 142,40 149,10
150,90 151,259 152,829 153,529
154,279 155,149 156,20 162,10
163,60 164,80 165,1939 166,1889
167,479 168,60 169,10 171,10
173,10 174,10 175,10 176,129
177,139 178,699 179,869 180,369
181,9999 182,1549 183,119 184,10
191,20 193,10 194,20 195,109
196,4509 197,759 198,60
##END=
