##TITLE=iso-Amyl levulinate
##JCAMP-DX=4.24
##DATA TYPE=MASS SPECTRUM
##ORIGIN=W.Jennings, T.Shibamoto
##OWNER=NIST Mass Spectrometry Data Center
Collection (C) 2014 copyright by the U.S. Secretary of Commerce
on behalf of the United States of America. All rights reserved.
##CAS REGISTRY NO=71172-75-3
##$NIST MASS SPEC NO=284972
##MOLFORM=C10 H18 O3
##MW=186
##$NIST SOURCE=MSDC
##XUNITS=M/Z
##YUNITS=RELATIVE INTENSITY
##XFACTOR=1
##YFACTOR=1
##FIRSTX=26
##LASTX=171
##FIRSTY=520
##MAXX=171
##MINX=26
##MAXY=9999
##MINY=80
##NPOINTS=38
##PEAK TABLE=(XY..XY)
26,520 27,90 28,310 29,761
30,90 34,540 39,90 41,951
42,1251 43,9999 44,651 45,90
51,330 55,3723 56,1251 57,671
58,410 61,110 69,470 70,5635
71,6576 72,1431 73,290 74,1331
75,210 81,80 84,210 98,851
99,6055 100,1041 101,1341 115,90
116,90 117,1651 118,120 143,210
144,981 171,220
##END=
