##TITLE=1-Ethyl-2,2,6-trimethylcyclohexane
##JCAMP-DX=4.24
##DATA TYPE=MASS SPECTRUM
##ORIGIN=MASS SPECTRA OF ORGANIC COMPOUNDS, CSIRO, B.H. KENNETT ET AL
##OWNER=NIST Mass Spectrometry Data Center
Collection (C) 2014 copyright by the U.S. Secretary of Commerce
on behalf of the United States of America. All rights reserved.
##CAS REGISTRY NO=71186-27-1
##$NIST MASS SPEC NO=69815
##MOLFORM=C11 H22
##MW=154
##$NIST SOURCE=MSDC
##XUNITS=M/Z
##YUNITS=RELATIVE INTENSITY
##XFACTOR=1
##YFACTOR=1
##FIRSTX=27
##LASTX=155
##FIRSTY=1630
##MAXX=155
##MINX=27
##MAXY=9999
##MINY=140
##NPOINTS=39
##PEAK TABLE=(XY..XY)
27,1630 29,2280 39,1520 40,370
41,6740 42,1150 43,3760 44,480
53,820 54,370 55,7460 56,7320
57,2450 67,840 68,590 69,9999
70,4270 71,1290 75,230 77,320
79,280 81,600 82,820 83,3840
84,4380 85,1050 91,150 95,230
96,420 97,1290 98,890 111,1240
112,320 125,360 126,140 139,1630
140,280 154,2020 155,180
##END=
