##TITLE=Ethanamine, N-ethyl-N-nitro-
##JCAMP-DX=4.24
##DATA TYPE=MASS SPECTRUM
##ORIGIN=T. BRYCE UNILEVER RESEARCH COLWORTH/WELWYN, BEDFORD U.K.
##OWNER=NIST Mass Spectrometry Data Center
Collection (C) 2014 copyright by the U.S. Secretary of Commerce
on behalf of the United States of America. All rights reserved.
##CAS REGISTRY NO=7119-92-8
##$NIST MASS SPEC NO=2094
##MOLFORM=C4 H10 N2 O2
##MW=118
##$NIST SOURCE=MSDC
##XUNITS=M/Z
##YUNITS=RELATIVE INTENSITY
##XFACTOR=1
##YFACTOR=1
##FIRSTX=29
##LASTX=119
##FIRSTY=3286
##MAXX=119
##MINX=29
##MAXY=9999
##MINY=100
##NPOINTS=27
##PEAK TABLE=(XY..XY)
29,3286 30,1857 31,124 39,162
40,476 41,952 42,9999 43,571
44,8381 45,276 46,195 52,100
54,229 55,143 56,3524 57,7619
58,952 61,171 70,324 71,1095
72,319 73,357 102,410 103,5810
104,290 118,3333 119,195
##END=
