##TITLE=1,2,4,5-Benzenetetracarbonitrile
##JCAMP-DX=4.24
##DATA TYPE=MASS SPECTRUM
##ORIGIN=NIST Mass Spectrometry Data Center, 1994
##OWNER=NIST Mass Spectrometry Data Center
Collection (C) 2014 copyright by the U.S. Secretary of Commerce
on behalf of the United States of America. All rights reserved.
##CAS REGISTRY NO=712-74-3
##$NIST MASS SPEC NO=135544
##MOLFORM=C10 H2 N4
##MW=178
##$NIST SOURCE=MSDC
##XUNITS=M/Z
##YUNITS=RELATIVE INTENSITY
##XFACTOR=1
##YFACTOR=1
##FIRSTX=12
##LASTX=180
##FIRSTY=27
##MAXX=180
##MINX=12
##MAXY=9999
##MINY=22
##NPOINTS=60
##PEAK TABLE=(XY..XY)
12,27 14,35 24,39 25,22
26,130 27,60 28,132 32,39
36,157 37,455 38,357 39,23
48,162 49,232 50,343 51,1111
52,232 53,39 60,119 61,172
62,1021 63,622 64,170 72,54
73,92 74,546 75,1775 76,662
77,216 78,67 84,31 85,26
86,290 87,138 88,377 89,561
90,48 98,193 99,301 100,1700
101,623 102,315 103,30 110,31
112,73 113,143 114,36 124,307
125,294 126,492 127,132 138,54
150,102 151,916 152,130 153,23
154,22 178,9999 179,1235 180,60
##END=
