##TITLE=1,2-Cyclooctadiene
##JCAMP-DX=4.24
##DATA TYPE=MASS SPECTRUM
##ORIGIN=JACSAT, 100(2)520(1978); R. G. SALOMON ET AL.
##OWNER=NIST Mass Spectrometry Data Center
Collection (C) 2014 copyright by the U.S. Secretary of Commerce
on behalf of the United States of America. All rights reserved.
##CAS REGISTRY NO=7124-40-5
##$NIST MASS SPEC NO=66063
##MOLFORM=C8 H12
##MW=108
##$NIST SOURCE=MSDC
##XUNITS=M/Z
##YUNITS=RELATIVE INTENSITY
##XFACTOR=1
##YFACTOR=1
##FIRSTX=59
##LASTX=108
##FIRSTY=2300
##MAXX=108
##MINX=59
##MAXY=9999
##MINY=1200
##NPOINTS=12
##PEAK TABLE=(XY..XY)
59,2300 65,1600 67,2600 74,1900
77,4600 78,2100 79,6800 80,3300
91,3700 93,9200 94,1200 108,9999
##END=
