##TITLE=2,5-Bis(5-tert-butyl-2-benzoxazolyl)thiophene
##JCAMP-DX=4.24
##DATA TYPE=MASS SPECTRUM
##ORIGIN=Japan AIST/NIMC Database- Spectrum MS-NW-7085
##OWNER=NIST Mass Spectrometry Data Center
Collection (C) 2014 copyright by the U.S. Secretary of Commerce
on behalf of the United States of America. All rights reserved.
##CAS REGISTRY NO=7128-64-5
##$NIST MASS SPEC NO=235779
##MOLFORM=C26 H26 N2 O2 S
##MW=430
##$NIST SOURCE=MSDC
##XUNITS=M/Z
##YUNITS=RELATIVE INTENSITY
##XFACTOR=1
##YFACTOR=1
##FIRSTX=15
##LASTX=434
##FIRSTY=10
##MAXX=434
##MINX=15
##MAXY=9999
##MINY=10
##NPOINTS=293
##PEAK TABLE=(XY..XY)
15,10 17,20 18,30 27,219
28,20 29,149 38,10 39,319
40,30 41,759 42,40 43,30
45,20 50,30 51,269 52,60
53,179 54,20 55,159 56,20
57,99 58,10 62,40 63,299
64,99 65,369 66,50 67,30
69,40 70,10 71,10 73,10
74,10 75,30 76,40 77,1419
78,239 79,939 80,70 81,20
82,30 83,10 84,10 85,10
87,10 88,20 89,369 90,119
91,229 92,60 93,90 94,20
95,10 96,10 97,10 98,10
101,20 102,70 103,609 104,159
105,2099 106,209 107,30 108,10
109,10 112,10 114,10 115,109
116,40 117,139 118,70 119,60
120,40 121,20 122,10 123,10
124,20 127,20 128,20 129,20
130,30 131,99 132,50 133,1379
134,169 135,30 136,70 137,10
140,10 141,10 143,10 144,20
145,30 146,10 147,50 148,10
149,10 151,10 152,10 153,10
154,20 155,10 156,50 157,10
158,20 159,20 160,10 162,10
164,10 165,60 166,80 167,20
168,20 169,10 170,20 171,20
172,769 173,99 174,10 175,10
176,10 177,10 178,90 179,40
180,40 181,10 182,10 183,10
184,30 185,40 186,559 187,80
188,10 189,10 191,10 192,30
193,20 194,10 195,10 196,40
197,40 198,30 199,50 200,1409
201,149 202,10 203,10 207,139
208,50 209,10 210,10 211,30
212,30 213,60 214,20 215,90
216,20 222,10 223,20 224,20
225,20 226,169 227,139 228,60
229,20 237,10 238,10 239,459
240,169 241,90 242,30 243,10
250,10 251,60 252,80 253,30
254,30 255,10 256,40 257,10
258,10 261,10 263,10 265,30
266,99 267,819 268,179 269,60
270,20 280,10 282,30 283,50
284,119 285,30 286,10 289,10
290,10 291,10 303,10 315,20
316,10 317,10 318,99 319,70
320,20 327,10 328,10 329,20
330,40 331,279 332,80 333,30
334,10 339,10 341,10 342,10
343,40 344,80 345,50 346,20
347,10 354,10 355,20 356,20
357,129 358,149 359,579 360,159
361,50 362,10 363,10 364,10
365,10 366,10 367,10 368,10
369,10 370,20 371,199 372,129
373,80 374,99 375,149 376,50
377,20 378,10 382,10 383,20
384,30 385,129 386,40 387,629
388,179 389,70 390,20 397,10
398,10 399,369 400,169 401,129
402,50 403,30 404,20 405,20
406,20 407,20 408,20 409,20
410,20 411,20 412,20 413,70
414,60 415,7329 416,2119 417,699
418,159 419,30 420,20 421,10
422,10 423,10 424,10 425,10
426,20 427,20 428,50 429,139
430,9999 431,3079 432,949 433,209
434,40
##END=
