##TITLE=Phenol, 3-phenoxy-
##JCAMP-DX=4.24
##DATA TYPE=MASS SPECTRUM
##ORIGIN=RADIAN CORP
##OWNER=NIST Mass Spectrometry Data Center
Collection (C) 2014 copyright by the U.S. Secretary of Commerce
on behalf of the United States of America. All rights reserved.
##CAS REGISTRY NO=713-68-8
##$NIST MASS SPEC NO=73401
##MOLFORM=C12 H10 O2
##MW=186
##$NIST SOURCE=MSDC
##XUNITS=M/Z
##YUNITS=RELATIVE INTENSITY
##XFACTOR=1
##YFACTOR=1
##FIRSTX=27
##LASTX=188
##FIRSTY=160
##MAXX=188
##MINX=27
##MAXY=9999
##MINY=10
##NPOINTS=70
##PEAK TABLE=(XY..XY)
27,160 29,50 38,250 39,960
40,50 50,420 51,1090 52,230
53,380 55,160 61,20 62,230
63,820 64,820 65,1140 66,280
68,70 69,340 70,190 71,110
74,200 75,170 76,150 77,1770
78,950 79,290 80,140 81,260
82,30 84,90 89,90 90,90
91,170 92,510 93,370 94,440
95,100 102,140 103,160 104,20
105,30 110,250 115,1160 116,400
117,750 118,370 122,130 127,520
128,1120 129,1950 130,670 131,500
132,50 139,380 140,160 141,290
144,100 145,10 157,1310 158,1020
159,100 167,230 168,150 169,230
171,30 184,90 185,1270 186,9999
187,1380 188,120
##END=
