##TITLE=Moclobemide
##JCAMP-DX=4.24
##DATA TYPE=MASS SPECTRUM
##ORIGIN=Drug Lab
##OWNER=NIST Mass Spectrometry Data Center
Collection (C) 2014 copyright by the U.S. Secretary of Commerce
on behalf of the United States of America. All rights reserved.
##CAS REGISTRY NO=71320-77-9
##$NIST MASS SPEC NO=379716
##MOLFORM=C13 H17 Cl N2 O2
##MW=268
##$NIST SOURCE=MSDC
##XUNITS=M/Z
##YUNITS=RELATIVE INTENSITY
##XFACTOR=1
##YFACTOR=1
##FIRSTX=39
##LASTX=268
##FIRSTY=10
##MAXX=268
##MINX=39
##MAXY=9999
##MINY=10
##NPOINTS=60
##PEAK TABLE=(XY..XY)
39,10 40,10 41,90 42,300
43,70 44,70 45,20 50,80
51,40 54,60 55,160 56,711
57,70 58,20 61,10 63,10
68,20 69,40 70,320 71,50
72,120 73,10 74,60 75,340
76,110 77,30 82,20 83,60
84,40 85,60 86,50 87,20
88,40 98,160 100,9999 101,581
102,40 103,10 104,30 105,10
110,20 111,791 112,110 113,1111
114,80 137,10 138,10 139,941
140,80 141,310 142,20 156,10
168,10 182,90 183,10 184,30
225,40 227,10 250,20 268,10
##END=
