##TITLE=1-Dimethyl(pentafluorophenyl)silyloxycyclohexane
##JCAMP-DX=4.24
##DATA TYPE=MASS SPECTRUM
##ORIGIN=V.G.Zaikin, TIPS, Russian Acad. Sci.
##OWNER=NIST Mass Spectrometry Data Center
Collection (C) 2014 copyright by the U.S. Secretary of Commerce
on behalf of the United States of America. All rights reserved.
##CAS REGISTRY NO=71338-76-6
##$NIST MASS SPEC NO=215178
##MOLFORM=C14 H17 F5 O Si
##MW=324
##$NIST SOURCE=MSDC
##XUNITS=M/Z
##YUNITS=RELATIVE INTENSITY
##XFACTOR=1
##YFACTOR=1
##FIRSTX=119
##LASTX=327
##FIRSTY=600
##MAXX=327
##MINX=119
##MAXY=9999
##MINY=10
##NPOINTS=23
##PEAK TABLE=(XY..XY)
119,600 125,3403 129,800 141,800
159,1201 160,500 161,600 185,600
225,1701 227,1201 281,9999 282,2001
283,600 295,1601 296,300 309,1401
310,280 311,70 312,10 324,5204
325,1070 326,270 327,30
##END=
