##TITLE=Dicyclohexylsulphide
##JCAMP-DX=4.24
##DATA TYPE=MASS SPECTRUM
##ORIGIN=V.A.KOPTYUG, ATLAS OF MASS SPECTRA OF ORGANIC COMPOUNDS
##OWNER=NIST Mass Spectrometry Data Center
Collection (C) 2014 copyright by the U.S. Secretary of Commerce
on behalf of the United States of America. All rights reserved.
##CAS REGISTRY NO=7133-46-2
##$NIST MASS SPEC NO=78689
##MOLFORM=C12 H22 S
##MW=198
##$NIST SOURCE=MSDC
##XUNITS=M/Z
##YUNITS=RELATIVE INTENSITY
##XFACTOR=1
##YFACTOR=1
##FIRSTX=39
##LASTX=199
##FIRSTY=2440
##MAXX=199
##MINX=39
##MAXY=9999
##MINY=100
##NPOINTS=47
##PEAK TABLE=(XY..XY)
39,2440 40,310 41,7079 42,490
43,610 44,980 45,1380 47,810
50,160 51,320 52,200 53,1560
54,2690 55,9999 56,610 57,100
58,230 59,500 60,900 61,760
65,420 66,310 67,8539 68,610
69,280 71,1040 74,180 77,480
79,1220 80,540 81,3750 82,8779
83,8949 85,280 87,570 110,980
114,1060 115,3260 116,1630 117,3010
118,310 119,160 129,160 155,330
192,220 198,3750 199,810
##END=
