##TITLE=Cyclohexane, (methylthio)-
##JCAMP-DX=4.24
##DATA TYPE=MASS SPECTRUM
##ORIGIN=U.S. BUREAU OF MINES, BARTLESVILLE, OKLAHOMA, USA
##OWNER=NIST Mass Spectrometry Data Center
Collection (C) 2014 copyright by the U.S. Secretary of Commerce
on behalf of the United States of America. All rights reserved.
##CAS REGISTRY NO=7133-37-1
##$NIST MASS SPEC NO=2906
##MOLFORM=C7 H14 S
##MW=130
##$NIST SOURCE=MSDC
##XUNITS=M/Z
##YUNITS=RELATIVE INTENSITY
##XFACTOR=1
##YFACTOR=1
##FIRSTX=24
##LASTX=134
##FIRSTY=4
##MAXX=134
##MINX=24
##MAXY=9999
##MINY=2
##NPOINTS=96
##PEAK TABLE=(XY..XY)
24,4 25,20 26,482 27,3868
28,648 29,1722 30,37 31,3
32,63 33,49 34,41 35,188
36,7 37,98 38,247 39,3628
40,396 41,6671 42,418 43,399
44,51 45,2437 46,600 47,1545
48,351 49,459 50,309 51,575
52,271 53,1440 54,3725 55,8206
56,398 57,62 58,400 59,600
60,110 61,1405 62,175 63,164
64,27 65,219 66,205 67,8826
68,515 69,138 70,23 71,261
72,125 73,458 74,727 75,168
76,70 77,313 78,85 79,431
80,103 81,1604 82,9999 83,4104
84,270 85,207 86,43 87,1937
88,130 89,110 90,6 91,6
93,4 95,14 96,4 97,36
98,8 99,32 100,8 101,130
102,21 103,12 109,5 110,4
111,11 112,4 113,13 114,8
115,581 116,45 117,29 118,2
127,5 128,4 129,25 130,6467
131,553 132,313 133,24 134,2
##END=
