##TITLE=2-Methyl-1-dimethyl(pentafluorophenyl)silyloxypropane
##JCAMP-DX=4.24
##DATA TYPE=MASS SPECTRUM
##ORIGIN=V.G. Zaikin, R.S.Borisov, TIPS RAS, Moscow, Russia
##OWNER=NIST Mass Spectrometry Data Center
Collection (C) 2014 copyright by the U.S. Secretary of Commerce
on behalf of the United States of America. All rights reserved.
##CAS REGISTRY NO=71338-75-5
##$NIST MASS SPEC NO=367886
##MOLFORM=C12 H15 F5 O Si
##MW=298
##$NIST SOURCE=MSDC
##XUNITS=M/Z
##YUNITS=RELATIVE INTENSITY
##XFACTOR=1
##YFACTOR=1
##FIRSTX=26
##LASTX=298
##FIRSTY=110
##MAXX=298
##MINX=26
##MAXY=9999
##MINY=10
##NPOINTS=202
##PEAK TABLE=(XY..XY)
26,110 27,711 28,150 29,380
30,40 31,40 38,50 39,561
40,120 41,1331 42,170 43,961
44,60 45,250 46,50 47,941
48,100 49,841 50,50 51,290
53,130 54,30 55,721 56,350
57,1591 58,180 59,170 60,50
61,170 62,150 63,350 64,40
65,210 66,20 67,40 68,50
69,160 70,30 71,90 72,30
73,90 74,350 75,4974 76,520
77,9999 78,971 79,4044 80,631
81,2542 82,180 83,300 84,40
85,250 86,110 87,190 88,120
89,270 90,40 91,430 92,180
93,611 94,190 95,851 96,70
97,30 98,210 99,1081 100,120
101,741 102,70 103,50 104,140
105,430 106,130 107,681 108,80
109,230 110,310 111,410 112,150
113,440 114,260 115,220 116,30
117,280 118,90 119,1131 120,280
121,90 122,450 123,390 124,100
125,7186 126,621 127,1201 128,170
129,1151 130,8287 131,1331 132,550
133,430 134,100 135,270 136,40
137,330 138,180 139,470 140,280
141,941 142,140 143,520 144,170
145,1431 146,190 147,130 148,100
149,60 151,30 152,10 153,50
154,20 155,100 156,90 157,410
158,300 159,2442 160,250 161,731
162,80 163,230 164,110 165,220
166,20 167,50 168,30 169,40
170,30 171,30 173,60 175,110
176,60 177,60 179,170 180,20
181,100 182,20 183,90 184,30
185,270 186,40 187,30 189,70
190,20 191,120 192,20 193,30
195,40 197,80 199,80 201,40
203,80 204,30 205,170 206,30
207,861 208,120 209,200 210,40
211,130 212,50 213,20 219,20
220,30 221,160 222,40 223,120
225,6436 226,1031 227,1111 228,120
229,30 235,20 236,30 238,30
239,470 240,130 241,270 242,40
251,20 252,20 253,80 254,40
255,8808 256,1371 257,360 258,20
281,30 283,4494 284,631 285,160
297,120 298,30
##END=
