##TITLE=Cyclopentane, (methylthio)-
##JCAMP-DX=4.24
##DATA TYPE=MASS SPECTRUM
##OWNER=NIST Mass Spectrometry Data Center
Collection (C) 2014 copyright by the U.S. Secretary of Commerce
on behalf of the United States of America. All rights reserved.
##CAS REGISTRY NO=7133-36-0
##$NIST MASS SPEC NO=1965
##MOLFORM=C6 H12 S
##MW=116
##$NIST SOURCE=MSDC
##XUNITS=M/Z
##YUNITS=RELATIVE INTENSITY
##XFACTOR=1
##YFACTOR=1
##FIRSTX=1
##LASTX=119
##FIRSTY=110
##MAXX=119
##MINX=1
##MAXY=9999
##MINY=10
##NPOINTS=91
##PEAK TABLE=(XY..XY)
1,110 2,20 12,20 13,30
14,110 15,951 16,20 18,10
24,10 25,20 26,400 27,2662
28,591 29,410 30,10 31,10
32,60 33,40 34,40 35,150
36,10 37,110 38,410 39,5165
40,941 41,9258 42,611 43,220
44,40 45,3093 46,831 47,1892
48,480 49,911 50,130 51,270
52,90 53,1091 54,110 55,320
56,20 57,70 58,470 59,981
60,110 61,1041 62,90 63,150
64,20 65,460 66,250 67,5165
68,9999 69,4794 70,250 71,390
72,180 73,1231 74,711 75,160
76,40 77,10 79,10 81,20
82,10 83,10 84,20 85,110
86,20 87,1481 88,330 89,90
90,20 91,10 93,10 95,10
96,10 97,70 98,10 99,80
100,20 101,2292 102,150 103,110
104,10 113,10 115,20 116,4294
117,320 118,200 119,10
##END=
