##TITLE=1,4-Ethanoquinoxaline, 2,3-dihydro-
##JCAMP-DX=4.24
##DATA TYPE=MASS SPECTRUM
##ORIGIN=Institute of Organic Chemistry, USSR, 1990
##OWNER=NIST Mass Spectrometry Data Center
Collection (C) 2014 copyright by the U.S. Secretary of Commerce
on behalf of the United States of America. All rights reserved.
##CAS REGISTRY NO=7140-45-6
##$NIST MASS SPEC NO=111259
##MOLFORM=C10 H12 N2
##MW=160
##$NIST SOURCE=MSDC
##XUNITS=M/Z
##YUNITS=RELATIVE INTENSITY
##XFACTOR=1
##YFACTOR=1
##FIRSTX=41
##LASTX=162
##FIRSTY=120
##MAXX=162
##MINX=41
##MAXY=9999
##MINY=60
##NPOINTS=41
##PEAK TABLE=(XY..XY)
41,120 42,330 50,260 51,720
52,360 53,110 54,60 55,70
63,170 64,130 65,610 66,490
75,70 76,260 77,1230 78,880
79,110 80,540 83,120 85,80
89,70 90,100 92,600 102,60
103,150 104,1360 105,400 106,60
117,230 118,950 119,130 130,350
131,9999 132,4010 133,340 145,110
157,90 159,610 160,7170 161,7170
162,790
##END=
