##TITLE=1-Chloro-6-phenylhexane
##JCAMP-DX=4.24
##DATA TYPE=MASS SPECTRUM
##ORIGIN=NIST Mass Spectrometry Data Center, 1994
##OWNER=NIST Mass Spectrometry Data Center
Collection (C) 2014 copyright by the U.S. Secretary of Commerce
on behalf of the United States of America. All rights reserved.
##CAS REGISTRY NO=71434-68-9
##$NIST MASS SPEC NO=135946
##MOLFORM=C12 H17 Cl
##MW=196
##$NIST SOURCE=MSDC
##XUNITS=M/Z
##YUNITS=RELATIVE INTENSITY
##XFACTOR=1
##YFACTOR=1
##FIRSTX=15
##LASTX=199
##FIRSTY=71
##MAXX=199
##MINX=15
##MAXY=9999
##MINY=6
##NPOINTS=83
##PEAK TABLE=(XY..XY)
15,71 26,99 27,1292 28,225
29,498 30,7 35,17 36,24
37,24 38,101 39,1340 40,157
41,1548 42,136 43,154 44,8
49,259 50,223 51,744 52,196
53,198 54,55 55,302 56,38
57,14 61,26 62,91 63,464
64,119 65,1585 66,109 67,75
68,14 69,462 70,31 73,6
74,23 75,75 76,73 77,675
78,617 79,358 80,29 81,14
82,22 83,11 86,10 87,17
89,254 91,9999 92,6142 93,461
94,18 101,13 102,68 103,291
104,497 105,734 106,102 107,26
115,198 116,52 117,216 118,60
119,125 120,23 125,25 127,22
128,41 129,21 130,6 131,33
133,151 134,54 147,24 153,20
155,8 160,8 161,11 196,859
197,121 198,310 199,38
##END=
