##TITLE=Methanesulfonic anhydride
##JCAMP-DX=4.24
##DATA TYPE=MASS SPECTRUM
##ORIGIN=Japan AIST/NIMC Database- Spectrum MS-NW-7879
##OWNER=NIST Mass Spectrometry Data Center
Collection (C) 2014 copyright by the U.S. Secretary of Commerce
on behalf of the United States of America. All rights reserved.
##CAS REGISTRY NO=7143-01-3
##$NIST MASS SPEC NO=238666
##MOLFORM=C2 H6 O5 S2
##MW=174
##$NIST SOURCE=MSDC
##XUNITS=M/Z
##YUNITS=RELATIVE INTENSITY
##XFACTOR=1
##YFACTOR=1
##FIRSTX=14
##LASTX=176
##FIRSTY=50
##MAXX=176
##MINX=14
##MAXY=9999
##MINY=10
##NPOINTS=38
##PEAK TABLE=(XY..XY)
14,50 15,2969 16,30 32,40
33,30 34,30 44,30 45,109
46,40 47,20 48,309 49,40
50,20 62,10 63,139 64,169
65,279 66,30 67,10 76,10
78,179 79,9999 80,539 81,679
82,20 83,10 94,90 95,30
96,579 97,20 98,20 109,30
111,20 159,80 161,10 174,299
175,30 176,30
##END=
