##TITLE=7-Phenyl-1-heptyl chloride
##JCAMP-DX=4.24
##DATA TYPE=MASS SPECTRUM
##ORIGIN=NIST Mass Spectrometry Data Center, 1994
##OWNER=NIST Mass Spectrometry Data Center
Collection (C) 2014 copyright by the U.S. Secretary of Commerce
on behalf of the United States of America. All rights reserved.
##CAS REGISTRY NO=71434-47-4
##$NIST MASS SPEC NO=135942
##MOLFORM=C13 H19 Cl
##MW=210
##$NIST SOURCE=MSDC
##XUNITS=M/Z
##YUNITS=RELATIVE INTENSITY
##XFACTOR=1
##YFACTOR=1
##FIRSTX=14
##LASTX=213
##FIRSTY=4
##MAXX=213
##MINX=14
##MAXY=9999
##MINY=3
##NPOINTS=90
##PEAK TABLE=(XY..XY)
14,4 15,74 16,7 26,97
27,1415 28,278 29,838 30,18
35,12 36,25 37,18 38,86
39,1340 40,169 41,1870 42,201
43,348 44,6 49,221 50,183
51,638 52,154 53,262 54,88
55,1062 56,95 57,80 61,25
62,80 63,397 64,116 65,1564
66,105 67,112 68,31 69,58
70,17 73,17 74,3 75,70
76,69 77,696 78,688 79,403
80,43 81,27 82,13 83,202
84,14 87,14 89,241 91,9999
92,7545 93,594 94,38 95,7
101,12 102,64 103,270 104,485
105,734 106,125 107,12 115,193
116,50 117,187 118,50 119,175
120,35 125,27 126,7 127,22
128,33 129,19 130,7 131,35
133,288 134,73 145,12 147,30
148,9 156,7 167,27 168,7
169,12 175,7 210,794 211,119
212,276 213,37
##END=
