##TITLE=4-Piperidinemethanamine
##JCAMP-DX=4.24
##DATA TYPE=MASS SPECTRUM
##ORIGIN=Japan AIST/NIMC Database- Spectrum MS-NW-1036
##OWNER=NIST Mass Spectrometry Data Center
Collection (C) 2014 copyright by the U.S. Secretary of Commerce
on behalf of the United States of America. All rights reserved.
##CAS REGISTRY NO=7144-05-0
##$NIST MASS SPEC NO=230674
##MOLFORM=C6 H14 N2
##MW=114
##$NIST SOURCE=MSDC
##XUNITS=M/Z
##YUNITS=RELATIVE INTENSITY
##XFACTOR=1
##YFACTOR=1
##FIRSTX=14
##LASTX=115
##FIRSTY=20
##MAXX=115
##MINX=14
##MAXY=9999
##MINY=10
##NPOINTS=71
##PEAK TABLE=(XY..XY)
14,20 15,229 16,20 26,119
27,939 28,2149 29,1399 30,8429
31,229 32,20 37,30 38,70
39,789 40,149 41,1529 42,2429
43,2099 44,999 45,70 49,10
50,70 51,129 52,139 53,449
54,719 55,3789 56,9999 57,4159
58,1389 59,90 63,10 64,10
65,90 66,90 67,769 68,1169
69,3139 70,1059 71,309 72,80
73,30 74,10 75,10 77,60
78,20 79,149 80,349 81,289
82,1739 83,249 84,3879 85,2889
86,1249 87,70 93,30 94,139
95,50 96,1769 97,1439 98,209
99,20 106,20 107,10 108,10
109,10 110,10 111,10 112,20
113,90 114,2829 115,219
##END=
