##TITLE=2-Hexene, 2,3-dimethyl-
##JCAMP-DX=4.24
##DATA TYPE=MASS SPECTRUM
##OWNER=NIST Mass Spectrometry Data Center
Collection (C) 2014 copyright by the U.S. Secretary of Commerce
on behalf of the United States of America. All rights reserved.
##CAS REGISTRY NO=7145-20-2
##$NIST MASS SPEC NO=1598
##MOLFORM=C8 H16
##MW=112
##$NIST SOURCE=MSDC
##XUNITS=M/Z
##YUNITS=RELATIVE INTENSITY
##XFACTOR=1
##YFACTOR=1
##FIRSTX=12
##LASTX=114
##FIRSTY=20
##MAXX=114
##MINX=12
##MAXY=9999
##MINY=10
##NPOINTS=75
##PEAK TABLE=(XY..XY)
12,20 13,20 14,90 15,871
16,30 25,10 26,300 27,3243
28,550 29,1742 30,40 31,10
32,10 36,10 37,80 38,260
39,3603 40,611 41,6856 42,681
43,1621 44,60 45,10 46,10
49,10 50,200 51,480 52,210
53,1131 54,270 55,9168 56,701
57,210 58,10 61,20 62,60
63,130 64,20 65,260 66,100
67,881 68,330 69,2662 70,1371
71,80 72,10 73,10 74,20
75,10 76,10 77,170 78,40
79,160 80,30 81,240 82,200
83,9999 84,781 85,30 86,10
89,10 91,50 92,10 93,20
94,10 95,130 96,60 97,711
98,60 109,10 110,10 111,10
112,2913 113,260 114,10
##END=
