##TITLE=3-Hexene, 2,3-dimethyl-
##JCAMP-DX=4.24
##DATA TYPE=MASS SPECTRUM
##ORIGIN=NIST Mass Spectrometry Data Center, 1990.
##OWNER=NIST Mass Spectrometry Data Center
Collection (C) 2014 copyright by the U.S. Secretary of Commerce
on behalf of the United States of America. All rights reserved.
##CAS REGISTRY NO=7145-23-5
##$NIST MASS SPEC NO=114269
##MOLFORM=C8 H16
##MW=112
##$NIST SOURCE=MSDC
##XUNITS=M/Z
##YUNITS=RELATIVE INTENSITY
##XFACTOR=1
##YFACTOR=1
##FIRSTX=15
##LASTX=113
##FIRSTY=171
##MAXX=113
##MINX=15
##MAXY=9999
##MINY=15
##NPOINTS=54
##PEAK TABLE=(XY..XY)
15,171 26,104 27,1202 28,550
29,740 30,21 37,42 39,2703
40,545 41,5306 42,734 43,1102
44,110 45,42 46,22 49,19
50,220 51,532 52,222 53,1329
54,19 55,9999 56,678 57,331
58,15 59,34 61,19 62,62
63,155 64,37 65,377 66,150
67,1056 68,620 69,5617 70,2624
71,134 74,40 77,332 78,72
79,410 80,72 81,372 82,40
83,5647 84,425 85,15 91,62
93,31 95,94 97,1173 98,86
112,2361 113,203
##END=
