##TITLE=Octane, 2,3-dimethyl-
##JCAMP-DX=4.24
##DATA TYPE=MASS SPECTRUM
##ORIGIN=Japan AIST/NIMC Database- Spectrum MS-NW-4578
##OWNER=NIST Mass Spectrometry Data Center
Collection (C) 2014 copyright by the U.S. Secretary of Commerce
on behalf of the United States of America. All rights reserved.
##CAS REGISTRY NO=7146-60-3
##$NIST MASS SPEC NO=227521
##MOLFORM=C10 H22
##MW=142
##$NIST SOURCE=MSDC
##XUNITS=M/Z
##YUNITS=RELATIVE INTENSITY
##XFACTOR=1
##YFACTOR=1
##FIRSTX=15
##LASTX=142
##FIRSTY=30
##MAXX=142
##MINX=15
##MAXY=9999
##MINY=10
##NPOINTS=50
##PEAK TABLE=(XY..XY)
15,30 26,40 27,709 28,149
29,989 30,30 33,10 37,10
38,20 39,519 40,109 41,2049
42,649 43,5009 44,199 50,20
51,30 52,20 53,139 54,99
55,979 56,1279 57,9999 58,459
59,10 65,20 66,10 67,60
68,70 69,709 70,1089 71,1849
72,109 77,10 79,10 81,10
82,10 83,139 84,40 85,319
86,20 95,10 97,20 98,2379
99,699 100,50 112,10 113,30
127,20 142,40
##END=
