##TITLE=Pyrrolidine, 1-(1-cyclopenten-1-yl)-
##JCAMP-DX=4.24
##DATA TYPE=MASS SPECTRUM
##ORIGIN=Japan AIST/NIMC Database- Spectrum MS-IW-1192
##OWNER=NIST Mass Spectrometry Data Center
Collection (C) 2014 copyright by the U.S. Secretary of Commerce
on behalf of the United States of America. All rights reserved.
##CAS REGISTRY NO=7148-07-4
##$NIST MASS SPEC NO=236156
##MOLFORM=C9 H15 N
##MW=137
##$NIST SOURCE=MSDC
##XUNITS=M/Z
##YUNITS=RELATIVE INTENSITY
##XFACTOR=1
##YFACTOR=1
##FIRSTX=15
##LASTX=139
##FIRSTY=30
##MAXX=139
##MINX=15
##MAXY=9999
##MINY=10
##NPOINTS=80
##PEAK TABLE=(XY..XY)
15,30 26,50 27,359 28,479
29,189 30,99 37,10 38,50
39,639 40,139 41,1159 42,319
43,479 44,60 46,10 50,40
51,99 52,139 53,329 54,659
55,579 56,179 57,20 58,10
59,10 62,10 63,40 64,20
65,339 66,159 67,799 68,379
69,109 70,989 71,169 72,10
77,129 78,70 79,369 80,789
81,609 82,249 83,90 84,169
85,10 91,129 92,70 93,179
94,769 95,149 96,339 97,70
98,20 103,20 104,30 105,30
106,139 107,169 108,919 109,399
110,459 111,70 115,10 117,40
118,20 119,20 120,209 121,119
122,899 123,80 130,99 131,80
132,50 133,50 134,499 135,299
136,9999 137,3899 138,389 139,90
##END=
