##TITLE=2-Furancarboxylic acid, 2-phenylethyl ester
##JCAMP-DX=4.24
##DATA TYPE=MASS SPECTRUM
##ORIGIN=V.G. Zaikin, TIPS RAS, Moscow, Russia
##OWNER=NIST Mass Spectrometry Data Center
Collection (C) 2014 copyright by the U.S. Secretary of Commerce
on behalf of the United States of America. All rights reserved.
##CAS REGISTRY NO=7149-32-8
##$NIST MASS SPEC NO=278838
##MOLFORM=C13 H12 O3
##MW=216
##$NIST SOURCE=MSDC
##XUNITS=M/Z
##YUNITS=RELATIVE INTENSITY
##XFACTOR=1
##YFACTOR=1
##FIRSTX=25
##LASTX=216
##FIRSTY=40
##MAXX=216
##MINX=25
##MAXY=9999
##MINY=10
##NPOINTS=52
##PEAK TABLE=(XY..XY)
25,40 26,170 27,410 28,60
29,380 36,60 37,450 38,971
39,3613 40,210 41,290 42,60
44,270 45,60 49,60 50,450
51,951 52,290 53,250 55,110
61,60 62,120 63,410 64,90
65,811 66,190 67,290 68,60
69,40 74,120 75,90 76,80
77,991 78,611 79,450 89,180
90,60 91,1682 92,190 93,40
94,40 95,7116 96,460 97,60
102,90 103,671 104,9999 105,1481
106,80 112,120 113,60 216,10
##END=
