##TITLE=9-Hexacosene
##JCAMP-DX=4.24
##DATA TYPE=MASS SPECTRUM
##ORIGIN=NIST Mass Spectrometry Data Center, 1990.
##OWNER=NIST Mass Spectrometry Data Center
Collection (C) 2014 copyright by the U.S. Secretary of Commerce
on behalf of the United States of America. All rights reserved.
##CAS REGISTRY NO=71502-22-2
##$NIST MASS SPEC NO=113632
##MOLFORM=C26 H52
##MW=364
##$NIST SOURCE=MSDC
##XUNITS=M/Z
##YUNITS=RELATIVE INTENSITY
##XFACTOR=1
##YFACTOR=1
##FIRSTX=27
##LASTX=365
##FIRSTY=761
##MAXX=365
##MINX=27
##MAXY=9999
##MINY=299
##NPOINTS=53
##PEAK TABLE=(XY..XY)
27,761 28,450 29,2258 39,609
41,6476 42,1425 43,9999 44,401
53,449 54,2301 55,9094 56,3738
57,9652 58,444 66,313 67,3124
68,1770 69,7918 70,3969 71,5085
79,528 81,2132 82,3184 83,8731
84,2546 85,3530 95,1144 96,2484
97,9705 98,1980 99,1198 109,482
110,1103 111,5810 112,1302 113,692
123,379 124,834 125,3150 126,877
127,474 138,625 139,1708 140,632
152,425 153,1033 154,446 167,632
168,381 181,448 182,299 364,1417
365,365
##END=
