##TITLE=Bis(2,4,6-trimethylphenyl)diselenide
##JCAMP-DX=4.24
##DATA TYPE=MASS SPECTRUM
##ORIGIN=NIST Mass Spectrometry Data Center, 1994
##OWNER=NIST Mass Spectrometry Data Center
Collection (C) 2014 copyright by the U.S. Secretary of Commerce
on behalf of the United States of America. All rights reserved.
##CAS REGISTRY NO=71518-92-8
##$NIST MASS SPEC NO=136386
##MOLFORM=C18 H22 Se2
##MW=398
##$NIST SOURCE=MSDC
##XUNITS=M/Z
##YUNITS=RELATIVE INTENSITY
##XFACTOR=1
##YFACTOR=1
##FIRSTX=15
##LASTX=402
##FIRSTY=38
##MAXX=402
##MINX=15
##MAXY=9999
##MINY=10
##NPOINTS=95
##PEAK TABLE=(XY..XY)
15,38 17,35 18,87 27,494
39,1428 40,171 41,1234 50,268
51,1104 52,340 53,561 62,98
63,521 64,141 65,1107 66,141
67,86 74,10 75,170 76,191
77,1904 78,794 79,786 80,134
81,72 87,63 89,637 90,324
91,4708 92,518 93,1368 94,48
95,237 101,69 102,660 103,1153
104,660 105,3883 106,465 107,379
113,49 115,2094 116,568 117,1713
118,1023 119,9999 120,1398 121,79
131,47 169,58 178,50 179,123
180,203 181,204 182,322 183,358
184,129 185,69 192,67 193,167
194,612 195,1244 196,1973 197,1989
198,3257 199,3094 200,1119 201,572
202,107 221,98 271,67 272,170
273,223 274,512 275,380 276,810
277,281 278,898 279,140 280,315
315,47 318,72 390,175 391,259
392,848 393,742 394,2290 395,1676
396,4100 397,1004 398,4533 399,903
400,1421 401,293 402,159
##END=
