##TITLE=Ethyl 4-cyanobenzoate
##JCAMP-DX=4.24
##DATA TYPE=MASS SPECTRUM
##ORIGIN=Chuck Anderson, Aldrich Chemical Co.
##OWNER=NIST Mass Spectrometry Data Center
Collection (C) 2014 copyright by the U.S. Secretary of Commerce
on behalf of the United States of America. All rights reserved.
##CAS REGISTRY NO=7153-22-2
##$NIST MASS SPEC NO=117887
##MOLFORM=C10 H9 N O2
##MW=175
##$NIST SOURCE=MSDC
##XUNITS=M/Z
##YUNITS=RELATIVE INTENSITY
##XFACTOR=1
##YFACTOR=1
##FIRSTX=14
##LASTX=177
##FIRSTY=17
##MAXX=177
##MINX=14
##MAXY=9999
##MINY=2
##NPOINTS=58
##PEAK TABLE=(XY..XY)
14,17 15,98 26,142 27,789
28,179 29,879 30,59 36,17
37,55 38,95 39,98 42,17
43,90 44,26 45,954 46,14
49,48 50,574 51,714 52,159
53,25 61,18 62,51 63,70
64,50 65,20 73,40 74,203
75,1119 76,719 77,70 87,2
90,21 91,8 99,92 100,65
101,82 102,4799 103,894 104,93
105,7 116,45 119,49 129,15
130,9999 131,879 132,81 147,3359
148,317 149,35 156,24 157,50
158,8 160,77 174,339 175,1319
176,139 177,8
##END=
