##TITLE=Pentane, 2,2,3,3-tetramethyl-
##JCAMP-DX=4.24
##DATA TYPE=MASS SPECTRUM
##ORIGIN=NIST Mass Spectrometry Data Center, 1990.
##OWNER=NIST Mass Spectrometry Data Center
Collection (C) 2014 copyright by the U.S. Secretary of Commerce
on behalf of the United States of America. All rights reserved.
##CAS REGISTRY NO=7154-79-2
##$NIST MASS SPEC NO=114372
##MOLFORM=C9 H20
##MW=128
##$NIST SOURCE=MSDC
##XUNITS=M/Z
##YUNITS=RELATIVE INTENSITY
##XFACTOR=1
##YFACTOR=1
##FIRSTX=15
##LASTX=113
##FIRSTY=273
##MAXX=113
##MINX=15
##MAXY=9999
##MINY=170
##NPOINTS=24
##PEAK TABLE=(XY..XY)
15,273 27,1306 28,170 29,1882
39,1581 40,370 41,4220 42,545
43,5145 44,221 53,512 55,2020
56,1043 57,9999 58,498 67,186
69,720 70,3911 71,4886 72,271
83,294 98,208 99,1145 113,392
##END=
