##TITLE=Heptane, 3,3,5-trimethyl-
##JCAMP-DX=4.24
##DATA TYPE=MASS SPECTRUM
##ORIGIN=D.HENNEBERG, MAX-PLANCK INSTITUTE, MULHEIM, WEST GERMANY
##OWNER=NIST Mass Spectrometry Data Center
Collection (C) 2014 copyright by the U.S. Secretary of Commerce
on behalf of the United States of America. All rights reserved.
##CAS REGISTRY NO=7154-80-5
##$NIST MASS SPEC NO=61995
##MOLFORM=C10 H22
##MW=142
##$NIST SOURCE=MSDC
##XUNITS=M/Z
##YUNITS=RELATIVE INTENSITY
##XFACTOR=1
##YFACTOR=1
##FIRSTX=24
##LASTX=128
##FIRSTY=4
##MAXX=128
##MINX=24
##MAXY=9999
##MINY=1
##NPOINTS=50
##PEAK TABLE=(XY..XY)
24,4 26,85 27,563 28,48
29,1391 30,33 36,1 37,10
38,8 39,415 40,57 41,1871
42,300 43,5924 44,171 45,5
50,5 51,25 52,8 53,130
54,29 55,979 56,288 57,6250
58,282 59,2 63,1 65,12
66,2 67,46 68,11 69,202
70,2612 71,9999 72,585 73,11
77,9 79,91 81,10 82,2
83,143 84,22 85,466 86,29
97,23 112,144 113,920 114,81
127,105 128,8
##END=
