##TITLE=Benzoic acid, heptyl ester
##JCAMP-DX=4.24
##DATA TYPE=MASS SPECTRUM
##ORIGIN=V.G. Zaikin, R.S.Borisov, TIPS RAS, Moscow, Russia
##OWNER=NIST Mass Spectrometry Data Center
Collection (C) 2014 copyright by the U.S. Secretary of Commerce
on behalf of the United States of America. All rights reserved.
##CAS REGISTRY NO=7155-12-6
##$NIST MASS SPEC NO=368256
##MOLFORM=C14 H20 O2
##MW=220
##$NIST SOURCE=MSDC
##XUNITS=M/Z
##YUNITS=RELATIVE INTENSITY
##XFACTOR=1
##YFACTOR=1
##FIRSTX=26
##LASTX=221
##FIRSTY=20
##MAXX=221
##MINX=26
##MAXY=9999
##MINY=20
##NPOINTS=59
##PEAK TABLE=(XY..XY)
26,20 27,270 28,100 29,260
38,20 39,330 40,80 41,1071
42,410 43,430 44,30 50,310
51,1191 52,100 53,140 54,210
55,1111 56,1511 57,390 58,20
63,20 65,50 67,80 68,230
69,781 70,1371 71,70 74,80
75,100 76,490 77,5045 78,490
79,1081 80,70 81,40 82,20
83,220 87,30 91,30 94,20
97,70 98,1191 99,90 103,60
104,120 105,8338 106,601 107,50
120,40 121,90 122,1692 123,9999
124,751 125,50 135,50 149,20
163,70 220,190 221,40
##END=
