##TITLE=1-Nonyne, 7-methyl-
##JCAMP-DX=4.24
##DATA TYPE=MASS SPECTRUM
##ORIGIN=NIST Mass Spectrometry Data Center, 1990.
##OWNER=NIST Mass Spectrometry Data Center
Collection (C) 2014 copyright by the U.S. Secretary of Commerce
on behalf of the United States of America. All rights reserved.
##CAS REGISTRY NO=71566-65-9
##$NIST MASS SPEC NO=114524
##MOLFORM=C10 H18
##MW=138
##$NIST SOURCE=MSDC
##XUNITS=M/Z
##YUNITS=RELATIVE INTENSITY
##XFACTOR=1
##YFACTOR=1
##FIRSTX=26
##LASTX=123
##FIRSTY=203
##MAXX=123
##MINX=26
##MAXY=9999
##MINY=101
##NPOINTS=43
##PEAK TABLE=(XY..XY)
26,203 27,1715 28,159 29,2063
39,3493 40,832 41,7668 42,976
43,1992 44,101 50,309 51,748
52,438 53,1724 54,1059 55,5629
56,2178 57,4133 58,181 63,161
65,888 67,9999 68,1518 69,2047
70,940 71,274 77,716 79,2383
80,1182 81,8317 82,2455 83,1178
84,147 91,343 93,404 94,217
95,902 96,834 97,298 107,200
109,2952 110,314 123,162
##END=
