##TITLE=9-Chloroanthracene
##JCAMP-DX=4.24
##DATA TYPE=MASS SPECTRUM
##ORIGIN=NIST Mass Spectrometry Data Center, 1990.
##OWNER=NIST Mass Spectrometry Data Center
Collection (C) 2014 copyright by the U.S. Secretary of Commerce
on behalf of the United States of America. All rights reserved.
##CAS REGISTRY NO=716-53-0
##$NIST MASS SPEC NO=118492
##MOLFORM=C14 H9 Cl
##MW=212
##$NIST SOURCE=MSDC
##XUNITS=M/Z
##YUNITS=RELATIVE INTENSITY
##XFACTOR=1
##YFACTOR=1
##FIRSTX=14
##LASTX=216
##FIRSTY=23
##MAXX=216
##MINX=14
##MAXY=9999
##MINY=2
##NPOINTS=87
##PEAK TABLE=(XY..XY)
14,23 18,21 27,40 28,2
37,17 38,43 39,127 44,2
50,186 51,154 52,20 59,16
61,98 62,272 63,240 70,15
71,25 73,84 74,459 75,985
76,279 77,77 80,53 81,33
84,15 85,74 86,240 87,718
88,1545 93,672 94,203 97,60
98,327 99,244 100,85 101,51
102,27 106,1183 107,372 109,53
110,116 111,119 112,21 113,24
114,16 120,27 121,39 122,121
123,91 124,28 125,117 126,177
127,67 134,40 135,46 136,13
137,59 138,45 139,39 145,15
146,45 147,21 148,47 149,288
150,1040 151,1015 152,138 153,18
161,21 162,36 163,28 173,108
174,592 175,816 176,3609 177,1483
178,189 179,13 184,12 186,78
188,23 209,19 212,9999 213,1563
214,3196 215,433 216,39
##END=
