##TITLE=3',4'-Dichloropivalanilide
##JCAMP-DX=4.24
##DATA TYPE=MASS SPECTRUM
##ORIGIN=NIST Mass Spectrometry Data Center, 1994
##OWNER=NIST Mass Spectrometry Data Center
Collection (C) 2014 copyright by the U.S. Secretary of Commerce
on behalf of the United States of America. All rights reserved.
##CAS REGISTRY NO=7160-22-7
##$NIST MASS SPEC NO=135679
##MOLFORM=C11 H13 Cl2 N O
##MW=245
##$NIST SOURCE=MSDC
##XUNITS=M/Z
##YUNITS=RELATIVE INTENSITY
##XFACTOR=1
##YFACTOR=1
##FIRSTX=15
##LASTX=250
##FIRSTY=210
##MAXX=250
##MINX=15
##MAXY=9999
##MINY=1
##NPOINTS=129
##PEAK TABLE=(XY..XY)
15,210 16,1 17,2 18,13
26,31 27,504 28,195 29,1720
30,42 35,23 36,31 37,63
38,129 39,966 40,179 41,2668
42,302 43,26 44,18 47,21
49,53 50,79 51,72 52,70
53,71 54,25 55,169 56,18
57,9999 58,410 60,14 61,85
62,245 63,387 64,87 65,42
66,10 67,4 69,90 70,43
71,15 72,74 73,203 74,124
75,185 76,29 77,10 78,7
80,21 83,49 84,53 85,818
86,71 87,36 88,83 89,88
90,199 91,43 92,5 94,7
95,6 97,125 98,69 99,150
100,33 101,41 102,9 103,6
107,55 109,174 110,50 111,62
112,16 115,5 119,5 124,192
125,236 126,144 127,101 128,27
129,7 130,5 131,8 133,304
134,60 135,192 136,35 137,40
138,8 145,90 146,11 147,58
148,5 149,11 152,5 153,8
154,13 156,7 159,54 160,276
161,1193 162,266 163,779 164,87
165,123 166,22 167,7 173,4
174,7 176,5 187,64 188,40
189,38 190,25 191,9 202,98
204,69 205,8 206,10 210,11
212,6 230,10 232,7 245,765
246,97 247,510 248,63 249,85
250,10
##END=
