##TITLE=Benzoic acid, 2-methoxy-, hexyl ester
##JCAMP-DX=4.24
##DATA TYPE=MASS SPECTRUM
##ORIGIN=Zaikin V.G., TIPS RAS, Moscow, Russia
##OWNER=NIST Mass Spectrometry Data Center
Collection (C) 2014 copyright by the U.S. Secretary of Commerce
on behalf of the United States of America. All rights reserved.
##CAS REGISTRY NO=71605-88-4
##$NIST MASS SPEC NO=292298
##MOLFORM=C14 H20 O3
##MW=236
##$NIST SOURCE=MSDC
##XUNITS=M/Z
##YUNITS=RELATIVE INTENSITY
##XFACTOR=1
##YFACTOR=1
##FIRSTX=26
##LASTX=238
##FIRSTY=20
##MAXX=238
##MINX=26
##MAXY=9999
##MINY=10
##NPOINTS=73
##PEAK TABLE=(XY..XY)
26,20 27,150 28,10 29,210
30,10 38,30 39,150 40,20
41,350 42,90 43,360 44,40
50,70 51,170 52,20 53,40
54,10 55,180 56,130 57,40
62,20 63,140 64,180 65,90
66,10 67,20 69,40 74,20
75,20 76,130 77,1391 78,180
79,240 80,10 81,20 83,10
84,20 85,10 90,20 91,20
92,661 93,80 94,30 104,50
105,881 106,200 107,140 108,50
109,10 118,20 119,40 120,200
121,220 122,110 123,2062 124,150
125,10 133,711 134,390 135,9999
136,731 137,60 151,180 152,2002
153,1842 154,160 155,10 165,20
179,10 180,30 236,941 237,150
238,10
##END=
