##TITLE=2-(Hexyloxy)benzaldehyde
##JCAMP-DX=4.24
##DATA TYPE=MASS SPECTRUM
##ORIGIN=NIST Mass Spectrometry Data Center, 1994
##OWNER=NIST Mass Spectrometry Data Center
Collection (C) 2014 copyright by the U.S. Secretary of Commerce
on behalf of the United States of America. All rights reserved.
##CAS REGISTRY NO=7162-59-6
##$NIST MASS SPEC NO=135227
##MOLFORM=C13 H18 O2
##MW=206
##$NIST SOURCE=MSDC
##XUNITS=M/Z
##YUNITS=RELATIVE INTENSITY
##XFACTOR=1
##YFACTOR=1
##FIRSTX=12
##LASTX=208
##FIRSTY=21
##MAXX=208
##MINX=12
##MAXY=9999
##MINY=13
##NPOINTS=98
##PEAK TABLE=(XY..XY)
12,21 14,38 15,231 16,22
17,38 18,84 27,3555 28,932
29,4289 30,103 31,56 37,101
38,441 39,4305 40,589 41,5292
42,1192 43,8071 44,269 45,26
50,633 51,1584 52,185 53,647
54,26 55,2304 56,1061 57,694
58,44 61,39 62,185 63,730
64,527 65,2524 66,445 67,175
68,39 69,874 70,54 71,38
74,129 75,145 76,715 77,1782
78,219 79,174 80,33 81,60
83,63 84,279 85,148 89,24
91,217 92,755 93,1017 94,675
95,518 96,43 99,32 104,1140
105,359 106,92 107,398 108,60
113,13 115,32 117,36 118,75
119,104 120,13 121,8927 122,9999
123,2572 124,236 129,20 131,1259
132,193 133,84 134,20 135,656
136,186 137,22 143,14 145,238
146,72 147,71 149,161 150,31
159,101 160,25 163,28 173,18
177,114 187,16 189,29 206,1805
207,228 208,35
##END=
