##TITLE=Benalaxyl
##JCAMP-DX=4.24
##DATA TYPE=MASS SPECTRUM
##ORIGIN=NIST Mass Spectrometry Data Center, 1998.
##OWNER=NIST Mass Spectrometry Data Center
Collection (C) 2014 copyright by the U.S. Secretary of Commerce
on behalf of the United States of America. All rights reserved.
##CAS REGISTRY NO=71626-11-4
##$NIST MASS SPEC NO=291867
##MOLFORM=C20 H23 N O3
##MW=325
##$NIST SOURCE=MSDC
##XUNITS=M/Z
##YUNITS=RELATIVE INTENSITY
##XFACTOR=1
##YFACTOR=1
##FIRSTX=15
##LASTX=327
##FIRSTY=150
##MAXX=327
##MINX=15
##MAXY=9999
##MINY=10
##NPOINTS=145
##PEAK TABLE=(XY..XY)
15,150 26,10 27,140 28,70
29,60 30,20 31,30 33,10
38,20 39,350 40,40 41,160
42,50 43,30 44,20 45,30
50,50 51,230 52,90 53,130
54,20 55,240 56,40 57,10
58,10 59,640 60,20 61,10
62,40 63,220 64,90 65,1060
66,90 67,10 68,10 70,10
74,10 75,20 76,40 77,940
78,250 79,720 80,60 81,10
87,280 88,30 89,310 90,250
91,5749 92,520 93,60 94,10
101,10 102,70 103,500 104,160
105,1130 106,150 107,40 108,10
115,60 116,90 117,660 118,410
119,270 120,200 121,250 122,30
127,10 128,30 129,30 130,260
131,370 132,1950 133,340 134,50
135,10 141,10 142,10 143,20
144,110 145,70 146,920 147,590
148,9999 149,1160 150,60 152,10
153,10 156,10 158,20 159,20
160,60 161,10 162,190 163,30
164,10 165,40 166,20 167,10
174,350 175,70 176,1350 177,180
178,40 179,20 180,20 181,10
190,10 191,10 192,50 193,20
194,20 195,10 202,80 204,1730
205,270 206,2880 207,840 208,120
209,10 220,20 221,10 222,30
223,10 234,900 235,130 236,50
237,20 238,20 239,110 240,20
250,10 264,30 266,850 267,170
268,20 293,140 294,190 295,40
310,20 311,10 325,510 326,110
327,10
##END=
