##TITLE=2-Propen-1-one, 3-(2-furanyl)-1-phenyl-
##JCAMP-DX=4.24
##DATA TYPE=MASS SPECTRUM
##OWNER=NIST Mass Spectrometry Data Center
Collection (C) 2014 copyright by the U.S. Secretary of Commerce
on behalf of the United States of America. All rights reserved.
##CAS REGISTRY NO=717-21-5
##$NIST MASS SPEC NO=8813
##MOLFORM=C13 H10 O2
##MW=198
##$NIST SOURCE=MSDC
##XUNITS=M/Z
##YUNITS=RELATIVE INTENSITY
##XFACTOR=1
##YFACTOR=1
##FIRSTX=14
##LASTX=200
##FIRSTY=60
##MAXX=200
##MINX=14
##MAXY=9999
##MINY=30
##NPOINTS=115
##PEAK TABLE=(XY..XY)
14,60 15,80 26,60 27,290
28,431 29,160 36,50 37,90
38,300 39,1762 40,110 41,130
42,80 43,360 49,50 50,711
51,2132 52,220 53,160 54,40
55,440 56,60 57,140 58,200
61,90 62,250 63,761 64,280
65,2462 66,200 67,40 68,80
69,80 70,250 71,550 72,180
73,60 74,260 75,230 76,330
77,5895 78,741 79,100 81,60
82,40 84,100 85,340 86,50
87,60 88,30 89,190 90,60
91,290 92,180 93,440 94,60
95,100 96,80 97,110 98,50
99,90 101,40 102,310 103,470
104,120 105,9999 106,791 107,100
109,30 113,50 114,80 115,1231
116,330 117,540 118,681 119,90
120,400 121,3863 122,490 123,60
126,30 127,60 128,180 129,70
130,130 131,50 139,230 140,70
141,1972 142,611 143,80 144,1722
145,210 149,240 150,40 151,60
152,110 153,150 154,40 155,70
157,290 158,40 162,60 164,40
168,80 169,941 170,941 171,140
180,50 181,150 196,110 197,851
198,8538 199,1241 200,190
##END=
