##TITLE=Benzene, 1,3,5-tris(1-methylethyl)-
##JCAMP-DX=4.24
##DATA TYPE=MASS SPECTRUM
##ORIGIN=Japan AIST/NIMC Database- Spectrum MS-NW-5139
##OWNER=NIST Mass Spectrometry Data Center
Collection (C) 2014 copyright by the U.S. Secretary of Commerce
on behalf of the United States of America. All rights reserved.
##CAS REGISTRY NO=717-74-8
##$NIST MASS SPEC NO=228256
##MOLFORM=C15 H24
##MW=204
##$NIST SOURCE=MSDC
##XUNITS=M/Z
##YUNITS=RELATIVE INTENSITY
##XFACTOR=1
##YFACTOR=1
##FIRSTX=15
##LASTX=206
##FIRSTY=50
##MAXX=206
##MINX=15
##MAXY=9999
##MINY=10
##NPOINTS=120
##PEAK TABLE=(XY..XY)
15,50 26,10 27,419 28,10
29,129 38,10 39,239 40,30
41,1109 42,60 43,3309 44,109
50,30 51,149 52,40 53,149
54,10 55,109 56,10 57,20
58,30 59,20 62,10 63,99
64,109 65,189 66,60 67,50
69,60 70,30 71,90 72,70
73,70 74,20 75,40 76,60
77,319 78,119 79,389 80,50
81,20 82,10 83,10 84,10
85,20 86,60 87,469 88,20
89,50 90,10 91,1549 92,149
93,60 94,20 95,10 101,20
102,50 103,149 104,50 105,1349
106,129 107,40 113,10 114,10
115,359 116,199 117,379 118,70
119,619 120,70 121,10 126,10
127,99 128,299 129,259 130,119
131,339 132,70 133,629 134,80
139,20 141,99 142,70 143,80
144,40 145,279 146,80 147,569
148,80 149,10 151,10 152,20
153,20 154,10 155,20 156,10
157,30 158,10 159,99 160,50
161,4399 162,599 163,40 171,10
173,229 174,60 175,369 176,60
186,10 187,60 188,70 189,9999
190,1659 191,139 192,10 202,20
203,99 204,3679 205,639 206,50
##END=
