##TITLE=Undecanoic acid, 11-phenoxy-
##JCAMP-DX=4.24
##DATA TYPE=MASS SPECTRUM
##ORIGIN=Japan AIST/NIMC Database- Spectrum MS-IW- 711
##OWNER=NIST Mass Spectrometry Data Center
Collection (C) 2014 copyright by the U.S. Secretary of Commerce
on behalf of the United States of America. All rights reserved.
##CAS REGISTRY NO=7170-44-7
##$NIST MASS SPEC NO=239435
##MOLFORM=C17 H26 O3
##MW=278
##$NIST SOURCE=MSDC
##XUNITS=M/Z
##YUNITS=RELATIVE INTENSITY
##XFACTOR=1
##YFACTOR=1
##FIRSTX=17
##LASTX=280
##FIRSTY=30
##MAXX=280
##MINX=17
##MAXY=9999
##MINY=10
##NPOINTS=89
##PEAK TABLE=(XY..XY)
17,30 18,209 27,30 28,30
29,90 31,10 39,60 40,10
41,339 42,50 43,289 44,30
45,40 51,30 53,20 54,30
55,659 56,90 57,159 59,40
60,50 65,80 66,50 67,119
68,70 69,529 70,70 71,99
73,80 74,20 77,219 78,20
79,80 80,10 81,159 82,99
83,409 84,119 85,50 87,40
91,20 93,60 94,9999 95,839
96,119 97,199 98,80 99,20
100,10 101,40 105,10 107,139
108,20 109,50 110,30 111,109
112,10 113,10 114,20 115,20
119,20 121,20 122,30 123,60
124,70 125,80 127,10 129,10
133,10 135,20 137,30 138,10
139,10 147,10 148,20 149,239
150,30 165,10 166,40 167,239
168,30 185,50 199,20 218,20
234,10 261,20 278,1659 279,319
280,30
##END=
