##TITLE=Propane, 1-chloro-3-((2-chloroethyl)thio)-
##JCAMP-DX=4.24
##DATA TYPE=MASS SPECTRUM
##ORIGIN=A.A.Kutin, Moscow, Russia
##OWNER=NIST Mass Spectrometry Data Center
Collection (C) 2014 copyright by the U.S. Secretary of Commerce
on behalf of the United States of America. All rights reserved.
##CAS REGISTRY NO=71784-01-5
##$NIST MASS SPEC NO=273272
##MOLFORM=C5 H10 Cl2 S
##MW=172
##$NIST SOURCE=MSDC
##XUNITS=M/Z
##YUNITS=RELATIVE INTENSITY
##XFACTOR=1
##YFACTOR=1
##FIRSTX=26
##LASTX=176
##FIRSTY=160
##MAXX=176
##MINX=26
##MAXY=9999
##MINY=110
##NPOINTS=45
##PEAK TABLE=(XY..XY)
26,160 27,1541 39,561 41,2672
42,230 45,1241 46,671 47,1892
48,130 49,420 51,110 53,170
58,230 59,480 60,320 61,1111
62,230 63,2442 64,150 65,781
73,440 74,130 76,450 77,1421
78,150 79,410 81,350 87,370
96,1191 97,240 98,520 109,9999
110,410 111,3573 112,250 113,150
123,2552 124,150 125,951 137,1071
139,310 172,2452 173,130 174,1672
176,410
##END=
