##TITLE=p-Nitrobenzylidene tert-butylamine
##JCAMP-DX=4.24
##DATA TYPE=MASS SPECTRUM
##ORIGIN=A.A.Kutin, Moscow, Russia
##OWNER=NIST Mass Spectrometry Data Center
Collection (C) 2014 copyright by the U.S. Secretary of Commerce
on behalf of the United States of America. All rights reserved.
##CAS REGISTRY NO=718-36-5
##$NIST MASS SPEC NO=296107
##MOLFORM=C11 H14 N2 O2
##MW=206
##$NIST SOURCE=MSDC
##XUNITS=M/Z
##YUNITS=RELATIVE INTENSITY
##XFACTOR=1
##YFACTOR=1
##FIRSTX=54
##LASTX=207
##FIRSTY=1201
##MAXX=207
##MINX=54
##MAXY=9999
##MINY=20
##NPOINTS=101
##PEAK TABLE=(XY..XY)
54,1201 55,1732 56,9959 57,9999
58,3063 59,200 60,70 62,500
63,1561 64,260 65,681 66,140
67,160 68,170 69,110 70,100
71,60 72,120 73,460 74,340
75,1641 76,2252 77,530 78,70
79,20 80,20 81,20 82,110
86,210 87,140 89,1201 90,400
91,961 92,771 93,170 94,230
96,30 97,110 99,40 101,260
102,460 103,1732 104,1141 105,851
106,290 109,20 110,20 114,250
116,190 117,310 118,470 119,861
120,611 121,230 122,50 127,50
128,110 129,170 130,851 131,210
132,150 133,350 134,230 135,40
139,20 141,40 142,20 143,180
144,901 145,5175 146,1041 147,110
148,240 149,711 150,1862 151,80
153,30 154,40 156,20 158,30
159,190 160,70 161,2082 162,210
163,40 166,30 173,20 175,250
176,520 177,80 178,20 180,20
181,50 187,30 190,130 191,7847
192,2492 193,200 205,80 206,450
207,190
##END=
