##TITLE=Piperidine, 1-(1-butenyl)-
##JCAMP-DX=4.24
##DATA TYPE=MASS SPECTRUM
##ORIGIN=D.H.WILLIAMS CHEMISTRY DEPT., UNIVERSITY OF CAMBRIDGE
##OWNER=NIST Mass Spectrometry Data Center
Collection (C) 2014 copyright by the U.S. Secretary of Commerce
on behalf of the United States of America. All rights reserved.
##CAS REGISTRY NO=7182-10-7
##$NIST MASS SPEC NO=3618
##MOLFORM=C9 H17 N
##MW=139
##$NIST SOURCE=MSDC
##XUNITS=M/Z
##YUNITS=RELATIVE INTENSITY
##XFACTOR=1
##YFACTOR=1
##FIRSTX=15
##LASTX=140
##FIRSTY=150
##MAXX=140
##MINX=15
##MAXY=9999
##MINY=50
##NPOINTS=59
##PEAK TABLE=(XY..XY)
15,150 26,100 27,500 28,350
29,400 30,200 39,450 40,200
41,1200 42,600 43,250 44,300
50,100 51,100 52,100 53,300
54,350 55,800 56,400 57,200
65,100 66,50 67,250 68,5000
69,300 70,300 72,100 77,100
79,100 80,300 81,200 82,400
83,200 84,900 85,400 93,50
94,200 95,100 96,400 97,100
98,300 106,100 108,150 109,80
110,1500 111,200 120,100 122,550
123,100 124,9999 125,1000 126,150
134,100 135,100 136,150 137,300
138,900 139,2700 140,300
##END=
