##TITLE=Piperidine, 1-(1-propenyl)-
##JCAMP-DX=4.24
##DATA TYPE=MASS SPECTRUM
##ORIGIN=D.H.WILLIAMS CHEMISTRY DEPT., UNIVERSITY OF CAMBRIDGE
##OWNER=NIST Mass Spectrometry Data Center
Collection (C) 2014 copyright by the U.S. Secretary of Commerce
on behalf of the United States of America. All rights reserved.
##CAS REGISTRY NO=7182-09-4
##$NIST MASS SPEC NO=2424
##MOLFORM=C8 H15 N
##MW=125
##$NIST SOURCE=MSDC
##XUNITS=M/Z
##YUNITS=RELATIVE INTENSITY
##XFACTOR=1
##YFACTOR=1
##FIRSTX=15
##LASTX=125
##FIRSTY=1000
##MAXX=125
##MINX=15
##MAXY=9999
##MINY=100
##NPOINTS=71
##PEAK TABLE=(XY..XY)
15,1000 16,3900 17,1400 18,2900
25,100 26,1400 27,5500 28,9999
29,400 30,2750 31,150 34,150
37,250 38,550 39,5300 40,2000
41,7550 42,4600 43,1800 44,2700
45,150 48,100 49,100 50,550
51,550 52,600 53,1000 54,1980
55,4400 56,3400 57,800 62,100
63,100 65,300 66,200 67,1000
68,4000 69,2400 70,1400 71,300
77,200 78,100 79,400 80,700
81,480 82,2200 83,650 84,3850
85,1650 86,100 91,200 93,100
94,560 95,300 96,2650 97,400
98,350 100,100 101,100 105,100
106,100 107,100 108,350 109,200
110,200 119,100 120,100 122,300
123,200 124,2350 125,2500
##END=
