##TITLE=2,3-Cycloheptenopyridine
##JCAMP-DX=4.24
##DATA TYPE=MASS SPECTRUM
##ORIGIN=Japan AIST/NIMC Database- Spectrum MS-IW-2374
##OWNER=NIST Mass Spectrometry Data Center
Collection (C) 2014 copyright by the U.S. Secretary of Commerce
on behalf of the United States of America. All rights reserved.
##CAS REGISTRY NO=7197-96-8
##$NIST MASS SPEC NO=238906
##MOLFORM=C10 H13 N
##MW=147
##$NIST SOURCE=MSDC
##XUNITS=M/Z
##YUNITS=RELATIVE INTENSITY
##XFACTOR=1
##YFACTOR=1
##FIRSTX=15
##LASTX=149
##FIRSTY=20
##MAXX=149
##MINX=15
##MAXY=9999
##MINY=10
##NPOINTS=92
##PEAK TABLE=(XY..XY)
15,20 26,70 27,389 28,209
29,129 30,20 37,40 38,169
39,1329 40,159 41,379 42,80
43,20 49,10 50,229 51,729
52,429 53,289 54,119 55,179
56,20 57,10 58,189 59,30
61,30 62,119 63,509 64,329
65,1049 66,339 67,119 68,40
69,10 70,40 71,119 72,20
73,20 74,50 75,70 76,99
77,719 78,639 79,569 80,209
81,40 82,30 86,10 87,20
88,20 89,209 90,239 91,839
92,459 93,839 94,99 95,10
101,20 102,80 103,169 104,719
105,1189 106,809 107,219 108,20
109,10 114,10 115,149 116,129
117,1569 118,8419 119,4289 120,779
121,109 122,10 127,10 128,70
129,99 130,1199 131,949 132,4489
133,509 134,40 140,10 141,30
142,90 143,139 144,479 145,149
146,6749 147,9999 148,1099 149,60
##END=
