##TITLE=2,3,4-Trimethoxybenzyl alcohol
##JCAMP-DX=4.24
##DATA TYPE=MASS SPECTRUM
##ORIGIN=NIST Mass Spectrometry Data Center, 1994
##OWNER=NIST Mass Spectrometry Data Center
Collection (C) 2014 copyright by the U.S. Secretary of Commerce
on behalf of the United States of America. All rights reserved.
##CAS REGISTRY NO=71989-96-3
##$NIST MASS SPEC NO=134621
##MOLFORM=C10 H14 O4
##MW=198
##$NIST SOURCE=MSDC
##XUNITS=M/Z
##YUNITS=RELATIVE INTENSITY
##XFACTOR=1
##YFACTOR=1
##FIRSTX=15
##LASTX=200
##FIRSTY=1971
##MAXX=200
##MINX=15
##MAXY=9999
##MINY=78
##NPOINTS=108
##PEAK TABLE=(XY..XY)
15,1971 26,186 27,703 28,413
29,972 30,144 31,724 37,167
38,554 39,2202 40,368 41,1598
42,223 43,356 45,287 49,146
50,740 51,1377 52,1160 53,1642
54,318 55,703 59,211 61,116
62,328 63,626 64,459 65,1564
66,893 67,910 68,653 69,1075
71,124 74,140 75,243 76,301
77,2097 78,742 79,1241 80,993
81,1004 82,252 83,230 89,153
90,295 91,814 92,542 93,777
94,678 95,5190 96,825 97,827
104,87 105,428 106,647 107,841
108,708 109,726 110,384 111,449
112,188 118,87 119,357 120,869
121,784 122,669 123,2364 124,750
125,718 126,134 127,336 133,252
134,252 135,523 136,876 137,1113
138,1384 139,1612 140,1192 141,122
147,110 148,684 149,520 150,316
151,982 152,492 153,1208 154,658
155,424 163,126 165,1075 166,1729
167,2462 168,524 169,2850 170,272
179,78 180,136 181,1238 182,693
183,3336 184,389 195,99 196,175
197,1734 198,9999 199,1123 200,145
##END=
