##TITLE=Alizarin
##JCAMP-DX=4.24
##DATA TYPE=MASS SPECTRUM
##ORIGIN=GFS Chemicals / NIST MS Data Center.
##OWNER=NIST Mass Spectrometry Data Center
Collection (C) 2014 copyright by the U.S. Secretary of Commerce
on behalf of the United States of America. All rights reserved.
##CAS REGISTRY NO=72-48-0
##$NIST MASS SPEC NO=125309
##MOLFORM=C14 H8 O4
##MW=240
##$NIST SOURCE=MSDC
##XUNITS=M/Z
##YUNITS=RELATIVE INTENSITY
##XFACTOR=1
##YFACTOR=1
##FIRSTX=14
##LASTX=243
##FIRSTY=65
##MAXX=243
##MINX=14
##MAXY=9999
##MINY=6
##NPOINTS=102
##PEAK TABLE=(XY..XY)
14,65 16,39 18,71 26,55
28,6 29,85 32,54 37,47
38,74 39,227 42,33 44,40
49,75 50,412 51,463 52,130
53,152 55,53 61,69 62,209
63,401 64,223 65,88 66,54
67,31 69,209 73,106 74,253
75,395 76,366 77,640 78,208
79,192 80,58 83,122 85,34
86,152 87,164 88,116 89,82
90,57 91,34 92,403 97,55
98,104 99,119 100,81 101,243
102,292 103,87 104,135 105,266
106,201 107,39 108,59 110,59
111,98 112,66 113,76 114,42
115,37 116,23 120,171 122,27
125,115 126,371 127,680 128,893
129,150 130,181 131,324 133,51
134,192 135,92 136,27 137,311
138,957 139,229 140,103 155,286
156,230 157,46 166,105 167,59
168,54 183,696 184,922 185,112
194,119 195,57 196,51 211,446
212,1198 213,192 214,39 222,49
223,69 239,2409 240,9999 241,1444
242,204 243,42
##END=
