##TITLE=Methoxychlor
##JCAMP-DX=4.24
##DATA TYPE=MASS SPECTRUM
##ORIGIN=NIST Mass Spectral Data Center
##OWNER=NIST Mass Spectrometry Data Center
Collection (C) 2014 copyright by the U.S. Secretary of Commerce
on behalf of the United States of America. All rights reserved.
##CAS REGISTRY NO=72-43-5
##$NIST MASS SPEC NO=320500
##MOLFORM=C16 H15 Cl3 O2
##MW=344
##$NIST SOURCE=MSDC
##XUNITS=M/Z
##YUNITS=RELATIVE INTENSITY
##XFACTOR=1
##YFACTOR=1
##FIRSTX=115
##LASTX=346
##FIRSTY=170
##MAXX=346
##MINX=115
##MAXY=9999
##MINY=100
##NPOINTS=27
##PEAK TABLE=(XY..XY)
115,170 141,270 152,340 153,300
165,210 169,460 180,100 181,270
182,110 183,120 184,440 195,500
196,611 197,270 211,110 212,801
213,110 223,180 224,170 227,9999
228,1611 229,210 238,280 239,220
274,210 344,230 346,270
##END=
