##TITLE=p,p'-DDE
##JCAMP-DX=4.24
##DATA TYPE=MASS SPECTRUM
##ORIGIN=NIST Mass Spectrometry Data Center, 1990.
##OWNER=NIST Mass Spectrometry Data Center
Collection (C) 2014 copyright by the U.S. Secretary of Commerce
on behalf of the United States of America. All rights reserved.
##CAS REGISTRY NO=72-55-9
##$NIST MASS SPEC NO=114987
##MOLFORM=C14 H8 Cl4
##MW=316
##$NIST SOURCE=MSDC
##XUNITS=M/Z
##YUNITS=RELATIVE INTENSITY
##XFACTOR=1
##YFACTOR=1
##FIRSTX=39
##LASTX=322
##FIRSTY=162
##MAXX=322
##MINX=39
##MAXY=9999
##MINY=110
##NPOINTS=94
##PEAK TABLE=(XY..XY)
39,162 49,118 50,930 51,717
61,258 62,454 63,442 73,548
74,1355 75,1853 76,243 82,188
84,309 85,472 86,639 87,1671
88,902 92,403 93,241 97,308
98,857 99,1246 100,220 101,176
105,2342 106,838 108,231 109,376
110,751 111,637 113,202 122,1276
123,1685 124,692 125,447 126,230
127,185 128,148 133,156 134,273
135,484 136,238 137,458 138,213
140,779 141,737 142,293 146,110
147,205 149,462 150,698 151,164
160,350 161,176 162,166 163,328
170,481 172,332 173,267 174,1167
175,1305 176,3860 177,566 184,256
185,123 186,131 199,159 209,157
210,1523 211,435 212,574 213,142
233,272 235,198 244,155 246,9999
247,1745 248,6289 249,1012 250,982
251,156 280,589 281,791 282,602
283,809 284,320 285,253 316,5477
317,966 318,7145 319,1108 320,3481
321,524 322,791
##END=
