##TITLE=1,1-Dichloro-2,2-bis(p-chlorophenyl)ethane
##JCAMP-DX=4.24
##DATA TYPE=MASS SPECTRUM
##ORIGIN=NIST Mass Spectrometry Data Center, 1990.
##OWNER=NIST Mass Spectrometry Data Center
Collection (C) 2014 copyright by the U.S. Secretary of Commerce
on behalf of the United States of America. All rights reserved.
##CAS REGISTRY NO=72-54-8
##$NIST MASS SPEC NO=118992
##MOLFORM=C14 H10 Cl4
##MW=318
##$NIST SOURCE=MSDC
##XUNITS=M/Z
##YUNITS=RELATIVE INTENSITY
##XFACTOR=1
##YFACTOR=1
##FIRSTX=26
##LASTX=325
##FIRSTY=14
##MAXX=325
##MINX=26
##MAXY=9999
##MINY=1
##NPOINTS=160
##PEAK TABLE=(XY..XY)
26,14 27,62 35,23 36,42
37,26 38,57 39,120 44,1
47,25 48,14 49,47 50,380
51,366 52,36 53,6 55,10
56,8 60,9 61,72 62,150
63,266 64,29 65,11 67,6
68,22 69,44 73,140 74,340
75,809 76,216 77,122 78,12
79,6 82,498 84,44 85,188
86,115 87,259 88,549 90,12
93,104 94,38 97,55 98,107
99,291 100,275 101,473 102,275
103,35 105,109 106,202 107,66
109,37 110,66 111,134 112,68
113,114 114,76 115,56 117,28
118,17 120,7 121,7 122,30
123,99 124,58 125,91 126,112
127,37 128,9 133,7 134,20
135,73 136,328 137,331 138,184
139,206 140,22 146,13 147,14
148,23 149,116 150,203 151,203
152,93 153,15 159,29 160,32
161,53 162,99 163,481 164,705
165,4092 166,580 167,32 170,30
171,57 172,123 173,97 174,167
175,187 176,742 177,335 178,564
179,82 183,10 184,16 185,23
186,42 187,12 188,17 196,11
197,22 199,1304 200,651 201,513
202,220 203,30 206,6 207,6
208,11 209,12 210,51 211,6
212,705 213,192 214,253 215,41
222,6 233,101 235,9999 236,1715
237,6260 238,929 239,1025 240,128
241,11 246,104 247,145 248,223
249,105 250,110 251,30 252,19
281,19 282,159 283,83 284,146
285,67 286,48 287,28 288,8
318,333 319,80 320,412 321,75
322,215 323,27 324,45 325,8
##END=
