##TITLE=Methandrostenolone
##JCAMP-DX=4.24
##DATA TYPE=MASS SPECTRUM
##ORIGIN=NIST Mass Spectrometry Data Center
##OWNER=NIST Mass Spectrometry Data Center
Collection (C) 2014 copyright by the U.S. Secretary of Commerce
on behalf of the United States of America. All rights reserved.
##CAS REGISTRY NO=72-63-9
##$NIST MASS SPEC NO=352159
##MOLFORM=C20 H28 O2
##MW=300
##$NIST SOURCE=MSDC
##XUNITS=M/Z
##YUNITS=RELATIVE INTENSITY
##XFACTOR=1
##YFACTOR=1
##FIRSTX=15
##LASTX=302
##FIRSTY=10
##MAXX=302
##MINX=15
##MAXY=9999
##MINY=10
##NPOINTS=213
##PEAK TABLE=(XY..XY)
15,10 26,10 27,140 29,230
30,10 31,30 38,10 39,370
40,90 41,1081 42,90 43,3223
44,70 45,120 50,30 51,190
52,130 53,631 54,120 55,1061
56,60 57,340 58,320 59,90
62,10 63,80 64,40 65,540
66,130 67,881 68,200 69,290
70,30 71,771 72,90 73,10
74,10 75,10 76,30 77,1351
78,350 79,1341 80,200 81,741
82,90 83,180 84,40 85,120
86,20 87,10 88,10 89,80
91,3323 92,761 93,1581 94,380
95,831 96,100 97,140 98,40
99,40 100,20 101,10 102,60
103,340 104,160 105,1812 106,360
107,1792 108,1742 109,1211 110,180
111,240 112,50 113,20 115,661
116,250 117,540 118,150 119,1361
120,771 121,6366 122,9999 123,1071
124,100 125,100 126,20 127,160
128,430 129,430 130,160 131,510
132,200 133,871 134,1441 135,1001
136,340 137,130 138,30 139,30
140,10 141,200 142,130 143,180
144,160 145,571 146,400 147,1852
148,611 149,130 150,30 151,80
152,70 153,90 154,50 155,110
156,60 157,240 158,230 159,821
160,450 161,1932 162,290 163,60
164,20 165,240 166,80 167,50
168,30 169,70 170,40 171,210
172,240 173,500 174,240 175,170
176,40 177,20 178,50 179,330
180,50 181,30 182,20 183,60
184,40 185,170 186,100 187,110
188,150 189,30 190,10 191,10
192,10 193,10 194,10 195,20
196,20 197,70 198,40 199,180
200,60 201,60 202,20 207,10
208,10 209,40 210,10 211,90
212,60 213,110 214,70 215,40
216,10 223,10 224,20 225,100
226,80 227,210 228,40 229,50
230,60 231,10 238,10 239,50
240,40 241,60 242,550 243,110
244,10 249,20 250,10 253,20
254,30 255,10 257,10 258,10
264,10 265,30 266,10 267,260
268,60 269,10 272,10 281,10
282,310 283,70 284,10 285,30
286,10 299,10 300,180 301,40
302,10
##END=
