##TITLE=5-Dodecene, (Z)-
##JCAMP-DX=4.24
##DATA TYPE=MASS SPECTRUM
##ORIGIN=D.HENNEBERG, MAX-PLANCK INSTITUTE, MULHEIM, WEST GERMANY
##OWNER=NIST Mass Spectrometry Data Center
Collection (C) 2014 copyright by the U.S. Secretary of Commerce
on behalf of the United States of America. All rights reserved.
##CAS REGISTRY NO=7206-28-2
##$NIST MASS SPEC NO=62803
##MOLFORM=C12 H24
##MW=168
##$NIST SOURCE=MSDC
##XUNITS=M/Z
##YUNITS=RELATIVE INTENSITY
##XFACTOR=1
##YFACTOR=1
##FIRSTX=22
##LASTX=169
##FIRSTY=11
##MAXX=169
##MINX=22
##MAXY=9999
##MINY=5
##NPOINTS=75
##PEAK TABLE=(XY..XY)
22,11 23,5 25,29 26,86
27,1691 28,216 29,2310 30,72
32,8 34,5 35,20 36,9
37,53 38,40 39,1266 40,243
41,5648 42,2418 43,5293 44,77
47,11 49,10 50,44 51,108
52,62 53,560 54,1343 55,9999
56,6581 57,3307 58,129 63,33
64,13 65,142 66,106 67,1142
68,643 69,7021 70,4610 71,1053
72,48 75,11 77,111 78,32
79,170 80,38 81,443 82,609
83,3113 84,1861 85,431 86,28
91,49 92,5 93,21 95,112
96,239 97,1544 98,734 99,60
105,5 109,22 110,75 111,546
112,215 113,17 124,34 125,144
126,70 138,12 139,39 140,79
166,23 168,833 169,114
##END=
