##TITLE=N-Acryloylsarcosine methyl ester
##JCAMP-DX=4.24
##DATA TYPE=MASS SPECTRUM
##ORIGIN=NIST Mass Spectrometry Data Center
##OWNER=NIST Mass Spectrometry Data Center
Collection (C) 2014 copyright by the U.S. Secretary of Commerce
on behalf of the United States of America. All rights reserved.
##CAS REGISTRY NO=72065-23-7
##$NIST MASS SPEC NO=342901
##MOLFORM=C7 H11 N O3
##MW=157
##$NIST SOURCE=MSDC
##XUNITS=M/Z
##YUNITS=RELATIVE INTENSITY
##XFACTOR=1
##YFACTOR=1
##FIRSTX=12
##LASTX=158
##FIRSTY=10
##MAXX=158
##MINX=12
##MAXY=9999
##MINY=10
##NPOINTS=55
##PEAK TABLE=(XY..XY)
12,10 14,90 15,1531 16,20
18,100 25,60 26,520 27,2963
28,340 29,470 30,230 31,100
33,10 37,10 38,50 39,80
40,120 41,470 42,3063 43,921
44,6005 45,370 46,10 51,10
52,20 53,160 55,9999 56,440
57,50 58,170 59,360 66,10
67,10 68,90 69,480 70,70
71,10 72,30 73,20 74,60
84,40 85,10 86,10 88,10
98,5025 99,300 100,40 102,1161
103,50 116,10 125,741 126,190
127,20 157,490 158,30
##END=
