##TITLE=2-Dodecene, (Z)-
##JCAMP-DX=4.24
##DATA TYPE=MASS SPECTRUM
##ORIGIN=D.HENNEBERG, MAX-PLANCK INSTITUTE, MULHEIM, WEST GERMANY
##OWNER=NIST Mass Spectrometry Data Center
Collection (C) 2014 copyright by the U.S. Secretary of Commerce
on behalf of the United States of America. All rights reserved.
##CAS REGISTRY NO=7206-26-0
##$NIST MASS SPEC NO=61838
##MOLFORM=C12 H24
##MW=168
##$NIST SOURCE=MSDC
##XUNITS=M/Z
##YUNITS=RELATIVE INTENSITY
##XFACTOR=1
##YFACTOR=1
##FIRSTX=24
##LASTX=170
##FIRSTY=20
##MAXX=170
##MINX=24
##MAXY=9999
##MINY=2
##NPOINTS=86
##PEAK TABLE=(XY..XY)
24,20 25,53 26,119 27,1800
28,66 29,3692 30,112 31,3
35,3 37,17 38,72 39,1460
40,288 41,6858 42,2787 43,8821
44,115 45,27 46,14 48,9
49,11 50,28 51,70 52,69
53,634 54,1062 55,9999 56,8560
57,6051 58,233 59,51 60,2
62,4 63,21 64,21 65,113
66,116 67,957 68,1015 69,7200
70,6277 71,2157 72,108 73,12
74,16 75,2 76,9 77,73
78,19 79,90 80,14 81,294
82,839 83,4206 84,2770 85,604
86,32 88,11 89,6 91,17
93,2 94,9 95,73 96,319
97,2366 98,1006 99,93 108,6
109,17 110,95 111,826 112,413
113,36 117,17 124,34 125,292
126,150 137,4 138,8 139,76
140,138 156,4 166,6 168,1004
169,127 170,11
##END=
