##TITLE=5-Dodecene, (E)-
##JCAMP-DX=4.24
##DATA TYPE=MASS SPECTRUM
##ORIGIN=D.HENNEBERG, MAX-PLANCK INSTITUTE, MULHEIM, WEST GERMANY
##OWNER=NIST Mass Spectrometry Data Center
Collection (C) 2014 copyright by the U.S. Secretary of Commerce
on behalf of the United States of America. All rights reserved.
##CAS REGISTRY NO=7206-16-8
##$NIST MASS SPEC NO=61866
##MOLFORM=C12 H24
##MW=168
##$NIST SOURCE=MSDC
##XUNITS=M/Z
##YUNITS=RELATIVE INTENSITY
##XFACTOR=1
##YFACTOR=1
##FIRSTX=25
##LASTX=169
##FIRSTY=60
##MAXX=169
##MINX=25
##MAXY=9999
##MINY=18
##NPOINTS=54
##PEAK TABLE=(XY..XY)
25,60 26,185 27,2088 28,581
29,2978 30,87 35,30 37,90
38,136 39,1994 40,323 41,7059
42,2342 43,4171 50,18 51,116
52,145 53,782 54,1801 55,9999
56,5365 57,2511 60,27 65,100
66,162 67,1430 68,575 69,5157
70,3746 71,639 73,26 77,45
78,21 79,196 80,42 81,392
82,477 83,2515 84,1625 85,323
89,25 91,48 95,72 96,292
97,1351 98,518 110,70 111,331
112,134 125,129 126,66 140,21
168,735 169,22
##END=
