##TITLE=D-Glucitol, hexaacetate
##JCAMP-DX=4.24
##DATA TYPE=MASS SPECTRUM
##ORIGIN=Japan AIST/NIMC Database- Spectrum MS-NW-6890
##OWNER=NIST Mass Spectrometry Data Center
Collection (C) 2014 copyright by the U.S. Secretary of Commerce
on behalf of the United States of America. All rights reserved.
##CAS REGISTRY NO=7208-47-1
##$NIST MASS SPEC NO=235573
##MOLFORM=C18 H26 O12
##MW=434
##$NIST SOURCE=MSDC
##XUNITS=M/Z
##YUNITS=RELATIVE INTENSITY
##XFACTOR=1
##YFACTOR=1
##FIRSTX=14
##LASTX=375
##FIRSTY=20
##MAXX=375
##MINX=14
##MAXY=9999
##MINY=10
##NPOINTS=113
##PEAK TABLE=(XY..XY)
14,20 15,259 17,10 18,30
27,20 28,40 29,30 31,10
39,20 41,30 42,99 43,9999
44,239 45,40 53,10 55,99
56,20 57,50 60,50 61,109
68,149 69,219 70,50 71,40
73,259 74,30 80,10 81,60
82,30 83,30 84,20 85,459
86,339 87,30 93,10 94,10
95,10 97,389 98,189 99,70
100,40 101,30 102,60 103,969
104,50 109,30 110,329 111,179
112,60 113,20 114,10 115,1869
116,379 117,30 126,10 127,599
128,979 129,99 130,10 133,10
139,939 140,129 141,30 142,20
143,10 144,20 145,1769 146,119
147,20 152,299 153,309 154,30
157,919 158,309 159,30 169,50
170,989 171,129 172,20 175,209
176,20 184,10 187,1269 188,119
189,20 199,60 200,50 201,10
211,30 212,189 213,60 217,1029
218,109 219,20 229,50 230,119
231,20 242,40 247,10 254,10
259,579 260,80 261,10 272,119
273,40 289,819 290,119 291,20
314,10 361,289 362,50 363,10
375,40
##END=
