##TITLE=3-Indolylacetamide, 2TMS derivative
##JCAMP-DX=4.24
##DATA TYPE=MASS SPECTRUM
##ORIGIN=S. MARKEY UNIV. OF COLO. MED. CTR., DENVER, COLORADO, USA
##OWNER=NIST Mass Spectrometry Data Center
Collection (C) 2014 copyright by the U.S. Secretary of Commerce
on behalf of the United States of America. All rights reserved.
##CAS REGISTRY NO=72101-39-4
##$NIST MASS SPEC NO=15051
##MOLFORM=C16 H26 N2 O Si2
##MW=318
##$NIST SOURCE=MSDC
##XUNITS=M/Z
##YUNITS=RELATIVE INTENSITY
##XFACTOR=1
##YFACTOR=1
##FIRSTX=40
##LASTX=319
##FIRSTY=400
##MAXX=319
##MINX=40
##MAXY=9999
##MINY=20
##NPOINTS=61
##PEAK TABLE=(XY..XY)
40,400 42,20 43,1020 44,590
45,2500 46,190 47,390 53,50
55,120 56,70 57,200 58,310
59,320 61,110 70,90 72,420
73,9999 74,1000 75,1490 76,60
77,310 84,200 89,20 100,250
101,130 102,270 103,70 105,30
116,160 128,90 129,470 130,940
131,180 143,20 144,50 145,280
146,50 147,130 155,140 156,160
160,110 170,110 172,180 184,30
186,270 187,140 188,290 189,30
200,240 201,290 202,3030 203,2690
204,490 205,100 213,30 228,70
229,80 230,210 303,120 318,430
319,140
##END=
