##TITLE=Benzeneacetic acid, nonyl ester
##JCAMP-DX=4.24
##DATA TYPE=MASS SPECTRUM
##ORIGIN=Zaikin V.G., TIPS RAS, Moscow, Russia
##OWNER=NIST Mass Spectrometry Data Center
Collection (C) 2014 copyright by the U.S. Secretary of Commerce
on behalf of the United States of America. All rights reserved.
##CAS REGISTRY NO=72109-82-1
##$NIST MASS SPEC NO=282909
##MOLFORM=C17 H26 O2
##MW=262
##$NIST SOURCE=MSDC
##XUNITS=M/Z
##YUNITS=RELATIVE INTENSITY
##XFACTOR=1
##YFACTOR=1
##FIRSTX=25
##LASTX=264
##FIRSTY=10
##MAXX=264
##MINX=25
##MAXY=9999
##MINY=10
##NPOINTS=122
##PEAK TABLE=(XY..XY)
25,10 26,60 27,210 29,480
30,10 31,10 36,30 37,10
38,40 39,360 40,80 41,1571
42,410 43,5125 44,290 45,20
50,50 51,120 52,50 53,100
54,100 55,1341 56,701 57,3883
58,150 61,10 62,40 63,170
64,60 65,891 66,60 67,170
68,170 69,821 70,621 71,4064
72,190 73,30 74,10 75,20
76,10 77,90 78,50 79,90
80,30 81,90 82,190 83,561
84,500 85,2442 86,150 87,10
89,390 90,410 91,9999 92,3463
93,230 94,20 95,70 96,100
97,601 98,450 99,40 103,10
104,20 105,90 106,60 107,40
108,10 109,20 110,10 111,50
115,20 117,20 118,300 119,581
120,60 121,20 123,10 124,30
125,30 126,941 127,100 128,10
129,10 131,10 132,10 133,30
134,30 135,60 136,9449 137,5935
138,430 139,40 141,40 143,40
145,10 147,10 149,100 150,20
151,10 153,10 163,20 165,10
169,10 171,6055 172,530 173,50
177,20 178,10 179,10 191,20
192,10 193,10 202,10 203,10
210,30 211,10 223,10 262,440
263,90 264,10
##END=
