##TITLE=4-Trimethylsiloxy(trimethylsilyl)valerate
##JCAMP-DX=4.24
##DATA TYPE=MASS SPECTRUM
##ORIGIN=O A MAMER, MCGILL UNIVERSITY, MONTRE
##OWNER=NIST Mass Spectrometry Data Center
Collection (C) 2014 copyright by the U.S. Secretary of Commerce
on behalf of the United States of America. All rights reserved.
##CAS REGISTRY NO=72101-10-1
##$NIST MASS SPEC NO=79462
##MOLFORM=C11 H26 O3 Si2
##MW=262
##$NIST SOURCE=MSDC
##XUNITS=M/Z
##YUNITS=RELATIVE INTENSITY
##XFACTOR=1
##YFACTOR=1
##FIRSTX=29
##LASTX=249
##FIRSTY=343
##MAXX=249
##MINX=29
##MAXY=9999
##MINY=23
##NPOINTS=72
##PEAK TABLE=(XY..XY)
29,343 31,88 42,23 43,544
44,258 45,1520 46,137 47,805
53,117 54,74 55,2920 56,514
57,204 58,437 59,719 60,164
61,693 71,113 72,469 73,9999
74,1033 75,5476 76,416 77,272
82,77 83,1857 84,128 85,265
86,93 87,220 88,77 89,104
99,243 101,258 102,158 113,502
114,99 115,449 116,468 117,8286
118,945 119,404 129,1503 130,323
131,1799 132,292 133,699 134,120
135,79 143,156 144,125 145,131
147,7254 148,1266 149,1399 150,192
151,95 157,4273 158,584 159,232
172,76 173,135 204,331 205,105
218,1839 219,508 220,179 231,492
232,108 247,3411 248,929 249,444
##END=
