##TITLE=5-Methyl-1-heptanol
##JCAMP-DX=4.24
##DATA TYPE=MASS SPECTRUM
##ORIGIN=NIST Mass Spectrometry Data Center, 1990.
##OWNER=NIST Mass Spectrometry Data Center
Collection (C) 2014 copyright by the U.S. Secretary of Commerce
on behalf of the United States of America. All rights reserved.
##CAS REGISTRY NO=7212-53-5
##$NIST MASS SPEC NO=113701
##MOLFORM=C8 H18 O
##MW=130
##$NIST SOURCE=MSDC
##XUNITS=M/Z
##YUNITS=RELATIVE INTENSITY
##XFACTOR=1
##YFACTOR=1
##FIRSTX=27
##LASTX=97
##FIRSTY=1734
##MAXX=97
##MINX=27
##MAXY=9999
##MINY=159
##NPOINTS=25
##PEAK TABLE=(XY..XY)
27,1734 28,1114 29,3053 31,2086
39,1729 41,5781 42,1302 43,2114
44,321 45,277 53,461 55,9999
56,3664 57,2378 67,593 69,1886
70,3536 71,462 73,821 81,165
82,1108 83,5956 84,1550 85,159
97,465
##END=
