##TITLE=1,6,10-Dodecatrien-3-ol, 3,7,11-trimethyl-
##JCAMP-DX=4.24
##DATA TYPE=MASS SPECTRUM
##ORIGIN=NIST Mass Spectrometry Data Center, 1994
##OWNER=NIST Mass Spectrometry Data Center
Collection (C) 2014 copyright by the U.S. Secretary of Commerce
on behalf of the United States of America. All rights reserved.
##CAS REGISTRY NO=7212-44-4
##$NIST MASS SPEC NO=135322
##MOLFORM=C15 H26 O
##MW=222
##$NIST SOURCE=MSDC
##XUNITS=M/Z
##YUNITS=RELATIVE INTENSITY
##XFACTOR=1
##YFACTOR=1
##FIRSTX=18
##LASTX=207
##FIRSTY=45
##MAXX=207
##MINX=18
##MAXY=9999
##MINY=23
##NPOINTS=84
##PEAK TABLE=(XY..XY)
18,45 27,1355 28,132 29,353
37,23 39,1979 41,9999 42,783
43,6384 44,132 50,63 51,296
53,1701 54,307 55,2972 56,242
57,426 58,186 63,60 65,445
67,2560 68,1123 69,8184 70,854
71,4319 72,278 77,732 78,174
79,1555 80,934 81,2100 82,754
83,450 84,103 85,83 91,911
93,4036 94,620 95,939 96,219
97,287 98,57 103,50 105,571
107,2141 108,411 109,856 110,134
111,162 115,29 117,37 119,587
120,230 121,758 122,333 123,653
124,92 125,44 127,28 133,324
134,264 135,437 136,785 137,195
138,35 139,47 140,32 147,166
148,222 149,92 150,36 151,34
152,35 161,676 162,172 163,26
175,50 176,40 177,52 179,58
189,197 190,31 204,68 207,24
##END=
