##TITLE=3',6'-Diacetoxybenzonorbornadiene
##JCAMP-DX=4.24
##DATA TYPE=MASS SPECTRUM
##ORIGIN=NIST Mass Spectrometry Data Center, 1994
##OWNER=NIST Mass Spectrometry Data Center
Collection (C) 2014 copyright by the U.S. Secretary of Commerce
on behalf of the United States of America. All rights reserved.
##CAS REGISTRY NO=7213-65-2
##$NIST MASS SPEC NO=135717
##MOLFORM=C15 H14 O4
##MW=258
##$NIST SOURCE=MSDC
##XUNITS=M/Z
##YUNITS=RELATIVE INTENSITY
##XFACTOR=1
##YFACTOR=1
##FIRSTX=12
##LASTX=260
##FIRSTY=27
##MAXX=260
##MINX=12
##MAXY=9999
##MINY=7
##NPOINTS=99
##PEAK TABLE=(XY..XY)
12,27 13,39 14,290 15,2641
16,53 17,17 18,34 26,75
27,52 28,151 37,28 38,112
39,551 40,84 41,64 42,28
43,9999 44,225 50,197 51,355
52,88 53,212 54,118 55,166
61,36 62,218 63,698 64,272
65,531 66,100 67,23 69,27
74,95 75,191 76,147 77,348
78,81 79,26 80,9 82,229
85,14 86,67 87,83 88,83
89,712 90,348 91,1007 92,215
93,34 98,25 99,18 100,15
101,90 102,246 103,220 104,45
105,77 106,16 113,40 115,1424
116,343 117,432 118,256 119,846
120,100 126,95 127,439 128,390
129,175 130,40 131,2037 132,204
133,21 139,16 143,67 144,165
145,620 146,376 147,332 148,649
149,59 155,59 156,61 157,254
158,59 159,559 160,69 171,126
174,9615 175,1214 176,99 199,14
214,7 216,1499 217,210 218,28
258,727 259,125 260,9
##END=
