##TITLE=Barbituric acid, 5,5-diallyl-1,3-dimethyl-
##JCAMP-DX=4.24
##DATA TYPE=MASS SPECTRUM
##ORIGIN=BAY 0138
##OWNER=NIST Mass Spectrometry Data Center
Collection (C) 2014 copyright by the U.S. Secretary of Commerce
on behalf of the United States of America. All rights reserved.
##CAS REGISTRY NO=722-97-4
##$NIST MASS SPEC NO=11371
##MOLFORM=C12 H16 N2 O3
##MW=236
##$NIST SOURCE=MSDC
##XUNITS=M/Z
##YUNITS=RELATIVE INTENSITY
##XFACTOR=1
##YFACTOR=1
##FIRSTX=40
##LASTX=237
##FIRSTY=651
##MAXX=237
##MINX=40
##MAXY=9999
##MINY=100
##NPOINTS=91
##PEAK TABLE=(XY..XY)
40,651 41,7617 42,1902 43,300
44,250 50,300 51,901 52,1301
53,5015 54,951 55,1001 56,1401
57,300 58,2602 59,100 63,150
64,100 65,851 66,901 67,1301
68,1501 69,450 70,300 71,150
77,1101 78,350 79,1601 80,4304
81,2502 82,1401 83,400 84,150
89,150 91,601 92,300 93,450
94,550 95,300 96,250 97,500
99,100 105,100 106,100 107,250
108,450 109,1702 110,2702 111,601
112,1001 113,100 120,150 121,200
122,400 123,150 124,100 136,450
137,350 138,9318 139,751 140,100
143,100 148,100 150,300 151,150
156,300 157,200 164,150 165,150
166,100 167,250 169,1401 170,200
178,250 179,601 180,500 181,601
182,450 192,100 193,1802 194,4804
195,9999 196,1301 197,150 207,701
208,300 218,100 221,901 222,100
235,100 236,1902 237,350
##END=
