##TITLE=Dodecane, 1-cyclopentyl-4-(3-cyclopentylpropyl)-
##JCAMP-DX=4.24
##DATA TYPE=MASS SPECTRUM
##OWNER=NIST Mass Spectrometry Data Center
Collection (C) 2014 copyright by the U.S. Secretary of Commerce
on behalf of the United States of America. All rights reserved.
##CAS REGISTRY NO=7225-68-5
##$NIST MASS SPEC NO=15853
##MOLFORM=C25 H48
##MW=348
##$NIST SOURCE=MSDC
##XUNITS=M/Z
##YUNITS=RELATIVE INTENSITY
##XFACTOR=1
##YFACTOR=1
##FIRSTX=37
##LASTX=349
##FIRSTY=30
##MAXX=349
##MINX=37
##MAXY=9999
##MINY=10
##NPOINTS=223
##PEAK TABLE=(XY..XY)
37,30 38,60 39,1161 40,310
41,9539 42,1301 43,5685 44,230
45,10 46,10 47,10 48,10
49,10 50,40 51,80 52,60
53,631 54,1001 55,9428 56,1461
57,5075 58,300 59,30 60,10
61,10 62,10 63,30 64,20
65,160 66,390 67,3623 68,1511
69,8638 70,961 71,2632 72,160
73,10 74,10 75,10 76,10
77,180 78,50 79,400 80,250
81,1521 82,3213 83,9999 84,871
85,1641 86,120 87,10 88,10
89,10 90,10 91,140 92,80
93,340 94,240 95,1641 96,861
97,7777 98,701 99,430 100,50
101,20 102,10 103,10 104,10
105,40 106,20 107,60 108,70
109,661 110,330 111,3513 112,380
113,220 114,20 115,10 116,10
117,10 118,10 119,20 120,10
121,120 122,110 123,591 124,390
125,1762 126,220 127,130 128,20
129,10 130,10 131,10 132,10
133,10 134,10 135,50 136,110
137,591 138,280 139,1331 140,170
141,140 142,20 143,10 144,10
145,10 146,10 147,10 148,10
149,30 150,30 151,180 152,130
153,721 154,180 155,140 156,20
157,10 158,10 159,10 160,10
161,10 162,10 163,10 164,10
165,110 166,50 167,300 168,60
169,30 170,10 171,10 172,10
173,10 174,10 175,10 176,10
177,20 178,30 179,120 180,90
181,170 182,30 183,10 184,10
185,10 186,10 187,10 189,10
190,10 191,10 192,20 193,50
194,40 195,60 196,10 197,10
198,10 199,10 200,10 201,10
202,10 203,10 204,10 205,10
206,30 207,20 208,80 209,20
210,10 211,10 219,10 220,20
221,10 222,30 223,20 224,10
225,10 226,10 231,10 232,10
233,10 234,450 235,270 236,961
237,611 238,100 239,10 240,10
241,10 245,10 246,10 247,10
248,10 249,10 250,30 251,20
252,10 253,10 261,10 262,10
263,10 264,10 265,10 266,10
267,10 275,10 276,10 277,10
278,10 279,10 280,10 281,10
289,10 290,10 291,10 346,10
347,10 348,10 349,10
##END=
