##TITLE=1-Triazene, 3,3-dimethyl-1-phenyl-
##JCAMP-DX=4.24
##DATA TYPE=MASS SPECTRUM
##ORIGIN=NIST Mass Spectrometry Data Center, 1998.
##OWNER=NIST Mass Spectrometry Data Center
Collection (C) 2014 copyright by the U.S. Secretary of Commerce
on behalf of the United States of America. All rights reserved.
##CAS REGISTRY NO=7227-91-0
##$NIST MASS SPEC NO=291464
##MOLFORM=C8 H11 N3
##MW=149
##$NIST SOURCE=MSDC
##XUNITS=M/Z
##YUNITS=RELATIVE INTENSITY
##XFACTOR=1
##YFACTOR=1
##FIRSTX=14
##LASTX=151
##FIRSTY=10
##MAXX=151
##MINX=14
##MAXY=9999
##MINY=10
##NPOINTS=55
##PEAK TABLE=(XY..XY)
14,10 15,120 26,20 27,100
28,20 29,10 30,10 37,50
38,120 39,180 40,50 41,80
42,660 43,530 44,370 45,70
49,30 50,590 51,2430 52,190
53,10 58,10 61,20 62,50
63,180 64,180 65,70 66,10
73,20 74,140 75,110 76,200
77,9999 78,840 79,70 80,10
87,10 88,10 90,20 91,100
92,20 93,10 94,10 103,20
104,70 105,3570 106,310 107,10
118,20 119,10 120,70 121,20
149,1370 150,130 151,10
##END=
