##TITLE=2-Butenoic acid, 2-methyl-, 2,3,5,7a-tetrahydro-7-(hydroxymethyl)-1H-pyrrolizin-1-yl ester, [1S-[1.alpha.(Z),7a.alpha.]]-
##JCAMP-DX=4.24
##DATA TYPE=MASS SPECTRUM
##OWNER=NIST Mass Spectrometry Data Center
Collection (C) 2014 copyright by the U.S. Secretary of Commerce
on behalf of the United States of America. All rights reserved.
##CAS REGISTRY NO=723-78-4
##$NIST MASS SPEC NO=11412
##MOLFORM=C13 H19 N O3
##MW=237
##$NIST SOURCE=MSDC
##XUNITS=M/Z
##YUNITS=RELATIVE INTENSITY
##XFACTOR=1
##YFACTOR=1
##FIRSTX=39
##LASTX=238
##FIRSTY=601
##MAXX=238
##MINX=39
##MAXY=9999
##MINY=4
##NPOINTS=81
##PEAK TABLE=(XY..XY)
39,601 40,200 41,801 42,300
43,200 44,400 51,200 52,200
53,801 54,400 55,2002 56,200
57,200 65,200 66,100 67,400
68,1001 69,200 77,300 78,300
79,400 80,9999 81,1301 82,701
83,1101 84,100 85,100 86,200
89,100 90,100 91,100 92,200
93,500 94,3003 95,901 96,200
100,200 104,200 105,100 106,8508
107,1201 108,701 109,200 110,500
111,4604 112,300 117,200 118,300
119,500 120,801 121,300 122,100
124,3203 125,400 126,100 132,100
133,100 134,200 135,200 136,3503
137,5505 138,801 139,100 141,200
146,100 147,200 148,100 149,143
153,4346 154,4100 155,4100 160,4
175,256 190,324 191,296 204,858
218,106 219,324 220,324 237,395
238,13
##END=
