##TITLE=3-Dodecene, (Z)-
##JCAMP-DX=4.24
##DATA TYPE=MASS SPECTRUM
##ORIGIN=D.HENNEBERG, MAX-PLANCK INSTITUTE, MULHEIM, WEST GERMANY
##OWNER=NIST Mass Spectrometry Data Center
Collection (C) 2014 copyright by the U.S. Secretary of Commerce
on behalf of the United States of America. All rights reserved.
##CAS REGISTRY NO=7239-23-8
##$NIST MASS SPEC NO=61836
##MOLFORM=C12 H24
##MW=168
##$NIST SOURCE=MSDC
##XUNITS=M/Z
##YUNITS=RELATIVE INTENSITY
##XFACTOR=1
##YFACTOR=1
##FIRSTX=25
##LASTX=169
##FIRSTY=43
##MAXX=169
##MINX=25
##MAXY=9999
##MINY=1
##NPOINTS=84
##PEAK TABLE=(XY..XY)
25,43 26,70 27,1753 28,17
29,2871 30,109 31,31 32,20
34,8 35,29 37,36 38,16
39,1390 40,339 41,9494 42,3312
43,7150 45,37 46,19 47,14
48,9 49,13 50,30 51,113
52,95 53,654 54,1121 55,9999
56,8980 57,5824 58,252 59,19
62,11 63,34 64,28 65,132
66,132 67,1198 68,869 69,8813
70,6504 71,1556 72,68 77,62
78,26 79,122 80,44 81,382
82,804 83,3963 84,2512 85,602
86,22 88,7 91,29 92,9
93,36 94,7 95,82 96,239
97,2035 98,998 99,73 105,7
109,23 110,107 111,736 112,335
113,27 114,3 115,6 117,11
120,4 124,33 125,241 126,114
133,7 138,1 139,51 140,147
141,12 167,8 168,1070 169,133
##END=
