##TITLE=exo-2-Aminonorbornane
##JCAMP-DX=4.24
##DATA TYPE=MASS SPECTRUM
##ORIGIN=Chuck Anderson, Aldrich Chemical Co.
##OWNER=NIST Mass Spectrometry Data Center
Collection (C) 2014 copyright by the U.S. Secretary of Commerce
on behalf of the United States of America. All rights reserved.
##CAS REGISTRY NO=7242-92-4
##$NIST MASS SPEC NO=108305
##MOLFORM=C7 H13 N
##MW=111
##$NIST SOURCE=MSDC
##XUNITS=M/Z
##YUNITS=RELATIVE INTENSITY
##XFACTOR=1
##YFACTOR=1
##FIRSTX=15
##LASTX=112
##FIRSTY=176
##MAXX=112
##MINX=15
##MAXY=9999
##MINY=4
##NPOINTS=59
##PEAK TABLE=(XY..XY)
15,176 17,31 18,548 26,134
27,1131 28,2594 29,636 30,4480
31,92 32,14 37,47 38,173
39,1910 40,418 41,2028 42,1627
43,5282 44,1090 45,2051 46,82
47,19 48,27 50,144 51,293
52,185 53,571 54,536 55,319
56,5117 57,1302 58,46 62,29
63,74 64,4 65,565 66,1532
67,1532 68,518 69,1208 70,2499
71,120 77,495 78,53 79,4292
80,595 82,9999 83,1444 84,78
91,243 92,22 93,303 94,2617
95,243 96,795 97,43 108,21
110,902 111,3631 112,275
##END=
