##TITLE=Disulfide, ethyl isopentyl
##JCAMP-DX=4.24
##DATA TYPE=MASS SPECTRUM
##ORIGIN=H.J. MOECKEL & J. WEISS, HAHN-MEITNER-INST. BERLIN, W. G
##OWNER=NIST Mass Spectrometry Data Center
Collection (C) 2014 copyright by the U.S. Secretary of Commerce
on behalf of the United States of America. All rights reserved.
##CAS REGISTRY NO=72437-60-6
##$NIST MASS SPEC NO=75510
##MOLFORM=C7 H16 S2
##MW=164
##$NIST SOURCE=MSDC
##XUNITS=M/Z
##YUNITS=RELATIVE INTENSITY
##XFACTOR=1
##YFACTOR=1
##FIRSTX=15
##LASTX=168
##FIRSTY=106
##MAXX=168
##MINX=15
##MAXY=9999
##MINY=1
##NPOINTS=93
##PEAK TABLE=(XY..XY)
15,106 24,2 25,12 26,222
27,2820 29,3653 30,126 33,25
34,38 35,235 36,4 37,23
38,69 39,1002 40,100 41,2910
42,671 43,9999 44,544 45,592
46,268 47,380 48,19 49,17
50,20 51,46 52,20 53,193
54,76 55,1205 56,237 57,117
58,140 59,376 60,178 61,207
62,34 63,24 64,133 65,101
66,461 67,85 68,82 69,229
70,216 71,2432 72,141 73,19
74,36 75,23 76,6 77,4
78,31 79,250 80,15 81,24
82,1 84,1 85,21 86,7
87,184 88,14 89,33 90,14
91,8 92,18 93,232 94,1001
95,66 96,88 97,4 98,2
99,3 100,2 101,57 102,81
103,30 104,6 105,3 106,2
107,50 108,2 109,4 120,3
121,16 146,1 162,3 163,55
164,1366 165,155 166,128 167,12
168,3
##END=
