##TITLE=Disulfide, butyl (1-methylethyl)
##JCAMP-DX=4.24
##DATA TYPE=MASS SPECTRUM
##ORIGIN=H.J. MOECKEL & J. WEISS, HAHN-MEITNER-INST. BERLIN, W. GER
##OWNER=NIST Mass Spectrometry Data Center
Collection (C) 2014 copyright by the U.S. Secretary of Commerce
on behalf of the United States of America. All rights reserved.
##CAS REGISTRY NO=72437-53-7
##$NIST MASS SPEC NO=75518
##MOLFORM=C7 H16 S2
##MW=164
##$NIST SOURCE=MSDC
##XUNITS=M/Z
##YUNITS=RELATIVE INTENSITY
##XFACTOR=1
##YFACTOR=1
##FIRSTX=15
##LASTX=168
##FIRSTY=75
##MAXX=168
##MINX=15
##MAXY=9999
##MINY=1
##NPOINTS=92
##PEAK TABLE=(XY..XY)
15,75 19,2 24,1 25,5
26,127 27,2243 29,3811 30,85
31,35 33,14 34,23 35,43
36,1 37,17 38,66 39,935
40,108 41,4544 42,391 43,5659
44,212 45,413 46,180 47,417
48,17 49,49 50,11 51,20
52,8 53,87 54,59 55,425
56,728 57,9999 58,522 59,311
60,120 61,62 62,6 63,5
64,95 65,44 66,319 67,12
68,26 69,6 70,1 71,14
72,6 73,78 74,93 75,61
76,23 77,6 78,18 79,206
80,12 81,18 82,1 85,11
86,3 87,120 88,40 89,94
90,13 91,6 92,7 93,32
94,3 95,3 103,1 105,1
106,3 107,38 108,137 109,13
110,14 120,1 121,42 122,1783
123,116 124,150 125,7 126,3
135,1 162,1 163,39 164,1675
165,163 166,146 167,13 168,3
##END=
