##TITLE=Disulfide, isopentyl methyl
##JCAMP-DX=4.24
##DATA TYPE=MASS SPECTRUM
##ORIGIN=H.J. MOECKEL & J. WEISS, HAHN-MEITNER-INST. BERLIN, W. GER
##OWNER=NIST Mass Spectrometry Data Center
Collection (C) 2014 copyright by the U.S. Secretary of Commerce
on behalf of the United States of America. All rights reserved.
##CAS REGISTRY NO=72437-56-0
##$NIST MASS SPEC NO=75501
##MOLFORM=C6 H14 S2
##MW=150
##$NIST SOURCE=MSDC
##XUNITS=M/Z
##YUNITS=RELATIVE INTENSITY
##XFACTOR=1
##YFACTOR=1
##FIRSTX=15
##LASTX=154
##FIRSTY=609
##MAXX=154
##MINX=15
##MAXY=9999
##MINY=2
##NPOINTS=86
##PEAK TABLE=(XY..XY)
15,609 24,3 25,39 26,685
27,6114 29,6270 30,139 33,61
34,50 35,112 37,92 38,572
39,3803 40,936 41,9999 42,2941
43,9997 44,1831 45,4053 46,1521
47,1749 48,165 49,187 50,136
51,230 52,119 53,717 54,374
55,3257 56,490 58,373 59,719
60,355 61,312 62,39 63,166
64,835 65,163 66,106 67,181
68,130 69,571 70,859 71,5494
72,317 73,61 74,76 75,22
76,15 77,40 78,395 79,2116
80,3291 81,311 82,291 83,15
84,21 85,79 86,56 87,581
88,30 89,15 91,6 92,85
93,609 95,39 97,2 99,7
100,7 101,105 102,118 103,54
104,14 105,4 106,21 107,72
108,5 109,6 117,3 148,12
149,314 150,4679 151,528 152,438
153,40 154,10
##END=
