##TITLE=Propanenitrile, 3-(propylamino)-
##JCAMP-DX=4.24
##DATA TYPE=MASS SPECTRUM
##ORIGIN=NIST Mass Spectrometry Data Center, 1994
##OWNER=NIST Mass Spectrometry Data Center
Collection (C) 2014 copyright by the U.S. Secretary of Commerce
on behalf of the United States of America. All rights reserved.
##CAS REGISTRY NO=7249-87-8
##$NIST MASS SPEC NO=134741
##MOLFORM=C6 H12 N2
##MW=112
##$NIST SOURCE=MSDC
##XUNITS=M/Z
##YUNITS=RELATIVE INTENSITY
##XFACTOR=1
##YFACTOR=1
##FIRSTX=4
##LASTX=113
##FIRSTY=4
##MAXX=113
##MINX=4
##MAXY=9999
##MINY=4
##NPOINTS=46
##PEAK TABLE=(XY..XY)
4,4 14,121 15,551 16,18
18,84 25,33 26,442 27,2184
28,3059 29,790 30,5308 31,88
32,16 34,22 37,50 38,164
39,1060 40,527 41,2235 42,8946
43,2112 44,735 45,23 50,22
51,125 52,360 53,22 54,3522
55,287 56,1066 57,171 58,38
66,30 67,63 68,162 69,149
70,896 71,30 72,4191 73,204
81,85 83,9999 84,507 111,86
112,359 113,26
##END=
