##TITLE=3,5-Bis(trifluoromethyl)benzoic acid
##JCAMP-DX=4.24
##DATA TYPE=MASS SPECTRUM
##ORIGIN=NIST Mass Spectrometry Data Center
##OWNER=NIST Mass Spectrometry Data Center
Collection (C) 2014 copyright by the U.S. Secretary of Commerce
on behalf of the United States of America. All rights reserved.
##CAS REGISTRY NO=725-89-3
##$NIST MASS SPEC NO=341529
##MOLFORM=C9 H4 F6 O2
##MW=258
##$NIST SOURCE=MSDC
##XUNITS=M/Z
##YUNITS=RELATIVE INTENSITY
##XFACTOR=1
##YFACTOR=1
##FIRSTX=12
##LASTX=259
##FIRSTY=110
##MAXX=259
##MINX=12
##MAXY=9999
##MINY=10
##NPOINTS=51
##PEAK TABLE=(XY..XY)
12,110 14,90 18,10 28,190
29,170 31,160 38,110 45,841
49,80 50,350 51,150 53,110
55,80 57,170 63,120 69,651
73,160 74,701 75,1071 87,130
93,170 94,230 95,150 99,320
111,100 113,230 123,220 125,430
132,90 143,1041 144,921 145,601
161,120 162,230 163,1762 164,260
189,80 191,70 193,550 194,641
195,320 207,100 211,90 213,4654
214,571 230,130 239,3263 241,9999
242,1031 258,5635 259,540
##END=
