##TITLE=1,3,4-Oxadiazole, 2,5-diphenyl-
##JCAMP-DX=4.24
##DATA TYPE=MASS SPECTRUM
##ORIGIN=Japan AIST/NIMC Database- Spectrum MS-NW-5573
##OWNER=NIST Mass Spectrometry Data Center
Collection (C) 2014 copyright by the U.S. Secretary of Commerce
on behalf of the United States of America. All rights reserved.
##CAS REGISTRY NO=725-12-2
##$NIST MASS SPEC NO=232760
##MOLFORM=C14 H10 N2 O
##MW=222
##$NIST SOURCE=MSDC
##XUNITS=M/Z
##YUNITS=RELATIVE INTENSITY
##XFACTOR=1
##YFACTOR=1
##FIRSTX=26
##LASTX=225
##FIRSTY=90
##MAXX=225
##MINX=26
##MAXY=9999
##MINY=10
##NPOINTS=76
##PEAK TABLE=(XY..XY)
26,90 27,299 28,90 37,139
38,299 39,1109 40,60 41,40
43,20 49,70 50,1049 51,2779
52,289 53,50 56,10 61,109
62,419 63,1589 64,419 65,90
66,20 73,40 74,279 75,369
76,769 77,8909 78,589 79,30
85,40 86,80 87,99 88,80
89,849 90,259 91,90 92,10
99,20 100,10 102,30 103,499
104,119 105,8889 106,659 107,50
111,199 113,20 114,10 115,90
116,10 117,10 118,30 119,10
126,20 138,10 139,129 140,30
149,10 151,20 162,10 163,139
164,369 165,9509 166,5509 167,709
168,50 177,10 178,10 192,10
193,90 194,40 195,10 221,40
222,9999 223,1689 224,169 225,10
##END=
