##TITLE=4-(Trifluoromethyl)thiobenzamide
##JCAMP-DX=4.24
##DATA TYPE=MASS SPECTRUM
##ORIGIN=NIST Mass Spectrometry Data Center, 1994
##OWNER=NIST Mass Spectrometry Data Center
Collection (C) 2014 copyright by the U.S. Secretary of Commerce
on behalf of the United States of America. All rights reserved.
##CAS REGISTRY NO=72505-21-6
##$NIST MASS SPEC NO=136418
##MOLFORM=C8 H6 F3 N S
##MW=205
##$NIST SOURCE=MSDC
##XUNITS=M/Z
##YUNITS=RELATIVE INTENSITY
##XFACTOR=1
##YFACTOR=1
##FIRSTX=17
##LASTX=207
##FIRSTY=77
##MAXX=207
##MINX=17
##MAXY=9999
##MINY=15
##NPOINTS=113
##PEAK TABLE=(XY..XY)
17,77 18,84 26,272 27,188
31,472 32,727 33,494 34,762
35,105 36,189 37,729 38,735
39,376 40,86 41,51 44,103
45,101 48,75 49,396 50,2326
51,1717 52,491 53,64 56,178
57,436 59,15 60,2180 61,361
62,509 63,515 64,273 65,115
68,208 69,2059 70,254 72,76
73,332 74,1004 75,3346 76,1467
77,239 79,95 80,127 81,213
82,137 83,41 84,66 85,131
86,115 87,209 88,207 89,64
91,103 92,107 93,329 94,873
95,661 96,171 98,72 99,811
100,656 101,255 102,1273 103,171
104,69 105,98 106,83 107,134
108,80 109,71 114,81 117,49
118,70 119,166 120,334 121,6257
122,516 123,125 124,212 125,787
126,373 127,91 132,110 133,129
136,126 139,314 140,56 143,273
144,411 145,1341 146,213 150,259
151,415 152,5009 153,472 157,104
159,161 170,2621 171,9999 172,3600
173,374 177,119 178,62 184,68
186,280 189,1263 190,151 191,142
203,87 204,479 205,3419 206,373
207,198
##END=
