##TITLE=Quinoxaline, 2-methyl-
##JCAMP-DX=4.24
##DATA TYPE=MASS SPECTRUM
##ORIGIN=Philip Morris R&D
##OWNER=NIST Mass Spectrometry Data Center
Collection (C) 2014 copyright by the U.S. Secretary of Commerce
on behalf of the United States of America. All rights reserved.
##CAS REGISTRY NO=7251-61-8
##$NIST MASS SPEC NO=108800
##MOLFORM=C9 H8 N2
##MW=144
##$NIST SOURCE=MSDC
##XUNITS=M/Z
##YUNITS=RELATIVE INTENSITY
##XFACTOR=1
##YFACTOR=1
##FIRSTX=36
##LASTX=146
##FIRSTY=5
##MAXX=146
##MINX=36
##MAXY=9999
##MINY=5
##NPOINTS=54
##PEAK TABLE=(XY..XY)
36,5 37,90 38,169 39,348
40,64 41,25 42,45 43,10
44,18 45,13 49,30 50,1206
51,340 52,140 53,16 58,35
59,948 61,38 62,86 63,208
64,124 65,37 66,13 72,762
73,75 74,238 75,565 76,2446
77,1857 78,159 86,6 87,17
88,38 89,229 90,499 91,66
99,16 100,11 101,13 102,351
103,516 104,43 114,16 115,29
116,286 117,5443 118,507 119,19
129,79 142,42 143,229 144,9999
145,1071 146,49
##END=
