##TITLE=Ethane, 2-bromo-1,1-dimethoxy-
##JCAMP-DX=4.24
##DATA TYPE=MASS SPECTRUM
##ORIGIN=RADIAN CORP
##OWNER=NIST Mass Spectrometry Data Center
Collection (C) 2014 copyright by the U.S. Secretary of Commerce
on behalf of the United States of America. All rights reserved.
##CAS REGISTRY NO=7252-83-7
##$NIST MASS SPEC NO=72927
##MOLFORM=C4 H9 Br O2
##MW=168
##$NIST SOURCE=MSDC
##XUNITS=M/Z
##YUNITS=RELATIVE INTENSITY
##XFACTOR=1
##YFACTOR=1
##FIRSTX=14
##LASTX=169
##FIRSTY=30
##MAXX=169
##MINX=14
##MAXY=9999
##MINY=10
##NPOINTS=52
##PEAK TABLE=(XY..XY)
14,30 15,230 26,100 27,280
29,920 30,150 31,830 41,30
42,330 43,2850 44,90 45,240
47,1120 48,20 57,140 58,1110
59,150 72,10 73,110 74,50
75,9999 76,340 77,50 79,100
80,50 81,100 82,50 88,20
91,40 92,80 93,700 94,190
95,690 96,100 97,30 105,50
106,20 107,100 108,10 109,50
120,20 121,60 122,40 123,60
124,10 136,60 137,2750 138,150
139,2600 140,80 167,30 169,30
##END=
