##TITLE=2-Methyl-2-bornene
##JCAMP-DX=4.24
##DATA TYPE=MASS SPECTRUM
##ORIGIN=J.Martin, J.Agr.Food Chem.,36,1257(1988)
##OWNER=NIST Mass Spectrometry Data Center
Collection (C) 2014 copyright by the U.S. Secretary of Commerce
on behalf of the United States of America. All rights reserved.
##CAS REGISTRY NO=72540-93-3
##$NIST MASS SPEC NO=281444
##MOLFORM=C11 H18
##MW=150
##$NIST SOURCE=MSDC
##XUNITS=M/Z
##YUNITS=RELATIVE INTENSITY
##XFACTOR=1
##YFACTOR=1
##FIRSTX=42
##LASTX=150
##FIRSTY=1301
##MAXX=150
##MINX=42
##MAXY=9999
##MINY=761
##NPOINTS=33
##PEAK TABLE=(XY..XY)
42,1301 43,2262 44,901 49,921
51,1371 53,1882 54,761 55,1932
56,1211 57,1031 65,1571 67,2893
68,871 69,2943 77,2602 78,1301
79,9869 80,1301 81,1081 82,961
91,5345 92,1571 93,7587 94,5925
95,3563 105,1341 106,1842 107,9999
108,2062 121,2442 122,851 135,4444
150,2152
##END=
