##TITLE=o-Methoxybenzoic acid, 2-methylphenyl ester
##JCAMP-DX=4.24
##DATA TYPE=MASS SPECTRUM
##ORIGIN=Zaikin V.G., TIPS RAS, Moscow, Russia
##OWNER=NIST Mass Spectrometry Data Center
Collection (C) 2014 copyright by the U.S. Secretary of Commerce
on behalf of the United States of America. All rights reserved.
##CAS REGISTRY NO=72566-70-2
##$NIST MASS SPEC NO=292616
##MOLFORM=C15 H14 O3
##MW=242
##$NIST SOURCE=MSDC
##XUNITS=M/Z
##YUNITS=RELATIVE INTENSITY
##XFACTOR=1
##YFACTOR=1
##FIRSTX=28
##LASTX=242
##FIRSTY=10
##MAXX=242
##MINX=28
##MAXY=9999
##MINY=10
##NPOINTS=24
##PEAK TABLE=(XY..XY)
28,10 39,40 50,30 51,100
52,30 63,90 64,130 65,40
76,60 77,971 78,110 79,90
91,30 92,520 93,40 105,70
107,70 108,30 120,120 121,30
135,9999 136,751 137,60 242,50
##END=
