##TITLE=Tetramethyl bicyclo[2.2.2]-7-octene-2,3,5,6-tetracarboxylate
##JCAMP-DX=4.24
##DATA TYPE=MASS SPECTRUM
##ORIGIN=NIST Mass Spectrometry Data Center, 1994
##OWNER=NIST Mass Spectrometry Data Center
Collection (C) 2014 copyright by the U.S. Secretary of Commerce
on behalf of the United States of America. All rights reserved.
##CAS REGISTRY NO=72598-54-0
##$NIST MASS SPEC NO=135894
##MOLFORM=C16 H20 O8
##MW=340
##$NIST SOURCE=MSDC
##XUNITS=M/Z
##YUNITS=RELATIVE INTENSITY
##XFACTOR=1
##YFACTOR=1
##FIRSTX=15
##LASTX=342
##FIRSTY=3552
##MAXX=342
##MINX=15
##MAXY=9999
##MINY=6
##NPOINTS=151
##PEAK TABLE=(XY..XY)
15,3552 16,177 18,6 26,9
28,203 29,186 30,80 32,11
33,82 38,56 39,696 40,71
41,271 42,137 43,16 44,49
45,192 47,90 50,226 51,887
52,584 53,509 54,211 55,672
56,49 57,120 58,16 59,9999
60,284 62,59 63,209 64,71
65,508 66,85 67,71 68,76
69,130 71,65 74,493 75,392
77,4389 78,3420 79,499 81,106
82,132 83,117 84,65 85,1463
86,166 87,101 89,155 91,3476
92,781 93,4124 94,355 95,130
98,158 99,279 101,262 102,472
103,1769 104,101 105,2875 106,306
107,64 108,83 109,249 111,206
113,5708 114,1230 115,448 116,152
117,401 118,239 119,255 120,277
121,614 122,82 123,55 129,207
130,220 131,1685 132,261 133,443
134,134 135,331 136,845 137,3514
138,326 139,257 145,1031 146,346
147,173 148,60 149,107 150,60
151,456 152,67 157,235 158,141
159,139 160,60 161,1459 162,562
163,3402 164,587 165,78 173,130
175,63 176,68 177,410 178,63
179,1988 180,193 181,109 183,72
188,683 189,3514 190,569 191,104
193,152 195,467 196,321 197,55
201,52 205,151 216,1512 217,468
218,69 219,69 220,1463 221,1994
222,299 248,3179 249,3293 250,536
251,75 261,354 276,1152 277,210
280,203 281,878 282,116 293,99
308,1184 309,4377 310,752 311,130
340,791 341,140 342,12
##END=
