##TITLE=2-Naphthalenecarboxylic acid, 3-hydroxy-, phenyl ester
##JCAMP-DX=4.24
##DATA TYPE=MASS SPECTRUM
##ORIGIN=Japan AIST/NIMC Database- Spectrum MS-NW-8049
##OWNER=NIST Mass Spectrometry Data Center
Collection (C) 2014 copyright by the U.S. Secretary of Commerce
on behalf of the United States of America. All rights reserved.
##CAS REGISTRY NO=7260-11-9
##$NIST MASS SPEC NO=238998
##MOLFORM=C17 H12 O3
##MW=264
##$NIST SOURCE=MSDC
##XUNITS=M/Z
##YUNITS=RELATIVE INTENSITY
##XFACTOR=1
##YFACTOR=1
##FIRSTX=18
##LASTX=266
##FIRSTY=10
##MAXX=266
##MINX=18
##MAXY=9999
##MINY=10
##NPOINTS=56
##PEAK TABLE=(XY..XY)
18,10 27,20 28,70 38,40
39,319 40,20 41,10 43,20
50,60 51,149 52,10 53,40
55,10 57,10 61,10 62,99
63,309 64,70 65,299 66,50
71,30 74,50 75,80 76,20
77,70 86,40 87,70 88,189
89,369 90,30 93,10 94,90
99,10 102,10 103,10 113,239
114,599 115,3509 116,349 117,10
126,10 131,10 141,10 142,479
143,359 144,40 169,20 170,639
171,9999 172,1209 173,99 178,10
263,20 264,2049 265,389 266,40
##END=
