##TITLE=2,5-Dimethyl-3-(2-methylbutyl)pyrazine
##JCAMP-DX=4.24
##DATA TYPE=MASS SPECTRUM
##ORIGIN=Philip Morris R&D
##OWNER=NIST Mass Spectrometry Data Center
Collection (C) 2014 copyright by the U.S. Secretary of Commerce
on behalf of the United States of America. All rights reserved.
##CAS REGISTRY NO=72668-36-1
##$NIST MASS SPEC NO=109585
##MOLFORM=C11 H18 N2
##MW=178
##$NIST SOURCE=MSDC
##XUNITS=M/Z
##YUNITS=RELATIVE INTENSITY
##XFACTOR=1
##YFACTOR=1
##FIRSTX=36
##LASTX=180
##FIRSTY=9
##MAXX=180
##MINX=36
##MAXY=9999
##MINY=0
##NPOINTS=93
##PEAK TABLE=(XY..XY)
36,9 37,7 38,64 39,927
40,242 41,567 42,1008 43,69
44,12 45,0 50,24 51,106
52,172 53,573 54,192 55,94
56,35 57,112 58,2 60,0
61,2 62,3 63,20 64,25
65,55 66,130 67,62 68,55
69,13 70,0 71,4 72,1
73,12 74,10 75,1 76,10
77,61 78,34 79,67 80,297
81,127 82,25 83,4 89,3
91,17 92,17 93,26 94,66
95,52 96,73 97,7 98,8
103,1 104,4 105,11 106,19
107,178 108,90 109,41 117,1
118,9 119,15 120,10 121,762
122,9999 123,947 124,39 131,12
132,21 133,102 134,17 135,189
136,101 137,5 145,17 146,21
147,86 148,21 149,454 150,62
151,1 157,1 159,9 160,5
161,33 162,8 163,771 164,105
165,7 177,2 178,110 179,44
180,2
##END=
