##TITLE=6-Methyl-1,5-heptadiene
##JCAMP-DX=4.24
##DATA TYPE=MASS SPECTRUM
##ORIGIN=NIST Mass Spectrometry Data Center, 1990.
##OWNER=NIST Mass Spectrometry Data Center
Collection (C) 2014 copyright by the U.S. Secretary of Commerce
on behalf of the United States of America. All rights reserved.
##CAS REGISTRY NO=7270-50-0
##$NIST MASS SPEC NO=113090
##MOLFORM=C8 H14
##MW=110
##$NIST SOURCE=MSDC
##XUNITS=M/Z
##YUNITS=RELATIVE INTENSITY
##XFACTOR=1
##YFACTOR=1
##FIRSTX=15
##LASTX=110
##FIRSTY=152
##MAXX=110
##MINX=15
##MAXY=9999
##MINY=10
##NPOINTS=33
##PEAK TABLE=(XY..XY)
15,152 26,179 27,1615 28,198
29,608 32,10 37,78 38,298
39,2872 40,10 41,9999 42,429
43,343 50,215 51,476 52,190
53,1053 54,328 55,443 56,147
63,158 65,326 66,1067 67,1958
68,734 69,8384 70,454 77,311
79,226 81,261 91,167 95,297
110,858
##END=
