##TITLE=2-Piperidinobenzonitrile
##JCAMP-DX=4.24
##DATA TYPE=MASS SPECTRUM
##ORIGIN=NIST Mass Spectrometry Data Center
##OWNER=NIST Mass Spectrometry Data Center
Collection (C) 2014 copyright by the U.S. Secretary of Commerce
on behalf of the United States of America. All rights reserved.
##CAS REGISTRY NO=72752-52-4
##$NIST MASS SPEC NO=342753
##MOLFORM=C12 H14 N2
##MW=186
##$NIST SOURCE=MSDC
##XUNITS=M/Z
##YUNITS=RELATIVE INTENSITY
##XFACTOR=1
##YFACTOR=1
##FIRSTX=15
##LASTX=188
##FIRSTY=150
##MAXX=188
##MINX=15
##MAXY=9999
##MINY=10
##NPOINTS=98
##PEAK TABLE=(XY..XY)
15,150 17,60 18,90 26,230
27,1651 28,1511 29,751 30,130
37,100 38,260 39,1852 40,330
41,1391 42,771 43,100 44,170
50,621 51,1251 52,460 53,330
54,260 55,701 56,150 57,190
58,20 61,30 62,160 63,330
64,320 65,250 66,50 67,130
68,50 70,40 72,30 73,40
74,120 75,1131 76,1531 77,1171
78,220 79,70 80,40 82,30
84,70 85,60 86,20 87,20
88,130 89,400 90,310 91,210
92,100 93,30 99,60 100,60
102,3033 103,4704 104,951 105,130
106,30 114,30 115,130 116,841
117,400 118,240 119,60 127,30
129,2492 130,3073 131,1221 132,180
140,20 141,40 142,140 143,440
144,971 145,2012 146,240 147,10
154,70 155,170 157,3493 158,1341
159,150 160,20 167,180 168,571
169,320 170,170 171,390 172,60
181,20 183,150 185,9999 186,5465
187,671 188,50
##END=
