##TITLE=1,3-Propanedione, 2-bromo-1,3-diphenyl-
##JCAMP-DX=4.24
##DATA TYPE=MASS SPECTRUM
##ORIGIN=RADIAN CORP
##OWNER=NIST Mass Spectrometry Data Center
Collection (C) 2014 copyright by the U.S. Secretary of Commerce
on behalf of the United States of America. All rights reserved.
##CAS REGISTRY NO=728-84-7
##$NIST MASS SPEC NO=71285
##MOLFORM=C15 H11 Br O2
##MW=302
##$NIST SOURCE=MSDC
##XUNITS=M/Z
##YUNITS=RELATIVE INTENSITY
##XFACTOR=1
##YFACTOR=1
##FIRSTX=14
##LASTX=259
##FIRSTY=60
##MAXX=259
##MINX=14
##MAXY=9999
##MINY=10
##NPOINTS=50
##PEAK TABLE=(XY..XY)
14,60 27,120 28,1620 29,10
32,310 38,10 39,280 40,130
41,50 50,570 51,1970 52,210
53,10 62,100 63,290 64,10
65,330 69,2870 70,120 73,40
74,190 75,260 76,410 77,5900
78,620 79,30 83,30 89,380
90,140 91,210 98,30 102,160
103,150 105,9999 106,830 118,60
125,40 147,1660 148,150 152,60
165,50 177,10 178,20 207,40
223,4140 224,2710 225,440 257,210
258,50 259,50
##END=
