##TITLE=Cyclohexyl ethylphosphonofluoridate
##JCAMP-DX=4.24
##DATA TYPE=MASS SPECTRUM
##ORIGIN=VERIFIN - Methodology B1-1979
##OWNER=NIST Mass Spectrometry Data Center
Collection (C) 2014 copyright by the U.S. Secretary of Commerce
on behalf of the United States of America. All rights reserved.
##CAS REGISTRY NO=7284-84-6
##$NIST MASS SPEC NO=226140
##MOLFORM=C8 H16 F O2 P
##MW=194
##$NIST SOURCE=MSDC
##XUNITS=M/Z
##YUNITS=RELATIVE INTENSITY
##XFACTOR=1
##YFACTOR=1
##FIRSTX=27
##LASTX=193
##FIRSTY=100
##MAXX=193
##MINX=27
##MAXY=9999
##MINY=10
##NPOINTS=27
##PEAK TABLE=(XY..XY)
27,100 28,60 29,200 39,300
41,700 42,80 43,80 53,200
54,900 55,500 67,1601 68,80
77,50 79,100 81,200 82,400
83,200 84,200 85,200 95,100
99,100 111,80 112,100 113,9999
114,200 151,100 193,10
##END=
