##TITLE=Monalide
##JCAMP-DX=4.24
##DATA TYPE=MASS SPECTRUM
##ORIGIN=J. SHAW, BORRISTON RESEARCH, ROCKVILLE, MD, USA
##OWNER=NIST Mass Spectrometry Data Center
Collection (C) 2014 copyright by the U.S. Secretary of Commerce
on behalf of the United States of America. All rights reserved.
##CAS REGISTRY NO=7287-36-7
##$NIST MASS SPEC NO=60216
##MOLFORM=C13 H18 Cl N O
##MW=239
##$NIST SOURCE=MSDC
##XUNITS=M/Z
##YUNITS=RELATIVE INTENSITY
##XFACTOR=1
##YFACTOR=1
##FIRSTX=14
##LASTX=242
##FIRSTY=20
##MAXX=242
##MINX=14
##MAXY=9999
##MINY=10
##NPOINTS=140
##PEAK TABLE=(XY..XY)
14,20 15,130 16,80 17,420
18,1451 27,1081 28,330 29,1101
30,30 31,10 32,30 35,10
36,40 37,30 38,110 39,800
40,190 41,2912 42,710 43,8278
44,350 45,40 49,20 50,110
51,110 52,70 53,160 54,50
55,660 56,260 57,2012 58,150
59,30 60,10 61,20 62,80
63,300 64,170 65,310 66,50
67,80 69,630 70,300 71,500
73,260 74,60 75,330 76,80
77,70 78,10 79,20 80,20
81,30 82,20 83,160 85,9999
86,890 87,40 88,10 89,40
90,180 91,180 92,200 93,90
94,10 95,20 96,10 97,60
99,650 100,130 101,150 102,40
103,10 104,10 105,40 106,10
109,20 111,270 112,50 113,330
114,20 115,10 116,10 117,10
118,20 119,30 120,20 121,10
123,10 125,120 126,510 127,3443
128,410 129,1081 130,90 131,10
132,20 133,10 137,10 138,10
139,10 140,20 141,10 142,10
145,10 146,10 147,10 149,50
153,160 154,140 155,60 156,40
160,10 161,20 162,10 163,10
164,10 166,30 168,180 169,20
170,50 171,10 175,10 182,30
183,40 185,30 197,1591 199,640
200,40 204,10 210,40 211,30
212,10 213,10 224,10 225,30
227,10 239,670 241,340 242,30
##END=
