##TITLE=Methyl nonyl ether
##JCAMP-DX=4.24
##DATA TYPE=MASS SPECTRUM
##ORIGIN=NIST Mass Spectrometry Data Center
##OWNER=NIST Mass Spectrometry Data Center
Collection (C) 2014 copyright by the U.S. Secretary of Commerce
on behalf of the United States of America. All rights reserved.
##CAS REGISTRY NO=7289-51-2
##$NIST MASS SPEC NO=333836
##MOLFORM=C10 H22 O
##MW=158
##$NIST SOURCE=MSDC
##XUNITS=M/Z
##YUNITS=RELATIVE INTENSITY
##XFACTOR=1
##YFACTOR=1
##FIRSTX=15
##LASTX=128
##FIRSTY=90
##MAXX=128
##MINX=15
##MAXY=9999
##MINY=10
##NPOINTS=64
##PEAK TABLE=(XY..XY)
15,90 26,40 27,711 28,220
29,1341 30,40 31,100 33,110
38,20 39,871 40,180 41,3413
42,1361 43,2332 45,9999 46,230
47,100 50,20 51,50 52,30
53,320 54,430 55,3443 56,4914
57,1451 58,230 59,70 60,30
63,10 65,50 66,30 67,360
68,1321 69,2853 70,3653 71,731
72,40 73,10 77,30 78,10
79,40 80,10 81,90 82,1001
83,2192 84,1421 85,240 86,10
87,130 88,10 91,10 95,20
96,270 97,1742 98,2092 99,160
100,10 101,20 111,70 112,10
115,40 126,1651 127,170 128,10
##END=
