##TITLE=Methyl tridecyl ether
##JCAMP-DX=4.24
##DATA TYPE=MASS SPECTRUM
##ORIGIN=J. Klune, Insect Chem. Ecol. Lab., USDA, Beltsville, MD 20705
##OWNER=NIST Mass Spectrometry Data Center
Collection (C) 2014 copyright by the U.S. Secretary of Commerce
on behalf of the United States of America. All rights reserved.
##CAS REGISTRY NO=7289-55-6
##$NIST MASS SPEC NO=130759
##MOLFORM=C14 H30 O
##MW=214
##$NIST SOURCE=MSDC
##XUNITS=M/Z
##YUNITS=RELATIVE INTENSITY
##XFACTOR=1
##YFACTOR=1
##FIRSTX=41
##LASTX=216
##FIRSTY=4877
##MAXX=216
##MINX=41
##MAXY=9999
##MINY=4
##NPOINTS=126
##PEAK TABLE=(XY..XY)
41,4877 42,1556 43,5138 45,9999
46,254 47,127 51,27 52,21
53,306 54,647 55,4897 56,4426
57,4641 58,403 59,131 60,75
61,29 65,56 66,96 67,953
68,3597 69,5353 70,4385 71,2167
72,255 73,68 74,20 75,14
77,51 78,6 79,78 80,38
81,495 82,4437 83,5997 84,2876
85,1149 86,81 87,327 88,299
89,19 91,26 93,24 94,22
95,225 96,1261 97,4119 98,1704
99,283 100,29 101,114 102,12
103,5 105,16 107,19 108,13
109,99 110,500 111,2341 112,1058
113,196 114,20 115,23 119,6
121,15 122,13 123,50 124,217
125,1127 126,629 127,108 128,13
129,24 130,4 133,4 135,15
136,11 137,36 138,101 139,254
140,205 141,51 142,5 143,18
145,10 147,5 149,18 150,9
151,26 152,62 153,120 154,1036
155,137 156,7 157,18 161,7
163,27 164,8 165,18 166,16
167,21 168,33 169,12 171,87
172,12 177,13 178,18 179,16
180,53 181,24 182,2988 183,486
184,38 185,18 193,13 194,11
195,10 196,141 197,76 198,12
199,12 212,4 213,81 214,128
215,32 216,5
##END=
