##TITLE=Estra-1,3,5(10),6-tetraene-3,17-diol, (17.beta.)-
##JCAMP-DX=4.24
##DATA TYPE=MASS SPECTRUM
##OWNER=NIST Mass Spectrometry Data Center
Collection (C) 2014 copyright by the U.S. Secretary of Commerce
on behalf of the United States of America. All rights reserved.
##CAS REGISTRY NO=7291-41-0
##$NIST MASS SPEC NO=13076
##MOLFORM=C18 H22 O2
##MW=270
##$NIST SOURCE=MSDC
##XUNITS=M/Z
##YUNITS=RELATIVE INTENSITY
##XFACTOR=1
##YFACTOR=1
##FIRSTX=65
##LASTX=271
##FIRSTY=250
##MAXX=271
##MINX=65
##MAXY=9999
##MINY=50
##NPOINTS=137
##PEAK TABLE=(XY..XY)
65,250 66,70 67,600 68,100
69,250 71,120 75,60 76,140
77,780 78,170 79,420 80,100
81,550 82,80 83,250 85,70
89,240 91,470 92,100 93,450
94,110 95,660 97,380 98,90
101,80 102,110 103,260 105,390
106,180 107,640 108,180 109,80
110,380 111,200 114,60 115,1380
116,320 117,240 118,60 119,80
120,390 121,210 122,170 123,390
124,90 126,60 127,820 128,1150
129,510 130,100 131,930 132,510
133,520 134,80 135,70 137,90
139,230 140,80 141,560 142,140
143,140 144,5029 145,3380 146,1670
147,990 148,170 149,260 150,60
151,110 152,460 153,460 154,130
155,210 156,130 157,6999 158,6499
159,1990 160,1360 161,310 165,620
166,180 167,230 168,200 169,550
170,3120 171,1720 172,820 173,790
174,170 175,70 177,100 178,170
179,190 180,60 181,600 182,430
183,800 184,860 185,430 186,550
187,70 191,60 193,80 194,230
195,600 196,410 197,700 198,400
199,670 200,160 207,70 208,110
209,640 210,310 211,1960 212,500
213,790 214,160 223,440 224,810
225,330 226,760 227,110 235,50
237,1180 239,50 241,120 242,80
251,240 252,350 253,120 255,190
256,50 268,140 269,220 270,9999
271,1500
##END=
