##TITLE=Pyridine-D5-
##JCAMP-DX=4.24
##DATA TYPE=MASS SPECTRUM
##ORIGIN=Japan AIST/NIMC Database- Spectrum MS-NW-4843
##OWNER=NIST Mass Spectrometry Data Center
Collection (C) 2014 copyright by the U.S. Secretary of Commerce
on behalf of the United States of America. All rights reserved.
##CAS REGISTRY NO=7291-22-7
##$NIST MASS SPEC NO=231174
##MOLFORM=C5 D5 N
##MW=84
##$NIST SOURCE=MSDC
##XUNITS=M/Z
##YUNITS=RELATIVE INTENSITY
##XFACTOR=1
##YFACTOR=1
##FIRSTX=12
##LASTX=86
##FIRSTY=10
##MAXX=86
##MINX=12
##MAXY=9999
##MINY=10
##NPOINTS=35
##PEAK TABLE=(XY..XY)
12,10 14,20 24,10 26,70
28,589 29,10 30,229 36,30
38,199 40,229 42,629 43,10
44,10 48,20 50,229 51,10
52,1229 53,30 54,1979 55,70
56,5299 57,200 58,10 62,10
64,10 66,30 74,10 76,50
78,50 80,20 82,779 83,50
84,9999 85,590 86,20
##END=
