##TITLE=3,4,4-Trimethyl-3-pentanol
##JCAMP-DX=4.24
##DATA TYPE=MASS SPECTRUM
##ORIGIN=NIST Mass Spectrometry Data Center
##OWNER=NIST Mass Spectrometry Data Center
Collection (C) 2014 copyright by the U.S. Secretary of Commerce
on behalf of the United States of America. All rights reserved.
##CAS REGISTRY NO=7294-05-5
##$NIST MASS SPEC NO=340477
##MOLFORM=C8 H18 O
##MW=130
##$NIST SOURCE=MSDC
##XUNITS=M/Z
##YUNITS=RELATIVE INTENSITY
##XFACTOR=1
##YFACTOR=1
##FIRSTX=15
##LASTX=116
##FIRSTY=100
##MAXX=116
##MINX=15
##MAXY=9999
##MINY=10
##NPOINTS=57
##PEAK TABLE=(XY..XY)
15,100 19,20 26,40 27,671
29,1151 30,30 31,350 37,10
38,30 39,851 40,110 41,2052
42,210 43,2993 44,120 45,1061
46,20 50,30 51,80 52,20
53,260 54,40 55,5515 56,370
57,1792 58,140 59,2973 60,100
63,10 65,50 66,10 67,130
68,10 69,210 70,20 71,1101
72,490 73,9999 74,480 75,30
77,20 79,40 81,40 83,2362
84,210 85,160 86,100 97,280
98,20 99,30 101,4244 102,280
103,10 112,10 113,10 115,761
116,60
##END=
