##TITLE=p-Bromophenyl heptyl ketone
##JCAMP-DX=4.24
##DATA TYPE=MASS SPECTRUM
##ORIGIN=NIST Mass Spectrometry Data Center, 1994
##OWNER=NIST Mass Spectrometry Data Center
Collection (C) 2014 copyright by the U.S. Secretary of Commerce
on behalf of the United States of America. All rights reserved.
##CAS REGISTRY NO=7295-48-9
##$NIST MASS SPEC NO=135570
##MOLFORM=C14 H19 Br O
##MW=282
##$NIST SOURCE=MSDC
##XUNITS=M/Z
##YUNITS=RELATIVE INTENSITY
##XFACTOR=1
##YFACTOR=1
##FIRSTX=12
##LASTX=285
##FIRSTY=33
##MAXX=285
##MINX=12
##MAXY=9999
##MINY=18
##NPOINTS=101
##PEAK TABLE=(XY..XY)
12,33 14,18 15,202 17,39
18,18 26,215 27,3000 28,900
29,3538 30,77 32,34 38,186
39,1721 40,304 41,3837 42,817
43,1534 44,86 50,1893 51,598
52,147 53,367 54,86 55,1409
56,186 57,514 58,39 62,77
63,190 64,62 65,185 66,47
67,127 69,108 70,37 73,48
74,561 75,2300 76,3166 77,732
78,140 79,69 80,28 81,48
82,51 83,47 89,210 90,245
91,553 92,60 101,69 102,137
103,162 104,928 105,199 106,24
115,169 116,86 117,47 118,46
119,171 120,36 127,46 128,82
129,133 131,288 132,1262 133,196
141,38 143,26 145,60 146,54
155,3778 156,697 157,3469 158,439
159,36 160,33 169,96 171,106
180,25 183,9834 185,9999 186,745
187,104 198,9496 200,9406 201,840
202,60 203,545 204,88 211,531
213,495 214,70 225,27 228,22
241,28 282,147 283,23 284,146
285,21
##END=
