##TITLE=1-Pentanone, 1-(4-bromophenyl)-
##JCAMP-DX=4.24
##DATA TYPE=MASS SPECTRUM
##ORIGIN=J.E. WILKINSON S-CUBED, SAN DIEGO, CA.
##OWNER=NIST Mass Spectrometry Data Center
Collection (C) 2014 copyright by the U.S. Secretary of Commerce
on behalf of the United States of America. All rights reserved.
##CAS REGISTRY NO=7295-44-5
##$NIST MASS SPEC NO=92121
##MOLFORM=C11 H13 Br O
##MW=240
##$NIST SOURCE=MSDC
##XUNITS=M/Z
##YUNITS=RELATIVE INTENSITY
##XFACTOR=1
##YFACTOR=1
##FIRSTX=41
##LASTX=243
##FIRSTY=1333
##MAXX=243
##MINX=41
##MAXY=9999
##MINY=1
##NPOINTS=82
##PEAK TABLE=(XY..XY)
41,1333 42,201 43,196 50,2410
51,655 52,61 53,118 55,404
57,342 61,14 62,86 63,189
64,34 65,94 69,7 72,5
73,48 74,865 75,2636 76,3106
77,509 78,18 83,1 85,61
86,10 87,23 88,5 89,236
90,208 91,323 99,1 101,52
102,92 103,83 104,569 105,37
106,1 107,14 114,7 115,99
116,12 118,16 119,77 127,9
128,44 129,69 130,5 131,161
132,655 133,20 141,7 143,23
144,6 145,2 146,12 147,9
154,59 155,3415 156,393 157,3289
158,290 161,1278 162,137 163,1
169,64 171,54 183,9999 184,700
185,9520 186,657 198,6191 199,483
200,5852 201,438 211,154 212,19
213,134 214,5 240,86 241,27
242,84 243,17
##END=
