##TITLE=Pyrazine, 2-ethyl-3-(methylthio)-
##JCAMP-DX=4.24
##DATA TYPE=MASS SPECTRUM
##ORIGIN=Philip Morris R&D
##OWNER=NIST Mass Spectrometry Data Center
Collection (C) 2014 copyright by the U.S. Secretary of Commerce
on behalf of the United States of America. All rights reserved.
##CAS REGISTRY NO=72987-62-3
##$NIST MASS SPEC NO=109740
##MOLFORM=C7 H10 N2 S
##MW=154
##$NIST SOURCE=MSDC
##XUNITS=M/Z
##YUNITS=RELATIVE INTENSITY
##XFACTOR=1
##YFACTOR=1
##FIRSTX=35
##LASTX=157
##FIRSTY=12
##MAXX=157
##MINX=35
##MAXY=9999
##MINY=1
##NPOINTS=92
##PEAK TABLE=(XY..XY)
35,12 36,5 37,44 38,111
39,384 40,214 41,277 42,129
43,7 44,24 45,414 46,161
47,190 48,40 49,38 50,90
51,181 52,910 53,363 54,457
55,74 56,287 57,476 58,153
59,163 60,29 61,200 63,38
64,29 65,99 66,62 67,57
68,46 69,267 70,194 71,83
72,114 73,495 74,63 75,32
76,15 77,42 78,143 79,889
80,680 81,247 82,89 83,145
84,1032 85,181 86,62 87,12
92,26 93,340 94,284 95,480
96,53 97,41 98,148 99,78
100,16 105,935 106,633 107,1167
108,292 109,79 110,116 111,102
112,242 113,32 114,1 119,2267
120,888 121,4347 122,399 123,8
124,33 125,94 126,259 127,91
137,161 138,200 139,5080 140,336
141,239 142,7 152,3 153,246
154,9999 155,957 156,444 157,45
##END=
