##TITLE=2-Butenoic acid, butyl ester
##JCAMP-DX=4.24
##DATA TYPE=MASS SPECTRUM
##ORIGIN=Japan AIST/NIMC Database- Spectrum MS-NW-1088
##OWNER=NIST Mass Spectrometry Data Center
Collection (C) 2014 copyright by the U.S. Secretary of Commerce
on behalf of the United States of America. All rights reserved.
##CAS REGISTRY NO=7299-91-4
##$NIST MASS SPEC NO=233554
##MOLFORM=C8 H14 O2
##MW=142
##$NIST SOURCE=MSDC
##XUNITS=M/Z
##YUNITS=RELATIVE INTENSITY
##XFACTOR=1
##YFACTOR=1
##FIRSTX=14
##LASTX=142
##FIRSTY=10
##MAXX=142
##MINX=14
##MAXY=9999
##MINY=10
##NPOINTS=54
##PEAK TABLE=(XY..XY)
14,10 15,80 18,10 26,80
27,619 28,239 29,939 30,30
31,90 32,40 37,30 38,119
39,1609 40,309 41,3629 42,219
43,169 44,30 45,80 51,20
53,40 54,20 55,489 56,1809
57,319 58,10 67,10 68,189
69,9999 70,499 71,70 72,20
73,80 74,10 80,10 81,10
82,99 83,20 84,10 85,50
86,99 87,5769 88,269 89,20
96,10 97,20 99,149 100,30
101,40 109,20 113,60 114,10
127,149 142,10
##END=
