##TITLE=Cyclohexanol, 1-methyl-4-(1-methylethenyl)-, cis-
##JCAMP-DX=4.24
##DATA TYPE=MASS SPECTRUM
##ORIGIN=Mark Whitten, Florida Museum of Natural History, U. of Florida
##OWNER=NIST Mass Spectrometry Data Center
Collection (C) 2014 copyright by the U.S. Secretary of Commerce
on behalf of the United States of America. All rights reserved.
##CAS REGISTRY NO=7299-41-4
##$NIST MASS SPEC NO=140973
##MOLFORM=C10 H18 O
##MW=154
##$NIST SOURCE=MSDC
##XUNITS=M/Z
##YUNITS=RELATIVE INTENSITY
##XFACTOR=1
##YFACTOR=1
##FIRSTX=41
##LASTX=154
##FIRSTY=5000
##MAXX=154
##MINX=41
##MAXY=9999
##MINY=50
##NPOINTS=60
##PEAK TABLE=(XY..XY)
41,5000 43,9999 44,317 45,390
50,171 51,547 52,245 53,1362
55,3358 56,462 57,488 58,879
59,234 61,50 62,77 63,147
65,458 66,222 67,1427 68,632
69,2406 71,5349 72,369 77,875
78,194 79,1712 80,883 81,2304
82,358 83,1204 84,772 85,122
86,271 91,768 92,943 93,3163
94,994 95,636 96,549 97,685
98,135 105,256 106,73 107,549
108,205 109,235 110,196 111,1836
112,177 119,81 121,1411 122,145
123,75 125,241 126,115 136,713
137,122 139,1106 140,132 154,264
##END=
