##TITLE=2-Pentyn-4-one
##JCAMP-DX=4.24
##DATA TYPE=MASS SPECTRUM
##ORIGIN=A.Pleshkova, Nesmeyanov Inst.Org.Elem.Cpds, Moscow
##OWNER=NIST Mass Spectrometry Data Center
Collection (C) 2014 copyright by the U.S. Secretary of Commerce
on behalf of the United States of America. All rights reserved.
##CAS REGISTRY NO=7299-55-0
##$NIST MASS SPEC NO=283682
##MOLFORM=C5 H6 O
##MW=82
##$NIST SOURCE=MSDC
##XUNITS=M/Z
##YUNITS=RELATIVE INTENSITY
##XFACTOR=1
##YFACTOR=1
##FIRSTX=15
##LASTX=83
##FIRSTY=500
##MAXX=83
##MINX=15
##MAXY=9999
##MINY=30
##NPOINTS=20
##PEAK TABLE=(XY..XY)
15,500 26,200 27,400 28,200
37,400 38,500 39,2302 40,80
42,300 43,801 44,30 50,200
51,200 53,200 60,200 66,300
67,9999 68,400 82,1401 83,80
##END=
