##TITLE=L-Tryptophan
##JCAMP-DX=4.24
##DATA TYPE=MASS SPECTRUM
##ORIGIN=LAC, NIDDK, NIH, Bethesda, MD 20892
##OWNER=NIST Mass Spectrometry Data Center
Collection (C) 2014 copyright by the U.S. Secretary of Commerce
on behalf of the United States of America. All rights reserved.
##CAS REGISTRY NO=73-22-3
##$NIST MASS SPEC NO=127959
##MOLFORM=C11 H12 N2 O2
##MW=204
##$NIST SOURCE=MSDC
##XUNITS=M/Z
##YUNITS=RELATIVE INTENSITY
##XFACTOR=1
##YFACTOR=1
##FIRSTX=42
##LASTX=206
##FIRSTY=123
##MAXX=206
##MINX=42
##MAXY=9999
##MINY=4
##NPOINTS=106
##PEAK TABLE=(XY..XY)
42,123 43,78 44,201 45,91
46,51 48,5 50,72 51,161
52,75 53,31 54,22 55,44
56,34 57,43 58,11 59,17
60,23 61,30 62,39 63,104
64,63 65,89 66,20 67,22
68,15 69,25 70,20 71,27
73,33 74,100 75,91 76,108
77,598 78,114 79,249 81,16
82,5 83,16 84,23 85,54
86,37 87,88 88,78 89,329
90,183 91,105 92,17 93,19
94,8 95,21 96,6 97,115
98,42 99,47 100,41 101,142
102,528 103,900 104,124 105,30
106,45 107,12 109,5 110,5
111,26 112,33 113,38 114,43
115,190 116,79 117,394 118,67
119,7 120,4 124,15 127,8
128,245 129,345 130,9999 131,1159
132,198 133,23 140,33 141,25
142,68 143,61 144,24 146,20
147,4 149,5 155,33 156,31
157,68 158,175 159,238 160,37
163,15 166,4 170,10 184,22
185,8 188,30 189,9 204,586
205,74 206,5
##END=
