##TITLE=t-Butylpentafluorophenylmethylchlorosilane
##JCAMP-DX=4.24
##DATA TYPE=MASS SPECTRUM
##ORIGIN=NIST Mass Spectrometry Data Center, 1994
##OWNER=NIST Mass Spectrometry Data Center
Collection (C) 2014 copyright by the U.S. Secretary of Commerce
on behalf of the United States of America. All rights reserved.
##CAS REGISTRY NO=73000-03-0
##$NIST MASS SPEC NO=136186
##MOLFORM=C11 H12 Cl F5 Si
##MW=302
##$NIST SOURCE=MSDC
##XUNITS=M/Z
##YUNITS=RELATIVE INTENSITY
##XFACTOR=1
##YFACTOR=1
##FIRSTX=15
##LASTX=305
##FIRSTY=294
##MAXX=305
##MINX=15
##MAXY=9999
##MINY=13
##NPOINTS=147
##PEAK TABLE=(XY..XY)
15,294 18,26 26,40 27,629
28,163 29,2016 30,34 37,24
38,65 39,1160 40,215 41,3799
42,258 43,55 47,805 48,49
49,92 50,59 51,236 52,24
53,106 54,33 55,275 56,5234
57,9999 58,469 61,100 62,72
63,495 64,31 65,163 66,21
67,102 68,37 69,124 73,62
74,45 75,595 76,46 77,233
78,116 79,368 80,169 81,894
82,84 83,89 84,17 85,156
86,62 87,70 88,20 89,17
91,241 92,125 93,316 94,52
95,115 96,177 97,1322 98,264
99,736 100,52 101,223 102,38
103,74 104,50 105,204 106,116
107,63 109,61 110,249 111,177
112,39 113,46 114,28 115,90
116,24 117,122 118,17 119,123
120,19 121,38 123,119 125,549
126,110 127,68 128,35 129,439
130,71 131,19 133,37 135,195
137,88 138,13 139,47 140,13
141,310 142,39 143,319 144,91
145,338 146,55 147,108 148,92
149,19 150,15 151,47 152,18
156,14 157,33 158,29 159,130
160,23 161,63 163,60 164,37
165,35 168,23 169,36 170,14
175,30 176,43 179,460 180,147
181,182 182,58 183,45 185,21
195,40 196,23 199,41 201,20
209,110 210,50 211,13 219,52
221,21 225,42 227,13 245,214
246,45 247,90 287,15 302,366
303,75 304,148 305,22
##END=
