##TITLE=cis-10-Nonadecenoic acid
##JCAMP-DX=4.24
##DATA TYPE=MASS SPECTRUM
##ORIGIN=NIST Mass Spectrometry Data Center
##OWNER=NIST Mass Spectrometry Data Center
Collection (C) 2014 copyright by the U.S. Secretary of Commerce
on behalf of the United States of America. All rights reserved.
##CAS REGISTRY NO=73033-09-7
##$NIST MASS SPEC NO=333646
##MOLFORM=C19 H36 O2
##MW=296
##$NIST SOURCE=MSDC
##XUNITS=M/Z
##YUNITS=RELATIVE INTENSITY
##XFACTOR=1
##YFACTOR=1
##FIRSTX=15
##LASTX=298
##FIRSTY=10
##MAXX=298
##MINX=15
##MAXY=9999
##MINY=10
##NPOINTS=223
##PEAK TABLE=(XY..XY)
15,10 26,30 27,621 28,150
29,1471 30,40 31,70 37,10
38,10 39,951 40,190 41,5965
42,1041 43,4314 44,140 45,621
46,20 47,10 50,20 51,60
52,50 53,831 54,2222 55,9999
56,2762 57,3173 58,190 59,320
60,1231 61,120 62,10 63,10
65,240 66,200 67,2993 68,1742
69,5745 70,2412 71,1241 72,80
73,1171 74,110 75,30 77,260
78,90 79,821 80,380 81,2352
82,1952 83,5155 84,2752 85,891
86,90 87,460 88,50 89,10
91,290 93,380 94,370 95,1782
96,2402 97,4554 98,2312 99,440
100,370 101,581 102,80 103,20
104,10 105,150 106,60 107,280
108,290 109,981 110,1371 111,2162
112,891 113,360 114,711 115,360
116,100 117,50 118,30 119,280
120,100 121,340 122,190 123,941
124,861 125,1041 126,430 127,571
128,290 129,310 130,60 131,30
132,10 133,260 134,230 135,280
136,150 137,611 138,571 139,480
140,230 141,130 142,40 143,100
144,30 145,10 147,200 148,200
149,200 150,100 151,430 152,390
153,270 154,140 155,100 156,30
157,60 158,20 159,10 161,160
162,80 163,120 164,70 165,300
166,200 167,140 168,80 169,80
170,20 171,50 172,20 173,10
175,110 176,40 177,50 178,50
179,220 180,180 181,100 182,50
183,70 184,20 185,40 186,20
187,10 189,60 190,20 191,30
192,30 193,160 194,270 195,90
196,30 197,50 198,20 199,20
200,40 201,10 203,40 204,10
205,20 206,30 207,140 208,120
209,50 210,20 211,20 212,10
213,30 214,20 215,10 217,20
218,10 219,10 220,20 221,170
222,120 223,40 224,20 225,10
227,20 228,20 231,10 232,10
234,220 235,220 236,280 237,60
238,10 239,10 240,10 241,10
247,10 248,10 249,150 250,80
251,10 253,20 254,10 255,10
260,60 261,20 263,30 264,40
265,10 267,10 268,10 269,10
274,10 278,961 279,210 280,30
282,10 292,40 293,10 294,10
296,140 297,30 298,10
##END=
