##TITLE=Thiazole, 2-amino-5-methyl-
##JCAMP-DX=4.24
##DATA TYPE=MASS SPECTRUM
##ORIGIN=Japan AIST/NIMC Database- Spectrum MS-IW-4861
##OWNER=NIST Mass Spectrometry Data Center
Collection (C) 2014 copyright by the U.S. Secretary of Commerce
on behalf of the United States of America. All rights reserved.
##CAS REGISTRY NO=7305-71-7
##$NIST MASS SPEC NO=237337
##MOLFORM=C4 H6 N2 S
##MW=114
##$NIST SOURCE=MSDC
##XUNITS=M/Z
##YUNITS=RELATIVE INTENSITY
##XFACTOR=1
##YFACTOR=1
##FIRSTX=15
##LASTX=117
##FIRSTY=20
##MAXX=117
##MINX=15
##MAXY=9999
##MINY=10
##NPOINTS=68
##PEAK TABLE=(XY..XY)
15,20 25,10 26,90 27,199
28,649 29,50 30,30 32,20
33,40 34,20 37,60 38,139
39,799 40,60 41,40 42,159
43,489 44,99 45,659 46,109
47,60 48,10 49,30 50,10
51,80 52,159 53,149 54,539
55,309 56,139 57,359 58,339
59,859 60,1399 61,1279 62,90
63,60 64,10 67,10 68,20
69,349 70,129 71,4149 72,3769
73,349 74,199 75,10 76,30
77,20 79,20 81,1449 82,90
83,20 85,20 86,1029 87,289
88,50 89,10 91,30 92,10
97,10 98,30 99,40 113,1779
114,9999 115,739 116,489 117,30
##END=
