##TITLE=1-Methyl-1-phenylcyclobutane
##JCAMP-DX=4.24
##DATA TYPE=MASS SPECTRUM
##ORIGIN=V.G.Zaikin, TIPS, Russian Acad. Sci.
##OWNER=NIST Mass Spectrometry Data Center
Collection (C) 2014 copyright by the U.S. Secretary of Commerce
on behalf of the United States of America. All rights reserved.
##CAS REGISTRY NO=7306-05-0
##$NIST MASS SPEC NO=214901
##MOLFORM=C11 H14
##MW=146
##$NIST SOURCE=MSDC
##XUNITS=M/Z
##YUNITS=RELATIVE INTENSITY
##XFACTOR=1
##YFACTOR=1
##FIRSTX=51
##LASTX=148
##FIRSTY=1000
##MAXX=148
##MINX=51
##MAXY=9999
##MINY=10
##NPOINTS=24
##PEAK TABLE=(XY..XY)
51,1000 52,110 63,350 64,120
65,400 77,1401 78,1501 79,100
91,1301 92,100 102,200 103,1901
104,300 105,100 115,800 116,500
117,3202 118,9999 119,1101 131,1401
132,100 146,1401 147,170 148,10
##END=
