##TITLE=Methyl pentadecyl ether
##JCAMP-DX=4.24
##DATA TYPE=MASS SPECTRUM
##ORIGIN=J. Klune, Insect Chem. Ecol. Lab., USDA, Beltsville, MD 20705
##OWNER=NIST Mass Spectrometry Data Center
Collection (C) 2014 copyright by the U.S. Secretary of Commerce
on behalf of the United States of America. All rights reserved.
##CAS REGISTRY NO=7307-52-0
##$NIST MASS SPEC NO=130854
##MOLFORM=C16 H34 O
##MW=242
##$NIST SOURCE=MSDC
##XUNITS=M/Z
##YUNITS=RELATIVE INTENSITY
##XFACTOR=1
##YFACTOR=1
##FIRSTX=41
##LASTX=244
##FIRSTY=6202
##MAXX=244
##MINX=41
##MAXY=9999
##MINY=5
##NPOINTS=110
##PEAK TABLE=(XY..XY)
41,6202 42,1562 43,6574 45,9999
46,186 47,76 49,22 50,6
51,42 53,497 55,5729 56,2213
57,4027 58,314 59,127 60,71
61,59 65,81 67,959 68,1844
69,3297 70,1743 71,1780 72,100
73,56 74,100 75,18 77,63
79,117 81,162 82,2463 83,2993
84,1120 85,899 86,76 87,151
88,12 91,48 93,45 95,193
96,579 97,1922 98,606 99,191
100,12 101,31 105,20 107,62
109,116 110,231 111,961 112,385
113,115 114,9 115,16 119,7
121,19 122,5 123,40 124,129
125,467 126,260 127,85 128,7
129,9 135,834 136,16 137,829
138,107 139,165 140,165 141,72
142,7 143,12 148,9 149,156
150,21 151,151 152,47 153,75
154,115 155,37 157,8 163,24
164,6 165,27 166,21 167,35
168,42 169,12 177,10 179,10
180,16 181,22 182,242 183,37
191,5 196,8 199,35 208,8
209,6 210,769 211,143 212,10
213,14 225,6 241,32 242,55
243,33 244,6
##END=
