##TITLE=2,4-Hexanedione, 5,5-dimethyl-
##JCAMP-DX=4.24
##DATA TYPE=MASS SPECTRUM
##ORIGIN=NIST Mass Spectrometry Data Center
##OWNER=NIST Mass Spectrometry Data Center
Collection (C) 2014 copyright by the U.S. Secretary of Commerce
on behalf of the United States of America. All rights reserved.
##CAS REGISTRY NO=7307-04-2
##$NIST MASS SPEC NO=342814
##MOLFORM=C8 H14 O2
##MW=142
##$NIST SOURCE=MSDC
##XUNITS=M/Z
##YUNITS=RELATIVE INTENSITY
##XFACTOR=1
##YFACTOR=1
##FIRSTX=14
##LASTX=143
##FIRSTY=120
##MAXX=143
##MINX=14
##MAXY=9999
##MINY=10
##NPOINTS=61
##PEAK TABLE=(XY..XY)
14,120 15,540 16,20 17,10
18,30 19,10 26,130 27,901
28,500 29,1591 30,40 31,360
32,80 37,30 38,140 39,1341
41,2622 42,581 43,4944 44,110
45,80 50,50 51,100 52,30
53,180 55,340 56,220 57,2222
58,751 59,220 60,10 62,10
63,10 65,40 66,30 67,70
69,360 70,30 71,100 72,10
74,10 77,20 79,70 81,90
82,10 83,60 85,9999 86,480
87,110 97,50 99,180 100,10
109,40 111,30 112,10 114,270
115,20 125,10 127,80 142,941
143,90
##END=
