##TITLE=2,4-Heptanedione
##JCAMP-DX=4.24
##DATA TYPE=MASS SPECTRUM
##ORIGIN=ORMSBG,9(1)6(1974); VANDEWALLE
##OWNER=NIST Mass Spectrometry Data Center
Collection (C) 2014 copyright by the U.S. Secretary of Commerce
on behalf of the United States of America. All rights reserved.
##CAS REGISTRY NO=7307-02-0
##$NIST MASS SPEC NO=44319
##MOLFORM=C7 H12 O2
##MW=128
##$NIST SOURCE=MSDC
##XUNITS=M/Z
##YUNITS=RELATIVE INTENSITY
##XFACTOR=1
##YFACTOR=1
##FIRSTX=39
##LASTX=128
##FIRSTY=600
##MAXX=128
##MINX=39
##MAXY=9999
##MINY=200
##NPOINTS=12
##PEAK TABLE=(XY..XY)
39,600 41,200 42,300 43,9600
55,400 58,700 63,200 71,3000
85,9999 100,1600 113,1500 128,2600
##END=
