##TITLE=Tolylfluanid
##JCAMP-DX=4.24
##DATA TYPE=MASS SPECTRUM
##ORIGIN=NIST Mass Spectrometry Data Center, 1995
##OWNER=NIST Mass Spectrometry Data Center
Collection (C) 2014 copyright by the U.S. Secretary of Commerce
on behalf of the United States of America. All rights reserved.
##CAS REGISTRY NO=731-27-1
##$NIST MASS SPEC NO=245275
##MOLFORM=C10 H13 Cl2 F N2 O2 S2
##MW=346
##$NIST SOURCE=MSDC
##XUNITS=M/Z
##YUNITS=RELATIVE INTENSITY
##XFACTOR=1
##YFACTOR=1
##FIRSTX=12
##LASTX=349
##FIRSTY=17
##MAXX=349
##MINX=12
##MAXY=9999
##MINY=7
##NPOINTS=148
##PEAK TABLE=(XY..XY)
12,17 15,596 26,68 27,393
28,31 29,36 30,49 31,115
35,47 36,49 37,38 38,102
39,697 40,82 41,252 42,1273
43,463 44,1457 45,440 46,48
47,38 48,81 49,23 50,235
51,659 52,560 53,195 54,62
55,16 57,17 58,35 59,27
60,29 61,24 62,76 63,728
64,265 65,1136 66,235 67,51
68,31 69,44 70,25 71,28
72,14 74,25 75,62 76,248
77,1036 78,904 79,758 80,64
81,51 82,26 83,36 84,59
85,30 88,29 89,160 90,128
91,989 92,1167 93,154 94,133
95,36 96,24 97,70 98,237
100,88 101,187 102,59 103,162
104,781 105,769 106,510 107,165
108,736 109,213 110,505 111,90
112,87 113,11 119,33 120,41
121,63 122,250 123,116 124,55
125,13 126,15 133,79 134,69
137,9999 138,1249 139,524 140,63
141,10 142,9 146,11 147,70
148,40 149,217 150,24 152,80
153,29 154,7 157,15 165,16
166,26 167,42 168,257 169,32
170,26 171,24 172,9 173,10
179,13 181,2862 182,347 183,164
184,38 186,16 202,46 203,218
204,36 205,61 206,7 213,360
214,226 215,46 216,14 238,4866
239,720 240,3544 241,481 242,709
243,95 244,22 267,49 269,25
282,25 284,28 286,11 344,9
346,892 347,150 348,756 349,96
##END=
