##TITLE=Propargyl ethyl sulfide
##JCAMP-DX=4.24
##DATA TYPE=MASS SPECTRUM
##ORIGIN=NIST Mass Spectrometry Data Center, 1994
##OWNER=NIST Mass Spectrometry Data Center
Collection (C) 2014 copyright by the U.S. Secretary of Commerce
on behalf of the United States of America. All rights reserved.
##CAS REGISTRY NO=7310-92-1
##$NIST MASS SPEC NO=136538
##MOLFORM=C5 H8 S
##MW=100
##$NIST SOURCE=MSDC
##XUNITS=M/Z
##YUNITS=RELATIVE INTENSITY
##XFACTOR=1
##YFACTOR=1
##FIRSTX=12
##LASTX=102
##FIRSTY=75
##MAXX=102
##MINX=12
##MAXY=9999
##MINY=57
##NPOINTS=57
##PEAK TABLE=(XY..XY)
12,75 13,109 14,188 15,160
18,99 24,57 25,206 26,1218
27,4435 28,705 29,1337 32,221
33,165 34,152 35,1262 36,126
37,1314 38,2213 39,6034 40,327
41,642 45,9999 46,1063 47,858
50,90 51,139 53,117 54,77
55,123 56,117 57,432 58,1283
59,2107 60,2833 61,1534 62,260
63,92 64,77 65,308 66,166
67,490 68,320 69,1711 70,1013
71,8373 72,6473 73,703 74,164
75,62 85,3626 86,202 87,190
97,75 99,717 100,6002 101,438
102,302
##END=
