##TITLE=Hexanedioic acid, 3-trimethylsiloxy-, bis(trimethylsilyl) ester
##JCAMP-DX=4.24
##DATA TYPE=MASS SPECTRUM
##ORIGIN=O A MAMER, MCGILL UNIVERSITY, MONTRE
##OWNER=NIST Mass Spectrometry Data Center
Collection (C) 2014 copyright by the U.S. Secretary of Commerce
on behalf of the United States of America. All rights reserved.
##CAS REGISTRY NO=73105-00-7
##$NIST MASS SPEC NO=79677
##MOLFORM=C15 H34 O5 Si3
##MW=378
##$NIST SOURCE=MSDC
##XUNITS=M/Z
##YUNITS=RELATIVE INTENSITY
##XFACTOR=1
##YFACTOR=1
##FIRSTX=14
##LASTX=378
##FIRSTY=56
##MAXX=378
##MINX=14
##MAXY=9999
##MINY=2
##NPOINTS=224
##PEAK TABLE=(XY..XY)
14,56 15,9 20,40 25,29
26,44 27,42 28,82 29,80
30,16 31,36 37,27 38,2
39,4 40,6 41,37 42,28
43,247 44,287 45,1159 46,77
47,321 48,14 49,12 52,17
53,133 54,67 55,608 56,93
58,169 59,426 60,74 61,234
62,29 63,7 65,2 66,64
68,24 69,4 72,379 73,9999
74,912 75,2634 76,179 77,119
78,13 81,382 82,49 83,310
84,19 85,389 86,59 87,42
88,54 89,33 90,7 92,2
98,2 99,111 100,15 101,306
102,44 103,47 104,24 106,8
108,10 109,842 110,52 111,12
112,6 113,61 114,15 115,336
116,211 117,739 119,102 122,14
127,56 128,28 129,1760 130,252
131,302 132,57 133,647 134,83
135,21 138,17 139,183 140,51
141,2 142,17 143,175 144,21
145,32 146,12 147,3489 148,535
149,873 150,119 151,41 152,29
153,2 154,10 155,113 156,22
157,315 158,63 159,91 160,29
161,24 162,21 163,56 164,25
167,3 168,17 169,16 170,17
171,126 172,13 173,26 174,28
175,51 176,24 177,7 178,4
180,18 182,18 183,102 184,27
185,9 186,19 187,4 188,35
189,516 190,116 191,182 192,36
196,14 198,10 199,212 200,49
201,9 202,24 203,669 204,235
205,113 206,24 212,14 213,41
214,19 215,18 216,29 217,204
218,363 219,93 220,53 223,9
224,15 225,14 227,19 228,14
229,39 230,36 231,447 232,98
233,667 234,133 235,17 237,21
241,14 242,15 243,24 244,39
245,87 246,46 247,1412 248,328
249,106 250,14 256,14 257,24
258,18 259,19 260,44 261,81
262,36 263,9 264,14 271,14
272,17 273,123 274,37 275,78
276,20 279,19 284,17 286,14
287,28 288,32 289,34 290,24
291,29 294,14 303,39 304,18
305,21 313,9 314,16 318,14
319,45 320,19 321,86 322,29
323,22 333,14 335,14 347,16
348,14 363,1780 364,533 365,284
366,74 367,20 377,16 378,14
##END=
