##TITLE=2-Pentyn-1-amine, N,N-diethyl-
##JCAMP-DX=4.24
##DATA TYPE=MASS SPECTRUM
##ORIGIN=NIST Mass Spectrometry Data Center
##OWNER=NIST Mass Spectrometry Data Center
Collection (C) 2014 copyright by the U.S. Secretary of Commerce
on behalf of the United States of America. All rights reserved.
##CAS REGISTRY NO=73117-10-9
##$NIST MASS SPEC NO=342854
##MOLFORM=C9 H17 N
##MW=139
##$NIST SOURCE=MSDC
##XUNITS=M/Z
##YUNITS=RELATIVE INTENSITY
##XFACTOR=1
##YFACTOR=1
##FIRSTX=11
##LASTX=140
##FIRSTY=30
##MAXX=140
##MINX=11
##MAXY=9999
##MINY=10
##NPOINTS=77
##PEAK TABLE=(XY..XY)
11,30 12,10 14,190 15,591
16,60 17,50 18,370 26,350
27,2622 28,3733 29,2422 30,1581
31,60 32,300 37,70 38,240
39,2282 40,581 41,5025 42,2142
43,250 44,651 45,30 49,30
50,260 51,591 52,360 53,561
54,440 55,520 56,4514 57,370
58,4504 59,200 61,20 62,80
63,230 65,2042 66,380 67,3543
68,500 69,80 70,290 71,70
72,340 73,20 74,10 76,20
77,90 78,50 79,90 80,290
81,170 82,240 84,781 85,70
86,460 87,30 91,30 92,30
93,60 94,260 95,120 96,140
97,10 106,20 108,250 109,80
110,140 122,100 124,9999 125,981
126,40 136,20 138,520 139,1371
140,130
##END=
