##TITLE=2,4-Dimethoxybenzyl alcohol
##JCAMP-DX=4.24
##DATA TYPE=MASS SPECTRUM
##ORIGIN=Japan AIST/NIMC Database- Spectrum MS-NW-7380
##OWNER=NIST Mass Spectrometry Data Center
Collection (C) 2014 copyright by the U.S. Secretary of Commerce
on behalf of the United States of America. All rights reserved.
##CAS REGISTRY NO=7314-44-5
##$NIST MASS SPEC NO=235138
##MOLFORM=C9 H12 O3
##MW=168
##$NIST SOURCE=MSDC
##XUNITS=M/Z
##YUNITS=RELATIVE INTENSITY
##XFACTOR=1
##YFACTOR=1
##FIRSTX=15
##LASTX=170
##FIRSTY=139
##MAXX=170
##MINX=15
##MAXY=9999
##MINY=10
##NPOINTS=111
##PEAK TABLE=(XY..XY)
15,139 17,10 18,30 26,30
27,169 28,50 29,199 30,30
31,159 37,60 38,179 39,819
40,119 41,269 42,50 43,129
45,50 47,10 49,30 50,359
51,719 52,319 53,369 54,70
55,249 56,20 57,50 59,109
60,10 61,70 62,229 63,679
64,459 65,1219 66,329 67,129
68,99 69,399 70,20 71,30
73,30 74,159 75,129 76,189
77,1409 78,579 79,509 80,99
81,249 82,159 83,40 84,20
85,30 86,20 87,20 89,80
90,70 91,849 92,639 93,419
94,419 95,229 96,189 97,90
98,10 103,20 104,30 105,209
106,269 107,919 108,599 109,699
110,329 111,70 112,10 113,10
115,10 116,10 117,10 118,20
119,219 120,139 121,2989 122,479
123,109 124,719 125,619 126,60
133,10 134,50 135,1839 136,839
137,3269 138,409 139,2369 140,569
141,50 148,30 149,429 150,219
151,5889 152,1119 153,1219 154,129
155,10 165,429 166,80 167,6149
168,9999 169,1009 170,99
##END=
