##TITLE=2-Methyl-1-phenyl-1-pentanol
##JCAMP-DX=4.24
##DATA TYPE=MASS SPECTRUM
##ORIGIN=NIST Mass Spectrometry Data Center, 1990.
##OWNER=NIST Mass Spectrometry Data Center
Collection (C) 2014 copyright by the U.S. Secretary of Commerce
on behalf of the United States of America. All rights reserved.
##CAS REGISTRY NO=73177-67-0
##$NIST MASS SPEC NO=114758
##MOLFORM=C12 H18 O
##MW=178
##$NIST SOURCE=MSDC
##XUNITS=M/Z
##YUNITS=RELATIVE INTENSITY
##XFACTOR=1
##YFACTOR=1
##FIRSTX=14
##LASTX=178
##FIRSTY=35
##MAXX=178
##MINX=14
##MAXY=9999
##MINY=35
##NPOINTS=57
##PEAK TABLE=(XY..XY)
14,35 27,518 29,471 38,68
39,801 40,166 41,931 42,127
43,568 50,289 51,923 52,270
53,414 54,68 55,301 57,102
62,142 63,409 64,123 65,725
66,75 67,281 68,178 69,983
70,97 71,85 74,114 75,138
77,2775 78,715 79,4508 80,302
82,168 89,313 91,3018 92,356
102,156 103,303 104,359 105,931
106,156 107,9999 108,780 115,1400
116,763 117,1408 118,511 127,189
128,459 129,690 130,189 131,3580
132,381 145,292 160,1730 161,232
178,378
##END=
