##TITLE=1,4-Hexadiene, (Z)-
##JCAMP-DX=4.24
##DATA TYPE=MASS SPECTRUM
##ORIGIN=NIST Mass Spectrometry Data Center, 1990.
##OWNER=NIST Mass Spectrometry Data Center
Collection (C) 2014 copyright by the U.S. Secretary of Commerce
on behalf of the United States of America. All rights reserved.
##CAS REGISTRY NO=7318-67-4
##$NIST MASS SPEC NO=113645
##MOLFORM=C6 H10
##MW=82
##$NIST SOURCE=MSDC
##XUNITS=M/Z
##YUNITS=RELATIVE INTENSITY
##XFACTOR=1
##YFACTOR=1
##FIRSTX=14
##LASTX=83
##FIRSTY=165
##MAXX=83
##MINX=14
##MAXY=9999
##MINY=122
##NPOINTS=35
##PEAK TABLE=(XY..XY)
14,165 15,339 26,543 27,2273
28,1644 29,592 31,136 37,238
38,669 39,4349 40,751 41,3977
42,521 43,893 49,140 50,725
51,956 52,396 53,1676 54,1708
55,727 59,318 62,136 63,235
65,1639 67,9999 68,568 71,956
77,472 78,122 79,988 80,197
81,966 82,2982 83,207
##END=
