##TITLE=trans-1,4-Hexadiene
##JCAMP-DX=4.24
##DATA TYPE=MASS SPECTRUM
##ORIGIN=NIST Mass Spectrometry Data Center, 1990.
##OWNER=NIST Mass Spectrometry Data Center
Collection (C) 2014 copyright by the U.S. Secretary of Commerce
on behalf of the United States of America. All rights reserved.
##CAS REGISTRY NO=7319-00-8
##$NIST MASS SPEC NO=113648
##MOLFORM=C6 H10
##MW=82
##$NIST SOURCE=MSDC
##XUNITS=M/Z
##YUNITS=RELATIVE INTENSITY
##XFACTOR=1
##YFACTOR=1
##FIRSTX=14
##LASTX=83
##FIRSTY=168
##MAXX=83
##MINX=14
##MAXY=9999
##MINY=120
##NPOINTS=32
##PEAK TABLE=(XY..XY)
14,168 15,248 26,559 27,2336
28,1516 29,578 37,260 38,652
39,4629 40,734 41,3977 42,562
49,149 50,760 51,1010 52,457
53,1799 54,1756 55,853 56,132
62,121 63,221 65,1605 67,9999
68,564 74,120 77,497 79,1052
80,169 81,908 82,3325 83,247
##END=
