##TITLE=3-Hexene-2,5-diol
##JCAMP-DX=4.24
##DATA TYPE=MASS SPECTRUM
##ORIGIN=W. KELLY UNILEVER RESEARCH COLWORTH/WELWYN, BEDFORD U.K.
##OWNER=NIST Mass Spectrometry Data Center
Collection (C) 2014 copyright by the U.S. Secretary of Commerce
on behalf of the United States of America. All rights reserved.
##CAS REGISTRY NO=7319-23-5
##$NIST MASS SPEC NO=1935
##MOLFORM=C6 H12 O2
##MW=116
##$NIST SOURCE=MSDC
##XUNITS=M/Z
##YUNITS=RELATIVE INTENSITY
##XFACTOR=1
##YFACTOR=1
##FIRSTX=38
##LASTX=101
##FIRSTY=100
##MAXX=101
##MINX=38
##MAXY=9999
##MINY=30
##NPOINTS=37
##PEAK TABLE=(XY..XY)
38,100 39,1350 40,220 41,1100
42,250 43,9999 44,440 45,1500
50,150 51,200 52,50 53,700
54,350 55,2800 56,600 57,450
58,200 59,150 61,420 65,50
67,270 69,370 70,100 71,800
72,200 79,150 81,140 82,130
83,2550 84,150 85,70 95,40
96,60 97,50 98,1100 99,30
101,90
##END=
