##TITLE=Phenol, 2,4,6-tri-tert-butyl-
##JCAMP-DX=4.24
##DATA TYPE=MASS SPECTRUM
##ORIGIN=Japan AIST/NIMC Database- Spectrum MS-NW-5876
##OWNER=NIST Mass Spectrometry Data Center
Collection (C) 2014 copyright by the U.S. Secretary of Commerce
on behalf of the United States of America. All rights reserved.
##CAS REGISTRY NO=732-26-3
##$NIST MASS SPEC NO=233193
##MOLFORM=C18 H30 O
##MW=262
##$NIST SOURCE=MSDC
##XUNITS=M/Z
##YUNITS=RELATIVE INTENSITY
##XFACTOR=1
##YFACTOR=1
##FIRSTX=15
##LASTX=264
##FIRSTY=20
##MAXX=264
##MINX=15
##MAXY=9999
##MINY=10
##NPOINTS=162
##PEAK TABLE=(XY..XY)
15,20 18,10 27,90 28,10
29,609 30,10 39,149 40,20
41,959 42,40 43,129 44,10
50,10 51,70 52,20 53,90
54,10 55,239 56,40 57,3019
58,139 59,10 62,10 63,40
64,60 65,109 66,30 67,70
69,60 70,20 71,50 72,30
73,50 74,20 75,10 76,20
77,149 78,50 79,119 80,479
81,40 82,10 83,20 84,10
85,20 86,60 87,60 88,40
89,20 90,10 91,199 92,30
93,60 94,299 95,30 100,10
101,10 102,249 103,40 104,10
105,109 106,20 107,60 108,129
109,20 115,119 116,269 117,90
118,20 119,80 120,10 121,40
123,10 127,30 128,90 129,109
130,50 131,129 132,20 133,70
134,20 135,50 136,10 139,10
141,70 142,60 143,80 144,30
145,80 146,30 147,80 148,20
149,30 150,10 152,20 153,30
154,10 155,30 156,30 157,50
158,30 159,40 160,20 161,50
162,10 163,40 165,20 167,10
168,10 169,20 170,10 171,40
172,20 173,70 174,20 175,60
176,10 177,30 183,10 184,20
185,20 186,10 187,119 188,30
189,60 190,20 191,169 192,30
199,20 200,10 201,40 202,10
203,40 204,10 205,99 206,40
207,10 215,30 216,10 217,90
218,20 219,99 220,20 222,10
229,30 230,10 231,329 232,70
233,30 234,10 235,10 237,10
245,40 246,20 247,9999 248,1909
249,209 250,10 261,30 262,2079
263,449 264,50
##END=
