##TITLE=Dibenzofuran, 4-methyl-
##JCAMP-DX=4.24
##DATA TYPE=MASS SPECTRUM
##ORIGIN=MC-102
##OWNER=NIST Mass Spectrometry Data Center
Collection (C) 2014 copyright by the U.S. Secretary of Commerce
on behalf of the United States of America. All rights reserved.
##CAS REGISTRY NO=7320-53-8
##$NIST MASS SPEC NO=30279
##MOLFORM=C13 H10 O
##MW=182
##$NIST SOURCE=MSDC
##XUNITS=M/Z
##YUNITS=RELATIVE INTENSITY
##XFACTOR=1
##YFACTOR=1
##FIRSTX=28
##LASTX=186
##FIRSTY=55
##MAXX=186
##MINX=28
##MAXY=9999
##MINY=1
##NPOINTS=142
##PEAK TABLE=(XY..XY)
28,55 29,57 31,4 36,7
37,121 38,300 39,743 40,47
41,31 42,10 43,16 44,7
45,2 46,2 48,5 49,51
50,496 51,701 52,175 53,142
54,14 55,45 56,17 57,8
58,4 59,3 60,11 61,142
62,387 63,862 64,392 65,90
66,21 67,22 68,10 69,14
70,8 71,4 72,6 73,52
74,459 75,577 76,1228 77,377
78,99 79,14 80,5 81,7
82,20 83,5 84,11 85,71
86,212 87,287 88,104 89,166
90,152 91,963 92,15 96,2
97,23 98,158 99,114 100,57
101,157 102,153 103,39 104,11
105,24 106,6 107,3 108,4
109,20 110,50 111,52 112,21
113,21 114,53 115,125 116,15
117,2 118,4 119,1 120,3
121,6 122,25 123,14 124,13
125,76 126,320 127,437 128,153
129,55 130,35 131,45 132,20
133,14 134,13 135,9 136,10
137,38 138,39 139,151 140,22
141,5 142,15 143,5 144,3
145,3 146,5 147,7 148,18
149,67 150,262 151,577 152,1595
153,581 154,129 155,112 156,15
162,2 163,9 164,18 165,23
166,10 167,4 168,5 169,5
173,2 174,3 175,6 176,8
177,10 178,16 179,99 180,866
181,7884 182,9999 183,1400 184,120
185,92 186,5
##END=
