##TITLE=7-Methyl-3-methylene-7-octen-1-ol, propanoate (ester)
##JCAMP-DX=4.24
##DATA TYPE=MASS SPECTRUM
##ORIGIN=A.Swigar, R.Silverstein, Monoterpenes,1981
##OWNER=NIST Mass Spectrometry Data Center
Collection (C) 2014 copyright by the U.S. Secretary of Commerce
on behalf of the United States of America. All rights reserved.
##CAS REGISTRY NO=73214-63-8
##$NIST MASS SPEC NO=292844
##MOLFORM=C13 H22 O2
##MW=210
##$NIST SOURCE=MSDC
##XUNITS=M/Z
##YUNITS=RELATIVE INTENSITY
##XFACTOR=1
##YFACTOR=1
##FIRSTX=39
##LASTX=136
##FIRSTY=2172
##MAXX=136
##MINX=39
##MAXY=9999
##MINY=240
##NPOINTS=33
##PEAK TABLE=(XY..XY)
39,2172 40,921 41,4584 42,550
43,601 51,430 52,240 53,1882
54,581 55,1712 56,721 57,9999
58,601 65,530 66,581 67,2282
68,7447 69,2222 77,601 79,2903
80,4294 81,3523 82,601 91,641
92,510 93,3473 94,1451 95,1151
107,2172 108,2112 109,731 121,2132
136,1321
##END=
