##TITLE=1,4-Ethenonaphthalene, 1,4-dihydro-
##JCAMP-DX=4.24
##DATA TYPE=MASS SPECTRUM
##ORIGIN=TAT 0891
##OWNER=NIST Mass Spectrometry Data Center
Collection (C) 2014 copyright by the U.S. Secretary of Commerce
on behalf of the United States of America. All rights reserved.
##CAS REGISTRY NO=7322-47-6
##$NIST MASS SPEC NO=5014
##MOLFORM=C12 H10
##MW=154
##$NIST SOURCE=MSDC
##XUNITS=M/Z
##YUNITS=RELATIVE INTENSITY
##XFACTOR=1
##YFACTOR=1
##FIRSTX=38
##LASTX=156
##FIRSTY=200
##MAXX=156
##MINX=38
##MAXY=9999
##MINY=100
##NPOINTS=30
##PEAK TABLE=(XY..XY)
38,200 39,500 51,200 52,200
62,300 63,1101 64,1001 65,100
74,300 75,701 76,2202 77,801
78,200 87,200 89,200 101,200
102,500 115,400 126,500 127,701
128,1802 129,200 139,200 150,300
151,801 152,2803 153,9999 154,7607
155,1001 156,100
##END=
