##TITLE=2,5-di-tert-Butyl-1,4-dimethoxybenzene
##JCAMP-DX=4.24
##DATA TYPE=MASS SPECTRUM
##ORIGIN=NIST Mass Spectrometry Data Center
##OWNER=NIST Mass Spectrometry Data Center
Collection (C) 2014 copyright by the U.S. Secretary of Commerce
on behalf of the United States of America. All rights reserved.
##CAS REGISTRY NO=7323-63-9
##$NIST MASS SPEC NO=341097
##MOLFORM=C16 H26 O2
##MW=250
##$NIST SOURCE=MSDC
##XUNITS=M/Z
##YUNITS=RELATIVE INTENSITY
##XFACTOR=1
##YFACTOR=1
##FIRSTX=15
##LASTX=252
##FIRSTY=30
##MAXX=252
##MINX=15
##MAXY=9999
##MINY=10
##NPOINTS=147
##PEAK TABLE=(XY..XY)
15,30 27,30 29,110 33,10
39,80 41,320 42,20 43,90
45,10 50,10 51,50 52,20
53,90 54,10 55,120 56,10
57,631 58,30 59,30 63,40
64,20 65,110 66,30 67,90
69,40 70,10 71,10 72,10
73,70 74,10 75,20 76,10
77,220 78,60 79,140 80,30
81,70 82,360 85,20 87,30
88,70 89,70 90,20 91,450
92,50 93,70 94,30 95,40
96,270 101,10 102,40 103,140
104,50 105,250 106,30 107,100
108,20 109,30 110,120 115,400
116,120 117,210 119,210 120,50
121,210 122,40 123,40 124,20
125,20 127,90 128,260 129,220
130,80 131,250 132,90 133,160
134,80 135,190 136,70 137,70
138,40 139,50 141,90 142,50
143,80 144,50 145,190 146,90
147,230 148,80 149,250 150,110
151,290 152,60 153,40 154,10
155,30 156,50 157,70 158,80
159,100 160,60 161,200 162,80
163,180 164,310 165,140 166,30
171,70 172,60 173,180 174,80
175,170 176,40 177,210 178,150
179,440 180,60 181,20 187,100
188,180 189,130 190,200 191,80
192,60 193,140 194,20 202,10
203,210 204,100 205,851 206,120
207,130 208,10 218,10 219,230
220,771 221,120 222,10 233,20
235,9999 236,1772 237,170 238,10
250,4694 251,841 252,80
##END=
