##TITLE=Dimesitylmethane
##JCAMP-DX=4.24
##DATA TYPE=MASS SPECTRUM
##ORIGIN=NIST Mass Spectrometry Data Center
##OWNER=NIST Mass Spectrometry Data Center
Collection (C) 2014 copyright by the U.S. Secretary of Commerce
on behalf of the United States of America. All rights reserved.
##CAS REGISTRY NO=733-07-3
##$NIST MASS SPEC NO=343084
##MOLFORM=C19 H24
##MW=252
##$NIST SOURCE=MSDC
##XUNITS=M/Z
##YUNITS=RELATIVE INTENSITY
##XFACTOR=1
##YFACTOR=1
##FIRSTX=13
##LASTX=252
##FIRSTY=10
##MAXX=252
##MINX=13
##MAXY=9999
##MINY=10
##NPOINTS=133
##PEAK TABLE=(XY..XY)
13,10 15,120 18,20 27,480
29,320 39,701 40,120 41,711
42,20 43,40 50,70 51,340
52,120 53,310 54,20 55,110
57,10 62,30 63,180 65,350
66,60 67,60 69,10 75,60
76,130 77,671 78,240 79,300
80,30 81,40 83,50 87,20
89,280 91,1211 92,130 93,100
95,80 96,130 98,10 101,100
102,190 103,300 104,150 105,661
106,70 107,50 108,50 109,60
110,100 111,60 113,20 115,921
116,380 117,1461 118,260 119,130
120,140 121,20 124,10 125,50
126,120 127,120 128,290 129,200
132,9999 133,1762 134,130 139,50
141,160 142,60 143,70 144,20
145,70 150,20 151,50 152,170
153,110 154,40 155,60 156,30
157,20 158,10 159,10 163,20
165,310 166,90 167,70 168,20
169,40 170,20 176,40 177,50
178,260 179,220 180,80 181,80
182,10 183,20 189,200 190,150
191,340 192,350 193,350 194,120
195,180 196,40 200,10 201,20
202,140 203,140 204,90 205,280
206,450 207,661 208,240 209,160
210,20 215,30 216,10 217,20
218,20 219,80 220,160 221,270
222,440 223,120 224,10 234,10
235,60 237,1331 238,250 239,20
252,2132
##END=
