##TITLE=Propylamine, 2TMS derivative
##JCAMP-DX=4.24
##DATA TYPE=MASS SPECTRUM
##ORIGIN=ORMSBG,10(10)859(1975); J. TAMAS
##OWNER=NIST Mass Spectrometry Data Center
Collection (C) 2014 copyright by the U.S. Secretary of Commerce
on behalf of the United States of America. All rights reserved.
##CAS REGISTRY NO=7331-84-2
##$NIST MASS SPEC NO=54623
##MOLFORM=C9 H25 N Si2
##MW=203
##$NIST SOURCE=MSDC
##XUNITS=M/Z
##YUNITS=RELATIVE INTENSITY
##XFACTOR=1
##YFACTOR=1
##FIRSTX=45
##LASTX=204
##FIRSTY=960
##MAXX=204
##MINX=45
##MAXY=9999
##MINY=40
##NPOINTS=21
##PEAK TABLE=(XY..XY)
45,960 59,2200 73,5100 86,2350
100,1000 114,3800 115,430 116,260
117,240 130,380 131,300 158,100
172,170 174,9999 175,1760 186,40
188,3000 189,550 202,60 203,420
204,100
##END=
