##TITLE=10,12-Octadecadiynoic acid
##JCAMP-DX=4.24
##DATA TYPE=MASS SPECTRUM
##ORIGIN=NIST Mass Spectrometry Data Center, 1994
##OWNER=NIST Mass Spectrometry Data Center
Collection (C) 2014 copyright by the U.S. Secretary of Commerce
on behalf of the United States of America. All rights reserved.
##CAS REGISTRY NO=7333-25-7
##$NIST MASS SPEC NO=136706
##MOLFORM=C18 H28 O2
##MW=276
##$NIST SOURCE=MSDC
##XUNITS=M/Z
##YUNITS=RELATIVE INTENSITY
##XFACTOR=1
##YFACTOR=1
##FIRSTX=15
##LASTX=234
##FIRSTY=207
##MAXX=234
##MINX=15
##MAXY=9999
##MINY=56
##NPOINTS=124
##PEAK TABLE=(XY..XY)
15,207 16,145 17,56 18,307
19,70 26,209 27,2831 28,763
29,4669 30,220 31,338 36,115
39,2501 40,445 41,8120 42,1029
43,3037 44,106 45,1603 50,749
51,1664 52,384 53,997 54,106
55,5983 56,496 57,639 58,106
59,408 60,1406 62,205 63,1164
64,367 65,2055 66,712 67,4169
68,597 69,1349 70,165 71,484
72,165 73,660 74,297 75,530
76,1152 77,3775 78,3548 79,5423
80,1890 81,2899 82,845 83,498
84,172 85,209 87,196 88,103
89,818 90,103 91,9999 92,2999
93,3440 94,1084 95,1561 96,293
97,233 98,103 99,147 101,129
102,240 103,1046 104,654 105,5487
106,1771 107,1506 108,602 109,374
110,93 115,890 116,407 117,1652
118,93 119,4621 120,993 121,515
122,170 123,193 127,97 128,266
129,302 130,186 131,1073 132,311
133,2018 134,1777 135,411 136,199
137,93 141,150 143,157 144,67
145,768 146,184 147,735 148,409
149,265 150,192 151,109 152,435
153,77 157,132 159,463 160,128
161,339 162,167 163,123 173,174
175,160 177,109 178,166 179,126
187,186 191,88 205,86 234,63
##END=
