##TITLE=Benzoic acid, 2-methoxy-, ethyl ester
##JCAMP-DX=4.24
##DATA TYPE=MASS SPECTRUM
##ORIGIN=Zaikin V.G., TIPS RAS, Moscow, Russia
##OWNER=NIST Mass Spectrometry Data Center
Collection (C) 2014 copyright by the U.S. Secretary of Commerce
on behalf of the United States of America. All rights reserved.
##CAS REGISTRY NO=7335-26-4
##$NIST MASS SPEC NO=292296
##MOLFORM=C10 H12 O3
##MW=180
##$NIST SOURCE=MSDC
##XUNITS=M/Z
##YUNITS=RELATIVE INTENSITY
##XFACTOR=1
##YFACTOR=1
##FIRSTX=26
##LASTX=182
##FIRSTY=40
##MAXX=182
##MINX=26
##MAXY=9999
##MINY=10
##NPOINTS=67
##PEAK TABLE=(XY..XY)
26,40 27,170 28,20 29,240
30,20 31,20 36,10 37,20
38,80 39,120 43,30 44,30
45,20 49,10 50,170 51,330
52,50 53,70 61,10 62,70
63,360 64,390 65,170 66,20
74,60 75,60 76,220 77,1852
78,250 79,280 80,20 81,40
90,30 91,60 92,921 93,130
94,50 95,10 104,100 105,1001
106,150 107,120 108,70 109,20
118,50 119,80 120,220 121,320
122,70 123,360 124,20 133,3343
134,440 135,9999 136,731 137,60
149,10 151,450 152,100 153,10
161,10 163,20 165,20 179,20
180,1992 181,220 182,20
##END=
