##TITLE=Chrysophanol, 2TMS derivative
##JCAMP-DX=4.24
##DATA TYPE=MASS SPECTRUM
##ORIGIN=G.W. VAN EIJK, CENTRAALBUREAU SCHIMMELCULTURES, BAARN, NETH.
##OWNER=NIST Mass Spectrometry Data Center
Collection (C) 2014 copyright by the U.S. Secretary of Commerce
on behalf of the United States of America. All rights reserved.
##CAS REGISTRY NO=7336-72-3
##$NIST MASS SPEC NO=103012
##MOLFORM=C21 H26 O4 Si2
##MW=398
##$NIST SOURCE=MSDC
##XUNITS=M/Z
##YUNITS=RELATIVE INTENSITY
##XFACTOR=1
##YFACTOR=1
##FIRSTX=73
##LASTX=398
##FIRSTY=420
##MAXX=398
##MINX=73
##MAXY=9999
##MINY=20
##NPOINTS=10
##PEAK TABLE=(XY..XY)
73,420 311,410 353,150 367,80
383,9999 384,2960 385,1310 386,250
397,50 398,20
##END=
