##TITLE=.beta.-Phenylpropiolophenone
##JCAMP-DX=4.24
##DATA TYPE=MASS SPECTRUM
##ORIGIN=J. Little, Eastman chemical company.
##OWNER=NIST Mass Spectrometry Data Center
Collection (C) 2014 copyright by the U.S. Secretary of Commerce
on behalf of the United States of America. All rights reserved.
##CAS REGISTRY NO=7338-94-5
##$NIST MASS SPEC NO=403345
##MOLFORM=C15 H10 O
##MW=206
##$NIST SOURCE=MSDC
##XUNITS=M/Z
##YUNITS=RELATIVE INTENSITY
##XFACTOR=1
##YFACTOR=1
##FIRSTX=27
##LASTX=209
##FIRSTY=410
##MAXX=209
##MINX=27
##MAXY=9999
##MINY=40
##NPOINTS=51
##PEAK TABLE=(XY..XY)
27,410 39,500 41,410 43,440
50,1191 51,2973 52,300 55,350
62,360 63,571 69,360 73,290
74,1521 75,3493 76,1802 77,2762
86,270 87,340 88,290 89,1001
98,480 99,310 100,290 101,1752
102,480 105,410 113,170 115,160
126,601 127,190 128,230 129,9929
130,1121 139,400 149,130 150,721
151,1091 152,1541 153,220 163,160
175,340 176,2222 177,1411 178,9999
179,2742 180,250 205,520 206,8137
207,1581 208,230 209,40
##END=
