##TITLE=Bromoacetic acid, 2-pentyl ester
##JCAMP-DX=4.24
##DATA TYPE=MASS SPECTRUM
##ORIGIN=V.Zaikin,Topchiev Inst.Petrochem.Synth.,Moscow
##OWNER=NIST Mass Spectrometry Data Center
Collection (C) 2014 copyright by the U.S. Secretary of Commerce
on behalf of the United States of America. All rights reserved.
##CAS REGISTRY NO=73448-66-5
##$NIST MASS SPEC NO=282665
##MOLFORM=C7 H13 Br O2
##MW=208
##$NIST SOURCE=MSDC
##XUNITS=M/Z
##YUNITS=RELATIVE INTENSITY
##XFACTOR=1
##YFACTOR=1
##FIRSTX=25
##LASTX=196
##FIRSTY=20
##MAXX=196
##MINX=25
##MAXY=9999
##MINY=10
##NPOINTS=97
##PEAK TABLE=(XY..XY)
25,20 26,300 27,1922 28,160
29,1631 30,50 31,140 35,80
36,470 37,70 38,150 39,1722
40,340 41,2903 42,2512 43,6926
44,310 45,1061 46,20 49,60
50,300 51,400 52,641 53,420
54,130 55,4364 56,220 57,110
58,120 59,50 60,80 61,50
62,20 63,30 65,40 66,20
67,150 68,70 69,480 70,9999
71,7387 72,410 73,390 74,20
75,20 76,20 77,90 78,140
79,1131 80,80 81,70 82,30
83,170 84,20 85,50 86,150
87,1311 88,140 91,40 92,90
93,1722 94,170 95,1631 96,90
101,30 102,10 107,10 109,10
111,20 113,20 115,100 120,220
121,9008 122,430 123,9208 124,200
125,20 127,30 129,1291 130,110
138,30 139,170 140,20 141,170
164,60 165,4474 166,250 167,4464
168,180 169,20 179,20 181,10
191,10 193,510 194,30 195,510
196,20
##END=
