##TITLE=2-Propenoic acid, 3-(2,3-dimethoxyphenyl)-, (E)-
##JCAMP-DX=4.24
##DATA TYPE=MASS SPECTRUM
##ORIGIN=Japan AIST/NIMC Database- Spectrum MS-IW-6983
##OWNER=NIST Mass Spectrometry Data Center
Collection (C) 2014 copyright by the U.S. Secretary of Commerce
on behalf of the United States of America. All rights reserved.
##CAS REGISTRY NO=7345-82-6
##$NIST MASS SPEC NO=238317
##MOLFORM=C11 H12 O4
##MW=208
##$NIST SOURCE=MSDC
##XUNITS=M/Z
##YUNITS=RELATIVE INTENSITY
##XFACTOR=1
##YFACTOR=1
##FIRSTX=15
##LASTX=211
##FIRSTY=90
##MAXX=211
##MINX=15
##MAXY=9999
##MINY=10
##NPOINTS=133
##PEAK TABLE=(XY..XY)
15,90 17,10 18,30 26,20
27,60 28,30 29,40 30,10
31,20 32,20 37,10 38,109
39,249 40,50 41,60 42,10
43,60 44,40 45,109 46,10
47,40 49,10 50,199 51,609
52,139 53,129 54,30 55,169
56,10 57,20 59,109 60,30
61,50 62,119 63,289 64,70
65,359 66,279 67,50 68,40
69,50 71,10 73,20 74,109
75,149 76,179 77,1049 78,329
79,169 80,30 81,30 82,20
83,10 85,20 86,20 87,60
88,229 89,339 90,129 91,1219
92,159 93,80 94,159 95,80
96,40 97,10 101,30 102,109
103,449 104,149 105,699 106,199
107,109 108,30 109,149 110,20
111,10 115,20 116,50 117,99
118,259 119,269 120,309 121,1789
122,209 123,119 124,70 125,10
129,10 130,60 131,259 132,99
133,1049 134,1699 135,249 136,50
137,119 138,10 144,10 145,30
146,80 147,579 148,1169 149,779
150,159 151,60 152,10 153,10
158,20 159,40 160,30 161,599
162,469 163,149 164,40 165,80
166,10 175,469 176,4179 177,9029
178,1019 179,109 189,20 190,70
191,439 192,70 193,99 194,10
207,40 208,9999 209,1249 210,149
211,10
##END=
