##TITLE=Methanone, (2-fluorophenyl)[2-(methylamino)-5-nitrophenyl]-
##JCAMP-DX=4.24
##DATA TYPE=MASS SPECTRUM
##ORIGIN=H.Maurer ET AL.J.Chromatogr. 222,409(1981)
##OWNER=NIST Mass Spectrometry Data Center
Collection (C) 2014 copyright by the U.S. Secretary of Commerce
on behalf of the United States of America. All rights reserved.
##CAS REGISTRY NO=735-06-8
##$NIST MASS SPEC NO=280337
##MOLFORM=C14 H11 F N2 O3
##MW=274
##$NIST SOURCE=MSDC
##XUNITS=M/Z
##YUNITS=RELATIVE INTENSITY
##XFACTOR=1
##YFACTOR=1
##FIRSTX=75
##LASTX=276
##FIRSTY=550
##MAXX=276
##MINX=75
##MAXY=9999
##MINY=310
##NPOINTS=30
##PEAK TABLE=(XY..XY)
75,550 76,340 95,951 104,340
105,550 109,340 123,1561 133,550
170,340 179,921 183,340 185,340
198,340 199,340 210,340 211,2142
212,550 213,550 227,520 228,310
244,310 254,310 255,691 256,310
257,2312 258,520 273,2522 274,9999
275,1531 276,310
##END=
