##TITLE=1,4-Methanonaphthalene,1,4-dihydro-9-((1-methylethylidene)-
##JCAMP-DX=4.24
##DATA TYPE=MASS SPECTRUM
##ORIGIN=A.A.Kutin, Moscow, Russia
##OWNER=NIST Mass Spectrometry Data Center
Collection (C) 2014 copyright by the U.S. Secretary of Commerce
on behalf of the United States of America. All rights reserved.
##CAS REGISTRY NO=7350-72-3
##$NIST MASS SPEC NO=265763
##MOLFORM=C14 H14
##MW=182
##$NIST SOURCE=MSDC
##XUNITS=M/Z
##YUNITS=RELATIVE INTENSITY
##XFACTOR=1
##YFACTOR=1
##FIRSTX=34
##LASTX=185
##FIRSTY=0
##MAXX=185
##MINX=34
##MAXY=9999
##MINY=0
##NPOINTS=114
##PEAK TABLE=(XY..XY)
34,0 37,14 38,49 39,354
40,32 41,195 42,7 50,193
51,344 52,74 53,86 54,14
55,11 58,64 59,2 60,0
61,45 62,206 63,592 64,203
65,259 66,31 67,193 68,12
70,216 74,234 75,311 76,657
77,442 78,138 79,29 82,471
85,33 86,136 87,225 88,198
89,771 90,223 91,133 92,9
97,2 98,84 99,61 100,39
101,115 102,352 103,70 104,13
105,14 106,2 109,12 110,40
111,46 113,237 115,2408 116,406
117,31 118,2 120,1 121,3
122,15 123,9 124,5 125,22
126,305 127,595 128,2056 129,367
130,29 131,2 132,1 133,3
134,7 135,5 137,70 139,1308
140,780 141,1883 142,351 143,32
144,2 146,2 147,1 149,2
150,172 151,631 152,3450 153,1466
154,351 155,293 156,408 157,55
158,5 161,18 162,70 163,396
164,720 165,5000 166,3420 167,8998
168,1575 169,118 170,5 174,11
175,20 176,130 177,99 178,355
179,320 181,3227 182,9999 183,1902
184,146 185,7
##END=
