##TITLE=Pentane, 1-[(3-methylbutyl)thio]-
##JCAMP-DX=4.24
##DATA TYPE=MASS SPECTRUM
##ORIGIN=CARL DJERASSI DEPT OF CHEM STANFORD UNIV STANFORD CALIF 94305
##OWNER=NIST Mass Spectrometry Data Center
Collection (C) 2014 copyright by the U.S. Secretary of Commerce
on behalf of the United States of America. All rights reserved.
##CAS REGISTRY NO=7352-01-4
##$NIST MASS SPEC NO=49721
##MOLFORM=C10 H22 S
##MW=174
##$NIST SOURCE=MSDC
##XUNITS=M/Z
##YUNITS=RELATIVE INTENSITY
##XFACTOR=1
##YFACTOR=1
##FIRSTX=40
##LASTX=174
##FIRSTY=100
##MAXX=174
##MINX=40
##MAXY=9999
##MINY=100
##NPOINTS=28
##PEAK TABLE=(XY..XY)
40,100 41,2400 42,1600 43,3200
44,100 45,300 46,200 47,500
53,100 55,2600 56,200 57,200
59,100 60,200 61,2900 62,100
63,100 69,1500 70,9999 71,1300
75,100 102,100 103,1200 104,500
105,200 117,300 131,400 174,1400
##END=
