##TITLE=2-Heptene, 6-methyl-
##JCAMP-DX=4.24
##DATA TYPE=MASS SPECTRUM
##ORIGIN=NIST Mass Spectrometry Data Center, 1990.
##OWNER=NIST Mass Spectrometry Data Center
Collection (C) 2014 copyright by the U.S. Secretary of Commerce
on behalf of the United States of America. All rights reserved.
##CAS REGISTRY NO=73548-72-8
##$NIST MASS SPEC NO=113464
##MOLFORM=C8 H16
##MW=112
##$NIST SOURCE=MSDC
##XUNITS=M/Z
##YUNITS=RELATIVE INTENSITY
##XFACTOR=1
##YFACTOR=1
##FIRSTX=26
##LASTX=113
##FIRSTY=249
##MAXX=113
##MINX=26
##MAXY=9999
##MINY=121
##NPOINTS=34
##PEAK TABLE=(XY..XY)
26,249 27,2089 28,1072 29,2141
38,368 39,3839 41,8755 42,1471
43,2159 44,270 50,261 51,529
52,251 53,1385 55,8971 56,9999
57,4075 58,167 63,146 65,265
66,121 67,910 68,777 69,5132
70,2603 71,170 77,211 79,201
81,150 83,395 84,913 97,661
112,2911 113,266
##END=
