##TITLE=1,1'-Biphenyl, 2,2',3,5,6-Pentachloro-
##JCAMP-DX=4.24
##DATA TYPE=MASS SPECTRUM
##ORIGIN=Organic Synthesis Lab, MSU, Moscow.TRC 1292
##OWNER=NIST Mass Spectrometry Data Center
Collection (C) 2014 copyright by the U.S. Secretary of Commerce
on behalf of the United States of America. All rights reserved.
##CAS REGISTRY NO=73575-56-1
##$NIST MASS SPEC NO=326662
##MOLFORM=C12 H5 Cl5
##MW=324
##$NIST SOURCE=MSDC
##XUNITS=M/Z
##YUNITS=RELATIVE INTENSITY
##XFACTOR=1
##YFACTOR=1
##FIRSTX=43
##LASTX=334
##FIRSTY=27
##MAXX=334
##MINX=43
##MAXY=9999
##MINY=14
##NPOINTS=149
##PEAK TABLE=(XY..XY)
43,27 44,97 47,22 48,14
49,37 50,78 51,101 52,28
57,29 60,32 61,117 62,56
63,46 67,18 71,24 72,56
73,152 74,199 75,128 76,29
79,62 84,77 85,152 86,137
87,44 90,32 91,80 92,196
93,101 94,19 95,24 96,71
97,136 98,198 99,121 107,53
108,160 109,457 110,343 111,112
113,25 114,40 115,58 116,25
118,19 119,30 120,80 121,67
122,139 123,115 124,28 127,733
128,637 129,227 130,34 131,37
132,91 133,81 134,65 135,65
137,30 142,30 143,48 144,226
145,352 146,213 147,160 148,140
149,238 150,41 156,45 157,68
158,57 159,43 160,30 162,158
163,228 164,158 165,53 166,19
167,35 168,35 169,30 170,52
171,27 172,37 180,21 181,44
182,70 183,195 184,1198 185,210
186,387 187,62 192,65 193,32
194,88 195,22 196,31 203,32
204,19 205,24 207,31 215,19
216,25 217,64 218,346 219,388
220,296 221,262 222,77 223,45
228,54 229,28 230,43 240,25
252,25 253,97 254,3906 255,475
256,3302 257,469 258,1293 259,148
260,141 261,21 262,41 264,41
288,117 289,2673 290,469 291,3679
292,447 293,1606 294,246 295,350
296,46 297,32 324,6174 325,821
326,9999 327,1285 328,6697 329,842
330,2049 331,280 332,331 333,56
334,27
##END=
