##TITLE=1-Butene, 2-ethyl-3-methyl-
##JCAMP-DX=4.24
##DATA TYPE=MASS SPECTRUM
##OWNER=NIST Mass Spectrometry Data Center
Collection (C) 2014 copyright by the U.S. Secretary of Commerce
on behalf of the United States of America. All rights reserved.
##CAS REGISTRY NO=7357-93-9
##$NIST MASS SPEC NO=912
##MOLFORM=C7 H14
##MW=98
##$NIST SOURCE=MSDC
##XUNITS=M/Z
##YUNITS=RELATIVE INTENSITY
##XFACTOR=1
##YFACTOR=1
##FIRSTX=12
##LASTX=100
##FIRSTY=20
##MAXX=100
##MINX=12
##MAXY=9999
##MINY=10
##NPOINTS=73
##PEAK TABLE=(XY..XY)
12,20 13,40 14,190 15,1531
16,60 24,10 25,10 26,400
27,4884 28,751 29,2002 30,40
31,10 32,10 36,10 37,110
38,360 39,4144 40,681 41,9999
42,761 43,2382 44,80 45,10
46,10 47,10 48,10 49,50
50,500 51,811 52,350 53,1581
54,500 55,8738 56,3823 57,360
58,10 60,10 61,30 62,80
63,150 64,20 65,270 66,120
67,1001 68,470 69,9959 70,961
71,40 72,10 73,10 74,20
75,10 76,10 77,110 78,30
79,130 80,20 81,170 82,30
83,4164 84,270 85,10 86,10
91,10 92,10 93,10 95,10
96,10 97,40 98,3023 99,230
100,10
##END=
