##TITLE=L-Leucine, 2TMS derivative
##JCAMP-DX=4.24
##DATA TYPE=MASS SPECTRUM
##ORIGIN=O A MAMER, MCGILL UNIVERSITY, MONTRE)
##OWNER=NIST Mass Spectrometry Data Center
Collection (C) 2014 copyright by the U.S. Secretary of Commerce
on behalf of the United States of America. All rights reserved.
##CAS REGISTRY NO=7364-46-7
##$NIST MASS SPEC NO=79169
##MOLFORM=C12 H29 N O2 Si2
##MW=275
##$NIST SOURCE=MSDC
##XUNITS=M/Z
##YUNITS=RELATIVE INTENSITY
##XFACTOR=1
##YFACTOR=1
##FIRSTX=29
##LASTX=262
##FIRSTY=64
##MAXX=262
##MINX=29
##MAXY=9999
##MINY=2
##NPOINTS=64
##PEAK TABLE=(XY..XY)
29,64 31,45 41,6 44,2
45,646 46,61 57,18 59,498
60,71 61,66 66,21 70,42
71,26 72,109 73,4245 74,492
75,139 76,36 85,23 86,64
98,20 99,28 100,378 101,69
102,396 103,141 104,22 105,28
114,25 115,128 116,149 117,82
119,27 128,100 129,40 130,130
131,86 132,82 133,183 134,33
142,128 143,28 144,21 146,28
147,742 148,136 149,67 156,29
158,9999 159,1493 160,445 161,46
170,58 171,20 174,32 218,335
219,87 220,34 232,405 233,91
234,39 260,205 261,45 262,20
##END=
