##TITLE=Heptafluorobutyric acid, n-tetradecyl ester
##JCAMP-DX=4.24
##DATA TYPE=MASS SPECTRUM
##ORIGIN=NIST Mass Spectrometry Data Center
##OWNER=NIST Mass Spectrometry Data Center
Collection (C) 2014 copyright by the U.S. Secretary of Commerce
on behalf of the United States of America. All rights reserved.
##CAS REGISTRY NO=7365-36-8
##$NIST MASS SPEC NO=351825
##MOLFORM=C18 H29 F7 O2
##MW=410
##$NIST SOURCE=MSDC
##XUNITS=M/Z
##YUNITS=RELATIVE INTENSITY
##XFACTOR=1
##YFACTOR=1
##FIRSTX=15
##LASTX=393
##FIRSTY=10
##MAXX=393
##MINX=15
##MAXY=9999
##MINY=10
##NPOINTS=109
##PEAK TABLE=(XY..XY)
15,10 26,30 27,490 28,170
29,1431 30,40 31,30 33,10
37,10 39,721 40,200 41,5605
42,1571 43,8147 44,300 47,20
50,40 51,50 52,30 53,490
54,1031 55,9459 56,4254 57,9999
58,440 59,20 61,20 62,10
63,10 65,90 66,130 67,1481
68,1862 69,8878 70,4394 71,5035
72,270 73,10 77,60 78,30
79,180 80,60 81,921 82,3693
83,7837 84,3373 85,3213 86,200
87,10 91,30 93,50 94,20
95,380 96,1621 97,7046 98,2232
99,691 100,380 101,10 107,10
109,240 110,741 111,3974 112,1581
113,400 114,30 119,260 120,10
123,40 124,390 125,1722 126,911
127,240 128,20 131,40 137,20
138,210 139,500 140,500 141,130
142,10 147,20 150,90 151,10
152,90 153,210 154,210 155,60
159,10 166,50 167,100 168,731
169,1571 170,50 178,10 193,10
194,10 196,841 197,230 198,10
199,10 215,40 223,20 227,10
241,150 242,30 255,10 392,40
393,10
##END=
