##TITLE=2-Decenoic acid, methyl ester, (E)-
##JCAMP-DX=4.24
##DATA TYPE=MASS SPECTRUM
##ORIGIN=FOOD RESEARCH REPORT 120, K.E. MURRAY & COLLEAGUES, DIV. OF FOOD RESEARCH, CSIRO, AUSTRALIA
##OWNER=NIST Mass Spectrometry Data Center
Collection (C) 2014 copyright by the U.S. Secretary of Commerce
on behalf of the United States of America. All rights reserved.
##CAS REGISTRY NO=7367-85-3
##$NIST MASS SPEC NO=53551
##MOLFORM=C11 H20 O2
##MW=184
##$NIST SOURCE=MSDC
##XUNITS=M/Z
##YUNITS=RELATIVE INTENSITY
##XFACTOR=1
##YFACTOR=1
##FIRSTX=26
##LASTX=184
##FIRSTY=300
##MAXX=184
##MINX=26
##MAXY=9999
##MINY=50
##NPOINTS=67
##PEAK TABLE=(XY..XY)
26,300 27,4300 29,5800 30,200
31,400 39,3600 40,1300 41,9400
42,2100 43,9300 45,500 51,300
52,200 53,2300 54,1800 55,8200
56,3100 57,1500 58,100 59,3200
65,300 66,300 67,1800 68,2800
69,4300 70,1100 71,1000 72,200
73,200 74,3900 75,400 77,200
79,400 80,200 81,2800 82,1000
83,1100 84,2600 85,1000 87,9999
88,600 95,1000 96,1700 97,700
98,500 99,200 100,1800 101,1500
102,200 108,400 109,500 110,2200
111,600 113,2300 114,600 115,300
116,100 123,700 124,300 127,400
128,200 129,100 141,300 152,1000
153,1400 154,200 184,50
##END=
