##TITLE=4-Bromoguaiacol
##JCAMP-DX=4.24
##DATA TYPE=MASS SPECTRUM
##ORIGIN=NIST Mass Spectrometry Data Center
##OWNER=NIST Mass Spectrometry Data Center
Collection (C) 2014 copyright by the U.S. Secretary of Commerce
on behalf of the United States of America. All rights reserved.
##CAS REGISTRY NO=7368-78-7
##$NIST MASS SPEC NO=352877
##MOLFORM=C7 H7 Br O2
##MW=202
##$NIST SOURCE=MSDC
##XUNITS=M/Z
##YUNITS=RELATIVE INTENSITY
##XFACTOR=1
##YFACTOR=1
##FIRSTX=14
##LASTX=207
##FIRSTY=80
##MAXX=207
##MINX=14
##MAXY=9999
##MINY=10
##NPOINTS=128
##PEAK TABLE=(XY..XY)
14,80 15,550 25,40 26,250
27,130 28,90 29,520 30,100
31,200 36,50 37,430 38,711
39,651 40,100 41,350 42,140
43,320 45,210 46,20 47,20
48,50 49,480 50,2472 51,5545
52,3333 53,1712 54,230 55,360
56,20 57,10 60,170 61,681
62,1241 63,2272 64,520 65,1121
66,400 67,160 68,20 69,80
72,10 73,80 74,260 75,180
76,60 77,601 78,140 79,2402
80,791 81,230 82,50 89,10
90,80 91,170 92,140 93,180
94,741 95,160 96,10 99,10
101,110 102,100 104,110 105,80
106,110 107,170 108,931 109,200
110,10 111,10 115,30 116,60
117,300 118,70 119,260 120,10
121,30 122,30 123,240 124,90
125,20 128,40 129,60 130,40
131,651 132,60 133,611 134,40
135,50 141,20 142,40 143,410
144,60 145,370 146,30 147,10
151,10 154,20 155,60 156,20
157,90 158,90 159,6186 160,370
161,5835 162,320 163,30 170,30
171,50 172,70 173,90 174,20
175,30 183,10 185,10 187,7637
188,581 189,7347 190,520 191,40
199,30 200,20 202,9999 203,811
204,9549 205,741 206,70 207,20
##END=
