##TITLE=cis-13,16-Docasadienoic acid
##JCAMP-DX=4.24
##DATA TYPE=MASS SPECTRUM
##ORIGIN=NIST Mass Spectrometry Data Center
##OWNER=NIST Mass Spectrometry Data Center
Collection (C) 2014 copyright by the U.S. Secretary of Commerce
on behalf of the United States of America. All rights reserved.
##CAS REGISTRY NO=7370-49-2
##$NIST MASS SPEC NO=333605
##MOLFORM=C22 H40 O2
##MW=336
##$NIST SOURCE=MSDC
##XUNITS=M/Z
##YUNITS=RELATIVE INTENSITY
##XFACTOR=1
##YFACTOR=1
##FIRSTX=15
##LASTX=339
##FIRSTY=10
##MAXX=339
##MINX=15
##MAXY=9999
##MINY=10
##NPOINTS=239
##PEAK TABLE=(XY..XY)
15,10 26,20 27,460 28,130
29,1121 30,40 31,50 38,20
39,751 40,150 41,4934 42,661
43,2392 44,80 45,540 46,20
47,10 50,20 51,90 52,80
53,971 54,3954 55,8207 56,871
57,1171 58,110 59,260 60,1792
61,90 62,10 63,20 64,20
65,601 66,751 67,9999 68,4974
69,4244 70,530 71,450 72,40
73,871 74,100 75,40 76,10
77,1071 78,330 79,3533 80,1992
81,8988 82,8097 83,3073 84,510
85,290 86,30 87,190 88,10
89,20 91,931 92,180 93,1041
94,781 95,7016 96,6946 97,2422
98,430 99,140 100,60 101,160
102,20 103,40 104,40 105,240
106,70 107,450 108,390 109,3423
110,3363 111,961 112,170 113,140
114,100 115,140 116,40 117,70
118,30 119,150 120,60 121,450
122,300 123,1661 124,1692 125,450
126,150 127,180 128,150 129,170
130,30 131,80 132,30 133,150
134,60 135,360 136,280 137,841
138,851 139,220 140,120 141,70
142,20 143,50 144,10 145,40
146,20 147,110 148,50 149,220
150,250 151,430 152,390 153,140
154,120 155,50 156,10 157,30
158,10 159,40 160,10 161,80
162,20 163,110 164,150 165,240
166,190 167,140 168,120 169,40
170,10 171,20 172,10 173,50
174,20 175,50 176,20 177,70
178,90 179,130 180,100 181,110
182,110 183,30 184,10 185,30
186,10 187,40 188,10 189,40
190,10 191,40 192,50 193,80
194,70 195,90 196,100 197,20
198,10 199,10 201,30 202,10
203,20 204,10 205,30 206,40
207,50 208,40 209,80 210,90
211,20 213,10 215,10 217,10
219,30 220,30 221,40 222,30
223,60 224,80 225,20 227,10
229,10 233,30 234,30 235,30
236,30 237,50 238,70 239,20
241,10 243,10 245,10 247,30
248,20 249,30 250,20 251,40
252,50 253,10 261,20 262,10
263,20 264,20 265,40 266,30
267,10 274,10 275,10 276,30
277,20 278,20 279,40 280,20
284,10 289,10 290,10 291,20
292,10 293,20 294,10 302,10
307,20 308,10 318,70 319,50
320,100 321,40 322,10 336,1151
337,290 338,50 339,10
##END=
