##TITLE=13-Methylnonacosane
##JCAMP-DX=4.24
##DATA TYPE=MASS SPECTRUM
##ORIGIN=J. Klune, Insect Chem. Ecol. Lab., USDA, Beltsville, MD 20705
##OWNER=NIST Mass Spectrometry Data Center
Collection (C) 2014 copyright by the U.S. Secretary of Commerce
on behalf of the United States of America. All rights reserved.
##CAS REGISTRY NO=7371-98-4
##$NIST MASS SPEC NO=131188
##MOLFORM=C30 H62
##MW=422
##$NIST SOURCE=MSDC
##XUNITS=M/Z
##YUNITS=RELATIVE INTENSITY
##XFACTOR=1
##YFACTOR=1
##FIRSTX=41
##LASTX=424
##FIRSTY=2816
##MAXX=424
##MINX=41
##MAXY=9999
##MINY=6
##NPOINTS=131
##PEAK TABLE=(XY..XY)
41,2816 42,960 43,8480 44,241
51,6 53,117 54,284 55,2782
56,1881 57,9999 58,405 65,17
66,26 67,296 68,364 69,1776
70,1141 71,6353 72,324 77,12
79,40 80,17 81,173 82,468
83,1417 84,624 85,4639 86,282
91,6 95,83 96,367 97,1412
98,395 99,1594 100,108 109,33
110,204 111,833 112,294 113,1011
114,81 123,18 124,124 125,455
126,207 127,660 128,60 137,6
138,90 139,194 140,156 141,481
142,48 152,64 153,112 154,113
155,311 156,37 166,45 167,78
168,983 169,390 170,43 180,24
181,35 182,63 183,133 184,17
194,25 195,39 196,5533 197,2823
198,348 199,22 208,9 209,18
210,159 211,126 212,20 222,6
223,14 224,931 225,346 226,47
238,78 239,65 240,9 251,7
252,3169 253,2342 254,401 255,28
266,134 267,112 268,22 280,114
281,101 282,19 294,65 295,63
296,10 308,62 309,78 310,18
322,55 323,63 324,10 336,53
337,67 338,11 350,58 351,86
352,23 364,47 365,86 366,23
378,48 379,95 380,26 392,71
393,179 394,50 406,43 407,263
408,86 409,10 420,10 421,32
422,174 423,57 424,7
##END=
