##TITLE=N,N-Dimethyloctylamine
##JCAMP-DX=4.24
##DATA TYPE=MASS SPECTRUM
##ORIGIN=NIST Mass Spectrometry Data Center
##OWNER=NIST Mass Spectrometry Data Center
Collection (C) 2014 copyright by the U.S. Secretary of Commerce
on behalf of the United States of America. All rights reserved.
##CAS REGISTRY NO=7378-99-6
##$NIST MASS SPEC NO=342714
##MOLFORM=C10 H23 N
##MW=157
##$NIST SOURCE=MSDC
##XUNITS=M/Z
##YUNITS=RELATIVE INTENSITY
##XFACTOR=1
##YFACTOR=1
##FIRSTX=15
##LASTX=158
##FIRSTY=190
##MAXX=158
##MINX=15
##MAXY=9999
##MINY=10
##NPOINTS=37
##PEAK TABLE=(XY..XY)
15,190 18,70 27,460 28,240
29,651 30,440 39,300 41,771
42,981 43,450 44,340 45,170
46,70 51,10 52,10 53,50
54,40 55,200 56,220 58,9999
59,440 67,20 68,20 69,50
70,80 71,80 72,60 82,10
84,80 98,10 100,10 114,30
128,10 142,10 156,40 157,280
158,30
##END=
