##TITLE=Ethane, 1,1-bis(methylthio)-
##JCAMP-DX=4.24
##DATA TYPE=MASS SPECTRUM
##OWNER=NIST Mass Spectrometry Data Center
Collection (C) 2014 copyright by the U.S. Secretary of Commerce
on behalf of the United States of America. All rights reserved.
##CAS REGISTRY NO=7379-30-8
##$NIST MASS SPEC NO=20549
##MOLFORM=C4 H10 S2
##MW=122
##$NIST SOURCE=MSDC
##XUNITS=M/Z
##YUNITS=RELATIVE INTENSITY
##XFACTOR=1
##YFACTOR=1
##FIRSTX=12
##LASTX=126
##FIRSTY=60
##MAXX=126
##MINX=12
##MAXY=9999
##MINY=10
##NPOINTS=74
##PEAK TABLE=(XY..XY)
12,60 13,100 14,240 15,751
16,20 18,10 24,10 25,30
26,240 27,951 28,80 29,270
30,10 32,130 33,90 34,80
35,70 36,10 37,10 38,10
39,140 40,20 41,2612 42,90
43,10 44,140 45,2542 46,851
47,3123 48,300 49,1201 50,30
51,50 56,20 57,190 58,671
59,2192 60,621 61,260 62,30
63,40 64,90 65,10 66,10
68,10 69,20 71,30 72,10
73,130 74,320 75,9999 76,490
77,480 78,30 79,250 80,10
81,30 88,10 89,10 90,10
91,40 92,50 93,10 94,10
106,10 107,170 108,10 109,20
121,10 122,2682 123,170 124,240
125,10 126,10
##END=
