##TITLE=3-Hexanone, 2-methyl-
##JCAMP-DX=4.24
##DATA TYPE=MASS SPECTRUM
##ORIGIN=Japan AIST/NIMC Database- Spectrum MS-NW-3143
##OWNER=NIST Mass Spectrometry Data Center
Collection (C) 2014 copyright by the U.S. Secretary of Commerce
on behalf of the United States of America. All rights reserved.
##CAS REGISTRY NO=7379-12-6
##$NIST MASS SPEC NO=231728
##MOLFORM=C7 H14 O
##MW=114
##$NIST SOURCE=MSDC
##XUNITS=M/Z
##YUNITS=RELATIVE INTENSITY
##XFACTOR=1
##YFACTOR=1
##FIRSTX=14
##LASTX=116
##FIRSTY=10
##MAXX=116
##MINX=14
##MAXY=9999
##MINY=10
##NPOINTS=41
##PEAK TABLE=(XY..XY)
14,10 15,90 18,10 26,70
27,1129 28,129 29,139 31,20
32,10 37,20 38,50 39,579
40,90 41,1559 42,329 43,9999
44,329 45,20 50,10 51,20
53,50 55,199 56,30 57,70
58,30 59,10 60,20 67,30
69,30 70,359 71,6669 72,329
73,70 81,10 83,10 85,10
86,30 99,50 114,1489 115,119
116,10
##END=
