##TITLE=Trimethoprim
##JCAMP-DX=4.24
##DATA TYPE=MASS SPECTRUM
##ORIGIN=Patti Price, Georgia Bureau of Investigation, Decatur, Georgia
##OWNER=NIST Mass Spectrometry Data Center
Collection (C) 2014 copyright by the U.S. Secretary of Commerce
on behalf of the United States of America. All rights reserved.
##CAS REGISTRY NO=738-70-5
##$NIST MASS SPEC NO=247707
##MOLFORM=C14 H18 N4 O3
##MW=290
##$NIST SOURCE=MSDC
##XUNITS=M/Z
##YUNITS=RELATIVE INTENSITY
##XFACTOR=1
##YFACTOR=1
##FIRSTX=41
##LASTX=292
##FIRSTY=30
##MAXX=292
##MINX=41
##MAXY=9999
##MINY=30
##NPOINTS=193
##PEAK TABLE=(XY..XY)
41,30 42,60 43,580 44,40
50,80 51,120 52,170 53,250
54,160 55,60 59,30 60,30
62,50 63,190 64,110 65,190
66,280 67,140 68,160 69,120
70,60 71,30 72,30 73,30
74,100 75,160 76,190 77,350
78,230 79,300 80,220 81,1020
82,100 83,180 85,130 86,70
87,110 88,80 89,190 90,190
91,230 92,310 93,220 94,170
95,320 96,120 97,30 98,60
99,80 100,60 101,100 102,220
103,200 104,190 105,270 106,210
107,190 108,150 109,160 110,90
111,80 113,40 114,140 115,150
116,180 117,210 118,210 119,370
120,240 121,170 122,280 123,1731
124,220 125,50 127,50 128,90
129,270 130,310 131,200 132,170
133,180 134,160 135,160 136,70
137,170 138,40 139,40 140,60
141,140 142,80 143,170 144,230
145,340 146,270 147,470 148,240
149,90 150,60 151,40 153,60
154,50 155,90 156,140 157,120
158,150 159,240 160,240 161,370
162,120 163,70 165,140 166,30
167,80 168,80 169,40 170,100
171,270 172,410 173,370 174,200
175,220 176,90 177,50 179,30
180,30 181,100 182,30 183,220
184,350 185,320 186,190 187,270
188,200 189,680 190,220 191,130
194,30 196,30 197,120 198,130
199,240 200,1411 201,680 202,160
203,200 204,80 205,150 206,60
211,90 212,320 213,320 214,220
215,790 216,450 217,520 218,110
220,50 225,50 226,90 227,330
228,720 229,360 230,180 231,360
232,250 233,140 234,30 241,110
242,300 243,2131 244,580 245,270
246,50 247,110 248,70 255,40
256,30 257,370 258,350 259,4664
260,800 261,80 262,90 272,30
273,120 274,50 275,3032 276,480
277,40 289,440 290,9999 291,1741
292,190
##END=
