##TITLE=1-Heptyn-3-ol
##JCAMP-DX=4.24
##DATA TYPE=MASS SPECTRUM
##ORIGIN=Japan AIST/NIMC Database- Spectrum MS-NW-3003
##OWNER=NIST Mass Spectrometry Data Center
Collection (C) 2014 copyright by the U.S. Secretary of Commerce
on behalf of the United States of America. All rights reserved.
##CAS REGISTRY NO=7383-19-9
##$NIST MASS SPEC NO=231497
##MOLFORM=C7 H12 O
##MW=112
##$NIST SOURCE=MSDC
##XUNITS=M/Z
##YUNITS=RELATIVE INTENSITY
##XFACTOR=1
##YFACTOR=1
##FIRSTX=14
##LASTX=112
##FIRSTY=30
##MAXX=112
##MINX=14
##MAXY=9999
##MINY=10
##NPOINTS=74
##PEAK TABLE=(XY..XY)
14,30 15,179 16,20 17,20
18,70 25,50 26,439 27,2789
28,589 29,5879 30,149 31,189
32,40 36,10 37,99 38,289
39,1929 40,379 41,5899 42,999
43,939 44,919 45,209 49,30
50,229 51,409 52,549 53,769
54,199 55,9999 56,2659 57,4469
58,519 59,50 60,80 61,30
62,60 63,109 64,30 65,339
66,179 67,409 68,999 69,759
70,3809 71,339 72,20 73,30
74,20 75,10 77,469 78,80
79,2779 80,189 81,339 82,60
83,3029 84,639 85,109 86,30
87,10 91,169 92,20 93,409
94,119 95,109 96,10 97,669
98,50 107,10 109,50 110,10
111,189 112,20
##END=
