##TITLE=1,3,5-Benzenetricarboxylic acid, triphenyl ester
##JCAMP-DX=4.24
##DATA TYPE=MASS SPECTRUM
##ORIGIN=MUS356 A. Mujsce, AT&T Bell Labs., Murray Hill, N.J., USA
##OWNER=NIST Mass Spectrometry Data Center
Collection (C) 2014 copyright by the U.S. Secretary of Commerce
on behalf of the United States of America. All rights reserved.
##CAS REGISTRY NO=7383-70-2
##$NIST MASS SPEC NO=115880
##MOLFORM=C27 H18 O6
##MW=438
##$NIST SOURCE=MSDC
##XUNITS=M/Z
##YUNITS=RELATIVE INTENSITY
##XFACTOR=1
##YFACTOR=1
##FIRSTX=63
##LASTX=440
##FIRSTY=116
##MAXX=440
##MINX=63
##MAXY=9999
##MINY=43
##NPOINTS=36
##PEAK TABLE=(XY..XY)
63,116 64,74 65,1479 66,121
74,155 75,1004 76,87 77,96
93,244 94,96 102,45 103,412
139,435 140,182 152,43 167,65
168,942 169,180 183,133 195,159
196,491 197,80 215,82 223,160
224,1326 225,191 251,380 269,112
317,82 345,9999 346,2808 347,432
348,66 438,599 439,189 440,68
##END=
