##TITLE=1-Pentene, 3,4-dimethyl-
##JCAMP-DX=4.24
##DATA TYPE=MASS SPECTRUM
##OWNER=NIST Mass Spectrometry Data Center
Collection (C) 2014 copyright by the U.S. Secretary of Commerce
on behalf of the United States of America. All rights reserved.
##CAS REGISTRY NO=7385-78-6
##$NIST MASS SPEC NO=911
##MOLFORM=C7 H14
##MW=98
##$NIST SOURCE=MSDC
##XUNITS=M/Z
##YUNITS=RELATIVE INTENSITY
##XFACTOR=1
##YFACTOR=1
##FIRSTX=12
##LASTX=99
##FIRSTY=20
##MAXX=99
##MINX=12
##MAXY=9999
##MINY=10
##NPOINTS=66
##PEAK TABLE=(XY..XY)
12,20 13,40 14,170 15,1291
16,60 25,20 26,500 27,5835
28,1131 29,2672 30,60 31,10
32,10 36,10 37,130 38,390
39,4254 40,671 41,7257 42,941
43,7397 44,240 45,10 46,10
49,40 50,360 51,581 52,220
53,1181 54,1221 55,8257 56,9999
57,611 58,20 60,10 61,20
62,50 63,110 64,20 65,180
66,90 67,510 68,120 69,981
70,5935 71,350 72,10 73,10
74,20 75,10 76,10 77,90
78,20 79,80 80,20 81,100
82,20 83,1201 84,80 85,10
91,10 95,10 96,10 97,50
98,80 99,10
##END=
