##TITLE=2-Hexene, 5-methyl-, (E)-
##JCAMP-DX=4.24
##DATA TYPE=MASS SPECTRUM
##OWNER=NIST Mass Spectrometry Data Center
Collection (C) 2014 copyright by the U.S. Secretary of Commerce
on behalf of the United States of America. All rights reserved.
##CAS REGISTRY NO=7385-82-2
##$NIST MASS SPEC NO=919
##MOLFORM=C7 H14
##MW=98
##$NIST SOURCE=MSDC
##XUNITS=M/Z
##YUNITS=RELATIVE INTENSITY
##XFACTOR=1
##YFACTOR=1
##FIRSTX=12
##LASTX=100
##FIRSTY=10
##MAXX=100
##MINX=12
##MAXY=9999
##MINY=10
##NPOINTS=77
##PEAK TABLE=(XY..XY)
12,10 13,30 14,90 15,851
16,40 19,10 20,10 24,10
25,10 26,360 27,4334 28,741
29,2252 30,50 31,10 36,10
37,90 38,280 39,3283 40,510
41,6226 42,711 43,7897 44,260
45,10 46,10 47,10 48,10
49,20 50,310 51,490 52,210
53,911 54,1351 55,8217 56,9999
57,891 58,30 59,10 60,10
61,20 62,40 63,90 64,10
65,140 66,70 67,400 68,130
69,1952 70,1431 71,80 72,10
73,10 74,20 75,10 76,10
77,120 78,20 79,90 80,10
81,150 82,30 83,671 84,40
85,10 86,10 87,10 89,10
91,10 92,10 93,10 95,10
96,10 97,80 98,1411 99,110
100,10
##END=
