##TITLE=Acetamide, 2,2,2-trifluoro-N-(phenylmethyl)-
##JCAMP-DX=4.24
##DATA TYPE=MASS SPECTRUM
##OWNER=NIST Mass Spectrometry Data Center
Collection (C) 2014 copyright by the U.S. Secretary of Commerce
on behalf of the United States of America. All rights reserved.
##CAS REGISTRY NO=7387-69-1
##$NIST MASS SPEC NO=28708
##MOLFORM=C9 H8 F3 N O
##MW=203
##$NIST SOURCE=MSDC
##XUNITS=M/Z
##YUNITS=RELATIVE INTENSITY
##XFACTOR=1
##YFACTOR=1
##FIRSTX=41
##LASTX=204
##FIRSTY=250
##MAXX=204
##MINX=41
##MAXY=9999
##MINY=36
##NPOINTS=49
##PEAK TABLE=(XY..XY)
41,250 42,107 43,2071 44,107
45,286 50,679 51,1357 52,357
56,71 57,36 61,286 62,143
63,536 64,143 65,1357 67,286
69,1928 70,214 73,179 74,179
75,179 76,179 77,1393 78,821
79,1964 80,71 88,143 89,857
90,1000 91,8999 92,714 96,286
104,714 105,464 106,357 107,1071
116,214 125,214 126,250 127,71
132,321 133,500 134,2643 135,250
140,71 201,179 202,4214 203,9999
204,1000
##END=
