##TITLE=Isopropylbarbituric acid
##JCAMP-DX=4.24
##DATA TYPE=MASS SPECTRUM
##ORIGIN=NIST Mass Spectrometry Data Center
##OWNER=NIST Mass Spectrometry Data Center
Collection (C) 2014 copyright by the U.S. Secretary of Commerce
on behalf of the United States of America. All rights reserved.
##CAS REGISTRY NO=7391-69-7
##$NIST MASS SPEC NO=343237
##MOLFORM=C7 H10 N2 O3
##MW=170
##$NIST SOURCE=MSDC
##XUNITS=M/Z
##YUNITS=RELATIVE INTENSITY
##XFACTOR=1
##YFACTOR=1
##FIRSTX=15
##LASTX=170
##FIRSTY=510
##MAXX=170
##MINX=15
##MAXY=9999
##MINY=90
##NPOINTS=37
##PEAK TABLE=(XY..XY)
15,510 16,190 17,130 18,110
26,350 27,1682 28,841 29,731
37,190 38,470 39,2662 40,701
41,3493 42,941 43,1661 44,961
51,210 52,190 53,440 54,200
55,741 56,260 61,150 67,280
68,500 69,2122 70,651 82,490
83,981 85,3974 86,290 100,1311
112,290 128,9999 129,1682 155,140
170,90
##END=
