##TITLE=Methane, bromo-
##JCAMP-DX=4.24
##DATA TYPE=MASS SPECTRUM
##OWNER=NIST Mass Spectrometry Data Center
Collection (C) 2014 copyright by the U.S. Secretary of Commerce
on behalf of the United States of America. All rights reserved.
##CAS REGISTRY NO=74-83-9
##$NIST MASS SPEC NO=19630
##MOLFORM=C H3 Br
##MW=94
##$NIST SOURCE=MSDC
##XUNITS=M/Z
##YUNITS=RELATIVE INTENSITY
##XFACTOR=1
##YFACTOR=1
##FIRSTX=12
##LASTX=97
##FIRSTY=50
##MAXX=97
##MINX=12
##MAXY=9999
##MINY=50
##NPOINTS=19
##PEAK TABLE=(XY..XY)
12,50 13,90 14,210 15,4664
16,60 46,140 47,250 48,110
79,631 80,160 81,631 82,160
91,681 92,400 93,2092 94,9999
95,1491 96,9428 97,110
##END=
