##TITLE=Borane, compd. with dimethylamine (1:1)
##JCAMP-DX=4.24
##DATA TYPE=MASS SPECTRUM
##ORIGIN=Japan AIST/NIMC Database- Spectrum MS-NW-8714
##OWNER=NIST Mass Spectrometry Data Center
Collection (C) 2014 copyright by the U.S. Secretary of Commerce
on behalf of the United States of America. All rights reserved.
##CAS REGISTRY NO=74-94-2
##$NIST MASS SPEC NO=234918
##MOLFORM=C2 H10 B N
##MW=59
##$NIST SOURCE=MSDC
##XUNITS=M/Z
##YUNITS=RELATIVE INTENSITY
##XFACTOR=1
##YFACTOR=1
##FIRSTX=10
##LASTX=59
##FIRSTY=10
##MAXX=59
##MINX=10
##MAXY=9999
##MINY=10
##NPOINTS=35
##PEAK TABLE=(XY..XY)
10,10 11,50 12,90 13,269
14,40 15,319 18,379 24,10
25,70 26,319 27,1129 28,1979
29,419 30,909 31,20 37,60
38,219 39,509 40,1699 41,1359
42,3959 43,409 44,4599 45,1769
46,119 50,20 51,70 52,80
53,229 54,879 55,1149 56,2789
57,3509 58,9999 59,339
##END=
