##TITLE=Ethyl bromide
##JCAMP-DX=4.24
##DATA TYPE=MASS SPECTRUM
##ORIGIN=NIST Mass Spectrometry Data Center, 1994
##OWNER=NIST Mass Spectrometry Data Center
Collection (C) 2014 copyright by the U.S. Secretary of Commerce
on behalf of the United States of America. All rights reserved.
##CAS REGISTRY NO=74-96-4
##$NIST MASS SPEC NO=133179
##MOLFORM=C2 H5 Br
##MW=108
##$NIST SOURCE=MSDC
##XUNITS=M/Z
##YUNITS=RELATIVE INTENSITY
##XFACTOR=1
##YFACTOR=1
##FIRSTX=12
##LASTX=111
##FIRSTY=104
##MAXX=111
##MINX=12
##MAXY=9999
##MINY=3
##NPOINTS=29
##PEAK TABLE=(XY..XY)
12,104 13,217 14,391 15,349
16,3 24,205 25,982 26,4357
27,9470 28,2901 29,9999 30,210
31,11 54,53 79,863 80,359
81,840 82,270 83,29 84,9
91,118 92,113 93,436 94,101
95,346 108,6030 109,135 110,5908
111,129
##END=
