##TITLE=Methane, dibromo-
##JCAMP-DX=4.24
##DATA TYPE=MASS SPECTRUM
##ORIGIN=Japan AIST/NIMC Database- Spectrum MS-NW-4074
##OWNER=NIST Mass Spectrometry Data Center
Collection (C) 2014 copyright by the U.S. Secretary of Commerce
on behalf of the United States of America. All rights reserved.
##CAS REGISTRY NO=74-95-3
##$NIST MASS SPEC NO=229033
##MOLFORM=C H2 Br2
##MW=172
##$NIST SOURCE=MSDC
##XUNITS=M/Z
##YUNITS=RELATIVE INTENSITY
##XFACTOR=1
##YFACTOR=1
##FIRSTX=12
##LASTX=177
##FIRSTY=60
##MAXX=177
##MINX=12
##MAXY=9999
##MINY=10
##NPOINTS=29
##PEAK TABLE=(XY..XY)
12,60 13,149 14,389 39,10
40,10 79,1189 80,239 81,1199
82,249 86,60 87,99 88,40
91,1119 92,519 93,9629 94,619
95,8459 96,99 158,20 160,40
162,20 170,40 171,70 172,5109
173,189 174,9999 175,179 176,4749
177,60
##END=
