##TITLE=Butanoic acid, 3-phenylpropyl ester
##JCAMP-DX=4.24
##DATA TYPE=MASS SPECTRUM
##ORIGIN=V.Zaikin,Topchiev Inst.Petrochem.Synth.,Moscow
##OWNER=NIST Mass Spectrometry Data Center
Collection (C) 2014 copyright by the U.S. Secretary of Commerce
on behalf of the United States of America. All rights reserved.
##CAS REGISTRY NO=7402-29-1
##$NIST MASS SPEC NO=282260
##MOLFORM=C13 H18 O2
##MW=206
##$NIST SOURCE=MSDC
##XUNITS=M/Z
##YUNITS=RELATIVE INTENSITY
##XFACTOR=1
##YFACTOR=1
##FIRSTX=26
##LASTX=208
##FIRSTY=30
##MAXX=208
##MINX=26
##MAXY=9999
##MINY=10
##NPOINTS=64
##PEAK TABLE=(XY..XY)
26,30 27,90 28,10 29,20
35,10 36,100 38,30 39,120
40,20 41,220 42,30 43,520
44,40 50,50 51,120 52,70
53,20 55,30 57,20 58,20
60,50 62,10 63,60 64,20
65,240 66,20 69,20 70,20
71,530 72,30 73,30 74,20
75,40 76,30 77,220 78,180
79,170 80,10 85,10 87,10
89,100 90,50 91,2102 92,250
93,30 102,40 103,260 104,160
105,270 106,30 107,20 115,250
116,100 117,7066 118,9999 119,981
120,60 133,20 134,10 135,10
155,10 157,10 206,50 208,50
##END=
