##TITLE=Glycyl-L-glutamic acid
##JCAMP-DX=4.24
##DATA TYPE=MASS SPECTRUM
##ORIGIN=Japan AIST/NIMC Database- Spectrum MS-NW-2381
##OWNER=NIST Mass Spectrometry Data Center
Collection (C) 2014 copyright by the U.S. Secretary of Commerce
on behalf of the United States of America. All rights reserved.
##CAS REGISTRY NO=7412-78-4
##$NIST MASS SPEC NO=230542
##MOLFORM=C7 H12 N2 O5
##MW=204
##$NIST SOURCE=MSDC
##XUNITS=M/Z
##YUNITS=RELATIVE INTENSITY
##XFACTOR=1
##YFACTOR=1
##FIRSTX=12
##LASTX=205
##FIRSTY=30
##MAXX=205
##MINX=12
##MAXY=9999
##MINY=10
##NPOINTS=149
##PEAK TABLE=(XY..XY)
12,30 13,30 14,179 15,229
16,80 17,399 18,1529 24,10
25,60 26,689 27,1949 28,5499
29,1479 30,6499 31,159 32,40
33,10 34,20 36,10 37,109
38,199 39,859 40,499 41,3539
42,2499 43,939 44,1219 45,319
46,40 47,10 50,40 51,119
52,299 53,279 54,1139 55,2679
56,3469 57,629 58,439 59,99
60,159 61,30 62,10 63,10
64,30 65,40 66,139 67,179
68,669 69,1569 70,699 71,139
72,60 73,219 74,179 75,20
76,10 77,30 78,30 79,40
80,60 81,80 82,449 83,2489
84,9999 85,2309 86,319 87,30
91,20 92,30 93,50 94,60
95,359 96,169 97,4429 98,679
99,439 100,70 101,80 102,209
103,20 104,10 105,30 106,20
107,40 108,30 109,60 110,90
111,929 112,709 113,429 114,289
115,409 116,40 117,20 118,10
119,10 120,30 121,20 122,60
123,70 124,109 125,1449 126,3669
127,799 128,60 129,50 130,40
131,10 134,10 135,20 136,20
137,20 138,60 139,719 140,1849
141,179 142,20 143,139 144,40
148,10 149,10 150,50 151,30
152,30 153,20 154,10 157,20
158,10 161,10 163,10 164,20
165,10 166,70 167,30 168,7239
169,669 170,70 177,10 178,10
179,30 180,10 181,10 182,30
184,10 186,259 187,30 204,10
205,20
##END=
