##TITLE=Tyrosine, 3TMS derivative
##JCAMP-DX=4.24
##DATA TYPE=MASS SPECTRUM
##ORIGIN=A.Pleshkova, Nesmeyanov Inst.Org.Elem.Cpds, Moscow
##OWNER=NIST Mass Spectrometry Data Center
Collection (C) 2014 copyright by the U.S. Secretary of Commerce
on behalf of the United States of America. All rights reserved.
##CAS REGISTRY NO=7415-19-2
##$NIST MASS SPEC NO=283848
##MOLFORM=C18 H35 N O3 Si3
##MW=397
##$NIST SOURCE=MSDC
##XUNITS=M/Z
##YUNITS=RELATIVE INTENSITY
##XFACTOR=1
##YFACTOR=1
##FIRSTX=45
##LASTX=385
##FIRSTY=571
##MAXX=385
##MINX=45
##MAXY=9999
##MINY=20
##NPOINTS=41
##PEAK TABLE=(XY..XY)
45,571 46,40 59,430 60,20
73,6095 74,530 75,1071 76,80
77,40 100,530 101,140 147,941
148,160 149,80 150,20 179,4644
180,761 181,210 182,20 208,641
209,80 218,9999 219,1972 220,881
221,120 222,20 280,1401 281,370
282,140 283,20 309,180 310,40
311,20 354,270 355,100 356,40
357,20 382,290 383,100 384,40
385,20
##END=
