##TITLE=Lysine, 3TMS derivative
##JCAMP-DX=4.24
##DATA TYPE=MASS SPECTRUM
##ORIGIN=A.Pleshkova, Nesmeyanov Inst.Org.Elem.Cpds, Moscow
##OWNER=NIST Mass Spectrometry Data Center
Collection (C) 2014 copyright by the U.S. Secretary of Commerce
on behalf of the United States of America. All rights reserved.
##CAS REGISTRY NO=7415-18-1
##$NIST MASS SPEC NO=283867
##MOLFORM=C15 H38 N2 O2 Si3
##MW=362
##$NIST SOURCE=MSDC
##XUNITS=M/Z
##YUNITS=RELATIVE INTENSITY
##XFACTOR=1
##YFACTOR=1
##FIRSTX=45
##LASTX=365
##FIRSTY=1311
##MAXX=365
##MINX=45
##MAXY=9999
##MINY=20
##NPOINTS=55
##PEAK TABLE=(XY..XY)
45,1311 46,70 47,50 57,561
58,40 59,1031 60,70 61,40
73,9659 74,831 75,340 76,20
84,9999 85,891 86,360 87,20
100,821 101,90 102,2572 103,250
104,90 115,761 116,90 117,40
128,941 129,160 130,40 145,561
146,70 147,1792 148,290 149,150
150,20 156,3633 157,340 158,110
159,20 245,110 246,180 247,40
248,20 257,160 258,180 259,40
260,20 271,40 272,20 290,90
291,40 292,20 347,50 362,470
363,160 364,70 365,20
##END=
