##TITLE=2-Ethoxyphenylacetonitrile
##JCAMP-DX=4.24
##DATA TYPE=MASS SPECTRUM
##ORIGIN=NIST Mass Spectrometry Data Center, 1994
##OWNER=NIST Mass Spectrometry Data Center
Collection (C) 2014 copyright by the U.S. Secretary of Commerce
on behalf of the United States of America. All rights reserved.
##CAS REGISTRY NO=74205-51-9
##$NIST MASS SPEC NO=134529
##MOLFORM=C10 H11 N O
##MW=161
##$NIST SOURCE=MSDC
##XUNITS=M/Z
##YUNITS=RELATIVE INTENSITY
##XFACTOR=1
##YFACTOR=1
##FIRSTX=14
##LASTX=162
##FIRSTY=43
##MAXX=162
##MINX=14
##MAXY=9999
##MINY=21
##NPOINTS=64
##PEAK TABLE=(XY..XY)
14,43 15,197 18,46 26,553
27,2698 28,332 29,2057 30,54
37,177 38,556 39,1704 40,172
41,128 42,53 43,145 50,1337
51,2694 52,1062 53,299 54,61
55,70 58,30 61,142 62,456
63,1345 64,446 65,318 66,108
67,21 73,46 74,286 75,457
76,1036 77,3288 78,6902 79,634
80,40 86,63 87,97 88,281
89,1124 90,1520 91,416 92,84
102,152 103,254 104,1554 105,1326
106,3913 107,426 114,179 115,515
116,217 117,60 118,104 119,47
132,1306 133,9999 134,945 135,84
146,315 147,32 161,4009 162,445
##END=
