##TITLE=1,2,4-Methenocyclopenta[cd]pentalene-5-carboxaldehyde, 2,2a,3,3,4,7-hexachlorodecahydro-, (1.alpha.,2.beta.,2a.beta.,4.beta.,4a.beta.,5.beta.,6a.beta.,6b.beta.,7R*)-
##JCAMP-DX=4.24
##DATA TYPE=MASS SPECTRUM
##ORIGIN=NIST Mass Spectrometry Data Center, 1990.
##OWNER=NIST Mass Spectrometry Data Center
Collection (C) 2014 copyright by the U.S. Secretary of Commerce
on behalf of the United States of America. All rights reserved.
##CAS REGISTRY NO=7421-93-4
##$NIST MASS SPEC NO=114997
##MOLFORM=C12 H8 Cl6 O
##MW=378
##$NIST SOURCE=MSDC
##XUNITS=M/Z
##YUNITS=RELATIVE INTENSITY
##XFACTOR=1
##YFACTOR=1
##FIRSTX=27
##LASTX=351
##FIRSTY=421
##MAXX=351
##MINX=27
##MAXY=9999
##MINY=180
##NPOINTS=161
##PEAK TABLE=(XY..XY)
27,421 29,1833 39,1239 40,329
41,553 50,510 51,763 55,254
57,305 61,419 62,648 63,968
65,1547 66,2812 67,9999 68,743
69,362 72,319 73,1530 74,952
75,1398 77,1183 79,685 81,180
83,368 84,469 85,926 86,1031
87,874 89,407 91,236 94,761
95,1477 96,451 97,759 98,556
99,1189 100,410 101,1429 102,385
103,639 104,414 105,463 107,629
108,575 109,1039 110,517 111,1039
112,300 113,751 115,378 117,209
119,334 120,341 121,555 122,459
123,676 125,348 126,299 133,829
134,351 135,728 136,305 137,1107
138,663 139,1327 140,286 141,307
143,364 145,549 146,457 147,1065
148,449 149,1222 150,252 151,485
159,610 161,538 162,390 167,264
169,572 170,364 171,615 172,469
173,2182 174,631 175,891 180,402
181,567 182,665 183,976 184,525
185,1394 186,234 187,916 193,507
194,506 195,485 196,791 197,321
198,415 203,482 204,430 205,491
206,412 207,1071 208,555 209,1889
210,493 211,931 213,301 214,336
215,522 216,464 217,1364 218,423
219,1222 220,299 221,450 229,331
230,309 237,305 242,272 243,1914
244,813 245,1828 246,736 247,747
248,2467 249,464 250,3534 251,941
252,2394 253,776 254,968 255,449
256,631 257,227 258,517 260,259
265,262 277,622 278,285 279,1688
280,434 281,1522 282,311 283,678
307,337 309,399 315,451 317,654
319,395 343,2569 344,405 345,4345
346,561 347,2834 348,353 349,976
351,270
##END=
