##TITLE=Acetaldehyde, dimethylhydrazone
##JCAMP-DX=4.24
##DATA TYPE=MASS SPECTRUM
##ORIGIN=ATLAS OF MASS SPECTRA OF ORGANIC COMPOUNDS, V. A. KOPTYUG, ED.
##OWNER=NIST Mass Spectrometry Data Center
Collection (C) 2014 copyright by the U.S. Secretary of Commerce
on behalf of the United States of America. All rights reserved.
##CAS REGISTRY NO=7422-90-4
##$NIST MASS SPEC NO=64490
##MOLFORM=C4 H10 N2
##MW=86
##$NIST SOURCE=MSDC
##XUNITS=M/Z
##YUNITS=RELATIVE INTENSITY
##XFACTOR=1
##YFACTOR=1
##FIRSTX=27
##LASTX=87
##FIRSTY=1520
##MAXX=87
##MINX=27
##MAXY=9999
##MINY=130
##NPOINTS=20
##PEAK TABLE=(XY..XY)
27,1520 28,3260 29,330 30,3480
39,260 40,610 41,1000 42,7810
43,3260 44,9110 45,1960 55,180
56,940 58,350 71,2610 72,130
83,150 85,3050 86,9999 87,720
##END=
