##TITLE=Hydrazine, 1,1-dibutyl-
##JCAMP-DX=4.24
##DATA TYPE=MASS SPECTRUM
##ORIGIN=ATLAS OF MASS SPECTRA OF ORGANIC COMPOUNDS, V. A. KOPTYUG, ED.
##OWNER=NIST Mass Spectrometry Data Center
Collection (C) 2014 copyright by the U.S. Secretary of Commerce
on behalf of the United States of America. All rights reserved.
##CAS REGISTRY NO=7422-80-2
##$NIST MASS SPEC NO=64434
##MOLFORM=C8 H20 N2
##MW=144
##$NIST SOURCE=MSDC
##XUNITS=M/Z
##YUNITS=RELATIVE INTENSITY
##XFACTOR=1
##YFACTOR=1
##FIRSTX=27
##LASTX=145
##FIRSTY=550
##MAXX=145
##MINX=27
##MAXY=9999
##MINY=100
##NPOINTS=25
##PEAK TABLE=(XY..XY)
27,550 28,300 29,1430 30,350
31,120 39,260 41,1210 42,370
43,480 44,450 45,5130 46,290
55,200 56,120 57,1410 58,180
59,1520 70,120 84,160 86,120
87,100 101,9999 102,1010 144,1770
145,290
##END=
