##TITLE=Acetaldehyde, diethylhydrazone
##JCAMP-DX=4.24
##DATA TYPE=MASS SPECTRUM
##ORIGIN=ATLAS OF MASS SPECTRA OF ORGANIC COMPOUNDS, V. A. KOPTYUG, ED.
##OWNER=NIST Mass Spectrometry Data Center
Collection (C) 2014 copyright by the U.S. Secretary of Commerce
on behalf of the United States of America. All rights reserved.
##CAS REGISTRY NO=7422-91-5
##$NIST MASS SPEC NO=64493
##MOLFORM=C6 H14 N2
##MW=114
##$NIST SOURCE=MSDC
##XUNITS=M/Z
##YUNITS=RELATIVE INTENSITY
##XFACTOR=1
##YFACTOR=1
##FIRSTX=26
##LASTX=115
##FIRSTY=300
##MAXX=115
##MINX=26
##MAXY=9999
##MINY=80
##NPOINTS=27
##PEAK TABLE=(XY..XY)
26,300 27,1600 28,1950 29,3250
30,4100 31,100 39,90 40,160
41,480 42,2700 43,320 44,1800
54,80 55,110 56,2000 57,480
58,900 69,90 70,450 71,1800
72,150 85,180 99,9999 100,620
113,300 114,3800 115,320
##END=
