##TITLE=2-Butenal, dimethylhydrazone
##JCAMP-DX=4.24
##DATA TYPE=MASS SPECTRUM
##ORIGIN=ATLAS OF MASS SPECTRA OF ORGANIC COMPOUNDS, V. A. KOPTYUG, ED.
##OWNER=NIST Mass Spectrometry Data Center
Collection (C) 2014 copyright by the U.S. Secretary of Commerce
on behalf of the United States of America. All rights reserved.
##CAS REGISTRY NO=7422-95-9
##$NIST MASS SPEC NO=64534
##MOLFORM=C6 H12 N2
##MW=112
##$NIST SOURCE=MSDC
##XUNITS=M/Z
##YUNITS=RELATIVE INTENSITY
##XFACTOR=1
##YFACTOR=1
##FIRSTX=28
##LASTX=113
##FIRSTY=4770
##MAXX=113
##MINX=28
##MAXY=9999
##MINY=120
##NPOINTS=42
##PEAK TABLE=(XY..XY)
28,4770 29,870 30,2130 37,210
38,520 39,3480 40,610 41,5110
42,7810 43,4770 44,7400 45,2830
46,1170 50,190 51,390 52,270
53,1480 54,960 55,650 56,4350
57,1000 58,780 59,740 67,2350
68,6950 69,3130 70,3610 71,480
80,430 81,460 82,1300 83,760
84,930 85,120 94,170 95,410
96,430 97,3000 98,200 111,650
112,9999 113,1000
##END=
