##TITLE=Hydrazine, 2-propenyl-
##JCAMP-DX=4.24
##DATA TYPE=MASS SPECTRUM
##ORIGIN=ATLAS OF MASS SPECTRA OF ORGANIC COMPOUNDS, V. A. KOPTYUG, ED.
##OWNER=NIST Mass Spectrometry Data Center
Collection (C) 2014 copyright by the U.S. Secretary of Commerce
on behalf of the United States of America. All rights reserved.
##CAS REGISTRY NO=7422-78-8
##$NIST MASS SPEC NO=64417
##MOLFORM=C3 H8 N2
##MW=72
##$NIST SOURCE=MSDC
##XUNITS=M/Z
##YUNITS=RELATIVE INTENSITY
##XFACTOR=1
##YFACTOR=1
##FIRSTX=27
##LASTX=73
##FIRSTY=1950
##MAXX=73
##MINX=27
##MAXY=9999
##MINY=280
##NPOINTS=21
##PEAK TABLE=(XY..XY)
27,1950 28,2640 29,940 30,1520
31,9999 38,430 39,2900 40,420
41,3030 42,910 43,1910 44,1430
45,4390 52,280 54,1230 55,1440
56,1180 57,410 71,820 72,5430
73,460
##END=
