##TITLE=2-Propanone, (1-methylethyl)hydrazone
##JCAMP-DX=4.24
##DATA TYPE=MASS SPECTRUM
##ORIGIN=ATLAS OF MASS SPECTRA OF ORGANIC COMPOUNDS, V. A. KOPTYUG, ED.
##OWNER=NIST Mass Spectrometry Data Center
Collection (C) 2014 copyright by the U.S. Secretary of Commerce
on behalf of the United States of America. All rights reserved.
##CAS REGISTRY NO=7423-01-0
##$NIST MASS SPEC NO=64486
##MOLFORM=C6 H14 N2
##MW=114
##$NIST SOURCE=MSDC
##XUNITS=M/Z
##YUNITS=RELATIVE INTENSITY
##XFACTOR=1
##YFACTOR=1
##FIRSTX=27
##LASTX=115
##FIRSTY=1140
##MAXX=115
##MINX=27
##MAXY=9999
##MINY=70
##NPOINTS=26
##PEAK TABLE=(XY..XY)
27,1140 28,1690 29,690 30,1290
31,290 32,290 39,970 40,340
41,1970 42,2170 43,1200 44,940
54,370 55,690 56,9999 57,1740
58,1110 71,570 72,460 82,100
83,90 99,8860 100,70 113,180
114,3150 115,310
##END=
