##TITLE=2-Propanone, propylhydrazone
##JCAMP-DX=4.24
##DATA TYPE=MASS SPECTRUM
##ORIGIN=ATLAS OF MASS SPECTRA OF ORGANIC COMPOUNDS, V. A. KOPTYUG, ED.
##OWNER=NIST Mass Spectrometry Data Center
Collection (C) 2014 copyright by the U.S. Secretary of Commerce
on behalf of the United States of America. All rights reserved.
##CAS REGISTRY NO=7423-00-9
##$NIST MASS SPEC NO=64485
##MOLFORM=C6 H14 N2
##MW=114
##$NIST SOURCE=MSDC
##XUNITS=M/Z
##YUNITS=RELATIVE INTENSITY
##XFACTOR=1
##YFACTOR=1
##FIRSTX=27
##LASTX=115
##FIRSTY=990
##MAXX=115
##MINX=27
##MAXY=9999
##MINY=60
##NPOINTS=26
##PEAK TABLE=(XY..XY)
27,990 28,1550 29,800 30,1270
31,170 32,110 39,710 40,250
41,1270 42,1200 43,560 44,150
54,300 55,210 56,9999 57,690
58,390 71,210 72,560 83,130
85,9150 86,560 99,150 113,60
114,2680 115,340
##END=
