##TITLE=1,6-Anhydro-.beta.-D-glucofuranose
##JCAMP-DX=4.24
##DATA TYPE=MASS SPECTRUM
##ORIGIN=W.E. FRANKLIN, SOUTH. REG. RES. CENT., NEW ORLEANS, LA., USA
##OWNER=NIST Mass Spectrometry Data Center
Collection (C) 2014 copyright by the U.S. Secretary of Commerce
on behalf of the United States of America. All rights reserved.
##CAS REGISTRY NO=7425-74-3
##$NIST MASS SPEC NO=98149
##MOLFORM=C6 H10 O5
##MW=162
##$NIST SOURCE=MSDC
##XUNITS=M/Z
##YUNITS=RELATIVE INTENSITY
##XFACTOR=1
##YFACTOR=1
##FIRSTX=14
##LASTX=127
##FIRSTY=18
##MAXX=127
##MINX=14
##MAXY=9999
##MINY=2
##NPOINTS=51
##PEAK TABLE=(XY..XY)
14,18 15,404 19,1080 26,53
27,619 28,1169 29,1687 30,149
31,1159 39,304 41,751 42,563
43,2278 44,3026 45,1494 47,265
53,33 54,53 55,590 56,338
57,1269 58,99 59,25 60,452
61,2063 68,6 69,3152 70,1287
71,816 72,203 73,9999 74,794
81,12 83,284 84,18 85,2048
86,372 87,14 89,263 91,169
95,4 97,193 98,491 99,13
101,182 102,64 103,208 111,2
115,784 119,246 127,2
##END=
