##TITLE=Ethanol, 2,2'-[1,4-butanediylbis(thio)]bis-
##JCAMP-DX=4.24
##DATA TYPE=MASS SPECTRUM
##ORIGIN=VERIFINN
##OWNER=NIST Mass Spectrometry Data Center
Collection (C) 2014 copyright by the U.S. Secretary of Commerce
on behalf of the United States of America. All rights reserved.
##CAS REGISTRY NO=7425-93-6
##$NIST MASS SPEC NO=289554
##MOLFORM=C8 H18 O2 S2
##MW=210
##$NIST SOURCE=MSDC
##XUNITS=M/Z
##YUNITS=RELATIVE INTENSITY
##XFACTOR=1
##YFACTOR=1
##FIRSTX=27
##LASTX=210
##FIRSTY=3503
##MAXX=210
##MINX=27
##MAXY=9999
##MINY=70
##NPOINTS=58
##PEAK TABLE=(XY..XY)
27,3503 29,3013 31,2412 39,1031
41,1631 43,8047 45,9579 46,1722
47,3733 53,1041 55,7557 59,2152
60,3413 61,9999 63,440 67,510
71,400 73,1511 75,561 77,711
79,961 85,1381 86,1121 87,8247
88,4244 89,3433 91,7997 93,500
101,581 103,721 104,340 105,250
113,120 115,4484 116,320 117,360
119,1021 120,380 121,2012 123,220
131,410 133,4604 134,90 135,851
137,70 147,751 148,150 149,100
151,1942 153,140 165,8638 166,951
167,881 168,100 192,1581 193,140
194,140 210,601
##END=
