##TITLE=Cyclohexane,1,2-dibromo-,trans-
##JCAMP-DX=4.24
##DATA TYPE=MASS SPECTRUM
##ORIGIN=Chuck Anderson, Aldrich Chemical Co.
##OWNER=NIST Mass Spectrometry Data Center
Collection (C) 2014 copyright by the U.S. Secretary of Commerce
on behalf of the United States of America. All rights reserved.
##CAS REGISTRY NO=7429-37-0
##$NIST MASS SPEC NO=107692
##MOLFORM=C6 H10 Br2
##MW=240
##$NIST SOURCE=MSDC
##XUNITS=M/Z
##YUNITS=RELATIVE INTENSITY
##XFACTOR=1
##YFACTOR=1
##FIRSTX=14
##LASTX=245
##FIRSTY=3
##MAXX=245
##MINX=14
##MAXY=9999
##MINY=2
##NPOINTS=75
##PEAK TABLE=(XY..XY)
14,3 15,20 25,6 26,133
27,820 28,183 29,209 30,5
36,8 37,37 38,113 39,1008
40,148 41,809 42,44 43,6
44,2 49,17 50,160 51,267
52,138 53,734 54,312 55,263
56,14 61,7 62,16 63,44
64,8 65,172 66,96 67,267
68,17 73,8 74,23 75,11
76,8 77,350 78,76 79,1581
80,191 81,9999 82,670 83,31
93,27 95,27 104,4 105,19
106,17 107,45 108,15 109,29
117,12 119,150 120,6 121,146
122,6 131,10 132,10 133,24
134,11 135,18 145,9 147,8
160,6 161,1295 162,77 163,1189
164,74 186,4 240,45 242,81
243,5 244,39 245,4
##END=
