##TITLE=2-Methoxycyclohexanone
##JCAMP-DX=4.24
##DATA TYPE=MASS SPECTRUM
##ORIGIN=Japan AIST/NIMC Database- Spectrum MS-IW-1310
##OWNER=NIST Mass Spectrometry Data Center
Collection (C) 2014 copyright by the U.S. Secretary of Commerce
on behalf of the United States of America. All rights reserved.
##CAS REGISTRY NO=7429-44-9
##$NIST MASS SPEC NO=239615
##MOLFORM=C7 H12 O2
##MW=128
##$NIST SOURCE=MSDC
##XUNITS=M/Z
##YUNITS=RELATIVE INTENSITY
##XFACTOR=1
##YFACTOR=1
##FIRSTX=14
##LASTX=130
##FIRSTY=10
##MAXX=130
##MINX=14
##MAXY=9999
##MINY=10
##NPOINTS=62
##PEAK TABLE=(XY..XY)
14,10 15,159 26,70 27,599
28,369 29,699 30,40 31,119
32,20 33,20 37,10 38,50
39,669 40,149 41,2609 42,539
43,469 44,50 45,639 46,10
50,30 51,50 52,20 53,189
54,50 55,479 56,90 57,499
58,1159 59,70 63,10 65,40
66,20 67,409 68,369 69,309
70,99 71,9999 72,789 73,50
74,20 77,10 79,20 81,10
83,50 84,4249 85,469 86,30
87,40 95,20 96,30 97,60
98,2229 99,219 100,199 101,20
111,10 126,10 127,10 128,1159
129,159 130,10
##END=
