##TITLE=3-Chlropropionic acid, undecyl ester
##JCAMP-DX=4.24
##DATA TYPE=MASS SPECTRUM
##ORIGIN=Zaikin V.G., TIPS RAS, Moscow, Russia
##OWNER=NIST Mass Spectrometry Data Center
Collection (C) 2014 copyright by the U.S. Secretary of Commerce
on behalf of the United States of America. All rights reserved.
##CAS REGISTRY NO=74306-07-3
##$NIST MASS SPEC NO=283048
##MOLFORM=C14 H27 Cl O2
##MW=262
##$NIST SOURCE=MSDC
##XUNITS=M/Z
##YUNITS=RELATIVE INTENSITY
##XFACTOR=1
##YFACTOR=1
##FIRSTX=25
##LASTX=263
##FIRSTY=40
##MAXX=263
##MINX=25
##MAXY=9999
##MINY=10
##NPOINTS=140
##PEAK TABLE=(XY..XY)
25,40 26,280 27,1421 28,30
29,1501 30,70 31,60 35,40
36,330 37,40 38,160 39,721
40,210 41,4604 42,2012 43,6226
44,380 45,100 49,30 50,50
51,70 52,90 53,320 54,881
55,7887 56,7607 57,5475 58,220
61,20 62,80 63,2893 64,90
65,921 66,100 67,1201 68,2632
69,9138 70,9178 71,2562 72,240
73,1231 74,80 75,20 77,50
78,30 79,230 80,60 81,571
82,3723 83,9999 84,6716 85,1591
86,90 87,30 89,40 90,40
91,6376 92,210 93,1842 94,80
95,270 96,1231 97,8107 98,3413
99,380 100,30 101,70 105,10
106,100 107,30 108,160 109,9759
110,821 111,6256 112,1852 113,310
114,50 115,50 119,100 120,10
121,130 122,20 123,100 124,220
125,1491 126,4504 127,540 128,70
129,350 130,30 132,10 133,20
134,10 135,110 136,20 137,40
138,20 139,40 140,20 141,40
142,20 143,60 145,30 146,210
147,30 148,80 149,190 150,40
151,60 152,70 153,30 154,2232
155,350 156,20 159,60 160,20
161,20 162,10 163,20 164,300
165,30 166,90 167,20 169,40
171,70 172,10 173,10 174,10
176,10 177,10 178,20 179,10
181,20 190,20 197,30 199,180
200,20 227,480 228,80 263,10
##END=
