##TITLE=3-Chloropropionic acid, heptyl ester
##JCAMP-DX=4.24
##DATA TYPE=MASS SPECTRUM
##ORIGIN=V.Zaikin,Topchiev Inst.Petrochem.Synth.,Moscow
##OWNER=NIST Mass Spectrometry Data Center
Collection (C) 2014 copyright by the U.S. Secretary of Commerce
on behalf of the United States of America. All rights reserved.
##CAS REGISTRY NO=74306-04-0
##$NIST MASS SPEC NO=281769
##MOLFORM=C10 H19 Cl O2
##MW=206
##$NIST SOURCE=MSDC
##XUNITS=M/Z
##YUNITS=RELATIVE INTENSITY
##XFACTOR=1
##YFACTOR=1
##FIRSTX=27
##LASTX=151
##FIRSTY=1541
##MAXX=151
##MINX=27
##MAXY=9999
##MINY=20
##NPOINTS=69
##PEAK TABLE=(XY..XY)
27,1541 28,821 29,2622 30,50
31,80 32,30 36,60 38,30
39,1041 40,140 41,3503 42,2602
43,2642 44,460 45,150 49,100
50,110 51,90 53,170 54,701
55,5535 56,9719 57,4094 58,160
61,60 62,110 63,3924 64,120
65,1461 66,70 67,320 68,1241
69,4914 70,9999 71,671 72,40
73,561 74,40 76,20 77,30
81,120 82,50 83,791 84,140
85,100 89,40 91,5005 92,120
93,1431 94,70 95,30 96,100
97,390 98,2883 99,270 106,30
108,70 109,2392 110,70 111,751
112,30 113,100 115,50 121,100
123,40 135,100 137,30 149,90
151,30
##END=
