##TITLE=3-Chloropropionic acid, dodecyl ester
##JCAMP-DX=4.24
##DATA TYPE=MASS SPECTRUM
##ORIGIN=V.Zaikin,Topchiev Inst.Petrochem.Synth.,Moscow
##OWNER=NIST Mass Spectrometry Data Center
Collection (C) 2014 copyright by the U.S. Secretary of Commerce
on behalf of the United States of America. All rights reserved.
##CAS REGISTRY NO=74316-16-8
##$NIST MASS SPEC NO=281773
##MOLFORM=C15 H29 Cl O2
##MW=276
##$NIST SOURCE=MSDC
##XUNITS=M/Z
##YUNITS=RELATIVE INTENSITY
##XFACTOR=1
##YFACTOR=1
##FIRSTX=27
##LASTX=242
##FIRSTY=2642
##MAXX=242
##MINX=27
##MAXY=9999
##MINY=20
##NPOINTS=119
##PEAK TABLE=(XY..XY)
27,2642 28,741 29,4154 30,80
31,160 35,20 36,150 37,70
38,70 39,1541 40,360 41,8408
42,2883 43,8928 44,771 45,170
49,40 50,60 51,100 52,40
53,571 54,1281 55,9999 56,6566
57,6296 58,280 59,30 60,20
61,60 62,110 63,3753 64,130
65,1551 66,140 67,1331 68,2522
69,7557 70,5965 71,2833 72,210
73,1001 74,80 76,30 77,40
78,20 79,110 80,50 81,591
82,3163 83,7457 84,4494 85,1401
86,130 87,40 89,60 90,60
91,4644 92,210 93,1601 94,100
95,250 96,1071 97,4964 98,2732
99,420 100,40 101,40 103,40
104,20 105,20 106,40 107,40
108,140 109,5785 110,671 111,4304
112,1421 113,380 114,40 115,60
117,20 119,80 121,110 122,40
123,60 124,130 125,921 126,761
127,260 128,40 129,100 134,20
135,50 137,50 138,100 139,290
140,2012 141,250 142,20 143,40
146,50 148,40 149,90 150,50
151,40 159,50 161,30 164,190
166,110 167,40 168,1191 169,220
178,20 185,30 186,30 211,20
213,50 241,240 242,40
##END=
