##TITLE=Nitrobenzene, 4-(2-cyano-2-phenylethenyl)
##JCAMP-DX=4.24
##DATA TYPE=MASS SPECTRUM
##ORIGIN=USAF ACADEMY, COLORADO SPRINGS, COLORADO 80840, J LLOYD PFLUG
##OWNER=NIST Mass Spectrometry Data Center
Collection (C) 2014 copyright by the U.S. Secretary of Commerce
on behalf of the United States of America. All rights reserved.
##CAS REGISTRY NO=7431-35-8
##$NIST MASS SPEC NO=79968
##MOLFORM=C15 H10 N2 O2
##MW=250
##$NIST SOURCE=MSDC
##XUNITS=M/Z
##YUNITS=RELATIVE INTENSITY
##XFACTOR=1
##YFACTOR=1
##FIRSTX=15
##LASTX=252
##FIRSTY=106
##MAXX=252
##MINX=15
##MAXY=9999
##MINY=31
##NPOINTS=78
##PEAK TABLE=(XY..XY)
15,106 17,31 18,63 27,201
30,456 38,127 39,488 50,616
51,1115 52,265 62,393 63,754
64,201 65,138 74,446 75,1126
76,626 77,871 78,255 82,127
86,191 87,765 88,2540 89,563
96,127 97,148 98,170 99,255
100,255 101,531 102,584 103,106
110,116 111,106 113,191 114,180
115,159 125,191 126,403 127,276
137,116 138,116 139,265 140,286
149,180 150,669 151,1137 152,626
153,276 163,212 164,531 165,1519
166,308 174,201 175,754 176,2773
177,2231 178,520 188,106 190,541
191,403 192,350 201,658 202,1200
203,6238 204,3804 205,648 207,106
218,106 219,488 220,754 221,138
233,563 234,201 249,329 250,9999
251,1700 252,233
##END=
