##TITLE=2,3,3',4-Tetrachloro-1,1'-biphenyl
##JCAMP-DX=4.24
##DATA TYPE=MASS SPECTRUM
##ORIGIN=Organic Synthesis Lab, MSU, Moscow.TRC 1332
##OWNER=NIST Mass Spectrometry Data Center
Collection (C) 2014 copyright by the U.S. Secretary of Commerce
on behalf of the United States of America. All rights reserved.
##CAS REGISTRY NO=74338-24-2
##$NIST MASS SPEC NO=326693
##MOLFORM=C12 H6 Cl4
##MW=290
##$NIST SOURCE=MSDC
##XUNITS=M/Z
##YUNITS=RELATIVE INTENSITY
##XFACTOR=1
##YFACTOR=1
##FIRSTX=43
##LASTX=298
##FIRSTY=22
##MAXX=298
##MINX=43
##MAXY=9999
##MINY=16
##NPOINTS=120
##PEAK TABLE=(XY..XY)
43,22 44,99 47,36 49,88
50,269 51,209 52,28 55,29
56,20 60,40 61,214 62,297
63,147 71,32 72,61 73,261
74,516 75,563 76,67 79,82
80,49 84,149 85,187 86,168
87,120 91,87 92,619 96,65
97,194 98,328 99,276 100,58
101,71 107,53 108,148 109,379
110,1078 111,808 112,122 113,24
114,35 115,53 116,33 120,56
121,82 122,179 123,232 124,66
125,36 127,339 128,351 129,146
130,28 132,53 133,94 134,50
135,70 136,102 137,31 138,41
143,35 144,29 145,227 146,331
147,208 148,124 149,369 150,1093
151,132 156,19 157,37 158,47
159,74 160,67 161,27 170,32
171,51 172,58 173,26 180,25
181,23 182,36 183,60 184,104
185,590 186,523 187,287 188,32
193,32 194,77 195,41 196,66
204,26 206,29 207,23 218,61
219,185 220,3853 221,548 222,2695
223,324 224,445 225,58 230,25
232,16 254,231 255,119 256,336
257,81 258,107 288,20 290,7921
291,1072 292,9999 293,1383 294,4998
295,683 296,1208 297,143 298,70
##END=
