##TITLE=Trichloroacetic acid, undecyl ester
##JCAMP-DX=4.24
##DATA TYPE=MASS SPECTRUM
##ORIGIN=Zaikin V.G., TIPS RAS, Moscow, Russia
##OWNER=NIST Mass Spectrometry Data Center
Collection (C) 2014 copyright by the U.S. Secretary of Commerce
on behalf of the United States of America. All rights reserved.
##CAS REGISTRY NO=74339-49-4
##$NIST MASS SPEC NO=282922
##MOLFORM=C13 H23 Cl3 O2
##MW=316
##$NIST SOURCE=MSDC
##XUNITS=M/Z
##YUNITS=RELATIVE INTENSITY
##XFACTOR=1
##YFACTOR=1
##FIRSTX=25
##LASTX=205
##FIRSTY=20
##MAXX=205
##MINX=25
##MAXY=9999
##MINY=10
##NPOINTS=112
##PEAK TABLE=(XY..XY)
25,20 26,150 27,761 28,20
29,1712 30,50 31,20 35,120
36,781 37,60 38,320 39,801
40,230 41,5665 42,1892 43,9028
44,611 45,40 47,110 48,50
49,60 50,60 51,60 52,50
53,370 54,751 55,8878 56,6456
57,9999 58,390 63,40 65,80
66,80 67,1021 68,2302 69,9218
70,7126 71,4624 72,240 73,10
75,10 76,90 77,50 78,50
79,140 80,50 81,470 82,3313
83,9969 84,5665 85,3793 86,270
87,40 91,50 92,10 93,30
94,30 95,220 96,781 97,8498
98,2722 99,771 100,50 101,20
105,20 107,10 109,60 110,811
111,2803 112,1391 113,330 114,80
115,10 117,1201 118,10 119,1181
120,20 121,390 123,60 124,100
125,751 126,2052 127,270 128,220
129,70 130,130 131,30 132,20
133,20 134,10 135,30 139,10
145,40 147,60 149,20 151,10
152,50 153,120 154,781 155,110
163,70 165,80 167,20 169,10
177,10 181,60 189,10 191,10
199,220 200,20 203,30 205,30
##END=
