##TITLE=Trichloroacetic acid, hexadecyl ester
##JCAMP-DX=4.24
##DATA TYPE=MASS SPECTRUM
##ORIGIN=V.G.Zaikin, Petrochem. Synth. Inst., Moscow
##OWNER=NIST Mass Spectrometry Data Center
Collection (C) 2014 copyright by the U.S. Secretary of Commerce
on behalf of the United States of America. All rights reserved.
##CAS REGISTRY NO=74339-54-1
##$NIST MASS SPEC NO=280518
##MOLFORM=C18 H33 Cl3 O2
##MW=386
##$NIST SOURCE=MSDC
##XUNITS=M/Z
##YUNITS=RELATIVE INTENSITY
##XFACTOR=1
##YFACTOR=1
##FIRSTX=26
##LASTX=225
##FIRSTY=190
##MAXX=225
##MINX=26
##MAXY=9999
##MINY=20
##NPOINTS=97
##PEAK TABLE=(XY..XY)
26,190 27,1191 28,410 29,2292
30,90 31,60 35,190 36,1071
37,120 38,510 39,1421 40,480
41,7237 42,2252 43,9999 44,1481
45,60 47,180 48,60 49,180
50,190 51,190 52,110 53,581
54,1151 55,8498 56,4414 57,9959
58,550 59,60 61,50 63,130
64,50 65,130 66,180 67,1191
68,1792 69,7357 70,3914 71,5195
72,290 75,80 76,100 77,170
78,110 79,170 80,110 81,751
82,1992 83,7196 84,2512 85,2863
86,180 91,160 93,130 95,510
96,861 97,6055 98,1491 99,721
100,80 105,160 109,180 110,510
111,3183 112,1111 113,460 117,460
118,50 119,430 120,60 121,190
124,130 125,1451 126,510 127,290
128,220 130,120 138,110 139,591
140,320 141,220 152,60 153,380
154,200 155,200 166,50 167,180
168,150 169,50 181,130 182,80
196,210 197,60 223,30 224,110
225,20
##END=
