##TITLE=Hexanoic acid, 2-ethyl-, 2-methylpropyl ester
##JCAMP-DX=4.24
##DATA TYPE=MASS SPECTRUM
##ORIGIN=Japan AIST/NIMC Database- Spectrum MS-IW-3552
##OWNER=NIST Mass Spectrometry Data Center
Collection (C) 2014 copyright by the U.S. Secretary of Commerce
on behalf of the United States of America. All rights reserved.
##CAS REGISTRY NO=7434-89-1
##$NIST MASS SPEC NO=236366
##MOLFORM=C12 H24 O2
##MW=200
##$NIST SOURCE=MSDC
##XUNITS=M/Z
##YUNITS=RELATIVE INTENSITY
##XFACTOR=1
##YFACTOR=1
##FIRSTX=15
##LASTX=200
##FIRSTY=30
##MAXX=200
##MINX=15
##MAXY=9999
##MINY=10
##NPOINTS=93
##PEAK TABLE=(XY..XY)
15,30 18,20 26,30 27,939
28,209 29,2269 30,50 31,90
33,10 38,20 39,729 40,139
41,3859 42,539 43,2519 44,90
45,199 47,20 50,10 51,20
52,10 53,179 54,90 55,2039
56,5239 57,9999 58,719 59,149
60,30 65,20 66,10 67,80
68,70 69,489 70,579 71,239
72,50 73,2049 74,129 75,30
77,10 79,10 80,10 81,40
82,20 83,209 84,30 85,129
86,20 87,1289 88,6439 89,999
90,60 91,10 95,10 96,10
97,239 98,239 99,2999 100,239
101,1259 102,99 103,139 104,10
109,30 111,30 113,40 114,139
115,929 116,1219 117,319 118,20
125,30 126,20 127,6369 128,579
129,219 130,99 131,10 142,10
143,99 144,2159 145,7039 146,639
147,50 157,80 158,30 170,10
171,30 172,379 173,40 185,40
200,10
##END=
