##TITLE=2,3,5,6-Tetramethylbenzyl chloride
##JCAMP-DX=4.24
##DATA TYPE=MASS SPECTRUM
##ORIGIN=NIST Mass Spectrometry Data Center
##OWNER=NIST Mass Spectrometry Data Center
Collection (C) 2014 copyright by the U.S. Secretary of Commerce
on behalf of the United States of America. All rights reserved.
##CAS REGISTRY NO=7435-83-8
##$NIST MASS SPEC NO=342609
##MOLFORM=C11 H15 Cl
##MW=182
##$NIST SOURCE=MSDC
##XUNITS=M/Z
##YUNITS=RELATIVE INTENSITY
##XFACTOR=1
##YFACTOR=1
##FIRSTX=12
##LASTX=185
##FIRSTY=40
##MAXX=185
##MINX=12
##MAXY=9999
##MINY=10
##NPOINTS=77
##PEAK TABLE=(XY..XY)
12,40 14,10 15,390 16,70
18,80 27,971 35,60 36,60
37,90 38,300 39,1962 40,280
41,1011 42,50 49,110 50,520
51,1421 52,490 53,831 54,100
55,340 56,30 58,290 59,50
61,80 62,290 63,691 64,500
65,911 66,230 67,110 69,60
71,420 72,140 73,250 75,220
77,1201 78,360 79,470 87,90
89,340 91,2052 92,210 93,110
101,50 102,210 103,410 104,160
105,871 106,90 107,210 113,50
115,1531 116,711 117,981 118,180
119,821 120,100 126,40 127,200
128,520 129,500 130,250 131,871
132,470 133,601 134,50 141,40
145,370 147,9999 148,1471 149,90
167,90 182,1531 183,250 184,490
185,60
##END=
