##TITLE=1H-Indole-1-acetic acid, TMS derivative
##JCAMP-DX=4.24
##DATA TYPE=MASS SPECTRUM
##ORIGIN=R.S.BANDURSKI MICHIGAN STATE UNIV., EAST LANSING, MICH., USA
##OWNER=NIST Mass Spectrometry Data Center
Collection (C) 2014 copyright by the U.S. Secretary of Commerce
on behalf of the United States of America. All rights reserved.
##CAS REGISTRY NO=74367-53-6
##$NIST MASS SPEC NO=68503
##MOLFORM=C13 H17 N O2 Si
##MW=247
##$NIST SOURCE=MSDC
##XUNITS=M/Z
##YUNITS=RELATIVE INTENSITY
##XFACTOR=1
##YFACTOR=1
##FIRSTX=30
##LASTX=250
##FIRSTY=40
##MAXX=250
##MINX=30
##MAXY=9999
##MINY=10
##NPOINTS=95
##PEAK TABLE=(XY..XY)
30,40 31,30 38,20 39,120
40,20 41,80 42,90 43,210
44,170 45,910 46,30 47,160
48,10 50,100 51,270 52,80
53,30 55,50 57,10 58,80
59,20 60,30 61,60 62,50
63,200 64,30 65,60 70,20
72,130 73,6430 74,600 75,1030
76,160 77,1430 78,110 86,10
87,30 88,50 89,150 90,60
91,30 100,10 101,160 102,380
103,940 104,100 105,20 106,50
107,20 114,10 115,30 116,500
117,100 118,20 127,20 128,250
129,570 130,9999 131,1160 132,40
133,10 142,20 143,30 144,100
145,40 146,10 147,60 148,10
156,20 157,20 158,20 159,10
170,20 171,10 172,30 174,100
175,10 186,20 187,10 188,190
189,40 190,10 200,20 201,20
202,1330 203,250 204,190 232,880
233,130 234,30 246,20 247,3240
248,640 249,150 250,20
##END=
