##TITLE=1H-Indene, 2,3-dihydro-5-nitro-
##JCAMP-DX=4.24
##DATA TYPE=MASS SPECTRUM
##ORIGIN=Japan AIST/NIMC Database- Spectrum MS-NW-6789
##OWNER=NIST Mass Spectrometry Data Center
Collection (C) 2014 copyright by the U.S. Secretary of Commerce
on behalf of the United States of America. All rights reserved.
##CAS REGISTRY NO=7436-07-9
##$NIST MASS SPEC NO=235478
##MOLFORM=C9 H9 N O2
##MW=163
##$NIST SOURCE=MSDC
##XUNITS=M/Z
##YUNITS=RELATIVE INTENSITY
##XFACTOR=1
##YFACTOR=1
##FIRSTX=14
##LASTX=165
##FIRSTY=10
##MAXX=165
##MINX=14
##MAXY=9999
##MINY=10
##NPOINTS=94
##PEAK TABLE=(XY..XY)
14,10 15,10 16,10 26,60
27,439 28,169 29,10 30,289
37,80 38,219 39,1709 40,139
41,269 42,10 43,30 44,90
46,99 49,30 50,559 51,1059
52,279 53,199 54,10 55,269
56,20 57,179 58,90 60,10
61,139 62,559 63,1499 64,269
65,1089 66,109 67,30 73,30
74,279 75,309 76,259 77,779
78,349 79,459 80,30 81,10
84,10 85,70 86,179 87,229
88,139 89,919 90,169 91,3339
92,279 93,20 97,10 98,30
99,20 100,10 101,70 102,549
103,389 104,149 105,1279 106,149
107,20 109,20 110,30 111,10
112,10 113,139 114,199 115,8299
116,5299 117,7099 118,749 119,40
128,30 129,10 130,119 131,149
132,219 133,1169 134,129 135,10
144,20 145,99 146,3649 147,599
148,50 161,20 162,249 163,9999
164,1029 165,99
##END=
