##TITLE=Nonadecanoic acid, TMS derivative
##JCAMP-DX=4.24
##DATA TYPE=MASS SPECTRUM
##ORIGIN=NIST Mass Spectrometry Data Center
##OWNER=NIST Mass Spectrometry Data Center
Collection (C) 2014 copyright by the U.S. Secretary of Commerce
on behalf of the United States of America. All rights reserved.
##CAS REGISTRY NO=74367-35-4
##$NIST MASS SPEC NO=352591
##MOLFORM=C22 H46 O2 Si
##MW=370
##$NIST SOURCE=MSDC
##XUNITS=M/Z
##YUNITS=RELATIVE INTENSITY
##XFACTOR=1
##YFACTOR=1
##FIRSTX=15
##LASTX=373
##FIRSTY=10
##MAXX=373
##MINX=15
##MAXY=9999
##MINY=10
##NPOINTS=202
##PEAK TABLE=(XY..XY)
15,10 26,20 27,210 29,681
30,10 31,10 34,10 37,10
39,210 40,50 41,2242 42,510
43,3843 44,220 45,561 46,40
47,250 48,10 51,10 52,10
53,110 54,170 55,2893 56,611
57,2042 58,260 59,230 60,90
61,430 62,20 63,20 65,30
66,20 67,430 68,120 69,1181
70,270 71,581 72,320 73,8388
74,731 75,6306 76,480 77,260
78,20 79,120 80,30 81,480
82,120 83,841 84,280 85,310
86,100 87,100 88,50 89,250
90,40 91,80 93,120 94,30
95,450 96,90 97,651 98,400
99,210 100,30 101,90 102,20
103,50 105,160 106,20 107,110
108,10 109,180 110,30 111,280
112,160 113,60 114,30 115,110
116,671 117,9999 118,1001 119,450
120,20 121,120 123,70 124,20
125,120 126,30 127,30 129,4694
130,550 131,1051 132,5005 133,1111
134,270 135,90 136,10 137,20
139,20 140,10 141,30 142,20
143,280 144,60 145,3613 146,470
147,170 148,30 149,20 150,10
152,10 153,20 154,20 155,30
156,10 157,90 158,20 159,260
160,50 161,20 163,30 165,10
167,20 168,20 169,20 171,220
172,30 173,80 174,70 179,10
180,10 181,20 183,10 185,310
186,50 187,250 188,60 189,20
195,20 199,70 200,20 201,641
202,90 203,30 209,10 210,10
213,70 214,10 215,60 216,20
224,20 227,80 228,20 229,40
230,10 237,20 241,90 242,20
243,80 244,20 252,20 255,80
256,10 257,70 258,20 269,80
270,10 271,80 272,30 280,10
283,20 285,70 286,30 297,20
298,20 299,30 311,230 312,80
313,60 314,10 325,40 326,10
327,270 328,80 329,20 339,10
341,40 342,10 353,10 354,10
355,5535 356,1481 357,380 358,60
359,10 369,40 370,721 371,240
372,70 373,10
##END=
