##TITLE=2-Ketobutyric acid, TMS derivative
##JCAMP-DX=4.24
##DATA TYPE=MASS SPECTRUM
##ORIGIN=NIST Mass Spectrometry Data Center
##OWNER=NIST Mass Spectrometry Data Center
Collection (C) 2014 copyright by the U.S. Secretary of Commerce
on behalf of the United States of America. All rights reserved.
##CAS REGISTRY NO=74367-68-3
##$NIST MASS SPEC NO=353251
##MOLFORM=C7 H14 O3 Si
##MW=174
##$NIST SOURCE=MSDC
##XUNITS=M/Z
##YUNITS=RELATIVE INTENSITY
##XFACTOR=1
##YFACTOR=1
##FIRSTX=14
##LASTX=161
##FIRSTY=10
##MAXX=161
##MINX=14
##MAXY=9999
##MINY=10
##NPOINTS=64
##PEAK TABLE=(XY..XY)
14,10 15,80 26,90 27,500
28,230 29,1131 30,40 31,60
38,10 39,20 41,20 42,120
43,591 44,230 45,1591 46,110
47,340 48,20 49,10 51,10
53,50 54,20 55,150 56,100
57,731 58,410 59,661 60,120
61,300 62,20 63,10 69,10
70,30 71,40 72,150 73,9999
74,991 75,2132 76,150 77,80
85,671 86,70 87,200 88,20
89,20 97,10 99,140 100,20
101,961 102,220 103,80 104,10
113,30 115,3003 116,320 117,330
118,30 119,10 130,430 131,60
132,20 159,140 160,20 161,10
##END=
