##TITLE=Indole-3-acetonitrile, TMS derivative
##JCAMP-DX=4.24
##DATA TYPE=MASS SPECTRUM
##ORIGIN=R.S.BANDURSKI MICHIGAN STATE UNIV., EAST LANSING, MICH., USA
##OWNER=NIST Mass Spectrometry Data Center
Collection (C) 2014 copyright by the U.S. Secretary of Commerce
on behalf of the United States of America. All rights reserved.
##CAS REGISTRY NO=74367-49-0
##$NIST MASS SPEC NO=68497
##MOLFORM=C13 H16 N2 Si
##MW=228
##$NIST SOURCE=MSDC
##XUNITS=M/Z
##YUNITS=RELATIVE INTENSITY
##XFACTOR=1
##YFACTOR=1
##FIRSTX=31
##LASTX=232
##FIRSTY=40
##MAXX=232
##MINX=31
##MAXY=9999
##MINY=10
##NPOINTS=171
##PEAK TABLE=(XY..XY)
31,40 39,100 41,150 42,90
43,1080 45,2020 46,70 47,120
49,20 50,110 51,200 52,60
53,190 54,200 55,260 56,120
57,330 58,220 59,250 60,20
61,30 62,60 63,120 64,10
65,40 66,30 67,80 68,150
70,150 71,190 72,290 73,9999
74,950 75,1050 76,230 77,510
78,120 79,60 80,50 81,100
82,20 83,130 84,1270 85,130
86,60 87,50 88,10 89,50
90,60 91,70 92,30 93,200
94,20 95,110 96,50 97,80
98,90 99,70 100,100 101,340
102,520 103,230 105,30 106,20
107,20 109,50 111,60 112,40
113,30 114,30 115,130 116,60
117,340 118,40 119,60 120,10
121,20 122,20 123,20 124,20
125,40 126,30 127,210 128,360
129,5380 130,1460 131,270 132,200
133,80 134,40 135,20 136,20
137,10 139,20 140,40 141,30
142,100 143,150 144,110 145,240
146,70 147,120 148,40 149,20
150,10 151,30 152,10 153,30
154,130 155,500 156,510 157,130
158,80 159,50 160,80 161,10
165,10 166,20 167,20 168,60
169,80 170,260 171,90 172,280
173,80 174,40 175,20 178,20
179,30 181,80 182,40 183,100
184,90 185,70 186,190 187,260
188,100 189,50 190,20 194,30
195,60 197,40 198,30 200,160
201,60 202,550 203,210 204,70
205,40 207,60 208,40 209,40
210,20 211,80 212,40 213,3930
214,770 215,210 216,40 217,20
221,40 222,20 223,20 225,70
226,40 227,500 228,9470 229,1510
230,490 231,80 232,10
##END=
