##TITLE=Benzene, 1-[(1,1-dimethylethyl)thio]-4-methyl-
##JCAMP-DX=4.24
##DATA TYPE=MASS SPECTRUM
##ORIGIN=J.E. DOOLEY U.S. BUREAU OF MINES, BARTLESVILLE, OKLA., USA
##OWNER=NIST Mass Spectrometry Data Center
Collection (C) 2014 copyright by the U.S. Secretary of Commerce
on behalf of the United States of America. All rights reserved.
##CAS REGISTRY NO=7439-10-3
##$NIST MASS SPEC NO=7414
##MOLFORM=C11 H16 S
##MW=180
##$NIST SOURCE=MSDC
##XUNITS=M/Z
##YUNITS=RELATIVE INTENSITY
##XFACTOR=1
##YFACTOR=1
##FIRSTX=25
##LASTX=183
##FIRSTY=5
##MAXX=183
##MINX=25
##MAXY=9999
##MINY=2
##NPOINTS=134
##PEAK TABLE=(XY..XY)
25,5 26,109 27,934 28,147
29,1592 30,37 32,17 33,9
34,12 35,2 36,3 37,48
38,150 39,1502 40,151 41,1861
42,109 43,51 44,11 45,1124
46,32 47,85 48,4 49,21
50,160 51,364 52,126 53,265
54,23 55,183 56,80 57,2710
58,169 59,150 60,14 61,33
62,85 63,273 64,60 65,350
66,40 67,29 68,17 69,366
70,95 71,163 72,15 73,106
74,40 75,44 77,701 78,238
79,570 80,79 81,33 82,80
83,75 84,79 85,52 86,21
87,30 88,11 89,162 90,126
91,2955 92,252 93,48 94,9
95,72 96,33 97,157 98,24
99,9 102,3 103,6 104,3
105,18 106,6 107,6 108,165
109,51 110,15 111,10 112,5
113,3 115,12 116,7 117,9
118,2 119,5 120,6 121,241
122,89 123,897 124,9999 125,924
126,472 127,38 128,7 129,5
130,3 131,9 132,7 133,3
134,12 135,10 136,3 137,32
138,5 139,3 140,2 141,3
145,2 146,2 147,8 148,6
149,11 150,3 151,3 153,3
161,2 163,7 164,3 165,136
166,17 167,8 168,2 177,2
178,3 179,7 180,1417 181,185
182,74 183,8
##END=
