##TITLE=2-Decene, 2,4-dimethyl-
##JCAMP-DX=4.24
##DATA TYPE=MASS SPECTRUM
##ORIGIN=D.HENNEBERG, MAX-PLANCK INSTITUTE, MULHEIM, WEST GERMANY
##OWNER=NIST Mass Spectrometry Data Center
Collection (C) 2014 copyright by the U.S. Secretary of Commerce
on behalf of the United States of America. All rights reserved.
##CAS REGISTRY NO=74421-03-7
##$NIST MASS SPEC NO=61560
##MOLFORM=C12 H24
##MW=168
##$NIST SOURCE=MSDC
##XUNITS=M/Z
##YUNITS=RELATIVE INTENSITY
##XFACTOR=1
##YFACTOR=1
##FIRSTX=25
##LASTX=169
##FIRSTY=6
##MAXX=169
##MINX=25
##MAXY=9999
##MINY=1
##NPOINTS=66
##PEAK TABLE=(XY..XY)
25,6 26,14 27,489 28,28
29,656 30,9 31,4 35,39
36,10 38,8 39,418 40,73
41,1736 42,211 43,824 44,13
48,1 49,3 50,15 51,39
52,16 53,191 54,89 55,3180
56,683 57,454 58,9 63,7
64,2 65,53 66,27 67,353
68,86 69,1404 70,562 71,102
72,6 75,1 77,42 78,12
79,54 80,11 81,137 82,371
83,9999 84,813 85,60 91,16
93,15 94,6 95,48 96,37
97,227 98,90 99,28 109,25
110,37 111,94 112,121 113,8
125,7 126,4 153,56 154,4
168,406 169,61
##END=
