##TITLE=Cyclohexanol, 2-methyl-, cis-
##JCAMP-DX=4.24
##DATA TYPE=MASS SPECTRUM
##ORIGIN=Japan AIST/NIMC Database- Spectrum MS-IW-1355
##OWNER=NIST Mass Spectrometry Data Center
Collection (C) 2014 copyright by the U.S. Secretary of Commerce
on behalf of the United States of America. All rights reserved.
##CAS REGISTRY NO=7443-70-1
##$NIST MASS SPEC NO=227877
##MOLFORM=C7 H14 O
##MW=114
##$NIST SOURCE=MSDC
##XUNITS=M/Z
##YUNITS=RELATIVE INTENSITY
##XFACTOR=1
##YFACTOR=1
##FIRSTX=15
##LASTX=115
##FIRSTY=80
##MAXX=115
##MINX=15
##MAXY=9999
##MINY=10
##NPOINTS=70
##PEAK TABLE=(XY..XY)
15,80 17,30 18,119 19,10
26,80 27,1169 28,349 29,1619
30,169 31,549 32,10 37,20
38,70 39,1369 40,279 41,3279
42,1909 43,2479 44,2349 45,889
46,30 47,10 50,70 51,159
52,60 53,659 54,1739 55,4199
56,939 57,9999 58,1789 59,139
60,10 62,10 63,30 65,149
66,299 67,2569 68,7359 69,889
70,1679 71,5589 72,1019 73,90
74,10 77,129 78,30 79,439
80,70 81,9079 82,649 83,409
84,129 85,929 86,999 87,60
91,70 92,20 93,40 94,20
95,629 96,7889 97,979 98,50
99,189 100,10 112,139 113,179
114,1169 115,90
##END=
