##TITLE=Cyclohexanol, 2-methyl-, trans-
##JCAMP-DX=4.24
##DATA TYPE=MASS SPECTRUM
##ORIGIN=Japan AIST/NIMC Database- Spectrum MS-NW-7713
##OWNER=NIST Mass Spectrometry Data Center
Collection (C) 2014 copyright by the U.S. Secretary of Commerce
on behalf of the United States of America. All rights reserved.
##CAS REGISTRY NO=7443-52-9
##$NIST MASS SPEC NO=227878
##MOLFORM=C7 H14 O
##MW=114
##$NIST SOURCE=MSDC
##XUNITS=M/Z
##YUNITS=RELATIVE INTENSITY
##XFACTOR=1
##YFACTOR=1
##FIRSTX=14
##LASTX=115
##FIRSTY=10
##MAXX=115
##MINX=14
##MAXY=9999
##MINY=10
##NPOINTS=75
##PEAK TABLE=(XY..XY)
14,10 15,169 17,40 18,169
19,10 26,129 27,1689 28,339
29,1659 30,199 31,709 32,20
37,20 38,90 39,1559 40,319
41,3499 42,1989 43,1709 44,2499
45,959 46,40 47,20 48,10
49,10 50,70 51,189 52,80
53,669 54,1619 55,3819 56,799
57,9999 58,1639 59,149 61,10
62,20 63,40 64,10 65,119
66,209 67,2059 68,6289 69,689
70,1349 71,4469 72,829 73,90
74,10 77,119 78,30 79,239
80,60 81,5769 82,489 83,349
84,80 85,709 86,639 87,40
90,10 91,50 92,20 93,30
94,20 95,449 96,4549 97,429
98,70 99,179 100,20 112,40
113,109 114,1059 115,90
##END=
