##TITLE=1,1'-Biphenyl, 2,2',3,4,5,6,6'-Heptachloro-
##JCAMP-DX=4.24
##DATA TYPE=MASS SPECTRUM
##ORIGIN=Organic Synthesis Lab, MSU, Moscow.TRC 1200
##OWNER=NIST Mass Spectrometry Data Center
Collection (C) 2014 copyright by the U.S. Secretary of Commerce
on behalf of the United States of America. All rights reserved.
##CAS REGISTRY NO=74472-49-4
##$NIST MASS SPEC NO=326589
##MOLFORM=C12 H3 Cl7
##MW=392
##$NIST SOURCE=MSDC
##XUNITS=M/Z
##YUNITS=RELATIVE INTENSITY
##XFACTOR=1
##YFACTOR=1
##FIRSTX=41
##LASTX=404
##FIRSTY=20
##MAXX=404
##MINX=41
##MAXY=9999
##MINY=11
##NPOINTS=176
##PEAK TABLE=(XY..XY)
41,20 44,150 47,71 48,19
49,48 50,88 51,30 60,33
61,88 62,54 63,11 66,19
71,27 72,66 73,293 74,118
75,89 78,63 79,35 81,17
83,31 84,121 85,140 86,74
92,21 94,21 95,70 96,107
97,83 98,66 102,15 106,35
107,101 108,270 109,274 110,124
111,26 113,38 114,32 117,74
118,54 119,45 120,139 121,114
122,83 123,24 126,418 127,375
128,125 129,14 130,31 131,85
132,167 133,110 134,72 135,34
141,37 142,88 143,272 144,386
145,214 146,223 148,24 149,23
150,20 154,16 155,36 156,141
157,68 158,86 159,27 161,590
162,921 163,553 164,205 165,47
166,47 167,47 168,56 169,64
177,24 179,173 180,124 181,174
182,298 183,90 184,96 185,39
190,26 191,29 193,36 195,23
196,203 197,426 198,398 199,189
200,94 201,21 203,26 204,54
205,46 206,28 207,29 215,23
216,23 217,90 218,266 219,149
220,35 221,21 226,39 227,16
228,66 229,24 230,36 236,14
237,13 238,19 239,26 241,28
249,30 250,38 251,69 252,1081
253,238 254,1166 255,139 256,401
257,44 258,33 263,22 273,27
274,28 276,21 286,150 287,280
288,244 289,364 290,152 291,141
292,44 293,55 296,24 298,43
322,2907 323,435 324,4497 325,578
326,2979 327,364 328,983 329,152
330,201 331,15 356,39 357,168
358,84 359,330 360,99 361,300
362,86 363,137 365,21 392,4425
393,626 394,9999 395,1332 396,9812
397,1335 398,5377 399,698 400,1695
401,206 402,315 403,45 404,43
##END=
