##TITLE=1,1'-Biphenyl, 2,3,4,4',6-Pentachloro-
##JCAMP-DX=4.24
##DATA TYPE=MASS SPECTRUM
##ORIGIN=T.L.Hayes, Battelle Columbus Laboratories, Columbus, OH 43221
##OWNER=NIST Mass Spectrometry Data Center
Collection (C) 2014 copyright by the U.S. Secretary of Commerce
on behalf of the United States of America. All rights reserved.
##CAS REGISTRY NO=74472-38-1
##$NIST MASS SPEC NO=80796
##MOLFORM=C12 H5 Cl5
##MW=324
##$NIST SOURCE=MSDC
##XUNITS=M/Z
##YUNITS=RELATIVE INTENSITY
##XFACTOR=1
##YFACTOR=1
##FIRSTX=33
##LASTX=333
##FIRSTY=17
##MAXX=333
##MINX=33
##MAXY=9999
##MINY=6
##NPOINTS=193
##PEAK TABLE=(XY..XY)
33,17 34,49 35,178 36,415
37,255 38,301 39,176 40,516
41,37 42,26 43,64 44,88
45,10 47,99 48,6 49,280
50,691 51,520 52,27 55,82
56,44 57,70 59,35 60,189
61,889 62,487 63,226 66,32
67,58 68,6 71,102 72,220
73,1269 74,1413 75,878 76,83
77,37 78,206 79,433 80,76
83,73 84,496 85,691 86,568
87,240 88,33 91,565 92,1968
93,423 94,18 95,12 96,479
97,759 98,1108 99,583 100,49
101,18 102,8 103,37 104,8
105,17 106,43 107,154 108,671
109,2542 110,2021 111,660 112,42
113,82 114,245 115,217 116,65
117,16 118,42 119,111 120,269
121,298 122,557 123,456 124,72
125,43 126,23 127,3809 128,3070
129,1124 130,94 131,134 132,392
133,402 134,238 135,200 136,63
137,58 141,7 142,32 143,106
144,953 145,1499 146,1057 147,667
148,469 149,722 150,90 154,12
155,22 156,113 157,132 158,100
159,107 160,56 161,34 162,522
163,880 164,552 165,213 166,25
167,58 168,57 169,67 170,145
171,49 172,73 177,15 178,10
179,18 180,27 181,81 182,134
183,459 184,2301 185,412 186,703
187,82 191,19 192,96 193,58
194,143 195,42 196,51 197,21
203,47 204,33 205,59 206,42
207,77 208,46 209,33 215,6
216,19 217,57 218,698 219,502
220,479 221,327 222,117 223,59
228,40 229,11 230,50 232,9
238,20 240,38 242,10 252,15
253,51 254,4203 255,624 256,4065
257,500 258,1330 259,136 260,132
264,10 266,19 267,12 268,7
288,145 289,52 290,218 291,61
292,117 293,28 294,16 324,6370
325,867 326,9999 327,1372 328,6577
329,821 330,2067 331,261 332,336
333,25
##END=
