##TITLE=1,1'-Biphenyl, 2,3,4,4',5-Pentachloro-
##JCAMP-DX=4.24
##DATA TYPE=MASS SPECTRUM
##ORIGIN=T.L.Hayes, Battelle Columbus Laboratories, Columbus, OH 43221
##OWNER=NIST Mass Spectrometry Data Center
Collection (C) 2014 copyright by the U.S. Secretary of Commerce
on behalf of the United States of America. All rights reserved.
##CAS REGISTRY NO=74472-37-0
##$NIST MASS SPEC NO=80786
##MOLFORM=C12 H5 Cl5
##MW=324
##$NIST SOURCE=MSDC
##XUNITS=M/Z
##YUNITS=RELATIVE INTENSITY
##XFACTOR=1
##YFACTOR=1
##FIRSTX=33
##LASTX=334
##FIRSTY=20
##MAXX=334
##MINX=33
##MAXY=9999
##MINY=5
##NPOINTS=196
##PEAK TABLE=(XY..XY)
33,20 34,35 35,182 36,471
37,281 38,294 39,171 40,402
41,35 42,35 43,43 44,59
47,128 48,19 49,247 50,692
51,550 52,33 55,45 56,36
57,30 60,216 61,824 62,469
63,270 65,14 66,46 67,61
68,6 69,7 71,78 72,184
73,1092 74,1260 75,940 76,85
77,21 78,250 79,374 80,62
83,71 84,494 85,727 86,536
87,203 88,41 90,17 91,644
92,1677 93,580 94,36 95,40
96,315 97,770 98,1031 99,560
100,78 101,119 102,31 103,11
104,8 106,48 107,169 108,707
109,2564 110,2175 111,635 112,42
113,110 114,243 115,247 116,75
117,8 118,143 119,67 120,305
121,281 122,545 123,461 124,79
125,41 126,58 127,4055 128,3438
129,1316 130,6 131,158 132,378
133,274 134,200 135,177 136,149
137,67 138,26 141,17 142,42
143,121 144,941 145,1396 146,966
147,549 148,443 149,719 150,116
153,6 154,24 155,40 156,90
157,136 158,112 159,115 160,65
161,10 162,557 163,821 164,551
165,184 166,39 167,67 168,60
169,87 170,116 171,45 172,63
173,7 178,35 179,25 180,36
181,92 182,145 183,448 184,2490
185,453 186,795 187,106 188,6
190,22 192,60 193,10 194,141
195,32 196,46 197,19 203,53
204,31 205,88 206,35 215,9
216,26 217,62 218,739 219,562
220,534 221,349 222,130 223,63
228,50 229,20 230,43 232,8
238,24 240,34 242,6 251,9
252,37 253,88 254,4196 255,659
256,4010 257,545 258,1282 259,159
260,133 261,5 264,22 265,7
266,25 268,5 288,162 289,34
290,235 291,52 292,131 293,10
294,29 324,6285 325,850 326,9999
327,1287 328,6535 329,814 330,2085
331,219 332,320 333,21 334,7
##END=
