##TITLE=Lavandulol, TMS derivative
##JCAMP-DX=4.24
##DATA TYPE=MASS SPECTRUM
##ORIGIN=NIST Mass Spectrometry Data Center
##OWNER=NIST Mass Spectrometry Data Center
Collection (C) 2014 copyright by the U.S. Secretary of Commerce
on behalf of the United States of America. All rights reserved.
##CAS REGISTRY NO=74498-96-7
##$NIST MASS SPEC NO=352635
##MOLFORM=C13 H26 O Si
##MW=226
##$NIST SOURCE=MSDC
##XUNITS=M/Z
##YUNITS=RELATIVE INTENSITY
##XFACTOR=1
##YFACTOR=1
##FIRSTX=15
##LASTX=227
##FIRSTY=20
##MAXX=227
##MINX=15
##MAXY=9999
##MINY=10
##NPOINTS=142
##PEAK TABLE=(XY..XY)
15,20 26,10 27,220 28,30
29,230 30,10 31,30 37,10
38,20 39,621 40,170 41,2652
42,180 43,751 44,190 45,1001
46,70 47,410 48,20 49,20
50,30 51,120 52,70 53,731
54,80 55,430 56,60 57,160
58,330 59,701 60,110 61,350
62,30 63,50 64,10 65,220
66,90 67,901 68,771 69,3573
70,250 71,90 73,9999 74,981
75,3603 76,270 77,621 78,100
79,861 80,2292 81,971 82,130
83,140 84,40 85,120 86,20
87,80 88,90 89,250 90,40
91,841 92,1682 93,6916 94,1061
95,420 96,80 97,130 98,40
99,170 100,20 101,190 103,2953
104,290 105,601 106,120 107,1361
108,300 109,240 110,60 111,120
112,20 113,450 114,60 115,190
116,60 117,70 118,10 119,110
121,5165 122,741 123,3253 124,330
125,130 126,30 127,530 128,70
129,200 130,40 131,30 133,10
135,310 136,1391 137,190 138,10
139,40 141,440 142,80 143,1852
144,440 145,140 146,20 147,10
149,10 151,20 153,30 155,280
156,320 157,781 158,170 159,40
160,10 165,10 167,10 168,30
169,370 170,200 171,90 172,20
181,10 182,10 183,460 184,80
185,20 193,20 196,10 197,10
211,651 212,120 213,30 225,10
226,70 227,10
##END=
