##TITLE=Uridine, 2TMS, TBDMS derivative
##JCAMP-DX=4.24
##DATA TYPE=MASS SPECTRUM
##ORIGIN=ASES Database, Dalian Institute, P.R. China
##OWNER=NIST Mass Spectrometry Data Center
Collection (C) 2014 copyright by the U.S. Secretary of Commerce
on behalf of the United States of America. All rights reserved.
##CAS REGISTRY NO=74518-77-7
##$NIST MASS SPEC NO=147002
##MOLFORM=C21 H42 N2 O6 Si3
##MW=502
##$NIST SOURCE=MSDC
##XUNITS=M/Z
##YUNITS=RELATIVE INTENSITY
##XFACTOR=1
##YFACTOR=1
##FIRSTX=73
##LASTX=487
##FIRSTY=5915
##MAXX=487
##MINX=73
##MAXY=9999
##MINY=290
##NPOINTS=22
##PEAK TABLE=(XY..XY)
73,5915 74,590 103,5414 104,390
147,4263 148,790 169,9999 170,990
191,4564 192,390 211,790 241,1000
242,1401 262,690 265,4484 271,790
333,290 341,390 343,1491 445,8147
446,2482 487,490
##END=
