##TITLE=3,5-Dimethylcyclopentene
##JCAMP-DX=4.24
##DATA TYPE=MASS SPECTRUM
##ORIGIN=NIST Mass Spectrometry Data Center, 1990.
##OWNER=NIST Mass Spectrometry Data Center
Collection (C) 2014 copyright by the U.S. Secretary of Commerce
on behalf of the United States of America. All rights reserved.
##CAS REGISTRY NO=7459-71-4
##$NIST MASS SPEC NO=113640
##MOLFORM=C7 H12
##MW=96
##$NIST SOURCE=MSDC
##XUNITS=M/Z
##YUNITS=RELATIVE INTENSITY
##XFACTOR=1
##YFACTOR=1
##FIRSTX=14
##LASTX=97
##FIRSTY=12
##MAXX=97
##MINX=14
##MAXY=9999
##MINY=12
##NPOINTS=38
##PEAK TABLE=(XY..XY)
14,12 15,295 16,57 18,91
26,229 27,1326 28,705 29,432
31,43 37,126 38,242 39,2045
40,384 41,1451 45,130 50,327
51,597 52,346 53,1541 54,291
55,581 56,129 63,187 65,377
66,237 67,758 68,151 74,116
77,716 78,236 79,2727 80,116
81,9999 82,665 91,120 95,502
96,1524 97,99
##END=
