##TITLE=9H-Fluoren-9-one, 2,4,5,7-tetranitro-
##JCAMP-DX=4.24
##DATA TYPE=MASS SPECTRUM
##ORIGIN=DKFZ HD FRIESEL, HEIDELBERG, GERMANY, F.R.G.
##OWNER=NIST Mass Spectrometry Data Center
Collection (C) 2014 copyright by the U.S. Secretary of Commerce
on behalf of the United States of America. All rights reserved.
##CAS REGISTRY NO=746-53-2
##$NIST MASS SPEC NO=67649
##MOLFORM=C13 H4 N4 O9
##MW=360
##$NIST SOURCE=MSDC
##XUNITS=M/Z
##YUNITS=RELATIVE INTENSITY
##XFACTOR=1
##YFACTOR=1
##FIRSTX=30
##LASTX=363
##FIRSTY=1535
##MAXX=363
##MINX=30
##MAXY=9999
##MINY=3
##NPOINTS=296
##PEAK TABLE=(XY..XY)
30,1535 31,7 36,7 37,32
38,35 39,60 40,146 41,96
42,25 43,121 44,678 45,10
46,167 47,17 48,3 49,21
50,100 51,82 52,32 53,185
54,14 55,175 56,46 57,178
58,46 59,7 60,32 61,221
62,392 63,189 64,46 65,17
66,35 67,114 68,178 69,75
70,78 71,110 72,17 73,207
74,1142 75,285 76,107 77,142
78,42 79,28 80,14 81,32
82,28 83,67 84,32 85,228
86,1928 87,392 88,321 89,50
90,82 91,28 92,17 93,21
94,14 95,32 96,14 97,75
98,964 99,428 100,250 101,92
102,50 103,17 104,46 105,32
106,7 107,14 108,10 109,200
110,1857 111,500 112,239 113,60
114,60 115,21 116,321 117,39
118,53 119,14 120,89 121,71
122,392 123,357 124,964 125,250
126,135 127,50 128,32 129,21
130,7 131,7 132,35 133,96
134,571 135,1107 136,2750 137,535
138,357 139,71 140,96 141,35
142,53 143,14 144,75 145,53
146,428 147,232 148,175 149,500
150,146 151,103 152,428 153,103
154,153 155,35 156,25 157,10
158,14 159,17 160,14 161,7
162,71 163,321 164,3071 165,607
166,250 167,189 168,75 169,64
170,42 171,7 172,10 173,10
174,7 175,32 176,32 177,17
178,92 179,53 180,857 181,217
182,1071 183,171 184,35 185,10
186,7 187,7 188,3 189,7
190,28 191,285 192,5357 193,964
194,1464 195,214 196,85 197,32
198,78 199,21 200,25 201,7
202,7 203,7 204,3 205,7
206,25 207,71 208,285 209,139
210,607 211,128 212,67 213,21
214,7 215,10 216,3 217,3
218,7 219,7 220,25 221,207
222,1285 223,228 224,67 225,25
226,214 227,46 228,25 229,10
230,3 231,3 232,3 233,3
234,10 235,7 236,25 237,39
238,9285 239,1535 240,535 241,75
242,25 243,17 244,3 245,3
246,3 247,3 248,3 249,3
250,7 251,10 252,21 253,17
254,150 255,46 256,2857 257,428
258,67 259,3 260,3 261,3
262,3 263,3 264,7 265,7
266,50 267,85 268,1714 269,285
270,60 271,21 272,17 273,3
274,3 275,7 276,3 277,3
278,3 279,42 280,10 281,14
282,32 283,17 284,200 285,60
286,50 287,10 288,3 293,25
294,7 295,3 296,57 297,14
298,35 299,32 300,53 301,57
302,14 310,7 311,10 312,203
313,67 314,9999 315,1642 316,285
317,28 318,3 325,3 326,7
327,7 328,32 329,10 330,714
331,157 332,28 333,3 341,7
342,10 343,7 344,250 345,46
346,32 347,7 357,3 358,3
360,2571 361,392 362,82 363,10
##END=
