##TITLE=Pentanoic acid, 2-phenylethyl ester
##JCAMP-DX=4.24
##DATA TYPE=MASS SPECTRUM
##ORIGIN=V.Zaikin,Topchiev Inst.Petrochem.Synth.,Moscow
##OWNER=NIST Mass Spectrometry Data Center
Collection (C) 2014 copyright by the U.S. Secretary of Commerce
on behalf of the United States of America. All rights reserved.
##CAS REGISTRY NO=7460-74-4
##$NIST MASS SPEC NO=282342
##MOLFORM=C13 H18 O2
##MW=206
##$NIST SOURCE=MSDC
##XUNITS=M/Z
##YUNITS=RELATIVE INTENSITY
##XFACTOR=1
##YFACTOR=1
##FIRSTX=26
##LASTX=191
##FIRSTY=50
##MAXX=191
##MINX=26
##MAXY=9999
##MINY=10
##NPOINTS=78
##PEAK TABLE=(XY..XY)
26,50 27,80 28,20 29,90
30,10 35,20 36,170 38,50
39,110 40,130 41,200 42,40
43,50 44,10 50,60 51,120
52,80 53,40 54,20 55,110
56,50 57,621 58,40 59,10
60,20 62,10 63,50 64,10
65,120 66,20 67,30 68,10
69,40 70,30 71,30 73,80
74,20 75,30 76,30 77,320
78,230 79,270 80,30 81,20
82,30 83,30 84,40 85,771
86,60 87,10 89,50 90,30
91,480 92,100 93,50 95,20
96,20 97,20 102,60 103,410
104,9999 105,1742 106,150 107,10
109,10 111,10 115,20 117,20
118,10 119,20 120,30 121,20
122,10 133,20 135,40 147,20
155,10 191,10
##END=
