##TITLE=2,3-Dimethoxycinnamic acid
##JCAMP-DX=4.24
##DATA TYPE=MASS SPECTRUM
##ORIGIN=NIST Mass Spectrometry Data Center
##OWNER=NIST Mass Spectrometry Data Center
Collection (C) 2014 copyright by the U.S. Secretary of Commerce
on behalf of the United States of America. All rights reserved.
##CAS REGISTRY NO=7461-60-1
##$NIST MASS SPEC NO=343092
##MOLFORM=C11 H12 O4
##MW=208
##$NIST SOURCE=MSDC
##XUNITS=M/Z
##YUNITS=RELATIVE INTENSITY
##XFACTOR=1
##YFACTOR=1
##FIRSTX=12
##LASTX=210
##FIRSTY=90
##MAXX=210
##MINX=12
##MAXY=9999
##MINY=10
##NPOINTS=106
##PEAK TABLE=(XY..XY)
12,90 13,150 15,3013 16,50
17,110 26,20 27,390 28,240
29,591 30,110 31,120 32,110
36,30 37,200 38,631 39,861
40,350 41,280 42,70 43,30
44,190 45,1581 47,160 49,170
50,1631 51,3753 52,691 53,480
54,120 55,490 56,140 58,120
59,290 60,170 61,280 62,901
63,1862 64,480 65,1001 66,1251
67,50 68,190 73,130 74,691
75,661 76,1141 77,4234 78,1071
79,571 80,120 82,100 85,110
86,180 87,270 88,310 89,1291
90,581 91,3753 92,450 93,150
94,370 95,210 96,10 97,90
99,70 101,150 102,450 103,1041
104,571 105,2082 106,621 107,160
109,210 113,70 115,120 116,190
117,400 118,621 119,510 121,4054
122,310 124,40 130,180 131,460
133,2612 134,3393 135,250 145,90
146,280 147,991 148,1902 149,841
150,140 157,100 161,1061 162,641
163,110 175,811 176,3743 177,9999
178,1241 191,360 192,90 208,5205
209,731 210,160
##END=
