##TITLE=1,5-Octadiene, 7-methyl-3-(1-methylethyl)-
##JCAMP-DX=4.24
##DATA TYPE=MASS SPECTRUM
##ORIGIN=D.HENNEBERG, MAX-PLANCK INSTITUTE, MULHEIM, WEST GERMANY
##OWNER=NIST Mass Spectrometry Data Center
Collection (C) 2014 copyright by the U.S. Secretary of Commerce
on behalf of the United States of America. All rights reserved.
##CAS REGISTRY NO=74630-12-9
##$NIST MASS SPEC NO=61948
##MOLFORM=C12 H22
##MW=166
##$NIST SOURCE=MSDC
##XUNITS=M/Z
##YUNITS=RELATIVE INTENSITY
##XFACTOR=1
##YFACTOR=1
##FIRSTX=25
##LASTX=166
##FIRSTY=13
##MAXX=166
##MINX=25
##MAXY=9999
##MINY=1
##NPOINTS=67
##PEAK TABLE=(XY..XY)
25,13 26,25 27,929 28,62
29,726 30,13 33,1 34,1
35,9 36,6 37,62 38,29
39,897 40,137 41,3722 42,191
43,1085 44,10 49,4 50,23
51,107 52,54 53,404 54,248
55,9999 56,499 57,125 58,4
63,26 64,3 65,148 66,137
67,1940 68,226 69,861 70,60
71,8 75,6 76,2 77,151
78,51 79,225 80,56 81,586
82,1379 83,2587 84,253 85,10
91,79 92,7 93,41 94,4
95,284 96,90 97,28 105,8
107,15 108,19 109,414 110,106
111,4 122,43 123,516 124,64
125,3 151,10 166,17
##END=
