##TITLE=1-Undecene, 8-methyl-
##JCAMP-DX=4.24
##DATA TYPE=MASS SPECTRUM
##ORIGIN=D.HENNEBERG, MAX-PLANCK INSTITUTE, MULHEIM, WEST GERMANY
##OWNER=NIST Mass Spectrometry Data Center
Collection (C) 2014 copyright by the U.S. Secretary of Commerce
on behalf of the United States of America. All rights reserved.
##CAS REGISTRY NO=74630-40-3
##$NIST MASS SPEC NO=61823
##MOLFORM=C12 H24
##MW=168
##$NIST SOURCE=MSDC
##XUNITS=M/Z
##YUNITS=RELATIVE INTENSITY
##XFACTOR=1
##YFACTOR=1
##FIRSTX=24
##LASTX=169
##FIRSTY=17
##MAXX=169
##MINX=24
##MAXY=9999
##MINY=1
##NPOINTS=76
##PEAK TABLE=(XY..XY)
24,17 25,15 26,148 27,1401
28,188 29,2338 30,23 32,21
33,7 34,15 35,19 38,20
39,1238 40,204 41,4909 42,929
43,9999 44,150 45,6 46,9
47,10 50,23 51,67 52,58
53,370 54,557 55,7406 56,5591
57,2637 58,93 59,1 62,4
63,9 64,4 65,82 66,58
67,603 68,417 69,6081 70,3264
71,2085 72,113 75,7 77,35
79,66 80,14 81,301 82,343
83,3059 84,4543 85,1427 86,88
92,28 93,14 94,2 95,113
96,205 97,2077 98,647 99,48
104,4 109,5 110,10 111,163
112,87 117,6 124,96 125,970
126,236 127,9 139,16 140,68
141,5 167,7 168,64 169,30
##END=
