##TITLE=1-Undecene, 7-methyl-
##JCAMP-DX=4.24
##DATA TYPE=MASS SPECTRUM
##ORIGIN=D.HENNEBERG, MAX-PLANCK INSTITUTE, MULHEIM, WEST GERMANY
##OWNER=NIST Mass Spectrometry Data Center
Collection (C) 2014 copyright by the U.S. Secretary of Commerce
on behalf of the United States of America. All rights reserved.
##CAS REGISTRY NO=74630-42-5
##$NIST MASS SPEC NO=61827
##MOLFORM=C12 H24
##MW=168
##$NIST SOURCE=MSDC
##XUNITS=M/Z
##YUNITS=RELATIVE INTENSITY
##XFACTOR=1
##YFACTOR=1
##FIRSTX=24
##LASTX=168
##FIRSTY=32
##MAXX=168
##MINX=24
##MAXY=9999
##MINY=7
##NPOINTS=70
##PEAK TABLE=(XY..XY)
24,32 25,37 26,110 27,1347
28,71 29,2541 30,53 32,33
34,7 36,9 37,54 39,1205
40,216 41,5350 42,904 43,9999
44,182 45,11 46,15 47,15
49,13 50,25 51,75 52,25
53,422 54,475 55,6102 56,5290
57,5091 58,243 65,87 66,46
67,548 68,559 69,7822 70,3202
71,822 72,39 73,10 76,8
77,39 78,15 79,43 80,12
81,252 82,438 83,1975 84,2438
85,1969 86,129 93,19 94,9
95,90 96,94 97,732 98,797
99,203 100,13 105,7 109,17
110,218 111,1937 112,451 113,44
124,7 125,39 126,501 127,56
140,39 168,74
##END=
