##TITLE=1-Undecene, 9-methyl-
##JCAMP-DX=4.24
##DATA TYPE=MASS SPECTRUM
##ORIGIN=D.HENNEBERG, MAX-PLANCK INSTITUTE, MULHEIM, WEST GERMANY
##OWNER=NIST Mass Spectrometry Data Center
Collection (C) 2014 copyright by the U.S. Secretary of Commerce
on behalf of the United States of America. All rights reserved.
##CAS REGISTRY NO=74630-41-4
##$NIST MASS SPEC NO=61825
##MOLFORM=C12 H24
##MW=168
##$NIST SOURCE=MSDC
##XUNITS=M/Z
##YUNITS=RELATIVE INTENSITY
##XFACTOR=1
##YFACTOR=1
##FIRSTX=25
##LASTX=168
##FIRSTY=32
##MAXX=168
##MINX=25
##MAXY=9999
##MINY=1
##NPOINTS=72
##PEAK TABLE=(XY..XY)
25,32 26,81 27,1396 28,161
29,3929 30,88 33,11 35,44
37,60 38,1 39,1529 40,191
41,6909 42,1165 43,6007 47,4
48,12 50,36 51,61 52,19
53,523 54,629 55,8366 56,4270
57,6891 58,318 59,20 63,36
64,1 65,68 66,76 67,713
68,414 69,5052 70,9999 71,3103
72,150 73,11 75,12 76,2
77,38 78,3 79,85 80,22
81,354 82,467 83,5978 84,1309
85,391 86,12 91,25 95,87
96,200 97,2798 98,659 99,75
109,22 110,49 111,429 112,250
113,29 115,7 124,1 125,28
126,33 137,4 138,46 139,648
140,175 153,12 166,6 168,46
##END=
