##TITLE=1-Undecene, 4-methyl-
##JCAMP-DX=4.24
##DATA TYPE=MASS SPECTRUM
##ORIGIN=D.HENNEBERG, MAX-PLANCK INSTITUTE, MULHEIM, WEST GERMANY
##OWNER=NIST Mass Spectrometry Data Center
Collection (C) 2014 copyright by the U.S. Secretary of Commerce
on behalf of the United States of America. All rights reserved.
##CAS REGISTRY NO=74630-39-0
##$NIST MASS SPEC NO=61822
##MOLFORM=C12 H24
##MW=168
##$NIST SOURCE=MSDC
##XUNITS=M/Z
##YUNITS=RELATIVE INTENSITY
##XFACTOR=1
##YFACTOR=1
##FIRSTX=24
##LASTX=170
##FIRSTY=15
##MAXX=170
##MINX=24
##MAXY=9999
##MINY=1
##NPOINTS=76
##PEAK TABLE=(XY..XY)
24,15 25,24 26,98 27,1020
28,128 29,1794 30,24 31,13
32,7 33,16 36,11 37,19
38,39 39,808 40,177 41,4357
42,796 43,9999 44,184 48,8
50,11 51,41 52,26 53,308
54,161 55,2268 56,1647 57,6842
58,292 59,14 64,6 65,63
66,30 67,299 68,215 69,1303
70,1072 71,6526 72,348 73,6
75,16 77,34 78,7 79,57
80,7 81,101 82,165 83,569
84,1027 85,3514 86,213 91,12
92,8 93,6 94,3 95,40
96,100 97,638 98,292 99,30
109,10 110,8 111,72 112,71
113,7 124,44 125,287 126,1022
127,154 128,13 139,6 140,48
141,9 168,29 169,1 170,3
##END=
