##TITLE=4-Methoxybenzenamide, N-(4-bromophenyl)-
##JCAMP-DX=4.24
##DATA TYPE=MASS SPECTRUM
##ORIGIN=Zaikin V.G., TIPS RAS, Moscow, Russia
##OWNER=NIST Mass Spectrometry Data Center
Collection (C) 2014 copyright by the U.S. Secretary of Commerce
on behalf of the United States of America. All rights reserved.
##CAS REGISTRY NO=7465-96-5
##$NIST MASS SPEC NO=307498
##MOLFORM=C14 H12 Br N O2
##MW=305
##$NIST SOURCE=MSDC
##XUNITS=M/Z
##YUNITS=RELATIVE INTENSITY
##XFACTOR=1
##YFACTOR=1
##FIRSTX=28
##LASTX=308
##FIRSTY=10
##MAXX=308
##MINX=28
##MAXY=9999
##MINY=10
##NPOINTS=31
##PEAK TABLE=(XY..XY)
28,10 38,30 39,40 50,50
51,40 63,160 64,250 65,70
75,30 76,90 77,731 78,60
79,40 90,30 91,110 92,661
93,50 104,50 107,450 108,40
135,9999 136,761 137,60 143,20
171,70 173,70 225,50 305,851
306,130 307,831 308,130
##END=
