##TITLE=2-Methoxybenzhydrazide
##JCAMP-DX=4.24
##DATA TYPE=MASS SPECTRUM
##ORIGIN=NIST Mass Spectrometry Data Center, 1994
##OWNER=NIST Mass Spectrometry Data Center
Collection (C) 2014 copyright by the U.S. Secretary of Commerce
on behalf of the United States of America. All rights reserved.
##CAS REGISTRY NO=7466-54-8
##$NIST MASS SPEC NO=134993
##MOLFORM=C8 H10 N2 O2
##MW=166
##$NIST SOURCE=MSDC
##XUNITS=M/Z
##YUNITS=RELATIVE INTENSITY
##XFACTOR=1
##YFACTOR=1
##FIRSTX=14
##LASTX=167
##FIRSTY=29
##MAXX=167
##MINX=14
##MAXY=9999
##MINY=9
##NPOINTS=62
##PEAK TABLE=(XY..XY)
14,29 15,176 16,37 17,24
18,31 26,31 27,105 28,186
29,253 30,115 31,472 32,42
36,11 37,112 38,298 39,434
40,32 41,19 42,15 43,32
44,25 45,27 49,54 50,524
51,726 52,137 53,212 54,13
60,9 61,75 62,199 63,769
64,796 65,315 66,59 67,16
73,37 74,184 75,151 76,491
77,4426 78,380 79,543 80,47
89,12 90,30 92,1875 93,198
94,17 104,47 105,246 106,38
107,51 108,17 120,350 121,136
122,11 135,9999 136,878 137,72
166,1084 167,119
##END=
