##TITLE=5-Eicosene, (E)-
##JCAMP-DX=4.24
##DATA TYPE=MASS SPECTRUM
##ORIGIN=D.HENNEBERG, MAX-PLANCK INSTITUTE, MULHEIM, WEST GERMANY
##OWNER=NIST Mass Spectrometry Data Center
Collection (C) 2014 copyright by the U.S. Secretary of Commerce
on behalf of the United States of America. All rights reserved.
##CAS REGISTRY NO=74685-30-6
##$NIST MASS SPEC NO=62816
##MOLFORM=C20 H40
##MW=280
##$NIST SOURCE=MSDC
##XUNITS=M/Z
##YUNITS=RELATIVE INTENSITY
##XFACTOR=1
##YFACTOR=1
##FIRSTX=22
##LASTX=281
##FIRSTY=5
##MAXX=281
##MINX=22
##MAXY=9999
##MINY=2
##NPOINTS=122
##PEAK TABLE=(XY..XY)
22,5 23,6 24,7 25,17
26,88 27,805 28,122 29,2129
30,53 31,24 32,6 33,15
34,5 35,15 36,17 37,42
38,42 39,613 40,129 41,5427
42,1185 43,6965 44,132 45,8
46,5 47,11 48,6 49,14
50,43 51,47 52,36 53,373
54,1559 55,9999 56,4522 57,7730
58,309 59,5 60,2 61,7
63,17 64,7 65,95 66,158
67,1647 68,1080 69,6375 70,3827
71,3495 72,160 73,3 74,4
75,9 76,5 77,82 78,77
79,204 80,114 81,908 82,1645
83,6243 84,2206 85,1785 86,110
91,51 92,27 93,46 94,32
95,408 96,928 97,5052 98,1290
99,366 100,28 105,39 106,11
107,15 108,7 109,152 110,352
111,2175 112,709 113,204 114,7
115,3 117,7 119,9 121,3
123,71 124,186 125,973 126,410
127,96 128,12 137,29 138,107
139,353 140,222 141,54 151,4
152,45 153,153 154,142 155,27
166,37 167,94 168,98 169,16
180,24 181,39 182,63 194,14
195,19 196,34 208,4 209,12
210,18 223,4 224,9 252,28
280,195 281,42
##END=
