##TITLE=3-Eicosene, (E)-
##JCAMP-DX=4.24
##DATA TYPE=MASS SPECTRUM
##ORIGIN=D.HENNEBERG, MAX-PLANCK INSTITUTE, MULHEIM, WEST GERMANY
##OWNER=NIST Mass Spectrometry Data Center
Collection (C) 2014 copyright by the U.S. Secretary of Commerce
on behalf of the United States of America. All rights reserved.
##CAS REGISTRY NO=74685-33-9
##$NIST MASS SPEC NO=62838
##MOLFORM=C20 H40
##MW=280
##$NIST SOURCE=MSDC
##XUNITS=M/Z
##YUNITS=RELATIVE INTENSITY
##XFACTOR=1
##YFACTOR=1
##FIRSTX=22
##LASTX=281
##FIRSTY=9
##MAXX=281
##MINX=22
##MAXY=9999
##MINY=2
##NPOINTS=121
##PEAK TABLE=(XY..XY)
22,9 23,5 24,10 25,21
26,104 27,862 28,189 29,2767
30,73 31,20 33,14 34,5
35,23 36,20 37,53 38,36
39,785 40,159 41,8908 42,1737
43,9122 44,188 45,7 47,10
48,11 49,18 50,45 51,49
52,47 53,448 54,1241 55,9299
56,5277 57,9999 58,434 59,5
60,5 61,11 62,7 63,27
64,7 65,117 66,225 67,2061
68,1809 69,9417 70,4976 71,4735
72,217 73,8 74,10 75,17
76,7 77,96 78,81 79,211
80,120 81,1093 82,2230 83,7363
84,2895 85,2565 86,164 91,86
92,61 93,63 94,65 95,453
96,1158 97,6261 98,1539 99,514
100,28 104,5 105,56 106,24
107,14 108,9 109,175 110,459
111,2992 112,892 113,239 114,8
117,8 121,9 122,2 123,113
124,231 125,1231 126,488 127,134
128,8 137,40 138,118 139,425
140,271 141,68 151,8 152,70
153,211 154,165 155,41 166,42
167,114 168,98 169,20 180,26
181,54 182,75 183,12 194,14
195,29 196,50 208,5 209,19
210,33 224,4 252,31 280,234
281,49
##END=
