##TITLE=2-Ethyl-6-isopropyl pyridine
##JCAMP-DX=4.24
##DATA TYPE=MASS SPECTRUM
##ORIGIN=NIST Mass Spectrometry Data Center, 1990.
##OWNER=NIST Mass Spectrometry Data Center
Collection (C) 2014 copyright by the U.S. Secretary of Commerce
on behalf of the United States of America. All rights reserved.
##CAS REGISTRY NO=74701-47-6
##$NIST MASS SPEC NO=113233
##MOLFORM=C10 H15 N
##MW=149
##$NIST SOURCE=MSDC
##XUNITS=M/Z
##YUNITS=RELATIVE INTENSITY
##XFACTOR=1
##YFACTOR=1
##FIRSTX=14
##LASTX=150
##FIRSTY=15
##MAXX=150
##MINX=14
##MAXY=9999
##MINY=15
##NPOINTS=66
##PEAK TABLE=(XY..XY)
14,15 15,192 26,116 27,771
28,615 29,194 32,91 37,46
38,173 39,1103 40,187 41,593
42,97 43,122 44,16 50,387
51,1017 52,625 53,501 54,177
59,125 60,141 62,97 63,376
64,323 65,777 66,472 67,293
74,58 75,114 76,197 77,1496
78,807 79,932 80,302 81,80
89,89 90,99 91,606 92,229
93,639 94,87 102,79 103,113
104,595 105,219 106,1065 107,1220
108,248 116,58 117,305 118,471
119,1935 120,544 121,3514 122,392
130,126 132,1187 133,1533 134,9999
135,987 136,47 146,147 148,4583
149,2538 150,256
##END=
