##TITLE=7-Methyl 8-nitroquinoline
##JCAMP-DX=4.24
##DATA TYPE=MASS SPECTRUM
##ORIGIN=NIST Mass Spectrometry Data Center
##OWNER=NIST Mass Spectrometry Data Center
Collection (C) 2014 copyright by the U.S. Secretary of Commerce
on behalf of the United States of America. All rights reserved.
##CAS REGISTRY NO=7471-63-8
##$NIST MASS SPEC NO=343146
##MOLFORM=C10 H8 N2 O2
##MW=188
##$NIST SOURCE=MSDC
##XUNITS=M/Z
##YUNITS=RELATIVE INTENSITY
##XFACTOR=1
##YFACTOR=1
##FIRSTX=11
##LASTX=189
##FIRSTY=10
##MAXX=189
##MINX=11
##MAXY=9999
##MINY=10
##NPOINTS=75
##PEAK TABLE=(XY..XY)
11,10 12,20 13,50 15,70
16,100 17,50 18,100 19,20
20,20 25,10 26,130 27,811
28,951 29,210 30,2682 37,130
38,1021 39,2803 40,40 44,60
46,280 49,60 50,2202 51,2823
52,901 53,70 61,540 62,2042
63,3914 64,1291 65,1101 70,70
71,40 74,1331 75,1752 76,1411
77,3593 78,771 79,140 85,20
86,781 87,1281 88,1752 89,3553
90,651 98,20 99,170 100,300
101,841 102,1611 103,3363 104,631
113,1992 114,3453 115,7377 116,5785
117,661 127,150 128,2762 129,2732
130,6386 131,901 140,2712 141,6756
142,6146 143,3673 144,400 157,90
158,4404 159,681 169,581 171,6646
172,991 188,9999 189,1181
##END=
