##TITLE=N-(2-Chloroethyl)-1,8-naphthalimide
##JCAMP-DX=4.24
##DATA TYPE=MASS SPECTRUM
##ORIGIN=NIST Mass Spectrometry Data Center, 1994
##OWNER=NIST Mass Spectrometry Data Center
Collection (C) 2014 copyright by the U.S. Secretary of Commerce
on behalf of the United States of America. All rights reserved.
##CAS REGISTRY NO=74732-00-6
##$NIST MASS SPEC NO=136121
##MOLFORM=C14 H10 Cl N O2
##MW=259
##$NIST SOURCE=MSDC
##XUNITS=M/Z
##YUNITS=RELATIVE INTENSITY
##XFACTOR=1
##YFACTOR=1
##FIRSTX=49
##LASTX=262
##FIRSTY=685
##MAXX=262
##MINX=49
##MAXY=9999
##MINY=236
##NPOINTS=44
##PEAK TABLE=(XY..XY)
49,685 50,650 51,685 62,697
63,1506 74,582 75,1368 76,1154
77,1426 86,331 87,624 91,415
98,639 99,663 100,538 101,430
113,590 114,639 125,1176 126,4573
127,3344 139,429 140,1116 141,236
151,403 152,4181 153,4158 154,1850
155,1482 169,528 180,7520 181,989
197,9999 198,1800 210,6084 211,949
222,1002 223,766 224,7318 225,1403
259,9652 260,1486 261,3133 262,472
##END=
