##TITLE=4-Tridecen-6-yne, (E)-
##JCAMP-DX=4.24
##DATA TYPE=MASS SPECTRUM
##ORIGIN=D.HENNEBERG, MAX-PLANCK INSTITUTE, MULHEIM, WEST GERMANY
##OWNER=NIST Mass Spectrometry Data Center
Collection (C) 2014 copyright by the U.S. Secretary of Commerce
on behalf of the United States of America. All rights reserved.
##CAS REGISTRY NO=74744-43-7
##$NIST MASS SPEC NO=63019
##MOLFORM=C13 H22
##MW=178
##$NIST SOURCE=MSDC
##XUNITS=M/Z
##YUNITS=RELATIVE INTENSITY
##XFACTOR=1
##YFACTOR=1
##FIRSTX=22
##LASTX=180
##FIRSTY=11
##MAXX=180
##MINX=22
##MAXY=9999
##MINY=3
##NPOINTS=129
##PEAK TABLE=(XY..XY)
22,11 23,26 24,5 25,53
26,162 27,2857 28,592 29,3979
30,105 31,36 33,25 34,22
35,35 36,8 38,125 39,2890
40,408 41,5945 42,639 43,4289
44,411 45,63 46,37 47,35
48,29 49,48 50,264 51,1081
52,936 53,1130 54,618 55,4051
56,464 57,994 58,107 59,56
60,17 61,40 62,73 63,465
64,225 65,2835 66,1120 67,8314
68,1197 69,1979 70,195 71,172
72,89 73,57 74,54 75,299
76,139 77,3795 78,1517 79,9999
80,2461 81,2812 82,508 83,304
84,44 85,51 86,7 87,36
88,16 89,225 90,89 91,3416
92,683 93,6818 94,1137 95,1275
96,295 97,76 98,20 99,3
102,51 103,196 104,88 105,823
106,204 107,3061 108,586 109,1327
110,207 111,13 115,105 116,26
117,110 118,30 119,175 120,69
121,715 122,297 123,69 124,25
126,12 127,17 128,58 129,29
130,16 131,142 132,26 133,72
134,28 135,1265 136,535 137,69
141,8 143,6 144,4 145,16
147,33 149,988 150,156 151,10
152,4 153,7 159,133 163,28
164,11 165,3 173,13 174,4
176,39 177,20 178,893 179,125
180,3
##END=
