##TITLE=Butanoic acid, 3-methylphenyl ester
##JCAMP-DX=4.24
##DATA TYPE=MASS SPECTRUM
##ORIGIN=Zaikin V.G., TIPS RAS, Moscow, Russia
##OWNER=NIST Mass Spectrometry Data Center
Collection (C) 2014 copyright by the U.S. Secretary of Commerce
on behalf of the United States of America. All rights reserved.
##CAS REGISTRY NO=7476-80-4
##$NIST MASS SPEC NO=307512
##MOLFORM=C11 H14 O2
##MW=178
##$NIST SOURCE=MSDC
##XUNITS=M/Z
##YUNITS=RELATIVE INTENSITY
##XFACTOR=1
##YFACTOR=1
##FIRSTX=27
##LASTX=179
##FIRSTY=220
##MAXX=179
##MINX=27
##MAXY=9999
##MINY=30
##NPOINTS=30
##PEAK TABLE=(XY..XY)
27,220 28,80 39,220 41,320
42,30 43,1641 44,50 50,30
51,90 52,60 53,80 55,130
63,50 65,150 70,50 71,1161
72,40 77,430 78,130 79,310
80,160 89,40 90,150 91,310
107,1141 108,9999 109,821 110,50
178,1351 179,160
##END=
