##TITLE=Ethyl 2,2-diethoxypropionate
##JCAMP-DX=4.24
##DATA TYPE=MASS SPECTRUM
##ORIGIN=NIST Mass Spectrometry Data Center, 1994
##OWNER=NIST Mass Spectrometry Data Center
Collection (C) 2014 copyright by the U.S. Secretary of Commerce
on behalf of the United States of America. All rights reserved.
##CAS REGISTRY NO=7476-20-2
##$NIST MASS SPEC NO=135133
##MOLFORM=C9 H18 O4
##MW=190
##$NIST SOURCE=MSDC
##XUNITS=M/Z
##YUNITS=RELATIVE INTENSITY
##XFACTOR=1
##YFACTOR=1
##FIRSTX=4
##LASTX=175
##FIRSTY=43
##MAXX=175
##MINX=4
##MAXY=9999
##MINY=1
##NPOINTS=73
##PEAK TABLE=(XY..XY)
4,43 6,4 10,8 12,14
13,9 14,56 15,432 16,16
17,17 18,11 19,57 21,5
23,6 24,1 26,209 27,1423
28,331 29,2645 30,160 31,223
32,5 35,6 36,11 37,2
38,12 39,22 43,9999 44,328
45,519 47,157 50,6 53,20
54,4 55,38 56,17 57,40
58,25 61,8194 62,178 63,48
64,5 67,7 69,12 70,17
71,28 72,78 73,83 74,22
75,63 76,6 77,8 81,7
82,11 83,5 85,2 86,9
87,49 89,3427 90,151 91,80
99,12 100,13 101,9 113,8
117,5658 118,330 119,98 120,6
129,11 145,935 146,80 147,37
175,8
##END=
