##TITLE=Dihydrouracil, 2TMS derivative
##JCAMP-DX=4.24
##DATA TYPE=MASS SPECTRUM
##ORIGIN=NIST Mass Spectrometry Data Center
##OWNER=NIST Mass Spectrometry Data Center
Collection (C) 2014 copyright by the U.S. Secretary of Commerce
on behalf of the United States of America. All rights reserved.
##CAS REGISTRY NO=74810-47-2
##$NIST MASS SPEC NO=333764
##MOLFORM=C10 H22 N2 O2 Si2
##MW=258
##$NIST SOURCE=MSDC
##XUNITS=M/Z
##YUNITS=RELATIVE INTENSITY
##XFACTOR=1
##YFACTOR=1
##FIRSTX=15
##LASTX=261
##FIRSTY=20
##MAXX=261
##MINX=15
##MAXY=9999
##MINY=10
##NPOINTS=146
##PEAK TABLE=(XY..XY)
15,20 27,40 28,30 29,50
30,10 31,40 39,10 40,10
41,10 42,80 43,360 44,170
45,851 46,60 47,80 51,10
52,30 53,30 54,50 55,320
56,160 57,140 58,230 59,1141
60,110 61,120 62,10 63,20
64,10 66,230 68,30 69,70
70,440 71,130 72,761 73,3143
74,370 75,430 76,30 77,10
78,40 79,30 82,10 83,20
84,90 85,190 86,631 87,110
88,40 89,50 90,10 91,10
93,1591 96,10 97,10 98,100
99,390 100,1832 101,230 102,110
103,60 104,10 105,40 106,10
111,20 112,20 113,120 114,480
115,230 116,100 117,200 118,40
119,30 125,10 126,60 127,90
128,180 129,70 130,80 131,470
132,150 133,490 134,70 135,30
139,20 140,10 141,20 142,100
143,60 144,30 145,20 147,9999
148,1641 149,801 150,80 151,20
153,20 155,10 156,10 157,270
158,90 159,40 160,20 161,10
167,10 169,110 170,30 171,80
172,70 173,80 174,100 175,20
176,10 183,10 184,10 185,30
186,10 187,10 188,10 189,10
199,10 201,2622 202,490 203,210
204,30 205,10 213,30 214,10
215,10 227,10 228,10 229,10
239,10 241,390 242,60 243,7887
244,1692 245,721 246,100 247,20
255,10 257,1952 258,1101 259,340
260,90 261,10
##END=
