##TITLE=Stannane, tributylethenyl-
##JCAMP-DX=4.24
##DATA TYPE=MASS SPECTRUM
##ORIGIN=M.GIELEN FREE UNIV. OF BRUSSELS, BRUSSELS, BELGIUM
##OWNER=NIST Mass Spectrometry Data Center
Collection (C) 2014 copyright by the U.S. Secretary of Commerce
on behalf of the United States of America. All rights reserved.
##CAS REGISTRY NO=7486-35-3
##$NIST MASS SPEC NO=15061
##MOLFORM=C14 H30 Sn
##MW=318
##$NIST SOURCE=MSDC
##XUNITS=M/Z
##YUNITS=RELATIVE INTENSITY
##XFACTOR=1
##YFACTOR=1
##FIRSTX=15
##LASTX=291
##FIRSTY=40
##MAXX=291
##MINX=15
##MAXY=9999
##MINY=20
##NPOINTS=190
##PEAK TABLE=(XY..XY)
15,40 16,40 17,40 18,80
19,340 24,40 25,190 26,1020
27,2380 28,2300 29,3280 30,110
31,40 37,40 38,110 39,980
40,190 41,2570 42,260 43,420
44,80 50,110 51,80 52,40
53,230 54,80 55,490 56,420
57,570 58,110 59,40 60,40
67,80 68,40 69,80 70,40
71,110 72,40 77,80 78,40
79,80 80,40 81,80 82,40
83,40 84,40 85,40 91,80
92,20 93,40 94,20 95,40
96,40 97,40 104,40 105,40
107,40 108,40 109,40 112,80
113,110 114,40 115,150 116,940
117,2300 118,2490 119,3740 120,3170
121,4260 122,420 123,980 124,380
125,790 127,80 128,150 129,40
130,80 131,150 132,150 133,230
134,190 135,260 137,80 138,40
139,220 141,450 142,150 143,2720
144,1470 145,6980 146,2830 147,9999
148,1810 149,6980 150,190 151,1810
152,80 153,1060 154,40 155,150
157,40 158,20 159,40 160,20
161,40 162,40 163,40 167,260
169,230 170,110 171,3400 172,1920
173,5890 174,2450 175,8300 176,750
177,2190 178,300 179,1850 180,110
181,230 182,40 183,110 185,40
189,40 197,230 198,40 199,190
200,150 201,2600 202,1580 203,4260
204,1770 205,5660 206,380 207,830
208,80 209,1020 210,110 211,80
212,40 213,80 215,40 223,230
224,20 225,150 226,80 227,2870
228,1700 229,4750 230,2110 231,6790
232,680 233,1130 234,230 235,1280
236,150 237,150 238,80 239,150
240,40 241,80 242,20 243,40
245,40 253,150 254,40 255,110
256,80 257,2000 258,1250 259,3430
260,1470 261,4530 262,530 263,680
264,80 265,830 266,110 267,110
268,80 269,190 270,40 271,80
273,40 287,40 288,40 289,110
290,40 291,110
##END=
