##TITLE=Bicyclo[2.2.1]heptan-2-ol, 1,7,7-trimethyl-, formate, endo-
##JCAMP-DX=4.24
##DATA TYPE=MASS SPECTRUM
##OWNER=NIST Mass Spectrometry Data Center
Collection (C) 2014 copyright by the U.S. Secretary of Commerce
on behalf of the United States of America. All rights reserved.
##CAS REGISTRY NO=7492-41-3
##$NIST MASS SPEC NO=7605
##MOLFORM=C11 H18 O2
##MW=182
##$NIST SOURCE=MSDC
##XUNITS=M/Z
##YUNITS=RELATIVE INTENSITY
##XFACTOR=1
##YFACTOR=1
##FIRSTX=27
##LASTX=182
##FIRSTY=911
##MAXX=182
##MINX=27
##MAXY=9999
##MINY=50
##NPOINTS=61
##PEAK TABLE=(XY..XY)
27,911 28,230 29,1161 31,80
39,1031 40,190 41,2943 42,220
43,1712 45,70 51,200 52,90
53,801 54,140 55,1641 56,160
57,380 65,280 66,140 67,1051
68,390 69,1171 70,250 71,871
72,170 77,631 78,140 79,821
80,951 81,991 82,771 83,520
84,260 85,80 91,530 92,881
93,3623 94,611 95,9999 96,781
97,120 98,60 99,120 105,250
106,50 107,550 108,601 109,290
110,1511 111,320 113,70 119,60
121,3633 122,360 123,120 136,3423
137,470 139,130 154,180 167,320
182,50
##END=
