##TITLE=Benzeneacetic acid, 3-phenyl-2-propenyl ester
##JCAMP-DX=4.24
##DATA TYPE=MASS SPECTRUM
##ORIGIN=V.Zaikin,Topchiev Inst.Petrochem.Synth.,Moscow
##OWNER=NIST Mass Spectrometry Data Center
Collection (C) 2014 copyright by the U.S. Secretary of Commerce
on behalf of the United States of America. All rights reserved.
##CAS REGISTRY NO=7492-65-1
##$NIST MASS SPEC NO=282641
##MOLFORM=C17 H16 O2
##MW=252
##$NIST SOURCE=MSDC
##XUNITS=M/Z
##YUNITS=RELATIVE INTENSITY
##XFACTOR=1
##YFACTOR=1
##FIRSTX=22
##LASTX=254
##FIRSTY=10
##MAXX=254
##MINX=22
##MAXY=9999
##MINY=10
##NPOINTS=142
##PEAK TABLE=(XY..XY)
22,10 25,10 26,110 27,180
28,50 29,110 30,20 31,20
35,40 36,350 37,40 38,100
39,821 40,80 41,220 42,30
43,80 44,20 45,320 46,20
47,20 49,20 50,270 51,591
52,180 53,60 54,20 55,80
56,20 57,80 58,50 59,60
60,20 61,70 62,170 63,550
64,150 65,1201 66,100 67,30
69,30 71,20 73,120 74,100
75,170 76,140 77,2642 78,480
79,290 80,20 81,20 82,10
83,20 85,20 86,40 87,60
88,30 89,681 90,480 91,9459
92,1311 93,100 94,20 95,20
96,40 97,20 101,20 102,210
103,350 104,180 105,611 106,90
107,40 108,10 109,20 110,20
113,40 114,40 115,3763 116,1511
117,9999 118,3924 119,651 120,60
121,20 122,30 123,10 126,50
127,10 128,40 129,30 130,20
131,190 132,80 133,2292 134,440
135,90 136,550 137,110 139,30
140,10 141,20 144,10 145,20
147,40 148,20 149,20 151,90
152,30 153,20 156,10 160,30
161,210 162,20 163,20 165,30
166,10 167,70 168,140 169,70
170,10 176,10 177,40 178,40
179,20 180,40 181,10 184,10
189,10 191,90 192,20 193,130
194,30 195,20 197,10 203,20
205,30 206,20 251,20 252,1231
253,240 254,20
##END=
