##TITLE=Benzoic acid, 2-amino-, 2-propenyl ester
##JCAMP-DX=4.24
##DATA TYPE=MASS SPECTRUM
##ORIGIN=NIST Mass Spectrometry Data Center, 1998.
##OWNER=NIST Mass Spectrometry Data Center
Collection (C) 2014 copyright by the U.S. Secretary of Commerce
on behalf of the United States of America. All rights reserved.
##CAS REGISTRY NO=7493-63-2
##$NIST MASS SPEC NO=290882
##MOLFORM=C10 H11 N O2
##MW=177
##$NIST SOURCE=MSDC
##XUNITS=M/Z
##YUNITS=RELATIVE INTENSITY
##XFACTOR=1
##YFACTOR=1
##FIRSTX=15
##LASTX=179
##FIRSTY=30
##MAXX=179
##MINX=15
##MAXY=9999
##MINY=10
##NPOINTS=94
##PEAK TABLE=(XY..XY)
15,30 25,10 26,80 27,240
28,90 29,170 30,20 31,30
37,110 38,370 39,2090 40,210
41,1510 42,160 43,10 44,30
45,30 46,40 49,10 50,170
51,180 52,650 53,210 54,160
55,80 56,530 57,80 58,40
60,30 61,80 62,250 63,880
64,930 65,4310 66,690 67,50
68,20 73,10 74,80 75,80
76,150 77,280 78,190 79,100
80,70 81,20 87,10 88,20
89,70 90,280 91,960 92,5679
93,1890 94,140 95,10 102,30
103,200 104,370 105,220 106,110
107,30 108,10 115,70 116,40
117,130 118,100 119,9999 120,8389
121,910 122,60 123,10 128,30
130,1730 131,490 132,1360 133,190
134,30 135,40 136,10 137,90
138,10 144,20 146,70 147,10
148,40 149,10 150,20 156,10
158,400 159,210 160,40 177,7179
178,830 179,70
##END=
