##TITLE=2-Tridecen-1-ol, (E)-
##JCAMP-DX=4.24
##DATA TYPE=MASS SPECTRUM
##ORIGIN=NIST Mass Spectrometry Data Center, 1990.
##OWNER=NIST Mass Spectrometry Data Center
Collection (C) 2014 copyright by the U.S. Secretary of Commerce
on behalf of the United States of America. All rights reserved.
##CAS REGISTRY NO=74962-98-4
##$NIST MASS SPEC NO=119032
##MOLFORM=C13 H26 O
##MW=198
##$NIST SOURCE=MSDC
##XUNITS=M/Z
##YUNITS=RELATIVE INTENSITY
##XFACTOR=1
##YFACTOR=1
##FIRSTX=15
##LASTX=199
##FIRSTY=121
##MAXX=199
##MINX=15
##MAXY=9999
##MINY=5
##NPOINTS=96
##PEAK TABLE=(XY..XY)
15,121 17,49 18,201 19,38
27,3010 28,496 29,5258 30,166
31,1085 33,7 39,2221 41,8393
42,2048 43,7130 44,1127 45,308
46,11 50,46 51,146 52,135
53,899 54,2076 55,5185 56,2400
57,9999 58,667 59,79 60,6
63,23 65,263 66,574 67,3306
68,3034 69,2923 70,1751 71,1746
72,390 73,102 74,11 77,173
78,67 79,459 80,327 81,2771
82,3874 83,2121 84,729 85,607
86,94 87,13 91,70 92,18
93,114 94,198 95,1869 96,2088
97,1114 98,346 99,167 100,24
107,24 109,737 110,651 111,375
112,148 113,58 114,12 115,5
121,25 122,42 123,351 124,472
125,137 126,114 127,26 128,7
135,12 136,17 137,160 138,155
139,31 140,18 141,12 151,51
152,173 153,27 154,51 155,14
165,13 169,18 170,9 180,144
181,24 182,15 198,25 199,5
##END=
