##TITLE=2-Naphthylacetonitrile
##JCAMP-DX=4.24
##DATA TYPE=MASS SPECTRUM
##ORIGIN=NIST Mass Spectrometry Data Center
##OWNER=NIST Mass Spectrometry Data Center
Collection (C) 2014 copyright by the U.S. Secretary of Commerce
on behalf of the United States of America. All rights reserved.
##CAS REGISTRY NO=7498-57-9
##$NIST MASS SPEC NO=340729
##MOLFORM=C12 H9 N
##MW=167
##$NIST SOURCE=MSDC
##XUNITS=M/Z
##YUNITS=RELATIVE INTENSITY
##XFACTOR=1
##YFACTOR=1
##FIRSTX=26
##LASTX=169
##FIRSTY=30
##MAXX=169
##MINX=26
##MAXY=9999
##MINY=10
##NPOINTS=79
##PEAK TABLE=(XY..XY)
26,30 27,70 37,40 38,110
39,360 40,40 41,30 49,20
50,450 51,510 52,120 53,20
55,30 56,50 57,150 61,130
62,400 63,791 64,130 65,140
66,10 69,651 70,380 73,40
74,470 75,470 76,280 77,320
78,40 82,190 83,581 85,80
86,250 87,400 88,230 89,420
90,50 91,40 97,20 98,170
99,140 100,120 101,210 102,120
103,10 109,20 110,50 111,110
112,70 113,510 114,270 115,1051
116,130 122,30 123,10 124,10
125,40 126,591 127,470 128,180
129,10 135,10 136,10 137,210
138,300 139,3173 140,2833 141,821
142,70 150,10 151,20 152,10
163,10 164,380 165,130 166,7287
167,9999 168,1351 169,70
##END=
