##TITLE=Ethanethiol
##JCAMP-DX=4.24
##DATA TYPE=MASS SPECTRUM
##ORIGIN=Japan AIST/NIMC Database- Spectrum MS-NW-3851
##OWNER=NIST Mass Spectrometry Data Center
Collection (C) 2014 copyright by the U.S. Secretary of Commerce
on behalf of the United States of America. All rights reserved.
##CAS REGISTRY NO=75-08-1
##$NIST MASS SPEC NO=231057
##MOLFORM=C2 H6 S
##MW=62
##$NIST SOURCE=MSDC
##XUNITS=M/Z
##YUNITS=RELATIVE INTENSITY
##XFACTOR=1
##YFACTOR=1
##FIRSTX=12
##LASTX=65
##FIRSTY=30
##MAXX=65
##MINX=12
##MAXY=9999
##MINY=10
##NPOINTS=39
##PEAK TABLE=(XY..XY)
12,30 13,40 14,70 15,139
17,40 18,219 24,30 25,139
26,1209 27,6059 28,3659 29,9419
30,229 31,10 32,219 33,399
34,1729 35,1089 36,99 37,50
41,30 42,10 43,20 44,199
45,1549 46,1279 47,6869 48,189
49,319 56,109 57,559 58,749
59,659 60,129 61,1489 62,9999
63,369 64,489 65,10
##END=
