##TITLE=Ethane, iodo-
##JCAMP-DX=4.24
##DATA TYPE=MASS SPECTRUM
##ORIGIN=NIST Mass Spectrometry Data Center, 1994
##OWNER=NIST Mass Spectrometry Data Center
Collection (C) 2014 copyright by the U.S. Secretary of Commerce
on behalf of the United States of America. All rights reserved.
##CAS REGISTRY NO=75-03-6
##$NIST MASS SPEC NO=133586
##MOLFORM=C2 H5 I
##MW=156
##$NIST SOURCE=MSDC
##XUNITS=M/Z
##YUNITS=RELATIVE INTENSITY
##XFACTOR=1
##YFACTOR=1
##FIRSTX=12
##LASTX=157
##FIRSTY=41
##MAXX=157
##MINX=12
##MAXY=9999
##MINY=26
##NPOINTS=20
##PEAK TABLE=(XY..XY)
12,41 13,82 14,172 15,131
24,71 25,383 26,2261 27,8068
28,1406 29,9037 30,175 63,26
127,4834 128,895 129,55 139,85
140,79 141,227 156,9999 157,227
##END=
