##TITLE=Ethene, fluoro-
##JCAMP-DX=4.24
##DATA TYPE=MASS SPECTRUM
##OWNER=NIST Mass Spectrometry Data Center
Collection (C) 2014 copyright by the U.S. Secretary of Commerce
on behalf of the United States of America. All rights reserved.
##CAS REGISTRY NO=75-02-5
##$NIST MASS SPEC NO=79
##MOLFORM=C2 H3 F
##MW=46
##$NIST SOURCE=MSDC
##XUNITS=M/Z
##YUNITS=RELATIVE INTENSITY
##XFACTOR=1
##YFACTOR=1
##FIRSTX=2
##LASTX=47
##FIRSTY=50
##MAXX=47
##MINX=2
##MAXY=9999
##MINY=10
##NPOINTS=22
##PEAK TABLE=(XY..XY)
2,50 12,661 13,841 14,691
15,130 19,90 20,30 21,10
24,520 25,1281 26,5925 27,5995
28,160 29,10 31,1191 32,450
33,50 43,130 44,3103 45,7116
46,9999 47,290
##END=
