##TITLE=Methane, diiodo-
##JCAMP-DX=4.24
##DATA TYPE=MASS SPECTRUM
##ORIGIN=Japan AIST/NIMC Database- Spectrum MS-NW-4431
##OWNER=NIST Mass Spectrometry Data Center
Collection (C) 2014 copyright by the U.S. Secretary of Commerce
on behalf of the United States of America. All rights reserved.
##CAS REGISTRY NO=75-11-6
##$NIST MASS SPEC NO=230390
##MOLFORM=C H2 I2
##MW=268
##$NIST SOURCE=MSDC
##XUNITS=M/Z
##YUNITS=RELATIVE INTENSITY
##XFACTOR=1
##YFACTOR=1
##FIRSTX=12
##LASTX=269
##FIRSTY=20
##MAXX=269
##MINX=12
##MAXY=9999
##MINY=10
##NPOINTS=16
##PEAK TABLE=(XY..XY)
12,20 13,30 63,10 127,2309
128,199 134,109 139,569 140,629
141,7199 142,90 254,719 255,10
266,99 267,169 268,9999 269,119
##END=
