##TITLE=Dimethyl sulfide
##JCAMP-DX=4.24
##DATA TYPE=MASS SPECTRUM
##ORIGIN=Japan AIST/NIMC Database- Spectrum MS-NW-1477
##OWNER=NIST Mass Spectrometry Data Center
Collection (C) 2014 copyright by the U.S. Secretary of Commerce
on behalf of the United States of America. All rights reserved.
##CAS REGISTRY NO=75-18-3
##$NIST MASS SPEC NO=233890
##MOLFORM=C2 H6 S
##MW=62
##$NIST SOURCE=MSDC
##XUNITS=M/Z
##YUNITS=RELATIVE INTENSITY
##XFACTOR=1
##YFACTOR=1
##FIRSTX=12
##LASTX=65
##FIRSTY=30
##MAXX=65
##MINX=12
##MAXY=9999
##MINY=10
##NPOINTS=37
##PEAK TABLE=(XY..XY)
12,30 13,80 14,189 15,499
17,20 18,119 26,50 27,2079
28,189 29,90 31,30 32,119
33,70 34,109 35,3229 36,30
37,139 39,10 41,20 42,10
43,169 44,409 45,4089 46,3619
47,9549 48,339 49,429 56,40
57,229 58,299 59,289 60,40
61,3339 62,9999 63,439 64,439
65,10
##END=
