##TITLE=Trimethylamine, compd. with borane (1:1)
##JCAMP-DX=4.24
##DATA TYPE=MASS SPECTRUM
##ORIGIN=Japan AIST/NIMC Database- Spectrum MS-NW-8856
##OWNER=NIST Mass Spectrometry Data Center
Collection (C) 2014 copyright by the U.S. Secretary of Commerce
on behalf of the United States of America. All rights reserved.
##CAS REGISTRY NO=75-22-9
##$NIST MASS SPEC NO=234921
##MOLFORM=C3 H12 B N
##MW=73
##$NIST SOURCE=MSDC
##XUNITS=M/Z
##YUNITS=RELATIVE INTENSITY
##XFACTOR=1
##YFACTOR=1
##FIRSTX=11
##LASTX=73
##FIRSTY=20
##MAXX=73
##MINX=11
##MAXY=9999
##MINY=10
##NPOINTS=46
##PEAK TABLE=(XY..XY)
11,20 12,40 13,169 14,30
15,459 16,10 18,50 24,10
25,60 26,389 27,1309 28,1199
29,659 30,1749 31,30 32,10
36,10 37,30 38,90 39,229
40,819 41,1419 42,1879 43,329
44,349 45,10 50,10 51,50
52,70 53,279 54,1009 55,839
56,3299 57,329 58,6129 59,2259
60,90 65,10 66,50 67,90
68,429 69,709 70,1999 71,3079
72,9999 73,409
##END=
