##TITLE=Ethylene oxide
##JCAMP-DX=4.24
##DATA TYPE=MASS SPECTRUM
##OWNER=NIST Mass Spectrometry Data Center
Collection (C) 2014 copyright by the U.S. Secretary of Commerce
on behalf of the United States of America. All rights reserved.
##CAS REGISTRY NO=75-21-8
##$NIST MASS SPEC NO=18867
##MOLFORM=C2 H4 O
##MW=44
##$NIST SOURCE=MSDC
##XUNITS=M/Z
##YUNITS=RELATIVE INTENSITY
##XFACTOR=1
##YFACTOR=1
##FIRSTX=12
##LASTX=46
##FIRSTY=380
##MAXX=46
##MINX=12
##MAXY=9999
##MINY=10
##NPOINTS=24
##PEAK TABLE=(XY..XY)
12,380 13,791 14,2592 15,6526
16,831 17,40 18,20 24,140
25,480 26,1391 27,430 28,651
29,9999 30,200 31,110 38,10
39,30 40,50 41,180 42,1191
43,1561 44,6526 45,210 46,50
##END=
