##TITLE=Propane, 2-iodo-
##JCAMP-DX=4.24
##DATA TYPE=MASS SPECTRUM
##ORIGIN=Japan AIST/NIMC Database- Spectrum MS-NW-4952
##OWNER=NIST Mass Spectrometry Data Center
Collection (C) 2014 copyright by the U.S. Secretary of Commerce
on behalf of the United States of America. All rights reserved.
##CAS REGISTRY NO=75-30-9
##$NIST MASS SPEC NO=229001
##MOLFORM=C3 H7 I
##MW=170
##$NIST SOURCE=MSDC
##XUNITS=M/Z
##YUNITS=RELATIVE INTENSITY
##XFACTOR=1
##YFACTOR=1
##FIRSTX=14
##LASTX=171
##FIRSTY=20
##MAXX=171
##MINX=14
##MAXY=9999
##MINY=10
##NPOINTS=24
##PEAK TABLE=(XY..XY)
14,20 15,109 25,10 26,139
27,2769 28,159 29,20 36,30
37,90 38,159 39,1149 40,199
41,3579 42,359 43,9999 44,339
45,20 127,579 128,109 139,10
141,10 155,70 170,2429 171,90
##END=
