##TITLE=Acetyl chloride
##JCAMP-DX=4.24
##DATA TYPE=MASS SPECTRUM
##ORIGIN=Japan AIST/NIMC Database- Spectrum MS-IW-3409
##OWNER=NIST Mass Spectrometry Data Center
Collection (C) 2014 copyright by the U.S. Secretary of Commerce
on behalf of the United States of America. All rights reserved.
##CAS REGISTRY NO=75-36-5
##$NIST MASS SPEC NO=228275
##MOLFORM=C2 H3 Cl O
##MW=78
##$NIST SOURCE=MSDC
##XUNITS=M/Z
##YUNITS=RELATIVE INTENSITY
##XFACTOR=1
##YFACTOR=1
##FIRSTX=12
##LASTX=81
##FIRSTY=139
##MAXX=81
##MINX=12
##MAXY=9999
##MINY=10
##NPOINTS=41
##PEAK TABLE=(XY..XY)
12,139 13,439 14,1019 15,4839
16,60 18,20 21,10 24,109
25,299 26,379 27,169 28,489
29,749 30,20 35,789 36,509
37,269 38,159 40,229 41,989
42,2479 43,9999 44,359 45,90
47,279 48,409 49,399 50,129
51,109 59,70 60,219 61,109
62,119 63,2829 64,50 65,939
66,10 78,50 79,10 80,20
81,10
##END=
