##TITLE=Difluorochloromethane
##JCAMP-DX=4.24
##DATA TYPE=MASS SPECTRUM
##OWNER=NIST Mass Spectrometry Data Center
Collection (C) 2014 copyright by the U.S. Secretary of Commerce
on behalf of the United States of America. All rights reserved.
##CAS REGISTRY NO=75-45-6
##$NIST MASS SPEC NO=624
##MOLFORM=C H Cl F2
##MW=86
##$NIST SOURCE=MSDC
##XUNITS=M/Z
##YUNITS=RELATIVE INTENSITY
##XFACTOR=1
##YFACTOR=1
##FIRSTX=12
##LASTX=88
##FIRSTY=340
##MAXX=88
##MINX=12
##MAXY=9999
##MINY=10
##NPOINTS=33
##PEAK TABLE=(XY..XY)
12,340 13,400 14,10 16,10
19,190 20,20 24,60 25,20
31,1692 32,961 33,20 34,10
35,1241 36,150 37,380 38,50
47,270 48,50 49,80 50,581
51,9999 52,110 54,10 56,10
66,200 67,1501 68,80 69,480
70,10 85,140 86,130 87,50
88,40
##END=
