##TITLE=Silane, dichloromethyl-
##JCAMP-DX=4.24
##DATA TYPE=MASS SPECTRUM
##ORIGIN=NIST Mass Spectrometry Data Center, 1994
##OWNER=NIST Mass Spectrometry Data Center
Collection (C) 2014 copyright by the U.S. Secretary of Commerce
on behalf of the United States of America. All rights reserved.
##CAS REGISTRY NO=75-54-7
##$NIST MASS SPEC NO=133655
##MOLFORM=C H4 Cl2 Si
##MW=114
##$NIST SOURCE=MSDC
##XUNITS=M/Z
##YUNITS=RELATIVE INTENSITY
##XFACTOR=1
##YFACTOR=1
##FIRSTX=12
##LASTX=119
##FIRSTY=48
##MAXX=119
##MINX=12
##MAXY=9999
##MINY=22
##NPOINTS=48
##PEAK TABLE=(XY..XY)
12,48 13,128 14,275 15,569
28,810 29,338 30,45 31,22
35,554 36,233 37,179 38,75
40,183 41,737 42,830 43,824
44,132 45,40 47,43 48,52
49,81 63,5034 64,515 65,1812
66,144 67,67 75,73 76,210
77,357 78,1142 79,1570 80,477
81,542 82,40 98,1416 99,4344
100,1192 101,2766 102,288 103,502
104,33 113,9999 114,1107 115,6591
116,584 117,1147 118,88 119,31
##END=
