##TITLE=Aziridine, 2-methyl-
##JCAMP-DX=4.24
##DATA TYPE=MASS SPECTRUM
##ORIGIN=NIST Mass Spectrometry Data Center, 1998.
##OWNER=NIST Mass Spectrometry Data Center
Collection (C) 2014 copyright by the U.S. Secretary of Commerce
on behalf of the United States of America. All rights reserved.
##CAS REGISTRY NO=75-55-8
##$NIST MASS SPEC NO=291432
##MOLFORM=C3 H7 N
##MW=57
##$NIST SOURCE=MSDC
##XUNITS=M/Z
##YUNITS=RELATIVE INTENSITY
##XFACTOR=1
##YFACTOR=1
##FIRSTX=12
##LASTX=58
##FIRSTY=10
##MAXX=58
##MINX=12
##MAXY=9999
##MINY=10
##NPOINTS=30
##PEAK TABLE=(XY..XY)
12,10 13,20 14,90 15,320
16,10 24,20 25,100 26,880
27,1610 28,8209 29,2300 30,2700
31,50 36,30 37,160 38,360
39,780 40,690 41,1010 42,2370
43,80 50,40 51,220 52,380
53,40 54,490 55,130 56,9999
57,5619 58,210
##END=
