##TITLE=Methane, bromotrichloro-
##JCAMP-DX=4.24
##DATA TYPE=MASS SPECTRUM
##ORIGIN=Japan AIST/NIMC Database- Spectrum MS-IW-5645
##OWNER=NIST Mass Spectrometry Data Center
Collection (C) 2014 copyright by the U.S. Secretary of Commerce
on behalf of the United States of America. All rights reserved.
##CAS REGISTRY NO=75-62-7
##$NIST MASS SPEC NO=228694
##MOLFORM=C Br Cl3
##MW=196
##$NIST SOURCE=MSDC
##XUNITS=M/Z
##YUNITS=RELATIVE INTENSITY
##XFACTOR=1
##YFACTOR=1
##FIRSTX=12
##LASTX=167
##FIRSTY=119
##MAXX=167
##MINX=12
##MAXY=9999
##MINY=10
##NPOINTS=45
##PEAK TABLE=(XY..XY)
12,119 35,639 36,30 37,209
38,10 47,1939 48,30 49,639
50,10 70,40 72,30 79,919
80,70 81,909 82,2869 83,139
84,1819 85,90 86,289 87,10
91,369 93,369 94,10 114,90
116,109 117,9999 118,129 119,9709
120,99 121,3139 122,30 123,349
126,379 127,20 128,499 129,30
130,119 131,10 161,3779 162,40
163,6149 164,70 165,2799 166,40
167,379
##END=
