##TITLE=Trichloromonofluoromethane
##JCAMP-DX=4.24
##DATA TYPE=MASS SPECTRUM
##ORIGIN=KONINKLIJKE/SHELL LAB., AMSTERDAM, THE NETHERLANDS
##OWNER=NIST Mass Spectrometry Data Center
Collection (C) 2014 copyright by the U.S. Secretary of Commerce
on behalf of the United States of America. All rights reserved.
##CAS REGISTRY NO=75-69-4
##$NIST MASS SPEC NO=34555
##MOLFORM=C Cl3 F
##MW=136
##$NIST SOURCE=MSDC
##XUNITS=M/Z
##YUNITS=RELATIVE INTENSITY
##XFACTOR=1
##YFACTOR=1
##FIRSTX=19
##LASTX=136
##FIRSTY=15
##MAXX=136
##MINX=19
##MAXY=9999
##MINY=3
##NPOINTS=37
##PEAK TABLE=(XY..XY)
19,15 31,825 32,105 35,1085
36,185 37,355 38,60 47,853
48,11 49,285 50,40 54,8
56,12 66,1304 67,27 68,438
69,7 70,59 72,44 74,7
82,400 83,3 84,258 85,62
86,43 87,19 101,9999 102,110
103,6577 104,73 105,1060 106,12
117,215 119,211 121,68 123,7
136,7
##END=
