##TITLE=2-Propanamine, 2-methyl-
##JCAMP-DX=4.24
##DATA TYPE=MASS SPECTRUM
##ORIGIN=CONTINENTAL OIL CO., PONCA CITY, OKLA, USA
##OWNER=NIST Mass Spectrometry Data Center
Collection (C) 2014 copyright by the U.S. Secretary of Commerce
on behalf of the United States of America. All rights reserved.
##CAS REGISTRY NO=75-64-9
##$NIST MASS SPEC NO=34886
##MOLFORM=C4 H11 N
##MW=73
##$NIST SOURCE=MSDC
##XUNITS=M/Z
##YUNITS=RELATIVE INTENSITY
##XFACTOR=1
##YFACTOR=1
##FIRSTX=13
##LASTX=73
##FIRSTY=64
##MAXX=73
##MINX=13
##MAXY=9999
##MINY=2
##NPOINTS=43
##PEAK TABLE=(XY..XY)
13,64 14,271 15,1515 16,120
19,10 24,3 25,22 26,189
27,665 28,858 29,502 30,1136
31,27 32,33 33,4 36,11
37,67 38,142 39,763 40,242
41,2019 42,1647 43,387 44,55
45,2 48,2 49,12 50,49
51,63 52,68 53,49 54,81
55,151 56,255 57,565 58,9999
59,440 60,7 68,4 70,25
71,6 72,4 73,16
##END=
