##TITLE=Methane, dibromodifluoro-
##JCAMP-DX=4.24
##DATA TYPE=MASS SPECTRUM
##OWNER=NIST Mass Spectrometry Data Center
Collection (C) 2014 copyright by the U.S. Secretary of Commerce
on behalf of the United States of America. All rights reserved.
##CAS REGISTRY NO=75-61-6
##$NIST MASS SPEC NO=9611
##MOLFORM=C Br2 F2
##MW=208
##$NIST SOURCE=MSDC
##XUNITS=M/Z
##YUNITS=RELATIVE INTENSITY
##XFACTOR=1
##YFACTOR=1
##FIRSTX=12
##LASTX=212
##FIRSTY=30
##MAXX=212
##MINX=12
##MAXY=9999
##MINY=10
##NPOINTS=36
##PEAK TABLE=(XY..XY)
12,30 28,70 31,571 32,10
36,30 50,731 51,70 68,160
70,50 79,801 81,801 85,20
86,10 87,10 91,130 93,130
110,220 111,30 112,220 113,30
129,9999 130,210 131,9819 132,170
158,100 160,210 162,100 170,20
172,40 174,20 189,410 191,801
193,390 208,420 210,811 212,400
##END=
