##TITLE=Lead, tetramethyl-
##JCAMP-DX=4.24
##DATA TYPE=MASS SPECTRUM
##ORIGIN=API 0698
##OWNER=NIST Mass Spectrometry Data Center
Collection (C) 2014 copyright by the U.S. Secretary of Commerce
on behalf of the United States of America. All rights reserved.
##CAS REGISTRY NO=75-74-1
##$NIST MASS SPEC NO=13031
##MOLFORM=C4 H12 Pb
##MW=268
##$NIST SOURCE=MSDC
##XUNITS=M/Z
##YUNITS=RELATIVE INTENSITY
##XFACTOR=1
##YFACTOR=1
##FIRSTX=12
##LASTX=268
##FIRSTY=30
##MAXX=268
##MINX=12
##MAXY=9999
##MINY=10
##NPOINTS=47
##PEAK TABLE=(XY..XY)
12,30 13,80 14,260 15,1221
16,30 26,20 27,50 28,30
29,20 118,10 119,10 126,10
204,170 205,20 206,3323 207,2853
208,6626 209,571 216,10 217,10
218,60 219,400 220,510 221,4964
222,4034 223,8538 224,40 230,10
231,10 232,10 233,20 234,70
235,40 236,1311 237,1061 238,2492
239,30 248,10 249,260 250,50
251,5245 252,4124 253,9999 254,30
266,10 267,10 268,20
##END=
