##TITLE=Silane, dichlorodimethyl-
##JCAMP-DX=4.24
##DATA TYPE=MASS SPECTRUM
##ORIGIN=NIST Mass Spectrometry Data Center, 1994
##OWNER=NIST Mass Spectrometry Data Center
Collection (C) 2014 copyright by the U.S. Secretary of Commerce
on behalf of the United States of America. All rights reserved.
##CAS REGISTRY NO=75-78-5
##$NIST MASS SPEC NO=133651
##MOLFORM=C2 H6 Cl2 Si
##MW=128
##$NIST SOURCE=MSDC
##XUNITS=M/Z
##YUNITS=RELATIVE INTENSITY
##XFACTOR=1
##YFACTOR=1
##FIRSTX=12
##LASTX=133
##FIRSTY=47
##MAXX=133
##MINX=12
##MAXY=9999
##MINY=5
##NPOINTS=69
##PEAK TABLE=(XY..XY)
12,47 13,103 14,324 15,962
16,26 25,17 26,100 27,298
28,298 29,273 30,30 31,22
35,168 36,73 37,57 38,32
40,81 41,302 42,424 43,553
44,47 45,20 47,33 48,44
49,57 50,19 51,20 52,56
53,243 54,46 55,57 57,13
58,55 63,3163 64,314 65,1366
66,110 67,147 75,32 76,135
77,269 78,158 79,118 80,29
88,13 92,167 93,1013 94,141
95,373 96,32 97,13 98,375
99,197 100,259 101,127 102,52
103,20 113,9999 115,7032 116,419
117,1319 118,64 119,35 128,709
129,51 130,473 131,39 132,90
133,5
##END=
