##TITLE=Silane, tetramethyl-
##JCAMP-DX=4.24
##DATA TYPE=MASS SPECTRUM
##ORIGIN=R.W.CRAWFORD UNIV. OF CALIFORNIA, LIVERMORE, CALIFORNIA, USA
##OWNER=NIST Mass Spectrometry Data Center
Collection (C) 2014 copyright by the U.S. Secretary of Commerce
on behalf of the United States of America. All rights reserved.
##CAS REGISTRY NO=75-76-3
##$NIST MASS SPEC NO=19500
##MOLFORM=C4 H12 Si
##MW=88
##$NIST SOURCE=MSDC
##XUNITS=M/Z
##YUNITS=RELATIVE INTENSITY
##XFACTOR=1
##YFACTOR=1
##FIRSTX=2
##LASTX=90
##FIRSTY=12
##MAXX=90
##MINX=2
##MAXY=9999
##MINY=1
##NPOINTS=55
##PEAK TABLE=(XY..XY)
2,12 12,11 13,24 14,91
15,485 16,11 25,4 26,34
27,107 28,358 29,733 30,73
31,351 32,25 33,11 36,1
37,4 38,6 39,24 40,13
41,97 42,392 43,1389 44,367
45,1249 46,84 47,41 48,1
51,1 52,14 53,215 54,54
55,217 56,40 57,153 58,150
59,213 60,19 61,9 64,3
65,26 66,32 67,23 68,7
69,10 70,25 71,57 72,119
73,9999 74,848 75,359 76,15
88,70 89,6 90,2
##END=
