##TITLE=Ethanol, 2,2,2-trifluoro-
##JCAMP-DX=4.24
##DATA TYPE=MASS SPECTRUM
##ORIGIN=NIST Mass Spectrometry Data Center, 1990.
##OWNER=NIST Mass Spectrometry Data Center
Collection (C) 2014 copyright by the U.S. Secretary of Commerce
on behalf of the United States of America. All rights reserved.
##CAS REGISTRY NO=75-89-8
##$NIST MASS SPEC NO=118716
##MOLFORM=C2 H3 F3 O
##MW=100
##$NIST SOURCE=MSDC
##XUNITS=M/Z
##YUNITS=RELATIVE INTENSITY
##XFACTOR=1
##YFACTOR=1
##FIRSTX=12
##LASTX=100
##FIRSTY=41
##MAXX=100
##MINX=12
##MAXY=9999
##MINY=8
##NPOINTS=43
##PEAK TABLE=(XY..XY)
12,41 13,48 14,30 15,8
17,45 18,27 19,29 20,10
24,23 25,42 26,47 29,2561
31,9999 32,227 33,2051 34,25
40,36 41,10 43,33 44,157
45,40 47,20 49,472 50,529
51,1344 52,25 53,26 60,188
61,2261 62,67 63,147 64,124
67,15 69,937 70,19 78,56
79,146 80,89 81,462 82,50
83,264 99,83 100,98
##END=
