##TITLE=Acetone cyanohydrin
##JCAMP-DX=4.24
##DATA TYPE=MASS SPECTRUM
##ORIGIN=NIST Mass Spectrometry Data Center
##OWNER=NIST Mass Spectrometry Data Center
Collection (C) 2014 copyright by the U.S. Secretary of Commerce
on behalf of the United States of America. All rights reserved.
##CAS REGISTRY NO=75-86-5
##$NIST MASS SPEC NO=341331
##MOLFORM=C4 H7 N O
##MW=85
##$NIST SOURCE=MSDC
##XUNITS=M/Z
##YUNITS=RELATIVE INTENSITY
##XFACTOR=1
##YFACTOR=1
##FIRSTX=12
##LASTX=84
##FIRSTY=10
##MAXX=84
##MINX=12
##MAXY=9999
##MINY=10
##NPOINTS=46
##PEAK TABLE=(XY..XY)
12,10 13,20 14,80 15,480
16,10 17,10 25,40 26,480
27,1641 28,110 29,330 30,10
31,110 36,30 37,230 38,310
39,741 40,310 41,1101 42,2112
43,7697 44,250 45,10 50,40
51,220 52,440 53,60 54,290
55,80 56,40 57,70 58,2022
59,230 60,10 62,10 63,30
64,70 65,10 66,60 67,60
68,330 69,460 70,9999 71,360
72,20 84,20
##END=
