##TITLE=Tribromoacetic acid
##JCAMP-DX=4.24
##DATA TYPE=MASS SPECTRUM
##ORIGIN=Japan AIST/NIMC Database- Spectrum MS-NW-5050
##OWNER=NIST Mass Spectrometry Data Center
Collection (C) 2014 copyright by the U.S. Secretary of Commerce
on behalf of the United States of America. All rights reserved.
##CAS REGISTRY NO=75-96-7
##$NIST MASS SPEC NO=230154
##MOLFORM=C2 H Br3 O2
##MW=294
##$NIST SOURCE=MSDC
##XUNITS=M/Z
##YUNITS=RELATIVE INTENSITY
##XFACTOR=1
##YFACTOR=1
##FIRSTX=12
##LASTX=256
##FIRSTY=119
##MAXX=256
##MINX=12
##MAXY=9999
##MINY=10
##NPOINTS=41
##PEAK TABLE=(XY..XY)
12,119 13,139 16,189 28,50
44,3799 45,70 46,20 64,10
76,50 79,939 80,199 81,909
82,199 85,10 86,20 87,10
91,1629 92,1029 93,1609 94,1039
95,10 158,129 160,279 162,139
170,60 171,5049 172,179 173,9999
174,179 175,4859 176,60 182,10
184,20 249,40 250,399 251,119
252,1169 253,119 254,1129 255,50
256,369
##END=
