##TITLE=Trichlorovinylsilane
##JCAMP-DX=4.24
##DATA TYPE=MASS SPECTRUM
##ORIGIN=RADIAN CORP
##OWNER=NIST Mass Spectrometry Data Center
Collection (C) 2014 copyright by the U.S. Secretary of Commerce
on behalf of the United States of America. All rights reserved.
##CAS REGISTRY NO=75-94-5
##$NIST MASS SPEC NO=69989
##MOLFORM=C2 H3 Cl3 Si
##MW=160
##$NIST SOURCE=MSDC
##XUNITS=M/Z
##YUNITS=RELATIVE INTENSITY
##XFACTOR=1
##YFACTOR=1
##FIRSTX=12
##LASTX=166
##FIRSTY=20
##MAXX=166
##MINX=12
##MAXY=9999
##MINY=10
##NPOINTS=97
##PEAK TABLE=(XY..XY)
12,20 13,40 14,100 15,40
24,50 25,360 26,1570 27,2700
28,1160 29,700 30,70 35,1200
36,150 37,410 38,40 39,10
40,120 41,200 42,70 43,40
44,50 45,50 47,40 48,50
49,40 50,20 51,10 52,510
53,2100 54,370 55,150 56,10
59,20 60,90 61,80 62,110
63,9210 64,740 65,3250 66,240
67,110 70,20 72,10 75,30
76,60 77,30 78,30 79,20
87,180 88,440 89,160 90,340
91,60 92,80 93,30 95,10
98,4290 99,1740 100,3010 101,1210
102,620 103,220 104,20 105,10
107,10 111,30 112,20 113,60
114,10 115,70 116,10 117,40
122,30 123,590 124,4210 125,8150
126,4160 127,5610 128,1400 129,1120
130,190 131,80 133,9860 134,590
135,9999 136,520 137,3350 138,160
139,410 140,20 160,3370 161,270
162,3550 163,240 164,1250 165,80
166,160
##END=
