##TITLE=4-Cyclohexene-1,2-dicarboxylic acid, dimethyl ester
##JCAMP-DX=4.24
##DATA TYPE=MASS SPECTRUM
##ORIGIN=RADIAN CORP
##OWNER=NIST Mass Spectrometry Data Center
Collection (C) 2014 copyright by the U.S. Secretary of Commerce
on behalf of the United States of America. All rights reserved.
##CAS REGISTRY NO=7500-55-2
##$NIST MASS SPEC NO=73451
##MOLFORM=C10 H14 O4
##MW=198
##$NIST SOURCE=MSDC
##XUNITS=M/Z
##YUNITS=RELATIVE INTENSITY
##XFACTOR=1
##YFACTOR=1
##FIRSTX=15
##LASTX=168
##FIRSTY=1120
##MAXX=168
##MINX=15
##MAXY=9999
##MINY=10
##NPOINTS=57
##PEAK TABLE=(XY..XY)
15,1120 26,70 27,540 29,500
30,140 31,310 33,280 38,20
39,740 41,310 42,40 43,50
45,370 50,150 51,540 52,360
53,580 54,180 55,320 56,20
59,1550 60,100 61,110 65,70
66,60 67,200 69,10 71,70
77,2430 78,3320 79,9999 80,950
81,260 82,30 83,20 85,40
91,90 93,80 94,20 97,30
105,180 106,380 107,980 108,80
109,30 110,130 111,130 113,30
121,20 123,20 124,20 137,480
138,2940 139,300 166,750 167,930
168,80
##END=
