##TITLE=Ethanol, 2-([1,1'-biphenyl]-2-yloxy)-
##JCAMP-DX=4.24
##DATA TYPE=MASS SPECTRUM
##OWNER=NIST Mass Spectrometry Data Center
Collection (C) 2014 copyright by the U.S. Secretary of Commerce
on behalf of the United States of America. All rights reserved.
##CAS REGISTRY NO=7501-02-2
##$NIST MASS SPEC NO=9947
##MOLFORM=C14 H14 O2
##MW=214
##$NIST SOURCE=MSDC
##XUNITS=M/Z
##YUNITS=RELATIVE INTENSITY
##XFACTOR=1
##YFACTOR=1
##FIRSTX=26
##LASTX=216
##FIRSTY=100
##MAXX=216
##MINX=26
##MAXY=9999
##MINY=30
##NPOINTS=107
##PEAK TABLE=(XY..XY)
26,100 27,440 28,30 29,140
30,50 31,50 36,90 38,60
39,270 40,40 41,110 42,60
43,320 44,310 45,550 50,140
51,280 52,90 53,70 55,340
56,60 57,140 58,50 61,40
62,120 63,380 64,100 65,160
68,50 69,60 70,50 71,290
73,40 74,130 75,200 76,350
77,310 78,100 79,40 80,40
81,60 82,40 83,40 84,50
85,40 86,60 87,100 88,70
89,210 90,50 91,230 92,70
97,50 98,40 99,60 101,70
102,150 103,50 104,80 105,70
106,80 107,90 108,50 109,70
113,100 114,90 115,1241 116,150
121,40 123,40 125,40 126,140
127,200 128,110 129,100 131,50
137,50 139,510 140,110 141,1672
142,831 143,90 144,80 149,130
150,380 151,380 152,1161 153,440
154,120 155,581 156,80 165,550
166,110 167,90 168,350 169,4614
170,9999 171,1411 172,120 183,310
184,210 185,40 195,60 196,50
214,6035 215,941 216,90
##END=
