##TITLE=4-(Hexadecyloxy)aniline
##JCAMP-DX=4.24
##DATA TYPE=MASS SPECTRUM
##ORIGIN=NIST Mass Spectrometry Data Center, 1994
##OWNER=NIST Mass Spectrometry Data Center
Collection (C) 2014 copyright by the U.S. Secretary of Commerce
on behalf of the United States of America. All rights reserved.
##CAS REGISTRY NO=7502-06-9
##$NIST MASS SPEC NO=135889
##MOLFORM=C22 H39 N O
##MW=333
##$NIST SOURCE=MSDC
##XUNITS=M/Z
##YUNITS=RELATIVE INTENSITY
##XFACTOR=1
##YFACTOR=1
##FIRSTX=17
##LASTX=335
##FIRSTY=1
##MAXX=335
##MINX=17
##MAXY=9999
##MINY=1
##NPOINTS=67
##PEAK TABLE=(XY..XY)
17,1 18,26 27,233 28,140
29,746 30,19 32,2 39,215
41,1531 42,257 43,1711 44,55
50,8 51,28 52,72 53,248
54,101 55,794 56,127 57,538
58,24 63,24 64,22 65,176
66,36 67,74 68,30 69,292
70,40 71,121 77,56 78,14
80,586 81,152 82,40 83,110
84,11 85,46 91,28 92,175
93,76 94,210 95,19 97,52
98,7 106,37 108,1064 109,9999
110,905 111,65 119,6 120,16
122,190 123,16 135,30 136,13
149,12 163,18 177,18 191,12
205,11 219,13 233,11 247,8
333,1547 334,384 335,54
##END=
