##TITLE=p-Methoxybenzoic acid, 2-methylphenyl ester
##JCAMP-DX=4.24
##DATA TYPE=MASS SPECTRUM
##ORIGIN=Zaikin V.G., TIPS RAS, Moscow, Russia
##OWNER=NIST Mass Spectrometry Data Center
Collection (C) 2014 copyright by the U.S. Secretary of Commerce
on behalf of the United States of America. All rights reserved.
##CAS REGISTRY NO=7504-73-6
##$NIST MASS SPEC NO=292649
##MOLFORM=C15 H14 O3
##MW=242
##$NIST SOURCE=MSDC
##XUNITS=M/Z
##YUNITS=RELATIVE INTENSITY
##XFACTOR=1
##YFACTOR=1
##FIRSTX=39
##LASTX=242
##FIRSTY=40
##MAXX=242
##MINX=39
##MAXY=9999
##MINY=30
##NPOINTS=21
##PEAK TABLE=(XY..XY)
39,40 50,40 51,50 53,30
63,100 64,160 65,40 76,70
77,611 78,80 79,50 92,450
93,30 104,30 107,360 108,50
135,9999 136,701 137,60 152,140
242,140
##END=
