##TITLE=Benzamide, 2-(methylamino)-
##JCAMP-DX=4.24
##DATA TYPE=MASS SPECTRUM
##ORIGIN=Japan AIST/NIMC Database- Spectrum MS-IW-7329
##OWNER=NIST Mass Spectrometry Data Center
Collection (C) 2014 copyright by the U.S. Secretary of Commerce
on behalf of the United States of America. All rights reserved.
##CAS REGISTRY NO=7505-81-9
##$NIST MASS SPEC NO=240952
##MOLFORM=C8 H10 N2 O
##MW=150
##$NIST SOURCE=MSDC
##XUNITS=M/Z
##YUNITS=RELATIVE INTENSITY
##XFACTOR=1
##YFACTOR=1
##FIRSTX=15
##LASTX=152
##FIRSTY=40
##MAXX=152
##MINX=15
##MAXY=9999
##MINY=10
##NPOINTS=78
##PEAK TABLE=(XY..XY)
15,40 17,30 18,10 26,10
27,90 28,339 29,20 30,259
37,60 38,149 39,389 40,50
41,80 42,60 43,10 44,249
45,20 46,10 49,20 50,349
51,899 52,399 53,169 54,40
55,20 57,10 60,10 61,50
62,129 63,439 64,469 65,509
66,639 67,119 68,10 73,30
74,199 75,389 76,339 77,2949
78,2099 79,569 80,90 81,10
87,10 88,30 89,60 90,169
91,429 92,599 93,80 94,50
102,109 103,109 104,6039 105,7569
106,1079 107,80 116,229 117,80
118,90 119,40 120,40 121,50
122,20 128,10 129,10 130,30
131,509 132,2279 133,4519 134,989
135,80 147,20 149,109 150,9999
151,1029 152,60
##END=
