##TITLE=2-Propanone, ethyl(1-methylethyl)hydrazone
##JCAMP-DX=4.24
##DATA TYPE=MASS SPECTRUM
##ORIGIN=ATLAS OF MASS SPECTRA OF ORGANIC COMPOUNDS, V. A. KOPTYUG, ED.
##OWNER=NIST Mass Spectrometry Data Center
Collection (C) 2014 copyright by the U.S. Secretary of Commerce
on behalf of the United States of America. All rights reserved.
##CAS REGISTRY NO=75268-05-2
##$NIST MASS SPEC NO=64515
##MOLFORM=C8 H18 N2
##MW=142
##$NIST SOURCE=MSDC
##XUNITS=M/Z
##YUNITS=RELATIVE INTENSITY
##XFACTOR=1
##YFACTOR=1
##FIRSTX=27
##LASTX=143
##FIRSTY=1550
##MAXX=143
##MINX=27
##MAXY=9999
##MINY=80
##NPOINTS=31
##PEAK TABLE=(XY..XY)
27,1550 28,1260 29,1190 30,810
39,850 40,310 41,2070 42,3450
43,2590 44,970 54,150 55,150
56,5350 57,410 58,1080 59,100
70,1640 71,710 72,850 82,360
83,150 84,280 85,2850 86,270
99,1020 100,80 127,9999 128,1000
141,90 142,2590 143,330
##END=
