##TITLE=p-Toluic acid, octadecyl ester
##JCAMP-DX=4.24
##DATA TYPE=MASS SPECTRUM
##ORIGIN=Zaikin V.G., TIPS RAS, Moscow, Russia
##OWNER=NIST Mass Spectrometry Data Center
Collection (C) 2014 copyright by the U.S. Secretary of Commerce
on behalf of the United States of America. All rights reserved.
##CAS REGISTRY NO=75260-42-3
##$NIST MASS SPEC NO=292409
##MOLFORM=C26 H44 O2
##MW=388
##$NIST SOURCE=MSDC
##XUNITS=M/Z
##YUNITS=RELATIVE INTENSITY
##XFACTOR=1
##YFACTOR=1
##FIRSTX=27
##LASTX=389
##FIRSTY=40
##MAXX=389
##MINX=27
##MAXY=9999
##MINY=20
##NPOINTS=55
##PEAK TABLE=(XY..XY)
27,40 28,20 29,80 36,30
39,60 41,310 42,80 43,470
44,70 54,80 55,520 56,200
57,430 65,130 67,130 68,150
69,440 70,200 71,200 77,40
81,90 82,170 83,430 84,140
85,120 89,50 90,60 91,841
92,130 93,200 95,60 96,100
97,390 98,100 110,40 111,190
112,60 118,40 119,2722 120,270
121,30 125,90 126,40 135,30
136,5055 137,9999 138,861 139,100
140,30 149,40 224,40 252,160
253,30 388,230 389,60
##END=
