##TITLE=2,4,5-Trimethylphenylacetonitrile
##JCAMP-DX=4.24
##DATA TYPE=MASS SPECTRUM
##ORIGIN=NIST Mass Spectrometry Data Center, 1994
##OWNER=NIST Mass Spectrometry Data Center
Collection (C) 2014 copyright by the U.S. Secretary of Commerce
on behalf of the United States of America. All rights reserved.
##CAS REGISTRY NO=75279-58-2
##$NIST MASS SPEC NO=134549
##MOLFORM=C11 H13 N
##MW=159
##$NIST SOURCE=MSDC
##XUNITS=M/Z
##YUNITS=RELATIVE INTENSITY
##XFACTOR=1
##YFACTOR=1
##FIRSTX=4
##LASTX=161
##FIRSTY=42
##MAXX=161
##MINX=4
##MAXY=9999
##MINY=29
##NPOINTS=79
##PEAK TABLE=(XY..XY)
4,42 14,29 15,325 26,182
27,1288 28,326 29,158 37,127
38,471 39,3044 40,508 41,1622
42,110 50,750 51,2327 52,787
53,829 54,99 55,64 58,376
61,113 62,480 63,1528 64,1076
65,1727 66,420 67,59 71,142
72,359 74,342 75,425 76,493
77,2099 78,883 79,556 86,100
87,157 88,150 89,790 90,319
91,3356 92,339 93,150 99,59
100,56 101,172 102,505 103,990
104,602 105,277 113,97 115,3411
116,1640 117,4377 118,775 119,8339
120,848 126,59 127,310 128,485
129,339 130,276 131,1009 132,9999
133,1243 134,91 140,129 141,90
142,295 143,59 144,6643 145,744
146,39 156,86 157,142 158,880
159,6516 160,807 161,45
##END=
