##TITLE=Morpholine, 4-methyl-, 4-oxide
##JCAMP-DX=4.24
##DATA TYPE=MASS SPECTRUM
##ORIGIN=A.Pleshkova, Nesmeyanov Inst.Org.Elem.Cpds, Moscow
##OWNER=NIST Mass Spectrometry Data Center
Collection (C) 2014 copyright by the U.S. Secretary of Commerce
on behalf of the United States of America. All rights reserved.
##CAS REGISTRY NO=7529-22-8
##$NIST MASS SPEC NO=306548
##MOLFORM=C5 H11 N O2
##MW=117
##$NIST SOURCE=MSDC
##XUNITS=M/Z
##YUNITS=RELATIVE INTENSITY
##XFACTOR=1
##YFACTOR=1
##FIRSTX=39
##LASTX=119
##FIRSTY=250
##MAXX=119
##MINX=39
##MAXY=9999
##MINY=10
##NPOINTS=53
##PEAK TABLE=(XY..XY)
39,250 40,1491 41,1191 42,9999
43,8257 44,1822 45,2973 46,200
50,40 51,70 52,110 53,50
54,390 55,490 56,1621 57,1712
58,460 59,931 60,7156 61,190
65,30 66,20 67,40 68,140
69,200 70,731 71,1862 72,761
73,6236 74,260 75,20 77,40
80,30 82,160 83,70 84,240
85,220 86,510 87,911 88,290
96,60 97,110 98,490 99,2472
100,1141 101,3343 102,250 113,30
114,30 115,150 117,440 118,40
119,10
##END=
