##TITLE=2,2,2-Trifluoroethylamine
##JCAMP-DX=4.24
##DATA TYPE=MASS SPECTRUM
##ORIGIN=NIST Mass Spectrometry Data Center, 1990.
##OWNER=NIST Mass Spectrometry Data Center
Collection (C) 2014 copyright by the U.S. Secretary of Commerce
on behalf of the United States of America. All rights reserved.
##CAS REGISTRY NO=753-90-2
##$NIST MASS SPEC NO=118517
##MOLFORM=C2 H4 F3 N
##MW=99
##$NIST SOURCE=MSDC
##XUNITS=M/Z
##YUNITS=RELATIVE INTENSITY
##XFACTOR=1
##YFACTOR=1
##FIRSTX=12
##LASTX=100
##FIRSTY=16
##MAXX=100
##MINX=12
##MAXY=9999
##MINY=4
##NPOINTS=48
##PEAK TABLE=(XY..XY)
12,16 13,21 14,13 15,24
16,30 17,39 18,16 19,31
24,11 26,48 27,334 28,3368
29,757 30,9999 31,540 32,11
33,465 38,32 39,31 40,4
43,23 44,56 45,37 46,50
47,95 48,826 49,4 50,369
51,340 59,65 60,236 63,79
64,125 66,29 69,647 70,16
76,38 77,203 78,641 79,93
80,92 82,17 83,84 96,43
97,58 98,218 99,523 100,15
##END=
