##TITLE=Methylphosphorochlorofluoridate
##JCAMP-DX=4.24
##DATA TYPE=MASS SPECTRUM
##ORIGIN=Dennis Rohrbaugh, CBDCOM/ERDEC, Edgewood, MD
##OWNER=NIST Mass Spectrometry Data Center
Collection (C) 2014 copyright by the U.S. Secretary of Commerce
on behalf of the United States of America. All rights reserved.
##CAS REGISTRY NO=753-71-9
##$NIST MASS SPEC NO=226538
##MOLFORM=C H3 Cl F O P
##MW=116
##$NIST SOURCE=MSDC
##XUNITS=M/Z
##YUNITS=RELATIVE INTENSITY
##XFACTOR=1
##YFACTOR=1
##FIRSTX=50
##LASTX=118
##FIRSTY=9999
##MAXX=118
##MINX=50
##MAXY=9999
##MINY=235
##NPOINTS=22
##PEAK TABLE=(XY..XY)
50,9999 51,2775 52,1720 53,284
55,1366 63,298 65,555 66,2886
67,3171 71,471 78,631 79,235
80,3483 81,8951 82,291 85,4662
87,1124 98,340 101,3018 103,693
116,6938 118,2296
##END=
