##TITLE=L-Threonine, 3TMS derivative
##JCAMP-DX=4.24
##DATA TYPE=MASS SPECTRUM
##ORIGIN=NIST Mass Spectrometry Data Center
##OWNER=NIST Mass Spectrometry Data Center
Collection (C) 2014 copyright by the U.S. Secretary of Commerce
on behalf of the United States of America. All rights reserved.
##CAS REGISTRY NO=7537-02-2
##$NIST MASS SPEC NO=333257
##MOLFORM=C13 H33 N O3 Si3
##MW=335
##$NIST SOURCE=MSDC
##XUNITS=M/Z
##YUNITS=RELATIVE INTENSITY
##XFACTOR=1
##YFACTOR=1
##FIRSTX=27
##LASTX=323
##FIRSTY=10
##MAXX=323
##MINX=27
##MAXY=9999
##MINY=10
##NPOINTS=153
##PEAK TABLE=(XY..XY)
27,10 28,30 29,40 30,10
31,20 39,10 41,20 42,20
43,210 44,180 45,1091 46,80
47,130 48,10 52,10 53,10
54,20 55,60 56,150 57,1201
58,200 59,631 60,90 61,110
62,10 66,30 67,10 68,10
69,20 70,50 71,50 72,260
73,9999 74,931 75,1041 76,70
77,30 82,10 83,10 84,80
85,70 86,230 87,140 88,30
89,20 96,10 97,10 98,60
99,50 100,1071 101,2092 102,370
103,230 104,20 105,40 106,10
110,10 112,40 113,30 114,380
115,260 116,110 117,4684 118,530
119,280 120,30 121,10 126,20
127,20 128,761 129,691 130,480
131,540 132,540 133,741 134,130
135,70 136,10 140,10 142,30
143,20 144,80 145,40 146,110
147,2272 148,400 149,270 150,30
151,10 156,30 157,20 158,110
159,140 160,170 161,40 162,20
163,40 164,10 170,10 172,80
173,20 174,110 175,30 176,50
177,60 178,10 179,10 186,100
187,30 188,60 189,30 190,40
191,110 192,20 193,10 200,10
201,10 202,380 203,500 204,180
205,60 206,20 207,10 214,10
216,40 218,4584 219,4154 220,1021
221,430 222,60 223,20 230,90
231,40 232,40 233,10 246,10
248,40 249,10 250,10 276,30
277,10 278,10 291,1571 292,1061
293,400 294,120 295,20 296,10
304,10 320,240 321,80 322,30
323,10
##END=
