##TITLE=Tryptophan, 3TMS derivative
##JCAMP-DX=4.24
##DATA TYPE=MASS SPECTRUM
##ORIGIN=A.Pleshkova, Nesmeyanov Inst.Org.Elem.Cpds, Moscow
##OWNER=NIST Mass Spectrometry Data Center
Collection (C) 2014 copyright by the U.S. Secretary of Commerce
on behalf of the United States of America. All rights reserved.
##CAS REGISTRY NO=7537-04-4
##$NIST MASS SPEC NO=283849
##MOLFORM=C20 H36 N2 O2 Si3
##MW=420
##$NIST SOURCE=MSDC
##XUNITS=M/Z
##YUNITS=RELATIVE INTENSITY
##XFACTOR=1
##YFACTOR=1
##FIRSTX=43
##LASTX=407
##FIRSTY=190
##MAXX=407
##MINX=43
##MAXY=9999
##MINY=10
##NPOINTS=34
##PEAK TABLE=(XY..XY)
43,190 44,40 59,260 60,10
73,3653 74,310 75,520 76,40
77,10 84,310 85,20 100,520
101,90 147,190 148,20 202,9999
203,1902 204,500 205,50 218,410
219,90 220,40 221,10 291,761
292,220 293,90 294,20 303,160
304,50 330,40 349,10 405,70
406,20 407,10
##END=
