##TITLE=4-Methoxy-3-methylphenylacetonitrile
##JCAMP-DX=4.24
##DATA TYPE=MASS SPECTRUM
##ORIGIN=NIST Mass Spectrometry Data Center, 1994
##OWNER=NIST Mass Spectrometry Data Center
Collection (C) 2014 copyright by the U.S. Secretary of Commerce
on behalf of the United States of America. All rights reserved.
##CAS REGISTRY NO=75391-57-0
##$NIST MASS SPEC NO=134584
##MOLFORM=C10 H11 N O
##MW=161
##$NIST SOURCE=MSDC
##XUNITS=M/Z
##YUNITS=RELATIVE INTENSITY
##XFACTOR=1
##YFACTOR=1
##FIRSTX=14
##LASTX=163
##FIRSTY=84
##MAXX=163
##MINX=14
##MAXY=9999
##MINY=9
##NPOINTS=79
##PEAK TABLE=(XY..XY)
14,84 15,1278 18,52 26,188
27,703 29,181 30,50 31,9
37,180 38,506 39,2043 40,318
41,474 42,51 43,98 44,37
45,37 50,1131 51,2049 52,896
53,439 54,111 55,119 59,113
61,200 62,588 63,1618 64,634
65,1751 66,246 67,51 73,70
74,322 75,469 76,679 77,1823
78,1884 79,282 80,81 86,101
87,131 88,183 89,1357 90,948
91,5944 92,600 93,284 99,36
101,140 102,620 103,1065 104,423
105,280 106,531 107,75 116,1342
117,599 118,433 119,408 120,75
121,3011 122,281 127,32 128,204
129,143 130,871 131,166 132,87
133,102 134,465 135,276 144,66
146,9999 147,1113 148,76 160,953
161,7606 162,860 163,45
##END=
