##TITLE=Ethanesulfonyl fluoride
##JCAMP-DX=4.24
##DATA TYPE=MASS SPECTRUM
##OWNER=NIST Mass Spectrometry Data Center
Collection (C) 2014 copyright by the U.S. Secretary of Commerce
on behalf of the United States of America. All rights reserved.
##CAS REGISTRY NO=754-03-0
##$NIST MASS SPEC NO=1707
##MOLFORM=C2 H5 F O2 S
##MW=112
##$NIST SOURCE=MSDC
##XUNITS=M/Z
##YUNITS=RELATIVE INTENSITY
##XFACTOR=1
##YFACTOR=1
##FIRSTX=13
##LASTX=113
##FIRSTY=10
##MAXX=113
##MINX=13
##MAXY=9999
##MINY=10
##NPOINTS=59
##PEAK TABLE=(XY..XY)
13,10 14,40 15,90 17,10
18,40 25,30 26,500 27,2953
28,1111 29,9999 30,270 31,20
32,50 33,20 34,10 35,10
39,10 41,10 42,10 43,190
44,20 45,60 46,10 47,50
48,200 49,30 50,20 51,30
52,10 53,10 55,10 56,10
57,30 58,20 59,20 63,20
64,70 65,110 66,20 67,530
68,30 69,40 75,10 77,10
78,10 79,10 80,20 81,10
82,10 83,60 84,10 85,40
93,20 95,10 97,20 110,10
111,10 112,10 113,60
##END=
