##TITLE=Methyl dimethylcarbamate
##JCAMP-DX=4.24
##DATA TYPE=MASS SPECTRUM
##ORIGIN=Japan AIST/NIMC Database- Spectrum MS-IW-2896
##OWNER=NIST Mass Spectrometry Data Center
Collection (C) 2014 copyright by the U.S. Secretary of Commerce
on behalf of the United States of America. All rights reserved.
##CAS REGISTRY NO=7541-16-4
##$NIST MASS SPEC NO=245142
##MOLFORM=C4 H9 N O2
##MW=103
##$NIST SOURCE=MSDC
##XUNITS=M/Z
##YUNITS=RELATIVE INTENSITY
##XFACTOR=1
##YFACTOR=1
##FIRSTX=13
##LASTX=105
##FIRSTY=10
##MAXX=105
##MINX=13
##MAXY=9999
##MINY=10
##NPOINTS=41
##PEAK TABLE=(XY..XY)
13,10 14,60 15,1509 16,20
26,10 27,169 28,859 29,409
30,909 31,90 32,10 33,10
38,20 39,40 40,169 41,309
42,3549 43,1389 44,3349 45,289
46,30 54,10 55,10 56,699
57,129 58,3519 59,2969 60,80
61,20 72,9999 73,559 74,40
87,20 88,6659 89,259 90,30
101,10 102,699 103,7909 104,389
105,40
##END=
