##TITLE=Colchicine, (+)-
##JCAMP-DX=4.24
##DATA TYPE=MASS SPECTRUM
##ORIGIN=A. Brossi, LC, NIDDK, NIH, Bethesda, MD 20892
##OWNER=NIST Mass Spectrometry Data Center
Collection (C) 2014 copyright by the U.S. Secretary of Commerce
on behalf of the United States of America. All rights reserved.
##CAS REGISTRY NO=75520-89-7
##$NIST MASS SPEC NO=124484
##MOLFORM=C22 H25 N O6
##MW=399
##$NIST SOURCE=MSDC
##XUNITS=M/Z
##YUNITS=RELATIVE INTENSITY
##XFACTOR=1
##YFACTOR=1
##FIRSTX=42
##LASTX=401
##FIRSTY=879
##MAXX=401
##MINX=42
##MAXY=9999
##MINY=65
##NPOINTS=232
##PEAK TABLE=(XY..XY)
42,879 43,8865 44,328 45,261
51,164 52,79 53,161 54,122
55,274 56,128 57,194 59,123
60,286 63,200 64,71 65,131
67,112 68,67 69,172 70,98
71,91 73,109 74,71 75,179
76,178 77,323 78,232 79,95
81,68 82,92 83,116 84,96
85,77 87,86 88,93 89,186
90,96 91,168 92,70 95,72
96,75 97,82 98,74 99,85
100,68 101,124 102,206 103,133
104,103 105,110 106,121 111,87
112,75 113,186 114,200 115,509
116,125 117,112 118,69 119,122
120,95 121,81 124,77 125,109
126,282 127,426 128,443 129,196
130,111 131,94 132,85 133,111
134,72 135,68 137,78 138,93
139,614 140,408 141,401 142,184
143,122 144,87 145,94 146,79
147,82 148,100 149,101 150,128
151,302 152,651 153,411 154,316
155,312 156,261 157,183 158,93
159,69 160,81 163,146 164,164
165,501 166,243 167,340 168,456
169,332 170,241 171,227 172,89
176,119 177,144 178,229 179,187
180,249 181,441 182,307 183,528
184,303 185,230 186,95 189,76
190,94 191,114 192,129 193,164
194,225 195,409 196,383 197,341
198,255 199,301 200,135 205,129
206,130 207,255 208,269 209,345
210,359 211,714 212,387 213,270
214,107 219,74 220,126 221,210
222,343 223,430 224,427 225,406
226,360 227,352 228,214 229,75
234,94 235,295 236,313 237,415
238,672 239,847 240,442 241,340
242,286 243,103 248,65 249,154
250,303 251,619 252,467 253,453
254,1620 255,633 256,375 257,163
263,110 264,146 265,529 266,858
267,861 268,748 269,1090 270,972
271,356 272,104 278,95 279,298
280,323 281,3503 282,1482 283,727
284,527 285,236 286,343 287,86
293,93 294,762 295,329 296,620
297,3463 298,1893 299,941 300,1346
301,278 308,152 309,236 310,259
311,2169 312,9999 313,2184 314,882
315,182 322,443 323,227 324,158
325,548 326,257 327,148 328,847
329,220 338,96 339,103 340,540
341,160 342,151 343,153 356,789
357,218 370,197 371,2144 372,484
373,84 399,5806 400,1695 401,310
##END=
