##TITLE=1,2,4-Thiadiazole, 5-amino-
##JCAMP-DX=4.24
##DATA TYPE=MASS SPECTRUM
##ORIGIN=James Little,Eastman Chem.Co.,Kingsport,TN
##OWNER=NIST Mass Spectrometry Data Center
Collection (C) 2014 copyright by the U.S. Secretary of Commerce
on behalf of the United States of America. All rights reserved.
##CAS REGISTRY NO=7552-07-0
##$NIST MASS SPEC NO=288430
##MOLFORM=C2 H3 N3 S
##MW=101
##$NIST SOURCE=MSDC
##XUNITS=M/Z
##YUNITS=RELATIVE INTENSITY
##XFACTOR=1
##YFACTOR=1
##FIRSTX=32
##LASTX=103
##FIRSTY=1491
##MAXX=103
##MINX=32
##MAXY=9999
##MINY=130
##NPOINTS=19
##PEAK TABLE=(XY..XY)
32,1491 43,3053 46,1011 47,871
53,220 54,130 58,390 59,3823
60,761 61,230 68,130 69,210
73,230 74,8688 75,260 76,390
101,9999 102,500 103,550
##END=
