##TITLE=Acetic acid, trifluoro-, 2,2-dimethylpropyl ester
##JCAMP-DX=4.24
##DATA TYPE=MASS SPECTRUM
##ORIGIN=NIST Mass Spectrometry Data Center, 2010
##OWNER=NIST Mass Spectrometry Data Center
Collection (C) 2014 copyright by the U.S. Secretary of Commerce
on behalf of the United States of America. All rights reserved.
##CAS REGISTRY NO=7556-79-8
##$NIST MASS SPEC NO=417300
##MOLFORM=C7 H11 F3 O2
##MW=184
##$NIST SOURCE=MSDC
##XUNITS=M/Z
##YUNITS=RELATIVE INTENSITY
##XFACTOR=1
##YFACTOR=1
##FIRSTX=14
##LASTX=171
##FIRSTY=10
##MAXX=171
##MINX=14
##MAXY=9999
##MINY=10
##NPOINTS=65
##PEAK TABLE=(XY..XY)
14,10 15,70 26,50 27,661
28,160 29,1551 30,60 31,60
33,20 37,30 38,100 39,1431
40,220 41,3813 42,280 43,1561
44,80 45,50 47,460 48,10
50,320 51,170 52,50 53,470
55,9809 56,811 57,9999 58,490
59,60 60,10 61,10 63,10
65,20 66,10 67,70 69,5305
70,170 71,3283 72,190 73,20
75,20 77,10 78,130 91,10
93,10 95,10 97,410 99,450
100,10 112,10 113,310 114,10
115,10 125,120 126,10 127,20
128,10 139,10 140,10 141,20
153,10 168,470 169,1391 170,100
171,10
##END=
