##TITLE=Dimethyl methylphosphonate
##JCAMP-DX=4.24
##DATA TYPE=MASS SPECTRUM
##ORIGIN=Japan AIST/NIMC Database- Spectrum MS-NW-9774
##OWNER=NIST Mass Spectrometry Data Center
Collection (C) 2014 copyright by the U.S. Secretary of Commerce
on behalf of the United States of America. All rights reserved.
##CAS REGISTRY NO=756-79-6
##$NIST MASS SPEC NO=233393
##MOLFORM=C3 H9 O3 P
##MW=124
##$NIST SOURCE=MSDC
##XUNITS=M/Z
##YUNITS=RELATIVE INTENSITY
##XFACTOR=1
##YFACTOR=1
##FIRSTX=15
##LASTX=126
##FIRSTY=489
##MAXX=126
##MINX=15
##MAXY=9999
##MINY=10
##NPOINTS=40
##PEAK TABLE=(XY..XY)
15,489 16,10 18,30 27,10
28,99 29,79 30,20 31,259
32,60 33,30 44,20 45,249
46,10 47,1129 48,139 49,129
50,10 51,10 61,30 62,239
63,1439 64,40 65,60 77,209
78,50 79,7829 80,169 81,50
92,30 93,3149 94,9999 95,279
96,40 109,3939 110,129 111,30
123,40 124,1979 125,269 126,20
##END=
