##TITLE=Silane, diethyldimethyl-
##JCAMP-DX=4.24
##DATA TYPE=MASS SPECTRUM
##ORIGIN=NIST Mass Spectrometry Data Center
##OWNER=NIST Mass Spectrometry Data Center
Collection (C) 2014 copyright by the U.S. Secretary of Commerce
on behalf of the United States of America. All rights reserved.
##CAS REGISTRY NO=756-81-0
##$NIST MASS SPEC NO=343732
##MOLFORM=C6 H16 Si
##MW=116
##$NIST SOURCE=MSDC
##XUNITS=M/Z
##YUNITS=RELATIVE INTENSITY
##XFACTOR=1
##YFACTOR=1
##FIRSTX=15
##LASTX=118
##FIRSTY=130
##MAXX=118
##MINX=15
##MAXY=9999
##MINY=10
##NPOINTS=48
##PEAK TABLE=(XY..XY)
15,130 26,100 27,571 29,1041
30,80 31,891 33,10 39,40
41,50 42,310 43,1922 44,601
45,1601 46,100 47,40 53,210
54,60 55,300 56,70 57,330
58,891 59,9999 60,731 61,310
65,10 66,40 67,50 68,10
69,40 70,70 71,140 72,180
73,2112 74,170 75,70 83,10
84,10 85,40 87,7136 88,671
89,260 90,10 101,691 102,70
103,20 116,691 117,70 118,20
##END=
