##TITLE=1H-Imidazole, 1-(pentafluorobenzoyl)-
##JCAMP-DX=4.24
##DATA TYPE=MASS SPECTRUM
##ORIGIN=NIST Mass Spectrometry Data Center, 1994
##OWNER=NIST Mass Spectrometry Data Center
Collection (C) 2014 copyright by the U.S. Secretary of Commerce
on behalf of the United States of America. All rights reserved.
##CAS REGISTRY NO=75641-06-4
##$NIST MASS SPEC NO=136311
##MOLFORM=C10 H3 F5 N2 O
##MW=262
##$NIST SOURCE=MSDC
##XUNITS=M/Z
##YUNITS=RELATIVE INTENSITY
##XFACTOR=1
##YFACTOR=1
##FIRSTX=12
##LASTX=264
##FIRSTY=35
##MAXX=264
##MINX=12
##MAXY=9999
##MINY=2
##NPOINTS=79
##PEAK TABLE=(XY..XY)
12,35 13,98 17,12 18,20
20,16 25,22 26,181 27,2
28,391 31,472 32,9 38,209
39,466 40,2159 41,129 42,14
44,6 51,44 52,53 54,12
55,65 56,13 62,20 66,49
67,47 68,202 69,95 71,21
74,83 75,40 79,334 80,42
81,15 86,121 87,11 93,728
94,31 95,27 98,602 99,129
100,23 104,17 105,36 110,67
111,22 117,2784 118,149 123,14
124,69 129,69 130,32 131,19
136,22 137,18 148,376 149,38
155,11 161,65 162,31 164,12
165,9 167,4025 168,276 169,12
176,86 179,35 180,32 188,30
193,46 195,9999 196,722 197,43
206,40 207,10 215,41 216,18
262,1399 263,160 264,11
##END=
