##TITLE=1-Propene-1,2,3-tricarboxylic acid, tributyl ester
##JCAMP-DX=4.24
##DATA TYPE=MASS SPECTRUM
##ORIGIN=James Little
##OWNER=NIST Mass Spectrometry Data Center
Collection (C) 2014 copyright by the U.S. Secretary of Commerce
on behalf of the United States of America. All rights reserved.
##CAS REGISTRY NO=7568-58-3
##$NIST MASS SPEC NO=298501
##MOLFORM=C18 H30 O6
##MW=342
##$NIST SOURCE=MSDC
##XUNITS=M/Z
##YUNITS=RELATIVE INTENSITY
##XFACTOR=1
##YFACTOR=1
##FIRSTX=39
##LASTX=270
##FIRSTY=561
##MAXX=270
##MINX=39
##MAXY=9999
##MINY=40
##NPOINTS=54
##PEAK TABLE=(XY..XY)
39,561 40,110 41,3253 42,180
43,410 53,110 55,751 56,951
57,5925 58,280 67,310 69,230
71,80 75,90 83,200 84,1041
85,300 86,40 87,60 101,160
111,510 112,9999 113,891 114,210
128,190 129,550 130,380 131,80
138,1541 139,4774 140,721 141,120
156,6166 157,8908 158,681 159,140
166,350 167,120 168,781 169,100
185,631 186,220 200,100 211,100
212,1331 213,2152 214,280 226,50
231,150 241,360 242,120 268,450
269,1571 270,310
##END=
