##TITLE=Phenylethanolamine
##JCAMP-DX=4.24
##DATA TYPE=MASS SPECTRUM
##ORIGIN=Japan AIST/NIMC Database- Spectrum MS-NW-6831
##OWNER=NIST Mass Spectrometry Data Center
Collection (C) 2014 copyright by the U.S. Secretary of Commerce
on behalf of the United States of America. All rights reserved.
##CAS REGISTRY NO=7568-93-6
##$NIST MASS SPEC NO=236023
##MOLFORM=C8 H11 N O
##MW=137
##$NIST SOURCE=MSDC
##XUNITS=M/Z
##YUNITS=RELATIVE INTENSITY
##XFACTOR=1
##YFACTOR=1
##FIRSTX=15
##LASTX=138
##FIRSTY=20
##MAXX=138
##MINX=15
##MAXY=9999
##MINY=10
##NPOINTS=72
##PEAK TABLE=(XY..XY)
15,20 16,10 17,20 18,30
26,20 27,159 28,319 29,109
30,9999 31,629 32,629 37,30
38,70 39,299 40,30 41,80
42,70 43,119 44,70 46,10
49,20 50,279 51,679 52,179
53,109 54,20 55,10 56,10
57,10 58,70 59,30 60,20
61,30 62,70 63,179 64,50
65,199 66,30 73,20 74,80
75,60 76,70 77,1639 78,389
79,2079 80,149 86,10 87,10
88,10 89,179 90,149 91,709
92,219 93,30 98,10 102,40
103,129 104,199 105,459 106,159
107,1339 108,339 109,20 116,60
117,359 118,869 119,569 120,99
121,30 122,10 137,40 138,10
##END=
