##TITLE=Tris(2,6-dimethylphenyl)borane
##JCAMP-DX=4.24
##DATA TYPE=MASS SPECTRUM
##ORIGIN=NIST Mass Spectrometry Data Center, 1994
##OWNER=NIST Mass Spectrometry Data Center
Collection (C) 2014 copyright by the U.S. Secretary of Commerce
on behalf of the United States of America. All rights reserved.
##CAS REGISTRY NO=75700-28-6
##$NIST MASS SPEC NO=136194
##MOLFORM=C24 H27 B
##MW=326
##$NIST SOURCE=MSDC
##XUNITS=M/Z
##YUNITS=RELATIVE INTENSITY
##XFACTOR=1
##YFACTOR=1
##FIRSTX=16
##LASTX=326
##FIRSTY=31
##MAXX=326
##MINX=16
##MAXY=9999
##MINY=26
##NPOINTS=129
##PEAK TABLE=(XY..XY)
16,31 17,287 18,943 27,170
36,55 37,158 38,42 39,377
40,110 41,351 44,31 50,141
51,406 52,91 53,179 61,187
62,81 63,331 64,85 65,309
66,39 75,230 76,160 77,718
78,228 79,335 85,55 86,105
87,319 88,231 89,677 90,92
91,1065 92,117 93,40 94,42
95,37 99,68 100,232 101,378
102,192 103,522 104,109 105,384
106,363 107,73 111,44 112,231
113,629 114,284 115,586 116,90
117,92 118,51 119,103 124,81
125,271 126,714 127,669 128,697
129,194 131,97 132,71 133,36
136,81 137,277 138,123 139,214
140,117 141,114 142,58 143,41
145,34 146,40 147,37 148,57
149,72 150,306 151,433 152,161
153,114 154,51 155,26 161,126
162,245 163,746 164,193 165,278
166,68 174,143 175,205 176,323
177,801 178,460 179,281 180,110
186,107 187,423 188,203 189,250
190,328 191,648 192,521 193,224
194,52 198,38 199,107 200,507
201,782 202,321 203,478 204,1068
205,2484 206,534 207,77 211,63
212,48 213,148 214,218 215,371
216,185 217,272 218,604 219,3338
220,9999 221,2702 222,316 224,34
326,66
##END=
