##TITLE=Naphthalene, 1-(phenylthio)-
##JCAMP-DX=4.24
##DATA TYPE=MASS SPECTRUM
##ORIGIN=V.G.Zaikin, TIPS, Russian Acad. Sci.
##OWNER=NIST Mass Spectrometry Data Center
Collection (C) 2014 copyright by the U.S. Secretary of Commerce
on behalf of the United States of America. All rights reserved.
##CAS REGISTRY NO=7570-98-1
##$NIST MASS SPEC NO=215930
##MOLFORM=C16 H12 S
##MW=236
##$NIST SOURCE=MSDC
##XUNITS=M/Z
##YUNITS=RELATIVE INTENSITY
##XFACTOR=1
##YFACTOR=1
##FIRSTX=38
##LASTX=240
##FIRSTY=190
##MAXX=240
##MINX=38
##MAXY=9999
##MINY=10
##NPOINTS=92
##PEAK TABLE=(XY..XY)
38,190 39,620 40,100 41,60
44,230 45,230 49,80 50,730
51,1541 52,130 61,90 62,240
63,470 64,90 65,440 66,90
69,480 74,350 75,440 76,310
77,1341 78,290 79,70 82,110
83,50 86,70 87,160 88,140
89,250 100,70 101,710 102,110
103,80 108,110 109,310 110,310
111,140 112,50 113,160 114,330
115,3012 116,500 117,1090 118,1010
119,110 120,20 125,110 126,690
127,1070 128,460 151,90 152,140
158,370 159,290 160,190 163,70
164,60 165,190 166,60 170,70
171,270 172,80 173,140 174,100
175,100 176,120 177,40 178,80
189,400 190,100 191,190 198,100
199,150 200,250 201,490 202,1871
203,1281 204,530 205,100 221,490
222,100 223,100 231,150 232,400
233,960 234,3863 235,5324 236,9999
237,1980 238,590 239,80 240,10
##END=
