##TITLE=3-Aminoisonicotinic acid
##JCAMP-DX=4.24
##DATA TYPE=MASS SPECTRUM
##ORIGIN=Div. of Experiment Therapeutics WRAIR, WRAMC, Washington DC 20307
##OWNER=NIST Mass Spectrometry Data Center
Collection (C) 2014 copyright by the U.S. Secretary of Commerce
on behalf of the United States of America. All rights reserved.
##CAS REGISTRY NO=7579-20-6
##$NIST MASS SPEC NO=257492
##MOLFORM=C6 H6 N2 O2
##MW=138
##$NIST SOURCE=MSDC
##XUNITS=M/Z
##YUNITS=RELATIVE INTENSITY
##XFACTOR=1
##YFACTOR=1
##FIRSTX=41
##LASTX=140
##FIRSTY=1115
##MAXX=140
##MINX=41
##MAXY=9999
##MINY=16
##NPOINTS=46
##PEAK TABLE=(XY..XY)
41,1115 42,182 43,97 44,146
45,423 46,72 47,113 49,142
50,369 51,172 52,658 53,357
54,199 55,266 56,66 57,65
60,18 62,70 63,228 64,720
65,2976 66,1812 67,448 68,194
69,91 75,40 76,39 77,36
81,16 82,78 83,65 91,164
92,1640 93,6151 94,513 95,55
110,16 119,139 120,7766 121,898
122,64 136,83 137,386 138,9999
139,1028 140,83
##END=
