##TITLE=2,3-Dimethyl-1,4-pentadiene
##JCAMP-DX=4.24
##DATA TYPE=MASS SPECTRUM
##ORIGIN=NIST Mass Spectrometry Data Center, 1990.
##OWNER=NIST Mass Spectrometry Data Center
Collection (C) 2014 copyright by the U.S. Secretary of Commerce
on behalf of the United States of America. All rights reserved.
##CAS REGISTRY NO=758-86-1
##$NIST MASS SPEC NO=113670
##MOLFORM=C7 H12
##MW=96
##$NIST SOURCE=MSDC
##XUNITS=M/Z
##YUNITS=RELATIVE INTENSITY
##XFACTOR=1
##YFACTOR=1
##FIRSTX=14
##LASTX=97
##FIRSTY=32
##MAXX=97
##MINX=14
##MAXY=9999
##MINY=22
##NPOINTS=47
##PEAK TABLE=(XY..XY)
14,32 15,227 16,22 26,309
27,2223 28,586 29,911 31,34
32,67 37,157 38,478 39,4013
40,656 41,3760 42,315 43,134
44,41 45,27 49,58 50,539
51,802 52,415 53,2915 54,837
55,1619 56,490 57,33 61,53
62,104 63,203 64,60 65,678
66,431 67,1493 68,322 69,141
74,66 77,766 79,4035 81,9999
82,573 83,23 91,84 93,75
95,400 96,1084 97,88
##END=
