##TITLE=Methanethioamide, N,N-dimethyl-
##JCAMP-DX=4.24
##DATA TYPE=MASS SPECTRUM
##ORIGIN=Japan AIST/NIMC Database- Spectrum MS-NW-7681
##OWNER=NIST Mass Spectrometry Data Center
Collection (C) 2014 copyright by the U.S. Secretary of Commerce
on behalf of the United States of America. All rights reserved.
##CAS REGISTRY NO=758-16-7
##$NIST MASS SPEC NO=235953
##MOLFORM=C3 H7 N S
##MW=89
##$NIST SOURCE=MSDC
##XUNITS=M/Z
##YUNITS=RELATIVE INTENSITY
##XFACTOR=1
##YFACTOR=1
##FIRSTX=12
##LASTX=92
##FIRSTY=10
##MAXX=92
##MINX=12
##MAXY=9999
##MINY=10
##NPOINTS=52
##PEAK TABLE=(XY..XY)
12,10 13,20 14,109 15,1119
16,10 26,60 27,169 28,1069
29,90 30,3939 31,60 32,199
33,50 34,40 35,10 36,20
38,60 39,90 40,269 41,449
42,3479 43,799 44,6689 45,2069
46,239 47,629 48,30 49,30
51,20 52,30 54,30 55,30
56,109 57,50 58,60 59,70
60,20 61,40 64,20 70,70
71,30 72,259 73,419 74,1199
75,70 76,60 87,10 88,479
89,9999 90,519 91,469 92,20
##END=
