##TITLE=Butane, 2,3-dichloro-
##JCAMP-DX=4.24
##DATA TYPE=MASS SPECTRUM
##ORIGIN=Japan AIST/NIMC Database- Spectrum MS-NW-4364
##OWNER=NIST Mass Spectrometry Data Center
Collection (C) 2014 copyright by the U.S. Secretary of Commerce
on behalf of the United States of America. All rights reserved.
##CAS REGISTRY NO=7581-97-7
##$NIST MASS SPEC NO=230333
##MOLFORM=C4 H8 Cl2
##MW=126
##$NIST SOURCE=MSDC
##XUNITS=M/Z
##YUNITS=RELATIVE INTENSITY
##XFACTOR=1
##YFACTOR=1
##FIRSTX=14
##LASTX=130
##FIRSTY=20
##MAXX=130
##MINX=14
##MAXY=9999
##MINY=10
##NPOINTS=73
##PEAK TABLE=(XY..XY)
14,20 15,119 25,60 26,539
27,4039 28,349 29,1069 30,20
35,90 36,189 37,149 38,249
39,1639 40,139 41,789 42,30
43,119 44,10 45,10 47,40
48,40 49,459 50,399 51,409
52,119 53,809 54,259 55,4419
56,429 57,20 60,60 61,259
62,9869 63,9999 64,3369 65,3539
66,70 72,10 73,90 74,10
75,919 76,70 77,299 78,20
83,109 85,80 87,20 88,10
89,529 90,2929 91,929 92,999
93,279 94,10 95,10 96,129
97,349 98,90 99,229 100,20
101,40 109,30 110,10 111,70
112,10 113,30 124,50 125,139
126,179 127,99 128,109 129,20
130,20
##END=
