##TITLE=1-Methyl-3-piperidinemethanol
##JCAMP-DX=4.24
##DATA TYPE=MASS SPECTRUM
##ORIGIN=Japan AIST/NIMC Database- Spectrum MS-NW-5470
##OWNER=NIST Mass Spectrometry Data Center
Collection (C) 2014 copyright by the U.S. Secretary of Commerce
on behalf of the United States of America. All rights reserved.
##CAS REGISTRY NO=7583-53-1
##$NIST MASS SPEC NO=235443
##MOLFORM=C7 H15 N O
##MW=129
##$NIST SOURCE=MSDC
##XUNITS=M/Z
##YUNITS=RELATIVE INTENSITY
##XFACTOR=1
##YFACTOR=1
##FIRSTX=14
##LASTX=131
##FIRSTY=40
##MAXX=131
##MINX=14
##MAXY=9999
##MINY=10
##NPOINTS=97
##PEAK TABLE=(XY..XY)
14,40 15,829 16,20 17,10
18,40 26,129 27,999 28,889
29,729 30,579 31,789 32,99
37,40 38,99 39,1129 40,229
41,2389 42,5389 43,9699 44,6939
45,389 46,70 47,10 49,10
50,80 51,139 52,129 53,399
54,309 55,839 56,509 57,2489
58,9219 59,429 60,20 61,10
62,20 63,50 64,30 65,159
66,109 67,379 68,559 69,409
70,2779 71,2379 72,369 73,90
74,80 75,10 76,20 77,60
78,70 79,109 80,229 81,219
82,729 83,229 84,1999 85,319
86,999 87,99 88,30 90,10
91,80 92,80 93,149 94,399
95,159 96,1539 97,649 98,2839
99,1029 100,999 101,159 102,10
104,10 105,10 106,40 107,50
108,249 109,159 110,1009 111,709
112,2019 113,209 114,459 115,40
123,10 124,40 125,40 126,99
127,70 128,9999 129,6439 130,539
131,40
##END=
