##TITLE=Benzeneethanol, 4-fluoro-
##JCAMP-DX=4.24
##DATA TYPE=MASS SPECTRUM
##ORIGIN=Japan AIST/NIMC Database- Spectrum MS-NW-5488
##OWNER=NIST Mass Spectrometry Data Center
Collection (C) 2014 copyright by the U.S. Secretary of Commerce
on behalf of the United States of America. All rights reserved.
##CAS REGISTRY NO=7589-27-7
##$NIST MASS SPEC NO=235270
##MOLFORM=C8 H9 F O
##MW=140
##$NIST SOURCE=MSDC
##XUNITS=M/Z
##YUNITS=RELATIVE INTENSITY
##XFACTOR=1
##YFACTOR=1
##FIRSTX=15
##LASTX=142
##FIRSTY=20
##MAXX=142
##MINX=15
##MAXY=9999
##MINY=10
##NPOINTS=93
##PEAK TABLE=(XY..XY)
15,20 18,10 26,20 27,90
28,80 29,80 30,10 31,409
32,20 33,10 37,30 38,60
39,279 40,10 41,20 42,10
43,90 44,30 45,20 49,20
50,159 51,199 52,30 53,10
54,10 55,10 56,30 57,359
58,20 59,139 60,30 61,60
62,99 63,279 64,40 65,60
68,30 69,70 70,70 71,10
73,20 74,80 75,179 76,30
77,70 78,20 79,10 80,10
81,119 82,40 83,1159 84,80
85,30 86,30 87,20 88,10
89,169 90,40 91,129 92,20
93,10 94,30 95,119 96,229
97,60 98,10 99,10 101,179
102,30 103,60 104,10 105,50
106,20 107,229 108,99 109,9999
110,3039 111,209 112,60 120,50
121,149 122,209 123,70 124,10
125,10 135,10 136,10 137,90
138,30 139,20 140,2259 141,209
142,10
##END=
