##TITLE=Urea, N-ethyl-N-nitroso-
##JCAMP-DX=4.24
##DATA TYPE=MASS SPECTRUM
##ORIGIN=W.T.RAINEY OAK RIDGE NATIONAL LABORATORY,OAK RIDGE,TN.USA
##OWNER=NIST Mass Spectrometry Data Center
Collection (C) 2014 copyright by the U.S. Secretary of Commerce
on behalf of the United States of America. All rights reserved.
##CAS REGISTRY NO=759-73-9
##$NIST MASS SPEC NO=25555
##MOLFORM=C3 H7 N3 O2
##MW=117
##$NIST SOURCE=MSDC
##XUNITS=M/Z
##YUNITS=RELATIVE INTENSITY
##XFACTOR=1
##YFACTOR=1
##FIRSTX=30
##LASTX=117
##FIRSTY=6203
##MAXX=117
##MINX=30
##MAXY=9999
##MINY=72
##NPOINTS=30
##PEAK TABLE=(XY..XY)
30,6203 31,1094 32,948 38,364
39,583 40,1021 41,1386 42,4379
43,9780 44,9999 45,802 46,437
53,145 54,72 55,291 56,2992
57,583 58,145 59,3138 60,218
69,145 70,218 71,291 72,145
73,145 74,6422 75,291 88,145
102,72 117,656
##END=
