##TITLE=2,3-Butanediol, 2,3-dimethyl-
##JCAMP-DX=4.24
##DATA TYPE=MASS SPECTRUM
##ORIGIN=NIST Mass Spectrometry Data Center, 1990.
##OWNER=NIST Mass Spectrometry Data Center
Collection (C) 2014 copyright by the U.S. Secretary of Commerce
on behalf of the United States of America. All rights reserved.
##CAS REGISTRY NO=76-09-5
##$NIST MASS SPEC NO=114628
##MOLFORM=C6 H14 O2
##MW=118
##$NIST SOURCE=MSDC
##XUNITS=M/Z
##YUNITS=RELATIVE INTENSITY
##XFACTOR=1
##YFACTOR=1
##FIRSTX=15
##LASTX=103
##FIRSTY=199
##MAXX=103
##MINX=15
##MAXY=9999
##MINY=11
##NPOINTS=26
##PEAK TABLE=(XY..XY)
15,199 27,377 28,12 29,458
30,12 31,1139 32,11 38,129
39,894 40,276 41,2012 42,619
43,3978 44,192 45,127 55,383
57,3245 59,9999 60,349 67,220
69,138 83,298 85,1632 86,121
100,248 103,279
##END=
