##TITLE=Ethane, 1,1,2-trichloro-1,2,2-trifluoro-
##JCAMP-DX=4.24
##DATA TYPE=MASS SPECTRUM
##ORIGIN=Japan AIST/NIMC Database- Spectrum MS-NW-8899
##OWNER=NIST Mass Spectrometry Data Center
Collection (C) 2014 copyright by the U.S. Secretary of Commerce
on behalf of the United States of America. All rights reserved.
##CAS REGISTRY NO=76-13-1
##$NIST MASS SPEC NO=233813
##MOLFORM=C2 Cl3 F3
##MW=186
##$NIST SOURCE=MSDC
##XUNITS=M/Z
##YUNITS=RELATIVE INTENSITY
##XFACTOR=1
##YFACTOR=1
##FIRSTX=12
##LASTX=171
##FIRSTY=10
##MAXX=171
##MINX=12
##MAXY=9999
##MINY=10
##NPOINTS=53
##PEAK TABLE=(XY..XY)
12,10 24,10 31,1009 35,139
37,40 47,499 49,159 50,189
58,20 59,30 62,60 66,849
67,40 68,269 69,30 78,119
80,40 81,30 82,229 84,149
85,3689 86,60 87,1189 88,10
94,10 96,10 97,50 99,10
101,9999 102,109 103,6419 104,60
105,1039 106,10 113,20 115,10
116,649 117,279 118,209 119,259
121,80 132,159 134,99 136,10
151,8249 152,179 153,5319 154,109
155,859 156,10 167,30 169,30
171,10
##END=
