##TITLE=Ethane, 1,1,2,2-tetrachloro-1,2-difluoro-
##JCAMP-DX=4.24
##DATA TYPE=MASS SPECTRUM
##ORIGIN=Japan AIST/NIMC Database- Spectrum MS-NW-5559
##OWNER=NIST Mass Spectrometry Data Center
Collection (C) 2014 copyright by the U.S. Secretary of Commerce
on behalf of the United States of America. All rights reserved.
##CAS REGISTRY NO=76-12-0
##$NIST MASS SPEC NO=230277
##MOLFORM=C2 Cl4 F2
##MW=202
##$NIST SOURCE=MSDC
##XUNITS=M/Z
##YUNITS=RELATIVE INTENSITY
##XFACTOR=1
##YFACTOR=1
##FIRSTX=12
##LASTX=206
##FIRSTY=40
##MAXX=206
##MINX=12
##MAXY=9999
##MINY=10
##NPOINTS=82
##PEAK TABLE=(XY..XY)
12,40 24,50 31,1289 32,10
35,389 37,129 43,90 47,1039
48,10 49,349 50,30 59,119
61,30 62,119 66,869 67,99
68,259 70,20 72,10 74,30
75,30 76,10 78,439 79,10
80,139 82,889 83,20 84,599
85,439 86,99 87,139 94,119
96,80 97,119 98,10 99,40
101,9999 102,129 103,6329 104,80
105,1049 106,10 113,169 115,109
117,2509 118,30 119,2439 120,30
121,819 122,10 123,90 129,10
131,10 132,1039 133,30 134,709
135,20 136,119 148,269 150,279
151,20 152,109 153,20 154,20
155,20 164,10 166,10 167,6319
168,169 169,6099 170,149 171,1969
172,50 173,229 183,30 185,40
187,20 188,10 190,10 202,30
204,40 206,20
##END=
