##TITLE=Perfluoropropane
##JCAMP-DX=4.24
##DATA TYPE=MASS SPECTRUM
##OWNER=NIST Mass Spectrometry Data Center
Collection (C) 2014 copyright by the U.S. Secretary of Commerce
on behalf of the United States of America. All rights reserved.
##CAS REGISTRY NO=76-19-7
##$NIST MASS SPEC NO=8136
##MOLFORM=C3 F8
##MW=188
##$NIST SOURCE=MSDC
##XUNITS=M/Z
##YUNITS=RELATIVE INTENSITY
##XFACTOR=1
##YFACTOR=1
##FIRSTX=12
##LASTX=188
##FIRSTY=240
##MAXX=188
##MINX=12
##MAXY=9999
##MINY=10
##NPOINTS=21
##PEAK TABLE=(XY..XY)
12,240 19,100 24,40 31,2883
36,10 43,60 50,931 55,10
62,70 69,9999 74,20 75,30
81,70 93,60 100,661 112,10
119,901 131,20 150,10 169,2462
188,10
##END=
