##TITLE=2,2-Dimethyl-1,3-butanediol
##JCAMP-DX=4.24
##DATA TYPE=MASS SPECTRUM
##ORIGIN=Insect Chem. Ecol. Lab., USDA, Beltsville, MD 20705
##OWNER=NIST Mass Spectrometry Data Center
Collection (C) 2014 copyright by the U.S. Secretary of Commerce
on behalf of the United States of America. All rights reserved.
##CAS REGISTRY NO=76-35-7
##$NIST MASS SPEC NO=132003
##MOLFORM=C6 H14 O2
##MW=118
##$NIST SOURCE=MSDC
##XUNITS=M/Z
##YUNITS=RELATIVE INTENSITY
##XFACTOR=1
##YFACTOR=1
##FIRSTX=41
##LASTX=119
##FIRSTY=4547
##MAXX=119
##MINX=41
##MAXY=9999
##MINY=14
##NPOINTS=52
##PEAK TABLE=(XY..XY)
41,4547 42,568 43,2898 44,216
45,3237 46,84 47,40 49,68
50,49 51,96 52,23 53,277
54,117 55,2470 56,9999 57,2529
58,147 59,354 60,17 61,125
63,244 65,27 67,137 68,25
69,917 70,1036 71,281 72,176
73,351 74,95 75,14 81,26
82,48 83,226 84,67 85,521
86,69 87,455 88,44 89,26
91,14 95,20 99,31 100,108
101,269 102,18 103,97 105,17
109,15 117,16 118,80 119,21
##END=
