##TITLE=2,2,3,3-Tetrafluoro-1-propanol
##JCAMP-DX=4.24
##DATA TYPE=MASS SPECTRUM
##ORIGIN=Japan AIST/NIMC Database- Spectrum MS-NW-4908
##OWNER=NIST Mass Spectrometry Data Center
Collection (C) 2014 copyright by the U.S. Secretary of Commerce
on behalf of the United States of America. All rights reserved.
##CAS REGISTRY NO=76-37-9
##$NIST MASS SPEC NO=230057
##MOLFORM=C3 H4 F4 O
##MW=132
##$NIST SOURCE=MSDC
##XUNITS=M/Z
##YUNITS=RELATIVE INTENSITY
##XFACTOR=1
##YFACTOR=1
##FIRSTX=13
##LASTX=131
##FIRSTY=10
##MAXX=131
##MINX=13
##MAXY=9999
##MINY=10
##NPOINTS=61
##PEAK TABLE=(XY..XY)
13,10 14,50 15,90 18,20
20,40 24,10 25,30 26,70
27,50 28,249 29,1859 30,149
31,9999 32,249 33,829 34,10
36,10 37,20 38,10 42,70
43,119 44,119 45,309 46,30
47,30 49,699 50,70 51,1879
52,30 53,10 55,10 56,10
57,20 60,50 61,379 62,90
63,139 64,309 65,619 66,10
67,50 69,60 71,10 73,10
75,30 80,70 81,119 82,2669
83,179 91,50 92,30 93,60
95,30 96,10 100,20 101,90
102,50 111,40 112,849 113,30
131,10
##END=
