##TITLE=Oxymorphone
##JCAMP-DX=4.24
##DATA TYPE=MASS SPECTRUM
##ORIGIN=NIST Mass Spectrometry Data Center
##OWNER=NIST Mass Spectrometry Data Center
Collection (C) 2014 copyright by the U.S. Secretary of Commerce
on behalf of the United States of America. All rights reserved.
##CAS REGISTRY NO=76-41-5
##$NIST MASS SPEC NO=352196
##MOLFORM=C17 H19 N O4
##MW=301
##$NIST SOURCE=MSDC
##XUNITS=M/Z
##YUNITS=RELATIVE INTENSITY
##XFACTOR=1
##YFACTOR=1
##FIRSTX=15
##LASTX=304
##FIRSTY=70
##MAXX=304
##MINX=15
##MAXY=9999
##MINY=10
##NPOINTS=237
##PEAK TABLE=(XY..XY)
15,70 20,10 26,40 27,280
28,320 29,280 30,180 31,130
38,40 39,490 40,80 41,430
42,3793 43,861 44,4434 45,170
48,10 50,160 51,641 52,220
53,500 54,180 55,1491 56,641
57,2202 58,2142 59,350 60,50
61,20 62,120 63,510 64,190
65,581 66,170 67,130 68,110
69,120 70,3703 71,751 72,180
74,90 75,240 76,240 77,1171
78,400 79,260 80,140 81,190
82,340 83,280 84,751 85,350
86,150 87,120 88,90 89,540
90,200 91,1041 92,220 93,110
94,380 95,140 96,160 97,130
98,961 99,200 100,170 101,240
102,490 103,761 104,230 105,290
106,150 107,220 108,340 109,150
110,160 111,220 112,1181 113,240
114,210 115,2172 116,520 117,561
118,320 119,180 120,160 121,90
122,210 124,50 125,50 126,190
127,1261 128,1151 129,540 130,330
131,1191 132,430 133,220 134,120
135,60 136,140 137,330 138,60
139,190 140,1571 141,540 142,150
143,280 144,701 145,651 146,440
147,731 148,380 149,90 150,150
151,110 152,240 153,230 154,140
155,300 156,210 157,500 158,240
159,310 160,761 161,961 162,791
163,140 164,370 165,1041 166,160
167,110 168,260 169,310 170,260
171,1371 172,671 173,1511 174,1611
175,671 176,400 177,90 178,170
179,40 180,60 181,130 182,90
183,150 184,490 185,510 186,651
187,1341 188,701 189,310 190,140
191,30 194,30 195,80 196,60
197,260 198,450 199,340 200,561
201,791 202,1221 203,2032 204,430
205,60 206,20 210,60 211,130
212,160 213,210 214,520 215,921
216,4244 217,1011 218,200 219,10
222,10 223,20 224,40 225,130
226,250 227,190 228,190 229,110
230,410 231,70 232,20 233,10
234,10 235,20 236,20 237,20
238,120 240,100 241,60 242,160
243,120 244,861 245,631 246,110
247,30 252,20 254,130 255,40
256,120 257,30 258,140 259,40
260,10 266,20 268,20 270,20
271,10 272,110 273,100 275,10
282,70 283,40 284,140 285,40
286,270 287,50 293,10 294,10
296,10 297,10 298,20 299,50
300,460 301,9999 302,1892 303,220
304,20
##END=
