##TITLE=Bornyl acetate
##JCAMP-DX=4.24
##DATA TYPE=MASS SPECTRUM
##ORIGIN=NIST Mass Spectrometry Data Center
##OWNER=NIST Mass Spectrometry Data Center
Collection (C) 2014 copyright by the U.S. Secretary of Commerce
on behalf of the United States of America. All rights reserved.
##CAS REGISTRY NO=76-49-3
##$NIST MASS SPEC NO=352268
##MOLFORM=C12 H20 O2
##MW=196
##$NIST SOURCE=MSDC
##XUNITS=M/Z
##YUNITS=RELATIVE INTENSITY
##XFACTOR=1
##YFACTOR=1
##FIRSTX=14
##LASTX=197
##FIRSTY=90
##MAXX=197
##MINX=14
##MAXY=9999
##MINY=10
##NPOINTS=108
##PEAK TABLE=(XY..XY)
14,90 15,530 16,10 17,10
26,40 27,761 28,200 29,781
30,20 31,40 37,10 38,30
39,1111 40,230 41,2863 42,400
43,6976 44,210 45,100 50,50
51,210 52,110 53,851 54,150
55,1541 56,130 57,240 58,30
59,40 60,20 61,60 62,20
63,60 64,10 65,430 66,140
67,1611 68,500 69,1361 70,220
71,440 72,260 73,20 75,10
77,1011 78,190 79,1261 80,1341
81,981 82,681 83,701 84,390
85,120 86,40 87,10 89,20
90,10 91,1141 92,1261 93,4774
94,801 95,9999 96,841 97,240
98,100 99,120 100,20 102,10
103,60 104,20 105,430 106,90
107,861 108,1952 109,1381 110,1031
111,561 112,90 113,240 114,30
115,20 117,30 119,130 121,4664
122,460 123,200 124,20 125,100
126,30 127,20 128,10 134,20
135,110 136,3863 137,520 138,40
139,120 140,10 141,10 151,10
152,30 153,80 154,901 155,110
156,10 163,10 196,150 197,20
##END=
