##TITLE=Fluoxymesterone
##JCAMP-DX=4.24
##DATA TYPE=MASS SPECTRUM
##ORIGIN=Patti Price, Georgia Bureau of Investigation, Decatur, Georgia
##OWNER=NIST Mass Spectrometry Data Center
Collection (C) 2014 copyright by the U.S. Secretary of Commerce
on behalf of the United States of America. All rights reserved.
##CAS REGISTRY NO=76-43-7
##$NIST MASS SPEC NO=247938
##MOLFORM=C20 H29 F O3
##MW=336
##$NIST SOURCE=MSDC
##XUNITS=M/Z
##YUNITS=RELATIVE INTENSITY
##XFACTOR=1
##YFACTOR=1
##FIRSTX=41
##LASTX=338
##FIRSTY=3343
##MAXX=338
##MINX=41
##MAXY=9999
##MINY=50
##NPOINTS=251
##PEAK TABLE=(XY..XY)
41,3343 42,240 43,9999 44,400
45,330 47,240 51,220 52,180
53,1191 54,200 55,2512 56,190
57,960 58,800 59,570 60,90
63,150 65,510 66,240 67,1441
68,300 69,730 70,130 71,4153
72,690 73,280 75,110 77,1631
78,290 79,2222 80,380 81,820
82,240 83,640 84,150 85,480
86,50 87,150 88,170 89,110
91,2121 92,420 93,1201 94,440
95,1551 96,480 97,810 98,150
99,320 100,140 101,210 102,110
103,470 104,180 105,1651 106,560
107,1961 108,780 109,2602 110,580
111,920 112,400 113,360 114,70
115,770 116,320 117,600 118,240
119,1171 120,540 121,1941 122,1841
123,3373 124,2472 125,1010 126,230
127,400 128,660 129,760 130,300
131,1301 132,390 133,1381 134,700
135,1461 136,820 137,2212 138,700
139,560 140,130 141,550 142,430
143,990 144,550 145,970 146,570
147,1361 148,1251 149,1121 150,330
151,580 152,440 153,450 154,260
155,710 156,310 157,850 158,410
159,900 160,740 161,1401 162,970
163,1171 164,490 165,630 166,330
167,390 168,200 169,490 170,260
171,700 172,580 173,980 174,470
175,2041 176,820 177,900 178,370
179,400 180,290 181,1020 182,400
183,900 184,390 185,1000 186,860
187,710 188,520 189,550 190,360
191,810 192,500 193,330 194,310
195,730 196,580 197,1211 198,1481
199,1321 200,460 201,510 202,370
203,600 204,540 205,360 206,1191
207,750 208,190 209,630 210,400
211,680 212,640 213,970 214,560
215,560 216,410 217,340 218,220
219,160 220,100 221,370 222,320
223,1010 224,350 225,1751 226,470
227,1421 228,670 229,470 230,280
231,330 232,150 233,320 234,130
235,210 236,100 237,510 238,670
239,350 240,880 241,710 242,290
243,820 244,390 245,710 246,330
247,580 248,160 251,600 252,320
253,140 254,360 255,630 256,990
257,550 258,390 259,510 260,430
261,230 262,170 263,760 264,140
265,1331 266,890 267,260 268,70
269,140 270,240 271,150 272,240
273,370 274,1131 275,260 276,80
277,130 278,90 279,3042 280,950
281,300 282,100 283,830 284,190
285,340 286,90 288,110 296,110
298,1601 299,370 300,250 301,280
303,250 314,210 316,970 317,320
318,1371 319,290 321,190 334,80
336,4714 337,1090 338,120
##END=
