##TITLE=Phenazasiline, 5-ethyl-5,10-dihydro-10,10-diphenyl-
##JCAMP-DX=4.24
##DATA TYPE=MASS SPECTRUM
##ORIGIN=RADIAN CORP
##OWNER=NIST Mass Spectrometry Data Center
Collection (C) 2014 copyright by the U.S. Secretary of Commerce
on behalf of the United States of America. All rights reserved.
##CAS REGISTRY NO=76-51-7
##$NIST MASS SPEC NO=76467
##MOLFORM=C26 H23 N Si
##MW=377
##$NIST SOURCE=MSDC
##XUNITS=M/Z
##YUNITS=RELATIVE INTENSITY
##XFACTOR=1
##YFACTOR=1
##FIRSTX=26
##LASTX=380
##FIRSTY=20
##MAXX=380
##MINX=26
##MAXY=9999
##MINY=10
##NPOINTS=202
##PEAK TABLE=(XY..XY)
26,20 27,350 28,70 29,1360
38,10 39,110 41,50 42,90
43,650 44,80 50,170 51,760
52,120 53,420 54,80 55,70
57,20 58,200 59,20 60,10
63,70 65,110 66,60 67,60
69,20 70,10 73,20 74,30
75,110 76,170 77,1340 78,670
79,490 80,60 81,40 89,120
90,60 91,770 92,130 93,140
101,70 102,60 103,660 104,320
105,3590 106,450 107,320 108,20
113,60 114,40 115,370 116,120
117,170 118,160 119,310 120,150
121,180 126,80 127,180 128,150
129,440 130,210 131,110 132,120
133,20 135,420 139,320 140,250
141,290 144,80 145,20 146,50
148,20 149,240 151,360 152,1090
153,770 154,640 155,870 156,200
157,70 163,80 164,70 165,1070
166,570 167,2140 168,520 169,270
170,90 172,30 174,20 175,10
176,100 177,210 178,420 179,710
180,5340 181,4960 182,1530 183,2020
184,370 185,100 187,30 189,170
190,130 191,260 192,320 193,910
194,1990 195,1630 196,1410 197,260
198,60 201,50 202,260 203,180
204,210 205,380 206,930 207,270
208,170 209,250 210,60 213,120
214,100 215,570 216,240 217,360
218,230 219,300 220,560 221,200
222,450 223,110 224,90 225,50
226,310 227,270 228,450 229,460
230,210 231,150 232,70 239,150
240,180 241,620 242,350 243,620
244,440 245,160 246,80 252,80
253,110 254,390 255,750 256,370
257,690 258,200 259,80 265,60
266,60 267,220 268,430 269,870
270,80 271,4710 272,1920 273,470
274,120 280,80 281,30 282,230
283,90 284,2140 285,590 286,190
289,10 294,50 295,20 296,200
298,1620 299,1590 300,2400 301,660
302,200 303,30 344,100 345,30
346,100 348,470 349,190 350,20
360,80 362,8140 363,2680 364,690
365,120 374,20 377,9999 378,3520
379,740 380,100
##END=
