##TITLE=Codeine
##JCAMP-DX=4.24
##DATA TYPE=MASS SPECTRUM
##ORIGIN=Drug Lab
##OWNER=NIST Mass Spectrometry Data Center
Collection (C) 2014 copyright by the U.S. Secretary of Commerce
on behalf of the United States of America. All rights reserved.
##CAS REGISTRY NO=76-57-3
##$NIST MASS SPEC NO=335560
##MOLFORM=C18 H21 N O3
##MW=299
##$NIST SOURCE=MSDC
##XUNITS=M/Z
##YUNITS=RELATIVE INTENSITY
##XFACTOR=1
##YFACTOR=1
##FIRSTX=40
##LASTX=314
##FIRSTY=80
##MAXX=314
##MINX=40
##MAXY=9999
##MINY=10
##NPOINTS=237
##PEAK TABLE=(XY..XY)
40,80 41,390 42,2903 43,360
44,1491 45,70 50,110 51,480
52,170 53,530 54,170 55,701
56,250 57,480 58,460 59,1692
60,110 62,80 63,450 64,180
65,561 66,170 67,270 68,290
69,180 70,1241 71,170 72,90
73,50 74,90 75,220 76,310
77,1241 78,390 79,300 80,280
81,1651 82,811 83,310 84,180
85,40 86,100 87,110 88,120
89,540 90,210 91,1091 92,200
93,180 94,1331 95,300 96,831
97,170 98,80 99,70 100,30
101,240 102,520 103,841 104,240
105,310 106,260 107,320 108,330
109,540 110,280 111,40 112,170
113,210 114,330 115,3233 116,290
117,561 118,340 119,240 120,210
122,661 123,190 124,2993 125,310
126,330 127,1141 128,1641 129,731
130,310 131,791 132,460 133,280
134,340 135,140 136,260 137,130
138,180 139,821 140,340 141,1021
142,340 143,390 144,821 145,561
146,1171 147,390 148,230 149,10
150,230 151,470 152,1511 153,1021
154,370 155,661 156,330 157,470
158,430 159,470 160,490 161,631
162,5525 163,751 164,220 165,1011
166,320 167,340 168,621 169,641
170,430 171,480 172,230 173,571
174,390 175,901 176,470 177,240
178,561 179,330 180,200 181,961
182,390 183,500 184,430 185,821
186,450 187,510 188,1962 189,440
190,270 191,130 192,90 193,170
194,190 195,320 196,280 197,701
198,581 199,561 200,360 201,250
202,290 203,80 204,100 205,90
206,80 207,200 208,140 209,460
210,300 211,460 212,410 213,510
214,2172 215,470 216,270 217,150
218,140 219,140 220,60 221,70
222,120 223,200 224,200 225,841
226,320 227,340 228,480 229,2903
230,881 231,120 232,10 234,30
235,40 236,70 237,80 238,220
239,180 240,400 241,430 242,971
243,240 244,60 245,30 248,20
249,20 250,90 251,90 252,190
253,120 254,260 255,140 256,500
257,80 258,20 262,30 263,10
264,50 265,30 266,320 267,140
268,150 269,50 270,510 271,140
272,10 280,981 281,290 282,1081
283,240 284,711 285,120 286,10
296,10 297,220 298,1661 299,9999
300,2002 301,260 302,10 313,40
314,10
##END=
