##TITLE=Ethylmorphine
##JCAMP-DX=4.24
##DATA TYPE=MASS SPECTRUM
##ORIGIN=NIST Mass Spectrometry Data Center
##OWNER=NIST Mass Spectrometry Data Center
Collection (C) 2014 copyright by the U.S. Secretary of Commerce
on behalf of the United States of America. All rights reserved.
##CAS REGISTRY NO=76-58-4
##$NIST MASS SPEC NO=352174
##MOLFORM=C19 H23 N O3
##MW=313
##$NIST SOURCE=MSDC
##XUNITS=M/Z
##YUNITS=RELATIVE INTENSITY
##XFACTOR=1
##YFACTOR=1
##FIRSTX=15
##LASTX=316
##FIRSTY=40
##MAXX=316
##MINX=15
##MAXY=9999
##MINY=10
##NPOINTS=262
##PEAK TABLE=(XY..XY)
15,40 26,50 27,490 28,150
29,1081 30,440 31,561 38,20
39,430 40,70 41,440 42,3563
43,470 44,2022 45,80 46,10
50,90 51,450 52,150 53,591
54,160 55,991 56,310 57,550
58,571 59,2382 60,180 61,10
62,60 63,370 64,120 65,591
66,150 67,300 68,290 69,170
70,1261 71,160 72,80 73,20
74,50 75,170 76,220 77,1171
78,390 79,340 80,280 81,2352
82,891 83,330 84,150 85,40
86,90 87,80 88,90 89,480
90,160 91,1211 92,230 93,200
94,1421 95,300 96,841 97,170
98,100 99,70 100,40 101,240
102,440 103,651 104,240 105,390
106,230 107,390 110,340 111,70
112,150 113,140 115,3013 116,631
117,651 118,330 119,250 120,240
121,180 122,200 123,250 124,3173
125,310 126,270 127,1221 128,1531
129,701 130,280 131,991 132,510
133,280 134,370 135,100 136,250
137,70 138,80 139,631 140,260
141,921 143,460 144,701 145,540
146,1131 147,550 148,310 149,120
150,120 151,390 152,1351 153,981
154,340 155,460 156,220 157,540
158,240 159,240 160,621 161,821
162,5855 163,761 164,230 165,901
166,290 167,380 168,480 169,601
170,340 171,701 172,290 173,681
174,1011 175,721 176,310 177,150
178,240 179,200 180,150 181,901
182,340 183,300 184,420 185,390
186,270 187,200 188,150 189,260
190,150 191,110 192,290 193,250
194,170 195,260 196,220 197,741
198,440 199,510 200,410 201,190
202,701 203,170 204,200 205,110
206,80 207,130 208,110 209,470
210,320 211,280 212,260 213,350
214,2582 215,671 216,260 217,60
218,80 219,50 220,50 221,70
222,70 223,180 224,190 225,881
226,540 227,500 228,410 229,100
230,130 231,110 232,100 233,100
234,40 235,60 236,120 237,100
238,190 239,250 240,210 241,230
242,240 243,2072 244,711 245,110
246,20 247,10 248,20 249,20
250,130 251,130 252,200 253,120
254,340 255,310 256,1051 257,260
258,80 259,30 262,10 263,10
264,50 265,50 266,370 267,210
268,300 269,150 270,360 271,70
272,10 276,20 277,10 278,50
279,20 280,701 281,160 282,260
283,90 284,2402 285,530 286,60
287,10 293,10 294,440 295,120
296,761 297,190 298,410 299,80
300,10 308,10 309,10 310,20
311,370 312,1461 313,9999 314,2112
315,280 316,30
##END=
