##TITLE=Thymol blue
##JCAMP-DX=4.24
##DATA TYPE=MASS SPECTRUM
##ORIGIN=Japan AIST/NIMC Database- Spectrum MS-NW-9048
##OWNER=NIST Mass Spectrometry Data Center
Collection (C) 2014 copyright by the U.S. Secretary of Commerce
on behalf of the United States of America. All rights reserved.
##CAS REGISTRY NO=76-61-9
##$NIST MASS SPEC NO=229686
##MOLFORM=C27 H30 O5 S
##MW=466
##$NIST SOURCE=MSDC
##XUNITS=M/Z
##YUNITS=RELATIVE INTENSITY
##XFACTOR=1
##YFACTOR=1
##FIRSTX=15
##LASTX=470
##FIRSTY=20
##MAXX=470
##MINX=15
##MAXY=9999
##MINY=10
##NPOINTS=386
##PEAK TABLE=(XY..XY)
15,20 27,80 28,119 29,40
32,10 39,90 40,10 41,239
42,30 43,509 44,30 48,70
50,10 51,30 52,10 53,60
55,139 56,10 57,30 63,20
64,199 65,60 66,10 67,60
69,169 70,10 71,20 75,10
76,30 77,169 78,40 79,99
80,40 81,30 82,10 83,70
84,10 85,10 88,10 89,30
90,10 91,259 92,30 93,50
94,20 95,40 96,10 97,30
101,50 102,20 103,50 104,40
105,189 106,30 107,119 108,40
109,50 110,10 111,20 112,10
113,70 114,40 115,179 116,70
117,80 118,20 119,90 120,90
121,169 122,40 123,40 124,10
125,50 126,149 127,70 128,80
129,70 130,20 131,90 132,99
133,159 134,149 135,699 136,99
137,70 138,159 139,109 140,60
141,99 142,70 143,30 144,80
145,99 146,70 147,129 148,109
149,219 150,359 151,129 152,139
153,249 154,90 155,90 156,169
157,99 158,20 159,30 160,20
161,90 162,70 163,299 164,149
165,489 166,129 167,60 168,50
169,209 170,169 171,99 172,50
173,10 175,30 176,60 177,399
178,439 179,149 180,30 181,139
182,50 183,40 184,20 185,70
186,40 187,20 188,10 189,139
190,80 191,119 192,70 193,149
194,249 195,379 196,80 197,70
198,10 199,10 200,30 201,50
202,209 203,159 204,50 205,90
206,80 207,149 208,90 209,209
210,229 211,189 212,30 213,60
214,30 215,139 216,60 217,60
218,709 219,369 220,159 221,419
222,129 223,119 224,209 225,109
226,129 227,99 228,80 229,119
230,40 231,109 232,70 233,70
234,99 235,359 236,269 237,889
238,199 239,289 240,149 241,129
242,80 243,80 244,70 245,129
246,50 247,40 248,20 249,30
250,60 251,119 252,389 253,249
254,90 255,239 256,149 257,239
258,129 259,139 260,50 261,50
262,20 263,99 264,60 265,159
266,139 267,189 268,359 269,319
270,159 271,229 272,99 273,139
274,60 275,189 276,99 277,99
278,60 279,109 280,70 281,189
282,159 283,349 284,489 285,1179
286,449 287,229 288,70 289,60
290,40 291,40 292,60 293,119
294,119 295,219 296,109 297,229
298,269 299,919 300,539 301,939
302,219 303,159 304,40 305,40
306,30 307,60 308,70 309,459
310,169 311,329 312,209 313,359
314,189 315,1349 316,2489 317,1219
318,409 319,139 320,40 321,40
322,20 323,50 324,40 325,159
326,179 327,689 328,319 329,359
330,109 331,30 332,10 333,10
334,10 335,20 336,10 337,40
338,30 339,80 340,70 341,469
342,519 343,9999 344,2819 345,459
346,60 347,10 349,20 350,10
351,20 352,20 353,109 354,60
355,429 356,249 357,309 358,139
359,189 360,50 361,10 363,40
364,20 365,30 366,109 367,1179
368,299 369,669 370,679 371,3509
372,1039 373,189 374,30 375,10
376,10 377,10 378,10 379,20
380,199 381,1179 382,319 383,169
384,629 385,1829 386,2009 387,1449
388,369 389,70 390,10 391,30
392,20 393,109 394,40 395,70
396,20 397,10 398,10 399,20
400,30 401,30 402,30 403,10
405,20 406,20 407,50 408,339
409,949 410,259 411,80 412,20
419,10 421,20 422,40 423,4759
424,1309 425,739 426,169 427,40
428,10 433,10 434,10 435,30
436,30 437,90 438,40 439,20
449,60 450,30 451,6839 452,2029
453,719 454,149 455,30 464,30
465,489 466,5409 467,1749 468,789
469,179 470,40
##END=
