##TITLE=Phenylmethylbarbituric acid
##JCAMP-DX=4.24
##DATA TYPE=MASS SPECTRUM
##ORIGIN=Finnigan MAT: Toxicological Library (LIBR-TX)
##OWNER=NIST Mass Spectrometry Data Center
Collection (C) 2014 copyright by the U.S. Secretary of Commerce
on behalf of the United States of America. All rights reserved.
##CAS REGISTRY NO=76-94-8
##$NIST MASS SPEC NO=119222
##MOLFORM=C11 H10 N2 O3
##MW=218
##$NIST SOURCE=MSDC
##XUNITS=M/Z
##YUNITS=RELATIVE INTENSITY
##XFACTOR=1
##YFACTOR=1
##FIRSTX=51
##LASTX=219
##FIRSTY=2611
##MAXX=219
##MINX=51
##MAXY=9999
##MINY=32
##NPOINTS=22
##PEAK TABLE=(XY..XY)
51,2611 52,1015 63,541 76,365
77,2135 78,2250 91,242 102,458
103,2050 104,7270 105,867 121,113
132,9999 133,1076 146,233 147,100
150,113 175,490 176,77 203,32
218,4714 219,623
##END=
