##TITLE=DL-Norvaline
##JCAMP-DX=4.24
##DATA TYPE=MASS SPECTRUM
##ORIGIN=Japan AIST/NIMC Database- Spectrum MS-NW- 334
##OWNER=NIST Mass Spectrometry Data Center
Collection (C) 2014 copyright by the U.S. Secretary of Commerce
on behalf of the United States of America. All rights reserved.
##CAS REGISTRY NO=760-78-1
##$NIST MASS SPEC NO=228128
##MOLFORM=C5 H11 N O2
##MW=117
##$NIST SOURCE=MSDC
##XUNITS=M/Z
##YUNITS=RELATIVE INTENSITY
##XFACTOR=1
##YFACTOR=1
##FIRSTX=14
##LASTX=88
##FIRSTY=10
##MAXX=88
##MINX=14
##MAXY=9999
##MINY=10
##NPOINTS=42
##PEAK TABLE=(XY..XY)
14,10 15,109 17,20 18,70
26,80 27,609 28,1489 29,529
30,4649 31,70 32,20 33,10
37,20 38,60 39,349 40,60
41,369 42,489 43,469 44,779
45,159 46,309 50,20 51,20
52,20 53,60 54,80 55,609
56,299 57,299 58,10 68,20
69,10 70,109 71,20 72,9999
73,489 74,2399 75,209 76,10
82,10 88,30
##END=
