##TITLE=Benzoic acid, 2,5-dichloro-3-hydroxy-6-methoxy-
##JCAMP-DX=4.24
##DATA TYPE=MASS SPECTRUM
##ORIGIN=J. SHAW, BORRISTON RESEARCH, ROCKVILLE, MD, USA
##OWNER=NIST Mass Spectrometry Data Center
Collection (C) 2014 copyright by the U.S. Secretary of Commerce
on behalf of the United States of America. All rights reserved.
##CAS REGISTRY NO=7600-50-2
##$NIST MASS SPEC NO=60319
##MOLFORM=C8 H6 Cl2 O4
##MW=236
##$NIST SOURCE=MSDC
##XUNITS=M/Z
##YUNITS=RELATIVE INTENSITY
##XFACTOR=1
##YFACTOR=1
##FIRSTX=17
##LASTX=241
##FIRSTY=403
##MAXX=241
##MINX=17
##MAXY=9999
##MINY=13
##NPOINTS=175
##PEAK TABLE=(XY..XY)
17,403 18,901 19,81 25,766
26,471 29,6419 30,766 31,1561
33,255 35,484 36,860 37,1170
38,901 39,995 41,350 42,255
43,282 45,5261 47,659 49,2435
50,3176 51,1628 53,9999 54,444
55,175 56,108 57,81 60,2274
61,3350 62,2826 63,2826 65,1008
66,350 67,309 69,847 71,363
73,2179 74,323 75,551 77,3256
78,336 79,793 80,215 81,81
83,350 84,1049 85,2853 87,4535
88,713 89,1615 90,417 91,282
92,54 93,188 95,834 96,995
97,2018 98,484 99,968 100,175
101,457 102,148 103,242 104,94
105,175 106,94 107,417 108,134
109,175 111,363 113,2623 114,282
115,793 116,94 117,40 118,81
119,229 120,471 121,1062 122,336
123,632 124,148 125,242 126,188
127,444 128,282 129,484 130,175
131,229 133,551 135,309 136,40
137,54 138,13 139,40 140,67
141,511 142,121 143,188 144,40
145,54 147,686 148,376 149,1346
150,242 151,659 152,54 153,108
154,67 155,108 156,40 157,255
158,54 159,94 160,148 161,67
162,148 163,444 164,94 165,538
166,40 167,215 168,54 169,81
170,27 171,81 172,40 173,27
175,968 176,336 177,928 178,229
179,323 180,54 181,40 182,81
183,175 184,40 185,94 186,81
187,13 189,901 190,363 191,605
192,229 193,242 194,40 195,67
199,13 200,67 201,13 203,820
204,417 205,605 206,296 207,323
208,81 209,121 210,13 211,13
217,40 218,121 219,834 220,161
221,1695 222,148 223,820 224,67
225,121 236,1857 237,202 238,1156
239,108 240,188 241,13
##END=
