##TITLE=Chloromethyl heptanoate
##JCAMP-DX=4.24
##DATA TYPE=MASS SPECTRUM
##ORIGIN=ASES Database, Dalian Institute, P.R. China
##OWNER=NIST Mass Spectrometry Data Center
Collection (C) 2014 copyright by the U.S. Secretary of Commerce
on behalf of the United States of America. All rights reserved.
##CAS REGISTRY NO=76068-79-6
##$NIST MASS SPEC NO=145480
##MOLFORM=C8 H15 Cl O2
##MW=178
##$NIST SOURCE=MSDC
##XUNITS=M/Z
##YUNITS=RELATIVE INTENSITY
##XFACTOR=1
##YFACTOR=1
##FIRSTX=39
##LASTX=149
##FIRSTY=1531
##MAXX=149
##MINX=39
##MAXY=9999
##MINY=70
##NPOINTS=32
##PEAK TABLE=(XY..XY)
39,1531 41,4203 42,3643 43,6325
44,690 49,1801 51,540 55,5014
56,1841 57,1771 68,1261 69,2121
70,1551 71,1211 72,7136 73,680
83,1271 84,1671 85,2812 108,9999
109,850 110,3393 111,140 112,140
113,5755 114,130 121,1811 123,420
135,480 136,70 137,130 149,130
##END=
