##TITLE=Formamide, N,N-dibutyl-
##JCAMP-DX=4.24
##DATA TYPE=MASS SPECTRUM
##ORIGIN=Japan AIST/NIMC Database- Spectrum MS-IW- 561
##OWNER=NIST Mass Spectrometry Data Center
Collection (C) 2014 copyright by the U.S. Secretary of Commerce
on behalf of the United States of America. All rights reserved.
##CAS REGISTRY NO=761-65-9
##$NIST MASS SPEC NO=239174
##MOLFORM=C9 H19 N O
##MW=157
##$NIST SOURCE=MSDC
##XUNITS=M/Z
##YUNITS=RELATIVE INTENSITY
##XFACTOR=1
##YFACTOR=1
##FIRSTX=15
##LASTX=159
##FIRSTY=40
##MAXX=159
##MINX=15
##MAXY=9999
##MINY=10
##NPOINTS=62
##PEAK TABLE=(XY..XY)
15,40 18,10 26,20 27,389
28,409 29,1349 30,1819 31,30
32,10 39,269 40,30 41,1209
42,389 43,199 44,1199 45,60
46,259 51,10 52,10 53,60
54,50 55,359 56,219 57,969
58,1399 59,449 60,199 67,10
68,20 69,20 70,80 71,50
72,9999 73,1369 74,70 82,10
83,10 84,199 85,149 86,349
87,40 96,10 98,159 99,30
100,459 101,50 102,219 103,10
112,30 114,6909 115,679 116,40
126,10 128,559 129,50 140,20
142,149 143,10 156,50 157,189
158,459 159,40
##END=
