##TITLE=1-Butene, 1-chloro-, (Z)-
##JCAMP-DX=4.24
##DATA TYPE=MASS SPECTRUM
##ORIGIN=NIST Mass Spectrometry Data Center, 1990.
##OWNER=NIST Mass Spectrometry Data Center
Collection (C) 2014 copyright by the U.S. Secretary of Commerce
on behalf of the United States of America. All rights reserved.
##CAS REGISTRY NO=7611-86-1
##$NIST MASS SPEC NO=118174
##MOLFORM=C4 H7 Cl
##MW=90
##$NIST SOURCE=MSDC
##XUNITS=M/Z
##YUNITS=RELATIVE INTENSITY
##XFACTOR=1
##YFACTOR=1
##FIRSTX=14
##LASTX=92
##FIRSTY=179
##MAXX=92
##MINX=14
##MAXY=9999
##MINY=169
##NPOINTS=35
##PEAK TABLE=(XY..XY)
14,179 15,465 18,211 25,285
26,1831 27,3605 28,1411 29,1861
36,169 37,605 38,1196 39,6603
40,475 41,1009 47,228 48,190
49,1270 50,1212 51,1323 52,358
53,2397 54,2450 55,9999 56,455
61,381 62,1571 63,278 64,585
73,183 75,3286 76,188 77,953
89,349 90,2988 92,990
##END=
