##TITLE=Formic acid, 1,1-dimethylethyl ester
##JCAMP-DX=4.24
##DATA TYPE=MASS SPECTRUM
##ORIGIN=D.HENNEBERG, MAX-PLANCK INSTITUTE, MULHEIM, WEST GERMANY
##OWNER=NIST Mass Spectrometry Data Center
Collection (C) 2014 copyright by the U.S. Secretary of Commerce
on behalf of the United States of America. All rights reserved.
##CAS REGISTRY NO=762-75-4
##$NIST MASS SPEC NO=61263
##MOLFORM=C5 H10 O2
##MW=102
##$NIST SOURCE=MSDC
##XUNITS=M/Z
##YUNITS=RELATIVE INTENSITY
##XFACTOR=1
##YFACTOR=1
##FIRSTX=27
##LASTX=88
##FIRSTY=1912
##MAXX=88
##MINX=27
##MAXY=9999
##MINY=6
##NPOINTS=47
##PEAK TABLE=(XY..XY)
27,1912 28,539 29,3844 30,124
31,3010 32,42 33,19 36,12
37,91 38,258 39,2158 40,358
41,7203 42,385 43,1654 44,193
45,148 46,65 47,51 48,8
49,52 50,158 51,134 52,35
53,150 54,84 55,858 56,2686
57,9324 58,429 59,9999 60,273
61,26 63,29 64,10 65,20
67,35 68,9 69,120 71,23
73,21 76,7 77,54 81,6
83,49 87,1097 88,41
##END=
