##TITLE=1-Pentene, 4,4-dimethyl-
##JCAMP-DX=4.24
##DATA TYPE=MASS SPECTRUM
##ORIGIN=Japan AIST/NIMC Database- Spectrum MS-NW-3136
##OWNER=NIST Mass Spectrometry Data Center
Collection (C) 2014 copyright by the U.S. Secretary of Commerce
on behalf of the United States of America. All rights reserved.
##CAS REGISTRY NO=762-62-9
##$NIST MASS SPEC NO=231707
##MOLFORM=C7 H14
##MW=98
##$NIST SOURCE=MSDC
##XUNITS=M/Z
##YUNITS=RELATIVE INTENSITY
##XFACTOR=1
##YFACTOR=1
##FIRSTX=15
##LASTX=99
##FIRSTY=80
##MAXX=99
##MINX=15
##MAXY=9999
##MINY=10
##NPOINTS=46
##PEAK TABLE=(XY..XY)
15,80 26,50 27,589 28,40
29,2009 30,40 31,10 37,20
38,80 39,1099 40,169 41,3889
42,199 43,289 44,10 50,60
51,90 52,30 53,209 54,40
55,2869 56,619 57,9999 58,469
59,60 62,10 63,30 65,60
66,20 67,179 68,30 69,60
70,269 71,40 77,30 79,30
81,99 82,50 83,1519 84,109
85,10 95,20 96,10 97,30
98,109 99,40
##END=
