##TITLE=5,9,13-Pentadecatrien-2-one, 6,10,14-trimethyl-
##JCAMP-DX=4.24
##DATA TYPE=MASS SPECTRUM
##ORIGIN=A.A.Kutin, Moscow, Russia
##OWNER=NIST Mass Spectrometry Data Center
Collection (C) 2014 copyright by the U.S. Secretary of Commerce
on behalf of the United States of America. All rights reserved.
##CAS REGISTRY NO=762-29-8
##$NIST MASS SPEC NO=265749
##MOLFORM=C18 H30 O
##MW=262
##$NIST SOURCE=MSDC
##XUNITS=M/Z
##YUNITS=RELATIVE INTENSITY
##XFACTOR=1
##YFACTOR=1
##FIRSTX=33
##LASTX=269
##FIRSTY=284
##MAXX=269
##MINX=33
##MAXY=9999
##MINY=6
##NPOINTS=147
##PEAK TABLE=(XY..XY)
33,284 37,20 39,308 40,613
41,3175 43,5965 44,130 45,45
51,19 53,532 55,864 56,84
57,196 58,153 59,45 64,7
65,164 67,1424 69,9999 71,382
72,22 73,49 77,390 79,658
81,5280 83,1020 84,291 85,202
87,9 90,15 91,548 92,409
93,1827 95,2031 96,265 97,94
98,27 99,66 103,15 105,449
106,253 107,1806 108,650 109,904
110,156 111,201 112,18 113,47
115,8 116,16 117,96 118,12
119,532 120,259 121,994 122,578
123,937 124,301 125,1405 126,168
127,38 128,59 129,32 131,115
132,25 133,598 135,2026 136,2277
137,1120 138,999 139,160 143,43
145,121 147,128 148,341 149,284
150,114 151,273 152,26 153,89
154,7 155,26 157,41 158,13
159,242 160,96 161,374 162,194
163,70 164,33 166,22 168,21
171,50 173,132 174,60 175,342
176,97 177,167 178,381 179,130
180,134 181,19 182,11 185,38
187,77 188,28 189,132 190,26
191,264 192,80 193,327 194,52
196,6 197,12 201,120 202,98
203,79 204,444 205,157 206,103
207,21 210,11 213,15 215,8
219,182 221,22 222,25 227,21
228,8 229,26 231,6 237,6
238,8 243,11 244,43 245,13
247,17 249,7 255,15 257,22
258,21 260,49 262,666 263,160
264,13 267,9 269,13
##END=
