##TITLE=Diethyl phosphite
##JCAMP-DX=4.24
##DATA TYPE=MASS SPECTRUM
##ORIGIN=NIST Mass Spectrometry Data Center, 1992
##OWNER=NIST Mass Spectrometry Data Center
Collection (C) 2014 copyright by the U.S. Secretary of Commerce
on behalf of the United States of America. All rights reserved.
##CAS REGISTRY NO=762-04-9
##$NIST MASS SPEC NO=125382
##MOLFORM=C4 H11 O3 P
##MW=138
##$NIST SOURCE=MSDC
##XUNITS=M/Z
##YUNITS=RELATIVE INTENSITY
##XFACTOR=1
##YFACTOR=1
##FIRSTX=12
##LASTX=139
##FIRSTY=19
##MAXX=139
##MINX=12
##MAXY=9999
##MINY=1
##NPOINTS=64
##PEAK TABLE=(XY..XY)
12,19 13,51 15,825 17,18
18,48 26,772 27,3294 28,1222
29,4807 30,366 31,1546 32,9
33,14 39,17 40,1 41,83
42,215 43,978 44,1 45,3159
46,1 47,1720 48,160 49,98
50,13 57,10 58,10 59,47
60,9 61,13 63,190 65,7976
66,2574 67,232 68,12 74,8
75,35 76,27 77,126 78,71
79,109 80,8 81,923 82,1810
83,9999 85,62 91,245 92,983
93,2282 94,1247 95,1004 96,17
97,18 109,1107 110,1137 111,7946
112,209 113,52 120,18 123,373
124,13 137,111 138,19 139,7
##END=
