##TITLE=2,3-Dichloropropionyl chloride
##JCAMP-DX=4.24
##DATA TYPE=MASS SPECTRUM
##ORIGIN=NIST Mass Spectrometry Data Center, 2010
##OWNER=NIST Mass Spectrometry Data Center
Collection (C) 2014 copyright by the U.S. Secretary of Commerce
on behalf of the United States of America. All rights reserved.
##CAS REGISTRY NO=7623-13-4
##$NIST MASS SPEC NO=375985
##MOLFORM=C3 H3 Cl3 O
##MW=160
##$NIST SOURCE=MSDC
##XUNITS=M/Z
##YUNITS=RELATIVE INTENSITY
##XFACTOR=1
##YFACTOR=1
##FIRSTX=14
##LASTX=136
##FIRSTY=10
##MAXX=136
##MINX=14
##MAXY=9999
##MINY=10
##NPOINTS=72
##PEAK TABLE=(XY..XY)
14,10 24,50 25,290 26,1091
27,1311 28,160 29,60 35,520
36,290 37,310 38,150 39,40
40,20 41,70 42,20 44,20
45,10 47,220 48,310 49,550
50,110 51,150 52,50 53,240
54,70 55,1161 56,40 59,70
60,470 61,5805 62,5555 63,3593
64,1762 65,571 66,10 70,30
71,20 72,50 73,40 74,10
75,10 76,500 77,10 78,160
82,10 83,230 84,10 85,150
87,40 89,1001 90,40 91,330
92,10 94,20 95,100 96,500
97,9999 98,520 99,6336 100,180
101,1001 102,20 109,10 125,5195
126,200 127,3303 128,110 129,530
130,20 132,20 134,20 136,10
##END=
