##TITLE=Butanoyl chloride, 2-chloro-
##JCAMP-DX=4.24
##DATA TYPE=MASS SPECTRUM
##ORIGIN=NIST Mass Spectrometry Data Center
##OWNER=NIST Mass Spectrometry Data Center
Collection (C) 2014 copyright by the U.S. Secretary of Commerce
on behalf of the United States of America. All rights reserved.
##CAS REGISTRY NO=7623-11-2
##$NIST MASS SPEC NO=340976
##MOLFORM=C4 H6 Cl2 O
##MW=140
##$NIST SOURCE=MSDC
##XUNITS=M/Z
##YUNITS=RELATIVE INTENSITY
##XFACTOR=1
##YFACTOR=1
##FIRSTX=15
##LASTX=116
##FIRSTY=30
##MAXX=116
##MINX=15
##MAXY=9999
##MINY=10
##NPOINTS=61
##PEAK TABLE=(XY..XY)
15,30 25,30 26,240 27,761
29,230 35,140 36,100 37,350
38,520 39,2522 40,280 41,8668
42,510 43,20 47,110 48,270
49,971 50,170 51,370 52,20
53,130 54,40 55,1171 56,30
60,90 61,440 62,340 63,991
64,110 65,260 66,10 68,20
69,350 70,140 71,10 72,20
73,90 74,10 75,300 76,1101
77,9999 78,671 79,3253 80,100
83,80 85,50 87,10 89,30
91,10 97,60 99,40 104,30
105,2192 106,100 107,701 108,20
112,781 113,10 114,490 115,10
116,80
##END=
