##TITLE=N,N-Diamylmethylamine
##JCAMP-DX=4.24
##DATA TYPE=MASS SPECTRUM
##ORIGIN=AIR PRODUCTS & CHEMICALS, INC BOX 538, ALLENTOWN, PA 18105, D M PAREES
##OWNER=NIST Mass Spectrometry Data Center
Collection (C) 2014 copyright by the U.S. Secretary of Commerce
on behalf of the United States of America. All rights reserved.
##CAS REGISTRY NO=76257-73-3
##$NIST MASS SPEC NO=79731
##MOLFORM=C11 H25 N
##MW=171
##$NIST SOURCE=MSDC
##XUNITS=M/Z
##YUNITS=RELATIVE INTENSITY
##XFACTOR=1
##YFACTOR=1
##FIRSTX=27
##LASTX=172
##FIRSTY=370
##MAXX=172
##MINX=27
##MAXY=9999
##MINY=40
##NPOINTS=32
##PEAK TABLE=(XY..XY)
27,370 29,660 30,130 31,70
39,190 41,870 42,810 43,1570
44,2640 45,140 55,170 56,90
57,520 58,3190 59,540 70,160
71,130 84,410 96,130 98,100
100,130 101,70 102,70 114,9999
115,1090 116,60 117,70 140,50
142,40 170,100 171,600 172,80
##END=
