##TITLE=Propanoic acid, 3-ethoxy-, ethyl ester
##JCAMP-DX=4.24
##DATA TYPE=MASS SPECTRUM
##ORIGIN=Japan AIST/NIMC Database- Spectrum MS-NW-4689
##OWNER=NIST Mass Spectrometry Data Center
Collection (C) 2014 copyright by the U.S. Secretary of Commerce
on behalf of the United States of America. All rights reserved.
##CAS REGISTRY NO=763-69-9
##$NIST MASS SPEC NO=229933
##MOLFORM=C7 H14 O3
##MW=146
##$NIST SOURCE=MSDC
##XUNITS=M/Z
##YUNITS=RELATIVE INTENSITY
##XFACTOR=1
##YFACTOR=1
##FIRSTX=13
##LASTX=145
##FIRSTY=20
##MAXX=145
##MINX=13
##MAXY=9999
##MINY=10
##NPOINTS=73
##PEAK TABLE=(XY..XY)
13,20 14,109 15,489 16,20
17,30 18,109 25,40 26,469
27,2469 28,1269 29,6049 30,279
31,5729 32,50 33,10 35,20
36,10 38,10 39,40 40,10
41,409 42,689 43,2659 44,1169
45,2749 46,99 47,289 50,40
53,20 54,30 55,979 56,429
57,599 58,159 59,9999 60,789
61,209 63,10 65,10 69,20
70,50 71,4849 72,1629 73,2239
74,1909 75,979 76,40 77,10
82,30 83,70 84,50 85,30
86,10 87,20 88,40 89,1559
90,60 91,20 99,80 100,129
101,3879 102,2729 103,249 104,20
105,10 113,20 115,20 117,3389
118,229 119,30 128,20 131,60
145,10
##END=
