##TITLE=1,4-Hexadiene, 5-methyl-
##JCAMP-DX=4.24
##DATA TYPE=MASS SPECTRUM
##ORIGIN=M. IWAMOTO TOYO RAYON CO., SONOYANA, OTSU, SHIGA-KEN, JAPAN
##OWNER=NIST Mass Spectrometry Data Center
Collection (C) 2014 copyright by the U.S. Secretary of Commerce
on behalf of the United States of America. All rights reserved.
##CAS REGISTRY NO=763-88-2
##$NIST MASS SPEC NO=836
##MOLFORM=C7 H12
##MW=96
##$NIST SOURCE=MSDC
##XUNITS=M/Z
##YUNITS=RELATIVE INTENSITY
##XFACTOR=1
##YFACTOR=1
##FIRSTX=12
##LASTX=98
##FIRSTY=10
##MAXX=98
##MINX=12
##MAXY=9999
##MINY=10
##NPOINTS=62
##PEAK TABLE=(XY..XY)
12,10 13,10 14,80 15,370
16,40 25,20 26,400 27,2950
28,890 29,1070 30,30 31,30
32,40 37,200 38,460 39,4180
40,590 41,4750 42,360 43,280
44,130 45,30 46,40 47,30
49,70 50,600 51,960 52,430
53,3120 54,1320 55,1770 56,330
57,40 61,70 62,150 63,260
64,30 65,610 66,410 67,1670
68,550 69,460 70,30 73,20
74,60 75,100 76,20 77,1140
78,350 79,2650 80,420 81,9999
82,690 83,20 91,130 92,20
93,90 94,90 95,390 96,4340
97,360 98,20
##END=
