##TITLE=n-Propyl methylphosphonofluoridate
##JCAMP-DX=4.24
##DATA TYPE=MASS SPECTRUM
##ORIGIN=VERIFIN - Methodology B1-1979
##OWNER=NIST Mass Spectrometry Data Center
Collection (C) 2014 copyright by the U.S. Secretary of Commerce
on behalf of the United States of America. All rights reserved.
##CAS REGISTRY NO=763-14-4
##$NIST MASS SPEC NO=226120
##MOLFORM=C4 H10 F O2 P
##MW=140
##$NIST SOURCE=MSDC
##XUNITS=M/Z
##YUNITS=RELATIVE INTENSITY
##XFACTOR=1
##YFACTOR=1
##FIRSTX=27
##LASTX=139
##FIRSTY=700
##MAXX=139
##MINX=27
##MAXY=9999
##MINY=10
##NPOINTS=30
##PEAK TABLE=(XY..XY)
27,700 28,100 29,300 31,90
35,70 36,100 39,500 40,50
41,900 42,800 43,600 47,400
49,90 51,80 59,200 67,400
79,500 80,70 81,3302 82,1401
83,300 86,100 98,200 99,9999
100,200 111,1901 112,100 113,100
125,400 139,10
##END=
