##TITLE=Benzeneethanamine, N,.alpha.-dimethyl-
##JCAMP-DX=4.24
##DATA TYPE=MASS SPECTRUM
##ORIGIN=NIST Mass Spectrometry Data Center
##OWNER=NIST Mass Spectrometry Data Center
Collection (C) 2014 copyright by the U.S. Secretary of Commerce
on behalf of the United States of America. All rights reserved.
##CAS REGISTRY NO=7632-10-2
##$NIST MASS SPEC NO=352958
##MOLFORM=C10 H15 N
##MW=149
##$NIST SOURCE=MSDC
##XUNITS=M/Z
##YUNITS=RELATIVE INTENSITY
##XFACTOR=1
##YFACTOR=1
##FIRSTX=15
##LASTX=150
##FIRSTY=40
##MAXX=150
##MINX=15
##MAXY=9999
##MINY=10
##NPOINTS=75
##PEAK TABLE=(XY..XY)
15,40 26,10 27,60 28,200
29,110 30,530 31,10 32,20
37,10 38,30 39,270 40,30
41,200 42,430 43,190 44,40
50,90 51,230 52,70 53,30
54,40 55,20 56,571 57,180
58,9999 59,440 61,10 62,50
63,180 64,50 65,550 66,50
67,40 68,10 70,20 71,10
74,30 75,30 76,30 77,200
78,100 79,40 80,10 86,10
87,10 88,10 89,180 90,80
91,1241 92,120 93,20 101,10
102,40 103,80 104,60 105,50
106,20 115,200 116,60 117,200
118,120 119,170 120,20 130,40
131,10 132,100 133,70 134,310
135,30 144,10 146,20 147,10
148,80 149,10 150,10
##END=
