##TITLE=Propanoic acid, 3-mercapto-2-(mercaptomethyl)-
##JCAMP-DX=4.24
##DATA TYPE=MASS SPECTRUM
##ORIGIN=Div. of Experiment Therapeutics WRAIR, WRAMC, Washington DC 20307
##OWNER=NIST Mass Spectrometry Data Center
Collection (C) 2014 copyright by the U.S. Secretary of Commerce
on behalf of the United States of America. All rights reserved.
##CAS REGISTRY NO=7634-96-0
##$NIST MASS SPEC NO=257283
##MOLFORM=C4 H8 O2 S2
##MW=152
##$NIST SOURCE=MSDC
##XUNITS=M/Z
##YUNITS=RELATIVE INTENSITY
##XFACTOR=1
##YFACTOR=1
##FIRSTX=41
##LASTX=155
##FIRSTY=3998
##MAXX=155
##MINX=41
##MAXY=9999
##MINY=17
##NPOINTS=73
##PEAK TABLE=(XY..XY)
41,3998 42,234 43,301 44,111
45,6976 46,2021 47,6506 48,330
49,706 50,34 51,159 53,136
54,40 55,2486 56,319 57,522
58,1086 59,2473 60,465 61,615
63,264 64,211 65,67 66,56
68,98 69,448 70,99 71,902
72,3213 73,8395 74,3275 75,377
76,268 77,62 78,228 79,285
80,99 81,36 83,36 84,305
85,297 86,592 87,4033 88,260
89,227 90,53 99,112 100,2513
101,393 102,155 103,227 104,154
105,817 106,654 107,165 108,70
117,89 118,876 119,115 120,200
122,179 132,17 133,30 134,3054
135,659 136,310 137,73 150,111
151,480 152,9999 153,930 154,698
155,61
##END=
