##TITLE=1-Hexadecanol, TBDMS derivative
##JCAMP-DX=4.24
##DATA TYPE=MASS SPECTRUM
##ORIGIN=NIST Mass Spectrometry Data Center
##OWNER=NIST Mass Spectrometry Data Center
Collection (C) 2014 copyright by the U.S. Secretary of Commerce
on behalf of the United States of America. All rights reserved.
##CAS REGISTRY NO=76358-80-0
##$NIST MASS SPEC NO=351884
##MOLFORM=C22 H48 O Si
##MW=356
##$NIST SOURCE=MSDC
##XUNITS=M/Z
##YUNITS=RELATIVE INTENSITY
##XFACTOR=1
##YFACTOR=1
##FIRSTX=26
##LASTX=355
##FIRSTY=10
##MAXX=355
##MINX=26
##MAXY=9999
##MINY=10
##NPOINTS=140
##PEAK TABLE=(XY..XY)
26,10 27,100 29,430 30,10
31,10 39,140 40,30 41,1321
42,240 43,2092 44,70 45,220
46,10 47,200 48,10 49,10
51,10 53,70 54,140 55,1511
56,270 57,2092 58,300 59,721
60,100 61,681 62,40 63,30
65,20 66,10 67,320 68,120
69,1411 70,130 71,821 72,90
73,1832 74,240 75,8037 76,581
77,440 78,20 79,50 80,20
81,290 82,120 83,1962 84,150
85,711 86,70 87,220 88,120
89,2092 90,180 91,90 92,10
93,30 95,240 96,70 97,1822
98,170 99,420 100,80 101,941
102,110 103,90 104,10 107,20
108,10 109,100 110,30 111,781
112,80 113,220 114,40 115,731
116,80 117,80 118,10 119,10
121,10 123,40 124,10 125,200
126,20 127,100 128,20 129,290
130,40 131,80 132,20 133,30
135,10 137,20 139,60 140,10
141,50 143,120 144,10 145,40
151,10 153,30 154,10 155,20
157,90 158,10 159,20 167,20
169,10 171,80 181,10 183,10
185,80 186,10 187,10 199,90
200,20 201,10 213,100 214,20
215,10 227,80 228,20 229,10
241,40 242,10 243,10 283,60
284,20 285,10 294,10 297,30
299,9999 300,2482 301,621 302,80
303,10 341,60 342,20 355,10
##END=
