##TITLE=Boron trifluoride
##JCAMP-DX=4.24
##DATA TYPE=MASS SPECTRUM
##ORIGIN=LRL 0010
##OWNER=NIST Mass Spectrometry Data Center
Collection (C) 2014 copyright by the U.S. Secretary of Commerce
on behalf of the United States of America. All rights reserved.
##CAS REGISTRY NO=7637-07-2
##$NIST MASS SPEC NO=232
##MOLFORM=B F3
##MW=68
##$NIST SOURCE=MSDC
##XUNITS=M/Z
##YUNITS=RELATIVE INTENSITY
##XFACTOR=1
##YFACTOR=1
##FIRSTX=10
##LASTX=68
##FIRSTY=150
##MAXX=68
##MINX=10
##MAXY=9999
##MINY=10
##NPOINTS=9
##PEAK TABLE=(XY..XY)
10,150 11,540 19,320 29,30
30,110 38,10 48,2692 49,9999
68,480
##END=
