##TITLE=2-Carboethoxyphenyl isocyanate
##JCAMP-DX=4.24
##DATA TYPE=MASS SPECTRUM
##ORIGIN=NIST Mass Spectrometry Data Center, 1994
##OWNER=NIST Mass Spectrometry Data Center
Collection (C) 2014 copyright by the U.S. Secretary of Commerce
on behalf of the United States of America. All rights reserved.
##CAS REGISTRY NO=76393-16-3
##$NIST MASS SPEC NO=134559
##MOLFORM=C10 H9 N O3
##MW=191
##$NIST SOURCE=MSDC
##XUNITS=M/Z
##YUNITS=RELATIVE INTENSITY
##XFACTOR=1
##YFACTOR=1
##FIRSTX=14
##LASTX=193
##FIRSTY=109
##MAXX=193
##MINX=14
##MAXY=9999
##MINY=24
##NPOINTS=68
##PEAK TABLE=(XY..XY)
14,109 15,413 25,38 26,473
27,1888 28,527 29,2503 30,208
37,593 38,806 39,2204 40,185
41,102 42,90 43,235 44,81
45,356 49,78 50,684 51,470
52,472 53,210 54,27 59,42
61,263 62,742 63,2278 64,1972
65,218 66,70 73,84 74,217
75,208 76,288 77,164 78,209
79,388 80,37 86,24 87,97
88,215 89,24 90,5878 91,803
92,910 93,89 104,113 105,49
106,71 107,44 117,114 118,872
119,4515 120,384 121,43 122,44
132,39 135,31 146,9999 147,1228
148,126 163,2396 164,200 165,38
176,38 191,2311 192,284 193,24
##END=
