##TITLE=5-Undecene, (E)-
##JCAMP-DX=4.24
##DATA TYPE=MASS SPECTRUM
##ORIGIN=D.HENNEBERG, MAX-PLANCK INSTITUTE, MULHEIM, WEST GERMANY
##OWNER=NIST Mass Spectrometry Data Center
Collection (C) 2014 copyright by the U.S. Secretary of Commerce
on behalf of the United States of America. All rights reserved.
##CAS REGISTRY NO=764-97-6
##$NIST MASS SPEC NO=60852
##MOLFORM=C11 H22
##MW=154
##$NIST SOURCE=MSDC
##XUNITS=M/Z
##YUNITS=RELATIVE INTENSITY
##XFACTOR=1
##YFACTOR=1
##FIRSTX=24
##LASTX=155
##FIRSTY=26
##MAXX=155
##MINX=24
##MAXY=9999
##MINY=2
##NPOINTS=68
##PEAK TABLE=(XY..XY)
24,26 25,25 26,112 27,2666
28,831 29,3070 30,62 32,9
33,15 36,25 38,32 39,1947
40,181 41,6559 42,2260 43,3550
44,10 45,9 46,19 48,2
50,32 51,152 52,34 53,684
54,1449 55,9999 56,5980 57,2207
58,91 59,15 61,13 62,13
63,36 64,14 65,98 66,74
67,880 68,502 69,5809 70,3770
71,609 72,7 77,48 79,80
80,30 81,236 82,276 83,1739
84,1543 85,300 86,10 91,14
95,27 96,128 97,964 98,468
99,36 109,16 110,44 111,373
112,153 113,16 125,104 126,80
127,18 148,8 154,995 155,127
##END=
