##TITLE=2,4-Hexadiene, 2,5-dimethyl-
##JCAMP-DX=4.24
##DATA TYPE=MASS SPECTRUM
##OWNER=NIST Mass Spectrometry Data Center
Collection (C) 2014 copyright by the U.S. Secretary of Commerce
on behalf of the United States of America. All rights reserved.
##CAS REGISTRY NO=764-13-6
##$NIST MASS SPEC NO=1481
##MOLFORM=C8 H14
##MW=110
##$NIST SOURCE=MSDC
##XUNITS=M/Z
##YUNITS=RELATIVE INTENSITY
##XFACTOR=1
##YFACTOR=1
##FIRSTX=15
##LASTX=112
##FIRSTY=1251
##MAXX=112
##MINX=15
##MAXY=9999
##MINY=10
##NPOINTS=87
##PEAK TABLE=(XY..XY)
15,1251 16,40 17,10 18,10
26,250 27,2783 28,440 29,1141
30,30 31,10 32,10 35,10
36,20 37,130 38,390 39,3964
40,681 41,4414 42,370 43,801
44,40 45,80 46,50 47,60
48,50 49,50 50,460 51,1101
52,490 53,2222 54,520 55,3513
56,480 57,70 58,10 59,30
60,10 61,60 62,140 63,350
64,90 65,721 66,370 67,5105
68,1491 69,621 70,130 71,10
72,10 73,20 74,70 75,80
77,1261 78,330 79,1101 80,430
81,1331 82,310 83,180 84,80
85,50 86,40 87,30 89,50
90,80 91,691 92,190 93,921
94,330 95,9999 96,781 97,40
98,10 99,10 100,20 101,40
102,10 103,10 104,10 105,30
106,20 107,60 108,30 109,230
110,5635 111,500 112,30
##END=
