##TITLE=5-Undecene, (Z)-
##JCAMP-DX=4.24
##DATA TYPE=MASS SPECTRUM
##ORIGIN=D.HENNEBERG, MAX-PLANCK INSTITUTE, MULHEIM, WEST GERMANY
##OWNER=NIST Mass Spectrometry Data Center
Collection (C) 2014 copyright by the U.S. Secretary of Commerce
on behalf of the United States of America. All rights reserved.
##CAS REGISTRY NO=764-96-5
##$NIST MASS SPEC NO=60554
##MOLFORM=C11 H22
##MW=154
##$NIST SOURCE=MSDC
##XUNITS=M/Z
##YUNITS=RELATIVE INTENSITY
##XFACTOR=1
##YFACTOR=1
##FIRSTX=25
##LASTX=155
##FIRSTY=70
##MAXX=155
##MINX=25
##MAXY=9999
##MINY=60
##NPOINTS=68
##PEAK TABLE=(XY..XY)
25,70 26,281 27,4104 28,804
29,4044 30,160 32,80 37,100
38,170 39,2746 40,503 41,7162
42,2313 43,3470 44,191 49,80
50,201 51,422 52,301 53,1297
54,2283 55,9999 56,5191 57,2313
58,170 62,90 63,160 64,90
65,352 66,261 67,1317 68,684
69,5462 70,3782 71,784 72,110
74,70 75,90 77,291 78,130
79,291 80,120 81,402 82,472
83,2042 84,1770 85,452 86,90
89,60 91,110 92,60 93,70
95,120 96,211 97,1287 98,694
99,170 109,60 110,110 111,513
112,281 113,80 124,70 125,160
126,211 127,70 154,1810 155,150
##END=
