##TITLE=3-Penten-1-ol, (E)-
##JCAMP-DX=4.24
##DATA TYPE=MASS SPECTRUM
##ORIGIN=FOOD RESEARCH REPORT 118, K.E. MURRAY & COLLEAGUES, DIV. OF FOOD RESEARCH, CSIRO, AUSTRALIA
##OWNER=NIST Mass Spectrometry Data Center
Collection (C) 2014 copyright by the U.S. Secretary of Commerce
on behalf of the United States of America. All rights reserved.
##CAS REGISTRY NO=764-37-4
##$NIST MASS SPEC NO=53348
##MOLFORM=C5 H10 O
##MW=86
##$NIST SOURCE=MSDC
##XUNITS=M/Z
##YUNITS=RELATIVE INTENSITY
##XFACTOR=1
##YFACTOR=1
##FIRSTX=26
##LASTX=87
##FIRSTY=450
##MAXX=87
##MINX=26
##MAXY=9999
##MINY=10
##NPOINTS=44
##PEAK TABLE=(XY..XY)
26,450 27,3410 28,1250 29,4430
30,150 31,3410 32,70 37,170
38,390 39,3860 40,720 41,4720
42,500 43,690 44,1140 45,250
49,80 50,420 51,530 52,230
53,1930 54,1190 55,9999 56,6700
57,1250 58,250 61,30 62,70
63,80 64,10 65,160 66,170
67,1080 68,6530 69,360 70,30
71,110 81,80 82,160 83,90
84,110 85,30 86,610 87,30
##END=
