##TITLE=Ethene, 1,1'-[oxybis(2,1-ethanediyloxy)]bis-
##JCAMP-DX=4.24
##DATA TYPE=MASS SPECTRUM
##OWNER=NIST Mass Spectrometry Data Center
Collection (C) 2014 copyright by the U.S. Secretary of Commerce
on behalf of the United States of America. All rights reserved.
##CAS REGISTRY NO=764-99-8
##$NIST MASS SPEC NO=5572
##MOLFORM=C8 H14 O3
##MW=158
##$NIST SOURCE=MSDC
##XUNITS=M/Z
##YUNITS=RELATIVE INTENSITY
##XFACTOR=1
##YFACTOR=1
##FIRSTX=13
##LASTX=132
##FIRSTY=10
##MAXX=132
##MINX=13
##MAXY=9999
##MINY=10
##NPOINTS=79
##PEAK TABLE=(XY..XY)
13,10 14,60 15,561 16,20
17,10 18,10 19,210 25,10
26,120 27,1812 28,450 29,1111
30,90 31,791 32,10 33,10
38,10 39,70 40,20 41,1421
42,781 43,3553 44,671 45,9999
46,230 47,20 51,10 53,20
54,20 55,60 56,30 57,981
58,350 59,180 60,10 61,10
67,10 68,70 69,120 70,1431
71,1151 72,110 73,1581 74,60
75,20 76,10 81,10 82,10
83,30 84,40 85,60 86,601
87,641 88,60 89,20 91,10
92,10 96,10 97,10 98,10
99,130 100,40 101,380 102,30
103,10 104,10 105,10 112,10
113,20 114,530 115,180 116,10
117,1972 118,110 119,10 128,10
129,30 130,60 132,10
##END=
