##TITLE=2-Hexyn-1-ol
##JCAMP-DX=4.24
##DATA TYPE=MASS SPECTRUM
##ORIGIN=NIST Mass Spectrometry Data Center, 1990.
##OWNER=NIST Mass Spectrometry Data Center
Collection (C) 2014 copyright by the U.S. Secretary of Commerce
on behalf of the United States of America. All rights reserved.
##CAS REGISTRY NO=764-60-3
##$NIST MASS SPEC NO=114720
##MOLFORM=C6 H10 O
##MW=98
##$NIST SOURCE=MSDC
##XUNITS=M/Z
##YUNITS=RELATIVE INTENSITY
##XFACTOR=1
##YFACTOR=1
##FIRSTX=14
##LASTX=98
##FIRSTY=130
##MAXX=98
##MINX=14
##MAXY=9999
##MINY=41
##NPOINTS=51
##PEAK TABLE=(XY..XY)
14,130 15,659 16,41 17,111
18,237 26,944 27,4707 28,1589
29,5479 30,368 31,1927 32,288
37,704 38,1632 39,9473 40,2257
41,8877 42,3317 43,3016 44,492
45,120 49,379 50,1931 51,2570
52,2677 53,3362 54,1112 55,9999
56,1455 57,1149 61,267 62,496
63,570 64,127 65,1260 66,546
67,1405 68,691 69,4507 70,4631
71,348 74,141 77,1187 79,2255
80,460 81,442 83,6806 84,356
95,105 97,891 98,693
##END=
