##TITLE=Thiocyanic acid, 2-propenyl ester
##JCAMP-DX=4.24
##DATA TYPE=MASS SPECTRUM
##ORIGIN=G.Slater ET AL.J.Chromatogr.,648,433(1993)
##OWNER=NIST Mass Spectrometry Data Center
Collection (C) 2014 copyright by the U.S. Secretary of Commerce
on behalf of the United States of America. All rights reserved.
##CAS REGISTRY NO=764-49-8
##$NIST MASS SPEC NO=281653
##MOLFORM=C4 H5 N S
##MW=99
##$NIST SOURCE=MSDC
##XUNITS=M/Z
##YUNITS=RELATIVE INTENSITY
##XFACTOR=1
##YFACTOR=1
##FIRSTX=39
##LASTX=100
##FIRSTY=7677
##MAXX=100
##MINX=39
##MAXY=9999
##MINY=50
##NPOINTS=16
##PEAK TABLE=(XY..XY)
39,7677 40,460 41,9999 42,390
45,691 46,270 47,50 58,340
59,90 67,70 69,70 71,160
72,1421 98,390 99,2012 100,50
##END=
