##TITLE=2-Hexynoic acid
##JCAMP-DX=4.24
##DATA TYPE=MASS SPECTRUM
##ORIGIN=NIST Mass Spectrometry Data Center, 1994
##OWNER=NIST Mass Spectrometry Data Center
Collection (C) 2014 copyright by the U.S. Secretary of Commerce
on behalf of the United States of America. All rights reserved.
##CAS REGISTRY NO=764-33-0
##$NIST MASS SPEC NO=136299
##MOLFORM=C6 H8 O2
##MW=112
##$NIST SOURCE=MSDC
##XUNITS=M/Z
##YUNITS=RELATIVE INTENSITY
##XFACTOR=1
##YFACTOR=1
##FIRSTX=12
##LASTX=112
##FIRSTY=816
##MAXX=112
##MINX=12
##MAXY=9999
##MINY=3
##NPOINTS=61
##PEAK TABLE=(XY..XY)
12,816 13,142 14,196 15,877
16,1101 17,3 18,23 20,17
22,103 24,75 25,241 26,1391
27,6031 28,1873 29,2982 30,65
31,277 32,72 36,137 37,1205
38,2147 39,7830 40,5826 41,2509
42,1759 43,65 44,9999 45,227
46,59 48,70 49,303 50,1209
51,1272 52,444 53,3890 54,216
55,128 56,63 60,79 61,345
62,370 63,410 64,61 65,766
66,727 67,8526 68,1130 69,166
70,26 71,36 77,28 79,30
81,5 83,46 84,335 85,25
94,20 95,67 97,142 111,74
112,60
##END=
