##TITLE=Ethanol, 2-(vinyloxy)-
##JCAMP-DX=4.24
##DATA TYPE=MASS SPECTRUM
##OWNER=NIST Mass Spectrometry Data Center
Collection (C) 2014 copyright by the U.S. Secretary of Commerce
on behalf of the United States of America. All rights reserved.
##CAS REGISTRY NO=764-48-7
##$NIST MASS SPEC NO=684
##MOLFORM=C4 H8 O2
##MW=88
##$NIST SOURCE=MSDC
##XUNITS=M/Z
##YUNITS=RELATIVE INTENSITY
##XFACTOR=1
##YFACTOR=1
##FIRSTX=12
##LASTX=89
##FIRSTY=40
##MAXX=89
##MINX=12
##MAXY=9999
##MINY=10
##NPOINTS=50
##PEAK TABLE=(XY..XY)
12,40 13,110 14,561 15,1802
16,90 17,140 18,540 19,1311
22,30 23,30 24,10 25,80
26,731 27,4784 28,1501 29,4284
30,310 31,4944 32,200 33,70
36,10 37,20 38,40 39,230
40,90 41,530 42,901 43,4924
44,7717 45,9999 46,240 47,30
54,20 55,10 56,100 57,440
58,1171 59,430 60,40 61,20
62,30 69,20 70,20 71,20
73,911 74,30 85,10 86,80
88,661 89,20
##END=
