##TITLE=Fumaronitrile
##JCAMP-DX=4.24
##DATA TYPE=MASS SPECTRUM
##ORIGIN=Japan AIST/NIMC Database- Spectrum MS-NW-4972
##OWNER=NIST Mass Spectrometry Data Center
Collection (C) 2014 copyright by the U.S. Secretary of Commerce
on behalf of the United States of America. All rights reserved.
##CAS REGISTRY NO=764-42-1
##$NIST MASS SPEC NO=230072
##MOLFORM=C4 H2 N2
##MW=78
##$NIST SOURCE=MSDC
##XUNITS=M/Z
##YUNITS=RELATIVE INTENSITY
##XFACTOR=1
##YFACTOR=1
##FIRSTX=12
##LASTX=80
##FIRSTY=189
##MAXX=80
##MINX=12
##MAXY=9999
##MINY=10
##NPOINTS=26
##PEAK TABLE=(XY..XY)
12,189 13,40 14,30 24,159
25,299 26,929 27,179 28,189
36,179 37,299 38,589 39,289
40,50 48,60 49,10 50,559
51,5199 52,1709 53,80 62,80
63,40 76,559 77,3139 78,9999
79,519 80,10
##END=
