##TITLE=3-Hexene, (Z)-
##JCAMP-DX=4.24
##DATA TYPE=MASS SPECTRUM
##ORIGIN=Japan AIST/NIMC Database- Spectrum MS-NW-4616
##OWNER=NIST Mass Spectrometry Data Center
Collection (C) 2014 copyright by the U.S. Secretary of Commerce
on behalf of the United States of America. All rights reserved.
##CAS REGISTRY NO=7642-09-3
##$NIST MASS SPEC NO=231317
##MOLFORM=C6 H12
##MW=84
##$NIST SOURCE=MSDC
##XUNITS=M/Z
##YUNITS=RELATIVE INTENSITY
##XFACTOR=1
##YFACTOR=1
##FIRSTX=14
##LASTX=86
##FIRSTY=10
##MAXX=86
##MINX=14
##MAXY=9999
##MINY=10
##NPOINTS=46
##PEAK TABLE=(XY..XY)
14,10 15,159 26,189 27,1959
28,159 29,1879 30,50 31,20
37,90 38,239 39,2429 40,489
41,6649 42,6109 43,1449 44,80
49,30 50,229 51,309 52,139
53,899 54,619 55,9999 56,2659
57,129 61,20 62,40 63,70
64,10 65,139 66,50 67,519
68,90 69,2669 70,149 73,40
74,20 77,50 78,40 79,50
81,30 82,40 83,40 84,3829
85,269 86,10
##END=
