##TITLE=4-Octene, (Z)-
##JCAMP-DX=4.24
##DATA TYPE=MASS SPECTRUM
##ORIGIN=Japan AIST/NIMC Database- Spectrum MS-NW-3496
##OWNER=NIST Mass Spectrometry Data Center
Collection (C) 2014 copyright by the U.S. Secretary of Commerce
on behalf of the United States of America. All rights reserved.
##CAS REGISTRY NO=7642-15-1
##$NIST MASS SPEC NO=227615
##MOLFORM=C8 H16
##MW=112
##$NIST SOURCE=MSDC
##XUNITS=M/Z
##YUNITS=RELATIVE INTENSITY
##XFACTOR=1
##YFACTOR=1
##FIRSTX=14
##LASTX=114
##FIRSTY=10
##MAXX=114
##MINX=14
##MAXY=9999
##MINY=10
##NPOINTS=58
##PEAK TABLE=(XY..XY)
14,10 15,119 26,179 27,2269
28,339 29,1739 30,40 36,10
37,60 38,159 39,2449 40,359
41,9269 42,2869 43,1469 44,50
49,10 50,189 51,329 52,169
53,879 54,919 55,9999 56,4569
57,1369 58,60 61,20 62,50
63,90 64,10 65,219 66,99
67,939 68,479 69,3639 70,4349
71,509 72,20 74,20 75,10
77,139 78,40 79,149 80,30
81,199 82,199 83,2389 84,699
85,129 86,10 91,30 93,10
95,30 97,159 98,10 112,3559
113,309 114,30
##END=
