##TITLE=2-Octene, (Z)-
##JCAMP-DX=4.24
##DATA TYPE=MASS SPECTRUM
##ORIGIN=Japan AIST/NIMC Database- Spectrum MS-NW-1295
##OWNER=NIST Mass Spectrometry Data Center
Collection (C) 2014 copyright by the U.S. Secretary of Commerce
on behalf of the United States of America. All rights reserved.
##CAS REGISTRY NO=7642-04-8
##$NIST MASS SPEC NO=227618
##MOLFORM=C8 H16
##MW=112
##$NIST SOURCE=MSDC
##XUNITS=M/Z
##YUNITS=RELATIVE INTENSITY
##XFACTOR=1
##YFACTOR=1
##FIRSTX=14
##LASTX=114
##FIRSTY=199
##MAXX=114
##MINX=14
##MAXY=9999
##MINY=10
##NPOINTS=56
##PEAK TABLE=(XY..XY)
14,199 15,119 26,129 27,2469
28,379 29,4499 30,99 37,30
38,119 39,2239 40,369 41,8069
42,4399 43,1489 44,70 45,60
50,99 51,209 52,109 53,789
54,839 55,9999 56,6339 57,2519
58,119 59,20 63,40 65,99
66,50 67,559 68,519 69,3359
70,5599 71,629 72,40 75,10
77,70 78,10 79,60 80,10
81,119 82,259 83,2179 84,959
85,90 86,10 91,10 93,10
95,40 97,189 98,20 110,40
111,10 112,3639 113,329 114,10
##END=
