##TITLE=Tin(IV) chloride
##JCAMP-DX=4.24
##DATA TYPE=MASS SPECTRUM
##ORIGIN=A.A.Kutin, Moscow, Russia
##OWNER=NIST Mass Spectrometry Data Center
Collection (C) 2014 copyright by the U.S. Secretary of Commerce
on behalf of the United States of America. All rights reserved.
##CAS REGISTRY NO=7646-78-8
##$NIST MASS SPEC NO=258387
##MOLFORM=Cl4 Sn
##MW=260
##$NIST SOURCE=MSDC
##XUNITS=M/Z
##YUNITS=RELATIVE INTENSITY
##XFACTOR=1
##YFACTOR=1
##FIRSTX=35
##LASTX=270
##FIRSTY=9999
##MAXX=270
##MINX=35
##MAXY=9999
##MINY=1
##NPOINTS=140
##PEAK TABLE=(XY..XY)
35,9999 37,3163 40,100 41,31
42,20 43,51 44,135 45,33
46,8 49,4 50,12 51,24
52,13 53,7 54,5 55,26
56,18 57,28 58,28 59,40
60,53 61,8 62,9 63,2
64,37 65,6 66,11 67,8
68,4 70,149 71,16 72,78
73,10 74,17 76,82 77,207
78,317 79,163 80,17 81,15
82,2 83,9 84,8 85,1
86,5 87,1 90,3 91,18
93,21 94,20 95,23 96,10
97,8 98,2 99,2 100,1
105,5 106,24 107,31 108,3
109,3 110,9 112,109 113,23
114,43 115,42 116,902 117,465
118,1493 119,543 120,2128 122,298
124,355 125,2 127,7 133,5
135,2 141,6 147,38 149,46
150,21 151,635 152,336 153,1227
154,482 155,1649 156,126 157,670
159,292 161,75 171,3 173,3
175,4 182,3 184,8 186,105
187,56 188,232 189,96 190,347
191,47 192,199 193,4 194,75
196,23 198,3 199,2 217,131
218,8 219,242 220,66 221,2110
222,1179 223,5269 224,2262 225,8027
226,1454 227,5949 228,406 229,2720
230,51 231,1034 233,243 235,22
252,12 254,25 255,9 256,251
257,123 258,631 259,272 260,1009
261,228 262,866 264,564 265,19
266,207 267,8 268,68 270,10
##END=
