##TITLE=Phosphorus pentafluoride
##JCAMP-DX=4.24
##DATA TYPE=MASS SPECTRUM
##ORIGIN=A.Pleshkova, Nesmeyanov Inst.Org.Elem.Cpds, Moscow
##OWNER=NIST Mass Spectrometry Data Center
Collection (C) 2014 copyright by the U.S. Secretary of Commerce
on behalf of the United States of America. All rights reserved.
##CAS REGISTRY NO=7647-19-0
##$NIST MASS SPEC NO=306133
##MOLFORM=F5 P
##MW=126
##$NIST SOURCE=MSDC
##XUNITS=M/Z
##YUNITS=RELATIVE INTENSITY
##XFACTOR=1
##YFACTOR=1
##FIRSTX=31
##LASTX=126
##FIRSTY=160
##MAXX=126
##MINX=31
##MAXY=9999
##MINY=80
##NPOINTS=6
##PEAK TABLE=(XY..XY)
31,160 50,490 69,380 88,440
107,9999 126,80
##END=
