##TITLE=4-Methoxyphenyl 4'-(3-butenyloxy)benzoate
##JCAMP-DX=4.24
##DATA TYPE=MASS SPECTRUM
##ORIGIN=NIST Mass Spectrometry Data Center, 1994
##OWNER=NIST Mass Spectrometry Data Center
Collection (C) 2014 copyright by the U.S. Secretary of Commerce
on behalf of the United States of America. All rights reserved.
##CAS REGISTRY NO=76487-56-4
##$NIST MASS SPEC NO=135844
##MOLFORM=C18 H18 O4
##MW=298
##$NIST SOURCE=MSDC
##XUNITS=M/Z
##YUNITS=RELATIVE INTENSITY
##XFACTOR=1
##YFACTOR=1
##FIRSTX=12
##LASTX=300
##FIRSTY=13
##MAXX=300
##MINX=12
##MAXY=9999
##MINY=3
##NPOINTS=91
##PEAK TABLE=(XY..XY)
12,13 13,12 14,7 15,149
16,4 17,17 18,53 25,9
26,210 27,989 28,286 29,1587
30,32 32,3 37,40 38,268
39,1506 40,113 41,793 42,36
50,412 51,320 52,416 53,634
54,363 55,2446 56,112 61,14
62,104 63,601 64,632 65,1547
66,164 67,80 69,41 74,11
75,103 76,634 77,197 78,67
79,118 80,209 81,111 82,77
89,16 90,21 92,924 93,1530
94,119 95,659 96,44 102,10
104,295 105,156 106,47 107,63
108,43 109,174 115,50 116,21
117,25 118,23 121,9999 122,746
123,1136 124,153 125,16 127,15
128,33 129,9 131,32 133,67
134,23 135,16 137,17 144,16
145,18 146,14 147,46 171,18
172,10 173,37 175,7730 176,910
177,80 178,9 243,10 257,10
298,450 299,89 300,11
##END=
