##TITLE=1-Pentadecyne
##JCAMP-DX=4.24
##DATA TYPE=MASS SPECTRUM
##ORIGIN=Japan AIST/NIMC Database- Spectrum MS-NW-4665
##OWNER=NIST Mass Spectrometry Data Center
Collection (C) 2014 copyright by the U.S. Secretary of Commerce
on behalf of the United States of America. All rights reserved.
##CAS REGISTRY NO=765-13-9
##$NIST MASS SPEC NO=227810
##MOLFORM=C15 H28
##MW=208
##$NIST SOURCE=MSDC
##XUNITS=M/Z
##YUNITS=RELATIVE INTENSITY
##XFACTOR=1
##YFACTOR=1
##FIRSTX=14
##LASTX=208
##FIRSTY=20
##MAXX=208
##MINX=14
##MAXY=9999
##MINY=10
##NPOINTS=95
##PEAK TABLE=(XY..XY)
14,20 15,30 26,50 27,1249
28,119 29,2229 30,40 32,20
37,20 38,50 39,1199 40,279
41,4909 42,929 43,6749 44,239
50,40 51,149 52,109 53,919
54,2999 55,5499 56,1629 57,3869
58,169 63,30 64,10 65,239
66,469 67,7019 68,3039 69,3219
70,1019 71,1129 72,70 75,10
77,259 78,90 79,859 80,549
81,9999 82,5929 83,2499 84,529
85,469 86,30 91,139 92,40
93,279 94,219 95,4669 96,3589
97,1609 98,279 99,40 104,10
105,40 106,10 107,90 108,70
109,1769 110,589 111,319 112,99
113,20 115,10 117,20 119,10
121,40 122,10 123,369 124,189
125,70 126,50 127,10 129,10
133,10 135,20 136,10 137,139
138,99 139,20 140,20 141,10
149,10 151,40 152,30 154,10
165,20 166,20 168,20 179,10
180,10 193,10 208,10
##END=
