##TITLE=Cyclopentane, (1-methylethylidene)-
##JCAMP-DX=4.24
##DATA TYPE=MASS SPECTRUM
##ORIGIN=D.HENNEBERG, MAX-PLANCK INSTITUTE, MULHEIM, WEST GERMANY
##OWNER=NIST Mass Spectrometry Data Center
Collection (C) 2014 copyright by the U.S. Secretary of Commerce
on behalf of the United States of America. All rights reserved.
##CAS REGISTRY NO=765-83-3
##$NIST MASS SPEC NO=61656
##MOLFORM=C8 H14
##MW=110
##$NIST SOURCE=MSDC
##XUNITS=M/Z
##YUNITS=RELATIVE INTENSITY
##XFACTOR=1
##YFACTOR=1
##FIRSTX=25
##LASTX=111
##FIRSTY=18
##MAXX=111
##MINX=25
##MAXY=9999
##MINY=18
##NPOINTS=50
##PEAK TABLE=(XY..XY)
25,18 26,66 27,1308 28,729
29,459 37,74 38,176 39,2313
40,355 41,3352 42,296 43,472
44,122 45,56 50,138 51,430
52,243 53,1100 54,384 55,1284
56,213 57,24 62,53 63,200
64,56 65,563 66,1591 67,9999
68,1696 69,1800 70,90 77,579
78,146 79,587 80,173 81,1554
82,587 83,32 89,26 91,424
92,48 93,608 94,72 95,5763
96,376 107,26 108,90 109,181
110,2812 111,221
##END=
