##TITLE=1-Dodecyne
##JCAMP-DX=4.24
##DATA TYPE=MASS SPECTRUM
##ORIGIN=B. Derendyaev, Novosibirsk Institute of Organic Chemistry
##OWNER=NIST Mass Spectrometry Data Center
Collection (C) 2014 copyright by the U.S. Secretary of Commerce
on behalf of the United States of America. All rights reserved.
##CAS REGISTRY NO=765-03-7
##$NIST MASS SPEC NO=139726
##MOLFORM=C12 H22
##MW=166
##$NIST SOURCE=MSDC
##XUNITS=M/Z
##YUNITS=RELATIVE INTENSITY
##XFACTOR=1
##YFACTOR=1
##FIRSTX=15
##LASTX=165
##FIRSTY=20
##MAXX=165
##MINX=15
##MAXY=9999
##MINY=10
##NPOINTS=92
##PEAK TABLE=(XY..XY)
15,20 24,10 25,20 26,179
27,2839 29,4199 30,99 31,10
36,10 37,30 38,99 39,2469
40,579 41,8179 42,1609 43,9009
44,239 45,10 46,10 49,10
50,80 51,259 52,229 53,1609
54,3949 55,6419 56,1979 57,2719
58,119 59,10 60,10 61,10
62,10 63,40 64,10 65,379
66,569 67,7779 68,3089 69,3579
70,969 71,729 72,40 73,10
74,20 75,10 76,10 77,329
78,90 79,979 80,519 81,9999
82,4319 83,1609 84,449 85,289
86,20 87,10 91,119 92,20
93,209 94,129 95,4069 96,1849
97,529 98,119 99,10 103,10
105,10 106,10 107,40 108,20
109,1239 110,249 111,40 112,10
115,10 117,10 119,10 121,10
122,10 123,149 124,60 125,10
126,50 127,10 135,10 137,30
138,20 140,10 141,10 165,10
##END=
