##TITLE=2-Methylpyrrolidine
##JCAMP-DX=4.24
##DATA TYPE=MASS SPECTRUM
##ORIGIN=A.Pleshkova, Nesmeyanov Inst.Org.Elem.Cpds, Moscow
##OWNER=NIST Mass Spectrometry Data Center
Collection (C) 2014 copyright by the U.S. Secretary of Commerce
on behalf of the United States of America. All rights reserved.
##CAS REGISTRY NO=765-38-8
##$NIST MASS SPEC NO=283358
##MOLFORM=C5 H11 N
##MW=85
##$NIST SOURCE=MSDC
##XUNITS=M/Z
##YUNITS=RELATIVE INTENSITY
##XFACTOR=1
##YFACTOR=1
##FIRSTX=27
##LASTX=87
##FIRSTY=711
##MAXX=87
##MINX=27
##MAXY=9999
##MINY=10
##NPOINTS=25
##PEAK TABLE=(XY..XY)
27,711 28,4234 29,2432 30,3113
31,1031 32,90 39,1131 40,100
41,3213 42,220 43,3033 44,1051
45,90 55,611 56,2312 57,4834
58,420 69,510 70,9999 71,1221
72,100 84,2312 85,2532 86,210
87,10
##END=
