##TITLE=1-Tetradecyne
##JCAMP-DX=4.24
##DATA TYPE=MASS SPECTRUM
##ORIGIN=S.A. Rang et al., IR & MS of Unsatd. Hydrocarbons, 1977
##OWNER=NIST Mass Spectrometry Data Center
Collection (C) 2014 copyright by the U.S. Secretary of Commerce
on behalf of the United States of America. All rights reserved.
##CAS REGISTRY NO=765-10-6
##$NIST MASS SPEC NO=142648
##MOLFORM=C14 H26
##MW=194
##$NIST SOURCE=MSDC
##XUNITS=M/Z
##YUNITS=RELATIVE INTENSITY
##XFACTOR=1
##YFACTOR=1
##FIRSTX=15
##LASTX=194
##FIRSTY=76
##MAXX=194
##MINX=15
##MAXY=9999
##MINY=3
##NPOINTS=86
##PEAK TABLE=(XY..XY)
15,76 25,23 26,149 27,2586
28,504 29,4789 30,157 31,57
37,27 38,84 39,2299 40,630
41,9999 42,1820 43,9167 44,315
45,88 46,42 50,61 51,225
52,198 53,1638 54,3544 55,7500
56,1916 57,3831 58,5077 59,198
60,8 63,34 64,11 65,441
66,567 67,8056 68,2874 69,3065
70,1008 71,882 72,69 73,11
75,15 77,416 78,99 79,1311
80,555 81,9722 82,4789 83,1916
84,479 85,252 86,19 91,187
92,31 93,353 94,172 95,3831
96,2395 97,1109 98,187 105,27
107,76 108,46 109,1235 110,416
111,176 112,65 113,8 114,11
121,27 122,11 123,225 124,130
125,42 126,31 128,11 135,15
137,69 138,31 140,15 149,8
151,23 152,15 154,15 165,11
166,8 194,3
##END=
