##TITLE=Butanamide, 3-methyl-N-butyl-
##JCAMP-DX=4.24
##DATA TYPE=MASS SPECTRUM
##ORIGIN=A.A.Kutin, Moscow, Russia
##OWNER=NIST Mass Spectrometry Data Center
Collection (C) 2014 copyright by the U.S. Secretary of Commerce
on behalf of the United States of America. All rights reserved.
##CAS REGISTRY NO=76526-42-6
##$NIST MASS SPEC NO=297678
##MOLFORM=C9 H19 N O
##MW=157
##$NIST SOURCE=MSDC
##XUNITS=M/Z
##YUNITS=RELATIVE INTENSITY
##XFACTOR=1
##YFACTOR=1
##FIRSTX=38
##LASTX=160
##FIRSTY=152
##MAXX=160
##MINX=38
##MAXY=9999
##MINY=2
##NPOINTS=71
##PEAK TABLE=(XY..XY)
38,152 39,272 40,260 41,641
43,9999 45,782 46,356 47,147
48,56 49,12 50,25 51,47
52,41 53,97 54,65 56,1553
57,652 58,1613 59,3214 60,354
61,146 62,19 63,13 64,11
65,20 67,79 69,119 70,73
71,80 72,148 74,2815 75,95
76,112 77,29 78,9 79,14
80,9 81,18 82,72 83,50
84,17 85,10 86,26 87,16
88,28 89,6 90,2 91,19
92,6 93,6 94,7 95,13
96,8 97,10 98,11 99,49
100,13 101,11 102,3 115,3537
116,187 117,142 118,4 128,91
129,4 142,108 143,9 157,751
158,55 159,31 160,2
##END=
