##TITLE=Quizalofop ethyl
##JCAMP-DX=4.24
##DATA TYPE=MASS SPECTRUM
##ORIGIN=NIST Mass Spectrometry Data Center, 1998.
##OWNER=NIST Mass Spectrometry Data Center
Collection (C) 2014 copyright by the U.S. Secretary of Commerce
on behalf of the United States of America. All rights reserved.
##CAS REGISTRY NO=76578-14-8
##$NIST MASS SPEC NO=291840
##MOLFORM=C19 H17 Cl N2 O4
##MW=372
##$NIST SOURCE=MSDC
##XUNITS=M/Z
##YUNITS=RELATIVE INTENSITY
##XFACTOR=1
##YFACTOR=1
##FIRSTX=15
##LASTX=376
##FIRSTY=40
##MAXX=376
##MINX=15
##MAXY=9999
##MINY=10
##NPOINTS=193
##PEAK TABLE=(XY..XY)
15,40 26,160 27,790 28,490
29,3080 30,100 31,90 36,10
38,210 39,510 40,70 41,100
42,20 43,670 44,70 45,1600
46,30 49,90 50,890 51,370
52,230 53,390 54,290 55,770
56,230 57,80 59,40 61,110
62,340 63,1220 64,1350 65,1180
66,130 67,10 69,10 73,950
74,430 75,1130 76,920 77,260
78,80 79,280 80,170 81,610
82,340 84,50 85,130 86,80
87,110 88,190 89,130 90,130
91,1260 92,320 93,110 94,120
95,40 96,60 97,90 98,80
99,190 100,2590 101,850 102,130
103,60 105,40 106,20 107,100
108,160 109,690 110,970 111,170
112,80 113,20 114,40 115,60
116,40 117,50 118,50 119,380
120,180 121,320 122,40 123,20
124,720 125,110 126,300 127,290
128,250 129,60 132,30 134,50
135,120 136,4350 137,590 138,1420
139,180 140,50 149,630 150,140
152,240 153,150 154,160 155,30
163,6629 164,1160 165,2530 166,320
167,40 173,40 174,80 177,60
179,310 180,270 181,310 182,180
183,50 187,30 188,40 189,130
190,140 191,360 192,1550 193,270
194,10 200,70 201,60 202,90
203,70 205,20 207,210 208,700
209,460 210,70 214,40 215,640
216,290 217,280 218,130 219,60
220,80 221,60 226,140 227,150
228,130 229,100 230,40 231,30
235,100 236,230 237,210 238,40
241,60 243,4540 244,4360 245,2070
246,1440 247,170 253,90 254,110
255,1790 256,420 257,600 258,110
259,10 264,120 265,10 269,30
270,140 271,1690 272,1870 273,840
274,560 275,90 281,40 283,30
285,230 286,50 287,80 297,50
299,9999 300,1920 301,3340 302,590
303,70 337,10 343,40 344,20
372,7779 373,1720 374,2760 375,480
376,100
##END=
