##TITLE=2,5-Dibromobenzotrifluoride
##JCAMP-DX=4.24
##DATA TYPE=MASS SPECTRUM
##ORIGIN=NIST Mass Spectrometry Data Center
##OWNER=NIST Mass Spectrometry Data Center
Collection (C) 2014 copyright by the U.S. Secretary of Commerce
on behalf of the United States of America. All rights reserved.
##CAS REGISTRY NO=7657-09-2
##$NIST MASS SPEC NO=341055
##MOLFORM=C7 H3 Br2 F3
##MW=302
##$NIST SOURCE=MSDC
##XUNITS=M/Z
##YUNITS=RELATIVE INTENSITY
##XFACTOR=1
##YFACTOR=1
##FIRSTX=26
##LASTX=308
##FIRSTY=10
##MAXX=308
##MINX=26
##MAXY=9999
##MINY=10
##NPOINTS=116
##PEAK TABLE=(XY..XY)
26,10 31,80 36,20 37,160
38,120 39,10 48,10 49,110
50,360 51,60 55,10 56,40
57,50 60,20 61,130 62,210
68,140 69,741 70,10 72,120
73,440 74,1812 75,1722 76,90
77,20 78,10 79,170 80,90
81,150 82,20 84,20 85,60
86,40 87,60 88,10 91,20
92,150 93,390 94,721 95,60
98,20 99,430 100,40 102,80
103,120 104,130 105,60 106,80
107,10 111,400 112,400 115,10
116,20 117,80 118,170 119,60
122,10 123,280 124,160 125,1481
126,110 127,20 128,90 129,60
130,90 131,50 135,30 137,30
142,60 143,1461 144,6116 145,450
146,10 151,80 152,210 153,270
154,220 155,190 156,170 157,10
172,10 173,70 174,10 175,70
177,10 179,10 197,10 199,10
203,70 204,60 205,80 206,60
223,3073 224,280 225,3013 226,220
233,30 235,70 237,30 252,110
254,230 255,10 256,110 283,430
284,40 285,831 286,60 287,390
288,30 302,5345 303,440 304,9999
305,771 306,4844 307,360 308,10
##END=
