##TITLE=(E)-2-Butenylcyclopropane
##JCAMP-DX=4.24
##DATA TYPE=MASS SPECTRUM
##ORIGIN=L.L. MILLER, DEP. CHEM., UNIV. MINNESOTA, MINN., USA
##OWNER=NIST Mass Spectrometry Data Center
Collection (C) 2014 copyright by the U.S. Secretary of Commerce
on behalf of the United States of America. All rights reserved.
##CAS REGISTRY NO=76588-98-2
##$NIST MASS SPEC NO=105779
##MOLFORM=C7 H12
##MW=96
##$NIST SOURCE=MSDC
##XUNITS=M/Z
##YUNITS=RELATIVE INTENSITY
##XFACTOR=1
##YFACTOR=1
##FIRSTX=32
##LASTX=96
##FIRSTY=1500
##MAXX=96
##MINX=32
##MAXY=9999
##MINY=100
##NPOINTS=22
##PEAK TABLE=(XY..XY)
32,1500 37,500 39,6800 40,1600
41,4200 42,600 46,100 49,400
51,800 53,4400 54,2300 55,9999
61,200 63,300 65,700 67,7400
68,5500 77,600 79,1600 81,8000
82,300 96,1000
##END=
