##TITLE=cis-1-Methyl-2-(2'-propenyl)cyclopropane
##JCAMP-DX=4.24
##DATA TYPE=MASS SPECTRUM
##ORIGIN=L.L. MILLER, DEP. CHEM., UNIV. MINNESOTA, MINN., USA
##OWNER=NIST Mass Spectrometry Data Center
Collection (C) 2014 copyright by the U.S. Secretary of Commerce
on behalf of the United States of America. All rights reserved.
##CAS REGISTRY NO=76588-97-1
##$NIST MASS SPEC NO=105773
##MOLFORM=C7 H12
##MW=96
##$NIST SOURCE=MSDC
##XUNITS=M/Z
##YUNITS=RELATIVE INTENSITY
##XFACTOR=1
##YFACTOR=1
##FIRSTX=39
##LASTX=96
##FIRSTY=6000
##MAXX=96
##MINX=39
##MAXY=9999
##MINY=100
##NPOINTS=24
##PEAK TABLE=(XY..XY)
39,6000 40,400 41,3800 42,700
43,100 50,200 51,900 52,100
53,3100 54,8100 55,9999 56,400
65,700 66,400 67,3500 68,1400
69,300 77,800 79,1600 80,300
81,6300 82,300 95,400 96,400
##END=
