##TITLE=2-Cyclopentylethanol
##JCAMP-DX=4.24
##DATA TYPE=MASS SPECTRUM
##ORIGIN=NIST Mass Spectrometry Data Center, 1990.
##OWNER=NIST Mass Spectrometry Data Center
Collection (C) 2014 copyright by the U.S. Secretary of Commerce
on behalf of the United States of America. All rights reserved.
##CAS REGISTRY NO=766-00-7
##$NIST MASS SPEC NO=114021
##MOLFORM=C7 H14 O
##MW=114
##$NIST SOURCE=MSDC
##XUNITS=M/Z
##YUNITS=RELATIVE INTENSITY
##XFACTOR=1
##YFACTOR=1
##FIRSTX=26
##LASTX=96
##FIRSTY=167
##MAXX=96
##MINX=26
##MAXY=9999
##MINY=160
##NPOINTS=34
##PEAK TABLE=(XY..XY)
26,167 27,1099 28,848 29,1016
31,1467 38,277 39,2562 40,645
41,3767 42,928 43,633 44,436
45,198 50,173 51,418 52,192
53,1199 54,1203 55,3245 56,599
57,645 65,419 66,1164 67,9999
68,8803 69,1223 71,160 77,252
79,373 81,2520 82,266 83,477
95,257 96,255
##END=
