##TITLE=Benzene, 1-chloro-2-methoxy-
##JCAMP-DX=4.24
##DATA TYPE=MASS SPECTRUM
##ORIGIN=NIST Mass Spectrometry Data Center, 1990.
##OWNER=NIST Mass Spectrometry Data Center
Collection (C) 2014 copyright by the U.S. Secretary of Commerce
on behalf of the United States of America. All rights reserved.
##CAS REGISTRY NO=766-51-8
##$NIST MASS SPEC NO=118552
##MOLFORM=C7 H7 Cl O
##MW=142
##$NIST SOURCE=MSDC
##XUNITS=M/Z
##YUNITS=RELATIVE INTENSITY
##XFACTOR=1
##YFACTOR=1
##FIRSTX=12
##LASTX=145
##FIRSTY=40
##MAXX=145
##MINX=12
##MAXY=9999
##MINY=7
##NPOINTS=75
##PEAK TABLE=(XY..XY)
12,40 13,31 14,106 15,558
18,59 25,49 26,149 27,169
28,66 29,262 30,73 31,84
32,50 35,49 36,95 37,582
38,1000 39,989 40,46 43,50
44,7 47,99 48,57 49,423
50,1246 51,1130 52,113 53,283
55,36 60,133 61,515 62,871
63,2469 64,813 65,105 66,57
71,67 72,333 73,2510 74,878
75,1954 76,384 77,1495 78,288
79,890 80,57 84,134 85,227
86,51 87,82 92,256 93,46
96,27 97,98 99,8579 100,605
101,2715 102,176 105,24 107,407
108,74 111,486 112,691 113,319
114,251 115,45 127,5634 128,480
129,1790 130,114 139,27 142,9999
143,900 144,3114 145,270
##END=
