##TITLE=1,3-Dioxane, 4,4-dimethyl-
##JCAMP-DX=4.24
##DATA TYPE=MASS SPECTRUM
##OWNER=NIST Mass Spectrometry Data Center
Collection (C) 2014 copyright by the U.S. Secretary of Commerce
on behalf of the United States of America. All rights reserved.
##CAS REGISTRY NO=766-15-4
##$NIST MASS SPEC NO=20346
##MOLFORM=C6 H12 O2
##MW=116
##$NIST SOURCE=MSDC
##XUNITS=M/Z
##YUNITS=RELATIVE INTENSITY
##XFACTOR=1
##YFACTOR=1
##FIRSTX=18
##LASTX=116
##FIRSTY=50
##MAXX=116
##MINX=18
##MAXY=9999
##MINY=10
##NPOINTS=37
##PEAK TABLE=(XY..XY)
18,50 26,350 27,1702 29,2112
30,480 31,1241 39,1461 40,310
41,2762 42,510 43,9999 44,310
45,110 53,210 54,50 55,360
56,1131 57,430 58,2082 59,1001
67,80 68,80 69,1952 70,140
71,2172 72,170 73,240 75,10
82,10 83,10 84,10 85,20
86,1401 87,90 101,2803 115,160
116,30
##END=
