##TITLE=Piperidine, 1-ethyl-
##JCAMP-DX=4.24
##DATA TYPE=MASS SPECTRUM
##ORIGIN=Japan AIST/NIMC Database- Spectrum MS-NW-2938
##OWNER=NIST Mass Spectrometry Data Center
Collection (C) 2014 copyright by the U.S. Secretary of Commerce
on behalf of the United States of America. All rights reserved.
##CAS REGISTRY NO=766-09-6
##$NIST MASS SPEC NO=230523
##MOLFORM=C7 H15 N
##MW=113
##$NIST SOURCE=MSDC
##XUNITS=M/Z
##YUNITS=RELATIVE INTENSITY
##XFACTOR=1
##YFACTOR=1
##FIRSTX=14
##LASTX=114
##FIRSTY=10
##MAXX=114
##MINX=14
##MAXY=9999
##MINY=10
##NPOINTS=58
##PEAK TABLE=(XY..XY)
14,10 15,209 26,90 27,669
28,779 29,649 30,479 36,20
38,20 39,349 40,60 41,1039
42,2409 43,249 44,679 45,20
47,10 49,10 50,20 51,40
52,30 53,80 54,179 55,1069
56,829 57,1149 58,249 59,10
65,20 66,20 67,60 68,90
69,339 70,439 71,149 72,249
73,10 80,30 81,20 82,80
83,60 84,749 85,90 91,10
92,20 93,60 94,10 96,159
97,30 98,9999 99,669 100,20
108,10 110,50 111,50 112,1989
113,1839 114,149
##END=
