##TITLE=Benzene, 1-(bromomethyl)-3-chloro-
##JCAMP-DX=4.24
##DATA TYPE=MASS SPECTRUM
##ORIGIN=Japan AIST/NIMC Database- Spectrum MS-NW-8665
##OWNER=NIST Mass Spectrometry Data Center
Collection (C) 2014 copyright by the U.S. Secretary of Commerce
on behalf of the United States of America. All rights reserved.
##CAS REGISTRY NO=766-80-3
##$NIST MASS SPEC NO=236806
##MOLFORM=C7 H6 Br Cl
##MW=204
##$NIST SOURCE=MSDC
##XUNITS=M/Z
##YUNITS=RELATIVE INTENSITY
##XFACTOR=1
##YFACTOR=1
##FIRSTX=26
##LASTX=209
##FIRSTY=20
##MAXX=209
##MINX=26
##MAXY=9999
##MINY=10
##NPOINTS=70
##PEAK TABLE=(XY..XY)
26,20 27,20 28,10 36,20
37,80 38,139 39,359 40,40
41,10 43,70 44,129 45,20
49,60 50,229 51,219 52,30
60,20 61,129 62,369 63,789
64,169 65,90 72,10 73,179
74,60 75,129 76,10 77,10
79,40 80,30 81,40 82,30
84,129 85,159 86,90 87,80
88,30 89,1539 90,499 91,90
97,30 99,489 100,20 101,149
102,30 103,30 104,10 111,10
123,30 124,40 125,9999 126,809
127,3259 128,259 139,20 140,10
141,10 160,99 161,10 162,60
164,10 169,10 171,10 203,30
204,659 205,90 206,849 207,70
208,209 209,10
##END=
