##TITLE=Cyclohexanecarbonitrile
##JCAMP-DX=4.24
##DATA TYPE=MASS SPECTRUM
##ORIGIN=NIST Mass Spectrometry Data Center, 1994
##OWNER=NIST Mass Spectrometry Data Center
Collection (C) 2014 copyright by the U.S. Secretary of Commerce
on behalf of the United States of America. All rights reserved.
##CAS REGISTRY NO=766-05-2
##$NIST MASS SPEC NO=135292
##MOLFORM=C7 H11 N
##MW=109
##$NIST SOURCE=MSDC
##XUNITS=M/Z
##YUNITS=RELATIVE INTENSITY
##XFACTOR=1
##YFACTOR=1
##FIRSTX=12
##LASTX=110
##FIRSTY=21
##MAXX=110
##MINX=12
##MAXY=9999
##MINY=16
##NPOINTS=58
##PEAK TABLE=(XY..XY)
12,21 13,20 14,110 15,763
16,27 17,28 18,16 26,1493
27,5416 28,2810 29,1172 30,547
31,96 37,369 38,829 39,5844
40,1577 41,9999 42,1618 43,2124
44,115 46,18 50,679 51,1138
52,1166 53,1861 54,6938 55,1627
56,7210 57,354 61,43 62,80
63,189 64,312 65,354 66,668
67,2702 68,1452 69,1503 70,85
74,61 75,89 76,91 77,294
78,190 79,422 80,1562 81,2000
82,1573 83,204 91,587 92,1442
94,2338 95,172 106,34 108,1582
109,732 110,81
##END=
