##TITLE=Benzyl methyl sulfide
##JCAMP-DX=4.24
##DATA TYPE=MASS SPECTRUM
##ORIGIN=Japan AIST/NIMC Database- Spectrum MS-NW-4623
##OWNER=NIST Mass Spectrometry Data Center
Collection (C) 2014 copyright by the U.S. Secretary of Commerce
on behalf of the United States of America. All rights reserved.
##CAS REGISTRY NO=766-92-7
##$NIST MASS SPEC NO=231858
##MOLFORM=C8 H10 S
##MW=138
##$NIST SOURCE=MSDC
##XUNITS=M/Z
##YUNITS=RELATIVE INTENSITY
##XFACTOR=1
##YFACTOR=1
##FIRSTX=15
##LASTX=141
##FIRSTY=20
##MAXX=141
##MINX=15
##MAXY=9999
##MINY=10
##NPOINTS=65
##PEAK TABLE=(XY..XY)
15,20 18,10 26,10 27,70
28,50 32,20 35,20 37,20
38,80 39,549 40,40 41,129
43,10 44,20 45,579 46,60
47,119 49,10 50,129 51,319
52,80 53,20 58,10 59,20
60,10 61,90 62,119 63,339
64,99 65,1079 66,60 69,50
70,10 71,10 74,20 75,20
76,20 77,199 78,80 79,50
85,10 86,20 87,10 89,289
90,129 91,9999 92,839 93,30
94,10 97,10 103,20 104,20
105,10 106,10 121,239 122,60
123,139 124,10 125,10 135,10
137,50 138,3099 139,309 140,149
141,10
##END=
