##TITLE=Piperidine, 1-ethyl-2-methyl-
##JCAMP-DX=4.24
##DATA TYPE=MASS SPECTRUM
##ORIGIN=CARL DJERASSI DEPT OF CHEM STANFORD UNIV STANFORD CALIF 94305
##OWNER=NIST Mass Spectrometry Data Center
Collection (C) 2014 copyright by the U.S. Secretary of Commerce
on behalf of the United States of America. All rights reserved.
##CAS REGISTRY NO=766-52-9
##$NIST MASS SPEC NO=46441
##MOLFORM=C8 H17 N
##MW=127
##$NIST SOURCE=MSDC
##XUNITS=M/Z
##YUNITS=RELATIVE INTENSITY
##XFACTOR=1
##YFACTOR=1
##FIRSTX=41
##LASTX=128
##FIRSTY=600
##MAXX=128
##MINX=41
##MAXY=9999
##MINY=100
##NPOINTS=19
##PEAK TABLE=(XY..XY)
41,600 42,800 44,500 54,100
55,700 56,1400 57,200 58,200
69,100 70,300 71,400 84,800
98,100 110,200 112,9999 113,800
126,500 127,1200 128,100
##END=
