##TITLE=Quinoline, 7-ethyl-
##JCAMP-DX=4.24
##DATA TYPE=MASS SPECTRUM
##ORIGIN=CARL DJERASSI DEPT OF CHEM STANFORD UNIV STANFORD CALIF 94305
##OWNER=NIST Mass Spectrometry Data Center
Collection (C) 2014 copyright by the U.S. Secretary of Commerce
on behalf of the United States of America. All rights reserved.
##CAS REGISTRY NO=7661-47-4
##$NIST MASS SPEC NO=46820
##MOLFORM=C11 H11 N
##MW=157
##$NIST SOURCE=MSDC
##XUNITS=M/Z
##YUNITS=RELATIVE INTENSITY
##XFACTOR=1
##YFACTOR=1
##FIRSTX=38
##LASTX=159
##FIRSTY=200
##MAXX=159
##MINX=38
##MAXY=9999
##MINY=100
##NPOINTS=57
##PEAK TABLE=(XY..XY)
38,200 39,700 40,200 41,200
43,200 44,100 50,500 51,800
52,200 55,100 57,200 61,100
62,300 63,800 64,200 65,200
71,100 74,300 75,500 76,300
77,700 78,200 86,100 87,200
88,200 89,500 90,100 91,100
98,100 99,100 100,100 101,300
102,400 103,200 113,200 114,300
115,800 116,600 117,200 126,100
127,400 128,600 129,1300 130,700
131,100 140,400 141,1200 142,9999
143,1500 144,100 153,100 154,800
155,400 156,3400 157,6500 158,800
159,100
##END=
