##TITLE=1-(3-Aminopropyl)-2-pyrrolidone
##JCAMP-DX=4.24
##DATA TYPE=MASS SPECTRUM
##ORIGIN=NIST Mass Spectrometry Data Center
##OWNER=NIST Mass Spectrometry Data Center
Collection (C) 2014 copyright by the U.S. Secretary of Commerce
on behalf of the United States of America. All rights reserved.
##CAS REGISTRY NO=7663-77-6
##$NIST MASS SPEC NO=340619
##MOLFORM=C7 H14 N2 O
##MW=142
##$NIST SOURCE=MSDC
##XUNITS=M/Z
##YUNITS=RELATIVE INTENSITY
##XFACTOR=1
##YFACTOR=1
##FIRSTX=15
##LASTX=143
##FIRSTY=210
##MAXX=143
##MINX=15
##MAXY=9999
##MINY=10
##NPOINTS=67
##PEAK TABLE=(XY..XY)
15,210 17,20 18,190 26,190
27,851 28,1712 29,500 30,4314
31,140 37,20 38,70 39,1001
40,270 41,3283 42,2432 43,1862
44,4194 45,130 51,20 52,80
53,90 54,460 55,581 56,3053
57,1441 58,340 59,80 65,10
66,20 67,90 68,801 69,2312
70,3603 71,1181 72,80 80,60
81,20 82,440 83,150 84,981
85,430 86,941 87,40 94,30
95,20 96,220 97,360 98,9999
99,4864 100,460 101,30 108,20
109,10 110,220 111,180 112,2212
113,1812 114,220 115,10 123,80
124,210 125,3513 126,370 127,20
139,10 142,801 143,80
##END=
