##TITLE=3-Octen-2-ol
##JCAMP-DX=4.24
##DATA TYPE=MASS SPECTRUM
##ORIGIN=NIST Mass Spectrometry Data Center
##OWNER=NIST Mass Spectrometry Data Center
Collection (C) 2014 copyright by the U.S. Secretary of Commerce
on behalf of the United States of America. All rights reserved.
##CAS REGISTRY NO=76649-14-4
##$NIST MASS SPEC NO=343193
##MOLFORM=C8 H16 O
##MW=128
##$NIST SOURCE=MSDC
##XUNITS=M/Z
##YUNITS=RELATIVE INTENSITY
##XFACTOR=1
##YFACTOR=1
##FIRSTX=13
##LASTX=129
##FIRSTY=10
##MAXX=129
##MINX=13
##MAXY=9999
##MINY=10
##NPOINTS=69
##PEAK TABLE=(XY..XY)
13,10 14,30 15,550 16,10
17,20 18,10 19,170 26,250
27,2933 28,440 29,2312 30,60
31,350 37,40 39,2302 40,410
41,3223 42,751 43,7777 44,280
45,1561 46,30 47,10 48,10
50,140 51,290 52,130 53,671
54,240 55,1521 57,4154 58,1992
59,400 60,10 62,20 63,70
64,20 65,170 66,90 67,661
68,641 69,791 71,9999 72,821
73,40 75,10 77,120 78,20
79,140 80,30 81,280 82,40
83,170 85,971 86,240 87,10
91,20 93,40 95,731 96,60
97,20 99,130 100,20 110,90
111,30 113,360 114,30 128,80
129,10
##END=
