##TITLE=Hexanoic acid, 3-methyl-2-butenyl ester
##JCAMP-DX=4.24
##DATA TYPE=MASS SPECTRUM
##ORIGIN=Zaikin V.G., TIPS RAS, Moscow, Russia
##OWNER=NIST Mass Spectrometry Data Center
Collection (C) 2014 copyright by the U.S. Secretary of Commerce
on behalf of the United States of America. All rights reserved.
##CAS REGISTRY NO=76649-22-4
##$NIST MASS SPEC NO=299352
##MOLFORM=C11 H20 O2
##MW=184
##$NIST SOURCE=MSDC
##XUNITS=M/Z
##YUNITS=RELATIVE INTENSITY
##XFACTOR=1
##YFACTOR=1
##FIRSTX=26
##LASTX=185
##FIRSTY=160
##MAXX=185
##MINX=26
##MAXY=9999
##MINY=20
##NPOINTS=57
##PEAK TABLE=(XY..XY)
26,160 27,951 28,20 29,1061
31,30 38,50 39,1021 40,480
41,4324 42,621 43,4815 44,310
45,60 50,50 51,100 52,80
53,1261 54,160 55,731 56,210
57,200 60,380 61,40 65,90
66,110 67,3954 68,9999 69,7987
70,701 71,4314 72,240 73,260
74,20 81,80 83,140 84,60
85,861 86,140 87,90 89,50
93,180 97,180 98,80 99,8668
100,571 101,50 110,30 115,90
116,30 117,240 128,140 141,80
142,110 149,60 155,30 184,390
185,40
##END=
