##TITLE=Cyclohexane, 1,2,3-trimethyl-, (1.alpha.,2.alpha.,3.beta.)-
##JCAMP-DX=4.24
##DATA TYPE=MASS SPECTRUM
##ORIGIN=NIST Mass Spectrometry Data Center, 1990.
##OWNER=NIST Mass Spectrometry Data Center
Collection (C) 2014 copyright by the U.S. Secretary of Commerce
on behalf of the United States of America. All rights reserved.
##CAS REGISTRY NO=7667-55-2
##$NIST MASS SPEC NO=113530
##MOLFORM=C9 H18
##MW=126
##$NIST SOURCE=MSDC
##XUNITS=M/Z
##YUNITS=RELATIVE INTENSITY
##XFACTOR=1
##YFACTOR=1
##FIRSTX=15
##LASTX=127
##FIRSTY=185
##MAXX=127
##MINX=15
##MAXY=9999
##MINY=87
##NPOINTS=40
##PEAK TABLE=(XY..XY)
15,185 27,1851 28,822 29,1664
39,3282 40,702 41,6787 42,1922
43,1655 44,104 50,159 51,454
52,228 53,1296 54,104 55,9999
56,4133 57,1028 63,105 65,379
67,1572 69,9344 70,6843 71,1594
72,87 77,353 79,324 81,370
82,772 83,2850 84,1156 85,130
91,166 96,2281 97,5204 98,995
111,2722 112,253 126,2766 127,282
##END=
