##TITLE=Cyclohexane, 1,2,4-trimethyl-, (1.alpha.,2.beta.,4.beta.)-
##JCAMP-DX=4.24
##DATA TYPE=MASS SPECTRUM
##ORIGIN=NIST Mass Spectrometry Data Center, 1990.
##OWNER=NIST Mass Spectrometry Data Center
Collection (C) 2014 copyright by the U.S. Secretary of Commerce
on behalf of the United States of America. All rights reserved.
##CAS REGISTRY NO=7667-60-9
##$NIST MASS SPEC NO=114176
##MOLFORM=C9 H18
##MW=126
##$NIST SOURCE=MSDC
##XUNITS=M/Z
##YUNITS=RELATIVE INTENSITY
##XFACTOR=1
##YFACTOR=1
##FIRSTX=14
##LASTX=127
##FIRSTY=124
##MAXX=127
##MINX=14
##MAXY=9999
##MINY=21
##NPOINTS=52
##PEAK TABLE=(XY..XY)
14,124 15,112 16,59 27,1044
28,126 29,1013 39,2457 40,557
41,4377 42,1406 43,1114 44,88
50,117 51,330 52,172 53,1058
54,88 55,6157 56,2392 57,581
58,25 62,21 63,88 64,27
65,293 66,114 67,1135 68,21
69,9999 70,1742 71,315 77,302
78,63 79,270 80,48 81,270
82,289 83,776 84,838 85,97
91,112 93,32 95,115 96,70
97,521 98,86 109,44 111,8476
112,718 113,28 126,2761 127,273
##END=
