##TITLE=Indan, 1-methyl-
##JCAMP-DX=4.24
##DATA TYPE=MASS SPECTRUM
##OWNER=NIST Mass Spectrometry Data Center
Collection (C) 2014 copyright by the U.S. Secretary of Commerce
on behalf of the United States of America. All rights reserved.
##CAS REGISTRY NO=767-58-8
##$NIST MASS SPEC NO=20839
##MOLFORM=C10 H12
##MW=132
##$NIST SOURCE=MSDC
##XUNITS=M/Z
##YUNITS=RELATIVE INTENSITY
##XFACTOR=1
##YFACTOR=1
##FIRSTX=12
##LASTX=134
##FIRSTY=30
##MAXX=134
##MINX=12
##MAXY=9999
##MINY=10
##NPOINTS=81
##PEAK TABLE=(XY..XY)
12,30 13,30 14,70 15,500
25,20 26,160 27,661 28,160
29,70 37,80 38,190 39,1021
40,80 41,170 42,20 43,40
44,10 49,40 50,430 51,891
52,180 53,230 54,30 55,40
56,40 57,140 58,390 59,20
61,80 62,240 63,721 64,450
65,671 66,40 67,30 73,40
74,200 75,190 76,130 77,550
78,190 79,90 80,20 81,20
85,40 86,70 87,90 88,50
89,340 90,50 91,1331 92,50
93,20 97,20 98,60 99,30
100,20 101,190 102,240 103,210
104,90 105,120 106,20 110,20
111,20 113,100 114,120 115,2102
116,571 117,9999 119,20 125,20
126,60 127,180 128,330 129,200
130,70 131,951 132,2562 133,10
134,20
##END=
