##TITLE=Cyclohexanol, 3,3-dimethyl-
##JCAMP-DX=4.24
##DATA TYPE=MASS SPECTRUM
##ORIGIN=NIST Mass Spectrometry Data Center, 1990.
##OWNER=NIST Mass Spectrometry Data Center
Collection (C) 2014 copyright by the U.S. Secretary of Commerce
on behalf of the United States of America. All rights reserved.
##CAS REGISTRY NO=767-12-4
##$NIST MASS SPEC NO=114596
##MOLFORM=C8 H16 O
##MW=128
##$NIST SOURCE=MSDC
##XUNITS=M/Z
##YUNITS=RELATIVE INTENSITY
##XFACTOR=1
##YFACTOR=1
##FIRSTX=14
##LASTX=113
##FIRSTY=139
##MAXX=113
##MINX=14
##MAXY=9999
##MINY=74
##NPOINTS=53
##PEAK TABLE=(XY..XY)
14,139 15,140 27,1116 28,1218
29,1215 31,289 32,334 39,2132
40,599 41,4190 42,500 43,2269
44,1314 45,313 50,128 51,322
52,123 53,900 54,618 55,1970
56,2851 57,3400 58,322 59,317
63,89 65,286 66,580 67,2751
68,900 69,3629 70,387 71,1018
72,205 73,74 77,300 78,78
79,275 80,268 81,2047 82,1422
83,390 84,74 85,2820 86,175
87,140 91,153 93,313 95,9999
96,708 97,81 110,2161 111,231
113,308
##END=
