##TITLE=N-Methyldiethanolamine, 2TMS derivative
##JCAMP-DX=4.24
##DATA TYPE=MASS SPECTRUM
##ORIGIN=CBDCOM/ERDEC, Edgewood, MD
##OWNER=NIST Mass Spectrometry Data Center
Collection (C) 2014 copyright by the U.S. Secretary of Commerce
on behalf of the United States of America. All rights reserved.
##CAS REGISTRY NO=76710-52-6
##$NIST MASS SPEC NO=226307
##MOLFORM=C11 H29 N O2 Si2
##MW=263
##$NIST SOURCE=MSDC
##XUNITS=M/Z
##YUNITS=RELATIVE INTENSITY
##XFACTOR=1
##YFACTOR=1
##FIRSTX=30
##LASTX=265
##FIRSTY=80
##MAXX=265
##MINX=30
##MAXY=9999
##MINY=10
##NPOINTS=83
##PEAK TABLE=(XY..XY)
30,80 31,50 39,10 41,70
42,1251 43,630 44,430 45,990
46,60 47,230 48,10 53,10
54,40 55,90 56,200 57,190
58,500 59,910 60,90 61,210
62,10 67,10 68,10 69,10
70,330 71,140 73,4654 74,440
75,880 76,60 77,30 82,100
84,140 85,30 86,100 87,110
88,150 89,140 90,10 98,10
99,20 100,110 101,220 102,130
103,230 104,30 105,10 114,60
115,50 116,310 117,730 118,90
119,60 128,40 129,70 130,430
131,90 132,40 133,110 134,10
135,10 142,10 144,100 145,40
147,840 148,120 149,50 156,10
158,150 160,9999 161,1361 162,420
163,20 172,10 174,80 175,50
248,460 249,90 250,30 262,30
263,190 264,40 265,10
##END=
