##TITLE=Silane, chlorodimethylphenyl-
##JCAMP-DX=4.24
##DATA TYPE=MASS SPECTRUM
##ORIGIN=Japan AIST/NIMC Database- Spectrum MS-NW-6422
##OWNER=NIST Mass Spectrometry Data Center
Collection (C) 2014 copyright by the U.S. Secretary of Commerce
on behalf of the United States of America. All rights reserved.
##CAS REGISTRY NO=768-33-2
##$NIST MASS SPEC NO=236127
##MOLFORM=C8 H11 Cl Si
##MW=170
##$NIST SOURCE=MSDC
##XUNITS=M/Z
##YUNITS=RELATIVE INTENSITY
##XFACTOR=1
##YFACTOR=1
##FIRSTX=15
##LASTX=174
##FIRSTY=30
##MAXX=174
##MINX=15
##MAXY=9999
##MINY=10
##NPOINTS=108
##PEAK TABLE=(XY..XY)
15,30 26,20 27,90 28,50
29,60 31,10 32,10 36,30
37,10 38,30 39,179 40,10
41,40 42,40 43,259 44,30
45,20 47,20 49,10 50,169
51,409 52,50 53,299 54,40
55,40 57,20 58,10 59,20
61,10 62,20 63,1569 64,99
65,679 66,60 67,90 68,10
69,20 73,30 74,40 75,40
76,30 77,199 78,109 79,189
80,40 81,40 83,10 84,70
85,30 87,10 88,20 89,90
90,30 91,1369 92,129 93,399
94,50 95,129 96,10 101,20
102,10 103,189 104,30 105,319
106,40 107,60 108,10 109,10
113,30 114,10 115,30 116,10
117,50 118,10 119,279 120,70
121,30 126,10 127,30 128,20
129,40 131,30 133,30 134,40
135,429 136,60 137,60 138,10
139,119 140,80 141,70 142,30
143,20 152,10 153,40 154,50
155,9999 156,1279 157,3499 158,429
159,129 160,10 169,10 170,1649
171,239 172,609 173,80 174,20
##END=
