##TITLE=Silane, trimethylphenyl-
##JCAMP-DX=4.24
##DATA TYPE=MASS SPECTRUM
##ORIGIN=NIST Mass Spectrometry Data Center, 1990.
##OWNER=NIST Mass Spectrometry Data Center
Collection (C) 2014 copyright by the U.S. Secretary of Commerce
on behalf of the United States of America. All rights reserved.
##CAS REGISTRY NO=768-32-1
##$NIST MASS SPEC NO=118746
##MOLFORM=C9 H14 Si
##MW=150
##$NIST SOURCE=MSDC
##XUNITS=M/Z
##YUNITS=RELATIVE INTENSITY
##XFACTOR=1
##YFACTOR=1
##FIRSTX=15
##LASTX=152
##FIRSTY=47
##MAXX=152
##MINX=15
##MAXY=9999
##MINY=14
##NPOINTS=83
##PEAK TABLE=(XY..XY)
15,47 26,16 27,64 28,46
29,203 30,25 31,64 38,20
39,97 40,16 41,30 42,107
43,1111 44,144 45,274 46,29
50,125 51,228 52,74 53,452
54,89 55,176 56,32 57,115
58,75 59,84 60,39 62,24
63,63 64,15 65,173 66,121
67,308 69,106 70,18 71,15
72,29 73,191 74,140 75,29
76,25 77,190 78,80 79,254
80,44 81,135 82,14 83,103
89,34 90,42 91,297 92,80
93,319 94,38 95,95 96,20
101,15 103,111 105,787 106,114
107,615 108,89 109,127 110,17
117,90 118,32 119,320 120,79
121,136 122,20 123,16 130,14
131,71 132,26 133,104 134,14
135,9999 136,1497 137,476 138,41
150,1038 151,189 152,54
##END=
