##TITLE=Benzenamine, N-(1-methylethyl)-
##JCAMP-DX=4.24
##DATA TYPE=MASS SPECTRUM
##ORIGIN=Japan AIST/NIMC Database- Spectrum MS-NW-8539
##OWNER=NIST Mass Spectrometry Data Center
Collection (C) 2014 copyright by the U.S. Secretary of Commerce
on behalf of the United States of America. All rights reserved.
##CAS REGISTRY NO=768-52-5
##$NIST MASS SPEC NO=236715
##MOLFORM=C9 H13 N
##MW=135
##$NIST SOURCE=MSDC
##XUNITS=M/Z
##YUNITS=RELATIVE INTENSITY
##XFACTOR=1
##YFACTOR=1
##FIRSTX=15
##LASTX=137
##FIRSTY=60
##MAXX=137
##MINX=15
##MAXY=9999
##MINY=10
##NPOINTS=66
##PEAK TABLE=(XY..XY)
15,60 26,20 27,279 28,90
29,20 30,20 37,30 38,109
39,569 40,99 41,359 42,339
43,169 44,169 46,10 50,169
51,659 52,169 53,50 54,60
56,40 58,149 59,159 60,249
61,10 62,40 63,149 64,109
65,649 66,489 67,70 74,40
75,40 76,60 77,1179 78,209
79,159 80,40 89,20 90,30
91,359 92,399 93,969 94,189
95,10 102,10 103,339 104,239
105,50 106,60 107,10 115,30
116,10 117,109 118,539 119,269
120,9999 121,929 122,30 130,10
132,50 133,10 134,229 135,2519
136,269 137,10
##END=
