##TITLE=1-Adamantanol
##JCAMP-DX=4.24
##DATA TYPE=MASS SPECTRUM
##ORIGIN=Japan AIST/NIMC Database- Spectrum MS-NW-7223
##OWNER=NIST Mass Spectrometry Data Center
Collection (C) 2014 copyright by the U.S. Secretary of Commerce
on behalf of the United States of America. All rights reserved.
##CAS REGISTRY NO=768-95-6
##$NIST MASS SPEC NO=235705
##MOLFORM=C10 H16 O
##MW=152
##$NIST SOURCE=MSDC
##XUNITS=M/Z
##YUNITS=RELATIVE INTENSITY
##XFACTOR=1
##YFACTOR=1
##FIRSTX=15
##LASTX=154
##FIRSTY=20
##MAXX=154
##MINX=15
##MAXY=9999
##MINY=10
##NPOINTS=73
##PEAK TABLE=(XY..XY)
15,20 18,10 26,10 27,269
28,50 29,179 31,60 38,20
39,489 40,99 41,689 42,70
43,279 44,10 45,20 50,30
51,109 52,50 53,249 54,60
55,279 56,40 57,60 58,40
59,40 60,10 61,10 62,10
63,40 64,20 65,149 66,99
67,379 68,179 69,129 70,50
71,20 74,10 77,479 78,99
79,519 80,70 81,199 82,90
83,80 84,20 91,189 92,60
93,159 94,1059 95,9999 96,849
97,90 103,10 105,40 106,10
107,30 108,40 109,459 110,70
111,20 115,10 117,10 119,10
123,10 124,10 134,10 135,20
137,30 151,10 152,2149 153,249
154,20
##END=
