##TITLE=1-Fluoroadamantane
##JCAMP-DX=4.24
##DATA TYPE=MASS SPECTRUM
##ORIGIN=B. Derendyaev, Novosibirsk Institute of Organic Chemistry
##OWNER=NIST Mass Spectrometry Data Center
Collection (C) 2014 copyright by the U.S. Secretary of Commerce
on behalf of the United States of America. All rights reserved.
##CAS REGISTRY NO=768-92-3
##$NIST MASS SPEC NO=139659
##MOLFORM=C10 H15 F
##MW=154
##$NIST SOURCE=MSDC
##XUNITS=M/Z
##YUNITS=RELATIVE INTENSITY
##XFACTOR=1
##YFACTOR=1
##FIRSTX=40
##LASTX=155
##FIRSTY=1109
##MAXX=155
##MINX=40
##MAXY=9999
##MINY=219
##NPOINTS=49
##PEAK TABLE=(XY..XY)
40,1109 41,4409 42,529 43,669
46,249 47,359 50,539 51,1769
52,589 53,1719 54,829 55,1159
56,589 57,1019 58,1209 63,419
65,969 66,559 67,1899 68,509
69,219 70,259 73,259 77,1569
78,659 79,2409 80,489 81,579
82,469 83,299 84,319 91,1009
92,749 93,2069 94,1549 95,1049
96,3219 97,9999 98,4959 99,939
105,289 107,269 109,529 110,679
111,2999 112,509 153,459 154,4879
155,629
##END=
