##TITLE=Benzene, (1-methyl-1-propenyl)-, (E)-
##JCAMP-DX=4.24
##DATA TYPE=MASS SPECTRUM
##ORIGIN=D.HENNEBERG, MAX-PLANCK INSTITUTE, MULHEIM, WEST GERMANY
##OWNER=NIST Mass Spectrometry Data Center
Collection (C) 2014 copyright by the U.S. Secretary of Commerce
on behalf of the United States of America. All rights reserved.
##CAS REGISTRY NO=768-00-3
##$NIST MASS SPEC NO=61887
##MOLFORM=C10 H12
##MW=132
##$NIST SOURCE=MSDC
##XUNITS=M/Z
##YUNITS=RELATIVE INTENSITY
##XFACTOR=1
##YFACTOR=1
##FIRSTX=26
##LASTX=134
##FIRSTY=32
##MAXX=134
##MINX=26
##MAXY=9999
##MINY=3
##NPOINTS=86
##PEAK TABLE=(XY..XY)
26,32 27,389 29,65 33,6
34,5 36,3 37,22 38,64
39,750 40,34 41,111 45,3
47,9 48,6 49,33 50,365
51,1037 52,247 53,387 54,237
55,49 57,51 58,85 59,8
60,5 61,42 62,150 63,543
64,465 65,820 66,139 67,14
68,8 69,5 70,11 71,21
72,10 73,21 74,156 75,178
76,187 77,1012 78,780 79,193
80,15 81,4 85,10 86,38
87,65 88,34 89,294 90,56
91,2585 92,239 93,14 98,23
99,17 100,22 101,70 102,299
103,696 104,310 105,503 106,42
109,5 110,8 111,11 113,250
114,129 115,3355 116,1107 117,9999
118,955 119,44 123,4 124,6
125,28 126,54 127,232 128,457
129,520 130,196 131,2331 132,6370
133,714 134,35
##END=
