##TITLE=Isoproterenol
##JCAMP-DX=4.24
##DATA TYPE=MASS SPECTRUM
##ORIGIN=AAFS Toxicology Section MS DB Committee, U. Alberta, Canada
##OWNER=NIST Mass Spectrometry Data Center
Collection (C) 2014 copyright by the U.S. Secretary of Commerce
on behalf of the United States of America. All rights reserved.
##CAS REGISTRY NO=7683-59-2
##$NIST MASS SPEC NO=246203
##MOLFORM=C11 H17 N O3
##MW=211
##$NIST SOURCE=MSDC
##XUNITS=M/Z
##YUNITS=RELATIVE INTENSITY
##XFACTOR=1
##YFACTOR=1
##FIRSTX=29
##LASTX=213
##FIRSTY=20
##MAXX=213
##MINX=29
##MAXY=9999
##MINY=10
##NPOINTS=116
##PEAK TABLE=(XY..XY)
29,20 30,1040 31,30 35,70
36,310 37,30 38,170 39,190
41,200 42,470 43,500 44,810
45,80 46,10 50,60 51,170
52,90 53,120 57,70 58,30
59,20 60,90 62,50 63,120
64,100 65,570 66,110 67,60
71,60 72,9999 73,460 74,60
75,80 76,20 77,320 78,80
79,120 80,70 81,150 82,50
85,60 88,450 89,130 90,60
91,100 92,60 93,540 94,120
95,30 96,10 97,10 98,40
102,30 103,50 104,70 105,40
106,50 107,140 108,30 109,70
110,110 111,130 115,80 116,10
117,50 118,30 119,20 120,110
121,30 122,30 123,470 124,380
125,40 127,30 128,10 129,20
130,20 131,40 132,100 133,60
134,110 135,200 136,170 137,320
138,10 139,430 140,50 141,60
150,10 151,60 154,30 155,10
160,50 161,40 162,50 163,30
164,20 174,20 175,20 176,70
178,170 179,10 181,30 182,140
183,10 189,20 190,30 191,50
192,70 193,190 194,10 208,30
209,20 211,200 212,40 213,10
##END=
