##TITLE=dl-c-Allylglycine
##JCAMP-DX=4.24
##DATA TYPE=MASS SPECTRUM
##ORIGIN=Japan AIST/NIMC Database- Spectrum MS-NW-9528
##OWNER=NIST Mass Spectrometry Data Center
Collection (C) 2014 copyright by the U.S. Secretary of Commerce
on behalf of the United States of America. All rights reserved.
##CAS REGISTRY NO=7685-44-1
##$NIST MASS SPEC NO=237840
##MOLFORM=C5 H9 N O2
##MW=115
##$NIST SOURCE=MSDC
##XUNITS=M/Z
##YUNITS=RELATIVE INTENSITY
##XFACTOR=1
##YFACTOR=1
##FIRSTX=14
##LASTX=117
##FIRSTY=10
##MAXX=117
##MINX=14
##MAXY=9999
##MINY=10
##NPOINTS=48
##PEAK TABLE=(XY..XY)
14,10 15,119 17,40 18,199
19,20 26,50 27,349 28,3089
29,209 30,369 31,10 32,10
33,10 35,10 37,40 38,90
39,549 40,90 41,719 42,359
43,1299 44,119 45,90 46,519
47,20 50,30 51,60 52,40
53,199 54,199 55,40 56,129
57,30 66,10 67,20 68,179
69,70 70,3899 71,189 74,9999
75,279 76,40 81,10 97,30
114,10 115,30 116,199 117,10
##END=
