##TITLE=N,N,2,4-Tetramethylbenzenamine
##JCAMP-DX=4.24
##DATA TYPE=MASS SPECTRUM
##ORIGIN=Japan AIST/NIMC Database- Spectrum MS-NW-7720
##OWNER=NIST Mass Spectrometry Data Center
Collection (C) 2014 copyright by the U.S. Secretary of Commerce
on behalf of the United States of America. All rights reserved.
##CAS REGISTRY NO=769-53-9
##$NIST MASS SPEC NO=240804
##MOLFORM=C10 H15 N
##MW=149
##$NIST SOURCE=MSDC
##XUNITS=M/Z
##YUNITS=RELATIVE INTENSITY
##XFACTOR=1
##YFACTOR=1
##FIRSTX=14
##LASTX=151
##FIRSTY=10
##MAXX=151
##MINX=14
##MAXY=9999
##MINY=10
##NPOINTS=106
##PEAK TABLE=(XY..XY)
14,10 15,189 17,10 26,20
27,359 28,239 29,50 30,60
37,20 38,90 39,599 40,90
41,259 42,529 43,60 44,619
45,20 46,10 49,10 50,149
51,499 52,229 53,289 54,60
55,40 56,40 57,10 58,109
59,219 60,70 61,60 62,99
63,349 64,109 65,579 66,599
67,189 68,50 69,10 70,10
71,70 72,169 73,309 74,319
75,90 76,99 77,1299 78,379
79,799 80,90 81,10 82,10
83,10 85,10 86,30 87,30
88,20 89,189 90,129 91,1069
92,189 93,129 94,60 95,10
96,10 98,10 99,10 101,20
102,109 103,589 104,309 105,1299
106,539 107,209 108,60 109,30
114,10 115,60 116,119 117,689
118,1979 119,729 120,309 121,169
122,40 123,10 124,10 125,10
127,10 128,20 129,20 130,219
131,219 132,1729 133,1089 134,6679
135,819 136,50 144,50 145,30
146,239 147,70 148,7689 149,9999
150,1109 151,70
##END=
