##TITLE=Benzene, 2-ethenyl-1,3,5-trimethyl-
##JCAMP-DX=4.24
##DATA TYPE=MASS SPECTRUM
##ORIGIN=NIST Mass Spectrometry Data Center, 1990.
##OWNER=NIST Mass Spectrometry Data Center
Collection (C) 2014 copyright by the U.S. Secretary of Commerce
on behalf of the United States of America. All rights reserved.
##CAS REGISTRY NO=769-25-5
##$NIST MASS SPEC NO=113001
##MOLFORM=C11 H14
##MW=146
##$NIST SOURCE=MSDC
##XUNITS=M/Z
##YUNITS=RELATIVE INTENSITY
##XFACTOR=1
##YFACTOR=1
##FIRSTX=14
##LASTX=148
##FIRSTY=37
##MAXX=148
##MINX=14
##MAXY=9999
##MINY=37
##NPOINTS=60
##PEAK TABLE=(XY..XY)
14,37 15,163 26,106 27,860
28,70 29,142 38,233 39,1721
40,275 41,544 50,534 51,1389
52,387 53,715 54,54 58,178
61,64 62,332 63,964 64,515
65,983 66,109 67,68 71,652
72,310 74,218 75,301 76,232
77,1411 78,501 79,434 86,87
87,108 89,416 91,4708 92,382
101,94 102,357 103,600 104,195
105,842 106,291 115,3109 116,2191
117,867 118,157 119,408 126,140
127,788 128,2003 129,2423 130,1599
131,9999 132,1066 141,149 143,170
145,1740 146,7897 147,923 148,52
##END=
