##TITLE=Silanamine, 1-ethenyl-N-(ethenyldimethylsilyl)-1,1-dimethyl-
##JCAMP-DX=4.24
##DATA TYPE=MASS SPECTRUM
##ORIGIN=Japan AIST/NIMC Database- Spectrum MS-NW-6665
##OWNER=NIST Mass Spectrometry Data Center
Collection (C) 2014 copyright by the U.S. Secretary of Commerce
on behalf of the United States of America. All rights reserved.
##CAS REGISTRY NO=7691-02-3
##$NIST MASS SPEC NO=236657
##MOLFORM=C8 H19 N Si2
##MW=185
##$NIST SOURCE=MSDC
##XUNITS=M/Z
##YUNITS=RELATIVE INTENSITY
##XFACTOR=1
##YFACTOR=1
##FIRSTX=15
##LASTX=187
##FIRSTY=30
##MAXX=187
##MINX=15
##MAXY=9999
##MINY=10
##NPOINTS=133
##PEAK TABLE=(XY..XY)
15,30 26,20 27,70 28,129
29,70 30,10 31,139 32,30
39,30 41,20 42,30 43,389
44,169 45,449 46,80 47,30
50,149 51,309 52,50 53,70
54,10 55,119 56,60 57,279
58,569 59,1479 60,439 61,139
62,20 63,709 64,479 65,99
66,20 67,40 68,10 69,90
70,259 71,269 72,149 73,1339
74,919 75,149 76,30 77,319
78,90 79,10 81,20 82,10
83,119 84,40 85,509 86,399
87,209 88,70 89,60 90,10
93,10 95,50 96,30 97,70
98,50 99,99 100,759 101,109
102,639 103,119 104,99 105,30
106,10 107,10 108,10 109,60
110,50 111,50 112,129 113,80
114,139 115,60 116,2649 117,569
118,579 119,119 120,40 121,10
123,10 124,10 125,20 126,60
127,50 128,779 129,159 130,1679
131,279 132,319 133,80 134,30
135,10 138,10 139,10 140,90
141,50 142,4069 143,769 144,559
145,109 146,30 147,10 151,10
152,10 153,109 154,279 155,70
156,119 157,30 158,1519 159,319
160,139 161,20 163,10 164,10
165,10 166,10 167,20 168,289
169,80 170,9999 171,2119 172,859
173,119 174,20 185,219 186,50
187,20
##END=
