##TITLE=Tetramethrin
##JCAMP-DX=4.24
##DATA TYPE=MASS SPECTRUM
##ORIGIN=J. SHAW, BORRISTON RESEARCH, ROCKVILLE, MD, USA
##OWNER=NIST Mass Spectrometry Data Center
Collection (C) 2014 copyright by the U.S. Secretary of Commerce
on behalf of the United States of America. All rights reserved.
##CAS REGISTRY NO=7696-12-0
##$NIST MASS SPEC NO=60329
##MOLFORM=C19 H25 N O4
##MW=331
##$NIST SOURCE=MSDC
##XUNITS=M/Z
##YUNITS=RELATIVE INTENSITY
##XFACTOR=1
##YFACTOR=1
##FIRSTX=12
##LASTX=331
##FIRSTY=30
##MAXX=331
##MINX=12
##MAXY=9999
##MINY=10
##NPOINTS=110
##PEAK TABLE=(XY..XY)
12,30 15,310 27,1921 28,710
29,1321 30,230 31,60 39,2592
41,5195 42,700 43,2442 44,150
45,60 49,80 51,1161 52,1171
53,1901 55,1831 56,850 57,520
58,80 59,40 63,180 65,900
66,420 67,1181 68,170 69,660
70,80 71,30 72,10 73,10
74,10 75,20 77,2502 79,4504
80,1261 81,3153 82,220 83,190
84,10 85,30 87,10 89,20
91,1151 93,1141 95,610 96,60
97,50 103,60 105,340 107,2072
108,870 109,260 110,30 111,30
115,10 116,10 117,60 118,40
119,40 120,100 121,310 122,180
123,4694 124,360 125,50 126,10
130,10 131,10 132,120 133,60
134,190 135,640 136,330 137,40
138,10 139,50 146,10 147,20
148,130 149,60 150,30 151,100
152,50 153,30 160,20 161,10
162,60 164,9999 165,1001 166,100
167,40 168,10 178,10 180,20
192,10 197,40 198,10 199,10
205,10 206,10 209,10 210,20
211,10 231,10 232,30 248,10
285,10 331,10
##END=
