##TITLE=Bicyclo[2.2.2]octane, 1-bromo-
##JCAMP-DX=4.24
##DATA TYPE=MASS SPECTRUM
##ORIGIN=RH-3
##OWNER=NIST Mass Spectrometry Data Center
Collection (C) 2014 copyright by the U.S. Secretary of Commerce
on behalf of the United States of America. All rights reserved.
##CAS REGISTRY NO=7697-09-8
##$NIST MASS SPEC NO=8127
##MOLFORM=C8 H13 Br
##MW=188
##$NIST SOURCE=MSDC
##XUNITS=M/Z
##YUNITS=RELATIVE INTENSITY
##XFACTOR=1
##YFACTOR=1
##FIRSTX=14
##LASTX=191
##FIRSTY=40
##MAXX=191
##MINX=14
##MAXY=9999
##MINY=10
##NPOINTS=76
##PEAK TABLE=(XY..XY)
14,40 15,510 16,20 17,20
18,30 25,30 26,480 27,1990
28,720 29,550 30,20 37,160
38,440 39,3210 40,670 41,1830
42,190 43,280 49,100 50,730
51,1230 52,610 53,1640 54,600
55,1000 56,60 61,100 62,160
63,390 64,100 65,890 66,530
67,5639 68,620 69,190 74,140
75,170 76,90 77,1760 78,680
79,2790 80,1180 81,2470 82,240
83,100 91,700 92,120 93,520
94,250 95,140 105,110 107,330
108,320 109,9999 110,910 111,50
116,10 118,20 120,50 122,30
132,10 133,60 134,20 135,50
136,10 145,40 146,90 147,20
148,90 149,10 159,10 161,10
188,100 189,10 190,100 191,10
##END=
