##TITLE=Levorphanol
##JCAMP-DX=4.24
##DATA TYPE=MASS SPECTRUM
##ORIGIN=NIST Mass Spectrometry Data Center
##OWNER=NIST Mass Spectrometry Data Center
Collection (C) 2014 copyright by the U.S. Secretary of Commerce
on behalf of the United States of America. All rights reserved.
##CAS REGISTRY NO=77-07-6
##$NIST MASS SPEC NO=352164
##MOLFORM=C17 H23 N O
##MW=257
##$NIST SOURCE=MSDC
##XUNITS=M/Z
##YUNITS=RELATIVE INTENSITY
##XFACTOR=1
##YFACTOR=1
##FIRSTX=15
##LASTX=260
##FIRSTY=50
##MAXX=260
##MINX=15
##MAXY=9999
##MINY=10
##NPOINTS=198
##PEAK TABLE=(XY..XY)
15,50 26,10 27,210 28,160
29,260 30,1071 31,1651 32,20
38,20 39,490 40,60 41,921
42,3053 43,440 44,2102 45,80
46,10 50,60 51,420 52,170
53,460 54,170 55,841 56,380
57,510 58,1722 59,9999 60,561
61,10 62,50 63,250 64,80
65,510 66,150 67,470 68,260
69,140 70,671 71,100 72,90
74,30 75,90 76,140 77,1231
78,350 79,651 80,190 81,450
82,1231 83,320 84,220 85,70
87,30 88,50 89,270 91,1211
92,230 93,280 94,801 95,350
96,340 97,160 99,190 101,130
102,260 103,530 104,160 105,460
106,240 107,1171 108,671 109,230
110,170 111,40 112,30 114,130
115,2262 116,621 117,530 118,210
119,250 120,540 121,440 122,591
123,460 124,561 125,60 126,140
127,1481 128,2322 129,1101 130,280
131,1191 132,651 133,681 134,410
135,110 136,310 137,80 138,50
139,300 140,110 141,881 142,340
143,280 144,1091 145,1171 146,741
147,921 148,1471 149,320 150,8488
151,1091 152,641 153,530 154,250
155,310 156,170 157,5275 158,2412
159,661 160,1471 161,701 162,250
163,50 164,50 165,400 166,150
167,180 168,190 169,510 170,881
171,1101 172,510 173,230 174,400
175,110 176,60 177,30 178,70
179,100 180,50 181,260 182,160
183,340 184,310 185,360 186,340
187,180 188,470 189,2172 190,300
191,30 193,10 194,20 195,60
196,90 197,260 198,1201 199,1511
200,3563 201,561 202,150 203,20
204,10 208,10 209,10 210,50
211,50 212,210 213,130 214,741
215,220 216,60 217,10 222,10
224,20 225,20 226,100 227,40
228,1071 229,230 230,20 238,10
240,90 241,20 242,701 243,130
244,10 251,10 252,10 254,60
255,130 256,5435 257,7537 258,1471
259,150 260,10
##END=
