##TITLE=Gibberellic acid
##JCAMP-DX=4.24
##DATA TYPE=MASS SPECTRUM
##ORIGIN=Chemical Sci. & Tec. Lab., NIST, Gaithersburg, MD 20899
##OWNER=NIST Mass Spectrometry Data Center
Collection (C) 2014 copyright by the U.S. Secretary of Commerce
on behalf of the United States of America. All rights reserved.
##CAS REGISTRY NO=77-06-5
##$NIST MASS SPEC NO=256446
##MOLFORM=C19 H22 O6
##MW=346
##$NIST SOURCE=MSDC
##XUNITS=M/Z
##YUNITS=RELATIVE INTENSITY
##XFACTOR=1
##YFACTOR=1
##FIRSTX=41
##LASTX=346
##FIRSTY=3768
##MAXX=346
##MINX=41
##MAXY=9999
##MINY=41
##NPOINTS=213
##PEAK TABLE=(XY..XY)
41,3768 42,431 43,4795 44,1248
45,980 49,362 51,843 52,343
53,1874 54,291 55,4723 56,457
57,934 63,389 64,250 65,1653
66,538 67,1326 68,560 69,1828
70,357 71,618 72,52 73,43
75,49 76,290 77,3774 78,968
79,2658 80,426 81,1238 82,566
83,1136 84,1090 85,535 86,308
87,87 88,91 89,652 90,358
91,4308 92,762 93,1097 94,614
95,2338 96,549 97,737 98,621
99,559 100,156 101,223 102,311
103,939 104,484 105,2068 106,543
107,1815 108,1268 109,1612 110,272
111,667 112,327 113,227 114,223
115,2444 116,732 117,1130 118,429
119,1047 120,457 121,5355 122,1844
123,545 124,313 125,167 126,161
127,1233 128,1890 129,1670 130,454
131,1140 132,459 133,1056 134,1647
135,2480 136,9999 137,2338 138,257
139,279 140,141 141,1393 142,841
143,1016 144,586 145,1166 146,373
147,808 148,403 149,811 150,479
151,819 152,1983 153,1625 154,520
155,1441 156,742 157,1001 158,455
159,770 160,296 161,596 162,204
163,673 164,275 165,1135 166,510
167,554 168,301 169,851 170,321
171,724 172,426 173,776 174,351
175,457 176,296 177,246 178,416
179,692 180,371 181,767 182,370
183,517 184,228 185,712 186,259
187,318 188,197 189,428 190,328
191,548 192,296 193,497 194,277
195,873 196,353 197,548 198,290
199,467 200,355 201,361 202,891
203,1023 204,217 205,165 206,161
207,243 208,167 209,988 210,422
211,487 212,226 213,424 214,173
215,231 216,200 217,46 219,441
220,237 221,321 222,92 223,461
224,224 225,506 226,263 227,446
228,195 229,185 230,41 231,90
237,579 238,455 239,650 240,247
241,287 242,184 243,227 244,279
245,170 253,153 254,224 255,428
256,336 257,179 258,142 265,62
266,171 267,94 269,170 271,53
272,176 273,145 282,328 283,356
284,556 285,190 300,666 301,300
302,171 310,54 328,668 329,118
346,324
##END=
