##TITLE=4-Piperidinecarboxylic acid, 4-phenyl-, ethyl ester
##JCAMP-DX=4.24
##DATA TYPE=MASS SPECTRUM
##ORIGIN=NIST Mass Spectrometry Data Center
##OWNER=NIST Mass Spectrometry Data Center
Collection (C) 2014 copyright by the U.S. Secretary of Commerce
on behalf of the United States of America. All rights reserved.
##CAS REGISTRY NO=77-17-8
##$NIST MASS SPEC NO=352194
##MOLFORM=C14 H19 N O2
##MW=233
##$NIST SOURCE=MSDC
##XUNITS=M/Z
##YUNITS=RELATIVE INTENSITY
##XFACTOR=1
##YFACTOR=1
##FIRSTX=15
##LASTX=235
##FIRSTY=20
##MAXX=235
##MINX=15
##MAXY=9999
##MINY=10
##NPOINTS=138
##PEAK TABLE=(XY..XY)
15,20 26,30 27,260 28,450
29,611 30,510 31,30 38,10
39,180 40,20 41,140 42,3633
43,2512 44,250 45,40 46,10
50,110 51,410 52,120 53,340
54,100 55,130 56,3363 57,9999
58,390 59,30 62,30 63,160
64,50 65,250 66,30 67,40
68,90 69,30 70,80 71,20
72,70 74,60 75,70 76,120
77,1001 78,260 79,120 80,290
81,50 82,611 83,70 84,10
85,10 86,10 87,20 88,20
89,140 90,50 91,1581 92,140
93,20 94,10 96,30 98,10
99,50 100,50 101,50 102,360
103,1802 104,320 105,260 106,110
107,30 108,20 109,10 110,40
112,30 113,20 114,60 115,1121
116,480 117,550 118,170 119,70
120,110 121,30 124,10 126,510
127,250 128,550 129,601 130,571
131,1011 132,330 133,80 134,10
135,10 136,20 140,10 141,120
142,120 143,250 144,260 145,200
146,50 147,20 148,20 149,90
150,20 154,40 155,180 156,110
157,40 158,1812 159,701 160,1291
161,230 162,120 163,20 164,20
170,10 174,10 175,10 176,110
177,50 178,10 186,50 187,661
188,150 189,20 190,70 191,20
204,440 205,80 206,10 218,110
219,20 231,10 232,170 233,2182
234,340 235,40
##END=
