##TITLE=Ethoheptazine
##JCAMP-DX=4.24
##DATA TYPE=MASS SPECTRUM
##ORIGIN=AAFS Toxicology Section MS DB Committee, U. Alberta, Canada
##OWNER=NIST Mass Spectrometry Data Center
Collection (C) 2014 copyright by the U.S. Secretary of Commerce
on behalf of the United States of America. All rights reserved.
##CAS REGISTRY NO=77-15-6
##$NIST MASS SPEC NO=246507
##MOLFORM=C16 H23 N O2
##MW=261
##$NIST SOURCE=MSDC
##XUNITS=M/Z
##YUNITS=RELATIVE INTENSITY
##XFACTOR=1
##YFACTOR=1
##FIRSTX=39
##LASTX=263
##FIRSTY=200
##MAXX=263
##MINX=39
##MAXY=9999
##MINY=90
##NPOINTS=109
##PEAK TABLE=(XY..XY)
39,200 40,100 41,470 42,2862
43,920 44,1471 45,100 51,370
53,160 54,100 55,270 56,250
57,9999 58,4423 59,220 63,250
65,480 67,290 68,150 70,5184
71,2071 72,1060 73,100 76,160
77,1411 78,360 79,230 82,730
83,450 84,5595 85,2682 86,220
89,320 91,3212 92,300 94,360
95,160 96,520 97,380 98,1471
99,180 102,510 103,2212 104,640
105,660 106,90 108,100 110,2382
111,220 113,170 115,3312 116,1080
117,1271 118,310 119,150 120,140
124,210 126,110 127,430 128,1361
129,1271 130,490 131,650 132,260
133,110 134,100 140,560 141,300
142,640 143,490 144,250 145,430
146,580 147,150 154,540 155,1981
156,380 157,220 158,570 159,780
160,800 161,190 162,110 168,100
169,870 170,480 172,180 173,120
174,160 183,480 184,380 186,550
187,160 188,6495 189,1000 190,220
204,1050 205,160 216,1281 217,250
218,210 232,540 233,250 246,1481
247,230 260,890 261,3693 262,740
263,100
##END=
