##TITLE=Butethal
##JCAMP-DX=4.24
##DATA TYPE=MASS SPECTRUM
##ORIGIN=NIST Mass Spectrometry Data Center
##OWNER=NIST Mass Spectrometry Data Center
Collection (C) 2014 copyright by the U.S. Secretary of Commerce
on behalf of the United States of America. All rights reserved.
##CAS REGISTRY NO=77-28-1
##$NIST MASS SPEC NO=352160
##MOLFORM=C10 H16 N2 O3
##MW=212
##$NIST SOURCE=MSDC
##XUNITS=M/Z
##YUNITS=RELATIVE INTENSITY
##XFACTOR=1
##YFACTOR=1
##FIRSTX=15
##LASTX=197
##FIRSTY=20
##MAXX=197
##MINX=15
##MAXY=9999
##MINY=10
##NPOINTS=110
##PEAK TABLE=(XY..XY)
15,20 26,60 27,581 28,190
29,871 30,60 31,10 37,10
38,50 39,871 40,200 41,1832
42,260 43,330 44,510 45,30
46,10 50,30 51,100 52,120
53,591 54,420 55,2072 56,360
57,230 58,20 59,20 61,20
62,10 63,20 64,10 65,100
66,90 67,280 68,170 69,561
70,430 71,60 72,30 73,60
77,70 78,30 79,70 80,320
81,130 82,110 83,460 84,130
85,320 86,40 87,20 91,10
92,10 93,20 94,210 95,130
96,130 97,210 98,1772 99,140
100,40 106,10 107,10 108,70
109,70 110,40 111,50 112,751
113,160 114,70 115,10 116,20
121,10 122,20 123,40 124,80
125,50 126,290 127,50 128,70
129,50 136,10 137,10 138,10
139,10 141,9999 142,1531 143,140
144,10 151,10 152,10 153,20
154,50 155,901 156,8277 157,751
158,80 159,10 165,10 166,10
167,480 168,50 169,80 170,10
181,10 183,480 184,651 185,60
186,10 197,10
##END=
