##TITLE=Carbetapentane
##JCAMP-DX=4.24
##DATA TYPE=MASS SPECTRUM
##ORIGIN=Japan AIST/NIMC Database- Spectrum MS-IW-8082
##OWNER=NIST Mass Spectrometry Data Center
Collection (C) 2014 copyright by the U.S. Secretary of Commerce
on behalf of the United States of America. All rights reserved.
##CAS REGISTRY NO=77-23-6
##$NIST MASS SPEC NO=241780
##MOLFORM=C20 H31 N O3
##MW=333
##$NIST SOURCE=MSDC
##XUNITS=M/Z
##YUNITS=RELATIVE INTENSITY
##XFACTOR=1
##YFACTOR=1
##FIRSTX=27
##LASTX=334
##FIRSTY=30
##MAXX=334
##MINX=27
##MAXY=9999
##MINY=10
##NPOINTS=63
##PEAK TABLE=(XY..XY)
27,30 28,90 29,70 30,179
39,50 40,30 41,80 42,99
43,60 44,229 45,30 51,10
55,20 56,129 57,80 58,399
59,10 65,20 67,119 68,30
69,10 70,60 71,50 72,109
73,90 77,30 78,10 84,80
85,30 86,9999 87,609 88,20
89,10 91,559 92,40 98,20
99,50 100,179 101,10 102,20
103,40 105,10 114,20 115,70
116,30 117,30 127,10 128,50
129,40 130,20 141,10 142,10
143,30 144,689 145,299 146,30
149,10 217,60 318,90 319,20
332,40 333,20 334,10
##END=
