##TITLE=Propanedioic acid, ethyl(3-methylbutyl)-, diethyl ester
##JCAMP-DX=4.24
##DATA TYPE=MASS SPECTRUM
##ORIGIN=NIST Mass Spectrometry Data Center
##OWNER=NIST Mass Spectrometry Data Center
Collection (C) 2014 copyright by the U.S. Secretary of Commerce
on behalf of the United States of America. All rights reserved.
##CAS REGISTRY NO=77-24-7
##$NIST MASS SPEC NO=343682
##MOLFORM=C14 H26 O4
##MW=258
##$NIST SOURCE=MSDC
##XUNITS=M/Z
##YUNITS=RELATIVE INTENSITY
##XFACTOR=1
##YFACTOR=1
##FIRSTX=12
##LASTX=257
##FIRSTY=10
##MAXX=257
##MINX=12
##MAXY=9999
##MINY=10
##NPOINTS=152
##PEAK TABLE=(XY..XY)
12,10 13,10 14,10 15,190
17,10 18,60 19,50 26,150
27,2212 28,631 29,6796 30,200
31,270 32,30 39,981 40,250
41,4164 42,420 43,2592 44,170
45,1171 46,40 47,30 50,10
51,30 52,40 53,611 54,250
55,3463 56,841 57,1101 58,70
59,360 60,30 63,10 65,100
66,40 67,520 68,390 69,5685
70,450 71,380 72,90 73,621
74,30 75,10 77,70 78,10
79,120 80,20 81,380 82,230
83,751 84,140 85,350 86,510
87,540 88,140 89,40 91,40
92,20 93,100 94,40 95,490
96,270 97,410 99,2712 100,330
101,2422 102,150 103,10 105,20
107,20 109,340 110,180 111,2122
112,460 113,641 114,1561 115,971
116,330 117,20 120,10 121,100
122,40 123,250 124,70 125,80
127,1041 128,260 129,2342 130,240
131,10 136,10 137,280 138,220
139,1772 140,200 141,1181 142,2572
143,460 144,50 145,180 146,10
151,320 152,10 153,10 154,10
155,340 156,500 157,320 158,40
159,110 160,40 165,20 166,60
167,30 168,20 169,390 170,60
171,110 173,8358 174,711 175,80
179,10 183,300 184,641 185,1151
186,250 187,731 188,9999 189,1071
190,120 195,20 197,100 199,10
201,20 202,50 211,20 212,60
213,1882 214,270 215,681 216,90
217,10 229,100 230,941 231,110
232,10 243,120 244,10 257,20
##END=
