##TITLE=Ethylamine, 2-[1-(p-chlorophenyl)-1-phenylethoxy]-N,N-dimethyl-
##JCAMP-DX=4.24
##DATA TYPE=MASS SPECTRUM
##ORIGIN=AAFS Toxicology Section MS DB Committee, U. Alberta, Canada
##OWNER=NIST Mass Spectrometry Data Center
Collection (C) 2014 copyright by the U.S. Secretary of Commerce
on behalf of the United States of America. All rights reserved.
##CAS REGISTRY NO=77-38-3
##$NIST MASS SPEC NO=246811
##MOLFORM=C18 H22 Cl N O
##MW=303
##$NIST SOURCE=MSDC
##XUNITS=M/Z
##YUNITS=RELATIVE INTENSITY
##XFACTOR=1
##YFACTOR=1
##FIRSTX=39
##LASTX=305
##FIRSTY=20
##MAXX=305
##MINX=39
##MAXY=9999
##MINY=10
##NPOINTS=84
##PEAK TABLE=(XY..XY)
39,20 41,10 42,270 43,120
44,80 45,10 50,20 51,100
52,10 55,10 56,110 57,120
58,9999 59,380 63,30 65,20
70,60 71,60 72,200 73,50
74,30 75,120 76,90 77,350
78,50 82,20 85,10 86,50
87,20 88,180 89,160 90,20
91,20 99,10 101,180 102,240
103,450 104,40 105,70 111,90
112,10 113,40 114,10 115,40
125,10 126,20 127,20 128,20
136,10 137,190 138,40 139,170
140,20 141,30 146,10 149,10
150,30 151,70 152,110 153,30
163,70 164,60 165,520 166,90
167,10 175,10 176,110 177,70
178,480 179,430 180,210 181,30
194,10 199,50 200,10 201,30
214,60 215,210 216,60 217,80
218,10 303,130 304,30 305,40
##END=
