##TITLE=Hexethal
##JCAMP-DX=4.24
##DATA TYPE=MASS SPECTRUM
##OWNER=NIST Mass Spectrometry Data Center
Collection (C) 2014 copyright by the U.S. Secretary of Commerce
on behalf of the United States of America. All rights reserved.
##CAS REGISTRY NO=77-30-5
##$NIST MASS SPEC NO=11605
##MOLFORM=C12 H20 N2 O3
##MW=240
##$NIST SOURCE=MSDC
##XUNITS=M/Z
##YUNITS=RELATIVE INTENSITY
##XFACTOR=1
##YFACTOR=1
##FIRSTX=39
##LASTX=241
##FIRSTY=400
##MAXX=241
##MINX=39
##MAXY=9999
##MINY=28
##NPOINTS=60
##PEAK TABLE=(XY..XY)
39,400 40,100 41,1401 42,200
43,801 44,300 52,100 53,300
54,200 55,1301 56,300 57,200
61,200 67,100 68,100 69,300
70,200 71,200 72,100 79,100
80,200 81,100 82,100 83,400
84,100 85,200 86,100 87,200
94,100 95,100 96,100 97,200
98,1001 99,100 100,100 112,400
113,100 114,100 115,300 126,200
127,100 128,100 129,200 130,400
141,7407 142,901 143,200 155,801
156,9999 157,1401 158,200 169,200
183,100 195,300 196,100 211,701
212,400 239,100 240,200 241,28
##END=
