##TITLE=1-Piperidinepropanol, .alpha.-cyclopentyl-.alpha.-phenyl-
##JCAMP-DX=4.24
##DATA TYPE=MASS SPECTRUM
##ORIGIN=Patti Price, Georgia Bureau of Investigation, Decatur, Georgia
##OWNER=NIST Mass Spectrometry Data Center
Collection (C) 2014 copyright by the U.S. Secretary of Commerce
on behalf of the United States of America. All rights reserved.
##CAS REGISTRY NO=77-39-4
##$NIST MASS SPEC NO=248053
##MOLFORM=C19 H29 N O
##MW=287
##$NIST SOURCE=MSDC
##XUNITS=M/Z
##YUNITS=RELATIVE INTENSITY
##XFACTOR=1
##YFACTOR=1
##FIRSTX=41
##LASTX=288
##FIRSTY=110
##MAXX=288
##MINX=41
##MAXY=9999
##MINY=10
##NPOINTS=110
##PEAK TABLE=(XY..XY)
41,110 44,70 50,10 51,30
52,10 53,30 54,30 55,250
56,90 57,30 58,10 63,10
64,10 65,30 66,10 67,70
68,50 69,350 70,240 71,10
72,10 73,10 74,10 76,10
77,300 78,80 79,100 80,10
81,10 82,30 83,40 84,220
85,230 86,20 87,10 89,10
90,10 91,210 92,20 93,10
94,10 95,10 96,250 97,120
98,9999 99,700 100,20 101,10
102,10 103,60 104,20 105,280
106,20 107,70 108,10 110,30
111,20 112,220 113,80 114,90
115,100 116,20 117,40 118,10
119,10 120,10 121,10 124,10
125,10 126,10 127,20 128,40
129,60 130,10 131,40 132,10
133,50 134,10 138,10 140,10
141,20 142,30 143,30 144,10
174,10 175,30 176,40 177,10
210,50 211,10 216,160 217,30
218,1451 219,540 220,60 221,10
226,10 228,10 230,10 242,10
244,10 269,120 270,90 271,10
272,10 284,10 285,10 286,20
287,10 288,10
##END=
