##TITLE=Isoaminile
##JCAMP-DX=4.24
##DATA TYPE=MASS SPECTRUM
##ORIGIN=R RYHAGE MS-LAB KAROLINSKA INSTITUTET STOCKHOLM SWEDEN
##OWNER=NIST Mass Spectrometry Data Center
Collection (C) 2014 copyright by the U.S. Secretary of Commerce
on behalf of the United States of America. All rights reserved.
##CAS REGISTRY NO=77-51-0
##$NIST MASS SPEC NO=42314
##MOLFORM=C16 H24 N2
##MW=244
##$NIST SOURCE=MSDC
##XUNITS=M/Z
##YUNITS=RELATIVE INTENSITY
##XFACTOR=1
##YFACTOR=1
##FIRSTX=15
##LASTX=246
##FIRSTY=108
##MAXX=246
##MINX=15
##MAXY=9999
##MINY=3
##NPOINTS=155
##PEAK TABLE=(XY..XY)
15,108 16,13 25,6 27,238
28,124 30,108 34,3 39,101
40,48 41,149 42,526 43,238
44,292 45,165 46,13 51,95
52,73 53,48 54,19 55,22
56,263 57,92 58,4214 59,168
61,3 62,10 63,32 64,16
65,22 66,3 67,3 68,10
70,244 71,634 72,9999 73,532
74,25 75,25 76,13 77,86
78,19 79,19 80,38 81,3
86,44 88,6 89,32 90,19
91,190 92,25 94,3 97,19
98,3 100,6 101,10 102,38
103,70 104,22 105,25 107,3
108,6 109,10 111,10 112,6
113,6 114,19 115,139 116,130
117,41 124,3 125,3 126,6
127,32 128,44 129,114 130,29
131,67 133,3 134,3 139,3
140,29 141,13 142,38 143,41
144,3 145,13 146,16 147,16
148,10 149,10 150,3 151,13
152,3 153,6 154,10 155,10
156,32 157,22 158,187 159,22
160,13 167,35 168,13 169,13
170,6 172,22 173,6 175,3
176,6 177,10 179,3 180,10
181,6 182,10 183,3 184,13
185,13 186,13 187,16 188,3
189,3 191,3 192,3 193,3
195,6 196,3 198,10 199,16
200,13 201,6 202,25 203,3
204,3 208,3 211,3 212,3
213,22 214,3 215,3 216,3
217,6 218,3 223,3 225,3
226,6 227,6 228,6 229,374
230,51 231,6 242,6 243,63
244,241 245,29 246,6
##END=
