##TITLE=1-Phenylcyclopentanenitrile
##JCAMP-DX=4.24
##DATA TYPE=MASS SPECTRUM
##ORIGIN=Japan AIST/NIMC Database- Spectrum MS-IW-1256
##OWNER=NIST Mass Spectrometry Data Center
Collection (C) 2014 copyright by the U.S. Secretary of Commerce
on behalf of the United States of America. All rights reserved.
##CAS REGISTRY NO=77-57-6
##$NIST MASS SPEC NO=239385
##MOLFORM=C12 H13 N
##MW=171
##$NIST SOURCE=MSDC
##XUNITS=M/Z
##YUNITS=RELATIVE INTENSITY
##XFACTOR=1
##YFACTOR=1
##FIRSTX=26
##LASTX=173
##FIRSTY=10
##MAXX=173
##MINX=26
##MAXY=9999
##MINY=10
##NPOINTS=84
##PEAK TABLE=(XY..XY)
26,10 27,99 28,40 29,40
38,20 39,289 40,30 41,229
42,40 50,99 51,309 52,80
53,30 54,10 55,109 56,10
57,30 58,10 61,10 62,50
63,149 64,70 65,149 66,30
67,30 68,10 69,10 70,40
71,10 74,40 75,70 76,119
77,349 78,319 79,30 80,10
83,20 86,10 87,20 88,50
89,169 90,60 91,289 92,70
93,10 100,10 101,90 102,629
103,559 104,99 105,60 113,30
114,70 115,839 116,409 117,439
118,99 122,10 123,10 126,10
127,80 128,549 129,9999 130,1409
131,119 139,10 140,129 141,90
142,399 143,1299 144,509 145,80
153,20 154,40 155,10 156,139
157,10 167,10 168,20 169,10
170,679 171,2799 172,369 173,20
##END=
