##TITLE=Tomatidine
##JCAMP-DX=4.24
##DATA TYPE=MASS SPECTRUM
##ORIGIN=LAC, NIDDK, NIH, Bethesda, MD 20892
##OWNER=NIST Mass Spectrometry Data Center
Collection (C) 2014 copyright by the U.S. Secretary of Commerce
on behalf of the United States of America. All rights reserved.
##CAS REGISTRY NO=77-59-8
##$NIST MASS SPEC NO=256499
##MOLFORM=C27 H45 N O2
##MW=415
##$NIST SOURCE=MSDC
##XUNITS=M/Z
##YUNITS=RELATIVE INTENSITY
##XFACTOR=1
##YFACTOR=1
##FIRSTX=41
##LASTX=417
##FIRSTY=1092
##MAXX=417
##MINX=41
##MAXY=9999
##MINY=11
##NPOINTS=178
##PEAK TABLE=(XY..XY)
41,1092 42,309 43,838 44,213
45,32 47,82 48,39 49,51
51,17 53,209 54,218 55,1530
56,258 57,459 58,205 59,64
65,83 66,33 67,828 68,356
69,646 70,373 71,114 72,33
73,63 77,243 78,29 79,797
80,175 81,881 82,276 83,347
84,45 85,72 86,29 87,16
88,20 91,648 92,135 93,868
94,258 95,671 96,341 97,178
98,520 99,55 100,13 101,16
103,29 104,14 105,567 106,176
107,785 108,406 109,362 110,387
111,977 113,6586 114,9999 115,797
116,54 117,144 118,52 119,333
120,182 121,446 122,405 123,180
124,688 125,855 126,191 127,124
128,189 129,96 130,38 131,175
132,56 133,284 134,125 135,218
136,136 137,24 138,7650 139,1231
140,122 141,19 142,66 143,108
144,49 145,189 146,65 147,291
148,122 149,158 150,145 152,924
153,154 154,60 155,21 156,27
157,98 158,17 159,169 160,49
161,416 162,156 163,113 164,173
165,74 166,302 167,67 168,88
169,13 170,12 171,50 172,14
173,99 174,22 175,91 176,117
177,94 178,122 179,19 180,213
181,46 182,12 185,58 187,47
188,13 189,20 190,51 191,12
192,130 193,14 194,18 199,67
201,59 202,15 213,14 214,11
215,53 216,36 217,12 227,11
229,46 232,29 234,28 245,26
246,12 255,69 269,54 271,13
273,242 274,54 285,52 287,97
288,45 302,30 316,151 317,28
330,12 344,37 358,87 359,94
372,78 384,11 385,43 386,342
387,622 388,162 398,24 400,154
401,45 413,45 414,117 415,543
416,194 417,30
##END=
