##TITLE=Ethosuximide
##JCAMP-DX=4.24
##DATA TYPE=MASS SPECTRUM
##ORIGIN=NIST Mass Spectrometry Data Center
##OWNER=NIST Mass Spectrometry Data Center
Collection (C) 2014 copyright by the U.S. Secretary of Commerce
on behalf of the United States of America. All rights reserved.
##CAS REGISTRY NO=77-67-8
##$NIST MASS SPEC NO=352149
##MOLFORM=C7 H11 N O2
##MW=141
##$NIST SOURCE=MSDC
##XUNITS=M/Z
##YUNITS=RELATIVE INTENSITY
##XFACTOR=1
##YFACTOR=1
##FIRSTX=14
##LASTX=142
##FIRSTY=10
##MAXX=142
##MINX=14
##MAXY=9999
##MINY=10
##NPOINTS=70
##PEAK TABLE=(XY..XY)
14,10 15,40 16,10 26,90
27,701 28,210 29,641 30,30
31,10 33,10 34,10 37,60
38,170 39,1952 40,450 41,2002
42,2532 43,290 44,270 45,20
48,10 49,20 50,150 51,230
52,140 53,641 54,360 55,9358
56,480 57,30 58,10 59,20
61,10 62,20 63,30 64,10
65,50 66,50 67,180 68,160
69,771 70,5185 71,290 72,20
73,10 78,10 80,30 81,20
82,20 83,50 84,50 85,731
86,40 94,30 95,20 96,30
97,20 98,370 99,20 108,10
109,20 110,10 111,10 113,9999
114,591 115,60 126,110 127,10
141,100 142,10
##END=
