##TITLE=Sulfuric acid, dimethyl ester
##JCAMP-DX=4.24
##DATA TYPE=MASS SPECTRUM
##ORIGIN=NIST Mass Spectrometry Data Center, 1990.
##OWNER=NIST Mass Spectrometry Data Center
Collection (C) 2014 copyright by the U.S. Secretary of Commerce
on behalf of the United States of America. All rights reserved.
##CAS REGISTRY NO=77-78-1
##$NIST MASS SPEC NO=118619
##MOLFORM=C2 H6 O4 S
##MW=126
##$NIST SOURCE=MSDC
##XUNITS=M/Z
##YUNITS=RELATIVE INTENSITY
##XFACTOR=1
##YFACTOR=1
##FIRSTX=12
##LASTX=128
##FIRSTY=51
##MAXX=128
##MINX=12
##MAXY=9999
##MINY=1
##NPOINTS=37
##PEAK TABLE=(XY..XY)
12,51 13,79 14,496 15,3583
16,94 17,1 18,58 19,48
28,235 29,5161 30,1241 31,6632
32,4885 33,524 45,2861 46,95
48,1029 49,196 50,289 61,204
64,645 65,1208 66,2750 67,89
68,149 78,647 79,1380 80,132
81,202 95,9999 96,5514 97,733
98,265 125,604 126,407 127,85
128,45
##END=
