##TITLE=Propane, 2,2-dimethoxy-
##JCAMP-DX=4.24
##DATA TYPE=MASS SPECTRUM
##OWNER=NIST Mass Spectrometry Data Center
Collection (C) 2014 copyright by the U.S. Secretary of Commerce
on behalf of the United States of America. All rights reserved.
##CAS REGISTRY NO=77-76-9
##$NIST MASS SPEC NO=20002
##MOLFORM=C5 H12 O2
##MW=104
##$NIST SOURCE=MSDC
##XUNITS=M/Z
##YUNITS=RELATIVE INTENSITY
##XFACTOR=1
##YFACTOR=1
##FIRSTX=14
##LASTX=104
##FIRSTY=90
##MAXX=104
##MINX=14
##MAXY=9999
##MINY=10
##NPOINTS=45
##PEAK TABLE=(XY..XY)
14,90 15,591 16,10 18,10
19,10 25,10 26,110 27,581
28,260 29,981 30,90 31,1151
32,550 33,140 36,90 37,70
38,150 39,1451 40,430 41,2392
42,3133 43,3693 44,100 45,510
46,10 47,310 48,10 53,30
54,10 55,270 56,40 57,340
58,50 59,30 71,30 72,1892
73,9999 74,480 75,30 78,10
88,10 89,2192 90,100 91,20
104,10
##END=
