##TITLE=2-Ethyl-2-methyl-1,3-propanediol
##JCAMP-DX=4.24
##DATA TYPE=MASS SPECTRUM
##ORIGIN=NIST Mass Spectrometry Data Center, 1994
##OWNER=NIST Mass Spectrometry Data Center
Collection (C) 2014 copyright by the U.S. Secretary of Commerce
on behalf of the United States of America. All rights reserved.
##CAS REGISTRY NO=77-84-9
##$NIST MASS SPEC NO=134043
##MOLFORM=C6 H14 O2
##MW=118
##$NIST SOURCE=MSDC
##XUNITS=M/Z
##YUNITS=RELATIVE INTENSITY
##XFACTOR=1
##YFACTOR=1
##FIRSTX=15
##LASTX=100
##FIRSTY=452
##MAXX=100
##MINX=15
##MAXY=9999
##MINY=8
##NPOINTS=47
##PEAK TABLE=(XY..XY)
15,452 17,8 19,115 26,424
27,2819 28,507 29,4093 30,29
31,5220 32,61 33,91 37,81
39,2348 41,6303 42,1292 43,2992
44,29 45,9999 46,242 47,82
50,167 51,212 52,100 53,570
54,81 55,2711 56,198 57,1165
58,234 59,297 60,22 61,58
63,26 65,83 67,278 69,2568
70,6990 71,1934 72,123 82,66
83,45 85,143 86,272 87,1116
88,109 89,23 100,38
##END=
