##TITLE=Butyl citrate
##JCAMP-DX=4.24
##DATA TYPE=MASS SPECTRUM
##ORIGIN=RADIAN CORP
##OWNER=NIST Mass Spectrometry Data Center
Collection (C) 2014 copyright by the U.S. Secretary of Commerce
on behalf of the United States of America. All rights reserved.
##CAS REGISTRY NO=77-94-1
##$NIST MASS SPEC NO=71233
##MOLFORM=C18 H32 O7
##MW=360
##$NIST SOURCE=MSDC
##XUNITS=M/Z
##YUNITS=RELATIVE INTENSITY
##XFACTOR=1
##YFACTOR=1
##FIRSTX=26
##LASTX=361
##FIRSTY=20
##MAXX=361
##MINX=26
##MAXY=9999
##MINY=10
##NPOINTS=79
##PEAK TABLE=(XY..XY)
26,20 27,320 29,1180 30,40
31,80 39,260 40,60 41,2000
42,260 43,590 44,40 45,30
53,40 54,30 55,340 56,680
57,1800 58,90 60,130 61,50
69,190 71,30 73,40 74,50
83,30 84,320 85,110 86,30
87,530 88,30 89,20 100,30
101,60 102,510 103,190 104,10
105,80 111,1040 112,180 113,90
114,10 115,120 116,10 125,20
128,60 129,6760 130,420 131,80
133,130 139,390 140,40 142,10
143,110 147,460 148,30 156,40
157,520 158,230 159,30 169,20
175,70 183,10 184,10 185,9999
186,1030 187,140 189,50 203,150
204,20 213,160 214,20 231,40
245,30 259,1590 260,240 261,30
269,30 287,10 361,20
##END=
