##TITLE=Phosphorodichloridic acid, phenyl ester
##JCAMP-DX=4.24
##DATA TYPE=MASS SPECTRUM
##ORIGIN=Japan AIST/NIMC Database- Spectrum MS-NW-5120
##OWNER=NIST Mass Spectrometry Data Center
Collection (C) 2014 copyright by the U.S. Secretary of Commerce
on behalf of the United States of America. All rights reserved.
##CAS REGISTRY NO=770-12-7
##$NIST MASS SPEC NO=230483
##MOLFORM=C6 H5 Cl2 O2 P
##MW=210
##$NIST SOURCE=MSDC
##XUNITS=M/Z
##YUNITS=RELATIVE INTENSITY
##XFACTOR=1
##YFACTOR=1
##FIRSTX=14
##LASTX=216
##FIRSTY=10
##MAXX=216
##MINX=14
##MAXY=9999
##MINY=10
##NPOINTS=160
##PEAK TABLE=(XY..XY)
14,10 15,20 18,20 25,30
26,179 27,519 28,289 29,829
30,30 31,60 32,30 34,10
35,179 36,649 37,309 38,919
39,3699 40,129 41,50 42,20
43,10 44,20 45,20 46,10
47,1259 48,60 49,99 50,1279
51,1789 52,129 53,209 54,20
55,40 56,10 57,20 58,10
59,10 60,30 61,169 62,369
63,1119 64,649 65,6189 66,389
67,20 68,30 69,10 72,10
73,90 74,329 75,449 76,3049
77,3569 78,269 79,30 80,20
81,349 82,129 83,40 84,40
85,10 86,10 87,30 88,10
90,10 91,30 92,549 93,2159
94,299 95,30 96,10 97,10
98,20 99,70 100,199 101,70
102,70 103,50 104,10 105,20
107,10 109,519 110,50 111,119
112,329 113,50 114,109 115,30
117,1049 118,50 119,689 120,20
121,119 123,10 124,10 127,40
128,259 129,30 130,99 131,20
133,70 134,10 135,20 137,10
139,2639 140,469 141,70 142,40
143,20 144,40 145,10 146,149
147,80 148,40 149,30 150,10
151,10 152,209 153,20 154,209
155,20 156,99 157,10 158,30
159,50 160,10 161,10 167,10
168,50 169,119 170,189 171,30
172,10 174,9999 175,1829 176,3389
177,609 178,70 179,10 182,279
183,20 184,189 185,10 186,40
187,10 188,10 190,10 192,10
194,50 196,20 207,10 208,10
209,60 210,9759 211,719 212,6269
213,439 214,1049 215,90 216,10
##END=
