##TITLE=Cyclohexene, 1-phenyl-
##JCAMP-DX=4.24
##DATA TYPE=MASS SPECTRUM
##ORIGIN=NIST Mass Spectrometry Data Center
##OWNER=NIST Mass Spectrometry Data Center
Collection (C) 2014 copyright by the U.S. Secretary of Commerce
on behalf of the United States of America. All rights reserved.
##CAS REGISTRY NO=771-98-2
##$NIST MASS SPEC NO=343536
##MOLFORM=C12 H14
##MW=158
##$NIST SOURCE=MSDC
##XUNITS=M/Z
##YUNITS=RELATIVE INTENSITY
##XFACTOR=1
##YFACTOR=1
##FIRSTX=14
##LASTX=160
##FIRSTY=10
##MAXX=160
##MINX=14
##MAXY=9999
##MINY=10
##NPOINTS=82
##PEAK TABLE=(XY..XY)
14,10 15,240 17,30 18,10
26,200 27,1882 28,510 29,530
31,40 37,80 38,270 39,2532
40,200 41,921 42,50 50,1121
51,2863 52,721 53,671 54,70
55,110 58,200 61,70 62,420
63,1481 64,701 65,1391 66,450
67,1211 68,60 69,110 71,621
73,30 74,530 75,621 76,871
77,2843 78,1091 79,1161 80,1762
81,260 86,80 87,160 88,160
89,831 90,170 91,3713 92,370
98,70 99,80 101,160 102,1191
103,671 104,1581 105,160 113,130
115,7056 116,1221 117,1661 118,150
126,270 127,1371 128,4554 129,9999
130,7387 131,861 132,50 139,130
141,781 142,631 143,6025 144,761
145,50 151,90 152,300 153,260
154,130 155,150 157,1021 158,9438
159,1241 160,100
##END=
