##TITLE=2-Methoxy-3-chloro-phenol
##JCAMP-DX=4.24
##DATA TYPE=MASS SPECTRUM
##ORIGIN=ASES Database, Dalian Institute, P.R. China
##OWNER=NIST Mass Spectrometry Data Center
Collection (C) 2014 copyright by the U.S. Secretary of Commerce
on behalf of the United States of America. All rights reserved.
##CAS REGISTRY NO=77102-92-2
##$NIST MASS SPEC NO=146395
##MOLFORM=C7 H7 Cl O2
##MW=158
##$NIST SOURCE=MSDC
##XUNITS=M/Z
##YUNITS=RELATIVE INTENSITY
##XFACTOR=1
##YFACTOR=1
##FIRSTX=49
##LASTX=161
##FIRSTY=480
##MAXX=161
##MINX=49
##MAXY=9999
##MINY=90
##NPOINTS=47
##PEAK TABLE=(XY..XY)
49,480 50,1741 51,7056 52,1521
53,1751 54,250 55,700 60,350
61,540 62,950 63,1611 64,490
65,1211 72,250 73,750 74,200
75,490 77,290 79,2502 80,680
81,450 86,490 87,1451 88,250
89,590 91,290 93,250 94,250
99,550 101,140 107,1000 108,440
114,100 115,5264 116,490 117,1731
118,140 123,100 129,90 143,9999
144,900 145,3493 146,400 158,6015
159,650 160,2001 161,250
##END=
