##TITLE=2-Methoxy-3,6-dichloro-phenol
##JCAMP-DX=4.24
##DATA TYPE=MASS SPECTRUM
##ORIGIN=ASES Database, Dalian Institute, P.R. China
##OWNER=NIST Mass Spectrometry Data Center
Collection (C) 2014 copyright by the U.S. Secretary of Commerce
on behalf of the United States of America. All rights reserved.
##CAS REGISTRY NO=77102-93-3
##$NIST MASS SPEC NO=147118
##MOLFORM=C7 H6 Cl2 O2
##MW=192
##$NIST SOURCE=MSDC
##XUNITS=M/Z
##YUNITS=RELATIVE INTENSITY
##XFACTOR=1
##YFACTOR=1
##FIRSTX=50
##LASTX=196
##FIRSTY=2582
##MAXX=196
##MINX=50
##MAXY=9999
##MINY=90
##NPOINTS=50
##PEAK TABLE=(XY..XY)
50,2582 53,5985 62,1181 63,1251
73,1080 85,3323 87,1481 96,300
97,540 98,240 99,980 101,190
106,490 107,240 109,390 113,2312
114,240 115,900 120,500 121,1101
122,150 124,90 125,500 126,100
127,240 128,390 129,200 133,450
134,90 135,190 141,190 142,440
143,450 148,250 149,4964 150,490
151,3092 152,240 153,490 157,250
177,9999 178,950 179,6575 180,690
181,1181 192,6605 193,1241 194,4594
195,500 196,1000
##END=
