##TITLE=2-Butanamine, N-methyl-
##JCAMP-DX=4.24
##DATA TYPE=MASS SPECTRUM
##OWNER=NIST Mass Spectrometry Data Center
Collection (C) 2014 copyright by the U.S. Secretary of Commerce
on behalf of the United States of America. All rights reserved.
##CAS REGISTRY NO=7713-69-1
##$NIST MASS SPEC NO=634
##MOLFORM=C5 H13 N
##MW=87
##$NIST SOURCE=MSDC
##XUNITS=M/Z
##YUNITS=RELATIVE INTENSITY
##XFACTOR=1
##YFACTOR=1
##FIRSTX=15
##LASTX=87
##FIRSTY=200
##MAXX=87
##MINX=15
##MAXY=9999
##MINY=10
##NPOINTS=28
##PEAK TABLE=(XY..XY)
15,200 17,10 18,50 27,400
28,600 29,500 30,1500 31,70
41,600 42,500 43,300 44,600
45,40 55,200 56,700 57,700
58,9999 59,400 60,10 69,10
70,200 71,200 72,2000 73,100
84,40 85,10 86,300 87,500
##END=
