##TITLE=Thionyl chloride
##JCAMP-DX=4.24
##DATA TYPE=MASS SPECTRUM
##ORIGIN=NIST Mass Spectrometry Data Center, 1994
##OWNER=NIST Mass Spectrometry Data Center
Collection (C) 2014 copyright by the U.S. Secretary of Commerce
on behalf of the United States of America. All rights reserved.
##CAS REGISTRY NO=7719-09-7
##$NIST MASS SPEC NO=134164
##MOLFORM=Cl2 O S
##MW=118
##$NIST SOURCE=MSDC
##XUNITS=M/Z
##YUNITS=RELATIVE INTENSITY
##XFACTOR=1
##YFACTOR=1
##FIRSTX=32
##LASTX=124
##FIRSTY=3933
##MAXX=124
##MINX=32
##MAXY=9999
##MINY=1
##NPOINTS=28
##PEAK TABLE=(XY..XY)
32,3933 34,12 35,5944 37,1860
48,5510 49,71 50,268 51,19
53,7 64,79 67,932 69,352
70,38 71,17 72,23 80,34
83,9999 85,4014 87,172 102,40
104,29 118,1434 119,11 120,1000
121,8 122,194 123,1 124,9
##END=
