##TITLE=3-Bromo-4-methoxyphenylacetonitrile
##JCAMP-DX=4.24
##DATA TYPE=MASS SPECTRUM
##ORIGIN=NIST Mass Spectrometry Data Center, 1994
##OWNER=NIST Mass Spectrometry Data Center
Collection (C) 2014 copyright by the U.S. Secretary of Commerce
on behalf of the United States of America. All rights reserved.
##CAS REGISTRY NO=772-59-8
##$NIST MASS SPEC NO=134933
##MOLFORM=C9 H8 Br N O
##MW=225
##$NIST SOURCE=MSDC
##XUNITS=M/Z
##YUNITS=RELATIVE INTENSITY
##XFACTOR=1
##YFACTOR=1
##FIRSTX=13
##LASTX=229
##FIRSTY=37
##MAXX=229
##MINX=13
##MAXY=9999
##MINY=23
##NPOINTS=107
##PEAK TABLE=(XY..XY)
13,37 15,1667 16,30 25,46
26,249 27,268 28,247 29,404
30,111 31,55 36,52 37,347
38,502 39,802 40,125 41,82
43,50 44,33 49,248 50,1915
51,1739 52,502 53,594 54,67
55,35 57,56 60,53 61,549
62,1115 63,1781 64,406 65,314
66,62 72,37 73,160 74,780
75,1710 76,2582 77,1214 78,285
79,139 80,53 81,100 82,39
84,34 85,117 86,227 87,363
88,601 89,1719 90,422 91,1331
92,146 93,50 95,30 99,93
100,100 102,1739 103,5986 104,551
105,241 106,86 107,37 111,37
112,31 114,396 115,469 116,1324
117,406 118,383 119,257 128,59
130,618 131,326 132,50 141,58
142,37 143,69 144,68 145,37
146,9999 147,934 148,68 155,56
156,56 157,54 158,37 169,47
170,59 172,38 181,51 182,372
183,90 184,441 185,52 194,67
196,68 199,52 201,41 210,596
212,609 213,60 225,4043 226,417
227,3974 228,406 229,23
##END=
