##TITLE=3,3-Dimethyl-3-silathietane
##JCAMP-DX=4.24
##DATA TYPE=MASS SPECTRUM
##ORIGIN=V.G.Zaikin, TIPS, Russian Acad. Sci.
##OWNER=NIST Mass Spectrometry Data Center
Collection (C) 2014 copyright by the U.S. Secretary of Commerce
on behalf of the United States of America. All rights reserved.
##CAS REGISTRY NO=77205-52-8
##$NIST MASS SPEC NO=214883
##MOLFORM=C4 H10 S Si
##MW=118
##$NIST SOURCE=MSDC
##XUNITS=M/Z
##YUNITS=RELATIVE INTENSITY
##XFACTOR=1
##YFACTOR=1
##FIRSTX=43
##LASTX=121
##FIRSTY=2962
##MAXX=121
##MINX=43
##MAXY=9999
##MINY=20
##NPOINTS=39
##PEAK TABLE=(XY..XY)
43,2962 44,8487 45,8487 46,3523
47,1761 48,240 53,1921 54,480
55,1761 56,480 57,1201 58,560
59,800 60,560 61,1361 62,160
63,160 65,120 66,160 67,160
70,1361 71,1241 72,9999 73,2001
74,720 75,4163 76,480 77,480
85,160 87,200 89,160 90,7126
91,720 92,640 103,480 118,3282
119,340 120,261 121,20
##END=
