##TITLE=2-Fluoro-4-(trifluoromethyl)phenol
##JCAMP-DX=4.24
##DATA TYPE=MASS SPECTRUM
##ORIGIN=NIST Mass Spectrometry Data Center, 1994
##OWNER=NIST Mass Spectrometry Data Center
Collection (C) 2014 copyright by the U.S. Secretary of Commerce
on behalf of the United States of America. All rights reserved.
##CAS REGISTRY NO=77227-78-2
##$NIST MASS SPEC NO=136684
##MOLFORM=C7 H4 F4 O
##MW=180
##$NIST SOURCE=MSDC
##XUNITS=M/Z
##YUNITS=RELATIVE INTENSITY
##XFACTOR=1
##YFACTOR=1
##FIRSTX=12
##LASTX=182
##FIRSTY=72
##MAXX=182
##MINX=12
##MAXY=9999
##MINY=27
##NPOINTS=102
##PEAK TABLE=(XY..XY)
12,72 13,61 17,105 18,27
19,51 20,164 24,30 25,181
26,429 31,748 33,220 36,141
37,1234 38,1460 39,774 42,38
44,189 46,35 47,82 48,75
49,439 50,2072 51,1201 52,35
53,1580 54,105 55,467 56,1402
57,4034 58,146 60,166 61,1500
62,1854 63,6974 64,482 65,195
66,631 67,89 68,674 69,3429
71,181 72,60 73,249 74,60
75,1995 76,135 77,95 79,210
80,921 81,3011 82,1869 83,1550
84,139 85,52 86,167 87,379
88,666 89,57 90,140 91,150
92,201 93,381 94,169 95,63
98,48 99,517 101,2532 102,281
103,38 104,39 105,140 106,368
107,77 110,846 111,228 112,661
113,2259 114,210 115,42 117,54
119,28 123,52 124,40 125,65
130,5066 131,896 132,3980 133,361
141,1610 142,140 143,119 150,130
151,745 152,72 159,175 161,6899
162,519 163,456 164,35 180,9999
181,733 182,49
##END=
