##TITLE=Bromine
##JCAMP-DX=4.24
##DATA TYPE=MASS SPECTRUM
##ORIGIN=J. PASSMORE, DEP. CHEM., NEW BRUNSWICK UNIV., CANADA
##OWNER=NIST Mass Spectrometry Data Center
Collection (C) 2014 copyright by the U.S. Secretary of Commerce
on behalf of the United States of America. All rights reserved.
##CAS REGISTRY NO=7726-95-6
##$NIST MASS SPEC NO=98246
##MOLFORM=Br2
##MW=158
##$NIST SOURCE=MSDC
##XUNITS=M/Z
##YUNITS=RELATIVE INTENSITY
##XFACTOR=1
##YFACTOR=1
##FIRSTX=79
##LASTX=162
##FIRSTY=1100
##MAXX=162
##MINX=79
##MAXY=9999
##MINY=70
##NPOINTS=7
##PEAK TABLE=(XY..XY)
79,1100 80,100 81,1100 82,70
158,5125 160,9999 162,4900
##END=
