##TITLE=Chloroxine
##JCAMP-DX=4.24
##DATA TYPE=MASS SPECTRUM
##ORIGIN=Patti Price, Georgia Bureau of Investigation, Decatur, Georgia
##OWNER=NIST Mass Spectrometry Data Center
Collection (C) 2014 copyright by the U.S. Secretary of Commerce
on behalf of the United States of America. All rights reserved.
##CAS REGISTRY NO=773-76-2
##$NIST MASS SPEC NO=248392
##MOLFORM=C9 H5 Cl2 N O
##MW=213
##$NIST SOURCE=MSDC
##XUNITS=M/Z
##YUNITS=RELATIVE INTENSITY
##XFACTOR=1
##YFACTOR=1
##FIRSTX=41
##LASTX=219
##FIRSTY=10
##MAXX=219
##MINX=41
##MAXY=9999
##MINY=10
##NPOINTS=110
##PEAK TABLE=(XY..XY)
41,10 42,10 43,80 44,20
47,40 48,40 49,180 50,220
51,170 52,110 53,110 54,30
56,60 58,180 60,120 61,580
62,610 63,650 64,120 65,40
66,20 68,10 69,10 71,70
72,200 73,390 74,370 75,680
76,260 77,110 78,30 79,40
80,20 81,10 82,10 83,40
84,160 85,300 86,610 87,980
88,610 89,110 90,40 91,60
92,600 93,400 95,70 96,210
97,530 98,230 99,230 100,100
101,20 102,30 106,160 108,100
109,110 110,50 111,70 112,70
113,60 114,1451 115,740 116,70
119,10 120,20 121,180 122,160
123,840 124,230 125,260 126,70
127,10 131,30 133,40 135,10
143,10 145,10 146,10 148,140
149,840 150,3823 151,700 152,1261
153,130 156,10 157,210 158,50
159,130 160,40 162,10 177,110
178,330 179,70 180,130 181,10
184,340 185,1651 186,390 187,1161
188,130 190,10 212,40 213,9999
214,1050 215,6215 216,590 217,950
218,100 219,10
##END=
