##TITLE=Phosphonic acid, methyl-, dihexyl ester
##JCAMP-DX=4.24
##DATA TYPE=MASS SPECTRUM
##ORIGIN=A.A.Kutin, Moscow, Russia
##OWNER=NIST Mass Spectrometry Data Center
Collection (C) 2014 copyright by the U.S. Secretary of Commerce
on behalf of the United States of America. All rights reserved.
##CAS REGISTRY NO=77304-63-3
##$NIST MASS SPEC NO=273220
##MOLFORM=C13 H29 O3 P
##MW=264
##$NIST SOURCE=MSDC
##XUNITS=M/Z
##YUNITS=RELATIVE INTENSITY
##XFACTOR=1
##YFACTOR=1
##FIRSTX=41
##LASTX=265
##FIRSTY=1244
##MAXX=265
##MINX=41
##MAXY=9999
##MINY=0
##NPOINTS=86
##PEAK TABLE=(XY..XY)
41,1244 42,345 43,1364 44,64
45,72 47,74 48,9 49,16
50,7 51,17 53,87 55,591
56,309 57,165 58,11 59,8
61,6 62,17 63,24 65,76
67,79 68,18 69,93 70,7
71,11 73,2 75,0 77,22
79,632 80,183 81,86 82,14
83,47 85,239 86,16 89,2
90,3 91,15 92,12 93,13
94,14 97,9999 99,63 103,2
105,7 106,4 107,5 109,32
110,45 111,145 119,6 120,3
121,7 123,260 124,37 125,196
126,7 127,2 133,2 134,2
135,6 137,47 138,4 139,17
147,2 149,3 151,41 152,7
153,2 163,8 164,2 165,14
179,18 181,1203 182,95 183,11
193,5 207,4 208,2 221,3
226,0 235,10 249,6 253,1
263,4 265,19
##END=
