##TITLE=2-Docosanone
##JCAMP-DX=4.24
##DATA TYPE=MASS SPECTRUM
##ORIGIN=J. Klune, Insect Chem. Ecol. Lab., USDA, Beltsville, MD 20705
##OWNER=NIST Mass Spectrometry Data Center
Collection (C) 2014 copyright by the U.S. Secretary of Commerce
on behalf of the United States of America. All rights reserved.
##CAS REGISTRY NO=77327-11-8
##$NIST MASS SPEC NO=131176
##MOLFORM=C22 H44 O
##MW=324
##$NIST SOURCE=MSDC
##XUNITS=M/Z
##YUNITS=RELATIVE INTENSITY
##XFACTOR=1
##YFACTOR=1
##FIRSTX=41
##LASTX=327
##FIRSTY=2391
##MAXX=327
##MINX=41
##MAXY=9999
##MINY=17
##NPOINTS=150
##PEAK TABLE=(XY..XY)
41,2391 42,769 43,8394 44,221
45,126 53,182 54,350 55,2809
56,1029 57,3865 58,9999 59,742
60,450 61,41 65,60 66,33
67,659 68,643 69,1988 70,969
71,5574 72,448 73,96 77,33
79,166 80,106 81,779 82,2120
83,1821 84,644 85,2988 86,291
87,41 93,80 94,92 95,925
96,3099 97,2164 98,467 99,614
100,660 101,67 107,35 108,57
109,571 110,1031 111,1091 112,315
113,598 114,417 115,59 121,37
122,68 123,311 124,590 125,552
126,266 127,755 128,92 129,17
135,57 136,56 137,187 138,404
139,257 140,215 141,191 142,41
149,87 151,108 152,329 153,162
154,190 155,156 156,80 165,65
166,283 167,135 168,172 169,144
170,57 179,17 180,273 181,130
182,140 183,115 193,39 194,357
195,180 196,123 197,72 207,40
208,484 209,250 210,128 211,80
221,67 222,663 223,344 224,150
225,112 226,74 235,75 236,503
237,286 238,195 239,107 240,68
248,19 249,55 250,619 251,271
252,107 253,90 254,68 261,20
262,64 263,65 264,1937 265,501
266,1441 267,417 268,205 269,55
276,17 277,87 278,368 279,126
280,160 281,344 282,295 283,78
292,75 294,67 295,348 296,179
297,65 306,1771 307,746 308,187
309,2040 310,571 311,86 312,65
322,357 323,250 324,8911 325,2155
326,251 327,20
##END=
