##TITLE=1,5-Heptadiene, (Z)-
##JCAMP-DX=4.24
##DATA TYPE=MASS SPECTRUM
##ORIGIN=D.HENNEBERG, MAX-PLANCK INSTITUTE, MULHEIM, WEST GERMANY
##OWNER=NIST Mass Spectrometry Data Center
Collection (C) 2014 copyright by the U.S. Secretary of Commerce
on behalf of the United States of America. All rights reserved.
##CAS REGISTRY NO=7736-34-7
##$NIST MASS SPEC NO=62114
##MOLFORM=C7 H12
##MW=96
##$NIST SOURCE=MSDC
##XUNITS=M/Z
##YUNITS=RELATIVE INTENSITY
##XFACTOR=1
##YFACTOR=1
##FIRSTX=23
##LASTX=97
##FIRSTY=3
##MAXX=97
##MINX=23
##MAXY=9999
##MINY=1
##NPOINTS=60
##PEAK TABLE=(XY..XY)
23,3 25,14 26,111 27,1532
28,216 29,2674 30,53 35,34
36,5 37,67 38,156 39,2454
40,255 41,1285 42,128 43,24
44,32 45,10 46,12 47,6
48,5 49,17 50,131 51,276
52,130 53,1023 54,1348 55,9999
56,452 57,8 61,19 62,31
63,76 64,12 65,166 66,244
67,1869 68,593 69,38 73,5
74,8 75,10 76,3 77,161
78,35 79,211 80,42 81,2853
82,199 83,4 85,2 86,1
89,3 91,52 92,5 93,17
94,8 95,88 96,158 97,14
##END=
