##TITLE=Androsta-1,4-diene-3,11,17-trione
##JCAMP-DX=4.24
##DATA TYPE=MASS SPECTRUM
##ORIGIN=Japan AIST/NIMC Database- Spectrum MS-NW-2329
##OWNER=NIST Mass Spectrometry Data Center
Collection (C) 2014 copyright by the U.S. Secretary of Commerce
on behalf of the United States of America. All rights reserved.
##CAS REGISTRY NO=7738-93-4
##$NIST MASS SPEC NO=234132
##MOLFORM=C19 H22 O3
##MW=298
##$NIST SOURCE=MSDC
##XUNITS=M/Z
##YUNITS=RELATIVE INTENSITY
##XFACTOR=1
##YFACTOR=1
##FIRSTX=14
##LASTX=301
##FIRSTY=20
##MAXX=301
##MINX=14
##MAXY=9999
##MINY=10
##NPOINTS=266
##PEAK TABLE=(XY..XY)
14,20 15,99 16,10 17,20
18,70 26,80 27,1279 28,469
29,629 30,10 31,20 32,60
37,10 38,80 39,2069 40,509
41,3649 42,249 43,789 44,50
45,40 50,199 51,919 52,499
53,1709 54,259 55,1669 56,109
57,119 58,60 59,10 60,40
61,10 62,90 63,479 64,259
65,1359 66,429 67,1659 68,789
69,1289 70,99 71,279 72,70
73,20 74,60 75,119 76,169
77,2309 78,779 79,1869 80,489
81,1059 82,419 83,289 84,90
85,139 86,80 87,50 88,40
89,289 90,139 91,4899 92,1339
93,1949 94,609 95,769 96,589
97,979 98,109 99,149 100,80
101,60 102,199 103,609 104,289
105,1469 106,659 107,989 108,899
109,579 110,1059 111,729 112,139
113,80 114,80 115,1809 116,899
117,2289 118,559 119,549 120,719
121,6619 122,2009 123,459 124,109
125,90 126,70 127,429 128,949
129,1049 130,619 131,4779 132,2829
133,1049 134,1919 135,949 136,399
137,189 138,179 139,699 140,109
141,589 142,409 143,749 144,549
145,2509 146,1169 147,1609 148,439
149,369 150,90 151,70 152,169
153,219 154,129 155,329 156,479
157,969 158,1579 159,4519 160,8599
161,2189 162,329 163,199 164,119
165,289 166,99 167,139 168,129
169,309 170,329 171,1399 172,929
173,1379 174,559 175,189 176,109
177,419 178,159 179,129 180,60
181,239 182,149 183,379 184,1469
185,1979 186,2809 187,1529 188,539
189,199 190,60 191,60 192,50
193,80 194,109 195,359 196,299
197,539 198,499 199,1689 200,579
201,189 202,259 203,70 204,50
205,60 206,30 207,99 208,119
209,549 210,329 211,669 212,1139
213,799 214,589 215,169 216,50
217,30 218,20 219,80 220,90
221,159 222,749 223,899 224,649
225,559 226,1969 227,1009 228,299
229,80 230,30 231,20 232,20
233,40 234,80 235,129 236,389
237,799 238,699 239,789 240,789
241,589 242,639 243,159 244,50
245,40 246,20 247,139 248,80
249,40 250,30 251,259 252,769
253,389 254,3869 255,1829 256,759
257,159 258,40 259,20 260,20
261,40 262,229 263,199 264,60
265,459 266,109 267,109 268,50
269,659 270,2479 271,499 272,109
273,20 274,10 275,10 276,10
277,10 278,20 279,80 280,1489
281,379 282,80 283,669 284,149
285,40 293,10 294,20 295,20
296,90 297,90 298,9999 299,2079
300,499 301,70
##END=
