##TITLE=Ethyl mandelate
##JCAMP-DX=4.24
##DATA TYPE=MASS SPECTRUM
##ORIGIN=Chuck Anderson, Aldrich Chemical Co.
##OWNER=NIST Mass Spectrometry Data Center
Collection (C) 2014 copyright by the U.S. Secretary of Commerce
on behalf of the United States of America. All rights reserved.
##CAS REGISTRY NO=774-40-3
##$NIST MASS SPEC NO=117916
##MOLFORM=C10 H12 O3
##MW=180
##$NIST SOURCE=MSDC
##XUNITS=M/Z
##YUNITS=RELATIVE INTENSITY
##XFACTOR=1
##YFACTOR=1
##FIRSTX=14
##LASTX=181
##FIRSTY=9
##MAXX=181
##MINX=14
##MAXY=9999
##MINY=1
##NPOINTS=43
##PEAK TABLE=(XY..XY)
14,9 15,37 17,1 18,11
19,3 26,64 27,436 28,109
29,900 30,36 31,46 36,26
38,43 39,180 43,38 44,62
45,28 50,148 51,583 52,148
53,109 62,46 63,112 64,4
73,3 74,38 75,26 76,18
77,2610 78,165 79,4576 80,209
89,110 90,90 91,63 105,997
106,14 107,9999 108,367 109,24
118,58 180,395 181,30
##END=
