##TITLE=Benzaldehyde diethylacetal
##JCAMP-DX=4.24
##DATA TYPE=MASS SPECTRUM
##ORIGIN=NIST Mass Spectrometry Data Center, 2009
##OWNER=NIST Mass Spectrometry Data Center
Collection (C) 2014 copyright by the U.S. Secretary of Commerce
on behalf of the United States of America. All rights reserved.
##CAS REGISTRY NO=774-48-1
##$NIST MASS SPEC NO=373377
##MOLFORM=C11 H16 O2
##MW=180
##$NIST SOURCE=MSDC
##XUNITS=M/Z
##YUNITS=RELATIVE INTENSITY
##XFACTOR=1
##YFACTOR=1
##FIRSTX=15
##LASTX=180
##FIRSTY=20
##MAXX=180
##MINX=15
##MAXY=9999
##MINY=10
##NPOINTS=69
##PEAK TABLE=(XY..XY)
15,20 19,10 26,30 27,270
28,50 29,641 30,40 31,30
38,20 39,120 40,10 41,10
42,10 43,120 44,20 45,50
47,510 48,10 49,10 50,220
51,791 52,210 53,80 57,10
61,10 62,40 63,130 64,40
65,80 66,10 67,10 73,10
74,70 75,460 76,120 77,2692
78,460 79,4114 80,270 81,10
86,10 87,10 89,240 90,160
91,220 92,70 93,10 94,10
95,40 102,40 103,400 105,1692
106,280 107,6376 108,500 109,30
115,10 119,20 122,10 123,160
124,10 133,50 134,440 135,9999
136,1111 137,70 151,40 179,20
180,20
##END=
