##TITLE=Acetyl chloride, (2,4-dichlorophenoxy)-
##JCAMP-DX=4.24
##DATA TYPE=MASS SPECTRUM
##ORIGIN=A.A.Kutin, Moscow, Russia
##OWNER=NIST Mass Spectrometry Data Center
Collection (C) 2014 copyright by the U.S. Secretary of Commerce
on behalf of the United States of America. All rights reserved.
##CAS REGISTRY NO=774-74-3
##$NIST MASS SPEC NO=301810
##MOLFORM=C8 H5 Cl3 O2
##MW=238
##$NIST SOURCE=MSDC
##XUNITS=M/Z
##YUNITS=RELATIVE INTENSITY
##XFACTOR=1
##YFACTOR=1
##FIRSTX=35
##LASTX=244
##FIRSTY=618
##MAXX=244
##MINX=35
##MAXY=9999
##MINY=16
##NPOINTS=101
##PEAK TABLE=(XY..XY)
35,618 36,191 37,420 38,246
39,30 40,161 42,1494 43,140
44,101 47,296 48,209 49,2015
50,384 51,611 59,16 60,172
61,427 62,616 63,1629 65,154
72,214 73,705 74,754 75,816
76,34 77,145 83,90 84,191
85,156 86,37 87,46 97,322
98,260 99,140 100,23 105,55
107,163 108,51 109,1519 110,363
111,1535 112,377 113,358 114,44
119,30 126,124 128,80 129,25
133,2891 134,248 135,1914 137,211
139,103 140,48 142,25 145,2610
147,2863 148,230 149,894 151,57
160,32 161,5100 162,3745 163,3304
164,2408 165,666 166,335 168,37
172,25 173,147 175,9999 177,6957
179,1507 180,315 182,186 184,57
186,44 195,18 199,136 202,30
203,30 207,64 209,32 210,3107
211,161 212,3024 213,264 214,1124
215,46 216,44 223,80 225,62
234,64 236,90 238,3056 239,244
240,2785 241,260 242,983 243,55
244,69
##END=
