##TITLE=3-Bromo-4-methoxyphenylacetic acid
##JCAMP-DX=4.24
##DATA TYPE=MASS SPECTRUM
##ORIGIN=NIST Mass Spectrometry Data Center, 1994
##OWNER=NIST Mass Spectrometry Data Center
Collection (C) 2014 copyright by the U.S. Secretary of Commerce
on behalf of the United States of America. All rights reserved.
##CAS REGISTRY NO=774-81-2
##$NIST MASS SPEC NO=134863
##MOLFORM=C9 H9 Br O3
##MW=244
##$NIST SOURCE=MSDC
##XUNITS=M/Z
##YUNITS=RELATIVE INTENSITY
##XFACTOR=1
##YFACTOR=1
##FIRSTX=14
##LASTX=248
##FIRSTY=102
##MAXX=248
##MINX=14
##MAXY=9999
##MINY=15
##NPOINTS=95
##PEAK TABLE=(XY..XY)
14,102 15,958 18,73 26,153
27,406 28,358 29,377 30,68
31,68 32,18 37,189 38,582
39,1165 40,142 41,114 42,81
43,149 44,18 45,1661 46,43
49,281 50,1814 51,4837 52,801
53,764 54,58 55,154 61,345
62,869 63,1570 64,360 65,671
66,135 73,96 74,507 75,732
76,895 77,8644 78,1732 79,740
80,105 81,75 83,141 85,100
86,198 87,243 88,75 89,2167
90,1556 91,732 92,228 93,105
94,50 100,59 101,47 103,81
105,3852 106,421 107,152 108,131
109,43 116,42 117,128 118,64
119,201 120,45 121,308 129,71
130,94 131,103 134,45 135,74
147,58 150,57 151,76 155,107
156,173 157,148 158,163 159,94
169,61 184,140 185,95 186,132
187,125 189,107 199,9999 201,9833
202,948 203,60 244,3369 245,337
246,3397 247,335 248,15
##END=
