##TITLE=5',6',7',8'-Tetrahydro-2'-acetonaphthone
##JCAMP-DX=4.24
##DATA TYPE=MASS SPECTRUM
##ORIGIN=NIST Mass Spectrometry Data Center
##OWNER=NIST Mass Spectrometry Data Center
Collection (C) 2014 copyright by the U.S. Secretary of Commerce
on behalf of the United States of America. All rights reserved.
##CAS REGISTRY NO=774-55-0
##$NIST MASS SPEC NO=340403
##MOLFORM=C12 H14 O
##MW=174
##$NIST SOURCE=MSDC
##XUNITS=M/Z
##YUNITS=RELATIVE INTENSITY
##XFACTOR=1
##YFACTOR=1
##FIRSTX=15
##LASTX=176
##FIRSTY=60
##MAXX=176
##MINX=15
##MAXY=9999
##MINY=10
##NPOINTS=78
##PEAK TABLE=(XY..XY)
15,60 26,10 27,140 29,20
38,30 39,350 40,20 41,90
42,40 43,1401 44,30 50,190
51,581 52,120 53,320 54,10
55,10 58,90 61,10 62,110
63,460 64,210 65,250 66,20
67,10 71,50 72,30 73,10
74,120 75,160 76,170 77,901
78,220 79,100 85,10 86,110
87,70 88,30 89,250 90,90
91,2252 92,170 98,20 99,10
100,10 101,80 102,340 103,571
104,120 105,90 113,20 114,40
115,1411 116,1091 117,150 118,30
126,100 127,450 128,951 129,1061
130,240 131,1822 132,190 133,20
139,10 141,20 143,10 145,30
146,20 152,10 155,10 157,40
159,9999 160,1301 161,90 174,2742
175,360 176,20
##END=
