##TITLE=2-Iodo-4-nitrotoluene
##JCAMP-DX=4.24
##DATA TYPE=MASS SPECTRUM
##ORIGIN=NIST Mass Spectrometry Data Center, 1994
##OWNER=NIST Mass Spectrometry Data Center
Collection (C) 2014 copyright by the U.S. Secretary of Commerce
on behalf of the United States of America. All rights reserved.
##CAS REGISTRY NO=7745-92-8
##$NIST MASS SPEC NO=135031
##MOLFORM=C7 H6 I N O2
##MW=263
##$NIST SOURCE=MSDC
##XUNITS=M/Z
##YUNITS=RELATIVE INTENSITY
##XFACTOR=1
##YFACTOR=1
##FIRSTX=14
##LASTX=265
##FIRSTY=14
##MAXX=265
##MINX=14
##MAXY=9999
##MINY=7
##NPOINTS=63
##PEAK TABLE=(XY..XY)
14,14 15,12 16,16 26,33
27,72 28,61 29,12 30,401
32,7 36,10 37,94 38,202
39,615 40,106 43,17 46,99
49,68 50,340 51,452 52,154
53,26 61,202 62,540 63,1393
64,462 65,53 73,48 74,165
75,136 76,57 77,240 78,682
79,54 84,22 85,95 86,192
87,164 88,22 89,2655 90,4288
91,306 105,529 106,474 107,40
127,251 128,33 131,16 135,14
136,62 164,16 165,19 176,20
177,8 205,139 206,13 217,1053
218,94 233,298 234,25 247,73
263,9999 264,828 265,73
##END=
