##TITLE=Silane, diphenyl-
##JCAMP-DX=4.24
##DATA TYPE=MASS SPECTRUM
##ORIGIN=NIST Mass Spectrometry Data Center, 1990.
##OWNER=NIST Mass Spectrometry Data Center
Collection (C) 2014 copyright by the U.S. Secretary of Commerce
on behalf of the United States of America. All rights reserved.
##CAS REGISTRY NO=775-12-2
##$NIST MASS SPEC NO=118500
##MOLFORM=C12 H12 Si
##MW=184
##$NIST SOURCE=MSDC
##XUNITS=M/Z
##YUNITS=RELATIVE INTENSITY
##XFACTOR=1
##YFACTOR=1
##FIRSTX=14
##LASTX=187
##FIRSTY=23
##MAXX=187
##MINX=14
##MAXY=9999
##MINY=5
##NPOINTS=78
##PEAK TABLE=(XY..XY)
14,23 17,5 26,45 27,155
28,148 29,244 30,45 32,5
37,30 38,65 39,250 40,22
43,25 49,41 50,433 51,703
52,325 53,2076 54,352 55,320
62,29 63,84 65,87 66,187
67,148 68,27 73,25 74,90
75,73 76,97 77,752 78,788
79,1240 80,293 81,291 82,46
89,38 90,85 91,368 93,39
101,81 103,600 105,6953 106,9999
107,1574 108,433 109,28 115,50
117,53 126,22 127,30 128,56
129,224 130,48 131,131 132,25
141,27 142,27 143,27 151,46
152,123 153,197 154,149 155,395
156,87 157,81 158,20 167,27
169,22 179,114 180,380 181,1068
182,478 183,1783 184,4718 185,843
186,238 187,27
##END=
