##TITLE=Benzoic acid, 2-amino-, butyl ester
##JCAMP-DX=4.24
##DATA TYPE=MASS SPECTRUM
##ORIGIN=NIST Mass Spectrometry Data Center, 1998.
##OWNER=NIST Mass Spectrometry Data Center
Collection (C) 2014 copyright by the U.S. Secretary of Commerce
on behalf of the United States of America. All rights reserved.
##CAS REGISTRY NO=7756-96-9
##$NIST MASS SPEC NO=290915
##MOLFORM=C11 H15 N O2
##MW=193
##$NIST SOURCE=MSDC
##XUNITS=M/Z
##YUNITS=RELATIVE INTENSITY
##XFACTOR=1
##YFACTOR=1
##FIRSTX=15
##LASTX=195
##FIRSTY=10
##MAXX=195
##MINX=15
##MAXY=9999
##MINY=10
##NPOINTS=77
##PEAK TABLE=(XY..XY)
15,10 26,30 27,240 28,30
29,400 30,20 31,10 37,20
38,90 39,590 40,60 41,510
42,70 43,60 44,20 45,10
46,10 50,60 51,70 52,240
53,100 54,40 55,90 56,40
57,90 60,10 61,20 62,70
63,330 64,410 65,2020 66,300
67,20 68,10 71,10 74,20
75,30 76,50 77,40 78,20
79,10 80,40 81,10 88,10
89,20 90,140 91,480 92,3120
93,580 94,40 104,10 105,10
106,10 108,10 117,10 119,9999
120,3400 121,310 122,20 130,10
132,40 133,10 136,70 137,2740
138,240 139,20 146,100 147,20
150,10 160,20 164,10 174,10
175,90 176,10 193,2990 194,380
195,30
##END=
