##TITLE=1,5-Pentanediol, 2TBDMS derivative
##JCAMP-DX=4.24
##DATA TYPE=MASS SPECTRUM
##ORIGIN=D.J.HARVEY UNIV. DEPT. OF PHARMACOLOGY, OXFORD, UK
##OWNER=NIST Mass Spectrometry Data Center
Collection (C) 2014 copyright by the U.S. Secretary of Commerce
on behalf of the United States of America. All rights reserved.
##CAS REGISTRY NO=77572-86-2
##$NIST MASS SPEC NO=68335
##MOLFORM=C17 H40 O2 Si2
##MW=332
##$NIST SOURCE=MSDC
##XUNITS=M/Z
##YUNITS=RELATIVE INTENSITY
##XFACTOR=1
##YFACTOR=1
##FIRSTX=41
##LASTX=276
##FIRSTY=646
##MAXX=276
##MINX=41
##MAXY=9999
##MINY=112
##NPOINTS=17
##PEAK TABLE=(XY..XY)
41,646 68,136 69,9999 70,484
73,634 75,118 147,5125 148,832
149,861 150,112 163,377 189,1846
190,395 191,354 219,375 275,492
276,142
##END=
