##TITLE=4-Hydroxy-1-naphthaldehyde
##JCAMP-DX=4.24
##DATA TYPE=MASS SPECTRUM
##ORIGIN=NIST Mass Spectrometry Data Center, 1994
##OWNER=NIST Mass Spectrometry Data Center
Collection (C) 2014 copyright by the U.S. Secretary of Commerce
on behalf of the United States of America. All rights reserved.
##CAS REGISTRY NO=7770-45-8
##$NIST MASS SPEC NO=134848
##MOLFORM=C11 H8 O2
##MW=172
##$NIST SOURCE=MSDC
##XUNITS=M/Z
##YUNITS=RELATIVE INTENSITY
##XFACTOR=1
##YFACTOR=1
##FIRSTX=14
##LASTX=174
##FIRSTY=58
##MAXX=174
##MINX=14
##MAXY=9999
##MINY=31
##NPOINTS=61
##PEAK TABLE=(XY..XY)
14,58 26,80 27,158 28,405
29,534 32,48 37,88 38,285
39,807 40,94 43,82 44,52
50,488 51,562 52,87 53,188
55,92 58,705 61,250 62,827
63,1609 64,291 65,653 66,93
71,387 72,581 73,137 74,657
75,570 76,181 77,294 85,250
86,691 87,653 88,798 89,1750
90,202 98,190 99,89 100,31
101,60 102,51 109,64 110,76
113,697 114,992 115,6918 116,1627
117,158 123,72 126,105 127,60
143,2986 144,945 145,92 155,46
169,38 171,9999 172,8685 173,984
174,98
##END=
