##TITLE=1-Docosanethiol
##JCAMP-DX=4.24
##DATA TYPE=MASS SPECTRUM
##ORIGIN=MUS14 A. Mujsce, AT&T Bell Labs., Murray Hill, N.J., USA
##OWNER=NIST Mass Spectrometry Data Center
Collection (C) 2014 copyright by the U.S. Secretary of Commerce
on behalf of the United States of America. All rights reserved.
##CAS REGISTRY NO=7773-83-3
##$NIST MASS SPEC NO=115410
##MOLFORM=C22 H46 S
##MW=342
##$NIST SOURCE=MSDC
##XUNITS=M/Z
##YUNITS=RELATIVE INTENSITY
##XFACTOR=1
##YFACTOR=1
##FIRSTX=26
##LASTX=344
##FIRSTY=31
##MAXX=344
##MINX=26
##MAXY=9999
##MINY=25
##NPOINTS=167
##PEAK TABLE=(XY..XY)
26,31 27,499 29,1611 30,58
33,32 35,116 39,535 40,167
41,6798 42,1712 43,9999 44,479
45,290 46,107 47,1177 50,25
51,76 53,467 54,820 55,9293
56,3263 58,473 59,188 60,383
61,959 62,70 63,82 65,107
66,147 67,1679 68,2527 69,7470
70,2681 71,4315 72,212 73,177
74,63 75,145 77,124 79,198
80,86 81,1096 82,3403 83,8346
84,2163 85,2669 86,236 87,632
88,637 89,2211 90,172 91,169
93,62 94,46 95,562 96,2339
97,8478 98,1718 99,781 101,272
102,96 103,265 104,44 107,49
109,222 110,790 111,4686 112,1172
113,509 114,50 115,99 117,100
122,51 123,220 124,720 125,2814
126,805 127,278 128,49 129,71
131,52 133,33 134,26 136,49
137,161 138,603 139,1326 140,587
141,252 143,62 147,52 149,32
152,457 153,826 154,427 155,219
157,34 165,56 166,265 167,465
168,337 169,110 170,25 179,42
180,242 181,303 182,317 183,84
187,45 194,214 195,324 196,210
197,78 207,171 208,264 209,233
210,151 211,75 219,27 221,33
222,169 223,195 224,156 225,62
227,41 229,25 235,33 236,187
237,152 238,127 242,43 243,48
250,113 251,119 252,167 255,31
257,35 261,25 264,69 265,121
266,93 267,58 269,46 270,34
271,35 275,28 278,76 279,145
280,554 281,171 283,26 285,29
292,32 297,35 299,27 300,33
308,2423 309,577 310,85 313,56
316,33 324,35 327,33 341,548
342,1922 343,440 344,148
##END=
