##TITLE=Ammonium sulfamate
##JCAMP-DX=4.24
##DATA TYPE=MASS SPECTRUM
##ORIGIN=Japan AIST/NIMC Database- Spectrum MS-NW- 338
##OWNER=NIST Mass Spectrometry Data Center
Collection (C) 2014 copyright by the U.S. Secretary of Commerce
on behalf of the United States of America. All rights reserved.
##CAS REGISTRY NO=7773-06-0
##$NIST MASS SPEC NO=228584
##MOLFORM=H6 N2 O3 S
##MW=114
##$NIST SOURCE=MSDC
##XUNITS=M/Z
##YUNITS=RELATIVE INTENSITY
##XFACTOR=1
##YFACTOR=1
##FIRSTX=14
##LASTX=98
##FIRSTY=70
##MAXX=98
##MINX=14
##MAXY=9999
##MINY=30
##NPOINTS=33
##PEAK TABLE=(XY..XY)
14,70 15,259 16,6439 17,9479
18,709 32,819 34,40 36,60
41,70 43,60 44,289 46,149
47,50 48,6229 49,80 50,309
55,70 56,30 57,60 63,90
64,9829 65,219 66,479 69,40
71,50 79,50 80,9999 81,139
82,499 83,40 96,429 97,99
98,40
##END=
