##TITLE=Cyclohexyl isovalerate
##JCAMP-DX=4.24
##DATA TYPE=MASS SPECTRUM
##ORIGIN=Japan AIST/NIMC Database- Spectrum MS-NW- 32
##OWNER=NIST Mass Spectrometry Data Center
Collection (C) 2014 copyright by the U.S. Secretary of Commerce
on behalf of the United States of America. All rights reserved.
##CAS REGISTRY NO=7774-44-9
##$NIST MASS SPEC NO=228912
##MOLFORM=C11 H20 O2
##MW=184
##$NIST SOURCE=MSDC
##XUNITS=M/Z
##YUNITS=RELATIVE INTENSITY
##XFACTOR=1
##YFACTOR=1
##FIRSTX=14
##LASTX=143
##FIRSTY=10
##MAXX=143
##MINX=14
##MAXY=9999
##MINY=10
##NPOINTS=78
##PEAK TABLE=(XY..XY)
14,10 15,99 17,10 18,40
26,50 27,1059 28,809 29,1569
30,40 31,90 37,10 38,40
39,1229 40,209 41,4229 42,539
43,1639 44,209 45,139 50,40
51,80 52,50 53,369 54,1789
55,4209 56,539 57,7589 58,349
59,349 60,1909 61,719 62,30
65,70 66,99 67,6249 68,349
69,279 70,70 71,539 72,119
73,40 74,60 77,80 78,20
79,179 80,80 81,1069 82,9999
83,4759 84,329 85,8989 86,529
87,1149 88,80 89,509 90,20
94,10 95,20 96,10 97,30
98,50 99,679 100,509 101,189
102,2239 103,9619 104,549 105,50
109,20 111,10 113,60 114,40
124,60 127,199 128,20 141,409
142,139 143,10
##END=
