##TITLE=2-Thiophenethiol
##JCAMP-DX=4.24
##DATA TYPE=MASS SPECTRUM
##ORIGIN=NIST Mass Spectrometry Data Center
##OWNER=NIST Mass Spectrometry Data Center
Collection (C) 2014 copyright by the U.S. Secretary of Commerce
on behalf of the United States of America. All rights reserved.
##CAS REGISTRY NO=7774-74-5
##$NIST MASS SPEC NO=333803
##MOLFORM=C4 H4 S2
##MW=116
##$NIST SOURCE=MSDC
##XUNITS=M/Z
##YUNITS=RELATIVE INTENSITY
##XFACTOR=1
##YFACTOR=1
##FIRSTX=25
##LASTX=120
##FIRSTY=20
##MAXX=120
##MINX=25
##MAXY=9999
##MINY=10
##NPOINTS=64
##PEAK TABLE=(XY..XY)
25,20 26,50 27,40 32,110
33,60 34,10 36,40 37,250
38,380 39,871 40,190 41,20
44,200 45,1631 46,100 47,90
48,30 49,80 50,130 51,80
52,130 56,180 57,951 58,1001
59,160 60,40 61,10 64,150
65,10 66,20 68,200 69,1221
70,370 71,6726 72,1001 73,340
74,40 76,210 77,140 78,20
79,20 80,60 81,440 82,470
83,280 84,300 85,20 86,10
88,150 89,60 90,110 91,10
92,10 100,10 101,40 112,30
113,10 114,70 115,801 116,9999
117,691 118,921 119,50 120,20
##END=
