##TITLE=2-(Dimethylamino)-1,3-dimethyltetrahydro-1,3,2-diazaphosphole 2-oxide
##JCAMP-DX=4.24
##DATA TYPE=MASS SPECTRUM
##ORIGIN=R. HOURIET, INST. CHIM. PHYS., EPFL, LAUSANNE, SWITZ.
##OWNER=NIST Mass Spectrometry Data Center
Collection (C) 2014 copyright by the U.S. Secretary of Commerce
on behalf of the United States of America. All rights reserved.
##CAS REGISTRY NO=7778-06-5
##$NIST MASS SPEC NO=104039
##MOLFORM=C6 H16 N3 O P
##MW=177
##$NIST SOURCE=MSDC
##XUNITS=M/Z
##YUNITS=RELATIVE INTENSITY
##XFACTOR=1
##YFACTOR=1
##FIRSTX=28
##LASTX=178
##FIRSTY=1030
##MAXX=178
##MINX=28
##MAXY=9999
##MINY=20
##NPOINTS=40
##PEAK TABLE=(XY..XY)
28,1030 30,140 32,240 41,80
42,2420 43,1230 44,9999 45,360
46,70 47,370 56,170 57,770
58,410 60,160 75,530 76,220
78,40 83,60 85,430 86,110
87,380 88,230 90,1270 91,1880
92,1980 93,1040 104,50 116,90
117,40 119,60 121,60 131,40
132,150 133,5990 134,3520 135,300
175,30 176,20 177,5280 178,350
##END=
