##TITLE=Benzeneethanol, .alpha.-(2-methylpropyl)-
##JCAMP-DX=4.24
##DATA TYPE=MASS SPECTRUM
##ORIGIN=W.Jennings, T.Shibamoto
##OWNER=NIST Mass Spectrometry Data Center
Collection (C) 2014 copyright by the U.S. Secretary of Commerce
on behalf of the United States of America. All rights reserved.
##CAS REGISTRY NO=7779-78-4
##$NIST MASS SPEC NO=285037
##MOLFORM=C12 H18 O
##MW=178
##$NIST SOURCE=MSDC
##XUNITS=M/Z
##YUNITS=RELATIVE INTENSITY
##XFACTOR=1
##YFACTOR=1
##FIRSTX=31
##LASTX=145
##FIRSTY=80
##MAXX=145
##MINX=31
##MAXY=9999
##MINY=80
##NPOINTS=30
##PEAK TABLE=(XY..XY)
31,80 41,1712 43,5935 44,210
45,5725 46,210 57,1141 58,80
65,190 68,80 69,6556 70,751
71,410 77,80 79,310 85,210
86,80 87,1832 88,80 90,921
91,5655 92,9999 93,3573 94,80
103,1251 104,190 117,330 121,2122
122,80 145,190
##END=
