##TITLE=2-Furanpropanoic acid, 3-methylbutyl ester
##JCAMP-DX=4.24
##DATA TYPE=MASS SPECTRUM
##ORIGIN=W.Jennings, T.Shibamoto
##OWNER=NIST Mass Spectrometry Data Center
Collection (C) 2014 copyright by the U.S. Secretary of Commerce
on behalf of the United States of America. All rights reserved.
##CAS REGISTRY NO=7779-67-1
##$NIST MASS SPEC NO=284967
##MOLFORM=C12 H18 O3
##MW=210
##$NIST SOURCE=MSDC
##XUNITS=M/Z
##YUNITS=RELATIVE INTENSITY
##XFACTOR=1
##YFACTOR=1
##FIRSTX=26
##LASTX=211
##FIRSTY=90
##MAXX=211
##MINX=26
##MAXY=9999
##MINY=70
##NPOINTS=36
##PEAK TABLE=(XY..XY)
26,90 29,220 41,651 42,210
43,9999 44,490 47,80 53,180
54,180 55,1832 63,180 65,70
66,70 67,831 68,831 69,721
70,721 71,6316 72,490 81,6095
82,1211 83,70 94,6496 95,2382
96,390 97,3093 98,190 123,2112
124,520 139,2092 140,4614 141,1031
142,591 153,90 210,2492 211,591
##END=
