##TITLE=Butanoic acid, 3-oxo-, 2-methylpropyl ester
##JCAMP-DX=4.24
##DATA TYPE=MASS SPECTRUM
##ORIGIN=Japan AIST/NIMC Database- Spectrum MS-IW-6320
##OWNER=NIST Mass Spectrometry Data Center
Collection (C) 2014 copyright by the U.S. Secretary of Commerce
on behalf of the United States of America. All rights reserved.
##CAS REGISTRY NO=7779-75-1
##$NIST MASS SPEC NO=233555
##MOLFORM=C8 H14 O3
##MW=158
##$NIST SOURCE=MSDC
##XUNITS=M/Z
##YUNITS=RELATIVE INTENSITY
##XFACTOR=1
##YFACTOR=1
##FIRSTX=15
##LASTX=159
##FIRSTY=379
##MAXX=159
##MINX=15
##MAXY=9999
##MINY=10
##NPOINTS=61
##PEAK TABLE=(XY..XY)
15,379 26,80 27,799 28,369
29,1649 30,50 31,349 32,10
33,299 37,20 38,50 39,649
40,129 41,2769 42,1029 43,9999
44,379 45,80 50,10 51,10
53,50 54,20 55,349 56,5539
57,4539 58,1269 59,149 60,1199
61,309 62,10 67,10 68,10
69,459 70,99 71,239 72,30
73,689 74,109 75,10 83,40
84,959 85,7019 86,339 87,299
88,50 98,10 100,20 101,90
102,889 103,4109 104,189 105,30
115,219 116,159 117,10 125,10
126,10 127,10 143,30 158,179
159,99
##END=
