##TITLE=Nonanoic acid, 3-methylbutyl ester
##JCAMP-DX=4.24
##DATA TYPE=MASS SPECTRUM
##ORIGIN=V.G. Zaikin, R.S.Borisov, TIPS RAS, Moscow, Russia
##OWNER=NIST Mass Spectrometry Data Center
Collection (C) 2014 copyright by the U.S. Secretary of Commerce
on behalf of the United States of America. All rights reserved.
##CAS REGISTRY NO=7779-70-6
##$NIST MASS SPEC NO=360664
##MOLFORM=C14 H28 O2
##MW=228
##$NIST SOURCE=MSDC
##XUNITS=M/Z
##YUNITS=RELATIVE INTENSITY
##XFACTOR=1
##YFACTOR=1
##FIRSTX=27
##LASTX=229
##FIRSTY=260
##MAXX=229
##MINX=27
##MAXY=9999
##MINY=20
##NPOINTS=62
##PEAK TABLE=(XY..XY)
27,260 28,200 29,510 39,190
40,40 41,1101 42,540 43,2943
44,110 45,60 53,70 54,80
55,1722 56,240 57,1201 58,60
59,30 60,260 61,120 67,130
68,90 69,500 70,9999 71,3773
72,200 73,380 74,20 81,170
83,140 84,180 85,60 87,160
88,20 89,80 95,20 96,50
97,150 98,110 99,30 101,120
103,50 111,30 112,70 115,410
116,20 123,90 129,230 130,120
131,40 139,50 141,2642 142,270
143,120 157,30 158,310 159,1141
160,100 185,220 186,30 213,50
228,20 229,20
##END=
