##TITLE=Isoamyl cinnamate
##JCAMP-DX=4.24
##DATA TYPE=MASS SPECTRUM
##ORIGIN=NIST Mass Spectrometry Data Center, 1994
##OWNER=NIST Mass Spectrometry Data Center
Collection (C) 2014 copyright by the U.S. Secretary of Commerce
on behalf of the United States of America. All rights reserved.
##CAS REGISTRY NO=7779-65-9
##$NIST MASS SPEC NO=133356
##MOLFORM=C14 H18 O2
##MW=218
##$NIST SOURCE=MSDC
##XUNITS=M/Z
##YUNITS=RELATIVE INTENSITY
##XFACTOR=1
##YFACTOR=1
##FIRSTX=14
##LASTX=219
##FIRSTY=28
##MAXX=219
##MINX=14
##MAXY=9999
##MINY=4
##NPOINTS=78
##PEAK TABLE=(XY..XY)
14,28 15,84 27,843 28,218
29,721 30,51 31,26 32,4
39,740 40,152 41,1483 42,574
43,1544 44,114 45,53 50,436
51,1327 52,209 53,196 54,53
55,1390 56,88 57,50 62,84
63,250 64,34 65,70 69,373
70,3690 71,308 74,200 75,268
76,607 77,3916 78,380 79,67
87,32 89,41 91,320 92,63
98,27 99,25 102,1508 103,5228
104,1017 105,146 106,22 107,132
115,46 116,31 117,53 118,29
119,70 120,172 126,29 127,206
128,30 129,103 130,29 131,9999
132,990 133,94 144,37 145,43
147,4589 148,4697 149,3412 150,357
151,36 157,23 161,46 162,55
172,64 175,156 201,37 203,48
218,690 219,116
##END=
