##TITLE=Benzene, 1,1'-(1-methylethylidene)bis-
##JCAMP-DX=4.24
##DATA TYPE=MASS SPECTRUM
##ORIGIN=NIST Mass Spectrometry Data Center, 1990.
##OWNER=NIST Mass Spectrometry Data Center
Collection (C) 2014 copyright by the U.S. Secretary of Commerce
on behalf of the United States of America. All rights reserved.
##CAS REGISTRY NO=778-22-3
##$NIST MASS SPEC NO=118465
##MOLFORM=C15 H16
##MW=196
##$NIST SOURCE=MSDC
##XUNITS=M/Z
##YUNITS=RELATIVE INTENSITY
##XFACTOR=1
##YFACTOR=1
##FIRSTX=14
##LASTX=198
##FIRSTY=20
##MAXX=198
##MINX=14
##MAXY=9999
##MINY=6
##NPOINTS=98
##PEAK TABLE=(XY..XY)
14,20 15,96 17,6 18,45
26,39 27,229 28,34 29,37
38,94 39,720 40,71 41,754
42,40 50,377 51,1253 52,197
53,129 58,18 62,99 63,459
64,110 65,346 66,37 69,80
71,14 74,134 75,238 76,625
77,2427 78,480 79,267 80,25
81,14 82,570 83,813 84,231
86,58 87,81 88,189 89,919
90,25 91,1601 92,153 93,15
94,15 95,18 96,47 97,22
98,57 99,26 101,109 102,420
103,3633 104,379 105,43 111,21
113,58 115,618 116,111 117,195
118,113 119,620 120,80 125,16
126,80 127,105 128,155 129,34
137,13 138,28 139,164 140,28
141,130 142,34 150,67 151,168
152,440 153,368 154,90 155,58
163,118 165,2138 166,2405 167,345
168,40 176,174 177,157 178,590
179,648 180,40 181,9999 182,1453
183,117 189,23 191,13 196,2185
197,436 198,38
##END=
