##TITLE=2-Propenoic acid, 3-phenyl-, 1-methylethyl ester
##JCAMP-DX=4.24
##DATA TYPE=MASS SPECTRUM
##OWNER=NIST Mass Spectrometry Data Center
Collection (C) 2014 copyright by the U.S. Secretary of Commerce
on behalf of the United States of America. All rights reserved.
##CAS REGISTRY NO=7780-06-5
##$NIST MASS SPEC NO=8197
##MOLFORM=C12 H14 O2
##MW=190
##$NIST SOURCE=MSDC
##XUNITS=M/Z
##YUNITS=RELATIVE INTENSITY
##XFACTOR=1
##YFACTOR=1
##FIRSTX=27
##LASTX=191
##FIRSTY=2622
##MAXX=191
##MINX=27
##MAXY=9999
##MINY=50
##NPOINTS=60
##PEAK TABLE=(XY..XY)
27,2622 28,1511 29,410 31,90
37,70 38,230 39,1411 40,170
41,1942 42,290 43,3593 44,210
45,90 49,60 50,1111 51,2853
52,480 53,200 59,1011 61,50
62,220 63,601 64,80 65,110
69,50 74,430 75,520 76,651
77,4434 78,510 79,100 87,50
90,50 91,621 92,120 101,210
102,1802 103,4404 104,2682 105,360
106,60 107,160 119,160 120,500
121,50 129,90 130,390 131,9999
132,1281 133,100 144,80 145,751
146,961 147,5295 148,3683 149,420
172,70 175,70 190,2692 191,360
##END=
