##TITLE=Ethyl 3-hydroxybenzoate
##JCAMP-DX=4.24
##DATA TYPE=MASS SPECTRUM
##ORIGIN=NIST Mass Spectrometry Data Center, 1994
##OWNER=NIST Mass Spectrometry Data Center
Collection (C) 2014 copyright by the U.S. Secretary of Commerce
on behalf of the United States of America. All rights reserved.
##CAS REGISTRY NO=7781-98-8
##$NIST MASS SPEC NO=133478
##MOLFORM=C9 H10 O3
##MW=166
##$NIST SOURCE=MSDC
##XUNITS=M/Z
##YUNITS=RELATIVE INTENSITY
##XFACTOR=1
##YFACTOR=1
##FIRSTX=14
##LASTX=168
##FIRSTY=10
##MAXX=168
##MINX=14
##MAXY=9999
##MINY=10
##NPOINTS=66
##PEAK TABLE=(XY..XY)
14,10 15,75 26,112 27,406
28,111 29,473 30,44 31,25
32,10 37,74 38,305 39,1324
40,61 41,20 42,41 43,89
44,24 45,107 46,25 49,21
50,140 51,114 52,20 53,321
54,25 55,55 61,82 62,255
63,726 64,518 65,2108 66,287
67,35 69,21 73,22 74,90
75,82 76,47 77,71 81,134
82,20 91,70 92,484 93,3284
94,680 95,65 103,12 107,28
109,36 110,26 119,66 121,9999
122,1136 123,112 138,2642 139,210
140,22 147,20 148,152 149,47
150,20 151,551 152,49 166,3353
167,296 168,33
##END=
