##TITLE=Deuterium
##JCAMP-DX=4.24
##DATA TYPE=MASS SPECTRUM
##ORIGIN=D.HENNEBERG, MAX-PLANCK INSTITUTE, MULHEIM, WEST GERMANY
##OWNER=NIST Mass Spectrometry Data Center
Collection (C) 2014 copyright by the U.S. Secretary of Commerce
on behalf of the United States of America. All rights reserved.
##CAS REGISTRY NO=7782-39-0
##$NIST MASS SPEC NO=61316
##MOLFORM=D2
##MW=4
##$NIST SOURCE=MSDC
##XUNITS=M/Z
##YUNITS=RELATIVE INTENSITY
##XFACTOR=1
##YFACTOR=1
##FIRSTX=2
##LASTX=4
##FIRSTY=159
##MAXX=4
##MINX=2
##MAXY=9999
##MINY=159
##NPOINTS=2
##PEAK TABLE=(XY..XY)
2,159 4,9999
##END=
