##TITLE=Hydrogen azide
##JCAMP-DX=4.24
##DATA TYPE=MASS SPECTRUM
##OWNER=NIST Mass Spectrometry Data Center
Collection (C) 2014 copyright by the U.S. Secretary of Commerce
on behalf of the United States of America. All rights reserved.
##CAS REGISTRY NO=7782-79-8
##$NIST MASS SPEC NO=60
##MOLFORM=H N3
##MW=43
##$NIST SOURCE=MSDC
##XUNITS=M/Z
##YUNITS=RELATIVE INTENSITY
##XFACTOR=1
##YFACTOR=1
##FIRSTX=14
##LASTX=45
##FIRSTY=2532
##MAXX=45
##MINX=14
##MAXY=9999
##MINY=10
##NPOINTS=10
##PEAK TABLE=(XY..XY)
14,2532 15,4774 16,150 28,2823
29,1702 30,40 42,821 43,9999
44,310 45,10
##END=
