##TITLE=Chlorine
##JCAMP-DX=4.24
##DATA TYPE=MASS SPECTRUM
##ORIGIN=Crystal Harrison, SCOTT SPECIALTY GASES Inc., NJ
##OWNER=NIST Mass Spectrometry Data Center
Collection (C) 2014 copyright by the U.S. Secretary of Commerce
on behalf of the United States of America. All rights reserved.
##CAS REGISTRY NO=7782-50-5
##$NIST MASS SPEC NO=245871
##MOLFORM=Cl2
##MW=70
##$NIST SOURCE=MSDC
##XUNITS=M/Z
##YUNITS=RELATIVE INTENSITY
##XFACTOR=1
##YFACTOR=1
##FIRSTX=35
##LASTX=74
##FIRSTY=8287
##MAXX=74
##MINX=35
##MAXY=9999
##MINY=1020
##NPOINTS=5
##PEAK TABLE=(XY..XY)
35,8287 37,2642 70,9999 72,6385
74,1020
##END=
