##TITLE=Nitrogen trifluoride
##JCAMP-DX=4.24
##DATA TYPE=MASS SPECTRUM
##OWNER=NIST Mass Spectrometry Data Center
Collection (C) 2014 copyright by the U.S. Secretary of Commerce
on behalf of the United States of America. All rights reserved.
##CAS REGISTRY NO=7783-54-2
##$NIST MASS SPEC NO=279
##MOLFORM=F3 N
##MW=71
##$NIST SOURCE=MSDC
##XUNITS=M/Z
##YUNITS=RELATIVE INTENSITY
##XFACTOR=1
##YFACTOR=1
##FIRSTX=14
##LASTX=72
##FIRSTY=881
##MAXX=72
##MINX=14
##MAXY=9999
##MINY=10
##NPOINTS=10
##PEAK TABLE=(XY..XY)
14,881 15,10 19,611 26,10
33,3803 34,10 52,9999 53,40
71,3283 72,10
##END=
