##TITLE=Tungsten hexafluoride
##JCAMP-DX=4.24
##DATA TYPE=MASS SPECTRUM
##ORIGIN=GOODYEAR ATOMIC CORPORATION, PORTSMOUTH, OHIO
##OWNER=NIST Mass Spectrometry Data Center
Collection (C) 2014 copyright by the U.S. Secretary of Commerce
on behalf of the United States of America. All rights reserved.
##CAS REGISTRY NO=7783-82-6
##$NIST MASS SPEC NO=34215
##MOLFORM=F6 W
##MW=298
##$NIST SOURCE=MSDC
##XUNITS=M/Z
##YUNITS=RELATIVE INTENSITY
##XFACTOR=1
##YFACTOR=1
##FIRSTX=110
##LASTX=281
##FIRSTY=68
##MAXX=281
##MINX=110
##MAXY=9999
##MINY=68
##NPOINTS=33
##PEAK TABLE=(XY..XY)
110,68 111,79 112,73 120,86
129,274 130,314 131,298 139,276
182,297 183,160 184,346 186,409
201,448 202,265 203,536 205,503
220,1060 221,586 222,1220 224,1150
239,1100 240,617 241,1290 243,1200
258,1220 259,667 260,1430 262,1330
275,800 277,8640 278,4640 279,9999
281,9330
##END=
