##TITLE=Oxygen difluoride
##JCAMP-DX=4.24
##DATA TYPE=MASS SPECTRUM
##OWNER=NIST Mass Spectrometry Data Center
Collection (C) 2014 copyright by the U.S. Secretary of Commerce
on behalf of the United States of America. All rights reserved.
##CAS REGISTRY NO=7783-41-7
##$NIST MASS SPEC NO=99
##MOLFORM=F2 O
##MW=54
##$NIST SOURCE=MSDC
##XUNITS=M/Z
##YUNITS=RELATIVE INTENSITY
##XFACTOR=1
##YFACTOR=1
##FIRSTX=16
##LASTX=55
##FIRSTY=4414
##MAXX=55
##MINX=16
##MAXY=9999
##MINY=10
##NPOINTS=6
##PEAK TABLE=(XY..XY)
16,4414 19,971 35,9999 36,10
54,6206 55,10
##END=
