##TITLE=Uranium hexafluoride
##JCAMP-DX=4.24
##DATA TYPE=MASS SPECTRUM
##ORIGIN=GOODYEAR ATOMIC CORPORATION, PORTSMOUTH, OHIO
##OWNER=NIST Mass Spectrometry Data Center
Collection (C) 2014 copyright by the U.S. Secretary of Commerce
on behalf of the United States of America. All rights reserved.
##CAS REGISTRY NO=7783-81-5
##$NIST MASS SPEC NO=34216
##MOLFORM=F6 U
##MW=352
##$NIST SOURCE=MSDC
##XUNITS=M/Z
##YUNITS=RELATIVE INTENSITY
##XFACTOR=1
##YFACTOR=1
##FIRSTX=138
##LASTX=352
##FIRSTY=345
##MAXX=352
##MINX=138
##MAXY=9999
##MINY=4
##NPOINTS=15
##PEAK TABLE=(XY..XY)
138,345 157,279 235,4 238,768
254,11 257,1610 273,20 276,3060
292,18 295,2680 311,18 314,2610
330,73 333,9999 352,38
##END=
