##TITLE=Trisilane
##JCAMP-DX=4.24
##DATA TYPE=MASS SPECTRUM
##ORIGIN=J.W.PINSON UNIV. S. MISSISSIPPI, HATTIESBURG, MISS., USA
##OWNER=NIST Mass Spectrometry Data Center
Collection (C) 2014 copyright by the U.S. Secretary of Commerce
on behalf of the United States of America. All rights reserved.
##CAS REGISTRY NO=7783-26-8
##$NIST MASS SPEC NO=37329
##MOLFORM=H8 Si3
##MW=92
##$NIST SOURCE=MSDC
##XUNITS=M/Z
##YUNITS=RELATIVE INTENSITY
##XFACTOR=1
##YFACTOR=1
##FIRSTX=27
##LASTX=94
##FIRSTY=720
##MAXX=94
##MINX=27
##MAXY=9999
##MINY=50
##NPOINTS=23
##PEAK TABLE=(XY..XY)
27,720 28,880 29,180 30,300
56,1390 57,2290 58,5660 59,2050
60,9999 61,1810 62,600 63,60
84,1070 85,1270 86,460 87,360
88,490 89,430 90,590 91,540
92,480 93,110 94,50
##END=
