##TITLE=Molybdenum hexafluoride
##JCAMP-DX=4.24
##DATA TYPE=MASS SPECTRUM
##ORIGIN=GOODYEAR ATOMIC CORPORATION, PORTSMOUTH, OHIO
##OWNER=NIST Mass Spectrometry Data Center
Collection (C) 2014 copyright by the U.S. Secretary of Commerce
on behalf of the United States of America. All rights reserved.
##CAS REGISTRY NO=7783-77-9
##$NIST MASS SPEC NO=34214
##MOLFORM=F6 Mo
##MW=212
##$NIST SOURCE=MSDC
##XUNITS=M/Z
##YUNITS=RELATIVE INTENSITY
##XFACTOR=1
##YFACTOR=1
##FIRSTX=46
##LASTX=195
##FIRSTY=136
##MAXX=195
##MINX=46
##MAXY=9999
##MINY=84
##NPOINTS=61
##PEAK TABLE=(XY..XY)
46,136 47,104 48,161 49,238
50,84 57,248 58,131 65,322
66,208 67,347 68,496 69,248
76,459 77,236 84,402 85,385
86,447 87,657 88,248 92,1140
94,719 95,1240 96,1310 97,744
98,1880 100,769 111,1250 113,777
114,1360 115,1400 116,816 117,2010
119,820 130,1180 132,1050 133,1820
134,1880 135,1100 136,2720 138,1100
149,1550 151,980 152,1660 153,1750
154,1020 155,2510 157,1020 168,2180
170,1340 171,2310 172,2410 173,1390
174,3500 176,1400 187,5910 189,3700
190,6350 191,6670 192,3870 193,9999
195,3920
##END=
