##TITLE=Cyclohexanol, 5-methyl-2-(1-methylethenyl)-
##JCAMP-DX=4.24
##DATA TYPE=MASS SPECTRUM
##ORIGIN=RESEARCH LABORATORY, STATE ALCOHOL MONOPOLY ALKO, HELSINKI, FINLAND; IRMA NYKANEN ET AL
##OWNER=NIST Mass Spectrometry Data Center
Collection (C) 2014 copyright by the U.S. Secretary of Commerce
on behalf of the United States of America. All rights reserved.
##CAS REGISTRY NO=7786-67-6
##$NIST MASS SPEC NO=77591
##MOLFORM=C10 H18 O
##MW=154
##$NIST SOURCE=MSDC
##XUNITS=M/Z
##YUNITS=RELATIVE INTENSITY
##XFACTOR=1
##YFACTOR=1
##FIRSTX=26
##LASTX=155
##FIRSTY=67
##MAXX=155
##MINX=26
##MAXY=9999
##MINY=33
##NPOINTS=82
##PEAK TABLE=(XY..XY)
26,67 27,2000 28,77 29,2271
30,67 31,576 32,65 38,135
39,3322 40,949 41,9999 42,1288
43,3186 44,1016 45,271 50,135
51,508 52,271 53,2881 54,677
55,7220 56,5254 57,1661 58,271
59,542 63,101 65,813 66,406
67,8847 68,7186 69,8067 70,2000
71,7389 72,915 73,33 77,1288
78,305 79,3966 80,2440 81,8372
82,1966 83,3355 84,5559 85,1559
86,169 91,1186 92,1322 93,5661
94,2644 95,5627 96,2949 97,1830
98,1898 99,338 103,67 105,406
106,169 107,2305 108,847 109,2000
110,2237 111,3254 112,1559 119,101
121,5423 122,610 123,949 124,135
125,203 126,67 135,33 136,2406
137,372 138,33 139,1694 140,203
150,33 151,33 152,203 153,33
154,644 155,67
##END=
