##TITLE=Chloromethyl nonanoate
##JCAMP-DX=4.24
##DATA TYPE=MASS SPECTRUM
##ORIGIN=ASES Database, Dalian Institute, P.R. China
##OWNER=NIST Mass Spectrometry Data Center
Collection (C) 2014 copyright by the U.S. Secretary of Commerce
on behalf of the United States of America. All rights reserved.
##CAS REGISTRY NO=77877-95-3
##$NIST MASS SPEC NO=145488
##MOLFORM=C10 H19 Cl O2
##MW=206
##$NIST SOURCE=MSDC
##XUNITS=M/Z
##YUNITS=RELATIVE INTENSITY
##XFACTOR=1
##YFACTOR=1
##FIRSTX=39
##LASTX=206
##FIRSTY=1281
##MAXX=206
##MINX=39
##MAXY=9999
##MINY=50
##NPOINTS=43
##PEAK TABLE=(XY..XY)
39,1281 41,6025 42,2402 43,6225
44,600 49,1131 51,350 55,7156
56,1941 57,5955 69,2962 70,1291
71,1761 72,6275 73,1561 81,1181
83,1801 84,1781 85,2952 96,1551
97,1771 98,4774 99,700 108,9999
109,1311 110,3433 111,1321 112,870
121,3683 122,590 123,1241 129,540
135,600 136,50 137,50 140,1851
141,5334 142,600 163,1181 165,300
177,1010 179,240 206,120
##END=
