##TITLE=Chloromethyl undecanoate
##JCAMP-DX=4.24
##DATA TYPE=MASS SPECTRUM
##ORIGIN=ASES Database, Dalian Institute, P.R. China
##OWNER=NIST Mass Spectrometry Data Center
Collection (C) 2014 copyright by the U.S. Secretary of Commerce
on behalf of the United States of America. All rights reserved.
##CAS REGISTRY NO=77877-96-4
##$NIST MASS SPEC NO=145496
##MOLFORM=C12 H23 Cl O2
##MW=234
##$NIST SOURCE=MSDC
##XUNITS=M/Z
##YUNITS=RELATIVE INTENSITY
##XFACTOR=1
##YFACTOR=1
##FIRSTX=41
##LASTX=236
##FIRSTY=7376
##MAXX=236
##MINX=41
##MAXY=9999
##MINY=50
##NPOINTS=50
##PEAK TABLE=(XY..XY)
41,7376 43,9508 55,9668 57,5384
69,4003 71,3593 72,6275 73,1080
81,1030 82,1261 83,3072 84,2892
85,4874 86,290 95,1141 96,600
97,2422 98,4333 99,540 108,9999
109,1581 110,3122 111,1801 112,5234
113,410 121,4494 122,470 123,1321
124,2222 125,1141 126,2222 127,420
135,900 137,540 149,660 150,600
151,110 163,600 164,50 165,120
168,660 169,4704 170,590 177,1511
179,590 191,1181 193,290 205,110
234,1191 236,290
##END=
