##TITLE=Digermane, 1,1,1-triethyl-2,2,2-trimethyl-
##JCAMP-DX=4.24
##DATA TYPE=MASS SPECTRUM
##OWNER=NIST Mass Spectrometry Data Center
Collection (C) 2014 copyright by the U.S. Secretary of Commerce
on behalf of the United States of America. All rights reserved.
##CAS REGISTRY NO=7788-37-6
##$NIST MASS SPEC NO=13535
##MOLFORM=C9 H24 Ge2
##MW=280
##$NIST SOURCE=MSDC
##XUNITS=M/Z
##YUNITS=RELATIVE INTENSITY
##XFACTOR=1
##YFACTOR=1
##FIRSTX=74
##LASTX=280
##FIRSTY=290
##MAXX=280
##MINX=74
##MAXY=9999
##MINY=140
##NPOINTS=30
##PEAK TABLE=(XY..XY)
74,290 75,721 77,430 89,3093
91,1732 103,1802 104,581 105,4894
119,5405 133,4604 147,941 148,140
149,140 161,2012 163,651 165,220
177,581 179,941 181,1221 193,941
195,9999 196,721 209,3453 223,8998
224,721 237,1802 251,9649 252,651
265,861 280,1942
##END=
