##TITLE=1-Heneicosyl formate
##JCAMP-DX=4.24
##DATA TYPE=MASS SPECTRUM
##ORIGIN=B.V. BURGER, DEP. CHEM., UNIV. STELLENBOSCH, SOUTH AFRIC
##OWNER=NIST Mass Spectrometry Data Center
Collection (C) 2014 copyright by the U.S. Secretary of Commerce
on behalf of the United States of America. All rights reserved.
##CAS REGISTRY NO=77899-03-7
##$NIST MASS SPEC NO=72853
##MOLFORM=C22 H44 O2
##MW=340
##$NIST SOURCE=MSDC
##XUNITS=M/Z
##YUNITS=RELATIVE INTENSITY
##XFACTOR=1
##YFACTOR=1
##FIRSTX=41
##LASTX=340
##FIRSTY=4060
##MAXX=340
##MINX=41
##MAXY=9999
##MINY=10
##NPOINTS=66
##PEAK TABLE=(XY..XY)
41,4060 42,1490 43,9730 47,110
53,140 54,1110 55,7680 56,4920
57,9999 58,550 60,120 66,170
67,1420 68,2480 69,8230 70,4440
71,5330 72,270 73,200 79,130
80,130 81,1050 82,3940 83,8590
84,3300 85,3050 86,160 95,550
96,2070 97,7100 98,1970 99,740
109,360 110,890 111,4110 112,1250
113,450 123,160 124,490 125,2000
126,830 127,270 137,140 138,290
139,800 140,570 141,170 152,250
153,500 154,490 166,210 167,310
168,290 180,120 181,210 182,240
194,120 195,160 196,230 210,140
222,120 266,250 294,530 295,90
322,80 340,10
##END=
