##TITLE=2-Hydroxyhexadecyl butanoate
##JCAMP-DX=4.24
##DATA TYPE=MASS SPECTRUM
##ORIGIN=B.V. BURGER, DEP. CHEM., UNIV. STELLENBOSCH, SOUTH AFRIC
##OWNER=NIST Mass Spectrometry Data Center
Collection (C) 2014 copyright by the U.S. Secretary of Commerce
on behalf of the United States of America. All rights reserved.
##CAS REGISTRY NO=77899-01-5
##$NIST MASS SPEC NO=72852
##MOLFORM=C20 H40 O3
##MW=328
##$NIST SOURCE=MSDC
##XUNITS=M/Z
##YUNITS=RELATIVE INTENSITY
##XFACTOR=1
##YFACTOR=1
##FIRSTX=41
##LASTX=328
##FIRSTY=4540
##MAXX=328
##MINX=41
##MAXY=9999
##MINY=10
##NPOINTS=70
##PEAK TABLE=(XY..XY)
41,4540 42,1230 43,9750 45,1830
53,300 54,830 55,4280 56,1650
57,3610 58,1830 59,1020 60,370
61,180 66,200 67,1770 68,1410
69,3300 70,1240 71,9999 72,610
73,930 74,750 75,390 79,340
80,270 81,1770 82,2140 83,2160
84,480 85,930 86,110 87,1870
88,920 89,1070 93,260 94,270
95,1370 96,1400 97,1730 98,390
99,200 101,200 102,3780 103,740
107,140 108,140 109,720 110,460
111,820 112,200 113,140 117,120
121,180 123,370 124,320 125,290
126,160 129,130 131,560 135,120
137,210 138,130 139,140 149,100
180,130 222,110 227,370 267,70
310,80 328,10
##END=
