##TITLE=Propane, 1,1,3-triethoxy-
##JCAMP-DX=4.24
##DATA TYPE=MASS SPECTRUM
##ORIGIN=Chuck Anderson, Aldrich Chemical Co.
##OWNER=NIST Mass Spectrometry Data Center
Collection (C) 2014 copyright by the U.S. Secretary of Commerce
on behalf of the United States of America. All rights reserved.
##CAS REGISTRY NO=7789-92-6
##$NIST MASS SPEC NO=108265
##MOLFORM=C9 H20 O3
##MW=176
##$NIST SOURCE=MSDC
##XUNITS=M/Z
##YUNITS=RELATIVE INTENSITY
##XFACTOR=1
##YFACTOR=1
##FIRSTX=14
##LASTX=175
##FIRSTY=13
##MAXX=175
##MINX=14
##MAXY=9999
##MINY=5
##NPOINTS=60
##PEAK TABLE=(XY..XY)
14,13 15,107 16,9 19,285
25,6 26,101 27,1011 28,407
29,3094 30,190 31,3333 32,42
33,13 38,10 39,124 40,59
41,675 42,161 43,1011 44,833
45,3142 47,8475 48,101 49,35
53,10 54,11 55,285 56,116
57,2130 58,1345 59,9999 60,366
61,72 69,16 70,8 71,226
72,202 73,1011 75,5570 76,171
77,26 83,32 84,5 85,964
86,952 87,6380 88,318 89,37
101,729 103,8094 104,401 105,41
129,135 130,279 131,1130 132,86
133,6 147,377 148,29 175,22
##END=
