##TITLE=(E,E,E)-3,7,11,15-Tetramethylhexadeca-1,3,6,10,14-pentaene
##JCAMP-DX=4.24
##DATA TYPE=MASS SPECTRUM
##ORIGIN=B.V. BURGER, DEP. CHEM., UNIV. STELLENBOSCH
##OWNER=NIST Mass Spectrometry Data Center
Collection (C) 2014 copyright by the U.S. Secretary of Commerce
on behalf of the United States of America. All rights reserved.
##CAS REGISTRY NO=77898-97-6
##$NIST MASS SPEC NO=72849
##MOLFORM=C20 H32
##MW=272
##$NIST SOURCE=MSDC
##XUNITS=M/Z
##YUNITS=RELATIVE INTENSITY
##XFACTOR=1
##YFACTOR=1
##FIRSTX=41
##LASTX=272
##FIRSTY=5840
##MAXX=272
##MINX=41
##MAXY=9999
##MINY=40
##NPOINTS=69
##PEAK TABLE=(XY..XY)
41,5840 42,270 43,1470 51,120
53,920 55,2870 56,250 57,380
65,330 66,140 67,1260 68,460
69,9999 70,710 71,110 77,1280
78,200 79,2230 80,1130 81,5060
82,560 83,290 91,1890 92,610
93,5020 94,660 95,1390 96,190
97,160 103,130 105,1860 106,400
107,2820 108,480 109,970 110,140
117,250 119,1860 120,520 121,990
122,290 123,520 131,270 132,560
133,710 134,1350 135,1510 136,640
137,370 145,300 146,130 147,510
148,230 149,200 157,100 159,260
161,330 162,110 185,210 187,170
188,110 189,180 190,100 191,570
192,130 203,140 229,140 257,40
272,180
##END=
