##TITLE=.alpha.-Methylstilbene
##JCAMP-DX=4.24
##DATA TYPE=MASS SPECTRUM
##ORIGIN=NIST Mass Spectrometry Data Center
##OWNER=NIST Mass Spectrometry Data Center
Collection (C) 2014 copyright by the U.S. Secretary of Commerce
on behalf of the United States of America. All rights reserved.
##CAS REGISTRY NO=779-51-1
##$NIST MASS SPEC NO=341266
##MOLFORM=C15 H14
##MW=194
##$NIST SOURCE=MSDC
##XUNITS=M/Z
##YUNITS=RELATIVE INTENSITY
##XFACTOR=1
##YFACTOR=1
##FIRSTX=27
##LASTX=196
##FIRSTY=80
##MAXX=196
##MINX=27
##MAXY=9999
##MINY=10
##NPOINTS=94
##PEAK TABLE=(XY..XY)
27,80 38,40 39,310 40,10
41,30 50,220 51,651 52,130
53,30 57,10 61,20 62,120
63,460 64,80 65,410 66,20
69,50 70,10 74,140 75,200
76,460 77,841 78,200 79,20
83,360 85,10 86,60 87,110
88,240 89,1121 91,941 92,100
94,240 96,430 97,150 98,50
99,30 100,20 101,60 102,300
103,1091 104,90 110,10 111,20
113,90 114,80 115,3133 116,891
117,300 118,20 122,10 125,20
126,150 127,130 128,220 129,40
137,20 138,20 139,250 140,30
141,70 142,10 149,10 150,140
151,370 152,941 153,230 154,40
155,10 162,20 163,160 164,170
165,1421 166,270 167,170 168,20
174,20 175,40 176,631 177,561
178,5885 179,9999 180,1451 181,90
187,40 188,40 189,470 190,200
191,470 192,260 193,1712 194,8217
195,1331 196,90
##END=
