##TITLE=Antimony triiodide
##JCAMP-DX=4.24
##DATA TYPE=MASS SPECTRUM
##ORIGIN=K. MATSUMOTO, DEP. SYNTH. CHEM., NAGOYA UNIV., CHIKUSA-KU,JP+
##OWNER=NIST Mass Spectrometry Data Center
Collection (C) 2014 copyright by the U.S. Secretary of Commerce
on behalf of the United States of America. All rights reserved.
##CAS REGISTRY NO=7790-44-5
##$NIST MASS SPEC NO=90549
##MOLFORM=I3 Sb
##MW=502
##$NIST SOURCE=MSDC
##XUNITS=M/Z
##YUNITS=RELATIVE INTENSITY
##XFACTOR=1
##YFACTOR=1
##FIRSTX=121
##LASTX=504
##FIRSTY=2860
##MAXX=504
##MINX=121
##MAXY=9999
##MINY=660
##NPOINTS=10
##PEAK TABLE=(XY..XY)
121,2860 123,2200 127,9999 248,2420
250,1890 254,660 375,4290 377,3190
502,3630 504,2640
##END=
