##TITLE=(4R,5S)-(+)-4-Methyl-5-phenyl-2-oxazolidinone
##JCAMP-DX=4.24
##DATA TYPE=MASS SPECTRUM
##ORIGIN=NIST Mass Spectrometry Data Center, 1994
##OWNER=NIST Mass Spectrometry Data Center
Collection (C) 2014 copyright by the U.S. Secretary of Commerce
on behalf of the United States of America. All rights reserved.
##CAS REGISTRY NO=77943-39-6
##$NIST MASS SPEC NO=136029
##MOLFORM=C10 H11 N O2
##MW=177
##$NIST SOURCE=MSDC
##XUNITS=M/Z
##YUNITS=RELATIVE INTENSITY
##XFACTOR=1
##YFACTOR=1
##FIRSTX=12
##LASTX=178
##FIRSTY=21
##MAXX=178
##MINX=12
##MAXY=9999
##MINY=21
##NPOINTS=68
##PEAK TABLE=(XY..XY)
12,21 15,466 18,80 26,156
27,692 28,2288 29,273 30,59
37,56 38,217 39,918 40,222
41,239 42,1468 43,1200 44,557
49,42 50,770 51,1756 52,467
53,128 54,52 55,87 56,127
57,44 59,222 61,64 62,262
63,725 64,256 65,511 66,49
70,153 71,26 73,32 74,147
75,152 76,207 77,2484 78,642
79,5786 80,407 81,43 86,39
87,38 89,951 90,588 91,936
92,79 102,50 103,141 104,154
105,1468 106,50 107,9999 108,795
109,64 115,139 116,72 117,431
118,326 119,44 130,79 131,34
132,121 133,53 177,1090 178,137
##END=
