##TITLE=2-Methyl-2,3-pentanediol
##JCAMP-DX=4.24
##DATA TYPE=MASS SPECTRUM
##ORIGIN=R.ERRA BALSELLS,DEP. QUIM. ORG.,CITY UNIV. BUENOS AIRES,ARGENT
##OWNER=NIST Mass Spectrometry Data Center
Collection (C) 2014 copyright by the U.S. Secretary of Commerce
on behalf of the United States of America. All rights reserved.
##CAS REGISTRY NO=7795-80-4
##$NIST MASS SPEC NO=99081
##MOLFORM=C6 H14 O2
##MW=118
##$NIST SOURCE=MSDC
##XUNITS=M/Z
##YUNITS=RELATIVE INTENSITY
##XFACTOR=1
##YFACTOR=1
##FIRSTX=41
##LASTX=89
##FIRSTY=1900
##MAXX=89
##MINX=41
##MAXY=9999
##MINY=300
##NPOINTS=12
##PEAK TABLE=(XY..XY)
41,1900 43,3700 44,800 45,1500
55,700 57,1100 58,1500 59,9999
70,700 71,1100 85,300 89,400
##END=
