##TITLE=Propane, 1,1-dichloro-1-fluoro-
##JCAMP-DX=4.24
##DATA TYPE=MASS SPECTRUM
##OWNER=NIST Mass Spectrometry Data Center
Collection (C) 2014 copyright by the U.S. Secretary of Commerce
on behalf of the United States of America. All rights reserved.
##CAS REGISTRY NO=7799-56-6
##$NIST MASS SPEC NO=20826
##MOLFORM=C3 H5 Cl2 F
##MW=130
##$NIST SOURCE=MSDC
##XUNITS=M/Z
##YUNITS=RELATIVE INTENSITY
##XFACTOR=1
##YFACTOR=1
##FIRSTX=12
##LASTX=119
##FIRSTY=10
##MAXX=119
##MINX=12
##MAXY=9999
##MINY=10
##NPOINTS=90
##PEAK TABLE=(XY..XY)
12,10 13,10 14,40 15,130
24,10 25,60 26,370 27,1621
28,420 29,3613 30,80 31,420
32,30 33,430 35,110 36,180
37,360 38,260 39,811 40,60
41,80 42,10 43,20 44,110
45,320 46,60 47,180 48,50
49,701 50,10 51,230 53,10
54,10 55,30 56,110 57,450
58,70 59,5185 60,270 61,170
62,40 63,70 64,10 65,10
66,180 67,1481 68,60 69,440
70,10 71,20 72,50 73,110
74,40 75,631 76,30 77,220
78,20 79,240 80,240 81,80
82,150 83,120 84,50 85,80
87,10 91,70 92,10 93,330
94,250 95,9999 96,420 97,3243
98,120 99,20 101,1151 102,20
103,741 104,10 105,120 109,50
110,160 111,40 112,100 113,10
114,40 115,120 116,20 117,80
118,10 119,10
##END=
