##TITLE=Silane, ethenyltriethoxy-
##JCAMP-DX=4.24
##DATA TYPE=MASS SPECTRUM
##ORIGIN=Institute of Organic Chemistry, Novosibirsk, USSR 1988
##OWNER=NIST Mass Spectrometry Data Center
Collection (C) 2014 copyright by the U.S. Secretary of Commerce
on behalf of the United States of America. All rights reserved.
##CAS REGISTRY NO=78-08-0
##$NIST MASS SPEC NO=109985
##MOLFORM=C8 H18 O3 Si
##MW=190
##$NIST SOURCE=MSDC
##XUNITS=M/Z
##YUNITS=RELATIVE INTENSITY
##XFACTOR=1
##YFACTOR=1
##FIRSTX=29
##LASTX=190
##FIRSTY=409
##MAXX=190
##MINX=29
##MAXY=9999
##MINY=79
##NPOINTS=56
##PEAK TABLE=(XY..XY)
29,409 31,99 42,109 43,139
44,219 45,779 62,629 63,2809
64,89 73,1719 74,79 75,99
77,289 79,2529 80,209 87,429
89,2519 90,509 91,1399 98,89
99,119 100,209 101,2819 102,379
103,559 105,189 107,1429 115,379
116,99 117,2229 118,879 119,3419
120,409 121,199 131,4719 132,609
133,579 135,7119 136,829 137,379
144,179 145,9999 146,3139 147,2579
148,389 149,259 161,1519 162,319
163,4509 164,579 165,189 175,7119
176,939 177,379 189,419 190,109
##END=
