##TITLE=Pentaerythritol Tetranitrate
##JCAMP-DX=4.24
##DATA TYPE=MASS SPECTRUM
##ORIGIN=C. BRUNNEE, KRUPP, BREMEN, GERMANY
##OWNER=NIST Mass Spectrometry Data Center
Collection (C) 2014 copyright by the U.S. Secretary of Commerce
on behalf of the United States of America. All rights reserved.
##CAS REGISTRY NO=78-11-5
##$NIST MASS SPEC NO=14982
##MOLFORM=C5 H8 N4 O12
##MW=316
##$NIST SOURCE=MSDC
##XUNITS=M/Z
##YUNITS=RELATIVE INTENSITY
##XFACTOR=1
##YFACTOR=1
##FIRSTX=41
##LASTX=240
##FIRSTY=73
##MAXX=240
##MINX=41
##MAXY=9999
##MINY=48
##NPOINTS=33
##PEAK TABLE=(XY..XY)
41,73 42,97 43,487 44,48
46,8853 47,487 48,243 53,97
54,219 55,1365 56,902 57,1390
58,292 60,780 61,195 68,97
69,195 70,97 71,341 72,97
73,195 76,9999 77,121 78,48
83,73 84,48 85,268 88,73
97,439 99,243 149,121 194,97
240,73
##END=
