##TITLE=2,4,8,10-Tetraoxaspiro[5.5]undecane, 3,9-diethenyl-
##JCAMP-DX=4.24
##DATA TYPE=MASS SPECTRUM
##ORIGIN=Japan AIST/NIMC Database- Spectrum MS-NW-4421
##OWNER=NIST Mass Spectrometry Data Center
Collection (C) 2014 copyright by the U.S. Secretary of Commerce
on behalf of the United States of America. All rights reserved.
##CAS REGISTRY NO=78-19-3
##$NIST MASS SPEC NO=232493
##MOLFORM=C11 H16 O4
##MW=212
##$NIST SOURCE=MSDC
##XUNITS=M/Z
##YUNITS=RELATIVE INTENSITY
##XFACTOR=1
##YFACTOR=1
##FIRSTX=14
##LASTX=214
##FIRSTY=40
##MAXX=214
##MINX=14
##MAXY=9999
##MINY=10
##NPOINTS=128
##PEAK TABLE=(XY..XY)
14,40 15,169 16,20 17,10
18,30 25,30 26,509 27,3219
28,1619 29,1829 30,99 31,1829
32,80 33,10 37,60 38,229
39,4459 40,2039 41,4869 42,1749
43,1089 44,119 45,259 46,10
47,20 48,20 49,20 50,30
51,90 52,80 53,1749 54,2769
55,8889 56,7129 57,6249 58,299
59,70 60,10 61,10 63,20
65,70 66,70 67,609 68,309
69,2669 70,1729 71,2499 72,269
73,179 74,109 75,20 77,70
78,30 79,369 80,249 81,349
82,269 83,9999 84,869 85,309
86,70 87,60 90,10 91,40
92,50 93,90 94,30 95,919
96,129 97,359 98,99 99,3779
100,319 101,149 102,10 105,90
106,20 107,90 108,199 109,259
110,50 111,189 112,90 113,209
114,40 115,30 119,10 121,20
122,20 123,20 124,10 125,2569
126,1999 127,289 128,50 129,849
130,50 131,10 137,10 138,10
139,40 140,10 141,10 142,10
143,20 145,169 146,10 147,20
153,10 155,509 156,2729 157,279
158,50 159,10 170,40 171,10
173,109 174,10 184,10 185,3089
186,319 187,80 195,10 197,10
211,1119 212,709 213,119 214,40
##END=
