##TITLE=Emylcamate
##JCAMP-DX=4.24
##DATA TYPE=MASS SPECTRUM
##ORIGIN=MI-0060
##OWNER=NIST Mass Spectrometry Data Center
Collection (C) 2014 copyright by the U.S. Secretary of Commerce
on behalf of the United States of America. All rights reserved.
##CAS REGISTRY NO=78-28-4
##$NIST MASS SPEC NO=4216
##MOLFORM=C7 H15 N O2
##MW=145
##$NIST SOURCE=MSDC
##XUNITS=M/Z
##YUNITS=RELATIVE INTENSITY
##XFACTOR=1
##YFACTOR=1
##FIRSTX=26
##LASTX=130
##FIRSTY=190
##MAXX=130
##MINX=26
##MAXY=9999
##MINY=10
##NPOINTS=75
##PEAK TABLE=(XY..XY)
26,190 27,1441 28,1541 29,1591
30,90 31,440 32,160 38,90
39,811 40,210 41,2813 42,591
43,5045 44,2392 45,1091 46,90
50,90 51,130 52,80 53,390
54,190 55,3593 56,1091 57,1041
58,160 59,210 60,90 62,390
63,10 65,70 66,20 67,280
68,90 69,2943 70,450 71,390
72,190 73,9999 74,591 75,110
76,10 77,90 78,50 79,90
80,90 81,110 82,100 83,200
84,3793 85,2092 86,190 87,1041
88,140 90,90 91,10 95,10
97,90 98,90 99,60 100,10
101,10 103,10 104,50 105,190
106,20 111,40 112,40 113,40
115,10 116,390 117,90 118,80
119,90 120,90 130,230
##END=
