##TITLE=Dioxathion
##JCAMP-DX=4.24
##DATA TYPE=MASS SPECTRUM
##ORIGIN=NIST Mass Spectrometry Data Center
##OWNER=NIST Mass Spectrometry Data Center
Collection (C) 2014 copyright by the U.S. Secretary of Commerce
on behalf of the United States of America. All rights reserved.
##CAS REGISTRY NO=78-34-2
##$NIST MASS SPEC NO=333673
##MOLFORM=C12 H26 O6 P2 S4
##MW=456
##$NIST SOURCE=MSDC
##XUNITS=M/Z
##YUNITS=RELATIVE INTENSITY
##XFACTOR=1
##YFACTOR=1
##FIRSTX=15
##LASTX=327
##FIRSTY=30
##MAXX=327
##MINX=15
##MAXY=9999
##MINY=10
##NPOINTS=179
##PEAK TABLE=(XY..XY)
15,30 19,10 26,60 27,510
28,280 29,1481 30,440 31,70
32,10 33,10 34,30 35,50
39,10 41,30 42,30 43,200
44,40 45,1001 46,60 47,500
48,50 49,20 55,10 57,260
58,791 59,180 60,130 61,561
62,120 63,280 64,130 65,2823
66,40 67,10 71,60 72,10
73,1211 74,90 75,220 76,40
77,50 78,10 79,110 80,220
81,220 82,20 83,20 86,2252
87,160 88,40 89,540 90,90
91,140 92,20 93,1631 94,50
95,210 97,8628 98,100 99,450
100,10 101,130 102,60 103,711
104,40 105,30 106,10 107,40
108,40 109,330 110,20 111,50
112,310 113,410 114,190 115,80
116,70 117,1401 118,340 119,841
120,70 121,1281 122,60 123,80
125,8137 126,260 127,410 129,3653
130,150 131,480 132,20 133,40
135,10 137,50 138,50 139,60
140,40 141,1001 142,290 143,150
144,50 145,20 146,20 147,100
148,10 149,30 150,10 151,20
153,7897 154,450 155,450 157,2032
158,140 159,230 160,20 161,40
167,10 169,841 170,60 171,290
172,30 173,40 175,10 181,100
182,20 183,30 185,4034 186,440
187,440 188,40 189,30 193,30
195,10 196,10 197,470 198,40
199,150 200,10 201,30 209,10
211,10 213,30 214,10 215,50
216,10 217,100 218,20 219,20
225,140 226,10 227,40 231,10
241,20 242,10 243,140 244,10
245,20 253,10 257,10 261,10
265,10 267,10 268,10 269,10
270,1712 271,9999 272,1191 273,1021
274,100 275,40 293,60 294,10
295,10 297,10 303,10 309,10
325,80 326,10 327,10
##END=
