##TITLE=Ethane, 1,1,1-triethoxy-
##JCAMP-DX=4.24
##DATA TYPE=MASS SPECTRUM
##ORIGIN=E.Tabei ET AL.Org.Mass.Spectrom., 28,412(1993)
##OWNER=NIST Mass Spectrometry Data Center
Collection (C) 2014 copyright by the U.S. Secretary of Commerce
on behalf of the United States of America. All rights reserved.
##CAS REGISTRY NO=78-39-7
##$NIST MASS SPEC NO=279842
##MOLFORM=C8 H18 O3
##MW=162
##$NIST SOURCE=MSDC
##XUNITS=M/Z
##YUNITS=RELATIVE INTENSITY
##XFACTOR=1
##YFACTOR=1
##FIRSTX=14
##LASTX=147
##FIRSTY=651
##MAXX=147
##MINX=14
##MAXY=9999
##MINY=70
##NPOINTS=33
##PEAK TABLE=(XY..XY)
14,651 15,1161 16,150 26,751
27,3453 28,200 29,5585 30,450
31,1862 41,160 42,2362 43,9999
44,350 45,1672 46,160 47,260
59,70 60,1571 61,9669 62,180
63,581 70,70 73,160 75,70
87,70 89,2803 90,70 91,280
116,390 117,5625 118,390 119,70
147,480
##END=
