##TITLE=Dibutyl butanephosphonate
##JCAMP-DX=4.24
##DATA TYPE=MASS SPECTRUM
##ORIGIN=NIST Mass Spectrometry Data Center, 1990.
##OWNER=NIST Mass Spectrometry Data Center
Collection (C) 2014 copyright by the U.S. Secretary of Commerce
on behalf of the United States of America. All rights reserved.
##CAS REGISTRY NO=78-46-6
##$NIST MASS SPEC NO=118343
##MOLFORM=C12 H27 O3 P
##MW=250
##$NIST SOURCE=MSDC
##XUNITS=M/Z
##YUNITS=RELATIVE INTENSITY
##XFACTOR=1
##YFACTOR=1
##FIRSTX=14
##LASTX=249
##FIRSTY=25
##MAXX=249
##MINX=14
##MAXY=9999
##MINY=17
##NPOINTS=76
##PEAK TABLE=(XY..XY)
14,25 18,39 26,52 27,296
28,210 29,936 30,22 31,50
38,41 39,266 41,1273 42,72
43,110 44,35 45,62 47,45
51,28 53,69 54,97 55,611
56,377 57,1013 58,54 65,331
66,22 67,23 68,24 71,35
77,34 78,47 79,62 80,145
81,73 82,210 83,480 91,74
92,31 93,28 95,41 96,453
97,2178 98,35 101,17 103,23
105,44 106,28 109,355 110,131
111,197 119,49 121,1078 122,110
123,445 124,85 125,127 135,38
137,640 139,9999 140,418 141,53
151,174 153,1414 154,81 165,582
166,57 167,139 177,578 178,51
179,83 193,159 195,1937 196,169
207,93 208,46 221,154 249,43
##END=
