##TITLE=S,S,S-Tributyl phosphorotrithioate
##JCAMP-DX=4.24
##DATA TYPE=MASS SPECTRUM
##ORIGIN=NIST Mass Spectrometry Data Center
##OWNER=NIST Mass Spectrometry Data Center
Collection (C) 2014 copyright by the U.S. Secretary of Commerce
on behalf of the United States of America. All rights reserved.
##CAS REGISTRY NO=78-48-8
##$NIST MASS SPEC NO=357139
##MOLFORM=C12 H27 O P S3
##MW=314
##$NIST SOURCE=MSDC
##XUNITS=M/Z
##YUNITS=RELATIVE INTENSITY
##XFACTOR=1
##YFACTOR=1
##FIRSTX=41
##LASTX=317
##FIRSTY=4324
##MAXX=317
##MINX=41
##MAXY=9999
##MINY=10
##NPOINTS=144
##PEAK TABLE=(XY..XY)
41,4324 42,220 43,280 44,30
45,550 46,310 47,1171 48,60
49,50 50,20 51,40 52,20
53,250 54,250 55,2022 56,1001
57,9999 58,550 59,330 60,380
61,290 62,30 63,230 64,40
65,20 66,20 69,10 70,10
71,110 72,20 73,130 74,50
75,40 76,10 78,20 79,310
80,50 81,240 82,20 83,20
85,80 86,30 87,1311 88,1311
89,1832 90,430 91,200 92,30
93,80 95,190 97,70 101,20
103,110 104,10 105,10 107,20
108,40 109,10 111,10 112,100
113,3083 114,661 115,1772 116,90
117,210 118,20 119,90 120,10
121,100 122,270 123,30 124,20
125,10 127,30 128,30 129,30
130,10 131,20 134,40 135,641
136,490 137,1682 138,130 139,120
140,20 141,20 142,10 143,10
145,1111 146,1892 147,3173 148,320
149,460 150,30 151,310 152,280
153,150 154,30 155,20 160,10
161,20 166,10 167,290 168,801
169,9348 170,5175 171,2212 172,530
173,150 174,20 177,160 178,150
179,30 180,10 183,30 184,10
185,20 191,40 195,20 197,10
201,210 202,5335 203,1481 204,791
205,190 206,50 211,10 223,20
225,1411 226,2522 227,420 228,260
229,30 242,10 257,240 258,2903
259,450 260,400 261,60 262,20
314,1251 315,200 316,190 317,30
##END=
