##TITLE=Propanenitrile, 2,2'-azobis[2-methyl-
##JCAMP-DX=4.24
##DATA TYPE=MASS SPECTRUM
##ORIGIN=NIST Mass Spectrometry Data Center, 1990.
##OWNER=NIST Mass Spectrometry Data Center
Collection (C) 2014 copyright by the U.S. Secretary of Commerce
on behalf of the United States of America. All rights reserved.
##CAS REGISTRY NO=78-67-1
##$NIST MASS SPEC NO=118650
##MOLFORM=C8 H12 N4
##MW=164
##$NIST SOURCE=MSDC
##XUNITS=M/Z
##YUNITS=RELATIVE INTENSITY
##XFACTOR=1
##YFACTOR=1
##FIRSTX=14
##LASTX=121
##FIRSTY=56
##MAXX=121
##MINX=14
##MAXY=9999
##MINY=16
##NPOINTS=44
##PEAK TABLE=(XY..XY)
14,56 15,482 18,16 26,262
27,1113 28,775 29,161 30,47
37,189 38,395 39,2095 40,663
41,4132 42,2787 43,257 44,57
50,150 51,536 52,1080 53,560
54,3427 55,239 63,114 64,237
65,167 66,369 67,590 68,4751
69,9999 70,507 75,29 76,47
77,128 78,152 79,125 80,323
81,103 82,55 92,45 93,145
94,471 95,88 105,66 121,372
##END=
