##TITLE=1-Propene, 2,3-dichloro-
##JCAMP-DX=4.24
##DATA TYPE=MASS SPECTRUM
##ORIGIN=NIST Mass Spectrometry Data Center, 1998.
##OWNER=NIST Mass Spectrometry Data Center
Collection (C) 2014 copyright by the U.S. Secretary of Commerce
on behalf of the United States of America. All rights reserved.
##CAS REGISTRY NO=78-88-6
##$NIST MASS SPEC NO=291919
##MOLFORM=C3 H4 Cl2
##MW=110
##$NIST SOURCE=MSDC
##XUNITS=M/Z
##YUNITS=RELATIVE INTENSITY
##XFACTOR=1
##YFACTOR=1
##FIRSTX=12
##LASTX=115
##FIRSTY=10
##MAXX=115
##MINX=12
##MAXY=9999
##MINY=10
##NPOINTS=53
##PEAK TABLE=(XY..XY)
12,10 13,10 14,20 15,10
24,20 25,60 26,170 27,50
35,300 36,300 37,1120 38,1500
39,5359 40,620 41,20 47,240
48,160 49,1960 50,80 51,620
52,10 59,30 60,200 61,1080
62,90 63,330 64,10 70,10
71,40 72,110 73,540 74,220
75,9999 76,420 77,3480 78,120
82,10 83,190 84,10 85,130
87,20 94,10 95,20 96,10
97,10 107,10 109,140 110,2750
111,180 112,1770 113,70 114,280
115,10
##END=
