##TITLE=1-Propanol, 2-chloro-
##JCAMP-DX=4.24
##DATA TYPE=MASS SPECTRUM
##ORIGIN=NIST Mass Spectrometry Data Center, 1998.
##OWNER=NIST Mass Spectrometry Data Center
Collection (C) 2014 copyright by the U.S. Secretary of Commerce
on behalf of the United States of America. All rights reserved.
##CAS REGISTRY NO=78-89-7
##$NIST MASS SPEC NO=290597
##MOLFORM=C3 H7 Cl O
##MW=94
##$NIST SOURCE=MSDC
##XUNITS=M/Z
##YUNITS=RELATIVE INTENSITY
##XFACTOR=1
##YFACTOR=1
##FIRSTX=14
##LASTX=96
##FIRSTY=20
##MAXX=96
##MINX=14
##MAXY=9999
##MINY=10
##NPOINTS=52
##PEAK TABLE=(XY..XY)
14,20 15,90 25,60 26,480
27,1770 28,730 29,1510 30,210
31,9999 32,190 33,40 35,70
36,90 37,170 38,240 39,800
40,150 41,970 42,230 43,490
44,30 47,40 48,60 49,170
50,30 51,50 53,60 54,10
55,130 56,20 57,860 58,2700
59,260 60,60 61,140 62,1320
63,1280 64,420 65,1050 66,30
67,200 75,20 76,90 77,10
78,60 79,30 80,10 81,20
93,30 94,160 95,10 96,60
##END=
