##TITLE=Methacrolein
##JCAMP-DX=4.24
##DATA TYPE=MASS SPECTRUM
##ORIGIN=SHELL RESEARCH LIMITED THORNTON RESEARCH CENTRE
##OWNER=NIST Mass Spectrometry Data Center
Collection (C) 2014 copyright by the U.S. Secretary of Commerce
on behalf of the United States of America. All rights reserved.
##CAS REGISTRY NO=78-85-3
##$NIST MASS SPEC NO=254
##MOLFORM=C4 H6 O
##MW=70
##$NIST SOURCE=MSDC
##XUNITS=M/Z
##YUNITS=RELATIVE INTENSITY
##XFACTOR=1
##YFACTOR=1
##FIRSTX=25
##LASTX=72
##FIRSTY=112
##MAXX=72
##MINX=25
##MAXY=9999
##MINY=72
##NPOINTS=27
##PEAK TABLE=(XY..XY)
25,112 26,428 27,948 28,304
29,1364 30,72 31,544 32,248
36,160 37,836 38,1348 39,6760
40,1304 41,9999 42,1576 43,280
44,128 49,128 50,224 51,136
52,108 53,216 55,188 69,788
70,8280 71,416 72,104
##END=
