##TITLE=Isobutylamine
##JCAMP-DX=4.24
##DATA TYPE=MASS SPECTRUM
##ORIGIN=NIST Mass Spectrometry Data Center, 1998.
##OWNER=NIST Mass Spectrometry Data Center
Collection (C) 2014 copyright by the U.S. Secretary of Commerce
on behalf of the United States of America. All rights reserved.
##CAS REGISTRY NO=78-81-9
##$NIST MASS SPEC NO=291567
##MOLFORM=C4 H11 N
##MW=73
##$NIST SOURCE=MSDC
##XUNITS=M/Z
##YUNITS=RELATIVE INTENSITY
##XFACTOR=1
##YFACTOR=1
##FIRSTX=14
##LASTX=74
##FIRSTY=10
##MAXX=74
##MINX=14
##MAXY=9999
##MINY=10
##NPOINTS=35
##PEAK TABLE=(XY..XY)
14,10 15,70 16,10 25,10
26,80 27,500 28,1010 29,340
30,9999 31,260 32,40 37,70
38,160 39,940 40,140 41,1390
42,380 43,350 44,80 49,10
50,40 51,60 52,90 53,90
54,180 55,610 56,660 57,250
58,330 59,10 70,40 71,10
72,190 73,1590 74,100
##END=
