##TITLE=2-Propanone, 1-chloro-
##JCAMP-DX=4.24
##DATA TYPE=MASS SPECTRUM
##OWNER=NIST Mass Spectrometry Data Center
Collection (C) 2014 copyright by the U.S. Secretary of Commerce
on behalf of the United States of America. All rights reserved.
##CAS REGISTRY NO=78-95-5
##$NIST MASS SPEC NO=19599
##MOLFORM=C3 H5 Cl O
##MW=92
##$NIST SOURCE=MSDC
##XUNITS=M/Z
##YUNITS=RELATIVE INTENSITY
##XFACTOR=1
##YFACTOR=1
##FIRSTX=12
##LASTX=95
##FIRSTY=20
##MAXX=95
##MINX=12
##MAXY=9999
##MINY=10
##NPOINTS=48
##PEAK TABLE=(XY..XY)
12,20 13,90 14,200 15,1221
16,20 18,40 24,10 25,50
26,230 27,561 28,100 29,370
30,10 31,20 35,30 36,40
37,100 38,100 39,120 40,20
41,100 42,671 43,9999 44,230
45,20 47,70 48,120 49,951
50,60 51,310 52,10 53,20
55,40 56,10 57,200 60,20
61,30 62,10 63,20 76,30
77,250 78,20 79,80 83,30
92,1091 93,50 94,360 95,20
##END=
