##TITLE=Methyl vinyl ketone
##JCAMP-DX=4.24
##DATA TYPE=MASS SPECTRUM
##ORIGIN=Japan AIST/NIMC Database- Spectrum MS-IW-3441
##OWNER=NIST Mass Spectrometry Data Center
Collection (C) 2014 copyright by the U.S. Secretary of Commerce
on behalf of the United States of America. All rights reserved.
##CAS REGISTRY NO=78-94-4
##$NIST MASS SPEC NO=230322
##MOLFORM=C4 H6 O
##MW=70
##$NIST SOURCE=MSDC
##XUNITS=M/Z
##YUNITS=RELATIVE INTENSITY
##XFACTOR=1
##YFACTOR=1
##FIRSTX=12
##LASTX=72
##FIRSTY=20
##MAXX=72
##MINX=12
##MAXY=9999
##MINY=10
##NPOINTS=38
##PEAK TABLE=(XY..XY)
12,20 13,50 14,259 15,1019
16,10 17,10 24,20 25,159
26,849 27,4979 28,249 29,149
31,30 36,60 37,299 38,329
39,659 40,129 41,569 42,1239
43,8319 44,259 45,40 48,40
49,179 50,359 51,189 52,70
53,259 54,80 55,9999 56,459
57,40 67,30 69,119 70,5779
71,279 72,20
##END=
