##TITLE=1,2-Propanediamine
##JCAMP-DX=4.24
##DATA TYPE=MASS SPECTRUM
##ORIGIN=NIST Mass Spectrometry Data Center, 1998.
##OWNER=NIST Mass Spectrometry Data Center
Collection (C) 2014 copyright by the U.S. Secretary of Commerce
on behalf of the United States of America. All rights reserved.
##CAS REGISTRY NO=78-90-0
##$NIST MASS SPEC NO=291326
##MOLFORM=C3 H10 N2
##MW=74
##$NIST SOURCE=MSDC
##XUNITS=M/Z
##YUNITS=RELATIVE INTENSITY
##XFACTOR=1
##YFACTOR=1
##FIRSTX=15
##LASTX=74
##FIRSTY=50
##MAXX=74
##MINX=15
##MAXY=9999
##MINY=40
##NPOINTS=21
##PEAK TABLE=(XY..XY)
15,50 18,680 27,160 28,760
29,210 30,1650 31,40 32,50
39,120 40,180 41,290 42,790
43,300 44,9999 45,260 54,50
56,300 57,40 58,40 59,90
74,70
##END=
