##TITLE=Propane, 1,1-dichloro-
##JCAMP-DX=4.24
##DATA TYPE=MASS SPECTRUM
##ORIGIN=D.HENNEBERG, MAX-PLANCK INSTITUTE, MULHEIM, WEST GERMANY
##OWNER=NIST Mass Spectrometry Data Center
Collection (C) 2014 copyright by the U.S. Secretary of Commerce
on behalf of the United States of America. All rights reserved.
##CAS REGISTRY NO=78-99-9
##$NIST MASS SPEC NO=61220
##MOLFORM=C3 H6 Cl2
##MW=112
##$NIST SOURCE=MSDC
##XUNITS=M/Z
##YUNITS=RELATIVE INTENSITY
##XFACTOR=1
##YFACTOR=1
##FIRSTX=27
##LASTX=116
##FIRSTY=3230
##MAXX=116
##MINX=27
##MAXY=9999
##MINY=1
##NPOINTS=77
##PEAK TABLE=(XY..XY)
27,3230 28,2443 29,6696 30,141
31,42 34,6 35,16 36,94
37,61 38,243 39,2604 40,476
41,7570 42,274 43,18 44,30
45,18 46,3 47,59 48,152
49,741 50,61 51,226 52,18
53,6 54,6 55,10 56,10
57,12 58,4 59,8 60,48
61,672 62,194 63,336 64,86
65,54 66,9 67,6 69,2
70,1 71,3 72,6 73,78
74,10 75,355 76,3545 77,9999
78,1392 79,3137 80,95 81,6
82,20 83,815 84,28 85,531
86,11 87,87 89,3 91,22
92,29 93,26 94,6 95,7
96,21 97,190 98,16 99,112
100,6 101,23 109,11 110,3
111,15 112,58 113,11 114,36
116,5
##END=
