##TITLE=Trichloroacetic acid, 2-pentyl ester
##JCAMP-DX=4.24
##DATA TYPE=MASS SPECTRUM
##ORIGIN=V.Zaikin,Topchiev Inst.Petrochem.Synth.,Moscow
##OWNER=NIST Mass Spectrometry Data Center
Collection (C) 2014 copyright by the U.S. Secretary of Commerce
on behalf of the United States of America. All rights reserved.
##CAS REGISTRY NO=78031-35-3
##$NIST MASS SPEC NO=282569
##MOLFORM=C7 H11 Cl3 O2
##MW=232
##$NIST SOURCE=MSDC
##XUNITS=M/Z
##YUNITS=RELATIVE INTENSITY
##XFACTOR=1
##YFACTOR=1
##FIRSTX=22
##LASTX=223
##FIRSTY=20
##MAXX=223
##MINX=22
##MAXY=9999
##MINY=10
##NPOINTS=118
##PEAK TABLE=(XY..XY)
22,20 25,10 26,180 27,1631
28,120 29,1942 30,40 31,20
35,100 36,440 37,20 38,140
39,1251 40,250 41,3023 42,1722
43,9398 44,340 45,320 47,390
48,50 49,140 50,60 51,90
52,90 53,250 54,70 55,5255
56,250 57,60 58,40 61,20
63,120 65,20 66,20 67,110
68,50 69,831 70,3813 71,9999
72,591 73,40 75,20 76,40
77,30 78,20 79,120 81,20
82,1311 83,330 84,831 85,200
86,130 87,941 88,40 91,40
93,20 97,20 99,40 101,20
109,30 110,1641 111,80 112,1051
113,40 114,160 115,10 117,7807
118,80 119,7377 120,70 121,2382
122,20 123,240 125,20 127,340
128,60 129,220 130,30 131,30
135,20 145,260 146,40 147,250
148,30 149,60 154,30 155,260
156,20 157,130 159,20 161,1631
162,40 163,1712 164,40 165,520
166,10 167,60 188,210 189,5715
190,480 191,5625 192,350 193,1792
194,80 195,220 197,210 198,10
199,140 201,20 207,120 208,10
217,360 218,20 219,310 220,10
221,80 223,10
##END=
