##TITLE=Pyrene, 4,5,9,10-tetrahydro-
##JCAMP-DX=4.24
##DATA TYPE=MASS SPECTRUM
##ORIGIN=Japan AIST/NIMC Database- Spectrum MS-IW-6945
##OWNER=NIST Mass Spectrometry Data Center
Collection (C) 2014 copyright by the U.S. Secretary of Commerce
on behalf of the United States of America. All rights reserved.
##CAS REGISTRY NO=781-17-9
##$NIST MASS SPEC NO=228787
##MOLFORM=C16 H14
##MW=206
##$NIST SOURCE=MSDC
##XUNITS=M/Z
##YUNITS=RELATIVE INTENSITY
##XFACTOR=1
##YFACTOR=1
##FIRSTX=27
##LASTX=209
##FIRSTY=10
##MAXX=209
##MINX=27
##MAXY=9999
##MINY=10
##NPOINTS=88
##PEAK TABLE=(XY..XY)
27,10 39,40 50,20 51,40
53,10 62,40 63,99 64,10
65,10 67,50 68,10 69,10
74,80 75,209 76,379 77,30
81,50 82,70 83,10 86,40
87,289 88,889 89,1579 90,30
93,80 94,599 95,649 96,20
98,40 99,189 100,1319 101,3159
102,859 103,459 110,10 111,20
113,10 115,20 122,20 123,10
124,10 125,10 126,30 127,30
128,10 137,10 139,30 149,40
150,129 151,129 152,159 153,30
161,10 162,20 163,90 164,60
165,709 166,99 167,10 173,10
174,129 175,119 176,209 177,109
178,759 179,199 180,40 186,10
187,70 188,80 189,1139 190,949
191,839 192,119 193,10 197,10
198,119 199,199 200,1159 201,1169
202,6029 203,4799 204,3319 205,5529
206,9999 207,1669 208,179 209,10
##END=
