##TITLE=2-Acetylfluorene
##JCAMP-DX=4.24
##DATA TYPE=MASS SPECTRUM
##ORIGIN=NIST Mass Spectrometry Data Center, 1990.
##OWNER=NIST Mass Spectrometry Data Center
Collection (C) 2014 copyright by the U.S. Secretary of Commerce
on behalf of the United States of America. All rights reserved.
##CAS REGISTRY NO=781-73-7
##$NIST MASS SPEC NO=118410
##MOLFORM=C15 H12 O
##MW=208
##$NIST SOURCE=MSDC
##XUNITS=M/Z
##YUNITS=RELATIVE INTENSITY
##XFACTOR=1
##YFACTOR=1
##FIRSTX=14
##LASTX=210
##FIRSTY=51
##MAXX=210
##MINX=14
##MAXY=9999
##MINY=21
##NPOINTS=84
##PEAK TABLE=(XY..XY)
14,51 15,197 17,22 27,53
28,45 38,69 39,238 40,35
43,1959 44,49 50,135 51,220
52,40 55,31 56,25 61,56
62,244 63,717 64,94 65,95
69,601 73,35 74,208 75,280
76,412 77,66 82,909 85,54
86,230 87,349 88,262 89,645
90,314 94,40 96,454 98,105
99,92 100,54 101,25 102,45
109,22 110,106 111,122 112,43
113,179 114,74 115,601 116,78
122,26 123,23 125,33 126,127
127,41 134,26 137,215 138,189
139,909 140,119 150,105 151,107
152,140 153,30 161,133 162,510
163,2348 164,2623 165,9999 166,1530
167,98 174,21 175,43 176,191
177,111 178,287 179,122 187,31
189,40 190,28 193,8968 194,1362
195,107 208,5459 209,939 210,66
##END=
