##TITLE=2-Oxo-1-methyl-3-isopropylpyrazine
##JCAMP-DX=4.24
##DATA TYPE=MASS SPECTRUM
##ORIGIN=W.V. BROWN, CSIRO, BLACK MOUNTAIN, CANBERRA CITY, AUSTRALIA
##OWNER=NIST Mass Spectrometry Data Center
Collection (C) 2014 copyright by the U.S. Secretary of Commerce
on behalf of the United States of America. All rights reserved.
##CAS REGISTRY NO=78210-68-1
##$NIST MASS SPEC NO=99169
##MOLFORM=C8 H12 N2 O
##MW=152
##$NIST SOURCE=MSDC
##XUNITS=M/Z
##YUNITS=RELATIVE INTENSITY
##XFACTOR=1
##YFACTOR=1
##FIRSTX=37
##LASTX=154
##FIRSTY=73
##MAXX=154
##MINX=37
##MAXY=9999
##MINY=55
##NPOINTS=57
##PEAK TABLE=(XY..XY)
37,73 38,182 39,1145 40,873
41,2364 42,2182 43,491 44,55
50,73 51,145 52,491 53,545
54,1091 55,782 56,1327 57,127
64,55 65,91 66,218 67,309
68,764 69,455 70,73 71,55
78,55 79,109 80,200 81,764
82,545 83,600 84,55 92,91
93,164 94,218 95,473 96,818
97,109 106,55 107,436 108,164
109,6273 110,818 111,600 112,55
119,164 121,109 123,1182 124,7364
125,564 136,91 137,9999 138,836
139,73 151,418 152,6909 153,727
154,55
##END=
