##TITLE=3-Nitrobenzoyl isothiocyanate
##JCAMP-DX=4.24
##DATA TYPE=MASS SPECTRUM
##ORIGIN=NIST Mass Spectrometry Data Center, 1994
##OWNER=NIST Mass Spectrometry Data Center
Collection (C) 2014 copyright by the U.S. Secretary of Commerce
on behalf of the United States of America. All rights reserved.
##CAS REGISTRY NO=78225-78-2
##$NIST MASS SPEC NO=134886
##MOLFORM=C8 H4 N2 O3 S
##MW=208
##$NIST SOURCE=MSDC
##XUNITS=M/Z
##YUNITS=RELATIVE INTENSITY
##XFACTOR=1
##YFACTOR=1
##FIRSTX=4
##LASTX=152
##FIRSTY=12
##MAXX=152
##MINX=4
##MAXY=9999
##MINY=12
##NPOINTS=54
##PEAK TABLE=(XY..XY)
4,12 18,17 26,48 27,49
28,113 29,17 30,317 32,153
36,21 37,153 38,266 39,119
40,17 44,13 45,33 46,93
50,2518 51,242 52,47 53,100
54,27 58,330 59,79 60,43
61,108 62,147 63,332 64,398
70,30 73,176 74,910 75,1471
76,4513 77,293 78,20 86,139
87,24 88,23 90,87 92,723
93,57 102,59 104,4294 105,321
106,34 107,23 120,52 122,200
123,19 134,223 135,23 150,9999
151,810 152,102
##END=
