##TITLE=Mandelic acid, 2TBDMS derivative
##JCAMP-DX=4.24
##DATA TYPE=MASS SPECTRUM
##ORIGIN=J.M. Halket, Trace Anal. Unit (TAU), London, UK
##OWNER=NIST Mass Spectrometry Data Center
Collection (C) 2014 copyright by the U.S. Secretary of Commerce
on behalf of the United States of America. All rights reserved.
##CAS REGISTRY NO=78324-07-9
##$NIST MASS SPEC NO=221771
##MOLFORM=C20 H36 O3 Si2
##MW=380
##$NIST SOURCE=MSDC
##XUNITS=M/Z
##YUNITS=RELATIVE INTENSITY
##XFACTOR=1
##YFACTOR=1
##FIRSTX=39
##LASTX=365
##FIRSTY=410
##MAXX=365
##MINX=39
##MAXY=9999
##MINY=10
##NPOINTS=120
##PEAK TABLE=(XY..XY)
39,410 41,1940 42,130 43,620
44,140 45,1210 46,90 47,360
48,10 50,10 51,60 52,20
53,50 55,170 56,430 57,2460
58,600 59,1100 60,140 61,170
62,20 63,60 64,20 65,40
66,30 67,20 69,30 70,30
71,30 73,9999 74,880 75,1560
76,110 77,260 78,50 79,80
83,30 85,150 86,20 87,30
89,280 90,660 91,550 92,40
93,10 95,10 97,20 99,70
100,40 101,30 102,20 103,110
104,80 105,330 106,40 107,100
113,10 115,510 116,80 117,260
118,470 119,210 120,30 121,40
129,10 131,200 132,90 133,590
134,90 135,310 136,40 137,40
143,10 145,70 147,3990 148,800
149,850 150,110 151,40 159,20
161,20 163,420 164,110 165,200
166,30 177,30 179,20 189,310
190,60 191,30 192,50 193,90
194,10 195,60 207,10 209,140
210,30 219,30 221,2230 222,450
223,270 224,50 225,10 233,10
237,60 238,20 239,20 249,20
266,40 267,30 295,1870 296,490
297,190 298,30 323,1190 324,340
325,130 326,20 337,40 365,30
##END=
