##TITLE=Homovanillic Acid, 2TBDMS derivative
##JCAMP-DX=4.24
##DATA TYPE=MASS SPECTRUM
##ORIGIN=NIST Mass Spectrometry Data Center
##OWNER=NIST Mass Spectrometry Data Center
Collection (C) 2014 copyright by the U.S. Secretary of Commerce
on behalf of the United States of America. All rights reserved.
##CAS REGISTRY NO=78324-15-9
##$NIST MASS SPEC NO=332739
##MOLFORM=C21 H38 O4 Si2
##MW=410
##$NIST SOURCE=MSDC
##XUNITS=M/Z
##YUNITS=RELATIVE INTENSITY
##XFACTOR=1
##YFACTOR=1
##FIRSTX=15
##LASTX=412
##FIRSTY=20
##MAXX=412
##MINX=15
##MAXY=9999
##MINY=10
##NPOINTS=219
##PEAK TABLE=(XY..XY)
15,20 27,40 30,10 31,30
39,120 42,40 43,140 45,380
46,30 47,190 48,10 49,10
50,10 51,40 52,10 53,20
55,60 56,130 57,721 58,270
59,931 60,110 61,130 62,10
63,20 64,10 65,30 66,10
67,10 69,20 70,10 71,20
73,4774 74,561 75,3513 76,290
77,250 78,60 79,30 82,10
83,40 84,10 85,80 86,10
87,20 88,40 89,400 90,90
91,150 92,20 93,20 94,20
95,20 96,10 97,30 99,180
100,30 101,40 102,30 103,110
104,160 105,170 106,40 107,40
108,10 109,10 111,10 113,20
115,220 116,40 117,70 118,40
119,110 120,30 121,100 122,50
123,20 125,10 128,10 129,10
131,100 133,290 134,80 135,350
136,60 137,370 138,40 140,1451
143,10 145,30 147,220 148,1531
149,1041 150,160 151,80 152,10
153,10 159,20 161,160 162,190
163,290 164,140 165,120 166,40
167,10 169,10 173,10 174,10
175,30 176,80 177,120 178,671
179,2432 180,440 181,140 182,20
183,10 189,20 190,10 191,90
192,80 193,460 194,130 195,80
196,20 197,10 203,20 204,20
206,1611 207,320 208,110 209,90
210,20 211,20 217,10 218,10
219,50 220,80 221,340 222,90
223,120 224,100 225,340 226,70
227,30 232,10 233,20 234,20
235,260 236,90 237,470 238,120
239,120 240,20 241,10 248,110
249,160 251,921 252,230 253,1141
254,260 255,120 256,20 262,10
263,40 265,220 266,60 267,70
268,20 269,10 277,10 278,10
281,8898 282,3003 283,1271 284,200
285,40 292,10 293,20 294,80
295,100 296,70 297,130 298,30
299,10 307,10 309,30 310,10
311,20 321,10 322,20 323,190
324,50 325,70 326,20 327,10
337,60 338,310 339,90 340,30
341,10 353,9999 354,5695 355,2362
356,450 357,80 358,10 377,10
379,10 381,20 382,10 395,681
396,220 397,80 398,20 409,30
410,100 411,40 412,10
##END=
