##TITLE=Vanillylmandelic acid, 3TBDMS derivative
##JCAMP-DX=4.24
##DATA TYPE=MASS SPECTRUM
##ORIGIN=NIST Mass Spectrometry Data Center
##OWNER=NIST Mass Spectrometry Data Center
Collection (C) 2014 copyright by the U.S. Secretary of Commerce
on behalf of the United States of America. All rights reserved.
##CAS REGISTRY NO=78324-20-6
##$NIST MASS SPEC NO=333505
##MOLFORM=C27 H52 O5 Si3
##MW=540
##$NIST SOURCE=MSDC
##XUNITS=M/Z
##YUNITS=RELATIVE INTENSITY
##XFACTOR=1
##YFACTOR=1
##FIRSTX=27
##LASTX=527
##FIRSTY=20
##MAXX=527
##MINX=27
##MAXY=9999
##MINY=10
##NPOINTS=264
##PEAK TABLE=(XY..XY)
27,20 28,10 29,130 31,10
37,10 38,10 39,80 40,20
41,300 42,30 43,70 44,20
45,260 46,10 47,50 49,10
50,10 51,10 53,10 55,50
56,90 57,450 58,170 59,741
60,70 61,50 65,10 66,10
67,10 69,10 71,10 73,9999
74,841 75,771 76,50 77,40
78,10 79,20 81,10 83,20
85,80 87,10 88,10 89,190
90,20 91,70 92,20 93,20
95,10 97,10 98,10 99,100
100,30 101,20 102,10 103,60
104,20 105,50 106,10 107,20
113,20 115,250 116,30 117,90
118,30 119,90 120,20 121,30
122,10 123,10 125,10 126,10
128,10 129,20 130,10 131,110
132,30 133,400 134,60 135,180
136,30 137,70 138,10 140,10
141,10 143,10 145,20 147,2672
148,450 149,380 150,60 151,80
152,20 153,10 156,10 157,10
159,20 160,10 161,50 162,40
163,180 164,40 165,70 166,80
167,60 168,10 170,20 171,10
173,20 174,10 175,20 177,390
178,260 179,240 180,60 181,40
182,10 184,20 189,30 190,10
191,40 192,120 193,520 194,270
195,110 196,20 197,10 203,10
204,10 205,30 206,380 207,140
208,50 209,160 210,20 211,10
213,10 217,10 218,10 219,40
220,70 221,100 222,30 223,60
224,20 225,20 232,10 233,20
234,10 235,60 236,60 237,440
238,100 239,60 240,10 248,10
249,20 250,20 251,450 252,450
253,260 254,80 255,20 262,10
263,20 264,10 265,120 266,40
267,150 268,40 269,40 270,10
277,20 278,10 279,40 280,120
281,40 282,20 283,10 291,10
292,10 293,110 294,100 295,90
296,110 297,40 298,10 305,10
307,30 308,20 309,480 310,140
311,410 312,90 313,30 314,10
321,10 322,10 323,110 324,40
325,30 326,20 327,10 335,20
336,10 337,20 338,10 339,10
341,20 342,10 349,30 350,10
351,40 352,10 353,70 354,80
355,30 356,10 365,60 366,20
367,20 369,10 379,40 381,6706
382,2162 383,971 384,220 385,60
386,10 393,60 394,20 395,10
396,10 397,10 398,10 407,20
408,10 409,90 410,30 411,30
412,10 413,10 425,10 427,10
439,10 455,3083 456,1171 457,571
458,140 459,30 460,10 481,10
483,3083 484,1201 485,581 486,150
487,30 488,10 497,60 498,20
499,10 525,100 526,50 527,20
##END=
