##TITLE=Ethyl undecyl ether
##JCAMP-DX=4.24
##DATA TYPE=MASS SPECTRUM
##ORIGIN=J. Klune, Insect Chem. Ecol. Lab., USDA, Beltsville, MD 20705
##OWNER=NIST Mass Spectrometry Data Center
Collection (C) 2014 copyright by the U.S. Secretary of Commerce
on behalf of the United States of America. All rights reserved.
##CAS REGISTRY NO=78371-01-4
##$NIST MASS SPEC NO=130705
##MOLFORM=C13 H28 O
##MW=200
##$NIST SOURCE=MSDC
##XUNITS=M/Z
##YUNITS=RELATIVE INTENSITY
##XFACTOR=1
##YFACTOR=1
##FIRSTX=41
##LASTX=202
##FIRSTY=5464
##MAXX=202
##MINX=41
##MAXY=9999
##MINY=6
##NPOINTS=91
##PEAK TABLE=(XY..XY)
41,5464 42,1436 43,4692 44,335
45,495 47,321 48,73 49,7
51,26 52,14 53,313 54,501
55,3948 56,3022 57,3294 58,236
59,9999 60,68 61,120 65,55
66,68 67,668 68,2199 69,3211
70,3043 71,1513 72,134 73,51
74,62 75,49 77,43 78,6
79,69 80,25 81,328 82,2761
83,3748 84,2439 85,1123 86,73
87,55 88,18 89,9 91,19
93,8 94,18 95,163 96,865
97,3197 98,1271 99,350 101,205
102,10 107,6 108,90 109,70
110,277 111,1312 112,491 113,127
114,12 115,38 123,26 124,116
125,639 126,1277 127,125 128,7
129,6 137,10 139,12 140,8
143,7 151,6 152,90 153,78
154,2797 155,532 156,39 157,79
158,8 168,7 169,6 171,7
185,20 197,8 198,91 199,287
200,3748 201,542 202,47
##END=
