##TITLE=Methanone, (2-amino-5-chlorophenyl)(2-fluorophenyl)-
##JCAMP-DX=4.24
##DATA TYPE=MASS SPECTRUM
##ORIGIN=HOME OFFICE, CENTRAL RES. EST., ALDERMASTON, BERKS., U.K.
##OWNER=NIST Mass Spectrometry Data Center
Collection (C) 2014 copyright by the U.S. Secretary of Commerce
on behalf of the United States of America. All rights reserved.
##CAS REGISTRY NO=784-38-3
##$NIST MASS SPEC NO=58595
##MOLFORM=C13 H9 Cl F N O
##MW=249
##$NIST SOURCE=MSDC
##XUNITS=M/Z
##YUNITS=RELATIVE INTENSITY
##XFACTOR=1
##YFACTOR=1
##FIRSTX=75
##LASTX=251
##FIRSTY=2000
##MAXX=251
##MINX=75
##MAXY=9999
##MINY=1000
##NPOINTS=15
##PEAK TABLE=(XY..XY)
75,2000 95,3500 99,1200 107,1000
123,5800 126,2300 154,4300 229,1400
230,2600 231,1100 232,2200 248,9999
249,9800 250,4700 251,4600
##END=
