##TITLE=Ethanone, 1-(9-anthracenyl)-
##JCAMP-DX=4.24
##DATA TYPE=MASS SPECTRUM
##ORIGIN=Japan AIST/NIMC Database- Spectrum MS-NW-6171
##OWNER=NIST Mass Spectrometry Data Center
Collection (C) 2014 copyright by the U.S. Secretary of Commerce
on behalf of the United States of America. All rights reserved.
##CAS REGISTRY NO=784-04-3
##$NIST MASS SPEC NO=234656
##MOLFORM=C16 H12 O
##MW=220
##$NIST SOURCE=MSDC
##XUNITS=M/Z
##YUNITS=RELATIVE INTENSITY
##XFACTOR=1
##YFACTOR=1
##FIRSTX=14
##LASTX=223
##FIRSTY=60
##MAXX=223
##MINX=14
##MAXY=9999
##MINY=10
##NPOINTS=168
##PEAK TABLE=(XY..XY)
14,60 15,70 16,30 18,20
26,20 27,60 28,10 29,40
30,10 31,70 37,20 38,40
39,159 40,30 41,10 42,30
43,359 44,229 45,50 46,20
49,10 50,179 51,239 52,40
53,20 55,20 56,20 57,20
58,10 59,20 61,70 62,209
63,429 64,40 65,30 67,20
68,20 69,70 70,10 71,20
73,40 74,349 75,659 76,669
77,179 78,30 79,20 80,10
81,109 82,149 83,60 84,10
85,60 86,179 87,389 88,1819
89,859 90,20 93,90 94,259
95,119 96,199 97,30 98,229
99,199 100,189 101,309 102,219
103,50 105,10 108,10 109,99
110,419 111,99 112,20 113,60
114,20 115,60 116,10 117,10
120,10 121,10 122,80 123,70
124,40 125,99 126,249 127,139
128,70 129,10 132,10 133,10
134,30 135,30 136,10 137,50
138,30 139,129 140,30 141,10
143,10 144,30 145,10 146,20
147,10 148,20 149,159 150,879
151,1479 152,599 153,109 154,20
155,20 156,10 157,10 158,10
159,10 161,20 162,40 163,149
164,50 165,139 166,30 167,10
170,10 171,10 172,10 173,30
174,369 175,599 176,3939 177,6379
178,8389 179,1269 180,149 181,20
182,10 185,10 186,20 187,99
188,70 189,429 190,149 191,359
192,299 193,50 194,20 195,10
196,10 197,10 198,30 199,40
200,119 201,99 202,389 203,109
204,80 205,9999 206,1759 207,179
208,20 217,10 218,129 219,529
220,8239 221,1469 222,169 223,20
##END=
