##TITLE=N-(2-Amino-4-trifluoromethylphenyl)morpholine
##JCAMP-DX=4.24
##DATA TYPE=MASS SPECTRUM
##ORIGIN=NIST Mass Spectrometry Data Center
##OWNER=NIST Mass Spectrometry Data Center
Collection (C) 2014 copyright by the U.S. Secretary of Commerce
on behalf of the United States of America. All rights reserved.
##CAS REGISTRY NO=784-57-6
##$NIST MASS SPEC NO=342801
##MOLFORM=C11 H13 F3 N2 O
##MW=246
##$NIST SOURCE=MSDC
##XUNITS=M/Z
##YUNITS=RELATIVE INTENSITY
##XFACTOR=1
##YFACTOR=1
##FIRSTX=14
##LASTX=248
##FIRSTY=20
##MAXX=248
##MINX=14
##MAXY=9999
##MINY=10
##NPOINTS=164
##PEAK TABLE=(XY..XY)
14,20 15,290 16,20 17,30
18,80 19,30 20,20 26,260
27,821 28,2022 29,851 30,370
31,400 32,10 33,10 37,20
38,120 39,270 40,90 41,280
42,350 43,240 44,100 45,130
46,40 50,120 51,250 52,360
53,100 54,140 55,40 56,130
57,230 58,50 59,80 60,10
61,20 62,80 63,380 64,210
65,200 66,90 67,30 69,310
70,60 71,40 72,40 73,20
74,50 75,290 76,150 77,150
78,130 79,30 80,30 81,40
82,40 83,190 84,380 86,100
87,30 88,100 89,80 90,140
91,140 92,60 93,100 94,120
95,100 96,60 97,20 98,50
99,40 100,80 101,90 102,60
103,40 104,50 105,70 106,30
107,60 108,260 109,60 110,50
111,120 113,460 114,200 115,40
116,20 117,80 118,350 119,120
120,240 121,30 122,30 123,10
124,20 125,80 126,100 127,140
128,40 129,30 130,30 131,60
132,150 133,180 134,30 135,10
136,40 137,10 138,30 140,571
141,100 142,190 143,80 144,40
145,130 146,60 147,90 148,70
149,20 151,10 152,20 153,30
154,20 155,20 156,10 157,10
158,40 160,460 161,170 162,60
167,881 168,240 169,70 170,20
172,70 173,20 174,160 175,60
176,70 178,10 180,10 181,60
182,10 183,10 184,10 187,9999
188,1151 189,370 190,40 198,90
199,170 200,400 201,540 202,80
203,30 213,450 217,60 227,571
231,981 232,130 245,561 248,20
##END=
