##TITLE=Benzonitrile, 4-amino-3,5-dichloro-
##JCAMP-DX=4.24
##DATA TYPE=MASS SPECTRUM
##ORIGIN=NIST Mass Spectrometry Data Center, 1994
##OWNER=NIST Mass Spectrometry Data Center
Collection (C) 2014 copyright by the U.S. Secretary of Commerce
on behalf of the United States of America. All rights reserved.
##CAS REGISTRY NO=78473-00-4
##$NIST MASS SPEC NO=133935
##MOLFORM=C7 H4 Cl2 N2
##MW=186
##$NIST SOURCE=MSDC
##XUNITS=M/Z
##YUNITS=RELATIVE INTENSITY
##XFACTOR=1
##YFACTOR=1
##FIRSTX=12
##LASTX=191
##FIRSTY=42
##MAXX=191
##MINX=12
##MAXY=9999
##MINY=26
##NPOINTS=107
##PEAK TABLE=(XY..XY)
12,42 14,43 16,81 24,37
25,153 26,228 27,298 28,1193
29,36 35,432 36,417 37,1181
38,778 39,233 40,89 41,145
44,71 45,166 47,580 48,248
49,631 50,424 51,759 52,2088
53,261 54,42 57,161 58,124
60,604 61,1178 62,1554 63,1349
64,757 65,571 66,229 67,48
71,169 72,527 73,707 74,494
75,715 76,445 77,230 78,49
80,125 81,80 82,26 83,99
84,135 85,138 86,561 87,1092
88,2579 89,590 90,295 91,42
92,26 93,361 94,251 95,114
96,164 97,670 98,629 99,609
100,302 101,113 102,36 107,115
108,58 109,135 110,60 111,38
112,55 113,73 114,36 115,2122
116,327 117,30 122,238 123,551
124,1295 125,305 126,421 127,49
131,101 132,47 133,79 134,56
135,82 137,39 150,788 151,935
152,334 153,310 154,34 158,402
159,659 160,329 161,437 162,73
163,61 186,9999 187,847 188,6555
189,557 190,1015 191,93
##END=
