##TITLE=2-Methyl-6-hepten-3-ol
##JCAMP-DX=4.24
##DATA TYPE=MASS SPECTRUM
##ORIGIN=NIST Mass Spectrometry Data Center, 1990.
##OWNER=NIST Mass Spectrometry Data Center
Collection (C) 2014 copyright by the U.S. Secretary of Commerce
on behalf of the United States of America. All rights reserved.
##CAS REGISTRY NO=78631-45-5
##$NIST MASS SPEC NO=114530
##MOLFORM=C8 H16 O
##MW=128
##$NIST SOURCE=MSDC
##XUNITS=M/Z
##YUNITS=RELATIVE INTENSITY
##XFACTOR=1
##YFACTOR=1
##FIRSTX=26
##LASTX=113
##FIRSTY=356
##MAXX=113
##MINX=26
##MAXY=9999
##MINY=86
##NPOINTS=47
##PEAK TABLE=(XY..XY)
26,356 27,2345 28,344 29,2931
30,344 31,2332 32,86 38,436
39,3942 40,1051 41,5672 42,1593
43,7379 44,926 45,363 50,248
51,622 52,332 53,2319 54,1225
55,8428 56,1521 57,4503 58,567
59,4528 65,397 67,3555 68,4993
69,1554 70,3295 71,1291 72,7379
73,1287 77,322 79,2075 81,9999
82,981 83,212 84,212 85,383
93,337 95,5781 96,501 99,851
109,142 110,819 113,233
##END=
