##TITLE=9-Octadecen-1-ol, (Z)-, TMS derivative
##JCAMP-DX=4.24
##DATA TYPE=MASS SPECTRUM
##ORIGIN=NIST Mass Spectrometry Data Center
##OWNER=NIST Mass Spectrometry Data Center
Collection (C) 2014 copyright by the U.S. Secretary of Commerce
on behalf of the United States of America. All rights reserved.
##CAS REGISTRY NO=78695-25-7
##$NIST MASS SPEC NO=352685
##MOLFORM=C21 H44 O Si
##MW=340
##$NIST SOURCE=MSDC
##XUNITS=M/Z
##YUNITS=RELATIVE INTENSITY
##XFACTOR=1
##YFACTOR=1
##FIRSTX=26
##LASTX=343
##FIRSTY=10
##MAXX=343
##MINX=26
##MAXY=9999
##MINY=10
##NPOINTS=202
##PEAK TABLE=(XY..XY)
26,10 27,140 28,10 29,400
30,10 31,10 38,10 39,250
40,60 41,1852 42,370 43,1521
44,100 45,350 46,30 47,220
48,10 49,10 50,10 51,20
52,20 53,260 54,791 55,3093
56,781 57,1171 58,190 59,571
60,90 61,641 62,40 63,30
65,90 66,250 67,2452 68,1201
69,2102 70,540 71,330 72,190
73,4684 74,500 75,9999 76,771
77,540 78,90 79,450 80,320
81,3153 82,4144 83,2162 84,260
85,320 86,40 87,250 88,110
89,1141 90,110 91,1491 92,180
93,270 94,180 95,3383 96,4274
97,1882 98,200 99,420 100,60
101,871 102,110 103,2472 104,240
105,120 106,20 107,100 108,90
109,2192 110,2012 111,761 112,100
113,240 114,40 115,591 116,190
117,80 118,10 119,10 120,10
121,90 122,100 123,1411 124,1481
125,350 126,60 127,220 129,2342
130,290 131,120 132,10 133,10
135,60 136,60 137,771 138,791
139,170 140,40 141,170 142,30
143,671 144,90 145,40 149,20
150,20 151,330 152,400 153,100
154,30 155,80 156,20 157,290
158,50 159,20 163,10 165,140
166,200 167,60 168,50 169,70
170,10 171,380 172,60 173,20
179,80 180,100 181,40 182,20
183,40 185,621 186,100 187,40
193,90 194,110 195,30 196,10
197,30 198,10 199,200 200,40
201,10 207,50 208,60 209,20
211,20 213,110 214,20 215,10
221,40 222,100 223,20 225,10
227,100 228,20 229,10 235,10
237,10 239,10 241,120 242,20
243,10 247,10 249,160 250,390
251,80 252,10 253,10 255,60
256,10 267,10 269,120 270,30
271,10 279,10 283,70 284,20
295,20 297,550 298,140 299,40
307,20 308,10 309,20 311,20
312,10 325,2632 326,761 327,200
328,30 339,30 340,771 341,220
342,60 343,10
##END=
