##TITLE=Benzoic acid, 2-benzoylhydrazide
##JCAMP-DX=4.24
##DATA TYPE=MASS SPECTRUM
##ORIGIN=NIST Mass Spectrometry Data Center, 1994
##OWNER=NIST Mass Spectrometry Data Center
Collection (C) 2014 copyright by the U.S. Secretary of Commerce
on behalf of the United States of America. All rights reserved.
##CAS REGISTRY NO=787-84-8
##$NIST MASS SPEC NO=135654
##MOLFORM=C14 H12 N2 O2
##MW=240
##$NIST SOURCE=MSDC
##XUNITS=M/Z
##YUNITS=RELATIVE INTENSITY
##XFACTOR=1
##YFACTOR=1
##FIRSTX=15
##LASTX=241
##FIRSTY=33
##MAXX=241
##MINX=15
##MAXY=9999
##MINY=27
##NPOINTS=36
##PEAK TABLE=(XY..XY)
15,33 18,59 27,190 28,48
29,82 38,108 39,260 44,62
49,46 50,668 51,2150 52,166
62,63 63,137 64,62 65,59
73,60 74,192 75,160 76,412
77,5436 78,405 79,35 103,93
105,9999 106,791 107,57 135,43
165,268 166,111 207,27 221,35
222,218 223,47 240,940 241,152
##END=
