##TITLE=4-tert-Octylphenol, TMS derivative
##JCAMP-DX=4.24
##DATA TYPE=MASS SPECTRUM
##ORIGIN=A.Pleshkova, Nesmeyanov Inst.Org.Elem.Cpds, Moscow
##OWNER=NIST Mass Spectrometry Data Center
Collection (C) 2014 copyright by the U.S. Secretary of Commerce
on behalf of the United States of America. All rights reserved.
##CAS REGISTRY NO=78721-87-6
##$NIST MASS SPEC NO=283552
##MOLFORM=C17 H30 O Si
##MW=278
##$NIST SOURCE=MSDC
##XUNITS=M/Z
##YUNITS=RELATIVE INTENSITY
##XFACTOR=1
##YFACTOR=1
##FIRSTX=41
##LASTX=280
##FIRSTY=330
##MAXX=280
##MINX=41
##MAXY=9999
##MINY=20
##NPOINTS=19
##PEAK TABLE=(XY..XY)
41,330 42,110 57,741 58,140
73,1331 74,120 75,220 82,290
151,210 191,320 192,120 207,9999
208,1782 209,460 210,90 263,180
278,320 279,80 280,20
##END=
