##TITLE=Carbazole, 2,6-dimethyl-
##JCAMP-DX=4.24
##DATA TYPE=MASS SPECTRUM
##ORIGIN=TRC, TEXAS A&M UNIV., COLLEGE STATION, TEXAS, USA
##OWNER=NIST Mass Spectrometry Data Center
Collection (C) 2014 copyright by the U.S. Secretary of Commerce
on behalf of the United States of America. All rights reserved.
##CAS REGISTRY NO=78787-80-1
##$NIST MASS SPEC NO=138131
##MOLFORM=C14 H13 N
##MW=195
##$NIST SOURCE=MSDC
##XUNITS=M/Z
##YUNITS=RELATIVE INTENSITY
##XFACTOR=1
##YFACTOR=1
##FIRSTX=51
##LASTX=197
##FIRSTY=10
##MAXX=197
##MINX=51
##MAXY=9999
##MINY=10
##NPOINTS=84
##PEAK TABLE=(XY..XY)
51,10 62,10 63,20 64,10
65,10 74,20 75,29 76,29
77,60 78,10 85,10 86,29
87,49 88,29 89,109 90,109
91,29 98,469 99,39 100,29
101,60 102,60 103,20 104,10
109,20 110,20 111,29 112,20
113,109 114,70 115,200 116,39
117,20 122,20 123,20 124,20
125,39 126,130 127,140 128,89
129,20 130,20 135,20 137,39
138,39 139,229 140,159 141,70
142,39 143,20 149,20 150,120
151,250 152,449 153,180 154,109
155,20 161,10 162,20 163,120
164,159 165,420 166,209 167,219
168,49 169,10 175,10 176,39
177,169 178,540 179,600 180,1460
181,229 182,20 188,10 189,29
190,190 191,469 192,759 193,1100
194,8319 195,9999 196,1380 197,109
##END=
