##TITLE=o,p'-DDT
##JCAMP-DX=4.24
##DATA TYPE=MASS SPECTRUM
##ORIGIN=Japan AIST/NIMC Database- Spectrum MS-NW-7491
##OWNER=NIST Mass Spectrometry Data Center
Collection (C) 2014 copyright by the U.S. Secretary of Commerce
on behalf of the United States of America. All rights reserved.
##CAS REGISTRY NO=789-02-6
##$NIST MASS SPEC NO=238570
##MOLFORM=C14 H9 Cl5
##MW=352
##$NIST SOURCE=MSDC
##XUNITS=M/Z
##YUNITS=RELATIVE INTENSITY
##XFACTOR=1
##YFACTOR=1
##FIRSTX=26
##LASTX=360
##FIRSTY=10
##MAXX=360
##MINX=26
##MAXY=9999
##MINY=10
##NPOINTS=192
##PEAK TABLE=(XY..XY)
26,10 27,30 28,10 35,40
36,239 37,20 38,80 39,119
47,10 49,20 50,269 51,259
52,30 56,10 60,10 61,70
62,129 63,199 64,20 65,10
67,10 68,20 69,30 70,20
72,10 73,119 74,259 75,559
76,99 77,60 79,10 80,20
81,139 82,399 83,20 84,50
85,90 86,119 87,299 88,499
89,70 92,70 93,99 94,20
96,20 97,60 98,109 99,289
100,189 101,149 102,20 104,40
105,469 106,289 107,40 108,20
109,70 110,139 111,149 112,40
113,70 114,40 115,40 117,40
118,10 119,40 120,10 121,20
122,90 123,559 124,349 125,119
126,60 127,20 128,10 132,10
133,30 134,40 135,139 136,349
137,139 138,149 139,80 140,60
141,99 142,60 143,10 145,10
146,30 147,30 148,30 149,109
150,129 151,99 152,30 158,10
159,30 160,50 161,40 162,50
163,339 164,359 165,2779 166,419
167,30 169,10 170,159 171,179
172,129 173,139 174,159 175,219
176,859 177,199 178,30 181,10
183,10 184,30 185,40 186,40
187,10 188,10 195,10 196,10
197,30 198,20 199,1019 200,599
201,439 202,199 203,30 205,20
206,119 207,40 208,129 209,30
210,259 211,149 212,749 213,149
214,239 215,40 217,10 218,10
220,10 222,20 230,10 232,10
233,40 234,30 235,9999 236,1489
237,6439 238,909 239,1069 240,169
241,20 244,30 245,30 246,1069
247,299 248,729 249,179 250,129
251,30 252,10 280,30 281,179
282,239 283,219 284,189 285,80
286,70 287,20 288,10 316,179
317,149 318,259 319,199 320,129
321,109 322,40 323,30 352,279
353,50 354,449 355,70 356,279
357,50 358,90 359,20 360,20
##END=
