##TITLE=2-Aminochrysene
##JCAMP-DX=4.24
##DATA TYPE=MASS SPECTRUM
##ORIGIN=NIST Mass Spectrometry Data Center, 1994
##OWNER=NIST Mass Spectrometry Data Center
Collection (C) 2014 copyright by the U.S. Secretary of Commerce
on behalf of the United States of America. All rights reserved.
##CAS REGISTRY NO=789-47-9
##$NIST MASS SPEC NO=136203
##MOLFORM=C18 H13 N
##MW=243
##$NIST SOURCE=MSDC
##XUNITS=M/Z
##YUNITS=RELATIVE INTENSITY
##XFACTOR=1
##YFACTOR=1
##FIRSTX=39
##LASTX=245
##FIRSTY=106
##MAXX=245
##MINX=39
##MAXY=9999
##MINY=35
##NPOINTS=63
##PEAK TABLE=(XY..XY)
39,106 50,67 51,107 52,43
62,64 63,141 75,81 76,56
82,93 86,83 87,93 88,72
89,51 94,208 95,319 96,62
98,57 99,56 100,58 107,497
108,625 112,97 113,73 114,42
115,91 120,64 121,266 122,602
139,66 150,54 163,97 164,60
165,42 176,50 186,45 187,170
188,107 189,292 190,64 200,65
201,41 202,68 203,35 211,161
212,111 213,771 214,302 215,2615
216,599 217,103 224,147 225,93
226,169 227,171 228,65 238,133
239,72 240,500 241,867 242,1140
243,9999 244,1999 245,211
##END=
