##TITLE=Acetamide, 2-chloro-
##JCAMP-DX=4.24
##DATA TYPE=MASS SPECTRUM
##ORIGIN=Japan AIST/NIMC Database- Spectrum MS-NW-4930
##OWNER=NIST Mass Spectrometry Data Center
Collection (C) 2014 copyright by the U.S. Secretary of Commerce
on behalf of the United States of America. All rights reserved.
##CAS REGISTRY NO=79-07-2
##$NIST MASS SPEC NO=230033
##MOLFORM=C2 H4 Cl N O
##MW=93
##$NIST SOURCE=MSDC
##XUNITS=M/Z
##YUNITS=RELATIVE INTENSITY
##XFACTOR=1
##YFACTOR=1
##FIRSTX=12
##LASTX=96
##FIRSTY=40
##MAXX=96
##MINX=12
##MAXY=9999
##MINY=10
##NPOINTS=44
##PEAK TABLE=(XY..XY)
12,40 13,70 14,249 15,80
16,199 17,30 18,10 26,10
27,109 28,469 29,99 30,689
31,20 32,10 35,60 36,129
37,10 38,40 39,40 40,90
41,99 42,629 43,149 44,9999
45,149 46,20 47,70 48,169
49,779 50,80 51,229 52,10
58,249 59,10 64,20 75,50
76,70 77,70 78,20 79,10
93,1419 94,50 95,459 96,20
##END=
