##TITLE=Acetic acid, bromo-
##JCAMP-DX=4.24
##DATA TYPE=MASS SPECTRUM
##ORIGIN=Japan AIST/NIMC Database- Spectrum MS-NW-1809
##OWNER=NIST Mass Spectrometry Data Center
Collection (C) 2014 copyright by the U.S. Secretary of Commerce
on behalf of the United States of America. All rights reserved.
##CAS REGISTRY NO=79-08-3
##$NIST MASS SPEC NO=228702
##MOLFORM=C2 H3 Br O2
##MW=138
##$NIST SOURCE=MSDC
##XUNITS=M/Z
##YUNITS=RELATIVE INTENSITY
##XFACTOR=1
##YFACTOR=1
##FIRSTX=12
##LASTX=142
##FIRSTY=109
##MAXX=142
##MINX=12
##MAXY=9999
##MINY=10
##NPOINTS=53
##PEAK TABLE=(XY..XY)
12,109 13,379 14,1139 15,3719
16,40 17,30 18,99 24,20
25,50 26,40 28,609 29,1169
30,109 31,1179 32,10 36,20
40,70 41,479 42,1939 43,139
44,509 45,4009 46,50 47,20
50,30 59,199 60,30 61,30
72,10 79,639 80,349 81,649
82,339 83,20 91,299 92,449
93,3509 94,9999 95,3349 96,9299
97,99 103,10 109,20 111,10
120,119 121,349 122,119 123,339
138,4179 139,109 140,4029 141,99
142,20
##END=
