##TITLE=Aminoguanidine
##JCAMP-DX=4.24
##DATA TYPE=MASS SPECTRUM
##ORIGIN=A.E.WILLIAMS ICI DYESTUFFS DIVISION. BLACKLEY.
##OWNER=NIST Mass Spectrometry Data Center
Collection (C) 2014 copyright by the U.S. Secretary of Commerce
on behalf of the United States of America. All rights reserved.
##CAS REGISTRY NO=79-17-4
##$NIST MASS SPEC NO=358
##MOLFORM=C H6 N4
##MW=74
##$NIST SOURCE=MSDC
##XUNITS=M/Z
##YUNITS=RELATIVE INTENSITY
##XFACTOR=1
##YFACTOR=1
##FIRSTX=16
##LASTX=75
##FIRSTY=260
##MAXX=75
##MINX=16
##MAXY=9999
##MINY=10
##NPOINTS=27
##PEAK TABLE=(XY..XY)
16,260 17,806 18,3620 26,40
27,290 28,2450 29,538 30,2770
31,1670 32,6560 33,48 35,10
36,75 38,25 40,21 41,280
42,1470 43,6670 44,1707 45,35
57,2340 58,470 59,28 60,10
73,80 74,9999 75,224
##END=
