##TITLE=Acetamide, N-methyl-
##JCAMP-DX=4.24
##DATA TYPE=MASS SPECTRUM
##ORIGIN=Japan AIST/NIMC Database- Spectrum MS-NW-4322
##OWNER=NIST Mass Spectrometry Data Center
Collection (C) 2014 copyright by the U.S. Secretary of Commerce
on behalf of the United States of America. All rights reserved.
##CAS REGISTRY NO=79-16-3
##$NIST MASS SPEC NO=230310
##MOLFORM=C3 H7 N O
##MW=73
##$NIST SOURCE=MSDC
##XUNITS=M/Z
##YUNITS=RELATIVE INTENSITY
##XFACTOR=1
##YFACTOR=1
##FIRSTX=12
##LASTX=75
##FIRSTY=30
##MAXX=75
##MINX=12
##MAXY=9999
##MINY=10
##NPOINTS=41
##PEAK TABLE=(XY..XY)
12,30 13,109 14,459 15,3219
16,20 17,10 18,40 24,10
25,30 26,99 27,239 28,2129
29,259 30,8729 31,2219 32,579
33,10 38,50 39,40 40,99
41,169 42,1059 43,9999 44,329
45,639 46,20 50,10 51,40
52,50 53,10 54,109 55,50
56,80 58,4519 59,119 60,40
71,10 72,30 73,9329 74,379
75,20
##END=
