##TITLE=Butane, 2,3-dimethyl-
##JCAMP-DX=4.24
##DATA TYPE=MASS SPECTRUM
##ORIGIN=NIST Mass Spectrometry Data Center, 1998.
##OWNER=NIST Mass Spectrometry Data Center
Collection (C) 2014 copyright by the U.S. Secretary of Commerce
on behalf of the United States of America. All rights reserved.
##CAS REGISTRY NO=79-29-8
##$NIST MASS SPEC NO=291518
##MOLFORM=C6 H14
##MW=86
##$NIST SOURCE=MSDC
##XUNITS=M/Z
##YUNITS=RELATIVE INTENSITY
##XFACTOR=1
##YFACTOR=1
##FIRSTX=14
##LASTX=87
##FIRSTY=10
##MAXX=87
##MINX=14
##MAXY=9999
##MINY=10
##NPOINTS=40
##PEAK TABLE=(XY..XY)
14,10 15,130 16,10 26,80
27,1260 28,40 29,550 30,10
37,50 38,170 39,2040 40,340
41,4510 42,8259 43,9999 44,390
49,10 50,120 51,200 52,70
53,410 54,80 55,1160 56,210
57,90 61,10 62,20 63,30
65,40 66,10 67,60 68,10
69,120 70,170 71,3340 72,200
73,10 85,170 86,700 87,50
##END=
