##TITLE=Ethane, 1,1,2,2-tetrabromo-
##JCAMP-DX=4.24
##DATA TYPE=MASS SPECTRUM
##ORIGIN=NIST Mass Spectrometry Data Center
##OWNER=NIST Mass Spectrometry Data Center
Collection (C) 2014 copyright by the U.S. Secretary of Commerce
on behalf of the United States of America. All rights reserved.
##CAS REGISTRY NO=79-27-6
##$NIST MASS SPEC NO=341366
##MOLFORM=C2 H2 Br4
##MW=342
##$NIST SOURCE=MSDC
##XUNITS=M/Z
##YUNITS=RELATIVE INTENSITY
##XFACTOR=1
##YFACTOR=1
##FIRSTX=13
##LASTX=350
##FIRSTY=10
##MAXX=350
##MINX=13
##MAXY=9999
##MINY=10
##NPOINTS=51
##PEAK TABLE=(XY..XY)
13,10 24,30 25,250 26,841
27,10 79,1301 80,130 81,1281
82,120 91,160 92,130 93,170
94,130 103,100 104,831 105,1912
106,841 107,1772 108,30 158,310
160,611 162,300 170,10 171,200
172,20 173,400 174,10 175,200
182,40 183,310 184,1451 185,651
186,2692 187,350 188,1291 189,20
263,3803 264,100 265,9999 266,300
267,9609 268,230 269,3363 270,60
342,180 344,731 346,1051 347,20
348,671 349,10 350,150
##END=
