##TITLE=Ethane, nitro-
##JCAMP-DX=4.24
##DATA TYPE=MASS SPECTRUM
##ORIGIN=Japan AIST/NIMC Database- Spectrum MS-NW- 669
##OWNER=NIST Mass Spectrometry Data Center
Collection (C) 2014 copyright by the U.S. Secretary of Commerce
on behalf of the United States of America. All rights reserved.
##CAS REGISTRY NO=79-24-3
##$NIST MASS SPEC NO=227638
##MOLFORM=C2 H5 N O2
##MW=75
##$NIST SOURCE=MSDC
##XUNITS=M/Z
##YUNITS=RELATIVE INTENSITY
##XFACTOR=1
##YFACTOR=1
##FIRSTX=12
##LASTX=60
##FIRSTY=30
##MAXX=60
##MINX=12
##MAXY=9999
##MINY=10
##NPOINTS=28
##PEAK TABLE=(XY..XY)
12,30 13,30 14,109 15,219
16,20 24,10 25,60 26,559
27,5549 28,589 29,9999 30,1169
31,10 32,10 38,70 39,149
40,249 41,609 42,70 43,229
44,139 45,40 46,269 55,20
56,30 57,90 59,20 60,50
##END=
