##TITLE=Ethene, chlorotrifluoro-
##JCAMP-DX=4.24
##DATA TYPE=MASS SPECTRUM
##OWNER=NIST Mass Spectrometry Data Center
Collection (C) 2014 copyright by the U.S. Secretary of Commerce
on behalf of the United States of America. All rights reserved.
##CAS REGISTRY NO=79-38-9
##$NIST MASS SPEC NO=1996
##MOLFORM=C2 Cl F3
##MW=116
##$NIST SOURCE=MSDC
##XUNITS=M/Z
##YUNITS=RELATIVE INTENSITY
##XFACTOR=1
##YFACTOR=1
##FIRSTX=2
##LASTX=119
##FIRSTY=50
##MAXX=119
##MINX=2
##MAXY=9999
##MINY=10
##NPOINTS=53
##PEAK TABLE=(XY..XY)
2,50 14,10 15,20 19,110
20,10 24,380 25,20 26,20
27,30 28,120 29,10 31,8678
32,100 33,10 35,761 36,10
37,240 38,10 39,10 40,40
41,10 43,320 44,30 47,2612
48,30 49,851 50,1051 51,20
58,160 59,110 61,20 62,370
63,20 66,3843 67,50 68,1251
69,70 78,120 80,40 81,1672
82,40 85,3303 86,40 87,1081
88,10 97,3113 98,80 99,1021
100,30 116,9999 117,230 118,3263
119,90
##END=
