##TITLE=Ethene, 1,1-dichloro-2,2-difluoro-
##JCAMP-DX=4.24
##DATA TYPE=MASS SPECTRUM
##OWNER=NIST Mass Spectrometry Data Center
Collection (C) 2014 copyright by the U.S. Secretary of Commerce
on behalf of the United States of America. All rights reserved.
##CAS REGISTRY NO=79-35-6
##$NIST MASS SPEC NO=20889
##MOLFORM=C2 Cl2 F2
##MW=132
##$NIST SOURCE=MSDC
##XUNITS=M/Z
##YUNITS=RELATIVE INTENSITY
##XFACTOR=1
##YFACTOR=1
##FIRSTX=12
##LASTX=137
##FIRSTY=70
##MAXX=137
##MINX=12
##MAXY=9999
##MINY=10
##NPOINTS=56
##PEAK TABLE=(XY..XY)
12,70 24,50 25,10 31,891
35,190 37,60 43,120 47,2102
48,30 49,701 50,170 51,10
59,60 60,10 61,20 62,90
63,20 64,10 65,10 66,290
67,120 68,60 69,10 70,10
78,420 79,20 80,140 81,20
82,3843 83,60 84,2372 85,170
86,390 87,50 94,10 95,10
96,10 97,771 98,50 99,320
100,20 101,150 102,10 103,80
105,10 113,500 114,20 115,320
116,10 117,50 132,9999 133,260
134,6556 135,140 136,1031 137,30
##END=
