##TITLE=Acetyl chloride, dichloro-
##JCAMP-DX=4.24
##DATA TYPE=MASS SPECTRUM
##ORIGIN=Japan AIST/NIMC Database- Spectrum MS-NW-2935
##OWNER=NIST Mass Spectrometry Data Center
Collection (C) 2014 copyright by the U.S. Secretary of Commerce
on behalf of the United States of America. All rights reserved.
##CAS REGISTRY NO=79-36-7
##$NIST MASS SPEC NO=230522
##MOLFORM=C2 H Cl3 O
##MW=146
##$NIST SOURCE=MSDC
##XUNITS=M/Z
##YUNITS=RELATIVE INTENSITY
##XFACTOR=1
##YFACTOR=1
##FIRSTX=12
##LASTX=150
##FIRSTY=20
##MAXX=150
##MINX=12
##MAXY=9999
##MINY=10
##NPOINTS=62
##PEAK TABLE=(XY..XY)
12,20 16,10 24,30 25,80
28,179 29,40 35,579 36,309
37,179 38,99 40,60 41,309
42,40 44,80 47,839 48,1289
49,359 50,439 51,30 55,30
59,30 60,60 61,10 62,30
63,4369 64,50 65,1429 66,10
70,30 72,20 76,1329 77,189
78,449 79,70 80,20 82,179
83,9999 84,249 85,6169 86,90
87,1019 88,10 94,10 95,10
107,10 109,10 110,60 111,1009
112,60 113,619 114,20 115,99
117,10 118,60 119,10 120,50
122,10 127,10 129,10 146,169
148,169 150,50
##END=
