##TITLE=Propanoyl chloride, 2-methyl-
##JCAMP-DX=4.24
##DATA TYPE=MASS SPECTRUM
##ORIGIN=Japan AIST/NIMC Database- Spectrum MS-NW-2558
##OWNER=NIST Mass Spectrometry Data Center
Collection (C) 2014 copyright by the U.S. Secretary of Commerce
on behalf of the United States of America. All rights reserved.
##CAS REGISTRY NO=79-30-1
##$NIST MASS SPEC NO=229222
##MOLFORM=C4 H7 Cl O
##MW=106
##$NIST SOURCE=MSDC
##XUNITS=M/Z
##YUNITS=RELATIVE INTENSITY
##XFACTOR=1
##YFACTOR=1
##FIRSTX=13
##LASTX=106
##FIRSTY=10
##MAXX=106
##MINX=13
##MAXY=9999
##MINY=10
##NPOINTS=46
##PEAK TABLE=(XY..XY)
13,10 14,40 15,179 17,10
18,50 25,50 26,379 27,3199
28,249 29,40 35,50 36,159
37,139 38,229 39,1309 40,289
41,4719 42,599 43,9999 44,349
45,10 47,10 48,10 49,40
50,20 51,10 53,50 55,99
56,40 59,10 60,10 61,20
62,10 63,299 65,99 69,10
70,189 71,3209 72,139 73,20
75,10 77,30 78,90 80,30
91,30 106,10
##END=
