##TITLE=2-Mercaptopropanoic acid
##JCAMP-DX=4.24
##DATA TYPE=MASS SPECTRUM
##ORIGIN=NIST Mass Spectrometry Data Center, 1998.
##OWNER=NIST Mass Spectrometry Data Center
Collection (C) 2014 copyright by the U.S. Secretary of Commerce
on behalf of the United States of America. All rights reserved.
##CAS REGISTRY NO=79-42-5
##$NIST MASS SPEC NO=292028
##MOLFORM=C3 H6 O2 S
##MW=106
##$NIST SOURCE=MSDC
##XUNITS=M/Z
##YUNITS=RELATIVE INTENSITY
##XFACTOR=1
##YFACTOR=1
##FIRSTX=15
##LASTX=108
##FIRSTY=30
##MAXX=108
##MINX=15
##MAXY=9999
##MINY=10
##NPOINTS=54
##PEAK TABLE=(XY..XY)
15,30 25,50 26,360 27,1440
28,390 29,410 30,20 31,30
32,100 33,260 34,200 35,1100
36,30 37,60 38,20 39,20
41,20 42,40 43,180 44,130
45,2800 46,240 47,350 48,30
49,40 52,20 53,120 54,40
55,730 56,230 57,310 58,670
59,1320 60,1760 61,9999 62,440
63,510 64,20 71,20 72,30
73,160 74,20 77,20 78,240
79,10 80,20 87,20 88,500
89,30 90,40 91,30 106,4070
107,180 108,200
##END=
