##TITLE=.alpha.-Irone
##JCAMP-DX=4.24
##DATA TYPE=MASS SPECTRUM
##ORIGIN=Philip Morris R&D
##OWNER=NIST Mass Spectrometry Data Center
Collection (C) 2014 copyright by the U.S. Secretary of Commerce
on behalf of the United States of America. All rights reserved.
##CAS REGISTRY NO=79-69-6
##$NIST MASS SPEC NO=108871
##MOLFORM=C14 H22 O
##MW=206
##$NIST SOURCE=MSDC
##XUNITS=M/Z
##YUNITS=RELATIVE INTENSITY
##XFACTOR=1
##YFACTOR=1
##FIRSTX=39
##LASTX=207
##FIRSTY=504
##MAXX=207
##MINX=39
##MAXY=9999
##MINY=15
##NPOINTS=84
##PEAK TABLE=(XY..XY)
39,504 40,122 41,1396 42,248
43,5246 44,206 45,220 51,218
52,86 53,444 54,70 55,1204
57,224 58,71 63,30 64,42
65,323 66,56 67,374 68,31
69,268 70,613 71,273 77,1221
78,205 79,627 80,144 81,381
82,139 83,258 84,22 85,31
91,1546 92,1471 93,8714 94,868
95,475 96,151 97,30 103,67
104,27 105,448 106,74 107,550
108,221 109,1440 110,113 111,68
112,126 115,89 116,18 117,132
119,298 120,71 121,9999 122,1132
123,191 124,61 125,46 128,34
129,33 130,30 131,108 133,282
134,44 135,501 136,7925 137,2305
138,200 145,209 146,37 147,73
148,335 149,276 150,59 156,15
162,15 163,430 164,83 173,142
191,469 192,47 206,2511 207,349
##END=
