##TITLE=Lanosterol
##JCAMP-DX=4.24
##DATA TYPE=MASS SPECTRUM
##ORIGIN=LAC, NIDDK, NIH, Bethesda, MD 20892
##OWNER=NIST Mass Spectrometry Data Center
Collection (C) 2014 copyright by the U.S. Secretary of Commerce
on behalf of the United States of America. All rights reserved.
##CAS REGISTRY NO=79-63-0
##$NIST MASS SPEC NO=253156
##MOLFORM=C30 H50 O
##MW=426
##$NIST SOURCE=MSDC
##XUNITS=M/Z
##YUNITS=RELATIVE INTENSITY
##XFACTOR=1
##YFACTOR=1
##FIRSTX=41
##LASTX=429
##FIRSTY=6406
##MAXX=429
##MINX=41
##MAXY=9999
##MINY=5
##NPOINTS=182
##PEAK TABLE=(XY..XY)
41,6406 43,9137 44,106 45,357
53,692 55,6438 57,3224 59,476
65,212 67,1885 69,9999 70,271
71,2012 72,79 73,67 77,539
79,1596 81,3349 83,2406 85,635
91,1594 93,2103 95,4210 97,1628
98,47 99,284 103,143 105,2175
107,2798 109,4428 110,138 111,1094
113,189 115,282 117,709 119,2261
121,2487 123,2045 125,570 127,283
128,243 129,396 131,1141 133,1846
135,2489 136,302 137,823 138,40
139,243 141,261 142,172 143,703
145,1493 147,1550 149,1358 150,160
151,387 153,452 154,53 155,322
157,726 159,1467 161,1991 163,1025
165,434 166,43 167,63 168,69
169,292 171,755 173,1119 175,1169
177,524 179,361 181,110 183,245
185,646 187,1435 189,1433 191,670
193,321 195,82 197,258 199,576
201,754 203,690 205,601 206,47
207,356 211,217 213,616 214,214
215,1060 217,535 219,373 221,119
225,253 227,696 229,899 230,47
231,390 233,312 235,202 236,37
239,215 240,243 241,992 242,73
243,648 245,412 247,607 248,105
251,35 253,303 255,577 257,502
258,62 259,1230 260,186 261,400
262,164 263,54 267,173 269,293
271,783 272,141 273,785 274,281
275,293 276,34 281,147 283,297
285,206 286,75 287,267 288,180
289,80 290,36 295,134 297,268
299,304 301,238 302,80 303,88
309,149 311,360 312,34 313,310
314,132 315,193 323,171 325,186
327,219 329,200 337,125 339,176
341,342 342,80 343,36 355,153
357,49 383,75 391,117 393,2193
394,696 395,212 396,61 397,9
398,5 409,329 410,137 411,5389
412,1744 413,491 414,130 415,22
424,459 425,369 426,3468 427,1145
428,444 429,56
##END=
