##TITLE=1,4-Benzenediol, 2,5-bis(1,1-dimethylpropyl)-
##JCAMP-DX=4.24
##DATA TYPE=MASS SPECTRUM
##ORIGIN=NIST Mass Spectrometry Data Center, 1994
##OWNER=NIST Mass Spectrometry Data Center
Collection (C) 2014 copyright by the U.S. Secretary of Commerce
on behalf of the United States of America. All rights reserved.
##CAS REGISTRY NO=79-74-3
##$NIST MASS SPEC NO=133743
##MOLFORM=C16 H26 O2
##MW=250
##$NIST SOURCE=MSDC
##XUNITS=M/Z
##YUNITS=RELATIVE INTENSITY
##XFACTOR=1
##YFACTOR=1
##FIRSTX=14
##LASTX=252
##FIRSTY=41
##MAXX=252
##MINX=14
##MAXY=9999
##MINY=26
##NPOINTS=135
##PEAK TABLE=(XY..XY)
14,41 15,137 18,34 27,1173
28,381 29,2940 30,56 39,515
40,139 41,1513 42,56 43,2329
44,87 50,31 51,203 52,113
53,507 54,31 55,880 56,78
57,683 58,54 59,28 63,84
64,58 65,335 66,130 67,382
68,28 69,529 70,28 71,1669
72,122 74,36 75,56 77,660
78,205 79,494 80,87 81,263
82,36 83,592 84,43 85,212
89,110 91,854 92,104 93,207
94,56 95,192 96,36 97,60
102,66 103,291 104,78 105,442
106,74 107,340 108,77 109,191
110,45 111,32 115,565 116,219
117,218 118,57 119,208 120,54
121,292 122,87 123,461 124,69
125,41 127,173 128,260 129,247
130,106 131,288 132,114 133,220
134,45 135,212 136,127 137,676
138,81 139,61 141,87 142,41
143,42 144,93 145,153 146,78
147,199 148,59 149,598 150,176
151,681 152,98 153,75 157,68
158,60 159,144 160,57 161,109
162,54 163,497 164,200 165,407
166,46 173,79 174,93 175,90
176,46 177,941 178,161 179,84
187,26 189,28 191,504 192,1032
193,488 194,67 203,34 205,186
206,110 207,98 219,46 221,9999
222,1558 223,148 235,208 236,40
250,1840 251,359 252,35
##END=
