##TITLE=Phenol, 4,4'-(1-methylethylidene)bis[2,6-dichloro-
##JCAMP-DX=4.24
##DATA TYPE=MASS SPECTRUM
##ORIGIN=Japan AIST/NIMC Database- Spectrum MS-NW-3947
##OWNER=NIST Mass Spectrometry Data Center
Collection (C) 2014 copyright by the U.S. Secretary of Commerce
on behalf of the United States of America. All rights reserved.
##CAS REGISTRY NO=79-95-8
##$NIST MASS SPEC NO=232855
##MOLFORM=C15 H12 Cl4 O2
##MW=364
##$NIST SOURCE=MSDC
##XUNITS=M/Z
##YUNITS=RELATIVE INTENSITY
##XFACTOR=1
##YFACTOR=1
##FIRSTX=15
##LASTX=372
##FIRSTY=30
##MAXX=372
##MINX=15
##MAXY=9999
##MINY=10
##NPOINTS=301
##PEAK TABLE=(XY..XY)
15,30 17,40 18,229 26,20
27,90 28,229 29,30 32,10
35,40 36,269 37,30 38,80
39,319 40,20 41,1209 42,40
43,80 44,10 47,10 49,30
50,119 51,279 52,40 53,389
54,20 55,40 56,10 60,20
61,129 62,359 63,569 64,70
65,50 66,30 67,30 68,40
69,30 70,20 71,10 72,40
73,289 74,179 75,589 76,199
77,279 78,50 79,50 80,60
81,60 82,99 83,60 84,40
85,99 86,109 87,219 88,119
89,359 90,119 91,60 92,90
93,289 94,99 95,10 96,60
97,249 98,149 99,239 100,99
101,179 102,109 103,169 104,90
105,50 106,50 107,319 108,119
109,90 110,90 111,249 112,80
113,99 114,99 115,119 116,80
117,50 118,60 119,30 120,30
121,80 122,339 123,559 124,109
125,569 126,329 127,99 128,80
129,119 130,70 131,199 132,119
133,119 134,40 135,99 136,60
137,90 138,50 139,579 140,399
141,139 142,30 143,30 144,20
145,20 146,80 147,169 148,129
149,90 150,249 151,379 152,779
153,219 154,249 155,70 156,20
157,60 158,50 159,179 160,50
161,129 162,119 163,129 164,189
165,189 166,129 167,189 168,139
169,90 170,50 171,70 172,40
173,50 174,30 175,489 176,70
177,319 178,40 179,99 180,50
181,159 182,60 183,70 184,60
185,90 186,189 187,2339 188,349
189,1519 190,199 191,299 192,40
193,20 194,40 195,40 196,20
197,30 198,20 199,60 200,40
201,60 202,90 203,1329 204,179
205,889 206,109 207,189 208,50
209,40 210,20 211,20 212,20
213,50 214,60 215,469 216,159
217,169 218,60 219,10 220,30
221,30 222,20 223,50 224,20
225,40 226,30 227,20 228,30
229,60 230,50 231,40 232,20
233,20 234,10 235,30 236,40
237,20 238,30 239,30 240,10
241,30 242,20 243,99 244,379
245,90 246,139 247,30 248,10
249,149 250,179 251,149 252,129
253,50 254,30 255,10 256,10
257,20 258,30 259,20 260,20
261,10 262,30 263,30 264,60
265,60 266,50 267,30 268,10
269,10 270,20 271,10 272,20
273,10 277,40 278,329 279,309
280,259 281,199 282,70 283,50
284,20 285,40 286,20 287,40
288,40 289,20 290,30 291,20
292,40 293,60 294,40 295,40
296,20 297,10 298,20 299,60
300,70 301,80 302,60 303,40
304,20 305,10 312,30 313,99
314,379 315,259 316,379 317,199
327,40 328,30 329,90 330,80
331,70 349,7789 350,1269 351,9999
352,1579 353,4849 354,759 355,1079
356,169 357,99 358,20 363,20
364,2389 365,439 366,3079 367,519
368,1449 369,249 370,339 371,60
372,30
##END=
