##TITLE=Camphene
##JCAMP-DX=4.24
##DATA TYPE=MASS SPECTRUM
##ORIGIN=NIST Mass Spectrometry Data Center, 1990.
##OWNER=NIST Mass Spectrometry Data Center
Collection (C) 2014 copyright by the U.S. Secretary of Commerce
on behalf of the United States of America. All rights reserved.
##CAS REGISTRY NO=79-92-5
##$NIST MASS SPEC NO=114291
##MOLFORM=C10 H16
##MW=136
##$NIST SOURCE=MSDC
##XUNITS=M/Z
##YUNITS=RELATIVE INTENSITY
##XFACTOR=1
##YFACTOR=1
##FIRSTX=26
##LASTX=138
##FIRSTY=235
##MAXX=138
##MINX=26
##MAXY=9999
##MINY=8
##NPOINTS=44
##PEAK TABLE=(XY..XY)
26,235 27,1971 28,240 29,686
39,3350 40,789 41,3173 42,254
43,390 44,38 50,399 51,1052
52,458 53,1547 54,276 55,871
62,155 63,314 65,1295 66,825
67,2948 68,1306 69,558 70,158
77,2807 78,667 79,3997 80,890
81,667 82,276 91,3734 92,1425
93,9999 94,1882 95,1465 103,136
105,804 107,2595 108,789 121,5829
122,543 136,1473 137,169 138,8
##END=
