##TITLE=4,4'-Diacetyldiphenylmethane
##JCAMP-DX=4.24
##DATA TYPE=MASS SPECTRUM
##ORIGIN=NIST Mass Spectrometry Data Center, 1994
##OWNER=NIST Mass Spectrometry Data Center
Collection (C) 2014 copyright by the U.S. Secretary of Commerce
on behalf of the United States of America. All rights reserved.
##CAS REGISTRY NO=790-82-9
##$NIST MASS SPEC NO=135072
##MOLFORM=C17 H16 O2
##MW=252
##$NIST SOURCE=MSDC
##XUNITS=M/Z
##YUNITS=RELATIVE INTENSITY
##XFACTOR=1
##YFACTOR=1
##FIRSTX=4
##LASTX=254
##FIRSTY=11
##MAXX=254
##MINX=4
##MAXY=9999
##MINY=4
##NPOINTS=103
##PEAK TABLE=(XY..XY)
4,11 14,15 15,156 18,26
27,71 28,96 32,4 38,21
39,182 40,29 41,18 42,4
43,4284 44,103 50,139 51,152
52,26 53,19 62,72 63,300
64,83 65,93 70,90 71,10
74,66 75,110 76,169 77,180
78,54 79,66 82,637 84,100
86,30 87,74 88,71 89,510
90,314 91,59 95,13 96,219
97,109 98,26 99,11 100,11
101,27 102,42 103,69 104,48
105,210 106,18 111,853 113,64
114,45 115,198 116,27 118,60
126,53 127,48 128,50 131,9
133,25 137,30 138,30 139,229
140,42 141,27 150,29 151,57
152,252 153,51 163,286 164,331
165,1544 166,456 167,382 168,52
176,37 177,28 178,106 179,59
180,30 181,19 189,31 190,21
191,22 192,14 193,41 194,276
195,81 196,10 208,15 209,105
210,66 211,10 223,17 235,10
237,9999 238,1775 239,199 240,13
252,3537 253,660 254,79
##END=
