##TITLE=N-tert-Butoxycarbonyl-4-piperidone
##JCAMP-DX=4.24
##DATA TYPE=MASS SPECTRUM
##ORIGIN=NIST Mass Spectrometry Data Center
##OWNER=NIST Mass Spectrometry Data Center
Collection (C) 2014 copyright by the U.S. Secretary of Commerce
on behalf of the United States of America. All rights reserved.
##CAS REGISTRY NO=79099-07-3
##$NIST MASS SPEC NO=342924
##MOLFORM=C10 H17 N O3
##MW=199
##$NIST SOURCE=MSDC
##XUNITS=M/Z
##YUNITS=RELATIVE INTENSITY
##XFACTOR=1
##YFACTOR=1
##FIRSTX=12
##LASTX=200
##FIRSTY=10
##MAXX=200
##MINX=12
##MAXY=9999
##MINY=10
##NPOINTS=58
##PEAK TABLE=(XY..XY)
12,10 14,20 15,460 16,10
18,40 26,150 27,921 28,1371
29,1792 30,390 31,80 37,20
39,771 40,260 41,3393 42,1581
43,771 44,190 45,50 50,30
51,40 52,10 53,90 54,150
55,651 56,1702 57,9999 58,470
59,90 60,10 68,40 70,671
71,60 72,20 73,10 74,20
82,20 83,20 84,20 87,30
96,10 98,1601 99,751 100,180
101,50 114,20 115,30 126,1091
127,80 140,90 141,150 142,300
144,1311 145,80 146,10 184,10
199,90 200,10
##END=
