##TITLE=Silane, methyltriphenyl-
##JCAMP-DX=4.24
##DATA TYPE=MASS SPECTRUM
##ORIGIN=D.HENNEBERG, MAX-PLANCK INSTITUTE, MULHEIM, WEST GERMANY
##OWNER=NIST Mass Spectrometry Data Center
Collection (C) 2014 copyright by the U.S. Secretary of Commerce
on behalf of the United States of America. All rights reserved.
##CAS REGISTRY NO=791-29-7
##$NIST MASS SPEC NO=62729
##MOLFORM=C19 H18 Si
##MW=274
##$NIST SOURCE=MSDC
##XUNITS=M/Z
##YUNITS=RELATIVE INTENSITY
##XFACTOR=1
##YFACTOR=1
##FIRSTX=25
##LASTX=278
##FIRSTY=10
##MAXX=278
##MINX=25
##MAXY=9999
##MINY=2
##NPOINTS=198
##PEAK TABLE=(XY..XY)
25,10 26,20 27,33 30,27
31,8 33,3 35,10 37,6
39,55 40,9 41,42 43,366
48,19 50,53 51,156 52,31
53,754 54,79 55,55 63,28
65,46 66,48 67,175 68,12
69,81 70,22 71,25 74,35
77,78 79,354 80,27 83,30
84,19 85,10 86,11 87,12
88,3 89,34 90,21 91,138
92,34 93,383 95,72 96,23
97,68 98,441 99,31 100,24
101,29 103,406 104,147 105,1796
106,227 107,129 108,31 109,2
110,10 111,6 113,5 114,13
115,84 117,87 118,49 119,379
120,518 121,101 122,36 123,35
124,53 125,62 127,100 128,80
129,215 130,83 131,118 132,59
133,20 134,24 135,3 136,20
137,24 138,16 139,48 140,51
141,53 142,12 143,76 144,4
145,104 147,16 148,11 150,23
151,43 152,87 153,80 154,66
155,448 156,97 157,25 158,16
159,20 160,19 161,8 163,20
164,39 165,375 166,87 167,123
168,33 169,21 171,17 173,11
175,33 176,57 177,35 178,58
179,233 180,473 181,1133 182,73
185,22 189,19 190,32 191,43
192,41 193,167 194,80 195,554
196,361 197,1847 198,414 199,83
200,18 201,9 202,22 203,16
204,14 205,70 206,14 207,16
208,12 209,11 210,8 211,21
213,15 214,2 215,3 216,7
217,4 218,12 219,93 220,43
221,16 222,18 223,4 224,3
226,19 227,7 228,33 229,46
230,8 231,45 232,20 233,15
234,4 235,6 236,4 237,17
239,17 241,44 242,8 243,20
244,72 245,105 246,45 247,31
248,31 250,40 252,85 253,122
254,147 255,267 256,211 257,472
259,9999 260,2496 261,698 262,122
264,10 265,11 266,6 267,17
271,56 274,1286 275,305 276,74
277,9 278,13
##END=
