##TITLE=Clofedanol
##JCAMP-DX=4.24
##DATA TYPE=MASS SPECTRUM
##ORIGIN=Patti Price, Georgia Bureau of Investigation, Decatur, Georgia
##OWNER=NIST Mass Spectrometry Data Center
Collection (C) 2014 copyright by the U.S. Secretary of Commerce
on behalf of the United States of America. All rights reserved.
##CAS REGISTRY NO=791-35-5
##$NIST MASS SPEC NO=248307
##MOLFORM=C17 H20 Cl N O
##MW=289
##$NIST SOURCE=MSDC
##XUNITS=M/Z
##YUNITS=RELATIVE INTENSITY
##XFACTOR=1
##YFACTOR=1
##FIRSTX=42
##LASTX=291
##FIRSTY=390
##MAXX=291
##MINX=42
##MAXY=9999
##MINY=10
##NPOINTS=177
##PEAK TABLE=(XY..XY)
42,390 43,140 44,300 45,420
50,70 51,210 52,20 53,10
54,10 55,60 56,170 57,160
58,9999 59,400 61,10 62,10
64,10 65,50 66,10 68,10
69,10 70,130 71,160 72,450
73,540 74,200 75,270 76,160
77,1090 78,180 79,40 80,10
81,10 82,20 84,10 85,20
86,10 87,30 88,30 89,110
90,20 91,240 92,20 94,30
95,10 96,10 97,10 98,20
99,30 100,10 101,60 102,60
103,70 104,20 105,930 106,70
107,20 108,10 109,10 110,20
111,670 112,80 113,240 114,40
115,180 116,30 117,10 118,10
120,30 121,50 122,10 123,10
125,120 126,60 127,100 128,30
130,10 131,20 132,40 133,20
134,20 136,10 137,30 138,20
139,1611 140,130 141,520 142,40
143,10 144,30 145,10 146,20
147,10 148,10 149,40 150,90
151,230 152,520 153,130 154,30
155,10 159,10 160,70 161,10
162,20 163,90 164,80 165,280
166,90 167,40 168,30 169,10
174,10 175,20 176,160 177,120
178,670 179,480 180,80 181,70
182,30 183,60 184,10 187,10
188,20 189,90 190,40 191,80
192,50 193,30 194,100 195,30
196,30 197,10 199,30 200,10
207,30 208,10 209,10 210,20
211,10 212,130 213,20 214,190
215,40 216,100 217,170 218,190
219,80 220,100 221,20 222,10
225,10 226,70 227,30 229,10
236,60 237,10 238,10 239,20
240,10 250,10 252,10 254,8317
255,1451 256,160 257,10 263,10
264,10 270,20 272,10 273,10
287,10 288,10 289,20 290,10
291,10
##END=
