##TITLE=m-(3,4-Dichlorophenoxy)benzaldehyde
##JCAMP-DX=4.24
##DATA TYPE=MASS SPECTRUM
##ORIGIN=Chuck Anderson, Aldrich Chemical Co.
##OWNER=NIST Mass Spectrometry Data Center
Collection (C) 2014 copyright by the U.S. Secretary of Commerce
on behalf of the United States of America. All rights reserved.
##CAS REGISTRY NO=79124-76-8
##$NIST MASS SPEC NO=108160
##MOLFORM=C13 H8 Cl2 O2
##MW=266
##$NIST SOURCE=MSDC
##XUNITS=M/Z
##YUNITS=RELATIVE INTENSITY
##XFACTOR=1
##YFACTOR=1
##FIRSTX=26
##LASTX=271
##FIRSTY=108
##MAXX=271
##MINX=26
##MAXY=9999
##MINY=10
##NPOINTS=160
##PEAK TABLE=(XY..XY)
26,108 27,561 28,317 29,722
32,10 35,87 36,209 37,405
38,1054 39,2011 40,122 41,38
44,16 47,51 49,233 50,3163
51,7030 52,375 53,252 55,173
56,62 60,81 61,502 62,1308
63,4120 64,1523 65,751 66,167
68,87 69,1328 71,48 72,332
73,1079 74,2909 75,2851 76,2363
77,5780 78,385 83,522 84,556
85,468 86,581 87,1000 88,295
89,294 90,52 92,888 93,174
94,72 96,43 97,698 98,488
99,522 100,283 101,1425 102,551
103,38 104,332 105,615 106,85
107,212 108,224 109,1620 110,502
111,639 112,184 113,235 114,147
115,444 116,192 117,60 118,63
119,144 120,93 121,170 122,42
123,83 125,65 126,299 127,49
128,101 133,1581 134,395 135,546
136,90 137,346 138,517 139,3280
140,654 141,61 145,546 146,71
147,400 148,133 149,483 150,93
151,153 152,175 153,35 159,50
160,35 161,146 162,546 163,125
164,346 165,40 166,103 167,458
168,2655 169,341 170,58 172,54
173,830 174,308 175,1523 176,259
177,449 178,57 183,361 184,41
185,244 186,146 187,73 188,47
195,84 196,78 197,52 201,125
202,6639 203,2089 204,2148 205,668
206,83 229,128 230,83 231,1581
232,274 233,571 234,83 236,66
237,2031 238,439 239,1269 240,257
241,225 242,46 248,124 249,1542
250,270 251,1005 252,150 253,172
258,86 265,3964 266,9999 267,3534
268,6718 269,1230 270,1069 271,136
##END=
