##TITLE=Benzene, 1,4-bis(phenylmethyl)-
##JCAMP-DX=4.24
##DATA TYPE=MASS SPECTRUM
##ORIGIN=Asinex Ltd, Moscow, Russia
##OWNER=NIST Mass Spectrometry Data Center
Collection (C) 2014 copyright by the U.S. Secretary of Commerce
on behalf of the United States of America. All rights reserved.
##CAS REGISTRY NO=793-23-7
##$NIST MASS SPEC NO=277240
##MOLFORM=C20 H18
##MW=258
##$NIST SOURCE=MSDC
##XUNITS=M/Z
##YUNITS=RELATIVE INTENSITY
##XFACTOR=1
##YFACTOR=1
##FIRSTX=36
##LASTX=261
##FIRSTY=3
##MAXX=261
##MINX=36
##MAXY=9999
##MINY=2
##NPOINTS=151
##PEAK TABLE=(XY..XY)
36,3 37,3 39,255 40,50
41,58 42,2 43,7 44,48
45,4 49,2 50,73 51,279
52,58 53,49 54,4 55,5
57,7 61,4 62,35 63,195
64,66 65,529 66,34 67,3
70,13 71,6 74,28 75,58
76,118 77,363 78,179 79,38
80,3 82,48 83,16 85,6
86,12 87,34 88,58 89,406
90,295 91,1685 92,138 93,11
94,49 96,20 97,3 98,8
99,12 100,23 101,161 102,107
103,129 104,33 105,11 106,35
108,113 109,5 110,4 111,6
113,129 114,240 115,423 116,52
117,7 119,149 120,104 121,29
123,3 124,13 125,36 126,207
127,216 128,334 129,203 130,7
137,14 138,21 139,137 140,32
141,154 142,28 149,17 150,58
151,263 152,1408 153,248 154,32
155,10 160,8 161,14 163,180
164,271 165,3080 166,1484 167,9999
168,1470 169,97 170,5 174,14
175,17 176,106 177,113 178,569
179,405 180,245 181,89 182,15
187,12 188,13 189,49 190,16
191,12 192,5 199,7 200,15
201,19 202,65 203,22 204,6
205,2 211,10 212,4 213,26
214,12 215,77 216,20 217,9
218,3 223,2 224,12 225,13
226,52 227,35 228,41 229,20
230,6 236,2 237,12 238,13
239,100 240,43 241,56 242,23
243,11 256,64 257,251 258,4606
259,984 260,105 261,8
##END=
