##TITLE=Phenyl-acetic acid N'-phenylacetyl-hydrazide
##JCAMP-DX=4.24
##DATA TYPE=MASS SPECTRUM
##ORIGIN=A.A.Kutin, Moscow, Russia
##OWNER=NIST Mass Spectrometry Data Center
Collection (C) 2014 copyright by the U.S. Secretary of Commerce
on behalf of the United States of America. All rights reserved.
##CAS REGISTRY NO=793-25-9
##$NIST MASS SPEC NO=297791
##MOLFORM=C16 H16 N2 O2
##MW=268
##$NIST SOURCE=MSDC
##XUNITS=M/Z
##YUNITS=RELATIVE INTENSITY
##XFACTOR=1
##YFACTOR=1
##FIRSTX=33
##LASTX=270
##FIRSTY=34
##MAXX=270
##MINX=33
##MAXY=9999
##MINY=5
##NPOINTS=140
##PEAK TABLE=(XY..XY)
33,34 34,15 36,20 37,22
38,77 39,463 40,316 41,234
43,221 44,410 45,103 47,14
48,13 49,11 50,105 51,257
52,83 53,35 54,16 55,102
56,43 57,81 58,29 59,18
60,72 61,24 62,84 63,288
64,149 65,1364 66,81 67,25
68,16 69,53 70,33 71,45
72,12 73,50 74,28 75,36
76,36 77,148 78,78 79,50
80,11 81,25 82,31 83,89
85,94 86,18 87,39 88,33
89,473 90,1059 91,9999 92,1288
93,88 94,20 95,26 96,22
97,39 98,17 99,81 100,14
101,13 102,8 103,28 104,63
105,70 106,163 107,38 108,12
109,25 110,12 111,22 112,12
113,13 114,12 115,35 116,150
117,467 118,6945 119,723 120,62
121,49 122,132 123,30 124,9
125,12 126,11 127,33 128,35
129,10 131,13 132,71 133,33
134,30 135,109 136,69 137,16
145,15 147,8 149,212 150,1136
151,142 152,25 153,8 157,8
159,61 160,13 161,10 163,6
165,19 166,13 167,11 176,38
177,516 178,75 179,25 180,14
181,21 183,5 193,10 194,5
205,11 207,18 208,6 209,9
211,6 223,14 224,6 249,10
250,57 251,11 253,10 266,10
267,41 268,1576 269,298 270,36
##END=
