##TITLE=Octadecyl trifluoroacetate
##JCAMP-DX=4.24
##DATA TYPE=MASS SPECTRUM
##ORIGIN=NIST Mass Spectrometry Data Center
##OWNER=NIST Mass Spectrometry Data Center
Collection (C) 2014 copyright by the U.S. Secretary of Commerce
on behalf of the United States of America. All rights reserved.
##CAS REGISTRY NO=79392-43-1
##$NIST MASS SPEC NO=351759
##MOLFORM=C20 H37 F3 O2
##MW=366
##$NIST SOURCE=MSDC
##XUNITS=M/Z
##YUNITS=RELATIVE INTENSITY
##XFACTOR=1
##YFACTOR=1
##FIRSTX=26
##LASTX=349
##FIRSTY=20
##MAXX=349
##MINX=26
##MAXY=9999
##MINY=10
##NPOINTS=124
##PEAK TABLE=(XY..XY)
26,20 27,380 28,130 29,1311
30,40 31,20 33,10 37,10
38,20 39,500 40,140 41,5145
42,1411 43,8458 44,310 45,30
47,30 50,40 51,40 52,20
53,350 54,871 55,7877 56,3423
57,9999 58,450 59,30 61,10
65,60 66,110 67,1091 68,1291
69,6526 70,2913 71,4694 72,250
73,10 77,40 78,30 79,120
80,60 81,731 82,2772 83,6346
84,2242 85,2953 86,190 87,20
91,20 93,20 94,30 95,440
96,1471 97,6816 98,1611 99,821
100,50 101,10 107,10 108,10
109,180 110,701 111,4184 112,1171
113,370 114,30 115,20 122,20
123,120 124,450 125,2102 126,761
127,240 128,20 136,10 137,70
138,310 139,731 140,510 141,130
142,10 151,20 152,230 153,310
154,310 155,90 156,10 165,10
166,110 167,150 168,220 169,60
170,10 179,10 180,70 181,80
182,120 183,40 193,10 194,40
195,50 196,70 197,20 208,20
209,20 210,30 211,10 222,20
223,10 224,180 225,30 249,10
250,30 251,10 252,240 253,50
279,20 280,10 297,290 298,60
299,10 328,10 348,100 349,20
##END=
