##TITLE=2-Fluoro-6-iodobenzonitrile
##JCAMP-DX=4.24
##DATA TYPE=MASS SPECTRUM
##ORIGIN=NIST Mass Spectrometry Data Center, 1994
##OWNER=NIST Mass Spectrometry Data Center
Collection (C) 2014 copyright by the U.S. Secretary of Commerce
on behalf of the United States of America. All rights reserved.
##CAS REGISTRY NO=79544-29-9
##$NIST MASS SPEC NO=136367
##MOLFORM=C7 H3 F I N
##MW=247
##$NIST SOURCE=MSDC
##XUNITS=M/Z
##YUNITS=RELATIVE INTENSITY
##XFACTOR=1
##YFACTOR=1
##FIRSTX=12
##LASTX=249
##FIRSTY=23
##MAXX=249
##MINX=12
##MAXY=9999
##MINY=17
##NPOINTS=66
##PEAK TABLE=(XY..XY)
12,23 18,22 25,31 26,124
28,218 31,479 36,84 37,411
38,272 39,143 44,49 45,103
46,61 48,65 49,278 50,702
51,186 52,67 55,36 56,154
57,247 60,72 61,325 62,279
63,213 64,57 67,30 68,535
69,540 70,102 72,60 73,214
74,497 75,1030 76,306 79,17
80,59 81,47 82,36 84,23
85,32 86,96 87,122 88,92
92,185 93,944 94,407 95,27
98,44 99,445 100,2118 101,203
117,29 118,52 120,4958 121,388
122,19 123,162 127,1493 128,51
139,22 152,30 176,30 247,9999
248,824 249,36
##END=
