##TITLE=Bis(trimethyl) derivative of 5-Hydroxyhexanoic acid
##JCAMP-DX=4.24
##DATA TYPE=MASS SPECTRUM
##ORIGIN=O A MAMER, MCGILL UNIVERSITY, MONTRE
##OWNER=NIST Mass Spectrometry Data Center
Collection (C) 2014 copyright by the U.S. Secretary of Commerce
on behalf of the United States of America. All rights reserved.
##CAS REGISTRY NO=79628-63-0
##$NIST MASS SPEC NO=79474
##MOLFORM=C12 H28 O3 Si2
##MW=276
##$NIST SOURCE=MSDC
##XUNITS=M/Z
##YUNITS=RELATIVE INTENSITY
##XFACTOR=1
##YFACTOR=1
##FIRSTX=26
##LASTX=263
##FIRSTY=87
##MAXX=263
##MINX=26
##MAXY=9999
##MINY=22
##NPOINTS=83
##PEAK TABLE=(XY..XY)
26,87 27,219 28,110 29,189
32,50 39,174 40,114 41,775
42,354 43,892 44,311 45,1152
47,648 50,22 51,29 52,42
55,1678 56,374 57,122 58,244
59,675 60,142 61,573 67,104
68,174 69,2810 70,341 71,142
72,503 73,8993 74,907 75,4334
76,419 77,229 78,114 79,54
83,142 84,102 85,374 89,102
91,107 95,104 97,713 99,209
101,466 111,139 113,461 115,246
116,276 117,9999 118,1134 119,341
123,167 127,122 129,1898 130,396
131,473 132,321 133,483 135,32
143,1109 144,162 145,207 147,3092
148,538 149,875 150,127 171,3494
172,491 173,177 185,301 186,314
187,107 203,169 204,2214 205,419
206,182 232,631 233,162 245,354
261,1942 262,481 263,187
##END=
