##TITLE=.alpha.-Methylfentanyl
##JCAMP-DX=4.24
##DATA TYPE=MASS SPECTRUM
##ORIGIN=Drug Lab
##OWNER=NIST Mass Spectrometry Data Center
Collection (C) 2014 copyright by the U.S. Secretary of Commerce
on behalf of the United States of America. All rights reserved.
##CAS REGISTRY NO=79704-88-4
##$NIST MASS SPEC NO=335182
##MOLFORM=C23 H30 N2 O
##MW=350
##$NIST SOURCE=MSDC
##XUNITS=M/Z
##YUNITS=RELATIVE INTENSITY
##XFACTOR=1
##YFACTOR=1
##FIRSTX=40
##LASTX=261
##FIRSTY=50
##MAXX=261
##MINX=40
##MAXY=9999
##MINY=10
##NPOINTS=116
##PEAK TABLE=(XY..XY)
40,50 41,611 42,701 43,120
44,100 50,50 51,230 52,80
53,110 54,240 55,851 56,3623
57,2042 58,1381 59,60 62,10
63,70 64,40 65,450 66,100
67,410 68,300 69,230 70,200
71,150 72,30 74,10 75,20
76,40 77,1091 78,210 79,200
80,170 81,280 82,851 83,240
84,410 85,40 89,90 90,50
91,3603 92,360 93,520 94,350
95,50 96,230 97,40 98,40
101,20 102,30 103,210 104,490
105,290 106,200 107,30 108,470
109,571 110,2983 111,300 112,80
114,50 115,280 116,80 117,530
118,661 119,370 120,330 121,30
125,10 127,10 128,40 129,50
130,771 131,320 132,1051 133,170
134,50 135,20 143,40 144,170
145,60 146,2522 147,280 148,80
149,80 150,70 153,140 154,20
156,30 157,10 158,150 159,50
160,70 170,10 172,10 173,40
174,80 175,20 184,20 186,30
187,50 198,70 199,50 200,110
201,60 202,581 203,701 204,110
207,10 216,130 217,20 253,10
257,20 259,9999 260,1832 261,170
##END=
