##TITLE=Benzenemethanol, .alpha.-methyl-2-(trifluoromethyl)-
##JCAMP-DX=4.24
##DATA TYPE=MASS SPECTRUM
##ORIGIN=J.E. WILKINSON S-CUBED, SAN DIEGO, CA.
##OWNER=NIST Mass Spectrometry Data Center
Collection (C) 2014 copyright by the U.S. Secretary of Commerce
on behalf of the United States of America. All rights reserved.
##CAS REGISTRY NO=79756-81-3
##$NIST MASS SPEC NO=91169
##MOLFORM=C9 H9 F3 O
##MW=190
##$NIST SOURCE=MSDC
##XUNITS=M/Z
##YUNITS=RELATIVE INTENSITY
##XFACTOR=1
##YFACTOR=1
##FIRSTX=43
##LASTX=191
##FIRSTY=1421
##MAXX=191
##MINX=43
##MAXY=9999
##MINY=2
##NPOINTS=67
##PEAK TABLE=(XY..XY)
43,1421 45,945 50,494 51,742
52,37 57,182 61,7 62,118
63,327 65,12 69,208 70,4
74,239 75,762 77,1332 78,121
81,95 83,50 87,134 88,51
89,31 91,151 93,22 94,17
95,370 96,227 99,172 101,773
102,41 103,185 105,4 107,460
108,17 109,9 114,19 119,75
120,15 121,104 122,9 123,8
125,558 126,627 127,6226 128,383
129,24 131,588 132,28 133,328
139,2 140,9 141,98 143,57
145,717 146,333 147,14 149,2
151,263 152,4 153,58 155,9999
156,737 157,3 173,295 175,3768
176,240 190,464 191,7
##END=
