##TITLE=Phenaleno[1,9-bc]thiophene
##JCAMP-DX=4.24
##DATA TYPE=MASS SPECTRUM
##ORIGIN=Organic Synthesis Lab, MSU, Moscow.TRC 337
##OWNER=NIST Mass Spectrometry Data Center
Collection (C) 2014 copyright by the U.S. Secretary of Commerce
on behalf of the United States of America. All rights reserved.
##CAS REGISTRY NO=79965-99-4
##$NIST MASS SPEC NO=326055
##MOLFORM=C14 H8 S
##MW=208
##$NIST SOURCE=MSDC
##XUNITS=M/Z
##YUNITS=RELATIVE INTENSITY
##XFACTOR=1
##YFACTOR=1
##FIRSTX=45
##LASTX=210
##FIRSTY=30
##MAXX=210
##MINX=45
##MAXY=9999
##MINY=10
##NPOINTS=58
##PEAK TABLE=(XY..XY)
45,30 50,20 51,20 61,30
62,90 63,130 65,10 69,60
74,170 75,80 76,20 77,20
78,40 85,10 86,230 87,260
88,110 89,60 90,110 91,380
93,150 94,10 98,150 99,60
100,20 103,1151 104,2793 106,30
109,20 110,130 111,90 112,10
113,90 114,20 117,60 122,70
123,20 130,10 134,30 136,10
137,190 138,70 139,10 141,10
149,10 150,60 161,440 162,831
163,3263 164,2823 165,300 174,80
175,20 176,60 206,300 208,9999
209,1521 210,510
##END=
