##TITLE=11-Methylbenzo[b]naphtho[2,3-d]thiophene
##JCAMP-DX=4.24
##DATA TYPE=MASS SPECTRUM
##ORIGIN=Organic Synthesis Lab, MSU, Moscow.TRC 356
##OWNER=NIST Mass Spectrometry Data Center
Collection (C) 2014 copyright by the U.S. Secretary of Commerce
on behalf of the United States of America. All rights reserved.
##CAS REGISTRY NO=79966-33-9
##$NIST MASS SPEC NO=326073
##MOLFORM=C17 H12 S
##MW=248
##$NIST SOURCE=MSDC
##XUNITS=M/Z
##YUNITS=RELATIVE INTENSITY
##XFACTOR=1
##YFACTOR=1
##FIRSTX=40
##LASTX=250
##FIRSTY=781
##MAXX=250
##MINX=40
##MAXY=9999
##MINY=10
##NPOINTS=140
##PEAK TABLE=(XY..XY)
40,781 45,20 50,10 51,20
57,10 58,10 62,30 63,60
64,10 65,10 69,80 70,10
71,10 73,60 74,70 75,110
76,70 77,60 78,10 81,50
83,30 86,70 87,170 88,290
89,120 90,10 91,20 93,120
96,50 99,110 100,410 101,791
103,70 104,50 113,70 114,40
115,80 116,120 117,70 118,10
119,30 120,20 124,1822 126,100
127,70 128,20 130,10 132,30
133,40 134,40 135,50 136,10
137,90 138,60 139,140 140,20
141,30 143,10 145,40 146,20
147,30 148,10 149,100 150,270
151,170 152,120 153,20 156,10
158,20 161,90 162,120 163,290
164,110 165,80 168,10 169,70
170,30 171,80 172,20 173,30
174,170 175,140 176,340 177,80
178,30 179,70 180,20 181,20
182,30 184,10 185,40 186,70
187,340 188,190 189,340 190,40
191,30 193,60 194,20 195,80
196,10 197,30 198,70 199,100
200,550 201,370 202,1882 203,731
204,120 205,10 206,40 207,200
208,140 209,50 210,10 211,100
212,60 213,591 214,210 215,2282
216,430 217,50 219,180 220,90
221,601 222,100 223,30 230,10
231,10 232,90 233,20 234,20
239,10 243,200 244,150 245,1151
247,5815 248,9999 249,1902 250,571
##END=
