##TITLE=Chlorfenethol
##JCAMP-DX=4.24
##DATA TYPE=MASS SPECTRUM
##ORIGIN=NIST Mass Spectrometry Data Center, 1998.
##OWNER=NIST Mass Spectrometry Data Center
Collection (C) 2014 copyright by the U.S. Secretary of Commerce
on behalf of the United States of America. All rights reserved.
##CAS REGISTRY NO=80-06-8
##$NIST MASS SPEC NO=292087
##MOLFORM=C14 H12 Cl2 O
##MW=266
##$NIST SOURCE=MSDC
##XUNITS=M/Z
##YUNITS=RELATIVE INTENSITY
##XFACTOR=1
##YFACTOR=1
##FIRSTX=15
##LASTX=271
##FIRSTY=50
##MAXX=271
##MINX=15
##MAXY=9999
##MINY=10
##NPOINTS=190
##PEAK TABLE=(XY..XY)
15,50 26,10 27,60 29,20
35,10 36,10 37,20 38,70
39,200 40,10 41,20 42,10
43,5479 44,140 45,20 47,10
49,40 50,890 51,920 52,100
53,100 54,10 55,20 56,10
59,10 60,20 61,100 62,170
63,460 64,50 65,150 66,20
67,10 68,30 69,20 72,20
73,170 74,550 75,2570 76,1130
77,950 78,100 79,10 80,20
81,70 82,100 84,60 85,250
86,130 87,240 88,410 89,420
90,400 91,260 92,30 93,130
94,40 96,10 98,140 99,210
100,70 101,430 102,370 103,120
104,220 105,160 106,80 107,60
108,180 109,80 110,100 111,3550
112,600 113,1250 114,240 115,230
118,10 119,20 120,40 121,10
122,20 123,50 124,30 125,190
126,160 127,140 128,60 129,20
130,10 133,10 134,10 135,20
136,80 137,300 138,10 139,8349
140,740 141,2880 142,230 143,10
147,10 148,10 149,70 150,200
151,320 152,880 153,170 154,40
155,1640 156,160 157,530 158,50
159,10 160,20 161,30 162,60
163,190 164,90 165,120 166,50
167,20 173,20 174,40 175,60
176,380 177,240 178,830 179,260
180,40 181,20 184,10 185,10
186,80 187,130 188,160 189,60
190,50 191,10 194,10 195,10
196,10 197,10 198,20 199,100
200,20 201,40 202,10 210,10
211,10 212,140 213,200 214,110
215,170 216,150 217,60 218,50
219,10 222,150 223,330 224,140
225,210 226,40 227,30 228,10
230,20 231,120 232,20 233,100
234,10 235,60 236,10 237,20
246,10 247,10 248,230 249,130
250,10 251,9999 252,1660 253,6939
254,1030 255,1220 256,170 257,10
266,970 267,150 268,630 269,100
270,110 271,20
##END=
