##TITLE=Dapsone
##JCAMP-DX=4.24
##DATA TYPE=MASS SPECTRUM
##ORIGIN=Tox21 Consortium/NIST Mass Spectrometry Data Center, 2012
##OWNER=NIST Mass Spectrometry Data Center
Collection (C) 2014 copyright by the U.S. Secretary of Commerce
on behalf of the United States of America. All rights reserved.
##CAS REGISTRY NO=80-08-0
##$NIST MASS SPEC NO=408673
##MOLFORM=C12 H12 N2 O2 S
##MW=248
##$NIST SOURCE=MSDC
##XUNITS=M/Z
##YUNITS=RELATIVE INTENSITY
##XFACTOR=1
##YFACTOR=1
##FIRSTX=27
##LASTX=252
##FIRSTY=70
##MAXX=252
##MINX=27
##MAXY=9999
##MINY=10
##NPOINTS=139
##PEAK TABLE=(XY..XY)
27,70 28,200 30,20 37,50
38,230 39,1371 40,120 41,470
42,180 43,30 45,80 48,20
50,130 51,230 52,591 53,601
54,340 55,50 58,20 59,10
60,20 61,30 62,260 63,851
64,641 65,4964 66,771 67,80
68,40 69,50 70,50 71,60
72,10 74,40 75,100 76,60
77,140 78,170 79,100 80,1822
81,180 82,40 83,40 84,50
85,100 87,20 88,30 89,70
90,160 91,571 92,4104 93,991
94,80 95,50 96,120 97,50
98,10 100,10 101,30 102,40
103,40 104,50 106,40 108,9999
109,1621 110,100 112,190 113,40
114,30 115,130 116,60 117,130
118,30 119,20 120,10 121,20
122,40 123,350 124,581 125,100
126,60 127,80 128,160 129,70
130,170 131,40 136,10 137,10
138,20 139,160 140,6666 141,2322
142,480 143,190 145,10 146,10
149,20 150,10 152,20 154,140
155,70 156,470 157,70 158,40
164,10 165,30 166,170 167,280
168,110 169,90 170,20 171,30
172,10 175,10 177,10 181,90
182,220 183,701 184,901 185,120
186,40 187,10 196,10 198,80
199,30 200,10 201,20 202,10
214,40 215,10 216,10 229,10
230,20 247,70 248,6826 249,1021
250,430 251,40 252,10
##END=
