##TITLE=Silane, dichlorodiphenyl-
##JCAMP-DX=4.24
##DATA TYPE=MASS SPECTRUM
##ORIGIN=Japan AIST/NIMC Database- Spectrum MS-NW-5281
##OWNER=NIST Mass Spectrometry Data Center
Collection (C) 2014 copyright by the U.S. Secretary of Commerce
on behalf of the United States of America. All rights reserved.
##CAS REGISTRY NO=80-10-4
##$NIST MASS SPEC NO=229013
##MOLFORM=C12 H10 Cl2 Si
##MW=252
##$NIST SOURCE=MSDC
##XUNITS=M/Z
##YUNITS=RELATIVE INTENSITY
##XFACTOR=1
##YFACTOR=1
##FIRSTX=26
##LASTX=258
##FIRSTY=20
##MAXX=258
##MINX=26
##MAXY=9999
##MINY=10
##NPOINTS=142
##PEAK TABLE=(XY..XY)
26,20 27,119 28,60 29,20
35,10 36,70 37,10 38,30
39,159 41,30 43,10 47,10
49,10 50,509 51,1539 52,139
53,169 54,20 55,10 57,80
61,10 62,40 63,1589 64,90
65,569 66,30 67,10 73,20
74,179 75,179 76,459 77,2799
78,299 79,40 85,10 86,20
87,30 88,30 89,40 90,20
91,20 92,10 98,40 99,50
100,40 101,40 102,90 103,50
104,10 105,70 106,10 107,70
108,659 109,249 110,20 112,10
113,40 114,20 115,80 116,10
123,169 124,20 125,109 126,90
127,60 128,60 129,60 130,10
136,10 137,10 138,10 139,299
140,99 141,139 142,40 143,20
147,30 148,10 149,70 150,50
151,159 152,559 153,539 154,9999
155,1329 156,90 157,50 158,10
159,50 160,10 161,10 163,10
165,40 166,10 167,10 173,10
174,159 175,3519 176,529 177,2349
178,299 179,459 180,99 181,229
182,40 183,10 185,10 187,10
188,10 189,40 190,10 191,10
199,20 200,10 201,10 204,10
210,20 212,10 213,10 214,10
215,979 216,759 217,1019 218,369
219,269 220,80 221,20 235,10
236,50 237,20 238,20 239,10
249,60 250,20 251,259 252,3439
253,789 254,2339 255,469 256,469
257,80 258,20
##END=
