##TITLE=Hydroperoxide, 1-methyl-1-phenylethyl
##JCAMP-DX=4.24
##DATA TYPE=MASS SPECTRUM
##OWNER=NIST Mass Spectrometry Data Center
Collection (C) 2014 copyright by the U.S. Secretary of Commerce
on behalf of the United States of America. All rights reserved.
##CAS REGISTRY NO=80-15-9
##$NIST MASS SPEC NO=21551
##MOLFORM=C9 H12 O2
##MW=152
##$NIST SOURCE=MSDC
##XUNITS=M/Z
##YUNITS=RELATIVE INTENSITY
##XFACTOR=1
##YFACTOR=1
##FIRSTX=13
##LASTX=152
##FIRSTY=20
##MAXX=152
##MINX=13
##MAXY=9999
##MINY=10
##NPOINTS=103
##PEAK TABLE=(XY..XY)
13,20 14,90 15,540 16,110
17,280 18,1251 25,10 26,100
27,470 28,350 29,210 30,70
31,200 32,911 37,110 38,280
39,1161 40,170 41,1181 42,140
43,9999 44,631 45,90 46,40
47,50 48,10 49,80 50,1161
51,3053 52,480 53,200 54,30
55,120 56,10 57,130 58,440
59,430 60,130 61,150 62,230
63,530 64,120 65,711 66,280
67,120 68,10 69,10 73,80
74,430 75,320 76,390 77,6716
78,2012 79,981 80,80 81,10
85,30 86,50 87,50 88,20
89,210 90,80 91,4224 92,410
93,200 94,1081 95,120 96,30
98,30 101,40 102,230 103,1371
104,400 105,7627 106,641 107,200
108,70 109,10 110,10 113,10
114,10 115,561 116,120 117,1331
118,1742 119,9098 120,3293 121,7357
122,701 123,50 128,10 129,10
131,50 132,40 133,360 134,550
135,110 136,661 137,90 145,20
146,10 147,30 152,20
##END=
