##TITLE=.alpha.-Terpinyl acetate
##JCAMP-DX=4.24
##DATA TYPE=MASS SPECTRUM
##OWNER=NIST Mass Spectrometry Data Center
Collection (C) 2014 copyright by the U.S. Secretary of Commerce
on behalf of the United States of America. All rights reserved.
##CAS REGISTRY NO=80-26-2
##$NIST MASS SPEC NO=22417
##MOLFORM=C12 H20 O2
##MW=196
##$NIST SOURCE=MSDC
##XUNITS=M/Z
##YUNITS=RELATIVE INTENSITY
##XFACTOR=1
##YFACTOR=1
##FIRSTX=15
##LASTX=181
##FIRSTY=280
##MAXX=181
##MINX=15
##MAXY=9999
##MINY=50
##NPOINTS=67
##PEAK TABLE=(XY..XY)
15,280 18,50 26,70 27,791
28,250 29,701 31,200 38,60
39,1141 40,370 41,2172 42,350
43,9999 44,230 45,571 50,70
51,280 52,150 53,1131 54,110
55,861 56,60 57,110 58,70
59,2092 60,450 61,70 63,80
65,440 66,330 67,1932 68,3153
69,971 70,60 71,190 77,1161
78,250 79,1651 80,921 81,1772
82,170 85,50 89,60 91,1051
92,1621 93,8348 94,1361 95,1501
96,120 101,350 103,60 105,571
106,150 107,1371 108,611 109,80
119,150 121,9058 122,921 123,210
135,120 136,7026 137,1171 138,180
139,671 140,70 181,80
##END=
