##TITLE=Benzenesulfonic acid, 4-chlorophenyl ester
##JCAMP-DX=4.24
##DATA TYPE=MASS SPECTRUM
##ORIGIN=R RYHAGE MS-LAB KAROLINSKA INSTITUTET STOCKHOLM SWEDEN
##OWNER=NIST Mass Spectrometry Data Center
Collection (C) 2014 copyright by the U.S. Secretary of Commerce
on behalf of the United States of America. All rights reserved.
##CAS REGISTRY NO=80-38-6
##$NIST MASS SPEC NO=42431
##MOLFORM=C12 H9 Cl O3 S
##MW=268
##$NIST SOURCE=MSDC
##XUNITS=M/Z
##YUNITS=RELATIVE INTENSITY
##XFACTOR=1
##YFACTOR=1
##FIRSTX=14
##LASTX=270
##FIRSTY=27
##MAXX=270
##MINX=14
##MAXY=9999
##MINY=5
##NPOINTS=125
##PEAK TABLE=(XY..XY)
14,27 16,45 17,54 18,104
22,23 25,23 26,86 27,207
28,126 29,441 34,32 35,27
36,86 37,50 38,180 39,500
40,50 41,810 42,311 43,819
44,63 45,27 46,23 47,27
48,54 49,149 50,347 51,1553
52,77 53,117 54,90 55,185
56,860 57,1211 58,32 60,14
61,54 62,131 63,410 64,194
65,135 66,27 67,27 68,45
69,95 70,45 71,135 72,27
73,423 74,117 75,387 76,144
77,9999 78,774 79,50 80,41
81,27 83,27 84,68 86,207
87,27 89,41 91,5 92,41
93,68 95,5 96,5 97,63
98,27 99,846 100,86 101,279
102,32 103,32 106,23 109,5
110,41 111,90 113,27 114,27
115,158 116,23 117,27 121,18
123,36 125,81 126,59 127,626
128,306 129,234 130,95 131,50
137,18 138,23 139,45 140,77
141,6506 142,527 143,378 144,45
147,23 149,45 150,27 151,32
155,18 159,23 168,54 169,36
175,23 177,32 178,27 181,18
191,27 193,23 203,18 204,27
206,23 208,23 217,36 222,23
262,23 267,32 268,2215 269,387
270,910
##END=
