##TITLE=Benzenesulfonamide, N-ethyl-4-methyl-
##JCAMP-DX=4.24
##DATA TYPE=MASS SPECTRUM
##ORIGIN=NIST Mass Spectrometry Data Center, 1994
##OWNER=NIST Mass Spectrometry Data Center
Collection (C) 2014 copyright by the U.S. Secretary of Commerce
on behalf of the United States of America. All rights reserved.
##CAS REGISTRY NO=80-39-7
##$NIST MASS SPEC NO=133479
##MOLFORM=C9 H13 N O2 S
##MW=199
##$NIST SOURCE=MSDC
##XUNITS=M/Z
##YUNITS=RELATIVE INTENSITY
##XFACTOR=1
##YFACTOR=1
##FIRSTX=4
##LASTX=202
##FIRSTY=26
##MAXX=202
##MINX=4
##MAXY=9999
##MINY=7
##NPOINTS=74
##PEAK TABLE=(XY..XY)
4,26 14,35 15,184 18,85
26,32 27,237 28,661 29,490
30,46 32,10 37,24 38,125
39,1017 40,131 41,323 42,216
43,85 44,816 45,94 48,44
50,238 51,433 52,138 53,81
58,14 61,36 62,215 63,848
64,447 65,2891 66,178 67,73
69,44 71,25 74,72 75,69
76,53 77,342 78,138 79,137
80,85 85,22 86,53 87,56
88,22 89,823 90,22 91,9999
92,1269 93,76 104,30 105,32
106,159 107,148 108,74 111,39
118,41 119,38 120,123 121,53
134,52 135,27 139,149 155,7348
156,641 157,377 158,38 184,4544
185,458 186,224 199,1595 200,177
201,80 202,7
##END=
