##TITLE=Ethanol, 2-chloro-, 4-methylbenzenesulfonate
##JCAMP-DX=4.24
##DATA TYPE=MASS SPECTRUM
##ORIGIN=Japan AIST/NIMC Database- Spectrum MS-IW- 54
##OWNER=NIST Mass Spectrometry Data Center
Collection (C) 2014 copyright by the U.S. Secretary of Commerce
on behalf of the United States of America. All rights reserved.
##CAS REGISTRY NO=80-41-1
##$NIST MASS SPEC NO=239176
##MOLFORM=C9 H11 Cl O3 S
##MW=234
##$NIST SOURCE=MSDC
##XUNITS=M/Z
##YUNITS=RELATIVE INTENSITY
##XFACTOR=1
##YFACTOR=1
##FIRSTX=15
##LASTX=238
##FIRSTY=20
##MAXX=238
##MINX=15
##MAXY=9999
##MINY=10
##NPOINTS=74
##PEAK TABLE=(XY..XY)
15,20 18,10 26,30 27,349
28,129 29,30 30,10 32,30
36,10 38,50 39,509 40,40
41,149 43,20 44,10 45,20
48,10 49,90 50,129 51,239
52,70 53,50 61,30 62,129
63,689 64,129 65,1699 66,99
67,20 69,10 74,30 75,30
76,20 77,199 78,50 79,129
80,20 86,20 87,20 88,10
89,459 90,279 91,8339 92,839
93,50 95,10 105,20 107,309
108,199 109,20 111,10 121,10
125,10 139,109 140,10 142,10
144,10 154,10 155,9999 156,859
157,509 158,30 171,10 172,1319
173,109 174,60 185,649 186,60
187,30 234,1519 235,169 236,569
237,60 238,30
##END=
