##TITLE=Benzenesulfonic acid, 4-methyl-, methyl ester
##JCAMP-DX=4.24
##DATA TYPE=MASS SPECTRUM
##ORIGIN=Japan AIST/NIMC Database- Spectrum MS-NW- 746
##OWNER=NIST Mass Spectrometry Data Center
Collection (C) 2014 copyright by the U.S. Secretary of Commerce
on behalf of the United States of America. All rights reserved.
##CAS REGISTRY NO=80-48-8
##$NIST MASS SPEC NO=229472
##MOLFORM=C8 H10 O3 S
##MW=186
##$NIST SOURCE=MSDC
##XUNITS=M/Z
##YUNITS=RELATIVE INTENSITY
##XFACTOR=1
##YFACTOR=1
##FIRSTX=15
##LASTX=189
##FIRSTY=339
##MAXX=189
##MINX=15
##MAXY=9999
##MINY=10
##NPOINTS=81
##PEAK TABLE=(XY..XY)
15,339 17,20 18,70 26,20
27,149 28,239 29,10 30,30
31,20 32,159 37,30 38,129
39,1159 40,90 41,349 42,90
43,179 44,20 45,60 48,40
49,10 50,339 51,499 52,139
53,129 54,10 58,10 61,50
62,239 63,839 64,229 65,2089
66,119 67,20 68,10 69,10
70,20 71,20 74,60 75,70
76,40 77,469 78,109 79,369
80,40 81,10 82,30 83,10
84,20 85,20 86,20 87,40
88,20 89,739 90,609 91,9999
92,1499 93,99 95,30 100,10
105,20 106,40 107,1129 108,129
109,20 111,20 112,70 121,179
122,489 123,60 137,50 138,10
139,139 154,40 155,4069 156,359
157,199 186,4259 187,419 188,249
189,20
##END=
