##TITLE=Propanoic acid, 2-hydroxy-2-methyl-, ethyl ester
##JCAMP-DX=4.24
##DATA TYPE=MASS SPECTRUM
##ORIGIN=Chuck Anderson, Aldrich Chemical Co.
##OWNER=NIST Mass Spectrometry Data Center
Collection (C) 2014 copyright by the U.S. Secretary of Commerce
on behalf of the United States of America. All rights reserved.
##CAS REGISTRY NO=80-55-7
##$NIST MASS SPEC NO=107723
##MOLFORM=C6 H12 O3
##MW=132
##$NIST SOURCE=MSDC
##XUNITS=M/Z
##YUNITS=RELATIVE INTENSITY
##XFACTOR=1
##YFACTOR=1
##FIRSTX=13
##LASTX=134
##FIRSTY=1
##MAXX=134
##MINX=13
##MAXY=9999
##MINY=1
##NPOINTS=67
##PEAK TABLE=(XY..XY)
13,1 14,22 15,231 16,10
17,1 19,28 25,5 26,97
27,562 28,131 29,1202 30,65
31,2041 32,22 33,8 36,3
37,17 38,48 39,505 40,94
41,1660 42,529 43,5724 44,324
45,236 46,13 47,137 48,1
50,1 51,1 53,16 54,3
55,25 56,8 57,72 58,194
59,9999 60,338 61,82 62,2
63,2 67,1 68,5 69,71
70,139 71,14 72,20 73,11
74,2 75,6 85,9 86,11
87,82 88,5 89,386 90,16
91,1 99,4 103,6 105,6
115,26 116,1 117,298 118,14
119,1 133,29 134,1
##END=
