##TITLE=.alpha.-Pinene
##JCAMP-DX=4.24
##DATA TYPE=MASS SPECTRUM
##ORIGIN=NIST Mass Spectrometry Data Center, 1994
##OWNER=NIST Mass Spectrometry Data Center
Collection (C) 2014 copyright by the U.S. Secretary of Commerce
on behalf of the United States of America. All rights reserved.
##CAS REGISTRY NO=80-56-8
##$NIST MASS SPEC NO=134072
##MOLFORM=C10 H16
##MW=136
##$NIST SOURCE=MSDC
##XUNITS=M/Z
##YUNITS=RELATIVE INTENSITY
##XFACTOR=1
##YFACTOR=1
##FIRSTX=15
##LASTX=137
##FIRSTY=678
##MAXX=137
##MINX=15
##MAXY=9999
##MINY=1
##NPOINTS=59
##PEAK TABLE=(XY..XY)
15,678 16,1 27,2861 28,402
29,1255 30,32 37,73 39,3854
40,678 41,3188 42,253 43,838
44,28 50,383 51,1052 52,524
53,1391 54,242 55,724 56,77
58,78 62,128 63,375 65,1010
66,287 67,1114 68,386 69,100
74,47 75,64 77,3661 78,752
79,2980 80,1000 81,347 82,38
86,17 87,17 89,89 91,4684
92,4147 93,9999 94,899 95,130
102,48 103,249 105,1154 106,313
107,543 108,131 109,37 115,92
116,24 117,53 119,220 121,1157
122,112 136,738 137,100
##END=
