##TITLE=Cyclohexanemethanol, 4-hydroxy-.alpha.,.alpha.,4-trimethyl-
##JCAMP-DX=4.24
##DATA TYPE=MASS SPECTRUM
##ORIGIN=NIST Mass Spectrometry Data Center, 1998.
##OWNER=NIST Mass Spectrometry Data Center
Collection (C) 2014 copyright by the U.S. Secretary of Commerce
on behalf of the United States of America. All rights reserved.
##CAS REGISTRY NO=80-53-5
##$NIST MASS SPEC NO=292185
##MOLFORM=C10 H20 O2
##MW=172
##$NIST SOURCE=MSDC
##XUNITS=M/Z
##YUNITS=RELATIVE INTENSITY
##XFACTOR=1
##YFACTOR=1
##FIRSTX=15
##LASTX=157
##FIRSTY=80
##MAXX=157
##MINX=15
##MAXY=9999
##MINY=10
##NPOINTS=81
##PEAK TABLE=(XY..XY)
15,80 27,360 28,90 29,520
30,20 31,580 38,20 39,630
40,120 41,1410 42,220 43,5249
44,150 45,310 50,30 51,110
52,50 53,500 54,870 55,2230
56,280 57,420 58,1470 59,5709
60,200 61,80 62,30 63,30
65,150 66,140 67,1730 68,1850
69,1500 70,160 71,2180 72,130
77,810 78,60 79,460 80,30
81,9999 82,790 83,640 84,860
85,150 91,160 92,80 93,770
94,190 95,1570 96,6019 97,780
98,80 99,50 105,40 106,20
107,180 108,770 109,110 110,40
111,660 112,60 119,10 121,420
122,40 123,30 124,10 125,350
126,280 127,20 128,10 135,10
136,220 137,210 138,10 139,1620
140,160 141,10 154,130 155,10
157,10
##END=
