##TITLE=Sulfisoxazole Acetyl
##JCAMP-DX=4.24
##DATA TYPE=MASS SPECTRUM
##ORIGIN=Japan AIST/NIMC Database- Spectrum MS-IW-5178
##OWNER=NIST Mass Spectrometry Data Center
Collection (C) 2014 copyright by the U.S. Secretary of Commerce
on behalf of the United States of America. All rights reserved.
##CAS REGISTRY NO=80-74-0
##$NIST MASS SPEC NO=242242
##MOLFORM=C13 H15 N3 O4 S
##MW=309
##$NIST SOURCE=MSDC
##XUNITS=M/Z
##YUNITS=RELATIVE INTENSITY
##XFACTOR=1
##YFACTOR=1
##FIRSTX=14
##LASTX=311
##FIRSTY=60
##MAXX=311
##MINX=14
##MAXY=9999
##MINY=10
##NPOINTS=112
##PEAK TABLE=(XY..XY)
14,60 15,90 17,10 18,50
26,40 27,139 28,149 29,20
30,10 32,10 37,10 38,60
39,319 40,139 41,379 42,589
43,1509 44,90 45,20 48,30
50,20 51,40 52,109 53,129
54,149 55,40 56,10 57,30
60,10 62,20 63,90 64,139
65,1339 66,259 67,50 68,189
69,50 70,20 71,30 75,10
76,10 77,10 78,20 79,30
80,149 81,109 82,20 83,20
84,10 85,10 87,10 90,20
91,139 92,3959 93,539 94,50
95,20 96,99 97,50 98,20
105,10 106,20 107,30 108,2779
109,309 110,50 111,90 112,169
113,30 117,10 118,40 119,10
120,40 123,40 124,90 125,239
126,20 127,10 133,10 134,10
135,10 136,50 137,80 138,10
140,539 141,50 142,20 144,10
145,10 154,10 155,10 156,9999
157,949 158,519 159,60 160,10
172,30 173,50 198,30 202,10
203,70 204,10 214,10 245,429
246,70 267,1889 268,279 269,109
270,10 309,219 310,40 311,10
##END=
