##TITLE=2-Cyclopenten-1-one, 2-hydroxy-3-methyl-
##JCAMP-DX=4.24
##DATA TYPE=MASS SPECTRUM
##OWNER=NIST Mass Spectrometry Data Center
Collection (C) 2014 copyright by the U.S. Secretary of Commerce
on behalf of the United States of America. All rights reserved.
##CAS REGISTRY NO=80-71-7
##$NIST MASS SPEC NO=1673
##MOLFORM=C6 H8 O2
##MW=112
##$NIST SOURCE=MSDC
##XUNITS=M/Z
##YUNITS=RELATIVE INTENSITY
##XFACTOR=1
##YFACTOR=1
##FIRSTX=13
##LASTX=115
##FIRSTY=10
##MAXX=115
##MINX=13
##MAXY=9999
##MINY=10
##NPOINTS=77
##PEAK TABLE=(XY..XY)
13,10 14,50 15,140 18,20
25,40 26,320 27,1231 28,621
29,721 30,50 31,130 32,70
33,10 34,10 36,20 37,120
38,210 39,1231 40,340 41,2953
42,941 43,2032 44,330 45,90
48,10 49,60 50,240 51,270
52,130 53,530 54,280 55,3173
56,1762 57,310 58,70 59,20
60,10 61,30 62,30 63,60
64,30 65,270 66,480 67,160
68,50 69,3533 70,420 71,260
72,20 73,10 74,10 75,10
76,30 77,30 78,60 79,20
80,10 81,60 82,70 83,1852
84,1401 85,110 86,10 91,20
92,10 93,40 94,50 95,90
96,10 97,611 98,40 110,20
111,490 112,9999 113,741 114,70
115,10
##END=
