##TITLE=Chlormezanone
##JCAMP-DX=4.24
##DATA TYPE=MASS SPECTRUM
##ORIGIN=Tox21 Consortium/NIST Mass Spectrometry Data Center, 2012
##OWNER=NIST Mass Spectrometry Data Center
Collection (C) 2014 copyright by the U.S. Secretary of Commerce
on behalf of the United States of America. All rights reserved.
##CAS REGISTRY NO=80-77-3
##$NIST MASS SPEC NO=408569
##MOLFORM=C11 H12 Cl N O3 S
##MW=273
##$NIST SOURCE=MSDC
##XUNITS=M/Z
##YUNITS=RELATIVE INTENSITY
##XFACTOR=1
##YFACTOR=1
##FIRSTX=14
##LASTX=212
##FIRSTY=10
##MAXX=212
##MINX=14
##MAXY=9999
##MINY=10
##NPOINTS=154
##PEAK TABLE=(XY..XY)
14,10 15,130 25,10 26,210
27,540 28,1912 29,120 30,20
31,10 32,30 33,10 34,10
35,10 36,20 37,50 38,100
39,250 40,50 41,440 42,3733
43,160 44,70 45,70 46,40
47,110 48,340 49,80 50,601
51,480 52,80 53,40 54,30
55,871 56,1581 57,250 58,270
60,30 61,120 62,300 63,621
64,290 65,160 66,60 67,20
68,160 69,3283 70,190 71,70
73,260 74,320 75,1271 76,460
77,701 78,90 79,10 80,10
82,10 84,50 85,170 86,120
87,170 88,80 89,1461 90,440
91,450 92,60 93,10 94,10
96,20 97,1311 98,8558 99,691
100,90 101,120 102,561 103,160
104,80 105,20 106,10 108,10
109,20 110,50 111,1601 112,621
113,571 114,220 115,210 116,280
117,1802 118,791 119,140 120,40
121,10 123,120 124,100 125,1712
126,170 127,561 128,50 129,10
130,30 131,30 132,20 133,10
134,10 136,10 137,651 138,390
139,350 140,170 141,60 142,20
143,20 144,30 145,30 146,160
147,20 149,20 150,60 151,270
152,9999 153,2362 154,6546 155,1021
156,1101 157,110 158,10 164,10
165,10 166,110 167,20 168,40
169,10 171,10 172,10 173,20
174,2863 175,350 176,20 178,20
179,10 180,160 181,50 182,50
183,10 192,10 194,20 195,10
196,10 208,1531 209,490 210,540
211,160 212,20
##END=
