##TITLE=2-Imidazolidinone, 1,3-dimethyl-
##JCAMP-DX=4.24
##DATA TYPE=MASS SPECTRUM
##ORIGIN=Japan AIST/NIMC Database- Spectrum MS-NW-1010
##OWNER=NIST Mass Spectrometry Data Center
Collection (C) 2014 copyright by the U.S. Secretary of Commerce
on behalf of the United States of America. All rights reserved.
##CAS REGISTRY NO=80-73-9
##$NIST MASS SPEC NO=230681
##MOLFORM=C5 H10 N2 O
##MW=114
##$NIST SOURCE=MSDC
##XUNITS=M/Z
##YUNITS=RELATIVE INTENSITY
##XFACTOR=1
##YFACTOR=1
##FIRSTX=14
##LASTX=116
##FIRSTY=70
##MAXX=116
##MINX=14
##MAXY=9999
##MINY=10
##NPOINTS=52
##PEAK TABLE=(XY..XY)
14,70 15,1349 16,10 17,20
18,129 26,159 27,619 28,2039
29,629 30,719 31,60 32,50
38,20 39,50 40,219 41,539
42,3869 43,2769 44,5839 45,349
51,20 52,60 53,30 54,289
55,299 56,2579 57,689 58,1789
59,209 60,30 68,20 69,90
70,159 71,50 72,1439 73,70
83,109 84,70 85,959 86,109
87,10 88,10 97,50 98,179
99,249 100,20 111,70 112,329
113,5149 114,9999 115,649 116,40
##END=
