##TITLE=Lathosterol
##JCAMP-DX=4.24
##DATA TYPE=MASS SPECTRUM
##ORIGIN=NIST Mass Spectrometry Data Center, 2012
##OWNER=NIST Mass Spectrometry Data Center
Collection (C) 2014 copyright by the U.S. Secretary of Commerce
on behalf of the United States of America. All rights reserved.
##CAS REGISTRY NO=80-99-9
##$NIST MASS SPEC NO=394565
##MOLFORM=C27 H46 O
##MW=386
##$NIST SOURCE=MSDC
##XUNITS=M/Z
##YUNITS=RELATIVE INTENSITY
##XFACTOR=1
##YFACTOR=1
##FIRSTX=15
##LASTX=389
##FIRSTY=20
##MAXX=389
##MINX=15
##MAXY=9999
##MINY=10
##NPOINTS=298
##PEAK TABLE=(XY..XY)
15,20 19,10 20,10 26,30
27,490 28,110 29,1341 30,40
31,80 37,20 38,30 39,520
40,140 41,5115 42,621 43,9999
44,410 45,110 50,50 51,110
52,50 53,721 54,150 55,5695
56,601 57,4164 58,200 59,40
62,10 63,20 64,10 65,400
66,150 67,2712 68,781 69,2923
70,370 71,1431 72,80 73,10
74,10 75,10 76,20 77,1361
78,390 79,3873 80,490 81,4104
82,631 83,1892 84,210 85,360
86,30 87,10 89,20 90,20
91,5505 92,1131 93,3723 94,1481
95,4914 96,661 97,1141 98,100
99,80 100,20 101,10 102,30
103,360 104,380 105,5905 106,1461
107,5875 108,1191 109,2472 110,430
111,611 112,110 113,40 114,10
115,671 116,360 117,2282 118,901
119,4684 120,1722 121,2953 122,1191
123,1601 124,460 125,270 126,30
127,150 128,671 129,1301 130,561
131,3093 132,851 133,3803 134,1852
135,3223 136,971 137,701 138,190
139,60 140,10 141,400 142,440
143,1381 144,561 145,3293 146,961
147,3984 148,911 149,1351 150,260
151,601 152,290 153,150 154,100
155,320 156,220 157,1181 158,470
159,2172 160,751 161,2622 162,540
163,591 164,170 165,290 166,70
167,90 168,70 169,220 170,110
171,961 172,320 173,1361 174,350
175,561 176,190 177,270 178,370
179,170 180,40 181,50 182,40
183,180 184,90 185,761 186,280
187,751 188,180 189,390 190,120
191,150 192,50 193,70 194,30
195,30 196,20 197,180 198,100
199,691 200,280 201,831 202,190
203,350 204,90 205,110 206,90
207,70 208,10 209,20 210,10
211,100 212,70 213,2692 214,581
215,480 216,150 217,180 218,290
219,250 220,100 221,20 223,10
224,10 225,50 226,20 227,300
228,360 229,1631 230,350 231,2042
232,591 233,250 234,50 235,10
237,10 238,10 239,110 240,40
241,170 242,70 243,60 244,30
245,410 246,691 247,621 248,140
249,20 250,10 253,80 254,80
255,7257 256,1491 257,360 258,70
259,460 260,300 261,130 262,70
263,20 266,10 267,40 268,10
269,30 270,10 271,190 272,180
273,1672 274,460 275,110 276,20
281,30 282,10 283,60 284,20
285,70 286,60 287,70 288,20
289,10 295,10 296,10 297,20
298,10 299,30 300,30 301,120
302,40 303,10 310,10 311,50
312,20 313,90 314,60 315,40
316,30 317,10 325,30 326,30
327,70 328,70 329,110 330,30
331,10 339,20 340,10 341,10
342,10 343,10 344,10 351,30
352,10 353,841 354,210 355,70
356,10 357,40 358,20 366,20
367,50 368,621 369,250 370,110
371,3313 372,971 373,140 374,10
384,120 385,70 386,8868 387,2622
388,410 389,40
##END=
