##TITLE=Cholestanol
##JCAMP-DX=4.24
##DATA TYPE=MASS SPECTRUM
##ORIGIN=T.IIDA NIHON UNIVERSITY, KORIYAMA, FUKUSHIMA-KEN, JAPAN
##OWNER=NIST Mass Spectrometry Data Center
Collection (C) 2014 copyright by the U.S. Secretary of Commerce
on behalf of the United States of America. All rights reserved.
##CAS REGISTRY NO=80-97-7
##$NIST MASS SPEC NO=67280
##MOLFORM=C27 H48 O
##MW=388
##$NIST SOURCE=MSDC
##XUNITS=M/Z
##YUNITS=RELATIVE INTENSITY
##XFACTOR=1
##YFACTOR=1
##FIRSTX=18
##LASTX=389
##FIRSTY=300
##MAXX=389
##MINX=18
##MAXY=9999
##MINY=200
##NPOINTS=125
##PEAK TABLE=(XY..XY)
18,300 27,500 28,400 29,1600
39,400 41,4600 42,500 43,6300
53,700 54,300 55,6600 56,800
57,4100 65,200 66,300 67,4500
68,1500 69,4100 70,500 71,1600
76,1000 77,300 78,3800 79,900
80,900 81,6900 82,1600 83,2600
84,200 85,400 91,2700 92,800
93,4600 94,2000 95,6400 96,900
97,2000 105,2700 106,1800 107,6700
108,5400 109,4300 110,800 111,1400
115,200 117,400 119,2200 120,1500
121,4300 122,2800 123,3200 124,2000
125,700 131,600 133,1900 134,1300
135,2900 136,1500 137,1200 138,500
145,1200 146,400 147,3000 148,1600
149,2400 150,400 151,400 152,300
159,900 160,600 161,1700 162,900
163,900 164,400 165,5800 166,1900
167,400 173,800 174,400 175,900
176,400 177,400 178,400 179,300
187,500 188,400 189,400 190,1100
191,600 192,200 197,300 201,1300
202,400 203,200 204,300 205,300
206,400 215,9999 216,4000 217,3600
218,500 219,1100 230,800 231,800
232,400 233,9000 234,5300 235,800
247,300 248,1100 257,500 262,1100
263,400 285,400 288,300 315,700
316,300 331,500 355,1300 356,400
370,400 373,2800 374,800 388,3500
389,1000
##END=
