##TITLE=3-Ethoxy-4-hydroxyphenylacetic acid
##JCAMP-DX=4.24
##DATA TYPE=MASS SPECTRUM
##ORIGIN=NIST Mass Spectrometry Data Center, 1994
##OWNER=NIST Mass Spectrometry Data Center
Collection (C) 2014 copyright by the U.S. Secretary of Commerce
on behalf of the United States of America. All rights reserved.
##CAS REGISTRY NO=80018-50-4
##$NIST MASS SPEC NO=134845
##MOLFORM=C10 H12 O4
##MW=196
##$NIST SOURCE=MSDC
##XUNITS=M/Z
##YUNITS=RELATIVE INTENSITY
##XFACTOR=1
##YFACTOR=1
##FIRSTX=14
##LASTX=198
##FIRSTY=12
##MAXX=198
##MINX=14
##MAXY=9999
##MINY=12
##NPOINTS=82
##PEAK TABLE=(XY..XY)
14,12 15,59 18,38 26,179
27,921 28,311 29,978 30,33
31,32 32,39 37,41 38,163
39,968 40,271 41,327 42,93
43,285 44,48 45,382 50,248
51,1021 52,230 53,345 54,94
55,610 56,36 57,59 61,31
62,91 63,184 64,110 65,669
66,515 67,538 68,73 69,83
71,35 74,47 75,65 77,1242
78,294 79,117 80,25 81,74
82,34 83,34 84,21 91,29
92,32 93,108 94,544 95,482
96,43 97,137 103,16 105,338
106,148 107,128 108,20 109,30
110,39 111,41 121,165 123,9999
124,811 125,605 126,45 131,22
133,16 135,25 137,37 139,20
149,73 151,1002 152,111 167,200
168,1391 169,132 170,20 196,2418
197,254 198,32
##END=
