##TITLE=Chloromethyl 4-chlorohexanoate
##JCAMP-DX=4.24
##DATA TYPE=MASS SPECTRUM
##ORIGIN=ASES Database, Dalian Institute, P.R. China
##OWNER=NIST Mass Spectrometry Data Center
Collection (C) 2014 copyright by the U.S. Secretary of Commerce
on behalf of the United States of America. All rights reserved.
##CAS REGISTRY NO=80418-55-9
##$NIST MASS SPEC NO=145485
##MOLFORM=C7 H12 Cl2 O2
##MW=198
##$NIST SOURCE=MSDC
##XUNITS=M/Z
##YUNITS=RELATIVE INTENSITY
##XFACTOR=1
##YFACTOR=1
##FIRSTX=36
##LASTX=135
##FIRSTY=100
##MAXX=135
##MINX=36
##MAXY=9999
##MINY=90
##NPOINTS=39
##PEAK TABLE=(XY..XY)
36,100 39,1381 41,4804 42,2592
43,2111 49,1901 51,600 54,190
55,3323 56,710 57,480 63,90
67,590 68,2682 69,5925 70,590
71,1311 72,5324 76,190 77,390
83,90 85,700 90,290 91,990
92,190 93,390 96,600 97,4484
98,290 99,90 104,290 105,300
108,9999 110,3393 113,390 121,90
132,300 133,3993 135,1401
##END=
