##TITLE=Chloromethyl 6-chlorododecanoate
##JCAMP-DX=4.24
##DATA TYPE=MASS SPECTRUM
##ORIGIN=ASES Database, Dalian Institute, P.R. China
##OWNER=NIST Mass Spectrometry Data Center
Collection (C) 2014 copyright by the U.S. Secretary of Commerce
on behalf of the United States of America. All rights reserved.
##CAS REGISTRY NO=80419-02-9
##$NIST MASS SPEC NO=143808
##MOLFORM=C13 H24 Cl2 O2
##MW=282
##$NIST SOURCE=MSDC
##XUNITS=M/Z
##YUNITS=RELATIVE INTENSITY
##XFACTOR=1
##YFACTOR=1
##FIRSTX=36
##LASTX=182
##FIRSTY=1901
##MAXX=182
##MINX=36
##MAXY=9999
##MINY=90
##NPOINTS=49
##PEAK TABLE=(XY..XY)
36,1901 39,1181 41,6165 42,1891
43,5214 49,590 53,800 54,1891
55,9999 56,2282 57,1601 67,3593
68,3172 69,4373 70,2001 71,790
72,1391 73,200 79,1090 81,3192
82,2502 83,3483 84,3703 85,1291
93,590 94,500 95,2101 96,4774
97,3312 98,2792 99,390 108,2001
109,1281 110,1701 111,1491 112,690
119,600 121,890 123,1191 124,290
136,890 137,990 138,2592 139,390
162,500 163,900 180,1000 181,1701
182,90
##END=
