##TITLE=Chloromethyl 8-chlorododecanoate
##JCAMP-DX=4.24
##DATA TYPE=MASS SPECTRUM
##ORIGIN=ASES Database, Dalian Institute, P.R. China
##OWNER=NIST Mass Spectrometry Data Center
Collection (C) 2014 copyright by the U.S. Secretary of Commerce
on behalf of the United States of America. All rights reserved.
##CAS REGISTRY NO=80419-04-1
##$NIST MASS SPEC NO=143810
##MOLFORM=C13 H24 Cl2 O2
##MW=282
##$NIST SOURCE=MSDC
##XUNITS=M/Z
##YUNITS=RELATIVE INTENSITY
##XFACTOR=1
##YFACTOR=1
##FIRSTX=36
##LASTX=217
##FIRSTY=1181
##MAXX=217
##MINX=36
##MAXY=9999
##MINY=90
##NPOINTS=50
##PEAK TABLE=(XY..XY)
36,1181 39,1381 41,6525 42,1891
43,2972 49,590 53,690 54,1691
55,9999 56,2282 57,1391 67,3102
68,2682 69,4894 70,1401 71,700
72,1681 73,200 79,900 81,2502
82,1791 83,3713 84,3403 85,890
93,490 94,600 95,1891 96,3993
97,3102 98,4093 99,600 108,2001
109,1000 110,990 111,1000 112,590
119,600 121,690 123,1090 124,400
136,890 137,900 138,2091 139,390
162,500 163,690 180,1000 181,1491
182,90 217,100
##END=
