##TITLE=Chloromethyl 5-chloroundecanoate
##JCAMP-DX=4.24
##DATA TYPE=MASS SPECTRUM
##ORIGIN=ASES Database, Dalian Institute, P.R. China
##OWNER=NIST Mass Spectrometry Data Center
Collection (C) 2014 copyright by the U.S. Secretary of Commerce
on behalf of the United States of America. All rights reserved.
##CAS REGISTRY NO=80418-91-3
##$NIST MASS SPEC NO=143800
##MOLFORM=C12 H22 Cl2 O2
##MW=268
##$NIST SOURCE=MSDC
##XUNITS=M/Z
##YUNITS=RELATIVE INTENSITY
##XFACTOR=1
##YFACTOR=1
##FIRSTX=36
##LASTX=167
##FIRSTY=690
##MAXX=167
##MINX=36
##MAXY=9999
##MINY=390
##NPOINTS=44
##PEAK TABLE=(XY..XY)
36,690 39,1581 41,6706 42,2512
43,5494 49,490 53,1010 54,2482
55,9999 56,2312 57,1881 67,3703
68,4604 69,5274 70,2402 71,1791
72,500 73,390 79,1191 81,3282
82,4183 83,3813 84,4804 85,890
93,400 95,2612 96,5494 97,4013
98,2802 108,490 109,1000 110,1101
111,1090 119,700 121,600 122,990
123,1801 124,4494 125,800 137,790
148,500 149,1491 166,1101 167,1991
##END=
