##TITLE=Chloromethyl 9-chlorononanoate
##JCAMP-DX=4.24
##DATA TYPE=MASS SPECTRUM
##ORIGIN=ASES Database, Dalian Institute, P.R. China
##OWNER=NIST Mass Spectrometry Data Center
Collection (C) 2014 copyright by the U.S. Secretary of Commerce
on behalf of the United States of America. All rights reserved.
##CAS REGISTRY NO=80418-78-6
##$NIST MASS SPEC NO=145499
##MOLFORM=C10 H18 Cl2 O2
##MW=240
##$NIST SOURCE=MSDC
##XUNITS=M/Z
##YUNITS=RELATIVE INTENSITY
##XFACTOR=1
##YFACTOR=1
##FIRSTX=36
##LASTX=177
##FIRSTY=380
##MAXX=177
##MINX=36
##MAXY=9999
##MINY=100
##NPOINTS=47
##PEAK TABLE=(XY..XY)
36,380 38,190 39,1191 41,5735
42,2282 43,3633 49,1171 51,390
53,500 54,590 55,8827 56,1211
57,1591 67,1391 68,790 69,4003
70,590 71,390 72,5975 77,290
79,400 81,1090 82,290 83,1181
84,2011 85,1791 93,290 94,400
95,690 96,1191 97,2181 98,2081
99,200 105,300 108,9999 109,990
110,3483 111,1000 119,100 121,3082
131,200 132,490 135,390 138,600
139,200 175,2702 177,900
##END=
