##TITLE=Chloromethyl 4-chloropentanoate
##JCAMP-DX=4.24
##DATA TYPE=MASS SPECTRUM
##ORIGIN=ASES Database, Dalian Institute, P.R. China
##OWNER=NIST Mass Spectrometry Data Center
Collection (C) 2014 copyright by the U.S. Secretary of Commerce
on behalf of the United States of America. All rights reserved.
##CAS REGISTRY NO=80418-52-6
##$NIST MASS SPEC NO=145481
##MOLFORM=C6 H10 Cl2 O2
##MW=184
##$NIST SOURCE=MSDC
##XUNITS=M/Z
##YUNITS=RELATIVE INTENSITY
##XFACTOR=1
##YFACTOR=1
##FIRSTX=39
##LASTX=121
##FIRSTY=710
##MAXX=121
##MINX=39
##MAXY=9999
##MINY=90
##NPOINTS=32
##PEAK TABLE=(XY..XY)
39,710 41,710 42,1511 43,1291
49,1801 51,600 53,500 54,290
55,6786 56,1291 57,390 63,1181
65,490 69,90 71,190 72,3312
77,390 79,100 82,390 83,2592
84,200 85,100 90,490 91,300
92,190 93,100 108,9999 110,3393
118,700 119,6505 120,490 121,2382
##END=
