##TITLE=Chloromethyl 3-chlorododecanoate
##JCAMP-DX=4.24
##DATA TYPE=MASS SPECTRUM
##ORIGIN=ASES Database, Dalian Institute, P.R. China
##OWNER=NIST Mass Spectrometry Data Center
Collection (C) 2014 copyright by the U.S. Secretary of Commerce
on behalf of the United States of America. All rights reserved.
##CAS REGISTRY NO=80418-99-1
##$NIST MASS SPEC NO=143506
##MOLFORM=C13 H24 Cl2 O2
##MW=282
##$NIST SOURCE=MSDC
##XUNITS=M/Z
##YUNITS=RELATIVE INTENSITY
##XFACTOR=1
##YFACTOR=1
##FIRSTX=39
##LASTX=247
##FIRSTY=1961
##MAXX=247
##MINX=39
##MAXY=9999
##MINY=90
##NPOINTS=50
##PEAK TABLE=(XY..XY)
39,1961 41,9418 42,2081 43,9999
49,880 53,1111 54,1571 55,9138
56,3483 57,5955 67,3312 68,2272
69,5334 70,3503 71,1961 72,290
73,390 79,900 81,4914 82,2592
83,4794 84,2972 85,1471 93,600
94,400 95,3002 96,3893 97,3793
98,2602 99,400 108,500 109,1381
110,1201 111,1291 112,700 119,590
121,900 123,880 124,300 136,500
137,790 138,2792 139,290 162,90
163,790 180,600 181,8467 182,1000
217,890 247,5685
##END=
