##TITLE=Chloromethyl 7-chloro-octanoate
##JCAMP-DX=4.24
##DATA TYPE=MASS SPECTRUM
##ORIGIN=ASES Database, Dalian Institute, P.R. China
##OWNER=NIST Mass Spectrometry Data Center
Collection (C) 2014 copyright by the U.S. Secretary of Commerce
on behalf of the United States of America. All rights reserved.
##CAS REGISTRY NO=80418-69-5
##$NIST MASS SPEC NO=143779
##MOLFORM=C9 H16 Cl2 O2
##MW=226
##$NIST SOURCE=MSDC
##XUNITS=M/Z
##YUNITS=RELATIVE INTENSITY
##XFACTOR=1
##YFACTOR=1
##FIRSTX=41
##LASTX=164
##FIRSTY=5745
##MAXX=164
##MINX=41
##MAXY=9999
##MINY=20
##NPOINTS=50
##PEAK TABLE=(XY..XY)
41,5745 43,2552 51,540 53,850
54,940 55,9999 56,1761 57,840
67,3102 68,910 69,1751 70,640
71,160 72,3963 73,330 75,260
77,400 79,660 80,270 81,1971
82,5094 83,3072 84,860 85,710
91,200 92,340 95,810 96,4434
97,1731 98,210 107,330 108,6475
109,560 110,2141 118,330 119,680
121,750 123,330 124,2111 125,2942
126,400 132,330 135,410 137,70
148,330 150,60 161,1711 162,60
163,510 164,20
##END=
