##TITLE=Chloromethyl 4-chlorononanoate
##JCAMP-DX=4.24
##DATA TYPE=MASS SPECTRUM
##ORIGIN=ASES Database, Dalian Institute, P.R. China
##OWNER=NIST Mass Spectrometry Data Center
Collection (C) 2014 copyright by the U.S. Secretary of Commerce
on behalf of the United States of America. All rights reserved.
##CAS REGISTRY NO=80418-73-1
##$NIST MASS SPEC NO=145498
##MOLFORM=C10 H18 Cl2 O2
##MW=240
##$NIST SOURCE=MSDC
##XUNITS=M/Z
##YUNITS=RELATIVE INTENSITY
##XFACTOR=1
##YFACTOR=1
##FIRSTX=36
##LASTX=177
##FIRSTY=810
##MAXX=177
##MINX=36
##MAXY=9999
##MINY=90
##NPOINTS=50
##PEAK TABLE=(XY..XY)
36,810 38,290 39,1581 41,6425
42,2222 43,5645 49,1171 51,390
53,910 54,2011 55,9238 56,2292
57,1681 67,2282 68,1401 69,3292
70,690 71,890 72,5464 76,90
77,390 79,700 81,3623 82,800
83,1801 84,1781 85,2402 89,200
93,500 94,880 95,1881 96,7917
97,6706 98,580 99,200 105,200
108,9999 109,1711 110,3813 111,400
118,590 119,600 121,1681 131,90
132,700 135,190 138,2091 139,3282
175,1801 177,590
##END=
