##TITLE=Chloromethyl 8-chlorononanoate
##JCAMP-DX=4.24
##DATA TYPE=MASS SPECTRUM
##ORIGIN=ASES Database, Dalian Institute, P.R. China
##OWNER=NIST Mass Spectrometry Data Center
Collection (C) 2014 copyright by the U.S. Secretary of Commerce
on behalf of the United States of America. All rights reserved.
##CAS REGISTRY NO=80418-77-5
##$NIST MASS SPEC NO=143784
##MOLFORM=C10 H18 Cl2 O2
##MW=240
##$NIST SOURCE=MSDC
##XUNITS=M/Z
##YUNITS=RELATIVE INTENSITY
##XFACTOR=1
##YFACTOR=1
##FIRSTX=36
##LASTX=177
##FIRSTY=1611
##MAXX=177
##MINX=36
##MAXY=9999
##MINY=90
##NPOINTS=47
##PEAK TABLE=(XY..XY)
36,1611 38,600 39,1391 41,6565
42,1981 43,2882 49,1111 51,380
53,700 54,1501 55,9999 56,1601
57,890 67,2171 68,2101 69,5154
70,980 71,690 72,5004 77,290
79,900 81,2602 82,700 83,1681
84,2672 85,790 93,490 94,1401
95,2081 96,6796 97,4383 98,1481
102,90 105,190 108,8267 109,1581
110,3393 111,600 118,90 119,300
121,1681 132,300 135,400 138,3363
139,3603 175,1781 177,600
##END=
