##TITLE=Chloromethyl 7-chlorodecanoate
##JCAMP-DX=4.24
##DATA TYPE=MASS SPECTRUM
##ORIGIN=ASES Database, Dalian Institute, P.R. China
##OWNER=NIST Mass Spectrometry Data Center
Collection (C) 2014 copyright by the U.S. Secretary of Commerce
on behalf of the United States of America. All rights reserved.
##CAS REGISTRY NO=80418-84-4
##$NIST MASS SPEC NO=143795
##MOLFORM=C11 H20 Cl2 O2
##MW=254
##$NIST SOURCE=MSDC
##XUNITS=M/Z
##YUNITS=RELATIVE INTENSITY
##XFACTOR=1
##YFACTOR=1
##FIRSTX=36
##LASTX=189
##FIRSTY=1111
##MAXX=189
##MINX=36
##MAXY=9999
##MINY=90
##NPOINTS=47
##PEAK TABLE=(XY..XY)
36,1111 39,1391 41,6225 42,1871
43,2792 49,890 53,800 54,1781
55,9999 56,1691 57,1291 67,3072
68,2912 69,7396 70,1601 71,700
72,3373 73,390 79,1101 81,3613
82,1891 83,2582 84,5675 85,1090
93,590 95,1791 96,3613 97,2091
98,1401 105,190 106,90 108,590
109,1791 110,4403 111,2602 112,190
118,400 119,700 121,790 123,2191
124,790 132,90 134,600 135,1581
152,2492 153,3793 189,790
##END=
