##TITLE=Chloromethyl 11-chloroundecanoate
##JCAMP-DX=4.24
##DATA TYPE=MASS SPECTRUM
##ORIGIN=ASES Database, Dalian Institute, P.R. China
##OWNER=NIST Mass Spectrometry Data Center
Collection (C) 2014 copyright by the U.S. Secretary of Commerce
on behalf of the United States of America. All rights reserved.
##CAS REGISTRY NO=80418-97-9
##$NIST MASS SPEC NO=143799
##MOLFORM=C12 H22 Cl2 O2
##MW=268
##$NIST SOURCE=MSDC
##XUNITS=M/Z
##YUNITS=RELATIVE INTENSITY
##XFACTOR=1
##YFACTOR=1
##FIRSTX=36
##LASTX=203
##FIRSTY=780
##MAXX=203
##MINX=36
##MAXY=9999
##MINY=90
##NPOINTS=40
##PEAK TABLE=(XY..XY)
36,780 39,1711 41,5474 42,2011
43,3473 49,500 53,290 54,780
55,9999 56,1501 57,2902 67,1381
68,690 69,3793 70,790 71,500
72,2702 73,400 79,300 81,1301
82,590 83,1991 84,1591 85,2081
93,200 95,590 96,290 97,1401
98,3483 108,4283 109,290 111,700
121,1401 123,390 124,90 125,3002
137,390 148,100 149,190 203,700
##END=
