##TITLE=Chloromethyl 5-chlorohexanoate
##JCAMP-DX=4.24
##DATA TYPE=MASS SPECTRUM
##ORIGIN=ASES Database, Dalian Institute, P.R. China
##OWNER=NIST Mass Spectrometry Data Center
Collection (C) 2014 copyright by the U.S. Secretary of Commerce
on behalf of the United States of America. All rights reserved.
##CAS REGISTRY NO=80418-56-0
##$NIST MASS SPEC NO=144059
##MOLFORM=C7 H12 Cl2 O2
##MW=198
##$NIST SOURCE=MSDC
##XUNITS=M/Z
##YUNITS=RELATIVE INTENSITY
##XFACTOR=1
##YFACTOR=1
##FIRSTX=36
##LASTX=135
##FIRSTY=100
##MAXX=135
##MINX=36
##MAXY=9999
##MINY=90
##NPOINTS=37
##PEAK TABLE=(XY..XY)
36,100 39,1581 41,6125 42,2482
43,1791 49,2001 51,680 54,290
55,3883 56,500 57,400 63,1491
65,500 67,900 68,9999 69,8287
70,1000 71,3312 72,990 76,190
77,390 83,90 85,900 91,200
96,2582 97,5795 98,490 104,100
105,700 108,690 110,290 113,100
121,1101 132,1501 133,4484 134,600
135,1601
##END=
