##TITLE=Chloromethyl 9-chlorododecanoate
##JCAMP-DX=4.24
##DATA TYPE=MASS SPECTRUM
##ORIGIN=ASES Database, Dalian Institute, P.R. China
##OWNER=NIST Mass Spectrometry Data Center
Collection (C) 2014 copyright by the U.S. Secretary of Commerce
on behalf of the United States of America. All rights reserved.
##CAS REGISTRY NO=80419-05-2
##$NIST MASS SPEC NO=143811
##MOLFORM=C13 H24 Cl2 O2
##MW=282
##$NIST SOURCE=MSDC
##XUNITS=M/Z
##YUNITS=RELATIVE INTENSITY
##XFACTOR=1
##YFACTOR=1
##FIRSTX=36
##LASTX=217
##FIRSTY=1391
##MAXX=217
##MINX=36
##MAXY=9999
##MINY=90
##NPOINTS=50
##PEAK TABLE=(XY..XY)
36,1391 39,1181 41,5885 42,1811
43,2682 49,590 53,690 54,1291
55,9999 56,1891 57,1391 67,2682
68,2502 69,4373 70,1401 71,700
72,1681 73,300 79,790 81,2282
82,1901 83,3783 84,3072 85,990
93,490 94,400 95,1591 96,3312
97,2782 98,3583 99,390 108,2201
109,900 110,990 111,1181 112,690
119,500 121,690 123,1000 124,400
136,790 137,990 138,1781 139,290
162,500 163,690 180,1000 181,1391
182,90 217,100
##END=
