##TITLE=Chloromethyl 2-chloropentanoate
##JCAMP-DX=4.24
##DATA TYPE=MASS SPECTRUM
##ORIGIN=ASES Database, Dalian Institute, P.R. China
##OWNER=NIST Mass Spectrometry Data Center
Collection (C) 2014 copyright by the U.S. Secretary of Commerce
on behalf of the United States of America. All rights reserved.
##CAS REGISTRY NO=80418-50-4
##$NIST MASS SPEC NO=143759
##MOLFORM=C6 H10 Cl2 O2
##MW=184
##$NIST SOURCE=MSDC
##XUNITS=M/Z
##YUNITS=RELATIVE INTENSITY
##XFACTOR=1
##YFACTOR=1
##FIRSTX=36
##LASTX=146
##FIRSTY=90
##MAXX=146
##MINX=36
##MAXY=9999
##MINY=90
##NPOINTS=33
##PEAK TABLE=(XY..XY)
36,90 39,1000 41,990 42,200
43,580 49,2272 51,790 53,500
54,100 55,9999 56,900 57,90
62,200 63,500 65,190 71,100
76,1491 78,500 82,200 83,1601
84,190 85,100 91,3192 93,1080
95,390 106,5294 108,3302 110,490
119,2582 121,890 142,6896 144,4303
146,690
##END=
