##TITLE=Chloromethyl 5-chloro-octanoate
##JCAMP-DX=4.24
##DATA TYPE=MASS SPECTRUM
##ORIGIN=ASES Database, Dalian Institute, P.R. China
##OWNER=NIST Mass Spectrometry Data Center
Collection (C) 2014 copyright by the U.S. Secretary of Commerce
on behalf of the United States of America. All rights reserved.
##CAS REGISTRY NO=80418-67-3
##$NIST MASS SPEC NO=145062
##MOLFORM=C9 H16 Cl2 O2
##MW=226
##$NIST SOURCE=MSDC
##XUNITS=M/Z
##YUNITS=RELATIVE INTENSITY
##XFACTOR=1
##YFACTOR=1
##FIRSTX=39
##LASTX=164
##FIRSTY=2011
##MAXX=164
##MINX=39
##MAXY=9999
##MINY=20
##NPOINTS=50
##PEAK TABLE=(XY..XY)
39,2011 41,3042 49,1010 51,330
53,2051 54,980 55,7837 56,1291
57,720 67,3433 68,1030 69,1361
70,860 71,850 72,1030 73,330
77,620 79,780 80,260 81,2752
82,9268 83,3783 84,330 85,750
89,500 91,500 93,330 95,1611
96,9999 97,2772 98,470 99,640
105,680 107,370 108,1050 109,370
110,400 118,1151 119,370 121,1050
123,780 124,4704 125,5404 126,400
135,750 137,310 161,2402 162,70
163,850 164,20
##END=
