##TITLE=Chloromethyl 7-chlorododecanoate
##JCAMP-DX=4.24
##DATA TYPE=MASS SPECTRUM
##ORIGIN=ASES Database, Dalian Institute, P.R. China
##OWNER=NIST Mass Spectrometry Data Center
Collection (C) 2014 copyright by the U.S. Secretary of Commerce
on behalf of the United States of America. All rights reserved.
##CAS REGISTRY NO=80419-03-0
##$NIST MASS SPEC NO=143809
##MOLFORM=C13 H24 Cl2 O2
##MW=282
##$NIST SOURCE=MSDC
##XUNITS=M/Z
##YUNITS=RELATIVE INTENSITY
##XFACTOR=1
##YFACTOR=1
##FIRSTX=36
##LASTX=181
##FIRSTY=1501
##MAXX=181
##MINX=36
##MAXY=9999
##MINY=200
##NPOINTS=48
##PEAK TABLE=(XY..XY)
36,1501 39,1381 41,6165 42,1591
43,3903 49,590 53,800 54,1791
55,9999 56,2392 57,1601 67,3302
68,2392 69,4514 70,1591 71,900
72,1601 73,200 79,1090 81,2972
82,2412 83,3713 84,3703 85,890
93,490 94,600 95,1891 96,3993
97,3102 98,2982 99,490 108,2001
109,1090 110,790 111,900 112,490
119,600 121,600 123,1000 124,500
136,690 137,690 138,1781 139,290
162,400 163,600 180,790 181,1191
##END=
