##TITLE=Chloromethyl 2-chloroheptanoate
##JCAMP-DX=4.24
##DATA TYPE=MASS SPECTRUM
##ORIGIN=ASES Database, Dalian Institute, P.R. China
##OWNER=NIST Mass Spectrometry Data Center
Collection (C) 2014 copyright by the U.S. Secretary of Commerce
on behalf of the United States of America. All rights reserved.
##CAS REGISTRY NO=80418-58-2
##$NIST MASS SPEC NO=146375
##MOLFORM=C8 H14 Cl2 O2
##MW=212
##$NIST SOURCE=MSDC
##XUNITS=M/Z
##YUNITS=RELATIVE INTENSITY
##XFACTOR=1
##YFACTOR=1
##FIRSTX=36
##LASTX=149
##FIRSTY=700
##MAXX=149
##MINX=36
##MAXY=9999
##MINY=100
##NPOINTS=37
##PEAK TABLE=(XY..XY)
36,700 38,300 39,1881 41,5534
42,600 43,4484 49,1291 51,410
53,690 55,9778 56,2011 57,2091
67,910 68,1191 69,1411 70,600
71,1291 76,900 77,590 79,390
81,780 82,300 83,4574 84,1090
85,690 95,100 106,5605 108,1901
110,2101 111,390 119,590 121,100
142,9999 144,6365 146,1101 147,1090
149,390
##END=
