##TITLE=Chloromethyl 10-chloroundecanoate
##JCAMP-DX=4.24
##DATA TYPE=MASS SPECTRUM
##ORIGIN=ASES Database, Dalian Institute, P.R. China
##OWNER=NIST Mass Spectrometry Data Center
Collection (C) 2014 copyright by the U.S. Secretary of Commerce
on behalf of the United States of America. All rights reserved.
##CAS REGISTRY NO=80418-96-8
##$NIST MASS SPEC NO=143798
##MOLFORM=C12 H22 Cl2 O2
##MW=268
##$NIST SOURCE=MSDC
##XUNITS=M/Z
##YUNITS=RELATIVE INTENSITY
##XFACTOR=1
##YFACTOR=1
##FIRSTX=36
##LASTX=203
##FIRSTY=1391
##MAXX=203
##MINX=36
##MAXY=9999
##MINY=90
##NPOINTS=40
##PEAK TABLE=(XY..XY)
36,1391 39,1491 41,6095 42,1701
43,2592 49,590 53,690 54,1291
55,9999 56,1691 57,1511 67,2612
68,2392 69,5394 70,1301 71,790
72,2392 73,400 79,790 81,1901
82,2412 83,1991 84,1591 85,2081
93,200 95,590 96,290 97,1401
98,3483 108,4283 109,290 111,700
121,1401 123,390 124,90 125,300
137,390 148,100 149,190 203,700
##END=
