##TITLE=Chloromethyl 7-chloroundecanoate
##JCAMP-DX=4.24
##DATA TYPE=MASS SPECTRUM
##ORIGIN=ASES Database, Dalian Institute, P.R. China
##OWNER=NIST Mass Spectrometry Data Center
Collection (C) 2014 copyright by the U.S. Secretary of Commerce
on behalf of the United States of America. All rights reserved.
##CAS REGISTRY NO=80418-93-5
##$NIST MASS SPEC NO=143802
##MOLFORM=C12 H22 Cl2 O2
##MW=268
##$NIST SOURCE=MSDC
##XUNITS=M/Z
##YUNITS=RELATIVE INTENSITY
##XFACTOR=1
##YFACTOR=1
##FIRSTX=36
##LASTX=167
##FIRSTY=2292
##MAXX=167
##MINX=36
##MAXY=9999
##MINY=390
##NPOINTS=44
##PEAK TABLE=(XY..XY)
36,2292 39,1181 41,6095 42,2091
43,2872 49,500 53,800 54,1691
55,9999 56,1691 57,2782 67,3102
68,2902 69,4994 70,1481 71,900
72,2201 73,400 79,1000 81,2191
82,2602 83,3483 84,3072 85,1090
93,390 95,1591 96,2692 97,2201
98,3312 108,2392 109,900 110,390
111,790 119,500 121,500 122,590
123,1281 124,1891 125,490 137,490
148,400 149,800 166,790 167,1491
##END=
