##TITLE=Chloromethyl 5-chlorodecanoate
##JCAMP-DX=4.24
##DATA TYPE=MASS SPECTRUM
##ORIGIN=ASES Database, Dalian Institute, P.R. China
##OWNER=NIST Mass Spectrometry Data Center
Collection (C) 2014 copyright by the U.S. Secretary of Commerce
on behalf of the United States of America. All rights reserved.
##CAS REGISTRY NO=80418-82-2
##$NIST MASS SPEC NO=143792
##MOLFORM=C11 H20 Cl2 O2
##MW=254
##$NIST SOURCE=MSDC
##XUNITS=M/Z
##YUNITS=RELATIVE INTENSITY
##XFACTOR=1
##YFACTOR=1
##FIRSTX=36
##LASTX=189
##FIRSTY=1191
##MAXX=189
##MINX=36
##MAXY=9999
##MINY=100
##NPOINTS=47
##PEAK TABLE=(XY..XY)
36,1191 39,1701 41,7807 42,2201
43,5514 49,1201 53,990 54,2612
55,9999 56,2972 57,2201 67,3593
68,5575 69,6706 70,1791 71,1491
72,1191 73,290 79,1090 81,4303
82,2892 83,7756 84,1401 85,690
93,2292 95,6065 96,3503 97,1901
98,1881 105,590 106,100 108,1301
109,1801 110,7576 111,1981 112,200
118,1000 119,680 121,990 123,2702
124,990 132,500 134,790 135,2191
152,2982 153,3803 189,890
##END=
