##TITLE=Chloromethyl 2-chlorohexanoate
##JCAMP-DX=4.24
##DATA TYPE=MASS SPECTRUM
##ORIGIN=ASES Database, Dalian Institute, P.R. China
##OWNER=NIST Mass Spectrometry Data Center
Collection (C) 2014 copyright by the U.S. Secretary of Commerce
on behalf of the United States of America. All rights reserved.
##CAS REGISTRY NO=80418-53-7
##$NIST MASS SPEC NO=143294
##MOLFORM=C7 H12 Cl2 O2
##MW=198
##$NIST SOURCE=MSDC
##XUNITS=M/Z
##YUNITS=RELATIVE INTENSITY
##XFACTOR=1
##YFACTOR=1
##FIRSTX=36
##LASTX=146
##FIRSTY=290
##MAXX=146
##MINX=36
##MAXY=9999
##MINY=90
##NPOINTS=33
##PEAK TABLE=(XY..XY)
36,290 39,1911 41,9999 42,2302
43,4203 49,3002 51,990 55,4323
56,200 57,1080 63,400 67,700
68,200 69,8247 70,1090 71,190
76,1511 78,490 83,90 85,200
97,1681 98,300 99,100 105,690
106,4383 108,1491 132,390 133,990
134,190 135,290 142,5394 144,3454
146,600
##END=
