##TITLE=4-(1-Hydroxyethyl)benzaldehyde
##JCAMP-DX=4.24
##DATA TYPE=MASS SPECTRUM
##ORIGIN=T. CHIHARA, INST. PHYS. CHEM. RES., WAKO-SHI, SAITAMA, JAPAN
##OWNER=NIST Mass Spectrometry Data Center
Collection (C) 2014 copyright by the U.S. Secretary of Commerce
on behalf of the United States of America. All rights reserved.
##CAS REGISTRY NO=80463-21-4
##$NIST MASS SPEC NO=99422
##MOLFORM=C9 H10 O2
##MW=150
##$NIST SOURCE=MSDC
##XUNITS=M/Z
##YUNITS=RELATIVE INTENSITY
##XFACTOR=1
##YFACTOR=1
##FIRSTX=37
##LASTX=151
##FIRSTY=220
##MAXX=151
##MINX=37
##MAXY=9999
##MINY=10
##NPOINTS=63
##PEAK TABLE=(XY..XY)
37,220 38,410 39,1280 40,140
41,170 42,100 43,6870 44,240
45,890 49,140 50,1960 51,3630
52,720 53,570 55,110 61,150
62,340 63,640 64,70 65,360
66,40 67,70 73,140 74,700
75,660 76,650 77,6030 78,1190
79,9999 80,630 85,40 86,50
87,40 89,160 90,70 91,410
92,30 93,100 101,30 102,130
103,640 104,320 105,1250 106,410
107,6190 108,660 109,30 119,30
120,40 121,350 122,20 123,10
131,220 132,140 133,930 134,130
135,4360 136,330 137,20 148,80
149,150 150,100 151,30
##END=
