##TITLE=Chloromethyl 5-chloropentanoate
##JCAMP-DX=4.24
##DATA TYPE=MASS SPECTRUM
##ORIGIN=ASES Database, Dalian Institute, P.R. China
##OWNER=NIST Mass Spectrometry Data Center
Collection (C) 2014 copyright by the U.S. Secretary of Commerce
on behalf of the United States of America. All rights reserved.
##CAS REGISTRY NO=80482-35-5
##$NIST MASS SPEC NO=143761
##MOLFORM=C6 H10 Cl2 O2
##MW=184
##$NIST SOURCE=MSDC
##XUNITS=M/Z
##YUNITS=RELATIVE INTENSITY
##XFACTOR=1
##YFACTOR=1
##FIRSTX=36
##LASTX=149
##FIRSTY=700
##MAXX=149
##MINX=36
##MAXY=9999
##MINY=90
##NPOINTS=38
##PEAK TABLE=(XY..XY)
36,700 38,290 39,1371 41,1481
42,1271 43,1090 49,2382 51,790
53,790 54,1201 55,9999 56,990
57,910 62,190 63,590 64,90
65,200 69,200 71,190 72,790
77,90 82,1181 83,2892 84,190
90,1381 91,2972 92,490 93,990
99,190 107,90 108,1101 110,390
118,3873 119,7897 120,1301 121,2682
148,90 149,390
##END=
