##TITLE=3-Chloro-2-Methylbenzenesulphonyl chloride
##JCAMP-DX=4.24
##DATA TYPE=MASS SPECTRUM
##ORIGIN=NIST Mass Spectrometry Data Center, 1994
##OWNER=NIST Mass Spectrometry Data Center
Collection (C) 2014 copyright by the U.S. Secretary of Commerce
on behalf of the United States of America. All rights reserved.
##CAS REGISTRY NO=80563-86-6
##$NIST MASS SPEC NO=136790
##MOLFORM=C7 H6 Cl2 O2 S
##MW=224
##$NIST SOURCE=MSDC
##XUNITS=M/Z
##YUNITS=RELATIVE INTENSITY
##XFACTOR=1
##YFACTOR=1
##FIRSTX=15
##LASTX=229
##FIRSTY=150
##MAXX=229
##MINX=15
##MAXY=9999
##MINY=29
##NPOINTS=119
##PEAK TABLE=(XY..XY)
15,150 16,126 17,29 18,167
26,300 27,408 28,127 29,169
31,43 32,134 35,315 36,429
37,516 38,965 39,2898 40,233
41,106 42,43 43,436 44,43
45,947 46,51 47,190 48,1367
49,449 50,1363 51,1717 52,251
53,106 57,98 58,67 59,70
60,247 61,900 62,2327 63,5975
64,1783 65,1048 66,109 68,63
69,590 70,67 71,96 72,200
73,1397 74,768 75,1210 76,202
77,1149 78,195 79,100 81,141
82,95 83,125 84,174 85,421
86,687 87,598 88,95 89,9651
90,1712 91,926 92,129 93,142
95,233 96,82 97,321 98,82
99,2314 100,149 101,785 106,46
107,132 108,854 109,412 110,173
111,198 112,249 113,121 114,96
120,58 121,170 122,78 123,462
124,4521 125,9999 126,2537 127,3222
128,372 139,49 140,329 141,129
142,178 143,798 144,76 145,298
153,184 155,133 158,106 159,262
160,130 161,139 162,54 171,2615
172,284 173,1033 174,147 175,76
189,3801 190,521 191,1467 192,143
193,86 224,3093 225,327 226,2289
227,222 228,473 229,53
##END=
