##TITLE=Decahydro-1,1,4a,5,6-pentamethylnaphthalene
##JCAMP-DX=4.24
##DATA TYPE=MASS SPECTRUM
##ORIGIN=J.RICHARDSON,RES. CENT.,PHILLIPS PET. CO.,BARTLESVILLE,OK.,USA
##OWNER=NIST Mass Spectrometry Data Center
Collection (C) 2014 copyright by the U.S. Secretary of Commerce
on behalf of the United States of America. All rights reserved.
##CAS REGISTRY NO=80655-44-3
##$NIST MASS SPEC NO=100234
##MOLFORM=C15 H28
##MW=208
##$NIST SOURCE=MSDC
##XUNITS=M/Z
##YUNITS=RELATIVE INTENSITY
##XFACTOR=1
##YFACTOR=1
##FIRSTX=53
##LASTX=209
##FIRSTY=394
##MAXX=209
##MINX=53
##MAXY=9999
##MINY=80
##NPOINTS=38
##PEAK TABLE=(XY..XY)
53,394 55,3219 67,1882 68,810
69,4649 70,898 71,524 77,259
79,766 81,3329 82,2253 83,3738
84,522 93,499 95,4986 96,1333
97,4496 107,429 109,4637 110,1393
111,2172 112,233 121,258 123,6528
124,1515 137,3485 138,1319 151,1211
152,333 163,80 165,129 179,448
192,295 193,9999 194,1700 195,120
208,1038 209,169
##END=
