##TITLE=Cyclodecanamine, N-methyl-
##JCAMP-DX=4.24
##DATA TYPE=MASS SPECTRUM
##ORIGIN=J.E. WILKINSON S-CUBED, SAN DIEGO, CA.
##OWNER=NIST Mass Spectrometry Data Center
Collection (C) 2014 copyright by the U.S. Secretary of Commerce
on behalf of the United States of America. All rights reserved.
##CAS REGISTRY NO=80789-66-8
##$NIST MASS SPEC NO=92204
##MOLFORM=C11 H23 N
##MW=169
##$NIST SOURCE=MSDC
##XUNITS=M/Z
##YUNITS=RELATIVE INTENSITY
##XFACTOR=1
##YFACTOR=1
##FIRSTX=40
##LASTX=170
##FIRSTY=91
##MAXX=170
##MINX=40
##MAXY=9999
##MINY=1
##NPOINTS=65
##PEAK TABLE=(XY..XY)
40,91 41,1396 42,1035 43,258
44,1078 45,28 51,57 52,24
53,220 54,224 55,741 56,793
57,2713 58,269 63,4 65,70
66,29 67,306 68,324 69,136
70,9999 71,833 72,66 77,89
78,13 79,111 80,83 81,208
82,270 83,183 84,743 85,73
86,5 91,57 93,57 94,67
95,163 96,287 97,109 98,372
99,44 100,1 108,21 109,36
110,265 111,110 112,525 113,64
122,13 124,483 126,1394 127,138
136,39 137,17 138,120 139,3
140,344 141,33 152,6 154,118
166,2 167,71 168,166 169,709
170,113
##END=
