##TITLE=Triphenyleno[1,2-b]thiophene
##JCAMP-DX=4.24
##DATA TYPE=MASS SPECTRUM
##ORIGIN=Organic Synthesis Lab, MSU, Moscow.TRC 362
##OWNER=NIST Mass Spectrometry Data Center
Collection (C) 2014 copyright by the U.S. Secretary of Commerce
on behalf of the United States of America. All rights reserved.
##CAS REGISTRY NO=80819-44-9
##$NIST MASS SPEC NO=326079
##MOLFORM=C20 H12 S
##MW=284
##$NIST SOURCE=MSDC
##XUNITS=M/Z
##YUNITS=RELATIVE INTENSITY
##XFACTOR=1
##YFACTOR=1
##FIRSTX=45
##LASTX=286
##FIRSTY=20
##MAXX=286
##MINX=45
##MAXY=9999
##MINY=10
##NPOINTS=144
##PEAK TABLE=(XY..XY)
45,20 49,30 51,10 52,50
56,10 62,20 63,60 64,10
69,40 74,90 75,100 78,20
81,10 82,20 84,10 85,30
86,120 87,170 88,40 89,10
95,30 96,20 97,20 98,150
99,100 100,80 101,10 103,70
104,20 108,30 109,20 110,110
111,160 112,190 113,120 114,50
115,100 116,270 121,20 122,150
123,110 124,470 126,50 128,520
129,721 132,10 133,40 135,60
136,10 137,40 138,50 140,631
141,2062 142,1491 145,30 146,80
148,10 149,50 150,150 151,70
153,30 154,10 156,30 157,10
158,50 161,130 162,130 163,110
164,90 169,40 173,50 174,160
175,70 176,80 182,30 185,180
186,200 187,420 188,130 189,60
190,30 197,30 198,150 199,100
200,180 201,70 205,20 207,70
209,100 210,110 211,550 212,220
213,510 214,130 215,30 217,10
219,20 220,30 221,30 222,130
223,110 224,310 225,130 226,170
230,40 231,40 232,80 233,50
234,60 235,280 236,290 237,941
238,380 239,751 240,190 241,40
243,80 245,80 246,40 247,60
248,210 249,90 250,360 251,70
252,110 253,20 254,20 255,20
256,370 257,210 258,731 259,160
260,70 265,10 268,40 269,70
270,30 280,260 281,280 282,2222
283,951 284,9999 285,1992 286,601
##END=
