##TITLE=Etofenprox
##JCAMP-DX=4.24
##DATA TYPE=MASS SPECTRUM
##ORIGIN=NIST Mass Spectrometry Data Center
##OWNER=NIST Mass Spectrometry Data Center
Collection (C) 2014 copyright by the U.S. Secretary of Commerce
on behalf of the United States of America. All rights reserved.
##CAS REGISTRY NO=80844-07-1
##$NIST MASS SPEC NO=333343
##MOLFORM=C25 H28 O3
##MW=376
##$NIST SOURCE=MSDC
##XUNITS=M/Z
##YUNITS=RELATIVE INTENSITY
##XFACTOR=1
##YFACTOR=1
##FIRSTX=27
##LASTX=378
##FIRSTY=30
##MAXX=378
##MINX=27
##MAXY=9999
##MINY=10
##NPOINTS=103
##PEAK TABLE=(XY..XY)
27,30 29,50 38,10 39,90
40,10 41,300 42,10 43,20
50,30 51,170 52,30 53,40
55,110 56,10 62,10 63,70
64,40 65,140 66,30 67,20
74,10 75,10 76,30 77,530
78,140 79,100 80,10 81,10
89,310 90,230 91,360 92,40
93,30 94,60 95,450 96,30
101,10 102,20 103,70 104,10
105,80 106,60 107,1471 108,120
109,10 115,250 116,40 117,50
118,50 119,160 120,50 121,60
122,10 126,10 127,100 128,130
129,110 130,10 131,20 132,10
133,70 134,130 135,1942 136,190
137,10 139,30 140,10 141,40
142,10 144,10 147,10 149,20
150,10 151,20 152,90 153,200
154,120 155,90 156,10 157,10
161,20 163,9999 164,1271 165,220
166,30 167,10 168,170 169,30
170,10 176,10 177,10 178,10
181,140 182,90 183,691 184,110
185,10 195,10 197,10 209,10
376,370 377,100 378,20
##END=
