##TITLE=4-tert-Butyl-O-phenylene diacetate
##JCAMP-DX=4.24
##DATA TYPE=MASS SPECTRUM
##ORIGIN=NIST Mass Spectrometry Data Center
##OWNER=NIST Mass Spectrometry Data Center
Collection (C) 2014 copyright by the U.S. Secretary of Commerce
on behalf of the United States of America. All rights reserved.
##CAS REGISTRY NO=80869-94-9
##$NIST MASS SPEC NO=352797
##MOLFORM=C14 H18 O4
##MW=250
##$NIST SOURCE=MSDC
##XUNITS=M/Z
##YUNITS=RELATIVE INTENSITY
##XFACTOR=1
##YFACTOR=1
##FIRSTX=15
##LASTX=251
##FIRSTY=50
##MAXX=251
##MINX=15
##MAXY=9999
##MINY=10
##NPOINTS=105
##PEAK TABLE=(XY..XY)
15,50 27,30 28,10 29,40
38,10 39,100 40,20 41,210
42,60 43,1672 44,40 45,10
50,30 51,110 52,60 53,100
54,10 55,130 56,10 57,40
59,10 62,10 63,50 64,20
65,140 66,50 67,90 68,10
69,20 74,10 75,10 76,10
77,440 78,110 79,350 80,40
81,50 82,10 83,10 89,60
90,20 91,340 92,40 93,270
94,100 95,40 96,10 102,10
103,130 104,60 105,260 106,40
107,400 108,60 109,50 110,110
111,120 112,10 115,20 116,10
117,50 118,10 119,200 120,30
121,110 122,220 123,711 124,60
125,100 126,10 129,10 131,50
132,30 133,140 134,70 135,230
136,60 137,170 138,20 147,90
148,10 149,50 150,520 151,9999
152,1131 153,90 154,10 161,10
164,20 165,240 166,7567 167,921
168,80 169,10 176,10 177,10
191,10 192,10 193,180 194,20
208,791 209,110 210,10 250,190
251,30
##END=
