##TITLE=Saccharin
##JCAMP-DX=4.24
##DATA TYPE=MASS SPECTRUM
##ORIGIN=NIST Mass Spectrometry Data Center, 1998.
##OWNER=NIST Mass Spectrometry Data Center
Collection (C) 2014 copyright by the U.S. Secretary of Commerce
on behalf of the United States of America. All rights reserved.
##CAS REGISTRY NO=81-07-2
##$NIST MASS SPEC NO=290638
##MOLFORM=C7 H5 N O3 S
##MW=183
##$NIST SOURCE=MSDC
##XUNITS=M/Z
##YUNITS=RELATIVE INTENSITY
##XFACTOR=1
##YFACTOR=1
##FIRSTX=26
##LASTX=186
##FIRSTY=60
##MAXX=186
##MINX=26
##MAXY=9999
##MINY=10
##NPOINTS=102
##PEAK TABLE=(XY..XY)
26,60 27,140 29,160 30,20
31,30 32,30 36,20 37,370
38,740 39,620 40,60 41,460
42,120 43,590 44,110 45,280
47,70 48,390 49,370 50,6709
51,670 52,530 53,210 54,50
55,350 56,80 57,380 58,90
59,30 60,620 61,340 62,410
63,1540 64,1640 65,390 66,50
67,50 68,50 69,530 70,270
71,240 72,30 73,960 74,2470
75,1780 76,9999 77,850 78,170
79,60 80,10 81,120 82,110
83,130 84,520 85,80 86,20
87,120 88,20 89,10 90,310
91,860 92,4460 93,380 94,20
95,180 96,220 97,80 98,50
99,30 101,50 102,30 103,2050
104,2540 105,230 106,110 107,20
108,20 110,30 111,30 112,220
113,10 115,90 119,5349 120,4900
121,520 122,200 123,20 129,300
130,20 133,60 135,10 139,20
140,850 141,50 142,30 143,60
151,50 152,10 183,8799 184,820
185,520 186,10
##END=
