##TITLE=2-Sulfobenzoic acid cyclic anhydride
##JCAMP-DX=4.24
##DATA TYPE=MASS SPECTRUM
##ORIGIN=NIST Mass Spectrometry Data Center, 1994
##OWNER=NIST Mass Spectrometry Data Center
Collection (C) 2014 copyright by the U.S. Secretary of Commerce
on behalf of the United States of America. All rights reserved.
##CAS REGISTRY NO=81-08-3
##$NIST MASS SPEC NO=134217
##MOLFORM=C7 H4 O4 S
##MW=184
##$NIST SOURCE=MSDC
##XUNITS=M/Z
##YUNITS=RELATIVE INTENSITY
##XFACTOR=1
##YFACTOR=1
##FIRSTX=14
##LASTX=186
##FIRSTY=71
##MAXX=186
##MINX=14
##MAXY=9999
##MINY=6
##NPOINTS=58
##PEAK TABLE=(XY..XY)
14,71 16,31 18,6 26,177
28,251 29,60 32,100 36,94
37,670 38,1054 39,334 40,6
44,79 45,163 46,360 47,6
48,497 49,635 50,5851 51,366
52,177 53,186 57,49 60,79
61,241 62,332 63,780 64,860
65,118 66,47 68,56 69,317
70,174 71,30 72,30 73,559
74,2247 75,1497 76,9274 77,795
78,61 81,95 82,53 84,55
92,2036 93,149 95,71 96,68
104,9999 105,744 106,64 120,5437
121,470 122,32 140,66 184,5594
185,506 186,270
##END=
