##TITLE=(R)-2,4-DIHYDROXY-N-(3-HYDROXYPROPYL)-3,3-DIMETHYLBUTYRAMIDE
##JCAMP-DX=4.24
##DATA TYPE=MASS SPECTRUM
##ORIGIN=Japan AIST/NIMC Database- Spectrum MS-IW-3443
##OWNER=NIST Mass Spectrometry Data Center
Collection (C) 2014 copyright by the U.S. Secretary of Commerce
on behalf of the United States of America. All rights reserved.
##CAS REGISTRY NO=81-13-0
##$NIST MASS SPEC NO=232174
##MOLFORM=C9 H19 N O4
##MW=205
##$NIST SOURCE=MSDC
##XUNITS=M/Z
##YUNITS=RELATIVE INTENSITY
##XFACTOR=1
##YFACTOR=1
##FIRSTX=15
##LASTX=206
##FIRSTY=90
##MAXX=206
##MINX=15
##MAXY=9999
##MINY=10
##NPOINTS=128
##PEAK TABLE=(XY..XY)
15,90 17,60 18,279 19,90
26,50 27,659 28,759 29,1339
30,4209 31,1839 32,80 37,10
38,30 39,619 40,129 41,2219
42,529 43,2179 44,1029 45,739
46,299 47,60 50,10 51,30
52,30 53,259 54,129 55,1519
56,1739 57,1809 58,1469 59,1289
60,60 61,70 65,20 66,10
67,169 68,529 69,229 70,149
71,4299 72,729 73,699 74,1169
75,1709 76,5299 77,209 78,20
79,10 80,20 81,40 82,619
83,1909 84,1049 85,1149 86,1869
87,389 88,189 89,539 90,20
91,10 94,10 95,30 96,40
97,50 98,149 99,70 100,139
101,30 102,2109 103,1669 104,349
105,20 108,109 109,99 110,60
111,50 112,129 113,419 114,1669
115,1159 116,129 117,50 118,10
119,10 120,10 124,30 126,99
127,40 128,30 129,10 130,40
131,30 132,2109 133,9999 134,619
135,80 137,60 138,20 139,50
140,90 141,30 142,90 143,30
144,10 149,30 154,10 156,60
157,1389 158,299 159,30 160,50
161,179 162,10 168,10 172,20
174,50 175,369 176,30 177,60
179,99 180,10 186,20 187,40
188,20 204,30 205,40 206,70
##END=
