##TITLE=Musk ketone
##JCAMP-DX=4.24
##DATA TYPE=MASS SPECTRUM
##ORIGIN=NIST Mass Spectrometry Data Center, 1998.
##OWNER=NIST Mass Spectrometry Data Center
Collection (C) 2014 copyright by the U.S. Secretary of Commerce
on behalf of the United States of America. All rights reserved.
##CAS REGISTRY NO=81-14-1
##$NIST MASS SPEC NO=291190
##MOLFORM=C14 H18 N2 O5
##MW=294
##$NIST SOURCE=MSDC
##XUNITS=M/Z
##YUNITS=RELATIVE INTENSITY
##XFACTOR=1
##YFACTOR=1
##FIRSTX=15
##LASTX=296
##FIRSTY=100
##MAXX=296
##MINX=15
##MAXY=9999
##MINY=10
##NPOINTS=229
##PEAK TABLE=(XY..XY)
15,100 26,10 27,220 29,420
30,270 31,60 37,10 38,30
39,720 40,80 41,1070 42,160
43,9999 44,250 45,80 46,30
50,160 51,790 52,250 53,590
54,70 55,300 56,170 57,1650
58,100 59,220 60,10 61,20
62,110 63,630 64,220 65,900
66,190 67,230 68,40 69,80
70,40 71,40 73,20 74,130
75,320 76,290 77,1590 78,490
79,430 80,100 81,70 82,60
83,70 84,20 85,30 86,70
87,160 88,110 89,500 90,170
91,1550 92,300 93,210 94,100
95,40 96,20 97,20 98,40
99,50 100,40 101,160 102,470
103,1280 104,510 105,620 106,240
107,180 108,140 109,80 110,30
111,20 112,10 113,60 114,70
115,1980 116,790 117,1180 118,1010
119,660 120,480 121,190 122,100
123,40 124,20 125,20 126,100
127,710 128,2370 129,1200 130,650
131,800 132,710 133,650 134,450
135,190 136,110 137,40 138,10
139,90 140,80 141,850 142,700
143,870 144,860 145,860 146,1120
147,920 148,460 149,200 150,70
151,40 152,110 153,100 154,140
155,160 156,270 157,350 158,520
159,640 160,1020 161,690 162,430
163,180 164,100 165,60 166,20
167,70 168,80 169,100 170,230
171,400 172,470 173,480 174,760
175,690 176,470 177,180 178,70
179,30 180,20 181,20 182,30
183,50 184,150 185,260 186,410
187,450 188,550 189,410 190,300
191,600 192,100 193,30 194,10
195,10 196,20 197,60 198,160
199,240 200,230 201,210 202,510
203,330 204,230 205,70 206,60
207,30 208,10 209,10 210,10
211,20 212,70 213,80 214,190
215,270 216,160 217,190 218,80
219,80 220,30 221,40 222,10
223,40 224,10 225,40 226,20
227,90 228,70 229,50 230,100
231,90 232,140 233,50 234,30
235,20 236,50 237,30 238,10
241,10 242,20 243,30 244,30
245,230 246,40 247,340 248,200
249,60 250,30 259,20 260,50
261,40 262,140 263,20 264,30
265,10 277,220 279,8379 280,1290
281,180 282,20 294,2150 295,350
296,50
##END=
