##TITLE=2-Amino-1-naphthalenesulfonic acid
##JCAMP-DX=4.24
##DATA TYPE=MASS SPECTRUM
##ORIGIN=Japan AIST/NIMC Database- Spectrum MS-NW- 297
##OWNER=NIST Mass Spectrometry Data Center
Collection (C) 2014 copyright by the U.S. Secretary of Commerce
on behalf of the United States of America. All rights reserved.
##CAS REGISTRY NO=81-16-3
##$NIST MASS SPEC NO=228507
##MOLFORM=C10 H9 N O3 S
##MW=223
##$NIST SOURCE=MSDC
##XUNITS=M/Z
##YUNITS=RELATIVE INTENSITY
##XFACTOR=1
##YFACTOR=1
##FIRSTX=17
##LASTX=223
##FIRSTY=20
##MAXX=223
##MINX=17
##MAXY=9999
##MINY=10
##NPOINTS=87
##PEAK TABLE=(XY..XY)
17,20 18,70 27,30 28,50
29,10 32,50 36,40 37,20
38,50 39,159 40,10 41,70
42,20 43,40 44,30 45,10
48,389 50,109 51,139 52,70
53,20 54,30 55,30 56,20
57,119 58,229 59,30 61,50
62,149 63,299 64,469 65,149
66,30 67,20 69,20 70,289
71,529 72,60 73,10 74,99
75,99 76,80 77,80 78,40
80,739 81,10 82,30 83,10
84,20 85,20 86,50 87,90
88,99 89,329 90,80 91,70
92,10 94,10 95,10 97,10
98,20 99,10 100,10 101,20
102,40 103,40 104,30 107,10
109,10 113,139 114,219 115,3019
116,1269 117,199 118,10 125,10
126,179 127,60 128,50 130,10
140,159 141,149 142,419 143,9999
144,1159 145,70 223,70
##END=
