##TITLE=Dehydrocholic acid
##JCAMP-DX=4.24
##DATA TYPE=MASS SPECTRUM
##ORIGIN=Japan AIST/NIMC Database- Spectrum MS-NW-8106
##OWNER=NIST Mass Spectrometry Data Center
Collection (C) 2014 copyright by the U.S. Secretary of Commerce
on behalf of the United States of America. All rights reserved.
##CAS REGISTRY NO=81-23-2
##$NIST MASS SPEC NO=233053
##MOLFORM=C24 H34 O5
##MW=402
##$NIST SOURCE=MSDC
##XUNITS=M/Z
##YUNITS=RELATIVE INTENSITY
##XFACTOR=1
##YFACTOR=1
##FIRSTX=14
##LASTX=405
##FIRSTY=10
##MAXX=405
##MINX=14
##MAXY=9999
##MINY=10
##NPOINTS=356
##PEAK TABLE=(XY..XY)
14,10 15,30 17,70 18,399
26,40 27,349 28,349 29,689
30,20 31,80 32,10 35,10
36,129 38,40 39,429 40,119
41,2039 42,209 43,2169 44,169
45,209 50,20 51,70 52,60
53,709 54,199 55,3039 56,189
57,319 58,30 59,299 60,149
61,20 63,20 64,10 65,289
66,149 67,1499 68,709 69,1189
70,169 71,309 72,40 73,99
74,30 75,10 76,10 77,719
78,159 79,1479 80,519 81,2679
82,699 83,879 84,679 85,409
86,40 87,30 88,10 89,20
90,20 91,1129 92,209 93,1589
94,409 95,1629 96,449 97,479
98,129 99,739 100,60 101,389
102,50 103,109 104,60 105,919
106,249 107,1529 108,599 109,2469
110,1459 111,579 112,90 113,70
114,369 115,179 116,80 117,339
118,90 119,739 120,279 121,2099
122,809 123,1299 124,1359 125,589
126,80 127,269 128,129 129,189
130,109 131,529 132,139 133,719
134,559 135,2339 136,749 137,1809
138,329 139,129 140,539 141,399
142,1859 143,509 144,149 145,629
146,249 147,999 148,809 149,1079
150,609 151,939 152,239 153,149
154,50 155,169 156,129 157,459
158,199 159,1229 160,929 161,1169
162,589 163,889 164,789 165,349
166,129 167,90 168,50 169,249
170,90 171,399 172,269 173,1369
174,489 175,779 176,269 177,439
178,369 179,519 180,189 181,359
182,309 183,319 184,99 185,2429
186,469 187,489 188,239 189,359
190,249 191,509 192,269 193,179
194,109 195,259 196,109 197,359
198,149 199,629 200,189 201,589
202,159 203,349 204,119 205,179
206,109 207,269 208,739 209,389
210,159 211,279 212,119 213,559
214,189 215,549 216,139 217,299
218,119 219,319 220,99 221,239
222,70 223,289 224,139 225,909
226,229 227,279 228,169 229,199
230,119 231,389 232,189 233,259
234,119 235,119 236,60 237,209
238,109 239,199 240,109 241,529
242,209 243,1289 244,379 245,319
246,269 247,309 248,259 249,179
250,99 251,159 252,80 253,119
254,90 255,269 256,429 257,549
258,889 259,1869 260,599 261,9999
262,2089 263,429 264,90 265,509
266,159 267,239 268,169 269,269
270,589 271,279 272,499 273,399
274,1879 275,619 276,209 277,359
278,99 279,109 280,40 281,99
282,70 283,2739 284,819 285,569
286,189 287,2349 288,779 289,169
290,329 291,149 292,449 293,349
294,109 295,189 296,179 297,119
298,60 299,159 300,90 301,2349
302,509 303,109 304,30 305,70
306,50 307,119 308,60 309,139
310,90 311,429 312,219 313,259
314,779 315,229 316,60 317,20
318,10 319,20 320,40 321,30
322,30 323,169 324,149 325,429
326,149 327,229 328,119 329,129
330,70 331,70 332,40 333,249
334,70 335,30 336,10 337,40
338,239 339,119 340,129 341,169
342,299 343,1059 344,259 345,50
346,10 347,20 348,159 349,80
350,30 351,489 352,129 353,30
354,20 355,90 356,479 357,129
358,90 359,40 360,10 365,40
366,799 367,369 368,149 369,419
370,129 371,30 372,10 374,30
382,40 383,60 384,7849 385,2289
386,449 387,189 388,109 389,30
398,40 399,10 400,60 401,70
402,1859 403,519 404,99 405,10
##END=
