##TITLE=1,4,5,8-Naphthalenetetracarboxylic dianhydride
##JCAMP-DX=4.24
##DATA TYPE=MASS SPECTRUM
##ORIGIN=Japan AIST/NIMC Database- Spectrum MS-NW-6779
##OWNER=NIST Mass Spectrometry Data Center
Collection (C) 2014 copyright by the U.S. Secretary of Commerce
on behalf of the United States of America. All rights reserved.
##CAS REGISTRY NO=81-30-1
##$NIST MASS SPEC NO=235465
##MOLFORM=C14 H4 O6
##MW=268
##$NIST SOURCE=MSDC
##XUNITS=M/Z
##YUNITS=RELATIVE INTENSITY
##XFACTOR=1
##YFACTOR=1
##FIRSTX=12
##LASTX=271
##FIRSTY=10
##MAXX=271
##MINX=12
##MAXY=9999
##MINY=10
##NPOINTS=173
##PEAK TABLE=(XY..XY)
12,10 15,30 16,20 25,20
26,80 27,50 28,169 29,70
36,60 37,369 38,239 39,60
40,10 41,149 42,30 43,179
44,99 45,109 48,50 49,319
50,459 51,80 52,20 53,239
54,60 55,179 56,70 57,109
58,10 60,189 61,1639 62,2829
63,169 64,20 65,30 66,40
67,60 68,20 69,80 70,40
71,50 72,70 73,459 74,4769
75,409 76,999 77,259 78,30
79,30 80,20 81,80 82,20
83,50 84,219 85,689 86,959
87,179 88,10 89,10 90,459
91,40 92,10 93,40 94,10
95,40 96,50 97,289 98,2679
99,299 100,40 101,60 102,20
103,20 104,10 105,20 106,10
107,20 108,40 109,139 110,219
111,209 112,259 113,90 114,20
115,30 116,10 117,10 119,10
120,179 121,399 122,1699 123,1019
124,6379 125,749 126,50 127,20
128,20 129,20 131,10 132,20
133,20 134,20 135,10 136,10
137,20 138,20 139,50 140,149
141,50 143,10 144,10 145,10
146,10 147,10 148,10 149,60
150,20 151,70 152,6429 153,849
154,80 155,10 157,10 159,10
161,10 163,10 165,10 167,30
168,40 169,80 170,40 171,20
175,10 176,10 177,10 179,40
180,4759 181,669 182,70 183,10
185,10 186,10 195,10 196,159
197,50 198,60 199,10 203,10
204,10 205,20 206,10 209,10
210,10 212,20 213,20 216,10
222,10 223,70 224,9999 225,1489
226,219 227,20 231,20 232,20
233,20 234,10 240,199 241,50
242,10 268,2539 269,419 270,90
271,10
##END=
