##TITLE=9,10-Anthracenedione, 1,8-dihydroxy-4,5-dinitro-
##JCAMP-DX=4.24
##DATA TYPE=MASS SPECTRUM
##ORIGIN=RADIAN CORP
##OWNER=NIST Mass Spectrometry Data Center
Collection (C) 2014 copyright by the U.S. Secretary of Commerce
on behalf of the United States of America. All rights reserved.
##CAS REGISTRY NO=81-55-0
##$NIST MASS SPEC NO=75957
##MOLFORM=C14 H6 N2 O8
##MW=330
##$NIST SOURCE=MSDC
##XUNITS=M/Z
##YUNITS=RELATIVE INTENSITY
##XFACTOR=1
##YFACTOR=1
##FIRSTX=30
##LASTX=332
##FIRSTY=9999
##MAXX=332
##MINX=30
##MAXY=9999
##MINY=20
##NPOINTS=130
##PEAK TABLE=(XY..XY)
30,9999 36,350 37,220 38,530
46,1520 49,290 50,890 51,1640
52,1160 53,2070 62,5570 63,7860
64,1520 74,3180 75,4270 76,3110
77,1110 78,1370 79,780 80,1810
86,2610 87,2150 88,2870 89,900
90,1960 91,3960 92,1760 98,650
99,2740 100,2470 101,710 102,690
103,270 104,1800 106,3490 107,730
110,730 113,2410 114,4350 116,1330
117,150 118,560 119,760 120,1250
122,1740 123,1800 124,680 125,1250
126,8460 127,840 128,530 131,30
132,1800 133,460 134,760 135,930
136,1420 137,20 138,30 140,180
141,220 142,8870 143,770 144,1530
145,170 146,170 150,950 151,770
152,60 153,860 154,2010 155,260
156,630 158,1090 159,40 160,590
164,360 165,200 166,200 168,300
169,1220 170,3650 171,220 172,1270
173,330 174,400 176,1980 177,290
178,50 180,80 181,740 182,1570
183,370 184,970 186,3590 187,630
188,1100 189,20 192,120 197,600
198,3560 199,420 200,910 201,200
202,320 210,500 211,220 212,290
214,1870 215,330 216,400 218,360
226,840 227,1200 228,1660 229,380
232,510 239,320 240,310 242,510
246,40 254,720 255,760 256,70
284,20 300,580 314,260 330,8800
331,1460 332,220
##END=
