##TITLE=9,10-Anthracenedione, 1,2,4-trihydroxy-
##JCAMP-DX=4.24
##DATA TYPE=MASS SPECTRUM
##ORIGIN=Japan AIST/NIMC Database- Spectrum MS-NW-6518
##OWNER=NIST Mass Spectrometry Data Center
Collection (C) 2014 copyright by the U.S. Secretary of Commerce
on behalf of the United States of America. All rights reserved.
##CAS REGISTRY NO=81-54-9
##$NIST MASS SPEC NO=235034
##MOLFORM=C14 H8 O5
##MW=256
##$NIST SOURCE=MSDC
##XUNITS=M/Z
##YUNITS=RELATIVE INTENSITY
##XFACTOR=1
##YFACTOR=1
##FIRSTX=14
##LASTX=259
##FIRSTY=30
##MAXX=259
##MINX=14
##MAXY=9999
##MINY=10
##NPOINTS=168
##PEAK TABLE=(XY..XY)
14,30 15,30 17,10 18,30
25,10 26,20 27,70 28,169
29,109 32,10 37,80 38,129
39,319 40,30 41,70 42,119
43,70 44,60 45,30 49,70
50,519 51,539 52,109 53,429
54,40 55,50 56,10 57,80
58,90 59,20 61,90 62,179
63,519 64,129 65,139 66,239
67,99 68,20 69,469 70,40
71,99 72,99 73,70 74,439
75,669 76,649 77,839 78,129
79,119 80,20 81,10 82,20
84,10 85,70 86,179 87,179
88,109 89,209 90,50 91,119
92,40 93,60 94,30 95,80
96,10 97,20 98,119 99,159
100,349 101,499 102,1079 103,269
104,249 105,729 106,70 107,40
108,10 109,30 110,40 111,30
112,30 113,159 114,249 115,879
116,259 117,30 118,30 121,20
122,129 123,40 124,30 125,189
126,1049 127,259 128,309 129,269
130,899 131,359 132,70 133,20
134,10 135,10 137,40 138,40
139,30 140,30 141,20 142,129
143,159 144,149 145,30 146,30
149,30 150,80 151,90 152,40
153,99 154,229 155,99 156,30
157,129 158,319 159,80 160,20
168,30 169,20 170,30 171,219
172,139 173,40 174,50 180,40
181,90 182,289 183,99 184,50
185,20 186,359 187,70 188,10
196,20 198,10 199,189 200,149
201,20 202,20 203,20 204,20
205,10 208,30 209,40 210,80
211,40 212,50 213,20 223,10
224,30 225,10 227,249 228,3769
229,569 230,70 254,10 255,169
256,9999 257,1559 258,219 259,30
##END=
