##TITLE=9,10-Anthracenedione, 1,4-diamino-2,3-dihydro-
##JCAMP-DX=4.24
##DATA TYPE=MASS SPECTRUM
##ORIGIN=NIST Mass Spectrometry Data Center, 1994
##OWNER=NIST Mass Spectrometry Data Center
Collection (C) 2014 copyright by the U.S. Secretary of Commerce
on behalf of the United States of America. All rights reserved.
##CAS REGISTRY NO=81-63-0
##$NIST MASS SPEC NO=133758
##MOLFORM=C14 H12 N2 O2
##MW=240
##$NIST SOURCE=MSDC
##XUNITS=M/Z
##YUNITS=RELATIVE INTENSITY
##XFACTOR=1
##YFACTOR=1
##FIRSTX=14
##LASTX=243
##FIRSTY=6
##MAXX=243
##MINX=14
##MAXY=9999
##MINY=3
##NPOINTS=94
##PEAK TABLE=(XY..XY)
14,6 26,49 27,64 28,61
29,62 32,3 38,39 39,82
49,37 50,252 51,415 52,116
53,227 54,61 55,111 61,61
62,102 63,232 64,193 66,79
69,64 70,30 73,36 74,245
75,366 76,362 77,487 78,206
79,177 80,27 82,41 83,27
85,18 86,70 87,85 88,37
89,36 90,16 92,252 97,26
98,80 99,50 100,65 101,307
102,641 103,75 104,84 105,147
106,72 107,31 108,18 109,28
110,34 111,30 113,51 114,28
115,25 120,203 125,26 126,163
127,415 128,697 129,216 130,69
131,19 134,86 135,59 137,55
138,59 139,85 140,17 155,232
156,118 157,156 158,117 159,17
162,21 166,18 167,18 168,36
183,584 184,349 185,49 195,24
211,156 212,374 213,65 223,35
224,26 239,2445 240,9999 241,1550
242,198 243,17
##END=
