##TITLE=9,10-Anthracenedione, 1,2,5,8-tetrahydroxy-
##JCAMP-DX=4.24
##DATA TYPE=MASS SPECTRUM
##ORIGIN=Japan AIST/NIMC Database- Spectrum MS-NW-5769
##OWNER=NIST Mass Spectrometry Data Center
Collection (C) 2014 copyright by the U.S. Secretary of Commerce
on behalf of the United States of America. All rights reserved.
##CAS REGISTRY NO=81-61-8
##$NIST MASS SPEC NO=232753
##MOLFORM=C14 H8 O6
##MW=272
##$NIST SOURCE=MSDC
##XUNITS=M/Z
##YUNITS=RELATIVE INTENSITY
##XFACTOR=1
##YFACTOR=1
##FIRSTX=17
##LASTX=275
##FIRSTY=20
##MAXX=275
##MINX=17
##MAXY=9999
##MINY=10
##NPOINTS=168
##PEAK TABLE=(XY..XY)
17,20 18,99 26,30 27,60
28,119 29,90 37,30 38,40
39,119 42,10 43,30 44,20
45,10 49,30 50,159 51,349
52,169 53,289 54,80 55,159
56,70 57,119 58,50 59,10
60,10 61,70 62,149 63,239
64,50 65,60 66,60 67,30
68,10 69,60 70,30 71,149
72,20 73,30 74,99 75,119
76,109 77,239 78,90 79,179
80,80 81,50 82,109 84,40
85,90 86,109 87,159 88,159
89,70 90,40 91,60 92,60
93,40 94,30 95,80 97,10
98,50 99,99 100,60 101,60
102,70 103,90 104,50 105,70
106,30 107,90 108,599 109,70
110,80 111,20 112,20 113,229
114,279 115,119 116,99 117,20
118,20 119,40 120,30 121,139
122,60 123,30 124,20 125,30
126,50 127,10 128,20 129,20
130,20 131,99 132,50 133,20
134,109 135,70 136,449 137,289
138,30 141,70 142,239 143,60
144,80 145,30 146,20 147,20
152,10 153,10 154,30 155,10
157,10 158,30 159,30 160,90
161,80 162,60 163,20 169,109
170,319 171,119 172,50 173,20
174,10 182,10 186,20 187,229
188,149 189,99 190,80 191,20
197,50 198,199 199,80 200,70
201,10 202,10 213,10 214,10
215,279 216,239 217,40 218,10
219,10 220,10 225,20 226,80
227,60 228,139 229,20 231,10
239,20 240,10 243,279 244,499
245,80 246,10 255,179 256,769
257,129 258,20 270,10 271,139
272,9999 273,1579 274,249 275,30
##END=
