##TITLE=Naphthalic anhydride
##JCAMP-DX=4.24
##DATA TYPE=MASS SPECTRUM
##ORIGIN=Japan AIST/NIMC Database- Spectrum MS-NW- 628
##OWNER=NIST Mass Spectrometry Data Center
Collection (C) 2014 copyright by the U.S. Secretary of Commerce
on behalf of the United States of America. All rights reserved.
##CAS REGISTRY NO=81-84-5
##$NIST MASS SPEC NO=229358
##MOLFORM=C12 H6 O3
##MW=198
##$NIST SOURCE=MSDC
##XUNITS=M/Z
##YUNITS=RELATIVE INTENSITY
##XFACTOR=1
##YFACTOR=1
##FIRSTX=16
##LASTX=200
##FIRSTY=10
##MAXX=200
##MINX=16
##MAXY=9999
##MINY=10
##NPOINTS=100
##PEAK TABLE=(XY..XY)
16,10 18,10 26,50 27,50
28,119 29,20 36,10 37,119
38,119 39,239 40,10 41,40
42,10 43,40 44,90 45,20
48,10 49,109 50,799 51,279
52,129 53,20 55,40 56,20
57,50 60,30 61,319 62,419
63,1619 64,50 65,10 67,20
69,30 70,10 71,20 72,10
73,109 74,1119 75,679 76,1069
77,599 78,10 79,10 81,10
82,10 83,20 84,30 85,109
86,269 87,519 88,109 89,10
92,20 95,10 96,10 97,50
98,449 99,419 100,429 101,50
102,10 103,20 104,40 105,10
109,10 110,20 111,40 112,10
113,80 114,109 115,10 116,10
120,20 121,30 122,80 123,30
124,20 125,339 126,7799 127,889
128,50 129,10 142,20 144,40
148,60 149,30 150,10 151,10
152,10 153,80 154,9999 155,1219
156,90 160,10 170,50 171,10
197,10 198,5989 199,789 200,90
##END=
