##TITLE=Benzenemethanol, 2-[bis(4-hydroxyphenyl)methyl]-
##JCAMP-DX=4.24
##DATA TYPE=MASS SPECTRUM
##ORIGIN=Japan AIST/NIMC Database- Spectrum MS-NW-5564
##OWNER=NIST Mass Spectrometry Data Center
Collection (C) 2014 copyright by the U.S. Secretary of Commerce
on behalf of the United States of America. All rights reserved.
##CAS REGISTRY NO=81-92-5
##$NIST MASS SPEC NO=232957
##MOLFORM=C20 H18 O3
##MW=306
##$NIST SOURCE=MSDC
##XUNITS=M/Z
##YUNITS=RELATIVE INTENSITY
##XFACTOR=1
##YFACTOR=1
##FIRSTX=15
##LASTX=307
##FIRSTY=10
##MAXX=307
##MINX=15
##MAXY=9999
##MINY=10
##NPOINTS=247
##PEAK TABLE=(XY..XY)
15,10 17,10 18,30 26,10
27,249 28,50 29,139 30,10
31,139 37,10 38,80 39,699
40,90 41,80 42,20 43,109
44,10 50,129 51,429 52,119
53,159 54,10 55,639 56,20
57,20 61,10 62,109 63,389
64,119 65,749 66,169 67,30
68,20 69,30 70,10 71,10
74,90 75,179 76,169 77,719
78,169 79,109 80,10 81,80
82,40 83,20 84,20 86,50
87,90 88,119 89,319 90,239
91,1009 92,90 93,119 94,319
95,70 96,10 97,30 98,30
99,50 100,60 101,219 102,119
103,99 104,20 105,99 106,80
107,549 108,80 109,60 110,20
111,20 112,30 113,229 114,90
115,649 116,139 117,30 118,169
119,259 120,129 121,219 122,109
123,30 124,10 125,70 126,189
127,329 128,399 129,159 130,50
131,219 132,30 133,20 134,119
135,60 136,30 137,30 138,30
139,319 140,90 141,309 142,90
143,80 144,179 145,30 146,10
147,10 149,20 150,99 151,329
152,1059 153,579 154,139 155,179
156,40 157,80 158,20 159,10
161,20 162,30 163,159 164,159
165,1799 166,569 167,639 168,229
169,239 170,99 171,40 172,10
173,10 174,20 175,30 176,159
177,439 178,419 179,99 180,40
181,999 182,319 183,189 184,50
185,10 186,20 187,60 188,50
189,279 190,99 191,60 192,30
193,239 194,9999 195,6739 196,959
197,339 198,119 199,579 200,149
201,90 202,399 203,189 204,40
205,50 206,10 207,50 208,20
209,60 210,509 211,1799 212,329
213,179 214,70 215,419 216,169
217,80 218,159 219,80 220,30
221,10 222,10 223,10 224,30
225,40 226,289 227,199 228,169
229,129 230,50 231,539 232,189
233,109 234,30 235,20 236,10
237,20 238,20 239,289 240,159
241,289 242,139 243,119 244,469
245,299 246,60 247,60 248,20
249,10 250,40 251,109 252,149
253,159 254,50 255,159 256,109
257,359 258,199 259,389 260,119
261,30 262,10 267,20 268,189
269,459 270,279 271,1699 272,389
273,299 274,80 275,70 276,30
283,10 284,40 285,99 286,279
287,3239 288,7909 289,1709 290,239
291,30 302,10 303,20 304,129
305,40 306,70 307,20
##END=
