##TITLE=Ethane, 1,1,2-trichloro-1-fluoro-
##JCAMP-DX=4.24
##DATA TYPE=MASS SPECTRUM
##ORIGIN=T.J. Bruno, Cent. Chem. Technol., NIST, Boulder, CO 80303, USA
##OWNER=NIST Mass Spectrometry Data Center
Collection (C) 2014 copyright by the U.S. Secretary of Commerce
on behalf of the United States of America. All rights reserved.
##CAS REGISTRY NO=811-95-0
##$NIST MASS SPEC NO=142367
##MOLFORM=C2 H2 Cl3 F
##MW=150
##$NIST SOURCE=MSDC
##XUNITS=M/Z
##YUNITS=RELATIVE INTENSITY
##XFACTOR=1
##YFACTOR=1
##FIRSTX=19
##LASTX=153
##FIRSTY=72
##MAXX=153
##MINX=19
##MAXY=9999
##MINY=72
##NPOINTS=38
##PEAK TABLE=(XY..XY)
19,72 24,415 31,1922 35,1619
36,86 37,520 43,560 47,3219
49,994 59,671 61,250 66,349
68,158 78,2653 79,86 80,935
82,1560 84,902 85,244 86,197
87,92 94,481 95,329 101,79
102,178 113,6972 115,4779 116,191
117,1099 119,494 131,125 133,211
148,9999 149,197 150,9730 151,290
152,2969 153,112
##END=
