##TITLE=Chloro(dimethyl)phosphine
##JCAMP-DX=4.24
##DATA TYPE=MASS SPECTRUM
##ORIGIN=NIST Mass Spectrometry Data Center, 1994
##OWNER=NIST Mass Spectrometry Data Center
Collection (C) 2014 copyright by the U.S. Secretary of Commerce
on behalf of the United States of America. All rights reserved.
##CAS REGISTRY NO=811-62-1
##$NIST MASS SPEC NO=133324
##MOLFORM=C2 H6 Cl P
##MW=96
##$NIST SOURCE=MSDC
##XUNITS=M/Z
##YUNITS=RELATIVE INTENSITY
##XFACTOR=1
##YFACTOR=1
##FIRSTX=12
##LASTX=99
##FIRSTY=266
##MAXX=99
##MINX=12
##MAXY=9999
##MINY=15
##NPOINTS=44
##PEAK TABLE=(XY..XY)
12,266 13,616 14,1558 15,3352
16,20 24,15 25,54 26,242
27,915 29,30 31,572 33,180
34,151 35,544 36,189 37,172
38,54 44,3999 45,9999 46,841
47,75 48,36 49,73 51,22
55,402 56,1234 57,3299 58,1315
59,3539 60,22 61,4396 62,80
66,781 67,569 68,259 69,191
78,101 79,312 81,9157 83,3107
93,24 96,7888 98,2468 99,78
##END=
