##TITLE=Pentanoic acid, undecyl ester
##JCAMP-DX=4.24
##DATA TYPE=MASS SPECTRUM
##ORIGIN=Zaikin V.G., TIPS RAS, Moscow, Russia
##OWNER=NIST Mass Spectrometry Data Center
Collection (C) 2014 copyright by the U.S. Secretary of Commerce
on behalf of the United States of America. All rights reserved.
##CAS REGISTRY NO=81186-23-4
##$NIST MASS SPEC NO=282862
##MOLFORM=C16 H32 O2
##MW=256
##$NIST SOURCE=MSDC
##XUNITS=M/Z
##YUNITS=RELATIVE INTENSITY
##XFACTOR=1
##YFACTOR=1
##FIRSTX=26
##LASTX=227
##FIRSTY=80
##MAXX=227
##MINX=26
##MAXY=9999
##MINY=10
##NPOINTS=106
##PEAK TABLE=(XY..XY)
26,80 27,200 28,10 29,500
36,90 38,30 39,230 40,100
41,1251 42,400 43,1361 44,120
45,40 51,30 52,40 53,110
54,240 55,1772 56,1501 57,3363
58,200 59,50 60,350 61,310
65,30 66,30 67,380 68,561
69,1842 70,1902 71,1031 72,60
73,480 74,40 75,110 77,50
78,30 79,130 80,30 81,250
82,891 83,2122 84,1692 85,4754
86,340 87,120 91,80 92,50
93,100 95,180 96,470 97,2312
98,1071 99,200 100,70 101,160
102,581 103,9999 104,561 105,120
106,30 107,30 109,90 110,210
111,1321 112,691 113,150 115,100
116,370 117,50 119,50 123,50
124,110 125,671 126,1351 127,180
129,100 130,50 133,30 134,30
135,370 136,50 137,30 139,30
140,40 141,30 143,100 147,40
148,30 149,130 151,30 152,50
153,30 154,2122 155,310 156,30
158,120 169,70 171,60 184,30
193,40 197,40 199,320 200,50
214,50 227,30
##END=
