##TITLE=2,4-Difluorophenylacetic acid
##JCAMP-DX=4.24
##DATA TYPE=MASS SPECTRUM
##ORIGIN=NIST Mass Spectrometry Data Center
##OWNER=NIST Mass Spectrometry Data Center
Collection (C) 2014 copyright by the U.S. Secretary of Commerce
on behalf of the United States of America. All rights reserved.
##CAS REGISTRY NO=81228-09-3
##$NIST MASS SPEC NO=342879
##MOLFORM=C8 H6 F2 O2
##MW=172
##$NIST SOURCE=MSDC
##XUNITS=M/Z
##YUNITS=RELATIVE INTENSITY
##XFACTOR=1
##YFACTOR=1
##FIRSTX=12
##LASTX=173
##FIRSTY=50
##MAXX=173
##MINX=12
##MAXY=9999
##MINY=20
##NPOINTS=59
##PEAK TABLE=(XY..XY)
12,50 15,50 18,20 26,60
29,140 31,260 33,40 37,50
38,120 39,160 44,50 45,550
49,70 50,290 51,420 53,40
55,30 56,110 57,520 61,130
62,220 63,300 64,70 68,80
69,80 70,60 73,50 74,160
75,571 76,130 77,380 78,40
79,30 80,90 81,350 82,50
83,90 85,70 86,50 87,40
88,50 89,40 93,40 95,100
96,80 99,150 101,1131 102,60
105,90 107,691 108,420 115,40
125,440 127,9999 128,941 129,60
154,40 172,2442 173,210
##END=
