##TITLE=Propanoic acid, pentachloro-, methyl ester
##JCAMP-DX=4.24
##DATA TYPE=MASS SPECTRUM
##ORIGIN=ASES Database, Dalian Institute, P.R. China
##OWNER=NIST Mass Spectrometry Data Center
Collection (C) 2014 copyright by the U.S. Secretary of Commerce
on behalf of the United States of America. All rights reserved.
##CAS REGISTRY NO=813-46-7
##$NIST MASS SPEC NO=143997
##MOLFORM=C4 H3 Cl5 O2
##MW=258
##$NIST SOURCE=MSDC
##XUNITS=M/Z
##YUNITS=RELATIVE INTENSITY
##XFACTOR=1
##YFACTOR=1
##FIRSTX=59
##LASTX=205
##FIRSTY=9999
##MAXX=205
##MINX=59
##MAXY=9999
##MINY=220
##NPOINTS=30
##PEAK TABLE=(XY..XY)
59,9999 60,220 61,230 63,380
65,230 94,840 96,540 117,1761
119,1761 121,620 129,770 131,920
133,530 141,220 143,220 153,1141
155,760 157,1541 159,1551 161,450
164,3863 166,4854 168,2312 170,610
188,540 190,540 199,620 201,1070
203,760 205,230
##END=
