##TITLE=Phosphoramidous difluoride, dimethyl-
##JCAMP-DX=4.24
##DATA TYPE=MASS SPECTRUM
##ORIGIN=K.COHN, MICHIGAN STATE UNIV., E. LANSING, MICHIGAN, USA
##OWNER=NIST Mass Spectrometry Data Center
Collection (C) 2014 copyright by the U.S. Secretary of Commerce
on behalf of the United States of America. All rights reserved.
##CAS REGISTRY NO=814-97-1
##$NIST MASS SPEC NO=1734
##MOLFORM=C2 H6 F2 N P
##MW=113
##$NIST SOURCE=MSDC
##XUNITS=M/Z
##YUNITS=RELATIVE INTENSITY
##XFACTOR=1
##YFACTOR=1
##FIRSTX=15
##LASTX=113
##FIRSTY=3240
##MAXX=113
##MINX=15
##MAXY=9999
##MINY=110
##NPOINTS=18
##PEAK TABLE=(XY..XY)
15,3240 27,250 28,110 30,380
31,200 40,450 41,560 42,9999
43,1020 44,400 50,640 51,350
65,200 69,2910 78,320 94,1220
112,5410 113,5410
##END=
