##TITLE=3-Buten-2-one, 3-methyl-
##JCAMP-DX=4.24
##DATA TYPE=MASS SPECTRUM
##OWNER=NIST Mass Spectrometry Data Center
Collection (C) 2014 copyright by the U.S. Secretary of Commerce
on behalf of the United States of America. All rights reserved.
##CAS REGISTRY NO=814-78-8
##$NIST MASS SPEC NO=513
##MOLFORM=C5 H8 O
##MW=84
##$NIST SOURCE=MSDC
##XUNITS=M/Z
##YUNITS=RELATIVE INTENSITY
##XFACTOR=1
##YFACTOR=1
##FIRSTX=12
##LASTX=86
##FIRSTY=100
##MAXX=86
##MINX=12
##MAXY=9999
##MINY=10
##NPOINTS=61
##PEAK TABLE=(XY..XY)
12,100 13,220 14,741 15,2783
16,50 17,40 18,50 19,10
24,20 25,90 26,450 27,961
28,250 29,370 30,10 31,70
32,10 35,10 36,70 37,581
38,1001 39,4844 40,591 41,9789
42,1481 43,9999 44,350 45,120
46,10 48,20 49,100 50,270
51,190 52,50 53,200 54,40
55,561 56,80 57,100 58,20
59,10 60,20 61,50 62,50
63,40 64,10 65,40 66,20
67,30 68,40 69,3373 70,150
71,10 77,10 79,10 81,20
82,10 83,30 84,3473 85,210
86,10
##END=
