##TITLE=2-Butanone, 3-bromo-
##JCAMP-DX=4.24
##DATA TYPE=MASS SPECTRUM
##ORIGIN=Japan AIST/NIMC Database- Spectrum MS-IW-3845
##OWNER=NIST Mass Spectrometry Data Center
Collection (C) 2014 copyright by the U.S. Secretary of Commerce
on behalf of the United States of America. All rights reserved.
##CAS REGISTRY NO=814-75-5
##$NIST MASS SPEC NO=236468
##MOLFORM=C4 H7 Br O
##MW=150
##$NIST SOURCE=MSDC
##XUNITS=M/Z
##YUNITS=RELATIVE INTENSITY
##XFACTOR=1
##YFACTOR=1
##FIRSTX=13
##LASTX=153
##FIRSTY=10
##MAXX=153
##MINX=13
##MAXY=9999
##MINY=10
##NPOINTS=57
##PEAK TABLE=(XY..XY)
13,10 14,80 15,259 16,20
17,10 18,40 25,40 26,319
27,1239 28,179 29,149 31,10
36,10 37,50 38,70 39,199
40,40 41,259 42,669 43,9999
44,409 45,60 49,30 50,80
51,50 52,20 53,80 54,30
55,179 56,209 57,129 70,10
71,40 79,119 80,90 81,119
82,90 91,30 92,30 93,60
94,30 95,40 104,10 105,20
106,40 107,649 108,50 109,599
110,10 121,10 123,10 135,10
137,10 150,1469 151,70 152,1439
153,70
##END=
