##TITLE=1,2-Propanedithiol
##JCAMP-DX=4.24
##DATA TYPE=MASS SPECTRUM
##ORIGIN=Japan AIST/NIMC Database- Spectrum MS-NW-3794
##OWNER=NIST Mass Spectrometry Data Center
Collection (C) 2014 copyright by the U.S. Secretary of Commerce
on behalf of the United States of America. All rights reserved.
##CAS REGISTRY NO=814-67-5
##$NIST MASS SPEC NO=234100
##MOLFORM=C3 H8 S2
##MW=108
##$NIST SOURCE=MSDC
##XUNITS=M/Z
##YUNITS=RELATIVE INTENSITY
##XFACTOR=1
##YFACTOR=1
##FIRSTX=14
##LASTX=112
##FIRSTY=30
##MAXX=112
##MINX=14
##MAXY=9999
##MINY=10
##NPOINTS=70
##PEAK TABLE=(XY..XY)
14,30 15,159 25,20 26,179
27,1309 28,70 29,139 32,329
33,419 34,729 35,1239 36,50
37,199 38,269 39,2269 40,339
41,8039 42,749 43,159 44,199
45,2409 46,859 47,3939 48,199
49,239 50,10 51,20 55,30
56,20 57,179 58,579 59,2049
60,2649 61,9999 62,419 63,479
64,99 65,50 66,90 67,10
68,40 69,139 70,20 71,199
72,40 73,459 74,5059 75,2149
76,329 77,199 78,30 79,90
81,20 88,10 89,40 90,20
91,10 92,20 93,70 94,10
103,80 104,20 105,10 106,40
107,30 108,4569 109,249 110,439
111,20 112,10
##END=
