##TITLE=2-(4-Methylphenylthio)phenyl isothiocyanate
##JCAMP-DX=4.24
##DATA TYPE=MASS SPECTRUM
##ORIGIN=NIST Mass Spectrometry Data Center, 1994
##OWNER=NIST Mass Spectrometry Data Center
Collection (C) 2014 copyright by the U.S. Secretary of Commerce
on behalf of the United States of America. All rights reserved.
##CAS REGISTRY NO=81431-97-2
##$NIST MASS SPEC NO=135068
##MOLFORM=C14 H11 N S2
##MW=257
##$NIST SOURCE=MSDC
##XUNITS=M/Z
##YUNITS=RELATIVE INTENSITY
##XFACTOR=1
##YFACTOR=1
##FIRSTX=4
##LASTX=261
##FIRSTY=2
##MAXX=261
##MINX=4
##MAXY=9999
##MINY=2
##NPOINTS=157
##PEAK TABLE=(XY..XY)
4,2 17,27 18,23 26,13
27,62 28,71 32,28 37,23
38,77 39,527 40,46 41,93
44,33 45,366 47,22 50,205
51,266 52,72 53,64 57,28
58,68 59,32 61,28 62,129
63,443 64,175 65,602 66,51
69,376 70,79 71,58 72,21
73,16 74,82 75,138 76,128
77,377 78,172 79,174 80,19
81,43 82,125 83,52 84,45
85,51 87,30 88,30 89,259
90,286 91,1490 92,176 93,63
94,31 95,91 96,77 97,85
99,272 101,16 102,105 103,22
104,17 105,25 106,30 107,87
108,356 109,72 110,28 111,46
113,23 114,42 115,85 116,25
117,15 121,315 122,269 123,200
124,27 126,30 128,270 133,43
134,54 135,38 136,17 138,22
139,160 140,75 141,30 146,16
147,14 148,23 150,11 151,53
152,213 153,106 154,29 158,25
159,23 163,30 164,57 165,350
166,157 167,57 168,17 169,15
170,19 171,73 172,30 173,26
174,16 177,41 178,70 179,56
180,140 181,25 182,23 183,75
184,825 185,147 186,60 190,113
191,117 192,336 193,269 194,44
195,67 196,73 197,425 198,274
199,274 200,79 201,22 207,11
208,55 209,175 210,66 211,44
212,95 213,35 215,18 222,240
223,504 224,1430 225,418 226,139
227,29 240,17 241,169 242,196
243,34 244,16 254,52 256,5315
257,9999 258,2128 259,988 260,160
261,30
##END=
