##TITLE=2,4-Pentanedione, 3-acetyl-
##JCAMP-DX=4.24
##DATA TYPE=MASS SPECTRUM
##ORIGIN=Japan AIST/NIMC Database- Spectrum MS-NW-5571
##OWNER=NIST Mass Spectrometry Data Center
Collection (C) 2014 copyright by the U.S. Secretary of Commerce
on behalf of the United States of America. All rights reserved.
##CAS REGISTRY NO=815-68-9
##$NIST MASS SPEC NO=235618
##MOLFORM=C7 H10 O3
##MW=142
##$NIST SOURCE=MSDC
##XUNITS=M/Z
##YUNITS=RELATIVE INTENSITY
##XFACTOR=1
##YFACTOR=1
##FIRSTX=12
##LASTX=143
##FIRSTY=10
##MAXX=143
##MINX=12
##MAXY=9999
##MINY=10
##NPOINTS=71
##PEAK TABLE=(XY..XY)
12,10 13,40 14,189 15,989
16,50 25,20 26,109 27,339
28,279 29,269 30,10 31,159
32,10 37,50 38,90 39,269
40,40 41,229 42,489 43,9999
44,249 45,839 46,10 49,10
50,30 51,30 52,10 53,60
54,10 55,99 56,10 57,40
58,199 59,10 60,639 61,20
62,10 63,20 65,10 66,30
67,439 68,20 69,119 70,10
71,20 72,219 73,10 74,30
81,10 82,179 83,60 84,40
85,3959 86,189 87,20 95,10
96,20 99,40 100,1619 101,109
102,10 109,60 114,10 123,10
124,129 125,20 127,849 128,60
141,30 142,699 143,60
##END=
