##TITLE=1,2,4,5,7-Pentathiocane
##JCAMP-DX=4.24
##DATA TYPE=MASS SPECTRUM
##ORIGIN=PYTCAS 20(11) 2521(1981); R GMELIN ET AL
##OWNER=NIST Mass Spectrometry Data Center
Collection (C) 2014 copyright by the U.S. Secretary of Commerce
on behalf of the United States of America. All rights reserved.
##CAS REGISTRY NO=81531-39-7
##$NIST MASS SPEC NO=77895
##MOLFORM=C3 H6 S5
##MW=202
##$NIST SOURCE=MSDC
##XUNITS=M/Z
##YUNITS=RELATIVE INTENSITY
##XFACTOR=1
##YFACTOR=1
##FIRSTX=45
##LASTX=202
##FIRSTY=5400
##MAXX=202
##MINX=45
##MAXY=9999
##MINY=40
##NPOINTS=12
##PEAK TABLE=(XY..XY)
45,5400 46,3300 59,1100 60,3500
64,600 78,9999 110,100 124,7200
137,700 156,100 170,8600 202,40
##END=
