##TITLE=aS-Triazino[6,5-c]quinoline, 2-methylamino-
##JCAMP-DX=4.24
##DATA TYPE=MASS SPECTRUM
##ORIGIN=ASES Database, Dalian Institute, P.R. China
##OWNER=NIST Mass Spectrometry Data Center
Collection (C) 2014 copyright by the U.S. Secretary of Commerce
on behalf of the United States of America. All rights reserved.
##CAS REGISTRY NO=81547-13-9
##$NIST MASS SPEC NO=147722
##MOLFORM=C11 H9 N5
##MW=211
##$NIST SOURCE=MSDC
##XUNITS=M/Z
##YUNITS=RELATIVE INTENSITY
##XFACTOR=1
##YFACTOR=1
##FIRSTX=41
##LASTX=213
##FIRSTY=250
##MAXX=213
##MINX=41
##MAXY=9999
##MINY=20
##NPOINTS=46
##PEAK TABLE=(XY..XY)
41,250 42,270 43,300 45,830
50,1251 51,770 52,520 54,310
55,990 57,350 62,530 63,780
64,480 66,330 74,1090 75,910
76,1431 77,480 87,400 88,470
99,370 100,1361 101,590 102,700
103,300 114,1050 115,420 126,170
127,2552 128,490 129,600 140,20
141,1621 142,400 154,160 155,700
156,420 167,320 168,1000 181,390
182,4734 183,5364 184,670 211,9999
212,1401 213,290
##END=
