##TITLE=2-Chlorobenzoic acid, nonyl ester
##JCAMP-DX=4.24
##DATA TYPE=MASS SPECTRUM
##ORIGIN=Zaikin V.G., TIPS RAS, Moscow, Russia
##OWNER=NIST Mass Spectrometry Data Center
Collection (C) 2014 copyright by the U.S. Secretary of Commerce
on behalf of the United States of America. All rights reserved.
##CAS REGISTRY NO=81542-10-1
##$NIST MASS SPEC NO=292276
##MOLFORM=C16 H23 Cl O2
##MW=282
##$NIST SOURCE=MSDC
##XUNITS=M/Z
##YUNITS=RELATIVE INTENSITY
##XFACTOR=1
##YFACTOR=1
##FIRSTX=27
##LASTX=282
##FIRSTY=30
##MAXX=282
##MINX=27
##MAXY=9999
##MINY=20
##NPOINTS=54
##PEAK TABLE=(XY..XY)
27,30 28,20 29,60 36,50
39,60 41,290 42,110 43,300
44,50 50,60 51,40 53,30
54,70 55,500 56,530 57,190
67,90 68,120 69,480 70,561
71,100 74,40 75,380 76,160
77,170 81,30 82,110 83,390
84,400 85,100 96,50 97,450
98,320 104,90 105,90 110,40
111,1291 112,160 113,490 114,40
121,40 126,330 127,30 139,6336
140,540 141,2062 142,170 156,2672
157,9999 158,1631 159,3133 160,250
161,30 282,60
##END=
