##TITLE=aS-Triazino[6,5-c]quinoline, 2-dimethylamino-
##JCAMP-DX=4.24
##DATA TYPE=MASS SPECTRUM
##ORIGIN=ASES Database, Dalian Institute, P.R. China
##OWNER=NIST Mass Spectrometry Data Center
Collection (C) 2014 copyright by the U.S. Secretary of Commerce
on behalf of the United States of America. All rights reserved.
##CAS REGISTRY NO=81547-14-0
##$NIST MASS SPEC NO=147910
##MOLFORM=C12 H11 N5
##MW=225
##$NIST SOURCE=MSDC
##XUNITS=M/Z
##YUNITS=RELATIVE INTENSITY
##XFACTOR=1
##YFACTOR=1
##FIRSTX=42
##LASTX=227
##FIRSTY=950
##MAXX=227
##MINX=42
##MAXY=9999
##MINY=30
##NPOINTS=50
##PEAK TABLE=(XY..XY)
42,950 44,310 45,480 50,580
51,490 52,170 55,120 62,160
63,390 68,390 69,1010 74,570
75,590 76,720 77,300 87,220
88,300 99,1801 100,930 101,320
102,360 103,160 112,30 113,670
114,130 126,230 127,910 128,270
129,160 140,130 141,660 142,90
153,200 154,320 155,530 167,1040
168,320 169,260 170,1020 171,230
181,400 182,4624 183,630 196,1691
197,5875 198,800 224,60 225,9999
226,1381 227,100
##END=
