##TITLE=2-Butanone, 1-bromo-
##JCAMP-DX=4.24
##DATA TYPE=MASS SPECTRUM
##ORIGIN=J.E. WILKINSON S-CUBED, SAN DIEGO, CA.
##OWNER=NIST Mass Spectrometry Data Center
Collection (C) 2014 copyright by the U.S. Secretary of Commerce
on behalf of the United States of America. All rights reserved.
##CAS REGISTRY NO=816-40-0
##$NIST MASS SPEC NO=92487
##MOLFORM=C4 H7 Br O
##MW=150
##$NIST SOURCE=MSDC
##XUNITS=M/Z
##YUNITS=RELATIVE INTENSITY
##XFACTOR=1
##YFACTOR=1
##FIRSTX=41
##LASTX=153
##FIRSTY=582
##MAXX=153
##MINX=41
##MAXY=9999
##MINY=1
##NPOINTS=35
##PEAK TABLE=(XY..XY)
41,582 42,2397 43,425 44,7
49,29 50,79 51,44 52,4
53,122 54,3 55,79 56,392
57,9999 58,287 59,8 71,1
79,88 80,16 81,85 82,12
91,21 92,66 93,627 94,105
95,586 96,26 107,3 120,42
121,482 122,40 123,475 150,553
151,21 152,527 153,17
##END=
