##TITLE=3-Decen-1-ol, acetate, (Z)-
##JCAMP-DX=4.24
##DATA TYPE=MASS SPECTRUM
##ORIGIN=NIST Mass Spectrometry Data Center, 1998.
##OWNER=NIST Mass Spectrometry Data Center
Collection (C) 2014 copyright by the U.S. Secretary of Commerce
on behalf of the United States of America. All rights reserved.
##CAS REGISTRY NO=81634-99-3
##$NIST MASS SPEC NO=291617
##MOLFORM=C12 H22 O2
##MW=198
##$NIST SOURCE=MSDC
##XUNITS=M/Z
##YUNITS=RELATIVE INTENSITY
##XFACTOR=1
##YFACTOR=1
##FIRSTX=14
##LASTX=140
##FIRSTY=10
##MAXX=140
##MINX=14
##MAXY=9999
##MINY=10
##NPOINTS=71
##PEAK TABLE=(XY..XY)
14,10 15,120 26,30 27,610
28,130 29,880 30,30 31,40
38,30 39,1080 40,210 41,2710
42,670 43,9999 44,250 45,40
50,30 51,120 52,90 53,790
54,6699 55,3170 56,620 57,230
58,30 60,10 61,80 63,20
65,310 66,460 67,4580 68,4010
69,990 70,160 71,120 72,10
73,360 74,20 77,190 78,40
79,670 80,300 81,3530 82,2180
83,680 84,160 85,20 86,10
91,70 92,10 93,80 94,50
95,1560 96,2350 97,360 98,30
99,10 105,10 107,20 108,20
109,1100 110,1910 111,170 112,10
123,70 124,10 125,10 137,10
138,1820 139,200 140,10
##END=
