##TITLE=Acetic acid, ethoxy-, ethyl ester
##JCAMP-DX=4.24
##DATA TYPE=MASS SPECTRUM
##ORIGIN=NIST Mass Spectrometry Data Center, 1994
##OWNER=NIST Mass Spectrometry Data Center
Collection (C) 2014 copyright by the U.S. Secretary of Commerce
on behalf of the United States of America. All rights reserved.
##CAS REGISTRY NO=817-95-8
##$NIST MASS SPEC NO=135182
##MOLFORM=C6 H12 O3
##MW=132
##$NIST SOURCE=MSDC
##XUNITS=M/Z
##YUNITS=RELATIVE INTENSITY
##XFACTOR=1
##YFACTOR=1
##FIRSTX=12
##LASTX=103
##FIRSTY=45
##MAXX=103
##MINX=12
##MAXY=9999
##MINY=14
##NPOINTS=36
##PEAK TABLE=(XY..XY)
12,45 13,62 14,439 15,1119
16,85 18,14 19,115 26,862
27,4225 28,1318 29,8285 30,14
31,9999 32,152 37,53 41,1125
42,1785 43,1051 44,445 45,1379
46,71 47,90 56,54 57,117
59,7730 60,2152 61,1849 62,62
70,1021 71,52 73,141 74,50
75,118 88,2994 89,357 103,289
##END=
