##TITLE=1-Heptanol, 4-methyl-
##JCAMP-DX=4.24
##DATA TYPE=MASS SPECTRUM
##ORIGIN=NIST Mass Spectrometry Data Center, 1990.
##OWNER=NIST Mass Spectrometry Data Center
Collection (C) 2014 copyright by the U.S. Secretary of Commerce
on behalf of the United States of America. All rights reserved.
##CAS REGISTRY NO=817-91-4
##$NIST MASS SPEC NO=113768
##MOLFORM=C8 H18 O
##MW=130
##$NIST SOURCE=MSDC
##XUNITS=M/Z
##YUNITS=RELATIVE INTENSITY
##XFACTOR=1
##YFACTOR=1
##FIRSTX=14
##LASTX=112
##FIRSTY=21
##MAXX=112
##MINX=14
##MAXY=9999
##MINY=21
##NPOINTS=42
##PEAK TABLE=(XY..XY)
14,21 15,245 18,161 26,271
27,3058 28,1246 29,3628 30,261
31,2563 32,98 38,201 39,2781
41,9999 42,3142 43,7793 44,565
45,509 50,78 51,200 52,133
53,764 54,78 55,6499 56,6898
57,1449 58,217 59,76 60,151
65,128 67,622 69,9190 70,5023
71,1457 81,130 82,322 83,1146
84,5943 85,568 87,207 95,118
97,371 112,163
##END=
