##TITLE=CH3CHClCH2C(O)OCH3
##JCAMP-DX=4.24
##DATA TYPE=MASS SPECTRUM
##ORIGIN=ASES Database, Dalian Institute, P.R. China
##OWNER=NIST Mass Spectrometry Data Center
Collection (C) 2014 copyright by the U.S. Secretary of Commerce
on behalf of the United States of America. All rights reserved.
##CAS REGISTRY NO=817-76-5
##$NIST MASS SPEC NO=145171
##MOLFORM=C5 H9 Cl O2
##MW=136
##$NIST SOURCE=MSDC
##XUNITS=M/Z
##YUNITS=RELATIVE INTENSITY
##XFACTOR=1
##YFACTOR=1
##FIRSTX=39
##LASTX=136
##FIRSTY=1161
##MAXX=136
##MINX=39
##MAXY=9999
##MINY=50
##NPOINTS=23
##PEAK TABLE=(XY..XY)
39,1161 41,3062 42,1651 43,1171
49,180 51,50 58,190 59,5524
60,180 61,120 63,740 65,180
69,860 77,2482 79,930 100,730
101,9999 102,620 105,2232 106,120
107,790 135,60 136,60
##END=
