##TITLE=2-Propenoic acid, 2-hydroxyethyl ester
##JCAMP-DX=4.24
##DATA TYPE=MASS SPECTRUM
##ORIGIN=Japan AIST/NIMC Database- Spectrum MS-NW- 794
##OWNER=NIST Mass Spectrometry Data Center
Collection (C) 2014 copyright by the U.S. Secretary of Commerce
on behalf of the United States of America. All rights reserved.
##CAS REGISTRY NO=818-61-1
##$NIST MASS SPEC NO=228027
##MOLFORM=C5 H8 O3
##MW=116
##$NIST SOURCE=MSDC
##XUNITS=M/Z
##YUNITS=RELATIVE INTENSITY
##XFACTOR=1
##YFACTOR=1
##FIRSTX=14
##LASTX=99
##FIRSTY=30
##MAXX=99
##MINX=14
##MAXY=9999
##MINY=10
##NPOINTS=44
##PEAK TABLE=(XY..XY)
14,30 15,99 17,20 18,80
25,50 26,379 27,2389 28,349
29,469 30,60 31,749 32,50
33,10 39,30 41,99 42,189
43,499 44,659 45,489 46,10
53,90 54,80 55,9999 56,389
57,129 58,479 59,20 60,10
61,50 68,40 69,20 70,50
71,30 72,70 73,1669 74,60
75,20 78,10 85,839 86,1339
87,109 88,10 98,20 99,60
##END=
