##TITLE=Butanoic acid, 1-methylpropyl ester
##JCAMP-DX=4.24
##DATA TYPE=MASS SPECTRUM
##ORIGIN=V.Zaikin,Topchiev Inst.Petrochem.Synth.,Moscow
##OWNER=NIST Mass Spectrometry Data Center
Collection (C) 2014 copyright by the U.S. Secretary of Commerce
on behalf of the United States of America. All rights reserved.
##CAS REGISTRY NO=819-97-6
##$NIST MASS SPEC NO=282595
##MOLFORM=C8 H16 O2
##MW=144
##$NIST SOURCE=MSDC
##XUNITS=M/Z
##YUNITS=RELATIVE INTENSITY
##XFACTOR=1
##YFACTOR=1
##FIRSTX=25
##LASTX=129
##FIRSTY=20
##MAXX=129
##MINX=25
##MAXY=9999
##MINY=10
##NPOINTS=43
##PEAK TABLE=(XY..XY)
25,20 26,200 27,1341 29,1491
30,20 31,60 35,10 36,20
37,30 38,90 39,821 40,130
41,2642 42,761 43,3924 44,220
45,250 53,90 55,320 56,2212
57,2813 58,120 59,40 60,751
61,20 69,20 70,30 71,9999
72,470 73,941 74,30 75,20
76,20 85,20 87,30 88,881
89,2242 90,100 100,10 101,20
115,611 116,80 129,120
##END=
