##TITLE=Benzyl 2,2,2-trichloroacetimidate
##JCAMP-DX=4.24
##DATA TYPE=MASS SPECTRUM
##ORIGIN=NIST Mass Spectrometry Data Center
##OWNER=NIST Mass Spectrometry Data Center
Collection (C) 2014 copyright by the U.S. Secretary of Commerce
on behalf of the United States of America. All rights reserved.
##CAS REGISTRY NO=81927-55-1
##$NIST MASS SPEC NO=343174
##MOLFORM=C9 H8 Cl3 N O
##MW=251
##$NIST SOURCE=MSDC
##XUNITS=M/Z
##YUNITS=RELATIVE INTENSITY
##XFACTOR=1
##YFACTOR=1
##FIRSTX=12
##LASTX=255
##FIRSTY=30
##MAXX=255
##MINX=12
##MAXY=9999
##MINY=10
##NPOINTS=118
##PEAK TABLE=(XY..XY)
12,30 14,10 15,20 16,10
18,20 25,10 26,80 27,310
28,140 29,150 30,20 31,20
35,130 36,110 37,110 38,300
39,1451 40,110 41,310 42,30
43,180 44,150 45,30 47,480
48,40 49,190 50,561 51,1221
52,300 53,90 54,20 58,10
61,80 62,350 63,811 64,280
65,2312 66,140 67,20 73,70
74,140 75,160 76,120 77,981
78,210 79,931 80,60 82,601
83,100 84,390 85,70 86,100
87,30 89,921 90,1241 91,9999
92,771 93,30 99,10 100,10
101,10 102,10 103,10 104,50
105,180 106,931 107,1351 108,210
109,170 110,220 111,120 112,140
113,30 114,20 117,390 119,320
121,100 123,20 125,761 126,90
127,270 128,30 132,80 134,4064
135,360 136,20 137,10 145,691
147,621 149,200 150,10 151,80
152,40 153,20 154,10 159,20
161,10 162,30 164,10 173,30
175,20 179,10 180,80 181,10
182,30 186,120 187,20 188,90
189,10 190,10 216,30 217,10
218,20 251,120 252,10 253,110
254,10 255,40
##END=
