##TITLE=4,7-Methanobenzofuran, 2,2'-oxybis[octahydro-7,8,8-trimethyl-, [2.alpha.(2'R*,3'aS*,4'R*,7'R*,7'aS*),3a.alpha.,4.alpha.,7.alpha.,7a.alpha.]-
##JCAMP-DX=4.24
##DATA TYPE=MASS SPECTRUM
##ORIGIN=NIST Mass Spectrometry Data Center, 1994
##OWNER=NIST Mass Spectrometry Data Center
Collection (C) 2014 copyright by the U.S. Secretary of Commerce
on behalf of the United States of America. All rights reserved.
##CAS REGISTRY NO=81955-10-4
##$NIST MASS SPEC NO=136192
##MOLFORM=C24 H38 O3
##MW=374
##$NIST SOURCE=MSDC
##XUNITS=M/Z
##YUNITS=RELATIVE INTENSITY
##XFACTOR=1
##YFACTOR=1
##FIRSTX=7
##LASTX=179
##FIRSTY=29
##MAXX=179
##MINX=7
##MAXY=9999
##MINY=13
##NPOINTS=92
##PEAK TABLE=(XY..XY)
7,29 15,183 18,13 26,58
27,1415 28,80 29,1279 30,33
37,40 39,2906 40,624 41,4224
42,319 43,655 44,44 50,195
51,683 52,283 53,1391 54,187
55,1285 56,98 57,224 58,31
62,54 63,247 64,63 65,853
66,389 67,2005 68,551 69,1785
70,107 71,70 75,46 77,1361
78,356 79,1593 80,409 81,1859
82,252 83,275 84,75 89,62
91,1492 92,272 93,1391 94,668
95,9999 96,3292 97,303 98,140
99,66 102,44 103,192 104,67
105,519 106,155 107,1144 108,2296
109,1191 110,414 111,45 112,74
115,207 116,81 117,380 118,135
119,583 120,159 121,817 122,468
123,98 128,44 129,48 130,54
131,77 133,80 134,343 135,643
136,121 137,34 145,438 146,58
147,67 149,111 150,69 160,40
163,628 164,63 178,1849 179,219
##END=
