##TITLE=7H-Benz[de]anthracen-7-one
##JCAMP-DX=4.24
##DATA TYPE=MASS SPECTRUM
##ORIGIN=Japan AIST/NIMC Database- Spectrum MS-NW-2930
##OWNER=NIST Mass Spectrometry Data Center
Collection (C) 2014 copyright by the U.S. Secretary of Commerce
on behalf of the United States of America. All rights reserved.
##CAS REGISTRY NO=82-05-3
##$NIST MASS SPEC NO=231646
##MOLFORM=C17 H10 O
##MW=230
##$NIST SOURCE=MSDC
##XUNITS=M/Z
##YUNITS=RELATIVE INTENSITY
##XFACTOR=1
##YFACTOR=1
##FIRSTX=27
##LASTX=233
##FIRSTY=10
##MAXX=233
##MINX=27
##MAXY=9999
##MINY=10
##NPOINTS=73
##PEAK TABLE=(XY..XY)
27,10 28,10 38,10 39,50
44,10 50,60 51,60 61,20
62,60 63,80 67,20 73,10
74,139 75,179 76,50 77,20
85,20 86,60 87,249 88,479
89,10 91,10 92,10 93,10
98,80 99,129 100,679 101,1059
102,20 109,10 110,30 111,30
113,10 114,10 115,199 122,40
123,30 124,10 125,10 126,40
127,10 134,10 135,10 137,10
139,10 146,10 149,40 150,129
151,70 152,70 153,10 161,10
162,10 163,40 164,10 173,10
174,159 175,129 176,129 177,20
187,10 198,99 199,159 200,1029
201,819 202,3069 203,539 204,40
229,80 230,9999 231,1839 232,179
233,10
##END=
