##TITLE=1-(Methylamino)anthraquinone
##JCAMP-DX=4.24
##DATA TYPE=MASS SPECTRUM
##ORIGIN=Japan AIST/NIMC Database- Spectrum MS-NW-8136
##OWNER=NIST Mass Spectrometry Data Center
Collection (C) 2014 copyright by the U.S. Secretary of Commerce
on behalf of the United States of America. All rights reserved.
##CAS REGISTRY NO=82-38-2
##$NIST MASS SPEC NO=232854
##MOLFORM=C15 H11 N O2
##MW=237
##$NIST SOURCE=MSDC
##XUNITS=M/Z
##YUNITS=RELATIVE INTENSITY
##XFACTOR=1
##YFACTOR=1
##FIRSTX=15
##LASTX=240
##FIRSTY=20
##MAXX=240
##MINX=15
##MAXY=9999
##MINY=10
##NPOINTS=142
##PEAK TABLE=(XY..XY)
15,20 17,10 18,30 27,30
28,129 29,30 30,819 31,10
38,20 39,109 41,20 42,20
43,20 50,179 51,199 52,50
53,30 55,30 56,10 57,30
61,20 62,99 63,279 64,70
65,40 66,20 67,10 68,10
69,179 70,40 71,20 73,10
74,149 75,349 76,769 77,679
78,99 79,20 81,30 82,80
83,70 84,10 85,10 86,60
87,99 88,70 89,219 90,439
91,80 92,10 95,40 96,20
97,40 98,60 99,80 100,40
101,70 102,80 103,149 104,269
105,299 106,20 109,20 110,20
111,60 112,20 113,99 114,50
115,50 116,20 117,80 118,729
119,139 122,10 123,20 124,10
125,99 126,179 127,109 128,30
129,10 130,30 131,10 132,30
133,20 137,60 138,109 139,339
140,149 141,20 144,10 149,50
150,499 151,1079 152,1839 153,539
154,109 155,10 158,30 162,20
163,339 164,759 165,1119 166,219
167,40 168,30 176,10 177,40
178,80 179,169 180,1489 181,789
182,139 183,10 189,10 190,139
191,70 192,719 193,239 194,60
195,20 204,10 206,40 207,169
208,849 209,999 210,489 211,70
218,99 219,599 220,6699 221,1149
222,129 223,60 224,10 234,30
235,30 236,2869 237,9999 238,1669
239,169 240,10
##END=
