##TITLE=1-Nitroanthraquinone
##JCAMP-DX=4.24
##DATA TYPE=MASS SPECTRUM
##ORIGIN=Organic Synthesis Lab, MSU, Moscow.TRC 253
##OWNER=NIST Mass Spectrometry Data Center
Collection (C) 2014 copyright by the U.S. Secretary of Commerce
on behalf of the United States of America. All rights reserved.
##CAS REGISTRY NO=82-34-8
##$NIST MASS SPEC NO=326030
##MOLFORM=C14 H7 N O4
##MW=253
##$NIST SOURCE=MSDC
##XUNITS=M/Z
##YUNITS=RELATIVE INTENSITY
##XFACTOR=1
##YFACTOR=1
##FIRSTX=40
##LASTX=255
##FIRSTY=290
##MAXX=255
##MINX=40
##MAXY=9999
##MINY=40
##NPOINTS=105
##PEAK TABLE=(XY..XY)
40,290 44,220 46,70 50,290
51,190 53,70 55,80 57,70
61,70 62,170 63,200 64,50
65,50 67,50 69,110 70,50
71,40 73,190 74,1091 75,2162
76,1161 77,711 78,70 81,110
82,50 83,70 84,50 85,120
86,230 87,270 88,120 89,190
91,110 92,50 93,40 95,50
96,70 97,150 98,440 99,550
100,190 101,380 102,80 103,150
104,250 105,120 109,90 110,150
111,240 112,80 113,270 114,70
115,70 119,120 121,50 122,190
123,150 124,120 125,851 126,200
127,80 128,50 133,70 137,150
138,240 139,2692 140,440 141,150
146,40 149,701 150,5625 151,9999
152,1401 153,300 154,40 155,50
164,50 165,40 166,70 167,1271
168,230 169,160 178,150 179,1742
180,320 181,150 183,70 193,50
195,2462 196,370 197,150 206,841
207,2492 208,440 209,190 211,70
223,390 224,120 225,250 236,540
237,160 241,90 253,7146 254,1111
255,120
##END=
