##TITLE=9,10-Anthracenedione, 1-amino-
##JCAMP-DX=4.24
##DATA TYPE=MASS SPECTRUM
##ORIGIN=Japan AIST/NIMC Database- Spectrum MS-NW-5860
##OWNER=NIST Mass Spectrometry Data Center
Collection (C) 2014 copyright by the U.S. Secretary of Commerce
on behalf of the United States of America. All rights reserved.
##CAS REGISTRY NO=82-45-1
##$NIST MASS SPEC NO=232757
##MOLFORM=C14 H9 N O2
##MW=223
##$NIST SOURCE=MSDC
##XUNITS=M/Z
##YUNITS=RELATIVE INTENSITY
##XFACTOR=1
##YFACTOR=1
##FIRSTX=26
##LASTX=226
##FIRSTY=20
##MAXX=226
##MINX=26
##MAXY=9999
##MINY=10
##NPOINTS=134
##PEAK TABLE=(XY..XY)
26,20 27,70 28,50 29,10
37,70 38,149 39,279 40,40
41,80 42,10 43,10 44,10
45,20 49,30 50,369 51,239
52,219 53,70 54,20 55,20
56,30 57,30 58,10 61,109
62,279 63,509 64,209 65,269
66,40 67,20 68,20 69,249
70,259 71,40 73,50 74,289
75,339 76,449 77,289 78,50
79,10 82,139 83,589 84,119
85,50 86,119 87,169 88,139
89,219 90,129 91,159 92,60
97,99 98,99 99,90 100,70
101,80 102,70 103,20 104,70
105,70 106,10 109,20 110,40
111,139 112,70 113,249 114,209
115,199 116,70 117,40 118,30
119,60 120,40 121,10 122,30
123,20 124,20 125,50 126,90
127,80 128,50 129,20 130,10
133,10 134,10 137,70 138,189
139,1789 140,879 141,159 142,20
143,10 144,30 146,10 149,30
150,139 151,99 152,50 153,20
154,20 155,10 156,10 164,149
165,90 166,1119 167,2029 168,799
169,109 170,20 171,10 175,10
176,30 177,99 178,40 179,30
180,30 181,10 182,20 183,10
193,20 194,269 195,1989 196,359
197,30 207,10 208,30 209,10
221,30 222,729 223,9999 224,1649
225,179 226,20
##END=
