##TITLE=Buclizine
##JCAMP-DX=4.24
##DATA TYPE=MASS SPECTRUM
##ORIGIN=Patti Price, Georgia Bureau of Investigation, Decatur, Georgia
##OWNER=NIST Mass Spectrometry Data Center
Collection (C) 2014 copyright by the U.S. Secretary of Commerce
on behalf of the United States of America. All rights reserved.
##CAS REGISTRY NO=82-95-1
##$NIST MASS SPEC NO=248626
##MOLFORM=C28 H33 Cl N2
##MW=432
##$NIST SOURCE=MSDC
##XUNITS=M/Z
##YUNITS=RELATIVE INTENSITY
##XFACTOR=1
##YFACTOR=1
##FIRSTX=39
##LASTX=435
##FIRSTY=80
##MAXX=435
##MINX=39
##MAXY=9999
##MINY=10
##NPOINTS=150
##PEAK TABLE=(XY..XY)
39,80 41,240 42,250 43,40
44,40 50,30 51,100 53,40
54,70 55,240 56,290 57,280
58,30 63,100 65,230 68,30
69,50 71,60 72,90 73,30
75,80 76,50 77,330 78,170
79,180 80,30 81,20 83,190
84,110 85,90 87,20 89,370
90,230 91,2101 92,220 93,110
94,80 98,10 99,50 101,30
102,70 103,250 104,670 105,1771
106,150 107,360 108,30 111,80
112,30 113,40 114,40 115,970
116,450 117,4403 118,600 119,1711
120,180 121,10 125,220 126,50
127,150 128,170 129,180 130,160
131,1010 132,4073 133,480 134,110
137,20 138,60 139,290 140,60
141,20 143,30 144,100 145,210
146,240 147,9438 148,1141 149,110
150,10 151,60 152,80 153,40
156,40 157,10 158,40 159,40
160,370 161,150 162,80 163,270
164,410 165,4864 166,4353 167,600
168,50 172,30 174,90 175,80
176,470 177,60 178,40 179,60
186,30 188,190 189,460 190,860
191,140 192,30 193,20 199,140
200,40 201,3102 202,560 203,1040
204,740 205,100 206,90 207,30
208,20 215,240 216,450 217,90
218,40 228,590 229,380 230,290
231,9999 232,1671 233,140 240,140
241,120 242,520 243,220 244,180
245,130 256,50 258,30 259,20
285,2952 286,560 287,960 288,160
327,50 404,10 432,640 433,200
434,220 435,60
##END=
