##TITLE=Chlorcyclizine
##JCAMP-DX=4.24
##DATA TYPE=MASS SPECTRUM
##ORIGIN=Patti Price, Georgia Bureau of Investigation, Decatur, Georgia
##OWNER=NIST Mass Spectrometry Data Center
Collection (C) 2014 copyright by the U.S. Secretary of Commerce
on behalf of the United States of America. All rights reserved.
##CAS REGISTRY NO=82-93-9
##$NIST MASS SPEC NO=247749
##MOLFORM=C18 H21 Cl N2
##MW=300
##$NIST SOURCE=MSDC
##XUNITS=M/Z
##YUNITS=RELATIVE INTENSITY
##XFACTOR=1
##YFACTOR=1
##FIRSTX=41
##LASTX=303
##FIRSTY=540
##MAXX=303
##MINX=41
##MAXY=9999
##MINY=10
##NPOINTS=160
##PEAK TABLE=(XY..XY)
41,540 42,5114 43,2302 44,2091
45,50 50,290 51,620 52,110
53,30 54,450 55,510 56,7626
57,1070 58,1381 59,50 62,70
63,440 64,60 65,260 66,10
67,10 68,80 70,2472 71,570
72,1151 73,130 74,80 75,280
76,120 77,350 78,60 79,40
80,10 81,60 82,220 83,160
84,340 85,380 86,50 87,110
88,60 89,400 90,100 91,490
92,40 93,10 94,40 95,40
96,20 97,340 98,180 99,9999
100,610 101,100 102,80 103,130
104,160 105,60 111,80 112,20
113,130 114,80 115,360 116,70
117,70 118,40 123,20 124,10
125,320 126,100 127,190 128,40
129,10 130,40 131,20 132,30
136,10 137,50 138,150 139,440
140,80 141,20 144,30 145,10
146,30 147,10 149,60 150,40
151,110 152,110 153,20 154,10
161,40 162,60 163,570 164,720
165,5014 166,2522 167,430 168,30
173,10 175,10 176,10 177,10
178,50 179,190 180,50 181,10
186,10 188,10 189,130 190,30
191,10 192,10 193,30 194,100
195,40 197,10 199,160 200,30
201,1621 202,260 203,540 204,70
205,20 206,440 207,70 208,10
214,10 216,70 217,10 218,20
223,160 224,10 225,40 226,10
228,3453 229,1711 230,1371 231,590
232,60 240,740 241,1851 242,2272
243,1020 244,700 245,120 246,20
254,10 256,150 257,20 258,50
285,100 286,20 287,30 299,30
300,1361 301,280 302,480 303,80
##END=
