##TITLE=Cyclizine
##JCAMP-DX=4.24
##DATA TYPE=MASS SPECTRUM
##ORIGIN=Virginia Division of Forensic Science
##OWNER=NIST Mass Spectrometry Data Center
Collection (C) 2014 copyright by the U.S. Secretary of Commerce
on behalf of the United States of America. All rights reserved.
##CAS REGISTRY NO=82-92-8
##$NIST MASS SPEC NO=250597
##MOLFORM=C18 H22 N2
##MW=266
##$NIST SOURCE=MSDC
##XUNITS=M/Z
##YUNITS=RELATIVE INTENSITY
##XFACTOR=1
##YFACTOR=1
##FIRSTX=15
##LASTX=268
##FIRSTY=90
##MAXX=268
##MINX=15
##MAXY=9999
##MINY=10
##NPOINTS=148
##PEAK TABLE=(XY..XY)
15,90 17,10 18,10 26,20
27,160 28,110 29,260 30,150
38,30 39,270 40,40 41,260
42,2151 43,1040 44,730 45,30
50,130 51,390 52,70 53,20
54,280 56,5034 57,650 58,850
59,20 62,80 63,350 64,90
65,350 66,20 67,10 68,60
70,2201 71,500 72,980 73,40
74,80 75,100 76,150 77,540
78,130 79,50 80,30 81,40
82,180 83,170 84,270 85,390
86,70 87,90 88,80 89,420
91,1271 92,90 93,10 94,50
95,40 96,40 97,380 99,9838
100,570 101,60 102,150 103,160
104,470 105,170 106,20 111,20
112,10 113,130 115,870 116,180
117,260 118,140 119,30 120,10
126,190 127,140 128,530 129,70
130,150 131,70 132,140 133,20
134,10 137,30 139,680 140,100
141,310 142,40 144,60 145,30
146,130 147,30 148,10 150,100
152,4353 153,650 154,60 158,10
159,20 161,200 163,610 165,9268
166,3022 167,7716 168,1161 169,70
174,10 175,10 176,20 177,20
178,100 179,180 180,400 181,90
182,250 183,30 187,10 189,1111
190,160 191,50 192,60 194,9999
195,4514 196,600 197,50 204,10
206,2912 207,6405 208,5064 209,940
210,200 211,30 220,60 222,600
223,90 224,10 234,10 236,30
237,20 238,20 251,330 252,80
263,10 266,4193 267,810 268,60
##END=
