##TITLE=2-Butene, 1,4-dibromo-, (E)-
##JCAMP-DX=4.24
##DATA TYPE=MASS SPECTRUM
##ORIGIN=NIST Mass Spectrometry Data Center, 1998.
##OWNER=NIST Mass Spectrometry Data Center
Collection (C) 2014 copyright by the U.S. Secretary of Commerce
on behalf of the United States of America. All rights reserved.
##CAS REGISTRY NO=821-06-7
##$NIST MASS SPEC NO=290767
##MOLFORM=C4 H6 Br2
##MW=212
##$NIST SOURCE=MSDC
##XUNITS=M/Z
##YUNITS=RELATIVE INTENSITY
##XFACTOR=1
##YFACTOR=1
##FIRSTX=14
##LASTX=217
##FIRSTY=10
##MAXX=217
##MINX=14
##MAXY=9999
##MINY=10
##NPOINTS=59
##PEAK TABLE=(XY..XY)
14,10 15,10 24,10 25,50
26,480 27,1530 28,250 29,20
36,20 37,150 38,260 39,1430
40,60 41,10 48,20 49,230
50,990 51,1260 52,520 53,6499
54,2610 55,100 66,20 67,20
79,440 80,140 81,460 82,140
83,30 91,20 92,20 93,140
94,20 95,120 103,10 104,30
105,90 106,100 107,190 108,60
109,100 117,40 118,10 119,90
121,50 130,10 131,50 133,9999
134,510 135,9539 136,430 137,10
160,10 212,140 213,10 214,260
215,10 216,130 217,10
##END=
