##TITLE=4-Undecene, (Z)-
##JCAMP-DX=4.24
##DATA TYPE=MASS SPECTRUM
##ORIGIN=S.A. Rang et al., IR & MS of Unsatd. Hydrocarbons, 1977
##OWNER=NIST Mass Spectrometry Data Center
Collection (C) 2014 copyright by the U.S. Secretary of Commerce
on behalf of the United States of America. All rights reserved.
##CAS REGISTRY NO=821-98-7
##$NIST MASS SPEC NO=142600
##MOLFORM=C11 H22
##MW=154
##$NIST SOURCE=MSDC
##XUNITS=M/Z
##YUNITS=RELATIVE INTENSITY
##XFACTOR=1
##YFACTOR=1
##FIRSTX=15
##LASTX=156
##FIRSTY=56
##MAXX=156
##MINX=15
##MAXY=9999
##MINY=5
##NPOINTS=71
##PEAK TABLE=(XY..XY)
15,56 25,27 26,172 27,2526
28,947 29,3368 30,78 36,8
37,19 38,45 39,2105 40,336
41,8800 42,2684 43,5200 44,105
50,48 51,145 52,127 53,895
54,1632 55,9999 56,5790 57,2053
58,83 63,27 64,10 65,218
66,145 67,1790 68,632 69,5600
70,3895 71,737 72,32 73,8
75,5 77,163 78,40 79,245
80,61 81,526 82,454 83,1895
84,1526 85,368 86,19 91,48
92,8 93,27 94,5 95,127
96,172 97,1053 98,474 99,45
109,109 110,72 111,400 112,172
113,154 123,72 124,21 125,107
126,123 127,13 139,5 152,5
154,1210 155,145 156,11
##END=
