##TITLE=4-Penten-1-ol
##JCAMP-DX=4.24
##DATA TYPE=MASS SPECTRUM
##OWNER=NIST Mass Spectrometry Data Center
Collection (C) 2014 copyright by the U.S. Secretary of Commerce
on behalf of the United States of America. All rights reserved.
##CAS REGISTRY NO=821-09-0
##$NIST MASS SPEC NO=19392
##MOLFORM=C5 H10 O
##MW=86
##$NIST SOURCE=MSDC
##XUNITS=M/Z
##YUNITS=RELATIVE INTENSITY
##XFACTOR=1
##YFACTOR=1
##FIRSTX=15
##LASTX=86
##FIRSTY=320
##MAXX=86
##MINX=15
##MAXY=9999
##MINY=30
##NPOINTS=39
##PEAK TABLE=(XY..XY)
15,320 17,80 18,110 26,380
27,3713 28,1653 29,4134 30,290
31,3283 32,300 38,300 39,4284
40,1631 41,4844 42,1651 43,1732
44,4014 45,1381 50,190 51,340
52,230 53,3613 54,651 55,3053
56,1581 57,2823 58,921 65,220
66,260 67,9999 68,9579 69,621
71,561 81,50 82,40 83,50
84,30 85,70 86,50
##END=
