##TITLE=1-Undecene
##JCAMP-DX=4.24
##DATA TYPE=MASS SPECTRUM
##ORIGIN=Japan AIST/NIMC Database- Spectrum MS-NW-5157
##OWNER=NIST Mass Spectrometry Data Center
Collection (C) 2014 copyright by the U.S. Secretary of Commerce
on behalf of the United States of America. All rights reserved.
##CAS REGISTRY NO=821-95-4
##$NIST MASS SPEC NO=232523
##MOLFORM=C11 H22
##MW=154
##$NIST SOURCE=MSDC
##XUNITS=M/Z
##YUNITS=RELATIVE INTENSITY
##XFACTOR=1
##YFACTOR=1
##FIRSTX=15
##LASTX=155
##FIRSTY=90
##MAXX=155
##MINX=15
##MAXY=9999
##MINY=10
##NPOINTS=66
##PEAK TABLE=(XY..XY)
15,90 26,99 27,2329 28,229
29,3989 30,90 36,10 37,10
38,70 39,2329 40,379 41,8489
42,3149 43,9999 44,339 45,10
50,40 51,139 52,70 53,719
54,1199 55,9329 56,8949 57,6339
58,299 59,10 62,10 63,30
65,109 66,99 67,969 68,1229
69,7099 70,8229 71,2429 72,119
75,10 77,80 78,10 79,80
80,20 81,279 82,1209 83,5149
84,4009 85,709 86,50 91,10
93,10 95,60 96,379 97,2819
98,1409 99,149 109,10 110,149
111,1109 112,829 113,80 124,40
125,469 126,579 127,60 139,20
154,879 155,109
##END=
