##TITLE=Hydracrylic acid, 2TBDMS derivative
##JCAMP-DX=4.24
##DATA TYPE=MASS SPECTRUM
##ORIGIN=J.M. Halket, Trace Anal. Unit (TAU), London, UK
##OWNER=NIST Mass Spectrometry Data Center
Collection (C) 2014 copyright by the U.S. Secretary of Commerce
on behalf of the United States of America. All rights reserved.
##CAS REGISTRY NO=82112-30-9
##$NIST MASS SPEC NO=221726
##MOLFORM=C15 H34 O3 Si2
##MW=318
##$NIST SOURCE=MSDC
##XUNITS=M/Z
##YUNITS=RELATIVE INTENSITY
##XFACTOR=1
##YFACTOR=1
##FIRSTX=39
##LASTX=304
##FIRSTY=230
##MAXX=304
##MINX=39
##MAXY=9999
##MINY=50
##NPOINTS=57
##PEAK TABLE=(XY..XY)
39,230 41,880 43,380 44,150
45,1000 47,500 55,930 56,250
57,670 58,460 59,1260 60,180
61,280 66,540 67,50 73,9999
74,900 75,2720 76,200 77,140
81,220 85,170 87,370 88,130
89,510 99,130 101,200 102,260
103,180 105,220 115,630 117,210
119,190 129,250 131,160 133,2120
134,290 135,180 147,3600 148,580
149,370 163,840 164,100 187,70
189,3290 190,650 191,330 205,60
219,1030 220,160 221,70 231,140
261,5160 262,1130 263,510 303,230
304,60
##END=
