##TITLE=Glycerol, 3TBDMS derivative
##JCAMP-DX=4.24
##DATA TYPE=MASS SPECTRUM
##ORIGIN=J.M. Halket, Trace Anal. Unit (TAU), London, UK
##OWNER=NIST Mass Spectrometry Data Center
Collection (C) 2014 copyright by the U.S. Secretary of Commerce
on behalf of the United States of America. All rights reserved.
##CAS REGISTRY NO=82112-23-0
##$NIST MASS SPEC NO=221751
##MOLFORM=C21 H50 O3 Si3
##MW=434
##$NIST SOURCE=MSDC
##XUNITS=M/Z
##YUNITS=RELATIVE INTENSITY
##XFACTOR=1
##YFACTOR=1
##FIRSTX=39
##LASTX=379
##FIRSTY=120
##MAXX=379
##MINX=39
##MAXY=9999
##MINY=50
##NPOINTS=69
##PEAK TABLE=(XY..XY)
39,120 41,1030 43,110 45,360
47,90 55,150 56,170 57,610
58,270 59,990 60,80 61,100
69,60 73,9140 74,710 75,930
85,230 86,50 87,80 89,9999
90,760 91,330 99,180 100,60
101,230 103,160 115,1900 116,240
117,280 119,180 129,70 131,300
133,2280 134,320 135,220 145,530
147,4760 148,770 149,580 163,320
171,2720 172,390 173,290 174,50
175,610 176,90 177,90 189,2660
190,480 191,390 192,60 193,70
205,150 207,600 208,120 209,80
219,400 220,80 221,640 222,150
223,80 231,90 245,470 246,110
247,130 289,80 377,1410 378,500
379,240
##END=
