##TITLE=Cyclopentane, 1,2-dimethyl-, trans-
##JCAMP-DX=4.24
##DATA TYPE=MASS SPECTRUM
##OWNER=NIST Mass Spectrometry Data Center
Collection (C) 2014 copyright by the U.S. Secretary of Commerce
on behalf of the United States of America. All rights reserved.
##CAS REGISTRY NO=822-50-4
##$NIST MASS SPEC NO=937
##MOLFORM=C7 H14
##MW=98
##$NIST SOURCE=MSDC
##XUNITS=M/Z
##YUNITS=RELATIVE INTENSITY
##XFACTOR=1
##YFACTOR=1
##FIRSTX=1
##LASTX=100
##FIRSTY=40
##MAXX=100
##MINX=1
##MAXY=9999
##MINY=10
##NPOINTS=68
##PEAK TABLE=(XY..XY)
1,40 2,10 12,10 13,10
14,20 15,480 16,10 25,10
26,200 27,2923 28,1081 29,1992
30,70 31,10 32,10 34,10
37,30 38,120 39,2582 40,540
41,6766 42,2752 43,1171 44,40
45,10 46,20 47,10 49,10
50,130 51,220 52,110 53,681
54,751 55,6576 56,9999 57,1361
58,50 61,10 62,10 63,40
64,10 65,100 66,50 67,270
68,340 69,2883 70,5755 71,300
72,10 74,10 77,80 78,20
79,80 80,10 81,140 82,60
83,1291 84,80 85,10 89,10
91,10 93,10 95,10 96,10
97,80 98,2572 99,190 100,10
##END=
