##TITLE=1H-Imidazole, 4-methyl-
##JCAMP-DX=4.24
##DATA TYPE=MASS SPECTRUM
##ORIGIN=NIST Mass Spectrometry Data Center, 1998.
##OWNER=NIST Mass Spectrometry Data Center
Collection (C) 2014 copyright by the U.S. Secretary of Commerce
on behalf of the United States of America. All rights reserved.
##CAS REGISTRY NO=822-36-6
##$NIST MASS SPEC NO=291939
##MOLFORM=C4 H6 N2
##MW=82
##$NIST SOURCE=MSDC
##XUNITS=M/Z
##YUNITS=RELATIVE INTENSITY
##XFACTOR=1
##YFACTOR=1
##FIRSTX=14
##LASTX=83
##FIRSTY=20
##MAXX=83
##MINX=14
##MAXY=9999
##MINY=10
##NPOINTS=34
##PEAK TABLE=(XY..XY)
14,20 15,40 24,10 25,70
26,500 27,760 28,2840 29,140
30,110 36,20 37,100 38,280
39,440 40,710 41,720 42,630
43,30 50,70 51,500 52,1230
53,590 54,6839 55,1240 56,60
65,10 66,30 67,240 68,20
77,10 79,20 80,170 81,7519
82,9999 83,510
##END=
