##TITLE=Acetic acid n-octadecyl ester
##JCAMP-DX=4.24
##DATA TYPE=MASS SPECTRUM
##ORIGIN=NIST Mass Spectrometry Data Center, 1990.
##OWNER=NIST Mass Spectrometry Data Center
Collection (C) 2014 copyright by the U.S. Secretary of Commerce
on behalf of the United States of America. All rights reserved.
##CAS REGISTRY NO=822-23-1
##$NIST MASS SPEC NO=118347
##MOLFORM=C20 H40 O2
##MW=312
##$NIST SOURCE=MSDC
##XUNITS=M/Z
##YUNITS=RELATIVE INTENSITY
##XFACTOR=1
##YFACTOR=1
##FIRSTX=14
##LASTX=297
##FIRSTY=32
##MAXX=297
##MINX=14
##MAXY=9999
##MINY=19
##NPOINTS=98
##PEAK TABLE=(XY..XY)
14,32 15,150 17,37 18,19
26,38 27,565 28,210 29,1394
30,57 39,473 41,4262 42,1410
43,9999 44,386 45,70 53,225
54,952 55,5915 56,2836 57,5527
58,341 59,82 60,70 61,3523
62,97 65,58 66,172 67,1205
68,1658 69,5221 70,2861 71,2629
72,171 73,341 77,55 79,123
80,113 81,892 82,2938 83,5422
84,1914 85,1631 86,99 87,54
91,25 93,30 94,50 95,437
96,1557 97,5518 98,1451 99,471
100,48 101,58 108,35 109,190
110,691 111,3337 112,888 113,332
114,39 116,275 122,34 123,111
124,547 125,1863 126,662 127,157
129,31 130,41 137,76 138,280
139,687 140,394 141,89 151,19
152,175 153,464 154,216 155,67
166,144 167,268 168,180 169,65
180,105 181,134 182,113 194,52
195,72 196,90 209,56 210,47
223,35 224,386 225,79 252,443
253,61 297,31
##END=
