##TITLE=Dioctyl disulphide
##JCAMP-DX=4.24
##DATA TYPE=MASS SPECTRUM
##ORIGIN=D. GUPTA, DEP. CHEM., GOV. COLL., AJMER, INDIA
##OWNER=NIST Mass Spectrometry Data Center
Collection (C) 2014 copyright by the U.S. Secretary of Commerce
on behalf of the United States of America. All rights reserved.
##CAS REGISTRY NO=822-27-5
##$NIST MASS SPEC NO=98923
##MOLFORM=C16 H34 S2
##MW=290
##$NIST SOURCE=MSDC
##XUNITS=M/Z
##YUNITS=RELATIVE INTENSITY
##XFACTOR=1
##YFACTOR=1
##FIRSTX=27
##LASTX=292
##FIRSTY=1500
##MAXX=292
##MINX=27
##MAXY=9999
##MINY=300
##NPOINTS=39
##PEAK TABLE=(XY..XY)
27,1500 29,2700 39,900 41,4900
42,1400 43,7400 44,300 45,400
47,700 53,300 54,300 55,3600
56,1700 57,9999 58,500 59,300
60,400 61,400 67,600 68,400
69,2500 70,1300 71,8000 72,400
79,300 83,700 84,600 87,1200
101,600 112,300 115,300 145,1600
146,400 178,2700 179,300 180,300
290,2800 291,500 292,300
##END=
