##TITLE=2H-Pyran-2-one, tetrahydro-6-methyl-
##JCAMP-DX=4.24
##DATA TYPE=MASS SPECTRUM
##ORIGIN=Japan AIST/NIMC Database- Spectrum MS-IW-6579
##OWNER=NIST Mass Spectrometry Data Center
Collection (C) 2014 copyright by the U.S. Secretary of Commerce
on behalf of the United States of America. All rights reserved.
##CAS REGISTRY NO=823-22-3
##$NIST MASS SPEC NO=237113
##MOLFORM=C6 H10 O2
##MW=114
##$NIST SOURCE=MSDC
##XUNITS=M/Z
##YUNITS=RELATIVE INTENSITY
##XFACTOR=1
##YFACTOR=1
##FIRSTX=14
##LASTX=115
##FIRSTY=40
##MAXX=115
##MINX=14
##MAXY=9999
##MINY=10
##NPOINTS=55
##PEAK TABLE=(XY..XY)
14,40 15,189 18,10 26,159
27,959 28,309 29,459 30,10
31,40 32,20 34,20 35,10
37,60 38,149 39,1159 40,339
41,1779 42,9999 43,2539 44,99
45,139 49,10 50,40 51,50
52,20 53,119 54,60 55,2299
56,149 57,30 58,40 59,20
60,40 61,10 62,10 63,10
65,10 67,40 68,40 69,60
70,6409 71,1319 72,60 73,20
81,20 84,20 85,169 86,30
97,10 99,769 100,50 101,10
113,60 114,599 115,60
##END=
