##TITLE=Phenyl mercuric iodide
##JCAMP-DX=4.24
##DATA TYPE=MASS SPECTRUM
##ORIGIN=Japan AIST/NIMC Database- Spectrum MS-NW-3220
##OWNER=NIST Mass Spectrometry Data Center
Collection (C) 2014 copyright by the U.S. Secretary of Commerce
on behalf of the United States of America. All rights reserved.
##CAS REGISTRY NO=823-04-1
##$NIST MASS SPEC NO=231267
##MOLFORM=C6 H5 Hg I
##MW=406
##$NIST SOURCE=MSDC
##XUNITS=M/Z
##YUNITS=RELATIVE INTENSITY
##XFACTOR=1
##YFACTOR=1
##FIRSTX=26
##LASTX=409
##FIRSTY=40
##MAXX=409
##MINX=26
##MAXY=9999
##MINY=10
##NPOINTS=81
##PEAK TABLE=(XY..XY)
26,40 27,259 36,20 37,189
38,219 39,259 43,10 44,10
48,10 49,209 50,1959 51,4259
52,229 55,10 57,10 60,10
61,40 62,70 63,30 71,10
72,10 73,149 74,689 75,409
76,569 77,9999 78,789 79,30
100,10 101,10 110,10 127,249
128,90 151,10 152,30 153,30
154,70 155,10 176,10 177,10
184,10 185,20 186,40 198,80
199,129 200,169 201,109 202,239
203,70 204,189 205,10 225,10
227,10 275,229 276,409 277,549
278,329 279,669 280,50 281,149
282,10 325,70 326,119 327,159
328,99 329,209 331,50 352,10
353,20 354,40 355,20 356,40
358,10 402,379 403,629 404,869
405,529 406,1099 407,70 408,239
409,10
##END=
