##TITLE=Cyclohexene, 3,5-dimethyl-
##JCAMP-DX=4.24
##DATA TYPE=MASS SPECTRUM
##ORIGIN=NIST Mass Spectrometry Data Center, 1990.
##OWNER=NIST Mass Spectrometry Data Center
Collection (C) 2014 copyright by the U.S. Secretary of Commerce
on behalf of the United States of America. All rights reserved.
##CAS REGISTRY NO=823-17-6
##$NIST MASS SPEC NO=113436
##MOLFORM=C8 H14
##MW=110
##$NIST SOURCE=MSDC
##XUNITS=M/Z
##YUNITS=RELATIVE INTENSITY
##XFACTOR=1
##YFACTOR=1
##FIRSTX=15
##LASTX=111
##FIRSTY=192
##MAXX=111
##MINX=15
##MAXY=9999
##MINY=59
##NPOINTS=42
##PEAK TABLE=(XY..XY)
15,192 26,130 27,931 28,383
29,454 37,77 38,331 39,2790
40,659 41,2364 42,380 43,114
50,354 51,799 52,416 53,1670
54,395 55,2191 56,282 62,135
63,333 65,882 67,6534 68,4460
69,997 74,64 77,1235 78,349
79,1269 80,334 81,1877 82,954
83,63 91,780 92,120 93,592
94,63 95,9999 96,773 105,59
110,2326 111,226
##END=
