##TITLE=7,9-Di-tert-butyl-1-oxaspiro(4,5)deca-6,9-diene-2,8-dione
##JCAMP-DX=4.24
##DATA TYPE=MASS SPECTRUM
##ORIGIN=V.Lopez-Avila, Org.Mass Spectrom. 22, 557 (1987)
##OWNER=NIST Mass Spectrometry Data Center
Collection (C) 2014 copyright by the U.S. Secretary of Commerce
on behalf of the United States of America. All rights reserved.
##CAS REGISTRY NO=82304-66-3
##$NIST MASS SPEC NO=279726
##MOLFORM=C17 H24 O3
##MW=276
##$NIST SOURCE=MSDC
##XUNITS=M/Z
##YUNITS=RELATIVE INTENSITY
##XFACTOR=1
##YFACTOR=1
##FIRSTX=51
##LASTX=276
##FIRSTY=370
##MAXX=276
##MINX=51
##MAXY=9999
##MINY=10
##NPOINTS=113
##PEAK TABLE=(XY..XY)
51,370 52,120 53,811 55,4814
56,671 57,9999 58,400 59,70
63,180 64,150 65,891 66,220
67,1221 69,831 71,200 73,190
77,1191 78,210 79,981 80,240
81,540 82,130 83,470 85,450
87,240 89,110 91,1802 92,220
93,470 95,671 96,420 97,400
98,400 103,300 105,871 106,130
107,671 108,80 109,1321 110,330
111,611 115,791 116,280 117,480
119,871 120,120 121,621 122,120
123,611 124,420 127,200 128,550
129,470 130,180 131,490 132,80
133,871 134,260 135,1071 136,310
137,621 138,130 141,240 142,210
143,270 144,90 145,450 146,80
147,641 148,310 149,671 150,550
151,390 152,230 153,320 157,290
159,751 160,190 161,951 162,300
163,871 164,300 165,430 173,330
175,3183 176,701 177,2462 178,601
179,400 185,10 187,270 189,2442
190,540 191,1081 192,861 193,310
201,280 203,831 204,360 205,5375
206,691 207,210 217,2572 218,470
219,540 220,2022 221,561 222,320
232,1041 233,510 261,741 262,110
276,180
##END=
