##TITLE=Nonanoic acid, TMS derivative
##JCAMP-DX=4.24
##DATA TYPE=MASS SPECTRUM
##ORIGIN=NIST Mass Spectrometry Data Center
##OWNER=NIST Mass Spectrometry Data Center
Collection (C) 2014 copyright by the U.S. Secretary of Commerce
on behalf of the United States of America. All rights reserved.
##CAS REGISTRY NO=82326-11-2
##$NIST MASS SPEC NO=333729
##MOLFORM=C12 H26 O2 Si
##MW=230
##$NIST SOURCE=MSDC
##XUNITS=M/Z
##YUNITS=RELATIVE INTENSITY
##XFACTOR=1
##YFACTOR=1
##FIRSTX=15
##LASTX=232
##FIRSTY=10
##MAXX=232
##MINX=15
##MAXY=9999
##MINY=10
##NPOINTS=134
##PEAK TABLE=(XY..XY)
15,10 27,220 28,70 29,430
30,10 31,10 39,250 40,60
41,1021 42,240 43,891 44,130
45,751 46,50 47,430 48,20
49,10 50,10 51,20 52,10
53,120 54,70 55,1321 56,220
57,320 58,230 59,310 60,130
61,621 62,40 63,30 65,20
66,10 67,310 68,70 69,420
70,100 71,140 72,410 73,8077
74,941 75,7957 76,581 77,350
78,20 79,50 81,611 82,50
83,160 84,150 85,110 86,120
87,80 88,80 89,150 90,40
91,50 92,10 93,50 94,20
95,70 96,20 97,180 98,160
99,190 100,30 101,210 102,20
103,30 105,280 106,20 107,20
109,10 111,90 112,90 113,30
114,10 115,90 116,591 117,8418
118,831 119,350 120,20 121,30
122,10 123,30 125,20 127,20
129,3533 130,470 131,2332 132,3363
133,490 134,130 135,10 139,40
140,40 141,60 142,10 143,270
144,40 145,1672 146,210 147,70
155,10 157,100 158,10 159,280
160,40 161,10 171,530 172,80
173,90 174,30 175,10 185,120
186,20 187,390 188,70 189,20
197,10 199,10 201,300 202,50
203,10 213,10 215,9999 216,1782
217,520 218,50 229,30 230,180
231,50 232,10
##END=
