##TITLE=1,4-Benzenediol, 2-methoxy-
##JCAMP-DX=4.24
##DATA TYPE=MASS SPECTRUM
##ORIGIN=Japan AIST/NIMC Database- Spectrum MS-NW-6138
##OWNER=NIST Mass Spectrometry Data Center
Collection (C) 2014 copyright by the U.S. Secretary of Commerce
on behalf of the United States of America. All rights reserved.
##CAS REGISTRY NO=824-46-4
##$NIST MASS SPEC NO=231456
##MOLFORM=C7 H8 O3
##MW=140
##$NIST SOURCE=MSDC
##XUNITS=M/Z
##YUNITS=RELATIVE INTENSITY
##XFACTOR=1
##YFACTOR=1
##FIRSTX=12
##LASTX=142
##FIRSTY=10
##MAXX=142
##MINX=12
##MAXY=9999
##MINY=10
##NPOINTS=93
##PEAK TABLE=(XY..XY)
12,10 13,20 14,90 15,329
18,20 25,70 26,359 27,569
28,309 29,419 30,30 31,80
32,20 33,10 34,50 36,20
37,129 38,209 39,889 40,149
41,869 42,419 43,349 44,30
45,40 48,10 49,90 50,329
51,669 52,509 53,889 54,439
55,679 56,80 57,30 59,20
60,10 61,70 62,99 63,119
64,30 65,159 66,80 67,90
68,369 69,909 70,159 71,40
73,10 74,10 75,10 76,10
77,50 78,40 79,499 80,119
81,259 82,199 83,50 84,50
85,20 91,10 92,20 93,109
94,30 95,149 96,239 97,4729
98,299 99,30 105,10 107,90
108,339 109,80 110,209 111,309
112,30 113,10 116,10 121,10
122,10 123,50 124,30 125,6279
126,459 127,50 128,10 137,20
138,209 139,249 140,9999 141,859
142,109
##END=
