##TITLE=Phosphonic dichloride, phenyl-
##JCAMP-DX=4.24
##DATA TYPE=MASS SPECTRUM
##ORIGIN=Japan AIST/NIMC Database- Spectrum MS-NW-8342
##OWNER=NIST Mass Spectrometry Data Center
Collection (C) 2014 copyright by the U.S. Secretary of Commerce
on behalf of the United States of America. All rights reserved.
##CAS REGISTRY NO=824-72-6
##$NIST MASS SPEC NO=230442
##MOLFORM=C6 H5 Cl2 O P
##MW=194
##$NIST SOURCE=MSDC
##XUNITS=M/Z
##YUNITS=RELATIVE INTENSITY
##XFACTOR=1
##YFACTOR=1
##FIRSTX=26
##LASTX=199
##FIRSTY=50
##MAXX=199
##MINX=26
##MAXY=9999
##MINY=10
##NPOINTS=98
##PEAK TABLE=(XY..XY)
26,50 27,309 28,149 29,30
31,30 32,10 35,70 36,399
37,119 38,229 39,379 40,10
43,20 44,30 45,40 47,1519
48,30 49,109 50,1889 51,4659
52,229 53,20 55,30 56,90
57,50 58,10 59,30 60,60
61,50 62,99 63,109 64,60
65,689 66,50 67,20 68,99
69,90 70,10 72,10 73,119
74,599 75,549 76,559 77,9559
78,639 79,50 80,99 81,80
82,40 83,80 84,20 85,50
86,30 87,10 91,30 92,50
93,459 94,30 95,80 96,50
101,169 103,119 104,30 105,20
107,139 108,20 111,50 112,489
113,60 114,159 115,20 117,80
119,50 120,10 123,70 124,80
129,10 130,90 131,50 132,30
133,10 143,70 145,20 158,20
159,9999 160,669 161,3249 162,219
163,10 166,20 168,10 178,10
194,4089 195,279 196,2619 197,179
198,429 199,30
##END=
