##TITLE=Benzene, 1-(chloromethyl)-4-methoxy-
##JCAMP-DX=4.24
##DATA TYPE=MASS SPECTRUM
##ORIGIN=V.A.KOPTYUG, ATLAS OF MASS SPECTRA OF ORGANIC COMPOUNDS
##OWNER=NIST Mass Spectrometry Data Center
Collection (C) 2014 copyright by the U.S. Secretary of Commerce
on behalf of the United States of America. All rights reserved.
##CAS REGISTRY NO=824-94-2
##$NIST MASS SPEC NO=78281
##MOLFORM=C8 H9 Cl O
##MW=156
##$NIST SOURCE=MSDC
##XUNITS=M/Z
##YUNITS=RELATIVE INTENSITY
##XFACTOR=1
##YFACTOR=1
##FIRSTX=39
##LASTX=158
##FIRSTY=340
##MAXX=158
##MINX=39
##MAXY=9999
##MINY=340
##NPOINTS=12
##PEAK TABLE=(XY..XY)
39,340 50,340 51,1000 52,420
77,1000 78,990 79,570 91,1500
121,9999 122,820 156,1200 158,390
##END=
