##TITLE=Benzene, (2-chloro-1-methylethyl)-
##JCAMP-DX=4.24
##DATA TYPE=MASS SPECTRUM
##OWNER=NIST Mass Spectrometry Data Center
Collection (C) 2014 copyright by the U.S. Secretary of Commerce
on behalf of the United States of America. All rights reserved.
##CAS REGISTRY NO=824-47-5
##$NIST MASS SPEC NO=5160
##MOLFORM=C9 H11 Cl
##MW=154
##$NIST SOURCE=MSDC
##XUNITS=M/Z
##YUNITS=RELATIVE INTENSITY
##XFACTOR=1
##YFACTOR=1
##FIRSTX=26
##LASTX=157
##FIRSTY=20
##MAXX=157
##MINX=26
##MAXY=9999
##MINY=10
##NPOINTS=71
##PEAK TABLE=(XY..XY)
26,20 27,190 28,30 29,20
37,20 38,60 39,370 40,30
41,270 42,20 43,30 45,240
49,80 50,220 51,601 52,130
53,70 57,10 58,70 61,50
62,70 63,190 64,40 65,170
66,20 73,30 74,90 75,160
76,90 77,1031 78,330 79,761
80,70 81,20 85,30 86,20
87,30 89,90 90,20 91,561
92,50 97,20 99,20 101,40
102,130 103,991 104,280 105,9999
106,871 107,70 108,60 109,60
110,40 112,20 115,180 116,40
117,120 118,60 119,70 120,30
121,80 123,40 125,30 137,60
138,30 139,90 141,30 154,1551
155,160 156,510 157,50
##END=
