##TITLE=1H-Indene, 2,3-dihydro-2-methyl-
##JCAMP-DX=4.24
##DATA TYPE=MASS SPECTRUM
##OWNER=NIST Mass Spectrometry Data Center
Collection (C) 2014 copyright by the U.S. Secretary of Commerce
on behalf of the United States of America. All rights reserved.
##CAS REGISTRY NO=824-63-5
##$NIST MASS SPEC NO=20841
##MOLFORM=C10 H12
##MW=132
##$NIST SOURCE=MSDC
##XUNITS=M/Z
##YUNITS=RELATIVE INTENSITY
##XFACTOR=1
##YFACTOR=1
##FIRSTX=13
##LASTX=134
##FIRSTY=40
##MAXX=134
##MINX=13
##MAXY=9999
##MINY=10
##NPOINTS=78
##PEAK TABLE=(XY..XY)
13,40 14,90 15,701 16,10
25,30 26,240 27,931 28,250
29,90 37,110 38,320 39,1661
40,130 41,270 42,30 43,40
44,10 49,60 50,611 51,1311
52,280 53,350 54,70 55,40
56,40 57,170 58,310 61,120
62,380 63,1131 64,781 65,1191
66,50 67,30 73,50 74,250
75,240 76,180 77,811 78,430
79,150 80,20 85,60 86,100
87,140 88,80 89,581 90,100
91,2152 92,120 93,40 97,50
98,80 99,60 100,40 101,100
102,350 103,510 104,661 105,420
106,70 110,50 113,140 114,170
115,2732 116,871 117,9999 118,30
119,40 126,90 127,280 128,510
129,350 130,160 131,1992 132,5955
133,640 134,30
##END=
