##TITLE=Ethanol, 2-(butylnitroamino)-, nitrate
##JCAMP-DX=4.24
##DATA TYPE=MASS SPECTRUM
##ORIGIN=J. A. ROWLEY, MINISTRY DEF., WALTHAM ABBEY, ESSEX, UK
##OWNER=NIST Mass Spectrometry Data Center
Collection (C) 2014 copyright by the U.S. Secretary of Commerce
on behalf of the United States of America. All rights reserved.
##CAS REGISTRY NO=82486-82-6
##$NIST MASS SPEC NO=138592
##MOLFORM=C6 H13 N3 O5
##MW=207
##$NIST SOURCE=MSDC
##XUNITS=M/Z
##YUNITS=RELATIVE INTENSITY
##XFACTOR=1
##YFACTOR=1
##FIRSTX=26
##LASTX=207
##FIRSTY=100
##MAXX=207
##MINX=26
##MAXY=9999
##MINY=10
##NPOINTS=50
##PEAK TABLE=(XY..XY)
26,100 27,2400 29,4000 30,3500
31,300 39,900 41,4700 42,9400
43,9000 44,3000 45,700 46,7200
47,100 54,300 55,1100 56,2400
57,3200 58,200 59,200 60,300
68,100 70,1600 71,300 72,300
73,400 74,200 76,400 84,9999
85,2700 86,300 87,300 88,300
89,1900 90,100 99,100 100,100
101,200 115,100 116,100 117,100
118,100 119,300 131,8900 132,200
145,100 152,20 164,200 165,10
178,10 207,10
##END=
