##TITLE=Benzo[b]thiophene, 1,1-dioxide
##JCAMP-DX=4.24
##DATA TYPE=MASS SPECTRUM
##OWNER=NIST Mass Spectrometry Data Center
Collection (C) 2014 copyright by the U.S. Secretary of Commerce
on behalf of the United States of America. All rights reserved.
##CAS REGISTRY NO=825-44-5
##$NIST MASS SPEC NO=6332
##MOLFORM=C8 H6 O2 S
##MW=166
##$NIST SOURCE=MSDC
##XUNITS=M/Z
##YUNITS=RELATIVE INTENSITY
##XFACTOR=1
##YFACTOR=1
##FIRSTX=63
##LASTX=168
##FIRSTY=213
##MAXX=168
##MINX=63
##MAXY=9999
##MINY=85
##NPOINTS=18
##PEAK TABLE=(XY..XY)
63,213 65,266 74,106 75,128
76,160 89,266 90,266 109,5063
110,1117 111,191 118,532 137,9999
138,1596 139,106 150,106 166,1489
167,447 168,85
##END=
