##TITLE=4-(Trifluoromethyl)thiophenol
##JCAMP-DX=4.24
##DATA TYPE=MASS SPECTRUM
##ORIGIN=NIST Mass Spectrometry Data Center
##OWNER=NIST Mass Spectrometry Data Center
Collection (C) 2014 copyright by the U.S. Secretary of Commerce
on behalf of the United States of America. All rights reserved.
##CAS REGISTRY NO=825-83-2
##$NIST MASS SPEC NO=342769
##MOLFORM=C7 H5 F3 S
##MW=178
##$NIST SOURCE=MSDC
##XUNITS=M/Z
##YUNITS=RELATIVE INTENSITY
##XFACTOR=1
##YFACTOR=1
##FIRSTX=12
##LASTX=181
##FIRSTY=10
##MAXX=181
##MINX=12
##MAXY=9999
##MINY=10
##NPOINTS=116
##PEAK TABLE=(XY..XY)
12,10 15,20 17,30 18,30
19,20 20,30 24,10 26,160
27,100 28,440 31,430 32,320
33,340 34,70 36,40 37,390
38,550 39,661 40,10 45,1882
46,50 47,100 48,30 49,170
50,1251 51,721 53,90 54,150
55,60 56,130 57,801 58,410
59,100 60,60 61,340 62,530
63,1221 64,440 65,701 66,40
69,3253 70,200 71,170 72,40
73,160 74,621 75,1251 76,230
77,140 79,170 81,430 82,601
83,540 84,480 85,70 86,30
87,170 88,210 89,370 92,60
93,210 94,130 95,761 96,160
98,10 99,250 100,90 101,80
102,70 103,20 104,40 105,80
106,230 107,320 108,1371 109,1461
110,190 111,130 113,450 114,2913
115,470 116,30 118,30 119,90
123,40 125,370 126,270 127,350
128,250 129,20 130,30 131,100
132,230 133,741 134,671 135,60
137,40 139,430 140,30 143,60
145,951 146,140 151,30 152,260
153,20 157,1962 158,5465 159,2242
160,420 161,100 175,30 177,1631
178,9999 179,891 180,460 181,40
##END=
