##TITLE=Benzene, 1-pentenyl-
##JCAMP-DX=4.24
##DATA TYPE=MASS SPECTRUM
##ORIGIN=D.HENNEBERG, MAX-PLANCK INSTITUTE, MULHEIM, WEST GERMANY
##OWNER=NIST Mass Spectrometry Data Center
Collection (C) 2014 copyright by the U.S. Secretary of Commerce
on behalf of the United States of America. All rights reserved.
##CAS REGISTRY NO=826-18-6
##$NIST MASS SPEC NO=61006
##MOLFORM=C11 H14
##MW=146
##$NIST SOURCE=MSDC
##XUNITS=M/Z
##YUNITS=RELATIVE INTENSITY
##XFACTOR=1
##YFACTOR=1
##FIRSTX=23
##LASTX=148
##FIRSTY=4
##MAXX=148
##MINX=23
##MAXY=9999
##MINY=4
##NPOINTS=104
##PEAK TABLE=(XY..XY)
23,4 25,20 26,87 27,793
28,242 29,212 32,25 37,40
38,103 39,1535 40,109 41,488
42,41 43,27 44,24 45,12
46,12 48,10 49,29 50,382
51,1076 52,266 53,205 54,9
55,98 56,19 58,37 59,23
60,12 61,48 62,171 63,642
64,187 65,891 66,70 67,106
68,318 69,42 70,35 71,43
72,13 73,22 74,132 75,159
76,193 77,791 78,592 79,74
80,7 82,8 84,5 85,11
86,40 87,63 88,49 89,372
90,91 91,2914 92,261 93,41
94,33 95,24 96,10 98,12
99,10 100,12 101,54 102,285
103,360 104,3076 105,351 106,14
108,4 109,7 110,21 111,26
112,48 113,254 114,138 115,3746
116,901 117,9999 118,944 119,40
120,6 123,6 125,8 126,21
127,118 128,340 129,274 130,73
131,206 132,27 139,13 140,6
141,22 142,11 143,25 144,25
145,73 146,2065 147,269 148,20
##END=
