##TITLE=Zolpidem
##JCAMP-DX=4.24
##DATA TYPE=MASS SPECTRUM
##ORIGIN=AAFS Toxicology Section MS DB Committee, U. Alberta, Canada
##OWNER=NIST Mass Spectrometry Data Center
Collection (C) 2014 copyright by the U.S. Secretary of Commerce
on behalf of the United States of America. All rights reserved.
##CAS REGISTRY NO=82626-48-0
##$NIST MASS SPEC NO=247600
##MOLFORM=C19 H21 N3 O
##MW=307
##$NIST SOURCE=MSDC
##XUNITS=M/Z
##YUNITS=RELATIVE INTENSITY
##XFACTOR=1
##YFACTOR=1
##FIRSTX=39
##LASTX=309
##FIRSTY=80
##MAXX=309
##MINX=39
##MAXY=9999
##MINY=20
##NPOINTS=61
##PEAK TABLE=(XY..XY)
39,80 41,20 42,40 51,40
52,30 63,40 65,510 66,60
72,170 75,20 76,20 77,60
78,30 89,60 90,30 91,100
92,690 93,70 102,50 103,30
110,40 115,130 116,100 117,70
118,20 126,20 127,70 128,80
129,40 140,20 142,30 165,20
167,20 178,20 190,20 191,30
192,30 193,30 194,30 195,80
204,20 205,100 206,30 207,20
208,30 217,40 218,170 219,1010
220,560 221,90 222,20 231,50
232,100 233,440 235,9999 236,1831
237,170 262,20 307,1141 308,250
309,30
##END=
