##TITLE=Benzene, 1,2-dibromo-3,4,5,6-tetrafluoro-
##JCAMP-DX=4.24
##DATA TYPE=MASS SPECTRUM
##OWNER=NIST Mass Spectrometry Data Center
Collection (C) 2014 copyright by the U.S. Secretary of Commerce
on behalf of the United States of America. All rights reserved.
##CAS REGISTRY NO=827-08-7
##$NIST MASS SPEC NO=14592
##MOLFORM=C6 Br2 F4
##MW=306
##$NIST SOURCE=MSDC
##XUNITS=M/Z
##YUNITS=RELATIVE INTENSITY
##XFACTOR=1
##YFACTOR=1
##FIRSTX=31
##LASTX=311
##FIRSTY=4204
##MAXX=311
##MINX=31
##MAXY=9999
##MINY=200
##NPOINTS=37
##PEAK TABLE=(XY..XY)
31,4204 36,500 49,300 68,400
70,200 74,1301 79,5805 81,1902
86,1301 91,200 93,1001 98,5505
99,300 110,1101 117,3203 129,1401
134,300 136,200 148,9809 149,701
153,901 154,901 155,701 158,300
160,300 177,1201 179,1101 208,200
210,200 227,2202 229,2302 306,5005
307,300 308,9999 309,601 310,5005
311,300
##END=
