##TITLE=Benzene, cyclohexyl-
##JCAMP-DX=4.24
##DATA TYPE=MASS SPECTRUM
##ORIGIN=Japan AIST/NIMC Database- Spectrum MS-NW-3826
##OWNER=NIST Mass Spectrometry Data Center
Collection (C) 2014 copyright by the U.S. Secretary of Commerce
on behalf of the United States of America. All rights reserved.
##CAS REGISTRY NO=827-52-1
##$NIST MASS SPEC NO=228262
##MOLFORM=C12 H16
##MW=160
##$NIST SOURCE=MSDC
##XUNITS=M/Z
##YUNITS=RELATIVE INTENSITY
##XFACTOR=1
##YFACTOR=1
##FIRSTX=14
##LASTX=162
##FIRSTY=10
##MAXX=162
##MINX=14
##MAXY=9999
##MINY=10
##NPOINTS=94
##PEAK TABLE=(XY..XY)
14,10 15,30 26,50 27,539
28,50 29,329 37,10 38,60
39,789 40,80 41,1049 42,70
43,60 44,20 50,199 51,579
52,179 53,279 54,289 55,299
56,70 57,60 58,20 61,10
62,60 63,279 64,109 65,559
66,60 67,689 68,239 69,519
70,30 71,30 73,10 74,70
75,80 76,99 77,749 78,889
79,289 80,50 81,159 82,559
83,50 86,20 87,40 88,10
89,159 90,60 91,5169 92,2149
93,189 94,10 95,10 98,10
99,10 101,30 102,159 103,689
104,9999 105,1409 106,119 107,10
111,20 113,20 114,20 115,1039
116,349 117,7999 118,1519 119,169
120,10 126,10 127,80 128,179
129,229 130,119 131,829 132,279
133,30 135,10 137,10 141,20
142,10 143,30 144,10 145,139
146,20 158,10 159,80 160,6979
161,939 162,60
##END=
