##TITLE=5-Amino-3-phenylpyrazole
##JCAMP-DX=4.24
##DATA TYPE=MASS SPECTRUM
##ORIGIN=NIST Mass Spectrometry Data Center
##OWNER=NIST Mass Spectrometry Data Center
Collection (C) 2014 copyright by the U.S. Secretary of Commerce
on behalf of the United States of America. All rights reserved.
##CAS REGISTRY NO=827-41-8
##$NIST MASS SPEC NO=342323
##MOLFORM=C9 H9 N3
##MW=159
##$NIST SOURCE=MSDC
##XUNITS=M/Z
##YUNITS=RELATIVE INTENSITY
##XFACTOR=1
##YFACTOR=1
##FIRSTX=11
##LASTX=161
##FIRSTY=20
##MAXX=161
##MINX=11
##MAXY=9999
##MINY=20
##NPOINTS=76
##PEAK TABLE=(XY..XY)
11,20 14,20 16,40 17,40
18,30 26,90 27,260 28,881
29,390 30,80 31,20 32,120
37,100 38,230 39,410 40,90
41,110 42,40 43,300 44,50
49,80 50,711 51,1181 52,581
53,140 54,100 55,60 56,90
57,80 61,110 62,290 63,530
65,300 67,50 73,100 74,430
75,440 76,731 77,2172 78,370
80,140 81,50 86,50 87,80
88,90 89,390 90,350 91,150
92,50 93,100 98,50 99,40
100,60 101,200 102,1341 103,1321
104,571 105,150 113,40 114,70
115,190 116,160 117,380 118,150
119,320 128,561 130,2722 131,711
132,160 133,20 142,180 143,210
156,30 159,9999 160,1051 161,60
##END=
