##TITLE=Hydrazine, (pentafluorophenyl)-
##JCAMP-DX=4.24
##DATA TYPE=MASS SPECTRUM
##ORIGIN=Japan AIST/NIMC Database- Spectrum MS-NW-3480
##OWNER=NIST Mass Spectrometry Data Center
Collection (C) 2014 copyright by the U.S. Secretary of Commerce
on behalf of the United States of America. All rights reserved.
##CAS REGISTRY NO=828-73-9
##$NIST MASS SPEC NO=231258
##MOLFORM=C6 H3 F5 N2
##MW=198
##$NIST SOURCE=MSDC
##XUNITS=M/Z
##YUNITS=RELATIVE INTENSITY
##XFACTOR=1
##YFACTOR=1
##FIRSTX=14
##LASTX=200
##FIRSTY=50
##MAXX=200
##MINX=14
##MAXY=9999
##MINY=10
##NPOINTS=128
##PEAK TABLE=(XY..XY)
14,50 15,20 16,129 17,99
18,149 27,10 28,439 29,1049
30,509 31,1299 32,10 36,50
37,30 38,10 42,10 43,10
44,80 46,99 47,10 48,20
50,20 51,169 55,219 56,70
57,30 58,30 60,30 61,50
62,90 63,20 64,10 66,10
67,30 68,99 69,1149 70,169
71,10 74,359 75,389 76,70
79,469 80,169 81,269 82,179
83,20 84,30 86,339 87,60
88,10 89,129 90,10 91,30
92,10 93,1029 94,119 95,20
98,529 99,1479 100,309 101,60
102,10 105,439 106,139 107,20
108,70 110,60 111,119 112,119
113,179 114,30 117,1539 118,269
119,349 120,30 121,30 124,329
125,40 128,10 129,149 130,90
131,909 132,319 133,40 134,10
136,369 137,489 138,40 139,20
143,40 144,40 145,10 147,10
148,299 149,319 150,239 151,139
152,129 153,10 155,7029 156,479
157,20 158,20 159,70 160,10
162,609 163,149 164,20 165,20
166,10 167,389 168,1519 169,119
170,10 171,60 177,30 178,20
179,159 180,60 181,489 182,5059
183,1209 184,80 195,80 196,179
197,339 198,9999 199,749 200,20
##END=
