##TITLE=3-Bromo-2,4,6-trimethylaniline
##JCAMP-DX=4.24
##DATA TYPE=MASS SPECTRUM
##ORIGIN=NIST Mass Spectrometry Data Center
##OWNER=NIST Mass Spectrometry Data Center
Collection (C) 2014 copyright by the U.S. Secretary of Commerce
on behalf of the United States of America. All rights reserved.
##CAS REGISTRY NO=82842-52-2
##$NIST MASS SPEC NO=342932
##MOLFORM=C9 H12 Br N
##MW=213
##$NIST SOURCE=MSDC
##XUNITS=M/Z
##YUNITS=RELATIVE INTENSITY
##XFACTOR=1
##YFACTOR=1
##FIRSTX=12
##LASTX=217
##FIRSTY=40
##MAXX=217
##MINX=12
##MAXY=9999
##MINY=10
##NPOINTS=99
##PEAK TABLE=(XY..XY)
12,40 14,20 15,801 16,10
17,170 18,230 26,330 27,2252
28,1812 29,420 30,520 37,170
38,751 39,3673 40,591 41,1041
42,1391 43,140 44,80 46,70
47,40 50,931 51,2232 52,1631
53,1471 54,1011 55,180 56,90
57,60 59,410 61,220 62,561
63,1551 65,3053 67,691 68,170
73,50 74,360 75,440 76,470
77,2202 78,951 79,1431 80,591
81,170 82,120 83,30 85,50
86,110 87,130 88,110 89,671
90,440 91,3053 92,671 93,681
94,300 95,70 98,50 99,30
100,40 102,330 103,510 104,530
105,771 106,1071 107,821 113,20
115,1561 116,641 117,1722 118,1832
119,1621 120,150 128,20 130,460
131,300 132,1581 134,9999 135,1031
136,40 172,20 173,40 174,30
175,20 185,30 186,50 187,20
188,40 198,2332 200,2222 201,210
210,20 212,2973 213,9238 214,3944
215,9118 216,921 217,30
##END=
