##TITLE=2',4'-Dimethoxyacetophenone
##JCAMP-DX=4.24
##DATA TYPE=MASS SPECTRUM
##ORIGIN=NIST Mass Spectrometry Data Center
##OWNER=NIST Mass Spectrometry Data Center
Collection (C) 2014 copyright by the U.S. Secretary of Commerce
on behalf of the United States of America. All rights reserved.
##CAS REGISTRY NO=829-20-9
##$NIST MASS SPEC NO=352818
##MOLFORM=C10 H12 O3
##MW=180
##$NIST SOURCE=MSDC
##XUNITS=M/Z
##YUNITS=RELATIVE INTENSITY
##XFACTOR=1
##YFACTOR=1
##FIRSTX=14
##LASTX=182
##FIRSTY=10
##MAXX=182
##MINX=14
##MAXY=9999
##MINY=10
##NPOINTS=91
##PEAK TABLE=(XY..XY)
14,10 15,110 26,10 27,30
28,30 29,50 30,10 31,10
37,30 38,80 39,190 40,20
41,60 42,50 43,781 44,20
45,10 49,20 50,210 51,510
52,130 53,210 54,20 55,50
56,10 59,60 61,60 62,210
63,591 64,300 65,280 66,160
67,30 68,10 69,120 73,20
74,100 75,100 76,120 77,881
78,240 79,641 80,60 81,20
82,20 85,10 86,10 87,10
88,10 89,50 90,20 91,210
92,480 93,110 94,210 95,50
103,20 104,20 105,130 106,140
107,981 108,110 109,180 110,10
117,10 118,10 119,60 120,50
121,140 122,1341 123,110 124,10
132,10 133,30 134,130 135,530
137,240 138,20 150,581 151,90
152,10 161,20 162,40 163,340
165,9999 166,1001 167,110 168,10
180,1832 181,200 182,20
##END=
