##TITLE=Carbamic chloride, diphenyl-
##JCAMP-DX=4.24
##DATA TYPE=MASS SPECTRUM
##ORIGIN=Japan AIST/NIMC Database- Spectrum MS-NW-2771
##OWNER=NIST Mass Spectrometry Data Center
Collection (C) 2014 copyright by the U.S. Secretary of Commerce
on behalf of the United States of America. All rights reserved.
##CAS REGISTRY NO=83-01-2
##$NIST MASS SPEC NO=231664
##MOLFORM=C13 H10 Cl N O
##MW=231
##$NIST SOURCE=MSDC
##XUNITS=M/Z
##YUNITS=RELATIVE INTENSITY
##XFACTOR=1
##YFACTOR=1
##FIRSTX=26
##LASTX=235
##FIRSTY=30
##MAXX=235
##MINX=26
##MAXY=9999
##MINY=10
##NPOINTS=94
##PEAK TABLE=(XY..XY)
26,30 27,179 28,109 35,10
36,60 37,70 38,169 39,759
40,50 41,50 44,30 49,20
50,439 51,2249 52,179 53,10
57,10 61,30 62,90 63,319
64,289 65,619 66,90 69,20
70,30 73,20 74,129 75,129
76,189 77,3439 78,259 82,10
83,199 84,80 87,20 88,30
89,119 90,90 91,339 92,50
93,699 94,40 99,20 100,20
101,40 102,40 103,40 104,30
105,20 112,469 113,50 114,179
115,359 116,90 117,20 119,2389
120,199 121,10 126,20 127,40
128,119 129,20 138,339 139,299
140,339 141,179 142,40 151,70
152,189 153,99 154,30 164,20
165,40 166,769 167,4569 168,6679
169,1449 170,129 177,30 178,449
179,70 180,10 194,10 195,40
196,9999 197,1499 198,129 203,10
230,20 231,6619 232,969 233,2179
234,319 235,20
##END=
