##TITLE=Ampyrone
##JCAMP-DX=4.24
##DATA TYPE=MASS SPECTRUM
##ORIGIN=Japan AIST/NIMC Database- Spectrum MS-NW-2902
##OWNER=NIST Mass Spectrometry Data Center
Collection (C) 2014 copyright by the U.S. Secretary of Commerce
on behalf of the United States of America. All rights reserved.
##CAS REGISTRY NO=83-07-8
##$NIST MASS SPEC NO=231651
##MOLFORM=C11 H13 N3 O
##MW=203
##$NIST SOURCE=MSDC
##XUNITS=M/Z
##YUNITS=RELATIVE INTENSITY
##XFACTOR=1
##YFACTOR=1
##FIRSTX=14
##LASTX=205
##FIRSTY=10
##MAXX=205
##MINX=14
##MAXY=9999
##MINY=10
##NPOINTS=90
##PEAK TABLE=(XY..XY)
14,10 15,1069 16,10 17,10
18,40 26,60 27,229 28,265
29,259 30,159 31,10 36,60
37,50 38,159 39,269 40,90
41,199 42,4189 43,199 44,20
45,20 50,129 51,559 52,159
53,99 54,429 55,279 56,9999
57,6439 58,249 61,10 62,30
63,159 64,229 65,209 66,80
67,60 68,30 69,109 70,60
71,20 74,20 75,30 76,50
77,1039 78,90 79,10 81,10
82,70 83,2309 84,7129 85,359
86,10 90,20 91,249 92,139
93,459 94,70 97,20 98,10
99,10 101,10 103,20 104,30
105,50 106,40 109,70 110,30
111,20 117,10 118,40 119,169
120,119 121,40 130,10 131,10
132,10 133,10 145,20 147,90
148,40 173,10 174,20 175,10
188,10 201,20 202,329 203,4219
204,539 205,50
##END=
