##TITLE=Acetamide, N-antipyrinyl-
##JCAMP-DX=4.24
##DATA TYPE=MASS SPECTRUM
##ORIGIN=Japan AIST/NIMC Database- Spectrum MS-NW-6153
##OWNER=NIST Mass Spectrometry Data Center
Collection (C) 2014 copyright by the U.S. Secretary of Commerce
on behalf of the United States of America. All rights reserved.
##CAS REGISTRY NO=83-15-8
##$NIST MASS SPEC NO=234653
##MOLFORM=C13 H15 N3 O2
##MW=245
##$NIST SOURCE=MSDC
##XUNITS=M/Z
##YUNITS=RELATIVE INTENSITY
##XFACTOR=1
##YFACTOR=1
##FIRSTX=13
##LASTX=248
##FIRSTY=10
##MAXX=248
##MINX=13
##MAXY=9999
##MINY=10
##NPOINTS=150
##PEAK TABLE=(XY..XY)
13,10 14,40 15,759 16,20
26,60 27,239 28,329 29,239
30,219 35,20 36,109 37,30
38,99 39,199 40,80 41,159
42,929 43,1669 44,99 45,10
46,10 47,20 49,129 50,99
51,379 52,159 53,90 54,309
55,309 56,9999 57,2879 58,249
61,10 62,30 63,119 64,269
65,219 66,60 67,99 68,70
69,80 70,70 71,40 72,20
73,20 74,30 75,30 76,80
77,709 78,119 79,30 80,30
81,50 82,129 83,3019 84,6129
85,329 86,479 87,30 90,30
91,369 92,149 93,379 94,70
95,20 96,20 97,30 98,30
99,20 100,40 101,129 103,90
104,80 105,70 106,70 107,20
108,30 109,119 110,70 111,50
115,10 117,40 118,99 119,229
120,139 121,50 123,10 124,30
125,20 126,129 127,30 128,20
129,20 130,30 131,30 132,40
133,20 134,20 135,20 136,20
137,99 143,20 144,30 145,30
146,20 147,60 148,60 149,40
152,30 153,20 154,10 157,10
158,20 159,30 160,20 168,30
169,20 171,10 172,10 173,20
174,40 175,20 176,20 184,30
185,20 186,10 187,10 188,50
196,20 198,10 200,20 201,30
202,769 203,2489 204,309 205,30
215,20 216,20 225,10 226,30
227,30 228,20 229,90 230,139
231,30 244,50 245,5819 246,959
247,99 248,20
##END=
