##TITLE=Phenindione
##JCAMP-DX=4.24
##DATA TYPE=MASS SPECTRUM
##ORIGIN=Japan AIST/NIMC Database- Spectrum MS-NW-7232
##OWNER=NIST Mass Spectrometry Data Center
Collection (C) 2014 copyright by the U.S. Secretary of Commerce
on behalf of the United States of America. All rights reserved.
##CAS REGISTRY NO=83-12-5
##$NIST MASS SPEC NO=236131
##MOLFORM=C15 H10 O2
##MW=222
##$NIST SOURCE=MSDC
##XUNITS=M/Z
##YUNITS=RELATIVE INTENSITY
##XFACTOR=1
##YFACTOR=1
##FIRSTX=18
##LASTX=225
##FIRSTY=40
##MAXX=225
##MINX=18
##MAXY=9999
##MINY=10
##NPOINTS=98
##PEAK TABLE=(XY..XY)
18,40 27,30 28,20 37,20
38,60 39,219 40,30 49,10
50,419 51,249 52,30 53,20
61,30 62,149 63,389 64,129
65,40 69,129 70,50 73,20
74,159 75,209 76,1089 77,309
78,40 81,109 82,419 83,169
84,40 85,20 86,60 87,80
88,70 89,639 90,649 91,60
92,10 96,40 97,80 98,20
99,20 100,10 101,20 102,40
103,30 104,679 105,329 106,20
110,40 111,279 112,10 113,50
114,20 115,129 116,10 117,10
118,99 119,10 122,10 126,40
127,10 132,10 133,10 137,30
138,30 139,239 140,40 149,20
150,20 151,20 152,20 153,10
162,20 163,269 164,339 165,3779
166,829 167,80 168,10 169,10
176,40 177,99 178,30 181,40
192,10 193,419 194,989 195,149
196,20 205,20 207,20 210,10
220,20 221,289 222,9999 223,1649
224,169 225,10
##END=
