##TITLE=Pindone
##JCAMP-DX=4.24
##DATA TYPE=MASS SPECTRUM
##ORIGIN=NIST Mass Spectrometry Data Center, 1998.
##OWNER=NIST Mass Spectrometry Data Center
Collection (C) 2014 copyright by the U.S. Secretary of Commerce
on behalf of the United States of America. All rights reserved.
##CAS REGISTRY NO=83-26-1
##$NIST MASS SPEC NO=291184
##MOLFORM=C14 H14 O3
##MW=230
##$NIST SOURCE=MSDC
##XUNITS=M/Z
##YUNITS=RELATIVE INTENSITY
##XFACTOR=1
##YFACTOR=1
##FIRSTX=15
##LASTX=232
##FIRSTY=20
##MAXX=232
##MINX=15
##MAXY=9999
##MINY=10
##NPOINTS=145
##PEAK TABLE=(XY..XY)
15,20 26,10 27,150 29,430
30,10 31,10 37,10 38,40
39,610 40,70 41,1120 42,90
43,80 44,10 45,10 49,10
50,350 51,340 52,50 53,160
54,20 55,140 56,100 57,1210
58,70 59,20 61,30 62,210
63,760 64,100 65,110 66,60
67,50 68,10 69,350 70,30
71,10 72,10 73,20 74,220
75,280 76,570 77,1420 78,150
79,40 80,10 82,10 83,20
84,10 85,50 86,60 87,110
88,210 89,2600 90,370 91,100
92,30 93,50 94,10 97,10
98,40 99,40 100,90 101,340
102,90 103,60 104,180 105,2690
106,210 107,30 111,10 113,30
114,40 115,540 116,140 117,370
118,180 119,20 120,10 125,20
126,50 127,80 128,120 129,130
130,20 131,30 132,10 133,20
137,10 138,10 139,100 140,30
141,120 142,20 143,30 144,30
145,120 146,3380 147,370 148,30
150,10 151,20 152,40 153,30
154,10 155,20 156,10 157,30
158,10 159,50 160,10 161,10
165,30 166,10 167,10 168,20
169,40 170,10 171,30 173,9999
174,6169 175,790 176,70 177,10
181,10 183,20 187,80 188,100
189,20 194,10 196,10 197,180
198,30 199,10 202,80 203,10
211,20 212,10 213,10 214,10
215,120 216,20 230,1680 231,260
232,30
##END=
