##TITLE=Benzaldehyde, 2,6-dichloro-
##JCAMP-DX=4.24
##DATA TYPE=MASS SPECTRUM
##ORIGIN=Japan AIST/NIMC Database- Spectrum MS-NW-4768
##OWNER=NIST Mass Spectrometry Data Center
Collection (C) 2014 copyright by the U.S. Secretary of Commerce
on behalf of the United States of America. All rights reserved.
##CAS REGISTRY NO=83-38-5
##$NIST MASS SPEC NO=227841
##MOLFORM=C7 H4 Cl2 O
##MW=174
##$NIST SOURCE=MSDC
##XUNITS=M/Z
##YUNITS=RELATIVE INTENSITY
##XFACTOR=1
##YFACTOR=1
##FIRSTX=12
##LASTX=179
##FIRSTY=10
##MAXX=179
##MINX=12
##MAXY=9999
##MINY=10
##NPOINTS=89
##PEAK TABLE=(XY..XY)
12,10 17,10 18,30 25,20
26,50 27,40 28,99 29,449
35,70 36,209 37,419 38,209
39,80 43,50 44,20 47,50
48,50 49,299 50,1079 51,439
52,20 53,30 54,99 55,159
56,50 57,10 60,90 61,229
62,129 63,80 65,10 69,109
70,30 71,30 72,90 73,489
74,1829 75,3899 76,409 77,40
83,20 84,739 85,469 86,299
87,169 88,30 95,10 96,20
97,50 98,10 99,20 101,10
103,10 106,10 107,20 108,90
109,1229 110,1869 111,1839 112,689
113,519 114,30 118,10 119,50
120,20 121,40 122,10 123,60
125,20 137,10 138,419 139,50
140,149 141,20 144,30 145,2069
146,999 147,1409 148,619 149,279
150,109 172,20 173,9999 174,6139
175,6799 176,4029 177,1339 178,679
179,50
##END=
