##TITLE=2,4,6-Trihydroxybenzoic acid
##JCAMP-DX=4.24
##DATA TYPE=MASS SPECTRUM
##ORIGIN=Japan AIST/NIMC Database- Spectrum MS-NW-3179
##OWNER=NIST Mass Spectrometry Data Center
Collection (C) 2014 copyright by the U.S. Secretary of Commerce
on behalf of the United States of America. All rights reserved.
##CAS REGISTRY NO=83-30-7
##$NIST MASS SPEC NO=231422
##MOLFORM=C7 H6 O5
##MW=170
##$NIST SOURCE=MSDC
##XUNITS=M/Z
##YUNITS=RELATIVE INTENSITY
##XFACTOR=1
##YFACTOR=1
##FIRSTX=12
##LASTX=171
##FIRSTY=50
##MAXX=171
##MINX=12
##MAXY=9999
##MINY=10
##NPOINTS=87
##PEAK TABLE=(XY..XY)
12,50 13,10 14,80 15,80
16,129 17,70 18,329 19,10
22,50 25,40 26,159 27,379
28,449 29,359 30,10 31,40
34,10 36,40 37,159 38,299
39,659 40,169 41,499 42,979
43,909 44,4349 45,109 46,20
48,30 49,80 50,279 51,459
52,999 53,389 54,129 55,589
56,159 57,30 58,20 60,30
61,70 62,109 63,379 64,70
65,20 66,209 67,109 68,99
69,1869 70,99 71,129 72,10
73,10 77,50 78,109 79,219
80,759 81,109 82,40 83,60
84,559 85,1609 86,80 87,50
90,10 93,10 95,60 96,259
97,759 98,349 99,20 107,10
108,50 109,20 110,30 111,509
112,30 123,70 124,519 125,90
126,9999 127,669 128,90 152,489
153,60 170,299 171,20
##END=
