##TITLE=Stigmasterol
##JCAMP-DX=4.24
##DATA TYPE=MASS SPECTRUM
##ORIGIN=NIST Mass Spectrometry Data Center
##OWNER=NIST Mass Spectrometry Data Center
Collection (C) 2014 copyright by the U.S. Secretary of Commerce
on behalf of the United States of America. All rights reserved.
##CAS REGISTRY NO=83-48-7
##$NIST MASS SPEC NO=352610
##MOLFORM=C29 H48 O
##MW=412
##$NIST SOURCE=MSDC
##XUNITS=M/Z
##YUNITS=RELATIVE INTENSITY
##XFACTOR=1
##YFACTOR=1
##FIRSTX=15
##LASTX=414
##FIRSTY=40
##MAXX=414
##MINX=15
##MAXY=9999
##MINY=10
##NPOINTS=293
##PEAK TABLE=(XY..XY)
15,40 25,10 26,40 27,380
28,90 29,741 30,20 31,60
37,20 38,30 39,390 40,100
41,3503 42,250 43,4314 44,190
45,70 50,30 51,80 52,40
53,791 54,200 55,9999 56,571
57,1912 58,110 59,70 61,10
62,10 63,40 64,10 65,420
66,170 67,3423 68,520 69,6366
70,581 71,981 72,70 73,90
75,30 77,1451 78,340 79,3924
80,581 81,6386 82,1131 83,6926
84,921 85,651 86,50 87,20
89,30 91,4274 92,821 93,3843
94,911 95,3984 96,1111 97,3944
98,390 99,70 100,40 102,30
103,290 104,240 105,4274 106,811
107,3663 108,761 109,2492 110,991
111,550 112,100 113,30 114,50
115,510 116,250 117,1621 118,530
119,3003 120,1131 121,2172 122,791
123,2642 124,741 125,260 126,80
127,130 128,520 129,971 130,510
131,2232 132,671 133,4444 134,861
135,1782 136,280 137,1271 138,360
139,550 140,90 141,340 142,310
143,1581 144,701 145,3974 146,891
147,3063 148,540 149,1021 150,180
151,1561 152,250 153,100 154,80
155,320 156,250 157,1251 158,901
159,4184 160,871 161,1752 162,400
163,1361 164,270 165,240 166,370
167,110 168,70 169,300 170,140
171,791 172,270 173,1251 174,350
175,881 176,350 177,601 178,220
179,80 180,100 181,70 182,50
183,270 184,110 185,781 186,270
187,741 188,230 189,440 190,110
191,240 192,50 193,40 194,10
195,30 196,30 197,360 198,130
199,871 200,240 201,420 202,110
203,250 204,60 205,150 206,30
209,30 210,20 211,410 212,190
213,1251 214,300 215,701 216,170
217,350 218,90 219,70 220,20
223,20 224,10 225,250 226,90
227,330 228,210 229,540 230,230
231,420 232,120 233,70 234,30
235,10 237,20 238,20 239,340
240,170 241,390 242,120 243,240
244,70 245,140 246,100 247,40
248,10 251,20 253,490 254,250
255,2402 256,500 257,300 258,490
259,130 260,40 266,10 267,450
268,120 269,110 270,450 271,2222
272,1251 273,591 274,100 275,10
281,260 282,310 283,340 284,100
285,480 286,150 287,30 288,10
289,10 293,10 294,10 295,80
296,80 297,30 298,20 299,460
300,1471 301,440 302,90 303,10
309,150 310,50 311,30 312,30
313,120 314,430 315,110 316,20
323,10 326,10 327,150 328,60
329,20 335,10 336,10 339,20
340,20 342,10 349,10 350,10
351,911 352,290 353,60 354,20
365,50 366,20 367,10 368,20
369,470 370,160 371,20 379,360
380,120 381,30 383,40 384,10
392,10 393,10 394,240 395,90
396,30 397,290 398,80 399,20
410,20 411,10 412,2833 413,921
414,140
##END=
