##TITLE=.beta.-Sitosterol
##JCAMP-DX=4.24
##DATA TYPE=MASS SPECTRUM
##ORIGIN=Div. of Experiment Therapeutics WRAIR, WRAMC, Washington DC 20307
##OWNER=NIST Mass Spectrometry Data Center
Collection (C) 2014 copyright by the U.S. Secretary of Commerce
on behalf of the United States of America. All rights reserved.
##CAS REGISTRY NO=83-46-5
##$NIST MASS SPEC NO=251915
##MOLFORM=C29 H50 O
##MW=414
##$NIST SOURCE=MSDC
##XUNITS=M/Z
##YUNITS=RELATIVE INTENSITY
##XFACTOR=1
##YFACTOR=1
##FIRSTX=41
##LASTX=416
##FIRSTY=3318
##MAXX=416
##MINX=41
##MAXY=9999
##MINY=46
##NPOINTS=184
##PEAK TABLE=(XY..XY)
41,3318 43,9999 44,353 45,287
49,46 51,96 53,671 55,3555
57,3111 59,1015 65,237 67,1876
69,2396 70,89 71,1567 72,121
73,110 77,837 78,93 79,2337
81,2766 83,1109 84,256 85,1150
86,111 87,48 88,49 91,1865
92,133 93,1922 95,2711 96,104
97,1004 98,50 99,480 101,238
103,208 105,2481 107,3000 108,557
109,1094 110,239 111,524 113,332
115,377 117,895 118,118 119,1546
120,796 121,1237 122,333 123,681
124,393 125,362 127,502 128,81
129,615 131,1311 133,1791 134,318
135,1213 136,276 137,381 138,172
139,185 141,282 143,1076 145,1948
146,252 147,1120 149,972 151,441
152,150 155,304 157,715 158,354
159,1602 160,227 161,1796 163,1170
164,131 165,225 167,103 169,244
171,603 173,829 174,245 175,399
176,63 177,461 178,548 179,194
181,47 183,165 185,519 186,60
187,665 188,46 189,423 191,446
197,217 199,569 200,48 201,385
203,231 205,316 207,50 211,193
213,1370 214,239 215,437 217,247
219,52 221,71 225,48 227,279
228,305 229,374 231,857 232,168
233,196 234,105 235,51 239,195
241,263 243,131 245,122 246,169
247,119 253,158 255,908 256,186
257,227 259,111 260,53 261,51
262,73 269,149 271,392 272,123
273,847 274,157 275,333 277,56
283,236 285,102 287,70 288,99
289,176 298,66 299,102 300,99
301,178 302,383 303,1085 304,196
313,54 314,221 315,193 316,203
317,51 318,49 328,158 329,1028
330,315 341,103 354,223 355,61
357,126 359,50 373,75 381,627
382,229 386,60 387,83 396,1033
397,410 399,817 400,320 412,288
413,101 414,2733 415,847 416,152
##END=
