##TITLE=Methylprednisolone
##JCAMP-DX=4.24
##DATA TYPE=MASS SPECTRUM
##ORIGIN=AAFS Toxicology Section MS DB Committee, U. Alberta, Canada
##OWNER=NIST Mass Spectrometry Data Center
Collection (C) 2014 copyright by the U.S. Secretary of Commerce
on behalf of the United States of America. All rights reserved.
##CAS REGISTRY NO=83-43-2
##$NIST MASS SPEC NO=247062
##MOLFORM=C22 H30 O5
##MW=374
##$NIST SOURCE=MSDC
##XUNITS=M/Z
##YUNITS=RELATIVE INTENSITY
##XFACTOR=1
##YFACTOR=1
##FIRSTX=51
##LASTX=375
##FIRSTY=10
##MAXX=375
##MINX=51
##MAXY=9999
##MINY=10
##NPOINTS=149
##PEAK TABLE=(XY..XY)
51,10 52,80 53,300 65,430
66,140 67,210 77,1271 78,580
79,1351 80,50 89,30 91,4434
92,420 93,400 103,450 104,80
105,1471 106,540 107,1121 108,150
115,850 116,230 117,750 118,130
119,530 120,170 121,2542 122,150
123,60 128,630 130,20 131,960
132,230 133,860 135,6165 136,9999
137,730 141,180 142,240 143,140
144,180 145,760 146,270 147,680
148,370 150,110 153,50 155,80
156,30 157,180 158,200 159,790
160,360 161,1341 162,180 163,80
164,80 165,260 166,60 169,50
170,50 171,140 172,140 173,270
174,220 175,250 176,10 177,30
178,80 179,180 180,120 181,80
182,10 183,110 184,20 185,310
186,80 187,190 188,90 189,80
190,80 191,20 193,30 195,220
196,50 197,270 198,170 199,30
200,80 201,140 203,120 204,100
206,30 209,210 210,40 211,250
212,150 214,80 215,90 219,70
221,140 222,20 223,180 224,170
225,260 226,40 227,70 229,10
235,120 237,280 238,170 239,710
240,200 241,160 242,10 250,80
252,180 253,160 254,300 255,60
263,170 264,170 265,110 267,90
268,80 269,110 271,110 277,90
278,80 279,410 280,130 281,230
282,70 285,10 296,70 297,400
298,110 299,10 309,80 314,280
315,300 316,80 325,70 327,160
338,80 344,70 356,90 374,300
375,90
##END=
