##TITLE=1,5-Naphthalenediol
##JCAMP-DX=4.24
##DATA TYPE=MASS SPECTRUM
##ORIGIN=RADIAN CORP
##OWNER=NIST Mass Spectrometry Data Center
Collection (C) 2014 copyright by the U.S. Secretary of Commerce
on behalf of the United States of America. All rights reserved.
##CAS REGISTRY NO=83-56-7
##$NIST MASS SPEC NO=73675
##MOLFORM=C10 H8 O2
##MW=160
##$NIST SOURCE=MSDC
##XUNITS=M/Z
##YUNITS=RELATIVE INTENSITY
##XFACTOR=1
##YFACTOR=1
##FIRSTX=27
##LASTX=161
##FIRSTY=30
##MAXX=161
##MINX=27
##MAXY=9999
##MINY=20
##NPOINTS=48
##PEAK TABLE=(XY..XY)
27,30 29,110 39,300 41,130
43,130 44,80 45,20 50,360
51,1150 52,270 53,230 55,340
57,310 60,310 62,180 63,420
64,50 65,290 66,120 69,150
71,90 74,380 75,610 76,680
77,2970 78,810 79,100 80,510
84,20 87,210 88,60 101,140
102,1080 103,2170 104,740 105,150
113,110 114,90 129,120 131,9230
132,1630 133,250 141,70 142,130
143,150 159,270 160,9999 161,1090
##END=
