##TITLE=4(1H)-Quinolinone, 1-methyl-
##JCAMP-DX=4.24
##DATA TYPE=MASS SPECTRUM
##OWNER=NIST Mass Spectrometry Data Center
Collection (C) 2014 copyright by the U.S. Secretary of Commerce
on behalf of the United States of America. All rights reserved.
##CAS REGISTRY NO=83-54-5
##$NIST MASS SPEC NO=5604
##MOLFORM=C10 H9 N O
##MW=159
##$NIST SOURCE=MSDC
##XUNITS=M/Z
##YUNITS=RELATIVE INTENSITY
##XFACTOR=1
##YFACTOR=1
##FIRSTX=41
##LASTX=160
##FIRSTY=204
##MAXX=160
##MINX=41
##MAXY=9999
##MINY=82
##NPOINTS=40
##PEAK TABLE=(XY..XY)
41,204 42,449 50,1428 51,1632
52,408 53,204 55,204 57,204
61,204 62,653 63,1673 64,653
65,612 74,612 75,775 76,816
77,2449 78,490 79,245 87,82
88,245 89,1632 90,1143 91,122
101,204 102,245 103,735 104,326
114,163 115,245 116,1143 117,204
128,245 129,612 130,5224 131,8367
132,1143 158,490 159,9999 160,1143
##END=
