##TITLE=Ibogaine
##JCAMP-DX=4.24
##DATA TYPE=MASS SPECTRUM
##ORIGIN=DB-4-1
##OWNER=NIST Mass Spectrometry Data Center
Collection (C) 2014 copyright by the U.S. Secretary of Commerce
on behalf of the United States of America. All rights reserved.
##CAS REGISTRY NO=83-74-9
##$NIST MASS SPEC NO=14682
##MOLFORM=C20 H26 N2 O
##MW=310
##$NIST SOURCE=MSDC
##XUNITS=M/Z
##YUNITS=RELATIVE INTENSITY
##XFACTOR=1
##YFACTOR=1
##FIRSTX=41
##LASTX=312
##FIRSTY=1802
##MAXX=312
##MINX=41
##MAXY=9999
##MINY=100
##NPOINTS=204
##PEAK TABLE=(XY..XY)
41,1802 42,1301 43,701 44,901
45,400 46,200 50,100 51,200
52,100 53,300 54,200 55,1101
56,300 57,701 58,100 59,100
60,100 62,100 63,200 64,100
65,200 66,100 67,701 68,400
69,701 70,400 71,400 72,100
73,200 74,100 75,100 76,100
77,500 78,200 79,300 80,300
81,500 82,400 83,300 84,200
85,200 87,100 88,100 89,200
90,100 91,200 92,100 93,200
94,701 95,300 96,300 97,300
98,500 99,200 101,100 102,200
103,200 104,100 105,200 106,200
107,300 108,500 109,300 110,200
111,300 112,200 113,200 114,200
115,500 116,200 117,200 118,100
119,100 120,200 121,500 122,3803
124,1101 125,200 126,100 127,200
128,300 129,200 130,300 131,200
132,100 133,200 134,200 135,7307
136,9999 137,1301 138,100 139,100
140,400 141,300 142,400 143,701
144,400 145,100 146,200 147,300
148,1301 149,4704 150,500 151,100
152,100 153,100 154,701 155,1802
156,701 157,300 158,400 159,100
160,400 161,200 167,701 168,701
169,300 170,300 171,300 172,200
173,300 174,400 175,100 178,100
179,100 180,400 181,400 182,300
183,300 184,300 185,300 186,1601
187,500 188,500 189,200 192,100
193,100 194,300 195,400 196,701
197,400 198,200 199,701 200,300
201,200 202,100 203,100 204,100
205,100 206,200 207,200 208,200
209,300 210,400 211,500 212,400
213,200 214,100 215,100 217,100
218,100 219,100 220,100 221,100
222,100 223,200 224,500 225,2903
226,500 233,100 234,100 235,100
236,100 237,200 238,100 239,200
240,100 241,100 248,100 249,100
250,100 251,100 252,200 253,100
254,100 263,100 264,400 265,300
266,200 267,500 268,200 279,200
280,1101 281,400 282,100 293,100
294,100 295,1101 296,200 308,200
309,901 310,5305 311,1101 312,100
##END=
