##TITLE=Iodoquinol
##JCAMP-DX=4.24
##DATA TYPE=MASS SPECTRUM
##ORIGIN=Japan AIST/NIMC Database- Spectrum MS-NW-7018
##OWNER=NIST Mass Spectrometry Data Center
Collection (C) 2014 copyright by the U.S. Secretary of Commerce
on behalf of the United States of America. All rights reserved.
##CAS REGISTRY NO=83-73-8
##$NIST MASS SPEC NO=236648
##MOLFORM=C9 H5 I2 N O
##MW=397
##$NIST SOURCE=MSDC
##XUNITS=M/Z
##YUNITS=RELATIVE INTENSITY
##XFACTOR=1
##YFACTOR=1
##FIRSTX=17
##LASTX=399
##FIRSTY=60
##MAXX=399
##MINX=17
##MAXY=9999
##MINY=10
##NPOINTS=149
##PEAK TABLE=(XY..XY)
17,60 18,239 26,20 27,30
28,29 29,20 36,10 37,139
38,159 39,219 40,40 41,70
42,10 43,30 44,30 48,10
49,50 50,189 51,129 52,80
53,99 54,20 55,20 56,30
57,469 58,60 60,40 61,359
62,849 63,479 64,189 65,109
66,30 67,20 69,10 71,20
72,20 73,60 74,179 75,149
76,139 77,70 78,20 79,10
81,10 82,10 83,10 84,30
85,139 86,329 87,659 88,1049
89,259 90,50 91,30 92,10
93,10 95,10 96,10 97,20
98,50 99,50 100,20 102,20
103,10 110,10 111,30 112,30
113,50 114,739 115,2849 116,399
117,40 118,20 119,30 120,99
121,469 122,10 123,30 124,20
125,10 126,10 127,369 128,239
134,10 135,179 136,10 137,10
138,10 139,10 141,10 142,30
143,989 144,129 145,30 149,30
150,80 151,20 152,30 153,10
163,10 164,40 165,20 166,70
167,10 176,20 177,10 178,20
179,10 180,10 181,10 183,10
184,239 185,30 187,10 188,30
189,20 190,10 198,349 199,50
200,10 211,10 212,10 213,20
214,20 215,20 217,10 240,10
241,179 242,2039 243,219 244,10
254,40 269,109 270,949 271,369
272,30 277,10 305,199 306,20
307,70 308,10 368,60 369,309
370,30 396,30 397,9999 398,1049
399,80
##END=
