##TITLE=1,5-Dibenzoylnaphthalene
##JCAMP-DX=4.24
##DATA TYPE=MASS SPECTRUM
##ORIGIN=NIST Mass Spectrometry Data Center, 1994
##OWNER=NIST Mass Spectrometry Data Center
Collection (C) 2014 copyright by the U.S. Secretary of Commerce
on behalf of the United States of America. All rights reserved.
##CAS REGISTRY NO=83-80-7
##$NIST MASS SPEC NO=133820
##MOLFORM=C24 H16 O2
##MW=336
##$NIST SOURCE=MSDC
##XUNITS=M/Z
##YUNITS=RELATIVE INTENSITY
##XFACTOR=1
##YFACTOR=1
##FIRSTX=14
##LASTX=339
##FIRSTY=5
##MAXX=339
##MINX=14
##MAXY=9999
##MINY=4
##NPOINTS=77
##PEAK TABLE=(XY..XY)
14,5 27,36 32,4 50,114
51,571 52,34 63,45 74,76
75,107 77,2698 78,185 87,52
88,38 98,31 99,59 100,83
101,122 105,2637 106,195 115,56
125,87 126,537 127,83 129,220
138,24 150,38 151,34 152,25
153,22 154,94 163,23 174,38
175,39 176,62 199,54 200,324
201,426 202,2521 203,685 204,80
213,50 214,157 215,145 216,26
229,75 230,600 231,7749 232,1530
233,163 257,42 259,4993 260,921
261,103 274,24 276,70 277,39
278,22 279,24 289,94 290,53
291,40 302,32 305,45 306,23
307,160 308,116 317,28 318,100
319,236 320,59 321,28 333,24
335,1173 336,9999 337,2491 338,348
339,44
##END=
