##TITLE=Orphenadrine
##JCAMP-DX=4.24
##DATA TYPE=MASS SPECTRUM
##ORIGIN=Tox21 Consortium/NIST Mass Spectrometry Data Center, 2012
##OWNER=NIST Mass Spectrometry Data Center
Collection (C) 2014 copyright by the U.S. Secretary of Commerce
on behalf of the United States of America. All rights reserved.
##CAS REGISTRY NO=83-98-7
##$NIST MASS SPEC NO=408590
##MOLFORM=C18 H23 N O
##MW=269
##$NIST SOURCE=MSDC
##XUNITS=M/Z
##YUNITS=RELATIVE INTENSITY
##XFACTOR=1
##YFACTOR=1
##FIRSTX=15
##LASTX=241
##FIRSTY=10
##MAXX=241
##MINX=15
##MAXY=9999
##MINY=10
##NPOINTS=92
##PEAK TABLE=(XY..XY)
15,10 27,10 28,20 29,30
30,90 39,40 40,10 41,30
42,320 43,100 44,160 45,510
46,180 50,20 51,90 52,20
53,30 54,10 55,10 56,140
57,150 58,9999 59,380 62,10
63,60 64,20 65,110 66,10
70,50 71,50 72,120 73,1922
74,170 75,20 76,40 77,210
78,50 79,20 82,20 86,30
87,10 88,50 89,110 90,30
91,160 92,20 101,10 102,40
103,60 104,30 105,60 106,10
113,10 114,10 115,140 116,20
119,50 120,10 126,20 127,40
128,60 129,20 138,10 139,60
140,10 141,70 142,10 146,10
150,20 151,60 152,180 153,90
154,20 160,10 163,50 164,70
165,1161 166,661 167,120 168,10
176,70 177,60 178,410 179,360
180,170 181,320 182,70 183,10
195,20 196,40 197,20 241,10
##END=
