##TITLE=Acetic acid, 4-nitrophenyl ester
##JCAMP-DX=4.24
##DATA TYPE=MASS SPECTRUM
##ORIGIN=Japan AIST/NIMC Database- Spectrum MS-NW-3587
##OWNER=NIST Mass Spectrometry Data Center
Collection (C) 2014 copyright by the U.S. Secretary of Commerce
on behalf of the United States of America. All rights reserved.
##CAS REGISTRY NO=830-03-5
##$NIST MASS SPEC NO=231783
##MOLFORM=C8 H7 N O4
##MW=181
##$NIST SOURCE=MSDC
##XUNITS=M/Z
##YUNITS=RELATIVE INTENSITY
##XFACTOR=1
##YFACTOR=1
##FIRSTX=14
##LASTX=182
##FIRSTY=60
##MAXX=182
##MINX=14
##MAXY=9999
##MINY=10
##NPOINTS=52
##PEAK TABLE=(XY..XY)
14,60 15,369 26,60 27,40
28,99 29,20 30,249 37,50
38,229 39,369 40,10 41,10
42,179 43,9999 44,219 45,20
49,10 50,159 51,80 52,60
53,70 54,30 55,10 61,50
62,139 63,459 64,269 65,669
66,40 68,10 73,10 74,70
75,70 76,60 77,20 79,10
80,10 81,189 82,10 92,50
93,389 94,30 107,30 109,609
110,40 122,40 123,259 124,20
139,869 140,60 181,389 182,40
##END=
