##TITLE=Acetic acid, dichloro-, heptyl ester
##JCAMP-DX=4.24
##DATA TYPE=MASS SPECTRUM
##ORIGIN=V.G.Zaikin, Petrochem. Synth. Inst., Moscow
##OWNER=NIST Mass Spectrometry Data Center
Collection (C) 2014 copyright by the U.S. Secretary of Commerce
on behalf of the United States of America. All rights reserved.
##CAS REGISTRY NO=83004-97-1
##$NIST MASS SPEC NO=280485
##MOLFORM=C9 H16 Cl2 O2
##MW=226
##$NIST SOURCE=MSDC
##XUNITS=M/Z
##YUNITS=RELATIVE INTENSITY
##XFACTOR=1
##YFACTOR=1
##FIRSTX=26
##LASTX=113
##FIRSTY=210
##MAXX=113
##MINX=26
##MAXY=9999
##MINY=60
##NPOINTS=53
##PEAK TABLE=(XY..XY)
26,210 27,1381 28,240 29,2262
30,60 31,70 35,60 36,390
38,270 39,1351 40,350 41,5185
42,2252 43,5285 44,1021 45,110
47,130 48,350 49,110 50,220
51,180 52,110 53,390 54,460
55,3253 56,4494 57,9999 58,420
59,80 65,110 67,190 68,771
69,2222 70,4034 71,480 72,70
73,70 75,60 76,681 77,100
78,210 79,60 81,130 82,80
83,1511 84,110 85,851 86,60
87,90 97,150 98,561 111,150
113,120
##END=
