##TITLE=Bromoacetic acid, 3-methylbutyl ester
##JCAMP-DX=4.24
##DATA TYPE=MASS SPECTRUM
##ORIGIN=V.Zaikin,Topchiev Inst.Petrochem.Synth.,Moscow
##OWNER=NIST Mass Spectrometry Data Center
Collection (C) 2014 copyright by the U.S. Secretary of Commerce
on behalf of the United States of America. All rights reserved.
##CAS REGISTRY NO=83004-92-6
##$NIST MASS SPEC NO=282363
##MOLFORM=C7 H13 Br O2
##MW=208
##$NIST SOURCE=MSDC
##XUNITS=M/Z
##YUNITS=RELATIVE INTENSITY
##XFACTOR=1
##YFACTOR=1
##FIRSTX=26
##LASTX=168
##FIRSTY=90
##MAXX=168
##MINX=26
##MAXY=9999
##MINY=10
##NPOINTS=68
##PEAK TABLE=(XY..XY)
26,90 27,450 28,160 29,601
30,20 31,60 35,20 36,170
37,20 38,50 39,460 40,90
41,1291 42,1011 43,2582 44,130
45,100 49,20 50,110 54,80
55,3853 56,320 57,641 58,40
59,20 60,40 67,30 68,20
69,611 70,9999 71,991 72,200
73,70 75,10 81,30 82,50
83,90 85,50 86,20 87,110
91,10 92,30 93,520 94,100
95,510 96,60 107,30 109,30
115,110 120,80 121,1692 122,120
123,1702 124,40 129,70 138,160
139,400 140,160 141,370 151,120
152,80 153,140 154,80 155,20
165,260 166,110 167,270 168,100
##END=
