##TITLE=Dichloroacetic acid, decyl ester
##JCAMP-DX=4.24
##DATA TYPE=MASS SPECTRUM
##ORIGIN=V.G.Zaikin, Petrochem. Synth. Inst., Moscow
##OWNER=NIST Mass Spectrometry Data Center
Collection (C) 2014 copyright by the U.S. Secretary of Commerce
on behalf of the United States of America. All rights reserved.
##CAS REGISTRY NO=83005-00-9
##$NIST MASS SPEC NO=280480
##MOLFORM=C12 H22 Cl2 O2
##MW=268
##$NIST SOURCE=MSDC
##XUNITS=M/Z
##YUNITS=RELATIVE INTENSITY
##XFACTOR=1
##YFACTOR=1
##FIRSTX=26
##LASTX=141
##FIRSTY=160
##MAXX=141
##MINX=26
##MAXY=9999
##MINY=80
##NPOINTS=58
##PEAK TABLE=(XY..XY)
26,160 27,1351 28,440 29,2592
30,80 36,330 38,180 39,1631
40,390 41,6616 42,2913 43,9999
44,691 45,90 47,90 48,410
49,120 50,170 51,220 52,90
53,520 54,821 55,8297 56,6676
57,8498 58,350 65,150 66,80
67,811 68,2162 69,6186 70,6916
71,4044 72,250 76,721 77,130
78,210 81,260 82,1952 83,5715
84,3613 85,3293 86,260 87,130
94,150 95,150 96,390 97,2712
98,1591 99,571 110,210 111,1221
112,1992 113,170 129,160 131,110
140,811 141,160
##END=
