##TITLE=Dichloroacetic acid, dodecyl ester
##JCAMP-DX=4.24
##DATA TYPE=MASS SPECTRUM
##ORIGIN=V.G.Zaikin, Petrochem. Synth. Inst., Moscow
##OWNER=NIST Mass Spectrometry Data Center
Collection (C) 2014 copyright by the U.S. Secretary of Commerce
on behalf of the United States of America. All rights reserved.
##CAS REGISTRY NO=83005-01-0
##$NIST MASS SPEC NO=280482
##MOLFORM=C14 H26 Cl2 O2
##MW=296
##$NIST SOURCE=MSDC
##XUNITS=M/Z
##YUNITS=RELATIVE INTENSITY
##XFACTOR=1
##YFACTOR=1
##FIRSTX=26
##LASTX=169
##FIRSTY=190
##MAXX=169
##MINX=26
##MAXY=9999
##MINY=60
##NPOINTS=85
##PEAK TABLE=(XY..XY)
26,190 27,1191 28,540 29,2432
30,90 31,60 35,120 36,520
37,80 38,410 39,1682 40,450
41,7086 42,2512 43,9999 44,1151
45,110 47,80 48,290 49,180
50,250 51,220 52,80 53,530
54,1061 55,8448 56,5895 57,9148
58,591 59,90 63,120 64,90
65,120 66,170 67,1021 68,2252
69,7196 70,5465 71,4314 72,330
73,120 76,611 77,180 78,270
79,160 80,60 81,550 82,2352
83,6476 84,3753 85,2522 86,160
87,190 88,90 91,80 92,60
93,80 94,180 95,310 96,851
97,4214 98,2152 99,831 100,140
101,60 103,60 104,60 105,90
109,150 110,280 111,2352 112,1121
113,611 114,70 115,80 124,130
125,611 126,350 127,180 139,110
140,801 141,130 167,110 168,701
169,70
##END=
