##TITLE=Butyl pentyl carbonate
##JCAMP-DX=4.24
##DATA TYPE=MASS SPECTRUM
##ORIGIN=S. GRIFF, 5 OAKWOOD TERRACE, ROCKAWAY, N.J., USA
##OWNER=NIST Mass Spectrometry Data Center
Collection (C) 2014 copyright by the U.S. Secretary of Commerce
on behalf of the United States of America. All rights reserved.
##CAS REGISTRY NO=83073-03-4
##$NIST MASS SPEC NO=101160
##MOLFORM=C10 H20 O3
##MW=188
##$NIST SOURCE=MSDC
##XUNITS=M/Z
##YUNITS=RELATIVE INTENSITY
##XFACTOR=1
##YFACTOR=1
##FIRSTX=27
##LASTX=133
##FIRSTY=2300
##MAXX=133
##MINX=27
##MAXY=9999
##MINY=100
##NPOINTS=27
##PEAK TABLE=(XY..XY)
27,2300 28,900 29,4700 31,600
39,1400 41,6700 42,3200 43,8200
44,600 45,400 55,4000 56,3700
57,9999 58,500 63,7000 69,1400
70,4000 71,6600 72,400 73,700
87,300 89,300 103,300 118,700
119,1300 120,100 133,200
##END=
