##TITLE=Ethyl gallate
##JCAMP-DX=4.24
##DATA TYPE=MASS SPECTRUM
##ORIGIN=Japan AIST/NIMC Database- Spectrum MS-NW-3575
##OWNER=NIST Mass Spectrometry Data Center
Collection (C) 2014 copyright by the U.S. Secretary of Commerce
on behalf of the United States of America. All rights reserved.
##CAS REGISTRY NO=831-61-8
##$NIST MASS SPEC NO=232005
##MOLFORM=C9 H10 O5
##MW=198
##$NIST SOURCE=MSDC
##XUNITS=M/Z
##YUNITS=RELATIVE INTENSITY
##XFACTOR=1
##YFACTOR=1
##FIRSTX=14
##LASTX=200
##FIRSTY=30
##MAXX=200
##MINX=14
##MAXY=9999
##MINY=10
##NPOINTS=114
##PEAK TABLE=(XY..XY)
14,30 15,119 16,10 17,40
18,139 25,20 26,109 27,559
28,339 29,569 30,40 31,129
32,20 36,10 37,119 38,309
39,799 40,259 41,279 42,99
43,189 44,70 45,149 46,20
48,20 49,60 50,409 51,879
52,159 53,469 54,50 55,179
56,109 57,219 58,10 59,10
61,30 62,70 63,20 64,10
65,40 66,169 67,269 68,289
69,149 70,20 71,70 76,40
77,139 78,349 79,1159 80,149
81,20 82,10 83,10 84,30
85,20 86,50 93,20 94,10
95,109 96,109 97,229 98,20
102,10 106,30 107,429 108,159
109,20 110,10 111,20 112,10
113,269 114,20 119,10 123,90
124,359 125,1779 126,999 127,80
128,10 135,139 136,20 137,20
138,10 139,20 140,10 141,189
142,40 146,10 149,10 151,30
152,309 153,9999 154,1209 155,159
156,20 162,10 165,30 168,10
169,90 170,2409 171,199 172,40
179,10 180,10 181,10 183,529
184,60 185,10 197,129 198,4159
199,439 200,70
##END=
