##TITLE=Benzene, [(phenylmethyl)thio]-
##JCAMP-DX=4.24
##DATA TYPE=MASS SPECTRUM
##ORIGIN=NIST Mass Spectrometry Data Center, 1990.
##OWNER=NIST Mass Spectrometry Data Center
Collection (C) 2014 copyright by the U.S. Secretary of Commerce
on behalf of the United States of America. All rights reserved.
##CAS REGISTRY NO=831-91-4
##$NIST MASS SPEC NO=118622
##MOLFORM=C13 H12 S
##MW=200
##$NIST SOURCE=MSDC
##XUNITS=M/Z
##YUNITS=RELATIVE INTENSITY
##XFACTOR=1
##YFACTOR=1
##FIRSTX=26
##LASTX=203
##FIRSTY=17
##MAXX=203
##MINX=26
##MAXY=9999
##MINY=3
##NPOINTS=85
##PEAK TABLE=(XY..XY)
26,17 27,59 28,8 36,6
37,27 38,111 39,843 40,50
41,142 42,5 45,228 46,8
47,11 49,16 50,195 51,482
52,73 53,15 57,32 58,36
59,24 61,22 62,112 63,388
64,11 65,1870 66,122 69,214
70,20 71,21 73,8 74,52
75,47 76,31 77,194 78,68
79,19 81,34 82,70 83,32
84,18 85,10 86,19 87,16
89,223 91,9999 92,688 93,34
94,4 95,6 98,6 99,7
103,5 105,4 108,86 109,508
110,61 111,38 114,5 115,24
121,109 122,19 123,10 126,6
128,5 134,7 139,12 151,12
152,32 153,14 154,10 163,10
164,17 165,93 166,36 167,19
168,3 171,11 184,16 186,4
197,30 200,2118 201,303 202,119
203,9
##END=
