##TITLE=1-Propanone, 1-(2,4-dimethoxyphenyl)-
##JCAMP-DX=4.24
##DATA TYPE=MASS SPECTRUM
##ORIGIN=SERL) BSR 0401
##OWNER=NIST Mass Spectrometry Data Center
Collection (C) 2014 copyright by the U.S. Secretary of Commerce
on behalf of the United States of America. All rights reserved.
##CAS REGISTRY NO=831-00-5
##$NIST MASS SPEC NO=28012
##MOLFORM=C11 H14 O3
##MW=194
##$NIST SOURCE=MSDC
##XUNITS=M/Z
##YUNITS=RELATIVE INTENSITY
##XFACTOR=1
##YFACTOR=1
##FIRSTX=39
##LASTX=194
##FIRSTY=200
##MAXX=194
##MINX=39
##MAXY=9999
##MINY=100
##NPOINTS=25
##PEAK TABLE=(XY..XY)
39,200 50,100 51,500 53,200
55,100 57,100 62,100 63,600
64,300 65,200 76,100 77,1000
78,200 79,600 91,200 92,500
94,100 107,900 109,100 122,1000
135,300 150,400 165,9999 166,1000
194,800
##END=
