##TITLE=Cyclotridecanone
##JCAMP-DX=4.24
##DATA TYPE=MASS SPECTRUM
##ORIGIN=Chuck Anderson, Aldrich Chemical Co.
##OWNER=NIST Mass Spectrometry Data Center
Collection (C) 2014 copyright by the U.S. Secretary of Commerce
on behalf of the United States of America. All rights reserved.
##CAS REGISTRY NO=832-10-0
##$NIST MASS SPEC NO=108297
##MOLFORM=C13 H24 O
##MW=196
##$NIST SOURCE=MSDC
##XUNITS=M/Z
##YUNITS=RELATIVE INTENSITY
##XFACTOR=1
##YFACTOR=1
##FIRSTX=15
##LASTX=197
##FIRSTY=64
##MAXX=197
##MINX=15
##MAXY=9999
##MINY=7
##NPOINTS=96
##PEAK TABLE=(XY..XY)
15,64 18,8 26,151 27,2642
28,1410 29,3892 30,85 31,106
38,28 39,2089 40,493 41,8284
42,2749 43,4606 44,185 45,80
48,7 51,84 52,59 53,723
54,1071 55,7784 56,2098 57,1660
58,6677 59,2285 60,86 65,198
66,256 67,2464 68,2160 69,3963
70,2642 71,9999 72,1053 73,108
77,205 78,156 79,1062 80,982
81,2535 82,3321 83,3499 84,2205
85,1178 86,232 91,117 92,68
93,821 94,1169 95,1696 96,3678
97,3535 98,3392 99,642 100,624
101,49 107,830 108,883 109,848
110,1080 111,2392 112,669 113,477
114,551 115,46 121,1133 122,598
123,276 124,127 125,1990 126,348
127,276 128,241 135,1008 136,973
137,169 138,1580 139,741 140,178
141,205 142,15 149,839 150,142
151,18 152,63 153,477 154,109
155,98 163,223 167,129 168,17
178,75 181,185 196,1517 197,229
##END=
