##TITLE=Benzyl phenyl sulfoxide
##JCAMP-DX=4.24
##DATA TYPE=MASS SPECTRUM
##ORIGIN=A.A.Kutin, Moscow, Russia
##OWNER=NIST Mass Spectrometry Data Center
Collection (C) 2014 copyright by the U.S. Secretary of Commerce
on behalf of the United States of America. All rights reserved.
##CAS REGISTRY NO=833-82-9
##$NIST MASS SPEC NO=270907
##MOLFORM=C13 H12 O S
##MW=216
##$NIST SOURCE=MSDC
##XUNITS=M/Z
##YUNITS=RELATIVE INTENSITY
##XFACTOR=1
##YFACTOR=1
##FIRSTX=37
##LASTX=220
##FIRSTY=23
##MAXX=220
##MINX=37
##MAXY=9999
##MINY=3
##NPOINTS=144
##PEAK TABLE=(XY..XY)
37,23 38,86 39,518 40,38
41,96 42,6 43,3 45,109
47,9 48,18 50,264 51,741
52,99 53,123 54,9 55,5
57,20 58,23 59,11 60,6
61,29 62,106 63,344 65,1744
66,137 67,11 69,138 70,25
71,26 72,5 73,20 74,87
75,72 77,921 78,199 79,40
81,60 82,49 83,22 84,22
85,10 86,19 87,20 89,333
91,9999 92,1339 93,62 94,17
95,19 97,431 98,34 99,23
100,3 101,4 102,11 103,10
104,14 105,43 106,15 107,30
108,95 109,484 110,118 111,33
112,7 113,6 114,5 115,34
116,6 117,4 121,44 122,14
123,62 125,521 126,93 127,41
128,20 129,7 131,4 132,3
134,4 135,3 137,13 138,9
139,24 140,11 141,74 142,11
143,6 147,5 150,5 151,16
152,65 153,27 154,30 155,9
156,3 157,3 158,3 159,5
160,4 163,13 164,22 165,135
166,46 167,52 168,13 169,5
170,3 171,10 172,4 173,5
174,4 176,4 177,3 178,10
179,9 180,8 181,53 182,144
183,30 184,47 185,49 186,29
187,9 188,3 195,5 197,28
198,9 199,24 200,102 201,19
202,20 203,4 204,4 211,3
212,4 213,6 214,9 216,894
217,189 218,140 219,22 220,10
##END=
