##TITLE=cis,cis-2-Methyl-1-thiadecalin
##JCAMP-DX=4.24
##DATA TYPE=MASS SPECTRUM
##ORIGIN=V.G.Zaikin, TIPS, Russian Acad. Sci.
##OWNER=NIST Mass Spectrometry Data Center
Collection (C) 2014 copyright by the U.S. Secretary of Commerce
on behalf of the United States of America. All rights reserved.
##CAS REGISTRY NO=83349-26-2
##$NIST MASS SPEC NO=215877
##MOLFORM=C10 H18 S
##MW=170
##$NIST SOURCE=MSDC
##XUNITS=M/Z
##YUNITS=RELATIVE INTENSITY
##XFACTOR=1
##YFACTOR=1
##FIRSTX=39
##LASTX=173
##FIRSTY=6355
##MAXX=173
##MINX=39
##MAXY=9999
##MINY=30
##NPOINTS=106
##PEAK TABLE=(XY..XY)
39,6355 40,1561 41,9999 42,1141
43,840 44,1371 45,3803 46,390
47,1361 48,90 49,190 50,500
51,1211 52,620 53,3042 54,1711
55,4233 56,410 57,330 58,890
59,2372 60,1311 61,1821 62,200
63,330 64,130 65,1231 66,900
67,6065 68,1661 69,930 70,180
71,1201 72,430 73,1211 74,1681
75,1060 76,270 77,1891 78,650
79,4343 80,1401 81,5374 82,860
83,180 84,200 85,1101 86,440
87,1461 88,330 89,240 90,30
91,1050 92,240 93,2572 94,2181
95,2942 96,740 97,790 98,170
99,970 100,370 101,4183 102,450
103,300 105,190 107,1090 108,920
109,680 110,230 111,150 112,80
113,1421 114,1020 115,1131 116,150
117,110 119,120 120,80 121,1391
122,170 123,190 125,110 126,350
127,8857 128,1581 129,490 130,80
135,110 136,360 137,370 138,80
140,60 141,1791 142,310 143,110
154,170 155,4844 156,540 157,210
168,150 169,210 170,8908 171,1060
172,450 173,50
##END=
