##TITLE=Acetonitrile, bromochloro-
##JCAMP-DX=4.24
##DATA TYPE=MASS SPECTRUM
##ORIGIN=NIST Mass Spectrometry Data Center
##OWNER=NIST Mass Spectrometry Data Center
Collection (C) 2014 copyright by the U.S. Secretary of Commerce
on behalf of the United States of America. All rights reserved.
##CAS REGISTRY NO=83463-62-1
##$NIST MASS SPEC NO=342944
##MOLFORM=C2 H Br Cl N
##MW=153
##$NIST SOURCE=MSDC
##XUNITS=M/Z
##YUNITS=RELATIVE INTENSITY
##XFACTOR=1
##YFACTOR=1
##FIRSTX=12
##LASTX=158
##FIRSTY=330
##MAXX=158
##MINX=12
##MAXY=9999
##MINY=10
##NPOINTS=52
##PEAK TABLE=(XY..XY)
12,330 13,170 14,80 16,20
18,10 24,130 25,200 26,210
27,170 28,320 32,170 35,681
36,60 37,240 38,871 39,941
40,20 44,20 47,1061 48,190
49,400 50,60 59,30 60,30
61,10 62,10 74,9999 75,390
76,3273 77,70 79,1421 81,1491
82,100 91,571 92,120 93,601
94,100 105,20 106,10 114,20
116,40 118,781 120,741 121,20
126,150 128,210 130,50 153,1611
155,2012 156,80 157,440 158,10
##END=
