##TITLE=Thiopropazate
##JCAMP-DX=4.24
##DATA TYPE=MASS SPECTRUM
##OWNER=NIST Mass Spectrometry Data Center
Collection (C) 2014 copyright by the U.S. Secretary of Commerce
on behalf of the United States of America. All rights reserved.
##CAS REGISTRY NO=84-06-0
##$NIST MASS SPEC NO=23700
##MOLFORM=C23 H28 Cl N3 O2 S
##MW=445
##$NIST SOURCE=MSDC
##XUNITS=M/Z
##YUNITS=RELATIVE INTENSITY
##XFACTOR=1
##YFACTOR=1
##FIRSTX=41
##LASTX=448
##FIRSTY=2502
##MAXX=448
##MINX=41
##MAXY=9999
##MINY=100
##NPOINTS=85
##PEAK TABLE=(XY..XY)
41,2502 42,9308 43,9999 44,2002
45,200 54,1001 55,6606 56,6406
57,2702 58,2202 59,200 68,701
69,1802 70,8908 71,901 72,601
82,1601 83,1401 84,2502 85,500
87,5705 88,601 96,901 97,2803
98,4804 99,1601 100,200 111,1802
112,601 113,1802 114,200 123,901
124,100 125,4904 126,1301 127,100
139,1802 140,200 142,500 152,400
153,5105 154,300 157,200 170,400
171,200 183,400 185,5705 186,601
196,500 197,500 198,300 199,2002
200,200 210,300 211,500 212,500
213,2502 214,2803 215,300 223,200
224,200 232,3003 233,1301 234,200
246,6105 247,1101 248,100 259,500
260,500 272,901 273,801 302,100
303,100 316,200 329,200 349,300
371,400 385,1802 386,901 387,601
388,300 445,2502 446,601 447,901
448,200
##END=
