##TITLE=Pyrathiazine
##JCAMP-DX=4.24
##DATA TYPE=MASS SPECTRUM
##ORIGIN=NIST Mass Spectrometry Data Center, 1998.
##OWNER=NIST Mass Spectrometry Data Center
Collection (C) 2014 copyright by the U.S. Secretary of Commerce
on behalf of the United States of America. All rights reserved.
##CAS REGISTRY NO=84-08-2
##$NIST MASS SPEC NO=292002
##MOLFORM=C18 H20 N2 S
##MW=296
##$NIST SOURCE=MSDC
##XUNITS=M/Z
##YUNITS=RELATIVE INTENSITY
##XFACTOR=1
##YFACTOR=1
##FIRSTX=15
##LASTX=299
##FIRSTY=10
##MAXX=299
##MINX=15
##MAXY=9999
##MINY=10
##NPOINTS=152
##PEAK TABLE=(XY..XY)
15,10 27,50 28,90 29,80
30,90 38,10 39,100 40,20
41,220 42,1160 43,60 44,20
45,80 50,40 51,90 52,20
53,40 54,100 55,700 56,320
57,30 58,20 62,20 63,80
64,20 65,100 66,10 67,30
68,60 69,230 70,50 71,30
74,20 75,40 76,40 77,150
78,40 79,10 80,10 81,10
82,130 83,10 84,9999 85,880
86,30 87,10 88,10 89,50
90,20 91,30 92,10 93,20
94,20 95,30 96,110 97,60
98,160 99,30 101,30 102,30
103,10 104,10 105,10 106,10
107,10 108,70 109,100 110,10
113,30 114,20 115,50 116,20
117,10 120,10 121,20 122,10
125,10 126,40 127,130 128,80
129,10 133,10 134,30 135,10
136,20 137,10 138,20 139,150
140,100 141,20 145,20 146,20
147,10 148,10 150,20 151,110
152,290 153,120 154,180 155,20
158,20 159,20 164,40 165,30
166,120 167,110 168,20 169,20
170,20 171,100 172,40 173,20
177,30 178,140 179,280 180,1220
181,180 182,20 183,50 184,130
185,40 186,10 190,10 191,20
192,20 193,30 194,20 195,10
196,80 197,130 198,530 199,120
200,30 201,10 209,20 210,80
211,40 212,610 213,100 214,30
222,10 223,50 224,90 225,50
226,30 227,10 292,10 294,10
296,1750 297,410 298,120 299,20
##END=
