##TITLE=9,10-Phenanthrenedione
##JCAMP-DX=4.24
##DATA TYPE=MASS SPECTRUM
##ORIGIN=Japan AIST/NIMC Database- Spectrum MS-NW-2458
##OWNER=NIST Mass Spectrometry Data Center
Collection (C) 2014 copyright by the U.S. Secretary of Commerce
on behalf of the United States of America. All rights reserved.
##CAS REGISTRY NO=84-11-7
##$NIST MASS SPEC NO=229767
##MOLFORM=C14 H8 O2
##MW=208
##$NIST SOURCE=MSDC
##XUNITS=M/Z
##YUNITS=RELATIVE INTENSITY
##XFACTOR=1
##YFACTOR=1
##FIRSTX=14
##LASTX=210
##FIRSTY=10
##MAXX=210
##MINX=14
##MAXY=9999
##MINY=10
##NPOINTS=76
##PEAK TABLE=(XY..XY)
14,10 26,10 27,40 28,90
37,40 38,50 39,249 40,10
43,10 49,30 50,339 51,279
52,60 53,20 55,10 60,10
61,119 62,239 63,849 64,30
73,50 74,469 75,599 76,1699
77,169 78,40 81,10 84,10
85,60 86,169 87,249 88,40
89,30 90,60 97,20 98,219
99,199 100,109 101,99 102,209
103,10 104,139 109,20 110,60
111,60 112,10 113,70 114,10
121,10 122,50 123,30 124,20
125,189 126,719 127,80 128,10
129,10 137,10 146,10 149,60
150,919 151,1849 152,3839 153,519
154,40 163,20 164,10 179,40
180,9999 181,1459 182,109 186,10
207,10 208,2239 209,349 210,70
##END=
