##TITLE=9,10-Anthracenedione, 2-(1,1-dimethylethyl)-
##JCAMP-DX=4.24
##DATA TYPE=MASS SPECTRUM
##ORIGIN=Japan AIST/NIMC Database- Spectrum MS-NW-2568
##OWNER=NIST Mass Spectrometry Data Center
Collection (C) 2014 copyright by the U.S. Secretary of Commerce
on behalf of the United States of America. All rights reserved.
##CAS REGISTRY NO=84-47-9
##$NIST MASS SPEC NO=234276
##MOLFORM=C18 H16 O2
##MW=264
##$NIST SOURCE=MSDC
##XUNITS=M/Z
##YUNITS=RELATIVE INTENSITY
##XFACTOR=1
##YFACTOR=1
##FIRSTX=15
##LASTX=266
##FIRSTY=70
##MAXX=266
##MINX=15
##MAXY=9999
##MINY=10
##NPOINTS=164
##PEAK TABLE=(XY..XY)
15,70 18,20 26,10 27,139
28,40 29,229 37,10 38,30
39,409 40,40 41,1309 42,50
43,70 50,279 51,249 52,50
53,40 55,90 56,20 57,129
61,10 62,90 63,249 64,30
65,90 66,20 69,139 70,20
73,20 74,239 75,449 76,519
77,439 78,50 79,10 81,90
82,529 83,90 85,10 86,70
87,129 88,349 89,219 90,30
91,339 92,20 93,20 94,109
95,70 96,159 97,40 98,70
99,80 100,40 101,129 102,109
103,99 104,99 105,279 106,20
109,30 110,289 111,60 112,10
113,50 114,30 115,639 116,149
117,369 118,119 119,10 122,30
123,40 124,109 125,90 126,109
127,70 128,50 129,50 131,10
132,10 133,109 134,10 137,20
138,20 139,129 140,20 141,10
143,30 145,109 146,10 149,40
150,339 151,659 152,749 153,309
154,40 162,20 163,149 164,149
165,769 166,139 167,20 174,40
175,70 176,549 177,319 178,819
179,219 180,109 181,60 187,30
188,30 189,269 190,129 191,239
192,109 193,1369 194,249 195,50
196,20 197,10 200,10 201,30
202,259 203,199 204,80 205,159
206,259 207,209 208,50 209,739
210,119 211,20 215,10 217,10
218,20 219,80 220,70 221,1969
222,349 223,109 224,10 230,10
231,299 232,90 233,169 234,189
235,109 236,40 237,10 245,10
246,90 247,70 248,129 249,9999
250,1819 251,199 252,10 262,10
263,40 264,2169 265,459 266,50
##END=
