##TITLE=1,2-Dichloro-4,5-dicyano-p-benzoquinone
##JCAMP-DX=4.24
##DATA TYPE=MASS SPECTRUM
##ORIGIN=Japan AIST/NIMC Database- Spectrum MS-NW-2444
##OWNER=NIST Mass Spectrometry Data Center
Collection (C) 2014 copyright by the U.S. Secretary of Commerce
on behalf of the United States of America. All rights reserved.
##CAS REGISTRY NO=84-58-2
##$NIST MASS SPEC NO=230974
##MOLFORM=C8 Cl2 N2 O2
##MW=226
##$NIST SOURCE=MSDC
##XUNITS=M/Z
##YUNITS=RELATIVE INTENSITY
##XFACTOR=1
##YFACTOR=1
##FIRSTX=12
##LASTX=232
##FIRSTY=209
##MAXX=232
##MINX=12
##MAXY=9999
##MINY=10
##NPOINTS=145
##PEAK TABLE=(XY..XY)
12,209 14,20 16,20 18,20
24,479 25,20 26,99 27,40
28,349 29,20 32,10 35,419
36,999 37,139 38,1189 39,30
40,50 41,10 43,10 44,50
47,859 48,549 49,279 50,899
51,40 52,1319 53,90 54,80
55,10 56,10 57,10 59,1529
60,409 61,669 62,769 63,159
64,60 65,60 66,20 67,20
68,10 71,369 72,40 73,149
74,1139 75,90 76,4569 77,279
78,1089 79,50 80,90 82,30
83,119 84,20 85,769 86,579
87,9999 88,459 89,3179 90,149
91,10 94,4519 95,139 96,2869
97,159 98,489 99,90 100,1209
101,119 102,129 103,10 104,1079
105,70 106,40 108,40 109,649
110,109 111,239 112,80 113,10
118,10 120,20 121,90 122,4109
123,179 124,2619 125,119 126,419
127,20 128,10 132,279 133,30
134,20 135,849 136,129 137,289
138,60 139,20 144,30 145,30
146,40 147,40 148,20 149,10
150,619 151,20 152,399 153,10
154,60 158,40 160,30 163,1139
164,119 165,389 166,30 167,10
168,10 169,10 170,7879 171,559
172,5319 173,379 174,799 175,60
176,10 190,10 191,889 192,119
193,339 194,50 195,10 198,3359
199,299 200,2419 201,179 202,509
203,30 204,20 226,5189 227,499
228,3599 229,359 230,659 231,60
232,30
##END=
