##TITLE=9,10-Anthracenedione, 2-ethyl-
##JCAMP-DX=4.24
##DATA TYPE=MASS SPECTRUM
##ORIGIN=Japan AIST/NIMC Database- Spectrum MS-NW- 473
##OWNER=NIST Mass Spectrometry Data Center
Collection (C) 2014 copyright by the U.S. Secretary of Commerce
on behalf of the United States of America. All rights reserved.
##CAS REGISTRY NO=84-51-5
##$NIST MASS SPEC NO=229082
##MOLFORM=C16 H12 O2
##MW=236
##$NIST SOURCE=MSDC
##XUNITS=M/Z
##YUNITS=RELATIVE INTENSITY
##XFACTOR=1
##YFACTOR=1
##FIRSTX=15
##LASTX=239
##FIRSTY=10
##MAXX=239
##MINX=15
##MAXY=9999
##MINY=10
##NPOINTS=128
##PEAK TABLE=(XY..XY)
15,10 18,10 27,159 28,50
29,30 37,10 38,50 39,289
41,20 43,20 49,20 50,509
51,429 52,119 53,70 61,40
62,209 63,529 64,70 65,60
69,289 70,40 73,40 74,409
75,639 76,1009 77,649 78,129
79,30 81,139 82,669 83,99
85,40 86,129 87,239 88,269
89,469 90,90 91,30 94,20
95,20 96,159 97,30 98,129
99,119 100,50 101,109 102,149
103,299 104,419 105,159 109,50
110,139 111,60 112,20 113,109
114,50 115,269 116,30 117,30
118,60 122,30 123,30 124,20
125,99 126,179 127,70 128,50
129,20 130,20 131,139 132,40
137,60 138,70 139,469 140,70
141,20 149,40 150,349 151,659
152,759 153,189 154,30 161,20
162,60 163,639 164,589 165,2269
166,329 167,30 174,40 175,50
176,309 177,229 178,979 179,819
180,549 181,369 182,60 183,10
187,10 189,80 190,50 191,80
192,169 193,2769 194,489 195,50
205,40 206,50 207,849 208,959
209,349 210,50 217,30 218,80
219,269 220,80 221,2969 222,529
223,60 233,20 234,60 235,1699
236,9999 237,1799 238,179 239,10
##END=
