##TITLE=1,2-Benzenedicarboxylic acid, butyl cyclohexyl ester
##JCAMP-DX=4.24
##DATA TYPE=MASS SPECTRUM
##ORIGIN=V.G. Zaikin, R.S.Borisov, TIPS RAS, Moscow, Russia
##OWNER=NIST Mass Spectrometry Data Center
Collection (C) 2014 copyright by the U.S. Secretary of Commerce
on behalf of the United States of America. All rights reserved.
##CAS REGISTRY NO=84-64-0
##$NIST MASS SPEC NO=315335
##MOLFORM=C18 H24 O4
##MW=304
##$NIST SOURCE=MSDC
##XUNITS=M/Z
##YUNITS=RELATIVE INTENSITY
##XFACTOR=1
##YFACTOR=1
##FIRSTX=27
##LASTX=224
##FIRSTY=20
##MAXX=224
##MINX=27
##MAXY=9999
##MINY=20
##NPOINTS=38
##PEAK TABLE=(XY..XY)
27,20 29,90 38,30 39,50
41,230 42,20 43,20 50,30
53,20 54,70 55,270 56,60
57,130 65,90 67,180 76,140
77,50 79,30 81,40 82,110
83,110 93,100 104,190 105,130
121,100 122,80 123,70 132,20
135,30 148,20 149,9999 150,811
151,80 167,170 205,270 206,120
223,761 224,90
##END=
