##TITLE=1,2-Benzenedicarboxylic acid, diphenyl ester
##JCAMP-DX=4.24
##DATA TYPE=MASS SPECTRUM
##ORIGIN=V.G. Zaikin, R.S.Borisov, TIPS RAS, Moscow, Russia
##OWNER=NIST Mass Spectrometry Data Center
Collection (C) 2014 copyright by the U.S. Secretary of Commerce
on behalf of the United States of America. All rights reserved.
##CAS REGISTRY NO=84-62-8
##$NIST MASS SPEC NO=314879
##MOLFORM=C20 H14 O4
##MW=318
##$NIST SOURCE=MSDC
##XUNITS=M/Z
##YUNITS=RELATIVE INTENSITY
##XFACTOR=1
##YFACTOR=1
##FIRSTX=39
##LASTX=227
##FIRSTY=100
##MAXX=227
##MINX=39
##MAXY=9999
##MINY=20
##NPOINTS=28
##PEAK TABLE=(XY..XY)
39,100 50,90 51,120 63,30
65,210 66,20 74,20 75,40
76,470 77,1341 78,70 93,20
104,370 105,60 115,180 139,70
141,150 152,140 153,380 154,60
168,60 169,40 181,20 196,40
197,100 225,9999 226,1551 227,150
##END=
