##TITLE=1,2-Benzenedicarboxylic acid, dihexyl ester
##JCAMP-DX=4.24
##DATA TYPE=MASS SPECTRUM
##ORIGIN=NIST Mass Spectrometry Data Center, 1994
##OWNER=NIST Mass Spectrometry Data Center
Collection (C) 2014 copyright by the U.S. Secretary of Commerce
on behalf of the United States of America. All rights reserved.
##CAS REGISTRY NO=84-75-3
##$NIST MASS SPEC NO=135262
##MOLFORM=C20 H30 O4
##MW=334
##$NIST SOURCE=MSDC
##XUNITS=M/Z
##YUNITS=RELATIVE INTENSITY
##XFACTOR=1
##YFACTOR=1
##FIRSTX=12
##LASTX=334
##FIRSTY=8
##MAXX=334
##MINX=12
##MAXY=9999
##MINY=3
##NPOINTS=79
##PEAK TABLE=(XY..XY)
12,8 15,20 16,7 17,14
18,41 27,638 28,235 29,1152
30,28 31,19 39,343 41,1629
42,541 43,2668 44,132 50,151
51,78 52,14 53,79 54,83
55,634 56,518 57,268 58,14
63,11 65,283 66,31 67,66
69,196 70,14 73,4 74,14
75,58 76,445 77,135 78,18
79,19 81,10 82,14 83,42
84,125 85,220 86,15 91,13
93,224 94,23 104,369 105,205
106,22 115,6 121,214 122,147
123,117 124,10 129,7 132,33
133,14 135,13 136,3 146,18
149,9999 150,893 151,88 152,8
162,7 167,88 168,9 176,23
188,4 193,6 203,8 233,153
234,37 235,5 251,447 252,78
253,8 278,6 334,11
##END=
