##TITLE=1,2-Cyclohexanedicarboxylic acid, bis(2-ethylhexyl) ester
##JCAMP-DX=4.24
##DATA TYPE=MASS SPECTRUM
##ORIGIN=Zaikin V.G., TIPS RAS, Moscow, Russia
##OWNER=NIST Mass Spectrometry Data Center
Collection (C) 2014 copyright by the U.S. Secretary of Commerce
on behalf of the United States of America. All rights reserved.
##CAS REGISTRY NO=84-71-9
##$NIST MASS SPEC NO=339463
##MOLFORM=C24 H44 O4
##MW=396
##$NIST SOURCE=MSDC
##XUNITS=M/Z
##YUNITS=RELATIVE INTENSITY
##XFACTOR=1
##YFACTOR=1
##FIRSTX=27
##LASTX=397
##FIRSTY=30
##MAXX=397
##MINX=27
##MAXY=9999
##MINY=20
##NPOINTS=55
##PEAK TABLE=(XY..XY)
27,30 29,140 39,20 41,380
42,50 43,661 53,30 54,50
55,310 56,90 57,1661 58,70
67,160 69,120 70,691 71,1621
72,90 80,80 81,901 82,220
83,240 84,110 99,20 108,250
109,651 110,70 112,851 113,2482
114,220 125,50 126,1531 127,450
128,260 129,60 140,20 153,30
154,1411 155,9999 156,871 157,120
168,50 172,220 173,861 174,70
238,130 239,20 240,20 266,140
267,390 268,60 284,80 285,851
286,140 396,70 397,60
##END=
