##TITLE=1,2-Benzenedicarboxylic acid, 2-ethoxy-2-oxoethyl ethyl ester
##JCAMP-DX=4.24
##DATA TYPE=MASS SPECTRUM
##ORIGIN=Japan AIST/NIMC Database- Spectrum MS-NW-5241
##OWNER=NIST Mass Spectrometry Data Center
Collection (C) 2014 copyright by the U.S. Secretary of Commerce
on behalf of the United States of America. All rights reserved.
##CAS REGISTRY NO=84-72-0
##$NIST MASS SPEC NO=232812
##MOLFORM=C14 H16 O6
##MW=280
##$NIST SOURCE=MSDC
##XUNITS=M/Z
##YUNITS=RELATIVE INTENSITY
##XFACTOR=1
##YFACTOR=1
##FIRSTX=14
##LASTX=281
##FIRSTY=20
##MAXX=281
##MINX=14
##MAXY=9999
##MINY=10
##NPOINTS=102
##PEAK TABLE=(XY..XY)
14,20 15,60 18,10 26,50
27,489 28,149 29,1179 30,30
31,359 32,20 37,10 38,30
39,169 41,80 42,239 43,169
44,30 45,189 49,10 50,509
51,179 52,90 53,40 57,10
59,559 60,60 61,60 62,10
63,40 64,40 65,759 66,319
67,10 69,10 70,40 73,10
74,99 75,159 76,1089 77,359
78,40 79,30 81,40 87,549
88,749 89,50 90,20 91,60
92,60 93,609 94,40 95,10
103,30 104,1359 105,969 106,129
107,20 117,30 118,20 119,20
120,20 121,549 122,90 123,10
125,10 126,10 129,10 131,20
132,519 133,90 134,20 135,50
136,10 145,10 146,10 147,20
148,40 149,9999 150,929 151,109
152,10 161,10 162,70 163,60
164,10 175,10 176,779 177,4809
178,569 179,70 180,10 190,10
207,30 208,50 213,20 222,10
234,20 235,2449 236,379 237,50
280,99 281,10
##END=
