##TITLE=8-Hydroxyquinoline-5-sulfonic acid
##JCAMP-DX=4.24
##DATA TYPE=MASS SPECTRUM
##ORIGIN=Japan AIST/NIMC Database- Spectrum MS-NW-3521
##OWNER=NIST Mass Spectrometry Data Center
Collection (C) 2014 copyright by the U.S. Secretary of Commerce
on behalf of the United States of America. All rights reserved.
##CAS REGISTRY NO=84-88-8
##$NIST MASS SPEC NO=231938
##MOLFORM=C9 H7 N O4 S
##MW=225
##$NIST SOURCE=MSDC
##XUNITS=M/Z
##YUNITS=RELATIVE INTENSITY
##XFACTOR=1
##YFACTOR=1
##FIRSTX=16
##LASTX=228
##FIRSTY=20
##MAXX=228
##MINX=16
##MAXY=9999
##MINY=10
##NPOINTS=115
##PEAK TABLE=(XY..XY)
16,20 17,20 18,50 25,10
26,90 27,90 28,149 29,50
31,10 32,119 36,30 37,139
38,259 39,519 40,80 41,50
42,10 43,80 44,50 45,50
47,10 48,679 49,70 50,289
51,349 52,159 53,80 54,40
55,20 56,10 57,109 58,929
59,99 60,30 61,179 62,439
63,1059 64,699 65,139 66,70
67,30 69,20 71,10 72,159
73,50 74,139 75,149 76,159
77,119 78,169 79,30 80,1369
81,20 82,80 83,10 84,20
85,50 86,99 87,159 88,209
89,1739 90,1709 91,239 92,20
93,10 94,20 95,10 97,10
98,40 99,40 100,40 101,20
102,30 103,20 104,40 105,30
111,10 112,10 113,10 114,80
115,119 116,1039 117,5469 118,499
119,30 121,10 123,10 126,20
127,10 128,30 129,50 130,10
131,10 132,99 133,20 135,10
137,10 143,10 144,259 145,9999
146,1089 147,80 149,20 160,219
161,30 166,10 177,10 179,10
180,20 192,10 197,70 225,879
226,119 227,50 228,10
##END=
