##TITLE=Naphthionic acid
##JCAMP-DX=4.24
##DATA TYPE=MASS SPECTRUM
##ORIGIN=Japan AIST/NIMC Database- Spectrum MS-NW- 352
##OWNER=NIST Mass Spectrometry Data Center
Collection (C) 2014 copyright by the U.S. Secretary of Commerce
on behalf of the United States of America. All rights reserved.
##CAS REGISTRY NO=84-86-6
##$NIST MASS SPEC NO=228594
##MOLFORM=C10 H9 N O3 S
##MW=223
##$NIST SOURCE=MSDC
##XUNITS=M/Z
##YUNITS=RELATIVE INTENSITY
##XFACTOR=1
##YFACTOR=1
##FIRSTX=17
##LASTX=224
##FIRSTY=20
##MAXX=224
##MINX=17
##MAXY=9999
##MINY=20
##NPOINTS=91
##PEAK TABLE=(XY..XY)
17,20 18,70 26,30 27,90
28,459 29,20 30,99 32,70
35,30 36,199 37,40 38,99
39,289 40,40 41,99 42,40
43,60 44,149 45,30 48,569
50,189 51,219 52,129 53,30
54,30 55,60 56,30 57,239
58,409 59,50 61,60 62,189
63,389 64,1149 65,189 66,60
67,30 69,30 70,539 71,799
72,109 73,30 74,159 75,179
76,139 77,179 78,80 79,99
80,519 81,80 82,229 83,30
85,40 86,80 87,129 88,149
89,439 90,149 91,129 97,30
98,40 99,40 100,30 101,60
102,90 103,90 104,60 112,20
113,189 114,329 115,3479 116,1659
117,309 118,20 126,149 127,90
128,99 129,30 130,50 136,30
140,279 141,229 142,599 143,9999
144,1219 145,70 157,30 158,60
159,20 223,169 224,30
##END=
