##TITLE=Diethyl-.alpha.-naphthylamine
##JCAMP-DX=4.24
##DATA TYPE=MASS SPECTRUM
##ORIGIN=NIST Mass Spectrometry Data Center, 1994
##OWNER=NIST Mass Spectrometry Data Center
Collection (C) 2014 copyright by the U.S. Secretary of Commerce
on behalf of the United States of America. All rights reserved.
##CAS REGISTRY NO=84-95-7
##$NIST MASS SPEC NO=133245
##MOLFORM=C14 H17 N
##MW=199
##$NIST SOURCE=MSDC
##XUNITS=M/Z
##YUNITS=RELATIVE INTENSITY
##XFACTOR=1
##YFACTOR=1
##FIRSTX=14
##LASTX=201
##FIRSTY=10
##MAXX=201
##MINX=14
##MAXY=9999
##MINY=3
##NPOINTS=102
##PEAK TABLE=(XY..XY)
14,10 15,88 17,4 18,8
27,718 28,493 29,905 30,33
37,10 38,43 39,186 40,24
41,61 42,258 43,12 44,10
50,166 51,322 52,72 53,28
54,25 55,10 56,1493 57,49
58,5 61,31 62,126 63,393
64,132 65,81 66,7 68,5
70,30 71,7 72,8 74,189
75,343 76,235 77,644 78,110
83,15 84,56 86,62 87,124
88,100 89,174 90,43 91,29
92,82 98,52 99,76 100,104
101,335 102,194 103,34 104,6
110,6 111,12 113,139 114,146
115,474 116,96 117,24 122,7
123,6 126,887 127,2634 128,1714
129,1388 130,154 131,9 137,9
139,139 140,234 141,373 142,101
143,70 144,20 150,11 152,134
154,3019 155,1648 156,586 157,65
158,5 164,11 166,131 167,334
168,516 169,339 170,250 171,42
172,3 180,31 182,400 184,9999
185,1419 186,94 187,3 199,4179
200,619 201,48
##END=
