##TITLE=2,6-Naphthalenedicarboxylic acid, dimethyl ester
##JCAMP-DX=4.24
##DATA TYPE=MASS SPECTRUM
##ORIGIN=Japan AIST/NIMC Database- Spectrum MS-IW-2495
##OWNER=NIST Mass Spectrometry Data Center
Collection (C) 2014 copyright by the U.S. Secretary of Commerce
on behalf of the United States of America. All rights reserved.
##CAS REGISTRY NO=840-65-3
##$NIST MASS SPEC NO=235172
##MOLFORM=C14 H12 O4
##MW=244
##$NIST SOURCE=MSDC
##XUNITS=M/Z
##YUNITS=RELATIVE INTENSITY
##XFACTOR=1
##YFACTOR=1
##FIRSTX=15
##LASTX=247
##FIRSTY=80
##MAXX=247
##MINX=15
##MAXY=9999
##MINY=10
##NPOINTS=87
##PEAK TABLE=(XY..XY)
15,80 28,20 29,20 31,10
39,30 44,10 50,129 51,70
52,20 59,90 61,10 62,70
63,609 64,20 65,10 74,229
75,219 76,229 77,929 78,10
86,50 87,109 88,40 89,10
91,739 92,40 93,20 98,90
99,139 100,99 101,30 102,10
106,159 107,70 111,10 113,70
114,269 115,159 116,20 122,70
123,10 124,10 125,439 126,1689
127,409 128,90 129,30 139,40
140,30 141,70 142,139 143,20
153,229 154,1459 155,259 156,30
157,20 161,10 168,10 169,80
170,619 171,119 172,10 173,10
182,10 183,20 184,40 185,3249
186,469 187,50 197,30 198,20
199,209 200,30 201,10 213,9999
214,1459 215,159 216,10 226,20
228,20 229,30 243,80 244,8169
245,1269 246,159 247,10
##END=
