##TITLE=2,4-Diethyl-5-methyloxazole
##JCAMP-DX=4.24
##DATA TYPE=MASS SPECTRUM
##ORIGIN=W.Jennings, T.Shibamoto
##OWNER=NIST Mass Spectrometry Data Center
Collection (C) 2014 copyright by the U.S. Secretary of Commerce
on behalf of the United States of America. All rights reserved.
##CAS REGISTRY NO=84027-88-3
##$NIST MASS SPEC NO=285170
##MOLFORM=C8 H13 N O
##MW=139
##$NIST SOURCE=MSDC
##XUNITS=M/Z
##YUNITS=RELATIVE INTENSITY
##XFACTOR=1
##YFACTOR=1
##FIRSTX=38
##LASTX=140
##FIRSTY=70
##MAXX=140
##MINX=38
##MAXY=9999
##MINY=70
##NPOINTS=23
##PEAK TABLE=(XY..XY)
38,70 41,1291 42,190 43,4924
54,190 55,470 56,6746 57,591
68,70 69,8237 70,460 82,460
83,190 84,2092 96,1621 110,190
124,9999 125,1792 126,70 137,70
138,3113 139,8017 140,1481
##END=
