##TITLE=2-iso-Propyl-4-ethyl-5-methyloxazole
##JCAMP-DX=4.24
##DATA TYPE=MASS SPECTRUM
##ORIGIN=W.Jennings, T.Shibamoto
##OWNER=NIST Mass Spectrometry Data Center
Collection (C) 2014 copyright by the U.S. Secretary of Commerce
on behalf of the United States of America. All rights reserved.
##CAS REGISTRY NO=84027-96-3
##$NIST MASS SPEC NO=285518
##MOLFORM=C9 H15 N O
##MW=153
##$NIST SOURCE=MSDC
##XUNITS=M/Z
##YUNITS=RELATIVE INTENSITY
##XFACTOR=1
##YFACTOR=1
##FIRSTX=27
##LASTX=155
##FIRSTY=70
##MAXX=155
##MINX=27
##MAXY=9999
##MINY=70
##NPOINTS=41
##PEAK TABLE=(XY..XY)
27,70 29,70 39,70 41,1391
42,270 43,7237 44,70 51,70
54,190 55,3153 56,4524 67,681
68,991 69,6186 70,2833 71,70
79,450 80,70 82,380 83,270
84,3443 85,180 94,380 95,70
96,7337 97,681 110,7847 111,1381
120,70 123,270 124,270 125,380
136,70 137,180 138,9999 139,3994
140,270 152,2632 153,7457 154,2833
155,70
##END=
