##TITLE=2H-Pyrimido[1,2-a]pyrimidine, 1,3,4,6,7,8-hexahydro-1-methyl-
##JCAMP-DX=4.24
##DATA TYPE=MASS SPECTRUM
##ORIGIN=Chuck Anderson, Aldrich Chemical Co.
##OWNER=NIST Mass Spectrometry Data Center
Collection (C) 2014 copyright by the U.S. Secretary of Commerce
on behalf of the United States of America. All rights reserved.
##CAS REGISTRY NO=84030-20-6
##$NIST MASS SPEC NO=108487
##MOLFORM=C8 H15 N3
##MW=153
##$NIST SOURCE=MSDC
##XUNITS=M/Z
##YUNITS=RELATIVE INTENSITY
##XFACTOR=1
##YFACTOR=1
##FIRSTX=15
##LASTX=154
##FIRSTY=370
##MAXX=154
##MINX=15
##MAXY=9999
##MINY=23
##NPOINTS=58
##PEAK TABLE=(XY..XY)
15,370 26,137 27,598 28,739
29,209 30,397 39,444 40,193
41,1286 42,2415 43,693 44,561
53,169 54,434 55,1265 56,582
57,338 58,23 63,129 67,197
68,926 69,2309 70,3453 71,313
72,107 76,112 79,84 80,107
81,990 82,376 83,619 84,831
85,141 94,115 95,328 96,587
97,2203 98,3198 99,948 108,84
109,193 110,826 111,603 112,267
122,381 123,270 124,8304 125,1271
126,115 136,123 137,84 138,1546
139,117 150,303 151,116 152,6355
153,9999 154,995
##END=
