##TITLE=Methoprotryne
##JCAMP-DX=4.24
##DATA TYPE=MASS SPECTRUM
##ORIGIN=NIST Mass Spectrometry Data Center, 1998.
##OWNER=NIST Mass Spectrometry Data Center
Collection (C) 2014 copyright by the U.S. Secretary of Commerce
on behalf of the United States of America. All rights reserved.
##CAS REGISTRY NO=841-06-5
##$NIST MASS SPEC NO=291828
##MOLFORM=C11 H21 N5 O S
##MW=271
##$NIST SOURCE=MSDC
##XUNITS=M/Z
##YUNITS=RELATIVE INTENSITY
##XFACTOR=1
##YFACTOR=1
##FIRSTX=14
##LASTX=274
##FIRSTY=10
##MAXX=274
##MINX=14
##MAXY=9999
##MINY=10
##NPOINTS=206
##PEAK TABLE=(XY..XY)
14,10 15,250 16,10 26,40
27,500 28,570 29,580 30,470
31,160 32,10 33,100 34,10
37,10 38,20 39,370 40,110
41,2000 42,1160 43,2830 44,710
45,3690 46,200 47,270 48,50
49,30 51,10 52,20 53,170
54,250 55,1070 56,500 57,600
58,2560 59,280 60,70 61,140
62,10 63,10 66,40 67,220
68,2390 69,1930 70,210 71,330
72,220 73,720 74,1440 75,100
76,70 77,10 78,30 79,30
80,250 81,310 82,380 83,850
84,160 85,800 86,110 87,60
88,80 89,40 90,30 91,180
92,20 93,460 94,590 95,220
96,170 97,140 98,20 99,780
100,200 101,70 102,50 103,260
104,510 107,40 108,360 109,220
110,540 111,560 112,240 113,50
114,130 115,100 116,410 117,100
118,30 119,20 120,40 121,60
122,90 123,210 124,210 125,390
126,120 127,270 128,120 129,30
130,30 131,10 133,10 134,80
135,100 136,250 137,200 138,180
139,90 140,190 141,300 142,410
143,80 144,40 147,10 148,40
149,40 150,250 151,190 152,350
153,250 154,120 155,110 156,1010
157,470 158,570 159,60 160,30
161,10 162,20 163,10 164,70
165,110 166,150 167,710 168,210
169,650 170,1940 171,2230 172,270
173,110 174,40 175,10 176,20
177,10 178,80 179,30 180,240
181,70 182,380 183,170 184,2390
185,270 186,130 187,10 190,10
191,10 192,30 193,30 194,50
195,40 196,1140 197,210 198,1560
199,860 200,660 201,90 202,30
206,10 207,10 208,100 209,40
210,310 211,100 212,2850 213,3010
214,1410 215,370 216,90 217,10
222,20 224,960 225,150 226,2610
227,320 228,190 229,60 230,10
238,220 240,2280 241,840 242,190
243,40 244,10 254,30 256,9999
257,1380 258,540 259,60 260,10
268,10 270,200 271,1570 272,250
273,90 274,10
##END=
