##TITLE=Benzene, 1,3,5-tributyl-
##JCAMP-DX=4.24
##DATA TYPE=MASS SPECTRUM
##ORIGIN=D.HENNEBERG, MAX-PLANCK INSTITUTE, MULHEIM, WEST GERMANY
##OWNER=NIST Mass Spectrometry Data Center
Collection (C) 2014 copyright by the U.S. Secretary of Commerce
on behalf of the United States of America. All rights reserved.
##CAS REGISTRY NO=841-07-6
##$NIST MASS SPEC NO=61188
##MOLFORM=C18 H30
##MW=246
##$NIST SOURCE=MSDC
##XUNITS=M/Z
##YUNITS=RELATIVE INTENSITY
##XFACTOR=1
##YFACTOR=1
##FIRSTX=26
##LASTX=248
##FIRSTY=98
##MAXX=248
##MINX=26
##MAXY=9999
##MINY=3
##NPOINTS=150
##PEAK TABLE=(XY..XY)
26,98 27,120 29,732 30,20
32,24 36,6 37,5 38,6
39,62 40,17 41,1142 42,65
43,183 44,44 49,6 50,17
51,14 52,8 53,34 54,6
55,440 56,24 57,911 58,41
59,7 65,10 66,4 67,99
68,8 69,134 70,12 71,9
74,4 75,12 76,16 77,99
78,48 79,285 80,21 81,99
82,4 83,16 87,3 88,19
89,8 91,1417 92,294 93,207
94,19 95,35 96,4 98,5
100,4 101,5 102,5 103,115
104,176 105,3085 106,2122 107,242
108,37 109,13 110,3 113,4
114,6 115,94 116,70 117,685
118,403 119,2163 120,270 121,28
122,3 123,3 124,5 126,7
127,25 128,51 129,90 130,53
131,306 132,81 133,389 134,63
135,24 136,6 137,10 140,3
141,6 142,5 143,22 144,15
145,192 146,58 147,4513 148,2964
149,307 150,19 155,3 157,6
158,6 159,71 160,52 161,3032
162,893 163,84 164,3 165,3
167,3 169,39 170,30 171,10
173,35 174,85 175,136 176,27
177,6 178,10 181,3 185,4
187,46 188,28 189,515 190,135
191,22 194,3 197,3 198,3
199,3 200,4 201,24 202,26
203,2819 204,9999 205,1602 206,115
207,7 215,3 216,13 217,428
218,83 219,9 231,13 234,14
242,3 244,10 245,19 246,3516
247,654 248,59
##END=
