##TITLE=Benzenemethanol, .alpha.-cyclopropyl-4-ethyl-
##JCAMP-DX=4.24
##DATA TYPE=MASS SPECTRUM
##ORIGIN=NIST Mass Spectrometry Data Center, 1994
##OWNER=NIST Mass Spectrometry Data Center
Collection (C) 2014 copyright by the U.S. Secretary of Commerce
on behalf of the United States of America. All rights reserved.
##CAS REGISTRY NO=84100-47-0
##$NIST MASS SPEC NO=136231
##MOLFORM=C12 H16 O
##MW=176
##$NIST SOURCE=MSDC
##XUNITS=M/Z
##YUNITS=RELATIVE INTENSITY
##XFACTOR=1
##YFACTOR=1
##FIRSTX=15
##LASTX=177
##FIRSTY=536
##MAXX=177
##MINX=15
##MAXY=9999
##MINY=30
##NPOINTS=102
##PEAK TABLE=(XY..XY)
15,536 18,156 19,84 26,207
27,2269 28,239 29,2712 30,49
31,42 37,80 38,287 39,3320
40,405 41,2692 42,258 43,657
44,78 50,582 51,1650 52,400
53,670 54,78 55,1464 56,63
57,124 58,89 60,31 61,38
62,210 63,943 64,290 65,1321
66,172 67,58 68,31 69,1147
70,139 71,125 72,66 73,169
74,77 75,278 76,296 77,3077
78,793 79,5992 80,446 81,38
86,57 87,78 89,666 90,385
91,3770 92,409 93,60 98,30
101,79 102,272 103,916 104,370
105,2123 106,643 107,533 108,38
113,34 115,1156 116,324 117,1672
118,262 119,1790 120,386 121,49
126,66 127,300 128,741 129,727
130,241 131,450 132,2444 133,7943
134,835 135,1525 136,158 139,31
141,116 142,49 143,68 144,48
145,144 146,96 147,31 148,9999
149,1129 150,77 157,32 158,30
159,39 161,31 174,63 175,37
176,253 177,36
##END=
