##TITLE=Hippuric-benzaldehyde azalactone
##JCAMP-DX=4.24
##DATA TYPE=MASS SPECTRUM
##ORIGIN=Japan AIST/NIMC Database- Spectrum MS-IW-7529
##OWNER=NIST Mass Spectrometry Data Center
Collection (C) 2014 copyright by the U.S. Secretary of Commerce
on behalf of the United States of America. All rights reserved.
##CAS REGISTRY NO=842-74-0
##$NIST MASS SPEC NO=241247
##MOLFORM=C16 H11 N O2
##MW=249
##$NIST SOURCE=MSDC
##XUNITS=M/Z
##YUNITS=RELATIVE INTENSITY
##XFACTOR=1
##YFACTOR=1
##FIRSTX=27
##LASTX=251
##FIRSTY=30
##MAXX=251
##MINX=27
##MAXY=9999
##MINY=10
##NPOINTS=43
##PEAK TABLE=(XY..XY)
27,30 28,20 38,20 39,90
50,149 51,619 52,50 57,10
62,40 63,119 64,20 65,20
71,10 74,50 75,70 76,199
77,3139 78,199 87,10 88,20
89,149 90,40 91,10 102,80
103,20 104,40 105,9999 106,769
107,40 111,10 116,60 117,10
124,189 125,30 139,50 141,10
155,10 165,10 204,10 248,10
249,3569 250,639 251,70
##END=
