##TITLE=11-Methylbenzo[b]naphtho[1,2-d]thiophene
##JCAMP-DX=4.24
##DATA TYPE=MASS SPECTRUM
##ORIGIN=Organic Synthesis Lab, MSU, Moscow.TRC 355
##OWNER=NIST Mass Spectrometry Data Center
Collection (C) 2014 copyright by the U.S. Secretary of Commerce
on behalf of the United States of America. All rights reserved.
##CAS REGISTRY NO=84258-84-4
##$NIST MASS SPEC NO=326072
##MOLFORM=C17 H12 S
##MW=248
##$NIST SOURCE=MSDC
##XUNITS=M/Z
##YUNITS=RELATIVE INTENSITY
##XFACTOR=1
##YFACTOR=1
##FIRSTX=45
##LASTX=250
##FIRSTY=40
##MAXX=250
##MINX=45
##MAXY=9999
##MINY=10
##NPOINTS=115
##PEAK TABLE=(XY..XY)
45,40 50,40 51,70 61,10
62,110 63,290 64,20 65,20
69,260 74,300 75,340 76,200
77,120 85,50 86,330 87,601
88,861 89,240 90,50 93,420
99,440 100,1782 101,891 103,100
104,621 113,180 114,120 115,200
116,601 117,200 118,10 124,1601
126,190 127,60 130,20 132,10
134,60 137,190 138,140 139,240
140,50 141,40 144,20 145,50
146,50 149,130 150,611 151,340
152,210 153,40 158,50 161,210
162,330 163,641 164,320 165,30
168,20 169,110 170,50 171,80
173,50 174,380 175,230 176,470
182,30 184,20 185,100 186,160
187,801 188,420 189,641 190,90
195,90 196,10 197,10 198,190
199,210 200,631 201,320 202,1141
203,520 204,80 206,90 208,380
210,30 211,150 212,90 213,571
214,220 215,1231 216,220 217,10
218,20 219,170 220,210 221,2462
222,440 223,120 224,20 230,40
231,60 232,621 233,581 234,120
235,10 241,30 242,60 243,681
244,601 245,4434 246,1702 247,7066
248,9999 249,2032 250,571
##END=
