##TITLE=3,5-Difluorocinnamic acid
##JCAMP-DX=4.24
##DATA TYPE=MASS SPECTRUM
##ORIGIN=NIST Mass Spectrometry Data Center, 1994
##OWNER=NIST Mass Spectrometry Data Center
Collection (C) 2014 copyright by the U.S. Secretary of Commerce
on behalf of the United States of America. All rights reserved.
##CAS REGISTRY NO=84315-23-1
##$NIST MASS SPEC NO=136613
##MOLFORM=C9 H6 F2 O2
##MW=184
##$NIST SOURCE=MSDC
##XUNITS=M/Z
##YUNITS=RELATIVE INTENSITY
##XFACTOR=1
##YFACTOR=1
##FIRSTX=17
##LASTX=185
##FIRSTY=157
##MAXX=185
##MINX=17
##MAXY=9999
##MINY=96
##NPOINTS=78
##PEAK TABLE=(XY..XY)
17,157 18,290 36,216 37,270
38,490 39,478 44,96 49,235
50,932 51,653 53,244 54,319
55,191 56,212 57,892 60,432
61,595 62,1080 63,3081 64,401
68,655 69,1680 71,301 75,1004
76,118 77,293 78,216 80,186
81,849 82,243 83,346 85,231
86,426 87,1060 88,743 89,207
91,262 92,590 93,863 94,469
95,261 98,356 99,2610 100,307
101,438 105,289 107,618 108,285
109,296 112,569 113,743 114,639
115,496 118,525 119,6658 120,836
121,121 125,197 127,2689 128,465
130,340 136,1163 137,357 138,3388
139,5537 140,604 141,333 142,184
143,325 155,521 156,849 165,958
166,569 167,5118 168,567 183,5941
184,9999 185,1023
##END=
