##TITLE=Benzene, 1,1'-[sulfonylbis(methylene)]bis[4-chloro-
##JCAMP-DX=4.24
##DATA TYPE=MASS SPECTRUM
##ORIGIN=Div. of Experiment Therapeutics WRAIR, WRAMC, Washington DC 20307
##OWNER=NIST Mass Spectrometry Data Center
Collection (C) 2014 copyright by the U.S. Secretary of Commerce
on behalf of the United States of America. All rights reserved.
##CAS REGISTRY NO=84355-05-5
##$NIST MASS SPEC NO=257174
##MOLFORM=C14 H12 Cl2 O2 S
##MW=314
##$NIST SOURCE=MSDC
##XUNITS=M/Z
##YUNITS=RELATIVE INTENSITY
##XFACTOR=1
##YFACTOR=1
##FIRSTX=41
##LASTX=318
##FIRSTY=25
##MAXX=318
##MINX=41
##MAXY=9999
##MINY=7
##NPOINTS=49
##PEAK TABLE=(XY..XY)
41,25 42,45 45,27 49,56
50,41 51,94 62,82 63,366
64,88 65,77 73,105 75,90
77,29 84,38 85,7 86,42
87,30 88,40 89,924 90,331
91,36 97,24 99,365 100,29
101,117 111,7 122,14 124,75
125,9999 126,842 127,3330 128,224
149,47 150,206 151,15 165,7
178,30 179,14 250,928 251,149
252,613 253,99 254,96 255,7
314,195 315,35 316,139 317,25
318,19
##END=
