##TITLE=9-Methyl-10-nitroanthracene
##JCAMP-DX=4.24
##DATA TYPE=MASS SPECTRUM
##ORIGIN=Organic Synthesis Lab, MSU, Moscow.TRC 258
##OWNER=NIST Mass Spectrometry Data Center
Collection (C) 2014 copyright by the U.S. Secretary of Commerce
on behalf of the United States of America. All rights reserved.
##CAS REGISTRY NO=84457-22-7
##$NIST MASS SPEC NO=326032
##MOLFORM=C15 H11 N O2
##MW=237
##$NIST SOURCE=MSDC
##XUNITS=M/Z
##YUNITS=RELATIVE INTENSITY
##XFACTOR=1
##YFACTOR=1
##FIRSTX=40
##LASTX=239
##FIRSTY=240
##MAXX=239
##MINX=40
##MAXY=9999
##MINY=40
##NPOINTS=114
##PEAK TABLE=(XY..XY)
40,240 43,40 44,160 50,90
51,120 55,120 57,80 62,150
63,260 64,40 65,80 67,40
71,40 73,50 74,300 75,400
76,440 77,240 79,40 85,90
86,250 87,450 88,500 89,751
91,70 97,90 98,280 99,190
100,160 101,150 102,120 103,50
104,40 105,90 107,40 109,80
110,200 111,220 112,70 113,210
114,50 115,330 116,40 121,40
122,120 123,120 124,80 125,120
126,240 127,90 129,80 130,40
133,50 134,70 135,110 137,220
138,120 139,581 140,190 141,130
149,240 150,741 151,841 152,1491
153,400 154,390 155,80 161,220
162,340 163,1491 164,951 165,3413
167,210 168,120 169,70 173,50
174,240 175,360 176,2312 177,1351
178,8137 179,3273 180,2572 181,941
182,260 183,50 185,80 186,210
187,1491 188,1471 189,9579 190,3974
191,2742 192,1061 193,220 194,581
195,120 200,80 201,110 202,80
203,80 204,90 205,190 206,1021
207,5215 208,1211 209,490 210,90
220,80 222,1381 223,280 237,9999
238,1611 239,160
##END=
