##TITLE=3-Heptadecanol
##JCAMP-DX=4.24
##DATA TYPE=MASS SPECTRUM
##ORIGIN=NIST Mass Spectrometry Data Center, 1994
##OWNER=NIST Mass Spectrometry Data Center
Collection (C) 2014 copyright by the U.S. Secretary of Commerce
on behalf of the United States of America. All rights reserved.
##CAS REGISTRY NO=84534-30-5
##$NIST MASS SPEC NO=136467
##MOLFORM=C17 H36 O
##MW=256
##$NIST SOURCE=MSDC
##XUNITS=M/Z
##YUNITS=RELATIVE INTENSITY
##XFACTOR=1
##YFACTOR=1
##FIRSTX=15
##LASTX=239
##FIRSTY=52
##MAXX=239
##MINX=15
##MAXY=9999
##MINY=23
##NPOINTS=70
##PEAK TABLE=(XY..XY)
15,52 18,42 27,1111 28,460
29,2950 30,141 31,1956 39,655
40,211 41,5874 42,998 43,4822
44,409 45,115 53,289 54,426
55,3828 56,992 57,4064 58,1721
59,9999 60,371 65,67 66,37
67,757 68,363 69,3133 70,718
71,1565 72,407 73,154 77,40
79,84 80,36 81,494 82,404
83,2811 84,426 85,857 86,73
95,292 96,272 97,2563 98,331
99,217 105,32 109,86 110,96
111,1420 112,218 113,97 123,45
124,71 125,757 126,106 127,83
138,42 139,302 140,71 152,32
153,119 154,32 166,23 168,26
210,31 225,72 227,915 228,182
238,95 239,28
##END=
