##TITLE=3-Heptadecanone
##JCAMP-DX=4.24
##DATA TYPE=MASS SPECTRUM
##ORIGIN=NIST Mass Spectrometry Data Center, 1994
##OWNER=NIST Mass Spectrometry Data Center
Collection (C) 2014 copyright by the U.S. Secretary of Commerce
on behalf of the United States of America. All rights reserved.
##CAS REGISTRY NO=84534-29-2
##$NIST MASS SPEC NO=136802
##MOLFORM=C17 H34 O
##MW=254
##$NIST SOURCE=MSDC
##XUNITS=M/Z
##YUNITS=RELATIVE INTENSITY
##XFACTOR=1
##YFACTOR=1
##FIRSTX=14
##LASTX=255
##FIRSTY=22
##MAXX=255
##MINX=14
##MAXY=9999
##MINY=15
##NPOINTS=80
##PEAK TABLE=(XY..XY)
14,22 15,117 17,23 18,16
27,2141 28,775 29,7900 30,205
31,104 39,976 41,5616 42,1286
43,7069 44,243 45,49 51,29
52,27 53,323 54,309 55,2955
56,976 57,9999 58,488 59,87
65,41 67,570 68,215 69,1114
70,361 71,1719 72,7921 73,3661
74,166 77,34 79,86 80,35
81,437 82,182 83,594 84,232
85,2182 86,183 87,15 93,43
95,552 96,273 97,355 98,165
99,428 100,42 107,19 109,286
110,134 111,181 112,44 113,83
114,175 115,17 121,16 123,157
124,72 125,84 126,19 127,83
128,68 137,66 138,44 141,77
151,36 152,29 155,16 169,34
180,62 182,22 183,38 211,18
225,902 226,134 254,37 255,17
##END=
