##TITLE=Androstane-3,17-dione, (5.alpha.)-
##JCAMP-DX=4.24
##DATA TYPE=MASS SPECTRUM
##ORIGIN=NIST Mass Spectrometry Data Center
##OWNER=NIST Mass Spectrometry Data Center
Collection (C) 2014 copyright by the U.S. Secretary of Commerce
on behalf of the United States of America. All rights reserved.
##CAS REGISTRY NO=846-46-8
##$NIST MASS SPEC NO=352240
##MOLFORM=C19 H28 O2
##MW=288
##$NIST SOURCE=MSDC
##XUNITS=M/Z
##YUNITS=RELATIVE INTENSITY
##XFACTOR=1
##YFACTOR=1
##FIRSTX=14
##LASTX=291
##FIRSTY=10
##MAXX=291
##MINX=14
##MAXY=9999
##MINY=10
##NPOINTS=230
##PEAK TABLE=(XY..XY)
14,10 15,20 25,10 26,50
27,671 28,480 29,1081 30,30
31,20 37,10 38,30 39,1311
40,390 41,4924 42,851 43,1211
44,80 45,30 49,10 50,50
51,290 52,230 53,2502 54,761
55,7987 56,651 57,601 58,70
59,60 60,40 61,30 62,10
63,100 64,80 65,1391 66,651
67,7327 68,2342 69,1842 70,160
71,240 72,70 73,60 74,210
75,40 77,3483 78,821 79,6966
80,1351 81,5725 82,1391 83,1041
84,140 85,180 86,30 87,40
88,210 89,80 91,6166 92,1161
93,6015 94,1511 95,4204 96,871
97,4464 98,470 99,110 100,30
101,40 102,140 103,500 104,370
105,4784 106,1752 107,4614 108,3243
109,5665 110,3303 111,1501 112,140
113,40 114,20 115,671 116,290
117,1301 118,921 119,3463 120,2012
121,4454 122,2903 123,3383 124,7196
125,1041 126,90 127,130 128,410
129,611 130,310 131,1792 132,791
133,2382 134,1712 135,2762 136,1421
137,1371 138,370 139,70 140,30
141,190 142,180 143,721 144,440
145,1932 146,1001 147,3263 148,1061
149,1311 150,390 151,711 152,140
153,60 154,30 155,170 156,130
157,751 158,510 159,1972 160,1211
161,2242 162,1081 163,2152 164,721
165,571 166,110 167,40 168,20
169,170 170,180 171,881 172,410
173,1031 174,1001 175,1601 176,811
177,410 178,150 179,210 180,30
181,60 182,20 183,190 184,90
185,360 186,300 187,711 188,550
189,761 190,390 191,150 192,150
193,40 194,10 195,120 196,40
197,420 198,160 199,1101 200,270
201,370 202,180 203,330 204,290
205,70 206,40 207,20 209,30
210,20 211,530 212,220 213,681
214,230 215,450 216,771 217,5585
218,1011 219,120 220,10 223,10
224,10 225,20 226,70 227,130
228,110 229,2622 230,601 231,1461
232,961 233,220 234,30 237,180
238,40 239,10 241,90 242,60
244,3984 245,941 246,280 247,40
251,10 252,30 253,20 255,2582
256,500 257,60 258,10 259,40
260,110 261,20 269,30 270,1391
271,300 272,40 273,1141 274,230
275,20 286,10 288,9999 289,2092
290,250 291,20
##END=
