##TITLE=2,4-Dimethyl-3-pentanol acetate
##JCAMP-DX=4.24
##DATA TYPE=MASS SPECTRUM
##ORIGIN=NIST Mass Spectrometry Data Center, 2010
##OWNER=NIST Mass Spectrometry Data Center
Collection (C) 2014 copyright by the U.S. Secretary of Commerce
on behalf of the United States of America. All rights reserved.
##CAS REGISTRY NO=84612-74-8
##$NIST MASS SPEC NO=417254
##MOLFORM=C9 H18 O2
##MW=158
##$NIST SOURCE=MSDC
##XUNITS=M/Z
##YUNITS=RELATIVE INTENSITY
##XFACTOR=1
##YFACTOR=1
##FIRSTX=15
##LASTX=117
##FIRSTY=70
##MAXX=117
##MINX=15
##MAXY=9999
##MINY=10
##NPOINTS=52
##PEAK TABLE=(XY..XY)
15,70 26,10 27,340 28,40
29,190 31,40 37,10 38,20
39,410 40,70 41,1001 43,9999
44,260 45,160 50,10 51,30
52,10 53,110 54,30 55,911
56,230 57,591 58,70 59,50
61,50 63,10 65,30 67,80
68,10 69,140 70,60 71,430
72,170 73,540 77,20 81,20
83,1932 84,130 85,40 86,310
87,1141 88,60 97,40 98,550
99,80 100,20 101,230 102,20
114,340 115,6906 116,460 117,40
##END=
