##TITLE=4-Methyl-3-hexanol acetate
##JCAMP-DX=4.24
##DATA TYPE=MASS SPECTRUM
##ORIGIN=NIST Mass Spectrometry Data Center, 1990.
##OWNER=NIST Mass Spectrometry Data Center
Collection (C) 2014 copyright by the U.S. Secretary of Commerce
on behalf of the United States of America. All rights reserved.
##CAS REGISTRY NO=84612-71-5
##$NIST MASS SPEC NO=114568
##MOLFORM=C9 H18 O2
##MW=158
##$NIST SOURCE=MSDC
##XUNITS=M/Z
##YUNITS=RELATIVE INTENSITY
##XFACTOR=1
##YFACTOR=1
##FIRSTX=15
##LASTX=130
##FIRSTY=135
##MAXX=130
##MINX=15
##MAXY=9999
##MINY=84
##NPOINTS=35
##PEAK TABLE=(XY..XY)
15,135 26,85 27,677 28,84
29,970 31,128 39,709 41,1857
43,9999 44,276 45,326 53,232
54,114 55,980 56,531 57,1337
58,202 59,406 61,111 67,156
69,2994 70,759 71,140 72,972
73,210 83,297 85,188 87,125
98,826 99,120 100,505 101,3144
102,200 129,202 130,155
##END=
