##TITLE=Lormetazepam
##JCAMP-DX=4.24
##DATA TYPE=MASS SPECTRUM
##ORIGIN=AAFS Toxicology Section MS DB Committee, U. Alberta, Canada
##OWNER=NIST Mass Spectrometry Data Center
Collection (C) 2014 copyright by the U.S. Secretary of Commerce
on behalf of the United States of America. All rights reserved.
##CAS REGISTRY NO=848-75-9
##$NIST MASS SPEC NO=246967
##MOLFORM=C16 H12 Cl2 N2 O2
##MW=334
##$NIST SOURCE=MSDC
##XUNITS=M/Z
##YUNITS=RELATIVE INTENSITY
##XFACTOR=1
##YFACTOR=1
##FIRSTX=39
##LASTX=339
##FIRSTY=120
##MAXX=339
##MINX=39
##MAXY=9999
##MINY=20
##NPOINTS=133
##PEAK TABLE=(XY..XY)
39,120 40,60 42,120 43,190
44,60 50,160 51,210 55,140
57,160 62,140 63,240 73,230
74,270 75,1101 76,450 77,580
78,130 81,230 82,230 83,180
84,120 87,260 88,170 89,280
91,130 96,330 98,190 99,290
100,190 101,120 102,970 103,470
105,160 106,110 109,140 110,260
111,800 112,290 113,390 114,240
115,120 117,410 121,290 123,210
124,280 125,610 126,260 127,230
132,190 135,220 136,210 137,310
138,830 139,700 140,730 141,210
149,290 150,550 151,620 152,530
153,210 154,130 161,130 162,130
163,520 164,450 165,900 166,260
167,270 175,140 176,220 177,750
178,290 179,220 180,190 186,130
190,170 191,320 192,320 193,560
195,340 197,120 199,310 200,160
201,160 205,160 206,160 207,160
213,130 214,220 226,220 227,460
228,370 229,180 235,190 239,190
241,130 242,140 243,180 250,120
254,160 255,710 256,240 257,230
261,170 262,420 263,140 264,420
269,430 270,130 271,240 273,220
275,140 277,120 289,620 290,330
291,820 292,190 293,210 299,220
304,160 305,9999 306,1661 307,6045
308,1080 309,970 310,160 334,970
335,180 336,560 337,120 338,115
339,20
##END=
