##TITLE=Hexanedioic acid, dicyclohexyl ester
##JCAMP-DX=4.24
##DATA TYPE=MASS SPECTRUM
##ORIGIN=H. Fales, LC, NHLBI, NIH, Bethesda, MD 20892
##OWNER=NIST Mass Spectrometry Data Center
Collection (C) 2014 copyright by the U.S. Secretary of Commerce
on behalf of the United States of America. All rights reserved.
##CAS REGISTRY NO=849-99-0
##$NIST MASS SPEC NO=132884
##MOLFORM=C18 H30 O4
##MW=310
##$NIST SOURCE=MSDC
##XUNITS=M/Z
##YUNITS=RELATIVE INTENSITY
##XFACTOR=1
##YFACTOR=1
##FIRSTX=41
##LASTX=312
##FIRSTY=2361
##MAXX=312
##MINX=41
##MAXY=9999
##MINY=5
##NPOINTS=99
##PEAK TABLE=(XY..XY)
41,2361 42,184 43,768 44,164
45,134 47,58 48,22 49,237
51,154 52,27 53,322 54,1023
55,5617 56,620 57,410 59,384
60,66 61,21 63,5 65,66
66,33 67,1901 68,103 69,166
70,57 71,52 72,10 73,288
74,24 77,65 78,9 79,200
80,53 81,500 82,974 83,2657
84,416 85,81 86,100 87,274
88,19 91,9 95,6 96,5
97,32 98,458 99,790 100,564
101,1303 102,689 103,92 109,14
111,1713 112,233 113,23 117,7
119,6 121,6 122,5 125,5
126,17 127,50 128,879 129,9999
130,595 131,79 142,49 143,27
145,36 146,1197 147,5090 148,304
149,59 155,7 157,47 169,170
170,16 175,12 182,58 184,280
185,209 186,25 187,5 200,5
210,16 211,702 212,91 213,8
228,328 229,1062 230,132 231,20
241,27 282,54 283,10 309,63
310,111 311,84 312,5
##END=
