##TITLE=3,6-Dichloro-2-methoxybenzoic acid,pentafluorobenzyl ester
##JCAMP-DX=4.24
##DATA TYPE=MASS SPECTRUM
##ORIGIN=V.Lopez-Avila ET AL.J.Agr.Food Chem.,34,530(1986)
##OWNER=NIST Mass Spectrometry Data Center
Collection (C) 2014 copyright by the U.S. Secretary of Commerce
on behalf of the United States of America. All rights reserved.
##CAS REGISTRY NO=84949-26-8
##$NIST MASS SPEC NO=281666
##MOLFORM=C15 H7 Cl2 F5 O3
##MW=400
##$NIST SOURCE=MSDC
##XUNITS=M/Z
##YUNITS=RELATIVE INTENSITY
##XFACTOR=1
##YFACTOR=1
##FIRSTX=50
##LASTX=404
##FIRSTY=60
##MAXX=404
##MINX=50
##MAXY=9999
##MINY=60
##NPOINTS=68
##PEAK TABLE=(XY..XY)
50,60 51,270 61,360 62,330
69,180 73,120 74,300 75,571
77,120 81,150 93,120 97,851
98,60 99,420 109,821 110,210
111,791 112,330 113,120 117,150
125,150 131,360 132,240 133,120
134,90 135,90 141,60 143,90
145,571 147,360 150,60 153,210
155,300 160,691 162,881 163,60
167,90 168,60 172,90 173,120
174,60 175,120 176,150 177,60
181,9999 182,1091 188,1722 189,6316
190,1421 191,3873 192,300 193,510
195,420 196,60 201,571 202,210
203,8918 204,971 205,5715 207,971
218,300 220,150 242,90 400,1031
401,120 402,601 403,60 404,90
##END=
