##TITLE=Phenanthrene
##JCAMP-DX=4.24
##DATA TYPE=MASS SPECTRUM
##ORIGIN=NIST Mass Spectrometry Data Center, 1990.
##OWNER=NIST Mass Spectrometry Data Center
Collection (C) 2014 copyright by the U.S. Secretary of Commerce
on behalf of the United States of America. All rights reserved.
##CAS REGISTRY NO=85-01-8
##$NIST MASS SPEC NO=113931
##MOLFORM=C14 H10
##MW=178
##$NIST SOURCE=MSDC
##XUNITS=M/Z
##YUNITS=RELATIVE INTENSITY
##XFACTOR=1
##YFACTOR=1
##FIRSTX=27
##LASTX=184
##FIRSTY=64
##MAXX=184
##MINX=27
##MAXY=9999
##MINY=22
##NPOINTS=48
##PEAK TABLE=(XY..XY)
27,64 28,22 38,70 39,199
50,315 51,272 61,94 62,288
63,646 64,39 74,500 75,728
76,1379 85,65 86,222 87,442
88,937 89,1011 98,281 99,184
100,76 101,63 102,93 110,89
111,98 113,79 115,48 122,72
123,49 125,85 126,212 127,71
128,95 139,158 149,137 150,779
151,912 152,1324 153,165 163,55
174,245 175,321 176,2021 177,1217
178,9999 179,1503 180,111 184,57
##END=
