##TITLE=8-Chlorotheophylline
##JCAMP-DX=4.24
##DATA TYPE=MASS SPECTRUM
##ORIGIN=NIST Mass Spectrometry Data Center
##OWNER=NIST Mass Spectrometry Data Center
Collection (C) 2014 copyright by the U.S. Secretary of Commerce
on behalf of the United States of America. All rights reserved.
##CAS REGISTRY NO=85-18-7
##$NIST MASS SPEC NO=343355
##MOLFORM=C7 H7 Cl N4 O2
##MW=214
##$NIST SOURCE=MSDC
##XUNITS=M/Z
##YUNITS=RELATIVE INTENSITY
##XFACTOR=1
##YFACTOR=1
##FIRSTX=12
##LASTX=217
##FIRSTY=40
##MAXX=217
##MINX=12
##MAXY=9999
##MINY=20
##NPOINTS=111
##PEAK TABLE=(XY..XY)
12,40 13,30 15,2502 16,30
18,20 24,30 26,70 27,440
28,1501 29,310 30,150 31,20
35,110 36,90 37,50 38,440
39,380 40,1722 41,2222 42,1231
43,130 44,80 47,210 48,30
49,160 50,50 51,120 53,3293
54,540 55,190 56,791 57,190
58,380 61,80 62,621 63,80
64,350 65,180 66,641 67,2893
68,7277 69,490 70,460 73,230
74,110 75,130 76,270 77,50
78,240 79,80 80,190 81,120
82,90 83,40 87,270 88,40
89,160 92,50 93,170 94,861
95,661 96,90 97,40 99,60
100,70 101,140 102,731 103,100
104,210 105,30 107,90 108,70
111,70 115,140 116,70 117,50
122,110 123,60 127,70 128,791
129,6526 130,1271 131,2282 132,330
133,50 141,30 142,90 143,50
144,110 151,40 152,270 156,550
157,1631 158,561 159,711 160,140
161,30 169,70 170,160 171,80
172,50 180,110 184,60 185,851
186,160 187,310 188,30 214,9999
215,1121 216,3393 217,290
##END=
