##TITLE=3-Acetamido-2,4,6-triiodobenzoic acid
##JCAMP-DX=4.24
##DATA TYPE=MASS SPECTRUM
##ORIGIN=Japan AIST/NIMC Database- Spectrum MS-NW-3518
##OWNER=NIST Mass Spectrometry Data Center
Collection (C) 2014 copyright by the U.S. Secretary of Commerce
on behalf of the United States of America. All rights reserved.
##CAS REGISTRY NO=85-36-9
##$NIST MASS SPEC NO=231922
##MOLFORM=C9 H6 I3 N O3
##MW=557
##$NIST SOURCE=MSDC
##XUNITS=M/Z
##YUNITS=RELATIVE INTENSITY
##XFACTOR=1
##YFACTOR=1
##FIRSTX=14
##LASTX=557
##FIRSTY=109
##MAXX=557
##MINX=14
##MAXY=9999
##MINY=10
##NPOINTS=276
##PEAK TABLE=(XY..XY)
14,109 15,529 16,10 17,99
18,359 20,10 25,10 26,20
27,60 28,339 29,50 32,20
35,10 36,80 37,409 38,279
39,199 40,70 41,139 42,379
43,9999 44,759 45,269 46,10
48,20 49,169 50,289 51,369
52,549 53,199 54,80 55,109
56,30 57,90 60,359 61,2289
62,2009 63,879 64,249 65,139
66,90 67,70 68,50 69,80
70,40 71,50 72,80 73,399
74,329 75,209 76,419 77,579
78,699 79,299 80,80 81,40
82,30 83,90 84,40 85,30
86,349 87,909 88,1529 89,1029
90,589 91,269 92,139 93,30
94,10 95,30 96,20 97,60
98,30 99,60 100,50 101,60
102,149 103,159 104,239 105,289
106,389 107,349 108,60 109,30
110,10 111,20 112,20 113,10
114,20 115,169 116,199 117,209
118,129 119,80 120,99 121,30
122,20 123,10 124,10 125,20
126,10 127,4559 128,5939 129,30
130,139 131,339 132,1589 133,419
134,209 135,209 136,50 137,60
138,10 139,60 140,20 141,30
142,20 143,10 144,10 146,20
147,119 148,879 149,279 150,40
151,30 152,50 153,60 154,20
155,20 158,70 159,20 160,20
163,169 164,139 165,109 166,40
167,20 171,20 172,20 175,20
176,199 177,90 178,239 179,99
180,10 181,20 182,20 184,30
185,20 187,139 188,549 189,529
190,90 191,30 192,30 193,20
194,20 199,10 200,119 201,50
202,10 203,60 204,189 205,269
206,90 207,20 213,30 214,479
215,429 216,649 217,499 218,369
219,40 220,10 226,10 228,30
229,60 230,139 231,60 232,319
233,919 234,259 235,30 242,90
243,589 244,359 245,149 246,90
247,20 248,20 254,469 256,30
257,80 258,819 259,909 260,189
261,439 262,209 263,309 264,20
270,20 272,10 273,10 274,90
275,139 276,20 285,30 286,229
287,20 289,20 290,20 291,20
302,70 303,279 304,1369 305,219
306,30 315,129 316,10 317,20
330,10 331,30 332,139 333,20
341,30 342,119 343,159 344,129
345,30 356,99 357,20 358,10
359,30 360,369 361,30 369,519
370,139 371,99 372,99 373,10
382,10 383,10 384,40 385,229
386,389 387,80 388,159 389,979
390,80 398,20 401,20 411,10
412,229 413,30 414,10 416,10
429,289 430,5689 431,1049 432,99
468,10 469,10 470,40 471,149
472,10 487,10 497,40 498,169
511,10 512,10 513,20 514,70
515,1919 516,169 517,10 557,90
##END=
