##TITLE=1-Naphthalenesulfonyl chlorine
##JCAMP-DX=4.24
##DATA TYPE=MASS SPECTRUM
##ORIGIN=NIST Mass Spectrometry Data Center, 1994
##OWNER=NIST Mass Spectrometry Data Center
Collection (C) 2014 copyright by the U.S. Secretary of Commerce
on behalf of the United States of America. All rights reserved.
##CAS REGISTRY NO=85-46-1
##$NIST MASS SPEC NO=134302
##MOLFORM=C10 H7 Cl O2 S
##MW=226
##$NIST SOURCE=MSDC
##XUNITS=M/Z
##YUNITS=RELATIVE INTENSITY
##XFACTOR=1
##YFACTOR=1
##FIRSTX=15
##LASTX=230
##FIRSTY=8
##MAXX=230
##MINX=15
##MAXY=9999
##MINY=3
##NPOINTS=110
##PEAK TABLE=(XY..XY)
15,8 16,3 26,64 27,141
29,18 35,85 36,24 37,69
38,154 39,274 40,14 44,5
45,85 48,395 50,514 51,547
52,80 53,34 57,16 58,11
61,123 62,353 63,1125 65,84
66,27 67,20 68,47 69,149
70,16 71,12 72,43 74,669
75,777 76,418 77,1011 78,81
79,43 81,123 82,76 83,53
84,12 85,78 86,183 87,334
88,118 89,156 90,17 93,69
94,14 95,58 98,262 99,193
100,218 101,669 102,127 103,81
104,11 105,15 106,14 108,23
109,10 110,19 111,25 113,85
114,130 115,755 116,60 117,8
119,24 120,19 122,54 123,14
126,2225 127,9999 128,992 129,43
131,31 132,12 133,13 134,25
135,14 143,448 144,57 145,38
146,19 147,141 148,18 149,32
158,34 159,8 162,3439 163,432
164,1128 165,118 166,7 174,48
175,88 176,16 177,47 178,32
179,18 191,2157 192,256 193,121
194,11 226,3459 227,437 228,1301
229,152 230,57
##END=
