##TITLE=1,2,3,6-Tetrahydrophthalimide
##JCAMP-DX=4.24
##DATA TYPE=MASS SPECTRUM
##ORIGIN=W. LORENZ, INST. OKOLOGISCHE CHEM., NEUHERBERG, GERMANY
##OWNER=NIST Mass Spectrometry Data Center
Collection (C) 2014 copyright by the U.S. Secretary of Commerce
on behalf of the United States of America. All rights reserved.
##CAS REGISTRY NO=85-40-5
##$NIST MASS SPEC NO=101345
##MOLFORM=C8 H9 N O2
##MW=151
##$NIST SOURCE=MSDC
##XUNITS=M/Z
##YUNITS=RELATIVE INTENSITY
##XFACTOR=1
##YFACTOR=1
##FIRSTX=41
##LASTX=152
##FIRSTY=320
##MAXX=152
##MINX=41
##MAXY=9999
##MINY=300
##NPOINTS=25
##PEAK TABLE=(XY..XY)
41,320 43,380 44,380 50,740
51,1360 52,810 53,740 54,600
63,310 65,430 77,2760 78,1800
79,9999 80,6140 81,510 96,470
105,440 106,540 107,510 108,470
122,1320 123,1840 124,300 151,5260
152,550
##END=
