##TITLE=1,3-Isobenzofurandione, 3a,4,7,7a-tetrahydro-
##JCAMP-DX=4.24
##DATA TYPE=MASS SPECTRUM
##ORIGIN=TAT 0005
##OWNER=NIST Mass Spectrometry Data Center
Collection (C) 2014 copyright by the U.S. Secretary of Commerce
on behalf of the United States of America. All rights reserved.
##CAS REGISTRY NO=85-43-8
##$NIST MASS SPEC NO=4899
##MOLFORM=C8 H8 O3
##MW=152
##$NIST SOURCE=MSDC
##XUNITS=M/Z
##YUNITS=RELATIVE INTENSITY
##XFACTOR=1
##YFACTOR=1
##FIRSTX=26
##LASTX=152
##FIRSTY=400
##MAXX=152
##MINX=26
##MAXY=9999
##MINY=100
##NPOINTS=27
##PEAK TABLE=(XY..XY)
26,400 27,1001 29,200 38,500
39,1702 40,500 41,400 43,200
44,300 50,801 51,1101 52,601
53,601 54,300 63,300 65,601
66,100 75,200 77,1501 78,1301
79,9999 80,5105 81,400 123,400
124,3503 125,300 152,100
##END=
