##TITLE=1,2-Benzenedicarboxylic acid, 2-ethoxy-2-oxoethyl methyl ester
##JCAMP-DX=4.24
##DATA TYPE=MASS SPECTRUM
##ORIGIN=Japan AIST/NIMC Database- Spectrum MS-NW-5289
##OWNER=NIST Mass Spectrometry Data Center
Collection (C) 2014 copyright by the U.S. Secretary of Commerce
on behalf of the United States of America. All rights reserved.
##CAS REGISTRY NO=85-71-2
##$NIST MASS SPEC NO=232709
##MOLFORM=C13 H14 O6
##MW=266
##$NIST SOURCE=MSDC
##XUNITS=M/Z
##YUNITS=RELATIVE INTENSITY
##XFACTOR=1
##YFACTOR=1
##FIRSTX=15
##LASTX=267
##FIRSTY=159
##MAXX=267
##MINX=15
##MAXY=9999
##MINY=10
##NPOINTS=93
##PEAK TABLE=(XY..XY)
15,159 18,10 26,20 27,149
28,30 29,449 30,30 31,209
32,10 38,40 39,90 41,70
42,169 43,90 44,30 45,179
46,10 49,10 50,429 51,139
52,80 53,20 55,10 56,20
57,50 59,329 60,10 61,20
62,10 63,50 64,90 65,149
66,259 69,10 70,10 73,119
74,119 75,159 76,799 77,1069
78,80 79,80 81,30 87,219
88,80 89,10 90,10 91,60
92,389 93,129 94,10 103,10
104,739 105,319 106,30 107,10
117,10 118,20 119,30 120,119
121,109 122,20 132,229 133,239
134,30 135,379 136,70 147,10
148,10 149,1369 150,129 151,10
161,10 162,90 163,9999 164,1039
165,119 166,10 176,70 177,399
178,50 179,10 193,20 194,30
207,20 221,319 222,50 234,10
235,599 236,99 237,10 266,70
267,10
##END=
