##TITLE=2-Naphthalenol, 1-(2-pyridinylazo)-
##JCAMP-DX=4.24
##DATA TYPE=MASS SPECTRUM
##ORIGIN=GFS Chemicals / NIST MS Data Center.
##OWNER=NIST Mass Spectrometry Data Center
Collection (C) 2014 copyright by the U.S. Secretary of Commerce
on behalf of the United States of America. All rights reserved.
##CAS REGISTRY NO=85-85-8
##$NIST MASS SPEC NO=125327
##MOLFORM=C15 H11 N3 O
##MW=249
##$NIST SOURCE=MSDC
##XUNITS=M/Z
##YUNITS=RELATIVE INTENSITY
##XFACTOR=1
##YFACTOR=1
##FIRSTX=14
##LASTX=251
##FIRSTY=42
##MAXX=251
##MINX=14
##MAXY=9999
##MINY=1
##NPOINTS=121
##PEAK TABLE=(XY..XY)
14,42 17,1 18,2 26,44
27,271 28,195 29,22 32,51
36,17 37,52 38,153 39,526
40,113 41,59 49,35 50,242
51,797 52,380 53,79 58,16
59,19 61,34 62,153 63,373
64,160 65,253 66,96 67,69
71,14 74,169 75,409 76,218
77,261 78,683 79,365 80,55
84,14 85,21 86,46 87,115
88,258 89,628 90,119 91,20
92,21 93,28 94,45 95,16
96,28 97,23 98,26 99,47
100,96 101,357 102,205 103,53
110,83 113,261 114,818 115,3309
116,397 117,126 118,17 119,21
125,20 126,77 127,129 128,251
129,97 130,24 139,46 140,51
143,2153 144,258 145,152 146,24
150,12 151,17 152,32 153,24
156,30 163,53 164,49 165,172
166,65 167,78 168,20 169,85
171,92 172,13 176,22 177,26
178,24 179,20 180,17 181,21
190,117 191,485 192,360 193,151
194,45 201,17 202,46 203,24
204,36 205,22 207,14 208,23
213,15 214,21 215,15 216,23
220,9999 221,2860 222,364 223,33
230,10 231,10 249,554 250,108
251,14
##END=
