##TITLE=2-Naphthalenol, 1-[[2-methyl-4-[(2-methylphenyl)azo]phenyl]azo]-
##JCAMP-DX=4.24
##DATA TYPE=MASS SPECTRUM
##ORIGIN=Japan AIST/NIMC Database- Spectrum MS-NW-6642
##OWNER=NIST Mass Spectrometry Data Center
Collection (C) 2014 copyright by the U.S. Secretary of Commerce
on behalf of the United States of America. All rights reserved.
##CAS REGISTRY NO=85-83-6
##$NIST MASS SPEC NO=235038
##MOLFORM=C24 H20 N4 O
##MW=380
##$NIST SOURCE=MSDC
##XUNITS=M/Z
##YUNITS=RELATIVE INTENSITY
##XFACTOR=1
##YFACTOR=1
##FIRSTX=17
##LASTX=383
##FIRSTY=50
##MAXX=383
##MINX=17
##MAXY=9999
##MINY=10
##NPOINTS=308
##PEAK TABLE=(XY..XY)
17,50 18,39 26,20 27,149
28,199 29,10 30,30 32,10
37,10 38,70 39,729 40,90
41,259 42,50 43,20 44,10
49,10 50,189 51,689 52,319
53,139 54,60 55,30 56,10
57,20 61,20 62,109 63,579
64,269 65,1859 66,169 67,30
68,10 69,10 71,20 72,20
73,10 74,90 75,269 76,269
77,1129 78,499 79,319 80,50
81,10 83,10 85,10 86,20
87,50 88,139 89,1189 90,929
91,7529 92,729 93,129 94,60
95,10 96,10 97,10 98,10
99,20 100,30 101,469 102,379
103,219 104,809 105,339 106,1269
107,319 108,30 109,10 110,10
111,10 112,10 113,119 114,449
115,3919 116,449 117,90 118,129
119,1069 120,119 121,119 122,50
123,10 125,10 126,40 127,129
128,739 129,599 130,329 131,70
132,70 133,20 134,169 135,40
138,10 139,50 140,60 141,80
142,169 143,5769 144,949 145,99
146,20 149,10 150,10 151,40
152,99 153,80 154,60 155,40
156,249 157,139 158,249 159,199
160,30 161,10 163,20 164,40
165,339 166,139 167,109 168,70
169,90 170,439 171,1659 172,209
173,20 174,10 175,20 176,40
177,40 178,119 179,119 180,279
181,199 182,99 183,60 184,60
185,20 186,10 187,10 188,10
189,189 190,489 191,80 192,60
193,90 194,229 195,299 196,189
197,209 198,40 199,10 200,10
201,20 202,119 203,119 204,129
205,189 206,139 207,189 208,269
209,459 210,249 211,80 212,30
213,20 214,20 215,139 216,149
217,159 218,409 219,199 220,119
221,60 222,289 223,829 224,869
225,599 226,119 227,20 228,30
229,60 230,169 231,239 232,479
233,789 234,259 235,60 236,40
237,70 238,20 239,10 240,10
241,10 242,30 243,70 244,409
245,219 246,229 247,99 248,40
249,30 250,10 251,10 252,10
253,10 254,10 255,10 256,10
257,20 258,30 259,109 260,219
261,7779 262,1509 263,169 264,20
265,10 268,10 269,10 270,10
272,10 273,30 274,70 275,109
276,70 277,129 278,50 279,10
280,20 281,10 282,10 283,10
286,10 287,10 289,109 290,30
291,10 292,10 294,10 298,10
299,20 305,10 306,10 307,10
308,10 309,10 311,10 313,10
314,30 315,80 316,20 318,10
319,10 320,10 321,20 322,10
323,30 324,20 325,10 327,10
328,10 330,10 331,10 332,10
333,10 334,30 335,40 336,40
337,50 338,20 339,10 343,10
344,20 345,10 346,20 347,20
348,20 349,239 350,109 351,279
352,259 353,70 354,20 355,10
359,10 361,10 362,20 363,229
364,80 365,50 366,20 367,10
368,10 369,10 373,10 375,10
376,10 377,10 378,90 379,259
380,9999 381,2819 382,419 383,50
##END=
