##TITLE=N,N'-Diethyl-N,N'-diphenylurea
##JCAMP-DX=4.24
##DATA TYPE=MASS SPECTRUM
##ORIGIN=NIST Mass Spectrometry Data Center, 1998.
##OWNER=NIST Mass Spectrometry Data Center
Collection (C) 2014 copyright by the U.S. Secretary of Commerce
on behalf of the United States of America. All rights reserved.
##CAS REGISTRY NO=85-98-3
##$NIST MASS SPEC NO=291022
##MOLFORM=C17 H20 N2 O
##MW=268
##$NIST SOURCE=MSDC
##XUNITS=M/Z
##YUNITS=RELATIVE INTENSITY
##XFACTOR=1
##YFACTOR=1
##FIRSTX=15
##LASTX=270
##FIRSTY=10
##MAXX=270
##MINX=15
##MAXY=9999
##MINY=10
##NPOINTS=116
##PEAK TABLE=(XY..XY)
15,10 26,10 27,240 29,980
30,30 37,10 38,30 39,180
40,30 41,50 42,90 43,10
44,90 50,100 51,700 52,110
53,30 54,20 56,10 62,20
63,140 64,210 65,400 66,110
67,20 68,10 70,10 73,20
74,20 75,30 76,90 77,3830
78,410 79,160 80,30 88,10
89,20 90,70 91,470 92,1140
93,700 94,90 95,10 102,20
103,200 104,1120 105,650 106,480
107,40 115,10 116,10 117,50
118,340 119,410 120,9999 121,1300
122,100 123,10 127,10 128,10
130,10 131,10 132,30 133,10
134,60 135,20 136,10 139,10
140,10 141,10 146,20 148,7889
149,940 150,70 151,10 152,20
153,10 154,10 163,180 164,1010
165,110 166,30 167,60 168,40
169,10 175,110 176,20 177,10
179,10 180,30 181,30 182,190
183,30 193,10 194,10 195,30
196,130 197,60 198,10 209,10
210,20 211,40 212,10 223,20
237,10 238,10 239,170 240,30
241,10 251,10 253,70 254,10
267,290 268,2940 269,590 270,60
##END=
