##TITLE=Benzoic acid, 2-(methylamino)-, methyl ester
##JCAMP-DX=4.24
##DATA TYPE=MASS SPECTRUM
##ORIGIN=NIST Mass Spectrometry Data Center, 2010
##OWNER=NIST Mass Spectrometry Data Center
Collection (C) 2014 copyright by the U.S. Secretary of Commerce
on behalf of the United States of America. All rights reserved.
##CAS REGISTRY NO=85-91-6
##$NIST MASS SPEC NO=374480
##MOLFORM=C9 H11 N O2
##MW=165
##$NIST SOURCE=MSDC
##XUNITS=M/Z
##YUNITS=RELATIVE INTENSITY
##XFACTOR=1
##YFACTOR=1
##FIRSTX=14
##LASTX=167
##FIRSTY=10
##MAXX=167
##MINX=14
##MAXY=9999
##MINY=10
##NPOINTS=83
##PEAK TABLE=(XY..XY)
14,10 15,210 26,20 27,120
28,260 29,150 30,330 31,60
33,20 37,90 38,230 39,540
40,60 41,120 42,60 43,10
45,50 49,40 50,651 51,1451
52,631 53,270 54,60 55,40
56,10 59,60 60,10 61,80
62,230 63,831 64,851 65,561
66,811 68,20 72,10 74,340
75,280 76,550 77,4944 78,2913
79,1081 80,100 81,20 82,120
86,10 87,10 88,50 89,80
90,240 91,951 92,791 93,100
94,30 95,10 99,10 100,10
102,90 103,110 104,8568 105,9178
106,1591 107,130 108,10 116,651
117,100 119,80 120,60 121,40
122,20 130,20 132,5555 133,3053
134,2352 135,250 136,20 137,10
149,50 150,400 151,40 163,10
165,9999 166,1001 167,80
##END=
