##TITLE=2,5-Difluorophenylacetic acid
##JCAMP-DX=4.24
##DATA TYPE=MASS SPECTRUM
##ORIGIN=NIST Mass Spectrometry Data Center, 1994
##OWNER=NIST Mass Spectrometry Data Center
Collection (C) 2014 copyright by the U.S. Secretary of Commerce
on behalf of the United States of America. All rights reserved.
##CAS REGISTRY NO=85068-27-5
##$NIST MASS SPEC NO=136082
##MOLFORM=C8 H6 F2 O2
##MW=172
##$NIST SOURCE=MSDC
##XUNITS=M/Z
##YUNITS=RELATIVE INTENSITY
##XFACTOR=1
##YFACTOR=1
##FIRSTX=12
##LASTX=174
##FIRSTY=10
##MAXX=174
##MINX=12
##MAXY=9999
##MINY=9
##NPOINTS=109
##PEAK TABLE=(XY..XY)
12,10 13,12 17,48 18,38
19,16 20,17 25,12 26,72
27,16 28,33 29,117 30,12
31,545 32,9 33,68 37,145
38,216 39,311 40,16 41,17
42,61 43,19 44,137 45,1001
46,26 47,11 48,14 49,63
50,457 51,634 52,38 53,73
55,27 56,182 57,1000 58,44
60,21 61,202 62,321 63,504
65,21 68,169 69,172 70,116
71,22 72,9 73,60 74,187
75,769 76,144 77,564 78,53
79,45 80,139 81,612 82,111
83,145 84,22 85,85 86,102
87,92 88,76 89,49 91,15
92,49 93,56 94,83 95,176
96,181 97,67 98,19 99,167
100,15 101,1715 102,106 103,16
104,34 105,127 106,15 107,1486
108,1326 109,209 110,19 112,15
113,38 114,40 115,71 119,17
120,11 123,54 124,381 125,609
126,11 127,9999 128,1280 129,66
130,45 137,26 141,24 143,65
144,162 145,31 152,69 153,13
154,37 155,22 172,2631 173,220
174,20
##END=
