##TITLE=3-Chloro-2-fluorobenzyl bromide
##JCAMP-DX=4.24
##DATA TYPE=MASS SPECTRUM
##ORIGIN=NIST Mass Spectrometry Data Center, 1994
##OWNER=NIST Mass Spectrometry Data Center
Collection (C) 2014 copyright by the U.S. Secretary of Commerce
on behalf of the United States of America. All rights reserved.
##CAS REGISTRY NO=85070-47-9
##$NIST MASS SPEC NO=136817
##MOLFORM=C7 H5 Br Cl F
##MW=222
##$NIST SOURCE=MSDC
##XUNITS=M/Z
##YUNITS=RELATIVE INTENSITY
##XFACTOR=1
##YFACTOR=1
##FIRSTX=13
##LASTX=226
##FIRSTY=16
##MAXX=226
##MINX=13
##MAXY=9999
##MINY=14
##NPOINTS=86
##PEAK TABLE=(XY..XY)
13,16 18,49 25,18 26,60
33,49 35,69 36,56 37,257
38,283 39,447 40,15 43,14
44,100 47,35 48,22 49,177
50,576 51,415 52,54 54,231
55,29 56,251 57,854 58,58
60,90 61,413 62,570 63,530
64,43 67,138 68,163 69,195
70,55 72,251 73,206 75,219
76,36 77,35 78,35 79,322
80,264 81,1145 82,274 83,451
84,133 85,183 86,197 87,168
88,71 89,122 90,26 91,220
92,44 93,220 94,61 95,40
96,29 97,63 99,27 101,65
102,88 103,41 104,51 105,147
106,26 107,2747 108,1067 109,99
111,56 112,74 115,45 117,712
118,38 119,216 123,82 125,38
141,63 143,9999 144,866 145,3267
146,249 222,628 223,111 224,772
225,87 226,208
##END=
