##TITLE=10H-Phenothiazine-10-propanamine, 2-methoxy-N,N,.beta.-trimethyl-
##JCAMP-DX=4.24
##DATA TYPE=MASS SPECTRUM
##ORIGIN=Japan AIST/NIMC Database- Spectrum MS-IW-3599
##OWNER=NIST Mass Spectrometry Data Center
Collection (C) 2014 copyright by the U.S. Secretary of Commerce
on behalf of the United States of America. All rights reserved.
##CAS REGISTRY NO=851-68-3
##$NIST MASS SPEC NO=244417
##MOLFORM=C19 H24 N2 O S
##MW=328
##$NIST SOURCE=MSDC
##XUNITS=M/Z
##YUNITS=RELATIVE INTENSITY
##XFACTOR=1
##YFACTOR=1
##FIRSTX=14
##LASTX=331
##FIRSTY=10
##MAXX=331
##MINX=14
##MAXY=9999
##MINY=10
##NPOINTS=221
##PEAK TABLE=(XY..XY)
14,10 15,50 16,10 17,20
18,70 24,10 25,70 26,479
27,229 28,149 29,129 30,219
32,10 36,10 37,10 38,10
39,109 40,20 41,179 42,399
43,179 44,339 45,389 46,70
50,30 51,60 52,30 53,119
54,449 55,239 56,90 57,149
58,9999 59,579 60,20 62,20
63,99 64,30 65,60 66,10
67,20 68,40 69,129 70,119
71,139 72,519 73,40 74,20
75,40 76,30 77,99 78,20
79,20 80,10 81,50 82,50
83,30 84,429 85,159 86,199
87,20 88,10 89,30 90,10
91,20 92,20 93,30 94,10
95,50 96,30 97,30 98,169
99,229 100,1689 101,129 102,20
103,10 104,10 105,20 106,10
107,10 108,50 109,70 110,10
111,10 113,20 114,30 115,70
116,20 117,10 119,10 120,10
121,20 122,10 123,10 125,10
126,20 127,50 128,40 129,20
130,10 132,10 133,10 134,20
135,20 136,20 137,10 138,10
139,50 140,90 141,99 142,20
145,10 146,20 147,10 148,10
149,10 151,10 152,30 153,70
154,80 155,10 157,10 158,30
159,40 160,10 161,10 164,50
165,20 166,90 167,219 168,50
169,20 170,20 171,70 172,30
173,10 174,10 177,10 178,10
179,20 180,30 181,10 182,30
183,30 184,109 185,779 186,299
187,70 188,10 191,10 192,20
193,20 194,30 195,40 196,70
197,60 198,189 199,159 200,90
201,20 204,10 205,10 206,10
207,10 208,40 209,80 210,469
211,109 212,60 213,30 214,119
215,30 216,10 220,20 221,10
222,10 223,40 224,30 225,20
226,60 227,149 228,929 229,1079
230,199 231,60 234,20 235,20
236,30 237,30 238,30 239,30
240,60 241,40 242,859 243,539
244,119 245,30 250,20 251,20
252,30 253,50 254,70 255,40
256,20 266,10 267,10 268,349
269,309 270,279 271,60 272,10
282,559 283,749 284,169 285,50
286,10 328,4599 329,1029 330,329
331,50
##END=
