##TITLE=2,5-Difluorobenzylamine
##JCAMP-DX=4.24
##DATA TYPE=MASS SPECTRUM
##ORIGIN=NIST Mass Spectrometry Data Center, 1990.
##OWNER=NIST Mass Spectrometry Data Center
Collection (C) 2014 copyright by the U.S. Secretary of Commerce
on behalf of the United States of America. All rights reserved.
##CAS REGISTRY NO=85118-06-5
##$NIST MASS SPEC NO=119036
##MOLFORM=C7 H7 F2 N
##MW=143
##$NIST SOURCE=MSDC
##XUNITS=M/Z
##YUNITS=RELATIVE INTENSITY
##XFACTOR=1
##YFACTOR=1
##FIRSTX=12
##LASTX=145
##FIRSTY=10
##MAXX=145
##MINX=12
##MAXY=9999
##MINY=6
##NPOINTS=113
##PEAK TABLE=(XY..XY)
12,10 14,26 15,33 16,66
17,81 18,134 19,9 20,32
25,27 26,146 28,9611 29,4027
30,9339 31,964 33,66 34,7
36,40 37,388 38,414 39,465
40,27 41,95 42,17 43,32
44,84 45,155 46,75 47,57
48,291 49,232 50,1132 51,905
53,50 54,56 55,69 56,347
57,1008 58,72 59,31 60,31
61,624 62,863 63,2451 64,241
65,83 66,34 67,31 68,607
69,521 70,455 71,343 73,188
74,755 75,1716 76,346 77,436
78,88 79,63 80,158 81,600
82,122 83,152 84,92 85,110
86,141 87,204 88,360 89,73
90,31 91,66 92,214 93,464
94,491 95,2035 96,884 97,355
98,69 99,158 100,335 101,886
102,274 103,40 104,52 105,103
106,71 107,549 108,61 109,66
110,24 111,64 112,139 113,583
114,1471 115,1804 116,161 117,13
118,14 119,13 120,563 121,13
122,2950 123,9999 124,1439 125,587
126,285 127,2240 128,176 137,6
140,604 142,6601 143,1781 144,140
145,9
##END=
