##TITLE=Benzenemethanol, 3,4-difluoro-
##JCAMP-DX=4.24
##DATA TYPE=MASS SPECTRUM
##ORIGIN=NIST Mass Spectrometry Data Center
##OWNER=NIST Mass Spectrometry Data Center
Collection (C) 2014 copyright by the U.S. Secretary of Commerce
on behalf of the United States of America. All rights reserved.
##CAS REGISTRY NO=85118-05-4
##$NIST MASS SPEC NO=364014
##MOLFORM=C7 H6 F2 O
##MW=144
##$NIST SOURCE=MSDC
##XUNITS=M/Z
##YUNITS=RELATIVE INTENSITY
##XFACTOR=1
##YFACTOR=1
##FIRSTX=17
##LASTX=146
##FIRSTY=10
##MAXX=146
##MINX=17
##MAXY=9999
##MINY=10
##NPOINTS=105
##PEAK TABLE=(XY..XY)
17,10 18,10 19,10 20,10
25,10 26,50 27,100 28,50
29,931 30,110 31,1001 32,20
33,40 36,20 37,230 38,340
39,500 40,30 42,20 43,40
44,50 45,90 46,20 47,40
48,70 49,180 50,921 51,841
52,150 53,80 54,10 55,80
56,270 57,891 58,50 59,20
60,40 61,410 62,771 63,2312
64,200 65,160 66,90 67,20
68,520 69,490 70,350 71,190
73,150 74,661 75,1882 76,260
77,681 78,50 79,60 80,180
81,621 82,70 83,120 84,50
85,110 86,110 87,220 88,540
89,220 90,20 91,20 92,200
93,410 94,460 95,6386 96,1812
97,1692 98,120 99,210 100,110
101,1051 102,70 103,20 104,40
105,180 106,60 107,891 108,80
110,20 111,30 112,180 113,2232
114,2062 115,9098 116,911 117,50
123,6416 124,1651 125,2262 126,801
127,3703 128,290 129,10 141,1051
142,260 143,4654 144,9999 145,781
146,40
##END=
