##TITLE=2,4-Difluorobenzamide
##JCAMP-DX=4.24
##DATA TYPE=MASS SPECTRUM
##ORIGIN=NIST Mass Spectrometry Data Center, 1994
##OWNER=NIST Mass Spectrometry Data Center
Collection (C) 2014 copyright by the U.S. Secretary of Commerce
on behalf of the United States of America. All rights reserved.
##CAS REGISTRY NO=85118-02-1
##$NIST MASS SPEC NO=136901
##MOLFORM=C7 H5 F2 N O
##MW=157
##$NIST SOURCE=MSDC
##XUNITS=M/Z
##YUNITS=RELATIVE INTENSITY
##XFACTOR=1
##YFACTOR=1
##FIRSTX=16
##LASTX=159
##FIRSTY=271
##MAXX=159
##MINX=16
##MAXY=9999
##MINY=17
##NPOINTS=57
##PEAK TABLE=(XY..XY)
16,271 17,87 18,38 28,164
31,533 37,274 38,140 39,90
40,62 44,1676 45,95 49,117
50,572 51,188 52,77 56,178
57,389 61,322 62,710 63,2672
64,77 65,389 68,468 69,254
70,100 73,139 74,412 75,331
76,62 79,45 80,83 81,290
82,96 83,45 86,63 87,160
88,206 92,210 93,418 94,308
95,61 100,92 101,254 102,34
108,61 111,73 112,441 113,5434
114,718 120,96 128,81 139,96
141,9999 142,803 157,6325 158,512
159,17
##END=
