##TITLE=2-Acetyl-1-pyrroline
##JCAMP-DX=4.24
##DATA TYPE=MASS SPECTRUM
##ORIGIN=P.Scieberle ET AL. J.Agr.Food.Chem.,35,252(1987)
##OWNER=NIST Mass Spectrometry Data Center
Collection (C) 2014 copyright by the U.S. Secretary of Commerce
on behalf of the United States of America. All rights reserved.
##CAS REGISTRY NO=85213-22-5
##$NIST MASS SPEC NO=281508
##MOLFORM=C6 H9 N O
##MW=111
##$NIST SOURCE=MSDC
##XUNITS=M/Z
##YUNITS=RELATIVE INTENSITY
##XFACTOR=1
##YFACTOR=1
##FIRSTX=37
##LASTX=111
##FIRSTY=230
##MAXX=111
##MINX=37
##MAXY=9999
##MINY=70
##NPOINTS=19
##PEAK TABLE=(XY..XY)
37,230 38,120 39,1101 41,5355
42,2422 43,9999 44,1081 45,110
52,110 53,90 55,230 66,140
67,90 68,901 69,941 82,110
83,1331 94,70 111,510
##END=
