##TITLE=cis-Bicyclo[4.3.0]-3-nonene
##JCAMP-DX=4.24
##DATA TYPE=MASS SPECTRUM
##ORIGIN=F. TURECEK,HEYROVSKY INST PHYS CHEM & ELECTROCHEM,PRAGUE,CZECH
##OWNER=NIST Mass Spectrometry Data Center
Collection (C) 2014 copyright by the U.S. Secretary of Commerce
on behalf of the United States of America. All rights reserved.
##CAS REGISTRY NO=85236-78-8
##$NIST MASS SPEC NO=99198
##MOLFORM=C9 H14
##MW=122
##$NIST SOURCE=MSDC
##XUNITS=M/Z
##YUNITS=RELATIVE INTENSITY
##XFACTOR=1
##YFACTOR=1
##FIRSTX=27
##LASTX=123
##FIRSTY=1600
##MAXX=123
##MINX=27
##MAXY=9999
##MINY=200
##NPOINTS=44
##PEAK TABLE=(XY..XY)
27,1600 29,800 39,4700 40,500
41,3600 42,600 43,600 50,300
51,800 52,300 53,2200 54,2700
55,1100 56,300 57,600 62,200
63,300 65,1100 66,1100 67,8200
68,5200 69,500 70,300 77,2300
78,900 79,7100 80,9999 81,7600
82,700 83,400 91,1300 92,600
93,7100 94,5400 95,700 96,400
97,200 105,400 107,1700 108,400
109,200 121,400 122,6900 123,900
##END=
