##TITLE=Methanone, bis(pentafluorophenyl)-
##JCAMP-DX=4.24
##DATA TYPE=MASS SPECTRUM
##ORIGIN=Japan AIST/NIMC Database- Spectrum MS-NW-9780
##OWNER=NIST Mass Spectrometry Data Center
Collection (C) 2014 copyright by the U.S. Secretary of Commerce
on behalf of the United States of America. All rights reserved.
##CAS REGISTRY NO=853-39-4
##$NIST MASS SPEC NO=239350
##MOLFORM=C13 F10 O
##MW=362
##$NIST SOURCE=MSDC
##XUNITS=M/Z
##YUNITS=RELATIVE INTENSITY
##XFACTOR=1
##YFACTOR=1
##FIRSTX=31
##LASTX=364
##FIRSTY=60
##MAXX=364
##MINX=31
##MAXY=9999
##MINY=10
##NPOINTS=51
##PEAK TABLE=(XY..XY)
31,60 69,10 74,20 79,90
86,20 93,309 94,10 98,199
99,10 103,10 110,20 117,1419
118,70 122,10 129,30 132,30
134,10 141,30 146,10 148,209
149,10 158,10 165,30 167,2849
168,189 176,40 177,20 181,109
189,10 195,9999 196,789 197,70
203,10 215,10 227,30 234,10
246,30 258,20 265,60 277,10
296,70 297,10 315,20 324,10
327,30 334,10 343,40 344,10
362,3899 363,549 364,50
##END=
