##TITLE=Ethyl N-(3-chloro-4-methylphenyl)carbamate
##JCAMP-DX=4.24
##DATA TYPE=MASS SPECTRUM
##ORIGIN=NIST Mass Spectrometry Data Center, 1994
##OWNER=NIST Mass Spectrometry Data Center
Collection (C) 2014 copyright by the U.S. Secretary of Commerce
on behalf of the United States of America. All rights reserved.
##CAS REGISTRY NO=85419-40-5
##$NIST MASS SPEC NO=135597
##MOLFORM=C10 H12 Cl N O2
##MW=213
##$NIST SOURCE=MSDC
##XUNITS=M/Z
##YUNITS=RELATIVE INTENSITY
##XFACTOR=1
##YFACTOR=1
##FIRSTX=4
##LASTX=217
##FIRSTY=40
##MAXX=217
##MINX=4
##MAXY=9999
##MINY=14
##NPOINTS=128
##PEAK TABLE=(XY..XY)
4,40 12,47 13,34 14,172
15,665 16,82 17,14 18,78
19,143 25,68 26,762 27,4099
28,1166 29,9999 30,515 31,795
32,36 35,51 36,68 37,205
38,364 39,894 40,132 41,105
42,128 43,266 44,164 45,614
46,131 47,35 49,176 50,1123
51,2708 52,1238 53,304 54,112
55,21 60,71 61,213 62,455
63,911 64,233 65,332 66,82
67,36 69,21 71,14 72,56
73,264 74,148 75,766 76,957
77,4784 78,1406 79,508 80,83
84,49 85,98 86,138 87,165
88,125 89,608 90,222 91,445
92,72 93,33 97,72 98,32
99,257 100,68 101,98 102,521
103,309 104,1849 105,590 106,3419
107,366 108,33 111,105 112,286
113,691 114,295 115,270 116,76
117,76 118,164 119,207 120,23
123,32 124,59 125,347 126,144
127,206 128,59 129,35 132,2240
133,259 134,125 135,16 138,169
140,4352 141,3639 142,1681 143,1046
144,114 149,28 150,24 152,51
154,4398 155,435 156,1317 157,120
166,466 167,1179 168,727 169,500
170,200 182,16 185,551 186,83
187,188 188,21 211,30 213,3648
214,457 215,1132 216,148 217,17
##END=
