##TITLE=2-Methylcyclosarin
##JCAMP-DX=4.24
##DATA TYPE=MASS SPECTRUM
##ORIGIN=VERIFINN
##OWNER=NIST Mass Spectrometry Data Center
Collection (C) 2014 copyright by the U.S. Secretary of Commerce
on behalf of the United States of America. All rights reserved.
##CAS REGISTRY NO=85473-32-1
##$NIST MASS SPEC NO=289477
##MOLFORM=C8 H16 F O2 P
##MW=194
##$NIST SOURCE=MSDC
##XUNITS=M/Z
##YUNITS=RELATIVE INTENSITY
##XFACTOR=1
##YFACTOR=1
##FIRSTX=26
##LASTX=151
##FIRSTY=120
##MAXX=151
##MINX=26
##MAXY=9999
##MINY=60
##NPOINTS=36
##PEAK TABLE=(XY..XY)
26,120 27,1311 28,280 29,1121
39,1591 40,320 41,1832 42,380
43,280 47,300 53,791 54,1241
55,2642 56,210 57,290 65,230
66,350 67,2943 68,2502 69,270
77,240 78,90 79,601 80,90
81,9999 82,440 91,100 95,651
96,5345 97,631 98,220 99,9879
101,100 125,540 137,260 151,60
##END=
