##TITLE=Phosphine, tris(4-methoxyphenyl)-
##JCAMP-DX=4.24
##DATA TYPE=MASS SPECTRUM
##ORIGIN=Japan AIST/NIMC Database- Spectrum MS-NW-5869
##OWNER=NIST Mass Spectrometry Data Center
Collection (C) 2014 copyright by the U.S. Secretary of Commerce
on behalf of the United States of America. All rights reserved.
##CAS REGISTRY NO=855-38-9
##$NIST MASS SPEC NO=232991
##MOLFORM=C21 H21 O3 P
##MW=352
##$NIST SOURCE=MSDC
##XUNITS=M/Z
##YUNITS=RELATIVE INTENSITY
##XFACTOR=1
##YFACTOR=1
##FIRSTX=14
##LASTX=355
##FIRSTY=10
##MAXX=355
##MINX=14
##MAXY=9999
##MINY=10
##NPOINTS=248
##PEAK TABLE=(XY..XY)
14,10 15,189 26,10 27,50
28,40 29,40 30,10 31,10
38,90 39,199 41,60 43,30
45,30 47,20 50,159 51,199
52,50 53,40 54,10 55,50
56,20 57,90 61,10 62,70
63,389 64,399 65,189 66,70
67,10 68,80 69,239 70,30
71,10 72,10 74,40 75,70
76,119 77,329 78,109 79,70
80,50 81,90 82,30 83,60
84,20 85,10 86,10 87,30
88,20 89,109 90,30 91,369
92,279 93,50 94,159 95,369
96,70 97,50 98,10 99,10
100,10 101,50 102,159 103,40
104,20 105,30 106,30 107,349
108,189 109,109 110,20 113,199
114,50 115,339 116,50 117,40
118,20 119,20 120,80 121,90
122,40 123,309 124,40 125,20
126,70 127,109 128,379 129,60
130,30 131,60 132,80 133,429
134,50 135,90 136,50 137,469
138,7979 139,909 140,339 141,70
142,30 143,30 144,60 145,139
146,40 147,20 148,30 149,10
150,30 151,50 152,179 153,70
154,20 155,50 156,149 157,319
158,169 159,219 160,40 161,30
162,30 163,109 164,20 165,50
166,10 167,40 168,189 169,139
170,499 171,529 172,99 173,30
174,10 175,10 176,249 177,40
178,20 179,10 180,10 181,40
182,60 183,199 184,50 185,60
186,219 187,409 188,60 189,50
190,20 191,10 193,10 194,20
195,20 196,20 197,40 198,99
199,719 200,269 201,279 202,289
203,50 204,50 205,20 206,10
207,40 208,20 209,10 211,30
212,40 213,309 214,1079 215,289
216,50 217,20 218,20 219,20
220,40 221,30 222,10 223,20
226,10 227,10 228,70 229,319
230,90 231,40 232,50 233,60
234,20 235,10 236,10 237,10
241,10 242,20 243,369 244,119
245,1619 246,289 247,109 248,20
249,20 250,20 251,20 252,10
259,10 260,20 261,40 262,20
263,30 264,20 265,10 266,10
275,129 276,50 277,30 278,10
279,30 289,10 290,159 291,40
292,20 293,20 294,199 295,40
304,10 305,10 306,10 307,20
308,20 309,139 310,30 319,20
320,20 321,50 322,119 323,50
324,10 335,10 336,20 337,669
338,169 339,30 350,30 351,199
352,9999 353,2299 354,339 355,40
##END=
