##TITLE=Decanoic acid, 3-hexenyl ester, (Z)-
##JCAMP-DX=4.24
##DATA TYPE=MASS SPECTRUM
##ORIGIN=W.Jennings, T.Shibamoto
##OWNER=NIST Mass Spectrometry Data Center
Collection (C) 2014 copyright by the U.S. Secretary of Commerce
on behalf of the United States of America. All rights reserved.
##CAS REGISTRY NO=85554-69-4
##$NIST MASS SPEC NO=285321
##MOLFORM=C16 H30 O2
##MW=254
##$NIST SOURCE=MSDC
##XUNITS=M/Z
##YUNITS=RELATIVE INTENSITY
##XFACTOR=1
##YFACTOR=1
##FIRSTX=41
##LASTX=173
##FIRSTY=70
##MAXX=173
##MINX=41
##MAXY=9999
##MINY=70
##NPOINTS=28
##PEAK TABLE=(XY..XY)
41,70 43,1091 54,280 55,2692
56,70 57,1291 60,70 66,70
67,7597 68,681 69,280 71,1481
73,70 81,791 82,9999 83,3823
84,190 85,791 86,280 87,70
95,390 114,190 129,70 137,70
155,2092 156,190 172,70 173,190
##END=
