##TITLE=o-Methoxybenzoic acid, 2-chlorophenyl ester
##JCAMP-DX=4.24
##DATA TYPE=MASS SPECTRUM
##ORIGIN=Zaikin V.G., TIPS RAS, Moscow, Russia
##OWNER=NIST Mass Spectrometry Data Center
Collection (C) 2014 copyright by the U.S. Secretary of Commerce
on behalf of the United States of America. All rights reserved.
##CAS REGISTRY NO=85965-92-0
##$NIST MASS SPEC NO=292617
##MOLFORM=C14 H11 Cl O3
##MW=262
##$NIST SOURCE=MSDC
##XUNITS=M/Z
##YUNITS=RELATIVE INTENSITY
##XFACTOR=1
##YFACTOR=1
##FIRSTX=28
##LASTX=137
##FIRSTY=10
##MAXX=137
##MINX=28
##MAXY=9999
##MINY=10
##NPOINTS=24
##PEAK TABLE=(XY..XY)
28,10 38,30 39,40 50,60
51,130 62,30 63,200 64,220
73,70 75,50 76,90 77,1111
78,90 79,70 92,621 93,40
99,110 101,30 105,70 120,130
128,40 135,9999 136,711 137,60
##END=
