##TITLE=Thiambutene
##JCAMP-DX=4.24
##DATA TYPE=MASS SPECTRUM
##ORIGIN=Finnigan MAT: Toxicological Library (LIBR-TX)
##OWNER=NIST Mass Spectrometry Data Center
Collection (C) 2014 copyright by the U.S. Secretary of Commerce
on behalf of the United States of America. All rights reserved.
##CAS REGISTRY NO=86-14-6
##$NIST MASS SPEC NO=120631
##MOLFORM=C16 H21 N S2
##MW=291
##$NIST SOURCE=MSDC
##XUNITS=M/Z
##YUNITS=RELATIVE INTENSITY
##XFACTOR=1
##YFACTOR=1
##FIRSTX=42
##LASTX=292
##FIRSTY=2046
##MAXX=292
##MINX=42
##MAXY=9999
##MINY=98
##NPOINTS=31
##PEAK TABLE=(XY..XY)
42,2046 44,927 45,906 56,728
69,297 70,830 72,311 77,432
91,571 97,1138 100,1019 109,398
111,4969 112,606 121,295 134,506
135,581 171,502 179,290 186,312
192,302 203,301 219,3077 220,501
221,307 262,388 276,9999 277,1820
278,905 291,394 292,98
##END=
