##TITLE=Benzeneacetonitrile, .alpha.-phenyl-
##JCAMP-DX=4.24
##DATA TYPE=MASS SPECTRUM
##ORIGIN=Japan AIST/NIMC Database- Spectrum MS-NW-5602
##OWNER=NIST Mass Spectrometry Data Center
Collection (C) 2014 copyright by the U.S. Secretary of Commerce
on behalf of the United States of America. All rights reserved.
##CAS REGISTRY NO=86-29-3
##$NIST MASS SPEC NO=232771
##MOLFORM=C14 H11 N
##MW=193
##$NIST SOURCE=MSDC
##XUNITS=M/Z
##YUNITS=RELATIVE INTENSITY
##XFACTOR=1
##YFACTOR=1
##FIRSTX=26
##LASTX=195
##FIRSTY=20
##MAXX=195
##MINX=26
##MAXY=9999
##MINY=10
##NPOINTS=102
##PEAK TABLE=(XY..XY)
26,20 27,139 28,10 37,30
38,90 39,429 40,30 41,20
43,10 44,30 49,10 50,349
51,1149 52,129 53,20 55,10
57,20 61,50 62,189 63,449
64,139 65,149 66,30 68,10
69,109 70,40 73,10 74,149
75,169 76,159 77,889 78,99
81,119 82,439 83,309 84,10
85,20 86,60 87,109 88,189
89,839 90,609 91,99 94,20
95,119 96,20 98,30 99,30
100,20 101,30 102,50 103,10
105,159 106,10 110,20 111,20
112,10 113,80 114,179 115,839
116,979 117,99 125,10 126,70
127,60 128,50 137,30 138,40
139,199 140,139 141,50 142,10
143,20 149,10 150,40 151,99
152,299 153,199 154,40 161,10
162,30 163,249 164,329 165,4109
166,2229 167,469 168,80 169,10
175,10 176,40 177,219 178,589
179,90 180,10 188,50 189,50
190,609 191,439 192,2189 193,9999
194,1559 195,119
##END=
