##TITLE=Pheniramine
##JCAMP-DX=4.24
##DATA TYPE=MASS SPECTRUM
##ORIGIN=NIST Mass Spectrometry Data Center, 1998.
##OWNER=NIST Mass Spectrometry Data Center
Collection (C) 2014 copyright by the U.S. Secretary of Commerce
on behalf of the United States of America. All rights reserved.
##CAS REGISTRY NO=86-21-5
##$NIST MASS SPEC NO=290727
##MOLFORM=C16 H20 N2
##MW=240
##$NIST SOURCE=MSDC
##XUNITS=M/Z
##YUNITS=RELATIVE INTENSITY
##XFACTOR=1
##YFACTOR=1
##FIRSTX=15
##LASTX=241
##FIRSTY=20
##MAXX=241
##MINX=15
##MAXY=9999
##MINY=10
##NPOINTS=126
##PEAK TABLE=(XY..XY)
15,20 26,10 27,40 29,50
30,190 38,10 39,100 40,10
41,50 42,600 43,180 44,140
45,30 50,70 51,280 52,130
53,50 54,20 55,20 56,230
57,130 58,3920 59,160 62,30
63,120 64,30 65,120 66,20
67,10 68,10 70,70 71,110
72,910 73,50 74,20 75,40
76,50 77,190 78,330 79,100
80,40 81,10 82,10 83,40
86,10 87,20 88,20 89,130
90,60 91,250 92,50 93,80
94,10 96,10 98,10 99,10
101,20 102,60 103,120 104,150
105,20 106,40 107,10 112,10
113,30 114,40 115,250 116,60
117,180 118,130 119,30 120,10
121,30 126,20 127,50 128,60
129,20 130,20 131,10 132,20
133,10 135,10 137,10 138,10
139,210 140,130 141,90 142,20
143,30 144,20 146,10 147,10
148,10 150,10 151,30 152,100
153,40 154,60 155,10 160,20
163,10 164,20 165,50 166,310
167,1960 168,4360 169,9999 170,1580
171,100 177,10 178,30 179,20
180,370 181,80 182,310 183,40
190,10 191,30 192,40 193,60
194,110 195,30 196,160 197,30
240,10 241,10
##END=
