##TITLE=1,1'-Biphenyl, 2-methoxy-
##JCAMP-DX=4.24
##DATA TYPE=MASS SPECTRUM
##ORIGIN=NIST Mass Spectrometry Data Center, 1990.
##OWNER=NIST Mass Spectrometry Data Center
Collection (C) 2014 copyright by the U.S. Secretary of Commerce
on behalf of the United States of America. All rights reserved.
##CAS REGISTRY NO=86-26-0
##$NIST MASS SPEC NO=118449
##MOLFORM=C13 H12 O
##MW=184
##$NIST SOURCE=MSDC
##XUNITS=M/Z
##YUNITS=RELATIVE INTENSITY
##XFACTOR=1
##YFACTOR=1
##FIRSTX=14
##LASTX=186
##FIRSTY=73
##MAXX=186
##MINX=14
##MAXY=9999
##MINY=15
##NPOINTS=107
##PEAK TABLE=(XY..XY)
14,73 15,643 16,15 18,51
26,93 27,245 28,35 29,76
31,27 37,57 38,231 39,1221
40,91 41,63 43,36 49,37
50,601 51,923 52,218 53,90
55,156 57,537 61,104 62,520
63,1554 64,285 65,400 66,146
67,19 69,259 70,231 74,567
75,581 76,885 77,474 78,293
79,39 82,34 84,94 85,74
86,259 87,430 88,318 89,826
90,154 91,801 92,211 98,161
99,117 100,70 101,109 102,446
103,49 105,25 106,136 107,55
109,34 110,66 111,84 112,25
113,383 114,25 115,5275 116,577
117,25 118,877 119,183 122,43
125,67 126,322 127,246 128,376
129,200 130,55 131,125 132,29
137,64 139,2253 140,719 141,5251
142,725 143,56 144,47 145,16
149,32 150,260 151,521 152,1104
153,499 154,207 155,502 156,195
157,225 158,45 163,17 165,753
166,244 167,551 168,1802 169,6150
170,815 171,60 181,187 183,2769
184,9999 185,1398 186,92
##END=
