##TITLE=Phensuximide
##JCAMP-DX=4.24
##DATA TYPE=MASS SPECTRUM
##ORIGIN=NIST Mass Spectrometry Data Center, 1990.
##OWNER=NIST Mass Spectrometry Data Center
Collection (C) 2014 copyright by the U.S. Secretary of Commerce
on behalf of the United States of America. All rights reserved.
##CAS REGISTRY NO=86-34-0
##$NIST MASS SPEC NO=113827
##MOLFORM=C11 H11 N O2
##MW=189
##$NIST SOURCE=MSDC
##XUNITS=M/Z
##YUNITS=RELATIVE INTENSITY
##XFACTOR=1
##YFACTOR=1
##FIRSTX=14
##LASTX=190
##FIRSTY=40
##MAXX=190
##MINX=14
##MAXY=9999
##MINY=19
##NPOINTS=53
##PEAK TABLE=(XY..XY)
14,40 15,48 26,44 27,136
28,288 29,93 38,81 39,299
40,41 41,25 42,62 44,63
50,414 51,934 52,327 53,66
55,50 56,152 57,57 58,77
61,32 62,125 63,331 64,73
65,112 66,26 70,34 73,19
74,168 75,163 76,305 77,1329
78,1733 79,109 87,38 89,197
90,71 91,94 98,23 102,539
103,1936 104,9999 105,835 106,35
117,26 118,73 131,60 132,35
160,29 161,51 187,74 189,2266
190,290
##END=
