##TITLE=Ethotoin
##JCAMP-DX=4.24
##DATA TYPE=MASS SPECTRUM
##ORIGIN=NIST Mass Spectrometry Data Center, 1990.
##OWNER=NIST Mass Spectrometry Data Center
Collection (C) 2014 copyright by the U.S. Secretary of Commerce
on behalf of the United States of America. All rights reserved.
##CAS REGISTRY NO=86-35-1
##$NIST MASS SPEC NO=113832
##MOLFORM=C11 H12 N2 O2
##MW=204
##$NIST SOURCE=MSDC
##XUNITS=M/Z
##YUNITS=RELATIVE INTENSITY
##XFACTOR=1
##YFACTOR=1
##FIRSTX=14
##LASTX=206
##FIRSTY=73
##MAXX=206
##MINX=14
##MAXY=9999
##MINY=73
##NPOINTS=43
##PEAK TABLE=(XY..XY)
14,73 27,350 28,990 29,350
39,339 40,104 42,189 43,86
44,484 50,636 51,1476 52,427
56,434 62,167 63,515 64,155
65,103 70,998 72,672 74,162
75,167 76,516 77,3246 78,1696
79,267 89,683 90,402 91,468
104,9999 105,7584 106,772 107,93
118,493 132,1025 133,1391 134,155
161,406 175,219 176,458 202,90
204,6412 205,781 206,91
##END=
