##TITLE=N-Nitrosodiphenylamine
##JCAMP-DX=4.24
##DATA TYPE=MASS SPECTRUM
##ORIGIN=Japan AIST/NIMC Database- Spectrum MS-NW- 726
##OWNER=NIST Mass Spectrometry Data Center
Collection (C) 2014 copyright by the U.S. Secretary of Commerce
on behalf of the United States of America. All rights reserved.
##CAS REGISTRY NO=86-30-6
##$NIST MASS SPEC NO=229097
##MOLFORM=C12 H10 N2 O
##MW=198
##$NIST SOURCE=MSDC
##XUNITS=M/Z
##YUNITS=RELATIVE INTENSITY
##XFACTOR=1
##YFACTOR=1
##FIRSTX=26
##LASTX=170
##FIRSTY=30
##MAXX=170
##MINX=26
##MAXY=9999
##MINY=10
##NPOINTS=70
##PEAK TABLE=(XY..XY)
26,30 27,229 28,60 30,619
37,80 38,219 39,969 40,70
41,50 49,20 50,519 51,2259
52,209 53,10 57,20 61,40
62,109 63,379 64,249 65,469
66,119 69,50 70,60 71,20
73,20 74,139 75,129 76,189
77,1609 78,159 82,30 83,609
84,159 87,20 88,30 89,159
90,80 91,90 92,20 93,10
101,40 102,40 103,50 104,30
113,30 114,50 115,389 116,90
117,20 126,20 127,30 128,119
129,20 130,10 138,10 139,329
140,289 141,209 142,60 143,20
152,20 153,50 154,20 164,20
165,30 166,749 167,5699 168,9999
169,2279 170,219
##END=
