##TITLE=Naphthalene, 1-(chloromethyl)-
##JCAMP-DX=4.24
##DATA TYPE=MASS SPECTRUM
##ORIGIN=Japan AIST/NIMC Database- Spectrum MS-NW-2698
##OWNER=NIST Mass Spectrometry Data Center
Collection (C) 2014 copyright by the U.S. Secretary of Commerce
on behalf of the United States of America. All rights reserved.
##CAS REGISTRY NO=86-52-2
##$NIST MASS SPEC NO=231641
##MOLFORM=C11 H9 Cl
##MW=176
##$NIST SOURCE=MSDC
##XUNITS=M/Z
##YUNITS=RELATIVE INTENSITY
##XFACTOR=1
##YFACTOR=1
##FIRSTX=26
##LASTX=179
##FIRSTY=10
##MAXX=179
##MINX=26
##MAXY=9999
##MINY=10
##NPOINTS=68
##PEAK TABLE=(XY..XY)
26,10 27,20 35,10 36,80
37,10 38,40 39,159 41,10
44,10 49,10 50,119 51,129
52,30 55,10 56,10 57,279
58,20 61,40 62,129 63,319
64,40 65,90 69,209 70,339
71,40 73,20 74,119 75,99
76,60 77,40 78,10 85,20
86,70 87,119 88,149 89,219
90,20 91,80 98,30 99,20
100,10 101,20 102,60 110,20
111,20 112,10 113,129 114,119
115,1739 116,179 126,50 127,30
128,99 129,10 137,30 138,60
139,1119 140,329 141,9999 142,1439
143,99 149,50 151,20 175,99
176,2189 177,299 178,719 179,90
##END=
