##TITLE=Quinisocaine
##JCAMP-DX=4.24
##DATA TYPE=MASS SPECTRUM
##ORIGIN=AAFS Toxicology Section MS DB Committee, U. Alberta, Canada
##OWNER=NIST Mass Spectrometry Data Center
Collection (C) 2014 copyright by the U.S. Secretary of Commerce
on behalf of the United States of America. All rights reserved.
##CAS REGISTRY NO=86-80-6
##$NIST MASS SPEC NO=246588
##MOLFORM=C17 H24 N2 O
##MW=272
##$NIST SOURCE=MSDC
##XUNITS=M/Z
##YUNITS=RELATIVE INTENSITY
##XFACTOR=1
##YFACTOR=1
##FIRSTX=48
##LASTX=228
##FIRSTY=20
##MAXX=228
##MINX=48
##MAXY=9999
##MINY=20
##NPOINTS=103
##PEAK TABLE=(XY..XY)
48,20 50,30 51,80 52,40
53,40 54,80 55,170 56,1241
58,5815 59,240 62,110 63,310
64,60 65,90 70,1030 71,9999
72,1391 73,50 74,50 75,160
76,170 77,460 78,120 79,20
80,20 85,50 87,100 88,290
89,1241 90,310 91,140 92,30
99,20 100,70 101,240 102,410
103,830 104,160 105,30 113,300
114,860 115,2051 116,1201 117,240
118,150 125,40 126,140 127,680
128,720 129,340 130,660 131,870
132,200 133,20 137,20 139,130
140,1611 141,890 142,1241 143,750
144,190 145,80 146,50 150,40
152,170 153,160 154,680 155,250
156,160 157,90 158,720 159,4524
160,480 161,40 165,60 166,190
167,400 168,300 169,120 170,120
171,430 172,460 173,110 180,60
181,60 182,200 183,100 184,540
185,200 186,120 196,40 197,20
198,140 199,80 200,40 201,1161
202,540 203,60 212,40 213,120
214,50 226,50 228,110
##END=
