##TITLE=Benzaldehyde, 3,4,5-trimethoxy-
##JCAMP-DX=4.24
##DATA TYPE=MASS SPECTRUM
##ORIGIN=Japan AIST/NIMC Database- Spectrum MS-NW-3870
##OWNER=NIST Mass Spectrometry Data Center
Collection (C) 2014 copyright by the U.S. Secretary of Commerce
on behalf of the United States of America. All rights reserved.
##CAS REGISTRY NO=86-81-7
##$NIST MASS SPEC NO=232286
##MOLFORM=C10 H12 O4
##MW=196
##$NIST SOURCE=MSDC
##XUNITS=M/Z
##YUNITS=RELATIVE INTENSITY
##XFACTOR=1
##YFACTOR=1
##FIRSTX=13
##LASTX=199
##FIRSTY=10
##MAXX=199
##MINX=13
##MAXY=9999
##MINY=10
##NPOINTS=120
##PEAK TABLE=(XY..XY)
13,10 14,50 15,609 16,10
17,10 18,60 25,10 26,50
27,149 28,249 29,349 30,20
31,60 37,129 38,419 39,1489
40,70 41,169 42,20 43,149
45,90 48,10 49,90 50,459
51,699 52,159 53,359 54,50
55,99 56,10 57,30 59,90
60,10 61,90 62,169 63,249
64,109 65,819 66,479 67,449
68,40 69,70 71,10 73,20
74,60 75,119 76,119 77,629
78,159 79,419 80,90 81,239
82,359 83,40 84,10 85,20
90,10 91,70 92,139 93,1319
94,169 95,1129 96,90 97,149
98,10 99,10 103,10 104,70
105,129 106,70 107,179 108,149
109,199 110,1749 111,139 112,10
113,10 119,139 120,80 121,309
122,139 123,389 124,90 125,2679
126,229 127,20 133,20 134,40
135,359 136,459 137,219 138,409
139,99 140,10 148,10 149,60
150,80 151,90 152,149 153,639
154,60 163,40 164,10 165,149
166,209 167,99 168,30 169,10
179,80 180,80 181,4569 182,449
183,60 193,10 194,10 195,549
196,9999 197,1089 198,55 199,10
##END=
