##TITLE=1-Naphthaleneacetamide
##JCAMP-DX=4.24
##DATA TYPE=MASS SPECTRUM
##ORIGIN=Japan AIST/NIMC Database- Spectrum MS-NW-7979
##OWNER=NIST Mass Spectrometry Data Center
Collection (C) 2014 copyright by the U.S. Secretary of Commerce
on behalf of the United States of America. All rights reserved.
##CAS REGISTRY NO=86-86-2
##$NIST MASS SPEC NO=237816
##MOLFORM=C12 H11 N O
##MW=185
##$NIST SOURCE=MSDC
##XUNITS=M/Z
##YUNITS=RELATIVE INTENSITY
##XFACTOR=1
##YFACTOR=1
##FIRSTX=16
##LASTX=187
##FIRSTY=20
##MAXX=187
##MINX=16
##MAXY=9999
##MINY=10
##NPOINTS=90
##PEAK TABLE=(XY..XY)
16,20 26,10 27,50 28,70
37,10 38,50 39,349 40,20
41,20 42,10 43,20 44,489
45,10 50,159 51,259 52,60
53,10 55,20 56,30 57,459
58,40 61,40 62,199 63,549
64,90 65,229 66,10 69,239
70,229 71,30 73,10 74,159
75,169 76,99 77,99 78,30
83,10 84,10 85,20 86,99
87,149 88,99 89,349 90,30
91,139 92,30 98,40 99,30
100,10 101,30 102,80 103,10
109,10 110,20 111,20 112,10
113,159 114,119 115,2519 116,269
117,10 126,60 127,99 128,90
129,60 130,10 137,30 138,60
139,1109 140,369 141,9999 142,5629
143,629 144,50 152,10 153,10
154,30 155,99 156,50 157,10
165,10 166,30 167,40 168,80
169,10 183,20 184,30 185,4449
186,629 187,50
##END=
