##TITLE=2,4-Quinolinediol
##JCAMP-DX=4.24
##DATA TYPE=MASS SPECTRUM
##ORIGIN=Japan AIST/NIMC Database- Spectrum MS-NW-7010
##OWNER=NIST Mass Spectrometry Data Center
Collection (C) 2014 copyright by the U.S. Secretary of Commerce
on behalf of the United States of America. All rights reserved.
##CAS REGISTRY NO=86-95-3
##$NIST MASS SPEC NO=236160
##MOLFORM=C9 H7 N O2
##MW=161
##$NIST SOURCE=MSDC
##XUNITS=M/Z
##YUNITS=RELATIVE INTENSITY
##XFACTOR=1
##YFACTOR=1
##FIRSTX=13
##LASTX=163
##FIRSTY=10
##MAXX=163
##MINX=13
##MAXY=9999
##MINY=10
##NPOINTS=117
##PEAK TABLE=(XY..XY)
13,10 14,50 15,20 16,10
17,29 18,109 25,10 26,50
27,139 28,179 29,60 31,10
36,20 37,229 38,429 39,609
40,99 41,219 42,189 43,80
44,30 45,40 46,20 48,10
49,70 50,529 51,729 52,549
53,149 54,40 55,50 56,40
57,70 58,20 60,30 61,209
62,379 63,979 64,1079 65,939
66,479 67,80 68,30 69,389
70,20 71,40 72,10 73,60
74,219 75,209 76,369 77,889
78,329 79,40 80,90 81,30
82,10 83,40 84,20 85,30
86,40 87,70 88,99 89,179
90,329 91,669 92,3439 93,299
94,20 95,20 96,10 97,30
98,20 99,10 100,10 101,10
102,50 103,70 104,709 105,1179
106,109 107,10 108,10 109,20
110,10 111,30 112,10 113,10
114,30 115,50 116,30 117,30
118,50 119,6769 120,3539 121,299
122,20 123,10 125,20 129,10
131,10 132,509 133,959 134,99
135,20 139,10 140,10 141,10
143,20 145,10 146,20 149,10
159,10 160,50 161,9999 162,1039
163,55
##END=
