##TITLE=3-(Trifluoromethoxy)benzoyl chloride
##JCAMP-DX=4.24
##DATA TYPE=MASS SPECTRUM
##ORIGIN=NIST Mass Spectrometry Data Center, 1994
##OWNER=NIST Mass Spectrometry Data Center
Collection (C) 2014 copyright by the U.S. Secretary of Commerce
on behalf of the United States of America. All rights reserved.
##CAS REGISTRY NO=86270-03-3
##$NIST MASS SPEC NO=136565
##MOLFORM=C8 H4 Cl F3 O2
##MW=224
##$NIST SOURCE=MSDC
##XUNITS=M/Z
##YUNITS=RELATIVE INTENSITY
##XFACTOR=1
##YFACTOR=1
##FIRSTX=12
##LASTX=226
##FIRSTY=18
##MAXX=226
##MINX=12
##MAXY=9999
##MINY=11
##NPOINTS=71
##PEAK TABLE=(XY..XY)
12,18 13,11 17,24 18,29
20,28 25,69 26,108 32,38
35,152 36,108 37,697 38,1493
39,280 46,30 47,145 48,30
49,225 50,1084 51,178 52,163
53,326 54,27 57,53 60,71
61,440 62,880 63,2892 64,2386
65,223 66,140 67,28 68,27
69,2845 70,30 72,37 73,227
74,271 75,1321 76,393 77,84
81,15 83,64 85,101 92,1252
93,123 95,6733 96,412 99,115
101,53 103,173 104,50 111,77
113,83 119,37 120,73 127,19
129,41 132,16 133,67 139,461
140,43 141,159 161,1984 162,159
189,9999 190,868 191,92 205,21
224,398 225,34 226,152
##END=
