##TITLE=3-(t-Octylamino)propionitrile
##JCAMP-DX=4.24
##DATA TYPE=MASS SPECTRUM
##ORIGIN=NIST Mass Spectrometry Data Center, 1994
##OWNER=NIST Mass Spectrometry Data Center
Collection (C) 2014 copyright by the U.S. Secretary of Commerce
on behalf of the United States of America. All rights reserved.
##CAS REGISTRY NO=86375-28-2
##$NIST MASS SPEC NO=134658
##MOLFORM=C11 H22 N2
##MW=182
##$NIST SOURCE=MSDC
##XUNITS=M/Z
##YUNITS=RELATIVE INTENSITY
##XFACTOR=1
##YFACTOR=1
##FIRSTX=14
##LASTX=168
##FIRSTY=42
##MAXX=168
##MINX=14
##MAXY=9999
##MINY=3
##NPOINTS=54
##PEAK TABLE=(XY..XY)
14,42 15,248 26,73 27,683
28,536 29,1296 30,1310 31,21
39,793 40,232 41,2447 42,1631
43,455 44,108 48,83 50,20
51,53 52,65 53,215 54,333
55,708 56,693 57,2120 58,421
59,20 65,38 66,26 67,71
68,106 69,20 70,3949 71,770
72,41 77,24 79,32 80,27
82,451 83,53 84,178 85,61
94,63 95,100 96,49 97,154
98,31 108,3 109,23 111,9999
112,739 113,30 125,40 126,23
167,253 168,34
##END=
