##TITLE=3-Ethoxy-4-methoxyphenethylamine
##JCAMP-DX=4.24
##DATA TYPE=MASS SPECTRUM
##ORIGIN=NIST Mass Spectrometry Data Center, 1994
##OWNER=NIST Mass Spectrometry Data Center
Collection (C) 2014 copyright by the U.S. Secretary of Commerce
on behalf of the United States of America. All rights reserved.
##CAS REGISTRY NO=86456-97-5
##$NIST MASS SPEC NO=134525
##MOLFORM=C11 H17 N O2
##MW=195
##$NIST SOURCE=MSDC
##XUNITS=M/Z
##YUNITS=RELATIVE INTENSITY
##XFACTOR=1
##YFACTOR=1
##FIRSTX=14
##LASTX=196
##FIRSTY=41
##MAXX=196
##MINX=14
##MAXY=9999
##MINY=19
##NPOINTS=87
##PEAK TABLE=(XY..XY)
14,41 15,208 17,29 18,48
26,153 27,773 28,644 29,824
30,9999 31,189 38,99 39,749
40,172 41,216 42,146 43,198
44,37 45,27 50,181 51,675
52,262 53,302 54,79 55,254
56,20 58,29 59,26 62,82
63,250 64,146 65,743 66,606
67,268 68,49 69,49 74,31
75,35 77,836 78,546 79,486
80,138 81,115 82,25 89,309
90,254 91,375 92,81 93,123
94,935 95,239 96,29 104,58
105,260 106,335 107,288 108,128
109,293 110,34 116,30 117,26
118,40 119,46 120,30 121,168
122,849 123,1642 124,158 133,27
134,108 135,166 136,27 137,2521
138,2429 139,237 148,29 149,38
150,66 151,102 163,19 165,1771
166,4327 167,441 168,51 177,23
178,32 195,672 196,98
##END=
