##TITLE=Methoserpidine
##JCAMP-DX=4.24
##DATA TYPE=MASS SPECTRUM
##ORIGIN=AAFS Toxicology Section MS DB Committee, U. Alberta, Canada
##OWNER=NIST Mass Spectrometry Data Center
Collection (C) 2014 copyright by the U.S. Secretary of Commerce
on behalf of the United States of America. All rights reserved.
##CAS REGISTRY NO=865-04-3
##$NIST MASS SPEC NO=247165
##MOLFORM=C33 H40 N2 O9
##MW=608
##$NIST SOURCE=MSDC
##XUNITS=M/Z
##YUNITS=RELATIVE INTENSITY
##XFACTOR=1
##YFACTOR=1
##FIRSTX=42
##LASTX=609
##FIRSTY=380
##MAXX=609
##MINX=42
##MAXY=9999
##MINY=110
##NPOINTS=226
##PEAK TABLE=(XY..XY)
42,380 43,260 44,230 45,330
51,120 53,250 55,210 59,520
65,290 66,400 67,280 68,170
69,260 71,290 75,390 76,200
77,830 78,250 79,490 80,160
81,880 82,220 83,130 84,130
85,220 91,350 92,340 93,610
94,350 95,270 96,320 97,440
99,110 103,190 104,170 105,350
106,370 107,500 108,260 109,850
111,460 115,290 116,210 117,190
118,160 119,190 120,110 121,260
122,580 123,410 124,380 125,260
126,230 127,150 128,130 129,180
130,390 131,180 132,140 133,190
134,190 135,260 136,220 137,980
138,280 139,490 140,130 141,450
142,450 143,660 144,340 145,220
149,190 151,470 152,1131 153,310
154,850 155,550 156,390 157,210
158,620 159,310 160,530 161,170
165,230 166,170 167,910 168,750
169,490 170,400 171,420 172,710
173,700 174,1010 175,190 179,190
180,130 181,450 182,390 183,380
184,670 185,670 186,1831 187,590
188,170 193,170 195,9999 196,1231
197,1261 198,1030 199,3302 200,1861
201,620 207,120 208,150 209,200
210,400 211,290 212,1161 213,1101
214,3032 215,730 220,110 221,140
222,230 223,140 224,340 225,490
226,260 227,810 228,380 229,140
235,160 236,380 237,380 238,340
239,640 240,270 241,690 242,210
248,140 249,250 250,270 251,2262
252,690 253,1491 254,1511 255,350
260,110 261,110 262,160 263,220
264,210 265,980 266,410 267,1191
268,310 269,110 276,110 277,220
278,120 279,640 280,190 281,180
289,190 290,130 291,230 293,140
295,250 296,140 297,640 298,180
299,330 303,410 305,430 306,220
307,230 320,130 321,260 322,140
323,680 324,230 325,130 335,150
337,1321 338,390 341,370 348,120
349,430 350,160 351,190 353,240
359,130 361,110 363,600 364,450
365,3933 366,1101 367,340 368,140
369,430 370,130 379,220 381,9258
382,2362 383,370 393,130 394,170
395,3843 396,4153 397,6405 398,1531
399,200 411,210 412,110 413,1681
414,370 463,220 577,590 578,190
579,140 593,1251 594,450 607,3843
608,4624 609,1631
##END=
