##TITLE=2-Pentanone, 3,3,4,4-tetramethyl-
##JCAMP-DX=4.24
##DATA TYPE=MASS SPECTRUM
##ORIGIN=CARL DJERASSI DEPT OF CHEM STANFORD UNIV STANFORD CALIF 94305
##OWNER=NIST Mass Spectrometry Data Center
Collection (C) 2014 copyright by the U.S. Secretary of Commerce
on behalf of the United States of America. All rights reserved.
##CAS REGISTRY NO=865-66-7
##$NIST MASS SPEC NO=46612
##MOLFORM=C9 H18 O
##MW=142
##$NIST SOURCE=MSDC
##XUNITS=M/Z
##YUNITS=RELATIVE INTENSITY
##XFACTOR=1
##YFACTOR=1
##FIRSTX=27
##LASTX=142
##FIRSTY=400
##MAXX=142
##MINX=27
##MAXY=9999
##MINY=10
##NPOINTS=28
##PEAK TABLE=(XY..XY)
27,400 28,1400 29,1000 32,200
39,600 40,100 41,2200 42,100
43,5300 44,100 53,100 55,500
56,100 57,9999 58,500 67,100
69,200 71,2700 72,100 83,200
85,100 86,4100 87,200 99,1900
100,100 127,160 128,13 142,10
##END=
