##TITLE=Methane, nitroso-
##JCAMP-DX=4.24
##DATA TYPE=MASS SPECTRUM
##ORIGIN=DC-16-9
##OWNER=NIST Mass Spectrometry Data Center
Collection (C) 2014 copyright by the U.S. Secretary of Commerce
on behalf of the United States of America. All rights reserved.
##CAS REGISTRY NO=865-40-7
##$NIST MASS SPEC NO=76
##MOLFORM=C H3 N O
##MW=45
##$NIST SOURCE=MSDC
##XUNITS=M/Z
##YUNITS=RELATIVE INTENSITY
##XFACTOR=1
##YFACTOR=1
##FIRSTX=13
##LASTX=47
##FIRSTY=300
##MAXX=47
##MINX=13
##MAXY=9999
##MINY=100
##NPOINTS=16
##PEAK TABLE=(XY..XY)
13,300 14,801 15,3403 16,400
26,200 27,1301 28,2002 29,400
30,9999 31,100 42,500 43,1001
44,701 45,7006 46,801 47,100
##END=
