##TITLE=2-(Trimethylsilylethynyl)pyridine
##JCAMP-DX=4.24
##DATA TYPE=MASS SPECTRUM
##ORIGIN=NIST Mass Spectrometry Data Center, 1994
##OWNER=NIST Mass Spectrometry Data Center
Collection (C) 2014 copyright by the U.S. Secretary of Commerce
on behalf of the United States of America. All rights reserved.
##CAS REGISTRY NO=86521-05-3
##$NIST MASS SPEC NO=136752
##MOLFORM=C10 H13 N Si
##MW=175
##$NIST SOURCE=MSDC
##XUNITS=M/Z
##YUNITS=RELATIVE INTENSITY
##XFACTOR=1
##YFACTOR=1
##FIRSTX=15
##LASTX=177
##FIRSTY=322
##MAXX=177
##MINX=15
##MAXY=9999
##MINY=21
##NPOINTS=98
##PEAK TABLE=(XY..XY)
15,322 17,25 18,34 26,233
27,50 29,71 30,51 37,50
38,100 39,381 40,36 42,165
43,2155 44,216 50,412 51,815
52,358 53,1542 54,512 55,485
56,72 57,108 58,115 60,38
61,38 62,134 63,339 64,112
65,301 66,400 67,632 68,134
69,194 70,45 71,21 74,166
75,156 76,128 77,712 78,768
79,481 80,562 81,239 82,82
83,91 84,34 86,31 87,49
88,46 89,353 90,356 91,323
92,161 93,166 94,96 95,37
96,59 97,83 100,24 101,139
102,86 103,295 104,289 105,191
106,1598 107,393 108,230 109,28
115,32 117,764 118,387 119,435
120,222 121,53 122,26 128,26
130,815 131,261 132,1426 133,301
134,158 135,56 136,25 143,62
144,356 145,452 146,114 147,47
156,52 158,487 160,9999 161,1555
162,421 163,39 174,371 175,2316
176,362 177,105
##END=
