##TITLE=3-(4-Nitroanilino)-1-propanol
##JCAMP-DX=4.24
##DATA TYPE=MASS SPECTRUM
##ORIGIN=A.A.Kutin, Moscow, Russia
##OWNER=NIST Mass Spectrometry Data Center
Collection (C) 2014 copyright by the U.S. Secretary of Commerce
on behalf of the United States of America. All rights reserved.
##CAS REGISTRY NO=86651-99-2
##$NIST MASS SPEC NO=258059
##MOLFORM=C9 H12 N2 O3
##MW=196
##$NIST SOURCE=MSDC
##XUNITS=M/Z
##YUNITS=RELATIVE INTENSITY
##XFACTOR=1
##YFACTOR=1
##FIRSTX=34
##LASTX=197
##FIRSTY=31
##MAXX=197
##MINX=34
##MAXY=9999
##MINY=1
##NPOINTS=86
##PEAK TABLE=(XY..XY)
34,31 36,136 37,125 39,1552
40,555 41,769 42,299 43,381
44,528 45,213 46,145 48,12
50,1101 51,833 52,548 53,262
54,119 55,101 57,238 58,50
59,59 61,62 62,210 63,861
64,658 65,979 66,234 67,198
68,18 69,21 70,10 71,9
74,295 75,325 76,1050 77,683
78,601 79,294 80,210 81,50
82,27 87,4 88,16 89,123
90,235 91,425 92,511 93,353
94,48 95,3 102,55 105,5990
106,329 107,174 108,108 109,11
115,1 117,246 118,310 119,392
120,229 121,161 122,112 123,8
128,2 129,33 130,150 131,79
132,39 133,26 135,212 136,17
138,380 139,70 145,18 151,9999
152,405 153,20 165,59 166,43
167,8 178,19 179,26 180,108
196,2329 197,150
##END=
