##TITLE=p-Nitrophenyl nonyl ether
##JCAMP-DX=4.24
##DATA TYPE=MASS SPECTRUM
##ORIGIN=NIST Mass Spectrometry Data Center, 1994
##OWNER=NIST Mass Spectrometry Data Center
Collection (C) 2014 copyright by the U.S. Secretary of Commerce
on behalf of the United States of America. All rights reserved.
##CAS REGISTRY NO=86702-46-7
##$NIST MASS SPEC NO=135404
##MOLFORM=C15 H23 N O3
##MW=265
##$NIST SOURCE=MSDC
##XUNITS=M/Z
##YUNITS=RELATIVE INTENSITY
##XFACTOR=1
##YFACTOR=1
##FIRSTX=27
##LASTX=266
##FIRSTY=2105
##MAXX=266
##MINX=27
##MAXY=9999
##MINY=53
##NPOINTS=75
##PEAK TABLE=(XY..XY)
27,2105 28,652 29,4466 30,764
38,304 39,2039 41,8663 42,1637
43,9999 44,419 50,581 51,286
52,189 53,736 54,364 55,4241
56,1824 57,4896 58,205 62,124
63,724 64,756 65,1159 66,190
67,403 68,365 69,2682 70,1747
71,4116 72,249 75,547 76,803
77,260 78,364 79,182 80,303
81,424 82,463 83,1567 84,1214
85,2285 86,199 91,170 92,489
93,775 94,266 95,68 96,234
97,1452 98,646 99,55 105,78
106,368 107,255 108,55 109,2520
110,182 111,75 119,79 122,574
123,1677 124,740 125,175 126,786
127,101 133,121 135,53 139,1593
140,907 141,777 152,377 235,161
249,94 265,1372 266,267
##END=
