##TITLE=2- Chloropropionic acid, hexadecyl ester
##JCAMP-DX=4.24
##DATA TYPE=MASS SPECTRUM
##ORIGIN=Zaikin V.G., TIPS RAS, Moscow, Russia
##OWNER=NIST Mass Spectrometry Data Center
Collection (C) 2014 copyright by the U.S. Secretary of Commerce
on behalf of the United States of America. All rights reserved.
##CAS REGISTRY NO=86711-81-1
##$NIST MASS SPEC NO=292443
##MOLFORM=C19 H37 Cl O2
##MW=332
##$NIST SOURCE=MSDC
##XUNITS=M/Z
##YUNITS=RELATIVE INTENSITY
##XFACTOR=1
##YFACTOR=1
##FIRSTX=26
##LASTX=332
##FIRSTY=160
##MAXX=332
##MINX=26
##MAXY=9999
##MINY=20
##NPOINTS=118
##PEAK TABLE=(XY..XY)
26,160 27,661 28,20 29,1151
30,30 31,60 35,90 36,510
37,50 38,220 39,601 40,140
41,4224 42,1301 43,6826 44,550
45,110 50,40 51,60 52,40
53,350 54,1041 55,8237 56,5155
57,9999 58,470 62,60 63,1832
64,140 65,641 66,190 67,1692
68,2392 69,8157 70,5095 71,6015
72,370 73,310 74,1822 75,831
76,40 77,90 78,40 79,220
80,290 81,1131 82,4164 83,9859
84,3883 85,4234 86,300 90,50
91,851 92,50 93,310 94,60
95,751 96,2432 97,8828 98,2742
99,1121 100,100 107,40 108,3133
109,3343 110,2202 111,5605 112,1922
113,751 114,80 121,50 122,40
123,330 124,771 125,2292 126,1241
127,530 128,50 133,30 135,60
136,40 137,240 138,561 139,851
140,831 141,390 142,30 149,60
151,110 152,370 153,430 154,571
155,270 165,90 166,270 167,240
168,390 169,180 179,40 180,180
181,110 182,190 183,90 193,50
194,260 195,80 196,1031 197,170
208,40 210,30 222,881 223,180
224,761 225,240 267,60 269,470
270,80 332,30
##END=
