##TITLE=2-Bromopropionic acid, 3-methylbutyl ester
##JCAMP-DX=4.24
##DATA TYPE=MASS SPECTRUM
##ORIGIN=V.Zaikin,Inst.Petrochem.Synth.,RAS,Moscow
##OWNER=NIST Mass Spectrometry Data Center
Collection (C) 2014 copyright by the U.S. Secretary of Commerce
on behalf of the United States of America. All rights reserved.
##CAS REGISTRY NO=86711-74-2
##$NIST MASS SPEC NO=293561
##MOLFORM=C8 H15 Br O2
##MW=222
##$NIST SOURCE=MSDC
##XUNITS=M/Z
##YUNITS=RELATIVE INTENSITY
##XFACTOR=1
##YFACTOR=1
##FIRSTX=25
##LASTX=182
##FIRSTY=70
##MAXX=182
##MINX=25
##MAXY=9999
##MINY=20
##NPOINTS=77
##PEAK TABLE=(XY..XY)
25,70 26,611 27,2752 28,190
29,1361 30,90 39,1021 40,350
41,2412 42,1331 43,9549 44,561
50,300 51,520 52,831 53,330
54,150 55,5255 56,1201 57,721
58,40 62,20 63,170 64,50
65,50 67,40 68,40 69,761
70,9999 71,3723 72,200 73,240
74,120 75,30 76,30 77,60
78,150 79,1301 80,90 81,60
82,30 83,40 84,40 85,40
86,30 87,90 91,110 97,100
99,30 100,50 103,20 104,60
105,30 106,40 107,1301 108,160
109,1301 110,110 115,70 117,20
119,30 134,30 135,811 136,80
137,721 138,40 143,40 152,90
153,200 154,70 155,270 165,20
167,30 179,110 180,30 181,100
182,30
##END=
