##TITLE=2- Bromopropionic acid, tetradecyl ester
##JCAMP-DX=4.24
##DATA TYPE=MASS SPECTRUM
##ORIGIN=Zaikin V.G., TIPS RAS, Moscow, Russia
##OWNER=NIST Mass Spectrometry Data Center
Collection (C) 2014 copyright by the U.S. Secretary of Commerce
on behalf of the United States of America. All rights reserved.
##CAS REGISTRY NO=86711-82-2
##$NIST MASS SPEC NO=292440
##MOLFORM=C17 H33 Br O2
##MW=348
##$NIST SOURCE=MSDC
##XUNITS=M/Z
##YUNITS=RELATIVE INTENSITY
##XFACTOR=1
##YFACTOR=1
##FIRSTX=26
##LASTX=321
##FIRSTY=210
##MAXX=321
##MINX=26
##MAXY=9999
##MINY=30
##NPOINTS=114
##PEAK TABLE=(XY..XY)
26,210 27,1081 28,30 29,1872
30,40 31,70 35,40 36,300
37,30 38,130 39,691 40,180
41,4904 42,1651 43,7317 44,360
45,120 50,30 51,50 52,40
53,380 54,1101 55,8528 56,5985
57,9999 58,480 65,60 66,130
67,1591 68,2382 69,7757 70,4944
71,5055 72,330 73,430 74,4774
75,1732 76,80 77,80 79,160
80,330 81,981 82,3743 83,8868
84,3613 85,3223 86,220 87,40
91,40 93,30 94,40 95,611
96,1992 97,7297 98,2362 99,681
100,90 101,30 106,30 107,1822
108,150 109,1942 110,991 111,4204
112,1672 113,520 114,60 115,30
122,30 123,280 124,651 125,2312
126,1071 127,310 128,40 130,60
134,60 135,1061 136,100 137,1161
138,490 139,881 140,651 141,150
148,40 150,50 151,120 152,490
153,2542 154,530 155,2332 156,80
165,90 166,320 167,150 168,1692
169,250 179,40 193,70 194,1011
195,370 196,1461 197,240 211,30
213,50 239,40 241,530 242,80
246,50 248,50 276,30 277,30
319,30 321,40
##END=
