##TITLE=Propanoic acid, 2-chloro-, pentyl ester
##JCAMP-DX=4.24
##DATA TYPE=MASS SPECTRUM
##ORIGIN=Insect Chem. Ecol. Lab., USDA, Beltsville, MD 20705
##OWNER=NIST Mass Spectrometry Data Center
Collection (C) 2014 copyright by the U.S. Secretary of Commerce
on behalf of the United States of America. All rights reserved.
##CAS REGISTRY NO=86711-71-9
##$NIST MASS SPEC NO=132286
##MOLFORM=C8 H15 Cl O2
##MW=178
##$NIST SOURCE=MSDC
##XUNITS=M/Z
##YUNITS=RELATIVE INTENSITY
##XFACTOR=1
##YFACTOR=1
##FIRSTX=41
##LASTX=180
##FIRSTY=3364
##MAXX=180
##MINX=41
##MAXY=9999
##MINY=5
##NPOINTS=76
##PEAK TABLE=(XY..XY)
41,3364 42,3147 43,9999 44,37
45,350 47,311 48,165 49,1638
50,10 51,575 53,232 54,8
55,3389 56,882 57,400 58,26
59,33 60,27 61,136 62,224
63,2192 64,24 65,908 66,57
67,68 68,54 69,650 70,5369
71,4335 72,381 73,12 74,114
76,39 77,24 78,18 79,19
81,12 82,15 87,78 88,86
89,14 90,58 91,642 93,247
94,11 95,10 97,85 99,59
101,14 104,5 105,6 106,7
107,23 109,826 111,292 112,10
113,5 115,89 116,6 117,5
121,47 122,11 123,19 124,5
125,5 129,6 135,14 137,6
143,10 145,6 149,44 151,17
163,12 165,6 178,35 180,14
##END=
