##TITLE=Methyl 4-chloro-2,2-dimethyl-4-pentenoate
##JCAMP-DX=4.24
##DATA TYPE=MASS SPECTRUM
##ORIGIN=NIST Mass Spectrometry Data Center, 1994
##OWNER=NIST Mass Spectrometry Data Center
Collection (C) 2014 copyright by the U.S. Secretary of Commerce
on behalf of the United States of America. All rights reserved.
##CAS REGISTRY NO=86799-85-1
##$NIST MASS SPEC NO=134756
##MOLFORM=C8 H13 Cl O2
##MW=176
##$NIST SOURCE=MSDC
##XUNITS=M/Z
##YUNITS=RELATIVE INTENSITY
##XFACTOR=1
##YFACTOR=1
##FIRSTX=15
##LASTX=161
##FIRSTY=3308
##MAXX=161
##MINX=15
##MAXY=9999
##MINY=31
##NPOINTS=100
##PEAK TABLE=(XY..XY)
15,3308 16,53 26,296 27,1733
28,363 29,1658 30,248 31,313
32,41 33,91 36,70 37,197
38,705 39,6648 40,1386 41,6794
42,1257 43,1255 44,74 45,417
49,543 50,240 51,786 52,247
53,2567 54,302 55,1560 56,247
57,148 58,74 59,3097 60,135
61,302 62,153 63,470 64,135
65,1143 66,374 67,1107 68,135
69,1211 70,1813 71,328 72,135
73,5279 74,355 75,846 76,371
77,855 78,153 79,2198 80,135
81,4722 82,407 83,280 84,280
85,346 87,123 89,1799 90,94
91,594 92,49 93,58 95,38
97,210 98,42 99,294 100,38
101,507 102,126 103,116 104,39
105,63 107,31 109,1131 110,100
111,171 112,31 113,459 114,43
115,80 116,31 117,3070 118,277
119,974 120,78 123,129 125,260
126,36 129,59 133,169 135,67
141,9999 142,855 143,78 144,59
145,434 146,43 147,133 161,40
##END=
