##TITLE=Dimethyl phosphite
##JCAMP-DX=4.24
##DATA TYPE=MASS SPECTRUM
##ORIGIN=Japan AIST/NIMC Database- Spectrum MS-NW- 989
##OWNER=NIST Mass Spectrometry Data Center
Collection (C) 2014 copyright by the U.S. Secretary of Commerce
on behalf of the United States of America. All rights reserved.
##CAS REGISTRY NO=868-85-9
##$NIST MASS SPEC NO=230474
##MOLFORM=C2 H7 O3 P
##MW=110
##$NIST SOURCE=MSDC
##XUNITS=M/Z
##YUNITS=RELATIVE INTENSITY
##XFACTOR=1
##YFACTOR=1
##FIRSTX=13
##LASTX=111
##FIRSTY=20
##MAXX=111
##MINX=13
##MAXY=9999
##MINY=10
##NPOINTS=39
##PEAK TABLE=(XY..XY)
13,20 15,1799 17,20 18,119
28,339 29,659 30,119 31,1419
32,189 33,80 44,20 45,70
46,10 47,2959 48,319 49,709
50,70 51,60 58,20 62,40
63,90 64,50 65,579 72,20
73,40 77,209 78,109 79,9069
80,9999 81,209 82,40 93,119
94,10 95,1429 96,20 97,10
109,669 110,549 111,30
##END=
