##TITLE=Carbonodithioic acid, S,S-dimethyl ester
##JCAMP-DX=4.24
##DATA TYPE=MASS SPECTRUM
##ORIGIN=James Little,Eastman Chem.Co.,Kingsport,TN
##OWNER=NIST Mass Spectrometry Data Center
Collection (C) 2014 copyright by the U.S. Secretary of Commerce
on behalf of the United States of America. All rights reserved.
##CAS REGISTRY NO=868-84-8
##$NIST MASS SPEC NO=288630
##MOLFORM=C3 H6 O S2
##MW=122
##$NIST SOURCE=MSDC
##XUNITS=M/Z
##YUNITS=RELATIVE INTENSITY
##XFACTOR=1
##YFACTOR=1
##FIRSTX=27
##LASTX=124
##FIRSTY=120
##MAXX=124
##MINX=27
##MAXY=9999
##MINY=70
##NPOINTS=23
##PEAK TABLE=(XY..XY)
27,120 29,140 44,400 45,3673
46,1571 47,5875 48,430 49,360
60,340 61,490 62,70 64,230
75,9999 76,390 77,450 79,851
81,100 94,3453 95,160 96,350
122,4454 123,240 124,460
##END=
