##TITLE=Borane, chlorodimethoxy-
##JCAMP-DX=4.24
##DATA TYPE=MASS SPECTRUM
##ORIGIN=CCC 0019
##OWNER=NIST Mass Spectrometry Data Center
Collection (C) 2014 copyright by the U.S. Secretary of Commerce
on behalf of the United States of America. All rights reserved.
##CAS REGISTRY NO=868-81-5
##$NIST MASS SPEC NO=1449
##MOLFORM=C2 H6 B Cl O2
##MW=108
##$NIST SOURCE=MSDC
##XUNITS=M/Z
##YUNITS=RELATIVE INTENSITY
##XFACTOR=1
##YFACTOR=1
##FIRSTX=10
##LASTX=111
##FIRSTY=70
##MAXX=111
##MINX=10
##MAXY=9999
##MINY=10
##NPOINTS=94
##PEAK TABLE=(XY..XY)
10,70 11,290 12,180 13,260
14,661 15,4934 16,70 17,10
23,10 24,10 25,20 26,90
27,390 28,681 29,2192 30,280
31,290 32,20 33,10 34,10
35,200 36,190 37,80 38,100
39,150 40,130 41,390 42,1251
43,2983 44,80 45,320 46,260
47,480 48,130 49,591 50,80
51,150 52,30 53,430 54,150
55,130 56,280 57,961 58,70
59,90 60,40 61,130 62,290
63,721 64,100 65,250 66,10
67,20 68,20 69,70 70,120
71,1241 72,6606 73,9999 74,300
75,150 76,1431 77,5055 78,520
79,1651 80,40 81,30 82,30
83,50 84,30 85,30 86,30
87,10 89,10 90,10 91,30
92,80 93,250 94,30 95,90
96,10 97,10 98,30 99,10
100,10 101,10 102,10 105,20
106,80 107,571 108,1291 109,240
110,420 111,30
##END=
