##TITLE=Butanoic acid, 2-methyl-, 1-methylpropyl ester
##JCAMP-DX=4.24
##DATA TYPE=MASS SPECTRUM
##ORIGIN=NIST Mass Spectrometry Data Center, 2010
##OWNER=NIST Mass Spectrometry Data Center
Collection (C) 2014 copyright by the U.S. Secretary of Commerce
on behalf of the United States of America. All rights reserved.
##CAS REGISTRY NO=869-08-9
##$NIST MASS SPEC NO=372890
##MOLFORM=C9 H18 O2
##MW=158
##$NIST SOURCE=MSDC
##XUNITS=M/Z
##YUNITS=RELATIVE INTENSITY
##XFACTOR=1
##YFACTOR=1
##FIRSTX=15
##LASTX=158
##FIRSTY=30
##MAXX=158
##MINX=15
##MAXY=9999
##MINY=10
##NPOINTS=52
##PEAK TABLE=(XY..XY)
15,30 26,60 27,550 28,290
29,1471 30,40 31,40 38,20
39,520 41,2352 42,160 43,290
44,30 45,320 46,10 47,20
50,20 51,30 53,90 54,40
55,470 56,1832 57,9999 58,460
59,120 60,10 61,10 68,10
69,60 70,10 71,20 73,520
74,841 75,30 83,20 85,5985
86,360 87,480 88,20 100,10
101,40 102,440 103,2983 104,180
105,20 114,40 129,520 130,350
131,30 143,90 144,10 158,10
##END=
