##TITLE=2-Propene-1,1-diol, diacetate
##JCAMP-DX=4.24
##DATA TYPE=MASS SPECTRUM
##ORIGIN=Japan AIST/NIMC Database- Spectrum MS-NW-8372
##OWNER=NIST Mass Spectrometry Data Center
Collection (C) 2014 copyright by the U.S. Secretary of Commerce
on behalf of the United States of America. All rights reserved.
##CAS REGISTRY NO=869-29-4
##$NIST MASS SPEC NO=238296
##MOLFORM=C7 H10 O4
##MW=158
##$NIST SOURCE=MSDC
##XUNITS=M/Z
##YUNITS=RELATIVE INTENSITY
##XFACTOR=1
##YFACTOR=1
##FIRSTX=15
##LASTX=117
##FIRSTY=449
##MAXX=117
##MINX=15
##MAXY=9999
##MINY=10
##NPOINTS=38
##PEAK TABLE=(XY..XY)
15,449 18,10 26,99 27,369
28,269 29,189 30,10 31,30
37,10 38,20 39,90 40,10
41,30 42,269 43,9999 44,249
45,70 55,1049 56,229 57,379
58,10 60,20 61,139 70,20
71,10 73,80 74,10 86,10
87,20 88,10 98,109 99,1069
100,70 101,10 103,70 115,309
116,199 117,10
##END=
