##TITLE=4-Cyclohexene-1,2-dicarboxylic acid, 4-methyl-, dimethyl ester
##JCAMP-DX=4.24
##DATA TYPE=MASS SPECTRUM
##ORIGIN=D.HENNEBERG, MAX-PLANCK INSTITUTE, MULHEIM, WEST GERMANY
##OWNER=NIST Mass Spectrometry Data Center
Collection (C) 2014 copyright by the U.S. Secretary of Commerce
on behalf of the United States of America. All rights reserved.
##CAS REGISTRY NO=86905-77-3
##$NIST MASS SPEC NO=63238
##MOLFORM=C11 H16 O4
##MW=212
##$NIST SOURCE=MSDC
##XUNITS=M/Z
##YUNITS=RELATIVE INTENSITY
##XFACTOR=1
##YFACTOR=1
##FIRSTX=23
##LASTX=213
##FIRSTY=4
##MAXX=213
##MINX=23
##MAXY=9999
##MINY=2
##NPOINTS=129
##PEAK TABLE=(XY..XY)
23,4 25,8 26,48 27,664
28,887 29,319 30,91 31,185
32,81 33,153 34,7 35,8
36,3 37,23 38,53 39,848
40,185 41,685 42,72 43,200
44,190 45,272 46,34 47,19
48,12 49,15 50,81 51,294
52,134 53,485 54,70 55,315
56,36 57,58 58,20 59,1143
60,53 61,150 62,28 63,101
64,69 65,437 66,118 67,299
68,150 69,64 70,10 71,27
72,11 73,8 74,20 75,43
77,1619 78,280 79,726 80,98
81,103 82,22 83,31 84,8
85,54 86,10 87,24 89,171
90,107 91,1422 92,1957 93,9999
94,834 95,99 96,21 97,18
98,11 99,7 100,6 103,16
104,6 105,112 106,17 107,63
108,10 109,86 110,20 111,32
112,5 113,44 114,9 118,6
119,123 120,151 121,399 122,45
123,30 124,42 125,73 126,12
127,11 128,22 129,32 130,17
131,3 133,4 134,2 135,16
136,7 137,384 138,46 139,4
140,3 142,3 145,6 147,4
148,6 150,35 151,198 152,2286
153,400 154,42 155,4 165,3
168,8 169,4 178,2 180,825
181,621 182,66 183,7 212,26
213,3
##END=
