##TITLE=2H-1-Benzopyran-2-one, 7-(dimethylamino)-4-methyl-
##JCAMP-DX=4.24
##DATA TYPE=MASS SPECTRUM
##ORIGIN=NIST Mass Spectrometry Data Center, 2012
##OWNER=NIST Mass Spectrometry Data Center
Collection (C) 2014 copyright by the U.S. Secretary of Commerce
on behalf of the United States of America. All rights reserved.
##CAS REGISTRY NO=87-01-4
##$NIST MASS SPEC NO=395852
##MOLFORM=C12 H13 N O2
##MW=203
##$NIST SOURCE=MSDC
##XUNITS=M/Z
##YUNITS=RELATIVE INTENSITY
##XFACTOR=1
##YFACTOR=1
##FIRSTX=37
##LASTX=204
##FIRSTY=50
##MAXX=204
##MINX=37
##MAXY=9999
##MINY=30
##NPOINTS=64
##PEAK TABLE=(XY..XY)
37,50 38,170 39,901 42,1111
43,240 50,490 51,1051 52,410
53,300 55,190 61,100 62,500
63,921 64,450 65,661 66,480
68,210 74,280 75,380 76,430
77,1812 78,530 79,480 82,100
86,1601 87,1291 89,831 90,310
91,641 92,230 93,150 94,130
98,90 99,40 102,681 103,1221
104,410 105,310 114,30 116,470
117,490 118,200 120,110 129,180
130,711 131,1411 132,1001 134,80
143,80 144,200 145,300 146,1531
147,360 158,1071 159,1581 160,951
161,240 174,8878 175,7176 176,931
200,130 202,2152 203,9999 204,1271
##END=
