##TITLE=Tribromsalan
##JCAMP-DX=4.24
##DATA TYPE=MASS SPECTRUM
##ORIGIN=Japan AIST/NIMC Database- Spectrum MS-NW-4153
##OWNER=NIST Mass Spectrometry Data Center
Collection (C) 2014 copyright by the U.S. Secretary of Commerce
on behalf of the United States of America. All rights reserved.
##CAS REGISTRY NO=87-10-5
##$NIST MASS SPEC NO=232077
##MOLFORM=C13 H8 Br3 N O2
##MW=447
##$NIST SOURCE=MSDC
##XUNITS=M/Z
##YUNITS=RELATIVE INTENSITY
##XFACTOR=1
##YFACTOR=1
##FIRSTX=26
##LASTX=454
##FIRSTY=20
##MAXX=454
##MINX=26
##MAXY=9999
##MINY=10
##NPOINTS=177
##PEAK TABLE=(XY..XY)
26,20 27,20 28,80 29,20
36,10 37,129 38,209 39,309
40,30 41,50 42,10 43,10
44,20 45,10 49,20 50,219
51,129 52,99 53,239 54,10
60,20 61,239 62,709 63,1169
64,429 65,599 66,90 67,10
69,10 73,30 74,129 75,209
76,209 77,159 78,30 79,60
80,159 81,50 82,149 85,10
86,20 87,20 88,40 89,40
90,329 91,909 92,859 93,889
94,70 98,10 99,20 100,10
101,10 102,20 103,10 105,40
116,20 117,109 118,20 119,109
120,30 121,70 125,10 126,40
127,40 128,20 129,10 130,10
131,30 133,20 137,10 138,10
139,10 140,10 141,399 142,99
143,569 144,99 145,199 146,20
152,20 153,40 154,80 155,99
156,20 157,90 158,10 164,30
165,10 166,10 167,10 168,10
169,149 170,799 171,9999 172,1379
173,9499 174,679 175,20 181,10
182,70 183,10 184,10 185,10
195,10 197,249 198,149 199,459
200,149 201,229 202,20 209,10
210,10 220,20 221,279 222,60
223,539 224,50 225,269 226,20
230,109 231,99 232,60 233,50
234,20 243,10 245,10 246,10
248,40 249,50 250,90 251,90
252,50 253,50 260,20 261,20
262,20 263,10 276,60 277,1579
278,239 279,3059 280,299 281,1509
282,119 283,10 288,10 289,30
290,20 291,40 293,10 339,10
341,20 342,20 343,10 344,30
346,10 352,10 367,30 368,20
369,179 370,50 371,259 372,50
373,109 374,10 429,10 431,20
433,20 447,449 448,70 449,1329
450,189 451,1229 452,169 453,429
454,50
##END=
