##TITLE=p-tert-Butylphenylsalicylate
##JCAMP-DX=4.24
##DATA TYPE=MASS SPECTRUM
##ORIGIN=NIST Mass Spectrometry Data Center, 1992
##OWNER=NIST Mass Spectrometry Data Center
Collection (C) 2014 copyright by the U.S. Secretary of Commerce
on behalf of the United States of America. All rights reserved.
##CAS REGISTRY NO=87-18-3
##$NIST MASS SPEC NO=125204
##MOLFORM=C17 H18 O3
##MW=270
##$NIST SOURCE=MSDC
##XUNITS=M/Z
##YUNITS=RELATIVE INTENSITY
##XFACTOR=1
##YFACTOR=1
##FIRSTX=14
##LASTX=272
##FIRSTY=37
##MAXX=272
##MINX=14
##MAXY=9999
##MINY=2
##NPOINTS=72
##PEAK TABLE=(XY..XY)
14,37 15,11 16,9 17,6
18,48 26,14 28,26 29,58
32,13 38,52 39,462 40,14
41,234 42,16 43,19 50,34
51,52 52,40 53,103 54,19
55,38 57,31 61,13 62,24
63,164 64,149 65,935 66,68
67,14 75,29 77,186 78,81
79,96 80,15 81,16 89,21
90,37 91,324 92,249 93,698
94,55 95,66 96,10 102,16
103,44 105,72 107,281 108,8
109,39 115,28 116,17 117,18
118,24 119,78 120,8 121,9999
122,810 123,59 128,19 133,37
135,1340 136,116 137,21 149,52
150,100 151,18 179,2 213,19
255,18 270,1320 271,251 272,35
##END=
