##TITLE=Propanedioic acid, (ethoxymethylene)-, diethyl ester
##JCAMP-DX=4.24
##DATA TYPE=MASS SPECTRUM
##ORIGIN=Japan AIST/NIMC Database- Spectrum MS-NW-2743
##OWNER=NIST Mass Spectrometry Data Center
Collection (C) 2014 copyright by the U.S. Secretary of Commerce
on behalf of the United States of America. All rights reserved.
##CAS REGISTRY NO=87-13-8
##$NIST MASS SPEC NO=231528
##MOLFORM=C10 H16 O5
##MW=216
##$NIST SOURCE=MSDC
##XUNITS=M/Z
##YUNITS=RELATIVE INTENSITY
##XFACTOR=1
##YFACTOR=1
##FIRSTX=12
##LASTX=219
##FIRSTY=30
##MAXX=219
##MINX=12
##MAXY=9999
##MINY=10
##NPOINTS=149
##PEAK TABLE=(XY..XY)
12,30 13,60 14,189 15,609
16,30 17,10 18,30 19,50
24,20 25,109 26,759 27,3919
28,1149 29,9999 30,239 31,1869
32,149 33,10 38,10 39,109
40,70 41,559 42,1469 43,1819
44,739 45,3349 46,249 47,1459
48,30 49,10 51,10 52,10
53,869 54,829 55,619 56,179
57,90 58,309 59,129 60,169
61,80 63,20 68,209 69,4909
70,1759 71,2579 72,309 73,509
74,119 75,1269 76,80 77,10
80,10 81,10 82,119 83,149
84,30 85,80 86,3419 87,1339
88,1169 89,229 90,20 91,10
92,20 95,10 96,129 97,5379
98,879 99,1859 100,699 101,559
102,80 103,2499 104,1269 105,189
106,10 108,50 109,10 110,30
111,20 112,10 113,529 114,1099
115,8829 116,1119 117,269 118,20
119,30 120,20 121,10 123,10
124,169 125,299 126,879 127,299
128,1479 129,529 130,50 131,259
132,299 133,179 134,10 135,10
137,10 138,10 139,10 140,10
141,709 142,239 143,5299 144,1079
145,369 146,40 147,10 154,30
155,60 156,20 157,40 158,10
159,359 160,109 161,80 162,10
167,10 168,10 169,30 170,99
171,9419 172,1029 173,299 174,30
175,10 176,10 182,30 187,519
188,229 189,169 190,20 199,20
200,10 201,80 202,20 203,10
215,10 216,1319 217,379 218,60
219,10
##END=
