##TITLE=2-Hydroxyethyl salicylate
##JCAMP-DX=4.24
##DATA TYPE=MASS SPECTRUM
##ORIGIN=NIST Mass Spectrometry Data Center, 2010
##OWNER=NIST Mass Spectrometry Data Center
Collection (C) 2014 copyright by the U.S. Secretary of Commerce
on behalf of the United States of America. All rights reserved.
##CAS REGISTRY NO=87-28-5
##$NIST MASS SPEC NO=374711
##MOLFORM=C9 H10 O4
##MW=182
##$NIST SOURCE=MSDC
##XUNITS=M/Z
##YUNITS=RELATIVE INTENSITY
##XFACTOR=1
##YFACTOR=1
##FIRSTX=15
##LASTX=184
##FIRSTY=30
##MAXX=184
##MINX=15
##MAXY=9999
##MINY=10
##NPOINTS=78
##PEAK TABLE=(XY..XY)
15,30 18,10 19,40 26,30
27,180 28,50 29,200 30,20
31,270 32,20 37,60 38,210
39,1011 40,50 41,20 42,50
43,170 44,50 45,310 46,20
49,10 50,110 51,90 52,20
53,340 54,20 55,40 61,70
62,190 63,721 64,771 65,1762
66,190 67,30 68,10 69,10
73,10 74,60 75,60 76,70
77,40 78,10 79,10 80,10
81,100 82,10 90,10 91,90
92,3894 93,1211 94,100 95,10
104,20 105,10 107,10 109,30
120,9999 121,4664 122,390 123,40
127,10 128,10 134,30 135,10
136,20 137,30 138,360 139,70
140,10 151,20 152,10 164,3623
165,380 166,40 180,10 182,1481
183,160 184,20
##END=
