##TITLE=Phenylethyl salicylate
##JCAMP-DX=4.24
##DATA TYPE=MASS SPECTRUM
##ORIGIN=NIST Mass Spectrometry Data Center, 1994
##OWNER=NIST Mass Spectrometry Data Center
Collection (C) 2014 copyright by the U.S. Secretary of Commerce
on behalf of the United States of America. All rights reserved.
##CAS REGISTRY NO=87-22-9
##$NIST MASS SPEC NO=134269
##MOLFORM=C15 H14 O3
##MW=242
##$NIST SOURCE=MSDC
##XUNITS=M/Z
##YUNITS=RELATIVE INTENSITY
##XFACTOR=1
##YFACTOR=1
##FIRSTX=14
##LASTX=244
##FIRSTY=11
##MAXX=244
##MINX=14
##MAXY=9999
##MINY=4
##NPOINTS=60
##PEAK TABLE=(XY..XY)
14,11 16,4 17,14 18,21
27,397 28,97 29,57 31,38
37,62 38,255 39,1648 40,75
41,108 43,18 44,18 45,22
50,269 51,674 52,192 53,360
54,27 55,42 61,40 62,187
63,708 64,567 65,2348 66,212
67,26 74,85 75,95 77,1467
78,670 79,1444 80,98 81,64
89,165 91,1318 92,1544 93,966
94,76 103,1400 104,9811 105,9999
106,849 107,43 120,2130 121,3963
122,340 123,36 138,1235 139,121
140,17 151,35 152,24 165,20
223,30 242,944 243,152 244,22
##END=
