##TITLE=Ethyl o-methylbenzoate
##JCAMP-DX=4.24
##DATA TYPE=MASS SPECTRUM
##ORIGIN=Zaikin V.G., TIPS RAS, Moscow, Russia
##OWNER=NIST Mass Spectrometry Data Center
Collection (C) 2014 copyright by the U.S. Secretary of Commerce
on behalf of the United States of America. All rights reserved.
##CAS REGISTRY NO=87-24-1
##$NIST MASS SPEC NO=292376
##MOLFORM=C10 H12 O2
##MW=164
##$NIST SOURCE=MSDC
##XUNITS=M/Z
##YUNITS=RELATIVE INTENSITY
##XFACTOR=1
##YFACTOR=1
##FIRSTX=26
##LASTX=166
##FIRSTY=50
##MAXX=166
##MINX=26
##MAXY=9999
##MINY=20
##NPOINTS=53
##PEAK TABLE=(XY..XY)
26,50 27,220 28,20 29,280
36,30 38,50 39,480 40,40
41,120 43,50 44,40 45,50
50,130 51,280 52,70 53,50
61,20 62,130 63,480 64,160
65,1421 66,80 74,40 75,40
76,30 77,400 78,60 79,300
87,30 89,751 90,1381 91,4614
92,450 93,30 105,140 107,60
118,6045 119,9999 120,961 121,80
131,120 133,90 135,2412 136,841
137,70 146,70 147,40 149,300
150,30 163,140 164,5185 165,550
166,40
##END=
