##TITLE=Violuric acid
##JCAMP-DX=4.24
##DATA TYPE=MASS SPECTRUM
##ORIGIN=Japan AIST/NIMC Database- Spectrum MS-NW- 290
##OWNER=NIST Mass Spectrometry Data Center
Collection (C) 2014 copyright by the U.S. Secretary of Commerce
on behalf of the United States of America. All rights reserved.
##CAS REGISTRY NO=87-39-8
##$NIST MASS SPEC NO=228469
##MOLFORM=C4 H3 N3 O4
##MW=157
##$NIST SOURCE=MSDC
##XUNITS=M/Z
##YUNITS=RELATIVE INTENSITY
##XFACTOR=1
##YFACTOR=1
##FIRSTX=14
##LASTX=159
##FIRSTY=30
##MAXX=159
##MINX=14
##MAXY=9999
##MINY=10
##NPOINTS=114
##PEAK TABLE=(XY..XY)
14,30 15,109 16,259 17,20
18,50 24,30 26,269 27,1349
28,789 29,919 30,1349 31,40
36,169 38,179 39,199 40,139
41,439 42,1399 43,5789 44,6409
45,179 46,20 48,20 50,10
51,20 52,109 53,1289 54,6669
55,979 56,1199 57,249 58,80
59,20 60,80 61,20 63,10
64,10 65,20 66,20 67,199
68,209 69,499 70,3069 71,1789
72,70 73,90 77,20 78,20
79,40 80,30 81,99 82,80
83,139 84,259 85,159 86,1179
87,139 88,20 89,10 91,60
92,20 93,30 94,20 95,70
96,229 97,199 98,309 99,40
100,50 101,20 102,10 104,10
105,20 106,10 107,40 108,20
109,40 110,40 111,50 112,30
113,549 114,5809 115,229 116,50
117,20 119,10 120,10 121,20
122,10 123,30 124,30 125,40
126,20 127,20 128,80 129,40
130,20 131,10 133,20 134,10
135,20 136,10 137,30 138,30
139,20 140,1909 141,719 142,70
143,10 155,20 156,10 157,9999
158,559 159,90
##END=
