##TITLE=Benzene, 1,3,5-trichloro-2-methoxy-
##JCAMP-DX=4.24
##DATA TYPE=MASS SPECTRUM
##ORIGIN=NIST Mass Spectrometry Data Center
##OWNER=NIST Mass Spectrometry Data Center
Collection (C) 2014 copyright by the U.S. Secretary of Commerce
on behalf of the United States of America. All rights reserved.
##CAS REGISTRY NO=87-40-1
##$NIST MASS SPEC NO=333450
##MOLFORM=C7 H5 Cl3 O
##MW=210
##$NIST SOURCE=MSDC
##XUNITS=M/Z
##YUNITS=RELATIVE INTENSITY
##XFACTOR=1
##YFACTOR=1
##FIRSTX=14
##LASTX=217
##FIRSTY=40
##MAXX=217
##MINX=14
##MAXY=9999
##MINY=10
##NPOINTS=147
##PEAK TABLE=(XY..XY)
14,40 15,300 25,20 26,10
27,10 28,10 29,200 30,50
31,20 35,80 36,100 37,340
38,100 39,10 43,20 47,160
48,220 49,360 50,320 51,110
52,20 53,300 54,40 55,30
56,10 59,20 60,400 61,1301
62,1481 63,160 64,10 65,60
66,80 67,40 68,10 71,220
72,631 73,921 74,1551 75,691
76,60 77,80 78,10 80,10
81,10 82,30 83,510 84,601
85,520 86,210 87,160 88,10
89,20 90,30 91,10 94,20
95,180 96,731 97,3363 98,420
99,1091 100,70 101,10 104,10
106,150 107,1561 108,741 109,2572
110,500 111,1001 112,210 113,110
114,40 117,50 118,60 119,120
120,60 121,70 122,20 123,30
124,20 125,30 126,10 127,10
130,40 131,460 132,581 133,330
134,370 135,80 136,50 137,10
139,10 140,10 141,60 142,20
143,520 144,350 145,971 146,380
147,530 148,140 149,110 150,20
151,10 160,430 161,30 162,270
163,20 164,50 165,10 167,6306
168,410 169,6075 170,350 171,1962
172,110 173,230 174,30 175,130
176,20 177,70 178,10 179,240
180,40 181,230 182,40 183,70
184,20 185,10 195,9999 196,771
197,9579 198,691 199,3183 200,210
201,350 202,20 207,20 210,6776
211,611 212,6446 213,520 214,2112
215,160 216,230 217,20
##END=
