##TITLE=Gramine
##JCAMP-DX=4.24
##DATA TYPE=MASS SPECTRUM
##ORIGIN=NIST Mass Spectrometry Data Center
##OWNER=NIST Mass Spectrometry Data Center
Collection (C) 2014 copyright by the U.S. Secretary of Commerce
on behalf of the United States of America. All rights reserved.
##CAS REGISTRY NO=87-52-5
##$NIST MASS SPEC NO=352447
##MOLFORM=C11 H14 N2
##MW=174
##$NIST SOURCE=MSDC
##XUNITS=M/Z
##YUNITS=RELATIVE INTENSITY
##XFACTOR=1
##YFACTOR=1
##FIRSTX=15
##LASTX=176
##FIRSTY=20
##MAXX=176
##MINX=15
##MAXY=9999
##MINY=10
##NPOINTS=86
##PEAK TABLE=(XY..XY)
15,20 18,10 26,10 27,30
28,110 29,10 30,40 37,20
38,40 39,130 40,30 41,50
42,420 43,100 44,751 45,250
46,20 49,20 50,250 51,480
52,190 53,40 54,20 56,50
57,100 58,230 59,10 61,40
62,110 63,270 64,90 65,90
66,20 71,10 73,30 74,190
75,290 76,400 77,1021 78,180
79,40 85,10 86,70 87,170
88,40 89,160 90,70 91,30
97,10 98,30 99,20 100,20
101,190 102,1061 103,861 104,100
105,10 114,40 115,80 116,100
117,190 118,70 119,10 127,30
128,601 129,1481 130,9999 131,1912
132,230 133,20 141,10 142,120
143,50 144,30 145,10 155,20
156,20 157,160 158,40 159,10
171,20 172,10 173,330 174,1762
175,230 176,10
##END=
