##TITLE=Benzenamine, 2,3-dimethyl-
##JCAMP-DX=4.24
##DATA TYPE=MASS SPECTRUM
##ORIGIN=NIST Mass Spectrometry Data Center, 1998.
##OWNER=NIST Mass Spectrometry Data Center
Collection (C) 2014 copyright by the U.S. Secretary of Commerce
on behalf of the United States of America. All rights reserved.
##CAS REGISTRY NO=87-59-2
##$NIST MASS SPEC NO=291379
##MOLFORM=C8 H11 N
##MW=121
##$NIST SOURCE=MSDC
##XUNITS=M/Z
##YUNITS=RELATIVE INTENSITY
##XFACTOR=1
##YFACTOR=1
##FIRSTX=15
##LASTX=123
##FIRSTY=30
##MAXX=123
##MINX=15
##MAXY=9999
##MINY=10
##NPOINTS=75
##PEAK TABLE=(XY..XY)
15,30 26,40 27,250 28,60
29,40 30,90 37,60 38,190
39,810 40,140 41,360 42,360
43,30 44,10 45,30 46,110
49,30 50,350 51,820 52,640
53,630 54,340 55,40 56,20
57,10 58,360 59,300 60,210
62,200 63,470 64,150 65,710
66,310 67,140 68,40 73,20
74,110 75,120 76,150 77,1990
78,1050 79,870 80,420 81,90
82,10 85,20 86,30 87,30
88,20 89,190 90,90 91,1350
92,290 93,670 94,310 95,30
98,10 99,10 100,10 101,20
102,200 103,1060 104,590 105,270
106,9999 107,810 108,30 116,40
117,180 118,550 119,290 120,5259
121,9529 122,870 123,40
##END=
