##TITLE=Mucochloric acid
##JCAMP-DX=4.24
##DATA TYPE=MASS SPECTRUM
##ORIGIN=NIST Mass Spectrometry Data Center, 1994
##OWNER=NIST Mass Spectrometry Data Center
Collection (C) 2014 copyright by the U.S. Secretary of Commerce
on behalf of the United States of America. All rights reserved.
##CAS REGISTRY NO=87-56-9
##$NIST MASS SPEC NO=134404
##MOLFORM=C4 H2 Cl2 O3
##MW=168
##$NIST SOURCE=MSDC
##XUNITS=M/Z
##YUNITS=RELATIVE INTENSITY
##XFACTOR=1
##YFACTOR=1
##FIRSTX=4
##LASTX=172
##FIRSTY=44
##MAXX=172
##MINX=4
##MAXY=9999
##MINY=32
##NPOINTS=110
##PEAK TABLE=(XY..XY)
4,44 12,195 13,88 14,85
16,111 17,131 18,109 24,726
25,907 26,589 27,85 28,1100
29,4168 30,142 32,95 35,921
36,869 37,1019 38,171 39,35
40,133 41,160 42,62 43,35
44,1323 45,1033 46,35 47,920
48,217 49,453 50,89 51,35
52,748 53,1203 54,178 59,1482
60,2903 61,2210 62,1130 63,695
64,49 65,71 69,491 70,55
71,139 72,316 73,66 74,109
75,69 76,200 77,99 78,63
79,33 82,37 83,99 84,32
85,69 86,32 87,6436 88,32
89,6272 90,323 91,1367 92,46
93,32 94,2863 95,2477 96,2593
97,1548 98,777 99,280 100,65
103,540 104,228 105,1355 106,133
107,400 109,32 111,128 112,35
113,91 115,101 117,34 122,3743
123,2157 124,3087 125,1426 126,851
127,235 128,70 133,9999 134,526
135,3177 136,155 139,1363 140,1100
141,915 142,705 143,174 144,120
151,898 153,620 154,52 155,114
167,1177 168,2950 169,915 170,1821
171,212 172,344
##END=
