##TITLE=1,3-Butadiene, 1,1,2,3,4,4-hexachloro-
##JCAMP-DX=4.24
##DATA TYPE=MASS SPECTRUM
##ORIGIN=NIST Mass Spectrometry Data Center, 1998.
##OWNER=NIST Mass Spectrometry Data Center
Collection (C) 2014 copyright by the U.S. Secretary of Commerce
on behalf of the United States of America. All rights reserved.
##CAS REGISTRY NO=87-68-3
##$NIST MASS SPEC NO=291471
##MOLFORM=C4 Cl6
##MW=258
##$NIST SOURCE=MSDC
##XUNITS=M/Z
##YUNITS=RELATIVE INTENSITY
##XFACTOR=1
##YFACTOR=1
##FIRSTX=12
##LASTX=268
##FIRSTY=20
##MAXX=268
##MINX=12
##MAXY=9999
##MINY=10
##NPOINTS=102
##PEAK TABLE=(XY..XY)
12,20 24,40 35,510 36,350
37,180 47,1400 48,390 49,490
50,10 53,10 54,10 59,220
60,40 61,60 70,40 71,970
72,50 73,320 74,10 76,80
77,70 78,20 82,550 83,1800
84,440 85,590 86,80 94,1080
95,500 96,690 97,60 98,80
106,1010 107,40 108,650 109,20
110,110 117,210 118,3750 119,360
120,2440 121,170 122,410 123,30
129,240 130,250 131,330 132,90
133,50 141,2710 142,90 143,2620
144,80 145,850 146,30 147,90
153,1650 154,70 155,1610 156,70
157,530 158,20 159,60 164,170
166,220 167,10 168,100 170,20
176,10 178,10 180,10 188,3640
189,170 190,4660 191,210 192,2260
193,100 194,480 195,20 196,40
223,6439 224,310 225,9999 226,460
227,6469 228,280 229,2110 230,90
231,340 232,10 233,20 258,1700
259,90 260,3540 261,160 262,2820
263,120 264,1200 265,50 266,290
267,10 268,40
##END=
