##TITLE=1,2,3-Benzenetriol
##JCAMP-DX=4.24
##DATA TYPE=MASS SPECTRUM
##ORIGIN=NIST Mass Spectrometry Data Center
##OWNER=NIST Mass Spectrometry Data Center
Collection (C) 2014 copyright by the U.S. Secretary of Commerce
on behalf of the United States of America. All rights reserved.
##CAS REGISTRY NO=87-66-1
##$NIST MASS SPEC NO=352473
##MOLFORM=C6 H6 O3
##MW=126
##$NIST SOURCE=MSDC
##XUNITS=M/Z
##YUNITS=RELATIVE INTENSITY
##XFACTOR=1
##YFACTOR=1
##FIRSTX=14
##LASTX=128
##FIRSTY=10
##MAXX=128
##MINX=14
##MAXY=9999
##MINY=10
##NPOINTS=73
##PEAK TABLE=(XY..XY)
14,10 15,10 19,20 25,20
26,110 27,120 28,40 29,280
30,20 31,20 34,20 36,30
37,230 38,390 39,871 40,220
41,210 42,270 43,100 44,10
45,20 46,10 48,30 49,160
50,801 51,2542 52,4684 53,1211
54,420 55,370 56,20 58,40
59,10 60,20 61,80 62,120
63,450 65,50 66,130 67,90
68,250 69,150 70,30 71,30
74,10 76,10 77,120 78,60
79,1261 80,3533 81,230 82,20
89,10 90,10 91,10 92,10
93,10 95,50 96,30 97,1161
98,70 99,10 106,10 107,420
108,2692 109,180 110,40 121,10
123,10 125,420 126,9999 127,711
128,90
##END=
