##TITLE=Myo-Inositol
##JCAMP-DX=4.24
##DATA TYPE=MASS SPECTRUM
##OWNER=NIST Mass Spectrometry Data Center
Collection (C) 2014 copyright by the U.S. Secretary of Commerce
on behalf of the United States of America. All rights reserved.
##CAS REGISTRY NO=87-89-8
##$NIST MASS SPEC NO=7496
##MOLFORM=C6 H12 O6
##MW=180
##$NIST SOURCE=MSDC
##XUNITS=M/Z
##YUNITS=RELATIVE INTENSITY
##XFACTOR=1
##YFACTOR=1
##FIRSTX=39
##LASTX=181
##FIRSTY=190
##MAXX=181
##MINX=39
##MAXY=9999
##MINY=10
##NPOINTS=50
##PEAK TABLE=(XY..XY)
39,190 41,280 42,901 43,1111
44,310 45,571 47,120 53,330
54,130 55,330 56,190 57,370
58,110 59,70 60,2933 61,581
69,260 70,90 71,1381 72,681
73,9999 74,581 75,90 81,50
83,60 84,50 85,150 89,320
90,60 91,300 94,10 95,10
96,10 97,90 98,60 99,30
100,10 101,50 102,1181 103,90
109,70 115,60 125,10 126,30
127,20 144,210 145,30 162,10
163,10 181,30
##END=
