##TITLE=2,5-Cyclohexadiene-1,4-dione, 2,5-dichloro-3,6-dihydroxy-
##JCAMP-DX=4.24
##DATA TYPE=MASS SPECTRUM
##ORIGIN=Japan AIST/NIMC Database- Spectrum MS-NW-1625
##OWNER=NIST Mass Spectrometry Data Center
Collection (C) 2014 copyright by the U.S. Secretary of Commerce
on behalf of the United States of America. All rights reserved.
##CAS REGISTRY NO=87-88-7
##$NIST MASS SPEC NO=230711
##MOLFORM=C6 H2 Cl2 O4
##MW=208
##$NIST SOURCE=MSDC
##XUNITS=M/Z
##YUNITS=RELATIVE INTENSITY
##XFACTOR=1
##YFACTOR=1
##FIRSTX=12
##LASTX=214
##FIRSTY=249
##MAXX=214
##MINX=12
##MAXY=9999
##MINY=10
##NPOINTS=156
##PEAK TABLE=(XY..XY)
12,249 13,189 14,119 15,30
16,40 17,70 18,239 24,359
25,379 26,139 27,50 28,959
29,1029 30,20 35,399 36,2399
37,359 38,739 39,30 40,789
41,2519 42,469 43,129 44,629
45,129 46,10 47,1519 48,879
49,559 50,279 51,60 52,679
53,979 54,149 55,109 56,40
57,159 58,159 59,249 60,289
61,329 62,99 63,229 64,90
65,99 66,50 67,50 68,749
69,6629 70,429 71,339 72,349
73,369 74,119 75,629 76,2969
77,1119 78,889 79,229 80,70
81,70 82,129 83,70 84,30
85,60 86,10 87,2319 88,1549
89,1109 90,509 91,149 92,30
93,60 94,20 95,80 96,20
97,60 98,20 99,80 100,149
101,299 102,60 103,2089 104,459
105,2739 106,399 107,789 108,149
109,60 110,50 111,229 112,30
113,20 116,139 117,509 118,159
119,189 120,109 121,30 122,20
123,299 124,30 125,179 126,20
127,509 128,70 129,179 130,20
131,10 133,10 134,70 135,60
136,50 137,60 138,90 139,30
140,70 141,10 144,409 145,2159
146,349 147,729 148,80 149,20
151,60 152,1129 153,99 154,739
155,50 156,139 157,10 162,159
163,30 164,109 165,20 166,20
172,369 173,1239 174,879 175,469
176,269 177,20 180,6339 181,379
182,4189 183,239 184,729 185,40
206,70 208,9999 209,689 210,6439
211,449 212,1129 213,70 214,10
##END=
