##TITLE=Benzene, hexabromo-
##JCAMP-DX=4.24
##DATA TYPE=MASS SPECTRUM
##ORIGIN=Japan AIST/NIMC Database- Spectrum MS-NW- 281
##OWNER=NIST Mass Spectrometry Data Center
Collection (C) 2014 copyright by the U.S. Secretary of Commerce
on behalf of the United States of America. All rights reserved.
##CAS REGISTRY NO=87-82-1
##$NIST MASS SPEC NO=228436
##MOLFORM=C6 Br6
##MW=546
##$NIST SOURCE=MSDC
##XUNITS=M/Z
##YUNITS=RELATIVE INTENSITY
##XFACTOR=1
##YFACTOR=1
##FIRSTX=27
##LASTX=559
##FIRSTY=10
##MAXX=559
##MINX=27
##MAXY=9999
##MINY=10
##NPOINTS=159
##PEAK TABLE=(XY..XY)
27,10 28,70 29,30 36,399
37,60 39,20 41,109 42,20
43,109 48,70 54,20 55,109
56,40 57,129 60,219 61,30
67,50 68,30 69,179 70,40
71,70 72,1219 73,239 74,90
77,10 79,249 80,119 81,239
82,119 83,80 84,30 85,40
91,139 93,139 94,10 95,50
96,30 97,60 98,30 103,30
105,30 107,20 109,30 110,20
111,30 112,10 113,10 115,499
116,579 117,519 118,20 121,20
123,20 124,10 125,20 127,90
128,20 129,80 135,20 136,20
137,30 139,99 141,109 149,30
151,1209 152,199 153,1209 154,199
155,469 156,449 157,159 158,40
160,40 162,20 167,20 169,10
172,10 178,30 179,10 182,20
184,50 185,10 186,20 194,169
195,539 196,829 197,529 198,159
202,30 206,60 208,119 210,60
218,10 220,20 230,1089 231,99
232,2139 233,209 234,1109 235,299
236,289 237,139 238,30 256,20
273,40 274,199 275,479 276,629
277,459 278,179 279,30 284,10
309,229 310,40 311,669 312,109
313,699 314,119 315,269 316,40
317,10 368,10 388,219 389,30
390,899 391,129 392,1439 393,199
394,1089 395,139 396,379 397,40
398,40 467,159 468,70 469,769
470,359 471,1479 472,719 473,1459
474,679 475,749 476,339 477,149
478,70 546,559 547,40 548,3149
549,209 550,7709 551,509 552,9999
553,639 554,7219 555,489 556,2849
557,189 558,469 559,30
##END=
