##TITLE=(+)-Diethyl L-tartrate
##JCAMP-DX=4.24
##DATA TYPE=MASS SPECTRUM
##ORIGIN=Japan AIST/NIMC Database- Spectrum MS-NW-1116
##OWNER=NIST Mass Spectrometry Data Center
Collection (C) 2014 copyright by the U.S. Secretary of Commerce
on behalf of the United States of America. All rights reserved.
##CAS REGISTRY NO=87-91-2
##$NIST MASS SPEC NO=228312
##MOLFORM=C8 H14 O6
##MW=206
##$NIST SOURCE=MSDC
##XUNITS=M/Z
##YUNITS=RELATIVE INTENSITY
##XFACTOR=1
##YFACTOR=1
##FIRSTX=14
##LASTX=189
##FIRSTY=99
##MAXX=189
##MINX=14
##MAXY=9999
##MINY=10
##NPOINTS=83
##PEAK TABLE=(XY..XY)
14,99 15,369 16,20 17,50
18,209 19,30 25,10 26,219
27,2039 28,629 29,6579 30,539
31,2119 32,80 33,10 36,20
39,10 40,20 41,139 42,759
43,879 44,209 45,799 46,70
47,3199 48,70 49,419 53,20
54,20 55,20 56,10 57,109
58,1019 59,1749 60,1379 61,1699
62,40 63,20 69,99 70,309
71,609 72,40 73,50 74,30
75,1469 76,8139 77,2709 78,109
79,20 82,10 83,10 86,10
87,1489 88,559 89,129 90,20
91,10 98,20 99,99 100,10
101,40 102,10 103,749 104,9999
105,1899 106,119 107,20 115,229
116,99 117,60 126,10 127,40
131,30 132,40 133,5479 134,329
135,50 143,10 145,40 149,50
160,20 161,20 189,10
##END=
