##TITLE=Phenol, 2,6-bis(1,1-dimethylethyl)-4-(methoxymethyl)-
##JCAMP-DX=4.24
##DATA TYPE=MASS SPECTRUM
##ORIGIN=J.E. WILKINSON S-CUBED, SAN DIEGO, CA.
##OWNER=NIST Mass Spectrometry Data Center
Collection (C) 2014 copyright by the U.S. Secretary of Commerce
on behalf of the United States of America. All rights reserved.
##CAS REGISTRY NO=87-97-8
##$NIST MASS SPEC NO=80705
##MOLFORM=C16 H26 O2
##MW=250
##$NIST SOURCE=MSDC
##XUNITS=M/Z
##YUNITS=RELATIVE INTENSITY
##XFACTOR=1
##YFACTOR=1
##FIRSTX=45
##LASTX=253
##FIRSTY=5615
##MAXX=253
##MINX=45
##MAXY=9999
##MINY=1
##NPOINTS=174
##PEAK TABLE=(XY..XY)
45,5615 46,123 47,9 49,3
50,61 51,459 52,190 53,707
54,2 55,1072 56,42 57,2762
58,264 59,119 60,10 61,2
62,20 63,193 64,287 65,754
66,232 67,826 68,43 69,324
70,69 71,57 72,192 73,217
74,66 75,21 76,114 77,1155
78,337 79,799 80,781 81,837
82,147 83,88 84,15 85,40
86,43 87,66 89,194 90,58
91,1766 92,198 93,291 94,172
95,714 96,121 97,16 98,1
99,5 100,1 101,27 102,148
103,408 104,136 105,953 106,128
107,306 108,50 109,89 110,454
111,56 113,7 114,21 115,1012
116,361 117,604 118,158 119,613
120,115 121,448 122,47 123,33
124,1 125,2 126,11 127,302
128,949 129,1077 130,337 131,606
132,132 133,538 134,265 135,218
136,25 137,17 138,1 139,24
140,9 141,352 142,267 143,570
144,212 145,960 146,223 147,1140
148,173 149,129 150,28 151,29
152,47 153,109 154,64 155,175
156,113 157,252 158,86 159,336
160,134 161,1989 162,363 163,743
164,89 165,21 166,2 167,10
168,5 169,39 170,95 171,94
172,42 173,169 174,61 175,837
176,249 177,223 178,50 179,29
180,1 183,3 185,268 186,45
187,186 188,65 189,510 190,76
191,165 192,24 193,1271 194,150
195,7 199,1 201,24 202,23
203,1190 204,236 205,267 206,41
207,552 208,65 209,2 216,1
217,104 218,651 219,2178 220,338
221,33 222,1 231,1 233,102
235,9999 236,1617 237,151 238,7
247,1 249,243 250,2940 251,479
252,44 253,1
##END=
