##TITLE=Dibutyl tartrate
##JCAMP-DX=4.24
##DATA TYPE=MASS SPECTRUM
##ORIGIN=H. Fales, LC, NHLBI, NIH, Bethesda, MD 20892
##OWNER=NIST Mass Spectrometry Data Center
Collection (C) 2014 copyright by the U.S. Secretary of Commerce
on behalf of the United States of America. All rights reserved.
##CAS REGISTRY NO=87-92-3
##$NIST MASS SPEC NO=132391
##MOLFORM=C12 H22 O6
##MW=262
##$NIST SOURCE=MSDC
##XUNITS=M/Z
##YUNITS=RELATIVE INTENSITY
##XFACTOR=1
##YFACTOR=1
##FIRSTX=41
##LASTX=264
##FIRSTY=2988
##MAXX=264
##MINX=41
##MAXY=9999
##MINY=5
##NPOINTS=127
##PEAK TABLE=(XY..XY)
41,2988 42,413 43,617 44,73
45,261 47,71 48,8 49,28
51,7 53,95 54,51 55,700
56,1257 57,6195 58,734 59,606
60,945 61,201 63,13 67,8
69,106 70,239 71,529 72,23
73,176 74,8 76,9999 77,1747
78,89 79,33 81,26 82,5
83,28 84,104 85,95 86,69
87,208 88,505 89,989 90,49
91,19 93,18 95,6 97,52
98,31 99,47 100,21 101,388
102,40 103,30 104,46 105,7159
106,210 107,76 111,6 113,36
115,209 116,45 117,72 118,30
119,29 123,230 125,44 126,39
127,15 129,34 131,479 132,8397
133,587 134,68 135,22 141,28
143,258 144,78 145,223 146,24
147,21 148,6 149,22 150,7
151,591 152,24 153,5 155,48
157,93 159,24 160,29 161,2630
162,201 163,44 169,14 171,12
173,35 175,38 176,6 177,5
179,7 185,24 187,22 188,12
189,111 190,15 191,63 199,5
201,18 203,5 205,43 207,659
208,55 209,6 217,48 218,54
219,68 220,5 229,39 231,22
232,12 244,5 245,51 246,52
247,55 249,19 257,5 261,10
262,924 263,224 264,38
##END=
