##TITLE=Symclosene
##JCAMP-DX=4.24
##DATA TYPE=MASS SPECTRUM
##ORIGIN=Japan AIST/NIMC Database- Spectrum MS-NW-5511
##OWNER=NIST Mass Spectrometry Data Center
Collection (C) 2014 copyright by the U.S. Secretary of Commerce
on behalf of the United States of America. All rights reserved.
##CAS REGISTRY NO=87-90-1
##$NIST MASS SPEC NO=230202
##MOLFORM=C3 Cl3 N3 O3
##MW=231
##$NIST SOURCE=MSDC
##XUNITS=M/Z
##YUNITS=RELATIVE INTENSITY
##XFACTOR=1
##YFACTOR=1
##FIRSTX=12
##LASTX=237
##FIRSTY=119
##MAXX=237
##MINX=12
##MAXY=9999
##MINY=10
##NPOINTS=73
##PEAK TABLE=(XY..XY)
12,119 13,10 14,60 15,30
16,20 26,99 27,20 28,809
29,99 30,159 35,569 37,179
40,159 41,20 42,1789 43,559
44,90 47,20 49,979 50,10
51,329 52,20 54,119 56,30
61,10 63,259 64,20 65,80
68,90 69,10 70,9999 71,269
72,1289 74,229 75,20 77,8139
78,149 79,2639 80,50 84,30
86,10 91,10 103,99 105,30
110,1479 111,40 112,979 113,40
114,189 116,10 120,699 121,20
122,249 123,10 154,1839 155,60
156,1169 157,40 158,199 163,40
165,20 197,609 198,30 199,399
200,20 201,70 231,2459 232,119
233,2339 234,119 235,779 236,40
237,99
##END=
