##TITLE=Xylitol
##JCAMP-DX=4.24
##DATA TYPE=MASS SPECTRUM
##ORIGIN=D.HENNEBERG, MAX-PLANCK INSTITUTE, MULHEIM, WEST GERMANY
##OWNER=NIST Mass Spectrometry Data Center
Collection (C) 2014 copyright by the U.S. Secretary of Commerce
on behalf of the United States of America. All rights reserved.
##CAS REGISTRY NO=87-99-0
##$NIST MASS SPEC NO=63599
##MOLFORM=C5 H12 O5
##MW=152
##$NIST SOURCE=MSDC
##XUNITS=M/Z
##YUNITS=RELATIVE INTENSITY
##XFACTOR=1
##YFACTOR=1
##FIRSTX=26
##LASTX=135
##FIRSTY=62
##MAXX=135
##MINX=26
##MAXY=9999
##MINY=1
##NPOINTS=99
##PEAK TABLE=(XY..XY)
26,62 27,844 28,1647 29,1128
30,152 31,2500 32,124 33,42
34,3 35,11 36,80 37,9
38,28 39,170 40,49 41,214
42,526 43,5013 44,4896 45,3264
46,170 47,191 49,50 50,12
51,18 52,8 53,33 54,51
55,1052 56,3317 57,1376 58,116
59,112 60,1268 61,9999 62,475
63,76 64,4 65,7 66,9
67,11 68,24 69,70 70,43
71,256 72,261 73,3834 74,4904
75,259 76,28 77,22 78,5
79,11 80,4 81,13 82,17
83,14 84,13 85,696 86,74
87,38 88,109 89,53 90,71
91,3702 92,137 93,29 96,25
97,13 98,24 99,22 100,8
101,12 102,9 103,2632 104,179
105,61 106,5 109,2 111,8
112,2 113,2 115,3 116,10
117,17 118,4 119,3 120,3
121,133 122,18 123,5 127,1
128,1 129,9 130,1 131,3
133,81 134,7 135,7
##END=
