##TITLE=Octadecanedioic acid
##JCAMP-DX=4.24
##DATA TYPE=MASS SPECTRUM
##ORIGIN=Japan AIST/NIMC Database- Spectrum MS-IW-3635
##OWNER=NIST Mass Spectrometry Data Center
Collection (C) 2014 copyright by the U.S. Secretary of Commerce
on behalf of the United States of America. All rights reserved.
##CAS REGISTRY NO=871-70-5
##$NIST MASS SPEC NO=240842
##MOLFORM=C18 H34 O4
##MW=314
##$NIST SOURCE=MSDC
##XUNITS=M/Z
##YUNITS=RELATIVE INTENSITY
##XFACTOR=1
##YFACTOR=1
##FIRSTX=15
##LASTX=315
##FIRSTY=10
##MAXX=315
##MINX=15
##MAXY=9999
##MINY=10
##NPOINTS=225
##PEAK TABLE=(XY..XY)
15,10 17,20 18,70 26,10
27,279 28,139 29,719 30,20
31,60 32,10 39,249 40,50
41,2219 42,459 43,2179 44,90
45,389 46,10 47,10 51,10
53,159 54,259 55,3569 56,609
57,1619 58,139 59,289 60,1779
61,359 62,10 65,30 66,40
67,619 68,479 69,2309 70,499
71,909 72,80 73,2459 74,359
75,60 77,30 78,20 79,169
80,279 81,719 82,529 83,1789
84,4419 85,759 86,70 87,499
88,40 89,10 91,40 92,20
93,219 94,389 95,669 96,559
97,1509 98,9999 99,1139 100,129
101,329 102,80 103,10 105,30
106,20 107,209 108,369 109,389
110,299 111,819 112,3589 113,479
114,119 115,359 116,149 117,20
118,10 119,60 120,30 121,389
122,229 123,269 124,179 125,459
126,1209 127,239 128,40 129,749
130,869 131,90 132,10 133,70
134,50 135,309 136,129 137,169
138,159 139,269 140,729 141,139
142,20 143,219 144,209 145,30
146,10 147,60 148,40 149,189
150,90 151,109 152,129 153,179
154,619 155,109 156,20 157,129
158,90 159,20 161,40 162,20
163,99 164,50 165,80 166,99
167,119 168,269 169,60 170,10
171,319 172,109 173,20 175,20
176,20 177,50 178,30 179,60
180,90 181,129 182,179 183,50
184,20 185,289 186,70 187,10
189,10 191,30 192,40 193,40
194,179 195,149 196,159 197,90
198,40 199,90 200,60 201,10
202,20 203,10 205,10 206,20
207,40 208,90 209,90 210,129
211,50 212,90 213,99 214,30
217,10 218,30 219,80 220,20
221,30 222,50 223,30 224,60
225,20 226,10 227,359 228,60
229,10 232,20 234,30 235,60
236,219 237,369 238,70 239,10
240,90 241,99 242,30 249,20
250,289 251,60 252,70 253,30
254,70 255,90 256,20 260,40
261,20 268,20 269,20 270,2299
271,439 272,50 276,20 277,90
278,989 279,209 280,30 284,20
294,10 295,20 296,1399 297,379
298,60 310,40 311,10 314,80
315,20
##END=
