##TITLE=Nonane, 2-methyl-
##JCAMP-DX=4.24
##DATA TYPE=MASS SPECTRUM
##OWNER=NIST Mass Spectrometry Data Center
Collection (C) 2014 copyright by the U.S. Secretary of Commerce
on behalf of the United States of America. All rights reserved.
##CAS REGISTRY NO=871-83-0
##$NIST MASS SPEC NO=3836
##MOLFORM=C10 H22
##MW=142
##$NIST SOURCE=MSDC
##XUNITS=M/Z
##YUNITS=RELATIVE INTENSITY
##XFACTOR=1
##YFACTOR=1
##FIRSTX=26
##LASTX=143
##FIRSTY=120
##MAXX=143
##MINX=26
##MAXY=9999
##MINY=10
##NPOINTS=65
##PEAK TABLE=(XY..XY)
26,120 27,2702 28,500 29,2963
30,60 38,50 39,1361 40,270
41,4264 42,2772 43,9999 44,330
45,10 50,30 51,60 52,30
53,230 54,140 55,1221 56,1702
57,8408 58,370 59,10 62,10
63,10 64,10 65,20 66,10
67,70 68,80 69,480 70,681
71,2873 72,150 73,10 77,20
78,10 79,10 80,10 81,10
82,10 83,90 84,80 85,1561
86,100 87,10 91,10 93,10
96,10 97,30 98,1221 99,891
100,80 101,10 102,10 111,10
112,40 113,50 114,10 126,130
127,540 128,60 129,10 142,140
143,20
##END=
