##TITLE=4-Pyridinecarboxaldehyde
##JCAMP-DX=4.24
##DATA TYPE=MASS SPECTRUM
##ORIGIN=NIST Mass Spectrometry Data Center, 1994
##OWNER=NIST Mass Spectrometry Data Center
Collection (C) 2014 copyright by the U.S. Secretary of Commerce
on behalf of the United States of America. All rights reserved.
##CAS REGISTRY NO=872-85-5
##$NIST MASS SPEC NO=134234
##MOLFORM=C6 H5 N O
##MW=107
##$NIST SOURCE=MSDC
##XUNITS=M/Z
##YUNITS=RELATIVE INTENSITY
##XFACTOR=1
##YFACTOR=1
##FIRSTX=12
##LASTX=109
##FIRSTY=20
##MAXX=109
##MINX=12
##MAXY=9999
##MINY=5
##NPOINTS=44
##PEAK TABLE=(XY..XY)
12,20 13,28 14,19 16,16
17,15 18,5 24,29 25,136
26,517 27,246 28,510 29,936
30,21 31,37 36,83 37,377
38,359 39,248 40,43 41,24
48,107 49,596 50,2702 51,4398
52,2739 53,412 54,23 60,28
61,103 62,119 63,74 64,12
74,46 75,238 76,150 77,12
78,3834 79,536 80,31 104,31
106,3738 107,9999 108,705 109,46
##END=
