##TITLE=2H-Imidazole-2-thione, 1,3-dihydro-
##JCAMP-DX=4.24
##DATA TYPE=MASS SPECTRUM
##OWNER=NIST Mass Spectrometry Data Center
Collection (C) 2014 copyright by the U.S. Secretary of Commerce
on behalf of the United States of America. All rights reserved.
##CAS REGISTRY NO=872-35-5
##$NIST MASS SPEC NO=1127
##MOLFORM=C3 H4 N2 S
##MW=100
##$NIST SOURCE=MSDC
##XUNITS=M/Z
##YUNITS=RELATIVE INTENSITY
##XFACTOR=1
##YFACTOR=1
##FIRSTX=32
##LASTX=102
##FIRSTY=470
##MAXX=102
##MINX=32
##MAXY=9999
##MINY=50
##NPOINTS=29
##PEAK TABLE=(XY..XY)
32,470 38,270 39,200 40,621
41,2062 42,621 43,170 44,520
45,1411 46,741 47,320 48,100
49,70 50,1511 55,200 59,200
60,250 67,50 68,270 70,120
71,270 72,1441 73,1862 74,100
82,70 99,120 100,9999 101,300
102,270
##END=
