##TITLE=1,1-Dichloro-1-silacyclo-3-pentene
##JCAMP-DX=4.24
##DATA TYPE=MASS SPECTRUM
##ORIGIN=V.A.KOPTYUG, ATLAS OF MASS SPECTRA OF ORGANIC COMPOUNDS
##OWNER=NIST Mass Spectrometry Data Center
Collection (C) 2014 copyright by the U.S. Secretary of Commerce
on behalf of the United States of America. All rights reserved.
##CAS REGISTRY NO=872-46-8
##$NIST MASS SPEC NO=78412
##MOLFORM=C4 H6 Cl2 Si
##MW=152
##$NIST SOURCE=MSDC
##XUNITS=M/Z
##YUNITS=RELATIVE INTENSITY
##XFACTOR=1
##YFACTOR=1
##FIRSTX=39
##LASTX=156
##FIRSTY=1600
##MAXX=156
##MINX=39
##MAXY=9999
##MINY=100
##NPOINTS=27
##PEAK TABLE=(XY..XY)
39,1600 40,100 41,200 51,200
52,300 53,1000 54,9999 55,600
63,1500 64,100 65,600 98,400
99,300 100,300 101,200 115,200
116,3800 117,500 118,1300 119,100
124,300 126,200 152,1100 153,300
154,800 155,100 156,100
##END=
