##TITLE=Thiophene, tetrahydro-3-methyl-, 1,1-dioxide
##JCAMP-DX=4.24
##DATA TYPE=MASS SPECTRUM
##ORIGIN=Japan AIST/NIMC Database- Spectrum MS-NW-2890
##OWNER=NIST Mass Spectrometry Data Center
Collection (C) 2014 copyright by the U.S. Secretary of Commerce
on behalf of the United States of America. All rights reserved.
##CAS REGISTRY NO=872-93-5
##$NIST MASS SPEC NO=231222
##MOLFORM=C5 H10 O2 S
##MW=134
##$NIST SOURCE=MSDC
##XUNITS=M/Z
##YUNITS=RELATIVE INTENSITY
##XFACTOR=1
##YFACTOR=1
##FIRSTX=14
##LASTX=136
##FIRSTY=10
##MAXX=136
##MINX=14
##MAXY=9999
##MINY=10
##NPOINTS=66
##PEAK TABLE=(XY..XY)
14,10 15,90 18,20 26,169
27,1109 28,399 29,939 30,20
31,10 32,70 33,10 34,20
37,40 38,119 39,1429 40,469
41,3859 42,9999 43,409 44,60
45,109 46,30 47,30 48,99
49,20 50,60 51,90 52,40
53,309 54,189 55,5439 56,289
57,50 58,20 59,30 60,20
61,10 62,10 63,90 64,60
65,40 66,20 67,99 68,90
69,2519 70,1899 71,109 73,10
74,10 76,10 78,30 85,10
90,10 92,10 93,10 102,30
105,20 106,489 107,20 108,20
117,469 118,30 119,30 134,1269
135,90 136,60
##END=
