##TITLE=1,3-Dioxol-2-one
##JCAMP-DX=4.24
##DATA TYPE=MASS SPECTRUM
##ORIGIN=Japan AIST/NIMC Database- Spectrum MS-NW-2962
##OWNER=NIST Mass Spectrometry Data Center
Collection (C) 2014 copyright by the U.S. Secretary of Commerce
on behalf of the United States of America. All rights reserved.
##CAS REGISTRY NO=872-36-6
##$NIST MASS SPEC NO=231106
##MOLFORM=C3 H2 O3
##MW=86
##$NIST SOURCE=MSDC
##XUNITS=M/Z
##YUNITS=RELATIVE INTENSITY
##XFACTOR=1
##YFACTOR=1
##FIRSTX=12
##LASTX=88
##FIRSTY=169
##MAXX=88
##MINX=12
##MAXY=9999
##MINY=10
##NPOINTS=36
##PEAK TABLE=(XY..XY)
12,169 13,399 14,8729 15,99
16,80 24,30 25,119 26,209
27,20 28,1049 29,5679 30,3029
31,60 32,10 36,20 40,80
41,499 42,5529 43,139 44,599
45,119 47,30 48,10 49,20
56,149 58,1919 59,40 60,40
61,30 62,10 63,20 84,10
85,20 86,9999 87,359 88,60
##END=
