##TITLE=Benzonitrile, 2-chloro-
##JCAMP-DX=4.24
##DATA TYPE=MASS SPECTRUM
##ORIGIN=RADIAN CORP
##OWNER=NIST Mass Spectrometry Data Center
Collection (C) 2014 copyright by the U.S. Secretary of Commerce
on behalf of the United States of America. All rights reserved.
##CAS REGISTRY NO=873-32-5
##$NIST MASS SPEC NO=73008
##MOLFORM=C7 H4 Cl N
##MW=137
##$NIST SOURCE=MSDC
##XUNITS=M/Z
##YUNITS=RELATIVE INTENSITY
##XFACTOR=1
##YFACTOR=1
##FIRSTX=25
##LASTX=140
##FIRSTY=10
##MAXX=140
##MINX=25
##MAXY=9999
##MINY=10
##NPOINTS=52
##PEAK TABLE=(XY..XY)
25,10 26,70 27,60 35,70
36,50 37,270 38,200 39,150
40,30 47,80 48,60 49,310
50,970 51,630 52,160 55,40
60,130 61,210 62,240 63,210
64,100 69,180 70,50 72,100
73,440 74,800 75,2080 76,990
77,100 84,150 85,160 86,180
87,100 88,70 96,10 97,70
98,110 99,400 100,380 101,400
102,3620 103,290 108,10 109,90
110,360 111,120 112,120 113,30
137,9999 138,840 139,3230 140,260
##END=
