##TITLE=Benzonitrile, 3-hydroxy-
##JCAMP-DX=4.24
##DATA TYPE=MASS SPECTRUM
##ORIGIN=Japan AIST/NIMC Database- Spectrum MS-NW-8723
##OWNER=NIST Mass Spectrometry Data Center
Collection (C) 2014 copyright by the U.S. Secretary of Commerce
on behalf of the United States of America. All rights reserved.
##CAS REGISTRY NO=873-62-1
##$NIST MASS SPEC NO=235887
##MOLFORM=C7 H5 N O
##MW=119
##$NIST SOURCE=MSDC
##XUNITS=M/Z
##YUNITS=RELATIVE INTENSITY
##XFACTOR=1
##YFACTOR=1
##FIRSTX=14
##LASTX=122
##FIRSTY=10
##MAXX=122
##MINX=14
##MAXY=9999
##MINY=10
##NPOINTS=62
##PEAK TABLE=(XY..XY)
14,10 25,10 26,50 27,80
28,70 29,90 31,30 36,20
37,289 38,429 39,619 40,109
41,239 42,70 43,20 44,80
45,129 46,20 48,10 49,60
50,269 51,219 52,299 53,159
54,10 55,50 59,189 60,40
61,149 62,269 63,899 64,1599
65,359 66,60 67,40 68,40
73,30 74,80 75,179 76,139
77,30 78,50 79,40 80,129
86,10 87,40 88,60 89,40
90,439 91,2099 92,359 93,40
99,40 100,20 101,20 102,30
117,10 118,90 119,9999 120,819
121,50 122,10
##END=
