##TITLE=[1R-(1.alpha.,7a.beta.)]-[1-((Z)-2-Methyl-1-oxobut-2-enyloxy)-2,3,5,7a-tetrahydro-1H-pyrrolizin-7-yl]methyl ester of (Z)-2-hydroxymethylbut-2-enoic acid
##JCAMP-DX=4.24
##DATA TYPE=MASS SPECTRUM
##ORIGIN=J. ROITMAN,WEST. REG. RES. CENT.,US DEP. AGRIC.,BERKELEY,USA
##OWNER=NIST Mass Spectrometry Data Center
Collection (C) 2014 copyright by the U.S. Secretary of Commerce
on behalf of the United States of America. All rights reserved.
##CAS REGISTRY NO=87340-27-0
##$NIST MASS SPEC NO=100820
##MOLFORM=C18 H25 N O5
##MW=335
##$NIST SOURCE=MSDC
##XUNITS=M/Z
##YUNITS=RELATIVE INTENSITY
##XFACTOR=1
##YFACTOR=1
##FIRSTX=25
##LASTX=337
##FIRSTY=37
##MAXX=337
##MINX=25
##MAXY=9999
##MINY=4
##NPOINTS=247
##PEAK TABLE=(XY..XY)
25,37 26,125 27,1251 28,450
29,1525 30,100 31,432 32,22
34,21 36,50 37,46 38,108
39,1126 40,187 41,2157 42,432
43,1139 44,58 45,274 46,46
47,50 48,37 49,46 50,125
51,299 52,316 53,1841 54,765
55,4057 56,507 57,1089 58,220
59,216 61,62 62,33 63,141
64,96 65,370 66,1073 68,320
69,582 70,328 71,715 72,67
73,137 74,37 75,54 76,37
77,274 78,179 79,320 80,1650
81,702 82,586 83,5341 84,420
85,391 86,71 87,162 88,62
89,278 90,316 91,258 92,287
93,8367 94,3969 95,1230 96,187
97,216 98,258 99,727 100,536
101,87 102,71 103,71 104,154
105,170 106,906 107,303 108,532
109,349 110,183 111,245 112,104
113,108 114,29 115,50 116,129
117,1039 118,881 119,3005 120,4584
121,1658 122,312 123,141 124,121
125,91 126,79 127,54 128,50
129,100 130,42 131,58 132,79
133,71 134,395 135,349 136,9999
137,1351 138,432 139,83 140,79
141,702 142,87 143,50 144,37
145,42 146,104 147,121 148,104
149,723 150,270 151,145 152,125
153,46 154,366 155,91 156,58
157,67 158,25 159,29 160,104
161,75 162,79 163,100 164,87
165,79 166,46 167,145 168,29
169,37 170,37 171,50 172,42
173,29 174,108 175,125 176,145
177,83 178,37 179,25 180,21
181,58 182,25 183,29 184,37
185,46 186,42 187,21 188,108
189,58 190,91 191,158 192,83
193,67 194,46 195,37 196,33
197,141 198,33 199,54 200,37
201,42 202,75 203,37 204,154
205,67 206,100 207,25 208,108
209,441 210,108 211,33 212,25
213,37 214,25 215,42 216,54
217,58 218,308 219,2643 220,4235
221,790 222,133 223,42 224,33
225,54 226,50 227,25 228,25
230,25 231,42 232,21 233,62
234,83 235,682 236,1072 237,2677
238,416 239,91 240,33 241,42
242,12 243,25 244,29 246,33
247,29 248,37 249,42 251,25
252,42 253,37 255,21 256,4
257,21 258,33 259,33 262,21
265,91 266,37 273,25 274,25
279,42 280,37 281,25 284,58
287,17 290,17 291,37 292,21
299,42 304,54 305,21 334,21
335,553 336,141 337,33
##END=
