##TITLE=Benzonitrile, 4-(chloromethyl)-
##JCAMP-DX=4.24
##DATA TYPE=MASS SPECTRUM
##ORIGIN=James Little,Eastman Chem.Co.,Kingsport,TN
##OWNER=NIST Mass Spectrometry Data Center
Collection (C) 2014 copyright by the U.S. Secretary of Commerce
on behalf of the United States of America. All rights reserved.
##CAS REGISTRY NO=874-86-2
##$NIST MASS SPEC NO=289202
##MOLFORM=C8 H6 Cl N
##MW=151
##$NIST SOURCE=MSDC
##XUNITS=M/Z
##YUNITS=RELATIVE INTENSITY
##XFACTOR=1
##YFACTOR=1
##FIRSTX=27
##LASTX=153
##FIRSTY=2332
##MAXX=153
##MINX=27
##MAXY=9999
##MINY=110
##NPOINTS=34
##PEAK TABLE=(XY..XY)
27,2332 28,1341 35,1481 37,3733
38,4764 39,7006 43,510 49,1611
50,4874 51,4294 52,1561 61,2492
62,3914 63,5935 64,2492 65,901
74,811 75,1451 76,1291 85,430
86,761 87,1461 88,1772 89,4114
90,1361 99,280 114,731 115,671
116,9999 117,1061 123,230 151,340
152,110 153,220
##END=
