##TITLE=2-Propanone, 1-cyclohexylidene-
##JCAMP-DX=4.24
##DATA TYPE=MASS SPECTRUM
##OWNER=NIST Mass Spectrometry Data Center
Collection (C) 2014 copyright by the U.S. Secretary of Commerce
on behalf of the United States of America. All rights reserved.
##CAS REGISTRY NO=874-68-0
##$NIST MASS SPEC NO=33765
##MOLFORM=C9 H14 O
##MW=138
##$NIST SOURCE=MSDC
##XUNITS=M/Z
##YUNITS=RELATIVE INTENSITY
##XFACTOR=1
##YFACTOR=1
##FIRSTX=39
##LASTX=139
##FIRSTY=3100
##MAXX=139
##MINX=39
##MAXY=9999
##MINY=700
##NPOINTS=21
##PEAK TABLE=(XY..XY)
39,3100 41,2800 43,9999 51,800
53,1500 55,2500 65,800 66,700
67,4800 77,1000 79,2100 80,4999
81,1800 91,800 93,700 95,5599
109,1300 110,900 123,3300 138,5299
139,700
##END=
