##TITLE=1-Cyclopentyl-2-propen-1-ol
##JCAMP-DX=4.24
##DATA TYPE=MASS SPECTRUM
##ORIGIN=NIST Mass Spectrometry Data Center, 1990.
##OWNER=NIST Mass Spectrometry Data Center
Collection (C) 2014 copyright by the U.S. Secretary of Commerce
on behalf of the United States of America. All rights reserved.
##CAS REGISTRY NO=87453-54-1
##$NIST MASS SPEC NO=114826
##MOLFORM=C8 H14 O
##MW=126
##$NIST SOURCE=MSDC
##XUNITS=M/Z
##YUNITS=RELATIVE INTENSITY
##XFACTOR=1
##YFACTOR=1
##FIRSTX=26
##LASTX=108
##FIRSTY=325
##MAXX=108
##MINX=26
##MAXY=9999
##MINY=4
##NPOINTS=43
##PEAK TABLE=(XY..XY)
26,325 27,1711 28,4 29,1972
31,580 38,461 39,3965 40,918
41,6841 42,700 43,650 50,501
51,967 52,554 53,1285 54,527
55,2093 57,9999 58,8899 59,620
63,379 65,1210 66,1067 67,6730
68,3105 69,6088 70,540 77,2122
78,653 79,3208 80,1357 81,827
82,1200 83,772 85,1121 91,1564
93,3397 94,319 95,270 97,962
98,157 107,261 108,1518
##END=
