##TITLE=Benzene, 1,2,3,5-tetrachloro-4,6-dimethyl-
##JCAMP-DX=4.24
##DATA TYPE=MASS SPECTRUM
##ORIGIN=Japan AIST/NIMC Database- Spectrum MS-NW-7325
##OWNER=NIST Mass Spectrometry Data Center
Collection (C) 2014 copyright by the U.S. Secretary of Commerce
on behalf of the United States of America. All rights reserved.
##CAS REGISTRY NO=877-09-8
##$NIST MASS SPEC NO=237846
##MOLFORM=C8 H6 Cl4
##MW=242
##$NIST SOURCE=MSDC
##XUNITS=M/Z
##YUNITS=RELATIVE INTENSITY
##XFACTOR=1
##YFACTOR=1
##FIRSTX=14
##LASTX=251
##FIRSTY=10
##MAXX=251
##MINX=14
##MAXY=9999
##MINY=10
##NPOINTS=183
##PEAK TABLE=(XY..XY)
14,10 15,20 26,30 27,139
28,60 35,60 36,129 37,139
38,109 39,219 40,20 41,10
43,40 47,70 48,30 49,329
50,709 51,639 52,90 53,90
54,30 55,40 56,20 60,139
61,509 62,389 63,409 64,40
65,30 66,159 67,579 68,809
69,249 71,60 72,199 73,559
74,729 75,969 76,179 77,119
78,30 79,20 80,20 81,10
82,10 83,80 84,309 85,2009
86,1199 87,469 88,40 89,40
90,109 91,99 92,30 94,20
95,70 96,229 97,469 98,449
99,959 100,279 101,789 102,689
103,479 104,269 105,80 106,70
107,199 108,229 109,479 110,139
111,259 112,60 113,50 114,10
117,10 118,40 119,70 120,509
121,719 122,399 123,209 124,30
125,30 130,30 131,99 132,40
133,279 134,159 135,999 136,2809
137,1289 138,989 139,349 140,30
141,30 142,30 143,80 144,50
145,199 146,139 147,119 148,99
149,30 150,20 154,10 155,40
156,20 157,169 158,30 159,119
160,20 161,20 165,10 167,50
168,30 169,159 170,719 171,1759
172,1319 173,1309 174,679 175,369
176,119 177,50 178,20 179,30
180,90 181,50 182,90 183,30
184,30 185,20 186,10 189,10
191,60 192,40 193,90 194,40
195,50 196,20 197,20 198,10
199,10 201,10 203,20 204,50
205,149 206,729 207,9999 208,1679
209,9549 210,1189 211,3139 212,349
213,349 214,50 216,20 217,10
218,10 220,10 226,10 227,229
228,30 229,309 230,30 231,139
232,10 233,30 234,10 240,10
241,479 242,5899 243,1099 244,7519
245,959 246,3569 247,389 248,789
249,90 250,70 251,10
##END=
