##TITLE=Silane, (4-methoxyphenyl)trimethyl-
##JCAMP-DX=4.24
##DATA TYPE=MASS SPECTRUM
##ORIGIN=M.GIELIN FREE UNIV. OF BRUSSELS, BRUSSELS, BELGIUM
##OWNER=NIST Mass Spectrometry Data Center
Collection (C) 2014 copyright by the U.S. Secretary of Commerce
on behalf of the United States of America. All rights reserved.
##CAS REGISTRY NO=877-68-9
##$NIST MASS SPEC NO=26338
##MOLFORM=C10 H16 O Si
##MW=180
##$NIST SOURCE=MSDC
##XUNITS=M/Z
##YUNITS=RELATIVE INTENSITY
##XFACTOR=1
##YFACTOR=1
##FIRSTX=27
##LASTX=189
##FIRSTY=14
##MAXX=189
##MINX=27
##MAXY=9999
##MINY=7
##NPOINTS=123
##PEAK TABLE=(XY..XY)
27,14 28,70 29,70 30,7
31,35 36,7 37,7 38,28
39,77 41,28 42,35 43,600
44,130 45,270 46,20 47,20
50,70 51,90 52,35 53,300
54,56 55,170 56,14 57,56
58,70 59,560 60,50 61,56
62,28 63,100 64,55 65,140
66,110 67,150 68,50 69,110
70,28 71,28 72,35 73,340
74,50 75,160 76,70 77,260
78,120 79,110 80,35 81,140
82,120 83,210 84,20 85,50
86,7 87,7 88,7 89,170
90,77 91,420 92,100 93,210
94,35 95,90 96,120 97,28
98,7 99,42 101,7 102,7
103,130 104,50 105,270 106,63
107,430 108,90 109,140 110,14
111,14 117,42 118,14 119,160
120,63 121,420 122,660 123,100
124,28 125,14 131,50 132,20
133,150 134,150 135,1000 136,160
137,100 138,14 139,7 144,42
146,50 148,28 149,20 150,470
151,200 152,56 153,7 161,7
163,55 164,70 165,9999 166,2900
167,840 168,77 171,50 172,7
173,50 174,7 179,14 180,2900
181,450 182,130 183,14 186,100
187,7 188,110 189,7
##END=
