##TITLE=4-Acetoxybenzaldehyde
##JCAMP-DX=4.24
##DATA TYPE=MASS SPECTRUM
##ORIGIN=NIST Mass Spectrometry Data Center, 1990.
##OWNER=NIST Mass Spectrometry Data Center
Collection (C) 2014 copyright by the U.S. Secretary of Commerce
on behalf of the United States of America. All rights reserved.
##CAS REGISTRY NO=878-00-2
##$NIST MASS SPEC NO=118369
##MOLFORM=C9 H8 O3
##MW=164
##$NIST SOURCE=MSDC
##XUNITS=M/Z
##YUNITS=RELATIVE INTENSITY
##XFACTOR=1
##YFACTOR=1
##FIRSTX=13
##LASTX=166
##FIRSTY=42
##MAXX=166
##MINX=13
##MAXY=9999
##MINY=12
##NPOINTS=64
##PEAK TABLE=(XY..XY)
13,42 14,226 15,733 16,18
18,34 25,19 26,85 27,152
28,321 29,288 31,33 32,71
36,25 37,271 38,731 39,2418
40,189 41,102 42,19 43,8522
44,179 45,30 49,85 50,502
51,560 52,65 53,174 54,25
55,67 60,27 61,156 62,443
63,1021 64,530 65,2016 66,408
67,39 68,17 73,48 74,220
75,107 76,146 77,261 78,34
79,27 86,12 91,39 92,283
93,1429 94,351 95,34 104,23
105,91 107,32 118,29 121,9999
122,7688 123,614 124,54 135,19
136,76 164,1588 165,157 166,19
##END=
