##TITLE=2-Phenyl-4-methyl-oxadiazol-1,3,4-one-5
##JCAMP-DX=4.24
##DATA TYPE=MASS SPECTRUM
##ORIGIN=ASES Database, Dalian Institute, P.R. China
##OWNER=NIST Mass Spectrometry Data Center
Collection (C) 2014 copyright by the U.S. Secretary of Commerce
on behalf of the United States of America. All rights reserved.
##CAS REGISTRY NO=879-60-7
##$NIST MASS SPEC NO=147086
##MOLFORM=C9 H8 N2 O2
##MW=176
##$NIST SOURCE=MSDC
##XUNITS=M/Z
##YUNITS=RELATIVE INTENSITY
##XFACTOR=1
##YFACTOR=1
##FIRSTX=50
##LASTX=177
##FIRSTY=1090
##MAXX=177
##MINX=50
##MAXY=9999
##MINY=580
##NPOINTS=14
##PEAK TABLE=(XY..XY)
50,1090 51,2302 76,780 77,5054
78,790 103,790 104,2922 105,3282
106,580 131,2181 132,4484 133,700
176,9999 177,1291
##END=
