##TITLE=Chloroxylenol
##JCAMP-DX=4.24
##DATA TYPE=MASS SPECTRUM
##ORIGIN=RADIAN CORP
##OWNER=NIST Mass Spectrometry Data Center
Collection (C) 2014 copyright by the U.S. Secretary of Commerce
on behalf of the United States of America. All rights reserved.
##CAS REGISTRY NO=88-04-0
##$NIST MASS SPEC NO=70768
##MOLFORM=C8 H9 Cl O
##MW=156
##$NIST SOURCE=MSDC
##XUNITS=M/Z
##YUNITS=RELATIVE INTENSITY
##XFACTOR=1
##YFACTOR=1
##FIRSTX=14
##LASTX=159
##FIRSTY=100
##MAXX=159
##MINX=14
##MAXY=9999
##MINY=10
##NPOINTS=103
##PEAK TABLE=(XY..XY)
14,100 15,540 16,40 19,70
25,20 26,500 27,1360 29,900
30,50 31,40 35,90 36,80
37,460 38,840 39,2730 40,340
41,470 42,250 43,350 44,60
45,290 46,160 47,100 48,50
49,430 50,1410 51,2550 52,730
53,970 54,90 55,490 56,20
59,300 60,200 61,440 62,750
63,1570 64,350 65,2250 66,460
67,310 68,80 69,40 72,130
73,390 74,590 75,650 76,230
77,3440 78,710 79,300 80,50
81,140 82,20 84,100 85,170
86,200 87,310 88,50 89,590
90,190 91,5000 92,600 93,720
94,250 95,40 97,60 98,50
99,140 100,40 101,130 102,140
103,470 104,60 105,180 106,20
107,50 111,60 112,100 113,120
114,40 115,60 118,40 119,360
120,170 121,9999 122,900 123,60
125,80 127,310 128,70 129,130
130,10 138,20 139,40 141,380
142,30 143,120 155,450 156,5870
157,680 158,1900 159,170
##END=
