##TITLE=Acetic acid, diethyl-
##JCAMP-DX=4.24
##DATA TYPE=MASS SPECTRUM
##ORIGIN=Japan AIST/NIMC Database- Spectrum MS-NW-1290
##OWNER=NIST Mass Spectrometry Data Center
Collection (C) 2014 copyright by the U.S. Secretary of Commerce
on behalf of the United States of America. All rights reserved.
##CAS REGISTRY NO=88-09-5
##$NIST MASS SPEC NO=229489
##MOLFORM=C6 H12 O2
##MW=116
##$NIST SOURCE=MSDC
##XUNITS=M/Z
##YUNITS=RELATIVE INTENSITY
##XFACTOR=1
##YFACTOR=1
##FIRSTX=14
##LASTX=117
##FIRSTY=30
##MAXX=117
##MINX=14
##MAXY=9999
##MINY=10
##NPOINTS=63
##PEAK TABLE=(XY..XY)
14,30 15,189 16,10 17,20
18,70 26,219 27,2529 28,659
29,2579 30,60 31,179 32,129
36,10 37,50 38,149 39,1539
40,229 41,2999 42,589 43,9999
44,309 45,849 46,30 47,30
50,60 51,80 52,30 53,219
54,60 55,1739 56,139 57,209
58,10 59,169 60,269 61,30
62,20 63,20 65,20 66,10
67,40 68,99 69,749 70,379
71,2779 72,149 73,6619 74,369
75,40 81,10 83,99 85,20
86,50 87,3239 88,9009 89,449
90,40 97,10 98,50 99,80
101,529 102,20 117,30
##END=
