##TITLE=2,4,6-Trihydroxytoluene
##JCAMP-DX=4.24
##DATA TYPE=MASS SPECTRUM
##ORIGIN=James Little,Eastman Chem.Co.,Kingsport,TN
##OWNER=NIST Mass Spectrometry Data Center
Collection (C) 2014 copyright by the U.S. Secretary of Commerce
on behalf of the United States of America. All rights reserved.
##CAS REGISTRY NO=88-03-9
##$NIST MASS SPEC NO=288904
##MOLFORM=C7 H8 O3
##MW=140
##$NIST SOURCE=MSDC
##XUNITS=M/Z
##YUNITS=RELATIVE INTENSITY
##XFACTOR=1
##YFACTOR=1
##FIRSTX=27
##LASTX=142
##FIRSTY=931
##MAXX=142
##MINX=27
##MAXY=9999
##MINY=230
##NPOINTS=39
##PEAK TABLE=(XY..XY)
27,931 29,711 39,1792 41,951
42,561 43,1641 51,721 53,1441
54,550 55,2202 56,911 65,1521
66,1421 67,561 69,4844 70,1071
71,400 81,811 82,330 83,581
85,1541 93,831 94,1411 95,440
97,1181 98,250 105,230 110,490
111,3523 112,1021 121,931 122,2913
123,3623 124,320 138,5255 139,9829
140,9999 141,2622 142,380
##END=
