##TITLE=2-Pyrrolidinone, 1-ethenyl-
##JCAMP-DX=4.24
##DATA TYPE=MASS SPECTRUM
##ORIGIN=Japan AIST/NIMC Database- Spectrum MS-NW-1029
##OWNER=NIST Mass Spectrometry Data Center
Collection (C) 2014 copyright by the U.S. Secretary of Commerce
on behalf of the United States of America. All rights reserved.
##CAS REGISTRY NO=88-12-0
##$NIST MASS SPEC NO=227782
##MOLFORM=C6 H9 N O
##MW=111
##$NIST SOURCE=MSDC
##XUNITS=M/Z
##YUNITS=RELATIVE INTENSITY
##XFACTOR=1
##YFACTOR=1
##FIRSTX=14
##LASTX=113
##FIRSTY=60
##MAXX=113
##MINX=14
##MAXY=9999
##MINY=10
##NPOINTS=43
##PEAK TABLE=(XY..XY)
14,60 15,149 17,30 18,119
25,20 26,279 27,1089 28,2409
29,209 30,219 37,40 38,90
39,629 40,259 41,1129 42,579
43,70 44,50 50,10 51,30
52,109 53,60 54,1019 55,709
56,9999 57,369 58,10 64,10
65,20 66,20 67,99 68,729
69,129 70,20 80,70 81,20
82,759 83,619 84,50 110,199
111,4959 112,359 113,20
##END=
