##TITLE=Carbamic chloride, diethyl-
##JCAMP-DX=4.24
##DATA TYPE=MASS SPECTRUM
##ORIGIN=Japan AIST/NIMC Database- Spectrum MS-NW-3733
##OWNER=NIST Mass Spectrometry Data Center
Collection (C) 2014 copyright by the U.S. Secretary of Commerce
on behalf of the United States of America. All rights reserved.
##CAS REGISTRY NO=88-10-8
##$NIST MASS SPEC NO=233624
##MOLFORM=C5 H10 Cl N O
##MW=135
##$NIST SOURCE=MSDC
##XUNITS=M/Z
##YUNITS=RELATIVE INTENSITY
##XFACTOR=1
##YFACTOR=1
##FIRSTX=12
##LASTX=138
##FIRSTY=10
##MAXX=138
##MINX=12
##MAXY=9999
##MINY=10
##NPOINTS=99
##PEAK TABLE=(XY..XY)
12,10 13,30 14,109 15,1159
16,20 25,40 26,719 27,3919
28,2159 29,9999 30,539 31,10
32,10 35,70 36,279 37,30
38,90 39,139 40,359 41,669
42,2239 43,209 44,4239 45,99
46,10 47,10 48,10 49,289
50,30 51,109 52,60 53,20
54,179 55,139 56,5389 57,249
58,509 59,20 61,10 62,80
63,1509 64,1099 65,529 66,349
67,10 68,30 69,40 70,849
71,289 72,7709 73,349 74,40
75,20 76,50 77,20 78,249
79,10 80,90 82,10 83,10
84,119 85,10 86,10 88,10
90,20 91,10 92,4299 93,129
94,1399 95,50 96,10 97,10
98,10 99,10 100,8439 101,529
102,40 104,20 105,10 106,349
107,50 108,139 109,30 110,10
111,30 113,20 115,10 116,10
119,10 120,7049 121,379 122,2269
123,119 124,10 134,60 135,4509
136,309 137,1459 138,90
##END=
