##TITLE=Phenol, 2-(1,1-dimethylethyl)-
##JCAMP-DX=4.24
##DATA TYPE=MASS SPECTRUM
##ORIGIN=Japan AIST/NIMC Database- Spectrum MS-NW- 895
##OWNER=NIST Mass Spectrometry Data Center
Collection (C) 2014 copyright by the U.S. Secretary of Commerce
on behalf of the United States of America. All rights reserved.
##CAS REGISTRY NO=88-18-6
##$NIST MASS SPEC NO=228360
##MOLFORM=C10 H14 O
##MW=150
##$NIST SOURCE=MSDC
##XUNITS=M/Z
##YUNITS=RELATIVE INTENSITY
##XFACTOR=1
##YFACTOR=1
##FIRSTX=15
##LASTX=152
##FIRSTY=60
##MAXX=152
##MINX=15
##MAXY=9999
##MINY=10
##NPOINTS=94
##PEAK TABLE=(XY..XY)
15,60 17,10 18,30 26,40
27,409 28,60 29,289 32,10
37,30 38,149 39,1199 40,159
41,1399 42,70 43,99 44,20
45,60 46,10 47,10 49,10
50,219 51,629 52,169 53,249
54,20 55,189 56,99 57,179
58,60 59,50 60,30 61,40
62,99 63,369 64,139 65,739
66,329 67,159 68,30 72,10
73,30 74,90 75,139 76,70
77,899 78,199 79,369 80,30
81,20 85,20 86,20 87,20
88,10 89,209 90,80 91,1809
92,179 93,40 94,409 95,659
96,40 101,70 102,90 103,139
104,20 105,189 106,50 107,7139
108,569 109,99 113,10 114,10
115,1449 116,379 117,239 118,40
119,199 120,70 121,109 122,10
127,20 128,30 129,10 131,50
132,20 133,60 134,99 135,9999
136,1019 137,60 149,40 150,3169
151,349 152,20
##END=
