##TITLE=2,6-di-tert-Butyl-4-(dimethylaminomethyl)phenol
##JCAMP-DX=4.24
##DATA TYPE=MASS SPECTRUM
##ORIGIN=NIST Mass Spectrometry Data Center, 1994
##OWNER=NIST Mass Spectrometry Data Center
Collection (C) 2014 copyright by the U.S. Secretary of Commerce
on behalf of the United States of America. All rights reserved.
##CAS REGISTRY NO=88-27-7
##$NIST MASS SPEC NO=135762
##MOLFORM=C17 H29 N O
##MW=263
##$NIST SOURCE=MSDC
##XUNITS=M/Z
##YUNITS=RELATIVE INTENSITY
##XFACTOR=1
##YFACTOR=1
##FIRSTX=15
##LASTX=265
##FIRSTY=562
##MAXX=265
##MINX=15
##MAXY=9999
##MINY=1
##NPOINTS=148
##PEAK TABLE=(XY..XY)
15,562 16,1 17,9 18,221
27,309 28,328 29,1042 30,764
32,9 39,674 40,147 41,2173
42,1613 43,864 44,1783 45,1128
46,511 47,21 50,57 51,268
52,126 53,439 54,21 55,731
56,163 57,1272 58,4658 62,31
63,128 64,106 65,430 66,127
67,405 68,45 69,326 70,48
71,76 72,90 73,159 75,41
76,71 77,824 78,269 79,548
80,170 81,184 82,56 83,120
84,31 86,42 88,208 89,108
91,1339 92,162 93,300 94,131
95,168 102,478 103,258 104,116
105,828 106,134 107,340 108,74
110,225 115,751 116,285 117,449
118,136 119,789 120,207 121,535
122,96 123,135 124,59 127,247
128,681 129,640 130,224 131,428
132,163 133,512 134,189 135,177
136,39 141,244 142,218 143,273
144,148 145,533 146,182 147,656
148,164 149,304 150,62 152,39
153,90 154,50 155,113 156,89
157,133 158,104 159,228 160,207
161,1007 162,326 163,1597 164,593
165,67 169,37 170,81 171,76
172,50 173,153 174,141 175,545
176,295 177,162 178,27 185,44
186,35 187,195 188,185 189,341
190,414 191,74 201,35 203,1829
204,357 205,698 206,1153 207,196
214,39 216,119 217,150 219,9999
220,2055 221,254 222,25 230,116
231,28 232,93 246,110 248,87
262,1157 263,2622 264,477 265,44
##END=
