##TITLE=Phenol, 2-(1,1-dimethylethyl)-5-methyl-
##JCAMP-DX=4.24
##DATA TYPE=MASS SPECTRUM
##ORIGIN=Japan AIST/NIMC Database- Spectrum MS-NW- 149
##OWNER=NIST Mass Spectrometry Data Center
Collection (C) 2014 copyright by the U.S. Secretary of Commerce
on behalf of the United States of America. All rights reserved.
##CAS REGISTRY NO=88-60-8
##$NIST MASS SPEC NO=228731
##MOLFORM=C11 H16 O
##MW=164
##$NIST SOURCE=MSDC
##XUNITS=M/Z
##YUNITS=RELATIVE INTENSITY
##XFACTOR=1
##YFACTOR=1
##FIRSTX=15
##LASTX=166
##FIRSTY=70
##MAXX=166
##MINX=15
##MAXY=9999
##MINY=10
##NPOINTS=92
##PEAK TABLE=(XY..XY)
15,70 17,10 18,10 26,20
27,319 28,109 29,189 32,10
38,50 39,639 40,70 41,749
42,30 43,99 50,99 51,389
52,139 53,339 54,20 55,139
56,10 57,60 58,20 62,40
63,219 64,109 65,359 66,90
67,70 68,20 69,30 72,40
73,60 74,129 75,50 76,40
77,869 78,259 79,389 80,50
81,40 87,20 88,10 89,139
90,50 91,1309 92,139 93,129
94,40 95,10 101,10 102,60
103,259 104,80 105,669 106,80
107,319 108,139 109,589 110,50
114,20 115,679 116,639 117,129
118,30 119,90 120,50 121,4139
122,389 123,99 127,80 128,189
129,269 130,70 131,189 132,50
133,269 134,99 135,249 136,20
141,10 144,10 145,20 147,60
148,159 149,9999 150,1119 151,70
163,40 164,2859 165,359 166,30
##END=
