##TITLE=Benzoic acid, 2-bromo-
##JCAMP-DX=4.24
##DATA TYPE=MASS SPECTRUM
##ORIGIN=NIST Mass Spectrometry Data Center, 1992
##OWNER=NIST Mass Spectrometry Data Center
Collection (C) 2014 copyright by the U.S. Secretary of Commerce
on behalf of the United States of America. All rights reserved.
##CAS REGISTRY NO=88-65-3
##$NIST MASS SPEC NO=125229
##MOLFORM=C7 H5 Br O2
##MW=200
##$NIST SOURCE=MSDC
##XUNITS=M/Z
##YUNITS=RELATIVE INTENSITY
##XFACTOR=1
##YFACTOR=1
##FIRSTX=12
##LASTX=203
##FIRSTY=38
##MAXX=203
##MINX=12
##MAXY=9999
##MINY=38
##NPOINTS=71
##PEAK TABLE=(XY..XY)
12,38 17,38 18,100 25,67
26,205 29,138 36,129 37,815
38,1223 39,1143 40,132 43,70
44,104 45,664 48,136 49,757
50,4720 51,1766 52,208 53,360
61,207 62,206 63,463 64,426
65,1757 66,163 72,91 73,678
74,2577 75,3628 76,3708 77,1865
78,205 79,211 80,110 81,164
82,86 86,119 87,122 92,387
93,299 100,89 101,102 102,56
103,80 104,183 105,159 107,69
117,63 119,92 121,195 122,69
128,121 129,153 130,104 131,107
143,54 153,70 155,3579 157,3354
158,294 172,190 174,201 181,51
183,9628 185,9840 186,755 187,102
200,9999 202,9759 203,776
##END=
