##TITLE=Benzene, 1-methyl-2-nitro-
##JCAMP-DX=4.24
##DATA TYPE=MASS SPECTRUM
##ORIGIN=NIST Mass Spectrometry Data Center, 1992
##OWNER=NIST Mass Spectrometry Data Center
Collection (C) 2014 copyright by the U.S. Secretary of Commerce
on behalf of the United States of America. All rights reserved.
##CAS REGISTRY NO=88-72-2
##$NIST MASS SPEC NO=125379
##MOLFORM=C7 H7 N O2
##MW=137
##$NIST SOURCE=MSDC
##XUNITS=M/Z
##YUNITS=RELATIVE INTENSITY
##XFACTOR=1
##YFACTOR=1
##FIRSTX=12
##LASTX=139
##FIRSTY=11
##MAXX=139
##MINX=12
##MAXY=9999
##MINY=7
##NPOINTS=76
##PEAK TABLE=(XY..XY)
12,11 13,13 14,19 15,55
16,13 17,23 18,36 25,30
26,217 27,541 28,89 29,174
30,783 31,61 37,324 38,856
39,3584 40,266 41,674 42,40
43,113 44,19 46,228 47,13
48,23 49,193 50,1257 51,1751
52,570 53,328 54,28 55,38
61,400 62,1096 63,2569 64,1286
65,9642 66,714 67,43 68,14
73,85 74,318 75,223 76,289
77,2261 78,551 79,396 80,92
81,33 82,7 84,28 85,108
86,213 87,140 88,7 89,2180
90,1126 91,5402 92,5519 93,747
94,47 99,8 102,16 103,8
104,50 105,45 106,27 107,71
108,13 117,10 120,9999 121,778
122,57 137,1125 138,98 139,10
##END=
