##TITLE=Benzoic acid, 2,3,5-triiodo-
##JCAMP-DX=4.24
##DATA TYPE=MASS SPECTRUM
##ORIGIN=FDA, Los Angeles District Laboratory
##OWNER=NIST Mass Spectrometry Data Center
Collection (C) 2014 copyright by the U.S. Secretary of Commerce
on behalf of the United States of America. All rights reserved.
##CAS REGISTRY NO=88-82-4
##$NIST MASS SPEC NO=117552
##MOLFORM=C7 H3 I3 O2
##MW=500
##$NIST SOURCE=MSDC
##XUNITS=M/Z
##YUNITS=RELATIVE INTENSITY
##XFACTOR=1
##YFACTOR=1
##FIRSTX=45
##LASTX=501
##FIRSTY=1200
##MAXX=501
##MINX=45
##MAXY=9999
##MINY=200
##NPOINTS=33
##PEAK TABLE=(XY..XY)
45,1200 49,750 50,550 53,300
61,700 62,1400 63,3050 64,250
72,450 73,4150 74,9999 75,2600
90,750 91,2900 92,250 119,450
126,200 127,3400 128,450 176,300
189,450 190,350 200,350 201,1400
217,350 218,2750 245,600 246,550
250,300 254,600 483,750 500,2650
501,300
##END=
