##TITLE=.beta.-Guaiene
##JCAMP-DX=4.24
##DATA TYPE=MASS SPECTRUM
##OWNER=NIST Mass Spectrometry Data Center
Collection (C) 2014 copyright by the U.S. Secretary of Commerce
on behalf of the United States of America. All rights reserved.
##CAS REGISTRY NO=88-84-6
##$NIST MASS SPEC NO=9226
##MOLFORM=C15 H24
##MW=204
##$NIST SOURCE=MSDC
##XUNITS=M/Z
##YUNITS=RELATIVE INTENSITY
##XFACTOR=1
##YFACTOR=1
##FIRSTX=27
##LASTX=206
##FIRSTY=1631
##MAXX=206
##MINX=27
##MAXY=9999
##MINY=30
##NPOINTS=160
##PEAK TABLE=(XY..XY)
27,1631 28,330 29,1752 30,30
31,60 32,30 37,60 38,90
39,2182 40,420 41,5625 42,420
43,3873 44,150 45,60 50,120
51,731 52,330 53,1932 54,240
55,3813 56,240 57,540 58,691
59,420 60,60 62,60 63,300
64,270 65,1361 66,360 67,2392
68,330 69,1902 70,210 71,300
72,180 73,180 74,60 75,180
76,150 77,2783 78,731 79,3263
80,540 81,3603 82,420 83,661
84,120 85,180 86,90 87,180
88,120 89,180 90,90 91,5865
92,881 93,4414 94,911 95,2242
96,450 97,240 98,90 99,60
100,30 101,60 102,120 103,510
104,300 105,9499 106,1541 107,4624
108,1421 109,1631 110,240 111,120
115,1001 116,480 117,1331 118,420
119,5985 120,1391 121,2963 122,1752
123,881 124,180 125,330 126,90
127,330 128,761 129,761 130,420
131,1752 132,480 133,3994 134,1061
135,1692 136,480 137,150 138,90
139,90 140,60 141,270 142,210
143,480 144,270 145,2212 146,601
147,3753 148,1391 149,2602 150,420
151,120 152,90 153,90 154,60
155,120 156,90 157,240 158,180
159,1601 160,821 161,9999 162,2052
163,851 164,150 165,90 166,60
167,30 168,30 169,60 170,60
171,120 172,90 173,450 174,210
175,1061 176,450 177,390 178,390
179,90 180,30 181,30 182,30
183,30 184,30 185,240 186,90
187,911 188,240 189,4114 190,631
191,90 200,180 201,120 202,1121
203,510 204,7677 205,1391 206,120
##END=
