##TITLE=Benzene, 2-chloro-1,3,5-trinitro-
##JCAMP-DX=4.24
##DATA TYPE=MASS SPECTRUM
##ORIGIN=Japan AIST/NIMC Database- Spectrum MS-NW-4614
##OWNER=NIST Mass Spectrometry Data Center
Collection (C) 2014 copyright by the U.S. Secretary of Commerce
on behalf of the United States of America. All rights reserved.
##CAS REGISTRY NO=88-88-0
##$NIST MASS SPEC NO=230621
##MOLFORM=C6 H2 Cl N3 O6
##MW=247
##$NIST SOURCE=MSDC
##XUNITS=M/Z
##YUNITS=RELATIVE INTENSITY
##XFACTOR=1
##YFACTOR=1
##FIRSTX=12
##LASTX=251
##FIRSTY=10
##MAXX=251
##MINX=12
##MAXY=9999
##MINY=10
##NPOINTS=131
##PEAK TABLE=(XY..XY)
12,10 14,20 15,10 16,50
25,10 26,20 27,60 28,249
29,80 30,9999 31,40 35,20
36,99 37,439 38,259 39,40
40,10 42,10 43,50 44,419
45,10 46,1239 47,70 48,40
49,109 50,209 51,80 52,90
53,179 54,10 55,10 60,109
61,659 62,989 63,129 64,99
65,40 66,60 67,30 68,10
69,50 71,50 72,269 73,1029
74,6299 75,589 76,139 77,70
78,80 79,80 80,99 81,10
83,20 84,99 85,209 86,119
87,229 88,219 89,40 90,119
91,40 92,199 93,20 94,10
95,20 96,329 97,1219 98,199
99,409 100,50 101,10 102,10
103,10 104,40 105,30 106,10
107,30 108,879 109,5999 110,709
111,2009 112,159 113,179 114,30
115,60 116,10 120,299 121,30
122,10 123,20 124,40 125,409
126,70 127,189 128,20 129,20
136,70 137,10 138,30 139,20
140,10 141,80 142,10 143,30
152,30 153,30 154,479 155,269
156,179 157,70 166,129 167,20
169,10 171,20 173,10 185,30
187,10 201,99 202,10 203,30
213,60 217,70 219,20 231,139
232,10 233,50 247,2779 248,229
249,939 250,80 251,10
##END=
