##TITLE=N-(1-Adamantyl)acetamide
##JCAMP-DX=4.24
##DATA TYPE=MASS SPECTRUM
##ORIGIN=NIST Mass Spectrometry Data Center
##OWNER=NIST Mass Spectrometry Data Center
Collection (C) 2014 copyright by the U.S. Secretary of Commerce
on behalf of the United States of America. All rights reserved.
##CAS REGISTRY NO=880-52-4
##$NIST MASS SPEC NO=341090
##MOLFORM=C12 H19 N O
##MW=193
##$NIST SOURCE=MSDC
##XUNITS=M/Z
##YUNITS=RELATIVE INTENSITY
##XFACTOR=1
##YFACTOR=1
##FIRSTX=15
##LASTX=195
##FIRSTY=10
##MAXX=195
##MINX=15
##MAXY=9999
##MINY=10
##NPOINTS=98
##PEAK TABLE=(XY..XY)
15,10 27,70 29,60 30,60
38,10 39,340 40,60 41,731
42,310 43,1101 44,70 50,20
51,100 52,70 53,320 54,170
55,310 56,180 57,400 58,430
59,20 60,190 63,30 64,10
65,270 66,200 67,601 68,130
69,130 70,80 71,20 72,10
75,10 77,801 78,230 79,871
80,270 81,270 82,160 83,60
84,10 86,20 89,10 91,981
92,1101 93,1061 94,4024 95,490
96,130 97,20 98,10 99,70
100,691 101,90 102,10 103,30
104,20 105,260 106,220 107,220
108,520 109,200 110,130 111,30
112,10 114,10 115,40 116,10
117,50 118,60 119,220 120,70
121,20 122,30 123,70 124,270
125,40 131,10 132,10 133,40
134,571 135,571 136,9999 137,1051
138,100 148,10 149,20 150,681
151,170 152,110 153,10 164,10
178,100 179,10 192,270 193,3894
194,530 195,40
##END=
