##TITLE=Piperidine, 1,1'-methylenebis-
##JCAMP-DX=4.24
##DATA TYPE=MASS SPECTRUM
##ORIGIN=NIST Mass Spectrometry Data Center, 1994
##OWNER=NIST Mass Spectrometry Data Center
Collection (C) 2014 copyright by the U.S. Secretary of Commerce
on behalf of the United States of America. All rights reserved.
##CAS REGISTRY NO=880-09-1
##$NIST MASS SPEC NO=134013
##MOLFORM=C11 H22 N2
##MW=182
##$NIST SOURCE=MSDC
##XUNITS=M/Z
##YUNITS=RELATIVE INTENSITY
##XFACTOR=1
##YFACTOR=1
##FIRSTX=13
##LASTX=182
##FIRSTY=4
##MAXX=182
##MINX=13
##MAXY=9999
##MINY=1
##NPOINTS=54
##PEAK TABLE=(XY..XY)
13,4 14,9 15,147 26,57
27,362 28,544 29,313 30,315
31,9 32,3 37,4 39,332
41,1376 42,1536 43,209 44,396
45,14 49,6 50,15 51,24
52,12 53,74 54,168 55,777
56,337 57,114 58,10 63,8
65,17 66,7 67,66 68,105
69,330 70,467 71,22 76,7
79,5 80,22 81,20 82,49
83,66 84,222 85,45 86,23
90,28 93,1 94,7 96,195
98,9999 99,633 100,20 110,4
181,22 182,10
##END=
