##TITLE=Benzene, pentafluoronitro-
##JCAMP-DX=4.24
##DATA TYPE=MASS SPECTRUM
##ORIGIN=Japan AIST/NIMC Database- Spectrum MS-NW-7517
##OWNER=NIST Mass Spectrometry Data Center
Collection (C) 2014 copyright by the U.S. Secretary of Commerce
on behalf of the United States of America. All rights reserved.
##CAS REGISTRY NO=880-78-4
##$NIST MASS SPEC NO=238262
##MOLFORM=C6 F5 N O2
##MW=213
##$NIST SOURCE=MSDC
##XUNITS=M/Z
##YUNITS=RELATIVE INTENSITY
##XFACTOR=1
##YFACTOR=1
##FIRSTX=12
##LASTX=215
##FIRSTY=10
##MAXX=215
##MINX=12
##MAXY=9999
##MINY=10
##NPOINTS=89
##PEAK TABLE=(XY..XY)
12,10 16,20 20,10 27,30
28,289 29,60 30,9999 31,1989
32,30 36,60 38,20 39,20
41,70 43,20 44,50 45,10
46,1749 47,30 48,30 50,30
55,249 56,70 57,20 60,60
62,99 67,50 69,1139 70,20
71,20 72,10 74,469 75,20
76,30 79,869 80,50 81,119
82,20 85,50 86,399 87,20
88,10 91,20 93,2019 94,70
98,1399 99,90 100,169 101,10
105,539 106,30 107,10 109,90
110,139 111,10 112,60 116,10
117,7309 118,419 119,70 124,109
129,60 131,289 132,20 133,30
136,139 137,10 145,10 148,789
149,60 155,2149 156,139 157,10
162,30 164,10 166,30 167,3459
168,239 181,40 182,10 183,2709
184,209 185,129 186,10 194,20
197,249 198,20 213,5399 214,429
215,40
##END=
