##TITLE=Thiophene, 2-octyl-
##JCAMP-DX=4.24
##DATA TYPE=MASS SPECTRUM
##OWNER=NIST Mass Spectrometry Data Center
Collection (C) 2014 copyright by the U.S. Secretary of Commerce
on behalf of the United States of America. All rights reserved.
##CAS REGISTRY NO=880-36-4
##$NIST MASS SPEC NO=8662
##MOLFORM=C12 H20 S
##MW=196
##$NIST SOURCE=MSDC
##XUNITS=M/Z
##YUNITS=RELATIVE INTENSITY
##XFACTOR=1
##YFACTOR=1
##FIRSTX=37
##LASTX=199
##FIRSTY=20
##MAXX=199
##MINX=37
##MAXY=9999
##MINY=10
##NPOINTS=130
##PEAK TABLE=(XY..XY)
37,20 38,80 39,921 40,100
41,1181 42,140 43,601 44,30
45,911 46,30 47,80 49,10
50,60 51,160 52,70 53,480
54,40 55,250 56,50 57,290
58,160 59,60 60,10 61,10
62,20 63,90 64,20 65,140
66,70 67,130 68,20 69,160
70,70 71,160 72,10 73,20
74,10 75,10 76,10 77,160
78,70 79,80 80,20 81,60
82,40 83,40 84,400 85,340
86,70 87,70 88,10 89,10
90,10 91,70 92,20 93,30
94,20 95,60 96,50 97,9999
98,3313 99,721 100,180 101,20
102,10 103,10 104,10 105,20
106,10 107,20 108,20 109,80
110,300 111,881 112,150 113,90
114,20 115,20 116,10 117,10
118,10 119,40 120,20 121,30
122,10 123,120 124,30 125,60
126,40 127,20 128,20 129,10
133,30 134,20 135,20 136,20
137,30 138,10 139,230 140,50
141,40 142,10 143,10 147,10
149,20 150,10 151,10 152,10
153,170 154,50 155,20 156,10
162,20 163,50 164,10 165,10
166,10 167,90 168,70 169,10
170,10 181,20 182,10 193,10
194,10 195,30 196,2032 197,290
198,110 199,10
##END=
