##TITLE=Bergamotol, Z-.alpha.-trans-
##JCAMP-DX=4.24
##DATA TYPE=MASS SPECTRUM
##ORIGIN=Mark Whitten, Florida Museum of Natural History, U. of Florida
##OWNER=NIST Mass Spectrometry Data Center
Collection (C) 2014 copyright by the U.S. Secretary of Commerce
on behalf of the United States of America. All rights reserved.
##CAS REGISTRY NO=88034-74-6
##$NIST MASS SPEC NO=141049
##MOLFORM=C15 H24 O
##MW=220
##$NIST SOURCE=MSDC
##XUNITS=M/Z
##YUNITS=RELATIVE INTENSITY
##XFACTOR=1
##YFACTOR=1
##FIRSTX=41
##LASTX=220
##FIRSTY=6259
##MAXX=220
##MINX=41
##MAXY=9999
##MINY=20
##NPOINTS=107
##PEAK TABLE=(XY..XY)
41,6259 43,6625 44,226 45,271
50,141 51,709 52,376 53,2119
54,355 55,4113 56,475 57,823
58,251 59,56 62,33 63,180
64,93 65,1276 66,339 67,1697
68,1932 69,1065 70,163 71,808
72,84 73,33 74,20 75,30
77,3917 78,830 79,4004 80,901
81,1678 82,238 83,428 84,727
85,143 86,36 89,76 91,5234
92,2492 93,9999 94,1674 95,1389
96,181 97,297 98,57 102,58
103,331 104,178 105,2610 106,741
107,3376 108,585 109,327 110,168
111,57 115,272 116,92 117,412
119,6396 120,1249 121,1139 122,309
123,150 124,70 125,162 126,49
127,33 128,88 129,80 130,62
131,1219 132,3005 133,761 134,723
135,322 136,75 137,88 138,34
139,121 141,27 143,32 145,1001
146,384 147,304 148,87 149,56
150,34 151,22 152,37 158,23
159,330 160,135 161,221 162,103
163,50 173,115 174,59 187,465
188,75 189,126 190,23 202,212
203,33 205,35 220,37
##END=
