##TITLE=4-Propylbiphenyl-4'-carboxylic acid
##JCAMP-DX=4.24
##DATA TYPE=MASS SPECTRUM
##ORIGIN=NIST Mass Spectrometry Data Center, 1994
##OWNER=NIST Mass Spectrometry Data Center
Collection (C) 2014 copyright by the U.S. Secretary of Commerce
on behalf of the United States of America. All rights reserved.
##CAS REGISTRY NO=88038-94-2
##$NIST MASS SPEC NO=136140
##MOLFORM=C16 H16 O2
##MW=240
##$NIST SOURCE=MSDC
##XUNITS=M/Z
##YUNITS=RELATIVE INTENSITY
##XFACTOR=1
##YFACTOR=1
##FIRSTX=27
##LASTX=242
##FIRSTY=199
##MAXX=242
##MINX=27
##MAXY=9999
##MINY=1
##NPOINTS=119
##PEAK TABLE=(XY..XY)
27,199 29,151 36,10 37,2
38,24 39,253 40,3 41,32
42,6 44,1 45,12 50,94
51,199 52,31 53,33 54,9
55,24 57,10 61,8 62,55
63,215 64,36 65,125 67,10
69,36 71,8 75,115 76,126
77,164 78,46 82,129 85,13
86,27 87,74 88,50 89,156
90,34 91,197 92,30 94,15
95,19 96,12 97,64 98,35
99,36 100,14 101,40 102,65
103,24 104,16 105,17 110,20
111,19 112,10 113,48 114,33
115,296 116,44 117,14 120,17
125,26 126,77 127,92 128,140
129,41 137,35 138,29 139,283
140,42 141,64 142,15 149,16
150,78 151,222 152,992 153,260
154,42 155,20 159,7 162,39
163,200 164,282 165,2273 166,796
167,204 168,31 170,6 176,64
177,37 178,186 179,74 180,24
181,113 182,23 183,51 188,10
189,40 190,17 191,23 192,14
193,25 194,13 195,48 196,27
197,9 198,70 207,39 208,24
209,34 211,9999 212,1469 213,142
223,79 224,42 225,35 238,19
240,3583 241,655 242,69
##END=
