##TITLE=6-Methoxy-m-toluenesulfonyl chloride
##JCAMP-DX=4.24
##DATA TYPE=MASS SPECTRUM
##ORIGIN=NIST Mass Spectrometry Data Center, 1994
##OWNER=NIST Mass Spectrometry Data Center
Collection (C) 2014 copyright by the U.S. Secretary of Commerce
on behalf of the United States of America. All rights reserved.
##CAS REGISTRY NO=88040-86-2
##$NIST MASS SPEC NO=134807
##MOLFORM=C8 H9 Cl O3 S
##MW=220
##$NIST SOURCE=MSDC
##XUNITS=M/Z
##YUNITS=RELATIVE INTENSITY
##XFACTOR=1
##YFACTOR=1
##FIRSTX=15
##LASTX=224
##FIRSTY=1517
##MAXX=224
##MINX=15
##MAXY=9999
##MINY=25
##NPOINTS=110
##PEAK TABLE=(XY..XY)
15,1517 16,49 18,47 26,212
27,612 28,372 29,318 30,107
31,69 32,67 35,157 36,154
37,148 38,442 39,1894 40,271
41,325 43,99 45,289 47,50
48,436 50,1402 51,2768 52,1799
53,985 54,96 55,138 57,49
58,88 59,41 60,56 61,168
62,536 63,1410 64,656 65,3077
66,626 67,173 69,223 70,54
71,65 73,76 74,289 75,245
76,396 77,3052 78,2458 79,486
80,45 81,105 82,111 83,94
84,66 85,88 86,97 87,104
88,45 89,1195 90,45 91,9999
92,996 93,2783 94,359 95,103
97,165 98,31 99,98 103,117
105,1307 106,2253 107,345 108,89
109,252 110,82 111,164 112,43
113,182 115,60 119,106 121,772
122,194 123,87 124,25 125,98
126,90 127,180 135,27 137,1195
138,109 139,207 141,222 142,36
143,74 151,108 152,31 154,320
155,663 156,168 157,57 158,37
169,59 170,41 185,4248 186,383
187,230 220,2284 221,258 222,837
223,80 224,40
##END=
