##TITLE=2,5-Etheno[4.2.2]propella-3,7,9-triene
##JCAMP-DX=4.24
##DATA TYPE=MASS SPECTRUM
##ORIGIN=T. TSUJI, DEP. CHEM., HOKKAIDO UNIV., SAPPORO, JAPAN
##OWNER=NIST Mass Spectrometry Data Center
Collection (C) 2014 copyright by the U.S. Secretary of Commerce
on behalf of the United States of America. All rights reserved.
##CAS REGISTRY NO=88090-38-4
##$NIST MASS SPEC NO=101013
##MOLFORM=C12 H10
##MW=154
##$NIST SOURCE=MSDC
##XUNITS=M/Z
##YUNITS=RELATIVE INTENSITY
##XFACTOR=1
##YFACTOR=1
##FIRSTX=38
##LASTX=156
##FIRSTY=94
##MAXX=156
##MINX=38
##MAXY=9999
##MINY=10
##NPOINTS=63
##PEAK TABLE=(XY..XY)
38,94 39,1054 40,72 41,59
49,90 50,2564 51,1865 52,610
53,73 61,127 62,459 63,1504
64,562 65,177 73,66 74,767
75,809 76,2600 77,867 78,1070
79,80 86,155 87,239 88,70
89,550 90,57 91,131 98,118
99,73 100,56 101,200 102,1052
103,155 109,10 110,22 111,19
113,93 114,54 115,1180 116,129
117,36 119,35 121,15 122,18
125,49 126,447 127,845 128,1585
129,176 130,11 137,10 138,16
139,489 140,63 141,26 149,34
150,283 151,1545 152,7084 153,9999
154,3852 155,429 156,27
##END=
