##TITLE=Quinoline, 2-methyl-8-nitro-
##JCAMP-DX=4.24
##DATA TYPE=MASS SPECTRUM
##ORIGIN=Japan AIST/NIMC Database- Spectrum MS-NW-7783
##OWNER=NIST Mass Spectrometry Data Center
Collection (C) 2014 copyright by the U.S. Secretary of Commerce
on behalf of the United States of America. All rights reserved.
##CAS REGISTRY NO=881-07-2
##$NIST MASS SPEC NO=238657
##MOLFORM=C10 H8 N2 O2
##MW=188
##$NIST SOURCE=MSDC
##XUNITS=M/Z
##YUNITS=RELATIVE INTENSITY
##XFACTOR=1
##YFACTOR=1
##FIRSTX=14
##LASTX=190
##FIRSTY=10
##MAXX=190
##MINX=14
##MAXY=9999
##MINY=10
##NPOINTS=101
##PEAK TABLE=(XY..XY)
14,10 15,159 16,20 18,10
26,239 27,889 28,349 29,40
30,1249 37,329 38,669 39,3149
40,199 41,189 42,60 43,439
44,20 46,199 49,119 50,1399
51,1689 52,649 53,269 54,30
55,20 56,30 57,129 58,30
60,20 61,339 62,1039 63,2249
64,749 65,909 66,99 67,10
70,70 73,119 74,1229 75,1149
76,749 77,1769 78,489 79,60
80,10 84,10 85,80 86,239
87,489 88,689 89,1999 90,429
91,199 92,30 93,10 94,20
97,30 98,169 99,199 100,369
101,299 102,609 103,2639 104,449
105,30 109,10 110,20 111,40
112,50 113,649 114,919 115,7909
116,2019 117,159 126,30 127,429
128,499 129,219 130,9999 131,1059
132,50 138,20 139,40 140,1459
141,719 142,2579 143,309 144,20
155,30 156,30 157,30 158,2839
159,329 160,30 171,20 172,179
173,20 187,20 188,6629 189,839
190,90
##END=
