##TITLE=Naphthalene, 2-methyl-1-nitro-
##JCAMP-DX=4.24
##DATA TYPE=MASS SPECTRUM
##ORIGIN=Japan AIST/NIMC Database- Spectrum MS-NW-4424
##OWNER=NIST Mass Spectrometry Data Center
Collection (C) 2014 copyright by the U.S. Secretary of Commerce
on behalf of the United States of America. All rights reserved.
##CAS REGISTRY NO=881-03-8
##$NIST MASS SPEC NO=232434
##MOLFORM=C11 H9 N O2
##MW=187
##$NIST SOURCE=MSDC
##XUNITS=M/Z
##YUNITS=RELATIVE INTENSITY
##XFACTOR=1
##YFACTOR=1
##FIRSTX=14
##LASTX=190
##FIRSTY=10
##MAXX=190
##MINX=14
##MAXY=9999
##MINY=10
##NPOINTS=140
##PEAK TABLE=(XY..XY)
14,10 15,10 16,10 17,10
18,20 26,80 27,219 28,80
29,60 30,399 31,20 37,109
38,229 39,1109 40,70 41,60
43,119 44,20 45,10 46,40
49,50 50,759 51,1079 52,239
53,80 54,10 55,90 56,70
57,959 58,99 60,10 61,249
62,759 63,1959 64,379 65,579
66,50 67,30 68,20 69,549
70,279 71,159 72,10 73,80
74,759 75,799 76,489 77,609
78,209 79,30 84,30 85,289
86,469 87,689 88,429 89,1159
90,219 91,459 92,50 93,20
94,20 95,10 96,10 97,30
98,249 99,189 100,129 101,259
102,559 103,329 104,149 105,60
106,10 107,20 108,10 109,50
110,99 111,99 112,60 113,689
114,869 115,9999 116,1949 117,349
118,90 119,30 120,20 121,20
122,30 123,20 124,20 125,60
126,669 127,2229 128,4369 129,4459
130,2279 131,1079 132,189 133,80
134,30 135,20 136,10 137,149
138,249 139,4119 140,1759 141,5849
142,4579 143,1149 144,269 145,90
146,20 147,10 148,10 151,10
152,109 153,60 154,99 155,129
156,139 157,1909 158,749 159,359
160,60 161,10 168,10 169,50
170,1729 171,289 172,329 173,40
174,10 184,10 185,30 186,1079
187,9019 188,1119 189,109 190,10
##END=
