##TITLE=2- Chloropropionic acid, octadecyl ester
##JCAMP-DX=4.24
##DATA TYPE=MASS SPECTRUM
##ORIGIN=Zaikin V.G., TIPS RAS, Moscow, Russia
##OWNER=NIST Mass Spectrometry Data Center
Collection (C) 2014 copyright by the U.S. Secretary of Commerce
on behalf of the United States of America. All rights reserved.
##CAS REGISTRY NO=88104-31-8
##$NIST MASS SPEC NO=292445
##MOLFORM=C21 H41 Cl O2
##MW=360
##$NIST SOURCE=MSDC
##XUNITS=M/Z
##YUNITS=RELATIVE INTENSITY
##XFACTOR=1
##YFACTOR=1
##FIRSTX=26
##LASTX=360
##FIRSTY=150
##MAXX=360
##MINX=26
##MAXY=9999
##MINY=20
##NPOINTS=125
##PEAK TABLE=(XY..XY)
26,150 27,761 28,20 29,1321
30,30 31,50 35,60 36,430
37,40 38,180 39,571 40,140
41,4224 42,1241 43,7086 44,761
45,100 50,30 51,50 52,30
53,300 54,1021 55,8037 56,4684
57,9999 58,460 62,50 63,1511
64,110 65,530 66,170 67,1601
68,2202 69,7697 70,4354 71,5755
72,340 73,290 74,1872 75,1141
76,40 77,70 79,180 80,130
81,1161 82,3803 83,8998 84,3233
85,3974 86,260 87,30 90,30
91,671 92,40 93,210 94,50
95,771 96,2352 97,8077 98,2172
99,1061 100,100 108,3373 109,2652
110,2152 111,4954 112,1511 113,711
114,80 121,30 122,50 123,330
124,721 125,2122 126,971 127,510
128,50 130,30 135,40 136,40
137,270 138,540 139,801 140,651
141,340 142,20 149,40 151,100
152,350 153,390 154,460 155,250
165,50 166,240 167,240 168,350
169,210 179,40 180,200 181,150
182,220 183,150 193,70 194,180
195,100 196,170 197,90 208,150
209,80 210,70 211,50 221,40
222,210 223,60 224,520 225,100
250,891 251,180 252,420 253,160
267,40 295,50 297,290 298,50
360,30
##END=
