##TITLE=Clofibric Acid
##JCAMP-DX=4.24
##DATA TYPE=MASS SPECTRUM
##ORIGIN=NIST Mass Spectrometry Data Center, 1994
##OWNER=NIST Mass Spectrometry Data Center
Collection (C) 2014 copyright by the U.S. Secretary of Commerce
on behalf of the United States of America. All rights reserved.
##CAS REGISTRY NO=882-09-7
##$NIST MASS SPEC NO=135436
##MOLFORM=C10 H11 Cl O3
##MW=214
##$NIST SOURCE=MSDC
##XUNITS=M/Z
##YUNITS=RELATIVE INTENSITY
##XFACTOR=1
##YFACTOR=1
##FIRSTX=12
##LASTX=217
##FIRSTY=16
##MAXX=217
##MINX=12
##MAXY=9999
##MINY=11
##NPOINTS=111
##PEAK TABLE=(XY..XY)
12,16 14,30 15,314 16,19
17,14 18,44 19,24 24,14
25,22 26,116 27,658 28,145
29,161 30,14 31,325 32,24
35,20 36,41 37,202 38,542
39,1810 40,242 41,1762 42,307
43,750 44,75 45,858 46,40
47,60 49,110 50,381 51,233
52,30 53,152 54,21 55,73
57,36 59,656 60,69 61,155
62,328 63,917 64,420 65,1212
66,118 67,25 68,38 69,284
70,57 71,25 72,80 73,786
74,187 75,1053 76,196 77,87
78,12 79,37 81,19 85,132
86,98 87,101 89,53 91,72
92,119 93,226 94,68 97,19
99,816 100,636 101,290 102,212
103,35 105,103 106,23 107,14
111,561 112,63 113,197 114,22
115,19 121,170 122,19 125,35
128,9999 129,987 130,3079 131,327
132,28 133,17 134,17 138,179
139,36 141,181 142,17 143,61
153,26 155,27 169,516 170,67
171,180 172,15 180,40 181,13
186,18 196,12 199,11 214,650
215,72 216,214 217,25
##END=
