##TITLE=2-Naphthalenecarboxylic acid, 3-hydroxy-, methyl ester
##JCAMP-DX=4.24
##DATA TYPE=MASS SPECTRUM
##ORIGIN=NIST Mass Spectrometry Data Center, 1994
##OWNER=NIST Mass Spectrometry Data Center
Collection (C) 2014 copyright by the U.S. Secretary of Commerce
on behalf of the United States of America. All rights reserved.
##CAS REGISTRY NO=883-99-8
##$NIST MASS SPEC NO=134199
##MOLFORM=C12 H10 O3
##MW=202
##$NIST SOURCE=MSDC
##XUNITS=M/Z
##YUNITS=RELATIVE INTENSITY
##XFACTOR=1
##YFACTOR=1
##FIRSTX=12
##LASTX=204
##FIRSTY=21
##MAXX=204
##MINX=12
##MAXY=9999
##MINY=8
##NPOINTS=83
##PEAK TABLE=(XY..XY)
12,21 13,38 15,1819 16,8
26,100 27,265 29,907 30,198
31,641 33,22 37,63 38,218
39,684 40,11 41,38 42,21
43,30 45,111 50,449 51,444
52,116 53,345 54,24 55,41
56,11 57,317 59,71 61,222
62,803 63,1518 64,299 65,381
66,57 69,13 71,1126 74,447
75,394 76,206 77,450 78,44
79,32 85,569 86,507 87,758
88,1064 89,937 90,96 91,30
98,90 99,70 101,271 102,223
103,252 104,25 109,31 110,72
111,64 112,25 113,1800 114,5848
115,3111 116,273 117,15 122,21
126,69 127,38 128,30 129,38
130,39 131,66 142,9219 143,1269
144,100 159,21 170,9999 171,1869
172,196 173,38 186,29 187,18
202,4735 203,651 204,73
##END=
