##TITLE=2-Bromo-3-methoxybenzoic acid
##JCAMP-DX=4.24
##DATA TYPE=MASS SPECTRUM
##ORIGIN=NIST Mass Spectrometry Data Center, 1994
##OWNER=NIST Mass Spectrometry Data Center
Collection (C) 2014 copyright by the U.S. Secretary of Commerce
on behalf of the United States of America. All rights reserved.
##CAS REGISTRY NO=88377-29-1
##$NIST MASS SPEC NO=134965
##MOLFORM=C8 H7 Br O3
##MW=230
##$NIST SOURCE=MSDC
##XUNITS=M/Z
##YUNITS=RELATIVE INTENSITY
##XFACTOR=1
##YFACTOR=1
##FIRSTX=4
##LASTX=218
##FIRSTY=48
##MAXX=218
##MINX=4
##MAXY=9999
##MINY=48
##NPOINTS=106
##PEAK TABLE=(XY..XY)
4,48 14,101 15,162 17,65
18,134 26,326 27,806 28,544
29,277 30,110 32,71 36,153
37,688 38,1527 39,4145 40,394
41,264 42,71 43,1377 44,1344
45,2337 46,72 49,484 50,2036
51,2607 52,744 53,921 54,97
55,186 58,357 59,420 60,200
61,1326 62,3542 63,7184 64,1903
65,1326 66,212 67,206 73,416
74,1072 75,891 76,200 77,4619
78,1802 79,2179 80,353 81,291
82,180 83,180 84,531 85,810
86,980 87,908 88,180 89,8755
90,6497 91,4056 92,741 93,120
95,66 98,737 99,1021 101,119
105,1126 106,941 107,1013 108,116
115,67 116,733 117,558 118,193
119,369 125,141 127,73 128,99
130,73 133,454 135,9019 136,918
137,112 141,109 143,237 145,111
152,146 153,116 155,105 159,130
161,79 168,858 169,3195 170,1225
171,3239 172,302 196,1160 197,5645
198,1670 199,5645 200,477 201,212
203,66 214,9999 215,1123 216,9706
217,867 218,66
##END=
