##TITLE=.alpha.-Benzylsuccinic acid
##JCAMP-DX=4.24
##DATA TYPE=MASS SPECTRUM
##ORIGIN=Japan AIST/NIMC Database- Spectrum MS-IW-3756
##OWNER=NIST Mass Spectrometry Data Center
Collection (C) 2014 copyright by the U.S. Secretary of Commerce
on behalf of the United States of America. All rights reserved.
##CAS REGISTRY NO=884-33-3
##$NIST MASS SPEC NO=244097
##MOLFORM=C11 H12 O4
##MW=208
##$NIST SOURCE=MSDC
##XUNITS=M/Z
##YUNITS=RELATIVE INTENSITY
##XFACTOR=1
##YFACTOR=1
##FIRSTX=15
##LASTX=210
##FIRSTY=10
##MAXX=210
##MINX=15
##MAXY=9999
##MINY=10
##NPOINTS=119
##PEAK TABLE=(XY..XY)
15,10 17,20 18,10 26,20
27,209 28,90 29,90 31,20
37,10 38,60 39,699 40,50
41,309 42,60 43,109 44,50
45,269 46,10 50,199 51,639
52,159 53,70 54,10 55,179
56,10 57,189 58,199 59,30
60,299 61,30 62,99 63,399
64,99 65,1599 66,109 67,30
69,10 71,20 72,60 73,60
74,70 75,80 76,80 77,729
78,489 79,279 80,20 81,50
82,10 84,10 85,30 86,20
87,30 88,30 89,369 90,159
91,9999 92,949 93,50 94,10
95,10 99,99 100,10 101,20
102,179 103,1059 104,659 105,289
106,20 107,299 108,30 113,10
114,10 115,989 116,389 117,3649
118,569 119,80 120,339 121,99
122,10 127,70 128,10 129,10
130,99 131,4939 132,509 133,90
134,10 135,10 143,20 144,289
145,2149 146,279 147,2079 148,3629
149,3399 150,509 151,40 159,20
161,50 162,6409 163,719 164,70
166,10 172,50 173,159 175,10
176,80 177,99 178,50 189,10
190,1269 191,229 192,30 194,10
208,2959 209,369 210,40
##END=
