##TITLE=1,3,2-Dioxaphosphorinane, 5,5-dimethyl-2-phenoxy-, 2-oxide
##JCAMP-DX=4.24
##DATA TYPE=MASS SPECTRUM
##ORIGIN=J.CASSAN FACULTY OF SCIENCE, UNIV. OF NICE, NICE, FRANCE
##OWNER=NIST Mass Spectrometry Data Center
Collection (C) 2014 copyright by the U.S. Secretary of Commerce
on behalf of the United States of America. All rights reserved.
##CAS REGISTRY NO=884-89-9
##$NIST MASS SPEC NO=37990
##MOLFORM=C11 H15 O4 P
##MW=242
##$NIST SOURCE=MSDC
##XUNITS=M/Z
##YUNITS=RELATIVE INTENSITY
##XFACTOR=1
##YFACTOR=1
##FIRSTX=40
##LASTX=244
##FIRSTY=480
##MAXX=244
##MINX=40
##MAXY=9999
##MINY=66
##NPOINTS=79
##PEAK TABLE=(XY..XY)
40,480 41,4600 42,400 43,380
44,236 45,400 47,480 50,400
51,1080 52,180 53,880 54,128
55,1800 56,3800 57,400 59,460
63,440 64,280 65,2000 66,460
67,1080 68,2400 69,1200 70,244
71,840 74,276 75,148 76,248
77,3200 78,360 79,144 81,280
85,168 90,320 91,280 92,168
93,300 94,6000 95,500 99,164
100,400 107,1200 108,120 109,400
115,244 116,520 128,240 129,2400
130,320 131,96 133,96 134,252
138,92 139,172 140,400 141,100
143,108 144,128 145,100 147,200
149,156 156,1200 157,560 159,160
169,136 174,7200 175,9999 176,920
177,100 187,2600 188,300 189,112
227,4400 228,520 229,66 241,76
242,8800 243,1200 244,180
##END=
