##TITLE=Benzoic acid, 4-hydroxy-3,5-dimethoxy-, methyl ester
##JCAMP-DX=4.24
##DATA TYPE=MASS SPECTRUM
##ORIGIN=W.T.RAINEY OAK RIDGE NATIONAL LABORATORY,OAK RIDGE,TN.USA
##OWNER=NIST Mass Spectrometry Data Center
Collection (C) 2014 copyright by the U.S. Secretary of Commerce
on behalf of the United States of America. All rights reserved.
##CAS REGISTRY NO=884-35-5
##$NIST MASS SPEC NO=25366
##MOLFORM=C10 H12 O5
##MW=212
##$NIST SOURCE=MSDC
##XUNITS=M/Z
##YUNITS=RELATIVE INTENSITY
##XFACTOR=1
##YFACTOR=1
##FIRSTX=15
##LASTX=214
##FIRSTY=679
##MAXX=214
##MINX=15
##MAXY=9999
##MINY=39
##NPOINTS=46
##PEAK TABLE=(XY..XY)
15,679 39,1199 41,699 43,589
44,649 50,739 51,799 53,979
55,679 66,719 67,649 68,989
70,719 79,699 81,719 93,629
97,489 109,1119 111,329 112,459
123,459 127,1599 135,199 136,149
137,549 138,249 139,219 140,299
141,289 151,269 152,299 153,489
154,239 155,609 181,2069 182,199
183,839 184,219 185,49 196,509
197,9999 198,979 199,139 212,2109
213,249 214,39
##END=
