##TITLE=2,4,5-Trifluorobenzoyl chloride
##JCAMP-DX=4.24
##DATA TYPE=MASS SPECTRUM
##ORIGIN=NIST Mass Spectrometry Data Center
##OWNER=NIST Mass Spectrometry Data Center
Collection (C) 2014 copyright by the U.S. Secretary of Commerce
on behalf of the United States of America. All rights reserved.
##CAS REGISTRY NO=88419-56-1
##$NIST MASS SPEC NO=342835
##MOLFORM=C7 H2 Cl F3 O
##MW=194
##$NIST SOURCE=MSDC
##XUNITS=M/Z
##YUNITS=RELATIVE INTENSITY
##XFACTOR=1
##YFACTOR=1
##FIRSTX=12
##LASTX=197
##FIRSTY=10
##MAXX=197
##MINX=12
##MAXY=9999
##MINY=10
##NPOINTS=89
##PEAK TABLE=(XY..XY)
12,10 17,10 18,30 20,10
24,10 25,40 28,260 31,1491
32,60 35,420 36,140 37,581
38,80 40,10 44,70 47,30
48,40 49,120 50,340 51,70
52,10 53,70 55,180 56,510
57,200 60,110 61,861 62,691
63,170 65,100 68,400 69,90
71,50 72,40 73,60 74,20
75,591 76,20 77,10 80,1842
81,4514 82,240 83,110 84,50
85,20 86,190 87,190 88,10
90,10 91,40 92,220 93,110
94,10 95,10 97,20 98,60
99,440 100,100 102,10 103,10
104,20 105,20 106,10 108,10
109,10 110,60 111,150 112,220
113,10 115,30 117,10 123,20
128,100 131,5475 132,360 133,10
139,10 140,40 143,30 147,10
159,9999 160,721 161,40 165,10
166,20 194,510 195,40 196,160
197,10
##END=
