##TITLE=Benzene, 1,1'-(1,3-butadiyne-1,4-diyl)bis-
##JCAMP-DX=4.24
##DATA TYPE=MASS SPECTRUM
##ORIGIN=NIST Mass Spectrometry Data Center, 1990.
##OWNER=NIST Mass Spectrometry Data Center
Collection (C) 2014 copyright by the U.S. Secretary of Commerce
on behalf of the United States of America. All rights reserved.
##CAS REGISTRY NO=886-66-8
##$NIST MASS SPEC NO=114788
##MOLFORM=C16 H10
##MW=202
##$NIST SOURCE=MSDC
##XUNITS=M/Z
##YUNITS=RELATIVE INTENSITY
##XFACTOR=1
##YFACTOR=1
##FIRSTX=27
##LASTX=204
##FIRSTY=52
##MAXX=204
##MINX=27
##MAXY=9999
##MINY=31
##NPOINTS=63
##PEAK TABLE=(XY..XY)
27,52 38,48 39,187 50,229
51,249 52,96 61,80 62,171
63,255 67,32 73,79 74,383
75,392 76,207 77,129 85,104
86,248 87,426 88,717 97,48
98,431 99,214 100,450 101,808
109,79 110,246 111,205 112,54
113,59 121,40 122,262 123,129
124,81 125,58 126,307 127,49
134,91 135,80 136,31 137,121
138,57 139,73 146,73 149,170
150,696 151,228 152,166 161,168
162,195 163,208 173,40 174,382
175,302 176,277 177,48 187,40
198,81 199,211 200,2315 201,1074
202,9999 203,1695 204,134
##END=
