##TITLE=Monomethyl 2,3,5,6-tetrachloroterephthalate
##JCAMP-DX=4.24
##DATA TYPE=MASS SPECTRUM
##ORIGIN=J. SHAW, BORRISTON RESEARCH, ROCKVILLE, MD, USA
##OWNER=NIST Mass Spectrometry Data Center
Collection (C) 2014 copyright by the U.S. Secretary of Commerce
on behalf of the United States of America. All rights reserved.
##CAS REGISTRY NO=887-54-7
##$NIST MASS SPEC NO=60287
##MOLFORM=C9 H4 Cl4 O4
##MW=316
##$NIST SOURCE=MSDC
##XUNITS=M/Z
##YUNITS=RELATIVE INTENSITY
##XFACTOR=1
##YFACTOR=1
##FIRSTX=35
##LASTX=322
##FIRSTY=1607
##MAXX=322
##MINX=35
##MAXY=9999
##MINY=45
##NPOINTS=175
##PEAK TABLE=(XY..XY)
35,1607 36,3301 37,1738 38,714
39,445 41,983 42,356 43,1918
44,4465 45,9999 47,2007 48,356
49,1025 50,269 51,269 52,90
53,224 55,535 56,134 57,535
59,6606 60,1472 61,1204 62,356
63,579 65,224 67,313 69,313
71,2945 72,2452 73,3256 74,490
75,224 76,134 77,313 78,45
79,90 81,90 83,1114 84,893
85,579 87,1918 89,1249 91,179
95,1873 96,1159 97,848 98,269
99,134 100,45 101,45 103,45
106,1069 107,6962 108,4554 109,2452
110,1293 111,490 112,45 113,179
117,224 118,1694 119,356 120,1159
121,579 122,400 123,400 124,490
125,134 126,90 130,938 131,1338
132,624 133,938 134,490 135,1204
136,269 137,179 142,8390 143,2497
144,4820 145,1517 146,848 147,400
148,45 149,224 150,224 151,179
153,90 157,90 158,134 159,624
160,134 161,356 162,45 165,1025
166,224 167,983 168,224 169,313
170,45 171,90 173,45 177,2097
178,1204 179,2052 180,1069 181,669
182,313 183,45 187,269 189,134
193,490 194,490 195,535 196,490
197,134 198,224 201,1114 203,1562
204,90 205,1428 206,134 207,848
208,90 209,224 212,445 213,1517
214,579 215,1962 216,313 217,848
218,45 219,134 221,938 222,179
223,848 224,134 225,269 231,45
233,45 240,224 241,1918 242,400
243,2408 244,269 245,1114 246,45
247,179 257,269 259,356 261,134
266,45 272,313 273,45 274,356
276,134 281,45 283,45 285,7676
286,803 287,9554 288,848 289,4510
290,313 291,893 299,45 301,90
316,1962 317,179 318,2542 319,179
320,1159 321,45 322,179
##END=
