##TITLE=Propyl 2,4-hexadienecarboxylate
##JCAMP-DX=4.24
##DATA TYPE=MASS SPECTRUM
##ORIGIN=Japan AIST/NIMC Database- Spectrum MS-NW-5415
##OWNER=NIST Mass Spectrometry Data Center
Collection (C) 2014 copyright by the U.S. Secretary of Commerce
on behalf of the United States of America. All rights reserved.
##CAS REGISTRY NO=88973-62-0
##$NIST MASS SPEC NO=235032
##MOLFORM=C9 H14 O2
##MW=154
##$NIST SOURCE=MSDC
##XUNITS=M/Z
##YUNITS=RELATIVE INTENSITY
##XFACTOR=1
##YFACTOR=1
##FIRSTX=14
##LASTX=156
##FIRSTY=20
##MAXX=156
##MINX=14
##MAXY=9999
##MINY=10
##NPOINTS=110
##PEAK TABLE=(XY..XY)
14,20 15,129 16,10 18,10
25,10 26,169 27,1459 28,199
29,289 30,20 31,179 32,40
33,10 37,60 38,239 39,2379
40,569 41,4399 42,339 43,1379
44,70 45,50 47,20 49,10
50,99 51,269 52,169 53,179
54,40 55,339 56,109 57,80
58,70 59,129 60,20 61,30
62,70 63,179 64,60 65,999
66,1199 67,7859 68,779 69,279
70,90 71,99 72,10 73,30
74,10 77,60 78,20 79,70
80,10 81,209 82,70 83,189
84,379 85,40 86,10 87,10
89,10 90,10 91,60 92,30
93,169 94,269 95,9999 96,729
97,7769 98,479 99,60 100,159
101,60 102,10 104,20 105,50
106,10 107,30 108,10 109,80
110,20 111,479 112,5249 113,619
114,50 115,20 117,10 119,30
120,10 121,30 122,10 123,10
125,80 126,30 127,10 129,10
131,10 132,20 133,119 134,20
135,20 136,10 137,40 138,10
139,239 140,20 153,10 154,1519
155,179 156,20
##END=
