##TITLE=1,2,4,5-Benzene-tetracarboxylic acid
##JCAMP-DX=4.24
##DATA TYPE=MASS SPECTRUM
##ORIGIN=Leung Pu, NIH, Bethesda, Maryland, U.S.
##OWNER=NIST Mass Spectrometry Data Center
Collection (C) 2014 copyright by the U.S. Secretary of Commerce
on behalf of the United States of America. All rights reserved.
##CAS REGISTRY NO=89-05-4
##$NIST MASS SPEC NO=127593
##MOLFORM=C10 H6 O8
##MW=254
##$NIST SOURCE=MSDC
##XUNITS=M/Z
##YUNITS=RELATIVE INTENSITY
##XFACTOR=1
##YFACTOR=1
##FIRSTX=41
##LASTX=254
##FIRSTY=173
##MAXX=254
##MINX=41
##MAXY=9999
##MINY=19
##NPOINTS=89
##PEAK TABLE=(XY..XY)
41,173 42,119 43,334 44,315
45,557 48,82 49,263 50,169
51,1454 53,311 55,227 56,180
57,114 58,36 60,320 61,413
62,351 63,297 64,59 65,612
67,27 69,358 70,41 71,26
73,2795 74,4304 75,428 76,47
77,154 78,48 79,46 81,127
82,43 83,42 84,133 85,82
86,31 87,30 88,21 89,57
90,109 91,432 92,69 95,24
96,34 97,74 98,20 99,60
101,307 102,7438 103,652 105,26
106,34 107,34 109,27 110,19
111,25 115,20 117,220 118,146
119,220 120,886 121,89 127,21
128,21 129,42 130,89 131,46
146,498 147,243 148,1133 149,371
163,190 164,20 166,295 167,20
174,9999 175,846 176,85 192,2402
193,238 194,31 210,95 218,540
219,387 220,25 236,27 237,115
254,26
##END=
