##TITLE=1,2-Benzenedicarboxylic acid, butyl 8-methylnonyl ester
##JCAMP-DX=4.24
##DATA TYPE=MASS SPECTRUM
##ORIGIN=H. Fales, LC, NHLBI, NIH, Bethesda, MD 20892
##OWNER=NIST Mass Spectrometry Data Center
Collection (C) 2014 copyright by the U.S. Secretary of Commerce
on behalf of the United States of America. All rights reserved.
##CAS REGISTRY NO=89-18-9
##$NIST MASS SPEC NO=132345
##MOLFORM=C22 H34 O4
##MW=362
##$NIST SOURCE=MSDC
##XUNITS=M/Z
##YUNITS=RELATIVE INTENSITY
##XFACTOR=1
##YFACTOR=1
##FIRSTX=41
##LASTX=364
##FIRSTY=1191
##MAXX=364
##MINX=41
##MAXY=9999
##MINY=4
##NPOINTS=141
##PEAK TABLE=(XY..XY)
41,1191 42,49 43,1699 44,55
45,10 49,28 50,90 51,51
52,7 53,62 54,45 55,765
56,636 57,1665 58,68 63,8
64,8 65,174 66,15 67,84
68,61 69,542 70,419 71,1128
72,58 73,13 74,24 75,38
76,255 77,102 78,10 79,28
81,66 82,79 83,361 84,318
85,978 86,71 91,19 92,7
93,123 94,9 95,38 96,53
97,251 98,121 99,248 100,23
101,14 104,287 105,193 106,22
107,7 109,18 110,27 111,199
112,159 113,29 115,10 117,9
121,101 122,141 123,122 124,13
125,63 126,14 127,17 129,29
131,5 132,59 133,19 135,46
136,10 138,27 139,19 140,268
141,691 142,71 146,22 147,13
149,9999 150,1065 151,121 152,9
154,13 155,21 157,10 159,11
160,87 161,6 162,24 163,13
165,5 167,936 168,77 169,10
173,8 174,8 176,50 177,14
178,9 185,9 193,17 203,10
205,551 206,85 207,12 223,1115
224,137 225,17 231,9 233,16
235,5 236,4 251,34 252,4
277,4 278,216 279,262 280,39
289,115 290,97 291,18 293,61
294,9 305,16 307,4078 308,783
309,102 310,9 320,4 321,178
322,36 333,12 334,28 335,4
347,5 361,4 362,32 363,16
364,5
##END=
