##TITLE=1H-Pyrazole-3-carboxylic acid, 4,5-dihydro-5-oxo-1-phenyl-, ethyl ester
##JCAMP-DX=4.24
##DATA TYPE=MASS SPECTRUM
##ORIGIN=Japan AIST/NIMC Database- Spectrum MS-IW-1609
##OWNER=NIST Mass Spectrometry Data Center
Collection (C) 2014 copyright by the U.S. Secretary of Commerce
on behalf of the United States of America. All rights reserved.
##CAS REGISTRY NO=89-33-8
##$NIST MASS SPEC NO=240401
##MOLFORM=C12 H12 N2 O3
##MW=232
##$NIST SOURCE=MSDC
##XUNITS=M/Z
##YUNITS=RELATIVE INTENSITY
##XFACTOR=1
##YFACTOR=1
##FIRSTX=15
##LASTX=235
##FIRSTY=20
##MAXX=235
##MINX=15
##MAXY=9999
##MINY=10
##NPOINTS=103
##PEAK TABLE=(XY..XY)
15,20 26,60 27,369 28,169
29,929 30,20 31,10 37,30
38,129 39,329 40,179 41,269
42,90 43,60 44,30 45,40
50,149 51,809 52,159 53,109
54,50 55,99 56,10 57,10
61,10 62,40 63,359 64,899
65,739 66,129 67,30 68,299
69,50 70,10 71,70 72,30
74,30 75,40 76,99 77,5859
78,529 79,80 80,10 86,10
88,10 89,30 90,109 91,5989
92,2259 93,1229 94,149 95,20
96,10 99,20 101,10 102,70
103,439 104,159 105,1649 106,129
107,10 113,10 114,20 116,30
117,60 118,50 119,429 120,99
121,10 129,20 130,279 131,259
132,349 133,139 134,20 142,20
143,10 144,10 145,20 147,30
149,10 157,20 158,4079 159,539
160,609 161,70 162,10 175,50
176,40 185,20 186,3939 187,1459
188,379 189,40 203,119 204,1099
205,149 206,10 217,20 232,9999
233,1449 234,169 235,10
##END=
