##TITLE=Pyromellitic dianhydride
##JCAMP-DX=4.24
##DATA TYPE=MASS SPECTRUM
##ORIGIN=Japan AIST/NIMC Database- Spectrum MS-NW- 167
##OWNER=NIST Mass Spectrometry Data Center
Collection (C) 2014 copyright by the U.S. Secretary of Commerce
on behalf of the United States of America. All rights reserved.
##CAS REGISTRY NO=89-32-7
##$NIST MASS SPEC NO=228642
##MOLFORM=C10 H2 O6
##MW=218
##$NIST SOURCE=MSDC
##XUNITS=M/Z
##YUNITS=RELATIVE INTENSITY
##XFACTOR=1
##YFACTOR=1
##FIRSTX=17
##LASTX=219
##FIRSTY=10
##MAXX=219
##MINX=17
##MAXY=9999
##MINY=10
##NPOINTS=67
##PEAK TABLE=(XY..XY)
17,10 18,30 25,20 28,109
29,30 31,20 32,30 35,169
36,129 37,1669 38,269 39,30
41,30 43,30 44,90 45,40
48,80 49,189 50,209 51,699
52,40 53,119 55,30 57,40
60,119 61,319 62,119 63,20
65,339 69,30 71,20 72,149
73,1609 74,3429 75,239 76,30
77,109 78,20 84,30 85,30
89,20 90,40 91,50 101,999
102,5079 103,399 104,30 105,159
117,40 118,20 130,80 146,50
149,80 152,20 165,30 167,50
168,30 169,40 174,9999 175,1049
176,129 181,40 182,70 183,20
202,20 218,389 219,50
##END=
