##TITLE=Menthyl acetate
##JCAMP-DX=4.24
##DATA TYPE=MASS SPECTRUM
##ORIGIN=NIST Mass Spectrometry Data Center, 1994
##OWNER=NIST Mass Spectrometry Data Center
Collection (C) 2014 copyright by the U.S. Secretary of Commerce
on behalf of the United States of America. All rights reserved.
##CAS REGISTRY NO=89-48-5
##$NIST MASS SPEC NO=134065
##MOLFORM=C12 H22 O2
##MW=198
##$NIST SOURCE=MSDC
##XUNITS=M/Z
##YUNITS=RELATIVE INTENSITY
##XFACTOR=1
##YFACTOR=1
##FIRSTX=15
##LASTX=156
##FIRSTY=1090
##MAXX=156
##MINX=15
##MAXY=9999
##MINY=6
##NPOINTS=69
##PEAK TABLE=(XY..XY)
15,1090 16,6 27,1624 28,74
29,1290 30,38 31,80 37,15
39,1354 41,3486 43,9999 44,309
45,102 50,35 51,109 53,548
54,441 55,1860 56,393 57,695
58,61 59,45 61,137 63,18
65,142 67,1399 68,533 69,1013
70,260 71,825 72,60 73,18
77,230 79,451 80,651 81,3375
82,1388 83,597 84,100 85,232
86,50 87,12 91,121 93,191
95,4880 96,1067 97,195 98,34
99,64 100,32 105,15 107,36
109,428 110,232 111,65 112,61
113,175 114,19 121,33 123,1589
124,162 125,15 138,1738 139,248
140,20 141,76 142,10 155,25
156,11
##END=
