##TITLE=D-glycero-D-gulo-Heptonic acid, .gamma.-lactone
##JCAMP-DX=4.24
##DATA TYPE=MASS SPECTRUM
##ORIGIN=Japan AIST/NIMC Database- Spectrum MS-NW-8126
##OWNER=NIST Mass Spectrometry Data Center
Collection (C) 2014 copyright by the U.S. Secretary of Commerce
on behalf of the United States of America. All rights reserved.
##CAS REGISTRY NO=89-67-8
##$NIST MASS SPEC NO=235274
##MOLFORM=C7 H12 O7
##MW=208
##$NIST SOURCE=MSDC
##XUNITS=M/Z
##YUNITS=RELATIVE INTENSITY
##XFACTOR=1
##YFACTOR=1
##FIRSTX=14
##LASTX=209
##FIRSTY=30
##MAXX=209
##MINX=14
##MAXY=9999
##MINY=10
##NPOINTS=115
##PEAK TABLE=(XY..XY)
14,30 15,379 16,10 17,60
18,339 19,50 26,50 27,339
28,329 29,829 30,199 31,1069
32,60 38,10 39,179 40,40
41,349 42,439 43,1839 44,999
45,899 46,30 47,80 49,20
51,10 52,10 53,60 54,119
55,409 56,419 57,889 58,359
59,169 60,1329 61,2779 62,99
63,20 67,10 68,40 69,389
70,99 71,1609 72,599 73,9999
74,779 75,90 76,749 77,50
78,10 81,50 82,50 83,189
84,109 85,879 86,279 87,119
88,50 89,219 90,30 91,769
92,30 93,10 95,10 96,20
97,329 98,90 99,119 100,549
101,199 102,129 103,339 104,30
105,20 109,10 110,10 111,20
112,40 113,99 114,189 115,349
116,40 117,10 118,30 119,279
120,20 121,10 126,10 127,10
128,10 129,20 130,50 131,429
132,40 133,179 134,10 141,40
142,239 143,30 144,50 145,30
147,249 148,239 149,20 159,649
160,129 161,20 162,10 163,10
172,10 173,10 177,30 190,159
191,10 208,10 209,20
##END=
