##TITLE=Benzenamine, 4-methyl-2-nitro-
##JCAMP-DX=4.24
##DATA TYPE=MASS SPECTRUM
##ORIGIN=RADIAN CORP
##OWNER=NIST Mass Spectrometry Data Center
Collection (C) 2014 copyright by the U.S. Secretary of Commerce
on behalf of the United States of America. All rights reserved.
##CAS REGISTRY NO=89-62-3
##$NIST MASS SPEC NO=70276
##MOLFORM=C7 H8 N2 O2
##MW=152
##$NIST SOURCE=MSDC
##XUNITS=M/Z
##YUNITS=RELATIVE INTENSITY
##XFACTOR=1
##YFACTOR=1
##FIRSTX=15
##LASTX=154
##FIRSTY=20
##MAXX=154
##MINX=15
##MAXY=9999
##MINY=10
##NPOINTS=82
##PEAK TABLE=(XY..XY)
15,20 16,70 17,40 26,110
27,380 28,110 29,100 30,730
31,30 35,10 37,140 38,310
39,970 40,280 41,370 42,210
43,50 44,60 46,260 47,20
48,20 49,140 50,740 51,1720
52,1900 53,1030 54,470 55,60
56,40 61,130 62,300 63,620
64,340 65,760 66,630 67,340
68,50 73,50 74,190 75,220
76,490 77,6340 78,1810 79,4090
80,670 81,40 84,50 85,30
86,80 87,60 88,40 89,280
90,210 91,500 92,180 93,340
94,1480 95,110 99,10 100,10
102,80 103,60 104,1820 105,930
106,4950 107,420 108,30 117,40
118,30 119,30 121,30 122,660
123,60 134,30 135,400 136,170
137,10 150,40 151,270 152,9999
153,850 154,70
##END=
