##TITLE=Benzene, 1,4-dichloro-2-nitro-
##JCAMP-DX=4.24
##DATA TYPE=MASS SPECTRUM
##ORIGIN=Japan AIST/NIMC Database- Spectrum MS-NW-1853
##OWNER=NIST Mass Spectrometry Data Center
Collection (C) 2014 copyright by the U.S. Secretary of Commerce
on behalf of the United States of America. All rights reserved.
##CAS REGISTRY NO=89-61-2
##$NIST MASS SPEC NO=228963
##MOLFORM=C6 H3 Cl2 N O2
##MW=191
##$NIST SOURCE=MSDC
##XUNITS=M/Z
##YUNITS=RELATIVE INTENSITY
##XFACTOR=1
##YFACTOR=1
##FIRSTX=12
##LASTX=196
##FIRSTY=40
##MAXX=196
##MINX=12
##MAXY=9999
##MINY=10
##NPOINTS=114
##PEAK TABLE=(XY..XY)
12,40 16,40 24,20 25,80
26,119 27,60 28,639 29,30
30,9479 31,40 32,10 35,159
36,289 37,1409 38,849 39,159
44,80 45,10 46,219 47,269
48,149 49,769 50,2629 51,419
52,50 53,40 54,119 55,80
56,20 59,20 60,379 61,869
62,699 63,1109 64,139 65,10
66,20 71,99 72,429 73,2349
74,7429 75,5629 76,429 77,20
82,10 83,359 84,1889 85,1299
86,719 87,489 88,159 89,20
90,20 91,20 94,20 95,80
96,60 97,319 98,219 99,99
100,70 106,10 107,219 108,449
109,9999 110,2319 111,3279 112,739
113,40 118,99 119,249 120,70
121,159 122,20 123,30 124,139
125,20 126,179 127,20 128,99
130,20 132,10 133,9099 134,519
135,5869 136,319 137,969 138,50
143,10 144,149 145,8509 146,669
147,5379 148,379 149,859 150,60
156,80 158,30 161,939 162,70
163,629 164,40 165,99 175,249
176,20 177,159 178,10 179,20
191,6519 192,459 193,4219 194,299
195,689 196,60
##END=
