##TITLE=Isopulegol
##JCAMP-DX=4.24
##DATA TYPE=MASS SPECTRUM
##ORIGIN=Japan AIST/NIMC Database- Spectrum MS-NW-5203
##OWNER=NIST Mass Spectrometry Data Center
Collection (C) 2014 copyright by the U.S. Secretary of Commerce
on behalf of the United States of America. All rights reserved.
##CAS REGISTRY NO=89-79-2
##$NIST MASS SPEC NO=227964
##MOLFORM=C10 H18 O
##MW=154
##$NIST SOURCE=MSDC
##XUNITS=M/Z
##YUNITS=RELATIVE INTENSITY
##XFACTOR=1
##YFACTOR=1
##FIRSTX=14
##LASTX=156
##FIRSTY=20
##MAXX=156
##MINX=14
##MAXY=9999
##MINY=10
##NPOINTS=113
##PEAK TABLE=(XY..XY)
14,20 15,309 17,30 18,109
26,119 27,3329 28,439 29,2879
30,60 31,929 32,20 37,40
38,169 39,4239 40,1049 41,9999
42,1349 43,3069 44,629 45,389
46,10 47,10 48,10 49,10
50,189 51,629 52,349 53,2979
54,739 55,7429 56,5459 57,1609
58,329 59,669 60,20 61,10
62,40 63,149 64,40 65,619
66,429 67,6459 68,8069 69,8189
70,2039 71,8529 72,949 73,109
74,20 75,20 76,10 77,989
78,229 79,2459 80,1979 81,7979
82,2429 83,2819 84,5529 85,1729
86,209 87,20 89,20 90,10
91,709 92,1009 93,4649 94,2099
95,5459 96,1159 97,3079 98,2099
99,469 100,40 101,10 102,10
103,30 105,279 106,90 107,2009
108,1009 109,2989 110,3219 111,3569
112,1699 113,149 114,20 115,10
119,50 120,20 121,5279 122,549
123,1079 124,149 125,199 126,70
127,20 134,10 135,90 136,3219
137,379 138,109 139,1969 140,209
141,20 149,10 150,10 151,20
152,40 153,80 154,1169 155,149
156,20
##END=
