##TITLE=Ethanone, 1-(2,4-dimethylphenyl)-
##JCAMP-DX=4.24
##DATA TYPE=MASS SPECTRUM
##ORIGIN=Japan AIST/NIMC Database- Spectrum MS-NW-9354
##OWNER=NIST Mass Spectrometry Data Center
Collection (C) 2014 copyright by the U.S. Secretary of Commerce
on behalf of the United States of America. All rights reserved.
##CAS REGISTRY NO=89-74-7
##$NIST MASS SPEC NO=236832
##MOLFORM=C10 H12 O
##MW=148
##$NIST SOURCE=MSDC
##XUNITS=M/Z
##YUNITS=RELATIVE INTENSITY
##XFACTOR=1
##YFACTOR=1
##FIRSTX=15
##LASTX=150
##FIRSTY=109
##MAXX=150
##MINX=15
##MAXY=9999
##MINY=10
##NPOINTS=77
##PEAK TABLE=(XY..XY)
15,109 26,10 27,419 28,60
29,30 37,20 38,80 39,679
40,60 41,149 42,20 43,869
44,50 45,30 49,10 50,229
51,759 52,209 53,309 54,10
55,30 57,20 58,20 59,70
61,40 62,149 63,459 64,129
65,379 66,70 67,10 72,40
73,90 74,109 75,99 76,99
77,1819 78,559 79,1589 80,99
83,10 85,10 86,30 87,40
88,10 89,169 90,70 91,379
92,30 93,10 98,20 101,30
102,149 103,1079 104,369 105,6459
106,579 107,20 115,219 116,50
117,70 118,30 119,119 120,10
127,30 128,60 129,60 130,60
131,60 132,70 133,9999 134,1009
135,60 147,30 148,3669 149,419
150,30
##END=
