##TITLE=Benzoyl chloride, 2,4-dichloro-
##JCAMP-DX=4.24
##DATA TYPE=MASS SPECTRUM
##ORIGIN=Japan AIST/NIMC Database- Spectrum MS-NW-5123
##OWNER=NIST Mass Spectrometry Data Center
Collection (C) 2014 copyright by the U.S. Secretary of Commerce
on behalf of the United States of America. All rights reserved.
##CAS REGISTRY NO=89-75-8
##$NIST MASS SPEC NO=230520
##MOLFORM=C7 H3 Cl3 O
##MW=208
##$NIST SOURCE=MSDC
##XUNITS=M/Z
##YUNITS=RELATIVE INTENSITY
##XFACTOR=1
##YFACTOR=1
##FIRSTX=12
##LASTX=214
##FIRSTY=10
##MAXX=214
##MINX=12
##MAXY=9999
##MINY=10
##NPOINTS=117
##PEAK TABLE=(XY..XY)
12,10 24,10 25,20 26,30
27,20 28,20 29,10 35,109
36,299 37,429 38,159 39,10
43,20 44,30 47,70 48,60
49,219 50,589 51,109 53,40
54,339 55,369 56,119 59,10
60,99 61,159 62,80 63,50
64,10 65,10 68,20 69,40
70,10 71,30 72,269 73,439
74,1539 75,1159 76,90 77,30
79,10 80,10 81,10 82,10
83,30 84,439 85,249 86,559
87,389 88,50 89,10 90,139
91,129 92,40 95,20 96,20
97,30 98,10 99,10 101,10
103,10 106,10 107,30 108,119
109,1529 110,569 111,549 112,159
113,20 118,10 119,50 120,10
121,40 122,10 123,10 137,20
138,70 139,60 140,30 141,20
142,10 143,20 144,60 145,2689
146,249 147,1719 148,129 149,279
150,20 157,20 159,10 171,10
172,10 173,9999 174,809 175,6369
176,499 177,1069 178,90 179,10
180,99 181,20 182,99 183,10
184,30 190,10 192,10 193,10
195,10 207,20 208,269 209,30
210,239 211,30 212,90 213,10
214,10
##END=
