##TITLE=Pulegone
##JCAMP-DX=4.24
##DATA TYPE=MASS SPECTRUM
##ORIGIN=Japan AIST/NIMC Database- Spectrum MS-IW-1347
##OWNER=NIST Mass Spectrometry Data Center
Collection (C) 2014 copyright by the U.S. Secretary of Commerce
on behalf of the United States of America. All rights reserved.
##CAS REGISTRY NO=89-82-7
##$NIST MASS SPEC NO=227961
##MOLFORM=C10 H16 O
##MW=152
##$NIST SOURCE=MSDC
##XUNITS=M/Z
##YUNITS=RELATIVE INTENSITY
##XFACTOR=1
##YFACTOR=1
##FIRSTX=15
##LASTX=155
##FIRSTY=50
##MAXX=155
##MINX=15
##MAXY=9999
##MINY=10
##NPOINTS=117
##PEAK TABLE=(XY..XY)
15,50 26,40 27,909 28,169
29,679 30,10 31,99 32,10
37,10 38,80 39,1699 40,419
41,3479 42,489 43,1689 44,80
45,70 46,20 47,10 50,119
51,409 52,219 53,1269 54,449
55,2149 56,589 57,319 58,139
59,709 60,50 61,30 62,40
63,129 64,40 65,539 66,279
67,6969 68,2119 69,3059 70,679
71,369 72,50 73,20 74,20
75,20 76,10 77,699 78,139
79,1379 80,1049 81,9409 82,3729
83,1129 84,409 85,99 86,40
87,10 89,30 90,10 91,749
92,219 93,1339 94,469 95,2329
96,549 97,689 98,169 99,50
100,10 101,139 102,20 103,50
104,20 105,279 106,70 107,569
108,399 109,5459 110,1139 111,489
112,1149 113,109 114,10 115,50
116,10 117,70 118,10 119,419
120,70 121,459 122,109 123,709
124,419 125,149 126,30 128,10
129,10 131,20 132,10 133,90
134,80 135,219 136,159 137,3189
138,409 139,50 145,40 146,40
147,60 148,40 149,50 150,319
151,189 152,9999 153,1569 154,459
155,60
##END=
