##TITLE=Ethanone, 1-(2,4-dihydroxyphenyl)-
##JCAMP-DX=4.24
##DATA TYPE=MASS SPECTRUM
##ORIGIN=NIST Mass Spectrometry Data Center, 1998.
##OWNER=NIST Mass Spectrometry Data Center
Collection (C) 2014 copyright by the U.S. Secretary of Commerce
on behalf of the United States of America. All rights reserved.
##CAS REGISTRY NO=89-84-9
##$NIST MASS SPEC NO=291947
##MOLFORM=C8 H8 O3
##MW=152
##$NIST SOURCE=MSDC
##XUNITS=M/Z
##YUNITS=RELATIVE INTENSITY
##XFACTOR=1
##YFACTOR=1
##FIRSTX=15
##LASTX=154
##FIRSTY=30
##MAXX=154
##MINX=15
##MAXY=9999
##MINY=10
##NPOINTS=59
##PEAK TABLE=(XY..XY)
15,30 26,30 27,250 28,70
29,90 31,10 37,70 38,170
39,460 40,60 41,200 42,180
43,1110 44,30 45,20 47,10
48,10 49,50 50,330 51,610
52,380 53,1130 54,100 55,340
61,70 62,330 63,350 64,60
65,90 66,90 67,100 68,60
69,880 70,10 74,30 75,10
76,20 77,240 78,70 79,110
80,110 81,1460 82,100 91,20
92,20 93,10 95,80 105,80
106,10 108,150 109,270 110,40
123,90 137,9999 138,780 139,80
152,4030 153,260 154,10
##END=
