##TITLE=Benzenemethanol, 2-methyl-
##JCAMP-DX=4.24
##DATA TYPE=MASS SPECTRUM
##ORIGIN=Japan AIST/NIMC Database- Spectrum MS-NW-6674
##OWNER=NIST Mass Spectrometry Data Center
Collection (C) 2014 copyright by the U.S. Secretary of Commerce
on behalf of the United States of America. All rights reserved.
##CAS REGISTRY NO=89-95-2
##$NIST MASS SPEC NO=235386
##MOLFORM=C8 H10 O
##MW=122
##$NIST SOURCE=MSDC
##XUNITS=M/Z
##YUNITS=RELATIVE INTENSITY
##XFACTOR=1
##YFACTOR=1
##FIRSTX=15
##LASTX=124
##FIRSTY=30
##MAXX=124
##MINX=15
##MAXY=9999
##MINY=10
##NPOINTS=76
##PEAK TABLE=(XY..XY)
15,30 18,10 26,70 27,459
28,239 29,239 30,20 31,219
32,30 37,109 38,249 39,1339
40,139 41,349 42,20 43,139
44,30 45,80 46,40 47,20
49,50 50,519 51,1329 52,439
53,309 54,30 55,60 58,10
59,70 60,439 61,139 62,299
63,709 64,189 65,1379 66,139
67,30 68,10 69,10 73,30
74,149 75,119 76,99 77,3269
78,1409 79,3509 80,259 81,30
84,10 85,30 86,60 87,50
88,10 89,359 90,129 91,3309
92,369 93,1969 94,179 95,10
98,20 101,20 102,149 103,1279
104,9999 105,1649 106,209 107,3319
108,279 109,20 119,349 120,139
121,579 122,3159 123,289 124,20
##END=
