##TITLE=Benzene, 1-(bromomethyl)-2-methyl-
##JCAMP-DX=4.24
##DATA TYPE=MASS SPECTRUM
##ORIGIN=NIST Mass Spectrometry Data Center
##OWNER=NIST Mass Spectrometry Data Center
Collection (C) 2014 copyright by the U.S. Secretary of Commerce
on behalf of the United States of America. All rights reserved.
##CAS REGISTRY NO=89-92-9
##$NIST MASS SPEC NO=341307
##MOLFORM=C8 H9 Br
##MW=184
##$NIST SOURCE=MSDC
##XUNITS=M/Z
##YUNITS=RELATIVE INTENSITY
##XFACTOR=1
##YFACTOR=1
##FIRSTX=15
##LASTX=187
##FIRSTY=10
##MAXX=187
##MINX=15
##MAXY=9999
##MINY=10
##NPOINTS=51
##PEAK TABLE=(XY..XY)
15,10 26,30 27,130 37,30
38,110 39,400 40,40 41,20
49,30 50,390 51,881 52,330
53,110 61,60 62,190 63,460
64,100 65,180 66,30 73,20
74,160 75,110 76,150 77,1541
78,831 79,1611 80,110 81,50
82,10 85,10 86,30 87,40
89,230 90,80 91,150 92,80
93,10 98,20 101,20 102,240
103,1631 104,801 105,9999 106,921
107,30 169,50 171,50 184,781
185,70 186,771 187,60
##END=
