##TITLE=Acetic acid, dimethoxy-, methyl ester
##JCAMP-DX=4.24
##DATA TYPE=MASS SPECTRUM
##ORIGIN=Japan AIST/NIMC Database- Spectrum MS-NW-5708
##OWNER=NIST Mass Spectrometry Data Center
Collection (C) 2014 copyright by the U.S. Secretary of Commerce
on behalf of the United States of America. All rights reserved.
##CAS REGISTRY NO=89-91-8
##$NIST MASS SPEC NO=231223
##MOLFORM=C5 H10 O4
##MW=134
##$NIST SOURCE=MSDC
##XUNITS=M/Z
##YUNITS=RELATIVE INTENSITY
##XFACTOR=1
##YFACTOR=1
##FIRSTX=13
##LASTX=133
##FIRSTY=20
##MAXX=133
##MINX=13
##MAXY=9999
##MINY=10
##NPOINTS=44
##PEAK TABLE=(XY..XY)
13,20 14,70 15,1729 16,50
17,10 18,30 27,20 28,299
29,1549 30,139 31,2209 32,169
33,149 41,30 42,30 43,149
44,279 45,279 46,10 47,2469
48,70 49,10 56,10 58,10
59,409 60,20 61,139 72,119
73,10 74,20 75,9999 76,359
77,60 79,10 83,10 87,10
88,10 89,50 91,10 92,10
103,749 104,60 105,10 133,20
##END=
