##TITLE=4-Isopropylphenyl isothiocyanate
##JCAMP-DX=4.24
##DATA TYPE=MASS SPECTRUM
##ORIGIN=NIST Mass Spectrometry Data Center, 1994
##OWNER=NIST Mass Spectrometry Data Center
Collection (C) 2014 copyright by the U.S. Secretary of Commerce
on behalf of the United States of America. All rights reserved.
##CAS REGISTRY NO=89007-45-4
##$NIST MASS SPEC NO=134491
##MOLFORM=C10 H11 N S
##MW=177
##$NIST SOURCE=MSDC
##XUNITS=M/Z
##YUNITS=RELATIVE INTENSITY
##XFACTOR=1
##YFACTOR=1
##FIRSTX=14
##LASTX=179
##FIRSTY=24
##MAXX=179
##MINX=14
##MAXY=9999
##MINY=18
##NPOINTS=104
##PEAK TABLE=(XY..XY)
14,24 15,564 18,72 26,208
27,1911 29,177 32,64 37,183
38,459 39,2173 40,149 41,1028
42,98 43,132 44,240 45,335
50,1262 51,2246 52,571 53,264
54,75 56,35 57,41 58,203
59,185 60,62 61,190 62,505
63,1373 64,515 65,534 66,150
67,169 69,18 70,343 71,69
72,110 73,105 74,643 75,793
76,735 77,3531 78,1524 79,258
81,280 82,95 83,85 84,112
85,47 86,101 87,160 88,205
89,606 90,578 91,913 92,93
93,35 94,49 95,62 96,105
98,55 99,41 100,60 101,372
102,1032 103,1605 104,2840 105,268
107,119 108,104 109,141 114,65
115,344 116,318 117,326 118,503
119,456 120,87 121,138 122,82
128,5971 129,874 130,430 131,76
132,36 133,105 134,181 135,583
136,242 137,41 145,72 146,59
148,501 149,59 150,43 159,48
160,159 162,9999 163,1107 164,505
165,49 177,5974 178,744 179,307
##END=
