##TITLE=Orcinol, 2TMS derivative
##JCAMP-DX=4.24
##DATA TYPE=MASS SPECTRUM
##ORIGIN=NIST Mass Spectrometry Data Center
##OWNER=NIST Mass Spectrometry Data Center
Collection (C) 2014 copyright by the U.S. Secretary of Commerce
on behalf of the United States of America. All rights reserved.
##CAS REGISTRY NO=89267-67-4
##$NIST MASS SPEC NO=352829
##MOLFORM=C13 H24 O2 Si2
##MW=268
##$NIST SOURCE=MSDC
##XUNITS=M/Z
##YUNITS=RELATIVE INTENSITY
##XFACTOR=1
##YFACTOR=1
##FIRSTX=15
##LASTX=273
##FIRSTY=10
##MAXX=273
##MINX=15
##MAXY=9999
##MINY=10
##NPOINTS=184
##PEAK TABLE=(XY..XY)
15,10 27,10 29,20 31,10
39,40 41,10 42,10 43,220
44,80 45,751 46,50 47,80
50,20 51,50 52,60 53,60
54,10 55,60 56,10 57,50
58,90 59,240 60,30 61,90
62,20 63,60 64,20 65,50
66,40 67,60 68,50 69,80
70,20 71,50 72,60 73,4074
74,380 75,731 76,70 77,290
78,150 79,220 80,20 81,50
82,120 83,180 84,30 85,90
86,10 87,30 88,20 89,130
90,40 91,220 92,30 93,90
94,10 95,120 96,50 97,130
98,20 99,110 100,10 101,30
102,30 103,270 104,340 105,661
106,200 107,130 108,20 109,170
110,40 111,270 112,150 113,40
115,100 116,20 117,180 119,2252
121,180 122,30 123,90 124,40
125,60 127,30 128,10 129,40
130,10 131,280 132,50 133,1902
134,280 135,370 136,90 137,90
138,10 139,10 141,20 143,100
144,20 145,60 147,1451 148,250
149,420 150,70 151,120 152,20
153,20 155,30 156,10 157,80
158,10 159,40 160,10 161,90
162,30 163,360 164,80 165,120
166,20 167,180 168,30 169,30
170,10 171,50 172,10 173,20
175,30 176,10 177,220 178,70
179,350 180,220 181,120 182,20
183,20 189,10 191,20 192,10
193,180 194,80 195,90 196,20
197,10 205,10 207,70 208,20
209,90 210,20 211,20 219,20
220,10 221,30 222,10 223,90
224,20 225,10 233,20 234,10
235,50 236,20 237,430 238,110
239,50 240,10 247,10 249,20
250,10 251,160 253,9999 254,2462
255,1001 256,160 257,30 265,10
266,20 267,200 268,8247 269,2102
270,841 271,130 272,20 273,10
##END=
