##TITLE=2-(1-Naphthyl)-5-phenyl-1,3,4-oxadiazole
##JCAMP-DX=4.24
##DATA TYPE=MASS SPECTRUM
##ORIGIN=NIST Mass Spectrometry Data Center, 1994
##OWNER=NIST Mass Spectrometry Data Center
Collection (C) 2014 copyright by the U.S. Secretary of Commerce
on behalf of the United States of America. All rights reserved.
##CAS REGISTRY NO=897-18-7
##$NIST MASS SPEC NO=136433
##MOLFORM=C18 H12 N2 O
##MW=272
##$NIST SOURCE=MSDC
##XUNITS=M/Z
##YUNITS=RELATIVE INTENSITY
##XFACTOR=1
##YFACTOR=1
##FIRSTX=16
##LASTX=274
##FIRSTY=27
##MAXX=274
##MINX=16
##MAXY=9999
##MINY=27
##NPOINTS=62
##PEAK TABLE=(XY..XY)
16,27 17,204 18,210 38,144
39,615 40,48 44,56 50,477
51,927 52,111 61,60 62,271
63,1022 64,169 65,74 74,134
75,396 76,444 77,2259 78,166
86,134 87,236 88,146 89,480
90,80 98,76 99,123 100,81
101,270 102,62 103,230 104,62
105,1604 106,132 113,306 114,181
115,35 125,122 126,744 127,3248
128,344 136,147 137,63 138,85
139,477 140,351 141,94 152,68
153,346 155,2821 156,324 169,258
189,113 213,249 215,7070 216,1412
217,136 243,179 244,144 272,9999
273,2060 274,203
##END=
