##TITLE=2,6-Dimethyldibenzothiophene
##JCAMP-DX=4.24
##DATA TYPE=MASS SPECTRUM
##ORIGIN=Organic Synthesis Lab, MSU, Moscow.TRC 339
##OWNER=NIST Mass Spectrometry Data Center
Collection (C) 2014 copyright by the U.S. Secretary of Commerce
on behalf of the United States of America. All rights reserved.
##CAS REGISTRY NO=89816-75-1
##$NIST MASS SPEC NO=326057
##MOLFORM=C14 H12 S
##MW=212
##$NIST SOURCE=MSDC
##XUNITS=M/Z
##YUNITS=RELATIVE INTENSITY
##XFACTOR=1
##YFACTOR=1
##FIRSTX=40
##LASTX=214
##FIRSTY=310
##MAXX=214
##MINX=40
##MAXY=9999
##MINY=30
##NPOINTS=97
##PEAK TABLE=(XY..XY)
40,310 44,60 45,50 51,40
62,60 63,150 65,40 67,50
69,210 71,40 74,90 75,120
76,180 77,140 78,40 79,410
80,70 81,110 82,140 83,70
84,40 87,120 88,90 89,160
91,260 92,1101 94,30 95,120
101,40 102,60 103,80 104,781
105,2362 106,821 108,30 109,80
110,40 111,40 113,80 114,50
115,170 117,40 121,50 122,30
123,40 125,30 126,100 127,120
128,70 134,30 135,30 137,80
138,70 139,290 140,40 141,50
145,60 147,40 149,50 150,200
151,270 152,871 153,170 158,60
161,30 162,40 163,260 164,210
165,801 166,180 167,70 169,80
170,80 171,260 172,40 175,30
176,230 177,150 178,791 179,390
180,50 182,30 183,60 184,340
185,160 186,30 195,581 196,210
197,1922 198,290 199,110 208,611
209,440 211,5275 212,9999 213,1742
214,520
##END=
