##TITLE=3-Ethyldibenzothiophene
##JCAMP-DX=4.24
##DATA TYPE=MASS SPECTRUM
##ORIGIN=Organic Synthesis Lab, MSU, Moscow.TRC 344
##OWNER=NIST Mass Spectrometry Data Center
Collection (C) 2014 copyright by the U.S. Secretary of Commerce
on behalf of the United States of America. All rights reserved.
##CAS REGISTRY NO=89817-03-8
##$NIST MASS SPEC NO=326061
##MOLFORM=C14 H12 S
##MW=212
##$NIST SOURCE=MSDC
##XUNITS=M/Z
##YUNITS=RELATIVE INTENSITY
##XFACTOR=1
##YFACTOR=1
##FIRSTX=45
##LASTX=214
##FIRSTY=50
##MAXX=214
##MINX=45
##MAXY=9999
##MINY=20
##NPOINTS=98
##PEAK TABLE=(XY..XY)
45,50 50,30 51,40 62,50
63,120 65,30 69,180 70,50
71,30 74,130 75,120 76,240
77,120 78,50 79,160 81,70
82,120 87,120 88,90 89,170
90,30 91,190 92,500 93,160
94,20 95,40 100,40 101,50
102,60 103,80 104,350 105,250
106,581 108,30 109,20 110,50
111,40 113,110 114,110 115,140
117,50 119,20 121,40 122,30
123,30 126,110 127,180 128,60
134,100 135,20 137,60 138,120
139,581 140,120 141,30 145,80
147,40 150,210 151,330 152,1271
153,500 154,60 158,120 159,20
161,20 162,60 163,280 164,220
165,1101 166,150 167,30 169,110
170,120 171,450 172,70 173,30
176,110 177,50 178,300 179,50
182,100 183,120 184,791 185,320
186,70 195,500 197,9999 198,1401
199,510 200,70 206,20 207,40
208,370 209,200 210,130 212,5615
213,881 214,270
##END=
