##TITLE=N,N'-Dimethyl-5-pyrrolidinone-3-carboxamide
##JCAMP-DX=4.24
##DATA TYPE=MASS SPECTRUM
##ORIGIN=NIST Mass Spectrometry Data Center, 1994
##OWNER=NIST Mass Spectrometry Data Center
Collection (C) 2014 copyright by the U.S. Secretary of Commerce
on behalf of the United States of America. All rights reserved.
##CAS REGISTRY NO=89851-99-0
##$NIST MASS SPEC NO=135524
##MOLFORM=C7 H12 N2 O2
##MW=156
##$NIST SOURCE=MSDC
##XUNITS=M/Z
##YUNITS=RELATIVE INTENSITY
##XFACTOR=1
##YFACTOR=1
##FIRSTX=15
##LASTX=157
##FIRSTY=1332
##MAXX=157
##MINX=15
##MAXY=9999
##MINY=62
##NPOINTS=44
##PEAK TABLE=(XY..XY)
15,1332 26,252 27,1138 28,593
29,252 30,914 38,191 39,2306
40,632 41,3810 42,4657 43,608
44,2357 52,174 53,282 54,465
55,2369 56,569 57,308 58,3237
60,286 66,134 68,1767 69,1724
70,5676 71,381 82,301 83,370
84,3446 85,763 86,784 96,395
97,2557 98,9999 99,902 100,187
113,265 114,270 124,325 126,361
128,1567 129,122 156,731 157,62
##END=
