##TITLE=Benzenamine, 2-methoxy-
##JCAMP-DX=4.24
##DATA TYPE=MASS SPECTRUM
##ORIGIN=NIST Mass Spectrometry Data Center, 1998.
##OWNER=NIST Mass Spectrometry Data Center
Collection (C) 2014 copyright by the U.S. Secretary of Commerce
on behalf of the United States of America. All rights reserved.
##CAS REGISTRY NO=90-04-0
##$NIST MASS SPEC NO=290951
##MOLFORM=C7 H9 N O
##MW=123
##$NIST SOURCE=MSDC
##XUNITS=M/Z
##YUNITS=RELATIVE INTENSITY
##XFACTOR=1
##YFACTOR=1
##FIRSTX=14
##LASTX=125
##FIRSTY=10
##MAXX=125
##MINX=14
##MAXY=9999
##MINY=10
##NPOINTS=68
##PEAK TABLE=(XY..XY)
14,10 15,140 25,10 26,80
27,260 28,270 29,110 30,60
31,20 37,130 38,320 39,840
40,140 41,300 42,90 43,10
44,10 45,10 47,10 48,10
49,80 50,510 51,870 52,1730
53,2490 54,500 55,50 56,10
60,10 61,120 62,240 63,490
64,270 65,1290 66,280 67,70
68,20 73,10 74,70 75,70
76,130 77,250 78,340 79,260
80,9469 81,630 82,20 87,10
88,10 89,20 90,40 91,140
92,510 93,210 94,220 95,50
104,80 105,60 106,30 107,30
108,9999 109,740 110,40 120,30
121,10 123,8099 124,680 125,40
##END=
