##TITLE=Benzaldehyde, 2-hydroxy-
##JCAMP-DX=4.24
##DATA TYPE=MASS SPECTRUM
##ORIGIN=Japan AIST/NIMC Database- Spectrum MS-NW-1746
##OWNER=NIST Mass Spectrometry Data Center
Collection (C) 2014 copyright by the U.S. Secretary of Commerce
on behalf of the United States of America. All rights reserved.
##CAS REGISTRY NO=90-02-8
##$NIST MASS SPEC NO=228529
##MOLFORM=C7 H6 O2
##MW=122
##$NIST SOURCE=MSDC
##XUNITS=M/Z
##YUNITS=RELATIVE INTENSITY
##XFACTOR=1
##YFACTOR=1
##FIRSTX=13
##LASTX=124
##FIRSTY=10
##MAXX=124
##MINX=13
##MAXY=9999
##MINY=10
##NPOINTS=70
##PEAK TABLE=(XY..XY)
13,10 14,30 15,40 17,20
18,70 25,40 26,209 27,399
28,319 29,689 30,10 31,109
32,20 33,20 36,60 37,629
38,1149 39,4109 40,819 41,60
42,109 43,80 44,30 45,20
46,99 47,319 48,20 49,179
50,1089 51,689 52,90 53,789
54,60 55,329 56,10 57,10
60,70 61,459 62,619 63,1199
64,529 65,4159 66,1359 67,129
68,80 69,20 71,20 72,10
73,90 74,399 75,249 76,2459
77,299 78,20 79,50 87,10
90,10 91,30 92,259 93,2479
94,959 95,60 104,1569 105,129
106,10 120,30 121,9339 122,9999
123,769 124,70
##END=
