##TITLE=1,2,3-Benzotriazin-4(1H)-one
##JCAMP-DX=4.24
##DATA TYPE=MASS SPECTRUM
##ORIGIN=Japan AIST/NIMC Database- Spectrum MS-NW-2573
##OWNER=NIST Mass Spectrometry Data Center
Collection (C) 2014 copyright by the U.S. Secretary of Commerce
on behalf of the United States of America. All rights reserved.
##CAS REGISTRY NO=90-16-4
##$NIST MASS SPEC NO=229941
##MOLFORM=C7 H5 N3 O
##MW=147
##$NIST SOURCE=MSDC
##XUNITS=M/Z
##YUNITS=RELATIVE INTENSITY
##XFACTOR=1
##YFACTOR=1
##FIRSTX=12
##LASTX=149
##FIRSTY=10
##MAXX=149
##MINX=12
##MAXY=9999
##MINY=10
##NPOINTS=66
##PEAK TABLE=(XY..XY)
12,10 14,10 15,10 16,10
24,10 25,50 26,139 27,149
28,299 29,329 31,50 36,99
37,909 38,1269 39,1469 40,209
41,629 42,20 43,90 44,70
45,139 46,10 48,40 49,299
50,5449 51,619 52,1019 53,259
54,10 59,10 60,70 61,309
62,539 63,2549 64,5089 65,949
66,80 67,20 72,30 73,239
74,1169 75,959 76,7579 77,549
78,20 86,30 87,60 88,90
89,90 90,1609 91,3859 92,8099
93,539 94,30 99,20 100,10
103,60 104,2469 105,199 118,70
119,549 120,50 121,10 147,9999
148,879 149,50
##END=
