##TITLE=Benzeneacetamide, .alpha.-ethyl-
##JCAMP-DX=4.24
##DATA TYPE=MASS SPECTRUM
##ORIGIN=FLO 0030
##OWNER=NIST Mass Spectrometry Data Center
Collection (C) 2014 copyright by the U.S. Secretary of Commerce
on behalf of the United States of America. All rights reserved.
##CAS REGISTRY NO=90-26-6
##$NIST MASS SPEC NO=6001
##MOLFORM=C10 H13 N O
##MW=163
##$NIST SOURCE=MSDC
##XUNITS=M/Z
##YUNITS=RELATIVE INTENSITY
##XFACTOR=1
##YFACTOR=1
##FIRSTX=12
##LASTX=166
##FIRSTY=20
##MAXX=166
##MINX=12
##MAXY=9999
##MINY=10
##NPOINTS=126
##PEAK TABLE=(XY..XY)
12,20 13,20 14,170 15,260
16,130 25,20 26,150 27,530
29,400 30,260 31,400 36,10
37,100 38,260 39,1321 40,250
41,1722 42,260 43,400 44,1061
45,160 46,30 47,10 48,10
49,40 50,400 51,921 52,400
53,260 54,80 55,260 56,110
57,230 58,70 59,100 60,60
61,130 62,260 63,530 64,260
65,791 66,170 67,90 68,50
69,220 70,100 71,110 72,80
73,60 74,250 75,200 76,250
77,1061 78,1191 79,661 80,90
81,70 82,50 83,110 84,50
85,80 86,170 87,100 88,50
89,530 90,400 91,9999 92,1581
93,230 94,50 95,70 96,40
97,100 98,40 99,30 100,10
101,50 102,240 103,530 104,530
105,661 106,400 107,160 108,40
109,50 110,30 111,70 112,40
113,50 114,30 115,530 116,240
117,400 118,400 119,2112 120,1451
121,260 122,30 123,30 124,20
125,40 126,20 127,20 128,20
129,10 130,20 131,160 132,30
133,50 134,60 135,40 136,400
137,60 144,10 145,20 146,40
147,60 148,400 149,140 160,10
161,20 162,100 163,1451 164,400
165,70 166,10
##END=
