##TITLE=Xanthoxylin
##JCAMP-DX=4.24
##DATA TYPE=MASS SPECTRUM
##ORIGIN=NIST Mass Spectrometry Data Center
##OWNER=NIST Mass Spectrometry Data Center
Collection (C) 2014 copyright by the U.S. Secretary of Commerce
on behalf of the United States of America. All rights reserved.
##CAS REGISTRY NO=90-24-4
##$NIST MASS SPEC NO=413191
##MOLFORM=C10 H12 O4
##MW=196
##$NIST SOURCE=MSDC
##XUNITS=M/Z
##YUNITS=RELATIVE INTENSITY
##XFACTOR=1
##YFACTOR=1
##FIRSTX=38
##LASTX=197
##FIRSTY=70
##MAXX=197
##MINX=38
##MAXY=9999
##MINY=70
##NPOINTS=47
##PEAK TABLE=(XY..XY)
38,70 39,200 43,641 50,150
51,360 52,210 53,430 59,100
62,140 63,200 66,260 67,210
68,120 69,811 77,280 79,290
80,190 82,130 84,120 92,200
93,250 95,971 96,100 108,160
110,410 111,170 122,100 123,380
124,90 125,210 135,180 137,190
138,771 139,190 151,250 152,90
153,190 166,1001 167,180 177,70
178,380 179,190 181,9999 182,1001
183,140 196,2412 197,270
##END=
