##TITLE=Hymecromone
##JCAMP-DX=4.24
##DATA TYPE=MASS SPECTRUM
##ORIGIN=NIST Mass Spectrometry Data Center, 1998.
##OWNER=NIST Mass Spectrometry Data Center
Collection (C) 2014 copyright by the U.S. Secretary of Commerce
on behalf of the United States of America. All rights reserved.
##CAS REGISTRY NO=90-33-5
##$NIST MASS SPEC NO=290706
##MOLFORM=C10 H8 O3
##MW=176
##$NIST SOURCE=MSDC
##XUNITS=M/Z
##YUNITS=RELATIVE INTENSITY
##XFACTOR=1
##YFACTOR=1
##FIRSTX=26
##LASTX=177
##FIRSTY=40
##MAXX=177
##MINX=26
##MAXY=9999
##MINY=10
##NPOINTS=66
##PEAK TABLE=(XY..XY)
26,40 27,200 29,90 37,90
38,290 39,1190 40,120 41,260
42,140 43,120 44,40 45,200
46,80 49,70 50,840 51,1510
52,520 53,600 54,10 55,230
59,130 60,20 61,160 62,440
63,1020 64,260 65,1380 66,220
67,30 68,10 69,750 73,70
74,960 75,230 76,180 77,920
78,330 79,330 85,20 86,50
87,30 88,20 89,450 90,140
91,2360 92,290 93,30 94,110
101,60 102,80 103,60 105,190
106,20 107,20 118,140 119,1170
120,1510 121,130 131,220 137,20
147,7539 148,9999 149,990 150,30
176,7139 177,730
##END=
