##TITLE=2-Aminobiphenyl
##JCAMP-DX=4.24
##DATA TYPE=MASS SPECTRUM
##ORIGIN=NIST Mass Spectrometry Data Center
##OWNER=NIST Mass Spectrometry Data Center
Collection (C) 2014 copyright by the U.S. Secretary of Commerce
on behalf of the United States of America. All rights reserved.
##CAS REGISTRY NO=90-41-5
##$NIST MASS SPEC NO=353132
##MOLFORM=C12 H11 N
##MW=169
##$NIST SOURCE=MSDC
##XUNITS=M/Z
##YUNITS=RELATIVE INTENSITY
##XFACTOR=1
##YFACTOR=1
##FIRSTX=15
##LASTX=171
##FIRSTY=20
##MAXX=171
##MINX=15
##MAXY=9999
##MINY=10
##NPOINTS=103
##PEAK TABLE=(XY..XY)
15,20 17,10 18,10 26,30
27,120 28,160 29,10 30,10
37,30 38,110 39,440 40,60
41,110 42,30 43,10 49,10
50,230 51,400 52,230 53,50
54,50 55,10 57,60 58,120
61,40 62,200 63,510 64,150
65,260 66,80 67,30 69,110
70,210 71,270 73,10 74,220
75,230 76,240 77,410 78,120
79,10 80,10 82,90 83,1231
84,280 86,120 87,180 88,130
89,440 90,170 91,120 92,20
93,30 97,10 98,70 99,50
100,40 101,100 102,250 103,100
104,40 109,10 110,30 111,30
112,20 113,200 114,190 115,1121
116,210 117,110 118,10 122,10
124,10 125,30 126,160 127,230
128,230 129,60 130,110 131,10
137,40 138,60 139,871 140,480
141,460 142,130 143,330 144,40
149,10 150,110 151,200 152,190
153,110 154,400 155,50 164,40
165,30 166,821 167,4454 168,9449
169,9999 170,1261 171,70
##END=
