##TITLE=Xanthone
##JCAMP-DX=4.24
##DATA TYPE=MASS SPECTRUM
##ORIGIN=Japan AIST/NIMC Database- Spectrum MS-NW-8148
##OWNER=NIST Mass Spectrometry Data Center
Collection (C) 2014 copyright by the U.S. Secretary of Commerce
on behalf of the United States of America. All rights reserved.
##CAS REGISTRY NO=90-47-1
##$NIST MASS SPEC NO=228197
##MOLFORM=C13 H8 O2
##MW=196
##$NIST SOURCE=MSDC
##XUNITS=M/Z
##YUNITS=RELATIVE INTENSITY
##XFACTOR=1
##YFACTOR=1
##FIRSTX=26
##LASTX=198
##FIRSTY=10
##MAXX=198
##MINX=26
##MAXY=9999
##MINY=10
##NPOINTS=71
##PEAK TABLE=(XY..XY)
26,10 27,20 28,80 37,50
38,169 39,229 40,10 49,20
50,429 51,149 52,10 53,99
55,20 56,20 57,60 61,60
62,199 63,659 64,479 65,129
66,20 69,569 70,419 71,50
73,30 74,279 75,309 76,249
77,70 83,30 84,789 85,30
86,70 87,119 88,109 89,159
90,20 91,50 92,349 93,50
97,60 98,199 99,20 101,40
102,10 104,10 110,20 111,20
112,20 113,229 114,289 115,40
118,10 119,40 120,20 121,20
129,10 137,40 138,90 139,2739
140,589 141,50 142,20 167,109
168,4159 169,549 170,40 195,309
196,9999 197,1419 198,129
##END=
