##TITLE=Anthrone
##JCAMP-DX=4.24
##DATA TYPE=MASS SPECTRUM
##ORIGIN=Japan AIST/NIMC Database- Spectrum MS-NW- 296
##OWNER=NIST Mass Spectrometry Data Center
Collection (C) 2014 copyright by the U.S. Secretary of Commerce
on behalf of the United States of America. All rights reserved.
##CAS REGISTRY NO=90-44-8
##$NIST MASS SPEC NO=228511
##MOLFORM=C14 H10 O
##MW=194
##$NIST SOURCE=MSDC
##XUNITS=M/Z
##YUNITS=RELATIVE INTENSITY
##XFACTOR=1
##YFACTOR=1
##FIRSTX=27
##LASTX=196
##FIRSTY=20
##MAXX=196
##MINX=27
##MAXY=9999
##MINY=10
##NPOINTS=66
##PEAK TABLE=(XY..XY)
27,20 38,30 39,119 50,109
51,119 52,20 55,10 61,30
62,119 63,279 64,40 65,40
69,239 70,50 73,10 74,119
75,119 76,80 77,50 81,219
82,709 83,249 84,40 85,30
86,90 87,129 88,60 89,169
90,30 91,40 96,60 97,179
98,50 99,40 100,20 101,20
102,20 110,30 111,40 112,10
113,80 114,30 115,209 116,20
122,10 126,50 127,10 137,60
138,60 139,419 140,60 150,20
151,20 152,30 161,20 162,80
163,699 164,589 165,5349 166,1029
167,90 192,10 193,889 194,9999
195,1519 196,129
##END=
