##TITLE=Diethylpropion
##JCAMP-DX=4.24
##DATA TYPE=MASS SPECTRUM
##ORIGIN=AAFS Toxicology Section MS DB Committee, U. Alberta, Canada
##OWNER=NIST Mass Spectrometry Data Center
Collection (C) 2014 copyright by the U.S. Secretary of Commerce
on behalf of the United States of America. All rights reserved.
##CAS REGISTRY NO=90-84-6
##$NIST MASS SPEC NO=246177
##MOLFORM=C13 H19 N O
##MW=205
##$NIST SOURCE=MSDC
##XUNITS=M/Z
##YUNITS=RELATIVE INTENSITY
##XFACTOR=1
##YFACTOR=1
##FIRSTX=29
##LASTX=205
##FIRSTY=90
##MAXX=205
##MINX=29
##MAXY=9999
##MINY=10
##NPOINTS=81
##PEAK TABLE=(XY..XY)
29,90 30,10 39,10 40,10
41,50 42,220 43,20 44,530
45,10 50,30 51,130 52,10
53,10 54,20 55,30 56,170
57,20 58,10 63,10 65,10
68,20 69,10 70,240 71,50
72,850 73,30 74,10 75,10
76,20 77,530 78,50 79,30
80,10 81,10 82,10 84,30
85,10 87,10 89,10 91,80
92,10 95,10 96,10 97,10
98,270 99,20 100,9999 101,680
102,20 103,20 104,10 105,270
106,20 115,20 116,10 117,20
118,10 119,10 128,10 130,10
131,30 132,60 133,30 145,10
146,20 147,10 158,10 160,30
161,10 162,10 174,20 175,10
176,10 186,10 188,60 189,10
190,10 202,20 203,110 204,20
205,10
##END=
