##TITLE=D-Gluconic acid, .delta.-lactone
##JCAMP-DX=4.24
##DATA TYPE=MASS SPECTRUM
##ORIGIN=Japan AIST/NIMC Database- Spectrum MS-NW-1670
##OWNER=NIST Mass Spectrometry Data Center
Collection (C) 2014 copyright by the U.S. Secretary of Commerce
on behalf of the United States of America. All rights reserved.
##CAS REGISTRY NO=90-80-2
##$NIST MASS SPEC NO=229315
##MOLFORM=C6 H10 O6
##MW=178
##$NIST SOURCE=MSDC
##XUNITS=M/Z
##YUNITS=RELATIVE INTENSITY
##XFACTOR=1
##YFACTOR=1
##FIRSTX=12
##LASTX=179
##FIRSTY=10
##MAXX=179
##MINX=12
##MAXY=9999
##MINY=10
##NPOINTS=116
##PEAK TABLE=(XY..XY)
12,10 13,30 14,269 15,2099
16,30 17,159 18,799 19,1209
25,30 26,349 27,1599 28,719
29,3479 30,1029 31,4389 32,169
33,30 36,10 37,60 38,109
39,699 40,159 41,939 42,1879
43,5839 44,3279 45,2239 46,70
47,299 49,30 50,40 51,50
52,40 53,99 54,499 55,1429
56,1019 57,2479 58,1359 59,409
60,5179 61,9999 62,309 63,60
66,10 67,40 68,129 69,729
70,499 71,3619 72,2329 73,9539
74,949 75,139 76,1869 77,60
78,10 79,50 80,20 81,60
82,40 83,429 84,249 85,2949
86,599 87,209 88,70 89,569
90,199 91,579 92,20 93,10
94,10 95,30 96,60 97,269
98,149 99,50 100,1259 101,499
102,99 103,2159 104,109 105,30
107,20 109,10 110,10 111,20
112,129 113,80 114,349 115,40
116,30 117,10 118,599 119,559
120,40 121,60 123,10 124,10
125,10 126,10 129,40 130,10
131,20 132,50 133,50 142,319
143,30 147,579 148,40 149,50
160,1229 161,119 162,10 179,10
##END=
