##TITLE=DL-Ephedrine
##JCAMP-DX=4.24
##DATA TYPE=MASS SPECTRUM
##ORIGIN=J. D. HENION, CORNELL UNIVERSITY, ITHACA, NY, USA
##OWNER=NIST Mass Spectrometry Data Center
Collection (C) 2014 copyright by the U.S. Secretary of Commerce
on behalf of the United States of America. All rights reserved.
##CAS REGISTRY NO=90-81-3
##$NIST MASS SPEC NO=64174
##MOLFORM=C10 H15 N O
##MW=165
##$NIST SOURCE=MSDC
##XUNITS=M/Z
##YUNITS=RELATIVE INTENSITY
##XFACTOR=1
##YFACTOR=1
##FIRSTX=39
##LASTX=105
##FIRSTY=220
##MAXX=105
##MINX=39
##MAXY=9999
##MINY=110
##NPOINTS=16
##PEAK TABLE=(XY..XY)
39,220 41,140 42,480 43,340
44,220 50,160 51,410 52,110
56,560 58,9999 59,430 71,170
77,730 78,160 79,310 105,190
##END=
