##TITLE=4,4'-Dimethoxybenzophenone
##JCAMP-DX=4.24
##DATA TYPE=MASS SPECTRUM
##ORIGIN=Japan AIST/NIMC Database- Spectrum MS-NW-2667
##OWNER=NIST Mass Spectrometry Data Center
Collection (C) 2014 copyright by the U.S. Secretary of Commerce
on behalf of the United States of America. All rights reserved.
##CAS REGISTRY NO=90-96-0
##$NIST MASS SPEC NO=231600
##MOLFORM=C15 H14 O3
##MW=242
##$NIST SOURCE=MSDC
##XUNITS=M/Z
##YUNITS=RELATIVE INTENSITY
##XFACTOR=1
##YFACTOR=1
##FIRSTX=15
##LASTX=244
##FIRSTY=70
##MAXX=244
##MINX=15
##MAXY=9999
##MINY=10
##NPOINTS=79
##PEAK TABLE=(XY..XY)
15,70 18,20 27,20 28,80
29,10 38,60 39,60 43,10
50,90 51,80 53,30 62,40
63,209 64,359 65,40 66,10
74,30 75,50 76,109 77,1289
78,99 79,80 89,10 91,10
92,849 93,60 101,10 102,20
104,30 105,10 106,30 107,899
108,60 113,10 115,10 119,20
120,10 121,20 126,10 127,40
128,109 129,10 133,10 134,20
135,9999 136,889 137,80 138,10
139,50 140,20 141,10 152,10
155,30 156,60 157,10 168,40
169,20 171,129 172,20 183,20
184,10 196,30 197,10 198,30
199,189 200,30 210,20 211,1149
212,179 213,20 214,40 225,50
226,30 227,129 228,40 241,229
242,2849 243,479 244,60
##END=
