##TITLE=Methanone, bis[4-(dimethylamino)phenyl]-
##JCAMP-DX=4.24
##DATA TYPE=MASS SPECTRUM
##ORIGIN=NIST Mass Spectrometry Data Center, 1998.
##OWNER=NIST Mass Spectrometry Data Center
Collection (C) 2014 copyright by the U.S. Secretary of Commerce
on behalf of the United States of America. All rights reserved.
##CAS REGISTRY NO=90-94-8
##$NIST MASS SPEC NO=290948
##MOLFORM=C17 H20 N2 O
##MW=268
##$NIST SOURCE=MSDC
##XUNITS=M/Z
##YUNITS=RELATIVE INTENSITY
##XFACTOR=1
##YFACTOR=1
##FIRSTX=15
##LASTX=271
##FIRSTY=30
##MAXX=271
##MINX=15
##MAXY=9999
##MINY=10
##NPOINTS=144
##PEAK TABLE=(XY..XY)
15,30 27,30 29,10 38,20
39,110 40,10 41,50 42,1070
43,70 44,110 50,180 51,270
52,100 53,70 54,30 55,20
58,30 59,30 62,30 63,250
64,90 65,150 66,60 67,20
68,60 69,60 70,10 75,120
76,370 77,1400 78,620 79,550
80,120 81,30 82,20 83,10
84,20 87,10 88,20 89,80
90,220 91,600 92,290 93,120
94,50 95,10 97,60 99,10
101,20 102,80 103,200 104,1120
105,1140 106,100 111,200 113,30
114,10 115,40 116,20 117,130
118,560 119,1860 120,1910 124,10
125,140 126,70 127,30 128,30
129,10 130,10 132,660 133,870
138,10 139,80 140,50 141,20
142,10 144,10 146,30 148,9999
149,1010 150,100 151,100 152,310
153,130 154,50 155,10 157,10
163,10 164,30 165,60 166,70
167,40 168,40 169,10 177,10
178,20 179,30 180,110 181,80
182,30 183,30 184,10 192,10
193,30 194,60 195,90 196,90
197,40 198,10 206,10 207,40
208,110 209,110 210,60 211,20
212,10 220,10 221,10 222,60
223,280 224,2880 225,600 226,60
235,60 236,50 237,50 238,20
239,60 240,70 241,10 249,20
250,10 251,1350 252,300 253,170
254,40 265,20 266,60 267,2160
268,6379 269,1170 270,120 271,10
##END=
