##TITLE=Benzoic acid, 4-fluoro-, 2-naphtyl ester
##JCAMP-DX=4.24
##DATA TYPE=MASS SPECTRUM
##ORIGIN=Zaikin V.G., TIPS RAS, Moscow, Russia
##OWNER=NIST Mass Spectrometry Data Center
Collection (C) 2014 copyright by the U.S. Secretary of Commerce
on behalf of the United States of America. All rights reserved.
##CAS REGISTRY NO=90172-41-1
##$NIST MASS SPEC NO=307452
##MOLFORM=C17 H11 F O2
##MW=266
##$NIST SOURCE=MSDC
##XUNITS=M/Z
##YUNITS=RELATIVE INTENSITY
##XFACTOR=1
##YFACTOR=1
##FIRSTX=28
##LASTX=267
##FIRSTY=20
##MAXX=267
##MINX=28
##MAXY=9999
##MINY=20
##NPOINTS=33
##PEAK TABLE=(XY..XY)
28,20 39,70 44,50 50,70
51,70 62,50 63,140 65,80
69,40 74,60 75,450 76,50
77,30 87,30 88,40 89,160
91,40 94,100 95,2572 96,190
113,50 114,60 115,761 116,90
123,9999 124,791 125,40 126,30
127,40 144,100 186,50 266,1591
267,290
##END=
