##TITLE=Benzoic acid, 4-nitro-, anhydride
##JCAMP-DX=4.24
##DATA TYPE=MASS SPECTRUM
##ORIGIN=LAC, NIDDK, NIH, Bethesda, MD 20892
##OWNER=NIST Mass Spectrometry Data Center
Collection (C) 2014 copyright by the U.S. Secretary of Commerce
on behalf of the United States of America. All rights reserved.
##CAS REGISTRY NO=902-47-6
##$NIST MASS SPEC NO=129998
##MOLFORM=C14 H8 N2 O7
##MW=316
##$NIST SOURCE=MSDC
##XUNITS=M/Z
##YUNITS=RELATIVE INTENSITY
##XFACTOR=1
##YFACTOR=1
##FIRSTX=45
##LASTX=316
##FIRSTY=4446
##MAXX=316
##MINX=45
##MAXY=9999
##MINY=96
##NPOINTS=39
##PEAK TABLE=(XY..XY)
45,4446 46,9999 49,302 50,4884
51,1240 53,946 55,106 59,681
61,194 62,342 63,635 64,388
65,1035 66,125 73,242 74,1117
75,883 76,1463 77,294 81,187
92,865 103,496 104,1261 105,121
109,327 119,256 120,200 121,158
149,156 150,558 166,204 167,133
180,148 181,331 194,362 195,96
270,277 271,98 316,198
##END=
