##TITLE=1,2-Dimethoxy-3-chloro-benzene
##JCAMP-DX=4.24
##DATA TYPE=MASS SPECTRUM
##ORIGIN=Japan AIST/NIMC Database- Spectrum MS-IW-6151
##OWNER=NIST Mass Spectrometry Data Center
Collection (C) 2014 copyright by the U.S. Secretary of Commerce
on behalf of the United States of America. All rights reserved.
##CAS REGISTRY NO=90282-99-8
##$NIST MASS SPEC NO=237477
##MOLFORM=C8 H9 Cl O2
##MW=172
##$NIST SOURCE=MSDC
##XUNITS=M/Z
##YUNITS=RELATIVE INTENSITY
##XFACTOR=1
##YFACTOR=1
##FIRSTX=14
##LASTX=176
##FIRSTY=20
##MAXX=176
##MINX=14
##MAXY=9999
##MINY=10
##NPOINTS=111
##PEAK TABLE=(XY..XY)
14,20 15,159 25,10 26,50
27,30 28,10 29,10 30,10
31,80 36,40 37,119 38,99
39,239 40,20 41,30 42,10
43,109 44,20 45,10 47,10
48,10 49,99 50,509 51,1429
52,99 53,349 54,40 55,199
57,20 60,80 61,129 62,269
63,879 64,129 65,1909 66,179
67,10 69,10 71,10 72,90
73,219 74,149 75,549 76,119
77,549 78,80 79,1229 80,70
84,60 85,169 86,519 87,99
88,169 89,40 90,10 91,269
92,129 93,3249 94,1779 95,149
96,10 97,50 98,149 99,779
100,99 101,319 102,20 103,30
105,10 106,10 107,399 108,40
109,40 110,50 111,719 112,90
113,309 114,1059 115,90 116,339
117,20 121,50 122,70 123,40
125,10 126,319 127,70 128,129
129,2139 130,149 131,689 132,50
137,10 138,80 139,20 141,50
142,10 143,40 145,10 155,169
156,219 157,6699 158,599 159,2169
160,169 161,10 172,9999 173,899
174,3289 175,289 176,20
##END=
