##TITLE=Acetic acid, chloro-, 1-methylbutyl ester
##JCAMP-DX=4.24
##DATA TYPE=MASS SPECTRUM
##ORIGIN=V.G.Zaikin,TIPS,Russian Acad.Sci.Moscow
##OWNER=NIST Mass Spectrometry Data Center
Collection (C) 2014 copyright by the U.S. Secretary of Commerce
on behalf of the United States of America. All rights reserved.
##CAS REGISTRY NO=90380-52-2
##$NIST MASS SPEC NO=279995
##MOLFORM=C7 H13 Cl O2
##MW=164
##$NIST SOURCE=MSDC
##XUNITS=M/Z
##YUNITS=RELATIVE INTENSITY
##XFACTOR=1
##YFACTOR=1
##FIRSTX=25
##LASTX=152
##FIRSTY=50
##MAXX=152
##MINX=25
##MAXY=9999
##MINY=10
##NPOINTS=71
##PEAK TABLE=(XY..XY)
25,50 26,490 27,3173 28,440
29,3123 30,150 31,430 35,210
36,891 37,90 38,490 39,1782
40,350 41,3373 42,3353 43,9999
44,1121 45,1511 46,70 47,120
48,240 49,2953 50,1291 51,1151
52,460 53,290 54,70 55,3934
56,230 57,90 58,120 59,90
60,90 63,50 64,50 65,110
67,20 69,250 70,3583 71,6526
72,380 73,591 74,20 76,130
77,7357 78,270 79,2742 80,50
85,20 86,20 87,110 93,30
94,50 95,140 97,30 104,10
105,30 106,10 107,30 109,10
119,30 120,30 121,3783 122,170
123,1111 124,10 129,20 149,290
150,20 151,100 152,10
##END=
