##TITLE=3,5-Difluorobenzylamine
##JCAMP-DX=4.24
##DATA TYPE=MASS SPECTRUM
##ORIGIN=NIST Mass Spectrometry Data Center
##OWNER=NIST Mass Spectrometry Data Center
Collection (C) 2014 copyright by the U.S. Secretary of Commerce
on behalf of the United States of America. All rights reserved.
##CAS REGISTRY NO=90390-27-5
##$NIST MASS SPEC NO=342724
##MOLFORM=C7 H7 F2 N
##MW=143
##$NIST SOURCE=MSDC
##XUNITS=M/Z
##YUNITS=RELATIVE INTENSITY
##XFACTOR=1
##YFACTOR=1
##FIRSTX=12
##LASTX=144
##FIRSTY=20
##MAXX=144
##MINX=12
##MAXY=9999
##MINY=10
##NPOINTS=98
##PEAK TABLE=(XY..XY)
12,20 14,60 16,140 17,90
18,50 19,20 20,20 25,10
26,10 28,9999 29,2572 30,7897
31,440 32,210 33,80 37,300
38,400 39,460 40,60 41,30
44,80 47,40 48,250 49,150
50,931 51,731 52,290 53,30
54,70 55,50 56,250 57,821
58,60 61,410 62,631 63,2042
64,230 65,70 66,30 68,520
69,400 70,330 71,290 73,140
74,260 75,1111 76,180 77,250
78,70 79,40 80,130 81,470
82,80 83,110 84,80 85,90
86,80 87,170 88,360 89,70
90,30 91,40 92,150 93,340
94,350 95,1341 96,571 97,180
98,40 99,120 100,140 101,681
102,110 103,30 104,30 105,80
107,340 108,30 109,20 110,10
111,50 112,180 113,1071 114,1261
115,1932 116,140 119,20 120,150
122,1451 123,6276 124,891 125,530
127,1561 128,130 140,691 142,8758
143,2662 144,200
##END=
