##TITLE=2-(2-Benzothiazolyl)-5-methoxyphenol
##JCAMP-DX=4.24
##DATA TYPE=MASS SPECTRUM
##ORIGIN=NIST Mass Spectrometry Data Center, 1994
##OWNER=NIST Mass Spectrometry Data Center
Collection (C) 2014 copyright by the U.S. Secretary of Commerce
on behalf of the United States of America. All rights reserved.
##CAS REGISTRY NO=90481-46-2
##$NIST MASS SPEC NO=135718
##MOLFORM=C14 H11 N O2 S
##MW=257
##$NIST SOURCE=MSDC
##XUNITS=M/Z
##YUNITS=RELATIVE INTENSITY
##XFACTOR=1
##YFACTOR=1
##FIRSTX=15
##LASTX=260
##FIRSTY=2520
##MAXX=260
##MINX=15
##MAXY=9999
##MINY=1
##NPOINTS=170
##PEAK TABLE=(XY..XY)
15,2520 16,53 17,13 18,79
26,39 27,46 28,193 30,6
32,1 37,122 38,418 39,926
40,63 41,71 42,51 43,6
44,1 45,493 47,40 49,37
50,428 51,894 52,387 53,224
54,72 55,114 56,16 57,86
58,345 60,32 61,112 62,371
63,1262 64,371 65,785 66,138
67,25 68,16 69,2066 70,213
71,168 72,30 73,42 74,98
75,262 76,284 77,342 78,230
79,419 80,314 81,244 82,672
83,155 84,78 85,53 87,137
88,82 89,184 90,131 91,152
92,122 93,471 94,98 95,154
96,99 97,28 99,180 100,41
101,82 102,126 103,66 104,57
105,43 106,250 107,288 108,644
109,983 110,125 111,71 113,69
115,640 116,290 117,58 118,24
119,33 120,77 121,64 122,76
123,28 124,33 125,26 126,73
127,124 128,212 130,18 132,23
133,91 134,157 135,122 136,167
137,27 138,25 139,28 140,180
141,151 142,53 145,111 146,119
147,57 148,62 149,77 151,15
152,62 153,169 154,212 155,33
157,17 158,78 159,198 160,798
161,108 162,59 164,29 165,15
166,62 167,117 168,37 169,49
170,39 171,62 172,181 173,255
174,74 175,40 176,20 183,33
184,174 185,479 186,2464 187,358
188,141 196,108 197,217 198,547
199,497 200,565 201,120 202,46
209,19 210,39 211,51 212,121
213,19 214,4318 215,615 216,276
217,36 225,25 227,621 228,2876
229,480 230,181 231,25 240,26
241,40 242,32 257,9999 258,1686
259,585 260,86
##END=
