##TITLE=2,3-Epoxyhexanol
##JCAMP-DX=4.24
##DATA TYPE=MASS SPECTRUM
##ORIGIN=G. OHLOFF, FIRMENICH SA, RES. LAB., GENEVA, SWITZ.
##OWNER=NIST Mass Spectrometry Data Center
Collection (C) 2014 copyright by the U.S. Secretary of Commerce
on behalf of the United States of America. All rights reserved.
##CAS REGISTRY NO=90528-63-5
##$NIST MASS SPEC NO=101712
##MOLFORM=C6 H12 O2
##MW=116
##$NIST SOURCE=MSDC
##XUNITS=M/Z
##YUNITS=RELATIVE INTENSITY
##XFACTOR=1
##YFACTOR=1
##FIRSTX=37
##LASTX=98
##FIRSTY=60
##MAXX=98
##MINX=37
##MAXY=9999
##MINY=11
##NPOINTS=38
##PEAK TABLE=(XY..XY)
37,60 38,201 39,2258 40,347
41,4783 42,769 43,5845 44,2494
45,1118 46,16 50,129 51,157
52,42 53,367 54,299 55,9999
56,913 57,2376 58,109 59,88
60,223 61,339 62,17 65,50
67,204 68,24 69,247 70,85
71,377 72,224 73,2416 74,116
79,16 81,48 82,75 83,138
85,24 98,11
##END=
