##TITLE=Benzene, 1,3-diisocyanato-2-methyl-
##JCAMP-DX=4.24
##DATA TYPE=MASS SPECTRUM
##ORIGIN=NIST Mass Spectrometry Data Center
##OWNER=NIST Mass Spectrometry Data Center
Collection (C) 2014 copyright by the U.S. Secretary of Commerce
on behalf of the United States of America. All rights reserved.
##CAS REGISTRY NO=91-08-7
##$NIST MASS SPEC NO=341324
##MOLFORM=C9 H6 N2 O2
##MW=174
##$NIST SOURCE=MSDC
##XUNITS=M/Z
##YUNITS=RELATIVE INTENSITY
##XFACTOR=1
##YFACTOR=1
##FIRSTX=15
##LASTX=176
##FIRSTY=10
##MAXX=176
##MINX=15
##MAXY=9999
##MINY=10
##NPOINTS=78
##PEAK TABLE=(XY..XY)
15,10 26,130 27,150 28,130
29,20 36,10 37,270 38,490
39,601 40,250 41,120 42,50
43,20 44,20 45,70 49,70
50,540 51,801 52,741 53,140
54,150 55,10 56,60 59,180
61,100 62,240 63,681 64,961
65,520 66,150 67,90 68,40
70,10 73,70 74,130 75,370
76,981 77,681 78,280 79,70
80,30 86,20 87,200 88,80
89,130 90,611 91,2202 92,310
93,30 99,30 100,20 101,20
102,320 103,901 104,290 105,40
106,140 107,10 115,10 116,90
117,510 118,4064 119,1561 120,150
129,90 130,60 131,60 132,1501
133,130 144,50 145,3423 146,4704
147,440 148,20 173,1011 174,9999
175,1081 176,90
##END=
