##TITLE=Benzene, 1,2-dimethoxy-
##JCAMP-DX=4.24
##DATA TYPE=MASS SPECTRUM
##ORIGIN=NIST Mass Spectrometry Data Center, 1990.
##OWNER=NIST Mass Spectrometry Data Center
Collection (C) 2014 copyright by the U.S. Secretary of Commerce
on behalf of the United States of America. All rights reserved.
##CAS REGISTRY NO=91-16-7
##$NIST MASS SPEC NO=118454
##MOLFORM=C8 H10 O2
##MW=138
##$NIST SOURCE=MSDC
##XUNITS=M/Z
##YUNITS=RELATIVE INTENSITY
##XFACTOR=1
##YFACTOR=1
##FIRSTX=13
##LASTX=140
##FIRSTY=42
##MAXX=140
##MINX=13
##MAXY=9999
##MINY=5
##NPOINTS=62
##PEAK TABLE=(XY..XY)
13,42 14,103 15,932 16,19
17,8 18,33 26,462 27,255
28,96 29,325 30,52 31,259
32,5 36,23 37,299 38,623
39,1183 40,186 41,2387 42,124
43,97 45,30 49,142 50,1297
51,2232 52,2871 53,655 54,206
55,451 61,156 62,512 63,1304
64,920 65,2856 66,272 67,1203
68,74 69,85 73,60 74,205
75,124 76,60 77,5239 78,585
79,411 80,1091 81,119 92,531
93,360 95,6538 96,508 97,34
105,33 107,153 108,61 121,270
123,4667 124,399 125,29 138,9999
139,895 140,33
##END=
