##TITLE=Isoquinoline, 1,2,3,4-tetrahydro-
##JCAMP-DX=4.24
##DATA TYPE=MASS SPECTRUM
##OWNER=NIST Mass Spectrometry Data Center
Collection (C) 2014 copyright by the U.S. Secretary of Commerce
on behalf of the United States of America. All rights reserved.
##CAS REGISTRY NO=91-21-4
##$NIST MASS SPEC NO=3108
##MOLFORM=C9 H11 N
##MW=133
##$NIST SOURCE=MSDC
##XUNITS=M/Z
##YUNITS=RELATIVE INTENSITY
##XFACTOR=1
##YFACTOR=1
##FIRSTX=26
##LASTX=134
##FIRSTY=150
##MAXX=134
##MINX=26
##MAXY=9999
##MINY=100
##NPOINTS=46
##PEAK TABLE=(XY..XY)
26,150 27,500 28,751 30,150
37,130 38,200 39,801 40,130
41,200 42,300 43,100 44,130
50,631 51,1431 52,500 53,180
54,180 56,100 62,200 63,500
64,200 65,751 66,300 74,330
75,300 76,400 77,2132 78,2002
79,400 89,250 90,250 91,380
103,2552 104,9999 105,2082 115,500
116,200 117,1231 118,300 128,300
129,2302 130,2502 131,1501 132,8007
133,5385 134,1001
##END=
