##TITLE=Quinoline
##JCAMP-DX=4.24
##DATA TYPE=MASS SPECTRUM
##ORIGIN=NIST Mass Spectrometry Data Center, 1998.
##OWNER=NIST Mass Spectrometry Data Center
Collection (C) 2014 copyright by the U.S. Secretary of Commerce
on behalf of the United States of America. All rights reserved.
##CAS REGISTRY NO=91-22-5
##$NIST MASS SPEC NO=291454
##MOLFORM=C9 H7 N
##MW=129
##$NIST SOURCE=MSDC
##XUNITS=M/Z
##YUNITS=RELATIVE INTENSITY
##XFACTOR=1
##YFACTOR=1
##FIRSTX=26
##LASTX=131
##FIRSTY=50
##MAXX=131
##MINX=26
##MAXY=9999
##MINY=10
##NPOINTS=51
##PEAK TABLE=(XY..XY)
26,50 27,50 36,10 37,100
38,160 39,270 40,20 41,10
48,10 49,100 50,920 51,1190
52,350 53,30 60,20 61,140
62,280 63,520 64,300 66,10
72,10 73,100 74,660 75,1010
76,1120 77,350 78,310 79,70
84,10 85,30 86,50 87,100
88,40 89,70 90,10 97,20
98,120 99,100 100,130 101,740
102,3050 103,890 104,60 114,10
123,10 126,10 127,120 128,2040
129,9999 130,1090 131,50
##END=
