##TITLE=Benzthiazide
##JCAMP-DX=4.24
##DATA TYPE=MASS SPECTRUM
##ORIGIN=Patti Price, Georgia Bureau of Investigation, Decatur, Georgia
##OWNER=NIST Mass Spectrometry Data Center
Collection (C) 2014 copyright by the U.S. Secretary of Commerce
on behalf of the United States of America. All rights reserved.
##CAS REGISTRY NO=91-33-8
##$NIST MASS SPEC NO=247728
##MOLFORM=C15 H14 Cl N3 O4 S3
##MW=431
##$NIST SOURCE=MSDC
##XUNITS=M/Z
##YUNITS=RELATIVE INTENSITY
##XFACTOR=1
##YFACTOR=1
##FIRSTX=41
##LASTX=433
##FIRSTY=740
##MAXX=433
##MINX=41
##MAXY=9999
##MINY=60
##NPOINTS=174
##PEAK TABLE=(XY..XY)
41,740 42,390 43,1101 44,2191
45,2282 46,190 47,150 48,310
50,410 51,680 52,410 53,190
54,160 55,440 56,200 57,340
58,260 59,1161 60,220 61,180
62,320 63,560 64,710 65,1611
66,170 67,140 68,120 69,360
70,130 71,190 72,120 73,340
74,160 75,190 76,210 77,670
78,450 79,200 80,100 81,120
82,90 83,140 84,160 85,120
86,120 87,250 88,290 89,650
90,240 91,8027 92,800 93,170
94,60 95,140 96,80 97,350
98,140 99,180 100,100 101,100
102,120 103,380 104,150 105,310
106,160 107,80 108,90 109,100
110,100 111,130 112,120 113,110
114,90 115,130 116,100 117,180
118,120 119,120 120,220 121,2121
122,1421 123,2392 124,1241 125,360
126,290 127,140 128,110 129,170
130,150 131,140 132,710 133,200
134,150 135,90 137,150 138,100
139,140 140,190 141,100 142,190
143,110 144,160 145,100 146,90
147,220 148,110 149,100 150,530
151,150 152,140 153,90 154,90
155,100 156,90 157,80 158,180
159,80 161,160 163,90 164,210
165,130 166,80 167,90 171,110
172,80 173,90 174,190 175,130
176,2402 177,330 178,60 187,90
188,190 189,110 190,450 191,90
192,150 193,400 194,140 195,80
196,120 202,70 204,60 205,750
206,130 207,320 208,70 212,70
220,300 221,540 223,200 228,150
229,230 230,1281 231,250 232,500
233,80 237,90 263,70 268,360
269,780 270,230 271,350 277,60
292,160 294,70 309,9999 310,1471
311,4514 312,540 313,390 352,60
431,190 433,80
##END=
