##TITLE=1H-Indole, 2,3-dimethyl-
##JCAMP-DX=4.24
##DATA TYPE=MASS SPECTRUM
##ORIGIN=U.S. BUREAU OF MINES, LARAMIE, WYO, USA
##OWNER=NIST Mass Spectrometry Data Center
Collection (C) 2014 copyright by the U.S. Secretary of Commerce
on behalf of the United States of America. All rights reserved.
##CAS REGISTRY NO=91-55-4
##$NIST MASS SPEC NO=34701
##MOLFORM=C10 H11 N
##MW=145
##$NIST SOURCE=MSDC
##XUNITS=M/Z
##YUNITS=RELATIVE INTENSITY
##XFACTOR=1
##YFACTOR=1
##FIRSTX=13
##LASTX=148
##FIRSTY=2
##MAXX=148
##MINX=13
##MAXY=9999
##MINY=1
##NPOINTS=101
##PEAK TABLE=(XY..XY)
13,2 14,14 15,143 16,7
25,3 26,42 27,211 28,126
29,8 30,5 32,5 37,62
38,177 39,588 40,90 41,146
42,254 43,14 44,7 45,4
46,3 48,20 49,21 50,433
51,832 52,339 53,112 54,27
55,7 56,7 57,40 58,50
59,80 60,4 61,56 62,189
63,468 64,192 65,858 66,47
67,10 68,4 69,1 70,13
71,84 72,338 73,105 74,239
75,355 76,345 77,1225 78,213
79,18 80,5 84,2 85,15
86,40 87,68 88,55 89,230
90,142 91,225 92,27 93,11
97,5 98,39 99,23 100,22
101,178 102,484 103,623 104,155
105,13 106,2 109,2 110,4
111,5 112,5 113,36 114,59
115,714 116,266 117,316 118,86
119,4 126,14 127,120 128,422
129,168 130,4083 131,452 132,23
140,62 141,75 142,293 143,1307
144,9999 145,8005 146,896 147,44
148,2
##END=
