##TITLE=Benzoic acid, 2,4-dimethoxy-
##JCAMP-DX=4.24
##DATA TYPE=MASS SPECTRUM
##ORIGIN=Japan AIST/NIMC Database- Spectrum MS-IW-6064
##OWNER=NIST Mass Spectrometry Data Center
Collection (C) 2014 copyright by the U.S. Secretary of Commerce
on behalf of the United States of America. All rights reserved.
##CAS REGISTRY NO=91-52-1
##$NIST MASS SPEC NO=242973
##MOLFORM=C9 H10 O4
##MW=182
##$NIST SOURCE=MSDC
##XUNITS=M/Z
##YUNITS=RELATIVE INTENSITY
##XFACTOR=1
##YFACTOR=1
##FIRSTX=15
##LASTX=184
##FIRSTY=70
##MAXX=184
##MINX=15
##MAXY=9999
##MINY=10
##NPOINTS=103
##PEAK TABLE=(XY..XY)
15,70 17,70 18,349 26,20
27,50 28,70 29,50 31,20
37,40 38,119 39,239 40,40
41,109 42,20 43,50 44,20
45,70 49,20 50,179 51,469
52,179 53,279 54,30 55,139
56,10 57,10 59,80 60,10
61,80 62,209 63,589 64,269
65,299 66,99 67,60 68,109
69,199 70,20 71,10 73,20
74,80 75,70 76,70 77,699
78,199 79,629 80,139 81,99
82,20 83,30 84,10 90,20
91,109 92,359 93,159 94,349
95,189 96,109 97,10 104,20
105,199 106,289 107,1239 108,309
109,1339 110,109 111,189 112,10
118,10 119,80 120,90 121,119
122,939 123,129 124,60 125,10
133,169 134,209 135,4559 136,1529
137,839 138,99 139,129 140,10
146,20 147,10 148,10 149,149
150,1259 151,489 152,629 153,3009
154,289 155,30 163,799 164,649
165,5329 166,539 167,90 181,70
182,9999 183,1019 184,129
##END=
