##TITLE=Ethoxyquin
##JCAMP-DX=4.24
##DATA TYPE=MASS SPECTRUM
##ORIGIN=NIST Mass Spectrometry Data Center
##OWNER=NIST Mass Spectrometry Data Center
Collection (C) 2014 copyright by the U.S. Secretary of Commerce
on behalf of the United States of America. All rights reserved.
##CAS REGISTRY NO=91-53-2
##$NIST MASS SPEC NO=341361
##MOLFORM=C14 H19 N O
##MW=217
##$NIST SOURCE=MSDC
##XUNITS=M/Z
##YUNITS=RELATIVE INTENSITY
##XFACTOR=1
##YFACTOR=1
##FIRSTX=26
##LASTX=219
##FIRSTY=10
##MAXX=219
##MINX=26
##MAXY=9999
##MINY=10
##NPOINTS=95
##PEAK TABLE=(XY..XY)
26,10 27,120 29,220 39,70
41,40 42,40 43,10 50,20
51,90 52,60 53,60 54,10
55,10 58,10 62,20 63,80
64,30 65,120 66,20 67,10
71,20 73,10 74,10 75,30
76,40 77,240 78,90 79,50
80,30 85,10 87,40 88,10
89,90 90,40 91,180 92,20
93,20 101,40 102,80 103,180
104,80 105,30 106,10 107,10
113,10 114,20 115,360 116,140
117,190 118,80 119,10 126,10
127,100 128,170 129,90 130,360
131,240 132,60 133,30 134,20
140,30 141,50 142,110 143,230
144,961 145,1882 146,350 147,30
154,60 155,40 156,190 157,270
158,210 159,300 160,50 170,20
171,20 172,300 173,1101 174,4874
175,581 176,40 186,110 187,40
188,380 189,50 200,40 201,220
202,9999 203,1531 204,120 216,180
217,1311 218,190 219,10
##END=
