##TITLE=6-Methyl-1,2,3,4-tetrahydroquinoline
##JCAMP-DX=4.24
##DATA TYPE=MASS SPECTRUM
##ORIGIN=G. LUNN,ENVIRON. CONTROL,NATL. CANCER INST.,FREDERICK,MD.,USA
##OWNER=NIST Mass Spectrometry Data Center
Collection (C) 2014 copyright by the U.S. Secretary of Commerce
on behalf of the United States of America. All rights reserved.
##CAS REGISTRY NO=91-61-2
##$NIST MASS SPEC NO=103563
##MOLFORM=C10 H13 N
##MW=147
##$NIST SOURCE=MSDC
##XUNITS=M/Z
##YUNITS=RELATIVE INTENSITY
##XFACTOR=1
##YFACTOR=1
##FIRSTX=37
##LASTX=149
##FIRSTY=56
##MAXX=149
##MINX=37
##MAXY=9999
##MINY=16
##NPOINTS=71
##PEAK TABLE=(XY..XY)
37,56 38,231 39,182 40,97
41,73 42,20 49,69 50,239
51,239 52,153 53,69 54,36
61,73 62,239 63,401 64,341
65,377 66,97 67,16 71,81
72,105 73,73 74,121 75,146
76,328 77,645 78,410 79,255
80,93 85,24 86,77 87,105
88,203 89,759 90,824 91,1879
92,385 93,133 94,36 100,24
101,113 102,365 103,694 104,629
105,438 106,198 107,20 113,48
114,211 115,836 116,807 117,2594
118,1709 119,698 120,251 127,101
128,296 129,580 130,3487 131,2724
132,3893 133,418 141,44 142,215
143,393 144,946 145,738 146,8960
147,9999 148,1100 149,56
##END=
