##TITLE=Quinoline, 2-methyl-
##JCAMP-DX=4.24
##DATA TYPE=MASS SPECTRUM
##ORIGIN=Japan AIST/NIMC Database- Spectrum MS-NW- 146
##OWNER=NIST Mass Spectrometry Data Center
Collection (C) 2014 copyright by the U.S. Secretary of Commerce
on behalf of the United States of America. All rights reserved.
##CAS REGISTRY NO=91-63-4
##$NIST MASS SPEC NO=228761
##MOLFORM=C10 H9 N
##MW=143
##$NIST SOURCE=MSDC
##XUNITS=M/Z
##YUNITS=RELATIVE INTENSITY
##XFACTOR=1
##YFACTOR=1
##FIRSTX=15
##LASTX=145
##FIRSTY=20
##MAXX=145
##MINX=15
##MAXY=9999
##MINY=10
##NPOINTS=66
##PEAK TABLE=(XY..XY)
15,20 26,40 27,129 28,30
37,60 38,129 39,439 40,40
41,30 42,50 49,20 50,509
51,649 52,179 53,40 57,109
58,359 59,30 61,70 62,199
63,479 64,129 65,129 66,20
70,189 71,389 72,50 73,30
74,279 75,549 76,489 77,439
78,70 85,20 86,50 87,99
88,99 89,369 90,209 91,70
92,20 97,40 98,60 99,30
100,50 101,589 102,329 103,109
104,50 113,99 114,129 115,1439
116,659 117,349 118,30 126,10
127,60 128,1459 129,239 130,20
140,219 141,139 142,1119 143,9999
144,1129 145,60
##END=
