##TITLE=Benzenamine, N,N-diethyl-3-methyl-
##JCAMP-DX=4.24
##DATA TYPE=MASS SPECTRUM
##ORIGIN=Japan AIST/NIMC Database- Spectrum MS-NW- 848
##OWNER=NIST Mass Spectrometry Data Center
Collection (C) 2014 copyright by the U.S. Secretary of Commerce
on behalf of the United States of America. All rights reserved.
##CAS REGISTRY NO=91-67-8
##$NIST MASS SPEC NO=229042
##MOLFORM=C11 H17 N
##MW=163
##$NIST SOURCE=MSDC
##XUNITS=M/Z
##YUNITS=RELATIVE INTENSITY
##XFACTOR=1
##YFACTOR=1
##FIRSTX=14
##LASTX=165
##FIRSTY=10
##MAXX=165
##MINX=14
##MAXY=9999
##MINY=10
##NPOINTS=82
##PEAK TABLE=(XY..XY)
14,10 15,20 26,30 27,279
28,70 29,329 30,20 38,30
39,319 40,40 41,159 42,109
43,30 44,30 50,70 51,199
52,90 53,70 54,30 55,10
56,60 57,20 58,20 59,10
62,50 63,179 64,70 65,689
66,60 67,10 70,10 74,70
75,20 76,30 77,369 78,139
79,129 80,30 81,99 82,10
87,10 89,189 90,119 91,1699
92,309 93,279 94,20 97,10
102,10 103,50 104,119 105,179
106,60 107,30 115,30 116,30
117,109 118,779 119,469 120,2729
121,249 122,10 130,40 131,30
132,219 133,189 134,339 135,40
144,20 145,10 146,70 147,90
148,9999 149,1119 150,60 159,10
160,40 161,50 162,419 163,3409
164,419 165,20
##END=
