##TITLE=1,3,5-Triazine-2,4-diamine, 6-phenyl-
##JCAMP-DX=4.24
##DATA TYPE=MASS SPECTRUM
##ORIGIN=NIST Mass Spectrometry Data Center, 1994
##OWNER=NIST Mass Spectrometry Data Center
Collection (C) 2014 copyright by the U.S. Secretary of Commerce
on behalf of the United States of America. All rights reserved.
##CAS REGISTRY NO=91-76-9
##$NIST MASS SPEC NO=133676
##MOLFORM=C9 H9 N5
##MW=187
##$NIST SOURCE=MSDC
##XUNITS=M/Z
##YUNITS=RELATIVE INTENSITY
##XFACTOR=1
##YFACTOR=1
##FIRSTX=14
##LASTX=189
##FIRSTY=11
##MAXX=189
##MINX=14
##MAXY=9999
##MINY=11
##NPOINTS=43
##PEAK TABLE=(XY..XY)
14,11 27,60 28,264 38,68
39,165 41,67 42,352 43,1645
50,408 51,578 52,165 53,69
62,52 63,117 64,90 65,38
68,303 73,27 74,127 75,291
76,1089 77,985 78,75 83,169
84,103 90,87 91,41 93,77
103,1838 104,1818 105,154 117,182
118,190 119,162 129,117 144,583
145,106 146,258 160,54 186,5275
187,9999 188,1122 189,63
##END=
