##TITLE=Thenyldiamine
##JCAMP-DX=4.24
##DATA TYPE=MASS SPECTRUM
##ORIGIN=NIST Mass Spectrometry Data Center, 1998.
##OWNER=NIST Mass Spectrometry Data Center
Collection (C) 2014 copyright by the U.S. Secretary of Commerce
on behalf of the United States of America. All rights reserved.
##CAS REGISTRY NO=91-79-2
##$NIST MASS SPEC NO=290630
##MOLFORM=C14 H19 N3 S
##MW=261
##$NIST SOURCE=MSDC
##XUNITS=M/Z
##YUNITS=RELATIVE INTENSITY
##XFACTOR=1
##YFACTOR=1
##FIRSTX=15
##LASTX=263
##FIRSTY=30
##MAXX=263
##MINX=15
##MAXY=9999
##MINY=10
##NPOINTS=148
##PEAK TABLE=(XY..XY)
15,30 26,10 27,80 28,10
29,80 30,280 37,10 38,30
39,190 40,30 41,80 42,870
43,230 44,160 45,650 46,20
47,50 49,10 50,60 51,420
52,380 53,620 54,70 55,40
56,340 57,280 58,9999 59,450
60,10 62,10 63,40 64,30
65,70 66,50 67,60 68,10
69,130 70,190 71,2490 72,2590
73,140 75,10 76,20 77,30
78,990 79,940 80,140 81,20
82,20 83,20 84,20 85,30
89,10 90,10 91,20 92,50
93,100 94,50 95,60 96,10
97,8239 98,590 99,450 100,30
101,10 102,10 103,10 104,10
105,160 106,80 107,200 108,20
109,30 110,50 111,30 112,180
113,10 114,10 115,10 116,10
117,20 118,30 119,410 120,60
121,90 122,20 123,20 124,30
125,20 128,10 129,10 130,30
131,30 132,10 133,30 134,30
135,90 136,20 138,10 140,10
141,10 142,10 143,20 144,10
145,20 146,10 147,10 148,10
155,20 156,30 157,140 158,20
160,20 161,10 162,60 163,50
164,10 167,10 168,10 169,60
170,20 172,10 173,30 174,40
175,30 176,10 178,10 186,10
187,40 188,10 189,390 190,1090
191,1500 192,220 193,80 194,10
201,30 203,1230 204,160 205,70
206,10 215,20 216,20 217,60
218,10 261,270 262,50 263,20
##END=
