##TITLE=Pyrilamine
##JCAMP-DX=4.24
##DATA TYPE=MASS SPECTRUM
##ORIGIN=Tox21 Consortium/NIST Mass Spectrometry Data Center, 2012
##OWNER=NIST Mass Spectrometry Data Center
Collection (C) 2014 copyright by the U.S. Secretary of Commerce
on behalf of the United States of America. All rights reserved.
##CAS REGISTRY NO=91-84-9
##$NIST MASS SPEC NO=408611
##MOLFORM=C17 H23 N3 O
##MW=285
##$NIST SOURCE=MSDC
##XUNITS=M/Z
##YUNITS=RELATIVE INTENSITY
##XFACTOR=1
##YFACTOR=1
##FIRSTX=15
##LASTX=286
##FIRSTY=10
##MAXX=286
##MINX=15
##MAXY=9999
##MINY=10
##NPOINTS=118
##PEAK TABLE=(XY..XY)
15,10 27,20 28,30 29,30
30,90 38,10 39,50 40,10
41,50 42,290 43,90 44,70
45,40 50,30 51,180 52,190
53,60 54,10 55,30 56,140
57,110 58,5345 59,200 62,10
63,50 64,30 65,130 66,20
67,30 68,10 70,50 71,951
72,1311 73,70 75,10 76,20
77,470 78,891 79,691 80,70
81,10 85,10 89,130 90,110
91,350 92,60 93,70 94,30
95,20 102,10 103,10 104,20
105,90 106,290 107,180 108,50
109,10 115,10 116,10 117,20
118,30 119,220 121,9999 122,901
123,60 127,10 131,20 132,10
133,20 134,40 135,20 136,70
137,10 141,10 142,10 143,10
146,10 147,10 148,90 149,10
154,20 155,10 156,10 162,50
163,20 164,10 167,10 168,30
169,70 170,20 180,20 181,20
182,20 183,90 184,20 191,10
195,10 196,10 197,20 198,10
199,20 210,10 211,40 212,10
213,500 214,651 215,761 216,100
217,10 225,30 226,10 227,110
228,20 239,10 240,10 241,10
285,160 286,30
##END=
