##TITLE=3,3'-Diaminobenzidine
##JCAMP-DX=4.24
##DATA TYPE=MASS SPECTRUM
##ORIGIN=Japan AIST/NIMC Database- Spectrum MS-NW-7955
##OWNER=NIST Mass Spectrometry Data Center
Collection (C) 2014 copyright by the U.S. Secretary of Commerce
on behalf of the United States of America. All rights reserved.
##CAS REGISTRY NO=91-95-2
##$NIST MASS SPEC NO=238422
##MOLFORM=C12 H14 N4
##MW=214
##$NIST SOURCE=MSDC
##XUNITS=M/Z
##YUNITS=RELATIVE INTENSITY
##XFACTOR=1
##YFACTOR=1
##FIRSTX=15
##LASTX=216
##FIRSTY=10
##MAXX=216
##MINX=15
##MAXY=9999
##MINY=10
##NPOINTS=136
##PEAK TABLE=(XY..XY)
15,10 27,40 28,229 29,20
30,40 38,20 39,90 40,20
41,50 42,50 43,30 50,40
51,119 52,139 53,70 54,119
55,30 56,20 57,20 58,30
62,30 63,99 64,30 65,109
66,70 67,30 68,10 69,10
70,60 71,80 72,30 74,20
75,50 76,60 77,109 78,129
79,219 80,129 81,30 82,30
83,10 84,149 85,129 86,10
87,20 88,20 89,90 90,60
91,60 92,109 93,429 94,10
97,20 98,90 99,30 100,20
101,40 102,60 103,50 104,90
105,70 106,60 107,999 108,179
109,40 113,30 114,50 115,209
116,99 117,99 118,50 119,20
121,20 125,20 126,60 127,60
128,80 129,50 130,119 131,60
132,90 133,20 134,20 138,10
139,10 140,129 141,90 142,139
143,109 144,50 145,129 146,30
147,10 151,10 152,99 153,159
154,119 155,90 156,40 157,60
158,119 159,50 160,20 165,10
166,10 167,40 168,139 169,319
170,119 171,119 172,40 173,40
178,10 179,99 180,60 181,119
182,60 183,30 184,40 185,40
186,1579 187,209 188,20 194,40
195,30 196,459 197,209 198,70
199,179 200,30 211,30 212,40
213,749 214,9999 215,1389 216,99
##END=
