##TITLE=2-Isoamyl-6-methylpyrazine
##JCAMP-DX=4.24
##DATA TYPE=MASS SPECTRUM
##ORIGIN=Philip Morris R&D
##OWNER=NIST Mass Spectrometry Data Center
Collection (C) 2014 copyright by the U.S. Secretary of Commerce
on behalf of the United States of America. All rights reserved.
##CAS REGISTRY NO=91010-41-2
##$NIST MASS SPEC NO=109850
##MOLFORM=C10 H16 N2
##MW=164
##$NIST SOURCE=MSDC
##XUNITS=M/Z
##YUNITS=RELATIVE INTENSITY
##XFACTOR=1
##YFACTOR=1
##FIRSTX=37
##LASTX=165
##FIRSTY=26
##MAXX=165
##MINX=37
##MAXY=9999
##MINY=1
##NPOINTS=76
##PEAK TABLE=(XY..XY)
37,26 38,126 39,1172 40,280
41,637 42,368 43,208 44,14
45,6 49,1 50,29 51,98
52,177 53,301 54,156 55,118
56,30 57,27 59,1 62,1
63,15 64,48 65,63 66,497
67,136 68,37 69,9 73,18
75,3 76,2 77,37 78,29
79,43 80,99 81,78 82,54
83,2 84,1 91,17 92,15
93,109 94,126 95,45 96,9
103,1 104,1 105,10 106,12
107,393 108,9999 109,769 110,28
118,7 119,25 120,25 121,1492
122,280 123,34 131,7 132,20
133,69 134,36 135,128 136,33
145,19 146,8 147,45 148,8
149,633 150,69 151,2 161,2
162,1 163,149 164,100 165,6
##END=
