##TITLE=Imidazole-5-carboxylic amide, 4-acetamino-
##JCAMP-DX=4.24
##DATA TYPE=MASS SPECTRUM
##ORIGIN=LAC, NIDDK, NIH, Bethesda, MD 20892
##OWNER=NIST Mass Spectrometry Data Center
Collection (C) 2014 copyright by the U.S. Secretary of Commerce
on behalf of the United States of America. All rights reserved.
##CAS REGISTRY NO=91026-74-3
##$NIST MASS SPEC NO=129643
##MOLFORM=C6 H8 N4 O2
##MW=168
##$NIST SOURCE=MSDC
##XUNITS=M/Z
##YUNITS=RELATIVE INTENSITY
##XFACTOR=1
##YFACTOR=1
##FIRSTX=42
##LASTX=170
##FIRSTY=1512
##MAXX=170
##MINX=42
##MAXY=9999
##MINY=5
##NPOINTS=79
##PEAK TABLE=(XY..XY)
42,1512 43,9779 44,2382 45,778
46,58 47,18 48,36 49,7
50,127 51,34 52,155 53,873
54,2228 55,1699 56,495 57,103
58,32 59,39 60,177 61,46
62,67 63,278 64,127 65,420
66,154 67,257 68,173 69,164
70,132 71,633 72,51 73,78
74,37 76,51 77,514 78,266
79,309 80,126 81,1523 82,332
83,218 84,5 90,12 91,1823
92,225 93,88 96,8 97,102
98,468 99,56 102,33 103,224
104,295 105,1598 106,157 108,390
109,7787 110,1325 111,96 121,7
122,50 123,501 124,28 125,238
126,9999 127,495 128,34 129,12
134,87 135,70 136,7 137,80
151,37 152,330 153,43 167,13
168,2748 169,268 170,18
##END=
