##TITLE=Methyl 4-chloro-3-methylbenzoate
##JCAMP-DX=4.24
##DATA TYPE=MASS SPECTRUM
##ORIGIN=NIST Mass Spectrometry Data Center
##OWNER=NIST Mass Spectrometry Data Center
Collection (C) 2014 copyright by the U.S. Secretary of Commerce
on behalf of the United States of America. All rights reserved.
##CAS REGISTRY NO=91367-05-4
##$NIST MASS SPEC NO=343284
##MOLFORM=C9 H9 Cl O2
##MW=184
##$NIST SOURCE=MSDC
##XUNITS=M/Z
##YUNITS=RELATIVE INTENSITY
##XFACTOR=1
##YFACTOR=1
##FIRSTX=12
##LASTX=187
##FIRSTY=20
##MAXX=187
##MINX=12
##MAXY=9999
##MINY=10
##NPOINTS=97
##PEAK TABLE=(XY..XY)
12,20 13,20 15,1161 16,10
18,20 26,60 27,90 28,80
29,540 30,190 31,80 32,10
35,20 36,20 37,120 38,280
39,981 40,80 41,50 43,110
44,150 46,10 47,20 48,10
49,120 50,440 51,490 52,70
53,90 59,170 60,40 61,290
62,861 63,2182 64,310 65,210
66,10 73,470 74,260 75,400
76,80 77,250 78,90 79,20
84,70 85,160 86,260 87,290
89,3163 90,701 91,230 92,30
97,90 99,791 100,50 101,250
102,20 103,30 104,10 105,80
106,20 110,10 111,30 112,20
113,30 117,60 118,90 119,40
120,10 121,20 123,80 125,3383
126,340 127,1101 128,90 133,20
134,20 139,80 140,20 141,50
149,160 150,30 153,9999 154,901
155,3063 156,270 157,10 166,10
167,20 168,10 169,140 170,10
171,50 184,2873 185,340 186,911
187,90
##END=
