##TITLE=1,3,5-Triazine, 2,4,6-tris(heptafluoropropyl)-
##JCAMP-DX=4.24
##DATA TYPE=MASS SPECTRUM
##OWNER=NIST Mass Spectrometry Data Center
Collection (C) 2014 copyright by the U.S. Secretary of Commerce
on behalf of the United States of America. All rights reserved.
##CAS REGISTRY NO=915-76-4
##$NIST MASS SPEC NO=18443
##MOLFORM=C12 F21 N3
##MW=585
##$NIST SOURCE=MSDC
##XUNITS=M/Z
##YUNITS=RELATIVE INTENSITY
##XFACTOR=1
##YFACTOR=1
##FIRSTX=31
##LASTX=586
##FIRSTY=691
##MAXX=586
##MINX=31
##MAXY=9999
##MINY=80
##NPOINTS=28
##PEAK TABLE=(XY..XY)
31,691 50,450 69,9999 76,8307
100,1121 102,981 107,270 119,1651
126,671 131,210 133,290 138,80
150,110 152,120 169,2082 176,330
178,220 221,510 366,320 371,210
416,90 466,7016 467,701 516,80
566,1722 567,200 585,901 586,100
##END=
