##TITLE=1-Butyne, 3,3-dimethyl-
##JCAMP-DX=4.24
##DATA TYPE=MASS SPECTRUM
##ORIGIN=NIST Mass Spectrometry Data Center, 1990.
##OWNER=NIST Mass Spectrometry Data Center
Collection (C) 2014 copyright by the U.S. Secretary of Commerce
on behalf of the United States of America. All rights reserved.
##CAS REGISTRY NO=917-92-0
##$NIST MASS SPEC NO=114416
##MOLFORM=C6 H10
##MW=82
##$NIST SOURCE=MSDC
##XUNITS=M/Z
##YUNITS=RELATIVE INTENSITY
##XFACTOR=1
##YFACTOR=1
##FIRSTX=15
##LASTX=81
##FIRSTY=571
##MAXX=81
##MINX=15
##MAXY=9999
##MINY=93
##NPOINTS=29
##PEAK TABLE=(XY..XY)
15,571 26,185 27,759 28,99
29,148 37,216 38,490 39,3117
40,576 41,4316 42,271 49,135
50,884 51,1248 52,266 53,386
54,343 55,93 61,144 62,283
63,385 64,93 65,2276 66,93
67,9999 68,554 77,97 79,140
81,387
##END=
