##TITLE=Pentane, 3-chloro-3-methyl-
##JCAMP-DX=4.24
##DATA TYPE=MASS SPECTRUM
##ORIGIN=Chuck Anderson, Aldrich Chemical Co.
##OWNER=NIST Mass Spectrometry Data Center
Collection (C) 2014 copyright by the U.S. Secretary of Commerce
on behalf of the United States of America. All rights reserved.
##CAS REGISTRY NO=918-84-3
##$NIST MASS SPEC NO=107600
##MOLFORM=C6 H13 Cl
##MW=120
##$NIST SOURCE=MSDC
##XUNITS=M/Z
##YUNITS=RELATIVE INTENSITY
##XFACTOR=1
##YFACTOR=1
##FIRSTX=14
##LASTX=122
##FIRSTY=7
##MAXX=122
##MINX=14
##MAXY=9999
##MINY=4
##NPOINTS=75
##PEAK TABLE=(XY..XY)
14,7 15,103 25,14 26,306
27,3511 28,654 29,2708 30,66
31,13 32,17 35,25 36,97
37,59 38,186 39,2142 40,305
41,4047 42,455 43,4910 44,154
45,5 47,8 48,6 49,148
50,243 51,431 52,133 53,907
54,316 55,9999 56,929 57,781
58,37 60,10 61,76 62,101
63,1450 64,60 65,580 66,46
67,286 68,49 69,3362 70,217
71,8 72,4 73,39 74,17
75,197 76,119 77,141 78,48
79,43 80,5 81,13 82,5
83,62 84,974 85,5148 86,332
87,15 89,36 90,6517 91,8213
92,2142 93,2648 94,114 103,4
104,39 105,159 106,22 107,52
108,4 120,17 122,7
##END=
