##TITLE=3-Methylpenta-1,4-diene-3-ol
##JCAMP-DX=4.24
##DATA TYPE=MASS SPECTRUM
##ORIGIN=V.G.Zaikin, TIPS, Russian Acad. Sci.
##OWNER=NIST Mass Spectrometry Data Center
Collection (C) 2014 copyright by the U.S. Secretary of Commerce
on behalf of the United States of America. All rights reserved.
##CAS REGISTRY NO=918-86-5
##$NIST MASS SPEC NO=215366
##MOLFORM=C6 H10 O
##MW=98
##$NIST SOURCE=MSDC
##XUNITS=M/Z
##YUNITS=RELATIVE INTENSITY
##XFACTOR=1
##YFACTOR=1
##FIRSTX=39
##LASTX=99
##FIRSTY=1701
##MAXX=99
##MINX=39
##MAXY=9999
##MINY=20
##NPOINTS=25
##PEAK TABLE=(XY..XY)
39,1701 40,350 41,2001 42,500
43,9999 44,550 51,650 52,150
53,1151 54,400 55,4053 56,550
69,950 70,300 71,2802 72,350
77,650 78,150 79,1151 80,600
83,4604 84,350 97,450 98,350
99,20
##END=
