##TITLE=1-Penten-3-ol, 3-methyl-
##JCAMP-DX=4.24
##DATA TYPE=MASS SPECTRUM
##ORIGIN=D.HENNEBERG, MAX-PLANCK INSTITUTE, MULHEIM, WEST GERMANY
##OWNER=NIST Mass Spectrometry Data Center
Collection (C) 2014 copyright by the U.S. Secretary of Commerce
on behalf of the United States of America. All rights reserved.
##CAS REGISTRY NO=918-85-4
##$NIST MASS SPEC NO=62909
##MOLFORM=C6 H12 O
##MW=100
##$NIST SOURCE=MSDC
##XUNITS=M/Z
##YUNITS=RELATIVE INTENSITY
##XFACTOR=1
##YFACTOR=1
##FIRSTX=26
##LASTX=100
##FIRSTY=459
##MAXX=100
##MINX=26
##MAXY=9999
##MINY=12
##NPOINTS=45
##PEAK TABLE=(XY..XY)
26,459 27,1404 28,762 29,1214
30,30 31,283 32,30 38,14
39,603 40,138 41,1909 42,269
43,5673 44,230 45,399 50,44
51,58 52,33 53,578 54,149
55,1440 56,258 57,604 58,156
59,42 65,120 66,35 67,877
68,66 69,108 70,141 71,9999
72,598 73,1370 74,85 77,35
78,17 79,93 81,87 82,244
83,117 84,12 85,1628 86,79
100,72
##END=
