##TITLE=2-Amino-3,5-dibromo-6-methylpyridine
##JCAMP-DX=4.24
##DATA TYPE=MASS SPECTRUM
##ORIGIN=NIST Mass Spectrometry Data Center, 1994
##OWNER=NIST Mass Spectrometry Data Center
Collection (C) 2014 copyright by the U.S. Secretary of Commerce
on behalf of the United States of America. All rights reserved.
##CAS REGISTRY NO=91872-10-5
##$NIST MASS SPEC NO=136895
##MOLFORM=C6 H6 Br2 N2
##MW=264
##$NIST SOURCE=MSDC
##XUNITS=M/Z
##YUNITS=RELATIVE INTENSITY
##XFACTOR=1
##YFACTOR=1
##FIRSTX=13
##LASTX=269
##FIRSTY=52
##MAXX=269
##MINX=13
##MAXY=9999
##MINY=8
##NPOINTS=101
##PEAK TABLE=(XY..XY)
13,52 14,38 15,293 16,8
18,66 25,82 26,166 27,154
28,559 30,79 36,120 37,987
38,1137 39,354 40,254 41,130
42,777 43,138 48,55 49,156
50,388 51,979 52,1335 53,825
54,182 61,339 62,636 63,1194
64,953 65,928 66,176 68,93
71,40 72,46 75,163 76,375
77,177 78,928 79,888 80,174
81,190 82,88 88,72 89,98
90,130 91,168 92,72 93,406
94,353 103,69 104,96 105,1460
106,3302 107,307 108,64 115,81
116,284 117,237 118,287 119,240
120,56 121,77 130,72 131,287
132,165 133,367 134,110 142,160
143,209 144,264 145,188 146,87
156,137 157,88 158,1020 159,125
160,792 168,171 170,203 183,65
184,106 185,1331 186,210 187,1247
188,110 195,141 197,207 199,115
211,40 236,198 237,168 238,421
239,337 240,253 241,162 264,5107
265,377 266,9999 267,737 268,4917
269,360
##END=
