##TITLE=1-Propanamine, 3-(triethoxysilyl)-
##JCAMP-DX=4.24
##DATA TYPE=MASS SPECTRUM
##ORIGIN=Japan AIST/NIMC Database- Spectrum MS-NW-3685
##OWNER=NIST Mass Spectrometry Data Center
Collection (C) 2014 copyright by the U.S. Secretary of Commerce
on behalf of the United States of America. All rights reserved.
##CAS REGISTRY NO=919-30-2
##$NIST MASS SPEC NO=232199
##MOLFORM=C9 H23 N O3 Si
##MW=221
##$NIST SOURCE=MSDC
##XUNITS=M/Z
##YUNITS=RELATIVE INTENSITY
##XFACTOR=1
##YFACTOR=1
##FIRSTX=14
##LASTX=223
##FIRSTY=99
##MAXX=223
##MINX=14
##MAXY=9999
##MINY=10
##NPOINTS=160
##PEAK TABLE=(XY..XY)
14,99 15,319 16,20 17,10
25,50 26,319 27,1239 28,1069
29,789 30,7189 31,4189 32,249
39,149 40,20 41,209 42,149
43,499 44,1199 45,2049 46,789
47,239 48,10 50,10 51,10
52,10 53,20 54,80 55,50
56,639 57,169 58,529 59,129
60,80 61,149 62,1199 63,1629
64,139 65,90 66,30 67,10
68,10 69,10 70,20 71,60
72,119 73,949 74,309 75,429
76,279 77,349 78,839 79,2039
80,169 81,119 82,60 83,30
84,249 85,149 86,319 87,129
88,249 89,559 90,859 91,1209
92,289 93,169 94,80 95,40
96,20 97,10 98,40 99,50
100,659 101,289 102,1639 103,2229
104,699 105,479 106,629 107,1529
108,169 109,90 110,20 111,10
112,20 113,10 114,40 115,50
116,369 117,529 118,2269 119,3409
120,699 121,329 122,60 123,30
124,10 126,10 127,10 128,219
129,199 130,2729 131,1239 132,839
133,439 134,6039 135,3709 136,599
137,209 138,30 142,10 143,20
144,80 145,199 146,2459 147,2439
148,859 149,379 150,99 151,119
152,179 153,30 156,10 158,70
159,20 160,919 161,189 162,90
163,9999 164,1339 165,519 166,70
167,10 172,60 173,80 174,2289
175,7739 176,3089 177,649 178,159
179,40 180,40 181,30 188,20
189,219 190,50 191,119 192,439
193,119 194,40 195,10 202,20
204,20 206,80 207,20 216,10
220,20 221,229 222,40 223,20
##END=
