##TITLE=2-Chloro-4-phenylphenol
##JCAMP-DX=4.24
##DATA TYPE=MASS SPECTRUM
##ORIGIN=Japan AIST/NIMC Database- Spectrum MS-NW-3890
##OWNER=NIST Mass Spectrometry Data Center
Collection (C) 2014 copyright by the U.S. Secretary of Commerce
on behalf of the United States of America. All rights reserved.
##CAS REGISTRY NO=92-04-6
##$NIST MASS SPEC NO=232559
##MOLFORM=C12 H9 Cl O
##MW=204
##$NIST SOURCE=MSDC
##XUNITS=M/Z
##YUNITS=RELATIVE INTENSITY
##XFACTOR=1
##YFACTOR=1
##FIRSTX=26
##LASTX=208
##FIRSTY=20
##MAXX=208
##MINX=26
##MAXY=9999
##MINY=10
##NPOINTS=107
##PEAK TABLE=(XY..XY)
26,20 27,50 28,109 29,20
36,30 37,30 38,60 39,199
40,10 41,10 43,10 44,10
49,10 50,149 51,239 52,40
53,119 55,40 56,40 57,90
60,10 61,60 62,239 63,379
64,60 65,80 66,10 67,10
68,10 69,279 70,409 71,50
73,60 74,149 75,199 76,80
77,90 78,20 83,10 84,269
85,50 86,109 87,159 88,139
89,219 90,30 91,50 92,10
93,10 97,20 98,50 99,50
100,20 101,80 102,389 103,119
104,40 105,20 109,10 110,30
111,30 112,30 113,189 114,279
115,499 116,60 119,10 120,10
123,10 125,20 126,30 127,20
128,10 129,10 137,50 138,169
139,3119 140,1759 141,639 142,80
143,10 144,10 149,109 150,50
151,90 152,80 153,10 164,10
165,20 167,40 168,359 169,229
170,99 171,10 173,20 175,169
176,30 177,60 178,20 186,10
202,20 203,119 204,9999 205,1369
206,3279 207,439 208,30
##END=
