##TITLE=Butanamide, N-(2-methoxyphenyl)-3-oxo-
##JCAMP-DX=4.24
##DATA TYPE=MASS SPECTRUM
##ORIGIN=Japan AIST/NIMC Database- Spectrum MS-NW-9584
##OWNER=NIST Mass Spectrometry Data Center
Collection (C) 2014 copyright by the U.S. Secretary of Commerce
on behalf of the United States of America. All rights reserved.
##CAS REGISTRY NO=92-15-9
##$NIST MASS SPEC NO=238783
##MOLFORM=C11 H13 N O3
##MW=207
##$NIST SOURCE=MSDC
##XUNITS=M/Z
##YUNITS=RELATIVE INTENSITY
##XFACTOR=1
##YFACTOR=1
##FIRSTX=15
##LASTX=210
##FIRSTY=80
##MAXX=210
##MINX=15
##MAXY=9999
##MINY=10
##NPOINTS=90
##PEAK TABLE=(XY..XY)
15,80 17,10 18,40 26,20
27,90 28,159 29,30 30,10
31,20 32,10 37,10 38,30
39,159 40,20 41,99 42,70
43,1919 44,50 50,60 51,219
52,339 53,159 54,20 55,40
57,10 58,40 62,20 63,90
64,99 65,529 66,80 67,30
69,90 75,10 76,20 77,189
78,149 79,129 80,739 81,50
84,70 85,319 86,10 90,30
91,80 92,359 93,169 94,129
95,70 96,10 102,10 104,70
105,119 106,129 107,40 108,7879
109,649 110,40 119,10 120,409
121,99 122,189 123,9999 124,879
125,50 132,30 133,30 134,299
135,149 136,50 137,10 146,40
147,20 148,30 149,4329 150,499
151,40 163,10 164,70 165,20
176,80 177,10 178,10 189,179
190,20 206,20 207,9079 208,1229
209,129 210,10
##END=
