##TITLE=Phenyltoloxamine
##JCAMP-DX=4.24
##DATA TYPE=MASS SPECTRUM
##ORIGIN=Tox21 Consortium/NIST Mass Spectrometry Data Center, 2012
##OWNER=NIST Mass Spectrometry Data Center
Collection (C) 2014 copyright by the U.S. Secretary of Commerce
on behalf of the United States of America. All rights reserved.
##CAS REGISTRY NO=92-12-6
##$NIST MASS SPEC NO=408329
##MOLFORM=C17 H21 N O
##MW=255
##$NIST SOURCE=MSDC
##XUNITS=M/Z
##YUNITS=RELATIVE INTENSITY
##XFACTOR=1
##YFACTOR=1
##FIRSTX=15
##LASTX=257
##FIRSTY=20
##MAXX=257
##MINX=15
##MAXY=9999
##MINY=10
##NPOINTS=101
##PEAK TABLE=(XY..XY)
15,20 18,20 27,40 28,60
29,60 30,150 38,10 39,80
40,10 41,40 42,550 43,220
44,200 45,50 46,160 50,40
51,130 52,40 53,20 54,20
55,50 56,290 57,140 58,9999
59,360 62,20 63,70 64,20
65,80 66,10 70,110 71,140
72,270 73,10 74,20 75,20
76,40 77,160 78,80 79,10
82,20 86,10 87,10 88,10
89,70 90,20 91,440 92,40
101,10 102,40 103,20 104,10
105,30 106,10 107,10 113,10
114,10 115,140 116,20 118,10
119,10 126,30 127,60 128,100
129,30 131,10 132,10 133,10
134,10 138,10 139,70 140,10
141,20 150,10 151,50 152,230
153,130 154,40 155,30 162,10
163,70 164,60 165,390 166,80
167,30 168,10 178,20 179,10
181,250 182,40 183,10 184,10
195,30 196,10 209,10 210,190
211,30 224,10 255,290 256,50
257,10
##END=
