##TITLE=Leucinocaine
##JCAMP-DX=4.24
##DATA TYPE=MASS SPECTRUM
##ORIGIN=Finnigan MAT: Toxicological Library (LIBR-TX)
##OWNER=NIST Mass Spectrometry Data Center
Collection (C) 2014 copyright by the U.S. Secretary of Commerce
on behalf of the United States of America. All rights reserved.
##CAS REGISTRY NO=92-23-9
##$NIST MASS SPEC NO=120781
##MOLFORM=C17 H28 N2 O2
##MW=292
##$NIST SOURCE=MSDC
##XUNITS=M/Z
##YUNITS=RELATIVE INTENSITY
##XFACTOR=1
##YFACTOR=1
##FIRSTX=41
##LASTX=235
##FIRSTY=192
##MAXX=235
##MINX=41
##MAXY=9999
##MINY=93
##NPOINTS=19
##PEAK TABLE=(XY..XY)
41,192 42,187 43,183 44,179
56,305 58,108 65,193 71,207
72,884 84,93 86,426 92,307
96,100 100,196 120,1783 121,103
142,9999 143,1129 235,205
##END=
