##TITLE=Methanediamine, 1-phenyl-N,N'-bis(phenylmethylene)-
##JCAMP-DX=4.24
##DATA TYPE=MASS SPECTRUM
##ORIGIN=A.A.Kutin, Moscow, Russia
##OWNER=NIST Mass Spectrometry Data Center
Collection (C) 2014 copyright by the U.S. Secretary of Commerce
on behalf of the United States of America. All rights reserved.
##CAS REGISTRY NO=92-29-5
##$NIST MASS SPEC NO=301638
##MOLFORM=C21 H18 N2
##MW=298
##$NIST SOURCE=MSDC
##XUNITS=M/Z
##YUNITS=RELATIVE INTENSITY
##XFACTOR=1
##YFACTOR=1
##FIRSTX=49
##LASTX=297
##FIRSTY=120
##MAXX=297
##MINX=49
##MAXY=9999
##MINY=20
##NPOINTS=112
##PEAK TABLE=(XY..XY)
49,120 50,1581 51,1922 52,1191
53,230 54,40 55,220 56,200
57,470 61,50 62,350 63,1932
64,1982 65,2322 66,721 67,100
68,70 69,150 70,60 73,90
74,280 75,550 76,1381 77,2242
78,240 80,80 81,200 82,240
83,300 85,50 87,110 88,280
89,2582 90,2472 91,2692 92,1842
93,100 96,160 97,440 98,140
99,70 100,140 101,190 103,1862
104,2112 105,2192 106,671 108,110
109,370 110,20 112,20 113,40
114,591 115,70 116,2512 117,1862
118,550 119,60 120,80 122,100
126,110 127,120 128,440 129,130
130,40 136,30 137,90 138,340
139,150 140,390 141,160 142,90
143,70 144,40 145,50 147,40
148,70 149,100 150,410 151,1922
152,530 153,100 163,160 164,350
165,2712 166,2372 167,2482 168,1441
169,370 171,90 176,110 177,420
178,240 179,130 180,90 182,140
190,450 191,450 192,2012 193,2692
194,9999 195,3083 196,1722 197,100
198,30 207,90 214,70 218,30
219,611 220,130 296,90 297,130
##END=
