##TITLE=Naphthacene
##JCAMP-DX=4.24
##DATA TYPE=MASS SPECTRUM
##OWNER=NIST Mass Spectrometry Data Center
Collection (C) 2014 copyright by the U.S. Secretary of Commerce
on behalf of the United States of America. All rights reserved.
##CAS REGISTRY NO=92-24-0
##$NIST MASS SPEC NO=10855
##MOLFORM=C18 H12
##MW=228
##$NIST SOURCE=MSDC
##XUNITS=M/Z
##YUNITS=RELATIVE INTENSITY
##XFACTOR=1
##YFACTOR=1
##FIRSTX=38
##LASTX=231
##FIRSTY=90
##MAXX=231
##MINX=38
##MAXY=9999
##MINY=10
##NPOINTS=145
##PEAK TABLE=(XY..XY)
38,90 39,340 40,50 41,50
42,10 43,30 44,210 45,10
49,10 50,250 51,220 52,50
53,20 55,20 56,20 57,30
61,40 62,160 63,270 64,30
65,30 66,10 67,10 68,10
69,10 70,10 71,10 73,20
74,230 75,260 76,220 77,70
78,20 79,10 80,10 81,10
82,10 85,50 86,190 87,340
88,420 89,90 90,10 91,90
92,10 93,10 94,20 95,10
96,10 97,20 98,180 99,220
100,711 101,851 102,40 103,10
104,10 105,30 106,60 107,20
108,10 109,20 110,80 111,130
112,500 113,1311 114,2502 115,90
116,10 117,10 118,10 119,20
120,20 121,20 122,80 123,50
124,20 125,30 126,90 127,30
128,10 129,10 133,10 134,30
135,30 136,10 137,30 138,20
139,60 140,10 141,10 142,10
146,20 147,10 148,10 149,40
150,160 151,100 152,70 153,10
158,10 159,10 161,30 162,30
163,100 164,20 165,40 166,10
173,10 174,120 175,90 176,160
177,40 178,40 179,10 185,10
186,20 187,110 188,40 189,120
190,20 191,10 197,10 198,80
199,90 200,420 201,190 202,350
203,60 204,10 207,20 211,20
212,10 213,70 214,20 222,40
223,60 224,520 225,280 226,2212
227,661 228,9999 229,1983 230,220
231,10
##END=
