##TITLE=10H-Phenothiazine, 2-(trifluoromethyl)-
##JCAMP-DX=4.24
##DATA TYPE=MASS SPECTRUM
##ORIGIN=Japan AIST/NIMC Database- Spectrum MS-IW-4905
##OWNER=NIST Mass Spectrometry Data Center
Collection (C) 2014 copyright by the U.S. Secretary of Commerce
on behalf of the United States of America. All rights reserved.
##CAS REGISTRY NO=92-30-8
##$NIST MASS SPEC NO=235636
##MOLFORM=C13 H8 F3 N S
##MW=267
##$NIST SOURCE=MSDC
##XUNITS=M/Z
##YUNITS=RELATIVE INTENSITY
##XFACTOR=1
##YFACTOR=1
##FIRSTX=37
##LASTX=270
##FIRSTY=10
##MAXX=270
##MINX=37
##MAXY=9999
##MINY=10
##NPOINTS=168
##PEAK TABLE=(XY..XY)
37,10 38,30 39,90 45,169
50,90 51,80 52,40 57,30
58,20 61,20 62,60 63,189
64,40 65,40 69,309 70,60
71,40 72,10 73,10 74,80
75,129 76,60 77,90 78,20
81,40 82,60 83,20 84,10
85,40 86,40 87,30 88,40
89,20 90,10 91,10 92,40
93,70 94,50 95,109 96,40
97,10 98,139 99,60 100,20
101,159 102,80 103,10 105,10
106,20 107,60 108,229 109,70
110,40 111,40 112,10 113,30
114,30 115,10 116,10 117,60
118,10 119,30 120,40 121,10
122,20 123,129 124,129 125,40
126,60 127,60 128,40 131,10
132,40 133,1009 134,169 135,10
137,10 138,30 139,60 140,50
143,10 144,20 145,50 146,30
150,10 151,20 152,40 153,99
154,179 155,20 156,10 157,80
158,30 159,20 163,10 164,90
165,90 166,159 167,20 169,60
170,60 171,119 172,50 173,10
175,40 176,40 177,10 181,10
182,40 183,30 184,90 185,119
186,10 187,30 188,40 189,40
190,20 194,30 195,60 196,279
197,299 198,429 199,70 200,30
201,10 202,139 203,269 204,30
206,20 207,70 208,50 209,10
213,50 214,90 215,129 216,259
217,40 219,10 220,30 221,40
222,359 223,109 224,10 226,10
227,80 228,149 232,10 233,70
234,619 235,2019 236,299 237,20
238,20 239,80 240,40 241,20
245,40 246,219 247,1409 248,589
249,139 250,20 265,80 266,1369
267,9999 268,1599 269,559 270,60
##END=
