##TITLE=Benzenamine, 4-(6-methyl-2-benzothiazolyl)-
##JCAMP-DX=4.24
##DATA TYPE=MASS SPECTRUM
##ORIGIN=NIST Mass Spectrometry Data Center, 1998.
##OWNER=NIST Mass Spectrometry Data Center
Collection (C) 2014 copyright by the U.S. Secretary of Commerce
on behalf of the United States of America. All rights reserved.
##CAS REGISTRY NO=92-36-4
##$NIST MASS SPEC NO=291166
##MOLFORM=C14 H12 N2 S
##MW=240
##$NIST SOURCE=MSDC
##XUNITS=M/Z
##YUNITS=RELATIVE INTENSITY
##XFACTOR=1
##YFACTOR=1
##FIRSTX=26
##LASTX=244
##FIRSTY=10
##MAXX=244
##MINX=26
##MAXY=9999
##MINY=10
##NPOINTS=182
##PEAK TABLE=(XY..XY)
26,10 27,50 30,10 37,20
38,70 39,350 40,30 41,90
42,20 45,250 46,10 47,20
49,10 50,140 51,410 52,260
53,90 54,50 57,20 58,50
59,20 60,20 61,30 62,140
63,550 64,250 65,400 66,80
67,30 68,10 69,510 70,140
71,120 72,20 73,10 74,60
75,90 76,140 77,1140 78,1040
79,110 80,110 81,80 82,170
83,80 84,40 85,10 86,20
87,40 88,40 89,180 90,180
91,480 92,170 93,200 94,70
95,120 96,80 97,40 98,30
100,10 101,20 102,50 103,70
104,60 105,110 106,130 107,50
108,40 109,40 110,10 111,30
112,20 114,20 115,50 116,140
117,100 118,720 119,10 120,1170
121,3540 122,1160 123,280 124,450
125,40 126,30 127,30 128,20
129,10 130,20 131,10 133,10
134,20 135,10 136,180 137,20
138,10 139,30 140,40 141,20
142,10 143,10 145,10 146,50
147,20 148,80 149,30 150,30
151,30 152,50 153,40 154,30
155,10 158,10 159,20 160,20
161,10 162,20 163,10 164,20
165,10 166,30 167,50 168,40
169,10 170,10 171,20 172,40
173,20 174,20 175,10 176,10
177,20 178,40 179,40 180,140
181,30 182,10 183,10 184,30
185,30 186,40 187,40 188,10
189,10 190,20 191,20 192,30
193,20 194,20 195,170 196,100
197,70 198,40 199,20 200,10
205,60 206,70 207,230 208,120
209,40 210,60 211,60 212,120
213,70 214,20 221,10 222,60
223,50 224,130 225,50 226,10
235,10 236,10 237,50 238,140
239,2990 240,9999 241,1780 242,580
243,80 244,10
##END=
