##TITLE=2H-1-Benzopyran-2-one, 6-methyl-
##JCAMP-DX=4.24
##DATA TYPE=MASS SPECTRUM
##ORIGIN=Japan AIST/NIMC Database- Spectrum MS-NW-2675
##OWNER=NIST Mass Spectrometry Data Center
Collection (C) 2014 copyright by the U.S. Secretary of Commerce
on behalf of the United States of America. All rights reserved.
##CAS REGISTRY NO=92-48-8
##$NIST MASS SPEC NO=231599
##MOLFORM=C10 H8 O2
##MW=160
##$NIST SOURCE=MSDC
##XUNITS=M/Z
##YUNITS=RELATIVE INTENSITY
##XFACTOR=1
##YFACTOR=1
##FIRSTX=15
##LASTX=162
##FIRSTY=20
##MAXX=162
##MINX=15
##MAXY=9999
##MINY=10
##NPOINTS=66
##PEAK TABLE=(XY..XY)
15,20 18,10 25,10 26,129
27,399 28,169 29,20 37,99
38,259 39,629 40,40 41,50
43,40 44,30 49,80 50,629
51,1949 52,889 53,249 54,30
55,40 60,10 61,90 62,219
63,679 64,159 65,219 66,219
73,30 74,199 75,199 76,269
77,1919 78,1559 79,129 80,159
85,30 86,50 87,60 88,30
89,229 90,30 91,40 92,10
98,20 101,60 102,449 103,1769
104,2549 105,239 106,40 114,10
115,80 116,10 118,20 129,10
130,50 131,5099 132,7439 133,719
134,60 158,30 159,229 160,9999
161,1099 162,109
##END=
