##TITLE=Morpholine, 4-phenyl-
##JCAMP-DX=4.24
##DATA TYPE=MASS SPECTRUM
##ORIGIN=RADIAN CORP
##OWNER=NIST Mass Spectrometry Data Center
Collection (C) 2014 copyright by the U.S. Secretary of Commerce
on behalf of the United States of America. All rights reserved.
##CAS REGISTRY NO=92-53-5
##$NIST MASS SPEC NO=69546
##MOLFORM=C10 H13 N O
##MW=163
##$NIST SOURCE=MSDC
##XUNITS=M/Z
##YUNITS=RELATIVE INTENSITY
##XFACTOR=1
##YFACTOR=1
##FIRSTX=15
##LASTX=165
##FIRSTY=60
##MAXX=165
##MINX=15
##MAXY=9999
##MINY=10
##NPOINTS=71
##PEAK TABLE=(XY..XY)
15,60 26,90 27,300 29,310
30,100 31,240 33,20 35,20
37,40 38,80 39,240 41,100
42,130 43,100 45,30 47,10
50,280 51,1120 52,220 53,70
54,90 55,40 56,90 57,130
60,10 61,30 62,50 63,210
64,120 65,300 66,30 67,20
72,30 74,140 75,140 76,240
77,3690 78,620 79,190 81,10
82,10 87,10 89,70 90,60
91,560 92,70 93,10 102,40
103,40 104,5160 105,9999 106,1290
107,20 115,40 116,30 117,180
118,110 119,70 120,30 130,80
131,50 132,450 133,140 134,60
148,40 160,20 161,110 162,350
163,3270 164,460 165,20
##END=
