##TITLE=Ethanol, 2-(ethylphenylamino)-
##JCAMP-DX=4.24
##DATA TYPE=MASS SPECTRUM
##ORIGIN=NIST Mass Spectrometry Data Center, 1994
##OWNER=NIST Mass Spectrometry Data Center
Collection (C) 2014 copyright by the U.S. Secretary of Commerce
on behalf of the United States of America. All rights reserved.
##CAS REGISTRY NO=92-50-2
##$NIST MASS SPEC NO=133993
##MOLFORM=C10 H15 N O
##MW=165
##$NIST SOURCE=MSDC
##XUNITS=M/Z
##YUNITS=RELATIVE INTENSITY
##XFACTOR=1
##YFACTOR=1
##FIRSTX=14
##LASTX=166
##FIRSTY=46
##MAXX=166
##MINX=14
##MAXY=9999
##MINY=3
##NPOINTS=64
##PEAK TABLE=(XY..XY)
14,46 15,151 16,3 18,3
26,150 27,976 28,405 29,1044
30,228 31,1073 37,31 38,92
39,460 40,74 41,155 42,287
43,211 44,86 45,299 50,379
51,1478 52,298 53,80 54,69
56,69 58,47 62,45 63,212
64,157 65,377 66,116 73,20
74,88 75,86 76,20 77,3202
78,684 79,1373 80,106 89,50
90,78 91,634 92,137 93,125
94,37 104,1180 106,5874 107,484
108,21 117,126 118,260 119,154
120,242 121,65 130,32 132,109
134,9999 135,1088 136,50 146,34
148,18 150,165 165,1337 166,174
##END=
