##TITLE=Biphenyl
##JCAMP-DX=4.24
##DATA TYPE=MASS SPECTRUM
##ORIGIN=NIST Mass Spectrometry Data Center, 1990.
##OWNER=NIST Mass Spectrometry Data Center
Collection (C) 2014 copyright by the U.S. Secretary of Commerce
on behalf of the United States of America. All rights reserved.
##CAS REGISTRY NO=92-52-4
##$NIST MASS SPEC NO=114218
##MOLFORM=C12 H10
##MW=154
##$NIST SOURCE=MSDC
##XUNITS=M/Z
##YUNITS=RELATIVE INTENSITY
##XFACTOR=1
##YFACTOR=1
##FIRSTX=26
##LASTX=156
##FIRSTY=58
##MAXX=156
##MINX=26
##MAXY=9999
##MINY=12
##NPOINTS=52
##PEAK TABLE=(XY..XY)
26,58 27,115 28,12 37,35
38,105 39,396 40,44 50,730
51,1148 52,240 53,27 61,109
62,358 63,927 64,462 65,162
70,43 73,66 74,612 75,675
76,2001 77,843 78,178 87,252
88,104 89,298 90,21 91,42
100,73 101,157 102,490 103,64
113,124 114,72 115,578 116,55
125,63 126,499 127,432 128,638
129,63 137,13 139,231 140,28
149,32 150,332 151,1000 152,3163
153,4801 154,9999 155,1297 156,77
##END=
