##TITLE=[1,1'-Biphenyl]-4-amine
##JCAMP-DX=4.24
##DATA TYPE=MASS SPECTRUM
##ORIGIN=G. VANDER VELDE
##OWNER=NIST Mass Spectrometry Data Center
Collection (C) 2014 copyright by the U.S. Secretary of Commerce
on behalf of the United States of America. All rights reserved.
##CAS REGISTRY NO=92-67-1
##$NIST MASS SPEC NO=27135
##MOLFORM=C12 H11 N
##MW=169
##$NIST SOURCE=MSDC
##XUNITS=M/Z
##YUNITS=RELATIVE INTENSITY
##XFACTOR=1
##YFACTOR=1
##FIRSTX=18
##LASTX=171
##FIRSTY=200
##MAXX=171
##MINX=18
##MAXY=9999
##MINY=53
##NPOINTS=83
##PEAK TABLE=(XY..XY)
18,200 26,78 27,322 30,92
37,68 38,259 39,1153 40,175
41,430 42,151 43,68 50,532
51,913 52,596 53,161 54,371
55,53 56,68 57,141 58,190
59,58 61,122 62,434 63,1031
64,317 65,615 66,229 67,215
69,239 70,586 71,874 72,171
74,347 75,376 76,488 77,689
78,224 82,63 83,816 84,1373
85,376 86,171 87,244 88,200
89,615 90,180 91,273 92,68
93,234 98,83 99,63 100,53
101,117 102,464 103,185 104,83
113,249 114,229 115,2008 116,381
117,161 126,185 127,317 128,542
129,87 130,178 138,53 139,874
140,481 141,1847 142,420 143,322
150,144 151,569 152,620 153,310
154,315 166,391 167,2162 168,3548
169,9999 170,2456 171,158
##END=
