##TITLE=1,1'-Biphenyl, 4-bromo-
##JCAMP-DX=4.24
##DATA TYPE=MASS SPECTRUM
##ORIGIN=Japan AIST/NIMC Database- Spectrum MS-NW-9691
##OWNER=NIST Mass Spectrometry Data Center
Collection (C) 2014 copyright by the U.S. Secretary of Commerce
on behalf of the United States of America. All rights reserved.
##CAS REGISTRY NO=92-66-0
##$NIST MASS SPEC NO=236962
##MOLFORM=C12 H9 Br
##MW=232
##$NIST SOURCE=MSDC
##XUNITS=M/Z
##YUNITS=RELATIVE INTENSITY
##XFACTOR=1
##YFACTOR=1
##FIRSTX=27
##LASTX=236
##FIRSTY=20
##MAXX=236
##MINX=27
##MAXY=9999
##MINY=10
##NPOINTS=70
##PEAK TABLE=(XY..XY)
27,20 38,20 39,99 49,10
50,249 51,349 52,60 61,40
62,149 63,839 64,40 65,20
69,10 73,20 74,239 75,539
76,2419 77,439 78,50 80,10
82,10 85,20 86,70 87,90
88,50 89,50 90,20 91,10
98,90 99,80 100,40 101,169
102,179 103,60 104,30 110,20
111,10 113,60 114,80 115,60
116,449 117,439 121,10 122,20
123,10 124,10 125,90 126,369
127,429 128,60 137,10 138,10
149,30 150,439 151,1529 152,6269
153,2759 154,489 155,40 180,10
182,10 193,10 195,10 206,10
208,10 232,9999 233,1329 234,9759
235,1289 236,80
##END=
