##TITLE=Oxazole, 2,5-diphenyl-
##JCAMP-DX=4.24
##DATA TYPE=MASS SPECTRUM
##ORIGIN=NIST Mass Spectrometry Data Center, 1990.
##OWNER=NIST Mass Spectrometry Data Center
Collection (C) 2014 copyright by the U.S. Secretary of Commerce
on behalf of the United States of America. All rights reserved.
##CAS REGISTRY NO=92-71-7
##$NIST MASS SPEC NO=118732
##MOLFORM=C15 H11 N O
##MW=221
##$NIST SOURCE=MSDC
##XUNITS=M/Z
##YUNITS=RELATIVE INTENSITY
##XFACTOR=1
##YFACTOR=1
##FIRSTX=14
##LASTX=224
##FIRSTY=16
##MAXX=224
##MINX=14
##MAXY=9999
##MINY=10
##NPOINTS=79
##PEAK TABLE=(XY..XY)
14,16 16,20 17,11 18,50
26,44 27,159 28,67 29,18
37,81 38,200 39,1018 40,107
41,24 50,757 51,1962 52,191
53,41 58,11 61,150 62,638
63,2011 64,429 65,93 69,13
70,10 74,205 75,240 76,502
77,3513 78,214 82,218 83,613
85,35 86,137 87,210 88,35
89,3863 90,1353 91,123 96,245
98,17 99,14 102,56 103,101
105,824 106,59 110,572 113,33
114,62 116,1641 117,189 118,29
126,17 138,15 139,104 140,28
144,72 151,25 152,36 153,18
163,153 165,6173 166,3884 167,485
168,36 177,26 178,45 179,23
190,78 191,162 192,619 193,1761
194,447 195,49 220,1021 221,9999
222,1728 223,147 224,17
##END=
