##TITLE=2-Naphthalenecarboxamide, N-(2,5-dimethoxyphenyl)-3-hydroxy-
##JCAMP-DX=4.24
##DATA TYPE=MASS SPECTRUM
##ORIGIN=NIST Mass Spectrometry Data Center, 1994
##OWNER=NIST Mass Spectrometry Data Center
Collection (C) 2014 copyright by the U.S. Secretary of Commerce
on behalf of the United States of America. All rights reserved.
##CAS REGISTRY NO=92-73-9
##$NIST MASS SPEC NO=134291
##MOLFORM=C19 H17 N O4
##MW=323
##$NIST SOURCE=MSDC
##XUNITS=M/Z
##YUNITS=RELATIVE INTENSITY
##XFACTOR=1
##YFACTOR=1
##FIRSTX=15
##LASTX=325
##FIRSTY=70
##MAXX=325
##MINX=15
##MAXY=9999
##MINY=17
##NPOINTS=83
##PEAK TABLE=(XY..XY)
15,70 29,28 39,187 40,25
41,52 44,23 50,51 51,156
52,221 53,131 54,41 55,43
62,68 63,213 64,64 65,206
66,70 67,81 68,120 69,64
71,39 75,60 76,46 77,63
78,51 79,156 80,75 81,27
82,54 86,38 87,66 88,188
89,360 90,51 92,63 93,89
94,44 95,212 96,28 107,83
108,63 109,65 110,433 111,58
112,28 113,311 114,833 115,3311
116,325 117,23 122,78 123,37
124,56 125,101 126,34 127,27
128,25 136,25 138,5319 139,455
140,68 141,25 142,815 143,354
144,50 150,37 151,22 153,9999
154,858 155,91 162,49 164,36
165,25 170,408 171,2539 172,296
190,17 220,26 248,25 292,47
323,1339 324,307 325,36
##END=
