##TITLE=2-Naphthalenecarboxamide, N-(5-chloro-2,4-dimethoxyphenyl)-3-hydroxy-
##JCAMP-DX=4.24
##DATA TYPE=MASS SPECTRUM
##ORIGIN=NIST Mass Spectrometry Data Center, 1994
##OWNER=NIST Mass Spectrometry Data Center
Collection (C) 2014 copyright by the U.S. Secretary of Commerce
on behalf of the United States of America. All rights reserved.
##CAS REGISTRY NO=92-72-8
##$NIST MASS SPEC NO=134288
##MOLFORM=C19 H16 Cl N O4
##MW=357
##$NIST SOURCE=MSDC
##XUNITS=M/Z
##YUNITS=RELATIVE INTENSITY
##XFACTOR=1
##YFACTOR=1
##FIRSTX=15
##LASTX=360
##FIRSTY=65
##MAXX=360
##MINX=15
##MAXY=9999
##MINY=43
##NPOINTS=60
##PEAK TABLE=(XY..XY)
15,65 39,131 51,71 52,112
53,89 62,90 63,229 65,194
66,50 69,88 71,70 73,78
75,92 76,117 77,78 78,143
80,86 86,97 87,84 88,229
89,448 90,64 92,60 93,43
106,97 107,67 108,174 109,79
113,343 114,955 115,3552 116,375
123,196 124,55 126,68 127,69
128,63 129,225 131,68 142,883
143,366 144,337 145,49 146,123
156,53 158,53 170,467 171,3495
172,3504 173,322 174,1082 175,112
187,9999 188,950 189,3274 190,331
357,727 358,156 359,241 360,54
##END=
