##TITLE=9H-Xanthene
##JCAMP-DX=4.24
##DATA TYPE=MASS SPECTRUM
##ORIGIN=Japan AIST/NIMC Database- Spectrum MS-NW- 107
##OWNER=NIST Mass Spectrometry Data Center
Collection (C) 2014 copyright by the U.S. Secretary of Commerce
on behalf of the United States of America. All rights reserved.
##CAS REGISTRY NO=92-83-1
##$NIST MASS SPEC NO=228198
##MOLFORM=C13 H10 O
##MW=182
##$NIST SOURCE=MSDC
##XUNITS=M/Z
##YUNITS=RELATIVE INTENSITY
##XFACTOR=1
##YFACTOR=1
##FIRSTX=17
##LASTX=185
##FIRSTY=10
##MAXX=185
##MINX=17
##MAXY=9999
##MINY=10
##NPOINTS=72
##PEAK TABLE=(XY..XY)
17,10 18,20 27,30 28,10
29,10 38,20 39,99 41,40
43,40 50,90 51,169 52,30
55,40 56,20 57,50 60,30
61,10 62,50 63,219 64,109
65,10 69,30 70,10 71,20
73,50 74,70 75,109 76,619
77,139 78,30 81,10 82,10
83,20 84,10 85,20 86,20
87,50 88,10 89,40 90,359
91,479 97,20 98,20 99,20
100,10 101,40 102,60 103,10
113,20 114,20 115,50 125,10
126,119 127,159 128,40 129,20
139,20 149,60 150,109 151,299
152,1089 153,239 154,30 155,30
165,20 179,40 180,109 181,9999
182,5519 183,739 184,119 185,20
##END=
