##TITLE=Acridine, 9,10-dihydro-
##JCAMP-DX=4.24
##DATA TYPE=MASS SPECTRUM
##ORIGIN=NIST Mass Spectrometry Data Center, 1990.
##OWNER=NIST Mass Spectrometry Data Center
Collection (C) 2014 copyright by the U.S. Secretary of Commerce
on behalf of the United States of America. All rights reserved.
##CAS REGISTRY NO=92-81-9
##$NIST MASS SPEC NO=118409
##MOLFORM=C13 H11 N
##MW=181
##$NIST SOURCE=MSDC
##XUNITS=M/Z
##YUNITS=RELATIVE INTENSITY
##XFACTOR=1
##YFACTOR=1
##FIRSTX=26
##LASTX=183
##FIRSTY=28
##MAXX=183
##MINX=26
##MAXY=9999
##MINY=15
##NPOINTS=68
##PEAK TABLE=(XY..XY)
26,28 27,90 28,44 37,29
38,64 39,216 40,33 49,26
50,258 51,344 52,108 53,29
61,42 62,179 63,484 64,130
65,37 73,23 74,206 75,471
76,686 77,605 85,16 86,78
87,96 88,16 89,688 90,1030
98,76 99,82 100,100 101,153
102,121 103,39 111,32 112,19
113,98 114,45 115,40 123,20
124,29 125,150 126,251 127,272
128,192 129,40 137,16 138,17
139,30 140,57 141,24 149,55
150,276 151,697 152,1256 153,318
154,116 164,44 165,15 175,37
176,79 177,419 178,1261 179,3036
180,9999 181,4300 182,483 183,33
##END=
