##TITLE=1,1'-Biphenyl, 4-nitro-
##JCAMP-DX=4.24
##DATA TYPE=MASS SPECTRUM
##ORIGIN=NIST Mass Spectrometry Data Center, 1992
##OWNER=NIST Mass Spectrometry Data Center
Collection (C) 2014 copyright by the U.S. Secretary of Commerce
on behalf of the United States of America. All rights reserved.
##CAS REGISTRY NO=92-93-3
##$NIST MASS SPEC NO=125464
##MOLFORM=C12 H9 N O2
##MW=199
##$NIST SOURCE=MSDC
##XUNITS=M/Z
##YUNITS=RELATIVE INTENSITY
##XFACTOR=1
##YFACTOR=1
##FIRSTX=15
##LASTX=202
##FIRSTY=11
##MAXX=202
##MINX=15
##MAXY=9999
##MINY=5
##NPOINTS=92
##PEAK TABLE=(XY..XY)
15,11 16,14 18,39 26,64
27,185 28,476 29,11 30,645
32,83 37,38 38,135 39,464
40,22 44,5 46,103 48,12
50,735 51,1026 52,215 53,31
54,12 57,21 61,129 62,383
63,941 64,88 65,133 69,21
71,14 74,706 75,857 76,1489
77,834 78,103 79,9 84,10
85,80 86,218 87,308 88,140
89,253 90,32 91,76 98,235
99,189 100,135 101,283 102,576
103,90 109,22 110,68 111,65
112,28 113,170 114,22 115,1510
116,167 121,15 122,42 123,28
124,25 125,178 126,903 127,897
128,87 129,13 137,20 139,318
141,2890 142,341 143,24 146,13
150,1056 151,3225 152,9612 153,2920
154,271 155,22 164,10 166,59
167,50 169,4218 170,547 171,34
181,27 183,77 184,16 196,14
199,9999 200,1306 201,125 202,11
##END=
