##TITLE=Hexane, 2,3,4-trimethyl-
##JCAMP-DX=4.24
##DATA TYPE=MASS SPECTRUM
##OWNER=NIST Mass Spectrometry Data Center
Collection (C) 2014 copyright by the U.S. Secretary of Commerce
on behalf of the United States of America. All rights reserved.
##CAS REGISTRY NO=921-47-1
##$NIST MASS SPEC NO=2650
##MOLFORM=C9 H20
##MW=128
##$NIST SOURCE=MSDC
##XUNITS=M/Z
##YUNITS=RELATIVE INTENSITY
##XFACTOR=1
##YFACTOR=1
##FIRSTX=25
##LASTX=129
##FIRSTY=10
##MAXX=129
##MINX=25
##MAXY=9999
##MINY=10
##NPOINTS=57
##PEAK TABLE=(XY..XY)
25,10 26,120 27,2362 28,380
29,2482 30,50 37,20 38,50
39,1171 40,190 41,3163 42,460
43,9999 44,330 45,10 49,10
50,30 51,80 52,40 53,270
54,80 55,1311 56,1081 57,2973
58,130 59,10 62,10 63,10
64,10 65,30 66,10 67,70
68,20 69,510 70,1902 71,3113
72,170 73,10 77,20 78,20
79,10 80,10 81,10 82,10
83,80 84,1321 85,2893 86,180
87,10 91,10 97,10 98,10
99,50 100,10 113,10 128,20
129,10
##END=
