##TITLE=4-Phenoxyphenylacetonitrile
##JCAMP-DX=4.24
##DATA TYPE=MASS SPECTRUM
##ORIGIN=NIST Mass Spectrometry Data Center
##OWNER=NIST Mass Spectrometry Data Center
Collection (C) 2014 copyright by the U.S. Secretary of Commerce
on behalf of the United States of America. All rights reserved.
##CAS REGISTRY NO=92163-15-0
##$NIST MASS SPEC NO=342873
##MOLFORM=C14 H11 N O
##MW=209
##$NIST SOURCE=MSDC
##XUNITS=M/Z
##YUNITS=RELATIVE INTENSITY
##XFACTOR=1
##YFACTOR=1
##FIRSTX=12
##LASTX=211
##FIRSTY=20
##MAXX=211
##MINX=12
##MAXY=9999
##MINY=10
##NPOINTS=107
##PEAK TABLE=(XY..XY)
12,20 14,20 15,10 16,10
17,30 18,150 21,10 26,200
27,691 28,380 29,40 32,20
37,180 38,701 39,2612 40,350
41,180 42,20 44,30 50,1902
51,5555 52,641 53,190 54,30
55,130 56,10 58,50 61,140
62,540 63,1722 64,651 65,1071
66,230 67,10 68,30 69,30
71,70 73,70 74,430 75,460
76,1181 77,4834 78,1852 79,140
82,20 84,20 85,30 86,60
87,130 88,270 89,1722 90,470
91,550 93,60 94,220 95,10
99,10 100,10 101,40 102,160
103,380 104,190 105,70 106,50
107,110 113,40 114,160 116,9999
117,931 118,60 126,60 127,130
128,90 129,30 130,20 131,40
132,180 133,40 139,270 141,1151
142,170 150,30 151,80 152,280
153,440 154,160 155,60 163,10
164,20 165,70 166,110 168,370
169,430 170,60 177,20 178,30
180,480 181,771 182,140 183,80
184,10 190,60 191,20 206,40
209,6696 210,1041 211,80
##END=
