##TITLE=Propanedinitrile, methylene-
##JCAMP-DX=4.24
##DATA TYPE=MASS SPECTRUM
##OWNER=NIST Mass Spectrometry Data Center
Collection (C) 2014 copyright by the U.S. Secretary of Commerce
on behalf of the United States of America. All rights reserved.
##CAS REGISTRY NO=922-64-5
##$NIST MASS SPEC NO=396
##MOLFORM=C4 H2 N2
##MW=78
##$NIST SOURCE=MSDC
##XUNITS=M/Z
##YUNITS=RELATIVE INTENSITY
##XFACTOR=1
##YFACTOR=1
##FIRSTX=14
##LASTX=80
##FIRSTY=470
##MAXX=80
##MINX=14
##MAXY=9999
##MINY=10
##NPOINTS=30
##PEAK TABLE=(XY..XY)
14,470 15,20 16,10 24,440
25,751 26,2522 27,180 28,190
29,30 36,420 37,581 38,1301
39,150 48,80 49,30 50,1241
51,7747 52,2913 53,60 54,10
62,90 63,50 64,110 65,10
75,20 76,741 77,4894 78,9999
79,500 80,20
##END=
