##TITLE=Heptane, 3,4-dimethyl-
##JCAMP-DX=4.24
##DATA TYPE=MASS SPECTRUM
##ORIGIN=Japan AIST/NIMC Database- Spectrum MS-NW-2802
##OWNER=NIST Mass Spectrometry Data Center
Collection (C) 2014 copyright by the U.S. Secretary of Commerce
on behalf of the United States of America. All rights reserved.
##CAS REGISTRY NO=922-28-1
##$NIST MASS SPEC NO=231667
##MOLFORM=C9 H20
##MW=128
##$NIST SOURCE=MSDC
##XUNITS=M/Z
##YUNITS=RELATIVE INTENSITY
##XFACTOR=1
##YFACTOR=1
##FIRSTX=15
##LASTX=129
##FIRSTY=50
##MAXX=129
##MINX=15
##MAXY=9999
##MINY=10
##NPOINTS=45
##PEAK TABLE=(XY..XY)
15,50 26,40 27,1189 28,109
29,2239 30,40 38,30 39,819
40,109 41,3549 42,1119 43,9999
44,329 50,20 51,60 52,10
53,219 54,70 55,2229 56,4959
57,7519 58,309 65,20 67,70
68,30 69,439 70,6019 71,4029
72,219 77,20 81,20 82,10
83,70 84,499 85,1929 86,109
95,10 96,10 97,20 98,269
99,1049 100,80 113,40 128,189
129,20
##END=
