##TITLE=1,4-Pentadien-3-ol
##JCAMP-DX=4.24
##DATA TYPE=MASS SPECTRUM
##ORIGIN=Chuck Anderson, Aldrich Chemical Co.
##OWNER=NIST Mass Spectrometry Data Center
Collection (C) 2014 copyright by the U.S. Secretary of Commerce
on behalf of the United States of America. All rights reserved.
##CAS REGISTRY NO=922-65-6
##$NIST MASS SPEC NO=107980
##MOLFORM=C5 H8 O
##MW=84
##$NIST SOURCE=MSDC
##XUNITS=M/Z
##YUNITS=RELATIVE INTENSITY
##XFACTOR=1
##YFACTOR=1
##FIRSTX=15
##LASTX=85
##FIRSTY=30
##MAXX=85
##MINX=15
##MAXY=9999
##MINY=29
##NPOINTS=45
##PEAK TABLE=(XY..XY)
15,30 25,58 26,668 27,2988
28,840 29,4453 30,213 31,1680
32,61 36,39 37,371 38,768
39,4166 40,1027 41,2930 42,1192
43,1609 44,263 45,88 49,96
50,350 51,387 52,168 53,933
54,389 55,8964 56,3246 57,3390
58,175 60,29 61,134 62,186
63,240 64,66 65,984 66,624
67,553 68,64 69,739 70,33
81,97 82,183 83,9999 84,589
85,35
##END=
