##TITLE=Acetic acid, oxo-, methyl ester
##JCAMP-DX=4.24
##DATA TYPE=MASS SPECTRUM
##ORIGIN=A.E.EARL LABATT BREWERIES, LONDON, ONTARIO, CANADA
##OWNER=NIST Mass Spectrometry Data Center
Collection (C) 2014 copyright by the U.S. Secretary of Commerce
on behalf of the United States of America. All rights reserved.
##CAS REGISTRY NO=922-68-9
##$NIST MASS SPEC NO=67756
##MOLFORM=C3 H4 O3
##MW=88
##$NIST SOURCE=MSDC
##XUNITS=M/Z
##YUNITS=RELATIVE INTENSITY
##XFACTOR=1
##YFACTOR=1
##FIRSTX=15
##LASTX=88
##FIRSTY=4400
##MAXX=88
##MINX=15
##MAXY=9999
##MINY=100
##NPOINTS=14
##PEAK TABLE=(XY..XY)
15,4400 28,2300 29,9999 30,950
31,6700 32,2000 41,120 43,1550
44,1200 45,700 55,170 60,2000
78,100 88,200
##END=
