##TITLE=1-Pentyne, 3-methyl-
##JCAMP-DX=4.24
##DATA TYPE=MASS SPECTRUM
##ORIGIN=NIST Mass Spectrometry Data Center, 1990.
##OWNER=NIST Mass Spectrometry Data Center
Collection (C) 2014 copyright by the U.S. Secretary of Commerce
on behalf of the United States of America. All rights reserved.
##CAS REGISTRY NO=922-59-8
##$NIST MASS SPEC NO=118197
##MOLFORM=C6 H10
##MW=82
##$NIST SOURCE=MSDC
##XUNITS=M/Z
##YUNITS=RELATIVE INTENSITY
##XFACTOR=1
##YFACTOR=1
##FIRSTX=13
##LASTX=82
##FIRSTY=32
##MAXX=82
##MINX=13
##MAXY=9999
##MINY=25
##NPOINTS=42
##PEAK TABLE=(XY..XY)
13,32 14,62 15,310 16,39
18,42 25,82 26,714 27,3680
28,617 29,851 31,34 36,38
37,330 38,737 39,4521 40,770
41,3611 42,595 43,102 49,278
50,1542 51,1869 52,1231 53,4168
54,1926 55,361 56,425 57,36
60,25 61,134 62,248 63,348
64,133 65,1501 66,25 67,9999
68,525 74,59 77,204 79,493
81,970 82,176
##END=
