##TITLE=2-Propenoic acid, 2-methyl-, 2-hydroxypropyl ester
##JCAMP-DX=4.24
##DATA TYPE=MASS SPECTRUM
##ORIGIN=Japan AIST/NIMC Database- Spectrum MS-NW-4980
##OWNER=NIST Mass Spectrometry Data Center
Collection (C) 2014 copyright by the U.S. Secretary of Commerce
on behalf of the United States of America. All rights reserved.
##CAS REGISTRY NO=923-26-2
##$NIST MASS SPEC NO=229487
##MOLFORM=C7 H12 O3
##MW=144
##$NIST SOURCE=MSDC
##XUNITS=M/Z
##YUNITS=RELATIVE INTENSITY
##XFACTOR=1
##YFACTOR=1
##FIRSTX=14
##LASTX=129
##FIRSTY=50
##MAXX=129
##MINX=14
##MAXY=9999
##MINY=10
##NPOINTS=69
##PEAK TABLE=(XY..XY)
14,50 15,309 16,20 17,50
18,189 25,10 26,119 27,459
28,319 29,349 30,60 31,1419
32,40 36,10 37,70 38,159
39,1749 40,579 41,7159 42,629
43,709 44,119 45,2449 46,70
52,10 53,40 54,179 55,919
56,309 57,329 58,2219 59,659
60,40 61,10 67,20 68,129
69,9999 70,779 71,149 72,99
73,70 74,20 75,179 76,10
81,20 82,249 83,40 84,10
85,559 86,179 87,399 88,30
89,10 96,20 98,99 99,1099
100,2599 101,199 102,20 103,80
111,10 113,309 114,209 115,20
116,20 126,20 127,159 128,20
129,40
##END=
