##TITLE=Cyclohexanecarboxylic acid, heptyl ester
##JCAMP-DX=4.24
##DATA TYPE=MASS SPECTRUM
##ORIGIN=V.G.Zaikin, TIPS RAS, Moscow, Russia
##OWNER=NIST Mass Spectrometry Data Center
Collection (C) 2014 copyright by the U.S. Secretary of Commerce
on behalf of the United States of America. All rights reserved.
##CAS REGISTRY NO=92319-47-6
##$NIST MASS SPEC NO=279537
##MOLFORM=C14 H26 O2
##MW=226
##$NIST SOURCE=MSDC
##XUNITS=M/Z
##YUNITS=RELATIVE INTENSITY
##XFACTOR=1
##YFACTOR=1
##FIRSTX=26
##LASTX=227
##FIRSTY=170
##MAXX=227
##MINX=26
##MAXY=9999
##MINY=10
##NPOINTS=71
##PEAK TABLE=(XY..XY)
26,170 27,731 28,180 29,1011
30,60 31,30 38,90 39,931
40,290 41,3253 42,931 43,1992
44,490 45,50 47,70 50,50
51,150 52,50 53,450 54,711
55,4714 56,3483 57,3263 58,180
60,310 61,150 65,50 66,50
67,1211 68,1011 69,1792 70,2532
71,350 73,1451 74,60 77,90
79,210 80,150 81,921 82,651
83,6926 84,681 85,160 86,190
87,230 91,70 93,390 95,80
96,100 97,210 98,3453 99,611
100,60 101,60 109,120 110,911
111,2993 112,260 113,190 115,30
127,170 128,1461 129,9999 130,1191
131,110 143,250 144,20 171,220
172,20 226,40 227,10
##END=
