##TITLE=p-Nitro carbanilic acid, n-heptyl ester
##JCAMP-DX=4.24
##DATA TYPE=MASS SPECTRUM
##ORIGIN=A.A.Kutin, Moscow, Russia
##OWNER=NIST Mass Spectrometry Data Center
Collection (C) 2014 copyright by the U.S. Secretary of Commerce
on behalf of the United States of America. All rights reserved.
##CAS REGISTRY NO=92374-99-7
##$NIST MASS SPEC NO=258648
##MOLFORM=C14 H20 N2 O4
##MW=280
##$NIST SOURCE=MSDC
##XUNITS=M/Z
##YUNITS=RELATIVE INTENSITY
##XFACTOR=1
##YFACTOR=1
##FIRSTX=33
##LASTX=282
##FIRSTY=174
##MAXX=282
##MINX=33
##MAXY=9999
##MINY=2
##NPOINTS=147
##PEAK TABLE=(XY..XY)
33,174 34,260 36,181 37,156
38,423 39,1853 40,3875 41,6602
43,7566 44,1018 45,161 46,51
47,4 48,12 50,365 51,324
52,327 53,434 55,2433 57,9999
58,283 59,41 61,85 62,193
63,660 64,581 65,603 66,180
67,156 68,199 69,481 70,543
71,177 72,28 73,40 74,85
75,246 76,314 77,176 78,126
79,147 80,183 81,113 82,32
83,120 84,44 85,21 86,4
87,23 88,20 90,440 91,879
92,363 93,492 94,38 95,22
96,31 97,145 98,163 99,31
100,7 102,9 103,12 104,17
105,62 106,113 107,119 108,789
109,58 110,19 111,11 112,18
113,16 114,5 115,22 118,48
119,196 120,37 121,44 122,136
123,27 124,7 125,15 126,11
127,41 128,13 129,14 130,6
131,8 132,25 134,138 135,56
138,1450 139,122 140,16 141,10
142,4 143,261 144,27 146,6
148,64 149,33 150,35 151,77
152,86 153,21 154,5 155,9
156,4 157,2 159,2 160,3
161,17 162,5 163,24 164,64
165,279 166,149 167,47 168,9
169,2 171,27 172,4 173,6
174,4 177,5 179,67 180,13
182,1090 183,585 184,63 185,11
187,2 189,2 193,43 194,4
207,42 208,2 212,23 219,3
223,27 250,42 263,2 264,25
280,322 281,44 282,4
##END=
