##TITLE=Nitric acid, 1-methylpropyl ester
##JCAMP-DX=4.24
##DATA TYPE=MASS SPECTRUM
##ORIGIN=MINISTRY OF TECH., E.R.D.E., WALTHAM ABBEY, UK
##OWNER=NIST Mass Spectrometry Data Center
Collection (C) 2014 copyright by the U.S. Secretary of Commerce
on behalf of the United States of America. All rights reserved.
##CAS REGISTRY NO=924-52-7
##$NIST MASS SPEC NO=2129
##MOLFORM=C4 H9 N O3
##MW=119
##$NIST SOURCE=MSDC
##XUNITS=M/Z
##YUNITS=RELATIVE INTENSITY
##XFACTOR=1
##YFACTOR=1
##FIRSTX=12
##LASTX=104
##FIRSTY=40
##MAXX=104
##MINX=12
##MAXY=9999
##MINY=10
##NPOINTS=39
##PEAK TABLE=(XY..XY)
12,40 13,30 14,180 15,820
25,60 26,1000 27,1420 28,1930
29,6720 30,1020 31,110 37,180
38,460 39,2340 40,1220 41,8190
42,500 43,590 44,220 45,1610
46,4200 49,310 50,300 51,330
53,240 54,90 55,820 56,6920
57,9999 58,510 62,880 63,3020
64,400 65,890 76,130 77,390
90,920 91,10 104,530
##END=
