##TITLE=1,5-Hexadien-3-ol
##JCAMP-DX=4.24
##DATA TYPE=MASS SPECTRUM
##ORIGIN=NIST Mass Spectrometry Data Center, 1994
##OWNER=NIST Mass Spectrometry Data Center
Collection (C) 2014 copyright by the U.S. Secretary of Commerce
on behalf of the United States of America. All rights reserved.
##CAS REGISTRY NO=924-41-4
##$NIST MASS SPEC NO=133402
##MOLFORM=C6 H10 O
##MW=98
##$NIST SOURCE=MSDC
##XUNITS=M/Z
##YUNITS=RELATIVE INTENSITY
##XFACTOR=1
##YFACTOR=1
##FIRSTX=14
##LASTX=97
##FIRSTY=17
##MAXX=97
##MINX=14
##MAXY=9999
##MINY=3
##NPOINTS=48
##PEAK TABLE=(XY..XY)
14,17 15,109 19,12 25,26
26,274 27,1307 28,335 29,2985
30,100 31,764 32,3 37,115
38,275 39,1501 40,237 41,854
42,418 43,378 44,49 49,28
50,168 51,221 52,103 53,211
54,99 55,720 56,28 57,9999
58,332 59,31 61,20 62,24
63,28 65,53 66,36 67,54
68,33 69,163 70,85 71,33
74,21 77,126 78,26 79,149
80,80 81,36 83,93 97,39
##END=
