##TITLE=Butanedioic acid, bis(2-methylpropyl) ester
##JCAMP-DX=4.24
##DATA TYPE=MASS SPECTRUM
##ORIGIN=V.G. Zaikin, R.S.Borisov, TIPS RAS, Moscow, Russia
##OWNER=NIST Mass Spectrometry Data Center
Collection (C) 2014 copyright by the U.S. Secretary of Commerce
on behalf of the United States of America. All rights reserved.
##CAS REGISTRY NO=925-06-4
##$NIST MASS SPEC NO=324984
##MOLFORM=C12 H22 O4
##MW=230
##$NIST SOURCE=MSDC
##XUNITS=M/Z
##YUNITS=RELATIVE INTENSITY
##XFACTOR=1
##YFACTOR=1
##FIRSTX=26
##LASTX=231
##FIRSTY=20
##MAXX=231
##MINX=26
##MAXY=9999
##MINY=10
##NPOINTS=48
##PEAK TABLE=(XY..XY)
26,20 27,140 29,300 31,20
36,50 39,150 40,20 41,621
42,70 43,180 44,20 45,60
53,10 55,350 56,831 57,3573
58,140 71,40 72,30 73,320
74,170 75,30 84,90 85,10
86,20 99,30 100,150 101,9999
102,370 103,90 114,140 115,40
118,30 119,1301 120,50 130,150
131,20 132,20 141,70 155,20
156,40 157,1411 158,120 159,50
175,370 176,30 215,10 231,20
##END=
