##TITLE=Diallyl succinate
##JCAMP-DX=4.24
##DATA TYPE=MASS SPECTRUM
##ORIGIN=NIST Mass Spectrometry Data Center, 1990.
##OWNER=NIST Mass Spectrometry Data Center
Collection (C) 2014 copyright by the U.S. Secretary of Commerce
on behalf of the United States of America. All rights reserved.
##CAS REGISTRY NO=925-16-6
##$NIST MASS SPEC NO=118310
##MOLFORM=C10 H14 O4
##MW=198
##$NIST SOURCE=MSDC
##XUNITS=M/Z
##YUNITS=RELATIVE INTENSITY
##XFACTOR=1
##YFACTOR=1
##FIRSTX=14
##LASTX=143
##FIRSTY=27
##MAXX=143
##MINX=14
##MAXY=9999
##MINY=3
##NPOINTS=57
##PEAK TABLE=(XY..XY)
14,27 15,84 18,3 25,27
26,303 27,946 28,1234 29,780
30,57 31,122 37,39 38,205
39,1883 40,27 41,9999 42,622
43,260 44,23 45,273 53,45
54,179 55,1518 56,1053 57,984
58,66 66,21 67,88 68,108
69,104 70,78 71,106 72,21
73,800 74,56 79,35 80,115
81,235 83,119 84,105 85,26
94,88 95,62 96,31 97,65
98,106 99,59 100,26 101,3277
102,143 111,37 112,106 113,111
114,126 140,758 141,2040 142,162
143,29
##END=
