##TITLE=Butanedioic acid, dipropyl ester
##JCAMP-DX=4.24
##DATA TYPE=MASS SPECTRUM
##ORIGIN=NIST Mass Spectrometry Data Center, 1994
##OWNER=NIST Mass Spectrometry Data Center
Collection (C) 2014 copyright by the U.S. Secretary of Commerce
on behalf of the United States of America. All rights reserved.
##CAS REGISTRY NO=925-15-5
##$NIST MASS SPEC NO=133409
##MOLFORM=C10 H18 O4
##MW=202
##$NIST SOURCE=MSDC
##XUNITS=M/Z
##YUNITS=RELATIVE INTENSITY
##XFACTOR=1
##YFACTOR=1
##FIRSTX=4
##LASTX=162
##FIRSTY=10
##MAXX=162
##MINX=4
##MAXY=9999
##MINY=9
##NPOINTS=48
##PEAK TABLE=(XY..XY)
4,10 14,19 15,79 16,9
26,144 27,1225 28,964 29,719
30,88 31,193 32,10 39,362
41,1192 42,582 43,1864 44,79
45,232 53,14 55,741 56,706
57,141 58,29 59,90 60,19
61,40 71,9 73,667 74,415
75,216 83,28 84,78 85,20
86,22 87,20 97,9 101,9999
102,445 103,79 114,41 115,19
116,105 117,13 119,77 143,2464
144,194 145,34 161,227 162,18
##END=
