##TITLE=4-Pentadecanone
##JCAMP-DX=4.24
##DATA TYPE=MASS SPECTRUM
##ORIGIN=V.G.Zaikin, TIPS, Russian Acad. Sci.
##OWNER=NIST Mass Spectrometry Data Center
Collection (C) 2014 copyright by the U.S. Secretary of Commerce
on behalf of the United States of America. All rights reserved.
##CAS REGISTRY NO=925-51-9
##$NIST MASS SPEC NO=215213
##MOLFORM=C15 H30 O
##MW=226
##$NIST SOURCE=MSDC
##XUNITS=M/Z
##YUNITS=RELATIVE INTENSITY
##XFACTOR=1
##YFACTOR=1
##FIRSTX=39
##LASTX=227
##FIRSTY=1401
##MAXX=227
##MINX=39
##MAXY=9999
##MINY=50
##NPOINTS=33
##PEAK TABLE=(XY..XY)
39,1401 40,400 41,3603 42,1201
43,8007 44,600 53,600 54,400
55,3302 56,1801 57,400 58,1000
59,1401 68,700 69,400 70,1000
71,9999 72,1601 73,2502 85,2502
86,1801 87,800 99,1000 112,200
113,800 127,600 141,600 155,300
169,300 183,2502 184,500 226,300
227,50
##END=
