##TITLE=2-Butenedioic acid (Z)-, monobutyl ester
##JCAMP-DX=4.24
##DATA TYPE=MASS SPECTRUM
##OWNER=NIST Mass Spectrometry Data Center
Collection (C) 2014 copyright by the U.S. Secretary of Commerce
on behalf of the United States of America. All rights reserved.
##CAS REGISTRY NO=925-21-3
##$NIST MASS SPEC NO=6854
##MOLFORM=C8 H12 O4
##MW=172
##$NIST SOURCE=MSDC
##XUNITS=M/Z
##YUNITS=RELATIVE INTENSITY
##XFACTOR=1
##YFACTOR=1
##FIRSTX=13
##LASTX=173
##FIRSTY=40
##MAXX=173
##MINX=13
##MAXY=9999
##MINY=30
##NPOINTS=65
##PEAK TABLE=(XY..XY)
13,40 14,50 15,140 17,40
18,140 19,70 24,60 25,240
26,2152 27,2342 28,1031 29,1922
30,70 31,2282 32,110 33,210
36,30 37,70 38,80 39,681
40,180 41,3713 42,1121 43,2202
44,550 45,871 46,50 50,40
51,50 52,70 53,460 54,2312
55,1651 56,6095 57,1311 58,60
59,40 60,50 67,30 68,150
69,120 71,330 72,510 73,540
74,60 79,40 80,60 81,200
82,200 83,40 87,60 97,40
98,1041 99,9999 100,1341 101,140
108,40 117,871 118,50 126,80
127,30 128,30 129,70 155,50
173,40
##END=
