##TITLE=N,N'-Di(p-chlorobenzyl)urea
##JCAMP-DX=4.24
##DATA TYPE=MASS SPECTRUM
##ORIGIN=A. SAEED, DEP. CHEM., COLL. SCI., BASRAH UNIV., BASRAH, IRAQ
##OWNER=NIST Mass Spectrometry Data Center
Collection (C) 2014 copyright by the U.S. Secretary of Commerce
on behalf of the United States of America. All rights reserved.
##CAS REGISTRY NO=92550-15-7
##$NIST MASS SPEC NO=101607
##MOLFORM=C15 H14 Cl2 N2 O
##MW=308
##$NIST SOURCE=MSDC
##XUNITS=M/Z
##YUNITS=RELATIVE INTENSITY
##XFACTOR=1
##YFACTOR=1
##FIRSTX=77
##LASTX=311
##FIRSTY=1700
##MAXX=311
##MINX=77
##MAXY=9999
##MINY=500
##NPOINTS=22
##PEAK TABLE=(XY..XY)
77,1700 78,500 89,1500 90,700
91,500 106,1100 113,500 125,6900
126,500 127,1900 132,700 138,600
140,9999 141,1000 142,3700 183,3600
184,500 185,1500 308,3700 309,500
310,2300 311,700
##END=
