##TITLE=Glycyl-dl-alanine
##JCAMP-DX=4.24
##DATA TYPE=MASS SPECTRUM
##ORIGIN=Japan AIST/NIMC Database- Spectrum MS-IW-4280
##OWNER=NIST Mass Spectrometry Data Center
Collection (C) 2014 copyright by the U.S. Secretary of Commerce
on behalf of the United States of America. All rights reserved.
##CAS REGISTRY NO=926-77-2
##$NIST MASS SPEC NO=230769
##MOLFORM=C5 H10 N2 O3
##MW=146
##$NIST SOURCE=MSDC
##XUNITS=M/Z
##YUNITS=RELATIVE INTENSITY
##XFACTOR=1
##YFACTOR=1
##FIRSTX=12
##LASTX=148
##FIRSTY=20
##MAXX=148
##MINX=12
##MAXY=9999
##MINY=10
##NPOINTS=99
##PEAK TABLE=(XY..XY)
12,20 13,20 14,80 15,269
16,70 17,229 18,829 19,10
24,10 25,50 26,589 27,1969
28,4009 29,1019 30,9999 31,1969
32,60 36,10 37,30 38,99
39,199 40,489 41,879 42,1139
43,819 44,6679 45,519 46,40
47,10 50,20 51,99 52,189
53,249 54,429 55,459 56,719
57,669 58,80 59,50 60,10
63,10 64,20 65,30 66,20
67,99 68,40 69,50 70,449
71,109 72,90 73,309 74,169
75,10 77,10 78,10 80,10
81,70 82,70 83,60 84,50
85,2089 86,129 87,20 88,179
89,30 90,109 91,10 92,10
94,10 95,10 96,10 97,20
98,30 99,80 100,239 101,399
102,40 103,1059 104,50 105,10
110,60 111,40 112,50 113,20
114,20 117,10 118,159 119,10
124,10 125,10 126,30 127,50
128,589 129,109 130,10 131,10
146,329 147,379 148,20
##END=
