##TITLE=1-Propanol, 2,2-dimethyl-, acetate
##JCAMP-DX=4.24
##DATA TYPE=MASS SPECTRUM
##ORIGIN=NIST Mass Spectrometry Data Center
##OWNER=NIST Mass Spectrometry Data Center
Collection (C) 2014 copyright by the U.S. Secretary of Commerce
on behalf of the United States of America. All rights reserved.
##CAS REGISTRY NO=926-41-0
##$NIST MASS SPEC NO=352253
##MOLFORM=C7 H14 O2
##MW=130
##$NIST SOURCE=MSDC
##XUNITS=M/Z
##YUNITS=RELATIVE INTENSITY
##XFACTOR=1
##YFACTOR=1
##FIRSTX=14
##LASTX=116
##FIRSTY=110
##MAXX=116
##MINX=14
##MAXY=9999
##MINY=10
##NPOINTS=56
##PEAK TABLE=(XY..XY)
14,110 15,821 16,20 17,10
18,10 19,10 25,10 26,70
27,981 28,240 29,1611 30,70
31,130 32,10 37,30 38,90
39,1331 40,200 41,2893 42,621
43,9999 44,260 45,150 49,10
50,50 51,80 52,20 53,200
54,50 55,1151 56,1391 57,5975
58,270 59,20 60,10 61,120
65,10 67,20 68,10 69,110
70,390 71,190 72,70 73,550
74,440 75,2422 76,80 77,10
85,20 86,10 87,90 88,10
97,10 100,30 115,390 116,30
##END=
