##TITLE=1,3-Pentadiene, 2-methyl-, (E)-
##JCAMP-DX=4.24
##DATA TYPE=MASS SPECTRUM
##ORIGIN=NIST Mass Spectrometry Data Center, 1990.
##OWNER=NIST Mass Spectrometry Data Center
Collection (C) 2014 copyright by the U.S. Secretary of Commerce
on behalf of the United States of America. All rights reserved.
##CAS REGISTRY NO=926-54-5
##$NIST MASS SPEC NO=113652
##MOLFORM=C6 H10
##MW=82
##$NIST SOURCE=MSDC
##XUNITS=M/Z
##YUNITS=RELATIVE INTENSITY
##XFACTOR=1
##YFACTOR=1
##FIRSTX=14
##LASTX=83
##FIRSTY=208
##MAXX=83
##MINX=14
##MAXY=9999
##MINY=183
##NPOINTS=31
##PEAK TABLE=(XY..XY)
14,208 15,300 26,248 27,1287
28,1533 29,222 32,441 37,224
38,648 39,4129 40,887 41,3527
42,629 50,670 51,808 52,379
53,1382 54,1239 55,355 56,183
62,209 63,344 65,1752 67,9999
68,569 77,409 79,979 80,190
81,1009 82,3986 83,304
##END=
