##TITLE=L-Alanine, N-[N-(N-L-alanyl-L-alanyl)-L-alanyl]-
##JCAMP-DX=4.24
##DATA TYPE=MASS SPECTRUM
##ORIGIN=Japan AIST/NIMC Database- Spectrum MS-NW-9114
##OWNER=NIST Mass Spectrometry Data Center
Collection (C) 2014 copyright by the U.S. Secretary of Commerce
on behalf of the United States of America. All rights reserved.
##CAS REGISTRY NO=926-79-4
##$NIST MASS SPEC NO=234676
##MOLFORM=C12 H22 N4 O5
##MW=302
##$NIST SOURCE=MSDC
##XUNITS=M/Z
##YUNITS=RELATIVE INTENSITY
##XFACTOR=1
##YFACTOR=1
##FIRSTX=15
##LASTX=303
##FIRSTY=80
##MAXX=303
##MINX=15
##MAXY=9999
##MINY=10
##NPOINTS=124
##PEAK TABLE=(XY..XY)
15,80 16,30 17,89 18,769
26,30 27,149 28,499 29,109
30,60 31,20 32,20 39,30
40,40 41,129 42,359 43,269
44,9999 45,319 46,20 52,10
53,20 54,70 55,199 56,259
57,129 58,389 59,30 60,10
67,20 68,30 69,70 70,269
71,299 72,139 73,40 74,10
80,10 81,40 82,90 83,70
84,80 85,40 86,30 87,219
88,30 89,109 90,419 91,20
95,20 96,20 97,40 98,50
99,749 100,159 101,20 107,10
109,20 110,10 111,30 112,20
113,109 114,40 115,979 116,179
117,20 123,20 124,40 125,40
126,30 127,849 128,70 129,20
133,20 137,10 138,10 139,10
140,10 141,139 142,60 143,1249
144,109 145,159 146,10 149,10
150,20 151,20 152,30 153,20
157,20 158,10 159,10 160,20
161,60 166,10 167,30 168,20
169,219 170,50 171,10 172,10
178,20 185,20 186,109 187,99
188,109 189,10 195,20 196,10
198,50 199,10 213,20 214,60
215,10 216,1079 217,119 218,10
224,10 231,99 232,10 241,10
258,20 259,40 260,10 303,30
##END=
