##TITLE=Heptane, 3,5-dimethyl-
##JCAMP-DX=4.24
##DATA TYPE=MASS SPECTRUM
##ORIGIN=NIST Mass Spectrometry Data Center, 1990.
##OWNER=NIST Mass Spectrometry Data Center
Collection (C) 2014 copyright by the U.S. Secretary of Commerce
on behalf of the United States of America. All rights reserved.
##CAS REGISTRY NO=926-82-9
##$NIST MASS SPEC NO=114190
##MOLFORM=C9 H20
##MW=128
##$NIST SOURCE=MSDC
##XUNITS=M/Z
##YUNITS=RELATIVE INTENSITY
##XFACTOR=1
##YFACTOR=1
##FIRSTX=14
##LASTX=129
##FIRSTY=92
##MAXX=129
##MINX=14
##MAXY=9999
##MINY=13
##NPOINTS=44
##PEAK TABLE=(XY..XY)
14,92 15,41 16,47 27,932
28,90 29,1628 30,40 37,13
39,1242 41,3761 42,792 43,2129
44,119 50,53 51,117 52,60
53,397 54,13 55,1660 56,2123
57,9999 58,453 59,21 63,22
65,70 66,24 67,130 68,45
69,443 70,1434 71,1624 72,86
77,38 79,32 81,16 83,85
84,21 85,48 98,678 99,1426
100,106 113,38 128,176 129,19
##END=
