##TITLE=Ethanethioic acid, S-(1-methylethyl) ester
##JCAMP-DX=4.24
##DATA TYPE=MASS SPECTRUM
##ORIGIN=W. UTILIZATION R & D DIV., U.S. DEPT. OF AGRIC., ALBANY, CAL.
##OWNER=NIST Mass Spectrometry Data Center
Collection (C) 2014 copyright by the U.S. Secretary of Commerce
on behalf of the United States of America. All rights reserved.
##CAS REGISTRY NO=926-73-8
##$NIST MASS SPEC NO=25795
##MOLFORM=C5 H10 O S
##MW=118
##$NIST SOURCE=MSDC
##XUNITS=M/Z
##YUNITS=RELATIVE INTENSITY
##XFACTOR=1
##YFACTOR=1
##FIRSTX=27
##LASTX=120
##FIRSTY=536
##MAXX=120
##MINX=27
##MAXY=9999
##MINY=10
##NPOINTS=29
##PEAK TABLE=(XY..XY)
27,536 29,28 35,10 39,863
40,113 41,2118 42,447 43,9999
44,285 45,337 46,65 47,351
48,45 49,86 57,65 58,282
59,701 60,278 61,681 74,894
75,457 76,1279 77,306 78,69
85,76 103,55 118,2307 119,120
120,113
##END=
