##TITLE=1-Penten-3-yne, 2-methyl-
##JCAMP-DX=4.24
##DATA TYPE=MASS SPECTRUM
##ORIGIN=NIST Mass Spectrometry Data Center, 1990.
##OWNER=NIST Mass Spectrometry Data Center
Collection (C) 2014 copyright by the U.S. Secretary of Commerce
on behalf of the United States of America. All rights reserved.
##CAS REGISTRY NO=926-55-6
##$NIST MASS SPEC NO=118194
##MOLFORM=C6 H8
##MW=80
##$NIST SOURCE=MSDC
##XUNITS=M/Z
##YUNITS=RELATIVE INTENSITY
##XFACTOR=1
##YFACTOR=1
##FIRSTX=12
##LASTX=81
##FIRSTY=40
##MAXX=81
##MINX=12
##MAXY=9999
##MINY=12
##NPOINTS=42
##PEAK TABLE=(XY..XY)
12,40 13,43 14,89 15,318
16,31 25,79 26,502 27,1836
28,199 29,43 31,89 32,12
36,153 37,888 38,1574 39,6906
40,1030 41,1203 42,45 48,66
49,393 50,2008 51,2428 52,2155
53,1478 54,370 60,150 61,594
62,1085 63,1802 64,463 65,2967
66,158 73,201 74,534 75,194
76,150 77,5762 78,1076 79,6220
80,9999 81,642
##END=
