##TITLE=Methanesulfonic acid, 1-methylethyl ester
##JCAMP-DX=4.24
##DATA TYPE=MASS SPECTRUM
##OWNER=NIST Mass Spectrometry Data Center
Collection (C) 2014 copyright by the U.S. Secretary of Commerce
on behalf of the United States of America. All rights reserved.
##CAS REGISTRY NO=926-06-7
##$NIST MASS SPEC NO=21137
##MOLFORM=C4 H10 O3 S
##MW=138
##$NIST SOURCE=MSDC
##XUNITS=M/Z
##YUNITS=RELATIVE INTENSITY
##XFACTOR=1
##YFACTOR=1
##FIRSTX=15
##LASTX=138
##FIRSTY=2454
##MAXX=138
##MINX=15
##MAXY=9999
##MINY=18
##NPOINTS=25
##PEAK TABLE=(XY..XY)
15,2454 18,454 27,2068 28,1023
29,1136 31,477 38,295 39,1727
40,454 41,3750 42,1886 43,9999
44,454 45,2750 59,2136 60,341
65,454 79,5454 80,386 81,273
97,545 123,7613 124,273 125,500
138,18
##END=
