##TITLE=Ethanol, 2-bromo-, acetate
##JCAMP-DX=4.24
##DATA TYPE=MASS SPECTRUM
##ORIGIN=Japan AIST/NIMC Database- Spectrum MS-NW-4370
##OWNER=NIST Mass Spectrometry Data Center
Collection (C) 2014 copyright by the U.S. Secretary of Commerce
on behalf of the United States of America. All rights reserved.
##CAS REGISTRY NO=927-68-4
##$NIST MASS SPEC NO=230349
##MOLFORM=C4 H7 Br O2
##MW=166
##$NIST SOURCE=MSDC
##XUNITS=M/Z
##YUNITS=RELATIVE INTENSITY
##XFACTOR=1
##YFACTOR=1
##FIRSTX=13
##LASTX=168
##FIRSTY=20
##MAXX=168
##MINX=13
##MAXY=9999
##MINY=10
##NPOINTS=48
##PEAK TABLE=(XY..XY)
13,20 14,99 15,449 16,10
25,20 26,199 27,1099 28,149
29,229 30,50 31,99 32,10
39,10 41,50 42,479 43,9999
44,259 45,90 57,10 60,20
61,189 73,1279 74,50 79,60
80,50 81,70 82,60 86,30
87,1439 88,70 91,20 92,20
93,179 94,60 95,159 96,40
105,20 106,2309 107,479 108,2219
109,449 110,10 120,10 122,10
123,10 125,10 166,10 168,10
##END=
