##TITLE=1-Butanamine, N,N-dimethyl-
##JCAMP-DX=4.24
##DATA TYPE=MASS SPECTRUM
##ORIGIN=Japan AIST/NIMC Database- Spectrum MS-NW-1254
##OWNER=NIST Mass Spectrometry Data Center
Collection (C) 2014 copyright by the U.S. Secretary of Commerce
on behalf of the United States of America. All rights reserved.
##CAS REGISTRY NO=927-62-8
##$NIST MASS SPEC NO=233692
##MOLFORM=C6 H15 N
##MW=101
##$NIST SOURCE=MSDC
##XUNITS=M/Z
##YUNITS=RELATIVE INTENSITY
##XFACTOR=1
##YFACTOR=1
##FIRSTX=15
##LASTX=102
##FIRSTY=249
##MAXX=102
##MINX=15
##MAXY=9999
##MINY=10
##NPOINTS=32
##PEAK TABLE=(XY..XY)
15,249 26,20 27,229 28,80
29,279 30,419 38,10 39,119
40,20 41,199 42,689 43,179
44,429 45,50 46,10 51,10
53,10 54,20 55,50 56,129
57,169 58,9999 59,379 68,10
70,60 71,90 72,50 84,30
98,20 100,90 101,869 102,60
##END=
