##TITLE=2-Propenal, 3-(dimethylamino)-
##JCAMP-DX=4.24
##DATA TYPE=MASS SPECTRUM
##ORIGIN=Chuck Anderson, Aldrich Chemical Co.
##OWNER=NIST Mass Spectrometry Data Center
Collection (C) 2014 copyright by the U.S. Secretary of Commerce
on behalf of the United States of America. All rights reserved.
##CAS REGISTRY NO=927-63-9
##$NIST MASS SPEC NO=108239
##MOLFORM=C5 H9 N O
##MW=99
##$NIST SOURCE=MSDC
##XUNITS=M/Z
##YUNITS=RELATIVE INTENSITY
##XFACTOR=1
##YFACTOR=1
##FIRSTX=13
##LASTX=101
##FIRSTY=20
##MAXX=101
##MINX=13
##MAXY=9999
##MINY=11
##NPOINTS=55
##PEAK TABLE=(XY..XY)
13,20 14,118 15,1411 16,25
17,11 18,192 25,72 26,601
27,1465 28,2098 29,1404 30,771
31,56 32,24 35,61 36,28
37,129 38,227 39,570 40,532
41,1774 42,9999 43,1357 44,1666
45,802 46,185 49,41 50,95
51,135 52,408 53,385 54,933
55,3826 56,1002 57,279 58,55
64,18 65,69 66,108 67,345
68,732 69,156 70,1165 71,91
72,30 80,152 82,6419 83,366
84,771 85,38 96,93 98,3333
99,5801 100,381 101,20
##END=
