##TITLE=dl-Alanylglycylglycine
##JCAMP-DX=4.24
##DATA TYPE=MASS SPECTRUM
##ORIGIN=Japan AIST/NIMC Database- Spectrum MS-NW-2401
##OWNER=NIST Mass Spectrometry Data Center
Collection (C) 2014 copyright by the U.S. Secretary of Commerce
on behalf of the United States of America. All rights reserved.
##CAS REGISTRY NO=927-21-9
##$NIST MASS SPEC NO=229976
##MOLFORM=C7 H13 N3 O4
##MW=203
##$NIST SOURCE=MSDC
##XUNITS=M/Z
##YUNITS=RELATIVE INTENSITY
##XFACTOR=1
##YFACTOR=1
##FIRSTX=12
##LASTX=203
##FIRSTY=20
##MAXX=203
##MINX=12
##MAXY=9999
##MINY=10
##NPOINTS=117
##PEAK TABLE=(XY..XY)
12,20 13,30 14,109 15,369
16,139 17,99 18,439 25,20
26,169 27,579 28,3049 29,809
30,7119 31,159 32,20 37,10
38,50 39,99 40,229 41,459
42,1149 43,739 44,9999 45,299
46,20 51,20 52,60 53,60
54,219 55,399 56,799 57,1029
58,109 59,159 60,30 65,10
66,20 67,70 68,179 69,179
70,149 71,189 72,60 73,90
74,50 75,149 76,70 79,10
80,20 81,50 82,80 83,60
84,80 85,3289 86,199 87,10
88,10 89,10 91,10 92,10
93,10 94,30 95,30 96,90
97,60 98,30 99,119 100,119
101,60 102,10 108,10 109,20
110,99 111,30 112,40 113,129
114,149 115,10 117,30 122,30
123,20 124,99 125,30 126,30
127,30 128,839 129,99 130,10
132,20 133,10 136,10 137,10
138,40 139,109 140,20 141,10
142,30 143,10 146,40 149,10
150,10 151,10 152,40 153,40
156,10 157,10 159,20 160,139
161,10 165,20 166,10 167,229
168,50 170,20 171,10 185,10
203,10
##END=
