##TITLE=3-Butyn-1-ol
##JCAMP-DX=4.24
##DATA TYPE=MASS SPECTRUM
##ORIGIN=Japan AIST/NIMC Database- Spectrum MS-NW-6058
##OWNER=NIST Mass Spectrometry Data Center
Collection (C) 2014 copyright by the U.S. Secretary of Commerce
on behalf of the United States of America. All rights reserved.
##CAS REGISTRY NO=927-74-2
##$NIST MASS SPEC NO=227520
##MOLFORM=C4 H6 O
##MW=70
##$NIST SOURCE=MSDC
##XUNITS=M/Z
##YUNITS=RELATIVE INTENSITY
##XFACTOR=1
##YFACTOR=1
##FIRSTX=12
##LASTX=70
##FIRSTY=20
##MAXX=70
##MINX=12
##MAXY=9999
##MINY=10
##NPOINTS=41
##PEAK TABLE=(XY..XY)
12,20 13,20 14,50 15,139
16,10 17,30 18,99 24,20
25,80 26,219 27,739 28,259
29,899 30,90 31,4069 32,50
33,10 34,10 36,109 37,599
38,889 39,4509 40,9999 41,1459
42,869 43,439 44,119 48,30
49,179 50,489 51,509 52,699
53,229 54,20 55,469 56,20
66,30 67,10 68,20 69,1019
70,90
##END=
