##TITLE=L-Alanine, 2TBDMS derivative
##JCAMP-DX=4.24
##DATA TYPE=MASS SPECTRUM
##ORIGIN=NIST Mass Spectrometry Data Center
##OWNER=NIST Mass Spectrometry Data Center
Collection (C) 2014 copyright by the U.S. Secretary of Commerce
on behalf of the United States of America. All rights reserved.
##CAS REGISTRY NO=92751-15-0
##$NIST MASS SPEC NO=333279
##MOLFORM=C15 H35 N O2 Si2
##MW=317
##$NIST SOURCE=MSDC
##XUNITS=M/Z
##YUNITS=RELATIVE INTENSITY
##XFACTOR=1
##YFACTOR=1
##FIRSTX=27
##LASTX=317
##FIRSTY=30
##MAXX=317
##MINX=27
##MAXY=9999
##MINY=10
##NPOINTS=139
##PEAK TABLE=(XY..XY)
27,30 28,20 29,190 30,10
31,30 39,90 40,20 41,490
42,90 43,230 44,250 45,460
46,50 47,120 48,10 51,10
52,10 53,20 54,30 55,100
56,170 57,881 58,380 59,1271
60,170 61,140 62,10 66,80
67,20 68,10 69,20 70,70
71,40 73,6826 74,721 75,1031
76,80 77,30 79,20 80,20
82,10 83,40 84,40 85,140
86,470 87,150 89,20 92,10
94,180 96,10 97,20 98,20
99,150 100,681 101,460 102,430
103,951 104,100 105,70 106,10
110,10 112,20 113,30 114,110
115,490 116,100 117,390 118,200
119,290 120,40 121,20 126,10
128,220 129,130 130,120 131,190
132,621 133,1181 134,220 135,110
136,10 142,140 143,40 144,60
145,170 146,70 147,5765 148,1001
149,530 150,60 151,20 156,40
158,9999 159,1702 160,981 161,130
162,40 163,10 170,30 171,10
172,10 173,30 174,110 175,50
176,30 177,10 186,30 187,10
188,50 189,280 190,60 191,20
202,50 203,30 204,20 216,50
217,10 218,10 232,5605 233,1261
234,520 235,80 236,10 244,10
245,10 258,20 260,4654 261,1081
262,450 263,70 264,10 274,220
275,60 276,20 302,300 303,80
304,30 316,10 317,10
##END=
