##TITLE=L-Leucine, 2TBDMS derivative
##JCAMP-DX=4.24
##DATA TYPE=MASS SPECTRUM
##ORIGIN=J.M. Halket, Trace Anal. Unit (TAU), London, UK
##OWNER=NIST Mass Spectrometry Data Center
Collection (C) 2014 copyright by the U.S. Secretary of Commerce
on behalf of the United States of America. All rights reserved.
##CAS REGISTRY NO=92771-65-8
##$NIST MASS SPEC NO=221646
##MOLFORM=C18 H41 N O2 Si2
##MW=359
##$NIST SOURCE=MSDC
##XUNITS=M/Z
##YUNITS=RELATIVE INTENSITY
##XFACTOR=1
##YFACTOR=1
##FIRSTX=39
##LASTX=346
##FIRSTY=300
##MAXX=346
##MINX=39
##MAXY=9999
##MINY=10
##NPOINTS=121
##PEAK TABLE=(XY..XY)
39,300 41,1850 42,160 43,820
44,290 45,930 46,100 47,250
53,50 54,70 55,260 56,360
57,2170 58,570 59,2320 60,300
61,170 66,30 67,30 68,30
69,90 70,90 71,70 73,9999
74,1100 75,1380 76,100 77,50
80,10 81,30 82,30 83,50
84,80 85,170 86,230 87,80
88,160 89,20 95,10 96,40
97,40 98,50 99,240 100,370
101,120 102,100 103,420 104,60
105,90 110,10 111,10 112,60
113,60 114,60 115,420 116,100
117,210 118,80 119,110 120,10
126,40 128,620 129,230 130,430
131,180 132,440 133,960 134,180
135,80 142,210 143,80 144,130
145,100 147,2700 148,490 149,290
150,40 156,10 157,30 158,70
159,60 160,250 161,60 162,30
170,170 171,50 172,50 173,60
174,170 175,40 176,10 184,90
185,10 186,30 188,30 189,150
190,40 200,7290 201,1240 202,470
203,60 212,10 216,30 218,30
244,10 245,20 246,20 258,20
274,3210 275,810 276,310 277,50
302,1950 303,510 304,190 305,40
316,120 317,30 344,130 345,40
346,10
##END=
