##TITLE=4-Hexen-1-ol, (Z)-
##JCAMP-DX=4.24
##DATA TYPE=MASS SPECTRUM
##ORIGIN=Japan AIST/NIMC Database- Spectrum MS-IW-2622
##OWNER=NIST Mass Spectrometry Data Center
Collection (C) 2014 copyright by the U.S. Secretary of Commerce
on behalf of the United States of America. All rights reserved.
##CAS REGISTRY NO=928-91-6
##$NIST MASS SPEC NO=234599
##MOLFORM=C6 H12 O
##MW=100
##$NIST SOURCE=MSDC
##XUNITS=M/Z
##YUNITS=RELATIVE INTENSITY
##XFACTOR=1
##YFACTOR=1
##FIRSTX=14
##LASTX=101
##FIRSTY=10
##MAXX=101
##MINX=14
##MAXY=9999
##MINY=10
##NPOINTS=57
##PEAK TABLE=(XY..XY)
14,10 15,90 18,20 26,149
27,1789 28,499 29,1969 30,109
31,1659 32,10 37,60 38,189
39,2709 40,499 41,7179 42,1539
43,749 44,1529 45,669 46,20
49,20 50,159 51,279 52,139
53,1269 54,2669 55,4099 56,1319
57,2009 58,269 59,40 61,20
62,30 63,60 64,10 65,319
66,149 67,9999 68,889 69,1139
70,289 71,299 72,469 73,20
74,10 77,70 78,10 79,239
80,40 81,1189 82,5389 83,399
84,10 85,20 99,10 100,639
101,40
##END=
