##TITLE=3-Hexen-1-ol, (Z)-
##JCAMP-DX=4.24
##DATA TYPE=MASS SPECTRUM
##ORIGIN=NIST Mass Spectrometry Data Center, 1990.
##OWNER=NIST Mass Spectrometry Data Center
Collection (C) 2014 copyright by the U.S. Secretary of Commerce
on behalf of the United States of America. All rights reserved.
##CAS REGISTRY NO=928-96-1
##$NIST MASS SPEC NO=114154
##MOLFORM=C6 H12 O
##MW=100
##$NIST SOURCE=MSDC
##XUNITS=M/Z
##YUNITS=RELATIVE INTENSITY
##XFACTOR=1
##YFACTOR=1
##FIRSTX=15
##LASTX=100
##FIRSTY=160
##MAXX=100
##MINX=15
##MAXY=9999
##MINY=88
##NPOINTS=41
##PEAK TABLE=(XY..XY)
15,160 26,274 27,1612 28,412
29,1384 30,160 31,2185 32,88
37,162 38,483 39,3905 40,946
41,7502 42,1612 43,935 44,680
45,175 50,482 51,752 52,372
53,1744 54,1647 55,3821 56,580
57,1198 62,135 63,208 65,640
67,9999 68,855 69,1841 70,883
71,309 72,294 77,115 79,323
80,95 81,773 82,3212 83,265
100,207
##END=
