##TITLE=Ethyl-1-propenyl ether
##JCAMP-DX=4.24
##DATA TYPE=MASS SPECTRUM
##ORIGIN=NIST Mass Spectrometry Data Center, 2009
##OWNER=NIST Mass Spectrometry Data Center
Collection (C) 2014 copyright by the U.S. Secretary of Commerce
on behalf of the United States of America. All rights reserved.
##CAS REGISTRY NO=928-55-2
##$NIST MASS SPEC NO=378202
##MOLFORM=C5 H10 O
##MW=86
##$NIST SOURCE=MSDC
##XUNITS=M/Z
##YUNITS=RELATIVE INTENSITY
##XFACTOR=1
##YFACTOR=1
##FIRSTX=14
##LASTX=88
##FIRSTY=10
##MAXX=88
##MINX=14
##MAXY=9999
##MINY=10
##NPOINTS=36
##PEAK TABLE=(XY..XY)
14,10 15,50 25,20 26,320
27,1281 28,771 29,2312 30,851
31,280 37,50 38,150 39,1001
40,530 41,741 42,120 43,460
44,40 45,370 46,10 50,10
52,10 53,50 54,20 55,350
56,60 57,9999 58,4554 59,170
60,10 69,30 70,10 71,20
85,10 86,3984 87,220 88,20
##END=
