##TITLE=3-Decanone
##JCAMP-DX=4.24
##DATA TYPE=MASS SPECTRUM
##ORIGIN=NIST Mass Spectrometry Data Center, 1990.
##OWNER=NIST Mass Spectrometry Data Center
Collection (C) 2014 copyright by the U.S. Secretary of Commerce
on behalf of the United States of America. All rights reserved.
##CAS REGISTRY NO=928-80-3
##$NIST MASS SPEC NO=114022
##MOLFORM=C10 H20 O
##MW=156
##$NIST SOURCE=MSDC
##XUNITS=M/Z
##YUNITS=RELATIVE INTENSITY
##XFACTOR=1
##YFACTOR=1
##FIRSTX=26
##LASTX=156
##FIRSTY=156
##MAXX=156
##MINX=26
##MAXY=9999
##MINY=49
##NPOINTS=41
##PEAK TABLE=(XY..XY)
26,156 27,1246 28,105 29,2517
30,66 39,939 40,304 41,2579
42,929 43,2469 44,110 51,91
53,302 54,197 55,1511 56,91
57,9999 58,438 59,90 67,383
68,76 69,206 70,135 71,76
72,5768 73,1108 81,76 82,166
83,168 84,167 85,1033 86,104
98,49 99,131 100,73 109,375
113,71 114,132 127,2503 128,213
156,142
##END=
