##TITLE=Ethanethioic acid, S-butyl ester
##JCAMP-DX=4.24
##DATA TYPE=MASS SPECTRUM
##ORIGIN=W. UTILIZATION R & D DIV., U.S. DEPT. OF AGRIC., ALBANY, CAL.
##OWNER=NIST Mass Spectrometry Data Center
Collection (C) 2014 copyright by the U.S. Secretary of Commerce
on behalf of the United States of America. All rights reserved.
##CAS REGISTRY NO=928-47-2
##$NIST MASS SPEC NO=25801
##MOLFORM=C6 H12 O S
##MW=132
##$NIST SOURCE=MSDC
##XUNITS=M/Z
##YUNITS=RELATIVE INTENSITY
##XFACTOR=1
##YFACTOR=1
##FIRSTX=27
##LASTX=134
##FIRSTY=469
##MAXX=134
##MINX=27
##MAXY=9999
##MINY=19
##NPOINTS=39
##PEAK TABLE=(XY..XY)
27,469 28,76 29,589 35,54
39,440 40,28 41,1102 42,184
43,9999 44,250 45,383 46,199
47,608 48,57 49,47 53,114
54,79 55,573 56,1741 57,294
58,114 59,218 60,136 61,279
71,38 72,877 73,92 76,260
77,469 85,123 88,339 89,272
90,209 99,146 103,41 117,19
132,1567 133,92 134,85
##END=
