##TITLE=4-Hexen-1-ol, (E)-
##JCAMP-DX=4.24
##DATA TYPE=MASS SPECTRUM
##ORIGIN=NIST Mass Spectrometry Data Center
##OWNER=NIST Mass Spectrometry Data Center
Collection (C) 2014 copyright by the U.S. Secretary of Commerce
on behalf of the United States of America. All rights reserved.
##CAS REGISTRY NO=928-92-7
##$NIST MASS SPEC NO=352723
##MOLFORM=C6 H12 O
##MW=100
##$NIST SOURCE=MSDC
##XUNITS=M/Z
##YUNITS=RELATIVE INTENSITY
##XFACTOR=1
##YFACTOR=1
##FIRSTX=14
##LASTX=101
##FIRSTY=10
##MAXX=101
##MINX=14
##MAXY=9999
##MINY=10
##NPOINTS=60
##PEAK TABLE=(XY..XY)
14,10 15,50 19,40 25,10
26,130 27,1181 28,340 29,1341
30,70 31,1201 32,20 37,70
38,210 39,2652 40,470 41,5335
42,1101 43,801 44,1121 45,480
46,20 47,10 49,20 50,230
51,380 52,170 53,1341 54,1902
55,3833 56,1011 57,1611 58,170
59,20 61,20 62,50 63,80
64,10 65,440 66,170 67,9999
68,681 69,711 70,170 71,200
72,310 73,20 74,10 77,80
78,20 79,320 80,50 81,891
82,3733 83,280 84,10 85,10
97,10 98,10 100,430 101,30
##END=
