##TITLE=4-Chloro-1-butanol
##JCAMP-DX=4.24
##DATA TYPE=MASS SPECTRUM
##ORIGIN=NIST Mass Spectrometry Data Center, 1992
##OWNER=NIST Mass Spectrometry Data Center
Collection (C) 2014 copyright by the U.S. Secretary of Commerce
on behalf of the United States of America. All rights reserved.
##CAS REGISTRY NO=928-51-8
##$NIST MASS SPEC NO=125294
##MOLFORM=C4 H9 Cl O
##MW=108
##$NIST SOURCE=MSDC
##XUNITS=M/Z
##YUNITS=RELATIVE INTENSITY
##XFACTOR=1
##YFACTOR=1
##FIRSTX=13
##LASTX=109
##FIRSTY=55
##MAXX=109
##MINX=13
##MAXY=9999
##MINY=16
##NPOINTS=60
##PEAK TABLE=(XY..XY)
13,55 14,229 15,662 16,28
17,16 18,115 19,146 25,125
26,973 27,4080 28,1456 29,2933
30,16 31,8920 32,300 33,64
34,39 35,49 36,196 37,313
38,665 39,3354 40,1102 41,6548
42,9999 43,2967 44,2667 45,411
47,43 49,887 50,254 51,452
52,68 53,519 54,2211 55,6869
56,316 57,1053 58,55 61,172
62,1321 63,294 64,418 65,122
69,55 71,4524 72,850 73,129
74,55 75,327 76,204 77,132
78,91 80,231 82,76 90,1798
91,139 92,566 107,122 109,34
##END=
