##TITLE=3-Hexyne
##JCAMP-DX=4.24
##DATA TYPE=MASS SPECTRUM
##ORIGIN=NIST Mass Spectrometry Data Center, 1990.
##OWNER=NIST Mass Spectrometry Data Center
Collection (C) 2014 copyright by the U.S. Secretary of Commerce
on behalf of the United States of America. All rights reserved.
##CAS REGISTRY NO=928-49-4
##$NIST MASS SPEC NO=114499
##MOLFORM=C6 H10
##MW=82
##$NIST SOURCE=MSDC
##XUNITS=M/Z
##YUNITS=RELATIVE INTENSITY
##XFACTOR=1
##YFACTOR=1
##FIRSTX=15
##LASTX=83
##FIRSTY=990
##MAXX=83
##MINX=15
##MAXY=9999
##MINY=97
##NPOINTS=39
##PEAK TABLE=(XY..XY)
15,990 26,603 27,2628 28,770
29,592 37,608 38,1176 39,6859
40,1739 41,8780 42,1573 43,180
49,310 50,1730 51,2227 52,956
53,3503 54,2161 55,806 56,177
61,351 62,744 63,1151 64,177
65,4270 66,1029 67,9999 68,497
73,101 74,277 75,97 76,97
77,718 78,180 79,1478 80,190
81,996 82,9782 83,625
##END=
