##TITLE=5-Pentadecanone
##JCAMP-DX=4.24
##DATA TYPE=MASS SPECTRUM
##ORIGIN=NIST Mass Spectrometry Data Center, 1994
##OWNER=NIST Mass Spectrometry Data Center
Collection (C) 2014 copyright by the U.S. Secretary of Commerce
on behalf of the United States of America. All rights reserved.
##CAS REGISTRY NO=92862-23-2
##$NIST MASS SPEC NO=136160
##MOLFORM=C15 H30 O
##MW=226
##$NIST SOURCE=MSDC
##XUNITS=M/Z
##YUNITS=RELATIVE INTENSITY
##XFACTOR=1
##YFACTOR=1
##FIRSTX=5
##LASTX=227
##FIRSTY=9
##MAXX=227
##MINX=5
##MAXY=9999
##MINY=1
##NPOINTS=115
##PEAK TABLE=(XY..XY)
5,9 6,8 8,8 9,1
10,11 12,5 15,73 17,2
18,29 19,8 24,6 25,7
26,111 27,2855 28,782 29,6842
30,118 37,11 39,1641 40,370
41,9724 42,1887 43,6821 44,228
45,57 48,5 50,32 51,48
52,32 53,452 54,351 55,3792
56,1073 57,9999 58,9679 59,1183
60,48 63,9 65,78 66,52
67,653 68,271 69,922 70,410
71,3241 72,950 73,60 77,58
78,15 79,116 80,9 81,602
82,542 83,748 84,15 85,6974
86,515 87,57 91,19 92,11
93,52 94,11 95,1276 96,506
97,301 98,230 99,256 100,2130
101,1660 102,119 103,9 104,6
107,16 109,380 110,188 111,75
112,6 113,1164 114,213 115,20
121,15 122,14 123,67 124,563
125,66 126,167 127,426 128,140
129,12 137,36 138,29 139,16
141,154 142,177 143,17 151,59
152,20 155,78 156,60 157,9
166,62 167,19 169,2367 170,294
171,18 183,41 184,216 185,48
197,186 198,25 208,11 211,7
225,7 226,100 227,18
##END=
