##TITLE=4-Heptenal, (E)-
##JCAMP-DX=4.24
##DATA TYPE=MASS SPECTRUM
##ORIGIN=A.S. MCGILL, TORRY RES. STAT., ABERDEEN, U.Km
##OWNER=NIST Mass Spectrometry Data Center
Collection (C) 2014 copyright by the U.S. Secretary of Commerce
on behalf of the United States of America. All rights reserved.
##CAS REGISTRY NO=929-22-6
##$NIST MASS SPEC NO=75797
##MOLFORM=C7 H12 O
##MW=112
##$NIST SOURCE=MSDC
##XUNITS=M/Z
##YUNITS=RELATIVE INTENSITY
##XFACTOR=1
##YFACTOR=1
##FIRSTX=27
##LASTX=112
##FIRSTY=3040
##MAXX=112
##MINX=27
##MAXY=9999
##MINY=1000
##NPOINTS=14
##PEAK TABLE=(XY..XY)
27,3040 29,2600 39,3480 41,9999
42,3040 55,7390 56,3480 67,3480
68,9130 69,2390 83,5000 84,6080
94,2820 112,1000
##END=
