##TITLE=Diglycolamine
##JCAMP-DX=4.24
##DATA TYPE=MASS SPECTRUM
##ORIGIN=Japan AIST/NIMC Database- Spectrum MS-NW-4209
##OWNER=NIST Mass Spectrometry Data Center
Collection (C) 2014 copyright by the U.S. Secretary of Commerce
on behalf of the United States of America. All rights reserved.
##CAS REGISTRY NO=929-06-6
##$NIST MASS SPEC NO=230280
##MOLFORM=C4 H11 N O2
##MW=105
##$NIST SOURCE=MSDC
##XUNITS=M/Z
##YUNITS=RELATIVE INTENSITY
##XFACTOR=1
##YFACTOR=1
##FIRSTX=14
##LASTX=88
##FIRSTY=40
##MAXX=88
##MINX=14
##MAXY=9999
##MINY=10
##NPOINTS=40
##PEAK TABLE=(XY..XY)
14,40 15,279 16,10 17,50
18,179 19,10 26,40 27,419
28,499 29,259 30,9999 31,329
32,60 33,10 40,20 41,109
42,539 43,1079 44,2039 45,1109
46,30 48,40 54,20 55,20
56,60 57,20 58,149 59,99
60,149 61,10 62,20 70,10
72,10 73,10 74,70 75,70
85,10 86,10 87,70 88,10
##END=
