##TITLE=Benzaldehyde, 2,5-dimethoxy-
##JCAMP-DX=4.24
##DATA TYPE=MASS SPECTRUM
##ORIGIN=NIST Mass Spectrometry Data Center
##OWNER=NIST Mass Spectrometry Data Center
Collection (C) 2014 copyright by the U.S. Secretary of Commerce
on behalf of the United States of America. All rights reserved.
##CAS REGISTRY NO=93-02-7
##$NIST MASS SPEC NO=352899
##MOLFORM=C9 H10 O3
##MW=166
##$NIST SOURCE=MSDC
##XUNITS=M/Z
##YUNITS=RELATIVE INTENSITY
##XFACTOR=1
##YFACTOR=1
##FIRSTX=14
##LASTX=169
##FIRSTY=50
##MAXX=169
##MINX=14
##MAXY=9999
##MINY=10
##NPOINTS=105
##PEAK TABLE=(XY..XY)
14,50 15,581 16,10 18,20
25,20 26,210 27,110 28,170
29,561 30,50 31,70 32,10
36,10 37,130 38,340 39,520
40,50 41,701 42,50 43,80
44,10 45,20 49,60 50,581
51,1061 52,1021 53,1371 54,390
55,290 56,20 57,10 59,40
60,20 61,250 62,731 63,2092
64,951 65,1191 66,260 67,460
68,50 69,420 70,20 73,70
74,440 75,380 76,340 77,1281
78,280 79,1381 80,1001 81,100
82,210 83,90 85,20 86,10
87,10 89,30 90,70 91,430
92,1061 93,490 94,320 95,3033
96,200 97,20 103,20 104,20
105,340 106,2152 107,1341 108,1982
109,1091 110,90 111,10 118,20
119,170 120,2552 121,791 122,601
123,2432 124,300 125,30 127,10
128,20 133,310 134,460 135,641
136,911 137,1391 138,170 139,20
142,10 148,1111 149,1271 150,460
151,3653 152,330 153,40 163,20
165,1321 166,9999 167,1011 168,110
169,10
##END=
