##TITLE=Benzeneacetonitrile, 3,4-dimethoxy-
##JCAMP-DX=4.24
##DATA TYPE=MASS SPECTRUM
##ORIGIN=Japan AIST/NIMC Database- Spectrum MS-NW-6535
##OWNER=NIST Mass Spectrometry Data Center
Collection (C) 2014 copyright by the U.S. Secretary of Commerce
on behalf of the United States of America. All rights reserved.
##CAS REGISTRY NO=93-17-4
##$NIST MASS SPEC NO=235147
##MOLFORM=C10 H11 N O2
##MW=177
##$NIST SOURCE=MSDC
##XUNITS=M/Z
##YUNITS=RELATIVE INTENSITY
##XFACTOR=1
##YFACTOR=1
##FIRSTX=14
##LASTX=179
##FIRSTY=40
##MAXX=179
##MINX=14
##MAXY=9999
##MINY=10
##NPOINTS=117
##PEAK TABLE=(XY..XY)
14,40 15,359 26,90 27,129
28,209 29,119 30,20 31,209
32,30 36,20 37,139 38,269
39,619 40,90 41,109 42,40
43,60 44,30 45,40 49,40
50,469 51,789 52,209 53,209
54,60 55,129 56,10 57,10
59,20 61,80 62,249 63,729
64,809 65,969 66,189 67,40
68,20 69,30 71,20 73,20
74,109 75,229 76,449 77,1109
78,359 79,709 80,119 81,20
82,10 84,10 85,20 86,10
87,50 88,90 89,419 90,339
91,899 92,179 93,119 94,1959
95,169 96,10 99,10 100,10
102,139 103,269 104,279 105,639
106,539 107,3009 108,279 109,90
110,10 112,10 114,40 115,50
116,939 117,129 118,60 119,529
120,70 121,20 122,70 123,10
124,10 130,189 131,169 132,149
133,90 134,1059 135,229 136,30
137,30 138,10 143,10 144,10
146,639 147,80 148,40 149,20
150,10 151,139 152,20 156,10
158,10 159,10 160,99 161,169
162,4269 163,439 164,20 174,10
175,20 176,189 177,9999 178,1139
179,69
##END=
