##TITLE=2-Quinolinecarboxylic acid
##JCAMP-DX=4.24
##DATA TYPE=MASS SPECTRUM
##ORIGIN=W.T.RAINEY OAK RIDGE NATIONAL LABORATORY,OAK RIDGE,TN.USA
##OWNER=NIST Mass Spectrometry Data Center
Collection (C) 2014 copyright by the U.S. Secretary of Commerce
on behalf of the United States of America. All rights reserved.
##CAS REGISTRY NO=93-10-7
##$NIST MASS SPEC NO=25364
##MOLFORM=C10 H7 N O2
##MW=173
##$NIST SOURCE=MSDC
##XUNITS=M/Z
##YUNITS=RELATIVE INTENSITY
##XFACTOR=1
##YFACTOR=1
##FIRSTX=38
##LASTX=175
##FIRSTY=289
##MAXX=175
##MINX=38
##MAXY=9999
##MINY=29
##NPOINTS=34
##PEAK TABLE=(XY..XY)
38,289 39,499 44,129 45,559
46,629 50,1249 51,1469 52,439
61,269 62,429 63,639 64,429
74,859 75,1569 76,1039 77,1009
78,349 87,139 88,99 89,149
98,129 99,209 100,339 101,1659
102,2139 103,639 127,419 128,2459
129,9999 130,999 131,49 173,1789
174,199 175,29
##END=
