##TITLE=Guaifenesin
##JCAMP-DX=4.24
##DATA TYPE=MASS SPECTRUM
##ORIGIN=Japan AIST/NIMC Database- Spectrum MS-NW-8298
##OWNER=NIST Mass Spectrometry Data Center
Collection (C) 2014 copyright by the U.S. Secretary of Commerce
on behalf of the United States of America. All rights reserved.
##CAS REGISTRY NO=93-14-1
##$NIST MASS SPEC NO=232326
##MOLFORM=C10 H14 O4
##MW=198
##$NIST SOURCE=MSDC
##XUNITS=M/Z
##YUNITS=RELATIVE INTENSITY
##XFACTOR=1
##YFACTOR=1
##FIRSTX=15
##LASTX=200
##FIRSTY=109
##MAXX=200
##MINX=15
##MAXY=9999
##MINY=10
##NPOINTS=77
##PEAK TABLE=(XY..XY)
15,109 17,10 18,30 26,50
27,229 28,50 29,369 30,20
31,449 32,10 37,10 38,70
39,229 40,20 41,189 42,30
43,219 44,50 45,199 50,129
51,309 52,419 53,209 54,30
55,90 56,10 57,299 58,10
61,50 62,30 63,199 64,199
65,399 66,50 67,90 73,10
74,50 75,50 76,50 77,909
78,139 79,90 80,139 81,749
82,40 91,30 92,289 93,139
94,70 95,509 96,60 105,20
107,60 108,90 109,4599 110,369
111,30 121,159 122,449 123,629
124,9999 125,829 126,70 135,10
137,169 138,209 139,20 149,219
150,20 151,20 163,10 166,40
167,419 168,40 198,3229 199,379
200,40
##END=
