##TITLE=Quinoline, 2,7-dimethyl-
##JCAMP-DX=4.24
##DATA TYPE=MASS SPECTRUM
##ORIGIN=Japan AIST/NIMC Database- Spectrum MS-NW-8649
##OWNER=NIST Mass Spectrometry Data Center
Collection (C) 2014 copyright by the U.S. Secretary of Commerce
on behalf of the United States of America. All rights reserved.
##CAS REGISTRY NO=93-37-8
##$NIST MASS SPEC NO=229251
##MOLFORM=C11 H11 N
##MW=157
##$NIST SOURCE=MSDC
##XUNITS=M/Z
##YUNITS=RELATIVE INTENSITY
##XFACTOR=1
##YFACTOR=1
##FIRSTX=15
##LASTX=159
##FIRSTY=10
##MAXX=159
##MINX=15
##MAXY=9999
##MINY=10
##NPOINTS=73
##PEAK TABLE=(XY..XY)
15,10 26,10 27,99 28,10
37,20 38,60 39,379 40,40
41,40 42,20 50,179 51,369
52,119 53,70 54,10 57,80
58,10 61,40 62,159 63,479
64,229 65,429 66,40 70,80
71,10 73,10 74,99 75,149
76,109 77,359 78,389 79,50
85,10 86,50 87,80 88,90
89,409 90,90 91,80 92,10
98,10 99,20 100,20 101,60
102,109 103,119 104,50 113,99
114,149 115,1129 116,399 117,70
118,10 126,50 127,269 128,379
129,289 130,259 131,129 132,10
139,10 140,289 141,309 142,1069
143,119 152,10 153,40 154,279
155,199 156,2829 157,9999 158,1229
159,70
##END=
