##TITLE=N,N'-di-2-Naphthyl-p-phenylenediamine
##JCAMP-DX=4.24
##DATA TYPE=MASS SPECTRUM
##ORIGIN=NIST Mass Spectrometry Data Center, 1998.
##OWNER=NIST Mass Spectrometry Data Center
Collection (C) 2014 copyright by the U.S. Secretary of Commerce
on behalf of the United States of America. All rights reserved.
##CAS REGISTRY NO=93-46-9
##$NIST MASS SPEC NO=291239
##MOLFORM=C26 H20 N2
##MW=360
##$NIST SOURCE=MSDC
##XUNITS=M/Z
##YUNITS=RELATIVE INTENSITY
##XFACTOR=1
##YFACTOR=1
##FIRSTX=51
##LASTX=362
##FIRSTY=70
##MAXX=362
##MINX=51
##MAXY=9999
##MINY=50
##NPOINTS=62
##PEAK TABLE=(XY..XY)
51,70 63,120 65,80 75,130
76,90 77,220 78,60 89,180
91,150 93,390 101,160 102,280
105,120 113,80 114,70 115,1670
116,400 126,350 127,1010 128,630
140,160 141,100 142,110 143,240
150,70 152,100 153,140 154,180
158,60 164,130 165,270 167,240
176,50 177,110 178,580 179,50
180,1390 189,220 190,360 191,190
192,90 193,80 203,120 204,330
205,250 206,280 214,90 215,70
216,560 217,1980 218,810 219,210
231,550 232,110 233,370 242,60
243,200 356,70 359,200 360,9999
361,2290 362,560
##END=
