##TITLE=2-Naphthyl benzoate
##JCAMP-DX=4.24
##DATA TYPE=MASS SPECTRUM
##ORIGIN=NIST Mass Spectrometry Data Center, 1994
##OWNER=NIST Mass Spectrometry Data Center
Collection (C) 2014 copyright by the U.S. Secretary of Commerce
on behalf of the United States of America. All rights reserved.
##CAS REGISTRY NO=93-44-7
##$NIST MASS SPEC NO=134394
##MOLFORM=C17 H12 O2
##MW=248
##$NIST SOURCE=MSDC
##XUNITS=M/Z
##YUNITS=RELATIVE INTENSITY
##XFACTOR=1
##YFACTOR=1
##FIRSTX=18
##LASTX=250
##FIRSTY=4
##MAXX=250
##MINX=18
##MAXY=9999
##MINY=1
##NPOINTS=62
##PEAK TABLE=(XY..XY)
18,4 26,8 27,50 28,101
32,13 37,10 38,37 39,143
40,10 44,1 50,282 51,725
52,45 53,16 58,9 61,19
62,117 63,253 64,39 65,127
66,12 74,113 75,118 77,3221
78,200 79,9 85,7 86,40
87,62 88,92 89,302 90,32
98,11 99,7 101,26 102,9
105,9999 106,768 107,43 111,5
113,107 115,1218 116,131 117,6
126,62 127,66 128,10 139,6
143,48 144,56 145,7 163,12
164,8 165,27 189,71 190,26
191,17 202,11 218,13 248,1699
249,324 250,41
##END=
