##TITLE=Benzene, (1,2-dibromoethyl)-
##JCAMP-DX=4.24
##DATA TYPE=MASS SPECTRUM
##ORIGIN=Chuck Anderson, Aldrich Chemical Co.
##OWNER=NIST Mass Spectrometry Data Center
Collection (C) 2014 copyright by the U.S. Secretary of Commerce
on behalf of the United States of America. All rights reserved.
##CAS REGISTRY NO=93-52-7
##$NIST MASS SPEC NO=107382
##MOLFORM=C8 H8 Br2
##MW=262
##$NIST SOURCE=MSDC
##XUNITS=M/Z
##YUNITS=RELATIVE INTENSITY
##XFACTOR=1
##YFACTOR=1
##FIRSTX=26
##LASTX=266
##FIRSTY=109
##MAXX=266
##MINX=26
##MAXY=9999
##MINY=8
##NPOINTS=59
##PEAK TABLE=(XY..XY)
26,109 27,346 28,12 36,21
37,96 38,249 39,677 40,31
41,12 49,55 50,631 51,1425
52,369 53,50 61,59 62,161
63,411 64,53 65,68 73,39
74,296 75,222 76,305 77,1516
78,1341 79,122 80,23 81,44
82,22 85,10 86,25 87,51
89,166 90,102 91,159 92,196
97,8 98,59 99,11 101,71
102,768 103,3463 104,9999 105,807
106,32 158,10 160,8 169,117
171,110 182,18 183,4582 184,362
185,4608 186,349 187,8 262,115
264,227 265,13 266,107
##END=
