##TITLE=Benzoic acid, methyl ester
##JCAMP-DX=4.24
##DATA TYPE=MASS SPECTRUM
##ORIGIN=Chuck Anderson, Aldrich Chemical Co.
##OWNER=NIST Mass Spectrometry Data Center
Collection (C) 2014 copyright by the U.S. Secretary of Commerce
on behalf of the United States of America. All rights reserved.
##CAS REGISTRY NO=93-58-3
##$NIST MASS SPEC NO=107744
##MOLFORM=C8 H8 O2
##MW=136
##$NIST SOURCE=MSDC
##XUNITS=M/Z
##YUNITS=RELATIVE INTENSITY
##XFACTOR=1
##YFACTOR=1
##FIRSTX=13
##LASTX=139
##FIRSTY=2
##MAXX=139
##MINX=13
##MAXY=9999
##MINY=1
##NPOINTS=77
##PEAK TABLE=(XY..XY)
13,2 14,7 15,123 16,2
25,7 26,33 27,218 28,51
29,109 30,31 31,22 32,3
36,6 37,100 38,211 39,268
40,13 41,6 42,3 43,4
44,10 45,11 48,5 49,88
50,1157 51,2536 52,153 53,69
54,6 55,3 58,2 59,86
60,6 61,25 62,48 63,70
64,37 65,66 66,10 67,5
69,1 72,4 73,68 74,358
75,234 76,367 77,6249 78,436
79,26 80,2 84,1 85,4
86,5 87,3 89,8 90,15
91,282 92,383 93,33 94,2
103,20 105,9999 106,707 107,49
108,5 118,34 119,50 120,21
121,12 122,2 128,1 133,2
135,296 136,3859 137,310 138,28
139,3
##END=
