##TITLE=1-Propanone, 1-phenyl-
##JCAMP-DX=4.24
##DATA TYPE=MASS SPECTRUM
##ORIGIN=NIST Mass Spectrometry Data Center, 1990.
##OWNER=NIST Mass Spectrometry Data Center
Collection (C) 2014 copyright by the U.S. Secretary of Commerce
on behalf of the United States of America. All rights reserved.
##CAS REGISTRY NO=93-55-0
##$NIST MASS SPEC NO=113194
##MOLFORM=C9 H10 O
##MW=134
##$NIST SOURCE=MSDC
##XUNITS=M/Z
##YUNITS=RELATIVE INTENSITY
##XFACTOR=1
##YFACTOR=1
##FIRSTX=14
##LASTX=135
##FIRSTY=22
##MAXX=135
##MINX=14
##MAXY=9999
##MINY=11
##NPOINTS=36
##PEAK TABLE=(XY..XY)
14,22 26,103 27,419 28,27
29,253 32,11 37,39 38,83
39,185 50,828 51,2193 52,162
53,59 55,86 56,37 57,70
61,36 62,88 63,131 65,94
73,63 74,277 75,194 76,36
77,5864 78,439 79,75 89,53
91,70 103,57 105,9999 106,757
107,52 115,38 134,1645 135,162
##END=
