##TITLE=Benzenemethanol, .alpha.-ethyl-
##JCAMP-DX=4.24
##DATA TYPE=MASS SPECTRUM
##ORIGIN=Japan AIST/NIMC Database- Spectrum MS-NW-3395
##OWNER=NIST Mass Spectrometry Data Center
Collection (C) 2014 copyright by the U.S. Secretary of Commerce
on behalf of the United States of America. All rights reserved.
##CAS REGISTRY NO=93-54-9
##$NIST MASS SPEC NO=229163
##MOLFORM=C9 H12 O
##MW=136
##$NIST SOURCE=MSDC
##XUNITS=M/Z
##YUNITS=RELATIVE INTENSITY
##XFACTOR=1
##YFACTOR=1
##FIRSTX=15
##LASTX=137
##FIRSTY=30
##MAXX=137
##MINX=15
##MAXY=9999
##MINY=10
##NPOINTS=74
##PEAK TABLE=(XY..XY)
15,30 18,30 26,70 27,439
28,40 29,359 30,10 31,109
32,10 37,30 38,80 39,399
40,40 41,109 42,10 43,169
44,10 49,30 50,379 51,959
52,269 53,199 54,10 55,60
57,239 58,50 59,30 61,30
62,90 63,219 64,40 65,179
66,30 73,20 74,139 75,109
76,90 77,2889 78,719 79,5799
80,429 81,10 85,10 86,20
87,30 88,10 89,109 90,40
91,569 92,50 93,20 94,10
101,10 102,60 103,149 104,80
105,559 106,109 107,9999 108,739
109,40 113,10 115,259 116,70
117,539 118,379 119,50 120,20
121,10 133,10 134,10 135,50
136,919 137,90
##END=
