##TITLE=Fenoprop
##JCAMP-DX=4.24
##DATA TYPE=MASS SPECTRUM
##ORIGIN=MASS SPECTROMETRY CENTER, UNIV. OF UTAH EPA-PTSEL 6120
##OWNER=NIST Mass Spectrometry Data Center
Collection (C) 2014 copyright by the U.S. Secretary of Commerce
on behalf of the United States of America. All rights reserved.
##CAS REGISTRY NO=93-72-1
##$NIST MASS SPEC NO=52343
##MOLFORM=C9 H7 Cl3 O3
##MW=268
##$NIST SOURCE=MSDC
##XUNITS=M/Z
##YUNITS=RELATIVE INTENSITY
##XFACTOR=1
##YFACTOR=1
##FIRSTX=15
##LASTX=274
##FIRSTY=271
##MAXX=274
##MINX=15
##MAXY=9999
##MINY=6
##NPOINTS=110
##PEAK TABLE=(XY..XY)
15,271 26,457 27,1662 28,866
29,1190 31,47 35,142 36,646
37,301 38,230 40,6 43,855
44,411 45,1859 47,72 48,156
49,152 50,155 53,223 55,875
56,78 60,191 61,672 62,957
63,292 69,28 71,45 72,330
73,809 74,648 75,132 83,288
84,231 85,204 86,20 96,244
97,2020 98,240 99,703 100,8
107,487 108,293 109,771 110,115
111,232 112,36 113,6 119,12
123,13 125,141 126,16 127,15
131,124 132,1021 133,775 134,687
135,471 136,102 137,19 143,541
144,329 145,424 146,216 147,70
148,11 152,9 159,332 160,415
161,348 162,449 163,116 164,147
167,852 168,17 169,809 170,16
171,240 179,423 180,49 181,415
182,37 183,116 187,57 188,351
189,100 190,219 191,7 192,17
193,7 195,297 196,9999 197,1031
198,9613 199,780 200,3224 201,228
202,351 222,14 223,943 224,118
225,931 226,42 227,295 268,1885
269,180 270,1822 271,168 272,579
273,10 274,17
##END=
