##TITLE=Acetic acid, (2,4,5-trichlorophenoxy)-
##JCAMP-DX=4.24
##DATA TYPE=MASS SPECTRUM
##ORIGIN=MASS SPECTROMETRY CENTER, UNIV. OF UTAH ALDRICH 19712-2
##OWNER=NIST Mass Spectrometry Data Center
Collection (C) 2014 copyright by the U.S. Secretary of Commerce
on behalf of the United States of America. All rights reserved.
##CAS REGISTRY NO=93-76-5
##$NIST MASS SPEC NO=59483
##MOLFORM=C8 H5 Cl3 O3
##MW=254
##$NIST SOURCE=MSDC
##XUNITS=M/Z
##YUNITS=RELATIVE INTENSITY
##XFACTOR=1
##YFACTOR=1
##FIRSTX=14
##LASTX=260
##FIRSTY=145
##MAXX=260
##MINX=14
##MAXY=9999
##MINY=32
##NPOINTS=102
##PEAK TABLE=(XY..XY)
14,145 28,152 29,548 30,33
31,1020 36,155 37,410 38,51
42,403 43,38 44,40 45,554
47,81 48,63 49,252 50,295
53,192 59,475 60,213 61,826
62,1027 63,330 72,499 73,973
74,1373 75,531 83,453 84,536
85,531 86,140 87,95 96,366
97,1900 98,271 99,768 106,76
107,675 108,628 109,1509 110,334
111,674 113,119 119,33 120,33
131,101 132,697 133,455 134,495
135,246 136,39 143,982 144,717
145,1436 146,1132 147,794 148,584
149,246 150,44 160,341 162,320
163,56 165,39 167,2197 168,134
169,2107 170,51 171,726 173,194
177,132 179,1637 180,108 181,1679
182,189 183,728 185,127 192,218
194,38 195,1771 196,9999 197,2312
198,9735 199,1230 200,3117 201,353
202,327 209,2303 210,59 211,2162
212,52 213,785 219,634 221,469
223,32 250,119 252,111 254,4980
255,516 256,4924 257,498 258,1684
259,227 260,256
##END=
