##TITLE=Butanoic acid, 4-(2,4,5-trichlorophenoxy)-
##JCAMP-DX=4.24
##DATA TYPE=MASS SPECTRUM
##ORIGIN=J. SHAW, BORRISTON RESEARCH, ROCKVILLE, MD, USA
##OWNER=NIST Mass Spectrometry Data Center
Collection (C) 2014 copyright by the U.S. Secretary of Commerce
on behalf of the United States of America. All rights reserved.
##CAS REGISTRY NO=93-80-1
##$NIST MASS SPEC NO=60266
##MOLFORM=C10 H9 Cl3 O3
##MW=282
##$NIST SOURCE=MSDC
##XUNITS=M/Z
##YUNITS=RELATIVE INTENSITY
##XFACTOR=1
##YFACTOR=1
##FIRSTX=12
##LASTX=288
##FIRSTY=20
##MAXX=288
##MINX=12
##MAXY=9999
##MINY=10
##NPOINTS=166
##PEAK TABLE=(XY..XY)
12,20 13,20 14,160 15,650
16,30 17,60 18,150 19,110
26,430 27,3493 28,670 29,1171
30,100 31,860 35,90 36,80
37,190 38,260 39,2342 40,470
41,4704 42,1421 43,4924 45,7117
46,120 47,70 48,10 49,70
50,100 51,40 53,190 55,190
56,20 57,120 58,20 59,130
60,300 61,370 62,680 63,250
64,10 65,20 66,10 69,1491
70,70 71,60 72,180 73,340
74,340 75,150 76,10 77,30
83,200 84,120 85,450 87,9999
88,410 89,70 90,20 91,10
95,30 96,250 97,1921 98,200
99,670 100,50 101,30 102,20
103,10 105,20 107,490 108,160
109,620 110,90 111,180 112,10
113,50 115,10 117,20 118,10
119,50 120,20 121,20 122,10
123,30 124,10 125,70 126,40
127,90 128,20 129,10 131,140
132,510 133,640 134,330 135,380
136,80 137,70 138,10 139,10
141,20 143,300 144,150 145,260
146,150 147,90 148,60 149,60
150,10 151,30 153,10 159,70
160,180 161,130 162,190 163,90
164,70 165,40 167,800 169,790
171,290 172,20 173,40 174,10
175,10 177,70 179,240 181,230
183,90 185,10 187,20 188,10
189,10 192,640 194,490 196,6726
198,6616 200,2342 201,360 203,20
205,10 207,10 209,70 211,60
213,10 222,10 223,50 224,20
225,40 226,10 237,10 239,10
261,90 263,60 265,1001 267,1011
269,360 270,20 271,20 278,290
280,220 282,1681 283,80 284,1871
286,740 288,50
##END=
