##TITLE=Oleic diethanolamide
##JCAMP-DX=4.24
##DATA TYPE=MASS SPECTRUM
##ORIGIN=NIST Mass Spectrometry Data Center, 1994
##OWNER=NIST Mass Spectrometry Data Center
Collection (C) 2014 copyright by the U.S. Secretary of Commerce
on behalf of the United States of America. All rights reserved.
##CAS REGISTRY NO=93-83-4
##$NIST MASS SPEC NO=134022
##MOLFORM=C22 H43 N O3
##MW=369
##$NIST SOURCE=MSDC
##XUNITS=M/Z
##YUNITS=RELATIVE INTENSITY
##XFACTOR=1
##YFACTOR=1
##FIRSTX=14
##LASTX=352
##FIRSTY=4
##MAXX=352
##MINX=14
##MAXY=9999
##MINY=2
##NPOINTS=145
##PEAK TABLE=(XY..XY)
14,4 15,169 17,50 18,166
27,613 28,537 29,1579 30,400
31,58 32,2 39,492 41,3761
42,1278 43,2463 44,582 45,155
51,87 53,347 54,892 55,4172
56,2187 57,3079 58,329 59,49
60,72 61,63 65,144 67,1307
68,331 69,1546 70,1963 71,255
72,486 73,113 77,172 78,69
79,428 80,202 81,945 82,197
83,582 84,97 85,683 86,3216
87,3403 88,6131 89,323 91,234
92,67 93,244 94,125 95,490
96,76 97,381 98,370 99,511
100,130 101,160 105,142 107,160
108,101 109,248 110,84 111,77
112,225 113,76 114,2592 115,160
116,177 117,27 118,175 119,134
120,90 121,104 123,137 124,33
125,27 126,144 129,9999 130,879
131,97 133,103 135,93 137,68
138,111 140,103 142,7640 143,1040
144,160 146,150 147,101 149,108
151,67 152,119 154,110 156,956
157,204 158,52 159,92 160,148
161,117 162,138 165,77 166,66
168,196 169,64 170,450 171,121
182,338 183,141 184,920 185,164
196,635 197,157 198,1127 199,225
210,374 212,366 213,13 215,81
222,105 224,438 225,114 226,176
238,456 239,111 240,101 252,605
253,156 254,96 255,60 264,15
265,103 266,487 267,106 268,75
273,33 280,285 281,87 288,64
294,145 308,207 322,94 351,910
352,238
##END=
