##TITLE=Benzoic acid, phenyl ester
##JCAMP-DX=4.24
##DATA TYPE=MASS SPECTRUM
##ORIGIN=Japan AIST/NIMC Database- Spectrum MS-NW-4336
##OWNER=NIST Mass Spectrometry Data Center
Collection (C) 2014 copyright by the U.S. Secretary of Commerce
on behalf of the United States of America. All rights reserved.
##CAS REGISTRY NO=93-99-2
##$NIST MASS SPEC NO=232670
##MOLFORM=C13 H10 O2
##MW=198
##$NIST SOURCE=MSDC
##XUNITS=M/Z
##YUNITS=RELATIVE INTENSITY
##XFACTOR=1
##YFACTOR=1
##FIRSTX=26
##LASTX=199
##FIRSTY=10
##MAXX=199
##MINX=26
##MAXY=9999
##MINY=10
##NPOINTS=35
##PEAK TABLE=(XY..XY)
26,10 27,50 28,30 37,30
38,90 39,399 40,20 49,20
50,269 51,979 52,40 53,20
61,10 62,40 63,90 64,40
65,309 66,40 73,10 74,90
75,60 76,129 77,3619 78,249
93,60 94,60 104,30 105,9999
106,749 107,40 115,50 139,10
141,30 198,409 199,60
##END=
