##TITLE=Benzoic acid, anhydride
##JCAMP-DX=4.24
##DATA TYPE=MASS SPECTRUM
##ORIGIN=E. White, NIST, Gaithersburg, MD, USA
##OWNER=NIST Mass Spectrometry Data Center
Collection (C) 2014 copyright by the U.S. Secretary of Commerce
on behalf of the United States of America. All rights reserved.
##CAS REGISTRY NO=93-97-0
##$NIST MASS SPEC NO=142772
##MOLFORM=C14 H10 O3
##MW=226
##$NIST SOURCE=MSDC
##XUNITS=M/Z
##YUNITS=RELATIVE INTENSITY
##XFACTOR=1
##YFACTOR=1
##FIRSTX=26
##LASTX=228
##FIRSTY=17
##MAXX=228
##MINX=26
##MAXY=9999
##MINY=10
##NPOINTS=42
##PEAK TABLE=(XY..XY)
26,17 27,66 28,11 37,18
38,64 39,112 43,11 44,122
49,18 50,357 51,1302 52,77
53,79 62,10 63,12 65,11
73,14 74,95 75,72 76,173
77,4302 78,331 79,11 103,14
104,28 105,9999 106,822 107,48
121,77 122,312 123,23 152,15
154,12 181,99 182,118 183,15
198,1272 199,177 200,16 226,1169
227,175 228,18
##END=
