##TITLE=1,3-Butanedione, 1-phenyl-
##JCAMP-DX=4.24
##DATA TYPE=MASS SPECTRUM
##OWNER=NIST Mass Spectrometry Data Center
Collection (C) 2014 copyright by the U.S. Secretary of Commerce
on behalf of the United States of America. All rights reserved.
##CAS REGISTRY NO=93-91-4
##$NIST MASS SPEC NO=5893
##MOLFORM=C10 H10 O2
##MW=162
##$NIST SOURCE=MSDC
##XUNITS=M/Z
##YUNITS=RELATIVE INTENSITY
##XFACTOR=1
##YFACTOR=1
##FIRSTX=14
##LASTX=164
##FIRSTY=30
##MAXX=164
##MINX=14
##MAXY=9999
##MINY=10
##NPOINTS=91
##PEAK TABLE=(XY..XY)
14,30 15,220 18,10 26,40
27,290 28,220 29,130 31,100
32,50 36,10 37,40 38,110
39,460 40,50 41,240 42,120
43,2552 44,70 45,50 49,30
50,621 51,1872 52,210 53,100
55,160 56,10 57,30 58,30
59,110 61,40 62,110 63,260
64,60 65,420 66,130 67,210
69,5555 70,190 71,40 73,50
74,270 75,230 76,300 77,5165
78,1211 79,210 80,30 81,40
84,60 85,1611 86,100 87,40
89,190 90,90 91,470 92,70
93,20 94,10 97,30 98,20
99,20 101,50 102,140 103,280
105,9999 106,791 107,50 115,130
116,40 117,40 118,60 119,50
120,851 121,100 127,20 129,30
131,30 132,30 133,60 134,90
135,10 143,40 144,50 145,160
147,6856 148,691 149,60 161,4904
162,9428 163,1091 164,100
##END=
