##TITLE=Benzenemethanol, .alpha.-methyl-, acetate
##JCAMP-DX=4.24
##DATA TYPE=MASS SPECTRUM
##ORIGIN=Chuck Anderson, Aldrich Chemical Co.
##OWNER=NIST Mass Spectrometry Data Center
Collection (C) 2014 copyright by the U.S. Secretary of Commerce
on behalf of the United States of America. All rights reserved.
##CAS REGISTRY NO=93-92-5
##$NIST MASS SPEC NO=107579
##MOLFORM=C10 H12 O2
##MW=164
##$NIST SOURCE=MSDC
##XUNITS=M/Z
##YUNITS=RELATIVE INTENSITY
##XFACTOR=1
##YFACTOR=1
##FIRSTX=12
##LASTX=167
##FIRSTY=3
##MAXX=167
##MINX=12
##MAXY=9999
##MINY=2
##NPOINTS=93
##PEAK TABLE=(XY..XY)
12,3 13,6 14,35 15,320
16,11 19,6 20,3 25,8
26,59 27,650 28,95 29,102
30,7 31,14 32,3 35,3
36,2 37,33 38,112 39,635
40,51 41,68 42,135 43,7602
44,200 45,89 46,4 49,29
50,640 51,1962 52,464 53,222
54,14 55,15 59,3 60,17
61,59 62,114 63,330 64,65
65,209 66,30 67,6 73,26
74,204 75,166 76,247 77,4069
78,2912 79,2768 80,189 81,9
84,3 85,9 86,25 87,35
88,8 89,213 90,53 91,254
92,28 93,46 94,18 95,5
96,3 97,4 98,20 99,6
101,34 102,300 103,2892 104,9999
105,6610 106,547 107,3636 108,284
109,20 115,3 119,10 120,25
121,836 122,8676 123,748 124,51
125,4 131,5 133,6 149,105
150,11 164,2086 165,225 166,21
167,3
##END=
