##TITLE=Cyclopentene, 1-chloro-
##JCAMP-DX=4.24
##DATA TYPE=MASS SPECTRUM
##ORIGIN=F.GAYMARD FACULTY OF SCIENCE, NICE UNIV., NICE, FRANCE
##OWNER=NIST Mass Spectrometry Data Center
Collection (C) 2014 copyright by the U.S. Secretary of Commerce
on behalf of the United States of America. All rights reserved.
##CAS REGISTRY NO=930-29-0
##$NIST MASS SPEC NO=58346
##MOLFORM=C5 H7 Cl
##MW=102
##$NIST SOURCE=MSDC
##XUNITS=M/Z
##YUNITS=RELATIVE INTENSITY
##XFACTOR=1
##YFACTOR=1
##FIRSTX=37
##LASTX=104
##FIRSTY=300
##MAXX=104
##MINX=37
##MAXY=9999
##MINY=100
##NPOINTS=23
##PEAK TABLE=(XY..XY)
37,300 38,500 39,1950 40,350
41,1000 49,150 50,250 51,350
52,100 53,100 61,150 62,250
63,400 65,1950 66,1050 67,9999
68,600 73,300 75,150 101,650
102,2450 103,300 104,800
##END=
