##TITLE=4-Cyclopentene-1,3-dione
##JCAMP-DX=4.24
##DATA TYPE=MASS SPECTRUM
##ORIGIN=Chuck Anderson, Aldrich Chemical Co.
##OWNER=NIST Mass Spectrometry Data Center
Collection (C) 2014 copyright by the U.S. Secretary of Commerce
on behalf of the United States of America. All rights reserved.
##CAS REGISTRY NO=930-60-9
##$NIST MASS SPEC NO=108298
##MOLFORM=C5 H4 O2
##MW=96
##$NIST SOURCE=MSDC
##XUNITS=M/Z
##YUNITS=RELATIVE INTENSITY
##XFACTOR=1
##YFACTOR=1
##FIRSTX=13
##LASTX=98
##FIRSTY=205
##MAXX=98
##MINX=13
##MAXY=9999
##MINY=7
##NPOINTS=41
##PEAK TABLE=(XY..XY)
13,205 14,668 15,50 17,8
18,19 20,17 24,85 25,429
26,3439 27,242 28,200 29,237
34,73 35,9 36,180 37,704
38,784 39,2579 40,2690 41,1130
42,7005 43,250 44,79 48,71
49,286 50,413 51,166 52,126
53,1019 54,4521 55,318 56,16
60,22 61,28 66,7 68,4330
69,413 70,21 96,9999 97,481
98,43
##END=
