##TITLE=Oxirane, (methoxymethyl)-
##JCAMP-DX=4.24
##DATA TYPE=MASS SPECTRUM
##ORIGIN=Japan AIST/NIMC Database- Spectrum MS-NW-4346
##OWNER=NIST Mass Spectrometry Data Center
Collection (C) 2014 copyright by the U.S. Secretary of Commerce
on behalf of the United States of America. All rights reserved.
##CAS REGISTRY NO=930-37-0
##$NIST MASS SPEC NO=230312
##MOLFORM=C4 H8 O2
##MW=88
##$NIST SOURCE=MSDC
##XUNITS=M/Z
##YUNITS=RELATIVE INTENSITY
##XFACTOR=1
##YFACTOR=1
##FIRSTX=13
##LASTX=90
##FIRSTY=30
##MAXX=90
##MINX=13
##MAXY=9999
##MINY=10
##NPOINTS=43
##PEAK TABLE=(XY..XY)
13,30 14,179 15,1639 16,30
17,20 18,80 25,40 26,389
27,1659 28,1289 29,2829 30,359
31,1869 32,60 33,349 37,40
38,60 39,249 40,119 41,179
42,569 43,2079 44,249 45,9999
46,229 47,20 53,20 54,10
55,189 56,179 57,3379 58,4169
59,239 60,30 69,20 71,70
72,30 73,40 85,10 87,99
88,70 89,169 90,10
##END=
