##TITLE=Cyclopropane, 1,2-dimethyl-, cis-
##JCAMP-DX=4.24
##DATA TYPE=MASS SPECTRUM
##OWNER=NIST Mass Spectrometry Data Center
Collection (C) 2014 copyright by the U.S. Secretary of Commerce
on behalf of the United States of America. All rights reserved.
##CAS REGISTRY NO=930-18-7
##$NIST MASS SPEC NO=248
##MOLFORM=C5 H10
##MW=70
##$NIST SOURCE=MSDC
##XUNITS=M/Z
##YUNITS=RELATIVE INTENSITY
##XFACTOR=1
##YFACTOR=1
##FIRSTX=12
##LASTX=72
##FIRSTY=40
##MAXX=72
##MINX=12
##MAXY=9999
##MINY=10
##NPOINTS=47
##PEAK TABLE=(XY..XY)
12,40 13,70 14,200 15,831
16,30 19,10 20,10 24,10
25,70 26,831 27,3723 28,641
29,3243 30,70 31,100 36,20
37,250 38,530 39,4184 40,711
41,4164 42,4514 43,270 44,10
48,10 49,60 50,300 51,350
52,110 53,1051 54,310 55,9999
56,430 57,10 60,10 61,40
62,60 63,70 64,10 65,60
66,20 67,170 68,30 69,210
70,5015 71,260 72,10
##END=
