##TITLE=Pyrrolidine, 1-nitroso-
##JCAMP-DX=4.24
##DATA TYPE=MASS SPECTRUM
##ORIGIN=Japan AIST/NIMC Database- Spectrum MS-NW-7781
##OWNER=NIST Mass Spectrometry Data Center
Collection (C) 2014 copyright by the U.S. Secretary of Commerce
on behalf of the United States of America. All rights reserved.
##CAS REGISTRY NO=930-55-2
##$NIST MASS SPEC NO=238186
##MOLFORM=C4 H8 N2 O
##MW=100
##$NIST SOURCE=MSDC
##XUNITS=M/Z
##YUNITS=RELATIVE INTENSITY
##XFACTOR=1
##YFACTOR=1
##FIRSTX=12
##LASTX=102
##FIRSTY=10
##MAXX=102
##MINX=12
##MAXY=9999
##MINY=10
##NPOINTS=48
##PEAK TABLE=(XY..XY)
12,10 13,20 14,129 15,1199
16,10 18,29 25,30 26,439
27,2519 28,515 29,219 30,1099
31,20 37,119 38,239 39,1629
40,519 41,6899 42,4499 43,2889
44,389 45,10 49,20 50,40
51,60 52,60 53,439 54,169
55,209 56,50 57,10 58,10
63,10 64,20 66,20 67,90
68,1319 69,809 70,499 71,109
72,10 82,10 83,10 84,10
99,179 100,9999 101,579 102,30
##END=
