##TITLE=1,3-Dithiole-2-thione
##JCAMP-DX=4.24
##DATA TYPE=MASS SPECTRUM
##ORIGIN=James Little,Eastman Chem.Co.,Kingsport,TN
##OWNER=NIST Mass Spectrometry Data Center
Collection (C) 2014 copyright by the U.S. Secretary of Commerce
on behalf of the United States of America. All rights reserved.
##CAS REGISTRY NO=930-35-8
##$NIST MASS SPEC NO=288812
##MOLFORM=C3 H2 S3
##MW=134
##$NIST SOURCE=MSDC
##XUNITS=M/Z
##YUNITS=RELATIVE INTENSITY
##XFACTOR=1
##YFACTOR=1
##FIRSTX=32
##LASTX=138
##FIRSTY=2172
##MAXX=138
##MINX=32
##MAXY=9999
##MINY=120
##NPOINTS=26
##PEAK TABLE=(XY..XY)
32,2172 33,240 34,360 44,4404
45,3573 46,601 47,190 57,2282
58,9999 59,510 60,500 64,1381
69,1692 71,120 76,4374 77,450
78,440 88,220 89,170 90,991
108,250 134,7196 135,651 136,1081
137,160 138,120
##END=
