##TITLE=Cyclopropane, butyl-
##JCAMP-DX=4.24
##DATA TYPE=MASS SPECTRUM
##ORIGIN=J.VOTH UNIV. OF CALIFORNIA, DAVIS, CALIFORNIA, 95616, USA
##OWNER=NIST Mass Spectrometry Data Center
Collection (C) 2014 copyright by the U.S. Secretary of Commerce
on behalf of the United States of America. All rights reserved.
##CAS REGISTRY NO=930-57-4
##$NIST MASS SPEC NO=26669
##MOLFORM=C7 H14
##MW=98
##$NIST SOURCE=MSDC
##XUNITS=M/Z
##YUNITS=RELATIVE INTENSITY
##XFACTOR=1
##YFACTOR=1
##FIRSTX=12
##LASTX=99
##FIRSTY=35
##MAXX=99
##MINX=12
##MAXY=9999
##MINY=15
##NPOINTS=60
##PEAK TABLE=(XY..XY)
12,35 13,69 14,273 15,1173
16,37 17,16 18,46 25,41
26,849 27,7223 28,1586 29,6427
30,150 31,340 32,19 33,56
36,15 37,207 38,533 39,5730
40,926 41,9999 42,9428 43,1879
44,72 45,105 49,39 50,281
51,445 52,183 53,1036 54,955
55,9498 56,6984 57,1889 58,81
59,103 61,31 62,57 63,91
64,19 65,118 66,66 67,358
68,813 69,3170 70,5763 71,330
72,17 73,20 74,75 77,49
78,15 79,38 81,44 82,23
83,416 84,33 98,392 99,38
##END=
