##TITLE=Octadecane, 1-(ethenyloxy)-
##JCAMP-DX=4.24
##DATA TYPE=MASS SPECTRUM
##ORIGIN=Japan AIST/NIMC Database- Spectrum MS-NW-8442
##OWNER=NIST Mass Spectrometry Data Center
Collection (C) 2014 copyright by the U.S. Secretary of Commerce
on behalf of the United States of America. All rights reserved.
##CAS REGISTRY NO=930-02-9
##$NIST MASS SPEC NO=241605
##MOLFORM=C20 H40 O
##MW=296
##$NIST SOURCE=MSDC
##XUNITS=M/Z
##YUNITS=RELATIVE INTENSITY
##XFACTOR=1
##YFACTOR=1
##FIRSTX=14
##LASTX=297
##FIRSTY=20
##MAXX=297
##MINX=14
##MAXY=9999
##MINY=10
##NPOINTS=133
##PEAK TABLE=(XY..XY)
14,20 15,50 17,20 18,129
26,40 27,579 28,589 29,2079
30,50 31,299 32,119 39,349
40,80 41,4149 42,1009 43,9009
44,469 45,359 46,10 47,20
51,10 52,10 53,179 54,499
55,5429 56,3159 57,9999 58,499
59,589 60,20 65,30 66,189
67,989 68,1849 69,4759 70,2989
71,4939 72,389 73,40 77,20
78,10 79,60 80,90 81,829
82,3479 83,4959 84,1889 85,2889
86,199 87,10 91,20 93,20
94,60 95,679 96,1839 97,3549
98,1059 99,559 100,189 101,30
105,10 107,10 108,20 109,449
110,649 111,1539 112,589 113,199
114,30 115,10 121,10 122,30
123,319 124,389 125,579 126,319
127,139 128,30 136,20 137,209
138,229 139,199 140,189 141,199
142,20 151,80 152,109 153,90
154,109 155,60 156,10 165,50
166,99 167,50 168,80 169,40
179,30 180,60 181,30 182,40
183,30 193,30 194,70 195,20
196,40 197,50 207,20 208,40
209,10 210,10 211,10 212,10
221,10 222,179 223,40 224,30
225,30 235,10 239,10 250,209
251,40 252,20 253,269 254,40
263,10 267,10 268,50 269,10
281,379 282,80 283,10 296,90
297,20
##END=
