##TITLE=cis-Bicyclo[3.3.0]oct-2-ene
##JCAMP-DX=4.24
##DATA TYPE=MASS SPECTRUM
##ORIGIN=NIST Mass Spectrometry Data Center, 1990.
##OWNER=NIST Mass Spectrometry Data Center
Collection (C) 2014 copyright by the U.S. Secretary of Commerce
on behalf of the United States of America. All rights reserved.
##CAS REGISTRY NO=930-99-4
##$NIST MASS SPEC NO=114164
##MOLFORM=C8 H12
##MW=108
##$NIST SOURCE=MSDC
##XUNITS=M/Z
##YUNITS=RELATIVE INTENSITY
##XFACTOR=1
##YFACTOR=1
##FIRSTX=14
##LASTX=109
##FIRSTY=107
##MAXX=109
##MINX=14
##MAXY=9999
##MINY=25
##NPOINTS=48
##PEAK TABLE=(XY..XY)
14,107 15,90 16,54 26,164
27,835 28,768 29,108 31,25
32,185 37,103 38,354 39,2478
40,527 41,1189 42,130 43,30
44,50 50,610 51,1173 52,649
53,704 54,235 55,72 61,67
62,199 63,458 64,67 65,1410
66,2924 67,2347 68,130 73,30
74,149 75,79 76,30 77,2931
78,1497 79,9999 80,5880 81,369
89,48 91,1111 93,2089 94,148
103,50 105,85 108,2366 109,191
##END=
