##TITLE=Tetrahydrofuran, 2-ethyl-5-methyl-
##JCAMP-DX=4.24
##DATA TYPE=MASS SPECTRUM
##ORIGIN=P.Dagaut ET AL. Chromatographia,40,147,(1995)
##OWNER=NIST Mass Spectrometry Data Center
Collection (C) 2014 copyright by the U.S. Secretary of Commerce
on behalf of the United States of America. All rights reserved.
##CAS REGISTRY NO=931-39-5
##$NIST MASS SPEC NO=292983
##MOLFORM=C7 H14 O
##MW=114
##$NIST SOURCE=MSDC
##XUNITS=M/Z
##YUNITS=RELATIVE INTENSITY
##XFACTOR=1
##YFACTOR=1
##FIRSTX=37
##LASTX=114
##FIRSTY=290
##MAXX=114
##MINX=37
##MAXY=9999
##MINY=40
##NPOINTS=39
##PEAK TABLE=(XY..XY)
37,290 38,470 39,3773 40,801
41,5925 42,2192 43,4424 44,220
45,931 46,70 50,350 51,370
52,190 53,530 54,400 55,2953
56,2352 57,2662 58,370 59,641
65,240 67,3904 68,400 69,350
70,1111 71,190 79,100 81,1081
82,190 83,230 84,1962 85,9999
86,671 87,80 97,150 99,300
112,40 113,210 114,40
##END=
