##TITLE=Pyridine, 2-methyl-, 1-oxide
##JCAMP-DX=4.24
##DATA TYPE=MASS SPECTRUM
##ORIGIN=Japan AIST/NIMC Database- Spectrum MS-NW-1082
##OWNER=NIST Mass Spectrometry Data Center
Collection (C) 2014 copyright by the U.S. Secretary of Commerce
on behalf of the United States of America. All rights reserved.
##CAS REGISTRY NO=931-19-1
##$NIST MASS SPEC NO=233548
##MOLFORM=C6 H7 N O
##MW=109
##$NIST SOURCE=MSDC
##XUNITS=M/Z
##YUNITS=RELATIVE INTENSITY
##XFACTOR=1
##YFACTOR=1
##FIRSTX=14
##LASTX=111
##FIRSTY=30
##MAXX=111
##MINX=14
##MAXY=9999
##MINY=10
##NPOINTS=69
##PEAK TABLE=(XY..XY)
14,30 15,109 16,10 25,20
26,319 27,979 28,109 29,129
30,179 31,70 32,20 36,20
37,299 38,569 39,2809 40,389
41,269 42,189 43,159 44,60
45,30 46,90 48,10 49,119
50,1009 51,1769 52,1089 53,719
54,149 55,80 56,20 57,50
60,30 61,129 62,209 63,569
64,319 65,7979 66,1379 67,189
68,50 69,50 70,20 73,30
74,139 75,90 76,70 77,299
78,889 79,159 80,169 81,50
82,10 83,10 86,20 87,10
88,10 90,30 91,90 92,9999
93,2149 94,139 95,50 96,10
106,10 108,70 109,9259 110,659
111,50
##END=
