##TITLE=Cyclooctene, (Z)-
##JCAMP-DX=4.24
##DATA TYPE=MASS SPECTRUM
##ORIGIN=NIST Mass Spectrometry Data Center, 1990.
##OWNER=NIST Mass Spectrometry Data Center
Collection (C) 2014 copyright by the U.S. Secretary of Commerce
on behalf of the United States of America. All rights reserved.
##CAS REGISTRY NO=931-87-3
##$NIST MASS SPEC NO=113472
##MOLFORM=C8 H14
##MW=110
##$NIST SOURCE=MSDC
##XUNITS=M/Z
##YUNITS=RELATIVE INTENSITY
##XFACTOR=1
##YFACTOR=1
##FIRSTX=15
##LASTX=111
##FIRSTY=94
##MAXX=111
##MINX=15
##MAXY=9999
##MINY=56
##NPOINTS=38
##PEAK TABLE=(XY..XY)
15,94 26,301 27,1679 28,821
29,631 37,89 39,4317 40,842
41,4957 42,552 43,182 50,436
51,846 52,450 53,1898 54,5644
55,1544 56,463 62,93 63,228
65,780 67,9999 68,2790 69,1010
70,56 77,639 78,199 79,1067
80,431 81,3916 82,5290 83,356
91,186 93,126 95,1544 96,140
110,2813 111,233
##END=
