##TITLE=1,2-Cyclohexanediol
##JCAMP-DX=4.24
##DATA TYPE=MASS SPECTRUM
##ORIGIN=Japan AIST/NIMC Database- Spectrum MS-NW-4669
##OWNER=NIST Mass Spectrometry Data Center
Collection (C) 2014 copyright by the U.S. Secretary of Commerce
on behalf of the United States of America. All rights reserved.
##CAS REGISTRY NO=931-17-9
##$NIST MASS SPEC NO=230636
##MOLFORM=C6 H12 O2
##MW=116
##$NIST SOURCE=MSDC
##XUNITS=M/Z
##YUNITS=RELATIVE INTENSITY
##XFACTOR=1
##YFACTOR=1
##FIRSTX=14
##LASTX=117
##FIRSTY=60
##MAXX=117
##MINX=14
##MAXY=9999
##MINY=10
##NPOINTS=75
##PEAK TABLE=(XY..XY)
14,60 15,269 16,10 17,70
18,329 19,219 25,10 26,239
27,1859 28,539 29,1339 30,119
31,1239 32,20 37,80 38,159
39,1619 40,379 41,3849 42,3449
43,1899 44,3439 45,599 46,20
47,159 49,20 50,119 51,189
52,70 53,389 54,1169 55,1749
56,1119 57,7279 58,399 59,50
60,239 61,40 62,30 63,40
65,99 66,60 67,649 68,389
69,1819 70,9999 71,639 72,179
73,199 74,179 75,30 77,109
78,60 79,359 80,899 81,269
82,50 83,2899 84,169 85,139
86,99 87,40 88,40 94,40
95,20 96,30 97,749 98,3049
99,239 100,20 112,50 114,10
115,30 116,1019 117,70
##END=
