##TITLE=Cyclohexanol, 2-amino-, cis-
##JCAMP-DX=4.24
##DATA TYPE=MASS SPECTRUM
##OWNER=NIST Mass Spectrometry Data Center
Collection (C) 2014 copyright by the U.S. Secretary of Commerce
on behalf of the United States of America. All rights reserved.
##CAS REGISTRY NO=931-15-7
##$NIST MASS SPEC NO=1863
##MOLFORM=C6 H13 N O
##MW=115
##$NIST SOURCE=MSDC
##XUNITS=M/Z
##YUNITS=RELATIVE INTENSITY
##XFACTOR=1
##YFACTOR=1
##FIRSTX=30
##LASTX=116
##FIRSTY=1301
##MAXX=116
##MINX=30
##MAXY=9999
##MINY=200
##NPOINTS=15
##PEAK TABLE=(XY..XY)
30,1301 41,601 42,400 43,2502
44,400 56,9999 57,500 59,300
69,300 70,500 72,1201 86,300
98,200 115,4404 116,300
##END=
