##TITLE=Isothiazole, 4-nitro-
##JCAMP-DX=4.24
##DATA TYPE=MASS SPECTRUM
##OWNER=NIST Mass Spectrometry Data Center
Collection (C) 2014 copyright by the U.S. Secretary of Commerce
on behalf of the United States of America. All rights reserved.
##CAS REGISTRY NO=931-07-7
##$NIST MASS SPEC NO=33872
##MOLFORM=C3 H2 N2 O2 S
##MW=130
##$NIST SOURCE=MSDC
##XUNITS=M/Z
##YUNITS=RELATIVE INTENSITY
##XFACTOR=1
##YFACTOR=1
##FIRSTX=30
##LASTX=132
##FIRSTY=2400
##MAXX=132
##MINX=30
##MAXY=9999
##MINY=400
##NPOINTS=19
##PEAK TABLE=(XY..XY)
30,2400 43,900 45,6099 46,850
56,700 57,9999 58,500 59,550
60,600 76,600 82,400 83,500
84,4000 87,700 100,600 114,800
130,7999 131,550 132,670
##END=
