##TITLE=Pyrimidine, 2-methoxy-
##JCAMP-DX=4.24
##DATA TYPE=MASS SPECTRUM
##ORIGIN=V.A. KOPTYUG, VOL5, ATLAS OF MS OF ORGANIC COMPOUNDS
##OWNER=NIST Mass Spectrometry Data Center
Collection (C) 2014 copyright by the U.S. Secretary of Commerce
on behalf of the United States of America. All rights reserved.
##CAS REGISTRY NO=931-63-5
##$NIST MASS SPEC NO=74262
##MOLFORM=C5 H6 N2 O
##MW=110
##$NIST SOURCE=MSDC
##XUNITS=M/Z
##YUNITS=RELATIVE INTENSITY
##XFACTOR=1
##YFACTOR=1
##FIRSTX=37
##LASTX=112
##FIRSTY=40
##MAXX=112
##MINX=37
##MAXY=9999
##MINY=10
##NPOINTS=39
##PEAK TABLE=(XY..XY)
37,40 38,200 39,590 40,2600
41,310 42,430 43,60 44,50
50,30 51,400 52,1290 53,6730
54,690 55,160 56,1060 57,190
58,250 65,40 66,170 67,250
68,520 69,60 76,20 77,90
78,20 79,1480 80,9999 81,2710
82,470 83,80 93,80 95,200
96,20 107,10 108,40 109,2730
110,9999 111,840 112,40
##END=
