##TITLE=Benzene, 1-chloro-4-nitroso-
##JCAMP-DX=4.24
##DATA TYPE=MASS SPECTRUM
##ORIGIN=J. F. SMITH, LA TROBE UNIVERSITY, AUSTRALIA
##OWNER=NIST Mass Spectrometry Data Center
Collection (C) 2014 copyright by the U.S. Secretary of Commerce
on behalf of the United States of America. All rights reserved.
##CAS REGISTRY NO=932-98-9
##$NIST MASS SPEC NO=51815
##MOLFORM=C6 H4 Cl N O
##MW=141
##$NIST SOURCE=MSDC
##XUNITS=M/Z
##YUNITS=RELATIVE INTENSITY
##XFACTOR=1
##YFACTOR=1
##FIRSTX=25
##LASTX=144
##FIRSTY=50
##MAXX=144
##MINX=25
##MAXY=9999
##MINY=50
##NPOINTS=56
##PEAK TABLE=(XY..XY)
25,50 26,250 27,300 28,100
29,50 30,850 31,100 35,150
36,400 37,900 38,750 39,400
40,50 41,100 42,50 47,100
48,100 49,450 50,3200 51,1400
52,150 60,150 61,600 62,450
63,600 64,300 65,100 72,150
73,600 74,1800 75,7500 76,1300
77,150 84,200 85,800 86,150
87,350 88,100 89,50 90,150
91,50 92,50 110,100 111,9999
112,750 113,3300 114,250 125,50
126,50 127,250 128,50 129,50
141,5900 142,450 143,2000 144,150
##END=
