##TITLE=Benzenamine, 2-chloro-N-methyl-
##JCAMP-DX=4.24
##DATA TYPE=MASS SPECTRUM
##ORIGIN=NIST Mass Spectrometry Data Center
##OWNER=NIST Mass Spectrometry Data Center
Collection (C) 2014 copyright by the U.S. Secretary of Commerce
on behalf of the United States of America. All rights reserved.
##CAS REGISTRY NO=932-32-1
##$NIST MASS SPEC NO=343692
##MOLFORM=C7 H8 Cl N
##MW=141
##$NIST SOURCE=MSDC
##XUNITS=M/Z
##YUNITS=RELATIVE INTENSITY
##XFACTOR=1
##YFACTOR=1
##FIRSTX=12
##LASTX=144
##FIRSTY=20
##MAXX=144
##MINX=12
##MAXY=9999
##MINY=10
##NPOINTS=77
##PEAK TABLE=(XY..XY)
12,20 13,20 14,10 15,260
26,70 27,180 28,430 29,30
30,220 35,30 36,40 37,240
38,340 39,450 40,80 41,80
42,60 44,50 45,30 49,140
50,721 51,1121 52,671 54,50
55,20 60,40 61,190 62,290
63,691 64,380 65,170 66,50
70,290 72,110 73,400 74,480
75,911 76,330 77,3493 78,470
79,220 84,80 85,100 86,50
87,40 88,40 89,30 90,250
91,190 92,20 97,20 98,40
99,691 100,70 101,220 102,90
104,350 105,400 106,170 107,20
111,230 112,190 113,170 114,90
115,40 124,20 125,40 126,80
128,30 136,20 137,20 138,220
140,9999 141,6906 142,3523 143,1962
144,140
##END=
