##TITLE=2,4(1H,3H)-Pyrimidinedione, 5-amino-
##JCAMP-DX=4.24
##DATA TYPE=MASS SPECTRUM
##ORIGIN=Japan AIST/NIMC Database- Spectrum MS-NW-4987
##OWNER=NIST Mass Spectrometry Data Center
Collection (C) 2014 copyright by the U.S. Secretary of Commerce
on behalf of the United States of America. All rights reserved.
##CAS REGISTRY NO=932-52-5
##$NIST MASS SPEC NO=230063
##MOLFORM=C4 H5 N3 O2
##MW=127
##$NIST SOURCE=MSDC
##XUNITS=M/Z
##YUNITS=RELATIVE INTENSITY
##XFACTOR=1
##YFACTOR=1
##FIRSTX=12
##LASTX=129
##FIRSTY=30
##MAXX=129
##MINX=12
##MAXY=9999
##MINY=10
##NPOINTS=51
##PEAK TABLE=(XY..XY)
12,30 13,30 14,60 15,30
16,99 17,10 18,30 24,10
25,20 26,40 27,559 28,6249
29,7279 30,279 34,20 38,80
39,90 40,239 41,629 42,99
43,339 44,539 45,159 51,10
52,20 53,259 54,339 55,619
56,6999 57,419 58,10 66,10
67,10 68,10 69,10 70,159
71,139 72,40 81,20 82,50
83,70 84,1009 85,50 87,20
99,40 100,10 109,10 126,60
127,9999 128,679 129,60
##END=
