##TITLE=Ethanone, 1-(1-methyl-1H-pyrrol-2-yl)-
##JCAMP-DX=4.24
##DATA TYPE=MASS SPECTRUM
##ORIGIN=MASS SPECTRA OF ORGANIC COMPOUNDS, V. 5, B. H. KENNETT ET AL, DIV. OF FOOD RESEARCH, CSIRO, AUSTRALIA
##OWNER=NIST Mass Spectrometry Data Center
Collection (C) 2014 copyright by the U.S. Secretary of Commerce
on behalf of the United States of America. All rights reserved.
##CAS REGISTRY NO=932-16-1
##$NIST MASS SPEC NO=57694
##MOLFORM=C7 H9 N O
##MW=123
##$NIST SOURCE=MSDC
##XUNITS=M/Z
##YUNITS=RELATIVE INTENSITY
##XFACTOR=1
##YFACTOR=1
##FIRSTX=26
##LASTX=124
##FIRSTY=500
##MAXX=124
##MINX=26
##MAXY=9999
##MINY=100
##NPOINTS=32
##PEAK TABLE=(XY..XY)
26,500 27,1900 28,1600 29,100
37,400 38,1000 39,5300 40,400
41,600 42,1300 43,2200 49,600
51,1000 52,1000 53,5900 54,800
55,200 63,200 64,300 65,300
78,500 79,400 80,3100 81,300
93,100 94,300 104,300 108,9999
109,1000 122,500 123,8200 124,900
##END=
