##TITLE=3-Cyclohexenecarbonyl chloride
##JCAMP-DX=4.24
##DATA TYPE=MASS SPECTRUM
##ORIGIN=NIST Mass Spectrometry Data Center, 1994
##OWNER=NIST Mass Spectrometry Data Center
Collection (C) 2014 copyright by the U.S. Secretary of Commerce
on behalf of the United States of America. All rights reserved.
##CAS REGISTRY NO=932-67-2
##$NIST MASS SPEC NO=135168
##MOLFORM=C7 H9 Cl O
##MW=144
##$NIST SOURCE=MSDC
##XUNITS=M/Z
##YUNITS=RELATIVE INTENSITY
##XFACTOR=1
##YFACTOR=1
##FIRSTX=12
##LASTX=146
##FIRSTY=47
##MAXX=146
##MINX=12
##MAXY=9999
##MINY=25
##NPOINTS=64
##PEAK TABLE=(XY..XY)
12,47 13,28 15,680 16,32
17,55 18,35 26,1169 27,4819
28,856 29,589 31,28 35,163
36,99 37,487 38,1076 39,5092
40,781 41,2720 42,237 43,53
44,38 47,29 49,289 50,1506
51,2013 52,1124 53,3261 54,1351
55,1180 56,51 60,35 61,111
62,199 63,861 64,142 65,973
66,1088 67,544 68,235 69,46
73,85 74,175 75,281 76,35
77,2272 78,35 79,7282 80,8768
81,9999 82,684 83,25 87,27
88,92 89,49 90,41 91,87
108,1742 109,1442 110,131 116,320
117,30 118,92 144,100 146,45
##END=
