##TITLE=Ethanone, 1-(1-cyclohexen-1-yl)-
##JCAMP-DX=4.24
##DATA TYPE=MASS SPECTRUM
##ORIGIN=Japan AIST/NIMC Database- Spectrum MS-NW-9942
##OWNER=NIST Mass Spectrometry Data Center
Collection (C) 2014 copyright by the U.S. Secretary of Commerce
on behalf of the United States of America. All rights reserved.
##CAS REGISTRY NO=932-66-1
##$NIST MASS SPEC NO=239223
##MOLFORM=C8 H12 O
##MW=124
##$NIST SOURCE=MSDC
##XUNITS=M/Z
##YUNITS=RELATIVE INTENSITY
##XFACTOR=1
##YFACTOR=1
##FIRSTX=14
##LASTX=126
##FIRSTY=10
##MAXX=126
##MINX=14
##MAXY=9999
##MINY=10
##NPOINTS=76
##PEAK TABLE=(XY..XY)
14,10 15,219 18,30 26,70
27,769 28,99 29,179 31,10
37,20 38,99 39,1029 40,139
41,1309 42,129 43,6079 44,149
45,90 49,10 50,259 51,569
52,339 53,1909 54,299 55,439
56,20 57,10 58,20 61,10
62,40 63,109 64,20 65,399
66,339 67,409 68,60 69,60
70,50 71,20 73,10 74,50
75,20 76,20 77,779 78,209
79,3269 80,849 81,9999 82,709
83,60 84,10 91,219 92,20
93,30 94,20 95,199 96,99
97,30 98,10 103,20 104,10
105,60 106,40 107,50 108,20
109,7449 110,599 111,40 115,10
117,20 120,10 121,10 122,10
123,129 124,5919 125,579 126,40
##END=
