##TITLE=Cyclohexane, 1,1-dimethoxy-
##JCAMP-DX=4.24
##DATA TYPE=MASS SPECTRUM
##ORIGIN=James Little,Eastman Chem.Co.,Kingsport,TN
##OWNER=NIST Mass Spectrometry Data Center
Collection (C) 2014 copyright by the U.S. Secretary of Commerce
on behalf of the United States of America. All rights reserved.
##CAS REGISTRY NO=933-40-4
##$NIST MASS SPEC NO=289003
##MOLFORM=C8 H16 O2
##MW=144
##$NIST SOURCE=MSDC
##XUNITS=M/Z
##YUNITS=RELATIVE INTENSITY
##XFACTOR=1
##YFACTOR=1
##FIRSTX=39
##LASTX=147
##FIRSTY=2422
##MAXX=147
##MINX=39
##MAXY=9999
##MINY=10
##NPOINTS=33
##PEAK TABLE=(XY..XY)
39,2422 41,2973 42,771 43,3613
45,1461 53,1031 54,1181 55,2642
58,731 59,360 65,320 67,871
69,1171 71,791 77,711 79,1772
81,4014 83,1011 84,3703 88,1031
97,2943 98,300 101,9999 102,801
111,3053 112,3363 113,5465 114,410
115,390 144,981 145,90 146,10
147,10
##END=
