##TITLE=1H-Indole, 7-methyl-
##JCAMP-DX=4.24
##DATA TYPE=MASS SPECTRUM
##ORIGIN=Japan AIST/NIMC Database- Spectrum MS-NW-8648
##OWNER=NIST Mass Spectrometry Data Center
Collection (C) 2014 copyright by the U.S. Secretary of Commerce
on behalf of the United States of America. All rights reserved.
##CAS REGISTRY NO=933-67-5
##$NIST MASS SPEC NO=229249
##MOLFORM=C9 H9 N
##MW=131
##$NIST SOURCE=MSDC
##XUNITS=M/Z
##YUNITS=RELATIVE INTENSITY
##XFACTOR=1
##YFACTOR=1
##FIRSTX=26
##LASTX=133
##FIRSTY=20
##MAXX=133
##MINX=26
##MAXY=9999
##MINY=10
##NPOINTS=55
##PEAK TABLE=(XY..XY)
26,20 27,119 28,30 37,50
38,109 39,289 40,20 41,30
49,30 50,349 51,769 52,469
53,99 54,20 61,60 62,169
63,389 64,579 65,709 66,70
67,10 73,20 74,179 75,239
76,279 77,1529 78,359 79,40
80,20 85,10 86,30 87,50
88,50 89,149 90,40 91,30
98,30 99,20 100,20 101,159
102,529 103,1089 104,309 105,20
114,10 115,20 116,40 117,10
127,20 128,309 129,199 130,9999
131,9439 132,929 133,40
##END=
