##TITLE=Cyclohexene, 3,5,5-trimethyl-
##JCAMP-DX=4.24
##DATA TYPE=MASS SPECTRUM
##ORIGIN=NIST Mass Spectrometry Data Center, 1990.
##OWNER=NIST Mass Spectrometry Data Center
Collection (C) 2014 copyright by the U.S. Secretary of Commerce
on behalf of the United States of America. All rights reserved.
##CAS REGISTRY NO=933-12-0
##$NIST MASS SPEC NO=114136
##MOLFORM=C9 H16
##MW=124
##$NIST SOURCE=MSDC
##XUNITS=M/Z
##YUNITS=RELATIVE INTENSITY
##XFACTOR=1
##YFACTOR=1
##FIRSTX=14
##LASTX=125
##FIRSTY=103
##MAXX=125
##MINX=14
##MAXY=9999
##MINY=29
##NPOINTS=55
##PEAK TABLE=(XY..XY)
14,103 15,177 26,108 27,948
28,131 29,543 37,51 39,2784
40,732 41,3111 42,350 43,427
44,75 45,49 46,29 50,292
51,817 52,395 53,1920 54,292
55,1571 56,643 57,127 62,108
63,364 64,96 65,1092 66,96
67,8452 68,9999 69,1889 70,127
74,54 75,46 77,1676 78,480
79,1488 80,380 81,2094 82,953
83,465 89,63 91,1271 92,195
93,460 94,197 95,726 96,373
103,52 105,146 107,192 109,6024
110,521 124,2105 125,191
##END=
