##TITLE=Cyclopentanol, acetate
##JCAMP-DX=4.24
##DATA TYPE=MASS SPECTRUM
##ORIGIN=NIST Mass Spectrometry Data Center, 2010
##OWNER=NIST Mass Spectrometry Data Center
Collection (C) 2014 copyright by the U.S. Secretary of Commerce
on behalf of the United States of America. All rights reserved.
##CAS REGISTRY NO=933-05-1
##$NIST MASS SPEC NO=417257
##MOLFORM=C7 H12 O2
##MW=128
##$NIST SOURCE=MSDC
##XUNITS=M/Z
##YUNITS=RELATIVE INTENSITY
##XFACTOR=1
##YFACTOR=1
##FIRSTX=14
##LASTX=127
##FIRSTY=30
##MAXX=127
##MINX=14
##MAXY=9999
##MINY=10
##NPOINTS=55
##PEAK TABLE=(XY..XY)
14,30 15,190 26,80 27,460
28,260 29,450 30,30 31,50
37,20 38,90 39,1001 40,220
41,1651 42,460 43,9999 44,500
45,90 50,40 51,80 52,30
53,270 54,50 55,270 56,80
57,1301 58,2382 59,510 60,50
61,691 62,30 63,40 64,10
65,160 66,110 67,2052 68,5625
69,1481 70,851 71,1011 72,140
81,10 82,20 83,50 84,460
85,2032 86,871 87,60 95,120
97,20 99,50 100,170 101,10
110,20 113,180 127,10
##END=
