##TITLE=Benzoyl chloride, 2-methyl-
##JCAMP-DX=4.24
##DATA TYPE=MASS SPECTRUM
##ORIGIN=Japan AIST/NIMC Database- Spectrum MS-NW-2936
##OWNER=NIST Mass Spectrometry Data Center
Collection (C) 2014 copyright by the U.S. Secretary of Commerce
on behalf of the United States of America. All rights reserved.
##CAS REGISTRY NO=933-88-0
##$NIST MASS SPEC NO=228790
##MOLFORM=C8 H7 Cl O
##MW=154
##$NIST SOURCE=MSDC
##XUNITS=M/Z
##YUNITS=RELATIVE INTENSITY
##XFACTOR=1
##YFACTOR=1
##FIRSTX=15
##LASTX=157
##FIRSTY=10
##MAXX=157
##MINX=15
##MAXY=9999
##MINY=10
##NPOINTS=59
##PEAK TABLE=(XY..XY)
15,10 26,40 27,80 28,109
29,10 35,20 36,109 37,99
38,179 39,819 40,60 41,169
43,90 44,60 45,89 46,30
49,60 50,289 51,339 52,99
53,30 59,209 60,20 61,119
62,269 63,699 64,199 65,1469
66,80 73,40 74,90 75,80
76,50 77,30 84,10 85,30
86,50 87,50 88,10 89,569
90,409 91,5069 92,399 93,10
99,30 105,30 118,109 119,9999
120,889 121,50 125,40 126,10
127,10 136,20 153,10 154,449
155,30 156,139 157,10
##END=
