##TITLE=4,5-Dichloro-2-methylpyridazin-3-one
##JCAMP-DX=4.24
##DATA TYPE=MASS SPECTRUM
##ORIGIN=NIST Mass Spectrometry Data Center, 1994
##OWNER=NIST Mass Spectrometry Data Center
Collection (C) 2014 copyright by the U.S. Secretary of Commerce
on behalf of the United States of America. All rights reserved.
##CAS REGISTRY NO=933-76-6
##$NIST MASS SPEC NO=136316
##MOLFORM=C5 H4 Cl2 N2 O
##MW=178
##$NIST SOURCE=MSDC
##XUNITS=M/Z
##YUNITS=RELATIVE INTENSITY
##XFACTOR=1
##YFACTOR=1
##FIRSTX=12
##LASTX=183
##FIRSTY=247
##MAXX=183
##MINX=12
##MAXY=9999
##MINY=10
##NPOINTS=107
##PEAK TABLE=(XY..XY)
12,247 13,308 14,893 15,7211
16,45 18,86 24,549 25,466
26,197 27,750 28,4414 29,45
30,474 35,919 36,1103 37,4670
38,706 39,165 40,158 41,10
42,477 43,8244 44,218 47,1253
48,140 49,562 50,1094 51,1873
52,836 53,353 54,148 55,164
56,412 57,51 58,172 59,473
60,486 61,681 62,368 63,295
64,154 65,387 71,723 72,5133
73,606 74,1539 75,152 76,176
77,79 78,285 79,121 80,308
82,177 84,132 85,939 86,1025
87,2186 88,1115 89,809 90,285
91,62 94,1183 95,161 96,796
97,130 98,153 99,62 100,485
101,49 102,160 107,9999 108,667
109,6694 110,364 111,1149 112,61
113,65 114,288 115,1305 116,984
117,464 118,313 120,223 121,126
122,290 123,436 124,168 125,205
135,681 136,150 137,425 138,82
139,77 143,791 145,257 150,7105
151,1367 152,4733 153,791 154,638
155,104 178,6861 179,554 180,4145
181,303 182,708 183,44
##END=
