##TITLE=1,3-Cyclobutanedione, 2,2,4,4-tetramethyl-
##JCAMP-DX=4.24
##DATA TYPE=MASS SPECTRUM
##ORIGIN=Japan AIST/NIMC Database- Spectrum MS-NW-4652
##OWNER=NIST Mass Spectrometry Data Center
Collection (C) 2014 copyright by the U.S. Secretary of Commerce
on behalf of the United States of America. All rights reserved.
##CAS REGISTRY NO=933-52-8
##$NIST MASS SPEC NO=227904
##MOLFORM=C8 H12 O2
##MW=140
##$NIST SOURCE=MSDC
##XUNITS=M/Z
##YUNITS=RELATIVE INTENSITY
##XFACTOR=1
##YFACTOR=1
##FIRSTX=15
##LASTX=141
##FIRSTY=90
##MAXX=141
##MINX=15
##MAXY=9999
##MINY=10
##NPOINTS=50
##PEAK TABLE=(XY..XY)
15,90 18,20 25,10 26,90
27,469 28,129 29,50 31,10
32,10 37,50 38,109 39,1179
40,359 41,2639 42,6559 43,389
44,20 50,20 51,40 52,10
53,80 54,20 55,109 56,50
57,10 63,10 65,20 66,10
67,40 68,10 69,789 70,9999
71,489 72,30 77,30 79,50
81,50 83,20 84,609 85,40
91,10 93,10 95,10 96,20
97,60 111,10 112,90 113,10
140,659 141,60
##END=
