##TITLE=Benzene, 1-ethyl-2,3-dimethyl-
##JCAMP-DX=4.24
##DATA TYPE=MASS SPECTRUM
##OWNER=NIST Mass Spectrometry Data Center
Collection (C) 2014 copyright by the U.S. Secretary of Commerce
on behalf of the United States of America. All rights reserved.
##CAS REGISTRY NO=933-98-2
##$NIST MASS SPEC NO=3141
##MOLFORM=C10 H14
##MW=134
##$NIST SOURCE=MSDC
##XUNITS=M/Z
##YUNITS=RELATIVE INTENSITY
##XFACTOR=1
##YFACTOR=1
##FIRSTX=1
##LASTX=136
##FIRSTY=20
##MAXX=136
##MINX=1
##MAXY=9999
##MINY=10
##NPOINTS=96
##PEAK TABLE=(XY..XY)
1,20 2,40 12,10 13,10
14,10 15,270 16,10 23,10
25,10 26,50 27,701 28,80
29,130 30,10 37,10 38,70
39,941 40,110 41,651 42,30
43,10 44,10 45,10 46,10
49,10 50,160 51,591 52,200
53,350 54,20 55,50 56,10
57,50 58,110 59,30 60,10
61,10 62,70 63,310 64,230
65,651 66,250 67,50 68,10
73,10 74,40 75,80 76,60
77,901 78,320 79,330 80,30
81,10 82,10 84,10 85,10
86,10 87,20 88,20 89,130
90,60 91,1331 92,150 93,130
94,10 97,10 98,10 99,10
100,10 101,20 102,120 103,400
104,280 105,1131 106,370 107,140
113,30 114,70 115,601 116,300
117,661 118,250 119,9999 120,911
121,50 126,10 127,30 128,60
129,30 130,10 131,60 132,20
133,180 134,3283 135,330 136,20
##END=
