##TITLE=2-Pyridinecarboxylic acid, 6-methyl-
##JCAMP-DX=4.24
##DATA TYPE=MASS SPECTRUM
##ORIGIN=Japan AIST/NIMC Database- Spectrum MS-NW-8677
##OWNER=NIST Mass Spectrometry Data Center
Collection (C) 2014 copyright by the U.S. Secretary of Commerce
on behalf of the United States of America. All rights reserved.
##CAS REGISTRY NO=934-60-1
##$NIST MASS SPEC NO=236690
##MOLFORM=C7 H7 N O2
##MW=137
##$NIST SOURCE=MSDC
##XUNITS=M/Z
##YUNITS=RELATIVE INTENSITY
##XFACTOR=1
##YFACTOR=1
##FIRSTX=14
##LASTX=139
##FIRSTY=20
##MAXX=139
##MINX=14
##MAXY=9999
##MINY=10
##NPOINTS=76
##PEAK TABLE=(XY..XY)
14,20 15,119 16,70 17,10
18,30 25,20 26,189 27,409
28,339 29,30 30,10 31,30
36,20 37,339 38,659 39,2879
40,619 41,489 42,259 43,60
44,699 45,319 46,139 47,10
48,10 49,109 50,609 51,879
52,649 53,429 54,199 55,30
57,10 60,30 61,139 62,239
63,779 64,1029 65,4589 66,4519
67,609 68,40 69,10 70,10
73,10 74,10 75,70 76,119
77,90 78,719 79,109 80,70
81,30 83,10 86,10 87,30
88,30 89,10 90,90 91,969
92,3759 93,9999 94,729 95,30
96,10 104,10 107,10 108,10
109,10 119,10 120,119 121,10
136,20 137,279 138,109 139,10
##END=
