##TITLE=1H-Benzimidazol-2-amine
##JCAMP-DX=4.24
##DATA TYPE=MASS SPECTRUM
##ORIGIN=Japan AIST/NIMC Database- Spectrum MS-NW-2238
##OWNER=NIST Mass Spectrometry Data Center
Collection (C) 2014 copyright by the U.S. Secretary of Commerce
on behalf of the United States of America. All rights reserved.
##CAS REGISTRY NO=934-32-7
##$NIST MASS SPEC NO=230935
##MOLFORM=C7 H7 N3
##MW=133
##$NIST SOURCE=MSDC
##XUNITS=M/Z
##YUNITS=RELATIVE INTENSITY
##XFACTOR=1
##YFACTOR=1
##FIRSTX=26
##LASTX=135
##FIRSTY=50
##MAXX=135
##MINX=26
##MAXY=9999
##MINY=10
##NPOINTS=59
##PEAK TABLE=(XY..XY)
26,50 27,109 28,159 29,159
36,20 37,80 38,139 39,179
40,50 41,70 42,30 43,199
44,20 49,20 50,119 51,369
52,429 53,209 54,40 55,20
56,10 57,10 60,10 61,40
62,90 63,329 64,309 65,159
66,429 67,60 68,10 74,10
75,40 76,90 77,149 78,439
79,859 80,169 81,20 82,10
87,10 88,20 89,20 90,279
91,209 92,50 93,50 103,10
104,40 105,1789 106,1289 107,139
116,50 117,10 131,10 132,459
133,9999 134,879 135,30
##END=
