##TITLE=Cyclohexanecarboxylic acid, decyl ester
##JCAMP-DX=4.24
##DATA TYPE=MASS SPECTRUM
##ORIGIN=V.G.Zaikin, TIPS RAS, Moscow, Russia
##OWNER=NIST Mass Spectrometry Data Center
Collection (C) 2014 copyright by the U.S. Secretary of Commerce
on behalf of the United States of America. All rights reserved.
##CAS REGISTRY NO=93479-48-2
##$NIST MASS SPEC NO=279538
##MOLFORM=C17 H32 O2
##MW=268
##$NIST SOURCE=MSDC
##XUNITS=M/Z
##YUNITS=RELATIVE INTENSITY
##XFACTOR=1
##YFACTOR=1
##FIRSTX=25
##LASTX=269
##FIRSTY=40
##MAXX=269
##MINX=25
##MAXY=9999
##MINY=10
##NPOINTS=73
##PEAK TABLE=(XY..XY)
25,40 26,170 27,931 28,330
29,1531 30,60 31,40 38,70
39,821 40,230 41,3583 42,1091
43,3483 44,751 45,100 51,250
52,70 53,410 54,681 55,5195
56,2392 57,2472 58,160 60,380
61,180 65,110 66,90 67,991
68,1051 69,1722 70,1832 71,951
72,90 73,1081 74,60 77,110
79,180 80,90 81,741 82,931
83,6095 84,1631 85,751 86,150
87,190 91,90 93,290 95,170
96,320 97,1181 98,1451 99,390
100,70 101,90 105,70 109,150
110,651 111,2482 112,891 113,210
115,70 127,120 128,1041 129,9999
130,891 131,90 140,1611 141,270
185,250 186,70 213,110 268,30
269,10
##END=
