##TITLE=Adamantane, 1-chloro-
##JCAMP-DX=4.24
##DATA TYPE=MASS SPECTRUM
##ORIGIN=NIST Mass Spectrometry Data Center
##OWNER=NIST Mass Spectrometry Data Center
Collection (C) 2014 copyright by the U.S. Secretary of Commerce
on behalf of the United States of America. All rights reserved.
##CAS REGISTRY NO=935-56-8
##$NIST MASS SPEC NO=342382
##MOLFORM=C10 H15 Cl
##MW=170
##$NIST SOURCE=MSDC
##XUNITS=M/Z
##YUNITS=RELATIVE INTENSITY
##XFACTOR=1
##YFACTOR=1
##FIRSTX=15
##LASTX=172
##FIRSTY=110
##MAXX=172
##MINX=15
##MAXY=9999
##MINY=10
##NPOINTS=79
##PEAK TABLE=(XY..XY)
15,110 17,10 18,20 27,961
28,170 29,390 30,10 35,10
36,20 37,20 39,1762 40,310
41,1311 42,80 43,90 49,90
50,140 51,540 52,230 53,681
54,160 55,370 56,70 57,80
58,50 59,10 61,30 62,50
63,190 64,80 65,621 66,180
67,811 68,80 69,140 73,30
75,120 77,1401 78,410 79,2412
80,420 81,550 82,40 87,20
88,20 89,60 91,1141 92,370
93,1912 94,170 95,30 99,10
100,20 101,20 102,30 103,60
105,240 107,771 108,70 112,30
113,140 114,30 115,90 116,20
117,30 119,50 120,10 121,10
127,30 128,20 129,10 131,10
133,70 135,9999 136,1041 137,50
170,200 171,20 172,70
##END=
