##TITLE=1-Azacyclononan-2-one
##JCAMP-DX=4.24
##DATA TYPE=MASS SPECTRUM
##ORIGIN=MASS SPECTROMETRY CENTER, UNIV. OF UTAH. ALDRICH 12327-7
##OWNER=NIST Mass Spectrometry Data Center
Collection (C) 2014 copyright by the U.S. Secretary of Commerce
on behalf of the United States of America. All rights reserved.
##CAS REGISTRY NO=935-30-8
##$NIST MASS SPEC NO=59527
##MOLFORM=C8 H15 N O
##MW=141
##$NIST SOURCE=MSDC
##XUNITS=M/Z
##YUNITS=RELATIVE INTENSITY
##XFACTOR=1
##YFACTOR=1
##FIRSTX=15
##LASTX=142
##FIRSTY=219
##MAXX=142
##MINX=15
##MAXY=9999
##MINY=11
##NPOINTS=58
##PEAK TABLE=(XY..XY)
15,219 26,112 27,1126 28,1300
29,918 30,9999 31,277 39,983
40,283 41,2403 42,1660 43,1266
44,977 45,1342 46,12 51,14
53,268 54,424 55,3174 56,2962
57,698 58,357 59,406 60,27
65,11 67,380 68,2039 69,1050
70,742 71,128 72,513 73,198
79,61 80,14 81,280 82,292
83,590 84,1266 85,540 86,180
94,128 95,298 96,462 97,288
98,1717 99,520 100,180 109,25
111,51 112,560 113,340 123,171
124,2180 125,240 126,11 140,27
141,782 142,142
##END=
