##TITLE=Pyridine, 2,6-diethyl-
##JCAMP-DX=4.24
##DATA TYPE=MASS SPECTRUM
##ORIGIN=NIST Mass Spectrometry Data Center, 1990.
##OWNER=NIST Mass Spectrometry Data Center
Collection (C) 2014 copyright by the U.S. Secretary of Commerce
on behalf of the United States of America. All rights reserved.
##CAS REGISTRY NO=935-28-4
##$NIST MASS SPEC NO=114588
##MOLFORM=C9 H13 N
##MW=135
##$NIST SOURCE=MSDC
##XUNITS=M/Z
##YUNITS=RELATIVE INTENSITY
##XFACTOR=1
##YFACTOR=1
##FIRSTX=15
##LASTX=136
##FIRSTY=94
##MAXX=136
##MINX=15
##MAXY=9999
##MINY=26
##NPOINTS=56
##PEAK TABLE=(XY..XY)
15,94 26,104 27,534 28,96
29,158 37,52 38,189 39,860
40,134 41,217 42,50 50,345
51,817 52,490 53,394 54,151
55,26 56,40 59,102 60,120
61,29 62,117 63,348 64,279
65,606 66,260 67,82 74,68
75,78 76,154 77,1198 78,558
79,837 80,380 81,65 89,65
90,76 91,384 92,181 93,566
94,65 102,41 103,54 104,335
105,131 106,1150 107,1915 108,367
117,112 118,399 119,2072 120,256
132,279 134,9999 135,4569 136,437
##END=
