##TITLE=cis-1,2,3,6-Tetrahydrophthalic anhydride
##JCAMP-DX=4.24
##DATA TYPE=MASS SPECTRUM
##ORIGIN=Japan AIST/NIMC Database- Spectrum MS-NW-1563
##OWNER=NIST Mass Spectrometry Data Center
Collection (C) 2014 copyright by the U.S. Secretary of Commerce
on behalf of the United States of America. All rights reserved.
##CAS REGISTRY NO=935-79-5
##$NIST MASS SPEC NO=228044
##MOLFORM=C8 H8 O3
##MW=152
##$NIST SOURCE=MSDC
##XUNITS=M/Z
##YUNITS=RELATIVE INTENSITY
##XFACTOR=1
##YFACTOR=1
##FIRSTX=14
##LASTX=126
##FIRSTY=10
##MAXX=126
##MINX=14
##MAXY=9999
##MINY=10
##NPOINTS=57
##PEAK TABLE=(XY..XY)
14,10 15,50 17,10 18,30
25,30 26,429 27,1449 28,229
29,60 31,10 36,10 37,179
38,429 39,2039 40,379 41,289
42,20 43,10 44,50 45,30
49,99 50,689 51,1099 52,729
53,489 54,259 55,60 61,40
62,70 63,199 64,40 65,409
66,90 67,40 68,20 69,10
73,20 74,90 75,50 76,30
77,1429 78,879 79,9999 80,4999
81,329 82,30 95,40 96,80
97,40 105,30 106,50 107,60
110,10 123,439 124,3639 125,279
126,20
##END=
