##TITLE=1,4-Diethynylbenzene
##JCAMP-DX=4.24
##DATA TYPE=MASS SPECTRUM
##ORIGIN=Japan AIST/NIMC Database- Spectrum MS-IW-6580
##OWNER=NIST Mass Spectrometry Data Center
Collection (C) 2014 copyright by the U.S. Secretary of Commerce
on behalf of the United States of America. All rights reserved.
##CAS REGISTRY NO=935-14-8
##$NIST MASS SPEC NO=237271
##MOLFORM=C10 H6
##MW=126
##$NIST SOURCE=MSDC
##XUNITS=M/Z
##YUNITS=RELATIVE INTENSITY
##XFACTOR=1
##YFACTOR=1
##FIRSTX=26
##LASTX=128
##FIRSTY=10
##MAXX=128
##MINX=26
##MAXY=9999
##MINY=10
##NPOINTS=44
##PEAK TABLE=(XY..XY)
26,10 27,10 28,10 29,10
37,70 38,50 39,99 41,20
42,10 43,20 49,80 50,819
51,209 52,119 56,20 57,40
60,30 61,229 62,339 63,889
64,30 73,90 74,1079 75,549
76,1209 77,80 84,20 85,60
86,209 87,409 88,30 97,70
98,489 99,289 100,519 101,40
110,20 111,40 123,20 124,10
125,299 126,9999 127,1109 128,60
##END=
