##TITLE=1-Cyclohexyl-1-pentanol
##JCAMP-DX=4.24
##DATA TYPE=MASS SPECTRUM
##ORIGIN=NIST Mass Spectrometry Data Center, 1990.
##OWNER=NIST Mass Spectrometry Data Center
Collection (C) 2014 copyright by the U.S. Secretary of Commerce
on behalf of the United States of America. All rights reserved.
##CAS REGISTRY NO=93548-33-5
##$NIST MASS SPEC NO=114872
##MOLFORM=C11 H22 O
##MW=170
##$NIST SOURCE=MSDC
##XUNITS=M/Z
##YUNITS=RELATIVE INTENSITY
##XFACTOR=1
##YFACTOR=1
##FIRSTX=14
##LASTX=153
##FIRSTY=16
##MAXX=153
##MINX=14
##MAXY=9999
##MINY=16
##NPOINTS=57
##PEAK TABLE=(XY..XY)
14,16 27,1050 28,293 29,1622
30,101 31,379 32,34 39,1475
41,5094 42,545 43,1206 44,512
45,588 50,69 51,204 52,145
53,838 54,912 55,4057 56,674
57,1924 58,429 59,59 63,51
65,366 67,4448 68,1109 69,9999
70,778 71,446 77,444 78,119
79,833 80,330 81,2443 82,2327
83,1016 84,203 85,119 86,2240
87,4180 88,217 91,214 92,79
93,352 94,79 95,9145 96,1722
97,282 109,586 110,153 111,79
112,365 113,3093 114,233 152,776
153,99
##END=
