##TITLE=1-Propanone, 3-chloro-1-phenyl-
##JCAMP-DX=4.24
##DATA TYPE=MASS SPECTRUM
##ORIGIN=Japan AIST/NIMC Database- Spectrum MS-NW-7294
##OWNER=NIST Mass Spectrometry Data Center
Collection (C) 2014 copyright by the U.S. Secretary of Commerce
on behalf of the United States of America. All rights reserved.
##CAS REGISTRY NO=936-59-4
##$NIST MASS SPEC NO=237927
##MOLFORM=C9 H9 Cl O
##MW=168
##$NIST SOURCE=MSDC
##XUNITS=M/Z
##YUNITS=RELATIVE INTENSITY
##XFACTOR=1
##YFACTOR=1
##FIRSTX=26
##LASTX=171
##FIRSTY=30
##MAXX=171
##MINX=26
##MAXY=9999
##MINY=10
##NPOINTS=46
##PEAK TABLE=(XY..XY)
26,30 27,259 28,10 36,30
37,20 38,50 39,90 49,40
50,399 51,1139 52,90 53,20
55,159 57,10 61,30 62,40
63,149 64,10 65,50 66,90
73,30 74,149 75,109 76,179
77,3889 78,319 79,20 86,10
89,20 91,30 102,20 103,40
104,50 105,9999 106,769 107,40
115,20 131,60 132,189 133,479
134,50 167,10 168,249 169,30
170,90 171,10
##END=
