##TITLE=1,5-Anhydro-3-O-acetyl-2,4,6-tri-O-methyl-D-mannitol
##JCAMP-DX=4.24
##DATA TYPE=MASS SPECTRUM
##ORIGIN=A. VAN LANGENHOVE, HARVARD SCH. PUBLIC HEALTH, BOSTON, USA
##OWNER=NIST Mass Spectrometry Data Center
Collection (C) 2014 copyright by the U.S. Secretary of Commerce
on behalf of the United States of America. All rights reserved.
##CAS REGISTRY NO=93635-89-3
##$NIST MASS SPEC NO=101531
##MOLFORM=C11 H20 O6
##MW=248
##$NIST SOURCE=MSDC
##XUNITS=M/Z
##YUNITS=RELATIVE INTENSITY
##XFACTOR=1
##YFACTOR=1
##FIRSTX=61
##LASTX=188
##FIRSTY=400
##MAXX=188
##MINX=61
##MAXY=9999
##MINY=104
##NPOINTS=53
##PEAK TABLE=(XY..XY)
61,400 67,188 68,384 69,1294
70,296 71,2551 72,521 73,513
74,5467 75,9999 76,317 79,122
81,308 82,254 83,1485 84,833
85,1611 86,382 87,1056 88,227
89,576 95,182 96,213 97,1154
98,211 99,807 100,527 101,6359
102,519 109,120 111,974 112,568
113,241 114,1080 115,1232 116,464
117,838 125,1257 126,317 127,819
128,142 129,1066 130,151 139,713
141,374 142,131 143,2447 156,792
157,420 158,502 159,104 171,241
188,164
##END=
