##TITLE=1,5-Anhydro-2-O-acetyl-3,4,6-tri-O-methyl-d-mannitol
##JCAMP-DX=4.24
##DATA TYPE=MASS SPECTRUM
##ORIGIN=A. VAN LANGENHOVE, HARVARD SCH. PUBLIC HEALTH, BOSTON, USA
##OWNER=NIST Mass Spectrometry Data Center
Collection (C) 2014 copyright by the U.S. Secretary of Commerce
on behalf of the United States of America. All rights reserved.
##CAS REGISTRY NO=93635-82-6
##$NIST MASS SPEC NO=101530
##MOLFORM=C11 H20 O6
##MW=248
##$NIST SOURCE=MSDC
##XUNITS=M/Z
##YUNITS=RELATIVE INTENSITY
##XFACTOR=1
##YFACTOR=1
##FIRSTX=61
##LASTX=206
##FIRSTY=523
##MAXX=206
##MINX=61
##MAXY=9999
##MINY=101
##NPOINTS=51
##PEAK TABLE=(XY..XY)
61,523 67,305 68,289 69,1077
70,317 71,9999 72,2428 73,1402
74,1351 75,1062 76,156 77,194
79,131 81,634 82,240 83,945
84,1288 85,2000 86,794 87,4553
88,1931 89,917 91,156 95,244
96,101 97,1036 98,168 99,632
100,295 101,7126 102,4072 103,321
109,172 111,4052 112,586 113,606
114,351 115,770 116,141 117,592
124,164 125,277 129,1893 131,426
142,362 143,840 147,1519 156,240
171,883 203,151 206,115
##END=
