##TITLE=1,5-Anhydro-6-O-acetyl-2,3,4-tri-O-methyl-D-mannitol
##JCAMP-DX=4.24
##DATA TYPE=MASS SPECTRUM
##ORIGIN=A. VAN LANGENHOVE, HARVARD SCH. PUBLIC HEALTH, BOSTON, USA
##OWNER=NIST Mass Spectrometry Data Center
Collection (C) 2014 copyright by the U.S. Secretary of Commerce
on behalf of the United States of America. All rights reserved.
##CAS REGISTRY NO=93635-96-2
##$NIST MASS SPEC NO=101533
##MOLFORM=C11 H20 O6
##MW=248
##$NIST SOURCE=MSDC
##XUNITS=M/Z
##YUNITS=RELATIVE INTENSITY
##XFACTOR=1
##YFACTOR=1
##FIRSTX=68
##LASTX=216
##FIRSTY=118
##MAXX=216
##MINX=68
##MAXY=9999
##MINY=107
##NPOINTS=46
##PEAK TABLE=(XY..XY)
68,118 69,982 70,978 71,3677
72,390 73,1834 74,398 75,7599
76,254 81,148 83,376 84,347
85,760 86,148 87,9999 88,4880
89,601 95,227 96,107 97,313
98,199 99,1178 100,151 101,7564
102,571 103,220 111,513 113,195
114,739 115,613 117,512 124,126
125,352 126,288 127,301 129,2075
130,3290 131,833 141,139 143,767
156,1414 157,214 175,289 186,152
188,339 216,192
##END=
