##TITLE=3-Acetoxybenzofuran
##JCAMP-DX=4.24
##DATA TYPE=MASS SPECTRUM
##ORIGIN=NIST Mass Spectrometry Data Center
##OWNER=NIST Mass Spectrometry Data Center
Collection (C) 2014 copyright by the U.S. Secretary of Commerce
on behalf of the United States of America. All rights reserved.
##CAS REGISTRY NO=93680-80-9
##$NIST MASS SPEC NO=342744
##MOLFORM=C10 H8 O3
##MW=176
##$NIST SOURCE=MSDC
##XUNITS=M/Z
##YUNITS=RELATIVE INTENSITY
##XFACTOR=1
##YFACTOR=1
##FIRSTX=12
##LASTX=178
##FIRSTY=20
##MAXX=178
##MINX=12
##MAXY=9999
##MINY=10
##NPOINTS=57
##PEAK TABLE=(XY..XY)
12,20 13,80 14,300 15,1181
16,10 18,30 25,10 26,80
27,180 28,200 29,540 30,10
36,10 37,130 38,210 39,260
40,30 41,110 43,5165 44,130
45,20 49,130 50,1581 51,1571
52,190 53,80 55,10 61,90
62,210 63,260 64,30 65,20
66,10 73,100 74,540 75,460
76,1251 77,2682 78,420 79,30
85,20 86,50 87,30 89,110
90,10 91,20 105,5075 106,480
107,30 117,40 134,9999 135,841
136,70 147,10 176,1892 177,220
178,20
##END=
