##TITLE=Benzenemethanamine, N-methyl-N-nitroso-
##JCAMP-DX=4.24
##DATA TYPE=MASS SPECTRUM
##ORIGIN=W.T.RAINEY OAK RIDGE NATIONAL LABORATORY,OAK RIDGE,TN.USA
##OWNER=NIST Mass Spectrometry Data Center
Collection (C) 2014 copyright by the U.S. Secretary of Commerce
on behalf of the United States of America. All rights reserved.
##CAS REGISTRY NO=937-40-6
##$NIST MASS SPEC NO=25574
##MOLFORM=C8 H10 N2 O
##MW=150
##$NIST SOURCE=MSDC
##XUNITS=M/Z
##YUNITS=RELATIVE INTENSITY
##XFACTOR=1
##YFACTOR=1
##FIRSTX=30
##LASTX=151
##FIRSTY=1592
##MAXX=151
##MINX=30
##MAXY=9999
##MINY=63
##NPOINTS=56
##PEAK TABLE=(XY..XY)
30,1592 37,191 38,509 39,2292
40,254 41,764 42,5477 43,891
44,382 46,127 49,63 50,1210
51,2356 52,636 53,127 54,63
55,63 56,254 59,63 61,127
62,382 63,827 64,191 65,636
73,63 74,254 75,254 76,318
77,2038 78,700 79,254 80,63
85,63 86,127 87,63 88,63
89,700 90,382 91,9999 92,1082
93,127 101,63 102,254 103,827
104,827 105,63 106,63 116,63
117,63 118,764 119,127 120,636
121,191 133,63 150,955 151,127
##END=
