##TITLE=Benzene, 1-ethynyl-4-nitro-
##JCAMP-DX=4.24
##DATA TYPE=MASS SPECTRUM
##ORIGIN=A.Pleshkova, Nesmeyanov Inst.Org.Elem.Cpds, Moscow
##OWNER=NIST Mass Spectrometry Data Center
Collection (C) 2014 copyright by the U.S. Secretary of Commerce
on behalf of the United States of America. All rights reserved.
##CAS REGISTRY NO=937-31-5
##$NIST MASS SPEC NO=283690
##MOLFORM=C8 H5 N O2
##MW=147
##$NIST SOURCE=MSDC
##XUNITS=M/Z
##YUNITS=RELATIVE INTENSITY
##XFACTOR=1
##YFACTOR=1
##FIRSTX=42
##LASTX=150
##FIRSTY=260
##MAXX=150
##MINX=42
##MAXY=9999
##MINY=70
##NPOINTS=34
##PEAK TABLE=(XY..XY)
42,260 43,4404 44,370 50,891
51,2032 52,110 58,2152 59,110
60,110 61,340 62,540 63,931
64,150 73,480 74,1812 75,4764
76,270 89,2702 90,460 98,540
99,120 100,100 101,7196 102,631
116,260 117,4494 118,450 121,140
131,430 132,130 147,9999 148,921
149,290 150,70
##END=
