##TITLE=Ethanone, 1-(4-ethylphenyl)-
##JCAMP-DX=4.24
##DATA TYPE=MASS SPECTRUM
##ORIGIN=Japan AIST/NIMC Database- Spectrum MS-IW-1374
##OWNER=NIST Mass Spectrometry Data Center
Collection (C) 2014 copyright by the U.S. Secretary of Commerce
on behalf of the United States of America. All rights reserved.
##CAS REGISTRY NO=937-30-4
##$NIST MASS SPEC NO=229185
##MOLFORM=C10 H12 O
##MW=148
##$NIST SOURCE=MSDC
##XUNITS=M/Z
##YUNITS=RELATIVE INTENSITY
##XFACTOR=1
##YFACTOR=1
##FIRSTX=15
##LASTX=150
##FIRSTY=30
##MAXX=150
##MINX=15
##MAXY=9999
##MINY=10
##NPOINTS=63
##PEAK TABLE=(XY..XY)
15,30 18,10 27,119 28,40
29,20 38,20 39,189 40,20
41,30 42,10 43,569 44,10
45,10 50,149 51,349 52,60
53,80 55,10 59,10 61,10
62,60 63,189 64,50 65,149
66,20 73,20 74,70 75,60
76,90 77,979 78,209 79,1279
80,80 86,10 87,10 89,249
90,229 91,209 92,10 98,10
101,20 102,80 103,839 104,209
105,2719 106,239 107,10 115,40
116,10 117,30 118,70 119,60
128,10 129,10 131,40 132,30
133,9999 134,1019 135,60 147,129
148,2839 149,349 150,20
##END=
