##TITLE=2,4,6-Trimethylbenzoyl chloride
##JCAMP-DX=4.24
##DATA TYPE=MASS SPECTRUM
##ORIGIN=NIST Mass Spectrometry Data Center
##OWNER=NIST Mass Spectrometry Data Center
Collection (C) 2014 copyright by the U.S. Secretary of Commerce
on behalf of the United States of America. All rights reserved.
##CAS REGISTRY NO=938-18-1
##$NIST MASS SPEC NO=343026
##MOLFORM=C10 H11 Cl O
##MW=182
##$NIST SOURCE=MSDC
##XUNITS=M/Z
##YUNITS=RELATIVE INTENSITY
##XFACTOR=1
##YFACTOR=1
##FIRSTX=15
##LASTX=184
##FIRSTY=350
##MAXX=184
##MINX=15
##MAXY=9999
##MINY=10
##NPOINTS=82
##PEAK TABLE=(XY..XY)
15,350 17,10 18,40 26,140
27,791 28,150 29,70 35,50
36,70 37,90 38,300 39,1481
40,180 41,901 42,30 43,20
44,10 45,20 50,641 51,1451
52,500 53,400 54,20 55,20
58,470 61,90 62,300 63,811
64,180 65,801 66,460 67,50
71,10 74,400 75,250 76,300
77,1381 78,601 79,380 80,30
81,10 84,10 85,40 86,80
87,110 88,30 89,280 91,2532
92,220 93,190 94,10 97,10
98,40 99,20 101,40 102,270
103,841 104,490 105,90 113,10
115,911 116,220 117,961 119,4654
120,430 121,20 125,10 127,10
128,10 132,50 139,40 141,10
147,9999 148,1041 149,70 153,50
154,10 155,10 164,10 182,220
183,30 184,70
##END=
