##TITLE=Benzene, 1,2,3,5-tetrachloro-4-methoxy-
##JCAMP-DX=4.24
##DATA TYPE=MASS SPECTRUM
##ORIGIN=NIST Mass Spectrometry Data Center
##OWNER=NIST Mass Spectrometry Data Center
Collection (C) 2014 copyright by the U.S. Secretary of Commerce
on behalf of the United States of America. All rights reserved.
##CAS REGISTRY NO=938-22-7
##$NIST MASS SPEC NO=333386
##MOLFORM=C7 H4 Cl4 O
##MW=244
##$NIST SOURCE=MSDC
##XUNITS=M/Z
##YUNITS=RELATIVE INTENSITY
##XFACTOR=1
##YFACTOR=1
##FIRSTX=14
##LASTX=252
##FIRSTY=40
##MAXX=252
##MINX=14
##MAXY=9999
##MINY=10
##NPOINTS=180
##PEAK TABLE=(XY..XY)
14,40 15,330 24,10 25,20
26,10 27,10 28,10 29,230
30,60 31,20 35,130 36,190
37,340 38,40 39,10 43,30
47,250 48,200 49,380 50,100
51,60 52,20 53,230 54,30
55,20 59,50 60,731 61,1822
62,190 63,70 64,10 65,270
66,170 67,10 71,550 72,450
73,1001 74,550 75,170 76,20
77,40 82,40 83,691 84,701
85,470 86,210 87,290 88,20
89,120 90,60 91,40 92,10
94,90 95,781 96,2562 97,470
98,871 99,110 100,30 101,40
102,10 103,10 106,571 107,1141
108,2152 109,1371 110,711 111,450
112,30 113,40 117,210 118,440
119,340 120,290 121,160 122,60
123,50 124,110 125,20 126,40
127,10 130,460 131,4134 132,510
133,2592 134,210 135,430 136,30
139,30 141,841 142,330 143,2082
144,591 145,1371 146,641 147,370
148,300 149,50 150,40 153,20
154,10 155,20 156,10 157,10
158,10 159,30 160,10 161,20
165,200 166,621 167,240 168,601
169,120 170,190 171,20 172,20
173,50 174,20 175,30 176,20
177,200 178,480 179,621 180,621
181,581 182,310 183,210 184,70
185,40 186,10 194,370 195,30
196,360 197,30 198,120 199,20
201,6146 202,370 203,7707 204,450
205,3723 206,200 207,811 208,60
209,200 210,30 211,120 212,10
213,260 214,40 215,290 216,50
217,140 218,30 219,30 220,10
221,10 225,10 226,10 227,10
229,7857 230,561 231,9999 232,701
233,4834 234,320 235,1031 236,70
237,90 238,10 241,20 244,6306
245,510 246,8057 247,651 248,3924
249,320 250,841 251,60 252,70
##END=
