##TITLE=1H-Purin-6-amine, N,N-dimethyl-
##JCAMP-DX=4.24
##DATA TYPE=MASS SPECTRUM
##ORIGIN=NIST Mass Spectrometry Data Center
##OWNER=NIST Mass Spectrometry Data Center
Collection (C) 2014 copyright by the U.S. Secretary of Commerce
on behalf of the United States of America. All rights reserved.
##CAS REGISTRY NO=938-55-6
##$NIST MASS SPEC NO=334033
##MOLFORM=C7 H9 N5
##MW=163
##$NIST SOURCE=MSDC
##XUNITS=M/Z
##YUNITS=RELATIVE INTENSITY
##XFACTOR=1
##YFACTOR=1
##FIRSTX=14
##LASTX=165
##FIRSTY=20
##MAXX=165
##MINX=14
##MAXY=9999
##MINY=10
##NPOINTS=80
##PEAK TABLE=(XY..XY)
14,20 15,270 18,30 26,30
27,120 28,1121 29,80 30,871
31,20 37,10 38,310 39,300
40,500 41,360 42,1211 43,270
44,2072 45,60 46,20 50,20
51,110 52,250 53,671 54,200
55,140 56,70 57,50 60,10
63,10 64,180 65,901 66,1451
67,1031 68,130 69,60 70,30
71,50 76,20 77,140 78,70
79,230 80,190 81,80 82,50
83,30 90,10 91,100 92,1111
93,2783 94,881 95,50 104,10
105,40 106,220 107,310 108,100
109,20 117,10 118,60 119,2572
120,1341 121,1491 122,110 132,10
133,340 134,9999 135,1061 136,80
137,10 145,20 146,50 148,3964
149,340 150,10 160,20 161,10
162,300 163,3883 164,380 165,20
##END=
