##TITLE=Benzoic acid 2-bromoethyl ester
##JCAMP-DX=4.24
##DATA TYPE=MASS SPECTRUM
##ORIGIN=Chuck Anderson, Aldrich Chemical Co.
##OWNER=NIST Mass Spectrometry Data Center
Collection (C) 2014 copyright by the U.S. Secretary of Commerce
on behalf of the United States of America. All rights reserved.
##CAS REGISTRY NO=939-54-8
##$NIST MASS SPEC NO=117918
##MOLFORM=C9 H9 Br O2
##MW=228
##$NIST SOURCE=MSDC
##XUNITS=M/Z
##YUNITS=RELATIVE INTENSITY
##XFACTOR=1
##YFACTOR=1
##FIRSTX=14
##LASTX=230
##FIRSTY=18
##MAXX=230
##MINX=14
##MAXY=9999
##MINY=4
##NPOINTS=46
##PEAK TABLE=(XY..XY)
14,18 15,72 18,4 26,110
27,887 28,132 29,72 30,8
36,21 37,7 38,66 39,129
42,6 43,33 44,28 49,21
50,439 51,1539 52,75 53,19
65,42 73,33 74,177 75,93
76,252 77,4419 78,257 79,63
91,16 93,71 94,29 95,50
103,19 104,16 105,9999 106,683
107,117 109,217 122,7752 123,412
124,24 135,24 149,1231 150,92
228,38 230,37
##END=
