##TITLE=Pyridine, 4-phenyl-
##JCAMP-DX=4.24
##DATA TYPE=MASS SPECTRUM
##ORIGIN=NIST Mass Spectrometry Data Center, 1990.
##OWNER=NIST Mass Spectrometry Data Center
Collection (C) 2014 copyright by the U.S. Secretary of Commerce
on behalf of the United States of America. All rights reserved.
##CAS REGISTRY NO=939-23-1
##$NIST MASS SPEC NO=118634
##MOLFORM=C11 H9 N
##MW=155
##$NIST SOURCE=MSDC
##XUNITS=M/Z
##YUNITS=RELATIVE INTENSITY
##XFACTOR=1
##YFACTOR=1
##FIRSTX=17
##LASTX=157
##FIRSTY=10
##MAXX=157
##MINX=17
##MAXY=9999
##MINY=8
##NPOINTS=69
##PEAK TABLE=(XY..XY)
17,10 18,37 25,18 26,169
27,158 28,150 37,72 38,162
39,382 40,38 41,25 49,94
50,989 51,1714 52,458 53,81
56,8 57,18 61,148 62,354
63,847 64,722 65,119 73,89
74,565 75,610 76,764 77,965
78,336 79,45 84,11 85,50
86,119 87,172 88,89 89,261
90,30 91,43 97,30 98,141
99,125 100,124 101,416 102,1220
103,168 104,33 110,13 111,13
112,10 113,61 114,10 115,1191
116,201 117,18 122,10 123,14
125,113 126,725 127,1674 128,1602
129,340 130,31 140,587 141,71
152,119 154,4062 155,9999 156,1151
157,70
##END=
