##TITLE=Naphthalene, 2-(bromomethyl)-
##JCAMP-DX=4.24
##DATA TYPE=MASS SPECTRUM
##ORIGIN=Chuck Anderson, Aldrich Chemical Co.
##OWNER=NIST Mass Spectrometry Data Center
Collection (C) 2014 copyright by the U.S. Secretary of Commerce
on behalf of the United States of America. All rights reserved.
##CAS REGISTRY NO=939-26-4
##$NIST MASS SPEC NO=107334
##MOLFORM=C11 H9 Br
##MW=220
##$NIST SOURCE=MSDC
##XUNITS=M/Z
##YUNITS=RELATIVE INTENSITY
##XFACTOR=1
##YFACTOR=1
##FIRSTX=36
##LASTX=223
##FIRSTY=35
##MAXX=223
##MINX=36
##MAXY=9999
##MINY=33
##NPOINTS=39
##PEAK TABLE=(XY..XY)
36,35 38,70 39,214 50,127
51,132 58,515 62,136 63,320
64,33 65,81 69,425 70,773
74,135 75,95 76,53 86,111
87,156 88,99 89,272 91,72
98,45 102,43 110,102 111,117
113,185 114,132 115,1907 116,161
137,36 138,48 139,1520 140,302
141,9999 142,1262 143,71 220,521
221,48 222,528 223,45
##END=
