##TITLE=Ethyl benzoylacetate
##JCAMP-DX=4.24
##DATA TYPE=MASS SPECTRUM
##ORIGIN=Japan AIST/NIMC Database- Spectrum MS-IW-5623
##OWNER=NIST Mass Spectrometry Data Center
Collection (C) 2014 copyright by the U.S. Secretary of Commerce
on behalf of the United States of America. All rights reserved.
##CAS REGISTRY NO=94-02-0
##$NIST MASS SPEC NO=229105
##MOLFORM=C11 H12 O3
##MW=192
##$NIST SOURCE=MSDC
##XUNITS=M/Z
##YUNITS=RELATIVE INTENSITY
##XFACTOR=1
##YFACTOR=1
##FIRSTX=15
##LASTX=194
##FIRSTY=20
##MAXX=194
##MINX=15
##MAXY=9999
##MINY=10
##NPOINTS=61
##PEAK TABLE=(XY..XY)
15,20 26,10 27,129 28,80
29,209 30,10 31,139 38,10
39,80 41,20 42,40 43,109
44,30 45,99 46,30 50,159
51,569 52,40 53,10 59,10
62,20 63,50 64,10 65,99
69,289 70,10 74,50 75,50
76,109 77,2339 78,249 79,30
85,10 87,50 89,50 90,20
91,159 92,10 102,20 103,20
104,30 105,9999 106,799 107,50
115,10 118,10 120,189 121,40
122,20 139,30 141,10 146,389
147,389 148,40 161,10 162,10
163,10 164,20 192,699 193,90
194,10
##END=
