##TITLE=2-Propenoic acid, 2-cyano-3-ethoxy-, ethyl ester
##JCAMP-DX=4.24
##DATA TYPE=MASS SPECTRUM
##ORIGIN=Japan AIST/NIMC Database- Spectrum MS-IW-5627
##OWNER=NIST Mass Spectrometry Data Center
Collection (C) 2014 copyright by the U.S. Secretary of Commerce
on behalf of the United States of America. All rights reserved.
##CAS REGISTRY NO=94-05-3
##$NIST MASS SPEC NO=230010
##MOLFORM=C8 H11 N O3
##MW=169
##$NIST SOURCE=MSDC
##XUNITS=M/Z
##YUNITS=RELATIVE INTENSITY
##XFACTOR=1
##YFACTOR=1
##FIRSTX=13
##LASTX=171
##FIRSTY=10
##MAXX=171
##MINX=13
##MAXY=9999
##MINY=10
##NPOINTS=103
##PEAK TABLE=(XY..XY)
13,10 14,50 15,209 16,10
17,30 18,109 25,30 26,289
27,2429 28,639 29,6839 30,289
31,609 37,10 38,99 39,279
40,949 41,569 42,489 43,669
44,349 45,1299 46,109 47,419
50,10 51,209 52,439 53,349
54,199 55,109 56,80 57,60
58,20 59,40 60,40 61,20
64,10 66,99 67,3009 68,5319
69,2229 70,249 71,169 72,219
73,119 74,20 75,319 76,10
78,10 79,30 80,109 81,40
82,70 83,40 84,50 85,9379
86,489 87,129 88,70 89,30
94,119 95,3109 96,6609 97,1169
98,429 99,129 100,10 101,40
103,559 104,30 105,20 106,10
108,349 109,40 110,10 111,10
112,789 113,9999 114,689 115,299
116,30 117,30 122,70 123,329
124,3039 125,429 126,1249 127,109
128,20 129,20 133,80 136,20
140,229 141,2489 142,269 143,80
144,10 154,119 155,10 168,10
169,3729 170,399 171,20
##END=
