##TITLE=Acetic acid, (2,4-dichlorophenoxy)-, 1-methylethyl ester
##JCAMP-DX=4.24
##DATA TYPE=MASS SPECTRUM
##ORIGIN=J. SHAW, BORRISTON RESEARCH, ROCKVILLE, MD, USA
##OWNER=NIST Mass Spectrometry Data Center
Collection (C) 2014 copyright by the U.S. Secretary of Commerce
on behalf of the United States of America. All rights reserved.
##CAS REGISTRY NO=94-11-1
##$NIST MASS SPEC NO=60186
##MOLFORM=C11 H12 Cl2 O3
##MW=262
##$NIST SOURCE=MSDC
##XUNITS=M/Z
##YUNITS=RELATIVE INTENSITY
##XFACTOR=1
##YFACTOR=1
##FIRSTX=12
##LASTX=267
##FIRSTY=10
##MAXX=267
##MINX=12
##MAXY=9999
##MINY=10
##NPOINTS=164
##PEAK TABLE=(XY..XY)
12,10 13,20 14,270 15,1011
16,230 26,180 27,1921 28,390
29,870 30,70 31,210 32,30
35,30 36,80 37,110 38,170
39,710 41,2452 42,1061 43,9999
44,430 45,210 47,20 49,70
50,260 51,150 52,10 53,50
55,90 56,50 57,350 58,90
59,110 60,40 61,130 62,260
63,740 64,40 65,50 69,50
70,10 71,60 72,100 73,420
74,580 75,810 76,70 77,120
78,10 79,20 81,10 83,120
84,150 85,180 86,50 87,120
89,30 91,30 92,10 93,20
94,10 95,10 96,20 97,160
98,210 99,200 100,80 101,60
105,10 107,100 109,1141 110,330
111,1171 112,270 113,290 114,70
115,70 117,20 119,20 120,10
121,20 123,10 125,80 126,130
127,160 128,260 129,70 130,60
131,10 133,520 135,390 136,20
137,60 138,10 139,80 140,50
141,90 142,50 143,90 145,1221
147,1171 148,110 149,370 150,70
151,50 153,10 155,60 156,20
157,20 159,20 161,390 162,2102
163,760 164,1261 165,340 166,200
167,90 169,100 171,10 173,170
175,4624 177,3473 178,370 179,440
180,60 181,10 183,20 185,1261
187,500 188,20 189,10 191,110
193,80 195,10 196,40 197,10
198,10 199,20 201,200 202,170
204,20 205,20 209,20 211,40
217,10 219,400 220,710 221,280
222,430 223,70 224,60 227,60
228,10 229,20 233,10 235,10
236,20 237,10 238,20 262,1611
264,1131 265,110 266,130 267,10
##END=
