##TITLE=Isobutamben
##JCAMP-DX=4.24
##DATA TYPE=MASS SPECTRUM
##ORIGIN=NIST Mass Spectrometry Data Center, 2010
##OWNER=NIST Mass Spectrometry Data Center
Collection (C) 2014 copyright by the U.S. Secretary of Commerce
on behalf of the United States of America. All rights reserved.
##CAS REGISTRY NO=94-14-4
##$NIST MASS SPEC NO=375465
##MOLFORM=C11 H15 N O2
##MW=193
##$NIST SOURCE=MSDC
##XUNITS=M/Z
##YUNITS=RELATIVE INTENSITY
##XFACTOR=1
##YFACTOR=1
##FIRSTX=15
##LASTX=195
##FIRSTY=30
##MAXX=195
##MINX=15
##MAXY=9999
##MINY=10
##NPOINTS=76
##PEAK TABLE=(XY..XY)
15,30 26,20 27,210 29,290
30,40 31,20 37,20 38,90
39,641 40,110 41,621 42,140
43,190 44,110 45,20 46,30
50,50 51,60 52,130 53,70
54,40 55,60 56,70 57,80
58,20 60,30 61,10 62,60
63,260 64,270 65,1742 66,220
67,20 68,10 69,10 72,10
73,90 74,20 75,30 76,20
77,20 78,10 79,10 80,20
81,30 88,10 89,10 90,60
91,250 92,1822 93,240 94,40
100,20 106,20 108,110 109,30
118,20 119,130 120,9999 121,841
122,60 127,10 132,10 135,10
136,80 137,7066 138,601 139,50
142,10 150,60 151,10 176,50
192,10 193,1001 194,130 195,10
##END=
