##TITLE=1-Propanol, 3-(diethylamino)-2,2-dimethyl-, p-aminobenzoate (ester)
##JCAMP-DX=4.24
##DATA TYPE=MASS SPECTRUM
##ORIGIN=Finnigan MAT: Toxicological Library (LIBR-TX)
##OWNER=NIST Mass Spectrometry Data Center
Collection (C) 2014 copyright by the U.S. Secretary of Commerce
on behalf of the United States of America. All rights reserved.
##CAS REGISTRY NO=94-15-5
##$NIST MASS SPEC NO=120653
##MOLFORM=C16 H26 N2 O2
##MW=278
##$NIST SOURCE=MSDC
##XUNITS=M/Z
##YUNITS=RELATIVE INTENSITY
##XFACTOR=1
##YFACTOR=1
##FIRSTX=41
##LASTX=120
##FIRSTY=82
##MAXX=120
##MINX=41
##MAXY=9999
##MINY=80
##NPOINTS=10
##PEAK TABLE=(XY..XY)
41,82 42,80 56,212 58,295
65,98 84,204 86,9999 87,411
92,207 120,705
##END=
