##TITLE=Tetracaine
##JCAMP-DX=4.24
##DATA TYPE=MASS SPECTRUM
##ORIGIN=Tox21 Consortium/NIST Mass Spectrometry Data Center, 2012
##OWNER=NIST Mass Spectrometry Data Center
Collection (C) 2014 copyright by the U.S. Secretary of Commerce
on behalf of the United States of America. All rights reserved.
##CAS REGISTRY NO=94-24-6
##$NIST MASS SPEC NO=408051
##MOLFORM=C15 H24 N2 O2
##MW=264
##$NIST SOURCE=MSDC
##XUNITS=M/Z
##YUNITS=RELATIVE INTENSITY
##XFACTOR=1
##YFACTOR=1
##FIRSTX=15
##LASTX=263
##FIRSTY=20
##MAXX=263
##MINX=15
##MAXY=9999
##MINY=10
##NPOINTS=99
##PEAK TABLE=(XY..XY)
15,20 26,10 27,80 28,100
29,150 30,150 38,10 39,70
40,10 41,160 42,430 43,220
44,140 45,20 50,60 51,70
52,30 53,20 54,30 55,60
56,350 57,120 58,9999 59,380
60,10 62,10 63,60 64,70
65,270 66,40 68,10 69,10
70,160 71,7747 72,741 73,30
74,20 75,40 76,210 77,220
78,170 79,100 80,10 81,10
86,30 88,20 89,30 90,60
91,180 92,601 93,70 94,20
102,20 103,40 104,400 105,1231
106,250 107,20 110,30 114,10
115,10 116,10 117,90 118,140
119,110 120,200 121,30 130,40
131,20 132,160 133,60 134,20
137,10 144,10 146,20 147,40
148,70 150,1171 151,120 152,10
160,10 162,20 163,10 164,30
165,10 174,20 176,1431 177,190
178,20 191,10 192,40 193,460
194,60 195,10 220,30 221,70
222,10 233,10 263,10
##END=
