##TITLE=Triethylene glycol di(2-ethylhexoate)
##JCAMP-DX=4.24
##DATA TYPE=MASS SPECTRUM
##ORIGIN=H. Fales, LC, NHLBI, NIH, Bethesda, MD 20892
##OWNER=NIST Mass Spectrometry Data Center
Collection (C) 2014 copyright by the U.S. Secretary of Commerce
on behalf of the United States of America. All rights reserved.
##CAS REGISTRY NO=94-28-0
##$NIST MASS SPEC NO=132401
##MOLFORM=C22 H42 O6
##MW=402
##$NIST SOURCE=MSDC
##XUNITS=M/Z
##YUNITS=RELATIVE INTENSITY
##XFACTOR=1
##YFACTOR=1
##FIRSTX=41
##LASTX=403
##FIRSTY=2500
##MAXX=403
##MINX=41
##MAXY=9999
##MINY=4
##NPOINTS=159
##PEAK TABLE=(XY..XY)
41,2500 43,4365 44,672 45,4235
47,110 49,402 51,149 53,196
55,2925 57,9999 58,642 59,416
60,64 61,44 63,24 65,44
67,136 69,1059 70,2334 71,960
73,2294 74,19 75,202 77,60
78,19 79,41 80,23 81,100
83,472 84,266 86,623 87,521
88,1505 89,1478 90,60 91,22
93,29 95,26 96,436 97,73
98,1822 99,3488 101,778 102,316
103,402 104,13 105,63 107,67
108,26 109,30 110,14 111,82
113,1099 114,1930 115,742 116,315
117,158 118,67 119,83 121,72
123,17 124,326 126,291 127,6037
128,413 129,198 130,21 131,113
132,344 133,98 135,169 136,4
137,18 138,5 139,27 141,467
142,585 143,1181 145,736 146,568
147,39 149,39 151,62 152,170
153,73 155,131 157,59 158,567
159,55 160,277 161,15 162,17
163,24 168,135 169,394 170,3260
171,8872 172,907 174,913 176,238
177,24 183,9 184,85 185,75
186,57 187,53 188,38 189,309
190,87 191,4 196,38 198,15
199,8 200,78 201,226 202,124
204,173 205,16 211,9 213,7
214,230 215,205 216,34 218,34
220,12 221,5 228,23 229,30
230,132 231,21 233,57 240,11
241,11 243,58 245,6 246,205
247,32 248,8 249,4 256,8
258,307 259,55 260,5 261,9
277,54 279,5 285,5 286,9
290,18 302,21 303,11 318,4
346,73 347,19 359,4 372,10
374,19 402,77 403,16
##END=
