##TITLE=Butamben
##JCAMP-DX=4.24
##DATA TYPE=MASS SPECTRUM
##ORIGIN=Japan AIST/NIMC Database- Spectrum MS-NW-2934
##OWNER=NIST Mass Spectrometry Data Center
Collection (C) 2014 copyright by the U.S. Secretary of Commerce
on behalf of the United States of America. All rights reserved.
##CAS REGISTRY NO=94-25-7
##$NIST MASS SPEC NO=231530
##MOLFORM=C11 H15 N O2
##MW=193
##$NIST SOURCE=MSDC
##XUNITS=M/Z
##YUNITS=RELATIVE INTENSITY
##XFACTOR=1
##YFACTOR=1
##FIRSTX=15
##LASTX=195
##FIRSTY=40
##MAXX=195
##MINX=15
##MAXY=9999
##MINY=10
##NPOINTS=74
##PEAK TABLE=(XY..XY)
15,40 17,10 18,50 26,40
27,379 28,139 29,549 30,10
31,40 32,20 37,20 38,99
39,649 40,60 41,539 42,80
43,60 44,30 45,10 46,40
50,40 51,50 52,109 53,50
54,40 55,99 56,139 57,50
60,30 61,10 62,50 63,189
64,219 65,1749 66,219 67,10
74,10 75,10 76,10 77,30
78,10 80,30 81,30 89,10
90,50 91,239 92,1939 93,339
94,70 97,10 105,10 106,20
108,119 109,30 118,20 119,99
120,9999 121,999 122,70 135,10
136,70 137,9649 138,909 139,80
148,10 150,109 151,30 164,20
176,60 177,10 192,30 193,3239
194,419 195,30
##END=
