##TITLE=1,2-Ethanediol, monobenzoate
##JCAMP-DX=4.24
##DATA TYPE=MASS SPECTRUM
##ORIGIN=J.Little, Eastman Chem.Comp.
##OWNER=NIST Mass Spectrometry Data Center
Collection (C) 2014 copyright by the U.S. Secretary of Commerce
on behalf of the United States of America. All rights reserved.
##CAS REGISTRY NO=94-33-7
##$NIST MASS SPEC NO=280948
##MOLFORM=C9 H10 O3
##MW=166
##$NIST SOURCE=MSDC
##XUNITS=M/Z
##YUNITS=RELATIVE INTENSITY
##XFACTOR=1
##YFACTOR=1
##FIRSTX=43
##LASTX=167
##FIRSTY=561
##MAXX=167
##MINX=43
##MAXY=9999
##MINY=10
##NPOINTS=33
##PEAK TABLE=(XY..XY)
43,561 44,801 45,651 50,1541
51,3133 52,470 74,611 75,520
76,931 77,6356 78,1251 79,1141
91,320 92,370 93,70 103,120
104,220 105,9999 106,2072 107,190
118,70 121,60 122,981 123,6095
124,1151 125,120 135,540 136,370
137,30 148,120 149,110 150,10
167,30
##END=
