##TITLE=1,2-Ethanediol, dibenzoate
##JCAMP-DX=4.24
##DATA TYPE=MASS SPECTRUM
##ORIGIN=Japan AIST/NIMC Database- Spectrum MS-NW-4115
##OWNER=NIST Mass Spectrometry Data Center
Collection (C) 2014 copyright by the U.S. Secretary of Commerce
on behalf of the United States of America. All rights reserved.
##CAS REGISTRY NO=94-49-5
##$NIST MASS SPEC NO=232913
##MOLFORM=C16 H14 O4
##MW=270
##$NIST SOURCE=MSDC
##XUNITS=M/Z
##YUNITS=RELATIVE INTENSITY
##XFACTOR=1
##YFACTOR=1
##FIRSTX=18
##LASTX=270
##FIRSTY=20
##MAXX=270
##MINX=18
##MAXY=9999
##MINY=10
##NPOINTS=31
##PEAK TABLE=(XY..XY)
18,20 27,30 28,30 29,10
38,10 39,30 50,139 51,529
52,30 74,30 75,40 76,99
77,1959 78,139 79,10 94,10
104,30 105,9999 106,769 107,40
118,30 122,30 135,10 148,189
149,99 150,10 181,10 227,799
228,119 229,10 270,50
##END=
