##TITLE=Nicotinic acid benzyl ester
##JCAMP-DX=4.24
##DATA TYPE=MASS SPECTRUM
##ORIGIN=RADIAN CORP
##OWNER=NIST Mass Spectrometry Data Center
Collection (C) 2014 copyright by the U.S. Secretary of Commerce
on behalf of the United States of America. All rights reserved.
##CAS REGISTRY NO=94-44-0
##$NIST MASS SPEC NO=69668
##MOLFORM=C13 H11 N O2
##MW=213
##$NIST SOURCE=MSDC
##XUNITS=M/Z
##YUNITS=RELATIVE INTENSITY
##XFACTOR=1
##YFACTOR=1
##FIRSTX=27
##LASTX=215
##FIRSTY=70
##MAXX=215
##MINX=27
##MAXY=9999
##MINY=10
##NPOINTS=42
##PEAK TABLE=(XY..XY)
27,70 38,40 39,420 41,40
50,430 51,1610 52,320 53,100
62,70 63,310 64,90 65,1620
66,110 74,20 75,20 76,70
77,820 78,2790 79,1610 80,110
89,930 90,1450 91,8830 92,670
93,20 105,280 106,9999 107,1230
108,190 126,60 127,10 141,20
166,100 167,130 168,410 169,30
194,30 195,50 212,1620 213,4160
214,590 215,50
##END=
