##TITLE=Safrole
##JCAMP-DX=4.24
##DATA TYPE=MASS SPECTRUM
##ORIGIN=Japan AIST/NIMC Database- Spectrum MS-NW- 809
##OWNER=NIST Mass Spectrometry Data Center
Collection (C) 2014 copyright by the U.S. Secretary of Commerce
on behalf of the United States of America. All rights reserved.
##CAS REGISTRY NO=94-59-7
##$NIST MASS SPEC NO=229569
##MOLFORM=C10 H10 O2
##MW=162
##$NIST SOURCE=MSDC
##XUNITS=M/Z
##YUNITS=RELATIVE INTENSITY
##XFACTOR=1
##YFACTOR=1
##FIRSTX=18
##LASTX=164
##FIRSTY=10
##MAXX=164
##MINX=18
##MAXY=9999
##MINY=10
##NPOINTS=97
##PEAK TABLE=(XY..XY)
18,10 26,50 27,259 28,139
30,20 31,10 32,10 37,70
38,209 39,809 40,60 41,159
44,10 45,10 49,40 50,679
51,1909 52,459 53,249 54,30
55,90 56,50 57,20 61,99
62,349 63,799 64,169 65,409
66,109 67,99 68,10 69,40
70,10 71,10 72,20 73,70
74,259 75,289 76,439 77,2709
78,1559 79,529 80,139 81,129
82,10 83,20 84,20 85,10
86,10 87,40 88,30 89,199
90,50 91,629 92,149 93,119
94,30 95,20 98,10 99,10
100,10 101,70 102,519 103,2709
104,3899 105,1019 106,159 107,70
108,30 109,10 114,10 115,159
116,50 117,50 118,20 119,289
120,70 121,129 122,60 129,20
130,70 131,3479 132,1289 133,309
134,159 135,3079 136,279 137,20
145,30 147,99 148,20 159,50
160,60 161,2629 162,9999 163,1109
164,99
##END=
