##TITLE=Cyclohexanone, 2-(2-propenyl)-
##JCAMP-DX=4.24
##DATA TYPE=MASS SPECTRUM
##ORIGIN=NIST Mass Spectrometry Data Center, 1994
##OWNER=NIST Mass Spectrometry Data Center
Collection (C) 2014 copyright by the U.S. Secretary of Commerce
on behalf of the United States of America. All rights reserved.
##CAS REGISTRY NO=94-66-6
##$NIST MASS SPEC NO=135341
##MOLFORM=C9 H14 O
##MW=138
##$NIST SOURCE=MSDC
##XUNITS=M/Z
##YUNITS=RELATIVE INTENSITY
##XFACTOR=1
##YFACTOR=1
##FIRSTX=12
##LASTX=139
##FIRSTY=32
##MAXX=139
##MINX=12
##MAXY=9999
##MINY=12
##NPOINTS=75
##PEAK TABLE=(XY..XY)
12,32 13,26 14,125 15,722
16,40 17,23 18,25 24,18
26,946 27,6562 28,2017 29,1911
30,54 31,12 37,169 38,747
39,8827 40,1655 41,9999 42,2731
43,1078 44,67 45,23 50,518
51,1064 52,665 53,2709 54,4180
55,4341 56,633 57,343 58,19
59,30 61,28 62,97 63,271
64,19 65,941 66,831 67,7012
68,2199 69,1383 70,503 71,130
74,14 75,34 77,889 79,5276
80,1157 81,3188 82,939 83,844
84,600 85,43 91,538 92,344
94,4157 95,3801 96,783 97,1132
98,183 105,247 106,30 107,95
108,30 109,2799 110,996 111,114
119,55 120,83 123,1185 124,87
137,335 138,1733 139,166
##END=
