##TITLE=2,6-Pyridinediamine, 3-(phenylazo)-
##JCAMP-DX=4.24
##DATA TYPE=MASS SPECTRUM
##ORIGIN=NIST Mass Spectrometry Data Center, 1998.
##OWNER=NIST Mass Spectrometry Data Center
Collection (C) 2014 copyright by the U.S. Secretary of Commerce
on behalf of the United States of America. All rights reserved.
##CAS REGISTRY NO=94-78-0
##$NIST MASS SPEC NO=290949
##MOLFORM=C11 H11 N5
##MW=213
##$NIST SOURCE=MSDC
##XUNITS=M/Z
##YUNITS=RELATIVE INTENSITY
##XFACTOR=1
##YFACTOR=1
##FIRSTX=26
##LASTX=215
##FIRSTY=40
##MAXX=215
##MINX=26
##MAXY=9999
##MINY=10
##NPOINTS=117
##PEAK TABLE=(XY..XY)
26,40 27,140 28,410 29,70
30,60 37,110 38,400 39,1000
40,160 41,170 42,160 43,1330
44,60 45,10 46,10 49,20
50,380 51,1910 52,1300 53,1140
54,4680 55,380 56,20 61,30
62,100 63,440 64,690 65,1030
66,1100 67,140 68,140 69,80
70,10 73,10 74,100 75,80
76,100 77,3900 78,370 79,700
80,680 81,8289 82,610 83,30
87,10 88,20 89,60 90,90
91,250 92,640 93,280 94,30
95,20 96,10 97,10 101,10
102,30 103,40 104,70 105,100
107,280 108,9999 109,720 110,20
113,20 114,90 115,230 116,80
117,50 118,30 119,10 121,50
122,50 123,10 124,40 127,10
128,30 129,20 130,100 131,20
132,10 133,10 134,30 136,2790
137,200 138,10 139,10 140,200
141,90 142,50 143,70 144,30
145,10 146,10 155,20 156,30
157,90 158,60 159,20 166,10
167,160 168,110 169,30 170,60
171,10 172,10 182,10 183,40
184,860 185,320 186,30 195,20
211,10 212,100 213,8039 214,1130
215,70
##END=
