##TITLE=Benzenamine, 2-ethoxy-
##JCAMP-DX=4.24
##DATA TYPE=MASS SPECTRUM
##ORIGIN=NIST Mass Spectrometry Data Center, 1998.
##OWNER=NIST Mass Spectrometry Data Center
Collection (C) 2014 copyright by the U.S. Secretary of Commerce
on behalf of the United States of America. All rights reserved.
##CAS REGISTRY NO=94-70-2
##$NIST MASS SPEC NO=290843
##MOLFORM=C8 H11 N O
##MW=137
##$NIST SOURCE=MSDC
##XUNITS=M/Z
##YUNITS=RELATIVE INTENSITY
##XFACTOR=1
##YFACTOR=1
##FIRSTX=14
##LASTX=139
##FIRSTY=10
##MAXX=139
##MINX=14
##MAXY=9999
##MINY=10
##NPOINTS=74
##PEAK TABLE=(XY..XY)
14,10 15,20 25,10 26,140
27,660 28,280 29,370 30,50
31,10 37,50 38,180 39,650
40,100 41,240 42,110 43,60
44,20 45,10 47,20 49,40
50,340 51,690 52,1420 53,2360
54,530 55,80 56,10 61,50
62,120 63,440 64,350 65,1110
66,240 67,40 68,30 69,10
70,10 73,10 74,30 75,50
76,90 77,100 78,280 79,270
80,9999 81,880 82,70 83,10
88,10 89,10 90,30 91,250
92,530 93,270 94,190 95,50
104,10 106,30 108,9739 109,6479
110,450 111,30 117,10 118,20
119,30 120,70 121,10 122,190
123,20 134,10 135,10 137,7849
138,750 139,50
##END=
