##TITLE=Butanoic acid, 4-(2,4-dichlorophenoxy)-
##JCAMP-DX=4.24
##DATA TYPE=MASS SPECTRUM
##ORIGIN=Japan AIST/NIMC Database- Spectrum MS-NW-8477
##OWNER=NIST Mass Spectrometry Data Center
Collection (C) 2014 copyright by the U.S. Secretary of Commerce
on behalf of the United States of America. All rights reserved.
##CAS REGISTRY NO=94-82-6
##$NIST MASS SPEC NO=238190
##MOLFORM=C10 H10 Cl2 O3
##MW=248
##$NIST SOURCE=MSDC
##XUNITS=M/Z
##YUNITS=RELATIVE INTENSITY
##XFACTOR=1
##YFACTOR=1
##FIRSTX=14
##LASTX=252
##FIRSTY=10
##MAXX=252
##MINX=14
##MAXY=9999
##MINY=10
##NPOINTS=123
##PEAK TABLE=(XY..XY)
14,10 15,50 18,20 26,40
27,679 28,149 29,219 31,209
36,40 37,60 38,90 39,509
40,90 41,1619 42,359 43,2439
44,70 45,2069 46,40 47,20
49,50 50,109 51,60 53,70
55,109 56,20 57,60 58,10
59,50 60,40 61,90 62,229
63,1049 64,80 65,30 66,10
68,50 69,519 70,20 71,10
72,80 73,419 74,229 75,349
76,30 77,40 81,10 83,80
84,50 85,189 86,50 87,3519
88,149 89,30 90,10 91,60
92,10 96,10 97,119 98,729
99,379 100,249 101,119 102,20
103,20 107,60 108,10 109,329
110,80 111,219 112,50 113,40
114,10 115,10 116,10 119,10
125,40 126,339 127,90 128,279
129,30 130,50 131,10 132,10
133,349 134,40 135,219 136,20
137,40 139,10 145,219 146,20
147,159 148,10 149,40 153,10
154,10 159,20 161,109 162,9999
163,729 164,6349 165,439 166,1039
167,70 168,10 175,90 176,10
177,50 178,10 179,10 185,10
188,30 189,20 190,20 191,10
231,50 233,30 248,589 249,60
250,379 251,40 252,70
##END=
