##TITLE=2,5-Diethoxyaniline
##JCAMP-DX=4.24
##DATA TYPE=MASS SPECTRUM
##ORIGIN=Japan AIST/NIMC Database- Spectrum MS-NW-4296
##OWNER=NIST Mass Spectrometry Data Center
Collection (C) 2014 copyright by the U.S. Secretary of Commerce
on behalf of the United States of America. All rights reserved.
##CAS REGISTRY NO=94-85-9
##$NIST MASS SPEC NO=232331
##MOLFORM=C10 H15 N O2
##MW=181
##$NIST SOURCE=MSDC
##XUNITS=M/Z
##YUNITS=RELATIVE INTENSITY
##XFACTOR=1
##YFACTOR=1
##FIRSTX=14
##LASTX=183
##FIRSTY=10
##MAXX=183
##MINX=14
##MAXY=9999
##MINY=10
##NPOINTS=81
##PEAK TABLE=(XY..XY)
14,10 15,60 18,30 26,149
27,659 28,259 29,949 30,60
32,10 37,10 38,50 39,199
40,99 41,529 42,249 43,80
44,40 45,10 50,70 51,259
52,409 53,289 54,209 55,149
56,10 62,20 63,60 64,20
65,90 66,60 67,199 68,379
69,109 70,60 76,30 77,30
78,179 79,299 80,189 81,90
82,129 83,10 90,10 91,40
92,30 93,40 94,60 95,239
96,2579 97,229 98,10 101,10
106,30 107,219 108,189 109,80
110,50 111,10 122,40 123,40
124,9999 125,1309 126,109 127,10
128,10 134,50 135,50 136,149
137,50 138,50 150,30 151,20
152,6789 153,769 154,60 164,10
166,20 180,119 181,4519 182,559
183,40
##END=
