##TITLE=Butanoic acid, 4-(4-chloro-2-methylphenoxy)-
##JCAMP-DX=4.24
##DATA TYPE=MASS SPECTRUM
##ORIGIN=Japan AIST/NIMC Database- Spectrum MS-NW-9973
##OWNER=NIST Mass Spectrometry Data Center
Collection (C) 2014 copyright by the U.S. Secretary of Commerce
on behalf of the United States of America. All rights reserved.
##CAS REGISTRY NO=94-81-5
##$NIST MASS SPEC NO=239107
##MOLFORM=C11 H13 Cl O3
##MW=228
##$NIST SOURCE=MSDC
##XUNITS=M/Z
##YUNITS=RELATIVE INTENSITY
##XFACTOR=1
##YFACTOR=1
##FIRSTX=15
##LASTX=231
##FIRSTY=20
##MAXX=231
##MINX=15
##MAXY=9999
##MINY=10
##NPOINTS=119
##PEAK TABLE=(XY..XY)
15,20 17,20 18,70 26,30
27,369 28,149 29,90 31,109
36,90 37,10 38,50 39,389
40,50 41,809 42,129 43,2139
44,109 45,1339 46,30 49,10
50,119 51,499 52,129 53,90
55,50 56,10 57,50 58,10
59,20 60,20 61,20 62,60
63,269 64,40 65,70 66,10
67,10 68,10 69,309 70,10
71,20 72,10 73,109 74,50
75,119 76,30 77,1389 78,269
79,339 80,30 81,10 83,10
84,10 85,129 86,30 87,2439
88,109 89,499 90,119 91,90
92,10 95,10 97,10 98,20
99,139 100,20 101,50 103,10
105,60 106,30 107,4039 108,549
109,50 111,20 112,60 113,129
114,30 115,50 117,10 119,10
123,10 124,80 125,289 126,60
127,119 128,40 129,10 130,10
131,10 133,40 137,10 139,20
140,10 141,339 142,9999 143,889
144,3269 145,259 146,20 147,10
153,20 154,20 155,99 156,10
157,30 162,349 163,20 164,219
165,20 166,30 167,10 168,20
194,30 211,40 213,10 228,1419
229,169 230,469 231,50
##END=
