##TITLE=Acetic acid, (2,4-dichlorophenoxy)-, butyl ester
##JCAMP-DX=4.24
##DATA TYPE=MASS SPECTRUM
##ORIGIN=VERIFIN - Methodology B3-1982
##OWNER=NIST Mass Spectrometry Data Center
Collection (C) 2014 copyright by the U.S. Secretary of Commerce
on behalf of the United States of America. All rights reserved.
##CAS REGISTRY NO=94-80-4
##$NIST MASS SPEC NO=226250
##MOLFORM=C12 H14 Cl2 O3
##MW=276
##$NIST SOURCE=MSDC
##XUNITS=M/Z
##YUNITS=RELATIVE INTENSITY
##XFACTOR=1
##YFACTOR=1
##FIRSTX=27
##LASTX=280
##FIRSTY=600
##MAXX=280
##MINX=27
##MAXY=9999
##MINY=100
##NPOINTS=47
##PEAK TABLE=(XY..XY)
27,600 28,800 29,3202 39,400
41,4203 42,500 43,1101 49,100
55,400 57,9999 58,200 63,600
73,600 74,600 75,1101 97,200
106,100 109,1301 111,2101 112,500
113,400 133,500 135,700 145,2902
146,200 147,2502 149,600 161,600
162,4904 163,500 164,3302 175,6205
176,1101 177,4003 178,1000 179,800
184,200 185,8407 186,700 187,2902
220,3002 222,2101 276,7506 277,900
278,5004 279,700 280,600
##END=
