##TITLE=Phenol, 2,2'-[1,2-ethanediylbis(nitrilomethylidyne)]bis-
##JCAMP-DX=4.24
##DATA TYPE=MASS SPECTRUM
##ORIGIN=Japan AIST/NIMC Database- Spectrum MS-NW-2773
##OWNER=NIST Mass Spectrometry Data Center
Collection (C) 2014 copyright by the U.S. Secretary of Commerce
on behalf of the United States of America. All rights reserved.
##CAS REGISTRY NO=94-93-9
##$NIST MASS SPEC NO=231701
##MOLFORM=C16 H16 N2 O2
##MW=268
##$NIST SOURCE=MSDC
##XUNITS=M/Z
##YUNITS=RELATIVE INTENSITY
##XFACTOR=1
##YFACTOR=1
##FIRSTX=14
##LASTX=271
##FIRSTY=10
##MAXX=271
##MINX=14
##MAXY=9999
##MINY=10
##NPOINTS=168
##PEAK TABLE=(XY..XY)
14,10 15,50 16,10 17,289
18,1409 20,20 26,70 27,399
28,1129 29,80 30,259 31,90
32,119 34,10 37,40 38,149
39,939 40,109 41,229 42,219
43,149 44,60 45,10 50,279
51,1349 52,389 53,219 54,239
55,139 56,30 57,40 58,10
61,20 62,80 63,319 64,239
65,889 66,489 67,159 68,30
69,60 70,20 71,50 73,10
74,60 75,119 76,209 77,2849
78,939 79,729 80,129 81,60
82,10 83,20 84,10 85,20
86,10 87,20 88,10 89,139
90,139 91,729 92,309 93,1149
94,209 95,139 96,20 97,20
98,10 99,10 100,10 101,20
102,449 103,359 104,329 105,559
106,529 107,8299 108,739 109,50
110,10 111,10 112,10 113,10
114,10 115,20 116,239 117,349
118,2319 119,799 120,4379 121,6019
122,6209 123,509 124,40 125,10
126,10 127,10 128,20 129,20
130,259 131,409 132,3569 133,1069
134,6479 135,779 136,249 137,40
138,10 139,10 141,10 143,10
144,10 145,30 146,1749 147,6469
148,5139 149,4469 150,459 151,40
152,10 158,30 159,10 160,30
161,339 162,99 163,20 164,20
165,10 168,10 169,30 173,20
174,30 175,109 176,30 177,10
181,20 182,10 183,10 184,10
196,30 197,139 198,30 209,10
210,40 211,20 212,20 221,10
222,10 223,10 224,10 225,60
226,70 227,10 238,20 239,20
250,10 251,149 252,30 253,30
264,10 265,20 266,40 267,209
268,9999 269,1849 270,209 271,20
##END=
