##TITLE=Propanoic acid, 2-phenoxy-
##JCAMP-DX=4.24
##DATA TYPE=MASS SPECTRUM
##ORIGIN=Japan AIST/NIMC Database- Spectrum MS-NW-3611
##OWNER=NIST Mass Spectrometry Data Center
Collection (C) 2014 copyright by the U.S. Secretary of Commerce
on behalf of the United States of America. All rights reserved.
##CAS REGISTRY NO=940-31-8
##$NIST MASS SPEC NO=231995
##MOLFORM=C9 H10 O3
##MW=166
##$NIST SOURCE=MSDC
##XUNITS=M/Z
##YUNITS=RELATIVE INTENSITY
##XFACTOR=1
##YFACTOR=1
##FIRSTX=13
##LASTX=168
##FIRSTY=10
##MAXX=168
##MINX=13
##MAXY=9999
##MINY=10
##NPOINTS=87
##PEAK TABLE=(XY..XY)
13,10 14,10 15,129 18,20
25,20 26,239 27,929 28,229
29,269 30,10 31,50 32,10
36,10 37,109 38,369 39,1719
40,399 41,50 42,40 43,519
44,70 45,599 46,30 47,20
49,30 50,509 51,1809 52,169
53,109 54,30 55,669 56,99
57,20 59,10 60,60 61,60
62,149 63,429 64,229 65,1589
66,1579 67,109 68,50 69,10
71,10 72,30 73,70 74,129
75,99 76,159 77,5259 78,599
79,109 80,10 81,20 82,10
88,10 89,20 90,10 91,499
92,139 93,1339 94,9999 95,769
96,50 102,10 103,299 104,40
105,50 106,10 107,60 108,10
109,10 110,20 118,10 119,40
120,149 121,9589 122,889 123,70
133,10 135,10 148,70 149,10
166,5039 167,539 168,60
##END=
