##TITLE=1,3,5,2,4,6-Triazatriphosphorine, 2,2,4,4,6,6-hexachloro-2,2,4,4,6,6-hexahydro-
##JCAMP-DX=4.24
##DATA TYPE=MASS SPECTRUM
##OWNER=NIST Mass Spectrometry Data Center
Collection (C) 2014 copyright by the U.S. Secretary of Commerce
on behalf of the United States of America. All rights reserved.
##CAS REGISTRY NO=940-71-6
##$NIST MASS SPEC NO=29522
##MOLFORM=Cl6 N3 P3
##MW=345
##$NIST SOURCE=MSDC
##XUNITS=M/Z
##YUNITS=RELATIVE INTENSITY
##XFACTOR=1
##YFACTOR=1
##FIRSTX=38
##LASTX=345
##FIRSTY=40
##MAXX=345
##MINX=38
##MAXY=9999
##MINY=20
##NPOINTS=23
##PEAK TABLE=(XY..XY)
38,40 73,1060 76,250 80,80
90,50 105,70 108,170 111,410
120,20 135,30 146,1180 160,70
170,110 181,190 191,20 195,140
205,40 216,270 240,790 261,120
275,210 310,9999 345,2600
##END=
