##TITLE=Benzonitrile, 2-fluoro-6-methoxy-
##JCAMP-DX=4.24
##DATA TYPE=MASS SPECTRUM
##ORIGIN=NIST Mass Spectrometry Data Center, 1994
##OWNER=NIST Mass Spectrometry Data Center
Collection (C) 2014 copyright by the U.S. Secretary of Commerce
on behalf of the United States of America. All rights reserved.
##CAS REGISTRY NO=94088-46-7
##$NIST MASS SPEC NO=136070
##MOLFORM=C8 H6 F N O
##MW=151
##$NIST SOURCE=MSDC
##XUNITS=M/Z
##YUNITS=RELATIVE INTENSITY
##XFACTOR=1
##YFACTOR=1
##FIRSTX=12
##LASTX=153
##FIRSTY=89
##MAXX=153
##MINX=12
##MAXY=9999
##MINY=13
##NPOINTS=104
##PEAK TABLE=(XY..XY)
12,89 13,166 14,570 15,3808
16,13 18,53 25,77 26,369
27,146 28,143 29,1075 30,159
31,2538 32,50 33,699 36,104
37,1110 38,1390 39,1504 40,85
41,95 42,101 43,18 44,158
45,177 46,107 48,66 49,375
50,1360 51,615 52,280 53,279
54,65 55,223 56,1159 57,3302
58,221 60,176 61,1274 62,1009
63,1194 64,614 65,95 66,126
67,60 68,883 69,738 70,583
71,147 72,80 73,358 74,709
75,1690 76,864 77,206 78,60
79,118 80,531 81,2622 82,3968
83,543 84,96 86,204 87,471
88,794 89,311 90,55 92,241
93,808 94,1804 95,1150 96,2899
97,445 98,63 99,465 100,1520
101,1237 102,995 103,222 104,119
105,112 106,465 107,55 108,9419
109,690 110,898 111,98 117,97
118,69 119,98 120,938 121,3680
122,9522 123,7069 124,913 125,53
130,40 133,29 135,143 136,368
150,3560 151,9999 152,940 153,74
##END=
