##TITLE=N-Phenylmaleimide
##JCAMP-DX=4.24
##DATA TYPE=MASS SPECTRUM
##ORIGIN=Japan AIST/NIMC Database- Spectrum MS-NW-7233
##OWNER=NIST Mass Spectrometry Data Center
Collection (C) 2014 copyright by the U.S. Secretary of Commerce
on behalf of the United States of America. All rights reserved.
##CAS REGISTRY NO=941-69-5
##$NIST MASS SPEC NO=236132
##MOLFORM=C10 H7 N O2
##MW=173
##$NIST SOURCE=MSDC
##XUNITS=M/Z
##YUNITS=RELATIVE INTENSITY
##XFACTOR=1
##YFACTOR=1
##FIRSTX=14
##LASTX=176
##FIRSTY=10
##MAXX=176
##MINX=14
##MAXY=9999
##MINY=10
##NPOINTS=94
##PEAK TABLE=(XY..XY)
14,10 24,10 25,60 26,1419
27,209 28,129 29,50 36,10
37,209 38,519 39,649 40,129
41,169 42,30 43,20 44,30
45,60 46,10 49,50 50,359
51,689 52,299 53,489 54,3059
55,179 56,20 57,20 58,329
59,50 60,20 61,80 62,179
63,669 64,1149 65,449 66,40
67,10 68,20 69,10 70,10
72,259 73,60 74,119 75,109
76,189 77,969 78,99 79,10
80,369 81,20 82,239 83,10
86,229 87,60 88,40 89,189
90,599 91,1239 92,159 93,399
94,219 95,10 96,40 101,10
102,90 103,1769 104,779 105,80
106,10 114,10 115,20 116,169
117,1369 118,169 119,849 120,119
121,10 127,10 128,329 129,2229
130,239 131,139 132,60 133,10
143,10 144,399 145,689 146,99
147,10 172,289 173,9999 174,1149
175,119 176,10
##END=
