##TITLE=4,6,8-Trimethylazulene
##JCAMP-DX=4.24
##DATA TYPE=MASS SPECTRUM
##ORIGIN=Japan AIST/NIMC Database- Spectrum MS-NW-9832
##OWNER=NIST Mass Spectrometry Data Center
Collection (C) 2014 copyright by the U.S. Secretary of Commerce
on behalf of the United States of America. All rights reserved.
##CAS REGISTRY NO=941-81-1
##$NIST MASS SPEC NO=239789
##MOLFORM=C13 H14
##MW=170
##$NIST SOURCE=MSDC
##XUNITS=M/Z
##YUNITS=RELATIVE INTENSITY
##XFACTOR=1
##YFACTOR=1
##FIRSTX=26
##LASTX=172
##FIRSTY=10
##MAXX=172
##MINX=26
##MAXY=9999
##MINY=10
##NPOINTS=101
##PEAK TABLE=(XY..XY)
26,10 27,90 28,40 29,30
31,169 38,20 39,209 40,20
41,80 42,10 43,40 44,10
45,119 46,40 50,99 51,309
52,50 53,60 57,90 58,30
61,20 62,90 63,389 64,189
65,159 66,10 69,109 70,109
71,199 74,90 75,149 76,549
77,429 78,80 79,20 81,60
82,229 83,369 84,189 85,389
86,50 87,70 88,40 89,169
90,20 91,179 92,10 98,30
99,20 100,10 101,50 102,129
103,60 104,10 105,20 110,10
111,10 113,60 114,30 115,1369
116,219 117,20 119,10 125,10
126,129 127,629 128,1259 129,1289
130,269 131,30 137,10 138,20
139,399 140,99 141,479 142,149
143,109 144,279 145,30 147,139
148,10 149,10 150,90 151,329
152,1369 153,2609 154,1559 155,8089
156,1059 157,60 162,139 163,70
164,70 165,309 166,90 167,269
168,70 169,1199 170,9999 171,1419
172,90
##END=
