##TITLE=1H-Carbazole, 2,3,4,9-tetrahydro-
##JCAMP-DX=4.24
##DATA TYPE=MASS SPECTRUM
##ORIGIN=NIST Mass Spectrometry Data Center, 1990.
##OWNER=NIST Mass Spectrometry Data Center
Collection (C) 2014 copyright by the U.S. Secretary of Commerce
on behalf of the United States of America. All rights reserved.
##CAS REGISTRY NO=942-01-8
##$NIST MASS SPEC NO=113300
##MOLFORM=C12 H13 N
##MW=171
##$NIST SOURCE=MSDC
##XUNITS=M/Z
##YUNITS=RELATIVE INTENSITY
##XFACTOR=1
##YFACTOR=1
##FIRSTX=27
##LASTX=172
##FIRSTY=191
##MAXX=172
##MINX=27
##MAXY=9999
##MINY=45
##NPOINTS=66
##PEAK TABLE=(XY..XY)
27,191 38,79 39,318 40,67
41,132 50,203 51,362 52,160
53,56 58,45 59,155 62,189
63,474 64,160 65,240 70,93
71,178 72,204 74,202 75,362
76,377 77,669 83,80 84,385
85,189 86,224 87,152 88,129
89,469 90,199 91,120 100,54
101,215 102,389 103,202 104,86
113,165 114,200 115,1367 116,448
117,298 126,86 127,229 128,614
129,146 130,372 131,49 139,248
140,328 141,211 142,49 143,9999
144,1152 145,59 152,45 153,57
154,350 155,157 156,81 166,224
167,861 168,752 169,193 170,1424
171,3292 172,438
##END=
