##TITLE=Cyclohexanecarboxylic acid, 4-(1,1-dimethylethyl)-, trans-
##JCAMP-DX=4.24
##DATA TYPE=MASS SPECTRUM
##ORIGIN=DJ89-528-T4
##OWNER=NIST Mass Spectrometry Data Center
Collection (C) 2014 copyright by the U.S. Secretary of Commerce
on behalf of the United States of America. All rights reserved.
##CAS REGISTRY NO=943-29-3
##$NIST MASS SPEC NO=34040
##MOLFORM=C11 H20 O2
##MW=184
##$NIST SOURCE=MSDC
##XUNITS=M/Z
##YUNITS=RELATIVE INTENSITY
##XFACTOR=1
##YFACTOR=1
##FIRSTX=41
##LASTX=184
##FIRSTY=2200
##MAXX=184
##MINX=41
##MAXY=9999
##MINY=100
##NPOINTS=40
##PEAK TABLE=(XY..XY)
41,2200 43,600 53,300 54,300
55,900 56,5399 57,9999 58,500
60,100 67,900 68,400 69,500
73,600 77,300 79,300 80,400
81,2500 82,400 83,400 97,100
99,300 100,500 108,600 109,800
110,300 111,100 113,100 123,1500
124,100 126,500 127,5299 128,3000
129,8099 130,700 131,100 151,500
152,100 169,500 170,100 184,180
##END=
