##TITLE=2-Propenoic acid, 3-(4-methoxyphenyl)-, (E)-
##JCAMP-DX=4.24
##DATA TYPE=MASS SPECTRUM
##ORIGIN=Japan AIST/NIMC Database- Spectrum MS-NW-3814
##OWNER=NIST Mass Spectrometry Data Center
Collection (C) 2014 copyright by the U.S. Secretary of Commerce
on behalf of the United States of America. All rights reserved.
##CAS REGISTRY NO=943-89-5
##$NIST MASS SPEC NO=232254
##MOLFORM=C10 H10 O3
##MW=178
##$NIST SOURCE=MSDC
##XUNITS=M/Z
##YUNITS=RELATIVE INTENSITY
##XFACTOR=1
##YFACTOR=1
##FIRSTX=14
##LASTX=181
##FIRSTY=40
##MAXX=181
##MINX=14
##MAXY=9999
##MINY=10
##NPOINTS=132
##PEAK TABLE=(XY..XY)
14,40 15,229 16,20 17,70
18,259 26,50 27,199 28,99
29,269 30,40 31,389 32,20
36,10 37,60 38,179 39,539
40,60 41,80 42,20 43,70
44,189 45,189 46,10 49,30
50,339 51,529 52,119 53,169
54,20 55,109 56,10 57,10
59,20 60,10 61,99 62,319
63,799 64,419 65,429 66,80
67,40 68,20 69,449 70,20
71,10 73,30 74,169 75,259
76,159 77,1169 78,219 79,769
80,70 81,60 82,10 83,10
84,10 85,20 86,30 87,50
88,50 89,989 90,609 91,539
92,259 93,80 94,50 95,60
96,10 97,10 98,40 99,20
100,10 101,129 102,249 103,329
104,80 105,139 106,70 107,409
108,139 109,109 110,20 111,10
115,20 116,30 117,489 118,569
119,219 120,50 121,519 122,90
123,10 124,70 125,10 127,10
129,20 130,30 131,70 132,1139
133,1679 134,269 135,469 136,80
137,149 138,30 139,10 143,10
144,10 145,90 146,99 147,299
148,60 149,149 150,249 151,40
152,30 153,10 159,20 160,199
161,3019 162,399 163,389 164,109
165,70 175,20 176,50 177,1589
178,9999 179,1129 180,189 181,30
##END=
