##TITLE=3-Buten-2-one, 4-(4-methoxyphenyl)-
##JCAMP-DX=4.24
##DATA TYPE=MASS SPECTRUM
##ORIGIN=Japan AIST/NIMC Database- Spectrum MS-IW-5381
##OWNER=NIST Mass Spectrometry Data Center
Collection (C) 2014 copyright by the U.S. Secretary of Commerce
on behalf of the United States of America. All rights reserved.
##CAS REGISTRY NO=943-88-4
##$NIST MASS SPEC NO=242400
##MOLFORM=C11 H12 O2
##MW=176
##$NIST SOURCE=MSDC
##XUNITS=M/Z
##YUNITS=RELATIVE INTENSITY
##XFACTOR=1
##YFACTOR=1
##FIRSTX=15
##LASTX=178
##FIRSTY=60
##MAXX=178
##MINX=15
##MAXY=9999
##MINY=10
##NPOINTS=81
##PEAK TABLE=(XY..XY)
15,60 27,50 28,50 29,10
38,50 39,149 40,20 41,10
42,10 43,599 44,20 45,10
50,129 51,269 52,50 53,60
55,50 61,20 62,90 63,349
64,189 65,99 66,50 74,119
75,99 76,109 77,549 78,80
79,279 80,179 81,20 86,10
87,20 88,129 89,479 90,479
91,129 92,179 93,10 98,10
101,80 102,209 103,419 104,60
105,139 106,10 107,20 108,10
110,10 115,119 116,30 117,109
118,769 119,99 120,10 121,30
127,10 128,10 129,10 130,20
131,70 132,109 133,3369 134,349
135,30 143,30 144,20 145,629
146,179 147,70 148,20 158,30
159,30 160,70 161,9999 162,1099
163,99 175,1519 176,6479 177,779
178,70
##END=
