##TITLE=Phenol, 2,6-dimethoxy-, acetate
##JCAMP-DX=4.24
##DATA TYPE=MASS SPECTRUM
##ORIGIN=NIST Mass Spectrometry Data Center, 2010
##OWNER=NIST Mass Spectrometry Data Center
Collection (C) 2014 copyright by the U.S. Secretary of Commerce
on behalf of the United States of America. All rights reserved.
##CAS REGISTRY NO=944-99-0
##$NIST MASS SPEC NO=374281
##MOLFORM=C10 H12 O4
##MW=196
##$NIST SOURCE=MSDC
##XUNITS=M/Z
##YUNITS=RELATIVE INTENSITY
##XFACTOR=1
##YFACTOR=1
##FIRSTX=15
##LASTX=198
##FIRSTY=50
##MAXX=198
##MINX=15
##MAXY=9999
##MINY=10
##NPOINTS=83
##PEAK TABLE=(XY..XY)
15,50 26,10 27,10 28,20
29,20 37,20 38,50 39,360
40,20 41,30 42,30 43,581
44,20 45,10 49,10 50,80
51,180 52,80 53,110 54,20
55,80 56,10 61,10 62,20
63,50 64,30 65,330 66,60
67,50 68,80 69,30 71,20
74,10 75,10 76,20 77,90
78,20 79,120 80,60 81,90
82,50 83,30 91,10 92,40
93,701 94,80 95,561 96,270
97,20 105,10 106,20 107,220
108,210 109,170 110,300 111,721
112,50 120,20 121,10 122,30
123,30 124,100 125,190 126,10
135,10 136,10 137,70 138,60
139,2552 140,200 141,20 150,10
151,40 152,10 154,9999 155,901
156,100 157,10 165,20 167,10
196,460 197,50 198,10
##END=
