##TITLE=Benzene, 1,2,4,5-tetrachloro-3,6-dimethoxy-
##JCAMP-DX=4.24
##DATA TYPE=MASS SPECTRUM
##ORIGIN=Div. of Experiment Therapeutics WRAIR, WRAMC, Washington DC 20307
##OWNER=NIST Mass Spectrometry Data Center
Collection (C) 2014 copyright by the U.S. Secretary of Commerce
on behalf of the United States of America. All rights reserved.
##CAS REGISTRY NO=944-78-5
##$NIST MASS SPEC NO=257476
##MOLFORM=C8 H6 Cl4 O2
##MW=274
##$NIST SOURCE=MSDC
##XUNITS=M/Z
##YUNITS=RELATIVE INTENSITY
##XFACTOR=1
##YFACTOR=1
##FIRSTX=43
##LASTX=282
##FIRSTY=80
##MAXX=282
##MINX=43
##MAXY=9999
##MINY=6
##NPOINTS=172
##PEAK TABLE=(XY..XY)
43,80 47,191 48,81 49,189
50,23 51,47 52,84 53,36
55,41 59,109 60,276 61,196
62,47 63,234 65,148 66,62
67,46 71,149 72,71 73,183
74,68 75,59 76,33 77,7
80,6 83,315 84,107 85,134
86,56 87,4099 88,130 89,1329
90,46 94,191 95,648 96,319
97,270 98,89 99,29 106,80
107,167 108,165 109,220 110,61
111,349 112,25 113,116 118,491
119,45 120,300 121,29 122,91
123,18 124,40 130,611 131,492
132,424 133,402 134,98 135,101
137,57 139,49 141,49 142,139
143,167 144,129 145,221 146,210
147,124 148,116 149,33 150,19
153,529 154,27 155,505 156,24
157,171 158,22 159,38 160,25
161,113 163,73 165,761 166,171
167,797 168,167 169,295 170,59
171,44 173,26 175,27 176,89
177,69 178,115 179,170 180,204
181,1294 182,216 183,1152 184,105
185,371 186,24 187,43 188,193
189,34 190,238 191,25 192,115
193,29 194,135 195,43 196,128
197,35 198,55 200,83 201,42
202,96 203,61 204,50 205,31
207,28 208,41 209,3803 210,334
211,3676 212,302 213,1118 214,96
215,182 216,300 217,58 218,362
219,40 220,180 221,19 222,37
224,75 226,66 228,93 230,98
231,126 232,58 233,166 234,20
235,74 237,27 239,23 241,12
245,95 247,117 249,53 257,7
259,7949 260,655 261,9999 262,826
263,4867 264,385 265,1014 266,82
267,85 271,32 273,66 274,5357
275,516 276,6809 277,590 278,3294
279,278 280,702 281,57 282,55
##END=
