##TITLE=Diphenyl sulfoxide
##JCAMP-DX=4.24
##DATA TYPE=MASS SPECTRUM
##ORIGIN=MASS SPECTROMETRY CENTER, UNIV. OF UTAH; ALDRICH P03540-5
##OWNER=NIST Mass Spectrometry Data Center
Collection (C) 2014 copyright by the U.S. Secretary of Commerce
on behalf of the United States of America. All rights reserved.
##CAS REGISTRY NO=945-51-7
##$NIST MASS SPEC NO=52676
##MOLFORM=C12 H10 O S
##MW=202
##$NIST SOURCE=MSDC
##XUNITS=M/Z
##YUNITS=RELATIVE INTENSITY
##XFACTOR=1
##YFACTOR=1
##FIRSTX=15
##LASTX=204
##FIRSTY=110
##MAXX=204
##MINX=15
##MAXY=9999
##MINY=12
##NPOINTS=93
##PEAK TABLE=(XY..XY)
15,110 16,26 26,185 27,1296
29,18 37,147 38,490 39,2987
40,131 41,15 45,1135 48,40
49,151 50,3544 51,9999 52,778
53,713 57,12 58,230 59,54
61,41 62,269 63,766 64,237
65,5514 66,478 69,1351 70,201
71,198 73,158 74,952 75,743
76,588 77,7929 78,1628 79,167
81,334 82,319 83,183 84,108
87,19 89,122 91,21 92,860
93,1337 94,110 95,47 96,556
97,4763 98,362 99,231 102,172
108,488 109,9164 110,994 111,517
115,524 121,188 122,441 125,1634
126,242 127,245 128,328 129,244
134,121 137,46 139,305 140,18
141,1303 142,206 147,615 148,19
151,246 152,1173 153,1829 154,7571
155,999 169,208 171,226 172,20
173,1950 174,1191 175,218 183,141
184,1661 185,1832 186,1369 187,316
188,25 201,268 202,8281 203,1290
204,490
##END=
