##TITLE=N-(2-Phenylethyl)aminoacetaldehyde diethyl acetal
##JCAMP-DX=4.24
##DATA TYPE=MASS SPECTRUM
##ORIGIN=NIST Mass Spectrometry Data Center, 1994
##OWNER=NIST Mass Spectrometry Data Center
Collection (C) 2014 copyright by the U.S. Secretary of Commerce
on behalf of the United States of America. All rights reserved.
##CAS REGISTRY NO=94508-09-5
##$NIST MASS SPEC NO=136145
##MOLFORM=C14 H23 N O2
##MW=237
##$NIST SOURCE=MSDC
##XUNITS=M/Z
##YUNITS=RELATIVE INTENSITY
##XFACTOR=1
##YFACTOR=1
##FIRSTX=5
##LASTX=236
##FIRSTY=2
##MAXX=236
##MINX=5
##MAXY=9999
##MINY=2
##NPOINTS=120
##PEAK TABLE=(XY..XY)
5,2 6,13 7,11 9,14
12,21 13,7 14,2 15,448
16,4 17,17 18,283 19,533
23,7 24,13 25,26 26,174
27,2045 28,1317 29,4790 30,1384
31,510 33,11 36,9 38,59
39,677 40,90 41,397 42,2025
43,3568 44,6161 45,609 46,9
47,9999 48,139 49,55 50,189
51,740 52,216 53,119 54,107
55,109 56,414 57,78 58,138
60,120 61,84 62,63 63,278
64,89 65,992 66,75 67,30
68,13 69,34 70,191 71,13
72,3603 73,198 74,13 75,8309
76,377 77,1825 78,585 79,1599
80,100 81,10 82,21 85,5
86,16 87,35 88,48 89,233
90,5 91,1711 92,198 93,26
94,11 96,14 98,21 100,5587
101,399 103,7795 104,971 105,8051
106,744 107,34 114,16 115,57
116,89 117,268 118,109 119,106
120,45 121,81 122,13 127,15
128,42 129,160 130,109 131,67
132,140 133,13 134,3793 135,398
136,17 144,152 146,6571 147,557
148,225 149,22 160,27 161,11
162,43 164,11 190,30 192,1781
193,314 194,38 206,8 236,10
##END=
