##TITLE=(-)-10,2-Camphorsultam
##JCAMP-DX=4.24
##DATA TYPE=MASS SPECTRUM
##ORIGIN=Japan AIST/NIMC Database- Spectrum MS-IW-4922
##OWNER=NIST Mass Spectrometry Data Center
Collection (C) 2014 copyright by the U.S. Secretary of Commerce
on behalf of the United States of America. All rights reserved.
##CAS REGISTRY NO=94594-90-8
##$NIST MASS SPEC NO=237384
##MOLFORM=C10 H17 N O2 S
##MW=215
##$NIST SOURCE=MSDC
##XUNITS=M/Z
##YUNITS=RELATIVE INTENSITY
##XFACTOR=1
##YFACTOR=1
##FIRSTX=15
##LASTX=217
##FIRSTY=139
##MAXX=217
##MINX=15
##MAXY=9999
##MINY=10
##NPOINTS=119
##PEAK TABLE=(XY..XY)
15,139 26,50 27,1259 28,1789
29,849 30,1399 31,50 32,30
33,10 34,30 37,10 38,70
39,2049 40,489 41,4279 42,969
43,4769 44,1939 45,199 46,10
47,10 48,129 49,10 50,109
51,449 52,329 53,1609 54,859
55,2049 56,1269 57,509 58,349
59,99 60,99 61,20 62,30
63,129 64,309 65,709 66,529
67,3149 68,2389 69,2629 70,1149
71,209 72,40 74,10 75,20
76,50 77,1469 78,379 79,1909
80,1149 81,1759 82,5069 83,6369
84,619 85,579 86,159 87,10
89,30 91,2439 92,719 93,7069
94,3459 95,2939 96,1999 97,289
98,20 99,10 102,10 103,80
104,60 105,789 106,839 107,1539
108,9999 109,2419 110,1679 111,159
112,10 115,30 116,20 117,149
118,70 119,7189 120,919 121,369
122,2049 123,809 124,109 125,10
130,20 131,30 132,1379 133,269
134,6879 135,1079 136,7959 137,829
138,40 145,30 146,10 147,10
148,90 149,209 150,1479 151,7859
152,909 153,50 160,20 172,20
186,10 200,30 213,10 214,20
215,199 216,80 217,20
##END=
