##TITLE=2-Benzylcyclohexanone
##JCAMP-DX=4.24
##DATA TYPE=MASS SPECTRUM
##ORIGIN=NIST Mass Spectrometry Data Center, 1994
##OWNER=NIST Mass Spectrometry Data Center
Collection (C) 2014 copyright by the U.S. Secretary of Commerce
on behalf of the United States of America. All rights reserved.
##CAS REGISTRY NO=946-33-8
##$NIST MASS SPEC NO=136492
##MOLFORM=C13 H16 O
##MW=188
##$NIST SOURCE=MSDC
##XUNITS=M/Z
##YUNITS=RELATIVE INTENSITY
##XFACTOR=1
##YFACTOR=1
##FIRSTX=15
##LASTX=190
##FIRSTY=168
##MAXX=190
##MINX=15
##MAXY=9999
##MINY=22
##NPOINTS=99
##PEAK TABLE=(XY..XY)
15,168 17,47 18,126 26,211
27,1629 28,241 29,801 38,195
39,2658 40,385 41,2207 42,1251
43,435 44,47 50,495 51,1335
52,381 53,466 54,185 55,1086
56,109 57,93 62,173 63,664
64,211 65,2106 66,272 67,475
68,147 69,408 70,109 71,54
74,76 75,147 76,203 77,1234
78,1150 79,432 80,75 81,298
82,527 83,273 84,355 85,49
86,30 87,38 88,45 89,461
90,30 91,9999 92,1546 93,107
95,73 97,4089 98,282 99,32
101,37 102,267 103,776 104,1204
105,456 106,59 107,65 110,598
111,100 115,1592 116,578 117,2424
118,499 119,70 120,135 127,223
128,402 129,1049 130,260 131,1770
132,235 133,91 141,469 142,447
143,165 144,319 145,1251 146,583
147,147 155,130 156,22 157,57
158,22 159,1282 160,200 169,104
170,123 171,34 173,47 186,27
188,4509 189,705 190,50
##END=
