##TITLE=Benzene, (phenoxymethyl)-
##JCAMP-DX=4.24
##DATA TYPE=MASS SPECTRUM
##ORIGIN=NIST Mass Spectrometry Data Center, 1990.
##OWNER=NIST Mass Spectrometry Data Center
Collection (C) 2014 copyright by the U.S. Secretary of Commerce
on behalf of the United States of America. All rights reserved.
##CAS REGISTRY NO=946-80-5
##$NIST MASS SPEC NO=118452
##MOLFORM=C13 H12 O
##MW=184
##$NIST SOURCE=MSDC
##XUNITS=M/Z
##YUNITS=RELATIVE INTENSITY
##XFACTOR=1
##YFACTOR=1
##FIRSTX=16
##LASTX=185
##FIRSTY=15
##MAXX=185
##MINX=16
##MAXY=9999
##MINY=12
##NPOINTS=34
##PEAK TABLE=(XY..XY)
16,15 18,12 27,116 37,36
38,102 39,668 40,29 41,118
42,38 50,155 51,361 52,64
61,26 62,100 63,364 64,161
65,1566 66,127 74,52 76,38
77,194 78,38 89,202 91,9999
92,746 93,70 94,15 105,36
115,34 128,36 152,42 153,38
184,1472 185,215
##END=
