##TITLE=trans-1-Carbethoxy-2-phenylcyclopropane
##JCAMP-DX=4.24
##DATA TYPE=MASS SPECTRUM
##ORIGIN=NIST Mass Spectrometry Data Center
##OWNER=NIST Mass Spectrometry Data Center
Collection (C) 2014 copyright by the U.S. Secretary of Commerce
on behalf of the United States of America. All rights reserved.
##CAS REGISTRY NO=946-39-4
##$NIST MASS SPEC NO=343363
##MOLFORM=C12 H14 O2
##MW=190
##$NIST SOURCE=MSDC
##XUNITS=M/Z
##YUNITS=RELATIVE INTENSITY
##XFACTOR=1
##YFACTOR=1
##FIRSTX=14
##LASTX=192
##FIRSTY=60
##MAXX=192
##MINX=14
##MAXY=9999
##MINY=10
##NPOINTS=93
##PEAK TABLE=(XY..XY)
14,60 15,390 16,10 18,10
19,30 25,20 26,300 27,1782
28,300 29,3924 30,170 31,60
37,40 38,230 39,1782 40,170
41,170 42,80 43,180 44,50
45,110 50,510 51,1321 52,290
53,110 55,480 56,50 58,741
60,30 61,60 62,320 63,1141
64,260 65,1151 66,90 67,20
68,20 69,10 71,30 73,90
74,150 75,190 76,240 77,901
78,550 79,581 80,30 83,10
84,30 85,20 86,50 87,110
89,1021 91,3013 92,240 93,10
101,40 102,350 103,370 104,400
105,500 107,871 108,60 110,10
113,70 115,8117 116,3453 117,9999
118,1121 119,80 120,70 121,10
127,911 128,120 129,30 130,10
131,80 133,1251 134,170 135,1391
136,130 144,2012 145,1962 146,210
147,50 148,90 149,10 161,270
162,520 163,70 190,2302 191,310
192,30
##END=
