##TITLE=9-Phenanthrenamine
##JCAMP-DX=4.24
##DATA TYPE=MASS SPECTRUM
##ORIGIN=Japan AIST/NIMC Database- Spectrum MS-IW-4415
##OWNER=NIST Mass Spectrometry Data Center
Collection (C) 2014 copyright by the U.S. Secretary of Commerce
on behalf of the United States of America. All rights reserved.
##CAS REGISTRY NO=947-73-9
##$NIST MASS SPEC NO=244444
##MOLFORM=C14 H11 N
##MW=193
##$NIST SOURCE=MSDC
##XUNITS=M/Z
##YUNITS=RELATIVE INTENSITY
##XFACTOR=1
##YFACTOR=1
##FIRSTX=27
##LASTX=195
##FIRSTY=10
##MAXX=195
##MINX=27
##MAXY=9999
##MINY=10
##NPOINTS=89
##PEAK TABLE=(XY..XY)
27,10 28,20 38,10 39,60
41,10 50,30 51,60 52,20
55,10 56,10 57,10 61,10
62,60 63,129 64,20 65,30
68,20 69,269 70,80 71,10
74,60 75,90 76,50 77,40
78,10 81,459 82,849 83,409
84,20 85,10 86,50 87,80
88,70 89,90 90,20 91,40
94,40 95,339 96,759 97,129
98,30 99,20 100,20 101,10
102,10 110,20 111,20 112,10
113,50 114,30 115,119 116,20
122,10 125,10 126,30 127,20
128,10 135,10 137,50 138,30
139,199 140,80 141,10 149,20
150,70 151,70 152,70 153,30
161,20 162,70 163,499 164,529
165,3579 166,1269 167,159 168,10
174,30 175,40 176,109 177,70
178,50 188,30 189,30 190,279
191,249 192,459 193,9999 194,1589
195,119
##END=
