##TITLE=9-Chlorophenanthrene
##JCAMP-DX=4.24
##DATA TYPE=MASS SPECTRUM
##ORIGIN=NIST Mass Spectrometry Data Center, 1990.
##OWNER=NIST Mass Spectrometry Data Center
Collection (C) 2014 copyright by the U.S. Secretary of Commerce
on behalf of the United States of America. All rights reserved.
##CAS REGISTRY NO=947-72-8
##$NIST MASS SPEC NO=118493
##MOLFORM=C14 H9 Cl
##MW=212
##$NIST SOURCE=MSDC
##XUNITS=M/Z
##YUNITS=RELATIVE INTENSITY
##XFACTOR=1
##YFACTOR=1
##FIRSTX=16
##LASTX=216
##FIRSTY=36
##MAXX=216
##MINX=16
##MAXY=9999
##MINY=10
##NPOINTS=84
##PEAK TABLE=(XY..XY)
16,36 17,10 18,32 24,20
26,25 27,66 28,23 32,55
38,92 39,156 44,20 49,31
50,252 51,257 52,35 59,26
61,140 62,322 63,297 64,43
71,38 73,106 74,609 75,1215
77,97 80,46 84,25 85,113
86,235 87,913 88,2312 93,526
94,195 97,66 98,385 99,244
100,92 101,84 102,39 105,121
106,1018 107,381 109,43 110,126
111,163 112,26 113,44 121,39
122,141 123,143 124,57 125,130
126,186 127,75 134,53 135,47
137,51 138,60 139,50 146,40
147,32 149,382 150,992 151,937
152,170 161,20 162,23 165,25
174,664 175,896 176,3617 177,1857
178,273 186,136 188,60 208,23
209,35 210,98 211,23 212,9999
213,1597 214,3399 215,504 216,37
##END=
