##TITLE=Benzenemethanamine, 2,4-dichloro-
##JCAMP-DX=4.24
##DATA TYPE=MASS SPECTRUM
##ORIGIN=RADIAN CORP
##OWNER=NIST Mass Spectrometry Data Center
Collection (C) 2014 copyright by the U.S. Secretary of Commerce
on behalf of the United States of America. All rights reserved.
##CAS REGISTRY NO=95-00-1
##$NIST MASS SPEC NO=72898
##MOLFORM=C7 H7 Cl2 N
##MW=175
##$NIST SOURCE=MSDC
##XUNITS=M/Z
##YUNITS=RELATIVE INTENSITY
##XFACTOR=1
##YFACTOR=1
##FIRSTX=15
##LASTX=179
##FIRSTY=10
##MAXX=179
##MINX=15
##MAXY=9999
##MINY=10
##NPOINTS=118
##PEAK TABLE=(XY..XY)
15,10 16,60 17,60 25,10
26,120 27,160 28,1210 29,580
30,2190 31,40 35,120 36,50
37,310 38,300 39,240 40,20
41,90 42,30 43,30 47,90
48,40 49,280 50,1130 51,740
52,70 53,50 54,120 55,20
60,160 61,390 62,510 63,590
64,100 65,80 66,40 67,20
69,260 70,30 72,180 73,810
74,1730 75,2280 76,560 77,1560
78,390 79,40 83,40 84,390
85,450 86,380 87,380 88,160
89,440 90,60 91,10 95,10
96,50 97,190 98,40 99,200
100,250 101,90 102,380 103,100
104,400 105,110 107,50 108,90
109,700 110,240 111,1810 112,380
113,1410 114,170 115,280 116,20
119,20 120,20 121,20 123,840
124,180 125,300 126,60 133,100
135,70 136,160 137,50 138,490
139,120 140,9999 141,850 142,3250
143,270 144,10 145,130 146,350
147,590 148,250 149,340 150,60
151,50 154,30 157,10 158,20
159,980 160,90 161,640 162,50
163,100 171,20 172,130 173,30
174,3390 175,710 176,2160 177,440
178,380 179,70
##END=
