##TITLE=5-Norbornene-2-methanol
##JCAMP-DX=4.24
##DATA TYPE=MASS SPECTRUM
##ORIGIN=Japan AIST/NIMC Database- Spectrum MS-NW-8370
##OWNER=NIST Mass Spectrometry Data Center
Collection (C) 2014 copyright by the U.S. Secretary of Commerce
on behalf of the United States of America. All rights reserved.
##CAS REGISTRY NO=95-12-5
##$NIST MASS SPEC NO=238633
##MOLFORM=C8 H12 O
##MW=124
##$NIST SOURCE=MSDC
##XUNITS=M/Z
##YUNITS=RELATIVE INTENSITY
##XFACTOR=1
##YFACTOR=1
##FIRSTX=15
##LASTX=125
##FIRSTY=20
##MAXX=125
##MINX=15
##MAXY=9999
##MINY=10
##NPOINTS=53
##PEAK TABLE=(XY..XY)
15,20 18,30 26,20 27,299
28,80 29,149 30,10 31,179
37,20 38,60 39,669 40,289
41,369 42,30 43,40 50,70
51,179 52,80 53,149 54,30
55,70 57,159 58,10 61,10
62,30 63,80 64,20 65,529
66,9999 67,869 68,60 69,20
70,30 77,489 78,239 79,359
80,409 81,50 82,10 83,30
89,10 91,499 92,60 93,129
94,10 95,40 96,10 103,10
105,50 106,149 107,20 124,119
125,10
##END=
