##TITLE=Bicyclo(2.2.1)-5-heptene-2-carboxamide
##JCAMP-DX=4.24
##DATA TYPE=MASS SPECTRUM
##ORIGIN=ALPHA Chemicals / NIST MS Data Center.
##OWNER=NIST Mass Spectrometry Data Center
Collection (C) 2014 copyright by the U.S. Secretary of Commerce
on behalf of the United States of America. All rights reserved.
##CAS REGISTRY NO=95-17-0
##$NIST MASS SPEC NO=125352
##MOLFORM=C8 H11 N O
##MW=137
##$NIST SOURCE=MSDC
##XUNITS=M/Z
##YUNITS=RELATIVE INTENSITY
##XFACTOR=1
##YFACTOR=1
##FIRSTX=29
##LASTX=138
##FIRSTY=155
##MAXX=138
##MINX=29
##MAXY=9999
##MINY=55
##NPOINTS=51
##PEAK TABLE=(XY..XY)
29,155 30,109 37,104 38,518
39,2400 40,801 41,694 42,149
43,249 44,1569 45,69 50,364
51,690 52,316 53,547 54,210
55,1713 56,65 59,317 61,55
62,223 63,375 64,55 65,1968
66,8271 67,746 68,103 70,80
72,9999 73,348 74,78 77,1467
78,529 79,674 82,63 83,146
89,93 91,2011 92,376 93,1193
94,279 95,62 96,182 109,64
118,105 119,97 120,353 121,141
122,59 137,1334 138,132
##END=
