##TITLE=Benzothiazole
##JCAMP-DX=4.24
##DATA TYPE=MASS SPECTRUM
##ORIGIN=Japan AIST/NIMC Database- Spectrum MS-NW-8351
##OWNER=NIST Mass Spectrometry Data Center
Collection (C) 2014 copyright by the U.S. Secretary of Commerce
on behalf of the United States of America. All rights reserved.
##CAS REGISTRY NO=95-16-9
##$NIST MASS SPEC NO=228674
##MOLFORM=C7 H5 N S
##MW=135
##$NIST SOURCE=MSDC
##XUNITS=M/Z
##YUNITS=RELATIVE INTENSITY
##XFACTOR=1
##YFACTOR=1
##FIRSTX=25
##LASTX=138
##FIRSTY=10
##MAXX=138
##MINX=25
##MAXY=9999
##MINY=10
##NPOINTS=81
##PEAK TABLE=(XY..XY)
25,10 26,50 27,60 28,30
32,50 33,10 34,20 36,30
37,289 38,409 39,539 40,30
41,20 44,90 45,769 46,20
47,30 48,10 49,99 50,439
51,229 52,80 53,90 54,449
55,20 56,20 57,139 58,769
59,40 60,70 61,219 62,389
63,1099 64,299 65,50 66,10
67,169 68,60 69,2309 70,139
71,109 72,10 73,70 74,239
75,199 76,119 77,149 78,30
80,30 81,389 82,1239 83,99
84,269 85,10 86,20 87,20
88,20 90,80 91,809 92,60
93,179 94,30 95,20 96,10
99,10 102,20 103,20 104,20
105,50 106,80 107,159 108,3459
109,369 110,169 111,10 133,20
134,129 135,9999 136,899 137,479
138,30
##END=
