##TITLE=2-Amino-6-chlorobenzothiazole
##JCAMP-DX=4.24
##DATA TYPE=MASS SPECTRUM
##ORIGIN=Japan AIST/NIMC Database- Spectrum MS-IW-3632
##OWNER=NIST Mass Spectrometry Data Center
Collection (C) 2014 copyright by the U.S. Secretary of Commerce
on behalf of the United States of America. All rights reserved.
##CAS REGISTRY NO=95-24-9
##$NIST MASS SPEC NO=241934
##MOLFORM=C7 H5 Cl N2 S
##MW=184
##$NIST SOURCE=MSDC
##XUNITS=M/Z
##YUNITS=RELATIVE INTENSITY
##XFACTOR=1
##YFACTOR=1
##FIRSTX=26
##LASTX=189
##FIRSTY=20
##MAXX=189
##MINX=26
##MAXY=9999
##MINY=10
##NPOINTS=125
##PEAK TABLE=(XY..XY)
26,20 27,20 28,90 32,10
36,40 37,90 38,90 39,70
40,10 41,10 42,10 43,20
44,60 45,209 46,10 47,40
48,10 49,50 50,129 51,90
52,60 53,60 56,10 57,60
58,30 59,10 60,129 61,169
62,289 63,769 64,80 65,10
66,10 67,10 68,40 69,659
70,119 71,90 72,50 73,139
74,139 75,119 76,139 77,50
78,209 79,159 80,20 81,209
82,189 83,30 84,20 85,30
86,20 87,40 88,50 89,20
90,70 91,10 92,739 93,389
94,129 95,409 96,70 97,109
98,50 99,70 100,20 101,10
103,40 104,10 105,169 106,149
107,449 108,99 109,40 110,10
111,10 112,50 113,30 114,20
115,20 116,30 118,50 120,129
121,189 122,1609 123,139 124,159
125,70 126,30 127,40 129,80
130,1509 131,129 132,549 133,60
134,30 139,139 140,10 141,50
142,209 143,20 144,70 145,10
147,10 148,119 149,1039 150,109
151,60 152,109 153,10 154,30
156,149 157,2139 158,229 159,789
160,70 161,40 183,119 184,9999
185,969 186,3649 187,329 188,149
189,10
##END=
