##TITLE=Benzothiazole, 2,5-dimethyl-
##JCAMP-DX=4.24
##DATA TYPE=MASS SPECTRUM
##ORIGIN=Japan AIST/NIMC Database- Spectrum MS-NW-4291
##OWNER=NIST Mass Spectrometry Data Center
Collection (C) 2014 copyright by the U.S. Secretary of Commerce
on behalf of the United States of America. All rights reserved.
##CAS REGISTRY NO=95-26-1
##$NIST MASS SPEC NO=230875
##MOLFORM=C9 H9 N S
##MW=163
##$NIST SOURCE=MSDC
##XUNITS=M/Z
##YUNITS=RELATIVE INTENSITY
##XFACTOR=1
##YFACTOR=1
##FIRSTX=15
##LASTX=166
##FIRSTY=60
##MAXX=166
##MINX=15
##MAXY=9999
##MINY=10
##NPOINTS=107
##PEAK TABLE=(XY..XY)
15,60 26,40 27,149 28,60
32,10 37,50 38,99 39,369
40,30 41,30 42,60 43,10
44,30 45,479 46,10 47,20
49,20 50,169 51,429 52,169
53,80 54,10 57,40 58,80
59,169 60,60 61,90 62,119
63,349 64,70 65,90 66,30
67,10 68,20 69,689 70,169
71,139 72,20 73,20 74,50
75,60 76,80 77,1079 78,1529
79,159 80,40 81,309 82,169
83,60 84,20 85,10 86,20
87,20 88,20 89,119 90,60
91,109 92,30 93,119 94,50
95,119 96,60 97,20 101,10
102,30 103,50 104,70 105,20
106,30 107,20 108,30 109,20
110,30 116,30 117,50 118,149
119,30 120,60 121,3709 122,1999
123,359 124,99 125,10 128,20
129,30 130,339 131,90 132,10
133,10 134,30 135,90 136,30
137,10 141,30 143,10 146,30
147,20 148,599 149,60 150,30
160,20 161,50 162,3209 163,9999
164,1189 165,489 166,40
##END=
