##TITLE=1H-Indole, 2-methyl-
##JCAMP-DX=4.24
##DATA TYPE=MASS SPECTRUM
##ORIGIN=NIST Mass Spectrometry Data Center, 1990.
##OWNER=NIST Mass Spectrometry Data Center
Collection (C) 2014 copyright by the U.S. Secretary of Commerce
on behalf of the United States of America. All rights reserved.
##CAS REGISTRY NO=95-20-5
##$NIST MASS SPEC NO=118722
##MOLFORM=C9 H9 N
##MW=131
##$NIST SOURCE=MSDC
##XUNITS=M/Z
##YUNITS=RELATIVE INTENSITY
##XFACTOR=1
##YFACTOR=1
##FIRSTX=14
##LASTX=133
##FIRSTY=23
##MAXX=133
##MINX=14
##MAXY=9999
##MINY=20
##NPOINTS=53
##PEAK TABLE=(XY..XY)
14,23 15,37 26,68 27,214
28,127 37,103 38,198 39,538
40,80 41,81 42,80 43,20
49,82 50,403 51,830 52,349
53,71 54,32 60,21 61,102
62,341 63,599 64,21 65,810
73,45 74,232 75,274 76,343
77,1313 78,228 79,37 85,21
86,64 87,116 88,70 89,388
90,258 91,38 98,42 99,31
100,44 101,174 102,570 103,1107
104,301 105,25 114,29 115,39
128,401 130,9999 131,6570 132,589
133,28
##END=
