##TITLE=Benzoxazole, 2-methyl-
##JCAMP-DX=4.24
##DATA TYPE=MASS SPECTRUM
##ORIGIN=Japan AIST/NIMC Database- Spectrum MS-NW-3466
##OWNER=NIST Mass Spectrometry Data Center
Collection (C) 2014 copyright by the U.S. Secretary of Commerce
on behalf of the United States of America. All rights reserved.
##CAS REGISTRY NO=95-21-6
##$NIST MASS SPEC NO=229622
##MOLFORM=C8 H7 N O
##MW=133
##$NIST SOURCE=MSDC
##XUNITS=M/Z
##YUNITS=RELATIVE INTENSITY
##XFACTOR=1
##YFACTOR=1
##FIRSTX=13
##LASTX=135
##FIRSTY=10
##MAXX=135
##MINX=13
##MAXY=9999
##MINY=10
##NPOINTS=64
##PEAK TABLE=(XY..XY)
13,10 14,30 15,129 25,20
26,169 27,189 28,60 29,10
31,10 36,20 37,219 38,629
39,359 40,50 41,129 42,129
43,189 44,20 45,10 48,10
49,50 50,249 51,419 52,449
53,189 54,20 55,10 60,20
61,129 62,399 63,2019 64,2459
65,629 66,139 67,20 73,10
74,40 75,80 76,139 77,259
78,1269 79,299 80,20 82,10
83,10 87,10 88,20 89,10
90,99 91,199 92,999 93,399
94,30 102,50 103,60 104,1239
105,1269 106,129 107,10 131,10
132,349 133,9999 134,979 135,70
##END=
