##TITLE=Phenol, 2-chloro-
##JCAMP-DX=4.24
##DATA TYPE=MASS SPECTRUM
##ORIGIN=NIST Mass Spectrometry Data Center, 1990.
##OWNER=NIST Mass Spectrometry Data Center
Collection (C) 2014 copyright by the U.S. Secretary of Commerce
on behalf of the United States of America. All rights reserved.
##CAS REGISTRY NO=95-57-8
##$NIST MASS SPEC NO=114927
##MOLFORM=C6 H5 Cl O
##MW=128
##$NIST SOURCE=MSDC
##XUNITS=M/Z
##YUNITS=RELATIVE INTENSITY
##XFACTOR=1
##YFACTOR=1
##FIRSTX=14
##LASTX=132
##FIRSTY=42
##MAXX=132
##MINX=14
##MAXY=9999
##MINY=8
##NPOINTS=70
##PEAK TABLE=(XY..XY)
14,42 16,17 24,13 25,55
26,143 27,113 28,299 29,190
31,102 32,209 35,90 36,134
37,690 38,979 39,1280 40,69
41,34 42,46 43,30 44,18
46,225 47,108 48,91 49,338
50,512 51,230 52,18 53,627
54,41 55,82 60,190 61,612
62,1073 63,3303 64,4986 65,2107
66,252 67,40 68,22 71,33
72,209 73,945 74,413 75,431
76,52 77,26 84,75 85,41
86,30 87,35 88,11 89,59
90,29 91,11 92,2090 93,270
94,26 96,24 97,46 99,648
100,885 101,267 102,309 103,17
108,8 128,9999 129,836 130,3394
131,210 132,13
##END=
