##TITLE=Benzene, 1,2-dichloro-
##JCAMP-DX=4.24
##DATA TYPE=MASS SPECTRUM
##ORIGIN=Japan AIST/NIMC Database- Spectrum MS-NW- 987
##OWNER=NIST Mass Spectrometry Data Center
Collection (C) 2014 copyright by the U.S. Secretary of Commerce
on behalf of the United States of America. All rights reserved.
##CAS REGISTRY NO=95-50-1
##$NIST MASS SPEC NO=227765
##MOLFORM=C6 H4 Cl2
##MW=146
##$NIST SOURCE=MSDC
##XUNITS=M/Z
##YUNITS=RELATIVE INTENSITY
##XFACTOR=1
##YFACTOR=1
##FIRSTX=25
##LASTX=151
##FIRSTY=10
##MAXX=151
##MINX=25
##MAXY=9999
##MINY=10
##NPOINTS=57
##PEAK TABLE=(XY..XY)
25,10 26,40 27,40 35,60
36,80 37,239 38,189 39,80
44,10 47,40 48,20 49,209
50,949 51,389 52,10 54,40
55,359 56,99 60,60 61,109
62,50 63,60 71,10 72,80
73,519 74,769 75,1989 76,279
77,20 84,269 85,319 86,169
87,90 88,20 94,10 96,20
97,40 98,10 99,10 107,30
108,30 109,139 110,269 111,3409
112,299 113,1099 114,80 119,10
120,30 122,20 145,40 146,9999
147,689 148,6409 149,429 150,1049
151,60
##END=
