##TITLE=Phenol, 3,4-dichloro-
##JCAMP-DX=4.24
##DATA TYPE=MASS SPECTRUM
##ORIGIN=NIST Mass Spectrometry Data Center
##OWNER=NIST Mass Spectrometry Data Center
Collection (C) 2014 copyright by the U.S. Secretary of Commerce
on behalf of the United States of America. All rights reserved.
##CAS REGISTRY NO=95-77-2
##$NIST MASS SPEC NO=333423
##MOLFORM=C6 H4 Cl2 O
##MW=162
##$NIST SOURCE=MSDC
##XUNITS=M/Z
##YUNITS=RELATIVE INTENSITY
##XFACTOR=1
##YFACTOR=1
##FIRSTX=14
##LASTX=167
##FIRSTY=10
##MAXX=167
##MINX=14
##MAXY=9999
##MINY=10
##NPOINTS=110
##PEAK TABLE=(XY..XY)
14,10 25,20 26,50 27,30
28,20 29,150 31,100 32,10
35,90 36,100 37,440 38,340
39,260 40,10 41,20 42,50
43,10 45,50 46,30 47,110
48,180 49,681 50,440 51,140
52,20 53,420 54,40 55,40
56,10 58,10 59,20 60,270
61,881 62,1301 63,3453 64,420
65,50 66,110 67,30 68,10
71,90 72,430 73,1401 74,500
75,520 76,40 77,20 78,10
81,290 82,200 83,140 84,160
85,150 86,50 87,120 88,10
89,130 90,60 91,120 92,60
94,20 95,30 96,90 97,390
98,1201 99,4854 100,671 101,1521
102,120 103,10 104,10 106,20
107,210 108,50 109,240 110,40
111,60 112,10 113,20 115,10
118,10 119,10 120,10 121,10
122,10 123,20 125,10 126,601
127,360 128,220 129,90 130,10
131,10 133,601 134,500 135,390
136,290 137,70 138,40 144,20
145,10 146,10 159,10 160,10
162,9999 163,761 164,6226 165,420
166,1001 167,80
##END=
