##TITLE=Benzene, 1,2-dichloro-4-methyl-
##JCAMP-DX=4.24
##DATA TYPE=MASS SPECTRUM
##ORIGIN=Japan AIST/NIMC Database- Spectrum MS-NW- 589
##OWNER=NIST Mass Spectrometry Data Center
Collection (C) 2014 copyright by the U.S. Secretary of Commerce
on behalf of the United States of America. All rights reserved.
##CAS REGISTRY NO=95-75-0
##$NIST MASS SPEC NO=229382
##MOLFORM=C7 H6 Cl2
##MW=160
##$NIST SOURCE=MSDC
##XUNITS=M/Z
##YUNITS=RELATIVE INTENSITY
##XFACTOR=1
##YFACTOR=1
##FIRSTX=15
##LASTX=165
##FIRSTY=10
##MAXX=165
##MINX=15
##MAXY=9999
##MINY=10
##NPOINTS=79
##PEAK TABLE=(XY..XY)
15,10 26,30 27,90 28,10
35,40 36,40 37,139 38,159
39,569 40,40 41,30 42,10
43,229 44,539 45,10 47,20
48,20 49,109 50,329 51,229
52,30 53,10 57,10 60,60
61,269 62,799 63,1119 64,149
65,109 71,10 72,80 73,469
74,189 75,249 76,20 77,20
79,20 80,80 81,50 82,10
83,20 84,109 85,139 86,139
87,169 88,50 89,1729 90,349
91,30 96,40 97,169 98,30
99,529 100,30 101,159 102,10
107,50 108,10 109,80 110,20
111,30 120,20 121,10 123,379
124,169 125,9999 126,829 127,3229
128,259 129,10 145,10 158,10
159,929 160,4829 161,979 162,3069
163,309 164,509 165,40
##END=
