##TITLE=Benzene, 2,4-dichloro-1-methyl-
##JCAMP-DX=4.24
##DATA TYPE=MASS SPECTRUM
##ORIGIN=Japan AIST/NIMC Database- Spectrum MS-NW- 591
##OWNER=NIST Mass Spectrometry Data Center
Collection (C) 2014 copyright by the U.S. Secretary of Commerce
on behalf of the United States of America. All rights reserved.
##CAS REGISTRY NO=95-73-8
##$NIST MASS SPEC NO=229043
##MOLFORM=C7 H6 Cl2
##MW=160
##$NIST SOURCE=MSDC
##XUNITS=M/Z
##YUNITS=RELATIVE INTENSITY
##XFACTOR=1
##YFACTOR=1
##FIRSTX=15
##LASTX=165
##FIRSTY=10
##MAXX=165
##MINX=15
##MAXY=9999
##MINY=10
##NPOINTS=82
##PEAK TABLE=(XY..XY)
15,10 26,30 27,60 35,20
36,30 37,149 38,179 39,609
40,40 41,30 42,10 43,259
44,569 45,10 47,40 48,20
49,109 50,329 51,279 52,20
53,10 60,80 61,299 62,899
63,1259 64,159 65,109 71,10
72,70 73,499 74,179 75,219
76,20 77,20 79,10 80,70
81,40 82,10 83,20 84,80
85,149 86,169 87,199 88,80
89,2519 90,409 91,60 93,20
96,30 97,169 98,30 99,519
100,30 101,149 102,10 106,10
107,30 108,10 109,50 110,20
111,20 120,10 121,20 123,399
124,689 125,9999 126,959 127,3139
128,249 129,10 133,90 135,50
136,10 137,10 158,10 159,1019
160,4249 161,939 162,2689 163,299
164,429 165,30
##END=
