##TITLE=5-Chloro-2-hydroxyaniline
##JCAMP-DX=4.24
##DATA TYPE=MASS SPECTRUM
##ORIGIN=NIST Mass Spectrometry Data Center, 1998.
##OWNER=NIST Mass Spectrometry Data Center
Collection (C) 2014 copyright by the U.S. Secretary of Commerce
on behalf of the United States of America. All rights reserved.
##CAS REGISTRY NO=95-85-2
##$NIST MASS SPEC NO=291137
##MOLFORM=C6 H6 Cl N O
##MW=143
##$NIST SOURCE=MSDC
##XUNITS=M/Z
##YUNITS=RELATIVE INTENSITY
##XFACTOR=1
##YFACTOR=1
##FIRSTX=17
##LASTX=147
##FIRSTY=10
##MAXX=147
##MINX=17
##MAXY=9999
##MINY=10
##NPOINTS=85
##PEAK TABLE=(XY..XY)
17,10 25,20 26,70 27,160
28,370 29,150 30,30 31,10
35,20 36,60 37,180 38,380
39,410 41,150 42,100 43,10
44,70 47,30 48,40 49,250
50,720 51,1390 52,1500 53,1100
54,430 55,70 56,10 57,110
58,40 60,100 61,230 62,390
63,1410 64,160 65,140 66,70
67,20 68,50 71,490 73,300
74,80 75,180 76,300 77,110
78,800 79,340 80,3880 81,320
82,10 84,20 85,30 86,100
87,370 88,120 89,170 90,220
91,50 96,10 97,70 98,270
99,70 100,110 101,30 102,10
106,40 107,50 108,170 109,20
112,20 113,30 114,2060 115,250
116,680 117,60 124,10 125,50
126,70 127,20 128,20 142,1760
143,9999 144,1230 145,3300 146,230
147,10
##END=
