##TITLE=1,2-Benzenediamine, 4-chloro-
##JCAMP-DX=4.24
##DATA TYPE=MASS SPECTRUM
##ORIGIN=NIST Mass Spectrometry Data Center, 1998.
##OWNER=NIST Mass Spectrometry Data Center
Collection (C) 2014 copyright by the U.S. Secretary of Commerce
on behalf of the United States of America. All rights reserved.
##CAS REGISTRY NO=95-83-0
##$NIST MASS SPEC NO=290989
##MOLFORM=C6 H7 Cl N2
##MW=142
##$NIST SOURCE=MSDC
##XUNITS=M/Z
##YUNITS=RELATIVE INTENSITY
##XFACTOR=1
##YFACTOR=1
##FIRSTX=25
##LASTX=146
##FIRSTY=10
##MAXX=146
##MINX=25
##MAXY=9999
##MINY=10
##NPOINTS=93
##PEAK TABLE=(XY..XY)
25,10 26,40 27,80 28,380
29,50 30,30 35,20 36,20
37,120 38,220 39,190 40,110
41,200 42,80 43,100 44,20
47,20 48,20 49,150 50,470
51,1010 52,1180 53,1140 54,280
55,40 56,40 57,10 58,10
60,50 61,160 62,290 63,620
64,170 65,250 66,140 67,70
68,10 69,10 70,20 71,460
72,200 73,170 74,80 75,220
76,430 77,160 78,1060 79,390
80,2860 81,180 82,70 84,20
85,30 86,80 87,270 88,110
89,170 90,430 91,50 92,20
96,10 97,50 98,80 99,70
100,80 101,130 102,30 103,70
104,10 105,420 106,180 107,1640
108,130 109,10 112,30 113,50
114,2570 115,290 116,850 117,90
118,10 124,60 125,220 126,40
127,80 128,10 139,20 141,2040
142,9999 143,1410 144,3340 145,240
146,10
##END=
