##TITLE=3-Chloro-2,5-dimethylpyrazine
##JCAMP-DX=4.24
##DATA TYPE=MASS SPECTRUM
##ORIGIN=NIST Mass Spectrometry Data Center, 1992
##OWNER=NIST Mass Spectrometry Data Center
Collection (C) 2014 copyright by the U.S. Secretary of Commerce
on behalf of the United States of America. All rights reserved.
##CAS REGISTRY NO=95-89-6
##$NIST MASS SPEC NO=125284
##MOLFORM=C6 H7 Cl N2
##MW=142
##$NIST SOURCE=MSDC
##XUNITS=M/Z
##YUNITS=RELATIVE INTENSITY
##XFACTOR=1
##YFACTOR=1
##FIRSTX=12
##LASTX=145
##FIRSTY=15
##MAXX=145
##MINX=12
##MAXY=9999
##MINY=10
##NPOINTS=84
##PEAK TABLE=(XY..XY)
12,15 13,24 14,37 15,423
16,21 18,50 24,28 25,96
26,744 27,945 28,827 29,35
32,85 35,57 36,89 37,602
38,1326 39,4027 40,921 41,431
42,3976 43,109 44,13 47,163
48,49 49,293 50,206 51,862
52,1152 53,489 54,338 55,51
56,13 58,28 59,10 60,36
61,127 62,344 63,188 64,551
65,195 66,1234 67,121 68,10
71,32 72,187 73,682 74,699
75,352 76,335 77,57 78,153
79,10 80,4294 81,324 82,15
85,23 86,67 87,43 88,63
89,32 90,18 91,13 92,27
98,28 99,22 100,113 101,221
102,58 103,73 105,136 107,9568
108,724 109,24 113,16 114,73
115,87 116,23 117,34 139,11
142,9999 143,917 144,3162 145,228
##END=
