##TITLE=2-Chloro-5-methylaniline
##JCAMP-DX=4.24
##DATA TYPE=MASS SPECTRUM
##ORIGIN=Chuck Anderson, Aldrich Chemical Co.
##OWNER=NIST Mass Spectrometry Data Center
Collection (C) 2014 copyright by the U.S. Secretary of Commerce
on behalf of the United States of America. All rights reserved.
##CAS REGISTRY NO=95-81-8
##$NIST MASS SPEC NO=107869
##MOLFORM=C7 H8 Cl N
##MW=141
##$NIST SOURCE=MSDC
##XUNITS=M/Z
##YUNITS=RELATIVE INTENSITY
##XFACTOR=1
##YFACTOR=1
##FIRSTX=15
##LASTX=144
##FIRSTY=25
##MAXX=144
##MINX=15
##MAXY=9999
##MINY=4
##NPOINTS=85
##PEAK TABLE=(XY..XY)
15,25 18,7 26,79 27,299
28,439 29,33 30,143 36,4
37,191 38,392 39,800 40,156
41,244 42,151 43,17 44,31
47,28 48,13 49,99 50,475
51,1280 52,1404 53,878 54,162
57,120 58,82 59,4 60,32
61,170 62,322 63,593 64,201
65,335 66,196 67,52 69,24
70,387 72,188 73,291 74,236
75,377 76,289 77,3305 78,991
79,1306 80,232 81,4 84,28
85,66 86,85 87,121 88,69
89,313 90,131 91,70 97,41
98,10 99,113 100,50 101,50
102,131 103,38 104,1053 105,231
106,9999 107,748 108,27 111,29
112,49 113,423 114,156 115,147
116,45 123,36 124,15 125,107
126,9 127,33 138,49 139,4
140,2892 141,9585 142,1528 143,3222
144,218
##END=
