##TITLE=1,3-Benzenediamine, 4-methyl-
##JCAMP-DX=4.24
##DATA TYPE=MASS SPECTRUM
##ORIGIN=NIST Mass Spectrometry Data Center, 1998.
##OWNER=NIST Mass Spectrometry Data Center
Collection (C) 2014 copyright by the U.S. Secretary of Commerce
on behalf of the United States of America. All rights reserved.
##CAS REGISTRY NO=95-80-7
##$NIST MASS SPEC NO=291171
##MOLFORM=C7 H10 N2
##MW=122
##$NIST SOURCE=MSDC
##XUNITS=M/Z
##YUNITS=RELATIVE INTENSITY
##XFACTOR=1
##YFACTOR=1
##FIRSTX=17
##LASTX=124
##FIRSTY=10
##MAXX=124
##MINX=17
##MAXY=9999
##MINY=10
##NPOINTS=65
##PEAK TABLE=(XY..XY)
17,10 18,30 26,30 27,120
28,160 29,20 30,40 37,40
38,100 39,310 40,190 41,390
42,270 43,60 44,10 45,10
46,20 47,40 49,30 50,220
51,510 52,520 53,380 54,330
55,40 56,10 60,140 61,430
62,80 63,140 64,80 65,420
66,440 67,440 68,100 69,30
74,50 75,80 76,150 77,1280
78,650 79,180 80,440 81,160
82,40 89,20 90,20 91,40
92,220 93,690 94,2180 95,330
96,50 102,70 103,40 104,1480
105,1500 106,850 107,80 118,20
119,220 121,9999 122,9599 123,850
124,30
##END=
