##TITLE=1,4-Dioxane-2,5-dione, 3,6-dimethyl-
##JCAMP-DX=4.24
##DATA TYPE=MASS SPECTRUM
##OWNER=NIST Mass Spectrometry Data Center
Collection (C) 2014 copyright by the U.S. Secretary of Commerce
on behalf of the United States of America. All rights reserved.
##CAS REGISTRY NO=95-96-5
##$NIST MASS SPEC NO=4158
##MOLFORM=C6 H8 O4
##MW=144
##$NIST SOURCE=MSDC
##XUNITS=M/Z
##YUNITS=RELATIVE INTENSITY
##XFACTOR=1
##YFACTOR=1
##FIRSTX=25
##LASTX=144
##FIRSTY=500
##MAXX=144
##MINX=25
##MAXY=9999
##MINY=300
##NPOINTS=15
##PEAK TABLE=(XY..XY)
25,500 26,2602 27,4604 28,9999
29,4004 30,300 42,901 43,8107
44,2002 45,9208 46,400 55,2002
56,9999 57,1001 144,801
##END=
