##TITLE=Benzene, 1-nitro-4-(phenylthio)-
##JCAMP-DX=4.24
##DATA TYPE=MASS SPECTRUM
##ORIGIN=NIST Mass Spectrometry Data Center, 1994
##OWNER=NIST Mass Spectrometry Data Center
Collection (C) 2014 copyright by the U.S. Secretary of Commerce
on behalf of the United States of America. All rights reserved.
##CAS REGISTRY NO=952-97-6
##$NIST MASS SPEC NO=135724
##MOLFORM=C12 H9 N O2 S
##MW=231
##$NIST SOURCE=MSDC
##XUNITS=M/Z
##YUNITS=RELATIVE INTENSITY
##XFACTOR=1
##YFACTOR=1
##FIRSTX=12
##LASTX=234
##FIRSTY=25
##MAXX=234
##MINX=12
##MAXY=9999
##MINY=12
##NPOINTS=125
##PEAK TABLE=(XY..XY)
12,25 16,31 17,12 18,122
27,105 28,138 30,2034 32,14
37,141 38,456 39,1650 40,82
45,2063 46,418 47,116 50,2411
51,3020 52,215 53,68 57,211
58,426 60,32 61,120 62,405
63,1358 64,343 65,1849 66,227
69,2022 70,252 71,208 73,81
74,668 75,665 76,545 77,1384
78,158 79,270 80,70 81,242
82,718 83,227 84,89 85,35
86,53 87,68 88,69 89,289
90,153 91,378 92,725 94,45
95,92 96,95 97,35 98,61
99,45 101,61 102,144 103,65
104,17 105,52 106,73 107,161
108,605 109,1169 110,133 111,67
113,109 114,162 115,1138 116,131
117,25 120,23 121,131 122,32
123,25 124,50 125,30 126,125
127,161 128,360 129,706 130,86
132,21 133,46 134,326 135,55
136,24 137,23 138,21 139,1063
140,327 141,362 142,48 145,64
146,24 147,118 150,153 151,408
152,1915 153,266 157,32 158,244
159,45 160,21 168,37 169,72
171,342 172,223 173,238 174,38
184,8947 185,2477 186,649 187,116
198,24 201,2876 202,414 203,167
215,132 231,9999 232,1444 233,537
234,65
##END=
