##TITLE=5,7-Dihydroxy-2-(p-methoxyphenyl)-6,8-dimethyl-4-chromanone, (.+/-.)-
##JCAMP-DX=4.24
##DATA TYPE=MASS SPECTRUM
##ORIGIN=Japan AIST/NIMC Database- Spectrum MS-IW-6375
##OWNER=NIST Mass Spectrometry Data Center
Collection (C) 2014 copyright by the U.S. Secretary of Commerce
on behalf of the United States of America. All rights reserved.
##CAS REGISTRY NO=95273-01-1
##$NIST MASS SPEC NO=243205
##MOLFORM=C18 H18 O5
##MW=314
##$NIST SOURCE=MSDC
##XUNITS=M/Z
##YUNITS=RELATIVE INTENSITY
##XFACTOR=1
##YFACTOR=1
##FIRSTX=15
##LASTX=317
##FIRSTY=10
##MAXX=317
##MINX=15
##MAXY=9999
##MINY=10
##NPOINTS=190
##PEAK TABLE=(XY..XY)
15,10 17,60 18,60 27,109
28,80 29,30 38,10 39,189
40,30 41,139 42,10 43,169
44,20 50,30 51,139 52,60
53,129 54,30 55,299 56,50
57,20 62,20 63,109 64,50
65,329 66,90 67,169 68,40
69,289 70,20 71,10 74,10
75,30 76,40 77,349 78,199
79,139 80,30 81,119 82,129
83,449 84,30 85,10 87,10
88,10 89,139 90,90 91,609
92,90 93,60 94,40 95,279
96,169 97,70 98,20 99,20
101,30 102,70 103,109 104,50
105,80 106,80 107,109 108,99
109,50 110,70 111,50 112,20
113,10 114,10 115,50 116,10
117,90 118,80 119,799 120,159
121,2549 122,249 123,249 124,669
125,99 126,20 127,20 128,30
130,10 131,30 132,50 133,189
134,3389 135,749 136,90 137,80
138,20 139,30 140,10 141,30
142,20 143,239 144,10 145,70
146,20 147,10 148,169 149,40
150,30 151,539 152,6479 153,629
154,149 155,20 156,10 157,609
158,30 159,10 160,169 161,109
162,20 163,10 164,10 165,30
166,10 167,10 168,10 169,10
171,10 174,10 177,40 178,99
179,419 180,9999 181,1189 182,159
183,20 185,10 186,10 189,10
190,10 191,10 193,40 194,10
195,10 196,10 197,10 198,10
201,10 205,50 206,599 207,599
208,80 209,10 211,10 214,10
225,10 227,10 228,10 239,10
241,40 242,10 243,20 253,10
254,10 255,10 257,40 265,10
267,20 268,10 269,10 270,20
271,129 272,20 281,20 282,10
283,50 284,10 285,70 286,60
287,10 295,30 296,169 297,99
298,30 299,70 300,10 311,20
312,139 313,1009 314,6519 315,1309
316,189 317,20
##END=
