##TITLE=3-Acetamido-5-acetylfuran
##JCAMP-DX=4.24
##DATA TYPE=MASS SPECTRUM
##ORIGIN=R.A. FRANICH, FOREST RES. INST., ROTORUA, NEW ZEALAND
##OWNER=NIST Mass Spectrometry Data Center
Collection (C) 2014 copyright by the U.S. Secretary of Commerce
on behalf of the United States of America. All rights reserved.
##CAS REGISTRY NO=95598-28-0
##$NIST MASS SPEC NO=103776
##MOLFORM=C8 H9 N O3
##MW=167
##$NIST SOURCE=MSDC
##XUNITS=M/Z
##YUNITS=RELATIVE INTENSITY
##XFACTOR=1
##YFACTOR=1
##FIRSTX=43
##LASTX=168
##FIRSTY=6800
##MAXX=168
##MINX=43
##MAXY=9999
##MINY=200
##NPOINTS=25
##PEAK TABLE=(XY..XY)
43,6800 44,2500 45,300 54,1500
55,1000 56,200 66,200 67,200
68,500 69,800 80,300 81,1400
82,8000 83,2000 84,200 95,300
96,1400 110,9999 111,700 124,5700
125,8800 126,700 166,2600 167,5700
168,600
##END=
