##TITLE=Pyriproxyfen
##JCAMP-DX=4.24
##DATA TYPE=MASS SPECTRUM
##ORIGIN=Richard Turcotte. Direction des laboratoires d'expertises et d'analyses alimentaires, Quebec, Canada.
##OWNER=NIST Mass Spectrometry Data Center
Collection (C) 2014 copyright by the U.S. Secretary of Commerce
on behalf of the United States of America. All rights reserved.
##CAS REGISTRY NO=95737-68-1
##$NIST MASS SPEC NO=366493
##MOLFORM=C20 H19 N O3
##MW=321
##$NIST SOURCE=MSDC
##XUNITS=M/Z
##YUNITS=RELATIVE INTENSITY
##XFACTOR=1
##YFACTOR=1
##FIRSTX=41
##LASTX=228
##FIRSTY=631
##MAXX=228
##MINX=41
##MAXY=9999
##MINY=20
##NPOINTS=79
##PEAK TABLE=(XY..XY)
41,631 42,40 50,110 51,480
52,80 53,50 54,60 55,40
63,110 64,90 65,80 66,70
67,260 68,40 74,20 75,30
76,100 77,1401 78,1301 79,140
80,70 81,100 82,30 89,30
91,80 92,50 93,80 94,70
95,90 96,1301 97,80 99,20
102,40 103,50 104,60 105,90
106,30 107,20 108,70 109,210
110,70 115,320 116,30 117,40
118,20 119,50 120,80 122,90
127,60 128,240 129,330 130,60
131,40 132,20 134,100 135,60
136,9999 137,921 138,50 139,110
140,20 141,150 142,30 153,20
155,30 157,130 158,60 168,40
169,20 170,60 183,40 185,440
186,661 187,90 197,100 209,50
226,1141 227,180 228,60
##END=
