##TITLE=2-Butanone, (2,4-dinitrophenyl)hydrazone
##JCAMP-DX=4.24
##DATA TYPE=MASS SPECTRUM
##ORIGIN=Japan AIST/NIMC Database- Spectrum MS-IW-5253
##OWNER=NIST Mass Spectrometry Data Center
Collection (C) 2014 copyright by the U.S. Secretary of Commerce
on behalf of the United States of America. All rights reserved.
##CAS REGISTRY NO=958-60-1
##$NIST MASS SPEC NO=242329
##MOLFORM=C10 H12 N4 O4
##MW=252
##$NIST SOURCE=MSDC
##XUNITS=M/Z
##YUNITS=RELATIVE INTENSITY
##XFACTOR=1
##YFACTOR=1
##FIRSTX=14
##LASTX=255
##FIRSTY=10
##MAXX=255
##MINX=14
##MAXY=9999
##MINY=10
##NPOINTS=186
##PEAK TABLE=(XY..XY)
14,10 15,139 26,80 27,699
28,789 29,1659 30,989 31,10
37,50 38,209 39,859 40,149
41,999 42,5549 43,1229 44,90
45,30 46,20 49,10 50,239
51,739 52,449 53,439 54,329
55,3279 56,519 57,499 58,30
59,20 61,80 62,409 63,899
64,449 65,259 66,159 67,60
68,369 69,129 70,709 71,209
72,129 73,5499 74,359 75,769
76,589 77,809 78,1339 79,1809
80,249 81,40 82,50 83,20
84,10 85,10 86,20 87,30
88,109 89,249 90,459 91,789
92,629 93,189 94,70 95,40
96,10 97,10 98,60 99,10
101,20 102,99 103,249 104,339
105,309 106,359 107,179 108,50
109,10 111,20 114,10 115,549
116,589 117,799 118,349 119,389
120,129 121,80 122,1119 123,119
124,10 126,50 127,40 128,109
129,199 130,269 131,479 132,299
133,419 134,119 135,659 136,179
137,99 138,70 141,10 142,50
143,189 144,269 145,389 146,169
147,90 148,60 149,189 150,80
151,40 152,2239 153,289 154,30
155,20 156,20 157,50 158,119
159,139 160,149 161,119 162,90
163,289 164,159 165,479 166,90
167,50 168,20 170,60 171,249
172,99 173,139 174,50 175,319
176,109 177,239 178,60 179,30
180,1049 181,2719 182,319 183,169
184,20 187,10 188,50 189,60
190,149 191,179 192,109 193,20
194,20 195,10 196,189 197,20
201,10 202,30 203,50 204,50
205,80 206,70 207,90 208,10
210,30 216,20 217,339 218,289
219,419 220,60 221,20 222,40
223,99 224,30 233,10 234,10
235,80 236,149 237,50 238,40
250,20 251,10 252,9999 253,1449
254,179 255,10
##END=
