##TITLE=.alpha.-Endosulfan
##JCAMP-DX=4.24
##DATA TYPE=MASS SPECTRUM
##ORIGIN=ACCUSTANDARD Chemicals / NIST MS Data Center.
##OWNER=NIST Mass Spectrometry Data Center
Collection (C) 2014 copyright by the U.S. Secretary of Commerce
on behalf of the United States of America. All rights reserved.
##CAS REGISTRY NO=959-98-8
##$NIST MASS SPEC NO=125483
##MOLFORM=C9 H6 Cl6 O3 S
##MW=404
##$NIST SOURCE=MSDC
##XUNITS=M/Z
##YUNITS=RELATIVE INTENSITY
##XFACTOR=1
##YFACTOR=1
##FIRSTX=15
##LASTX=410
##FIRSTY=667
##MAXX=410
##MINX=15
##MAXY=9999
##MINY=20
##NPOINTS=311
##PEAK TABLE=(XY..XY)
15,667 17,20 18,70 26,368
27,2197 28,1066 29,5584 30,780
31,890 35,237 36,332 37,447
38,660 39,3737 40,736 41,2838
42,802 43,733 44,200 47,485
48,2025 49,1555 50,1846 51,1517
52,154 53,715 54,312 55,570
57,159 59,132 60,544 61,1476
62,1070 63,2532 64,888 65,1246
66,132 67,318 68,547 69,3088
70,310 71,281 72,604 73,2404
74,1768 75,3423 76,291 77,900
78,1674 79,606 80,141 81,237
82,347 83,1526 84,1821 85,3269
86,1706 87,1190 88,259 89,1998
90,209 91,663 92,69 94,299
95,684 96,1317 97,2127 98,1564
99,2116 100,411 101,69 102,2761
103,2594 104,1084 105,236 106,489
107,2144 108,1812 109,2948 110,871
111,1250 112,294 113,464 114,215
115,129 116,129 117,1688 118,599
119,2630 120,2862 121,3021 122,999
123,1264 124,177 125,554 126,88
127,125 129,137 130,866 131,1151
132,900 133,2345 134,928 135,1887
136,1267 137,1368 138,709 139,638
140,88 141,2025 142,88 143,2869
144,553 145,2116 146,761 147,831
148,449 149,382 150,243 151,149
152,184 153,208 154,200 155,581
156,418 157,1928 158,149 159,5719
160,4516 161,3556 162,3046 163,735
164,478 165,953 166,149 167,1530
168,707 169,2327 170,6054 171,2497
172,4141 173,1024 174,857 175,211
177,150 178,321 179,663 180,985
181,1161 182,772 183,1010 184,442
185,430 186,281 187,384 188,213
189,193 190,150 191,2443 192,923
193,5609 194,2240 195,8873 196,2064
197,6431 198,1029 199,1944 200,312
201,1002 202,286 203,1513 204,5029
205,5020 206,5421 207,6999 208,2846
209,3878 210,645 211,1114 212,182
213,447 214,928 215,789 216,1243
217,866 218,776 219,617 220,443
221,548 222,323 223,728 224,218
225,798 226,745 227,2916 228,1954
229,5220 230,2025 231,4118 232,1041
233,2359 234,218 235,6150 236,1476
237,8628 238,218 239,9082 240,3705
241,9999 242,4657 243,7061 244,2681
245,3021 246,880 247,845 248,556
249,226 250,917 251,656 252,893
253,753 254,684 255,517 256,450
257,516 258,505 259,530 260,695
261,3645 262,226 263,5264 264,969
265,6253 266,226 267,5865 268,663
269,5029 270,3033 271,4371 272,4742
273,2240 274,3976 275,3849 276,2391
277,5928 278,1309 279,4716 280,635
281,1812 282,242 283,550 284,104
285,120 286,385 287,191 288,501
289,222 290,287 291,304 292,104
293,966 294,104 295,1497 296,307
297,1295 298,259 299,572 300,161
301,285 302,74 303,93 304,74
305,1739 306,74 307,2769 308,357
309,2009 310,281 311,912 312,208
313,402 314,64 315,208 321,1226
323,2003 324,239 325,1288 326,142
327,509 329,78 337,4277 339,7118
340,1002 341,4860 342,791 343,1620
344,393 345,321 346,141 356,195
358,297 360,260 362,139 369,146
371,191 373,155 375,130 404,149
406,325 408,269 410,140
##END=
