##TITLE=Salicylaldehyde, azine
##JCAMP-DX=4.24
##DATA TYPE=MASS SPECTRUM
##ORIGIN=NIST Mass Spectrometry Data Center, 1994
##OWNER=NIST Mass Spectrometry Data Center
Collection (C) 2014 copyright by the U.S. Secretary of Commerce
on behalf of the United States of America. All rights reserved.
##CAS REGISTRY NO=959-36-4
##$NIST MASS SPEC NO=135507
##MOLFORM=C14 H12 N2 O2
##MW=240
##$NIST SOURCE=MSDC
##XUNITS=M/Z
##YUNITS=RELATIVE INTENSITY
##XFACTOR=1
##YFACTOR=1
##FIRSTX=16
##LASTX=243
##FIRSTY=61
##MAXX=243
##MINX=16
##MAXY=9999
##MINY=5
##NPOINTS=108
##PEAK TABLE=(XY..XY)
16,61 17,52 18,165 26,50
27,336 28,2075 30,58 37,334
38,1263 39,6534 40,520 41,368
42,108 43,34 44,68 49,68
50,1152 51,3051 52,1277 53,1127
54,237 55,275 61,129 62,531
63,2252 64,2104 65,6589 66,3523
67,533 68,80 74,108 75,704
76,659 77,2586 78,1079 79,243
80,167 84,100 87,60 89,122
90,254 91,1622 92,1561 93,5092
94,904 95,370 102,1993 103,379
104,121 105,700 106,233 107,126
115,102 117,78 118,333 119,723
120,3980 121,5992 122,835 127,71
128,88 129,390 130,82 131,118
132,73 133,131 134,127 139,73
140,66 145,206 147,3659 148,373
152,141 153,100 154,86 155,137
156,67 157,57 160,67 164,55
165,369 166,166 167,195 168,160
169,72 177,104 181,121 182,57
183,317 184,218 185,135 194,142
195,405 196,257 197,145 205,80
211,338 212,533 213,260 221,95
223,5630 224,901 225,105 239,1671
240,9999 241,1605 242,20 243,5
##END=
