##TITLE=Naphthacene, 5,12-dihydro-
##JCAMP-DX=4.24
##DATA TYPE=MASS SPECTRUM
##ORIGIN=Japan AIST/NIMC Database- Spectrum MS-NW-6284
##OWNER=NIST Mass Spectrometry Data Center
Collection (C) 2014 copyright by the U.S. Secretary of Commerce
on behalf of the United States of America. All rights reserved.
##CAS REGISTRY NO=959-02-4
##$NIST MASS SPEC NO=229761
##MOLFORM=C18 H14
##MW=230
##$NIST SOURCE=MSDC
##XUNITS=M/Z
##YUNITS=RELATIVE INTENSITY
##XFACTOR=1
##YFACTOR=1
##FIRSTX=27
##LASTX=233
##FIRSTY=50
##MAXX=233
##MINX=27
##MAXY=9999
##MINY=10
##NPOINTS=110
##PEAK TABLE=(XY..XY)
27,50 28,10 38,20 39,119
41,10 43,10 44,10 50,90
51,119 52,40 57,10 61,10
62,90 63,189 64,20 65,30
74,119 75,169 76,139 77,60
78,10 81,20 85,10 86,70
87,149 88,309 89,109 93,30
94,109 95,20 97,10 98,60
99,99 100,329 101,769 102,60
105,10 106,70 107,429 108,90
110,30 111,50 112,199 113,649
114,1559 115,679 116,20 122,30
123,20 124,10 125,20 126,60
127,30 128,20 134,10 135,10
137,30 138,10 139,60 149,30
150,119 151,99 152,90 153,10
161,20 162,30 163,90 164,30
165,60 166,10 173,10 174,70
175,60 176,129 177,30 178,40
179,10 185,10 186,10 187,99
188,60 189,139 190,30 198,50
199,60 200,269 201,189 202,499
203,129 204,20 211,20 212,20
213,119 214,30 215,739 216,149
217,10 221,10 222,30 223,40
224,289 225,239 226,1509 227,649
228,5559 229,7829 230,9999 231,1809
232,189 233,20
##END=
