##TITLE=trans-1,2-Dibenzoylethylene
##JCAMP-DX=4.24
##DATA TYPE=MASS SPECTRUM
##ORIGIN=Japan AIST/NIMC Database- Spectrum MS-IW-4897
##OWNER=NIST Mass Spectrometry Data Center
Collection (C) 2014 copyright by the U.S. Secretary of Commerce
on behalf of the United States of America. All rights reserved.
##CAS REGISTRY NO=959-28-4
##$NIST MASS SPEC NO=240906
##MOLFORM=C16 H12 O2
##MW=236
##$NIST SOURCE=MSDC
##XUNITS=M/Z
##YUNITS=RELATIVE INTENSITY
##XFACTOR=1
##YFACTOR=1
##FIRSTX=26
##LASTX=239
##FIRSTY=20
##MAXX=239
##MINX=26
##MAXY=9999
##MINY=10
##NPOINTS=61
##PEAK TABLE=(XY..XY)
26,20 27,50 28,30 38,10
39,50 50,239 51,999 52,70
53,80 54,40 62,20 63,40
65,10 74,80 75,80 76,159
77,3989 78,309 79,10 82,20
87,10 89,30 90,20 101,10
102,90 103,259 104,50 105,9999
106,859 107,50 110,10 115,80
118,40 130,70 131,599 132,60
133,20 143,10 152,10 159,269
160,30 165,30 178,40 179,80
180,50 181,10 189,10 191,30
192,10 207,309 208,579 209,99
210,10 218,10 220,90 221,10
235,10 236,3729 237,669 238,109
239,10
##END=
