##TITLE=Cyclohexanol, 2-(1-methylethyl)-
##JCAMP-DX=4.24
##DATA TYPE=MASS SPECTRUM
##OWNER=NIST Mass Spectrometry Data Center
Collection (C) 2014 copyright by the U.S. Secretary of Commerce
on behalf of the United States of America. All rights reserved.
##CAS REGISTRY NO=96-07-1
##$NIST MASS SPEC NO=3863
##MOLFORM=C9 H18 O
##MW=142
##$NIST SOURCE=MSDC
##XUNITS=M/Z
##YUNITS=RELATIVE INTENSITY
##XFACTOR=1
##YFACTOR=1
##FIRSTX=14
##LASTX=143
##FIRSTY=10
##MAXX=143
##MINX=14
##MAXY=9999
##MINY=10
##NPOINTS=109
##PEAK TABLE=(XY..XY)
14,10 15,110 16,10 17,20
18,80 19,20 26,50 27,1561
28,550 29,1802 30,90 31,490
32,80 36,20 37,10 38,50
39,1331 40,220 41,4134 42,641
43,3984 44,1161 45,360 46,20
47,10 48,10 49,10 50,50
51,170 52,80 53,821 54,831
55,3954 56,2913 57,8688 58,661
59,310 60,20 61,10 62,10
63,40 64,10 65,190 66,1111
67,3934 68,3603 69,4224 70,1381
71,1181 72,210 73,220 74,20
75,10 76,10 77,10 78,40
79,861 80,991 81,9999 82,7577
83,1451 84,190 85,2232 86,310
87,50 88,10 89,10 91,80
92,10 93,70 94,60 95,2983
96,2252 97,350 98,150 99,1231
100,160 101,10 102,10 103,10
104,10 105,10 106,10 107,50
108,20 109,6256 110,561 111,130
112,10 113,30 114,60 115,10
117,10 118,10 119,10 121,20
122,10 123,170 124,7136 125,781
126,40 127,781 128,70 129,10
136,10 140,10 141,40 142,130
143,10
##END=
