##TITLE=Acetyl valeryl
##JCAMP-DX=4.24
##DATA TYPE=MASS SPECTRUM
##ORIGIN=Japan AIST/NIMC Database- Spectrum MS-NW-3005
##OWNER=NIST Mass Spectrometry Data Center
Collection (C) 2014 copyright by the U.S. Secretary of Commerce
on behalf of the United States of America. All rights reserved.
##CAS REGISTRY NO=96-04-8
##$NIST MASS SPEC NO=231503
##MOLFORM=C7 H12 O2
##MW=128
##$NIST SOURCE=MSDC
##XUNITS=M/Z
##YUNITS=RELATIVE INTENSITY
##XFACTOR=1
##YFACTOR=1
##FIRSTX=13
##LASTX=129
##FIRSTY=10
##MAXX=129
##MINX=13
##MAXY=9999
##MINY=10
##NPOINTS=59
##PEAK TABLE=(XY..XY)
13,10 14,99 15,729 16,10
17,20 18,70 25,10 26,159
27,1239 28,249 29,5089 30,109
31,30 32,10 37,30 38,60
39,679 40,80 41,4689 42,379
43,5859 44,279 45,50 49,10
50,50 51,50 52,20 53,99
54,30 55,389 56,90 57,9999
58,479 59,20 60,90 65,10
67,70 68,10 69,20 71,99
72,109 73,30 74,10 79,10
81,30 82,10 83,40 84,10
85,4659 86,269 87,70 95,60
99,40 109,10 110,10 111,20
113,20 128,559 129,50
##END=
