##TITLE=1-Butanamine, 2-methyl-
##JCAMP-DX=4.24
##DATA TYPE=MASS SPECTRUM
##ORIGIN=Japan AIST/NIMC Database- Spectrum MS-NW-3318
##OWNER=NIST Mass Spectrometry Data Center
Collection (C) 2014 copyright by the U.S. Secretary of Commerce
on behalf of the United States of America. All rights reserved.
##CAS REGISTRY NO=96-15-1
##$NIST MASS SPEC NO=230797
##MOLFORM=C5 H13 N
##MW=87
##$NIST SOURCE=MSDC
##XUNITS=M/Z
##YUNITS=RELATIVE INTENSITY
##XFACTOR=1
##YFACTOR=1
##FIRSTX=15
##LASTX=88
##FIRSTY=40
##MAXX=88
##MINX=15
##MAXY=9999
##MINY=10
##NPOINTS=34
##PEAK TABLE=(XY..XY)
15,40 26,30 27,269 28,319
29,339 30,9999 31,229 32,169
37,10 38,20 39,209 40,30
41,499 42,139 43,119 44,179
45,20 50,10 51,20 52,10
53,30 54,40 55,199 56,159
57,60 58,169 59,20 69,30
70,129 71,10 72,10 86,40
87,379 88,20
##END=
