##TITLE=Butanal, 2-methyl-
##JCAMP-DX=4.24
##DATA TYPE=MASS SPECTRUM
##ORIGIN=NIST Mass Spectrometry Data Center, 1990.
##OWNER=NIST Mass Spectrometry Data Center
Collection (C) 2014 copyright by the U.S. Secretary of Commerce
on behalf of the United States of America. All rights reserved.
##CAS REGISTRY NO=96-17-3
##$NIST MASS SPEC NO=113208
##MOLFORM=C5 H10 O
##MW=86
##$NIST SOURCE=MSDC
##XUNITS=M/Z
##YUNITS=RELATIVE INTENSITY
##XFACTOR=1
##YFACTOR=1
##FIRSTX=13
##LASTX=86
##FIRSTY=42
##MAXX=86
##MINX=13
##MAXY=9999
##MINY=14
##NPOINTS=40
##PEAK TABLE=(XY..XY)
13,42 14,99 15,342 16,14
18,14 25,95 26,916 27,4250
28,1589 29,9303 30,317 31,207
32,52 37,219 38,473 39,3122
40,52 41,9999 42,675 43,1279
44,108 45,58 49,80 50,294
51,312 52,90 53,487 54,58
55,977 56,923 57,8884 58,5805
59,211 67,68 68,53 69,49
70,49 71,443 84,58 86,1132
##END=
