##TITLE=Propane, 1,2,3-tribromo-
##JCAMP-DX=4.24
##DATA TYPE=MASS SPECTRUM
##ORIGIN=Chuck Anderson, Aldrich Chemical Co.
##OWNER=NIST Mass Spectrometry Data Center
Collection (C) 2014 copyright by the U.S. Secretary of Commerce
on behalf of the United States of America. All rights reserved.
##CAS REGISTRY NO=96-11-7
##$NIST MASS SPEC NO=107340
##MOLFORM=C3 H5 Br3
##MW=278
##$NIST SOURCE=MSDC
##XUNITS=M/Z
##YUNITS=RELATIVE INTENSITY
##XFACTOR=1
##YFACTOR=1
##FIRSTX=12
##LASTX=284
##FIRSTY=3
##MAXX=284
##MINX=12
##MAXY=9999
##MINY=1
##NPOINTS=86
##PEAK TABLE=(XY..XY)
12,3 13,7 14,25 15,73
24,7 25,47 26,241 27,477
28,1 35,4 36,82 37,546
38,1117 39,6833 40,474 41,2072
42,69 43,2 44,2 59,3
60,3 61,1 65,1 79,307
80,98 81,307 82,96 83,8
91,71 92,63 93,1519 94,79
95,1444 96,22 99,4 100,7
101,5 103,7 104,37 105,505
106,163 107,496 108,125 109,4
115,7 116,14 117,116 119,4371
120,207 121,4069 122,197 123,5
158,32 159,2 160,62 161,5
162,30 163,2 171,78 172,4
173,154 174,6 175,81 176,2
177,5 183,4 184,12 185,104
186,21 187,190 188,13 189,95
190,1 197,12 199,6079 200,150
201,9999 202,266 203,4723 204,137
205,2 218,3 278,15 280,41
282,41 284,14
##END=
