##TITLE=Propane, 1,2-dibromo-3-chloro-
##JCAMP-DX=4.24
##DATA TYPE=MASS SPECTRUM
##ORIGIN=NIST Mass Spectrometry Data Center, 1998.
##OWNER=NIST Mass Spectrometry Data Center
Collection (C) 2014 copyright by the U.S. Secretary of Commerce
on behalf of the United States of America. All rights reserved.
##CAS REGISTRY NO=96-12-8
##$NIST MASS SPEC NO=291261
##MOLFORM=C3 H5 Br2 Cl
##MW=234
##$NIST SOURCE=MSDC
##XUNITS=M/Z
##YUNITS=RELATIVE INTENSITY
##XFACTOR=1
##YFACTOR=1
##FIRSTX=13
##LASTX=240
##FIRSTY=10
##MAXX=240
##MINX=13
##MAXY=9999
##MINY=10
##NPOINTS=99
##PEAK TABLE=(XY..XY)
13,10 14,20 15,60 24,10
25,60 26,300 27,550 35,80
36,110 37,630 38,1140 39,5469
40,460 41,1440 42,40 47,110
48,100 49,1770 50,60 51,570
52,10 59,10 60,40 61,250
62,80 63,80 64,20 71,10
72,40 73,220 74,10 75,8989
76,430 77,2970 78,150 79,480
80,160 81,480 82,160 83,10
91,80 92,70 93,1110 94,80
95,1010 96,20 103,10 104,50
105,700 106,240 107,680 108,190
109,10 114,20 115,10 116,40
117,70 118,20 119,1030 120,50
121,950 122,40 127,170 128,10
129,220 131,60 139,10 140,20
141,90 142,20 143,110 144,10
145,30 153,30 155,7899 156,310
157,9999 158,370 159,2470 160,140
161,10 162,30 163,10 171,20
173,30 175,20 184,10 185,110
186,20 187,210 188,10 189,100
199,30 201,40 203,20 234,20
236,40 238,20 240,10
##END=
