##TITLE=1,2-Propanediol, 3-chloro-
##JCAMP-DX=4.24
##DATA TYPE=MASS SPECTRUM
##ORIGIN=Japan AIST/NIMC Database- Spectrum MS-NW- 870
##OWNER=NIST Mass Spectrometry Data Center
Collection (C) 2014 copyright by the U.S. Secretary of Commerce
on behalf of the United States of America. All rights reserved.
##CAS REGISTRY NO=96-24-2
##$NIST MASS SPEC NO=227650
##MOLFORM=C3 H7 Cl O2
##MW=110
##$NIST SOURCE=MSDC
##XUNITS=M/Z
##YUNITS=RELATIVE INTENSITY
##XFACTOR=1
##YFACTOR=1
##FIRSTX=12
##LASTX=113
##FIRSTY=20
##MAXX=113
##MINX=12
##MAXY=9999
##MINY=10
##NPOINTS=77
##PEAK TABLE=(XY..XY)
12,20 13,40 14,259 15,2439
16,60 17,119 18,359 19,40
25,70 26,449 27,1639 28,809
29,2239 30,249 31,4169 32,279
33,169 35,119 36,459 37,90
38,139 39,309 40,60 41,179
42,819 43,9999 44,9979 45,859
46,40 47,70 48,109 49,599
50,139 51,209 52,30 53,40
55,199 56,109 57,429 58,70
59,40 60,219 61,9779 62,389
63,169 64,149 65,70 67,20
69,10 70,20 71,40 72,10
73,50 74,149 75,70 76,20
77,40 78,869 79,6969 80,449
81,2299 82,70 83,10 84,10
86,10 87,80 89,10 91,90
92,30 93,60 94,10 105,20
107,50 109,10 110,10 111,20
113,10
##END=
