##TITLE=2-Butanone, oxime
##JCAMP-DX=4.24
##DATA TYPE=MASS SPECTRUM
##ORIGIN=NIST Mass Spectrometry Data Center, 1994
##OWNER=NIST Mass Spectrometry Data Center
Collection (C) 2014 copyright by the U.S. Secretary of Commerce
on behalf of the United States of America. All rights reserved.
##CAS REGISTRY NO=96-29-7
##$NIST MASS SPEC NO=133982
##MOLFORM=C4 H9 N O
##MW=87
##$NIST SOURCE=MSDC
##XUNITS=M/Z
##YUNITS=RELATIVE INTENSITY
##XFACTOR=1
##YFACTOR=1
##FIRSTX=12
##LASTX=89
##FIRSTY=34
##MAXX=89
##MINX=12
##MAXY=9999
##MINY=5
##NPOINTS=51
##PEAK TABLE=(XY..XY)
12,34 13,78 14,441 15,2873
16,95 17,150 18,433 19,116
26,1731 27,5582 28,4019 29,3667
30,2122 31,2429 32,18 33,40
37,297 38,606 39,2489 40,1165
41,3376 42,9999 43,1420 44,929
45,211 46,220 49,86 50,375
51,527 52,462 53,416 54,964
55,1635 56,543 57,86 58,3587
59,196 60,156 64,29 66,35
68,1451 69,193 70,1285 71,29
72,1119 73,53 84,18 86,2025
87,6530 88,310 89,5
##END=
