##TITLE=2-Chloro-N-methylacetamide
##JCAMP-DX=4.24
##DATA TYPE=MASS SPECTRUM
##ORIGIN=NIST Mass Spectrometry Data Center, 1994
##OWNER=NIST Mass Spectrometry Data Center
Collection (C) 2014 copyright by the U.S. Secretary of Commerce
on behalf of the United States of America. All rights reserved.
##CAS REGISTRY NO=96-30-0
##$NIST MASS SPEC NO=135592
##MOLFORM=C3 H6 Cl N O
##MW=107
##$NIST SOURCE=MSDC
##XUNITS=M/Z
##YUNITS=RELATIVE INTENSITY
##XFACTOR=1
##YFACTOR=1
##FIRSTX=12
##LASTX=110
##FIRSTY=69
##MAXX=110
##MINX=12
##MAXY=9999
##MINY=16
##NPOINTS=48
##PEAK TABLE=(XY..XY)
12,69 13,255 14,779 15,1537
16,27 24,19 25,54 26,84
27,279 28,167 29,506 30,1425
35,188 36,83 37,73 38,82
39,79 40,184 41,284 42,1690
43,318 44,121 47,175 48,350
49,1615 50,151 51,546 52,63
53,16 54,76 55,47 56,105
57,16 58,9999 59,100 60,35
62,19 64,30 72,1445 73,46
76,151 77,388 78,86 79,111
107,1926 108,110 109,625 110,28
##END=
