##TITLE=1,3-Cyclopentadiene, 5-methyl-
##JCAMP-DX=4.24
##DATA TYPE=MASS SPECTRUM
##OWNER=NIST Mass Spectrometry Data Center
Collection (C) 2014 copyright by the U.S. Secretary of Commerce
on behalf of the United States of America. All rights reserved.
##CAS REGISTRY NO=96-38-8
##$NIST MASS SPEC NO=419
##MOLFORM=C6 H8
##MW=80
##$NIST SOURCE=MSDC
##XUNITS=M/Z
##YUNITS=RELATIVE INTENSITY
##XFACTOR=1
##YFACTOR=1
##FIRSTX=12
##LASTX=81
##FIRSTY=30
##MAXX=81
##MINX=12
##MAXY=9999
##MINY=30
##NPOINTS=36
##PEAK TABLE=(XY..XY)
12,30 14,40 15,210 25,40
26,430 27,1732 28,270 29,40
31,50 36,40 37,450 38,741
39,2783 40,681 41,500 49,170
50,1041 51,1401 52,1221 53,711
54,260 61,100 62,160 63,320
64,50 65,981 66,40 73,60
74,190 75,60 76,50 77,3593
78,831 79,9999 80,5615 81,430
##END=
