##TITLE=Acetic acid, bromo-, methyl ester
##JCAMP-DX=4.24
##DATA TYPE=MASS SPECTRUM
##ORIGIN=Japan AIST/NIMC Database- Spectrum MS-NW-4942
##OWNER=NIST Mass Spectrometry Data Center
Collection (C) 2014 copyright by the U.S. Secretary of Commerce
on behalf of the United States of America. All rights reserved.
##CAS REGISTRY NO=96-32-2
##$NIST MASS SPEC NO=228316
##MOLFORM=C3 H5 Br O2
##MW=152
##$NIST SOURCE=MSDC
##XUNITS=M/Z
##YUNITS=RELATIVE INTENSITY
##XFACTOR=1
##YFACTOR=1
##FIRSTX=12
##LASTX=155
##FIRSTY=80
##MAXX=155
##MINX=12
##MAXY=9999
##MINY=10
##NPOINTS=67
##PEAK TABLE=(XY..XY)
12,80 13,319 14,1349 15,5669
16,70 17,10 18,30 24,10
25,40 26,90 27,399 28,459
29,5439 30,269 31,649 32,60
33,20 34,10 35,30 36,239
37,10 38,80 40,30 41,349
42,2919 43,579 44,80 45,1129
46,30 49,10 50,10 57,10
59,9999 60,229 61,50 72,3509
73,189 74,229 75,50 79,269
80,129 81,259 82,139 83,10
91,139 92,269 93,3999 94,369
95,3799 96,139 97,20 107,30
108,2239 109,90 110,2189 111,60
120,279 121,2509 122,329 123,2509
124,60 125,10 151,10 152,1439
153,70 154,1409 155,60
##END=
