##TITLE=Cyclopentane, methyl-
##JCAMP-DX=4.24
##DATA TYPE=MASS SPECTRUM
##ORIGIN=Japan AIST/NIMC Database- Spectrum MS-NW-1064
##OWNER=NIST Mass Spectrometry Data Center
Collection (C) 2014 copyright by the U.S. Secretary of Commerce
on behalf of the United States of America. All rights reserved.
##CAS REGISTRY NO=96-37-7
##$NIST MASS SPEC NO=227793
##MOLFORM=C6 H12
##MW=84
##$NIST SOURCE=MSDC
##XUNITS=M/Z
##YUNITS=RELATIVE INTENSITY
##XFACTOR=1
##YFACTOR=1
##FIRSTX=14
##LASTX=86
##FIRSTY=20
##MAXX=86
##MINX=14
##MAXY=9999
##MINY=10
##NPOINTS=45
##PEAK TABLE=(XY..XY)
14,20 15,70 26,119 27,999
28,99 29,719 30,20 31,10
37,40 38,119 39,1399 40,359
41,4949 42,2469 43,1119 44,30
49,10 50,109 51,149 52,60
53,279 54,319 55,2309 56,9999
57,609 58,10 61,20 62,20
63,30 65,70 66,30 67,229
68,409 69,3539 70,189 71,10
73,10 74,10 77,30 79,30
81,30 83,80 84,1749 85,119
86,20
##END=
