##TITLE=1,3-Dioxolan-2-one
##JCAMP-DX=4.24
##DATA TYPE=MASS SPECTRUM
##ORIGIN=Japan AIST/NIMC Database- Spectrum MS-NW-4916
##OWNER=NIST Mass Spectrometry Data Center
Collection (C) 2014 copyright by the U.S. Secretary of Commerce
on behalf of the United States of America. All rights reserved.
##CAS REGISTRY NO=96-49-1
##$NIST MASS SPEC NO=229208
##MOLFORM=C3 H4 O3
##MW=88
##$NIST SOURCE=MSDC
##XUNITS=M/Z
##YUNITS=RELATIVE INTENSITY
##XFACTOR=1
##YFACTOR=1
##FIRSTX=12
##LASTX=90
##FIRSTY=40
##MAXX=90
##MINX=12
##MAXY=9999
##MINY=10
##NPOINTS=30
##PEAK TABLE=(XY..XY)
12,40 13,99 14,579 15,3229
16,539 17,20 18,60 25,30
26,199 27,199 28,439 29,9999
30,1709 31,429 32,30 33,99
41,50 42,649 43,5439 44,1749
45,359 56,10 58,559 59,20
62,10 73,99 87,20 88,2549
89,119 90,20
##END=
