##TITLE=1H-Pyrrole, 1-methyl-
##JCAMP-DX=4.24
##DATA TYPE=MASS SPECTRUM
##ORIGIN=Japan AIST/NIMC Database- Spectrum MS-NW-1140
##OWNER=NIST Mass Spectrometry Data Center
Collection (C) 2014 copyright by the U.S. Secretary of Commerce
on behalf of the United States of America. All rights reserved.
##CAS REGISTRY NO=96-54-8
##$NIST MASS SPEC NO=230408
##MOLFORM=C5 H7 N
##MW=81
##$NIST SOURCE=MSDC
##XUNITS=M/Z
##YUNITS=RELATIVE INTENSITY
##XFACTOR=1
##YFACTOR=1
##FIRSTX=13
##LASTX=83
##FIRSTY=10
##MAXX=83
##MINX=13
##MAXY=9999
##MINY=10
##NPOINTS=39
##PEAK TABLE=(XY..XY)
13,10 14,30 15,449 25,30
26,289 27,769 28,159 29,10
30,20 36,20 37,269 38,479
39,2229 40,469 41,379 42,2319
43,60 44,50 48,10 49,109
50,469 51,609 52,429 53,2639
54,1189 55,1479 56,50 63,30
64,99 65,20 66,269 67,20
76,30 78,579 79,149 80,7259
81,9999 82,589 83,15
##END=
