##TITLE=Santonox
##JCAMP-DX=4.24
##DATA TYPE=MASS SPECTRUM
##ORIGIN=Japan AIST/NIMC Database- Spectrum MS-NW-5951
##OWNER=NIST Mass Spectrometry Data Center
Collection (C) 2014 copyright by the U.S. Secretary of Commerce
on behalf of the United States of America. All rights reserved.
##CAS REGISTRY NO=96-69-5
##$NIST MASS SPEC NO=233017
##MOLFORM=C22 H30 O2 S
##MW=358
##$NIST SOURCE=MSDC
##XUNITS=M/Z
##YUNITS=RELATIVE INTENSITY
##XFACTOR=1
##YFACTOR=1
##FIRSTX=15
##LASTX=362
##FIRSTY=10
##MAXX=362
##MINX=15
##MAXY=9999
##MINY=10
##NPOINTS=271
##PEAK TABLE=(XY..XY)
15,10 27,70 28,40 29,139
39,169 40,20 41,399 42,20
43,109 44,10 45,199 47,30
50,20 51,80 52,40 53,99
54,10 55,129 56,20 57,569
58,30 59,80 61,10 62,10
63,40 64,20 65,119 66,30
67,80 68,10 69,159 70,10
71,30 73,20 75,20 76,30
77,249 78,90 79,129 80,20
81,20 82,10 83,30 84,10
85,30 87,40 88,10 89,40
90,20 91,309 92,50 93,70
94,20 95,40 96,10 97,40
98,10 99,20 100,10 101,20
102,40 103,119 104,60 105,229
106,40 107,99 108,70 109,99
110,20 111,60 112,30 113,20
114,10 115,229 116,80 117,139
118,50 119,159 120,40 121,169
122,50 123,60 124,40 125,40
126,20 127,90 128,259 129,229
130,99 131,109 132,60 133,179
134,70 135,90 136,699 137,109
138,30 139,299 140,60 141,50
142,30 143,50 144,40 145,99
146,109 147,209 148,149 149,199
150,339 151,209 152,139 153,259
154,40 155,30 156,10 157,20
158,10 159,30 160,40 161,159
162,219 163,109 164,589 165,169
166,30 167,50 168,10 169,10
170,10 171,209 172,60 173,20
175,10 176,10 177,40 178,60
179,499 180,179 181,169 182,30
183,20 184,10 185,10 187,10
189,20 190,10 191,20 192,10
193,99 194,99 195,499 196,139
197,50 198,20 199,10 200,10
201,20 202,20 203,20 204,10
205,20 206,10 207,20 208,20
209,20 210,10 211,20 212,20
213,20 214,10 215,20 216,10
217,10 218,10 219,20 220,10
221,20 222,10 223,10 224,10
225,20 226,30 227,20 228,20
229,20 230,20 231,10 232,10
233,10 235,20 236,10 237,20
238,20 239,20 240,10 241,20
242,20 243,30 244,30 245,30
246,10 247,10 249,10 250,10
251,20 252,20 253,20 254,20
255,20 256,10 257,20 258,10
259,40 260,10 265,10 266,10
267,10 268,10 269,20 270,10
271,10 283,10 284,10 285,20
286,10 287,50 288,20 295,20
299,20 300,10 301,40 302,30
309,10 313,20 314,10 315,90
316,30 317,10 325,20 326,10
327,50 328,30 329,50 330,30
331,20 332,10 333,10 335,10
336,10 337,10 340,10 341,20
342,60 343,2159 344,579 345,189
346,50 347,10 350,10 351,10
352,10 353,10 354,10 355,10
356,40 357,119 358,9999 359,2519
360,829 361,159 362,30
##END=
