##TITLE=2,4-Di-tert-butylphenol
##JCAMP-DX=4.24
##DATA TYPE=MASS SPECTRUM
##ORIGIN=Japan AIST/NIMC Database- Spectrum MS-NW-1860
##OWNER=NIST Mass Spectrometry Data Center
Collection (C) 2014 copyright by the U.S. Secretary of Commerce
on behalf of the United States of America. All rights reserved.
##CAS REGISTRY NO=96-76-4
##$NIST MASS SPEC NO=228966
##MOLFORM=C14 H22 O
##MW=206
##$NIST SOURCE=MSDC
##XUNITS=M/Z
##YUNITS=RELATIVE INTENSITY
##XFACTOR=1
##YFACTOR=1
##FIRSTX=15
##LASTX=208
##FIRSTY=40
##MAXX=208
##MINX=15
##MAXY=9999
##MINY=10
##NPOINTS=117
##PEAK TABLE=(XY..XY)
15,40 26,10 27,229 28,80
29,759 30,10 38,20 39,489
40,50 41,1589 42,50 43,90
45,10 46,20 50,50 51,259
52,99 53,189 54,10 55,239
56,40 57,3249 58,139 59,20
60,239 62,20 63,129 64,109
65,259 66,169 67,80 69,20
70,10 72,70 73,299 74,579
75,40 76,30 77,429 78,99
79,189 80,30 81,20 87,50
88,209 89,80 90,30 91,569
92,60 93,50 94,30 95,80
101,10 102,40 103,129 104,40
105,219 106,40 107,379 108,30
109,20 114,10 115,399 116,139
117,189 118,40 119,149 120,50
121,149 122,10 123,20 126,10
127,80 128,219 129,129 130,30
131,119 132,50 133,189 134,70
135,259 136,30 139,10 141,80
142,50 143,80 144,30 145,60
146,30 147,229 148,80 149,99
150,30 153,10 155,10 157,20
158,20 159,30 160,20 161,209
162,30 163,499 164,60 173,10
175,419 176,70 177,80 178,10
189,30 190,20 191,9999 192,1439
193,119 205,10 206,1559 207,239
208,20
##END=
