##TITLE=L-Valine, N-acetyl-
##JCAMP-DX=4.24
##DATA TYPE=MASS SPECTRUM
##ORIGIN=H.FR.GRUTZMACHER HAMBURG UNIV., HAMBURG, GERMANY, F.R.G.
##OWNER=NIST Mass Spectrometry Data Center
Collection (C) 2014 copyright by the U.S. Secretary of Commerce
on behalf of the United States of America. All rights reserved.
##CAS REGISTRY NO=96-81-1
##$NIST MASS SPEC NO=26158
##MOLFORM=C7 H13 N O3
##MW=159
##$NIST SOURCE=MSDC
##XUNITS=M/Z
##YUNITS=RELATIVE INTENSITY
##XFACTOR=1
##YFACTOR=1
##FIRSTX=14
##LASTX=160
##FIRSTY=220
##MAXX=160
##MINX=14
##MAXY=9999
##MINY=10
##NPOINTS=68
##PEAK TABLE=(XY..XY)
14,220 15,1500 25,10 26,240
27,1800 28,4670 29,940 30,1240
31,110 32,70 38,200 39,1430
40,430 41,2380 42,1270 43,9999
44,1030 45,470 46,310 50,30
51,80 52,100 53,170 54,340
55,1860 56,1560 57,2910 58,780
59,190 60,2430 61,90 67,40
68,140 69,220 70,650 71,1350
72,8050 73,490 74,3080 75,920
76,90 82,480 83,140 84,210
85,90 86,30 87,30 88,220
97,80 98,210 99,6530 100,750
101,130 102,190 113,190 114,3710
115,630 116,290 117,1610 118,80
126,150 127,10 141,10 142,170
143,20 145,20 159,280 160,150
##END=
