##TITLE=Borane, triphenyl-
##JCAMP-DX=4.24
##DATA TYPE=MASS SPECTRUM
##ORIGIN=D.HENNEBERG, MAX-PLANCK INSTITUTE, MULHEIM, WEST GERMANY
##OWNER=NIST Mass Spectrometry Data Center
Collection (C) 2014 copyright by the U.S. Secretary of Commerce
on behalf of the United States of America. All rights reserved.
##CAS REGISTRY NO=960-71-4
##$NIST MASS SPEC NO=62176
##MOLFORM=C18 H15 B
##MW=242
##$NIST SOURCE=MSDC
##XUNITS=M/Z
##YUNITS=RELATIVE INTENSITY
##XFACTOR=1
##YFACTOR=1
##FIRSTX=26
##LASTX=245
##FIRSTY=94
##MAXX=245
##MINX=26
##MAXY=9999
##MINY=1
##NPOINTS=174
##PEAK TABLE=(XY..XY)
26,94 31,3 36,47 37,187
38,26 39,154 40,4 41,5
42,3 43,6 44,25 45,1
48,3 49,20 50,156 51,358
52,101 53,16 54,3 55,5
56,5 57,4 60,174 61,727
62,141 63,292 64,24 65,23
66,10 67,8 68,9 69,4
71,15 72,5 73,51 74,134
75,114 76,65 77,180 78,349
79,33 81,24 82,23 83,2
84,59 85,257 86,201 87,623
88,78 89,152 90,10 91,26
94,99 95,22 96,7 97,28
98,54 99,74 100,117 101,36
102,35 103,13 104,8 106,127
107,176 108,31 109,52 110,62
111,194 112,392 113,1271 114,133
115,87 116,15 117,35 118,154
119,318 120,189 121,626 122,22
123,16 124,37 125,41 126,61
127,29 128,39 129,7 132,3
133,7 134,15 135,41 136,364
137,1425 138,308 139,549 140,59
141,5 147,7 148,20 149,24
150,48 151,39 152,52 153,39
154,68 155,14 156,6 157,3
158,8 159,25 160,87 161,362
162,979 163,5643 164,9999 165,6482
166,757 167,41 168,3 172,5
173,7 174,26 175,17 176,22
177,9 178,7 181,5 182,10
183,3 184,7 185,28 186,28
187,99 188,25 189,22 190,7
191,3 197,4 198,17 199,19
200,44 201,25 202,19 203,6
208,4 209,8 210,19 211,83
212,60 213,166 214,85 215,36
216,7 222,5 223,7 224,17
225,25 226,25 227,56 228,29
229,5 233,4 234,9 235,44
236,72 237,187 238,175 239,277
240,1004 241,1817 242,5344 243,1020
244,90 245,4
##END=
