##TITLE=Androst-2-en-17-one, (5.alpha.)-
##JCAMP-DX=4.24
##DATA TYPE=MASS SPECTRUM
##ORIGIN=NIST Mass Spectrometry Data Center
##OWNER=NIST Mass Spectrometry Data Center
Collection (C) 2014 copyright by the U.S. Secretary of Commerce
on behalf of the United States of America. All rights reserved.
##CAS REGISTRY NO=963-75-7
##$NIST MASS SPEC NO=332812
##MOLFORM=C19 H28 O
##MW=272
##$NIST SOURCE=MSDC
##XUNITS=M/Z
##YUNITS=RELATIVE INTENSITY
##XFACTOR=1
##YFACTOR=1
##FIRSTX=27
##LASTX=273
##FIRSTY=380
##MAXX=273
##MINX=27
##MAXY=9999
##MINY=120
##NPOINTS=96
##PEAK TABLE=(XY..XY)
27,380 29,631 39,1141 41,2853
42,250 43,440 51,250 52,150
53,1281 54,611 55,2272 65,861
66,350 67,2472 68,370 77,2752
78,621 79,4364 80,751 81,1852
82,340 91,4754 92,1061 93,3283
94,1121 95,1171 96,240 97,1992
98,170 103,240 104,270 105,3013
106,2793 107,2192 115,651 117,811
118,410 119,1411 120,811 121,831
122,2712 123,931 128,230 129,370
130,250 131,821 132,290 133,1101
134,671 143,440 145,861 146,420
147,1631 150,430 157,280 158,370
159,1051 160,490 161,5015 162,2012
163,450 171,220 172,140 173,490
174,991 175,701 176,861 177,240
183,160 185,330 187,280 188,180
189,601 190,4024 191,741 197,150
199,310 200,460 201,681 202,240
203,601 213,420 214,140 216,530
217,791 218,9999 219,1932 220,190
228,290 229,390 239,460 244,270
254,120 257,540 272,6146 273,1301
##END=
