##TITLE=Androstan-17-one, (5.alpha.)-
##JCAMP-DX=4.24
##DATA TYPE=MASS SPECTRUM
##ORIGIN=CARL DJERASSI DEPT OF CHEM STANFORD UNIV STANFORD CALIF 94305
##OWNER=NIST Mass Spectrometry Data Center
Collection (C) 2014 copyright by the U.S. Secretary of Commerce
on behalf of the United States of America. All rights reserved.
##CAS REGISTRY NO=963-74-6
##$NIST MASS SPEC NO=47909
##MOLFORM=C19 H30 O
##MW=274
##$NIST SOURCE=MSDC
##XUNITS=M/Z
##YUNITS=RELATIVE INTENSITY
##XFACTOR=1
##YFACTOR=1
##FIRSTX=39
##LASTX=276
##FIRSTY=800
##MAXX=276
##MINX=39
##MAXY=9999
##MINY=100
##NPOINTS=111
##PEAK TABLE=(XY..XY)
39,800 40,200 41,3500 42,200
43,500 50,100 51,100 52,100
53,1200 54,400 55,3400 56,200
57,100 65,400 66,200 67,4200
68,900 69,800 74,100 77,1100
78,300 79,2400 80,500 81,3100
82,500 83,500 91,1700 92,400
93,2300 94,700 95,2400 96,400
97,1900 98,100 103,100 104,100
105,1200 106,400 107,1500 108,3100
109,4900 110,1200 111,100 115,200
116,100 117,200 118,100 119,700
120,500 121,1600 122,1600 123,800
124,600 129,100 131,300 132,100
133,600 134,400 135,1100 136,600
137,200 145,400 146,400 147,1500
148,1700 149,2200 150,600 151,700
152,200 159,300 160,300 161,1100
162,700 163,400 164,1100 165,400
166,100 173,300 174,100 175,1500
176,400 177,100 178,300 189,200
190,200 191,100 199,200 201,100
202,100 203,1500 204,300 215,1300
216,300 217,1800 218,2300 219,400
230,3500 231,900 232,500 241,1500
242,300 246,100 256,900 257,400
259,2000 260,400 272,300 273,100
274,9999 275,2100 276,200
##END=
