##TITLE=Benz[c]acridine, 7,9-dimethyl-
##JCAMP-DX=4.24
##DATA TYPE=MASS SPECTRUM
##ORIGIN=RADIAN CORP
##OWNER=NIST Mass Spectrometry Data Center
Collection (C) 2014 copyright by the U.S. Secretary of Commerce
on behalf of the United States of America. All rights reserved.
##CAS REGISTRY NO=963-89-3
##$NIST MASS SPEC NO=76096
##MOLFORM=C19 H15 N
##MW=257
##$NIST SOURCE=MSDC
##XUNITS=M/Z
##YUNITS=RELATIVE INTENSITY
##XFACTOR=1
##YFACTOR=1
##FIRSTX=27
##LASTX=259
##FIRSTY=130
##MAXX=259
##MINX=27
##MAXY=9999
##MINY=10
##NPOINTS=59
##PEAK TABLE=(XY..XY)
27,130 39,230 50,70 51,270
63,320 65,10 74,30 75,240
76,170 77,260 87,210 88,300
89,160 94,150 95,10 100,430
101,240 102,130 107,230 108,690
112,140 113,490 114,700 120,290
121,1700 126,620 127,240 129,970
139,60 150,100 151,140 152,50
163,20 189,20 201,30 202,180
213,180 214,170 215,260 216,120
226,240 227,260 228,390 229,170
230,240 231,40 239,170 240,700
241,1420 242,2330 243,260 252,300
253,330 254,1300 255,640 256,1960
257,9999 258,2080 259,190
##END=
