##TITLE=trans-2-Methyl-4-hexen-3-ol
##JCAMP-DX=4.24
##DATA TYPE=MASS SPECTRUM
##ORIGIN=NIST Mass Spectrometry Data Center, 1990.
##OWNER=NIST Mass Spectrometry Data Center
Collection (C) 2014 copyright by the U.S. Secretary of Commerce
on behalf of the United States of America. All rights reserved.
##CAS REGISTRY NO=96346-76-8
##$NIST MASS SPEC NO=113760
##MOLFORM=C7 H14 O
##MW=114
##$NIST SOURCE=MSDC
##XUNITS=M/Z
##YUNITS=RELATIVE INTENSITY
##XFACTOR=1
##YFACTOR=1
##FIRSTX=15
##LASTX=114
##FIRSTY=181
##MAXX=114
##MINX=15
##MAXY=9999
##MINY=89
##NPOINTS=34
##PEAK TABLE=(XY..XY)
15,181 26,134 27,1358 28,695
29,577 31,286 32,122 38,176
39,1522 40,251 41,2338 42,383
43,3589 44,172 45,144 50,127
51,197 52,104 53,1128 54,158
55,533 56,104 57,307 67,176
69,489 71,9999 72,496 73,89
77,124 79,284 81,485 96,150
99,130 114,231
##END=
