##TITLE=5-Amino-3-(2-thienyl)pyrazole
##JCAMP-DX=4.24
##DATA TYPE=MASS SPECTRUM
##ORIGIN=NIST Mass Spectrometry Data Center, 1994
##OWNER=NIST Mass Spectrometry Data Center
Collection (C) 2014 copyright by the U.S. Secretary of Commerce
on behalf of the United States of America. All rights reserved.
##CAS REGISTRY NO=96799-03-0
##$NIST MASS SPEC NO=136280
##MOLFORM=C7 H7 N3 S
##MW=165
##$NIST SOURCE=MSDC
##XUNITS=M/Z
##YUNITS=RELATIVE INTENSITY
##XFACTOR=1
##YFACTOR=1
##FIRSTX=13
##LASTX=168
##FIRSTY=42
##MAXX=168
##MINX=13
##MAXY=9999
##MINY=5
##NPOINTS=109
##PEAK TABLE=(XY..XY)
13,42 14,39 15,35 16,75
17,57 18,49 26,137 27,180
28,1760 29,719 30,99 31,55
32,202 33,34 37,299 38,552
39,1169 40,198 41,256 42,114
43,555 44,91 45,1496 46,64
47,93 49,157 50,616 51,698
52,690 53,248 54,285 55,71
56,78 57,454 58,666 59,142
60,131 61,222 62,460 63,821
64,254 65,1224 66,326 67,248
68,71 69,1153 70,416 71,166
72,102 73,87 74,322 75,343
76,355 77,355 78,295 79,121
80,115 81,263 82,368 83,245
84,266 85,123 86,66 87,42
88,38 89,71 90,165 91,109
92,145 93,246 94,112 95,231
96,516 97,207 98,94 99,269
100,64 102,120 103,123 104,546
105,145 106,41 107,138 108,1204
109,1650 110,677 111,278 112,46
119,35 120,146 121,258 122,295
123,358 124,127 125,154 126,44
133,76 134,487 136,5480 137,634
138,305 139,49 145,5 148,160
149,44 165,9999 166,967 167,485
168,39
##END=
