##TITLE=3-Amino-5-(2-furyl)pyrazole
##JCAMP-DX=4.24
##DATA TYPE=MASS SPECTRUM
##ORIGIN=NIST Mass Spectrometry Data Center, 1994
##OWNER=NIST Mass Spectrometry Data Center
Collection (C) 2014 copyright by the U.S. Secretary of Commerce
on behalf of the United States of America. All rights reserved.
##CAS REGISTRY NO=96799-02-9
##$NIST MASS SPEC NO=136765
##MOLFORM=C7 H7 N3 O
##MW=149
##$NIST SOURCE=MSDC
##XUNITS=M/Z
##YUNITS=RELATIVE INTENSITY
##XFACTOR=1
##YFACTOR=1
##FIRSTX=12
##LASTX=151
##FIRSTY=22
##MAXX=151
##MINX=12
##MAXY=9999
##MINY=22
##NPOINTS=71
##PEAK TABLE=(XY..XY)
12,22 13,45 15,87 17,70
18,100 25,45 26,163 27,250
28,226 29,964 30,102 31,117
36,45 37,345 38,737 39,2303
40,391 41,632 42,240 43,468
44,147 46,221 47,181 49,83
50,351 51,576 52,1069 53,381
54,238 55,247 56,37 57,55
61,213 62,531 63,1307 64,716
65,2602 66,1425 67,1018 68,187
75,394 76,145 77,242 78,269
79,962 80,150 81,75 82,59
83,77 88,41 89,108 90,186
91,182 92,1192 93,698 94,270
95,68 102,60 103,42 104,43
105,174 106,41 107,91 108,37
118,125 120,2297 121,262 122,26
149,9999 150,906 151,72
##END=
