##TITLE=9-Octadecenoic acid, (E)-, TMS derivative
##JCAMP-DX=4.24
##DATA TYPE=MASS SPECTRUM
##ORIGIN=NIST Mass Spectrometry Data Center
##OWNER=NIST Mass Spectrometry Data Center
Collection (C) 2014 copyright by the U.S. Secretary of Commerce
on behalf of the United States of America. All rights reserved.
##CAS REGISTRY NO=96851-47-7
##$NIST MASS SPEC NO=333226
##MOLFORM=C21 H42 O2 Si
##MW=354
##$NIST SOURCE=MSDC
##XUNITS=M/Z
##YUNITS=RELATIVE INTENSITY
##XFACTOR=1
##YFACTOR=1
##FIRSTX=15
##LASTX=357
##FIRSTY=10
##MAXX=357
##MINX=15
##MAXY=9999
##MINY=10
##NPOINTS=267
##PEAK TABLE=(XY..XY)
15,10 26,10 27,270 28,80
29,751 30,20 31,10 39,430
40,100 41,3233 42,601 43,2692
44,190 45,701 46,50 47,360
48,20 49,10 50,10 51,20
52,20 53,440 54,1261 55,5665
56,1121 57,1651 58,240 59,260
60,110 61,601 62,40 63,30
65,160 66,140 67,2452 68,961
69,2492 70,631 71,370 72,430
73,9999 74,1071 75,9459 76,691
77,581 78,100 79,841 80,440
81,2342 82,1291 83,1962 84,2042
85,430 86,140 87,90 88,80
89,350 90,50 91,400 92,120
93,550 94,400 95,1952 96,2793
97,1832 98,1972 99,420 100,50
101,140 102,30 103,70 104,20
105,330 106,100 107,350 108,260
109,1101 110,1191 111,801 112,420
113,110 114,30 115,110 116,1031
117,9499 118,971 119,721 120,130
121,410 122,170 123,1021 124,571
125,300 126,100 127,60 129,8117
130,1061 131,1321 132,1792 133,761
134,310 135,280 136,90 137,631
138,430 139,140 140,50 141,80
142,90 143,500 144,120 145,3653
146,480 147,350 148,140 149,120
150,60 151,380 152,410 153,100
154,30 155,410 156,130 157,270
158,120 159,290 160,50 161,120
162,40 163,50 164,60 165,230
166,300 167,100 168,70 169,300
170,140 171,470 172,210 173,270
174,80 175,70 176,20 177,30
178,30 179,110 180,731 181,160
182,30 183,290 184,70 185,851
186,240 187,210 188,100 189,50
190,10 191,20 192,10 193,100
194,100 195,30 196,10 197,80
198,20 199,951 200,180 201,250
202,50 203,30 204,10 205,10
206,10 207,110 208,60 209,40
210,10 211,80 212,20 213,180
214,40 215,60 216,10 217,10
218,10 219,10 220,190 221,250
222,1091 223,210 224,20 225,50
226,10 227,230 228,50 229,70
230,20 231,10 233,10 235,130
236,170 237,30 239,40 240,10
241,210 242,50 243,60 244,20
245,20 246,60 247,10 249,30
250,10 253,50 254,10 255,120
256,30 257,120 258,60 259,10
263,20 264,871 265,180 266,20
267,40 268,10 269,60 270,20
271,80 272,90 273,20 274,10
281,30 282,10 283,40 284,10
285,20 286,60 287,10 295,110
296,30 297,40 298,10 299,50
300,10 309,40 310,10 311,110
312,30 313,20 314,10 323,20
324,10 325,30 326,10 336,10
337,20 339,7006 340,1872 341,520
342,80 343,10 353,40 354,711
355,200 356,60 357,10
##END=
