##TITLE=Benzenesulfonyl chloride, 4-chloro-3-nitro-
##JCAMP-DX=4.24
##DATA TYPE=MASS SPECTRUM
##ORIGIN=MASS SPECTROMETRY CENTER, UNIV. OF UTAH ALDRICH C05940-8
##OWNER=NIST Mass Spectrometry Data Center
Collection (C) 2014 copyright by the U.S. Secretary of Commerce
on behalf of the United States of America. All rights reserved.
##CAS REGISTRY NO=97-08-5
##$NIST MASS SPEC NO=52526
##MOLFORM=C6 H3 Cl2 N O4 S
##MW=255
##$NIST SOURCE=MSDC
##XUNITS=M/Z
##YUNITS=RELATIVE INTENSITY
##XFACTOR=1
##YFACTOR=1
##FIRSTX=14
##LASTX=259
##FIRSTY=32
##MAXX=259
##MINX=14
##MAXY=9999
##MINY=29
##NPOINTS=85
##PEAK TABLE=(XY..XY)
14,32 26,30 27,241 28,1061
29,141 30,2077 32,106 35,250
36,652 37,589 38,755 39,232
44,146 45,331 46,360 47,31
48,377 49,380 50,1233 51,313
52,167 53,191 57,73 60,132
61,431 62,729 63,2026 64,635
65,139 69,381 72,208 73,1045
74,3375 75,5777 76,898 77,135
79,172 81,29 83,36 84,1203
85,409 86,514 87,248 88,59
93,30 95,545 97,189 98,386
99,185 100,152 107,194 108,176
109,2496 110,3478 111,1178 112,1190
113,239 114,30 121,69 126,1278
127,163 128,468 129,116 133,654
135,417 137,31 145,258 147,175
156,3244 157,366 158,1303 159,156
160,127 174,30 209,31 220,9999
221,854 222,3758 223,352 224,218
255,1751 256,179 257,1286 258,78
259,293
##END=
