##TITLE=Dichlofenthion
##JCAMP-DX=4.24
##DATA TYPE=MASS SPECTRUM
##ORIGIN=NIST Mass Spectrometry Data Center, 1995
##OWNER=NIST Mass Spectrometry Data Center
Collection (C) 2014 copyright by the U.S. Secretary of Commerce
on behalf of the United States of America. All rights reserved.
##CAS REGISTRY NO=97-17-6
##$NIST MASS SPEC NO=245231
##MOLFORM=C10 H13 Cl2 O3 P S
##MW=314
##$NIST SOURCE=MSDC
##XUNITS=M/Z
##YUNITS=RELATIVE INTENSITY
##XFACTOR=1
##YFACTOR=1
##FIRSTX=13
##LASTX=318
##FIRSTY=30
##MAXX=318
##MINX=13
##MAXY=9999
##MINY=20
##NPOINTS=190
##PEAK TABLE=(XY..XY)
13,30 14,58 15,295 17,36
18,49 19,53 26,405 27,2651
28,667 29,4468 30,146 31,80
32,29 33,24 35,81 36,76
37,99 38,147 39,121 41,29
42,54 43,348 44,107 45,511
46,24 47,931 48,127 49,106
50,204 51,120 52,25 53,113
58,34 59,115 60,160 61,293
62,582 63,2398 64,25 65,1910
69,83 71,47 72,179 73,908
74,486 75,643 76,87 77,60
79,276 80,311 81,844 82,49
83,326 84,109 85,254 86,56
87,86 89,48 91,618 92,56
93,663 94,57 95,228 96,48
97,7921 98,913 99,913 100,286
101,161 102,25 106,37 107,299
109,3136 110,190 111,233 112,55
113,87 114,65 115,112 117,33
121,394 122,32 123,113 124,32
125,2398 126,424 127,336 128,155
129,109 130,270 131,208 132,32
133,1947 134,219 135,1234 136,127
137,415 139,47 141,39 142,203
143,287 144,104 145,228 146,71
147,108 148,46 153,207 154,26
155,55 157,76 158,62 159,423
160,26 161,1211 162,4135 163,996
164,2658 165,361 166,464 167,106
169,29 170,41 171,24 173,485
174,56 175,293 176,24 177,409
178,527 179,300 180,356 181,83
182,68 188,175 189,109 191,74
193,277 194,40 195,175 197,37
205,499 206,90 207,189 208,99
209,359 210,64 211,236 213,59
216,47 219,24 220,29 223,9095
224,962 225,3392 226,262 227,181
237,37 239,328 240,144 241,916
242,145 243,545 244,83 245,88
249,49 251,4877 252,575 253,1728
254,202 255,108 257,178 259,182
261,72 269,235 270,33 271,205
273,80 275,20 277,29 279,9999
280,1282 281,4024 282,374 283,190
285,58 314,176 315,48 316,128
317,45 318,39
##END=
