##TITLE=Fenticlor
##JCAMP-DX=4.24
##DATA TYPE=MASS SPECTRUM
##ORIGIN=Japan AIST/NIMC Database- Spectrum MS-NW-4337
##OWNER=NIST Mass Spectrometry Data Center
Collection (C) 2014 copyright by the U.S. Secretary of Commerce
on behalf of the United States of America. All rights reserved.
##CAS REGISTRY NO=97-24-5
##$NIST MASS SPEC NO=232552
##MOLFORM=C12 H8 Cl2 O2 S
##MW=286
##$NIST SOURCE=MSDC
##XUNITS=M/Z
##YUNITS=RELATIVE INTENSITY
##XFACTOR=1
##YFACTOR=1
##FIRSTX=26
##LASTX=292
##FIRSTY=20
##MAXX=292
##MINX=26
##MAXY=9999
##MINY=10
##NPOINTS=200
##PEAK TABLE=(XY..XY)
26,20 27,20 28,60 29,30
32,10 35,10 36,60 37,70
38,119 39,199 40,10 43,10
44,20 45,409 46,10 47,40
48,10 49,50 50,119 51,299
52,70 53,259 54,10 55,30
57,20 58,20 60,20 61,109
62,239 63,809 64,159 65,189
66,40 67,10 68,10 69,369
70,80 71,90 72,50 73,379
74,80 75,139 76,10 77,30
78,10 79,169 80,30 81,70
82,50 83,20 84,30 85,60
86,30 87,159 88,20 89,80
90,20 91,40 92,50 93,179
94,80 95,1019 96,189 97,189
98,109 99,409 100,159 101,139
102,70 103,40 104,20 105,40
106,20 107,70 108,159 109,30
110,20 111,60 112,20 113,30
114,30 115,119 116,20 117,30
118,10 119,10 120,10 121,20
122,10 123,50 124,40 125,179
126,149 127,159 128,9999 129,759
130,4049 131,1049 132,469 133,319
134,50 135,30 136,20 137,10
138,10 142,40 143,99 144,90
145,30 146,20 149,50 150,10
151,20 152,10 155,80 156,10
157,40 158,139 159,1429 160,209
161,559 162,119 163,40 164,30
165,20 167,10 168,10 169,40
170,60 171,109 172,20 173,40
174,10 175,10 178,20 179,20
180,10 181,10 183,20 184,30
185,10 186,40 187,369 188,159
189,119 190,30 191,40 192,20
193,20 194,30 195,30 196,20
197,20 198,20 199,20 203,10
204,10 205,99 206,20 207,40
208,20 209,10 215,99 216,319
217,90 218,129 219,40 220,40
221,179 222,60 223,159 224,40
225,40 233,40 234,40 235,20
236,30 238,10 239,10 241,10
249,20 250,489 251,129 252,209
253,60 254,20 255,10 257,20
259,10 268,20 270,10 284,10
285,20 286,4039 287,619 288,2829
289,409 290,599 291,90 292,30
##END=
