##TITLE=Dichlorophen
##JCAMP-DX=4.24
##DATA TYPE=MASS SPECTRUM
##ORIGIN=NIST Mass Spectrometry Data Center, 1998.
##OWNER=NIST Mass Spectrometry Data Center
Collection (C) 2014 copyright by the U.S. Secretary of Commerce
on behalf of the United States of America. All rights reserved.
##CAS REGISTRY NO=97-23-4
##$NIST MASS SPEC NO=291017
##MOLFORM=C13 H10 Cl2 O2
##MW=268
##$NIST SOURCE=MSDC
##XUNITS=M/Z
##YUNITS=RELATIVE INTENSITY
##XFACTOR=1
##YFACTOR=1
##FIRSTX=26
##LASTX=273
##FIRSTY=20
##MAXX=273
##MINX=26
##MAXY=9999
##MINY=10
##NPOINTS=201
##PEAK TABLE=(XY..XY)
26,20 27,80 29,60 31,10
35,20 36,30 37,50 38,140
39,360 40,20 41,10 42,20
43,50 44,10 45,10 47,20
49,70 50,390 51,1140 52,200
53,370 54,30 55,190 56,60
57,80 59,10 60,20 61,140
62,380 63,1060 64,190 65,360
66,70 67,30 68,30 69,10
70,340 72,70 73,490 74,360
75,940 76,550 77,2060 78,380
79,110 80,60 81,50 82,10
83,30 84,870 86,190 87,330
88,110 89,540 90,290 91,90
92,50 93,350 94,130 96,20
97,80 99,870 100,220 101,330
102,300 103,80 104,10 105,130
106,50 107,170 109,70 110,80
111,270 112,590 113,530 114,360
115,770 116,180 118,30 119,10
120,10 121,30 122,40 123,110
124,50 125,180 126,210 127,170
128,9999 129,700 130,3260 131,300
132,30 133,10 134,130 135,100
136,80 137,90 138,120 139,1040
140,590 141,6749 142,760 143,2050
144,170 145,30 146,10 147,30
148,30 149,250 150,400 151,620
152,1360 153,240 154,60 155,90
156,30 157,10 158,10 159,10
160,40 161,30 162,70 163,50
164,30 165,170 166,30 167,110
168,910 169,690 170,480 171,60
172,10 173,90 174,10 175,130
176,40 177,50 178,30 179,50
180,60 181,180 182,20 183,10
184,10 185,30 186,460 187,170
188,170 189,80 190,30 191,40
192,20 193,10 196,20 197,580
198,500 199,80 200,10 201,10
202,60 203,110 204,160 205,120
206,50 207,30 213,20 214,30
215,670 216,100 217,230 218,40
220,10 221,10 222,10 223,10
225,10 227,10 230,10 231,280
232,140 233,1150 234,200 235,350
236,50 237,10 239,10 241,10
249,130 250,20 251,90 252,20
253,20 265,10 267,40 268,3260
269,480 270,2120 271,310 272,360
273,50
##END=
