##TITLE=2-Cyclohexen-1-ol, 2-methyl-5-(1-methylethenyl)-, acetate
##JCAMP-DX=4.24
##DATA TYPE=MASS SPECTRUM
##ORIGIN=Japan AIST/NIMC Database- Spectrum MS-NW-7462
##OWNER=NIST Mass Spectrometry Data Center
Collection (C) 2014 copyright by the U.S. Secretary of Commerce
on behalf of the United States of America. All rights reserved.
##CAS REGISTRY NO=97-42-7
##$NIST MASS SPEC NO=237884
##MOLFORM=C12 H18 O2
##MW=194
##$NIST SOURCE=MSDC
##XUNITS=M/Z
##YUNITS=RELATIVE INTENSITY
##XFACTOR=1
##YFACTOR=1
##FIRSTX=12
##LASTX=195
##FIRSTY=10
##MAXX=195
##MINX=12
##MAXY=9999
##MINY=10
##NPOINTS=131
##PEAK TABLE=(XY..XY)
12,10 13,30 14,189 15,689
16,50 18,20 24,10 25,10
26,70 27,1299 28,559 29,1019
30,30 31,60 32,30 35,10
36,99 37,30 38,129 39,2349
40,449 41,3609 42,419 43,9999
44,309 45,569 46,10 49,10
50,189 51,709 52,339 53,1279
54,339 55,2209 56,429 57,129
58,99 59,99 60,389 61,109
62,90 63,299 64,119 65,899
66,359 67,1079 68,769 69,649
70,70 71,159 72,139 73,20
74,50 75,60 76,60 77,2199
78,679 79,2139 80,1289 81,1079
82,569 83,909 84,9129 85,579
86,60 87,30 88,10 89,119
90,50 91,5009 92,3119 93,3499
94,809 95,579 96,469 97,419
98,50 99,10 100,10 101,20
102,70 103,399 104,259 105,2529
106,1159 107,1129 108,1019 109,5689
110,629 111,139 112,20 113,30
114,20 115,329 116,119 117,769
118,169 119,8789 120,979 121,199
122,129 123,429 124,189 125,50
126,379 127,50 128,40 129,30
130,20 131,90 132,179 133,589
134,4709 135,719 136,139 137,559
138,70 139,10 143,10 145,10
147,10 149,10 150,129 151,839
152,5259 153,629 154,70 161,10
179,10 194,40 195,10
##END=
