##TITLE=Phenol, 2-methoxy-4-(1-propenyl)-
##JCAMP-DX=4.24
##DATA TYPE=MASS SPECTRUM
##ORIGIN=NIST Mass Spectrometry Data Center, 1990.
##OWNER=NIST Mass Spectrometry Data Center
Collection (C) 2014 copyright by the U.S. Secretary of Commerce
on behalf of the United States of America. All rights reserved.
##CAS REGISTRY NO=97-54-1
##$NIST MASS SPEC NO=113236
##MOLFORM=C10 H12 O2
##MW=164
##$NIST SOURCE=MSDC
##XUNITS=M/Z
##YUNITS=RELATIVE INTENSITY
##XFACTOR=1
##YFACTOR=1
##FIRSTX=15
##LASTX=165
##FIRSTY=592
##MAXX=165
##MINX=15
##MAXY=9999
##MINY=99
##NPOINTS=68
##PEAK TABLE=(XY..XY)
15,592 27,540 28,456 29,284
31,114 32,100 38,304 39,1376
40,278 41,425 42,100 43,360
50,690 51,1547 52,561 53,1006
54,278 55,3017 56,130 61,145
62,454 63,1095 64,366 65,1589
66,476 67,157 69,134 74,277
75,271 77,4520 78,1131 79,961
80,121 81,340 82,169 89,497
91,3669 92,494 93,774 94,294
95,99 102,497 103,3522 104,1992
105,1017 106,141 107,605 109,155
115,331 117,113 118,157 119,288
120,203 121,2108 122,352 131,2663
132,811 133,1841 134,223 135,147
136,147 137,610 147,537 149,3990
150,405 162,115 164,9999 165,1109
##END=
