##TITLE=Benzenamine, 2-methoxy-4-nitro-
##JCAMP-DX=4.24
##DATA TYPE=MASS SPECTRUM
##ORIGIN=RADIAN CORP
##OWNER=NIST Mass Spectrometry Data Center
Collection (C) 2014 copyright by the U.S. Secretary of Commerce
on behalf of the United States of America. All rights reserved.
##CAS REGISTRY NO=97-52-9
##$NIST MASS SPEC NO=71212
##MOLFORM=C7 H8 N2 O3
##MW=168
##$NIST SOURCE=MSDC
##XUNITS=M/Z
##YUNITS=RELATIVE INTENSITY
##XFACTOR=1
##YFACTOR=1
##FIRSTX=14
##LASTX=170
##FIRSTY=90
##MAXX=170
##MINX=14
##MAXY=9999
##MINY=20
##NPOINTS=74
##PEAK TABLE=(XY..XY)
14,90 15,150 18,20 26,30
27,80 28,560 29,190 30,560
32,60 37,100 38,260 39,440
40,210 41,630 42,180 43,40
44,110 46,130 49,70 50,630
51,1360 52,4010 53,1050 54,360
55,90 61,150 62,380 63,680
64,410 65,1500 66,380 67,1240
68,190 69,70 74,70 75,90
76,230 77,1570 78,1300 79,4350
80,510 81,50 82,20 89,50
90,350 91,460 92,860 93,770
94,270 95,1330 96,80 105,120
106,80 107,1240 108,110 109,20
110,320 111,20 120,50 121,190
122,1720 123,210 124,20 137,30
138,3140 139,280 150,50 152,240
153,4020 154,300 155,20 168,9999
169,890 170,90
##END=
