##TITLE=Benzaldehyde, 2-hydroxy-5-nitro-
##JCAMP-DX=4.24
##DATA TYPE=MASS SPECTRUM
##ORIGIN=GFS Chemicals / NIST MS Data Center.
##OWNER=NIST Mass Spectrometry Data Center
Collection (C) 2014 copyright by the U.S. Secretary of Commerce
on behalf of the United States of America. All rights reserved.
##CAS REGISTRY NO=97-51-8
##$NIST MASS SPEC NO=125306
##MOLFORM=C7 H5 N O4
##MW=167
##$NIST SOURCE=MSDC
##XUNITS=M/Z
##YUNITS=RELATIVE INTENSITY
##XFACTOR=1
##YFACTOR=1
##FIRSTX=14
##LASTX=169
##FIRSTY=61
##MAXX=169
##MINX=14
##MAXY=9999
##MINY=15
##NPOINTS=77
##PEAK TABLE=(XY..XY)
14,61 17,18 18,41 25,51
26,169 27,350 28,496 29,629
30,582 31,74 32,192 36,66
37,336 38,726 39,2960 40,122
41,70 42,113 43,43 44,15
46,129 48,33 49,128 50,482
51,493 52,329 53,1851 54,152
55,498 60,78 61,451 62,873
63,1533 64,748 65,3489 66,402
67,107 68,39 69,103 73,121
74,488 75,912 76,126 77,51
78,47 79,121 80,106 81,701
82,45 89,23 90,83 91,155
92,714 93,1202 94,96 103,495
104,43 106,18 107,74 108,170
109,585 110,38 120,1417 121,593
122,48 135,38 137,2370 138,217
139,60 149,273 150,65 151,307
152,30 166,2847 167,9999 168,740
169,99
##END=
