##TITLE=Butanedioic acid, methylene-
##JCAMP-DX=4.24
##DATA TYPE=MASS SPECTRUM
##ORIGIN=Japan AIST/NIMC Database- Spectrum MS-NW-2635
##OWNER=NIST Mass Spectrometry Data Center
Collection (C) 2014 copyright by the U.S. Secretary of Commerce
on behalf of the United States of America. All rights reserved.
##CAS REGISTRY NO=97-65-4
##$NIST MASS SPEC NO=229303
##MOLFORM=C5 H6 O4
##MW=130
##$NIST SOURCE=MSDC
##XUNITS=M/Z
##YUNITS=RELATIVE INTENSITY
##XFACTOR=1
##YFACTOR=1
##FIRSTX=12
##LASTX=131
##FIRSTY=40
##MAXX=131
##MINX=12
##MAXY=9999
##MINY=10
##NPOINTS=72
##PEAK TABLE=(XY..XY)
12,40 13,60 14,189 15,369
16,50 17,259 18,969 19,40
24,30 25,129 26,379 27,909
28,829 29,1539 30,139 31,689
32,30 33,20 34,119 35,20
36,209 37,659 38,1349 39,9999
40,8259 41,9109 42,3539 43,1649
44,579 45,4889 46,239 47,109
48,40 49,30 50,40 51,20
52,20 53,399 54,70 55,409
56,319 57,1699 58,4249 59,149
60,509 61,10 63,20 66,119
67,549 68,5039 69,1279 70,70
71,259 72,30 73,239 74,80
83,60 84,1879 85,2449 86,5889
87,279 88,40 95,10 96,10
102,40 111,10 112,3619 113,639
114,50 129,20 130,559 131,30
##END=
