##TITLE=Propanoic acid, 2-methyl-, ethyl ester
##JCAMP-DX=4.24
##DATA TYPE=MASS SPECTRUM
##ORIGIN=Japan AIST/NIMC Database- Spectrum MS-NW- 444
##OWNER=NIST Mass Spectrometry Data Center
Collection (C) 2014 copyright by the U.S. Secretary of Commerce
on behalf of the United States of America. All rights reserved.
##CAS REGISTRY NO=97-62-1
##$NIST MASS SPEC NO=229104
##MOLFORM=C6 H12 O2
##MW=116
##$NIST SOURCE=MSDC
##XUNITS=M/Z
##YUNITS=RELATIVE INTENSITY
##XFACTOR=1
##YFACTOR=1
##FIRSTX=14
##LASTX=117
##FIRSTY=30
##MAXX=117
##MINX=14
##MAXY=9999
##MINY=10
##NPOINTS=61
##PEAK TABLE=(XY..XY)
14,30 15,219 17,10 18,30
25,20 26,329 27,1949 28,409
29,4139 30,99 31,139 37,30
38,70 39,559 40,139 41,2149
42,1309 43,9999 44,329 45,979
46,30 47,50 50,30 51,70
52,119 53,129 54,20 55,40
56,80 57,169 58,20 59,60
60,40 63,10 65,20 67,20
68,10 69,20 70,70 71,4309
72,199 73,729 74,30 75,10
77,20 78,80 84,40 85,20
86,10 87,40 88,899 89,599
90,30 97,80 98,80 99,20
100,10 101,199 102,10 116,1409
117,99
##END=
