##TITLE=Bis(dimethylthiocarbamyl) sulfide
##JCAMP-DX=4.24
##DATA TYPE=MASS SPECTRUM
##ORIGIN=Tox21 Consortium/NIST Mass Spectrometry Data Center, 2012
##OWNER=NIST Mass Spectrometry Data Center
Collection (C) 2014 copyright by the U.S. Secretary of Commerce
on behalf of the United States of America. All rights reserved.
##CAS REGISTRY NO=97-74-5
##$NIST MASS SPEC NO=408693
##MOLFORM=C6 H12 N2 S3
##MW=208
##$NIST SOURCE=MSDC
##XUNITS=M/Z
##YUNITS=RELATIVE INTENSITY
##XFACTOR=1
##YFACTOR=1
##FIRSTX=14
##LASTX=212
##FIRSTY=10
##MAXX=212
##MINX=14
##MAXY=9999
##MINY=10
##NPOINTS=60
##PEAK TABLE=(XY..XY)
14,10 15,90 18,50 26,10
27,30 28,130 29,30 30,40
32,20 33,10 38,10 39,10
40,50 41,70 42,961 43,180
44,681 45,290 46,60 47,280
48,10 49,10 52,10 54,20
55,20 56,400 57,30 58,30
59,40 60,10 61,140 63,10
64,100 66,10 70,30 71,20
72,470 73,1101 74,130 75,50
76,220 77,400 78,40 79,40
88,9999 89,540 90,470 91,30
104,90 105,40 120,190 121,30
122,10 152,10 178,10 208,851
209,80 210,110 211,10 212,10
##END=
