##TITLE=Disulfiram
##JCAMP-DX=4.24
##DATA TYPE=MASS SPECTRUM
##ORIGIN=Japan AIST/NIMC Database- Spectrum MS-NW- 179
##OWNER=NIST Mass Spectrometry Data Center
Collection (C) 2014 copyright by the U.S. Secretary of Commerce
on behalf of the United States of America. All rights reserved.
##CAS REGISTRY NO=97-77-8
##$NIST MASS SPEC NO=228650
##MOLFORM=C10 H20 N2 S4
##MW=296
##$NIST SOURCE=MSDC
##XUNITS=M/Z
##YUNITS=RELATIVE INTENSITY
##XFACTOR=1
##YFACTOR=1
##FIRSTX=15
##LASTX=299
##FIRSTY=90
##MAXX=299
##MINX=15
##MAXY=9999
##MINY=10
##NPOINTS=89
##PEAK TABLE=(XY..XY)
15,90 18,299 26,80 27,1109
28,719 29,2429 30,139 32,50
35,50 39,20 40,30 41,90
42,639 43,50 44,3119 45,179
46,30 47,20 52,10 54,99
55,40 56,499 57,60 58,90
59,479 60,3599 61,329 62,149
63,10 64,209 65,40 66,20
69,20 70,99 71,30 72,1579
73,90 76,209 77,849 78,50
79,80 84,20 86,519 87,99
88,5509 89,239 90,239 91,189
92,129 93,40 104,70 105,10
109,20 114,30 116,9999 117,689
118,479 119,50 120,30 122,40
124,20 134,20 139,10 146,30
147,40 148,2419 149,449 150,239
151,40 152,20 178,20 180,129
181,10 182,20 204,30 205,50
206,20 207,20 210,10 211,70
212,99 213,40 214,40 264,80
266,20 296,1789 297,259 298,339
299,50
##END=
