##TITLE=2-Propenoic acid, 2-methyl-, 2-methylpropyl ester
##JCAMP-DX=4.24
##DATA TYPE=MASS SPECTRUM
##ORIGIN=NIST Mass Spectrometry Data Center, 1998.
##OWNER=NIST Mass Spectrometry Data Center
Collection (C) 2014 copyright by the U.S. Secretary of Commerce
on behalf of the United States of America. All rights reserved.
##CAS REGISTRY NO=97-86-9
##$NIST MASS SPEC NO=291356
##MOLFORM=C8 H14 O2
##MW=142
##$NIST SOURCE=MSDC
##XUNITS=M/Z
##YUNITS=RELATIVE INTENSITY
##XFACTOR=1
##YFACTOR=1
##FIRSTX=15
##LASTX=127
##FIRSTY=40
##MAXX=127
##MINX=15
##MAXY=9999
##MINY=10
##NPOINTS=58
##PEAK TABLE=(XY..XY)
15,40 26,60 27,470 29,670
30,30 31,70 37,60 38,200
39,2730 40,560 41,6169 42,420
43,510 44,30 45,90 50,20
51,30 52,10 53,120 54,40
55,490 56,5569 57,1160 58,80
59,180 60,10 66,10 67,10
68,100 69,9999 70,570 71,60
72,20 73,160 74,30 81,30
82,40 83,30 84,30 85,50
86,110 87,3200 88,140 89,20
94,10 95,10 96,50 97,40
99,240 100,60 101,10 109,70
112,40 113,10 114,10 124,60
125,10 127,30
##END=
