##TITLE=1,3-Butanediamine, N,N,N',N'-tetramethyl-
##JCAMP-DX=4.24
##DATA TYPE=MASS SPECTRUM
##ORIGIN=NIST Mass Spectrometry Data Center, 1998.
##OWNER=NIST Mass Spectrometry Data Center
Collection (C) 2014 copyright by the U.S. Secretary of Commerce
on behalf of the United States of America. All rights reserved.
##CAS REGISTRY NO=97-84-7
##$NIST MASS SPEC NO=291555
##MOLFORM=C8 H20 N2
##MW=144
##$NIST SOURCE=MSDC
##XUNITS=M/Z
##YUNITS=RELATIVE INTENSITY
##XFACTOR=1
##YFACTOR=1
##FIRSTX=15
##LASTX=145
##FIRSTY=110
##MAXX=145
##MINX=15
##MAXY=9999
##MINY=10
##NPOINTS=60
##PEAK TABLE=(XY..XY)
15,110 26,20 27,140 28,50
29,210 30,300 31,10 38,10
39,160 40,50 41,310 42,2310
43,510 44,1200 45,200 46,50
50,10 51,20 52,20 53,70
54,120 55,320 56,1440 57,860
58,7869 59,340 60,10 63,10
64,10 66,10 67,20 68,120
69,30 70,940 71,1150 72,9999
73,520 74,10 80,20 81,20
82,90 83,10 84,5689 85,460
86,410 87,30 94,10 95,10
96,20 97,10 98,970 99,5569
100,440 101,60 113,10 127,100
128,10 129,40 144,370 145,40
##END=
