##TITLE=Butanal, 2-ethyl-
##JCAMP-DX=4.24
##DATA TYPE=MASS SPECTRUM
##ORIGIN=NIST Mass Spectrometry Data Center, 1990.
##OWNER=NIST Mass Spectrometry Data Center
Collection (C) 2014 copyright by the U.S. Secretary of Commerce
on behalf of the United States of America. All rights reserved.
##CAS REGISTRY NO=97-96-1
##$NIST MASS SPEC NO=118532
##MOLFORM=C6 H12 O
##MW=100
##$NIST SOURCE=MSDC
##XUNITS=M/Z
##YUNITS=RELATIVE INTENSITY
##XFACTOR=1
##YFACTOR=1
##FIRSTX=14
##LASTX=100
##FIRSTY=62
##MAXX=100
##MINX=14
##MAXY=9999
##MINY=7
##NPOINTS=38
##PEAK TABLE=(XY..XY)
14,62 15,223 16,49 18,14
25,39 26,297 27,2529 28,367
29,2543 30,95 31,92 32,7
37,59 38,257 39,1801 40,333
41,3238 42,656 43,9999 44,445
50,148 51,178 53,298 54,150
55,1191 56,198 57,1175 58,233
67,91 69,107 70,246 71,2161
72,2976 73,144 82,388 83,53
85,73 100,296
##END=
