##TITLE=2-Furanmethanol, tetrahydro-
##JCAMP-DX=4.24
##DATA TYPE=MASS SPECTRUM
##ORIGIN=Japan AIST/NIMC Database- Spectrum MS-NW-1201
##OWNER=NIST Mass Spectrometry Data Center
Collection (C) 2014 copyright by the U.S. Secretary of Commerce
on behalf of the United States of America. All rights reserved.
##CAS REGISTRY NO=97-99-4
##$NIST MASS SPEC NO=230741
##MOLFORM=C5 H10 O2
##MW=102
##$NIST SOURCE=MSDC
##XUNITS=M/Z
##YUNITS=RELATIVE INTENSITY
##XFACTOR=1
##YFACTOR=1
##FIRSTX=14
##LASTX=102
##FIRSTY=50
##MAXX=102
##MINX=14
##MAXY=9999
##MINY=10
##NPOINTS=47
##PEAK TABLE=(XY..XY)
14,50 15,199 17,20 18,90
19,10 26,109 27,1719 28,269
29,819 30,50 31,1299 32,50
37,30 38,80 39,719 40,189
41,2769 42,1089 43,5519 44,689
45,119 50,30 51,30 52,10
53,119 54,50 55,249 56,60
57,309 58,20 59,20 60,50
61,169 67,20 68,20 69,70
70,409 71,9999 72,469 73,70
74,10 81,10 83,40 84,70
85,30 101,10 102,20
##END=
