##TITLE=2-Propenoic acid, 2-methyl-, 1,2-ethanediyl ester
##JCAMP-DX=4.24
##DATA TYPE=MASS SPECTRUM
##ORIGIN=Japan AIST/NIMC Database- Spectrum MS-NW-2714
##OWNER=NIST Mass Spectrometry Data Center
Collection (C) 2014 copyright by the U.S. Secretary of Commerce
on behalf of the United States of America. All rights reserved.
##CAS REGISTRY NO=97-90-5
##$NIST MASS SPEC NO=229630
##MOLFORM=C10 H14 O4
##MW=198
##$NIST SOURCE=MSDC
##XUNITS=M/Z
##YUNITS=RELATIVE INTENSITY
##XFACTOR=1
##YFACTOR=1
##FIRSTX=15
##LASTX=180
##FIRSTY=80
##MAXX=180
##MINX=15
##MAXY=9999
##MINY=10
##NPOINTS=57
##PEAK TABLE=(XY..XY)
15,80 18,20 26,40 27,90
28,40 29,50 31,20 32,10
37,20 38,60 39,1019 40,409
41,4149 42,159 43,70 44,30
45,50 53,20 54,10 55,30
56,10 59,10 67,10 68,309
69,9999 70,469 71,30 73,10
80,10 81,20 82,70 83,10
84,30 85,10 86,30 87,40
95,10 99,50 100,20 108,50
109,30 110,10 112,1139 113,1299
114,99 115,10 116,70 125,40
126,10 127,10 128,20 136,20
153,10 155,20 170,209 171,20
180,10
##END=
