##TITLE=Aluminum, triethyl-
##JCAMP-DX=4.24
##DATA TYPE=MASS SPECTRUM
##ORIGIN=D.HENNEBERG, MAX-PLANCK INSTITUTE, MULHEIM, WEST GERMANY
##OWNER=NIST Mass Spectrometry Data Center
Collection (C) 2014 copyright by the U.S. Secretary of Commerce
on behalf of the United States of America. All rights reserved.
##CAS REGISTRY NO=97-93-8
##$NIST MASS SPEC NO=62169
##MOLFORM=C6 H15 Al
##MW=114
##$NIST SOURCE=MSDC
##XUNITS=M/Z
##YUNITS=RELATIVE INTENSITY
##XFACTOR=1
##YFACTOR=1
##FIRSTX=26
##LASTX=115
##FIRSTY=5064
##MAXX=115
##MINX=26
##MAXY=9999
##MINY=1
##NPOINTS=77
##PEAK TABLE=(XY..XY)
26,5064 27,5986 28,9649 29,1846
30,1164 31,9 36,3 37,77
38,61 39,290 40,245 41,1043
42,209 43,426 45,4 46,13
47,20 48,4 49,11 50,37
51,25 52,56 53,137 54,47
55,757 56,512 57,9999 58,231
59,51 60,3 61,7 62,4
64,42 65,9 66,21 67,22
68,124 69,444 70,40 71,233
72,16 73,18 75,57 77,10
78,15 79,8 80,4 81,12
82,3 83,58 84,23 85,6816
86,320 87,13 88,1 89,17
91,10 92,4 93,88 95,40
96,10 97,34 98,21 99,93
100,22 101,31 103,7 104,16
105,6 106,5 107,5 110,3
111,7 112,4 113,443 114,1444
115,92
##END=
