##TITLE=Naphthalene, 1,7-diphenyl-
##JCAMP-DX=4.24
##DATA TYPE=MASS SPECTRUM
##ORIGIN=R.C. DOUGHERTY
##OWNER=NIST Mass Spectrometry Data Center
Collection (C) 2014 copyright by the U.S. Secretary of Commerce
on behalf of the United States of America. All rights reserved.
##CAS REGISTRY NO=970-06-9
##$NIST MASS SPEC NO=37140
##MOLFORM=C22 H16
##MW=280
##$NIST SOURCE=MSDC
##XUNITS=M/Z
##YUNITS=RELATIVE INTENSITY
##XFACTOR=1
##YFACTOR=1
##FIRSTX=27
##LASTX=282
##FIRSTY=200
##MAXX=282
##MINX=27
##MAXY=9999
##MINY=10
##NPOINTS=44
##PEAK TABLE=(XY..XY)
27,200 28,24 39,250 41,300
43,250 44,10 50,150 51,300
55,100 56,150 57,350 63,150
75,150 77,300 99,100 100,10
101,100 105,200 112,300 113,500
114,100 115,100 125,601 131,350
136,200 137,751 138,300 139,400
199,350 200,550 201,1401 202,1401
203,200 253,200 255,550 256,200
263,200 276,951 277,951 278,1001
279,2302 280,9999 281,2202 282,300
##END=
