##TITLE=2-Acetylpiperidine
##JCAMP-DX=4.24
##DATA TYPE=MASS SPECTRUM
##ORIGIN=T.Hofmann ET AL.J.Agr.Food Chem.,46,616(1998)
##OWNER=NIST Mass Spectrometry Data Center
Collection (C) 2014 copyright by the U.S. Secretary of Commerce
on behalf of the United States of America. All rights reserved.
##CAS REGISTRY NO=97073-22-8
##$NIST MASS SPEC NO=281472
##MOLFORM=C7 H13 N O
##MW=127
##$NIST SOURCE=MSDC
##XUNITS=M/Z
##YUNITS=RELATIVE INTENSITY
##XFACTOR=1
##YFACTOR=1
##FIRSTX=39
##LASTX=127
##FIRSTY=380
##MAXX=127
##MINX=39
##MAXY=9999
##MINY=20
##NPOINTS=25
##PEAK TABLE=(XY..XY)
39,380 40,50 41,771 42,1161
43,1181 44,190 53,70 54,460
55,1591 56,5805 57,480 58,80
67,561 68,380 69,70 78,20
82,851 83,360 84,9999 85,781
98,70 110,30 125,50 126,50
127,50
##END=
