##TITLE=4-Chlorobenzoic acid, dodecyl ester
##JCAMP-DX=4.24
##DATA TYPE=MASS SPECTRUM
##ORIGIN=V.G.Zaikin, Petrochem. Synth. Inst., Moscow
##OWNER=NIST Mass Spectrometry Data Center
Collection (C) 2014 copyright by the U.S. Secretary of Commerce
on behalf of the United States of America. All rights reserved.
##CAS REGISTRY NO=97222-07-6
##$NIST MASS SPEC NO=280376
##MOLFORM=C19 H29 Cl O2
##MW=324
##$NIST SOURCE=MSDC
##XUNITS=M/Z
##YUNITS=RELATIVE INTENSITY
##XFACTOR=1
##YFACTOR=1
##FIRSTX=26
##LASTX=326
##FIRSTY=180
##MAXX=326
##MINX=26
##MAXY=9999
##MINY=10
##NPOINTS=76
##PEAK TABLE=(XY..XY)
26,180 27,1221 28,490 29,2272
30,160 31,50 36,490 38,310
39,781 40,210 41,4154 42,1461
43,5025 44,1852 45,80 50,661
51,450 53,290 54,931 55,4744
56,4184 57,3083 58,100 61,50
63,70 64,90 65,170 66,70
67,851 68,1301 69,3813 70,3783
71,1091 72,90 73,50 74,310
75,1451 76,581 77,440 78,50
79,100 81,390 82,1221 83,3443
84,2322 85,751 91,130 95,110
96,561 97,2352 98,1351 99,130
104,250 105,210 110,280 111,4024
112,991 113,1111 114,90 125,390
126,370 138,70 139,9999 140,1621
141,3413 142,290 156,4714 157,8197
158,2052 159,2672 160,230 167,30
168,1241 169,210 324,30 326,10
##END=
