##TITLE=4-Chlorobenzoic acid, nonyl ester
##JCAMP-DX=4.24
##DATA TYPE=MASS SPECTRUM
##ORIGIN=Zaikin V.G., TIPS RAS, Moscow, Russia
##OWNER=NIST Mass Spectrometry Data Center
Collection (C) 2014 copyright by the U.S. Secretary of Commerce
on behalf of the United States of America. All rights reserved.
##CAS REGISTRY NO=97222-06-5
##$NIST MASS SPEC NO=282814
##MOLFORM=C16 H23 Cl O2
##MW=282
##$NIST SOURCE=MSDC
##XUNITS=M/Z
##YUNITS=RELATIVE INTENSITY
##XFACTOR=1
##YFACTOR=1
##FIRSTX=27
##LASTX=284
##FIRSTY=100
##MAXX=284
##MINX=27
##MAXY=9999
##MINY=30
##NPOINTS=60
##PEAK TABLE=(XY..XY)
27,100 28,80 29,200 39,110
41,561 42,260 43,561 44,40
50,90 51,60 53,50 54,150
55,861 56,1161 57,340 65,30
67,150 68,310 69,911 70,1211
71,210 74,70 75,510 76,200
77,170 81,50 82,290 83,851
84,921 85,190 96,200 97,1101
98,951 99,80 104,140 105,70
110,60 111,2072 112,210 113,741
114,60 115,30 126,1722 127,180
138,30 139,9999 140,671 141,2732
142,220 154,30 156,5165 157,9418
158,2132 159,2632 160,200 169,50
197,30 212,30 282,80 284,30
##END=
