##TITLE=2-Chlorobenzoic acid, undecyl ester
##JCAMP-DX=4.24
##DATA TYPE=MASS SPECTRUM
##ORIGIN=Zaikin V.G., TIPS RAS, Moscow, Russia
##OWNER=NIST Mass Spectrometry Data Center
Collection (C) 2014 copyright by the U.S. Secretary of Commerce
on behalf of the United States of America. All rights reserved.
##CAS REGISTRY NO=97221-96-0
##$NIST MASS SPEC NO=292280
##MOLFORM=C18 H27 Cl O2
##MW=310
##$NIST SOURCE=MSDC
##XUNITS=M/Z
##YUNITS=RELATIVE INTENSITY
##XFACTOR=1
##YFACTOR=1
##FIRSTX=27
##LASTX=310
##FIRSTY=100
##MAXX=310
##MINX=27
##MAXY=9999
##MINY=20
##NPOINTS=57
##PEAK TABLE=(XY..XY)
27,100 28,80 29,220 36,30
39,110 41,631 42,220 43,671
44,30 50,70 51,50 53,50
54,150 55,851 56,651 57,460
67,170 68,210 69,721 70,671
71,190 74,40 75,340 76,160
77,170 81,70 82,200 83,601
84,470 85,130 95,20 96,90
97,530 98,240 104,90 105,90
110,70 111,1031 112,260 113,370
114,30 121,40 125,90 126,190
139,5215 140,410 141,1651 142,130
154,270 155,30 156,2122 157,9999
158,1361 159,2953 160,230 161,30
310,30
##END=
