##TITLE=2-Chlorobenzoic acid, decyl ester
##JCAMP-DX=4.24
##DATA TYPE=MASS SPECTRUM
##ORIGIN=Zaikin V.G., TIPS RAS, Moscow, Russia
##OWNER=NIST Mass Spectrometry Data Center
Collection (C) 2014 copyright by the U.S. Secretary of Commerce
on behalf of the United States of America. All rights reserved.
##CAS REGISTRY NO=97221-95-9
##$NIST MASS SPEC NO=292427
##MOLFORM=C17 H25 Cl O2
##MW=296
##$NIST SOURCE=MSDC
##XUNITS=M/Z
##YUNITS=RELATIVE INTENSITY
##XFACTOR=1
##YFACTOR=1
##FIRSTX=27
##LASTX=298
##FIRSTY=70
##MAXX=298
##MINX=27
##MAXY=9999
##MINY=30
##NPOINTS=56
##PEAK TABLE=(XY..XY)
27,70 28,30 29,140 36,40
39,90 41,460 42,160 43,460
44,50 50,120 51,70 53,40
54,110 55,691 56,571 57,360
65,30 67,140 68,190 69,581
70,691 71,140 74,70 75,430
76,200 77,180 81,60 82,160
83,520 84,390 85,140 95,30
96,80 97,440 98,240 104,90
105,90 110,80 111,1571 112,450
113,460 114,40 121,40 139,6156
140,921 141,1982 142,160 155,50
156,2532 157,9999 158,1541 159,3163
160,250 173,230 296,80 298,30
##END=
