##TITLE=1,5-Anhydro-3-O-acetyl-2,4,6-tri-O-methyl-D-glucitol
##JCAMP-DX=4.24
##DATA TYPE=MASS SPECTRUM
##ORIGIN=A. VAN LANGENHOVE, HARVARD SCH. PUBLIC HEALTH, BOSTON, USA
##OWNER=NIST Mass Spectrometry Data Center
Collection (C) 2014 copyright by the U.S. Secretary of Commerce
on behalf of the United States of America. All rights reserved.
##CAS REGISTRY NO=97275-51-9
##$NIST MASS SPEC NO=101526
##MOLFORM=C11 H20 O6
##MW=248
##$NIST SOURCE=MSDC
##XUNITS=M/Z
##YUNITS=RELATIVE INTENSITY
##XFACTOR=1
##YFACTOR=1
##FIRSTX=71
##LASTX=203
##FIRSTY=5041
##MAXX=203
##MINX=71
##MAXY=9999
##MINY=101
##NPOINTS=60
##PEAK TABLE=(XY..XY)
71,5041 72,835 73,762 74,6787
75,9999 76,384 77,221 79,185
81,381 82,262 83,1826 84,478
85,1686 86,284 87,1501 88,403
89,717 95,296 96,116 97,1091
98,434 99,899 100,541 101,6130
102,805 103,371 107,127 109,160
111,1297 112,665 113,381 114,2125
115,2366 116,988 117,716 124,101
125,1808 126,395 127,1788 128,397
129,1679 130,186 131,150 139,801
140,137 141,857 142,364 143,4352
144,467 145,167 156,800 157,714
158,1599 159,299 161,140 171,765
172,106 184,104 188,431 203,216
##END=
