##TITLE=2'-Hydroxy-5'-methoxyacetophenone, TMS derivative
##JCAMP-DX=4.24
##DATA TYPE=MASS SPECTRUM
##ORIGIN=NIST Mass Spectrometry Data Center
##OWNER=NIST Mass Spectrometry Data Center
Collection (C) 2014 copyright by the U.S. Secretary of Commerce
on behalf of the United States of America. All rights reserved.
##CAS REGISTRY NO=97389-71-4
##$NIST MASS SPEC NO=352911
##MOLFORM=C12 H18 O3 Si
##MW=238
##$NIST SOURCE=MSDC
##XUNITS=M/Z
##YUNITS=RELATIVE INTENSITY
##XFACTOR=1
##YFACTOR=1
##FIRSTX=15
##LASTX=240
##FIRSTY=60
##MAXX=240
##MINX=15
##MAXY=9999
##MINY=10
##NPOINTS=151
##PEAK TABLE=(XY..XY)
15,60 27,10 28,10 29,40
31,10 38,10 39,50 40,10
41,20 42,30 43,530 44,100
45,621 46,40 47,80 50,40
51,150 52,70 53,130 54,40
55,80 56,10 57,50 58,50
59,110 60,30 61,70 62,50
63,210 64,60 65,90 66,50
67,50 68,20 69,60 70,30
71,30 72,60 73,1581 74,180
75,530 76,80 77,430 78,260
79,220 80,30 81,50 83,240
84,30 85,120 86,10 87,20
88,20 89,170 90,210 91,260
92,80 93,80 94,60 95,120
96,30 97,40 98,10 99,30
100,10 101,20 102,30 103,100
104,80 105,170 106,110 107,170
108,50 109,160 110,130 111,300
115,50 116,20 117,20 118,30
119,90 120,40 121,310 122,70
123,70 124,20 125,20 126,10
130,10 131,30 132,10 133,140
134,40 135,230 136,80 137,420
138,70 139,30 145,40 146,10
147,110 148,90 149,210 150,611
151,330 152,60 153,30 159,40
160,10 161,80 162,60 163,90
164,40 165,540 166,120 167,40
168,10 174,10 175,30 176,10
177,90 178,40 179,440 180,3783
181,1021 182,240 183,80 184,10
189,40 190,20 191,70 192,60
193,150 194,60 195,40 196,10
205,360 206,60 207,120 208,290
209,70 210,20 221,40 223,9999
224,1922 225,591 226,60 227,10
238,530 239,100 240,30
##END=
