##TITLE=(E)-9,11-Dodecadienal
##JCAMP-DX=4.24
##DATA TYPE=MASS SPECTRUM
##ORIGIN=T. ANDO,FAC. AGRIC.,TOKYO UNIV. AGRIC. TECHNOL.,TOKYO,JAPAN
##OWNER=NIST Mass Spectrometry Data Center
Collection (C) 2014 copyright by the U.S. Secretary of Commerce
on behalf of the United States of America. All rights reserved.
##CAS REGISTRY NO=97475-11-1
##$NIST MASS SPEC NO=105155
##MOLFORM=C12 H20 O
##MW=180
##$NIST SOURCE=MSDC
##XUNITS=M/Z
##YUNITS=RELATIVE INTENSITY
##XFACTOR=1
##YFACTOR=1
##FIRSTX=41
##LASTX=181
##FIRSTY=3200
##MAXX=181
##MINX=41
##MAXY=9999
##MINY=300
##NPOINTS=35
##PEAK TABLE=(XY..XY)
41,3200 54,9999 55,3500 65,600
66,800 67,9200 68,8000 69,2500
79,2700 80,2800 81,6900 82,3100
83,1000 84,900 85,300 91,800
92,500 93,1700 94,1400 95,3200
96,900 97,1000 98,2700 105,300
106,400 107,1200 108,1000 109,1000
110,500 111,800 112,1200 123,600
151,400 180,3500 181,300
##END=
