##TITLE=Canrenone
##JCAMP-DX=4.24
##DATA TYPE=MASS SPECTRUM
##ORIGIN=G.B. NEURATH, INST. BIOPHARM., MIKROANALYTIK, HAMBURG, W. GE
##OWNER=NIST Mass Spectrometry Data Center
Collection (C) 2014 copyright by the U.S. Secretary of Commerce
on behalf of the United States of America. All rights reserved.
##CAS REGISTRY NO=976-71-6
##$NIST MASS SPEC NO=74982
##MOLFORM=C22 H28 O3
##MW=340
##$NIST SOURCE=MSDC
##XUNITS=M/Z
##YUNITS=RELATIVE INTENSITY
##XFACTOR=1
##YFACTOR=1
##FIRSTX=42
##LASTX=341
##FIRSTY=1500
##MAXX=341
##MINX=42
##MAXY=9999
##MINY=530
##NPOINTS=147
##PEAK TABLE=(XY..XY)
42,1500 43,4060 44,530 51,1120
52,750 53,3740 54,960 55,9890
56,3370 57,1600 58,590 63,590
65,2570 66,800 67,5780 68,1390
69,1760 70,1020 71,1180 73,530
76,590 77,5290 78,2410 79,5830
80,750 81,2670 82,910 83,1820
84,530 85,1020 89,750 91,8610
92,1340 93,2620 94,530 95,1760
97,1230 98,910 99,1980 102,530
103,1760 104,1600 105,4970 106,1020
107,8930 108,1230 109,1180 111,3320
112,530 115,4870 116,1870 117,4970
118,1930 119,2620 120,860 121,1980
122,590 123,640 125,530 127,1180
128,3640 129,4120 130,1500 131,5130
132,2030 133,2090 134,750 135,1180
136,6580 137,1180 141,2190 142,1390
143,3260 144,1660 145,2990 146,1230
147,1660 148,640 149,750 152,750
153,1020 154,700 155,2140 156,1120
157,2940 158,1230 159,3260 160,2510
161,3690 162,1390 163,860 165,1180
166,1020 167,1390 168,590 169,1710
170,700 171,2250 172,1600 173,2030
174,1930 175,910 178,800 179,1440
180,910 181,1280 182,640 183,1710
184,960 185,2190 186,860 187,1600
193,640 195,1230 196,590 197,1230
198,1440 199,1660 200,860 205,860
207,1120 209,1870 210,530 211,1230
212,700 213,1230 214,960 215,590
223,1070 225,1020 226,910 227,2670
228,590 239,530 240,800 242,860
249,530 263,590 265,590 267,9999
268,2250 269,530 283,530 296,640
325,1870 340,5080 341,1440
##END=
