##TITLE=1-Ethyl-5-methylcyclopentene
##JCAMP-DX=4.24
##DATA TYPE=MASS SPECTRUM
##ORIGIN=NIST Mass Spectrometry Data Center, 1990.
##OWNER=NIST Mass Spectrometry Data Center
Collection (C) 2014 copyright by the U.S. Secretary of Commerce
on behalf of the United States of America. All rights reserved.
##CAS REGISTRY NO=97797-57-4
##$NIST MASS SPEC NO=114420
##MOLFORM=C8 H14
##MW=110
##$NIST SOURCE=MSDC
##XUNITS=M/Z
##YUNITS=RELATIVE INTENSITY
##XFACTOR=1
##YFACTOR=1
##FIRSTX=14
##LASTX=111
##FIRSTY=653
##MAXX=111
##MINX=14
##MAXY=9999
##MINY=164
##NPOINTS=36
##PEAK TABLE=(XY..XY)
14,653 15,315 16,293 27,1485
28,180 29,623 38,252 39,2471
40,573 41,2277 42,285 43,164
50,386 51,908 52,367 53,1629
54,296 55,1417 63,330 65,816
66,403 67,4107 68,785 69,265
77,1349 78,333 79,2150 81,9999
82,935 91,547 93,596 95,5476
96,429 109,306 110,2652 111,290
##END=
