##TITLE=Propionitrile, 3-trimethylhydrazino-
##JCAMP-DX=4.24
##DATA TYPE=MASS SPECTRUM
##ORIGIN=A.Pleshkova, Nesmeyanov Inst.Org.Elem.Cpds, Moscow
##OWNER=NIST Mass Spectrometry Data Center
Collection (C) 2014 copyright by the U.S. Secretary of Commerce
on behalf of the United States of America. All rights reserved.
##CAS REGISTRY NO=97812-31-2
##$NIST MASS SPEC NO=284242
##MOLFORM=C6 H13 N3
##MW=127
##$NIST SOURCE=MSDC
##XUNITS=M/Z
##YUNITS=RELATIVE INTENSITY
##XFACTOR=1
##YFACTOR=1
##FIRSTX=27
##LASTX=128
##FIRSTY=921
##MAXX=128
##MINX=27
##MAXY=9999
##MINY=90
##NPOINTS=24
##PEAK TABLE=(XY..XY)
27,921 28,811 29,210 30,621
41,731 42,2342 43,1231 44,6546
45,2833 46,120 56,2342 57,230
58,450 59,9999 60,621 61,90
85,831 86,210 99,430 100,2923
101,290 112,230 127,430 128,90
##END=
