##TITLE=Pinacolyl ethylphosphonofluoridate
##JCAMP-DX=4.24
##DATA TYPE=MASS SPECTRUM
##ORIGIN=VERIFIN - Methodology B1-1979
##OWNER=NIST Mass Spectrometry Data Center
Collection (C) 2014 copyright by the U.S. Secretary of Commerce
on behalf of the United States of America. All rights reserved.
##CAS REGISTRY NO=97931-20-9
##$NIST MASS SPEC NO=226137
##MOLFORM=C8 H18 F O2 P
##MW=196
##$NIST SOURCE=MSDC
##XUNITS=M/Z
##YUNITS=RELATIVE INTENSITY
##XFACTOR=1
##YFACTOR=1
##FIRSTX=27
##LASTX=181
##FIRSTY=400
##MAXX=181
##MINX=27
##MAXY=9999
##MINY=10
##NPOINTS=35
##PEAK TABLE=(XY..XY)
27,400 28,90 29,700 39,500
40,70 41,2502 42,200 43,1201
44,50 45,300 51,60 53,200
55,500 56,200 57,1201 58,50
65,70 67,400 68,60 69,3202
70,100 83,70 84,1201 85,700
95,80 96,3903 97,400 111,300
112,2302 113,9999 114,200 139,400
140,6706 141,300 181,10
##END=
