##TITLE=2,4'-Methylenediphenol, 2TMS derivative
##JCAMP-DX=4.24
##DATA TYPE=MASS SPECTRUM
##ORIGIN=L.Prokai, J.Chromatogr.,329,290 (1985)
##OWNER=NIST Mass Spectrometry Data Center
Collection (C) 2014 copyright by the U.S. Secretary of Commerce
on behalf of the United States of America. All rights reserved.
##CAS REGISTRY NO=97993-27-6
##$NIST MASS SPEC NO=280843
##MOLFORM=C19 H28 O2 Si2
##MW=344
##$NIST SOURCE=MSDC
##XUNITS=M/Z
##YUNITS=RELATIVE INTENSITY
##XFACTOR=1
##YFACTOR=1
##FIRSTX=73
##LASTX=347
##FIRSTY=9999
##MAXX=347
##MINX=73
##MAXY=9999
##MINY=30
##NPOINTS=37
##PEAK TABLE=(XY..XY)
73,9999 74,801 75,510 76,430
77,30 135,100 136,140 147,360
148,180 149,180 157,360 158,100
162,30 163,360 164,30 165,100
166,140 179,871 180,180 181,250
182,30 207,250 222,180 223,250
241,100 242,510 243,70 255,140
256,100 271,70 329,691 330,180
343,761 344,6756 345,1972 346,581
347,70
##END=
