##TITLE=1-(5'-Chloro-2'-methylaminobenzoyl)-cyclohex-1-ene
##JCAMP-DX=4.24
##DATA TYPE=MASS SPECTRUM
##ORIGIN=H.Maurer ET AL.J.Chromatogr. 222,409(1981)
##OWNER=NIST Mass Spectrometry Data Center
Collection (C) 2014 copyright by the U.S. Secretary of Commerce
on behalf of the United States of America. All rights reserved.
##CAS REGISTRY NO=97994-57-5
##$NIST MASS SPEC NO=280344
##MOLFORM=C14 H16 Cl N O
##MW=249
##$NIST SOURCE=MSDC
##XUNITS=M/Z
##YUNITS=RELATIVE INTENSITY
##XFACTOR=1
##YFACTOR=1
##FIRSTX=75
##LASTX=252
##FIRSTY=571
##MAXX=252
##MINX=75
##MAXY=9999
##MINY=310
##NPOINTS=38
##PEAK TABLE=(XY..XY)
75,571 77,571 89,370 111,971
115,370 138,771 139,370 140,340
164,741 165,571 166,571 167,370
178,951 179,370 180,540 193,741
194,1521 195,540 196,540 206,2132
207,9999 208,1932 209,3113 210,340
220,3143 221,741 222,951 223,340
232,340 234,2132 235,340 236,741
237,540 248,340 249,5535 250,951
251,1922 252,310
##END=
