##TITLE=2-Furanmethanol
##JCAMP-DX=4.24
##DATA TYPE=MASS SPECTRUM
##ORIGIN=NIST Mass Spectrometry Data Center
##OWNER=NIST Mass Spectrometry Data Center
Collection (C) 2014 copyright by the U.S. Secretary of Commerce
on behalf of the United States of America. All rights reserved.
##CAS REGISTRY NO=98-00-0
##$NIST MASS SPEC NO=341346
##MOLFORM=C5 H6 O2
##MW=98
##$NIST SOURCE=MSDC
##XUNITS=M/Z
##YUNITS=RELATIVE INTENSITY
##XFACTOR=1
##YFACTOR=1
##FIRSTX=13
##LASTX=100
##FIRSTY=10
##MAXX=100
##MINX=13
##MAXY=9999
##MINY=10
##NPOINTS=56
##PEAK TABLE=(XY..XY)
13,10 14,50 15,80 17,10
24,10 25,70 26,390 27,1131
29,1682 30,140 31,931 35,50
36,110 37,961 38,1762 39,5505
40,711 41,6306 42,5105 43,991
44,751 45,30 49,390 50,1631
51,2062 52,1551 53,5735 54,390
55,1441 56,130 57,100 58,40
60,10 61,50 62,40 63,20
65,20 66,200 67,190 68,330
69,3643 70,3283 71,250 72,20
77,10 79,150 80,110 81,5625
82,310 83,20 95,701 96,110
97,5135 98,9999 99,561 100,50
##END=
