##TITLE=Benzene, (trichloromethyl)-
##JCAMP-DX=4.24
##DATA TYPE=MASS SPECTRUM
##ORIGIN=NIST Mass Spectrometry Data Center, 1998.
##OWNER=NIST Mass Spectrometry Data Center
Collection (C) 2014 copyright by the U.S. Secretary of Commerce
on behalf of the United States of America. All rights reserved.
##CAS REGISTRY NO=98-07-7
##$NIST MASS SPEC NO=291323
##MOLFORM=C7 H5 Cl3
##MW=194
##$NIST SOURCE=MSDC
##XUNITS=M/Z
##YUNITS=RELATIVE INTENSITY
##XFACTOR=1
##YFACTOR=1
##FIRSTX=25
##LASTX=200
##FIRSTY=10
##MAXX=200
##MINX=25
##MAXY=9999
##MINY=10
##NPOINTS=87
##PEAK TABLE=(XY..XY)
25,10 26,40 27,40 35,80
36,30 37,160 38,150 39,370
40,10 43,150 44,190 47,50
48,30 49,150 50,450 51,340
52,30 60,100 61,500 62,880
63,1140 64,70 65,20 71,20
72,150 73,390 74,180 75,190
76,20 77,80 78,10 79,400
80,250 82,50 83,20 84,160
85,220 86,270 87,280 88,100
89,1970 90,150 91,10 95,10
96,100 97,330 98,50 99,300
100,20 101,70 107,90 108,10
109,80 110,20 111,20 112,20
117,20 119,20 120,20 121,30
122,20 123,1060 124,740 125,440
126,240 127,30 131,20 133,270
134,20 135,160 136,10 137,30
157,20 159,9999 160,850 161,6519
162,520 163,1090 164,80 193,10
194,300 195,30 196,290 197,20
198,90 199,10 200,10
##END=
