##TITLE=Benzene, (trifluoromethyl)-
##JCAMP-DX=4.24
##DATA TYPE=MASS SPECTRUM
##ORIGIN=NIST Mass Spectrometry Data Center, 1990.
##OWNER=NIST Mass Spectrometry Data Center
Collection (C) 2014 copyright by the U.S. Secretary of Commerce
on behalf of the United States of America. All rights reserved.
##CAS REGISTRY NO=98-08-8
##$NIST MASS SPEC NO=118781
##MOLFORM=C7 H5 F3
##MW=146
##$NIST SOURCE=MSDC
##XUNITS=M/Z
##YUNITS=RELATIVE INTENSITY
##XFACTOR=1
##YFACTOR=1
##FIRSTX=15
##LASTX=147
##FIRSTY=45
##MAXX=147
##MINX=15
##MAXY=9999
##MINY=1
##NPOINTS=65
##PEAK TABLE=(XY..XY)
15,45 16,33 17,16 18,5
26,157 27,226 28,52 29,22
31,280 32,1 37,287 38,421
39,403 44,48 45,40 48,31
49,230 50,1877 51,2397 52,203
56,75 57,266 59,41 60,43
61,127 62,229 63,398 68,109
69,620 70,326 72,31 73,336
74,735 75,1120 76,330 77,1792
78,133 79,52 80,60 81,105
82,50 86,46 87,59 88,100
92,41 93,74 94,93 95,639
96,4970 97,321 98,41 99,311
100,121 101,237 104,35 107,213
119,102 123,38 125,591 127,4957
128,403 143,62 145,5707 146,9999
147,824
##END=
