##TITLE=2-Furfurylthiol
##JCAMP-DX=4.24
##DATA TYPE=MASS SPECTRUM
##ORIGIN=Japan AIST/NIMC Database- Spectrum MS-NW-3749
##OWNER=NIST Mass Spectrometry Data Center
Collection (C) 2014 copyright by the U.S. Secretary of Commerce
on behalf of the United States of America. All rights reserved.
##CAS REGISTRY NO=98-02-2
##$NIST MASS SPEC NO=229312
##MOLFORM=C5 H6 O S
##MW=114
##$NIST SOURCE=MSDC
##XUNITS=M/Z
##YUNITS=RELATIVE INTENSITY
##XFACTOR=1
##YFACTOR=1
##FIRSTX=13
##LASTX=117
##FIRSTY=10
##MAXX=117
##MINX=13
##MAXY=9999
##MINY=10
##NPOINTS=72
##PEAK TABLE=(XY..XY)
13,10 14,30 15,10 17,10
18,60 25,20 26,189 27,1369
28,80 29,229 31,20 32,70
33,119 34,109 36,20 37,129
38,229 39,479 40,40 41,149
42,80 43,60 44,60 45,909
46,70 47,139 48,10 49,70
50,379 51,699 52,579 53,4539
54,239 55,30 56,10 57,90
58,169 59,129 60,20 61,10
62,10 63,10 64,10 65,10
66,10 68,30 69,99 70,10
71,40 76,20 77,10 79,40
80,50 81,9999 82,599 83,50
84,50 85,219 86,20 87,10
91,30 92,10 95,10 97,10
105,10 111,30 112,40 113,109
114,2169 115,149 116,109 117,10
##END=
