##TITLE=Benzenamine, 3-(trifluoromethyl)-
##JCAMP-DX=4.24
##DATA TYPE=MASS SPECTRUM
##ORIGIN=J.T. CLERC, ORGANIC CHEM. LAB., ETH, ZURICH, SWITZ.
##OWNER=NIST Mass Spectrometry Data Center
Collection (C) 2014 copyright by the U.S. Secretary of Commerce
on behalf of the United States of America. All rights reserved.
##CAS REGISTRY NO=98-16-8
##$NIST MASS SPEC NO=65112
##MOLFORM=C7 H6 F3 N
##MW=161
##$NIST SOURCE=MSDC
##XUNITS=M/Z
##YUNITS=RELATIVE INTENSITY
##XFACTOR=1
##YFACTOR=1
##FIRSTX=31
##LASTX=162
##FIRSTY=10
##MAXX=162
##MINX=31
##MAXY=9999
##MINY=10
##NPOINTS=48
##PEAK TABLE=(XY..XY)
31,10 37,10 38,108 39,305
40,10 41,108 50,10 51,10
52,108 55,10 57,108 61,10
62,108 63,305 64,157 65,600
66,59 69,59 70,59 71,59
72,108 75,157 81,256 83,157
84,59 88,59 91,157 92,157
95,59 111,1092 112,59 113,305
114,2077 115,157 120,157 122,59
125,59 132,59 133,157 134,59
140,551 141,354 142,2126 143,157
145,157 160,797 161,9999 162,797
##END=
