##TITLE=m-Aminobenzenesulfonamide
##JCAMP-DX=4.24
##DATA TYPE=MASS SPECTRUM
##ORIGIN=NIST Mass Spectrometry Data Center, 1990.
##OWNER=NIST Mass Spectrometry Data Center
Collection (C) 2014 copyright by the U.S. Secretary of Commerce
on behalf of the United States of America. All rights reserved.
##CAS REGISTRY NO=98-18-0
##$NIST MASS SPEC NO=118425
##MOLFORM=C6 H8 N2 O2 S
##MW=172
##$NIST SOURCE=MSDC
##XUNITS=M/Z
##YUNITS=RELATIVE INTENSITY
##XFACTOR=1
##YFACTOR=1
##FIRSTX=16
##LASTX=174
##FIRSTY=238
##MAXX=174
##MINX=16
##MAXY=9999
##MINY=128
##NPOINTS=47
##PEAK TABLE=(XY..XY)
16,238 17,143 27,263 28,520
32,201 37,368 38,942 39,2857
40,352 41,950 42,418 44,233
45,169 46,179 48,276 50,491
51,455 52,1094 53,875 54,481
55,171 61,266 62,564 63,1987
64,2104 65,9999 66,1234 67,251
68,202 69,128 74,174 75,132
80,2024 81,2897 82,496 90,340
91,1673 92,8843 93,894 107,1541
108,8078 109,2042 110,161 156,307
172,8577 173,904 174,451
##END=
