##TITLE=Benzenesulfonamide
##JCAMP-DX=4.24
##DATA TYPE=MASS SPECTRUM
##OWNER=NIST Mass Spectrometry Data Center
Collection (C) 2014 copyright by the U.S. Secretary of Commerce
on behalf of the United States of America. All rights reserved.
##CAS REGISTRY NO=98-10-2
##$NIST MASS SPEC NO=5446
##MOLFORM=C6 H7 N O2 S
##MW=157
##$NIST SOURCE=MSDC
##XUNITS=M/Z
##YUNITS=RELATIVE INTENSITY
##XFACTOR=1
##YFACTOR=1
##FIRSTX=15
##LASTX=159
##FIRSTY=212
##MAXX=159
##MINX=15
##MAXY=9999
##MINY=42
##NPOINTS=33
##PEAK TABLE=(XY..XY)
15,212 27,890 32,212 37,106
38,381 39,1165 40,169 48,127
49,42 50,2542 51,5720 52,318
63,212 64,106 65,466 66,678
67,424 70,106 74,636 75,424
76,381 77,9999 78,678 93,3644
94,1907 95,169 125,169 141,2118
142,233 143,169 157,3008 158,424
159,169
##END=
