##TITLE=Benzenesulfonic acid
##JCAMP-DX=4.24
##DATA TYPE=MASS SPECTRUM
##ORIGIN=Japan AIST/NIMC Database- Spectrum MS-NW-1888
##OWNER=NIST Mass Spectrometry Data Center
Collection (C) 2014 copyright by the U.S. Secretary of Commerce
on behalf of the United States of America. All rights reserved.
##CAS REGISTRY NO=98-11-3
##$NIST MASS SPEC NO=227773
##MOLFORM=C6 H6 O3 S
##MW=158
##$NIST SOURCE=MSDC
##XUNITS=M/Z
##YUNITS=RELATIVE INTENSITY
##XFACTOR=1
##YFACTOR=1
##FIRSTX=17
##LASTX=161
##FIRSTY=40
##MAXX=161
##MINX=17
##MAXY=9999
##MINY=10
##NPOINTS=72
##PEAK TABLE=(XY..XY)
17,40 18,159 26,60 27,449
28,109 29,20 32,20 36,10
37,189 38,349 39,1029 40,289
41,20 43,10 44,40 45,99
48,99 49,159 50,2349 51,5689
52,299 53,60 54,10 55,209
56,10 57,30 58,20 60,10
61,60 62,119 63,199 64,99
65,2179 66,1439 67,80 68,30
69,119 70,20 71,10 72,10
73,149 74,779 75,479 76,669
77,9999 78,799 79,40 80,10
81,90 82,40 83,10 84,10
90,20 91,10 92,40 93,719
94,9369 95,619 96,40 97,50
108,20 109,30 110,30 125,30
126,10 141,729 142,60 143,40
158,7039 159,539 160,369 161,20
##END=
