##TITLE=Phenyl trichlorosilane
##JCAMP-DX=4.24
##DATA TYPE=MASS SPECTRUM
##ORIGIN=Japan AIST/NIMC Database- Spectrum MS-NW-4928
##OWNER=NIST Mass Spectrometry Data Center
Collection (C) 2014 copyright by the U.S. Secretary of Commerce
on behalf of the United States of America. All rights reserved.
##CAS REGISTRY NO=98-13-5
##$NIST MASS SPEC NO=229842
##MOLFORM=C6 H5 Cl3 Si
##MW=210
##$NIST SOURCE=MSDC
##XUNITS=M/Z
##YUNITS=RELATIVE INTENSITY
##XFACTOR=1
##YFACTOR=1
##FIRSTX=15
##LASTX=218
##FIRSTY=10
##MAXX=218
##MINX=15
##MAXY=9999
##MINY=10
##NPOINTS=121
##PEAK TABLE=(XY..XY)
15,10 25,20 26,99 27,379
28,139 29,20 30,10 35,90
36,359 37,99 38,179 39,459
40,20 44,20 49,90 50,1889
51,4599 52,429 53,279 54,30
55,10 61,20 62,50 63,1839
64,109 65,659 66,30 67,20
72,20 73,99 74,449 75,479
76,1099 77,4289 78,409 79,40
84,10 85,20 86,10 87,50
88,60 89,20 90,20 91,10
97,10 98,199 99,70 100,139
101,60 102,30 103,30 104,10
105,30 106,10 110,10 111,10
112,1849 113,139 114,589 115,50
123,339 124,30 125,239 126,20
127,50 133,1709 134,90 135,1689
136,99 137,599 138,40 139,299
140,99 141,119 142,40 143,10
144,10 146,30 147,159 148,70
149,169 150,50 151,70 152,20
153,10 154,20 157,10 158,10
159,20 160,10 161,10 162,50
163,10 164,10 168,10 170,10
171,30 172,10 173,119 174,1119
175,9999 176,1919 177,6729 178,919
179,1269 180,149 181,50 182,10
206,20 207,10 208,10 209,40
210,8289 211,1029 212,8249 213,959
214,2839 215,329 216,369 217,40
218,10
##END=
