##TITLE=Benzene, 1-chloro-3-(trifluoromethyl)-
##JCAMP-DX=4.24
##DATA TYPE=MASS SPECTRUM
##ORIGIN=NIST Mass Spectrometry Data Center, 1998.
##OWNER=NIST Mass Spectrometry Data Center
Collection (C) 2014 copyright by the U.S. Secretary of Commerce
on behalf of the United States of America. All rights reserved.
##CAS REGISTRY NO=98-15-7
##$NIST MASS SPEC NO=291368
##MOLFORM=C7 H4 Cl F3
##MW=180
##$NIST SOURCE=MSDC
##XUNITS=M/Z
##YUNITS=RELATIVE INTENSITY
##XFACTOR=1
##YFACTOR=1
##FIRSTX=25
##LASTX=184
##FIRSTY=10
##MAXX=184
##MINX=25
##MAXY=9999
##MINY=10
##NPOINTS=110
##PEAK TABLE=(XY..XY)
25,10 26,40 27,40 31,140
35,40 36,40 37,230 38,250
39,130 43,10 44,10 47,40
48,30 49,250 50,1800 51,640
52,40 53,20 55,30 56,70
57,240 58,10 60,90 61,230
62,370 63,320 64,10 67,20
68,130 69,880 70,50 71,20
72,290 73,440 74,1380 75,2970
76,490 77,50 79,50 80,320
81,280 84,150 85,300 86,100
87,130 88,70 90,50 91,70
92,60 93,190 94,240 95,1200
96,80 97,20 98,20 99,500
100,100 101,70 102,10 103,40
104,70 105,50 106,40 107,110
108,40 109,130 110,40 111,810
112,80 113,250 114,50 115,20
117,20 118,40 119,230 120,20
121,10 122,10 123,110 124,40
125,1370 126,400 127,30 128,10
129,90 130,2270 131,190 132,730
133,70 135,40 137,10 141,30
143,260 144,280 145,8059 146,620
147,20 153,10 159,40 160,90
161,4020 162,340 163,1280 164,100
179,570 180,9999 181,940 182,3210
183,240 184,10
##END=
