##TITLE=Phenol, 4-(1,1-dimethylethyl)-2-methyl-
##JCAMP-DX=4.24
##DATA TYPE=MASS SPECTRUM
##OWNER=NIST Mass Spectrometry Data Center
Collection (C) 2014 copyright by the U.S. Secretary of Commerce
on behalf of the United States of America. All rights reserved.
##CAS REGISTRY NO=98-27-1
##$NIST MASS SPEC NO=6037
##MOLFORM=C11 H16 O
##MW=164
##$NIST SOURCE=MSDC
##XUNITS=M/Z
##YUNITS=RELATIVE INTENSITY
##XFACTOR=1
##YFACTOR=1
##FIRSTX=15
##LASTX=166
##FIRSTY=20
##MAXX=166
##MINX=15
##MAXY=9999
##MINY=10
##NPOINTS=89
##PEAK TABLE=(XY..XY)
15,20 17,10 18,40 27,160
29,120 38,20 39,310 40,30
41,601 42,30 43,80 44,10
45,40 46,10 50,60 51,250
52,90 53,180 54,20 55,180
56,10 57,100 58,50 59,30
60,40 62,30 63,110 64,80
65,180 66,120 67,90 68,20
69,20 71,10 72,50 73,80
74,70 75,40 76,20 77,500
78,120 79,230 80,40 81,80
82,10 89,60 90,30 91,581
92,60 93,80 94,70 95,30
102,30 103,130 104,40 105,290
106,40 107,290 108,110 109,971
110,80 115,160 116,90 117,50
118,40 119,90 120,60 121,1661
122,160 123,70 127,20 128,40
129,40 130,20 131,110 132,60
133,300 134,100 135,50 145,10
147,70 148,200 149,9999 150,1101
151,80 163,70 164,2612 165,320
166,20
##END=
