##TITLE=5-t-Butyl-1,2,3-trimethylbenzene
##JCAMP-DX=4.24
##DATA TYPE=MASS SPECTRUM
##ORIGIN=NIST Mass Spectrometry Data Center, 1990.
##OWNER=NIST Mass Spectrometry Data Center
Collection (C) 2014 copyright by the U.S. Secretary of Commerce
on behalf of the United States of America. All rights reserved.
##CAS REGISTRY NO=98-23-7
##$NIST MASS SPEC NO=113607
##MOLFORM=C13 H20
##MW=176
##$NIST SOURCE=MSDC
##XUNITS=M/Z
##YUNITS=RELATIVE INTENSITY
##XFACTOR=1
##YFACTOR=1
##FIRSTX=15
##LASTX=177
##FIRSTY=333
##MAXX=177
##MINX=15
##MAXY=9999
##MINY=80
##NPOINTS=59
##PEAK TABLE=(XY..XY)
15,333 27,550 28,111 29,497
39,854 40,163 41,1282 50,114
51,460 52,136 53,349 54,114
55,314 57,131 63,240 64,252
65,473 71,206 72,94 73,80
76,99 77,845 78,309 79,497
81,125 89,135 91,1278 92,132
93,135 102,113 103,322 104,131
105,1184 106,184 115,875 116,284
117,397 118,123 119,1181 120,123
121,2953 122,295 127,213 128,670
129,592 130,337 131,428 132,123
133,2797 134,311 141,106 144,90
145,469 146,124 159,104 161,9999
162,1234 176,2120 177,298
##END=
