##TITLE=Benzenesulfonyl chloride, 3,4-dichloro-
##JCAMP-DX=4.24
##DATA TYPE=MASS SPECTRUM
##ORIGIN=RADIAN CORP
##OWNER=NIST Mass Spectrometry Data Center
Collection (C) 2014 copyright by the U.S. Secretary of Commerce
on behalf of the United States of America. All rights reserved.
##CAS REGISTRY NO=98-31-7
##$NIST MASS SPEC NO=73355
##MOLFORM=C6 H3 Cl3 O2 S
##MW=244
##$NIST SOURCE=MSDC
##XUNITS=M/Z
##YUNITS=RELATIVE INTENSITY
##XFACTOR=1
##YFACTOR=1
##FIRSTX=26
##LASTX=250
##FIRSTY=30
##MAXX=250
##MINX=26
##MAXY=9999
##MINY=10
##NPOINTS=119
##PEAK TABLE=(XY..XY)
26,30 29,10 35,350 36,70
37,480 38,260 39,60 44,20
45,150 47,140 48,1280 49,420
50,980 51,180 53,70 55,70
57,100 58,10 60,180 61,460
62,440 63,470 64,490 65,100
66,20 68,50 69,280 70,30
71,120 72,390 73,1270 74,4050
75,3050 76,190 77,20 79,120
80,20 81,130 82,70 83,250
84,1130 85,650 86,400 87,190
90,100 91,110 92,60 93,90
94,60 95,110 96,90 97,220
98,70 99,150 101,30 103,40
107,300 108,140 109,4940 110,1190
111,1740 112,340 113,60 115,20
118,40 119,130 120,30 121,110
123,30 129,50 130,40 131,30
133,580 134,20 135,370 136,10
137,60 141,30 142,240 143,40
144,20 145,9999 146,510 147,6360
148,650 149,1070 150,100 161,150
162,20 163,100 165,160 167,100
176,40 177,70 178,60 179,40
180,390 181,20 182,310 183,20
184,120 193,200 195,140 197,10
207,20 209,6550 210,210 211,4460
212,320 213,780 214,40 215,20
244,1820 245,40 246,1840 247,60
248,590 249,30 250,80
##END=
