##TITLE=Benzene, 1-nitro-3-(trifluoromethyl)-
##JCAMP-DX=4.24
##DATA TYPE=MASS SPECTRUM
##ORIGIN=NIST Mass Spectrometry Data Center, 1998.
##OWNER=NIST Mass Spectrometry Data Center
Collection (C) 2014 copyright by the U.S. Secretary of Commerce
on behalf of the United States of America. All rights reserved.
##CAS REGISTRY NO=98-46-4
##$NIST MASS SPEC NO=291446
##MOLFORM=C7 H4 F3 N O2
##MW=191
##$NIST SOURCE=MSDC
##XUNITS=M/Z
##YUNITS=RELATIVE INTENSITY
##XFACTOR=1
##YFACTOR=1
##FIRSTX=26
##LASTX=193
##FIRSTY=20
##MAXX=193
##MINX=26
##MAXY=9999
##MINY=10
##NPOINTS=108
##PEAK TABLE=(XY..XY)
26,20 27,30 30,1000 31,80
36,10 37,110 38,180 39,160
44,10 45,10 46,150 48,10
49,100 50,1270 51,420 52,30
53,10 55,10 56,40 57,380
58,10 60,20 61,130 62,210
63,370 64,90 65,10 66,10
68,80 69,590 70,20 72,10
73,140 74,830 75,2180 76,510
77,50 79,20 80,60 81,180
82,30 83,320 84,30 85,30
86,30 87,60 88,100 89,20
90,20 91,10 92,50 93,110
94,200 95,2710 96,170 97,10
98,10 99,430 100,140 101,60
103,10 104,30 105,40 106,40
107,170 108,20 109,20 111,10
112,40 113,580 114,150 115,10
117,10 118,40 119,370 120,20
122,10 123,70 125,2030 126,840
127,60 131,10 132,110 133,1160
134,70 139,30 140,10 141,20
142,20 143,190 144,150 145,9999
146,790 147,20 156,10 158,10
159,10 160,10 161,750 162,60
172,1480 173,110 174,10 175,140
176,10 191,3580 192,280 193,20
##END=
