##TITLE=m-Nitrobenzensulfonic acid
##JCAMP-DX=4.24
##DATA TYPE=MASS SPECTRUM
##ORIGIN=Japan AIST/NIMC Database- Spectrum MS-NW-1892
##OWNER=NIST Mass Spectrometry Data Center
Collection (C) 2014 copyright by the U.S. Secretary of Commerce
on behalf of the United States of America. All rights reserved.
##CAS REGISTRY NO=98-47-5
##$NIST MASS SPEC NO=233470
##MOLFORM=C6 H5 N O5 S
##MW=203
##$NIST SOURCE=MSDC
##XUNITS=M/Z
##YUNITS=RELATIVE INTENSITY
##XFACTOR=1
##YFACTOR=1
##FIRSTX=16
##LASTX=206
##FIRSTY=10
##MAXX=206
##MINX=16
##MAXY=9999
##MINY=10
##NPOINTS=101
##PEAK TABLE=(XY..XY)
16,10 26,60 27,239 28,289
29,80 30,3909 31,20 32,30
37,259 38,589 39,2029 40,80
41,119 42,10 43,50 44,50
45,569 46,169 47,40 48,139
49,139 50,4789 51,759 52,339
53,959 54,50 55,399 56,10
57,50 58,50 59,30 60,20
61,179 62,329 63,1389 64,2029
65,3599 66,229 67,40 68,20
69,229 70,129 71,30 72,20
73,339 74,1889 75,5309 76,3609
77,369 78,30 79,99 80,129
81,2529 82,159 83,139 84,60
85,99 86,10 87,169 88,20
89,60 90,50 91,80 92,2279
93,799 94,119 95,119 96,80
97,20 101,60 105,10 106,10
107,319 108,139 109,5919 110,399
111,139 112,20 113,30 122,379
123,70 124,50 135,10 139,219
140,20 155,10 157,6609 158,529
159,349 160,20 170,20 173,409
174,40 175,20 186,149 187,149
188,20 203,9999 204,799 205,569
206,40
##END=
