##TITLE=Benzenesulfonyl chloride, 4-methyl-
##JCAMP-DX=4.24
##DATA TYPE=MASS SPECTRUM
##ORIGIN=NIST Mass Spectrometry Data Center, 1990.
##OWNER=NIST Mass Spectrometry Data Center
Collection (C) 2014 copyright by the U.S. Secretary of Commerce
on behalf of the United States of America. All rights reserved.
##CAS REGISTRY NO=98-59-9
##$NIST MASS SPEC NO=118628
##MOLFORM=C7 H7 Cl O2 S
##MW=190
##$NIST SOURCE=MSDC
##XUNITS=M/Z
##YUNITS=RELATIVE INTENSITY
##XFACTOR=1
##YFACTOR=1
##FIRSTX=15
##LASTX=194
##FIRSTY=35
##MAXX=194
##MINX=15
##MAXY=9999
##MINY=5
##NPOINTS=74
##PEAK TABLE=(XY..XY)
15,35 18,5 26,60 27,140
28,21 32,25 35,60 36,39
37,89 38,239 39,1244 40,115
41,268 42,22 43,45 44,44
45,285 48,188 49,60 50,417
51,565 52,183 53,139 57,35
58,34 60,27 61,187 62,466
63,1026 64,406 65,2730 66,172
67,58 69,114 70,46 71,32
73,42 74,126 75,101 76,66
77,328 78,122 79,106 82,35
84,17 85,63 86,100 87,78
88,17 89,893 90,17 91,9999
92,724 93,52 95,28 97,20
99,39 108,29 121,49 123,9
124,20 125,92 126,21 127,36
139,75 155,4413 156,390 157,231
182,20 190,1334 191,136 192,515
193,47 194,22
##END=
