##TITLE=Cyclohexanone, 4-(1,1-dimethylethyl)-
##JCAMP-DX=4.24
##DATA TYPE=MASS SPECTRUM
##ORIGIN=Japan AIST/NIMC Database- Spectrum MS-NW-4746
##OWNER=NIST Mass Spectrometry Data Center
Collection (C) 2014 copyright by the U.S. Secretary of Commerce
on behalf of the United States of America. All rights reserved.
##CAS REGISTRY NO=98-53-3
##$NIST MASS SPEC NO=227965
##MOLFORM=C10 H18 O
##MW=154
##$NIST SOURCE=MSDC
##XUNITS=M/Z
##YUNITS=RELATIVE INTENSITY
##XFACTOR=1
##YFACTOR=1
##FIRSTX=15
##LASTX=156
##FIRSTY=30
##MAXX=156
##MINX=15
##MAXY=9999
##MINY=10
##NPOINTS=72
##PEAK TABLE=(XY..XY)
15,30 17,30 18,109 26,20
27,519 28,139 29,1139 30,20
38,10 39,629 40,149 41,2859
42,249 43,879 44,30 45,10
50,10 51,50 52,40 53,349
54,239 55,1589 56,569 57,9999
58,479 59,10 63,10 65,70
66,50 67,389 68,189 69,1049
70,719 71,50 77,80 78,30
79,199 80,149 81,239 82,70
83,1809 84,119 85,10 91,40
93,109 94,40 95,199 96,109
97,899 98,7799 99,1049 100,80
105,20 107,20 109,20 110,10
111,60 112,10 119,30 121,169
122,20 123,10 125,10 135,10
136,10 137,10 138,10 139,499
140,50 154,1799 155,229 156,20
##END=
