##TITLE=Benzenesulfonyl chloride, 4-methoxy-
##JCAMP-DX=4.24
##DATA TYPE=MASS SPECTRUM
##ORIGIN=Japan AIST/NIMC Database- Spectrum MS-IW-1569
##OWNER=NIST Mass Spectrometry Data Center
Collection (C) 2014 copyright by the U.S. Secretary of Commerce
on behalf of the United States of America. All rights reserved.
##CAS REGISTRY NO=98-68-0
##$NIST MASS SPEC NO=235353
##MOLFORM=C7 H7 Cl O3 S
##MW=206
##$NIST SOURCE=MSDC
##XUNITS=M/Z
##YUNITS=RELATIVE INTENSITY
##XFACTOR=1
##YFACTOR=1
##FIRSTX=15
##LASTX=210
##FIRSTY=60
##MAXX=210
##MINX=15
##MAXY=9999
##MINY=10
##NPOINTS=114
##PEAK TABLE=(XY..XY)
15,60 26,50 27,80 28,179
29,80 31,20 32,20 35,20
36,109 37,90 38,429 39,309
40,10 41,209 42,70 43,119
44,50 45,109 47,10 48,179
49,40 50,729 51,419 52,119
53,189 54,50 55,50 56,99
57,159 58,70 59,10 60,10
61,99 62,329 63,1329 64,1829
65,279 66,80 67,20 68,10
69,179 70,119 71,20 72,10
73,90 74,309 75,309 76,369
77,4429 78,489 79,279 80,60
81,20 82,40 83,30 84,70
85,119 86,50 91,30 92,3099
93,249 94,30 95,179 96,90
97,50 98,30 99,239 100,10
101,70 105,10 106,40 107,5189
108,669 109,70 110,10 111,40
112,70 113,10 114,10 115,10
123,2139 124,229 125,99 126,20
127,209 128,20 129,60 135,40
138,40 139,239 140,159 141,40
142,129 143,20 144,40 145,10
150,10 155,579 156,70 157,30
159,10 160,10 170,20 171,9999
172,919 173,549 174,50 175,30
177,10 206,2769 207,239 208,1039
209,90 210,40
##END=
