##TITLE=Benzoic acid, p-tert-butyl-
##JCAMP-DX=4.24
##DATA TYPE=MASS SPECTRUM
##ORIGIN=NIST Mass Spectrometry Data Center, 1990.
##OWNER=NIST Mass Spectrometry Data Center
Collection (C) 2014 copyright by the U.S. Secretary of Commerce
on behalf of the United States of America. All rights reserved.
##CAS REGISTRY NO=98-73-7
##$NIST MASS SPEC NO=118750
##MOLFORM=C11 H14 O2
##MW=178
##$NIST SOURCE=MSDC
##XUNITS=M/Z
##YUNITS=RELATIVE INTENSITY
##XFACTOR=1
##YFACTOR=1
##FIRSTX=15
##LASTX=180
##FIRSTY=143
##MAXX=180
##MINX=15
##MAXY=9999
##MINY=14
##NPOINTS=95
##PEAK TABLE=(XY..XY)
15,143 16,15 17,17 18,42
26,58 27,319 28,79 29,257
38,100 39,972 40,156 41,1627
42,82 43,42 44,31 45,349
50,406 51,793 52,160 53,162
55,115 56,46 57,176 58,173
59,108 61,23 62,105 63,382
64,94 65,463 66,98 67,27
68,18 71,99 72,187 73,16
74,183 75,226 76,256 77,1244
78,294 79,763 80,69 81,57
86,35 87,59 88,37 89,257
90,16 91,3248 92,296 93,53
98,20 99,17 101,95 102,227
103,451 104,88 105,443 106,62
107,583 108,52 113,19 115,844
116,212 117,498 118,301 119,182
120,62 121,17 122,45 123,143
128,29 129,42 131,149 132,27
133,92 134,17 135,3283 136,299
137,40 145,233 146,54 147,46
148,14 149,19 159,17 161,127
163,9999 164,1153 165,114 176,21
178,1641 179,198 180,17
##END=
