##TITLE=Benzene, (1-bromoethenyl)-
##JCAMP-DX=4.24
##DATA TYPE=MASS SPECTRUM
##ORIGIN=Chuck Anderson, Aldrich Chemical Co.
##OWNER=NIST Mass Spectrometry Data Center
Collection (C) 2014 copyright by the U.S. Secretary of Commerce
on behalf of the United States of America. All rights reserved.
##CAS REGISTRY NO=98-81-7
##$NIST MASS SPEC NO=107582
##MOLFORM=C8 H7 Br
##MW=182
##$NIST SOURCE=MSDC
##XUNITS=M/Z
##YUNITS=RELATIVE INTENSITY
##XFACTOR=1
##YFACTOR=1
##FIRSTX=18
##LASTX=185
##FIRSTY=3
##MAXX=185
##MINX=18
##MAXY=9999
##MINY=3
##NPOINTS=47
##PEAK TABLE=(XY..XY)
18,3 26,59 27,128 28,12
32,3 36,11 37,57 38,137
39,210 43,23 49,81 50,764
51,1567 52,272 53,34 61,96
62,236 63,463 64,38 65,11
73,88 74,531 75,479 76,624
77,3212 78,220 79,15 80,11
81,26 82,12 85,12 86,23
87,61 90,13 91,130 92,109
97,12 98,83 99,15 101,102
102,1049 103,9999 104,773 182,1619
183,117 184,1554 185,119
##END=
