##TITLE=Cyclohexanecarboxylic acid
##JCAMP-DX=4.24
##DATA TYPE=MASS SPECTRUM
##ORIGIN=Japan AIST/NIMC Database- Spectrum MS-NW-4853
##OWNER=NIST Mass Spectrometry Data Center
Collection (C) 2014 copyright by the U.S. Secretary of Commerce
on behalf of the United States of America. All rights reserved.
##CAS REGISTRY NO=98-89-5
##$NIST MASS SPEC NO=229971
##MOLFORM=C7 H12 O2
##MW=128
##$NIST SOURCE=MSDC
##XUNITS=M/Z
##YUNITS=RELATIVE INTENSITY
##XFACTOR=1
##YFACTOR=1
##FIRSTX=14
##LASTX=130
##FIRSTY=10
##MAXX=130
##MINX=14
##MAXY=9999
##MINY=10
##NPOINTS=81
##PEAK TABLE=(XY..XY)
14,10 15,139 17,20 18,70
26,189 27,1849 28,509 29,1389
30,40 31,99 37,40 38,119
39,1959 40,359 41,5749 42,669
43,789 44,60 45,449 46,20
47,99 49,10 50,129 51,239
52,109 53,779 54,1059 55,9999
56,4189 57,239 58,109 59,50
60,1259 61,669 62,30 63,30
65,109 66,159 67,1459 68,3819
69,2219 70,119 71,159 72,60
73,7519 74,449 75,40 77,129
78,60 79,289 80,70 81,1039
82,1449 83,5459 84,379 85,149
86,829 87,809 88,30 91,10
92,40 93,10 94,10 95,90
96,139 97,129 98,10 99,1859
100,289 101,20 108,10 109,70
110,1379 111,149 112,10 113,379
114,30 127,249 128,2769 129,279
130,20
##END=
