##TITLE=Benzoyl chloride
##JCAMP-DX=4.24
##DATA TYPE=MASS SPECTRUM
##ORIGIN=NIST Mass Spectrometry Data Center
##OWNER=NIST Mass Spectrometry Data Center
Collection (C) 2014 copyright by the U.S. Secretary of Commerce
on behalf of the United States of America. All rights reserved.
##CAS REGISTRY NO=98-88-4
##$NIST MASS SPEC NO=333883
##MOLFORM=C7 H5 Cl O
##MW=140
##$NIST SOURCE=MSDC
##XUNITS=M/Z
##YUNITS=RELATIVE INTENSITY
##XFACTOR=1
##YFACTOR=1
##FIRSTX=25
##LASTX=143
##FIRSTY=10
##MAXX=143
##MINX=25
##MAXY=9999
##MINY=10
##NPOINTS=55
##PEAK TABLE=(XY..XY)
25,10 26,60 27,70 28,10
29,10 35,60 36,60 37,280
38,480 39,220 40,10 43,10
47,10 48,40 49,310 50,2072
51,2993 52,591 56,20 57,10
60,50 61,170 62,190 63,170
64,10 65,30 66,10 72,40
73,290 74,1011 75,591 76,601
77,7176 78,581 79,20 84,30
85,60 86,40 87,30 89,20
90,10 97,10 103,20 105,9999
106,1341 107,80 108,10 111,30
112,40 113,10 114,10 140,951
141,80 142,310 143,30
##END=
