##TITLE=Pyrazinamide
##JCAMP-DX=4.24
##DATA TYPE=MASS SPECTRUM
##ORIGIN=NIST Mass Spectrometry Data Center, 1990.
##OWNER=NIST Mass Spectrometry Data Center
Collection (C) 2014 copyright by the U.S. Secretary of Commerce
on behalf of the United States of America. All rights reserved.
##CAS REGISTRY NO=98-96-4
##$NIST MASS SPEC NO=118636
##MOLFORM=C5 H5 N3 O
##MW=123
##$NIST SOURCE=MSDC
##XUNITS=M/Z
##YUNITS=RELATIVE INTENSITY
##XFACTOR=1
##YFACTOR=1
##FIRSTX=16
##LASTX=125
##FIRSTY=257
##MAXX=125
##MINX=16
##MAXY=9999
##MINY=58
##NPOINTS=35
##PEAK TABLE=(XY..XY)
16,257 17,134 18,87 25,391
26,2234 27,336 28,1826 29,185
37,103 38,459 39,495 40,401
41,370 42,186 43,346 44,2572
45,147 51,2127 52,5012 53,8305
54,364 66,58 68,107 69,118
76,137 77,256 78,440 79,2251
80,9999 81,620 105,193 106,116
123,8997 124,680 125,65
##END=
