##TITLE=Cyclohexanamine, N,N-dimethyl-
##JCAMP-DX=4.24
##DATA TYPE=MASS SPECTRUM
##ORIGIN=Japan AIST/NIMC Database- Spectrum MS-NW- 571
##OWNER=NIST Mass Spectrometry Data Center
Collection (C) 2014 copyright by the U.S. Secretary of Commerce
on behalf of the United States of America. All rights reserved.
##CAS REGISTRY NO=98-94-2
##$NIST MASS SPEC NO=229064
##MOLFORM=C8 H17 N
##MW=127
##$NIST SOURCE=MSDC
##XUNITS=M/Z
##YUNITS=RELATIVE INTENSITY
##XFACTOR=1
##YFACTOR=1
##FIRSTX=15
##LASTX=128
##FIRSTY=149
##MAXX=128
##MINX=15
##MAXY=9999
##MINY=10
##NPOINTS=59
##PEAK TABLE=(XY..XY)
15,149 26,20 27,239 28,60
29,169 30,60 38,10 39,269
40,30 41,449 42,879 43,219
44,629 45,99 46,40 50,20
51,40 52,20 53,99 54,80
55,339 56,539 57,70 58,619
59,20 60,10 65,20 66,10
67,60 68,99 69,30 70,409
71,1919 72,119 77,40 78,10
79,40 80,10 81,50 82,129
83,60 84,9999 85,739 86,20
94,10 96,60 97,40 98,289
99,20 110,20 112,50 113,10
120,40 121,30 124,20 125,10
126,199 127,1769 128,159
##END=
