##TITLE=Dibenzylamine, 4,4'-dimethyl-
##JCAMP-DX=4.24
##DATA TYPE=MASS SPECTRUM
##ORIGIN=NIST Mass Spectrometry Data Center, 1994
##OWNER=NIST Mass Spectrometry Data Center
Collection (C) 2014 copyright by the U.S. Secretary of Commerce
on behalf of the United States of America. All rights reserved.
##CAS REGISTRY NO=98180-43-9
##$NIST MASS SPEC NO=136264
##MOLFORM=C16 H19 N
##MW=225
##$NIST SOURCE=MSDC
##XUNITS=M/Z
##YUNITS=RELATIVE INTENSITY
##XFACTOR=1
##YFACTOR=1
##FIRSTX=4
##LASTX=226
##FIRSTY=19
##MAXX=226
##MINX=4
##MAXY=9999
##MINY=1
##NPOINTS=74
##PEAK TABLE=(XY..XY)
4,19 15,43 17,16 18,105
26,49 27,794 28,792 29,74
30,65 38,100 39,889 40,109
41,196 42,119 44,1 50,172
51,628 52,228 53,300 54,41
62,66 63,369 64,134 65,952
66,115 67,23 74,49 75,63
77,2187 78,679 79,1753 80,132
86,25 88,25 89,304 90,166
91,2416 92,320 93,651 94,73
101,22 102,116 103,1050 104,22
105,9999 106,2258 107,179 115,27
116,75 117,115 118,625 119,27
120,7126 121,624 122,24 130,62
131,79 132,492 133,187 134,153
135,19 165,64 166,25 178,36
179,24 180,23 208,30 210,136
211,23 222,75 223,132 224,604
225,775 226,135
##END=
