##TITLE=Benzophenone, azine
##JCAMP-DX=4.24
##DATA TYPE=MASS SPECTRUM
##ORIGIN=Japan AIST/NIMC Database- Spectrum MS-IW-5864
##OWNER=NIST Mass Spectrometry Data Center
Collection (C) 2014 copyright by the U.S. Secretary of Commerce
on behalf of the United States of America. All rights reserved.
##CAS REGISTRY NO=983-79-9
##$NIST MASS SPEC NO=242772
##MOLFORM=C26 H20 N2
##MW=360
##$NIST SOURCE=MSDC
##XUNITS=M/Z
##YUNITS=RELATIVE INTENSITY
##XFACTOR=1
##YFACTOR=1
##FIRSTX=26
##LASTX=363
##FIRSTY=40
##MAXX=363
##MINX=26
##MAXY=9999
##MINY=10
##NPOINTS=136
##PEAK TABLE=(XY..XY)
26,40 27,80 28,30 37,50
38,70 39,259 40,10 49,40
50,439 51,1159 52,269 53,20
61,20 62,50 63,159 64,50
65,40 66,10 73,20 74,119
75,229 76,809 77,5089 78,919
79,70 82,10 86,10 87,40
88,40 89,70 90,20 91,30
92,50 98,10 99,30 100,20
101,20 102,149 103,2139 104,559
105,60 110,30 113,50 114,30
115,169 116,20 125,10 126,60
127,70 128,40 129,10 137,10
138,20 139,249 140,60 141,169
150,30 151,219 152,429 153,279
154,179 155,20 162,10 163,209
164,349 165,3579 166,829 167,269
168,40 172,10 176,20 177,109
178,559 179,719 180,4419 181,799
182,279 183,30 185,10 186,10
190,10 191,10 192,30 193,20
194,40 195,269 196,40 202,10
203,20 204,10 205,569 206,129
207,20 215,10 217,10 223,10
226,10 227,10 228,20 229,10
230,20 239,30 240,20 241,80
242,30 243,10 252,40 253,50
254,159 255,80 256,1439 257,1629
258,349 259,30 266,10 267,20
268,20 269,129 270,30 279,10
281,179 282,30 283,9999 284,2309
285,279 286,20 331,10 332,10
333,10 343,10 345,10 359,2779
360,6279 361,1769 362,279 363,20
##END=
