##TITLE=N-Butyryl-DL-homoserine lactone
##JCAMP-DX=4.24
##DATA TYPE=MASS SPECTRUM
##ORIGIN=NIST Mass Spectrometry Data Center
##OWNER=NIST Mass Spectrometry Data Center
Collection (C) 2014 copyright by the U.S. Secretary of Commerce
on behalf of the United States of America. All rights reserved.
##CAS REGISTRY NO=98426-48-3
##$NIST MASS SPEC NO=352478
##MOLFORM=C8 H13 N O3
##MW=171
##$NIST SOURCE=MSDC
##XUNITS=M/Z
##YUNITS=RELATIVE INTENSITY
##XFACTOR=1
##YFACTOR=1
##FIRSTX=14
##LASTX=172
##FIRSTY=10
##MAXX=172
##MINX=14
##MAXY=9999
##MINY=10
##NPOINTS=87
##PEAK TABLE=(XY..XY)
14,10 15,60 18,10 25,10
26,100 27,1121 28,1051 29,631
30,210 31,60 37,20 38,70
39,891 40,180 41,2572 42,951
43,9999 44,841 45,130 46,20
48,20 50,10 51,20 52,50
53,70 54,350 55,1191 56,3123
57,9469 58,470 59,360 60,30
66,10 67,20 68,70 69,140
70,270 71,3843 72,510 73,80
74,180 75,10 80,10 81,10
82,40 83,701 84,450 85,641
86,120 87,120 88,40 89,10
94,10 95,10 96,40 97,50
98,220 99,90 100,440 101,611
102,400 103,20 108,10 109,10
110,20 112,80 113,440 114,80
115,100 116,10 125,420 126,310
127,90 128,210 129,10 138,40
140,10 141,40 143,3723 144,270
145,30 153,220 154,20 156,40
170,10 171,190 172,20
##END=
