##TITLE=O-Ethyl S-2-dimethylaminoethyl ethylphosphonothiolate
##JCAMP-DX=4.24
##DATA TYPE=MASS SPECTRUM
##ORIGIN=VERIFIN - Methodology B1-1979
##OWNER=NIST Mass Spectrometry Data Center
Collection (C) 2014 copyright by the U.S. Secretary of Commerce
on behalf of the United States of America. All rights reserved.
##CAS REGISTRY NO=98543-25-0
##$NIST MASS SPEC NO=226155
##MOLFORM=C8 H20 N O2 P S
##MW=225
##$NIST SOURCE=MSDC
##XUNITS=M/Z
##YUNITS=RELATIVE INTENSITY
##XFACTOR=1
##YFACTOR=1
##FIRSTX=27
##LASTX=180
##FIRSTY=100
##MAXX=180
##MINX=27
##MAXY=9999
##MINY=50
##NPOINTS=20
##PEAK TABLE=(XY..XY)
27,100 29,100 30,70 42,500
43,400 44,200 47,60 56,400
57,100 58,9999 59,300 61,90
65,300 70,300 71,5605 72,600
93,400 102,100 121,50 180,50
##END=
