##TITLE=2-Methylacetoacetic acid, di(trimethylsilyl) deriv.
##JCAMP-DX=4.24
##DATA TYPE=MASS SPECTRUM
##ORIGIN=S.Goodman ET AL.Diagnosis of Organic Acidemias
##OWNER=NIST Mass Spectrometry Data Center
Collection (C) 2014 copyright by the U.S. Secretary of Commerce
on behalf of the United States of America. All rights reserved.
##CAS REGISTRY NO=98779-02-3
##$NIST MASS SPEC NO=281725
##MOLFORM=C11 H24 O3 Si2
##MW=260
##$NIST SOURCE=MSDC
##XUNITS=M/Z
##YUNITS=RELATIVE INTENSITY
##XFACTOR=1
##YFACTOR=1
##FIRSTX=43
##LASTX=247
##FIRSTY=1411
##MAXX=247
##MINX=43
##MAXY=9999
##MINY=10
##NPOINTS=33
##PEAK TABLE=(XY..XY)
43,1411 45,2202 47,350 52,90
53,130 55,190 59,611 61,90
66,340 71,40 72,180 73,6516
74,520 75,1611 76,10 77,140
78,10 83,581 98,250 113,310
127,581 131,470 133,571 147,9999
148,1451 149,861 155,70 170,140
171,1231 191,70 245,5275 246,1131
247,470
##END=
