##TITLE=Pyrimidine, 6-oxo-5-acetyl-4-hydroxy-1,6-dihydro-
##JCAMP-DX=4.24
##DATA TYPE=MASS SPECTRUM
##ORIGIN=V.A. KOPTYUG, VOL5, ATLAS OF MS OF ORGANIC COMPOUNDS
##OWNER=NIST Mass Spectrometry Data Center
Collection (C) 2014 copyright by the U.S. Secretary of Commerce
on behalf of the United States of America. All rights reserved.
##CAS REGISTRY NO=98792-81-5
##$NIST MASS SPEC NO=74272
##MOLFORM=C6 H6 N2 O3
##MW=154
##$NIST SOURCE=MSDC
##XUNITS=M/Z
##YUNITS=RELATIVE INTENSITY
##XFACTOR=1
##YFACTOR=1
##FIRSTX=39
##LASTX=156
##FIRSTY=190
##MAXX=156
##MINX=39
##MAXY=9999
##MINY=30
##NPOINTS=76
##PEAK TABLE=(XY..XY)
39,190 40,190 41,280 42,400
43,1810 44,1610 45,100 46,30
50,40 51,60 52,90 53,120
54,70 55,190 56,230 57,230
58,60 59,70 60,40 65,50
66,130 67,200 68,370 69,1430
70,130 71,2690 72,90 73,30
74,30 77,40 79,30 80,30
81,30 82,40 83,290 84,590
85,160 86,40 92,220 93,30
94,40 95,40 96,30 97,80
98,70 99,40 103,30 104,40
105,30 106,40 108,30 109,30
110,60 111,130 112,890 113,70
120,40 121,40 124,40 125,190
126,130 136,40 137,190 138,90
139,9999 140,570 141,100 147,40
149,80 150,70 151,100 152,40
153,730 154,4890 155,550 156,60
##END=
