##TITLE=Butanedioic acid, 2TBDMS derivative
##JCAMP-DX=4.24
##DATA TYPE=MASS SPECTRUM
##ORIGIN=NIST Mass Spectrometry Data Center
##OWNER=NIST Mass Spectrometry Data Center
Collection (C) 2014 copyright by the U.S. Secretary of Commerce
on behalf of the United States of America. All rights reserved.
##CAS REGISTRY NO=98847-52-0
##$NIST MASS SPEC NO=352518
##MOLFORM=C16 H34 O4 Si2
##MW=346
##$NIST SOURCE=MSDC
##XUNITS=M/Z
##YUNITS=RELATIVE INTENSITY
##XFACTOR=1
##YFACTOR=1
##FIRSTX=27
##LASTX=334
##FIRSTY=50
##MAXX=334
##MINX=27
##MAXY=9999
##MINY=10
##NPOINTS=123
##PEAK TABLE=(XY..XY)
27,50 28,40 29,180 31,10
39,90 40,20 41,410 42,40
43,120 44,30 45,330 46,20
47,220 48,10 49,10 51,10
53,20 55,510 56,200 57,550
58,280 59,470 60,90 61,140
62,10 63,10 66,10 67,10
69,20 70,10 71,30 73,6646
74,661 75,2462 76,170 77,100
81,10 82,10 83,30 84,20
85,150 86,160 87,50 88,50
89,20 97,30 98,10 99,240
100,50 101,140 102,30 103,50
104,10 105,20 109,10 111,10
113,20 114,30 115,691 116,1211
117,330 118,50 119,90 120,10
121,10 129,981 130,200 131,200
132,100 133,1131 134,160 135,130
136,10 137,10 143,30 145,30
147,6576 148,1121 149,811 150,90
151,40 155,10 156,10 157,130
158,20 159,50 160,10 161,20
162,10 171,20 172,10 173,30
175,260 176,60 177,30 181,10
185,10 187,10 189,571 190,210
191,80 192,20 199,310 200,50
201,20 203,170 204,50 205,20
215,350 216,60 217,30 231,10
245,20 246,10 289,9999 290,2592
291,1101 292,170 293,30 331,550
332,150 333,60 334,10
##END=
