##TITLE=Benzoic acid, 3-methyl-
##JCAMP-DX=4.24
##DATA TYPE=MASS SPECTRUM
##ORIGIN=NIST Mass Spectrometry Data Center, 1998.
##OWNER=NIST Mass Spectrometry Data Center
Collection (C) 2014 copyright by the U.S. Secretary of Commerce
on behalf of the United States of America. All rights reserved.
##CAS REGISTRY NO=99-04-7
##$NIST MASS SPEC NO=291073
##MOLFORM=C8 H8 O2
##MW=136
##$NIST SOURCE=MSDC
##XUNITS=M/Z
##YUNITS=RELATIVE INTENSITY
##XFACTOR=1
##YFACTOR=1
##FIRSTX=26
##LASTX=138
##FIRSTY=30
##MAXX=138
##MINX=26
##MAXY=9999
##MINY=20
##NPOINTS=52
##PEAK TABLE=(XY..XY)
26,30 27,90 29,20 37,70
38,180 39,850 40,70 41,140
43,90 44,50 45,360 49,50
50,440 51,550 52,150 53,190
55,30 59,140 61,160 62,450
63,1080 64,250 65,1710 66,130
67,30 74,150 75,110 76,70
77,470 78,80 79,170 84,20
85,70 86,140 87,100 88,30
89,980 90,810 91,9709 92,1590
93,100 105,110 107,290 108,90
118,530 119,5499 120,470 121,120
135,660 136,9999 137,900 138,80
##END=
