##TITLE=Phenol, 3-(dimethylamino)-
##JCAMP-DX=4.24
##DATA TYPE=MASS SPECTRUM
##ORIGIN=Japan AIST/NIMC Database- Spectrum MS-NW-1243
##OWNER=NIST Mass Spectrometry Data Center
Collection (C) 2014 copyright by the U.S. Secretary of Commerce
on behalf of the United States of America. All rights reserved.
##CAS REGISTRY NO=99-07-0
##$NIST MASS SPEC NO=229655
##MOLFORM=C8 H11 N O
##MW=137
##$NIST SOURCE=MSDC
##XUNITS=M/Z
##YUNITS=RELATIVE INTENSITY
##XFACTOR=1
##YFACTOR=1
##FIRSTX=14
##LASTX=139
##FIRSTY=20
##MAXX=139
##MINX=14
##MAXY=9999
##MINY=10
##NPOINTS=78
##PEAK TABLE=(XY..XY)
14,20 15,309 18,20 26,40
27,209 28,109 29,40 30,119
31,10 37,60 38,199 39,839
40,109 41,159 42,789 43,139
44,639 45,50 46,20 49,10
50,119 51,219 52,189 53,159
54,60 55,119 56,10 58,40
59,60 60,99 61,60 62,109
63,309 64,179 65,929 66,349
67,199 68,329 69,50 73,10
74,30 75,40 76,30 77,229
78,99 79,109 80,50 81,119
82,90 90,20 91,239 92,189
93,549 94,789 95,219 96,20
104,30 105,10 106,80 107,229
108,629 109,90 110,70 116,10
117,30 118,40 119,40 120,529
121,1029 122,629 123,249 124,20
134,169 135,70 136,9839 137,9999
138,879 139,60
##END=
