##TITLE=3-Aminoacetophenone
##JCAMP-DX=4.24
##DATA TYPE=MASS SPECTRUM
##ORIGIN=Japan AIST/NIMC Database- Spectrum MS-NW- 190
##OWNER=NIST Mass Spectrometry Data Center
Collection (C) 2014 copyright by the U.S. Secretary of Commerce
on behalf of the United States of America. All rights reserved.
##CAS REGISTRY NO=99-03-6
##$NIST MASS SPEC NO=228056
##MOLFORM=C8 H9 N O
##MW=135
##$NIST SOURCE=MSDC
##XUNITS=M/Z
##YUNITS=RELATIVE INTENSITY
##XFACTOR=1
##YFACTOR=1
##FIRSTX=14
##LASTX=137
##FIRSTY=90
##MAXX=137
##MINX=14
##MAXY=9999
##MINY=30
##NPOINTS=60
##PEAK TABLE=(XY..XY)
14,90 15,449 26,70 27,139
28,409 29,40 30,40 37,189
38,609 39,1749 40,179 41,459
42,179 43,1639 44,40 45,80
46,199 49,60 50,399 51,449
52,679 53,189 54,199 60,159
61,209 62,479 63,1119 64,679
65,4429 66,769 67,80 73,40
74,199 75,149 76,189 77,379
78,179 79,129 80,70 86,30
87,40 88,30 89,129 90,129
91,569 92,9849 93,1059 94,50
104,99 106,319 107,60 118,40
119,149 120,9999 121,819 122,50
134,109 135,8329 136,859 137,60
##END=
