##TITLE=Benzoic acid, 3-hydroxy-
##JCAMP-DX=4.24
##DATA TYPE=MASS SPECTRUM
##ORIGIN=NIST Mass Spectrometry Data Center
##OWNER=NIST Mass Spectrometry Data Center
Collection (C) 2014 copyright by the U.S. Secretary of Commerce
on behalf of the United States of America. All rights reserved.
##CAS REGISTRY NO=99-06-9
##$NIST MASS SPEC NO=365468
##MOLFORM=C7 H6 O3
##MW=138
##$NIST SOURCE=MSDC
##XUNITS=M/Z
##YUNITS=RELATIVE INTENSITY
##XFACTOR=1
##YFACTOR=1
##FIRSTX=20
##LASTX=140
##FIRSTY=40
##MAXX=140
##MINX=20
##MAXY=9999
##MINY=20
##NPOINTS=63
##PEAK TABLE=(XY..XY)
20,40 24,20 26,40 27,150
29,190 31,180 33,20 36,30
37,280 38,681 39,1822 40,280
41,150 42,70 43,70 44,200
45,1922 46,270 47,130 49,150
50,751 51,961 52,90 53,761
54,80 55,530 58,20 60,140
61,330 62,611 63,1361 64,641
65,2793 66,450 69,1521 73,190
74,180 75,150 76,50 81,390
82,110 83,30 84,40 91,70
92,420 93,3443 94,280 95,150
96,50 97,150 107,40 108,20
110,240 111,50 119,40 120,130
121,8828 122,801 127,30 133,40
138,9999 139,851 140,90
##END=
