##TITLE=Tricarballylic acid
##JCAMP-DX=4.24
##DATA TYPE=MASS SPECTRUM
##ORIGIN=Japan AIST/NIMC Database- Spectrum MS-NW-3257
##OWNER=NIST Mass Spectrometry Data Center
Collection (C) 2014 copyright by the U.S. Secretary of Commerce
on behalf of the United States of America. All rights reserved.
##CAS REGISTRY NO=99-14-9
##$NIST MASS SPEC NO=231293
##MOLFORM=C6 H8 O6
##MW=176
##$NIST SOURCE=MSDC
##XUNITS=M/Z
##YUNITS=RELATIVE INTENSITY
##XFACTOR=1
##YFACTOR=1
##FIRSTX=12
##LASTX=159
##FIRSTY=20
##MAXX=159
##MINX=12
##MAXY=9999
##MINY=10
##NPOINTS=92
##PEAK TABLE=(XY..XY)
12,20 13,40 14,269 15,439
16,60 17,119 18,359 24,20
25,99 26,669 27,2559 28,1039
29,1519 30,189 31,489 32,20
36,80 37,359 38,729 39,4609
40,1769 41,8009 42,5919 43,2519
44,1159 45,5419 46,209 47,109
48,60 49,30 50,60 51,30
52,20 53,319 54,109 55,2499
56,149 57,1409 58,4379 59,189
60,1939 61,50 62,10 63,90
64,10 65,20 66,70 67,169
68,1219 69,499 70,60 71,1239
72,90 73,889 74,40 80,20
81,129 82,30 83,30 84,1369
85,3279 86,9999 87,539 88,90
89,139 90,10 94,20 95,339
96,70 97,10 98,10 99,2429
100,149 101,40 102,10 111,30
112,7199 113,3079 114,1889 115,139
116,20 117,429 118,20 130,739
131,139 132,20 139,20 140,4419
141,1299 142,119 158,279 159,109
##END=
