##TITLE=1,3-Benzenedicarboxylic acid, 5-amino-, dimethyl ester
##JCAMP-DX=4.24
##DATA TYPE=MASS SPECTRUM
##ORIGIN=Japan AIST/NIMC Database- Spectrum MS-IW-2507
##OWNER=NIST Mass Spectrometry Data Center
Collection (C) 2014 copyright by the U.S. Secretary of Commerce
on behalf of the United States of America. All rights reserved.
##CAS REGISTRY NO=99-27-4
##$NIST MASS SPEC NO=238407
##MOLFORM=C10 H11 N O4
##MW=209
##$NIST SOURCE=MSDC
##XUNITS=M/Z
##YUNITS=RELATIVE INTENSITY
##XFACTOR=1
##YFACTOR=1
##FIRSTX=15
##LASTX=212
##FIRSTY=99
##MAXX=212
##MINX=15
##MAXY=9999
##MINY=10
##NPOINTS=98
##PEAK TABLE=(XY..XY)
15,99 27,10 28,10 29,30
30,10 31,10 37,10 38,60
39,90 40,20 41,179 42,20
43,10 44,50 45,189 46,10
50,20 51,60 52,239 53,80
54,10 55,10 57,10 58,50
59,219 60,20 61,50 62,179
63,549 64,279 65,289 66,50
67,30 68,20 69,40 71,10
73,229 74,60 75,90 76,10
77,80 78,70 79,179 80,40
81,10 88,70 89,159 90,279
91,599 92,269 93,129 94,70
95,80 97,10 104,20 105,20
106,60 107,299 108,40 109,10
117,40 118,259 119,169 120,479
121,90 122,1579 123,139 124,10
132,10 133,10 134,20 135,879
136,99 137,20 144,30 148,20
149,119 150,3029 151,1279 152,119
153,10 162,10 163,20 164,119
165,20 176,40 177,60 178,7939
179,869 180,99 181,10 193,10
194,20 208,99 209,9999 210,1159
211,149 212,10
##END=
