##TITLE=Botran
##JCAMP-DX=4.24
##DATA TYPE=MASS SPECTRUM
##ORIGIN=NIST Mass Spectrometry Data Center, 1990.
##OWNER=NIST Mass Spectrometry Data Center
Collection (C) 2014 copyright by the U.S. Secretary of Commerce
on behalf of the United States of America. All rights reserved.
##CAS REGISTRY NO=99-30-9
##$NIST MASS SPEC NO=118962
##MOLFORM=C6 H4 Cl2 N2 O2
##MW=206
##$NIST SOURCE=MSDC
##XUNITS=M/Z
##YUNITS=RELATIVE INTENSITY
##XFACTOR=1
##YFACTOR=1
##FIRSTX=15
##LASTX=211
##FIRSTY=47
##MAXX=211
##MINX=15
##MAXY=9999
##MINY=10
##NPOINTS=117
##PEAK TABLE=(XY..XY)
15,47 16,35 18,10 25,62
26,93 28,894 29,129 30,1523
31,128 32,164 35,119 36,147
37,621 38,452 39,366 40,73
41,145 42,41 44,181 46,272
47,220 48,188 49,488 50,448
51,628 52,2010 53,239 60,447
61,1703 62,2654 63,1972 64,410
65,603 66,70 71,83 72,413
73,1287 74,548 75,1049 76,736
77,299 78,441 79,58 80,58
83,213 84,125 85,379 86,445
87,441 88,884 89,1754 90,1935
91,194 95,205 96,474 97,2169
98,689 99,889 100,301 101,111
102,52 103,41 104,148 105,48
106,73 107,224 108,61 109,208
110,93 111,79 112,452 113,229
114,308 115,96 116,56 121,163
124,9155 125,2021 126,3070 127,662
131,104 133,2424 134,303 135,1582
136,138 137,265 139,216 140,381
141,121 142,102 148,1459 149,151
150,1061 151,58 152,170 159,655
160,4610 161,660 162,2963 163,280
164,458 171,53 173,45 176,8952
178,5764 179,513 180,916 181,115
190,294 192,168 194,52 206,9999
207,1311 208,6364 209,554 210,1038
211,106
##END=
