##TITLE=Benzoic acid, 3,5-dinitro-
##JCAMP-DX=4.24
##DATA TYPE=MASS SPECTRUM
##ORIGIN=Japan AIST/NIMC Database- Spectrum MS-NW- 474
##OWNER=NIST Mass Spectrometry Data Center
Collection (C) 2014 copyright by the U.S. Secretary of Commerce
on behalf of the United States of America. All rights reserved.
##CAS REGISTRY NO=99-34-3
##$NIST MASS SPEC NO=229085
##MOLFORM=C7 H4 N2 O6
##MW=212
##$NIST SOURCE=MSDC
##XUNITS=M/Z
##YUNITS=RELATIVE INTENSITY
##XFACTOR=1
##YFACTOR=1
##FIRSTX=17
##LASTX=214
##FIRSTY=40
##MAXX=214
##MINX=17
##MAXY=9999
##MINY=10
##NPOINTS=106
##PEAK TABLE=(XY..XY)
17,40 18,189 25,10 26,40
27,99 28,259 29,129 30,9999
31,40 36,40 37,389 38,589
39,439 40,50 41,30 42,30
43,30 44,169 45,689 46,249
48,30 49,139 50,1689 51,449
52,599 53,729 54,70 55,249
56,20 57,20 60,60 61,349
62,699 63,1689 64,1429 65,199
66,319 67,90 68,70 69,579
70,70 71,20 72,40 73,559
74,4209 75,7049 76,779 77,109
78,40 79,219 80,279 81,40
82,129 83,20 86,40 87,80
88,70 89,30 90,149 91,429
92,1169 93,259 94,60 95,30
96,30 98,40 99,30 101,489
102,1289 103,389 104,50 106,10
107,50 108,179 109,20 110,50
118,60 119,4359 120,2859 121,419
122,70 123,30 124,20 134,40
135,40 136,1509 137,139 138,20
148,179 149,359 150,40 151,30
152,20 165,10 166,2799 167,249
168,109 182,129 183,20 195,259
196,299 197,30 198,10 212,7959
213,709 214,129
##END=
