##TITLE=Carvone
##JCAMP-DX=4.24
##DATA TYPE=MASS SPECTRUM
##ORIGIN=N.W. Davies, Centr. Sci. Lab., Univ. Tasmania, Hobart, Australia
##OWNER=NIST Mass Spectrometry Data Center
Collection (C) 2014 copyright by the U.S. Secretary of Commerce
on behalf of the United States of America. All rights reserved.
##CAS REGISTRY NO=99-49-0
##$NIST MASS SPEC NO=107135
##MOLFORM=C10 H14 O
##MW=150
##$NIST SOURCE=MSDC
##XUNITS=M/Z
##YUNITS=RELATIVE INTENSITY
##XFACTOR=1
##YFACTOR=1
##FIRSTX=27
##LASTX=151
##FIRSTY=820
##MAXX=151
##MINX=27
##MAXY=9999
##MINY=110
##NPOINTS=42
##PEAK TABLE=(XY..XY)
27,820 29,200 38,200 39,3410
40,110 41,2280 42,200 43,120
50,290 51,670 52,370 53,1660
54,4360 55,450 58,970 63,190
65,430 66,210 67,730 68,200
69,310 77,700 78,200 79,980
80,470 82,9999 83,570 91,810
92,440 93,2610 94,530 95,320
105,190 106,1110 107,1620 108,2540
109,370 121,140 122,130 135,280
150,970 151,110
##END=
