##TITLE=Carveol
##JCAMP-DX=4.24
##DATA TYPE=MASS SPECTRUM
##ORIGIN=Japan AIST/NIMC Database- Spectrum MS-NW-7594
##OWNER=NIST Mass Spectrometry Data Center
Collection (C) 2014 copyright by the U.S. Secretary of Commerce
on behalf of the United States of America. All rights reserved.
##CAS REGISTRY NO=99-48-9
##$NIST MASS SPEC NO=238586
##MOLFORM=C10 H16 O
##MW=152
##$NIST SOURCE=MSDC
##XUNITS=M/Z
##YUNITS=RELATIVE INTENSITY
##XFACTOR=1
##YFACTOR=1
##FIRSTX=14
##LASTX=153
##FIRSTY=10
##MAXX=153
##MINX=14
##MAXY=9999
##MINY=10
##NPOINTS=114
##PEAK TABLE=(XY..XY)
14,10 15,80 16,20 17,269
18,20 26,60 27,859 28,129
29,369 30,10 31,40 37,40
38,159 39,2129 40,309 41,2919
42,189 43,459 44,70 45,50
49,20 50,339 51,1079 52,399
53,949 54,279 55,1439 56,389
57,169 58,149 59,70 60,30
61,60 62,189 63,559 64,249
65,1299 66,329 67,589 68,219
69,629 70,60 71,80 72,60
73,10 74,109 75,109 76,90
77,3389 78,959 79,2149 80,809
81,529 82,519 83,989 84,2289
85,139 86,50 87,60 88,20
89,249 90,90 91,8619 92,3809
93,3609 94,649 95,459 96,229
97,199 98,20 99,10 101,40
102,159 103,719 104,489 105,2819
106,1109 107,529 108,409 109,2289
110,279 111,60 112,10 113,20
114,20 115,869 116,299 117,1789
118,339 119,9999 120,1009 121,129
122,30 123,269 124,80 125,10
126,10 127,40 128,99 129,60
130,20 131,209 132,859 133,529
134,6779 135,789 136,60 137,349
138,40 148,20 150,40 151,10
152,439 153,50
##END=
