##TITLE=Benzoic acid, 4-amino-3-butoxy-, 2-(diethylamino)ethyl ester
##JCAMP-DX=4.24
##DATA TYPE=MASS SPECTRUM
##ORIGIN=Tox21 Consortium/NIST Mass Spectrometry Data Center, 2012
##OWNER=NIST Mass Spectrometry Data Center
Collection (C) 2014 copyright by the U.S. Secretary of Commerce
on behalf of the United States of America. All rights reserved.
##CAS REGISTRY NO=99-43-4
##$NIST MASS SPEC NO=408056
##MOLFORM=C17 H28 N2 O3
##MW=308
##$NIST SOURCE=MSDC
##XUNITS=M/Z
##YUNITS=RELATIVE INTENSITY
##XFACTOR=1
##YFACTOR=1
##FIRSTX=15
##LASTX=265
##FIRSTY=10
##MAXX=265
##MINX=15
##MAXY=9999
##MINY=10
##NPOINTS=102
##PEAK TABLE=(XY..XY)
15,10 18,10 26,10 27,80
28,130 29,320 30,260 31,10
39,50 40,10 41,210 42,170
43,50 44,150 45,10 50,10
51,30 52,110 53,120 54,40
55,60 56,310 57,140 58,410
59,10 63,30 64,20 65,30
66,10 67,10 68,20 69,20
70,230 71,631 72,140 73,10
74,10 76,10 77,10 78,60
79,210 80,340 81,30 82,10
84,430 86,9999 87,601 88,20
90,30 91,80 92,20 93,20
94,10 96,30 97,40 99,3713
100,450 101,20 102,10 104,10
105,10 106,70 107,210 108,210
109,40 110,10 114,10 116,10
119,50 120,20 121,30 122,20
123,10 124,20 125,10 134,20
135,160 136,571 137,50 138,10
148,20 150,30 152,20 153,130
154,10 162,20 163,10 164,50
165,10 166,10 179,110 180,50
181,10 190,20 192,661 193,80
194,10 209,60 210,10 236,130
237,20 265,10
##END=
