##TITLE=Benzenamine, 2-methyl-4-nitro-
##JCAMP-DX=4.24
##DATA TYPE=MASS SPECTRUM
##ORIGIN=Japan AIST/NIMC Database- Spectrum MS-NW-1472
##OWNER=NIST Mass Spectrometry Data Center
Collection (C) 2014 copyright by the U.S. Secretary of Commerce
on behalf of the United States of America. All rights reserved.
##CAS REGISTRY NO=99-52-5
##$NIST MASS SPEC NO=229346
##MOLFORM=C7 H8 N2 O2
##MW=152
##$NIST SOURCE=MSDC
##XUNITS=M/Z
##YUNITS=RELATIVE INTENSITY
##XFACTOR=1
##YFACTOR=1
##FIRSTX=14
##LASTX=154
##FIRSTY=50
##MAXX=154
##MINX=14
##MAXY=9999
##MINY=10
##NPOINTS=97
##PEAK TABLE=(XY..XY)
14,50 15,139 16,40 17,10
18,30 25,10 26,149 27,689
28,1029 29,179 30,459 31,199
32,219 36,10 37,209 38,519
39,1729 40,279 41,789 42,559
43,60 44,129 45,20 46,99
49,90 50,879 51,1879 52,1679
53,1379 54,909 55,179 56,40
57,50 59,20 60,20 61,119
62,369 63,889 64,299 65,629
66,689 67,459 68,109 69,20
71,30 72,10 73,70 74,269
75,279 76,349 77,6429 78,1779
79,5609 80,659 81,60 82,10
83,10 84,10 85,20 86,60
87,50 88,40 89,229 90,90
91,209 92,90 93,429 94,1489
95,119 97,10 99,20 100,30
102,60 103,60 104,1379 105,729
106,4099 107,359 108,20 109,20
117,10 118,10 119,60 120,40
121,60 122,5439 123,459 124,40
135,40 136,349 137,30 149,40
150,109 151,99 152,9999 153,899
154,80
##END=
