##TITLE=1,3-Benzenedicarbonyl dichloride
##JCAMP-DX=4.24
##DATA TYPE=MASS SPECTRUM
##ORIGIN=NIST Mass Spectrometry Data Center, 1994
##OWNER=NIST Mass Spectrometry Data Center
Collection (C) 2014 copyright by the U.S. Secretary of Commerce
on behalf of the United States of America. All rights reserved.
##CAS REGISTRY NO=99-63-8
##$NIST MASS SPEC NO=134432
##MOLFORM=C8 H4 Cl2 O2
##MW=202
##$NIST SOURCE=MSDC
##XUNITS=M/Z
##YUNITS=RELATIVE INTENSITY
##XFACTOR=1
##YFACTOR=1
##FIRSTX=14
##LASTX=206
##FIRSTY=29
##MAXX=206
##MINX=14
##MAXY=9999
##MINY=4
##NPOINTS=60
##PEAK TABLE=(XY..XY)
14,29 15,13 16,4 18,25
25,41 26,110 28,40 29,61
35,198 36,112 37,584 38,732
39,69 43,41 44,12 47,23
49,384 50,1957 51,245 52,587
53,159 60,50 61,193 62,128
63,173 66,690 73,353 74,1246
75,1890 76,1924 77,275 78,17
84,59 85,131 86,77 87,50
96,12 103,1779 104,1147 105,105
109,28 111,979 112,94 113,330
114,23 132,38 139,1054 140,100
141,319 142,23 167,9999 168,1048
169,3393 170,275 171,27 202,84
203,7 204,55 205,4 206,9
##END=
