##TITLE=Valproic Acid
##JCAMP-DX=4.24
##DATA TYPE=MASS SPECTRUM
##ORIGIN=NIST Mass Spectrometry Data Center
##OWNER=NIST Mass Spectrometry Data Center
Collection (C) 2014 copyright by the U.S. Secretary of Commerce
on behalf of the United States of America. All rights reserved.
##CAS REGISTRY NO=99-66-1
##$NIST MASS SPEC NO=343602
##MOLFORM=C8 H16 O2
##MW=144
##$NIST SOURCE=MSDC
##XUNITS=M/Z
##YUNITS=RELATIVE INTENSITY
##XFACTOR=1
##YFACTOR=1
##FIRSTX=14
##LASTX=116
##FIRSTY=20
##MAXX=116
##MINX=14
##MAXY=9999
##MINY=20
##NPOINTS=54
##PEAK TABLE=(XY..XY)
14,20 15,70 26,90 27,1431
28,320 29,1131 30,30 31,100
38,50 39,861 40,160 41,1962
42,400 43,1131 44,50 45,591
46,20 50,20 51,60 53,180
54,90 55,1411 56,230 57,1471
58,90 59,140 60,100 65,30
67,80 68,50 69,230 70,40
71,50 73,9999 74,450 75,50
77,20 79,20 81,20 82,20
83,160 84,80 85,20 87,80
88,20 97,60 98,30 99,20
101,751 102,6536 103,350 104,40
115,530 116,30
##END=
