##TITLE=Phenol, 4-(1-methylpropyl)-
##JCAMP-DX=4.24
##DATA TYPE=MASS SPECTRUM
##ORIGIN=Japan AIST/NIMC Database- Spectrum MS-NW-1821
##OWNER=NIST Mass Spectrometry Data Center
Collection (C) 2014 copyright by the U.S. Secretary of Commerce
on behalf of the United States of America. All rights reserved.
##CAS REGISTRY NO=99-71-8
##$NIST MASS SPEC NO=228825
##MOLFORM=C10 H14 O
##MW=150
##$NIST SOURCE=MSDC
##XUNITS=M/Z
##YUNITS=RELATIVE INTENSITY
##XFACTOR=1
##YFACTOR=1
##FIRSTX=15
##LASTX=152
##FIRSTY=10
##MAXX=152
##MINX=15
##MAXY=9999
##MINY=10
##NPOINTS=70
##PEAK TABLE=(XY..XY)
15,10 18,20 26,20 27,299
28,10 29,179 37,10 38,60
39,529 40,70 41,289 42,10
43,40 50,90 51,289 52,90
53,159 54,10 55,189 59,10
61,20 62,60 63,199 64,60
65,499 66,119 67,30 74,30
75,40 76,20 77,1269 78,189
79,129 80,10 81,30 87,10
89,80 90,30 91,959 92,149
93,429 94,159 95,109 101,20
102,40 103,859 104,80 105,70
106,20 107,1099 108,90 115,70
116,20 117,20 118,30 119,169
120,299 121,9999 122,889 123,50
131,30 132,10 133,70 134,40
135,389 136,40 149,10 150,1749
151,189 152,10
##END=
