##TITLE=Methylparaben
##JCAMP-DX=4.24
##DATA TYPE=MASS SPECTRUM
##ORIGIN=NIST Mass Spectrometry Data Center, 1990.
##OWNER=NIST Mass Spectrometry Data Center
Collection (C) 2014 copyright by the U.S. Secretary of Commerce
on behalf of the United States of America. All rights reserved.
##CAS REGISTRY NO=99-76-3
##$NIST MASS SPEC NO=118948
##MOLFORM=C8 H8 O3
##MW=152
##$NIST SOURCE=MSDC
##XUNITS=M/Z
##YUNITS=RELATIVE INTENSITY
##XFACTOR=1
##YFACTOR=1
##FIRSTX=12
##LASTX=154
##FIRSTY=11
##MAXX=154
##MINX=12
##MAXY=9999
##MINY=3
##NPOINTS=74
##PEAK TABLE=(XY..XY)
12,11 13,6 14,39 15,355
16,3 17,6 18,25 25,14
26,53 27,115 28,177 29,266
30,60 31,69 36,18 37,172
38,444 39,1441 40,55 41,61
42,34 43,29 44,23 45,19
46,39 49,35 50,210 51,134
52,73 53,336 54,40 55,49
59,55 61,138 62,333 63,718
64,442 65,2001 66,248 67,38
68,8 69,12 73,37 74,123
75,77 76,32 77,43 78,10
79,32 80,49 81,27 82,9
90,13 92,362 93,2412 94,185
95,104 96,9 105,7 106,13
107,58 108,50 109,59 121,9999
122,790 123,159 124,16 134,6
135,25 136,27 149,6 152,3592
153,328 154,33
##END=
