##TITLE=.gamma.-Terpinene
##JCAMP-DX=4.24
##DATA TYPE=MASS SPECTRUM
##ORIGIN=Japan AIST/NIMC Database- Spectrum MS-NW-9657
##OWNER=NIST Mass Spectrometry Data Center
Collection (C) 2014 copyright by the U.S. Secretary of Commerce
on behalf of the United States of America. All rights reserved.
##CAS REGISTRY NO=99-85-4
##$NIST MASS SPEC NO=239106
##MOLFORM=C10 H16
##MW=136
##$NIST SOURCE=MSDC
##XUNITS=M/Z
##YUNITS=RELATIVE INTENSITY
##XFACTOR=1
##YFACTOR=1
##FIRSTX=15
##LASTX=138
##FIRSTY=10
##MAXX=138
##MINX=15
##MAXY=9999
##MINY=10
##NPOINTS=71
##PEAK TABLE=(XY..XY)
15,10 26,10 27,519 28,40
29,259 38,30 39,689 40,99
41,999 42,50 43,1759 44,60
50,90 51,409 52,169 53,409
54,30 55,279 56,20 57,80
58,109 59,50 60,20 62,40
63,159 64,50 65,519 66,80
67,259 68,90 69,50 74,20
75,30 76,20 77,2819 78,429
79,1859 80,779 81,209 82,20
87,10 89,80 90,30 91,3729
92,2149 93,9999 94,959 95,70
102,40 103,219 104,90 105,979
106,229 107,729 108,129 109,10
115,149 116,40 117,169 118,30
119,869 120,109 121,3039 122,299
123,10 133,10 134,189 135,80
136,3589 137,419 138,20
##END=
