##TITLE=1,4-Benzenediamine, N,N-dimethyl-
##JCAMP-DX=4.24
##DATA TYPE=MASS SPECTRUM
##ORIGIN=NIST Mass Spectrometry Data Center, 2010
##OWNER=NIST Mass Spectrometry Data Center
Collection (C) 2014 copyright by the U.S. Secretary of Commerce
on behalf of the United States of America. All rights reserved.
##CAS REGISTRY NO=99-98-9
##$NIST MASS SPEC NO=374673
##MOLFORM=C8 H12 N2
##MW=136
##$NIST SOURCE=MSDC
##XUNITS=M/Z
##YUNITS=RELATIVE INTENSITY
##XFACTOR=1
##YFACTOR=1
##FIRSTX=15
##LASTX=137
##FIRSTY=110
##MAXX=137
##MINX=15
##MAXY=9999
##MINY=30
##NPOINTS=57
##PEAK TABLE=(XY..XY)
15,110 26,50 27,150 37,60
38,100 39,490 41,310 42,380
44,330 45,90 47,30 48,40
50,80 51,230 52,320 53,110
54,100 56,90 60,1021 61,80
62,90 63,270 64,190 65,1441
66,450 67,470 68,771 71,90
75,60 76,100 77,621 78,240
79,170 80,240 81,150 82,280
84,70 90,50 91,330 92,1011
93,2052 94,1802 95,80 105,350
106,230 107,130 108,80 118,190
119,1311 120,3263 121,3924 122,120
126,110 133,140 135,4824 136,9999
137,891
##END=
