##TITLE=Silane, methyl-
##JCAMP-DX=4.24
##DATA TYPE=MASS SPECTRUM
##ORIGIN=R.W.CRAWFORD UNIV. OF CALIFORNIA, LIVERMORE, CALIFORNIA, USA
##OWNER=NIST Mass Spectrometry Data Center
Collection (C) 2014 copyright by the U.S. Secretary of Commerce
on behalf of the United States of America. All rights reserved.
##CAS REGISTRY NO=992-94-9
##$NIST MASS SPEC NO=80
##MOLFORM=C H6 Si
##MW=46
##$NIST SOURCE=MSDC
##XUNITS=M/Z
##YUNITS=RELATIVE INTENSITY
##XFACTOR=1
##YFACTOR=1
##FIRSTX=2
##LASTX=48
##FIRSTY=82
##MAXX=48
##MINX=2
##MAXY=9999
##MINY=5
##NPOINTS=19
##PEAK TABLE=(XY..XY)
2,82 12,80 13,117 14,217
15,374 28,2795 29,2590 31,1508
32,149 33,45 40,281 41,1518
42,2177 43,4683 44,9999 45,7749
46,794 47,246 48,5
##END=
