##TITLE=Digermane, hexamethyl-
##JCAMP-DX=4.24
##DATA TYPE=MASS SPECTRUM
##ORIGIN=A.A.Kutin, Moscow, Russia
##OWNER=NIST Mass Spectrometry Data Center
Collection (C) 2014 copyright by the U.S. Secretary of Commerce
on behalf of the United States of America. All rights reserved.
##CAS REGISTRY NO=993-52-2
##$NIST MASS SPEC NO=301885
##MOLFORM=C6 H18 Ge2
##MW=238
##$NIST SOURCE=MSDC
##XUNITS=M/Z
##YUNITS=RELATIVE INTENSITY
##XFACTOR=1
##YFACTOR=1
##FIRSTX=36
##LASTX=240
##FIRSTY=2
##MAXX=240
##MINX=36
##MAXY=9999
##MINY=2
##NPOINTS=118
##PEAK TABLE=(XY..XY)
36,2 38,2 39,87 40,27
41,246 42,63 43,308 44,54
45,3 53,8 55,94 56,163
57,683 58,25 67,3 69,65
70,180 71,321 72,120 73,267
74,222 75,299 76,34 77,76
83,32 85,1462 87,2172 88,696
89,2532 90,194 91,915 92,39
93,82 95,20 97,69 98,49
99,207 100,410 101,260 102,499
103,396 104,686 105,247 106,134
107,46 111,30 112,9 115,6502
117,8797 118,2901 119,9999 121,2509
122,51 127,2 128,5 129,4
137,2 142,12 143,11 144,32
145,21 146,41 147,23 148,25
149,11 150,3 153,9 155,50
156,30 157,127 158,58 159,154
160,63 161,134 162,41 163,66
164,3 165,12 169,9 170,6
171,26 172,18 173,33 174,22
175,30 176,23 177,22 178,10
187,15 189,24 190,3 191,26
193,13 203,12 205,13 207,14
215,210 217,633 218,244 219,1121
220,308 221,1137 222,364 223,784
224,108 225,248 226,9 227,22
230,59 232,204 233,78 234,339
235,115 236,352 237,116 238,244
239,32 240,72
##END=
