##TITLE=Silane, trimethyl-
##JCAMP-DX=4.24
##DATA TYPE=MASS SPECTRUM
##ORIGIN=R.W.CRAWFORD UNIV. OF CALIFORNIA, LIVERMORE, CALIFORNIA, USA
##OWNER=NIST Mass Spectrometry Data Center
Collection (C) 2014 copyright by the U.S. Secretary of Commerce
on behalf of the United States of America. All rights reserved.
##CAS REGISTRY NO=993-07-7
##$NIST MASS SPEC NO=19189
##MOLFORM=C3 H10 Si
##MW=74
##$NIST SOURCE=MSDC
##XUNITS=M/Z
##YUNITS=RELATIVE INTENSITY
##XFACTOR=1
##YFACTOR=1
##FIRSTX=2
##LASTX=76
##FIRSTY=312
##MAXX=76
##MINX=2
##MAXY=9999
##MINY=1
##NPOINTS=53
##PEAK TABLE=(XY..XY)
2,312 12,33 13,72 14,206
15,839 16,203 17,3 18,3
24,1 25,6 26,46 27,119
28,812 29,1311 30,163 31,1211
32,64 33,39 37,2 38,2
39,9 40,29 41,261 42,957
43,3017 44,408 45,1163 46,73
47,40 52,45 53,487 54,109
55,338 56,59 57,411 58,1959
59,9999 60,781 61,364 62,10
64,5 65,30 66,32 67,17
68,3 69,4 70,9 71,18
72,39 73,4793 74,410 75,172
76,6
##END=
