##TITLE=5-Methyl-1-hepten-4-ol
##JCAMP-DX=4.24
##DATA TYPE=MASS SPECTRUM
##ORIGIN=NIST Mass Spectrometry Data Center, 1990.
##OWNER=NIST Mass Spectrometry Data Center
Collection (C) 2014 copyright by the U.S. Secretary of Commerce
on behalf of the United States of America. All rights reserved.
##CAS REGISTRY NO=99328-46-8
##$NIST MASS SPEC NO=113762
##MOLFORM=C8 H16 O
##MW=128
##$NIST SOURCE=MSDC
##XUNITS=M/Z
##YUNITS=RELATIVE INTENSITY
##XFACTOR=1
##YFACTOR=1
##FIRSTX=15
##LASTX=88
##FIRSTY=235
##MAXX=88
##MINX=15
##MAXY=9999
##MINY=135
##NPOINTS=30
##PEAK TABLE=(XY..XY)
15,235 26,245 27,2134 28,1195
29,2771 30,135 31,851 32,174
39,2341 41,5658 42,793 43,3859
45,9999 46,214 51,174 53,454
54,146 55,643 56,313 57,2217
58,406 59,136 67,246 69,4187
70,542 71,1648 81,146 85,141
87,5704 88,325
##END=
