##TITLE=Disiloxane, hexaethyl-
##JCAMP-DX=4.24
##DATA TYPE=MASS SPECTRUM
##ORIGIN=V.G. Zaikin, TIPS RAS, Moscow, Russia
##OWNER=NIST Mass Spectrometry Data Center
Collection (C) 2014 copyright by the U.S. Secretary of Commerce
on behalf of the United States of America. All rights reserved.
##CAS REGISTRY NO=994-49-0
##$NIST MASS SPEC NO=278943
##MOLFORM=C12 H30 O Si2
##MW=246
##$NIST SOURCE=MSDC
##XUNITS=M/Z
##YUNITS=RELATIVE INTENSITY
##XFACTOR=1
##YFACTOR=1
##FIRSTX=27
##LASTX=220
##FIRSTY=2162
##MAXX=220
##MINX=27
##MAXY=9999
##MINY=40
##NPOINTS=142
##PEAK TABLE=(XY..XY)
27,2162 28,480 29,2492 30,70
31,591 35,40 36,160 37,40
38,90 39,190 40,90 41,480
42,90 43,821 44,490 45,991
46,60 47,160 49,70 50,190
51,550 52,1291 53,210 54,80
55,520 56,210 57,1451 58,470
59,3683 60,250 61,140 63,80
64,80 65,380 66,3293 67,240
68,60 69,190 70,80 71,250
72,250 73,1151 74,310 75,711
76,60 77,1451 78,190 79,581
80,2793 81,460 82,290 84,170
85,310 86,90 87,1621 88,240
89,480 90,60 91,510 92,70
93,180 94,1591 95,280 96,220
97,80 98,40 99,110 100,40
101,490 102,290 103,1682 104,190
105,2963 106,380 107,230 108,60
109,40 110,280 111,60 113,60
114,40 115,290 116,80 117,190
118,40 119,110 121,140 122,40
123,80 127,40 129,70 130,110
131,851 132,120 133,1812 134,290
135,80 136,40 137,410 138,60
139,40 140,40 141,40 142,40
145,60 146,40 147,90 149,60
151,40 157,60 158,40 159,550
160,190 161,3693 162,661 163,280
168,40 169,40 171,40 173,40
174,40 175,40 177,40 180,60
186,40 187,230 188,180 189,6396
190,1191 191,561 192,60 193,40
195,40 202,40 205,60 207,40
214,60 216,250 217,9999 218,2142
219,881 220,110
##END=
