##TITLE=Butane, 2-methoxy-2-methyl-
##JCAMP-DX=4.24
##DATA TYPE=MASS SPECTRUM
##ORIGIN=D.HENNEBERG, MAX-PLANCK INSTITUTE, MULHEIM, WEST GERMANY
##OWNER=NIST Mass Spectrometry Data Center
Collection (C) 2014 copyright by the U.S. Secretary of Commerce
on behalf of the United States of America. All rights reserved.
##CAS REGISTRY NO=994-05-8
##$NIST MASS SPEC NO=61443
##MOLFORM=C6 H14 O
##MW=102
##$NIST SOURCE=MSDC
##XUNITS=M/Z
##YUNITS=RELATIVE INTENSITY
##XFACTOR=1
##YFACTOR=1
##FIRSTX=26
##LASTX=88
##FIRSTY=115
##MAXX=88
##MINX=26
##MAXY=9999
##MINY=6
##NPOINTS=38
##PEAK TABLE=(XY..XY)
26,115 27,441 28,255 29,926
30,14 31,163 32,10 33,81
35,12 39,318 40,71 41,1062
42,330 43,2831 44,98 45,910
46,10 50,13 52,12 53,102
54,25 55,2460 56,119 57,194
58,17 59,224 67,22 69,52
70,169 71,1129 72,95 73,9999
74,417 75,13 80,6 85,19
87,2314 88,132
##END=
