##TITLE=Stannane, chlorotriethyl-
##JCAMP-DX=4.24
##DATA TYPE=MASS SPECTRUM
##ORIGIN=K. LEVSEN, INST. PHYS. CHEM., UNIV. BONN, W. GER
##OWNER=NIST Mass Spectrometry Data Center
Collection (C) 2014 copyright by the U.S. Secretary of Commerce
on behalf of the United States of America. All rights reserved.
##CAS REGISTRY NO=994-31-0
##$NIST MASS SPEC NO=90713
##MOLFORM=C6 H15 Cl Sn
##MW=242
##$NIST SOURCE=MSDC
##XUNITS=M/Z
##YUNITS=RELATIVE INTENSITY
##XFACTOR=1
##YFACTOR=1
##FIRSTX=14
##LASTX=246
##FIRSTY=200
##MAXX=246
##MINX=14
##MAXY=9999
##MINY=100
##NPOINTS=83
##PEAK TABLE=(XY..XY)
14,200 15,500 25,100 26,1700
27,7200 28,1100 29,5800 36,200
115,200 116,800 117,1500 118,1800
119,2300 120,2200 121,2400 122,300
123,400 124,300 125,400 132,100
133,100 134,100 141,200 143,300
144,300 145,2200 146,1400 147,3900
148,1700 149,4800 150,700 151,3800
152,1900 153,5800 154,2700 155,6900
156,800 157,2600 158,200 159,1300
161,300 174,300 175,700 176,800
177,1100 178,900 179,1300 180,700
181,1300 182,1400 183,2200 184,1700
185,1800 186,600 187,700 188,200
189,300 191,100 203,700 204,500
205,1500 206,700 207,1900 208,500
209,4000 210,2500 211,7400 212,3700
213,9999 214,1500 215,3800 216,300
217,1800 218,200 219,500 238,300
239,200 240,500 241,300 242,800
243,100 244,300 246,100
##END=
