##TITLE=Germane, tetrapropyl-
##JCAMP-DX=4.24
##DATA TYPE=MASS SPECTRUM
##ORIGIN=J.DE RIDDER UTRECHT UNIVERSITY, UTRECHT, HOLLAND
##OWNER=NIST Mass Spectrometry Data Center
Collection (C) 2014 copyright by the U.S. Secretary of Commerce
on behalf of the United States of America. All rights reserved.
##CAS REGISTRY NO=994-65-0
##$NIST MASS SPEC NO=11948
##MOLFORM=C12 H28 Ge
##MW=246
##$NIST SOURCE=MSDC
##XUNITS=M/Z
##YUNITS=RELATIVE INTENSITY
##XFACTOR=1
##YFACTOR=1
##FIRSTX=27
##LASTX=204
##FIRSTY=417
##MAXX=204
##MINX=27
##MAXY=9999
##MINY=110
##NPOINTS=23
##PEAK TABLE=(XY..XY)
27,417 39,231 41,467 42,116
43,216 74,361 75,297 77,373
89,986 90,150 91,1327 103,272
115,114 116,162 117,363 118,254
119,3374 120,110 160,162 161,9999
162,670 203,5198 204,640
##END=
