##TITLE=2-Butenedioic acid, (E)-, 2TBDMS derivative
##JCAMP-DX=4.24
##DATA TYPE=MASS SPECTRUM
##ORIGIN=W.E. COLEMAN, US ENVIRON. PROT. AGENCY, CINCINNATI, OHIO, USA
##OWNER=NIST Mass Spectrometry Data Center
Collection (C) 2014 copyright by the U.S. Secretary of Commerce
on behalf of the United States of America. All rights reserved.
##CAS REGISTRY NO=99461-81-1
##$NIST MASS SPEC NO=112428
##MOLFORM=C16 H32 O4 Si2
##MW=344
##$NIST SOURCE=MSDC
##XUNITS=M/Z
##YUNITS=RELATIVE INTENSITY
##XFACTOR=1
##YFACTOR=1
##FIRSTX=15
##LASTX=330
##FIRSTY=34
##MAXX=330
##MINX=15
##MAXY=9999
##MINY=26
##NPOINTS=100
##PEAK TABLE=(XY..XY)
15,34 27,72 28,64 29,401
39,181 41,818 42,68 43,161
44,41 45,406 46,34 47,256
53,141 54,198 55,411 56,173
57,1073 58,411 59,565 60,126
61,159 66,28 67,34 68,49
69,185 70,31 71,44 73,8452
74,778 75,3185 76,229 77,141
82,350 83,435 84,1100 85,329
86,74 87,33 89,30 95,34
97,43 98,31 99,422 100,69
101,60 103,87 105,42 111,34
113,349 114,135 115,453 117,328
118,68 119,128 125,26 127,172
128,650 129,240 130,46 131,114
132,269 133,1463 134,208 135,170
141,29 143,290 144,54 145,97
147,1116 148,169 149,313 150,42
151,31 155,175 156,430 157,176
158,41 159,180 160,26 171,138
173,181 174,28 176,27 185,58
187,28 202,27 203,39 213,60
230,141 231,31 245,374 246,74
247,44 259,50 287,9999 288,2292
289,733 290,92 329,223 330,63
##END=
