##TITLE=2-Propanamine, N,N-dimethyl-
##JCAMP-DX=4.24
##DATA TYPE=MASS SPECTRUM
##ORIGIN=Japan AIST/NIMC Database- Spectrum MS-NW-1032
##OWNER=NIST Mass Spectrometry Data Center
Collection (C) 2014 copyright by the U.S. Secretary of Commerce
on behalf of the United States of America. All rights reserved.
##CAS REGISTRY NO=996-35-0
##$NIST MASS SPEC NO=230676
##MOLFORM=C5 H13 N
##MW=87
##$NIST SOURCE=MSDC
##XUNITS=M/Z
##YUNITS=RELATIVE INTENSITY
##XFACTOR=1
##YFACTOR=1
##FIRSTX=14
##LASTX=88
##FIRSTY=20
##MAXX=88
##MINX=14
##MAXY=9999
##MINY=10
##NPOINTS=34
##PEAK TABLE=(XY..XY)
14,20 15,419 26,40 27,319
28,139 29,139 30,179 37,10
38,30 39,249 40,60 41,379
42,1189 43,479 44,2129 45,90
46,10 52,10 54,80 55,99
56,979 57,359 58,60 68,30
70,489 71,389 72,9999 73,499
74,10 84,30 85,20 86,459
87,1399 88,80
##END=
