##TITLE=Buckminsterfullerene
##JCAMP-DX=4.24
##DATA TYPE=MASS SPECTRUM
##ORIGIN=MUS338 A. Mujsce, AT&T Bell Labs., Murray Hill, N.J., USA
##OWNER=NIST Mass Spectrometry Data Center
Collection (C) 2014 copyright by the U.S. Secretary of Commerce
on behalf of the United States of America. All rights reserved.
##CAS REGISTRY NO=99685-96-8
##$NIST MASS SPEC NO=115862
##MOLFORM=C60
##MW=720
##$NIST SOURCE=MSDC
##XUNITS=M/Z
##YUNITS=RELATIVE INTENSITY
##XFACTOR=1
##YFACTOR=1
##FIRSTX=43
##LASTX=723
##FIRSTY=34
##MAXX=723
##MINX=43
##MAXY=9999
##MINY=0
##NPOINTS=108
##PEAK TABLE=(XY..XY)
43,34 57,31 67,41 70,31
72,0 79,31 90,31 94,41
95,31 98,31 99,34 128,62
136,34 139,31 152,31 168,52
172,31 180,41 185,31 189,31
191,39 193,31 204,31 206,31
208,31 224,28 240,582 241,96
249,31 252,41 255,31 262,52
272,41 273,41 280,31 283,41
306,41 313,34 315,41 316,54
321,31 325,41 336,639 337,184
341,31 348,1546 349,419 350,31
359,34 360,9999 361,1104 362,49
368,31 383,62 394,28 398,31
400,31 409,52 415,31 421,31
440,31 444,31 447,41 454,41
475,41 477,31 484,41 496,41
502,31 504,31 509,41 511,41
512,52 518,31 522,41 536,31
541,31 543,31 576,41 591,31
595,31 605,31 617,31 621,31
625,41 626,31 630,31 631,52
636,62 646,31 648,98 649,65
650,31 662,41 671,31 672,520
673,127 683,34 684,41 686,41
693,31 696,334 697,78 698,34
720,3625 721,2601 722,1143 723,240
##END=
