##TITLE=Tripropylsilane
##JCAMP-DX=4.24
##DATA TYPE=MASS SPECTRUM
##ORIGIN=NIST Mass Spectrometry Data Center
##OWNER=NIST Mass Spectrometry Data Center
Collection (C) 2014 copyright by the U.S. Secretary of Commerce
on behalf of the United States of America. All rights reserved.
##CAS REGISTRY NO=998-29-8
##$NIST MASS SPEC NO=342259
##MOLFORM=C9 H22 Si
##MW=158
##$NIST SOURCE=MSDC
##XUNITS=M/Z
##YUNITS=RELATIVE INTENSITY
##XFACTOR=1
##YFACTOR=1
##FIRSTX=12
##LASTX=159
##FIRSTY=20
##MAXX=159
##MINX=12
##MAXY=9999
##MINY=10
##NPOINTS=61
##PEAK TABLE=(XY..XY)
12,20 15,40 16,20 17,20
27,761 28,310 29,350 30,40
31,290 32,20 33,40 37,20
39,591 41,791 42,410 43,2302
44,1311 45,7437 46,520 47,260
53,200 54,80 55,561 56,150
57,631 58,911 59,4124 60,360
61,150 65,20 66,80 67,160
68,50 69,290 70,340 71,801
72,1261 73,9999 74,601 75,310
76,20 83,40 84,10 85,180
86,691 87,4364 88,440 89,160
97,20 99,60 100,20 101,90
114,2242 115,4914 116,540 117,150
128,20 156,591 157,250 158,340
159,50
##END=
