##TITLE=Nonane, 5-propyl-
##JCAMP-DX=4.24
##DATA TYPE=MASS SPECTRUM
##ORIGIN=D.HENNEBERG, MAX-PLANCK INSTITUTE, MULHEIM, WEST GERMANY
##OWNER=NIST Mass Spectrometry Data Center
Collection (C) 2014 copyright by the U.S. Secretary of Commerce
on behalf of the United States of America. All rights reserved.
##CAS REGISTRY NO=998-35-6
##$NIST MASS SPEC NO=61417
##MOLFORM=C12 H26
##MW=170
##$NIST SOURCE=MSDC
##XUNITS=M/Z
##YUNITS=RELATIVE INTENSITY
##XFACTOR=1
##YFACTOR=1
##FIRSTX=25
##LASTX=171
##FIRSTY=8
##MAXX=171
##MINX=25
##MAXY=9999
##MINY=1
##NPOINTS=87
##PEAK TABLE=(XY..XY)
25,8 26,9 27,228 28,311
29,817 30,24 32,4 36,69
37,2 38,24 39,94 40,17
41,1534 42,333 43,5544 44,186
45,12 50,1 51,4 52,8
53,25 54,50 55,998 56,925
57,9999 58,431 59,5 60,6
61,6 62,5 63,2 65,6
67,73 68,89 69,562 70,1009
71,9285 72,525 73,7 74,6
77,6 78,4 79,7 81,34
82,272 83,713 84,630 85,2089
86,143 87,6 89,5 91,18
93,1 94,1 95,20 96,51
97,274 98,235 99,87 105,10
110,5 111,32 112,3362 113,973
114,73 115,13 117,4 124,4
125,4 126,1955 127,882 128,77
129,8 130,2 137,5 138,14
139,34 140,74 141,87 142,1
149,5 151,2 154,2 155,12
167,1 170,429 171,52
##END=
