##TITLE=Tributylsilane
##JCAMP-DX=4.24
##DATA TYPE=MASS SPECTRUM
##ORIGIN=Japan AIST/NIMC Database- Spectrum MS-NW-9937
##OWNER=NIST Mass Spectrometry Data Center
Collection (C) 2014 copyright by the U.S. Secretary of Commerce
on behalf of the United States of America. All rights reserved.
##CAS REGISTRY NO=998-41-4
##$NIST MASS SPEC NO=239275
##MOLFORM=C12 H28 Si
##MW=200
##$NIST SOURCE=MSDC
##XUNITS=M/Z
##YUNITS=RELATIVE INTENSITY
##XFACTOR=1
##YFACTOR=1
##FIRSTX=26
##LASTX=202
##FIRSTY=10
##MAXX=202
##MINX=26
##MAXY=9999
##MINY=10
##NPOINTS=81
##PEAK TABLE=(XY..XY)
26,10 27,119 28,30 29,269
30,10 31,239 32,10 39,90
40,10 41,199 42,40 43,629
44,199 45,1219 46,80 47,40
53,50 54,30 55,579 56,139
57,729 58,779 59,7959 60,599
61,279 67,30 69,50 70,40
71,259 72,379 73,2379 74,209
75,90 81,30 82,20 83,139
84,70 85,599 86,739 87,5749
88,569 89,209 90,10 97,30
98,10 99,149 100,109 101,6339
102,669 103,269 104,10 105,10
112,20 113,109 114,519 115,769
116,99 117,30 127,10 128,70
129,20 140,30 141,60 142,259
143,9999 144,1419 145,429 146,30
155,10 156,30 157,20 159,30
161,10 170,329 171,189 172,30
198,719 199,329 200,269 201,50
202,10
##END=
