##TITLE=Octane, 4-chloro-
##JCAMP-DX=4.24
##DATA TYPE=MASS SPECTRUM
##ORIGIN=NIST Mass Spectrometry Data Center, 1990.
##OWNER=NIST Mass Spectrometry Data Center
Collection (C) 2014 copyright by the U.S. Secretary of Commerce
on behalf of the United States of America. All rights reserved.
##CAS REGISTRY NO=999-07-5
##$NIST MASS SPEC NO=114645
##MOLFORM=C8 H17 Cl
##MW=148
##$NIST SOURCE=MSDC
##XUNITS=M/Z
##YUNITS=RELATIVE INTENSITY
##XFACTOR=1
##YFACTOR=1
##FIRSTX=27
##LASTX=113
##FIRSTY=2421
##MAXX=113
##MINX=27
##MAXY=9999
##MINY=100
##NPOINTS=41
##PEAK TABLE=(XY..XY)
27,2421 28,125 29,2356 36,125
39,2992 41,8922 42,3436 43,2842
44,120 49,218 50,167 51,456
52,202 53,1169 54,1001 55,9019
56,6446 57,3638 58,140 62,393
63,463 64,149 65,351 66,102
67,868 68,1056 69,4483 70,9999
71,1845 75,259 76,235 77,250
78,100 79,124 82,1564 83,5584
84,3658 85,269 97,573 112,1559
113,152
##END=
