##TITLE=Chlormequat chloride
##JCAMP-DX=4.24
##DATA TYPE=MASS SPECTRUM
##ORIGIN=Japan AIST/NIMC Database- Spectrum MS-NW- 375
##OWNER=NIST Mass Spectrometry Data Center
Collection (C) 2014 copyright by the U.S. Secretary of Commerce
on behalf of the United States of America. All rights reserved.
##CAS REGISTRY NO=999-81-5
##$NIST MASS SPEC NO=228881
##MOLFORM=C5 H13 Cl2 N
##MW=157
##$NIST SOURCE=MSDC
##XUNITS=M/Z
##YUNITS=RELATIVE INTENSITY
##XFACTOR=1
##YFACTOR=1
##FIRSTX=12
##LASTX=111
##FIRSTY=20
##MAXX=111
##MINX=12
##MAXY=9999
##MINY=10
##NPOINTS=84
##PEAK TABLE=(XY..XY)
12,20 13,60 14,149 15,1939
16,20 24,60 25,20 26,159
27,639 28,839 29,309 30,939
31,10 35,419 36,2609 37,119
38,849 39,119 40,169 41,369
42,2719 43,1599 44,2139 45,749
46,10 47,389 48,179 49,569
50,6309 51,199 52,2059 53,40
54,179 55,309 56,1179 57,589
58,9999 59,779 60,20 61,30
62,90 63,219 64,30 65,70
66,10 67,40 68,80 69,30
70,859 71,1309 72,629 73,20
77,30 78,50 79,40 80,30
81,40 82,189 83,50 84,60
85,40 88,10 89,20 90,30
91,50 92,10 93,10 94,30
95,20 96,30 97,149 98,40
99,60 100,10 101,10 103,10
104,20 105,50 106,169 107,469
108,80 109,149 110,20 111,20
##END=
