##TITLE=2-Pentyne, 4,4-dimethyl-
##JCAMP-DX=4.24
##DATA TYPE=MASS SPECTRUM
##ORIGIN=NIST Mass Spectrometry Data Center, 1990.
##OWNER=NIST Mass Spectrometry Data Center
Collection (C) 2014 copyright by the U.S. Secretary of Commerce
on behalf of the United States of America. All rights reserved.
##CAS REGISTRY NO=999-78-0
##$NIST MASS SPEC NO=113656
##MOLFORM=C7 H12
##MW=96
##$NIST SOURCE=MSDC
##XUNITS=M/Z
##YUNITS=RELATIVE INTENSITY
##XFACTOR=1
##YFACTOR=1
##FIRSTX=14
##LASTX=97
##FIRSTY=175
##MAXX=97
##MINX=14
##MAXY=9999
##MINY=101
##NPOINTS=32
##PEAK TABLE=(XY..XY)
14,175 15,600 26,142 27,1073
28,137 29,360 37,150 38,377
39,2597 40,452 41,2375 42,128
50,488 51,778 52,362 53,3272
54,278 55,837 56,175 61,101
62,273 63,479 64,120 65,909
66,543 67,365 77,992 79,3768
81,9999 82,677 96,2368 97,193
##END=
