##TITLE=2-Propenoic acid, 2-propenyl ester
##JCAMP-DX=4.24
##DATA TYPE=MASS SPECTRUM
##ORIGIN=NIST Mass Spectrometry Data Center, 1998.
##OWNER=NIST Mass Spectrometry Data Center
Collection (C) 2014 copyright by the U.S. Secretary of Commerce
on behalf of the United States of America. All rights reserved.
##CAS REGISTRY NO=999-55-3
##$NIST MASS SPEC NO=291556
##MOLFORM=C6 H8 O2
##MW=112
##$NIST SOURCE=MSDC
##XUNITS=M/Z
##YUNITS=RELATIVE INTENSITY
##XFACTOR=1
##YFACTOR=1
##FIRSTX=14
##LASTX=112
##FIRSTY=10
##MAXX=112
##MINX=14
##MAXY=9999
##MINY=10
##NPOINTS=46
##PEAK TABLE=(XY..XY)
14,10 15,30 25,40 26,340
27,1360 28,90 29,270 30,20
31,80 36,10 37,80 38,180
39,1300 40,200 41,1460 42,90
43,60 44,30 45,40 50,10
51,10 52,10 53,130 54,80
55,9999 56,590 57,540 58,20
65,20 66,120 67,500 68,140
69,40 70,170 71,10 73,140
82,10 83,130 84,110 85,20
94,20 95,20 97,310 98,20
111,70 112,10
##END=
