##TITLE=Diallyl maleate
##JCAMP-DX=4.24
##DATA TYPE=MASS SPECTRUM
##ORIGIN=NIST Mass Spectrometry Data Center
##OWNER=NIST Mass Spectrometry Data Center
Collection (C) 2014 copyright by the U.S. Secretary of Commerce
on behalf of the United States of America. All rights reserved.
##CAS REGISTRY NO=999-21-3
##$NIST MASS SPEC NO=340506
##MOLFORM=C10 H12 O4
##MW=196
##$NIST SOURCE=MSDC
##XUNITS=M/Z
##YUNITS=RELATIVE INTENSITY
##XFACTOR=1
##YFACTOR=1
##FIRSTX=15
##LASTX=141
##FIRSTY=70
##MAXX=141
##MINX=15
##MAXY=9999
##MINY=10
##NPOINTS=62
##PEAK TABLE=(XY..XY)
15,70 25,20 26,701 27,891
29,520 30,30 31,110 37,60
38,180 39,2692 40,320 41,9999
42,701 43,250 44,100 45,210
51,10 52,10 53,310 54,1291
55,841 56,150 57,621 58,30
65,80 66,70 67,300 68,130
69,190 70,70 71,310 72,30
79,50 80,190 81,130 82,811
83,220 84,30 85,10 93,30
94,30 95,40 96,20 97,140
99,8608 100,440 101,60 107,10
109,10 110,10 111,150 112,130
113,10 122,30 123,10 124,10
127,10 137,10 138,10 139,1051
140,510 141,50
##END=
