##TITLE=Hexamethyldisilazane
##JCAMP-DX=4.24
##DATA TYPE=MASS SPECTRUM
##ORIGIN=Japan AIST/NIMC Database- Spectrum MS-NW-3008
##OWNER=NIST Mass Spectrometry Data Center
Collection (C) 2014 copyright by the U.S. Secretary of Commerce
on behalf of the United States of America. All rights reserved.
##CAS REGISTRY NO=999-97-3
##$NIST MASS SPEC NO=231343
##MOLFORM=C6 H19 N Si2
##MW=161
##$NIST SOURCE=MSDC
##XUNITS=M/Z
##YUNITS=RELATIVE INTENSITY
##XFACTOR=1
##YFACTOR=1
##FIRSTX=15
##LASTX=163
##FIRSTY=20
##MAXX=163
##MINX=15
##MAXY=9999
##MINY=10
##NPOINTS=64
##PEAK TABLE=(XY..XY)
15,20 27,10 28,70 29,30
31,40 32,20 42,10 43,149
44,80 45,309 46,50 47,10
50,40 51,219 52,30 53,10
55,10 56,20 57,149 58,50
59,279 60,50 61,10 65,699
66,119 70,90 71,20 72,60
73,669 74,289 75,70 76,10
77,20 84,10 85,40 86,80
87,10 88,10 93,10 99,10
100,329 101,50 102,50 103,10
104,10 113,90 114,60 115,30
116,119 117,30 118,10 129,20
130,1839 131,289 132,179 133,20
146,9999 147,1909 148,819 149,99
150,10 161,209 162,30 163,10
##END=
