##TITLE=2-Ethoxycarbonylphenyl isothiocyanate
##JCAMP-DX=4.24
##DATA TYPE=MASS SPECTRUM
##ORIGIN=NIST Mass Spectrometry Data Center, 1994
##OWNER=NIST Mass Spectrometry Data Center
Collection (C) 2014 copyright by the U.S. Secretary of Commerce
on behalf of the United States of America. All rights reserved.
##CAS REGISTRY NO=99960-09-5
##$NIST MASS SPEC NO=134521
##MOLFORM=C10 H9 N O2 S
##MW=207
##$NIST SOURCE=MSDC
##XUNITS=M/Z
##YUNITS=RELATIVE INTENSITY
##XFACTOR=1
##YFACTOR=1
##FIRSTX=14
##LASTX=209
##FIRSTY=91
##MAXX=209
##MINX=14
##MAXY=9999
##MINY=46
##NPOINTS=99
##PEAK TABLE=(XY..XY)
14,91 15,465 25,52 26,562
27,2642 28,512 29,3017 30,290
32,126 37,359 38,535 39,1634
40,134 41,56 42,98 43,417
44,344 45,515 50,2961 51,1079
52,298 53,144 57,118 58,164
59,109 60,109 61,226 62,437
63,2370 64,1487 65,351 66,61
67,215 68,61 69,500 70,251
71,62 73,171 74,1266 75,1754
76,1684 77,890 78,139 81,383
82,252 83,232 84,279 86,98
87,73 88,139 89,73 90,3663
91,541 92,428 93,170 94,131
95,112 96,117 99,60 102,576
103,166 104,473 105,106 106,114
107,1016 108,1161 109,155 110,83
119,4370 120,408 121,57 122,103
123,193 130,465 131,93 133,545
134,5049 135,3250 136,574 137,162
146,1185 147,269 148,150 149,78
150,162 151,463 152,58 162,9999
163,3722 164,987 165,186 175,46
179,1423 180,172 181,83 192,170
207,4116 208,588 209,242
##END=
