##TITLE=iso-Propyl N-methyl anthranilate
##JCAMP-DX=4.24
##DATA TYPE=MASS SPECTRUM
##ORIGIN=W.Jennings, T.Shibamoto
##OWNER=NIST Mass Spectrometry Data Center
Collection (C) 2014 copyright by the U.S. Secretary of Commerce
on behalf of the United States of America. All rights reserved.
##CAS REGISTRY NO=99985-64-5
##$NIST MASS SPEC NO=285529
##MOLFORM=C11 H15 N O2
##MW=193
##$NIST SOURCE=MSDC
##XUNITS=M/Z
##YUNITS=RELATIVE INTENSITY
##XFACTOR=1
##YFACTOR=1
##FIRSTX=27
##LASTX=194
##FIRSTY=70
##MAXX=194
##MINX=27
##MAXY=9999
##MINY=70
##NPOINTS=30
##PEAK TABLE=(XY..XY)
27,70 28,270 30,1181 41,270
43,370 73,180 77,1271 78,1581
79,651 83,1271 91,180 92,270
103,1381 104,4914 105,9999 106,2612
107,180 116,180 117,1351 118,661
119,70 132,2452 133,4244 134,2813
135,180 150,270 151,6716 152,671
193,4454 194,671
##END=
