##TITLE=1-Iodo-2-methylnonane
##JCAMP-DX=4.24
##DATA TYPE=MASS SPECTRUM
##ORIGIN=F. TURECEK,HEYROVSKY INST PHYS CHEM & ELECTROCHEM,PRAGUE,CZECH
##OWNER=NIST Mass Spectrometry Data Center
Collection (C) 2014 copyright by the U.S. Secretary of Commerce
on behalf of the United States of America. All rights reserved.
##$NIST MASS SPEC NO=101479
##MOLFORM=C10 H21 I
##MW=268
##$NIST SOURCE=MSDC
##XUNITS=M/Z
##YUNITS=RELATIVE INTENSITY
##XFACTOR=1
##YFACTOR=1
##FIRSTX=26
##LASTX=268
##FIRSTY=110
##MAXX=268
##MINX=26
##MAXY=9999
##MINY=10
##NPOINTS=48
##PEAK TABLE=(XY..XY)
26,110 27,1130 29,2100 38,50
39,1050 40,190 41,4340 42,1290
43,9999 44,340 51,100 53,230
54,150 55,2420 56,1690 57,7260
58,290 65,60 67,210 68,90
69,1050 70,440 71,5080 72,240
77,80 79,60 81,130 82,70
83,280 84,180 85,3390 86,190
91,60 95,100 96,40 97,190
98,70 99,350 105,130 126,50
127,710 128,540 141,290 149,60
155,50 169,80 211,30 268,10
##END=
