##TITLE=7-Carboxyheptanoylglycine di-O-tms
##JCAMP-DX=4.24
##DATA TYPE=MASS SPECTRUM
##ORIGIN=F. ROCCHICCIOLI, FAC. MED., UNITE 75-INSERM, PARIS, FR.
##OWNER=NIST Mass Spectrometry Data Center
Collection (C) 2014 copyright by the U.S. Secretary of Commerce
on behalf of the United States of America. All rights reserved.
##$NIST MASS SPEC NO=102889
##MOLFORM=C16 H33 N O5 Si2
##MW=375
##$NIST SOURCE=MSDC
##XUNITS=M/Z
##YUNITS=RELATIVE INTENSITY
##XFACTOR=1
##YFACTOR=1
##FIRSTX=73
##LASTX=362
##FIRSTY=9999
##MAXX=362
##MINX=73
##MAXY=9999
##MINY=40
##NPOINTS=15
##PEAK TABLE=(XY..XY)
73,9999 75,6400 129,1200 158,2400
172,700 189,2000 200,400 217,360
229,720 230,200 244,600 245,200
360,800 361,120 362,40
##END=
