##TITLE=cis-(-)-2,4a,5,6,9a-Hexahydro-3,5,5,9-tetramethyl(1H)benzocycloheptene
##JCAMP-DX=4.24
##DATA TYPE=MASS SPECTRUM
##ORIGIN=R. TABACCHI, INST. CHIM., UNIV. NEUCHATEL, BASEL, SWITZ.
##OWNER=NIST Mass Spectrometry Data Center
Collection (C) 2014 copyright by the U.S. Secretary of Commerce
on behalf of the United States of America. All rights reserved.
##$NIST MASS SPEC NO=104201
##MOLFORM=C15 H24
##MW=204
##$NIST SOURCE=MSDC
##XUNITS=M/Z
##YUNITS=RELATIVE INTENSITY
##XFACTOR=1
##YFACTOR=1
##FIRSTX=39
##LASTX=204
##FIRSTY=2700
##MAXX=204
##MINX=39
##MAXY=9999
##MINY=500
##NPOINTS=72
##PEAK TABLE=(XY..XY)
39,2700 40,700 41,8100 42,800
43,2100 51,1200 52,700 53,2900
55,4700 56,1000 57,1100 65,1200
66,500 67,2500 68,600 69,2200
70,500 71,500 77,2200 78,1200
79,4500 80,2300 81,3500 82,900
83,700 91,8700 92,3500 93,9999
94,3800 95,4500 96,700 97,500
103,700 104,500 105,8900 106,4700
107,4400 108,1700 109,2800 110,600
115,1200 116,700 117,1400 118,700
119,8200 120,2100 121,4400 122,1500
123,1000 128,800 129,800 131,2000
132,600 133,9200 134,2800 135,2300
136,1700 145,1000 146,1000 147,2100
148,3000 149,1300 159,1000 161,3500
162,800 175,900 176,600 187,500
189,2700 190,600 202,800 204,6700
##END=
