##TITLE=N-(2-Phenylethyl)(2E,6Z,8E)-decatrienamide
##JCAMP-DX=4.24
##DATA TYPE=MASS SPECTRUM
##ORIGIN=R. MARTIN, PHARM. BIOL., UNIV. HEIDELBERG, W. GER.
##OWNER=NIST Mass Spectrometry Data Center
Collection (C) 2014 copyright by the U.S. Secretary of Commerce
on behalf of the United States of America. All rights reserved.
##$NIST MASS SPEC NO=106161
##MOLFORM=C18 H23 N O
##MW=269
##$NIST SOURCE=MSDC
##XUNITS=M/Z
##YUNITS=RELATIVE INTENSITY
##XFACTOR=1
##YFACTOR=1
##FIRSTX=40
##LASTX=270
##FIRSTY=833
##MAXX=270
##MINX=40
##MAXY=9999
##MINY=24
##NPOINTS=97
##PEAK TABLE=(XY..XY)
40,833 41,3197 42,501 43,1726
44,392 47,267 49,205 50,173
51,486 52,256 53,1828 54,244
55,1406 56,243 57,838 58,149
59,75 60,82 63,203 64,76
65,1126 66,388 67,566 68,1545
69,1225 70,206 71,424 73,53
75,65 77,1184 78,427 79,2314
80,334 81,9999 82,810 83,335
84,1194 85,743 86,723 88,112
89,116 90,77 91,1772 92,244
93,828 95,297 96,236 97,322
98,1201 99,133 100,25 102,42
103,389 104,3111 105,1307 106,157
107,201 109,125 110,98 111,165
112,48 113,61 115,63 117,104
118,100 119,231 120,222 121,748
122,204 123,113 129,56 130,35
131,137 133,70 134,44 135,47
136,42 139,45 145,44 147,77
148,66 149,542 150,153 163,141
165,43 171,37 174,80 175,24
176,82 178,168 182,26 188,58
189,3046 190,388 240,55 269,532
270,119
##END=
