##TITLE=N-Isobutyl-2(E),6(Z),8(E)-decatrienamide
##JCAMP-DX=4.24
##DATA TYPE=MASS SPECTRUM
##ORIGIN=R. MARTIN, PHARM. BIOL., UNIV. HEIDELBERG, W. GER.
##OWNER=NIST Mass Spectrometry Data Center
Collection (C) 2014 copyright by the U.S. Secretary of Commerce
on behalf of the United States of America. All rights reserved.
##$NIST MASS SPEC NO=106175
##MOLFORM=C14 H23 N O
##MW=221
##$NIST SOURCE=MSDC
##XUNITS=M/Z
##YUNITS=RELATIVE INTENSITY
##XFACTOR=1
##YFACTOR=1
##FIRSTX=40
##LASTX=222
##FIRSTY=499
##MAXX=222
##MINX=40
##MAXY=9999
##MINY=27
##NPOINTS=101
##PEAK TABLE=(XY..XY)
40,499 41,3452 42,393 43,1486
44,182 47,175 48,62 49,1163
50,70 51,604 52,188 53,1780
54,172 55,1013 56,462 57,1017
58,273 59,84 60,223 63,89
65,385 66,321 67,422 68,1646
69,1562 70,136 71,221 72,303
73,98 74,61 77,1208 78,209
79,2409 80,467 81,9999 82,739
83,176 84,1089 85,998 86,1560
87,64 88,86 91,648 92,97
93,650 94,140 95,138 96,110
97,167 98,2345 99,441 100,118
103,54 104,68 105,289 107,171
108,37 109,44 110,47 111,68
112,79 113,80 115,408 116,51
117,46 119,100 120,82 121,430
122,180 123,129 124,46 125,62
126,2396 127,213 128,324 131,83
133,50 135,27 137,32 140,66
141,8587 142,814 143,95 145,33
149,238 150,61 154,104 155,108
157,35 166,49 167,68 175,121
178,137 179,48 180,39 189,49
192,148 206,151 220,114 221,1487
222,273
##END=
