##TITLE=2,3-Dehydro-4-oxo-.beta.-ionol
##JCAMP-DX=4.24
##DATA TYPE=MASS SPECTRUM
##ORIGIN=Philip Morris R&D
##OWNER=NIST Mass Spectrometry Data Center
Collection (C) 2014 copyright by the U.S. Secretary of Commerce
on behalf of the United States of America. All rights reserved.
##$NIST MASS SPEC NO=108723
##MOLFORM=C13 H18 O2
##MW=206
##$NIST SOURCE=MSDC
##XUNITS=M/Z
##YUNITS=RELATIVE INTENSITY
##XFACTOR=1
##YFACTOR=1
##FIRSTX=38
##LASTX=206
##FIRSTY=1656
##MAXX=206
##MINX=38
##MAXY=9999
##MINY=141
##NPOINTS=104
##PEAK TABLE=(XY..XY)
38,1656 39,1618 40,1797 41,2975
42,509 43,9167 44,1172 45,2337
50,179 51,754 52,276 53,946
54,264 55,2394 56,870 57,1360
58,694 59,402 60,594 61,173
63,383 64,258 65,801 66,239
67,1056 68,440 69,1486 70,631
71,1244 72,320 73,814 74,437
77,1191 78,254 79,898 80,333
81,861 82,525 83,776 84,430
85,402 87,182 91,2120 92,251
93,883 94,292 95,1005 96,531
97,653 98,330 99,223 103,270
104,179 105,2268 106,342 107,836
108,484 109,550 110,236 111,267
115,660 116,220 117,537 118,170
119,908 120,1030 121,1681 122,364
123,368 128,462 129,474 130,415
131,619 132,449 133,1279 134,267
135,2856 136,1034 137,305 143,148
145,986 146,964 147,1835 148,1624
149,1213 153,242 158,415 159,371
160,141 161,2532 162,386 163,9999
164,1272 165,198 166,374 173,1121
174,239 175,176 176,223 188,757
189,280 191,2064 192,264 206,512
##END=
