##TITLE=Neryl nitrile
##JCAMP-DX=4.24
##DATA TYPE=MASS SPECTRUM
##ORIGIN=Philip Morris R&D
##OWNER=NIST Mass Spectrometry Data Center
Collection (C) 2014 copyright by the U.S. Secretary of Commerce
on behalf of the United States of America. All rights reserved.
##$NIST MASS SPEC NO=108905
##MOLFORM=C10 H15 N
##MW=149
##$NIST SOURCE=MSDC
##XUNITS=M/Z
##YUNITS=RELATIVE INTENSITY
##XFACTOR=1
##YFACTOR=1
##FIRSTX=37
##LASTX=150
##FIRSTY=20
##MAXX=150
##MINX=37
##MAXY=9999
##MINY=0
##NPOINTS=75
##PEAK TABLE=(XY..XY)
37,20 38,59 39,872 40,162
41,6635 42,281 43,130 44,24
49,0 50,49 51,146 52,90
53,523 54,72 55,103 56,55
57,11 58,2 59,11 60,11
61,4 62,15 63,46 64,29
65,148 66,123 67,345 68,132
69,9999 70,519 71,12 74,3
75,4 76,10 77,139 78,37
79,93 80,216 81,1056 82,70
83,1 89,10 90,8 91,118
92,34 93,60 94,113 95,24
102,2 103,14 104,10 105,28
106,41 107,45 108,158 109,17
116,18 117,44 118,38 119,25
120,20 121,77 122,11 130,11
131,22 132,57 133,18 134,861
135,84 136,3 144,0 146,8
148,280 149,177 150,19
##END=
