##TITLE=Verbenyl propyl ether
##JCAMP-DX=4.24
##DATA TYPE=MASS SPECTRUM
##ORIGIN=Philip Morris R&D
##OWNER=NIST Mass Spectrometry Data Center
Collection (C) 2014 copyright by the U.S. Secretary of Commerce
on behalf of the United States of America. All rights reserved.
##$NIST MASS SPEC NO=108772
##MOLFORM=C13 H22 O
##MW=194
##$NIST SOURCE=MSDC
##XUNITS=M/Z
##YUNITS=RELATIVE INTENSITY
##XFACTOR=1
##YFACTOR=1
##FIRSTX=41
##LASTX=194
##FIRSTY=311
##MAXX=194
##MINX=41
##MAXY=9999
##MINY=20
##NPOINTS=87
##PEAK TABLE=(XY..XY)
41,311 42,151 43,3562 44,207
45,135 50,28 51,199 52,87
53,438 54,87 55,1328 56,173
57,494 58,137 59,5395 60,204
63,57 64,23 65,399 66,89
67,869 68,117 69,1518 70,171
71,365 72,3178 73,273 77,948
78,258 79,1027 80,1824 81,1796
82,393 83,833 84,1393 85,190
89,25 91,2237 92,954 93,2727
94,574 95,1306 96,668 97,437
98,48 99,22 101,1628 102,142
103,117 104,60 105,1033 106,266
107,1114 108,331 109,4761 110,501
111,331 112,40 113,61 114,9999
115,907 116,74 117,232 118,42
119,3089 120,402 121,1168 122,169
123,421 124,69 125,33 126,381
127,47 132,29 133,159 134,693
135,277 136,98 137,1237 138,158
139,25 151,716 152,129 165,20
179,444 180,55 194,33
##END=
