##TITLE=4-Oxo-.beta.-isodamascol
##JCAMP-DX=4.24
##DATA TYPE=MASS SPECTRUM
##ORIGIN=Philip Morris R&D
##OWNER=NIST Mass Spectrometry Data Center
Collection (C) 2014 copyright by the U.S. Secretary of Commerce
on behalf of the United States of America. All rights reserved.
##$NIST MASS SPEC NO=108911
##MOLFORM=C13 H20 O2
##MW=208
##$NIST SOURCE=MSDC
##XUNITS=M/Z
##YUNITS=RELATIVE INTENSITY
##XFACTOR=1
##YFACTOR=1
##FIRSTX=37
##LASTX=209
##FIRSTY=13
##MAXX=209
##MINX=37
##MAXY=9999
##MINY=2
##NPOINTS=104
##PEAK TABLE=(XY..XY)
37,13 38,50 39,1466 40,392
41,4050 42,310 43,6648 44,291
45,155 50,26 51,248 52,125
53,852 54,93 55,2327 56,174
57,829 58,15 59,394 60,19
61,24 62,28 63,62 65,383
66,140 67,1121 68,101 69,2499
70,157 71,379 73,17 76,11
77,641 78,118 79,1093 80,140
81,1016 82,133 83,370 84,19
85,41 89,17 91,790 92,133
93,1227 94,146 95,1457 96,179
97,637 99,11 101,15 103,34
104,4 105,715 106,129 107,773
108,144 109,736 110,166 111,364
112,58 115,26 116,15 117,77
118,2 119,243 120,6 121,1963
122,248 123,1446 124,202 125,489
126,28 128,11 129,24 131,166
132,17 133,88 134,112 135,60
136,43 137,385 138,340 139,2251
140,237 141,11 145,4 147,67
149,215 150,39 151,88 152,15
163,22 165,24 166,114 167,9999
168,1035 169,67 175,19 177,17
179,9 190,41 193,30 209,47
##END=
