##TITLE=Neryl phenylacetate
##JCAMP-DX=4.24
##DATA TYPE=MASS SPECTRUM
##ORIGIN=Philip Morris R&D
##OWNER=NIST Mass Spectrometry Data Center
Collection (C) 2014 copyright by the U.S. Secretary of Commerce
on behalf of the United States of America. All rights reserved.
##$NIST MASS SPEC NO=109594
##MOLFORM=C18 H24 O2
##MW=272
##$NIST SOURCE=MSDC
##XUNITS=M/Z
##YUNITS=RELATIVE INTENSITY
##XFACTOR=1
##YFACTOR=1
##FIRSTX=38
##LASTX=207
##FIRSTY=42
##MAXX=207
##MINX=38
##MAXY=9999
##MINY=3
##NPOINTS=85
##PEAK TABLE=(XY..XY)
38,42 39,907 40,279 41,5918
42,201 43,218 45,227 46,16
49,6 50,58 51,312 52,55
53,510 54,39 55,335 56,101
57,205 60,104 61,23 62,26
63,133 64,55 65,855 66,58
67,1147 68,4468 69,9999 70,484
71,78 72,52 73,127 74,6
75,81 77,276 78,19 79,380
80,4221 81,1391 82,114 83,114
84,227 85,370 89,296 90,218
91,5281 92,1817 93,5118 94,978
95,445 96,42 97,143 98,26
100,6 101,52 103,36 104,39
105,224 106,39 107,608 108,240
109,55 110,58 111,36 115,101
117,120 118,549 119,409 120,29
121,2106 122,182 123,364 124,36
131,32 134,3 135,42 136,3487
137,351 138,45 144,6 154,263
155,39 157,3 200,19 203,49
207,13
##END=
