##TITLE=3,9-Epoxy-p-mentha-1,8(10)-diene
##JCAMP-DX=4.24
##DATA TYPE=MASS SPECTRUM
##ORIGIN=Institute of Organic Chemistry, USSR, 1990
##OWNER=NIST Mass Spectrometry Data Center
Collection (C) 2014 copyright by the U.S. Secretary of Commerce
on behalf of the United States of America. All rights reserved.
##$NIST MASS SPEC NO=111148
##MOLFORM=C10 H14 O
##MW=150
##$NIST SOURCE=MSDC
##XUNITS=M/Z
##YUNITS=RELATIVE INTENSITY
##XFACTOR=1
##YFACTOR=1
##FIRSTX=40
##LASTX=151
##FIRSTY=370
##MAXX=151
##MINX=40
##MAXY=9999
##MINY=60
##NPOINTS=74
##PEAK TABLE=(XY..XY)
40,370 41,2860 42,220 43,1250
44,180 45,60 50,210 51,670
52,360 53,1200 54,440 55,1710
56,250 57,370 58,180 59,100
62,60 63,280 64,80 65,1020
66,520 67,2170 68,740 69,750
70,150 71,200 72,60 77,2050
78,530 79,5860 80,860 81,1510
82,1180 83,700 84,250 85,120
89,100 91,2710 92,800 93,2360
94,2670 95,1340 96,270 97,110
98,330 103,240 104,110 105,890
106,600 107,1200 108,700 109,700
110,230 111,60 115,180 116,110
117,640 119,690 120,100 121,880
122,3390 123,500 124,170 131,110
133,90 134,180 135,9999 136,940
137,240 138,80 139,130 149,690
150,3000 151,400
##END=
