##TITLE=trans-7-Methyl-3-octene
##JCAMP-DX=4.24
##DATA TYPE=MASS SPECTRUM
##ORIGIN=NIST Mass Spectrometry Data Center, 1990.
##OWNER=NIST Mass Spectrometry Data Center
Collection (C) 2014 copyright by the U.S. Secretary of Commerce
on behalf of the United States of America. All rights reserved.
##$NIST MASS SPEC NO=113528
##MOLFORM=C9 H18
##MW=126
##$NIST SOURCE=MSDC
##XUNITS=M/Z
##YUNITS=RELATIVE INTENSITY
##XFACTOR=1
##YFACTOR=1
##FIRSTX=15
##LASTX=127
##FIRSTY=141
##MAXX=127
##MINX=15
##MAXY=9999
##MINY=141
##NPOINTS=38
##PEAK TABLE=(XY..XY)
15,141 27,1969 28,711 29,1715
39,3862 40,992 41,9999 42,1673
43,2936 44,154 50,206 51,535
52,283 53,1335 54,924 55,7324
56,9945 57,3729 58,156 63,142
65,400 66,187 67,1615 68,937
69,7128 70,2190 71,236 77,289
79,309 81,230 82,219 83,882
84,719 97,164 98,470 111,842
126,1901 127,199
##END=
