##TITLE=2,3,3-Trimethyl-1-hexene
##JCAMP-DX=4.24
##DATA TYPE=MASS SPECTRUM
##ORIGIN=NIST Mass Spectrometry Data Center, 1990.
##OWNER=NIST Mass Spectrometry Data Center
Collection (C) 2014 copyright by the U.S. Secretary of Commerce
on behalf of the United States of America. All rights reserved.
##$NIST MASS SPEC NO=113521
##MOLFORM=C9 H18
##MW=126
##$NIST SOURCE=MSDC
##XUNITS=M/Z
##YUNITS=RELATIVE INTENSITY
##XFACTOR=1
##YFACTOR=1
##FIRSTX=15
##LASTX=111
##FIRSTY=130
##MAXX=111
##MINX=15
##MAXY=9999
##MINY=130
##NPOINTS=28
##PEAK TABLE=(XY..XY)
15,130 27,1184 28,510 29,949
39,2904 40,566 41,5274 42,511
43,1546 50,154 51,401 52,203
53,1097 55,9942 56,957 57,499
65,416 67,1668 69,5675 70,665
77,280 79,312 81,289 83,9999
84,6955 85,626 97,214 111,291
##END=
