##TITLE=Propylhexedrine acetate
##JCAMP-DX=4.24
##DATA TYPE=MASS SPECTRUM
##ORIGIN=Finnigan MAT: Toxicological Library (LIBR-TX)
##OWNER=NIST Mass Spectrometry Data Center
Collection (C) 2014 copyright by the U.S. Secretary of Commerce
on behalf of the United States of America. All rights reserved.
##$NIST MASS SPEC NO=119961
##MOLFORM=C12 H23 N O
##MW=197
##$NIST SOURCE=MSDC
##XUNITS=M/Z
##YUNITS=RELATIVE INTENSITY
##XFACTOR=1
##YFACTOR=1
##FIRSTX=55
##LASTX=198
##FIRSTY=1090
##MAXX=198
##MINX=55
##MAXY=9999
##MINY=7
##NPOINTS=27
##PEAK TABLE=(XY..XY)
55,1090 56,780 58,9999 59,333
67,463 72,773 74,1065 81,370
82,261 86,280 100,4677 101,918
109,55 114,405 124,78 131,42
140,407 141,46 152,16 154,28
168,19 169,7 180,16 182,765
183,94 197,28 198,11
##END=
