##TITLE=Mexiletine acetate
##JCAMP-DX=4.24
##DATA TYPE=MASS SPECTRUM
##ORIGIN=Finnigan MAT: Toxicological Library (LIBR-TX)
##OWNER=NIST Mass Spectrometry Data Center
Collection (C) 2014 copyright by the U.S. Secretary of Commerce
on behalf of the United States of America. All rights reserved.
##$NIST MASS SPEC NO=120152
##MOLFORM=C13 H19 N O2
##MW=221
##$NIST SOURCE=MSDC
##XUNITS=M/Z
##YUNITS=RELATIVE INTENSITY
##XFACTOR=1
##YFACTOR=1
##FIRSTX=41
##LASTX=221
##FIRSTY=661
##MAXX=221
##MINX=41
##MAXY=9999
##MINY=1
##NPOINTS=31
##PEAK TABLE=(XY..XY)
41,661 43,2120 44,2585 58,6126
77,950 78,255 79,376 86,244
91,692 100,9999 101,604 103,263
105,563 107,345 120,123 121,488
122,484 133,194 135,89 145,30
147,339 148,99 162,297 163,79
164,24 176,8 178,38 179,6
206,6 207,1 221,4
##END=
