##TITLE=Flurbiprofen methyl ester
##JCAMP-DX=4.24
##DATA TYPE=MASS SPECTRUM
##ORIGIN=Finnigan MAT: Toxicological Library (LIBR-TX)
##OWNER=NIST Mass Spectrometry Data Center
Collection (C) 2014 copyright by the U.S. Secretary of Commerce
on behalf of the United States of America. All rights reserved.
##$NIST MASS SPEC NO=120385
##MOLFORM=C16 H15 F O2
##MW=258
##$NIST SOURCE=MSDC
##XUNITS=M/Z
##YUNITS=RELATIVE INTENSITY
##XFACTOR=1
##YFACTOR=1
##FIRSTX=51
##LASTX=259
##FIRSTY=504
##MAXX=259
##MINX=51
##MAXY=9999
##MINY=8
##NPOINTS=33
##PEAK TABLE=(XY..XY)
51,504 59,298 75,235 76,213
77,769 85,466 88,272 98,474
99,598 101,174 121,158 133,250
151,308 152,483 153,168 165,214
170,832 171,412 176,367 177,415
178,2601 179,1510 183,1950 184,1663
196,832 197,850 199,9999 215,96
226,30 229,8 243,21 258,5534
259,957
##END=
