##TITLE=cis-Linaloloxide
##JCAMP-DX=4.24
##DATA TYPE=MASS SPECTRUM
##ORIGIN=Dr. Jiri Zamecnik, DCIEM, North York, Canada, GP Library
##OWNER=NIST Mass Spectrometry Data Center
Collection (C) 2014 copyright by the U.S. Secretary of Commerce
on behalf of the United States of America. All rights reserved.
##$NIST MASS SPEC NO=121974
##MOLFORM=C10 H18 O2
##MW=170
##$NIST SOURCE=MSDC
##XUNITS=M/Z
##YUNITS=RELATIVE INTENSITY
##XFACTOR=1
##YFACTOR=1
##FIRSTX=39
##LASTX=155
##FIRSTY=1310
##MAXX=155
##MINX=39
##MAXY=9999
##MINY=30
##NPOINTS=42
##PEAK TABLE=(XY..XY)
39,1310 41,2630 42,420 43,6620
53,750 55,3010 57,400 59,9999
60,270 67,1920 68,2690 69,1090
70,650 71,1490 79,720 81,1640
82,390 83,1050 84,390 85,510
93,2170 94,2830 95,390 97,530
102,120 107,70 109,230 110,120
111,2250 112,350 117,60 119,80
121,50 122,60 125,50 135,30
137,270 141,30 143,110 147,30
152,40 155,230
##END=
