##TITLE=Muurolane-B
##JCAMP-DX=4.24
##DATA TYPE=MASS SPECTRUM
##ORIGIN=Dr. Jiri Zamecnik, DCIEM, North York, Canada, GP Library
##OWNER=NIST Mass Spectrometry Data Center
Collection (C) 2014 copyright by the U.S. Secretary of Commerce
on behalf of the United States of America. All rights reserved.
##$NIST MASS SPEC NO=121637
##MOLFORM=C15 H28
##MW=208
##$NIST SOURCE=MSDC
##XUNITS=M/Z
##YUNITS=RELATIVE INTENSITY
##XFACTOR=1
##YFACTOR=1
##FIRSTX=39
##LASTX=209
##FIRSTY=950
##MAXX=209
##MINX=39
##MAXY=9999
##MINY=20
##NPOINTS=34
##PEAK TABLE=(XY..XY)
39,950 41,5590 43,1600 53,610
55,5390 56,370 57,540 67,3020
68,520 69,3490 71,320 73,970
77,420 79,530 81,4780 82,620
83,3730 84,180 93,230 95,7850
96,930 97,690 108,150 109,9999
110,620 123,1530 124,860 147,20
149,330 164,1620 165,4520 166,230
208,330 209,60
##END=
