##TITLE=Norpropoxypheneamide
##JCAMP-DX=4.24
##DATA TYPE=MASS SPECTRUM
##ORIGIN=Dr. Jiri Zamecnik, DCIEM, North York, Canada, GP Library
##OWNER=NIST Mass Spectrometry Data Center
Collection (C) 2014 copyright by the U.S. Secretary of Commerce
on behalf of the United States of America. All rights reserved.
##$NIST MASS SPEC NO=123368
##MOLFORM=C20 H23 N O3
##MW=325
##$NIST SOURCE=MSDC
##XUNITS=M/Z
##YUNITS=RELATIVE INTENSITY
##XFACTOR=1
##YFACTOR=1
##FIRSTX=57
##LASTX=235
##FIRSTY=2270
##MAXX=235
##MINX=57
##MAXY=9999
##MINY=300
##NPOINTS=33
##PEAK TABLE=(XY..XY)
57,2270 65,1120 72,1150 77,3140
78,810 88,4940 91,6080 92,790
100,9100 101,960 105,6430 114,610
115,1580 119,670 128,1940 129,2900
133,1290 147,1810 152,520 165,590
176,640 178,1260 179,540 189,300
191,350 193,540 197,1080 205,1550
208,470 220,2560 221,610 234,9999
235,1820
##END=
