##TITLE=2,5-Dimethoxy-4-propoxybenzaldehyde
##JCAMP-DX=4.24
##DATA TYPE=MASS SPECTRUM
##ORIGIN=Dr. Jiri Zamecnik, DCIEM, North York, Canada, GP Library
##OWNER=NIST Mass Spectrometry Data Center
Collection (C) 2014 copyright by the U.S. Secretary of Commerce
on behalf of the United States of America. All rights reserved.
##$NIST MASS SPEC NO=123085
##MOLFORM=C12 H16 O4
##MW=224
##$NIST SOURCE=MSDC
##XUNITS=M/Z
##YUNITS=RELATIVE INTENSITY
##XFACTOR=1
##YFACTOR=1
##FIRSTX=41
##LASTX=225
##FIRSTY=3020
##MAXX=225
##MINX=41
##MAXY=9999
##MINY=300
##NPOINTS=32
##PEAK TABLE=(XY..XY)
41,3020 43,2430 51,1430 52,770
53,1500 65,730 69,1920 77,550
79,770 93,720 95,700 107,540
109,700 111,2090 122,710 123,470
125,800 136,5780 137,790 139,1430
150,390 151,660 153,1370 164,1000
165,2390 167,9630 168,760 181,2830
182,3100 183,300 224,9999 225,1240
##END=
