##TITLE=5.beta.-Pregnan-3.beta.,20.alpha.-diol
##JCAMP-DX=4.24
##DATA TYPE=MASS SPECTRUM
##ORIGIN=LAC, NIDDK, NIH, Bethesda, MD 20892
##OWNER=NIST Mass Spectrometry Data Center
Collection (C) 2014 copyright by the U.S. Secretary of Commerce
on behalf of the United States of America. All rights reserved.
##$NIST MASS SPEC NO=126782
##MOLFORM=C21 H36 O2
##MW=320
##$NIST SOURCE=MSDC
##XUNITS=M/Z
##YUNITS=RELATIVE INTENSITY
##XFACTOR=1
##YFACTOR=1
##FIRSTX=41
##LASTX=321
##FIRSTY=1277
##MAXX=321
##MINX=41
##MAXY=9999
##MINY=26
##NPOINTS=152
##PEAK TABLE=(XY..XY)
41,1277 43,1313 45,2111 46,26
53,379 54,50 55,1642 56,59
57,527 58,26 65,190 66,85
67,1523 68,472 69,666 70,80
71,402 77,576 78,159 79,1723
80,324 81,1868 82,316 83,346
84,99 85,112 91,1328 92,315
93,1868 94,745 95,1713 96,261
97,230 103,56 104,63 105,1118
106,596 107,1835 108,2771 109,1191
110,262 111,244 115,105 117,239
118,95 119,858 120,521 121,1036
122,1146 123,504 124,1362 125,247
128,78 129,103 131,378 133,983
134,506 135,1060 136,370 137,221
138,90 143,84 145,514 146,82
147,1217 148,579 149,1166 150,284
151,90 157,65 159,463 160,155
161,901 162,380 163,527 164,182
165,254 166,161 167,74 171,72
173,424 174,235 175,513 176,547
177,408 178,178 179,122 185,128
187,359 188,158 189,259 190,855
191,309 192,115 199,158 200,102
201,752 202,290 203,286 204,70
205,96 206,74 213,227 214,107
215,1754 216,3049 217,816 218,287
219,886 220,310 227,149 228,72
229,396 230,234 231,300 232,315
233,4152 234,9999 235,1760 236,171
241,99 242,26 243,438 244,139
245,224 246,641 247,181 248,198
255,221 256,56 257,365 258,130
259,123 260,123 261,312 262,64
263,204 269,865 270,196 273,260
274,64 284,318 285,93 287,2111
288,458 289,50 302,5266 303,1266
304,173 305,160 320,657 321,156
##END=
