##TITLE=5.beta.-Pregnan-3.beta.,20.beta.-diol
##JCAMP-DX=4.24
##DATA TYPE=MASS SPECTRUM
##ORIGIN=LAC, NIDDK, NIH, Bethesda, MD 20892
##OWNER=NIST Mass Spectrometry Data Center
Collection (C) 2014 copyright by the U.S. Secretary of Commerce
on behalf of the United States of America. All rights reserved.
##$NIST MASS SPEC NO=126722
##MOLFORM=C21 H36 O2
##MW=320
##$NIST SOURCE=MSDC
##XUNITS=M/Z
##YUNITS=RELATIVE INTENSITY
##XFACTOR=1
##YFACTOR=1
##FIRSTX=41
##LASTX=322
##FIRSTY=1548
##MAXX=322
##MINX=41
##MAXY=9999
##MINY=10
##NPOINTS=196
##PEAK TABLE=(XY..XY)
41,1548 42,157 43,1510 44,36
45,3135 46,72 51,23 52,21
53,493 54,185 55,1962 56,158
57,622 58,69 59,44 65,222
66,129 67,1920 68,586 69,767
70,162 71,414 72,37 73,10
77,732 78,265 79,2087 80,526
81,2241 82,379 83,414 84,125
85,158 86,17 91,1553 92,417
93,2107 94,917 95,1989 96,294
97,256 98,37 99,52 100,32
101,12 103,72 104,97 105,1219
106,723 107,2097 108,3230 109,1389
110,292 111,269 112,37 113,32
115,79 116,34 117,274 118,177
119,860 120,608 121,1184 122,1289
123,565 124,1609 125,276 126,46
127,53 128,78 129,91 130,55
131,363 132,159 133,919 134,582
135,1214 136,433 137,244 138,113
139,51 141,26 142,16 143,83
144,58 145,518 146,250 147,1201
148,645 149,1232 150,283 151,113
152,31 153,16 157,83 158,63
159,490 160,294 161,867 162,395
163,473 164,194 165,296 166,178
167,95 171,91 172,51 173,455
174,254 175,562 176,641 177,450
178,200 179,134 180,33 185,112
186,53 187,375 188,170 189,285
190,952 191,323 192,134 193,43
194,31 199,174 200,105 201,819
202,328 203,318 204,85 205,127
206,112 207,26 213,239 214,113
215,1848 216,3243 217,876 218,318
219,906 220,329 221,55 227,137
228,106 229,396 230,238 231,300
232,363 233,4482 234,9999 235,1736
236,172 241,81 242,56 243,403
244,141 245,217 246,684 247,183
248,189 249,48 251,54 255,208
256,66 257,351 258,121 259,104
260,126 261,337 262,81 263,184
264,39 269,826 270,182 271,30
273,245 274,78 275,12 283,44
284,329 285,205 286,36 287,2041
288,445 289,54 301,54 302,5360
303,1261 304,170 305,148 306,32
319,30 320,981 321,233 322,32
##END=
