##TITLE=1,2,3,4-Tetrahydroisoquinoline, 6,7,8-trimethoxy-1-methyl-
##JCAMP-DX=4.24
##DATA TYPE=MASS SPECTRUM
##ORIGIN=A. Brossi, LC, NIDDK, NIH, Bethesda, MD 20892
##OWNER=NIST Mass Spectrometry Data Center
Collection (C) 2014 copyright by the U.S. Secretary of Commerce
on behalf of the United States of America. All rights reserved.
##$NIST MASS SPEC NO=127935
##MOLFORM=C13 H19 N O3
##MW=237
##$NIST SOURCE=MSDC
##XUNITS=M/Z
##YUNITS=RELATIVE INTENSITY
##XFACTOR=1
##YFACTOR=1
##FIRSTX=41
##LASTX=238
##FIRSTY=278
##MAXX=238
##MINX=41
##MAXY=9999
##MINY=13
##NPOINTS=134
##PEAK TABLE=(XY..XY)
41,278 42,461 43,351 44,273
45,1630 46,235 50,138 51,350
52,289 53,1029 54,473 55,431
56,301 57,96 59,145 60,67
61,25 62,70 63,245 64,158
65,465 66,189 67,186 68,60
69,167 70,192 71,382 72,324
73,46 74,17 75,180 76,115
77,624 78,356 79,414 80,172
81,356 82,124 83,32 84,17
85,17 86,14 88,575 89,227
90,146 91,449 92,237 93,316
94,98 96,381 98,1302 99,561
100,32 101,19 102,132 103,536
104,377 105,206 106,256 107,209
108,88 109,36 110,19 111,363
115,106 116,396 117,158 118,210
119,166 120,153 121,474 122,59
123,23 124,29 128,13 129,19
130,101 131,151 132,170 133,210
134,127 135,248 136,142 137,31
144,28 145,47 146,138 147,208
148,277 149,149 150,111 151,60
158,13 159,36 160,161 161,732
162,278 163,155 164,584 165,130
166,16 173,20 174,67 175,118
176,246 177,118 178,560 179,92
180,17 181,21 188,80 189,223
190,273 191,79 192,1603 193,295
194,50 195,16 202,13 203,19
204,72 205,25 206,669 207,147
208,42 220,113 221,88 222,9999
223,1366 224,136 235,13 236,173
237,238 238,57
##END=
