##TITLE=Z-3-Tetradecen-1-ol acetate
##JCAMP-DX=4.24
##DATA TYPE=MASS SPECTRUM
##ORIGIN=J. Klune, Insect Chem. Ecol. Lab., USDA, Beltsville, MD 20705
##OWNER=NIST Mass Spectrometry Data Center
Collection (C) 2014 copyright by the U.S. Secretary of Commerce
on behalf of the United States of America. All rights reserved.
##$NIST MASS SPEC NO=130818
##MOLFORM=C16 H30 O2
##MW=254
##$NIST SOURCE=MSDC
##XUNITS=M/Z
##YUNITS=RELATIVE INTENSITY
##XFACTOR=1
##YFACTOR=1
##FIRSTX=41
##LASTX=255
##FIRSTY=2942
##MAXX=255
##MINX=41
##MAXY=9999
##MINY=6
##NPOINTS=105
##PEAK TABLE=(XY..XY)
41,2942 42,651 43,9999 44,270
45,50 51,41 52,40 53,482
54,4819 55,2825 56,740 57,1326
58,93 59,27 60,21 61,194
63,6 65,200 66,388 67,4153
68,6488 69,1975 70,545 71,553
72,55 73,401 74,23 77,121
78,37 79,652 80,674 81,3667
82,5532 83,2120 84,343 85,232
86,44 87,52 91,69 92,14
93,129 94,197 95,2476 96,5125
97,1604 98,207 99,70 100,34
101,33 103,52 105,17 107,54
108,94 109,1630 110,1787 111,503
112,107 113,41 114,37 115,25
119,24 121,37 122,60 123,777
124,927 125,204 126,46 127,23
128,15 129,7 135,36 136,32
137,387 138,597 139,114 140,28
141,15 149,40 150,16 151,211
152,950 153,121 154,15 155,21
163,8 164,7 165,229 166,996
167,133 168,21 169,25 179,41
180,38 181,18 192,13 193,35
194,3938 195,668 196,57 197,19
198,25 237,19 253,15 254,105
255,21
##END=
