##TITLE=Z-2-Tetradecen-1-ol acetate
##JCAMP-DX=4.24
##DATA TYPE=MASS SPECTRUM
##ORIGIN=J. Klune, Insect Chem. Ecol. Lab., USDA, Beltsville, MD 20705
##OWNER=NIST Mass Spectrometry Data Center
Collection (C) 2014 copyright by the U.S. Secretary of Commerce
on behalf of the United States of America. All rights reserved.
##$NIST MASS SPEC NO=130819
##MOLFORM=C16 H30 O2
##MW=254
##$NIST SOURCE=MSDC
##XUNITS=M/Z
##YUNITS=RELATIVE INTENSITY
##XFACTOR=1
##YFACTOR=1
##FIRSTX=41
##LASTX=255
##FIRSTY=3133
##MAXX=255
##MINX=41
##MAXY=9999
##MINY=4
##NPOINTS=145
##PEAK TABLE=(XY..XY)
41,3133 42,714 43,9999 44,316
45,119 50,9 51,44 52,39
53,449 54,2198 55,2743 56,707
57,2059 58,328 59,128 60,284
61,266 62,4 65,124 66,266
67,1966 68,2033 69,1565 70,671
71,1161 72,376 73,454 74,42
77,87 78,26 79,349 80,297
81,1920 82,3055 83,1497 84,416
85,529 86,244 87,143 88,16
89,11 91,55 92,8 93,96
94,142 95,1551 96,2886 97,1174
98,259 99,394 100,634 101,198
102,21 103,104 104,4 105,10
107,41 108,58 109,864 110,838
111,446 112,132 113,397 114,752
115,375 116,35 117,10 119,4
121,41 122,42 123,407 124,434
125,162 126,79 127,121 128,154
129,138 130,14 135,219 136,30
137,438 138,336 139,80 140,56
141,104 142,112 143,67 144,7
149,55 150,17 151,138 152,340
153,54 154,36 155,78 156,66
157,41 163,13 164,8 165,116
166,1150 167,156 168,26 169,177
170,64 171,21 172,8 177,4
179,34 180,4 181,7 182,4
183,385 184,63 185,17 186,45
187,20 192,8 193,29 194,657
195,394 196,55 197,127 198,24
199,4 200,30 201,9 208,14
209,26 210,38 211,187 212,598
213,98 214,8 225,32 226,38
227,23 234,7 235,4 236,11
237,11 239,17 253,22 254,32
255,4
##END=
