##TITLE=Z,Z-10,12-Hexadecadienal
##JCAMP-DX=4.24
##DATA TYPE=MASS SPECTRUM
##ORIGIN=J. Klune, Insect Chem. Ecol. Lab., USDA, Beltsville, MD 20705
##OWNER=NIST Mass Spectrometry Data Center
Collection (C) 2014 copyright by the U.S. Secretary of Commerce
on behalf of the United States of America. All rights reserved.
##$NIST MASS SPEC NO=130866
##MOLFORM=C16 H28 O
##MW=236
##$NIST SOURCE=MSDC
##XUNITS=M/Z
##YUNITS=RELATIVE INTENSITY
##XFACTOR=1
##YFACTOR=1
##FIRSTX=41
##LASTX=239
##FIRSTY=5926
##MAXX=239
##MINX=41
##MAXY=9999
##MINY=5
##NPOINTS=152
##PEAK TABLE=(XY..XY)
41,5926 42,585 43,2066 44,789
45,118 50,32 51,165 52,159
53,930 54,3626 55,4680 56,592
57,1173 58,117 59,76 60,23
63,42 64,5 65,722 66,512
67,9999 68,3033 69,1695 70,644
71,521 72,71 73,52 74,6
75,84 77,952 78,306 79,2750
80,1422 81,6439 82,3726 83,1322
84,730 85,438 86,67 87,37
89,20 91,846 92,239 93,1170
94,793 95,3363 96,3613 97,1142
98,1633 99,227 100,40 101,39
103,33 104,22 105,252 106,129
107,602 108,588 109,1790 110,1220
111,639 112,452 113,85 114,24
115,33 117,35 118,6 119,292
120,166 121,667 122,399 123,917
124,470 125,216 126,104 127,61
128,23 129,19 131,34 132,19
133,327 134,215 135,472 136,235
137,472 138,269 139,99 140,56
141,49 142,18 143,5 145,25
146,17 147,225 148,239 149,330
150,116 151,319 152,220 153,75
154,38 155,26 156,6 159,22
161,166 162,94 163,154 164,54
165,249 166,121 167,51 168,24
169,22 171,6 175,109 176,39
177,68 178,37 179,186 180,104
181,47 182,21 183,13 185,6
189,59 190,19 191,28 192,103
193,187 194,96 195,45 196,20
197,18 199,12 203,12 205,70
206,25 207,144 208,55 209,33
211,6 218,22 219,172 220,78
221,179 222,87 223,30 235,21
236,3400 237,629 238,153 239,29
##END=
