##TITLE=Z-12-Tetradecen-1-ol
##JCAMP-DX=4.24
##DATA TYPE=MASS SPECTRUM
##ORIGIN=J. Klune, Insect Chem. Ecol. Lab., USDA, Beltsville, MD 20705
##OWNER=NIST Mass Spectrometry Data Center
Collection (C) 2014 copyright by the U.S. Secretary of Commerce
on behalf of the United States of America. All rights reserved.
##$NIST MASS SPEC NO=130840
##MOLFORM=C14 H28 O
##MW=212
##$NIST SOURCE=MSDC
##XUNITS=M/Z
##YUNITS=RELATIVE INTENSITY
##XFACTOR=1
##YFACTOR=1
##FIRSTX=41
##LASTX=213
##FIRSTY=7362
##MAXX=213
##MINX=41
##MAXY=9999
##MINY=2
##NPOINTS=104
##PEAK TABLE=(XY..XY)
41,7362 42,1603 43,2872 44,273
45,221 46,26 47,17 48,9
49,74 50,25 51,110 52,70
53,971 54,3165 55,9999 56,1799
57,1470 58,106 59,38 60,2
61,8 63,12 65,157 66,536
67,4349 68,7596 69,4003 70,806
71,602 72,72 73,40 76,10
77,95 78,27 79,303 80,284
81,3804 82,5972 83,2054 84,339
85,314 86,66 87,15 91,38
92,3 93,96 94,154 95,2579
96,3353 97,1029 98,137 99,75
100,18 101,9 105,11 107,35
108,62 109,1216 110,1096 111,280
112,90 113,26 114,6 115,3
121,26 122,51 123,547 124,499
125,96 126,45 127,14 128,3
135,13 136,24 137,300 138,305
139,41 140,11 141,9 149,33
150,9 151,101 152,122 153,20
155,7 165,50 166,175 167,26
168,14 169,5 179,11 180,22
181,3 183,5 184,9 193,11
194,484 195,73 196,2 197,3
210,2 211,8 212,19 213,16
##END=
