##TITLE=E-2-Tetradecen-1-ol
##JCAMP-DX=4.24
##DATA TYPE=MASS SPECTRUM
##ORIGIN=J. Klune, Insect Chem. Ecol. Lab., USDA, Beltsville, MD 20705
##OWNER=NIST Mass Spectrometry Data Center
Collection (C) 2014 copyright by the U.S. Secretary of Commerce
on behalf of the United States of America. All rights reserved.
##$NIST MASS SPEC NO=130837
##MOLFORM=C14 H28 O
##MW=212
##$NIST SOURCE=MSDC
##XUNITS=M/Z
##YUNITS=RELATIVE INTENSITY
##XFACTOR=1
##YFACTOR=1
##FIRSTX=41
##LASTX=214
##FIRSTY=8143
##MAXX=214
##MINX=41
##MAXY=9999
##MINY=2
##NPOINTS=134
##PEAK TABLE=(XY..XY)
41,8143 42,1811 43,8874 44,1268
45,483 46,19 47,34 48,12
49,103 50,32 51,146 52,94
53,962 54,2930 55,6085 56,2303
57,9999 58,790 59,167 60,207
61,67 62,2 63,17 65,212
66,787 67,3774 68,3925 69,3430
70,2070 71,2382 72,548 73,246
74,28 75,44 77,159 78,15
79,561 80,465 81,3504 82,5556
83,3099 84,912 85,1060 86,202
87,85 88,23 89,24 91,70
93,223 94,220 95,2795 96,3206
97,2070 98,481 99,273 100,69
101,67 102,10 103,13 105,17
106,6 107,74 108,102 109,1123
110,924 111,815 112,243 113,113
114,35 115,36 116,7 117,3
119,10 121,106 122,65 123,484
124,458 125,290 126,115 127,55
128,22 129,51 130,5 133,7
135,65 136,40 137,307 138,332
139,124 140,117 141,34 142,16
143,20 149,30 150,8 151,103
152,131 153,38 154,26 155,22
156,11 157,31 163,18 164,14
165,51 166,279 167,46 168,21
169,27 171,17 177,5 179,22
180,10 181,13 182,8 183,46
184,12 185,24 186,9 187,3
191,5 192,18 193,22 194,306
195,93 196,23 197,17 198,5
209,50 210,22 211,59 212,147
213,24 214,2
##END=
