##TITLE=E-12-Tetradecen-1-ol
##JCAMP-DX=4.24
##DATA TYPE=MASS SPECTRUM
##ORIGIN=J. Klune, Insect Chem. Ecol. Lab., USDA, Beltsville, MD 20705
##OWNER=NIST Mass Spectrometry Data Center
Collection (C) 2014 copyright by the U.S. Secretary of Commerce
on behalf of the United States of America. All rights reserved.
##$NIST MASS SPEC NO=130836
##MOLFORM=C14 H28 O
##MW=212
##$NIST SOURCE=MSDC
##XUNITS=M/Z
##YUNITS=RELATIVE INTENSITY
##XFACTOR=1
##YFACTOR=1
##FIRSTX=41
##LASTX=213
##FIRSTY=6331
##MAXX=213
##MINX=41
##MAXY=9999
##MINY=3
##NPOINTS=112
##PEAK TABLE=(XY..XY)
41,6331 42,1448 43,2688 44,282
45,191 46,6 47,12 48,3
49,53 50,20 51,84 52,56
53,767 54,3198 55,9999 56,1824
57,1445 58,111 59,39 60,6
61,17 63,11 65,132 66,505
67,4233 68,7480 69,3915 70,842
71,651 72,78 73,46 75,4
77,82 78,22 79,271 80,267
81,3753 82,6279 83,2094 84,391
85,416 86,74 87,19 91,39
92,3 93,88 94,159 95,2617
96,3565 97,1037 98,149 99,87
100,23 101,19 103,15 105,19
106,6 107,43 108,71 109,1271
110,1162 111,269 112,100 113,32
114,9 115,6 119,15 120,6
121,32 122,57 123,585 124,531
125,92 126,54 127,18 129,3
131,3 133,12 135,15 136,30
137,321 138,335 139,44 140,14
141,11 143,3 147,6 149,42
150,7 151,113 152,122 153,21
155,9 161,3 163,6 165,56
166,200 167,31 168,18 169,10
179,13 180,6 183,12 184,11
193,9 194,575 195,87 196,10
210,3 211,9 212,28 213,10
##END=
