##TITLE=Z,Z-11,13-Hexadecadien-1-ol acetate
##JCAMP-DX=4.24
##DATA TYPE=MASS SPECTRUM
##ORIGIN=J. Klune, Insect Chem. Ecol. Lab., USDA, Beltsville, MD 20705
##OWNER=NIST Mass Spectrometry Data Center
Collection (C) 2014 copyright by the U.S. Secretary of Commerce
on behalf of the United States of America. All rights reserved.
##$NIST MASS SPEC NO=130883
##MOLFORM=C18 H32 O2
##MW=280
##$NIST SOURCE=MSDC
##XUNITS=M/Z
##YUNITS=RELATIVE INTENSITY
##XFACTOR=1
##YFACTOR=1
##FIRSTX=41
##LASTX=283
##FIRSTY=4807
##MAXX=283
##MINX=41
##MAXY=9999
##MINY=7
##NPOINTS=143
##PEAK TABLE=(XY..XY)
41,4807 42,825 43,9999 44,283
45,66 50,22 51,104 52,112
53,986 54,1322 55,4670 56,497
57,948 58,70 59,19 60,10
61,920 62,23 63,30 65,514
66,607 67,7543 68,2704 69,1852
70,285 71,398 72,53 73,431
74,7 75,50 77,893 78,454
79,4542 80,2203 81,4253 82,5577
83,1503 84,190 85,258 86,44
87,37 91,636 92,202 93,2295
94,2000 95,4462 96,3282 97,1004
98,165 99,190 100,33 101,42
103,46 105,123 106,76 107,1132
108,1156 109,1589 110,1344 111,365
112,82 113,40 114,40 115,28
119,55 121,1904 122,873 123,687
124,891 125,234 126,49 127,61
128,29 133,34 135,1348 136,636
137,397 138,609 139,114 140,35
141,56 142,30 147,23 149,776
150,340 151,206 152,260 153,60
154,13 155,31 163,391 164,225
165,98 166,76 167,37 177,224
178,114 179,62 180,27 181,27
189,25 191,192 192,222 193,52
194,36 195,41 196,21 205,37
207,29 208,33 209,33 213,17
219,35 220,698 221,255 222,228
223,66 224,49 225,14 226,10
227,16 229,44 237,251 238,67
239,26 242,42 243,7 249,47
250,7 251,10 252,156 253,62
254,15 262,7 263,41 264,7
265,102 266,9 279,7 280,4229
281,776 282,114 283,28
##END=
