##TITLE=E-11-Hexadecen-1-ol acetate
##JCAMP-DX=4.24
##DATA TYPE=MASS SPECTRUM
##ORIGIN=J. Klune, Insect Chem. Ecol. Lab., USDA, Beltsville, MD 20705
##OWNER=NIST Mass Spectrometry Data Center
Collection (C) 2014 copyright by the U.S. Secretary of Commerce
on behalf of the United States of America. All rights reserved.
##$NIST MASS SPEC NO=130881
##MOLFORM=C18 H34 O2
##MW=282
##$NIST SOURCE=MSDC
##XUNITS=M/Z
##YUNITS=RELATIVE INTENSITY
##XFACTOR=1
##YFACTOR=1
##FIRSTX=41
##LASTX=284
##FIRSTY=5842
##MAXX=284
##MINX=41
##MAXY=9999
##MINY=8
##NPOINTS=123
##PEAK TABLE=(XY..XY)
41,5842 42,1217 43,9999 44,292
45,59 51,38 52,41 53,589
54,2868 55,7150 56,1172 57,962
58,66 59,24 61,1281 62,29
65,176 66,390 67,4205 68,2989
69,3023 70,557 71,355 72,45
73,414 74,16 77,131 78,41
79,506 80,450 81,4757 82,6540
83,2369 84,303 85,261 86,39
87,28 89,31 91,81 92,8
93,164 94,251 95,3420 96,5474
97,1691 98,211 99,72 100,24
101,124 105,19 107,65 108,119
109,1858 110,2236 111,733 112,104
113,40 114,19 115,18 116,16
121,63 122,154 123,1170 124,1439
125,401 126,71 127,36 128,20
135,42 136,104 137,771 138,934
139,246 140,98 141,39 142,16
149,25 150,33 151,343 152,486
153,156 154,40 155,19 156,8
163,8 164,17 165,314 166,451
167,114 168,21 169,8 170,17
179,226 180,255 181,59 183,8
193,120 194,404 195,67 207,31
208,17 210,21 211,34 220,31
222,4622 223,952 224,105 225,22
227,11 236,24 239,46 241,23
253,8 263,10 264,18 265,17
277,22 279,83 280,123 281,130
282,1313 283,252 284,48
##END=
