##TITLE=7-Decen-1-ol acetate
##JCAMP-DX=4.24
##DATA TYPE=MASS SPECTRUM
##ORIGIN=LAC, NIDDK, NIH, Bethesda, MD 20892
##OWNER=NIST Mass Spectrometry Data Center
Collection (C) 2014 copyright by the U.S. Secretary of Commerce
on behalf of the United States of America. All rights reserved.
##$NIST MASS SPEC NO=130987
##MOLFORM=C12 H22 O2
##MW=198
##$NIST SOURCE=MSDC
##XUNITS=M/Z
##YUNITS=RELATIVE INTENSITY
##XFACTOR=1
##YFACTOR=1
##FIRSTX=41
##LASTX=199
##FIRSTY=1881
##MAXX=199
##MINX=41
##MAXY=9999
##MINY=70
##NPOINTS=67
##PEAK TABLE=(XY..XY)
41,1881 42,1004 43,9999 44,311
51,184 53,737 54,638 55,3166
56,567 58,219 59,73 60,101
61,495 65,231 66,371 67,1729
68,1009 69,1144 70,177 71,1600
72,76 73,315 77,280 78,75
79,738 80,628 81,3335 82,672
83,194 84,886 85,124 91,278
92,75 93,673 94,595 95,2190
96,423 97,1757 98,353 99,174
105,191 107,367 108,183 109,375
110,233 111,291 112,288 120,204
121,172 122,1288 123,522 124,100
125,179 131,79 133,164 135,264
137,700 138,212 139,72 147,156
149,101 164,150 165,174 183,86
197,97 198,374 199,70
##END=
