##TITLE=1,11-Tridecadiene
##JCAMP-DX=4.24
##DATA TYPE=MASS SPECTRUM
##ORIGIN=J. Klune, Insect Chem. Ecol. Lab., USDA, Beltsville, MD 20705
##OWNER=NIST Mass Spectrometry Data Center
Collection (C) 2014 copyright by the U.S. Secretary of Commerce
on behalf of the United States of America. All rights reserved.
##$NIST MASS SPEC NO=130764
##MOLFORM=C13 H24
##MW=180
##$NIST SOURCE=MSDC
##XUNITS=M/Z
##YUNITS=RELATIVE INTENSITY
##XFACTOR=1
##YFACTOR=1
##FIRSTX=41
##LASTX=183
##FIRSTY=3601
##MAXX=183
##MINX=41
##MAXY=9999
##MINY=4
##NPOINTS=118
##PEAK TABLE=(XY..XY)
41,3601 42,973 43,9999 44,284
45,175 46,4 47,16 49,18
50,10 51,56 52,26 53,688
54,1823 55,5734 56,963 57,1006
58,120 59,51 65,128 66,360
67,3447 68,6140 69,3219 70,794
71,790 72,87 73,309 74,20
75,22 77,74 78,31 79,380
80,447 81,5064 82,5054 83,2867
84,687 85,560 86,83 87,279
88,25 89,85 91,75 92,28
93,297 94,387 95,5059 96,3710
97,2802 98,572 99,256 100,54
101,216 102,24 103,22 105,34
106,18 107,235 108,233 109,3244
110,1962 111,1302 112,356 113,201
114,41 115,54 116,95 117,20
119,29 120,20 121,279 122,192
123,1996 124,1199 125,635 126,106
127,52 128,26 129,36 130,11
131,15 133,26 134,22 135,217
136,205 137,1047 138,821 139,262
140,133 141,92 142,19 143,30
145,19 147,24 148,17 149,187
150,84 151,442 152,473 153,128
154,30 155,51 156,24 157,24
159,4 161,11 163,39 164,15
165,94 166,60 167,10 177,14
178,143 179,2098 180,4211 181,1241
182,150 183,55
##END=
