##TITLE=E-3-Tetradecen-1-ol acetate
##JCAMP-DX=4.24
##DATA TYPE=MASS SPECTRUM
##ORIGIN=J. Klune, Insect Chem. Ecol. Lab., USDA, Beltsville, MD 20705
##OWNER=NIST Mass Spectrometry Data Center
Collection (C) 2014 copyright by the U.S. Secretary of Commerce
on behalf of the United States of America. All rights reserved.
##$NIST MASS SPEC NO=130811
##MOLFORM=C16 H30 O2
##MW=254
##$NIST SOURCE=MSDC
##XUNITS=M/Z
##YUNITS=RELATIVE INTENSITY
##XFACTOR=1
##YFACTOR=1
##FIRSTX=41
##LASTX=256
##FIRSTY=2562
##MAXX=256
##MINX=41
##MAXY=9999
##MINY=3
##NPOINTS=140
##PEAK TABLE=(XY..XY)
41,2562 42,594 43,9999 44,255
45,72 47,14 51,28 52,28
53,383 54,4758 55,2971 56,1045
57,1712 58,131 59,40 60,32
61,811 62,18 65,146 66,379
67,4037 68,6083 69,2341 70,950
71,836 72,81 73,407 74,29
75,266 76,4 77,83 78,32
79,504 80,599 81,3741 82,5816
83,2604 84,637 85,391 86,59
87,45 88,14 89,4 91,51
92,13 93,122 94,210 95,2504
96,5274 97,2137 98,416 99,135
100,62 101,60 102,12 103,62
105,12 107,48 108,101 109,1650
110,1850 111,882 112,220 113,89
114,62 115,44 116,81 117,18
121,46 122,70 123,791 124,999
125,403 126,110 127,40 128,19
129,23 130,13 135,36 136,33
137,402 138,680 139,201 140,133
141,31 142,16 143,11 149,19
150,15 151,218 152,952 153,146
154,36 155,25 156,13 163,11
164,14 165,261 166,1142 167,151
168,138 169,53 170,11 179,42
180,36 181,43 182,24 183,43
184,4 185,18 192,19 193,91
194,4308 195,988 196,135 197,36
198,4 199,24 208,20 209,29
210,10 211,24 212,41 213,18
215,15 220,10 226,13 227,16
229,11 230,17 237,23 238,4
248,4 249,4 251,3 252,38
253,14 254,269 255,50 256,5
##END=
