##TITLE=Z-12-Tetradecenal
##JCAMP-DX=4.24
##DATA TYPE=MASS SPECTRUM
##ORIGIN=J. Klune, Insect Chem. Ecol. Lab., USDA, Beltsville, MD 20705
##OWNER=NIST Mass Spectrometry Data Center
Collection (C) 2014 copyright by the U.S. Secretary of Commerce
on behalf of the United States of America. All rights reserved.
##$NIST MASS SPEC NO=130765
##MOLFORM=C14 H26 O
##MW=210
##$NIST SOURCE=MSDC
##XUNITS=M/Z
##YUNITS=RELATIVE INTENSITY
##XFACTOR=1
##YFACTOR=1
##FIRSTX=41
##LASTX=211
##FIRSTY=5677
##MAXX=211
##MINX=41
##MAXY=9999
##MINY=6
##NPOINTS=120
##PEAK TABLE=(XY..XY)
41,5677 42,1269 43,3023 44,1185
45,258 49,36 50,22 51,90
52,60 53,808 54,2110 55,9999
56,2872 57,2975 58,438 59,184
60,60 61,71 65,147 66,439
67,4487 68,4480 69,5854 70,3762
71,1523 72,504 73,198 74,21
75,11 77,106 78,130 79,1245
80,1450 81,4787 82,4767 83,3871
84,3160 85,1128 86,496 87,128
88,36 91,88 92,53 93,1296
94,1375 95,3604 96,3700 97,3652
98,5895 99,685 100,215 101,88
105,30 106,38 107,923 108,997
109,1489 110,2219 111,2828 112,1751
113,247 114,270 115,51 116,12
119,26 120,63 121,2548 122,817
123,724 124,815 125,839 126,358
127,110 128,252 129,49 133,28
134,33 135,1318 136,544 137,349
138,365 139,326 140,173 141,57
142,76 143,17 147,11 148,38
149,549 150,235 151,149 152,67
153,207 154,161 155,58 157,6
161,6 162,17 163,280 164,200
165,66 166,397 167,248 168,100
169,36 177,35 178,33 179,91
180,41 181,117 182,45 190,21
191,19 192,2257 193,365 194,38
208,8 209,47 210,372 211,72
##END=
