##TITLE=11,13-Dimethyl-12-tetradecen-1-ol acetate
##JCAMP-DX=4.24
##DATA TYPE=MASS SPECTRUM
##ORIGIN=J. Klune, Insect Chem. Ecol. Lab., USDA, Beltsville, MD 20705
##OWNER=NIST Mass Spectrometry Data Center
Collection (C) 2014 copyright by the U.S. Secretary of Commerce
on behalf of the United States of America. All rights reserved.
##$NIST MASS SPEC NO=130810
##MOLFORM=C18 H34 O2
##MW=282
##$NIST SOURCE=MSDC
##XUNITS=M/Z
##YUNITS=RELATIVE INTENSITY
##XFACTOR=1
##YFACTOR=1
##FIRSTX=41
##LASTX=284
##FIRSTY=2679
##MAXX=284
##MINX=41
##MAXY=9999
##MINY=12
##NPOINTS=174
##PEAK TABLE=(XY..XY)
41,2679 42,593 43,7847 44,258
45,151 51,22 52,18 53,337
54,671 55,4312 56,1192 57,1633
58,288 59,621 61,1685 62,30
65,83 66,206 67,2948 68,1874
69,9999 70,1143 71,1326 72,351
73,317 74,26 75,207 77,103
78,29 79,455 80,370 81,4820
82,5650 83,6360 84,1431 85,2197
86,227 87,263 88,107 89,32
91,151 92,31 93,428 94,375
95,7742 96,2907 97,4222 98,1362
99,355 100,82 101,745 102,50
103,20 104,28 105,168 106,45
107,312 108,264 109,3998 110,1227
111,2601 112,636 113,233 114,55
115,78 116,33 117,18 118,13
119,55 120,21 121,334 122,216
123,2298 124,700 125,1123 126,214
127,102 128,21 129,49 131,17
133,63 134,20 135,261 136,144
137,1289 138,364 139,228 140,103
141,71 142,14 143,72 145,12
147,34 148,28 149,185 150,132
151,891 152,402 153,183 154,67
155,45 157,32 161,28 162,20
163,89 164,66 165,264 166,133
167,92 168,21 169,29 171,48
175,17 177,20 178,14 179,71
180,143 181,62 182,19 183,22
185,69 189,14 191,31 192,13
193,83 194,47 195,19 196,13
197,74 198,17 199,60 200,14
201,13 205,22 206,30 207,587
208,757 209,157 210,19 211,19
213,43 221,13 222,24 223,95
224,26 225,84 226,23 227,62
228,13 229,31 237,13 238,12
239,27 240,81 241,72 242,22
243,74 244,12 249,14 250,14
251,16 253,12 264,18 265,34
266,160 267,430 268,305 269,26
279,20 280,28 281,86 282,141
283,72 284,15
##END=
