##TITLE=E-8-Tridecen-2-ol, acetate
##JCAMP-DX=4.24
##DATA TYPE=MASS SPECTRUM
##ORIGIN=J. Klune, Insect Chem. Ecol. Lab., USDA, Beltsville, MD 20705
##OWNER=NIST Mass Spectrometry Data Center
Collection (C) 2014 copyright by the U.S. Secretary of Commerce
on behalf of the United States of America. All rights reserved.
##$NIST MASS SPEC NO=131355
##MOLFORM=C15 H28 O2
##MW=240
##$NIST SOURCE=MSDC
##XUNITS=M/Z
##YUNITS=RELATIVE INTENSITY
##XFACTOR=1
##YFACTOR=1
##FIRSTX=41
##LASTX=242
##FIRSTY=3800
##MAXX=242
##MINX=41
##MAXY=9999
##MINY=2
##NPOINTS=177
##PEAK TABLE=(XY..XY)
41,3800 42,764 43,8092 44,462
45,122 46,9 47,11 48,3
49,8 50,21 51,89 52,69
53,786 54,430 55,9999 56,508
57,612 58,189 59,64 60,31
61,255 62,10 63,21 64,14
65,150 66,119 67,945 68,1038
69,1250 70,1790 71,523 72,58
73,200 74,12 75,14 76,6
77,182 78,49 79,362 80,221
81,1122 82,274 83,861 84,319
85,260 86,47 87,67 88,6
89,8 91,135 92,37 93,193
94,146 95,1647 96,362 97,4134
98,352 99,97 100,29 101,49
102,13 103,17 104,7 105,59
106,18 107,86 108,65 109,334
110,301 111,4367 112,2535 113,325
114,38 115,206 116,22 117,17
118,6 119,66 120,26 121,60
122,40 123,603 124,111 125,198
126,2566 127,267 128,31 129,90
130,31 131,26 133,30 134,15
135,33 136,37 137,515 138,261
139,143 140,24 141,134 142,19
143,17 144,22 145,12 146,4
147,15 148,2 149,31 150,18
151,192 152,185 153,66 154,17
155,103 156,92 157,27 158,2
159,13 160,5 161,19 162,42
163,12 164,17 165,43 166,11
167,14 168,12 169,22 170,18
171,13 172,2 173,9 174,2
175,7 176,11 177,6 178,9
179,34 180,320 181,75 182,9
183,577 184,82 185,19 187,2
188,2 189,7 193,4 194,9
195,7 196,4 197,440 198,209
199,37 200,5 203,2 204,2
205,2 208,2 209,4 210,5
211,11 212,5 213,7 214,11
218,4 219,16 222,12 223,4
224,9 228,2 233,5 236,2
238,13 239,4 240,52 241,31
242,8
##END=
