##TITLE=Acetic acid, phenyl-, 3-hexenyl ester
##JCAMP-DX=4.24
##DATA TYPE=MASS SPECTRUM
##ORIGIN=Insect Chem. Ecol. Lab., USDA, Beltsville, MD 20705
##OWNER=NIST Mass Spectrometry Data Center
Collection (C) 2014 copyright by the U.S. Secretary of Commerce
on behalf of the United States of America. All rights reserved.
##$NIST MASS SPEC NO=131737
##MOLFORM=C14 H18 O2
##MW=218
##$NIST SOURCE=MSDC
##XUNITS=M/Z
##YUNITS=RELATIVE INTENSITY
##XFACTOR=1
##YFACTOR=1
##FIRSTX=41
##LASTX=219
##FIRSTY=4203
##MAXX=219
##MINX=41
##MAXY=9999
##MINY=4
##NPOINTS=96
##PEAK TABLE=(XY..XY)
41,4203 42,502 43,733 44,106
45,129 47,115 48,60 49,612
50,251 51,820 52,246 53,783
54,725 55,3265 56,182 57,175
58,19 59,24 60,8 61,27
62,151 63,624 64,217 65,2556
66,250 67,6861 68,469 69,471
70,57 71,47 72,6 73,14
74,30 75,40 76,34 77,250
78,80 79,259 80,54 81,797
82,9940 83,960 84,262 85,33
86,202 87,28 88,35 89,622
90,443 91,9999 92,982 93,46
94,6 95,19 96,14 97,131
98,64 99,35 100,11 103,22
104,59 105,196 106,22 107,24
111,4 114,9 115,16 116,5
117,19 118,146 119,316 120,48
121,5 122,7 125,4 127,5
128,7 129,13 131,14 133,4
135,4 136,97 137,93 138,6
141,4 143,5 149,8 156,19
162,14 164,6 202,8 203,4
216,5 217,14 218,23 219,7
##END=
