##TITLE=(E)-2-Hexenyl tiglate
##JCAMP-DX=4.24
##DATA TYPE=MASS SPECTRUM
##ORIGIN=Insect Chem. Ecol. Lab., USDA, Beltsville, MD 20705
##OWNER=NIST Mass Spectrometry Data Center
Collection (C) 2014 copyright by the U.S. Secretary of Commerce
on behalf of the United States of America. All rights reserved.
##$NIST MASS SPEC NO=131836
##MOLFORM=C11 H18 O2
##MW=182
##$NIST SOURCE=MSDC
##XUNITS=M/Z
##YUNITS=RELATIVE INTENSITY
##XFACTOR=1
##YFACTOR=1
##FIRSTX=41
##LASTX=182
##FIRSTY=2209
##MAXX=182
##MINX=41
##MAXY=9999
##MINY=127
##NPOINTS=39
##PEAK TABLE=(XY..XY)
41,2209 42,644 43,237 51,186
53,998 54,1147 55,7255 56,342
57,911 67,1887 68,164 69,127
70,127 71,168 73,144 77,129
79,312 81,647 82,893 83,9999
84,823 85,513 93,161 95,705
96,137 97,442 100,381 101,132
107,312 109,359 111,312 112,139
122,149 125,1916 126,310 137,1350
153,159 154,342 182,290
##END=
