##TITLE=13-Methylhentriacontane
##JCAMP-DX=4.24
##DATA TYPE=MASS SPECTRUM
##ORIGIN=J. Klune, Insect Chem. Ecol. Lab., USDA, Beltsville, MD 20705
##OWNER=NIST Mass Spectrometry Data Center
Collection (C) 2014 copyright by the U.S. Secretary of Commerce
on behalf of the United States of America. All rights reserved.
##$NIST MASS SPEC NO=131194
##MOLFORM=C32 H66
##MW=450
##$NIST SOURCE=MSDC
##XUNITS=M/Z
##YUNITS=RELATIVE INTENSITY
##XFACTOR=1
##YFACTOR=1
##FIRSTX=41
##LASTX=452
##FIRSTY=2587
##MAXX=452
##MINX=41
##MAXY=9999
##MINY=7
##NPOINTS=136
##PEAK TABLE=(XY..XY)
41,2587 42,883 43,8046 44,236
53,97 54,246 55,2824 56,1808
57,9999 58,413 65,20 66,24
67,323 68,381 69,1966 70,1129
71,6225 72,303 77,7 79,43
80,20 81,197 82,468 83,1559
84,633 85,4321 86,271 95,103
96,316 97,1458 98,359 99,1270
100,87 109,44 110,162 111,780
112,245 113,754 114,61 123,22
124,101 125,374 126,163 127,512
128,42 137,8 138,71 139,145
140,111 141,351 142,36 152,50
153,85 154,98 155,203 156,25
166,34 167,56 168,849 169,293
170,42 180,24 181,26 182,57
183,95 184,7 194,32 195,34
196,4938 197,2303 198,281 199,19
208,17 209,10 210,149 211,123
212,12 222,9 223,8 224,108
225,82 226,12 238,71 239,59
240,7 252,771 253,312 254,50
266,54 267,42 278,9 279,8
280,2478 281,1944 282,366 283,38
294,90 295,79 296,20 308,60
309,57 310,8 322,50 323,53
324,8 336,56 337,72 338,13
350,54 351,67 352,13 364,46
365,70 366,17 378,57 379,87
380,17 392,50 393,91 394,22
406,51 407,108 408,23 420,78
421,196 422,66 423,10 434,29
435,269 436,88 437,14 448,17
449,26 450,156 451,54 452,8
##END=
