##TITLE=Z-8-Hexadecen-1-ol acetate
##JCAMP-DX=4.24
##DATA TYPE=MASS SPECTRUM
##ORIGIN=J. Klune, Insect Chem. Ecol. Lab., USDA, Beltsville, MD 20705
##OWNER=NIST Mass Spectrometry Data Center
Collection (C) 2014 copyright by the U.S. Secretary of Commerce
on behalf of the United States of America. All rights reserved.
##$NIST MASS SPEC NO=131346
##MOLFORM=C18 H34 O2
##MW=282
##$NIST SOURCE=MSDC
##XUNITS=M/Z
##YUNITS=RELATIVE INTENSITY
##XFACTOR=1
##YFACTOR=1
##FIRSTX=41
##LASTX=284
##FIRSTY=5106
##MAXX=284
##MINX=41
##MAXY=9999
##MINY=4
##NPOINTS=164
##PEAK TABLE=(XY..XY)
41,5106 42,1140 43,9999 44,324
45,105 47,31 48,16 49,153
50,20 51,89 52,42 53,589
54,3209 55,5995 56,1325 57,1501
58,123 59,53 60,91 61,997
62,25 63,14 65,182 66,546
67,4983 68,3058 69,3128 70,714
71,545 72,58 73,298 74,18
75,7 76,11 77,157 78,66
79,583 80,529 81,4380 82,6231
83,2618 84,481 85,279 86,96
87,63 88,26 89,13 91,102
92,22 93,148 94,267 95,3376
96,5154 97,1723 98,250 99,77
100,25 101,73 102,20 103,13
104,12 105,41 106,26 107,83
108,126 109,1804 110,2145 111,653
112,115 113,46 114,19 115,29
116,26 117,14 119,26 120,15
121,73 122,134 123,1043 124,1172
125,259 126,70 127,36 128,28
129,23 130,12 131,14 133,18
134,12 135,41 136,81 137,568
138,661 139,132 140,101 141,40
142,22 143,18 144,4 145,14
147,12 148,7 149,69 150,28
151,187 152,291 153,78 154,42
155,29 156,30 157,15 159,11
163,17 164,14 165,190 167,56
168,20 169,20 170,31 171,13
176,7 177,25 178,18 179,94
180,125 181,37 182,15 183,16
184,11 189,7 191,14 192,12
193,60 194,284 195,60 196,29
197,16 199,11 205,11 207,21
208,33 209,18 210,25 211,16
212,9 213,4 220,13 221,40
222,1833 223,333 224,92 225,21
226,4 236,4 238,12 239,23
240,11 250,7 267,7 280,12
281,13 282,57 283,20 284,6
##END=
