##TITLE=E,E-2,13-Octadecadien-1-ol
##JCAMP-DX=4.24
##DATA TYPE=MASS SPECTRUM
##ORIGIN=J. Klune, Insect Chem. Ecol. Lab., USDA, Beltsville, MD 20705
##OWNER=NIST Mass Spectrometry Data Center
Collection (C) 2014 copyright by the U.S. Secretary of Commerce
on behalf of the United States of America. All rights reserved.
##$NIST MASS SPEC NO=131098
##MOLFORM=C18 H34 O
##MW=266
##$NIST SOURCE=MSDC
##XUNITS=M/Z
##YUNITS=RELATIVE INTENSITY
##XFACTOR=1
##YFACTOR=1
##FIRSTX=41
##LASTX=267
##FIRSTY=6970
##MAXX=267
##MINX=41
##MAXY=9999
##MINY=50
##NPOINTS=113
##PEAK TABLE=(XY..XY)
41,6970 42,1348 43,5833 44,991
45,428 49,290 51,299 53,964
54,2772 55,9999 56,1781 57,5072
58,344 61,283 63,50 65,406
66,449 67,5240 68,3085 69,4190
70,1867 71,1550 73,270 77,525
78,684 79,1496 80,1424 81,5072
82,4711 83,3281 84,1084 85,1108
86,186 91,431 92,218 93,1152
94,1184 95,3994 96,4142 97,2127
98,545 99,328 105,219 106,383
107,843 108,810 109,2167 110,1540
111,982 112,290 113,251 115,59
119,240 121,1122 122,643 123,1036
124,929 125,444 126,112 127,107
131,51 133,61 135,1009 136,454
137,472 138,436 139,265 141,135
143,51 145,68 147,58 149,897
150,254 151,252 152,412 153,174
155,136 160,63 161,50 163,418
165,187 166,257 167,50 171,104
173,54 174,56 177,327 178,172
179,170 180,217 189,114 191,359
192,51 193,111 205,292 207,110
208,111 211,55 221,135 222,54
223,54 224,51 234,55 238,61
239,303 240,188 248,1160 249,285
250,303 264,106 265,118 266,591
267,61
##END=
