##TITLE=Z-14-Hexadecen-1-ol acetate
##JCAMP-DX=4.24
##DATA TYPE=MASS SPECTRUM
##ORIGIN=J. Klune, Insect Chem. Ecol. Lab., USDA, Beltsville, MD 20705
##OWNER=NIST Mass Spectrometry Data Center
Collection (C) 2014 copyright by the U.S. Secretary of Commerce
on behalf of the United States of America. All rights reserved.
##$NIST MASS SPEC NO=131367
##MOLFORM=C18 H34 O2
##MW=282
##$NIST SOURCE=MSDC
##XUNITS=M/Z
##YUNITS=RELATIVE INTENSITY
##XFACTOR=1
##YFACTOR=1
##FIRSTX=41
##LASTX=283
##FIRSTY=4709
##MAXX=283
##MINX=41
##MAXY=9999
##MINY=9
##NPOINTS=123
##PEAK TABLE=(XY..XY)
41,4709 42,1011 43,1275 44,326
47,30 50,20 51,108 52,81
53,923 54,2090 55,9999 56,1182
57,746 58,31 60,14 61,35
63,10 65,210 66,331 67,3764
68,7861 69,4222 70,662 71,279
75,11 77,134 78,51 79,399
80,299 81,3960 82,5130 83,1900
84,313 85,149 88,10 89,23
91,59 92,23 93,129 94,186
95,2993 96,3503 97,1383 98,213
99,13 103,37 107,64 108,95
109,1686 110,1415 111,451 112,93
115,9 117,14 120,19 121,62
122,56 123,782 124,678 125,141
126,42 129,22 131,25 134,21
135,59 136,18 137,384 138,370
139,71 140,44 144,23 149,56
151,145 152,250 153,58 154,11
157,9 158,10 162,21 163,35
165,65 166,242 167,41 168,33
172,11 177,43 179,68 180,623
181,118 185,11 186,15 190,10
191,9 193,128 194,119 195,48
203,14 205,11 207,27 208,24
209,20 213,22 218,16 222,2607
223,485 224,31 227,24 237,11
238,23 241,22 245,10 251,10
255,11 259,21 260,13 262,19
264,19 265,13 269,11 278,11
279,12 282,23 283,9
##END=
