##TITLE=3-Methyltricosane
##JCAMP-DX=4.24
##DATA TYPE=MASS SPECTRUM
##ORIGIN=J. Klune, Insect Chem. Ecol. Lab., USDA, Beltsville, MD 20705
##OWNER=NIST Mass Spectrometry Data Center
Collection (C) 2014 copyright by the U.S. Secretary of Commerce
on behalf of the United States of America. All rights reserved.
##$NIST MASS SPEC NO=131182
##MOLFORM=C24 H50
##MW=338
##$NIST SOURCE=MSDC
##XUNITS=M/Z
##YUNITS=RELATIVE INTENSITY
##XFACTOR=1
##YFACTOR=1
##FIRSTX=41
##LASTX=341
##FIRSTY=3569
##MAXX=341
##MINX=41
##MAXY=9999
##MINY=3
##NPOINTS=207
##PEAK TABLE=(XY..XY)
41,3569 42,1096 43,7229 44,231
45,12 47,13 49,42 50,8
51,29 53,170 54,392 55,3434
56,5968 57,9999 58,398 59,15
60,3 61,3 63,10 65,35
67,445 68,426 69,2064 70,1867
71,6028 72,299 73,31 75,3
77,38 78,22 79,64 80,17
81,273 82,480 83,1584 84,776
85,4279 86,235 88,27 89,8
91,50 92,3 93,26 94,6
95,150 96,309 97,1340 98,407
99,1571 100,113 101,23 102,16
103,36 104,8 105,26 106,15
107,17 108,3 109,79 110,150
111,679 112,301 113,1126 114,92
115,18 116,3 117,19 118,5
119,29 120,3 121,15 122,8
123,47 124,105 125,345 126,196
127,799 128,69 129,14 130,12
131,12 132,3 133,18 135,74
137,95 138,76 139,174 140,133
141,638 142,67 143,10 145,4
147,7 149,45 150,12 151,39
152,66 153,118 154,105 155,526
156,56 157,12 158,3 161,3
163,12 165,24 166,51 167,83
168,88 169,438 170,52 171,12
173,10 175,12 177,4 178,10
179,14 180,38 181,60 182,71
183,366 184,49 185,7 186,4
189,16 191,16 192,3 193,13
194,34 195,50 196,58 197,334
198,49 199,9 201,4 203,7
205,13 207,13 208,35 209,44
210,55 211,305 212,50 213,3
219,23 220,6 221,8 222,29
223,37 224,53 225,280 226,49
227,7 229,4 231,18 233,14
234,14 235,7 236,23 237,26
238,50 239,213 240,49 241,8
242,4 248,13 250,19 251,23
252,61 253,151 254,35 260,3
262,6 264,18 265,12 266,58
267,107 268,25 277,33 278,30
280,782 281,1040 282,249 283,31
294,82 295,99 296,28 297,3
306,20 307,10 308,2901 309,6606
310,1494 311,162 312,14 322,57
323,277 324,69 325,4 326,7
334,3 336,49 337,88 338,657
339,153 340,10 341,10
##END=
