##TITLE=5,15-Dimethylnonadecane
##JCAMP-DX=4.24
##DATA TYPE=MASS SPECTRUM
##ORIGIN=J. Klune, Insect Chem. Ecol. Lab., USDA, Beltsville, MD 20705
##OWNER=NIST Mass Spectrometry Data Center
Collection (C) 2014 copyright by the U.S. Secretary of Commerce
on behalf of the United States of America. All rights reserved.
##$NIST MASS SPEC NO=131091
##MOLFORM=C21 H44
##MW=296
##$NIST SOURCE=MSDC
##XUNITS=M/Z
##YUNITS=RELATIVE INTENSITY
##XFACTOR=1
##YFACTOR=1
##FIRSTX=41
##LASTX=298
##FIRSTY=4159
##MAXX=298
##MINX=41
##MAXY=9999
##MINY=3
##NPOINTS=208
##PEAK TABLE=(XY..XY)
41,4159 42,1180 43,9999 44,114
45,6 46,6 49,9 51,17
52,13 53,212 54,261 55,3070
56,2445 57,6883 58,335 59,7
61,4 63,9 65,41 66,25
67,330 68,246 69,1752 70,1349
71,4611 72,238 73,30 77,35
78,5 79,71 80,34 81,193
82,276 83,1028 84,7964 85,7702
86,594 87,17 91,40 92,39
93,28 94,21 95,116 96,177
97,748 98,796 99,1545 100,115
101,9 104,4 105,23 106,11
107,25 108,12 109,81 110,86
111,397 112,277 113,774 114,64
115,9 117,5 118,5 119,26
120,10 121,20 122,6 123,43
124,49 125,184 126,167 127,559
128,54 129,7 130,4 131,7
132,5 133,24 134,5 135,43
136,6 137,40 138,35 139,65
140,171 141,462 142,51 143,8
144,5 145,20 146,6 147,22
148,23 149,30 150,23 151,29
152,72 153,174 154,129 155,343
156,43 157,10 158,4 159,15
160,9 161,5 162,17 163,29
164,15 165,28 166,32 167,58
168,165 169,300 170,38 171,6
173,10 175,4 176,14 177,31
178,5 179,29 180,123 181,298
182,110 183,178 184,23 185,7
187,4 188,22 189,26 190,12
191,30 192,6 193,25 194,13
195,22 196,155 197,120 198,16
199,6 203,4 204,16 205,11
206,11 207,28 208,13 209,49
210,356 211,436 212,79 213,12
217,8 219,8 221,18 222,9
223,12 224,37 225,66 226,19
227,4 232,46 233,53 234,45
235,54 236,10 238,763 239,1856
240,343 241,34 242,4 243,4
246,9 247,4 248,8 249,5
250,7 252,54 253,120 254,28
255,4 258,3 260,11 261,14
262,11 263,10 264,4 266,84
267,191 268,42 269,4 271,3
275,5 277,4 278,3 280,40
281,234 282,55 283,6 286,3
288,4 290,8 292,4 294,10
295,22 296,202 297,47 298,5
##END=
