##TITLE=Butanoic acid, 2-bromo-, pentyl ester
##JCAMP-DX=4.24
##DATA TYPE=MASS SPECTRUM
##ORIGIN=Insect Chem. Ecol. Lab., USDA, Beltsville, MD 20705
##OWNER=NIST Mass Spectrometry Data Center
Collection (C) 2014 copyright by the U.S. Secretary of Commerce
on behalf of the United States of America. All rights reserved.
##$NIST MASS SPEC NO=131818
##MOLFORM=C9 H17 Br O2
##MW=236
##$NIST SOURCE=MSDC
##XUNITS=M/Z
##YUNITS=RELATIVE INTENSITY
##XFACTOR=1
##YFACTOR=1
##FIRSTX=41
##LASTX=239
##FIRSTY=5666
##MAXX=239
##MINX=41
##MAXY=9999
##MINY=2
##NPOINTS=167
##PEAK TABLE=(XY..XY)
41,5666 42,9999 43,9432 44,6866
45,1193 47,524 48,243 49,24
50,138 51,8 52,56 53,497
54,329 55,7710 56,663 57,835
58,98 59,124 60,49 61,15
62,5 63,15 65,45 66,29
67,220 68,395 69,3127 70,9855
71,8777 72,319 73,347 74,21
75,11 76,5 77,26 78,15
79,70 80,51 81,107 82,97
83,165 84,15 85,361 86,102
87,1919 88,519 89,141 90,33
91,30 92,34 93,173 94,44
95,183 96,34 97,83 98,20
99,60 100,22 101,41 102,24
103,12 104,9 105,88 106,48
107,109 108,50 109,72 110,18
111,97 112,22 113,44 114,15
115,612 116,48 117,38 118,9
119,92 120,257 121,1580 122,281
123,1455 124,58 125,31 126,13
127,25 128,8 129,23 130,3
131,7 133,59 134,14 135,75
136,13 137,26 138,617 139,32
140,594 141,27 142,5 143,7
145,6 146,3 147,24 148,54
149,851 150,89 151,803 152,46
153,41 154,8 155,18 156,6
157,135 158,16 159,36 160,8
161,6 162,6 163,14 164,10
165,62 166,59 167,2019 168,71
169,1947 170,82 171,19 172,3
173,5 174,2 175,5 177,6
178,2 179,25 180,6 181,24
182,5 183,17 185,6 187,13
189,5 191,6 192,2 193,17
194,8 195,18 196,7 197,6
199,18 200,2 201,2 203,15
205,6 207,40 208,122 209,46
210,119 211,15 215,3 221,6
222,3 234,10 235,3 236,151
237,19 238,140 239,17
##END=
