##TITLE=4-Decenoic acid, ethyl ester
##JCAMP-DX=4.24
##DATA TYPE=MASS SPECTRUM
##ORIGIN=Insect Chem. Ecol. Lab., USDA, Beltsville, MD 20705
##OWNER=NIST Mass Spectrometry Data Center
Collection (C) 2014 copyright by the U.S. Secretary of Commerce
on behalf of the United States of America. All rights reserved.
##$NIST MASS SPEC NO=131959
##MOLFORM=C12 H22 O2
##MW=198
##$NIST SOURCE=MSDC
##XUNITS=M/Z
##YUNITS=RELATIVE INTENSITY
##XFACTOR=1
##YFACTOR=1
##FIRSTX=41
##LASTX=201
##FIRSTY=9262
##MAXX=201
##MINX=41
##MAXY=9999
##MINY=6
##NPOINTS=118
##PEAK TABLE=(XY..XY)
41,9262 42,2019 43,4676 44,188
45,1363 46,46 47,55 48,8
50,89 51,333 52,276 53,2289
54,5300 55,8661 56,1490 57,2421
58,238 59,233 60,2973 61,2966
62,85 63,79 64,13 65,718
66,502 67,6450 68,3970 69,7849
70,3556 71,3932 72,247 73,1222
74,201 75,54 77,493 78,123
79,1162 80,473 81,4285 82,2492
83,2526 84,6398 85,1442 86,239
87,511 88,9473 89,855 90,68
91,232 92,69 93,368 94,352
95,2364 96,7473 97,2188 98,835
99,1293 100,288 101,2575 102,386
103,45 105,137 106,56 107,480
108,677 109,3015 110,9999 111,2263
112,265 113,763 114,300 115,540
116,178 117,20 119,117 121,44
123,1855 124,1650 125,304 126,77
127,547 128,534 129,287 130,159
131,51 133,337 134,464 135,1554
136,173 137,251 138,51 139,38
140,38 141,659 142,437 143,172
144,32 149,7 151,346 152,5000
153,1712 154,182 155,500 156,113
157,69 165,6 166,43 167,57
168,38 169,249 170,65 171,18
183,32 197,120 198,3109 199,2278
200,269 201,32
##END=
