##TITLE=Z,Z-7,11-Hexadecadien-1-ol
##JCAMP-DX=4.24
##DATA TYPE=MASS SPECTRUM
##ORIGIN=J. Klune, Insect Chem. Ecol. Lab., USDA, Beltsville, MD 20705
##OWNER=NIST Mass Spectrometry Data Center
Collection (C) 2014 copyright by the U.S. Secretary of Commerce
on behalf of the United States of America. All rights reserved.
##$NIST MASS SPEC NO=131014
##MOLFORM=C16 H30 O
##MW=238
##$NIST SOURCE=MSDC
##XUNITS=M/Z
##YUNITS=RELATIVE INTENSITY
##XFACTOR=1
##YFACTOR=1
##FIRSTX=41
##LASTX=240
##FIRSTY=3310
##MAXX=240
##MINX=41
##MAXY=9999
##MINY=8
##NPOINTS=82
##PEAK TABLE=(XY..XY)
41,3310 42,830 43,1946 44,472
45,478 48,8 53,80 54,211
55,1168 56,261 57,1153 58,1933
60,311 62,11 66,12 67,256
69,3960 70,229 71,396 73,87
81,43 82,338 83,385 84,103
85,3393 86,9999 87,2153 88,172
89,68 92,8 96,82 98,137
100,31 106,25 113,24 118,12
119,20 124,46 127,41 128,15
129,15 131,12 132,8 135,12
136,9 140,22 144,13 146,21
149,8 152,16 156,18 157,9
158,9 159,9 160,19 162,12
165,18 167,17 168,9 170,16
172,29 175,17 176,8 179,9
180,12 184,9 189,16 190,26
194,10 195,8 206,17 207,9
208,8 220,10 221,16 223,17
235,9 236,18 237,9 238,49
239,19 240,9
##END=
