##TITLE=Propanal, 2-methyl-3-phenyl-
##JCAMP-DX=4.24
##DATA TYPE=MASS SPECTRUM
##ORIGIN=Insect Chem. Ecol. Lab., USDA, Beltsville, MD 20705
##OWNER=NIST Mass Spectrometry Data Center
Collection (C) 2014 copyright by the U.S. Secretary of Commerce
on behalf of the United States of America. All rights reserved.
##$NIST MASS SPEC NO=131876
##MOLFORM=C10 H12 O
##MW=148
##$NIST SOURCE=MSDC
##XUNITS=M/Z
##YUNITS=RELATIVE INTENSITY
##XFACTOR=1
##YFACTOR=1
##FIRSTX=41
##LASTX=151
##FIRSTY=959
##MAXX=151
##MINX=41
##MAXY=9999
##MINY=4
##NPOINTS=110
##PEAK TABLE=(XY..XY)
41,959 42,78 43,180 44,60
45,38 47,16 48,4 49,47
50,799 51,1759 52,376 53,297
54,34 55,126 56,35 57,96
58,59 59,24 60,26 61,68
62,258 63,727 64,135 65,590
66,117 67,41 68,18 69,46
70,14 71,55 72,68 73,65
74,408 75,388 76,483 77,3780
78,1055 79,2307 80,165 81,37
82,20 83,37 84,22 85,48
86,76 87,105 88,43 89,328
90,183 91,2504 92,199 93,63
94,16 95,32 96,16 97,32
98,52 99,31 100,11 101,118
102,480 103,2342 104,794 105,6712
106,614 107,287 108,26 109,26
110,18 111,25 112,9 113,30
114,14 115,673 116,133 117,243
118,121 119,2666 120,300 121,75
122,14 123,22 124,14 125,18
126,9 127,24 128,31 129,65
130,33 131,432 132,193 133,9999
134,983 135,70 136,27 137,11
138,12 139,12 140,12 141,13
142,13 143,9 144,21 145,84
146,33 147,1144 148,8178 149,902
150,71 151,17
##END=
