##TITLE=E-9-Tetradecenal
##JCAMP-DX=4.24
##DATA TYPE=MASS SPECTRUM
##ORIGIN=J. Klune, Insect Chem. Ecol. Lab., USDA, Beltsville, MD 20705
##OWNER=NIST Mass Spectrometry Data Center
Collection (C) 2014 copyright by the U.S. Secretary of Commerce
on behalf of the United States of America. All rights reserved.
##$NIST MASS SPEC NO=131357
##MOLFORM=C14 H26 O
##MW=210
##$NIST SOURCE=MSDC
##XUNITS=M/Z
##YUNITS=RELATIVE INTENSITY
##XFACTOR=1
##YFACTOR=1
##FIRSTX=41
##LASTX=213
##FIRSTY=9331
##MAXX=213
##MINX=41
##MAXY=9999
##MINY=2
##NPOINTS=145
##PEAK TABLE=(XY..XY)
41,9331 42,1538 43,3535 44,1274
45,155 46,12 47,8 48,5
49,11 50,32 51,146 52,121
53,1271 54,3168 55,9999 56,2171
57,2340 58,228 59,74 60,12
61,12 62,9 63,26 64,13
65,380 66,438 67,4642 68,2276
69,4208 70,2338 71,832 72,130
73,41 75,4 76,5 77,348
78,160 79,1696 80,1140 81,3544
82,2481 83,2204 84,1510 85,454
86,108 87,23 91,227 92,65
93,1208 94,821 95,1939 96,1920
97,1894 98,2681 99,278 100,56
101,13 102,2 103,8 105,55
106,29 107,640 108,549 109,767
110,1085 111,1355 112,762 113,88
114,75 115,31 116,5 117,9
119,21 120,46 121,1379 122,413
123,338 124,337 125,338 126,130
127,30 128,94 129,23 130,7
131,11 133,13 134,11 135,748
136,284 137,143 138,153 139,121
140,62 141,21 142,26 143,6
145,10 146,4 147,5 149,264
150,114 151,57 152,16 153,72
154,48 155,19 156,4 157,2
159,5 161,6 163,139 164,96
165,24 166,128 167,94 168,24
169,13 170,4 171,7 173,5
175,10 177,17 178,5 179,35
180,7 181,40 182,11 185,4
189,3 190,7 191,10 192,1207
193,190 194,19 195,14 196,5
200,3 203,2 204,2 205,4
208,2 209,6 210,210 211,36
213,2
##END=
