##TITLE=6-Nonenal, 3,7-dimethyl-
##JCAMP-DX=4.24
##DATA TYPE=MASS SPECTRUM
##ORIGIN=H. Fales, LC, NHLBI, NIH, Bethesda, MD 20892
##OWNER=NIST Mass Spectrometry Data Center
Collection (C) 2014 copyright by the U.S. Secretary of Commerce
on behalf of the United States of America. All rights reserved.
##$NIST MASS SPEC NO=132439
##MOLFORM=C11 H20 O
##MW=168
##$NIST SOURCE=MSDC
##XUNITS=M/Z
##YUNITS=RELATIVE INTENSITY
##XFACTOR=1
##YFACTOR=1
##FIRSTX=41
##LASTX=169
##FIRSTY=6342
##MAXX=169
##MINX=41
##MAXY=9999
##MINY=4
##NPOINTS=114
##PEAK TABLE=(XY..XY)
41,6342 42,643 43,8866 44,548
45,789 46,33 47,42 48,4
49,10 50,155 51,463 52,234
53,1671 54,602 55,9999 56,1117
57,2171 58,307 59,305 60,109
61,46 62,33 63,99 64,33
65,456 66,244 67,1531 68,505
69,1234 70,326 71,1367 72,271
73,4091 74,223 75,50 76,16
77,672 78,134 79,1519 80,539
81,8167 82,3409 83,4370 84,1159
85,1343 86,297 87,117 88,41
89,30 90,19 91,531 92,160
93,647 94,339 95,2531 96,547
97,1676 98,357 99,4573 100,1218
101,142 102,23 103,54 104,22
105,226 106,77 107,404 108,345
109,1096 110,1804 111,1169 112,284
113,256 114,330 115,90 116,53
117,61 118,37 119,187 120,60
121,215 122,243 123,323 124,179
125,687 126,260 127,158 128,51
129,79 130,37 131,78 132,35
133,91 134,81 135,169 136,144
137,448 138,90 139,179 140,245
141,187 142,65 149,17 150,76
151,70 152,53 153,1000 154,145
155,50 165,22 166,48 167,177
168,252 169,46
##END=
