##TITLE=6-Hepten-1-ol, 2-methyl-
##JCAMP-DX=4.24
##DATA TYPE=MASS SPECTRUM
##ORIGIN=Insect Chem. Ecol. Lab., USDA, Beltsville, MD 20705
##OWNER=NIST Mass Spectrometry Data Center
Collection (C) 2014 copyright by the U.S. Secretary of Commerce
on behalf of the United States of America. All rights reserved.
##$NIST MASS SPEC NO=132120
##MOLFORM=C8 H16 O
##MW=128
##$NIST SOURCE=MSDC
##XUNITS=M/Z
##YUNITS=RELATIVE INTENSITY
##XFACTOR=1
##YFACTOR=1
##FIRSTX=41
##LASTX=130
##FIRSTY=5663
##MAXX=130
##MINX=41
##MAXY=9999
##MINY=26
##NPOINTS=56
##PEAK TABLE=(XY..XY)
41,5663 42,811 43,2591 44,191
45,3624 46,194 48,55 52,199
53,1036 54,399 55,2686 56,1225
57,645 58,1431 59,323 61,50
62,65 64,100 65,124 66,79
67,2686 68,1774 69,4215 70,558
71,2298 72,311 73,55 74,29
75,37 76,73 77,140 78,74
79,372 80,233 81,998 82,267
83,281 85,542 86,108 87,40
90,62 91,101 92,43 93,496
95,9999 96,813 109,109 110,2023
111,236 113,374 114,26 126,86
127,40 128,1212 129,187 130,30
##END=
