##TITLE=Propanoic acid, 2-chloro-, 1,1-dimethylethyl ester
##JCAMP-DX=4.24
##DATA TYPE=MASS SPECTRUM
##ORIGIN=Insect Chem. Ecol. Lab., USDA, Beltsville, MD 20705
##OWNER=NIST Mass Spectrometry Data Center
Collection (C) 2014 copyright by the U.S. Secretary of Commerce
on behalf of the United States of America. All rights reserved.
##$NIST MASS SPEC NO=132238
##MOLFORM=C7 H13 Cl O2
##MW=164
##$NIST SOURCE=MSDC
##XUNITS=M/Z
##YUNITS=RELATIVE INTENSITY
##XFACTOR=1
##YFACTOR=1
##FIRSTX=41
##LASTX=166
##FIRSTY=2590
##MAXX=166
##MINX=41
##MAXY=9999
##MINY=22
##NPOINTS=56
##PEAK TABLE=(XY..XY)
41,2590 43,1959 44,26 45,324
49,30 51,43 53,150 54,29
55,641 56,564 57,9999 58,519
59,2705 60,130 61,99 62,132
63,1497 64,259 65,461 66,61
67,71 68,22 69,200 70,74
71,234 72,69 73,117 77,49
79,39 81,72 83,149 84,63
85,184 87,92 91,1072 93,434
95,128 96,50 97,220 99,169
101,61 105,24 109,140 111,146
112,60 113,126 115,183 128,77
129,235 130,23 148,71 149,1075
151,423 152,61 164,63 166,22
##END=
