##TITLE=Nerolidyl propionate
##JCAMP-DX=4.24
##DATA TYPE=MASS SPECTRUM
##ORIGIN=Insect Chem. Ecol. Lab., USDA, Beltsville, MD 20705
##OWNER=NIST Mass Spectrometry Data Center
Collection (C) 2014 copyright by the U.S. Secretary of Commerce
on behalf of the United States of America. All rights reserved.
##$NIST MASS SPEC NO=132164
##MOLFORM=C18 H30 O2
##MW=278
##$NIST SOURCE=MSDC
##XUNITS=M/Z
##YUNITS=RELATIVE INTENSITY
##XFACTOR=1
##YFACTOR=1
##FIRSTX=41
##LASTX=279
##FIRSTY=5443
##MAXX=279
##MINX=41
##MAXY=9999
##MINY=3
##NPOINTS=190
##PEAK TABLE=(XY..XY)
41,5443 42,124 43,7773 44,465
45,443 46,23 47,68 48,4
49,150 50,53 51,216 53,1453
55,3850 57,9999 58,279 59,1964
60,107 61,47 62,5 63,32
65,341 67,2576 68,1853 69,5951
71,2185 72,265 73,164 74,86
75,156 77,734 79,2157 80,4790
81,3540 82,859 83,933 84,947
85,1131 86,214 87,42 88,31
89,27 91,983 92,668 93,6467
94,1482 95,1619 96,463 97,533
98,184 99,345 100,158 101,125
102,43 103,49 105,887 106,378
107,3173 108,650 109,1445 110,458
111,653 112,145 113,145 114,69
115,77 116,27 117,93 118,9
119,1982 120,589 121,3221 122,927
123,2887 124,61 125,1322 127,1137
128,113 129,121 130,49 131,238
132,276 133,1758 134,2109 135,2326
136,1889 137,1528 138,515 139,250
140,591 141,262 142,95 143,427
144,11 145,202 146,68 147,600
148,406 149,566 150,202 151,235
152,122 153,227 154,74 155,91
156,35 157,46 158,15 159,178
160,68 161,1042 162,244 163,139
164,51 165,79 166,61 167,75
168,50 169,42 170,13 171,25
172,5 173,28 174,11 175,115
176,50 177,172 178,74 179,54
180,25 181,25 182,8 183,59
184,12 185,20 186,3 187,58
189,330 190,102 191,51 192,16
193,61 194,20 195,26 196,20
197,10 199,11 201,21 202,30
203,84 204,306 205,235 206,149
207,65 209,650 210,100 211,41
212,5 213,4 215,9 217,6
218,14 219,34 220,41 221,109
222,59 223,27 224,4 225,12
227,4 233,6 234,4 235,17
236,25 237,32 238,10 239,5
245,3 249,4 250,9 251,39
252,5 253,5 255,4 262,8
263,52 264,15 267,3 277,6
278,39 279,10
##END=
