##TITLE=trans-p-Mentha-2,8-dienol
##JCAMP-DX=4.24
##DATA TYPE=MASS SPECTRUM
##ORIGIN=B. Derendyaev, Novosibirsk Institute of Organic Chemistry
##OWNER=NIST Mass Spectrometry Data Center
Collection (C) 2014 copyright by the U.S. Secretary of Commerce
on behalf of the United States of America. All rights reserved.
##$NIST MASS SPEC NO=139653
##MOLFORM=C10 H16 O
##MW=152
##$NIST SOURCE=MSDC
##XUNITS=M/Z
##YUNITS=RELATIVE INTENSITY
##XFACTOR=1
##YFACTOR=1
##FIRSTX=40
##LASTX=153
##FIRSTY=549
##MAXX=153
##MINX=40
##MAXY=9999
##MINY=50
##NPOINTS=77
##PEAK TABLE=(XY..XY)
40,549 41,4019 42,419 43,8739
44,289 45,639 50,219 51,699
52,359 53,1629 54,299 55,2729
56,349 57,569 58,699 59,399
60,90 61,90 62,80 63,309
64,90 65,1269 66,559 67,3089
68,669 69,3039 70,519 71,1709
72,119 77,2559 78,689 79,8099
80,1299 81,3829 82,969 83,799
84,2369 85,269 89,70 91,3399
92,1379 93,3569 94,9999 95,4219
96,799 97,499 98,80 103,239
104,109 105,1429 106,629 107,1169
108,609 109,8629 110,1119 111,339
112,50 115,159 117,499 118,80
119,2959 120,369 121,5439 122,809
123,2239 124,539 125,80 133,90
134,2449 135,409 136,99 137,6599
138,589 139,119 151,90 152,2089
153,179
##END=
