##TITLE=1R,3Z,9s-4,11,11-Trimethyl-8-methylenebicyclo[7.2.0]undec-3-ene
##JCAMP-DX=4.24
##DATA TYPE=MASS SPECTRUM
##ORIGIN=B. Derendyaev, Novosibirsk Institute of Organic Chemistry
##OWNER=NIST Mass Spectrometry Data Center
Collection (C) 2014 copyright by the U.S. Secretary of Commerce
on behalf of the United States of America. All rights reserved.
##$NIST MASS SPEC NO=140073
##MOLFORM=C15 H24
##MW=204
##$NIST SOURCE=MSDC
##XUNITS=M/Z
##YUNITS=RELATIVE INTENSITY
##XFACTOR=1
##YFACTOR=1
##FIRSTX=40
##LASTX=205
##FIRSTY=619
##MAXX=205
##MINX=40
##MAXY=9999
##MINY=50
##NPOINTS=85
##PEAK TABLE=(XY..XY)
40,619 41,9999 42,589 43,2779
44,60 50,60 51,779 52,499
53,3919 54,419 55,4659 56,679
57,789 63,159 64,60 65,1909
66,999 67,4569 68,629 69,2819
70,219 71,169 77,4519 78,1509
79,7709 80,3839 81,6009 82,1479
83,519 84,80 85,70 91,9959
92,6169 93,9269 94,2119 95,2339
96,439 97,249 103,499 104,399
105,7589 106,2759 107,5809 108,1949
109,1819 110,169 111,159 115,509
116,129 117,679 118,209 119,4489
120,1949 121,3539 122,2159 123,1089
124,119 125,80 128,129 129,119
131,379 132,90 133,7129 134,1559
135,3269 136,759 137,119 145,189
146,99 147,1629 148,2259 149,759
150,129 160,80 161,4129 162,1149
163,319 164,80 175,669 176,469
177,50 189,3009 190,499 204,2419
205,389
##END=
