##TITLE=Humulane-1,6-dien-3-ol
##JCAMP-DX=4.24
##DATA TYPE=MASS SPECTRUM
##ORIGIN=B. Derendyaev, Novosibirsk Institute of Organic Chemistry
##OWNER=NIST Mass Spectrometry Data Center
Collection (C) 2014 copyright by the U.S. Secretary of Commerce
on behalf of the United States of America. All rights reserved.
##$NIST MASS SPEC NO=140231
##MOLFORM=C15 H26 O
##MW=222
##$NIST SOURCE=MSDC
##XUNITS=M/Z
##YUNITS=RELATIVE INTENSITY
##XFACTOR=1
##YFACTOR=1
##FIRSTX=40
##LASTX=222
##FIRSTY=129
##MAXX=222
##MINX=40
##MAXY=9999
##MINY=50
##NPOINTS=91
##PEAK TABLE=(XY..XY)
40,129 41,3599 42,179 43,6259
44,70 45,149 51,90 53,889
54,109 55,3289 56,309 57,689
58,169 59,189 65,379 66,109
67,2679 68,609 69,3279 70,269
71,1349 72,80 77,949 78,169
79,2029 80,619 81,3739 82,1699
83,1469 84,589 85,589 91,1629
92,599 93,3089 94,1409 95,4349
96,1059 97,1029 98,109 99,119
105,2069 106,659 107,2489 108,1309
109,9999 110,1059 111,719 112,229
113,99 115,60 117,139 119,2449
120,729 121,2499 122,1099 123,1469
124,1229 125,409 126,50 127,50
131,169 133,1909 134,1009 135,1409
136,439 137,799 138,139 139,99
145,129 147,1179 148,829 149,1029
150,169 151,339 159,70 161,2589
162,639 163,269 164,299 165,80
175,759 176,269 177,70 179,99
189,2349 190,319 204,4509 205,739
207,589 208,50 222,149
##END=
