##TITLE=.beta.-HIMACHALENOXIDE
##JCAMP-DX=4.24
##DATA TYPE=MASS SPECTRUM
##ORIGIN=B. Derendyaev, Novosibirsk Institute of Organic Chemistry
##OWNER=NIST Mass Spectrometry Data Center
Collection (C) 2014 copyright by the U.S. Secretary of Commerce
on behalf of the United States of America. All rights reserved.
##$NIST MASS SPEC NO=140216
##MOLFORM=C15 H24 O
##MW=220
##$NIST SOURCE=MSDC
##XUNITS=M/Z
##YUNITS=RELATIVE INTENSITY
##XFACTOR=1
##YFACTOR=1
##FIRSTX=40
##LASTX=223
##FIRSTY=279
##MAXX=223
##MINX=40
##MAXY=9999
##MINY=50
##NPOINTS=126
##PEAK TABLE=(XY..XY)
40,279 41,4609 42,319 43,5299
44,349 49,60 50,90 51,339
52,199 53,989 54,189 55,3019
56,459 57,419 58,70 59,139
64,80 65,1159 66,369 67,1289
68,699 69,4509 70,349 71,719
76,80 77,1969 78,539 79,2359
80,349 81,2019 82,1219 83,1029
84,209 85,309 86,60 90,60
91,2709 92,569 93,3509 94,2249
95,6389 96,1189 97,419 98,60
100,99 102,129 103,139 105,1009
106,319 107,2019 108,969 109,4489
110,9999 111,2079 112,119 113,179
115,70 117,139 118,60 119,849
120,589 121,1699 122,399 123,1079
124,469 125,269 126,129 127,80
129,139 130,90 131,329 132,349
133,759 134,699 135,1919 136,1059
137,2029 138,1159 139,99 143,70
145,469 146,90 147,309 148,349
149,1069 150,1459 151,4169 152,5379
153,779 154,50 156,119 159,259
160,99 161,289 162,519 163,659
164,179 165,329 173,60 174,60
175,199 176,129 177,809 178,289
179,439 181,109 185,60 187,249
188,60 189,129 190,80 191,159
202,90 203,109 204,60 205,1559
206,489 207,80 208,279 209,60
210,60 218,219 220,6469 221,919
222,899 223,289
##END=
