##TITLE=Urocanic Acid, 2TMS derivative
##JCAMP-DX=4.24
##DATA TYPE=MASS SPECTRUM
##ORIGIN=James Shoemaker, St. Louis Online Library of Metabolic Mass Spectra
##OWNER=NIST Mass Spectrometry Data Center
Collection (C) 2014 copyright by the U.S. Secretary of Commerce
on behalf of the United States of America. All rights reserved.
##$NIST MASS SPEC NO=141375
##MOLFORM=C12 H22 N2 O2 Si2
##MW=282
##$NIST SOURCE=MSDC
##XUNITS=M/Z
##YUNITS=RELATIVE INTENSITY
##XFACTOR=1
##YFACTOR=1
##FIRSTX=55
##LASTX=285
##FIRSTY=30
##MAXX=285
##MINX=55
##MAXY=9999
##MINY=0
##NPOINTS=127
##PEAK TABLE=(XY..XY)
55,30 58,80 59,149 61,20
65,50 69,20 70,70 71,40
72,139 73,9999 74,909 75,899
76,40 77,129 79,20 80,30
81,479 82,40 83,70 84,149
85,50 86,20 92,80 93,149
94,80 95,70 96,80 97,30
98,80 99,20 100,50 103,20
105,10 106,20 107,10 108,40
109,50 110,20 111,30 112,10
113,30 115,10 117,30 118,10
119,20 120,249 121,209 122,90
123,40 124,90 125,20 126,60
129,10 131,90 132,10 133,90
134,10 135,329 136,139 137,50
138,30 139,189 140,30 141,10
143,10 147,4539 148,699 149,429
150,119 151,409 152,169 153,90
154,159 155,40 156,10 158,10
163,119 164,209 165,3459 166,669
167,269 168,30 169,10 177,10
178,10 179,90 180,2619 181,389
182,99 183,60 191,20 192,10
193,5809 194,969 195,469 196,60
197,20 206,20 207,50 208,20
209,20 210,99 211,10 213,10
223,699 224,149 225,119 226,30
227,0 237,839 238,219 239,659
240,139 241,50 253,159 254,60
255,10 267,9339 268,2089 269,819
270,119 271,10 281,369 282,3099
283,719 284,259 285,20
##END=
