##TITLE=Cystathionine, 4TMS derivative
##JCAMP-DX=4.24
##DATA TYPE=MASS SPECTRUM
##ORIGIN=James Shoemaker, St. Louis Online Library of Metabolic Mass Spectra
##OWNER=NIST Mass Spectrometry Data Center
Collection (C) 2014 copyright by the U.S. Secretary of Commerce
on behalf of the United States of America. All rights reserved.
##$NIST MASS SPEC NO=141330
##MOLFORM=C19 H46 N2 O4 S Si4
##MW=510
##$NIST SOURCE=MSDC
##XUNITS=M/Z
##YUNITS=RELATIVE INTENSITY
##XFACTOR=1
##YFACTOR=1
##FIRSTX=56
##LASTX=513
##FIRSTY=129
##MAXX=513
##MINX=56
##MAXY=9999
##MINY=10
##NPOINTS=127
##PEAK TABLE=(XY..XY)
56,129 57,119 59,229 70,80
72,269 73,8869 74,919 75,789
76,50 77,70 85,50 86,99
87,50 88,239 98,50 99,60
100,1549 101,219 102,129 103,129
105,50 112,90 114,419 115,319
116,199 117,169 118,60 119,50
126,90 127,419 128,8579 129,1239
130,499 131,169 132,259 133,289
134,60 135,30 138,199 139,50
144,60 146,99 147,1609 148,459
149,189 150,40 156,80 158,40
159,50 160,1309 161,229 162,269
163,90 172,90 174,169 175,40
176,319 177,50 178,20 186,30
188,379 189,80 190,119 191,60
200,50 202,1039 203,349 204,249
205,99 206,80 207,20 216,499
217,499 218,9999 219,3129 220,1289
221,219 222,50 223,30 228,40
229,20 230,259 231,60 232,439
233,99 234,99 235,20 236,20
244,119 245,1109 246,329 247,109
248,30 249,50 250,30 260,149
261,70 262,159 263,40 264,50
265,10 266,109 267,20 274,209
275,60 276,40 278,3569 280,1299
282,90 283,20 289,109 290,30
291,60 292,649 293,909 294,499
295,179 296,50 303,30 304,10
305,40 306,10 393,30 405,10
510,30 512,20 513,10
##END=
