##TITLE=N-Methyl nicotinimidate, O-trimethylsilyl
##JCAMP-DX=4.24
##DATA TYPE=MASS SPECTRUM
##ORIGIN=James Shoemaker, St. Louis Online Library of Metabolic Mass Spectra
##OWNER=NIST Mass Spectrometry Data Center
Collection (C) 2014 copyright by the U.S. Secretary of Commerce
on behalf of the United States of America. All rights reserved.
##$NIST MASS SPEC NO=141337
##MOLFORM=C10 H16 N2 O Si
##MW=208
##$NIST SOURCE=MSDC
##XUNITS=M/Z
##YUNITS=RELATIVE INTENSITY
##XFACTOR=1
##YFACTOR=1
##FIRSTX=51
##LASTX=210
##FIRSTY=1299
##MAXX=210
##MINX=51
##MAXY=9999
##MINY=10
##NPOINTS=105
##PEAK TABLE=(XY..XY)
51,1299 52,249 53,99 54,10
55,30 56,30 57,50 58,249
59,289 60,30 61,40 62,10
63,40 64,60 65,179 66,80
67,40 68,10 69,10 70,60
71,30 72,299 73,3479 74,339
75,609 76,209 77,449 78,5919
79,549 80,70 81,20 83,20
84,10 85,10 86,60 87,10
88,80 89,30 90,70 91,99
92,169 93,159 94,30 95,20
96,10 97,80 100,10 102,30
103,70 104,209 105,109 106,2949
107,309 108,50 109,10 110,10
112,10 116,40 117,40 118,389
119,9999 120,839 121,40 122,40
123,40 124,10 130,10 132,10
133,229 134,129 135,3369 136,2249
137,239 138,60 147,10 148,40
149,80 150,719 151,999 152,179
153,40 162,10 163,30 164,60
165,30 166,50 167,10 171,10
175,10 177,20 178,129 179,389
180,149 181,40 191,319 192,149
193,3499 194,559 195,149 196,10
206,209 207,9439 208,1649 209,469
210,50
##END=
