##TITLE=Vinylacetyl glycine di-TMS
##JCAMP-DX=4.24
##DATA TYPE=MASS SPECTRUM
##ORIGIN=James Shoemaker, St. Louis Online Library of Metabolic Mass Spectra
##OWNER=NIST Mass Spectrometry Data Center
Collection (C) 2014 copyright by the U.S. Secretary of Commerce
on behalf of the United States of America. All rights reserved.
##$NIST MASS SPEC NO=141504
##MOLFORM=C12 H25 N O3 Si2
##MW=287
##$NIST SOURCE=MSDC
##XUNITS=M/Z
##YUNITS=RELATIVE INTENSITY
##XFACTOR=1
##YFACTOR=1
##FIRSTX=55
##LASTX=274
##FIRSTY=1139
##MAXX=274
##MINX=55
##MAXY=9999
##MINY=30
##NPOINTS=35
##PEAK TABLE=(XY..XY)
55,1139 59,669 69,5919 70,99
73,6819 74,259 75,909 102,5689
103,239 104,40 116,70 129,70
133,90 140,139 141,40 142,80
147,3439 148,199 149,90 154,589
156,119 168,30 169,339 170,9999
171,1029 172,129 176,1669 177,90
197,40 228,119 244,409 259,40
272,2979 273,369 274,50
##END=
