##TITLE=3-Heptadecene, (Z)-
##JCAMP-DX=4.24
##DATA TYPE=MASS SPECTRUM
##ORIGIN=H. Luftmann, Org. Chem. Inst., Westfalisch Wilhelms Univ., Munster, Germany
##OWNER=NIST Mass Spectrometry Data Center
Collection (C) 2014 copyright by the U.S. Secretary of Commerce
on behalf of the United States of America. All rights reserved.
##$NIST MASS SPEC NO=141673
##MOLFORM=C17 H34
##MW=238
##$NIST SOURCE=MSDC
##XUNITS=M/Z
##YUNITS=RELATIVE INTENSITY
##XFACTOR=1
##YFACTOR=1
##FIRSTX=39
##LASTX=239
##FIRSTY=900
##MAXX=239
##MINX=39
##MAXY=9999
##MINY=100
##NPOINTS=67
##PEAK TABLE=(XY..XY)
39,900 40,200 41,9800 42,2100
43,8700 44,400 53,600 54,1600
55,9999 56,6100 57,8800 58,400
65,200 66,200 67,2300 68,1800
69,9700 70,6300 71,4500 72,200
77,100 79,200 80,100 81,1000
82,2500 83,8100 84,3900 85,2400
86,200 95,500 96,1500 97,7000
98,2400 99,600 109,200 110,800
111,4100 112,1700 113,300 123,100
124,500 125,2000 126,900 127,200
138,300 139,700 140,700 141,200
152,200 153,500 154,500 155,200
166,100 167,200 168,300 169,100
180,100 181,200 182,200 194,100
195,100 196,100 209,100 210,400
211,100 238,2200 239,500
##END=
