##TITLE=L-Tryptophan, 3TBDMS derivative
##JCAMP-DX=4.24
##DATA TYPE=MASS SPECTRUM
##ORIGIN=J.M. Halket, Trace Anal. Unit (TAU), London, UK
##OWNER=NIST Mass Spectrometry Data Center
Collection (C) 2014 copyright by the U.S. Secretary of Commerce
on behalf of the United States of America. All rights reserved.
##$NIST MASS SPEC NO=143132
##MOLFORM=C29 H54 N2 O2 Si3
##MW=546
##$NIST SOURCE=MSDC
##XUNITS=M/Z
##YUNITS=RELATIVE INTENSITY
##XFACTOR=1
##YFACTOR=1
##FIRSTX=39
##LASTX=547
##FIRSTY=40
##MAXX=547
##MINX=39
##MAXY=9999
##MINY=10
##NPOINTS=112
##PEAK TABLE=(XY..XY)
39,40 41,160 42,10 43,90
44,30 45,210 47,30 55,20
56,30 57,180 58,110 59,480
60,40 61,10 71,10 73,7080
74,620 75,420 76,20 85,50
86,30 87,30 88,10 99,60
100,30 102,10 103,40 115,180
116,30 117,40 118,20 119,10
128,10 130,330 131,80 132,230
133,180 134,50 142,30 144,20
145,110 146,90 147,270 148,50
149,20 156,20 158,20 160,200
161,40 162,20 170,20 172,50
173,20 174,50 184,40 185,20
186,120 187,70 188,250 189,80
190,20 199,20 200,30 201,10
202,70 214,40 215,60 216,30
218,10 228,60 229,10 230,20
232,90 233,20 240,10 242,120
244,9999 245,2230 246,590 247,90
272,10 273,10 288,10 302,570
303,160 304,60 330,30 332,20
348,60 349,10 386,30 387,210
388,80 389,30 390,10 417,50
418,10 461,90 462,40 463,20
489,1210 490,550 491,250 492,60
493,10 503,10 531,120 532,60
533,30 545,10 546,20 547,10
##END=
