##TITLE=(S)-3-Ethyl-4-methylpentanol
##JCAMP-DX=4.24
##DATA TYPE=MASS SPECTRUM
##ORIGIN=ASES Database, Dalian Institute, P.R. China
##OWNER=NIST Mass Spectrometry Data Center
Collection (C) 2014 copyright by the U.S. Secretary of Commerce
on behalf of the United States of America. All rights reserved.
##$NIST MASS SPEC NO=144071
##MOLFORM=C8 H18 O
##MW=130
##$NIST SOURCE=MSDC
##XUNITS=M/Z
##YUNITS=RELATIVE INTENSITY
##XFACTOR=1
##YFACTOR=1
##FIRSTX=41
##LASTX=112
##FIRSTY=9738
##MAXX=112
##MINX=41
##MAXY=9999
##MINY=90
##NPOINTS=17
##PEAK TABLE=(XY..XY)
41,9738 42,1911 43,5625 45,680
55,5905 56,2812 57,2582 67,490
68,990 69,9999 70,2402 71,500
83,2502 84,7767 85,1010 97,590
112,90
##END=
