##TITLE=2-Methyl-5-(fur-3-yl)-pent-1-en-3-ol
##JCAMP-DX=4.24
##DATA TYPE=MASS SPECTRUM
##ORIGIN=ASES Database, Dalian Institute, P.R. China
##OWNER=NIST Mass Spectrometry Data Center
Collection (C) 2014 copyright by the U.S. Secretary of Commerce
on behalf of the United States of America. All rights reserved.
##$NIST MASS SPEC NO=144571
##MOLFORM=C10 H14 O2
##MW=166
##$NIST SOURCE=MSDC
##XUNITS=M/Z
##YUNITS=RELATIVE INTENSITY
##XFACTOR=1
##YFACTOR=1
##FIRSTX=41
##LASTX=166
##FIRSTY=6025
##MAXX=166
##MINX=41
##MAXY=9999
##MINY=190
##NPOINTS=23
##PEAK TABLE=(XY..XY)
41,6025 43,4213 53,2522 54,890
57,990 67,1391 71,2382 72,1010
81,6666 82,9999 83,800 91,490
94,1101 95,2312 105,400 108,400
119,390 123,390 133,500 148,1691
149,200 151,300 166,190
##END=
