##TITLE=Stigmastan-3,5,22-trien
##JCAMP-DX=4.24
##DATA TYPE=MASS SPECTRUM
##ORIGIN=LAC, NIDDK, NIH, Bethesda, MD 20892
##OWNER=NIST Mass Spectrometry Data Center
Collection (C) 2014 copyright by the U.S. Secretary of Commerce
on behalf of the United States of America. All rights reserved.
##$NIST MASS SPEC NO=214181
##MOLFORM=C29 H46
##MW=394
##$NIST SOURCE=MSDC
##XUNITS=M/Z
##YUNITS=RELATIVE INTENSITY
##XFACTOR=1
##YFACTOR=1
##FIRSTX=41
##LASTX=397
##FIRSTY=2070
##MAXX=397
##MINX=41
##MAXY=9999
##MINY=16
##NPOINTS=232
##PEAK TABLE=(XY..XY)
41,2070 42,175 43,3610 44,124
45,32 47,234 48,147 49,97
50,127 51,47 52,41 53,384
55,6521 56,328 57,766 58,28
62,43 63,201 64,130 65,912
66,103 67,1611 68,230 69,3294
70,266 71,572 72,32 74,20
75,18 77,704 78,154 79,1370
80,289 81,4036 82,470 83,4121
84,1281 85,366 86,639 87,22
88,79 89,180 90,141 91,4258
92,749 93,2105 94,461 95,2098
96,439 97,1437 98,132 99,24
103,154 104,168 105,2377 106,473
107,1947 108,491 109,1010 110,198
111,245 112,53 113,21 115,258
116,145 117,794 118,254 119,1024
120,530 121,1029 122,276 123,675
124,102 125,68 127,178 128,224
129,429 130,225 131,1087 132,380
133,2138 134,463 135,908 136,146
137,354 138,128 139,402 140,72
141,210 142,203 143,1020 144,455
145,2547 146,1236 147,1711 148,286
149,392 150,51 151,129 152,24
153,57 154,44 155,755 156,229
157,989 158,614 159,1373 160,389
161,843 162,211 163,227 164,60
165,217 166,96 167,81 168,29
169,170 170,76 171,387 172,702
173,1062 174,293 175,490 176,134
177,141 178,58 179,31 181,32
182,35 183,217 184,89 185,411
186,155 187,349 188,109 189,334
190,36 191,78 192,20 193,20
195,38 196,27 197,289 198,121
199,422 200,131 201,279 202,121
203,117 204,16 205,58 207,18
209,24 211,343 212,247 213,854
214,278 215,260 216,77 217,117
219,19 223,17 224,18 225,172
226,137 227,313 228,693 229,241
230,24 231,86 232,27 233,23
237,41 238,20 239,243 240,123
241,184 242,47 243,141 244,22
245,90 251,43 252,125 253,1491
254,934 255,3067 256,750 257,211
258,27 266,19 267,290 268,117
269,86 270,37 271,139 272,60
273,170 274,23 279,42 280,18
281,315 282,548 283,360 284,111
285,85 286,122 287,48 295,188
296,218 297,93 298,19 299,18
300,68 307,17 309,111 310,61
311,19 350,56 351,708 352,250
353,76 365,90 366,21 378,39
379,667 380,197 381,40 392,64
394,9999 395,3322 396,607 397,99
##END=
