##TITLE=5.alpha.-Pregnan-3.beta.,20.beta.-diol
##JCAMP-DX=4.24
##DATA TYPE=MASS SPECTRUM
##ORIGIN=LAC, NIDDK, NIH, Bethesda, MD 20892
##OWNER=NIST Mass Spectrometry Data Center
Collection (C) 2014 copyright by the U.S. Secretary of Commerce
on behalf of the United States of America. All rights reserved.
##$NIST MASS SPEC NO=214861
##MOLFORM=C21 H36 O2
##MW=320
##$NIST SOURCE=MSDC
##XUNITS=M/Z
##YUNITS=RELATIVE INTENSITY
##XFACTOR=1
##YFACTOR=1
##FIRSTX=41
##LASTX=322
##FIRSTY=4173
##MAXX=322
##MINX=41
##MAXY=9999
##MINY=5
##NPOINTS=205
##PEAK TABLE=(XY..XY)
41,4173 43,5837 45,9999 46,132
47,16 49,9 50,8 51,189
53,1960 55,5673 57,1925 58,187
59,126 60,18 61,13 62,5
63,67 65,609 67,4753 68,1405
69,1941 71,1440 72,68 73,31
74,12 77,2043 79,6297 81,6440
82,682 83,743 84,51 85,467
86,50 87,27 88,7 89,45
91,3866 93,4523 94,555 95,5372
96,541 97,567 98,84 99,111
100,34 101,25 103,256 105,3461
106,519 107,6352 108,4939 109,2051
110,107 111,479 112,68 113,54
115,388 117,1042 119,1985 120,1073
121,2116 122,2445 123,1028 124,1153
125,382 126,77 127,27 128,219
129,289 131,1090 132,141 133,2056
134,383 135,2546 136,545 137,310
138,156 139,75 141,141 143,561
145,1317 147,1938 148,697 149,1191
150,236 151,306 152,62 153,48
154,9 155,70 157,294 158,74
159,1123 160,227 161,1722 162,250
163,1207 165,1212 166,273 167,62
169,90 171,288 172,39 173,594
174,110 175,819 176,750 177,667
178,300 179,142 180,31 181,16
182,6 183,60 185,249 187,611
189,1268 190,976 191,267 192,114
193,53 194,60 195,20 197,89
199,249 200,47 201,778 202,114
203,418 204,56 205,214 206,261
207,198 208,31 211,79 213,394
215,2461 216,2579 217,626 218,464
219,699 220,250 221,37 223,12
225,64 227,161 228,36 229,387
230,93 231,421 233,4874 234,8772
235,1106 236,92 237,11 239,34
241,413 243,320 244,29 245,157
246,533 247,145 248,125 249,25
251,66 252,7 253,37 255,204
257,225 258,67 259,383 260,152
261,294 262,54 263,53 264,5
267,283 269,418 270,70 271,69
273,335 274,105 275,40 276,7
277,12 282,37 283,38 284,40
285,337 287,1049 288,150 289,26
291,15 296,6 300,438 302,2546
303,556 304,101 305,77 306,15
316,5 318,97 320,559 321,131
322,15
##END=
