##TITLE=Stigmastan-3,5-diene
##JCAMP-DX=4.24
##DATA TYPE=MASS SPECTRUM
##ORIGIN=Pu Leung, NIH, Bethesda, MD
##OWNER=NIST Mass Spectrometry Data Center
Collection (C) 2014 copyright by the U.S. Secretary of Commerce
on behalf of the United States of America. All rights reserved.
##$NIST MASS SPEC NO=214164
##MOLFORM=C29 H48
##MW=396
##$NIST SOURCE=MSDC
##XUNITS=M/Z
##YUNITS=RELATIVE INTENSITY
##XFACTOR=1
##YFACTOR=1
##FIRSTX=41
##LASTX=399
##FIRSTY=2094
##MAXX=399
##MINX=41
##MAXY=9999
##MINY=5
##NPOINTS=217
##PEAK TABLE=(XY..XY)
41,2094 42,356 43,9999 44,269
45,63 47,57 48,24 49,213
50,21 51,102 52,11 53,260
54,31 55,2917 56,316 57,2699
58,89 60,26 61,68 63,13
65,123 66,20 67,1333 68,110
69,1265 70,41 71,1024 72,53
73,6 77,364 78,108 79,920
80,45 81,2330 82,214 83,553
84,233 85,940 86,145 88,18
91,1215 92,313 93,1274 94,339
95,1493 96,140 97,406 98,41
99,103 100,5 103,77 104,112
105,1677 106,502 107,1316 108,400
109,594 110,80 111,225 112,29
113,55 115,126 116,78 117,535
118,235 119,688 120,710 121,726
122,206 123,322 124,51 125,104
126,14 127,77 128,119 129,262
130,139 131,613 132,184 133,937
134,270 135,546 136,130 137,140
138,45 139,38 140,7 141,117
142,105 143,611 144,272 145,1574
146,598 147,2019 148,415 149,315
150,40 151,54 153,23 154,17
155,68 156,51 157,350 158,311
159,608 160,366 161,401 162,119
163,295 164,45 165,48 167,22
168,10 169,48 170,26 171,143
172,70 173,227 174,97 175,158
176,66 177,186 178,30 179,31
181,5 183,53 184,29 185,155
186,60 187,106 188,32 189,58
190,23 191,77 192,10 193,27
197,88 198,37 199,174 200,80
201,99 202,29 203,30 204,5
205,42 207,19 211,41 212,59
213,435 214,139 215,83 216,28
217,21 219,27 220,16 221,40
223,11 225,23 226,26 227,68
228,109 229,74 230,16 233,63
234,79 235,33 239,49 240,23
241,48 242,18 246,17 247,35
253,42 254,73 255,484 256,116
257,22 259,7 261,5 267,20
268,22 269,18 273,89 274,82
275,396 276,100 277,10 281,11
282,19 283,81 284,27 285,9
286,21 287,72 288,478 289,137
290,24 296,23 297,15 302,39
303,21 339,5 342,16 353,25
354,103 355,33 367,29 368,19
380,9 381,661 382,200 383,37
394,36 396,5472 397,1652 398,266
399,33
##END=
