##TITLE=1-Ethyl-3-vinyl-adamantane
##JCAMP-DX=4.24
##DATA TYPE=MASS SPECTRUM
##ORIGIN=V.G.Zaikin, TIPS, Russian Acad. Sci.
##OWNER=NIST Mass Spectrometry Data Center
Collection (C) 2014 copyright by the U.S. Secretary of Commerce
on behalf of the United States of America. All rights reserved.
##$NIST MASS SPEC NO=214996
##MOLFORM=C14 H22
##MW=190
##$NIST SOURCE=MSDC
##XUNITS=M/Z
##YUNITS=RELATIVE INTENSITY
##XFACTOR=1
##YFACTOR=1
##FIRSTX=51
##LASTX=192
##FIRSTY=100
##MAXX=192
##MINX=51
##MAXY=9999
##MINY=20
##NPOINTS=33
##PEAK TABLE=(XY..XY)
51,100 53,400 55,600 56,50
57,100 65,250 66,100 67,800
68,50 69,300 77,600 78,200
79,1201 80,100 81,1101 91,1251
92,200 93,1851 94,150 95,300
103,100 105,3002 106,300 107,400
119,1000 120,200 133,600 161,9999
162,1251 163,100 190,1601 191,250
192,20
##END=
