##TITLE=2,6-Dimethylbicyclo[3.2.1]octane
##JCAMP-DX=4.24
##DATA TYPE=MASS SPECTRUM
##ORIGIN=V.G.Zaikin, TIPS, Russian Acad. Sci.
##OWNER=NIST Mass Spectrometry Data Center
Collection (C) 2014 copyright by the U.S. Secretary of Commerce
on behalf of the United States of America. All rights reserved.
##$NIST MASS SPEC NO=215282
##MOLFORM=C10 H18
##MW=138
##$NIST SOURCE=MSDC
##XUNITS=M/Z
##YUNITS=RELATIVE INTENSITY
##XFACTOR=1
##YFACTOR=1
##FIRSTX=39
##LASTX=140
##FIRSTY=2101
##MAXX=140
##MINX=39
##MAXY=9999
##MINY=10
##NPOINTS=43
##PEAK TABLE=(XY..XY)
39,2101 40,350 41,3603 42,450
43,400 50,100 51,320 52,170
53,1371 54,1101 55,4103 56,400
57,120 65,450 66,400 67,4804
68,3803 69,1101 70,160 77,830
78,150 79,1281 80,530 81,9999
82,2051 83,550 91,350 93,300
94,320 95,5504 96,4904 97,530
107,630 108,790 109,2742 110,1341
111,110 123,1801 124,190 137,110
138,1501 139,161 140,10
##END=
