##TITLE=Trans-2,5-dimethylthiane
##JCAMP-DX=4.24
##DATA TYPE=MASS SPECTRUM
##ORIGIN=V.G.Zaikin, TIPS, Russian Acad. Sci.
##OWNER=NIST Mass Spectrometry Data Center
Collection (C) 2014 copyright by the U.S. Secretary of Commerce
on behalf of the United States of America. All rights reserved.
##$NIST MASS SPEC NO=215068
##MOLFORM=C7 H14 S
##MW=130
##$NIST SOURCE=MSDC
##XUNITS=M/Z
##YUNITS=RELATIVE INTENSITY
##XFACTOR=1
##YFACTOR=1
##FIRSTX=41
##LASTX=133
##FIRSTY=9999
##MAXX=133
##MINX=41
##MAXY=9999
##MINY=20
##NPOINTS=44
##PEAK TABLE=(XY..XY)
41,9999 42,2402 43,2802 44,3403
45,3403 46,1401 47,2402 51,700
52,600 53,2101 54,1000 55,6906
56,1000 57,1000 58,300 59,3102
60,3803 61,3503 65,700 66,400
67,2802 68,700 69,3503 70,2802
73,1601 74,4103 75,3152 81,5204
82,500 83,700 87,2402 88,300
95,300 96,1201 97,700 101,2802
102,1000 115,7907 116,1701 117,800
130,5905 131,500 132,280 133,20
##END=
