##TITLE=2-Methylbicyclo[3.2.1]octane
##JCAMP-DX=4.24
##DATA TYPE=MASS SPECTRUM
##ORIGIN=V.G.Zaikin, TIPS, Russian Acad. Sci.
##OWNER=NIST Mass Spectrometry Data Center
Collection (C) 2014 copyright by the U.S. Secretary of Commerce
on behalf of the United States of America. All rights reserved.
##$NIST MASS SPEC NO=215280
##MOLFORM=C9 H16
##MW=124
##$NIST SOURCE=MSDC
##XUNITS=M/Z
##YUNITS=RELATIVE INTENSITY
##XFACTOR=1
##YFACTOR=1
##FIRSTX=38
##LASTX=126
##FIRSTY=100
##MAXX=126
##MINX=38
##MAXY=9999
##MINY=9
##NPOINTS=46
##PEAK TABLE=(XY..XY)
38,100 39,2902 40,500 41,4554
42,520 43,470 44,200 50,120
51,450 52,230 53,1251 54,1651
55,3903 56,400 57,350 63,130
65,650 66,850 67,9999 68,4654
69,1501 70,250 71,100 77,710
78,200 79,1251 80,420 81,6656
82,3403 83,750 91,300 93,230
94,230 95,9108 96,3102 97,550
107,100 108,120 109,4604 110,510
111,150 121,100 123,180 124,1371
125,131 126,9
##END=
