##TITLE=Cis-2,3-dimethylthiane
##JCAMP-DX=4.24
##DATA TYPE=MASS SPECTRUM
##ORIGIN=V.G.Zaikin, TIPS, Russian Acad. Sci.
##OWNER=NIST Mass Spectrometry Data Center
Collection (C) 2014 copyright by the U.S. Secretary of Commerce
on behalf of the United States of America. All rights reserved.
##$NIST MASS SPEC NO=215065
##MOLFORM=C7 H14 S
##MW=130
##$NIST SOURCE=MSDC
##XUNITS=M/Z
##YUNITS=RELATIVE INTENSITY
##XFACTOR=1
##YFACTOR=1
##FIRSTX=41
##LASTX=133
##FIRSTY=8807
##MAXX=133
##MINX=41
##MAXY=9999
##MINY=30
##NPOINTS=42
##PEAK TABLE=(XY..XY)
41,8807 42,2502 43,1501 44,4904
45,4003 46,1951 47,3503 53,2452
54,1000 55,7907 56,1501 57,1401
58,1351 59,2902 60,8107 61,4053
62,700 67,2502 68,2702 69,4003
70,1901 73,1501 74,1201 75,5605
81,5004 82,500 83,1401 87,2201
88,300 89,1501 96,1000 97,400
101,9908 102,2001 103,500 115,9999
116,1000 117,700 130,8007 131,680
132,380 133,30
##END=
