##TITLE=Cis-2,5-dimethylthiane
##JCAMP-DX=4.24
##DATA TYPE=MASS SPECTRUM
##ORIGIN=V.G.Zaikin, TIPS, Russian Acad. Sci.
##OWNER=NIST Mass Spectrometry Data Center
Collection (C) 2014 copyright by the U.S. Secretary of Commerce
on behalf of the United States of America. All rights reserved.
##$NIST MASS SPEC NO=215066
##MOLFORM=C7 H14 S
##MW=130
##$NIST SOURCE=MSDC
##XUNITS=M/Z
##YUNITS=RELATIVE INTENSITY
##XFACTOR=1
##YFACTOR=1
##FIRSTX=41
##LASTX=133
##FIRSTY=8707
##MAXX=133
##MINX=41
##MAXY=9999
##MINY=20
##NPOINTS=50
##PEAK TABLE=(XY..XY)
41,8707 42,1601 43,1801 44,2602
45,3503 46,1601 47,2402 50,400
51,800 53,1601 54,800 55,7606
56,1701 57,1101 58,400 59,3202
60,3603 61,2802 65,400 67,1801
68,1101 69,2802 70,2402 73,2101
74,3202 75,3603 76,200 77,700
79,500 80,300 81,4704 82,700
83,800 86,200 87,1301 88,500
95,200 96,1101 97,300 101,3703
102,800 103,300 115,9999 116,800
117,500 129,300 130,5304 131,461
132,250 133,20
##END=
