##TITLE=Trans-2,3-dimethylthiane
##JCAMP-DX=4.24
##DATA TYPE=MASS SPECTRUM
##ORIGIN=V.G.Zaikin, TIPS, Russian Acad. Sci.
##OWNER=NIST Mass Spectrometry Data Center
Collection (C) 2014 copyright by the U.S. Secretary of Commerce
on behalf of the United States of America. All rights reserved.
##$NIST MASS SPEC NO=215069
##MOLFORM=C7 H14 S
##MW=130
##$NIST SOURCE=MSDC
##XUNITS=M/Z
##YUNITS=RELATIVE INTENSITY
##XFACTOR=1
##YFACTOR=1
##FIRSTX=41
##LASTX=133
##FIRSTY=9999
##MAXX=133
##MINX=41
##MAXY=9999
##MINY=20
##NPOINTS=45
##PEAK TABLE=(XY..XY)
41,9999 42,1801 43,2101 44,3903
45,3202 46,1501 47,2101 51,900
53,1801 54,1000 55,7606 56,1701
57,800 59,3002 60,5805 61,3903
67,1801 68,1701 69,2402 70,1000
73,1501 74,1401 75,3202 76,300
77,600 81,3903 82,300 83,600
87,2101 88,600 89,900 95,300
96,900 97,600 101,6205 102,1000
103,600 115,7606 116,900 117,600
129,300 130,6005 131,520 132,281
133,20
##END=
