##TITLE=Meglutol, 3TBDMS derivative
##JCAMP-DX=4.24
##DATA TYPE=MASS SPECTRUM
##ORIGIN=J.M. Halket, Trace Anal. Unit (TAU), London, UK
##OWNER=NIST Mass Spectrometry Data Center
Collection (C) 2014 copyright by the U.S. Secretary of Commerce
on behalf of the United States of America. All rights reserved.
##$NIST MASS SPEC NO=221781
##MOLFORM=C24 H52 O5 Si3
##MW=504
##$NIST SOURCE=MSDC
##XUNITS=M/Z
##YUNITS=RELATIVE INTENSITY
##XFACTOR=1
##YFACTOR=1
##FIRSTX=39
##LASTX=490
##FIRSTY=170
##MAXX=490
##MINX=39
##MAXY=9999
##MINY=10
##NPOINTS=127
##PEAK TABLE=(XY..XY)
39,170 40,20 41,850 42,70
43,340 44,60 45,460 46,30
47,250 53,70 54,30 55,250
56,210 57,960 58,290 59,700
60,90 61,100 67,40 68,10
69,170 70,10 71,50 73,9999
74,890 75,2470 76,160 77,100
81,10 82,40 83,100 84,10
85,170 86,30 87,10 88,20
97,40 99,220 100,60 101,90
102,10 103,50 109,440 110,30
111,10 112,10 113,90 115,2450
116,440 117,420 118,40 119,70
127,20 131,90 133,700 134,100
135,80 141,20 143,110 144,10
145,20 147,1490 148,270 149,580
150,80 151,50 157,180 158,40
159,170 160,10 161,10 173,90
174,10 175,50 177,10 183,200
184,30 185,30 189,400 190,110
191,190 192,40 193,20 197,40
199,80 201,30 207,70 208,10
217,70 221,10 225,80 231,60
233,110 234,20 241,1040 242,190
243,60 259,50 271,10 273,2030
274,480 275,270 276,40 287,70
288,10 289,10 313,10 315,1350
316,330 317,140 318,30 329,10
331,1080 332,310 333,120 334,10
357,150 358,40 359,10 403,20
447,1360 448,480 449,220 450,60
451,10 489,40 490,20
##END=
