##TITLE=D,L-Norleucine, 2TBDMS derivative
##JCAMP-DX=4.24
##DATA TYPE=MASS SPECTRUM
##ORIGIN=J.M. Halket, Trace Anal. Unit (TAU), London, UK
##OWNER=NIST Mass Spectrometry Data Center
Collection (C) 2014 copyright by the U.S. Secretary of Commerce
on behalf of the United States of America. All rights reserved.
##$NIST MASS SPEC NO=221648
##MOLFORM=C18 H41 N O2 Si2
##MW=359
##$NIST SOURCE=MSDC
##XUNITS=M/Z
##YUNITS=RELATIVE INTENSITY
##XFACTOR=1
##YFACTOR=1
##FIRSTX=39
##LASTX=346
##FIRSTY=330
##MAXX=346
##MINX=39
##MAXY=9999
##MINY=10
##NPOINTS=127
##PEAK TABLE=(XY..XY)
39,330 41,2020 42,160 43,630
44,220 45,1020 46,110 47,280
53,40 54,80 55,330 56,490
57,2560 58,630 59,2390 60,350
61,180 66,50 67,40 68,30
69,120 70,70 71,70 73,9999
74,1100 75,1470 76,100 77,50
79,10 80,90 82,40 83,50
84,90 85,200 86,260 87,80
88,70 89,10 93,10 95,10
96,40 97,40 98,120 99,150
100,320 101,140 102,90 103,430
104,50 105,70 110,10 112,60
114,680 115,510 116,110 117,220
118,80 119,120 120,20 122,30
126,30 128,180 129,160 130,180
131,170 132,510 133,1040 134,190
135,90 140,10 142,220 143,90
144,190 145,110 147,3010 148,530
149,310 150,40 156,30 157,30
158,70 159,80 160,310 161,80
162,30 170,220 171,50 172,50
173,40 174,140 175,40 176,20
184,60 186,80 187,10 188,110
189,140 190,30 197,10 198,30
200,6860 201,1230 202,450 203,70
204,10 212,10 216,60 217,20
218,30 244,10 245,30 258,10
272,10 274,3350 275,850 276,330
277,50 300,10 302,2040 303,520
304,200 305,40 316,110 317,40
344,120 345,40 346,10
##END=
