##TITLE=N-Methylalanine, 2TBDMS derivative
##JCAMP-DX=4.24
##DATA TYPE=MASS SPECTRUM
##ORIGIN=J.M. Halket, Trace Anal. Unit (TAU), London, UK
##OWNER=NIST Mass Spectrometry Data Center
Collection (C) 2014 copyright by the U.S. Secretary of Commerce
on behalf of the United States of America. All rights reserved.
##$NIST MASS SPEC NO=221669
##MOLFORM=C16 H37 N O2 Si2
##MW=331
##$NIST SOURCE=MSDC
##XUNITS=M/Z
##YUNITS=RELATIVE INTENSITY
##XFACTOR=1
##YFACTOR=1
##FIRSTX=39
##LASTX=317
##FIRSTY=260
##MAXX=317
##MINX=39
##MAXY=9999
##MINY=20
##NPOINTS=100
##PEAK TABLE=(XY..XY)
39,260 41,1240 42,220 43,490
44,150 45,1110 46,70 47,250
53,30 54,30 55,190 56,910
57,1370 58,1090 59,2130 60,190
61,200 66,70 67,20 68,90
69,70 70,80 71,70 73,9999
74,850 75,1300 76,60 77,40
83,30 84,30 85,110 86,190
87,80 88,80 89,20 95,40
97,20 98,20 100,480 101,160
102,50 103,110 105,40 108,50
112,20 113,20 114,170 115,520
116,360 117,230 118,40 119,150
120,20 128,50 129,40 130,40
131,100 133,800 134,110 135,70
142,170 143,80 144,110 145,40
147,2580 148,410 149,210 150,20
156,50 157,20 158,60 159,30
160,60 161,20 162,20 172,9880
173,1520 174,610 175,80 176,20
184,30 188,30 189,100 190,30
200,20 216,20 217,20 218,20
246,1620 247,370 248,150 249,20
259,30 274,1390 275,320 276,130
277,20 288,40 316,80 317,20
##END=
