##TITLE=3-Methylpentanedioic acid, 2TBDMS derivative
##JCAMP-DX=4.24
##DATA TYPE=MASS SPECTRUM
##ORIGIN=J.M. Halket, Trace Anal. Unit (TAU), London, UK
##OWNER=NIST Mass Spectrometry Data Center
Collection (C) 2014 copyright by the U.S. Secretary of Commerce
on behalf of the United States of America. All rights reserved.
##$NIST MASS SPEC NO=221766
##MOLFORM=C18 H38 O4 Si2
##MW=374
##$NIST SOURCE=MSDC
##XUNITS=M/Z
##YUNITS=RELATIVE INTENSITY
##XFACTOR=1
##YFACTOR=1
##FIRSTX=37
##LASTX=361
##FIRSTY=10
##MAXX=361
##MINX=37
##MAXY=9999
##MINY=10
##NPOINTS=116
##PEAK TABLE=(XY..XY)
37,10 39,610 41,2510 42,330
43,500 45,1190 46,110 47,890
48,40 49,30 51,10 52,20
53,100 55,390 56,440 57,1590
58,490 59,960 60,250 61,310
62,20 63,10 65,10 66,20
67,80 69,3420 70,190 73,9999
74,1300 75,6860 76,500 77,260
78,20 79,10 81,20 82,20
83,80 84,20 85,140 86,30
87,40 88,110 89,30 95,40
97,50 99,530 100,90 101,290
102,50 103,50 105,20 111,70
112,20 113,80 115,640 116,620
117,220 118,40 119,50 125,10
127,20 129,140 130,340 131,100
133,560 134,80 135,70 141,340
142,80 143,440 144,60 145,30
147,3440 148,640 149,490 150,60
151,30 157,50 158,20 159,10
161,20 173,10 175,60 176,30
177,20 185,100 186,20 187,10
189,120 190,50 191,40 199,20
201,30 203,100 204,20 214,30
215,30 217,30 227,80 228,10
243,160 244,30 245,20 259,50
260,10 289,90 290,20 291,10
313,10 317,2290 318,620 319,240
320,40 359,100 360,30 361,10
##END=
