##TITLE=Glycine, N-[1-[(tert-butyldimethylsilyl)oxy]propylidene]-, tert-butyldimethylsilyl ester
##JCAMP-DX=4.24
##DATA TYPE=MASS SPECTRUM
##ORIGIN=J.M. Halket, Trace Anal. Unit (TAU), London, UK
##OWNER=NIST Mass Spectrometry Data Center
Collection (C) 2014 copyright by the U.S. Secretary of Commerce
on behalf of the United States of America. All rights reserved.
##$NIST MASS SPEC NO=221759
##MOLFORM=C17 H37 N O3 Si2
##MW=359
##$NIST SOURCE=MSDC
##XUNITS=M/Z
##YUNITS=RELATIVE INTENSITY
##XFACTOR=1
##YFACTOR=1
##FIRSTX=39
##LASTX=359
##FIRSTY=310
##MAXX=359
##MINX=39
##MAXY=9999
##MINY=10
##NPOINTS=112
##PEAK TABLE=(XY..XY)
39,310 40,100 41,1550 42,230
43,470 44,120 45,1150 46,80
47,460 48,10 53,50 54,300
55,170 56,350 57,1900 58,520
59,1500 60,190 61,240 66,20
67,50 68,490 69,680 70,440
71,80 72,210 73,9999 74,930
75,2720 76,180 77,100 82,20
83,40 84,70 85,130 86,320
87,110 88,190 89,50 96,160
97,40 98,40 99,110 100,120
101,170 102,60 103,70 104,140
105,40 113,10 114,70 115,480
116,380 117,260 118,50 119,110
123,140 126,110 127,10 128,60
130,3540 131,490 132,210 133,780
134,110 135,90 142,230 143,180
144,420 145,80 146,110 147,2060
148,370 149,280 150,30 158,10
160,100 161,30 170,260 171,50
172,50 173,10 174,70 175,30
188,80 189,240 190,60 191,20
200,410 201,70 202,50 204,100
212,30 216,40 218,940 219,180
220,80 228,80 230,50 274,890
275,210 276,90 301,20 302,2860
303,700 304,270 305,50 330,20
344,270 345,70 346,30 359,10
##END=
