##TITLE=Uric acid, 4TBDMS derivative
##JCAMP-DX=4.24
##DATA TYPE=MASS SPECTRUM
##ORIGIN=J.M. Halket, Trace Anal. Unit (TAU), London, UK
##OWNER=NIST Mass Spectrometry Data Center
Collection (C) 2014 copyright by the U.S. Secretary of Commerce
on behalf of the United States of America. All rights reserved.
##$NIST MASS SPEC NO=221809
##MOLFORM=C29 H60 N4 O3 Si4
##MW=624
##$NIST SOURCE=MSDC
##XUNITS=M/Z
##YUNITS=RELATIVE INTENSITY
##XFACTOR=1
##YFACTOR=1
##FIRSTX=39
##LASTX=626
##FIRSTY=80
##MAXX=626
##MINX=39
##MAXY=9999
##MINY=20
##NPOINTS=105
##PEAK TABLE=(XY..XY)
39,80 41,400 42,40 43,90
44,170 45,180 55,30 56,60
57,380 58,80 59,450 60,30
71,20 73,7720 74,670 75,560
76,20 85,60 97,30 99,130
100,290 115,120 117,40 131,130
132,50 133,260 134,30 135,20
144,30 147,890 148,110 149,50
157,60 158,220 159,60 160,40
171,110 173,50 174,140 175,30
183,40 184,40 185,40 191,30
204,40 207,530 208,40 213,70
215,30 225,30 231,40 241,40
245,60 253,30 255,100 256,50
281,210 282,50 296,40 297,20
312,40 323,80 339,190 340,60
341,50 355,60 369,40 379,50
381,50 383,40 395,880 396,290
397,380 398,100 399,110 400,60
401,40 437,160 439,60 441,40
453,260 454,80 455,370 456,240
457,70 493,30 495,40 509,110
510,60 511,370 512,190 513,100
567,9999 568,4880 569,2480 570,780
571,200 572,20 609,310 610,170
611,50 623,120 624,480 625,240
626,120
##END=
