##TITLE=Glycine, N-[.alpha.-[(tert-butyldimethylsilyl)oxy]benzylidene]-, tert-butyldimethylsilyl ester
##JCAMP-DX=4.24
##DATA TYPE=MASS SPECTRUM
##ORIGIN=J.M. Halket, Trace Anal. Unit (TAU), London, UK
##OWNER=NIST Mass Spectrometry Data Center
Collection (C) 2014 copyright by the U.S. Secretary of Commerce
on behalf of the United States of America. All rights reserved.
##$NIST MASS SPEC NO=221795
##MOLFORM=C21 H37 N O3 Si2
##MW=407
##$NIST SOURCE=MSDC
##XUNITS=M/Z
##YUNITS=RELATIVE INTENSITY
##XFACTOR=1
##YFACTOR=1
##FIRSTX=39
##LASTX=407
##FIRSTY=220
##MAXX=407
##MINX=39
##MAXY=9999
##MINY=30
##NPOINTS=101
##PEAK TABLE=(XY..XY)
39,220 41,1000 42,110 43,420
44,110 45,1020 46,70 47,340
51,150 55,110 56,220 57,1120
58,420 59,1330 60,150 61,180
63,50 69,40 71,60 73,9999
74,930 75,2570 76,220 77,1200
78,90 85,110 86,130 87,40
88,100 89,260 90,170 91,970
92,70 99,90 100,70 101,180
102,60 103,150 105,5050 106,360
107,40 115,330 116,870 117,930
118,350 119,140 130,40 131,80
132,100 133,740 134,150 135,220
144,130 147,2580 148,500 149,380
150,40 158,30 162,130 163,90
164,120 165,80 174,80 175,50
176,30 178,3460 179,540 180,170
189,140 190,410 191,130 192,70
208,50 218,220 219,60 220,50
234,50 236,130 248,460 249,100
250,50 252,60 264,150 265,40
275,40 276,110 292,50 306,60
307,90 322,960 323,260 324,110
350,4130 351,1420 352,550 353,120
392,400 393,110 394,40 406,60
407,70
##END=
