##TITLE=Ascorbic acid, 4TBDMS derivative
##JCAMP-DX=4.24
##DATA TYPE=MASS SPECTRUM
##ORIGIN=J.M. Halket, Trace Anal. Unit (TAU), London, UK
##OWNER=NIST Mass Spectrometry Data Center
Collection (C) 2014 copyright by the U.S. Secretary of Commerce
on behalf of the United States of America. All rights reserved.
##$NIST MASS SPEC NO=221804
##MOLFORM=C30 H64 O6 Si4
##MW=632
##$NIST SOURCE=MSDC
##XUNITS=M/Z
##YUNITS=RELATIVE INTENSITY
##XFACTOR=1
##YFACTOR=1
##FIRSTX=39
##LASTX=619
##FIRSTY=80
##MAXX=619
##MINX=39
##MAXY=9999
##MINY=10
##NPOINTS=149
##PEAK TABLE=(XY..XY)
39,80 40,20 41,510 42,30
43,70 44,10 45,220 47,40
53,40 55,70 56,160 57,770
58,150 59,540 60,40 61,30
67,30 69,30 71,20 73,9999
74,830 75,640 76,30 77,30
79,60 81,40 83,40 85,60
89,230 95,40 97,20 99,90
100,20 101,50 103,70 111,10
113,30 115,340 116,40 117,80
119,50 129,20 131,50 132,10
133,520 134,70 135,60 143,40
145,10 147,1500 148,240 149,480
150,60 151,40 153,40 155,100
157,60 159,50 169,60 171,20
173,20 175,30 177,20 185,40
189,120 190,20 191,60 193,60
197,20 199,10 207,200 208,40
209,30 211,60 217,10 221,100
222,30 227,10 230,40 231,80
232,10 233,20 243,50 257,10
259,60 271,70 272,10 273,40
285,40 287,30 289,80 290,20
299,20 301,20 313,20 315,30
327,20 329,140 330,40 331,10
341,30 343,530 344,150 345,70
359,10 369,50 373,90 374,30
375,10 387,10 399,110 400,40
401,40 403,190 404,70 405,30
415,580 416,220 417,120 418,20
429,90 430,30 443,2280 444,840
445,420 446,110 447,30 458,120
459,50 460,10 471,10 485,80
486,30 487,60 531,530 532,240
533,120 534,40 545,90 546,40
547,30 575,3110 576,1560 577,790
578,230 579,70 617,110 618,60
619,30
##END=
