##TITLE=1-Tripropylsilyloxydecane
##JCAMP-DX=4.24
##DATA TYPE=MASS SPECTRUM
##ORIGIN=V.G.Zaikin, TIPS RAS, Moscow, Russia
##OWNER=NIST Mass Spectrometry Data Center
Collection (C) 2014 copyright by the U.S. Secretary of Commerce
on behalf of the United States of America. All rights reserved.
##$NIST MASS SPEC NO=279121
##MOLFORM=C19 H42 O Si
##MW=314
##$NIST SOURCE=MSDC
##XUNITS=M/Z
##YUNITS=RELATIVE INTENSITY
##XFACTOR=1
##YFACTOR=1
##FIRSTX=26
##LASTX=274
##FIRSTY=180
##MAXX=274
##MINX=26
##MAXY=9999
##MINY=30
##NPOINTS=106
##PEAK TABLE=(XY..XY)
26,180 27,891 28,90 29,1311
31,40 38,30 39,791 40,130
41,2452 42,410 43,2883 44,721
45,1722 46,160 47,1211 48,90
49,40 50,70 51,190 52,90
53,110 54,150 55,1411 56,190
57,1021 58,180 59,561 60,190
61,2612 62,190 63,160 64,80
65,40 67,180 68,30 69,1151
70,150 71,881 72,190 73,1411
74,310 75,310 77,70 78,90
79,150 81,180 82,30 83,1621
84,180 85,480 86,130 87,1421
88,130 89,2452 90,230 91,150
93,70 95,130 96,110 97,781
98,130 99,310 100,90 101,1031
102,90 103,591 104,90 105,90
107,70 109,40 110,40 111,90
114,150 115,1151 116,130 117,70
123,90 127,70 129,510 131,290
139,30 141,70 142,30 143,210
145,320 156,70 157,260 158,70
163,70 171,120 173,70 184,70
185,380 186,30 187,150 215,70
227,210 228,90 229,1692 230,230
231,140 269,450 271,9999 272,2552
273,571 274,90
##END=
