##TITLE=1-Acetyl-4-(2-acetoxyphenyl)piperazine
##JCAMP-DX=4.24
##DATA TYPE=MASS SPECTRUM
##ORIGIN=H.Maurer ET AL.J.Chromatogr., 272,75 (1983)
##OWNER=NIST Mass Spectrometry Data Center
Collection (C) 2014 copyright by the U.S. Secretary of Commerce
on behalf of the United States of America. All rights reserved.
##$NIST MASS SPEC NO=280840
##MOLFORM=C14 H18 N2 O3
##MW=262
##$NIST SOURCE=MSDC
##XUNITS=M/Z
##YUNITS=RELATIVE INTENSITY
##XFACTOR=1
##YFACTOR=1
##FIRSTX=40
##LASTX=263
##FIRSTY=771
##MAXX=263
##MINX=40
##MAXY=9999
##MINY=20
##NPOINTS=62
##PEAK TABLE=(XY..XY)
40,771 43,771 44,721 52,110
53,160 54,300 55,4434 56,1551
57,3873 63,110 64,130 65,991
66,130 67,20 68,220 69,20
70,160 71,190 74,20 75,130
76,20 77,721 78,20 79,80
86,1211 90,20 91,240 92,160
93,160 94,130 99,220 101,80
104,110 106,110 119,470 120,3873
121,721 122,601 133,300 134,741
135,550 146,1682 147,360 148,9999
149,601 150,160 161,1822 173,50
175,490 176,160 177,550 178,601
189,50 190,631 205,300 217,50
218,270 219,851 220,2212 221,240
262,2652 263,360
##END=
