##TITLE=Temazepam o-propionyl deriv.
##JCAMP-DX=4.24
##DATA TYPE=MASS SPECTRUM
##ORIGIN=R.Meatherall J.Anal.Tox., 18,369(1994)
##OWNER=NIST Mass Spectrometry Data Center
Collection (C) 2014 copyright by the U.S. Secretary of Commerce
on behalf of the United States of America. All rights reserved.
##$NIST MASS SPEC NO=281188
##MOLFORM=C19 H17 Cl N2 O3
##MW=356
##$NIST SOURCE=MSDC
##XUNITS=M/Z
##YUNITS=RELATIVE INTENSITY
##XFACTOR=1
##YFACTOR=1
##FIRSTX=57
##LASTX=358
##FIRSTY=2052
##MAXX=358
##MINX=57
##MAXY=9999
##MINY=70
##NPOINTS=52
##PEAK TABLE=(XY..XY)
57,2052 75,440 76,70 77,1071
104,400 151,400 165,741 166,250
177,370 178,230 191,170 192,230
193,701 194,200 204,100 205,170
206,230 207,130 221,841 222,200
228,540 233,100 234,130 235,130
236,130 237,100 238,130 240,230
241,170 242,170 243,70 255,1742
256,1812 257,2853 258,1311 259,671
260,170 268,270 269,230 270,2953
271,9999 272,3463 273,370 282,100
283,340 299,671 300,2052 301,601
355,571 356,470 357,230 358,100
##END=
