##TITLE=Benzeneacetic acid, decyl ester
##JCAMP-DX=4.24
##DATA TYPE=MASS SPECTRUM
##ORIGIN=V.Zaikin,Topchiev Inst.Petrochem.Synth.,Moscow
##OWNER=NIST Mass Spectrometry Data Center
Collection (C) 2014 copyright by the U.S. Secretary of Commerce
on behalf of the United States of America. All rights reserved.
##$NIST MASS SPEC NO=281803
##MOLFORM=C18 H28 O2
##MW=276
##$NIST SOURCE=MSDC
##XUNITS=M/Z
##YUNITS=RELATIVE INTENSITY
##XFACTOR=1
##YFACTOR=1
##FIRSTX=27
##LASTX=276
##FIRSTY=490
##MAXX=276
##MINX=27
##MAXY=9999
##MINY=20
##NPOINTS=82
##PEAK TABLE=(XY..XY)
27,490 28,250 29,971 30,20
36,40 37,30 38,70 39,1201
40,200 41,3213 42,841 43,5135
44,360 45,50 48,20 50,120
51,340 52,100 53,300 54,170
55,2182 56,771 57,4384 58,230
60,20 61,40 62,70 63,460
64,170 65,1551 66,100 67,210
68,300 69,801 70,410 71,1712
72,110 74,20 75,40 76,30
77,150 78,40 79,80 80,50
81,120 82,190 83,480 84,290
85,1191 86,80 89,500 90,460
91,9999 92,1872 93,150 95,50
96,160 97,260 98,130 99,80
104,40 105,50 106,30 107,30
109,30 110,60 111,110 112,210
113,20 118,80 119,290 124,20
135,40 136,3113 137,1682 138,100
139,60 140,300 141,40 185,1021
186,110 276,130
##END=
