##TITLE=N-Amyl furylpropionate
##JCAMP-DX=4.24
##DATA TYPE=MASS SPECTRUM
##ORIGIN=W.Jennings, T.Shibamoto
##OWNER=NIST Mass Spectrometry Data Center
Collection (C) 2014 copyright by the U.S. Secretary of Commerce
on behalf of the United States of America. All rights reserved.
##$NIST MASS SPEC NO=284966
##MOLFORM=C12 H18 O3
##MW=210
##$NIST SOURCE=MSDC
##XUNITS=M/Z
##YUNITS=RELATIVE INTENSITY
##XFACTOR=1
##YFACTOR=1
##FIRSTX=29
##LASTX=211
##FIRSTY=340
##MAXX=211
##MINX=29
##MAXY=9999
##MINY=90
##NPOINTS=23
##PEAK TABLE=(XY..XY)
29,340 41,751 43,4554 53,330
55,430 66,90 67,661 68,320
69,90 71,390 81,9999 82,540
94,8157 95,1832 96,110 97,2732
98,90 123,851 139,1732 140,3683
141,220 210,1291 211,90
##END=
