##TITLE=Allyl ionone 4
##JCAMP-DX=4.24
##DATA TYPE=MASS SPECTRUM
##ORIGIN=W.Jennings, T.Shibamoto
##OWNER=NIST Mass Spectrometry Data Center
Collection (C) 2014 copyright by the U.S. Secretary of Commerce
on behalf of the United States of America. All rights reserved.
##$NIST MASS SPEC NO=284930
##MOLFORM=C16 H24 O
##MW=232
##$NIST SOURCE=MSDC
##XUNITS=M/Z
##YUNITS=RELATIVE INTENSITY
##XFACTOR=1
##YFACTOR=1
##FIRSTX=41
##LASTX=233
##FIRSTY=530
##MAXX=233
##MINX=41
##MAXY=9999
##MINY=70
##NPOINTS=74
##PEAK TABLE=(XY..XY)
41,530 43,1491 54,220 55,6536
56,210 57,80 67,520 69,2052
77,80 79,851 80,70 81,1351
82,70 83,2833 84,90 85,100
91,510 92,80 93,2152 94,530
95,1932 96,190 97,310 105,851
106,90 107,2592 108,530 109,751
117,220 119,1151 120,220 121,3333
122,430 123,330 129,80 131,290
133,1431 134,430 135,2953 136,340
137,210 143,430 144,90 145,90
147,751 148,220 149,2422 150,1151
151,80 157,621 158,100 159,851
160,80 161,951 162,651 163,520
173,220 175,1221 176,1732 177,1972
178,210 189,410 190,90 191,971
192,90 199,220 202,90 203,230
217,9999 218,3823 219,290 231,70
232,971 233,90
##END=
