##TITLE=Galaxolide 2
##JCAMP-DX=4.24
##DATA TYPE=MASS SPECTRUM
##ORIGIN=W.Jennings, T.Shibamoto
##OWNER=NIST Mass Spectrometry Data Center
Collection (C) 2014 copyright by the U.S. Secretary of Commerce
on behalf of the United States of America. All rights reserved.
##$NIST MASS SPEC NO=285267
##MOLFORM=C18 H26 O
##MW=258
##$NIST SOURCE=MSDC
##XUNITS=M/Z
##YUNITS=RELATIVE INTENSITY
##XFACTOR=1
##YFACTOR=1
##FIRSTX=28
##LASTX=259
##FIRSTY=390
##MAXX=259
##MINX=28
##MAXY=9999
##MINY=70
##NPOINTS=32
##PEAK TABLE=(XY..XY)
28,390 43,190 55,70 57,280
129,70 143,190 156,70 157,190
169,70 170,70 171,480 172,70
183,190 184,70 185,280 186,280
187,591 188,480 198,280 199,70
201,190 213,2192 214,390 215,70
227,70 228,480 230,280 243,9999
244,1591 245,70 258,1591 259,190
##END=
