##TITLE=Galaxolide 1
##JCAMP-DX=4.24
##DATA TYPE=MASS SPECTRUM
##ORIGIN=W.Jennings, T.Shibamoto
##OWNER=NIST Mass Spectrometry Data Center
Collection (C) 2014 copyright by the U.S. Secretary of Commerce
on behalf of the United States of America. All rights reserved.
##$NIST MASS SPEC NO=285266
##MOLFORM=C18 H26 O
##MW=258
##$NIST SOURCE=MSDC
##XUNITS=M/Z
##YUNITS=RELATIVE INTENSITY
##XFACTOR=1
##YFACTOR=1
##FIRSTX=43
##LASTX=259
##FIRSTY=190
##MAXX=259
##MINX=43
##MAXY=9999
##MINY=70
##NPOINTS=32
##PEAK TABLE=(XY..XY)
43,190 57,280 69,80 119,80
129,80 143,190 156,70 157,190
169,80 170,80 171,480 172,80
183,190 184,190 185,390 186,280
187,681 188,390 198,280 199,80
201,190 213,2392 214,390 215,70
227,70 228,480 229,280 243,9999
244,1792 245,70 258,1591 259,280
##END=
