##TITLE=Threo-2,3-dibromopentane
##JCAMP-DX=4.24
##DATA TYPE=MASS SPECTRUM
##ORIGIN=Susan Richardson
##OWNER=NIST Mass Spectrometry Data Center
Collection (C) 2014 copyright by the U.S. Secretary of Commerce
on behalf of the United States of America. All rights reserved.
##$NIST MASS SPEC NO=288186
##MOLFORM=C5 H10 Br2
##MW=228
##$NIST SOURCE=MSDC
##XUNITS=M/Z
##YUNITS=RELATIVE INTENSITY
##XFACTOR=1
##YFACTOR=1
##FIRSTX=43
##LASTX=232
##FIRSTY=1051
##MAXX=232
##MINX=43
##MAXY=9999
##MINY=10
##NPOINTS=36
##PEAK TABLE=(XY..XY)
43,1051 44,90 50,90 51,160
52,50 53,550 54,70 55,611
56,20 61,10 62,10 63,20
65,40 67,180 68,30 69,9999
70,881 71,40 79,30 80,70
81,20 82,70 93,70 95,70
107,721 109,661 119,70 121,120
123,40 149,3193 150,170 151,3143
152,170 228,70 230,160 232,60
##END=
