##TITLE=Demeton-O-oa
##JCAMP-DX=4.24
##DATA TYPE=MASS SPECTRUM
##ORIGIN=S.M. Lee, CA Export Lab. Services, CA, USA
##OWNER=NIST Mass Spectrometry Data Center
Collection (C) 2014 copyright by the U.S. Secretary of Commerce
on behalf of the United States of America. All rights reserved.
##$NIST MASS SPEC NO=289946
##MOLFORM=C8 H19 O4 P S
##MW=242
##$NIST SOURCE=MSDC
##XUNITS=M/Z
##YUNITS=RELATIVE INTENSITY
##XFACTOR=1
##YFACTOR=1
##FIRSTX=51
##LASTX=242
##FIRSTY=60
##MAXX=242
##MINX=51
##MAXY=9999
##MINY=30
##NPOINTS=88
##PEAK TABLE=(XY..XY)
51,60 52,40 53,60 54,60
55,270 57,70 58,250 59,1201
60,6726 61,1301 62,400 63,110
64,40 65,170 67,30 68,50
69,30 70,40 71,40 72,40
73,711 74,60 75,520 76,50
77,60 81,1621 82,370 83,80
84,40 85,130 86,90 87,300
88,9999 89,2552 90,510 91,420
93,90 94,50 95,50 96,60
97,120 99,6055 101,50 103,30
106,30 107,40 108,40 109,571
110,90 111,170 112,40 113,60
114,60 120,40 121,50 122,30
123,90 125,631 127,3513 128,120
129,40 135,40 137,110 138,70
139,70 140,60 141,490 142,70
143,50 146,40 147,30 153,90
155,6856 156,310 157,140 169,190
171,40 173,40 181,90 182,190
185,30 196,30 197,470 198,70
203,40 213,40 214,60 242,60
##END=
