##TITLE=4-Piperidyl cyclohexylphenylglycolate
##JCAMP-DX=4.24
##DATA TYPE=MASS SPECTRUM
##ORIGIN=VERIFINN
##OWNER=NIST Mass Spectrometry Data Center
Collection (C) 2014 copyright by the U.S. Secretary of Commerce
on behalf of the United States of America. All rights reserved.
##$NIST MASS SPEC NO=289602
##MOLFORM=C19 H27 N O3
##MW=317
##$NIST SOURCE=MSDC
##XUNITS=M/Z
##YUNITS=RELATIVE INTENSITY
##XFACTOR=1
##YFACTOR=1
##FIRSTX=27
##LASTX=236
##FIRSTY=460
##MAXX=236
##MINX=27
##MAXY=9999
##MINY=60
##NPOINTS=48
##PEAK TABLE=(XY..XY)
27,460 28,591 29,781 30,1001
39,360 41,1011 42,1161 43,591
44,240 53,240 54,280 55,2913
56,1221 57,310 67,450 68,540
69,230 77,1021 79,1071 82,1892
83,1081 84,6266 85,4534 91,1191
92,80 93,140 100,260 101,170
102,300 105,1101 107,3313 108,210
115,190 117,120 121,110 128,170
129,931 130,80 131,60 133,140
143,90 171,260 189,9999 190,1261
191,80 234,250 235,1271 236,190
##END=
