##TITLE=4-Butylbenzoic acid, tetradecyl ester
##JCAMP-DX=4.24
##DATA TYPE=MASS SPECTRUM
##ORIGIN=Zaikin V.G., TIPS RAS, Moscow, Russia
##OWNER=NIST Mass Spectrometry Data Center
Collection (C) 2014 copyright by the U.S. Secretary of Commerce
on behalf of the United States of America. All rights reserved.
##$NIST MASS SPEC NO=292327
##MOLFORM=C25 H42 O2
##MW=374
##$NIST SOURCE=MSDC
##XUNITS=M/Z
##YUNITS=RELATIVE INTENSITY
##XFACTOR=1
##YFACTOR=1
##FIRSTX=27
##LASTX=375
##FIRSTY=70
##MAXX=375
##MINX=27
##MAXY=9999
##MINY=30
##NPOINTS=72
##PEAK TABLE=(XY..XY)
27,70 28,50 29,130 39,80
41,420 42,100 43,480 53,30
54,80 55,591 56,250 57,460
65,50 67,120 68,130 69,460
70,230 71,150 77,80 78,30
79,60 81,70 82,130 83,370
84,150 85,80 89,60 90,200
91,811 92,500 93,60 95,30
96,70 97,280 98,90 103,60
104,50 105,130 107,90 111,130
112,60 115,30 117,40 118,180
119,160 123,140 125,50 126,30
131,110 133,220 134,30 135,561
136,2632 137,320 138,30 149,70
159,30 161,3133 162,360 163,50
168,30 176,30 177,40 178,5635
179,9999 180,951 181,80 191,40
196,80 357,30 374,90 375,30
##END=
