##TITLE=o-Anisic acid, 2-methyloct-5-yn-4-yl ester
##JCAMP-DX=4.24
##DATA TYPE=MASS SPECTRUM
##ORIGIN=Zaikin V.G., TIPS RAS, Moscow, Russia
##OWNER=NIST Mass Spectrometry Data Center
Collection (C) 2014 copyright by the U.S. Secretary of Commerce
on behalf of the United States of America. All rights reserved.
##$NIST MASS SPEC NO=292575
##MOLFORM=C17 H22 O3
##MW=274
##$NIST SOURCE=MSDC
##XUNITS=M/Z
##YUNITS=RELATIVE INTENSITY
##XFACTOR=1
##YFACTOR=1
##FIRSTX=39
##LASTX=231
##FIRSTY=50
##MAXX=231
##MINX=39
##MAXY=9999
##MINY=30
##NPOINTS=42
##PEAK TABLE=(XY..XY)
39,50 41,130 43,120 51,70
53,60 55,110 63,50 64,70
65,80 66,40 67,100 69,50
76,40 77,711 78,100 79,360
80,60 81,400 91,150 92,320
93,360 94,70 95,60 105,230
106,40 107,450 108,80 120,70
121,70 122,170 123,190 124,40
134,30 135,9999 136,681 137,60
139,80 152,70 153,170 159,30
218,170 231,180
##END=
