##TITLE=trans-(3-Trifluoromethyl)cinnamic acid, 1-adamantylmethyl ester
##JCAMP-DX=4.24
##DATA TYPE=MASS SPECTRUM
##ORIGIN=Zaikin V.G., TIPS RAS, Moscow, Russia
##OWNER=NIST Mass Spectrometry Data Center
Collection (C) 2014 copyright by the U.S. Secretary of Commerce
on behalf of the United States of America. All rights reserved.
##$NIST MASS SPEC NO=292262
##MOLFORM=C21 H23 F3 O2
##MW=364
##$NIST SOURCE=MSDC
##XUNITS=M/Z
##YUNITS=RELATIVE INTENSITY
##XFACTOR=1
##YFACTOR=1
##FIRSTX=26
##LASTX=366
##FIRSTY=10
##MAXX=366
##MINX=26
##MAXY=9999
##MINY=10
##NPOINTS=111
##PEAK TABLE=(XY..XY)
26,10 27,10 28,60 29,10
32,10 39,40 41,80 43,10
44,30 50,60 51,60 52,10
53,30 55,80 57,20 62,10
63,40 65,20 66,10 67,150
68,10 69,40 70,30 74,50
75,130 76,60 77,130 78,40
79,400 80,110 81,140 82,10
91,200 92,310 93,420 94,80
95,90 96,10 98,10 99,30
100,10 101,80 102,340 103,50
104,10 105,130 106,100 107,190
108,20 109,10 115,10 117,10
119,90 120,130 121,30 125,70
126,30 127,20 131,20 133,80
134,10 135,2913 136,300 137,10
143,10 144,10 145,200 146,30
147,40 148,981 149,160 150,20
151,1661 152,190 153,10 159,60
161,10 164,20 168,10 169,190
170,290 171,1291 172,180 173,20
177,10 180,10 188,20 192,10
197,180 198,90 199,9999 200,901
201,60 205,30 215,170 216,190
217,20 273,10 301,10 304,10
318,60 319,30 320,10 341,20
342,30 345,170 346,60 347,10
364,520 365,120 366,20
##END=
