##TITLE=m-Anisic acid, undec-2-enyl ester
##JCAMP-DX=4.24
##DATA TYPE=MASS SPECTRUM
##ORIGIN=Zaikin V.G., TIPS RAS, Moscow, Russia
##OWNER=NIST Mass Spectrometry Data Center
Collection (C) 2014 copyright by the U.S. Secretary of Commerce
on behalf of the United States of America. All rights reserved.
##$NIST MASS SPEC NO=292598
##MOLFORM=C19 H28 O3
##MW=304
##$NIST SOURCE=MSDC
##XUNITS=M/Z
##YUNITS=RELATIVE INTENSITY
##XFACTOR=1
##YFACTOR=1
##FIRSTX=27
##LASTX=305
##FIRSTY=50
##MAXX=305
##MINX=27
##MAXY=9999
##MINY=30
##NPOINTS=60
##PEAK TABLE=(XY..XY)
27,50 28,40 29,110 39,80
41,340 42,40 43,250 53,70
54,260 55,430 56,50 57,120
63,50 64,100 65,50 67,250
68,150 69,220 70,30 76,50
77,400 78,60 79,70 81,210
82,170 83,130 92,330 93,40
95,150 96,120 97,80 105,30
107,520 108,150 109,140 110,60
121,40 123,30 124,110 135,9999
136,881 137,80 147,60 150,30
152,1551 153,260 163,30 165,100
169,40 177,30 178,60 192,40
205,110 206,110 233,70 247,50
261,60 275,50 304,200 305,40
##END=
