##TITLE=4-Cyanobenzoic acid, 5-fluoro-2-nitrophenyl ester
##JCAMP-DX=4.24
##DATA TYPE=MASS SPECTRUM
##ORIGIN=Zaikin V.G., TIPS RAS, Moscow, Russia
##OWNER=NIST Mass Spectrometry Data Center
Collection (C) 2014 copyright by the U.S. Secretary of Commerce
on behalf of the United States of America. All rights reserved.
##$NIST MASS SPEC NO=292661
##MOLFORM=C14 H7 F N2 O4
##MW=286
##$NIST SOURCE=MSDC
##XUNITS=M/Z
##YUNITS=RELATIVE INTENSITY
##XFACTOR=1
##YFACTOR=1
##FIRSTX=27
##LASTX=286
##FIRSTY=30
##MAXX=286
##MINX=27
##MAXY=9999
##MINY=20
##NPOINTS=35
##PEAK TABLE=(XY..XY)
27,30 28,30 30,90 38,30
39,30 44,40 50,180 51,260
52,50 57,60 62,30 63,100
70,60 74,70 75,400 76,300
77,30 81,120 82,140 83,40
98,30 99,30 101,70 102,2502
103,230 124,30 127,50 130,9999
131,831 132,50 141,50 147,250
157,40 238,20 286,60
##END=
