##TITLE=m-Toluic acid, 3-chloroprop-2-enyl ester
##JCAMP-DX=4.24
##DATA TYPE=MASS SPECTRUM
##ORIGIN=Zaikin V.G., TIPS RAS, Moscow, Russia
##OWNER=NIST Mass Spectrometry Data Center
Collection (C) 2014 copyright by the U.S. Secretary of Commerce
on behalf of the United States of America. All rights reserved.
##$NIST MASS SPEC NO=292500
##MOLFORM=C11 H11 Cl O2
##MW=210
##$NIST SOURCE=MSDC
##XUNITS=M/Z
##YUNITS=RELATIVE INTENSITY
##XFACTOR=1
##YFACTOR=1
##FIRSTX=26
##LASTX=212
##FIRSTY=40
##MAXX=212
##MINX=26
##MAXY=9999
##MINY=10
##NPOINTS=59
##PEAK TABLE=(XY..XY)
26,40 27,100 28,10 29,30
38,170 39,691 40,50 41,190
44,160 49,120 50,110 51,180
52,80 53,50 55,30 62,90
63,300 64,90 65,1021 66,50
67,60 68,120 69,110 74,30
75,911 76,50 77,320 78,30
79,90 89,370 90,240 91,3743
92,400 93,50 105,60 115,80
116,60 118,70 119,9999 120,1011
121,70 129,210 130,50 131,350
132,40 135,50 136,530 137,70
147,70 148,50 157,70 161,40
165,190 167,50 175,2853 176,330
181,30 210,200 212,60
##END=
