##TITLE=4-Cyanobenzoic acid, 2-adamantyl ester
##JCAMP-DX=4.24
##DATA TYPE=MASS SPECTRUM
##ORIGIN=Zaikin V.G., TIPS RAS, Moscow, Russia
##OWNER=NIST Mass Spectrometry Data Center
Collection (C) 2014 copyright by the U.S. Secretary of Commerce
on behalf of the United States of America. All rights reserved.
##$NIST MASS SPEC NO=292449
##MOLFORM=C18 H19 N O2
##MW=281
##$NIST SOURCE=MSDC
##XUNITS=M/Z
##YUNITS=RELATIVE INTENSITY
##XFACTOR=1
##YFACTOR=1
##FIRSTX=27
##LASTX=282
##FIRSTY=100
##MAXX=282
##MINX=27
##MAXY=9999
##MINY=30
##NPOINTS=42
##PEAK TABLE=(XY..XY)
27,100 29,50 39,220 41,460
50,100 51,210 52,40 53,190
55,120 56,691 65,140 66,250
67,520 74,40 75,230 76,210
77,621 78,1001 79,1802 80,661
81,270 91,1451 92,6976 93,2012
94,140 101,40 102,1882 103,290
104,60 105,831 106,601 117,50
119,1051 120,100 130,2042 131,170
133,70 134,9999 147,180 151,50
281,300 282,30
##END=
