##TITLE=4-Ethylbenzoic acid, undec-2-enyl ester
##JCAMP-DX=4.24
##DATA TYPE=MASS SPECTRUM
##ORIGIN=Zaikin V.G., TIPS RAS, Moscow, Russia
##OWNER=NIST Mass Spectrometry Data Center
Collection (C) 2014 copyright by the U.S. Secretary of Commerce
on behalf of the United States of America. All rights reserved.
##$NIST MASS SPEC NO=292548
##MOLFORM=C20 H30 O2
##MW=302
##$NIST SOURCE=MSDC
##XUNITS=M/Z
##YUNITS=RELATIVE INTENSITY
##XFACTOR=1
##YFACTOR=1
##FIRSTX=27
##LASTX=302
##FIRSTY=50
##MAXX=302
##MINX=27
##MAXY=9999
##MINY=20
##NPOINTS=56
##PEAK TABLE=(XY..XY)
27,50 29,80 39,60 41,210
42,30 43,160 51,30 53,50
54,240 55,270 56,40 57,70
65,30 67,180 68,140 69,140
70,20 77,180 78,40 79,250
80,30 81,170 82,160 83,80
89,30 90,50 91,70 95,120
96,110 97,50 103,140 104,60
105,430 106,50 107,40 109,60
110,50 117,30 124,100 131,30
133,9999 134,771 135,180 149,30
150,210 151,270 152,130 161,30
203,120 204,50 217,30 231,80
245,60 259,50 273,60 302,30
##END=
