##TITLE=m-Toluic acid, 2,6-dimethylnon-1-en-3-yn-5-yl ester
##JCAMP-DX=4.24
##DATA TYPE=MASS SPECTRUM
##ORIGIN=Zaikin V.G., TIPS RAS, Moscow, Russia
##OWNER=NIST Mass Spectrometry Data Center
Collection (C) 2014 copyright by the U.S. Secretary of Commerce
on behalf of the United States of America. All rights reserved.
##$NIST MASS SPEC NO=292498
##MOLFORM=C19 H24 O2
##MW=284
##$NIST SOURCE=MSDC
##XUNITS=M/Z
##YUNITS=RELATIVE INTENSITY
##XFACTOR=1
##YFACTOR=1
##FIRSTX=27
##LASTX=284
##FIRSTY=30
##MAXX=284
##MINX=27
##MAXY=9999
##MINY=10
##NPOINTS=52
##PEAK TABLE=(XY..XY)
27,30 28,10 29,30 39,90
41,160 43,90 51,50 53,50
55,60 63,60 65,280 66,30
67,40 69,60 77,220 78,60
79,130 81,40 82,50 83,40
89,80 90,80 91,1651 92,230
93,130 95,90 103,40 105,240
106,230 107,90 117,40 118,40
119,9999 120,801 121,70 123,140
133,400 134,50 135,30 136,370
137,70 148,450 149,60 161,40
165,180 213,60 214,100 241,530
242,100 255,30 269,90 284,50
##END=
