##TITLE=5-Chlorovaleric acid, octadecyl ester
##JCAMP-DX=4.24
##DATA TYPE=MASS SPECTRUM
##ORIGIN=Zaikin V.G., TIPS RAS, Moscow, Russia
##OWNER=NIST Mass Spectrometry Data Center
Collection (C) 2014 copyright by the U.S. Secretary of Commerce
on behalf of the United States of America. All rights reserved.
##$NIST MASS SPEC NO=292318
##MOLFORM=C23 H45 Cl O2
##MW=388
##$NIST SOURCE=MSDC
##XUNITS=M/Z
##YUNITS=RELATIVE INTENSITY
##XFACTOR=1
##YFACTOR=1
##FIRSTX=26
##LASTX=388
##FIRSTY=80
##MAXX=388
##MINX=26
##MAXY=9999
##MINY=10
##NPOINTS=117
##PEAK TABLE=(XY..XY)
26,80 27,380 28,10 29,771
35,30 36,190 38,80 39,390
40,80 41,2282 42,791 43,3813
44,260 45,50 50,30 51,40
53,220 54,691 55,5805 56,2142
57,4294 58,230 59,130 60,50
63,90 65,40 66,60 67,841
68,1091 69,3473 70,2002 71,2392
72,130 73,360 74,30 77,40
79,80 80,50 81,581 82,1752
83,4664 84,1581 85,1581 86,90
87,80 91,1281 92,60 93,420
94,40 95,360 96,871 97,3763
98,1061 99,420 100,370 101,1621
102,110 103,110 109,150 110,380
111,2092 112,751 113,240 115,30
116,70 118,70 119,2352 120,150
121,781 122,40 123,80 124,240
125,1031 126,500 127,150 134,40
135,70 136,1942 137,9999 138,1311
139,3643 140,550 141,110 147,40
152,110 153,230 154,270 155,70
157,60 163,20 166,70 167,140
168,200 169,60 174,30 177,40
180,60 181,80 182,150 183,40
192,230 193,30 194,110 195,60
196,110 197,30 206,20 210,60
224,490 225,110 250,40 252,591
253,140 297,420 298,90 353,90
388,30
##END=
