##TITLE=m-Methoxybenzoic acid, 2-isopropoxyphenyl ester
##JCAMP-DX=4.24
##DATA TYPE=MASS SPECTRUM
##ORIGIN=Zaikin V.G., TIPS RAS, Moscow, Russia
##OWNER=NIST Mass Spectrometry Data Center
Collection (C) 2014 copyright by the U.S. Secretary of Commerce
on behalf of the United States of America. All rights reserved.
##$NIST MASS SPEC NO=292631
##MOLFORM=C17 H18 O4
##MW=286
##$NIST SOURCE=MSDC
##XUNITS=M/Z
##YUNITS=RELATIVE INTENSITY
##XFACTOR=1
##YFACTOR=1
##FIRSTX=27
##LASTX=287
##FIRSTY=30
##MAXX=287
##MINX=27
##MAXY=9999
##MINY=10
##NPOINTS=29
##PEAK TABLE=(XY..XY)
27,30 28,10 39,30 41,50
43,50 51,30 52,40 63,70
64,130 65,30 76,70 77,480
78,40 80,30 81,80 92,410
93,40 107,911 108,80 109,100
110,70 121,40 135,9999 136,721
137,60 152,30 244,60 286,861
287,160
##END=
