##TITLE=Valeric acid, pent-2-en-4-ynyl ester
##JCAMP-DX=4.24
##DATA TYPE=MASS SPECTRUM
##ORIGIN=Zaikin V.G., TIPS RAS, Moscow, Russia
##OWNER=NIST Mass Spectrometry Data Center
Collection (C) 2014 copyright by the U.S. Secretary of Commerce
on behalf of the United States of America. All rights reserved.
##$NIST MASS SPEC NO=292486
##MOLFORM=C10 H14 O2
##MW=166
##$NIST SOURCE=MSDC
##XUNITS=M/Z
##YUNITS=RELATIVE INTENSITY
##XFACTOR=1
##YFACTOR=1
##FIRSTX=26
##LASTX=166
##FIRSTY=140
##MAXX=166
##MINX=26
##MAXY=9999
##MINY=10
##NPOINTS=54
##PEAK TABLE=(XY..XY)
26,140 27,621 28,10 29,1521
31,30 39,1461 40,90 41,1601
42,240 43,320 44,210 45,80
50,200 51,300 52,360 53,260
54,90 55,470 56,150 57,7467
58,330 59,110 60,390 61,30
62,90 63,490 64,360 65,2202
66,330 67,50 69,20 73,160
75,60 77,30 78,80 79,500
80,30 81,380 82,901 83,240
84,40 85,9999 86,550 87,30
91,50 93,100 95,60 101,30
103,40 109,190 123,70 124,40
137,30 166,230
##END=
