##TITLE=p-Toluic acid, heptadecyl ester
##JCAMP-DX=4.24
##DATA TYPE=MASS SPECTRUM
##ORIGIN=Zaikin V.G., TIPS RAS, Moscow, Russia
##OWNER=NIST Mass Spectrometry Data Center
Collection (C) 2014 copyright by the U.S. Secretary of Commerce
on behalf of the United States of America. All rights reserved.
##$NIST MASS SPEC NO=292222
##MOLFORM=C25 H42 O2
##MW=374
##$NIST SOURCE=MSDC
##XUNITS=M/Z
##YUNITS=RELATIVE INTENSITY
##XFACTOR=1
##YFACTOR=1
##FIRSTX=26
##LASTX=374
##FIRSTY=50
##MAXX=374
##MINX=26
##MAXY=9999
##MINY=30
##NPOINTS=66
##PEAK TABLE=(XY..XY)
26,50 27,170 28,140 29,370
39,230 40,40 41,1091 42,280
43,1441 44,90 50,30 51,40
53,80 54,250 55,1371 56,591
57,1021 58,40 63,60 65,360
66,40 67,330 68,360 69,961
70,490 71,400 77,70 79,40
81,190 82,340 83,821 84,300
85,200 89,100 90,120 91,1631
92,250 93,350 94,30 95,100
96,160 97,621 98,170 99,30
105,40 107,30 109,30 110,60
111,270 112,100 118,50 119,3873
120,360 121,40 124,30 125,110
126,50 135,30 136,5815 137,9999
138,801 139,90 140,30 149,40
238,70 374,50
##END=
