##TITLE=m-Toluic acid, 4-hexadecyl ester
##JCAMP-DX=4.24
##DATA TYPE=MASS SPECTRUM
##ORIGIN=Zaikin V.G., TIPS RAS, Moscow, Russia
##OWNER=NIST Mass Spectrometry Data Center
Collection (C) 2014 copyright by the U.S. Secretary of Commerce
on behalf of the United States of America. All rights reserved.
##$NIST MASS SPEC NO=292239
##MOLFORM=C24 H40 O2
##MW=360
##$NIST SOURCE=MSDC
##XUNITS=M/Z
##YUNITS=RELATIVE INTENSITY
##XFACTOR=1
##YFACTOR=1
##FIRSTX=26
##LASTX=241
##FIRSTY=50
##MAXX=241
##MINX=26
##MAXY=9999
##MINY=20
##NPOINTS=95
##PEAK TABLE=(XY..XY)
26,50 27,190 28,130 29,340
36,90 38,60 39,270 40,50
41,1001 42,260 43,1141 44,150
45,60 50,40 51,70 53,80
54,190 55,1201 56,651 57,1001
58,50 59,40 62,20 63,90
64,30 65,400 66,50 67,290
68,230 69,1011 70,721 71,530
72,30 77,130 78,30 79,80
81,200 82,380 83,1041 84,571
85,340 86,40 89,140 90,160
91,2342 92,340 93,270 94,50
95,110 96,280 97,1141 98,390
99,100 105,100 107,40 109,50
110,180 111,761 112,270 113,50
118,90 119,9999 120,861 121,70
123,30 124,110 125,420 126,200
127,30 133,50 134,120 135,230
136,1041 137,4824 138,480 139,200
140,140 149,30 152,80 153,110
154,110 162,80 166,30 167,70
168,60 180,30 181,80 182,50
191,60 194,30 196,130 197,30
224,1271 225,210 241,150
##END=
