##TITLE=4-Butylbenzoic acid, 1-adamantylmethyl ester
##JCAMP-DX=4.24
##DATA TYPE=MASS SPECTRUM
##ORIGIN=Zaikin V.G., TIPS RAS, Moscow, Russia
##OWNER=NIST Mass Spectrometry Data Center
Collection (C) 2014 copyright by the U.S. Secretary of Commerce
on behalf of the United States of America. All rights reserved.
##$NIST MASS SPEC NO=292208
##MOLFORM=C22 H30 O2
##MW=326
##$NIST SOURCE=MSDC
##XUNITS=M/Z
##YUNITS=RELATIVE INTENSITY
##XFACTOR=1
##YFACTOR=1
##FIRSTX=27
##LASTX=327
##FIRSTY=80
##MAXX=327
##MINX=27
##MAXY=9999
##MINY=20
##NPOINTS=67
##PEAK TABLE=(XY..XY)
27,80 28,20 29,70 39,130
41,300 43,90 50,30 51,60
53,100 55,280 56,30 57,60
63,50 65,150 66,60 67,410
68,30 69,110 70,190 77,390
78,200 79,1091 80,440 81,410
82,40 89,140 90,370 91,1571
92,1812 93,1241 94,270 95,70
103,130 104,140 105,711 106,550
107,651 108,50 115,80 116,30
117,60 118,240 119,340 120,130
121,40 131,120 133,430 134,100
135,9999 136,1011 137,50 147,50
148,7707 149,1001 150,70 161,2552
162,300 163,50 165,40 174,40
178,110 179,50 191,30 269,110
283,120 326,851 327,190
##END=
