##TITLE=3-Fluorobenzoic acid, 2-methyloct-5-yn-4-yl ester
##JCAMP-DX=4.24
##DATA TYPE=MASS SPECTRUM
##ORIGIN=Zaikin V.G., TIPS RAS, Moscow, Russia
##OWNER=NIST Mass Spectrometry Data Center
Collection (C) 2014 copyright by the U.S. Secretary of Commerce
on behalf of the United States of America. All rights reserved.
##$NIST MASS SPEC NO=292605
##MOLFORM=C16 H19 F O2
##MW=262
##$NIST SOURCE=MSDC
##XUNITS=M/Z
##YUNITS=RELATIVE INTENSITY
##XFACTOR=1
##YFACTOR=1
##FIRSTX=26
##LASTX=247
##FIRSTY=30
##MAXX=247
##MINX=26
##MAXY=9999
##MINY=30
##NPOINTS=65
##PEAK TABLE=(XY..XY)
26,30 27,270 28,100 29,260
39,310 40,60 41,671 42,40
43,561 44,60 50,100 51,130
52,70 53,200 54,30 55,340
56,60 57,150 63,40 65,150
66,90 67,180 68,100 69,330
70,30 74,50 75,350 76,40
77,350 78,80 79,981 80,250
81,410 82,30 83,80 91,450
92,90 93,1231 94,220 95,1902
96,200 97,60 98,30 105,110
107,1311 108,110 109,30 121,50
122,360 123,9999 124,711 125,40
139,220 140,340 141,50 165,30
177,30 191,110 192,90 205,90
206,130 219,1211 220,210 233,40
247,60
##END=
