##TITLE=Phenylacetic acid, 2-methyloct-5-yn-4-yl ester
##JCAMP-DX=4.24
##DATA TYPE=MASS SPECTRUM
##ORIGIN=Zaikin V.G., TIPS RAS, Moscow, Russia
##OWNER=NIST Mass Spectrometry Data Center
Collection (C) 2014 copyright by the U.S. Secretary of Commerce
on behalf of the United States of America. All rights reserved.
##$NIST MASS SPEC NO=292534
##MOLFORM=C17 H22 O2
##MW=258
##$NIST SOURCE=MSDC
##XUNITS=M/Z
##YUNITS=RELATIVE INTENSITY
##XFACTOR=1
##YFACTOR=1
##FIRSTX=27
##LASTX=258
##FIRSTY=170
##MAXX=258
##MINX=27
##MAXY=9999
##MINY=20
##NPOINTS=95
##PEAK TABLE=(XY..XY)
27,170 28,60 29,160 36,80
38,30 39,410 40,80 41,861
42,50 43,1191 44,170 50,70
51,190 52,100 53,360 54,40
55,1011 56,80 57,390 62,40
63,190 64,70 65,1021 66,180
67,1121 68,100 69,581 70,40
77,550 78,130 79,1431 80,270
81,5935 82,420 83,150 85,50
89,330 90,340 91,9999 92,981
93,1061 94,250 95,821 96,80
97,300 98,410 99,20 105,170
106,30 107,1031 108,220 109,30
111,210 112,50 115,30 117,40
118,1201 119,671 120,60 121,160
122,611 123,811 124,170 125,380
126,30 128,30 129,160 136,140
137,40 139,661 140,6055 141,621
142,50 143,110 145,30 157,40
161,160 167,250 169,40 170,30
171,50 173,30 175,50 187,100
188,40 199,30 201,140 202,150
203,60 215,2833 216,470 217,40
229,50 243,50 258,70
##END=
