##TITLE=2,6-Difluorobenzoic acid, 3-methylbut-2-enyl ester
##JCAMP-DX=4.24
##DATA TYPE=MASS SPECTRUM
##ORIGIN=Zaikin V.G., TIPS RAS, Moscow, Russia
##OWNER=NIST Mass Spectrometry Data Center
Collection (C) 2014 copyright by the U.S. Secretary of Commerce
on behalf of the United States of America. All rights reserved.
##$NIST MASS SPEC NO=292582
##MOLFORM=C12 H12 F2 O2
##MW=226
##$NIST SOURCE=MSDC
##XUNITS=M/Z
##YUNITS=RELATIVE INTENSITY
##XFACTOR=1
##YFACTOR=1
##FIRSTX=27
##LASTX=226
##FIRSTY=90
##MAXX=226
##MINX=27
##MAXY=9999
##MINY=30
##NPOINTS=39
##PEAK TABLE=(XY..XY)
27,90 28,30 29,80 36,30
39,210 40,110 41,931 42,90
44,30 50,30 51,30 53,410
54,50 55,50 57,60 62,40
63,370 66,30 67,1311 68,3183
69,1551 70,80 83,50 85,410
93,70 94,50 112,60 113,871
114,160 127,50 140,30 141,9999
142,691 143,70 158,180 159,310
167,50 184,30 226,220
##END=
