##TITLE=4-Ethylbenzoic acid, octyl ester
##JCAMP-DX=4.24
##DATA TYPE=MASS SPECTRUM
##ORIGIN=Zaikin V.G., TIPS RAS, Moscow, Russia
##OWNER=NIST Mass Spectrometry Data Center
Collection (C) 2014 copyright by the U.S. Secretary of Commerce
on behalf of the United States of America. All rights reserved.
##$NIST MASS SPEC NO=292345
##MOLFORM=C17 H26 O2
##MW=262
##$NIST SOURCE=MSDC
##XUNITS=M/Z
##YUNITS=RELATIVE INTENSITY
##XFACTOR=1
##YFACTOR=1
##FIRSTX=27
##LASTX=262
##FIRSTY=90
##MAXX=262
##MINX=27
##MAXY=9999
##MINY=30
##NPOINTS=61
##PEAK TABLE=(XY..XY)
27,90 28,50 29,140 36,30
39,100 41,380 42,140 43,260
44,50 50,30 51,80 53,60
54,40 55,360 56,320 57,120
63,50 65,60 67,60 68,90
69,310 70,360 71,60 76,40
77,571 78,150 79,831 80,60
82,60 83,260 84,250 89,140
90,200 91,400 92,30 97,30
102,50 103,500 104,230 105,2963
106,350 107,170 112,210 118,50
119,60 131,100 132,70 133,7667
134,721 135,981 136,100 148,60
149,70 150,7517 151,9999 152,851
153,70 163,80 191,40 245,50
262,120
##END=
