##TITLE=2,3,4-Trifluorobenzoic acid, 3-chloroprop-2-enyl ester
##JCAMP-DX=4.24
##DATA TYPE=MASS SPECTRUM
##ORIGIN=Zaikin V.G., TIPS RAS, Moscow, Russia
##OWNER=NIST Mass Spectrometry Data Center
Collection (C) 2014 copyright by the U.S. Secretary of Commerce
on behalf of the United States of America. All rights reserved.
##$NIST MASS SPEC NO=292561
##MOLFORM=C10 H6 Cl F3 O2
##MW=250
##$NIST SOURCE=MSDC
##XUNITS=M/Z
##YUNITS=RELATIVE INTENSITY
##XFACTOR=1
##YFACTOR=1
##FIRSTX=27
##LASTX=250
##FIRSTY=50
##MAXX=250
##MINX=27
##MAXY=9999
##MINY=10
##NPOINTS=45
##PEAK TABLE=(XY..XY)
27,50 28,10 31,30 36,110
38,70 39,390 44,40 49,130
51,40 57,30 61,60 62,70
63,30 68,30 73,20 74,70
75,941 76,40 77,280 79,30
80,50 81,741 82,40 91,310
93,110 99,40 111,30 112,70
130,60 131,1331 132,150 151,40
159,9999 160,721 161,40 169,50
171,70 176,260 177,50 187,40
205,60 215,1832 216,200 221,30
250,50
##END=
