##TITLE=p-Methoxybenzoic acid, 2-isopropoxyphenyl ester
##JCAMP-DX=4.24
##DATA TYPE=MASS SPECTRUM
##ORIGIN=Zaikin V.G., TIPS RAS, Moscow, Russia
##OWNER=NIST Mass Spectrometry Data Center
Collection (C) 2014 copyright by the U.S. Secretary of Commerce
on behalf of the United States of America. All rights reserved.
##$NIST MASS SPEC NO=292652
##MOLFORM=C17 H18 O4
##MW=286
##$NIST SOURCE=MSDC
##XUNITS=M/Z
##YUNITS=RELATIVE INTENSITY
##XFACTOR=1
##YFACTOR=1
##FIRSTX=27
##LASTX=287
##FIRSTY=30
##MAXX=287
##MINX=27
##MAXY=9999
##MINY=30
##NPOINTS=27
##PEAK TABLE=(XY..XY)
27,30 39,30 41,30 43,30
50,30 51,30 52,30 63,70
64,110 65,30 76,50 77,450
78,30 81,70 92,360 93,30
104,40 107,250 109,90 110,40
121,30 135,9999 136,731 137,60
152,200 286,470 287,90
##END=
