##TITLE=4-Butylbenzoic acid, octadecyl ester
##JCAMP-DX=4.24
##DATA TYPE=MASS SPECTRUM
##ORIGIN=Zaikin V.G., TIPS RAS, Moscow, Russia
##OWNER=NIST Mass Spectrometry Data Center
Collection (C) 2014 copyright by the U.S. Secretary of Commerce
on behalf of the United States of America. All rights reserved.
##$NIST MASS SPEC NO=292330
##MOLFORM=C29 H50 O2
##MW=430
##$NIST SOURCE=MSDC
##XUNITS=M/Z
##YUNITS=RELATIVE INTENSITY
##XFACTOR=1
##YFACTOR=1
##FIRSTX=27
##LASTX=431
##FIRSTY=70
##MAXX=431
##MINX=27
##MAXY=9999
##MINY=20
##NPOINTS=69
##PEAK TABLE=(XY..XY)
27,70 28,40 29,120 39,70
41,380 42,90 43,561 44,40
53,20 54,80 55,601 56,210
57,561 65,30 67,140 68,140
69,470 70,190 71,200 77,50
79,50 81,100 82,160 83,410
84,130 85,120 89,40 90,130
91,591 92,350 93,50 95,60
96,90 97,340 98,80 103,40
104,30 105,100 107,50 110,30
111,160 112,50 117,40 118,120
119,110 123,140 125,70 126,30
131,100 133,180 134,20 135,390
136,1992 137,290 138,30 149,60
161,2272 162,290 163,40 176,40
177,50 178,5205 179,9999 180,1031
181,90 191,40 252,60 430,190
431,60
##END=
