##TITLE=5-Chlorovaleric acid, 3-methylbut-2-enyl ester
##JCAMP-DX=4.24
##DATA TYPE=MASS SPECTRUM
##ORIGIN=Zaikin V.G., TIPS RAS, Moscow, Russia
##OWNER=NIST Mass Spectrometry Data Center
Collection (C) 2014 copyright by the U.S. Secretary of Commerce
on behalf of the United States of America. All rights reserved.
##$NIST MASS SPEC NO=292474
##MOLFORM=C10 H17 Cl O2
##MW=204
##$NIST SOURCE=MSDC
##XUNITS=M/Z
##YUNITS=RELATIVE INTENSITY
##XFACTOR=1
##YFACTOR=1
##FIRSTX=26
##LASTX=206
##FIRSTY=80
##MAXX=206
##MINX=26
##MAXY=9999
##MINY=10
##NPOINTS=64
##PEAK TABLE=(XY..XY)
26,80 27,771 28,10 29,791
31,20 36,150 38,90 39,841
40,410 41,3103 42,470 43,240
44,110 45,60 49,110 50,40
51,140 52,80 53,1241 54,180
55,3763 56,280 57,180 58,30
59,40 60,40 62,50 63,210
64,20 65,130 66,100 67,4064
68,9999 69,5635 70,290 71,310
73,150 75,40 79,20 82,20
83,290 84,60 85,801 86,210
87,30 91,3894 92,170 93,1251
94,50 100,50 101,80 103,240
104,20 105,80 118,50 119,7227
120,380 121,2232 122,120 137,60
162,70 164,20 204,130 206,40
##END=
