##TITLE=5-Chlorovaleric acid, 2-methyloct-5-yn-4-yl ester
##JCAMP-DX=4.24
##DATA TYPE=MASS SPECTRUM
##ORIGIN=Zaikin V.G., TIPS RAS, Moscow, Russia
##OWNER=NIST Mass Spectrometry Data Center
Collection (C) 2014 copyright by the U.S. Secretary of Commerce
on behalf of the United States of America. All rights reserved.
##$NIST MASS SPEC NO=292478
##MOLFORM=C14 H23 Cl O2
##MW=258
##$NIST SOURCE=MSDC
##XUNITS=M/Z
##YUNITS=RELATIVE INTENSITY
##XFACTOR=1
##YFACTOR=1
##FIRSTX=26
##LASTX=260
##FIRSTY=130
##MAXX=260
##MINX=26
##MAXY=9999
##MINY=10
##NPOINTS=119
##PEAK TABLE=(XY..XY)
26,130 27,1191 28,10 29,1541
30,30 36,210 37,30 38,140
39,1231 40,250 41,2552 42,470
43,2402 44,220 45,100 49,140
50,110 51,380 52,240 53,971
54,260 55,7227 56,591 57,861
58,70 59,60 60,80 62,90
63,370 64,80 65,601 66,440
67,1021 68,400 69,1231 70,150
71,180 72,40 73,240 74,30
75,50 77,1401 78,390 79,4504
80,1311 81,2943 82,250 83,1281
84,210 85,400 87,40 89,40
90,30 91,7046 92,530 93,6606
94,1011 95,490 96,100 97,1571
98,3313 99,230 100,80 101,160
103,40 105,611 106,100 107,9438
108,871 109,110 111,1601 112,260
118,100 119,9999 120,561 121,3123
122,1521 123,771 124,150 125,1932
126,170 137,100 138,30 139,911
140,5685 141,611 142,40 149,30
151,50 157,40 159,30 161,110
163,30 167,1181 168,150 173,70
175,50 181,30 187,180 188,70
189,60 201,280 202,190 203,140
204,60 215,7277 216,1041 217,2322
218,330 219,30 223,150 229,140
231,40 243,460 244,60 245,140
258,210 259,30 260,70
##END=
