##TITLE=1-Bromo-3-fluoro-6-dimethyl-(allyl)-silyloxybenzene
##JCAMP-DX=4.24
##DATA TYPE=MASS SPECTRUM
##ORIGIN=Zaikin V.G., TIPS RAS, Moscow, Russia
##OWNER=NIST Mass Spectrometry Data Center
Collection (C) 2014 copyright by the U.S. Secretary of Commerce
on behalf of the United States of America. All rights reserved.
##$NIST MASS SPEC NO=292679
##MOLFORM=C11 H14 Br F O Si
##MW=288
##$NIST SOURCE=MSDC
##XUNITS=M/Z
##YUNITS=RELATIVE INTENSITY
##XFACTOR=1
##YFACTOR=1
##FIRSTX=27
##LASTX=276
##FIRSTY=40
##MAXX=276
##MINX=27
##MAXY=9999
##MINY=10
##NPOINTS=99
##PEAK TABLE=(XY..XY)
27,40 28,10 29,40 31,40
36,150 38,50 39,160 40,30
41,80 43,290 44,190 45,110
47,190 50,50 51,60 52,30
53,40 55,70 57,80 58,40
59,280 62,40 63,210 67,30
69,40 71,70 72,30 73,30
74,40 75,100 77,230 78,30
79,90 81,90 82,130 83,220
89,60 91,200 93,60 94,190
95,140 96,30 97,60 99,110
101,30 103,30 105,30 107,460
108,90 109,1351 110,190 111,190
115,40 123,470 124,320 125,210
130,30 133,80 135,30 136,30
137,3623 138,340 139,3803 140,270
141,230 143,80 149,50 151,150
152,40 153,450 154,50 155,30
163,110 165,260 166,190 167,2082
168,390 169,140 179,100 187,30
189,30 190,50 192,50 193,150
194,30 217,140 219,150 231,40
233,70 235,30 247,9719 248,1341
249,9999 250,1321 251,400 273,380
274,50 275,380 276,50
##END=
