##TITLE=1-Bromo-3-fluoro-6-diisopropyl-silyloxybenzene
##JCAMP-DX=4.24
##DATA TYPE=MASS SPECTRUM
##ORIGIN=Zaikin V.G., TIPS RAS, Moscow, Russia
##OWNER=NIST Mass Spectrometry Data Center
Collection (C) 2014 copyright by the U.S. Secretary of Commerce
on behalf of the United States of America. All rights reserved.
##$NIST MASS SPEC NO=292690
##MOLFORM=C12 H18 Br F O Si
##MW=304
##$NIST SOURCE=MSDC
##XUNITS=M/Z
##YUNITS=RELATIVE INTENSITY
##XFACTOR=1
##YFACTOR=1
##FIRSTX=28
##LASTX=308
##FIRSTY=10
##MAXX=308
##MINX=28
##MAXY=9999
##MINY=10
##NPOINTS=65
##PEAK TABLE=(XY..XY)
28,10 36,110 38,30 44,40
79,50 91,50 94,60 95,170
96,40 107,120 109,280 110,30
111,30 116,30 123,340 124,20
125,360 137,70 138,30 139,1001
140,140 141,80 143,30 151,270
152,30 153,1311 154,290 155,210
165,70 167,60 169,40 179,40
181,70 182,110 190,40 192,40
205,30 217,661 218,110 219,1051
220,150 221,410 222,50 231,30
233,4034 234,571 235,4034 236,561
237,180 245,60 247,110 249,50
259,30 260,30 261,9699 262,1561
263,9999 264,1551 265,470 266,40
304,641 305,140 306,671 307,130
308,30
##END=
