##TITLE=m-Toluic acid, tetradecyl ester
##JCAMP-DX=4.24
##DATA TYPE=MASS SPECTRUM
##ORIGIN=Zaikin V.G., TIPS RAS, Moscow, Russia
##OWNER=NIST Mass Spectrometry Data Center
Collection (C) 2014 copyright by the U.S. Secretary of Commerce
on behalf of the United States of America. All rights reserved.
##$NIST MASS SPEC NO=292360
##MOLFORM=C22 H36 O2
##MW=332
##$NIST SOURCE=MSDC
##XUNITS=M/Z
##YUNITS=RELATIVE INTENSITY
##XFACTOR=1
##YFACTOR=1
##FIRSTX=27
##LASTX=333
##FIRSTY=90
##MAXX=333
##MINX=27
##MAXY=9999
##MINY=30
##NPOINTS=59
##PEAK TABLE=(XY..XY)
27,90 28,40 29,210 39,130
41,601 42,150 43,681 51,30
53,40 54,130 55,771 56,380
57,470 63,40 65,270 67,180
68,210 69,601 70,380 71,200
77,60 81,90 82,200 83,561
84,260 85,110 89,100 90,120
91,1822 92,250 93,370 94,30
95,40 96,100 97,450 98,160
105,30 110,40 111,220 112,110
118,70 119,5035 120,430 121,40
125,100 126,60 135,50 136,8668
137,9999 138,871 139,90 140,40
149,60 168,80 177,30 196,270
197,40 332,130 333,40
##END=
