##TITLE=2-Chlorobenzoic acid, 4-hexadecyl ester
##JCAMP-DX=4.24
##DATA TYPE=MASS SPECTRUM
##ORIGIN=Zaikin V.G., TIPS RAS, Moscow, Russia
##OWNER=NIST Mass Spectrometry Data Center
Collection (C) 2014 copyright by the U.S. Secretary of Commerce
on behalf of the United States of America. All rights reserved.
##$NIST MASS SPEC NO=292282
##MOLFORM=C23 H37 Cl O2
##MW=380
##$NIST SOURCE=MSDC
##XUNITS=M/Z
##YUNITS=RELATIVE INTENSITY
##XFACTOR=1
##YFACTOR=1
##FIRSTX=27
##LASTX=242
##FIRSTY=40
##MAXX=242
##MINX=27
##MAXY=9999
##MINY=20
##NPOINTS=86
##PEAK TABLE=(XY..XY)
27,40 28,30 29,80 36,150
38,40 39,70 40,40 41,390
42,100 43,520 44,180 50,50
51,40 53,30 54,100 55,701
56,400 57,691 58,40 67,190
68,150 69,731 70,550 71,460
74,30 75,210 76,120 77,160
78,40 79,40 81,160 82,310
83,911 84,500 85,340 86,40
91,80 92,40 95,100 96,240
97,1101 98,390 99,100 104,140
105,170 109,40 110,160 111,1812
112,470 113,380 114,30 121,50
123,30 124,100 125,410 126,210
135,120 136,50 138,100 139,9999
140,821 141,3313 142,260 152,70
153,100 154,290 155,30 156,370
157,4264 158,440 159,1411 160,110
161,40 166,20 167,60 168,70
178,40 181,70 182,50 196,180
197,50 211,30 224,1491 225,260
241,330 242,50
##END=
