##TITLE=4-Ethylbenzoic acid, tetradecyl ester
##JCAMP-DX=4.24
##DATA TYPE=MASS SPECTRUM
##ORIGIN=Zaikin V.G., TIPS RAS, Moscow, Russia
##OWNER=NIST Mass Spectrometry Data Center
Collection (C) 2014 copyright by the U.S. Secretary of Commerce
on behalf of the United States of America. All rights reserved.
##$NIST MASS SPEC NO=292348
##MOLFORM=C23 H38 O2
##MW=346
##$NIST SOURCE=MSDC
##XUNITS=M/Z
##YUNITS=RELATIVE INTENSITY
##XFACTOR=1
##YFACTOR=1
##FIRSTX=27
##LASTX=347
##FIRSTY=60
##MAXX=347
##MINX=27
##MAXY=9999
##MINY=20
##NPOINTS=64
##PEAK TABLE=(XY..XY)
27,60 28,50 29,120 39,60
41,350 42,90 43,430 44,30
51,20 53,30 54,80 55,500
56,220 57,300 67,120 68,130
69,390 70,220 71,130 77,230
78,60 79,440 80,30 81,60
82,130 83,350 84,160 85,70
89,40 90,80 91,210 95,30
96,60 97,280 98,100 103,210
104,110 105,1431 106,190 107,80
111,130 112,60 119,40 125,50
126,40 131,50 132,40 133,3924
134,380 135,430 136,50 148,40
149,40 150,6796 151,9999 152,871
153,80 163,40 168,40 191,30
196,120 329,30 346,120 347,30
##END=
