##TITLE=3-Cyclopentylpropionic acid, nonyl ester
##JCAMP-DX=4.24
##DATA TYPE=MASS SPECTRUM
##ORIGIN=Zaikin V.G., TIPS RAS, Moscow, Russia
##OWNER=NIST Mass Spectrometry Data Center
Collection (C) 2014 copyright by the U.S. Secretary of Commerce
on behalf of the United States of America. All rights reserved.
##$NIST MASS SPEC NO=292268
##MOLFORM=C17 H32 O2
##MW=268
##$NIST SOURCE=MSDC
##XUNITS=M/Z
##YUNITS=RELATIVE INTENSITY
##XFACTOR=1
##YFACTOR=1
##FIRSTX=26
##LASTX=269
##FIRSTY=150
##MAXX=269
##MINX=26
##MAXY=9999
##MINY=30
##NPOINTS=96
##PEAK TABLE=(XY..XY)
26,150 27,671 28,470 29,1191
30,30 31,50 36,30 38,40
39,741 40,200 41,3813 42,1141
43,3994 44,260 45,50 50,30
51,60 52,40 53,410 54,671
55,5845 56,3203 57,2833 58,160
59,50 60,631 61,1792 62,50
65,90 66,130 67,1581 68,1251
69,3023 70,3053 71,2722 72,160
73,2602 74,430 75,90 77,90
78,40 79,841 80,561 81,1672
82,2042 83,6045 84,2732 85,1682
86,120 87,80 91,60 93,50
94,50 95,751 96,1011 97,3773
98,2642 99,280 100,270 101,160
102,40 105,60 106,110 107,1561
108,140 109,30 111,140 113,100
114,310 115,100 116,330 117,30
122,130 123,470 124,761 125,5095
126,4174 127,611 128,40 129,50
130,30 140,50 141,390 142,611
143,9999 144,821 145,60 157,50
169,70 171,250 183,80 186,100
187,120 199,601 200,70 269,40
##END=
