##TITLE=5-Chlorovaleric acid, tridec-2-ynyl ester
##JCAMP-DX=4.24
##DATA TYPE=MASS SPECTRUM
##ORIGIN=Zaikin V.G., TIPS RAS, Moscow, Russia
##OWNER=NIST Mass Spectrometry Data Center
Collection (C) 2014 copyright by the U.S. Secretary of Commerce
on behalf of the United States of America. All rights reserved.
##$NIST MASS SPEC NO=292482
##MOLFORM=C18 H31 Cl O2
##MW=314
##$NIST SOURCE=MSDC
##XUNITS=M/Z
##YUNITS=RELATIVE INTENSITY
##XFACTOR=1
##YFACTOR=1
##FIRSTX=26
##LASTX=251
##FIRSTY=70
##MAXX=251
##MINX=26
##MAXY=9999
##MINY=30
##NPOINTS=113
##PEAK TABLE=(XY..XY)
26,70 27,520 28,370 29,941
36,80 39,490 40,110 41,1611
42,330 43,1852 44,110 49,40
50,40 51,160 52,430 53,571
54,400 55,4514 56,490 57,520
58,70 59,100 63,140 65,280
66,330 67,1121 68,300 69,681
70,490 71,430 72,50 73,50
77,520 78,200 79,1541 80,480
81,1111 82,480 83,611 84,350
85,140 86,40 91,5445 92,300
93,1852 94,561 95,1111 96,450
97,751 98,170 99,130 100,110
101,150 105,130 106,30 107,450
108,270 109,350 110,180 111,3313
112,360 113,160 114,130 118,110
119,9999 120,540 121,3003 122,310
123,110 124,130 125,520 126,90
127,110 128,100 134,90 135,330
136,190 137,190 138,290 139,110
141,30 147,100 148,30 149,170
150,40 151,170 152,480 153,120
155,40 159,40 161,40 162,30
163,40 165,30 167,40 174,50
176,40 177,150 178,130 179,40
181,90 187,601 188,240 189,230
190,90 195,270 196,300 197,60
201,70 203,40 215,30 223,40
251,90
##END=
